x,y,R,s,phi,sigma_xx,sigma_yy,tau_xy,epsilon_xx,epsilon_yy,epsilon_xy
-2.120000,-1.680000,0.320052,0.080000,12075.804957,1439061.099198,-1288131.604571,1145601.552930,0.000026,-0.000025,0.000022
-2.040000,-1.680000,0.320026,0.080000,4863.472761,-1254434.419940,977977.146875,-7090035.294395,-0.000022,0.000020,-0.000134
-1.960000,-1.680000,0.320301,0.080000,17461.879308,-15790861.369079,15507128.740942,15107502.959372,-0.000296,0.000294,0.000285
-1.880000,-1.680000,0.320061,0.080000,73451.985290,51324592.673188,-50809100.535321,17608367.525078,0.000964,-0.000960,0.000332
-1.800000,-1.680000,0.320020,0.080000,-124126.172602,1971561.868445,-2251392.554399,-106255852.800364,0.000039,-0.000041,-0.002002
-1.720000,-1.680000,0.320281,0.080000,-233870.420841,-185410501.135233,184205380.220834,24009207.883018,-0.003486,0.003477,0.000452
-1.640000,-1.680000,0.320070,0.080000,558423.139818,46031813.391814,-45678555.964637,284704852.319453,0.000865,-0.000863,0.005364
-1.560000,-1.680000,0.320015,0.080000,959839.831062,420875766.355104,-417800416.574789,-26290689.908457,0.007912,-0.007889,-0.000495
-1.480000,-1.680000,0.320261,0.080000,-840207.844371,74353376.492116,-73709596.159632,-555593166.669653,0.001397,-0.001392,-0.010468
-1.400000,-1.680000,0.320081,0.080000,-2855686.381635,-669544441.128339,664608306.063056,-290602544.240703,-0.012587,0.012550,-0.005475
-1.320000,-1.680000,0.320011,0.080000,-1128937.168276,-633719479.523866,628886102.869467,630720290.717355,-0.011912,0.011876,0.011883
-1.240000,-1.680000,0.320242,0.080000,3991825.063153,377914580.651401,-375299715.626762,988194749.373799,0.007105,-0.007086,0.018618
-1.160000,-1.680000,0.320092,0.080000,6820750.137279,1233899821.864815,-1224840619.528733,161583705.877793,0.023196,-0.023128,0.003044
-1.080000,-1.680000,0.320007,0.080000,2600032.965539,884392406.415276,-877717865.573565,-1079147562.029039,0.016625,-0.016574,-0.020332
-1.000000,-1.680000,0.320224,0.080000,-6590876.221943,-463984289.484601,460884411.724642,-1468990519.895804,-0.008724,0.008701,-0.027677
-0.920000,-1.680000,0.320104,0.080000,-12968607.656290,-1617171637.004241,1605599496.868926,-545347566.115020,-0.030403,0.030316,-0.010275
-0.840000,-1.680000,0.320004,0.080000,-9877581.570324,-1548917834.369659,1537647881.016655,982263687.681947,-0.029119,0.029034,0.018506
-0.760000,-1.680000,0.320206,0.080000,2242356.493337,-245716693.911635,243660066.165035,1914661058.999919,-0.004618,0.004602,0.036073
-0.680000,-1.680000,0.320116,0.080000,15723419.493122,1365937729.428282,-1356492361.324485,1528363725.938298,0.025682,-0.025610,0.028795
-0.600000,-1.680000,0.320002,0.080000,21067874.506977,2163640116.316313,-2148410735.439402,55351177.393266,0.040678,-0.040563,0.001043
-0.520000,-1.680000,0.320190,0.080000,13569113.304676,1601288666.024536,-1589881083.235139,-1551495845.464062,0.030105,-0.030019,-0.029231
-0.440000,-1.680000,0.320129,0.080000,-3421348.914550,12082762.407260,-11761567.171963,-2281128998.029885,0.000226,-0.000223,-0.042978
-0.360000,-1.680000,0.320001,0.080000,-20437415.304279,-1656063117.930434,1644693585.137883,-1681820472.161121,-0.031137,0.031051,-0.031686
-0.280000,-1.680000,0.320173,0.080000,-27529005.022030,-2430824928.660318,2413973093.372833,-89421423.532718,-0.045703,0.045576,-0.001685
-0.200000,-1.680000,0.320143,0.080000,-20072961.373223,-1864334542.800647,1851342242.488315,1602682720.652957,-0.035052,0.034954,0.030195
-0.120000,-1.680000,0.320000,0.080000,-1467163.084126,-257785093.724437,255903804.246616,2456408815.752311,-0.004846,0.004832,0.046280
-0.040000,-1.680000,0.320158,0.080000,18661542.746484,1521647517.117086,-1511190892.066762,1995829193.949411,0.028610,-0.028531,0.037603
0.040000,-1.680000,0.320158,0.080000,29652015.431371,2511219273.848010,-2493887272.006197,454524375.779525,0.047215,-0.047084,0.008564
0.120000,-1.680000,0.320000,0.080000,25582394.095044,2164487206.853538,-2149548521.817781,-1348432913.229924,0.040696,-0.040583,-0.025405
0.200000,-1.680000,0.320143,0.080000,8542349.796263,649403718.643870,-644976942.215768,-2437240248.828898,0.012210,-0.012177,-0.045919
0.280000,-1.680000,0.320173,0.080000,-12386537.393158,-1221176909.596226,1212615069.491664,-2202214523.267135,-0.022959,0.022895,-0.041491
0.360000,-1.680000,0.320001,0.080000,-26013553.512159,-2408740776.621773,2391952326.705534,-752083097.736822,-0.045287,0.045161,-0.014170
0.440000,-1.680000,0.320129,0.080000,-25252945.970815,-2223450583.683415,2208032556.844583,1105274479.532691,-0.041804,0.041688,0.020824
0.520000,-1.680000,0.320190,0.080000,-11222094.915709,-753005119.289483,747958492.322190,2284654629.967108,-0.014159,0.014120,0.043044
0.600000,-1.680000,0.320002,0.080000,7321592.351449,1124381350.007648,-1116224721.196704,2060390050.293199,0.021138,-0.021076,0.038819
0.680000,-1.680000,0.320116,0.080000,19236907.997964,2223391028.814661,-2207576888.977509,563461460.164992,0.041801,-0.041681,0.010616
0.760000,-1.680000,0.320206,0.080000,18023857.764968,1814855881.919911,-1802110655.108073,-1215825135.470817,0.034121,-0.034025,-0.022907
0.840000,-1.680000,0.320004,0.080000,6082147.875546,195769750.389816,-194694880.681720,-2034948434.656963,0.003682,-0.003674,-0.038340
0.920000,-1.680000,0.320104,0.080000,-7103707.763148,-1415435640.073473,1404990887.271975,-1309912316.908644,-0.026609,0.026530,-0.024680
1.000000,-1.680000,0.320224,0.080000,-12127602.196832,-1756784200.760108,1744067886.432356,335018893.370229,-0.033027,0.032931,0.006312
1.080000,-1.680000,0.320007,0.080000,-6965098.922866,-614399667.850096,610168850.358068,1472647512.352187,-0.011552,0.011520,0.027746
1.160000,-1.680000,0.320092,0.080000,1870332.301037,867796712.540900,-861189746.397856,1125013889.336766,0.016312,-0.016263,0.021196
1.240000,-1.680000,0.320242,0.080000,5921133.427937,1224320003.391541,-1215278568.324082,-207370286.885928,0.023016,-0.022948,-0.003907
1.320000,-1.680000,0.320011,0.080000,3063239.811494,252050973.523522,-250358778.293407,-995419505.518049,0.004739,-0.004726,-0.018754
1.400000,-1.680000,0.320081,0.080000,-1398290.132051,-704397145.968417,699069509.449115,-460860341.248634,-0.013241,0.013201,-0.008683
1.480000,-1.680000,0.320261,0.080000,-2144374.277229,-493142522.784893,489567176.045237,426918574.862715,-0.009271,0.009244,0.008043
1.560000,-1.680000,0.320015,0.080000,-109598.564594,253458490.201801,-251587472.139944,404337305.130195,0.004765,-0.004751,0.007618
1.640000,-1.680000,0.320070,0.080000,779749.567058,293192660.206848,-291131341.862582,-154374939.028339,0.005512,-0.005497,-0.002909
1.720000,-1.680000,0.320281,0.080000,93360.066753,-108551191.974013,108037867.180989,-176129389.840360,-0.002042,0.002038,-0.003318
1.800000,-1.680000,0.320020,0.080000,-190094.634467,-87695375.612684,86887385.269533,79353748.063121,-0.001648,0.001642,0.001495
1.880000,-1.680000,0.320061,0.080000,15051.750500,50907831.806749,-50767664.612447,25998038.295528,0.000958,-0.000957,0.000490
1.960000,-1.680000,0.320301,0.080000,25313.734694,-54680.513987,534820.802099,-22813202.080160,-0.000004,0.000007,-0.000430
2.040000,-1.680000,0.320026,0.080000,-1108.755008,-6069401.079421,5479619.707841,4788689.832388,-0.000111,0.000107,0.000090
2.120000,-1.680000,0.320052,0.080000,4657.173507,2020112.752507,-1687271.234985,-98407.138669,0.000036,-0.000034,-0.000002
-2.120000,-1.600000,0.380012,0.080000,10667.802071,-70679.453693,117930.852314,-517149.804486,-0.000002,0.000002,-0.000010
-2.040000,-1.600000,0.400021,0.080000,10895.290769,-853444.610209,914595.995463,-59326.944025,-0.000016,0.000017,-0.000001
-1.960000,-1.600000,0.400241,0.080000,15044.782585,758091.004982,-808714.680497,2684340.819874,0.000015,-0.000015,0.000051
-1.880000,-1.600000,0.400048,0.080000,9992.699100,7600841.988221,-7818037.384601,-4044374.634363,0.000144,-0.000146,-0.000076
-1.800000,-1.600000,0.400016,0.080000,-24859.726510,-11794194.033603,12106684.702397,-14183352.324249,-0.000224,0.000226,-0.000267
-1.720000,-1.600000,0.400225,0.080000,15883.955565,-29955427.270225,30695552.311368,23300310.474742,-0.000569,0.000574,0.000439
-1.640000,-1.600000,0.400056,0.080000,185989.514786,37954889.700972,-38402675.636616,51118748.885922,0.000718,-0.000721,0.000963
-1.560000,-1.600000,0.400012,0.080000,119711.534332,96550279.207674,-98404934.870816,-44266080.550749,0.001830,-0.001844,-0.000834
-1.480000,-1.600000,0.400209,0.080000,-432046.049883,-27679578.937078,27200550.289585,-146387187.133370,-0.000519,0.000515,-0.002758
-1.400000,-1.600000,0.400065,0.080000,-762762.145041,-214896675.795987,217597811.872265,-29383051.265322,-0.004064,0.004084,-0.000554
-1.320000,-1.600000,0.400009,0.080000,98607.988588,-152546993.104895,155636527.460838,234467541.259895,-0.002892,0.002915,0.004418
-1.240000,-1.600000,0.400194,0.080000,1735530.622773,188156251.538369,-188880668.991437,296187083.999373,0.003549,-0.003555,0.005580
-1.160000,-1.600000,0.400073,0.080000,2236007.092628,443448762.063873,-448052785.887187,-13992627.198114,0.008381,-0.008416,-0.000264
-1.080000,-1.600000,0.400006,0.080000,214148.790532,272539384.484514,-276619627.661286,-435707243.756377,0.005158,-0.005189,-0.008209
-1.000000,-1.600000,0.400179,0.080000,-3299362.545681,-245322638.509451,245882458.561614,-536598405.206372,-0.004625,0.004629,-0.010110
-0.920000,-1.600000,0.400083,0.080000,-5318373.249694,-670483482.340723,675508983.967314,-151598198.217554,-0.012661,0.012699,-0.002856
-0.840000,-1.600000,0.400004,0.080000,-3414263.110557,-607907083.874432,613394513.551728,454321686.418369,-0.011484,0.011526,0.008560
-0.760000,-1.600000,0.400165,0.080000,2008167.716621,-46742394.333459,48471337.208576,812099741.134218,-0.000890,0.000903,0.015300
-0.680000,-1.600000,0.400093,0.080000,7643218.937466,636655005.432361,-639919408.171559,623135395.042079,0.012013,-0.012038,0.011740
-0.600000,-1.600000,0.400002,0.080000,9477337.774831,965767278.958636,-971738153.371671,-24049826.502574,0.018229,-0.018274,-0.000453
-0.520000,-1.600000,0.400152,0.080000,5587725.297083,696376537.609089,-701146887.240140,-726020587.550246,0.013147,-0.013183,-0.013679
-0.440000,-1.600000,0.400104,0.080000,-2410362.440266,-31620492.850504,30966424.285942,-1038032398.584389,-0.000592,0.000587,-0.019557
-0.360000,-1.600000,0.400001,0.080000,-10183743.076534,-793813189.994228,797568472.207303,-752202014.695479,-0.014977,0.015005,-0.014172
-0.280000,-1.600000,0.400139,0.080000,-13197606.532883,-1143043030.285534,1148947717.957759,-14863509.558582,-0.021569,0.021613,-0.000280
-0.200000,-1.600000,0.400115,0.080000,-9378746.524024,-867800905.497749,872484188.007586,766506231.769257,-0.016376,0.016412,0.014441
-0.120000,-1.600000,0.400000,0.080000,-380855.845216,-106391787.831137,107254897.168054,1157035002.268769,-0.002009,0.002016,0.021799
-0.040000,-1.600000,0.400126,0.080000,9238926.873559,733391170.223737,-736825246.809165,934345670.802561,0.013837,-0.013863,0.017604
0.040000,-1.600000,0.400126,0.080000,14457710.470714,1196998407.266789,-1202871779.141681,208859289.006300,0.022585,-0.022630,0.003935
0.120000,-1.600000,0.400000,0.080000,12505854.890491,1028761896.278750,-1033856820.288715,-634193614.128782,0.019411,-0.019450,-0.011949
0.200000,-1.600000,0.400115,0.080000,4394066.017190,313309322.110744,-314740275.437127,-1139735406.798201,0.005911,-0.005922,-0.021473
0.280000,-1.600000,0.400139,0.080000,-5597992.168695,-562695368.159373,565877417.348306,-1030147611.919947,-0.010619,0.010643,-0.019409
0.360000,-1.600000,0.400001,0.080000,-12237406.990079,-1115494228.327425,1121618772.427010,-365169573.253891,-0.021051,0.021097,-0.006880
0.440000,-1.600000,0.400104,0.080000,-12225320.386979,-1034971937.448377,1040481304.464104,478534689.485041,-0.019531,0.019572,0.009016
0.520000,-1.600000,0.400152,0.080000,-6036800.229323,-374188283.008452,375611608.390345,1012513047.406906,-0.007058,0.007069,0.019076
0.600000,-1.600000,0.400002,0.080000,2407802.365609,463082605.840416,-466870762.532558,925955040.470133,0.008746,-0.008775,0.017446
0.680000,-1.600000,0.400093,0.080000,8147425.088643,956168767.910766,-962842446.624653,291347408.573812,0.018052,-0.018103,0.005489
0.760000,-1.600000,0.400165,0.080000,8256986.348047,803639519.335316,-808583170.989214,-460952617.327411,0.015169,-0.015206,-0.008685
0.840000,-1.600000,0.400004,0.080000,3609397.231174,145315256.254641,-144820688.358279,-820372706.696158,0.002735,-0.002731,-0.015456
0.920000,-1.600000,0.400083,0.080000,-1959426.507803,-515849910.641170,521414489.753292,-565482384.903902,-0.009750,0.009792,-0.010654
1.000000,-1.600000,0.400179,0.080000,-4588573.950784,-687775694.606741,693721163.151450,51486316.340024,-0.012992,0.013037,0.000970
1.080000,-1.600000,0.400006,0.080000,-3236867.818497,-297085851.320853,298238029.155966,498543970.512956,-0.005604,0.005612,0.009393
1.160000,-1.600000,0.400073,0.080000,-98626.799113,239391050.571547,-243621921.575009,429836665.100812,0.004534,-0.004566,0.008098
1.240000,-1.600000,0.400194,0.080000,1769559.172565,413679762.090125,-418436719.179978,9525949.255035,0.007821,-0.007857,0.000179
1.320000,-1.600000,0.400009,0.080000,1315933.564909,146080063.038027,-146444005.956683,-277522874.242155,0.002754,-0.002757,-0.005229
1.400000,-1.600000,0.400065,0.080000,-37763.467277,-162797930.124294,166040680.759845,-178943516.987640,-0.003086,0.003110,-0.003371
1.480000,-1.600000,0.400209,0.080000,-573201.818562,-162236745.291746,164302925.086912,63742106.746353,-0.003068,0.003084,0.001201
1.560000,-1.600000,0.400012,0.080000,-204055.182644,20625482.399047,-21605937.175227,111106710.545907,0.000394,-0.000402,0.002093
1.640000,-1.600000,0.400056,0.080000,126579.913581,73784548.999490,-75208842.152606,-430549.378672,0.001398,-0.001409,-0.000008
1.720000,-1.600000,0.400225,0.080000,76246.364080,549130.673954,-461739.039526,-38901054.207285,0.000010,-0.000009,-0.000733
1.800000,-1.600000,0.400016,0.080000,-16107.395684,-20796045.506848,21366124.414822,342018.978357,-0.000395,0.000399,0.000006
1.880000,-1.600000,0.400048,0.080000,-6578.114389,2018035.211915,-2007449.915305,7951687.978378,0.000038,-0.000038,0.000150
1.960000,-1.600000,0.400241,0.080000,6674.802800,2741681.375564,-2815271.086790,-1252315.022283,0.000052,-0.000053,-0.000024
2.040000,-1.600000,0.400021,0.080000,4676.245603,-813333.522278,797385.159123,-445609.872369,-0.000015,0.000015,-0.000008
2.120000,-1.600000,0.380012,0.080000,4810.994400,-63257.128792,69386.826198,-381690.172299,-0.000001,0.000001,-0.000007
-2.120000,-1.520000,0.380207,0.080000,10815.632027,1827156.712611,-1928337.367746,172759.283887,0.000035,-0.000036,0.000003
-2.040000,-1.520000,0.460171,0.080000,11617.514581,22125.402926,-1452.576924,402415.264950,0.000000,-0.000000,0.000008
-1.960000,-1.520000,0.480201,0.080000,11304.654848,471377.254937,-514019.749933,42474.790194,0.000009,-0.000009,0.000001
-1.880000,-1.520000,0.480040,0.080000,8442.678936,62776.492974,-197448.103267,-1599812.543608,0.000002,-0.000003,-0.000030
-1.800000,-1.520000,0.480013,0.080000,7237.202256,-3932594.406001,4152235.296977,-339514.794272,-0.000075,0.000077,-0.000006
-1.720000,-1.520000,0.480187,0.080000,27322.021894,-1644808.684188,2146488.760186,8346863.232870,-0.000034,0.000038,0.000157
-1.640000,-1.520000,0.480047,0.080000,49499.061100,15001738.060816,-15382657.617579,6170285.224293,0.000285,-0.000288,0.000116
-1.560000,-1.520000,0.480010,0.080000,-14521.507251,16901468.223582,-18273733.154328,-22272453.452069,0.000326,-0.000337,-0.000420
-1.480000,-1.520000,0.480174,0.080000,-160011.395106,-24745849.630617,24502506.680062,-37179419.113822,-0.000465,0.000463,-0.000700
-1.400000,-1.520000,0.480054,0.080000,-150120.067213,-65049563.336964,67191413.228222,12420230.461530,-0.001238,0.001254,0.000234
-1.320000,-1.520000,0.480007,0.080000,223335.621304,-24347664.260162,26662643.451771,89759221.437767,-0.000472,0.000489,0.001691
-1.240000,-1.520000,0.480162,0.080000,708186.090015,89061678.798135,-89750974.668352,87232854.109348,0.001682,-0.001687,0.001644
-1.160000,-1.520000,0.480061,0.080000,657926.140525,155414732.955695,-159090300.017222,-37577703.465830,0.002949,-0.002977,-0.000708
-1.080000,-1.520000,0.480005,0.080000,-285445.192247,70035207.116272,-73249681.266552,-185227492.809745,0.001338,-0.001362,-0.003490
-1.000000,-1.520000,0.480149,0.080000,-1604462.693224,-129102532.260601,129588164.364645,-200547775.079783,-0.002435,0.002439,-0.003778
-0.920000,-1.520000,0.480069,0.080000,-2136434.998916,-278239374.375536,282312166.531707,-28272524.500281,-0.005265,0.005296,-0.000533
-0.840000,-1.520000,0.480003,0.080000,-1025233.433848,-230243390.221453,234719912.231392,222116693.367973,-0.004363,0.004397,0.004185
-0.760000,-1.520000,0.480138,0.080000,1425234.441631,14903760.244524,-13450875.771644,358817046.589394,0.000273,-0.000262,0.006760
-0.680000,-1.520000,0.480077,0.080000,3756113.990015,301718841.470320,-304352578.918256,258192753.050534,0.005699,-0.005719,0.004865
-0.600000,-1.520000,0.480001,0.080000,4271572.092253,430343155.661048,-435246811.190483,-39754144.621183,0.008136,-0.008173,-0.000749
-0.520000,-1.520000,0.480126,0.080000,2220227.465537,296380147.415017,-300352944.858020,-355888331.851269,0.005606,-0.005636,-0.006705
-0.440000,-1.520000,0.480086,0.080000,-1586588.175277,-38367406.437206,37764831.039188,-489429766.344564,-0.000719,0.000715,-0.009221
-0.360000,-1.520000,0.480001,0.080000,-5143494.395281,-383972378.731562,387030316.295386,-345016494.223635,-0.007252,0.007275,-0.006500
-0.280000,-1.520000,0.480116,0.080000,-6384517.938358,-537383097.233765,542257575.234243,9100045.855508,-0.010152,0.010189,0.000171
-0.200000,-1.520000,0.480096,0.080000,-4396982.749987,-401508723.416593,405401829.809814,380871231.700473,-0.007587,0.007616,0.007176
-0.120000,-1.520000,0.480000,0.080000,-2620.864854,-40813301.197437,41549356.944866,563770335.882161,-0.000773,0.000779,0.010622
-0.040000,-1.520000,0.480105,0.080000,4629389.298009,354084444.923604,-356915083.431765,452100938.334436,0.006687,-0.006708,0.008518
0.040000,-1.520000,0.480105,0.080000,7126635.012454,570577562.629166,-575430208.174385,99870104.912067,0.010777,-0.010814,0.001882
0.120000,-1.520000,0.480000,0.080000,6189695.278527,490105599.867232,-494299643.170492,-307141145.623917,0.009258,-0.009289,-0.005787
0.200000,-1.520000,0.480096,0.080000,2303012.741170,154233984.657542,-155377020.134866,-551067243.120021,0.002912,-0.002921,-0.010382
0.280000,-1.520000,0.480116,0.080000,-2516150.741862,-255395062.561081,258065599.830830,-501120302.694776,-0.004827,0.004847,-0.009441
0.360000,-1.520000,0.480001,0.080000,-5808629.996021,-515192626.015424,520256976.004286,-188140676.558653,-0.009735,0.009773,-0.003545
0.440000,-1.520000,0.480086,0.080000,-6013379.383509,-485276127.303882,489773763.641656,209108899.370615,-0.009168,0.009202,0.003940
0.520000,-1.520000,0.480126,0.080000,-3303235.234248,-192643431.405642,193735802.154871,463997991.117101,-0.003636,0.003644,0.008742
0.600000,-1.520000,0.480001,0.080000,578490.724904,180937161.973083,-184110870.014099,436252229.067076,0.003427,-0.003451,0.008219
0.680000,-1.520000,0.480077,0.080000,3403131.335923,407968273.285865,-413439019.644917,160610927.095328,0.007717,-0.007759,0.003026
0.760000,-1.520000,0.480138,0.080000,3809627.168731,360804702.918931,-364798610.883979,-172519404.607515,0.006820,-0.006850,-0.003250
0.840000,-1.520000,0.480003,0.080000,2060928.988893,98358872.274303,-97924543.404117,-343652641.609104,0.001851,-0.001847,-0.006475
0.920000,-1.520000,0.480069,0.080000,-303480.857887,-175920995.347513,180415511.629152,-259159619.483967,-0.003340,0.003374,-0.004883
1.000000,-1.520000,0.480149,0.080000,-1663483.958561,-267785053.764627,272567512.921809,-18619151.981116,-0.005072,0.005108,-0.000351
1.080000,-1.520000,0.480005,0.080000,-1457343.295608,-144222533.244784,145213529.997597,170695099.959480,-0.002723,0.002730,0.003216
1.160000,-1.520000,0.480061,0.080000,-380661.388256,49498468.658948,-52760694.006882,172962436.879387,0.000951,-0.000976,0.003259
1.240000,-1.520000,0.480162,0.080000,446750.514050,134991666.098272,-138758024.165990,36699101.788918,0.002565,-0.002593,0.000691
1.320000,-1.520000,0.480007,0.080000,508170.432010,72066369.680445,-72508259.557882,-75434914.326021,0.001360,-0.001364,-0.001421
1.400000,-1.520000,0.480054,0.080000,135243.708074,-26389147.991544,28795280.231173,-68801005.602754,-0.000511,0.000529,-0.001296
1.480000,-1.520000,0.480174,0.080000,-115058.781818,-49130998.883574,50785361.242154,-504150.879516,-0.000935,0.000947,-0.000009
1.560000,-1.520000,0.480010,0.080000,-91261.450405,-9805558.679678,9167004.294110,28993797.735296,-0.000181,0.000176,0.000546
1.640000,-1.520000,0.480047,0.080000,3035.035776,14645743.912304,-15690898.029538,9332976.956183,0.000282,-0.000290,0.000176
1.720000,-1.520000,0.480187,0.080000,23980.796934,6001333.899891,-5972708.926194,-6681209.546286,0.000113,-0.000113,-0.000126
1.800000,-1.520000,0.480013,0.080000,7028.186612,-2764312.082629,3136125.313999,-2976714.490874,-0.000054,0.000057,-0.000056
1.880000,-1.520000,0.480040,0.080000,1620.407768,-1175614.756243,1193809.494994,1041537.666319,-0.000022,0.000022,0.000020
1.960000,-1.520000,0.480201,0.080000,3716.824936,436473.491429,-500876.886037,338756.324334,0.000009,-0.000009,0.000006
2.040000,-1.520000,0.460171,0.080000,4074.168723,249321.926335,-229543.318141,152515.573734,0.000005,-0.000004,0.000003
2.120000,-1.520000,0.380207,0.080000,3533.276864,-1746314.750567,1879684.850247,1451017.660457,-0.000034,0.000035,0.000027
-2.120000,-1.440000,0.380079,0.080000,18890.487674,-3171155.680044,3264079.142946,5190116.843212,-0.000060,0.000061,0.000098
-2.040000,-1.440000,0.460065,0.080000,11321.965990,-1044345.974547,994611.354359,-79861.680845,-0.000019,0.000019,-0.000002
-1.960000,-1.440000,0.540056,0.080000,10588.932489,-65322.653647,3313.915132,-311413.159533,-0.000001,0.000000,-0.000006
-1.880000,-1.440000,0.560035,0.080000,10537.759281,-239349.213756,253315.048436,-207950.413619,-0.000005,0.000005,-0.000004
-1.800000,-1.440000,0.560012,0.080000,12222.760201,-549455.510570,707355.518251,736352.065909,-0.000011,0.000012,0.000014
-1.720000,-1.440000,0.560161,0.080000,16841.614446,1087050.411175,-1052017.575533,1771900.715996,0.000020,-0.000020,0.000033
-1.640000,-1.440000,0.560040,0.080000,13577.796871,3973972.951532,-4399278.587788,-1261746.240988,0.000077,-0.000080,-0.000024
-1.560000,-1.440000,0.560009,0.080000,-13081.196086,667425.773081,-1166890.498134,-7925248.806532,0.000015,-0.000019,-0.000149
-1.480000,-1.440000,0.560149,0.080000,-40053.447492,-11488900.188435,11939467.163744,-6306797.151052,-0.000219,0.000222,-0.000119
-1.400000,-1.440000,0.560046,0.080000,4660.510696,-16983828.471915,18507563.822493,12109512.112162,-0.000329,0.000340,0.000228
-1.320000,-1.440000,0.560006,0.080000,148274.763158,2873652.561034,-1936535.519206,31058810.146667,0.000049,-0.000042,0.000585
-1.240000,-1.440000,0.560138,0.080000,266743.120329,38567194.524451,-39984525.310587,19665203.409819,0.000735,-0.000745,0.000371
-1.160000,-1.440000,0.560052,0.080000,146766.923414,50661074.244264,-53856540.756244,-28390594.772580,0.000973,-0.000997,-0.000535
-1.080000,-1.440000,0.560004,0.080000,-277452.751579,9732814.326851,-11788930.050472,-75093509.289870,0.000195,-0.000210,-0.001415
-1.000000,-1.440000,0.560128,0.080000,-750948.495434,-64839815.344145,66437907.245890,-67942326.306257,-0.001231,0.001243,-0.001280
-0.920000,-1.440000,0.560059,0.080000,-819111.631260,-112336682.037675,117094699.014262,7686038.206518,-0.002143,0.002179,0.000145
-0.840000,-1.440000,0.560003,0.080000,-197368.224712,-80837862.987855,85368785.255998,106230700.567384,-0.001549,0.001583,0.002001
-0.760000,-1.440000,0.560118,0.080000,914170.774546,25286752.749007,-24620045.301687,152393049.788550,0.000473,-0.000468,0.002871
-0.680000,-1.440000,0.560066,0.080000,1859863.387943,141740674.404194,-145990112.428485,98919383.574484,0.002694,-0.002727,0.001864
-0.600000,-1.440000,0.560001,0.080000,1924133.611301,187238683.850336,-194026100.027377,-34685211.433988,0.003566,-0.003617,-0.000653
-0.520000,-1.440000,0.560108,0.080000,830997.277966,120123158.342546,-125222843.994281,-170979291.331849,0.002292,-0.002330,-0.003221
-0.440000,-1.440000,0.560074,0.080000,-1000287.341085,-31265644.552365,31183593.357363,-223331972.056960,-0.000589,0.000588,-0.004208
-0.360000,-1.440000,0.560000,0.080000,-2631051.241055,-183547508.758988,188844087.635408,-151005128.262678,-0.003488,0.003528,-0.002845
-0.280000,-1.440000,0.560099,0.080000,-3118966.985440,-247518894.645950,255376552.599040,14220439.030731,-0.004708,0.004767,0.000268
-0.200000,-1.440000,0.560082,0.080000,-2069925.323608,-180825897.446525,186890617.635209,184849276.967459,-0.003441,0.003487,0.003483
-0.120000,-1.440000,0.560000,0.080000,100039.077122,-13416979.146486,14264188.249327,266768864.369989,-0.000258,0.000264,0.005026
-0.040000,-1.440000,0.560090,0.080000,2350804.475058,167917553.617278,-172875227.336058,212104430.969456,0.003192,-0.003229,0.003996
0.040000,-1.440000,0.560090,0.080000,3556623.389299,266682108.178944,-274852391.849648,46516456.336221,0.005071,-0.005132,0.000876
0.120000,-1.440000,0.560000,0.080000,3104669.285908,229494886.882766,-236492006.874759,-143797713.831631,0.004363,-0.004416,-0.002709
0.200000,-1.440000,0.560082,0.080000,1225941.890899,75864281.208077,-77894110.000718,-258464009.601133,0.001441,-0.001456,-0.004870
0.280000,-1.440000,0.560099,0.080000,-1126072.239482,-111665235.473000,115683794.246944,-237838999.700235,-0.002127,0.002157,-0.004481
0.360000,-1.440000,0.560000,0.080000,-2787474.818789,-232580081.355851,240337420.603397,-96408032.799327,-0.004426,0.004484,-0.001816
0.440000,-1.440000,0.560074,0.080000,-3006933.500121,-224671302.768380,231707594.359298,84850342.231368,-0.004273,0.004326,0.001599
0.520000,-1.440000,0.560108,0.080000,-1830861.376119,-99696642.543008,101987126.354597,204645579.187128,-0.001891,0.001909,0.003856
0.600000,-1.440000,0.560001,0.080000,-30644.512237,63800783.627449,-67366576.669066,200850407.907508,0.001222,-0.001249,0.003784
0.680000,-1.440000,0.560066,0.080000,1382645.701750,168694704.669817,-175538109.940167,87558824.710913,0.003217,-0.003269,0.001650
0.760000,-1.440000,0.560118,0.080000,1757641.898574,160309165.490452,-165812589.801724,-55428010.652932,0.003051,-0.003093,-0.001044
0.840000,-1.440000,0.560003,0.080000,1140084.984301,60289255.206044,-60988669.519343,-136738436.337696,0.001140,-0.001145,-0.002576
0.920000,-1.440000,0.560059,0.080000,140955.025190,-52136049.062847,56042898.511302,-115799070.038629,-0.001004,0.001034,-0.002182
1.000000,-1.440000,0.560128,0.080000,-548477.728085,-100421852.979021,105342288.907188,-27663808.637510,-0.001920,0.001957,-0.000521
1.080000,-1.440000,0.560004,0.080000,-625516.952229,-67068983.289964,69106465.932123,50625546.868221,-0.001275,0.001290,0.000954
1.160000,-1.440000,0.560052,0.080000,-285652.881062,593664.650701,-2308590.394370,65510511.118477,0.000021,-0.000034,0.001234
1.240000,-1.440000,0.560138,0.080000,61693.027607,40050760.069834,-42987355.730190,26689340.899855,0.000771,-0.000793,0.000503
1.320000,-1.440000,0.560006,0.080000,171407.990834,30614494.231517,-31826048.265184,-14681184.234754,0.000584,-0.000593,-0.000277
1.400000,-1.440000,0.560046,0.080000,92064.769593,1312732.427126,-417700.373773,-23045503.061412,0.000020,-0.000013,-0.000434
1.480000,-1.440000,0.560149,0.080000,-2563.561098,-12384469.593600,13580478.554591,-7206421.683116,-0.000240,0.000249,-0.000136
1.560000,-1.440000,0.560009,0.080000,-25439.844846,-6440838.620520,6635179.983514,5136376.525476,-0.000122,0.000124,0.000097
1.640000,-1.440000,0.560040,0.080000,-6937.257921,1392984.409108,-1820102.363851,4362528.452506,0.000029,-0.000032,0.000082
1.720000,-1.440000,0.560161,0.080000,5714.325980,2041096.477358,-2266746.128008,-9745.227969,0.000040,-0.000041,-0.000000
1.800000,-1.440000,0.560012,0.080000,5753.499817,168446.905102,-85227.695979,-923859.520715,0.000003,-0.000002,-0.000017
1.880000,-1.440000,0.560035,0.080000,4036.576409,-323795.565678,392514.680690,-145539.890781,-0.000006,0.000007,-0.000003
1.960000,-1.440000,0.540056,0.080000,4327.756845,-124628.044379,121087.801104,-112012.405310,-0.000002,0.000002,-0.000002
2.040000,-1.440000,0.460065,0.080000,5093.792315,982805.618464,-962171.443990,-724827.476746,0.000018,-0.000018,-0.000014
2.120000,-1.440000,0.380079,0.080000,-2131.635758,7079128.177270,-7247186.604794,2760052.806343,0.000134,-0.000136,0.000052
-2.120000,-1.360000,0.380004,0.080000,3410.581890,-10147518.423344,10205533.055323,-11522047.705677,-0.000192,0.000192,-0.000217
-2.040000,-1.360000,0.460003,0.080000,6307.127900,452934.940381,-435634.581394,-2559018.950625,0.000008,-0.000008,-0.000048
-1.960000,-1.360000,0.540003,0.080000,10337.763725,536611.066178,-523422.634844,-242003.814650,0.000010,-0.000010,-0.000005
-1.880000,-1.360000,0.620003,0.080000,11297.306500,51915.543078,-8178.449231,148189.137548,0.000001,-0.000000,0.000003
-1.800000,-1.360000,0.640010,0.080000,11804.079403,49233.161190,-13344.385482,305880.831684,0.000001,-0.000000,0.000006
-1.720000,-1.360000,0.640141,0.080000,11802.122233,562127.097087,-595481.591434,122307.776587,0.000011,-0.000011,0.000002
-1.640000,-1.360000,0.640035,0.080000,8229.856091,711221.861358,-847634.070073,-1098173.897329,0.000014,-0.000015,-0.000021
-1.560000,-1.360000,0.640008,0.080000,851.252143,-1202534.788021,1134199.074740,-2219297.795698,-0.000022,0.000022,-0.000042
-1.480000,-1.360000,0.640131,0.080000,1832.567371,-4378752.356486,4633494.330973,90038.714652,-0.000084,0.000086,0.000002
-1.400000,-1.360000,0.640040,0.080000,29521.576068,-3575393.701366,4059137.081957,6441294.759343,-0.000070,0.000074,0.000121
-1.320000,-1.360000,0.640005,0.080000,77006.585917,5190191.764668,-5054323.468030,10132385.274576,0.000097,-0.000096,0.000191
-1.240000,-1.360000,0.640121,0.080000,90119.207694,16262886.779680,-16951874.084383,2178835.171477,0.000310,-0.000315,0.000041
-1.160000,-1.360000,0.640046,0.080000,3218.600529,15940721.368512,-17110230.498291,-16534653.858827,0.000307,-0.000316,-0.000312
-1.080000,-1.360000,0.640004,0.080000,-178438.504045,-3698903.768202,3128222.940530,-30634828.954339,-0.000066,0.000062,-0.000577
-1.000000,-1.360000,0.640112,0.080000,-332747.800101,-32602841.474950,33475925.705864,-21867055.304735,-0.000619,0.000626,-0.000412
-0.920000,-1.360000,0.640052,0.080000,-283615.311538,-46824509.487484,48838611.449063,12402856.330900,-0.000894,0.000909,0.000234
-0.840000,-1.360000,0.640002,0.080000,52948.068637,-27633233.947391,29398517.867075,51950788.133236,-0.000531,0.000544,0.000979
-0.760000,-1.360000,0.640103,0.080000,555614.772628,20602806.553048,-20540386.951462,66164408.296102,0.000388,-0.000387,0.001247
-0.680000,-1.360000,0.640058,0.080000,926013.311307,69539351.409846,-71559206.333044,37120821.567697,0.001322,-0.001337,0.000699
-0.600000,-1.360000,0.640001,0.080000,863545.435203,84731938.832342,-87770588.225738,-24785653.761210,0.001614,-0.001636,-0.000467
-0.520000,-1.360000,0.640095,0.080000,277105.496689,49482093.198868,-51681914.092513,-84745103.975986,0.000945,-0.000961,-0.001597
-0.440000,-1.360000,0.640065,0.080000,-612787.693030,-22109129.835663,22214013.746930,-104591973.543326,-0.000417,0.000418,-0.001971
-0.360000,-1.360000,0.640000,0.080000,-1361826.016612,-91708803.811723,94257625.206452,-67057639.996538,-0.001742,0.001761,-0.001263
-0.280000,-1.360000,0.640087,0.080000,-1539248.152883,-118769593.306737,122456221.860784,12245941.110294,-0.002259,0.002286,0.000231
-0.200000,-1.360000,0.640072,0.080000,-978677.692891,-84487724.565915,87296197.589228,92389927.548040,-0.001608,0.001629,0.001741
-0.120000,-1.360000,0.640000,0.080000,105765.331885,-3551429.521653,3895435.497659,129674892.567820,-0.000069,0.000071,0.002443
-0.040000,-1.360000,0.640079,0.080000,1210875.722593,83019898.779544,-85401242.845288,102155401.637241,0.001578,-0.001596,0.001925
0.040000,-1.360000,0.640079,0.080000,1798941.097555,129903403.781332,-133782682.731361,22349124.128523,0.002469,-0.002499,0.000421
0.120000,-1.360000,0.640000,0.080000,1578894.913460,112197280.617358,-115514889.950507,-68957581.908997,0.002133,-0.002158,-0.001299
0.200000,-1.360000,0.640072,0.080000,660700.954590,39239023.824280,-40227282.311363,-124551020.783030,0.000745,-0.000752,-0.002347
0.280000,-1.360000,0.640087,0.080000,-502669.246508,-50250808.069117,52083548.478987,-116454578.450915,-0.000957,0.000971,-0.002194
0.360000,-1.360000,0.640000,0.080000,-1355414.765200,-109362704.468190,112941869.565828,-51242635.641684,-0.002081,0.002108,-0.000965
0.440000,-1.360000,0.640065,0.080000,-1529735.072137,-109001628.925109,112287163.069922,33863122.774196,-0.002072,0.002097,0.000638
0.520000,-1.360000,0.640095,0.080000,-1026217.469888,-53921988.612645,55096658.817658,92416337.760736,-0.001023,0.001031,0.001741
0.600000,-1.360000,0.640001,0.080000,-184697.599134,20932425.421166,-22372196.387553,95620237.181739,0.000403,-0.000413,0.001802
0.680000,-1.360000,0.640058,0.080000,531520.511773,72160918.671600,-75108299.759547,48529601.429093,0.001376,-0.001398,0.000914
0.760000,-1.360000,0.640103,0.080000,803716.444170,74582255.983699,-77069383.123146,-14888796.433132,0.001419,-0.001438,-0.000281
0.840000,-1.360000,0.640002,0.080000,613640.084968,35575222.757266,-36120433.318076,-55089824.263125,0.000673,-0.000677,-0.001038
0.920000,-1.360000,0.640052,0.080000,199140.524142,-12821537.272478,14214042.549793,-53038345.272458,-0.000249,0.000260,-0.000999
1.000000,-1.360000,0.640112,0.080000,-141872.279555,-38408797.295865,40380376.865441,-20482865.185837,-0.000735,0.000750,-0.000386
1.080000,-1.360000,0.640004,0.080000,-249147.729881,-31340670.713713,32365861.089485,12934743.411321,-0.000596,0.000604,0.000244
1.160000,-1.360000,0.640046,0.080000,-161983.044990,-7129442.595012,6748799.864711,24618253.197022,-0.000132,0.000129,0.000464
1.240000,-1.360000,0.640121,0.080000,-26566.680341,10888629.480133,-11897569.738712,14606488.935702,0.000211,-0.000218,0.000275
1.320000,-1.360000,0.640005,0.080000,45525.177342,12229116.559633,-12822885.792597,-592978.518069,0.000234,-0.000238,-0.000011
1.400000,-1.360000,0.640040,0.080000,42781.951614,3860272.854356,-3741885.779220,-6964794.023984,0.000072,-0.000071,-0.000131
1.480000,-1.360000,0.640131,0.080000,14207.537373,-2376986.258623,2747795.379802,-4155877.894866,-0.000047,0.000050,-0.000078
1.560000,-1.360000,0.640008,0.080000,-1489.671540,-2577998.646550,2736256.304611,125179.025914,-0.000049,0.000051,0.000002
1.640000,-1.360000,0.640035,0.080000,-1340.797009,-490122.656937,422695.047445,1265156.338054,-0.000009,0.000008,0.000024
1.720000,-1.360000,0.640141,0.080000,2513.868655,427676.982185,-507895.786884,450514.477543,0.000009,-0.000009,0.000008
1.800000,-1.360000,0.640010,0.080000,3970.191205,250192.149599,-258184.287402,-76408.372600,0.000005,-0.000005,-0.000001
1.880000,-1.360000,0.620003,0.080000,3809.897825,-49255.081068,37712.682372,69104.302366,-0.000001,0.000001,0.000001
1.960000,-1.360000,0.540003,0.080000,4098.847867,-723146.532026,662554.318664,212513.589892,-0.000013,0.000013,0.000004
2.040000,-1.360000,0.460003,0.080000,9213.143537,-2673033.845858,2571238.055543,-1896644.436500,-0.000050,0.000049,-0.000036
2.120000,-1.360000,0.380004,0.080000,29093.458580,107507.752940,-2276.811254,-19090203.228270,0.000001,-0.000001,-0.000360
-2.120000,-1.280000,0.380169,0.080000,-45723.259938,28722039.143099,-28987968.508608,-16525222.436828,0.000543,-0.000545,-0.000311
-2.040000,-1.280000,0.460140,0.080000,7607.887023,6698639.143108,-6511654.915553,1418093.917465,0.000125,-0.000124,0.000027
-1.960000,-1.280000,0.540119,0.080000,13190.245112,831032.937564,-707663.038823,1280165.964023,0.000015,-0.000014,0.000024
-1.880000,-1.280000,0.620104,0.080000,12020.869211,-110010.229230,139987.896985,378218.954044,-0.000002,0.000002,0.000007
-1.800000,-1.280000,0.700092,0.080000,11207.818529,-31646.367307,29004.009340,67421.568091,-0.000001,0.000001,0.000001
-1.720000,-1.280000,0.720125,0.080000,10556.853353,121659.403111,-146050.250157,-141871.714553,0.000002,-0.000003,-0.000003
-1.640000,-1.280000,0.720031,0.080000,9224.197140,-55688.691512,20007.321233,-456898.649025,-0.000001,0.000001,-0.000009
-1.560000,-1.280000,0.720007,0.080000,8459.378395,-778284.074065,791377.351732,-371309.381037,-0.000015,0.000015,-0.000007
-1.480000,-1.280000,0.720116,0.080000,12669.986720,-1325098.929800,1438131.049952,879151.294961,-0.000026,0.000026,0.000017
-1.400000,-1.280000,0.720036,0.080000,24734.002508,-80967.994898,219086.834729,2770094.000851,-0.000002,0.000003,0.000052
-1.320000,-1.280000,0.720005,0.080000,36428.068273,3411516.679596,-3444958.753061,2742997.673324,0.000064,-0.000065,0.000052
-1.240000,-1.280000,0.720108,0.080000,26383.489080,6357689.190646,-6674310.610167,-1565837.530171,0.000122,-0.000124,-0.000030
-1.160000,-1.280000,0.720041,0.080000,-22475.622318,4086879.405731,-4504285.133154,-8566308.348304,0.000079,-0.000083,-0.000161
-1.080000,-1.280000,0.720003,0.080000,-94907.600829,-5042410.042742,4929071.261462,-12022382.667896,-0.000094,0.000094,-0.000227
-1.000000,-1.280000,0.720100,0.080000,-134296.009348,-15957283.764217,16419469.526761,-5757004.665040,-0.000303,0.000307,-0.000108
-0.920000,-1.280000,0.720046,0.080000,-74310.833934,-19132330.292172,19991231.913507,9764952.050609,-0.000365,0.000372,0.000184
-0.840000,-1.280000,0.720002,0.080000,102916.164871,-8074248.483428,8746232.787177,25364666.685741,-0.000156,0.000161,0.000478
-0.760000,-1.280000,0.720092,0.080000,327723.284629,14015289.477004,-14109254.240413,28539192.021773,0.000265,-0.000265,0.000538
-0.680000,-1.280000,0.720052,0.080000,463371.709556,34386632.925844,-35364353.018686,12795973.112687,0.000653,-0.000661,0.000241
-0.600000,-1.280000,0.720001,0.080000,384829.413249,38419710.336462,-39789741.913600,-16178666.291788,0.000732,-0.000742,-0.000305
-0.520000,-1.280000,0.720084,0.080000,68652.468673,19701583.751669,-20640541.116394,-42494325.494690,0.000376,-0.000384,-0.000801
-0.440000,-1.280000,0.720058,0.080000,-367961.946916,-14518928.681947,14650971.999243,-49322389.650286,-0.000274,0.000275,-0.000929
-0.360000,-1.280000,0.720000,0.080000,-712447.026694,-46414157.706554,47658089.173507,-29561192.070573,-0.000882,0.000891,-0.000557
-0.280000,-1.280000,0.720077,0.080000,-767353.589938,-57529610.486278,59271018.410066,8910717.911875,-0.001094,0.001107,0.000168
-0.200000,-1.280000,0.720064,0.080000,-464525.918546,-39649932.555223,40952665.106618,46780784.216599,-0.000754,0.000764,0.000881
-0.120000,-1.280000,0.720000,0.080000,84242.644057,-120718.439292,252108.864700,63711215.370029,-0.000003,0.000004,0.001200
-0.040000,-1.280000,0.720070,0.080000,632994.599398,41548554.461376,-42701060.820922,49686300.051176,0.000789,-0.000798,0.000936
0.040000,-1.280000,0.720070,0.080000,922749.218949,63995052.425561,-65848854.417780,10872813.588030,0.001216,-0.001230,0.000205
0.120000,-1.280000,0.720000,0.080000,814058.254356,55553626.956935,-57140466.703187,-33353119.350803,0.001056,-0.001068,-0.000628
0.200000,-1.280000,0.720064,0.080000,359350.048932,20662440.873242,-21155435.566547,-60678221.852553,0.000392,-0.000396,-0.001143
0.280000,-1.280000,0.720077,0.080000,-224631.783079,-22487238.367454,23317874.253507,-57838020.773709,-0.000428,0.000435,-0.001090
0.360000,-1.280000,0.720000,0.080000,-669676.869119,-51869534.094343,53529654.874273,-27683851.730311,-0.000987,0.000999,-0.000522
0.440000,-1.280000,0.720058,0.080000,-792729.625637,-53649170.796410,55204895.215165,12696450.580127,-0.001020,0.001031,0.000239
0.520000,-1.280000,0.720084,0.080000,-581784.280400,-29494356.252781,30114810.351455,41839307.115006,-0.000559,0.000564,0.000788
0.600000,-1.280000,0.720001,0.080000,-185810.215434,5108840.805428,-5667739.063975,46088708.685020,0.000099,-0.000104,0.000868
0.680000,-1.280000,0.720052,0.080000,180840.203289,30567309.707692,-31841019.054040,26854193.966227,0.000583,-0.000593,0.000506
0.760000,-1.280000,0.720092,0.080000,359551.724646,34932021.305908,-36077083.351324,-1487030.797589,0.000665,-0.000673,-0.000028
0.840000,-1.280000,0.720002,0.080000,321609.280585,20220004.385221,-20583639.961875,-21576545.517926,0.000383,-0.000386,-0.000407
0.920000,-1.280000,0.720046,0.080000,156421.465874,-680373.754467,1147990.224826,-24163297.382808,-0.000015,0.000019,-0.000455
1.000000,-1.280000,0.720100,0.080000,-7302.404344,-13961576.930142,14753067.845331,-12678884.961759,-0.000268,0.000273,-0.000239
1.080000,-1.280000,0.720003,0.080000,-86501.383911,-14161412.507035,14665940.138228,1487104.163798,-0.000270,0.000273,0.000028
1.160000,-1.280000,0.720041,0.080000,-78077.945955,-5957502.667360,5933416.087774,8597203.946018,-0.000112,0.000112,0.000162
1.240000,-1.280000,0.720108,0.080000,-31265.407336,1908036.059056,-2238938.860090,7004677.700695,0.000038,-0.000040,0.000132
1.320000,-1.280000,0.720005,0.080000,5416.773259,4346187.787223,-4611095.307810,1790012.695357,0.000083,-0.000085,0.000034
1.400000,-1.280000,0.720036,0.080000,15834.026535,2459952.112705,-2493332.162654,-1577514.274155,0.000047,-0.000047,-0.000030
1.480000,-1.280000,0.720116,0.080000,10587.694489,63417.309368,35563.925948,-1717289.668013,0.000001,0.000000,-0.000032
1.560000,-1.280000,0.720007,0.080000,4297.935086,-737199.926098,811432.793284,-519455.568409,-0.000014,0.000015,-0.000010
1.640000,-1.280000,0.720031,0.080000,2346.452786,-401893.642390,406895.448923,184975.854703,-0.000008,0.000008,0.000003
1.720000,-1.280000,0.720125,0.080000,2988.945456,-4578.498363,-11702.057801,166335.652725,0.000000,-0.000000,0.000003
1.800000,-1.280000,0.700092,0.080000,3741.345476,176212.180251,-170259.504720,-13683.266456,0.000003,-0.000003,-0.000000
1.880000,-1.280000,0.620104,0.080000,3346.631891,392268.754726,-366945.087196,146906.015144,0.000007,-0.000007,0.000003
1.960000,-1.280000,0.540119,0.080000,566.496017,307487.824005,-388351.986112,1624907.749117,0.000006,-0.000007,0.000031
2.040000,-1.280000,0.460140,0.080000,-2426.465760,-4793734.300295,4656649.227527,6080483.472957,-0.000090,0.000089,0.000115
2.120000,-1.280000,0.380169,0.080000,35627.922434,-39895812.469427,40184630.953655,8989001.767813,-0.000753,0.000755,0.000169
-2.120000,-1.200000,0.380106,0.080000,64390.619716,26306001.932063,-26450978.905853,55091910.201601,0.000496,-0.000498,0.001038
-2.040000,-1.200000,0.460087,0.080000,40231.352880,-2030948.248232,2047301.798929,12464729.008591,-0.000038,0.000038,0.000235
-1.960000,-1.200000,0.540074,0.080000,18605.803950,-2452510.847905,2448261.439183,2046156.106629,-0.000046,0.000046,0.000039
-1.880000,-1.200000,0.620065,0.080000,11614.506822,-858457.639838,775509.160901,-89687.951145,-0.000016,0.000015,-0.000002
-1.800000,-1.200000,0.700057,0.080000,10385.662237,-158752.550900,126171.291257,-212841.107222,-0.000003,0.000003,-0.000004
-1.720000,-1.200000,0.780051,0.080000,10349.518321,6560.697124,-21972.155097,-159360.155384,0.000000,-0.000000,-0.000003
-1.640000,-1.200000,0.800028,0.080000,10363.234439,-98978.002582,93310.381397,-126750.332042,-0.000002,0.000002,-0.000002
-1.560000,-1.200000,0.800006,0.080000,11054.027758,-303312.341977,320594.913775,79410.114264,-0.000006,0.000006,0.000001
-1.480000,-1.200000,0.800105,0.080000,13605.747887,-241649.410263,284876.480618,582502.782810,-0.000005,0.000005,0.000011
-1.400000,-1.200000,0.800032,0.080000,17456.234074,504872.050238,-474402.908206,984647.553099,0.000009,-0.000009,0.000019
-1.320000,-1.200000,0.800004,0.080000,17871.421819,1736721.448917,-1782755.738755,393105.776522,0.000033,-0.000033,0.000007
-1.240000,-1.200000,0.800097,0.080000,7413.652463,2207751.327607,-2345935.420409,-1657452.529711,0.000042,-0.000043,-0.000031
-1.160000,-1.200000,0.800037,0.080000,-16353.075105,409669.516785,-550221.101469,-4081953.261774,0.000009,-0.000010,-0.000077
-1.080000,-1.200000,0.800003,0.080000,-41871.658370,-3680730.803307,3689522.264494,-4384848.611820,-0.000069,0.000069,-0.000083
-1.000000,-1.200000,0.800090,0.080000,-43852.038492,-7580490.665046,7818218.136934,-602043.816123,-0.000144,0.000146,-0.000011
-0.920000,-1.200000,0.800041,0.080000,1267.372254,-7509794.238897,7875880.265761,6364866.411771,-0.000144,0.000146,0.000120
-0.840000,-1.200000,0.800002,0.080000,92236.340539,-1381226.261473,1626534.111296,12306497.833771,-0.000027,0.000029,0.000232
-0.760000,-1.200000,0.800083,0.080000,190548.258721,8757245.172520,-8861565.255046,12121641.971984,0.000166,-0.000166,0.000228
-0.680000,-1.200000,0.800046,0.080000,233426.325080,17086763.033585,-17566135.118928,3634253.284996,0.000325,-0.000328,0.000068
-0.600000,-1.200000,0.800001,0.080000,169828.656451,17404553.104202,-18025938.543028,-10030780.841016,0.000331,-0.000336,-0.000189
-0.520000,-1.200000,0.800076,0.080000,-1418.158359,7401233.174259,-7796541.321405,-21522306.152640,0.000142,-0.000145,-0.000405
-0.440000,-1.200000,0.800052,0.080000,-217651.559519,-9121758.055290,9229883.130099,-23413030.082020,-0.000172,0.000173,-0.000441
-0.360000,-1.200000,0.800000,0.080000,-376151.714974,-23778348.486696,24393615.618579,-12893725.299340,-0.000451,0.000456,-0.000243
-0.280000,-1.200000,0.800069,0.080000,-386164.076938,-28148076.593271,28977225.559264,5977866.867913,-0.000535,0.000541,0.000113
-0.200000,-1.200000,0.800057,0.080000,-221006.629840,-18702312.941839,19308545.993662,24001184.552049,-0.000356,0.000360,0.000452
-0.120000,-1.200000,0.800000,0.080000,60206.252323,822717.964375,-777584.617794,31672284.383743,0.000015,-0.000015,0.000597
-0.040000,-1.200000,0.800063,0.080000,335881.851966,21074479.700222,-21637452.848973,24432421.755351,0.000400,-0.000404,0.000460
0.040000,-1.200000,0.800063,0.080000,480058.071011,31928159.010568,-32821438.003763,5351964.228276,0.000607,-0.000613,0.000101
0.120000,-1.200000,0.800000,0.080000,425254.314796,27885846.979157,-28652701.729247,-16308462.024000,0.000530,-0.000535,-0.000307
0.200000,-1.200000,0.800057,0.080000,196584.437879,11049772.026162,-11301050.048536,-29932739.291167,0.000210,-0.000211,-0.000564
0.280000,-1.200000,0.800069,0.080000,-101293.953658,-10000756.910712,10375395.885017,-29156134.974190,-0.000191,0.000193,-0.000549
0.360000,-1.200000,0.800000,0.080000,-337416.033004,-24842067.805460,25617283.122661,-15154355.044837,-0.000472,0.000478,-0.000286
0.440000,-1.200000,0.800052,0.080000,-419205.914842,-26785441.968739,27532402.220398,4220551.796714,-0.000509,0.000515,0.000080
0.520000,-1.200000,0.800076,0.080000,-334058.477574,-16265344.286060,16599000.289506,18959638.604112,-0.000308,0.000311,0.000357
0.600000,-1.200000,0.800001,0.080000,-146816.528145,-126054.203748,-77942.283554,22452196.687747,-0.000001,-0.000000,0.000423
0.680000,-1.200000,0.800046,0.080000,42466.886033,12694170.155452,-13245234.676969,14818608.670830,0.000242,-0.000246,0.000279
0.760000,-1.200000,0.800083,0.080000,153833.313694,16390425.186859,-16924801.205259,2103517.065404,0.000312,-0.000316,0.000040
0.840000,-1.200000,0.800002,0.080000,163519.024709,11183637.850987,-11406540.178540,-7980526.879637,0.000212,-0.000214,-0.000150
0.920000,-1.200000,0.800041,0.080000,102954.818641,2205617.569937,-2067147.976671,-10843836.680509,0.000041,-0.000040,-0.000204
1.000000,-1.200000,0.800090,0.080000,27410.859497,-4544642.897239,4859054.010003,-7172830.760732,-0.000087,0.000090,-0.000135
1.080000,-1.200000,0.800003,0.080000,-20960.322244,-6112878.311565,6355115.400874,-1293579.167957,-0.000117,0.000118,-0.000024
1.160000,-1.200000,0.800037,0.080000,-31653.355892,-3656896.777823,3702921.804390,2563153.384215,-0.000069,0.000070,0.000048
1.240000,-1.200000,0.800097,0.080000,-19177.473868,-408371.112580,310904.930694,3015617.115376,-0.000007,0.000006,0.000057
1.320000,-1.200000,0.800004,0.080000,-3471.117177,1260317.723873,-1369602.416326,1456789.103769,0.000024,-0.000025,0.000027
1.400000,-1.200000,0.800032,0.080000,4814.668903,1150586.323239,-1190942.105633,-40890.838887,0.000022,-0.000022,-0.000001
1.480000,-1.200000,0.800105,0.080000,5942.434353,386596.068663,-368924.516279,-529728.886454,0.000007,-0.000007,-0.000010
1.560000,-1.200000,0.800006,0.080000,4472.102792,-101155.720978,127453.135098,-320701.085848,-0.000002,0.000002,-0.000006
1.640000,-1.200000,0.800028,0.080000,3504.067139,-182517.437064,190965.685468,-48939.521367,-0.000003,0.000004,-0.000001
1.720000,-1.200000,0.780051,0.080000,3664.140158,-121591.246223,120862.389806,-14126.433374,-0.000002,0.000002,-0.000000
1.800000,-1.200000,0.700057,0.080000,4583.874585,2804.984504,18766.780076,-248966.904527,-0.000000,0.000000,-0.000005
1.880000,-1.200000,0.620065,0.080000,5287.445556,692281.398169,-571688.710636,-729524.740275,0.000012,-0.000011,-0.000014
1.960000,-1.200000,0.540074,0.080000,758.237547,3819212.222053,-3624062.638450,-309237.546928,0.000071,-0.000069,-0.000006
2.040000,-1.200000,0.460087,0.080000,-29623.853881,13158985.722748,-12892216.473280,8520037.641037,0.000246,-0.000244,0.000161
2.120000,-1.200000,0.380106,0.080000,-143653.900039,25903817.431069,-26171869.665037,70591929.999280,0.000490,-0.000492,0.001330
-2.120000,-1.120000,0.380000,0.080000,264364.266427,-91907334.154959,92599661.647279,45977334.630756,-0.001736,0.001741,0.000866
-2.040000,-1.120000,0.460000,0.080000,49477.879413,-25029503.883934,24539436.107215,-1348019.926313,-0.000469,0.000465,-0.000025
-1.960000,-1.120000,0.540000,0.080000,8942.558676,-5285262.509903,4926910.375235,-3703982.197831,-0.000098,0.000095,-0.000070
-1.880000,-1.120000,0.620000,0.080000,6474.884356,-554964.076245,402820.574262,-1668940.212324,-0.000010,0.000008,-0.000031
-1.800000,-1.120000,0.700000,0.080000,8897.335057,192488.867972,-217581.240614,-498621.064558,0.000004,-0.000004,-0.000009
-1.720000,-1.120000,0.780000,0.080000,10368.095333,142011.823327,-141851.111214,-98540.478186,0.000003,-0.000003,-0.000002
-1.640000,-1.120000,0.860000,0.080000,10963.568274,2492.114541,2919.598410,23393.769420,0.000000,0.000000,0.000000
-1.560000,-1.120000,0.880006,0.080000,11521.884129,-64623.748870,76048.078218,133216.442382,-0.000001,0.000001,0.000003
-1.480000,-1.120000,0.880095,0.080000,12433.004986,49137.611566,-34785.222415,272179.489292,0.000001,-0.000001,0.000005
-1.400000,-1.120000,0.880029,0.080000,12945.182848,389773.349711,-388586.596530,252949.447311,0.000007,-0.000007,0.000005
-1.320000,-1.120000,0.880004,0.080000,10947.241709,742843.675410,-773194.644461,-198918.029862,0.000014,-0.000014,-0.000004
-1.240000,-1.120000,0.880088,0.080000,4365.628236,595334.555867,-652319.823436,-1077755.708120,0.000012,-0.000012,-0.000020
-1.160000,-1.120000,0.880033,0.080000,-5686.801053,-483650.616643,441977.700868,-1791216.384921,-0.000009,0.000009,-0.000034
-1.080000,-1.120000,0.880003,0.080000,-12384.111948,-2232638.112961,2262107.546931,-1371045.701540,-0.000042,0.000042,-0.000026
-1.000000,-1.120000,0.880081,0.080000,-4956.271302,-3471729.527790,3590901.844106,723631.959936,-0.000066,0.000067,0.000014
-0.920000,-1.120000,0.880038,0.080000,23980.879511,-2724437.141748,2879014.154947,3794349.179258,-0.000052,0.000053,0.000071
-0.840000,-1.120000,0.880002,0.080000,69421.562757,575789.718452,-493181.492221,5907317.480036,0.000010,-0.000010,0.000111
-0.760000,-1.120000,0.880075,0.080000,110671.560694,5214826.584882,-5293325.629006,4999765.608339,0.000099,-0.000099,0.000094
-0.680000,-1.120000,0.880042,0.080000,119010.994519,8512100.725265,-8749188.091626,452252.678187,0.000162,-0.000163,0.000009
-0.600000,-1.120000,0.880001,0.080000,74295.361810,7846630.356876,-8129682.895033,-6026142.041770,0.000149,-0.000152,-0.000114
-0.520000,-1.120000,0.880069,0.080000,-18936.215301,2479452.447552,-2642585.866207,-10997038.320754,0.000048,-0.000049,-0.000207
-0.440000,-1.120000,0.880047,0.080000,-127053.077082,-5573353.403490,5649467.077706,-11181941.135487,-0.000105,0.000106,-0.000211
-0.360000,-1.120000,0.880000,0.080000,-199954.998180,-12323853.232914,12632044.933731,-5532468.288758,-0.000234,0.000236,-0.000104
-0.280000,-1.120000,0.880063,0.080000,-195833.501993,-13917314.054608,14315640.589275,3829947.121692,-0.000264,0.000267,0.000072
-0.200000,-1.120000,0.880052,0.080000,-105032.265391,-8868805.252302,9152180.408301,12477126.867322,-0.000169,0.000171,0.000235
-0.120000,-1.120000,0.880000,0.080000,40827.968446,893420.690985,-881304.317809,15943001.418197,0.000017,-0.000017,0.000300
-0.040000,-1.120000,0.880057,0.080000,180896.877042,10844261.461185,-11122238.911578,12155674.535151,0.000206,-0.000208,0.000229
0.040000,-1.120000,0.880057,0.080000,253230.107793,16150203.704143,-16584954.019700,2661067.548274,0.000307,-0.000310,0.000050
0.120000,-1.120000,0.880000,0.080000,224810.857079,14199814.299613,-14574724.142578,-8079782.249072,0.000270,-0.000272,-0.000152
0.200000,-1.120000,0.880052,0.080000,107763.049421,5988534.936369,-6119018.572914,-14973158.755610,0.000114,-0.000115,-0.000282
0.280000,-1.120000,0.880063,0.080000,-46827.964358,-4413560.095772,4581826.956583,-14925560.686198,-0.000084,0.000085,-0.000281
0.360000,-1.120000,0.880000,0.080000,-174182.655928,-12027087.293512,12391947.054139,-8389963.764977,-0.000229,0.000231,-0.000158
0.440000,-1.120000,0.880047,0.080000,-226755.631708,-13565957.052944,13929518.925718,1015939.165453,-0.000258,0.000260,0.000019
0.520000,-1.120000,0.880069,0.080000,-194690.283279,-9033177.792848,9214533.313878,8578023.660328,-0.000171,0.000173,0.000162
0.600000,-1.120000,0.880001,0.080000,-105900.106826,-1446021.640748,1379747.689714,11037813.893741,-0.000027,0.000026,0.000208
0.680000,-1.120000,0.880042,0.080000,-7452.457919,5076385.824625,-5314225.059757,8159044.117448,0.000097,-0.000099,0.000154
0.760000,-1.120000,0.880075,0.080000,59940.703677,7663319.033219,-7914992.214222,2457709.216751,0.000146,-0.000148,0.000046
0.840000,-1.120000,0.880002,0.080000,79801.674163,6057481.792826,-6187271.163462,-2606533.254586,0.000115,-0.000116,-0.000049
0.920000,-1.120000,0.880038,0.080000,61667.186937,2262882.937796,-2234466.307968,-4731885.658760,0.000042,-0.000042,-0.000089
1.000000,-1.120000,0.880081,0.080000,28866.799546,-1096179.105553,1217679.009714,-3824438.514031,-0.000021,0.000022,-0.000072
1.080000,-1.120000,0.880003,0.080000,2343.903346,-2460745.338825,2573998.753625,-1482151.069893,-0.000047,0.000048,-0.000028
1.160000,-1.120000,0.880033,0.080000,-9105.560257,-1948272.830936,1991263.971423,461006.430099,-0.000037,0.000037,0.000009
1.240000,-1.120000,0.880088,0.080000,-8329.187672,-709806.597201,688328.011769,1136646.858293,-0.000013,0.000013,0.000021
1.320000,-1.120000,0.880004,0.080000,-2869.530535,191576.194331,-232703.529634,815864.221223,0.000004,-0.000004,0.000015
1.400000,-1.120000,0.880029,0.080000,1608.655207,427926.536287,-452324.650771,243397.680544,0.000008,-0.000008,0.000005
1.480000,-1.120000,0.880095,0.080000,3483.355310,266330.833954,-268427.377346,-79900.231473,0.000005,-0.000005,-0.000002
1.560000,-1.120000,0.880006,0.080000,3659.707204,61901.763529,-56096.444858,-102418.156120,0.000001,-0.000001,-0.000002
1.640000,-1.120000,0.860000,0.080000,3408.753197,-63870.538492,63085.352434,3195.628289,-0.000001,0.000001,0.000000
1.720000,-1.120000,0.780000,0.080000,3575.469746,-213764.182193,199685.124461,62950.776457,-0.000004,0.000004,0.000001
1.800000,-1.120000,0.700000,0.080000,5173.209741,-549966.737330,526673.450880,-181527.680296,-0.000010,0.000010,-0.000003
1.880000,-1.120000,0.620000,0.080000,10287.727426,-909705.360134,935983.555146,-1587850.231083,-0.000017,0.000017,-0.000030
1.960000,-1.120000,0.540000,0.080000,20374.446776,1139552.251106,-807417.240765,-6995774.761162,0.000020,-0.000017,-0.000132
2.040000,-1.120000,0.460000,0.080000,17900.700447,19591333.615634,-19106100.688883,-20871790.057701,0.000366,-0.000363,-0.000393
2.120000,-1.120000,0.380000,0.080000,-136246.294023,116824052.043427,-117655992.402608,-43490313.630638,0.002206,-0.002212,-0.000819
-2.120000,-1.040000,0.380136,0.080000,-44453.140578,-86661129.995699,87301978.088201,-130229502.462193,-0.001636,0.001641,-0.002454
-2.040000,-1.040000,0.460112,0.080000,-69321.458964,-7031625.852223,6671121.422482,-38163806.650125,-0.000130,0.000128,-0.000719
-1.960000,-1.040000,0.540095,0.080000,-25357.303840,3579292.971977,-3810249.430355,-10250770.983789,0.000069,-0.000070,-0.000193
-1.880000,-1.040000,0.620083,0.080000,-212.237491,2518867.395700,-2446576.764038,-1837379.468851,0.000047,-0.000047,-0.000035
-1.800000,-1.040000,0.700074,0.080000,9000.480794,1039761.247660,-981167.412255,-37976.275916,0.000019,-0.000019,-0.000001
-1.720000,-1.040000,0.780066,0.080000,11313.860004,303563.698811,-275788.926506,199262.297632,0.000006,-0.000005,0.000004
-1.640000,-1.040000,0.860060,0.080000,11526.581378,35005.819734,-22994.717016,150610.180211,0.000001,-0.000001,0.000003
-1.560000,-1.040000,0.940055,0.080000,11440.070560,-11155.172134,17960.937769,115232.466431,-0.000000,0.000000,0.000002
-1.480000,-1.040000,0.960087,0.080000,11382.526881,65063.447086,-61644.118314,96882.481245,0.000001,-0.000001,0.000002
-1.400000,-1.040000,0.960027,0.080000,10886.310332,198154.414264,-202736.222349,943.974636,0.000004,-0.000004,0.000000
-1.320000,-1.040000,0.960004,0.080000,9145.483963,254054.061972,-270418.044775,-249623.086611,0.000005,-0.000005,-0.000005
-1.240000,-1.040000,0.960081,0.080000,5872.746058,41180.581119,-63010.698489,-580219.735064,0.000001,-0.000001,-0.000011
-1.160000,-1.040000,0.960031,0.080000,2466.764379,-525979.021114,517383.390695,-703468.639053,-0.000010,0.000010,-0.000013
-1.080000,-1.040000,0.960002,0.080000,2482.423940,-1224740.950387,1249046.278686,-264102.764712,-0.000023,0.000023,-0.000005
-1.000000,-1.040000,0.960075,0.080000,10195.766793,-1510670.706196,1568980.218031,831278.511196,-0.000029,0.000029,0.000016
-0.920000,-1.040000,0.960035,0.080000,27229.956043,-826508.127752,890434.301906,2144058.936339,-0.000016,0.000016,0.000040
-0.840000,-1.040000,0.960001,0.080000,49168.448749,910440.967502,-887311.728817,2790341.974806,0.000017,-0.000017,0.000053
-0.760000,-1.040000,0.960069,0.080000,65137.306392,3013962.069083,-3065432.875351,1952881.085481,0.000057,-0.000057,0.000037
-0.680000,-1.040000,0.960039,0.080000,62122.436187,4243312.315658,-4361240.537269,-469597.138973,0.000081,-0.000082,-0.000009
-0.600000,-1.040000,0.960001,0.080000,32657.263518,3501504.101798,-3630727.469681,-3549489.438881,0.000067,-0.000068,-0.000067
-0.520000,-1.040000,0.960063,0.080000,-18440.784895,613472.951660,-678702.290379,-5664476.230886,0.000012,-0.000012,-0.000107
-0.440000,-1.040000,0.960043,0.080000,-73071.712343,-3345069.480443,3394711.584246,-5369607.666330,-0.000063,0.000064,-0.000101
-0.360000,-1.040000,0.960000,0.080000,-106590.737452,-6458201.158732,6614435.319041,-2312370.697934,-0.000123,0.000124,-0.000044
-0.280000,-1.040000,0.960058,0.080000,-99714.350225,-6954912.762517,7148124.591293,2385711.204186,-0.000132,0.000134,0.000045
-0.200000,-1.040000,0.960048,0.080000,-49486.111159,-4227387.367056,4360561.647995,6570606.977502,-0.000080,0.000081,0.000124
-0.120000,-1.040000,0.960000,0.080000,26997.850134,716509.296537,-715833.588996,8129300.468539,0.000013,-0.000013,0.000153
-0.040000,-1.040000,0.960053,0.080000,98891.687998,5664521.300918,-5803442.697861,6120835.883126,0.000108,-0.000109,0.000115
0.040000,-1.040000,0.960053,0.080000,135365.944851,8288820.176413,-8502833.350079,1332763.327766,0.000157,-0.000159,0.000025
0.120000,-1.040000,0.960000,0.080000,120075.921797,7337544.529043,-7523167.226983,-4065410.616100,0.000139,-0.000141,-0.000077
0.200000,-1.040000,0.960048,0.080000,58939.565271,3283224.272425,-3352080.999858,-7605197.297692,0.000062,-0.000063,-0.000143
0.280000,-1.040000,0.960058,0.080000,-22796.285705,-1928311.017600,2003561.838708,-7762663.469728,-0.000037,0.000037,-0.000146
0.360000,-1.040000,0.960000,0.080000,-92642.997315,-5893032.073119,6066268.176828,-4693592.818115,-0.000112,0.000113,-0.000088
0.440000,-1.040000,0.960043,0.080000,-125814.702518,-6971443.101624,7150761.963469,-71440.646712,-0.000132,0.000134,-0.000001
0.520000,-1.040000,0.960063,0.080000,-115445.704229,-5052502.088322,5151747.773790,3859898.838175,-0.000096,0.000097,0.000073
0.600000,-1.040000,0.960001,0.080000,-73335.366949,-1461912.308690,1446011.756377,5468856.991344,-0.000027,0.000027,0.000103
0.680000,-1.040000,0.960039,0.080000,-21770.922705,1883988.252985,-1985845.853546,4488056.661935,0.000036,-0.000037,0.000085
0.760000,-1.040000,0.960069,0.080000,18349.882686,3546393.158017,-3665554.189931,1947839.724808,0.000067,-0.000068,0.000037
0.840000,-1.040000,0.960001,0.080000,36489.287789,3223965.818623,-3297040.506467,-589563.693449,0.000061,-0.000062,-0.000011
0.920000,-1.040000,0.960035,0.080000,34430.668061,1671643.848213,-1675412.753981,-1964122.410548,0.000032,-0.000032,-0.000037
1.000000,-1.040000,0.960075,0.080000,21690.954308,37903.899655,6481.254373,-1940564.510178,0.000000,-0.000000,-0.000037
1.080000,-1.040000,0.960002,0.080000,8439.100762,-872146.290721,923475.739787,-1076289.935127,-0.000017,0.000017,-0.000020
1.160000,-1.040000,0.960031,0.080000,462.788704,-933757.464449,961779.272312,-156866.504958,-0.000018,0.000018,-0.000003
1.240000,-1.040000,0.960081,0.080000,-1700.047373,-525301.812094,525606.562420,332851.697290,-0.000010,0.000010,0.000006
1.320000,-1.040000,0.960004,0.080000,-498.302834,-102227.528593,88962.958731,367660.595940,-0.000002,0.000002,0.000007
1.400000,-1.040000,0.960027,0.080000,1437.080321,109935.976387,-121240.445445,189765.595250,0.000002,-0.000002,0.000004
1.480000,-1.040000,0.960087,0.080000,2733.324369,138712.040634,-142145.294597,33048.615718,0.000003,-0.000003,0.000001
1.560000,-1.040000,0.940055,0.080000,3161.023176,105732.560785,-104825.015999,-2659.179541,0.000002,-0.000002,-0.000000
1.640000,-1.040000,0.860060,0.080000,2912.190502,67599.599169,-71500.128381,98216.231472,0.000001,-0.000001,0.000002
1.720000,-1.040000,0.780066,0.080000,2272.440447,-91641.851230,64402.928467,361694.369258,-0.000002,0.000001,0.000007
1.800000,-1.040000,0.700074,0.080000,2426.019845,-850411.802864,751264.029431,780840.308656,-0.000015,0.000015,0.000015
1.880000,-1.040000,0.620083,0.080000,8696.593472,-3575460.569434,3279876.192086,726523.088400,-0.000066,0.000063,0.000014
1.960000,-1.040000,0.540095,0.080000,39629.979093,-11729104.014370,11454261.167833,-4578349.131083,-0.000219,0.000217,-0.000086
2.040000,-1.040000,0.460112,0.080000,147806.652269,-30180752.381115,29858255.857961,-34132350.569255,-0.000567,0.000564,-0.000643
2.120000,-1.040000,0.380136,0.080000,447313.046108,-51708095.349787,52098532.463535,-180133160.102764,-0.000976,0.000979,-0.003394
-2.120000,-0.960000,0.380136,0.080000,-748705.766639,159811946.088306,-160994895.243759,-157520388.495282,0.003018,-0.003027,-0.002968
-2.040000,-0.960000,0.460112,0.080000,-198092.893268,57443898.101024,-56721299.228383,-23640333.250020,0.001078,-0.001073,-0.000445
-1.960000,-0.960000,0.540095,0.080000,-32599.809544,18334044.442781,-17754809.165583,194577.564545,0.000342,-0.000338,0.000004
-1.880000,-0.960000,0.620083,0.080000,8781.658804,4983845.504536,-4544415.789953,2683025.994062,0.000091,-0.000088,0.000051
-1.800000,-0.960000,0.700074,0.080000,15137.692764,1030059.804761,-893527.238143,1552390.994001,0.000019,-0.000018,0.000029
-1.720000,-0.960000,0.780066,0.080000,13883.532165,25516.513249,11349.900953,655755.618522,0.000000,0.000000,0.000012
-1.640000,-0.960000,0.860060,0.080000,12171.726773,-127107.704143,134861.938246,226146.270092,-0.000002,0.000002,0.000004
-1.560000,-0.960000,0.940055,0.080000,11202.402042,-74655.544876,75347.100558,64763.177522,-0.000001,0.000001,0.000001
-1.480000,-0.960000,1.020050,0.080000,10699.419106,9295.892310,-10922.578217,569.458690,0.000000,-0.000000,0.000000
-1.400000,-0.960000,1.040025,0.080000,10144.253008,68987.560537,-73711.492552,-69433.381274,0.000001,-0.000001,-0.000001
-1.320000,-0.960000,1.040003,0.080000,9174.136764,49872.320503,-57931.139306,-178212.810674,0.000001,-0.000001,-0.000003
-1.240000,-0.960000,1.040075,0.080000,7931.800877,-101606.740461,94168.713231,-272190.667881,-0.000002,0.000002,-0.000005
-1.160000,-0.960000,1.040028,0.080000,7384.371037,-372472.142532,373483.409518,-223236.727801,-0.000007,0.000007,-0.000004
-1.080000,-0.960000,1.040002,0.080000,9216.328254,-621181.131377,636928.671847,86931.822449,-0.000012,0.000012,0.000002
-1.000000,-0.960000,1.040069,0.080000,14931.501398,-604434.381861,632266.608254,633396.967261,-0.000012,0.000012,0.000012
-0.920000,-0.960000,1.040032,0.080000,24349.154449,-125613.684103,151064.591966,1166434.063221,-0.000003,0.000003,0.000022
-0.840000,-0.960000,1.040001,0.080000,34417.420370,770451.465627,-767367.613697,1286698.187739,0.000014,-0.000014,0.000024
-0.760000,-0.960000,1.040064,0.080000,39534.622973,1708269.168326,-1739756.319675,682870.181316,0.000032,-0.000033,0.000013
-0.680000,-0.960000,1.040036,0.080000,33906.312495,2113167.860081,-2172031.116091,-601097.984947,0.000040,-0.000041,-0.000011
-0.600000,-0.960000,1.040001,0.080000,15106.368249,1534178.287495,-1593148.351063,-2065640.318740,0.000029,-0.000030,-0.000039
-0.520000,-0.960000,1.040058,0.080000,-13158.063802,-23876.635862,-831.037000,-2940273.243058,-0.000000,0.000000,-0.000055
-0.440000,-0.960000,1.040040,0.080000,-41120.582621,-1985103.050409,2016078.917083,-2590876.010263,-0.000038,0.000038,-0.000049
-0.360000,-0.960000,1.040000,0.080000,-56563.581715,-3420231.613637,3500340.496144,-924899.769114,-0.000065,0.000065,-0.000017
-0.280000,-0.960000,1.040053,0.080000,-50597.434327,-3512719.764781,3607395.136517,1459577.771994,-0.000067,0.000067,0.000027
-0.200000,-0.960000,1.040044,0.080000,-22717.964585,-2024052.612771,2087012.897280,3503280.631766,-0.000038,0.000039,0.000066
-0.120000,-0.960000,1.040000,0.080000,17737.478989,512970.110622,-515462.633645,4198671.303330,0.000010,-0.000010,0.000079
-0.040000,-0.960000,1.040049,0.080000,54924.662909,3004509.962703,-3074854.637849,3118659.917191,0.000057,-0.000058,0.000059
0.040000,-0.960000,1.040049,0.080000,73304.933587,4318123.227459,-4424809.104219,669373.564757,0.000082,-0.000083,0.000013
0.120000,-0.960000,1.040000,0.080000,64689.314293,3847432.493121,-3940582.338714,-2082521.660761,0.000073,-0.000074,-0.000039
0.200000,-0.960000,1.040044,0.080000,32009.035783,1817884.171112,-1854734.958901,-3927214.464641,0.000034,-0.000035,-0.000074
0.280000,-0.960000,1.040053,0.080000,-12084.693669,-831537.510270,865010.280674,-4103504.199558,-0.000016,0.000016,-0.000077
0.360000,-0.960000,1.040000,0.080000,-51057.703462,-2926579.661140,3009616.118610,-2652582.167399,-0.000056,0.000056,-0.000050
0.440000,-0.960000,1.040040,0.080000,-71799.172303,-3637119.769420,3726720.115467,-352424.743696,-0.000069,0.000070,-0.000007
0.520000,-0.960000,1.040058,0.080000,-69800.746164,-2848640.317991,2903230.151078,1717109.018542,-0.000054,0.000054,0.000032
0.600000,-0.960000,1.040001,0.080000,-49898.008053,-1140497.972484,1141079.363653,2727710.867467,-0.000021,0.000021,0.000051
0.680000,-0.960000,1.040036,0.080000,-22698.458585,588065.641477,-630994.591895,2470078.375201,0.000011,-0.000012,0.000047
0.760000,-0.960000,1.040064,0.080000,996.044195,1608488.194480,-1665008.162810,1354742.161160,0.000031,-0.000031,0.000026
0.840000,-0.960000,1.040001,0.080000,14735.293527,1687771.860686,-1727971.153817,89552.669398,0.000032,-0.000032,0.000002
0.920000,-0.960000,1.040032,0.080000,17912.519216,1091355.528973,-1101389.970342,-740000.062770,0.000021,-0.000021,-0.000014
1.000000,-0.960000,1.040069,0.080000,14163.142827,318397.400378,-304007.029851,-933597.499054,0.000006,-0.000006,-0.000018
1.080000,-0.960000,1.040002,0.080000,8288.458699,-223286.869085,245600.268490,-663055.592242,-0.000004,0.000005,-0.000012
1.160000,-0.960000,1.040028,0.080000,3709.667053,-397551.426609,413366.904928,-257234.194687,-0.000008,0.000008,-0.000005
1.240000,-0.960000,1.040075,0.080000,1582.444041,-307597.564566,312138.867692,30539.337782,-0.000006,0.000006,0.000001
1.320000,-0.960000,1.040003,0.080000,1398.311049,-137482.264685,134576.014219,125295.423022,-0.000003,0.000003,0.000002
1.400000,-0.960000,1.040025,0.080000,2111.381787,-9825.175497,6003.111375,86892.232233,-0.000000,0.000000,0.000002
1.480000,-0.960000,1.020050,0.080000,2908.602818,59533.567982,-59789.704751,9691.552408,0.000001,-0.000001,0.000000
1.560000,-0.960000,0.940055,0.080000,3325.077239,127647.397311,-122883.036801,-34410.891519,0.000002,-0.000002,-0.000001
1.640000,-0.960000,0.860060,0.080000,2899.176397,268998.122497,-260668.820694,36046.512240,0.000005,-0.000005,0.000001
1.720000,-0.960000,0.780066,0.080000,722.105435,499201.580555,-498563.431020,443814.558032,0.000009,-0.000009,0.000008
1.800000,-0.960000,0.700074,0.080000,-4567.226815,502083.905610,-565022.441961,1827430.217114,0.000010,-0.000010,0.000034
1.880000,-0.960000,0.620083,0.080000,-12358.664718,-1516310.658215,1157690.728334,5740264.883204,-0.000027,0.000024,0.000108
1.960000,-0.960000,0.540095,0.080000,-7046.979318,-13569980.519336,12689906.124137,15271562.542173,-0.000251,0.000244,0.000288
2.040000,-0.960000,0.460112,0.080000,96928.458339,-65927833.638854,64742021.001524,30537074.695059,-0.001235,0.001226,0.000575
2.120000,-0.960000,0.380136,0.080000,668863.105126,-264617521.889803,266591659.933704,27738013.179486,-0.004997,0.005012,0.000523
-2.120000,-0.880000,0.380000,0.080000,-522645.821017,265098072.466358,-267109051.713432,148340166.465358,0.005006,-0.005021,0.002795
-2.040000,-0.880000,0.460000,0.080000,-6679.431497,62855453.600485,-61614276.522628,63237116.763879,0.001177,-0.001168,0.001191
-1.960000,-0.880000,0.540000,0.080000,59632.491177,10881655.321006,-9966232.426258,25080819.103567,0.000200,-0.000193,0.000473
-1.880000,-0.880000,0.620000,0.080000,44203.914114,-105986.492689,439694.449407,8491932.203824,-0.000004,0.000006,0.000160
-1.800000,-0.880000,0.700000,0.080000,26149.725241,-1351531.734817,1393948.622771,2589112.092342,-0.000026,0.000026,0.000049
-1.720000,-0.880000,0.780000,0.080000,16145.820436,-901711.797602,889289.672663,612868.679820,-0.000017,0.000017,0.000012
-1.640000,-0.880000,0.860000,0.080000,11901.028123,-429953.652091,415761.386113,45351.679639,-0.000008,0.000008,0.000001
-1.560000,-0.880000,0.940000,0.080000,10474.618299,-155490.685157,146946.827529,-71664.933239,-0.000003,0.000003,-0.000001
-1.480000,-0.880000,1.020000,0.080000,10092.337884,-24965.463859,20014.068235,-79076.709948,-0.000000,0.000000,-0.000001
-1.400000,-0.880000,1.100000,0.080000,9900.009117,16779.450673,-20727.611105,-85820.949363,0.000000,-0.000000,-0.000002
-1.320000,-0.880000,1.120003,0.080000,9624.226120,-10914.322660,7205.740224,-106774.915428,-0.000000,0.000000,-0.000002
-1.240000,-0.880000,1.120069,0.080000,9440.535369,-100839.506473,98972.139849,-106895.159859,-0.000002,0.000002,-0.000002
-1.160000,-0.880000,1.120026,0.080000,9913.711410,-220147.744230,223033.976118,-29462.619384,-0.000004,0.000004,-0.000001
-1.080000,-0.880000,1.120002,0.080000,11779.310856,-289094.893863,298297.422195,159282.819547,-0.000005,0.000006,0.000003
-1.000000,-0.880000,1.120064,0.080000,15440.837337,-203631.465057,216562.570676,418678.101582,-0.000004,0.000004,0.000008
-0.920000,-0.880000,1.120030,0.080000,20328.515985,95968.886487,-86514.429277,615039.096575,0.000002,-0.000002,0.000012
-0.840000,-0.880000,1.120001,0.080000,24545.049704,549307.580397,-551830.409929,571426.643508,0.000010,-0.000010,0.000011
-0.760000,-0.880000,1.120059,0.080000,25260.438352,955590.164879,-974084.915942,177880.857160,0.000018,-0.000018,0.000003
-0.680000,-0.880000,1.120033,0.080000,19970.298692,1049513.033964,-1078947.337798,-499760.068947,0.000020,-0.000020,-0.000009
-0.600000,-0.880000,1.120001,0.080000,8139.539980,651478.433109,-678285.344615,-1194309.210465,0.000012,-0.000013,-0.000023
-0.520000,-0.880000,1.120054,0.080000,-7699.733174,-191328.097142,182904.203471,-1538213.022812,-0.000004,0.000003,-0.000029
-0.440000,-0.880000,1.120037,0.080000,-22263.598989,-1169915.768971,1188724.265960,-1255557.942717,-0.000022,0.000022,-0.000024
-0.360000,-0.880000,1.120000,0.080000,-29452.484234,-1829572.837696,1871099.312032,-341638.989631,-0.000035,0.000035,-0.000006
-0.280000,-0.880000,1.120050,0.080000,-25181.041098,-1792685.676246,1839565.076760,882267.130942,-0.000034,0.000034,0.000017
-0.200000,-0.880000,1.120041,0.080000,-9717.637230,-972244.722637,1002194.392408,1889460.792191,-0.000018,0.000019,0.000036
-0.120000,-0.880000,1.120000,0.080000,11788.372217,347130.403365,-349903.886470,2195409.207916,0.000007,-0.000007,0.000041
-0.040000,-0.880000,1.120045,0.080000,31089.291886,1618047.505273,-1654168.959731,1606477.491902,0.000031,-0.000031,0.000030
0.040000,-0.880000,1.120045,0.080000,40251.359637,2283417.580711,-2337325.842215,334751.094363,0.000043,-0.000044,0.000006
0.120000,-0.880000,1.120000,0.080000,35122.958629,2046183.248416,-2093589.910487,-1088938.998839,0.000039,-0.000039,-0.000021
0.200000,-0.880000,1.120041,0.080000,17183.381231,1014718.966131,-1034689.743160,-2064303.244417,0.000019,-0.000019,-0.000039
0.280000,-0.880000,1.120050,0.080000,-7130.657354,-352963.013774,367739.604680,-2205731.355769,-0.000007,0.000007,-0.000042
0.360000,-0.880000,1.120000,0.080000,-29274.524655,-1476083.452365,1516288.212986,-1514713.692219,-0.000028,0.000028,-0.000029
0.440000,-0.880000,1.120037,0.080000,-42212.792198,-1928337.995977,1973684.705418,-354997.902002,-0.000037,0.000037,-0.000007
0.520000,-0.880000,1.120054,0.080000,-43081.716329,-1621252.244238,1651422.758209,747865.100597,-0.000031,0.000031,0.000014
0.600000,-0.880000,1.120001,0.080000,-33755.327344,-805737.634708,810381.482380,1368117.503737,-0.000015,0.000015,0.000026
0.680000,-0.880000,1.120033,0.080000,-19299.588444,93024.022415,-110584.716501,1362203.874440,0.000002,-0.000002,0.000026
0.760000,-0.880000,1.120059,0.080000,-5333.486807,703092.963261,-729848.835162,885961.602477,0.000013,-0.000014,0.000017
0.840000,-0.880000,1.120001,0.080000,4293.217635,867874.048578,-889615.064914,260063.330782,0.000016,-0.000017,0.000005
0.920000,-0.880000,1.120030,0.080000,8495.269665,667551.803843,-676368.003686,-220090.393388,0.000013,-0.000013,-0.000004
1.000000,-0.880000,1.120064,0.080000,8476.987319,315535.804729,-312198.687084,-417179.914522,0.000006,-0.000006,-0.000008
1.080000,-0.880000,1.120002,0.080000,6418.778010,14461.465719,-5384.590865,-368124.090379,0.000000,-0.000000,-0.000007
1.160000,-0.880000,1.120026,0.080000,4213.872885,-138188.130723,146265.561230,-205156.546390,-0.000003,0.000003,-0.000004
1.240000,-0.880000,1.120069,0.080000,2845.760621,-156526.367895,160294.755275,-54694.646396,-0.000003,0.000003,-0.000001
1.320000,-0.880000,1.120003,0.080000,2457.430848,-110054.803742,110101.446772,20265.288839,-0.000002,0.000002,0.000000
1.400000,-0.880000,1.100000,0.080000,2772.785053,-58835.063410,57933.537433,16371.690996,-0.000001,0.000001,0.000000
1.480000,-0.880000,1.020000,0.080000,3468.127634,-15671.978686,17361.480897,-47736.618424,-0.000000,0.000000,-0.000001
1.560000,-0.880000,0.940000,0.080000,4249.267438,70110.651756,-60733.629540,-160727.632784,0.000001,-0.000001,-0.000003
1.640000,-0.880000,0.860000,0.080000,4516.884260,344215.172962,-316757.887879,-300937.091081,0.000006,-0.000006,-0.000006
1.720000,-0.880000,0.780000,0.080000,2402.718934,1139140.107728,-1071586.880967,-304110.571736,0.000021,-0.000021,-0.000006
1.800000,-0.880000,0.700000,0.080000,-7414.870719,3141183.797968,-2996155.153031,612168.050651,0.000058,-0.000057,0.000012
1.880000,-0.880000,0.620000,0.080000,-38118.036416,7448806.118955,-7205699.001057,5444703.346410,0.000139,-0.000137,0.000103
1.960000,-0.880000,0.540000,0.080000,-117317.855969,14392009.844865,-14569017.481407,26158044.405376,0.000272,-0.000273,0.000493
2.040000,-0.880000,0.460000,0.080000,-285504.679294,14287296.156952,-14608271.035389,95800419.498912,0.000271,-0.000273,0.001805
2.120000,-0.880000,0.380000,0.080000,-522023.290799,-49621912.869765,50041079.207621,347073421.494654,-0.000937,0.000940,0.006539
-2.120000,-0.800000,0.380106,0.080000,1112544.385111,-69082002.516533,69537836.740108,382980907.431464,-0.001304,0.001308,0.007216
-2.040000,-0.800000,0.460087,0.080000,494052.869421,-51260751.956625,51174600.521641,105616807.120102,-0.000965,0.000965,0.001990
-1.960000,-0.800000,0.540074,0.080000,198150.760590,-26618893.033018,26483151.861374,28288092.698639,-0.000501,0.000500,0.000533
-1.880000,-0.800000,0.620065,0.080000,74234.712770,-11703991.763468,11240497.191073,5424139.697801,-0.000218,0.000214,0.000102
-1.800000,-0.800000,0.700057,0.080000,27824.766513,-4679664.354165,4455569.826648,249366.691156,-0.000087,0.000085,0.000005
-1.720000,-0.800000,0.780051,0.080000,12744.277956,-1679359.040087,1582022.677564,-608394.839105,-0.000031,0.000030,-0.000011
-1.640000,-0.800000,0.860047,0.080000,9040.442217,-508624.986624,469525.883586,-497187.002641,-0.000009,0.000009,-0.000009
-1.560000,-0.800000,0.940043,0.080000,8852.805888,-96699.416894,82031.917137,-285176.237606,-0.000002,0.000002,-0.000005
-1.480000,-0.800000,1.020039,0.080000,9384.751637,22310.099377,-27693.396892,-145998.008905,0.000000,-0.000000,-0.000003
-1.400000,-0.800000,1.100036,0.080000,9811.601347,31603.866881,-33910.177161,-79920.692788,0.000001,-0.000001,-0.000002
-1.320000,-0.800000,1.180034,0.080000,10052.015891,-4753.462620,3626.905874,-51883.609968,-0.000000,0.000000,-0.000001
-1.240000,-0.800000,1.200065,0.080000,10330.271546,-61523.290084,61827.340436,-22611.151796,-0.000001,0.000001,-0.000000
-1.160000,-0.800000,1.200024,0.080000,11000.796331,-112613.082167,115263.976208,39669.206801,-0.000002,0.000002,0.000001
-1.080000,-0.800000,1.200002,0.080000,12376.536675,-118455.243827,123571.478678,143335.511405,-0.000002,0.000002,0.000003
-1.000000,-0.800000,1.200060,0.080000,14480.098871,-38643.145081,44469.857008,257786.926996,-0.000001,0.000001,0.000005
-0.920000,-0.800000,1.200028,0.080000,16796.231324,137387.785357,-134343.526703,314692.965424,0.000003,-0.000003,0.000006
-0.840000,-0.800000,1.200001,0.080000,18214.725646,362045.483438,-365306.498084,237912.036259,0.000007,-0.000007,0.000004
-0.760000,-0.800000,1.200055,0.080000,17335.375432,529723.093066,-540310.361884,-5494.137295,0.000010,-0.000010,-0.000000
-0.680000,-0.800000,1.200031,0.080000,13128.972677,518845.999629,-533571.586162,-361868.174571,0.000010,-0.000010,-0.000007
-0.600000,-0.800000,1.200001,0.080000,5690.109976,261885.223760,-273968.960302,-689185.436003,0.000005,-0.000005,-0.000013
-0.520000,-0.800000,1.200051,0.080000,-3352.308502,-195341.020691,193138.932819,-811722.394070,-0.000004,0.000004,-0.000015
-0.440000,-0.800000,1.200035,0.080000,-11131.180141,-686723.293035,697949.017347,-611256.752373,-0.000013,0.000013,-0.000012
-0.360000,-0.800000,1.200000,0.080000,-14582.190237,-987936.374979,1009689.258354,-106566.114466,-0.000019,0.000019,-0.000002
-0.280000,-0.800000,1.200046,0.080000,-11840.788136,-923991.177855,947450.300897,528611.293531,-0.000018,0.000018,0.000010
-0.200000,-0.800000,1.200038,0.080000,-3326.540754,-467628.772758,481960.754655,1029460.139959,-0.000009,0.000009,0.000019
-0.120000,-0.800000,1.200000,0.080000,8094.530005,227593.894614,-229828.288438,1160848.230836,0.000004,-0.000004,0.000022
-0.040000,-0.800000,1.200042,0.080000,18072.364698,884278.703023,-903099.818182,835211.253547,0.000017,-0.000017,0.000016
0.040000,-0.800000,1.200042,0.080000,22503.695425,1225070.137954,-1252701.313556,164743.620142,0.000023,-0.000023,0.000003
0.120000,-0.800000,1.200000,0.080000,19260.321805,1102691.937591,-1127169.472957,-582903.583607,0.000021,-0.000021,-0.000011
0.200000,-0.800000,1.200038,0.080000,9106.540593,569762.498590,-580709.634738,-1105920.222787,0.000011,-0.000011,-0.000021
0.280000,-0.800000,1.200046,0.080000,-4628.093109,-147618.265504,154067.372835,-1206174.828128,-0.000003,0.000003,-0.000023
0.360000,-0.800000,1.200000,0.080000,-17456.721941,-758383.585470,778058.249969,-874351.572944,-0.000014,0.000015,-0.000016
0.440000,-0.800000,1.200035,0.080000,-25549.764724,-1040588.161989,1063832.413632,-281580.005650,-0.000020,0.000020,-0.000005
0.520000,-0.800000,1.200051,0.080000,-27122.441572,-933199.486110,949960.973033,313414.995208,-0.000018,0.000018,0.000006
0.600000,-0.800000,1.200001,0.080000,-22823.038129,-543232.408095,547850.792116,689267.829154,-0.000010,0.000010,0.000013
0.680000,-0.800000,1.200031,0.080000,-15074.443955,-73009.883909,66220.345971,753760.480097,-0.000001,0.000001,0.000014
0.760000,-0.800000,1.200055,0.080000,-6817.733638,286307.323600,-298888.264975,560720.986001,0.000005,-0.000006,0.000011
0.840000,-0.800000,1.200001,0.080000,-318.015359,436427.191433,-448022.700480,254778.043585,0.000008,-0.000008,0.000005
0.920000,-0.800000,1.200028,0.080000,3457.805354,391959.976371,-398176.289645,-15211.435765,0.000007,-0.000007,-0.000000
1.000000,-0.800000,1.200060,0.080000,4761.995651,241397.316872,-241690.858737,-163353.549851,0.000005,-0.000005,-0.000003
1.080000,-0.800000,1.200002,0.080000,4522.830936,83290.756185,-80033.671381,-184638.612474,0.000002,-0.000002,-0.000003
1.160000,-0.800000,1.200024,0.080000,3731.247334,-22485.769975,26172.332419,-128041.443375,-0.000000,0.000000,-0.000002
1.240000,-0.800000,1.200065,0.080000,3061.893977,-67701.068908,69744.121375,-53484.967448,-0.000001,0.000001,-0.000001
1.320000,-0.800000,1.180034,0.080000,2813.940602,-78732.601627,78665.528279,-2545.914804,-0.000001,0.000001,-0.000000
1.400000,-0.800000,1.100036,0.080000,3070.103080,-89597.388085,88192.747800,3610.024578,-0.000002,0.000002,0.000000
1.480000,-0.800000,1.020039,0.080000,3906.503607,-119412.295423,118576.093678,-57126.309159,-0.000002,0.000002,-0.000001
1.560000,-0.800000,0.940043,0.080000,5506.542187,-147272.054781,151991.124750,-243458.760849,-0.000003,0.000003,-0.000005
1.640000,-0.800000,0.860047,0.080000,8003.242311,-42713.015101,68474.255014,-696279.992478,-0.000001,0.000001,-0.000013
1.720000,-0.800000,0.780051,0.080000,10565.635785,661686.009992,-566849.692704,-1682178.850525,0.000012,-0.000011,-0.000032
1.800000,-0.800000,0.700057,0.080000,8166.841627,3464672.016238,-3157052.160168,-3533747.199189,0.000064,-0.000061,-0.000067
1.880000,-0.800000,0.620065,0.080000,-18715.731748,12939598.498415,-11999154.056794,-5971734.148947,0.000238,-0.000231,-0.000113
1.960000,-0.800000,0.540074,0.080000,-135445.452608,43407845.053545,-42124236.065776,-3790913.341353,0.000811,-0.000801,-0.000071
2.040000,-0.800000,0.460087,0.080000,-546692.811394,135328930.965843,-133699821.282090,26353994.551692,0.002540,-0.002528,0.000497
2.120000,-0.800000,0.380106,0.080000,-1875669.555385,403240070.058890,-406230611.217258,195502122.422526,0.007614,-0.007637,0.003683
-2.120000,-0.720000,0.380169,0.080000,2260423.925081,-475869876.665621,479410821.015629,104218635.917107,-0.008986,0.009012,0.001964
-2.040000,-0.720000,0.460140,0.080000,672261.741557,-161321542.660797,159395577.065733,-1567074.388007,-0.003029,0.003014,-0.000030
-1.960000,-0.720000,0.540119,0.080000,176554.520015,-52233333.923102,50718660.851581,-14085787.895081,-0.000976,0.000964,-0.000265
-1.880000,-0.720000,0.620104,0.080000,34818.957677,-15748719.065236,14624288.331720,-10024586.830996,-0.000290,0.000282,-0.000189
-1.800000,-0.720000,0.700092,0.080000,2253.140945,-4268362.177679,3896570.183260,-5302776.788655,-0.000078,0.000076,-0.000100
-1.720000,-0.720000,0.780082,0.080000,-216.475772,-813139.393079,696289.722623,-2474864.109800,-0.000015,0.000014,-0.000047
-1.640000,-0.720000,0.860075,0.080000,3405.604371,77480.925171,-110514.438570,-1052366.825406,0.000002,-0.000002,-0.000020
-1.560000,-0.720000,0.940068,0.080000,6793.302046,212263.870740,-219452.886236,-405273.348976,0.000004,-0.000004,-0.000008
-1.480000,-0.720000,1.020063,0.080000,8886.647638,161554.849581,-161856.398901,-136176.843684,0.000003,-0.000003,-0.000003
-1.400000,-0.720000,1.100058,0.080000,9954.439006,86585.058755,-85662.057877,-35564.072457,0.000002,-0.000002,-0.000001
-1.320000,-0.720000,1.180055,0.080000,10464.359331,22655.122943,-21679.470338,765.502781,0.000000,-0.000000,0.000000
-1.240000,-0.720000,1.260051,0.080000,10823.802771,-24903.636098,26205.878027,24822.027444,-0.000000,0.000000,0.000000
-1.160000,-0.720000,1.280023,0.080000,11334.880715,-49602.815493,51692.487696,60427.457485,-0.000001,0.000001,0.000001
-1.080000,-0.720000,1.280002,0.080000,12150.966865,-38468.692193,41262.069934,109408.532767,-0.000001,0.000001,0.000002
-1.000000,-0.720000,1.280056,0.080000,13196.613366,19577.013638,-17055.192730,152428.833475,0.000000,-0.000000,0.000003
-0.920000,-0.720000,1.280026,0.080000,14101.899773,119191.956609,-118561.338762,155409.907179,0.000002,-0.000002,0.000003
-0.840000,-0.720000,1.280001,0.080000,14240.519098,228181.488581,-230826.826363,86715.860374,0.000004,-0.000004,0.000002
-0.760000,-0.720000,1.280052,0.080000,12934.495138,291694.075601,-297656.954269,-59409.603737,0.000006,-0.000006,-0.000001
-0.680000,-0.720000,1.280029,0.080000,9797.233125,254745.659229,-262110.589082,-246239.193340,0.000005,-0.000005,-0.000005
-0.600000,-0.720000,1.280001,0.080000,5073.676443,94748.772975,-100116.873297,-398737.640398,0.000002,-0.000002,-0.000008
-0.520000,-0.720000,1.280047,0.080000,-224.079558,-154055.853910,154011.338721,-432939.888083,-0.000003,0.000003,-0.000008
-0.440000,-0.720000,1.280032,0.080000,-4535.548812,-402165.897431,408793.254145,-299533.281509,-0.000008,0.000008,-0.000006
-0.360000,-0.720000,1.280000,0.080000,-6312.827354,-538067.105836,549576.401563,-18934.562061,-0.000010,0.000010,-0.000000
-0.280000,-0.720000,1.280043,0.080000,-4715.452261,-480617.523840,492479.867288,314292.248521,-0.000009,0.000009,0.000006
-0.200000,-0.720000,1.280036,0.080000,-113.254912,-224581.339850,231475.853043,565516.259398,-0.000004,0.000004,0.000011
-0.120000,-0.720000,1.280000,0.080000,5884.903994,146399.297609,-148000.390436,619564.408591,0.000003,-0.000003,0.000012
-0.040000,-0.720000,1.280040,0.080000,10955.697919,489923.641208,-499878.811956,437051.153712,0.000009,-0.000009,0.000008
0.040000,-0.720000,1.280040,0.080000,12950.684534,666158.788430,-680531.824635,78117.297492,0.000013,-0.000013,0.000001
0.120000,-0.720000,1.280000,0.080000,10768.462572,601181.018710,-614005.452762,-320400.104715,0.000011,-0.000011,-0.000006
0.200000,-0.720000,1.280036,0.080000,4815.596385,320857.992937,-326922.404368,-604642.587196,0.000006,-0.000006,-0.000011
0.280000,-0.720000,1.280043,0.080000,-3154.406851,-61726.751931,64492.139813,-671357.487752,-0.000001,0.000001,-0.000013
0.360000,-0.720000,1.280000,0.080000,-10745.974645,-398677.807712,408414.582986,-510499.140021,-0.000008,0.000008,-0.000010
0.440000,-0.720000,1.280032,0.080000,-15844.421675,-572888.115822,584957.188406,-203104.341065,-0.000011,0.000011,-0.000004
0.520000,-0.720000,1.280047,0.080000,-17348.751996,-544613.272124,553981.970797,121961.796255,-0.000010,0.000010,0.000002
0.600000,-0.720000,1.280001,0.080000,-15423.682173,-358309.969079,361873.398864,348335.554272,-0.000007,0.000007,0.000007
0.680000,-0.720000,1.280029,0.080000,-11226.719358,-110723.140245,108392.940423,418904.431660,-0.000002,0.000002,0.000008
0.760000,-0.720000,1.280052,0.080000,-6307.116576,99352.887944,-105185.199487,348427.881092,0.000002,-0.000002,0.000007
0.840000,-0.720000,1.280001,0.080000,-1988.452632,212596.056953,-218692.779518,201480.627267,0.000004,-0.000004,0.000004
0.920000,-0.720000,1.280026,0.080000,1006.012961,223606.319944,-227571.832024,52960.413338,0.000004,-0.000004,0.000001
1.000000,-0.720000,1.280056,0.080000,2593.026146,167210.279712,-168350.020041,-45829.054126,0.000003,-0.000003,-0.000001
1.080000,-0.720000,1.280002,0.080000,3116.686618,90271.217667,-89386.809448,-80378.030619,0.000002,-0.000002,-0.000002
1.160000,-0.720000,1.280023,0.080000,3057.463742,26646.583384,-25195.978028,-64971.508656,0.000000,-0.000000,-0.000001
1.240000,-0.720000,1.260051,0.080000,2819.375462,-14097.277917,14784.905369,-24580.657781,-0.000000,0.000000,-0.000000
1.320000,-0.720000,1.180055,0.080000,2667.953634,-45009.017540,43991.972478,19623.467895,-0.000001,0.000001,0.000000
1.400000,-0.720000,1.100058,0.080000,2811.441046,-95685.530815,92118.647812,51907.540156,-0.000002,0.000002,0.000001
1.480000,-0.720000,1.020063,0.080000,3589.498200,-210453.371839,203134.352552,45604.172166,-0.000004,0.000004,0.000001
1.560000,-0.720000,0.940068,0.080000,5758.014605,-451595.158652,439239.336295,-82079.197228,-0.000008,0.000008,-0.000002
1.640000,-0.720000,0.860075,0.080000,10883.836988,-888316.724001,873129.650316,-580824.518906,-0.000017,0.000017,-0.000011
1.720000,-0.720000,0.780082,0.080000,21750.659253,-1490899.307176,1494374.510552,-2147286.849177,-0.000028,0.000028,-0.000040
1.800000,-0.720000,0.700092,0.080000,41996.675962,-1637409.523571,1759587.372474,-6641249.776803,-0.000032,0.000032,-0.000125
1.880000,-0.720000,0.620104,0.080000,71467.824259,1797449.370252,-1167843.772600,-18909508.004893,0.000030,-0.000026,-0.000356
1.960000,-0.720000,0.540119,0.080000,83809.767366,21891309.749354,-20479815.147058,-52980411.119753,0.000404,-0.000394,-0.000998
2.040000,-0.720000,0.460140,0.080000,-62162.700448,105079406.974407,-103192811.083247,-137007740.393019,0.001969,-0.001955,-0.002581
2.120000,-0.720000,0.380169,0.080000,-947107.730469,403180967.858562,-406253851.088244,-366333264.155954,0.007614,-0.007637,-0.006902
-2.120000,-0.640000,0.380004,0.080000,707222.790557,-358920447.903478,361671196.406540,-457075805.704262,-0.006778,0.006799,-0.008612
-2.040000,-0.640000,0.460003,0.080000,-40343.866504,-93482700.798492,91724204.245798,-170868412.110384,-0.001751,0.001738,-0.003219
-1.960000,-0.640000,0.540003,0.080000,-131387.319267,-17954499.428928,16630394.399944,-66430306.247754,-0.000331,0.000321,-0.001252
-1.880000,-0.640000,0.620003,0.080000,-91025.654467,65256.319213,-656622.596856,-24087827.523876,0.000005,-0.000009,-0.000454
-1.800000,-0.640000,0.700002,0.080000,-45896.067672,2694651.670443,-2801885.266196,-8702825.701994,0.000051,-0.000052,-0.000164
-1.720000,-0.640000,0.780002,0.080000,-16889.738697,2113698.052661,-2108473.271360,-2952271.335149,0.000040,-0.000040,-0.000056
-1.640000,-0.640000,0.860002,0.080000,-1309.050854,1249083.122993,-1228376.676451,-878037.474297,0.000023,-0.000023,-0.000017
-1.560000,-0.640000,0.940002,0.080000,6186.644634,650981.693475,-635301.547014,-178662.838551,0.000012,-0.000012,-0.000003
-1.480000,-0.640000,1.020002,0.080000,9428.185392,308314.008183,-299080.788247,25601.546030,0.000006,-0.000006,0.000000
-1.400000,-0.640000,1.100001,0.080000,10640.917197,126990.880097,-122081.688620,65210.514968,0.000002,-0.000002,0.000001
-1.320000,-0.640000,1.180001,0.080000,11010.316551,34493.541634,-31870.796733,61487.521236,0.000001,-0.000001,0.000001
-1.240000,-0.640000,1.260001,0.080000,11142.354061,-9691.925274,11410.226972,57185.205650,-0.000000,0.000000,0.000001
-1.160000,-0.640000,1.340001,0.080000,11325.633035,-22548.657996,24094.477601,64099.086140,-0.000000,0.000000,0.000001
-1.080000,-0.640000,1.360002,0.080000,11643.751610,-8237.710435,9722.101636,78632.898453,-0.000000,0.000000,0.000001
-1.000000,-0.640000,1.360053,0.080000,12005.633089,31310.364771,-30315.397706,87293.433935,0.000001,-0.000001,0.000002
-0.920000,-0.640000,1.360024,0.080000,12161.141610,87268.511720,-87459.405729,72297.538444,0.000002,-0.000002,0.000001
-0.840000,-0.640000,1.360001,0.080000,11759.233763,139437.389929,-141303.945735,20660.782140,0.000003,-0.000003,0.000000
-0.760000,-0.640000,1.360049,0.080000,10476.047074,159749.003845,-163081.304468,-65449.379196,0.000003,-0.000003,-0.000001
-0.680000,-0.640000,1.360027,0.080000,8190.373150,123954.225135,-127638.924671,-162991.102646,0.000002,-0.000002,-0.000003
-0.600000,-0.640000,1.360001,0.080000,5133.439361,26612.423522,-28943.519416,-232598.707904,0.000001,-0.000001,-0.000004
-0.520000,-0.640000,1.360045,0.080000,1920.157069,-109188.867286,109734.729743,-234318.020600,-0.000002,0.000002,-0.000004
-0.440000,-0.640000,1.360030,0.080000,-597.566088,-235069.661882,238954.995859,-148545.467971,-0.000004,0.000004,-0.000003
-0.360000,-0.640000,1.360000,0.080000,-1634.108734,-295187.545515,301334.463214,8596.853092,-0.000006,0.000006,0.000000
-0.280000,-0.640000,1.360041,0.080000,-818.286960,-251964.659567,258023.501035,185302.490865,-0.000005,0.000005,0.000003
-0.200000,-0.640000,1.360034,0.080000,1573.785828,-107234.679610,110564.476415,312369.566280,-0.000002,0.000002,0.000006
-0.120000,-0.640000,1.360000,0.080000,4632.192738,93019.818876,-94103.787129,332854.378620,0.000002,-0.000002,0.000006
-0.040000,-0.640000,1.360037,0.080000,7101.771792,274740.743515,-280086.923020,229224.044484,0.000005,-0.000005,0.000004
0.040000,-0.640000,1.360037,0.080000,7845.072580,366513.409890,-374102.692711,34155.017189,0.000007,-0.000007,0.000001
0.120000,-0.640000,1.360000,0.080000,6288.203958,330768.291748,-337585.791405,-181374.619931,0.000006,-0.000006,-0.000003
0.200000,-0.640000,1.360034,0.080000,2655.302795,180414.316168,-183807.045741,-337798.548111,0.000003,-0.000003,-0.000006
0.280000,-0.640000,1.360041,0.080000,-2111.911501,-27193.255795,28346.210164,-380549.430558,-0.000001,0.000001,-0.000007
0.360000,-0.640000,1.360000,0.080000,-6712.015871,-215831.144284,220707.419733,-301664.605714,-0.000004,0.000004,-0.000006
0.440000,-0.640000,1.360030,0.080000,-9960.051321,-322890.817518,329240.242726,-139781.797544,-0.000006,0.000006,-0.000003
0.520000,-0.640000,1.360045,0.080000,-11179.654249,-323314.675309,328588.654205,40136.375106,-0.000006,0.000006,0.000001
0.600000,-0.640000,1.360001,0.080000,-10361.645475,-234720.073240,237210.458976,176248.781882,-0.000004,0.000004,0.000003
0.680000,-0.640000,1.360027,0.080000,-8056.335914,-103497.119993,102929.675870,233910.864189,-0.000002,0.000002,0.000004
0.760000,-0.640000,1.360049,0.080000,-5085.239804,19081.871901,-21711.936811,214124.486269,0.000000,-0.000000,0.000004
0.840000,-0.640000,1.360001,0.080000,-2220.537297,98124.745777,-101267.981638,145164.844200,0.000002,-0.000002,0.000003
0.920000,-0.640000,1.360024,0.080000,34.938766,124535.282721,-126896.114194,64616.697308,0.000002,-0.000002,0.000001
1.000000,-0.640000,1.360053,0.080000,1507.474196,110951.212355,-111973.650142,2364.054559,0.000002,-0.000002,0.000000
1.080000,-0.640000,1.360002,0.080000,2276.047379,79486.247543,-79371.435574,-27722.880025,0.000001,-0.000001,-0.000001
1.160000,-0.640000,1.340001,0.080000,2535.346814,49007.937150,-48420.918835,-25866.504717,0.000001,-0.000001,-0.000000
1.240000,-0.640000,1.260001,0.080000,2477.822740,27072.360545,-26858.016442,1897.326610,0.000001,-0.000001,0.000000
1.320000,-0.640000,1.180001,0.080000,2246.519114,6245.002954,-7463.136767,52577.861690,0.000000,-0.000000,0.000001
1.400000,-0.640000,1.100001,0.080000,1984.266477,-40844.941878,36310.327965,130970.271960,-0.000001,0.000001,0.000002
1.480000,-0.640000,1.020002,0.080000,2014.539981,-178120.796075,166011.601945,245909.037798,-0.000003,0.000003,0.000005
1.560000,-0.640000,0.940002,0.080000,3266.370939,-551848.951974,522180.775364,386271.015351,-0.000010,0.000010,0.000007
1.640000,-0.640000,0.860002,0.080000,8247.923355,-1499208.697345,1429162.474897,434941.908014,-0.000028,0.000027,0.000008
1.720000,-0.640000,0.780002,0.080000,23287.144586,-3788178.799869,3627433.241010,-115820.910222,-0.000070,0.000069,-0.000002
1.800000,-0.640000,0.700002,0.080000,63620.327222,-9121384.300697,8763986.623802,-3074266.713253,-0.000170,0.000167,-0.000058
1.880000,-0.640000,0.620003,0.080000,164628.803596,-21124598.633136,20363071.304429,-14406929.170564,-0.000394,0.000388,-0.000271
1.960000,-0.640000,0.540003,0.080000,405635.427486,-47542774.983421,47128190.434025,-55786184.286988,-0.000893,0.000890,-0.001051
2.040000,-0.640000,0.460003,0.080000,957261.123037,-101206604.345204,100756150.070169,-182639592.977707,-0.001904,0.001901,-0.003441
2.120000,-0.640000,0.380004,0.080000,2167149.950472,-201689149.354753,203096044.590479,-606546001.216879,-0.003808,0.003818,-0.011428
-2.120000,-0.560000,0.380079,0.080000,-2802708.363358,280903321.585958,-282884485.036308,-614906906.856488,0.005304,-0.005319,-0.011585
-2.040000,-0.560000,0.460065,0.080000,-1227366.782963,132601683.492409,-131895181.087864,-193010681.732627,0.002494,-0.002489,-0.003636
-1.960000,-0.560000,0.540056,0.080000,-519563.414931,60555105.915382,-59944992.972451,-61313307.872153,0.001137,-0.001133,-0.001155
-1.880000,-0.560000,0.620049,0.080000,-208545.018560,26800922.021471,-25838809.604529,-16636946.374368,0.000500,-0.000492,-0.000313
-1.800000,-0.560000,0.700043,0.080000,-75289.076748,11738821.667388,-11297359.231227,-3820920.147850,0.000219,-0.000215,-0.000072
-1.720000,-0.560000,0.780039,0.080000,-20042.787886,5026321.210610,-4828024.419647,-279525.169814,0.000094,-0.000092,-0.000005
-1.640000,-0.560000,0.860035,0.080000,1732.074079,2089140.688603,-2001599.899329,466505.051485,0.000039,-0.000038,0.000009
-1.560000,-0.560000,0.940032,0.080000,9557.837997,828200.383087,-790174.286379,464174.522913,0.000015,-0.000015,0.000009
-1.480000,-0.560000,1.020030,0.080000,11830.476874,299164.944774,-282934.953516,322178.072391,0.000006,-0.000005,0.000006
-1.400000,-0.560000,1.100027,0.080000,12080.065297,84212.051396,-77397.196404,198207.984600,0.000002,-0.000001,0.000004
-1.320000,-0.560000,1.180026,0.080000,11744.931114,1954.786315,944.230303,118400.049749,0.000000,0.000000,0.000002
-1.240000,-0.560000,1.260024,0.080000,11377.773941,-23672.348928,25076.880191,75998.177833,-0.000000,0.000000,0.000001
-1.160000,-0.560000,1.340022,0.080000,11152.806691,-22318.011196,23217.693536,58467.316710,-0.000000,0.000000,0.000001
-1.080000,-0.560000,1.420021,0.080000,11064.936218,-4520.197033,5167.807254,52889.920333,-0.000000,0.000000,0.000001
-1.000000,-0.560000,1.440050,0.080000,11001.997412,24499.769428,-24250.423335,46558.409808,0.000000,-0.000000,0.000001
-0.920000,-0.560000,1.440023,0.080000,10780.729352,57566.715629,-57997.452929,28480.415840,0.000001,-0.000001,0.000001
-0.840000,-0.560000,1.440001,0.080000,10193.593274,83073.496454,-84329.865527,-7130.636239,0.000002,-0.000002,-0.000000
-0.760000,-0.560000,1.440046,0.080000,9082.288667,87195.122224,-89063.132652,-56987.510270,0.000002,-0.000002,-0.000001
-0.680000,-0.560000,1.440026,0.080000,7424.102519,59857.371370,-61708.052341,-107406.842198,0.000001,-0.000001,-0.000002
-0.600000,-0.560000,1.440000,0.080000,5393.903009,1602.888371,-2582.270200,-137898.416159,0.000000,-0.000000,-0.000003
-0.520000,-0.560000,1.440042,0.080000,3359.311868,-72746.443565,73329.208714,-129608.933580,-0.000001,0.000001,-0.000002
-0.440000,-0.560000,1.440029,0.080000,1786.812848,-136910.428175,139177.264910,-75435.630216,-0.000003,0.000003,-0.000001
-0.360000,-0.560000,1.440000,0.080000,1076.963730,-162713.832804,166025.004024,13310.847352,-0.000003,0.000003,0.000000
-0.280000,-0.560000,1.440039,0.080000,1388.642173,-132813.551770,135937.323190,108063.298845,-0.000003,0.000003,0.000002
-0.200000,-0.560000,1.440032,0.080000,2531.604297,-50543.087965,52154.452041,172869.012068,-0.000001,0.000001,0.000003
-0.120000,-0.560000,1.440000,0.080000,3988.383433,58595.867594,-59307.289293,179320.553057,0.000001,-0.000001,0.000003
-0.040000,-0.560000,1.440035,0.080000,5074.417289,155589.897853,-158504.267987,119763.788816,0.000003,-0.000003,0.000002
0.040000,-0.560000,1.440035,0.080000,5182.154732,203490.392770,-207557.781249,12202.971942,0.000004,-0.000004,0.000000
0.120000,-0.560000,1.440000,0.080000,4011.946837,182967.618696,-186643.749562,-105988.642476,0.000003,-0.000003,-0.000002
0.200000,-0.560000,1.440032,0.080000,1692.790996,100575.974050,-102491.551642,-193055.954672,0.000002,-0.000002,-0.000004
0.280000,-0.560000,1.440039,0.080000,-1258.567197,-14165.017529,14623.556322,-219760.715612,-0.000000,0.000000,-0.000004
0.360000,-0.560000,1.440000,0.080000,-4122.024094,-121399.612173,123872.485269,-180488.820664,-0.000002,0.000002,-0.000003
0.440000,-0.560000,1.440029,0.080000,-6223.355252,-187221.379758,190606.611412,-93800.711187,-0.000004,0.000004,-0.000002
0.520000,-0.560000,1.440042,0.080000,-7146.766440,-196126.533179,199119.168550,7134.199891,-0.000004,0.000004,0.000000
0.600000,-0.560000,1.440000,0.080000,-6832.905634,-154479.323277,156136.764631,89067.284366,-0.000003,0.000003,0.000002
0.680000,-0.560000,1.440026,0.080000,-5540.311727,-84525.172331,84591.695788,131195.117616,-0.000002,0.000002,0.000002
0.760000,-0.560000,1.440046,0.080000,-3707.166494,-12941.027445,11816.273248,130502.558637,-0.000000,0.000000,0.000002
0.840000,-0.560000,1.440001,0.080000,-1784.488073,40148.399578,-41718.868002,98877.154101,0.000001,-0.000001,0.000002
0.920000,-0.560000,1.440023,0.080000,-109.395685,67035.473907,-68345.312505,54994.470932,0.000001,-0.000001,0.000001
1.000000,-0.560000,1.440050,0.080000,1144.467482,71872.730293,-72517.935408,15857.214396,0.000001,-0.000001,0.000000
1.080000,-0.560000,1.420021,0.080000,1942.179894,65679.995452,-65613.481004,-7987.014975,0.000001,-0.000001,-0.000000
1.160000,-0.560000,1.340022,0.080000,2319.164617,60342.572577,-59773.861688,-12039.475464,0.000001,-0.000001,-0.000000
1.240000,-0.560000,1.260024,0.080000,2306.702160,64106.344599,-63398.761716,6966.532790,0.000001,-0.000001,0.000000
1.320000,-0.560000,1.180026,0.080000,1880.227298,78409.438964,-78181.979554,58937.836272,0.000001,-0.000001,0.000001
1.400000,-0.560000,1.100027,0.080000,952.104878,92039.837963,-93792.577534,171508.672582,0.000002,-0.000002,0.000003
1.480000,-0.560000,1.020030,0.080000,-550.085655,62179.132575,-70176.671402,407501.811702,0.000001,-0.000001,0.000008
1.560000,-0.560000,0.940032,0.080000,-2389.515835,-143425.231106,116992.292485,895074.481247,-0.000003,0.000002,0.000017
1.640000,-0.560000,0.860035,0.080000,-3116.681647,-911192.635730,832110.802798,1876592.403516,-0.000017,0.000016,0.000035
1.720000,-0.560000,0.780039,0.080000,2562.458486,-3340324.818940,3113465.153979,3764659.421672,-0.000062,0.000060,0.000071
1.800000,-0.560000,0.700043,0.080000,31263.506930,-10519184.964296,9879772.042988,7105539.755967,-0.000195,0.000190,0.000134
1.880000,-0.560000,0.620049,0.080000,131933.304359,-31114365.359066,29318514.387143,12004221.235043,-0.000576,0.000563,0.000226
1.960000,-0.560000,0.540056,0.080000,444879.433185,-90939029.981141,88736212.351472,14820738.686861,-0.001701,0.001684,0.000279
2.040000,-0.560000,0.460065,0.080000,1369111.846300,-260074894.269517,257271999.352404,-1448038.075039,-0.004884,0.004863,-0.000027
2.120000,-0.560000,0.380079,0.080000,4044710.292049,-730112257.335392,735509538.880366,-109531130.749608,-0.013786,0.013827,-0.002064
-2.120000,-0.480000,0.380207,0.080000,-4616913.670696,771362021.243558,-777040407.562675,-73438904.809790,0.014565,-0.014608,-0.001384
-2.040000,-0.480000,0.460171,0.080000,-1626697.661796,285373248.677969,-282479235.593834,10530544.218915,0.005360,-0.005338,0.000198
-1.960000,-0.480000,0.540146,0.080000,-549423.330550,103728165.723973,-101439001.450436,19863715.479459,0.001941,-0.001924,0.000374
-1.880000,-0.480000,0.620127,0.080000,-166430.939761,37068936.991665,-35074029.895480,14478847.909476,0.000687,-0.000672,0.000273
-1.800000,-0.480000,0.700112,0.080000,-35011.858688,13225397.793096,-12491096.382587,8500507.747744,0.000245,-0.000239,0.000160
-1.720000,-0.480000,0.780101,0.080000,6518.400249,4540984.447070,-4270410.950650,4585264.679837,0.000084,-0.000082,0.000086
-1.640000,-0.480000,0.860091,0.080000,17059.109439,1427651.471911,-1328702.284616,2364811.213401,0.000026,-0.000026,0.000045
-1.560000,-0.480000,0.940084,0.080000,17757.986829,352693.803629,-317266.114682,1186523.941649,0.000006,-0.000006,0.000022
-1.480000,-0.480000,1.020077,0.080000,15946.069569,11348.120182,776.441784,583750.291986,0.000000,-0.000000,0.000011
-1.400000,-0.480000,1.100071,0.080000,13973.634021,-75506.306131,79298.365656,283154.118632,-0.000001,0.000001,0.000005
-1.320000,-0.480000,1.180067,0.080000,12456.125680,-80254.624265,81252.548438,137416.878519,-0.000002,0.000002,0.000003
-1.240000,-0.480000,1.260062,0.080000,11444.260114,-61774.067411,61975.800953,69965.791534,-0.000001,0.000001,0.000001
-1.160000,-0.480000,1.340059,0.080000,10825.859215,-37801.496419,37851.167715,40872.023275,-0.000001,0.000001,0.000001
-1.080000,-0.480000,1.420055,0.080000,10448.892720,-12476.349640,12475.174612,28118.575496,-0.000000,0.000000,0.000001
-1.000000,-0.480000,1.500052,0.080000,10151.749454,12767.754470,-12934.920092,18419.717153,0.000000,-0.000000,0.000000
-0.920000,-0.480000,1.520022,0.080000,9773.906168,34939.820620,-35423.764875,3782.009965,0.000001,-0.000001,0.000000
-0.840000,-0.480000,1.520001,0.080000,9175.360786,48687.281745,-49535.584214,-18793.914078,0.000001,-0.000001,-0.000000
-0.760000,-0.480000,1.520043,0.080000,8270.303224,47962.976067,-49028.583485,-46676.327161,0.000001,-0.000001,-0.000001
-0.680000,-0.480000,1.520024,0.080000,7064.664704,29253.638982,-30194.426134,-71965.541084,0.000001,-0.000001,-0.000001
-0.600000,-0.480000,1.520000,0.080000,5677.436908,-5193.429318,4800.132701,-84037.101227,-0.000000,0.000000,-0.000002
-0.520000,-0.480000,1.520040,0.080000,4325.803903,-46071.594118,46532.491519,-74088.738272,-0.000001,0.000001,-0.000001
-0.440000,-0.480000,1.520027,0.080000,3266.270377,-78999.970694,80317.219127,-40042.322729,-0.000001,0.000002,-0.000001
-0.360000,-0.480000,1.520000,0.080000,2704.446606,-89641.989678,91438.954589,10629.848715,-0.000002,0.000002,0.000000
-0.280000,-0.480000,1.520037,0.080000,2705.564985,-70036.929989,71661.217381,62077.062974,-0.000001,0.000001,0.000001
-0.200000,-0.480000,1.520030,0.080000,3145.186423,-23184.795216,23964.273644,95432.315487,-0.000000,0.000000,0.000002
-0.120000,-0.480000,1.520000,0.080000,3728.520770,36659.662009,-37117.735743,96412.057409,0.000001,-0.000001,0.000002
-0.040000,-0.480000,1.520033,0.080000,4079.983073,88690.032055,-90301.322303,61801.031175,0.000002,-0.000002,0.000001
0.040000,-0.480000,1.520033,0.080000,3873.493652,113544.910035,-115756.112291,1670.185722,0.000002,-0.000002,0.000000
0.120000,-0.480000,1.520000,0.080000,2953.578023,101158.243039,-103167.502876,-63990.222214,0.000002,-0.000002,-0.000001
0.200000,-0.480000,1.520030,0.080000,1398.298593,54919.026767,-56009.867794,-112935.255925,0.000001,-0.000001,-0.000002
0.280000,-0.480000,1.520037,0.080000,-501.922592,-9754.251324,9921.066716,-129284.635937,-0.000000,0.000000,-0.000002
0.360000,-0.480000,1.520000,0.080000,-2340.718940,-71723.698532,72993.717226,-109311.727615,-0.000001,0.000001,-0.000002
0.440000,-0.480000,1.520027,0.080000,-3728.100606,-112400.282366,114228.671757,-62013.652194,-0.000002,0.000002,-0.000001
0.520000,-0.480000,1.520040,0.080000,-4407.084066,-122299.688984,124011.087168,-4569.409854,-0.000002,0.000002,-0.000000
0.600000,-0.480000,1.520000,0.080000,-4313.611450,-103263.582407,104335.983369,44906.597920,-0.000002,0.000002,0.000001
0.680000,-0.480000,1.520024,0.080000,-3565.686551,-65930.078629,66173.012087,73938.708531,-0.000001,0.000001,0.000001
0.760000,-0.480000,1.520043,0.080000,-2397.280543,-24203.131448,23767.852398,78948.969062,-0.000000,0.000000,0.000001
0.840000,-0.480000,1.520001,0.080000,-1071.394680,10481.925867,-11232.363647,64451.247852,0.000000,-0.000000,0.000001
0.920000,-0.480000,1.520022,0.080000,191.858593,32752.669502,-33422.848380,39393.960307,0.000001,-0.000001,0.000001
1.000000,-0.480000,1.500052,0.080000,1249.445827,43912.803376,-44206.594396,12923.511309,0.000001,-0.000001,0.000000
1.080000,-0.480000,1.420055,0.080000,2027.658750,50356.479923,-50106.014420,-8324.929868,0.000001,-0.000001,-0.000000
1.160000,-0.480000,1.340059,0.080000,2481.948262,61488.701295,-60584.367809,-20237.552051,0.000001,-0.000001,-0.000000
1.240000,-0.480000,1.260062,0.080000,2537.070484,88794.993524,-87062.643797,-18134.148912,0.000002,-0.000002,-0.000000
1.320000,-0.480000,1.180067,0.080000,2013.213135,146886.794142,-143981.090251,10218.355302,0.000003,-0.000003,0.000000
1.400000,-0.480000,1.100071,0.080000,531.606408,255995.735599,-251431.602287,98942.699324,0.000005,-0.000005,0.000002
1.480000,-0.480000,1.020077,0.080000,-2615.203036,442662.466023,-436342.429198,336046.122222,0.000008,-0.000008,0.000006
1.560000,-0.480000,0.940084,0.080000,-8628.850716,727190.576939,-721628.961537,939609.859183,0.000014,-0.000014,0.000018
1.640000,-0.480000,0.860091,0.080000,-19312.829073,1059531.718341,-1067686.109924,2444297.847553,0.000020,-0.000020,0.000046
1.720000,-0.480000,0.780101,0.080000,-36668.727381,1078874.264672,-1149910.824825,6164410.451058,0.000021,-0.000021,0.000116
1.800000,-0.480000,0.700112,0.080000,-60305.346299,-698084.860449,396895.947344,15360205.178856,-0.000011,0.000009,0.000289
1.880000,-0.480000,0.620127,0.080000,-77039.598739,-9488172.932285,8416140.927225,38233212.636423,-0.000173,0.000165,0.000720
1.960000,-0.480000,0.540146,0.080000,-24671.413405,-43251743.662299,41506840.726251,98532619.098113,-0.000805,0.000792,0.001856
2.040000,-0.480000,0.460171,0.080000,326377.349219,-156204859.615912,153939774.053890,244892301.795378,-0.002930,0.002913,0.004614
2.120000,-0.480000,0.380207,0.080000,1746543.837343,-503424968.745256,507227875.199776,646576849.748793,-0.009506,0.009535,0.012182
-2.120000,-0.400000,0.380012,0.080000,-1983812.670640,518948237.116722,-522851446.630100,680874070.911792,0.009799,-0.009829,0.012828
-2.040000,-0.400000,0.460010,0.080000,-415948.000705,168406935.479782,-166130491.057204,266857580.317115,0.003160,-0.003143,0.005028
-1.960000,-0.400000,0.540008,0.080000,6240.638090,49773796.702469,-48003953.750276,110602202.218642,0.000928,-0.000914,0.002084
-1.880000,-0.400000,0.620007,0.080000,87689.840327,12424335.326966,-11242978.101094,44344425.165915,0.000227,-0.000219,0.000835
-1.800000,-0.400000,0.700006,0.080000,80638.904922,1888773.963822,-1533081.964846,18462109.685809,0.000034,-0.000031,0.000348
-1.720000,-0.400000,0.780006,0.080000,58731.751807,-661645.076983,757299.853608,7747316.248486,-0.000013,0.000014,0.000146
-1.640000,-0.400000,0.860005,0.080000,40277.229682,-956981.871418,975585.061021,3260813.950539,-0.000018,0.000018,0.000061
-1.560000,-0.400000,0.940005,0.080000,27769.445081,-739359.544121,738000.206204,1366535.529689,-0.000014,0.000014,0.000026
-1.480000,-0.400000,1.020004,0.080000,19981.596371,-487440.815836,482733.120062,563545.389708,-0.000009,0.000009,0.000011
-1.400000,-0.400000,1.100004,0.080000,15336.110005,-301240.231139,297308.074107,224403.393882,-0.000006,0.000006,0.000004
-1.320000,-0.400000,1.180004,0.080000,12641.019061,-179883.136557,177291.801578,83836.480654,-0.000003,0.000003,0.000002
-1.240000,-0.400000,1.260004,0.080000,11112.752780,-103488.183021,101957.006648,28307.698608,-0.000002,0.000002,0.000001
-1.160000,-0.400000,1.340003,0.080000,10256.239328,-54341.741559,53486.493770,8237.864087,-0.000001,0.000001,0.000000
-1.080000,-0.400000,1.420003,0.080000,9752.861597,-20698.246952,20191.170541,1088.642699,-0.000000,0.000000,0.000000
-1.000000,-0.400000,1.500003,0.080000,9385.147101,3644.763206,-4054.029758,-3973.073756,0.000000,-0.000000,-0.000000
-0.920000,-0.400000,1.580003,0.080000,8996.656172,20574.159269,-21046.985966,-12008.265442,0.000000,-0.000000,-0.000000
-0.840000,-0.400000,1.600001,0.080000,8479.379509,29192.734620,-29779.077801,-24204.914990,0.000001,-0.000001,-0.000000
-0.760000,-0.400000,1.600041,0.080000,7778.810978,27732.319146,-28357.648040,-38440.383957,0.000001,-0.000001,-0.000001
-0.680000,-0.400000,1.600023,0.080000,6904.515128,15663.585502,-16152.621043,-50031.191405,0.000000,-0.000000,-0.000001
-0.600000,-0.400000,1.600000,0.080000,5932.907969,-4616.063598,4467.427839,-53376.622073,-0.000000,0.000000,-0.000001
-0.520000,-0.400000,1.600038,0.080000,4991.737296,-27314.290110,27636.791642,-44378.822394,-0.000001,0.000001,-0.000001
-0.440000,-0.400000,1.600026,0.080000,4223.448215,-44489.106574,45251.251489,-22799.423723,-0.000001,0.000001,-0.000000
-0.360000,-0.400000,1.600000,0.080000,3735.324703,-48773.204747,49754.359502,6601.078797,-0.000001,0.000001,0.000000
-0.280000,-0.400000,1.600035,0.080000,3553.471930,-36535.246355,37386.464935,34978.615594,-0.000001,0.000001,0.000001
-0.200000,-0.400000,1.600029,0.080000,3600.345291,-10011.881667,10388.386334,52344.367462,-0.000000,0.000000,0.000001
-0.120000,-0.400000,1.600000,0.080000,3709.040683,22781.789042,-23071.978176,51478.138118,0.000000,-0.000000,0.000001
-0.040000,-0.400000,1.600032,0.080000,3673.675444,50626.430722,-51527.694056,31142.010113,0.000001,-0.000001,0.000001
0.040000,-0.400000,1.600032,0.080000,3319.707444,63252.880414,-64470.164100,-2928.309054,0.000001,-0.000001,-0.000000
0.120000,-0.400000,1.600000,0.080000,2568.221720,55354.219325,-56465.800932,-39854.279101,0.000001,-0.000001,-0.000001
0.200000,-0.400000,1.600029,0.080000,1469.135028,28707.782933,-29333.867123,-67594.526226,0.000001,-0.000001,-0.000001
0.280000,-0.400000,1.600035,0.080000,190.072463,-8525.568865,8574.303313,-77406.072417,-0.000000,0.000000,-0.000001
0.360000,-0.400000,1.600000,0.080000,-1034.719502,-44990.714919,45650.101851,-66903.766142,-0.000001,0.000001,-0.000001
0.440000,-0.400000,1.600026,0.080000,-1975.525613,-70387.865833,71386.050552,-40505.753388,-0.000001,0.000001,-0.000001
0.520000,-0.400000,1.600038,0.080000,-2471.835608,-78963.379064,79947.093764,-7262.357080,-0.000001,0.000002,-0.000000
0.600000,-0.400000,1.600000,0.080000,-2468.680562,-70892.460126,71571.055426,22796.437023,-0.000001,0.000001,0.000000
0.680000,-0.400000,1.600023,0.080000,-2015.888505,-51249.089324,51492.690034,42137.564076,-0.000001,0.000001,0.000001
0.760000,-0.400000,1.600041,0.080000,-1236.576045,-27321.143037,27179.405865,47657.227974,-0.000001,0.000001,0.000001
0.840000,-0.400000,1.600001,0.080000,-281.583121,-5591.625287,5242.253561,40569.878549,-0.000000,0.000000,0.000001
0.920000,-0.400000,1.580003,0.080000,711.248627,10441.980396,-10773.245456,24708.292356,0.000000,-0.000000,0.000000
1.000000,-0.400000,1.500003,0.080000,1639.164988,21134.782494,-21231.932119,4262.643667,0.000000,-0.000000,0.000000
1.080000,-0.400000,1.420003,0.080000,2432.266618,30630.039552,-30282.925364,-18000.867730,0.000001,-0.000001,-0.000000
1.160000,-0.400000,1.340003,0.080000,3026.986028,46930.932945,-45844.670913,-41366.976881,0.000001,-0.000001,-0.000001
1.240000,-0.400000,1.260004,0.080000,3314.271590,83654.259875,-81240.188070,-66256.595087,0.000002,-0.000002,-0.000001
1.320000,-0.400000,1.180004,0.080000,3050.493753,165662.771868,-160625.784002,-90952.441599,0.000003,-0.000003,-0.000002
1.400000,-0.400000,1.100004,0.080000,1693.691519,342450.065189,-331951.078278,-102968.101881,0.000006,-0.000006,-0.000002
1.480000,-0.400000,1.020004,0.080000,-1923.303637,717395.610890,-695275.290820,-55706.003065,0.000013,-0.000013,-0.000001
1.560000,-0.400000,0.940005,0.080000,-10276.279116,1510788.259235,-1463717.880040,196291.399914,0.000028,-0.000028,0.000004
1.640000,-0.400000,0.860005,0.080000,-28606.581925,3196107.560477,-3095198.694265,1077960.333044,0.000060,-0.000059,0.000020
1.720000,-0.400000,0.780006,0.080000,-68053.776545,6796321.572713,-6578809.410106,3798322.769791,0.000127,-0.000125,0.000072
1.800000,-0.400000,0.700006,0.080000,-152426.598132,14531765.891315,-14060795.520225,11765746.528041,0.000271,-0.000268,0.000222
1.880000,-0.400000,0.620007,0.080000,-332908.792445,31252779.759358,-30227246.228158,34583700.843698,0.000583,-0.000575,0.000652
1.960000,-0.400000,0.540008,0.080000,-720230.070528,68374829.245554,-67674236.128007,102955457.710844,0.001284,-0.001279,0.001940
2.040000,-0.400000,0.460010,0.080000,-1556109.280060,149870450.771595,-149018980.184267,285999323.594377,0.002819,-0.002812,0.005388
2.120000,-0.400000,0.380012,0.080000,-3377214.762346,330514251.141187,-332844434.934910,828905710.895795,0.006240,-0.006258,0.015617
-2.120000,-0.320000,0.380057,0.080000,3586205.547500,-321491806.732461,323741322.043649,872809356.057504,-0.006070,0.006087,0.016444
-2.040000,-0.320000,0.460047,0.080000,1711821.403351,-151084717.492833,150298283.999271,312873843.095132,-0.002842,0.002836,0.005895
-1.960000,-0.320000,0.540040,0.080000,827338.785118,-70782334.468326,70130985.572349,117368895.659366,-0.001330,0.001325,0.002211
-1.880000,-0.320000,0.620035,0.080000,406213.157791,-33113689.169126,32079950.371746,41636155.544499,-0.000618,0.000610,0.000784
-1.800000,-0.320000,0.700031,0.080000,203804.993845,-15766541.995699,15282935.106872,15186202.132576,-0.000294,0.000291,0.000286
-1.720000,-0.320000,0.780028,0.080000,105468.357775,-7578869.208952,7351801.189548,5448514.410547,-0.000142,0.000140,0.000103
-1.640000,-0.320000,0.860025,0.080000,57120.654538,-3685392.857699,3578221.215963,1875269.697309,-0.000069,0.000068,0.000035
-1.560000,-0.320000,0.940023,0.080000,33059.187252,-1816184.511856,1765221.999948,582934.518513,-0.000034,0.000034,0.000011
-1.480000,-0.320000,1.020021,0.080000,20953.567382,-908039.644226,883575.686228,132632.031334,-0.000017,0.000017,0.000002
-1.400000,-0.320000,1.100020,0.080000,14818.602699,-460285.319528,448420.578625,-10590.457873,-0.000009,0.000009,-0.000000
-1.320000,-0.320000,1.180018,0.080000,11706.502533,-235274.380518,229467.242284,-45354.621955,-0.000004,0.000004,-0.000001
-1.240000,-0.320000,1.260017,0.080000,10137.779641,-119027.698542,116164.693267,-44829.145371,-0.000002,0.000002,-0.000001
-1.160000,-0.320000,1.340016,0.080000,9349.347499,-56313.929369,54882.191648,-35598.364352,-0.000001,0.000001,-0.000001
-1.080000,-0.320000,1.420015,0.080000,8930.567038,-20345.615708,19584.641714,-27167.747086,-0.000000,0.000000,-0.000001
-1.000000,-0.320000,1.500014,0.080000,8646.888226,1458.928397,-1944.482926,-22779.171262,0.000000,-0.000000,-0.000000
-0.920000,-0.320000,1.580014,0.080000,8356.948044,14366.138324,-14774.829302,-23076.343868,0.000000,-0.000000,-0.000000
-0.840000,-0.320000,1.660013,0.080000,7977.597288,19994.244163,-20396.725626,-27121.226166,0.000000,-0.000000,-0.000001
-0.760000,-0.320000,1.680039,0.080000,7472.736367,18633.208893,-19006.039141,-32670.730580,0.000000,-0.000000,-0.000001
-0.680000,-0.320000,1.680022,0.080000,6850.876472,10901.836701,-11161.584030,-36592.650053,0.000000,-0.000000,-0.000001
-0.600000,-0.320000,1.680000,0.080000,6160.810221,-1216.265393,1165.236877,-35738.069355,-0.000000,0.000000,-0.000001
-0.520000,-0.320000,1.680036,0.080000,5478.838172,-14161.594910,14371.885681,-28145.448020,-0.000000,0.000000,-0.000001
-0.440000,-0.320000,1.680025,0.080000,4886.242730,-23521.608164,23959.878442,-14120.052400,-0.000000,0.000000,-0.000000
-0.360000,-0.320000,1.680000,0.080000,4441.561114,-25471.225753,26009.274764,3373.901382,-0.000000,0.000000,0.000000
-0.280000,-0.320000,1.680033,0.080000,4156.672620,-18357.471350,18807.309460,19373.578939,-0.000000,0.000000,0.000000
-0.200000,-0.320000,1.680027,0.080000,3986.577835,-3691.733169,3874.557504,28552.192895,-0.000000,0.000000,0.000001
-0.120000,-0.320000,1.680000,0.080000,3839.016586,14015.082844,-14194.305461,27261.751611,0.000000,-0.000000,0.000001
-0.040000,-0.320000,1.680030,0.080000,3602.835636,28665.012033,-29171.579459,15139.482090,0.000001,-0.000001,0.000000
0.040000,-0.320000,1.680030,0.080000,3186.237783,34752.018451,-35427.519980,-4462.801991,0.000001,-0.000001,-0.000000
0.120000,-0.320000,1.680000,0.080000,2551.278655,29436.998851,-30057.449848,-25496.423124,0.000001,-0.000001,-0.000000
0.200000,-0.320000,1.680027,0.080000,1731.643739,13647.386222,-14009.234708,-41321.385495,0.000000,-0.000000,-0.000001
0.280000,-0.320000,1.680033,0.080000,826.835411,-8264.692164,8268.028577,-47054.139898,-0.000000,0.000000,-0.000001
0.360000,-0.320000,1.680000,0.080000,-25.099085,-30147.745197,30491.329093,-41207.479355,-0.000001,0.000001,-0.000001
0.440000,-0.320000,1.680025,0.080000,-686.148543,-46258.061424,46805.252845,-25999.943850,-0.000001,0.000001,-0.000000
0.520000,-0.320000,1.680036,0.080000,-1054.428016,-53138.936071,53702.973806,-6306.815072,-0.000001,0.000001,-0.000000
0.600000,-0.320000,1.680000,0.080000,-1086.001735,-50471.121686,50888.598271,12204.132926,-0.000001,0.000001,0.000000
0.680000,-0.320000,1.680022,0.080000,-797.066960,-40691.373647,40876.110926,24924.754306,-0.000001,0.000001,0.000000
0.760000,-0.320000,1.680039,0.080000,-248.822414,-27702.036694,27661.277390,29424.340678,-0.000001,0.000001,0.000001
0.840000,-0.320000,1.660013,0.080000,476.945657,-15297.835792,15113.045754,25506.721566,-0.000000,0.000000,0.000000
0.920000,-0.320000,1.580014,0.080000,1301.702012,-5898.314731,5690.007984,14335.286830,-0.000000,0.000000,0.000000
1.000000,-0.320000,1.500014,0.080000,2165.405498,153.363158,-249.575001,-2963.686865,0.000000,-0.000000,-0.000000
1.080000,-0.320000,1.420015,0.080000,3028.594383,4932.818688,-4751.086411,-26820.131527,0.000000,-0.000000,-0.000001
1.160000,-0.320000,1.340016,0.080000,3858.871683,13628.281322,-12885.425628,-60738.927973,0.000000,-0.000000,-0.000001
1.240000,-0.320000,1.260017,0.080000,4596.878711,36935.971513,-35008.524357,-113115.342081,0.000001,-0.000001,-0.000002
1.320000,-0.320000,1.180018,0.080000,5085.511321,97798.621140,-93201.738129,-200073.514757,0.000002,-0.000002,-0.000004
1.400000,-0.320000,1.100020,0.080000,4917.206712,248404.862477,-237550.465203,-350355.687542,0.000005,-0.000005,-0.000007
1.480000,-0.320000,1.020021,0.080000,3085.510362,611893.891505,-586037.603716,-613081.523782,0.000011,-0.000011,-0.000012
1.560000,-0.320000,0.940023,0.080000,-2838.628878,1485309.306277,-1422860.213905,-1066946.073820,0.000028,-0.000027,-0.000020
1.640000,-0.320000,0.860025,0.080000,-18697.352371,3598036.676985,-3444797.461602,-1819621.795988,0.000067,-0.000066,-0.000034
1.720000,-0.320000,0.780028,0.080000,-58642.754506,8772932.287769,-8390363.332063,-2950764.824094,0.000163,-0.000160,-0.000056
1.800000,-0.320000,0.700031,0.080000,-157400.008954,21650464.902860,-20677649.619431,-4235488.571931,0.000402,-0.000395,-0.000080
1.880000,-0.320000,0.620035,0.080000,-401553.625977,54272444.891039,-51750787.024652,-4122926.036632,0.001008,-0.000989,-0.000078
1.960000,-0.320000,0.540040,0.080000,-1010916.796691,140282418.992058,-137610720.297659,4439718.346894,0.002628,-0.002608,0.000084
2.040000,-0.320000,0.460047,0.080000,-2554316.408097,364828228.688243,-361451251.034758,41230049.115753,0.006854,-0.006829,0.000777
2.120000,-0.320000,0.380057,0.080000,-6532836.665753,946110482.530233,-953016571.715207,178057241.212841,0.017864,-0.017916,0.003355
-2.120000,-0.240000,0.380248,0.080000,7226116.400274,-973693721.804606,980768341.097788,239478195.731371,-0.018385,0.018438,0.004512
-2.040000,-0.240000,0.460205,0.080000,2942690.738819,-385900673.062990,382522197.874898,66079294.262410,-0.007251,0.007226,0.001245
-1.960000,-0.240000,0.540175,0.080000,1227456.558541,-152619204.335357,149933127.841932,15245338.166980,-0.002860,0.002840,0.000287
-1.880000,-0.240000,0.620152,0.080000,525654.255015,-60856154.258911,58180409.007681,464392.135099,-0.001131,0.001111,0.000009
-1.800000,-0.240000,0.700135,0.080000,232066.071266,-25108160.238357,24051315.680677,-2227487.312831,-0.000467,0.000459,-0.000042
-1.720000,-0.240000,0.780121,0.080000,106516.490846,-10594090.521268,10168283.408838,-2075656.488203,-0.000197,0.000194,-0.000039
-1.640000,-0.240000,0.860110,0.080000,51706.720313,-4572075.485347,4396917.361930,-1445741.794647,-0.000085,0.000084,-0.000027
-1.560000,-0.240000,0.940100,0.080000,27357.431153,-2017073.599869,1943468.791100,-914634.800084,-0.000038,0.000037,-0.000017
-1.480000,-0.240000,1.020092,0.080000,16417.527275,-908075.862363,876476.303157,-557613.142997,-0.000017,0.000017,-0.000011
-1.400000,-0.240000,1.100086,0.080000,11502.436220,-415334.751589,401484.838969,-336217.892438,-0.000008,0.000008,-0.000006
-1.320000,-0.240000,1.180080,0.080000,9338.250364,-190825.562155,184639.580683,-203228.529097,-0.000004,0.000004,-0.000004
-1.240000,-0.240000,1.260075,0.080000,8436.518678,-85372.240672,82561.825766,-124265.028846,-0.000002,0.000002,-0.000002
-1.160000,-0.240000,1.340070,0.080000,8099.771941,-33724.548128,32418.334052,-77760.101002,-0.000001,0.000001,-0.000001
-1.080000,-0.240000,1.420066,0.080000,7987.464330,-6968.956223,6324.381310,-51012.057511,-0.000000,0.000000,-0.000001
-1.000000,-0.240000,1.500063,0.080000,7923.969705,7594.301929,-7967.389331,-36652.202440,0.000000,-0.000000,-0.000001
-0.920000,-0.240000,1.580060,0.080000,7814.268120,15231.164590,-15509.739217,-30172.817275,0.000000,-0.000000,-0.000001
-0.840000,-0.240000,1.660057,0.080000,7608.831576,17855.764304,-18103.142245,-28369.828184,0.000000,-0.000000,-0.000001
-0.760000,-0.240000,1.740054,0.080000,7290.635536,16155.380859,-16367.309532,-28514.882141,0.000000,-0.000000,-0.000001
-0.680000,-0.240000,1.760021,0.080000,6870.330935,10817.223801,-10953.137316,-28131.345894,0.000000,-0.000000,-0.000001
-0.600000,-0.240000,1.760000,0.080000,6381.617546,3174.876308,-3188.724557,-25235.481942,0.000000,-0.000000,-0.000000
-0.520000,-0.240000,1.760034,0.080000,5872.671012,-4687.164023,4816.771288,-18819.647662,-0.000000,0.000000,-0.000000
-0.440000,-0.240000,1.760024,0.080000,5392.947204,-10343.859426,10592.590662,-9272.095545,-0.000000,0.000000,-0.000000
-0.360000,-0.240000,1.760000,0.080000,4977.934614,-11794.719440,12090.001309,1567.442963,-0.000000,0.000000,0.000000
-0.280000,-0.240000,1.760032,0.080000,4636.639702,-8269.383502,8510.117760,10882.051794,-0.000000,0.000000,0.000000
-0.200000,-0.240000,1.760026,0.080000,4346.827343,-700.613941,793.170264,15811.856753,-0.000000,0.000000,0.000000
-0.120000,-0.240000,1.760000,0.080000,4060.945711,8406.781927,-8510.734883,14539.924601,0.000000,-0.000000,0.000000
-0.040000,-0.240000,1.760029,0.080000,3721.885490,15740.305450,-16021.011710,7099.325686,0.000000,-0.000000,0.000000
0.040000,-0.240000,1.760029,0.080000,3283.771657,18324.386189,-18697.560630,-4460.105847,0.000000,-0.000000,-0.000000
0.120000,-0.240000,1.760000,0.080000,2730.620223,14603.769680,-14950.385643,-16661.427203,0.000000,-0.000000,-0.000000
0.200000,-0.240000,1.760026,0.080000,2086.083566,5026.626066,-5236.949748,-25746.722303,0.000000,-0.000000,-0.000000
0.280000,-0.240000,1.760032,0.080000,1410.637927,-8111.085126,8097.657137,-28940.087499,-0.000000,0.000000,-0.000001
0.360000,-0.240000,1.760000,0.080000,787.183933,-21489.999898,21665.600628,-25339.017491,-0.000000,0.000000,-0.000000
0.440000,-0.240000,1.760024,0.080000,300.213255,-31917.698417,32213.860818,-16110.843664,-0.000001,0.000001,-0.000000
0.520000,-0.240000,1.760034,0.080000,15.740421,-37349.386815,37666.673455,-3969.882363,-0.000001,0.000001,-0.000000
0.600000,-0.240000,1.760000,0.080000,-31.598259,-37413.587724,37658.738034,7797.024525,-0.000001,0.000001,0.000000
0.680000,-0.240000,1.760021,0.080000,159.040778,-33315.025836,33429.863337,16332.809789,-0.000001,0.000001,0.000000
0.760000,-0.240000,1.740054,0.080000,562.208364,-27250.412013,27222.502463,19849.650976,-0.000001,0.000001,0.000000
0.840000,-0.240000,1.660057,0.080000,1139.947463,-21640.907547,21495.432469,17693.090182,-0.000000,0.000000,0.000000
0.920000,-0.240000,1.580060,0.080000,1857.062708,-18494.646028,18275.411388,9828.227338,-0.000000,0.000000,0.000000
1.000000,-0.240000,1.500063,0.080000,2693.858380,-19079.009174,18830.919339,-4139.022182,-0.000000,0.000000,-0.000000
1.080000,-0.240000,1.420066,0.080000,3654.234963,-23869.392276,23635.903495,-26365.410700,-0.000000,0.000000,-0.000000
1.160000,-0.240000,1.340070,0.080000,4768.717382,-32494.739203,32347.529426,-62884.435976,-0.000001,0.000001,-0.000001
1.240000,-0.240000,1.260075,0.080000,6091.848628,-43056.641757,43193.726964,-127408.377526,-0.000001,0.000001,-0.000002
1.320000,-0.240000,1.180080,0.080000,7689.113651,-49445.134022,50455.990551,-249191.401107,-0.000001,0.000001,-0.000005
1.400000,-0.240000,1.100086,0.080000,9595.029381,-33225.230183,36798.076397,-490366.893774,-0.000001,0.000001,-0.000009
1.480000,-0.240000,1.020092,0.080000,11687.316337,59034.457288,-48203.623287,-985260.804684,0.000001,-0.000001,-0.000019
1.560000,-0.240000,0.940100,0.080000,13323.442752,377874.333179,-346878.850315,-2031363.583555,0.000007,-0.000007,-0.000038
1.640000,-0.240000,0.860110,0.080000,12318.351724,1340870.263275,-1254308.294741,-4304332.908963,0.000025,-0.000024,-0.000081
1.720000,-0.240000,0.780121,0.080000,2110.441576,4099284.885057,-3859789.972813,-9377882.856635,0.000076,-0.000074,-0.000177
1.800000,-0.240000,0.700135,0.080000,-36052.322823,11825890.309700,-11164492.438223,-21011685.664188,0.000219,-0.000214,-0.000396
1.880000,-0.240000,0.620152,0.080000,-154653.655715,33284222.853823,-31454776.468661,-48423406.763464,0.000617,-0.000603,-0.000912
1.960000,-0.240000,0.540175,0.080000,-499427.234189,94056728.811310,-91911668.057543,-117803143.618736,0.001760,-0.001744,-0.002219
2.040000,-0.240000,0.460205,0.080000,-1474206.240879,260950547.641885,-258230267.078461,-281348273.052131,0.004901,-0.004881,-0.005301
2.120000,-0.240000,0.380248,0.080000,-4197909.081902,706190298.323184,-711394267.458188,-717318241.559864,0.013334,-0.013374,-0.013515
-2.120000,-0.160000,0.380023,0.080000,5185288.349963,-792486845.135941,798294491.982838,-688609866.844042,-0.014964,0.015008,-0.012974
-2.040000,-0.160000,0.460019,0.080000,1961970.009348,-300890550.027959,297949213.351005,-276615114.415515,-0.005652,0.005630,-0.005212
-1.960000,-0.160000,0.540016,0.080000,749661.960278,-112661933.605575,110336725.133762,-117930730.870101,-0.002109,0.002092,-0.002222
-1.880000,-0.160000,0.620014,0.080000,289246.483122,-42051868.629724,39953449.605464,-49279083.192729,-0.000780,0.000765,-0.000928
-1.800000,-0.160000,0.700012,0.080000,112898.472966,-16090346.007557,15305031.387473,-21699897.761085,-0.000299,0.000293,-0.000409
-1.720000,-0.160000,0.780011,0.080000,45098.257115,-6222629.952544,5925093.731658,-9841644.570321,-0.000116,0.000113,-0.000185
-1.640000,-0.160000,0.860010,0.080000,19223.141848,-2424358.750512,2310104.353129,-4604380.231295,-0.000045,0.000044,-0.000087
-1.560000,-0.160000,0.940009,0.080000,9666.069120,-944478.962989,900007.343666,-2225358.286740,-0.000018,0.000017,-0.000042
-1.480000,-0.160000,1.020009,0.080000,6464.110358,-362022.958522,344501.427407,-1112543.988263,-0.000007,0.000007,-0.000021
-1.400000,-0.160000,1.100008,0.080000,5700.744791,-131287.134910,124325.373386,-576009.100047,-0.000002,0.000002,-0.000011
-1.320000,-0.160000,1.180007,0.080000,5825.727258,-39692.632538,36923.928395,-309270.063694,-0.000001,0.000001,-0.000006
-1.240000,-0.160000,1.260007,0.080000,6223.822665,-3304.355037,2214.672177,-172695.104013,-0.000000,0.000000,-0.000003
-1.160000,-0.160000,1.340007,0.080000,6650.578194,11329.534325,-11752.341839,-101021.946469,0.000000,-0.000000,-0.000002
-1.080000,-0.160000,1.420006,0.080000,7007.751183,17474.837929,-17647.948496,-62919.875334,0.000000,-0.000000,-0.000001
-1.000000,-0.160000,1.500006,0.080000,7254.281380,20144.461781,-20242.562195,-42842.192528,0.000000,-0.000000,-0.000001
-0.920000,-0.160000,1.580006,0.080000,7372.539398,20925.618782,-21017.466098,-32655.324079,0.000000,-0.000000,-0.000001
-0.840000,-0.160000,1.660005,0.080000,7357.449713,20057.136958,-20158.510922,-27698.921273,0.000000,-0.000000,-0.000001
-0.760000,-0.160000,1.740005,0.080000,7214.611601,17438.155786,-17534.923692,-24962.552414,0.000000,-0.000000,-0.000000
-0.680000,-0.160000,1.820005,0.080000,6960.752253,13177.036952,-13240.460296,-22346.787964,0.000000,-0.000000,-0.000000
-0.600000,-0.160000,1.840000,0.080000,6622.940399,7853.202879,-7855.071081,-18496.330796,0.000000,-0.000000,-0.000000
-0.520000,-0.160000,1.840033,0.080000,6234.878907,2512.649756,-2439.938759,-12883.466958,0.000000,-0.000000,-0.000000
-0.440000,-0.160000,1.840023,0.080000,5830.300363,-1586.729414,1721.952665,-5893.071918,-0.000000,0.000000,-0.000000
-0.360000,-0.160000,1.840000,0.080000,5435.066420,-3396.348612,3556.394324,1273.854690,-0.000000,0.000000,0.000000
-0.280000,-0.160000,1.840030,0.080000,5060.610184,-2505.867270,2637.946255,6957.253749,-0.000000,0.000000,0.000000
-0.200000,-0.160000,1.840025,0.080000,4701.400460,605.663584,-550.899503,9600.703948,0.000000,-0.000000,0.000000
-0.120000,-0.160000,1.840000,0.080000,4337.987060,4630.212750,-4679.245591,8345.624005,0.000000,-0.000000,0.000000
-0.040000,-0.160000,1.840028,0.080000,3945.235146,7816.746272,-7961.203530,3432.619648,0.000000,-0.000000,0.000000
0.040000,-0.160000,1.840028,0.080000,3503.322913,8557.555542,-8755.328187,-3765.178982,0.000000,-0.000000,-0.000000
0.120000,-0.160000,1.840000,0.080000,3007.828683,5955.091277,-6144.739226,-11117.351203,0.000000,-0.000000,-0.000000
0.200000,-0.160000,1.840025,0.080000,2475.359357,146.659357,-269.485332,-16397.156458,0.000000,-0.000000,-0.000000
0.280000,-0.160000,1.840030,0.080000,1942.688166,-7741.541244,7720.697865,-17987.005915,-0.000000,0.000000,-0.000000
0.360000,-0.160000,1.840000,0.080000,1459.688198,-15989.796886,16071.255616,-15368.863367,-0.000000,0.000000,-0.000000
0.440000,-0.160000,1.840023,0.080000,1078.535214,-22870.964865,23022.204340,-9230.513573,-0.000000,0.000000,-0.000000
0.520000,-0.160000,1.840033,0.080000,842.850946,-27204.452845,27373.364572,-1176.185685,-0.000001,0.000001,-0.000000
0.600000,-0.160000,1.840000,0.080000,780.264952,-28689.267115,28822.052004,6816.396581,-0.000001,0.000001,0.000000
0.680000,-0.160000,1.820005,0.080000,900.498838,-27937.789404,27993.563038,12965.418530,-0.000001,0.000001,0.000000
0.760000,-0.160000,1.740005,0.080000,1199.209017,-26265.120152,26221.350524,16064.224070,-0.000000,0.000000,0.000000
0.840000,-0.160000,1.660005,0.080000,1666.295117,-25388.412602,25235.157135,15538.152406,-0.000000,0.000000,0.000000
0.920000,-0.160000,1.580006,0.080000,2296.817612,-27226.986986,26951.081177,11146.342322,-0.000001,0.000001,0.000000
1.000000,-0.160000,1.500006,0.080000,3103.306988,-33978.645198,33539.342390,2339.368584,-0.000001,0.000001,0.000000
1.080000,-0.160000,1.420006,0.080000,4130.007065,-48629.390785,47923.091349,-12798.202407,-0.000001,0.000001,-0.000000
1.160000,-0.160000,1.340007,0.080000,5472.386451,-76106.715826,74909.231034,-39382.539031,-0.000001,0.000001,-0.000001
1.240000,-0.160000,1.260007,0.080000,7309.447496,-125508.261121,123365.751530,-89384.868896,-0.000002,0.000002,-0.000002
1.320000,-0.160000,1.180007,0.080000,9963.433137,-214382.095211,210388.397547,-189694.354468,-0.000004,0.000004,-0.000004
1.400000,-0.160000,1.100008,0.080000,14015.070162,-377212.589752,369541.220228,-400863.322687,-0.000007,0.000007,-0.000008
1.480000,-0.160000,1.020009,0.080000,20530.270188,-682772.199865,667680.011127,-861963.405633,-0.000013,0.000013,-0.000016
1.560000,-0.160000,0.940009,0.080000,31512.828067,-1270425.709103,1240106.470186,-1900358.810092,-0.000024,0.000024,-0.000036
1.640000,-0.160000,0.860010,0.080000,50823.118901,-2427514.405438,2365402.873336,-4306085.110312,-0.000045,0.000045,-0.000081
1.720000,-0.160000,0.780011,0.080000,86075.238908,-4757476.907887,4627748.480277,-10031667.056837,-0.000089,0.000088,-0.000189
1.800000,-0.160000,0.700012,0.080000,152628.498606,-9553965.948040,9277281.662085,-24010642.422702,-0.000178,0.000176,-0.000452
1.880000,-0.160000,0.620014,0.080000,282165.156339,-19662018.927081,19056709.474726,-58961238.933695,-0.000367,0.000362,-0.001111
1.960000,-0.160000,0.540016,0.080000,541620.713701,-41968874.074014,41534525.608497,-152509730.681558,-0.000788,0.000785,-0.002873
2.040000,-0.160000,0.460019,0.080000,1076505.355842,-91669476.942995,91126333.190021,-382436237.590691,-0.001724,0.001720,-0.007205
2.120000,-0.160000,0.380023,0.080000,2215158.821075,-205216237.554707,206660185.793300,-1013964473.716271,-0.003875,0.003885,-0.019104
-2.120000,-0.080000,0.380038,0.080000,-1449961.563293,113650668.845575,-114434765.274997,-1073089265.157810,0.002146,-0.002152,-0.020218
-2.040000,-0.080000,0.460031,0.080000,-725725.716693,56214456.305547,-55965000.978796,-410955386.477970,0.001058,-0.001056,-0.007743
-1.960000,-0.080000,0.540027,0.080000,-368218.777598,27447605.010056,-27238995.063160,-166579936.984105,0.000516,-0.000514,-0.003138
-1.880000,-0.080000,0.620023,0.080000,-189846.000221,13346988.774475,-12966160.081170,-65721253.893303,0.000249,-0.000246,-0.001238
-1.800000,-0.080000,0.700021,0.080000,-99354.654812,6616597.482883,-6432786.985100,-27382724.777475,0.000124,-0.000122,-0.000516
-1.720000,-0.080000,0.780019,0.080000,-52399.999193,3331065.574144,-3242264.288984,-11760692.029257,0.000062,-0.000062,-0.000222
-1.640000,-0.080000,0.860017,0.080000,-27339.942634,1711213.489435,-1668030.582607,-5221498.510557,0.000032,-0.000032,-0.000098
-1.560000,-0.080000,0.940015,0.080000,-13511.576438,900912.766620,-879670.024743,-2402313.153260,0.000017,-0.000017,-0.000045
-1.480000,-0.080000,1.020014,0.080000,-5586.543294,488116.565965,-477498.728331,-1147844.260070,0.000009,-0.000009,-0.000022
-1.400000,-0.080000,1.100013,0.080000,-854.000326,273423.644808,-268009.445331,-570812.391332,0.000005,-0.000005,-0.000011
-1.320000,-0.080000,1.180012,0.080000,2093.800393,159360.201809,-156533.894753,-296276.401126,0.000003,-0.000003,-0.000006
-1.240000,-0.080000,1.260011,0.080000,4003.588224,97588.134084,-96075.235234,-161333.127085,0.000002,-0.000002,-0.000003
-1.160000,-0.080000,1.340011,0.080000,5279.162964,63665.365406,-62838.352774,-93102.644437,0.000001,-0.000001,-0.000002
-1.080000,-0.080000,1.420010,0.080000,6142.028268,44888.515196,-44435.088028,-57928.873263,0.000001,-0.000001,-0.000001
-1.000000,-0.080000,1.500010,0.080000,6714.737614,34383.468137,-34145.351372,-39667.012841,0.000001,-0.000001,-0.000001
-0.920000,-0.080000,1.580009,0.080000,7065.885708,28223.974199,-28116.613005,-30154.453965,0.000001,-0.000001,-0.000001
-0.840000,-0.080000,1.660009,0.080000,7235.713915,24051.203730,-24023.073673,-24944.689456,0.000000,-0.000000,-0.000000
-0.760000,-0.080000,1.740008,0.080000,7251.422125,20449.016270,-20461.910058,-21406.950035,0.000000,-0.000000,-0.000000
-0.680000,-0.080000,1.820008,0.080000,7136.320520,16684.673382,-16706.397486,-17935.094765,0.000000,-0.000000,-0.000000
-0.600000,-0.080000,1.900008,0.080000,6914.559504,12588.619569,-12593.328360,-13677.250994,0.000000,-0.000000,-0.000000
-0.520000,-0.080000,1.920032,0.080000,6612.255108,8436.784066,-8409.047666,-8468.790056,0.000000,-0.000000,-0.000000
-0.440000,-0.080000,1.920022,0.080000,6255.786570,4769.060747,-4707.814172,-2773.450093,0.000000,-0.000000,-0.000000
-0.360000,-0.080000,1.920000,0.080000,5868.427667,2144.391292,-2063.488570,2479.909634,0.000000,-0.000000,0.000000
-0.280000,-0.080000,1.920029,0.080000,5466.859197,888.635272,-812.373632,6194.325926,0.000000,-0.000000,0.000000
-0.200000,-0.080000,1.920024,0.080000,5059.146247,919.004797,-873.379694,7482.227452,0.000000,-0.000000,0.000000
-0.120000,-0.080000,1.920000,0.080000,4645.278324,1716.068706,-1718.733431,6010.238175,0.000000,-0.000000,0.000000
-0.040000,-0.080000,1.920026,0.080000,4220.443783,2464.506947,-2517.394707,2185.504735,0.000000,-0.000000,0.000000
0.040000,-0.080000,1.920026,0.080000,3780.153690,2317.583791,-2405.344561,-2898.489004,0.000000,-0.000000,-0.000000
0.120000,-0.080000,1.920000,0.080000,3325.557364,687.647256,-782.738127,-7753.634206,0.000000,-0.000000,-0.000000
0.200000,-0.080000,1.920024,0.080000,2867.130301,-2548.978955,2476.492094,-10932.330931,-0.000000,0.000000,-0.000000
0.280000,-0.080000,1.920029,0.080000,2425.451433,-7011.787777,6983.607239,-11454.705355,-0.000000,0.000000,-0.000000
0.360000,-0.080000,1.920000,0.080000,2028.817319,-11954.514880,11976.763480,-9079.150308,-0.000000,0.000000,-0.000000
0.440000,-0.080000,1.920022,0.080000,1708.559577,-16527.543501,16589.190276,-4329.070340,-0.000000,0.000000,-0.000000
0.520000,-0.080000,1.920032,0.080000,1493.710370,-20067.736203,20144.679250,1717.668682,-0.000000,0.000000,0.000000
0.600000,-0.080000,1.900008,0.080000,1406.837033,-22321.027065,22383.290084,7784.709541,-0.000000,0.000000,0.000000
0.680000,-0.080000,1.820008,0.080000,1462.451969,-23545.828789,23564.063007,12763.716407,-0.000000,0.000000,0.000000
0.760000,-0.080000,1.740008,0.080000,1668.664139,-24509.727948,24457.342574,15968.528180,-0.000000,0.000000,0.000000
0.840000,-0.080000,1.660009,0.080000,2032.077924,-26455.186662,26303.295715,17207.746382,-0.000000,0.000000,0.000000
0.920000,-0.080000,1.580009,0.080000,2565.764450,-31160.705743,30863.282113,16670.541133,-0.000001,0.000001,0.000000
1.000000,-0.080000,1.500010,0.080000,3300.758916,-41275.350869,40739.543699,14658.771663,-0.000001,0.000001,0.000000
1.080000,-0.080000,1.420010,0.080000,4303.321706,-61206.117433,60234.592130,11180.055752,-0.000001,0.000001,0.000000
1.160000,-0.080000,1.340011,0.080000,5703.828583,-99097.184189,97269.452127,5309.177102,-0.000002,0.000002,0.000000
1.240000,-0.080000,1.260011,0.080000,7750.367312,-171087.953497,167501.059906,-6037.329970,-0.000003,0.000003,-0.000000
1.320000,-0.080000,1.180012,0.080000,10915.244214,-310603.279266,303280.841317,-30874.651541,-0.000006,0.000006,-0.000001
1.400000,-0.080000,1.100013,0.080000,16116.119612,-589214.154547,573718.330463,-88906.025537,-0.000011,0.000011,-0.000002
1.480000,-0.080000,1.020014,0.080000,25190.759389,-1164906.034481,1130993.251951,-228449.001369,-0.000022,0.000022,-0.000004
1.560000,-0.080000,0.940015,0.080000,41947.877132,-2396938.727566,2320308.685499,-569521.902797,-0.000045,0.000044,-0.000011
1.640000,-0.080000,0.860017,0.080000,74563.445154,-5126349.273602,4947826.816692,-1415064.532031,-0.000096,0.000094,-0.000027
1.720000,-0.080000,0.780019,0.080000,141206.116573,-11377603.012021,10949512.770889,-3541782.196104,-0.000212,0.000209,-0.000067
1.800000,-0.080000,0.700021,0.080000,283614.595852,-26152492.263942,25097948.583284,-8969136.935693,-0.000487,0.000479,-0.000169
1.880000,-0.080000,0.620023,0.080000,600727.387581,-62106096.775605,59443946.885486,-23009037.928815,-0.001155,0.001135,-0.000434
1.960000,-0.080000,0.540027,0.080000,1333962.854577,-153801691.847504,151138540.627592,-61534140.653340,-0.002883,0.002863,-0.001159
2.040000,-0.080000,0.460031,0.080000,3087982.937504,-386283220.285837,382925541.273108,-157445274.334559,-0.007259,0.007234,-0.002966
2.120000,-0.080000,0.380038,0.080000,7412087.362997,-971431893.963778,978479298.156749,-421611966.733864,-0.018342,0.018395,-0.007943
-2.120000,0.000000,0.380293,0.080000,-7395692.502653,964453023.292423,-971446788.622641,-540581627.292831,0.018210,-0.018263,-0.010185
-2.040000,0.000000,0.460242,0.080000,-3076819.494026,385590130.639986,-382262647.044422,-204785586.320807,0.007246,-0.007221,-0.003858
-1.960000,0.000000,0.540206,0.080000,-1321735.895968,153976296.818113,-151331120.601888,-82354676.339082,0.002886,-0.002866,-0.001552
-1.880000,0.000000,0.620180,0.080000,-588230.128902,62216102.306231,-59547616.561677,-32311036.391279,0.001157,-0.001137,-0.000609
-1.800000,0.000000,0.700159,0.080000,-271537.265041,26170009.020667,-25110880.179898,-13437340.365800,0.000487,-0.000479,-0.000253
-1.720000,0.000000,0.780143,0.080000,-129679.515166,11360185.757826,-10930273.040498,-5780371.378483,0.000212,-0.000208,-0.000109
-1.640000,0.000000,0.860130,0.080000,-63486.479109,5104936.821834,-4925944.484187,-2579930.406137,0.000095,-0.000094,-0.000049
-1.560000,0.000000,0.940118,0.080000,-31186.759082,2381181.895804,-2304552.205479,-1198005.125938,0.000044,-0.000044,-0.000023
-1.480000,0.000000,1.020109,0.080000,-14644.925367,1155679.031874,-1121873.158269,-580317.497901,0.000022,-0.000021,-0.000011
-1.400000,0.000000,1.100101,0.080000,-5725.986404,585000.589751,-569603.758392,-294214.156083,0.000011,-0.000011,-0.000006
-1.320000,0.000000,1.180094,0.080000,-653.280681,309775.156292,-302522.869625,-156987.156165,0.000006,-0.000006,-0.000003
-1.240000,0.000000,1.260088,0.080000,2389.146567,172430.367811,-168891.944275,-89093.775689,0.000003,-0.000003,-0.000002
-1.160000,0.000000,1.340083,0.080000,4304.941226,101750.255480,-99961.106753,-54749.006238,0.000002,-0.000002,-0.000001
-1.080000,0.000000,1.420078,0.080000,5557.962011,64483.478153,-63549.435663,-37227.274566,0.000001,-0.000001,-0.000001
-1.000000,0.000000,1.500074,0.080000,6392.292823,44518.727189,-44022.627613,-28303.189695,0.000001,-0.000001,-0.000001
-0.920000,0.000000,1.580070,0.080000,6938.538452,33683.282050,-33425.160406,-23625.451090,0.000001,-0.000001,-0.000000
-0.840000,0.000000,1.660067,0.080000,7267.568586,27585.123099,-27464.598099,-20675.879808,0.000001,-0.000001,-0.000000
-0.760000,0.000000,1.740064,0.080000,7419.282833,23716.161398,-23677.535291,-17906.040804,0.000000,-0.000000,-0.000000
-0.680000,0.000000,1.820061,0.080000,7418.956670,20600.381926,-20607.040768,-14424.081253,0.000000,-0.000000,-0.000000
-0.600000,0.000000,1.900059,0.080000,7286.814408,17425.868617,-17449.603212,-9916.831635,0.000000,-0.000000,-0.000000
-0.520000,0.000000,1.980056,0.080000,7043.281534,13880.331658,-13898.777004,-4622.663167,0.000000,-0.000000,-0.000000
-0.440000,0.000000,2.000021,0.080000,6711.021138,10040.757173,-10038.865349,757.575699,0.000000,-0.000000,0.000000
-0.360000,0.000000,2.000000,0.080000,6314.486422,6243.742530,-6216.138882,5260.641871,0.000000,-0.000000,0.000000
-0.280000,0.000000,2.000028,0.080000,5877.825143,2919.191506,-2870.958649,7954.912814,0.000000,-0.000000,0.000000
-0.200000,0.000000,2.000023,0.080000,5422.191269,412.612750,-357.147843,8254.200960,0.000000,-0.000000,0.000000
-0.120000,0.000000,2.000000,0.080000,4963.583776,-1155.485911,1201.408924,6149.077349,-0.000000,0.000000,0.000000
-0.040000,0.000000,2.000025,0.080000,4512.095761,-1946.636487,1969.061313,2267.715680,-0.000000,0.000000,0.000000
0.040000,0.000000,2.000025,0.080000,4072.931444,-2357.117516,2350.074518,-2267.632509,-0.000000,0.000000,-0.000000
0.120000,0.000000,2.000000,0.080000,3648.894539,-2883.742958,2851.380924,-6149.006030,-0.000000,0.000000,-0.000000
0.200000,0.000000,2.000023,0.080000,3243.507250,-3953.806029,3908.656471,-8254.150271,-0.000000,0.000000,-0.000000
0.280000,0.000000,2.000028,0.080000,2863.694758,-5784.141680,5742.243190,-7954.886395,-0.000000,0.000000,-0.000000
0.360000,0.000000,2.000000,0.080000,2521.152013,-8322.111398,8296.938505,-5260.637759,-0.000000,0.000000,-0.000000
0.440000,0.000000,2.000021,0.080000,2232.022322,-11288.791362,11286.260377,-757.587419,-0.000000,0.000000,-0.000000
0.520000,0.000000,1.980056,0.080000,2015.157724,-14306.625464,14322.766251,4622.644599,-0.000000,0.000000,0.000000
0.600000,0.000000,1.900059,0.080000,1889.762205,-17067.240430,17088.760703,9916.815694,-0.000000,0.000000,0.000000
0.680000,0.000000,1.820061,0.080000,1873.474606,-19491.476921,19497.980421,14424.076716,-0.000000,0.000000,0.000000
0.760000,0.000000,1.740064,0.080000,1981.905816,-21854.934821,21820.459733,17906.055950,-0.000000,0.000000,0.000000
0.840000,0.000000,1.660067,0.080000,2230.438509,-24892.736977,24783.603936,20675.924294,-0.000000,0.000000,0.000000
0.920000,0.000000,1.580070,0.080000,2638.983454,-29950.745385,29715.848170,23625.539889,-0.000001,0.000001,0.000000
1.000000,0.000000,1.500074,0.080000,3240.708698,-39322.239905,38869.422444,28303.350198,-0.000001,0.000001,0.000001
1.080000,0.000000,1.420078,0.080000,4096.987116,-57031.477950,56176.616885,37227.559777,-0.000001,0.000001,0.000001
1.160000,0.000000,1.340083,0.080000,5323.758061,-90586.903948,88944.560635,54749.521081,-0.000002,0.000002,0.000001
1.240000,0.000000,1.260088,0.080000,7140.915758,-154837.774385,151579.176963,89094.732481,-0.000003,0.000003,0.000002
1.320000,0.000000,1.180094,0.080000,9970.305200,-280532.004316,273831.175069,156988.996315,-0.000005,0.000005,0.000003
1.400000,0.000000,1.100101,0.080000,14639.224514,-533729.902583,519458.407083,294217.825636,-0.000010,0.000010,0.000006
1.480000,0.000000,1.020109,0.080000,22818.850679,-1061016.488751,1029587.853061,580325.089783,-0.000020,0.000020,0.000011
1.560000,0.000000,0.940118,0.080000,37999.772411,-2197583.469368,2126146.296871,1198021.420208,-0.000041,0.000040,0.000023
1.640000,0.000000,0.860130,0.080000,67728.818405,-4732009.729638,4564724.642746,2579966.669567,-0.000088,0.000087,0.000049
1.720000,0.000000,0.780143,0.080000,128885.445231,-10569554.155955,10166828.189059,5780455.003229,-0.000197,0.000194,0.000109
1.800000,0.000000,0.700159,0.080000,260461.747860,-24426861.405996,23432586.773292,13437540.014715,-0.000455,0.000447,0.000253
1.880000,0.000000,0.620180,0.080000,555272.382511,-58234961.087765,55724907.816970,32311529.525293,-0.001083,0.001064,0.000609
1.960000,0.000000,0.540206,0.080000,1240323.534455,-144487145.475641,141988487.479657,82355976.073273,-0.002708,0.002689,0.001552
2.040000,0.000000,0.460242,0.080000,2884186.120253,-362630182.314048,359486188.471666,204788953.657957,-0.006814,0.006791,0.003858
2.120000,0.000000,0.380293,0.080000,6939644.051312,-908789465.253124,915382190.388070,540591090.902231,-0.017159,0.017209,0.010185
-2.120000,0.080000,0.380038,0.080000,-7704551.241905,1005076944.105081,-1012365360.373599,464937389.925043,0.018977,-0.019032,0.008760
-2.040000,0.080000,0.460031,0.080000,-3214243.353030,400461425.027490,-396997545.015573,174449487.661712,0.007525,-0.007499,0.003287
-1.960000,0.080000,0.540027,0.080000,-1387827.061945,159822665.323225,-157074664.026399,68576185.882128,0.002996,-0.002975,0.001292
-1.880000,0.080000,0.620023,0.080000,-621934.345706,64713567.212338,-61954506.455246,25847558.318227,0.001204,-0.001183,0.000487
-1.800000,0.080000,0.700021,0.080000,-289516.442951,27333708.276493,-26238459.419115,10174283.656113,0.000509,-0.000501,0.000192
-1.720000,0.080000,0.780019,0.080000,-139639.476179,11932885.023784,-11487235.056265,4068684.348095,0.000222,-0.000219,0.000077
-1.640000,0.080000,0.860017,0.080000,-69200.543144,5398030.090468,-5211711.620472,1653004.955981,0.000101,-0.000099,0.000031
-1.560000,0.080000,0.940015,0.080000,-34579.590536,2535675.561298,-2455477.226057,680789.222992,0.000047,-0.000047,0.000013
-1.480000,0.080000,1.020014,0.080000,-16728.652513,1239048.223223,-1203449.314634,282443.360789,0.000023,-0.000023,0.000005
-1.400000,0.080000,1.100013,0.080000,-7045.782153,630777.935454,-614458.675874,116141.746606,0.000012,-0.000012,0.000002
-1.320000,0.080000,1.180012,0.080000,-1508.051030,335092.136204,-327353.820177,45173.191800,0.000006,-0.000006,0.000001
-1.240000,0.080000,1.260011,0.080000,1834.263422,186268.773854,-182464.691174,13858.504762,0.000003,-0.000003,0.000000
-1.160000,0.080000,1.340011,0.080000,3959.687991,108995.322074,-107050.547396,-844.737814,0.000002,-0.000002,-0.000000
-1.080000,0.080000,1.420010,0.080000,5374.986066,67975.619449,-66939.445083,-8510.149113,0.000001,-0.000001,-0.000000
-1.000000,0.080000,1.500010,0.080000,6348.605198,46098.709742,-45526.918317,-12969.150679,0.000001,-0.000001,-0.000000
-0.920000,0.080000,1.580009,0.080000,7023.559225,34693.086440,-34376.248005,-15515.940259,0.000001,-0.000001,-0.000000
-0.840000,0.080000,1.660009,0.080000,7474.475604,29049.625700,-28888.486544,-16330.778059,0.000001,-0.000001,-0.000000
-0.760000,0.080000,1.740008,0.080000,7738.456139,26335.726665,-26280.582346,-15212.603454,0.000000,-0.000000,-0.000000
-0.680000,0.080000,1.820008,0.080000,7833.530357,24656.940411,-24676.422297,-12032.309155,0.000000,-0.000000,-0.000000
-0.600000,0.080000,1.900008,0.080000,7770.902708,22699.832436,-22765.290422,-7023.836497,0.000000,-0.000000,-0.000000
-0.520000,0.080000,1.920032,0.080000,7563.380962,19662.421880,-19742.560440,-909.252633,0.000000,-0.000000,-0.000000
-0.440000,0.080000,1.920022,0.080000,7230.496049,15285.883798,-15348.892031,5170.339876,0.000000,-0.000000,0.000000
-0.360000,0.080000,1.920000,0.080000,6800.156946,9855.522748,-9875.774500,9910.106326,0.000000,-0.000000,0.000000
-0.280000,0.080000,1.920029,0.080000,6306.862569,4091.815233,-4057.344778,12211.633620,0.000000,-0.000000,0.000000
-0.200000,0.080000,1.920024,0.080000,5787.173002,-1082.371027,1165.550978,11542.925748,-0.000000,0.000000,0.000000
-0.120000,0.080000,1.920000,0.080000,5273.911151,-4845.710147,4955.099559,8151.416473,-0.000000,0.000000,0.000000
-0.040000,0.080000,1.920026,0.080000,4791.005234,-6756.276491,6860.363937,3036.747628,-0.000000,0.000000,0.000000
0.040000,0.080000,1.920026,0.080000,4350.714588,-6903.212532,6972.427172,-2323.584620,-0.000000,0.000000,-0.000000
0.120000,0.080000,1.920000,0.080000,3954.188613,-5874.166831,5891.130639,-6407.868664,-0.000000,0.000000,-0.000000
0.200000,0.080000,1.920024,0.080000,3595.154678,-4550.403251,4515.471935,-8092.717177,-0.000000,0.000000,-0.000000
0.280000,0.080000,1.920029,0.080000,3265.451930,-3808.657707,3738.686628,-6951.203514,-0.000000,0.000000,-0.000000
0.360000,0.080000,1.920000,0.080000,2960.543543,-4243.423783,4164.518339,-3310.864268,-0.000000,0.000000,-0.000000
0.440000,0.080000,1.920022,0.080000,2683.266077,-6010.743960,5948.136080,1932.147773,-0.000000,0.000000,0.000000
0.520000,0.080000,1.920032,0.080000,2444.833469,-8842.102343,8811.170363,7660.327186,-0.000000,0.000000,0.000000
0.600000,0.080000,1.900008,0.080000,2263.177732,-12209.799537,12211.313214,12916.337317,-0.000000,0.000000,0.000000
0.680000,0.080000,1.820008,0.080000,2159.659460,-15573.530639,15594.007037,17203.670468,-0.000000,0.000000,0.000000
0.760000,0.080000,1.740008,0.080000,2155.695765,-18622.970183,18638.623187,20651.046576,-0.000000,0.000000,0.000000
0.840000,0.080000,1.660009,0.080000,2270.836879,-21456.695778,21437.814751,24067.796240,-0.000000,0.000000,0.000000
0.920000,0.080000,1.580009,0.080000,2523.434439,-24691.487705,24603.543094,29000.005327,-0.000000,0.000000,0.000001
1.000000,0.080000,1.500010,0.080000,2934.621491,-29559.933481,29357.804538,37977.663850,-0.000001,0.000001,0.000001
1.080000,0.080000,1.420010,0.080000,3536.271865,-38118.700675,37729.929739,55259.440462,-0.000001,0.000001,0.000001
1.160000,0.080000,1.340011,0.080000,4384.341294,-53766.643165,53056.687933,88639.040682,-0.000001,0.000001,0.000002
1.240000,0.080000,1.260011,0.080000,5581.021681,-82406.176224,81110.497974,153513.465283,-0.000002,0.000002,0.000003
1.320000,0.080000,1.180012,0.080000,7313.355959,-134869.049526,132458.689828,281980.689520,-0.000003,0.000003,0.000005
1.400000,0.080000,1.100013,0.080000,9924.269795,-231855.068898,227264.461918,543582.141022,-0.000004,0.000004,0.000010
1.480000,0.080000,1.020014,0.080000,14048.519274,-413964.012262,405032.667148,1093860.853854,-0.000008,0.000008,0.000021
1.560000,0.080000,0.940015,0.080000,20879.600390,-762152.758631,744479.190426,2291068.537194,-0.000014,0.000014,0.000043
1.640000,0.080000,0.860017,0.080000,32702.295852,-1439479.109533,1404094.392198,4983606.796115,-0.000027,0.000027,0.000094
1.720000,0.080000,0.780019,0.080000,53965.446633,-2775655.666838,2704419.638815,11233897.971253,-0.000052,0.000051,0.000212
1.800000,0.080000,0.700021,0.080000,93450.112920,-5435066.191456,5291975.313068,26177825.948647,-0.000102,0.000101,0.000493
1.880000,0.080000,0.620023,0.080000,168632.723918,-10738716.204133,10454837.135485,62883320.206130,-0.000201,0.000199,0.001185
1.960000,0.080000,0.540027,0.080000,314339.211153,-21424496.001106,21300781.456565,159539361.161802,-0.000403,0.000402,0.003006
2.040000,0.080000,0.460031,0.080000,599426.606229,-42030440.689164,41887244.173610,393954769.153919,-0.000791,0.000790,0.007422
2.120000,0.080000,0.380038,0.080000,1157396.546489,-79989540.755912,80532507.499902,1029773183.751601,-0.001510,0.001514,0.019402
-2.120000,0.160000,0.380023,0.080000,-2145784.811143,191135703.222256,-192474326.132639,1065388590.432018,0.003609,-0.003619,0.020073
-2.040000,0.160000,0.460019,0.080000,-1054059.148787,86721153.444967,-86237192.623192,402984947.821816,0.001631,-0.001627,0.007592
-1.960000,0.160000,0.540016,0.080000,-532790.927297,40372109.410273,-39984796.726250,161212111.580481,0.000758,-0.000756,0.003037
-1.880000,0.160000,0.620014,0.080000,-276146.302593,19216645.172710,-18647831.804802,62570599.318182,0.000359,-0.000355,0.001179
-1.800000,0.160000,0.700012,0.080000,-146305.672940,9468689.879682,-9204136.962501,25590266.569510,0.000177,-0.000175,0.000482
-1.720000,0.160000,0.780011,0.080000,-78813.282719,4773799.321328,-4647818.765734,10744920.417644,0.000089,-0.000088,0.000202
-1.640000,0.160000,0.860010,0.080000,-42698.093444,2463292.639811,-2402159.880962,4639044.828600,0.000046,-0.000046,0.000087
-1.560000,0.160000,0.940009,0.080000,-22745.789046,1302722.737328,-1272534.219906,2061331.980744,0.000024,-0.000024,0.000039
-1.480000,0.160000,1.020009,0.080000,-11326.448502,707317.295806,-692138.287104,942677.675906,0.000013,-0.000013,0.000018
-1.400000,0.160000,1.100008,0.080000,-4531.861030,394876.849070,-387092.318219,442883.981683,0.000007,-0.000007,0.000008
-1.320000,0.160000,1.180007,0.080000,-314.509061,226950.780434,-222865.539615,212426.310660,0.000004,-0.000004,0.000004
-1.240000,0.160000,1.260007,0.080000,2424.211881,134535.284842,-132327.899245,102171.603092,0.000003,-0.000003,0.000002
-1.160000,0.160000,1.340007,0.080000,4287.842392,82722.804297,-81481.779999,46870.630367,0.000002,-0.000002,0.000001
-1.080000,0.160000,1.420006,0.080000,5614.181568,53602.040125,-52867.481985,17380.907300,0.000001,-0.000001,0.000000
-1.000000,0.160000,1.500006,0.080000,6592.842465,37808.414876,-37351.616639,622.064194,0.000001,-0.000001,0.000000
-0.920000,0.160000,1.580006,0.080000,7326.674091,30224.526101,-29938.961512,-9081.290643,0.000001,-0.000001,-0.000000
-0.840000,0.160000,1.660005,0.080000,7865.294685,27725.935887,-27569.014839,-13934.642093,0.000001,-0.000001,-0.000000
-0.760000,0.160000,1.740005,0.080000,8225.495572,28009.463860,-27966.688722,-14646.312922,0.000001,-0.000001,-0.000000
-0.680000,0.160000,1.820005,0.080000,8406.162017,29074.474480,-29134.599289,-11555.672497,0.000001,-0.000001,-0.000000
-0.600000,0.160000,1.840000,0.080000,8401.103067,29145.728892,-29284.638994,-5312.315715,0.000001,-0.000001,-0.000000
-0.520000,0.160000,1.840033,0.080000,8210.339319,26877.718501,-27052.587599,2808.371204,0.000001,-0.000001,0.000000
-0.440000,0.160000,1.840023,0.080000,7848.603837,21661.156662,-21816.054273,10957.542904,0.000000,-0.000000,0.000000
-0.360000,0.160000,1.840000,0.080000,7349.164006,13836.599802,-13917.472714,17096.524436,0.000000,-0.000000,0.000000
-0.280000,0.160000,1.840030,0.080000,6761.653706,4657.288036,-4630.324926,19575.631481,0.000000,-0.000000,0.000000
-0.200000,0.160000,1.840025,0.080000,6144.174170,-4055.166759,4189.882944,17687.196731,-0.000000,0.000000,0.000000
-0.120000,0.160000,1.840000,0.080000,5551.839016,-10482.714598,10689.033141,11961.320786,-0.000000,0.000000,0.000000
-0.040000,0.160000,1.840028,0.080000,5025.355083,-13417.782153,13634.932951,4059.074845,-0.000000,0.000000,0.000000
0.040000,0.160000,1.840028,0.080000,4583.441660,-12677.002289,12840.838176,-3726.296137,-0.000000,0.000000,-0.000000
0.120000,0.160000,1.840000,0.080000,4221.677254,-9157.916190,9223.620895,-9189.412110,-0.000000,0.000000,-0.000000
0.200000,0.160000,1.840025,0.080000,3918.127991,-4514.280386,4471.408137,-10890.627546,-0.000000,0.000000,-0.000000
0.280000,0.160000,1.840030,0.080000,3643.725613,-578.497155,452.539365,-8545.836449,-0.000000,0.000000,-0.000000
0.360000,0.160000,1.840000,0.080000,3373.779411,1243.063314,-1402.522298,-3001.537232,0.000000,-0.000000,-0.000000
0.440000,0.160000,1.840023,0.080000,3096.832577,376.871660,-515.752809,4165.979452,0.000000,-0.000000,0.000000
0.520000,0.160000,1.840033,0.080000,2818.305824,-2839.390641,2760.721985,11251.204190,-0.000000,0.000000,0.000000
0.600000,0.160000,1.840000,0.080000,2558.422707,-7396.709077,7392.451593,16992.183162,-0.000000,0.000000,0.000000
0.680000,0.160000,1.820005,0.080000,2345.904108,-12040.288843,12099.360747,20937.002772,-0.000000,0.000000,0.000000
0.760000,0.160000,1.740005,0.080000,2210.088511,-15693.721926,15789.495660,23544.639111,-0.000000,0.000000,0.000000
0.840000,0.160000,1.660005,0.080000,2174.135051,-17719.490020,17824.530848,26095.450752,-0.000000,0.000000,0.000000
0.920000,0.160000,1.580006,0.080000,2250.945904,-17927.898795,18029.407706,30590.359758,-0.000000,0.000000,0.000001
1.000000,0.160000,1.500006,0.080000,2441.859136,-16314.402065,16430.003417,39880.906481,-0.000000,0.000000,0.000001
1.080000,0.160000,1.420006,0.080000,2736.424083,-12501.687118,12703.067120,58337.399681,-0.000000,0.000000,0.000001
1.160000,0.160000,1.340007,0.080000,3109.629575,-4712.532175,5178.900673,93534.205794,-0.000000,0.000000,0.000002
1.240000,0.160000,1.260007,0.080000,3509.801942,12333.109887,-11178.506592,159908.898654,0.000000,-0.000000,0.000003
1.320000,0.160000,1.180007,0.080000,3823.136980,52264.711267,-49404.369202,286538.880544,0.000001,-0.000001,0.000005
1.400000,0.160000,1.100008,0.080000,3782.357088,148958.267203,-141883.136251,533989.485028,0.000003,-0.000003,0.000010
1.480000,0.160000,1.020009,0.080000,2739.511283,386582.431257,-368973.610142,1031830.838426,0.000007,-0.000007,0.000019
1.560000,0.160000,0.940009,0.080000,-899.418122,976807.042662,-932465.053386,2064385.297748,0.000018,-0.000018,0.000039
1.640000,0.160000,0.860010,0.080000,-11098.898554,2460206.202416,-2346927.974133,4271416.047735,0.000046,-0.000045,0.000080
1.720000,0.160000,0.780011,0.080000,-37837.938131,6239111.505678,-5945316.777100,9128369.981524,0.000116,-0.000114,0.000172
1.800000,0.160000,0.700012,0.080000,-106579.202318,16005446.952541,-15232247.670449,20120197.754511,0.000297,-0.000291,0.000379
1.880000,0.160000,0.620014,0.080000,-283235.627295,41607413.953379,-39545449.764125,45669475.712636,0.000772,-0.000757,0.000860
1.960000,0.160000,0.540016,0.080000,-740850.787352,111067498.747468,-108789283.182248,109227536.968667,0.002080,-0.002063,0.002058
2.040000,0.160000,0.460019,0.080000,-1939568.520803,295948193.754441,-293065985.684156,256063913.540657,0.005560,-0.005538,0.004824
2.120000,0.160000,0.380023,0.080000,-5116024.917045,778421532.737135,-784123964.534013,637177562.502157,0.014698,-0.014741,0.012005
-2.120000,0.240000,0.380248,0.080000,4548089.092464,-754143318.421789,759696719.965994,736030851.274016,-0.014240,0.014282,0.013867
-2.040000,0.240000,0.460205,0.080000,1617847.043668,-279829900.073360,276939809.260171,289776188.993144,-0.005256,0.005234,0.005460
-1.960000,0.240000,0.540175,0.080000,562224.574058,-101412580.815725,99132239.248057,121832100.077720,-0.001898,0.001881,0.002295
-1.880000,0.240000,0.620152,0.080000,185508.047756,-36146266.256456,34184516.254430,50325346.421547,-0.000670,0.000655,0.000948
-1.800000,0.240000,0.700135,0.080000,54207.523784,-12965541.884977,12252573.043535,21947724.512623,-0.000240,0.000235,0.000414
-1.720000,0.240000,0.780121,0.080000,10998.937319,-4556122.868408,4296246.100498,9849233.209091,-0.000084,0.000082,0.000186
-1.640000,0.240000,0.860110,0.080000,-1189.647959,-1523664.916351,1428933.558249,4547465.969006,-0.000028,0.000027,0.000086
-1.560000,0.240000,0.940100,0.080000,-2949.169138,-449592.333999,415278.902714,2160041.503976,-0.000008,0.000008,0.000041
-1.480000,0.240000,1.020092,0.080000,-1585.710080,-85519.929334,73326.771886,1055257.224394,-0.000002,0.000001,0.000020
-1.400000,0.240000,1.100086,0.080000,412.719825,25062.064882,-29197.841805,529563.011622,0.000000,-0.000001,0.000010
-1.320000,0.240000,1.180080,0.080000,2280.852632,48523.445388,-49766.437647,271814.837529,0.000001,-0.000001,0.000005
-1.240000,0.240000,1.260075,0.080000,3847.809924,44813.804235,-45044.914043,140881.743376,0.000001,-0.000001,0.000003
-1.160000,0.240000,1.340070,0.080000,5130.027141,35078.435147,-34967.505472,71176.281771,0.000001,-0.000001,0.000001
-1.080000,0.240000,1.420066,0.080000,6187.308830,26557.501460,-26336.634422,31660.697109,0.000000,-0.000000,0.000001
-1.000000,0.240000,1.500063,0.080000,7073.369611,21612.879726,-21368.614837,7688.687858,0.000000,-0.000000,0.000000
-0.920000,0.240000,1.580060,0.080000,7819.661231,20790.362730,-20572.969951,-7267.388558,0.000000,-0.000000,-0.000000
-0.840000,0.240000,1.660057,0.080000,8431.593344,23658.455597,-23516.148561,-15629.775026,0.000000,-0.000000,-0.000000
-0.760000,0.240000,1.740054,0.080000,8891.257170,28931.299312,-28909.387856,-17943.763809,0.000001,-0.000001,-0.000000
-0.680000,0.240000,1.760021,0.080000,9165.628389,34554.421512,-34678.282282,-14346.537843,0.000001,-0.000001,-0.000000
-0.600000,0.240000,1.760000,0.080000,9219.593375,38056.345685,-38312.522762,-5583.470163,0.000001,-0.000001,-0.000000
-0.520000,0.240000,1.760034,0.080000,9031.533261,37207.374524,-37535.577801,6459.967750,0.000001,-0.000001,0.000000
-0.440000,0.240000,1.760024,0.080000,8607.313306,30805.804237,-31109.948937,18820.408696,0.000001,-0.000001,0.000000
-0.360000,0.240000,1.760000,0.080000,7987.759288,19274.101875,-19451.888889,28107.421636,0.000000,-0.000000,0.000001
-0.280000,0.240000,1.760032,0.080000,7245.916431,4756.482041,-4737.372708,31525.488175,0.000000,-0.000000,0.000001
-0.200000,0.240000,1.760026,0.080000,6473.516776,-9420.326050,9644.751486,27869.162441,-0.000000,0.000000,0.000001
-0.120000,0.240000,1.760000,0.080000,5760.060547,-19793.573624,20161.383324,18059.607014,-0.000000,0.000000,0.000000
-0.040000,0.240000,1.760029,0.080000,5171.076428,-23946.711017,24345.133357,4948.615913,-0.000000,0.000000,0.000000
0.040000,0.240000,1.760029,0.080000,4732.960574,-21362.684809,21668.639908,-7587.535889,-0.000000,0.000000,-0.000000
0.120000,0.240000,1.760000,0.080000,4429.729335,-13596.733622,13721.882781,-15937.865112,-0.000000,0.000000,-0.000000
0.200000,0.240000,1.760026,0.080000,4212.764504,-3693.285376,3614.833914,-17934.159549,-0.000000,0.000000,-0.000000
0.280000,0.240000,1.760032,0.080000,4019.904647,4914.581889,-5149.632111,-13467.427847,0.000000,-0.000000,-0.000000
0.360000,0.240000,1.760000,0.080000,3796.998340,9578.669337,-9876.135963,-4335.915614,0.000000,-0.000000,-0.000000
0.440000,0.240000,1.760024,0.080000,3514.569793,9231.885772,-9488.599151,6562.408094,0.000000,-0.000000,0.000000
0.520000,0.240000,1.760034,0.080000,3174.594319,4545.148060,-4685.672830,16329.429218,0.000000,-0.000000,0.000000
0.600000,0.240000,1.760000,0.080000,2806.370460,-2532.060232,2534.880500,23021.817540,-0.000000,0.000000,0.000000
0.680000,0.240000,1.760021,0.080000,2454.331999,-9577.728207,9704.617585,26145.003871,-0.000000,0.000000,0.000000
0.760000,0.240000,1.740054,0.080000,2162.824007,-14474.365924,14680.296511,26608.965359,-0.000000,0.000000,0.000001
0.840000,0.240000,1.660057,0.080000,1962.702664,-15838.059962,16082.271085,26306.512825,-0.000000,0.000000,0.000000
0.920000,0.240000,1.580060,0.080000,1862.447670,-12935.240579,13211.976155,27611.990024,-0.000000,0.000000,0.000001
1.000000,0.240000,1.500063,0.080000,1843.247208,-5060.122099,5429.389727,33102.535868,-0.000000,0.000000,0.000001
1.080000,0.240000,1.420066,0.080000,1854.063445,9657.570978,-9025.608507,45716.717345,0.000000,-0.000000,0.000001
1.160000,0.240000,1.340070,0.080000,1798.948329,36309.116964,-35039.165767,69468.063460,0.000001,-0.000001,0.000001
1.240000,0.240000,1.260075,0.080000,1503.101690,87130.961959,-84414.538724,110791.135640,0.000002,-0.000002,0.000002
1.320000,0.240000,1.180080,0.080000,631.653614,189906.730008,-183952.819750,180603.759452,0.000004,-0.000003,0.000003
1.400000,0.240000,1.100086,0.080000,-1494.792135,407176.942701,-393889.832124,297018.505566,0.000008,-0.000007,0.000006
1.480000,0.240000,1.020092,0.080000,-6316.104070,881600.649735,-851363.153883,487608.771832,0.000016,-0.000016,0.000009
1.560000,0.240000,0.940100,0.080000,-16983.485861,1945375.623537,-1875088.232547,785937.468411,0.000036,-0.000036,0.000015
1.640000,0.240000,0.860110,0.080000,-40578.621721,4389320.527394,-4222330.707357,1202560.850370,0.000082,-0.000080,0.000023
1.720000,0.240000,0.780121,0.080000,-93408.254990,10137332.067822,-9731904.601013,1604186.283541,0.000189,-0.000186,0.000030
1.800000,0.240000,0.700135,0.080000,-213913.074164,23968668.489211,-22963390.504677,1291143.375901,0.000446,-0.000438,0.000024
1.880000,0.240000,0.620152,0.080000,-494804.177345,57994428.798892,-55450978.895344,-2367122.357209,0.001078,-0.001059,-0.000045
1.960000,0.240000,0.540175,0.080000,-1164667.723999,145263966.468959,-142713169.791264,-19276443.903555,0.002722,-0.002703,-0.000363
2.040000,0.240000,0.460205,0.080000,-2799066.578256,367022370.100563,-363813704.647133,-74512815.952928,0.006897,-0.006873,-0.001404
2.120000,0.240000,0.380248,0.080000,-6875967.707361,925741845.029459,-932467040.453107,-258206128.457895,0.017480,-0.017530,-0.004865
-2.120000,0.320000,0.380057,0.080000,6884038.915461,-986885399.555903,994084916.545670,-204006509.991076,-0.018634,0.018688,-0.003844
-2.040000,0.320000,0.460047,0.080000,2711143.309924,-381754376.070112,378247075.506060,-49856796.698296,-0.007173,0.007146,-0.000939
-1.960000,0.320000,0.540040,0.080000,1085514.876381,-147343137.432760,144567112.772676,-7288095.170587,-0.002760,0.002739,-0.000137
-1.880000,0.320000,0.620035,0.080000,440587.996747,-57251755.563930,54613445.702034,3340846.364587,-0.001064,0.001044,0.000063
-1.800000,0.320000,0.700031,0.080000,180740.995380,-22948785.651121,21927319.563606,4074167.639387,-0.000427,0.000419,0.000077
-1.720000,0.320000,0.780028,0.080000,74931.321803,-9349250.574142,8945947.791415,2964985.626231,-0.000174,0.000171,0.000056
-1.640000,0.320000,0.860025,0.080000,31762.155263,-3857791.379661,3695533.890617,1868909.316455,-0.000072,0.000071,0.000035
-1.560000,0.320000,0.940023,0.080000,14402.645244,-1603590.417546,1537142.109364,1112107.793746,-0.000030,0.000029,0.000021
-1.480000,0.320000,1.020021,0.080000,7761.395169,-665846.700929,638184.115854,646641.614783,-0.000012,0.000012,0.000012
-1.400000,0.320000,1.100020,0.080000,5569.864435,-272669.465600,260985.261454,373543.863612,-0.000005,0.000005,0.000007
-1.320000,0.320000,1.180018,0.080000,5202.492858,-108204.487851,103220.769961,215678.755168,-0.000002,0.000002,0.000004
-1.240000,0.320000,1.260017,0.080000,5561.196111,-40828.157494,38718.537592,123563.574564,-0.000001,0.000001,0.000002
-1.160000,0.320000,1.340016,0.080000,6195.375543,-14453.063693,13624.236398,67780.785238,-0.000000,0.000000,0.000001
-1.080000,0.320000,1.420015,0.080000,6927.665047,-4313.387930,4091.373737,31645.356220,-0.000000,0.000000,0.000001
-1.000000,0.320000,1.500014,0.080000,7689.164787,1148.881607,-1071.667362,6380.452038,0.000000,-0.000000,0.000000
-0.920000,0.320000,1.580014,0.080000,8442.969085,7522.631458,-7324.601054,-11752.157472,0.000000,-0.000000,-0.000000
-0.840000,0.320000,1.660013,0.080000,9147.497538,17049.484394,-16873.254782,-23316.256340,0.000000,-0.000000,-0.000000
-0.760000,0.320000,1.680039,0.080000,9741.881368,29423.669433,-29393.720412,-27266.913421,0.000001,-0.000001,-0.000001
-0.680000,0.320000,1.680022,0.080000,10147.789730,42191.567351,-42391.036293,-22510.426203,0.000001,-0.000001,-0.000000
-0.600000,0.320000,1.680000,0.080000,10284.876440,51494.492944,-51930.074094,-9332.176647,0.000001,-0.000001,-0.000000
-0.520000,0.320000,1.680036,0.080000,10095.014224,53375.083907,-53957.938040,9712.059173,0.000001,-0.000001,0.000000
-0.440000,0.320000,1.680025,0.080000,9567.047972,45386.686832,-45949.191884,29856.383104,0.000001,-0.000001,0.000001
-0.360000,0.320000,1.680000,0.080000,8751.980286,27910.027271,-28260.770672,45265.854617,0.000001,-0.000001,0.000001
-0.280000,0.320000,1.680033,0.080000,7760.391544,4541.827118,-4540.538858,50926.124268,0.000000,-0.000000,0.000001
-0.200000,0.320000,1.680027,0.080000,6739.726998,-18773.153921,19152.673055,44547.514896,-0.000000,0.000000,0.000001
-0.120000,0.320000,1.680000,0.080000,5836.934055,-35661.528748,36310.856054,27641.657486,-0.000001,0.000001,0.000001
-0.040000,0.320000,1.680030,0.080000,5158.479849,-41580.891114,42291.742248,5215.725783,-0.000001,0.000001,0.000000
0.040000,0.320000,1.680030,0.080000,4741.878780,-35493.981261,36035.900077,-15891.961535,-0.000001,0.000001,-0.000000
0.120000,0.320000,1.680000,0.080000,4549.187084,-20239.872459,20447.976023,-29406.645425,-0.000000,0.000000,-0.000001
0.200000,0.320000,1.680027,0.080000,4484.779673,-1434.379331,1269.231352,-31778.153618,-0.000000,0.000000,-0.000001
0.280000,0.320000,1.680033,0.080000,4430.539090,14634.272570,-15079.481280,-23245.578476,0.000000,-0.000000,-0.000000
0.360000,0.320000,1.680000,0.080000,4285.304932,23233.265144,-23778.471319,-7432.434202,0.000000,-0.000000,-0.000000
0.440000,0.320000,1.680025,0.080000,3994.643174,22650.122058,-23103.706279,10263.385755,0.000000,-0.000000,0.000000
0.520000,0.320000,1.680036,0.080000,3561.736857,14397.757993,-14626.867329,24739.980195,0.000000,-0.000000,0.000000
0.600000,0.320000,1.680000,0.080000,3038.055565,2239.742911,-2206.821649,32865.942950,0.000000,-0.000000,0.000001
0.680000,0.320000,1.680022,0.080000,2499.838975,-9401.490583,9646.504249,34178.221404,-0.000000,0.000000,0.000001
0.760000,0.320000,1.680039,0.080000,2020.315897,-16911.411016,17273.430361,30513.258257,-0.000000,0.000000,0.000001
0.840000,0.320000,1.660013,0.080000,1646.838797,-18242.427984,18636.349882,24930.738573,-0.000000,0.000000,0.000000
0.920000,0.320000,1.580014,0.080000,1387.714444,-12741.636625,13140.053387,20493.172940,-0.000000,0.000000,0.000000
1.000000,0.320000,1.500014,0.080000,1207.670756,-156.444374,623.004514,19362.293752,-0.000000,0.000000,0.000000
1.080000,0.320000,1.420015,0.080000,1025.676843,20965.395986,-20244.699529,22342.260731,0.000000,-0.000000,0.000000
1.160000,0.320000,1.340016,0.080000,704.877668,55489.682836,-54143.910910,28555.947073,0.000001,-0.000001,0.000001
1.240000,0.320000,1.260017,0.080000,20.263149,115136.332779,-112455.493374,34379.743230,0.000002,-0.000002,0.000001
1.320000,0.320000,1.180018,0.080000,-1418.545645,224869.724253,-219449.416449,29746.933408,0.000004,-0.000004,0.000001
1.400000,0.320000,1.100020,0.080000,-4331.601858,436022.345448,-424987.423755,-12602.901212,0.000008,-0.000008,-0.000000
1.480000,0.320000,1.020021,0.080000,-10106.765471,854088.511198,-831430.927900,-166203.256785,0.000016,-0.000016,-0.000003
1.560000,0.320000,0.940023,0.080000,-21495.317917,1697903.299995,-1650940.296943,-628120.542567,0.000032,-0.000031,-0.000012
1.640000,0.320000,0.860025,0.080000,-44056.039183,3425629.752857,-3327477.347651,-1924611.157566,0.000064,-0.000063,-0.000036
1.720000,0.320000,0.780028,0.080000,-89179.957484,7002513.250361,-6796182.040813,-5462856.947628,0.000131,-0.000129,-0.000103
1.800000,0.320000,0.700031,0.080000,-180463.890516,14468090.023825,-14033142.932914,-15025160.445771,0.000270,-0.000267,-0.000283
1.880000,0.320000,0.620035,0.080000,-367177.479660,30133961.210510,-29216901.195518,-40854726.065804,0.000563,-0.000556,-0.000770
1.960000,0.320000,0.540040,0.080000,-752735.340009,63720324.389426,-63173336.597397,-114522087.131417,0.001197,-0.001193,-0.002158
2.040000,0.320000,0.460047,0.080000,-1554976.366945,134154737.976850,-133498672.703444,-304250724.017283,0.002524,-0.002519,-0.005732
2.120000,0.320000,0.380057,0.080000,-3234946.608814,280706090.274839,-282662096.250976,-846868662.579504,0.005300,-0.005314,-0.015955
-2.120000,0.400000,0.380012,0.080000,3489854.033701,-331921088.806031,334254871.482281,-873163161.716201,-0.006267,0.006284,-0.016451
-2.040000,0.400000,0.460010,0.080000,1628107.321632,-152134495.866845,151302632.931459,-302417547.826584,-0.002862,0.002855,-0.005698
-1.960000,0.400000,0.540008,0.080000,765550.219534,-70100679.110458,69414252.920860,-109345786.940411,-0.001317,0.001312,-0.002060
-1.880000,0.400000,0.620007,0.080000,362517.566470,-32325206.905464,31286022.863282,-36947355.100065,-0.000603,0.000595,-0.000696
-1.800000,0.400000,0.700006,0.080000,173252.592731,-15146228.350115,14664264.513097,-12660545.556497,-0.000283,0.000279,-0.000239
-1.720000,0.400000,0.780006,0.080000,84091.964481,-7133631.963683,6909175.429987,-4128990.760394,-0.000133,0.000131,-0.000078
-1.640000,0.400000,0.860005,0.080000,42057.491357,-3377096.012760,3272202.985338,-1192911.604105,-0.000063,0.000062,-0.000022
-1.560000,0.400000,0.940005,0.080000,22322.842963,-1606644.768688,1557391.415014,-230302.085190,-0.000030,0.000030,-0.000004
-1.480000,0.400000,1.020004,0.080000,13192.683741,-767681.840912,744392.116738,50651.624000,-0.000014,0.000014,0.000001
-1.400000,0.400000,1.100004,0.080000,9127.724148,-368522.658421,357403.479237,107120.712269,-0.000007,0.000007,0.000002
-1.320000,0.400000,1.180004,0.080000,7493.756667,-178893.209688,173528.545179,97087.885597,-0.000003,0.000003,0.000002
-1.240000,0.400000,1.260004,0.080000,7039.571406,-90061.218397,87474.598249,71955.939602,-0.000002,0.000002,0.000001
-1.160000,0.400000,1.340003,0.080000,7178.551979,-49686.056137,48509.882562,46000.909885,-0.000001,0.000001,0.000001
-1.080000,0.400000,1.420003,0.080000,7643.171926,-31387.951570,30995.157845,21572.821356,-0.000001,0.000001,0.000000
-1.000000,0.400000,1.500003,0.080000,8311.316619,-20739.540195,20814.138473,-1537.119208,-0.000000,0.000000,-0.000000
-0.920000,0.400000,1.580003,0.080000,9111.891590,-9314.568331,9633.757808,-22535.258954,-0.000000,0.000000,-0.000000
-0.840000,0.400000,1.600001,0.080000,9970.244608,7223.148951,-6883.859969,-38610.202647,0.000000,-0.000000,-0.000001
-0.760000,0.400000,1.600041,0.080000,10780.381005,29269.978726,-29142.185650,-45541.867448,0.000001,-0.000001,-0.000001
-0.680000,0.400000,1.600023,0.080000,11402.450277,53266.991309,-53531.586569,-39502.446268,0.000001,-0.000001,-0.000001
-0.600000,0.400000,1.600000,0.080000,11685.211972,72614.631411,-73321.160230,-19347.779082,0.000001,-0.000001,-0.000000
-0.520000,0.400000,1.600038,0.080000,11507.483196,79910.431690,-80925.269723,11662.854614,0.000002,-0.000002,0.000000
-0.440000,0.400000,1.600026,0.080000,10824.415328,70029.647611,-71055.385217,45762.929881,0.000001,-0.000001,0.000001
-0.360000,0.400000,1.600000,0.080000,9699.309189,42860.828061,-43536.217418,72652.114035,0.000001,-0.000001,0.000001
-0.280000,0.400000,1.600035,0.080000,8303.944083,4356.043313,-4402.603911,83040.738492,0.000000,-0.000000,0.000002
-0.200000,0.400000,1.600029,0.080000,6880.979643,-34875.128937,35524.327886,72376.752955,-0.000001,0.000001,0.000001
-0.120000,0.400000,1.600000,0.080000,5677.322582,-63121.876769,64274.952381,43071.100614,-0.000001,0.000001,0.000001
-0.040000,0.400000,1.600032,0.080000,4870.729614,-71911.714078,73181.227818,4063.620060,-0.000001,0.000001,0.000000
0.040000,0.400000,1.600032,0.080000,4516.756564,-59285.435120,60238.931906,-32276.622070,-0.000001,0.000001,-0.000001
0.120000,0.400000,1.600000,0.080000,4536.489543,-30549.901664,30881.593558,-54694.446138,-0.000001,0.000001,-0.000001
0.200000,0.400000,1.600029,0.080000,4749.749138,3843.943079,-4197.322475,-57126.382750,0.000000,-0.000000,-0.000001
0.280000,0.400000,1.600035,0.080000,4940.521937,32365.167676,-33214.204151,-40613.382164,0.000001,-0.000001,-0.000001
0.360000,0.400000,1.600000,0.080000,4929.243360,46642.943757,-47640.097528,-12349.751302,0.000001,-0.000001,-0.000000
0.440000,0.400000,1.600026,0.080000,4625.423304,44130.751677,-44920.451158,17541.837035,0.000001,-0.000001,0.000000
0.520000,0.400000,1.600038,0.080000,4043.896409,28261.416685,-28615.046470,39977.958809,0.000001,-0.000001,0.000001
0.600000,0.400000,1.600000,0.080000,3283.613426,6338.437776,-6217.740999,49927.718796,0.000000,-0.000000,0.000001
0.680000,0.400000,1.600023,0.080000,2482.039233,-13645.443200,14113.480378,47395.958867,-0.000000,0.000000,0.000001
0.760000,0.400000,1.600041,0.080000,1764.987658,-25783.270319,26394.653824,36324.997521,-0.000000,0.000000,0.000001
0.840000,0.400000,1.600001,0.080000,1209.275386,-27561.047773,28137.308995,22245.236531,-0.000001,0.000001,0.000000
0.920000,0.400000,1.580003,0.080000,826.476136,-19446.622051,19907.374836,9835.186260,-0.000000,0.000000,0.000000
1.000000,0.400000,1.500003,0.080000,565.324468,-3249.407417,3636.123782,1247.397359,-0.000000,0.000000,0.000000
1.080000,0.400000,1.420003,0.080000,322.564049,19940.453059,-19479.057076,-4660.930823,0.000000,-0.000000,-0.000000
1.160000,0.400000,1.340003,0.080000,-50.717828,51586.717953,-50821.387307,-12872.443409,0.000001,-0.000001,-0.000000
1.240000,0.400000,1.260004,0.080000,-758.930496,97081.189802,-95722.578501,-34008.250404,0.000002,-0.000002,-0.000001
1.320000,0.400000,1.180004,0.080000,-2096.793219,166652.192257,-164388.578355,-89974.175744,0.000003,-0.000003,-0.000002
1.400000,0.400000,1.100004,0.080000,-4514.719234,275165.768353,-271853.918066,-228560.216276,0.000005,-0.000005,-0.000004
1.480000,0.400000,1.020004,0.080000,-8712.228724,437149.059874,-433611.060280,-558498.882885,0.000008,-0.000008,-0.000011
1.560000,0.400000,0.940005,0.080000,-15722.843860,643487.996102,-644312.376713,-1332539.403203,0.000012,-0.000012,-0.000025
1.640000,0.400000,0.860005,0.080000,-26826.131629,775953.916291,-798543.168808,-3145888.890272,0.000015,-0.000015,-0.000059
1.720000,0.400000,0.780006,0.080000,-42692.957929,324232.385436,-426836.425599,-7416692.727356,0.000007,-0.000007,-0.000140
1.800000,0.400000,0.700006,0.080000,-59811.198107,-2503500.480413,2136802.322351,-17567376.218321,-0.000045,0.000042,-0.000331
1.880000,0.400000,0.620007,0.080000,-58076.468751,-13497445.839137,12302404.869592,-41980830.772132,-0.000248,0.000239,-0.000791
1.960000,0.400000,0.540008,0.080000,39091.601024,-51501448.166798,49745736.999755,-104211757.089990,-0.000960,0.000947,-0.001963
2.040000,0.400000,0.460010,0.080000,487977.621619,-170675694.061376,168418813.112687,-250438482.834504,-0.003203,0.003186,-0.004718
2.120000,0.400000,0.380012,0.080000,2096534.421833,-520367184.858041,524274082.590745,-636612990.399075,-0.009826,0.009856,-0.011994
-2.120000,0.480000,0.380207,0.080000,-1884425.587746,536597919.418150,-540648699.265931,-669417213.091877,0.010133,-0.010163,-0.012612
-2.040000,0.480000,0.460171,0.080000,-354428.810791,167552516.170522,-165149646.433772,-254696566.317412,0.003143,-0.003125,-0.004799
-1.960000,0.480000,0.540146,0.080000,29740.677036,46896783.773022,-45043690.231888,-102950165.262950,0.000873,-0.000859,-0.001940
-1.880000,0.480000,0.620127,0.080000,90521.579656,10548668.882601,-9396192.150582,-40153731.801755,0.000192,-0.000184,-0.000757
-1.800000,0.480000,0.700112,0.080000,74817.215881,952789.841002,-625140.437754,-16212851.703030,0.000016,-0.000014,-0.000305
-1.720000,0.480000,0.780101,0.080000,50382.749014,-1059219.420639,1138487.230875,-6540401.937780,-0.000020,0.000021,-0.000123
-1.640000,0.480000,0.860091,0.080000,32040.514061,-1093783.790570,1104188.163643,-2607444.784433,-0.000021,0.000021,-0.000049
-1.560000,0.480000,0.940084,0.080000,20571.401982,-763279.627395,758122.095870,-1008072.979129,-0.000014,0.000014,-0.000019
-1.480000,0.480000,1.020077,0.080000,13999.673533,-469242.457704,462833.307959,-362805.363794,-0.000009,0.000009,-0.000007
-1.400000,0.480000,1.100071,0.080000,10464.960406,-273235.672116,268503.010216,-107715.411877,-0.000005,0.000005,-0.000002
-1.320000,0.480000,1.180067,0.080000,8706.664894,-157315.180714,154269.624342,-11568.679287,-0.000003,0.000003,-0.000000
-1.240000,0.480000,1.260062,0.080000,7973.673094,-94752.204503,92924.559060,19547.875115,-0.000002,0.000002,0.000000
-1.160000,0.480000,1.340059,0.080000,7858.361365,-64629.329334,63666.914720,22400.776074,-0.000001,0.000001,0.000000
-1.080000,0.480000,1.420055,0.080000,8162.673498,-51708.051524,51426.225096,10410.278331,-0.000001,0.000001,0.000000
-1.000000,0.480000,1.500052,0.080000,8799.754602,-44039.897218,44319.568229,-11186.644830,-0.000001,0.000001,-0.000000
-0.920000,0.480000,1.520022,0.080000,9717.113765,-31918.659488,32583.219703,-37971.732199,-0.000001,0.000001,-0.000001
-0.840000,0.480000,1.520001,0.080000,10834.839227,-8800.891511,9545.611201,-63096.929595,-0.000000,0.000000,-0.000001
-0.760000,0.480000,1.520043,0.080000,12004.476160,26617.889037,-26196.367004,-77250.947902,0.000000,-0.000000,-0.000001
-0.680000,0.480000,1.520024,0.080000,13001.263736,68830.618978,-69100.845355,-71391.584577,0.000001,-0.000001,-0.000001
-0.600000,0.480000,1.520000,0.080000,13559.172217,106174.870870,-107288.881585,-41033.548620,0.000002,-0.000002,-0.000001
-0.520000,0.480000,1.520040,0.080000,13444.246892,124507.767095,-126269.665555,10053.357621,0.000002,-0.000002,0.000000
-0.440000,0.480000,1.520027,0.080000,12543.037245,113045.347842,-114921.963833,69042.022082,0.000002,-0.000002,0.000001
-0.360000,0.480000,1.520000,0.080000,10929.590242,69989.431987,-71291.369077,117373.056201,0.000001,-0.000001,0.000002
-0.280000,0.480000,1.520037,0.080000,8876.018850,5104.639139,-5274.760659,137448.623000,0.000000,-0.000000,0.000003
-0.200000,0.480000,1.520030,0.080000,6790.799146,-62532.919071,63654.920062,120016.591517,-0.000001,0.000001,0.000002
-0.120000,0.480000,1.520000,0.080000,5099.062132,-111200.782086,113272.148255,68817.783481,-0.000002,0.000002,0.000001
-0.040000,0.480000,1.520033,0.080000,4106.587428,-124956.556591,127248.149503,44.558578,-0.000002,0.000002,0.000000
0.040000,0.480000,1.520033,0.080000,3900.089987,-100101.984917,101793.672402,-63514.623693,-0.000002,0.000002,-0.000001
0.120000,0.480000,1.520000,0.080000,4324.097248,-46703.009662,47223.206515,-101238.809019,-0.000001,0.000001,-0.000002
0.200000,0.480000,1.520030,0.080000,5043.880134,15569.873548,-16318.172357,-102513.388750,0.000000,-0.000000,-0.000002
0.280000,0.480000,1.520037,0.080000,5668.497517,65386.397985,-67013.976951,-70241.332307,0.000001,-0.000001,-0.000001
0.360000,0.480000,1.520000,0.080000,5884.394165,87907.158537,-89736.037206,-18691.818274,0.000002,-0.000002,-0.000000
0.440000,0.480000,1.520027,0.080000,5548.642542,79644.906881,-81010.387027,33013.222266,0.000002,-0.000002,0.000001
0.520000,0.480000,1.520040,0.080000,4711.342873,48279.894754,-48791.303054,68604.203387,0.000001,-0.000001,0.000001
0.600000,0.480000,1.520000,0.080000,3568.114118,8105.115358,-7753.439055,80163.724480,0.000000,-0.000000,0.000002
0.680000,0.480000,1.520024,0.080000,2370.906566,-26352.703343,27266.191090,69418.335231,-0.000001,0.000001,0.000001
0.760000,0.480000,1.520043,0.080000,1336.887815,-45547.936048,46599.785034,44978.368834,-0.000001,0.000001,0.000001
0.840000,0.480000,1.520001,0.080000,588.078720,-47006.104193,47848.690588,17439.680530,-0.000001,0.000001,0.000000
0.920000,0.480000,1.520022,0.080000,135.059758,-34105.775756,34584.103964,-5204.228020,-0.000001,0.000001,-0.000000
1.000000,0.480000,1.500052,0.080000,-102.557085,-12894.881319,13047.927444,-20156.705232,-0.000000,0.000000,-0.000000
1.080000,0.480000,1.420055,0.080000,-258.569952,11124.680369,-11154.870187,-30204.212703,0.000000,-0.000000,-0.000001
1.160000,0.480000,1.340059,0.080000,-485.559834,34660.628976,-34768.392922,-43035.748656,0.000001,-0.000001,-0.000001
1.240000,0.480000,1.260062,0.080000,-933.525942,55816.256439,-56113.311717,-71380.311440,0.000001,-0.000001,-0.000001
1.320000,0.480000,1.180067,0.080000,-1736.252204,69824.783091,-70962.616394,-136067.747528,0.000001,-0.000001,-0.000003
1.400000,0.480000,1.100071,0.080000,-2977.057227,58262.983262,-62223.694976,-274383.039703,0.000001,-0.000001,-0.000005
1.480000,0.480000,1.020077,0.080000,-4561.552075,-37935.779239,25721.834180,-556992.754314,-0.000001,0.000001,-0.000010
1.560000,0.480000,0.940084,0.080000,-5815.300707,-388799.926495,353775.732908,-1118060.706318,-0.000007,0.000007,-0.000021
1.640000,0.480000,0.860091,0.080000,-4331.088636,-1461941.136313,1365240.660315,-2201655.577052,-0.000027,0.000026,-0.000041
1.720000,0.480000,0.780101,0.080000,7196.406971,-4521411.537642,4259066.596873,-4209234.378365,-0.000084,0.000082,-0.000079
1.800000,0.480000,0.700112,0.080000,49525.505255,-12970869.088533,12263022.626575,-7647727.259424,-0.000240,0.000235,-0.000144
1.880000,0.480000,0.620127,0.080000,179916.852164,-36008813.038282,34094339.891248,-12557908.124984,-0.000668,0.000653,-0.000237
1.960000,0.480000,0.540146,0.080000,554501.128138,-100083894.857853,97902917.270496,-15444857.061385,-0.001873,0.001857,-0.000291
2.040000,0.480000,0.460171,0.080000,1598664.341584,-274027113.862475,271270881.215878,-722520.368159,-0.005147,0.005126,-0.000014
2.120000,0.480000,0.380207,0.080000,4479069.575887,-738192032.268008,743622562.649678,96290455.022312,-0.013939,0.013980,0.001814
-2.120000,0.560000,0.380079,0.080000,-4243876.690914,762673522.730619,-768309153.237548,123926163.315405,0.014401,-0.014444,0.002335
-2.040000,0.560000,0.460065,0.080000,-1434491.076951,272610367.446660,-269692347.068616,4628178.364266,0.005120,-0.005098,0.000087
-1.960000,0.560000,0.540056,0.080000,-460138.950589,95703071.352482,-93408026.077607,-14485102.996993,0.001790,-0.001773,-0.000273
-1.880000,0.560000,0.620049,0.080000,-128814.087546,32892948.815576,-31008507.529004,-12289780.808265,0.000609,-0.000595,-0.000232
-1.800000,0.560000,0.700043,0.080000,-21772.545325,11177348.158923,-10503612.847905,-7386467.652225,0.000207,-0.000202,-0.000139
-1.720000,0.560000,0.780039,0.080000,8848.102864,3571776.161073,-3331626.206251,-3949226.359706,0.000066,-0.000064,-0.000074
-1.640000,0.560000,0.860035,0.080000,14872.984032,983754.155258,-899584.992077,-1981798.239695,0.000018,-0.000017,-0.000037
-1.560000,0.560000,0.940032,0.080000,13991.707654,159734.543355,-131407.781089,-950387.038758,0.000003,-0.000003,-0.000018
-1.480000,0.560000,1.020030,0.080000,11880.509494,-63663.863483,72326.270155,-434662.907823,-0.000001,0.000001,-0.000008
-1.400000,0.560000,1.100027,0.080000,10111.320547,-97597.111677,99554.182325,-183729.752488,-0.000002,0.000002,-0.000003
-1.320000,0.560000,1.180026,0.080000,8950.254159,-83645.795274,83459.743837,-63605.265628,-0.000002,0.000002,-0.000001
-1.240000,0.560000,1.260024,0.080000,8323.991795,-67978.714839,67263.025242,-8042.386991,-0.000001,0.000001,-0.000000
-1.160000,0.560000,1.340022,0.080000,8136.534808,-62870.548341,62286.514741,12465.415868,-0.000001,0.000001,0.000000
-1.080000,0.560000,1.420021,0.080000,8354.783405,-67087.457828,67013.238525,8819.773862,-0.000001,0.000001,0.000000
-1.000000,0.560000,1.440050,0.080000,9002.810983,-72283.797848,72931.918300,-15155.065174,-0.000001,0.000001,-0.000000
-0.920000,0.560000,1.440023,0.080000,10109.603669,-66405.794761,67725.156974,-54575.962114,-0.000001,0.000001,-0.000001
-0.840000,0.560000,1.440001,0.080000,11633.540848,-38328.020322,39905.394769,-98550.857452,-0.000001,0.000001,-0.000002
-0.760000,0.560000,1.440046,0.080000,13393.374899,16053.076687,-14935.977931,-129747.972365,0.000000,-0.000000,-0.000002
-0.680000,0.560000,1.440026,0.080000,15043.807081,88780.631170,-88879.680156,-129241.343904,0.000002,-0.000002,-0.000002
-0.600000,0.560000,1.440000,0.080000,16126.650127,159309.399493,-161027.617176,-85083.292043,0.000003,-0.000003,-0.000002
-0.520000,0.560000,1.440042,0.080000,16200.213498,200488.406223,-203562.580197,-517.551143,0.000004,-0.000004,-0.000000
-0.440000,0.560000,1.440029,0.080000,15009.078609,189727.818447,-193196.800087,103115.515007,0.000004,-0.000004,0.000002
-0.360000,0.560000,1.440000,0.080000,12624.484821,120633.816629,-123167.672682,191821.662001,0.000002,-0.000002,0.000004
-0.280000,0.560000,1.440039,0.080000,9483.031508,9101.982559,-9575.689842,231686.468309,0.000000,-0.000000,0.000004
-0.200000,0.560000,1.440032,0.080000,6286.170201,-110182.258573,112140.594931,203660.007036,-0.000002,0.000002,0.000004
-0.120000,0.560000,1.440000,0.080000,3782.733609,-196382.113584,200154.249081,113326.886752,-0.000004,0.000004,0.000002
-0.040000,0.560000,1.440035,0.080000,2513.520356,-219077.991011,223273.206597,-9577.848830,-0.000004,0.000004,-0.000000
0.040000,0.560000,1.440035,0.080000,2621.244764,-171178.057310,174220.267567,-122386.940433,-0.000003,0.000003,-0.000002
0.120000,0.560000,1.440000,0.080000,3806.261424,-72011.828396,72819.287573,-186657.473571,-0.000001,0.000001,-0.000004
0.200000,0.560000,1.440032,0.080000,5447.307939,40934.982824,-42503.550656,-183472.758725,0.000001,-0.000001,-0.000003
0.280000,0.560000,1.440039,0.080000,6835.771233,127748.970200,-130887.884112,-119989.719886,0.000002,-0.000002,-0.000002
0.360000,0.560000,1.440000,0.080000,7425.453890,161947.202944,-165319.351594,-24644.936774,0.000003,-0.000003,-0.000000
0.440000,0.560000,1.440029,0.080000,6998.880507,139416.841606,-141767.441643,66119.528055,0.000003,-0.000003,0.000001
0.520000,0.560000,1.440042,0.080000,5694.118535,77108.881397,-77773.207554,122991.358550,0.000001,-0.000001,0.000002
0.600000,0.560000,1.440000,0.080000,3899.834694,3227.969382,-2309.383810,133914.036820,0.000000,-0.000000,0.000003
0.680000,0.560000,1.440026,0.080000,2079.391029,-55601.249025,57419.394376,105453.132151,-0.000001,0.000001,0.000002
0.760000,0.560000,1.440046,0.080000,603.918729,-84082.700150,85943.055517,56233.207032,-0.000002,0.000002,0.000001
0.840000,0.560000,1.440001,0.080000,-344.543099,-81253.033498,82516.314925,6804.610136,-0.000002,0.000002,0.000000
0.920000,0.560000,1.440023,0.080000,-780.526133,-56937.140359,57377.407592,-28898.805337,-0.000001,0.000001,-0.000001
1.000000,0.560000,1.440050,0.080000,-854.725249,-24911.026231,24664.597462,-47260.620635,-0.000000,0.000000,-0.000001
1.080000,0.560000,1.420021,0.080000,-767.979556,3112.489420,-3767.808737,-53722.881348,0.000000,-0.000000,-0.000001
1.160000,0.560000,1.340022,0.080000,-697.112641,19789.656284,-20704.672713,-58893.533772,0.000000,-0.000000,-0.000001
1.240000,0.560000,1.260024,0.080000,-747.081602,19799.261262,-21211.920082,-74922.585069,0.000000,-0.000000,-0.000001
1.320000,0.560000,1.180026,0.080000,-914.442793,-7192.572156,4334.927462,-113732.667800,-0.000000,0.000000,-0.000002
1.400000,0.560000,1.100027,0.080000,-1016.615158,-89772.106475,83161.521997,-185986.179664,-0.000002,0.000002,-0.000004
1.480000,0.560000,1.020030,0.080000,-499.992308,-300654.849958,285089.634580,-295013.940041,-0.000006,0.000005,-0.000006
1.560000,0.560000,0.940032,0.080000,2044.484176,-811900.094277,775767.721472,-408852.573447,-0.000015,0.000015,-0.000008
1.640000,0.560000,0.860035,0.080000,10024.486408,-2016593.129411,1934139.722561,-361273.155166,-0.000038,0.000037,-0.000007
1.720000,0.560000,0.780039,0.080000,31453.823275,-4794885.467615,4609879.829404,464160.675033,-0.000089,0.000088,0.000009
1.800000,0.560000,0.700043,0.080000,84780.820104,-11080652.562449,10673516.537843,4102023.177543,-0.000206,0.000203,0.000077
1.880000,0.560000,0.620049,0.080000,211665.253421,-25022214.498269,24148707.408766,16922945.473478,-0.000466,0.000460,0.000319
1.960000,0.560000,0.540056,0.080000,504304.237109,-55790462.865401,55272603.613887,60978793.934778,-0.001048,0.001044,0.001149
2.040000,0.560000,0.460065,0.080000,1161983.029859,-120063941.999097,119472599.068101,189833269.194383,-0.002259,0.002254,0.003577
2.120000,0.560000,0.380079,0.080000,2603516.940101,-248334399.646259,250077159.439455,600518897.997279,-0.004689,0.004702,0.011314
-2.120000,0.640000,0.380004,0.080000,-2238643.425969,204262420.004197,-205682869.863456,636810605.280518,0.003856,-0.003867,0.011998
-2.040000,0.640000,0.460003,0.080000,-988544.911535,103999313.221340,-103560816.777521,192479374.671535,0.001957,-0.001954,0.003626
-1.960000,0.640000,0.540003,0.080000,-414049.173305,49331449.738013,-48922969.249848,59057166.633595,0.000927,-0.000924,0.001113
-1.880000,0.640000,0.620003,0.080000,-161605.662004,22076652.479947,-21292895.383114,15357860.506174,0.000412,-0.000406,0.000289
-1.800000,0.640000,0.700002,0.080000,-55369.123214,9586516.413682,-9215382.255234,3320134.772395,0.000179,-0.000176,0.000063
-1.720000,0.640000,0.780002,0.080000,-12865.350084,4000943.983873,-3832893.480700,151597.643693,0.000074,-0.000073,0.000003
-1.640000,0.640000,0.860002,0.080000,2937.691378,1590477.213585,-1516832.832833,-450591.789464,0.000030,-0.000029,-0.000008
-1.560000,0.640000,0.940002,0.080000,8076.137801,587784.568708,-556431.428932,-406886.920981,0.000011,-0.000011,-0.000008
-1.480000,0.640000,1.020002,0.080000,9244.009879,190230.717948,-177366.371523,-260783.775275,0.000004,-0.000003,-0.000005
-1.400000,0.640000,1.100001,0.080000,9107.887471,43436.209438,-38580.548756,-139659.111827,0.000001,-0.000001,-0.000003
-1.320000,0.640000,1.180001,0.080000,8660.529239,-7005.088281,8348.853499,-56851.850477,-0.000000,0.000000,-0.000001
-1.240000,0.640000,1.260001,0.080000,8248.136322,-28718.041714,28546.766206,-3512.426080,-0.000001,0.000001,-0.000000
-1.160000,0.640000,1.340001,0.080000,8019.753474,-50656.110297,50083.884494,25582.004293,-0.000001,0.000001,0.000000
-1.080000,0.640000,1.360002,0.080000,8118.634511,-80816.246181,80714.991041,27815.118495,-0.000002,0.000002,0.000001
-1.000000,0.640000,1.360053,0.080000,8735.212466,-111701.865838,112748.468453,-2547.233426,-0.000002,0.000002,-0.000000
-0.920000,0.640000,1.360024,0.080000,10060.410263,-124286.826530,126681.934642,-65393.349102,-0.000002,0.000002,-0.000001
-0.840000,0.640000,1.360001,0.080000,12166.754311,-96301.520571,99476.984730,-146398.712074,-0.000002,0.000002,-0.000003
-0.760000,0.640000,1.360049,0.080000,14870.465505,-15155.498484,17795.270625,-215116.273232,-0.000000,0.000000,-0.000004
-0.680000,0.640000,1.360027,0.080000,17655.386193,109665.337765,-109131.539769,-233431.913166,0.000002,-0.000002,-0.000004
-0.600000,0.640000,1.360001,0.080000,19735.248031,242533.199392,-245110.949527,-172811.258884,0.000005,-0.000005,-0.000003
-0.520000,0.640000,1.360045,0.080000,20278.330763,331272.331178,-336678.242091,-32490.645478,0.000006,-0.000006,-0.000001
-0.440000,0.640000,1.360030,0.080000,18733.664846,328749.842613,-335245.005082,152061.808187,0.000006,-0.000006,0.000003
-0.360000,0.640000,1.360000,0.080000,15123.942559,217127.896763,-222118.882517,317738.115936,0.000004,-0.000004,0.000006
-0.280000,0.640000,1.360041,0.080000,10154.539163,21999.455564,-23192.614454,398232.324917,0.000000,-0.000000,0.000008
-0.200000,0.640000,1.360034,0.080000,5051.505757,-192761.530520,196213.295210,353962.438351,-0.000004,0.000004,0.000007
-0.120000,0.640000,1.360000,0.080000,1161.451720,-349253.468191,356223.421876,192744.493642,-0.000007,0.000007,0.000004
-0.040000,0.640000,1.360037,0.080000,-535.181005,-388544.248990,396342.455953,-30056.404856,-0.000007,0.000007,-0.000001
0.040000,0.640000,1.360037,0.080000,208.097973,-296772.635433,302327.765345,-233319.167287,-0.000006,0.000006,-0.000004
0.120000,0.640000,1.360000,0.080000,2817.404093,-111507.714977,112744.202863,-344222.019474,-0.000002,0.000002,-0.000006
0.200000,0.640000,1.360034,0.080000,6132.943851,94884.175664,-98154.864462,-328533.163705,0.000002,-0.000002,-0.000006
0.280000,0.640000,1.360041,0.080000,8860.836338,246768.220757,-252867.219689,-202986.873680,0.000005,-0.000005,-0.000004
0.360000,0.640000,1.360000,0.080000,10045.974331,296483.102820,-302744.726524,-24672.792134,0.000006,-0.000006,-0.000000
0.440000,0.640000,1.360030,0.080000,9371.143340,240929.014968,-244960.118657,136263.142693,0.000005,-0.000005,0.000003
0.520000,0.640000,1.360045,0.080000,7178.506087,117147.838713,-117825.680062,226670.859339,0.000002,-0.000002,0.000004
0.600000,0.640000,1.360001,0.080000,4240.164613,-18797.775264,21041.469669,229160.848430,-0.000000,0.000000,0.000004
0.680000,0.640000,1.360027,0.080000,1408.683804,-117784.901880,121435.941298,162512.618250,-0.000002,0.000002,0.000003
0.760000,0.640000,1.360049,0.080000,-690.816436,-155822.183051,159164.198306,66441.917677,-0.000003,0.000003,0.000001
0.840000,0.640000,1.360001,0.080000,-1813.016457,-137614.260209,139513.061491,-19426.317287,-0.000003,0.000003,-0.000000
0.920000,0.640000,1.360024,0.080000,-2065.796425,-87020.412919,87245.598033,-71520.636384,-0.000002,0.000002,-0.000001
1.000000,0.640000,1.360053,0.080000,-1762.952205,-32061.398093,31090.600936,-87110.305858,-0.000001,0.000001,-0.000002
1.080000,0.640000,1.360002,0.080000,-1249.075028,6907.394942,-8378.233412,-78725.319797,0.000000,-0.000000,-0.000001
1.160000,0.640000,1.340001,0.080000,-770.535535,20900.164090,-22431.200465,-63814.714949,0.000000,-0.000000,-0.000001
1.240000,0.640000,1.260001,0.080000,-416.393159,8045.766969,-9721.010088,-55569.997221,0.000000,-0.000000,-0.000001
1.320000,0.640000,1.180001,0.080000,-103.258622,-35254.417350,32757.298366,-57212.902054,-0.000001,0.000001,-0.000001
1.400000,0.640000,1.100001,0.080000,451.259140,-124400.764130,119812.632255,-56519.908116,-0.000002,0.000002,-0.000001
1.480000,0.640000,1.020002,0.080000,1830.406912,-296205.232691,287727.241304,-10722.528467,-0.000006,0.000005,-0.000000
1.560000,0.640000,0.940002,0.080000,5155.933340,-615045.472522,601050.566454,199288.451541,-0.000012,0.000011,0.000004
1.640000,0.640000,0.860002,0.080000,12494.755665,-1157806.242058,1140698.828446,893708.252949,-0.000022,0.000022,0.000017
1.720000,0.640000,0.780002,0.080000,27311.584185,-1900898.220745,1902980.965972,2916536.968897,-0.000036,0.000036,0.000055
1.800000,0.640000,0.700002,0.080000,54147.043118,-2229404.526623,2350381.961641,8457035.989584,-0.000043,0.000044,0.000159
1.880000,0.640000,0.620003,0.080000,94047.498570,887146.656613,-273530.024321,23137015.641710,0.000013,-0.000009,0.000436
1.960000,0.640000,0.540003,0.080000,122968.822936,19744204.319333,-18426178.602911,63159393.394801,0.000365,-0.000355,0.001190
2.040000,0.640000,0.460003,0.080000,9044.951802,96278353.175290,-94531783.430924,161028175.347662,0.001804,-0.001791,0.003034
2.120000,0.640000,0.380004,0.080000,-778761.579931,361501948.682688,-364266315.161701,426808007.564332,0.006827,-0.006847,0.008041
-2.120000,0.720000,0.380169,0.080000,1023131.799975,-425123655.995535,428363013.876467,379428919.304926,-0.008028,0.008052,0.007149
-2.040000,0.720000,0.460140,0.080000,83258.703437,-111340782.803979,109353736.603275,142680477.043275,-0.002086,0.002072,0.002688
-1.960000,0.720000,0.540119,0.080000,-74250.720242,-23416568.555700,21928338.026373,55430908.297739,-0.000433,0.000422,0.001044
-1.880000,0.720000,0.620104,0.080000,-62710.245810,-2036198.812725,1365540.115901,19875504.120437,-0.000035,0.000030,0.000374
-1.800000,0.720000,0.700092,0.080000,-32174.351526,1679493.097224,-1811676.706580,7009107.398784,0.000032,-0.000033,0.000132
-1.720000,0.720000,0.780082,0.080000,-11045.112177,1561433.288270,-1566454.387102,2275712.960334,0.000029,-0.000029,0.000043
-1.640000,0.720000,0.860075,0.080000,271.032248,937108.158653,-921555.878573,618810.042202,0.000018,-0.000017,0.000012
-1.560000,0.720000,0.940068,0.080000,5534.042011,478416.337865,-465509.339476,88935.565664,0.000009,-0.000009,0.000002
-1.480000,0.720000,1.020063,0.080000,7665.359310,223254.875916,-215548.316889,-47561.659750,0.000004,-0.000004,-0.000001
-1.400000,0.720000,1.100058,0.080000,8322.057923,100936.538895,-97149.861279,-55012.117643,0.000002,-0.000002,-0.000001
-1.320000,0.720000,1.180055,0.080000,8309.244954,46580.957373,-45456.466784,-21709.814182,0.000001,-0.000001,-0.000000
-1.240000,0.720000,1.260051,0.080000,7990.787140,13950.436317,-14593.320916,23735.656209,0.000000,-0.000000,0.000000
-1.160000,0.720000,1.280023,0.080000,7586.310826,-27657.412732,26226.421339,64915.512639,-0.000001,0.000001,0.000001
-1.080000,0.720000,1.280002,0.080000,7367.037140,-91749.748462,90888.599861,80387.991401,-0.000002,0.000002,0.000002
-1.000000,0.720000,1.280056,0.080000,7739.962793,-168720.861138,169906.484046,45101.625150,-0.000003,0.000003,0.000001
-0.920000,0.720000,1.280026,0.080000,9185.632003,-224350.128734,228387.330596,-55046.360970,-0.000004,0.000004,-0.000001
-0.840000,0.720000,1.280001,0.080000,12043.085886,-211359.353520,217535.476270,-204976.583894,-0.000004,0.000004,-0.000004
-0.760000,0.720000,1.280052,0.080000,16216.350625,-94814.016890,100696.177426,-352439.827799,-0.000002,0.000002,-0.000007
-0.680000,0.720000,1.280029,0.080000,20961.210391,119368.430102,-117060.963637,-421475.101907,0.000002,-0.000002,-0.000008
-0.600000,0.720000,1.280001,0.080000,24928.239983,370632.126028,-374318.224005,-346798.606769,0.000007,-0.000007,-0.000007
-0.520000,0.720000,1.280047,0.080000,26545.252665,558500.633335,-568083.727043,-113793.793423,0.000011,-0.000011,-0.000002
-0.440000,0.720000,1.280032,0.080000,24645.272802,584697.082258,-597021.460113,219174.186768,0.000011,-0.000011,0.000004
-0.360000,0.720000,1.280000,0.080000,19077.129620,404095.845642,-414047.665117,533566.134066,0.000008,-0.000008,0.000010
-0.280000,0.720000,1.280043,0.080000,10982.478458,57139.857471,-59997.360355,698066.348502,0.000001,-0.000001,0.000013
-0.200000,0.720000,1.280036,0.080000,2539.298209,-336978.167888,343123.585435,629808.743849,-0.000006,0.000006,0.000012
-0.120000,0.720000,1.280000,0.080000,-3784.064243,-627439.097022,640511.453207,338413.458485,-0.000012,0.000012,0.000006
-0.040000,0.720000,1.280040,0.080000,-6170.220229,-698345.921090,713068.906067,-71571.283049,-0.000013,0.000013,-0.000001
0.040000,0.720000,1.280040,0.080000,-4175.271275,-522112.797566,532417.971179,-443590.798893,-0.000010,0.000010,-0.000008
0.120000,0.720000,1.280000,0.080000,1099.393980,-172662.544479,174511.693174,-637573.888419,-0.000003,0.000003,-0.000012
0.200000,0.720000,1.280036,0.080000,7468.018730,208455.084368,-215268.446836,-590682.325419,0.000004,-0.000004,-0.000011
0.280000,0.720000,1.280043,0.080000,12543.400718,476026.055700,-487980.427905,-341004.345533,0.000009,-0.000009,-0.000006
0.360000,0.720000,1.280000,0.080000,14643.895561,543483.527733,-555207.871870,-4137.187341,0.000010,-0.000010,-0.000000
0.440000,0.720000,1.280032,0.080000,13336.359920,413976.149911,-420858.888511,283459.288124,0.000008,-0.000008,0.000005
0.520000,0.720000,1.280047,0.080000,9420.579191,167946.136245,-168116.113980,424769.748120,0.000003,-0.000003,0.000008
0.600000,0.720000,1.280001,0.080000,4430.901205,-82423.690907,87669.054793,397200.751646,-0.000002,0.000002,0.000007
0.680000,0.720000,1.280029,0.080000,-62.719693,-246098.587409,253440.768720,248811.307227,-0.000005,0.000005,0.000005
0.760000,0.720000,1.280052,0.080000,-3025.247446,-287154.834462,293167.589879,63423.239040,-0.000005,0.000005,0.000001
0.840000,0.720000,1.280001,0.080000,-4185.883495,-226945.378686,229670.158361,-83218.792202,-0.000004,0.000004,-0.000002
0.920000,0.720000,1.280026,0.080000,-3910.260203,-119936.634894,119377.736256,-153323.646633,-0.000002,0.000002,-0.000003
1.000000,0.720000,1.280056,0.080000,-2863.632173,-21088.248900,18612.317885,-151701.633543,-0.000000,0.000000,-0.000003
1.080000,0.720000,1.280002,0.080000,-1667.249060,36989.852696,-39759.979433,-109418.846469,0.000001,-0.000001,-0.000002
1.160000,0.720000,1.280023,0.080000,-691.108284,48591.889584,-50661.959473,-60371.611266,0.000001,-0.000001,-0.000001
1.240000,0.720000,1.260051,0.080000,-13.637803,24756.729595,-26014.232011,-23976.792395,0.000000,-0.000000,-0.000000
1.320000,0.720000,1.180055,0.080000,512.846551,-21083.246506,20215.053967,1321.603849,-0.000000,0.000000,0.000000
1.400000,0.720000,1.100058,0.080000,1179.072483,-81333.807485,80630.650996,38670.205247,-0.000002,0.000002,0.000001
1.480000,0.720000,1.020063,0.080000,2368.225723,-148751.808374,149441.027807,138137.158174,-0.000003,0.000003,0.000003
1.560000,0.720000,0.940068,0.080000,4498.763035,-185437.314044,193177.827555,398421.558223,-0.000004,0.000004,0.000008
1.640000,0.720000,0.860075,0.080000,7749.229397,-28674.083242,62073.565323,1014386.930566,-0.000001,0.000001,0.000019
1.720000,0.720000,0.780082,0.080000,10921.839901,883713.158403,-768407.669366,2346438.323792,0.000016,-0.000015,0.000044
1.800000,0.720000,0.700092,0.080000,7568.587709,4310541.150930,-3948751.339058,4934887.037811,0.000079,-0.000076,0.000093
1.880000,0.720000,0.620104,0.080000,-26063.019430,15510182.018523,-14426797.865808,9058429.549911,0.000286,-0.000278,0.000171
1.960000,0.720000,0.540119,0.080000,-166999.549229,50708503.497770,-49270567.018423,11634651.567657,0.000947,-0.000936,0.000219
2.040000,0.720000,0.460140,0.080000,-651174.981442,155060844.549643,-153235331.355339,-4107772.773291,0.002911,-0.002897,-0.000077
2.120000,0.720000,0.380169,0.080000,-2184418.360665,453927529.466594,-457301998.212055,-117321331.773893,0.008571,-0.008597,-0.002210
-2.120000,0.800000,0.380106,0.080000,1978160.659704,-420037142.786659,423151614.872986,-207447237.538980,-0.007931,0.007955,-0.003908
-2.040000,0.800000,0.460087,0.080000,587315.896503,-141464445.632679,139770437.029012,-28502788.996381,-0.002656,0.002643,-0.000537
-1.960000,0.800000,0.540074,0.080000,155353.802839,-45538039.095782,44201896.992239,3704710.228440,-0.000850,0.000840,0.000070
-1.880000,0.800000,0.620065,0.080000,32219.499308,-13623413.611489,12637908.369225,6206225.591576,-0.000251,0.000244,0.000117
-1.800000,0.800000,0.700057,0.080000,3629.371072,-3661501.658994,3337904.042845,3704933.345322,-0.000067,0.000065,0.000070
-1.720000,0.800000,0.780051,0.080000,897.204118,-702993.849551,602816.094965,1772315.338463,-0.000013,0.000012,0.000033
-1.640000,0.800000,0.860047,0.080000,3429.582319,43996.058828,-71357.402312,736431.903610,0.000001,-0.000001,0.000014
-1.560000,0.800000,0.940043,0.080000,5900.208180,155927.129685,-161014.087983,258768.781284,0.000003,-0.000003,0.000005
-1.480000,0.800000,1.020039,0.080000,7421.897886,126391.863225,-125567.817774,61755.944362,0.000002,-0.000002,0.000001
-1.400000,0.800000,1.100036,0.080000,8135.661533,93783.879045,-92323.443140,-2783.043666,0.000002,-0.000002,-0.000000
-1.320000,0.800000,1.180034,0.080000,8242.152446,80813.966397,-80707.259389,2600.254449,0.000002,-0.000002,0.000000
-1.240000,0.800000,1.200065,0.080000,7830.988945,68304.598303,-70337.957833,53913.649742,0.000001,-0.000001,0.000001
-1.160000,0.800000,1.200024,0.080000,6994.501516,21799.586036,-25490.657813,128961.223820,0.000000,-0.000000,0.000002
-1.080000,0.800000,1.200002,0.080000,6040.194815,-85296.283567,82052.010204,185412.035547,-0.000002,0.000002,0.000003
-1.000000,0.800000,1.200060,0.080000,5651.060744,-244454.954021,244811.772783,162771.725833,-0.000005,0.000005,0.000003
-0.920000,0.800000,1.200028,0.080000,6824.471210,-394961.719305,401305.462830,11937.943285,-0.000007,0.000008,0.000000
-0.840000,0.800000,1.200001,0.080000,10487.963190,-437209.476944,448971.143977,-261403.680068,-0.000008,0.000008,-0.000005
-0.760000,0.800000,1.200055,0.080000,16879.368895,-282090.463200,294808.294657,-569768.212930,-0.000005,0.000005,-0.000011
-0.680000,0.800000,1.200031,0.080000,24999.963635,84476.859295,-77668.126814,-762196.092252,0.000002,-0.000002,-0.000014
-0.600000,0.800000,1.200001,0.080000,32538.943045,562196.505587,-566979.690741,-692353.231368,0.000011,-0.000011,-0.000013
-0.520000,0.800000,1.200051,0.080000,36508.352710,956810.009076,-973921.289829,-306163.368080,0.000018,-0.000018,-0.000006
-0.440000,0.800000,1.200035,0.080000,34456.673574,1062902.024975,-1086597.478068,302290.787852,0.000020,-0.000020,0.000006
-0.360000,0.800000,1.200000,0.080000,25744.524968,771785.281001,-791864.115084,907874.098140,0.000015,-0.000015,0.000017
-0.280000,0.800000,1.200046,0.080000,12213.441028,145318.451019,-151966.115682,1247342.072899,0.000003,-0.000003,0.000024
-0.200000,0.800000,1.200038,0.080000,-2207.741489,-591068.159013,602124.026101,1146004.765785,-0.000011,0.000011,0.000022
-0.120000,0.800000,1.200000,0.080000,-12912.370929,-1141125.164420,1166014.833990,612124.737348,-0.000022,0.000022,0.000012
-0.040000,0.800000,1.200042,0.080000,-16463.095058,-1273645.473532,1301876.237728,-154035.836594,-0.000024,0.000024,-0.000003
0.040000,0.800000,1.200042,0.080000,-12031.831494,-932858.023626,952278.840998,-845907.070612,-0.000018,0.000018,-0.000016
0.120000,0.800000,1.200000,0.080000,-1746.755799,-266037.183223,268683.989308,-1190062.484044,-0.000005,0.000005,-0.000022
0.200000,0.800000,1.200038,0.080000,10225.116403,446311.610239,-460534.568660,-1069545.325728,0.000008,-0.000009,-0.000020
0.280000,0.800000,1.200046,0.080000,19425.937669,921683.307535,-945340.828060,-569785.522034,0.000017,-0.000018,-0.000011
0.360000,0.800000,1.200000,0.080000,22869.870547,1001336.147469,-1023493.234489,73034.189425,0.000019,-0.000019,0.000001
0.440000,0.800000,1.200035,0.080000,20038.054460,709040.825764,-720717.929706,590538.499494,0.000013,-0.000014,0.000011
0.520000,0.800000,1.200051,0.080000,12738.250886,218957.856802,-217105.767613,804467.784703,0.000004,-0.000004,0.000015
0.600000,0.800000,1.200001,0.080000,4025.852785,-242915.582495,254834.394134,692272.229222,-0.000005,0.000005,0.000013
0.680000,0.800000,1.200031,0.080000,-3203.403294,-507376.331977,522121.109663,370307.465669,-0.000010,0.000010,0.000007
0.760000,0.800000,1.200055,0.080000,-7273.715833,-525506.479094,536230.719191,14544.859737,-0.000010,0.000010,0.000000
0.840000,0.800000,1.200001,0.080000,-8044.777749,-362829.627628,366256.895173,-231284.579471,-0.000007,0.000007,-0.000004
0.920000,0.800000,1.200028,0.080000,-6513.967639,-140391.428557,137474.654126,-311419.415051,-0.000003,0.000003,-0.000006
1.000000,0.800000,1.200060,0.080000,-4067.056456,35584.472390,-41347.905921,-257205.974267,0.000001,-0.000001,-0.000005
1.080000,0.800000,1.200002,0.080000,-1813.519380,116449.589021,-121553.040042,-144109.792354,0.000002,-0.000002,-0.000003
1.160000,0.800000,1.200024,0.080000,-275.049432,111927.239292,-114582.668082,-40589.315698,0.000002,-0.000002,-0.000001
1.240000,0.800000,1.200065,0.080000,562.613892,62127.222909,-62421.584929,22182.714066,0.000001,-0.000001,0.000000
1.320000,0.800000,1.180034,0.080000,1004.081577,6835.234062,-5669.023251,51829.910837,0.000000,-0.000000,0.000001
1.400000,0.800000,1.100036,0.080000,1394.166854,-27416.596640,29778.749686,79094.558899,-0.000001,0.000001,0.000001
1.480000,0.800000,1.020039,0.080000,1943.647337,-15328.542795,20699.768796,141369.122134,-0.000000,0.000000,0.000003
1.560000,0.800000,0.940043,0.080000,2553.922621,105359.150930,-91059.400465,269865.783369,0.000002,-0.000002,0.000005
1.640000,0.800000,0.860047,0.080000,2392.310652,509917.541074,-472418.373603,457029.790142,0.000009,-0.000009,0.000009
1.720000,0.800000,0.780051,0.080000,-1281.621156,1638067.275787,-1546072.419142,518237.243294,0.000030,-0.000030,0.000010
1.800000,0.800000,0.700057,0.080000,-16028.948995,4482851.313321,-4274736.086144,-420619.441821,0.000083,-0.000082,-0.000008
1.880000,0.800000,0.620065,0.080000,-60731.643153,11020149.285418,-10601723.279385,-5658818.454423,0.000205,-0.000202,-0.000107
1.960000,0.800000,0.540074,0.080000,-178243.167036,24488423.465798,-24405232.563729,-28202384.006873,0.000461,-0.000460,-0.000531
2.040000,0.800000,0.460087,0.080000,-453428.615086,45123945.741927,-45102716.187128,-103469143.729778,0.000850,-0.000850,-0.001949
2.120000,0.800000,0.380106,0.080000,-1010041.109231,52280002.069340,-52611870.766707,-371038066.776442,0.000987,-0.000989,-0.006991
-2.120000,0.880000,0.380000,0.080000,554100.535551,54018578.544859,-54473057.454777,-362338968.858399,0.001020,-0.001024,-0.006827
-2.040000,0.880000,0.460000,0.080000,311141.584149,-14376578.767483,14723903.472457,-100328483.016293,-0.000273,0.000275,-0.001890
-1.960000,0.880000,0.540000,0.080000,135698.688941,-14948196.231242,15142095.145744,-27480267.205681,-0.000283,0.000284,-0.000518
-1.880000,0.880000,0.620000,0.080000,52558.972531,-7793245.870948,7542727.376729,-5743473.180094,-0.000145,0.000144,-0.000108
-1.800000,0.880000,0.700000,0.080000,20126.183121,-3299227.568084,3148030.815063,-651705.992962,-0.000061,0.000060,-0.000012
-1.720000,0.880000,0.780000,0.080000,9620.319074,-1199359.615844,1128535.344689,319074.272287,-0.000022,0.000022,0.000006
-1.640000,0.880000,0.860000,0.080000,7222.364497,-362491.729458,333583.414749,318082.279573,-0.000007,0.000006,0.000006
-1.560000,0.880000,0.940000,0.080000,7332.301302,-73115.585047,63179.055943,171108.855604,-0.000001,0.000001,0.000003
-1.480000,0.880000,1.020000,0.080000,7978.706112,17110.290362,-18978.399304,52659.975111,0.000000,-0.000000,0.000001
-1.400000,0.880000,1.100000,0.080000,8531.371833,61021.589258,-60162.606072,-14330.068549,0.000001,-0.000001,-0.000000
-1.320000,0.880000,1.120003,0.080000,8690.395993,111974.300006,-112040.557372,-19090.393898,0.000002,-0.000002,-0.000000
-1.240000,0.880000,1.120069,0.080000,8133.597467,157735.147353,-161546.213879,56312.559186,0.000003,-0.000003,0.000001
-1.160000,0.880000,1.120026,0.080000,6589.537413,137948.725289,-146088.510851,207709.430668,0.000003,-0.000003,0.000004
-1.080000,0.880000,1.120002,0.080000,4210.583324,-17159.842983,8048.400977,370940.509419,-0.000000,0.000000,0.000007
-1.000000,0.880000,1.120064,0.080000,1995.797684,-321202.267705,317928.380884,418221.274535,-0.000006,0.000006,0.000008
-0.920000,0.880000,1.120030,0.080000,1856.828320,-675045.938475,684069.844711,216458.163134,-0.000013,0.000013,0.000004
-0.840000,0.880000,1.120001,0.080000,5984.919099,-873656.675718,895722.435518,-270647.951063,-0.000017,0.000017,-0.000005
-0.760000,0.880000,1.120059,0.080000,15572.734114,-701716.550279,728792.479934,-903138.168676,-0.000013,0.000014,-0.000017
-0.680000,0.880000,1.120033,0.080000,29489.226727,-79186.862709,96882.935424,-1381497.598930,-0.000002,0.000002,-0.000026
-0.600000,0.880000,1.120001,0.080000,43805.993039,834185.079296,-839031.176746,-1381190.285495,0.000016,-0.000016,-0.000026
-0.520000,0.880000,1.120054,0.080000,52812.562316,1660775.362964,-1691518.057031,-744998.365097,0.000031,-0.000032,-0.000014
-0.440000,0.880000,1.120037,0.080000,51374.303179,1969216.270174,-2015368.323344,380854.825041,0.000037,-0.000038,0.000007
-0.360000,0.880000,1.120000,0.080000,37609.908092,1504735.245279,-1545703.991327,1564023.141145,0.000029,-0.000029,0.000029
-0.280000,0.880000,1.120050,0.080000,14461.119739,356562.268638,-371754.369216,2270528.353522,0.000007,-0.000007,0.000043
-0.200000,0.880000,1.120041,0.080000,-10878.388460,-1043097.559714,1063207.439177,2129654.645953,-0.000020,0.000020,0.000040
-0.120000,0.880000,1.120000,0.080000,-29662.651832,-2104123.300359,2152229.535696,1137488.067099,-0.000040,0.000040,0.000021
-0.040000,0.880000,1.120045,0.080000,-35269.121942,-2359080.353260,2414037.999278,-316809.489141,-0.000045,0.000045,-0.000006
0.040000,0.880000,1.120045,0.080000,-26107.177834,-1693718.311487,1730889.393609,-1624395.989045,-0.000032,0.000032,-0.000031
0.120000,0.880000,1.120000,0.080000,-6328.386401,-405090.509229,408564.154776,-2243945.672827,-0.000008,0.000008,-0.000042
0.200000,0.880000,1.120041,0.080000,16022.236478,943843.867275,-973653.831515,-1954814.954305,0.000018,-0.000018,-0.000037
0.280000,0.880000,1.120050,0.080000,32511.176264,1796270.522914,-1843565.133921,-947079.213900,0.000034,-0.000034,-0.000018
0.360000,0.880000,1.120000,0.080000,37787.697177,1858223.099937,-1900513.681741,292310.745271,0.000035,-0.000036,0.000006
0.440000,0.880000,1.120037,0.080000,31425.106745,1210803.410886,-1230417.663343,1229687.510895,0.000023,-0.000023,0.000023
0.520000,0.880000,1.120054,0.080000,17430.685737,230864.663102,-223013.379952,1535342.715880,0.000004,-0.000004,0.000029
0.600000,0.880000,1.120001,0.080000,1911.258614,-623020.630632,649625.072885,1207387.099670,-0.000012,0.000012,0.000023
0.680000,0.880000,1.120033,0.080000,-9780.566175,-1035672.303089,1065242.037566,519062.428813,-0.000020,0.000020,0.000010
0.760000,0.880000,1.120059,0.080000,-15021.158662,-954216.163154,973031.187161,-160697.428102,-0.000018,0.000018,-0.000003
0.840000,0.880000,1.120001,0.080000,-14266.928309,-555095.066858,557942.847425,-560839.506963,-0.000010,0.000010,-0.000011
0.920000,0.880000,1.120030,0.080000,-9976.451199,-103466.886202,94220.223490,-611408.050884,-0.000002,0.000002,-0.000012
1.000000,0.880000,1.120064,0.080000,-4968.079165,197963.619465,-210831.527244,-419722.012990,0.000004,-0.000004,-0.000008
1.080000,0.880000,1.120002,0.080000,-1149.960923,286397.106712,-295634.283948,-162101.118061,0.000005,-0.000006,-0.000003
1.160000,0.880000,1.120026,0.080000,889.699630,219909.576007,-222858.220825,26909.237178,0.000004,-0.000004,0.000001
1.240000,0.880000,1.120069,0.080000,1538.828017,102049.223734,-100224.543897,105277.721689,0.000002,-0.000002,0.000002
1.320000,0.880000,1.120003,0.080000,1523.604608,12834.327075,-9145.332131,105600.718404,0.000000,-0.000000,0.000002
1.400000,0.880000,1.100000,0.080000,1404.146831,-14592.417787,18498.069045,83779.673630,-0.000000,0.000000,0.000002
1.480000,0.880000,1.020000,0.080000,1354.486675,26404.795889,-21631.990195,74152.843440,0.000000,-0.000000,0.000001
1.560000,0.880000,0.940000,0.080000,1106.926434,152487.413228,-144503.106005,61281.275955,0.000003,-0.000003,0.000001
1.640000,0.880000,0.860000,0.080000,-161.828391,411678.149284,-398937.167402,-62503.855124,0.000008,-0.000008,-0.000001
1.720000,0.880000,0.780000,0.080000,-4122.861185,841486.862385,-832336.729940,-627849.281776,0.000016,-0.000016,-0.000012
1.800000,0.880000,0.700000,0.080000,-13438.479536,1193455.604692,-1242043.641457,-2549608.889883,0.000023,-0.000023,-0.000048
1.880000,0.880000,0.620000,0.080000,-29762.803856,-238575.406717,-102552.854488,-8193215.474858,-0.000003,-0.000000,-0.000154
1.960000,0.880000,0.540000,0.080000,-41250.400530,-11438236.870393,10539695.113151,-23758593.100764,-0.000210,0.000204,-0.000448
2.040000,0.880000,0.460000,0.080000,32321.322620,-62945861.521912,61731021.859330,-58708612.093917,-0.001179,0.001170,-0.001106
2.120000,0.880000,0.380000,0.080000,554739.224374,-260704211.643728,262679902.373944,-133071936.094458,-0.004923,0.004938,-0.002507
-2.120000,0.960000,0.380136,0.080000,-687994.428367,276468134.344496,-278530945.698748,-27702781.454259,0.005220,-0.005236,-0.000522
-2.040000,0.960000,0.460112,0.080000,-88963.931906,69060438.700085,-67820002.091236,-31680582.339654,0.001294,-0.001285,-0.000597
-1.960000,0.960000,0.540095,0.080000,20118.439256,14258675.006745,-13337483.867548,-15946917.619428,0.000263,-0.000256,-0.000300
-1.880000,0.960000,0.620083,0.080000,25598.929142,1603599.838549,-1226216.142355,-6016204.737524,0.000028,-0.000025,-0.000113
-1.800000,0.960000,0.700074,0.080000,17251.971356,-524719.017727,591367.279158,-1919247.098476,-0.000010,0.000011,-0.000036
-1.720000,0.960000,0.780066,0.080000,11514.532537,-524661.936577,524194.511575,-466370.585567,-0.000010,0.000010,-0.000009
-1.640000,0.960000,0.860060,0.080000,9047.069610,-282587.608213,273888.261459,-37320.273259,-0.000005,0.000005,-0.000001
-1.560000,0.960000,0.940055,0.080000,8418.908704,-132881.493922,127843.794727,37439.445581,-0.000002,0.000002,0.000001
-1.480000,0.960000,1.020050,0.080000,8668.056724,-60624.654301,60757.817963,-7234.718106,-0.000001,0.000001,-0.000000
-1.400000,0.960000,1.040025,0.080000,9305.673299,10704.820717,-6920.458711,-85638.208628,0.000000,-0.000000,-0.000002
-1.320000,0.960000,1.040003,0.080000,9853.764282,139546.377717,-136674.942011,-124323.740169,0.000003,-0.000003,-0.000002
-1.240000,0.960000,1.040075,0.080000,9491.659166,310153.456942,-314793.202331,-28294.092398,0.000006,-0.000006,-0.000001
-1.160000,0.960000,1.040028,0.080000,7170.684127,398908.505107,-414894.961522,262039.123073,0.000008,-0.000008,0.000005
-1.080000,0.960000,1.040002,0.080000,2390.461801,220619.279836,-243092.882802,670028.585273,0.000004,-0.000004,0.000013
-1.000000,0.960000,1.040069,0.080000,-3667.627685,-327661.485420,313278.021931,939419.304140,-0.000006,0.000006,0.000018
-0.920000,0.960000,1.040032,0.080000,-7541.152221,-1106951.477584,1117297.137622,738657.659674,-0.000021,0.000021,0.000014
-0.840000,0.960000,1.040001,0.080000,-4390.108422,-1704362.282101,1745172.809373,-104173.665749,-0.000032,0.000033,-0.000002
-0.760000,0.960000,1.040064,0.080000,9425.490594,-1615798.407585,1673017.075781,-1384547.793300,-0.000031,0.000031,-0.000026
-0.680000,0.960000,1.040036,0.080000,33238.950974,-574478.016622,617828.741570,-2509001.365041,-0.000011,0.000011,-0.000047
-0.600000,0.960000,1.040001,0.080000,60467.975064,1181854.417223,-1182634.055048,-2761215.598323,0.000022,-0.000022,-0.000052
-0.520000,0.960000,1.040058,0.080000,80136.699604,2914199.394340,-2969725.948943,-1726391.020467,0.000055,-0.000056,-0.000033
-0.440000,0.960000,1.040040,0.080000,81487.153412,3710966.684857,-3802019.951213,382621.348827,0.000070,-0.000071,0.000007
-0.360000,0.960000,1.040000,0.080000,59633.803367,2984232.883916,-3068724.435868,2725892.531667,0.000057,-0.000057,0.000051
-0.280000,0.960000,1.040053,0.080000,19188.651880,848585.085255,-882914.489305,4207671.264689,0.000016,-0.000016,0.000079
-0.200000,0.960000,1.040044,0.080000,-26481.195186,-1855730.257512,1892741.624666,4036257.967753,-0.000035,0.000035,0.000076
-0.120000,0.960000,1.040000,0.080000,-60496.347300,-3937348.301325,4031709.744545,2165100.285444,-0.000075,0.000075,0.000041
-0.040000,0.960000,1.040049,0.080000,-69878.649762,-4439636.854384,4548196.458038,-638596.967093,-0.000084,0.000085,-0.000012
0.040000,0.960000,1.040049,0.080000,-51498.613782,-3126040.153691,3198259.085379,-3149390.712662,-0.000059,0.000060,-0.000059
0.120000,0.960000,1.040000,0.080000,-13545.113281,-602926.804606,606632.196386,-4281226.350438,-0.000011,0.000011,-0.000081
0.200000,0.960000,1.040044,0.080000,28245.091314,1986162.465370,-2048960.904232,-3612332.494552,0.000038,-0.000038,-0.000068
0.280000,0.960000,1.040053,0.080000,57700.840453,3529741.203494,-3625272.644447,-1563777.609164,0.000067,-0.000068,-0.000029
0.360000,0.960000,1.040000,0.080000,65139.455213,3477886.096125,-3559450.435638,851551.344402,0.000066,-0.000067,0.000016
0.440000,0.960000,1.040040,0.080000,50808.657151,2058972.693722,-2091402.431163,2560654.935852,0.000039,-0.000039,0.000048
0.520000,0.960000,1.040058,0.080000,23494.290774,89464.165277,-65694.123177,2949552.739352,0.000002,-0.000001,0.000056
0.600000,0.960000,1.040001,0.080000,-4536.124230,-1492802.803640,1551574.245632,2099159.730769,-0.000028,0.000029,0.000040
0.680000,0.960000,1.040036,0.080000,-23365.659259,-2099576.942195,2158862.209172,640040.392844,-0.000040,0.000040,0.000012
0.760000,0.960000,1.040064,0.080000,-29113.066041,-1715588.026234,1747774.420388,-653051.676659,-0.000033,0.000033,-0.000012
0.840000,0.960000,1.040001,0.080000,-24072.299784,-787053.524913,784581.348255,-1272074.932134,-0.000015,0.000015,-0.000024
0.920000,0.960000,1.040032,0.080000,-13977.866779,110010.431642,-135150.004758,-1165096.795954,0.000002,-0.000002,-0.000022
1.000000,0.960000,1.040069,0.080000,-4436.034290,595169.313889,-622994.787392,-639225.221946,0.000011,-0.000012,-0.000012
1.080000,0.960000,1.040002,0.080000,1462.582762,618516.398047,-634424.359077,-93908.367228,0.000012,-0.000012,-0.000002
1.160000,0.960000,1.040028,0.080000,3495.992223,373832.369212,-375014.729387,218431.697456,0.000007,-0.000007,0.000004
1.240000,0.960000,1.040075,0.080000,3142.316478,104164.175093,-96824.578708,269946.971694,0.000002,-0.000002,0.000005
1.320000,0.960000,1.040003,0.080000,2077.944814,-47808.113284,55832.181660,177242.434780,-0.000001,0.000001,0.000003
1.400000,0.960000,1.040025,0.080000,1272.799444,-68108.260830,72794.530754,68179.598682,-0.000001,0.000001,0.000001
1.480000,0.960000,1.020050,0.080000,877.230930,-10387.176885,11890.869112,-3027.159690,-0.000000,0.000000,-0.000000
1.560000,0.960000,0.940055,0.080000,541.568966,69420.924825,-70385.926728,-67793.756713,0.000001,-0.000001,-0.000001
1.640000,0.960000,0.860060,0.080000,-225.497062,113515.298933,-121639.856154,-224875.949497,0.000002,-0.000002,-0.000004
1.720000,0.960000,0.780066,0.080000,-1646.891409,-50987.323907,14290.988453,-633203.429870,-0.000001,0.000000,-0.000012
1.800000,0.960000,0.700074,0.080000,-2452.855693,-1052723.937971,919899.822289,-1460570.011145,-0.000019,0.000018,-0.000028
1.880000,0.960000,0.620083,0.080000,4458.979625,-4896621.819574,4475954.298449,-2407038.309787,-0.000090,0.000087,-0.000045
1.960000,0.960000,0.540095,0.080000,45672.344492,-17645455.057863,17107340.272762,481004.826389,-0.000329,0.000325,0.000009
2.040000,0.960000,0.460112,0.080000,206059.811621,-54311278.041944,53643309.034207,24784616.899713,-0.001019,0.001014,0.000467
2.120000,0.960000,0.380136,0.080000,729577.738921,-147960275.452302,149054539.885671,157487578.762438,-0.002794,0.002802,0.002967
-2.120000,1.040000,0.380136,0.080000,-453415.690576,53314976.698285,-53717592.125898,188169135.180142,0.001007,-0.001010,0.003545
-2.040000,1.040000,0.460112,0.080000,-141466.628774,31423943.893576,-31090870.488113,35744996.016301,0.000590,-0.000588,0.000673
-1.960000,1.040000,0.540095,0.080000,-28561.853262,12258400.701778,-11973716.603558,4812787.031420,0.000229,-0.000227,0.000091
-1.880000,1.040000,0.620083,0.080000,3648.607449,3745070.544161,-3436164.628218,-757027.030024,0.000069,-0.000066,-0.000014
-1.800000,1.040000,0.700074,0.080000,10035.320778,891501.020466,-787570.413942,-818605.713937,0.000016,-0.000015,-0.000015
-1.720000,1.040000,0.780066,0.080000,10010.872207,95505.202791,-66843.066606,-379870.739098,0.000002,-0.000001,-0.000007
-1.640000,1.040000,0.860060,0.080000,9158.073015,-70956.664161,75159.949883,-103841.525583,-0.000001,0.000001,-0.000002
-1.560000,1.040000,0.940055,0.080000,8715.083332,-108760.046070,107868.495062,2060.842489,-0.000002,0.000002,0.000000
-1.480000,1.040000,0.960087,0.080000,8967.636306,-140319.531553,143760.873438,-32787.418753,-0.000003,0.000003,-0.000001
-1.400000,1.040000,0.960027,0.080000,10098.919177,-109808.556595,121166.370274,-190324.679983,-0.000002,0.000002,-0.000004
-1.320000,1.040000,0.960004,0.080000,11868.212362,104924.633144,-91635.908675,-368584.109116,0.000002,-0.000002,-0.000007
-1.240000,1.040000,0.960081,0.080000,12886.450084,530851.928153,-531294.585798,-331520.563095,0.000010,-0.000010,-0.000006
-1.160000,1.040000,0.960031,0.080000,10505.368723,939775.529807,-968162.707142,164063.672187,0.000018,-0.000018,0.000003
-1.080000,1.040000,0.960002,0.080000,2274.437546,872558.386092,-924346.664435,1090747.101732,0.000017,-0.000017,0.000021
-1.000000,1.040000,0.960075,0.080000,-11231.938502,-50593.052604,5998.145050,1957628.779869,-0.000001,0.000000,0.000037
-0.920000,1.040000,0.960035,0.080000,-24143.684310,-1700664.843818,1704839.448186,1971971.797489,-0.000032,0.000032,0.000037
-0.840000,1.040000,0.960001,0.080000,-26190.994707,-3262265.033886,3336459.542505,573525.589362,-0.000062,0.000062,0.000011
-0.760000,1.040000,0.960069,0.080000,-7801.848596,-3575111.016805,3695745.322518,-1996212.756043,-0.000068,0.000069,-0.000038
-0.680000,1.040000,0.960039,0.080000,32743.672163,-1878574.390287,1981520.810227,-4561875.464013,-0.000036,0.000037,-0.000086
-0.600000,1.040000,0.960001,0.080000,84691.658527,1519364.994260,-1503518.462055,-5543003.315333,0.000029,-0.000028,-0.000104
-0.520000,1.040000,0.960063,0.080000,126818.168732,5160666.365007,-5261444.021044,-3898055.125541,0.000098,-0.000099,-0.000073
-0.440000,1.040000,0.960043,0.080000,136520.279877,7104283.563300,-7286253.982020,101548.432291,0.000135,-0.000136,0.000002
-0.360000,1.040000,0.960000,0.080000,101847.408705,6005910.748504,-6181942.373247,4803529.233256,0.000114,-0.000115,0.000091
-0.280000,1.040000,0.960058,0.080000,29793.862032,1974362.727378,-2051366.939985,7933670.790989,0.000038,-0.000038,0.000149
-0.200000,1.040000,0.960048,0.080000,-54433.055893,-3333253.145902,3402251.157355,7791311.874461,-0.000063,0.000064,0.000147
-0.120000,1.040000,0.960000,0.080000,-117741.155413,-7481073.509498,7668835.699023,4209085.673160,-0.000142,0.000143,0.000079
-0.040000,1.040000,0.960053,0.080000,-134297.171504,-8489753.672423,8707175.615913,-1278770.901786,-0.000161,0.000163,-0.000024
0.040000,1.040000,0.960053,0.080000,-97823.373315,-5865489.685624,6007821.025442,-6174735.256670,-0.000111,0.000112,-0.000116
0.120000,1.040000,0.960000,0.080000,-24664.243543,-860123.456552,861590.030055,-8272930.393391,-0.000016,0.000016,-0.000156
0.200000,1.040000,0.960048,0.080000,53991.287923,4177269.382435,-4310299.673711,-6756744.111245,0.000079,-0.000080,-0.000127
0.280000,1.040000,0.960058,0.080000,106710.975123,7000916.462338,-7195880.611443,-2556790.329328,0.000133,-0.000134,-0.000048
0.360000,1.040000,0.960000,0.080000,115794.879456,6571090.888740,-6730121.564685,2202356.178019,0.000125,-0.000126,0.000041
0.440000,1.040000,0.960043,0.080000,83777.637674,3477963.733799,-3530259.593341,5339455.626326,0.000066,-0.000066,0.000101
0.520000,1.040000,0.960063,0.080000,29813.883750,-505248.564694,568943.999707,5702636.922463,-0.000010,0.000010,0.000107
0.600000,1.040000,0.960001,0.080000,-21300.424289,-3444017.163258,3573185.911705,3623674.137432,-0.000066,0.000067,0.000068
0.680000,1.040000,0.960039,0.080000,-51149.441483,-4237900.230382,4356918.051144,543458.529935,-0.000081,0.000081,0.000010
0.760000,1.040000,0.960069,0.080000,-54589.322889,-3042705.029357,3095650.443113,-1904485.145633,-0.000058,0.000058,-0.000036
0.840000,1.040000,0.960001,0.080000,-38870.349514,-948766.591891,926758.087960,-2774305.961615,-0.000018,0.000018,-0.000052
0.920000,1.040000,0.960035,0.080000,-16943.145816,797474.620243,-860995.032560,-2151924.383253,0.000015,-0.000016,-0.000041
1.000000,1.040000,0.960075,0.080000,263.175649,1497984.125581,-1556503.911682,-848357.637450,0.000029,-0.000029,-0.000016
1.080000,1.040000,0.960002,0.080000,8231.127923,1225162.214445,-1249926.906445,249640.115093,0.000023,-0.000023,0.000005
1.160000,1.040000,0.960031,0.080000,8501.438022,532004.083004,-523774.008824,696274.005980,0.000010,-0.000010,0.000013
1.240000,1.040000,0.960081,0.080000,5313.689274,-35628.730352,57321.063634,578893.318835,-0.000001,0.000001,0.000011
1.320000,1.040000,0.960004,0.080000,2224.433911,-251358.518482,267746.842946,250549.257339,-0.000005,0.000005,0.000005
1.400000,1.040000,0.960027,0.080000,649.682135,-198028.865997,202664.094714,-384.876630,-0.000004,0.000004,-0.000000
1.480000,1.040000,0.960087,0.080000,318.422986,-66671.938987,63260.654090,-97144.905350,-0.000001,0.000001,-0.000002
1.560000,1.040000,0.940055,0.080000,436.028068,8126.824894,-14916.695300,-114635.301059,0.000000,-0.000000,-0.000002
1.640000,1.040000,0.860060,0.080000,543.683240,-38365.151359,26656.699764,-144985.004078,-0.000001,0.000001,-0.000003
1.720000,1.040000,0.780066,0.080000,969.477666,-299705.332387,273353.754638,-181082.335646,-0.000005,0.000005,-0.000003
1.800000,1.040000,0.700074,0.080000,3460.940054,-998678.075699,944867.641355,75757.384429,-0.000019,0.000018,0.000001
1.880000,1.040000,0.620083,0.080000,12557.606618,-2349247.602589,2290281.714592,1867932.130368,-0.000044,0.000043,0.000035
1.960000,1.040000,0.540095,0.080000,36425.595899,-3049889.683510,3290694.408072,10016451.789390,-0.000059,0.000061,0.000189
2.040000,1.040000,0.460112,0.080000,75660.882397,8275313.354995,-7904222.544301,36551343.672099,0.000154,-0.000151,0.000689
2.120000,1.040000,0.380136,0.080000,38345.686119,88269797.427065,-88922834.869204,122193375.358777,0.001667,-0.001672,0.002302
-2.120000,1.120000,0.380000,0.080000,155833.146073,-121945678.694818,122814665.065954,45073471.037163,-0.002302,0.002309,0.000849
-2.040000,1.120000,0.460000,0.080000,-5496.731643,-20490678.594708,19982536.554785,21762544.530671,-0.000383,0.000379,0.000410
-1.960000,1.120000,0.540000,0.080000,-8281.624158,-1197058.392322,849185.794504,7311610.695062,-0.000021,0.000018,0.000138
-1.880000,1.120000,0.620000,0.080000,2096.338225,952215.109638,-980249.470689,1662127.402744,0.000018,-0.000018,0.000031
-1.800000,1.120000,0.700000,0.080000,7270.701028,576087.041123,-551818.833732,190271.312886,0.000011,-0.000011,0.000004
-1.720000,1.120000,0.780000,0.080000,8761.814350,222912.699466,-208123.284728,-66165.074968,0.000004,-0.000004,-0.000001
-1.640000,1.120000,0.860000,0.080000,8760.226916,65503.667812,-64444.311507,-5497.983977,0.000001,-0.000001,-0.000000
-1.560000,1.120000,0.880006,0.080000,8328.913162,-63011.056283,57278.782522,102119.468695,-0.000001,0.000001,0.000002
-1.480000,1.120000,0.880095,0.080000,8331.506310,-268592.808366,270785.969042,79604.015938,-0.000005,0.000005,0.000001
-1.400000,1.120000,0.880029,0.080000,10046.374887,-429592.956346,454218.845517,-246166.755321,-0.000008,0.000008,-0.000005
-1.320000,1.120000,0.880004,0.080000,14374.091811,-188946.480923,230312.484572,-821464.461429,-0.000004,0.000004,-0.000015
-1.240000,1.120000,0.880088,0.080000,19665.003838,720491.956969,-699098.963884,-1140416.828683,0.000013,-0.000013,-0.000021
-1.160000,1.120000,0.880033,0.080000,20204.643789,1965392.396340,-2009073.184916,-453556.107486,0.000037,-0.000038,-0.000009
-1.080000,1.120000,0.880003,0.080000,8412.894918,2472773.776898,-2587160.598696,1508465.435347,0.000047,-0.000048,0.000028
-1.000000,1.120000,0.880081,0.080000,-18522.506202,1084452.863144,-1206800.797926,3865301.823977,0.000021,-0.000022,0.000073
-0.920000,1.120000,0.880038,0.080000,-51655.202681,-2312025.013439,2283972.307293,4765257.400786,-0.000043,0.000043,0.000090
-0.840000,1.120000,0.880002,0.080000,-69809.581032,-6137407.797623,6269199.821851,2599241.129009,-0.000116,0.000117,0.000049
-0.760000,1.120000,0.880075,0.080000,-49468.930222,-7740233.845379,7994958.127219,-2530937.546174,-0.000147,0.000149,-0.000048
-0.680000,1.120000,0.880042,0.080000,18877.877276,-5099380.482903,5339816.071848,-8294097.931788,-0.000097,0.000099,-0.000156
-0.600000,1.120000,0.880001,0.080000,118410.759593,1519845.618449,-1453095.960773,-11191667.422473,0.000028,-0.000028,-0.000211
-0.520000,1.120000,0.880069,0.080000,207810.846376,9211038.274816,-9394892.601803,-8680366.250525,0.000175,-0.000176,-0.000164
-0.440000,1.120000,0.880047,0.080000,239362.796794,13805365.170253,-14173826.616625,-999261.551582,0.000262,-0.000265,-0.000019
-0.360000,1.120000,0.880000,0.080000,184773.597818,12245639.567842,-12615920.160990,8555808.990917,0.000233,-0.000236,0.000161
-0.280000,1.120000,0.880063,0.080000,54036.438876,4520450.804760,-4692295.775307,15212164.730003,0.000086,-0.000087,0.000287
-0.200000,1.120000,0.880052,0.080000,-104599.717855,-6053004.581664,6183491.437621,15297824.432969,-0.000115,0.000116,0.000288
-0.120000,1.120000,0.880000,0.080000,-225280.108305,-14435240.562093,14813999.601192,8335168.024107,-0.000274,0.000277,0.000157
-0.040000,1.120000,0.880057,0.080000,-255848.301147,-16491741.347710,16932800.727572,-2564328.957925,-0.000313,0.000317,-0.000048
0.040000,1.120000,0.880057,0.080000,-183515.991628,-11185874.079725,11470163.233165,-12252219.636660,-0.000212,0.000214,-0.000231
0.120000,1.120000,0.880000,0.080000,-41299.519493,-1129028.076067,1120767.118771,-16198298.883802,-0.000021,0.000021,-0.000305
0.200000,1.120000,0.880052,0.080000,108193.040139,8804151.615268,-9087517.674060,-12801850.353275,0.000167,-0.000170,-0.000241
0.280000,1.120000,0.880063,0.080000,203040.304795,14024115.627292,-14426018.231873,-4116710.080410,0.000266,-0.000270,-0.000078
0.360000,1.120000,0.880000,0.080000,210545.711744,12542445.415472,-12856060.568173,5366460.575686,0.000238,-0.000240,0.000101
0.440000,1.120000,0.880047,0.080000,139661.217773,5812887.382266,-5893905.738582,11165183.983868,0.000110,-0.000111,0.000210
0.520000,1.120000,0.880069,0.080000,32058.183316,-2301464.739686,2462095.211669,11099409.709655,-0.000044,0.000045,0.000209
0.600000,1.120000,0.880001,0.080000,-61783.664148,-7772746.680513,8056274.088421,6180091.352872,-0.000148,0.000150,0.000116
0.680000,1.120000,0.880042,0.080000,-107585.267516,-8535117.587622,8774803.595992,-317106.882720,-0.000162,0.000164,-0.000006
0.760000,1.120000,0.880075,0.080000,-100200.088781,-5291808.026459,5373361.401032,-4926499.557308,-0.000100,0.000101,-0.000093
0.840000,1.120000,0.880002,0.080000,-59429.973517,-655773.383430,575169.654645,-5900045.224594,-0.000012,0.000011,-0.000111
0.920000,1.120000,0.880038,0.080000,-13969.243418,2675277.107412,-2829490.533670,-3827765.174891,0.000051,-0.000052,-0.000072
1.000000,1.120000,0.880081,0.080000,15300.489541,3460019.746263,-3580041.650873,-764527.074679,0.000066,-0.000067,-0.000014
1.080000,1.120000,0.880003,0.080000,23141.012437,2244691.885711,-2275295.972876,1344726.345625,0.000042,-0.000043,0.000025
1.160000,1.120000,0.880033,0.080000,16786.009380,500783.893084,-459800.803988,1783778.237468,0.000009,-0.000009,0.000034
1.240000,1.120000,0.880088,0.080000,6970.248264,-584650.064197,641550.276478,1081538.131548,-0.000011,0.000012,0.000020
1.320000,1.120000,0.880004,0.080000,557.317560,-740220.672839,770810.809921,204522.464979,-0.000014,0.000014,0.000004
1.400000,1.120000,0.880029,0.080000,-1290.177025,-391444.303422,390485.424090,-250182.409810,-0.000007,0.000007,-0.000005
1.480000,1.120000,0.880095,0.080000,-618.161234,-51400.426364,37144.501682,-271886.181745,-0.000001,0.000001,-0.000005
1.560000,1.120000,0.880006,0.080000,466.731103,63514.932702,-74866.345896,-132918.736778,0.000001,-0.000001,-0.000003
1.640000,1.120000,0.860000,0.080000,1205.416994,-859.007137,-4278.511387,-21090.219648,0.000000,-0.000000,-0.000000
1.720000,1.120000,0.780000,0.080000,1969.203998,-132862.970687,133412.876835,101758.560893,-0.000003,0.000003,0.000002
1.800000,1.120000,0.700000,0.080000,3546.597045,-166362.532507,192430.667103,489885.265272,-0.000003,0.000003,0.000009
1.880000,1.120000,0.620000,0.080000,5909.164780,597501.273830,-447111.630899,1594672.189500,0.000010,-0.000009,0.000030
1.960000,1.120000,0.540000,0.080000,3150.021514,5227843.496573,-4885227.459885,3388119.236363,0.000097,-0.000094,0.000064
2.040000,1.120000,0.460000,0.080000,-37074.943346,24130353.950994,-23663193.911785,457039.927207,0.000452,-0.000448,0.000009
2.120000,1.120000,0.380000,0.080000,-244780.420931,86785881.484287,-87441166.195510,-47561605.430773,0.001639,-0.001644,-0.000896
-2.120000,1.200000,0.380106,0.080000,163297.045648,-26894112.383856,27172552.210403,-73605223.998941,-0.000508,0.000510,-0.001387
-2.040000,1.200000,0.460087,0.080000,44238.852211,-13719240.082347,13441402.359277,-8894743.011275,-0.000257,0.000255,-0.000168
-1.960000,1.200000,0.540074,0.080000,12351.102896,-3987284.589551,3783863.572136,324251.222050,-0.000074,0.000072,0.000006
-1.880000,1.200000,0.620065,0.080000,7447.134710,-722143.700899,596039.108761,764007.056058,-0.000013,0.000012,0.000014
-1.800000,1.200000,0.700057,0.080000,8002.251350,-2012.615657,-20718.640394,262142.733788,0.000000,-0.000000,0.000005
-1.720000,1.200000,0.780051,0.080000,8778.006575,125453.291209,-124824.206634,17092.201380,0.000002,-0.000002,0.000000
-1.640000,1.200000,0.800028,0.080000,8770.971403,184854.464888,-193327.107209,49952.208906,0.000004,-0.000004,0.000001
-1.560000,1.200000,0.800006,0.080000,7621.183750,100993.319503,-127397.494837,322980.603957,0.000002,-0.000002,0.000006
-1.480000,1.200000,0.800105,0.080000,5970.793321,-390889.192622,373271.175303,531777.811606,-0.000007,0.000007,0.000010
-1.400000,1.200000,0.800032,0.080000,6945.853541,-1158050.403069,1198925.381259,36875.195404,-0.000022,0.000022,0.000001
-1.320000,1.200000,0.800004,0.080000,15123.852526,-1262558.238720,1372680.516885,-1471662.041538,-0.000024,0.000025,-0.000028
-1.240000,1.200000,0.800097,0.080000,30731.744337,424844.503059,-327055.187589,-3035021.512212,0.000007,-0.000007,-0.000057
-1.160000,1.200000,0.800037,0.080000,43001.495875,3697020.451562,-3744189.635103,-2565058.387453,0.000070,-0.000070,-0.000048
-1.080000,1.200000,0.800003,0.080000,31852.088228,6157399.510985,-6402240.988942,1334839.383769,0.000117,-0.000119,0.000025
-1.000000,1.200000,0.800090,0.080000,-17244.841015,4550459.863992,-4867416.500457,7260616.539962,0.000088,-0.000090,0.000137
-0.920000,1.200000,0.800041,0.080000,-93536.323652,-2280089.042504,2141414.297374,10939384.989527,-0.000042,0.000041,0.000206
-0.840000,1.200000,0.800002,0.080000,-154369.988465,-11340709.914291,11567104.567227,8011288.877352,-0.000215,0.000217,0.000151
-0.760000,1.200000,0.800083,0.080000,-143969.333974,-16571021.443207,17111667.998688,-2203828.773679,-0.000315,0.000319,-0.000042
-0.680000,1.200000,0.800046,0.080000,-30769.789535,-12793587.742074,13350602.802603,-15059940.813803,-0.000244,0.000248,-0.000284
-0.600000,1.200000,0.800001,0.080000,160947.275544,206376.700975,-406.674096,-22761512.636940,0.000003,-0.000001,-0.000429
-0.520000,1.200000,0.800076,0.080000,350096.982195,16557084.266973,-16894801.311748,-19199985.657628,0.000314,-0.000316,-0.000362
-0.440000,1.200000,0.800052,0.080000,435309.442278,27219492.548943,-27975629.512011,-4251355.250819,0.000517,-0.000523,-0.000080
-0.360000,1.200000,0.800000,0.080000,350861.717237,25264248.638979,-26050075.847435,15405231.325427,0.000480,-0.000486,0.000290
-0.280000,1.200000,0.800069,0.080000,109443.441160,10233447.952787,-10615382.186844,29646350.500348,0.000195,-0.000198,0.000559
-0.200000,1.200000,0.800057,0.080000,-195176.695061,-11128274.163082,11379120.759591,30510971.931780,-0.000211,0.000213,0.000575
-0.120000,1.200000,0.800000,0.080000,-430083.373058,-28282184.339283,29056088.817144,16771550.103892,-0.000537,0.000543,0.000316
-0.040000,1.200000,0.800063,0.080000,-488629.647210,-32523735.685378,33428874.264339,-5175240.456085,-0.000618,0.000625,-0.000098
0.040000,1.200000,0.800063,0.080000,-344455.326333,-21670220.546986,22245059.304123,-24608734.361398,-0.000412,0.000416,-0.000464
0.120000,1.200000,0.800000,0.080000,-65039.990891,-1219447.909523,1181378.366764,-32135196.027086,-0.000023,0.000022,-0.000605
0.200000,1.200000,0.800057,0.080000,222409.337583,18623423.368120,-19230074.876662,-24579561.643121,0.000354,-0.000359,-0.000463
0.280000,1.200000,0.800069,0.080000,394310.575933,28380600.738989,-29217041.080177,-6468437.929814,0.000539,-0.000546,-0.000122
0.360000,1.200000,0.800000,0.080000,389597.502232,24200648.044284,-24826533.808070,12642506.294782,0.000459,-0.000464,0.000238
0.440000,1.200000,0.800052,0.080000,233757.562714,9556101.955989,-9673415.673199,23443692.462127,0.000181,-0.000182,0.000442
0.520000,1.200000,0.800076,0.080000,17459.706411,-7109222.765500,7500460.926389,21762754.954351,-0.000136,0.000139,0.000410
0.600000,1.200000,0.800001,0.080000,-155695.974847,-17324131.810628,17947489.996097,10340330.191845,-0.000330,0.000335,0.000195
0.680000,1.200000,0.800046,0.080000,-221729.031519,-17186267.715277,17671596.680203,-3392724.392990,-0.000327,0.000330,-0.000064
0.760000,1.200000,0.800083,0.080000,-180685.300491,-8938010.311374,9048608.704599,-12021276.670525,-0.000169,0.000170,-0.000226
0.840000,1.200000,0.800002,0.080000,-83088.510763,1224032.226234,-1465844.147158,-12337337.139030,0.000024,-0.000026,-0.000232
0.920000,1.200000,0.800041,0.080000,8150.490537,7435307.937473,-7801601.051476,-6460528.914919,0.000142,-0.000145,-0.000122
1.000000,1.200000,0.800090,0.080000,54018.106609,7586368.486663,-7826645.873961,514194.901955,0.000144,-0.000146,0.000010
1.080000,1.200000,0.800003,0.080000,52763.793481,3725316.235128,-3736714.853689,4343597.012748,0.000070,-0.000070,0.000082
1.160000,1.200000,0.800037,0.080000,27701.508932,-369523.867195,508931.628486,4083899.957488,-0.000008,0.000009,0.000077
1.240000,1.200000,0.800097,0.080000,4140.692858,-2191292.657893,2329801.745394,1676885.844530,-0.000042,0.000043,0.000032
1.320000,1.200000,0.800004,0.080000,-6218.748197,-1738982.831339,1785855.894640,-378230.719337,-0.000033,0.000033,-0.000007
1.400000,1.200000,0.800032,0.080000,-5695.782969,-512344.152218,482394.093315,-980642.472270,-0.000009,0.000009,-0.000018
1.480000,1.200000,0.800105,0.080000,-1692.548309,237358.858974,-280532.985242,-584558.951870,0.000005,-0.000005,-0.000011
1.560000,1.200000,0.800006,0.080000,1039.260989,303153.835827,-320543.431395,-81690.084099,0.000006,-0.000006,-0.000002
1.640000,1.200000,0.800028,0.080000,1911.812722,101316.555892,-95673.202520,125739.952142,0.000002,-0.000002,0.000002
1.720000,1.200000,0.780051,0.080000,2092.632800,-2697.428773,18009.365806,156396.311140,-0.000000,0.000000,0.000003
1.800000,1.200000,0.700057,0.080000,2200.454859,159549.412818,-128127.400274,199664.854420,0.000003,-0.000003,0.000004
1.880000,1.200000,0.620065,0.080000,1120.022134,828604.890838,-751168.465513,55195.107687,0.000015,-0.000015,0.000001
1.960000,1.200000,0.540074,0.080000,-5496.613693,2284439.557956,-2288463.806479,-2061218.099101,0.000043,-0.000043,-0.000039
2.040000,1.200000,0.460087,0.080000,-25616.581267,1470592.450822,-1498017.798137,-12090159.549560,0.000028,-0.000028,-0.000228
2.120000,1.200000,0.380106,0.080000,-44746.999843,-27296897.677212,27452267.800244,-52078822.174106,-0.000515,0.000516,-0.000981
-2.120000,1.280000,0.380169,0.080000,-23418.610329,41554551.650503,-41855783.149705,-9338726.899249,0.000785,-0.000787,-0.000176
-2.040000,1.280000,0.460140,0.080000,16022.058155,4995417.699773,-4852074.032249,-6338418.802594,0.000093,-0.000092,-0.000119
-1.960000,1.280000,0.540119,0.080000,12698.611169,-322398.712325,406982.108684,-1694527.502625,-0.000007,0.000007,-0.000032
-1.880000,1.280000,0.620104,0.080000,9609.128091,-408944.262919,382613.583256,-152763.092333,-0.000008,0.000007,-0.000003
-1.800000,1.280000,0.700092,0.080000,9006.196352,-181187.325870,174623.948840,16643.754037,-0.000003,0.000003,0.000000
-1.720000,1.280000,0.720125,0.080000,9584.188713,5052.406128,11095.249016,-165142.894935,0.000000,0.000000,-0.000003
-1.640000,1.280000,0.720031,0.080000,10049.951882,405336.269816,-410545.839748,-183835.463611,0.000008,-0.000008,-0.000003
-1.560000,1.280000,0.720007,0.080000,7900.568085,740291.835297,-815101.891270,525673.289924,0.000014,-0.000015,0.000010
-1.480000,1.280000,0.720116,0.080000,1396.284383,-69600.251859,-29778.465817,1728388.125272,-0.000001,0.000000,0.000033
-1.400000,1.280000,0.720036,0.080000,-4022.075445,-2481820.590526,2516099.662012,1579059.788869,-0.000047,0.000047,0.000030
-1.320000,1.280000,0.720005,0.080000,6358.597237,-4369347.476405,4636626.583203,-1819313.496904,-0.000084,0.000086,-0.000034
-1.240000,1.280000,0.720108,0.080000,43138.282193,-1893924.200304,2226727.161846,-7063811.881949,-0.000038,0.000040,-0.000133
-1.160000,1.280000,0.720041,0.080000,89945.765785,6039608.106001,-6017008.286213,-8639099.868475,0.000114,-0.000113,-0.000163
-1.080000,1.280000,0.720003,0.080000,97846.759835,14286143.704335,-14796402.405218,-1438297.510383,0.000272,-0.000276,-0.000027
-1.000000,1.280000,0.720100,0.080000,17361.384118,14033717.790407,-14832056.187449,12853606.831146,0.000269,-0.000275,0.000242
-0.920000,1.280000,0.720046,0.080000,-148068.942076,587295.671216,-1057304.881222,24400927.062877,0.000014,-0.000017,0.000460
-0.840000,1.280000,0.720002,0.080000,-314352.636777,-20515973.330612,20885524.493928,21721058.092097,-0.000389,0.000391,0.000409
-0.760000,1.280000,0.720092,0.080000,-351532.148373,-35330475.429805,36488427.333200,1374729.070716,-0.000672,0.000681,0.000026
-0.680000,1.280000,0.720052,0.080000,-169585.108224,-30852953.466808,32140025.635127,-27278155.612029,-0.000589,0.000598,-0.000514
-0.600000,1.280000,0.720001,0.080000,202048.631396,-5060053.108885,5624734.559631,-46701401.616614,-0.000099,0.000103,-0.000880
-0.520000,1.280000,0.720084,0.080000,602659.128705,29971816.310484,-30598852.660107,-42371407.283971,0.000568,-0.000573,-0.000798
-0.440000,1.280000,0.720058,0.080000,815224.795780,54443182.417251,-56016350.559871,-12855323.746903,0.001035,-0.001046,-0.000242
-0.360000,1.280000,0.720000,0.080000,688815.386887,52687346.823218,-54368436.322734,28063015.308762,0.001002,-0.001015,0.000529
-0.280000,1.280000,0.720077,0.080000,235305.316882,22978162.648530,-23823670.170309,58693456.271850,0.000438,-0.000444,0.001106
-0.200000,1.280000,0.720064,0.080000,-360194.413109,-20746458.995570,21237906.324414,61728293.543494,-0.000394,0.000397,0.001163
-0.120000,1.280000,0.720000,0.080000,-825873.656783,-56237517.006672,57837487.484172,34208224.216061,-0.001069,0.001081,0.000645
-0.040000,1.280000,0.720070,0.080000,-941237.491390,-65058214.950565,66934614.843246,-10544281.805094,-0.001236,0.001250,-0.000199
0.040000,1.280000,0.720070,0.080000,-651486.876638,-42612082.839054,43787201.034471,-50013940.261611,-0.000809,0.000818,-0.000942
0.120000,1.280000,0.720000,0.080000,-96067.804138,-564037.889919,445810.496632,-64565960.746007,-0.000010,0.000009,-0.001216
0.200000,1.280000,0.720064,0.080000,463671.392316,39565083.392731,-40869334.279483,-47831212.449193,0.000753,-0.000763,-0.000901
0.280000,1.280000,0.720077,0.080000,778021.700793,58020220.476412,-59776492.676855,-9766957.633339,0.001103,-0.001116,-0.000184
0.360000,1.280000,0.720000,0.080000,731586.828260,47232296.191040,-48497213.484726,29181295.675538,0.000897,-0.000907,0.000550
0.440000,1.280000,0.720058,0.080000,390463.126860,15313624.138037,-15463139.197183,49481018.549104,0.000289,-0.000290,0.000932
0.520000,1.280000,0.720084,0.080000,-47771.091522,-19223545.393713,20155900.996433,43026729.847838,-0.000367,0.000374,0.000811
0.600000,1.280000,0.720001,0.080000,-368587.533096,-38370773.968624,39746589.301627,16791921.117845,-0.000731,0.000741,0.000316
0.680000,1.280000,0.720052,0.080000,-452117.170524,-34672550.944938,35663650.876890,-12371592.933533,-0.000659,0.000666,-0.000233
0.760000,1.280000,0.720092,0.080000,-319706.633222,-14414161.203682,14521034.544246,-28426840.686367,-0.000272,0.000273,-0.000536
0.840000,1.280000,0.720002,0.080000,-95662.256453,7778029.049459,-8444091.006445,-25509425.232565,0.000150,-0.000155,-0.000481
0.920000,1.280000,0.720046,0.080000,82662.374791,19039282.407360,-19900584.079507,-10002865.382037,0.000364,-0.000370,-0.000188
1.000000,1.280000,0.720100,0.080000,144355.612302,16029615.420511,-16498660.682142,5582169.859601,0.000305,-0.000308,0.000105
1.080000,1.280000,0.720003,0.080000,106254.059315,5167294.274597,-5059692.397807,11973647.589875,0.000097,-0.000096,0.000226
1.160000,1.280000,0.720041,0.080000,34344.038821,-4004755.103685,4420677.008589,8608328.780757,-0.000078,0.000081,0.000162
1.240000,1.280000,0.720108,0.080000,-14510.645002,-6343643.817752,6662171.221896,1625029.705231,-0.000121,0.000124,0.000031
1.320000,1.280000,0.720005,0.080000,-24652.967540,-3434731.782213,3470547.882170,-2713716.547535,-0.000065,0.000065,-0.000051
1.400000,1.280000,0.720036,0.080000,-12922.218051,59093.594965,-196314.879862,-2771677.170053,0.000002,-0.000003,-0.000052
1.480000,1.280000,0.720116,0.080000,-686.021587,1318933.645265,-1432365.214780,-890263.318865,0.000025,-0.000026,-0.000017
1.560000,1.280000,0.720007,0.080000,3739.162000,781386.641993,-795057.449935,365097.518391,0.000015,-0.000015,0.000007
1.640000,1.280000,0.720031,0.080000,3172.227396,59131.412459,-23657.213211,455764.746661,0.000001,-0.000001,0.000009
1.720000,1.280000,0.720125,0.080000,2016.279318,-121187.230654,145445.487939,140679.772445,-0.000002,0.000003,0.000003
1.800000,1.280000,0.700092,0.080000,1539.710772,26671.117346,-24639.678976,-70385.040749,0.000000,-0.000000,-0.000001
1.880000,1.280000,0.620104,0.080000,934.869591,93331.630538,-124317.209265,-372369.011597,0.000002,-0.000002,-0.000007
1.960000,1.280000,0.540119,0.080000,74.857566,-845967.098733,726315.133432,-1210555.757684,-0.000015,0.000014,-0.000023
2.040000,1.280000,0.460140,0.080000,5987.875732,-6497039.977609,6316312.658577,-1160133.902043,-0.000121,0.000120,-0.000022
2.120000,1.280000,0.380169,0.080000,57933.454047,-27063470.484245,27316988.504587,16875215.428897,-0.000511,0.000513,0.000318
-2.120000,1.360000,0.380004,0.080000,-16513.781016,-107918.971132,-1193.153597,19867082.637725,-0.000001,0.000001,0.000374
-2.040000,1.360000,0.460003,0.080000,4012.620419,2785765.397070,-2679734.960341,1973268.864975,0.000052,-0.000051,0.000037
-1.960000,1.360000,0.540003,0.080000,9149.093201,752483.894844,-689198.183873,-222377.616753,0.000014,-0.000013,-0.000004
-1.880000,1.360000,0.620003,0.080000,9264.079378,50749.877617,-38013.375507,-75239.218575,0.000001,-0.000001,-0.000001
-1.800000,1.360000,0.640010,0.080000,8912.601824,-253014.917264,261244.839382,75671.317968,-0.000005,0.000005,0.000001
-1.720000,1.360000,0.640141,0.080000,10194.261664,-429348.184502,510050.644040,-453647.472002,-0.000009,0.000009,-0.000009
-1.640000,1.360000,0.640035,0.080000,13882.469906,496758.974324,-429298.144940,-1270460.855896,0.000009,-0.000008,-0.000024
-1.560000,1.360000,0.640008,0.080000,13820.577223,2594614.554511,-2754492.776256,-116943.174892,0.000050,-0.000051,-0.000002
-1.480000,1.360000,0.640131,0.080000,-2185.746349,2379238.470843,-2752317.158244,4191374.600409,0.000047,-0.000050,0.000079
-1.400000,1.360000,0.640040,0.080000,-31068.537235,-3909570.429095,3792014.084210,6998941.255793,-0.000073,0.000072,0.000132
-1.320000,1.360000,0.640005,0.080000,-33806.612752,-12317664.515110,12917486.240930,553559.599576,-0.000235,0.000240,0.000010
-1.240000,1.360000,0.640121,0.080000,38821.108608,-10917371.084438,11933312.469574,-14755558.624630,-0.000211,0.000219,-0.000278
-1.160000,1.360000,0.640046,0.080000,174912.663389,7275481.170919,-6895407.304515,-24786007.035892,0.000135,-0.000132,-0.000467
-1.080000,1.360000,0.640004,0.080000,261819.040634,31650390.571703,-32687852.679553,-12925620.718679,0.000602,-0.000610,-0.000244
-1.000000,1.360000,0.640112,0.080000,152376.918851,38677537.789228,-40666641.643931,20807876.412885,0.000740,-0.000755,0.000392
-0.920000,1.360000,0.640052,0.080000,-192415.606231,12759895.343602,-14161503.106978,53589871.778814,0.000248,-0.000259,0.001010
-0.840000,1.360000,0.640002,0.080000,-610244.527886,-36114384.821741,36669270.706950,55533717.761740,-0.000684,0.000688,0.001046
-0.760000,1.360000,0.640103,0.080000,-800257.746955,-75433862.816253,77947680.882769,14832496.747554,-0.001435,0.001454,0.000279
-0.680000,1.360000,0.640058,0.080000,-522709.275970,-72879191.366540,75856297.108416,-49264632.727038,-0.001390,0.001412,-0.000928
-0.600000,1.360000,0.640001,0.080000,203279.558856,-21024115.801841,22478819.886768,-96828132.063040,-0.000404,0.000415,-0.001824
-0.520000,1.360000,0.640095,0.080000,1055067.606055,54701835.488027,-55887203.408144,-93560492.401282,0.001037,-0.001046,-0.001763
-0.440000,1.360000,0.640065,0.080000,1563927.026152,110470623.034450,-113789856.521188,-34332946.255006,0.002100,-0.002125,-0.000647
-0.360000,1.360000,0.640000,0.080000,1385749.336358,110955978.863687,-114576942.602694,51812993.557865,0.002111,-0.002138,0.000976
-0.280000,1.360000,0.640087,0.080000,519199.940303,51269853.349761,-53132895.828404,117977084.558944,0.000976,-0.000991,0.002223
-0.200000,1.360000,0.640072,0.080000,-664314.777219,-39299555.431314,40283675.556457,126492498.667997,-0.000746,0.000753,0.002383
-0.120000,1.360000,0.640000,0.080000,-1602241.366825,-113405037.061476,116747489.648946,70562284.348809,-0.002156,0.002181,0.001329
-0.040000,1.360000,0.640079,0.080000,-1834439.462625,-131841539.608024,135764370.534932,-21728971.022945,-0.002506,0.002536,-0.000409
0.040000,1.360000,0.640079,0.080000,-1246382.723857,-84958863.581866,87383792.296262,-102773584.801410,-0.001614,0.001633,-0.001936
0.120000,1.360000,0.640000,0.080000,-129132.588317,2341729.477209,-2660817.100228,-131278849.282537,0.000046,-0.000048,-0.002473
0.200000,1.360000,0.640072,0.080000,975042.883468,84425379.755502,-87237925.318604,-94332281.020565,0.001607,-0.001628,-0.001777
0.280000,1.360000,0.640087,0.080000,1555768.884251,119788045.392336,-123504962.281548,-13770285.913481,0.002278,-0.002306,-0.000259
0.360000,1.360000,0.640000,0.080000,1392165.364244,93302935.806826,-95893598.878480,66485694.287106,0.001773,-0.001792,0.001253
0.440000,1.360000,0.640065,0.080000,646993.935543,23579722.700575,-23718372.059971,105061391.748622,0.000445,-0.000446,0.001979
0.520000,1.360000,0.640095,0.080000,-248241.391449,-48701000.466633,50890080.615941,85890102.057536,-0.000930,0.000946,0.001618
0.600000,1.360000,0.640001,0.080000,-844957.541198,-84823449.088289,87877037.913323,25994894.366160,-0.001615,0.001638,0.000490
0.680000,1.360000,0.640058,0.080000,-917205.367444,-70258411.822203,72308036.202079,-36384901.327128,-0.001335,0.001351,-0.000686
0.760000,1.360000,0.640103,0.080000,-552163.824033,-21455434.009143,21419750.699119,-66108159.237418,-0.000404,0.000404,-0.001246
0.840000,1.360000,0.640002,0.080000,-49558.464367,27093573.153968,-28849169.748890,-52395400.195674,0.000520,-0.000534,-0.000987
0.920000,1.360000,0.640052,0.080000,290339.192290,46763094.534428,-48786323.029643,-12955071.990580,0.000892,-0.000908,-0.000244
1.000000,1.360000,0.640112,0.080000,343255.019447,32872136.511752,-33762777.529023,21541878.826811,0.000624,-0.000631,0.000406
1.080000,1.360000,0.640004,0.080000,191112.664131,4008969.059544,-3450571.435628,30626004.452748,0.000072,-0.000068,0.000577
1.160000,1.360000,0.640046,0.080000,9711.992297,-15794736.842775,16963690.256526,16702752.893447,-0.000304,0.000313,0.000315
1.240000,1.360000,0.640121,0.080000,-77865.421974,-16291864.429543,16987870.148417,-2029676.643694,-0.000311,0.000316,-0.000038
1.320000,1.360000,0.640005,0.080000,-65288.882268,-5278867.646250,5149055.570563,-10093086.268656,-0.000099,0.000098,-0.000190
1.400000,1.360000,0.640040,0.080000,-17808.436705,3526131.757743,-4009051.762719,-6475553.374836,0.000069,-0.000073,-0.000122
1.480000,1.360000,0.640131,0.080000,10189.363090,4381073.465457,-4638090.717911,-125542.511831,0.000084,-0.000086,-0.000002
1.560000,1.360000,0.640008,0.080000,11479.795269,1219167.364253,-1152451.372513,2211097.975062,0.000023,-0.000022,0.000042
1.640000,1.360000,0.640035,0.080000,4311.840027,-704598.979614,841046.968887,1103493.537230,-0.000014,0.000015,0.000021
1.720000,1.360000,0.640141,0.080000,905.986670,-563806.191659,597644.725626,-119179.170211,-0.000011,0.000011,-0.000002
1.800000,1.360000,0.640010,0.080000,1078.699821,-52056.347647,16404.591202,-305148.574845,-0.000001,0.000001,-0.000006
1.880000,1.360000,0.620003,0.080000,1776.669936,-50422.731334,7879.330086,-142054.621265,-0.000001,0.000000,-0.000003
1.960000,1.360000,0.540003,0.080000,2910.202804,-507280.412368,496785.871958,251876.781416,-0.000009,0.000009,0.000005
2.040000,1.360000,0.460003,0.080000,6918.724638,-340198.048490,327132.970095,2482435.168886,-0.000006,0.000006,0.000047
2.120000,1.360000,0.380004,0.080000,9169.179476,10147222.925300,-10209120.605633,10745289.940381,0.000192,-0.000192,0.000202
-2.120000,1.440000,0.380079,0.080000,16125.976452,-7363536.535045,7538230.583084,-2863885.675742,-0.000140,0.000141,-0.000054
-2.040000,1.440000,0.460065,0.080000,8428.625074,-1020676.483004,998780.953086,756750.335192,-0.000019,0.000019,0.000014
-1.960000,1.440000,0.540056,0.080000,9033.807637,128508.188257,-125575.418618,120664.426755,0.000002,-0.000002,0.000002
-1.880000,1.440000,0.560035,0.080000,9153.922333,327378.813893,-396307.505816,147319.454322,0.000007,-0.000007,0.000003
-1.800000,1.440000,0.560012,0.080000,7244.496232,-171184.792419,87926.530704,928588.274167,-0.000003,0.000002,0.000017
-1.720000,1.440000,0.560161,0.080000,7111.737137,-2053371.107948,2280997.492070,4299.220503,-0.000040,0.000042,0.000000
-1.640000,1.440000,0.560040,0.080000,19663.289704,-1390011.396103,1819190.410654,-4392623.450616,-0.000029,0.000032,-0.000083
-1.560000,1.440000,0.560009,0.080000,38028.776682,6496596.123518,-6694390.216187,-5148821.041681,0.000124,-0.000125,-0.000097
-1.480000,1.440000,0.560149,0.080000,14671.094886,12445318.967983,-13650101.319606,7292864.528750,0.000241,-0.000250,0.000137
-1.400000,1.440000,0.560046,0.080000,-80770.336318,-1392345.774834,494882.256322,23200053.386085,-0.000021,0.000014,0.000437
-1.320000,1.440000,0.560006,0.080000,-160391.816799,-30880384.610422,32106311.335153,14687366.110092,-0.000589,0.000598,0.000277
-1.240000,1.440000,0.560138,0.080000,-49339.054909,-40266024.182592,43224996.106823,-27022007.617329,-0.000775,0.000798,-0.000509
-1.160000,1.440000,0.560052,0.080000,300579.372444,-387386.003343,2108071.525800,-66030832.030141,-0.000017,0.000030,-0.001244
-1.080000,1.440000,0.560004,0.080000,641655.066453,67788391.621815,-69851784.767937,-50829331.673938,0.001289,-0.001304,-0.000958
-1.000000,1.440000,0.560128,0.080000,561380.615113,101220196.697380,-106184565.748790,28224194.690003,0.001935,-0.001973,0.000532
-0.920000,1.440000,0.560059,0.080000,-136127.740761,52285964.982752,-56220671.280220,117033514.520794,0.001007,-0.001037,0.002205
-0.840000,1.440000,0.560003,0.080000,-1144122.842646,-61241987.168523,61956598.676948,137925699.680520,-0.001158,0.001163,0.002599
-0.760000,1.440000,0.560118,0.080000,-1764539.786508,-162103028.510921,167662519.928441,55638455.286520,-0.003086,0.003127,0.001048
-0.680000,1.440000,0.560066,0.080000,-1381261.764576,-170393755.336955,177303089.365848,-88820475.614700,-0.003249,0.003301,-0.001673
-0.600000,1.440000,0.560001,0.080000,50787.629935,-64311016.486845,67912909.899053,-203237331.974391,-0.001232,0.001259,-0.003829
-0.520000,1.440000,0.560108,0.080000,1872813.496434,100969433.205298,-103277604.242874,-207070780.232129,0.001915,-0.001933,-0.003901
-0.440000,1.440000,0.560074,0.080000,3062656.344903,227425520.523332,-234528067.951683,-86035087.909592,0.004325,-0.004378,-0.001621
-0.360000,1.440000,0.560000,0.080000,2839739.418651,235706673.349226,-243547983.955552,97259257.061689,0.004485,-0.004544,0.001832
-0.280000,1.440000,0.560099,0.080000,1155371.398890,113761976.192248,-117842175.389370,240602093.394749,0.002166,-0.002197,0.004533
-0.200000,1.440000,0.560082,0.080000,-1232658.878924,-75825283.807087,77845353.082896,262112344.264777,-0.001440,0.001455,0.004938
-0.120000,1.440000,0.560000,0.080000,-3147594.306435,-231674361.632981,238719159.311736,146851337.721652,-0.004405,0.004458,0.002767
-0.040000,1.440000,0.560090,0.080000,-3622093.530185,-270281011.640395,278535983.615365,-45330661.008065,-0.005139,0.005201,-0.000854
0.040000,1.440000,0.560090,0.080000,-2416293.620655,-171518366.777364,176560806.403268,-213285796.401392,-0.003260,0.003298,-0.004018
0.120000,1.440000,0.560000,0.080000,-143009.372951,11233075.333611,-12032429.914032,-269820917.561996,0.000216,-0.000222,-0.005084
0.200000,1.440000,0.560082,0.080000,2063164.059492,180860878.199002,-186935206.946426,-188499760.327244,0.003442,-0.003488,-0.003551
0.280000,1.440000,0.560099,0.080000,3148247.672389,249614518.359084,-257533792.030451,-16987778.401332,0.004748,-0.004807,-0.000320
0.360000,1.440000,0.560000,0.080000,2683330.169418,186676306.271120,-192056964.137071,150150420.298691,0.003548,-0.003588,0.002829
0.440000,1.440000,0.560074,0.080000,1056043.854312,34023615.254165,-34007976.263542,224516097.220048,0.000641,-0.000641,0.004230
0.520000,1.440000,0.560108,0.080000,-789015.215360,-118847661.890540,123929564.235960,173406736.127612,-0.002268,0.002306,0.003267
0.600000,1.440000,0.560001,0.080000,-1903981.026413,-187748836.832126,194572378.125131,37075354.537431,-0.003576,0.003627,0.000699
0.680000,1.440000,0.560066,0.080000,-1858491.116618,-143441879.302457,147757362.578920,-97655837.295719,-0.002727,0.002759,-0.001840
0.760000,1.440000,0.560118,0.080000,-921088.370398,-27083105.660519,26472576.636819,-152603981.365869,-0.000507,0.000502,-0.002875
0.840000,1.440000,0.560003,0.080000,193317.853072,79884171.667458,-84399876.992722,-107419976.956225,0.001531,-0.001565,-0.002024
0.920000,1.440000,0.560059,0.080000,823939.612935,112487514.444091,-117273462.294805,-8922139.695335,0.002146,-0.002182,-0.000168
1.000000,1.440000,0.560128,0.080000,763859.907500,65639709.565789,-67281822.731296,67381826.325510,0.001246,-0.001258,0.001270
1.080000,1.440000,0.560004,0.080000,293597.835881,-9012668.711278,11042853.661722,75298330.584324,-0.000181,0.000197,0.001419
1.160000,1.440000,0.560052,0.080000,-131839.619374,-50455210.549016,53656486.445121,28911831.194411,-0.000969,0.000993,0.000545
1.240000,1.440000,0.560138,0.080000,-254392.153069,-38783217.836634,40222974.866838,-19332506.248320,-0.000739,0.000750,-0.000364
1.320000,1.440000,0.560006,0.080000,-137260.895125,-3139783.496287,2217039.260694,-31065491.804198,-0.000054,0.000047,-0.000585
1.400000,1.440000,0.560046,0.080000,6633.883908,16904474.918528,-18430671.595021,-12264345.498541,0.000327,-0.000339,-0.000231
1.480000,1.440000,0.560149,0.080000,52161.785137,11549963.540998,-12009318.432061,6220451.633205,0.000220,-0.000224,0.000117
1.560000,1.440000,0.560009,0.080000,25670.456026,-611691.860344,1107713.318598,7937834.622018,-0.000014,0.000018,0.000150
1.640000,1.440000,0.560040,0.080000,-851.857181,-3971069.904714,4398445.647290,1291850.001569,-0.000077,0.000080,0.000024
1.720000,1.440000,0.560161,0.080000,-4015.642548,-1099333.872006,1066276.002420,-1766488.874825,-0.000021,0.000020,-0.000033
1.800000,1.440000,0.560012,0.080000,775.227412,546728.086183,-704670.288400,-741088.187173,0.000011,-0.000012,-0.000014
1.880000,1.440000,0.560035,0.080000,2652.749429,242935.294963,-257110.102719,206176.268330,0.000005,-0.000005,0.000004
1.960000,1.440000,0.540056,0.080000,2772.639506,69205.197366,-7803.036004,302766.313712,0.000001,-0.000000,0.000006
2.040000,1.440000,0.460065,0.080000,2200.437035,1006495.122658,-958021.264983,47939.825414,0.000019,-0.000018,0.000001
2.120000,1.440000,0.380079,0.080000,-4896.320442,2886819.423009,-2973107.035302,-5086345.182469,0.000055,-0.000056,-0.000096
-2.120000,1.520000,0.380207,0.080000,10391.222594,1811861.988655,-1949962.666903,-1510367.086074,0.000035,-0.000036,-0.000028
-2.040000,1.520000,0.460171,0.080000,9634.752001,-257221.011007,236734.164175,-161288.184647,-0.000005,0.000005,-0.000003
-1.960000,1.520000,0.480201,0.080000,9795.232611,-440419.798418,504842.302653,-339750.936422,-0.000009,0.000009,-0.000006
-1.880000,1.520000,0.480040,0.080000,11712.582947,1184902.533832,-1203796.334973,-1043888.112553,0.000022,-0.000023,-0.000020
-1.800000,1.520000,0.480013,0.080000,6073.040309,2773998.522166,-3148089.051652,3001210.119266,0.000054,-0.000057,0.000057
-1.720000,1.520000,0.480187,0.080000,-11136.693731,-6053896.262677,6026686.283961,6707619.028302,-0.000114,0.000114,0.000126
-1.640000,1.520000,0.480047,0.080000,9857.240032,-14713332.326904,15765903.420845,-9428787.487133,-0.000283,0.000291,-0.000178
-1.560000,1.520000,0.480010,0.080000,104499.735360,9946376.831002,-9307028.928907,-29154984.770176,0.000184,-0.000179,-0.000549
-1.480000,1.520000,0.480174,0.080000,127767.192149,49458207.506364,-51127610.952115,644028.927308,0.000941,-0.000954,0.000012
-1.400000,1.520000,0.480054,0.080000,-124825.724381,26377302.117235,-28797483.855996,69354850.331070,0.000511,-0.000529,0.001307
-1.320000,1.520000,0.480007,0.080000,-499744.400410,-72803390.188637,73256401.945046,75773447.656738,-0.001374,0.001378,0.001428
-1.240000,1.520000,0.480162,0.080000,-435985.857992,-135900718.356746,139698824.990462,-37364773.154177,-0.002582,0.002611,-0.000704
-1.160000,1.520000,0.480061,0.080000,398811.743958,-49392085.361275,52674163.492011,-174464673.846170,-0.000949,0.000974,-0.003287
-1.080000,1.520000,0.480005,0.080000,1481888.989496,145885130.825615,-146892351.442929,-171700864.763844,0.002754,-0.002762,-0.003235
-1.000000,1.520000,0.480149,0.080000,1684478.725007,270047327.197318,-274872145.512912,19485476.877876,0.005115,-0.005151,0.000367
-0.920000,1.520000,0.480069,0.080000,307745.129415,176884028.709412,-181413449.633411,261933597.810892,0.003358,-0.003392,0.004935
-0.840000,1.520000,0.480003,0.080000,-2078689.443791,-100027599.816564,99592860.991247,346708649.367665,-0.001882,0.001879,0.006532
-0.760000,1.520000,0.480138,0.080000,-3839090.611124,-364696551.995578,368725014.810318,173609079.680817,-0.006894,0.006924,0.003271
-0.680000,1.520000,0.480077,0.080000,-3420906.117563,-412007537.280031,417524831.878704,-162788533.988986,-0.007794,0.007835,-0.003067
-0.600000,1.520000,0.480001,0.080000,-560522.072808,-182609363.437708,185813405.753291,-441084639.112664,-0.003459,0.003483,-0.008310
-0.520000,1.520000,0.480126,0.080000,3366661.136918,194768735.016179,-195862834.264916,-469197909.995360,0.003676,-0.003684,-0.008840
-0.440000,1.520000,0.480086,0.080000,6109112.271146,490664897.925005,-495193070.556417,-211939396.721564,0.009270,-0.009304,-0.003993
-0.360000,1.520000,0.480001,0.080000,5903914.147515,521558998.518403,-526665119.463835,189409069.286342,0.009855,-0.009894,0.003569
-0.280000,1.520000,0.480116,0.080000,2572429.075678,259819314.865052,-262521739.041785,506302972.054250,0.004910,-0.004931,0.009539
-0.200000,1.520000,0.480096,0.080000,-2312457.813714,-153898763.354141,155034228.299009,558122761.092120,-0.002906,0.002915,0.010515
-0.120000,1.520000,0.480000,0.080000,-6266758.176877,-494222728.342692,498435771.980305,313105412.911429,-0.009335,0.009367,0.005899
-0.040000,1.520000,0.480105,0.080000,-7246194.541638,-577551307.894002,582439859.091911,-97545546.936171,-0.010909,0.010946,-0.001838
0.040000,1.520000,0.480105,0.080000,-4748991.457251,-361062842.423257,363929455.665914,-454415127.847662,-0.006819,0.006840,-0.008561
0.120000,1.520000,0.480000,0.080000,-74542.459228,36685536.037639,-37402442.854780,-569731206.445526,0.000695,-0.000701,-0.010734
0.200000,1.520000,0.480096,0.080000,4387442.437270,401834601.510177,-405735163.412773,-387932169.222145,0.007593,-0.007622,-0.007309
0.280000,1.520000,0.480116,0.080000,6440761.826604,541805211.875272,-546711570.720521,-14292829.318272,0.010236,-0.010273,-0.000269
0.360000,1.520000,0.480001,0.080000,5238817.969033,390344583.693572,-393444393.623167,343740200.502304,0.007372,-0.007395,0.006476
0.440000,1.520000,0.480086,0.080000,1682400.190416,43765371.689181,-43193464.126827,492259486.764540,0.000821,-0.000817,0.009274
0.520000,1.520000,0.480126,0.080000,-2156737.086570,-294248711.882852,298219713.689380,361094225.878193,-0.005566,0.005596,0.006803
0.600000,1.520000,0.480001,0.080000,-4253590.262814,-432015912.514748,436949939.331211,44594434.251556,-0.008167,0.008205,0.000840
0.680000,1.520000,0.480077,0.080000,-3773924.137902,-305764078.688384,308444479.600629,-256010961.251139,-0.005776,0.005796,-0.004823
0.760000,1.520000,0.480138,0.080000,-1454746.983288,-18801979.863395,17383758.105315,-359908748.150810,-0.000346,0.000336,-0.006781
0.840000,1.520000,0.480003,0.080000,1007447.513528,228572844.290786,-233049774.231573,-225178424.437752,0.004332,-0.004365,-0.004242
0.920000,1.520000,0.480069,0.080000,2140708.603421,279205711.019680,-283313511.641620,25494461.519680,0.005284,-0.005315,0.000480
1.000000,1.520000,0.480149,0.080000,1625483.041788,131369263.790686,-131897354.096586,199681993.907247,0.002478,-0.002482,0.003762
1.080000,1.520000,0.480005,0.080000,310006.942828,-68371100.361691,71569349.246830,186236712.900583,-0.001306,0.001330,0.003509
1.160000,1.520000,0.480061,0.080000,-639778.497349,-155310288.442672,159005793.059639,39082387.961566,-0.002947,0.002975,0.000736
1.240000,1.520000,0.480162,0.080000,-697432.371593,-89973188.603977,90694301.997472,-86567787.852603,-0.001699,0.001705,-0.001631
1.320000,1.520000,0.480007,0.080000,-214914.830373,23610408.896395,-25914293.584146,-90099705.886169,0.000458,-0.000475,-0.001698
1.400000,1.520000,0.480054,0.080000,160540.385312,65039022.823491,-67194987.514261,-12974641.795791,0.001238,-0.001254,-0.000244
1.480000,1.520000,0.480174,0.080000,172722.797080,25073628.545435,-24845330.160142,37040309.674706,0.000471,-0.000469,0.000698
1.560000,1.520000,0.480010,0.080000,27759.973249,-16761049.868155,18134143.156737,22434062.976089,-0.000324,0.000334,0.000423
1.640000,1.520000,0.480047,0.080000,-36607.536455,-15069583.589529,15457926.723134,-6074666.692851,-0.000286,0.000289,-0.000114
1.720000,1.520000,0.480187,0.080000,-14478.088545,1592330.659532,-2092608.699606,-8373402.880846,0.000033,-0.000037,-0.000158
1.800000,1.520000,0.480013,0.080000,5864.117415,3942335.611154,-4164255.768059,315053.055317,0.000076,-0.000077,0.000006
1.880000,1.520000,0.480040,0.080000,4890.338956,-53500.055213,187475.672754,1602182.173601,-0.000002,0.000003,0.000030
1.960000,1.520000,0.480201,0.080000,2207.394940,-475327.289035,517989.116741,-41483.383729,-0.000009,0.000010,-0.000001
2.040000,1.520000,0.460171,0.080000,2091.389423,-30024.146975,8642.371554,-393651.631508,-0.000000,0.000000,-0.000007
2.120000,1.520000,0.380207,0.080000,3108.854391,-1761644.161082,1858094.683913,-113435.528712,-0.000034,0.000034,-0.000002
-2.120000,1.600000,0.380012,0.080000,9195.943892,66747.379499,-71920.665007,400808.915322,0.000001,-0.000001,0.000008
-2.040000,1.600000,0.400021,0.080000,9156.328952,819913.354560,-803377.519031,448638.403192,0.000015,-0.000015,0.000008
-1.960000,1.600000,0.400241,0.080000,6962.361789,-2760443.386652,2834546.617104,1254914.703979,-0.000052,0.000053,0.000024
-1.880000,1.600000,0.400048,0.080000,20109.846779,-2012404.611756,2001039.447406,-8000811.809134,-0.000038,0.000038,-0.000151
-1.800000,1.600000,0.400016,0.080000,29421.084758,20923922.721144,-21497621.219000,-302334.819519,0.000397,-0.000402,-0.000006
-1.720000,1.600000,0.400225,0.080000,-63720.983874,-646289.543708,560582.895387,39138553.982273,-0.000012,0.000011,0.000737
-1.640000,1.600000,0.400056,0.080000,-114102.164454,-74259990.572251,75694668.878272,268848.663065,-0.001407,0.001418,0.000005
-1.560000,1.600000,0.400012,0.080000,218802.352766,-20473439.489075,21456060.633574,-111876784.260597,-0.000391,0.000399,-0.002108
-1.480000,1.600000,0.400209,0.080000,588891.089790,163511171.700676,-165596632.743885,-63778093.727975,0.003092,-0.003108,-0.001202
-1.400000,1.600000,0.400065,0.080000,47503.394649,163458259.733659,-166720599.680214,180589142.422991,0.003098,-0.003123,0.003402
-1.320000,1.600000,0.400009,0.080000,-1315037.330244,-147894168.020014,148270678.452563,279157266.154598,-0.002789,0.002791,0.005259
-1.240000,1.600000,0.400194,0.080000,-1766809.898743,-416767409.433075,421564497.140677,-10625556.439515,-0.007879,0.007915,-0.000200
-1.160000,1.600000,0.400073,0.080000,120337.364705,-240133203.875782,244390063.161483,-433762422.092414,-0.004548,0.004580,-0.008172
-1.080000,1.600000,0.400006,0.080000,3280828.127626,300750173.122125,-301921667.815137,-501884251.672388,0.005673,-0.005682,-0.009456
-1.000000,1.600000,0.400179,0.080000,4632982.203148,693709881.080928,-699707303.458333,-50413704.015252,0.013104,-0.013149,-0.000950
-0.920000,1.600000,0.400083,0.080000,1969932.527313,519204007.433343,-524810963.086799,571473103.464062,0.009814,-0.009856,0.010767
-0.840000,1.600000,0.400004,0.080000,-3651642.006817,-148105371.500871,147611091.880193,827641313.891218,-0.002788,0.002784,0.015593
-0.760000,1.600000,0.400165,0.080000,-8334705.995812,-811918049.419989,816904253.499319,464288481.843935,-0.015325,0.015363,0.008747
-0.680000,1.600000,0.400093,0.080000,-8211197.470243,-965328896.890153,972058571.695868,-295037301.428771,-0.018225,0.018276,-0.005559
-0.600000,1.600000,0.400002,0.080000,-2403304.291966,-467503335.304519,471326709.205059,-935530984.796026,-0.008830,0.008858,-0.017626
-0.520000,1.600000,0.400152,0.080000,6135434.304593,377722418.421991,-379149723.565156,-1023234985.611384,0.007125,-0.007135,-0.019278
-0.440000,1.600000,0.400104,0.080000,12396326.629280,1045443219.761526,-1050990913.827657,-484744515.872134,0.019728,-0.019770,-0.009133
-0.360000,1.600000,0.400001,0.080000,12417466.349497,1128222856.444149,-1134398345.561819,367029412.817326,0.021291,-0.021338,0.006915
-0.280000,1.600000,0.400139,0.080000,5710315.846518,571737699.671852,-574957856.623515,1039762323.688809,0.010790,-0.010814,0.019590
-0.200000,1.600000,0.400115,0.080000,-4403948.003125,-312287307.133456,313710044.241261,1153117298.298129,-0.005892,0.005902,0.021725
-0.120000,1.600000,0.400000,0.080000,-12643919.586676,-1036502485.177870,1041621444.381464,645574972.298020,-0.019557,0.019596,0.012163
-0.040000,1.600000,0.400126,0.080000,-14676926.669870,-1210360763.654163,1216278581.405782,-204413923.496989,-0.022837,0.022882,-0.003851
0.040000,1.600000,0.400126,0.080000,-9458240.563769,-746764832.756139,750243440.412587,-938767378.200015,-0.014089,0.014115,-0.017687
0.120000,1.600000,0.400000,0.080000,242564.431538,98626036.911123,-99464928.060912,-1168409369.006366,0.001863,-0.001869,-0.022014
0.200000,1.600000,0.400115,0.080000,9368656.180580,868801705.669605,-873493062.444434,-779901164.406185,0.016395,-0.016431,-0.014694
0.280000,1.600000,0.400139,0.080000,13309865.880744,1152081394.136615,-1158024184.181308,5225657.753105,0.021739,-0.021784,0.000098
0.360000,1.600000,0.400001,0.080000,10363906.293577,806556589.171636,-810362940.740141,750324736.154875,0.015218,-0.015246,0.014137
0.440000,1.600000,0.400104,0.080000,2581554.830010,42113756.590609,-41498175.163708,1044241831.702026,0.000790,-0.000785,0.019674
0.520000,1.600000,0.400152,0.080000,-5488951.586444,-692828920.406745,697595207.481887,736757367.919546,-0.013080,0.013116,0.013881
0.600000,1.600000,0.400002,0.080000,-9472827.000250,-970190692.148721,976196828.505422,33644064.621321,-0.018313,0.018358,0.000634
0.680000,1.600000,0.400093,0.080000,-7707090.801204,-645830633.492584,649151175.677615,-619436317.143436,-0.012187,0.012212,-0.011671
0.760000,1.600000,0.400165,0.080000,-2086008.877530,38447691.936270,-40133948.862205,-815441841.462478,0.000734,-0.000747,-0.015363
0.840000,1.600000,0.400004,0.080000,3371968.123684,605113683.683086,-610600822.927907,-461605696.840344,0.011432,-0.011473,-0.008697
0.920000,1.600000,0.400083,0.080000,5328920.430507,673848309.823540,-678916319.419370,145597792.434801,0.012724,-0.012763,0.002743
1.000000,1.600000,0.400179,0.080000,3343843.872366,251269051.776527,-251880951.891562,535529127.595741,0.004738,-0.004742,0.010090
1.080000,1.600000,0.400006,0.080000,-170153.592455,-268872364.774938,272933291.886980,439057742.218290,-0.005089,0.005119,0.008272
1.160000,1.600000,0.400073,0.080000,-2214316.729416,-444198097.216439,448828222.855656,17924657.624195,-0.008395,0.008430,0.000338
1.240000,1.600000,0.400194,0.080000,-1732817.404753,-191251662.937270,192016297.007368,-295090837.595313,-0.003608,0.003613,-0.005560
1.320000,1.600000,0.400009,0.080000,-97720.874648,150733860.609362,-153810867.459308,-236108765.995010,0.002857,-0.002880,-0.004448
1.400000,1.600000,0.400065,0.080000,772516.540136,215562680.080209,-218283491.399555,27736975.552380,0.004077,-0.004097,0.000523
1.480000,1.600000,0.400209,0.080000,447744.070235,28954819.413334,-28495073.966514,146426915.703547,0.000543,-0.000539,0.002759
1.560000,1.600000,0.400012,0.080000,-104967.656661,-96400782.692979,98257651.753334,45036859.756683,-0.001827,0.001841,0.000849
1.640000,1.600000,0.400056,0.080000,-173514.799739,-38430739.979301,38888921.947160,-50958433.384032,-0.000727,0.000730,-0.000960
1.720000,1.600000,0.400225,0.080000,-3358.009192,29859066.647682,-30597527.857951,-23537963.879801,0.000567,-0.000572,-0.000443
1.800000,1.600000,0.400016,0.080000,38173.915503,11922067.082996,-12238179.531732,14143994.207495,0.000226,-0.000229,0.000266
1.880000,1.600000,0.400048,0.080000,3538.962161,-7595331.401357,7811751.179393,4093470.879808,-0.000144,0.000146,0.000077
1.960000,1.600000,0.400241,0.080000,-1407.654864,-776835.509836,827974.901748,-2686960.829781,-0.000015,0.000015,-0.000051
2.040000,1.600000,0.400021,0.080000,2937.282559,860024.604636,-920591.015508,56297.480919,0.000017,-0.000017,0.000001
2.120000,1.600000,0.380012,0.080000,3339.153616,74167.080472,-120460.935140,498047.995992,0.000002,-0.000002,0.000009
-2.120000,1.680000,0.320052,0.080000,9509.418697,-2033915.403968,1698513.646420,96322.089276,-0.000036,0.000034,0.000002
-2.040000,1.680000,0.320026,0.080000,15108.496736,6112555.833819,-5518835.207096,-4807039.933078,0.000112,-0.000107,-0.000091
-1.960000,1.680000,0.320301,0.080000,-11674.595893,14211.047371,-498861.802895,22949335.207782,0.000003,-0.000007,0.000432
-1.880000,1.680000,0.320061,0.080000,-1380.209918,-51162091.394117,51022301.975505,-26248002.629333,-0.000963,0.000962,-0.000495
-1.800000,1.680000,0.320020,0.080000,204604.656529,88392637.731700,-87579015.695175,-79671349.355350,0.001661,-0.001655,-0.001501
-1.720000,1.680000,0.320281,0.080000,-81604.819865,108859714.663803,-108345992.537648,177466329.488073,0.002048,-0.002044,0.003344
-1.640000,1.680000,0.320070,0.080000,-771219.924869,-295429810.520486,293352829.845083,154740860.497318,-0.005554,0.005539,0.002915
-1.560000,1.680000,0.320015,0.080000,126479.291500,-254204339.536460,252327753.467744,-407587117.154468,-0.004779,0.004765,-0.007679
-1.480000,1.680000,0.320261,0.080000,2171954.908154,497515803.753102,-493908365.253689,-428697936.174271,0.009353,-0.009326,-0.008077
-1.400000,1.680000,0.320081,0.080000,1412494.142097,708228668.680383,-702871569.739898,465727873.307746,0.013313,-0.013273,0.008775
-1.320000,1.680000,0.320011,0.080000,-3081892.872713,-256264137.946111,254541802.837749,1002025244.444419,-0.004818,0.004805,0.018879
-1.240000,1.680000,0.320242,0.080000,-5947659.298170,-1233940439.852060,1224827221.720201,206119110.264024,-0.023197,0.023128,0.003883
-1.160000,1.680000,0.320092,0.080000,-1850735.515630,-871910874.337780,865271215.777260,-1135597131.273880,-0.016390,0.016340,-0.021395
-1.080000,1.680000,0.320007,0.080000,7052656.313612,622481248.625950,-618193604.114670,-1483095701.071954,0.011704,-0.011671,-0.027942
-1.000000,1.680000,0.320224,0.080000,12235209.585457,1771934514.324149,-1759107954.530637,-334412234.235547,0.033312,-0.033215,-0.006301
-0.920000,1.680000,0.320104,0.080000,7143288.607628,1425228049.485529,-1414709436.746898,1323464762.652093,0.026793,-0.026713,0.024935
-0.840000,1.680000,0.320004,0.080000,-6166873.433201,-200404626.079349,199301019.180482,2052611170.107504,-0.003770,0.003761,0.038672
-0.760000,1.680000,0.320206,0.080000,-18204347.220520,-1832630766.363223,1819762197.791307,1225038664.270342,-0.034455,0.034358,0.023080
-0.680000,1.680000,0.320116,0.080000,-19407193.417140,-2243857303.386765,2227898428.649001,-570004232.544077,-0.042185,0.042065,-0.010739
-0.600000,1.680000,0.320002,0.080000,-7359958.339955,-1135053803.976941,1126818851.916477,-2080204803.129488,-0.021339,0.021276,-0.039192
-0.520000,1.680000,0.320190,0.080000,11378823.087194,759075185.269024,-753991400.511512,-2307402567.679587,0.014273,-0.014234,-0.043473
-0.440000,1.680000,0.320129,0.080000,25567667.687567,2244087769.861334,-2228531461.800552,-1118917346.778031,0.042192,-0.042075,-0.021081
-0.360000,1.680000,0.320001,0.080000,26361667.356920,2434249662.820122,-2417288142.357676,754916327.177876,0.045767,-0.045639,0.014223
-0.280000,1.680000,0.320173,0.080000,12614099.021415,1239493670.278630,-1230806338.755152,2220810679.496373,0.023304,-0.023238,0.041841
-0.200000,1.680000,0.320143,0.080000,-8545887.870237,-646910183.331513,642502396.023810,2463493969.553553,-0.012163,0.012130,0.046414
-0.120000,1.680000,0.320000,0.080000,-25831914.476960,-2179229001.903381,2164193112.270774,1370816989.129009,-0.040973,0.040860,0.025827
-0.040000,1.680000,0.320158,0.080000,-30058050.002718,-2536988717.174450,2519485113.568192,-445774607.810873,-0.047699,0.047567,-0.008399
0.040000,1.680000,0.320158,0.080000,-19067805.479257,-1547445489.026837,1536817072.484065,-2004521679.107216,-0.029095,0.029015,-0.037766
0.120000,1.680000,0.320000,0.080000,1217122.253562,242983465.446940,-241199817.079683,-2478779212.453660,0.004568,-0.004554,-0.046702
0.200000,1.680000,0.320143,0.080000,20068961.699439,1866780839.077533,-1853769876.023118,-1628968874.464519,0.035098,-0.035000,-0.030691
0.280000,1.680000,0.320173,0.080000,27756446.502257,2449133916.410041,-2432156647.978460,70770788.913522,0.046047,-0.045919,0.001333
0.360000,1.680000,0.320001,0.080000,20785796.174746,1681608706.106085,-1670065828.098699,1678946273.721682,0.031617,-0.031530,0.031632
0.440000,1.680000,0.320129,0.080000,3736510.264124,8607295.102167,-8789844.634927,2294774653.375897,0.000163,-0.000165,0.043235
0.520000,1.680000,0.320190,0.080000,-13412081.772767,-1595190039.209013,1583819824.132315,1574281774.208742,-0.029990,0.029904,0.029660
0.600000,1.680000,0.320002,0.080000,-21106246.700677,-2174321026.379082,2159013257.780814,-35493681.266415,-0.040879,0.040764,-0.000669
0.680000,1.680000,0.320116,0.080000,-15893971.852605,-1386441926.378586,1376851539.903918,-1521798602.696103,-0.026067,0.025995,-0.028672
0.760000,1.680000,0.320206,0.080000,-2423148.789223,227899431.582875,-225966448.920514,-1923891927.866425,0.004283,-0.004268,-0.036247
0.840000,1.680000,0.320004,0.080000,9792759.605584,1544276650.597024,-1533035460.947799,-999971033.688160,0.029032,-0.028947,-0.018840
0.920000,1.680000,0.320104,0.080000,13008335.624972,1626997986.149913,-1615351762.778723,531771087.194200,0.030588,-0.030500,0.010019
1.000000,1.680000,0.320224,0.080000,6698686.466151,479166816.932521,-475956434.107444,1468398654.656677,0.009010,-0.008985,0.027665
1.080000,1.680000,0.320007,0.080000,-2512404.682689,-876306835.698686,869689142.628257,1089625541.561990,-0.016473,0.016423,0.020529
1.160000,1.680000,0.320092,0.080000,-6801240.638302,-1238036850.782375,1228944769.456469,-150982626.771573,-0.023274,0.023205,-0.002845
1.240000,1.680000,0.320242,0.080000,-4018466.139107,-387560600.520432,384873780.744249,-986957545.893416,-0.007287,0.007266,-0.018595
1.320000,1.680000,0.320011,0.080000,1110279.385080,629514049.670505,-624710745.750850,-637352535.741289,0.011833,-0.011797,-0.012008
1.400000,1.680000,0.320081,0.080000,2869958.176267,673399609.336765,-668433872.913988,285739147.497978,0.012659,-0.012622,0.005383
1.480000,1.680000,0.320261,0.080000,867806.757242,-69982737.176333,69371077.402058,557390356.359486,-0.001315,0.001310,0.010502
1.560000,1.680000,0.320015,0.080000,-942984.930350,-421634026.253477,418552973.757622,29538360.470558,-0.007926,0.007903,0.000557
1.640000,1.680000,0.320070,0.080000,-549900.473267,-48266908.535602,47898033.115452,-285078396.219254,-0.000907,0.000905,-0.005371
1.720000,1.680000,0.320281,0.080000,245633.081710,185723236.277775,-184517713.531621,-25344015.452869,0.003492,-0.003483,-0.000477
1.800000,1.680000,0.320020,0.080000,138636.411669,-1276105.716442,1561596.078509,106574985.494334,-0.000026,0.000028,0.002008
1.880000,1.680000,0.320061,0.080000,-59781.319979,-51578995.152236,51063821.473335,-17359339.763120,-0.000969,0.000965,-0.000327
1.960000,1.680000,0.320301,0.080000,-3822.660179,15750616.275133,-15471330.231127,-15243455.771293,0.000295,-0.000293,-0.000287
2.040000,1.680000,0.320026,0.080000,9136.291913,1297544.473281,-1017182.500570,7108347.002590,0.000023,-0.000021,0.000134
2.120000,1.680000,0.320052,0.080000,2090.786849,-1452874.360300,1299384.810184,-1143497.554913,-0.000027,0.000025,-0.000022
-2.500000,-1.980000,0.005075,0.040000,-11282.602205,-403551556.752052,-33586890.824895,-81362751.521974,-0.005132,0.001838,-0.001533
-2.420000,-1.980000,0.020652,0.040000,-8649.859739,-142095777.761508,-172289132.630630,-113454201.406521,-0.000900,-0.001469,-0.002138
-2.460000,-1.980000,0.020594,0.040000,11570.845423,-101421928.818520,6544849.226705,-20758158.603974,-0.001375,0.000660,-0.000391
-2.340000,-1.980000,0.020538,0.040000,-2314024.913513,1431316623.459091,4640909440.291504,2597004021.675916,-0.007354,0.053116,0.048929
-2.380000,-1.980000,0.024839,0.040000,399559.660420,119183543.804798,-243992942.016946,-217582636.936017,0.002951,-0.003892,-0.004099
-2.260000,-1.980000,0.024698,0.040000,54972171.949265,19473741834.515972,-21588912484.370590,-8073632459.752490,0.378852,-0.394792,-0.152112
-2.300000,-1.980000,0.020713,0.040000,-2524521.544930,-4499481851.891383,-4805449125.672754,-775250499.734732,-0.032180,-0.037944,-0.014606
-2.180000,-1.980000,0.020777,0.040000,37788740.937872,5364370289.784997,-25281974825.875488,6592299989.764860,0.213646,-0.363749,0.124203
-2.220000,-1.980000,0.020485,0.040000,-112050157.646349,-36427056767.162491,48852046679.576553,2876304779.806949,-0.756535,0.850173,0.054191
-2.100000,-1.980000,0.020435,0.040000,-183658057.360832,-50457919046.362831,87333382637.812973,-1369253149.617402,-1.159083,1.436985,-0.025798
-2.140000,-1.980000,0.024558,0.040000,94484893.910282,27879338391.127708,-48905776914.785782,-13355685982.744011,0.644108,-0.802568,-0.251629
-2.020000,-1.980000,0.024420,0.040000,208970734.454639,46781472544.543465,-105386526029.069687,2109743023.828080,1.212636,-1.654297,0.039749
-2.060000,-1.980000,0.020843,0.040000,-9925592.938901,-3583939539.185159,13132360521.763954,28669703434.735779,-0.121493,0.193452,0.540154
-1.940000,-1.980000,0.020912,0.040000,-222349402.962339,-45366093036.254303,99239373859.462173,-17248422230.580688,-1.159225,1.565226,-0.324970
-1.980000,-1.980000,0.020387,0.040000,19551087.527365,4153399215.223435,-20913498388.168755,-39643725579.022247,0.172983,-0.299291,-0.746911
-1.860000,-1.980000,0.020342,0.040000,134225752.880645,24068336304.294727,-47711429567.878212,45299822754.164276,0.587096,-0.765276,0.853475
-1.900000,-1.980000,0.024283,0.040000,-141348280.078075,-28835120629.021847,69392709152.690552,36618355992.218994,-0.772509,1.078160,0.689911
-1.780000,-1.980000,0.024148,0.040000,117568552.556923,22505379014.008217,-48427402678.119278,-45194396073.486412,0.570530,-0.765885,-0.851489
-1.820000,-1.980000,0.020983,0.040000,261647075.292185,47733338804.962059,-101342153847.048355,347014823.951946,1.202330,-1.606339,0.006538
-1.700000,-1.980000,0.021057,0.040000,-284371086.079438,-45377126251.922699,89092829354.280624,-10222551684.689545,-1.102020,1.431472,-0.192599
-1.740000,-1.980000,0.020299,0.040000,-141193985.130961,-21707332699.487152,42469611806.352402,-47658561513.977554,-0.526331,0.682800,-0.897915
-1.620000,-1.980000,0.020260,0.040000,10907510.473512,-749062969.618988,1211400780.533130,51139667358.558907,-0.016726,0.020210,0.963501
-1.660000,-1.980000,0.024015,0.040000,-211340161.512473,-34236114353.003994,65599631313.098274,32988208387.507740,-0.822300,1.058663,0.621517
-1.540000,-1.980000,0.023883,0.040000,314818576.888937,42866218621.464096,-76530651438.870056,2058302375.403226,0.997902,-1.251605,0.038780
-1.580000,-1.980000,0.021133,0.040000,227755009.817389,30458291465.414417,-56287438035.438660,36420415374.450981,0.719843,-0.914497,0.686182
-1.460000,-1.980000,0.021211,0.040000,33612663.096132,6770914325.956656,-10345641697.503897,-46969065532.204437,0.147773,-0.174713,-0.884924
-1.500000,-1.980000,0.020223,0.040000,232094950.889091,31898192738.535461,-55268985253.350433,-31065765321.121582,0.733076,-0.909204,-0.585297
-1.380000,-1.980000,0.020189,0.040000,-323671626.040727,-36844778326.881424,61409515244.081902,-17503787966.704182,-0.833021,1.018147,-0.329782
-1.420000,-1.980000,0.023753,0.040000,-184460511.936829,-20423770269.375187,35254257887.424004,-40593812153.123970,-0.468620,0.580386,-0.764811
-1.300000,-1.980000,0.023625,0.040000,-217288375.892147,-24663966569.729229,38697462056.820946,32795093232.582901,-0.544003,0.649763,0.617879
-1.340000,-1.980000,0.021292,0.040000,-333399252.743333,-37758380175.322632,61135483487.071541,10755740568.052526,-0.843521,1.019696,0.202644
-1.220000,-1.980000,0.021376,0.040000,175872410.537118,15703113460.896215,-25495369886.302109,37144081359.629158,0.351203,-0.425000,0.699816
-1.260000,-1.980000,0.020158,0.040000,-24770769.597097,-4271386395.140998,5758968367.925327,41935262267.701279,-0.088883,0.100094,0.790085
-1.140000,-1.980000,0.020129,0.040000,377884287.845148,34963410307.732376,-53367641977.731644,664242123.881994,0.762755,-0.901453,0.012515
-1.180000,-1.980000,0.023498,0.040000,324742105.690697,30277201595.548782,-47105624868.646919,21541898605.198025,0.665557,-0.792380,0.405862
-1.060000,-1.980000,0.023373,0.040000,185856722.994260,17150567936.704466,-24821884392.375145,-32440686449.202656,0.366486,-0.424299,-0.611201
-1.100000,-1.980000,0.021462,0.040000,325759057.185882,29966625669.203159,-44672733958.999191,-19089068765.881458,0.647710,-0.758539,-0.359649
-0.980000,-1.980000,0.021550,0.040000,-186285243.374065,-13760455108.735216,20883275206.229420,-32595974322.235523,-0.299514,0.353194,-0.614127
-1.020000,-1.980000,0.020103,0.040000,-358277.480778,1215737630.589408,-993084891.347844,-36881615912.742393,0.021647,-0.019969,-0.694871
-0.900000,-1.980000,0.020081,0.040000,-404535984.274761,-30739660027.219440,44526576839.303070,-5979033819.359087,-0.657079,0.760980,-0.112648
-0.940000,-1.980000,0.023250,0.040000,-332103318.494634,-25454257224.146313,37360594452.071770,-21341755921.615505,-0.546870,0.636599,-0.402091
-0.820000,-1.980000,0.023129,0.040000,-298627009.308677,-22159275164.506519,31058859270.839161,22634904834.368031,-0.467796,0.534865,0.426455
-0.860000,-1.980000,0.021640,0.040000,-391683645.712409,-29453609922.635445,41958037892.167984,9807675625.606388,-0.625600,0.719837,0.184782
-0.740000,-1.980000,0.021732,0.040000,30709295.139159,1019232743.119983,-1965530268.380379,32482748094.280941,0.024552,-0.031683,0.611994
-0.780000,-1.980000,0.020061,0.040000,-147831974.959940,-11237858465.090593,15393236524.003523,30467388043.573765,-0.235215,0.266531,0.574023
-0.660000,-1.980000,0.020043,0.040000,344585955.963048,22239452928.831810,-31275184251.085934,19718663760.681618,0.470076,-0.538171,0.371511
-0.700000,-1.980000,0.023010,0.040000,206305707.441732,13248437400.304676,-18921975482.338661,28577354228.171745,0.281676,-0.324433,0.538414
-0.580000,-1.980000,0.022892,0.040000,432659592.000805,27440413691.162151,-37717141285.456490,-4502974746.476072,0.575079,-0.652527,-0.084839
-0.620000,-1.980000,0.021827,0.040000,423678432.968215,27076041621.585835,-37567915001.225403,7967923500.473007,0.569430,-0.648499,0.150120
-0.500000,-1.980000,0.021924,0.040000,250927973.424385,16012187891.224897,-21649780150.716579,-24579142576.623837,0.333544,-0.376030,-0.463085
-0.540000,-1.980000,0.020029,0.040000,371341798.363242,23423914106.657738,-32057564286.146538,-15907057281.205074,0.490119,-0.555184,-0.299698
-0.420000,-1.980000,0.020018,0.040000,-84863001.802996,-4522301595.122283,6398657480.555448,-29061044923.049515,-0.095808,0.109949,-0.547527
-0.460000,-1.980000,0.022777,0.040000,89354415.927144,5805684844.878547,-7637297934.642348,-29107177545.757427,0.119735,-0.133539,-0.548396
-0.340000,-1.980000,0.022663,0.040000,-374382837.535088,-21497763205.379490,29161128111.415031,-17233391561.202023,-0.448345,0.506098,-0.324687
-0.380000,-1.980000,0.022024,0.040000,-246663146.764958,-13846730549.502718,18932768573.627121,-24897212406.482334,-0.289628,0.327957,-0.469078
-0.260000,-1.980000,0.022125,0.040000,-456164126.619875,-26051435012.628159,35077782956.430763,3887099033.518206,-0.541843,0.609867,0.073235
-0.300000,-1.980000,0.020009,0.040000,-447234115.721083,-25590758551.902176,34673599688.711296,-7085326559.858318,-0.533483,0.601933,-0.133492
-0.180000,-1.980000,0.020003,0.040000,-288451721.955604,-16544169346.548878,22258769316.772247,22201145366.429768,-0.344002,0.387068,0.418282
-0.220000,-1.980000,0.022551,0.040000,-400150672.888290,-22744531087.841278,30537024379.275356,14036182922.860586,-0.472565,0.531291,0.264450
-0.100000,-1.980000,0.022442,0.040000,37915456.334327,1865195220.966347,-2492430822.073024,28713100004.961201,0.038687,-0.043414,0.540971
-0.140000,-1.980000,0.022228,0.040000,-136034420.715543,-8183393438.712769,10981225249.602695,27398484525.233372,-0.169994,0.191079,0.516203
-0.020000,-1.980000,0.022334,0.040000,346741697.303723,18828703334.564426,-25160223242.590557,19908328883.208740,0.390531,-0.438246,0.375084
-0.060000,-1.980000,0.020000,0.040000,205953430.251214,11082898692.232635,-14855137693.172838,26008724653.512440,0.230130,-0.258558,0.490019
0.060000,-1.980000,0.020000,0.040000,476925969.235344,26494410041.214664,-35622893181.903046,537269380.458492,0.550766,-0.619560,0.010122
0.020000,-1.980000,0.022334,0.040000,442182140.873488,24435810164.926704,-32699923574.215473,11095207790.259207,0.507095,-0.569375,0.209040
0.140000,-1.980000,0.022228,0.040000,353257336.136702,19820181974.720909,-26734650059.514008,-19561757475.645844,0.412505,-0.464615,-0.368555
0.100000,-1.980000,0.022442,0.040000,446327816.171305,25012360592.473949,-33604313578.414841,-10211945748.917055,0.519811,-0.584562,-0.192399
0.220000,-1.980000,0.022551,0.040000,39222612.402688,2662993178.950290,-3873266421.577935,-29873925490.999538,0.057013,-0.066134,-0.562842
0.180000,-1.980000,0.020003,0.040000,211699663.285848,12179841845.546663,-16639971185.805693,-26417482635.979229,0.254685,-0.288297,-0.497721
0.300000,-1.980000,0.020009,0.040000,-302824029.294596,-17219445704.426105,23039643525.260197,-23971798894.890980,-0.357321,0.401183,-0.451643
0.260000,-1.980000,0.022125,0.040000,-142068853.776165,-8037897304.759373,10538594788.067892,-29069087956.834595,-0.165573,0.184419,-0.547678
0.380000,-1.980000,0.022024,0.040000,-480926781.103432,-28242834694.132339,38250400295.942528,-4323510852.116818,-0.588676,0.664095,-0.081457
0.340000,-1.980000,0.022663,0.040000,-421647032.490327,-24283523435.203835,32640500066.197113,-15400598116.246279,-0.504751,0.567731,-0.290156
0.460000,-1.980000,0.022777,0.040000,-386481690.326035,-23439644280.976376,32267831246.877750,19535139181.837257,-0.491515,0.558046,0.368053
0.420000,-1.980000,0.020018,0.040000,-469183494.130960,-27966380631.260090,38270277700.032059,7968807997.136158,-0.585142,0.662795,0.150137
0.540000,-1.980000,0.020029,0.040000,-61179619.148251,-3812868629.690749,5845269815.831545,33059349594.074600,-0.083324,0.098641,0.622857
0.500000,-1.980000,0.021924,0.040000,-242576011.598121,-14679745221.743690,20567537610.597549,28349612107.834095,-0.309854,0.354226,0.534123
0.620000,-1.980000,0.021827,0.040000,307309470.239180,20221541499.823845,-27494372683.297821,26798401672.608765,0.422093,-0.476903,0.504897
0.580000,-1.980000,0.022892,0.040000,132240534.080169,8350395435.018740,-10894542907.490232,32753003001.479118,0.171706,-0.190880,0.617086
0.700000,-1.980000,0.023010,0.040000,479781382.955979,32453863757.661907,-45358289127.304504,1336232204.183840,0.684388,-0.781638,0.025175
0.660000,-1.980000,0.020043,0.040000,430249339.726223,28574923391.675026,-39571712756.533714,15716940350.357033,0.600524,-0.683398,0.296116
0.780000,-1.980000,0.020061,0.040000,326256522.473373,22903700649.619827,-33174039127.262264,-27825106532.136841,0.489569,-0.566968,-0.524241
0.740000,-1.980000,0.021732,0.040000,443812532.663218,30515301169.610004,-43281880846.794273,-14025281283.438440,0.647085,-0.743297,-0.264244
0.860000,-1.980000,0.021640,0.040000,-68781230.389908,-6059263313.591934,7686853433.897473,-39118558965.159172,-0.123359,0.135625,-0.737016
0.820000,-1.980000,0.023129,0.040000,144629353.366720,10145851682.983437,-15344372616.143637,-37092934110.581108,0.220537,-0.259714,-0.698852
0.940000,-1.980000,0.023250,0.040000,-410386238.960458,-32952573420.008644,47495183341.606491,-18926908486.095863,-0.703043,0.812639,-0.356594
0.900000,-1.980000,0.020081,0.040000,-267181287.250430,-21187689086.611317,29868322682.819077,-32816192120.783287,-0.448253,0.513672,-0.618276
1.020000,-1.980000,0.020103,0.040000,-407696194.233358,-34129438758.284748,51368874486.962540,21392853961.802006,-0.740459,0.870379,0.403054
0.980000,-1.980000,0.021550,0.040000,-463234022.984306,-38023704766.587234,55939685622.713295,416622561.507440,-0.817653,0.952672,0.007849
1.100000,-1.980000,0.021462,0.040000,-27099774.663856,-872656136.533111,2757924371.349090,46356131760.626167,-0.027097,0.041305,0.873376
1.060000,-1.980000,0.023373,0.040000,-250995621.178355,-21098098214.317352,32682875446.944794,38528686755.935081,-0.462980,0.550285,0.725903
1.180000,-1.980000,0.023498,0.040000,376863583.846752,37425351686.622162,-57261543510.218651,24146205453.881756,0.817233,-0.966723,0.454929
1.140000,-1.980000,0.020129,0.040000,202763077.004132,20231898626.948223,-29847874105.961769,41595246528.827843,0.435532,-0.508000,0.783679
1.260000,-1.980000,0.020158,0.040000,359108163.114357,36799461552.702385,-59611543138.382767,-31017685356.701809,0.822261,-0.994178,-0.584391
1.220000,-1.980000,0.021376,0.040000,438252069.353203,44289074787.742233,-69654193193.179932,-2544193037.416689,0.977800,-1.168957,-0.047934
1.340000,-1.980000,0.021292,0.040000,-105632669.828514,-14362548382.198578,21842848406.027634,-52633043934.943939,-0.312879,0.369252,-0.991637
1.300000,-1.980000,0.023625,0.040000,156201467.930774,15303789343.514330,-26199269219.576756,-50855677474.689148,0.349915,-0.432026,-0.958150
1.420000,-1.980000,0.023753,0.040000,-409778403.728924,-50362157568.875343,85604574408.117203,2767856340.013497,-1.148049,1.413644,0.052148
1.380000,-1.980000,0.020189,0.040000,-324367019.497396,-39680054628.204330,65451956626.010490,-32898475456.212730,-0.893263,1.087486,-0.619826
1.500000,-1.980000,0.020223,0.040000,-66774044.929691,-6472737726.361863,12657602976.811172,60726460626.199852,-0.156908,0.203519,1.144122
1.460000,-1.980000,0.021211,0.040000,-312254360.914509,-38196437448.583794,67352035997.859581,40172443589.726578,-0.884436,1.104159,0.756872
1.580000,-1.980000,0.021133,0.040000,375698222.549867,55151216888.604744,-101588148936.085388,8615035082.165709,1.301551,-1.651510,0.162312
1.540000,-1.980000,0.023883,0.040000,214636513.426652,32062310745.834148,-56949720385.891602,49997985720.449722,0.744740,-0.932298,0.941991
1.660000,-1.980000,0.024015,0.040000,34077054.862607,2378319264.790822,-4704797364.836452,-66547312524.836395,0.057959,-0.075491,-1.253790
1.620000,-1.980000,0.020260,0.040000,306815535.765906,44795321408.872055,-84950892967.663208,-41781486973.805992,1.070936,-1.373558,-0.787187
1.740000,-1.980000,0.020299,0.040000,-344280041.755711,-58278915939.830803,118566710138.151398,18860587175.404316,-1.438766,1.893108,0.355344
1.700000,-1.980000,0.021057,0.040000,-261925968.317647,-45351478729.832787,90031283107.036407,-41971831045.783089,-1.106986,1.443704,-0.790774
1.820000,-1.980000,0.020983,0.040000,213019809.155096,41829221395.333855,-91768040528.918488,46537819550.341545,1.070350,-1.446700,0.876799
1.780000,-1.980000,0.024148,0.040000,-123826052.570784,-19245925141.969025,38099525600.257965,64597433668.851234,-0.469168,0.611253,1.217053
1.900000,-1.980000,0.024283,0.040000,33512908.045787,4904575491.155522,-3071778123.635280,-61244837751.643646,0.082046,-0.068233,-1.153888
1.860000,-1.980000,0.020342,0.040000,310504850.390003,59372317525.100418,-128037576090.008667,-22177602373.135620,1.506717,-2.024194,-0.417839
1.980000,-1.980000,0.020387,0.040000,-152389647.683341,-34110019659.093441,61688051815.936234,43832558400.100159,-0.798528,1.006363,0.825831
1.940000,-1.980000,0.020912,0.040000,-275468450.922929,-58698850128.070450,133557216584.434067,-17020264389.082623,-1.529033,2.093183,-0.320672
2.060000,-1.980000,0.020843,0.040000,122389529.426944,29715709785.598675,-53201549240.907669,-27723368267.494232,0.692607,-0.869602,-0.522324
2.020000,-1.980000,0.024420,0.040000,213582195.874471,48789471663.768051,-116343296292.773361,23304829480.106232,1.301048,-1.810149,0.439076
2.140000,-1.980000,0.024558,0.040000,36031117.929052,12513207799.243294,-19636699913.511105,14333828808.529188,0.276019,-0.329704,0.270058
2.100000,-1.980000,0.020435,0.040000,-222623323.915097,-62519945634.101517,109703622093.570831,-11344462710.986443,-1.444602,1.800189,-0.213736
2.220000,-1.980000,0.020485,0.040000,-157809838.746688,-54775573564.432487,63379002931.607056,-5299241180.496749,-1.080632,1.145469,-0.099841
2.180000,-1.980000,0.020777,0.040000,108503193.945747,28576332639.990952,-56546628144.987633,-3334874698.305774,0.696488,-0.907278,-0.062831
2.300000,-1.980000,0.020713,0.040000,-4300936.098700,-6759580343.673304,-6853757683.935027,2130154115.758304,-0.050409,-0.052184,0.040133
2.260000,-1.980000,0.024698,0.040000,66714572.904820,25597111474.728184,-22778666665.659412,8566348917.251662,0.466334,-0.445094,0.161395
2.380000,-1.980000,0.024839,0.040000,320784.070169,56213599.355891,-270729504.168146,250408807.755220,0.002272,-0.003888,0.004718
2.340000,-1.980000,0.020538,0.040000,-1858580.931787,1979551961.703749,5096876121.908026,-3005871669.927008,-0.002701,0.056031,-0.056632
2.460000,-1.980000,0.020594,0.040000,5586.486458,139089486.251450,30418230.902957,-67834745.447645,0.001662,-0.000385,-0.001278
2.420000,-1.980000,0.020652,0.040000,-10518.706950,-88247746.716228,-144353593.547911,82027745.455180,-0.000348,-0.001405,0.001545
2.500000,-1.980000,0.005075,0.040000,5320.333410,-8615452.522631,37901226.832086,-48864261.227892,-0.000328,0.000549,-0.000921
-2.500000,-1.940000,0.014627,0.040000,63524.970241,390880106.530470,184837053.633805,-126309671.629785,0.004110,0.000228,-0.002380
-2.500000,-1.900000,0.004478,0.040000,-602045.715059,7968085571.335803,4541974223.255466,5508425439.637891,0.079414,0.014864,0.103782
-2.460000,-1.940000,0.042590,0.040000,10556.581532,-194722111.645865,-91799885.375203,-222073655.466725,-0.002049,-0.000110,-0.004184
-2.420000,-1.940000,0.060221,0.040000,11862.705977,-26862661.406880,-101296322.720197,-118323177.233767,0.000218,-0.001184,-0.002229
-2.420000,-1.900000,0.080125,0.040000,10480.214912,486170559.531023,204971639.110886,695439159.126334,0.005253,-0.000045,0.013102
-2.460000,-1.900000,0.040250,0.040000,28362.643812,3663129177.770802,985532481.452298,3595311318.562613,0.042740,-0.007707,0.067738
-2.380000,-1.940000,0.061782,0.040000,-1329.347028,-181880509.470648,-133020133.844456,-215853599.113214,-0.001647,-0.000726,-0.004067
-2.340000,-1.940000,0.060182,0.040000,152028.998432,-5160515.304870,1843846197.838311,1659010038.060916,-0.010490,0.024347,0.031257
-2.340000,-1.900000,0.100109,0.040000,6911.642996,-32762231.040910,341946767.267378,348098495.454315,-0.002365,0.004695,0.006558
-2.380000,-1.900000,0.101079,0.040000,11800.414554,-56798494.950234,-37094581.692466,-80837690.828194,-0.000539,-0.000168,-0.001523
-2.300000,-1.940000,0.060242,0.040000,-910665.807691,3938317218.144515,-2942549270.138406,-464916626.348484,0.068572,-0.061068,-0.008759
-2.260000,-1.940000,0.061725,0.040000,3582381.068540,-3049509694.425917,-2935692289.718485,-4940357654.169650,-0.023625,-0.021481,-0.093079
-2.260000,-1.900000,0.101044,0.040000,90124.859048,-692244832.512911,-462694806.941810,-2307555791.884660,-0.006514,-0.002190,-0.043476
-2.300000,-1.900000,0.100145,0.040000,20249.084015,1306672724.344123,-743788988.859552,491175125.745767,0.021437,-0.017195,0.009254
-2.220000,-1.940000,0.060163,0.040000,-8067530.684089,-6044739989.750071,11491854503.578495,2250896739.896938,-0.144674,0.185725,0.042408
-2.180000,-1.940000,0.060263,0.040000,8101009.420547,108321244.012737,-9968759331.208586,3942140360.206604,0.057774,-0.132084,0.074272
-2.180000,-1.900000,0.100158,0.040000,1481996.234581,1185534114.289602,-2925156698.373436,2983926409.827762,0.032169,-0.045279,0.056219
-2.220000,-1.900000,0.100098,0.040000,-591517.202835,-2948196158.430738,3050805616.217206,643752717.175118,-0.056126,0.056899,0.012129
-2.140000,-1.940000,0.061669,0.040000,8276228.339914,-3096715670.261624,-12261504381.555235,-9284486094.287575,0.028463,-0.144207,-0.174925
-2.100000,-1.940000,0.060146,0.040000,-29244006.460890,-8932299433.209808,29464505837.935070,-506433284.985065,-0.284341,0.439077,-0.009541
-2.100000,-1.900000,0.100088,0.040000,-4654934.791456,-6795031098.113496,9157180582.188614,-612792105.021146,-0.141374,0.159175,-0.011545
-2.140000,-1.900000,0.101010,0.040000,-170178.526891,39291192.033911,-2288715538.207798,-5480011790.405532,0.013454,-0.030407,-0.103247
-2.060000,-1.940000,0.060286,0.040000,4407959.956795,-87712249.334104,3587562823.352673,19858430812.610714,-0.021434,0.047810,0.374144
-2.020000,-1.940000,0.061614,0.040000,45763621.381660,13859158893.281208,-42204970324.291199,893887307.827239,0.421330,-0.634951,0.016841
-2.020000,-1.900000,0.100977,0.040000,9648104.532715,10677246414.372026,-14177687581.652805,-276957008.120142,0.220951,-0.247331,-0.005218
-2.060000,-1.900000,0.100172,0.040000,2997302.600014,293349496.291853,-127428204.309622,11020361945.777365,0.004589,-0.003339,0.207630
-1.980000,-1.940000,0.060130,0.040000,-383124.058426,1339315148.671636,-8370168414.179465,-28357682059.316952,0.064973,-0.117959,-0.534275
-1.940000,-1.940000,0.060310,0.040000,-62178771.676835,-20473961223.983929,44340317991.149727,-12013943203.644585,-0.520638,0.700500,-0.226350
-1.940000,-1.900000,0.100186,0.040000,-17681081.210297,-14444762887.869976,17160513797.637280,-5741388982.355986,-0.287498,0.307964,-0.108171
-1.980000,-1.900000,0.100078,0.040000,-3021235.924952,935979788.412030,-1826103237.558696,-15418637703.860500,0.022666,-0.029374,-0.290496
-1.900000,-1.940000,0.061560,0.040000,-37593210.337056,-15038850208.161129,32148122906.774796,26845996667.127377,-0.380045,0.508985,0.505794
-1.860000,-1.940000,0.060115,0.040000,47494448.927923,12712255903.924980,-22844879440.511742,33060989378.253857,0.296778,-0.373139,0.622888
-1.860000,-1.900000,0.100069,0.040000,18419379.382658,9068374421.518507,-10140103225.333382,17940926130.290070,0.176911,-0.184988,0.338017
-1.900000,-1.900000,0.100944,0.040000,-8173147.959317,-10220418364.428438,12211364191.303667,15102630650.804478,-0.203812,0.218816,0.284542
-1.820000,-1.940000,0.060335,0.040000,89347111.446273,28392509221.657116,-50529262454.856651,-29551492.737556,0.660052,-0.826880,-0.000557
-1.780000,-1.940000,0.061507,0.040000,38049891.513617,14779092031.660168,-25270527511.940395,-33893314473.468605,0.337746,-0.416812,-0.638570
-1.780000,-1.900000,0.100912,0.040000,10070238.440746,10010071819.412622,-11196277432.619467,-19627769667.523373,0.195300,-0.204240,-0.369799
-1.820000,-1.900000,0.100201,0.040000,30276793.719220,19658870064.467522,-22095994329.928734,-625386301.350887,0.384160,-0.402526,-0.011783
-1.740000,-1.940000,0.060100,0.040000,-58974919.950292,-13427393063.029655,21971143109.379654,-35879568809.333008,-0.301271,0.365658,-0.675992
-1.700000,-1.940000,0.060360,0.040000,-115895659.570017,-30593008519.493011,48364002114.637924,-7667210598.145242,-0.676835,0.810761,-0.144455
-1.700000,-1.900000,0.100217,0.040000,-47393530.582265,-21705043472.325127,23634362422.458153,-4202915574.913793,-0.419840,0.434380,-0.079185
-1.740000,-1.900000,0.100060,0.040000,-26493097.303005,-9687161528.777679,10587635687.646509,-20687208064.370571,-0.187601,0.194388,-0.389759
-1.660000,-1.940000,0.061455,0.040000,-85854340.965868,-24271502795.530697,37001789443.194382,25390648163.991272,-0.529243,0.625181,0.478375
-1.620000,-1.940000,0.060087,0.040000,10099597.638341,-1293907029.577075,1422319574.432419,39602520618.192299,-0.025104,0.026072,0.746134
-1.620000,-1.900000,0.100052,0.040000,9192999.720308,-718868680.932246,743570713.508598,24284457585.879150,-0.013684,0.013870,0.457533
-1.660000,-1.900000,0.100880,0.040000,-33074030.166305,-17191705277.880325,18596293615.831425,15518848920.041677,-0.331841,0.342426,0.292384
-1.580000,-1.940000,0.060387,0.040000,108252230.155014,21860603000.034229,-32431431503.907223,28400098282.342484,0.471615,-0.551279,0.535074
-1.540000,-1.940000,0.061404,0.040000,148743484.830910,31746515118.321552,-45423270394.531746,1593132987.968104,0.675426,-0.778497,0.030016
-1.540000,-1.900000,0.100848,0.040000,70045740.577971,23267670732.367580,-24744983984.075676,865035345.677351,0.446726,-0.457860,0.016298
-1.580000,-1.900000,0.100233,0.040000,52654511.087261,16057174752.986326,-17203268856.410423,17568467549.968044,0.309004,-0.317642,0.331000
-1.500000,-1.940000,0.060075,0.040000,109206218.490993,24521903556.322540,-33809629053.791203,-24580711906.136787,0.514503,-0.584497,-0.463115
-1.460000,-1.940000,0.060415,0.040000,10705125.168487,5523095297.146987,-6764689599.015112,-37354891140.459633,0.111076,-0.120433,-0.703788
-1.460000,-1.900000,0.100249,0.040000,422911.989526,3898439825.262077,-3998842404.841387,-24234387419.361683,0.074016,-0.074773,-0.456590
-1.500000,-1.900000,0.100045,0.040000,49715007.742280,17942498243.563992,-18906851322.993431,-15828398624.656441,0.343498,-0.350765,-0.298216
-1.420000,-1.940000,0.061353,0.040000,-99148368.546550,-15335030267.996904,21351514347.089779,-32479588246.330727,-0.322927,0.368269,-0.611934
-1.380000,-1.940000,0.060063,0.040000,-171603495.400866,-28718297267.571846,38460657566.620811,-14153625719.864525,-0.596135,0.669556,-0.266663
-1.380000,-1.900000,0.100038,0.040000,-91835211.390075,-21580088843.551064,22569668543.492729,-9418073869.051685,-0.412175,0.419632,-0.177442
-1.420000,-1.900000,0.100818,0.040000,-55051186.274281,-11552285870.651031,12193353218.757828,-21301094097.389729,-0.221275,0.226106,-0.401325
-1.340000,-1.940000,0.060443,0.040000,-177379364.751046,-29944962536.971508,39261756814.608757,8579979625.292362,-0.616841,0.687054,0.161652
-1.300000,-1.940000,0.061304,0.040000,-115340464.826873,-20020075897.640736,25712888122.420116,26596281177.656120,-0.409367,0.452269,0.501089
-1.300000,-1.900000,0.100788,0.040000,-59339826.803393,-15286231717.658230,15870970935.564631,18011605190.958794,-0.291307,0.295713,0.339349
-1.340000,-1.900000,0.100266,0.040000,-93847151.859557,-22647029067.396519,23592050391.145004,5688745129.200878,-0.432025,0.439146,0.107179
-1.260000,-1.940000,0.060053,0.040000,-8989127.785147,-3874151476.063237,4491072944.158611,34299735764.180004,-0.076478,0.081127,0.646227
-1.220000,-1.940000,0.060473,0.040000,104933190.108068,12584898392.907263,-16594970727.920271,30575072012.282127,0.259772,-0.289993,0.576052
-1.220000,-1.900000,0.100284,0.040000,63937847.451269,9755433191.499969,-10176812640.451134,21232891832.658154,0.186180,-0.189355,0.400040
-1.260000,-1.900000,0.100032,0.040000,-117847.225586,-2984315650.175266,3041389273.484312,23541253268.367226,-0.056549,0.056979,0.443531
-1.180000,-1.940000,0.061255,0.040000,190045031.486499,24500019240.510239,-31298689513.378162,17847430898.994091,0.500022,-0.551258,0.336256
-1.140000,-1.940000,0.060043,0.040000,221347312.049765,28778043227.044987,-36083186744.227760,659039680.674847,0.583485,-0.638538,0.012417
-1.140000,-1.900000,0.100026,0.040000,129748179.922394,22411294907.908756,-23124059695.726326,569824500.900518,0.426270,-0.431642,0.010736
-1.180000,-1.900000,0.100758,0.040000,112198419.616234,19022452417.857380,-19716053947.150528,12544223624.929327,0.362314,-0.367542,0.236340
-1.100000,-1.940000,0.060503,0.040000,190984208.964442,24830531720.826691,-30691907023.006035,-15740905206.571678,0.500951,-0.545124,-0.296568
-1.060000,-1.940000,0.061207,0.040000,108320427.595694,14541583729.141169,-17683932407.445343,-26998759112.454182,0.291733,-0.315414,-0.508672
-1.060000,-1.900000,0.100729,0.040000,61315944.649194,11523949608.929752,-11833372059.179577,-19240259857.200569,0.218867,-0.221199,-0.362498
-1.100000,-1.900000,0.100303,0.040000,111203037.678650,19456324868.095997,-20025427844.707329,-11046190486.012579,0.369785,-0.374074,-0.208117
-1.020000,-1.940000,0.060035,0.040000,-4471308.011616,1320347583.108093,-1259473582.508990,-30911178677.129753,0.024532,-0.024073,-0.582385
-0.980000,-1.940000,0.060534,0.040000,-119304116.832687,-11484081597.050312,14405475300.141447,-27453780426.687504,-0.232879,0.254895,-0.517245
-0.980000,-1.900000,0.100321,0.040000,-77497322.296237,-9121008581.783539,9419081639.118114,-19972644004.752876,-0.173530,0.175776,-0.376296
-1.020000,-1.900000,0.100021,0.040000,-7188772.435397,1108377975.757423,-1097232300.405415,-22276073095.146343,0.020819,-0.020735,-0.419694
-0.940000,-1.940000,0.061160,0.040000,-209398949.556687,-21247222389.038918,26055523662.500671,-18060256408.965500,-0.427487,0.463724,-0.340266
-0.900000,-1.940000,0.060027,0.040000,-255132963.546063,-25991287169.696968,31469506499.737434,-5161921070.468311,-0.520655,0.561940,-0.097254
-0.900000,-1.900000,0.100016,0.040000,-161323247.284573,-20772631923.104183,21290224384.210350,-3908503957.149453,-0.394294,0.398195,-0.073638
-0.940000,-1.900000,0.100700,0.040000,-133058786.697063,-16927697065.471010,17402437507.569973,-13262440440.290430,-0.321611,0.325189,-0.249872
-0.860000,-1.940000,0.060566,0.040000,-247528437.749246,-25007382887.303295,30028953346.556519,8183786074.024920,-0.499536,0.537380,0.154187
-0.820000,-1.940000,0.061114,0.040000,-189075298.286066,-19041789081.936134,22686673054.586807,19154227921.081360,-0.379360,0.406829,0.360877
-0.820000,-1.900000,0.100672,0.040000,-118585146.963181,-15425831211.752954,15776928362.523294,14110636189.693050,-0.292616,0.295262,0.265853
-0.860000,-1.900000,0.100341,0.040000,-156148767.582141,-20104270580.435745,20582086016.912823,5893416865.614568,-0.381477,0.385078,0.111035
-0.780000,-1.940000,0.060020,0.040000,-92186540.867959,-9803419239.496548,11477024951.686087,25939744975.360790,-0.194162,0.206774,0.488720
-0.740000,-1.940000,0.060600,0.040000,24029427.849178,876165932.314997,-1308820298.589884,27734108270.500797,0.018953,-0.022213,0.522527
-0.740000,-1.900000,0.100361,0.040000,19191286.039860,695411507.867995,-747850977.237704,20752637145.515209,0.013398,-0.013794,0.390992
-0.780000,-1.900000,0.100012,0.040000,-56127331.427710,-7982412066.444195,8134018286.548499,19290797238.626434,-0.151250,0.152393,0.363450
-0.700000,-1.940000,0.061069,0.040000,137836417.683714,11156865397.518698,-13427303591.517960,24468794508.916130,0.223035,-0.240145,0.461006
-0.660000,-1.940000,0.060014,0.040000,228928518.217018,19065878112.197956,-22653924831.038063,16978318577.836317,0.379492,-0.406533,0.319881
-0.660000,-1.900000,0.100009,0.040000,152989973.659674,15490559169.062643,-15822446365.833313,12884753416.928574,0.293727,-0.296228,0.242756
-0.700000,-1.900000,0.100645,0.040000,93349441.168107,9017235860.914183,-9236103283.317968,18415055312.753151,0.171127,-0.172776,0.346950
-0.620000,-1.940000,0.060634,0.040000,281812651.051061,23366244105.657906,-27621952837.609657,6937087902.431796,0.464288,-0.496360,0.130699
-0.580000,-1.940000,0.061025,0.040000,288054314.389875,23741384527.601006,-27931248303.113869,-3813001136.197318,0.470983,-0.502559,-0.071839
-0.580000,-1.900000,0.100618,0.040000,191631607.032103,19479807918.319622,-19876342847.189716,-2819376428.062745,0.369252,-0.372241,-0.053119
-0.620000,-1.900000,0.100381,0.040000,187706535.939187,19104291489.112396,-19506604570.891518,5358771180.479515,0.362210,-0.365242,0.100962
-0.540000,-1.940000,0.060010,0.040000,247173881.561023,20379764651.920357,-23828550444.076420,-13663186959.651434,0.403460,-0.429451,-0.257422
-0.500000,-1.940000,0.060669,0.040000,166234475.375757,13839945368.502829,-16087695045.887787,-21153993942.586052,0.273457,-0.290397,-0.398554
-0.500000,-1.900000,0.100403,0.040000,109738975.234244,11388465920.439556,-11591517425.744833,-16096006460.979151,0.215713,-0.217243,-0.303258
-0.540000,-1.900000,0.100006,0.040000,164152189.612158,16734374182.527517,-17046467617.601610,-10345054057.357103,0.317049,-0.319401,-0.194907
-0.460000,-1.940000,0.060982,0.040000,58322289.578404,5227542831.446057,-6013167973.797633,-25120871599.809212,0.102930,-0.108851,-0.473292
-0.420000,-1.940000,0.060006,0.040000,-59742821.748505,-3851270994.952099,4588761280.230963,-25161524479.690338,-0.076729,0.082286,-0.474058
-0.420000,-1.900000,0.100004,0.040000,-42790721.740773,-3140004315.351484,3208522995.373127,-19322458855.496506,-0.059547,0.060063,-0.364046
-0.460000,-1.900000,0.100592,0.040000,37005557.016323,4367134268.796689,-4441014794.785062,-19208693773.096687,0.082697,-0.083254,-0.361903
-0.380000,-1.940000,0.060705,0.040000,-170078296.440246,-12132797981.731323,14233407364.633604,-21578775728.384640,-0.240462,0.256293,-0.406557
-0.340000,-1.940000,0.060939,0.040000,-256365448.353902,-18642342317.295200,21740803922.837524,-14940229936.590908,-0.368746,0.392096,-0.281483
-0.340000,-1.900000,0.100566,0.040000,-176092630.893661,-15408492181.599754,15696485408.972736,-11520548622.808020,-0.291933,0.294103,-0.217054
-0.380000,-1.900000,0.100424,0.040000,-117540856.734356,-10037631617.655394,10238052502.265923,-16618000389.183937,-0.190248,0.191758,-0.313093
-0.300000,-1.940000,0.060003,0.040000,-306110757.128621,-22352576425.281857,25974428347.011478,-6172559143.263694,-0.441607,0.468902,-0.116295
-0.260000,-1.940000,0.060741,0.040000,-312275915.035820,-22740195166.993065,26401957797.605408,3336762292.085710,-0.449135,0.476731,0.062867
-0.260000,-1.900000,0.100447,0.040000,-213828328.667340,-18856749407.066650,19194378256.507694,2540705731.467202,-0.357180,0.359725,0.047868
-0.300000,-1.900000,0.100002,0.040000,-209830153.427756,-18484150559.204956,18809088899.081623,-4789651963.400604,-0.350089,0.352538,-0.090240
-0.220000,-1.940000,0.060898,0.040000,-274086400.457548,-19946701897.543118,23141066581.438286,12186288827.167919,-0.393863,0.417936,0.229597
-0.180000,-1.940000,0.060001,0.040000,-196973583.113609,-14506627858.171621,16790358786.951410,19304216179.279335,-0.286221,0.303432,0.363703
-0.180000,-1.900000,0.100001,0.040000,-134356797.122493,-12027615512.116091,12231142064.009302,14951084763.393490,-0.227758,0.229291,0.281687
-0.220000,-1.900000,0.100541,0.040000,-187452684.123924,-16575355756.071827,16872572286.333574,9423445199.358377,-0.313969,0.316209,0.177543
-0.140000,-1.940000,0.060779,0.040000,-91710288.704961,-7032589575.745077,8130167772.890746,23801588105.111504,-0.138702,0.146973,0.448436
-0.100000,-1.940000,0.060857,0.040000,27125241.971803,1513051825.500822,-1728255022.091825,24951831670.998562,0.029723,-0.031345,0.470107
-0.100000,-1.900000,0.100517,0.040000,19869597.829672,1243502078.137643,-1259978931.852779,19331450429.444359,0.023521,-0.023646,0.364216
-0.140000,-1.900000,0.100469,0.040000,-61907249.934061,-5807061879.361566,5904354469.467674,18430572358.655453,-0.109958,0.110692,0.347243
-0.060000,-1.940000,0.060000,0.040000,143145073.333698,9728045946.826880,-11232815984.531227,22629569856.469395,0.191787,-0.203128,0.426354
-0.020000,-1.940000,0.060818,0.040000,240350324.740604,16593142437.967899,-19199915431.612854,17300780942.940289,0.327358,-0.347004,0.325957
-0.020000,-1.900000,0.100493,0.040000,166455054.374952,13839987348.080591,-14082487159.799334,13396539610.398144,0.262124,-0.263952,0.252399
-0.060000,-1.900000,0.100000,0.040000,99671762.069283,8092826296.843727,-8226531959.175865,17544327354.840240,0.153229,-0.154237,0.330545
0.020000,-1.940000,0.060818,0.040000,305263473.051809,21357282347.869350,-24705509408.168209,9600483566.356554,0.421308,-0.446541,0.180879
0.060000,-1.940000,0.060000,0.040000,328726707.951832,23227637264.764767,-26870992169.314884,428326185.068444,0.458215,-0.485672,0.008070
0.060000,-1.900000,0.100000,0.040000,226783232.025780,19281138537.159706,-19605716391.827538,275218834.779143,0.365102,-0.367548,0.005185
0.020000,-1.900000,0.100493,0.040000,210922561.077182,17764231834.563320,-18071209579.797626,7384564350.591435,0.336424,-0.338737,0.139129
0.100000,-1.940000,0.060857,0.040000,307154116.099001,21824795980.779194,-25309120561.749393,-8903770275.376537,0.430886,-0.457144,-0.167752
0.140000,-1.940000,0.060779,0.040000,243086344.235448,17390278667.125813,-20230068371.367104,-17049022064.610399,0.343694,-0.365095,-0.321213
0.140000,-1.900000,0.100469,0.040000,167278098.289208,14439166846.820337,-14704952421.460175,-13271163053.626013,0.273545,-0.275548,-0.250036
0.100000,-1.900000,0.100517,0.040000,211623145.993749,18120588726.300167,-18441876921.117374,-6947545242.979806,0.343218,-0.345640,-0.130896
0.180000,-1.940000,0.060001,0.040000,144950751.504227,10591933424.410015,-12366453607.413452,-22997113458.276489,0.209588,-0.222961,-0.433279
0.220000,-1.940000,0.060898,0.040000,26047809.263748,2116823399.463403,-2566262953.472528,-25930942708.042274,0.042422,-0.045810,-0.488554
0.220000,-1.900000,0.100541,0.040000,17980192.238134,1668419724.188077,-1709311008.004574,-20046582230.788841,0.031665,-0.031973,-0.377689
0.180000,-1.900000,0.100001,0.040000,99650370.655571,8728887543.031656,-8889204289.769979,-17845468339.758263,0.165363,-0.166572,-0.336219
0.260000,-1.940000,0.060741,0.040000,-97138787.253300,-6968786749.901504,7943967959.782433,-25188768989.823769,-0.136808,0.144157,-0.474571
0.300000,-1.940000,0.060003,0.040000,-207119737.454833,-15140509075.844585,17469811940.296478,-20752096535.313976,-0.298422,0.315976,-0.390982
0.300000,-1.900000,0.100002,0.040000,-141358976.078059,-12579813868.309410,12786331115.443182,-15938010300.416903,-0.238178,0.239735,-0.300281
0.260000,-1.900000,0.100447,0.040000,-66352402.980910,-5809519453.231392,5892712806.319536,-19408934703.188591,-0.109925,0.110552,-0.365676
0.340000,-1.940000,0.060939,0.040000,-287829711.839690,-21282932166.466316,24709687738.213840,-13267262066.862171,-0.420351,0.446176,-0.249963
0.380000,-1.940000,0.060705,0.040000,-326969707.029687,-24586382656.782288,28641153308.863930,-3621307608.593318,-0.486140,0.516698,-0.068228
0.380000,-1.900000,0.100424,0.040000,-222402808.935790,-20321294519.592239,20696307394.982105,-2627219937.843878,-0.384985,0.387811,-0.049498
0.340000,-1.900000,0.100566,0.040000,-196122249.925777,-17667488439.884621,17986830836.568211,-10109859683.687393,-0.334671,0.337077,-0.190476
0.420000,-1.940000,0.060006,0.040000,-317952456.927904,-24312574043.452980,28418038782.399960,6996355910.598133,-0.481268,0.512208,0.131815
0.460000,-1.940000,0.060982,0.040000,-261185702.704339,-20184579135.505798,23752036100.489494,16939095651.681564,-0.400453,0.427338,0.319142
0.460000,-1.900000,0.100592,0.040000,-177314198.756623,-16562336126.481899,16898279066.306744,13062858639.368134,-0.313943,0.316475,0.246112
0.420000,-1.900000,0.100004,0.040000,-215949850.246318,-20001433447.337185,20372954645.229473,5504915597.352902,-0.378939,0.381738,0.103716
0.500000,-1.940000,0.060669,0.040000,-164403305.343027,-12727434362.993780,15152990068.352274,24513839908.381832,-0.253502,0.271781,0.461855
0.540000,-1.940000,0.060010,0.040000,-41920762.591842,-3099798550.857605,3892758963.707695,28505330686.237534,-0.062884,0.068860,0.537057
0.540000,-1.900000,0.100006,0.040000,-29873950.202623,-2429173367.738091,2506234520.066792,21715951345.801403,-0.046203,0.046783,0.409141
0.500000,-1.900000,0.100403,0.040000,-112000153.712959,-10413661986.181862,10649080547.844971,18789737643.848785,-0.197530,0.199304,0.354010
0.580000,-1.940000,0.061025,0.040000,87191976.928952,7501630811.217213,-8583539034.324165,28105050600.631664,0.147450,-0.155604,0.529515
0.620000,-1.940000,0.060634,0.040000,201855175.211130,17455322314.055740,-20357242411.299778,22884981471.600380,0.345271,-0.367140,0.431166
0.620000,-1.900000,0.100381,0.040000,132042811.456055,14313119566.776772,-14576346656.998852,17155269437.334179,0.271155,-0.273139,0.323215
0.580000,-1.900000,0.100618,0.040000,56153569.033146,6274556985.500794,-6374574728.784433,21254026301.332905,0.118782,-0.119535,0.400438
0.660000,-1.940000,0.060014,0.040000,282346704.621858,24722780761.778439,-29111903741.522793,13341695296.185932,0.490600,-0.523677,0.251365
0.700000,-1.940000,0.061069,0.040000,313810651.817382,27840496566.374748,-33090645562.058575,995243375.335114,0.554206,-0.593772,0.018751
0.700000,-1.900000,0.100645,0.040000,205294922.405171,22651488093.900131,-23154465609.269634,552297589.646887,0.429610,-0.433401,0.010406
0.660000,-1.900000,0.100009,0.040000,184902977.657100,20170843401.525955,-20572019514.504009,9877789116.348791,0.382298,-0.385321,0.186103
0.740000,-1.940000,0.060600,0.040000,289312874.317969,26081317009.186436,-31255033410.076061,-12140130539.979553,0.520630,-0.559620,-0.228727
0.780000,-1.940000,0.060020,0.040000,211849079.688338,19339037789.362251,-23406611557.253227,-23809337153.066536,0.387349,-0.418003,-0.448582
0.780000,-1.900000,0.100012,0.040000,138997042.269574,15501420672.180218,-15885484804.498610,-17851884141.741867,0.294227,-0.297121,-0.336340
0.740000,-1.900000,0.100361,0.040000,189162945.779322,21108523329.316090,-21605568385.715450,-9284659254.515394,0.400506,-0.404252,-0.174928
0.820000,-1.940000,0.061114,0.040000,94741224.869075,8254514020.426559,-10318468394.870312,-31512856526.300587,0.167186,-0.182740,-0.593720
0.860000,-1.940000,0.060566,0.040000,-39953817.928998,-5244124927.853968,5836024854.589696,-33080226751.978321,-0.102148,0.106609,-0.623251
0.860000,-1.900000,0.100341,0.040000,-21703951.911534,-4276208965.815974,4315667338.131616,-24298165393.786491,-0.080789,0.081087,-0.457792
0.820000,-1.900000,0.100672,0.040000,63889433.622954,6515557138.588319,-6720888272.281517,-23358080747.075081,0.123917,-0.125465,-0.440080
0.900000,-1.940000,0.060027,0.040000,-165052107.240890,-18211762651.623989,21687456408.373650,-27619639272.025536,-0.362765,0.388959,-0.520370
0.940000,-1.940000,0.061160,0.040000,-253497082.629279,-27886675480.915863,33810307231.875771,-15756579404.839260,-0.558883,0.603524,-0.296863
0.940000,-1.900000,0.100700,0.040000,-155618032.056986,-22296131944.559937,22876579185.437485,-11255048969.946344,-0.423353,0.427727,-0.212052
0.900000,-1.900000,0.100016,0.040000,-100457992.328540,-14646493653.523794,14968939643.327160,-20090793279.000381,-0.277771,0.280201,-0.378522
0.980000,-1.940000,0.060534,0.040000,-284449699.618382,-31831489837.186588,39031505253.189354,580696412.914474,-0.640419,0.694680,0.010941
1.020000,-1.940000,0.060035,0.040000,-248948713.451021,-28266050632.824524,35097148767.084229,18065000911.574242,-0.571159,0.622640,0.340355
1.020000,-1.900000,0.100021,0.040000,-153284332.119152,-22218619391.120728,22879294553.357368,13169023838.809504,-0.422346,0.427325,0.248112
0.980000,-1.900000,0.100321,0.040000,-174794150.940428,-25238842697.513485,25940411402.651363,684616202.556360,-0.479480,0.484767,0.012899
1.060000,-1.940000,0.061207,0.040000,-153625760.065624,-17053149789.742752,21709526976.356079,32171374317.951355,-0.347610,0.382701,0.606127
1.100000,-1.940000,0.060503,0.040000,-21050406.019060,-497095494.606112,1347676717.576853,38478499735.149590,-0.014173,0.020583,0.724957
1.100000,-1.900000,0.100303,0.040000,-17252847.610906,-362925065.979578,471322033.635009,27220199687.268932,-0.007450,0.008267,0.512844
1.060000,-1.900000,0.100729,0.040000,-96007376.359506,-13316929484.827356,13789706127.643160,23024853000.706123,-0.253571,0.257134,0.433802
1.140000,-1.940000,0.060043,0.040000,114231008.859365,17059169052.998470,-20905630208.082333,34317599827.768173,0.343146,-0.372133,0.646563
1.180000,-1.940000,0.061255,0.040000,213929207.912288,30713326626.444054,-38762264273.395576,19694751533.394970,0.624151,-0.684810,0.371061
1.180000,-1.900000,0.100758,0.040000,120064296.369188,23840708647.075752,-24656713389.217857,13517276624.099293,0.453785,-0.459935,0.254673
1.140000,-1.900000,0.100026,0.040000,62158387.415392,13337878880.653990,-13707364320.364582,23991161442.215866,0.253382,-0.256166,0.452007
1.220000,-1.940000,0.060473,0.040000,247102937.627811,35775884315.801315,-45935089725.868462,-2318202187.398933,0.731460,-0.808022,-0.043676
1.260000,-1.940000,0.060053,0.040000,201251213.234814,29179027412.560970,-38210584808.786125,-25440822433.374420,0.600798,-0.668862,-0.479320
1.260000,-1.900000,0.100032,0.040000,114471429.525007,22234535607.203934,-23140122208.848957,-17493278191.174835,0.424030,-0.430855,-0.329584
1.220000,-1.900000,0.100284,0.040000,139455995.415621,27510858115.413738,-28534247216.546940,-1823565221.352668,0.524105,-0.531817,-0.034357
1.300000,-1.940000,0.061304,0.040000,89492551.051285,11525244659.306105,-15919487713.622202,-41268437914.928497,0.241979,-0.275095,-0.777521
1.340000,-1.940000,0.060443,0.040000,-50067422.916936,-11693907657.626301,14518459869.473093,-42416535533.360451,-0.236285,0.257571,-0.799152
1.340000,-1.900000,0.100266,0.040000,-21250378.736189,-8716730823.119734,8974311878.083149,-28293692188.254707,-0.165684,0.167625,-0.533070
1.300000,-1.900000,0.100788,0.040000,53680990.535054,8754155173.074583,-9219630846.754944,-27887612165.928638,0.167564,-0.171072,-0.525419
1.380000,-1.940000,0.060063,0.040000,-164996811.101401,-31396538337.294041,41634718936.152107,-26329904356.497639,-0.649397,0.726554,-0.496071
1.420000,-1.940000,0.061353,0.040000,-207881624.379820,-38670425549.946747,52947773798.544357,2306213014.965936,-0.809271,0.916869,0.043450
1.420000,-1.900000,0.100818,0.040000,-105330851.143133,-28853827664.243801,30368950711.812538,1527909340.939785,-0.552187,0.563605,0.028787
1.380000,-1.900000,0.100038,0.040000,-82224272.078122,-23479086331.884689,24520152535.438053,-17357166335.957489,-0.448244,0.456090,-0.327019
1.460000,-1.940000,0.060415,0.040000,-158323987.410708,-28650849536.921722,40486881350.710152,31955021185.587448,-0.606698,0.695897,0.602051
1.500000,-1.940000,0.060075,0.040000,-37558288.714558,-3963837577.526823,6443108228.535213,47863838423.546898,-0.088694,0.107379,0.901782
1.500000,-1.900000,0.100045,0.040000,-23637209.843664,-3020904042.073637,3275937246.074484,30424351919.776447,-0.058357,0.060279,0.573212
1.460000,-1.900000,0.100249,0.040000,-81737720.780623,-21306673040.133675,22568332338.385178,20609086038.493050,-0.408561,0.418069,0.388287
1.540000,-1.940000,0.061404,0.040000,94862190.764519,24271189372.531887,-34306797501.945129,39055977342.238632,0.514006,-0.589637,0.735837
1.580000,-1.940000,0.060387,0.040000,167057836.070245,39894455288.260895,-58482671517.778008,6664775458.848740,0.856698,-0.996784,0.125568
1.580000,-1.900000,0.100233,0.040000,73811934.932204,28702663262.213017,-30674294852.812019,4274003502.795296,0.551919,-0.566777,0.080525
1.540000,-1.900000,0.100848,0.040000,39301298.803478,17540404878.974422,-18622452380.221840,24513729890.557835,0.336587,-0.344742,0.461853
1.620000,-1.940000,0.060087,0.040000,135847486.195916,30988956548.281879,-47120728342.702843,-32110639210.140892,0.675029,-0.796602,-0.604983
1.660000,-1.940000,0.061455,0.040000,20612549.087461,543489525.036600,-1748057249.177181,-50786174598.960739,0.017048,-0.026126,-0.956841
1.660000,-1.900000,0.100880,0.040000,14063241.874465,783117495.877466,-922368225.933847,-30268383580.732079,0.015541,-0.016591,-0.570274
1.620000,-1.900000,0.100052,0.040000,61940767.554187,22295383102.665398,-24000473428.761032,-19251852623.221924,0.429695,-0.442545,-0.362716
1.700000,-1.940000,0.060360,0.040000,-98336114.442068,-30804263687.583088,48509251099.925964,-31946401608.940006,-0.680442,0.813871,-0.601889
1.740000,-1.940000,0.060100,0.040000,-130500471.689015,-37143015468.316727,61678044403.644836,13825333929.084784,-0.838472,1.023374,0.260477
1.740000,-1.900000,0.100060,0.040000,-50051563.479243,-26030447269.885807,28683246389.209595,7329761047.413334,-0.505423,0.525415,0.138097
1.700000,-1.900000,0.100217,0.040000,-35154790.439380,-21285249336.655373,23167906616.330860,-19120684674.562122,-0.411668,0.425856,-0.360245
1.780000,-1.940000,0.061507,0.040000,-50641129.938817,-10576678564.247009,18962200217.032059,47887283296.152840,-0.246667,0.309862,0.902224
1.820000,-1.940000,0.060335,0.040000,64815936.508535,24987334314.665787,-44956786871.410942,34611780846.904007,0.583647,-0.734141,0.652106
1.820000,-1.900000,0.100201,0.040000,17798243.992765,16671448721.707834,-18815577398.835861,19872781828.919426,0.326219,-0.342377,0.374415
1.780000,-1.900000,0.100912,0.040000,-22729568.469195,-7969642325.677090,8928996030.213064,26861489737.151031,-0.155575,0.162805,0.506086
1.860000,-1.940000,0.060115,0.040000,97833270.231823,31705664564.518501,-60627176494.542694,-15618717127.046543,0.760823,-0.978782,-0.294266
1.900000,-1.940000,0.061560,0.040000,16752225.074792,1574723805.413212,-1682811562.029365,-44143025224.089081,0.030280,-0.031094,-0.831680
1.900000,-1.900000,0.100944,0.040000,9059250.897899,1687501982.116008,-1716942203.285711,-23762726022.641499,0.031960,-0.032182,-0.447704
1.860000,-1.900000,0.100069,0.040000,31414740.912501,21974353530.312065,-25152129784.898987,-7595426909.831951,0.431971,-0.455919,-0.143102
1.940000,-1.940000,0.060310,0.040000,-68628261.644437,-25599224666.165981,57987713702.627029,-12696509024.569588,-0.665370,0.909457,-0.239210
1.980000,-1.940000,0.060130,0.040000,-40928387.907407,-13199362785.443129,26175506837.319729,30750834536.230171,-0.322027,0.419818,0.579364
1.980000,-1.900000,0.100078,0.040000,-12422287.144556,-9203605285.552917,10550915117.058659,16059676914.931166,-0.181016,0.191170,0.302574
1.940000,-1.900000,0.100186,0.040000,-16220272.162342,-17536344441.457474,21131939609.206539,-7760537400.921868,-0.350718,0.377815,-0.146213
2.020000,-1.940000,0.061614,0.040000,40678153.851605,12172455832.672426,-44858304322.655006,16837668596.076286,0.414082,-0.660410,0.317231
2.060000,-1.940000,0.060286,0.040000,28193517.545678,7308808407.448351,-20671882203.072723,-18836795181.258060,0.213233,-0.313940,-0.354896
2.060000,-1.900000,0.100172,0.040000,7006729.578897,5954158343.442572,-7802958800.777937,-10522589805.905695,0.122630,-0.136563,-0.198252
2.020000,-1.900000,0.100977,0.040000,6379132.803835,9732435116.744274,-13771027894.138226,9785435363.534494,0.206192,-0.236627,0.184363
2.100000,-1.940000,0.060146,0.040000,-30629527.683164,-6883771958.280348,34744063196.121582,-8235697288.054493,-0.287165,0.497127,-0.155165
2.140000,-1.940000,0.061669,0.040000,-1402404.160538,-5320343175.991955,-2127913534.835360,9712602639.753954,-0.058140,0.002008,0.182991
2.140000,-1.900000,0.101010,0.040000,-1642510.791985,-1982908221.539092,856920545.761039,6495991904.476370,-0.030995,0.022509,0.122388
2.100000,-1.900000,0.100088,0.040000,-3594854.717130,-6335650484.732760,9707916348.136969,-4319733026.402948,-0.138428,0.163842,-0.081386
2.180000,-1.940000,0.060263,0.040000,13501991.414873,-500876775.996754,-16622431924.712124,-1509933122.894687,0.087347,-0.216392,-0.028448
2.220000,-1.940000,0.060163,0.040000,-9158070.724031,-6067460794.200910,12009469101.181213,-3754998287.091388,-0.147900,0.192680,-0.070746
2.220000,-1.900000,0.100098,0.040000,-446654.072069,-2935483033.426225,3116237158.572462,-1593445861.784920,-0.056328,0.057690,-0.030021
2.180000,-1.900000,0.100158,0.040000,1670239.603947,1584096559.617492,-4419214774.987305,-1991220815.929960,0.045870,-0.067236,-0.037516
2.260000,-1.940000,0.061725,0.040000,3500670.890860,-4842764696.514566,-1275397096.853041,5114263321.523537,-0.056660,0.010552,0.096356
2.300000,-1.940000,0.060242,0.040000,-825214.135382,4188940576.582857,-4264270568.931627,1340537339.236736,0.079348,-0.079916,0.025257
2.300000,-1.900000,0.100145,0.040000,22789.213268,1454405245.473896,-947607045.655517,-412471101.412479,0.024537,-0.020718,-0.007771
2.260000,-1.900000,0.101044,0.040000,20178.889998,-1397701483.395322,-75805595.703197,2752727135.087498,-0.018005,0.006900,0.051863
2.340000,-1.940000,0.060182,0.040000,124498.297613,71937738.887315,2169977970.141558,-1950464496.722600,-0.011316,0.028212,-0.036748
2.380000,-1.940000,0.061782,0.040000,-4986.221664,-174095392.087640,-175986703.885918,244611986.546174,-0.001301,-0.001337,0.004609
2.380000,-1.900000,0.101079,0.040000,5544.532564,-62382965.326290,-33808244.941839,89730709.086747,-0.000632,-0.000093,0.001691
2.340000,-1.900000,0.100109,0.040000,649.407503,-23316872.548243,377117705.008853,-391158588.177059,-0.002439,0.005105,-0.007370
2.420000,-1.940000,0.060221,0.040000,5686.495981,-26231716.226114,-52842365.505616,70352363.431327,-0.000047,-0.000549,0.001325
2.460000,-1.940000,0.042590,0.040000,6077.764918,-322261226.790282,24777274.631638,219565265.876909,-0.004390,0.002148,0.004137
2.460000,-1.900000,0.040250,0.040000,-16330.477203,-5325150422.473852,-2842048239.258796,5933675894.607900,-0.054166,-0.007383,0.111794
2.420000,-1.900000,0.080125,0.040000,6045.050065,-622834604.365344,-781696742.291024,1313718779.012415,-0.003796,-0.006789,0.024751
2.500000,-1.940000,0.014627,0.040000,-59698.500207,-2173473855.147798,-1058924182.259227,762360348.739710,-0.022679,-0.001681,0.014363
2.500000,-1.900000,0.004478,0.040000,785379.058378,-12155347625.445381,-7038744075.355646,9192641447.719872,-0.120525,-0.024126,0.173195
-2.500000,-1.860000,0.005672,0.040000,-5010336.264727,-20495730368.689716,-15723858402.079046,-9005462796.382183,-0.181432,-0.091527,-0.169668
-2.500000,-1.820000,0.014030,0.040000,117362742.069419,-107933340953.925201,2248521269.373887,-66783901320.252220,-1.436178,0.639712,-1.258247
-2.460000,-1.860000,0.040400,0.040000,-223302.607691,-9249547750.860989,6562416278.180142,-4244267443.440220,-0.159079,0.138828,-0.079964
-2.420000,-1.860000,0.080201,0.040000,20463.041623,-1605548325.877763,2524466201.823272,406569073.634792,-0.035443,0.042369,0.007660
-2.420000,-1.820000,0.081221,0.040000,-61941.791789,-2817504866.192966,-6740009667.277345,-11187972823.261715,0.000937,-0.072965,-0.210788
-2.460000,-1.820000,0.042389,0.040000,1562721.858860,-25274406127.425568,-21937458367.924038,-37959182669.704926,-0.209335,-0.146465,-0.715173
-2.380000,-1.860000,0.120134,0.040000,10861.988083,-4737287.847772,11283926.448131,7924844.903879,-0.000126,0.000176,0.000149
-2.340000,-1.860000,0.140078,0.040000,10966.682115,-16529665.587390,16306454.894519,6493623.731238,-0.000310,0.000308,0.000122
-2.340000,-1.820000,0.160614,0.040000,11830.283035,-6527357.638199,9760859.209304,1484986.322925,-0.000141,0.000166,0.000028
-2.380000,-1.820000,0.120817,0.040000,10160.075371,-121266315.562284,325785203.684502,-53166737.591135,-0.003441,0.004982,-0.001002
-2.300000,-1.860000,0.140104,0.040000,15291.494622,42225946.728998,-41257651.527355,15913745.900912,0.000790,-0.000783,0.000300
-2.260000,-1.860000,0.140748,0.040000,-7115.797932,99418006.488475,-20648425.742897,-104922063.684713,0.001428,-0.000834,-0.001977
-2.260000,-1.820000,0.180582,0.040000,9412.311093,475011.077219,9093080.933701,-121963.988917,-0.000045,0.000117,-0.000002
-2.300000,-1.820000,0.180081,0.040000,10831.834595,-2698333.326316,-1199234.907676,-3223048.704559,-0.000029,-0.000001,-0.000061
-2.220000,-1.860000,0.140070,0.040000,11115.384230,-411877762.922533,294900075.002485,214028084.786949,-0.007099,0.006217,0.004032
-2.180000,-1.860000,0.140113,0.040000,202438.736240,511898166.496918,-594400297.566348,72919178.292715,0.010111,-0.010733,0.001374
-2.180000,-1.820000,0.180088,0.040000,17465.021439,71668609.376766,-85330759.241356,-46532312.936310,0.001427,-0.001530,-0.000877
-2.220000,-1.820000,0.180055,0.040000,21413.053317,-7501239.005974,-45300.884865,32065704.274733,-0.000099,0.000042,0.000604
-2.140000,-1.860000,0.140724,0.040000,-292461.196149,66046611.520921,-18707463.715554,-935597688.781786,0.000977,-0.000620,-0.017627
-2.100000,-1.860000,0.140063,0.040000,-589658.505727,-1686776328.241311,1790574567.889530,443600725.897462,-0.032367,0.033149,0.008358
-2.100000,-1.820000,0.180049,0.040000,-2838.954384,-251349164.676351,274164530.284753,216646838.505971,-0.004865,0.005036,0.004082
-2.140000,-1.820000,0.180563,0.040000,-74011.265911,-85363323.882430,102655933.629013,-124048556.821012,-0.001706,0.001836,-0.002337
-2.060000,-1.860000,0.140123,0.040000,1178450.824947,678510307.879826,-682052470.282855,2155849652.586760,0.012804,-0.012830,0.040617
-2.020000,-1.860000,0.140699,0.040000,1813620.025078,3098666593.272599,-3388817171.889812,-772358348.294252,0.060021,-0.062207,-0.014552
-2.020000,-1.820000,0.180545,0.040000,227510.547592,665426317.434895,-725096136.191009,-415626022.706248,0.012874,-0.013324,-0.007831
-2.060000,-1.820000,0.180096,0.040000,361114.513293,323494457.923871,-338466901.396582,376159453.258489,0.006179,-0.006292,0.007087
-1.980000,-1.860000,0.140056,0.040000,-1838160.045636,-295250046.104043,204824729.016200,-3992686502.948152,-0.005052,0.004370,-0.075225
-1.940000,-1.860000,0.140133,0.040000,-4921141.775335,-4824639466.883296,5179007804.110121,-965564219.357910,-0.092902,0.095573,-0.018192
-1.940000,-1.820000,0.180104,0.040000,-1249072.669168,-1443041506.890102,1532625724.831822,39742183.870554,-0.027694,0.028369,0.000749
-1.980000,-1.820000,0.180043,0.040000,-796564.647460,-352538055.652628,346015103.850963,-1007203716.027666,-0.006605,0.006556,-0.018976
-1.900000,-1.860000,0.140676,0.040000,-954396.029040,-3000364246.068782,3307757764.012639,4963668850.540288,-0.058266,0.060583,0.093518
-1.860000,-1.860000,0.140049,0.040000,7342070.073122,3744635308.383540,-3910748025.637715,5550541191.732258,0.071490,-0.072742,0.104575
-1.860000,-1.820000,0.180038,0.040000,2887558.521395,1538709544.130529,-1588006103.861675,1630603921.247556,0.029269,-0.029640,0.030722
-1.900000,-1.820000,0.180526,0.040000,378654.820280,-650062134.403108,724150879.311773,1701179974.732309,-0.012666,0.013225,0.032051
-1.820000,-1.860000,0.140144,0.040000,9976429.043927,7397700870.324718,-7850128773.857771,-762805066.628885,0.141934,-0.145344,-0.014372
-1.780000,-1.860000,0.140653,0.040000,1495979.011333,3535246222.761846,-3792570072.013107,-7471749557.177948,0.068061,-0.070000,-0.140772
-1.780000,-1.820000,0.180508,0.040000,-580892.577494,1017101713.638202,-1095323045.483618,-2935869030.884038,0.019605,-0.020194,-0.055313
-1.820000,-1.820000,0.180112,0.040000,3077448.498255,2600814145.591894,-2731108336.429549,-626849498.719564,0.049737,-0.050719,-0.011810
-1.740000,-1.860000,0.140043,0.040000,-12274782.296954,-4407962115.313539,4575277255.349689,-7844460168.901175,-0.083994,0.085255,-0.147794
-1.700000,-1.860000,0.140155,0.040000,-19282496.704855,-9442804263.126194,9866125066.771933,-1343507989.525101,-0.180301,0.183491,-0.025312
-1.700000,-1.820000,0.180120,0.040000,-7687900.533197,-3973347650.366903,4107729949.757778,-215181682.264324,-0.075620,0.076632,-0.004054
-1.740000,-1.820000,0.180034,0.040000,-5700821.520670,-2050678670.121040,2100129825.168386,-2898888293.194256,-0.038915,0.039288,-0.054617
-1.660000,-1.860000,0.140630,0.040000,-11827347.027254,-7493648883.922373,7832120921.752025,6855599131.016092,-0.143098,0.145649,0.129163
-1.620000,-1.860000,0.140037,0.040000,7124345.381833,-28107036.832550,60205981.615567,10767251661.134787,-0.000711,0.000953,0.202861
-1.620000,-1.820000,0.180029,0.040000,4927879.298257,289226584.686675,-272744942.378135,4785521806.937315,0.005356,-0.005232,0.090162
-1.660000,-1.820000,0.180490,0.040000,-3665825.906325,-3035190558.529397,3149319721.304327,3172466732.078074,-0.057830,0.058690,0.059771
-1.580000,-1.860000,0.140166,0.040000,26091981.900940,7900517763.434464,-8163844896.878213,7896471667.397891,0.150339,-0.152323,0.148774
-1.540000,-1.860000,0.140607,0.040000,32810970.298631,11501753017.768456,-11873890297.644413,198669922.461378,0.218803,-0.221608,0.003743
-1.540000,-1.820000,0.180473,0.040000,15180268.656568,5537220331.661569,-5665102107.456277,-171225257.966947,0.105047,-0.106011,-0.003226
-1.580000,-1.820000,0.180129,0.040000,13035629.479537,3882912404.975047,-3967165806.286046,3429377189.731278,0.073633,-0.074267,0.064611
-1.500000,-1.860000,0.140032,0.040000,21678103.007856,8950625568.674479,-9224990722.747746,-7864013761.779541,0.170186,-0.172253,-0.148163
-1.460000,-1.860000,0.140178,0.040000,-3370644.872236,1840986927.154887,-1895673953.283298,-12164238871.407288,0.034994,-0.035406,-0.229181
-1.460000,-1.820000,0.180139,0.040000,-4051878.805086,713095965.414706,-739463327.440900,-6145875283.412333,0.013584,-0.013783,-0.115792
-1.500000,-1.820000,0.180025,0.040000,8836324.035177,4271846980.753852,-4371733756.874674,-4031076537.752802,0.081049,-0.081801,-0.075948
-1.420000,-1.860000,0.140585,0.040000,-31275387.373266,-6250075794.227908,6407074749.313264,-10877836797.648830,-0.118642,0.119826,-0.204945
-1.380000,-1.860000,0.140027,0.040000,-49417936.145316,-11720867009.274384,11999585868.745016,-4889357930.033859,-0.222403,0.224504,-0.092118
-1.380000,-1.820000,0.180021,0.040000,-26647420.960203,-6317302727.206487,6414589255.880051,-2406913580.156713,-0.119572,0.120305,-0.045348
-1.420000,-1.820000,0.180456,0.040000,-18010182.555505,-3432513297.941214,3483153738.446719,-5500886306.038597,-0.064957,0.065338,-0.103640
-1.340000,-1.860000,0.140190,0.040000,-49229072.302570,-12505404778.836967,12783801856.159857,3079296868.024585,-0.237183,0.239281,0.058016
-1.300000,-1.860000,0.140564,0.040000,-29449985.927463,-8597892242.060656,8776941102.145124,9877908528.776663,-0.163001,0.164351,0.186106
-1.300000,-1.820000,0.180439,0.040000,-13880336.617219,-4663664979.100190,4729887393.934720,5521599630.770125,-0.088240,0.088740,0.104030
-1.340000,-1.820000,0.180148,0.040000,-25505003.154585,-6768377126.282067,6868604228.094264,1818400591.455162,-0.128087,0.128842,0.034260
-1.260000,-1.860000,0.140023,0.040000,3824558.151602,-1693577604.309129,1723302979.634671,13166746114.318943,-0.032076,0.032300,0.248069
-1.220000,-1.860000,0.140203,0.040000,39769401.855877,5706297118.937198,-5819512203.633711,12081524292.543180,0.108150,-0.109003,0.227623
-1.220000,-1.820000,0.180158,0.040000,25092588.322208,3385588733.460567,-3421572922.015069,6824084779.318987,0.063990,-0.064261,0.128570
-1.260000,-1.820000,0.180018,0.040000,4968901.110920,-829105997.254010,843046906.285206,7381075968.825154,-0.015700,0.015805,0.139064
-1.180000,-1.860000,0.140542,0.040000,66745544.799445,11254999325.041346,-11455584369.178211,7255973057.531257,0.213184,-0.214696,0.136707
-1.140000,-1.860000,0.140018,0.040000,76013677.638244,13422006862.513933,-13643729421.464788,371576699.570460,0.254132,-0.255803,0.007001
-1.140000,-1.820000,0.180014,0.040000,44456239.382387,7954118111.026186,-8030986812.231154,131340225.377050,0.150295,-0.150874,0.002475
-1.180000,-1.820000,0.180422,0.040000,39937833.104780,6625985175.717373,-6694375293.319831,4109660534.891021,0.125224,-0.125739,0.077428
-1.100000,-1.860000,0.140216,0.040000,64141073.462111,11825678604.875811,-12006517085.428495,-6503124470.284081,0.223825,-0.225188,-0.122523
-1.060000,-1.860000,0.140522,0.040000,33622557.991989,7134759414.471913,-7235752608.549156,-11540222318.962975,0.134994,-0.135755,-0.217424
-1.060000,-1.820000,0.180406,0.040000,17660484.166328,4286977649.964777,-4322185434.443659,-6984923548.097242,0.080968,-0.081233,-0.131600
-1.100000,-1.820000,0.180168,0.040000,36570965.306701,7065505804.588614,-7128823728.152005,-3932701251.255211,0.133476,-0.133953,-0.074094
-1.020000,-1.860000,0.140015,0.040000,-8165349.413543,744902756.363686,-748142590.406816,-13586896163.280979,0.014053,-0.014077,-0.255985
-0.980000,-1.860000,0.140230,0.040000,-51143389.935147,-5695819166.924375,5782536960.866959,-12344053157.752592,-0.107803,0.108456,-0.232569
-0.980000,-1.820000,0.180179,0.040000,-34176856.120715,-3585804363.954038,3612920497.547379,-7590735376.161222,-0.067712,0.067916,-0.143014
-1.020000,-1.820000,0.180012,0.040000,-7942811.514447,406135547.165176,-408276554.834170,-8285733449.950551,0.007664,-0.007680,-0.156108
-0.940000,-1.860000,0.140501,0.040000,-85130666.176206,-10712326847.778631,10856252946.305790,-8306063701.338084,-0.202640,0.203725,-0.156491
-0.900000,-1.860000,0.140012,0.040000,-102195161.753573,-13279050163.497152,13445382320.025599,-2534387136.591283,-0.251125,0.252379,-0.047749
-0.900000,-1.820000,0.180009,0.040000,-64838296.829379,-8431793790.370196,8485313896.622457,-1565188555.834393,-0.159162,0.159566,-0.029489
-0.940000,-1.820000,0.180390,0.040000,-54797190.762302,-6755571101.150094,6802104256.124757,-5144824405.105382,-0.127542,0.127893,-0.096931
-0.860000,-1.860000,0.140244,0.040000,-98265405.364214,-13002637226.738527,13155782112.083349,3648679477.046050,-0.245843,0.246997,0.068743
-0.820000,-1.860000,0.140481,0.040000,-73763418.978337,-10102333402.210827,10215049145.113699,8965551185.348684,-0.190971,0.191820,0.168916
-0.820000,-1.820000,0.180374,0.040000,-45458564.230315,-6510692380.703223,6545473677.799148,5750629416.602543,-0.122862,0.123124,0.108345
-0.860000,-1.820000,0.180190,0.040000,-61668421.408416,-8318228340.269667,8366876821.008819,2337669349.517958,-0.156995,0.157362,0.044043
-0.780000,-1.860000,0.140009,0.040000,-33262606.347123,-5296652129.264699,5349349191.130785,12427155144.793550,-0.100090,0.100487,0.234135
-0.740000,-1.860000,0.140258,0.040000,15634907.967222,407758316.035276,-420843921.126661,13482344493.834396,0.007756,-0.007855,0.254015
-0.740000,-1.820000,0.180201,0.040000,12771875.962955,279359491.084380,-282920292.558104,8757365227.643276,0.005283,-0.005310,0.164994
-0.780000,-1.820000,0.180007,0.040000,-19037032.525314,-3433164123.686177,3449139209.974623,8019722269.857046,-0.064773,0.064893,0.151096
-0.700000,-1.860000,0.140462,0.040000,63892190.058266,5935108571.204093,-6001807498.137429,12063600967.403208,0.112198,-0.112701,0.227285
-0.660000,-1.860000,0.140006,0.040000,102757079.126536,10308295823.151024,-10415704128.878881,8543079502.020967,0.194821,-0.195631,0.160957
-0.660000,-1.820000,0.180005,0.040000,69356097.907553,6842470800.883841,-6874150931.142841,5616979414.183764,0.129095,-0.129334,0.105827
-0.700000,-1.820000,0.180359,0.040000,44142267.110251,3919972401.400156,-3940231699.517710,7885295486.157668,0.073969,-0.074122,0.148564
-0.620000,-1.860000,0.140273,0.040000,125292837.589469,12835583513.674173,-12963897374.531569,3621674881.724958,0.242555,-0.243522,0.068234
-0.580000,-1.860000,0.140442,0.040000,127482453.052524,13180738775.508228,-13306859236.049065,-1820316130.184428,0.249046,-0.249996,-0.034296
-0.580000,-1.820000,0.180344,0.040000,84818331.786032,8840488245.261353,-8875781243.634588,-1214106484.996351,0.166759,-0.167025,-0.022874
-0.620000,-1.820000,0.180212,0.040000,83819164.380818,8566185738.657538,-8602858495.266466,2392755672.808645,0.161599,-0.161876,0.045081
-0.540000,-1.860000,0.140004,0.040000,108770587.353580,11376878919.240669,-11480651508.236217,-6879796454.286892,0.214934,-0.215716,-0.129619
-0.500000,-1.860000,0.140288,0.040000,72012687.256207,7791536044.143400,-7858015683.495303,-10771651585.753397,0.147173,-0.147674,-0.202944
-0.500000,-1.820000,0.180224,0.040000,46962154.460973,5269515244.222069,-5287636713.792265,-7233729570.396922,0.099383,-0.099520,-0.136288
-0.540000,-1.820000,0.180003,0.040000,71917860.515779,7665074897.049243,-7693634853.003438,-4601230744.192673,0.144576,-0.144791,-0.086690
-0.460000,-1.860000,0.140424,0.040000,22893700.546908,3036137451.564099,-3061026195.290726,-12935720545.231928,0.057343,-0.057531,-0.243716
-0.420000,-1.860000,0.140003,0.040000,-31050876.803990,-2120461397.503457,2141957280.510833,-13100836082.032223,-0.040072,0.040234,-0.246827
-0.420000,-1.820000,0.180002,0.040000,-22771882.061245,-1450597194.378838,1456769977.793592,-8862186304.242655,-0.027365,0.027412,-0.166969
-0.460000,-1.820000,0.180330,0.040000,13716494.702222,2060643486.936366,-2066554604.160857,-8720520827.482628,0.038857,-0.038902,-0.164300
-0.380000,-1.860000,0.140303,0.040000,-81636444.121895,-6904187179.239741,6967688709.807173,-11301834861.460503,-0.130438,0.130916,-0.212933
-0.340000,-1.860000,0.140405,0.040000,-121265087.116865,-10632630065.852242,10723893836.794546,-7852946121.199215,-0.200841,0.201529,-0.147954
-0.340000,-1.820000,0.180315,0.040000,-83736826.216758,-7298791180.687789,7322642422.675257,-5338473548.784321,-0.137648,0.137828,-0.100580
-0.380000,-1.820000,0.180236,0.040000,-56977408.441134,-4730281492.210959,4746778448.024668,-7667257245.927691,-0.089214,0.089339,-0.144456
-0.300000,-1.860000,0.140001,0.040000,-144021224.314676,-12784632014.949987,12891932023.884212,-3288618758.471260,-0.241476,0.242285,-0.061959
-0.260000,-1.860000,0.140319,0.040000,-146485438.384145,-13088525098.249233,13196889945.544573,1720471579.307059,-0.247208,0.248025,0.032415
-0.260000,-1.820000,0.180248,0.040000,-100424343.465985,-9019606741.416653,9046944346.781277,1189427892.896935,-0.170089,0.170295,0.022410
-0.300000,-1.820000,0.180001,0.040000,-99004938.516863,-8794864417.219704,8822393252.080746,-2233978685.722203,-0.165856,0.166063,-0.042089
-0.220000,-1.860000,0.140387,0.040000,-128171479.270870,-11531928186.893064,11627157784.604666,6463710036.548617,-0.217806,0.218524,0.121780
-0.180000,-1.860000,0.140000,0.040000,-91546368.752118,-8359666944.570004,8427353082.616445,10285311793.533384,-0.157884,0.158394,0.193781
-0.180000,-1.820000,0.180000,0.040000,-62323886.316171,-5767099958.553161,5783959636.496554,7069921136.127879,-0.108751,0.108878,0.133201
-0.220000,-1.820000,0.180301,0.040000,-87639586.271039,-7956540495.786340,7980099277.604349,4442440058.073395,-0.150039,0.150217,0.083698
-0.140000,-1.860000,0.140336,0.040000,-41648479.093345,-4022764517.823198,4054100246.684318,12667470687.952021,-0.075968,0.076204,0.238662
-0.100000,-1.860000,0.140370,0.040000,14633007.126013,882764133.408986,-887689289.938802,13292718437.172121,0.016660,-0.016697,0.250443
-0.100000,-1.820000,0.180288,0.040000,10825285.233364,634261844.158725,-635608368.687386,9139944844.722786,0.011957,-0.011968,0.172202
-0.140000,-1.820000,0.180261,0.040000,-27925338.731594,-2763840197.819204,2772027387.525282,8710120664.565878,-0.052119,0.052180,0.164104
-0.060000,-1.860000,0.140000,0.040000,69515164.477088,5673355736.716970,-5717521246.741002,12081100091.861015,0.107139,-0.107472,0.227615
-0.020000,-1.860000,0.140352,0.040000,115387383.200749,9702017716.493282,-9779715438.693089,9197282038.405943,0.183231,-0.183816,0.173282
-0.020000,-1.820000,0.180274,0.040000,80085967.378627,6751660235.608458,-6770082425.224260,6308397823.697791,0.127309,-0.127448,0.118854
-0.060000,-1.820000,0.180000,0.040000,48574704.729695,3958426795.307890,-3969008833.226312,8301634465.697977,0.074639,-0.074719,0.156408
0.020000,-1.860000,0.140352,0.040000,145848790.851505,12421943509.041054,-12520229964.915100,5027210972.590607,0.234592,-0.235333,0.094716
0.060000,-1.860000,0.140000,0.040000,156584720.403514,13446248384.895443,-13553723779.068680,129621444.599344,0.253943,-0.254753,0.002442
0.060000,-1.820000,0.180000,0.040000,108237806.453010,9323208551.544607,-9349638255.714037,52223307.358251,0.175804,-0.176003,0.000984
0.020000,-1.820000,0.180274,0.040000,100958794.930951,8628089516.446815,-8652022477.380436,3428832077.896043,0.162693,-0.162874,0.064601
0.100000,-1.860000,0.140370,0.040000,145970342.639012,12618520572.034395,-12721092224.899164,-4833871358.745492,0.238320,-0.239093,-0.091073
0.140000,-1.860000,0.140336,0.040000,115322067.046799,10024090025.904123,-10109133355.113024,-9182342358.636385,0.189340,-0.189981,-0.173001
0.140000,-1.820000,0.180261,0.040000,79670804.721489,6911993940.465502,-6933258793.818880,-6339502556.466039,0.130346,-0.130506,-0.119440
0.100000,-1.820000,0.180288,0.040000,100829318.295570,8729321961.498453,-8754865279.063179,-3361198926.375382,0.164610,-0.164802,-0.063327
0.180000,-1.860000,0.140000,0.040000,68758619.308130,5996712033.836675,-6049320183.737441,-12303587638.665600,0.113279,-0.113675,-0.231807
0.220000,-1.860000,0.140387,0.040000,12680894.625823,1062529096.945191,-1074835998.716876,-13736323472.316549,0.020088,-0.020181,-0.258800
0.220000,-1.820000,0.180301,0.040000,9121486.921311,684326799.265156,-688750582.418324,-9412308953.341089,0.012918,-0.012951,-0.177333
0.180000,-1.820000,0.180000,0.040000,47627135.877709,4105089822.142961,-4119062564.280334,-8461097140.222066,0.077421,-0.077527,-0.159412
0.260000,-1.860000,0.140319,0.040000,-45072777.543288,-4110993434.191138,4138313423.821866,-13236428329.051674,-0.077608,0.077814,-0.249382
0.300000,-1.860000,0.140001,0.040000,-96296236.665940,-8780121318.077459,8849178517.877798,-10820663033.765440,-0.165813,0.166333,-0.203868
0.300000,-1.820000,0.180001,0.040000,-65498286.317940,-6075778908.344207,6092595371.990656,-7346811818.934793,-0.114566,0.114693,-0.138418
0.260000,-1.820000,0.180248,0.040000,-30457246.562716,-2878447727.417680,2884733837.062174,-9033408117.671350,-0.054267,0.054315,-0.170195
0.340000,-1.860000,0.140405,0.040000,-133576054.804276,-12261169859.727402,12363618609.448606,-6777888324.060669,-0.231587,0.232359,-0.127699
0.380000,-1.860000,0.140303,0.040000,-151388524.653218,-14003864409.136673,14124460013.058788,-1644187800.463845,-0.264523,0.265431,-0.030977
0.380000,-1.820000,0.180236,0.040000,-103159076.228402,-9578987395.532904,9610499957.096880,-1059261097.312481,-0.180652,0.180889,-0.019957
0.340000,-1.820000,0.180315,0.040000,-90968491.729255,-8433403118.211415,8459105146.153947,-4562648887.591539,-0.159035,0.159229,-0.085963
0.420000,-1.860000,0.140003,0.040000,-146976774.429330,-13676627546.203636,13799020751.981438,3855483815.271442,-0.258367,0.259290,0.072640
0.460000,-1.860000,0.140424,0.040000,-120868844.192025,-11243185266.679428,11349113453.562428,8898339971.754293,-0.212427,0.213225,0.167650
0.460000,-1.820000,0.180330,0.040000,-82746012.279047,-7595566418.559344,7625132337.137566,6036928612.793804,-0.143272,0.143495,0.113739
0.420000,-1.820000,0.180002,0.040000,-100271165.088073,-9301946657.720778,9334999094.545307,2660925962.402854,-0.175441,0.175690,0.050133
0.500000,-1.860000,0.140288,0.040000,-76933524.389813,-6984611409.118264,7058502240.276601,12678768150.748629,-0.132012,0.132569,0.238875
0.540000,-1.860000,0.140004,0.040000,-21927266.245044,-1500906660.605333,1524126237.261897,14533837782.885334,-0.028409,0.028584,0.273826
0.540000,-1.820000,0.180003,0.040000,-16456082.025408,-953160489.055863,961045548.677059,9706694097.624609,-0.018003,0.018062,0.182880
0.500000,-1.820000,0.180224,0.040000,-53273834.695165,-4673231180.406175,4694178882.694123,8529556304.590991,-0.088165,0.088323,0.160702
0.580000,-1.860000,0.140442,0.040000,35443712.189638,4384481312.682308,-4418567744.955567,14061498310.788376,0.082799,-0.083056,0.264927
0.620000,-1.860000,0.140273,0.040000,85845269.018673,9710545238.983810,-9797378654.005896,11212967011.746910,0.183443,-0.184097,0.211259
0.620000,-1.820000,0.180212,0.040000,55457746.672619,6506074047.276252,-6530631575.471919,7369995322.380613,0.122717,-0.122902,0.138855
0.580000,-1.820000,0.180344,0.040000,21854340.233397,2990279729.381755,-2998347740.341314,9321434566.332590,0.056384,-0.056445,0.175621
0.660000,-1.860000,0.140006,0.040000,120846444.985465,13514676493.917707,-13647817273.246819,6342144119.872283,0.255377,-0.256380,0.119490
0.700000,-1.860000,0.140462,0.040000,134425389.671584,15035636313.083111,-15194606857.175306,192141020.250019,0.284179,-0.285377,0.003620
0.700000,-1.820000,0.180359,0.040000,88112393.581752,9892520323.378868,-9939785672.348244,76786020.810172,0.186648,-0.187004,0.001447
0.660000,-1.820000,0.180005,0.040000,78831647.023941,8969126029.430698,-9007782020.194891,4116801333.006183,0.169202,-0.169493,0.077563
0.740000,-1.860000,0.140258,0.040000,124184349.618197,13849074905.385799,-14006050289.715382,-6189539815.445146,0.261812,-0.262995,-0.116615
0.780000,-1.860000,0.140009,0.040000,92017100.737452,10004287176.346426,-10126139733.761589,-11606238590.731359,0.189175,-0.190094,-0.218668
0.780000,-1.820000,0.180007,0.040000,61429205.301107,6457992446.728303,-6496347408.739981,-7487001152.705596,0.121889,-0.122178,-0.141059
0.740000,-1.820000,0.180201,0.040000,81858001.483586,9031427705.007357,-9079124633.242592,-4049754906.086428,0.170427,-0.170786,-0.076300
0.820000,-1.860000,0.140481,0.040000,44029412.368312,4070619376.201734,-4130071735.199207,-14925398611.187437,0.077029,-0.077477,-0.281203
0.860000,-1.860000,0.140244,0.040000,-10377648.462853,-2890628001.663195,2910062458.757386,-15318924833.715723,-0.054571,0.054717,-0.288617
0.860000,-1.820000,0.180190,0.040000,-3737095.748765,-1865786240.184198,1872545374.377099,-9678556376.899370,-0.035191,0.035242,-0.182350
0.820000,-1.820000,0.180374,0.040000,30871966.177652,2586676446.539648,-2606079817.182892,-9526134589.847483,0.048844,-0.048990,-0.179478
0.900000,-1.860000,0.140012,0.040000,-60197888.125014,-9461197845.331873,9570475768.997736,-12487826402.379440,-0.178872,0.179696,-0.235278
0.940000,-1.860000,0.140501,0.040000,-95043195.488721,-14167440084.399040,14350449446.022966,-6815181830.953855,-0.267957,0.269336,-0.128402
0.940000,-1.820000,0.180390,0.040000,-57711238.217077,-8867665682.077787,8927599440.157070,-4218325924.261314,-0.167411,0.167862,-0.079476
0.900000,-1.820000,0.180009,0.040000,-35418007.706726,-5991814401.761115,6027215340.749784,-7809585701.076742,-0.113089,0.113356,-0.147137
0.980000,-1.860000,0.140230,0.040000,-107490569.943578,-15776820249.875311,15996575482.717867,607469152.449894,-0.298487,0.300143,0.011445
1.020000,-1.860000,0.140015,0.040000,-95024293.256631,-13653208510.588516,13858433145.860394,8122524126.644131,-0.258394,0.259941,0.153033
1.020000,-1.820000,0.180012,0.040000,-59259510.384919,-8362591722.971255,8431473733.777769,4908850572.029298,-0.157945,0.158465,0.092486
0.980000,-1.820000,0.180179,0.040000,-66123072.217905,-9765942174.904348,9839050597.182983,368425243.388351,-0.184409,0.184960,0.006941
1.060000,-1.860000,0.140522,0.040000,-61024678.824323,-8033978297.498063,8168767173.785213,13831372777.242821,-0.152127,0.153142,0.260591
1.100000,-1.860000,0.140216,0.040000,-14375484.992239,-128591489.615959,147561241.582394,16065298779.523012,-0.002530,0.002673,0.302680
1.100000,-1.820000,0.180168,0.040000,-11766234.356859,-125971250.542754,129235719.242340,9488435499.795670,-0.002392,0.002416,0.178768
1.060000,-1.820000,0.180406,0.040000,-39325761.182455,-4882416085.971580,4927065750.594881,8263902650.374204,-0.092240,0.092576,0.155697
1.140000,-1.860000,0.140018,0.040000,32461483.846341,8022492050.964042,-8148082278.362264,13910586325.456751,0.151858,-0.152805,0.262084
1.180000,-1.860000,0.140542,0.040000,66647506.219240,14046465483.607075,-14295227131.046618,7637844466.851561,0.266050,-0.267924,0.143901
1.180000,-1.820000,0.180422,0.040000,36489331.765614,8098308964.448790,-8186656102.796576,4451376190.505225,0.153076,-0.153742,0.083867
1.140000,-1.820000,0.180014,0.040000,15993286.274643,4663493805.999065,-4709478650.612018,8130976513.313090,0.088123,-0.088469,0.153192
1.220000,-1.860000,0.140203,0.040000,78725220.799571,15887271917.044853,-16192232975.652304,-1140130717.073729,0.301049,-0.303347,-0.021481
1.260000,-1.860000,0.140023,0.040000,65838931.214048,12589983882.213617,-12850867214.874363,-9733079184.166765,0.238677,-0.240643,-0.183377
1.260000,-1.820000,0.180018,0.040000,38184594.109654,7124593816.815961,-7214539718.420660,-5292503925.386842,0.134740,-0.135418,-0.099714
1.220000,-1.820000,0.180158,0.040000,44381666.929714,9060868306.204926,-9168050100.971569,-540293960.401019,0.171318,-0.172126,-0.010179
1.300000,-1.860000,0.140564,0.040000,33205306.085973,4886463511.220318,-4999525870.811682,-15116051302.146399,0.092703,-0.093555,-0.284795
1.340000,-1.860000,0.140190,0.040000,-7073042.748005,-4712833700.892673,4813368284.393249,-15024873458.486757,-0.089361,0.090118,-0.283077
1.340000,-1.820000,0.180148,0.040000,-749584.056616,-2368751464.370064,2411503465.055066,-8052105622.007413,-0.044870,0.045192,-0.151706
1.300000,-1.820000,0.180439,0.040000,20916290.658092,2825992891.435869,-2861125990.534968,-8169058556.292243,0.053442,-0.053707,-0.153910
1.380000,-1.860000,0.140027,0.040000,-39971451.287168,-12540311983.040152,12850767378.303822,-9062875177.311827,-0.238021,0.240361,-0.170750
1.420000,-1.860000,0.140585,0.040000,-53266107.895272,-15169118941.405746,15575743776.193201,696670230.906932,-0.288093,0.291158,0.013126
1.420000,-1.820000,0.180456,0.040000,-26773675.945661,-7815157514.060544,7957773039.653809,125368655.730229,-0.148048,0.149123,0.002362
1.380000,-1.820000,0.180021,0.040000,-18768017.400802,-6489065861.274617,6602983413.437362,-4883048290.710608,-0.122902,0.123760,-0.091999
1.460000,-1.860000,0.140178,0.040000,-42891678.372031,-11035695750.594807,11351569335.550758,10116402322.992338,-0.209704,0.212085,0.190599
1.500000,-1.860000,0.140032,0.040000,-15326562.546532,-1695538040.982689,1734093840.106413,14607819293.194626,-0.032163,0.032453,0.275220
1.500000,-1.820000,0.180025,0.040000,-9872693.980131,-1109248342.455944,1115135857.577989,7004189902.007191,-0.020932,0.020977,0.131963
1.460000,-1.820000,0.180139,0.040000,-22726101.227292,-5708243085.777431,5812786886.114622,4821134612.701241,-0.108138,0.108925,0.090833
1.540000,-1.860000,0.140607,0.040000,14877546.880934,8326457537.731839,-8624265707.396999,11525586465.250168,0.158559,-0.160803,0.217149
1.580000,-1.860000,0.140166,0.040000,32189075.492315,13456964631.484547,-13952388394.953650,2178633172.564339,0.256337,-0.260071,0.041047
1.580000,-1.820000,0.180129,0.040000,13707028.885503,6108253279.577436,-6277119433.155376,1325855904.815910,0.116037,-0.117310,0.024980
1.540000,-1.820000,0.180473,0.040000,4721841.927571,3688261465.693046,-3796496784.728919,5573014654.748265,0.070101,-0.070916,0.104999
1.620000,-1.860000,0.140037,0.040000,28715336.266135,10374883815.098488,-10762909330.609390,-8073188446.542600,0.197662,-0.200586,-0.152104
1.660000,-1.860000,0.140630,0.040000,9247258.896202,806885554.527079,-793084771.402829,-12562884599.367401,0.015124,-0.015020,-0.236692
1.660000,-1.820000,0.180490,0.040000,5710459.232867,734926895.882901,-723530030.035841,-5240247085.542491,0.013782,-0.013696,-0.098729
1.620000,-1.820000,0.180029,0.040000,13380543.172688,4807866300.749431,-4932289845.776826,-3224756901.000149,0.091286,-0.092224,-0.060756
1.700000,-1.860000,0.140155,0.040000,-11508116.957290,-8627105544.515209,9074628297.555765,-7984630675.608787,-0.165069,0.168442,-0.150435
1.740000,-1.860000,0.140043,0.040000,-19141446.824222,-10684475641.018387,11224511901.248886,2199299961.535222,-0.204354,0.208424,0.041436
1.740000,-1.820000,0.180034,0.040000,-7160718.052320,-4228944332.317965,4393448087.408387,414893560.258030,-0.080606,0.081845,0.007817
1.700000,-1.820000,0.180120,0.040000,-3134827.843482,-3229276927.944322,3375318441.276066,-3513376414.959950,-0.061667,0.062768,-0.066194
1.780000,-1.860000,0.140653,0.040000,-10531726.846730,-3753136344.268902,3884598817.690466,9408036370.781656,-0.071454,0.072445,0.177253
1.820000,-1.860000,0.140144,0.040000,3838006.687626,5557216558.566167,-5983665485.577040,7199413646.349458,0.107112,-0.110325,0.135641
1.820000,-1.820000,0.180112,0.040000,225465.132036,1580035143.786739,-1700524625.059646,2736019946.006845,0.030450,-0.031358,0.051548
1.780000,-1.820000,0.180508,0.040000,-4835122.764468,-1787127380.030579,1824116021.804591,3246841280.617414,-0.033880,0.034158,0.061172
1.860000,-1.860000,0.140049,0.040000,9986621.278340,7876059764.349092,-8388724898.816921,-1613740116.992342,0.151287,-0.155151,-0.030404
1.900000,-1.860000,0.140676,0.040000,4422467.214982,1375503140.065719,-1347239518.234742,-6849753448.658874,0.025756,-0.025543,-0.129053
1.900000,-1.820000,0.180526,0.040000,1938022.577009,813600938.056713,-815952296.612880,-1952664003.092830,0.015342,-0.015360,-0.036789
1.860000,-1.820000,0.180038,0.040000,3020437.214926,2639449600.751098,-2779333279.794380,-87601303.664428,0.050519,-0.051574,-0.001650
1.940000,-1.860000,0.140133,0.040000,-3317261.047892,-5105046214.284740,5575146121.453290,-2876062548.538492,-0.098839,0.102382,-0.054187
1.980000,-1.860000,0.140056,0.040000,-3779990.768560,-3252983296.511761,3416729841.665402,3436180347.401691,-0.062214,0.063448,0.064740
1.980000,-1.820000,0.180043,0.040000,-1068902.248362,-1053359033.502427,1106570880.049400,618044071.888956,-0.020147,0.020548,0.011644
1.940000,-1.820000,0.180104,0.040000,-411144.295523,-1223199910.886689,1331329383.939899,-1120027586.658300,-0.023657,0.024472,-0.021102
2.020000,-1.860000,0.140699,0.040000,499740.246819,2383481002.341458,-2676367971.252296,2795836221.983598,0.046562,-0.048769,0.052675
2.060000,-1.860000,0.140123,0.040000,1666000.712300,2121659350.512099,-2254823181.382260,-1549156827.314224,0.040726,-0.041730,-0.029187
2.060000,-1.820000,0.180096,0.040000,334808.331118,547481422.449075,-587925937.626645,-120839165.357064,0.010543,-0.010848,-0.002277
2.020000,-1.820000,0.180545,0.040000,-190377.677991,317100244.557695,-363555861.569145,799098373.533218,0.006237,-0.006587,0.015055
2.100000,-1.860000,0.140063,0.040000,-161513.631294,-1437638569.294816,1511374953.682465,-1284650762.880753,-0.027503,0.028058,-0.024204
2.140000,-1.860000,0.140724,0.040000,-444922.256279,-478562970.512665,581829508.037818,810913143.900418,-0.009600,0.010378,0.015278
2.140000,-1.820000,0.180563,0.040000,-70467.746132,-150021334.488360,176707147.392375,48609594.841153,-0.002977,0.003178,0.000916
2.100000,-1.820000,0.180049,0.040000,94534.198641,-115831342.268116,123837722.595336,-320202412.890602,-0.002228,0.002288,-0.006033
2.180000,-1.860000,0.140113,0.040000,137614.097738,680248375.109750,-700356372.945823,170420601.305920,0.012930,-0.013081,0.003211
2.220000,-1.860000,0.140070,0.040000,32669.360261,-472030024.716682,250319503.750467,-252534763.323518,-0.007640,0.005969,-0.004758
2.220000,-1.820000,0.180055,0.040000,14634.101846,-2415053.921462,-13071121.743916,-22565792.529398,0.000042,-0.000159,-0.000425
2.180000,-1.820000,0.180088,0.040000,-4948.061340,57377545.655692,-62004578.748107,73513541.801788,0.001107,-0.001142,0.001385
2.260000,-1.860000,0.140748,0.040000,-14057.510877,117372040.638101,-2209020.054478,87043143.088431,0.001560,-0.000693,0.001640
2.300000,-1.860000,0.140104,0.040000,7839.471427,34290257.060588,-39562159.025723,-8710600.736900,0.000676,-0.000716,-0.000164
2.300000,-1.820000,0.180081,0.040000,4649.630534,-2515209.022317,208370.011648,1792743.723645,-0.000034,0.000017,0.000034
2.260000,-1.820000,0.180582,0.040000,4189.076352,2949122.686916,8082173.578049,-4301464.533441,-0.000007,0.000090,-0.000081
2.340000,-1.860000,0.140078,0.040000,4992.558908,-18161611.230138,17061854.072638,-3903457.889233,-0.000336,0.000328,-0.000074
2.380000,-1.860000,0.120134,0.040000,5565.789286,21036965.738204,-70074382.736811,22827990.560397,0.000674,-0.001043,0.000430
2.380000,-1.820000,0.120817,0.040000,5134.955594,204466231.521306,-477379000.647894,-93953479.354694,0.005395,-0.007452,-0.001770
2.340000,-1.820000,0.160614,0.040000,4422.458130,12692099.718306,-14770232.186715,-529201.151069,0.000251,-0.000267,-0.000010
2.420000,-1.860000,0.080201,0.040000,-7037.806583,2659003596.660051,-4288715891.009335,373396384.891618,0.059309,-0.071590,0.007035
2.460000,-1.860000,0.040400,0.040000,306104.720372,14582322338.335781,-11376091471.006172,-7061587745.345917,0.256617,-0.232454,-0.133044
2.460000,-1.820000,0.042389,0.040000,-1984506.046224,-20193395192.672470,7086103832.269737,4161984547.381871,-0.306371,0.207591,0.078414
2.420000,-1.820000,0.081221,0.040000,110399.308957,-2187847670.838079,3616791449.004545,-4800224900.740394,-0.049297,0.060066,-0.090439
2.500000,-1.860000,0.005672,0.040000,-6546278.622807,26938273571.823212,12885093275.758024,-10403191151.569962,0.282444,0.017674,-0.196002
2.500000,-1.820000,0.014030,0.040000,-168328900.244580,3412688152.874410,-98019525115.737137,8946472986.164167,0.599031,-1.312010,0.168557
-2.500000,-1.780000,0.003881,0.040000,-328209456.452882,66211887726.669022,-152823750620.649597,-71642916130.709167,1.737016,-2.389743,-1.349794
-2.500000,-1.740000,0.006269,0.040000,-587910331.037248,211641507597.748810,-217210692421.307129,50064287461.893021,4.018927,-4.060897,0.943240
-2.460000,-1.780000,0.040188,0.040000,-5066926.302435,8312720525.960441,-105702430418.095032,-42268033302.139885,0.707080,-1.441031,-0.796354
-2.420000,-1.780000,0.080094,0.040000,326702.703126,7488703044.005512,-35196456818.247391,-16606801017.485786,0.297701,-0.506513,-0.312882
-2.420000,-1.740000,0.080245,0.040000,-538093.397147,17058698850.114496,-45260568446.901886,8982220800.765282,0.480798,-0.693333,0.169230
-2.460000,-1.740000,0.040488,0.040000,10947515.218941,38589256868.739334,-144350506936.913330,28806281856.540661,1.324825,-2.121866,0.542727
-2.380000,-1.780000,0.120063,0.040000,36129.038921,321140881.660556,-1171826814.164511,-48309234.361130,0.010859,-0.017270,-0.000910
-2.340000,-1.780000,0.160047,0.040000,8874.878941,5319458.032965,-24346551.288531,-17364934.228164,0.000208,-0.000351,-0.000327
-2.340000,-1.740000,0.160123,0.040000,5281.444387,42175080.754690,2744457.432195,26945962.834864,0.000541,-0.000202,0.000508
-2.380000,-1.740000,0.120164,0.040000,-115772.606230,1072500553.050213,-2385115780.371403,-68542339.965726,0.027626,-0.037518,-0.001291
-2.300000,-1.780000,0.200038,0.040000,10737.888735,1703210.914000,-1092461.989646,-970719.092316,0.000029,-0.000024,-0.000018
-2.260000,-1.780000,0.220477,0.040000,11623.854820,315788.326308,843769.656253,2104692.017617,-0.000001,0.000009,0.000040
-2.260000,-1.740000,0.240082,0.040000,11585.669161,-833871.645026,684922.767353,885162.110081,-0.000015,0.000014,0.000017
-2.300000,-1.740000,0.200098,0.040000,13112.384194,2039193.645584,32959.273580,8192274.904275,0.000027,-0.000011,0.000154
-2.220000,-1.780000,0.220045,0.040000,12483.774834,3241227.845747,-5127438.478078,1385935.646575,0.000072,-0.000086,0.000026
-2.180000,-1.780000,0.220072,0.040000,6103.866877,3965325.777090,-5117212.420821,-15308382.329134,0.000081,-0.000090,-0.000288
-2.180000,-1.740000,0.260061,0.040000,9715.234173,-2048164.314587,1754532.133155,-1966297.175250,-0.000037,0.000035,-0.000037
-2.220000,-1.740000,0.260038,0.040000,10839.650288,287885.327335,-780457.708681,-1071837.930405,0.000008,-0.000012,-0.000020
-2.140000,-1.780000,0.220461,0.040000,-1365.306910,-26637712.426499,34828281.423898,-6834006.020789,-0.000548,0.000610,-0.000129
-2.100000,-1.780000,0.220040,0.040000,37951.569307,-20515027.228373,23981541.647408,69945943.881084,-0.000406,0.000432,0.001318
-2.100000,-1.740000,0.260034,0.040000,22304.576974,6159206.800649,-4417606.581575,12884113.967619,0.000106,-0.000093,0.000243
-2.140000,-1.740000,0.260390,0.040000,12029.112666,-5801495.598953,7568205.966018,4128975.779417,-0.000119,0.000133,0.000078
-2.060000,-1.780000,0.220078,0.040000,90647.571426,101280546.734644,-119549911.380330,51640372.917287,0.002011,-0.002149,0.000973
-2.020000,-1.780000,0.220446,0.040000,-21958.539632,106678005.396854,-132085453.866142,-182078836.128012,0.002153,-0.002345,-0.003430
-2.020000,-1.740000,0.260377,0.040000,-25347.333636,9434699.725202,-17340192.109721,-52702070.895392,0.000222,-0.000282,-0.000993
-2.060000,-1.740000,0.260066,0.040000,20411.303974,33595584.265577,-37583600.226631,-3308415.318952,0.000656,-0.000686,-0.000062
-1.980000,-1.780000,0.220035,0.040000,-279034.810200,-187076847.468469,202891586.311063,-256036310.436988,-0.003614,0.003733,-0.004824
-1.940000,-1.780000,0.220085,0.040000,-240779.753336,-366283396.251642,436484514.005967,162971564.199249,-0.007298,0.007827,0.003070
-1.940000,-1.740000,0.260072,0.040000,-245.916426,-120224929.010233,136036144.355339,95106323.260458,-0.002354,0.002474,0.001792
-1.980000,-1.740000,0.260030,0.040000,-73626.426685,-88209195.112501,95806991.426753,-42610719.478014,-0.001705,0.001762,-0.000803
-1.900000,-1.780000,0.220431,0.040000,390153.999119,-12644998.252096,56669554.559575,609268200.591963,-0.000487,0.000819,0.011479
-1.860000,-1.780000,0.220031,0.040000,1084551.625547,540521975.080338,-628712189.863358,432565300.699201,0.010682,-0.011347,0.008150
-1.860000,-1.740000,0.260027,0.040000,375652.139526,277723705.121222,-281499076.490144,52711315.609810,0.005254,-0.005282,0.000993
-1.900000,-1.740000,0.260365,0.040000,223940.593184,46490095.533353,-51300909.332293,179239018.108769,0.000903,-0.000939,0.003377
-1.820000,-1.780000,0.220092,0.040000,815938.192007,762432860.834914,-903729086.530151,-370975307.006390,0.015163,-0.016228,-0.006989
-1.780000,-1.780000,0.220416,0.040000,-757064.993390,227630142.256507,-262350250.672962,-1238719857.579437,0.004485,-0.004747,-0.023338
-1.780000,-1.740000,0.260352,0.040000,-521555.571002,-3955439.968883,-31676297.127444,-437912920.803034,0.000127,-0.000395,-0.008251
-1.820000,-1.740000,0.260077,0.040000,135618.313640,305594052.489754,-319536544.172194,-183356336.594766,0.005836,-0.005941,-0.003455
-1.740000,-1.780000,0.220027,0.040000,-2593741.197449,-950716778.445897,1031074652.995620,-1122427216.566305,-0.018366,0.018972,-0.021147
-1.700000,-1.780000,0.220099,0.040000,-2928926.973158,-1483236826.504450,1687717215.938630,186925812.265098,-0.029101,0.030642,0.003522
-1.700000,-1.740000,0.260083,0.040000,-1016107.378131,-742795652.431371,774193918.568970,225373568.357594,-0.014172,0.014409,0.004246
-1.740000,-1.740000,0.260023,0.040000,-1130662.360582,-513708258.681675,545507441.151972,-347958675.760678,-0.009858,0.010098,-0.006556
-1.660000,-1.780000,0.220401,0.040000,-757145.978209,-949637186.053471,1136947407.873016,1517222013.842730,-0.018950,0.020362,0.028585
-1.620000,-1.780000,0.220024,0.040000,3145194.534687,217521401.934774,-260694056.714767,2210562825.656130,0.004342,-0.004668,0.041648
-1.620000,-1.740000,0.260020,0.040000,1887626.211318,269413378.586276,-221307394.209483,871314578.932854,0.004804,-0.004441,0.016416
-1.660000,-1.740000,0.260340,0.040000,135525.378366,-424065503.427606,420963943.883257,653861311.412531,-0.007972,0.007949,0.012319
-1.580000,-1.780000,0.220106,0.040000,6494072.219808,1847240295.609691,-2009073641.698984,1569149127.859031,0.035718,-0.036937,0.029564
-1.540000,-1.780000,0.220387,0.040000,6858984.941095,2394913103.187797,-2670786731.568873,-390967669.274247,0.046681,-0.048760,-0.007366
-1.540000,-1.740000,0.260327,0.040000,2971683.186365,1347870678.798085,-1385047055.898268,-368129848.649428,0.025605,-0.025885,-0.006936
-1.580000,-1.740000,0.260090,0.040000,3189057.869806,1063908696.804011,-1112888293.820929,591942552.613998,0.020321,-0.020691,0.011153
-1.500000,-1.780000,0.220020,0.040000,3176831.242458,1672185010.002175,-1925575591.378127,-2112893764.834601,0.032937,-0.034847,-0.039808
-1.460000,-1.780000,0.220113,0.040000,-3504830.458285,277959630.155034,-274008649.354639,-3247277386.676034,0.005215,-0.005185,-0.061181
-1.460000,-1.740000,0.260096,0.040000,-2639835.933961,-4761945.525658,-67738972.251793,-1520524580.691410,0.000320,-0.000866,-0.028648
-1.500000,-1.740000,0.260017,0.040000,828819.610129,910183167.880006,-899048233.365788,-1016651658.596767,0.017085,-0.017002,-0.019154
-1.420000,-1.780000,0.220373,0.040000,-10420408.168439,-1917853093.334790,2027865998.968687,-2911374333.385110,-0.036755,0.037584,-0.054852
-1.380000,-1.780000,0.220017,0.040000,-14331508.639915,-3061415366.307844,3381940061.477945,-1035292247.966817,-0.059491,0.061906,-0.019506
-1.380000,-1.740000,0.260015,0.040000,-7641591.664070,-1948688031.777051,1949999249.742785,-303345591.339373,-0.036722,0.036732,-0.005715
-1.420000,-1.740000,0.260316,0.040000,-6010518.260227,-1211644147.904536,1276834592.814989,-1345812768.219142,-0.023197,0.023688,-0.025356
-1.340000,-1.780000,0.220121,0.040000,-12966711.544101,-3265330799.125762,3605639770.175694,1035899764.908391,-0.063444,0.066009,0.019517
-1.300000,-1.780000,0.220359,0.040000,-6007530.470926,-2363194464.426477,2546420939.812632,3323533725.132422,-0.045560,0.046940,0.062617
-1.300000,-1.740000,0.260304,0.040000,-2186133.004672,-1377550791.750099,1457726535.274189,1832488485.456615,-0.026407,0.027011,0.034525
-1.340000,-1.740000,0.260103,0.040000,-6400802.513784,-2026030265.998406,2036594216.547255,583576704.384704,-0.038231,0.038311,0.010995
-1.260000,-1.780000,0.220014,0.040000,4738708.908429,-94185989.878672,207740366.127587,4258421080.399889,-0.002416,0.003272,0.080231
-1.220000,-1.780000,0.220129,0.040000,15964453.042738,1743559586.078861,-1947615584.655393,3883524541.632380,0.034003,-0.035541,0.073168
-1.220000,-1.740000,0.260109,0.040000,10189098.641791,1290509914.630551,-1222764682.724034,1966997497.925169,0.023931,-0.023421,0.037059
-1.260000,-1.740000,0.260012,0.040000,3963950.184347,-19107578.803808,-50563997.556422,2226461252.428333,0.000034,-0.000559,0.041948
-1.180000,-1.780000,0.220346,0.040000,23981324.806006,3717989555.659046,-3978190558.847058,2470718396.835619,0.071520,-0.073481,0.046550
-1.140000,-1.780000,0.220012,0.040000,25907087.916630,4315267939.157163,-4677001008.336725,-185566542.745574,0.083347,-0.086073,-0.003496
-1.140000,-1.740000,0.260010,0.040000,15004071.045213,2903562780.766349,-2920726792.607693,-305311125.402385,0.054802,-0.054931,-0.005752
-1.180000,-1.740000,0.260292,0.040000,14411855.847127,2478223076.575527,-2539599361.874281,1302976757.455357,0.047038,-0.047501,0.024549
-1.100000,-1.780000,0.220138,0.040000,20539143.991742,3748558648.379405,-4102004532.721481,-2356902307.559876,0.072623,-0.075286,-0.044405
-1.060000,-1.780000,0.220332,0.040000,8688489.822898,2468656972.207425,-2608690572.219627,-4457856428.707672,0.047302,-0.048358,-0.083989
-1.060000,-1.740000,0.260281,0.040000,3802779.085075,1567899632.558507,-1654950564.877631,-2622632358.674829,0.030032,-0.030688,-0.049412
-1.100000,-1.740000,0.260117,0.040000,11298332.740679,2534109317.900232,-2510316151.927874,-1334028838.548146,0.047610,-0.047430,-0.025134
-1.020000,-1.780000,0.220009,0.040000,-7061996.781677,-67811422.784109,-30155254.986603,-5178713424.899158,-0.000724,-0.000014,-0.097570
-0.980000,-1.780000,0.220146,0.040000,-23049223.457558,-1957812735.534321,2169912501.848020,-4702432437.992157,-0.038085,0.039684,-0.088597
-0.980000,-1.740000,0.260124,0.040000,-15639070.615137,-1495790918.143242,1414473483.607811,-2649123266.320386,-0.027722,0.027109,-0.049911
-1.020000,-1.740000,0.260008,0.040000,-5918296.967878,-49967562.566108,137259582.084011,-2967321155.489836,-0.001435,0.002093,-0.055906
-0.940000,-1.780000,0.220319,0.040000,-35448957.523935,-4095511446.639668,4335859541.214311,-3355265539.741300,-0.078520,0.080332,-0.063215
-0.900000,-1.780000,0.220007,0.040000,-41177255.080404,-4915857685.678706,5288157104.679432,-786158477.395441,-0.094722,0.097528,-0.014812
-0.900000,-1.740000,0.260006,0.040000,-26155165.895195,-3514918161.273314,3504638979.751407,-293330959.749622,-0.066165,0.066088,-0.005527
-0.940000,-1.740000,0.260270,0.040000,-23018820.160623,-2876816044.722661,2942549973.018789,-1973182774.944689,-0.054572,0.055068,-0.037176
-0.860000,-1.780000,0.220155,0.040000,-38569056.436317,-4854884946.954473,5226545888.642535,1417489786.599055,-0.093570,0.096370,0.026706
-0.820000,-1.780000,0.220306,0.040000,-27707471.421143,-3978825757.355659,4208984079.080843,3930649954.352911,-0.076264,0.077999,0.074056
-0.820000,-1.740000,0.260259,0.040000,-16656886.742804,-2780906110.364069,2848821140.427998,2501406728.498981,-0.052778,0.053290,0.047128
-0.860000,-1.740000,0.260131,0.040000,-24014936.212851,-3471865494.307519,3455772644.129216,830189305.132487,-0.065321,0.065200,0.015641
-0.780000,-1.780000,0.220006,0.040000,-10368905.721582,-1829692263.021439,2045234351.469079,5242532207.069775,-0.035691,0.037315,0.098772
-0.740000,-1.780000,0.220164,0.040000,10368160.322289,19928276.964471,-98256671.705370,5813194689.919709,0.000818,-0.001408,0.109524
-0.740000,-1.740000,0.260139,0.040000,8332611.869411,132051619.105687,-34165074.435072,3568582212.476062,0.001935,-0.001197,0.067234
-0.780000,-1.740000,0.260005,0.040000,-5215443.235624,-1347885569.852717,1262655273.005165,3182965599.271392,-0.024913,0.024271,0.059969
-0.700000,-1.780000,0.220294,0.040000,30743725.048846,2626433144.959857,-2715075163.529387,5323370082.853498,0.049985,-0.050653,0.100295
-0.660000,-1.780000,0.220004,0.040000,47029773.446587,4112348042.951155,-4434177327.349976,3623455076.771577,0.079298,-0.081723,0.068268
-0.660000,-1.740000,0.260003,0.040000,32028239.573909,3094687319.081513,-3031720566.005860,2143572426.356519,0.057950,-0.057475,0.040386
-0.700000,-1.740000,0.260249,0.040000,21556238.815984,1889918267.464658,-1978465579.507947,3312334762.070874,0.036108,-0.036775,0.062406
-0.620000,-1.780000,0.220174,0.040000,56200215.041304,5380309922.451235,-5703416221.577868,1743500842.693038,0.103194,-0.105629,0.032849
-0.580000,-1.780000,0.220282,0.040000,56444185.448050,5532953918.348906,-5878788178.635141,-1017212196.866010,0.106199,-0.108805,-0.019165
-0.580000,-1.740000,0.260238,0.040000,37570094.908947,4088275061.859129,-4099363593.010652,-783484788.657797,0.077088,-0.077172,-0.014761
-0.620000,-1.740000,0.260147,0.040000,37764783.597289,3959823141.018359,-3987791879.884979,1140569598.651958,0.074763,-0.074974,0.021489
-0.540000,-1.780000,0.220003,0.040000,47448446.063044,4685389768.077337,-5030134991.704101,-3020787871.703320,0.090224,-0.092822,-0.056913
-0.500000,-1.780000,0.220183,0.040000,30419871.615194,3456616098.179289,-3609649360.887046,-5068699470.875290,0.065990,-0.067143,-0.095497
-0.500000,-1.740000,0.260155,0.040000,19556226.063678,2499070609.667431,-2576855900.880176,-3311525937.555851,0.047524,-0.048110,-0.062391
-0.540000,-1.740000,0.260002,0.040000,31233623.298498,3508324341.617462,-3457203850.020516,-1866832518.478612,0.065810,-0.065425,-0.035172
-0.460000,-1.780000,0.220270,0.040000,7862723.309019,1077660854.360806,-1234111375.071309,-5962478240.780091,0.021188,-0.022367,-0.112337
-0.420000,-1.780000,0.220002,0.040000,-16838587.424624,-749277068.487845,875413926.733585,-6086276532.329717,-0.014830,0.015780,-0.114669
-0.420000,-1.740000,0.260001,0.040000,-12528256.461814,-659366311.218597,560501140.884873,-3890967230.184544,-0.011864,0.011119,-0.073308
-0.460000,-1.740000,0.260228,0.040000,4211275.881458,854832581.627330,-758216807.798687,-3801185631.808981,0.015559,-0.014831,-0.071617
-0.380000,-1.780000,0.220193,0.040000,-39956152.945173,-3213237463.012684,3331927998.028193,-5379340035.658593,-0.061210,0.062105,-0.101350
-0.340000,-1.780000,0.220258,0.040000,-57988461.689732,-4562898465.962194,4889108638.432502,-3556162430.957361,-0.087811,0.090270,-0.067000
-0.340000,-1.740000,0.260218,0.040000,-40276846.124129,-3499437912.423720,3435356264.308965,-2198070946.524096,-0.065569,0.065086,-0.041413
-0.380000,-1.740000,0.260163,0.040000,-28147865.461431,-2373496131.699794,2455885427.657122,-3503934557.046530,-0.045184,0.045805,-0.066016
-0.300000,-1.780000,0.220001,0.040000,-68179198.484484,-5699979095.211711,6021362651.117640,-1692796620.335471,-0.109207,0.111629,-0.031893
-0.260000,-1.780000,0.220203,0.040000,-68913493.183663,-5822112497.064692,6161911298.183177,1012240817.157519,-0.111613,0.114173,0.019071
-0.260000,-1.740000,0.260172,0.040000,-47346516.048003,-4397172960.480485,4403255874.703604,782093413.695842,-0.082880,0.082926,0.014735
-0.300000,-1.740000,0.260001,0.040000,-47042980.110655,-4294267766.267536,4313908138.212789,-1167567521.971133,-0.081018,0.081166,-0.021998
-0.220000,-1.780000,0.220247,0.040000,-59941213.793457,-5017461238.638106,5361173842.663495,2975394705.062003,-0.096475,0.099065,0.056058
-0.180000,-1.780000,0.220000,0.040000,-42402791.662645,-3861329363.892166,4027838395.251738,5061072114.223370,-0.073691,0.074946,0.095354
-0.180000,-1.740000,0.260000,0.040000,-28836794.114577,-2861375520.318999,2934606674.716034,3381307283.657472,-0.054324,0.054876,0.063706
-0.220000,-1.740000,0.260209,0.040000,-41017323.377691,-3832259960.510695,3778266021.285608,1873266573.909710,-0.071897,0.071490,0.035293
-0.140000,-1.780000,0.220214,0.040000,-18660250.982137,-1570091830.955966,1749067874.767354,6053059335.586728,-0.030593,0.031942,0.114043
-0.100000,-1.780000,0.220235,0.040000,8038687.524623,230153717.710811,-326567754.130047,6391869420.897456,0.004881,-0.005608,0.120427
-0.100000,-1.740000,0.260199,0.040000,5988264.382321,264402573.054335,-162930417.266805,4174546342.577282,0.004408,-0.003643,0.078651
-0.140000,-1.740000,0.260181,0.040000,-12425032.367746,-1249927018.731639,1152566917.051782,3933193095.469178,-0.022999,0.022265,0.074104
-0.060000,-1.780000,0.220000,0.040000,34015034.917835,2769569454.197364,-2851917470.447138,5881396431.449711,0.052646,-0.053266,0.110809
-0.020000,-1.780000,0.220224,0.040000,55669238.487922,4248126879.776512,-4556773801.976785,4287296068.915938,0.081782,-0.084108,0.080775
-0.020000,-1.740000,0.260190,0.040000,38766329.461606,3293578400.161245,-3218090365.472654,2722233769.719427,0.061626,-0.061057,0.051288
-0.060000,-1.740000,0.260000,0.040000,23876087.451185,2050947414.809297,-2138458694.537892,3886410559.675137,0.039136,-0.039795,0.073222
0.020000,-1.780000,0.220224,0.040000,69979919.981468,5673854919.520982,-5975697265.915622,2539358068.632782,0.108605,-0.110880,0.047843
0.060000,-1.780000,0.220000,0.040000,74924679.169053,6034815059.676338,-6392556178.316216,-152584616.391134,0.115721,-0.118417,-0.002875
0.060000,-1.740000,0.260000,0.040000,51952649.874576,4592112803.081430,-4583864477.357512,-215755897.431505,0.086471,-0.086409,-0.004065
0.020000,-1.740000,0.260190,0.040000,48586210.095253,4293269840.194751,-4323551560.819725,1742462827.512040,0.081059,-0.081287,0.032829
0.100000,-1.780000,0.220235,0.040000,69767094.068706,5564708726.493348,-5927253859.787126,-2218009453.579660,0.106892,-0.109624,-0.041789
0.140000,-1.780000,0.220214,0.040000,55170777.493722,4593058386.810205,-4807789544.365381,-4577694188.628332,0.087750,-0.089368,-0.086246
0.140000,-1.740000,0.260181,0.040000,38303857.314513,3432094474.781809,-3497086460.517256,-3075225384.563955,0.065030,-0.065520,-0.057939
0.100000,-1.740000,0.260199,0.040000,48369428.191212,4254761496.733277,-4210943102.038932,-1368771318.743173,0.079915,-0.079584,-0.025788
0.180000,-1.780000,0.220000,0.040000,33122906.288802,2440366795.862684,-2668050393.710571,-5850684826.365966,0.047265,-0.048981,-0.110230
0.220000,-1.780000,0.220247,0.040000,6673757.868036,629928013.421708,-580486189.296366,-6583831495.602755,0.011589,-0.011216,-0.124043
0.220000,-1.740000,0.260209,0.040000,4951077.267059,393478197.539951,-497535880.455372,-4296888048.636448,0.008002,-0.008786,-0.080956
0.180000,-1.740000,0.260000,0.040000,23131061.904222,1914634177.680965,-1819219529.868769,-3779216186.791035,0.035534,-0.034814,-0.071203
0.260000,-1.780000,0.220203,0.040000,-20477149.038546,-2071919866.827410,2109136314.558880,-6340367101.398979,-0.039247,0.039527,-0.119456
0.300000,-1.780000,0.220001,0.040000,-44496443.086611,-3746102317.233817,4041262926.367554,-4985063537.621913,-0.072247,0.074471,-0.093921
0.300000,-1.740000,0.260001,0.040000,-30201284.361530,-2894648348.015144,2809509991.530183,-3164018765.195504,-0.054056,0.053414,-0.059612
0.260000,-1.740000,0.260172,0.040000,-13699062.295860,-1498994820.381070,1595229225.561782,-4153242530.195979,-0.028786,0.029511,-0.078249
0.340000,-1.780000,0.220258,0.040000,-61966101.115222,-5501753561.385159,5793049033.019449,-3301207253.844795,-0.105303,0.107498,-0.062197
0.380000,-1.780000,0.220193,0.040000,-70390612.233813,-6082551558.330599,6465110377.826103,-541119972.756078,-0.116761,0.119644,-0.010195
0.380000,-1.740000,0.260163,0.040000,-48110027.987054,-4585791189.665768,4570020517.982291,-246668553.933056,-0.086310,0.086191,-0.004647
0.340000,-1.740000,0.260218,0.040000,-42232800.490570,-4112381565.441466,4156511894.693800,-2227181086.854553,-0.077729,0.078062,-0.041961
0.420000,-1.780000,0.220002,0.040000,-68587503.526985,-5839853351.406291,6227144373.917368,1680466900.543367,-0.112215,0.115134,0.031661
0.460000,-1.780000,0.220270,0.040000,-56897957.396835,-4933178347.478381,5181981670.807480,4295816604.906300,-0.094350,0.096225,0.080936
0.460000,-1.740000,0.260228,0.040000,-39300038.004494,-3644562068.870635,3710101449.861636,2821786832.958038,-0.069036,0.069530,0.053164
0.420000,-1.740000,0.260001,0.040000,-47049012.197680,-4405673130.738068,4371494144.900155,972316753.199233,-0.082812,0.082555,0.018319
0.500000,-1.780000,0.220183,0.040000,-37175346.886013,-2739700154.935265,2994298140.860116,5758007140.462735,-0.053057,0.054975,0.108484
0.540000,-1.780000,0.220003,0.040000,-12538865.301883,-814994483.820607,770824317.548738,6630559863.833168,-0.015105,0.014772,0.124924
0.540000,-1.740000,0.260002,0.040000,-9643812.630172,-535405457.374825,643648091.541306,4206550953.792078,-0.010699,0.011515,0.079254
0.500000,-1.740000,0.260155,0.040000,-26129607.337178,-2121743698.664476,2026529742.019285,3609566967.440163,-0.039437,0.038719,0.068006
0.580000,-1.780000,0.220282,0.040000,13085944.828835,2073136434.253063,-2118648033.959706,6377378059.171411,0.039316,-0.039659,0.120153
0.620000,-1.780000,0.220174,0.040000,35582345.948292,3854176583.034413,-4179736839.390596,4850510635.315238,0.074455,-0.076909,0.091386
0.620000,-1.740000,0.260147,0.040000,22654001.235594,2889828499.849134,-2809221242.713190,2982372925.131150,0.053990,-0.053383,0.056190
0.580000,-1.740000,0.260238,0.040000,7528936.234903,1443584550.735764,-1545191303.419620,4058771565.697375,0.027772,-0.028538,0.076470
0.660000,-1.780000,0.220004,0.040000,51324446.624164,5601094901.488718,-5934241306.940776,2933569814.506876,0.107411,-0.109922,0.055270
0.700000,-1.780000,0.220294,0.040000,57815899.640503,6039692213.268923,-6444564444.550117,-123377665.960560,0.116080,-0.119131,-0.002325
0.700000,-1.740000,0.260249,0.040000,37971435.883632,4410065226.288500,-4414378316.666192,-145665626.852852,0.083113,-0.083145,-0.002744
0.660000,-1.740000,0.260003,0.040000,33343463.808967,4067848070.649919,-4113165332.228175,1954436321.793257,0.076897,-0.077238,0.036823
0.740000,-1.780000,0.220164,0.040000,54169039.141273,5383048558.898149,-5789100947.750950,-2501571450.535740,0.103715,-0.106775,-0.047131
0.780000,-1.780000,0.220006,0.040000,41321903.856519,4080723817.543113,-4281747063.844869,-5030023364.620150,0.078019,-0.079534,-0.094769
0.780000,-1.740000,0.260005,0.040000,27981741.697406,2909653261.577901,-2997965873.444542,-3092657157.286398,0.055319,-0.055984,-0.058267
0.740000,-1.740000,0.260139,0.040000,35975732.100973,3958175496.377916,-3915797939.527611,-1393124045.066286,0.074335,-0.074015,-0.026247
0.820000,-1.780000,0.220306,0.040000,21925652.851098,1354761150.675285,-1537758471.237050,-6166648886.447313,0.026559,-0.027938,-0.116183
0.860000,-1.780000,0.220155,0.040000,-110517.370802,-825133765.528339,992302606.485244,-6235847275.975762,-0.016491,0.017751,-0.117487
0.860000,-1.740000,0.260131,0.040000,1666039.489616,-623293777.612082,519339929.386819,-3710847906.801830,-0.011156,0.010372,-0.069915
0.820000,-1.740000,0.260259,0.040000,15709969.827919,1093859530.351516,-989554403.442979,-3672833113.032008,0.020019,-0.019233,-0.069198
0.900000,-1.780000,0.220007,0.040000,-20362127.036037,-3631295204.048398,3828699174.348013,-5157341068.570281,-0.069531,0.071019,-0.097167
0.940000,-1.780000,0.220319,0.040000,-34795401.801511,-4992762701.136779,5413360657.372608,-2561510860.543239,-0.096444,0.099614,-0.048260
0.940000,-1.740000,0.260270,0.040000,-20788206.582393,-3511596530.617633,3480338098.617062,-1472877758.170151,-0.065984,0.065748,-0.027750
0.900000,-1.740000,0.260006,0.040000,-11344090.861606,-2460849362.232679,2553754338.879106,-3158273947.690845,-0.046889,0.047589,-0.059504
0.980000,-1.780000,0.220146,0.040000,-40655662.277978,-5558894133.650838,5988982418.880646,-19357096.917166,-0.107164,0.110405,-0.000365
1.020000,-1.780000,0.220009,0.040000,-37131016.728793,-4877626607.703648,5197445826.169182,3148995350.192113,-0.093705,0.096115,0.059329
1.020000,-1.740000,0.260008,0.040000,-23340283.728078,-3355586681.742410,3425569857.572610,1798636869.961948,-0.063617,0.064144,0.033887
0.980000,-1.740000,0.260124,0.040000,-24954074.565231,-3876528502.634912,3886025325.124760,-209757177.560189,-0.073090,0.073161,-0.003952
1.060000,-1.780000,0.220332,0.040000,-25603257.893311,-2601170984.779978,2880057599.341326,4951205049.855487,-0.050584,0.052686,0.093284
1.100000,-1.780000,0.220138,0.040000,-9370271.290743,-413771729.908502,327122204.359504,5763181936.080671,-0.007306,0.006653,0.108582
1.100000,-1.740000,0.260117,0.040000,-7259675.559447,-286873414.509725,386478713.556993,3190593040.335746,-0.005968,0.006718,0.060113
1.060000,-1.740000,0.260281,0.040000,-16782892.366404,-1917828193.600274,1834073697.794639,2674165775.674996,-0.035660,0.035028,0.050383
1.140000,-1.780000,0.220012,0.040000,7154268.601650,2593679391.265015,-2747690867.337454,5024761946.246937,0.049737,-0.050898,0.094669
1.180000,-1.780000,0.220346,0.040000,19608510.961661,4120460618.769333,-4534775113.166524,2582015905.951409,0.079974,-0.083096,0.048647
1.180000,-1.740000,0.260292,0.040000,10258504.266834,2701266570.540087,-2681310861.927677,1414388010.325992,0.050781,-0.050630,0.026648
1.140000,-1.740000,0.260010,0.040000,2609344.064540,1581383286.870574,-1684757105.247297,2851278348.190341,0.030378,-0.031158,0.053720
1.220000,-1.780000,0.220129,0.040000,24922242.405624,4708215371.381411,-5133738918.940898,-811589.705079,0.091111,-0.094317,-0.000015
1.260000,-1.780000,0.220014,0.040000,22253852.973579,3873137542.263039,-4152817611.164053,-3042334246.204669,0.074553,-0.076661,-0.057319
1.260000,-1.740000,0.260012,0.040000,12981437.946308,2505662769.424676,-2583923696.054113,-1526181313.151915,0.047650,-0.048240,-0.028754
1.220000,-1.740000,0.260109,0.040000,13888865.142982,3079069420.302366,-3101423165.253535,238787991.890190,0.058138,-0.058306,0.004499
1.300000,-1.780000,0.220359,0.040000,13277511.748911,1389433000.891837,-1579362051.181263,-4487073442.958805,0.027251,-0.028683,-0.084539
1.340000,-1.780000,0.220121,0.040000,1635980.077353,-775045459.221400,970061434.511710,-4443102911.683779,-0.015705,0.017174,-0.083711
1.340000,-1.740000,0.260103,0.040000,2198596.328891,-421362219.649449,356049860.751910,-2218425440.070286,-0.007570,0.007077,-0.041796
1.300000,-1.740000,0.260304,0.040000,8427811.018373,1063986563.319245,-982857595.146773,-2182758354.601029,0.019588,-0.018976,-0.041124
1.380000,-1.780000,0.220017,0.040000,-8347497.218750,-3088508903.942322,3370891025.010004,-2920085237.758016,-0.059785,0.061913,-0.055016
1.420000,-1.780000,0.220373,0.040000,-13289372.367914,-3649618820.464592,4029867135.495812,8627230.985328,-0.070910,0.073776,0.000163
1.420000,-1.740000,0.260316,0.040000,-6450136.798454,-2176096120.663980,2215306751.572774,-87852626.516665,-0.041221,0.041516,-0.001655
1.380000,-1.740000,0.260015,0.040000,-3372547.096115,-1765038953.117800,1850270524.818136,-1604295616.486750,-0.033736,0.034378,-0.030226
1.460000,-1.780000,0.220113,0.040000,-12067016.679967,-2619803977.859621,2932421579.368752,2209686991.685903,-0.051126,0.053482,0.041632
1.500000,-1.780000,0.220020,0.040000,-6222863.798774,-895216891.289544,879293816.902151,3502979647.181687,-0.016776,0.016656,0.065998
1.500000,-1.740000,0.260017,0.040000,-3816726.131406,-599516478.414140,663262840.613772,1538004849.114902,-0.011656,0.012136,0.028977
1.460000,-1.740000,0.260096,0.040000,-6368788.127632,-1665748852.632251,1644615873.959331,813934475.240148,-0.031264,0.031105,0.015335
1.540000,-1.780000,0.220387,0.040000,840076.475094,1493762127.904449,-1644646654.426710,2923961859.552731,0.028996,-0.030133,0.055089
1.580000,-1.780000,0.220106,0.040000,5590653.354491,2425523403.293585,-2749135680.865958,756296788.012317,0.047527,-0.049966,0.014249
1.580000,-1.740000,0.260090,0.040000,2103921.199552,1284040831.229036,-1310523266.855095,421187246.436183,0.024342,-0.024541,0.007935
1.540000,-1.740000,0.260327,0.040000,-419400.998890,668762320.310831,-753001724.428138,1371406935.044417,0.013076,-0.013711,0.025838
1.620000,-1.780000,0.220024,0.040000,6184290.261592,1972194110.465861,-2235811544.699898,-1176503725.333059,0.038647,-0.040634,-0.022166
1.660000,-1.780000,0.220401,0.040000,3321888.330959,651106929.430036,-638660637.768994,-2293107485.083023,0.012197,-0.012103,-0.043203
1.660000,-1.740000,0.260340,0.040000,1829747.658393,428627323.646637,-469233102.917071,-858865002.998147,0.008305,-0.008611,-0.016182
1.620000,-1.740000,0.260020,0.040000,2791194.803027,1137184485.544421,-1140535093.085424,-280125541.313156,0.021444,-0.021469,-0.005278
1.700000,-1.780000,0.220099,0.040000,-439366.490080,-1069155515.287418,1213882128.255326,-1715667105.314105,-0.020962,0.022052,-0.032324
1.740000,-1.780000,0.220027,0.040000,-2539496.849611,-1486985526.869789,1704005154.681654,-3086150.778844,-0.029242,0.030878,-0.000058
1.740000,-1.740000,0.260023,0.040000,-802878.697045,-694649899.028680,725489364.706774,-99866594.127842,-0.013262,0.013494,-0.001882
1.700000,-1.740000,0.260083,0.040000,260744.169877,-400534820.155974,462141119.769512,-732380894.488239,-0.007895,0.008359,-0.013798
1.780000,-1.780000,0.220416,0.040000,-2143831.066843,-715397808.643084,826068564.110225,1104927644.318413,-0.014104,0.014938,0.020817
1.820000,-1.780000,0.220092,0.040000,-422585.917969,243178750.284528,-346907100.257855,1088054599.713307,0.005168,-0.005950,0.020500
1.820000,-1.740000,0.260077,0.040000,-359646.307014,27714892.739158,-23072372.582266,369779069.951150,0.000496,-0.000461,0.006967
1.780000,-1.740000,0.260352,0.040000,-897863.334389,-432577828.887583,421962804.952507,270437824.637000,-0.008090,0.008010,0.005095
1.860000,-1.780000,0.220031,0.040000,806315.003608,767190526.180864,-900422541.637530,214137302.897644,0.015207,-0.016211,0.004034
1.900000,-1.780000,0.220431,0.040000,765386.177911,402460921.685874,-433871313.913329,-574967642.060380,0.007760,-0.007997,-0.010833
1.900000,-1.740000,0.260365,0.040000,268300.863705,199768821.868180,-215376373.101787,-123623880.819350,0.003852,-0.003970,-0.002329
1.860000,-1.740000,0.260027,0.040000,151740.383870,299668159.121859,-326395342.612746,164025271.124424,0.005797,-0.005998,0.003090
1.940000,-1.780000,0.220085,0.040000,97020.879611,-228717807.697011,278351292.245792,-457354313.934930,-0.004590,0.004964,-0.008617
1.980000,-1.780000,0.220035,0.040000,-253929.371898,-293578768.262647,345607390.959465,79366702.878733,-0.005825,0.006217,0.001495
1.980000,-1.740000,0.260030,0.040000,-35427.875861,-101431240.360367,110917987.888065,-14899006.344356,-0.001965,0.002036,-0.000281
1.940000,-1.740000,0.260072,0.040000,107513.243775,-28926285.327959,47225498.788205,-141448994.938233,-0.000648,0.000786,-0.002665
2.020000,-1.780000,0.220446,0.040000,-128180.949076,-772616.361407,-2661714.625596,226880062.663797,0.000005,-0.000031,0.004275
2.060000,-1.780000,0.220078,0.040000,43151.889648,105457154.577351,-132587008.113102,30535533.872202,0.002140,-0.002345,0.000575
2.060000,-1.740000,0.260066,0.040000,-2539.964576,22917693.791498,-26200311.108300,20304822.842852,0.000450,-0.000475,0.000383
2.020000,-1.740000,0.260377,0.040000,-45055.241267,-32293980.532499,28166811.975052,40428415.969359,-0.000585,0.000554,0.000762
2.100000,-1.780000,0.220040,0.040000,44177.634406,13127586.557535,-18623038.037141,-66179983.125303,0.000278,-0.000320,-0.001247
2.140000,-1.780000,0.220461,0.040000,1277.750836,-24270764.561977,33595860.523219,-13179947.579934,-0.000510,0.000580,-0.000248
2.140000,-1.740000,0.260390,0.040000,7413.283296,-2164110.491631,3687724.986707,-6825634.745028,-0.000049,0.000061,-0.000129
2.100000,-1.740000,0.260034,0.040000,13191.478496,14297710.066844,-14420432.874662,-5060060.981927,0.000270,-0.000271,-0.000095
2.180000,-1.780000,0.220072,0.040000,-1262.259475,-1953180.411841,2889807.170143,13722908.691387,-0.000042,0.000049,0.000259
2.220000,-1.780000,0.220045,0.040000,5062.661811,2900418.878874,-5259126.937283,1587200.882316,0.000068,-0.000086,0.000030
2.220000,-1.740000,0.260038,0.040000,4500.218411,288230.563134,-493885.142064,673185.080903,0.000007,-0.000008,0.000013
2.180000,-1.740000,0.260061,0.040000,3912.526284,-2708194.302454,2982618.822961,302639.852782,-0.000053,0.000055,0.000006
2.260000,-1.780000,0.220477,0.040000,5108.542116,390800.290154,21054.657704,-1128391.292548,0.000005,-0.000002,-0.000021
2.300000,-1.780000,0.200038,0.040000,5214.632058,-3503696.590818,1965191.450365,104891.352088,-0.000057,0.000046,0.000002
2.300000,-1.740000,0.200098,0.040000,2090.323118,996136.031614,-1756264.488383,10187938.304397,0.000023,-0.000029,0.000192
2.260000,-1.740000,0.240082,0.040000,4621.357141,1941281.781098,-1457754.354252,106713.574454,0.000034,-0.000030,0.000002
2.340000,-1.780000,0.160047,0.040000,8751.304480,-16411251.175810,38687225.107556,-22368711.135436,-0.000435,0.000603,-0.000421
2.380000,-1.780000,0.120063,0.040000,-21200.057986,-521491992.859244,1659394915.844251,-4332869.978754,-0.016257,0.024832,-0.000082
2.380000,-1.740000,0.120164,0.040000,179816.575921,647230920.643865,-3115694274.491275,170493193.608174,0.026146,-0.044749,0.003212
2.340000,-1.740000,0.160123,0.040000,6833.779304,-47806878.199018,-12086348.223582,59695197.212006,-0.000562,0.000111,0.001125
2.420000,-1.780000,0.080094,0.040000,-513592.494085,-5497092893.574969,-11467129917.845951,20046805375.496548,-0.007684,-0.120163,0.377693
2.460000,-1.780000,0.040188,0.040000,6085508.956117,-36858507227.218376,-34617308786.368095,55411369577.973274,-0.290442,-0.248216,1.043982
2.460000,-1.740000,0.040488,0.040000,-10782330.926859,9438422693.885429,-163119890845.846191,66347834743.003197,1.046460,-2.204639,1.250032
2.420000,-1.740000,0.080245,0.040000,1286239.561167,12814229531.399408,-52454950102.648048,22538681073.048195,0.465484,-0.764225,0.424642
2.500000,-1.780000,0.003881,0.040000,504224184.033453,-262396840251.560150,134245518778.687714,99017976036.891861,-4.219375,3.253597,1.865556
2.500000,-1.740000,0.006269,0.040000,-1000053291.560472,243981363716.286407,-440764941737.019836,113357825688.418930,5.709005,-7.192012,2.135727
-2.500000,-1.700000,0.013433,0.040000,-67328607.213632,-8446316826.485109,-48256390242.219658,128432266714.150391,0.161360,-0.588685,2.419738
-2.500000,-1.660000,0.003284,0.040000,537418099.237304,-240407183490.007233,166635176168.765198,36444632346.408104,-4.112438,3.556476,0.686638
-2.460000,-1.700000,0.042195,0.040000,-27584460.790041,2478709944.978633,-8463172504.355760,75517595488.712540,0.080526,-0.125626,1.422795
-2.420000,-1.700000,0.081120,0.040000,-907605.206378,1181772812.284931,-6238477533.471420,28783584713.220364,0.050847,-0.088955,0.542299
-2.420000,-1.660000,0.080067,0.040000,5779431.776142,-19638430920.252838,26009299737.827938,2879634417.053524,-0.406009,0.454021,0.054254
-2.460000,-1.660000,0.040135,0.040000,52819326.040400,-68806210760.433273,57577644044.066368,18118823529.088753,-1.232883,1.148262,0.341369
-2.380000,-1.700000,0.120749,0.040000,198339.221289,33146931.648014,239883843.704681,932107636.366231,-0.000919,0.002976,0.017561
-2.340000,-1.700000,0.160563,0.040000,60544.678690,-71373978.418741,17316903.451604,85988246.170617,-0.001039,0.000632,0.001620
-2.340000,-1.660000,0.160034,0.040000,-17343.545661,-210189905.914981,216982041.879631,-257373943.859670,-0.003998,0.004050,-0.004849
-2.380000,-1.660000,0.120045,0.040000,461902.780792,-2397183220.701500,2769397492.762971,-895669841.492122,-0.047268,0.050073,-0.016875
-2.300000,-1.700000,0.200451,0.040000,15106.217458,-22452317.652276,14979494.072494,-3732047.057047,-0.000381,0.000324,-0.000070
-2.260000,-1.700000,0.240376,0.040000,10035.721024,-2514153.954289,1500085.099149,-3887929.825250,-0.000042,0.000034,-0.000073
-2.260000,-1.660000,0.240022,0.040000,6707.229322,8781691.467634,-7621838.037239,-4880507.466000,0.000159,-0.000150,-0.000092
-2.300000,-1.660000,0.200027,0.040000,-10775.862125,4334818.464427,-1979669.529414,-49370180.296989,0.000068,-0.000051,-0.000930
-2.220000,-1.700000,0.280322,0.040000,10633.628737,324867.556078,-403764.573862,-1168076.404114,0.000007,-0.000007,-0.000022
-2.180000,-1.700000,0.300053,0.040000,11153.266529,-396058.590498,535605.435535,151051.880628,-0.000008,0.000009,0.000003
-2.180000,-1.660000,0.320017,0.040000,11643.290817,234197.504938,-18254.887929,789942.408547,0.000003,-0.000002,0.000015
-2.220000,-1.660000,0.280019,0.040000,11237.466448,2318013.454434,-1703412.332521,1048807.146460,0.000040,-0.000036,0.000020
2.180000,-1.700000,0.300053,0.040000,4778.065772,-759519.586948,826077.483150,-487907.252716,-0.000015,0.000015,-0.000009
2.220000,-1.700000,0.280322,0.040000,5057.407631,-1054319.475331,876010.921449,-592592.474141,-0.000019,0.000018,-0.000011
2.220000,-1.660000,0.280019,0.040000,3947.801075,-2452538.057475,1727087.347292,2619992.592649,-0.000042,0.000037,0.000049
2.180000,-1.660000,0.320017,0.040000,4276.386941,14989.730101,-152529.481092,578665.868536,0.000001,-0.000002,0.000011
2.260000,-1.700000,0.240376,0.040000,6740.889944,1268920.104726,-396206.068441,-5497766.263411,0.000019,-0.000012,-0.000104
2.300000,-1.700000,0.200451,0.040000,3792.195780,29025715.761421,-18681157.186945,-16640028.502364,0.000488,-0.000410,-0.000314
2.300000,-1.660000,0.200027,0.040000,36721.841003,-37885750.214506,26873384.372113,-52397695.772286,-0.000652,0.000569,-0.000987
2.260000,-1.660000,0.240022,0.040000,8360.980908,-14388155.199945,11757199.898443,-88718.189588,-0.000256,0.000236,-0.000002
2.340000,-1.700000,0.160563,0.040000,-58422.384341,158777534.056938,-66461349.923355,54419372.985158,0.002470,-0.001774,0.001025
2.380000,-1.700000,0.120749,0.040000,-397586.234004,1026430666.616716,-2170259833.788639,1062201800.499344,0.025804,-0.034424,0.020012
2.380000,-1.660000,0.120045,0.040000,-208874.407515,2894357137.918456,-3610824978.097960,-2239559271.168882,0.058581,-0.063980,-0.042195
2.340000,-1.660000,0.160034,0.040000,111088.895456,124926908.440797,-181584372.542204,-409357192.045270,0.002674,-0.003101,-0.007713
2.420000,-1.700000,0.081120,0.040000,-219382.376188,16999351809.369736,-75610177816.381149,-1268872139.955431,0.651556,-1.093261,-0.023906
2.460000,-1.700000,0.042195,0.040000,30752177.593538,16685618581.105303,-239189768076.676025,-4351057894.702878,1.571999,-3.248842,-0.081976
2.460000,-1.660000,0.040135,0.040000,-82554655.412714,35126796633.700371,-119646864164.603912,-66335218864.304710,1.139531,-1.776494,-1.249794
2.420000,-1.660000,0.080067,0.040000,-6979399.037929,20782375102.303558,-47876517394.819756,-24253928979.479134,0.544693,-0.748881,-0.456958
2.500000,-1.700000,0.013433,0.040000,-244440351.254227,23940975978.802605,-125436318044.081497,-9566197722.973751,1.024731,-1.789624,-0.180233
2.500000,-1.660000,0.003284,0.040000,-880338309.726316,197644581915.794678,-399764283336.632751,-106602216942.449356,4.866154,-6.389375,-2.008448
-2.500000,-1.620000,0.006866,0.040000,9044164.610901,46841585560.012909,44186793548.924454,-39885292737.428719,0.368014,0.317997,-0.751462
-2.500000,-1.580000,0.012836,0.040000,-179913767.780140,97703194646.919891,-42349909310.934738,-30087572593.218178,1.527918,-1.110763,-0.566867
-2.460000,-1.620000,0.040585,0.040000,-29210445.209628,24779213218.609142,55411897272.272583,-26102341401.918251,0.013601,0.590738,-0.491783
-2.420000,-1.620000,0.080294,0.040000,-6840367.645693,4669485254.178710,14144928254.741938,-15366091247.592733,-0.018367,0.160156,-0.289506
-2.420000,-1.580000,0.081023,0.040000,-7821685.308399,12697303411.701210,3247164538.084795,6054032585.455969,0.149104,-0.028942,0.114061
-2.460000,-1.580000,0.042009,0.040000,-60093380.007042,42812342052.884216,33762255104.719215,-11736212887.142769,0.373796,0.203288,-0.221117
-2.380000,-1.620000,0.120196,0.040000,-1499284.383644,2130426193.532573,-1626101478.206692,-2081354543.513458,0.037288,-0.033487,-0.039214
-2.340000,-1.620000,0.160147,0.040000,-256035.864639,559202134.324840,-507886448.066619,-148177517.155544,0.010246,-0.009859,-0.002792
-2.340000,-1.580000,0.160514,0.040000,214396.600865,318567626.089859,-280976256.769625,842705119.782996,0.005790,-0.005506,0.015877
-2.380000,-1.580000,0.120685,0.040000,-435694.873767,3015052964.188011,-2226643850.711250,3495161792.789328,0.052349,-0.046407,0.065851
-2.300000,-1.620000,0.200118,0.040000,-13950.506880,113518826.822962,-99681566.337201,32522337.944011,0.002061,-0.001956,0.000613
-2.260000,-1.620000,0.240098,0.040000,16709.242286,16034440.598555,-13355818.715051,19622795.799698,0.000287,-0.000267,0.000370
-2.260000,-1.580000,0.240343,0.040000,42142.008069,-32726523.009612,31166376.481031,30141530.130688,-0.000608,0.000596,0.000568
-2.300000,-1.580000,0.200411,0.040000,118290.406651,-32480599.869603,33742568.762677,182832341.895114,-0.000619,0.000629,0.003445
-2.220000,-1.620000,0.280084,0.040000,14760.181903,-692455.866059,1226708.611625,6108746.329353,-0.000016,0.000020,0.000115
-2.180000,-1.620000,0.320074,0.040000,12037.513805,-1463080.877247,1398197.021398,985566.031731,-0.000027,0.000027,0.000019
-2.180000,-1.580000,0.320257,0.040000,10421.681091,-3607515.038313,3077170.123161,-2297858.717465,-0.000065,0.000061,-0.000043
-2.220000,-1.580000,0.280294,0.040000,16031.173207,-11970381.841708,9722292.160016,607248.162168,-0.000213,0.000196,0.000011
2.180000,-1.620000,0.320074,0.040000,4190.303431,2349736.521884,-2085810.622539,240084.865818,0.000043,-0.000041,0.000005
2.220000,-1.620000,0.280084,0.040000,328.263082,4466646.165723,-4201324.007736,6384604.450742,0.000083,-0.000081,0.000120
2.220000,-1.580000,0.280294,0.040000,4178.119322,15248003.789805,-11970177.532462,-8141192.197062,0.000269,-0.000244,-0.000153
2.180000,-1.580000,0.320257,0.040000,7066.633918,2921665.871152,-2058506.872214,-4054160.071532,0.000050,-0.000044,-0.000076
2.260000,-1.620000,0.240098,0.040000,-8966.974517,-7016259.046958,5025503.359530,31157006.616525,-0.000121,0.000106,0.000587
2.300000,-1.620000,0.200118,0.040000,2701.706602,-128813137.180828,113519556.798068,105759299.371227,-0.002340,0.002225,0.001993
2.300000,-1.580000,0.200411,0.040000,-163194.525797,186323646.667497,-171088480.713541,185720044.907731,0.003424,-0.003310,0.003499
2.260000,-1.580000,0.240343,0.040000,-26068.179451,63235566.822559,-57796061.224554,11226828.822214,0.001161,-0.001120,0.000212
2.340000,-1.620000,0.160147,0.040000,277086.696785,-906648501.328337,839563384.560944,152864844.432105,-0.016703,0.016197,0.002880
2.380000,-1.620000,0.120196,0.040000,2296981.255852,-5041112256.363221,4494415362.421521,-1319684165.681281,-0.091887,0.087767,-0.024864
2.380000,-1.580000,0.120685,0.040000,-1311692.788240,-732427571.148831,-638311357.040778,6606482098.495068,-0.006052,-0.004279,0.124470
2.340000,-1.580000,0.160514,0.040000,-593990.198382,284913693.135753,-271504443.880751,1214429341.372125,0.005292,-0.005191,0.022881
2.420000,-1.620000,0.080294,0.040000,14389072.499186,-21783837044.315380,-15020179570.536707,-12845313415.446032,-0.202397,-0.074966,-0.242013
2.460000,-1.620000,0.040585,0.040000,87591816.766436,-98262514656.693054,-81273967135.470703,-21022821295.560066,-0.836551,-0.516477,-0.396082
2.460000,-1.580000,0.042009,0.040000,41137022.930958,-58146786500.902542,-107257761640.414169,56743288825.262215,-0.160624,-1.085903,1.069076
2.420000,-1.580000,0.081023,0.040000,1539371.745559,-6130482247.211677,-27888503654.204235,33496959961.937298,0.076779,-0.333154,0.631102
2.500000,-1.620000,0.006866,0.040000,436364380.816908,-317098150539.907227,47045179660.364334,-34990178387.755463,-4.447927,2.412745,-0.659235
2.500000,-1.580000,0.012836,0.040000,-170003618.204826,-83690941648.769348,-146075290270.905304,80544991156.182785,-0.278107,-1.453464,1.517514
-2.500000,-1.540000,0.002687,0.040000,388011536.234686,-208217465039.793396,78194527374.825378,-62595167553.526413,-3.188025,2.208142,-1.179329
-2.500000,-1.500000,0.007463,0.040000,-450758551.187345,72943589354.266266,-237241487442.850098,-82809652261.374237,2.302940,-3.541127,-1.560182
-2.460000,-1.540000,0.040090,0.040000,70940903.279905,-62985671253.409950,-30897188015.193863,-29639790771.694958,-0.656044,-0.051479,-0.558431
-2.420000,-1.540000,0.080045,0.040000,16962491.401615,-18723828903.647877,-1606413975.628523,-4729279046.857150,-0.237858,0.084644,-0.089102
-2.420000,-1.500000,0.080347,0.040000,13932143.184520,-8168209810.354005,-29391292592.541935,-26696244892.857666,0.058399,-0.341456,-0.502973
-2.460000,-1.500000,0.040690,0.040000,75721686.501636,-40566669816.318153,-125895522021.199356,-54578658179.401756,0.176574,-1.431071,-1.028294
-2.380000,-1.540000,0.120030,0.040000,4135269.538973,-5374091467.298497,5163021991.631555,3301536453.493167,-0.100058,0.098467,0.062203
-2.340000,-1.540000,0.160023,0.040000,931058.891976,-1367700328.380201,1270769076.585666,373979689.226306,-0.025220,0.024490,0.007046
-2.340000,-1.500000,0.160174,0.040000,-154093.838140,-935893343.010997,818304605.218143,-1654148006.596757,-0.016968,0.016082,-0.031165
-2.380000,-1.500000,0.120232,0.040000,1739315.349063,-4518897979.839927,2111497316.110326,-5687888678.425971,-0.071532,0.053389,-0.107163
-2.300000,-1.540000,0.200018,0.040000,168922.807319,-339944782.977432,310680708.780185,-39026563.356595,-0.006239,0.006019,-0.000735
-2.260000,-1.540000,0.240015,0.040000,16737.403782,-74151660.638879,66936043.141747,-46977149.896420,-0.001356,0.001302,-0.000885
-2.260000,-1.500000,0.240116,0.040000,-99019.065029,37420892.958604,-39872311.910037,-124916391.980334,0.000719,-0.000737,-0.002353
-2.300000,-1.500000,0.200139,0.040000,-220615.173246,-76002578.793793,54841380.460704,-474292691.421972,-0.001312,0.001153,-0.008936
-2.220000,-1.540000,0.280013,0.040000,128.121348,-9537472.989282,5978681.853623,-21354370.724358,-0.000160,0.000133,-0.000402
-2.180000,-1.540000,0.320011,0.040000,5026.827645,1491277.533211,-1589674.868200,-6039192.945375,0.000029,-0.000029,-0.000114
-2.180000,-1.500000,0.320087,0.040000,2621.608942,13142036.484573,-12924412.731707,-935011.594110,0.000246,-0.000245,-0.000018
-2.220000,-1.500000,0.280099,0.040000,-26091.406584,26477811.444601,-22904707.510725,-27638750.025307,0.000479,-0.000452,-0.000521
2.180000,-1.540000,0.320011,0.040000,11850.837612,-7147775.957523,6691738.860589,-5810076.619843,-0.000132,0.000129,-0.000109
2.220000,-1.540000,0.280013,0.040000,27084.472074,-4821692.646133,6691425.095639,-31041119.255496,-0.000101,0.000116,-0.000585
2.220000,-1.500000,0.280099,0.040000,38995.550800,-51866562.721517,43309442.714474,-5922045.824940,-0.000929,0.000864,-0.000112
2.180000,-1.500000,0.320087,0.040000,6747.504002,-17879717.700431,16184884.146875,7794129.712662,-0.000327,0.000315,0.000147
2.260000,-1.540000,0.240015,0.040000,42962.913397,52526073.298930,-44695943.111218,-102235294.688228,0.000945,-0.000886,-0.001926
2.300000,-1.540000,0.200018,0.040000,-49868.498164,394494604.013336,-353389860.639276,-283320465.719832,0.007200,-0.006890,-0.005338
2.300000,-1.500000,0.200139,0.040000,526243.234785,-324008442.137846,316822883.965831,-584156837.085986,-0.006064,0.006010,-0.011006
2.260000,-1.500000,0.240116,0.040000,161104.741800,-148537416.954342,142714842.704360,-105873826.690454,-0.002766,0.002722,-0.001995
2.340000,-1.540000,0.160023,0.040000,-894651.087041,2110203475.313461,-1934823059.233653,-531994414.238915,0.038766,-0.037444,-0.010023
2.380000,-1.540000,0.120030,0.040000,-5688519.088280,10416039450.278111,-9904417511.039061,319145626.045567,0.193352,-0.189497,0.006013
2.380000,-1.500000,0.120232,0.040000,2690562.233221,1692811748.941877,-1809610370.099030,-11292141183.760363,0.032554,-0.033434,-0.212750
2.340000,-1.500000,0.160174,0.040000,1396236.451489,-370863534.385901,412909792.142000,-2640796566.889845,-0.007225,0.007542,-0.049754
2.420000,-1.540000,0.080045,0.040000,-29874841.984270,49937059780.627007,-62588150139.036903,3276636317.377202,1.012349,-1.107691,0.061734
2.460000,-1.540000,0.040090,0.040000,-151324958.061338,137980123714.889343,-129344759601.527008,1084641753.002206,2.550817,-2.485739,0.020435
2.460000,-1.500000,0.040690,0.040000,-26063151.884435,39755822940.392776,-64198709966.800812,-110408805157.263458,0.887178,-1.071385,-2.080166
2.420000,-1.500000,0.080347,0.040000,802582.810296,15863848718.977030,-24821444374.303101,-54366734672.838638,0.349514,-0.417021,-1.024301
2.500000,-1.540000,0.002687,0.040000,-850680003.155916,349136942420.353210,-254226512120.860901,-3437168400.872646,6.041492,-5.326225,-0.064758
2.500000,-1.500000,0.007463,0.040000,-387986561.346758,140456271372.643677,-149324716091.914948,-164846177967.331024,2.696404,-2.763238,-3.105798
-2.500000,-1.460000,0.012239,0.040000,-425828306.201756,122444718874.113602,-144498581805.441833,2211198614.107558,2.431582,-2.597785,0.041660
-2.500000,-1.420000,0.002090,0.040000,-463191236.383164,151582631587.274170,-134810875793.604950,100205983563.018112,2.761108,-2.634712,1.887939
-2.460000,-1.460000,0.041830,0.040000,-74199065.716482,54319016236.517021,-129689668191.363403,-9025434329.139040,1.449410,-2.017420,-0.170044
-2.420000,-1.460000,0.080931,0.040000,-22910281.053982,25780467576.710583,-51591772071.887283,-10932761201.335783,0.631609,-0.826129,-0.205980
-2.420000,-1.420000,0.080027,0.040000,-33074364.689732,34445654684.595589,-35254061896.428955,22652374086.995007,0.653545,-0.659638,0.426784
-2.460000,-1.420000,0.040055,0.040000,-125521310.528940,73480074540.910858,-60390952201.025764,61265124648.296638,1.310425,-1.211783,1.154270
-2.380000,-1.460000,0.120623,0.040000,-7345099.548222,6234793779.888937,-6346692415.849206,-6981419117.247360,0.118100,-0.118943,-0.131534
-2.340000,-1.460000,0.160467,0.040000,-2286758.636060,1987543021.854162,-1880411446.806653,-1522330072.765413,0.036841,-0.036034,-0.028682
-2.340000,-1.420000,0.160014,0.040000,-1622624.809877,2796633656.151978,-2567479699.216770,1663174257.319844,0.051395,-0.049668,0.031335
-2.380000,-1.420000,0.120018,0.040000,-8072972.021521,10505345163.907206,-9692790951.468061,4049203318.972387,0.193334,-0.187210,0.076289
-2.300000,-1.460000,0.200374,0.040000,-645545.838959,664622210.140042,-625622225.459797,-255868078.926078,0.012301,-0.012008,-0.004821
-2.260000,-1.460000,0.240312,0.040000,-143310.719264,214411838.117245,-202492939.738976,-4048416.288346,0.003972,-0.003882,-0.000076
-2.260000,-1.420000,0.240009,0.040000,108383.834353,140161077.106602,-124806762.647110,265841290.056580,0.002554,-0.002438,0.005009
-2.300000,-1.420000,0.200011,0.040000,-136417.204951,691031323.437214,-627459933.120241,680672922.707596,0.012660,-0.012181,0.012824
-2.220000,-1.460000,0.280267,0.040000,-8254.698614,60752674.605220,-49697078.821433,22263409.328234,0.001082,-0.000999,0.000419
-2.180000,-1.460000,0.320234,0.040000,18373.765827,15900046.506769,-14571293.631480,13488616.591440,0.000292,-0.000282,0.000254
-2.180000,-1.420000,0.320007,0.040000,52703.483543,-7930905.522378,11108251.703357,28453411.225837,-0.000167,0.000191,0.000536
-2.220000,-1.420000,0.280008,0.040000,93495.113735,13758884.557108,-9686577.236096,102775761.968690,0.000236,-0.000206,0.001936
2.180000,-1.460000,0.320234,0.040000,-19270.894782,-1970932.532908,1477187.739017,24136409.396251,-0.000034,0.000031,0.000455
2.220000,-1.460000,0.280267,0.040000,-24199.254373,-44405589.986183,31855275.081453,73413802.679266,-0.000766,0.000671,0.001383
2.220000,-1.420000,0.280008,0.040000,-143491.919846,66780128.118527,-58636046.585525,108887666.011529,0.001212,-0.001151,0.002052
2.180000,-1.420000,0.320007,0.040000,-44930.803483,38020318.369813,-38980921.327278,16650366.002177,0.000722,-0.000729,0.000314
2.260000,-1.460000,0.240312,0.040000,61127.446597,-247807107.184470,227753739.248778,161087327.772837,-0.004555,0.004404,0.003035
2.300000,-1.460000,0.200374,0.040000,590000.267423,-1010712966.065780,930108159.305213,247607158.895717,-0.018587,0.017979,0.004665
2.300000,-1.420000,0.200011,0.040000,-681604.131451,-140676082.549503,96804360.711410,1299252034.327052,-0.002402,0.002072,0.024479
2.260000,-1.420000,0.240009,0.040000,-355227.996695,85051269.589742,-92175660.911707,386950238.178402,0.001643,-0.001696,0.007290
2.340000,-1.460000,0.160467,0.040000,2917190.453428,-3845018633.242535,3558820305.832848,-108348893.826466,-0.070825,0.068668,-0.002041
2.380000,-1.460000,0.120623,0.040000,12085196.061520,-14565480712.069618,13599352538.955278,-3247660379.858347,-0.268961,0.261680,-0.061188
2.380000,-1.420000,0.120018,0.040000,2307660.968284,-8080121882.091884,7170625124.215561,13949614448.903154,-0.147094,0.140239,0.262819
2.340000,-1.420000,0.160014,0.040000,-675891.226537,-1581932438.215170,1377760001.894664,4231087605.455871,-0.028651,0.027112,0.079716
2.420000,-1.460000,0.080931,0.040000,47237539.071512,-53366009239.525993,37902198533.401535,-24737074433.830853,-0.918042,0.801504,-0.466061
2.460000,-1.460000,0.041830,0.040000,184641602.282763,-150562383648.790924,44872579473.532906,-58314611855.986801,-2.239305,1.442803,-1.098681
2.460000,-1.420000,0.040055,0.040000,96927144.119279,-90393727994.956055,52930403344.183838,71503896822.596817,-1.491321,1.208989,1.347175
2.420000,-1.420000,0.080027,0.040000,19941101.266941,-33030251077.616135,31380070319.743477,44129336385.607010,-0.612982,0.600546,0.831422
2.500000,-1.460000,0.012239,0.040000,807402399.536782,-387142689489.174438,175992964943.989655,-91131572646.322479,-6.100538,4.509264,-1.716972
2.500000,-1.420000,0.002090,0.040000,347657678.423400,-182491919671.220306,66393905178.223000,92932185923.499069,-2.782047,1.907106,1.750896
-2.500000,-1.380000,0.008060,0.040000,118668178.033566,-37831474752.664879,36390970299.556473,114708871347.434433,-0.704625,0.693769,2.161182
-2.500000,-1.340000,0.011642,0.040000,510837535.297852,-189538121286.500854,111604694951.048462,38118836117.358978,-3.130515,2.543190,0.718181
-2.460000,-1.380000,0.040804,0.040000,7895542.315559,-2589394703.015628,20363180955.452293,79690884798.979324,-0.149246,0.283194,1.501422
-2.420000,-1.380000,0.080405,0.040000,8088720.636257,-1202661632.963204,6254513715.271834,41198620896.413734,-0.051213,0.089285,0.776206
-2.420000,-1.340000,0.080843,0.040000,51516731.704680,-38559184200.125145,39598297620.090858,15590194622.345987,-0.732351,0.740182,0.293728
-2.460000,-1.340000,0.041660,0.040000,151278154.541360,-88040195598.538834,68257339743.977188,28860827078.308380,-1.546912,1.397824,0.543755
-2.380000,-1.380000,0.120270,0.040000,5234039.454663,-462652260.557229,858770836.007361,11945344736.543110,-0.010956,0.013941,0.225057
-2.340000,-1.380000,0.160203,0.040000,2746062.588744,-656959411.579367,681918433.855289,3681451174.637472,-0.012519,0.012707,0.069361
-2.340000,-1.340000,0.160423,0.040000,5996769.546442,-4479893086.338174,4231526614.450736,1193381171.919818,-0.083000,0.081128,0.022484
-2.380000,-1.340000,0.120563,0.040000,17711787.281895,-12950199677.422855,12333934415.047758,5160742662.877283,-0.240506,0.235862,0.097231
-2.300000,-1.380000,0.200162,0.040000,1264607.471727,-464991248.603435,462602839.663696,1113487150.463695,-0.008747,0.008729,0.020979
-2.260000,-1.380000,0.240135,0.040000,525294.832993,-254141978.760498,250600072.179042,316098909.363945,-0.004768,0.004741,0.005955
-2.260000,-1.340000,0.240282,0.040000,553959.834404,-555958982.023520,529999876.229508,-81267063.309089,-0.010328,0.010132,-0.001531
-2.300000,-1.340000,0.200339,0.040000,1928672.016455,-1581880345.612680,1495158531.919492,131463679.179267,-0.029313,0.028660,0.002477
-2.220000,-1.380000,0.280116,0.040000,197557.458580,-122767264.136919,111156291.153396,86785553.767172,-0.002247,0.002160,0.001635
-2.180000,-1.380000,0.320101,0.040000,67122.529127,-57555571.634052,54174348.370606,13053578.217162,-0.001065,0.001040,0.000246
-2.180000,-1.340000,0.320212,0.040000,6126.178111,-66292611.997275,59537398.084286,-54659214.317980,-0.001211,0.001160,-0.001030
-2.220000,-1.340000,0.280242,0.040000,121537.240707,-185330054.548695,158638218.969123,-93702295.257804,-0.003341,0.003140,-0.001765
2.180000,-1.380000,0.320101,0.040000,-13810.541088,66484625.536837,-62386384.840341,-23701454.429719,0.001229,-0.001199,-0.000447
2.220000,-1.380000,0.280116,0.040000,-147494.693449,190630943.318779,-162320007.558351,-13039768.917434,0.003432,-0.003218,-0.000246
2.220000,-1.340000,0.280242,0.040000,120137.665007,118970877.553880,-99315619.275422,-252849747.047996,0.002130,-0.001982,-0.004764
2.180000,-1.340000,0.320212,0.040000,101375.997109,21935370.959972,-12409419.358867,-90304466.024219,0.000359,-0.000288,-0.001701
2.260000,-1.380000,0.240135,0.040000,-609611.060682,563755057.896693,-538636525.561126,106751113.410278,0.010479,-0.010290,0.002011
2.300000,-1.380000,0.200162,0.040000,-2025297.513841,1576529158.067851,-1493957830.430094,755903553.210690,0.029236,-0.028614,0.014242
2.300000,-1.340000,0.200339,0.040000,-1118758.650858,1787678743.779286,-1657510817.427947,-1275344331.884904,0.032945,-0.031964,-0.024028
2.260000,-1.340000,0.240282,0.040000,-64740.760841,496527317.202344,-461156903.883671,-558429732.333829,0.009155,-0.008888,-0.010521
2.340000,-1.380000,0.160203,0.040000,-6123630.262104,4431876795.311874,-4196178293.770684,3357895914.072628,0.082167,-0.080391,0.063265
2.380000,-1.380000,0.120270,0.040000,-17810288.052214,12789775629.445248,-11719408628.098206,12888845626.612846,0.234917,-0.226850,0.242833
2.380000,-1.340000,0.120563,0.040000,-19833914.000717,19251682932.961983,-17658282924.884296,-6798319128.333742,0.353707,-0.341698,-0.128084
2.340000,-1.340000,0.160423,0.040000,-5285669.167015,5988081178.965617,-5574437567.611852,-2884349761.393956,0.110481,-0.107364,-0.054343
2.420000,-1.380000,0.080405,0.040000,-51959257.152859,36557444297.179619,-22488474995.441647,42890030156.663612,0.609243,-0.503216,0.808073
2.460000,-1.380000,0.040804,0.040000,-158283512.407630,96112321994.894745,-12177251826.979374,79974273767.791534,1.336396,-0.703842,1.506762
2.460000,-1.340000,0.041660,0.040000,-222630613.583633,137921596286.118408,-40365972962.214890,-22310621977.492832,2.047121,-1.311920,-0.420345
2.420000,-1.340000,0.080843,0.040000,-67931981.003280,56574337982.258545,-40464565219.281677,-15454976665.698502,0.974838,-0.853431,-0.291181
2.500000,-1.380000,0.008060,0.040000,-382623954.341537,185509257586.907104,-39315883157.686928,108252453549.122498,2.668792,-1.567044,2.039539
2.500000,-1.340000,0.011642,0.040000,-599337800.881124,267752321642.891083,-90538833625.174164,-26304856183.119778,4.042968,-2.707446,-0.495599
-2.500000,-1.300000,0.001493,0.040000,387880100.213117,-144067241754.349823,77875152119.336685,-68410724546.387550,-2.340181,1.841342,-1.288898
-2.500000,-1.260000,0.008657,0.040000,-40695765.143640,10229225927.951698,4469189372.306447,-106926745617.095901,0.109647,0.001124,-2.014562
-2.460000,-1.300000,0.040028,0.040000,131016909.152193,-76186044524.367065,53783919542.074799,-48864618653.132248,-1.308769,1.139941,-0.920638
-2.420000,-1.300000,0.080014,0.040000,41499467.441911,-34455239322.736298,33564951897.556908,-25953668404.352665,-0.644125,0.637415,-0.488982
-2.420000,-1.260000,0.080467,0.040000,-18410646.127572,3440342555.941045,-3225075531.071985,-43731058948.097198,0.063601,-0.061979,-0.823919
-2.460000,-1.260000,0.040926,0.040000,-33127676.415905,7628173946.262477,-3277423238.041262,-78786738061.424805,0.119128,-0.086340,-1.484388
-2.380000,-1.300000,0.120009,0.040000,12029071.029400,-11877210687.423689,11132741708.124342,-9081035483.787664,-0.219566,0.213955,-0.171092
-2.340000,-1.300000,0.160007,0.040000,2886962.306926,-3832515993.024236,3577037774.090829,-3628126893.967543,-0.070763,0.068837,-0.068356
-2.340000,-1.260000,0.160234,0.040000,-5550145.648545,1267448033.775413,-1261411303.202138,-5685815144.488379,0.023845,-0.023800,-0.107124
-2.380000,-1.260000,0.120312,0.040000,-10331509.814312,1962900768.353267,-1883186305.700283,-15502490619.587139,0.036532,-0.035931,-0.292076
-2.300000,-1.300000,0.200006,0.040000,341011.203921,-1152843913.294455,1067130163.958768,-1503184556.086774,-0.021236,0.020590,-0.028321
-2.260000,-1.300000,0.240005,0.040000,-202298.796720,-301203312.578522,276813116.345808,-627824328.236609,-0.005537,0.005353,-0.011829
-2.260000,-1.260000,0.240156,0.040000,-1348749.305732,447102352.708784,-443090530.257699,-731107464.014860,0.008401,-0.008371,-0.013774
-2.300000,-1.260000,0.200187,0.040000,-2819614.662867,778594017.521430,-770440947.737944,-2066669033.188349,0.014623,-0.014562,-0.038937
-2.220000,-1.300000,0.280004,0.040000,-214406.916474,-38302272.423678,18297031.450369,-266067032.640689,-0.000609,0.000458,-0.005013
-2.180000,-1.300000,0.320003,0.040000,-131562.077400,17735931.000551,-15934557.269703,-93920852.735985,0.000324,-0.000310,-0.001770
-2.180000,-1.260000,0.320117,0.040000,-243389.789791,122357266.072048,-124814705.704373,-54777891.365436,0.002319,-0.002338,-0.001032
-2.220000,-1.260000,0.280134,0.040000,-601493.291304,226567502.391843,-199338541.588297,-247792465.667459,0.004115,-0.003910,-0.004669
2.180000,-1.300000,0.320003,0.040000,222360.132186,-117408144.144525,110454218.415192,-84037903.188430,-0.002173,0.002120,-0.001583
2.220000,-1.300000,0.280004,0.040000,526936.026396,-201343749.487473,191738667.489349,-307288827.933605,-0.003739,0.003667,-0.005789
2.220000,-1.260000,0.280134,0.040000,635977.377630,-448300949.998962,389822940.587260,2616349.883466,-0.008116,0.007675,0.000049
2.180000,-1.260000,0.320117,0.040000,186810.949286,-194912811.603372,186154839.739370,56201527.828508,-0.003623,0.003557,0.001059
2.260000,-1.300000,0.240005,0.040000,1138111.445667,-304247757.596055,308326892.262192,-867715061.672043,-0.005755,0.005786,-0.016348
2.300000,-1.300000,0.200006,0.040000,2227077.776031,-330718731.502243,354066126.112724,-2527078720.492903,-0.006363,0.006539,-0.047612
2.300000,-1.260000,0.200187,0.040000,4972667.332196,-2841086886.420478,2714034088.756264,-1237981901.304641,-0.052810,0.051852,-0.023324
2.260000,-1.260000,0.240156,0.040000,1848535.866878,-1145040519.203574,1105353557.983212,-278075892.077968,-0.021349,0.021050,-0.005239
2.340000,-1.300000,0.160007,0.040000,3800327.023113,164965063.438907,-69581713.221800,-7255539439.343049,0.002569,-0.001850,-0.136699
2.380000,-1.300000,0.120009,0.040000,4955336.724706,2436503096.123676,-2073495880.830364,-20920605771.335518,0.043853,-0.041118,-0.394156
2.380000,-1.260000,0.120312,0.040000,32911696.124631,-18698048654.316036,17507891083.047531,-13283695783.392736,-0.345555,0.336586,-0.250273
2.340000,-1.260000,0.160234,0.040000,12872481.416041,-7191979800.000349,6851903084.982553,-4286140346.924990,-0.133579,0.131016,-0.080753
2.420000,-1.300000,0.080014,0.040000,1771386.578364,8767417248.451544,-6032144386.040633,-54972718356.921509,0.149723,-0.129109,-1.035718
2.460000,-1.300000,0.040028,0.040000,-16760333.444549,21718660154.003422,-6175805437.088069,-90018824345.885956,0.321341,-0.204207,-1.696007
2.460000,-1.260000,0.040926,0.040000,224723001.916725,-105972961149.284119,41294002847.357056,-57991028646.264290,-1.631015,1.143580,-1.092585
2.420000,-1.260000,0.080467,0.040000,84889115.006094,-47627353643.553894,37493311342.928139,-34803175464.480568,-0.840048,0.763675,-0.655712
2.500000,-1.300000,0.001493,0.040000,-37599333.640762,32407326624.106133,-5517584.607241,-114332858205.240891,0.427432,-0.183245,-2.154097
2.500000,-1.260000,0.008657,0.040000,521557275.454557,-189106266648.137024,72125974910.986267,-73666064935.458755,-2.901679,2.020088,-1.387911
-2.500000,-1.220000,0.011045,0.040000,-518617632.415236,199716193698.547150,-80021064365.538055,-33396056006.766926,3.086231,-2.184181,-0.629201
-2.500000,-1.180000,0.000896,0.040000,-468790080.210212,180656806983.360077,-60249568933.664154,79221908986.525192,2.723116,-1.815699,1.492587
-2.460000,-1.220000,0.041497,0.040000,-181958970.831677,92939239499.499283,-51616607414.457001,-28101990958.673397,1.517466,-1.206050,-0.529458
-2.420000,-1.220000,0.080759,0.040000,-72941634.564139,40171626335.363731,-35691738424.773750,-19553448582.281124,0.731536,-0.697774,-0.368398
-2.420000,-1.180000,0.080005,0.040000,-71196699.754440,39512210596.127083,-27465344677.115715,26586613938.159393,0.676342,-0.585554,0.500907
-2.460000,-1.180000,0.040010,0.040000,-184185490.175605,88156208614.188110,-23976384072.068771,52752343875.422409,1.298159,-0.814485,0.993885
-2.380000,-1.220000,0.120507,0.040000,-29595951.254294,15368533189.500147,-14787802671.126247,-7632769027.916272,0.286270,-0.281893,-0.143806
-2.340000,-1.220000,0.160381,0.040000,-11990858.085878,6188736304.796247,-5920833450.703279,-2510182241.494665,0.115085,-0.113066,-0.047293
-2.340000,-1.180000,0.160003,0.040000,-9375092.098406,6427185483.828824,-6125433651.434290,3525962984.939515,0.119386,-0.117112,0.066431
-2.380000,-1.180000,0.120003,0.040000,-26593464.358749,16325649143.183418,-15563602466.735735,7594434994.736382,0.303277,-0.297535,0.143084
-2.300000,-1.220000,0.200305,0.040000,-4762431.844553,2553784555.292008,-2447525077.690728,-694825837.034990,0.047514,-0.046713,-0.013091
-2.260000,-1.220000,0.240254,0.040000,-1805650.621397,1066770426.838878,-1032530202.544577,-113236676.170923,0.019905,-0.019647,-0.002133
-2.260000,-1.180000,0.240002,0.040000,-700615.057178,924083825.397806,-884891901.912996,859879292.335748,0.017189,-0.016893,0.016201
-2.300000,-1.180000,0.200002,0.040000,-2953759.807526,2475853881.094797,-2354985404.864818,1723524675.281844,0.045963,-0.045052,0.032472
-2.220000,-1.220000,0.280218,0.040000,-622945.309172,435042746.602172,-381587624.308631,18247115.262051,0.007894,-0.007491,0.000344
-2.180000,-1.220000,0.320191,0.040000,-172342.403232,190284371.746732,-183161609.454075,41483751.114563,0.003545,-0.003491,0.000782
-2.180000,-1.180000,0.320001,0.040000,155540.271557,122225338.459104,-105155947.131490,209553424.136637,0.002206,-0.002078,0.003948
-2.220000,-1.180000,0.280001,0.040000,-1110.741459,329207459.039970,-288809417.114315,459447278.022141,0.005974,-0.005670,0.008656
2.180000,-1.220000,0.320191,0.040000,-105607.152327,-106216453.329316,104890870.136260,181542697.774594,-0.001994,0.001984,0.003420
2.220000,-1.220000,0.280218,0.040000,80728.496952,-347780001.247911,284158236.465041,427190480.809279,-0.006193,0.005713,0.008049
2.220000,-1.180000,0.280001,0.040000,-986981.169652,103126110.506758,-91539223.615924,690394554.257631,0.001877,-0.001790,0.013007
2.180000,-1.180000,0.320001,0.040000,-541261.606700,95579020.030323,-111539882.817714,241325522.242710,0.001891,-0.002011,0.004547
2.260000,-1.220000,0.240254,0.040000,893591.634034,-1106249736.442107,1054610103.601086,877217568.513262,-0.020551,0.020161,0.016527
2.300000,-1.220000,0.200305,0.040000,3577487.392380,-3108536796.968052,2941948709.707689,1784278892.595342,-0.057625,0.056370,0.033617
2.300000,-1.180000,0.200002,0.040000,-2268763.206090,-483609744.841546,425023084.587434,3919621573.579874,-0.008780,0.008339,0.073848
2.260000,-1.180000,0.240002,0.040000,-1626186.399964,23154216.374975,-41577582.738720,1617437171.417885,0.000540,-0.000679,0.030473
2.340000,-1.220000,0.160381,0.040000,11528198.538165,-8507216023.427100,8063191880.170306,3711522467.048028,-0.157771,0.154425,0.069927
2.380000,-1.220000,0.120507,0.040000,33867723.363414,-22787522646.031830,21394059698.782139,8245931975.571783,-0.421454,0.410953,0.155358
2.380000,-1.180000,0.120003,0.040000,1855836.424334,-6648516222.189300,6259808680.418243,23618785155.241127,-0.123065,0.120135,0.444992
2.340000,-1.180000,0.160003,0.040000,-2039181.460802,-2137145382.572232,1982795549.439781,9556615335.871454,-0.039393,0.038229,0.180052
2.420000,-1.220000,0.080759,0.040000,94887702.935469,-56913529585.904358,45837515343.888924,18094160053.053692,-1.009680,0.926209,0.340904
2.460000,-1.220000,0.041497,0.040000,258605669.947872,-120742658584.036713,52699172241.997429,26926156789.779953,-1.890268,1.377477,0.507304
2.460000,-1.180000,0.040010,0.040000,60856307.603114,-36623239624.110870,23445116706.400242,85973328875.071411,-0.615518,0.516205,1.619787
2.420000,-1.180000,0.080005,0.040000,16946094.372109,-17427327302.796017,16122520199.394522,53981879480.511520,-0.320966,0.311133,1.017050
2.500000,-1.220000,0.011045,0.040000,602390853.806725,-209826253883.805542,86820848154.592590,32791480900.460911,-3.258000,2.331003,0.617811
2.500000,-1.180000,0.000896,0.040000,154553571.061780,-60138864801.982315,22156056226.937965,107251482519.735580,-0.918366,0.632118,2.020680
-2.500000,-1.140000,0.009254,0.040000,214316623.981591,-65150885148.329269,107371434070.391617,102076576657.002457,-1.466118,1.784302,1.923182
-2.500000,-1.100000,0.010448,0.040000,413878637.582258,-170070164783.049896,48137503083.091217,-8195111238.177319,-2.515036,1.596123,-0.154401
-2.460000,-1.140000,0.041056,0.040000,-38900595.465074,8930589539.501461,51625403205.157936,77402263677.336868,-0.174016,0.630380,1.458304
-2.420000,-1.140000,0.080533,0.040000,-9739215.949286,4431679178.258913,10819849114.643442,44619354373.478821,-0.002709,0.117648,0.840655
-2.420000,-1.100000,0.080679,0.040000,68991943.811121,-30771036641.885052,35830877642.870651,23027116864.617275,-0.608343,0.646475,0.433844
-2.460000,-1.100000,0.041342,0.040000,145864052.036793,-77984488873.625168,68508678418.414200,11122575692.538895,-1.415714,1.344302,0.209556
-2.380000,-1.140000,0.120356,0.040000,216549.075704,4131991891.657372,-3162776802.855764,17815673965.005035,0.072371,-0.065067,0.335658
-2.340000,-1.140000,0.160267,0.040000,2585567.031683,1470147817.639640,-1367730744.130949,7642733627.703711,0.027120,-0.026348,0.143994
-2.340000,-1.100000,0.160341,0.040000,16586930.997746,-5209219436.374217,5047564073.948395,6632497906.184053,-0.097231,0.096013,0.124960
-2.380000,-1.100000,0.120454,0.040000,33579625.805953,-11209712633.280062,11059877542.178926,15690186757.467873,-0.210351,0.209221,0.295612
-2.300000,-1.140000,0.200214,0.040000,2439565.833361,312620052.361917,-271576193.996083,3312605993.495745,0.005658,-0.005349,0.062411
-2.260000,-1.140000,0.240178,0.040000,1725438.573676,-53151806.584855,66873392.400134,1440291906.621962,-0.001079,0.001182,0.027136
-2.260000,-1.100000,0.240227,0.040000,4020889.564500,-1279356001.214770,1255672282.739224,1084466642.105154,-0.023970,0.023791,0.020432
-2.300000,-1.100000,0.200273,0.040000,8207394.969136,-2545204507.249759,2473801258.426120,2731965127.816650,-0.047550,0.047011,0.051472
-2.220000,-1.140000,0.280153,0.040000,1071925.853231,-149465970.621324,160676554.084331,650411110.181493,-0.002879,0.002964,0.012254
-2.180000,-1.140000,0.320134,0.040000,613938.971903,-133219085.068175,123163304.603452,250583684.312307,-0.002453,0.002377,0.004721
-2.180000,-1.100000,0.320171,0.040000,894599.458449,-336118338.020538,338136513.957761,96929479.808813,-0.006344,0.006359,0.001826
-2.220000,-1.100000,0.280195,0.040000,1928693.178854,-623904978.225557,554055434.033422,400514875.210669,-0.011360,0.010834,0.007546
2.180000,-1.140000,0.320134,0.040000,-795640.607752,379513894.495016,-362756641.041513,134606730.694745,0.007056,-0.006929,0.002536
2.220000,-1.140000,0.280153,0.040000,-1834373.895619,724567830.634131,-660531390.655565,457811214.943987,0.013289,-0.012807,0.008625
2.220000,-1.100000,0.280195,0.040000,-1607771.992897,932543810.038724,-827251494.130936,-312377036.375866,0.016975,-0.016181,-0.005885
2.180000,-1.100000,0.320171,0.040000,-534824.178552,441378686.969231,-421052272.857002,-215671137.974632,0.008201,-0.008048,-0.004063
2.260000,-1.140000,0.240178,0.040000,-4047160.151948,1489654937.825330,-1456633539.556609,1179789783.620721,0.027879,-0.027630,0.022228
2.300000,-1.140000,0.200214,0.040000,-8709455.879846,3132182855.715463,-3030524651.101265,3165063665.509575,0.058438,-0.057671,0.059632
2.300000,-1.100000,0.200273,0.040000,-10458975.729227,4972501678.999402,-4783639081.256433,-210109526.811925,0.092617,-0.091194,-0.003959
2.260000,-1.100000,0.240227,0.040000,-4235591.033670,2171446467.002445,-2108514103.965506,-318071489.570322,0.040556,-0.040081,-0.005993
2.340000,-1.140000,0.160267,0.040000,-18559361.069513,6812218618.183537,-6566561179.727862,8137874175.252858,0.126958,-0.125106,0.153322
2.380000,-1.140000,0.120356,0.040000,-39743758.935050,15360124138.644917,-14452410110.895931,20336501907.133957,0.284263,-0.277422,0.383151
2.380000,-1.100000,0.120454,0.040000,-58535752.620990,26570937776.604156,-25505878945.843029,1824940894.873832,0.494592,-0.486565,0.034383
2.340000,-1.100000,0.160341,0.040000,-24956134.378217,11460631161.664387,-11017830003.589474,340220745.213197,0.213422,-0.210085,0.006410
2.420000,-1.140000,0.080533,0.040000,-86877834.022885,33843998620.138905,-27075208900.508289,48634938267.187859,0.599382,-0.548371,0.916310
2.460000,-1.140000,0.041056,0.040000,-196797034.928931,67794813156.866386,-26871025509.282742,79807241832.506378,1.045985,-0.737574,1.503615
2.460000,-1.100000,0.041342,0.040000,-317666569.735635,116406287865.596710,-69043534524.001724,19007282397.965370,1.925459,-1.568523,0.358108
2.420000,-1.100000,0.080679,0.040000,-136398311.763928,59958057068.509323,-52993755575.819687,8209219212.903073,1.090281,-1.037797,0.154666
2.500000,-1.140000,0.009254,0.040000,-346530664.512249,94665355966.928528,-29236665110.256989,102923178861.454453,1.413736,-0.920650,1.939132
2.500000,-1.100000,0.010448,0.040000,-738738450.297523,209792668641.813324,-114946245237.881256,29110206236.119511,3.416527,-2.701742,0.548453
-2.500000,-1.060000,0.000299,0.040000,550017963.290044,-182578635040.777130,58344248125.851303,-108938067323.724365,-2.737693,1.801434,-2.052456
-2.500000,-1.020000,0.009851,0.040000,-497143407.583914,238417444174.220154,-272645256251.209930,-28952616772.331173,4.685384,-4.943333,-0.545484
-2.460000,-1.060000,0.040001,0.040000,244920700.340591,-81819581908.813583,-24886919120.343128,-60171015249.351227,-0.938405,0.134240,-1.133657
-2.420000,-1.060000,0.080001,0.040000,111111722.307222,-39472927534.626343,13294286052.661039,-18544654063.519279,-0.595727,0.398438,-0.349392
-2.420000,-1.020000,0.080604,0.040000,87563996.691099,-14417977123.988495,-20528029270.442635,-23922314169.461838,-0.074122,-0.189239,-0.450710
-2.460000,-1.020000,0.041195,0.040000,197759750.448994,-8455732045.071731,-122194739516.578278,-28455053648.381039,0.579148,-1.563761,-0.536110
-2.380000,-1.060000,0.120000,0.040000,50427727.430441,-19903781841.720043,19154887534.571495,3037181941.403493,-0.370766,0.365122,0.057222
-2.340000,-1.060000,0.160000,0.040000,22761270.894957,-9074677002.256321,8765726740.645172,993605415.804414,-0.169226,0.166898,0.018720
-2.340000,-1.020000,0.160303,0.040000,15375641.520338,-7624329024.569936,7360179484.863738,-5815855434.633306,-0.142154,0.140163,-0.109574
-2.380000,-1.020000,0.120404,0.040000,37560523.322466,-15691374180.372707,13012998635.996969,-11817686742.485037,-0.280496,0.260311,-0.222652
-2.300000,-1.060000,0.200000,0.040000,10126625.333194,-4162512029.852803,4023449271.834334,144412752.660839,-0.077638,0.076590,0.002721
-2.260000,-1.060000,0.240000,0.040000,4382232.545544,-1922771565.293324,1875285467.231261,-130466454.152163,-0.035958,0.035600,-0.002458
-2.260000,-1.020000,0.240202,0.040000,1877447.178572,-1469869056.881762,1426676186.180624,-1544985146.131479,-0.027449,0.027124,-0.029108
-2.300000,-1.020000,0.200242,0.040000,5817859.473413,-3385920673.387449,3263302057.077284,-2962214796.664316,-0.063100,0.062176,-0.055810
-2.220000,-1.060000,0.280000,0.040000,1805601.179484,-868300927.315824,771212898.389016,-141026919.635942,-0.015811,0.015079,-0.002657
-2.180000,-1.060000,0.320000,0.040000,680545.899423,-423286126.999481,413928476.284561,-110038008.356103,-0.007922,0.007852,-0.002073
-2.180000,-1.020000,0.320152,0.040000,-125950.641653,-283611550.257788,256057932.931815,-433433161.263542,-0.005188,0.004980,-0.008166
-2.220000,-1.020000,0.280173,0.040000,369950.653330,-625140559.655846,562501431.822254,-869417236.868729,-0.011424,0.010952,-0.016380
2.180000,-1.060000,0.320000,0.040000,312634.393748,172594113.996208,-178858773.837832,-434969809.761316,0.003287,-0.003334,-0.008195
2.220000,-1.060000,0.280000,0.040000,3051.781703,506056246.278980,-415080550.065823,-973329048.126395,0.009020,-0.008335,-0.018338
2.220000,-1.020000,0.280173,0.040000,2395724.882666,-280703863.466396,244929603.798925,-1246004198.898633,-0.005086,0.004817,-0.023475
2.180000,-1.020000,0.320152,0.040000,1415392.685764,-201566701.359804,227790294.594489,-504568195.012868,-0.003946,0.004143,-0.009506
2.260000,-1.060000,0.240000,0.040000,-1219356.580696,1439738984.430975,-1388923013.617400,-1946431470.780888,0.026838,-0.026455,-0.036672
2.300000,-1.060000,0.200000,0.040000,-4840478.314978,3555968220.890999,-3408880446.735631,-3987064834.551434,0.066165,-0.065057,-0.075119
2.300000,-1.020000,0.200242,0.040000,6012772.817478,-379103058.301877,392861367.632559,-5675672317.193376,-0.007220,0.007324,-0.106933
2.260000,-1.020000,0.240202,0.040000,3890429.860858,-397923374.017817,404478389.061704,-2621085543.303603,-0.007534,0.007584,-0.049383
2.340000,-1.060000,0.160000,0.040000,-14392953.835309,8482309549.123095,-8152028702.914794,-8375798053.429089,0.157945,-0.155456,-0.157805
2.380000,-1.060000,0.120000,0.040000,-38054613.457703,19652221783.205688,-18951948485.264664,-18182743736.519459,0.366301,-0.361024,-0.342573
2.380000,-1.020000,0.120404,0.040000,11631256.308170,566218872.159445,-874498324.507152,-26840483277.905224,0.012410,-0.014734,-0.505690
2.340000,-1.020000,0.160303,0.040000,8722938.291646,-139069287.314131,162686231.042980,-12315693202.477770,-0.002754,0.002932,-0.232035
2.420000,-1.060000,0.080001,0.040000,-94303657.244089,45017173174.107521,-45203204259.396530,-37473309791.185188,0.849201,-0.850603,-0.706019
2.460000,-1.060000,0.040001,0.040000,-223775648.518158,88434740693.681259,-69339720893.201828,-57676851311.355942,1.558233,-1.414329,-1.086665
2.460000,-1.020000,0.041195,0.040000,15573238.061660,6002432550.177958,-18450211716.256470,-100135492521.130417,0.183446,-0.277256,-1.886611
2.420000,-1.020000,0.080604,0.040000,13938107.572748,3265491535.159273,-6180725559.720002,-60882057960.891052,0.078001,-0.099971,-1.147053
2.500000,-1.060000,0.000299,0.040000,-516607343.864457,150360635988.943024,-74116090805.422592,-70726569513.250397,2.401934,-1.827338,-1.332530
2.500000,-1.020000,0.009851,0.040000,-119678090.555313,47310746688.987984,-51401119996.752174,-131022725966.263000,0.914481,-0.945307,-2.468544
-2.500000,-0.980000,0.009851,0.040000,-15622917.981442,74702643671.127243,16324928511.396027,130427371455.328934,0.892937,-0.206933,2.457327
-2.500000,-0.940000,0.000299,0.040000,309376835.538267,-130577738242.717239,206794856639.471649,100191075656.609222,-2.890953,3.465343,1.887658
-2.460000,-0.980000,0.041195,0.040000,33728421.304972,19245827046.844307,-23275086798.098007,56711564825.190384,0.385377,-0.415742,1.068479
-2.420000,-0.980000,0.080604,0.040000,9252808.729604,-1976548856.335047,-4091691026.932269,-351432968.558659,-0.002941,-0.042791,-0.006621
-2.420000,-0.940000,0.080001,0.040000,-82880640.790750,2310556026.823711,44897491114.249283,-4612366656.368780,-0.223296,0.579067,-0.086900
-2.460000,-0.940000,0.040001,0.040000,-157268646.753132,-5959905717.868149,170774921308.793091,40415783915.649940,-1.043851,2.285935,0.761457
-2.380000,-0.980000,0.120404,0.040000,-496560.256168,-4021987896.362356,3623158460.449471,-20287261171.934685,-0.073522,0.070517,-0.382224
-2.340000,-0.980000,0.160303,0.040000,-3392694.303410,-1651690619.030233,1575252374.227161,-9824332842.176109,-0.030687,0.030111,-0.185096
-2.340000,-0.940000,0.160000,0.040000,-24570640.073360,5612642457.755088,-5474429007.569129,-8837527514.110538,0.104964,-0.103923,-0.166504
-2.380000,-0.940000,0.120000,0.040000,-44776523.622844,10095271038.640419,-8309844803.864229,-18273869316.320572,0.180109,-0.166654,-0.344290
-2.300000,-0.980000,0.200242,0.040000,-3529057.797997,-507758619.213923,470452265.663066,-4772758250.783236,-0.009356,0.009074,-0.089922
-2.260000,-0.980000,0.240202,0.040000,-2794179.009023,-48519403.886443,34006915.350963,-2329836376.640899,-0.000832,0.000723,-0.043895
-2.260000,-0.940000,0.240000,0.040000,-7490940.068915,1655109629.790689,-1633295436.085201,-1970722155.808393,0.031060,-0.030896,-0.037130
-2.300000,-0.940000,0.200000,0.040000,-13574156.266027,3002822846.709318,-2936594945.183470,-4206286836.184956,0.056201,-0.055701,-0.079249
-2.220000,-0.980000,0.280173,0.040000,-1956625.489086,139273529.510111,-166077375.124398,-1178776295.793998,0.002775,-0.002977,-0.022209
-2.180000,-0.980000,0.320152,0.040000,-1270960.964817,161955642.032444,-143837566.638247,-524866017.599155,0.002949,-0.002812,-0.009889
-2.180000,-0.940000,0.320000,0.040000,-2210644.246496,519084522.505718,-532229880.181389,-338942653.520048,0.009854,-0.009953,-0.006386
-2.220000,-0.940000,0.280000,0.040000,-4100385.886845,884135818.343276,-791933945.203821,-907208101.883494,0.016136,-0.015442,-0.017092
2.180000,-0.980000,0.320152,0.040000,2152352.896729,-691444453.603967,665095186.630266,-321824865.605738,-0.012878,0.012680,-0.006063
2.220000,-0.980000,0.280173,0.040000,4270879.377653,-1217306584.157860,1121974359.386122,-841065440.986003,-0.022396,0.021677,-0.015846
2.220000,-0.940000,0.280000,0.040000,4322247.599832,-1563406064.420895,1407946516.986866,272673899.802056,-0.028577,0.027405,0.005137
2.180000,-0.940000,0.320000,0.040000,1934137.647090,-831242976.328001,810277866.107194,244800755.461001,-0.015543,0.015385,0.004612
2.260000,-0.980000,0.240202,0.040000,8349843.206377,-2318001363.971785,2276715481.548511,-1812942871.608804,-0.043439,0.043128,-0.034157
2.300000,-0.980000,0.200242,0.040000,16219396.933973,-4535077189.639721,4411481764.302223,-4132715267.095320,-0.084745,0.083813,-0.077863
2.300000,-0.940000,0.200000,0.040000,19554588.525844,-6558467611.804852,6369486095.420565,-118930876.672815,-0.122497,0.121073,-0.002241
2.260000,-0.940000,0.240000,0.040000,9297512.086036,-3221842935.929963,3155986530.511132,150795296.326962,-0.060329,0.059833,0.002841
2.340000,-0.980000,0.160303,0.040000,31549804.123987,-9127846576.850479,8857911661.410488,-9157828526.492285,-0.170448,0.168414,-0.172539
2.380000,-0.980000,0.120404,0.040000,61934842.000417,-19036097630.519238,18627587574.647881,-19838369984.468327,-0.356342,0.353264,-0.373766
2.380000,-0.940000,0.120000,0.040000,83847377.592554,-27786885158.871742,26999491225.804161,-2176748963.042721,-0.519071,0.513137,-0.041011
2.340000,-0.940000,0.160000,0.040000,40612243.582028,-13461012243.942877,13066924832.680387,-810133429.533942,-0.251386,0.248416,-0.015263
2.420000,-0.980000,0.080604,0.040000,123619349.888041,-40967262330.353691,38447185936.066315,-45970093472.965118,-0.757603,0.738611,-0.866103
2.460000,-0.980000,0.041195,0.040000,252452509.588835,-77101529137.522278,55477932977.140594,-77915254363.696030,-1.330417,1.167457,-1.467969
2.460000,-0.940000,0.040001,0.040000,356710979.895327,-109808145166.958099,89088344991.685074,-6366861574.786642,-1.951737,1.795588,-0.119955
2.420000,-0.940000,0.080001,0.040000,172849774.048815,-58566747830.181023,59270290591.852936,-4106673039.409863,-1.107408,1.112710,-0.077372
2.500000,-0.980000,0.009851,0.040000,622939184.727884,-162280130592.950104,106010575232.971603,-104159548786.312775,-2.739406,2.315346,-1.962426
2.500000,-0.940000,0.000299,0.040000,746232153.424794,-182943377509.950745,95245334329.285217,-7780811068.593784,-2.951075,2.290162,-0.146595
-2.500000,-0.900000,0.010448,0.040000,516767584.939397,-135168414396.287949,409498840680.289734,-42002572593.707870,-4.097215,6.164632,-0.791353
-2.500000,-0.860000,0.009254,0.040000,-510437945.828810,265648905792.261993,48831024825.764244,-56122491662.950050,3.227484,-0.857490,-1.057380
-2.460000,-0.900000,0.041342,0.040000,-279130273.896490,49651577598.903214,215989303007.121674,-32251967748.675308,-0.565984,2.567915,-0.607646
-2.420000,-0.900000,0.080679,0.040000,-142002306.847614,18358665374.457767,47038086120.519142,-23133737667.413666,-0.023746,0.516591,-0.435853
-2.420000,-0.860000,0.080533,0.040000,-138680646.382249,35345961248.656479,22395921989.856880,-748726247.484500,0.339571,0.095585,-0.014106
-2.460000,-0.860000,0.041056,0.040000,-275741799.136230,98572803216.959091,133730537164.494766,-26292049604.000576,0.544150,1.206542,-0.495357
-2.380000,-0.900000,0.120454,0.040000,-72601676.159219,19376863298.637650,-16347515642.640896,-7290364163.843302,0.347949,-0.325119,-0.137355
-2.340000,-0.900000,0.160341,0.040000,-37198691.181010,10491309464.991514,-10219452107.505878,-3361971155.099553,0.196126,-0.194077,-0.063341
-2.340000,-0.860000,0.160267,0.040000,-33882602.925224,10701236330.351234,-10427322597.026041,3978506477.360094,0.200069,-0.198005,0.074957
-2.380000,-0.860000,0.120356,0.040000,-69029174.401777,20948358464.490788,-20191656960.259819,7218178652.850968,0.390402,-0.384700,0.135995
-2.300000,-0.900000,0.200273,0.040000,-19020901.440021,5369859185.945807,-5234713984.571216,-1437353632.779492,0.100407,-0.099389,-0.027081
-2.260000,-0.900000,0.240227,0.040000,-9652940.458230,2780754056.335667,-2733621391.002963,-539726884.977345,0.052125,-0.051769,-0.010169
-2.260000,-0.860000,0.240178,0.040000,-7593997.079280,2732604604.672429,-2682198191.928397,1358844942.046643,0.051199,-0.050819,0.025601
-2.300000,-0.860000,0.200214,0.040000,-16294664.671633,5414364289.622888,-5273979288.909088,2288713540.231767,0.101216,-0.100158,0.043121
-2.220000,-0.900000,0.280195,0.040000,-4826207.277070,1436084569.203063,-1307622056.380909,-214112590.170540,0.026331,-0.025362,-0.004034
-2.180000,-0.900000,0.320171,0.040000,-2352233.131315,800829732.021041,-783720300.718698,-43786926.683756,0.014991,-0.014862,-0.000825
-2.180000,-0.860000,0.320134,0.040000,-1357308.135567,740164829.318555,-710376662.318054,530503516.533430,0.013777,-0.013552,0.009995
-2.220000,-0.860000,0.280153,0.040000,-3362368.489821,1366922414.060963,-1244711159.827600,893980452.379766,0.025063,-0.024142,0.016843
2.180000,-0.900000,0.320171,0.040000,554666.774362,-540666957.536147,547985951.076165,621637614.609480,-0.010228,0.010283,0.011712
2.220000,-0.900000,0.280195,0.040000,1996116.877852,-1140131118.806184,992953166.072967,1251350935.219943,-0.020649,0.019540,0.023576
2.220000,-0.860000,0.280153,0.040000,-2108299.936191,-201350175.823472,198064036.585027,1935652341.017041,-0.003775,0.003750,0.036469
2.180000,-0.860000,0.320134,0.040000,-1625407.137712,-56992641.381958,13198665.186221,926831300.468236,-0.000826,0.000496,0.017462
2.260000,-0.900000,0.240227,0.040000,5394226.615874,-2551600315.555473,2495145712.634761,2306638999.844816,-0.047755,0.047329,0.043458
2.300000,-0.900000,0.200273,0.040000,12981746.637773,-5336102744.329562,5179697047.492488,4302665506.766729,-0.099651,0.098473,0.081065
2.300000,-0.860000,0.200214,0.040000,-1645495.212991,-1433836707.186328,1381796440.791579,6955289643.429197,-0.026720,0.026328,0.131042
2.260000,-0.860000,0.240178,0.040000,-2334772.173540,-549099044.047197,528279472.791130,3589514330.390196,-0.010228,0.010071,0.067629
2.340000,-0.900000,0.160341,0.040000,29357451.242828,-11030021669.569975,10717909143.363199,8243741845.296335,-0.206048,0.203696,0.155317
2.380000,-0.900000,0.120454,0.040000,63878313.339950,-22575911298.065403,22142414115.281372,16307455540.090359,-0.422893,0.419626,0.307242
2.380000,-0.860000,0.120356,0.040000,9831961.403652,-6579595273.736380,6175696727.911262,26731391881.124897,-0.121680,0.118637,0.503635
2.340000,-0.860000,0.160267,0.040000,1418473.324625,-3254818475.998152,3161009311.258036,13580521174.097933,-0.060792,0.060085,0.255865
2.420000,-0.900000,0.080679,0.040000,135332281.088819,-45531648027.923630,44052479983.742264,36651652296.629433,-0.849482,0.838335,0.690538
2.460000,-0.900000,0.041342,0.040000,280833492.205515,-78980344796.585876,63240210227.258865,61997790004.251862,-1.399070,1.280448,1.168074
2.460000,-0.860000,0.041056,0.040000,69189822.197447,-12986396610.588711,5700332363.343520,83991737083.943268,-0.203489,0.148580,1.582453
2.420000,-0.860000,0.080533,0.040000,29212619.473281,-10447856757.989164,8938256748.015488,54309912997.307571,-0.188311,0.176934,1.023230
2.500000,-0.900000,0.010448,0.040000,655028032.903826,-151126862766.408112,107633291559.344620,82908357446.442490,-2.601484,2.273707,1.562042
2.500000,-0.860000,0.009254,0.040000,29486818.750432,18892993385.638947,-18474534129.020527,106833242270.371582,0.353590,-0.350436,2.012800
-2.500000,-0.820000,0.000896,0.040000,310531880.507021,-39647081260.723549,262417642839.973419,-2698131970.081360,-2.006112,3.684963,-0.050834
-2.500000,-0.780000,0.011045,0.040000,39049774.631146,-51473021478.164726,-37917643881.785683,-54676717602.019974,-0.464530,-0.209139,-1.030141
-2.460000,-0.820000,0.040010,0.040000,-150532449.138478,50021607531.709595,97695750412.639236,16733059419.966293,0.107512,1.005720,0.315261
-2.420000,-0.820000,0.080005,0.040000,-72690148.759862,14949184474.049467,17099719186.032143,27498136257.146904,0.100505,0.141023,0.518081
-2.420000,-0.780000,0.080759,0.040000,29500433.114396,-8793885192.575703,19485585967.958607,21513547041.690563,-0.226113,0.306688,0.405328
-2.460000,-0.780000,0.041497,0.040000,42606453.345687,-35422737806.208244,50103283523.953667,-9584463936.314764,-0.750362,0.860998,-0.180577
-2.380000,-0.820000,0.120003,0.040000,-33436336.608508,11543978131.335953,-9869756039.314663,18662310931.637016,0.208032,-0.195415,0.351609
-2.340000,-0.820000,0.160003,0.040000,-14291451.302002,6213683797.862715,-6053598684.174420,9901080744.858503,0.116165,-0.114958,0.186542
-2.340000,-0.780000,0.160381,0.040000,14747257.935163,-1016604660.585211,1007245630.866048,11948881164.157717,-0.019101,0.019030,0.225124
-2.380000,-0.780000,0.120507,0.040000,20907950.220173,-1464853122.849535,1427612709.212889,22448926167.910206,-0.027388,0.027108,0.422951
-2.300000,-0.820000,0.200002,0.040000,-5339760.433060,3050001112.257772,-2964836908.174537,5320967821.575978,0.056982,-0.056341,0.100250
-2.260000,-0.820000,0.240002,0.040000,-1402602.785187,1448863801.398592,-1416940513.507436,2893292585.761711,0.027117,-0.026876,0.054511
-2.260000,-0.780000,0.240254,0.040000,6960088.469869,-595494133.073036,596604826.330528,3382139676.201942,-0.011226,0.011234,0.063721
-2.300000,-0.780000,0.200305,0.040000,10232112.225970,-773457578.129539,770863297.758015,6355831153.747317,-0.014558,0.014538,0.119748
-2.220000,-0.820000,0.280001,0.040000,156452.846676,596629518.795812,-497132605.077767,1607642181.567206,0.010678,-0.009929,0.030289
-2.180000,-0.820000,0.320001,0.040000,644233.965750,241805099.163112,-261432429.295220,809718165.277899,0.004667,-0.004815,0.015256
-2.180000,-0.780000,0.320191,0.040000,3037411.965985,-276632849.161790,313787895.924618,889530563.341428,-0.005422,0.005702,0.016759
-2.220000,-0.780000,0.280218,0.040000,4641401.927838,-390477348.076196,340903392.152843,1845036646.425380,-0.007077,0.006703,0.034762
2.180000,-0.820000,0.320001,0.040000,-3769122.704124,748033289.246841,-709833855.434405,836961497.744857,0.013877,-0.013590,0.015769
2.220000,-0.820000,0.280001,0.040000,-6408648.614316,1158874330.659286,-1102450062.462563,1787713416.720546,0.021515,-0.021090,0.033682
2.220000,-0.780000,0.280218,0.040000,-8989470.305442,2011143436.994765,-1821919034.524094,723395108.728744,0.036822,-0.035396,0.013629
2.180000,-0.780000,0.320191,0.040000,-4892003.396919,1171228079.712705,-1173256011.291549,230401149.865056,0.022078,-0.022093,0.004341
2.260000,-0.820000,0.240002,0.040000,-10854836.450573,1912446692.600403,-1890175701.518943,3356218459.087927,0.035906,-0.035738,0.063233
2.300000,-0.820000,0.200002,0.040000,-18406989.735274,3355108009.092183,-3285755820.880491,6601972969.612939,0.062820,-0.062298,0.124385
2.300000,-0.780000,0.200305,0.040000,-30015866.971929,6948571830.705021,-6793951105.292427,3399377362.758797,0.130041,-0.128876,0.064046
2.260000,-0.780000,0.240254,0.040000,-16434148.462093,3769256772.438467,-3715597596.843876,1650108591.702370,0.070712,-0.070307,0.031089
2.340000,-0.820000,0.160003,0.040000,-31440798.382949,6115781407.288227,-5971563658.944378,12906670147.498589,0.114410,-0.113323,0.243169
2.380000,-0.820000,0.120003,0.040000,-54497262.775098,11616666198.397297,-11297144276.154442,25065902051.886444,0.217059,-0.214651,0.472256
2.380000,-0.780000,0.120507,0.040000,-101195435.136963,24541332270.895626,-23813838854.442142,12997587047.006607,0.458261,-0.452778,0.244882
2.340000,-0.780000,0.160381,0.040000,-54962819.947326,13003039660.105673,-12702858894.441559,6754574428.228125,0.243288,-0.241026,0.127260
2.420000,-0.820000,0.080005,0.040000,-96662326.124156,23204678321.686485,-22626715347.953110,44789132749.317719,0.433923,-0.429567,0.843853
2.460000,-0.820000,0.040010,0.040000,-176866148.915753,43187477005.162918,-31795037593.994411,65231891120.125122,0.749285,-0.663429,1.229007
2.460000,-0.780000,0.041497,0.040000,-351497763.650790,73399242320.070023,-47473662478.195923,31841948064.735428,1.236348,-1.040967,0.599921
2.420000,-0.780000,0.080759,0.040000,-187754215.065657,44819898634.748161,-40594237653.922173,23260133551.206337,0.820549,-0.788703,0.438234
2.500000,-0.820000,0.000896,0.040000,-329574701.650459,70611371107.542526,-33320655998.504478,77481630121.988785,1.119586,-0.838554,1.459799
2.500000,-0.780000,0.011045,0.040000,-603539212.590933,98940045635.553894,-57639509833.065826,37485091577.777634,1.630650,-1.319400,0.706241
-2.500000,-0.740000,0.008657,0.040000,470946106.885236,-224138129970.470154,-16280930256.739580,-164594623834.693207,-2.864002,1.052148,-3.101058
-2.500000,-0.700000,0.001493,0.040000,-604754262.332112,191850160987.934692,-470510239636.116150,-108658433984.595856,5.189603,-7.289650,-2.047188
-2.460000,-0.740000,0.040926,0.040000,226716448.878567,-74135226671.730209,-89594180623.594284,-79585506536.867081,-0.471324,-0.762579,-1.499437
-2.420000,-0.740000,0.080467,0.040000,127724808.258361,-25122333582.164223,-15019754918.675993,-6308560993.432807,-0.246429,-0.056091,-0.118857
-2.420000,-0.700000,0.080014,0.040000,184604422.941725,-11814480698.504934,-70202034656.149246,-17421574793.662666,0.240980,-0.859075,-0.328233
-2.460000,-0.700000,0.040028,0.040000,333127179.526658,-29254842159.558666,-286892617032.010193,-56743942500.196739,1.235742,-3.618303,-1.069089
-2.380000,-0.740000,0.120312,0.040000,72995968.159831,-14674213457.621063,14388538047.337574,17532591900.253460,-0.274856,0.272703,0.330324
-2.340000,-0.740000,0.160234,0.040000,42189230.355486,-8082025134.723101,7918843609.617739,9380129398.414749,-0.151348,0.150118,0.176727
-2.340000,-0.700000,0.160007,0.040000,57205712.073863,-12341581983.920042,12093661230.752342,3246418658.837750,-0.231121,0.229253,0.061164
-2.380000,-0.700000,0.120009,0.040000,102644351.266551,-20877338045.207417,17585238193.277191,6197389868.667041,-0.374734,0.349924,0.116762
-2.300000,-0.740000,0.200187,0.040000,24575058.270638,-4549125937.547099,4463067342.282197,4942222298.612802,-0.085222,0.084573,0.093114
-2.260000,-0.740000,0.240156,0.040000,14376930.303053,-2612991558.139105,2584034440.063715,2570679360.088308,-0.049067,0.048848,0.048433
-2.260000,-0.700000,0.240005,0.040000,17771351.702438,-3829423257.260952,3782195766.513307,709478987.625349,-0.071882,0.071526,0.013367
-2.300000,-0.700000,0.200006,0.040000,31906160.192521,-6844407448.136172,6709436750.490119,1583768323.820153,-0.128190,0.127173,0.029839
-2.220000,-0.740000,0.280134,0.040000,8418807.319208,-1545000279.629374,1450062959.348571,1410920939.298134,-0.028572,0.027857,0.026583
-2.180000,-0.740000,0.320117,0.040000,4918482.394330,-977374808.747419,944061535.484462,677076299.395959,-0.018226,0.017975,0.012757
-2.180000,-0.700000,0.320003,0.040000,5427507.374958,-1261269683.067488,1255267486.162635,-20101374.560855,-0.023729,0.023684,-0.000379
-2.220000,-0.700000,0.280004,0.040000,9858191.437788,-2112518219.278723,1929855238.642423,214637115.717701,-0.038769,0.037392,0.004044
2.180000,-0.740000,0.320117,0.040000,-4281369.355722,1267067571.788551,-1258612815.428138,-304555156.225264,0.023824,-0.023761,-0.005738
2.220000,-0.740000,0.280134,0.040000,-8422648.216838,2232199511.855500,-2024830080.832457,-517031235.803233,0.040884,-0.039321,-0.009741
2.220000,-0.700000,0.280004,0.040000,-4397521.178354,1652363764.687114,-1529529229.828590,-1961795452.392328,0.030437,-0.029511,-0.036961
2.180000,-0.700000,0.320003,0.040000,-1823781.506521,943082626.157312,-894163594.275653,-1089117927.169626,0.017492,-0.017123,-0.020520
2.260000,-0.740000,0.240156,0.040000,-16254739.704089,4236006802.541927,-4174039078.820721,-866418980.280876,0.079459,-0.078992,-0.016324
2.300000,-0.740000,0.200187,0.040000,-30985940.664652,7885242902.041953,-7711409930.208905,-1320382866.650014,0.147580,-0.146270,-0.024877
2.300000,-0.700000,0.200006,0.040000,-19877542.788641,5836993670.446992,-5709908113.759089,-5709221540.451086,0.109254,-0.108296,-0.107565
2.260000,-0.700000,0.240005,0.040000,-9611055.341584,3101518739.900400,-3054962326.067929,-3225790515.559217,0.058171,-0.057820,-0.060776
2.340000,-0.740000,0.160234,0.040000,-58609167.686560,14736095591.306150,-14411143056.988810,-2151402618.778751,0.275800,-0.273351,-0.040534
2.380000,-0.740000,0.120312,0.040000,-110324608.162933,27508537021.409729,-26857612064.583977,-3875169894.930953,0.514598,-0.509692,-0.073010
2.380000,-0.700000,0.120009,0.040000,-77271782.541112,20094609970.696419,-19739143761.670143,-18817038645.334480,0.376585,-0.373906,-0.354524
2.340000,-0.700000,0.160007,0.040000,-39682903.007398,10891491215.666531,-10663361538.163647,-10277215801.888353,0.203913,-0.202193,-0.193629
2.420000,-0.740000,0.080467,0.040000,-207047282.862136,49907085514.524353,-46638869770.429077,-5197372972.003028,0.921806,-0.897176,-0.097922
2.460000,-0.740000,0.040926,0.040000,-387705734.221218,80670523308.422409,-58263451373.370255,-3577927534.597025,1.393231,-1.224366,-0.067410
2.460000,-0.700000,0.040028,0.040000,-277396180.888906,62878427027.793556,-57556708402.242287,-44684364336.090874,1.154587,-1.114481,-0.841879
2.420000,-0.700000,0.080014,0.040000,-147601317.265112,37397218218.519745,-38923513172.965767,-31911209546.972466,0.713212,-0.724715,-0.601226
2.500000,-0.740000,0.008657,0.040000,-705886859.907436,119311746338.563873,-78210204352.831650,-894371872.287681,2.015589,-1.705839,-0.016850
2.500000,-0.700000,0.001493,0.040000,-529552899.855754,98109526656.642258,-60394642185.529320,-51584084259.244797,1.635269,-1.351041,-0.971874
-2.500000,-0.660000,0.011642,0.040000,-619561427.972966,191667121728.245728,-475171709000.339905,81936351554.359482,5.213537,-7.350093,1.543728
-2.500000,-0.620000,0.008060,0.040000,317742842.693094,-190646000432.044464,-75340329668.847748,152900881822.478149,-2.088480,0.083946,2.880741
-2.460000,-0.660000,0.041660,0.040000,325052335.451196,-26608590554.707890,-299421482561.768799,41175293838.989746,1.341457,-3.798496,0.775766
-2.420000,-0.660000,0.080843,0.040000,178873009.566733,-10480045050.096790,-74693717982.409409,11960855213.136740,0.283967,-0.925856,0.225349
-2.420000,-0.620000,0.080405,0.040000,111481572.912436,-21910288372.314491,-25430326511.957912,4206247008.824076,-0.145225,-0.211545,0.079248
-2.460000,-0.620000,0.040804,0.040000,206585885.376026,-69412420932.893646,-121617566298.348862,73297310532.999878,-0.228036,-1.211611,1.380964
-2.380000,-0.660000,0.120563,0.040000,97908928.267443,-20762796447.609913,17485743775.440502,-7155441947.249009,-0.372661,0.347964,-0.134813
-2.340000,-0.660000,0.160423,0.040000,53243273.173967,-12340884779.168612,12098504257.675310,-4194095498.823683,-0.231139,0.229313,-0.079019
-2.340000,-0.620000,0.160203,0.040000,30285527.574634,-8175664164.656566,8017420043.768138,-10386030545.337061,-0.153140,0.151947,-0.195679
-2.380000,-0.620000,0.120270,0.040000,58890202.216507,-14618870717.304441,14098531591.081003,-18168331980.524498,-0.272487,0.268566,-0.342302
-2.300000,-0.660000,0.200339,0.040000,28704146.422770,-6819911561.080829,6684702754.681625,-2526736483.955663,-0.127727,0.126708,-0.047605
-2.260000,-0.660000,0.240282,0.040000,15289759.413628,-3771317954.864195,3723005133.068374,-1565637038.101207,-0.070781,0.070417,-0.029498
-2.260000,-0.620000,0.240135,0.040000,7029197.307509,-2416843554.254635,2383495955.230423,-3479505911.269352,-0.045346,0.045095,-0.065556
-2.300000,-0.620000,0.200162,0.040000,15008789.961449,-4471973606.550538,4381246424.405096,-5980853506.805643,-0.083742,0.083058,-0.112683
-2.220000,-0.660000,0.280242,0.040000,8005435.366600,-2027748150.960652,1837991826.263839,-939150512.621154,-0.037131,0.035701,-0.017694
-2.180000,-0.660000,0.320212,0.040000,4086561.090815,-1167639899.701032,1170230357.600427,-533264206.393511,-0.022014,0.022033,-0.010047
-2.180000,-0.620000,0.320101,0.040000,1014909.981691,-765925089.279956,717456282.899799,-1206470445.632618,-0.014157,0.013791,-0.022731
-2.220000,-0.620000,0.280116,0.040000,2981990.709447,-1318011469.971355,1230499679.722355,-2144994510.842376,-0.024337,0.023678,-0.040413
2.180000,-0.660000,0.320212,0.040000,1894345.692013,33092298.987435,-74461856.445337,-1355838268.739547,0.000857,-0.001169,-0.025545
2.220000,-0.660000,0.280242,0.040000,2090323.878112,242653560.607973,-161472480.252258,-2608607499.740056,0.004113,-0.003501,-0.049148
2.220000,-0.620000,0.280116,0.040000,9046596.204057,-1118764777.800736,998108988.895973,-2451709750.965983,-0.020396,0.019487,-0.046192
2.180000,-0.620000,0.320101,0.040000,5750331.453570,-700984344.845345,744262596.918297,-1229273592.525958,-0.013452,0.013778,-0.023160
2.260000,-0.660000,0.240282,0.040000,1759737.298882,764415790.668557,-748799217.382141,-4548801994.520917,0.014314,-0.014196,-0.085702
2.300000,-0.660000,0.200339,0.040000,177027.120014,1607176515.976876,-1568828084.119079,-8156382816.074902,0.030063,-0.029774,-0.153671
2.300000,-0.620000,0.200162,0.040000,22684730.674908,-3280143321.607749,3222516739.542429,-7839610268.194686,-0.061474,0.061040,-0.147703
2.260000,-0.620000,0.240135,0.040000,14278334.057881,-1959911088.841516,1941424299.388689,-4357021582.953200,-0.036821,0.036682,-0.082089
2.340000,-0.660000,0.160423,0.040000,-4035786.426574,3130151044.230906,-3069357965.467528,-14703623588.612206,0.058630,-0.058172,-0.277025
2.380000,-0.660000,0.120563,0.040000,-13348177.583138,5856120135.139246,-6047426891.034503,-26636620509.632755,0.111414,-0.112856,-0.501849
2.380000,-0.620000,0.120270,0.040000,59438468.496374,-10237296918.521635,10184919183.931574,-25170235620.947884,-0.192581,0.192186,-0.474222
2.340000,-0.620000,0.160203,0.040000,36431817.037085,-5675118532.643693,5563638996.675312,-14069454285.534800,-0.106292,0.105452,-0.265077
2.420000,-0.660000,0.080843,0.040000,-31916110.697540,11978205629.295742,-14506791292.138729,-50358406414.641418,0.239968,-0.259024,-0.948782
2.460000,-0.660000,0.041660,0.040000,-66197592.181145,20116350371.248657,-28336583989.857090,-75654128255.335526,0.425466,-0.487415,-1.425368
2.460000,-0.620000,0.040804,0.040000,169315490.355216,-35960735406.001656,23835121187.976398,-71919702532.556808,-0.608985,0.517604,-1.355009
2.420000,-0.620000,0.080405,0.040000,99031416.890741,-19678110977.707794,17691377994.384518,-47481539544.762001,-0.359518,0.344545,-0.894580
2.500000,-0.660000,0.011642,0.040000,-250008888.715565,64315885543.799492,-60581591031.962654,-95034621344.982681,1.190642,-1.162499,-1.790507
2.500000,-0.620000,0.008060,0.040000,377297166.400660,-85484088665.671890,54510429608.303764,-91178947031.843628,-1.435501,1.202077,-1.717864
-2.500000,-0.580000,0.002090,0.040000,-61563014.199871,-46563540013.978645,-78668847209.679199,59960129614.760651,-0.169449,-0.774331,1.129684
-2.500000,-0.540000,0.012239,0.040000,206381150.743794,-21603600874.228439,237207352120.403870,31004609318.933697,-1.625654,3.250494,0.584145
-2.460000,-0.580000,0.040055,0.040000,17386485.986528,-37637544397.749832,15531330888.655205,12766194822.063953,-0.584165,0.417567,0.240523
-2.420000,-0.580000,0.080027,0.040000,3667776.942570,-8407417353.642912,9324956017.690422,-20153190533.556656,-0.163587,0.170501,-0.379698
-2.420000,-0.540000,0.080931,0.040000,-111143663.175151,12435431436.524670,12322708666.443037,-26012000864.864727,0.094353,0.092230,-0.490081
-2.460000,-0.540000,0.041830,0.040000,-183034290.574450,46701420082.301895,75082799041.895309,-2260711175.347776,0.191536,0.726258,-0.042593
-2.380000,-0.580000,0.120018,0.040000,-2854979.542767,-2422007628.231644,2186931794.915205,-23328614252.838032,-0.044303,0.042532,-0.439525
-2.340000,-0.580000,0.160014,0.040000,-5263794.978285,-1291776526.838273,1261833997.534046,-13344169901.918289,-0.024169,0.023943,-0.251412
-2.340000,-0.540000,0.160467,0.040000,-42787390.646100,6107008794.878041,-6007400581.534872,-12214918206.785059,0.114497,-0.113746,-0.230136
-2.380000,-0.540000,0.120623,0.040000,-68528308.983012,9747552830.378384,-8416284558.427831,-21292838438.602161,0.176125,-0.166092,-0.401169
-2.300000,-0.580000,0.200011,0.040000,-5560989.418059,-565151726.649514,545906405.049331,-7640554155.152056,-0.010539,0.010394,-0.143952
-2.260000,-0.580000,0.240009,0.040000,-4924629.622934,-178190533.657084,169690123.047996,-4386876514.707211,-0.003309,0.003245,-0.082651
-2.260000,-0.540000,0.240312,0.040000,-17126282.282071,2255076162.631670,-2237294437.235686,-3973735656.615148,0.042386,-0.042252,-0.074867
-2.300000,-0.540000,0.200374,0.040000,-26975606.102770,3671771681.612914,-3616383141.410776,-6978915919.272134,0.068865,-0.068448,-0.131487
-2.220000,-0.580000,0.280008,0.040000,-3988056.527649,79746304.210074,-132775277.346887,-2591123809.226194,0.001802,-0.002202,-0.048818
-2.180000,-0.580000,0.320007,0.040000,-3057672.058931,160816718.393875,-118194423.487494,-1389821299.534167,0.002789,-0.002468,-0.026185
-2.180000,-0.540000,0.320234,0.040000,-6984615.431580,848684646.137433,-888695542.541419,-1165912729.709455,0.016216,-0.016517,-0.021966
-2.220000,-0.540000,0.280267,0.040000,-10923273.463139,1328582779.682199,-1199186950.092826,-2277833333.421541,0.024300,-0.023325,-0.042916
2.180000,-0.580000,0.320007,0.040000,8448463.809224,-1542600513.202412,1502635410.892968,-825002593.435908,-0.028838,0.028536,-0.015544
2.220000,-0.580000,0.280008,0.040000,14146786.762453,-2443208737.394061,2281003456.719151,-1590431633.739065,-0.045115,0.043892,-0.029965
2.220000,-0.540000,0.280267,0.040000,15514294.284460,-2916777793.825799,2683786891.141727,104456700.741235,-0.053637,0.051881,0.001968
2.180000,-0.540000,0.320234,0.040000,8950675.089415,-1791464831.676300,1778314777.507372,183085278.163579,-0.033678,0.033579,0.003449
2.260000,-0.580000,0.240009,0.040000,23766449.146254,-4154087949.145911,4109886563.730375,-2706838915.921808,-0.078016,0.077682,-0.050998
2.300000,-0.580000,0.200011,0.040000,40122855.331940,-7176231862.243868,7047360972.670397,-4921937773.384830,-0.134476,0.133505,-0.092732
2.300000,-0.540000,0.200374,0.040000,46478129.179767,-8856586548.432364,8700852724.933352,-396730015.327295,-0.165983,0.164809,-0.007475
2.260000,-0.540000,0.240312,0.040000,26853460.924557,-5109316900.893854,5054970718.606133,-129198088.367604,-0.095955,0.095546,-0.002434
2.340000,-0.580000,0.160014,0.040000,68164825.304066,-12563695714.467167,12330537767.231785,-8820275051.503880,-0.235389,0.233632,-0.166179
2.380000,-0.580000,0.120018,0.040000,116677179.290567,-22199933663.313080,21765363034.734390,-15566271850.946129,-0.415803,0.412528,-0.293278
2.380000,-0.540000,0.120623,0.040000,139697868.585050,-26970803547.485786,26470306509.440769,-1418254614.605702,-0.505317,0.501545,-0.026721
2.340000,-0.540000,0.160467,0.040000,80517897.400132,-15444613953.757257,15171342502.463932,-833323043.507099,-0.289441,0.287381,-0.015700
2.420000,-0.580000,0.080027,0.040000,201390453.756295,-39919067649.811417,39190133488.252441,-25646949626.748707,-0.747978,0.742485,-0.483203
2.460000,-0.580000,0.040055,0.040000,350673090.514903,-67683869358.983437,52776682430.483597,-36529928156.560951,-1.190945,1.078601,-0.688245
2.460000,-0.540000,0.041830,0.040000,422673657.310511,-71017985453.140869,53938804371.606239,1298084820.317605,-1.241486,1.112773,0.024457
2.420000,-0.540000,0.080931,0.040000,242798972.444055,-46084658695.061195,43601967888.268692,-890229720.047813,-0.854229,0.835519,-0.016772
2.500000,-0.580000,0.002090,0.040000,608273973.274438,-102848736683.131775,52909403530.624710,-43283379942.711784,-1.655464,1.279110,-0.815484
2.500000,-0.540000,0.012239,0.040000,728889002.265208,-103243056745.259888,72089356732.466034,3287223058.081737,-1.769073,1.534291,0.061933
-2.500000,-0.500000,0.007463,0.040000,-604475761.412171,311094035543.015686,70562445876.150116,122109199389.922882,3.704003,-0.827751,2.300608
-2.500000,-0.460000,0.002687,0.040000,672547379.403160,-198311080827.238770,553937509197.647217,95074083989.784164,-5.746358,8.426441,1.791251
-2.460000,-0.500000,0.040690,0.040000,-334576845.156979,102524309314.071686,155890141080.597260,59752728505.159782,0.471014,1.476457,1.125776
-2.420000,-0.500000,0.080347,0.040000,-198252199.851670,31463827314.938091,31896216270.592594,5369433640.828588,0.234675,0.242821,0.101163
-2.420000,-0.460000,0.080045,0.040000,-231868993.297234,10945491214.930809,80372359132.703064,23710845498.202522,-0.309925,0.998117,0.446726
-2.460000,-0.460000,0.040090,0.040000,-393768453.235988,36041679899.681427,322417034883.416138,54233068958.620934,-1.347025,4.048453,1.021782
-2.380000,-0.500000,0.120232,0.040000,-118181796.765164,20119781826.474449,-19699578406.922337,-12903745379.040878,0.376693,-0.373527,-0.243114
-2.340000,-0.500000,0.160174,0.040000,-70848251.810318,11793246645.842361,-11600205712.152182,-7420532193.480542,0.221101,-0.219646,-0.139807
-2.340000,-0.460000,0.160023,0.040000,-80637979.391976,14158133463.980423,-13930342215.722853,-418925756.125316,0.265460,-0.263743,-0.007893
-2.380000,-0.460000,0.120030,0.040000,-136671170.120773,22438984609.581074,-18909616174.689568,-869887139.772501,0.402815,-0.376217,-0.016389
-2.300000,-0.500000,0.200139,0.040000,-42687070.500353,6955417034.492639,-6844318990.010834,-4194648222.522019,0.130416,-0.129579,-0.079030
-2.260000,-0.500000,0.240116,0.040000,-25828971.896384,4144008972.211092,-4106365066.323586,-2337139867.139172,0.077863,-0.077579,-0.044033
-2.260000,-0.460000,0.240015,0.040000,-28122808.847161,4922451398.051110,-4876496612.194963,64449129.496994,0.092482,-0.092136,0.001214
-2.300000,-0.460000,0.200018,0.040000,-47614059.870270,8327400933.411592,-8193928646.680528,-101750529.814631,0.156139,-0.155133,-0.001917
-2.220000,-0.500000,0.280099,0.040000,-15679842.888804,2495146975.426049,-2333192461.558614,-1399270119.028304,0.046095,-0.044874,-0.026363
-2.180000,-0.500000,0.320087,0.040000,-9539130.278260,1604873980.920534,-1570614034.117829,-741142593.000422,0.030043,-0.029785,-0.013964
-2.180000,-0.460000,0.320011,0.040000,-9786533.388409,1807129584.455880,-1794591170.648471,254186151.258775,0.033976,-0.033882,0.004789
-2.220000,-0.460000,0.280013,0.040000,-16602828.001667,2880661844.025302,-2661059024.518305,226084659.037901,0.053032,-0.051377,0.004260
2.180000,-0.500000,0.320087,0.040000,6827861.226808,-1517249057.815656,1531014547.602788,835294098.521845,-0.028664,0.028767,0.015737
2.220000,-0.500000,0.280099,0.040000,12342623.729215,-2536225507.627293,2307621867.793100,1517952788.861672,-0.046492,0.044769,0.028599
2.220000,-0.460000,0.280013,0.040000,5170477.821490,-1524420373.284099,1441578604.835232,2855944509.900426,-0.028253,0.027628,0.053808
2.180000,-0.460000,0.320011,0.040000,2420617.995113,-945658066.159285,887207646.360487,1624493543.549923,-0.017486,0.017046,0.030606
2.260000,-0.500000,0.240116,0.040000,22069207.793827,-4532883342.692373,4485379506.266834,2574669169.251767,-0.085134,0.084776,0.048508
2.300000,-0.500000,0.200139,0.040000,39145117.302498,-7858920527.805466,7724358497.684656,4305179846.770143,-0.147306,0.146292,0.081112
2.300000,-0.460000,0.200018,0.040000,19654534.046487,-4546628121.055584,4470643882.062255,7785795415.975430,-0.085232,0.084659,0.146689
2.260000,-0.460000,0.240015,0.040000,10300559.889069,-2605149635.203652,2577747412.606662,4596674891.252964,-0.048928,0.048721,0.086604
2.340000,-0.500000,0.160174,0.040000,69005601.071918,-13627369231.095892,13397560225.556084,7334649296.485938,-0.255449,0.253717,0.138189
2.380000,-0.500000,0.120232,0.040000,121028462.900054,-23487368782.939468,23015665777.305138,12730147867.414234,-0.439849,0.436295,0.239843
2.380000,-0.460000,0.120030,0.040000,65912144.767214,-13424016622.363728,13289910749.629028,22780009379.526680,-0.252158,0.251148,0.429189
2.340000,-0.460000,0.160023,0.040000,36401046.907436,-7857389635.007228,7732803097.829270,13279469417.774237,-0.147334,0.146395,0.250193
2.420000,-0.500000,0.080347,0.040000,211308609.824878,-39029505225.759705,37739815305.395035,20838160888.348980,-0.728049,0.718330,0.392603
2.460000,-0.500000,0.040690,0.040000,367266153.497414,-57366253956.736382,46653805141.935669,26332689793.532806,-1.020265,0.939533,0.496123
2.460000,-0.460000,0.040090,0.040000,204845432.231188,-36349000321.569458,40335617548.592400,48497167341.628288,-0.707369,0.737413,0.913715
2.420000,-0.460000,0.080045,0.040000,117155469.541413,-23397479311.653263,25929535505.896816,35948197438.751518,-0.455134,0.474216,0.677285
2.500000,-0.500000,0.007463,0.040000,598117876.832207,-69592653884.830780,52679999975.497482,29119395306.929970,-1.215573,1.088115,0.548626
2.500000,-0.460000,0.002687,0.040000,377941623.265846,-55964153533.503448,43708449777.084122,54790768007.337776,-0.985126,0.892764,1.032290
-2.500000,-0.420000,0.012836,0.040000,636297057.268185,-204225917461.403137,494773153108.423950,-92647796205.375992,-5.489958,7.679590,-1.745538
-2.500000,-0.380000,0.006866,0.040000,-293767059.339103,184500331512.263824,83725131384.481537,-169089600274.051788,1.960036,0.061373,-3.185746
-2.460000,-0.420000,0.042009,0.040000,-344626531.036999,17284924271.044006,320086449805.182251,-43912868245.625977,-1.581224,4.123733,-0.827344
-2.420000,-0.420000,0.081023,0.040000,-201867557.680079,5802304829.195317,83176201927.472015,-9556226841.678545,-0.393603,1.064166,-0.180045
-2.420000,-0.380000,0.080294,0.040000,-115736000.911836,18200601477.747906,28177687012.802006,-4922969398.456419,0.080772,0.268746,-0.092752
-2.460000,-0.380000,0.040585,0.040000,-200986274.902675,64166464070.022964,123721148045.257812,-81555313760.047287,0.146960,1.269005,-1.536549
-2.380000,-0.420000,0.120685,0.040000,-117805362.751053,19864817296.754555,-16641411197.308037,11222177602.734442,0.356045,-0.331753,0.211432
-2.340000,-0.420000,0.160514,0.040000,-68480422.534747,12602780790.400249,-12403429244.212032,6790798597.330692,0.236317,-0.234815,0.127943
-2.340000,-0.380000,0.160147,0.040000,-36775973.976824,7616146173.227167,-7496308243.384641,12247828919.425825,0.142815,-0.141912,0.230756
-2.380000,-0.380000,0.120196,0.040000,-65753164.219717,12839701051.058390,-12414633635.718639,20381305473.268387,0.239505,-0.236301,0.383996
-2.300000,-0.420000,0.200411,0.040000,-39630695.108343,7402470630.793178,-7283916106.476357,4142036220.548820,0.138797,-0.137903,0.078038
-2.260000,-0.420000,0.240343,0.040000,-22809918.370566,4350794860.576198,-4309501902.836630,2560096187.994073,0.081738,-0.081427,0.048234
-2.260000,-0.380000,0.240098,0.040000,-10777328.980369,2567299835.581802,-2541505260.569070,4462108220.498798,0.048224,-0.048029,0.084069
-2.300000,-0.380000,0.200118,0.040000,-20170656.725933,4437010052.385500,-4364510311.595227,7373021463.684456,0.083186,-0.082640,0.138912
-2.220000,-0.420000,0.280294,0.040000,-13035806.250925,2482225288.662227,-2264541773.374413,1555133523.149507,0.045536,-0.043896,0.029300
-2.180000,-0.420000,0.320257,0.040000,-7378782.268171,1510592464.808308,-1526829380.887183,881866722.858146,0.028552,-0.028675,0.016615
-2.180000,-0.380000,0.320074,0.040000,-2685377.652921,954597274.996342,-897949365.421939,1649851400.218059,0.017665,-0.017238,0.031084
-2.220000,-0.380000,0.280084,0.040000,-5544531.697429,1519169655.117163,-1438075132.354117,2833359864.498552,0.028164,-0.027553,0.053382
2.180000,-0.420000,0.320257,0.040000,-3234750.493884,226556687.564365,-170381863.422110,1802875267.153120,0.003951,-0.003528,0.033967
2.220000,-0.420000,0.280294,0.040000,-4256904.665140,210063486.961236,-256110935.315415,3254701654.102101,0.004218,-0.004565,0.061320
2.220000,-0.380000,0.280084,0.040000,-13477873.665579,1654723877.214210,-1493140633.516412,2768826747.687077,0.030263,-0.029045,0.052166
2.180000,-0.380000,0.320074,0.040000,-8685478.909359,1041618611.961023,-1087792514.009926,1488505010.814353,0.019886,-0.020234,0.028044
2.260000,-0.420000,0.240343,0.040000,-5480267.606573,108092088.220621,-109070837.010285,5358389359.260512,0.002042,-0.002049,0.100955
2.300000,-0.420000,0.200411,0.040000,-6875337.809345,73274635.973930,-72900796.609018,9079255959.872021,0.001378,-0.001376,0.171058
2.300000,-0.380000,0.200118,0.040000,-33289144.188231,4687254247.593858,-4614760653.826553,7881682967.005603,0.087901,-0.087355,0.148495
2.260000,-0.380000,0.240098,0.040000,-21084178.753607,2842472308.373749,-2818454225.307403,4657919354.478394,0.053418,-0.053237,0.087758
2.340000,-0.420000,0.160514,0.040000,-8389282.936588,58141231.061189,-51251109.803120,15412320052.463179,0.001056,-0.001005,0.290377
2.380000,-0.420000,0.120685,0.040000,-10009206.644094,43834531.693188,262196656.192150,26190926896.886803,-0.000904,0.003210,0.493452
2.380000,-0.380000,0.120196,0.040000,-85698622.639905,13406392953.672926,-13297662270.862219,22394480463.867741,0.251970,-0.251150,0.421925
2.340000,-0.380000,0.160147,0.040000,-53107760.409538,7857402312.559334,-7730113373.723749,13305830805.866119,0.147319,-0.146359,0.250690
2.420000,-0.420000,0.081023,0.040000,-11985181.152548,-1655491150.634901,5359432828.931900,45993994753.140564,-0.052126,0.080039,0.866554
2.460000,-0.420000,0.042009,0.040000,-15436109.522074,-3711765826.136383,18052658325.309433,65984718099.824608,-0.150989,0.259065,1.243190
2.460000,-0.380000,0.040585,0.040000,-231604755.032905,39912646417.460609,-24208193215.279789,59754991340.533615,0.663213,-0.544861,1.125819
2.420000,-0.380000,0.080294,0.040000,-139990046.206046,23432826805.525566,-20501174916.400814,40198662233.515099,0.424918,-0.402824,0.757366
2.500000,-0.420000,0.012836,0.040000,101124114.677366,-38618951306.178398,45230015543.772842,81059789608.411926,-0.764970,0.814793,1.527213
2.500000,-0.380000,0.006866,0.040000,-444750078.994847,83070549672.124725,-49919354994.784203,75382734324.509521,1.377721,-1.127886,1.420254
-2.500000,-0.340000,0.003284,0.040000,40261098.081487,55867784502.781044,60321017497.897469,-68438942884.614578,0.395862,0.479764,-1.289429
-2.500000,-0.300000,0.013433,0.040000,-220803871.601210,24773362223.402405,-259699256818.770752,-34251598068.619957,1.794587,-3.565043,-0.645320
-2.460000,-0.340000,0.040135,0.040000,-1091936.276582,35938599652.884468,-26169320440.758682,-17533436868.049232,0.621886,-0.548263,-0.330340
-2.420000,-0.340000,0.080067,0.040000,4223954.432663,7180002839.006413,-11359188881.572561,18795247586.310535,0.158897,-0.190392,0.354113
-2.420000,-0.300000,0.081120,0.040000,127254820.607535,-11914325305.675703,-16386585440.111895,25890147564.320530,-0.064511,-0.148771,0.487785
-2.460000,-0.300000,0.042195,0.040000,203574699.062717,-47256787043.761589,-88692139515.684677,359957559.535750,-0.121938,-0.902604,0.006782
-2.380000,-0.340000,0.120045,0.040000,6396666.485480,1080057615.216138,-992944751.200423,24194388021.621853,0.019857,-0.019200,0.455836
-2.340000,-0.340000,0.160034,0.040000,6743161.391643,566720537.248449,-554005651.260183,14536212180.279408,0.010605,-0.010510,0.273871
-2.340000,-0.300000,0.160563,0.040000,51129528.897716,-6702735136.944800,6608912451.805416,13105734821.044230,-0.125753,0.125046,0.246920
-2.380000,-0.300000,0.120749,0.040000,80301362.820830,-10293726517.575703,8897959848.105904,21810122282.739017,-0.186051,0.175532,0.410915
-2.300000,-0.340000,0.200027,0.040000,6163997.554459,223509781.018608,-214683032.460309,8729955512.674129,0.004161,-0.004095,0.164477
-2.260000,-0.340000,0.240022,0.040000,5213864.295254,34782809.972942,-30634451.622773,5251680249.692548,0.000632,-0.000601,0.098945
-2.260000,-0.300000,0.240376,0.040000,21242476.873374,-2592985473.189552,2575134222.226607,4708100897.947976,-0.048752,0.048618,0.088703
-2.300000,-0.300000,0.200451,0.040000,32828958.539304,-4141893396.247494,4086244218.154284,7859723469.565263,-0.077721,0.077302,0.148082
-2.220000,-0.340000,0.280019,0.040000,4200765.645423,-139331940.999760,191345054.176847,3244881135.650444,-0.002919,0.003311,0.061135
-2.180000,-0.340000,0.320017,0.040000,3275104.931985,-189494537.069704,134854996.553832,1834333049.647077,-0.003261,0.002850,0.034560
-2.180000,-0.300000,0.320282,0.040000,9082225.289624,-994857103.890518,1043680778.250620,1559222564.111217,-0.019020,0.019388,0.029377
-2.220000,-0.300000,0.280322,0.040000,13843892.961713,-1548775644.764414,1399945892.541033,2843565769.300478,-0.028339,0.027217,0.053574
2.180000,-0.340000,0.320017,0.040000,-12459687.007728,1920640621.613924,-1881308362.390784,977511073.686475,0.035964,-0.035667,0.018417
2.220000,-0.340000,0.280019,0.040000,-19998141.637639,2955278370.512470,-2766714364.167876,1713478010.383705,0.054613,-0.053192,0.032283
2.220000,-0.300000,0.280322,0.040000,-21969531.605924,3366256488.952382,-3118775739.598304,-136145198.302067,0.062023,-0.060158,-0.002565
2.180000,-0.300000,0.320282,0.040000,-13467031.890910,2151514626.314208,-2140786918.459429,-175599203.060377,0.040475,-0.040394,-0.003308
2.260000,-0.340000,0.240022,0.040000,-32284090.455339,4856977975.168257,-4815819473.030513,2699612819.872856,0.091276,-0.090965,0.050862
2.300000,-0.340000,0.200027,0.040000,-52427936.387218,8053971818.715524,-7932046609.657085,4577092055.193398,0.151052,-0.150133,0.086235
2.300000,-0.300000,0.200451,0.040000,-59058151.382946,9321990254.486179,-9184164007.825026,82800946.955071,0.174853,-0.173814,0.001560
2.260000,-0.300000,0.240376,0.040000,-35961599.564319,5628558544.415946,-5581825906.416852,13972157.339916,0.105781,-0.105429,0.000263
2.340000,-0.340000,0.160034,0.040000,-85648835.198383,13466554971.123703,-13259529627.963894,7689484709.090121,0.252548,-0.250987,0.144874
2.380000,-0.340000,0.120045,0.040000,-140739976.856000,22601438037.380566,-22228955522.578598,12783537445.048254,0.423719,-0.420912,0.240849
2.380000,-0.300000,0.120749,0.040000,-160689628.265251,25824799763.801010,-25429467060.115234,140194087.737579,0.484320,-0.481340,0.002641
2.340000,-0.300000,0.160563,0.040000,-97284836.223265,15512504749.419806,-15282760076.013212,153600861.685240,0.290966,-0.289235,0.002894
2.420000,-0.340000,0.080067,0.040000,-232562592.156787,38314424973.197693,-37245785207.194656,20288522498.033661,0.715826,-0.707772,0.382248
2.460000,-0.340000,0.040135,0.040000,-386285636.815958,62272113542.727623,-47919964698.488007,28873911882.558475,1.092122,-0.983961,0.544001
2.460000,-0.300000,0.042195,0.040000,-441135510.113544,62557475557.440689,-49244296883.803963,-2396758961.235067,1.103371,-1.003040,-0.045156
2.420000,-0.300000,0.081120,0.040000,-266019629.628048,42150725517.932205,-40233787063.047173,-714675611.998121,0.783309,-0.768863,-0.013465
2.500000,-0.340000,0.003284,0.040000,-633249159.859251,90930372084.282745,-46635363839.337715,34523802109.465332,1.462818,-1.129000,0.650448
2.500000,-0.300000,0.013433,0.040000,-728042651.155432,88583794682.794342,-64563051856.751923,-3521224886.583095,1.533201,-1.352175,-0.066342
-2.500000,-0.260000,0.006269,0.040000,623074128.068159,-325903233482.980225,-89741514411.514099,-130823175407.590454,-3.790909,0.658514,-2.464784
-2.500000,-0.220000,0.003881,0.040000,-709408992.211501,215114521673.458740,-595222328349.317017,-101037997992.375992,6.201318,-9.065898,-1.903614
-2.460000,-0.260000,0.040488,0.040000,361455405.428729,-105501934923.179749,-172645850679.947723,-64391688069.783157,-0.415578,-1.680608,-1.213177
-2.420000,-0.260000,0.080245,0.040000,222181670.373459,-30490349203.796352,-37573576266.303848,-6057322977.009363,-0.189747,-0.323199,-0.114123
-2.420000,-0.220000,0.080094,0.040000,265097759.485766,-8416881909.351501,-90038262040.490036,-23613100280.899540,0.397907,-1.139887,-0.444884
-2.460000,-0.220000,0.040188,0.040000,433449723.473938,-32199744273.585995,-352232060479.506836,-56255947051.390427,1.566214,-4.463381,-1.059895
-2.380000,-0.260000,0.120164,0.040000,137168246.449001,-20280078465.432926,19889275988.754669,13885156042.414640,-0.379880,0.376934,0.261604
-2.340000,-0.260000,0.160123,0.040000,85082200.625962,-12357226602.054064,12183025382.067205,8355233676.849492,-0.231833,0.230520,0.157417
-2.340000,-0.220000,0.160047,0.040000,99803355.509406,-15010878074.638506,14800125933.972404,1486306123.298669,-0.281622,0.280034,0.028003
-2.380000,-0.220000,0.120063,0.040000,162454891.829868,-22900285063.980194,19225274973.023308,2534769475.994645,-0.410683,0.382987,0.047757
-2.300000,-0.260000,0.200098,0.040000,53039390.754150,-7548864833.674570,7443785612.081236,4981968453.544056,-0.141631,0.140839,0.093863
-2.260000,-0.260000,0.240082,0.040000,33238630.563913,-4644580750.146056,4609795740.291142,2954827846.564568,-0.087310,0.087048,0.055671
-2.260000,-0.220000,0.240031,0.040000,38024306.783448,-5598892843.278509,5556089961.353955,418389127.111023,-0.105244,0.104922,0.007883
-2.300000,-0.220000,0.200038,0.040000,61497343.261848,-9145917948.051144,9017812784.043203,811464055.931353,-0.171590,0.170625,0.015288
-2.220000,-0.260000,0.280070,0.040000,20944148.269337,-2885692806.379136,2711389014.605741,1877981037.012452,-0.053383,0.052069,0.035382
-2.180000,-0.260000,0.320061,0.040000,13271880.896849,-1907659463.832183,1867818826.672933,1079507744.028777,-0.035716,0.035416,0.020339
-2.180000,-0.220000,0.320024,0.040000,14711043.010705,-2190085177.515503,2185188099.585390,-50196277.545168,-0.041235,0.041198,-0.000946
-2.220000,-0.220000,0.280027,0.040000,23601359.092043,-3389564497.558825,3142742663.628458,99604196.091479,-0.062466,0.060606,0.001877
2.180000,-0.260000,0.320061,0.040000,-11293952.089791,1846650122.118152,-1865771251.651144,-889432274.197146,0.034900,-0.035044,-0.016757
2.220000,-0.260000,0.280070,0.040000,-18681676.559439,2934703426.359890,-2693355377.448001,-1609316344.840535,0.053927,-0.052109,-0.030320
2.220000,-0.220000,0.280027,0.040000,-10746596.682820,1909539982.283300,-1813624799.202361,-3038604868.422216,0.035435,-0.034712,-0.057249
2.180000,-0.220000,0.320024,0.040000,-6318932.901323,1255535578.760602,-1197403080.413142,-1783795337.250508,0.023326,-0.022888,-0.033608
2.260000,-0.260000,0.240082,0.040000,-30919289.979914,4973689349.001352,-4933430089.465117,-2698698708.650146,0.093480,-0.093176,-0.050845
2.300000,-0.260000,0.200098,0.040000,-51200285.772981,8216815156.809239,-8098250327.941709,-4422714363.721326,0.154139,-0.153246,-0.083327
2.300000,-0.220000,0.200038,0.040000,-30562985.033765,5069455540.203683,-4998444828.051795,-7809600943.525698,0.095110,-0.094575,-0.147137
2.260000,-0.220000,0.240031,0.040000,-18168627.474869,3075449228.757142,-3051271988.223844,-4754048110.949916,0.057807,-0.057624,-0.089569
2.340000,-0.260000,0.160123,0.040000,-84812667.286899,13602948254.194401,-13408426279.495499,-7322079289.127952,0.255188,-0.253722,-0.137952
2.380000,-0.260000,0.120164,0.040000,-140492169.753026,22442083233.460510,-22065970135.560833,-12233151429.651134,0.420696,-0.417862,-0.230480
2.380000,-0.220000,0.120063,0.040000,-85319450.472251,13692487268.744572,-13592524572.644938,-21304401435.035091,0.257409,-0.256656,-0.401387
2.340000,-0.220000,0.160047,0.040000,-51178620.218508,8342895217.805222,-8228926711.756102,-12881111394.613943,0.156541,-0.155682,-0.242688
2.420000,-0.260000,0.080245,0.040000,-232623205.357082,35939649730.655525,-35548621781.387199,-18868352481.371185,0.674914,-0.671967,-0.355491
2.460000,-0.260000,0.040488,0.040000,-384782172.698283,50809292191.285362,-44764773236.456398,-22473712028.159489,0.923112,-0.877559,-0.423418
2.460000,-0.220000,0.040188,0.040000,-233792181.522723,35028765906.925270,-42138559372.784439,-42036045168.926384,0.700148,-0.753729,-0.791983
2.420000,-0.220000,0.080094,0.040000,-141581265.768083,23245614595.196465,-26478356707.440399,-32161289293.645332,0.456233,-0.480596,-0.605937
2.500000,-0.260000,0.006269,0.040000,-608399532.689864,60087408049.479149,-50405789599.156624,-23652271385.354908,1.077359,-1.004396,-0.445623
2.500000,-0.220000,0.003881,0.040000,-415709564.453503,53946760267.339737,-46445537267.377625,-46412380227.994904,0.973990,-0.917459,-0.874436
-2.500000,-0.180000,0.014030,0.040000,-700262453.421132,219324725098.270477,-564999287483.065063,93584968581.088181,6.086018,-8.691101,1.763195
-2.500000,-0.140000,0.005672,0.040000,413648780.836051,-250548207690.388947,-105614960468.540619,153981997373.066406,-2.707377,0.023249,2.901110
-2.460000,-0.180000,0.042389,0.040000,401855214.015120,-21704144439.847721,-353502719270.108765,46509375679.107269,1.711816,-4.539462,0.876264
-2.420000,-0.180000,0.081221,0.040000,244949869.854937,-5363474487.205454,-92469965882.514832,13700843177.255341,0.451921,-1.189216,0.258132
-2.420000,-0.140000,0.080201,0.040000,165902281.965334,-22371816405.104980,-37673677570.871490,4124825810.276171,-0.082110,-0.370406,0.077714
-2.460000,-0.140000,0.040400,0.040000,273810880.241178,-83390735193.792938,-160802328761.984528,74221957586.156067,-0.190908,-1.649387,1.398385
-2.380000,-0.180000,0.120817,0.040000,149361821.199066,-21365331465.512020,17838578430.636253,-9311683642.784491,-0.382601,0.356023,-0.175438
-2.340000,-0.180000,0.160614,0.040000,91160415.247559,-14033843464.299944,13837254944.221931,-5817011285.560216,-0.263295,0.261813,-0.109596
-2.340000,-0.140000,0.160100,0.040000,60672637.824478,-9670272144.369194,9533852103.049761,-11797931411.809534,-0.181422,0.180394,-0.222280
-2.380000,-0.140000,0.120134,0.040000,100375134.006902,-15830586053.520006,15374892802.264156,-19127824485.887543,-0.295682,0.292248,-0.360379
-2.300000,-0.180000,0.200491,0.040000,55718910.016475,-8536234195.946466,8416191179.910499,-3631507459.799918,-0.160149,0.159244,-0.068420
-2.260000,-0.180000,0.240410,0.040000,34122183.053456,-5208789955.267919,5168452585.737271,-2283682758.345782,-0.097909,0.097605,-0.043026
-2.260000,-0.140000,0.240067,0.040000,22140086.834471,-3555021223.618541,3526751093.584755,-4495512229.503887,-0.066819,0.066606,-0.084698
-2.300000,-0.140000,0.200080,0.040000,36654602.195068,-5858554041.603950,5775081422.556996,-7271859363.128589,-0.109907,0.109278,-0.137006
-2.220000,-0.180000,0.280351,0.040000,20945882.201912,-3110961470.637311,2864680595.769552,-1380622436.389233,-0.057220,0.055364,-0.026012
-2.180000,-0.180000,0.320307,0.040000,12893126.619356,-1979925434.422209,1995341503.644204,-775923703.051856,-0.037390,0.037506,-0.014619
-2.180000,-0.140000,0.320050,0.040000,8080306.413316,-1445562220.608414,1389251248.477003,-1747327644.531365,-0.026917,0.026493,-0.032921
-2.220000,-0.140000,0.280057,0.040000,13373842.490486,-2199028899.364790,2080633293.814860,-2923974108.504640,-0.040762,0.039870,-0.055089
2.180000,-0.180000,0.320307,0.040000,376380.371028,31983742.547618,-92633467.917239,-2023752530.398710,0.000945,-0.001402,-0.038129
2.220000,-0.180000,0.280351,0.040000,57849.375457,151486295.713960,-83568291.737923,-3531745850.415420,0.002470,-0.001958,-0.066540
2.220000,-0.140000,0.280057,0.040000,11232959.573614,-1349068238.393349,1204921873.224708,-3210193310.969599,-0.024602,0.023516,-0.060482
2.180000,-0.140000,0.320050,0.040000,7271818.991253,-836111701.720196,889403388.605614,-1818449681.536339,-0.016054,0.016456,-0.034261
2.260000,-0.180000,0.240410,0.040000,-649592.497567,419509154.872731,-416562962.518356,-5651538896.679242,0.007887,-0.007865,-0.106478
2.300000,-0.180000,0.200491,0.040000,-2034682.997533,698470832.701107,-690397687.622502,-9267771561.668173,0.013114,-0.013053,-0.174610
2.300000,-0.140000,0.200080,0.040000,27586100.975887,-3812206880.965028,3757478011.828105,-8482120906.381448,-0.071515,0.071102,-0.159808
2.260000,-0.140000,0.240067,0.040000,17520135.348366,-2337477901.346543,2319324465.950006,-5187071526.595048,-0.043937,0.043800,-0.097727
2.340000,-0.180000,0.160614,0.040000,-4549429.762458,1117809757.564545,-1107823285.146848,-15223538290.161758,0.021004,-0.020928,-0.286820
2.380000,-0.180000,0.120817,0.040000,-8867325.690633,1856448452.118926,-2129377281.316031,-25029981520.397861,0.036519,-0.038576,-0.471579
2.380000,-0.140000,0.120134,0.040000,70281830.099662,-10465430955.556765,10402670857.609058,-22681275052.622955,-0.196820,0.196347,-0.427328
2.340000,-0.140000,0.160100,0.040000,43837137.539850,-6280936805.658314,6188737367.264620,-13873644999.245842,-0.117815,0.117121,-0.261388
2.420000,-0.180000,0.081221,0.040000,-15926406.895700,4923390694.165884,-9137080008.411776,-42567055816.874985,0.116576,-0.148331,-0.801988
2.460000,-0.180000,0.042389,0.040000,-26903907.024686,8362046550.511936,-24110852952.777973,-59969484284.421860,0.246561,-0.365247,-1.129860
2.460000,-0.140000,0.040400,0.040000,185177824.518309,-31072438548.865486,13936877172.315657,-57245691589.001900,-0.488570,0.359432,-1.078542
2.420000,-0.140000,0.080201,0.040000,113630275.642657,-17783118932.365582,14210846054.103109,-39377267124.779144,-0.314853,0.287932,-0.741891
2.500000,-0.180000,0.014030,0.040000,-168495548.912651,44360880321.460495,-52383427217.120010,-73023136963.082611,0.881130,-0.941589,-1.375798
2.500000,-0.140000,0.005672,0.040000,350697912.206974,-67992574040.977463,35056310931.762856,-71418934558.267471,-1.094858,0.846643,-1.345574
-2.500000,-0.100000,0.004478,0.040000,-174074016.565891,-17452336796.528885,-170740073792.059235,53382102588.595573,0.734884,-2.153146,1.005750
-2.500000,-0.060000,0.014627,0.040000,90313526.650781,10012355513.139284,157445504943.141479,50932957956.683563,-0.757862,2.019864,0.959606
-2.460000,-0.100000,0.040250,0.040000,79136825.326710,-41391046879.808464,-38107424631.978012,8839541464.140564,-0.330492,-0.268627,0.166542
-2.420000,-0.100000,0.080125,0.040000,46128147.208333,-7878056891.836114,-5644457946.704373,-23191789594.849003,-0.071996,-0.029913,-0.436947
-2.420000,-0.060000,0.081326,0.040000,-86557152.864637,11369413902.558945,-153239106.729451,-23358677500.889832,0.150811,-0.066283,-0.440091
-2.460000,-0.060000,0.042590,0.040000,-136953364.863212,44564888092.716660,26409961775.177330,9535256953.054790,0.438466,0.096417,0.179650
-2.380000,-0.100000,0.120084,0.040000,26595658.738789,-4608944831.113627,3862535963.735370,-24475646077.490227,-0.082616,0.076991,-0.461135
-2.340000,-0.100000,0.160063,0.040000,15135195.063224,-2956835463.925700,2912002038.114623,-15032626727.237846,-0.055455,0.055117,-0.283223
-2.340000,-0.060000,0.160667,0.040000,-34994077.177640,4529598795.942982,-4472655938.399448,-14747470995.979322,0.085018,-0.084589,-0.277851
-2.380000,-0.060000,0.120888,0.040000,-54916066.844170,6872638918.002687,-6115341696.624341,-24061223663.534836,0.125204,-0.119497,-0.453327
-2.300000,-0.100000,0.200050,0.040000,8475345.044800,-1742881110.212220,1715579909.558804,-9232635644.933147,-0.032683,0.032477,-0.173948
-2.260000,-0.100000,0.240042,0.040000,4646569.674834,-1022054321.229673,1012461353.493274,-5679478191.009012,-0.019202,0.019130,-0.107005
-2.260000,-0.060000,0.240445,0.040000,-14425462.476687,1795350477.254218,-1784030923.684155,-5541747095.674314,0.033761,-0.033676,-0.104410
-2.300000,-0.060000,0.200534,0.040000,-22407919.613440,2842947207.128414,-2807563191.316813,-9035445684.421785,0.053363,-0.053096,-0.170233
-2.220000,-0.100000,0.280036,0.040000,2472963.097689,-500025072.067743,405244935.370964,-3567183025.827419,-0.008885,0.008171,-0.067208
-2.180000,-0.100000,0.320031,0.040000,1258113.850074,-249818757.501398,309294591.866662,-2057951303.170362,-0.005043,0.005491,-0.038773
-2.180000,-0.060000,0.320334,0.040000,-6086490.473074,645849856.027668,-704834484.395578,-1974431834.116862,0.012502,-0.012946,-0.037199
-2.220000,-0.060000,0.280382,0.040000,-9340812.609673,1041342012.673849,-918930016.361588,-3455133320.819863,0.018928,-0.018005,-0.065097
2.180000,-0.100000,0.320031,0.040000,12778684.641359,-1861457986.497991,1815501306.225199,-1361141481.370920,-0.034811,0.034465,-0.025645
2.220000,-0.100000,0.280036,0.040000,20172899.649376,-2814728687.189844,2648815867.173694,-2280539023.297290,-0.052093,0.050843,-0.042967
2.220000,-0.060000,0.280382,0.040000,24793249.464967,-3429547455.220212,3177312144.925702,-515438103.655640,-0.063189,0.061288,-0.009711
2.180000,-0.060000,0.320334,0.040000,15622162.615180,-2220072914.061427,2221810398.416754,-238045926.571913,-0.041837,0.041850,-0.004485
2.260000,-0.100000,0.240042,0.040000,32062986.850557,-4531419831.915407,4497182583.759420,-3489384177.544713,-0.085181,0.084923,-0.065742
2.300000,-0.100000,0.200050,0.040000,51276959.353373,-7380572804.359188,7277715095.937456,-5682129595.946772,-0.138473,0.137698,-0.107055
2.300000,-0.060000,0.200534,0.040000,63477723.169803,-9177164710.244875,9051371590.656271,-1565514738.604633,-0.172192,0.171244,-0.029495
2.260000,-0.060000,0.240445,0.040000,39572484.958367,-5647334560.921803,5605515578.836508,-977731472.522974,-0.106163,0.105848,-0.018421
2.340000,-0.100000,0.160063,0.040000,82460091.116906,-12091547973.637278,11921963160.943419,-9242477926.457043,-0.226853,0.225575,-0.174134
2.380000,-0.100000,0.120084,0.040000,133253823.804648,-19821665781.952118,19496096134.714775,-14997465218.674307,-0.371611,0.369158,-0.282561
2.380000,-0.060000,0.120888,0.040000,165336375.098007,-24437069347.515923,24038162433.128948,-3932431307.891280,-0.458154,0.455148,-0.074089
2.340000,-0.060000,0.160667,0.040000,102262165.985926,-14981222215.426273,14775605093.483263,-2490830607.584971,-0.281093,0.279543,-0.046929
2.420000,-0.100000,0.080125,0.040000,216237415.008109,-32506382824.731930,30445807329.337303,-23365159234.204712,-0.600792,0.585263,-0.440213
2.460000,-0.100000,0.040250,0.040000,352112505.620318,-52235152355.555504,36039269869.453705,-32950288332.093163,-0.892599,0.770543,-0.620803
2.460000,-0.060000,0.042590,0.040000,435615733.598310,-56420680027.803864,41603425060.394547,-8358326307.285366,-0.979249,0.867582,-0.157476
2.420000,-0.060000,0.081326,0.040000,268084917.253040,-38743432987.615753,36236236548.337151,-6264958146.461878,-0.715778,0.696883,-0.118035
2.500000,-0.100000,0.004478,0.040000,553667648.877355,-73770826641.468735,32999950255.043900,-39204182238.803825,-1.159441,0.852182,-0.738630
2.500000,-0.060000,0.014627,0.040000,682211042.120914,-74132480821.562775,49425974002.161674,-9852715231.123152,-1.257053,1.070859,-0.185631
-2.500000,-0.020000,0.005075,0.040000,-557282580.417324,167332123462.166779,4038788152.334820,80309351015.704773,2.184016,-0.892525,1.513075
-2.500000,0.020000,0.005075,0.040000,698619393.332153,-327351984883.477539,522550794152.685242,-29178459640.994595,-7.270799,8.741862,-0.549739
-2.460000,-0.020000,0.040321,0.040000,-324080849.258269,47607720419.430908,129753054974.960800,33281343704.169773,-0.105517,1.442149,0.627040
-2.420000,-0.020000,0.080161,0.040000,-201169144.955112,21636765356.216930,27431163613.013237,-2300319295.370985,0.130309,0.239479,-0.043339
-2.420000,0.020000,0.080161,0.040000,-270689380.552105,12248905994.858728,43975120083.277695,-13111132209.589546,-0.087011,0.510729,-0.247021
-2.460000,0.020000,0.040321,0.040000,-438226307.707621,13781320447.063013,212101920880.536072,-23388255507.498142,-1.017083,2.719392,-0.440648
-2.380000,-0.020000,0.120107,0.040000,-125135236.766649,17857284281.281879,-17546236528.284546,-17942017439.507622,0.334683,-0.332339,-0.338038
-2.340000,-0.020000,0.160080,0.040000,-78052526.683765,11034665096.315125,-10888651483.765795,-10986276939.272818,0.207074,-0.205974,-0.206988
-2.340000,0.020000,0.160080,0.040000,-103908381.373078,15022587631.783495,-14820271592.203749,-4597984581.221340,0.281891,-0.280366,-0.086629
-2.380000,0.020000,0.120107,0.040000,-167501359.295300,22722152331.952053,-19207398421.148045,-7627355350.614391,0.408233,-0.381745,-0.143704
-2.300000,-0.020000,0.200064,0.040000,-48852196.879386,6818811137.760710,-6728617746.183289,-6707612199.615388,0.127961,-0.127281,-0.126375
-2.260000,-0.020000,0.240054,0.040000,-30702164.854493,4232034068.285482,-4202369501.594798,-4100114749.582423,0.079566,-0.079343,-0.077249
-2.260000,0.020000,0.240054,0.040000,-40401763.279627,5707282316.677722,-5666067160.983045,-1680506091.741605,0.107296,-0.106985,-0.031662
-2.300000,0.020000,0.200064,0.040000,-64666015.571731,9240332164.558575,-9115840736.445005,-2775678358.306141,0.173390,-0.172451,-0.052295
-2.220000,-0.020000,0.280046,0.040000,-19388114.036376,2666211471.676471,-2519479183.464209,-2653016433.673803,0.049404,-0.048298,-0.049984
-2.180000,-0.020000,0.320040,0.040000,-12310394.433743,1782259481.428581,-1731146541.404431,-1572705854.143303,0.033290,-0.032905,-0.029631
-2.180000,0.020000,0.320040,0.040000,-16000923.571680,2244873861.413998,-2254319674.523177,-473689834.307918,0.042348,-0.042419,-0.008925
-2.220000,0.020000,0.280046,0.040000,-25358563.738422,3467182084.853092,-3207105103.935758,-938950711.816573,0.063854,-0.061894,-0.017690
2.180000,-0.020000,0.320040,0.040000,15143743.527151,-2131363832.905425,2141847428.785023,503821721.766952,-0.040215,0.040294,0.009492
2.220000,-0.020000,0.280046,0.040000,24023925.014031,-3296568254.598542,3047499728.083437,985191797.752378,-0.060701,0.058824,0.018562
2.220000,0.020000,0.280046,0.040000,18053367.721794,-2495579772.819067,2359858582.821541,2606845685.704332,-0.046251,0.045228,0.049114
2.180000,0.020000,0.320040,0.040000,11453150.539679,-1668739737.849025,1618663440.659150,1542611596.297616,-0.031157,0.030780,0.029064
2.260000,-0.020000,0.240054,0.040000,38313835.777432,-5434842776.002974,5395397105.318362,1744833379.414360,-0.102173,0.101875,0.032874
2.300000,-0.020000,0.200064,0.040000,61384974.998649,-8806488818.935570,8687465295.229218,2878764635.497611,-0.165247,0.164350,0.054238
2.300000,0.020000,0.200064,0.040000,45570839.048110,-6384905361.883741,6300180768.675576,6604738757.695876,-0.119816,0.119178,0.124437
2.260000,0.020000,0.240054,0.040000,28614053.697482,-3959559052.938846,3931664398.248171,4035908148.341512,-0.074443,0.074233,0.076039
2.340000,-0.020000,0.160080,0.040000,98731590.958304,-14328707885.397631,14135140171.672644,4763148616.728201,-0.268867,0.267408,0.089740
2.380000,-0.020000,0.120107,0.040000,159305040.397964,-23303735912.225269,22962968000.753883,7891885440.989926,-0.437130,0.434562,0.148688
2.380000,0.020000,0.120107,0.040000,116937959.648639,-16792572073.272202,16635552269.681017,17741245921.490540,-0.315494,0.314311,0.334255
2.340000,0.020000,0.160080,0.040000,72875184.202991,-10340678854.461763,10203412152.107878,10821487214.161798,-0.194049,0.193014,0.203883
2.420000,-0.020000,0.080161,0.040000,257675519.161475,-37948376637.377968,35694515157.579910,12406934046.884995,-0.702230,0.685245,0.233754
2.460000,-0.020000,0.040321,0.040000,417519471.339199,-60374454744.433372,42661887446.007690,18219091006.959755,-1.037375,0.903889,0.343258
2.460000,0.020000,0.040321,0.040000,303370214.258395,-44561399363.637764,24454826002.116596,46947576648.374405,-0.725917,0.574389,0.884520
2.420000,0.020000,0.080161,0.040000,188153613.469148,-27327027491.564873,23377019650.486511,31622692645.069302,-0.492531,0.462763,0.595790
2.500000,-0.020000,0.005075,0.040000,665066357.828777,-88140157187.932190,43127927150.327415,22104418787.534698,-1.406195,1.066972,0.416460
2.500000,0.020000,0.005075,0.040000,523699490.434476,-82587220782.420715,43731748826.618080,59504316645.856064,-1.336373,1.043549,1.121096
-2.500000,0.060000,0.014627,0.040000,-704149135.933070,230411347849.652985,46808930674.091278,-85476360146.657547,2.774186,-0.684990,-1.610424
-2.500000,0.100000,0.004478,0.040000,-565360999.487268,238152786916.157227,68733304837.896408,28752198548.170658,2.752363,-0.439598,0.541708
-2.460000,0.060000,0.042590,0.040000,-451890267.740773,89491988835.607483,109994690022.689545,-46381600522.880173,0.558548,0.944830,-0.873856
-2.420000,0.060000,0.081326,0.040000,-278324662.215842,36868182109.110115,12752278544.448097,-19386355062.765587,0.414154,-0.040203,-0.365250
-2.420000,0.100000,0.080125,0.040000,-221527907.122989,35166572676.682861,-2037200019.541891,31402512206.409824,0.475306,-0.225635,0.591642
-2.460000,0.100000,0.040250,0.040000,-360466965.145792,101167934077.895477,55003862305.000214,28622987179.811176,1.023352,0.153594,0.539274
-2.380000,0.060000,0.120888,0.040000,-171798599.400269,25260724299.261787,-24716693918.652531,4595682776.059766,0.472852,-0.468752,0.086585
-2.340000,0.060000,0.160667,0.040000,-106355323.683314,15524189462.888561,-15311689785.793896,2950166825.534534,0.291284,-0.289682,0.055583
-2.340000,0.100000,0.160063,0.040000,-84622210.384988,12364959000.128662,-12191865463.265936,9896052976.947233,0.231985,-0.230680,0.186447
-2.380000,0.100000,0.120084,0.040000,-136624915.883684,20237535814.417099,-19839799984.291756,16081883318.910069,0.379039,-0.376041,0.302992
-2.300000,0.060000,0.200534,0.040000,-66081252.620794,9516687494.803705,-9386610070.019096,1852069273.206290,0.178565,-0.177584,0.034894
-2.260000,0.060000,0.240445,0.040000,-41236277.731646,5860753127.903480,-5817550735.361908,1156512086.546441,0.110176,-0.109850,0.021789
-2.260000,0.100000,0.240042,0.040000,-32970514.528363,4639724722.601475,-4604798477.567208,3743437322.526803,0.087218,-0.086954,0.070529
-2.300000,0.100000,0.200050,0.040000,-52673027.271387,7551918855.630191,-7446903890.668260,6089477887.656445,0.141689,-0.140898,0.114729
-2.220000,0.060000,0.280382,0.040000,-25861841.823885,3559962325.600057,-3297190478.386040,625729137.616821,0.065587,-0.063606,0.011789
-2.180000,0.060000,0.320334,0.040000,-16312010.073204,2304965212.622025,-2308426875.212503,300490209.721013,0.043446,-0.043473,0.005661
-2.180000,0.100000,0.320031,0.040000,-13169554.954381,1912011947.306752,-1863147026.636002,1458995699.513973,0.035747,-0.035379,0.027488
-2.220000,0.100000,0.280036,0.040000,-20766707.256345,2886754646.646757,-2718463404.201808,2444990080.577270,0.053437,-0.052169,0.046065
2.180000,0.060000,0.320334,0.040000,5396468.738798,-560924353.576730,618185996.207996,1912016548.977353,-0.010892,0.011323,0.036024
2.220000,0.060000,0.280382,0.040000,8271928.025632,-910873247.591581,799001450.487665,3344893093.210102,-0.016529,0.015686,0.063020
2.220000,0.100000,0.280036,0.040000,-3067166.079074,572118751.002836,-474954543.455241,3402742431.577781,0.010230,-0.009498,0.064110
2.180000,0.100000,0.320031,0.040000,-1649222.604512,300413773.819341,-356981192.982082,1960103143.232942,0.005980,-0.006406,0.036929
2.260000,0.060000,0.240445,0.040000,12761173.232348,-1581836932.722429,1571902058.290126,5363048570.238431,-0.029747,0.029672,0.101043
2.300000,0.060000,0.200534,0.040000,19803535.118273,-2503254321.011686,2472158114.536448,8749036282.697548,-0.046987,0.046753,0.164837
2.300000,0.100000,0.200050,0.040000,-9872543.588903,1914449485.742786,-1884985892.081691,8825311329.522882,0.035903,-0.035681,0.166274
2.260000,0.100000,0.240042,0.040000,-5554761.061647,1130481186.911988,-1120197560.213423,5425442309.446898,0.021241,-0.021163,0.102218
2.340000,0.060000,0.160667,0.040000,30899429.043924,-3986332287.993226,3936278202.181419,14288402755.829710,-0.074822,0.074445,0.269202
2.380000,0.060000,0.120888,0.040000,48451234.130235,-6216057633.887913,5856448048.350804,23344064148.581085,-0.115082,0.112371,0.439816
2.380000,0.100000,0.120084,0.040000,-29970240.933094,5462658114.251982,-5478247480.816592,23437128312.692287,0.103008,-0.103125,0.441569
2.340000,0.100000,0.160063,0.040000,-17299276.291946,3230669638.389805,-3182315830.126990,14379094267.890574,0.060594,-0.060230,0.270910
2.420000,0.060000,0.081326,0.040000,76312963.568348,-7548839771.031364,2699385058.173683,39397195156.233360,-0.114815,0.078268,0.742266
2.460000,0.060000,0.042590,0.040000,120672517.110112,-9481564602.112055,-10138392936.335585,55213837632.807251,-0.067743,-0.080118,1.040261
2.460000,0.100000,0.040250,0.040000,-87503623.709745,14414223677.737394,-26972956302.417294,46126234165.402634,0.342556,-0.437202,0.869045
2.420000,0.100000,0.080125,0.040000,-51425065.278121,10051611156.481253,-13896127219.028851,35105947919.860977,0.211108,-0.240081,0.661416
2.500000,0.060000,0.014627,0.040000,68375497.336685,18500445696.981976,-33695108766.314350,67129466580.510376,0.434442,-0.548953,1.264758
2.500000,0.100000,0.004478,0.040000,-185796226.906996,25191035228.228710,-32400467555.074707,51377531545.376625,0.515363,-0.569695,0.967982
-2.500000,0.140000,0.005672,0.040000,350643944.154891,-149340405431.056000,245016219601.559296,67927706043.624802,-3.354436,4.075471,1.279797
-2.500000,0.180000,0.014030,0.040000,190446881.458967,-104700834833.167557,20062151890.720806,-69097897649.642502,-1.494232,0.856375,-1.301844
-2.460000,0.140000,0.040400,0.040000,-183831320.903202,3552622016.807862,114033526039.914932,59607034444.381042,-0.597684,1.483840,1.123031
-2.420000,0.140000,0.080201,0.040000,-112870546.718573,3575367051.337462,26498490165.115459,41244905631.064430,-0.102621,0.329264,0.777078
-2.420000,0.180000,0.081221,0.040000,22511476.470070,-13147984746.864130,29514724086.534199,19719953827.915237,-0.340223,0.463567,0.371535
-2.460000,0.180000,0.042389,0.040000,37606900.904318,-44533162150.482933,79352353507.941742,-20438768719.870754,-1.035835,1.298240,-0.385078
-2.380000,0.140000,0.120134,0.040000,-69878046.624119,9527182193.513405,-7883348838.842893,23813841187.125099,0.170206,-0.157818,0.448667
-2.340000,0.140000,0.160100,0.040000,-43641641.353817,6224316146.532209,-6132805969.465716,14578156784.771997,0.116752,-0.116063,0.274661
-2.340000,0.180000,0.160614,0.040000,7014092.617916,-1492522453.114236,1477701589.880997,15822882910.652922,-0.028036,0.027925,0.298112
-2.380000,0.180000,0.120817,0.040000,12902838.401756,-2486979100.692113,2825382035.656366,25959680390.906223,-0.048769,0.051319,0.489095
-2.300000,0.140000,0.200080,0.040000,-27507243.137217,3778195052.927294,-3723939074.191158,8920728784.681799,0.070877,-0.070468,0.168072
-2.260000,0.140000,0.240067,0.040000,-17502772.289907,2317667373.183598,-2299685347.035688,5460580902.355528,0.043565,-0.043429,0.102881
-2.260000,0.180000,0.240410,0.040000,1561235.301025,-562034522.262419,558073058.471386,5884266995.004652,-0.010567,0.010537,0.110863
-2.300000,0.180000,0.200491,0.040000,3535516.098761,-929670124.124148,918550636.398675,9640606071.054174,-0.017453,0.017369,0.181635
-2.220000,0.140000,0.280057,0.040000,-11245032.457371,1333999209.303292,-1188510355.923987,3385610178.161376,0.024311,-0.023215,0.063787
-2.180000,0.140000,0.320050,0.040000,-7295443.614356,824697251.011489,-881066302.559898,1921972554.775436,0.015856,-0.016281,0.036211
-2.180000,0.180000,0.320307,0.040000,-41618.628836,-83372934.226642,146334843.667757,2108992966.188323,-0.001927,0.002401,0.039735
-2.220000,0.180000,0.280351,0.040000,494853.751489,-234570964.356542,158482425.587280,3678313967.648852,-0.003989,0.003416,0.069302
2.180000,0.140000,0.320050,0.040000,-8104173.049538,1434185481.619342,-1380952082.142711,1643795906.311792,0.026720,-0.026319,0.030970
2.220000,0.140000,0.280057,0.040000,-13386308.607364,2184020230.565708,-2064277099.720584,2748534731.616662,0.040471,-0.039569,0.051784
2.220000,0.180000,0.280351,0.040000,-20393475.060531,3027915108.995268,-2789803183.312012,1234003838.934008,0.055702,-0.053907,0.023249
2.180000,0.180000,0.320307,0.040000,-12558553.806459,1928562916.745281,-1941665897.960322,690656582.663904,0.036409,-0.036508,0.013012
2.260000,0.140000,0.240067,0.040000,-22123368.092987,3535316073.888805,-3507216189.545680,4221954110.687793,0.066449,-0.066237,0.079544
2.300000,0.140000,0.200080,0.040000,-36576810.948827,5824727380.800103,-5741723986.812752,6833148273.139112,0.109272,-0.108647,0.128740
2.300000,0.180000,0.200491,0.040000,-54218795.845304,8305113122.090254,-8188116198.754995,3258502733.969480,0.155812,-0.154930,0.061392
2.260000,0.180000,0.240410,0.040000,-33211003.095840,5066320278.683849,-5026998119.478957,2050865949.057051,0.095230,-0.094934,0.038640
2.340000,0.140000,0.160100,0.040000,-60478933.907945,9613999337.937370,-9478261159.958239,11093191732.686630,0.180366,-0.179343,0.209002
2.380000,0.140000,0.120134,0.040000,-99974446.217368,15793886417.174210,-15500032670.381746,18049308715.706554,0.295905,-0.293691,0.340059
2.380000,0.180000,0.120817,0.040000,-145327924.002764,22493431156.578659,-22259196721.838974,8418450751.806633,0.422465,-0.420700,0.158608
2.340000,0.180000,0.160614,0.040000,-88696851.708318,13659221674.354561,-13467467511.269167,5217322112.612740,0.256264,-0.254819,0.098297
2.420000,0.140000,0.080201,0.040000,-165148258.250694,24998711241.544544,-26075191274.881641,28527200658.113384,0.477075,-0.485187,0.537469
2.460000,0.140000,0.040400,0.040000,-272476952.082511,33303918019.060196,-34704744705.023834,36420071905.398659,0.635383,-0.645940,0.686175
2.460000,0.180000,0.042389,0.040000,-391152606.445550,54721396830.515511,-48907024245.372757,20637257221.133560,0.998119,-0.954301,0.388818
2.420000,0.180000,0.081221,0.040000,-238366846.690000,36939416672.780472,-36719850318.503349,14401464366.490702,0.694719,-0.693064,0.271332
2.500000,0.140000,0.005672,0.040000,-413642031.189313,29751876206.248985,-33371202939.820896,41111267527.033249,0.581000,-0.608276,0.774560
2.500000,0.180000,0.014030,0.040000,-678276678.334340,87271152578.344711,-70466690278.470459,25006882743.251217,1.549257,-1.422615,0.471144
-2.500000,0.220000,0.003881,0.040000,445178641.353980,-88569076962.455124,29734805399.034992,-120692088099.585007,-1.336151,0.892763,-2.273909
-2.500000,0.260000,0.006269,0.040000,-641725180.581951,336220858903.929871,-459657175971.231934,19248595337.719551,7.032279,-7.962524,0.362655
-2.460000,0.220000,0.040188,0.040000,251440254.994027,-24853626430.815857,-76345090668.694992,-53467094530.878456,0.103736,-0.866393,-1.007351
-2.420000,0.220000,0.080094,0.040000,152477684.812398,-17373262057.402416,-12915680182.370138,-712552625.223135,-0.156124,-0.072141,-0.013425
-2.420000,0.260000,0.080245,0.040000,245346802.767883,-11962017697.918032,-36755001028.404716,18858373686.755329,0.049986,-0.417128,0.355303
-2.460000,0.260000,0.040488,0.040000,405378001.382230,-2967891402.792274,-186421579231.915100,22125385428.767185,1.014545,-2.441828,0.416855
-2.380000,0.220000,0.120063,0.040000,92043266.191839,-14642451805.395975,14417421504.128763,21818636579.596703,-0.274600,0.272904,0.411076
-2.340000,0.220000,0.160047,0.040000,55327895.941657,-8952370777.897131,8830383852.968855,13240570548.907431,-0.167978,0.167059,0.249460
-2.340000,0.260000,0.160123,0.040000,89696259.716212,-14308963394.924700,14104952134.401386,7359140311.319218,-0.268436,0.266899,0.138650
-2.380000,0.260000,0.120164,0.040000,148365813.257805,-22034884955.271423,18739578005.869320,12292281486.493002,-0.396524,0.371690,0.231594
-2.300000,0.220000,0.200038,0.040000,33125320.415195,-5445327093.999266,5369325589.972193,8033616369.244362,-0.102164,0.101591,0.151358
-2.260000,0.220000,0.240031,0.040000,19753164.759960,-3307734086.293702,3281902924.978011,4894777701.018641,-0.062174,0.061979,0.092220
-2.260000,0.260000,0.240082,0.040000,32815859.557640,-5242264551.327798,5200074170.303679,2717015239.203107,-0.098529,0.098211,0.051190
-2.300000,0.260000,0.200098,0.040000,54238202.652097,-8651343706.890030,8526937684.811568,4447951284.241934,-0.162293,0.161356,0.083802
-2.220000,0.220000,0.280027,0.040000,11728590.259600,-2053568801.720454,1948777412.419440,3134195233.524076,-0.038098,0.037308,0.059050
-2.180000,0.220000,0.320024,0.040000,6929421.589442,-1350410082.458081,1290380566.602357,1843754668.107221,-0.025103,0.024651,0.034737
-2.180000,0.260000,0.320061,0.040000,12043397.402680,-1953584208.196966,1972473925.149569,893876062.132050,-0.036913,0.037056,0.016841
-2.220000,0.260000,0.280070,0.040000,19870811.789230,-3098982747.701737,2845940795.561824,1618209346.439984,-0.056956,0.055049,0.030488
2.180000,0.220000,0.320024,0.040000,-14100652.450415,2095216377.051120,-2092217499.894080,-9793868.436011,0.039458,-0.039436,-0.000185
2.220000,0.220000,0.280027,0.040000,-22619505.938568,3245541375.038737,-3007595173.676828,-195250499.325428,0.059803,-0.058010,-0.003679
2.220000,0.260000,0.280070,0.040000,-19754985.610792,2721396993.310066,-2558789585.202435,-1886920772.191262,0.050354,-0.049128,-0.035551
2.180000,0.260000,0.320061,0.040000,-12522431.046439,1800717881.681655,-1761108044.948590,-1083979379.568790,0.033703,-0.033404,-0.020423
2.260000,0.220000,0.240031,0.040000,-36439963.013346,5366608409.622405,-5325460331.396193,-559210879.363925,0.100877,-0.100567,-0.010536
2.300000,0.220000,0.200038,0.040000,-58935253.489260,8770020035.928196,-8646908562.737812,-1035635963.415188,0.164536,-0.163609,-0.019512
2.300000,0.260000,0.200098,0.040000,-50001279.493351,7114254346.282697,-7015019347.848951,-5007304392.198990,0.133476,-0.132728,-0.094341
2.260000,0.260000,0.240082,0.040000,-31341981.392502,4375967545.072330,-4343114608.436404,-2973214507.661524,0.082260,-0.082012,-0.056017
2.340000,0.220000,0.160047,0.040000,-95654330.327542,14401291329.990387,-14198565774.757862,-1846029758.254136,0.270183,-0.268655,-0.034780
2.380000,0.220000,0.120063,0.040000,-155731141.402266,23671970404.507053,-23342347574.975315,-3188653153.203392,0.444131,-0.441646,-0.060076
2.380000,0.260000,0.120164,0.040000,-129293612.846694,19186980217.271553,-18978266714.816521,-13995096731.080227,0.360314,-0.358741,-0.263676
2.340000,0.260000,0.160123,0.040000,-80198163.313498,11651033055.678698,-11486329769.955347,-8392416434.002262,0.218581,-0.217340,-0.158118
2.420000,0.220000,0.080094,0.040000,-254200644.575364,39379863546.413910,-39358397782.006187,-5905860235.693917,0.741818,-0.741656,-0.111270
2.460000,0.220000,0.040188,0.040000,-415798675.779638,62256662205.314873,-52369161439.389923,-10025585585.232132,1.117066,-1.042551,-0.188888
2.460000,0.260000,0.040488,0.040000,-340856192.466954,49373615102.630707,-33742565808.614826,-40366982260.815697,0.841878,-0.724079,-0.760537
2.420000,0.260000,0.080245,0.040000,-209455955.473567,31553708338.621162,-28752987154.581310,-25959923865.129597,0.578660,-0.557553,-0.489100
2.500000,0.220000,0.003881,0.040000,-679931224.132730,90488836519.977509,-52221919006.367546,-13591471238.827047,1.488571,-1.200183,-0.256071
2.500000,0.260000,0.006269,0.040000,-589785532.978415,85695728433.152161,-55277312131.446732,-52489526082.946304,1.442627,-1.213387,-0.988933
-2.500000,0.300000,0.013433,0.040000,756139191.956636,-254054469469.993378,-35530635695.525269,75830482003.586746,-3.149748,0.967368,1.428690
-2.500000,0.340000,0.003284,0.040000,652863854.140090,-261269063095.622162,-57151403613.119003,-50886761650.596863,-3.122693,0.723002,-0.958736
-2.460000,0.300000,0.042195,0.040000,459959106.180938,-101663716407.976288,-92970885910.333130,44424045157.722923,-0.815295,-0.651517,0.836975
-2.420000,0.300000,0.081120,0.040000,277664463.626339,-41769285606.367096,-5233440018.720089,22841371456.763443,-0.521290,0.167067,0.430345
-2.420000,0.340000,0.080067,0.040000,240469423.407525,-40225246340.040977,2791513612.731371,-33567729296.855679,-0.546285,0.264176,-0.632435
-2.460000,0.340000,0.040135,0.040000,398981600.823703,-109851134817.467316,-61583729033.655823,-39859699428.503860,-1.100679,-0.191293,-0.750980
-2.380000,0.300000,0.120749,0.040000,167924797.867740,-26827646625.873203,26297408766.495850,-556399721.069752,-0.502451,0.498455,-0.010483
-2.340000,0.300000,0.160563,0.040000,101802548.519996,-16151499323.392082,15912946615.069273,-448408997.144240,-0.302955,0.301157,-0.008448
-2.340000,0.340000,0.160034,0.040000,88805565.663034,-13886865545.092501,13673871617.131716,-8247210016.939835,-0.260433,0.258828,-0.155382
-2.380000,0.340000,0.120045,0.040000,145711951.678345,-23263516361.377117,22797710007.941219,-13747900952.537779,-0.435665,0.432155,-0.259018
-2.300000,0.300000,0.200451,0.040000,61894513.051028,-9714524049.937696,9571352424.083462,-260780693.643048,-0.182218,0.181139,-0.004913
-2.260000,0.300000,0.240376,0.040000,37752992.332409,-5871399623.504798,5822907713.438859,-120249707.396450,-0.110346,0.109981,-0.002266
-2.260000,0.340000,0.240022,0.040000,33593077.286541,-5017942070.831942,4975636602.385120,-2903289348.886064,-0.094302,0.093983,-0.054700
-2.300000,0.340000,0.200027,0.040000,54451257.444362,-8312433435.475985,8186967693.101397,-4914673360.378124,-0.155902,0.154956,-0.092595
-2.220000,0.300000,0.280322,0.040000,23108314.505113,-3513860002.118535,3255064436.399012,76252359.652791,-0.064740,0.062790,0.001437
-2.180000,0.300000,0.320282,0.040000,14196158.993639,-2247374490.536208,2237480712.826237,145909296.097061,-0.042286,0.042211,0.002749
-2.180000,0.340000,0.320017,0.040000,13022971.838998,-1991112808.468040,1949338415.788544,-1051474104.431502,-0.037278,0.036963,-0.019810
-2.220000,0.340000,0.280019,0.040000,20852831.107638,-3058601851.922843,2865007507.399354,-1842185918.273930,-0.056532,0.055073,-0.034708
2.180000,0.300000,0.320282,0.040000,-8353003.466848,898975754.687865,-946966160.700208,-1529554249.617665,0.017208,-0.017570,-0.028818
2.220000,0.300000,0.280322,0.040000,-12704941.397051,1401138700.605661,-1263625854.707330,-2783705435.280509,0.025621,-0.024585,-0.052447
2.220000,0.340000,0.280019,0.040000,-3345817.500202,35968848.659218,-93015029.754882,-3116185778.389861,0.001000,-0.001430,-0.058711
2.180000,0.340000,0.320017,0.040000,-2711665.354922,118996123.947927,-66798534.760496,-1760378005.158202,0.001947,-0.001554,-0.033167
2.260000,0.300000,0.240376,0.040000,-19450788.085797,2350089488.941624,-2333997819.950578,-4601864828.206215,0.044186,-0.044065,-0.086702
2.300000,0.300000,0.200451,0.040000,-29992084.871480,3749270680.548329,-3698967596.976891,-7681788259.528694,0.070354,-0.069975,-0.144729
2.300000,0.340000,0.200027,0.040000,-4139985.835769,-482049209.325759,469682879.473936,-8392392553.584470,-0.009012,0.008919,-0.158118
2.260000,0.340000,0.240022,0.040000,-3904450.404429,-195806652.611202,190511539.973156,-5048021270.163532,-0.003659,0.003619,-0.095108
2.340000,0.300000,0.160563,0.040000,-46610944.533004,6063595519.055214,-5978580033.468291,-12810937986.349979,0.113761,-0.113120,-0.241365
2.380000,0.300000,0.120749,0.040000,-73064722.860723,9785498154.454329,-9401802436.843143,-21331370983.844116,0.182196,-0.179304,-0.401895
2.380000,0.340000,0.120045,0.040000,-1423135.788628,-1853214979.024822,1896493276.645607,-23299861890.106194,-0.035160,0.035486,-0.438983
2.340000,0.340000,0.160034,0.040000,-3585354.640210,-987096831.303267,968416537.272417,-13978487719.698343,-0.018492,0.018351,-0.263363
2.420000,0.300000,0.081120,0.040000,-115607407.250449,13994728318.356892,-10015514781.326458,-36449350614.806496,0.241178,-0.211189,-0.686727
2.460000,0.300000,0.042195,0.040000,-184744960.064543,19210596252.569641,-1936589914.788129,-51266520964.603325,0.264303,-0.134122,-0.965891
2.460000,0.340000,0.040135,0.040000,13787662.816305,-4894035136.766217,14997253464.885345,-48240071530.258820,-0.149312,0.225452,-0.908871
2.420000,0.340000,0.080067,0.040000,3684701.407605,-3823292803.803187,6629779325.375263,-35905445252.035683,-0.087896,0.109046,-0.676479
2.500000,0.300000,0.013433,0.040000,-192713959.144124,-913490465.309630,15433952158.789005,-62480490172.099503,-0.099283,0.208712,-1.177169
2.500000,0.340000,0.003284,0.040000,59849368.063447,-10070935894.807178,18838750050.617653,-54643856207.981781,-0.239299,0.305376,-1.029522
-2.500000,0.380000,0.006866,0.040000,-453207626.363678,197827029048.268372,-310780639357.058167,-72581526696.464355,4.365609,-5.216854,-1.367478
-2.500000,0.420000,0.012836,0.040000,-116831717.559452,82451465305.380402,-22675045921.337143,79344087806.659760,1.215567,-0.765078,1.494889
-2.460000,0.380000,0.040585,0.040000,235215249.401534,-4927255776.431425,-140391288665.359741,-62353125280.324516,0.728533,-1.823688,-1.174769
-2.420000,0.380000,0.080294,0.040000,142384920.827613,-5526142390.793289,-31592718563.151234,-42156066307.676353,0.105687,-0.385423,-0.794245
-2.420000,0.420000,0.081023,0.040000,8438958.716677,10335411485.625666,-32524391888.202763,-18924866873.775604,0.320141,-0.487362,-0.356555
-2.460000,0.420000,0.042009,0.040000,9188227.556509,37338073301.226280,-94219825795.633682,24892759562.696220,1.024977,-1.453651,0.468994
-2.380000,0.380000,0.120196,0.040000,87334988.283711,-12473733565.476408,10317300775.815386,-23530300546.995323,-0.222824,0.206572,-0.443325
-2.340000,0.380000,0.160147,0.040000,54249508.440390,-7956272269.862099,7827493080.449938,-13991783461.275497,-0.149173,0.148202,-0.263613
-2.340000,0.420000,0.160514,0.040000,7362477.807422,190055541.380991,-193294758.979692,-16055719116.997034,0.003599,-0.003623,-0.302499
-2.380000,0.420000,0.120685,0.040000,8059810.117477,404813628.834399,-797416018.305670,-27216400229.878429,0.009846,-0.012805,-0.512773
-2.300000,0.380000,0.200118,0.040000,34096859.465122,-4750675772.811508,4677401580.849695,-8295934429.471624,-0.089091,0.088539,-0.156300
-2.260000,0.380000,0.240098,0.040000,21660585.749429,-2885002205.688808,2860773617.099944,-4908254199.642098,-0.054218,0.054036,-0.092474
-2.260000,0.420000,0.240343,0.040000,5257548.950041,-24825737.317603,26642382.233451,-5593022592.616756,-0.000478,0.000492,-0.105376
-2.300000,0.420000,0.200411,0.040000,6368392.099745,71767598.685218,-69833768.501104,-9466871464.045162,0.001341,-0.001327,-0.178361
-2.220000,0.380000,0.280084,0.040000,13891518.565947,-1680024217.698328,1514746666.274161,-2923408156.422057,-0.030718,0.029473,-0.055079
-2.180000,0.380000,0.320074,0.040000,8983548.985640,-1058207288.092844,1107165902.455800,-1575603568.175786,-0.020214,0.020583,-0.029685
-2.180000,0.420000,0.320257,0.040000,3235165.788482,-204222789.078583,145784370.756527,-1884888363.776422,-0.003517,0.003077,-0.035512
-2.220000,0.420000,0.280294,0.040000,4183471.144155,-167591724.829386,219575775.816330,-3399360585.489127,-0.003451,0.003843,-0.064046
2.180000,0.380000,0.320074,0.040000,2983622.841733,-971213299.127857,917350160.250607,-1562751992.302456,-0.017994,0.017588,-0.029443
2.220000,0.380000,0.280084,0.040000,5958462.270554,-1544511142.495878,1459719536.438507,-2678775310.818943,-0.028620,0.027981,-0.050470
2.220000,0.420000,0.280294,0.040000,12962620.326943,-2439790024.459528,2228040767.800484,-1410450025.746640,-0.044770,0.043174,-0.026574
2.180000,0.420000,0.320257,0.040000,7379352.015815,-1488282278.747926,1502255033.812883,-799838760.936288,-0.028119,0.028224,-0.015069
2.260000,0.380000,0.240098,0.040000,11354199.029666,-2609892737.285742,2583887691.167795,-4211768837.805556,-0.049025,0.048829,-0.079352
2.300000,0.380000,0.200118,0.040000,20979113.141827,-4500518191.340612,4427238487.729738,-6958774451.249650,-0.084378,0.083826,-0.131107
2.300000,0.420000,0.200411,0.040000,39124400.283339,-7257535813.103370,7141286552.960787,-3754383634.097953,-0.136079,0.135203,-0.070735
2.260000,0.420000,0.240343,0.040000,22587599.133883,-4267589840.123458,4227134054.445643,-2325429586.590452,-0.080175,0.079870,-0.043812
2.340000,0.380000,0.160147,0.040000,37918877.818808,-7715105204.464528,7593783428.316014,-11561925045.051117,-0.144671,0.143757,-0.217833
2.380000,0.380000,0.120196,0.040000,67391231.461202,-13044677849.197374,12743593863.053816,-19307546841.437580,-0.244068,0.241798,-0.363765
2.380000,0.420000,0.120685,0.040000,115857796.819432,-21024132580.088833,20794547591.561138,-10219672773.206860,-0.394809,0.393079,-0.192545
2.340000,0.420000,0.160514,0.040000,67454695.520126,-12354782285.008453,12159075653.884054,-6147401889.719948,-0.231665,0.230190,-0.115821
2.420000,0.380000,0.080294,0.040000,118133053.818244,-20820668827.757881,21351318787.519505,-32057153457.756893,-0.395273,0.399272,-0.603975
2.460000,0.380000,0.040585,0.040000,204598996.855695,-27724462708.286758,27348811841.567047,-43062925499.043373,-0.520222,0.517391,-0.811330
2.460000,0.420000,0.042009,0.040000,338384097.705250,-54403963793.047203,48113094010.982437,-27541156550.554287,-0.989445,0.942036,-0.518891
2.420000,0.420000,0.081023,0.040000,198324531.160816,-35705366163.947838,35438223289.081749,-18433794216.076973,-0.671200,0.669187,-0.347303
2.500000,0.380000,0.006866,0.040000,302246869.955752,-19402371465.074322,22011754881.195362,-50497732183.173073,-0.380301,0.399966,-0.951407
2.500000,0.420000,0.012836,0.040000,620618061.002907,-91259045563.503052,72178675621.606216,-34439299219.756218,-1.611528,1.467734,-0.648856
-2.500000,0.460000,0.002687,0.040000,-403222146.388966,72009704919.934814,-38472368611.334793,121385387059.344635,1.167146,-0.914401,2.286971
-2.500000,0.500000,0.007463,0.040000,629277409.356569,-320497091718.016174,446295648587.738342,-25003269016.670479,-6.749386,7.697433,-0.471076
-2.460000,0.460000,0.040090,0.040000,-219237785.672322,19622082344.288033,72813017669.620270,51973582283.362335,-0.152768,0.849380,0.979212
-2.420000,0.460000,0.080045,0.040000,-125576295.325134,16831625355.553547,11974279640.492641,-2538921143.406965,0.154302,0.062786,-0.047835
-2.420000,0.500000,0.080347,0.040000,-222267986.283816,15622859101.511482,33067774585.789730,-21063635903.484928,0.019136,0.347808,-0.396851
-2.460000,0.500000,0.040690,0.040000,-385918495.503934,10638367109.118597,179921225838.066345,-26336187204.595821,-0.876643,2.312744,-0.496189
-2.380000,0.460000,0.120030,0.040000,-70799020.386958,14285668607.944195,-14028016578.679598,-23444499817.216972,0.267694,-0.265752,-0.441708
-2.340000,0.460000,0.160023,0.040000,-39210606.668790,8389726312.638104,-8256965534.012292,-13714934457.274879,0.157317,-0.156316,-0.258397
-2.340000,0.500000,0.160174,0.040000,-72771512.249420,14303055124.765392,-14062465558.300955,-7446454818.962080,0.268118,-0.266305,-0.140296
-2.380000,0.500000,0.120232,0.040000,-127458487.583794,23110281301.451237,-19771799245.374317,-12915846898.544786,0.416541,-0.391382,-0.243342
-2.300000,0.460000,0.200018,0.040000,-21251223.267525,4860385983.107385,-4779462204.200523,-8048602373.628162,0.091115,-0.090505,-0.151640
-2.260000,0.460000,0.240015,0.040000,-11194079.411700,2789617556.421948,-2760486851.683241,-4757189090.196563,0.052393,-0.052174,-0.089628
-2.260000,0.500000,0.240116,0.040000,-23348575.582318,4767453461.218796,-4717752447.823514,-2622086614.742086,0.089541,-0.089166,-0.049402
-2.300000,0.500000,0.200139,0.040000,-41344841.148095,8256356786.057249,-8115437532.894875,-4376359906.875648,0.154758,-0.153696,-0.082453
-2.220000,0.460000,0.280013,0.040000,-5659556.719050,1633372269.887367,-1543497277.448718,-2961062757.913888,0.030266,-0.029588,-0.055788
-2.180000,0.460000,0.320011,0.040000,-2679298.274696,1014179072.309493,-953494458.986912,-1687998787.412861,0.018765,-0.018307,-0.031803
-2.180000,0.500000,0.320087,0.040000,-7249727.261961,1601737875.393425,-1615419776.980996,-852398577.784784,0.030255,-0.030358,-0.016060
-2.220000,0.500000,0.280099,0.040000,-13081502.120713,2672450133.065039,-2432968399.384085,-1546620533.059287,0.048997,-0.047192,-0.029139
2.180000,0.460000,0.320011,0.040000,9527952.959151,-1738619924.405440,1728316298.494980,-190659737.736873,-0.032698,0.032621,-0.003592
2.220000,0.460000,0.280013,0.040000,16113902.673542,-2771729606.224814,2559157705.987786,-120927261.910502,-0.051019,0.049418,-0.002278
2.220000,0.500000,0.280099,0.040000,14940992.355325,-2358920255.061134,2207844770.574803,1427983399.646515,-0.043590,0.042451,0.026904
2.180000,0.500000,0.320087,0.040000,9117291.031816,-1520384745.978390,1486207589.418819,758271052.504831,-0.028452,0.028194,0.014286
2.260000,0.460000,0.240015,0.040000,27229530.799572,-4738023716.613548,4693796397.069330,96130447.709174,-0.089017,0.088684,0.001811
2.300000,0.460000,0.200018,0.040000,46017766.650045,-8013731024.943940,7885194540.702383,364666560.163105,-0.150257,0.149288,0.006871
2.300000,0.500000,0.200139,0.040000,40487359.411177,-6557980872.692573,6453239023.834452,4265983607.008857,-0.122964,0.122175,0.080374
2.260000,0.500000,0.240116,0.040000,24549627.752068,-3909434356.476673,3873987402.168559,2384638033.043789,-0.073456,0.073189,0.044928
2.340000,0.460000,0.160023,0.040000,77829118.284624,-13626017413.022032,13406388738.708437,854568939.615806,-0.255481,0.253826,0.016101
2.380000,0.460000,0.120030,0.040000,131785673.305095,-23207614714.534302,22846027307.510582,1665962297.455576,-0.435201,0.432476,0.031388
2.380000,0.500000,0.120232,0.040000,111751824.426718,-19024238243.067680,18780806928.070431,13138572219.439859,-0.357052,0.355217,0.247538
2.340000,0.500000,0.160174,0.040000,67082344.886863,-11117591357.809507,10935327351.268635,7532663452.247163,-0.208432,0.207058,0.141920
2.420000,0.460000,0.080045,0.040000,223451316.559021,-40109335597.990440,40415749086.795746,3391622222.661335,-0.757415,0.759724,0.063900
2.460000,0.460000,0.040090,0.040000,379384375.301575,-65084011082.007385,55445630872.356422,6126197942.385352,-1.171743,1.099106,0.115421
2.460000,0.500000,0.040690,0.040000,315926471.641178,-52176159061.290192,37522316049.983284,39971516714.088135,-0.900203,0.789768,0.753087
2.420000,0.500000,0.080347,0.040000,187293200.951692,-32632368967.481247,30263326905.066311,25298347654.998764,-0.601423,0.583569,0.476636
2.500000,0.460000,0.002687,0.040000,647279789.008621,-97068877117.043396,56217464185.323936,8592261336.780590,-1.597935,1.290069,0.161883
2.500000,0.500000,0.007463,0.040000,573354610.494937,-91755087350.900864,61233967438.662521,52210216984.161156,-1.556208,1.326194,0.983671
-2.500000,0.540000,0.012239,0.040000,-757258491.491101,256583416745.381622,19421629629.524395,-81350061494.172440,3.274152,-1.194114,-1.532682
-2.500000,0.580000,0.002090,0.040000,-628110510.716697,262310318767.354279,43325680457.898834,47845800012.409668,3.214571,-0.911227,0.901443
-2.460000,0.540000,0.041830,0.040000,-440471248.324411,106119590468.764191,83504037156.109161,-46579290325.287422,0.927569,0.501479,-0.877581
-2.420000,0.540000,0.080931,0.040000,-253275198.701676,45500433140.427528,357716072.177779,-21683346511.746994,0.598056,-0.252459,-0.408527
-2.420000,0.580000,0.080027,0.040000,-208492966.028234,42397458746.098000,-9601772107.984148,36093124384.510689,0.613426,-0.366270,0.680015
-2.460000,0.580000,0.040055,0.040000,-362628777.452501,113814037447.021286,42170706616.960487,40725764447.129250,1.262670,-0.087132,0.767297
-2.380000,0.540000,0.120623,0.040000,-145890551.629293,28016869347.068626,-27380921978.443806,1773697814.411608,0.524260,-0.519467,0.033417
-2.340000,0.540000,0.160467,0.040000,-84192454.308712,16078141914.093803,-15794365349.452568,1075856785.670112,0.301318,-0.299179,0.020270
-2.340000,0.580000,0.160014,0.040000,-70766909.198105,12974420319.695940,-12734194049.888987,9347543012.855415,0.243088,-0.241277,0.176113
-2.380000,0.580000,0.120018,0.040000,-120952335.060615,22885315273.081200,-22367788821.103786,16524718800.291220,0.428247,-0.424347,0.311335
-2.300000,0.540000,0.200374,0.040000,-48664682.406971,9228302432.565111,-9066523953.313103,532712284.211853,0.172952,-0.171733,0.010037
-2.260000,0.540000,0.240312,0.040000,-28156240.777430,5329414813.987174,-5273006332.099523,203176847.415897,0.100090,-0.099665,0.003828
-2.260000,0.580000,0.240009,0.040000,-24752497.593959,4299427710.247141,-4253930336.541855,2876475197.427515,0.080747,-0.080404,0.054194
-2.300000,0.580000,0.200011,0.040000,-41720215.908409,7418239064.427556,-7285446376.778251,5222124856.348422,0.139013,-0.138013,0.098388
-2.220000,0.540000,0.280267,0.040000,-16289737.743370,3045115725.937801,-2801722864.153708,-68517629.825036,0.055996,-0.054162,-0.001291
-2.180000,0.540000,0.320234,0.040000,-9410248.001482,1871961524.692012,-1859120415.561512,-169582045.046795,0.035196,-0.035099,-0.003195
-2.180000,0.580000,0.320007,0.040000,-8825132.740180,1602432668.672141,-1560375047.621794,878381332.788345,0.029953,-0.029636,0.016549
-2.220000,0.580000,0.280008,0.040000,-14756787.752828,2533481981.489820,-2366468497.223045,1691070747.655055,0.046788,-0.045530,0.031861
2.180000,0.540000,0.320234,0.040000,6524998.736327,-768171395.251185,807874187.000536,1152429476.449172,-0.014697,0.014996,0.021712
2.220000,0.540000,0.280267,0.040000,10147737.488885,-1200216583.430591,1081224686.211544,2241930743.192742,-0.021940,0.021043,0.042239
2.220000,0.580000,0.280008,0.040000,3377884.617660,10566905.476375,47273993.808987,2490495999.925473,-0.000128,0.000564,0.046922
2.180000,0.580000,0.320007,0.040000,2680911.049848,-100961683.682692,60432003.886106,1336449116.984296,-0.001673,0.001368,0.025179
2.260000,0.540000,0.240312,0.040000,15823316.115145,-2034925145.316511,2019206704.053988,3899819563.591084,-0.038250,0.038132,0.073475
2.300000,0.540000,0.200374,0.040000,24788685.656652,-3299949103.908372,3250608625.232038,6843054648.416922,-0.061894,0.061522,0.128927
2.300000,0.580000,0.200011,0.040000,3963041.348351,807311378.898219,-784139683.114446,7340390371.064804,0.015079,-0.014905,0.138297
2.260000,0.580000,0.240009,0.040000,3938265.120183,323607393.230716,-313809616.515307,4217258471.122192,0.006042,-0.005968,0.079456
2.340000,0.540000,0.160467,0.040000,39112108.505317,-5473246812.194534,5384153335.030580,11972638945.684242,-0.102616,0.101944,0.225571
2.380000,0.540000,0.120623,0.040000,62334149.809326,-9160339797.656513,8774855232.208284,20879093912.629822,-0.170407,0.167502,0.393374
2.380000,0.580000,0.120018,0.040000,-1422357.533015,3267818886.282537,-3260303410.531421,22431480945.641052,0.061525,-0.061468,0.422622
2.340000,0.580000,0.160014,0.040000,2660599.670655,1702827231.789309,-1665803970.489504,12816914777.093874,0.031873,-0.031594,0.241478
2.420000,0.540000,0.080931,0.040000,100664233.364917,-13854370249.395023,10527985266.141376,37137763455.078278,-0.242223,0.217155,0.699697
2.460000,0.540000,0.041830,0.040000,165229059.805360,-19743968568.187809,4601091740.588467,53293624509.059013,-0.286398,0.172277,1.004083
2.460000,0.580000,0.040055,0.040000,-29352687.793956,9372811731.325880,-14914449137.281151,50093667430.109680,0.207912,-0.249675,0.943794
2.420000,0.580000,0.080027,0.040000,-10774856.521829,6251308384.146115,-8067922618.651935,36314844869.332573,0.128046,-0.141737,0.684193
2.500000,0.540000,0.012239,0.040000,178013441.733235,-1973550961.815185,-10914154312.718769,65428845020.251648,0.035661,-0.132785,1.232717
2.500000,0.580000,0.002090,0.040000,-81433035.840801,15712040097.993858,-17258815785.875824,57607845087.362228,0.304767,-0.316423,1.085365
-2.500000,0.620000,0.008060,0.040000,385235766.631011,-154069842059.913544,250863857938.464294,88347676322.474640,-3.449862,4.179324,1.664521
-2.500000,0.660000,0.011642,0.040000,267927710.985117,-135910186777.774414,21400985466.095966,-64251330588.329773,-1.913401,1.050433,-1.210532
-2.460000,0.620000,0.040804,0.040000,-172027551.189307,6227314224.849469,115917210380.958221,74814167062.880737,-0.573056,1.493565,1.409542
-2.420000,0.620000,0.080405,0.040000,-100845527.421016,4450447647.964389,26559110735.170479,49587663552.313217,-0.091422,0.325118,0.934260
-2.420000,0.660000,0.080843,0.040000,35703671.046219,-21100779083.071056,36457691383.361679,24975345048.189423,-0.484351,0.600084,0.470550
-2.460000,0.660000,0.041660,0.040000,73389745.773318,-61759219274.526947,87754873058.396835,-14411973425.847694,-1.310511,1.506421,-0.271530
-2.380000,0.620000,0.120270,0.040000,-60702184.874620,9418435390.730238,-7627852982.882405,26321905095.252392,0.167328,-0.153834,0.495920
-2.340000,0.620000,0.160203,0.040000,-37326162.398333,5741505663.330562,-5628907304.015322,14724147218.497757,0.107537,-0.106688,0.277411
-2.340000,0.660000,0.160423,0.040000,4951912.818038,-3427377956.795838,3360844751.063039,15282290258.383615,-0.064198,0.063696,0.287927
-2.380000,0.660000,0.120563,0.040000,15263412.146655,-6421079422.343168,6682255474.132563,27624070569.943371,-0.122453,0.124421,0.520454
-2.300000,0.620000,0.200162,0.040000,-23317838.198273,3324977902.254750,-3266895808.683908,8211939316.244083,0.062316,-0.061879,0.154718
-2.260000,0.620000,0.240135,0.040000,-14722721.540431,1992326472.245567,-1973773476.007188,4568944623.588439,0.037432,-0.037292,0.086082
-2.260000,0.660000,0.240282,0.040000,-1611367.349965,-848542009.924314,831650297.334090,4737396900.511436,-0.015892,0.015764,0.089255
-2.300000,0.660000,0.200339,0.040000,224433.151911,-1767380199.129955,1725657003.754860,8485261157.512970,-0.033063,0.032748,0.159867
-2.220000,0.620000,0.280116,0.040000,-9354361.593303,1139282654.252936,-1015725277.620374,2575321279.799488,0.020766,-0.019835,0.048521
-2.180000,0.620000,0.320101,0.040000,-5959914.724492,715383033.382073,-761037072.880312,1294155623.497564,0.013736,-0.014080,0.024383
-2.180000,0.660000,0.320212,0.040000,-1908819.904627,-51423989.917826,94347628.445520,1414887084.523109,-0.001211,0.001535,0.026657
-2.220000,0.660000,0.280242,0.040000,-2057974.485406,-281638186.414255,194646708.114089,2718974055.857244,-0.004815,0.004159,0.051227
2.180000,0.620000,0.320101,0.040000,-1224600.058160,780345852.721578,-734252848.043816,1141585517.629371,0.014442,-0.014094,0.021508
2.220000,0.620000,0.280116,0.040000,-3289943.552012,1338566185.417697,-1248149527.219664,2021372368.045361,0.024708,-0.024027,0.038084
2.220000,0.660000,0.280242,0.040000,-7973232.206846,1988786660.369261,-1804839619.535660,828754710.577091,0.036430,-0.035044,0.015614
2.180000,0.660000,0.320212,0.040000,-4101124.119171,1149323602.232777,-1150359371.156760,474201210.022083,0.021660,-0.021668,0.008934
2.260000,0.620000,0.240135,0.040000,-7473913.906696,2449325484.576567,-2415910912.032873,3267555895.884454,0.045958,-0.045706,0.061563
2.300000,0.620000,0.200162,0.040000,-15642476.145654,4516924219.078289,-4425739758.872801,5608459180.453550,0.084586,-0.083899,0.105667
2.300000,0.660000,0.200339,0.040000,-28303075.878200,6659756888.301311,-6527923072.393013,2197757393.121155,0.124729,-0.123735,0.041407
2.260000,0.660000,0.240282,0.040000,-15141629.276511,3687227008.338953,-3640189222.497764,1376988810.779455,0.069204,-0.068849,0.025943
2.340000,0.620000,0.160203,0.040000,-31180889.179833,8242245488.326675,-8082882084.099591,9731166285.565620,0.154388,-0.153187,0.183341
2.380000,0.620000,0.120270,0.040000,-60155685.015048,14773563841.764376,-14379946664.732101,17074046775.679798,0.276118,-0.273151,0.321685
2.380000,0.660000,0.120563,0.040000,-95994572.807806,21756716902.832157,-21390199192.143856,6190471703.045623,0.407838,-0.405075,0.116632
2.340000,0.660000,0.160423,0.040000,-52327762.337934,12043693031.623846,-11807056599.147882,3615247669.162844,0.225573,-0.223789,0.068113
2.420000,0.620000,0.080405,0.040000,-113298681.817423,24877709093.234058,-24021830060.729614,29798557439.726089,0.463873,-0.457423,0.561422
2.460000,0.620000,0.040804,0.040000,-209303121.597234,36119204743.220879,-29006100515.657471,41196804162.617760,0.640302,-0.586696,0.776172
2.460000,0.660000,0.041660,0.040000,-317857774.704088,61645029759.373817,-49285381476.103699,20855541242.633991,1.091569,-0.998424,0.392930
2.420000,0.660000,0.080843,0.040000,-175086195.331977,38775769311.898636,-37334204831.392090,12614510502.433548,0.722410,-0.711546,0.237665
2.500000,0.620000,0.008060,0.040000,-325709743.106591,33767989394.289600,-25618666375.753021,49040412078.417839,0.590147,-0.528732,0.923950
2.500000,0.660000,0.011642,0.040000,-601631647.022584,100860179650.353455,-72984362212.434921,27586723479.825920,1.742705,-1.532627,0.519750
-2.500000,0.700000,0.001493,0.040000,556699879.977228,-141407145891.225891,39296445650.756622,-138099364253.280609,-2.087045,1.317515,-2.601872
-2.500000,0.740000,0.008657,0.040000,-737168605.271251,340423258177.018982,-503918871581.978333,-1788829707.682416,7.337877,-8.570018,-0.033703
-2.460000,0.700000,0.040028,0.040000,291983523.415435,-52553164475.617378,-79119245636.563858,-63769573013.391083,-0.245897,-0.746417,-1.201456
-2.420000,0.700000,0.080014,0.040000,155527232.660726,-30774149225.992664,-6514129451.497209,-5650894713.393851,-0.369043,0.088030,-0.106466
-2.420000,0.740000,0.080467,0.040000,216273460.821302,-22357526652.349037,-36476133683.014175,4886680522.758959,-0.088691,-0.354693,0.092068
-2.460000,0.740000,0.040926,0.040000,404614768.567984,-25918836547.961086,-207320379385.800781,2872659900.763412,0.829983,-2.587728,0.054123
-2.380000,0.700000,0.120009,0.040000,81536419.395756,-21073548173.462128,20567981624.248405,19302106645.811081,-0.394180,0.390370,0.363663
-2.340000,0.700000,0.160007,0.040000,41951697.258947,-11453676278.427311,11214270239.306784,10592837598.855814,-0.214441,0.212637,0.199575
-2.340000,0.740000,0.160234,0.040000,61366019.656346,-15369559186.187834,15031359757.246994,2099423171.218498,-0.287660,0.285111,0.039554
-2.380000,0.740000,0.120312,0.040000,115366179.089994,-26886086907.737888,22875465557.142273,3767140987.153206,-0.483881,0.453656,0.070975
-2.300000,0.700000,0.200006,0.040000,21067681.168981,-6144276289.416170,6010892163.587250,5891543683.130226,-0.115008,0.114003,0.111000
-2.260000,0.700000,0.240005,0.040000,10224095.380721,-3268936515.651748,3220106094.942847,3333744542.760712,-0.061313,0.060945,0.062810
-2.260000,0.740000,0.240156,0.040000,17076401.758414,-4426532163.439884,4362043260.220098,864124512.667074,-0.083034,0.082548,0.016281
-2.300000,0.740000,0.200187,0.040000,32492593.663490,-8231414574.676638,8050429149.644445,1301331699.707923,-0.154062,0.152698,0.024518
-2.220000,0.700000,0.280004,0.040000,4705811.406325,-1743271556.275903,1613385792.240990,2031868601.868175,-0.032110,0.031131,0.038282
-2.180000,0.700000,0.320003,0.040000,1974022.261389,-996078948.598123,945300575.463915,1130877201.807467,-0.018480,0.018097,0.021306
-2.180000,0.740000,0.320117,0.040000,4523042.436050,-1327986085.672735,1318821034.076580,307658959.879904,-0.024968,0.024899,0.005796
-2.220000,0.740000,0.280134,0.040000,8869164.534085,-2336093170.867116,2119883454.118094,518016055.128230,-0.042791,0.041162,0.009760
2.180000,0.700000,0.320003,0.040000,-5277315.952453,1208275519.397707,-1204133385.630992,-21674545.868751,0.022741,-0.022710,-0.000408
2.220000,0.700000,0.280004,0.040000,-9549971.244474,2021612221.380334,-1846000112.447000,-284743572.497153,0.037096,-0.035772,-0.005365
2.220000,0.740000,0.280134,0.040000,-7972280.140376,1441092437.282065,-1354997417.939002,-1411931617.323287,0.026664,-0.026016,-0.026602
2.180000,0.740000,0.320117,0.040000,-4676813.938558,916449842.068207,-883846601.518353,-680193555.744757,0.017082,-0.016836,-0.012815
2.260000,0.700000,0.240005,0.040000,-17158406.577825,3662005722.818482,-3617052448.899599,-817491575.225811,0.068740,-0.068401,-0.015402
2.300000,0.700000,0.200006,0.040000,-30716141.789701,6537119828.816668,-6408447969.444161,-1766192175.258424,0.122436,-0.121466,-0.033276
2.300000,0.740000,0.200187,0.040000,-23068263.313565,4202896319.497143,-4123991057.871979,-4923255460.382083,0.078739,-0.078144,-0.092757
2.260000,0.740000,0.240156,0.040000,-13555217.226239,2422434888.412398,-2395999503.010250,-2568430680.323884,0.045491,-0.045291,-0.048391
2.340000,0.700000,0.160007,0.040000,-54937055.287533,11779390100.400518,-11542743978.728035,-3562193090.844994,0.220593,-0.218810,-0.067114
2.380000,0.700000,0.120009,0.040000,-98379865.701994,21356545751.918095,-20929755421.760159,-6823320498.022618,0.399957,-0.396741,-0.128555
2.380000,0.740000,0.120312,0.040000,-67953774.293917,13544188335.610790,-13384070217.607645,-17491738071.632980,0.254275,-0.253069,-0.329554
2.340000,0.740000,0.160234,0.040000,-39432053.310515,7448482817.012598,-7298547421.424914,-9328317443.753635,0.139486,-0.138356,-0.175751
2.420000,0.700000,0.080014,0.040000,-176678800.922595,39457400132.881134,-39541444348.821655,-12029244703.297350,0.743875,-0.744509,-0.226638
2.460000,0.700000,0.040028,0.040000,-318540915.837856,67603915312.397743,-55527994244.392937,-17869115836.658535,1.205442,-1.114435,-0.336665
2.460000,0.740000,0.040926,0.040000,-209809192.031505,43906642058.987961,-32133960521.186707,-55061527479.492088,0.760685,-0.671964,-1.037391
2.420000,0.740000,0.080467,0.040000,-118497859.361426,25417605167.513435,-23755267941.825943,-34968863308.339859,0.469487,-0.456959,-0.658834
2.500000,0.700000,0.001493,0.040000,-577591657.866428,104813137942.051575,-57059726103.123444,-21730852936.569984,1.704830,-1.344949,-0.409422
2.500000,0.740000,0.008657,0.040000,-439740627.057707,90153897307.558426,-60604562597.501915,-71213271137.044312,1.531534,-1.308843,-1.341699
-2.500000,0.780000,0.011045,0.040000,624351874.856908,-197488508814.362396,-603294282.552525,110206282158.580780,-2.601149,1.108283,2.076350
-2.500000,0.820000,0.000896,0.040000,337500659.182023,-188059922774.199066,-38468270900.283653,13127167852.382980,-2.262781,0.555612,0.247323
-2.460000,0.780000,0.041497,0.040000,364668579.073803,-83861070011.888214,-100398771832.695496,52721202859.185768,-0.538523,-0.850102,0.993298
-2.420000,0.780000,0.080759,0.040000,194994533.091680,-40258847101.356392,-7920318340.077296,9161849640.578352,-0.486183,0.123094,0.172615
-2.420000,0.820000,0.080005,0.040000,99378047.054985,-29036609672.941551,20236930027.127140,-35207411447.778168,-0.497329,0.431013,-0.663328
-2.460000,0.820000,0.040010,0.040000,181459402.034900,-88959622418.662018,18939031906.095623,-14897816103.051064,-1.280282,0.752591,-0.280683
-2.380000,0.780000,0.120507,0.040000,105228823.388139,-25377284188.270489,24489847848.423496,-13672371649.192297,-0.473107,0.466419,-0.257595
-2.340000,0.780000,0.160381,0.040000,57235187.519594,-13480252118.282572,13169746563.322678,-7150367761.051671,-0.252221,0.249881,-0.134717
-2.340000,0.820000,0.160003,0.040000,32497106.774413,-6259410891.042110,6112298537.937902,-13490803723.623781,-0.117099,0.115991,-0.254175
-2.380000,0.820000,0.120003,0.040000,56171234.825997,-11876331626.564705,11555935264.578224,-26178716801.350342,-0.221946,0.219531,-0.493222
-2.300000,0.780000,0.200305,0.040000,31307301.441064,-7210750190.744437,7050767219.018004,-3603806084.765698,-0.134950,0.133745,-0.067898
-2.260000,0.780000,0.240254,0.040000,17172716.081218,-3916081182.865583,3860594229.868560,-1753401741.323654,-0.073468,0.073049,-0.033035
-2.260000,0.820000,0.240002,0.040000,11285027.195354,-1966593343.214431,1943961128.206407,-3514860745.045155,-0.036924,0.036753,-0.066222
-2.300000,0.820000,0.200002,0.040000,19080336.415617,-3441099032.308533,3370418766.292167,-6906757775.698310,-0.064433,0.063900,-0.130127
-2.220000,0.780000,0.280218,0.040000,9413771.864001,-2091733225.970576,1894943423.351752,-773247520.006630,-0.038297,0.036814,-0.014568
-2.180000,0.780000,0.320191,0.040000,5136790.684642,-1219472168.568132,1222092782.903019,-249891934.709638,-0.022990,0.023010,-0.004708
-2.180000,0.820000,0.320001,0.040000,3944108.242655,-774197984.334691,734366581.356979,-878222400.838964,-0.014361,0.014061,-0.016546
-2.220000,0.820000,0.280001,0.040000,6683161.217198,-1195983800.259481,1138681054.648033,-1873695007.622751,-0.022209,0.021777,-0.035302
2.180000,0.780000,0.320191,0.040000,-2792594.546519,228375069.375640,-264937878.137123,-870047765.774496,0.004509,-0.004785,-0.016392
2.220000,0.780000,0.280218,0.040000,-4217031.221541,309862481.514578,-267856223.555228,-1795196297.481194,0.005601,-0.005284,-0.033823
2.220000,0.820000,0.280001,0.040000,118149.284567,-633762492.512705,533385163.028225,-1521653771.936906,-0.011373,0.010617,-0.028669
2.180000,0.820000,0.320001,0.040000,-469202.447592,-267983297.783188,285978353.974471,-768455472.820810,-0.005151,0.005286,-0.014478
2.260000,0.780000,0.240254,0.040000,-6221371.570838,448619135.840856,-451558615.506344,-3278863150.660582,0.008469,-0.008491,-0.061776
2.300000,0.780000,0.200305,0.040000,-8940365.313841,511175505.093104,-513946570.362464,-6151432290.843553,0.009647,-0.009667,-0.115897
2.300000,0.820000,0.200002,0.040000,6013434.418504,-3136084594.324260,3049589102.332870,-5016135068.747197,-0.058597,0.057945,-0.094507
2.260000,0.820000,0.240002,0.040000,1832964.921840,-1503055473.898762,1470770131.686335,-2734632797.459638,-0.028136,0.027893,-0.051522
2.340000,0.780000,0.160381,0.040000,-12474243.017835,539167812.439817,-540140689.291407,-11553167343.034477,0.010164,-0.010171,-0.217668
2.380000,0.780000,0.120507,0.040000,-16873204.434531,472288919.184582,-231031217.408705,-21730193934.123955,0.007535,-0.005716,-0.409409
2.380000,0.820000,0.120003,0.040000,35111632.844538,-12556695575.012495,12287060438.615973,-17541321726.307732,-0.235051,0.233019,-0.330489
2.340000,0.820000,0.160003,0.040000,15348397.854224,-6357532169.444050,6194540882.805623,-9316819703.279623,-0.118858,0.117630,-0.175534
2.420000,0.780000,0.080759,0.040000,-22257122.400758,-941878533.699863,3152457492.515002,-42289141185.235428,-0.030240,0.046900,-0.796752
2.460000,0.780000,0.041497,0.040000,-29428052.832148,-3064541379.440656,11795633424.373472,-64262326897.779068,-0.107087,0.172887,-1.210739
2.460000,0.820000,0.040010,0.040000,155133920.906383,-43187953801.332199,38489151754.026253,-43937183701.300789,-0.787128,0.751716,-0.827802
2.420000,0.820000,0.080005,0.040000,75408961.180936,-24721292898.142773,25616163105.678585,-30706509036.674801,-0.470821,0.477565,-0.578528
2.500000,0.780000,0.011045,0.040000,59855027.503720,-33312813294.988453,34694528525.136368,-81094318019.678604,-0.635442,0.645855,-1.527864
2.500000,0.820000,0.000896,0.040000,318483044.868958,-68902005373.477905,40551513725.683640,-51523349705.388657,-1.137912,0.924256,-0.970730
-2.500000,0.860000,0.009254,0.040000,36495172.335592,-42172938243.924149,46948249113.132072,-103940761190.263779,-0.821553,0.857541,-1.958304
-2.500000,0.900000,0.010448,0.040000,-683853619.147785,268365612631.181732,-42715222427.587845,-16825226572.947172,3.780748,-2.080195,-0.316997
-2.460000,0.860000,0.041056,0.040000,-74766754.338910,11324063750.609005,6834004655.638673,-86873531797.326584,0.110719,0.026124,-1.636748
-2.420000,0.860000,0.080533,0.040000,-31778670.925240,9815427833.572069,-5473162104.420071,-56352379275.195694,0.160385,-0.127661,-1.061711
-2.420000,0.900000,0.080679,0.040000,-141744992.091739,51692628747.736786,-38839111461.916496,-30769247055.150078,0.901269,-0.804402,-0.579710
-2.460000,0.900000,0.041342,0.040000,-293924120.907951,122672919641.273209,-40178266704.924385,-25209441336.766315,1.844955,-1.223256,-0.474960
-2.380000,0.860000,0.120356,0.040000,-10908981.566816,6970176046.199371,-6379896789.194463,-27764840758.974979,0.127986,-0.123537,-0.523106
-2.340000,0.860000,0.160267,0.040000,-1798998.498005,3494816063.235777,-3394473874.218042,-14116077963.342806,0.065277,-0.064521,-0.265955
-2.340000,0.900000,0.160341,0.040000,-30810936.431666,11541988713.169291,-11215961538.247278,-8506439924.281766,0.215615,-0.213158,-0.160266
-2.380000,0.900000,0.120454,0.040000,-66967254.851482,23604821763.818642,-23142783440.193748,-16813063885.078169,0.442117,-0.438635,-0.316768
-2.300000,0.860000,0.200214,0.040000,1567315.991270,1547037902.074656,-1491499516.731376,-7236180174.894341,0.028833,-0.028415,-0.136334
-2.260000,0.860000,0.240178,0.040000,2372319.762066,599367228.072813,-577208467.820816,-3738443299.409642,0.011167,-0.011000,-0.070434
-2.260000,0.900000,0.240227,0.040000,-5674833.535776,2675360381.970796,-2616380396.372389,-2387738552.329119,0.050072,-0.049627,-0.044986
-2.300000,0.900000,0.200273,0.040000,-13641116.064655,5588672591.074722,-5425244960.258023,-4446266763.443628,0.104370,-0.103138,-0.083770
-2.220000,0.860000,0.280153,0.040000,2178676.871463,223398865.271091,-218636260.907227,-2018754046.094598,0.004182,-0.004146,-0.038034
-2.180000,0.860000,0.320134,0.040000,1695344.163944,66729658.820994,-20944270.401061,-968282767.515393,0.000998,-0.000653,-0.018243
-2.180000,0.900000,0.320171,0.040000,-580993.818697,569216883.833313,-576657730.014162,-645503958.998231,0.010766,-0.010823,-0.012162
-2.220000,0.900000,0.280195,0.040000,-2100791.963339,1197691574.804224,-1043688667.808188,-1297062887.768441,0.021695,-0.020534,-0.024437
2.180000,0.860000,0.320134,0.040000,1427287.795217,-730435629.434249,702639193.075830,-489046007.476126,-0.013605,0.013395,-0.009214
2.220000,0.860000,0.280153,0.040000,3432819.635180,-1344885493.685078,1224149653.891255,-810862727.601005,-0.024656,0.023746,-0.015277
2.220000,0.900000,0.280195,0.040000,4721571.541786,-1378524681.080133,1256887838.806112,259841193.659992,-0.025285,0.024368,0.004896
2.180000,0.900000,0.320171,0.040000,2325932.953444,-772282171.701537,755050693.868510,67661333.336551,-0.014453,0.014323,0.001275
2.260000,0.860000,0.240178,0.040000,7631670.310134,-2682354181.269201,2633287112.064242,-1209880292.067509,-0.050260,0.049890,-0.022795
2.300000,0.860000,0.200214,0.040000,16216690.622895,-5301183479.518126,5164297401.546879,-2007738516.712171,-0.099104,0.098072,-0.037827
2.300000,0.900000,0.200273,0.040000,18361580.204933,-5117250198.069928,4989129942.053819,1581007819.467106,-0.095688,0.094722,0.029787
2.260000,0.900000,0.240227,0.040000,9372384.872083,-2656985717.499199,2612379190.468702,620856444.849711,-0.049807,0.049471,0.011697
2.340000,0.860000,0.160267,0.040000,33502393.538782,-10461245017.775167,10193868894.907578,-3442728667.698527,-0.195585,0.193570,-0.064863
2.380000,0.860000,0.120356,0.040000,67952585.437085,-20517923584.235996,19930535287.072308,-6205462392.530677,-0.383250,0.378823,-0.116915
2.380000,0.900000,0.120454,0.040000,69512354.484975,-19615255315.080284,19001534718.300175,7760208487.414974,-0.366094,0.361469,0.146207
2.340000,0.900000,0.160341,0.040000,35745180.845920,-9979186245.380131,9721254791.901724,3624754809.744952,-0.186556,0.184612,0.068292
2.420000,0.860000,0.080533,0.040000,136115043.447016,-38716805223.336197,35682993386.376274,-10158397063.573332,-0.712299,0.689436,-0.191390
2.460000,0.860000,0.041056,0.040000,270165443.796707,-64463507551.546684,44231741476.313919,-12118022417.829302,-1.100176,0.947705,-0.228311
2.460000,0.900000,0.041342,0.040000,266031155.700940,-63568184046.953621,41178474524.527748,19640777722.866901,-1.071111,0.902377,0.370044
2.420000,0.900000,0.080679,0.040000,135587702.677246,-37441439327.114861,33960873980.790977,14459679312.207644,-0.685746,0.659515,0.272429
2.500000,0.860000,0.009254,0.040000,503467561.809449,-94008098465.023376,58114577089.377365,-12588742421.463800,-1.568291,1.297789,-0.237179
2.500000,0.900000,0.010448,0.040000,487920357.883459,-92587263411.229416,54138199177.660927,22641661075.321148,-1.527077,1.237316,0.426582
-2.500000,0.940000,0.000299,0.040000,-776008028.219679,279435902290.969727,-43061619375.775551,129406981001.412247,3.928706,-2.147334,2.438103
-2.500000,0.980000,0.009851,0.040000,645368332.475199,-331328763220.638184,345158339011.220215,41236587339.254890,-6.320593,6.424816,0.776921
-2.460000,0.940000,0.040001,0.040000,-371191020.772175,125132004420.631561,40181426629.936005,78264938186.133118,1.423179,-0.177339,1.474557
-2.420000,0.940000,0.080001,0.040000,-179999261.683626,55975452841.330589,-17411357529.629501,33291844243.630913,0.836639,-0.546011,0.627238
-2.420000,0.980000,0.080604,0.040000,-128095225.322995,12703253437.381187,30810318579.724663,40777717080.959129,-0.006610,0.334538,0.768276
-2.460000,0.980000,0.041195,0.040000,-261313888.794114,-4479652513.853484,161945159371.149475,45333995553.490128,-0.974422,2.161118,0.854119
-2.380000,0.940000,0.120000,0.040000,-87387322.167781,28855012273.955425,-27921921516.731331,2509971209.130007,0.538371,-0.531339,0.047289
-2.340000,0.940000,0.160000,0.040000,-42362538.187411,14006518094.986866,-13597203999.948769,927989002.772856,0.261577,-0.258493,0.017484
-2.340000,0.980000,0.160303,0.040000,-32771265.808685,9445427909.221632,-9166793903.428123,9583498613.491419,0.176382,-0.174283,0.180559
-2.380000,0.980000,0.120404,0.040000,-64255074.320263,18117591664.786839,-14778600005.084711,20746928080.209290,0.322473,-0.297310,0.390884
-2.300000,0.940000,0.200000,0.040000,-20412749.867881,6830002172.661037,-6633636962.660795,164059740.652706,0.127571,-0.126091,0.003091
-2.260000,0.940000,0.240000,0.040000,-9709972.259668,3358497788.055885,-3290073703.717188,-138099537.751612,0.062889,-0.062374,-0.002602
-2.260000,0.980000,0.240202,0.040000,-8687615.255680,2405054217.094968,-2362441033.306500,1901376307.543072,0.045072,-0.044751,0.035823
-2.300000,0.980000,0.200242,0.040000,-16864778.120266,4698703154.480849,-4571083026.876464,4328836073.496419,0.087805,-0.086843,0.081558
-2.220000,0.940000,0.280000,0.040000,-4512635.245050,1631212847.349430,-1469057586.836304,-274991913.614664,0.029816,-0.028594,-0.005181
-2.180000,0.940000,0.320000,0.040000,-2014906.934082,868078988.439146,-846465040.155310,-251504433.704864,0.016233,-0.016070,-0.004738
-2.180000,0.980000,0.320152,0.040000,-2235314.060963,719749676.962859,-692268249.369841,338438457.094520,0.013405,-0.013198,0.006376
-2.220000,0.980000,0.280173,0.040000,-4443003.071444,1265243754.347352,-1166570651.419063,882992695.027622,0.023280,-0.022537,0.016636
2.180000,0.940000,0.320000,0.040000,2129882.802490,-482245082.513737,496039632.902000,345652967.901401,-0.009164,0.009268,0.006512
2.220000,0.940000,0.280000,0.040000,3910001.772949,-816321512.258309,730816108.564167,909537484.306449,-0.014897,0.014252,0.017136
2.220000,0.980000,0.280173,0.040000,1784480.331784,-91326695.420000,121472357.286729,1136853111.498005,-0.001891,0.002118,0.021419
2.180000,0.980000,0.320152,0.040000,1187992.607863,-133645165.403912,116659273.349614,508255231.414883,-0.002422,0.002294,0.009576
2.260000,0.940000,0.240000,0.040000,7078466.966759,-1518437655.005621,1499191540.052594,1958041366.085954,-0.028499,0.028354,0.036891
2.300000,0.940000,0.200000,0.040000,12715937.452172,-2731252047.409299,2672408743.090756,4161167829.155524,-0.051126,0.050682,0.078399
2.300000,0.980000,0.200242,0.040000,2883568.738958,671402870.827557,-630072902.492073,4576640895.936147,0.012416,-0.012105,0.086227
2.260000,0.980000,0.240202,0.040000,2456355.376224,135588974.917804,-119749211.914963,2241407817.873439,0.002465,-0.002346,0.042229
2.340000,0.940000,0.160000,0.040000,22820184.254622,-5067066689.937535,4944080577.560102,8719619549.871410,-0.094771,0.093844,0.164283
2.380000,0.940000,0.120000,0.040000,41236201.639609,-9768939279.858593,9506013570.928648,18060829685.503468,-0.182566,0.180585,0.340277
2.380000,0.980000,0.120404,0.040000,-1823861.518932,4677538813.793461,-4301918344.334565,19462389283.665596,0.086004,-0.083174,0.366683
2.340000,0.980000,0.160303,0.040000,2171043.925841,1969238790.917906,-1884109095.784746,9398662130.956461,0.036620,-0.035979,0.177076
2.420000,0.940000,0.080001,0.040000,75730377.896284,-19968373309.809231,20048774587.993023,34134472552.212292,-0.376670,0.377276,0.643113
2.460000,0.940000,0.040001,0.040000,142787098.440000,-37466303296.408028,29575783872.671650,50879016472.139343,-0.661288,0.601824,0.958590
2.460000,0.980000,0.041195,0.040000,-42583902.313492,12530102707.114872,-2325890599.565457,66243137986.386955,0.178398,-0.101497,1.248059
2.420000,0.980000,0.080604,0.040000,-13728106.726716,8384324805.323940,-6254422079.319733,41685243044.173996,0.145927,-0.129876,0.785374
2.500000,0.940000,0.000299,0.040000,279590688.991111,-62839518418.141609,31982719620.284828,61107458187.229713,-1.009525,0.776981,1.151300
2.500000,0.980000,0.009851,0.040000,-6770123.347821,-10018113448.535507,16570660478.217812,85351045195.244400,-0.225783,0.275165,1.608063
-2.500000,1.020000,0.009851,0.040000,128360417.132336,-161745447134.657562,-15668198857.926834,-188571281680.057983,-2.044605,0.707575,-3.552792
-2.500000,1.060000,0.000299,0.040000,-539773160.664956,181980088402.606171,-352418443857.766235,-154034213770.034393,4.391958,-5.676421,-2.902094
-2.460000,1.020000,0.041195,0.040000,-14440287.227260,-52640903422.791550,19291507661.289825,-82196414359.235352,-0.803289,0.551960,-1.548628
-2.420000,1.020000,0.080604,0.040000,-13731069.556184,-9812794809.212748,8330407592.767148,-578213999.475085,-0.176500,0.165328,-0.010894
-2.420000,1.060000,0.080001,0.040000,98638924.896077,-14767810993.933496,-62713140833.862610,-4650754289.274109,0.159702,-0.743616,-0.087623
-2.460000,1.060000,0.040001,0.040000,233887596.439512,-20746902306.878437,-262368381019.727020,-70948662213.870865,1.209333,-3.342956,-1.336714
-2.380000,1.020000,0.120404,0.040000,-11769203.752505,-743958036.021187,1077880060.007372,27791098810.325497,-0.015904,0.018420,0.523600
-2.340000,1.020000,0.160303,0.040000,-8934556.072635,78424653.182587,-105363584.187489,12816761909.958652,0.001630,-0.001833,0.241475
-2.340000,1.060000,0.160000,0.040000,15104194.883691,-8865560305.999949,8520866165.713114,8675459370.517904,-0.165084,0.162486,0.163451
-2.380000,1.060000,0.120000,0.040000,39852303.966751,-19175109538.401035,15864675774.212435,18734901683.129539,-0.342559,0.317611,0.352976
-2.300000,1.020000,0.200242,0.040000,-6196114.221108,365273960.303127,-380656120.227664,5911340825.890918,0.006969,-0.007085,0.111373
-2.260000,1.020000,0.240202,0.040000,-4020843.639822,401463702.073331,-408656178.084591,2732442352.340112,0.007604,-0.007659,0.051481
-2.260000,1.060000,0.240000,0.040000,1304119.765127,-1507996496.524874,1454937832.542065,2021257280.219708,-0.028112,0.027712,0.038082
-2.300000,1.060000,0.200000,0.040000,5101987.647965,-3719936801.749616,3566378223.727530,4134773793.354717,-0.069218,0.068061,0.077902
-2.220000,1.020000,0.280173,0.040000,-2477804.119288,286924037.484419,-250302316.187996,1300465984.810773,0.005199,-0.004923,0.024502
-2.180000,1.020000,0.320152,0.040000,-1461440.769127,207510022.143281,-234972108.434355,527417550.215290,0.004065,-0.004272,0.009937
-2.180000,1.060000,0.320000,0.040000,-309668.159979,-181989198.011568,188431447.892078,452788151.318683,-0.003465,0.003514,0.008531
-2.220000,1.060000,0.280000,0.040000,18389.853943,-531358470.584170,436223665.780963,1011858380.081354,-0.009473,0.008756,0.019064
2.180000,1.020000,0.320152,0.040000,79887.969254,289560253.552686,-263245109.045058,410584074.542686,0.005307,-0.005108,0.007736
2.220000,1.020000,0.280173,0.040000,-452061.177882,631370063.936252,-567882621.086856,814954156.400813,0.011537,-0.011058,0.015354
2.220000,1.060000,0.280000,0.040000,-1784186.075322,843004889.072800,-750075584.176204,102490738.931861,0.015357,-0.014657,0.001931
2.180000,1.060000,0.320000,0.040000,-677593.808399,413894801.947620,-404359403.044742,92216888.196822,0.007744,-0.007672,0.001737
2.260000,1.020000,0.240202,0.040000,-2007924.378461,1473426581.251531,-1430870995.450066,1433624974.284956,0.027520,-0.027199,0.027010
2.300000,1.020000,0.200242,0.040000,-6001324.362555,3372122317.061173,-3251127017.897375,2726546968.778119,0.062849,-0.061937,0.051370
2.300000,1.060000,0.200000,0.040000,-9865207.851896,3998575883.600727,-3865982115.528882,-292150784.704568,0.074586,-0.073587,-0.005504
2.260000,1.060000,0.240000,0.040000,-4297518.184605,1854526282.631271,-1809282543.036150,55626782.090233,0.034685,-0.034344,0.001048
2.340000,1.020000,0.160303,0.040000,-15587493.205458,7563742152.626410,-7302913443.474262,5314837423.243664,0.141031,-0.139065,0.100135
2.380000,1.020000,0.120404,0.040000,-37698911.110644,16724334194.517241,-16288640420.345568,10744461803.743664,0.312634,-0.309350,0.202432
2.380000,1.060000,0.120000,0.040000,-48630546.290639,19057853474.846226,-18428247709.047493,-3720820515.988600,0.355502,-0.350758,-0.070102
2.340000,1.060000,0.160000,0.040000,-22050222.383873,8691543449.809681,-8396997814.086286,-1293328831.580722,0.162089,-0.159869,-0.024367
2.420000,1.020000,0.080604,0.040000,-87357829.316883,36075509471.806061,-34073717364.183006,25656034740.900249,0.668369,-0.653283,0.483375
2.460000,1.020000,0.041195,0.040000,-196628923.796493,65961851608.330498,-48719671860.125534,45081163558.698486,1.145304,-1.015363,0.849355
2.460000,1.060000,0.040001,0.040000,-234816464.733566,84295421985.571289,-67412343481.068611,-12708847006.609953,1.492749,-1.365514,-0.239442
2.420000,1.060000,0.080001,0.040000,-106778252.553721,42907628716.445618,-43570497188.766785,-8080073388.489838,0.812151,-0.817147,-0.152233
2.500000,1.020000,0.009851,0.040000,-488487694.270695,127644915285.173340,-85139790171.655899,61609615113.380196,2.164658,-1.844329,1.160761
2.500000,1.060000,0.000299,0.040000,-526885318.954908,145754353857.888123,-73924479214.859268,-15475211388.083120,2.340102,-1.798775,-0.291562
-2.500000,1.100000,0.010448,0.040000,-768553062.918183,227663102131.724731,-515379112839.972656,94970296949.440216,5.915526,-8.083820,1.789295
-2.500000,1.140000,0.009254,0.040000,357457711.452701,-166478626085.220398,-13368604138.768185,214243137272.752869,-2.120026,0.764656,4.036465
-2.460000,1.100000,0.041342,0.040000,330332372.386954,-57543804025.641884,-313185256388.370117,52197496852.029251,1.011266,-3.805167,0.983431
-2.420000,1.100000,0.080679,0.040000,141936350.137600,-25981091965.883202,-69159357563.578354,17769651836.452801,0.048252,-0.765252,0.334791
-2.420000,1.140000,0.080533,0.040000,90048927.217226,-29540036254.377834,-12612400077.481821,7076669791.233786,-0.318299,0.000628,0.133329
-2.460000,1.140000,0.041056,0.040000,203725429.623647,-72995583816.591309,-93387786298.559601,100675412536.938416,-0.434851,-0.819052,1.896783
-2.380000,1.100000,0.120454,0.040000,60966010.276917,-25725365855.468689,21047332774.432041,-1955324647.265894,-0.458240,0.422985,-0.036839
-2.340000,1.100000,0.160341,0.040000,26021564.948568,-11919841690.601711,11459977023.785683,-400893501.265558,-0.221977,0.218512,-0.007553
-2.340000,1.140000,0.160267,0.040000,19297331.393059,-7053332942.016500,6799680662.889606,-8488372173.674213,-0.131455,0.129544,-0.159926
-2.380000,1.140000,0.120356,0.040000,41255287.999701,-15848931832.532316,14800938736.826910,-21103361573.595150,-0.292680,0.284782,-0.397600
-2.300000,1.100000,0.200273,0.040000,10923010.885083,-5175699155.227520,4979465616.234247,199309110.284754,-0.096404,0.094925,0.003755
-2.260000,1.100000,0.240227,0.040000,4435714.962530,-2262127116.941522,2196724604.362865,323275028.874155,-0.042250,0.041757,0.006091
-2.260000,1.140000,0.240178,0.040000,4228279.674767,-1546659361.610868,1512533274.091076,-1232895962.820033,-0.028947,0.028690,-0.023228
-2.300000,1.140000,0.200214,0.040000,9073850.793291,-3247469864.391206,3142431614.872620,-3304016181.126574,-0.060591,0.059799,-0.062250
-2.220000,1.100000,0.280195,0.040000,1693840.683264,-972281903.906014,862540080.990154,322108786.474335,-0.017698,0.016871,0.006069
-2.180000,1.100000,0.320171,0.040000,573149.619092,-460551024.328700,439462841.630433,223682158.124811,-0.008558,0.008399,0.004214
-2.180000,1.140000,0.320134,0.040000,843518.256004,-395098193.660616,377653559.186152,-141051609.608190,-0.007345,0.007214,-0.002657
-2.220000,1.140000,0.280153,0.040000,1925654.418301,-753425700.051678,687020444.232838,-478899908.817405,-0.013820,0.013319,-0.009023
2.180000,1.100000,0.320171,0.040000,-856282.525151,316946317.161654,-319726464.478828,-104943844.031724,0.005987,-0.006008,-0.001977
2.220000,1.100000,0.280195,0.040000,-1842637.151531,584166518.696406,-518766508.063994,-410254618.922564,0.010636,-0.010144,-0.007729
2.220000,1.140000,0.280153,0.040000,-980644.065717,120603448.835874,-134183580.166798,-629326643.627148,0.002349,-0.002451,-0.011857
2.180000,1.140000,0.320134,0.040000,-566063.158424,117633111.103861,-108264731.399847,-244140932.841727,0.002163,-0.002093,-0.004600
2.260000,1.100000,0.240227,0.040000,-3820782.120319,1188672911.054837,-1167459470.206060,-1089687529.050148,0.022275,-0.022116,-0.020530
2.300000,1.100000,0.200273,0.040000,-7743375.895116,2341998339.919999,-2277966352.157321,-2721208821.354468,0.043763,-0.043280,-0.051269
2.300000,1.140000,0.200214,0.040000,-2075123.498953,-427947821.861424,383521689.544836,-3173667382.920999,-0.007812,0.007477,-0.059794
2.260000,1.140000,0.240178,0.040000,-1544306.471497,-3866400.034763,-10960455.928308,-1387193470.262372,0.000011,-0.000123,-0.026136
2.340000,1.100000,0.160341,0.040000,-15521500.977210,4749980846.425135,-4605390458.703286,-6571959394.416692,0.088675,-0.087585,-0.123820
2.380000,1.100000,0.120454,0.040000,-31149301.579086,10149077567.567122,-9999984635.531916,-15526530660.308460,0.190372,-0.189248,-0.292529
2.380000,1.140000,0.120356,0.040000,1295479.308713,-5176036326.356893,5144468832.445395,-16952127073.865475,-0.097341,0.097103,-0.319388
2.340000,1.140000,0.160267,0.040000,-1847443.418935,-1711396720.651682,1600977558.683629,-7292257329.576998,-0.031620,0.030787,-0.137390
2.420000,1.100000,0.080679,0.040000,-63453552.101939,23318608272.954861,-22752827264.035526,-38784396020.189339,0.436138,-0.431874,-0.730721
2.460000,1.100000,0.041342,0.040000,-133196599.795608,45852033308.582436,-36105852375.950218,-67402247248.471741,0.808792,-0.735342,-1.269897
2.460000,1.140000,0.041056,0.040000,45836676.506927,-28143670033.476185,27097987383.514008,-74044272109.100403,-0.524333,0.516452,-1.395037
2.420000,1.140000,0.080533,0.040000,12912107.233594,-14167416533.150944,14788079331.039949,-42546401603.349762,-0.270430,0.275108,-0.801599
2.500000,1.100000,0.010448,0.040000,-384080157.912254,109722049271.365982,-75917037644.962021,-90911679829.889984,1.876155,-1.621393,-1.712829
2.500000,1.140000,0.009254,0.040000,225275391.717137,-77066060575.736969,60829316300.138664,-99863663386.809418,-1.360196,1.237832,-1.881489
-2.500000,1.180000,0.000896,0.040000,163206798.153738,-84178253461.769318,78318755860.597397,105647706980.293854,-1.552848,1.508690,1.990464
-2.500000,1.220000,0.011045,0.040000,627257611.534986,-172196595484.396362,411051549305.825256,-69917878031.362793,-4.594333,6.394400,-1.317293
-2.460000,1.180000,0.040010,0.040000,-64195619.963079,-13023201337.813818,140797178162.610077,33525071008.961826,-0.967565,1.930500,0.631632
-2.420000,1.180000,0.080005,0.040000,-17961197.711302,1522432320.891958,38964809293.243965,-17359302045.828144,-0.200157,0.505279,-0.327059
-2.420000,1.220000,0.080759,0.040000,-98756108.620102,32389378077.353886,35499351514.104355,-26520301086.234135,0.226516,0.285109,-0.499658
-2.460000,1.220000,0.041497,0.040000,-269042057.581478,75566609781.320724,205359562477.928101,-48912961931.463432,-0.164125,2.281250,-0.921549
-2.380000,1.180000,0.120003,0.040000,-2046761.367826,6562870068.387018,-5304578752.415878,-24461340360.403877,0.116536,-0.107053,-0.460866
-2.340000,1.180000,0.160003,0.040000,2089220.543095,2254437473.470556,-2092476551.124960,-9930566768.621292,0.041559,-0.040339,-0.187098
-2.340000,1.220000,0.160381,0.040000,-12001630.240413,8854588333.598383,-8392927407.016998,-3835484787.803885,0.164216,-0.160737,-0.072263
-2.380000,1.220000,0.120507,0.040000,-35260534.299078,22177143983.113556,-17863054422.305424,-8519261641.220893,0.393446,-0.360934,-0.160508
-2.300000,1.180000,0.200002,0.040000,2359721.873849,515360205.223274,-453849953.131318,-4076164331.494102,0.009362,-0.008898,-0.076797
-2.260000,1.180000,0.240002,0.040000,1702322.769345,-19431172.141750,38784204.606093,-1683441553.168089,-0.000475,0.000621,-0.031717
-2.260000,1.220000,0.240254,0.040000,-919735.719544,1153067939.449715,-1099330331.803161,-910267655.386904,0.021421,-0.021016,-0.017150
-2.300000,1.220000,0.200305,0.040000,-3718161.818312,3237587308.559063,-3064299284.966300,-1848002951.062641,0.060019,-0.058713,-0.034817
-2.220000,1.180000,0.280001,0.040000,1040621.597272,-105677218.539511,93854148.063817,-719244946.562037,-0.001924,0.001835,-0.013551
-2.180000,1.180000,0.320001,0.040000,577480.057867,-98877365.590287,115548041.552580,-251690103.213756,-0.001957,0.002083,-0.004742
-2.180000,1.220000,0.320191,0.040000,123464.370412,111020789.463404,-109615991.267421,-188869660.369213,0.002084,-0.002073,-0.003558
-2.220000,1.220000,0.280218,0.040000,-71344.510741,362917485.638756,-296624545.389232,-443866642.684755,0.006463,-0.005963,-0.008363
2.180000,1.180000,0.320001,0.040000,-119319.287494,-125526018.711018,109166375.615279,-199189535.421859,-0.002273,0.002149,-0.003753
2.220000,1.180000,0.280001,0.040000,54759.478513,-331763383.245334,291128580.615138,-430596600.559361,-0.006021,0.005715,-0.008113
2.220000,1.220000,0.280218,0.040000,632337.348224,-419907328.667060,369123352.495824,-1568100.709679,-0.007624,0.007242,-0.000030
2.180000,1.220000,0.320191,0.040000,190203.322483,-185481509.479675,178437912.874568,-34156015.829959,-0.003455,0.003402,-0.000644
2.260000,1.180000,0.240002,0.040000,776773.653662,-920371879.080307,882109263.704360,-793870338.628326,-0.017124,0.016836,-0.014957
2.300000,1.180000,0.200002,0.040000,3044772.947289,-2444128035.792428,2326181846.359509,-1566961263.786991,-0.045382,0.044493,-0.029522
2.300000,1.220000,0.200305,0.040000,4621782.001731,-2424728499.947568,2325170196.589353,758572116.049185,-0.045121,0.044370,0.014292
2.260000,1.220000,0.240254,0.040000,1779521.970021,-1019953688.320947,987811680.046460,146294673.243817,-0.019035,0.018793,0.002756
2.340000,1.180000,0.160003,0.040000,9425258.223034,-6309942260.799175,6015797142.246997,-3151930177.224015,-0.117220,0.115004,-0.059384
2.380000,1.180000,0.120003,0.040000,26402812.670591,-15991701283.999281,15286915996.222313,-6664239172.318690,-0.297309,0.291998,-0.125558
2.380000,1.220000,0.120507,0.040000,28203090.625936,-14447187400.245628,13912437372.356947,7893504118.064323,-0.269171,0.265141,0.148718
2.340000,1.220000,0.160381,0.040000,11517448.893559,-5841324462.809210,5591063610.027930,2634202819.144321,-0.108639,0.106753,0.049630
2.420000,1.180000,0.080005,0.040000,70181977.921153,-40588919763.506630,40889982754.519722,-14304212137.869036,-0.766420,0.768689,-0.269500
2.460000,1.180000,0.040010,0.040000,180844656.796110,-85771492000.166183,65247759769.462738,-22340263399.431080,-1.499981,1.345309,-0.420904
2.460000,1.220000,0.041497,0.040000,171521241.392109,-75509815967.948380,47170429591.925163,47660988031.131950,-1.262470,1.048897,0.897961
2.420000,1.220000,0.080759,0.040000,69072846.305546,-36098242974.496918,32605041050.430462,24771610816.021782,-0.660368,0.634042,0.466712
2.500000,1.180000,0.000896,0.040000,460114629.884944,-154529504407.570099,73216086936.147202,-27994440001.202900,-2.451828,1.839031,-0.527431
2.500000,1.220000,0.011045,0.040000,493717173.054295,-161633023162.668182,94735156327.201096,67410153445.131096,-2.667141,2.162984,1.270046
-2.500000,1.260000,0.008657,0.040000,-540062762.146177,201029042654.539398,-71150737412.832565,-147778137402.688538,3.053409,-2.074616,-2.784226
-2.500000,1.300000,0.001493,0.040000,-40955935.272363,13533575626.752773,-18314166477.273037,-77428393049.566376,0.282001,-0.318029,-1.458796
-2.460000,1.260000,0.040926,0.040000,-233071440.042478,89602976741.206177,63852405054.171776,-68009608255.441460,0.820816,0.335660,-1.281340
-2.420000,1.260000,0.080467,0.040000,-88099779.295076,41537214180.100677,-2276343774.861743,-4458397136.296465,0.560676,-0.264797,-0.083999
-2.420000,1.300000,0.080014,0.040000,-1658665.487943,1633800647.588451,-36161718680.527916,20476389391.248352,0.225940,-0.486150,0.385787
-2.460000,1.300000,0.040028,0.040000,17978329.425682,10356377338.593977,-117573871931.171600,-19346604622.505497,0.801132,-1.609148,-0.364501
-2.380000,1.260000,0.120312,0.040000,-34175471.047281,19354808689.486160,-18015831902.043743,13779329409.655426,0.357088,-0.346997,0.259611
-2.340000,1.260000,0.160234,0.040000,-13368761.034729,7464017628.899364,-7111640980.708532,4471566022.217881,0.138635,-0.135979,0.084247
-2.340000,1.300000,0.160007,0.040000,-3923646.629975,-186825002.248929,86715328.118506,7539472729.609107,-0.002954,0.002200,0.142048
-2.380000,1.300000,0.120009,0.040000,-5087183.341691,-2444520976.036793,1767905392.375441,21662146557.566120,-0.042232,0.037133,0.408127
-2.300000,1.260000,0.200187,0.040000,-5159505.628962,2951133918.594872,-2819392546.052448,1293180555.864908,0.054856,-0.053864,0.024364
-2.260000,1.260000,0.240156,0.040000,-1910437.317482,1190427917.291144,-1149254768.402582,291352825.457602,0.022196,-0.021885,0.005489
-2.260000,1.300000,0.240005,0.040000,-1169456.552727,314993254.937668,-319331529.510276,902818715.065789,0.005959,-0.005992,0.017010
-2.300000,1.300000,0.200006,0.040000,-2298935.038430,339058482.457299,-363658472.260891,2627621505.230155,0.006527,-0.006712,0.049506
-2.220000,1.260000,0.280134,0.040000,-648527.383692,466425790.712989,-405608698.832466,-1963857.355520,0.008444,-0.007986,-0.000037
-2.180000,1.260000,0.320117,0.040000,-180847.673476,202923284.924257,-193836572.540629,-58305118.646715,0.003772,-0.003703,-0.001099
-2.180000,1.300000,0.320003,0.040000,-217651.602235,122091919.223407,-114867545.595143,87529892.490798,0.002259,-0.002205,0.001649
-2.220000,1.300000,0.280004,0.040000,-534409.394954,209098250.181449,-199186671.381125,319891083.096960,0.003884,-0.003809,0.006027
2.180000,1.260000,0.320117,0.040000,249355.853451,-114347017.967631,117133286.036197,56882379.627392,-0.002170,0.002191,0.001072
2.220000,1.260000,0.280134,0.040000,588947.842381,-208442218.575700,183552485.872176,247142113.728946,-0.003786,0.003599,0.004656
2.220000,1.300000,0.280004,0.040000,206934.880363,46057535.232668,-25745672.272783,253465541.549876,0.000753,-0.000600,0.004775
2.180000,1.300000,0.320003,0.040000,136271.892274,-13051957.113140,11521037.745274,90429448.347988,-0.000237,0.000226,0.001704
2.260000,1.260000,0.240156,0.040000,1286853.338912,-401711328.598750,399186040.655722,717834007.454901,-0.007554,0.007535,0.013524
2.300000,1.260000,0.200187,0.040000,2632776.269692,-668531718.435692,665068647.325287,2011473707.892279,-0.012576,0.012550,0.037897
2.300000,1.300000,0.200006,0.040000,-412872.694203,1161186868.248660,-1076726244.036352,1402633934.920135,0.021400,-0.020764,0.026426
2.260000,1.300000,0.240005,0.040000,170953.771097,311950735.065977,-287819697.835398,592720347.784103,0.005741,-0.005559,0.011167
2.340000,1.260000,0.160234,0.040000,5053833.605983,-995357789.216214,1001627003.071040,5500382801.753676,-0.018789,0.018836,0.103630
2.380000,1.260000,0.120312,0.040000,9067580.353706,-1172961395.926294,953055314.548200,14937494202.433878,-0.020856,0.019199,0.281431
2.380000,1.300000,0.120009,0.040000,-12160951.842375,11735862298.218750,-11015596590.051365,8270401682.184026,0.217039,-0.211611,0.155819
2.340000,1.300000,0.160007,0.040000,-3010295.460425,3810661497.045228,-3559915012.440810,3344150697.998844,0.070378,-0.068488,0.063006
2.420000,1.260000,0.080467,0.040000,15199483.039873,-79440111.964956,-2821307088.052827,42230139540.279907,0.014899,-0.036760,0.795640
2.460000,1.260000,0.040926,0.040000,24778725.663197,-540887795.546009,-12970040254.827719,76264811250.258438,0.066175,-0.167997,1.436873
2.460000,1.300000,0.040028,0.040000,-129802043.171520,81704616006.771240,-58191275043.093933,32901267494.786911,1.406461,-1.229259,0.619879
2.420000,1.300000,0.080014,0.040000,-41386966.479111,35094735283.889954,-35076218224.789772,20422558631.189877,0.661100,-0.660961,0.384773
2.500000,1.260000,0.008657,0.040000,-59206958.927584,25195395952.388420,-37188488955.998901,104128881233.959259,0.542483,-0.632866,1.961848
2.500000,1.300000,0.001493,0.040000,-384581188.655698,155916113502.530945,-68847217090.966293,42042443849.384865,2.445421,-1.789250,0.792104
-2.500000,1.340000,0.011642,0.040000,-623265312.849083,180050138253.602173,-360229087796.866394,78653248687.939453,4.410652,-5.768522,1.481873
-2.500000,1.380000,0.008060,0.040000,395942541.141550,-97250891340.163437,99681930141.914642,185628922984.978607,-1.846004,1.864325,3.497357
-2.460000,1.340000,0.041660,0.040000,231364684.450388,-72153754119.773651,-182720497560.353760,51668657587.200195,0.081175,-2.001967,0.973467
-2.420000,1.340000,0.080843,0.040000,70634845.811683,-30917642299.375210,-30020960463.058693,22628013759.868523,-0.238071,-0.221177,0.426325
-2.420000,1.380000,0.080405,0.040000,53918324.435806,-30335853924.848598,11265982328.617851,11718582877.538393,-0.463759,0.320044,0.220785
-2.460000,1.380000,0.040804,0.040000,164097103.224030,-54146570034.760582,-18181452290.041855,87648548312.248901,-0.611342,0.066261,1.651349
-2.380000,1.340000,0.120563,0.040000,20642641.353396,-18495363088.641308,14014490444.844875,7030866425.628185,-0.323137,0.289368,0.132466
-2.340000,1.340000,0.160423,0.040000,5514448.804050,-6225868401.496106,5796111727.545691,2987380804.502389,-0.114870,0.111631,0.056284
-2.340000,1.380000,0.160203,0.040000,6375932.109556,-4598354537.539271,4354155239.837055,-3493367626.424962,-0.085255,0.083415,-0.065817
-2.380000,1.380000,0.120270,0.040000,18505117.609931,-13243131168.415649,12086921062.997276,-13299917509.611311,-0.242973,0.234260,-0.250578
-2.300000,1.340000,0.200339,0.040000,1179099.223115,-1859673884.670358,1724368105.161035,1323095575.239498,-0.034273,0.033253,0.024928
-2.260000,1.340000,0.240282,0.040000,81739.359904,-516843868.624026,480059312.869571,580046022.823698,-0.009530,0.009253,0.010928
-2.260000,1.380000,0.240135,0.040000,647906.172516,-585807165.945061,559738639.395181,-111377526.335865,-0.010890,0.010693,-0.002098
-2.300000,1.380000,0.200162,0.040000,2119231.106508,-1637072728.387197,1551441999.882764,-787008566.902974,-0.030359,0.029714,-0.014828
-2.220000,1.340000,0.280242,0.040000,-111010.595488,-123920520.416623,103447117.252088,262878044.867037,-0.002219,0.002065,0.004953
-2.180000,1.340000,0.320212,0.040000,-91647.250442,-22876561.259556,12962845.911195,93954569.634047,-0.000375,0.000300,0.001770
-2.180000,1.380000,0.320101,0.040000,28257.933396,-69148930.439959,64887470.484674,24642953.008426,-0.001279,0.001247,0.000464
-2.220000,1.380000,0.280116,0.040000,167363.027707,-198200812.321554,168778574.842741,13459809.601812,-0.003568,0.003346,0.000254
2.180000,1.340000,0.320212,0.040000,3602.602387,65351817.707537,-58984355.665335,51009464.920526,0.001195,-0.001147,0.000961
2.220000,1.340000,0.280242,0.040000,-112410.921803,180380974.925358,-154507262.124572,83674405.725428,0.003252,-0.003057,0.001576
2.220000,1.380000,0.280116,0.040000,-177690.976073,115198198.813580,-104698453.564493,-87205490.419897,0.002111,-0.002032,-0.001643
2.180000,1.380000,0.320101,0.040000,-52675.807945,54891711.040256,-51673700.905649,-13995045.060007,0.001016,-0.000992,-0.000264
2.260000,1.340000,0.240282,0.040000,-536963.579519,535642228.854352,-511097400.640630,59651103.416259,0.009953,-0.009768,0.001124
2.300000,1.340000,0.200339,0.040000,-1868334.517538,1509877901.797241,-1428294574.667419,-179214393.958061,0.027986,-0.027371,-0.003377
2.300000,1.380000,0.200162,0.040000,-1170683.457899,404451543.551365,-405122434.274887,-1082375088.731451,0.007624,-0.007629,-0.020393
2.260000,1.380000,0.240135,0.040000,-487004.088068,232091483.629659,-229499550.920320,-311471478.929842,0.004358,-0.004339,-0.005868
2.340000,1.340000,0.160423,0.040000,-5767979.059966,4242056194.671030,-4009803934.836775,-1296409250.017334,0.078610,-0.076860,-0.024425
2.380000,1.340000,0.120563,0.040000,-16902938.737716,12186953678.479773,-11609524247.416468,-5401359804.339181,0.226346,-0.221994,-0.101765
2.380000,1.380000,0.120270,0.040000,-4539270.013377,-293467253.489121,395192196.483059,-11431810183.882151,-0.006104,0.006871,-0.215382
2.340000,1.380000,0.160203,0.040000,-2493782.366388,490495293.314030,-523954760.687550,-3545937684.484143,0.009430,-0.009682,-0.066808
2.420000,1.340000,0.080843,0.040000,-48813034.975097,35124185447.962784,-30203894281.577328,-21963074860.512501,0.633950,-0.596869,-0.413797
2.460000,1.340000,0.041660,0.040000,-142538232.336138,81826519552.921738,-43510769192.841499,-45703429672.669113,1.325092,-1.036335,-0.861079
2.460000,1.380000,0.040804,0.040000,-2083346.931326,-10289227059.977819,23173422933.801785,-76416098290.509842,-0.266679,0.363777,-1.439724
2.420000,1.380000,0.080405,0.040000,-6129902.742752,-4877626378.206322,8233232042.975300,-39481564107.004356,-0.110864,0.136152,-0.743856
2.500000,1.340000,0.011642,0.040000,-486853475.426902,188701816223.625610,-101781875193.067749,-67015011320.357620,3.063965,-2.408916,-1.262602
2.500000,1.380000,0.008060,0.040000,131976374.552249,-47802801068.463745,56356973931.809273,-108328480436.426147,-0.948982,1.013448,-2.040971
-2.500000,1.420000,0.002090,0.040000,361817984.795644,-32539147583.684475,222010572203.254395,138546959110.051361,-1.683982,3.111882,2.610305
-2.500000,1.460000,0.012239,0.040000,837878683.605285,-225166607098.613373,421649356794.282959,-78460201411.593552,-5.352824,6.833564,-1.478236
-2.460000,1.420000,0.040055,0.040000,-100825602.380046,38569602423.556099,229773202116.278625,62754793734.378944,-0.790047,2.812340,1.182337
-2.420000,1.420000,0.080027,0.040000,-20743418.163257,8873101258.776289,61604264391.413498,470006287.833029,-0.231176,0.762310,0.008855
-2.420000,1.460000,0.080931,0.040000,-49012063.743146,12753856223.678516,75576933353.115677,-2473881663.751070,-0.258971,0.924652,-0.046609
-2.460000,1.460000,0.041830,0.040000,-191545022.589062,40739606917.162582,306828073888.972168,-39249026629.147346,-1.196955,3.816306,-0.739474
-2.380000,1.420000,0.120018,0.040000,-2393919.838394,7481252708.273129,-4749182211.500495,-14386368710.302332,0.125509,-0.104919,-0.271048
-2.340000,1.420000,0.160014,0.040000,714353.778594,1647310528.337064,-1434951047.857641,-4392506455.271070,0.029836,-0.028236,-0.082757
-2.340000,1.460000,0.160467,0.040000,-3015128.546230,3991661467.655322,-3694673664.891459,115017549.977322,0.073527,-0.071288,0.002167
-2.380000,1.460000,0.120623,0.040000,-12533035.905281,13063730093.165091,-8207075282.412704,3345813572.181148,0.218678,-0.182077,0.063037
-2.300000,1.420000,0.200011,0.040000,722310.182700,147185175.060648,-101514348.734549,-1349557953.331774,0.002515,-0.002171,-0.025426
-2.260000,1.420000,0.240009,0.040000,383432.182433,-88165172.407103,95594004.907722,-402113748.324141,-0.001703,0.001759,-0.007576
-2.260000,1.460000,0.240312,0.040000,-49100.048784,257435612.071212,-236605175.904683,-167291282.641230,0.004732,-0.004576,-0.003152
-2.300000,1.460000,0.200374,0.040000,-598355.486525,1049684536.894488,-965996198.354219,-256708732.993252,0.019304,-0.018673,-0.004837
-2.220000,1.420000,0.280008,0.040000,163289.553897,-69384143.292087,60930365.243751,-113190031.577026,-0.001259,0.001196,-0.002133
-2.180000,1.420000,0.320007,0.040000,60722.778061,-39529119.486016,40530755.831667,-17304660.978840,-0.000750,0.000758,-0.000326
-2.180000,1.460000,0.320234,0.040000,34146.409352,2035584.928257,-1521816.081327,-25086300.760360,0.000035,-0.000032,-0.000473
-2.220000,1.460000,0.280267,0.040000,39402.983036,46129598.085524,-33088179.738440,-76284771.414399,0.000795,-0.000697,-0.001437
2.180000,1.420000,0.320007,0.040000,-36912.252870,6422418.125778,-9558735.112023,-27799290.038871,0.000139,-0.000162,-0.000524
2.220000,1.420000,0.280008,0.040000,-73699.189322,-16362175.705023,11980274.328407,-98473959.415562,-0.000284,0.000250,-0.001855
2.220000,1.460000,0.280267,0.040000,23457.913996,-59028768.754124,48464231.182443,-19393321.546693,-0.001052,0.000973,-0.000365
2.180000,1.460000,0.320234,0.040000,-3498.609398,-15835371.071868,14526651.447831,-12539007.509484,-0.000291,0.000281,-0.000236
2.260000,1.420000,0.240009,0.040000,-80183.641194,-143272506.057977,128222769.018264,-250679214.966970,-0.002614,0.002501,-0.004723
2.300000,1.420000,0.200011,0.040000,177112.491656,-684511824.970329,622740283.994830,-630371088.802685,-0.012547,0.012082,-0.011877
2.300000,1.460000,0.200374,0.040000,637191.612956,-625653966.214778,589737462.548497,264959750.214135,-0.011585,0.011314,0.004992
2.260000,1.460000,0.240312,0.040000,155337.705975,-204784041.391925,193642189.134628,10249702.760556,-0.003795,0.003711,0.000193
2.340000,1.420000,0.160014,0.040000,1661050.379674,-2731204544.883454,2510239975.761029,-1501771275.357708,-0.050209,0.048543,-0.028294
2.380000,1.420000,0.120018,0.040000,7986554.705280,-10185157229.905491,9429387907.982300,-3513287279.742724,-0.187623,0.181927,-0.066192
2.380000,1.460000,0.120623,0.040000,6897313.216069,-5659210367.466394,5725277168.358276,6892294800.615416,-0.106996,0.107494,0.129855
2.340000,1.460000,0.160467,0.040000,2188829.295918,-1840919266.249560,1744578205.216154,1515619429.700790,-0.034139,0.033413,0.028555
2.420000,1.420000,0.080027,0.040000,32271262.859209,-37142821136.937065,38785236971.096619,-9597439172.427446,-0.709076,0.721453,-0.180821
2.460000,1.420000,0.040055,0.040000,121618135.084182,-95932264902.653473,69637529121.000580,-15100046763.622675,-1.658797,1.460634,-0.284494
2.460000,1.460000,0.041830,0.040000,67298731.954924,-47678529380.050262,39296558352.641464,66034249226.844208,-0.850915,0.787746,1.244124
2.420000,1.460000,0.080931,0.040000,21136118.410255,-19382855380.002453,20326953772.185474,31906507579.196892,-0.370520,0.377635,0.601137
2.500000,1.420000,0.002090,0.040000,448972285.482823,-201805702550.100006,96039796834.334152,-20239865884.227127,-3.204329,2.407253,-0.381331
2.500000,1.460000,0.012239,0.040000,395408216.355042,-150700749603.023254,111110082321.429367,97303502910.488571,-2.615516,2.317152,1.833254
-2.500000,1.500000,0.007463,0.040000,403184964.778731,-121713141908.304840,170288336840.011780,-232405471338.447510,-2.567702,2.933776,-4.378654
-2.500000,1.540000,0.002687,0.040000,-882199650.568669,296919892837.543945,-373304336798.627808,-136094900006.488937,6.025881,-6.601532,-2.564107
-2.460000,1.500000,0.040690,0.040000,27193652.700567,-30570314219.425404,62816356917.335602,-117448339659.858398,-0.758223,1.001236,-2.212795
-2.420000,1.500000,0.080347,0.040000,-796313.193818,-14876496753.841835,24095643941.642841,-28549487308.593948,-0.332390,0.401868,-0.537889
-2.420000,1.540000,0.080045,0.040000,31009326.552552,-9186366115.759697,-42788272491.655464,-22621278862.084301,0.120693,-0.512386,-0.426198
-2.460000,1.540000,0.040090,0.040000,156966659.257544,-24671201189.635151,-198689106306.282043,-77118855605.831955,0.797652,-2.480947,-1.452964
-2.380000,1.500000,0.120232,0.040000,-2775389.272544,-1762870548.148482,1874939049.697478,11539493748.985973,-0.033847,0.034692,0.217411
-2.340000,1.500000,0.160174,0.040000,-1434896.388295,383500634.586657,-427314964.640398,2741373509.751782,0.007473,-0.007803,0.051649
-2.340000,1.540000,0.160023,0.040000,942921.229892,-2189875101.992025,2007842389.531839,551663352.482127,-0.040230,0.038858,0.010394
-2.380000,1.540000,0.120030,0.040000,5917606.589270,-8658720445.363407,4104987598.005464,-353433007.408427,-0.137397,0.103079,-0.006659
-2.300000,1.500000,0.200139,0.040000,-532023.357971,336228659.204780,-328805722.067894,606570463.167581,0.006293,-0.006237,0.011428
-2.260000,1.500000,0.240116,0.040000,-152937.390400,154251641.153543,-148211734.954477,109939858.726176,0.002872,-0.002827,0.002071
-2.260000,1.540000,0.240015,0.040000,-30238.628828,-54498723.658017,46366480.659560,106153046.111163,-0.000981,0.000920,0.002000
-2.300000,1.540000,0.200018,0.040000,66128.141683,-409451225.816414,366773372.131017,294089208.349728,-0.007473,0.007151,0.005541
-2.220000,1.500000,0.280099,0.040000,-26210.084659,53876918.322548,-44988962.404922,6132347.733461,0.000965,-0.000898,0.000116
-2.180000,1.500000,0.320087,0.040000,7177.737377,18572676.309344,-16811247.777644,-8107015.835148,0.000340,-0.000327,-0.000153
-2.180000,1.540000,0.320011,0.040000,1932.153643,7430271.111045,-6956700.642349,6030439.987646,0.000137,-0.000134,0.000114
-2.220000,1.540000,0.280013,0.040000,-13803.013441,5025164.483878,-6965254.985799,32231791.342577,0.000106,-0.000120,0.000607
2.180000,1.500000,0.320087,0.040000,11303.684344,-12449320.385474,12298270.317656,1247752.559880,-0.000234,0.000233,0.000024
2.220000,1.500000,0.280099,0.040000,38877.389674,-24468183.888612,21225805.923107,27428196.708215,-0.000443,0.000418,0.000517
2.220000,1.540000,0.280013,0.040000,13153.894109,9740598.736341,-6252195.020562,20164142.967778,0.000164,-0.000138,0.000380
2.180000,1.540000,0.320011,0.040000,8756.340286,-1208950.626631,1324868.666331,5818911.181056,-0.000023,0.000024,0.000110
2.260000,1.500000,0.240116,0.040000,107188.690502,-31709310.201322,34377896.036904,120850166.713044,-0.000613,0.000633,0.002277
2.300000,1.500000,0.200139,0.040000,214843.792466,88212646.140332,-66814983.060543,451879971.986601,0.001541,-0.001380,0.008514
2.300000,1.540000,0.200018,0.040000,-152659.920134,324988051.188597,-297296904.860389,28265260.993097,0.005966,-0.005758,0.000533
2.260000,1.540000,0.240015,0.040000,-4011.650255,72178419.539118,-65264922.791028,43061152.071094,0.001321,-0.001269,0.000811
2.340000,1.500000,0.160174,0.040000,115467.595463,948489175.901171,-832674111.146391,1553581011.666316,0.017215,-0.016343,0.029270
2.380000,1.500000,0.120232,0.040000,-1824007.869012,5538039595.648040,-5166983370.189651,5262131666.503469,0.102243,-0.099446,0.099142
2.380000,1.540000,0.120030,0.040000,-3906192.438620,5010435248.634246,-4898963384.759358,-3332097470.741707,0.093769,-0.092929,-0.062779
2.340000,1.540000,0.160023,0.040000,-882784.312348,1288035543.710191,-1197753348.146010,-393616325.463924,0.023757,-0.023077,-0.007416
2.420000,1.500000,0.080347,0.040000,-13925351.794664,25658000375.326733,-21690175440.470913,24657086781.887772,0.460985,-0.431082,0.464554
2.460000,1.500000,0.040690,0.040000,-74589849.724766,74442175354.832809,-35632257093.442955,50455786684.603577,1.183173,-0.890693,0.950616
2.460000,1.540000,0.040090,0.040000,-65299114.518743,52183829139.075653,-56026099666.267723,-22301192137.114182,1.004891,-1.033847,-0.420167
2.420000,1.540000,0.080045,0.040000,-15828118.789227,20518004958.328320,-26680082921.211353,-15609236894.742168,0.421400,-0.467839,-0.294087
2.500000,1.500000,0.007463,0.040000,-435559615.898888,204418102514.714935,-116038581087.409073,77165716056.167953,3.351819,-2.685771,1.453847
2.500000,1.540000,0.002687,0.040000,-356465522.931304,134630000225.052261,-106706579531.249069,-27669490149.437283,2.378679,-2.168242,-0.521309
-2.500000,1.580000,0.012836,0.040000,-175641272.730895,-68436973232.829536,-154759422600.240265,-21810633592.334908,-0.027847,-1.654212,-0.410925
-2.500000,1.620000,0.006866,0.040000,-451969068.059394,-7656426634.536586,-258794456845.438660,-35432979725.649849,1.361775,-3.369811,-0.667578
-2.460000,1.580000,0.042009,0.040000,-42701507.969152,6017781936.559845,-158606908174.835175,-19038830902.686882,0.975839,-2.125786,-0.358703
-2.420000,1.580000,0.081023,0.040000,-1586349.301862,14230093541.622124,-58019498982.574402,-7123610715.705759,0.515609,-0.845616,-0.134213
-2.420000,1.620000,0.080294,0.040000,-14905859.662928,23486183681.912781,-66716132615.399017,-11531304906.582069,0.686837,-1.012627,-0.217256
-2.460000,1.620000,0.040585,0.040000,-90784508.708100,16973480233.059353,-170022767143.529419,-20455805629.887222,1.184851,-2.338266,-0.385399
-2.380000,1.580000,0.120685,0.040000,1375676.210048,1239777565.590646,-771093440.945558,-6761495071.817184,0.020709,-0.017177,-0.127390
-2.340000,1.580000,0.160514,0.040000,631125.474962,-295493742.134841,281614998.287933,-1260022562.884272,-0.005489,0.005384,-0.023740
-2.340000,1.620000,0.160147,0.040000,-272501.997939,940368387.771924,-870712178.089896,-158674986.404438,0.017323,-0.016798,-0.002990
-2.380000,1.620000,0.120196,0.040000,-2367276.984171,5291369173.506268,-4918397041.046856,1292546032.335118,0.097584,-0.094774,0.024352
-2.300000,1.580000,0.200411,0.040000,183936.554955,-193382122.292541,177575811.430966,-192683393.572212,-0.003554,0.003435,-0.003630
-2.260000,1.580000,0.240343,0.040000,41524.720424,-65637020.612168,59990772.960258,-11621886.379677,-0.001205,0.001162,-0.000219
-2.260000,1.620000,0.240098,0.040000,23884.491818,7257965.539607,-5191724.694656,-32329847.209975,0.000125,-0.000109,-0.000609
-2.300000,1.620000,0.200118,0.040000,11924.159998,133589136.527441,-117714195.794635,-109759498.126773,0.002427,-0.002308,-0.002068
-2.220000,1.580000,0.280294,0.040000,10049.680146,-15823168.348350,12420636.460894,8463545.545823,-0.000279,0.000253,0.000159
-2.180000,1.580000,0.320257,0.040000,6964.632648,-3027782.274778,2131399.201935,4211334.958689,-0.000052,0.000045,0.000079
-2.180000,1.620000,0.320074,0.040000,10024.677182,-2438304.460303,2164394.298976,-247472.753953,-0.000044,0.000042,-0.000005
-2.220000,1.620000,0.280084,0.040000,14130.335901,-4640942.731969,4364350.291498,-6621359.906154,-0.000086,0.000084,-0.000125
2.180000,1.580000,0.320257,0.040000,3609.670323,3501425.851108,-3004291.548728,2140780.741135,0.000063,-0.000059,0.000040
2.220000,1.580000,0.280294,0.040000,-1803.278339,11395440.220185,-9272014.050815,-929285.413589,0.000203,-0.000187,-0.000018
2.220000,1.620000,0.280084,0.040000,-301.706461,518356.742198,-1063847.512619,-5872061.886048,0.000013,-0.000017,-0.000111
2.180000,1.620000,0.320074,0.040000,2177.459640,1374576.741768,-1319670.141828,-978165.625584,0.000026,-0.000025,-0.000018
2.260000,1.580000,0.240343,0.040000,-26685.779394,30326329.123322,-28972827.529051,-29745794.139333,0.000564,-0.000554,-0.000560
2.300000,1.580000,0.200411,0.040000,-97551.437427,25428302.732630,-27261002.889216,-175868149.443912,0.000489,-0.000503,-0.003313
2.300000,1.620000,0.200118,0.040000,28574.634890,-108742563.909087,95486785.438454,-28525607.342085,-0.001974,0.001874,-0.000537
2.260000,1.620000,0.240098,0.040000,-1792.290126,-15792246.960188,13189150.160757,-18450548.331988,-0.000283,0.000263,-0.000348
2.340000,1.580000,0.160514,0.040000,-177278.586569,-329117490.673627,291057174.930405,-797116337.694814,-0.005986,0.005699,-0.015018
2.380000,1.580000,0.120685,0.040000,499590.585338,-2985351609.824567,2248950002.800747,-3249597854.693994,-0.052083,0.046534,-0.061224
2.380000,1.620000,0.120196,0.040000,1429004.834542,-1966069966.381457,1523578733.527690,2031930679.238504,-0.034541,0.031206,0.038283
2.340000,1.620000,0.160147,0.040000,260617.928303,-525490560.522703,476746568.967662,153970098.225153,-0.009625,0.009258,0.002901
2.420000,1.580000,0.081023,0.040000,7774238.166842,-15599997471.048681,-4886592596.402907,-11277587441.539898,-0.178119,0.023728,-0.212476
2.460000,1.580000,0.042009,0.040000,58525793.466727,-68171342471.012558,-40777486393.058815,-17158574533.254484,-0.668590,-0.152474,-0.323277
2.460000,1.620000,0.040585,0.040000,26020027.028128,-22157848958.859489,-49103073157.486420,25335976182.463947,-0.014688,-0.522351,0.477344
2.420000,1.620000,0.080294,0.040000,6323821.112274,-4236020442.754265,-12549567604.133759,14882968045.169085,0.015066,-0.141566,0.280404
2.500000,1.580000,0.012836,0.040000,185508249.471917,-166985618173.281860,2089579303.651429,-21758315197.953453,-2.214085,0.971390,-0.409939
2.500000,1.620000,0.006866,0.040000,-6542341.180971,-51677782105.929268,-45203503776.798935,39253315704.430367,-0.426049,-0.304070,0.739555
-2.500000,1.660000,0.003284,0.040000,-912641173.921882,298084286813.355591,-356196323171.796509,87954522863.039825,5.944540,-6.382486,1.657114
-2.500000,1.700000,0.013433,0.040000,-253115751.785089,89831810571.241486,-99405301971.475189,251865256814.307892,1.746594,-1.818742,4.745287
-2.460000,1.660000,0.040135,0.040000,85599794.142600,21029816052.040520,-264447374892.989532,51749421101.465324,1.772052,-3.606503,0.974989
-2.420000,1.660000,0.080067,0.040000,7250598.565606,15969618461.556705,-74198750702.268738,16050750841.686695,0.629998,-1.068826,0.302405
-2.420000,1.700000,0.081120,0.040000,243197.860966,3405293024.904301,-9175792696.096930,49569646079.757568,0.096774,-0.140261,0.933921
-2.460000,1.700000,0.042195,0.040000,-31860947.246196,22070400352.753857,-15538983059.491865,143359042181.551880,0.378902,-0.329680,2.700967
-2.380000,1.660000,0.120045,0.040000,231164.722304,-775150720.173065,-2656957333.129348,2296143090.627703,0.004795,-0.030660,0.043261
-2.340000,1.660000,0.160034,0.040000,-100434.706291,-129411450.335902,188125284.774741,424535851.980163,-0.002770,0.003213,0.007999
-2.340000,1.700000,0.160563,0.040000,75460.273650,-164665578.832274,68952180.833780,-56356090.769941,-0.002561,0.001840,-0.001062
-2.380000,1.700000,0.120749,0.040000,427263.442206,-397200208.318242,273699901.933387,-1006576556.824714,-0.006785,0.005855,-0.018964
-2.300000,1.660000,0.200027,0.040000,-23341.613206,39327109.439214,-27906181.428627,54322089.324337,0.000676,-0.000590,0.001023
-2.260000,1.660000,0.240022,0.040000,5977.107665,14925815.457971,-12196188.809184,81505.129169,0.000266,-0.000245,0.000002
-2.260000,1.700000,0.240376,0.040000,7723.080186,-1310203.677812,404611.065487,5703859.687674,-0.000020,0.000013,0.000107
-2.300000,1.700000,0.200451,0.040000,10870.935571,-30088608.403685,19361646.916843,17270755.746345,-0.000506,0.000425,0.000325
-2.220000,1.660000,0.280019,0.040000,10451.732227,2540561.854699,-1788543.354717,-2720333.934230,0.000044,-0.000038,-0.000051
-2.180000,1.660000,0.320017,0.040000,10012.940947,-15921.479565,160057.786319,-604140.474674,-0.000001,0.000002,-0.000011
-2.180000,1.700000,0.300053,0.040000,9567.834019,772607.614205,-837123.353692,487732.845240,0.000015,-0.000015,0.000009
-2.220000,1.700000,0.280322,0.040000,9369.819729,1089861.248204,-906141.167876,618661.390550,0.000019,-0.000018,0.000012
2.180000,1.660000,0.320017,0.040000,2646.012387,-235116.832705,25767.996570,-764487.827400,-0.000003,0.000002,-0.000014
2.220000,1.660000,0.280019,0.040000,3162.002967,-2230007.916429,1641969.953878,-948574.071668,-0.000039,0.000034,-0.000018
2.220000,1.700000,0.280322,0.040000,3793.602107,-289367.548896,373663.835281,1142002.271531,-0.000006,0.000007,0.000022
2.180000,1.700000,0.300053,0.040000,3192.617811,409142.346996,-546650.790441,-150905.205303,0.000008,-0.000010,-0.000003
2.260000,1.660000,0.240022,0.040000,7630.809667,-8244385.556732,7183152.496231,4887409.904223,-0.000149,0.000141,0.000092
2.300000,1.660000,0.200027,0.040000,24156.759539,-2895707.893564,948805.239086,47445462.325036,-0.000044,0.000029,0.000894
2.300000,1.700000,0.200451,0.040000,-442.733919,21389603.132535,-14299215.205922,3102306.782877,0.000363,-0.000309,0.000058
2.260000,1.700000,0.240376,0.040000,4428.341054,2472739.130580,-1491569.269439,3681963.068961,0.000041,-0.000034,0.000069
2.340000,1.660000,0.160034,0.040000,28003.333478,205694457.105202,-210431783.484839,242199970.772310,0.003902,-0.003938,0.004563
2.380000,1.660000,0.120045,0.040000,-439582.819373,2290038712.475531,-2634546881.478373,813819288.589970,0.045093,-0.047689,0.015333
2.380000,1.700000,0.120749,0.040000,-168675.637636,-36081168.956303,-300992408.560170,-832021319.518401,0.001225,-0.003766,-0.015676
2.340000,1.700000,0.160563,0.040000,-43506.934430,65491687.027103,-14831704.608162,-84046923.370233,0.000948,-0.000566,-0.001583
2.420000,1.660000,0.080067,0.040000,-5508117.534643,14778550243.412640,-27900000897.161114,4549063470.048128,0.352601,-0.451487,0.085707
2.460000,1.660000,0.040135,0.040000,-49773931.594117,31457648738.347179,-68035399996.947975,19602331455.081696,0.799424,-1.075083,0.369319
2.460000,1.700000,0.042195,0.040000,26474534.089703,-10645958424.266932,-102557344996.419693,-7966214081.664671,0.439269,-1.292395,-0.150088
2.420000,1.700000,0.081120,0.040000,931278.621377,2947779183.686579,-30959597470.140247,-2128396431.290284,0.213866,-0.424969,-0.040100
2.500000,1.660000,0.003284,0.040000,-505106587.646384,137887008949.567017,-211516709809.532166,30679841721.150059,3.014039,-3.568930,0.578026
2.500000,1.700000,0.013433,0.040000,75972480.679473,-71856153442.805496,3010116040.813351,-11398526504.264839,-0.964682,0.445842,-0.214755
-2.500000,1.740000,0.006269,0.040000,1036391971.826451,-394016417899.800781,368531515808.026794,122799886696.786850,-7.279453,7.087392,2.313621
-2.500000,1.780000,0.003881,0.040000,522521178.499546,-129600075574.589676,231113073330.465790,-102839606514.853653,-3.015510,3.780535,-1.937558
-2.460000,1.740000,0.040488,0.040000,11188291.734616,-72885567471.054047,193143027376.371948,68826644214.936279,-2.052922,2.959211,1.296734
-2.420000,1.740000,0.080245,0.040000,-1318123.757387,-22853027027.267456,64806483272.967201,21613849752.532459,-0.667693,0.983863,0.407217
-2.420000,1.780000,0.080094,0.040000,547490.301590,-15660764391.925644,58483165512.277946,-25258242637.684372,-0.537098,0.859817,-0.475880
-2.460000,1.780000,0.040188,0.040000,-6290717.794449,-21156296189.990524,183124279037.243439,-60353653316.484650,-1.314068,2.534696,-1.137098
-2.380000,1.740000,0.120164,0.040000,-171257.566225,-686309207.168249,3292669367.049705,-96328122.313782,-0.027662,0.047304,-0.001815
-2.340000,1.740000,0.160123,0.040000,7915.416697,49541015.726664,12538784.247932,-61902390.336600,0.000582,-0.000115,-0.001166
-2.340000,1.780000,0.160047,0.040000,5990.656627,17019429.482869,-40103525.652204,23182382.877257,0.000451,-0.000625,0.000437
-2.380000,1.780000,0.120063,0.040000,37114.041181,-715140597.715667,1868905752.543643,-13543533.346437,-0.019995,0.028690,-0.000255
-2.300000,1.740000,0.200098,0.040000,12720.416334,-1039654.028851,1827664.172772,-10560817.698339,-0.000024,0.000030,-0.000199
-2.260000,1.740000,0.240082,0.040000,9996.561999,-2005524.702401,1502794.488845,-110161.942359,-0.000035,0.000031,-0.000002
-2.260000,1.780000,0.220477,0.040000,9577.779738,-388112.021159,-16441.298355,1118909.203352,-0.000005,0.000002,0.000021
-2.300000,1.780000,0.200038,0.040000,9556.064922,3620678.291108,-2023815.772117,-109097.110874,0.000059,-0.000047,-0.000002
-2.220000,1.740000,0.260038,0.040000,10011.433845,-295185.482298,497879.653125,-665431.233925,-0.000007,0.000008,-0.000013
-2.180000,1.740000,0.260061,0.040000,10506.874106,2725837.148027,-3003690.660055,-298675.817291,0.000053,-0.000055,-0.000006
-2.180000,1.780000,0.220072,0.040000,15786.566864,1977164.479279,-2924241.896226,-13791987.161809,0.000043,-0.000050,-0.000260
-2.220000,1.780000,0.220045,0.040000,9525.438949,-2917919.978119,5290434.803273,-1603258.686986,-0.000068,0.000086,-0.000030
-2.140000,1.740000,0.260390,0.040000,6888.513696,2168082.604948,-3699054.729278,6868187.921728,0.000050,-0.000061,0.000129
-2.100000,1.740000,0.260034,0.040000,992.433443,-14392100.089922,14520160.632997,5068478.301697,-0.000272,0.000273,0.000095
-2.100000,1.780000,0.220040,0.040000,-30122.341203,-13278249.151212,18825005.315780,66521103.524030,-0.000282,0.000323,0.001253
-2.140000,1.780000,0.220461,0.040000,13112.252632,24395224.243044,-33772618.154622,13298527.137896,0.000513,-0.000583,0.000251
-2.060000,1.740000,0.260066,0.040000,16741.017334,-23011448.315159,26309488.164496,-20451795.248522,-0.000452,0.000477,-0.000385
-2.020000,1.740000,0.260377,0.040000,59371.625532,32565967.532390,-28427236.233141,-40606620.473679,0.000590,-0.000559,-0.000765
-2.020000,1.780000,0.220446,0.040000,143213.356978,1048038.160587,2347824.974684,-228176176.222213,0.000001,0.000025,-0.004299
-2.060000,1.780000,0.220078,0.040000,-29060.872253,-106021385.709844,133315861.629682,-30899099.567983,-0.002152,0.002357,-0.000582
-1.980000,1.740000,0.260030,0.040000,49452.624265,101988134.853151,-111529188.102359,15124092.443653,0.001975,-0.002047,0.000285
-1.940000,1.740000,0.260072,0.040000,-94496.384393,28833486.957486,-47233460.362329,142296339.848255,0.000647,-0.000786,0.002681
-1.940000,1.780000,0.220085,0.040000,-84482.327364,229535098.621245,-279370950.783318,460495640.293208,0.004606,-0.004982,0.008676
-1.980000,1.780000,0.220035,0.040000,269184.770355,295376817.520264,-347770718.061168,-79319940.368410,0.005861,-0.006256,-0.001494
-1.900000,1.740000,0.260365,0.040000,-256031.949147,-201203124.361460,216920636.129789,124104421.403960,-0.003880,0.003998,0.002338
-1.860000,1.740000,0.260027,0.040000,-138251.155740,-301252186.480399,328180872.620082,-165459667.859794,-0.005828,0.006031,-0.003117
-1.860000,1.780000,0.220031,0.040000,-795932.718646,-771745808.341133,905788733.411913,-217022213.981955,-0.015298,0.016308,-0.004089
-1.900000,1.780000,0.220431,0.040000,-756472.200211,-405651925.137236,437429742.762389,577831138.240009,-0.007822,0.008062,0.010887
-1.820000,1.740000,0.260077,0.040000,376368.149685,-27067600.323277,22349517.918565,-372179639.397656,-0.000483,0.000448,-0.007012
-1.780000,1.740000,0.260352,0.040000,916845.690685,436005652.811410,-425409174.394556,-271319070.603247,0.008155,-0.008075,-0.005112
-1.780000,1.780000,0.220416,0.040000,2172066.550000,721748600.568928,-833402505.167608,-1110180556.572808,0.014229,-0.015071,-0.020916
-1.820000,1.780000,0.220092,0.040000,441783.487910,-242956645.899920,347112486.856906,-1095635047.199988,-0.005166,0.005951,-0.020642
-1.740000,1.740000,0.260023,0.040000,819228.174520,698694428.924626,-729689867.668174,101688443.788340,0.013339,-0.013573,0.001916
-1.700000,1.740000,0.260083,0.040000,-252640.391694,401538797.763909,-463551404.604736,737600840.173887,0.007916,-0.008383,0.013897
-1.700000,1.780000,0.220099,0.040000,447429.300583,1073381540.266376,-1218677764.660439,1728933407.255561,0.021044,-0.022139,0.032574
-1.740000,1.780000,0.220027,0.040000,2565451.661287,1496124220.343694,-1714654289.429144,6379221.045838,0.029423,-0.031070,0.000120
-1.660000,1.740000,0.260340,0.040000,-1830851.067728,-433381347.593120,474304882.437209,863834793.637093,-0.008396,0.008705,0.016275
-1.620000,1.740000,0.260020,0.040000,-2794765.023211,-1145623176.024488,1149145632.655900,279736221.914207,-0.021604,0.021631,0.005270
-1.620000,1.780000,0.220024,0.040000,-6211485.737488,-1987582705.721705,2253215518.933702,1179424439.778847,-0.038949,0.040950,0.022221
-1.660000,1.780000,0.220401,0.040000,-3337680.522783,-659218165.013271,647223208.304576,2307141643.475252,-0.012352,0.012262,0.043468
-1.580000,1.740000,0.260090,0.040000,-2097908.440756,-1291284412.041454,1317837344.993592,-426465588.838174,-0.024479,0.024679,-0.008035
-1.540000,1.740000,0.260327,0.040000,445352.823526,-670098096.943730,754923320.872949,-1381582351.984923,-0.013104,0.013744,-0.026030
-1.540000,1.780000,0.220387,0.040000,-812201.193129,-1498752831.101838,1650055822.915804,-2946828111.414501,-0.029093,0.030233,-0.055520
-1.580000,1.780000,0.220106,0.040000,-5602793.404517,-2439765722.027318,2765542392.271958,-767232026.496272,-0.047808,0.050263,-0.014455
-1.500000,1.740000,0.260017,0.040000,3863837.744046,607327441.529317,-671561733.885143,-1547599101.983931,0.011805,-0.012290,-0.029158
-1.460000,1.740000,0.260096,0.040000,6425897.799595,1679651983.199816,-1658556013.826857,-815993809.416899,0.031526,-0.031367,-0.015374
-1.460000,1.780000,0.220113,0.040000,12169067.537436,2642444692.794136,-2957635426.629454,-2218197518.876698,0.051567,-0.053942,-0.041792
-1.500000,1.780000,0.220020,0.040000,6297448.482256,907733217.452259,-892429336.112993,-3525517778.702225,0.017016,-0.016900,-0.066423
-1.420000,1.740000,0.260316,0.040000,6496890.249341,2190639129.076694,-2229978960.464961,92782775.319959,0.041495,-0.041792,0.001748
-1.380000,1.740000,0.260015,0.040000,3387773.831725,1773971655.843605,-1859917246.561047,1618833450.861931,0.033908,-0.034556,0.030500
-1.380000,1.780000,0.220017,0.040000,8383665.363297,3105265612.336887,-3389074266.819274,2947728969.409840,0.060109,-0.062248,0.055537
-1.420000,1.780000,0.220373,0.040000,13379713.655664,3674343908.619605,-4057429492.953512,102424.780339,0.071392,-0.074279,0.000002
-1.340000,1.740000,0.260103,0.040000,-2227134.762962,418773346.961609,-352887327.376673,2235542957.352853,0.007518,-0.007021,0.042119
-1.300000,1.740000,0.260304,0.040000,-8496614.906261,-1077251491.144083,995648339.050637,2195985252.446104,-0.019835,0.019220,0.041374
-1.300000,1.780000,0.220359,0.040000,-13400211.247375,-1408150478.432809,1600174716.749692,4515546222.240989,-0.027616,0.029063,0.085076
-1.340000,1.780000,0.220121,0.040000,-1680533.705095,771909952.741819,-967598144.159970,4477563514.936893,0.015649,-0.017124,0.084360
-1.260000,1.740000,0.260012,0.040000,-13070266.820165,-2527361970.961052,2606079508.312582,1532754843.625748,-0.048062,0.048655,0.028878
-1.220000,1.740000,0.260109,0.040000,-13965956.558337,-3102120949.088527,3124834195.439652,-246566232.845712,-0.058574,0.058745,-0.004645
-1.220000,1.780000,0.220129,0.040000,-25078488.690819,-4743861938.845527,5172444511.590826,-9915713.911506,-0.091800,0.095029,-0.000187
-1.260000,1.780000,0.220014,0.040000,-22420989.318237,-3906556079.716167,4188889503.239605,3056212677.769350,-0.075198,0.077325,0.057581
-1.180000,1.740000,0.260292,0.040000,-10290134.059191,-2717979216.136364,2697687086.267717,-1430476026.707033,-0.051094,0.050941,-0.026951
-1.140000,1.740000,0.260010,0.040000,-2570499.262973,-1587442859.829610,1691671976.954632,-2875661846.904386,-0.030497,0.031283,-0.054179
-1.140000,1.780000,0.220012,0.040000,-7123806.445393,-2604986151.270490,2759441734.646791,-5067978113.022878,-0.049952,0.051116,-0.095484
-1.180000,1.780000,0.220346,0.040000,-19694099.049830,-4146130049.387143,4563312308.252882,-2610959200.133132,-0.080473,0.083617,-0.049192
-1.100000,1.740000,0.260117,0.040000,7376862.285333,296034165.109269,-396429981.314331,-3215439516.530436,0.006145,-0.006902,-0.060581
-1.060000,1.740000,0.260281,0.040000,16965372.144805,1938873467.149836,-1854559518.055413,-2691574521.839206,0.036053,-0.035418,-0.050711
-1.060000,1.780000,0.220332,0.040000,25879999.325964,2629988583.566895,-2911556023.293866,-4984216500.620257,0.051142,-0.053264,-0.093906
-1.100000,1.780000,0.220138,0.040000,9533245.384579,426764997.967031,-340168951.852294,-5807692818.824811,0.007551,-0.006898,-0.109420
-1.020000,1.740000,0.260008,0.040000,23555893.345913,3385643227.548323,-3456024208.977845,-1807737533.038709,0.064185,-0.064716,-0.034059
-0.980000,1.740000,0.260124,0.040000,25158249.665584,3908260916.796961,-3917968109.847552,217527154.779285,0.073689,-0.073762,0.004098
-0.980000,1.780000,0.220146,0.040000,40987172.195154,5604196320.778623,-6037570472.367369,29251415.717529,0.108036,-0.111302,0.000551
-1.020000,1.780000,0.220009,0.040000,37470817.827191,4920687698.205538,-5243433892.928420,-3165235976.220883,0.094533,-0.096965,-0.059635
-0.940000,1.740000,0.260270,0.040000,20933761.759872,3537652587.667822,-3505984798.405680,1490390447.149934,0.066472,-0.066234,0.028080
-0.900000,1.740000,0.260006,0.040000,11391660.091483,2476783423.538726,-2570508850.954466,3187747841.712761,0.047194,-0.047900,0.060059
-0.900000,1.780000,0.220007,0.040000,20461580.637803,3655195988.271400,-3853734847.437561,5204694924.648276,0.069988,-0.071484,0.098059
-0.940000,1.780000,0.220319,0.040000,35042714.137917,5029501960.702188,-5453305380.900805,2590696925.394073,0.097154,-0.100348,0.048810
-0.860000,1.740000,0.260131,0.040000,-1739226.741743,623306693.614667,-518474102.024595,3743531578.826176,0.011151,-0.010361,0.070530
-0.820000,1.740000,0.260259,0.040000,-15904720.135579,-1107868469.032730,1002703360.354730,3703142584.053647,-0.020278,0.019486,0.069769
-0.820000,1.780000,0.220306,0.040000,-22200566.478423,-1372233630.782850,1557030283.063915,6216824152.530244,-0.026898,0.028291,0.117129
-0.860000,1.780000,0.220155,0.040000,24491.129629,825154812.205873,-993297589.176631,6289428846.428706,0.016497,-0.017764,0.118496
-0.780000,1.740000,0.260005,0.040000,-28275828.884501,-2938005969.183773,3026975010.167327,3117297331.806588,-0.055857,0.056527,0.058732
-0.740000,1.740000,0.260139,0.040000,-36327118.610578,-3994477697.700915,3951748075.015743,1402718980.514254,-0.075017,0.074695,0.026428
-0.740000,1.780000,0.220164,0.040000,-54694905.203293,-5431463604.316374,5840898155.549422,2519340797.332674,-0.104646,0.107732,0.047466
-0.780000,1.780000,0.220006,0.040000,-41753539.222317,-4119404151.369302,4322294344.374187,5069482442.440371,-0.078759,0.080288,0.095512
-0.700000,1.740000,0.260249,0.040000,-38324991.668453,-4449409291.622154,4453680524.593547,144689212.308057,-0.083854,0.083886,0.002726
-0.660000,1.740000,0.260003,0.040000,-33639845.485442,-4104043909.151644,4149714944.327476,-1973200006.419134,-0.077581,0.077925,-0.037176
-0.660000,1.780000,0.220004,0.040000,-51785455.786267,-5650033806.368634,5985931277.472713,-2960575367.116283,-0.108348,0.110880,-0.055779
-0.700000,1.780000,0.220294,0.040000,-58353656.305967,-6092513331.657698,6500755033.803456,121540757.926156,-0.117094,0.120171,0.002290
-0.620000,1.740000,0.260147,0.040000,-22839108.887500,-2916080147.249310,2834763580.190779,-3009896737.412343,-0.054481,0.053868,-0.056708
-0.580000,1.740000,0.260238,0.040000,-7562411.628104,-1457808779.985094,1560265216.851891,-4096063185.798829,-0.028045,0.028817,-0.077172
-0.580000,1.780000,0.220282,0.040000,-13171630.226984,-2093245468.276147,2139293244.900598,-6433824481.959136,-0.039698,0.040045,-0.121217
-0.620000,1.780000,0.220174,0.040000,-35885857.131810,-3888743906.238655,4217074964.430672,-4893436093.523996,-0.075122,0.077596,-0.092195
-0.540000,1.740000,0.260002,0.040000,9782300.274903,538014089.726397,-647191334.173319,-4245781314.726504,0.010754,-0.011576,-0.079993
-0.500000,1.740000,0.260155,0.040000,26437102.230351,2138247242.507316,-2042136356.031027,-3645271663.938993,0.039743,-0.039018,-0.068679
-0.500000,1.780000,0.220183,0.040000,37583758.142393,2760044382.639885,-3016500281.800192,-5812878032.056748,0.053450,-0.055383,-0.109518
-0.540000,1.780000,0.220003,0.040000,12701829.178604,818879595.409562,-774057293.006743,-6690379357.161922,0.015175,-0.014837,-0.126051
-0.460000,1.740000,0.260228,0.040000,39750373.462953,3675494228.686345,-3741659504.646959,-2851794161.306100,0.069622,-0.070121,-0.053729
-0.420000,1.740000,0.260001,0.040000,47596045.006050,4445054437.900338,-4410370183.113549,-987702503.812272,0.083551,-0.083290,-0.018609
-0.420000,1.780000,0.220002,0.040000,69347507.346691,5890385830.709106,-6280863332.301082,-1705261028.632380,0.113185,-0.116128,-0.032128
-0.460000,1.780000,0.220270,0.040000,57514963.779954,4973839295.371310,-5224341996.376226,-4340493349.701572,0.095126,-0.097014,-0.081777
-0.380000,1.740000,0.260163,0.040000,48693457.224630,4629940413.434665,-4614162816.953047,241477452.589395,0.087142,-0.087023,0.004550
-0.340000,1.740000,0.260218,0.040000,42785715.672178,4155539869.639704,-4199786352.714604,2240176844.456120,0.078543,-0.078876,0.042206
-0.340000,1.780000,0.220258,0.040000,62745339.500430,5557662649.636421,-5851869229.420877,3318751047.048508,0.106372,-0.108590,0.062527
-0.380000,1.780000,0.220193,0.040000,71207800.030016,6139689506.721791,-6525356805.498206,534250796.677981,0.117855,-0.120762,0.010066
-0.300000,1.740000,0.260001,0.040000,30658431.232042,2930871852.616413,-2845110190.660974,3186645985.666985,0.054735,-0.054088,0.060038
-0.260000,1.740000,0.260172,0.040000,14004783.888186,1525544943.349763,-1622452634.326760,4188910148.110001,0.029290,-0.030020,0.078921
-0.260000,1.780000,0.220203,0.040000,20916316.965947,2106813280.765534,-2145316276.112413,6391926728.175972,0.039911,-0.040201,0.120428
-0.300000,1.780000,0.220001,0.040000,45145093.306411,3792278099.414187,-4090429315.775253,5019337220.244275,0.073134,-0.075381,0.094567
-0.220000,1.740000,0.260209,0.040000,-4836170.350553,-382036681.391255,487022922.890920,4337175814.160638,-0.007791,0.008582,0.081715
-0.180000,1.740000,0.260000,0.040000,-23225431.973232,-1916905002.392960,1820563172.710739,3821572573.640001,-0.035571,0.034845,0.072001
-0.180000,1.780000,0.220000,0.040000,-33240557.437975,-2442286336.910418,2670826550.208757,5912801006.673291,-0.047306,0.049028,0.111401
-0.220000,1.780000,0.220247,0.040000,-6499871.145943,-615995891.457173,565035769.871723,6643297737.501330,-0.011318,0.010934,0.125164
-0.140000,1.740000,0.260181,0.040000,-38602860.188432,-3450696988.934316,3516490706.973166,3115250482.127266,-0.065385,0.065881,0.058693
-0.100000,1.740000,0.260199,0.040000,-48845790.908254,-4284984957.623396,4240387456.264125,1399180038.554944,-0.080480,0.080143,0.026361
-0.100000,1.780000,0.220235,0.040000,-70417424.582117,-5602525995.685080,5967641971.191734,2263347934.979958,-0.107619,0.110370,0.042643
-0.140000,1.780000,0.220214,0.040000,-55573738.736705,-4617506704.215426,4832814048.163528,4635742579.565908,-0.088213,0.089836,0.087340
-0.060000,1.740000,0.260000,0.040000,-52559492.204113,-4632741150.576067,4624814628.116265,238020271.699009,-0.087239,0.087179,0.004484
-0.020000,1.740000,0.260190,0.040000,-49262232.598834,-4338432926.423494,4368418914.759685,-1737199131.321969,-0.081908,0.082134,-0.032730
-0.020000,1.780000,0.220224,0.040000,-70908799.064974,-5731194064.060387,6036195814.455560,-2530339373.450453,-0.109703,0.112002,-0.047673
-0.060000,1.780000,0.220000,0.040000,-75757025.835582,-6086941776.340103,6447065082.332907,183948865.460153,-0.116717,0.119431,0.003466
0.020000,1.740000,0.260190,0.040000,-39442579.075456,-3338777228.762021,3262997485.025080,-2727374880.498847,-0.062476,0.061905,-0.051385
0.060000,1.740000,0.260000,0.040000,-24483562.241914,-2091661936.983594,2179493394.889335,-3908589623.160223,-0.039905,0.040566,-0.073640
0.060000,1.780000,0.220000,0.040000,-34848376.485767,-2821824784.572969,2906568860.951710,-5912617617.763949,-0.053644,0.054282,-0.111397
0.020000,1.780000,0.220224,0.040000,-56598478.251327,-4305526083.741111,4617334582.805800,-4296100209.943379,-0.082881,0.085231,-0.080941
0.100000,1.740000,0.260199,0.040000,-6465534.600631,-294742876.056665,192493052.506544,-4204905830.585754,-0.004975,0.004205,-0.079223
0.140000,1.740000,0.260181,0.040000,12125020.046415,1231207577.679586,-1133045341.180319,-3973229283.280442,0.022642,-0.021902,-0.074858
0.140000,1.780000,0.220214,0.040000,18255755.377429,1545484979.596262,-1723875442.587150,-6111136106.464345,0.030126,-0.031471,-0.115137
0.100000,1.780000,0.220235,0.040000,-8690422.658643,-268138898.568379,367136107.204018,-6437146421.065209,-0.005611,0.006358,-0.121280
0.180000,1.740000,0.260000,0.040000,28741488.272008,2859006907.673048,-2933167098.706850,-3423703834.765831,0.054285,-0.054843,-0.064505
0.220000,1.740000,0.260209,0.040000,41131517.760106,3843629585.507322,-3788705577.936658,-1913630980.423139,0.072106,-0.071692,-0.036054
0.220000,1.780000,0.220247,0.040000,60114048.210785,5031300373.913146,-5376528362.425063,-3034977168.375137,0.096744,-0.099346,-0.057181
0.180000,1.780000,0.220000,0.040000,42283740.652861,3859285828.297178,-4024930636.818729,-5123263365.091655,0.073647,-0.074896,-0.096525
0.260000,1.740000,0.260172,0.040000,47651855.146601,4423689500.295531,-4430447924.593105,-817851130.748289,0.083383,-0.083434,-0.015409
0.300000,1.740000,0.260001,0.040000,47500127.953082,4330495050.544312,-4349509015.644592,1144841283.539903,0.081697,-0.081840,0.021569
0.300000,1.780000,0.220001,0.040000,68827871.350724,5746150646.010871,-6070525020.359448,1658365408.907240,0.110094,-0.112539,0.031245
0.260000,1.780000,0.220203,0.040000,69352105.945307,5856962383.490312,-6198042868.986052,-1063937392.023368,0.112276,-0.114847,-0.020045
0.340000,1.740000,0.260218,0.040000,40830136.230888,3542650250.100672,-3478687117.155218,2184982260.391516,0.066384,-0.065902,0.041166
0.380000,1.740000,0.260163,0.040000,28731964.817268,2417737174.080146,-2500118234.650840,3509070761.395799,0.046017,-0.046638,0.066113
0.380000,1.780000,0.220193,0.040000,40774400.833096,3270506009.973346,-3392317133.720528,5386105305.939660,0.062307,-0.063225,0.101477
0.340000,1.780000,0.220258,0.040000,58768298.074733,4618880158.886784,-4948002681.807513,3538460158.447579,0.088883,-0.091363,0.066667
0.420000,1.740000,0.260001,0.040000,13076115.931859,698859204.682689,-599489776.108296,3906333776.151709,0.012605,-0.011856,0.073598
0.460000,1.740000,0.260228,0.040000,-3760122.746059,-823800264.396252,726556961.130518,3831231921.730801,-0.014971,0.014238,0.072183
0.460000,1.780000,0.220270,0.040000,-7244461.875569,-1036856795.642727,1191598799.595409,6007233468.015027,-0.020410,0.021576,0.113180
0.420000,1.780000,0.220002,0.040000,17599887.210348,799975026.817319,-929312327.739687,6111049011.304290,0.015803,-0.016778,0.115136
0.500000,1.740000,0.260155,0.040000,-19248071.164401,-2482502248.917748,2561187028.461380,3347292838.451491,-0.047217,0.047810,0.063065
0.540000,1.740000,0.260002,0.040000,-31094734.120754,-3505685525.012121,3453629039.531347,1906141253.662647,-0.065755,0.065363,0.035913
0.540000,1.780000,0.220003,0.040000,-47284916.326315,-4681473309.383045,5026873240.182633,3080732006.933578,-0.090154,0.092757,0.058043
0.500000,1.780000,0.220183,0.040000,-30010480.859041,-3436194654.009360,3587364805.163454,5123688968.759957,-0.065594,0.066734,0.096533
0.580000,1.740000,0.260238,0.040000,-37603471.933603,-4102504877.406336,4114445226.844014,820853501.406506,-0.077361,0.077451,0.015465
0.620000,1.740000,0.260147,0.040000,-37950090.824418,-3986105034.701294,4013362455.702469,-1112978329.912101,-0.075255,0.075460,-0.020969
0.620000,1.780000,0.220174,0.040000,-56504059.726829,-5414912662.520924,5740792205.171618,-1700476421.583838,-0.103862,0.106318,-0.032038
0.580000,1.780000,0.220282,0.040000,-56529763.898589,-5553077099.120534,5899448212.201336,1073770216.407857,-0.106581,0.109191,0.020230
0.660000,1.740000,0.260003,0.040000,-32325070.698733,-3130942495.102030,3068330395.199390,-2124750943.342969,-0.058635,0.058163,-0.040032
0.700000,1.740000,0.260249,0.040000,-21910405.292637,-1929344909.617811,2017848971.972666,-3311332096.813804,-0.036850,0.037517,-0.062387
0.700000,1.780000,0.220294,0.040000,-31282449.153066,-2679361432.789130,2771380208.792974,-5321470973.519023,-0.051001,0.051694,-0.100260
0.660000,1.780000,0.220004,0.040000,-47491491.922286,-4161359996.011935,4485941463.352477,-3596356820.335117,-0.080237,0.082683,-0.067757
0.740000,1.740000,0.260139,0.040000,-8684644.929641,-168450878.126087,70212930.356402,-3578179787.506925,-0.002618,0.001878,-0.067415
0.780000,1.740000,0.260005,0.040000,4920818.009724,1319445814.669771,-1233556268.506651,-3207664983.840833,0.024374,-0.023726,-0.060434
0.780000,1.780000,0.220006,0.040000,9936397.938530,1790872501.847789,-2004535405.765778,-5282085825.624999,0.034949,-0.036559,-0.099518
0.740000,1.780000,0.220164,0.040000,-10895066.324704,-68486660.778793,150208510.592461,-5830955894.686370,-0.001752,0.002368,-0.109859
0.820000,1.740000,0.260259,0.040000,16461833.039756,2766856042.058415,-2835633250.704205,-2531803250.421644,0.052518,-0.053036,-0.047701
0.860000,1.740000,0.260131,0.040000,23941743.284264,3471894700.337346,-3454920069.043658,-862967943.898768,0.065317,-0.065189,-0.016259
0.860000,1.780000,0.220155,0.040000,38483072.092203,4854929115.038923,-5227570205.164519,-1471261320.514206,0.093576,-0.096384,-0.027719
0.820000,1.780000,0.220306,0.040000,27432081.911588,3961287976.197885,-4189636434.243541,-3980994099.539954,0.075924,-0.077645,-0.075004
0.900000,1.740000,0.260006,0.040000,26203000.406793,3530925881.656651,-3521470763.466033,263784111.192131,0.066471,-0.066400,0.004970
0.940000,1.740000,0.260270,0.040000,23164806.902688,2902965187.150066,-2968290816.528245,1955656132.299493,0.055063,-0.055555,0.036846
0.940000,1.780000,0.220319,0.040000,35697035.097903,4132400971.299626,-4375969496.208014,3326068462.083893,0.079234,-0.081069,0.062665
0.900000,1.780000,0.220007,0.040000,41277215.076916,4939885881.657563,-5313331886.983062,738672927.293149,0.095181,-0.097995,0.013917
0.980000,1.740000,0.260124,0.040000,15843706.805408,1527602437.227187,-1446494335.530468,2641373164.248503,0.028322,-0.027711,0.049765
1.020000,1.740000,0.260008,0.040000,6134278.386880,80073959.772567,-167764978.098539,2976473803.480335,0.002004,-0.002665,0.056078
1.020000,1.780000,0.220009,0.040000,7402383.432151,110933373.040420,-15893405.073879,5195053138.189235,0.001553,-0.000837,0.097878
0.980000,1.780000,0.220146,0.040000,23381504.848853,2003224875.887709,-2218620064.697292,4692603233.341552,0.038959,-0.040583,0.088411
1.060000,1.740000,0.260281,0.040000,-3620090.928927,-1546838276.965236,1634450922.427682,2640098373.671348,-0.029639,0.030299,0.049741
1.100000,1.740000,0.260117,0.040000,-11181128.370505,-2524956955.226021,2500371519.818467,1358931365.438176,-0.047433,0.047247,0.025603
1.100000,1.780000,0.220138,0.040000,-20376174.812913,-3735574333.600206,4088968088.577551,2401500221.945110,-0.072378,0.075041,0.045246
1.060000,1.780000,0.220332,0.040000,-8411445.152639,-2439827259.308768,2577179930.778963,4490960636.902954,-0.046744,0.047779,0.084612
1.140000,1.740000,0.260010,0.040000,-14965384.922135,-2909660027.414437,2927680395.807898,329744849.129787,-0.054922,0.055057,0.006213
1.180000,1.740000,0.260292,0.040000,-14443765.409299,-2494997859.629033,2556036711.539538,-1286865219.572789,-0.047352,0.047812,-0.024245
1.180000,1.780000,0.220346,0.040000,-24067417.380117,-3743744619.807932,4006820552.917819,-2441712355.696357,-0.072021,0.074004,-0.046003
1.140000,1.780000,0.220012,0.040000,-25876918.169102,-4326622282.118598,4688799249.186153,228870164.538964,-0.083563,0.086293,0.004312
1.220000,1.740000,0.260109,0.040000,-10266497.664510,-1313637006.953373,1246252445.050855,-1959224178.960803,-0.024369,0.023861,-0.036913
1.260000,1.740000,0.260012,0.040000,-4053004.117758,-2650445.423080,72782433.419590,-2233091541.341065,-0.000446,0.000975,-0.042073
1.260000,1.780000,0.220014,0.040000,-4906260.357482,60655652.121773,-171544553.274496,-4272410683.556397,0.001770,-0.002605,-0.080495
1.220000,1.780000,0.220129,0.040000,-16121264.638497,-1779331494.778743,1986459357.992270,-3872794427.722472,-0.034694,0.036255,-0.072966
1.300000,1.740000,0.260304,0.040000,2117268.866089,1364282860.075240,-1444935526.554773,-1845790719.487895,0.026160,-0.026768,-0.034776
1.340000,1.740000,0.260103,0.040000,6372375.293653,2023495084.131162,-2033484502.317914,-600748246.017867,0.038180,-0.038256,-0.011318
1.340000,1.780000,0.220121,0.040000,12922425.087431,3262291209.105424,-3603287633.365522,-1070496453.653340,0.063391,-0.065961,-0.020169
1.300000,1.780000,0.220359,0.040000,5884745.303503,2344470837.489062,-2525595979.385237,-3352182191.379083,0.045195,-0.046560,-0.063157
1.380000,1.740000,0.260015,0.040000,7657022.536774,1957703410.156038,-1959731466.804657,288794473.609302,0.036896,-0.036911,0.005441
1.420000,1.740000,0.260316,0.040000,6057451.503828,1226246230.931489,-1291569678.448087,1340930358.205095,0.023472,-0.023965,0.025264
1.420000,1.780000,0.220373,0.040000,10511110.131263,1942688999.471373,-2055549449.112390,2902773215.137169,0.037239,-0.038090,0.054690
1.380000,1.780000,0.220017,0.040000,14368123.172950,3078329770.049981,-3400301659.968566,1007633144.254691,0.059817,-0.062244,0.018984
1.460000,1.740000,0.260096,0.040000,2697018.047460,18665425.257952,53802224.541034,1522643949.723141,-0.000058,0.000604,0.028687
1.500000,1.740000,0.260017,0.040000,-781747.750635,-902413446.719956,890791304.218851,1026278578.819512,-0.016936,0.016849,0.019336
1.500000,1.780000,0.220020,0.040000,-3102389.016774,-1659758817.228732,1912545699.056993,2135501932.986923,-0.032700,0.034605,0.040234
1.460000,1.780000,0.220113,0.040000,3606981.128916,-255338398.259090,248815936.510648,3255942934.090667,-0.004774,0.004725,0.061344
1.540000,1.740000,0.260327,0.040000,-2945825.221924,-1349255030.501792,1387018347.683271,378307431.784620,-0.025634,0.025919,0.007128
1.580000,1.740000,0.260090,0.040000,-3183123.930209,-1071178375.957377,1120230166.256354,-586692475.009675,-0.020459,0.020829,-0.011054
1.580000,1.780000,0.220106,0.040000,-6506371.516891,-1861523772.176307,2025522842.676548,-1558293344.085432,-0.035999,0.037235,-0.029359
1.540000,1.780000,0.220387,0.040000,-6831337.964529,-2399992997.951905,2676297136.632850,413810439.362967,-0.046779,0.048861,0.007796
1.620000,1.740000,0.260020,0.040000,-1891222.926657,-277846536.578814,229910160.011793,-870954538.733791,-0.004964,0.004603,-0.016409
1.660000,1.740000,0.260340,0.040000,-136608.418107,419334353.858927,-415915770.800985,-658842161.829675,0.007881,-0.007855,-0.012413
1.660000,1.780000,0.220401,0.040000,741429.290013,941574826.942920,-1128441500.327017,-1531279336.833025,0.018796,-0.020204,-0.028850
1.620000,1.780000,0.220024,0.040000,-3172416.252410,-232888327.601667,278073427.030429,-2213554675.996765,-0.004643,0.004984,-0.041705
1.700000,1.740000,0.260083,0.040000,1024246.334945,743820940.345148,-775625792.087451,-230588819.360132,0.014194,-0.014433,-0.004344
1.740000,1.740000,0.260023,0.040000,1147031.657137,517757628.427609,-549713464.727084,346152440.437457,0.009935,-0.010176,0.006522
1.740000,1.780000,0.220027,0.040000,2619732.419917,959861534.538791,-1041728393.945002,1119184810.139365,0.018547,-0.019164,0.021086
1.700000,1.780000,0.220099,0.040000,2937082.202431,1487504784.458103,-1692561309.800126,-200166200.228924,0.029184,-0.030730,-0.003771
1.780000,1.740000,0.260352,0.040000,540535.525086,7372243.826513,28242361.029194,438804039.361759,-0.000062,0.000331,0.008267
1.820000,1.740000,0.260077,0.040000,-118907.087246,-304957162.103335,318824979.495914,185752860.757275,-0.005824,0.005928,0.003500
1.820000,1.780000,0.220092,0.040000,-796776.142269,-762236245.112628,903963269.477027,378533268.242803,-0.015162,0.016230,0.007132
1.780000,1.780000,0.220416,0.040000,785275.309930,-221311507.931919,255054201.348025,1243996464.405906,-0.004360,0.004615,0.023438
1.860000,1.740000,0.260027,0.040000,-362167.710971,-279307321.761170,283283376.704841,-51283519.282318,-0.005285,0.005315,-0.000966
1.900000,1.740000,0.260365,0.040000,-211670.198222,-47919442.262682,52839697.620892,-179720221.552378,-0.000931,0.000968,-0.003386
1.900000,1.780000,0.220431,0.040000,-381227.927613,9470814.109041,-53131174.643339,-612127659.523399,0.000425,-0.000754,-0.011533
1.860000,1.780000,0.220031,0.040000,-1074175.444213,-545068150.177610,634067326.100387,-429706461.462569,-0.010772,0.011443,-0.008096
1.940000,1.740000,0.260072,0.040000,13264.279963,120133080.460619,-136044829.226548,-95951500.976576,0.002353,-0.002473,-0.001808
1.980000,1.740000,0.260030,0.040000,87650.943102,88764483.192154,-96416353.825122,42386006.620035,0.001716,-0.001773,0.000799
1.980000,1.780000,0.220035,0.040000,294286.538997,188867380.866849,-205045812.523053,255987887.225144,0.003650,-0.003772,0.004823
1.940000,1.780000,0.220085,0.040000,253322.226382,367098552.375619,-437501607.158335,-166099360.023795,0.007314,-0.007845,-0.003129
2.020000,1.740000,0.260377,0.040000,39663.590610,-9162698.518952,17079710.492523,52879579.735644,-0.000217,0.000277,0.000996
2.060000,1.740000,0.260066,0.040000,-6210.011628,-33688852.725773,37692170.505990,3455489.133009,-0.000657,0.000688,0.000065
2.060000,1.780000,0.220078,0.040000,-76555.140329,-101842842.967769,120276107.806791,-51274780.998610,-0.002023,0.002162,-0.000966
2.020000,1.780000,0.220446,0.040000,36990.859882,-106399879.788528,131768703.679303,183369711.835701,-0.002148,0.002339,0.003455
2.100000,1.740000,0.260034,0.040000,-8120.669528,-6253811.197251,4517573.411923,-12892280.899243,-0.000108,0.000095,-0.000243
2.140000,1.740000,0.260390,0.040000,2272.594698,5805383.954425,-7579406.385261,-4171636.946183,0.000119,-0.000133,-0.000079
2.140000,1.780000,0.220461,0.040000,15754.977164,26762340.290891,-35004964.530786,6714413.728499,0.000551,-0.000613,0.000127
2.100000,1.780000,0.220040,0.040000,-23896.756251,20362627.018031,-23777575.020003,-70285873.477516,0.000403,-0.000429,-0.001324
2.180000,1.740000,0.260061,0.040000,4704.165087,2065856.629803,-1775678.976287,1962281.744343,0.000037,-0.000035,0.000037
2.220000,1.740000,0.260038,0.040000,3672.020730,-294834.051054,784445.731518,1064128.556595,-0.000008,0.000012,0.000020
2.220000,1.780000,0.220045,0.040000,2104.347711,-3258745.345895,5158850.265211,-1369685.060423,-0.000072,0.000086,-0.000026
2.180000,1.780000,0.220072,0.040000,8420.601893,-3941135.485464,5082303.282736,15377495.399772,-0.000081,0.000089,0.000290
2.260000,1.740000,0.240082,0.040000,3032.264462,769681.371095,-639906.054613,-881647.720161,0.000014,-0.000013,-0.000017
2.300000,1.740000,0.200098,0.040000,1698.257896,-2082336.840035,38232.046324,-7819435.161390,-0.000028,0.000012,-0.000147
2.300000,1.780000,0.200038,0.040000,4032.779088,-1586278.873672,1033805.521633,974783.611161,-0.000027,0.000023,0.000018
2.260000,1.780000,0.220477,0.040000,3062.442369,-313126.435114,-839128.810540,-2095272.181714,0.000001,-0.000009,-0.000039
2.340000,1.740000,0.160123,0.040000,9466.946256,-40440483.449045,-2291544.679271,-24741061.509106,-0.000520,0.000198,-0.000466
2.380000,1.740000,0.120164,0.040000,124330.999165,328466882.189480,-1586244364.026222,74834645.749944,0.013298,-0.022777,0.001410
2.380000,1.780000,0.120063,0.040000,-20213.471621,-267672110.987109,971845787.048263,-12912597.524583,-0.009023,0.014330,-0.000243
2.340000,1.780000,0.160047,0.040000,5867.221765,-4712043.009098,22930153.993142,16551170.573006,-0.000192,0.000329,0.000312
2.420000,1.740000,0.080245,0.040000,506259.073127,6124502434.817410,-20696009901.139835,-8166650841.899020,0.197750,-0.307564,-0.153864
2.460000,1.740000,0.040488,0.040000,-10540830.332210,7376196423.863979,-63525559864.903290,-26397902710.225220,0.456338,-0.879492,-0.497352
2.460000,1.780000,0.040188,0.040000,4861415.306473,-15428856506.822048,-13145813819.937618,-22476279896.747936,-0.129180,-0.086166,-0.423466
2.420000,1.780000,0.080094,0.040000,-292810.529888,-2643016265.760075,-4431775438.548429,-9169974551.320017,-0.009808,-0.043509,-0.172768
2.500000,1.740000,0.006269,0.040000,-551572679.867394,147018515362.736389,-236009357995.122070,-45884046965.699608,3.272906,-3.943561,-0.864482
2.500000,1.780000,0.003881,0.040000,309906818.307222,-138553383485.649353,96770689040.926941,-40458441258.007774,-2.374263,2.059379,-0.762260
-2.500000,1.820000,0.014030,0.040000,-174462452.830938,175062999887.653137,5803890906.628749,-111276596906.822922,2.275997,-0.912942,-2.096516
-2.500000,1.860000,0.005672,0.040000,6802616.162868,33843710267.624306,25252832184.517700,-16058572927.063189,0.303611,0.141754,-0.302553
-2.460000,1.820000,0.042389,0.040000,2072095.018302,41887260681.195152,35868332507.190720,-63841475801.548294,0.349692,0.236292,-1.202810
-2.420000,1.820000,0.081221,0.040000,-99041.543964,5128752801.501613,11680124066.645897,-18629552298.551102,0.001622,0.125054,-0.350992
-2.420000,1.860000,0.080201,0.040000,22702.740124,2198555502.768792,-3585887411.752237,514675754.962265,0.049264,-0.059719,0.009697
-2.460000,1.860000,0.040400,0.040000,-301757.190194,14607974906.554413,-8816803758.273596,-7432087158.691964,0.242490,-0.198846,-0.140025
-2.380000,1.820000,0.120817,0.040000,9917.481538,180039687.045686,-593135781.735514,43150608.975122,0.005727,-0.008840,0.000813
-2.340000,1.820000,0.160614,0.040000,10554.498120,-13128186.069925,15287641.573971,547191.838893,-0.000260,0.000276,0.000010
-2.340000,1.860000,0.140078,0.040000,10036.978719,18324724.010241,-17196054.928311,3870453.877130,0.000339,-0.000330,0.000073
-2.380000,1.860000,0.120134,0.040000,9545.990392,-11564124.782489,31283040.499643,-5390656.767449,-0.000329,0.000478,-0.000102
-2.300000,1.820000,0.180081,0.040000,10206.374907,2514603.226228,-217235.503285,-1779480.038202,0.000034,-0.000017,-0.000034
-2.260000,1.820000,0.180582,0.040000,10570.719652,-2966042.315087,-8127990.786358,4337953.512048,0.000007,-0.000090,0.000082
-2.260000,1.860000,0.140748,0.040000,28998.933371,-118021851.393386,2155176.202926,-87455772.090783,-0.001569,0.000696,-0.001648
-2.300000,1.860000,0.140104,0.040000,7079.896086,-34434285.070304,39768325.322732,8728179.300560,-0.000679,0.000719,0.000164
-2.220000,1.820000,0.180055,0.040000,-26.483004,2413072.191227,13175823.356038,22664544.435689,-0.000043,0.000160,0.000427
-2.180000,1.820000,0.180088,0.040000,19601.446331,-57651750.057203,62280361.361023,-73974541.685870,-0.001112,0.001147,-0.001394
-2.180000,1.860000,0.140113,0.040000,-123549.705110,-684302940.330514,704365616.712133,-171954385.659081,-0.013006,0.013157,-0.003240
-2.220000,1.860000,0.140070,0.040000,-18160.898727,474657238.552455,-251520050.009829,253993017.809854,0.007682,-0.006000,0.004785
-2.140000,1.820000,0.180563,0.040000,85312.633422,150983519.255905,-177833865.526549,-48682731.236716,0.002996,-0.003199,-0.000917
-2.100000,1.820000,0.180049,0.040000,-80894.679878,116109195.262101,-124119857.707731,322155697.108818,0.002233,-0.002293,0.006070
-2.100000,1.860000,0.140063,0.040000,175763.150722,1444621636.977665,-1518668830.913267,1293584511.563774,0.027636,-0.028194,0.024372
-2.140000,1.860000,0.140724,0.040000,462229.776514,482500039.530946,-586454754.634777,-814911717.029778,0.009678,-0.010462,-0.015353
-2.060000,1.820000,0.180096,0.040000,-322234.675887,-550929712.427104,591651964.219508,120832858.562877,-0.010610,0.010917,0.002277
-2.020000,1.820000,0.180545,0.040000,206587.079456,-317870612.036886,364535272.320964,-804263019.935725,-0.006253,0.006604,-0.015153
-2.020000,1.860000,0.140699,0.040000,-484802.102929,-2394147100.852355,2688582376.399971,-2815735188.570861,-0.046771,0.048990,-0.053050
-2.060000,1.860000,0.140123,0.040000,-1661668.242440,-2136546743.321590,2270738195.371579,1555773397.055648,-0.041012,0.042024,0.029312
-1.980000,1.820000,0.180043,0.040000,1089223.909480,1060674784.389508,-1114323085.197782,-620250632.416436,0.020287,-0.020691,-0.011686
-1.940000,1.820000,0.180104,0.040000,425064.146094,1228969381.279814,-1337712542.587274,1128709158.413939,0.023769,-0.024589,0.021266
-1.940000,1.860000,0.140133,0.040000,3344327.775025,5132433386.365188,-5605302546.248553,2901265814.978876,0.099371,-0.102934,0.054662
-1.980000,1.860000,0.140056,0.040000,3818848.743901,3277735704.649222,-3443011820.577477,-3452700913.616254,0.062689,-0.063934,-0.065051
-1.900000,1.820000,0.180526,0.040000,-1938247.487960,-821766163.424978,824337666.673180,1963445701.019388,-0.015497,0.015516,0.036992
-1.860000,1.820000,0.180038,0.040000,-3022448.582378,-2656097664.407365,2796958778.839891,83803684.751099,-0.050839,0.051900,0.001579
-1.860000,1.860000,0.140049,0.040000,-10031353.370665,-7928290220.339014,8444574561.914176,1611312759.621707,-0.152292,0.156183,0.030358
-1.900000,1.860000,0.140676,0.040000,-4445737.234654,-1394460886.150724,1366804787.495751,6890480707.819557,-0.026116,0.025908,0.129821
-1.820000,1.820000,0.180112,0.040000,-204983.857182,-1585307096.740218,1706396957.822980,-2756010071.446983,-0.030553,0.031465,-0.051925
-1.780000,1.820000,0.180508,0.040000,4885308.903323,1804292392.805029,-1841798271.059260,-3264409590.850389,0.034206,-0.034489,-0.061503
-1.780000,1.860000,0.140653,0.040000,10633266.662173,3793143414.264410,-3926384514.717045,-9462168167.410975,0.072218,-0.073222,-0.178273
-1.820000,1.860000,0.140144,0.040000,-3826842.426300,-5580860236.982118,6009473986.632540,-7254639009.465118,-0.107569,0.110799,-0.136682
-1.740000,1.820000,0.180034,0.040000,7214608.251043,4256948554.253455,-4422635434.245028,-409852109.995763,0.081140,-0.082389,-0.007722
-1.700000,1.820000,0.180120,0.040000,3150530.433420,3243688191.602655,-3390524198.524509,3542313813.928197,0.061943,-0.063049,0.066739
-1.700000,1.860000,0.140155,0.040000,11557274.133038,8669315928.866405,-9119240078.015028,8052890965.073705,0.165878,-0.169269,0.151721
-1.740000,1.860000,0.140043,0.040000,19272326.615712,10757676171.343830,-11301582319.300341,-2194497281.997047,0.205755,-0.209854,-0.041346
-1.660000,1.820000,0.180490,0.040000,-5754200.381546,-749823873.958648,738660789.982050,5273299038.234724,-0.014064,0.013980,0.099352
-1.620000,1.820000,0.180029,0.040000,-13460722.515064,-4846080077.545054,4971558130.546131,3236768879.964226,-0.092012,0.092958,0.060983
-1.620000,1.860000,0.140037,0.040000,-28913389.690500,-10459134994.762674,10850389745.777584,8107184148.946527,-0.199268,0.202216,0.152744
-1.660000,1.860000,0.140630,0.040000,-9343695.993246,-835280860.443255,822332816.361217,12644499566.197395,-0.015664,0.015566,0.238230
-1.580000,1.820000,0.180129,0.040000,-13765398.509804,-6146554060.897800,6316550955.511320,-1346890915.929913,-0.116765,0.118047,-0.025376
-1.540000,1.820000,0.180473,0.040000,-4700151.884121,-3701991404.903954,3810746418.149524,-5618215157.550535,-0.070362,0.071182,-0.105850
-1.540000,1.860000,0.140607,0.040000,-14885773.809055,-8360856159.418255,8660040945.532187,-11620416017.483829,-0.159214,0.161469,-0.218935
-1.580000,1.860000,0.140166,0.040000,-32358901.703973,-13543401377.570868,14042088424.079739,-2219498208.925730,-0.257984,0.261742,-0.041817
-1.500000,1.820000,0.180025,0.040000,9995095.514047,1131140736.625592,-1137356284.253256,-7049887316.303672,0.021346,-0.021393,-0.132824
-1.460000,1.820000,0.180139,0.040000,22915293.277200,5757632122.471684,-5863100988.829346,-4842756744.128210,0.109073,-0.109868,-0.091240
-1.460000,1.860000,0.140178,0.040000,43250325.515248,11132096583.780464,-11450698151.987837,-10164272734.440550,0.211536,-0.213937,-0.191501
-1.500000,1.860000,0.140032,0.040000,15533021.438613,1735672766.192131,-1775315009.193715,-14704777012.471970,0.032925,-0.033224,-0.277047
-1.420000,1.820000,0.180456,0.040000,26953526.987421,7869981345.154669,-8013618981.322900,-110145906.313328,0.149087,-0.150169,-0.002075
-1.380000,1.820000,0.180021,0.040000,18854029.290817,6524754811.181124,-6639335537.338941,4930832466.818164,0.123578,-0.124441,0.092900
-1.380000,1.860000,0.140027,0.040000,40166723.555390,12610698322.681164,-12922910618.899078,9151941850.044525,0.239358,-0.241710,0.172428
-1.420000,1.860000,0.140585,0.040000,53626787.142703,15276411561.601025,-15685916906.948345,-670878329.961127,0.290131,-0.293217,-0.012640
-1.340000,1.820000,0.180148,0.040000,686778.617296,2369138859.369751,-2411976310.460774,8114332696.188568,0.044878,-0.045201,0.152879
-1.300000,1.820000,0.180439,0.040000,-21128299.138856,-2862889694.215023,2898467644.342833,8222237262.505669,-0.054140,0.054408,0.154912
-1.300000,1.860000,0.140564,0.040000,-33567277.818591,-4950637906.506959,5065052068.790104,15214918014.927225,-0.093920,0.094782,0.286658
-1.340000,1.860000,0.140190,0.040000,6992872.022836,4716934819.590796,-4817544408.770181,15141000873.435143,0.089438,-0.090197,0.285265
-1.260000,1.820000,0.180018,0.040000,-38488406.823473,-7187068095.647349,7277766224.119749,5316985413.531022,-0.135921,0.136605,0.100175
-1.220000,1.820000,0.180158,0.040000,-44680145.543472,-9128797058.175041,9236755495.382633,526722333.265011,-0.172602,0.173416,0.009924
-1.220000,1.860000,0.140203,0.040000,-79277424.376937,-16005909262.658354,16313058265.149670,1118805559.388377,-0.303297,0.305611,0.021079
-1.260000,1.860000,0.140023,0.040000,-66382093.169851,-12699602173.343714,12962653146.346163,9779513065.648077,-0.240755,0.242737,0.184252
-1.180000,1.820000,0.180422,0.040000,-36676811.969682,-8150375918.289945,8239285135.052008,-4499942626.199607,-0.154060,0.154730,-0.084782
-1.140000,1.820000,0.180014,0.040000,-15988748.181231,-4683782851.097977,4729981803.266301,-8201042794.810842,-0.088506,0.088854,-0.154512
-1.140000,1.860000,0.140018,0.040000,-32516107.523618,-8058501461.371565,8184653637.221154,-14029161454.200069,-0.152540,0.153491,-0.264318
-1.180000,1.860000,0.140542,0.040000,-67022226.599425,-14137051256.695486,14387383745.571541,-7720079655.637240,-0.267765,0.269652,-0.145451
-1.100000,1.820000,0.180168,0.040000,11994325.542730,143813441.136632,-147223057.911536,-9560866113.879393,0.002729,-0.002754,-0.180132
-1.060000,1.820000,0.180406,0.040000,39749456.358381,4934304442.426791,-4979369444.493334,-8319675380.281771,0.093220,-0.093559,-0.156748
-1.060000,1.860000,0.140522,0.040000,61679897.337188,8117720788.920869,-8253783911.600284,-13924347534.812889,0.153712,-0.154737,-0.262343
-1.100000,1.860000,0.140216,0.040000,14697785.067902,156527222.704378,-176009255.551005,-16186946563.424347,0.003059,-0.003206,-0.304971
-1.020000,1.820000,0.180012,0.040000,59797653.335085,8436046472.131429,-8505471489.405583,-4933942950.617090,0.159332,-0.159856,-0.092958
-0.980000,1.820000,0.180179,0.040000,66660730.793591,9843909134.378695,-9917541782.197193,-356742582.137454,0.185881,-0.186436,-0.006721
-0.980000,1.860000,0.140230,0.040000,108361120.973570,15901009476.298128,-16122370453.898008,-589653429.831802,0.300835,-0.302504,-0.011109
-1.020000,1.860000,0.140015,0.040000,95880348.893327,13771241312.234030,-13978112885.124729,-8164475310.929442,0.260627,-0.262186,-0.153823
-0.940000,1.820000,0.180390,0.040000,58126342.052831,8932891229.678106,-8993219183.158297,4264314778.657402,0.168642,-0.169096,0.080342
-0.900000,1.820000,0.180009,0.040000,35608361.882555,6030627307.576162,-6066232964.929650,7880267748.214930,0.113822,-0.114090,0.148469
-0.900000,1.860000,0.140012,0.040000,60542050.479254,9522083983.572821,-9632000853.314070,12598196659.369215,0.180023,-0.180851,0.237357
-0.940000,1.860000,0.140501,0.040000,95731970.234320,14270326245.407698,-14454566340.544792,6887434604.038011,0.269903,-0.271291,0.129763
-0.860000,1.820000,0.180190,0.040000,3641857.840463,1870473857.032065,-1877239141.821913,9759861928.719288,0.035279,-0.035330,0.183881
-0.820000,1.820000,0.180374,0.040000,-31260123.757112,-2616974426.630529,2636543240.565567,9602619923.906107,-0.049416,0.049563,0.180919
-0.820000,1.860000,0.140481,0.040000,-44579931.042714,-4116247385.879835,4176240779.662815,15043041028.335844,-0.077892,0.078344,0.283420
-0.860000,1.860000,0.140244,0.040000,10280742.649444,2898519843.594803,-2917955753.654569,15444920138.020588,0.054720,-0.054866,0.290991
-0.780000,1.820000,0.180007,0.040000,-62062688.371644,-6517686748.029655,6556325952.063651,7544785891.844984,-0.123015,0.123307,0.142148
-0.740000,1.820000,0.180201,0.040000,-82643015.719774,-9110003759.237371,9158036924.003819,4078876713.917194,-0.171909,0.172271,0.076848
-0.740000,1.860000,0.140258,0.040000,-125355596.148422,-13966465555.689297,14124624450.806030,6233721597.352451,-0.264030,0.265222,0.117447
-0.780000,1.860000,0.140009,0.040000,-92949073.228100,-10094078129.790590,10216890250.321882,11694443586.038549,-0.190872,0.191798,0.220330
-0.700000,1.820000,0.180359,0.040000,-88925418.582430,-9976773039.820936,10024362765.337816,-80996600.504532,-0.188237,0.188596,-0.001526
-0.660000,1.820000,0.180005,0.040000,-79540174.491320,-9045544378.948404,9084463119.554222,-4153421653.202429,-0.170643,0.170937,-0.078253
-0.660000,1.860000,0.140006,0.040000,-121925875.053381,-13627225270.367981,13761351616.750652,-6396381200.646277,-0.257503,0.258514,-0.120512
-0.700000,1.860000,0.140462,0.040000,-135649828.478271,-15160601376.920942,15320746026.287968,-198233930.340883,-0.286540,0.287747,-0.003735
-0.620000,1.820000,0.180212,0.040000,-55941533.960855,-6562967993.871943,6587694544.881006,-7433112769.218447,-0.123790,0.123976,-0.140044
-0.580000,1.820000,0.180344,0.040000,-22023821.540240,-3019410932.272688,3027542299.823936,-9401430691.839777,-0.056933,0.056995,-0.177128
-0.580000,1.860000,0.140442,0.040000,-35743904.346964,-4426670181.662525,4461055565.817634,-14178551782.263468,-0.083595,0.083855,-0.267132
-0.620000,1.860000,0.140273,0.040000,-86601106.407756,-9793735199.224699,9881227194.948654,-11305947662.923227,-0.185014,0.185674,-0.213011
-0.540000,1.820000,0.180003,0.040000,16646797.581962,955640955.856165,-963561460.122245,-9791958463.173384,0.018050,-0.018109,-0.184486
-0.500000,1.820000,0.180224,0.040000,53820858.167078,4706618817.437444,-4727679164.327832,-8608285007.320690,0.088794,-0.088953,-0.162185
-0.500000,1.860000,0.140288,0.040000,77673052.654339,7032563807.937814,-7106896086.883340,-12792412808.467464,0.132918,-0.133478,-0.241016
-0.540000,1.860000,0.140004,0.040000,22149822.638406,1504612087.517317,-1527929564.543992,-14657729020.828644,0.028480,-0.028655,-0.276160
-0.460000,1.820000,0.180330,0.040000,83596744.654466,7655073409.114270,-7684803876.313302,-6098704590.461370,0.144394,-0.144618,-0.114903
-0.420000,1.820000,0.180002,0.040000,101331810.254785,9379618500.710752,-9412861945.979729,-2697918327.296594,0.176905,-0.177156,-0.050830
-0.420000,1.860000,0.140003,0.040000,148463203.693634,13786907507.483212,-13910116390.221428,-3908317778.973945,0.260450,-0.261378,-0.073635
-0.460000,1.860000,0.140424,0.040000,122049237.964370,11328094111.569624,-11434694346.399824,-8987003674.531391,0.214030,-0.214834,-0.169320
-0.380000,1.820000,0.180236,0.040000,104307167.188966,9664854817.573521,-9696562588.041828,1051519008.870322,0.182271,-0.182510,0.019811
-0.340000,1.820000,0.180315,0.040000,92068605.240442,8516766486.736413,-8542641687.312803,4584880715.062353,0.160607,-0.160802,0.086382
-0.340000,1.860000,0.140405,0.040000,135131257.060918,12378604095.311363,-12481880125.613174,6809605992.349675,0.233804,-0.234582,0.128297
-0.380000,1.860000,0.140303,0.040000,153005814.556754,14125273991.123394,-14246761924.512230,1633234463.702285,0.266815,-0.267731,0.030771
-0.300000,1.820000,0.180001,0.040000,66418920.644646,6146535439.303215,-6163483653.176058,7396043430.524606,0.115900,-0.116028,0.139346
-0.260000,1.820000,0.180248,0.040000,31086750.731286,2928340328.760785,-2934706676.373745,9103522592.291706,0.055208,-0.055256,0.171516
-0.260000,1.860000,0.140319,0.040000,45972861.550158,4180560954.672678,-4208305072.823028,13335317916.701939,0.078921,-0.079130,0.251245
-0.300000,1.860000,0.140001,0.040000,97602717.190066,8879286283.720831,-8949004748.255510,10890485690.915422,0.167685,-0.168210,0.205183
-0.220000,1.820000,0.180301,0.040000,-8861867.461279,-660875385.327780,665271375.280881,9494981255.307407,-0.012476,0.012509,0.178891
-0.180000,1.820000,0.180000,0.040000,-47774429.651429,-4110555049.693378,4124549577.806608,8546807383.501352,-0.077524,0.077630,0.161027
-0.180000,1.860000,0.140000,0.040000,-68944385.620372,-6004467580.272346,6057148225.828936,12423699530.825924,-0.113425,0.113822,0.234070
-0.220000,1.860000,0.140387,0.040000,-12297852.832910,-1030010477.260912,1042120485.196654,13852469541.915157,-0.019474,0.019566,0.260989
-0.140000,1.820000,0.180261,0.040000,-80216397.760987,-6945576551.109105,6966907711.223756,6418573023.598519,-0.130979,0.131140,0.120930
-0.100000,1.820000,0.180288,0.040000,-101720206.577136,-8787119595.623878,8812763237.282055,3424858985.386436,-0.165699,0.165893,0.064526
-0.100000,1.860000,0.140370,0.040000,-147194769.961646,-12698743077.276911,12801829963.392717,4922682008.722155,-0.239834,0.240611,0.092746
-0.140000,1.860000,0.140336,0.040000,-116064345.380314,-10070857897.732862,10156239203.786314,9292880905.416653,-0.190223,0.190867,0.175083
-0.060000,1.820000,0.180000,0.040000,-109382743.040426,-9398752633.174091,9425305844.305351,-10930655.873930,-0.177228,0.177428,-0.000206
-0.020000,1.820000,0.180274,0.040000,-102238500.748437,-8713071370.148825,8737141205.212713,-3414409828.226906,-0.164295,0.164477,-0.064329
-0.020000,1.860000,0.140352,0.040000,-147616002.498523,-12539630197.038029,12638663045.174757,-5007022890.243059,-0.236814,0.237560,-0.094335
-0.060000,1.860000,0.140000,0.040000,-158163750.286031,-13550884207.664240,13659020044.530407,-72030527.996822,-0.255918,0.256733,-0.001357
0.020000,1.820000,0.180274,0.040000,-81366261.711564,-6836751488.701959,6855313765.319903,-6322461476.808419,-0.128913,0.129053,-0.119119
0.060000,1.820000,0.180000,0.040000,-49721238.755819,-4034239386.449383,4044950251.147367,-8342704704.038723,-0.076068,0.076149,-0.157181
0.060000,1.860000,0.140000,0.040000,-71096844.907179,-5778535281.729135,5823379196.001719,-12138355473.241964,-0.109124,0.109462,-0.228694
0.020000,1.860000,0.140352,0.040000,-117155597.167510,-9819930248.661983,9898388406.686056,-9216803908.383747,-0.185457,0.186048,-0.173650
0.100000,1.820000,0.180288,0.040000,-11718367.826555,-692355949.900419,693805701.637047,-9203554934.728579,-0.013053,0.013064,-0.173400
0.140000,1.820000,0.180261,0.040000,27377416.919413,2730015898.234270,-2738136957.419748,-8789256882.117659,0.051481,-0.051542,-0.165595
0.140000,1.860000,0.140336,0.040000,40902693.629449,3975690654.735085,-4006693235.842100,-12778178950.604689,0.075080,-0.075313,-0.240748
0.100000,1.860000,0.140370,0.040000,-15860903.456334,-963485294.865491,968932092.374961,-13381563574.134174,-0.018183,0.018224,-0.252116
0.180000,1.820000,0.180000,0.040000,62174513.889192,5761454401.584363,-5778293824.784639,-7155756552.112418,0.108644,-0.108771,-0.134819
0.220000,1.820000,0.180301,0.040000,87897663.584136,7979868972.361538,-8003457349.113353,-4525271181.029602,0.150479,-0.150656,-0.085259
0.220000,1.860000,0.140387,0.040000,128552296.288407,11564298107.215162,-11659731905.569927,-6580083288.043968,0.218417,-0.219137,-0.123973
0.180000,1.860000,0.140000,0.040000,91357559.454047,8351694071.328351,-8419306165.927164,-10405615165.294317,0.157733,-0.158242,-0.196048
0.260000,1.820000,0.180248,0.040000,101053037.240948,9069425572.022533,-9096843010.589655,-1259722091.251165,0.171028,-0.171235,-0.023734
0.300000,1.820000,0.180001,0.040000,99925613.660646,8865591590.863514,-8893248398.673498,2184526331.147787,0.167189,-0.167398,0.041158
0.300000,1.860000,0.140001,0.040000,145327703.449955,12883673807.931417,-12991612445.449417,3218537984.936240,0.243346,-0.244159,0.060639
0.260000,1.860000,0.140319,0.040000,147384341.267668,13158017659.791319,-13266812001.475708,-1819557541.288076,0.248520,-0.249340,-0.034282
0.340000,1.820000,0.180315,0.040000,84837872.003889,7382234318.568130,-7406256639.893309,5315977789.425782,0.139221,-0.139402,0.100156
0.380000,1.820000,0.180236,0.040000,58127187.361293,4816397931.418473,-4833092761.117124,7674799011.652859,0.090838,-0.090964,0.144598
0.380000,1.860000,0.140303,0.040000,83256461.364214,7026072375.979408,-7090470021.995633,11312334376.870890,0.132739,-0.133225,0.213131
0.340000,1.860000,0.140405,0.040000,122821671.236490,10750046958.628201,-10842133432.281050,7820725764.761486,0.203058,-0.203752,0.147347
0.420000,1.820000,0.180002,0.040000,23834587.232804,1528591064.551215,-1534961749.894278,8899164463.999611,0.028836,-0.028884,0.167665
0.460000,1.820000,0.180330,0.040000,-12863825.701414,-2000894812.477684,2006639044.286388,8782453878.302893,-0.037730,0.037774,0.165467
0.460000,1.860000,0.140424,0.040000,-21710294.540963,-2950833271.242475,2975047987.246559,13024770468.188662,-0.055732,0.055915,0.245394
0.420000,1.860000,0.140003,0.040000,32540672.085183,2231374411.355731,-2253721682.010853,13153683901.086063,0.042167,-0.042335,0.247823
0.500000,1.820000,0.180224,0.040000,-46413695.778432,-5236027525.266026,5254039001.309390,7312670303.259182,-0.098752,0.098887,0.137775
0.540000,1.820000,0.180003,0.040000,-71726375.484338,-7662591930.623852,7691120130.181197,4686674424.478119,-0.144529,0.144744,0.088300
0.540000,1.860000,0.140004,0.040000,-108547065.546757,-11373266239.197596,11476949397.062346,7003928416.011125,-0.214865,0.215646,0.131958
0.500000,1.860000,0.140288,0.040000,-71271118.359918,-7743531017.706800,7809580752.529933,10885697833.816092,-0.146266,0.146764,0.205093
0.580000,1.820000,0.180344,0.040000,-84987719.326055,-8869653530.642670,8905011250.895248,1294237010.025735,-0.167309,0.167576,0.024384
0.620000,1.820000,0.180212,0.040000,-84303482.121022,-8623123546.564791,8659963640.448059,-2329517551.813300,-0.162673,0.162951,-0.043889
0.620000,1.860000,0.140273,0.040000,-126049467.861311,-12918795318.882025,13047765493.822668,-3528590311.433206,-0.244127,0.245099,-0.066481
0.580000,1.860000,0.140442,0.040000,-127782623.548653,-13223008291.531265,13349432767.737753,1937490755.795130,-0.249844,0.250796,0.036503
0.660000,1.820000,0.180005,0.040000,-70065708.543797,-6918964002.495811,6950903675.241896,-5580222051.178153,-0.130538,0.130779,-0.105135
0.700000,1.820000,0.180359,0.040000,-44956803.332521,-4004384017.621006,4024965966.958823,-7880950979.042471,-0.075561,0.075716,-0.148482
0.700000,1.860000,0.140462,0.040000,-65118932.129107,-6060243671.090171,6128111692.375690,-12057208921.345259,-0.114562,0.115074,-0.227165
0.660000,1.860000,0.140006,0.040000,-103838074.685887,-10420859614.175274,10529241185.164768,-8488642035.222829,-0.196948,0.197764,-0.159931
0.740000,1.820000,0.180201,0.040000,-13558575.045834,-358195231.930410,362094740.022440,-8786439322.404657,-0.006771,0.006800,-0.165542
0.780000,1.820000,0.180007,0.040000,18402095.598810,3373183701.577414,-3388867978.777051,-8077633341.493019,0.063641,-0.063760,-0.152187
0.780000,1.860000,0.140009,0.040000,32328118.066456,5206286100.636848,-5258003451.327971,-12515510025.357018,0.098382,-0.098772,-0.235799
0.740000,1.860000,0.140258,0.040000,-16808909.024798,-525588611.357961,539864149.919706,-13526328749.033567,-0.009983,0.010091,-0.254844
0.820000,1.820000,0.180374,0.040000,45069623.886273,6480223809.488092,-6514833991.216264,-5827420696.663346,0.122287,-0.122548,-0.109792
0.860000,1.820000,0.180190,0.040000,61573329.964098,8322981302.852556,-8371636890.187718,-2419337191.930451,0.157085,-0.157451,-0.045582
0.860000,1.860000,0.140244,0.040000,98168856.952429,13010644091.693329,-13163786658.334227,-3775439672.186750,0.245994,-0.247148,-0.071131
0.820000,1.860000,0.140481,0.040000,73211516.845444,10056304849.659565,-10168459497.529306,-9083771044.992908,0.190101,-0.190946,-0.171144
0.900000,1.820000,0.180009,0.040000,65029624.531247,8470888143.524684,-8524621208.786507,1494281765.277649,0.159900,-0.160305,0.028153
0.940000,1.820000,0.180390,0.040000,55213666.629858,6821118303.940811,-6868052694.923266,5098850945.405028,0.128779,-0.129133,0.096065
0.940000,1.860000,0.140501,0.040000,85821962.393067,10815900105.311409,-10961078514.939449,8233968628.751509,0.204598,-0.205692,0.155133
0.900000,1.860000,0.140012,0.040000,102541245.530579,13340554009.296982,-13507561650.763367,2423565528.308950,0.252288,-0.253546,0.045661
0.980000,1.820000,0.180179,0.040000,34715793.988359,3663958417.050330,-3691598769.564548,7579223703.707641,0.069187,-0.069396,0.142797
1.020000,1.820000,0.180012,0.040000,8481843.693729,-332636963.646863,334240118.266343,8310997815.429104,-0.006276,0.006288,0.156584
1.020000,1.860000,0.140015,0.040000,9022648.172406,-626963872.773978,628577682.209176,13629148373.689327,-0.011821,0.011834,0.256781
0.980000,1.860000,0.140230,0.040000,52016025.608090,5820250145.207254,-5908571612.878800,12326705439.748404,0.110156,-0.110822,0.232242
1.060000,1.820000,0.180406,0.040000,-17236369.958606,-4235095267.523732,4269890872.460420,7040813209.105726,-0.079988,0.080251,0.132653
1.100000,1.820000,0.180168,0.040000,-36342920.201962,-7047670540.372782,7110841947.808847,4005236452.916874,-0.133139,0.133615,0.075461
1.100000,1.860000,0.140216,0.040000,-63818866.239336,-11797701332.977707,11978026055.560629,6624844796.713848,-0.223295,0.224654,0.124816
1.060000,1.860000,0.140522,0.040000,-32966823.301752,-7051095407.973116,7150821340.698599,11633275203.549706,-0.133410,0.134162,0.219178
1.140000,1.820000,0.180014,0.040000,-44452197.815478,-7974445265.254352,8051523033.315259,-61138091.228148,-0.150679,0.151260,-0.001152
1.180000,1.820000,0.180422,0.040000,-40126194.858146,-6678184977.895593,6747134906.947609,-4060944878.190149,-0.126211,0.126730,-0.076511
1.180000,1.860000,0.140542,0.040000,-67121725.703854,-11345687902.273481,11547832464.548883,-7173382588.338072,-0.214902,0.216425,-0.135151
1.140000,1.860000,0.140018,0.040000,-76069048.446610,-13457985775.575846,13680249014.368937,-252804549.741201,-0.254813,0.256488,-0.004763
1.220000,1.820000,0.180158,0.040000,-25392117.406411,-3453782472.200924,3490548765.478171,-6810462936.776748,-0.065279,0.065556,-0.128313
1.260000,1.820000,0.180018,0.040000,-5273522.927657,766347743.287021,-779526227.083555,-7405740244.453495,0.014513,-0.014612,-0.139528
1.260000,1.860000,0.140023,0.040000,-4369417.764434,1583211972.248822,-1610744638.661278,-13213471065.231901,0.029984,-0.030192,-0.248949
1.220000,1.860000,0.140203,0.040000,-40323582.196674,-5825429354.712659,5940851034.607740,-12059916181.208961,-0.110407,0.111277,-0.227216
1.300000,1.820000,0.180439,0.040000,13668184.491360,4626702139.981118,-4692473506.513757,-5575155115.574925,0.087542,-0.088037,-0.105039
1.340000,1.820000,0.180148,0.040000,25442814.385745,6769019487.018671,-6869339677.623443,-1880946252.004723,0.128099,-0.128855,-0.035438
1.340000,1.860000,0.140190,0.040000,49150302.516240,12510080844.754265,-12788575583.332502,-3196222972.003832,0.237271,-0.239370,-0.060219
1.300000,1.860000,0.140564,0.040000,29087685.205444,8533482522.856520,-8711150727.266443,-9977656774.651497,0.161780,-0.163119,-0.187985
1.380000,1.820000,0.180021,0.040000,26734421.748948,6353405320.394552,-6451370411.488008,2359119858.662595,0.120256,-0.120994,0.044447
1.420000,1.820000,0.180456,0.040000,18190770.574478,3487594834.759821,-3539265136.044113,5485969514.205556,0.066000,-0.066390,0.103359
1.420000,1.860000,0.140585,0.040000,31637622.929147,6357989794.975503,-6517894409.799282,10852858360.434219,0.120692,-0.121897,0.204474
1.380000,1.860000,0.140027,0.040000,49615456.827800,11792253590.094826,-12072787323.250414,4800264559.538464,0.223759,-0.225873,0.090440
1.460000,1.820000,0.180139,0.040000,4241167.341346,-663788329.621701,689237493.402616,6167851875.696805,-0.012650,0.012842,0.116206
1.500000,1.820000,0.180025,0.040000,-8714352.155405,-4250239820.887815,4349810912.513128,4076900414.147516,-0.080640,0.081390,0.076811
1.500000,1.860000,0.140032,0.040000,-21472866.626072,-8911265043.599581,9184604145.635258,7961142580.884222,-0.169438,0.171498,0.149993
1.460000,1.860000,0.140178,0.040000,3729229.066820,-1744911876.999165,1796892466.516751,12213006812.342142,-0.033169,0.033561,0.230100
1.540000,1.820000,0.180473,0.040000,-15159111.858902,-5551166943.943315,5679572971.265566,216312592.387080,-0.105313,0.106281,0.004075
1.580000,1.820000,0.180129,0.040000,-13094301.546589,-3921260184.854363,4006642651.696907,-3408522682.918786,-0.074361,0.075005,-0.064219
1.580000,1.860000,0.140166,0.040000,-26262316.158945,-7986910726.495023,8253484545.166193,-7855993054.327506,-0.151985,0.153994,-0.148011
1.540000,1.860000,0.140607,0.040000,-32820394.732262,-11536580938.746706,11910093424.572468,-104271061.725627,-0.219467,0.222282,-0.001965
1.620000,1.820000,0.180029,0.040000,-5008046.259504,-327376970.642411,311945986.893383,-4797671795.231064,-0.006081,0.005964,-0.090391
1.660000,1.820000,0.180490,0.040000,3622311.910296,3020429265.423415,-3134328709.595635,-3205568389.735803,0.057550,-0.058409,-0.060395
1.660000,1.860000,0.140630,0.040000,11731517.751741,7465542506.913221,-7803168566.706174,-6937361654.858781,0.142563,-0.145108,-0.130704
1.620000,1.860000,0.140037,0.040000,-7322240.037261,-56034189.898084,27153366.938778,-10801481491.248209,-0.000892,0.000675,-0.203506
1.700000,1.820000,0.180120,0.040000,7703837.219597,3987885040.232115,-4123066046.294527,186322807.900090,0.075898,-0.076917,0.003510
1.740000,1.820000,0.180034,0.040000,5754768.421552,2078676314.113773,-2129310754.250780,2893987589.784325,0.039450,-0.039831,0.054524
1.740000,1.860000,0.140043,0.040000,12405728.770173,4481110123.600156,-4652313669.379363,7840086446.036342,0.085394,-0.086685,0.147712
1.700000,1.860000,0.140155,0.040000,19332252.112258,9485400121.721657,-9911127569.161823,1275447246.628011,0.181117,-0.184325,0.024030
1.780000,1.820000,0.180508,0.040000,630965.011876,-1000056123.811644,1077769252.396248,2953487697.446168,-0.019281,0.019867,0.055645
1.820000,1.820000,0.180112,0.040000,-3057075.952754,-2606168855.607143,2737066003.772672,646754369.289216,-0.049842,0.050828,0.012185
1.820000,1.860000,0.140144,0.040000,-9965594.301398,-7421682145.616044,7876249794.332144,817693286.234663,-0.142398,0.145824,0.015406
1.780000,1.860000,0.140653,0.040000,-1394865.114233,-3495610324.944400,3751203879.052046,7526029140.710829,-0.067304,0.069230,0.141795
1.860000,1.820000,0.180038,0.040000,-2889557.319003,-1555300318.874289,1605569455.065000,-1626888884.896179,-0.029587,0.029966,-0.030652
1.900000,1.820000,0.180526,0.040000,-378820.861480,641972145.143996,-715845848.371439,-1711927556.897406,0.012513,-0.013069,-0.032254
1.900000,1.860000,0.140676,0.040000,931377.775262,2981689865.276148,-3288515746.792957,-5004181779.547937,0.057911,-0.060223,-0.094282
1.860000,1.860000,0.140049,0.040000,-7386657.542885,-3796529300.655280,3966278359.132348,-5548419802.930208,-0.072488,0.073768,-0.104535
1.940000,1.820000,0.180104,0.040000,1262993.043564,1448782881.664191,-1538976794.113602,-48367689.818577,0.027806,-0.028485,-0.000911
1.980000,1.820000,0.180043,0.040000,816862.160022,359809408.530961,-353721835.248580,1009387635.767671,0.006745,-0.006699,0.019017
1.980000,1.860000,0.140056,0.040000,1876890.081683,319732573.459448,-230868040.147965,4009018358.924603,0.005522,-0.004852,0.075532
1.940000,1.860000,0.140133,0.040000,4948138.708753,4851846327.745348,-5208945150.496260,940613718.503516,0.093430,-0.096121,0.017722
2.020000,1.820000,0.180545,0.040000,-211294.712983,-666165185.110282,726044849.674915,420767963.998546,-0.012889,0.013341,0.007928
2.060000,1.820000,0.180096,0.040000,-348533.771911,-326937924.391990,342184917.847464,-376134896.006530,-0.006246,0.006361,-0.007087
2.060000,1.860000,0.140123,0.040000,-1174094.677090,-693430676.616598,697980248.870017,-2162317274.651730,-0.013090,0.013125,-0.040739
2.020000,1.860000,0.140699,0.040000,-1798604.132016,-3109070072.219805,3400778269.132936,792160356.312811,-0.060225,0.062424,0.014925
2.100000,1.820000,0.180049,0.040000,16473.133472,251611521.779721,-274430139.790518,-218598942.093925,0.004869,-0.005041,-0.004119
2.140000,1.820000,0.180563,0.040000,88856.029906,86333707.843397,-103788769.631220,124114865.778674,0.001725,-0.001857,0.002338
2.140000,1.860000,0.140724,0.040000,309783.820333,-62006665.154039,13996027.603362,939562177.047147,-0.000897,0.000535,0.017702
2.100000,1.860000,0.140063,0.040000,603864.395910,1693637358.869167,-1797748514.189157,-452572119.502229,0.032498,-0.033282,-0.008527
2.180000,1.820000,0.180088,0.040000,-2810.427594,-71945023.459750,85605808.504395,46996025.691669,-0.001433,0.001536,0.000885
2.220000,1.820000,0.180055,0.040000,-6805.776077,7500353.664242,150908.178693,-32164208.248821,0.000098,-0.000040,-0.000606
2.220000,1.860000,0.140070,0.040000,3389.484767,414570923.395005,-296118571.166651,-215498350.571278,0.007141,-0.006249,-0.004060
2.180000,1.860000,0.140113,0.040000,-188371.516844,-516033761.657589,598446567.375987,-71355338.259941,-0.010188,0.010809,-0.001344
2.260000,1.820000,0.180582,0.040000,5347.459886,-492696.659861,-9138880.251730,85051.008430,0.000045,-0.000118,0.000002
2.300000,1.820000,0.180081,0.040000,4024.195321,2697979.905209,1190242.694469,3209874.987429,0.000029,0.000000,0.000060
2.300000,1.860000,0.140104,0.040000,-372.245293,-42371439.514882,41465670.059723,-15932093.096871,-0.000793,0.000786,-0.000300
2.260000,1.860000,0.140748,0.040000,22058.271957,-100085719.104087,20597408.123766,105338974.584918,-0.001436,0.000837,0.001985
2.340000,1.820000,0.160614,0.040000,3146.692999,6091295.613891,-9243145.066232,-1502725.652072,0.000133,-0.000156,-0.000028
2.380000,1.820000,0.120817,0.040000,4892.001144,114107362.687039,-309592044.901673,50271893.057681,0.003255,-0.004728,0.000947
2.380000,1.860000,0.120134,0.040000,4249.812518,16148569.258550,-43623703.590110,-7176922.168933,0.000460,-0.000667,-0.000135
2.340000,1.860000,0.140078,0.040000,4062.844486,16693821.434550,-16441622.074057,-6460954.851697,0.000313,-0.000311,-0.000122
2.420000,1.820000,0.081221,0.040000,73298.582189,-1082229957.613605,2006354224.060526,3343696517.649530,-0.025613,0.032578,0.062997
2.460000,1.820000,0.042389,0.040000,-1475042.544348,-10211615257.592094,3972850544.621880,-408247343.185576,-0.157130,0.110113,-0.007692
2.460000,1.860000,0.040400,0.040000,227634.831376,8972717336.316002,-7948767265.103360,3898355329.637314,0.163264,-0.155547,0.073447
2.420000,1.860000,0.080201,0.040000,-4797.729947,1710389817.194844,-2946543212.224164,-392807307.625641,0.039212,-0.048528,-0.007401
2.500000,1.820000,0.014030,0.040000,-111225348.966359,10678758456.498995,-59396546592.773804,-1088688923.282717,0.476555,-0.843704,-0.020512
2.500000,1.860000,0.005672,0.040000,-4753691.169487,16620745429.032978,7490558587.580586,5745480406.044468,0.176863,0.004845,0.108248
-2.500000,1.900000,0.004478,0.040000,799171.435817,-11505311528.825081,-6805363563.405699,8288277286.636975,-0.113272,-0.024722,0.156156
-2.500000,1.940000,0.014627,0.040000,-77840.069978,-710821531.786795,-304620815.872324,-159769215.541002,-0.007653,0.000000,-0.003010
-2.460000,1.900000,0.040250,0.040000,32524.003616,-5286951608.044970,-1674714066.721886,5359410810.294358,-0.060261,0.007796,0.100974
-2.420000,1.900000,0.080125,0.040000,9229.066463,-592716188.801893,-362780137.634338,979252304.794697,-0.005766,-0.001434,0.018450
-2.420000,1.940000,0.060221,0.040000,9694.237362,8301079.487056,102392163.694868,-114537351.595301,-0.000469,0.001303,-0.002158
-2.460000,1.940000,0.042590,0.040000,9376.601308,235105749.027235,136550446.301425,-303823200.984665,0.002329,0.000472,-0.005724
-2.380000,1.900000,0.101079,0.040000,9659.830656,60832459.200832,39453846.434178,-90324706.739504,0.000579,0.000176,-0.001702
-2.340000,1.900000,0.100109,0.040000,14485.648123,23403655.916035,-379146226.499211,393245043.284359,0.002452,-0.005133,0.007409
-2.340000,1.940000,0.060182,0.040000,-109846.469422,-72556139.482588,-2182071723.029421,1961228213.067160,0.011377,-0.028368,0.036951
-2.380000,1.940000,0.061782,0.040000,20312.129472,175035109.830204,176739732.237605,-246037490.594071,0.001309,0.001342,-0.004635
-2.300000,1.900000,0.100145,0.040000,-7920.761353,-1462256390.690304,953057310.177164,414359624.716815,-0.024672,0.020834,0.007807
-2.260000,1.900000,0.101044,0.040000,-5142.090976,1406994215.564186,75109569.612900,-2768217261.922542,0.018131,-0.006962,-0.052155
-2.260000,1.940000,0.061725,0.040000,-3503709.719881,4873137413.290594,1277535737.073718,-5141278007.507147,0.057048,-0.010695,-0.096865
-2.300000,1.940000,0.060242,0.040000,844271.602149,-4210985934.556024,4289965603.367118,-1349983920.129324,-0.079784,0.080379,-0.025434
-2.220000,1.900000,0.100098,0.040000,463459.367350,2950744113.827533,-3132767084.198520,1604413982.161577,0.056623,-0.057994,0.030228
-2.180000,1.900000,0.100158,0.040000,-1664956.444564,-1593606292.862945,4446546453.622752,1999034142.693282,-0.046150,0.067650,0.037663
-2.180000,1.940000,0.060263,0.040000,-13573184.773223,505050563.205432,16727804807.178804,1511290484.179081,-0.087888,0.217758,0.028474
-2.220000,1.940000,0.060163,0.040000,9224311.877230,6098853178.322727,-12073922148.549063,3778947860.010212,0.148678,-0.193708,0.071198
-2.140000,1.900000,0.101010,0.040000,1669647.463018,1998672898.688059,-869634605.170356,-6533007439.729950,0.031275,-0.022766,-0.123086
-2.100000,1.900000,0.100088,0.040000,3625766.270699,6367908020.793300,-9760643646.148096,4355335778.139542,0.139151,-0.164720,0.082057
-2.100000,1.940000,0.060146,0.040000,30809773.487195,6914717107.219343,-34941175395.657333,8301895108.249124,0.288688,-0.499902,0.156413
-2.140000,1.940000,0.061669,0.040000,1449754.029591,5354289834.751175,2112585420.909430,-9765115363.823977,0.058674,-0.002402,-0.183980
-2.060000,1.900000,0.100172,0.040000,-7039491.914775,-6000236873.555638,7863965991.285659,10576775314.993979,-0.123582,0.137628,0.199273
-2.020000,1.900000,0.100977,0.040000,-6389989.539821,-9781195383.445429,13842386261.150444,-9861643218.852289,-0.207238,0.237844,-0.185799
-2.020000,1.940000,0.061614,0.040000,-40864535.638324,-12232220436.727962,45101207007.900414,-16972495228.411968,-0.416243,0.663952,-0.319772
-2.060000,1.940000,0.060286,0.040000,-28389064.607344,-7366687312.769443,20843874632.788902,18933430666.382313,-0.214968,0.316535,0.356717
-1.980000,1.900000,0.100078,0.040000,12525874.984824,9278509412.936005,-10638716557.853699,-16145644968.765060,0.182501,-0.192751,-0.304193
-1.940000,1.900000,0.100186,0.040000,16315127.911046,17636377282.991081,-21253229938.518330,7836999749.899702,0.352723,-0.379980,0.147654
-1.940000,1.940000,0.060310,0.040000,69018775.661110,25746877389.489769,-58328523263.794388,12828794034.749130,0.669243,-0.914786,0.241702
-1.980000,1.940000,0.060130,0.040000,41262879.674233,13306973387.266123,-26403600618.827568,-30918624825.441013,0.324736,-0.423435,-0.582525
-1.900000,1.900000,0.100944,0.040000,-9138436.247477,-1728436626.731213,1763374356.156107,23910353214.163414,-0.032762,0.033026,0.450485
-1.860000,1.900000,0.100069,0.040000,-31598843.036752,-22124282718.613384,25324488542.955318,7606772211.865177,-0.434922,0.459040,0.143316
-1.860000,1.940000,0.060115,0.040000,-98465668.146738,-31923138190.421028,61047770376.881905,15652692373.438231,-0.766068,0.985558,0.294906
-1.900000,1.940000,0.061560,0.040000,-16971084.459822,-1627908213.268573,1782366395.683407,44420672700.384308,-0.031544,0.032708,0.836911
-1.820000,1.900000,0.100201,0.040000,-17841562.719139,-16749947799.993361,18904503319.981613,-20029691504.991886,-0.327757,0.343994,-0.377371
-1.780000,1.900000,0.100912,0.040000,22952806.764774,8061676266.314375,-9031945270.807154,-27021561506.203903,0.157371,-0.164683,-0.509102
-1.780000,1.940000,0.061507,0.040000,51166206.458873,10703159836.923656,-19184799555.270119,-48176187875.319931,0.249593,-0.313513,-0.907667
-1.820000,1.940000,0.060335,0.040000,-65070179.422711,-25108091908.063030,45176401562.768379,-34888198399.094780,-0.586481,0.737720,-0.657314
-1.740000,1.900000,0.100060,0.040000,50389652.303022,26212217941.063168,-28883865295.275063,-7329890492.736101,0.508954,-0.529088,-0.138099
-1.700000,1.900000,0.100217,0.040000,35312784.211977,21394548886.611759,-23286872191.603012,19287075407.313622,0.413781,-0.428042,0.363380
-1.700000,1.940000,0.060360,0.040000,98805880.371523,30965065581.283577,-48762264089.639153,32226123522.951412,0.683993,-0.818116,0.607159
-1.740000,1.940000,0.060100,0.040000,131392575.215432,37403630905.035706,-62112455588.686539,-13834710754.875937,0.844365,-1.030576,-0.260654
-1.660000,1.900000,0.100880,0.040000,-14260849.541541,-839165168.440697,983668391.742113,30468167918.294628,-0.016627,0.017716,0.574038
-1.620000,1.900000,0.100052,0.040000,-62402153.025297,-22478034299.157009,24196890353.160141,19337498140.312679,-0.433214,0.446168,0.364330
-1.620000,1.940000,0.060087,0.040000,-136904594.473262,-31243623976.752140,47505483795.305443,32256535599.439686,-0.680563,0.803116,0.607732
-1.660000,1.940000,0.061455,0.040000,-21016792.165184,-617725212.732987,1869092821.359237,51123472857.118134,-0.018711,0.028142,0.963196
-1.580000,1.900000,0.100233,0.040000,-74242083.164727,-28889414816.799591,30873702578.376820,-4359274825.754443,-0.555509,0.570463,-0.082131
-1.540000,1.900000,0.100848,0.040000,-39398811.337324,-17616443273.055256,18703209127.162609,-24715995496.923965,-0.338047,0.346237,-0.465664
-1.540000,1.940000,0.061404,0.040000,-95183971.201713,-24377951355.583759,34457417534.992302,-39378395170.242371,-0.516266,0.592227,-0.741912
-1.580000,1.940000,0.060387,0.040000,-168083593.384803,-40155436583.124313,58863663611.821419,-6800002413.682030,-0.862294,1.003283,-0.128116
-1.500000,1.900000,0.100045,0.040000,23995555.489422,3097352297.839485,-3357088641.584719,-30628043177.688156,0.059824,-0.061781,-0.577050
-1.460000,1.900000,0.100249,0.040000,82428901.128134,21493049587.998489,-22765436693.475018,-20708693964.181789,0.412133,-0.421722,-0.390164
-1.460000,1.940000,0.060415,0.040000,159676984.706691,28901742593.024391,-40838911784.054588,-32110399558.484222,0.611997,-0.701958,-0.604979
-1.500000,1.940000,0.060075,0.040000,38204494.199680,4066650630.449447,-6591605244.119658,-48185160063.427055,0.090890,-0.109918,-0.907836
-1.420000,1.900000,0.100818,0.040000,106053216.078235,29058280706.094635,-30583911545.350700,-1479470204.808795,0.556098,-0.567595,-0.027874
-1.380000,1.900000,0.100038,0.040000,82646953.703519,23611651866.726032,-24658342850.538948,17526430746.973106,0.450773,-0.458661,0.330208
-1.380000,1.940000,0.060063,0.040000,165874811.838929,31574199721.879669,-41867975897.706596,26585368278.879440,0.653058,-0.730635,0.500884
-1.420000,1.940000,0.061353,0.040000,209322668.110179,38944625017.857002,-53321292787.215645,-2232800413.047174,0.814999,-0.923345,-0.042067
-1.340000,1.900000,0.100266,0.040000,21159600.775971,8726306442.750971,-8983487626.510836,28510918285.798336,0.165862,-0.167800,0.537162
-1.300000,1.900000,0.100788,0.040000,-54299968.713137,-8866973975.143064,9337704951.073631,28069314075.947975,-0.169720,0.173267,0.528842
-1.300000,1.940000,0.061304,0.040000,-90564071.338380,-11672558758.645863,16116638882.268702,41536385215.158371,-0.245036,0.278528,0.782570
-1.340000,1.940000,0.060443,0.040000,49980060.142004,11708150347.414072,-14530887014.291599,42740565538.831299,0.236543,-0.257816,0.805257
-1.260000,1.900000,0.100032,0.040000,-115436218.807949,-22425678544.723106,23338540565.201183,17577318048.106987,-0.427672,0.434552,0.331167
-1.220000,1.900000,0.100284,0.040000,-140458668.662082,-27714752468.393436,28745338411.628231,1786670256.814087,-0.527987,0.535754,0.033662
-1.220000,1.940000,0.060473,0.040000,-248902521.638467,-36040421972.208542,46271670931.242363,2263966596.092841,-0.736851,0.813956,0.042654
-1.260000,1.940000,0.060053,0.040000,-202963996.619819,-29428586708.084179,38533102808.999672,25563098501.160637,-0.605912,0.674526,0.481624
-1.180000,1.900000,0.100758,0.040000,-120776156.030578,-23994089258.515305,24815279538.064026,-13659398540.349892,-0.456704,0.462893,-0.257351
-1.140000,1.900000,0.100026,0.040000,-62331522.652796,-13398097559.604200,13769103824.195026,-24192920379.859409,-0.254525,0.257321,-0.455809
-1.140000,1.940000,0.060043,0.040000,-114623248.677909,-17136130628.569094,20998539897.918343,-34603771584.929245,-0.344686,0.373794,-0.651955
-1.180000,1.940000,0.061255,0.040000,-215238329.197432,-30910515429.974945,39010556732.310661,-19898688678.618271,-0.628155,0.689199,-0.374903
-1.100000,1.900000,0.100303,0.040000,17715699.676064,408517358.249740,-518947929.275295,-27423957710.369564,0.008321,-0.009153,-0.516683
-1.060000,1.900000,0.100729,0.040000,97032138.963227,13452513787.210279,-13929589120.071718,-23178290794.575569,0.256150,-0.259745,-0.436692
-1.060000,1.940000,0.061207,0.040000,155249018.416097,17225151217.410038,-21924418034.715195,-32384476129.079578,0.351093,-0.386508,-0.610142
-1.100000,1.940000,0.060503,0.040000,21732832.369744,554710454.452493,-1424149503.637022,-38764539188.058220,0.015365,-0.021918,-0.730346
-1.020000,1.900000,0.100021,0.040000,154652364.318068,22407545358.738117,-23073480860.948540,-13236640029.027542,0.425935,-0.430954,-0.249386
-0.980000,1.900000,0.100321,0.040000,176201374.834098,25434552341.598766,-26141273130.057240,-654554041.851763,0.483196,-0.488522,-0.012332
-0.980000,1.940000,0.060534,0.040000,286721278.247748,32076710188.387604,-39329902806.870193,-537302444.464926,0.645340,-0.700002,-0.010123
-1.020000,1.940000,0.060035,0.040000,251145697.890419,28504792605.051491,-35390765880.588234,-18156912095.054771,0.575968,-0.627862,-0.342087
-0.940000,1.900000,0.100700,0.040000,156748932.881413,22455546529.368050,-23039715580.724609,11370684367.814056,0.426377,-0.430780,0.214230
-0.900000,1.900000,0.100016,0.040000,101055370.332455,14739525870.068594,-15063754416.627062,20263792154.122555,0.279534,-0.281977,0.381782
-0.900000,1.940000,0.060027,0.040000,166056479.309625,18326808516.008312,-21822330467.494503,27853874171.798882,0.365045,-0.391388,0.524783
-0.940000,1.940000,0.061160,0.040000,255335519.517931,28084796172.253292,-34047111618.593220,15915405252.891579,0.562834,-0.607767,0.299855
-0.860000,1.900000,0.100341,0.040000,21618025.539674,4287820312.145896,-4327197954.413572,24493567770.071236,0.081008,-0.081304,0.461473
-0.820000,1.900000,0.100672,0.040000,-64677038.316463,-6585228718.917438,6792362969.835600,23538762284.866226,-0.125240,0.126801,0.443484
-0.820000,1.940000,0.061114,0.040000,-95882388.181592,-8341029493.382853,10423600409.059095,31753791682.730663,-0.168921,0.184616,0.598260
-0.860000,1.940000,0.060566,0.040000,39897104.943373,5258330378.336294,-5850653548.160998,33342630343.907364,0.102418,-0.106882,0.628194
-0.780000,1.900000,0.100012,0.040000,-140374208.926463,-15636744743.989801,16023864430.250854,17985224214.173981,-0.296793,0.299711,0.338852
-0.740000,1.900000,0.100361,0.040000,-190911965.655553,-21283089281.185547,21783854540.867397,9349962411.629150,-0.403816,0.407590,0.176159
-0.740000,1.940000,0.060600,0.040000,-291929394.382814,-26294753947.507618,31507670269.914616,12224595704.265245,-0.524873,0.564158,0.230318
-0.780000,1.940000,0.060020,0.040000,-213896471.805462,-19505877919.269848,23606144946.038731,23985235234.666622,-0.390677,0.421578,0.451896
-0.700000,1.900000,0.100645,0.040000,-207134397.131390,-22835352209.147053,23342011738.844231,-562477202.581209,-0.433095,0.436913,-0.010597
-0.660000,1.900000,0.100009,0.040000,-186536485.984688,-20335177101.335552,20739323447.685394,-9959181992.128281,-0.385411,0.388457,-0.187637
-0.660000,1.940000,0.060014,0.040000,-284805466.563324,-24922253019.972416,29344396649.110184,-13449334927.144199,-0.494544,0.527871,-0.253393
-0.700000,1.940000,0.061069,0.040000,-316569565.822768,-28064184633.315998,33353177657.878422,-1010016610.265869,-0.558640,0.598499,-0.019029
-0.620000,1.900000,0.100381,0.040000,-133205879.650367,-14433304156.821133,14698529886.443893,-17293338239.558292,-0.273431,0.275430,-0.325817
-0.580000,1.900000,0.100618,0.040000,-56652891.390787,-6334205635.902679,6435031614.179605,-21425913809.081554,-0.119910,0.120670,-0.403677
-0.580000,1.940000,0.061025,0.040000,-87988162.752216,-7572671475.849729,8663880831.118265,-28328488324.826836,-0.148841,0.157065,-0.533725
-0.620000,1.940000,0.060634,0.040000,-203623216.171620,-17600596057.447060,20525017223.784393,-23065942628.352776,-0.348135,0.370174,-0.434576
-0.540000,1.900000,0.100006,0.040000,30134589.727611,2435725709.584901,-2513148294.638840,-21895674054.110233,0.046328,-0.046912,-0.412527
-0.500000,1.900000,0.100403,0.040000,113010295.713144,10482773665.574049,-10719628767.109560,-18953249310.796238,0.198840,-0.200625,-0.357090
-0.500000,1.940000,0.060669,0.040000,165798859.904746,12810633758.619804,-15250905077.478071,-24723300890.684296,0.255153,-0.273543,-0.465801
-0.540000,1.940000,0.060010,0.040000,42230900.325675,3108586267.914866,-3905063883.742836,-28737022891.830425,0.063069,-0.069072,-0.541422
-0.460000,1.900000,0.100592,0.040000,178962217.937363,16683306333.095324,-17021323113.618618,-13189566943.963860,0.316234,-0.318781,-0.248499
-0.420000,1.900000,0.100004,0.040000,218041076.015615,20157451343.331669,-20531419045.108364,-5579628265.343467,0.381892,-0.384710,-0.105123
-0.420000,1.940000,0.060006,0.040000,320904898.709892,24499530376.654137,-28632774193.419888,-7090957294.247856,0.484947,-0.516096,-0.133598
-0.460000,1.940000,0.060982,0.040000,263500530.610938,20329968721.589771,-23920227524.993511,-17100619782.346815,0.403321,-0.430378,-0.322186
-0.380000,1.900000,0.100424,0.040000,224686337.081301,20492133054.056805,-20869837530.440807,2612360888.972045,0.388219,-0.391065,0.049218
-0.340000,1.900000,0.100566,0.040000,198323053.482957,17831887221.464191,-18153984850.998985,10155714254.286699,0.337784,-0.340211,0.191340
-0.340000,1.940000,0.060939,0.040000,290946984.890012,21478340089.486591,-24934646520.901531,13326545089.063215,0.424200,-0.450248,0.251080
-0.380000,1.940000,0.060705,0.040000,330200160.146017,24790313572.994423,-28875125191.506783,3603355492.578000,0.490152,-0.520936,0.067889
-0.300000,1.900000,0.100002,0.040000,143212030.563405,12717820266.984964,-12926298468.400570,16037656468.213482,0.240789,-0.242361,0.302159
-0.260000,1.900000,0.100447,0.040000,67635688.071737,5905540054.784677,-5989968474.659963,19548692155.735817,0.111741,-0.112377,0.368309
-0.260000,1.940000,0.060741,0.040000,98962036.742581,7082525429.820283,-8072020147.496688,25366243101.776051,0.139032,-0.146489,0.477915
-0.300000,1.940000,0.060003,0.040000,209745475.403172,15304443423.929502,-17656352775.206909,20879369637.584511,0.301638,-0.319363,0.393379
-0.220000,1.900000,0.100541,0.040000,-17421074.221832,-1624036680.233166,1664223650.942258,20209707813.394039,-0.030825,0.031128,0.380763
-0.180000,1.900000,0.100001,0.040000,-99887243.755711,-8740100580.342461,8900617136.678234,18013574006.422527,-0.165576,0.166786,0.339386
-0.180000,1.940000,0.060001,0.040000,-145257224.165635,-10605586114.075850,12382313756.964598,23208908680.824680,-0.209858,0.223248,0.437269
-0.220000,1.940000,0.060898,0.040000,-25239436.867684,-2065044718.192209,2507185460.644053,26136960270.864368,-0.041406,0.044738,0.492435
-0.140000,1.900000,0.100469,0.040000,-168292954.546488,-14504116779.348425,14771041077.552071,13425544362.631233,-0.274775,0.276786,0.252945
-0.100000,1.900000,0.100517,0.040000,-213311090.402087,-18231469832.644138,18554407176.227600,7071199325.271276,-0.345317,0.347750,0.133225
-0.100000,1.940000,0.060857,0.040000,-309487437.313415,-21956133317.126045,25458789870.034058,9059063894.406462,-0.433464,0.459861,0.170678
-0.140000,1.940000,0.060779,0.040000,-244481035.601723,-17467021323.415890,20318728380.648232,17243196006.458542,-0.345207,0.366698,0.324872
-0.060000,1.900000,0.100000,0.040000,-228965830.132762,-19425346372.325485,19751861568.516525,-195160828.409959,-0.367830,0.370291,-0.003677
-0.020000,1.900000,0.100493,0.040000,-213367920.272478,-17926194293.802574,18235559910.177708,-7356320115.431324,-0.339488,0.341820,-0.138597
-0.020000,1.940000,0.060818,0.040000,-308652779.679798,-21548391702.850040,24922887699.546654,-9564974202.402409,-0.425057,0.450488,-0.180210
-0.060000,1.940000,0.060000,0.040000,-331748791.161631,-23398292811.234406,27064249167.401810,-327950432.837711,-0.461558,0.489186,-0.006179
0.020000,1.900000,0.100493,0.040000,-168902227.029513,-14002481033.881481,14247381434.512669,-13423421357.878878,-0.265199,0.267045,-0.252905
0.060000,1.900000,0.100000,0.040000,-101859005.299172,-8238197072.209742,8373960982.255956,-17623870928.257999,-0.155980,0.157003,-0.332044
0.060000,1.940000,0.060000,0.040000,-146176117.078464,-9900272829.250889,11428754490.500971,-22729322953.690826,-0.195166,0.206685,-0.428234
0.020000,1.940000,0.060818,0.040000,-243743052.710199,-16785066257.196730,19418361627.094753,-17334113958.836002,-0.331124,0.350969,-0.326585
0.100000,1.900000,0.100517,0.040000,-21563107.141875,-1355273944.366356,1373390190.277360,-19455543062.187046,-0.025637,0.025773,-0.366554
0.140000,1.900000,0.100469,0.040000,60887251.752539,5741808756.501012,-5838087733.232910,-18585378754.810997,0.108723,-0.109449,-0.350159
0.140000,1.940000,0.060779,0.040000,90308786.325471,6955403515.778896,-8042004339.967360,-23996498130.191467,0.137185,-0.145374,-0.452108
0.100000,1.940000,0.060857,0.040000,-29467652.353364,-1645629694.460538,1879355985.741268,-25107994694.649311,-0.032326,0.034087,-0.473049
0.180000,1.900000,0.100001,0.040000,134115556.598239,12016174659.514515,-12219468038.302156,-15119368531.514162,0.227541,-0.229073,-0.284858
0.220000,1.900000,0.100541,0.040000,188008664.646846,16619579912.030039,-16917455387.273603,-9586969262.902809,0.314806,-0.317051,-0.180624
0.220000,1.940000,0.060898,0.040000,274890279.425677,19998376760.366474,-23199648620.794624,-12392852964.779770,0.394875,-0.419001,-0.233489
0.180000,1.940000,0.060001,0.040000,196660869.505293,14492849717.926407,-16774113147.010248,-19516240628.478394,0.285948,-0.303140,-0.367697
0.260000,1.900000,0.100447,0.040000,215109983.402722,18952817546.520634,-19291806363.332005,-2680653281.044815,0.358998,-0.361553,-0.050505
0.300000,1.900000,0.100002,0.040000,211682900.331364,18621776220.464645,-18948589840.751041,4690049261.298198,0.352692,-0.355155,0.088363
0.300000,1.940000,0.060003,0.040000,308735063.315694,22516048449.537979,-26159817458.377880,6045496558.093040,0.444811,-0.472271,0.113901
0.260000,1.940000,0.060741,0.040000,314097672.141686,22853922623.543312,-26531105929.997227,-3514231647.214942,0.451365,-0.479077,-0.066210
0.340000,1.900000,0.100566,0.040000,178295183.262949,15572568331.361891,-15863030654.949200,11473622254.898621,0.295038,-0.297227,0.216170
0.380000,1.900000,0.100424,0.040000,119828954.097156,10209309409.757502,-10412642627.177094,16631608394.800606,0.193499,-0.195031,0.313349
0.380000,1.940000,0.060705,0.040000,173317317.960944,12337621218.622192,-14469665361.130110,21594664277.942963,0.244499,-0.260566,0.406856
0.340000,1.940000,0.060939,0.040000,259483297.889042,18837432944.202656,-21963476573.061626,14879364661.697971,0.372577,-0.396136,0.280336
0.420000,1.900000,0.100004,0.040000,44887748.289638,3297394788.369946,-3368538812.786030,19397373170.267475,0.062527,-0.063063,0.365458
0.460000,1.900000,0.100592,0.040000,-35352815.005441,-4245558014.241223,4317367534.780912,19336413261.263325,-0.080395,0.080936,0.364309
0.460000,1.940000,0.060982,0.040000,-56000076.109315,-5081352665.333010,5844276170.588415,25284209023.970802,-0.100048,0.105797,0.476369
0.420000,1.940000,0.060006,0.040000,62706146.260405,4040021963.088968,-4806900832.775414,25256384282.237793,0.080451,-0.086230,0.475845
0.500000,1.900000,0.100403,0.040000,-108726148.819261,-11319508489.359987,11521228600.877699,16260312469.136106,-0.214406,0.215926,0.306354
0.540000,1.900000,0.100006,0.040000,-163890559.248365,-16728181002.514942,17039933266.588099,10524999687.382996,-0.316931,0.319280,0.198297
0.540000,1.940000,0.060010,0.040000,-246863270.725764,-20371609754.927956,23817123995.233875,13895070429.786039,-0.403288,0.429254,0.261791
0.500000,1.940000,0.060669,0.040000,-164836213.476689,-13756978218.059610,15990792326.821795,21364656265.778290,-0.271815,0.288650,0.402523
0.580000,1.900000,0.100618,0.040000,-192131122.715302,-19539606032.685165,19936969428.668224,2991234451.240871,-0.370383,0.373378,0.056357
0.620000,1.900000,0.100381,0.040000,-188870691.988238,-19224388007.550873,19628731113.284664,-5220722433.678512,-0.364484,0.367531,-0.098361
0.620000,1.940000,0.060634,0.040000,-283582063.465672,-23511248649.776936,27789587318.411480,-6756332054.006958,-0.467147,0.499390,-0.127293
0.580000,1.940000,0.061025,0.040000,-288851203.483279,-23812591773.093185,28011848648.292576,4036156067.948800,-0.472378,0.504025,0.076044
0.660000,1.900000,0.100009,0.040000,-154625510.491688,-15654693115.365442,15989492216.907835,-12803109367.886324,-0.296836,0.299359,-0.241218
0.700000,1.900000,0.100645,0.040000,-95192263.580147,-9201181073.229343,9423678318.362446,-18404197992.413589,-0.174613,0.176290,-0.346746
0.700000,1.940000,0.061069,0.040000,-140599700.217177,-11380567111.690689,13689456190.616491,-24452936361.474186,-0.227467,0.244867,-0.460707
0.660000,1.940000,0.060014,0.040000,-231389223.542434,-19265034168.409210,22885596417.390816,-16870357284.609108,-0.383428,0.410714,-0.317847
0.740000,1.900000,0.100361,0.040000,-20944857.379804,-870692045.811259,926893000.748291,-20817301012.564999,-0.016722,0.017146,-0.392210
0.780000,1.900000,0.100012,0.040000,54745606.408257,7845907907.926530,-7994389840.316957,-19424208160.988541,0.148661,-0.149780,-0.365963
0.780000,1.940000,0.060020,0.040000,90130535.639813,9634925017.565308,-11275149678.804487,-26115585297.421509,0.190798,-0.203160,-0.492033
0.740000,1.940000,0.060600,0.040000,-26653597.909899,-1090473910.205897,1562635918.125392,-27817390224.193920,-0.023214,0.026772,-0.524096
0.820000,1.900000,0.100672,0.040000,117794848.445943,15355248457.764729,-15704405400.616650,-14292431864.244551,0.291275,-0.293907,-0.269278
0.860000,1.900000,0.100341,0.040000,156063575.236194,20116030297.992466,-20593730905.389305,-6090523329.364038,0.381698,-0.385298,-0.114749
0.860000,1.940000,0.060566,0.040000,247472924.695955,25021836488.690266,-30043477876.611362,-8448994490.893202,0.499809,-0.537653,-0.159184
0.820000,1.940000,0.061114,0.040000,187928260.726028,18954054072.646229,-22579304488.058350,-19396856129.374725,0.377596,-0.404917,-0.365448
0.900000,1.900000,0.100016,0.040000,161924601.463438,20867049186.513706,-21386592210.940571,3734452069.302960,0.396084,-0.399999,0.070359
0.940000,1.900000,0.100700,0.040000,134194548.163908,17088572923.044916,-17567269721.498898,13147444147.514006,0.324664,-0.328272,0.247705
0.940000,1.940000,0.061160,0.040000,211247678.619602,21447241346.357193,-26296032579.123558,17902650319.776539,0.431485,-0.468026,0.337296
0.900000,1.940000,0.060027,0.040000,256146072.476942,26108161052.774673,-31607665950.918404,4926023090.163688,0.522977,-0.564423,0.092809
0.980000,1.900000,0.100321,0.040000,78907801.402051,9316966358.016092,-9620085090.477468,19943967365.291832,0.177250,-0.179535,0.375756
1.020000,1.900000,0.100021,0.040000,8558172.426945,-920048443.862852,903799144.705496,22344135603.278614,-0.017242,0.017120,0.420976
1.020000,1.940000,0.060035,0.040000,6668377.521198,-1082526903.452523,968191381.323890,31003744554.542305,-0.019749,0.018888,0.584129
0.980000,1.940000,0.060534,0.040000,121580109.496462,11729652567.646971,-14703525619.534178,27412760081.715977,0.237802,-0.260214,0.516472
1.060000,1.900000,0.100729,0.040000,-60290707.843506,-11388606909.722406,11693711197.952412,19393431918.849258,-0.216292,0.218592,0.365383
1.100000,1.900000,0.100303,0.040000,-110740244.531041,-19410592925.246326,19977574035.936417,11249915783.796467,-0.368911,0.373184,0.211955
1.100000,1.940000,0.060503,0.040000,-190301294.871592,-24772774758.348045,30614757871.642067,16026639590.689106,-0.499753,0.543780,0.301951
1.060000,1.940000,0.061207,0.040000,-106697057.172065,-14370015553.358971,17469290384.061058,27211207314.919765,-0.288257,0.311614,0.512675
1.140000,1.900000,0.100026,0.040000,-129922219.918815,-22471267049.909119,23185558925.536079,-367876322.671766,-0.427409,0.432792,-0.006931
1.180000,1.900000,0.100758,0.040000,-112912427.112275,-19175686280.604660,19874294193.081421,-12401386766.889395,-0.365230,0.370495,-0.233649
1.180000,1.940000,0.061255,0.040000,-191356189.524278,-24696996968.413902,31545350321.470650,-17642140160.007206,-0.504014,0.555625,-0.332388
1.140000,1.940000,0.060043,0.040000,-221740381.028615,-28854541899.862431,36175711428.900078,-372762652.313212,-0.585017,0.640191,-0.007023
1.220000,1.900000,0.100284,0.040000,-64944259.016430,-9960288843.567890,10388787102.616215,-21194737124.591446,-0.190080,0.193309,-0.399321
1.260000,1.900000,0.100032,0.040000,-850843.067353,2791234788.649918,-2840778885.272210,-23625624597.529137,0.052869,-0.053242,-0.445120
1.260000,1.940000,0.060053,0.040000,7266206.978970,3621778508.477708,-4163347635.028378,-34422306416.355209,0.071297,-0.075379,-0.648536
1.220000,1.940000,0.060473,0.040000,-106739571.474975,-12850861690.027826,16932696295.466763,-30518565370.391617,-0.265189,0.295951,-0.574987
1.300000,1.900000,0.100788,0.040000,58719874.974004,15172572267.809830,-15752028664.163258,-18195590633.676872,0.289135,-0.293502,-0.342815
1.340000,1.900000,0.100266,0.040000,93759550.550328,22657888272.895725,-23602616241.884781,-5908010987.290359,0.432228,-0.439347,-0.111310
1.340000,1.940000,0.060443,0.040000,177299213.622826,29961039993.816166,-39277024786.887688,-8907720452.903215,0.617139,-0.687346,-0.167827
1.300000,1.940000,0.061304,0.040000,114265966.483202,19871350205.960087,-25513672500.790535,-26868018550.425701,0.406279,-0.448801,-0.506209
1.380000,1.900000,0.100038,0.040000,92263188.057841,21715033815.365177,-22710498441.963856,9248659332.223494,0.414750,-0.422252,0.174250
1.420000,1.900000,0.100818,0.040000,55777023.363919,11758145847.804472,-12410006343.237659,21254858815.103733,0.225215,-0.230127,0.400454
1.420000,1.940000,0.061353,0.040000,100597944.599456,15611035589.386648,-21728894645.729092,32409975223.995419,0.328700,-0.374806,0.610623
1.380000,1.940000,0.060063,0.040000,172494371.340973,28899270856.943939,-38699524436.851448,13898017470.288164,0.599872,-0.673729,0.261847
1.460000,1.900000,0.100249,0.040000,267446.176394,-3713008630.154990,3802930038.735762,24336370062.857906,-0.070463,0.071141,0.458511
1.500000,1.900000,0.100045,0.040000,-49360138.405462,-17868013563.734615,18828097785.323608,16032109289.983988,-0.342070,0.349306,0.302054
1.500000,1.940000,0.060075,0.040000,-108570313.261675,-24421497020.933414,33667007113.840321,24901855713.405602,-0.512372,0.582049,0.469165
1.460000,1.940000,0.060415,0.040000,-9355854.810223,-5273535004.943940,6415685946.447988,37514242366.584679,-0.105812,0.114420,0.706790
1.540000,1.900000,0.100848,0.040000,-70145788.018235,-23344427907.259357,24826379117.780258,-664248974.541780,-0.448199,0.459367,-0.012515
1.580000,1.900000,0.100233,0.040000,-53085205.749237,-16243719450.057686,17402001986.156788,-17483774159.416630,-0.312588,0.321317,-0.329404
1.580000,1.940000,0.060387,0.040000,-109276684.737011,-22121846054.907135,32809825907.233776,-28265676883.509167,-0.477199,0.557746,-0.532542
1.540000,1.940000,0.061404,0.040000,-149070071.921684,-31854364865.653576,45574304398.973434,-1273213415.120401,-0.677702,0.781099,-0.023988
1.620000,1.900000,0.100052,0.040000,-9653919.195600,536232214.311426,-547054148.984805,-24370324761.488041,0.010164,-0.010246,-0.459151
1.660000,1.900000,0.100880,0.040000,32877887.390220,17136264369.435118,-18535513614.576145,-15719454883.785046,0.330766,-0.341311,-0.296164
1.660000,1.940000,0.061455,0.040000,85453127.434788,24198242764.515652,-36881408952.337173,-25729256470.416756,0.527596,-0.623180,-0.484754
1.620000,1.940000,0.060087,0.040000,-11156598.179835,1039290423.446058,-1036341351.260750,-39748908007.502792,0.019564,-0.019542,-0.748892
1.700000,1.900000,0.100217,0.040000,47553168.132130,21815468827.822525,-23754666399.269695,4037010800.309958,0.421977,-0.436591,0.076060
1.740000,1.900000,0.100060,0.040000,26831213.434557,9868963790.086546,-10788239946.931742,20688840712.129559,0.191133,-0.198061,0.389790
1.740000,1.940000,0.060100,0.040000,59866569.295122,13688175343.147823,-22405900952.912987,35892086033.832100,0.307167,-0.372866,0.676228
1.700000,1.940000,0.060360,0.040000,116370822.255504,30755458197.938820,-48620611678.868126,7388048326.188664,0.680428,-0.815064,0.139195
1.780000,1.900000,0.100912,0.040000,-9848473.590421,-9919656800.995018,11094780362.888117,19788556193.020466,-0.193534,0.202390,0.372828
1.820000,1.900000,0.100201,0.040000,-30321187.122410,-19738364346.608295,22186189369.508118,780754262.839853,-0.385718,0.404165,0.014710
1.820000,1.940000,0.060335,0.040000,-89605791.813030,-28514860336.221634,50752452246.789696,302802398.434682,-0.662927,0.830515,0.005705
1.780000,1.940000,0.061507,0.040000,-37529312.984831,-14655649784.002853,25051744360.878407,34183428692.302666,-0.334881,0.413229,0.644036
1.860000,1.900000,0.100069,0.040000,-18602672.248818,-9217054984.010839,10311009983.931492,-17953732309.863560,-0.179838,0.188082,-0.338259
1.900000,1.900000,0.100944,0.040000,8095028.787309,10180806764.120508,-12166388626.711540,-15248875860.091648,0.203035,-0.217999,-0.287298
1.900000,1.940000,0.061560,0.040000,37378888.058878,14987722056.441336,-32053355860.061844,-27120813636.438103,0.378835,-0.507446,-0.510972
1.860000,1.940000,0.060115,0.040000,-48122718.975470,-12927440129.962851,23261383330.925434,-33097648080.433578,-0.301970,0.379849,-0.623579
1.940000,1.900000,0.100186,0.040000,17775354.017645,14543538955.272329,-17280495584.436127,5666355528.376290,0.289478,-0.310105,0.106757
1.980000,1.900000,0.100078,0.040000,3124163.185395,-862162917.506485,1739466499.529853,15503317263.350512,-0.021202,0.027814,0.292091
1.980000,1.940000,0.060130,0.040000,713581.291292,-1233651249.974214,8145418941.027130,28523265526.284267,-0.062309,0.114398,0.537395
1.940000,1.940000,0.060310,0.040000,62565968.180648,20619384563.614407,-44676554979.971794,11884377529.799391,0.524456,-0.705757,0.223909
2.020000,1.900000,0.100977,0.040000,-9658282.390912,-10725483982.917370,14247554869.991064,352611704.823027,-0.221982,0.248525,0.006643
2.060000,1.900000,0.100172,0.040000,-3030090.341480,-339561681.245027,188698576.790607,-11073414520.798416,-0.005545,0.004408,-0.208630
2.060000,1.940000,0.060286,0.040000,-4605003.048491,29871864.341430,-3414479686.259952,-19953644580.765503,0.019693,-0.045200,-0.375938
2.020000,1.940000,0.061614,0.040000,-45944424.046559,-13919389797.989017,42442294984.832878,-760043322.617146,-0.423466,0.638421,-0.014320
2.100000,1.900000,0.100088,0.040000,4685540.920341,6826614502.314890,-9209198071.837723,576669304.093450,0.142084,-0.160040,0.010865
2.140000,1.900000,0.101010,0.040000,197535.671507,-23573260.456879,2275439114.725892,5516941145.201725,-0.013172,0.030143,0.103942
2.140000,1.940000,0.061669,0.040000,-8226392.682954,3129705079.741312,12243915670.782051,9336252411.583107,-0.027929,0.143788,0.175900
2.100000,1.940000,0.060146,0.040000,29422255.549132,8961962957.064631,-29659385303.022209,440125405.614966,0.285834,-0.441815,0.008292
2.180000,1.900000,0.100158,0.040000,-1476777.759047,-1195073248.731173,2952814378.968217,-2991709142.184369,-0.032451,0.045698,-0.056366
2.220000,1.900000,0.100098,0.040000,608323.185508,2963653090.037915,-3067526667.745406,-655018855.314558,0.056424,-0.057207,-0.012341
2.220000,1.940000,0.060163,0.040000,8134484.326595,6076671123.793996,-11556838504.799162,-2275192961.196249,0.145463,-0.186763,-0.042866
2.180000,1.940000,0.060263,0.040000,-8173753.110542,-103875916.388447,10075379259.337286,-3943641705.309004,-0.058318,0.133465,-0.074300
2.260000,1.900000,0.101044,0.040000,-75082.465963,701813916.476777,461924849.569990,2323360721.342238,0.006645,0.002125,0.043773
2.300000,1.900000,0.100145,0.040000,-5382.528733,-1314669681.334311,749356129.823085,-493076814.375248,-0.021574,0.017314,-0.009290
2.300000,1.940000,0.060242,0.040000,929779.760279,-3960744437.073460,2968892233.902284,474694641.324532,-0.069017,0.061542,0.008944
2.260000,1.940000,0.061725,0.040000,-3585665.640857,3080670263.399632,2937460383.267874,4967722091.002478,0.024026,0.021328,0.093595
2.340000,1.900000,0.100109,0.040000,8223.727050,32848102.276392,-344012926.480204,-350226903.001461,0.002378,-0.004723,-0.006598
2.380000,1.900000,0.101079,0.040000,3403.918989,57541881.327701,35997920.724076,80911677.740664,0.000555,0.000150,0.001524
2.380000,1.940000,0.061782,0.040000,16655.911174,182622043.966856,134164135.825326,217175033.756094,0.001650,0.000737,0.004092
2.340000,1.940000,0.060182,0.040000,-137385.110909,4518756.370251,-1856182614.551063,-1669996390.454794,0.010551,-0.024506,-0.031464
2.420000,1.900000,0.080125,0.040000,4793.852998,-420625021.442321,-518717053.789541,-874068556.933416,-0.002615,-0.004464,-0.016468
2.460000,1.900000,0.040250,0.040000,-12167.817549,-3532976601.436045,-1908029931.569742,-3950789817.607023,-0.035810,-0.005195,-0.074435
2.460000,1.940000,0.042590,0.040000,4897.729423,-234690827.667743,-7961717.064551,-180122245.068930,-0.003050,0.001222,-0.003394
2.420000,1.940000,0.060221,0.040000,3517.996625,-21133112.802671,65976334.916970,36262374.243013,-0.000652,0.000990,0.000683
2.500000,1.900000,0.004478,0.040000,588207.375527,-8211864142.210546,-4714897899.292255,-6166697695.175769,-0.081652,-0.015767,-0.116184
2.500000,1.940000,0.014627,0.040000,-45379.380935,-1478327302.427764,-721249273.994711,-522587517.458090,-0.015420,-0.001156,-0.009846
-2.500000,1.980000,0.005075,0.040000,10367.498058,543904328.245910,30680555.224222,-107600430.774592,0.007000,-0.002670,-0.002027
-2.460000,1.980000,0.020594,0.040000,9969.058476,131411415.799722,-9595408.517634,-38898462.834906,0.001787,-0.000869,-0.000733
-2.420000,1.980000,0.020652,0.040000,26002.597831,135957373.417857,148575567.003017,-102680003.263464,0.000953,0.001191,-0.001935
-2.380000,1.980000,0.024839,0.040000,-306169.680079,-55930559.253100,272144599.276480,-251778838.054362,-0.002276,0.003905,-0.004744
-2.340000,1.980000,0.020538,0.040000,1879144.387011,-1992440426.103494,-5123433064.673326,3022308634.063210,0.002681,-0.056308,0.056942
-2.300000,1.980000,0.020713,0.040000,4348287.544150,6802785182.615800,6893302496.510891,-2145056878.277021,0.050756,0.052461,-0.040414
-2.260000,1.980000,0.024698,0.040000,-67080630.624901,-25747750333.379509,22901221467.777161,-8612103015.317612,-0.469013,0.447561,-0.162257
-2.220000,1.980000,0.020485,0.040000,158771948.099362,55110868240.186516,-63749267420.962349,5333830942.968746,1.087146,-1.152247,0.100492
-2.180000,1.980000,0.020777,0.040000,-109244690.844096,-28787276724.651119,56926345849.396469,3343518207.929359,-0.701416,0.913478,0.062994
-2.140000,1.980000,0.024558,0.040000,-36054008.722514,-12539350980.741070,19663661784.936123,-14412189561.465281,-0.276516,0.330207,-0.271534
-2.100000,1.980000,0.020435,0.040000,223915603.704489,62881656748.423294,-110340971811.245331,11437477814.526003,1.452975,-1.810640,0.215489
-2.060000,1.980000,0.020843,0.040000,-123367208.046224,-29960357839.434174,53655653102.372612,27867020059.203903,-0.698400,0.876974,0.525031
-2.020000,1.980000,0.024420,0.040000,-214702015.538146,-49050688926.743233,116983544568.451721,-23493833477.750225,-1.308112,1.820069,-0.442637
-1.980000,1.980000,0.020387,0.040000,153652615.589062,34388822338.116768,-62228524914.785561,-44073863211.253349,0.805260,-1.015067,-0.830377
-1.940000,1.980000,0.020912,0.040000,277071015.429563,59043137433.024506,-134351150900.733353,17200702246.743931,1.538061,-2.105600,0.324071
-1.900000,1.980000,0.024283,0.040000,-34140415.162475,-5020009988.884859,3281239220.478611,61631966232.530159,-0.084752,0.071648,1.161182
-1.860000,1.980000,0.020342,0.040000,-312598795.498215,-59781486692.863426,128929704731.423965,22230440754.551052,-1.517156,2.038273,0.418834
-1.820000,1.980000,0.020983,0.040000,-213978551.869663,-42030119760.469383,92221445922.771576,-46910699534.445137,-1.075562,1.453815,-0.883825
-1.780000,1.980000,0.024148,0.040000,125156860.195874,19461905108.599739,-38538969427.647118,-64988907659.479057,0.474500,-0.618270,-1.224429
-1.740000,1.980000,0.020299,0.040000,346662549.311517,58687917267.282501,-119402957654.989731,-18877234569.836124,1.448886,-1.906449,-0.355658
-1.700000,1.980000,0.021057,0.040000,263233435.454719,45588007039.171082,-90503923707.145218,42339785741.814079,1.112777,-1.451274,0.797706
-1.660000,1.980000,0.024015,0.040000,-34956256.268503,-2497472269.246572,4933041263.329425,66990191145.624962,-0.060820,0.079175,1.262134
-1.620000,1.980000,0.020260,0.040000,-309249408.863259,-45158354262.521744,85638781105.523514,41972648452.485168,-1.079612,1.384682,0.790789
-1.580000,1.980000,0.021133,0.040000,-378071463.877549,-55511139743.030869,102249674603.112259,-8788564882.727316,-1.310036,1.662269,-0.165582
-1.540000,1.980000,0.023883,0.040000,-215459218.454311,-32201623946.568539,57198430610.182129,-50410450996.776642,-0.747984,0.936365,-0.949762
-1.500000,1.980000,0.020223,0.040000,68008481.818993,6614857440.898200,-12914945904.684322,-61134532134.053017,0.160237,-0.207716,-1.151810
-1.460000,1.980000,0.021211,0.040000,314944982.337797,38531440705.879333,-67936245708.912102,-40367938292.476639,0.892156,-1.113757,-0.760555
-1.420000,1.980000,0.023753,0.040000,412632862.750417,50716383390.345444,-86204468866.650803,-2675406134.235521,1.156111,-1.423557,-0.050406
-1.380000,1.980000,0.020189,0.040000,326123230.786042,39901689376.267570,-65814088209.156204,33216569509.187691,0.898232,-1.093514,0.625819
-1.340000,1.980000,0.021292,0.040000,105573441.199668,14378852520.047226,-21856990498.539730,53033946718.930397,0.313174,-0.369531,0.999190
-1.300000,1.980000,0.023625,0.040000,-158099582.427119,-15494861792.957886,26512762474.129749,51185081202.909676,-0.354207,0.437241,0.964357
-1.260000,1.980000,0.020158,0.040000,-362157792.409903,-37108834544.621628,60105277616.180351,31166513230.737289,-0.829132,1.002438,0.587195
-1.220000,1.980000,0.021376,0.040000,-441459173.069893,-44614727550.004196,70160438157.283295,2477041291.652159,-0.984956,1.177475,0.046669
-1.180000,1.980000,0.023498,0.040000,-379212633.621349,-37665902672.589737,57627154261.795311,-24394226050.628330,-0.822472,0.972905,-0.459601
-1.140000,1.980000,0.020129,0.040000,-203530205.318094,-20320896747.742733,29976367464.416698,-41940655648.333313,-0.437432,0.510198,-0.790186
-1.100000,1.980000,0.021462,0.040000,28137141.911438,944148026.025205,-2874208589.686403,-46699387487.938843,0.028697,-0.043243,-0.879844
-1.060000,1.980000,0.023373,0.040000,253603243.761214,21306634336.012741,-32998232366.054455,-38783036927.967018,0.467512,-0.555623,-0.730695
-1.020000,1.980000,0.020103,0.040000,411247242.099826,34415548136.003502,-51793513966.518478,-21501099348.782700,0.746632,-0.877597,-0.405093
-0.980000,1.980000,0.021550,0.040000,466899020.483815,38316187257.398918,-56363711104.349419,-363263542.742271,0.823907,-0.959917,-0.006844
-0.940000,1.980000,0.023250,0.040000,413338209.226292,33182673596.429089,-47820631556.857918,19115880923.707165,0.707917,-0.818232,0.360154
-0.900000,1.980000,0.020081,0.040000,268824462.456467,21320207317.268608,-30050534464.855885,33092250545.654564,0.451030,-0.516824,0.623477
-0.860000,1.980000,0.021640,0.040000,68784423.489289,6076511667.956779,-7705971487.562596,39426680440.163063,0.123695,-0.135975,0.742822
-0.820000,1.980000,0.023129,0.040000,-146313644.292228,-10249438760.653883,15494711733.598316,37374903275.633377,-0.222753,0.262282,0.704165
-0.780000,1.980000,0.020061,0.040000,-329327636.952455,-23100002470.373661,33452576835.705414,28029473942.954521,-0.493732,0.571751,0.528092
-0.740000,1.980000,0.021732,0.040000,-447732144.135304,-30762271241.622772,43625474675.189095,14122197762.215658,-0.652284,0.749224,0.266070
-0.700000,1.980000,0.023010,0.040000,-483911687.910880,-32711820817.736721,45711493782.666924,-1354377569.655941,-0.689786,0.787755,-0.025517
-0.660000,1.980000,0.020043,0.040000,-433934382.568052,-28803686480.094456,39883066398.452682,-15842389125.527336,-0.605301,0.688798,-0.298480
-0.620000,1.980000,0.021827,0.040000,-309976102.131011,-20389066570.805599,27718178301.443447,-27008482348.997532,-0.425567,0.480801,-0.508855
-0.580000,1.980000,0.022892,0.040000,-133463734.785829,-8428463624.255518,10995035252.459682,-33011168401.299114,-0.173304,0.192646,-0.621950
-0.540000,1.980000,0.020029,0.040000,61563108.932446,3824189170.574547,-5866022098.015000,-33325582869.205223,0.083591,-0.098978,-0.627873
-0.500000,1.980000,0.021924,0.040000,244522618.231591,14775135731.213247,-20697980440.065327,-28589556864.113338,0.311849,-0.356485,-0.538644
-0.460000,1.980000,0.022777,0.040000,389753213.570091,23605583817.629421,-32490705031.513973,-19719771517.827694,0.494963,-0.561923,-0.371532
-0.420000,1.980000,0.020018,0.040000,473368879.676677,28179839435.051586,-38553220762.503784,-8076390715.642717,0.589557,-0.667733,-0.152164
-0.380000,1.980000,0.022024,0.040000,485499724.572422,28472175039.594566,-38554515356.169617,4303689154.322698,0.593419,-0.669402,0.081084
-0.340000,1.980000,0.022663,0.040000,426068264.297428,24507207213.443378,-32935093786.137123,15468922885.001616,0.509366,-0.572880,0.291443
-0.300000,1.980000,0.020009,0.040000,306538101.969005,17403020881.970142,-23279906888.882072,24117566255.546589,0.361100,-0.405390,0.454389
-0.260000,1.980000,0.022125,0.040000,144650410.726167,8165288353.999928,-10702162709.803989,29271592413.169422,0.168178,-0.187296,0.551494
-0.220000,1.980000,0.022551,0.040000,-38067576.767317,-2604962097.998728,3799022338.168490,30108265200.128990,-0.055828,0.064827,0.567257
-0.180000,1.980000,0.020003,0.040000,-212103560.018925,-12195628133.185488,16661407733.396114,26657997746.914597,-0.255014,0.288669,0.502252
-0.140000,1.980000,0.022228,0.040000,-355179729.044342,-19906605019.694447,26849101565.768406,19782162735.175724,-0.414292,0.466612,0.372707
-0.100000,1.980000,0.022442,0.040000,-449564887.910424,-25161518847.376156,33798778990.433598,10388053605.950899,-0.522877,0.587969,0.195717
-0.060000,1.980000,0.020000,0.040000,-481114633.977252,-26684970401.951473,35870441403.428581,-423609422.527223,-0.554678,0.623902,-0.007981
-0.020000,1.980000,0.022334,0.040000,-446884760.096418,-24651292163.056870,32978977430.986835,-11054921786.540735,-0.511514,0.574274,-0.208281
0.020000,1.980000,0.022334,0.040000,-351449416.127894,-19044228941.383202,25440521729.890961,-19945816816.268204,-0.394957,0.443161,-0.375791
0.060000,1.980000,0.020000,0.040000,-210162802.312676,-11276771198.331244,15108307762.398373,-26121657026.809124,-0.234117,0.262993,-0.492147
0.100000,1.980000,0.022442,0.040000,-41168370.848211,-2015945359.577385,2689240295.781142,-28890483017.383987,-0.041787,0.046861,-0.544313
0.140000,1.980000,0.022228,0.040000,134106184.193171,8097663536.778239,-10869079563.337946,-27619872080.017036,0.168229,-0.189115,-0.520374
0.180000,1.980000,0.020003,0.040000,288039364.327739,16528074672.533810,-22236839552.567520,-22441856958.725960,0.343665,-0.386688,-0.422818
0.220000,1.980000,0.022551,0.040000,401296297.696298,22801247789.020939,-30609387231.676834,-14271212731.058578,0.473722,-0.532566,-0.268878
0.260000,1.980000,0.022125,0.040000,458748507.042325,26180241839.177498,-35244748655.578156,-4089523374.114042,0.544485,-0.612797,-0.077049
0.300000,1.980000,0.020009,0.040000,450947327.047251,25774991980.584450,-34912817074.606621,6940076816.171517,0.537264,-0.606129,0.130755
0.340000,1.980000,0.022663,0.040000,378790511.182495,21716429960.779789,-29447748921.628185,17163064769.142075,0.452849,-0.511114,0.323362
0.380000,1.980000,0.022024,0.040000,251259890.635727,14080944510.732702,-19243406134.363991,24914267840.140915,0.294472,-0.333378,0.469399
0.420000,1.980000,0.020018,0.040000,89067838.520878,4737171834.387218,-6687100969.794980,29169012854.822144,0.100272,-0.114968,0.549561
0.460000,1.980000,0.022777,0.040000,-86070453.936590,-5638386285.364691,7413329625.193995,29294220236.613911,-0.116263,0.129639,0.551920
0.500000,1.980000,0.021924,0.040000,-248981867.294130,-15918076633.298527,21522041284.459431,24820597808.189396,-0.331580,0.373813,0.467634
0.540000,1.980000,0.020029,0.040000,-370960088.466339,-23413209832.483929,32038481951.992645,16173409442.976685,-0.489870,0.554872,0.304716
0.580000,1.980000,0.022892,0.040000,-433883780.105860,-27518522249.620956,37817786157.943665,4760653409.980875,-0.576678,0.654296,0.089693
0.620000,1.980000,0.021827,0.040000,-426346391.583449,-27243460742.371006,37791484774.776871,-7758190966.063667,-0.572902,0.652394,-0.146169
0.660000,1.980000,0.020043,0.040000,-348271455.164636,-22467572530.798233,31584887708.126987,-19592864848.793961,-0.474835,0.543545,-0.369141
0.700000,1.980000,0.023010,0.040000,-210439494.530293,-13505787737.462799,19273724503.178795,-28557808980.921448,-0.287058,0.330527,-0.538046
0.740000,1.980000,0.021732,0.040000,-34642450.569805,-1267694427.183577,2311084518.012349,-32578057095.454159,-0.029782,0.037645,-0.613789
0.780000,1.980000,0.020061,0.040000,144744404.616930,11039806517.022043,-15110900601.884377,-30671577835.532837,0.231007,-0.261688,-0.577870
0.820000,1.980000,0.023129,0.040000,296928331.893144,22053297356.871731,-30904037076.638969,-22918987924.789478,0.465523,-0.532224,-0.431807
0.860000,1.980000,0.021640,0.040000,391689249.711707,29471332500.011986,-41976917237.043381,-10119417398.989326,0.625941,-0.720186,-0.190656
0.900000,1.980000,0.020081,0.040000,406196498.743152,30874014554.033634,-44714069128.429199,5700799849.677851,0.659911,-0.764213,0.107406
0.940000,1.980000,0.023250,0.040000,335082530.775102,25689232418.724094,-37694448274.591232,21154470047.796341,0.551856,-0.642330,0.398562
0.980000,1.980000,0.021550,0.040000,189952277.263112,14051673592.802835,-21305126753.807304,32545828156.700493,0.305739,-0.360403,0.613182
1.020000,1.980000,0.020103,0.040000,3902440.053630,-931613805.017983,573824421.652796,36990615567.247772,-0.015530,0.012833,0.696925
1.060000,1.980000,0.023373,0.040000,-183249552.077283,-16942409129.518555,24506606460.640984,32694016431.117283,-0.361959,0.418965,0.615974
1.100000,1.980000,0.021462,0.040000,-324716804.296794,-29893588470.866745,44554174831.043922,19431868955.579895,-0.646077,0.756562,0.366108
1.140000,1.980000,0.020129,0.040000,-378656195.128567,-35053886009.204918,53497110272.851120,-318813793.409925,-0.764680,0.903672,-0.006007
1.180000,1.980000,0.023498,0.040000,-327087214.685131,-30515850335.906380,47466387295.920906,-21292154853.584263,-0.670744,0.798487,-0.401157
1.220000,1.980000,0.021376,0.040000,-179087639.784496,-16028658494.268084,26001636761.587746,-37073694781.662056,-0.358358,0.433517,-0.698490
1.260000,1.980000,0.020158,0.040000,21685944.423399,3954296699.496573,-5252359550.208538,-42084316750.637833,0.081838,-0.091621,-0.792893
1.300000,1.980000,0.023625,0.040000,215384194.998314,24472487326.345551,-38380953637.601753,-33129561358.927464,0.539689,-0.644506,-0.624180
1.340000,1.980000,0.021292,0.040000,333356817.702836,37776982926.086121,-61154818398.631813,-11161585765.172253,0.843876,-1.020057,-0.210291
1.380000,1.980000,0.020189,0.040000,325457289.147922,37070484165.866409,-61781429478.835800,17185484211.462490,0.838100,-1.024327,0.323784
1.420000,1.980000,0.023753,0.040000,187340784.484108,20783163463.818619,-35863108031.513313,40506414596.682236,0.476801,-0.590447,0.763164
1.460000,1.980000,0.021211,0.040000,-30938768.970174,-6439856557.448131,9768931839.691544,47169811021.687714,-0.140147,0.165236,0.888707
1.500000,1.980000,0.020223,0.040000,-230887899.742709,-31760455090.515240,55022954807.902702,31473461857.679367,-0.729869,0.905181,0.592978
1.540000,1.980000,0.023883,0.040000,-315651217.477778,-43007459059.370567,76779724211.853027,-1649195870.204874,-1.001172,1.255688,-0.031072
1.580000,1.980000,0.021133,0.040000,-230114184.059659,-30813973211.688213,56940922156.980301,-36247739347.582474,-0.728227,0.925126,-0.682928
1.620000,1.980000,0.020260,0.040000,-13351989.758069,382239550.852077,-517725450.515525,-51331414120.975044,0.007967,-0.008988,-0.967114
1.660000,1.980000,0.024015,0.040000,210465061.307322,34117023949.211063,-65371496376.540009,-33433081997.098087,0.819440,-1.054981,-0.629899
1.700000,1.980000,0.021057,0.040000,285705812.321415,45620879127.577415,-89576440658.933609,9855324570.282185,1.107968,-1.439228,0.185680
1.740000,1.980000,0.020299,0.040000,143566440.890780,22111694614.667652,-43303875526.056938,47679697520.074043,0.536379,-0.696088,0.898313
1.780000,1.980000,0.024148,0.040000,-116243215.596785,-22287713705.306141,47992496248.670036,45587643086.763779,-0.565201,0.758919,0.858898
1.820000,1.980000,0.020983,0.040000,-262643753.850458,-47946108495.854477,101810468088.645752,21215049.414205,-1.207783,1.613718,0.000400
1.860000,1.980000,0.020342,0.040000,-136282376.568146,-24466088774.655437,48587961156.397469,-45356596525.524872,-0.597296,0.779084,-0.854545
1.900000,1.980000,0.024283,0.040000,140734097.299404,28720589309.956970,-69192483348.733719,-37001223867.571175,0.769867,-1.074872,-0.697125
1.940000,1.980000,0.020912,0.040000,223941004.355877,45709803534.811592,-100024511845.825409,17072108564.092293,1.168195,-1.577524,0.321648
1.980000,1.980000,0.020387,0.040000,-18328320.031916,-3888354175.973415,20388079359.733917,39881783717.853905,-0.166518,0.290864,0.751396
2.020000,1.980000,0.024420,0.040000,-210044006.024719,-47028723064.768646,106005424858.687073,-1922239496.672423,-1.219395,1.663857,-0.036216
2.060000,1.980000,0.020843,0.040000,8928610.312028,3331840616.964888,-12671491482.930218,-28811221067.169914,0.115563,-0.185949,-0.542820
2.100000,1.980000,0.020435,0.040000,184933401.200782,50814441413.053665,-87963276266.685654,1275996275.227453,1.167345,-1.447307,0.024041
2.140000,1.980000,0.024558,0.040000,-94481511.119061,-27896757633.483997,48921715739.939896,13432950963.271658,-0.644428,0.802877,0.253085
2.180000,1.980000,0.020777,0.040000,-38558983.621114,-5586001358.012655,25672001832.564381,-6601311561.719460,-0.218773,0.370146,-0.124373
2.220000,1.980000,0.020485,0.040000,113035760.541703,36771500019.167107,-49230000238.746460,-2911506634.103923,0.763214,-0.857104,-0.054854
2.260000,1.980000,0.024698,0.040000,-55345983.697705,-19627834108.696217,21713291215.062180,8120034662.048537,-0.381587,0.397304,0.152986
2.300000,1.980000,0.020713,0.040000,2572449.445992,4543703512.303082,4846089481.271662,790676676.063795,0.032533,0.038230,0.014897
2.340000,1.980000,0.020538,0.040000,2334707.152199,-1444454257.526417,-4667989678.689006,-2613775210.753461,0.007334,-0.053399,-0.049245
2.380000,1.980000,0.024839,0.040000,-384966.353680,-118976564.255390,245341987.979836,219046030.322790,-0.002956,0.003908,0.004127
2.420000,1.980000,0.020652,0.040000,24134.784170,140501379.206660,170784878.941176,114820534.924817,0.000888,0.001458,0.002163
2.460000,1.980000,0.020594,0.040000,3984.680661,83544661.214070,-14231469.389095,20536962.271376,0.001182,-0.000660,0.000387
2.500000,1.980000,0.005075,0.040000,4413.145083,1108028.832781,12520040.168687,37758825.349089,-0.000056,0.000159,0.000711
