x,y,R,s,phi,phi_an,sigma_xx,sigma_yy,tau_xy,epsilon_xx,epsilon_yy,epsilon_xy,sigma_rr,sigma_tt,tau_rt,epsilon_rr,epsilon_tt,epsilon_rt
-0.0900249,-0.99,0.244161,0.01,65.9827,490.05,-568.245,569.702,100.057,-1.07124e-08,1.07272e-08,1.88514e-09,578.417,-576.961,4.21358,1.08914e-08,-1.08766e-08,7.93863e-11
-0.0800249,-0.99,0.243536,0.01,65.4984,490.05,-573.392,569.292,91.8847,-1.07852e-08,1.07436e-08,1.73116e-09,576.632,-580.733,1.07552,1.08819e-08,-1.09235e-08,2.02633e-11
-0.0700249,-0.99,0.242565,0.01,65.0703,490.05,-577.77,569.23,82.293,-1.08484e-08,1.07618e-08,1.55045e-09,575.104,-583.644,-0.747705,1.08724e-08,-1.09591e-08,-1.40872e-11
-0.0600249,-0.99,0.24194,0.01,64.6988,490.05,-580.257,571.298,70.8186,-1.08934e-08,1.08025e-08,1.33426e-09,575.636,-584.596,-0.735458,1.08843e-08,-1.09752e-08,-1.38565e-11
-0.0500249,-0.99,0.241501,0.01,64.384,490.05,-582.257,573.236,59.1549,-1.09308e-08,1.08393e-08,1.11451e-09,576.256,-585.277,-0.615015,1.08962e-08,-1.09877e-08,-1.15872e-11
-0.0400249,-0.99,0.240876,0.01,64.1262,490.05,-583.899,574.827,47.4181,-1.09616e-08,1.08695e-08,8.93384e-10,576.764,-585.836,-0.493443,1.0906e-08,-1.09981e-08,-9.29674e-12
-0.0300249,-0.99,0.240664,0.01,63.9254,490.05,-585.18,576.069,35.6226,-1.09855e-08,1.08931e-08,6.7115e-10,577.16,-586.272,-0.370961,1.09136e-08,-1.10061e-08,-6.98912e-12
-0.0200249,-0.99,0.240343,0.01,63.7819,490.05,-586.097,576.957,23.7829,-1.10027e-08,1.09099e-08,4.48083e-10,577.443,-586.583,-0.247793,1.09191e-08,-1.10118e-08,-4.66856e-12
-0.0100249,-0.99,0.240133,0.01,63.6957,490.05,-586.648,577.492,11.9136,-1.1013e-08,1.09201e-08,2.2446e-10,577.614,-586.77,-0.124166,1.09224e-08,-1.10153e-08,-2.33935e-12
-2.48653e-05,-0.99,0.240339,0.01,63.6669,490.05,-586.833,577.67,0.0295563,-1.10164e-08,1.09235e-08,5.56857e-13,577.67,-586.833,-0.000308073,1.09235e-08,-1.10164e-08,-5.80427e-15
0.00997513,-0.99,0.240133,0.01,63.6954,490.05,-586.65,577.493,-11.8546,-1.1013e-08,1.09201e-08,-2.23347e-10,577.614,-586.771,0.12355,1.09224e-08,-1.10153e-08,2.32776e-12
0.0199751,-0.99,0.240341,0.01,63.7813,490.05,-586.101,576.961,-23.7239,-1.10027e-08,1.091e-08,-4.46972e-10,577.445,-586.584,0.247179,1.09191e-08,-1.10119e-08,4.657e-12
0.0299751,-0.99,0.240664,0.01,63.9246,490.05,-585.185,576.074,-35.5638,-1.09856e-08,1.08932e-08,-6.70043e-10,577.162,-586.274,0.37035,1.09137e-08,-1.10061e-08,6.9776e-12
0.0399751,-0.99,0.240873,0.01,64.125,490.05,-583.906,574.834,-47.3596,-1.09617e-08,1.08697e-08,-8.92282e-10,576.766,-585.839,0.492835,1.09061e-08,-1.09981e-08,9.28531e-12
0.0499751,-0.99,0.241497,0.01,64.3826,490.05,-582.266,573.245,-59.0967,-1.0931e-08,1.08395e-08,-1.11342e-09,576.259,-585.28,0.614413,1.08963e-08,-1.09878e-08,1.15759e-11
0.0599751,-0.99,0.241938,0.01,64.6971,490.05,-580.268,571.308,-70.7608,-1.08936e-08,1.08027e-08,-1.33318e-09,575.639,-584.6,0.734862,1.08843e-08,-1.09752e-08,1.38452e-11
0.0699751,-0.99,0.242561,0.01,65.0683,490.05,-577.783,569.242,-82.2357,-1.08486e-08,1.0762e-08,-1.54937e-09,575.108,-583.648,0.747136,1.08725e-08,-1.09591e-08,1.40765e-11
0.0799751,-0.99,0.243533,0.01,65.4961,490.05,-573.407,569.306,-91.8279,-1.07855e-08,1.07439e-08,-1.73009e-09,576.637,-580.738,-1.07603,1.0882e-08,-1.09236e-08,-2.02731e-11
0.0899751,-0.99,0.244157,0.01,65.9802,490.05,-568.261,569.718,-100.001,-1.07127e-08,1.07275e-08,-1.88407e-09,578.423,-576.967,-4.21455,1.08915e-08,-1.08767e-08,-7.94045e-11
-0.170025,-0.98,0.244709,0.01,66.2967,480.2,-542.954,544.099,191.749,-1.02345e-08,1.02462e-08,3.61265e-09,576.925,-575.78,2.54437,1.08646e-08,-1.0853e-08,4.79375e-11
-0.160025,-0.98,0.243238,0.01,65.3569,480.2,-550.29,547.113,183.897,-1.0354e-08,1.03217e-08,3.46472e-09,577.109,-580.287,0.197289,1.08869e-08,-1.09191e-08,3.71703e-12
-0.150025,-0.98,0.24153,0.01,64.4713,480.2,-557.437,549.691,175.302,-1.04688e-08,1.03902e-08,3.3028e-09,576.783,-584.529,-1.66838,1.09006e-08,-1.09792e-08,-3.14333e-11
-0.140025,-0.98,0.240051,0.01,63.6402,480.2,-562.758,554.423,164.723,-1.05664e-08,1.04819e-08,3.10348e-09,578.202,-586.537,-1.69981,1.09299e-08,-1.10145e-08,-3.20254e-11
-0.130025,-0.98,0.238882,0.01,62.8642,480.2,-567.603,559.123,153.82,-1.06571e-08,1.05711e-08,2.89805e-09,579.742,-588.223,-1.59156,1.09596e-08,-1.10456e-08,-2.99859e-11
-0.120025,-0.98,0.237396,0.01,62.1438,480.2,-572.195,563.493,142.708,-1.07427e-08,1.06544e-08,2.68871e-09,581.149,-589.851,-1.45338,1.0987e-08,-1.10753e-08,-2.73826e-11
-0.110025,-0.98,0.236324,0.01,61.4793,480.2,-581.779,566.543,130.067,-1.08948e-08,1.07402e-08,2.45054e-09,581.09,-596.327,0.488568,1.10143e-08,-1.11689e-08,9.2049e-12
-0.100025,-0.98,0.235272,0.01,60.8713,480.2,-579.465,570.444,118.775,-1.08782e-08,1.07867e-08,2.23779e-09,582.584,-591.605,-0.169213,1.10154e-08,-1.1107e-08,-3.18808e-12
-0.0900249,-0.98,0.234197,0.01,60.32,480.2,-575.512,573.878,105.139,-1.08359e-08,1.08193e-08,1.98088e-09,583.415,-585.049,1.32258,1.0999e-08,-1.10156e-08,2.49182e-11
-0.0800249,-0.98,0.233545,0.01,59.8258,480.2,-578.795,576.894,93.756,-1.08966e-08,1.08773e-08,1.76642e-09,584.45,-586.35,1.23226,1.10196e-08,-1.10389e-08,2.32164e-11
-0.0700249,-0.98,0.232601,0.01,59.389,480.2,-582.115,578.345,83.4871,-1.0951e-08,1.09127e-08,1.57295e-09,584.32,-588.091,-0.140697,1.10253e-08,-1.10636e-08,-2.65082e-12
-0.0600249,-0.98,0.231949,0.01,59.0099,480.2,-584.502,580.691,71.7647,-1.09958e-08,1.09571e-08,1.35209e-09,585.095,-588.905,-0.127127,1.10401e-08,-1.10787e-08,-2.39515e-12
-0.0500249,-0.98,0.231537,0.01,58.6887,480.2,-586.531,582.694,59.9464,-1.10339e-08,1.0995e-08,1.12942e-09,585.76,-589.596,-0.105894,1.10527e-08,-1.10917e-08,-1.99511e-12
-0.0400249,-0.98,0.230885,0.01,58.4255,480.2,-588.197,584.339,48.0534,-1.10652e-08,1.10261e-08,9.05353e-10,586.305,-590.163,-0.0846897,1.10631e-08,-1.11022e-08,-1.5956e-12
-0.0300249,-0.98,0.230664,0.01,58.2207,480.2,-589.497,585.622,36.1003,-1.10896e-08,1.10503e-08,6.80151e-10,586.73,-590.605,-0.0635088,1.10712e-08,-1.11105e-08,-1.19654e-12
-0.0200249,-0.98,0.230352,0.01,58.0742,480.2,-590.428,586.541,24.1021,-1.11071e-08,1.10677e-08,4.54097e-10,587.034,-590.921,-0.0423462,1.1077e-08,-1.11164e-08,-7.97828e-13
-0.0100249,-0.98,0.230133,0.01,57.9863,480.2,-590.988,587.093,12.0736,-1.11176e-08,1.10781e-08,2.27473e-10,587.217,-591.111,-0.0211962,1.10804e-08,-1.11199e-08,-3.99349e-13
-2.48653e-05,-0.98,0.230348,0.01,57.9568,480.2,-591.175,587.278,0.0299531,-1.11211e-08,1.10816e-08,5.64335e-13,587.278,-591.175,-5.25723e-05,1.10816e-08,-1.11211e-08,-9.90493e-16
0.00997513,-0.98,0.230133,0.01,57.986,480.2,-590.989,587.095,-12.0137,-1.11177e-08,1.10781e-08,-2.26345e-10,587.217,-591.112,0.0210911,1.10804e-08,-1.112e-08,3.97368e-13
0.0199751,-0.98,0.23035,0.01,58.0737,480.2,-590.432,586.544,-24.0423,-1.11072e-08,1.10677e-08,-4.52971e-10,587.035,-590.923,0.042241,1.1077e-08,-1.11164e-08,7.95845e-13
0.0299751,-0.98,0.230664,0.01,58.2198,480.2,-589.503,585.628,-36.0407,-1.10897e-08,1.10504e-08,-6.79029e-10,586.732,-590.607,0.0634035,1.10712e-08,-1.11105e-08,1.19456e-12
0.0399751,-0.98,0.230883,0.01,58.4244,480.2,-588.205,584.346,-47.9941,-1.10653e-08,1.10262e-08,-9.04236e-10,586.308,-590.166,0.0845843,1.10632e-08,-1.11023e-08,1.59362e-12
0.0499751,-0.98,0.231533,0.01,58.6872,480.2,-586.54,582.703,-59.8874,-1.10341e-08,1.09952e-08,-1.12831e-09,585.763,-589.6,0.105789,1.10528e-08,-1.10917e-08,1.99312e-12
0.0599751,-0.98,0.231947,0.01,59.0081,480.2,-584.513,580.702,-71.7062,-1.0996e-08,1.09573e-08,-1.35099e-09,585.098,-588.909,0.127021,1.10402e-08,-1.10788e-08,2.39316e-12
0.0699751,-0.98,0.232597,0.01,59.387,480.2,-582.128,578.357,-83.429,-1.09512e-08,1.0913e-08,-1.57185e-09,584.325,-588.095,0.140592,1.10254e-08,-1.10637e-08,2.64883e-12
0.0799751,-0.98,0.233543,0.01,59.8235,480.2,-578.809,576.909,-93.6983,-1.08968e-08,1.08776e-08,-1.76533e-09,584.455,-586.355,-1.23248,1.10197e-08,-1.1039e-08,-2.32207e-11
0.0899751,-0.98,0.234192,0.01,60.3174,480.2,-575.528,573.895,-105.081,-1.08362e-08,1.08196e-08,-1.9798e-09,583.421,-585.054,-1.32322,1.09991e-08,-1.10157e-08,-2.49302e-11
0.0999751,-0.98,0.235266,0.01,60.8684,480.2,-579.482,570.462,-118.718,-1.08786e-08,1.07871e-08,-2.23672e-09,582.59,-591.61,0.168882,1.10156e-08,-1.11071e-08,3.18184e-12
0.109975,-0.98,0.236319,0.01,61.4762,480.2,-581.798,566.562,-130.011,-1.08952e-08,1.07406e-08,-2.44948e-09,581.097,-596.333,-0.488701,1.10144e-08,-1.1169e-08,-9.20741e-12
0.119975,-0.98,0.237389,0.01,62.1403,480.2,-572.217,563.514,-142.653,-1.07431e-08,1.06548e-08,-2.68766e-09,581.156,-589.859,1.45283,1.09872e-08,-1.10754e-08,2.73721e-11
0.129975,-0.98,0.238874,0.01,62.8605,480.2,-567.627,559.145,-153.765,-1.06575e-08,1.05715e-08,-2.89702e-09,579.75,-588.231,1.59102,1.09597e-08,-1.10457e-08,2.99757e-11
0.139975,-0.98,0.240045,0.01,63.6362,480.2,-562.783,554.448,-164.669,-1.05669e-08,1.04824e-08,-3.10247e-09,578.21,-586.545,1.69928,1.09301e-08,-1.10146e-08,3.20154e-11
0.149975,-0.98,0.241521,0.01,64.467,480.2,-557.463,549.717,-175.25,-1.04693e-08,1.03907e-08,-3.3018e-09,576.792,-584.538,1.66788,1.09008e-08,-1.09794e-08,3.14238e-11
0.159975,-0.98,0.243231,0.01,65.3524,480.2,-550.318,547.14,-183.845,-1.03545e-08,1.03223e-08,-3.46374e-09,577.118,-580.297,-0.197861,1.08871e-08,-1.09193e-08,-3.72782e-12
0.169975,-0.98,0.2447,0.01,66.2919,480.2,-542.982,544.128,-191.697,-1.02351e-08,1.02467e-08,-3.61169e-09,576.935,-575.79,-2.54555,1.08648e-08,-1.08532e-08,-4.79595e-11
-0.220025,-0.97,0.244724,0.01,66.2974,470.45,-519.823,520.738,247.337,-9.79775e-09,9.80703e-09,4.65997e-09,576.535,-575.621,1.34968,1.08583e-08,-1.0849e-08,2.54288e-11
-0.210025,-0.97,0.242805,0.01,65.0723,470.45,-528.332,525.839,239.928,-9.94325e-09,9.91795e-09,4.52038e-09,577.877,-580.37,-0.410752,1.08984e-08,-1.09237e-08,-7.73881e-12
-0.200025,-0.97,0.240496,0.01,63.8992,470.45,-537.091,530.009,232.211,-1.00883e-08,1.00165e-08,4.37498e-09,578.346,-585.429,-2.19488,1.09272e-08,-1.0999e-08,-4.13528e-11
-0.190025,-0.97,0.238565,0.01,62.7787,470.45,-550.603,535.068,220.853,-1.03061e-08,1.01485e-08,4.161e-09,578.276,-593.811,0.296295,1.09626e-08,-1.11202e-08,5.58237e-12
-0.180025,-0.97,0.236801,0.01,61.7116,470.45,-552.422,541.519,210.866,-1.03606e-08,1.02499e-08,3.97285e-09,580.757,-591.661,-0.556596,1.09892e-08,-1.10998e-08,-1.04866e-11
-0.170025,-0.97,0.234855,0.01,60.6983,470.45,-550.384,547.597,198.209,-1.03574e-08,1.03292e-08,3.73437e-09,582.282,-585.069,0.328707,1.09826e-08,-1.10109e-08,6.19302e-12
-0.160025,-0.97,0.233322,0.01,59.7397,470.45,-555.458,553.594,187.219,-1.0457e-08,1.04381e-08,3.52731e-09,584.346,-586.209,0.819223,1.10175e-08,-1.10364e-08,1.54346e-11
-0.150025,-0.97,0.231678,0.01,58.8361,470.45,-561.473,558.005,177.727,-1.05634e-08,1.05282e-08,3.34849e-09,585.543,-589.011,-0.324466,1.10471e-08,-1.10822e-08,-6.11312e-12
-0.140025,-0.97,0.230136,0.01,57.9882,470.45,-566.7,563.156,166.896,-1.06615e-08,1.06256e-08,3.14442e-09,587.294,-590.837,-0.310603,1.10804e-08,-1.11163e-08,-5.85195e-12
-0.130025,-0.97,0.229021,0.01,57.1964,470.45,-571.616,568.01,155.857,-1.07539e-08,1.07173e-08,2.93643e-09,588.941,-592.547,-0.288212,1.11117e-08,-1.11482e-08,-5.43008e-12
-0.120025,-0.97,0.227482,0.01,56.4613,470.45,-576.21,572.546,144.628,-1.08402e-08,1.0803e-08,2.72487e-09,590.474,-594.139,-0.265846,1.11408e-08,-1.1178e-08,-5.00869e-12
-0.110025,-0.97,0.226363,0.01,55.7833,470.45,-581.054,576.671,132.816,-1.09283e-08,1.08839e-08,2.50234e-09,591.712,-596.095,0.20771,1.11673e-08,-1.12117e-08,3.91338e-12
-0.100025,-0.97,0.225359,0.01,55.1628,470.45,-583.527,580.294,121.635,-1.09799e-08,1.09471e-08,2.29168e-09,592.871,-596.103,-0.327195,1.11841e-08,-1.12169e-08,-6.16455e-12
-0.0900249,-0.97,0.224236,0.01,54.6001,470.45,-583.501,582.835,109.393,-1.09906e-08,1.09838e-08,2.06103e-09,593.006,-593.673,-0.202706,1.11755e-08,-1.11822e-08,-3.8191e-12
-0.0800249,-0.97,0.223555,0.01,54.0958,470.45,-585.863,585.942,97.0488,-1.10383e-08,1.10391e-08,1.82846e-09,593.925,-593.846,0.283519,1.11895e-08,-1.11887e-08,5.34166e-12
-0.0700249,-0.97,0.22264,0.01,53.65,470.45,-588.806,588.617,85.4147,-1.10926e-08,1.10907e-08,1.60926e-09,594.781,-594.97,0.0291416,1.12068e-08,-1.12088e-08,5.49044e-13
-0.0600249,-0.97,0.221959,0.01,53.2631,470.45,-591.25,591.06,73.4187,-1.11387e-08,1.11367e-08,1.38325e-09,595.601,-595.792,0.025224,1.12223e-08,-1.12242e-08,4.75236e-13
-0.0500249,-0.97,0.221576,0.01,52.9352,470.45,-593.327,593.135,61.3302,-1.11778e-08,1.11758e-08,1.1555e-09,596.297,-596.489,0.0211953,1.12354e-08,-1.12374e-08,3.99332e-13
-0.0400249,-0.97,0.220895,0.01,52.6666,470.45,-595.033,594.84,49.164,-1.12099e-08,1.1208e-08,9.26279e-10,596.868,-597.061,0.0170727,1.12462e-08,-1.12481e-08,3.21659e-13
-0.0300249,-0.97,0.220664,0.01,52.4576,470.45,-596.364,596.17,36.9355,-1.1235e-08,1.1233e-08,6.95887e-10,597.313,-597.506,0.0128742,1.12546e-08,-1.12565e-08,2.42558e-13
-0.0200249,-0.97,0.220362,0.01,52.3081,470.45,-597.316,597.122,24.6601,-1.12529e-08,1.1251e-08,4.6461e-10,597.631,-597.825,0.00861848,1.12606e-08,-1.12625e-08,1.62377e-13
-0.0100249,-0.97,0.220133,0.01,52.2183,470.45,-597.889,597.694,12.3532,-1.12637e-08,1.12618e-08,2.32742e-10,597.822,-598.017,0.00432426,1.12642e-08,-1.12661e-08,8.14716e-14
-2.48653e-05,-0.97,0.220358,0.01,52.1882,470.45,-598.081,597.886,0.0306471,-1.12673e-08,1.12654e-08,5.77408e-13,597.886,-598.081,1.07334e-05,1.12654e-08,-1.12673e-08,2.02223e-16
0.00997513,-0.97,0.220133,0.01,52.218,470.45,-597.891,597.696,-12.292,-1.12638e-08,1.12618e-08,-2.31588e-10,597.823,-598.017,-0.00430284,1.12642e-08,-1.12661e-08,-8.10681e-14
0.0199751,-0.97,0.22036,0.01,52.3075,470.45,-597.32,597.126,-24.599,-1.1253e-08,1.1251e-08,-4.63459e-10,597.632,-597.826,-0.0085972,1.12606e-08,-1.12626e-08,-1.61976e-13
0.0299751,-0.97,0.220664,0.01,52.4567,470.45,-596.369,596.175,-36.8746,-1.12351e-08,1.12331e-08,-6.94739e-10,597.315,-597.508,-0.0128532,1.12546e-08,-1.12566e-08,-2.42162e-13
0.0399751,-0.97,0.220892,0.01,52.6655,470.45,-595.041,594.848,-49.1034,-1.12101e-08,1.12081e-08,-9.25136e-10,596.87,-597.063,-0.017052,1.12462e-08,-1.12482e-08,-3.21269e-13
0.0499751,-0.97,0.221572,0.01,52.9337,470.45,-593.337,593.145,-61.2698,-1.1178e-08,1.1176e-08,-1.15436e-09,596.3,-596.492,-0.021175,1.12355e-08,-1.12374e-08,-3.98949e-13
0.0599751,-0.97,0.221957,0.01,53.2613,470.45,-591.262,591.071,-73.3588,-1.11389e-08,1.11369e-08,-1.38212e-09,595.605,-595.796,-0.0252043,1.12224e-08,-1.12243e-08,-4.74863e-13
0.0699751,-0.97,0.222636,0.01,53.6479,470.45,-588.819,588.63,-85.3553,-1.10929e-08,1.1091e-08,-1.60814e-09,594.785,-594.975,-0.0291224,1.12069e-08,-1.12088e-08,-5.48683e-13
0.0799751,-0.97,0.223553,0.01,54.0934,470.45,-585.877,585.957,-96.9899,-1.10386e-08,1.10394e-08,-1.82735e-09,593.93,-593.851,-0.283576,1.11896e-08,-1.11888e-08,-5.34273e-12
0.0899751,-0.97,0.224231,0.01,54.5975,470.45,-583.517,582.851,-109.335,-1.09909e-08,1.09842e-08,-2.05993e-09,593.012,-593.678,0.202553,1.11756e-08,-1.11823e-08,3.81621e-12
0.0999751,-0.97,0.225352,0.01,55.1598,470.45,-583.545,580.312,-121.578,-1.09803e-08,1.09475e-08,-2.29059e-09,592.877,-596.109,0.327286,1.11842e-08,-1.1217e-08,6.16625e-12
0.109975,-0.97,0.226358,0.01,55.78,470.45,-581.074,576.691,-132.759,-1.09287e-08,1.08842e-08,-2.50126e-09,591.719,-596.102,-0.207727,1.11674e-08,-1.12119e-08,-3.9137e-12
0.119975,-0.97,0.227475,0.01,56.4578,470.45,-576.232,572.567,-144.572,-1.08406e-08,1.08034e-08,-2.72381e-09,590.482,-594.146,0.265735,1.1141e-08,-1.11781e-08,5.0066e-12
0.129975,-0.97,0.229016,0.01,57.1926,470.45,-571.64,568.034,-155.801,-1.07543e-08,1.07178e-08,-2.93538e-09,588.949,-592.555,0.288101,1.11118e-08,-1.11484e-08,5.42799e-12
0.139975,-0.97,0.230129,0.01,57.9841,470.45,-566.725,563.181,-166.842,-1.0662e-08,1.06261e-08,-3.14339e-09,587.302,-590.846,0.310492,1.10805e-08,-1.11165e-08,5.84985e-12
0.149975,-0.97,0.231669,0.01,58.8317,470.45,-561.499,558.031,-177.674,-1.05639e-08,1.05287e-08,-3.34748e-09,585.552,-589.02,0.324354,1.10472e-08,-1.10824e-08,6.11102e-12
0.159975,-0.97,0.233315,0.01,59.735,470.45,-555.486,553.622,-187.166,-1.04576e-08,1.04387e-08,-3.52632e-09,584.355,-586.219,-0.819535,1.10177e-08,-1.10366e-08,-1.54405e-11
0.169975,-0.97,0.234847,0.01,60.6934,470.45,-550.413,547.627,-198.157,-1.0358e-08,1.03297e-08,-3.73339e-09,582.292,-585.078,-0.329297,1.09828e-08,-1.10111e-08,-6.20415e-12
0.179975,-0.97,0.236791,0.01,61.7064,470.45,-552.453,541.55,-210.816,-1.03611e-08,1.02505e-08,-3.97189e-09,580.768,-591.671,0.556465,1.09894e-08,-1.11e-08,1.04841e-11
0.189975,-0.97,0.238556,0.01,62.7733,470.45,-550.636,535.1,-220.804,-1.03068e-08,1.01491e-08,-4.16007e-09,578.287,-593.823,-0.296419,1.09628e-08,-1.11204e-08,-5.58471e-12
0.199975,-0.97,0.240486,0.01,63.8935,470.45,-537.126,530.042,-232.162,-1.0089e-08,1.00171e-08,-4.37407e-09,578.357,-585.441,2.19444,1.09274e-08,-1.09992e-08,4.13444e-11
0.209975,-0.97,0.242797,0.01,65.0663,470.45,-528.368,525.874,-239.881,-9.94391e-09,9.91861e-09,-4.51949e-09,577.889,-580.383,0.41017,1.08986e-08,-1.09239e-08,7.72785e-12
0.219975,-0.97,0.244713,0.01,66.2912,470.45,-519.86,520.775,-247.291,-9.79843e-09,9.80772e-09,-4.6591e-09,576.548,-575.633,-1.3509,1.08585e-08,-1.08492e-08,-2.54517e-11
-0.260025,-0.96,0.244863,0.01,66.2695,460.8,-497.097,497.81,290.423,-9.36869e-09,9.37593e-09,5.47174e-09,576.382,-575.669,0.338649,1.08563e-08,-1.0849e-08,6.38034e-12
-0.250025,-0.96,0.242096,0.01,64.8158,460.8,-506.467,504.493,283.484,-9.53355e-09,9.51353e-09,5.34101e-09,578.558,-580.532,-0.897464,1.0909e-08,-1.0929e-08,-1.69087e-11
-0.240025,-0.96,0.239715,0.01,63.412,460.8,-523.413,508.55,274.834,-9.79679e-09,9.64601e-09,5.17804e-09,577.18,-592.043,0.342657,1.0939e-08,-1.10898e-08,6.45585e-12
-0.230025,-0.96,0.237363,0.01,62.0588,460.8,-527.897,516.133,266.13,-9.89474e-09,9.77539e-09,5.01404e-09,580.057,-591.821,-0.654087,1.09798e-08,-1.10991e-08,-1.23234e-11
-0.220025,-0.96,0.234959,0.01,60.7571,460.8,-527.133,523.699,254.477,-9.91656e-09,9.88172e-09,4.7945e-09,582.082,-585.515,-0.253519,1.09817e-08,-1.10165e-08,-4.77644e-12
-0.210025,-0.96,0.232961,0.01,59.5075,460.8,-533.193,531.409,244.074,-1.00379e-08,1.00198e-08,4.59849e-09,584.699,-586.482,0.493993,1.10238e-08,-1.10419e-08,9.30712e-12
-0.200025,-0.96,0.230736,0.01,58.3109,460.8,-540.744,537.576,235.371,-1.01742e-08,1.0142e-08,4.43452e-09,586.712,-589.88,-0.45487,1.10678e-08,-1.10999e-08,-8.57001e-12
-0.190025,-0.96,0.228722,0.01,57.1679,460.8,-548.37,544.265,224.93,-1.03138e-08,1.02721e-08,4.2378e-09,588.757,-592.862,0.156247,1.11104e-08,-1.1152e-08,2.94378e-12
-0.180025,-0.96,0.227045,0.01,56.0792,460.8,-554.334,550.695,214.913,-1.04282e-08,1.03912e-08,4.04909e-09,591.021,-594.66,-0.129522,1.1151e-08,-1.11879e-08,-2.44028e-12
-0.170025,-0.96,0.225015,0.01,55.0455,460.8,-557.116,555.983,203.945,-1.04915e-08,1.048e-08,3.84244e-09,592.173,-593.307,-0.39536,1.11618e-08,-1.11733e-08,-7.4488e-12
-0.160025,-0.96,0.223414,0.01,54.0673,460.8,-561.881,561.852,192.474,-1.0586e-08,1.05857e-08,3.62631e-09,593.904,-593.934,0.187308,1.11896e-08,-1.11899e-08,3.52899e-12
-0.150025,-0.96,0.22184,0.01,53.1453,460.8,-567.612,567.436,181.761,-1.06934e-08,1.06916e-08,3.42449e-09,595.832,-596.008,0.0567689,1.12266e-08,-1.12284e-08,1.06956e-12
-0.140025,-0.96,0.220229,0.01,52.28,460.8,-572.961,572.782,170.693,-1.07941e-08,1.07923e-08,3.21596e-09,597.671,-597.85,0.054191,1.12613e-08,-1.12631e-08,1.02099e-12
-0.130025,-0.96,0.219063,0.01,51.472,460.8,-577.99,577.809,159.417,-1.08889e-08,1.0887e-08,3.0035e-09,599.394,-599.575,0.0513834,1.12937e-08,-1.12956e-08,9.68092e-13
-0.120025,-0.96,0.217575,0.01,50.7217,460.8,-582.691,582.507,147.943,-1.09774e-08,1.09756e-08,2.78734e-09,600.998,-601.182,0.0483556,1.13239e-08,-1.13258e-08,9.11047e-13
-0.110025,-0.96,0.216405,0.01,50.0297,460.8,-587.053,586.866,136.286,-1.10596e-08,1.10577e-08,2.56772e-09,602.481,-602.668,0.0451187,1.13519e-08,-1.13538e-08,8.50063e-13
-0.100025,-0.96,0.215453,0.01,49.3963,460.8,-591.063,590.877,124.461,-1.11352e-08,1.11333e-08,2.34491e-09,603.841,-604.027,0.0393632,1.13775e-08,-1.13794e-08,7.41625e-13
-0.0900249,-0.96,0.214278,0.01,48.8221,460.8,-594.412,594.425,112.476,-1.11991e-08,1.11993e-08,2.11912e-09,604.973,-604.959,-0.00302563,1.1398e-08,-1.13978e-08,-5.70046e-14
-0.0800249,-0.96,0.213566,0.01,48.3072,460.8,-597.693,597.714,100.345,-1.1261e-08,1.12612e-08,1.89057e-09,606.079,-606.057,5.71441e-06,1.14188e-08,-1.14186e-08,1.07663e-16
-0.0700249,-0.96,0.212683,0.01,47.8521,460.8,-600.613,600.635,88.0908,-1.1316e-08,1.13162e-08,1.65968e-09,607.06,-607.039,5.09039e-06,1.14373e-08,-1.14371e-08,9.59059e-17
-0.0600249,-0.96,0.21197,0.01,47.4571,460.8,-603.157,603.179,75.7233,-1.13639e-08,1.13641e-08,1.42667e-09,607.914,-607.892,4.43185e-06,1.14534e-08,-1.14531e-08,8.34986e-17
-0.0500249,-0.96,0.21162,0.01,47.1224,460.8,-605.319,605.342,63.2584,-1.14047e-08,1.14049e-08,1.19182e-09,608.638,-608.616,3.74233e-06,1.1467e-08,-1.14668e-08,7.05077e-17
-0.0400249,-0.96,0.210906,0.01,46.8483,460.8,-607.095,607.117,50.7118,-1.14381e-08,1.14383e-08,9.55439e-10,609.232,-609.209,3.02656e-06,1.14782e-08,-1.1478e-08,5.70222e-17
-0.0300249,-0.96,0.210664,0.01,46.6348,460.8,-608.48,608.503,38.0995,-1.14642e-08,1.14644e-08,7.17817e-10,609.694,-609.672,2.28967e-06,1.14869e-08,-1.14867e-08,4.31387e-17
-0.0200249,-0.96,0.210373,0.01,46.4822,460.8,-609.472,609.495,25.4378,-1.14829e-08,1.14831e-08,4.79263e-10,610.025,-610.003,1.5365e-06,1.14931e-08,-1.14929e-08,2.89486e-17
-0.0100249,-0.96,0.210133,0.01,46.3905,460.8,-610.068,610.091,12.743,-1.14941e-08,1.14944e-08,2.40085e-10,610.224,-610.202,7.71925e-07,1.14969e-08,-1.14966e-08,1.45435e-17
-2.48653e-05,-0.96,0.210369,0.01,46.3599,460.8,-610.268,610.291,0.0316141,-1.14979e-08,1.14981e-08,5.95628e-13,610.291,-610.268,1.61414e-09,1.14981e-08,-1.14979e-08,3.04113e-20
0.00997513,-0.96,0.210133,0.01,46.3902,460.8,-610.07,610.093,-12.6798,-1.14942e-08,1.14944e-08,-2.38895e-10,610.225,-610.202,-7.68196e-07,1.14969e-08,-1.14967e-08,-1.44733e-17
0.0199751,-0.96,0.21037,0.01,46.4816,460.8,-609.476,609.499,-25.3747,-1.1483e-08,1.14832e-08,-4.78074e-10,610.027,-610.004,-1.53214e-06,1.14932e-08,-1.14929e-08,-2.88664e-17
0.0299751,-0.96,0.210664,0.01,46.6339,460.8,-608.486,608.509,-38.0366,-1.14643e-08,1.14646e-08,-7.16632e-10,609.696,-609.674,-2.2856e-06,1.14869e-08,-1.14867e-08,-4.30621e-17
0.0399751,-0.96,0.210903,0.01,46.8471,460.8,-607.103,607.125,-50.6492,-1.14383e-08,1.14385e-08,-9.5426e-10,609.234,-609.212,-3.0231e-06,1.14782e-08,-1.1478e-08,-5.6957e-17
0.0499751,-0.96,0.211615,0.01,47.1209,460.8,-605.329,605.351,-63.1962,-1.14048e-08,1.14051e-08,-1.19065e-09,608.641,-608.619,-3.73898e-06,1.14671e-08,-1.14668e-08,-7.04446e-17
0.0599751,-0.96,0.211968,0.01,47.4553,460.8,-603.169,603.191,-75.6615,-1.13641e-08,1.13644e-08,-1.42551e-09,607.918,-607.896,-4.42836e-06,1.14534e-08,-1.14532e-08,-8.34329e-17
0.0699751,-0.96,0.212679,0.01,47.85,460.8,-600.627,600.648,-88.0296,-1.13163e-08,1.13165e-08,-1.65853e-09,607.065,-607.043,-5.08734e-06,1.14374e-08,-1.14371e-08,-9.58484e-17
0.0799751,-0.96,0.213563,0.01,48.3048,460.8,-597.708,597.729,-100.285,-1.12613e-08,1.12615e-08,-1.88942e-09,606.084,-606.063,-5.71169e-06,1.14189e-08,-1.14187e-08,-1.07612e-16
0.0899751,-0.96,0.214274,0.01,48.8193,460.8,-594.429,594.442,-112.416,-1.11994e-08,1.11996e-08,-2.11799e-09,604.979,-604.965,0.003026,1.13981e-08,-1.1398e-08,5.70116e-14
0.0999751,-0.96,0.215446,0.01,49.3933,460.8,-591.082,590.896,-124.402,-1.11355e-08,1.11336e-08,-2.3438e-09,603.847,-604.033,-0.0393448,1.13776e-08,-1.13795e-08,-7.41279e-13
0.109975,-0.96,0.2164,0.01,50.0264,460.8,-587.074,586.887,-136.228,-1.106e-08,1.10581e-08,-2.56662e-09,602.488,-602.675,-0.0451021,1.1352e-08,-1.13539e-08,-8.49751e-13
0.119975,-0.96,0.217568,0.01,50.7181,460.8,-582.714,582.529,-147.886,-1.09779e-08,1.0976e-08,-2.78626e-09,601.005,-601.19,-0.04834,1.13241e-08,-1.1326e-08,-9.10754e-13
0.129975,-0.96,0.219058,0.01,51.4681,460.8,-578.015,577.833,-159.36,-1.08893e-08,1.08875e-08,-3.00243e-09,599.402,-599.584,-0.0513688,1.12939e-08,-1.12957e-08,-9.67819e-13
0.139975,-0.96,0.220222,0.01,52.2758,460.8,-572.986,572.808,-170.638,-1.07946e-08,1.07928e-08,-3.21491e-09,597.68,-597.859,-0.0541776,1.12614e-08,-1.12632e-08,-1.02074e-12
0.149975,-0.96,0.221831,0.01,53.1408,460.8,-567.639,567.464,-181.707,-1.06939e-08,1.06921e-08,-3.42346e-09,595.842,-596.017,-0.0567567,1.12268e-08,-1.12285e-08,-1.06933e-12
0.159975,-0.96,0.223407,0.01,54.0626,460.8,-561.91,561.881,-192.42,-1.05866e-08,1.05863e-08,-3.62531e-09,593.914,-593.944,-0.187375,1.11898e-08,-1.11901e-08,-3.53026e-12
0.169975,-0.96,0.225006,0.01,55.0405,460.8,-557.146,556.013,-203.893,-1.0492e-08,1.04805e-08,-3.84146e-09,592.184,-593.317,0.395291,1.1162e-08,-1.11735e-08,7.44752e-12
0.179975,-0.96,0.227034,0.01,56.0739,460.8,-554.366,550.727,-214.862,-1.04287e-08,1.03918e-08,-4.04813e-09,591.032,-594.671,0.129674,1.11512e-08,-1.11881e-08,2.44312e-12
0.189975,-0.96,0.228713,0.01,57.1624,460.8,-548.403,544.298,-224.88,-1.03144e-08,1.02727e-08,-4.23686e-09,588.769,-592.874,-0.156302,1.11106e-08,-1.11522e-08,-2.94482e-12
0.199975,-0.96,0.230725,0.01,58.3051,460.8,-540.779,537.61,-235.322,-1.01748e-08,1.01427e-08,-4.4336e-09,586.724,-589.893,0.454754,1.1068e-08,-1.11001e-08,8.56783e-12
0.209975,-0.96,0.232952,0.01,59.5014,460.8,-533.229,531.445,-244.026,-1.00386e-08,1.00205e-08,-4.59759e-09,584.712,-586.495,-0.494341,1.10241e-08,-1.10422e-08,-9.31366e-12
0.219975,-0.96,0.234948,0.01,60.7507,460.8,-527.169,523.736,-254.431,-9.91725e-09,9.88242e-09,-4.79362e-09,582.095,-585.528,0.253,1.09819e-08,-1.10168e-08,4.76666e-12
0.229975,-0.96,0.23735,0.01,62.0522,460.8,-527.935,516.171,-266.085,-9.89546e-09,9.77611e-09,-5.0132e-09,580.07,-591.834,0.654064,1.098e-08,-1.10994e-08,1.2323e-11
0.239975,-0.96,0.239704,0.01,63.4051,460.8,-523.453,508.59,-274.791,-9.79754e-09,9.64675e-09,-5.17722e-09,577.195,-592.058,-0.342797,1.09393e-08,-1.10901e-08,-6.4585e-12
0.249975,-0.96,0.242083,0.01,64.8087,460.8,-506.508,504.534,-283.442,-9.53432e-09,9.51429e-09,-5.34021e-09,578.573,-580.547,0.896891,1.09092e-08,-1.09293e-08,1.68979e-11
0.259975,-0.96,0.244848,0.01,66.2622,460.8,-497.138,497.852,-290.382,-9.36948e-09,9.37672e-09,-5.47096e-09,576.397,-575.684,-0.339852,1.08566e-08,-1.08493e-08,-6.40301e-12
-0.290025,-0.95,0.2435,0.01,65.5299,451.25,-478.587,479.073,322.921,-9.01897e-09,9.0239e-09,6.08401e-09,577.785,-577.3,-0.421209,1.08837e-08,-1.08788e-08,-7.93582e-12
-0.280025,-0.95,0.240555,0.01,63.9003,451.25,-495.835,485.569,314.527,-9.29718e-09,9.19303e-09,5.92587e-09,577.715,-587.981,1.91555,1.09291e-08,-1.10333e-08,3.60901e-11
-0.270025,-0.95,0.237707,0.01,62.319,451.25,-503.796,491.938,308.46,-9.44025e-09,9.31996e-09,5.81156e-09,579.749,-591.607,-0.476474,1.09744e-08,-1.10947e-08,-8.97704e-12
-0.260025,-0.95,0.23525,0.01,60.7866,451.25,-504.18,500.284,297.988,-9.48211e-09,9.44258e-09,5.61427e-09,582.033,-585.929,-0.680396,1.09828e-08,-1.10223e-08,-1.28191e-11
-0.250025,-0.95,0.232448,0.01,59.3042,451.25,-510.932,509.246,288.245,-9.61893e-09,9.60181e-09,5.4307e-09,585.054,-586.741,0.201054,1.10301e-08,-1.10472e-08,3.78798e-12
-0.240025,-0.95,0.229967,0.01,57.8725,451.25,-520.411,516.614,279.771,-9.78833e-09,9.74982e-09,5.27104e-09,587.276,-591.073,0.0950618,1.10811e-08,-1.11197e-08,1.79102e-12
-0.230025,-0.95,0.227722,0.01,56.4923,451.25,-528.388,524.604,270.802,-9.93869e-09,9.90029e-09,5.10206e-09,590.165,-593.949,0.035369,1.11355e-08,-1.11739e-08,6.66372e-13
-0.220025,-0.95,0.225216,0.01,55.1645,451.25,-532.861,531.466,260.978,-1.00333e-08,1.00192e-08,4.91697e-09,592.014,-593.409,-0.450967,1.116e-08,-1.11741e-08,-8.49648e-12
-0.210025,-0.95,0.22313,0.01,53.8898,451.25,-539.006,538.908,250.417,-1.01548e-08,1.01538e-08,4.718e-09,594.243,-594.341,0.120492,1.11963e-08,-1.11973e-08,2.27014e-12
-0.200025,-0.95,0.220997,0.01,52.669,451.25,-546.338,546.176,240.628,-1.02926e-08,1.0291e-08,4.53357e-09,596.827,-596.988,0.0683188,1.12453e-08,-1.12469e-08,1.28717e-12
-0.190025,-0.95,0.218893,0.01,51.5028,451.25,-553.383,553.217,230.502,-1.04253e-08,1.04237e-08,4.34279e-09,599.31,-599.476,0.0669844,1.12921e-08,-1.12938e-08,1.26203e-12
-0.180025,-0.95,0.21723,0.01,50.3919,451.25,-560.157,559.988,220.104,-1.05529e-08,1.05512e-08,4.14689e-09,601.686,-601.854,0.0646661,1.13368e-08,-1.13386e-08,1.21835e-12
-0.170025,-0.95,0.215189,0.01,49.337,451.25,-566.372,566.38,209.444,-1.06708e-08,1.06709e-08,3.94604e-09,603.865,-603.857,-0.00216137,1.13771e-08,-1.1377e-08,-4.07215e-14
-0.160025,-0.95,0.213515,0.01,48.3387,451.25,-572.55,572.568,198.525,-1.07873e-08,1.07874e-08,3.74033e-09,606.009,-605.991,9.7131e-06,1.14175e-08,-1.14173e-08,1.83001e-16
-0.150025,-0.95,0.212016,0.01,47.3977,451.25,-578.433,578.451,187.369,-1.08981e-08,1.08983e-08,3.53014e-09,608.041,-608.022,9.4579e-06,1.14558e-08,-1.14556e-08,1.78192e-16
-0.140025,-0.95,0.21033,0.01,46.5145,451.25,-583.996,584.015,175.982,-1.10029e-08,1.10031e-08,3.3156e-09,609.953,-609.934,9.14513e-06,1.14918e-08,-1.14916e-08,1.723e-16
-0.130025,-0.95,0.20911,0.01,45.6897,451.25,-589.228,589.248,164.375,-1.11015e-08,1.11017e-08,3.09692e-09,611.745,-611.726,8.77636e-06,1.15256e-08,-1.15254e-08,1.65352e-16
-0.120025,-0.95,0.207678,0.01,44.9239,451.25,-594.119,594.139,152.562,-1.11936e-08,1.11938e-08,2.87436e-09,613.414,-613.394,8.35257e-06,1.1557e-08,-1.15568e-08,1.57367e-16
-0.110025,-0.95,0.206452,0.01,44.2174,451.25,-598.658,598.678,140.556,-1.12791e-08,1.12794e-08,2.64815e-09,614.957,-614.936,7.87438e-06,1.15861e-08,-1.15858e-08,1.48358e-16
-0.100025,-0.95,0.205557,0.01,43.5708,451.25,-602.836,602.857,128.37,-1.13579e-08,1.13581e-08,2.41856e-09,616.373,-616.352,7.34445e-06,1.16127e-08,-1.16125e-08,1.38374e-16
-0.0900249,-0.95,0.204325,0.01,42.9845,451.25,-606.643,606.665,116.019,-1.14296e-08,1.14298e-08,2.18586e-09,617.659,-617.638,6.76512e-06,1.1637e-08,-1.16367e-08,1.27459e-16
-0.0800249,-0.95,0.203578,0.01,42.4589,451.25,-610.073,610.095,103.517,-1.14942e-08,1.14945e-08,1.95033e-09,618.815,-618.793,6.1391e-06,1.16587e-08,-1.16585e-08,1.15664e-16
-0.0700249,-0.95,0.202731,0.01,41.9942,451.25,-613.117,613.14,90.8816,-1.15516e-08,1.15518e-08,1.71226e-09,619.839,-619.816,5.47081e-06,1.1678e-08,-1.16778e-08,1.03073e-16
-0.0600249,-0.95,0.201982,0.01,41.5909,451.25,-615.769,615.792,78.1269,-1.16015e-08,1.16018e-08,1.47196e-09,620.728,-620.706,4.7645e-06,1.16948e-08,-1.16946e-08,8.97659e-17
-0.0500249,-0.95,0.201667,0.01,41.2491,451.25,-618.023,618.046,65.2696,-1.1644e-08,1.16443e-08,1.22972e-09,621.483,-621.46,4.02434e-06,1.1709e-08,-1.17088e-08,7.5821e-17
-0.0400249,-0.95,0.200918,0.01,40.9692,451.25,-619.875,619.898,52.3263,-1.16789e-08,1.16791e-08,9.85857e-10,622.103,-622.079,3.25555e-06,1.17207e-08,-1.17204e-08,6.13364e-17
-0.0300249,-0.95,0.200664,0.01,40.7512,451.25,-621.319,621.342,39.3137,-1.17061e-08,1.17063e-08,7.40693e-10,622.585,-622.561,2.46322e-06,1.17298e-08,-1.17295e-08,4.64084e-17
-0.0200249,-0.95,0.200385,0.01,40.5954,451.25,-622.353,622.377,26.2491,-1.17256e-08,1.17258e-08,4.94548e-10,622.93,-622.906,1.6527e-06,1.17363e-08,-1.1736e-08,3.11378e-17
-0.0100249,-0.95,0.200133,0.01,40.5018,451.25,-622.975,622.999,13.1496,-1.17373e-08,1.17376e-08,2.47746e-10,623.138,-623.114,8.30423e-07,1.17402e-08,-1.17399e-08,1.56456e-17
-2.48653e-05,-0.95,0.20038,0.01,40.4705,451.25,-623.183,623.207,0.032623,-1.17412e-08,1.17415e-08,6.14636e-13,623.207,-623.183,2.09125e-09,1.17415e-08,-1.17412e-08,3.94003e-20
0.00997513,-0.95,0.200133,0.01,40.5015,451.25,-622.977,623.001,-13.0844,-1.17374e-08,1.17376e-08,-2.46517e-10,623.138,-623.114,-8.26339e-07,1.17402e-08,-1.17399e-08,-1.55687e-17
0.0199751,-0.95,0.200382,0.01,40.5948,451.25,-622.357,622.381,-26.184,-1.17257e-08,1.17259e-08,-4.93322e-10,622.932,-622.908,-1.64861e-06,1.17363e-08,-1.1736e-08,-3.10608e-17
0.0299751,-0.95,0.200664,0.01,40.7503,451.25,-621.325,621.349,-39.2489,-1.17062e-08,1.17065e-08,-7.39472e-10,622.587,-622.563,-2.45907e-06,1.17298e-08,-1.17296e-08,-4.63303e-17
0.0399751,-0.95,0.200915,0.01,40.968,451.25,-619.883,619.906,-52.2617,-1.16791e-08,1.16793e-08,-9.84641e-10,622.105,-622.082,-3.25166e-06,1.17207e-08,-1.17205e-08,-6.12632e-17
0.0499751,-0.95,0.201662,0.01,41.2476,451.25,-618.034,618.057,-65.2055,-1.16442e-08,1.16444e-08,-1.22851e-09,621.487,-621.464,-4.02066e-06,1.17091e-08,-1.17088e-08,-7.57516e-17
0.0599751,-0.95,0.20198,0.01,41.5891,451.25,-615.781,615.804,-78.0632,-1.16018e-08,1.1602e-08,-1.47076e-09,620.733,-620.71,-4.76085e-06,1.16949e-08,-1.16946e-08,-8.96972e-17
0.0699751,-0.95,0.202726,0.01,41.9921,451.25,-613.131,613.154,-90.8185,-1.15518e-08,1.15521e-08,-1.71107e-09,619.843,-619.821,-5.46767e-06,1.16781e-08,-1.16779e-08,-1.03014e-16
0.0799751,-0.95,0.203575,0.01,42.4564,451.25,-610.089,610.111,-103.455,-1.14945e-08,1.14948e-08,-1.94915e-09,618.821,-618.798,-6.1363e-06,1.16588e-08,-1.16586e-08,-1.15612e-16
0.0899751,-0.95,0.20432,0.01,42.9818,451.25,-606.661,606.683,-115.957,-1.14299e-08,1.14302e-08,-2.18469e-09,617.666,-617.644,-6.76211e-06,1.16371e-08,-1.16369e-08,-1.27402e-16
0.0999751,-0.95,0.20555,0.01,43.5678,451.25,-602.855,602.877,-128.309,-1.13582e-08,1.13585e-08,-2.41741e-09,616.38,-616.358,-7.3414e-06,1.16129e-08,-1.16126e-08,-1.38316e-16
0.109975,-0.95,0.206447,0.01,44.2141,451.25,-598.679,598.7,-140.495,-1.12796e-08,1.12798e-08,-2.64701e-09,614.964,-614.944,-7.87141e-06,1.15862e-08,-1.1586e-08,-1.48302e-16
0.119975,-0.95,0.207671,0.01,44.9202,451.25,-594.142,594.162,-152.503,-1.11941e-08,1.11943e-08,-2.87324e-09,613.422,-613.402,-8.35014e-06,1.15571e-08,-1.15569e-08,-1.57322e-16
0.129975,-0.95,0.209105,0.01,45.6858,451.25,-589.253,589.273,-164.317,-1.1102e-08,1.11022e-08,-3.09583e-09,611.754,-611.734,-8.77489e-06,1.15257e-08,-1.15255e-08,-1.65324e-16
0.139975,-0.95,0.210323,0.01,46.5103,451.25,-584.023,584.042,-175.924,-1.10034e-08,1.10036e-08,-3.31452e-09,609.963,-609.944,-9.1439e-06,1.1492e-08,-1.14918e-08,-1.72276e-16
0.149975,-0.95,0.212007,0.01,47.3932,451.25,-578.461,578.48,-187.313,-1.08986e-08,1.08988e-08,-3.52908e-09,608.05,-608.032,-9.45619e-06,1.14559e-08,-1.14558e-08,-1.7816e-16
0.159975,-0.95,0.213507,0.01,48.3339,451.25,-572.58,572.598,-198.47,-1.07878e-08,1.0788e-08,-3.73929e-09,606.019,-606.002,-9.71157e-06,1.14177e-08,-1.14175e-08,-1.82972e-16
0.169975,-0.95,0.21518,0.01,49.3319,451.25,-566.403,566.412,-209.39,-1.06714e-08,1.06715e-08,-3.94503e-09,603.876,-603.868,0.00216213,1.13773e-08,-1.13773e-08,4.07357e-14
0.179975,-0.95,0.217223,0.01,50.3865,451.25,-560.19,560.021,-220.052,-1.05536e-08,1.05519e-08,-4.14591e-09,601.697,-601.866,-0.0646562,1.13371e-08,-1.13388e-08,-1.21816e-12
0.189975,-0.95,0.218884,0.01,51.4971,451.25,-553.417,553.252,-230.451,-1.0426e-08,1.04243e-08,-4.34183e-09,599.322,-599.488,-0.0669771,1.12923e-08,-1.1294e-08,-1.26189e-12
0.199975,-0.95,0.220986,0.01,52.6631,451.25,-546.374,546.212,-240.578,-1.02933e-08,1.02917e-08,-4.53263e-09,596.839,-597.001,-0.0683129,1.12455e-08,-1.12471e-08,-1.28705e-12
0.209975,-0.95,0.223121,0.01,53.8836,451.25,-539.043,538.945,-250.368,-1.01554e-08,1.01545e-08,-4.71709e-09,594.256,-594.354,-0.12056,1.11966e-08,-1.11975e-08,-2.27143e-12
0.219975,-0.95,0.225204,0.01,55.158,451.25,-532.899,531.504,-260.931,-1.00341e-08,1.00199e-08,-4.91609e-09,592.027,-593.422,0.450954,1.11602e-08,-1.11744e-08,8.49624e-12
0.229975,-0.95,0.227709,0.01,56.4856,451.25,-528.428,524.643,-270.756,-9.93943e-09,9.90103e-09,-5.1012e-09,590.179,-593.964,-0.0352065,1.11358e-08,-1.11742e-08,-6.63312e-13
0.239975,-0.95,0.229956,0.01,57.8655,451.25,-520.452,516.654,-279.727,-9.7891e-09,9.75058e-09,-5.27021e-09,587.291,-591.088,-0.0951476,1.10814e-08,-1.11199e-08,-1.79264e-12
0.249975,-0.95,0.232435,0.01,59.2969,451.25,-510.974,509.287,-288.202,-9.61971e-09,9.6026e-09,-5.4299e-09,585.069,-586.756,-0.201417,1.10304e-08,-1.10475e-08,-3.79481e-12
0.259975,-0.95,0.235239,0.01,60.7791,451.25,-504.222,500.326,-297.947,-9.4829e-09,9.44338e-09,-5.61349e-09,582.048,-585.944,0.679954,1.09831e-08,-1.10226e-08,1.28107e-11
0.269975,-0.95,0.237694,0.01,62.3112,451.25,-503.84,491.982,-308.42,-9.44107e-09,9.32077e-09,-5.81081e-09,579.765,-591.623,0.476516,1.09747e-08,-1.1095e-08,8.97785e-12
0.279975,-0.95,0.24054,0.01,63.8923,451.25,-495.88,485.613,-314.489,-9.29803e-09,9.19387e-09,-5.92515e-09,577.731,-587.999,-1.91597,1.09294e-08,-1.10336e-08,-3.6098e-11
0.289975,-0.95,0.243487,0.01,65.5216,451.25,-478.633,479.118,-322.883,-9.01983e-09,9.02476e-09,-6.08331e-09,577.803,-577.317,0.420039,1.0884e-08,-1.08791e-08,7.91377e-12
-0.320025,-0.94,0.243083,0.01,65.3592,441.8,-456.983,457.306,353.606,-8.61123e-09,8.61451e-09,6.66215e-09,578.104,-577.781,-1.2089,1.08904e-08,-1.08871e-08,-2.27763e-11
-0.310025,-0.94,0.24011,0.01,63.5565,441.8,-474.852,464.868,345.676,-8.90308e-09,8.8018e-09,6.51273e-09,578.324,-588.308,1.6761,1.09394e-08,-1.10407e-08,3.15787e-11
-0.300025,-0.94,0.236798,0.01,61.8,441.8,-484.209,472.066,340.393,-9.06999e-09,8.9468e-09,6.4132e-09,580.855,-592.998,-0.450571,1.09964e-08,-1.11196e-08,-8.48901e-12
-0.290025,-0.94,0.233866,0.01,60.0905,441.8,-485.395,481.169,330.781,-9.12675e-09,9.08388e-09,6.23211e-09,583.53,-587.755,-0.978258,1.10124e-08,-1.10553e-08,-1.84309e-11
-0.280025,-0.94,0.231048,0.01,58.429,441.8,-493.457,490.95,320.991,-9.28611e-09,9.26068e-09,6.04766e-09,586.368,-588.875,0.687532,1.10584e-08,-1.10838e-08,1.29535e-11
-0.270025,-0.94,0.228082,0.01,56.8165,441.8,-503.237,499.411,313.709,-9.46464e-09,9.42583e-09,5.91045e-09,589.474,-593.3,0.184,1.11227e-08,-1.11615e-08,3.46667e-12
-0.260025,-0.94,0.22552,0.01,55.2538,441.8,-508.993,507.411,304.991,-9.58285e-09,9.5668e-09,5.7462e-09,591.905,-593.487,-0.457918,1.11587e-08,-1.11748e-08,-8.62745e-12
-0.250025,-0.94,0.222831,0.01,53.7418,441.8,-516.145,515.993,295.358,-9.72381e-09,9.72227e-09,5.56471e-09,594.536,-594.688,0.0657234,1.12021e-08,-1.12036e-08,1.23827e-12
-0.240025,-0.94,0.220241,0.01,52.2815,441.8,-524.646,524.499,286.496,-9.884e-09,9.8825e-09,5.39776e-09,597.635,-597.783,0.0732411,1.12604e-08,-1.12619e-08,1.37991e-12
-0.230025,-0.94,0.21808,0.01,50.8735,441.8,-532.947,532.794,277.323,-1.00404e-08,1.00388e-08,5.22493e-09,600.639,-600.792,0.0736244,1.1317e-08,-1.13186e-08,1.38713e-12
-0.220025,-0.94,0.215496,0.01,49.5188,441.8,-540.777,540.781,267.835,-1.01886e-08,1.01886e-08,5.04617e-09,603.474,-603.469,-0.00134888,1.13698e-08,-1.13697e-08,-2.54137e-14
-0.210025,-0.94,0.213315,0.01,48.2183,441.8,-548.6,548.615,258.033,-1.0336e-08,1.03362e-08,4.86149e-09,606.267,-606.253,1.08171e-05,1.14224e-08,-1.14222e-08,2.038e-16
-0.200025,-0.94,0.211283,0.01,46.9725,441.8,-556.185,556.201,247.934,-1.04789e-08,1.04791e-08,4.67122e-09,608.959,-608.944,1.0846e-05,1.14731e-08,-1.14729e-08,2.04344e-16
-0.190025,-0.94,0.209081,0.01,45.7824,441.8,-563.506,563.522,237.541,-1.06169e-08,1.0617e-08,4.47541e-09,611.542,-611.526,1.08195e-05,1.15217e-08,-1.15216e-08,2.03846e-16
-0.180025,-0.94,0.207339,0.01,44.6486,441.8,-570.548,570.565,226.862,-1.07495e-08,1.07497e-08,4.27422e-09,614.013,-613.996,1.0736e-05,1.15683e-08,-1.15681e-08,2.02273e-16
-0.170025,-0.94,0.20538,0.01,43.5719,441.8,-577.298,577.316,215.907,-1.08767e-08,1.08769e-08,4.06782e-09,616.369,-616.351,1.05935e-05,1.16127e-08,-1.16125e-08,1.99587e-16
-0.160025,-0.94,0.203625,0.01,42.5529,441.8,-583.742,583.761,204.687,-1.09981e-08,1.09983e-08,3.85642e-09,618.606,-618.588,1.03901e-05,1.16548e-08,-1.16546e-08,1.95756e-16
-0.150025,-0.94,0.202211,0.01,41.5923,441.8,-589.868,589.887,193.211,-1.11135e-08,1.11137e-08,3.64022e-09,620.723,-620.704,1.0125e-05,1.16947e-08,-1.16945e-08,1.9076e-16
-0.140025,-0.94,0.200442,0.01,40.6907,441.8,-595.662,595.681,181.493,-1.12227e-08,1.12229e-08,3.41943e-09,622.717,-622.697,9.79798e-06,1.17323e-08,-1.17321e-08,1.846e-16
-0.130025,-0.94,0.199161,0.01,39.8486,441.8,-601.112,601.133,169.544,-1.13254e-08,1.13256e-08,3.1943e-09,624.585,-624.564,9.40982e-06,1.17675e-08,-1.17672e-08,1.77286e-16
-0.120025,-0.94,0.197791,0.01,39.0666,441.8,-606.208,606.229,157.377,-1.14214e-08,1.14216e-08,2.96508e-09,626.324,-626.303,8.96104e-06,1.18002e-08,-1.18e-08,1.68831e-16
-0.110025,-0.94,0.196503,0.01,38.3453,441.8,-610.939,610.96,145.007,-1.15105e-08,1.15108e-08,2.73202e-09,627.933,-627.912,8.45313e-06,1.18305e-08,-1.18303e-08,1.59262e-16
-0.100025,-0.94,0.195672,0.01,37.685,441.8,-615.294,615.316,132.448,-1.15926e-08,1.15928e-08,2.4954e-09,629.409,-629.387,7.88848e-06,1.18583e-08,-1.18581e-08,1.48623e-16
-0.0900249,-0.94,0.194377,0.01,37.0863,441.8,-619.263,619.286,119.715,-1.16674e-08,1.16676e-08,2.25551e-09,630.751,-630.729,7.26968e-06,1.18836e-08,-1.18834e-08,1.36965e-16
-0.0800249,-0.94,0.193591,0.01,36.5495,441.8,-622.839,622.862,106.824,-1.17348e-08,1.1735e-08,2.01263e-09,631.957,-631.933,6.60039e-06,1.19063e-08,-1.19061e-08,1.24355e-16
-0.0700249,-0.94,0.192783,0.01,36.075,441.8,-626.014,626.037,93.7914,-1.17946e-08,1.17948e-08,1.76708e-09,633.024,-633,5.88453e-06,1.19264e-08,-1.19262e-08,1.10868e-16
-0.0600249,-0.94,0.191995,0.01,35.6631,441.8,-628.779,628.803,80.6333,-1.18467e-08,1.18469e-08,1.51918e-09,633.952,-633.928,5.12621e-06,1.19439e-08,-1.19437e-08,9.65807e-17
-0.0500249,-0.94,0.191719,0.01,35.314,441.8,-631.13,631.154,67.367,-1.1891e-08,1.18912e-08,1.26923e-09,634.739,-634.715,4.33076e-06,1.19588e-08,-1.19585e-08,8.15941e-17
-0.0400249,-0.94,0.190931,0.01,35.0281,441.8,-633.061,633.086,54.01,-1.19273e-08,1.19276e-08,1.01758e-09,635.385,-635.361,3.50404e-06,1.19709e-08,-1.19707e-08,6.60182e-17
-0.0300249,-0.94,0.190664,0.01,34.8055,441.8,-634.568,634.592,40.5801,-1.19557e-08,1.1956e-08,7.64552e-10,635.889,-635.864,2.65145e-06,1.19804e-08,-1.19802e-08,4.99549e-17
-0.0200249,-0.94,0.190398,0.01,34.6463,441.8,-635.647,635.671,27.0952,-1.19761e-08,1.19763e-08,5.1049e-10,636.249,-636.224,1.77911e-06,1.19872e-08,-1.19869e-08,3.35195e-17
-0.0100249,-0.94,0.190133,0.01,34.5507,441.8,-636.296,636.32,13.5737,-1.19883e-08,1.19885e-08,2.55736e-10,636.465,-636.44,8.941e-07,1.19913e-08,-1.1991e-08,1.68454e-17
-2.48653e-05,-0.94,0.190393,0.01,34.5187,441.8,-636.513,636.537,0.0336753,-1.19924e-08,1.19926e-08,6.34462e-13,636.537,-636.513,2.54805e-09,1.19926e-08,-1.19924e-08,4.80067e-20
0.00997513,-0.94,0.190133,0.01,34.5504,441.8,-636.298,636.322,-13.5064,-1.19883e-08,1.19886e-08,-2.54468e-10,636.466,-636.441,-8.89608e-07,1.19913e-08,-1.1991e-08,-1.67607e-17
0.0199751,-0.94,0.190395,0.01,34.6457,441.8,-635.651,635.676,-27.0281,-1.19761e-08,1.19764e-08,-5.09225e-10,636.25,-636.225,-1.77521e-06,1.19872e-08,-1.1987e-08,-3.34459e-17
0.0299751,-0.94,0.190664,0.01,34.8045,441.8,-634.574,634.599,-40.5131,-1.19559e-08,1.19561e-08,-7.63291e-10,635.891,-635.866,-2.64743e-06,1.19804e-08,-1.19802e-08,-4.98792e-17
0.0399751,-0.94,0.190928,0.01,35.0269,441.8,-633.07,633.094,-53.9434,-1.19275e-08,1.19278e-08,-1.01632e-09,635.388,-635.364,-3.50008e-06,1.1971e-08,-1.19707e-08,-6.59435e-17
0.0499751,-0.94,0.191714,0.01,35.3125,441.8,-631.141,631.165,-67.3008,-1.18912e-08,1.18914e-08,-1.26799e-09,634.743,-634.719,-4.32694e-06,1.19588e-08,-1.19586e-08,-8.15221e-17
0.0599751,-0.94,0.191993,0.01,35.6612,441.8,-628.792,628.816,-80.5675,-1.18469e-08,1.18472e-08,-1.51794e-09,633.956,-633.932,-5.12233e-06,1.1944e-08,-1.19438e-08,-9.65076e-17
0.0699751,-0.94,0.192777,0.01,36.0728,441.8,-626.028,626.052,-93.7263,-1.17948e-08,1.17951e-08,-1.76586e-09,633.029,-633.005,-5.88079e-06,1.19265e-08,-1.19263e-08,-1.10798e-16
0.0799751,-0.94,0.193589,0.01,36.547,441.8,-622.856,622.879,-106.76,-1.17351e-08,1.17353e-08,-2.01142e-09,631.962,-631.939,-6.59708e-06,1.19064e-08,-1.19062e-08,-1.24293e-16
0.0899751,-0.94,0.194372,0.01,37.0835,441.8,-619.282,619.305,-119.652,-1.16677e-08,1.1668e-08,-2.2543e-09,630.757,-630.735,-7.26645e-06,1.18837e-08,-1.18835e-08,-1.36904e-16
0.0999751,-0.94,0.195664,0.01,37.6819,441.8,-615.314,615.336,-132.385,-1.1593e-08,1.15932e-08,-2.49421e-09,629.416,-629.394,-7.88521e-06,1.18585e-08,-1.18583e-08,-1.48562e-16
0.109975,-0.94,0.196498,0.01,38.3419,441.8,-610.961,610.983,-144.945,-1.1511e-08,1.15112e-08,-2.73085e-09,627.941,-627.919,-8.45021e-06,1.18307e-08,-1.18305e-08,-1.59207e-16
0.119975,-0.94,0.197784,0.01,39.0629,441.8,-606.233,606.254,-157.316,-1.14219e-08,1.14221e-08,-2.96393e-09,626.333,-626.312,-8.95871e-06,1.18004e-08,-1.18002e-08,-1.68787e-16
0.129975,-0.94,0.199156,0.01,39.8446,441.8,-601.139,601.159,-169.484,-1.13259e-08,1.13261e-08,-3.19317e-09,624.594,-624.573,-9.4079e-06,1.17676e-08,-1.17674e-08,-1.7725e-16
0.139975,-0.94,0.200435,0.01,40.6863,441.8,-595.69,595.709,-181.434,-1.12232e-08,1.12234e-08,-3.41832e-09,622.727,-622.707,-9.79606e-06,1.17324e-08,-1.17322e-08,-1.84564e-16
0.149975,-0.94,0.202201,0.01,41.5877,441.8,-589.897,589.916,-193.154,-1.11141e-08,1.11143e-08,-3.63913e-09,620.734,-620.715,-1.01233e-05,1.16949e-08,-1.16947e-08,-1.90728e-16
0.159975,-0.94,0.203617,0.01,42.548,441.8,-583.774,583.792,-204.63,-1.09987e-08,1.09989e-08,-3.85536e-09,618.617,-618.599,-1.03886e-05,1.1655e-08,-1.16548e-08,-1.95728e-16
0.169975,-0.94,0.20537,0.01,43.5667,441.8,-577.331,577.349,-215.852,-1.08773e-08,1.08775e-08,-4.06678e-09,616.38,-616.362,-1.05923e-05,1.16129e-08,-1.16127e-08,-1.99566e-16
0.179975,-0.94,0.207332,0.01,44.6431,441.8,-570.583,570.599,-226.808,-1.07502e-08,1.07504e-08,-4.2732e-09,614.025,-614.008,-1.07356e-05,1.15685e-08,-1.15683e-08,-2.02265e-16
0.189975,-0.94,0.209072,0.01,45.7766,441.8,-563.542,563.558,-237.488,-1.06175e-08,1.06177e-08,-4.47442e-09,611.555,-611.539,-1.08197e-05,1.1522e-08,-1.15218e-08,-2.03849e-16
0.199975,-0.94,0.211271,0.01,46.9665,441.8,-556.222,556.238,-247.883,-1.04796e-08,1.04798e-08,-4.67026e-09,608.972,-608.957,-1.08461e-05,1.14733e-08,-1.14732e-08,-2.04347e-16
0.209975,-0.94,0.213305,0.01,48.2119,441.8,-548.639,548.653,-257.983,-1.03367e-08,1.03369e-08,-4.86055e-09,606.281,-606.266,-1.0817e-05,1.14226e-08,-1.14225e-08,-2.03798e-16
0.219975,-0.94,0.215484,0.01,49.5122,441.8,-540.816,540.821,-267.787,-1.01893e-08,1.01894e-08,-5.04526e-09,603.488,-603.483,0.00134977,1.137e-08,-1.137e-08,2.54304e-14
0.229975,-0.94,0.218071,0.01,50.8667,441.8,-532.987,532.835,-277.277,-1.00411e-08,1.00396e-08,-5.22405e-09,600.653,-600.806,-0.0736215,1.13173e-08,-1.13189e-08,-1.38707e-12
0.239975,-0.94,0.22023,0.01,52.2743,441.8,-524.688,524.54,-286.452,-9.88478e-09,9.88329e-09,-5.39691e-09,597.651,-597.798,-0.0732409,1.12607e-08,-1.12622e-08,-1.3799e-12
0.249975,-0.94,0.222817,0.01,53.7345,441.8,-516.188,516.036,-295.314,-9.72462e-09,9.72308e-09,-5.56389e-09,594.552,-594.704,-0.0657894,1.12024e-08,-1.12039e-08,-1.23951e-12
0.259975,-0.94,0.225508,0.01,55.2462,441.8,-509.037,507.455,-304.949,-9.58367e-09,9.56762e-09,-5.74542e-09,591.921,-593.503,0.457948,1.1159e-08,-1.11751e-08,8.628e-12
0.269975,-0.94,0.228068,0.01,56.8086,441.8,-503.282,499.456,-313.669,-9.46548e-09,9.42667e-09,-5.9097e-09,589.491,-593.317,-0.183845,1.1123e-08,-1.11618e-08,-3.46375e-12
0.279975,-0.94,0.231032,0.01,58.4209,441.8,-493.503,490.996,-320.952,-9.28698e-09,9.26155e-09,-6.04693e-09,586.385,-588.892,-0.687887,1.10587e-08,-1.10842e-08,-1.29602e-11
0.289975,-0.94,0.233853,0.01,60.0821,441.8,-485.441,481.216,-330.744,-9.12763e-09,9.08476e-09,-6.23141e-09,583.547,-587.772,0.977881,1.10127e-08,-1.10556e-08,1.84238e-11
0.299975,-0.94,0.236782,0.01,61.7913,441.8,-484.256,472.113,-340.357,-9.07088e-09,8.94769e-09,-6.41253e-09,580.873,-593.016,0.450648,1.09968e-08,-1.112e-08,8.49048e-12
0.309975,-0.94,0.240093,0.01,63.5477,441.8,-474.901,464.916,-345.642,-8.904e-09,8.8027e-09,-6.51209e-09,578.342,-588.327,-1.67658,1.09397e-08,-1.1041e-08,-3.15877e-11
0.319975,-0.94,0.243068,0.01,65.3501,441.8,-457.032,457.355,-353.574,-8.61216e-09,8.61544e-09,-6.66153e-09,578.123,-577.799,1.20779,1.08908e-08,-1.08875e-08,2.27555e-11
-0.350025,-0.93,0.243756,0.01,65.7586,432.45,-432.589,432.789,382.061,-8.1511e-09,8.15312e-09,7.19826e-09,577.323,-577.124,-1.95996,1.08762e-08,-1.08742e-08,-3.69268e-11
-0.340025,-0.93,0.240399,0.01,63.7865,432.45,-450.87,441.292,374.704,-8.453e-09,8.35583e-09,7.05964e-09,577.782,-587.36,1.38967,1.09274e-08,-1.10246e-08,2.61821e-11
-0.330025,-0.93,0.236993,0.01,61.8581,432.45,-461.509,449.23,370.273,-8.64171e-09,8.51714e-09,6.97616e-09,580.771,-593.049,-0.403942,1.09954e-08,-1.112e-08,-7.6105e-12
-0.320025,-0.93,0.233592,0.01,59.9747,432.45,-463.485,458.981,361.645,-8.71275e-09,8.66705e-09,6.8136e-09,583.855,-588.359,-1.24191,1.10198e-08,-1.10654e-08,-2.33983e-11
-0.310025,-0.93,0.230574,0.01,58.137,432.45,-471.979,469.544,352.526,-8.88178e-09,8.85706e-09,6.6418e-09,586.907,-589.343,0.464057,1.10683e-08,-1.1093e-08,8.74311e-12
-0.300025,-0.93,0.22732,0.01,56.3461,432.45,-482.766,478.927,345.932,-9.07891e-09,9.03996e-09,6.51756e-09,590.434,-594.273,0.290396,1.11408e-08,-1.11798e-08,5.47123e-12
-0.290025,-0.93,0.224265,0.01,54.6031,432.45,-489.469,487.754,338.121,-9.21443e-09,9.19703e-09,6.3704e-09,593.337,-595.052,-0.442997,1.11863e-08,-1.12037e-08,-8.34632e-12
-0.280025,-0.93,0.221584,0.01,52.9088,432.45,-497.347,497.154,329.272,-9.36946e-09,9.36751e-09,6.20367e-09,596.291,-596.484,0.0246137,1.12353e-08,-1.12373e-08,4.63737e-13
-0.270025,-0.93,0.218489,0.01,51.2642,432.45,-506.692,506.554,321.19,-9.54577e-09,9.54438e-09,6.05141e-09,599.79,-599.927,0.0760206,1.1301e-08,-1.13024e-08,1.43227e-12
-0.260025,-0.93,0.215814,0.01,49.6703,432.45,-515.682,515.683,312.822,-9.71576e-09,9.71577e-09,5.89374e-09,603.147,-603.146,-0.000597435,1.13636e-08,-1.13636e-08,-1.1256e-14
-0.250025,-0.93,0.213249,0.01,48.1279,432.45,-524.693,524.704,304.104,-9.88556e-09,9.88568e-09,5.72949e-09,606.46,-606.449,1.08169e-05,1.1426e-08,-1.14259e-08,2.03796e-16
-0.240025,-0.93,0.210542,0.01,46.638,432.45,-533.52,533.532,295.051,-1.00519e-08,1.0052e-08,5.55892e-09,609.682,-609.67,1.10636e-05,1.14867e-08,-1.14866e-08,2.08445e-16
-0.230025,-0.93,0.20828,0.01,45.2014,432.45,-542.137,542.15,285.662,-1.02142e-08,1.02144e-08,5.38203e-09,612.805,-612.792,1.12656e-05,1.15455e-08,-1.15454e-08,2.1225e-16
-0.220025,-0.93,0.205802,0.01,43.8191,432.45,-550.527,550.541,275.942,-1.03723e-08,1.03725e-08,5.19892e-09,615.825,-615.811,1.14186e-05,1.16024e-08,-1.16023e-08,2.15133e-16
-0.210025,-0.93,0.203518,0.01,42.4918,432.45,-558.675,558.69,265.899,-1.05258e-08,1.0526e-08,5.0097e-09,618.739,-618.724,1.15189e-05,1.16573e-08,-1.16572e-08,2.17024e-16
-0.200025,-0.93,0.201596,0.01,41.2204,432.45,-566.566,566.582,255.539,-1.06745e-08,1.06747e-08,4.81451e-09,621.543,-621.528,1.15627e-05,1.17102e-08,-1.171e-08,2.17849e-16
-0.190025,-0.93,0.199288,0.01,40.0056,432.45,-574.184,574.201,244.87,-1.0818e-08,1.08182e-08,4.6135e-09,624.234,-624.218,1.1547e-05,1.17609e-08,-1.17607e-08,2.17552e-16
-0.180025,-0.93,0.197459,0.01,38.8483,432.45,-581.514,581.532,233.901,-1.09561e-08,1.09563e-08,4.40684e-09,626.809,-626.792,1.14697e-05,1.18094e-08,-1.18092e-08,2.16096e-16
-0.170025,-0.93,0.19559,0.01,37.7491,432.45,-588.542,588.56,222.642,-1.10886e-08,1.10887e-08,4.19471e-09,629.264,-629.246,1.13284e-05,1.18556e-08,-1.18554e-08,2.13434e-16
-0.160025,-0.93,0.193747,0.01,36.7087,432.45,-595.253,595.272,211.104,-1.1215e-08,1.12152e-08,3.97732e-09,631.597,-631.578,1.11207e-05,1.18996e-08,-1.18994e-08,2.0952e-16
-0.150025,-0.93,0.192406,0.01,35.7279,432.45,-601.634,601.654,199.297,-1.13352e-08,1.13354e-08,3.75488e-09,633.804,-633.784,1.08458e-05,1.19411e-08,-1.19409e-08,2.04342e-16
-0.140025,-0.93,0.190566,0.01,34.8072,432.45,-607.671,607.692,187.235,-1.1449e-08,1.14492e-08,3.52761e-09,635.883,-635.862,1.05041e-05,1.19803e-08,-1.19801e-08,1.97902e-16
-0.130025,-0.93,0.189217,0.01,33.9473,432.45,-613.352,613.373,174.93,-1.1556e-08,1.15562e-08,3.29578e-09,637.83,-637.809,1.00954e-05,1.2017e-08,-1.20168e-08,1.90204e-16
-0.120025,-0.93,0.187916,0.01,33.1488,432.45,-618.664,618.686,162.396,-1.16561e-08,1.16563e-08,3.05963e-09,639.644,-639.623,9.62039e-06,1.20512e-08,-1.2051e-08,1.81254e-16
-0.110025,-0.93,0.18656,0.01,32.4121,432.45,-623.596,623.618,149.648,-1.1749e-08,1.17492e-08,2.81945e-09,641.323,-641.3,9.08063e-06,1.20828e-08,-1.20826e-08,1.71084e-16
-0.100025,-0.93,0.185733,0.01,31.7377,432.45,-628.137,628.16,136.701,-1.18346e-08,1.18348e-08,2.57552e-09,642.863,-642.839,8.47872e-06,1.21118e-08,-1.21116e-08,1.59744e-16
-0.0900249,-0.93,0.184434,0.01,31.1262,432.45,-632.277,632.301,123.57,-1.19126e-08,1.19128e-08,2.32813e-09,644.262,-644.239,7.81773e-06,1.21382e-08,-1.21379e-08,1.47291e-16
-0.0800249,-0.93,0.183606,0.01,30.5779,432.45,-636.007,636.031,110.273,-1.19828e-08,1.19831e-08,2.07761e-09,645.52,-645.496,7.10154e-06,1.21619e-08,-1.21616e-08,1.33797e-16
-0.0700249,-0.93,0.18284,0.01,30.0932,432.45,-639.319,639.343,96.8265,-1.20452e-08,1.20455e-08,1.82427e-09,646.634,-646.609,6.3337e-06,1.21828e-08,-1.21826e-08,1.19331e-16
-0.0600249,-0.93,0.18201,0.01,29.6724,432.45,-642.204,642.229,83.2478,-1.20996e-08,1.20999e-08,1.56844e-09,647.602,-647.577,5.51935e-06,1.22011e-08,-1.22008e-08,1.03988e-16
-0.0500249,-0.93,0.181727,0.01,29.3158,432.45,-644.657,644.682,69.5551,-1.21458e-08,1.21461e-08,1.31046e-09,648.424,-648.399,4.66453e-06,1.22166e-08,-1.22163e-08,8.78825e-17
-0.0400249,-0.93,0.180946,0.01,29.0237,432.45,-646.672,646.698,55.7667,-1.21838e-08,1.21841e-08,1.05068e-09,649.098,-649.072,3.77483e-06,1.22293e-08,-1.2229e-08,7.11199e-17
-0.0300249,-0.93,0.180664,0.01,28.7963,432.45,-648.245,648.27,41.9014,-1.22134e-08,1.22137e-08,7.89447e-10,649.623,-649.597,2.85674e-06,1.22392e-08,-1.22389e-08,5.38227e-17
-0.0200249,-0.93,0.180413,0.01,28.6337,432.45,-649.371,649.396,27.9782,-1.22346e-08,1.22349e-08,5.27125e-10,649.999,-649.973,1.9173e-06,1.22462e-08,-1.2246e-08,3.6123e-17
-0.0100249,-0.93,0.180133,0.01,28.536,432.45,-650.048,650.074,14.0162,-1.22474e-08,1.22477e-08,2.64073e-10,650.225,-650.199,9.63707e-07,1.22505e-08,-1.22502e-08,1.81568e-17
-2.48653e-05,-0.93,0.180408,0.01,28.5033,432.45,-650.274,650.3,0.0347733,-1.22517e-08,1.22519e-08,6.55149e-13,650.3,-650.274,2.63192e-09,1.22519e-08,-1.22517e-08,4.95869e-20
0.00997513,-0.93,0.180133,0.01,28.5357,432.45,-650.05,650.076,-13.9467,-1.22474e-08,1.22477e-08,-2.62764e-10,650.226,-650.2,-9.58957e-07,1.22505e-08,-1.22503e-08,-1.80673e-17
0.0199751,-0.93,0.18041,0.01,28.633,432.45,-649.375,649.401,-27.9088,-1.22347e-08,1.2235e-08,-5.25818e-10,650,-649.975,-1.91305e-06,1.22463e-08,-1.2246e-08,-3.6043e-17
0.0299751,-0.93,0.180664,0.01,28.7953,432.45,-648.251,648.277,-41.8323,-1.22135e-08,1.22138e-08,-7.88145e-10,649.625,-649.6,-2.85232e-06,1.22392e-08,-1.22389e-08,-5.37394e-17
0.0399751,-0.93,0.180943,0.01,29.0224,432.45,-646.681,646.707,-55.6979,-1.2184e-08,1.21842e-08,-1.04938e-09,649.101,-649.075,-3.77047e-06,1.22293e-08,-1.22291e-08,-7.10379e-17
0.0499751,-0.93,0.181727,0.01,29.3142,432.45,-644.668,644.694,-69.4867,-1.2146e-08,1.21463e-08,-1.30917e-09,648.428,-648.402,-4.66053e-06,1.22166e-08,-1.22164e-08,-8.7807e-17
0.0599751,-0.93,0.182007,0.01,29.6705,432.45,-642.217,642.242,-83.18,-1.20999e-08,1.21001e-08,-1.56716e-09,647.607,-647.582,-5.51553e-06,1.22012e-08,-1.22009e-08,-1.03916e-16
0.0699751,-0.93,0.182835,0.01,30.0909,432.45,-639.334,639.358,-96.7593,-1.20455e-08,1.20458e-08,-1.823e-09,646.639,-646.614,-6.32963e-06,1.21829e-08,-1.21827e-08,-1.19254e-16
0.0799751,-0.93,0.183603,0.01,30.5753,432.45,-636.025,636.049,-110.207,-1.19832e-08,1.19834e-08,-2.07636e-09,645.526,-645.502,-7.09731e-06,1.2162e-08,-1.21617e-08,-1.33717e-16
0.0899751,-0.93,0.184429,0.01,31.1233,432.45,-632.297,632.32,-123.504,-1.19129e-08,1.19132e-08,-2.3269e-09,644.269,-644.245,-7.81403e-06,1.21383e-08,-1.21381e-08,-1.47221e-16
0.0999751,-0.93,0.18573,0.01,31.7345,432.45,-628.158,628.181,-136.636,-1.1835e-08,1.18352e-08,-2.5743e-09,642.87,-642.847,-8.47552e-06,1.21119e-08,-1.21117e-08,-1.59684e-16
0.109975,-0.93,0.186555,0.01,32.4086,432.45,-623.619,623.642,-149.584,-1.17494e-08,1.17497e-08,-2.81825e-09,641.331,-641.308,-9.07777e-06,1.20829e-08,-1.20827e-08,-1.7103e-16
0.119975,-0.93,0.187908,0.01,33.1449,432.45,-618.689,618.711,-162.333,-1.16566e-08,1.16568e-08,-3.05845e-09,639.653,-639.631,-9.61789e-06,1.20513e-08,-1.20511e-08,-1.81207e-16
0.129975,-0.93,0.189212,0.01,33.9432,432.45,-613.379,613.4,-174.868,-1.15565e-08,1.15567e-08,-3.29462e-09,637.84,-637.818,-1.00931e-05,1.20172e-08,-1.2017e-08,-1.90159e-16
0.139975,-0.93,0.190558,0.01,34.8028,432.45,-607.7,607.721,-187.174,-1.14495e-08,1.14497e-08,-3.52647e-09,635.893,-635.872,-1.05018e-05,1.19805e-08,-1.19803e-08,-1.9786e-16
0.149975,-0.93,0.1924,0.01,35.7232,432.45,-601.665,601.685,-199.238,-1.13358e-08,1.1336e-08,-3.75376e-09,633.815,-633.795,-1.08443e-05,1.19413e-08,-1.19411e-08,-2.04313e-16
0.159975,-0.93,0.193739,0.01,36.7037,432.45,-595.286,595.305,-211.046,-1.12156e-08,1.12158e-08,-3.97622e-09,631.608,-631.589,-1.11196e-05,1.18998e-08,-1.18996e-08,-2.09499e-16
0.169975,-0.93,0.19558,0.01,37.7437,432.45,-588.576,588.594,-222.586,-1.10892e-08,1.10894e-08,-4.19364e-09,629.276,-629.258,-1.13273e-05,1.18558e-08,-1.18557e-08,-2.13413e-16
0.179975,-0.93,0.197452,0.01,38.8427,432.45,-581.55,581.567,-233.846,-1.09568e-08,1.0957e-08,-4.40579e-09,626.822,-626.804,-1.14692e-05,1.18096e-08,-1.18094e-08,-2.16086e-16
0.189975,-0.93,0.199278,0.01,39.9997,432.45,-574.221,574.238,-244.816,-1.08187e-08,1.08189e-08,-4.61248e-09,624.247,-624.231,-1.15472e-05,1.17611e-08,-1.17609e-08,-2.17555e-16
0.199975,-0.93,0.201584,0.01,41.2142,432.45,-566.605,566.62,-255.487,-1.06752e-08,1.06754e-08,-4.81352e-09,621.557,-621.541,-1.15632e-05,1.17104e-08,-1.17103e-08,-2.17857e-16
0.209975,-0.93,0.203508,0.01,42.4854,432.45,-558.715,558.73,-265.849,-1.05266e-08,1.05267e-08,-5.00874e-09,618.753,-618.738,-1.15193e-05,1.16576e-08,-1.16575e-08,-2.17031e-16
0.219975,-0.93,0.20579,0.01,43.8124,432.45,-550.568,550.582,-275.893,-1.03731e-08,1.03732e-08,-5.19799e-09,615.84,-615.826,-1.14191e-05,1.16027e-08,-1.16026e-08,-2.15142e-16
0.229975,-0.93,0.20827,0.01,45.1944,432.45,-542.179,542.192,-285.614,-1.0215e-08,1.02152e-08,-5.38114e-09,612.82,-612.807,-1.12664e-05,1.15458e-08,-1.15457e-08,-2.12265e-16
0.239975,-0.93,0.210529,0.01,46.6307,432.45,-533.564,533.576,-295.005,-1.00527e-08,1.00528e-08,-5.55806e-09,609.698,-609.686,-1.10646e-05,1.1487e-08,-1.14869e-08,-2.08464e-16
0.249975,-0.93,0.213234,0.01,48.1204,432.45,-524.737,524.748,-304.059,-9.8864e-09,9.88651e-09,-5.72866e-09,606.476,-606.465,-1.08181e-05,1.14263e-08,-1.14262e-08,-2.03819e-16
0.259975,-0.93,0.215802,0.01,49.6625,432.45,-515.727,515.729,-312.779,-9.71661e-09,9.71662e-09,-5.89294e-09,603.164,-603.163,0.000598363,1.1364e-08,-1.13639e-08,1.12735e-14
0.269975,-0.93,0.218475,0.01,51.2562,432.45,-506.738,506.601,-321.149,-9.54664e-09,9.54525e-09,-6.05064e-09,599.807,-599.945,-0.0760235,1.13013e-08,-1.13027e-08,-1.43233e-12
0.279975,-0.93,0.221568,0.01,52.9005,432.45,-497.394,497.201,-329.233,-9.37035e-09,9.36839e-09,-6.20294e-09,596.309,-596.501,-0.0246762,1.12356e-08,-1.12376e-08,-4.64914e-13
0.289975,-0.93,0.22425,0.01,54.5945,432.45,-489.517,487.802,-338.084,-9.21532e-09,9.19793e-09,-6.36969e-09,593.355,-595.07,0.443056,1.11866e-08,-1.1204e-08,8.34743e-12
0.299975,-0.93,0.227304,0.01,56.3374,432.45,-482.815,478.976,-345.896,-9.07982e-09,9.04087e-09,-6.51689e-09,590.452,-594.292,-0.290255,1.11412e-08,-1.11801e-08,-5.46857e-12
0.309975,-0.93,0.23056,0.01,58.128,432.45,-472.029,469.593,-352.492,-8.88271e-09,8.85799e-09,-6.64116e-09,586.926,-589.362,-0.464427,1.10686e-08,-1.10933e-08,-8.75007e-12
0.319975,-0.93,0.233576,0.01,59.9654,432.45,-463.535,459.031,-361.612,-8.71368e-09,8.66799e-09,-6.81299e-09,583.874,-588.378,1.24161,1.10201e-08,-1.10658e-08,2.33926e-11
0.329975,-0.93,0.236975,0.01,61.8487,432.45,-461.56,449.281,-370.242,-8.64266e-09,8.51809e-09,-6.97558e-09,580.79,-593.069,0.404042,1.09958e-08,-1.11204e-08,7.61239e-12
0.339975,-0.93,0.240384,0.01,63.7768,432.45,-450.922,441.343,-374.675,-8.45398e-09,8.3568e-09,-7.05909e-09,577.802,-587.381,-1.39019,1.09278e-08,-1.1025e-08,-2.6192e-11
0.349975,-0.93,0.243738,0.01,65.7487,432.45,-432.641,432.84,-382.034,-8.15207e-09,8.1541e-09,-7.19773e-09,577.343,-577.144,1.95895,1.08766e-08,-1.08746e-08,3.69078e-11
-0.370025,-0.92,0.241711,0.01,64.5888,423.2,-423.675,415.737,400.767,-7.94778e-09,7.86724e-09,7.55067e-09,576.345,-584.284,1.44281,1.08932e-08,-1.09737e-08,2.71834e-11
-0.360025,-0.92,0.238267,0.01,62.4932,423.2,-434.682,425.836,396.255,-8.1512e-09,8.06146e-09,7.46567e-09,580.504,-589.35,1.01943,1.09755e-08,-1.10652e-08,1.92067e-11
-0.350025,-0.92,0.234429,0.01,60.4399,423.2,-438.717,434.334,390.033,-8.24662e-09,8.20216e-09,7.34846e-09,583.197,-587.579,-1.23441,1.10068e-08,-1.10513e-08,-2.32569e-11
-0.340025,-0.92,0.230937,0.01,58.4299,423.2,-447.537,445.202,381.856,-8.42171e-09,8.39802e-09,7.19439e-09,586.251,-588.585,0.223731,1.10555e-08,-1.10791e-08,4.21521e-12
-0.330025,-0.92,0.227687,0.01,56.4644,423.2,-459.197,455.392,376.033,-8.63499e-09,8.5964e-09,7.08468e-09,590.144,-593.949,0.389227,1.11352e-08,-1.11738e-08,7.33326e-12
-0.320025,-0.92,0.224145,0.01,54.5443,423.2,-466.765,464.937,369.232,-8.78617e-09,8.76764e-09,6.95654e-09,593.518,-595.345,-0.408901,1.11902e-08,-1.12087e-08,-7.70393e-12
-0.310025,-0.92,0.220998,0.01,52.6706,423.2,-475.272,475.041,361.284,-8.9534e-09,8.95105e-09,6.80679e-09,596.793,-597.024,-0.0152405,1.12449e-08,-1.12473e-08,-2.8714e-13
-0.300025,-0.92,0.217889,0.01,50.8445,423.2,-485.349,485.224,354.092,-9.14371e-09,9.14244e-09,6.6713e-09,600.674,-600.799,0.0750041,1.13176e-08,-1.13189e-08,1.41312e-12
-0.290025,-0.92,0.214699,0.01,49.0669,423.2,-495.165,495.164,346.645,-9.32919e-09,9.32918e-09,6.53099e-09,604.441,-604.443,7.82272e-06,1.1388e-08,-1.13881e-08,1.47385e-16
-0.280025,-0.92,0.211934,0.01,47.3389,423.2,-505.024,505.033,338.826,-9.51499e-09,9.51507e-09,6.38368e-09,608.163,-608.154,1.03891e-05,1.14581e-08,-1.1458e-08,1.95736e-16
-0.270025,-0.92,0.208935,0.01,45.6613,423.2,-514.746,514.755,330.648,-9.69815e-09,9.69825e-09,6.2296e-09,611.802,-611.793,1.07815e-05,1.15267e-08,-1.15266e-08,2.0313e-16
-0.260025,-0.92,0.206136,0.01,44.0352,423.2,-524.301,524.312,322.106,-9.87819e-09,9.87829e-09,6.06867e-09,615.351,-615.34,1.11411e-05,1.15935e-08,-1.15934e-08,2.09904e-16
-0.250025,-0.92,0.203707,0.01,42.4615,423.2,-533.674,533.686,313.205,-1.00548e-08,1.00549e-08,5.90096e-09,618.804,-618.793,1.14625e-05,1.16586e-08,-1.16585e-08,2.1596e-16
-0.240025,-0.92,0.200871,0.01,40.9412,423.2,-542.848,542.86,303.946,-1.02276e-08,1.02278e-08,5.72653e-09,622.159,-622.147,1.1741e-05,1.17218e-08,-1.17217e-08,2.21207e-16
-0.230025,-0.92,0.198499,0.01,39.4751,423.2,-551.806,551.819,294.336,-1.03964e-08,1.03965e-08,5.54546e-09,625.411,-625.398,1.19719e-05,1.17831e-08,-1.17829e-08,2.25557e-16
-0.220025,-0.92,0.19614,0.01,38.0643,423.2,-560.532,560.546,284.379,-1.05608e-08,1.05609e-08,5.35787e-09,628.557,-628.543,1.215e-05,1.18423e-08,-1.18422e-08,2.28913e-16
-0.210025,-0.92,0.193741,0.01,36.7095,423.2,-569.008,569.023,274.083,-1.07205e-08,1.07207e-08,5.16388e-09,631.593,-631.578,1.22712e-05,1.18995e-08,-1.18994e-08,2.31196e-16
-0.200025,-0.92,0.191835,0.01,35.4116,423.2,-577.22,577.236,263.453,-1.08752e-08,1.08754e-08,4.96361e-09,634.515,-634.499,1.23323e-05,1.19546e-08,-1.19544e-08,2.32347e-16
-0.190025,-0.92,0.189516,0.01,34.1714,423.2,-585.15,585.167,252.5,-1.10246e-08,1.10248e-08,4.75724e-09,637.32,-637.303,1.23295e-05,1.20074e-08,-1.20072e-08,2.32295e-16
-0.180025,-0.92,0.187592,0.01,32.9898,423.2,-592.782,592.8,241.231,-1.11684e-08,1.11686e-08,4.54493e-09,640.004,-639.986,1.226e-05,1.2058e-08,-1.20578e-08,2.30985e-16
-0.170025,-0.92,0.185823,0.01,31.8674,423.2,-600.102,600.121,229.657,-1.13064e-08,1.13066e-08,4.32687e-09,642.564,-642.545,1.21205e-05,1.21062e-08,-1.2106e-08,2.28358e-16
-0.160025,-0.92,0.183881,0.01,30.805,423.2,-607.095,607.114,217.789,-1.14381e-08,1.14383e-08,4.10327e-09,644.997,-644.977,1.19095e-05,1.2152e-08,-1.21518e-08,2.24382e-16
-0.150025,-0.92,0.182468,0.01,29.8033,423.2,-613.744,613.765,205.639,-1.15634e-08,1.15636e-08,3.87436e-09,647.298,-647.278,1.16256e-05,1.21954e-08,-1.21952e-08,2.19034e-16
-0.140025,-0.92,0.180702,0.01,28.863,423.2,-620.037,620.059,193.22,-1.1682e-08,1.16822e-08,3.64037e-09,649.467,-649.446,1.12683e-05,1.22362e-08,-1.2236e-08,2.12302e-16
-0.130025,-0.92,0.17928,0.01,27.9847,423.2,-625.96,625.982,180.545,-1.17935e-08,1.17938e-08,3.40157e-09,651.499,-651.477,1.08381e-05,1.22745e-08,-1.22743e-08,2.04196e-16
-0.120025,-0.92,0.178055,0.01,27.169,423.2,-631.5,631.522,167.629,-1.18979e-08,1.18981e-08,3.15823e-09,653.392,-653.369,1.03352e-05,1.23102e-08,-1.23099e-08,1.9472e-16
-0.110025,-0.92,0.176623,0.01,26.4165,423.2,-636.644,636.667,154.488,-1.19948e-08,1.19951e-08,2.91064e-09,655.143,-655.119,9.76142e-06,1.23432e-08,-1.23429e-08,1.83911e-16
-0.100025,-0.92,0.17575,0.01,25.7276,423.2,-641.381,641.405,141.136,-1.20841e-08,1.20843e-08,2.65909e-09,656.75,-656.726,9.11973e-06,1.23734e-08,-1.23732e-08,1.71821e-16
-0.0900249,-0.92,0.174498,0.01,25.1028,423.2,-645.701,645.726,127.592,-1.21655e-08,1.21657e-08,2.4039e-09,658.211,-658.186,8.41347e-06,1.2401e-08,-1.24007e-08,1.58515e-16
-0.0800249,-0.92,0.173622,0.01,24.5426,423.2,-649.593,649.619,113.872,-1.22388e-08,1.22391e-08,2.14541e-09,659.523,-659.498,7.64619e-06,1.24257e-08,-1.24254e-08,1.44059e-16
-0.0700249,-0.92,0.172905,0.01,24.0474,423.2,-653.05,653.075,99.9937,-1.23039e-08,1.23042e-08,1.88394e-09,660.686,-660.661,6.82205e-06,1.24476e-08,-1.24473e-08,1.28531e-16
-0.0600249,-0.92,0.172026,0.01,23.6175,423.2,-656.062,656.088,85.9764,-1.23607e-08,1.2361e-08,1.61985e-09,661.697,-661.671,5.94733e-06,1.24666e-08,-1.24664e-08,1.12051e-16
-0.0500249,-0.92,0.171727,0.01,23.2531,423.2,-658.623,658.649,71.8388,-1.24089e-08,1.24092e-08,1.35349e-09,662.555,-662.529,5.02813e-06,1.24828e-08,-1.24825e-08,9.4733e-17
-0.0400249,-0.92,0.170962,0.01,22.9547,423.2,-660.726,660.753,57.6004,-1.24486e-08,1.24489e-08,1.08522e-09,663.259,-663.232,4.07024e-06,1.24961e-08,-1.24958e-08,7.66857e-17
-0.0300249,-0.92,0.170664,0.01,22.7223,423.2,-662.368,662.395,43.2807,-1.24795e-08,1.24798e-08,8.15433e-10,663.807,-663.78,3.08081e-06,1.25064e-08,-1.25061e-08,5.80442e-17
-0.0200249,-0.92,0.170429,0.01,22.5561,423.2,-663.544,663.571,28.8999,-1.25017e-08,1.25019e-08,5.4449e-10,664.2,-664.173,2.06806e-06,1.25138e-08,-1.25135e-08,3.89635e-17
-0.0100249,-0.92,0.170133,0.01,22.4563,423.2,-664.251,664.278,14.4782,-1.2515e-08,1.25153e-08,2.72777e-10,664.436,-664.408,1.03948e-06,1.25182e-08,-1.2518e-08,1.95844e-17
-2.48653e-05,-0.92,0.170424,0.01,22.4229,423.2,-664.487,664.514,0.0359196,-1.25194e-08,1.25197e-08,6.76746e-13,664.514,-664.487,2.62752e-09,1.25197e-08,-1.25194e-08,4.9504e-20
0.00997513,-0.92,0.170133,0.01,22.456,423.2,-664.253,664.28,-14.4064,-1.2515e-08,1.25153e-08,-2.71424e-10,664.436,-664.409,-1.03436e-06,1.25182e-08,-1.2518e-08,-1.9488e-17
0.0199751,-0.92,0.170426,0.01,22.5555,423.2,-663.548,663.575,-28.8282,-1.25018e-08,1.2502e-08,-5.43141e-10,664.201,-664.174,-2.06314e-06,1.25138e-08,-1.25135e-08,-3.88707e-17
0.0299751,-0.92,0.170664,0.01,22.7213,423.2,-662.375,662.402,-43.2093,-1.24796e-08,1.24799e-08,-8.14088e-10,663.81,-663.783,-3.07585e-06,1.25064e-08,-1.25062e-08,-5.79508e-17
0.0399751,-0.92,0.170959,0.01,22.9534,423.2,-660.736,660.762,-57.5293,-1.24488e-08,1.2449e-08,-1.08389e-09,663.262,-663.235,-4.06497e-06,1.24961e-08,-1.24959e-08,-7.65864e-17
0.0499751,-0.92,0.171727,0.01,23.2515,423.2,-658.634,658.661,-71.7683,-1.24092e-08,1.24094e-08,-1.35216e-09,662.559,-662.533,-5.02325e-06,1.24829e-08,-1.24826e-08,-9.46409e-17
0.0599751,-0.92,0.172024,0.01,23.6155,423.2,-656.076,656.102,-85.9064,-1.2361e-08,1.23612e-08,-1.61853e-09,661.702,-661.676,-5.94325e-06,1.24667e-08,-1.24665e-08,-1.11974e-16
0.0699751,-0.92,0.172899,0.01,24.0451,423.2,-653.066,653.091,-99.9243,-1.23042e-08,1.23045e-08,-1.88263e-09,660.692,-660.666,-6.81791e-06,1.24477e-08,-1.24474e-08,-1.28453e-16
0.0799751,-0.92,0.17362,0.01,24.54,423.2,-649.612,649.637,-113.803,-1.22392e-08,1.22394e-08,-2.14411e-09,659.53,-659.505,-7.64158e-06,1.24258e-08,-1.24256e-08,-1.43972e-16
0.0899751,-0.92,0.174493,0.01,25.0999,423.2,-645.721,645.746,-127.524,-1.21659e-08,1.21661e-08,-2.40263e-09,658.218,-658.193,-8.40941e-06,1.24011e-08,-1.24008e-08,-1.58438e-16
0.0999751,-0.92,0.175747,0.01,25.7243,423.2,-641.404,641.428,-141.069,-1.20845e-08,1.20848e-08,-2.65783e-09,656.757,-656.733,-9.11661e-06,1.23736e-08,-1.23733e-08,-1.71762e-16
0.109975,-0.92,0.176618,0.01,26.4129,423.2,-636.668,636.692,-154.422,-1.19953e-08,1.19955e-08,-2.9094e-09,655.151,-655.128,-9.75851e-06,1.23433e-08,-1.23431e-08,-1.83856e-16
0.119975,-0.92,0.178047,0.01,27.1651,423.2,-631.526,631.549,-167.564,-1.18984e-08,1.18986e-08,-3.15701e-09,653.401,-653.378,-1.03324e-05,1.23103e-08,-1.23101e-08,-1.94668e-16
0.129975,-0.92,0.179274,0.01,27.9805,423.2,-625.989,626.011,-180.481,-1.17941e-08,1.17943e-08,-3.40037e-09,651.508,-651.486,-1.08356e-05,1.22747e-08,-1.22745e-08,-2.04149e-16
0.139975,-0.92,0.180694,0.01,28.8585,423.2,-620.068,620.089,-193.157,-1.16825e-08,1.16827e-08,-3.6392e-09,649.477,-649.456,-1.12662e-05,1.22364e-08,-1.22362e-08,-2.12262e-16
0.149975,-0.92,0.182462,0.01,29.7985,423.2,-613.777,613.797,-205.578,-1.1564e-08,1.15642e-08,-3.8732e-09,647.31,-647.289,-1.16239e-05,1.21956e-08,-1.21954e-08,-2.19001e-16
0.159975,-0.92,0.183873,0.01,30.7999,423.2,-607.129,607.148,-217.729,-1.14387e-08,1.14389e-08,-4.10214e-09,645.008,-644.989,-1.19085e-05,1.21522e-08,-1.2152e-08,-2.24363e-16
0.169975,-0.92,0.185812,0.01,31.8619,423.2,-600.138,600.157,-229.598,-1.1307e-08,1.13072e-08,-4.32577e-09,642.577,-642.558,-1.21198e-05,1.21064e-08,-1.21062e-08,-2.28344e-16
0.179975,-0.92,0.187584,0.01,32.984,423.2,-592.82,592.838,-241.174,-1.11691e-08,1.11693e-08,-4.54386e-09,640.017,-639.999,-1.22593e-05,1.20582e-08,-1.2058e-08,-2.30973e-16
0.189975,-0.92,0.189505,0.01,34.1654,423.2,-585.188,585.205,-252.444,-1.10254e-08,1.10255e-08,-4.7562e-09,637.334,-637.317,-1.23294e-05,1.20077e-08,-1.20075e-08,-2.32293e-16
0.199975,-0.92,0.191826,0.01,35.4053,423.2,-577.26,577.276,-263.4,-1.0876e-08,1.08761e-08,-4.9626e-09,634.53,-634.513,-1.23329e-05,1.19548e-08,-1.19547e-08,-2.32358e-16
0.209975,-0.92,0.193731,0.01,36.7029,423.2,-569.05,569.065,-274.031,-1.07213e-08,1.07214e-08,-5.1629e-09,631.608,-631.593,-1.22723e-05,1.18998e-08,-1.18996e-08,-2.31217e-16
0.219975,-0.92,0.196127,0.01,38.0574,423.2,-560.574,560.589,-284.329,-1.05616e-08,1.05618e-08,-5.35692e-09,628.573,-628.558,-1.21506e-05,1.18426e-08,-1.18425e-08,-2.28925e-16
0.229975,-0.92,0.198489,0.01,39.468,423.2,-551.85,551.863,-294.287,-1.03972e-08,1.03974e-08,-5.54455e-09,625.427,-625.414,-1.19724e-05,1.17834e-08,-1.17832e-08,-2.25567e-16
0.239975,-0.92,0.200858,0.01,40.9338,423.2,-542.893,542.906,-303.899,-1.02285e-08,1.02286e-08,-5.72564e-09,622.175,-622.163,-1.17421e-05,1.17221e-08,-1.1722e-08,-2.21228e-16
0.249975,-0.92,0.203692,0.01,42.4538,423.2,-533.72,533.732,-313.159,-1.00557e-08,1.00558e-08,-5.90011e-09,618.821,-618.81,-1.14641e-05,1.16589e-08,-1.16588e-08,-2.15991e-16
0.259975,-0.92,0.206123,0.01,44.0272,423.2,-524.348,524.359,-322.063,-9.87907e-09,9.87918e-09,-6.06785e-09,615.368,-615.357,-1.11432e-05,1.15938e-08,-1.15937e-08,-2.09944e-16
0.269975,-0.92,0.20892,0.01,45.6531,423.2,-514.794,514.803,-330.606,-9.69905e-09,9.69915e-09,-6.22881e-09,611.82,-611.81,-1.07841e-05,1.1527e-08,-1.15269e-08,-2.03178e-16
0.279975,-0.92,0.211921,0.01,47.3304,423.2,-505.073,505.081,-338.786,-9.5159e-09,9.51599e-09,-6.38293e-09,608.181,-608.173,-1.03916e-05,1.14584e-08,-1.14584e-08,-1.95783e-16
0.289975,-0.92,0.214684,0.01,49.0582,423.2,-495.215,495.213,-346.607,-9.33012e-09,9.33011e-09,-6.53028e-09,604.46,-604.462,-6.9039e-06,1.13884e-08,-1.13884e-08,-1.30074e-16
0.299975,-0.92,0.217872,0.01,50.8356,423.2,-485.399,485.274,-354.056,-9.14465e-09,9.14338e-09,-6.67062e-09,600.693,-600.818,-0.0750116,1.13179e-08,-1.13192e-08,-1.41326e-12
0.309975,-0.92,0.220983,0.01,52.6614,423.2,-475.323,475.092,-361.249,-8.95435e-09,8.95201e-09,-6.80614e-09,596.812,-597.043,0.0151834,1.12453e-08,-1.12476e-08,2.86065e-13
0.319975,-0.92,0.224128,0.01,54.5348,423.2,-466.816,464.989,-369.199,-8.78713e-09,8.7686e-09,-6.95592e-09,593.538,-595.365,0.408985,1.11905e-08,-1.12091e-08,7.70551e-12
0.329975,-0.92,0.227669,0.01,56.4547,423.2,-459.248,455.444,-376.002,-8.63597e-09,8.59737e-09,-7.0841e-09,590.165,-593.969,-0.389107,1.11356e-08,-1.11742e-08,-7.33101e-12
0.339975,-0.92,0.230921,0.01,58.42,423.2,-447.59,445.255,-381.827,-8.42269e-09,8.39901e-09,-7.19384e-09,586.271,-588.606,-0.224106,1.10558e-08,-1.10795e-08,-4.22228e-12
0.349975,-0.92,0.234411,0.01,60.4297,423.2,-438.769,434.387,-390.006,-8.24761e-09,8.20315e-09,-7.34794e-09,583.218,-587.6,1.23417,1.10072e-08,-1.10517e-08,2.32524e-11
0.359975,-0.92,0.238251,0.01,62.4829,423.2,-434.735,425.889,-396.229,-8.1522e-09,8.06246e-09,-7.46518e-09,580.525,-589.372,-1.01963,1.09759e-08,-1.10656e-08,-1.92105e-11
0.369975,-0.92,0.241693,0.01,64.5783,423.2,-423.729,415.791,-400.742,-7.94879e-09,7.86826e-09,-7.55021e-09,576.367,-584.306,-1.44383,1.08936e-08,-1.09741e-08,-2.72026e-11
-0.400025,-0.91,0.244112,0.01,65.9586,414.05,-387.883,387.804,427.382,-7.3076e-09,7.3068e-09,8.05212e-09,577.081,-577.16,-3.19573,1.08729e-08,-1.08737e-08,-6.02094e-11
-0.390025,-0.91,0.24022,0.01,63.7011,414.05,-406.5,397.79,421.115,-7.62082e-09,7.53246e-09,7.93406e-09,577.932,-586.642,0.810818,1.09264e-08,-1.10148e-08,1.52763e-11
-0.380025,-0.91,0.236373,0.01,61.4832,414.05,-419.115,406.837,418.216,-7.84299e-09,7.71842e-09,7.87942e-09,581.614,-593.892,-0.30146,1.10113e-08,-1.11359e-08,-5.67967e-12
-0.370025,-0.91,0.23242,0.01,59.3059,414.05,-423.309,417.407,410.787,-7.94973e-09,7.88985e-09,7.73946e-09,584.795,-590.698,-0.870623,1.10435e-08,-1.11034e-08,-1.6403e-11
-0.360025,-0.91,0.228836,0.01,57.1704,414.05,-432.677,429.415,403.314,-8.13771e-09,8.10461e-09,7.59867e-09,588.675,-591.938,0.765701,1.11052e-08,-1.11383e-08,1.44263e-11
-0.350025,-0.91,0.225161,0.01,55.0777,414.05,-441.163,439.256,397.922,-8.30348e-09,8.28412e-09,7.49708e-09,592.448,-594.356,-0.350587,1.11704e-08,-1.11897e-08,-6.60527e-12
-0.340025,-0.91,0.221523,0.01,53.0289,414.05,-450.191,449.924,390.979,-8.4807e-09,8.47799e-09,7.36627e-09,596.035,-596.301,-0.05261,1.12308e-08,-1.12335e-08,-9.91203e-13
-0.330025,-0.91,0.218283,0.01,51.0251,414.05,-460.871,460.76,384.77,-8.68259e-09,8.68147e-09,7.24929e-09,600.277,-600.388,0.0709485,1.131e-08,-1.13112e-08,1.33671e-12
-0.320025,-0.91,0.214748,0.01,49.0674,414.05,-471.39,471.386,378.342,-8.88124e-09,8.8812e-09,7.12819e-09,604.439,-604.443,0.000619763,1.1388e-08,-1.1388e-08,1.16767e-14
-0.310025,-0.91,0.211461,0.01,47.1568,414.05,-481.975,481.98,371.529,-9.08071e-09,9.08076e-09,6.99982e-09,608.555,-608.55,9.50147e-06,1.14655e-08,-1.14655e-08,1.79013e-16
-0.300025,-0.91,0.208511,0.01,45.2944,414.05,-492.471,492.478,364.339,-9.27847e-09,9.27854e-09,6.86436e-09,612.599,-612.593,1.00077e-05,1.15417e-08,-1.15416e-08,1.88551e-16
-0.290025,-0.91,0.205175,0.01,43.4813,414.05,-502.85,502.858,356.766,-9.47402e-09,9.4741e-09,6.72169e-09,616.562,-616.555,1.04949e-05,1.16164e-08,-1.16163e-08,1.97729e-16
-0.280025,-0.91,0.20228,0.01,41.7184,414.05,-513.095,513.104,348.811,-9.66705e-09,9.66714e-09,6.5718e-09,620.44,-620.431,1.09576e-05,1.16894e-08,-1.16893e-08,2.06447e-16
-0.270025,-0.91,0.199425,0.01,40.0069,414.05,-523.189,523.199,340.474,-9.85723e-09,9.85733e-09,6.41473e-09,624.228,-624.218,1.13911e-05,1.17608e-08,-1.17607e-08,2.14616e-16
-0.260025,-0.91,0.19649,0.01,38.3476,414.05,-533.115,533.126,331.757,-1.00442e-08,1.00444e-08,6.25049e-09,627.923,-627.912,1.17905e-05,1.18304e-08,-1.18303e-08,2.2214e-16
-0.250025,-0.91,0.194027,0.01,36.7417,414.05,-542.855,542.867,322.662,-1.02278e-08,1.02279e-08,6.07915e-09,631.519,-631.507,1.21496e-05,1.18981e-08,-1.1898e-08,2.28906e-16
-0.240025,-0.91,0.191235,0.01,35.1901,414.05,-552.392,552.404,313.194,-1.04074e-08,1.04076e-08,5.90076e-09,635.014,-635.001,1.24632e-05,1.1964e-08,-1.19638e-08,2.34814e-16
-0.230025,-0.91,0.188742,0.01,33.6937,414.05,-561.707,561.721,303.357,-1.0583e-08,1.05831e-08,5.71543e-09,638.402,-638.388,1.27263e-05,1.20278e-08,-1.20277e-08,2.39772e-16
-0.220025,-0.91,0.186513,0.01,32.2534,414.05,-570.785,570.799,293.157,-1.0754e-08,1.07541e-08,5.52324e-09,641.681,-641.666,1.29331e-05,1.20896e-08,-1.20894e-08,2.43667e-16
-0.210025,-0.91,0.183989,0.01,30.8703,414.05,-579.606,579.622,282.599,-1.09202e-08,1.09203e-08,5.32433e-09,644.845,-644.829,1.30788e-05,1.21492e-08,-1.2149e-08,2.46412e-16
-0.200025,-0.91,0.18198,0.01,29.5451,414.05,-588.155,588.171,271.692,-1.10812e-08,1.10814e-08,5.11884e-09,647.891,-647.875,1.31595e-05,1.22066e-08,-1.22064e-08,2.47933e-16
-0.190025,-0.91,0.179769,0.01,28.2787,414.05,-596.413,596.43,260.444,-1.12368e-08,1.1237e-08,4.90692e-09,650.816,-650.798,1.31717e-05,1.22617e-08,-1.22615e-08,2.48163e-16
-0.180025,-0.91,0.17774,0.01,27.072,414.05,-604.363,604.382,248.865,-1.13866e-08,1.13868e-08,4.68877e-09,653.615,-653.596,1.31116e-05,1.23144e-08,-1.23142e-08,2.4703e-16
-0.170025,-0.91,0.176082,0.01,25.9257,414.05,-611.991,612.01,236.965,-1.15303e-08,1.15305e-08,4.46456e-09,656.285,-656.266,1.29755e-05,1.23647e-08,-1.23645e-08,2.44465e-16
-0.160025,-0.91,0.174032,0.01,24.8406,414.05,-619.279,619.299,224.756,-1.16677e-08,1.16679e-08,4.23453e-09,658.823,-658.802,1.27616e-05,1.24125e-08,-1.24123e-08,2.40436e-16
-0.150025,-0.91,0.172537,0.01,23.8174,414.05,-626.211,626.233,212.25,-1.17983e-08,1.17985e-08,3.99891e-09,661.225,-661.203,1.24686e-05,1.24578e-08,-1.24575e-08,2.34916e-16
-0.140025,-0.91,0.170855,0.01,22.8568,414.05,-632.774,632.796,199.46,-1.19219e-08,1.19221e-08,3.75795e-09,663.487,-663.465,1.20956e-05,1.25004e-08,-1.25002e-08,2.27888e-16
-0.130025,-0.91,0.16935,0.01,21.9595,414.05,-638.951,638.974,186.401,-1.20383e-08,1.20385e-08,3.51191e-09,665.608,-665.585,1.1643e-05,1.25403e-08,-1.25401e-08,2.19361e-16
-0.120025,-0.91,0.168211,0.01,21.1261,414.05,-644.731,644.754,173.088,-1.21472e-08,1.21474e-08,3.26108e-09,667.584,-667.56,1.11109e-05,1.25776e-08,-1.25773e-08,2.09336e-16
-0.110025,-0.91,0.166694,0.01,20.3572,414.05,-650.099,650.123,159.537,-1.22483e-08,1.22486e-08,3.00578e-09,669.412,-669.388,1.05009e-05,1.2612e-08,-1.26118e-08,1.97843e-16
-0.100025,-0.91,0.165768,0.01,19.6533,414.05,-655.043,655.068,145.765,-1.23415e-08,1.23418e-08,2.7463e-09,671.09,-671.065,9.81645e-06,1.26436e-08,-1.26434e-08,1.84948e-16
-0.0900249,-0.91,0.16457,0.01,19.0149,414.05,-659.552,659.578,131.789,-1.24265e-08,1.24267e-08,2.48299e-09,672.616,-672.59,9.06097e-06,1.26724e-08,-1.26721e-08,1.70714e-16
-0.0800249,-0.91,0.163641,0.01,18.4424,414.05,-663.616,663.642,117.628,-1.2503e-08,1.25033e-08,2.21618e-09,673.987,-673.96,8.23848e-06,1.26982e-08,-1.26979e-08,1.55218e-16
-0.0700249,-0.91,0.162977,0.01,17.9363,414.05,-667.225,667.252,103.3,-1.2571e-08,1.25713e-08,1.94624e-09,675.201,-675.174,7.35411e-06,1.27211e-08,-1.27208e-08,1.38556e-16
-0.0600249,-0.91,0.162045,0.01,17.4969,414.05,-670.371,670.398,88.8254,-1.26303e-08,1.26306e-08,1.67352e-09,676.257,-676.23,6.41384e-06,1.2741e-08,-1.27407e-08,1.2084e-16
-0.0500249,-0.91,0.161727,0.01,17.1246,414.05,-673.045,673.073,74.2236,-1.26807e-08,1.2681e-08,1.39842e-09,677.153,-677.126,5.42407e-06,1.27578e-08,-1.27576e-08,1.02193e-16
-0.0400249,-0.91,0.160981,0.01,16.8195,414.05,-675.243,675.27,59.5152,-1.27221e-08,1.27224e-08,1.1213e-09,677.888,-677.86,4.39186e-06,1.27717e-08,-1.27714e-08,8.27451e-17
-0.0300249,-0.91,0.160664,0.01,16.582,414.05,-676.957,676.985,44.7212,-1.27544e-08,1.27547e-08,8.42572e-10,678.461,-678.433,3.32528e-06,1.27825e-08,-1.27822e-08,6.26503e-17
-0.0200249,-0.91,0.160447,0.01,16.4122,414.05,-678.186,678.214,29.8625,-1.27775e-08,1.27778e-08,5.62627e-10,678.871,-678.843,2.23272e-06,1.27902e-08,-1.27899e-08,4.20658e-17
-0.0100249,-0.91,0.160133,0.01,16.3102,414.05,-678.924,678.952,14.9606,-1.27914e-08,1.27917e-08,2.81867e-10,679.117,-679.089,1.12221e-06,1.27948e-08,-1.27946e-08,2.11431e-17
-2.48653e-05,-0.91,0.160442,0.01,16.276,414.05,-679.171,679.2,0.0371168,-1.27961e-08,1.27964e-08,6.99302e-13,679.2,-679.171,2.77979e-09,1.27964e-08,-1.27961e-08,5.23728e-20
0.00997513,-0.91,0.160133,0.01,16.3098,414.05,-678.927,678.955,-14.8865,-1.27915e-08,1.27918e-08,-2.8047e-10,679.118,-679.09,-1.11643e-06,1.27949e-08,-1.27946e-08,-2.10342e-17
0.0199751,-0.91,0.160444,0.01,16.4115,414.05,-678.191,678.219,-29.7885,-1.27776e-08,1.27779e-08,-5.61232e-10,678.873,-678.844,-2.22716e-06,1.27902e-08,-1.27899e-08,-4.19609e-17
0.0299751,-0.91,0.160664,0.01,16.581,414.05,-676.965,676.993,-44.6474,-1.27545e-08,1.27548e-08,-8.41183e-10,678.463,-678.435,-3.32016e-06,1.27825e-08,-1.27822e-08,-6.25537e-17
0.0399751,-0.91,0.160977,0.01,16.8182,414.05,-675.252,675.28,-59.4419,-1.27223e-08,1.27225e-08,-1.11992e-09,677.891,-677.864,-4.38636e-06,1.27717e-08,-1.27715e-08,-8.26416e-17
0.0499751,-0.91,0.161727,0.01,17.1229,414.05,-673.057,673.085,-74.1507,-1.26809e-08,1.26812e-08,-1.39704e-09,677.157,-677.13,-5.41838e-06,1.27579e-08,-1.27576e-08,-1.02086e-16
0.0599751,-0.91,0.162042,0.01,17.4949,414.05,-670.385,670.412,-88.7531,-1.26306e-08,1.26308e-08,-1.67216e-09,676.262,-676.235,-6.40875e-06,1.2741e-08,-1.27408e-08,-1.20745e-16
0.0699751,-0.91,0.162971,0.01,17.934,414.05,-667.242,667.269,-103.229,-1.25713e-08,1.25716e-08,-1.94489e-09,675.206,-675.18,-7.34943e-06,1.27212e-08,-1.27209e-08,-1.38467e-16
0.0799751,-0.91,0.163638,0.01,18.4397,414.05,-663.635,663.661,-117.557,-1.25034e-08,1.25037e-08,-2.21484e-09,673.993,-673.967,-8.23416e-06,1.26983e-08,-1.2698e-08,-1.55136e-16
0.0899751,-0.91,0.164564,0.01,19.0119,414.05,-659.574,659.599,-131.719,-1.24269e-08,1.24271e-08,-2.48167e-09,672.623,-672.597,-9.05725e-06,1.26725e-08,-1.26722e-08,-1.70644e-16
0.0999751,-0.91,0.165765,0.01,19.65,414.05,-655.067,655.092,-145.696,-1.23419e-08,1.23422e-08,-2.745e-09,671.098,-671.073,-9.81327e-06,1.26438e-08,-1.26435e-08,-1.84888e-16
0.109975,-0.91,0.166688,0.01,20.3535,414.05,-650.124,650.149,-159.469,-1.22488e-08,1.22491e-08,-3.0045e-09,669.421,-669.397,-1.04979e-05,1.26122e-08,-1.26119e-08,-1.97787e-16
0.119975,-0.91,0.168202,0.01,21.1221,414.05,-644.759,644.782,-173.022,-1.21477e-08,1.2148e-08,-3.25983e-09,667.593,-667.57,-1.11079e-05,1.25777e-08,-1.25775e-08,-2.09279e-16
0.129975,-0.91,0.169344,0.01,21.9552,414.05,-638.981,639.004,-186.336,-1.20389e-08,1.20391e-08,-3.51067e-09,665.618,-665.595,-1.16408e-05,1.25405e-08,-1.25403e-08,-2.19319e-16
0.139975,-0.91,0.170846,0.01,22.8522,414.05,-632.805,632.827,-199.396,-1.19225e-08,1.19227e-08,-3.75673e-09,663.498,-663.476,-1.20939e-05,1.25006e-08,-1.25004e-08,-2.27857e-16
0.149975,-0.91,0.172531,0.01,23.8124,414.05,-626.245,626.266,-212.187,-1.17989e-08,1.17991e-08,-3.99773e-09,661.236,-661.215,-1.2467e-05,1.2458e-08,-1.24578e-08,-2.34885e-16
0.159975,-0.91,0.174023,0.01,24.8353,414.05,-619.314,619.334,-224.695,-1.16683e-08,1.16685e-08,-4.23338e-09,658.835,-658.815,-1.27607e-05,1.24127e-08,-1.24125e-08,-2.40418e-16
0.169975,-0.91,0.176071,0.01,25.9201,414.05,-612.028,612.048,-236.905,-1.1531e-08,1.15312e-08,-4.46343e-09,656.298,-656.279,-1.29749e-05,1.2365e-08,-1.23648e-08,-2.44455e-16
0.179975,-0.91,0.177731,0.01,27.0661,414.05,-604.402,604.421,-248.807,-1.13874e-08,1.13876e-08,-4.68767e-09,653.629,-653.61,-1.31109e-05,1.23147e-08,-1.23145e-08,-2.47017e-16
0.189975,-0.91,0.179758,0.01,28.2726,414.05,-596.453,596.471,-260.388,-1.12376e-08,1.12378e-08,-4.90585e-09,650.83,-650.812,-1.31712e-05,1.22619e-08,-1.22618e-08,-2.48153e-16
0.199975,-0.91,0.181972,0.01,29.5387,414.05,-588.196,588.213,-271.637,-1.1082e-08,1.10822e-08,-5.1178e-09,647.906,-647.889,-1.31597e-05,1.22069e-08,-1.22067e-08,-2.47937e-16
0.209975,-0.91,0.183978,0.01,30.8636,414.05,-579.649,579.665,-282.546,-1.0921e-08,1.09212e-08,-5.32332e-09,644.86,-644.845,-1.30796e-05,1.21495e-08,-1.21493e-08,-2.46427e-16
0.219975,-0.91,0.186499,0.01,32.2464,414.05,-570.829,570.844,-293.105,-1.07548e-08,1.0755e-08,-5.52227e-09,641.697,-641.682,-1.29336e-05,1.20899e-08,-1.20897e-08,-2.43677e-16
0.229975,-0.91,0.188731,0.01,33.6864,414.05,-561.753,561.767,-303.307,-1.05838e-08,1.0584e-08,-5.71449e-09,638.419,-638.405,-1.2727e-05,1.20281e-08,-1.2028e-08,-2.39784e-16
0.239975,-0.91,0.191221,0.01,35.1825,414.05,-552.439,552.451,-313.146,-1.04083e-08,1.04084e-08,-5.89986e-09,635.031,-635.018,-1.24648e-05,1.19643e-08,-1.19642e-08,-2.34843e-16
0.249975,-0.91,0.194016,0.01,36.7339,414.05,-542.903,542.915,-322.616,-1.02287e-08,1.02288e-08,-6.07828e-09,631.537,-631.525,-1.21514e-05,1.18985e-08,-1.18983e-08,-2.2894e-16
0.259975,-0.91,0.196477,0.01,38.3395,414.05,-533.164,533.175,-331.712,-1.00452e-08,1.00453e-08,-6.24966e-09,627.941,-627.93,-1.17924e-05,1.18307e-08,-1.18306e-08,-2.22176e-16
0.269975,-0.91,0.19941,0.01,39.9985,414.05,-523.239,523.249,-340.431,-9.85817e-09,9.85827e-09,-6.41393e-09,624.247,-624.237,-1.13937e-05,1.17611e-08,-1.1761e-08,-2.14664e-16
0.279975,-0.91,0.202267,0.01,41.7098,414.05,-513.146,513.155,-348.771,-9.668e-09,9.66809e-09,-6.57104e-09,620.459,-620.45,-1.09602e-05,1.16898e-08,-1.16897e-08,-2.06496e-16
0.289975,-0.91,0.20516,0.01,43.4724,414.05,-502.901,502.909,-356.728,-9.47499e-09,9.47507e-09,-6.72096e-09,616.582,-616.574,-1.04969e-05,1.16167e-08,-1.16166e-08,-1.97767e-16
0.299975,-0.91,0.208493,0.01,45.2853,414.05,-492.523,492.53,-364.302,-9.27945e-09,9.27951e-09,-6.86367e-09,612.619,-612.613,-1.00096e-05,1.15421e-08,-1.1542e-08,-1.88587e-16
0.309975,-0.91,0.211446,0.01,47.1474,414.05,-482.027,482.033,-371.494,-9.08169e-09,9.08175e-09,-6.99917e-09,608.576,-608.57,-9.50379e-06,1.14659e-08,-1.14658e-08,-1.79057e-16
0.319975,-0.91,0.21473,0.01,49.0578,414.05,-471.443,471.438,-378.309,-8.88224e-09,8.88219e-09,-7.12757e-09,604.46,-604.464,-0.000618894,1.13884e-08,-1.13884e-08,-1.16603e-14
0.329975,-0.91,0.218268,0.01,51.0153,414.05,-460.924,460.813,-384.739,-8.6836e-09,8.68247e-09,-7.2487e-09,600.298,-600.409,-0.0709601,1.13104e-08,-1.13116e-08,-1.33693e-12
0.339975,-0.91,0.221506,0.01,53.0188,414.05,-450.245,449.978,-390.95,-8.48171e-09,8.47901e-09,-7.36572e-09,596.056,-596.323,0.0525599,1.12312e-08,-1.12339e-08,9.90258e-13
0.349975,-0.91,0.225142,0.01,55.0674,414.05,-441.217,439.309,-397.894,-8.30449e-09,8.28514e-09,-7.49656e-09,592.47,-594.378,0.350689,1.11708e-08,-1.11901e-08,6.60719e-12
0.359975,-0.91,0.228819,0.01,57.1599,414.05,-432.732,429.469,-403.288,-8.13873e-09,8.10563e-09,-7.59818e-09,588.698,-591.96,-0.765831,1.11056e-08,-1.11387e-08,-1.44287e-11
0.369975,-0.91,0.232401,0.01,59.2952,414.05,-423.364,417.461,-410.763,-7.95076e-09,7.89087e-09,-7.73901e-09,584.817,-590.72,0.870404,1.1044e-08,-1.11038e-08,1.63989e-11
0.379975,-0.91,0.236352,0.01,61.4723,414.05,-419.171,406.891,-418.194,-7.84403e-09,7.71946e-09,-7.87901e-09,581.636,-593.916,0.301569,1.10118e-08,-1.11363e-08,5.68174e-12
0.389975,-0.91,0.240201,0.01,63.69,414.05,-406.556,397.845,-421.095,-7.62188e-09,7.5335e-09,-7.93367e-09,577.955,-586.666,-0.811408,1.09269e-08,-1.10153e-08,-1.52874e-11
0.399975,-0.91,0.244092,0.01,65.9473,414.05,-387.938,387.86,-427.363,-7.30864e-09,7.30784e-09,-8.05177e-09,577.104,-577.183,3.19493,1.08733e-08,-1.08741e-08,6.01943e-11
-0.420025,-0.9,0.243264,0.01,65.4747,405,-375.91,367.663,443.107,-7.0465e-09,6.96284e-09,8.34839e-09,574.296,-582.542,0.348459,1.08559e-08,-1.09396e-08,6.56517e-12
-0.410025,-0.9,0.239282,0.01,63.0983,405,-388.183,379.052,439.811,-7.27389e-09,7.18126e-09,8.28629e-09,579.04,-588.171,0.839676,1.09492e-08,-1.10418e-08,1.582e-11
-0.400025,-0.9,0.235011,0.01,60.7597,405,-393.245,388.567,435.338,-7.38863e-09,7.34117e-09,8.20202e-09,582.746,-587.424,-1.53692,1.09996e-08,-1.10471e-08,-2.89565e-11
-0.390025,-0.9,0.230966,0.01,58.4599,405,-402.449,400.33,428.643,-7.57316e-09,7.55167e-09,8.07587e-09,586.178,-588.297,-0.210106,1.10531e-08,-1.10746e-08,-3.95851e-12
-0.380025,-0.9,0.227288,0.01,56.2,405,-415.366,411.693,424.241,-7.80977e-09,7.7725e-09,7.99294e-09,590.605,-594.277,0.530324,1.11433e-08,-1.11806e-08,9.99161e-12
-0.370025,-0.9,0.22319,0.01,53.9813,405,-424.26,422.276,419.288,-7.98467e-09,7.96455e-09,7.89962e-09,594.792,-596.775,-0.316154,1.12148e-08,-1.1235e-08,-5.95653e-12
-0.360025,-0.9,0.219456,0.01,51.8048,405,-433.682,433.385,413.03,-8.16953e-09,8.16652e-09,7.78172e-09,598.638,-598.935,-0.0732696,1.128e-08,-1.1283e-08,-1.38044e-12
-0.350025,-0.9,0.215958,0.01,49.6716,405,-444.662,444.655,407.506,-8.37766e-09,8.37758e-09,7.67766e-09,603.14,-603.147,0.00121137,1.13635e-08,-1.13636e-08,2.28229e-14
-0.340025,-0.9,0.212162,0.01,47.5829,405,-455.834,455.837,401.783,-8.58818e-09,8.58821e-09,7.56983e-09,607.632,-607.63,8.24783e-06,1.14481e-08,-1.14481e-08,1.55394e-16
-0.330025,-0.9,0.208777,0.01,45.5398,405,-466.968,466.972,395.675,-8.79797e-09,8.79801e-09,7.45474e-09,612.064,-612.06,8.82399e-06,1.15316e-08,-1.15316e-08,1.66249e-16
-0.320025,-0.9,0.205408,0.01,43.5434,405,-478.037,478.042,389.172,-9.00651e-09,9.00656e-09,7.33223e-09,616.425,-616.42,9.39728e-06,1.16138e-08,-1.16137e-08,1.7705e-16
-0.310025,-0.9,0.201969,0.01,41.5948,405,-489.023,489.029,382.273,-9.21351e-09,9.21357e-09,7.20224e-09,620.711,-620.706,9.96296e-06,1.16945e-08,-1.16945e-08,1.87708e-16
-0.300025,-0.9,0.198975,0.01,39.695,405,-499.911,499.917,374.974,-9.41864e-09,9.4187e-09,7.06473e-09,624.919,-624.912,1.05154e-05,1.17738e-08,-1.17737e-08,1.98116e-16
-0.290025,-0.9,0.195699,0.01,37.8453,405,-510.681,510.689,367.276,-9.62156e-09,9.62164e-09,6.9197e-09,629.044,-629.036,1.10489e-05,1.18515e-08,-1.18514e-08,2.08168e-16
-0.280025,-0.9,0.192661,0.01,36.0467,405,-521.317,521.326,359.178,-9.82196e-09,9.82205e-09,6.76712e-09,633.08,-633.072,1.15577e-05,1.19276e-08,-1.19275e-08,2.17753e-16
-0.270025,-0.9,0.189965,0.01,34.3001,405,-531.801,531.811,350.68,-1.00195e-08,1.00196e-08,6.60702e-09,637.025,-637.015,1.20364e-05,1.20019e-08,-1.20018e-08,2.26772e-16
-0.260025,-0.9,0.186882,0.01,32.6068,405,-542.115,542.126,341.785,-1.02138e-08,1.02139e-08,6.43942e-09,640.873,-640.862,1.24797e-05,1.20744e-08,-1.20743e-08,2.35125e-16
-0.250025,-0.9,0.18429,0.01,30.9676,405,-552.239,552.251,332.494,-1.04046e-08,1.04047e-08,6.26438e-09,644.62,-644.608,1.28808e-05,1.2145e-08,-1.21448e-08,2.42681e-16
-0.240025,-0.9,0.181637,0.01,29.3837,405,-562.156,562.169,322.811,-1.05914e-08,1.05915e-08,6.08195e-09,648.261,-648.248,1.32333e-05,1.22136e-08,-1.22134e-08,2.49322e-16
-0.230025,-0.9,0.179011,0.01,27.856,405,-571.847,571.861,312.742,-1.0774e-08,1.07741e-08,5.89224e-09,651.793,-651.779,1.35317e-05,1.22801e-08,-1.228e-08,2.54945e-16
-0.220025,-0.9,0.176911,0.01,26.3855,405,-581.294,581.309,302.291,-1.0952e-08,1.09521e-08,5.69533e-09,655.211,-655.196,1.37709e-05,1.23445e-08,-1.23443e-08,2.59452e-16
-0.210025,-0.9,0.174265,0.01,24.9731,405,-590.478,590.494,291.465,-1.1125e-08,1.11252e-08,5.49137e-09,658.51,-658.494,1.39453e-05,1.24066e-08,-1.24065e-08,2.62737e-16
-0.200025,-0.9,0.172143,0.01,23.6198,405,-599.38,599.397,280.272,-1.12927e-08,1.12929e-08,5.28049e-09,661.687,-661.67,1.4049e-05,1.24665e-08,-1.24663e-08,2.64691e-16
-0.190025,-0.9,0.170052,0.01,22.3264,405,-607.983,608.001,268.721,-1.14548e-08,1.1455e-08,5.06285e-09,664.738,-664.72,1.40784e-05,1.2524e-08,-1.25238e-08,2.65245e-16
-0.180025,-0.9,0.167905,0.01,21.0937,405,-616.268,616.287,256.821,-1.16109e-08,1.16111e-08,4.83865e-09,667.659,-667.639,1.40297e-05,1.2579e-08,-1.25788e-08,2.64328e-16
-0.170025,-0.9,0.166333,0.01,19.9228,405,-624.219,624.239,244.583,-1.17607e-08,1.17609e-08,4.60809e-09,670.445,-670.425,1.38987e-05,1.26315e-08,-1.26313e-08,2.6186e-16
-0.160025,-0.9,0.1642,0.01,18.8142,405,-631.818,631.839,232.02,-1.19039e-08,1.19041e-08,4.3714e-09,673.094,-673.072,1.36831e-05,1.26814e-08,-1.26812e-08,2.57797e-16
-0.150025,-0.9,0.162616,0.01,17.7688,405,-639.049,639.071,219.145,-1.20401e-08,1.20404e-08,4.12881e-09,675.601,-675.579,1.33811e-05,1.27286e-08,-1.27284e-08,2.52108e-16
-0.140025,-0.9,0.161027,0.01,16.7873,405,-645.895,645.918,205.97,-1.21691e-08,1.21694e-08,3.8806e-09,677.963,-677.94,1.29922e-05,1.27731e-08,-1.27729e-08,2.4478e-16
-0.130025,-0.9,0.159429,0.01,15.8704,405,-652.341,652.365,192.512,-1.22906e-08,1.22908e-08,3.62703e-09,680.178,-680.154,1.25162e-05,1.28148e-08,-1.28146e-08,2.35812e-16
-0.120025,-0.9,0.158386,0.01,15.0188,405,-658.374,658.398,178.786,-1.24042e-08,1.24045e-08,3.36843e-09,682.241,-682.217,1.19532e-05,1.28537e-08,-1.28535e-08,2.25205e-16
-0.110025,-0.9,0.156774,0.01,14.2329,405,-663.977,664.003,164.808,-1.25098e-08,1.25101e-08,3.10509e-09,684.151,-684.125,1.1305e-05,1.28897e-08,-1.28894e-08,2.12993e-16
-0.100025,-0.9,0.155789,0.01,13.5135,405,-669.14,669.166,150.598,-1.26071e-08,1.26074e-08,2.83735e-09,685.903,-685.877,1.05748e-05,1.29227e-08,-1.29224e-08,1.99235e-16
-0.0900249,-0.9,0.154651,0.01,12.861,405,-673.849,673.876,136.172,-1.26958e-08,1.26961e-08,2.56556e-09,687.497,-687.47,9.76595e-06,1.29527e-08,-1.29525e-08,1.83996e-16
-0.0800249,-0.9,0.153662,0.01,12.2758,405,-678.094,678.121,121.551,-1.27758e-08,1.27761e-08,2.29009e-09,688.929,-688.902,8.88368e-06,1.29797e-08,-1.29794e-08,1.67374e-16
-0.0700249,-0.9,0.153059,0.01,11.7585,405,-681.864,681.892,106.754,-1.28468e-08,1.28471e-08,2.0113e-09,690.198,-690.17,7.93384e-06,1.30036e-08,-1.30033e-08,1.49478e-16
-0.0600249,-0.9,0.152066,0.01,11.3094,405,-685.151,685.179,91.8015,-1.29088e-08,1.2909e-08,1.72959e-09,691.302,-691.273,6.92221e-06,1.30244e-08,-1.30241e-08,1.30418e-16
-0.0500249,-0.9,0.151727,0.01,10.9287,405,-687.945,687.974,76.715,-1.29614e-08,1.29617e-08,1.44535e-09,692.238,-692.209,5.85567e-06,1.3042e-08,-1.30418e-08,1.10324e-16
-0.0400249,-0.9,0.151001,0.01,10.6169,405,-690.242,690.271,61.5159,-1.30047e-08,1.3005e-08,1.159e-09,693.006,-692.977,4.74259e-06,1.30565e-08,-1.30562e-08,8.93532e-17
-0.0300249,-0.9,0.150664,0.01,10.374,405,-692.034,692.063,46.2262,-1.30384e-08,1.30387e-08,8.70929e-10,693.605,-693.576,3.59177e-06,1.30678e-08,-1.30675e-08,6.7671e-17
-0.0200249,-0.9,0.150468,0.01,10.2004,405,-693.317,693.347,30.8683,-1.30626e-08,1.30629e-08,5.81578e-10,694.034,-694.004,2.41202e-06,1.30759e-08,-1.30756e-08,4.54439e-17
-0.0100249,-0.9,0.150133,0.01,10.0961,405,-694.089,694.119,15.4648,-1.30772e-08,1.30775e-08,2.91366e-10,694.291,-694.262,1.21242e-06,1.30807e-08,-1.30804e-08,2.28427e-17
-2.48653e-05,-0.9,0.150463,0.01,10.0612,405,-694.348,694.377,0.0383678,-1.3082e-08,1.30823e-08,7.22872e-13,694.377,-694.348,2.99557e-09,1.30823e-08,-1.3082e-08,5.64383e-20
0.00997513,-0.9,0.150133,0.01,10.0958,405,-694.092,694.121,-15.3881,-1.30772e-08,1.30775e-08,-2.89921e-10,694.292,-694.262,-1.20627e-06,1.30807e-08,-1.30804e-08,-2.27269e-17
0.0199751,-0.9,0.150465,0.01,10.1997,405,-693.322,693.352,-30.7918,-1.30627e-08,1.3063e-08,-5.80136e-10,694.035,-694.006,-2.40606e-06,1.30759e-08,-1.30756e-08,-4.53316e-17
0.0299751,-0.9,0.150664,0.01,10.373,405,-692.041,692.071,-46.15,-1.30386e-08,1.30389e-08,-8.69493e-10,693.608,-693.578,-3.58635e-06,1.30678e-08,-1.30675e-08,-6.75689e-17
0.0399751,-0.9,0.150998,0.01,10.6155,405,-690.252,690.281,-61.4401,-1.30049e-08,1.30052e-08,-1.15757e-09,693.01,-692.981,-4.73716e-06,1.30566e-08,-1.30563e-08,-8.92508e-17
0.0499751,-0.9,0.151727,0.01,10.927,405,-687.958,687.987,-76.6397,-1.29617e-08,1.29619e-08,-1.44394e-09,692.242,-692.214,-5.84989e-06,1.30421e-08,-1.30418e-08,-1.10215e-16
0.0599751,-0.9,0.152063,0.01,11.3073,405,-685.166,685.194,-91.7268,-1.2909e-08,1.29093e-08,-1.72819e-09,691.307,-691.278,-6.91648e-06,1.30245e-08,-1.30242e-08,-1.3031e-16
0.0699751,-0.9,0.153052,0.01,11.7561,405,-681.882,681.91,-106.68,-1.28472e-08,1.28475e-08,-2.00991e-09,690.204,-690.176,-7.92885e-06,1.30037e-08,-1.30034e-08,-1.49384e-16
0.0799751,-0.9,0.153659,0.01,12.2731,405,-678.114,678.141,-121.478,-1.27762e-08,1.27765e-08,-2.28871e-09,688.936,-688.909,-8.87966e-06,1.29798e-08,-1.29796e-08,-1.67298e-16
0.0899751,-0.9,0.154644,0.01,12.8579,405,-673.872,673.898,-136.1,-1.26962e-08,1.26965e-08,-2.5642e-09,687.505,-687.478,-9.76242e-06,1.29529e-08,-1.29526e-08,-1.8393e-16
0.0999751,-0.9,0.155786,0.01,13.5101,405,-669.165,669.191,-150.527,-1.26076e-08,1.26078e-08,-2.83601e-09,685.912,-685.886,-1.05713e-05,1.29229e-08,-1.29226e-08,-1.99169e-16
0.109975,-0.9,0.156768,0.01,14.2292,405,-664.004,664.03,-164.738,-1.25103e-08,1.25106e-08,-3.10377e-09,684.16,-684.134,-1.13015e-05,1.28899e-08,-1.28896e-08,-2.12926e-16
0.119975,-0.9,0.158376,0.01,15.0147,405,-658.402,658.427,-178.717,-1.24048e-08,1.2405e-08,-3.36713e-09,682.251,-682.226,-1.19498e-05,1.28539e-08,-1.28536e-08,-2.25141e-16
0.129975,-0.9,0.159423,0.01,15.866,405,-652.372,652.396,-192.444,-1.22912e-08,1.22914e-08,-3.62576e-09,680.188,-680.165,-1.25137e-05,1.2815e-08,-1.28148e-08,-2.35766e-16
0.139975,-0.9,0.161018,0.01,16.7826,405,-645.928,645.951,-205.904,-1.21698e-08,1.217e-08,-3.87935e-09,677.975,-677.952,-1.29907e-05,1.27733e-08,-1.27731e-08,-2.44753e-16
0.149975,-0.9,0.162609,0.01,17.7638,405,-639.084,639.106,-219.08,-1.20408e-08,1.2041e-08,-4.12759e-09,675.613,-675.591,-1.33799e-05,1.27288e-08,-1.27286e-08,-2.52084e-16
0.159975,-0.9,0.164191,0.01,18.8088,405,-631.855,631.876,-231.957,-1.19046e-08,1.19048e-08,-4.37021e-09,673.106,-673.085,-1.3682e-05,1.26816e-08,-1.26814e-08,-2.57778e-16
0.169975,-0.9,0.166327,0.01,19.9171,405,-624.258,624.278,-244.522,-1.17615e-08,1.17617e-08,-4.60693e-09,670.459,-670.438,-1.38979e-05,1.26317e-08,-1.26315e-08,-2.61845e-16
0.179975,-0.9,0.167896,0.01,21.0878,405,-616.309,616.328,-256.761,-1.16117e-08,1.16119e-08,-4.83752e-09,667.673,-667.654,-1.40291e-05,1.25793e-08,-1.25791e-08,-2.64316e-16
0.189975,-0.9,0.17004,0.01,22.3201,405,-608.025,608.043,-268.662,-1.14556e-08,1.14558e-08,-5.06175e-09,664.753,-664.735,-1.40782e-05,1.25243e-08,-1.25241e-08,-2.65242e-16
0.199975,-0.9,0.172133,0.01,23.6132,405,-599.423,599.441,-280.215,-1.12936e-08,1.12937e-08,-5.27942e-09,661.703,-661.686,-1.4049e-05,1.24668e-08,-1.24666e-08,-2.64692e-16
0.209975,-0.9,0.174253,0.01,24.9662,405,-590.522,590.539,-291.41,-1.11259e-08,1.1126e-08,-5.49034e-09,658.526,-658.51,-1.39456e-05,1.24069e-08,-1.24068e-08,-2.62744e-16
0.219975,-0.9,0.176902,0.01,26.3783,405,-581.34,581.355,-302.238,-1.09529e-08,1.0953e-08,-5.69434e-09,655.227,-655.212,-1.3772e-05,1.23448e-08,-1.23446e-08,-2.59472e-16
0.229975,-0.9,0.178999,0.01,27.8486,405,-571.895,571.909,-312.691,-1.07749e-08,1.0775e-08,-5.89128e-09,651.81,-651.796,-1.35332e-05,1.22804e-08,-1.22803e-08,-2.54973e-16
0.239975,-0.9,0.181623,0.01,29.376,405,-562.205,562.218,-322.762,-1.05923e-08,1.05925e-08,-6.08103e-09,648.279,-648.266,-1.3235e-05,1.22139e-08,-1.22138e-08,-2.49356e-16
0.249975,-0.9,0.184278,0.01,30.9596,405,-552.289,552.301,-332.447,-1.04055e-08,1.04056e-08,-6.26349e-09,644.638,-644.626,-1.28824e-05,1.21453e-08,-1.21452e-08,-2.42711e-16
0.259975,-0.9,0.186868,0.01,32.5985,405,-542.166,542.176,-341.739,-1.02148e-08,1.02149e-08,-6.43857e-09,640.892,-640.881,-1.24813e-05,1.20747e-08,-1.20746e-08,-2.35154e-16
0.269975,-0.9,0.189949,0.01,34.2916,405,-531.853,531.863,-350.637,-1.00205e-08,1.00206e-08,-6.6062e-09,637.044,-637.035,-1.20387e-05,1.20022e-08,-1.20021e-08,-2.26817e-16
0.279975,-0.9,0.192647,0.01,36.0378,405,-521.37,521.379,-359.137,-9.82295e-09,9.82304e-09,-6.76634e-09,633.1,-633.091,-1.15601e-05,1.19279e-08,-1.19278e-08,-2.178e-16
0.289975,-0.9,0.195683,0.01,37.8362,405,-510.734,510.742,-367.237,-9.62257e-09,9.62265e-09,-6.91896e-09,629.064,-629.056,-1.1051e-05,1.18519e-08,-1.18518e-08,-2.08208e-16
0.299975,-0.9,0.198961,0.01,39.6857,405,-499.965,499.971,-374.937,-9.41965e-09,9.41972e-09,-7.06403e-09,624.94,-624.933,-1.05176e-05,1.17742e-08,-1.17741e-08,-1.98158e-16
0.309975,-0.9,0.201953,0.01,41.5852,405,-489.078,489.084,-382.237,-9.21453e-09,9.21459e-09,-7.20157e-09,620.732,-620.727,-9.9657e-06,1.16949e-08,-1.16949e-08,-1.8776e-16
0.319975,-0.9,0.205389,0.01,43.5336,405,-478.092,478.096,-389.139,-9.00755e-09,9.00759e-09,-7.3316e-09,616.446,-616.441,-9.40021e-06,1.16142e-08,-1.16141e-08,-1.77105e-16
0.329975,-0.9,0.208761,0.01,45.5298,405,-467.023,467.027,-395.643,-8.79901e-09,8.79905e-09,-7.45415e-09,612.085,-612.082,-8.82681e-06,1.1532e-08,-1.1532e-08,-1.66302e-16
0.339975,-0.9,0.212144,0.01,47.5726,405,-455.889,455.892,-401.754,-8.58923e-09,8.58926e-09,-7.56928e-09,607.655,-607.652,-8.25069e-06,1.14486e-08,-1.14485e-08,-1.55448e-16
0.349975,-0.9,0.215938,0.01,49.6611,405,-444.718,444.71,-407.479,-8.37871e-09,8.37863e-09,-7.67714e-09,603.163,-603.17,-0.00121059,1.1364e-08,-1.1364e-08,-2.28082e-14
0.359975,-0.9,0.219438,0.01,51.7941,405,-433.738,433.441,-413.004,-8.17059e-09,8.16757e-09,-7.78124e-09,598.661,-598.958,0.0732256,1.12804e-08,-1.12834e-08,1.37961e-12
0.369975,-0.9,0.223171,0.01,53.9704,405,-424.316,422.332,-419.264,-7.98573e-09,7.96561e-09,-7.89917e-09,594.815,-596.798,0.316269,1.12153e-08,-1.12354e-08,5.9587e-12
0.379975,-0.9,0.227271,0.01,56.1889,405,-415.422,411.749,-424.219,-7.81083e-09,7.77356e-09,-7.99253e-09,590.628,-594.301,-0.530255,1.11437e-08,-1.1181e-08,-9.99032e-12
0.389975,-0.9,0.230946,0.01,58.4485,405,-402.506,400.387,-428.622,-7.57422e-09,7.55273e-09,-8.07549e-09,586.202,-588.321,0.209741,1.10536e-08,-1.10751e-08,3.95164e-12
0.399975,-0.9,0.23499,0.01,60.7481,405,-393.302,388.623,-435.319,-7.38969e-09,7.34223e-09,-8.20167e-09,582.77,-587.448,1.5368,1.10001e-08,-1.10475e-08,2.89542e-11
0.409975,-0.9,0.239263,0.01,63.0866,405,-388.24,379.109,-439.794,-7.27496e-09,7.18233e-09,-8.28598e-09,579.064,-588.196,-0.839889,1.09496e-08,-1.10422e-08,-1.5824e-11
0.419975,-0.9,0.243244,0.01,65.4628,405,-375.967,367.719,-443.091,-7.04757e-09,6.9639e-09,-8.3481e-09,574.32,-582.567,-0.349412,1.08564e-08,-1.094e-08,-6.58313e-12
-0.440025,-0.89,0.242972,0.01,65.2753,396.05,-355.528,347.178,460.012,-6.66205e-09,6.57734e-09,8.6669e-09,574.669,-583.019,-0.113627,1.08634e-08,-1.09481e-08,-2.1408e-12
-0.430025,-0.89,0.238692,0.01,62.7822,396.05,-368.264,359.06,457.232,-6.89829e-09,6.80491e-09,8.61452e-09,579.616,-588.821,0.758673,1.09603e-08,-1.10537e-08,1.42938e-11
-0.420025,-0.89,0.234205,0.01,60.3247,396.05,-374.638,368.856,452.868,-7.03326e-09,6.97461e-09,8.53229e-09,583.014,-588.796,-0.915195,1.10095e-08,-1.10681e-08,-1.72428e-11
-0.410025,-0.89,0.230066,0.01,57.9042,396.05,-384.736,381.328,447.022,-7.23383e-09,7.19925e-09,8.42216e-09,586.974,-590.382,0.646634,1.10737e-08,-1.11083e-08,1.2183e-11
-0.400025,-0.89,0.225987,0.01,55.5218,396.05,-394.236,392.213,443.327,-7.41884e-09,7.39832e-09,8.35255e-09,591.58,-593.603,-0.236301,1.11545e-08,-1.1175e-08,-4.45204e-12
-0.390025,-0.89,0.221776,0.01,53.1786,396.05,-403.97,403.648,438.208,-7.60962e-09,7.60636e-09,8.25609e-09,595.731,-596.053,-0.108748,1.12253e-08,-1.12286e-08,-2.04887e-12
-0.380025,-0.89,0.217944,0.01,50.8758,396.05,-415.463,415.378,433.786,-7.8272e-09,7.82634e-09,8.17278e-09,600.578,-600.663,0.0578518,1.13156e-08,-1.13165e-08,1.08996e-12
-0.370025,-0.89,0.21403,0.01,48.6145,396.05,-426.969,426.96,429.219,-8.04431e-09,8.04421e-09,8.08673e-09,605.411,-605.42,0.00161916,1.14063e-08,-1.14064e-08,3.05059e-14
-0.360025,-0.89,0.210132,0.01,46.3958,396.05,-438.58,438.581,424.256,-8.26311e-09,8.26311e-09,7.99322e-09,610.202,-610.201,7.35197e-06,1.14966e-08,-1.14965e-08,1.38515e-16
-0.350025,-0.89,0.206646,0.01,44.2211,396.05,-450.19,450.191,418.901,-8.48184e-09,8.48186e-09,7.89233e-09,614.939,-614.938,7.96438e-06,1.15858e-08,-1.15858e-08,1.50054e-16
-0.340025,-0.89,0.202862,0.01,42.0914,396.05,-461.77,461.773,413.144,-8.70003e-09,8.70006e-09,7.78387e-09,619.615,-619.612,8.58433e-06,1.16739e-08,-1.16739e-08,1.61734e-16
-0.330025,-0.89,0.199319,0.01,40.0078,396.05,-473.306,473.309,406.979,-8.91737e-09,8.9174e-09,7.66773e-09,624.223,-624.219,9.2075e-06,1.17607e-08,-1.17607e-08,1.73475e-16
-0.320025,-0.89,0.196133,0.01,37.9716,396.05,-484.778,484.783,400.404,-9.13353e-09,9.13357e-09,7.54385e-09,628.76,-628.755,9.82921e-06,1.18462e-08,-1.18461e-08,1.85188e-16
-0.310025,-0.89,0.192529,0.01,35.9838,396.05,-496.171,496.177,393.415,-9.34818e-09,9.34824e-09,7.41217e-09,633.22,-633.215,1.04445e-05,1.19302e-08,-1.19302e-08,1.9678e-16
-0.300025,-0.89,0.189385,0.01,34.0457,396.05,-507.467,507.474,386.01,-9.561e-09,9.56107e-09,7.27264e-09,637.6,-637.593,1.10471e-05,1.20127e-08,-1.20127e-08,2.08133e-16
-0.290025,-0.89,0.186277,0.01,32.1583,396.05,-518.647,518.654,378.186,-9.77164e-09,9.77172e-09,7.12525e-09,641.894,-641.886,1.16312e-05,1.20936e-08,-1.20935e-08,2.19139e-16
-0.280025,-0.89,0.183083,0.01,30.3228,396.05,-529.692,529.701,369.944,-9.97974e-09,9.97983e-09,6.96997e-09,646.098,-646.089,1.21908e-05,1.21728e-08,-1.21727e-08,2.29682e-16
-0.270025,-0.89,0.180388,0.01,28.5402,396.05,-540.584,540.594,361.284,-1.0185e-08,1.01851e-08,6.80681e-09,650.207,-650.197,1.27194e-05,1.22502e-08,-1.22501e-08,2.39641e-16
-0.260025,-0.89,0.177317,0.01,26.8117,396.05,-551.303,551.314,352.208,-1.03869e-08,1.0387e-08,6.6358e-09,654.216,-654.205,1.3211e-05,1.23258e-08,-1.23257e-08,2.48902e-16
-0.250025,-0.89,0.174583,0.01,25.1383,396.05,-561.831,561.843,342.717,-1.05853e-08,1.05854e-08,6.45699e-09,658.121,-658.109,1.36584e-05,1.23993e-08,-1.23992e-08,2.57332e-16
-0.240025,-0.89,0.172086,0.01,23.5212,396.05,-572.147,572.16,332.816,-1.07796e-08,1.07798e-08,6.27044e-09,661.917,-661.904,1.40546e-05,1.24709e-08,-1.24707e-08,2.64797e-16
-0.230025,-0.89,0.169311,0.01,21.9612,396.05,-582.232,582.246,322.508,-1.09696e-08,1.09698e-08,6.07624e-09,665.6,-665.586,1.43931e-05,1.25402e-08,-1.25401e-08,2.71175e-16
-0.220025,-0.89,0.16709,0.01,20.4594,396.05,-592.066,592.082,311.8,-1.11549e-08,1.11551e-08,5.87449e-09,669.164,-669.149,1.46684e-05,1.26074e-08,-1.26072e-08,2.76361e-16
-0.210025,-0.89,0.164574,0.01,19.0169,396.05,-601.63,601.647,300.698,-1.13351e-08,1.13353e-08,5.66533e-09,672.606,-672.59,1.48745e-05,1.26722e-08,-1.26721e-08,2.80244e-16
-0.200025,-0.89,0.162325,0.01,17.6345,396.05,-610.905,610.922,289.21,-1.15099e-08,1.15101e-08,5.44889e-09,675.921,-675.904,1.5005e-05,1.27347e-08,-1.27345e-08,2.82703e-16
-0.190025,-0.89,0.160369,0.01,16.3132,396.05,-619.87,619.889,277.346,-1.16788e-08,1.1679e-08,5.22535e-09,679.105,-679.086,1.50549e-05,1.27947e-08,-1.27945e-08,2.83644e-16
-0.180025,-0.89,0.158091,0.01,15.0539,396.05,-628.508,628.528,265.114,-1.18415e-08,1.18417e-08,4.9949e-09,682.154,-682.134,1.50198e-05,1.28521e-08,-1.28519e-08,2.82982e-16
-0.170025,-0.89,0.15642,0.01,13.8574,396.05,-636.799,636.82,252.527,-1.19978e-08,1.1998e-08,4.75776e-09,685.063,-685.042,1.48957e-05,1.29069e-08,-1.29067e-08,2.80643e-16
-0.160025,-0.89,0.15439,0.01,12.7246,396.05,-644.726,644.748,239.597,-1.21471e-08,1.21473e-08,4.51416e-09,687.828,-687.806,1.468e-05,1.2959e-08,-1.29588e-08,2.7658e-16
-0.150025,-0.89,0.152704,0.01,11.6563,396.05,-652.27,652.293,226.338,-1.22893e-08,1.22895e-08,4.26434e-09,690.447,-690.424,1.43705e-05,1.30083e-08,-1.30081e-08,2.70748e-16
-0.140025,-0.89,0.151221,0.01,10.6532,396.05,-659.416,659.44,212.764,-1.24239e-08,1.24241e-08,4.00859e-09,692.914,-692.89,1.39653e-05,1.30548e-08,-1.30546e-08,2.63114e-16
-0.130025,-0.89,0.149518,0.01,9.71609,396.05,-666.146,666.171,198.89,-1.25507e-08,1.25509e-08,3.74721e-09,695.228,-695.203,1.34641e-05,1.30984e-08,-1.30981e-08,2.53671e-16
-0.120025,-0.89,0.148471,0.01,8.84555,396.05,-672.445,672.47,184.734,-1.26694e-08,1.26696e-08,3.4805e-09,697.383,-697.358,1.2868e-05,1.3139e-08,-1.31387e-08,2.42441e-16
-0.110025,-0.89,0.146865,0.01,8.04226,396.05,-678.298,678.324,170.313,-1.27796e-08,1.27799e-08,3.2088e-09,699.379,-699.352,1.21794e-05,1.31766e-08,-1.31763e-08,2.29466e-16
-0.100025,-0.89,0.145813,0.01,7.30679,396.05,-683.691,683.718,155.646,-1.28812e-08,1.28815e-08,2.93245e-09,701.211,-701.183,1.14004e-05,1.32111e-08,-1.32108e-08,2.1479e-16
-0.0900249,-0.89,0.144743,0.01,6.63968,396.05,-688.611,688.639,140.751,-1.2974e-08,1.29742e-08,2.65183e-09,702.876,-702.848,1.05348e-05,1.32425e-08,-1.32422e-08,1.98483e-16
-0.0800249,-0.89,0.143686,0.01,6.04144,396.05,-693.047,693.075,125.65,-1.30575e-08,1.30578e-08,2.36732e-09,704.373,-704.345,9.58805e-06,1.32707e-08,-1.32704e-08,1.80645e-16
-0.0700249,-0.89,0.143152,0.01,5.5125,396.05,-696.987,697.016,110.363,-1.31318e-08,1.31321e-08,2.0793e-09,705.7,-705.671,8.56643e-06,1.32957e-08,-1.32954e-08,1.61397e-16
-0.0600249,-0.89,0.14209,0.01,5.05325,396.05,-700.423,700.452,94.9118,-1.31965e-08,1.31968e-08,1.78819e-09,706.853,-706.824,7.47679e-06,1.33174e-08,-1.33171e-08,1.40867e-16
-0.0500249,-0.89,0.141727,0.01,4.66405,396.05,-703.344,703.374,79.319,-1.32515e-08,1.32518e-08,1.49442e-09,707.832,-707.803,6.32693e-06,1.33358e-08,-1.33355e-08,1.19203e-16
-0.0400249,-0.89,0.141025,0.01,4.34517,396.05,-705.745,705.775,63.6072,-1.32968e-08,1.32971e-08,1.1984e-09,708.636,-708.605,5.1257e-06,1.3351e-08,-1.33507e-08,9.65712e-17
-0.0300249,-0.89,0.140664,0.01,4.09687,396.05,-707.619,707.649,47.7996,-1.33321e-08,1.33324e-08,9.00572e-10,709.262,-709.231,3.88252e-06,1.33628e-08,-1.33625e-08,7.3149e-17
-0.0200249,-0.89,0.140492,0.01,3.91933,396.05,-708.961,708.992,31.9199,-1.33574e-08,1.33577e-08,6.01389e-10,709.71,-709.679,2.60744e-06,1.33712e-08,-1.33709e-08,4.91258e-17
-0.0100249,-0.89,0.140133,0.01,3.81268,396.05,-709.768,709.799,15.9919,-1.33726e-08,1.33729e-08,3.01296e-10,709.979,-709.948,1.31067e-06,1.33763e-08,-1.3376e-08,2.46938e-17
-2.48653e-05,-0.89,0.140486,0.01,3.777,396.05,-710.038,710.069,0.0396757,-1.33777e-08,1.3378e-08,7.47513e-13,710.069,-710.038,3.20914e-09,1.3378e-08,-1.33777e-08,6.0462e-20
0.00997513,-0.89,0.140133,0.01,3.81232,396.05,-709.771,709.802,-15.9126,-1.33726e-08,1.33729e-08,-2.99802e-10,709.98,-709.949,-1.30436e-06,1.33763e-08,-1.3376e-08,-2.45749e-17
0.0199751,-0.89,0.140489,0.01,3.91862,396.05,-708.966,708.997,-31.8408,-1.33575e-08,1.33578e-08,-5.99898e-10,709.712,-709.681,-2.60119e-06,1.33712e-08,-1.33709e-08,-4.90079e-17
0.0299751,-0.89,0.140664,0.01,4.09581,396.05,-707.627,707.657,-47.7208,-1.33322e-08,1.33325e-08,-8.99087e-10,709.264,-709.234,-3.87646e-06,1.33628e-08,-1.33625e-08,-7.30348e-17
0.0399751,-0.89,0.141022,0.01,4.34376,396.05,-705.756,705.786,-63.5288,-1.3297e-08,1.32973e-08,-1.19692e-09,708.639,-708.609,-5.11984e-06,1.3351e-08,-1.33507e-08,-9.64608e-17
0.0499751,-0.89,0.141727,0.01,4.66229,396.05,-703.357,703.387,-79.2411,-1.32518e-08,1.32521e-08,-1.49295e-09,707.837,-707.807,-6.32113e-06,1.33359e-08,-1.33356e-08,-1.19094e-16
0.0599751,-0.89,0.142086,0.01,5.05114,396.05,-700.438,700.468,-94.8346,-1.31968e-08,1.31971e-08,-1.78674e-09,706.859,-706.829,-7.47101e-06,1.33175e-08,-1.33172e-08,-1.40758e-16
0.0699751,-0.89,0.143145,0.01,5.51004,396.05,-697.006,697.035,-110.286,-1.31321e-08,1.31324e-08,-2.07786e-09,705.706,-705.677,-8.56112e-06,1.32958e-08,-1.32955e-08,-1.61296e-16
0.0799751,-0.89,0.143682,0.01,6.03864,396.05,-693.068,693.096,-125.574,-1.30579e-08,1.30582e-08,-2.36589e-09,704.38,-704.352,-9.58335e-06,1.32708e-08,-1.32705e-08,-1.80556e-16
0.0899751,-0.89,0.144736,0.01,6.63654,396.05,-688.634,688.662,-140.676,-1.29744e-08,1.29747e-08,-2.65043e-09,702.884,-702.856,-1.05304e-05,1.32426e-08,-1.32423e-08,-1.98399e-16
0.0999751,-0.89,0.145809,0.01,7.3033,396.05,-683.716,683.744,-155.572,-1.28817e-08,1.2882e-08,-2.93107e-09,701.219,-701.192,-1.13962e-05,1.32113e-08,-1.3211e-08,-2.14712e-16
0.109975,-0.89,0.146858,0.01,8.03843,396.05,-678.326,678.352,-170.241,-1.27802e-08,1.27804e-08,-3.20743e-09,699.388,-699.362,-1.21753e-05,1.31768e-08,-1.31765e-08,-2.2939e-16
0.119975,-0.89,0.148468,0.01,8.84139,396.05,-672.475,672.5,-184.663,-1.26699e-08,1.26702e-08,-3.47916e-09,697.394,-697.368,-1.28644e-05,1.31392e-08,-1.31389e-08,-2.42373e-16
0.129975,-0.89,0.149512,0.01,9.71159,396.05,-666.178,666.203,-198.821,-1.25513e-08,1.25515e-08,-3.7459e-09,695.239,-695.214,-1.34613e-05,1.30986e-08,-1.30983e-08,-2.53618e-16
0.139975,-0.89,0.151211,0.01,10.6484,396.05,-659.45,659.474,-212.696,-1.24245e-08,1.24248e-08,-4.00731e-09,692.926,-692.902,-1.39631e-05,1.3055e-08,-1.30548e-08,-2.63074e-16
0.149975,-0.89,0.152697,0.01,11.6512,396.05,-652.307,652.33,-226.271,-1.22899e-08,1.22902e-08,-4.26308e-09,690.459,-690.436,-1.43687e-05,1.30086e-08,-1.30083e-08,-2.70714e-16
0.159975,-0.89,0.15438,0.01,12.7192,396.05,-644.764,644.786,-239.532,-1.21478e-08,1.21481e-08,-4.51293e-09,687.842,-687.82,-1.46787e-05,1.29592e-08,-1.2959e-08,-2.76556e-16
0.169975,-0.89,0.156414,0.01,13.8516,396.05,-636.839,636.86,-252.464,-1.19985e-08,1.19987e-08,-4.75657e-09,685.077,-685.056,-1.4895e-05,1.29072e-08,-1.29069e-08,-2.80631e-16
0.179975,-0.89,0.158081,0.01,15.0478,396.05,-628.55,628.57,-265.052,-1.18423e-08,1.18425e-08,-4.99374e-09,682.168,-682.149,-1.50197e-05,1.28524e-08,-1.28522e-08,-2.82979e-16
0.189975,-0.89,0.160356,0.01,16.3068,396.05,-619.914,619.933,-277.286,-1.16796e-08,1.16798e-08,-5.22422e-09,679.121,-679.102,-1.50552e-05,1.27949e-08,-1.27948e-08,-2.83648e-16
0.199975,-0.89,0.162315,0.01,17.6278,396.05,-610.95,610.968,-289.152,-1.15107e-08,1.15109e-08,-5.4478e-09,675.938,-675.92,-1.50052e-05,1.2735e-08,-1.27348e-08,-2.82707e-16
0.209975,-0.89,0.164561,0.01,19.0099,396.05,-601.677,601.694,-300.642,-1.1336e-08,1.13362e-08,-5.66427e-09,672.623,-672.607,-1.4875e-05,1.26725e-08,-1.26724e-08,-2.80254e-16
0.219975,-0.89,0.16708,0.01,20.4521,396.05,-592.114,592.13,-311.746,-1.11558e-08,1.1156e-08,-5.87347e-09,669.182,-669.166,-1.46698e-05,1.26077e-08,-1.26075e-08,-2.76388e-16
0.229975,-0.89,0.169299,0.01,21.9536,396.05,-582.281,582.296,-322.456,-1.09706e-08,1.09707e-08,-6.07526e-09,665.618,-665.604,-1.43947e-05,1.25406e-08,-1.25404e-08,-2.71204e-16
0.239975,-0.89,0.172071,0.01,23.5133,396.05,-572.198,572.211,-332.766,-1.07806e-08,1.07807e-08,-6.2695e-09,661.936,-661.923,-1.40561e-05,1.24712e-08,-1.24711e-08,-2.64826e-16
0.249975,-0.89,0.174571,0.01,25.1302,396.05,-561.883,561.895,-342.669,-1.05862e-08,1.05864e-08,-6.45608e-09,658.141,-658.128,-1.36602e-05,1.23997e-08,-1.23996e-08,-2.57366e-16
0.259975,-0.89,0.177302,0.01,26.8033,396.05,-551.356,551.367,-352.162,-1.03879e-08,1.0388e-08,-6.63493e-09,654.236,-654.225,-1.3213e-05,1.23261e-08,-1.2326e-08,-2.4894e-16
0.269975,-0.89,0.180376,0.01,28.5315,396.05,-540.638,540.648,-361.24,-1.0186e-08,1.01861e-08,-6.80598e-09,650.227,-650.217,-1.2722e-05,1.22506e-08,-1.22505e-08,-2.39689e-16
0.279975,-0.89,0.183069,0.01,30.3138,396.05,-529.747,529.755,-369.902,-9.98077e-09,9.98086e-09,-6.96917e-09,646.119,-646.11,-1.21937e-05,1.21732e-08,-1.21731e-08,-2.29737e-16
0.289975,-0.89,0.18626,0.01,32.149,396.05,-518.702,518.71,-378.146,-9.77268e-09,9.77276e-09,-7.12449e-09,641.915,-641.908,-1.16344e-05,1.2094e-08,-1.20939e-08,-2.19198e-16
0.299975,-0.89,0.189371,0.01,34.0362,396.05,-507.523,507.53,-385.972,-9.56205e-09,9.56212e-09,-7.27193e-09,637.622,-637.615,-1.10503e-05,1.20131e-08,-1.20131e-08,-2.08194e-16
0.309975,-0.89,0.192512,0.01,35.9741,396.05,-496.228,496.233,-393.379,-9.34925e-09,9.3493e-09,-7.4115e-09,633.242,-633.237,-1.04476e-05,1.19306e-08,-1.19306e-08,-1.96838e-16
0.319975,-0.89,0.196114,0.01,37.9616,396.05,-484.835,484.84,-400.371,-9.1346e-09,9.13464e-09,-7.54321e-09,628.782,-628.778,-9.83225e-06,1.18466e-08,-1.18466e-08,-1.85245e-16
0.329975,-0.89,0.199302,0.01,39.9975,396.05,-473.363,473.366,-406.948,-8.91844e-09,8.91848e-09,-7.66713e-09,624.246,-624.242,-9.21058e-06,1.17611e-08,-1.17611e-08,-1.73533e-16
0.339975,-0.89,0.202843,0.01,42.0809,396.05,-461.828,461.831,-413.114,-8.70112e-09,8.70114e-09,-7.78331e-09,619.638,-619.635,-8.58774e-06,1.16743e-08,-1.16743e-08,-1.61798e-16
0.349975,-0.89,0.20663,0.01,44.2104,396.05,-450.247,450.249,-418.873,-8.48293e-09,8.48295e-09,-7.89181e-09,614.963,-614.961,-7.96784e-06,1.15862e-08,-1.15862e-08,-1.50119e-16
0.359975,-0.89,0.210114,0.01,46.3849,396.05,-438.638,438.639,-424.23,-8.2642e-09,8.2642e-09,-7.99274e-09,610.225,-610.225,-7.35498e-06,1.1497e-08,-1.1497e-08,-1.38572e-16
0.369975,-0.89,0.214009,0.01,48.6033,396.05,-427.027,427.018,-429.195,-8.0454e-09,8.0453e-09,-8.08629e-09,605.435,-605.444,-0.00161845,1.14068e-08,-1.14069e-08,-3.04926e-14
0.379975,-0.89,0.217926,0.01,50.8644,396.05,-415.521,415.436,-433.764,-7.82829e-09,7.82743e-09,-8.17237e-09,600.602,-600.687,-0.0578697,1.13161e-08,-1.13169e-08,-1.0903e-12
0.389975,-0.89,0.221756,0.01,53.1671,396.05,-404.027,403.705,-438.188,-7.61071e-09,7.60744e-09,-8.25572e-09,595.756,-596.078,0.108711,1.12258e-08,-1.12291e-08,2.04819e-12
0.399975,-0.89,0.225965,0.01,55.5101,396.05,-394.294,392.271,-443.309,-7.41993e-09,7.39941e-09,-8.35221e-09,591.605,-593.628,0.236424,1.1155e-08,-1.11755e-08,4.45436e-12
0.409975,-0.89,0.230047,0.01,57.8923,396.05,-384.794,381.385,-447.006,-7.23492e-09,7.20034e-09,-8.42185e-09,586.999,-590.407,-0.646785,1.10742e-08,-1.11088e-08,-1.21858e-11
0.419975,-0.89,0.234184,0.01,60.3126,396.05,-374.696,368.914,-452.853,-7.03435e-09,6.97569e-09,-8.53201e-09,583.039,-588.821,0.91505,1.10099e-08,-1.10686e-08,1.72401e-11
0.429975,-0.89,0.238669,0.01,62.7698,396.05,-368.322,359.117,-457.22,-6.89938e-09,6.806e-09,-8.61428e-09,579.642,-588.847,-0.758895,1.09608e-08,-1.10542e-08,-1.4298e-11
0.439975,-0.89,0.24295,0.01,65.2629,396.05,-355.586,347.235,-460.001,-6.66314e-09,6.57842e-09,-8.66668e-09,574.694,-583.045,0.112714,1.08639e-08,-1.09486e-08,2.12359e-12
-0.460025,-0.88,0.243234,0.01,65.3612,387.2,-334.024,325.622,475.508,-6.25668e-09,6.17145e-09,8.95885e-09,574.497,-582.899,-0.573663,1.08604e-08,-1.09456e-08,-1.08081e-11
-0.450025,-0.88,0.238532,0.01,62.7537,387.2,-347.146,337.924,473.263,-6.50033e-09,6.40677e-09,8.91655e-09,579.604,-588.826,0.669332,1.09602e-08,-1.10537e-08,1.26106e-11
-0.440025,-0.88,0.233955,0.01,60.1798,387.2,-353.885,348.036,469.677,-6.64197e-09,6.58264e-09,8.84898e-09,583.394,-589.242,-1.01088,1.10169e-08,-1.10762e-08,-1.90455e-11
-0.430025,-0.88,0.229723,0.01,57.6408,387.2,-364.234,360.782,464.471,-6.84738e-09,6.81235e-09,8.7509e-09,587.464,-590.916,0.590463,1.10832e-08,-1.11182e-08,1.11247e-11
-0.420025,-0.88,0.225226,0.01,55.1379,387.2,-374.108,372.048,461.501,-7.03946e-09,7.01856e-09,8.69495e-09,592.409,-594.47,-0.181233,1.11703e-08,-1.11912e-08,-3.41453e-12
-0.410025,-0.88,0.220919,0.01,52.6721,387.2,-384.094,383.745,457.164,-7.23504e-09,7.2315e-09,8.61324e-09,596.812,-597.162,-0.123324,1.12458e-08,-1.12494e-08,-2.32349e-12
-0.400025,-0.88,0.216987,0.01,50.2448,387.2,-395.766,395.754,453.515,-7.45641e-09,7.45629e-09,8.54448e-09,601.909,-601.921,0.00212435,1.13404e-08,-1.13405e-08,4.00241e-14
-0.390025,-0.88,0.21266,0.01,47.857,387.2,-407.708,407.706,449.746,-7.68145e-09,7.68143e-09,8.47347e-09,607.038,-607.04,5.72875e-06,1.1437e-08,-1.1437e-08,1.07933e-16
-0.380025,-0.88,0.20866,0.01,45.51,387.2,-419.701,419.699,445.591,-7.9074e-09,7.90738e-09,8.39519e-09,612.126,-612.127,6.33303e-06,1.15328e-08,-1.15328e-08,1.19318e-16
-0.370025,-0.88,0.204948,0.01,43.2049,387.2,-431.717,431.716,441.036,-8.13379e-09,8.13379e-09,8.30938e-09,617.164,-617.165,6.95877e-06,1.16277e-08,-1.16277e-08,1.31107e-16
-0.360025,-0.88,0.200874,0.01,40.943,387.2,-443.741,443.742,436.076,-8.36035e-09,8.36035e-09,8.21593e-09,622.149,-622.148,7.60287e-06,1.17216e-08,-1.17216e-08,1.43242e-16
-0.350025,-0.88,0.197224,0.01,38.7255,387.2,-455.759,455.76,430.703,-8.58677e-09,8.58678e-09,8.11469e-09,627.075,-627.073,8.26107e-06,1.18144e-08,-1.18144e-08,1.55643e-16
-0.340025,-0.88,0.193632,0.01,36.5536,387.2,-467.752,467.755,424.911,-8.81274e-09,8.81276e-09,8.00557e-09,631.937,-631.935,8.92941e-06,1.1906e-08,-1.1906e-08,1.68235e-16
-0.330025,-0.88,0.189916,0.01,34.4285,387.2,-479.705,479.709,418.695,-9.03794e-09,9.03797e-09,7.88846e-09,636.731,-636.728,9.60354e-06,1.19964e-08,-1.19963e-08,1.80936e-16
-0.320025,-0.88,0.186663,0.01,32.3513,387.2,-491.599,491.604,412.051,-9.26204e-09,9.26208e-09,7.76328e-09,641.452,-641.448,1.02778e-05,1.20853e-08,-1.20853e-08,1.93641e-16
-0.310025,-0.88,0.183148,0.01,30.3232,387.2,-503.417,503.422,404.974,-9.48469e-09,9.48475e-09,7.62995e-09,646.095,-646.09,1.09467e-05,1.21728e-08,-1.21727e-08,2.06242e-16
-0.300025,-0.88,0.17984,0.01,28.3456,387.2,-515.139,515.146,397.463,-9.70555e-09,9.70561e-09,7.48843e-09,650.656,-650.649,1.1604e-05,1.22587e-08,-1.22586e-08,2.18625e-16
-0.290025,-0.88,0.176919,0.01,26.4194,387.2,-526.746,526.754,389.515,-9.92424e-09,9.92432e-09,7.33868e-09,655.128,-655.12,1.22434e-05,1.2343e-08,-1.23429e-08,2.30673e-16
-0.280025,-0.88,0.173553,0.01,24.5459,387.2,-538.22,538.229,381.129,-1.01404e-08,1.01405e-08,7.18069e-09,659.508,-659.499,1.28586e-05,1.24255e-08,-1.24254e-08,2.42264e-16
-0.270025,-0.88,0.170707,0.01,22.7262,387.2,-549.539,549.549,372.305,-1.03537e-08,1.03538e-08,7.01445e-09,663.79,-663.78,1.34423e-05,1.25061e-08,-1.2506e-08,2.53261e-16
-0.260025,-0.88,0.167803,0.01,20.9615,387.2,-560.684,560.695,363.046,-1.05637e-08,1.05638e-08,6.83999e-09,667.969,-667.957,1.39871e-05,1.25849e-08,-1.25848e-08,2.63524e-16
-0.250025,-0.88,0.164911,0.01,19.2529,387.2,-571.634,571.646,353.352,-1.077e-08,1.07701e-08,6.65735e-09,672.04,-672.028,1.44855e-05,1.26616e-08,-1.26614e-08,2.72916e-16
-0.240025,-0.88,0.162584,0.01,17.6014,387.2,-582.368,582.382,343.227,-1.09722e-08,1.09724e-08,6.46659e-09,675.999,-675.985,1.49304e-05,1.27362e-08,-1.2736e-08,2.81297e-16
-0.230025,-0.88,0.159649,0.01,16.0081,387.2,-592.867,592.882,332.675,-1.117e-08,1.11702e-08,6.2678e-09,679.84,-679.826,1.53145e-05,1.28085e-08,-1.28084e-08,2.88533e-16
-0.220025,-0.88,0.157291,0.01,14.4741,387.2,-603.108,603.124,321.703,-1.1363e-08,1.13631e-08,6.06108e-09,683.559,-683.543,1.56306e-05,1.28786e-08,-1.28784e-08,2.9449e-16
-0.210025,-0.88,0.154922,0.01,13.0005,387.2,-613.072,613.09,310.317,-1.15507e-08,1.15509e-08,5.84656e-09,687.151,-687.134,1.5872e-05,1.29463e-08,-1.29461e-08,2.99038e-16
-0.200025,-0.88,0.15253,0.01,11.5881,387.2,-622.738,622.756,298.526,-1.17328e-08,1.1733e-08,5.6244e-09,690.612,-690.593,1.60329e-05,1.30114e-08,-1.30113e-08,3.02069e-16
-0.190025,-0.88,0.150728,0.01,10.2381,387.2,-632.085,632.105,286.337,-1.19089e-08,1.19091e-08,5.39476e-09,693.936,-693.916,1.61072e-05,1.30741e-08,-1.30739e-08,3.0347e-16
-0.180025,-0.88,0.148302,0.01,8.95118,387.2,-641.094,641.114,273.763,-1.20787e-08,1.20789e-08,5.15786e-09,697.119,-697.098,1.60888e-05,1.3134e-08,-1.31338e-08,3.03122e-16
-0.170025,-0.88,0.14652,0.01,7.72841,387.2,-649.744,649.765,260.814,-1.22416e-08,1.22419e-08,4.9139e-09,700.157,-700.136,1.59737e-05,1.31913e-08,-1.31911e-08,3.00953e-16
-0.160025,-0.88,0.144606,0.01,6.57061,387.2,-658.016,658.039,247.504,-1.23975e-08,1.23977e-08,4.66312e-09,703.046,-703.024,1.57592e-05,1.32457e-08,-1.32455e-08,2.96912e-16
-0.150025,-0.88,0.142804,0.01,5.47862,387.2,-665.891,665.915,233.847,-1.25459e-08,1.25461e-08,4.40581e-09,705.782,-705.758,1.54424e-05,1.32972e-08,-1.3297e-08,2.90945e-16
-0.140025,-0.88,0.141443,0.01,4.45321,387.2,-673.352,673.377,219.857,-1.26865e-08,1.26867e-08,4.14223e-09,708.361,-708.336,1.5021e-05,1.33458e-08,-1.33456e-08,2.83004e-16
-0.130025,-0.88,0.139621,0.01,3.49513,387.2,-680.381,680.407,205.552,-1.28189e-08,1.28192e-08,3.87271e-09,710.779,-710.753,1.44941e-05,1.33914e-08,-1.33911e-08,2.73076e-16
-0.120025,-0.88,0.138499,0.01,2.60509,387.2,-686.962,686.988,190.948,-1.29429e-08,1.29431e-08,3.59757e-09,713.032,-713.006,1.38633e-05,1.34338e-08,-1.34336e-08,2.61193e-16
-0.110025,-0.88,0.136969,0.01,1.78374,387.2,-693.078,693.105,176.064,-1.30581e-08,1.30584e-08,3.31715e-09,715.118,-715.091,1.3131e-05,1.34731e-08,-1.34728e-08,2.47396e-16
-0.100025,-0.88,0.13584,0.01,1.0317,387.2,-698.714,698.743,160.92,-1.31643e-08,1.31646e-08,3.03183e-09,717.034,-717.005,1.22994e-05,1.35092e-08,-1.35089e-08,2.31729e-16
-0.0900249,-0.88,0.134848,0.01,0.349527,387.2,-703.858,703.887,145.537,-1.32612e-08,1.32615e-08,2.742e-09,718.775,-718.746,1.13728e-05,1.3542e-08,-1.35417e-08,2.1427e-16
-0.0800249,-0.88,0.133713,0.01,-0.262263,387.2,-708.495,708.525,129.935,-1.33486e-08,1.33489e-08,2.44804e-09,720.341,-720.311,1.03566e-05,1.35715e-08,-1.35712e-08,1.95124e-16
-0.0700249,-0.88,0.133259,0.01,-0.803207,387.2,-712.616,712.646,114.136,-1.34262e-08,1.34265e-08,2.15039e-09,721.728,-721.698,9.25725e-06,1.35976e-08,-1.35973e-08,1.74412e-16
-0.0600249,-0.88,0.132117,0.01,-1.27289,387.2,-716.208,716.239,98.1641,-1.34939e-08,1.34942e-08,1.84947e-09,722.935,-722.904,8.08285e-06,1.36204e-08,-1.36201e-08,1.52286e-16
-0.0500249,-0.88,0.131727,0.01,-1.67096,387.2,-719.264,719.295,82.0421,-1.35515e-08,1.35518e-08,1.54572e-09,723.959,-723.928,6.84231e-06,1.36397e-08,-1.36394e-08,1.28913e-16
-0.0400249,-0.88,0.131053,0.01,-1.9971,387.2,-721.775,721.807,65.7943,-1.35988e-08,1.35991e-08,1.2396e-09,724.799,-724.768,5.54488e-06,1.36555e-08,-1.36552e-08,1.04469e-16
-0.0300249,-0.88,0.130664,0.01,-2.25107,387.2,-723.735,723.767,49.4451,-1.36357e-08,1.36361e-08,9.31575e-10,725.454,-725.423,4.20095e-06,1.36678e-08,-1.36675e-08,7.91483e-17
-0.0200249,-0.88,0.13052,0.01,-2.43267,387.2,-725.14,725.172,33.0197,-1.36622e-08,1.36625e-08,6.2211e-10,725.923,-725.891,2.82156e-06,1.36767e-08,-1.36763e-08,5.31598e-17
-0.0100249,-0.88,0.130133,0.01,-2.54176,387.2,-725.984,726.016,16.5432,-1.36781e-08,1.36784e-08,3.11683e-10,726.205,-726.173,1.41855e-06,1.3682e-08,-1.36817e-08,2.67263e-17
-2.48653e-05,-0.88,0.130513,0.01,-2.57825,387.2,-726.267,726.299,0.0410437,-1.36834e-08,1.36838e-08,7.73287e-13,726.299,-726.267,3.6921e-09,1.36838e-08,-1.36834e-08,6.95613e-20
0.00997513,-0.88,0.130133,0.01,-2.54212,387.2,-725.987,726.019,-16.4612,-1.36782e-08,1.36785e-08,-3.10138e-10,726.206,-726.174,-1.41156e-06,1.3682e-08,-1.36817e-08,-2.65947e-17
0.0199751,-0.88,0.130516,0.01,-2.43339,387.2,-725.145,725.177,-32.9379,-1.36623e-08,1.36626e-08,-6.20568e-10,725.925,-725.893,-2.81481e-06,1.36767e-08,-1.36764e-08,-5.30326e-17
0.0299751,-0.88,0.130664,0.01,-2.25215,387.2,-723.744,723.776,-49.3636,-1.36359e-08,1.36362e-08,-9.30039e-10,725.457,-725.425,-4.19403e-06,1.36679e-08,-1.36676e-08,-7.90179e-17
0.0399751,-0.88,0.131049,0.01,-1.99854,387.2,-721.786,721.818,-65.7132,-1.3599e-08,1.35993e-08,-1.23807e-09,724.803,-724.772,-5.5383e-06,1.36556e-08,-1.36553e-08,-1.04345e-16
0.0499751,-0.88,0.131727,0.01,-1.67276,387.2,-719.278,719.309,-81.9616,-1.35517e-08,1.35521e-08,-1.5442e-09,723.964,-723.933,-6.83617e-06,1.36398e-08,-1.36394e-08,-1.28797e-16
0.0599751,-0.88,0.132113,0.01,-1.27505,387.2,-716.225,716.256,-98.0842,-1.34942e-08,1.34945e-08,-1.84796e-09,722.94,-722.91,-8.07685e-06,1.36205e-08,-1.36202e-08,-1.52173e-16
0.0699751,-0.88,0.133251,0.01,-0.805719,387.2,-712.635,712.665,-114.057,-1.34266e-08,1.34269e-08,-2.1489e-09,721.735,-721.704,-9.25158e-06,1.35978e-08,-1.35975e-08,-1.74305e-16
0.0799751,-0.88,0.133709,0.01,-0.265129,387.2,-708.517,708.547,-129.856,-1.3349e-08,1.33493e-08,-2.44657e-09,720.348,-720.319,-1.03511e-05,1.35717e-08,-1.35714e-08,-1.95021e-16
0.0899751,-0.88,0.134841,0.01,0.34631,387.2,-703.882,703.911,-145.46,-1.32617e-08,1.3262e-08,-2.74054e-09,718.784,-718.754,-1.13677e-05,1.35422e-08,-1.35419e-08,-2.14174e-16
0.0999751,-0.88,0.135836,0.01,1.02813,387.2,-698.741,698.769,-160.844,-1.31648e-08,1.31651e-08,-3.0304e-09,717.043,-717.014,-1.22951e-05,1.35094e-08,-1.35091e-08,-2.31647e-16
0.109975,-0.88,0.136961,0.01,1.77983,387.2,-693.107,693.134,-175.99,-1.30587e-08,1.30589e-08,-3.31575e-09,715.128,-715.101,-1.31271e-05,1.34733e-08,-1.3473e-08,-2.47323e-16
0.119975,-0.88,0.138495,0.01,2.60083,387.2,-686.993,687.02,-190.874,-1.29435e-08,1.29437e-08,-3.59619e-09,713.043,-713.016,-1.38599e-05,1.3434e-08,-1.34338e-08,-2.61129e-16
0.129975,-0.88,0.139613,0.01,3.49054,387.2,-680.415,680.441,-205.48,-1.28195e-08,1.28198e-08,-3.87136e-09,710.79,-710.764,-1.44911e-05,1.33916e-08,-1.33913e-08,-2.73021e-16
0.139975,-0.88,0.141432,0.01,4.44828,387.2,-673.389,673.413,-219.787,-1.26871e-08,1.26874e-08,-4.14091e-09,708.373,-708.348,-1.50183e-05,1.33461e-08,-1.33458e-08,-2.82954e-16
0.149975,-0.88,0.142797,0.01,5.47335,387.2,-665.93,665.953,-233.778,-1.25466e-08,1.25468e-08,-4.40451e-09,705.795,-705.772,-1.54403e-05,1.32975e-08,-1.32972e-08,-2.90904e-16
0.159975,-0.88,0.144596,0.01,6.56502,387.2,-658.056,658.079,-247.437,-1.23983e-08,1.23985e-08,-4.66186e-09,703.06,-703.038,-1.5758e-05,1.3246e-08,-1.32457e-08,-2.9689e-16
0.169975,-0.88,0.146513,0.01,7.72249,387.2,-649.786,649.807,-260.749,-1.22424e-08,1.22427e-08,-4.91266e-09,700.172,-700.15,-1.59733e-05,1.31916e-08,-1.31913e-08,-3.00946e-16
0.179975,-0.88,0.148292,0.01,8.94494,387.2,-641.138,641.158,-273.7,-1.20795e-08,1.20797e-08,-5.15666e-09,697.134,-697.114,-1.60885e-05,1.31343e-08,-1.31341e-08,-3.03117e-16
0.189975,-0.88,0.150714,0.01,10.2315,387.2,-632.131,632.15,-286.276,-1.19098e-08,1.191e-08,-5.3936e-09,693.952,-693.932,-1.61071e-05,1.30744e-08,-1.30742e-08,-3.03468e-16
0.199975,-0.88,0.15252,0.01,11.5813,387.2,-622.785,622.804,-298.466,-1.17337e-08,1.17339e-08,-5.62327e-09,690.629,-690.61,-1.60335e-05,1.30118e-08,-1.30116e-08,-3.0208e-16
0.209975,-0.88,0.154908,0.01,12.9933,387.2,-613.121,613.138,-310.26,-1.15516e-08,1.15518e-08,-5.84547e-09,687.169,-687.152,-1.5873e-05,1.29466e-08,-1.29464e-08,-2.99057e-16
0.219975,-0.88,0.157281,0.01,14.4667,387.2,-603.159,603.175,-321.648,-1.13639e-08,1.13641e-08,-6.06003e-09,683.578,-683.562,-1.5632e-05,1.28789e-08,-1.28788e-08,-2.94515e-16
0.229975,-0.88,0.159636,0.01,16.0003,387.2,-592.918,592.933,-332.622,-1.1171e-08,1.11711e-08,-6.26679e-09,679.859,-679.844,-1.53161e-05,1.28089e-08,-1.28087e-08,-2.88565e-16
0.239975,-0.88,0.162573,0.01,17.5933,387.2,-582.421,582.435,-343.175,-1.09732e-08,1.09734e-08,-6.46562e-09,676.018,-676.005,-1.49323e-05,1.27365e-08,-1.27364e-08,-2.81333e-16
0.249975,-0.88,0.164898,0.01,19.2445,387.2,-571.688,571.7,-353.302,-1.0771e-08,1.07711e-08,-6.65642e-09,672.06,-672.048,-1.44879e-05,1.26619e-08,-1.26618e-08,-2.7296e-16
0.259975,-0.88,0.167787,0.01,20.9529,387.2,-560.739,560.75,-362.999,-1.05647e-08,1.05648e-08,-6.8391e-09,667.989,-667.978,-1.39896e-05,1.25853e-08,-1.25851e-08,-2.63573e-16
0.269975,-0.88,0.170694,0.01,22.7173,387.2,-549.595,549.605,-372.261,-1.03547e-08,1.03548e-08,-7.0136e-09,663.811,-663.801,-1.34453e-05,1.25065e-08,-1.25064e-08,-2.53317e-16
0.279975,-0.88,0.173537,0.01,24.5367,387.2,-538.276,538.285,-381.086,-1.01415e-08,1.01416e-08,-7.17988e-09,659.529,-659.52,-1.28621e-05,1.24259e-08,-1.24258e-08,-2.42329e-16
0.289975,-0.88,0.176901,0.01,26.41,387.2,-526.804,526.812,-389.474,-9.92532e-09,9.9254e-09,-7.33792e-09,655.15,-655.142,-1.22472e-05,1.23434e-08,-1.23433e-08,-2.30745e-16
0.299975,-0.88,0.179825,0.01,28.3359,387.2,-515.197,515.204,-397.424,-9.70664e-09,9.70671e-09,-7.48771e-09,650.678,-650.671,-1.16077e-05,1.22591e-08,-1.22591e-08,-2.18695e-16
0.309975,-0.88,0.18313,0.01,30.3133,387.2,-503.476,503.481,-404.938,-9.48579e-09,9.48585e-09,-7.62927e-09,646.118,-646.113,-1.09499e-05,1.21732e-08,-1.21732e-08,-2.06303e-16
0.319975,-0.88,0.186648,0.01,32.3411,387.2,-491.658,491.663,-412.017,-9.26315e-09,9.26319e-09,-7.76263e-09,641.475,-641.471,-1.02809e-05,1.20858e-08,-1.20857e-08,-1.93698e-16
0.329975,-0.88,0.189899,0.01,34.418,387.2,-479.765,479.768,-418.663,-9.03906e-09,9.03909e-09,-7.88786e-09,636.755,-636.751,-9.60687e-06,1.19968e-08,-1.19968e-08,-1.80999e-16
0.339975,-0.88,0.193612,0.01,36.5429,387.2,-467.812,467.814,-424.881,-8.81386e-09,8.81388e-09,-8.00501e-09,631.961,-631.959,-8.93299e-06,1.19065e-08,-1.19065e-08,-1.68303e-16
0.349975,-0.88,0.197207,0.01,38.7146,387.2,-455.819,455.82,-430.675,-8.58789e-09,8.5879e-09,-8.11417e-09,627.099,-627.098,-8.26444e-06,1.18149e-08,-1.18149e-08,-1.55707e-16
0.359975,-0.88,0.200855,0.01,40.9319,387.2,-443.801,443.802,-436.05,-8.36147e-09,8.36148e-09,-8.21544e-09,622.174,-622.173,-7.60592e-06,1.17221e-08,-1.17221e-08,-1.433e-16
0.369975,-0.88,0.204927,0.01,43.1936,387.2,-431.776,431.776,-441.013,-8.13492e-09,8.13491e-09,-8.30894e-09,617.189,-617.19,-6.96181e-06,1.16282e-08,-1.16282e-08,-1.31165e-16
0.379975,-0.88,0.208641,0.01,45.4984,387.2,-419.76,419.759,-445.569,-7.90852e-09,7.90851e-09,-8.39478e-09,612.151,-612.153,-6.33626e-06,1.15333e-08,-1.15333e-08,-1.19379e-16
0.389975,-0.88,0.212639,0.01,47.8452,387.2,-407.768,407.766,-449.726,-7.68257e-09,7.68255e-09,-8.4731e-09,607.063,-607.066,-5.73202e-06,1.14374e-08,-1.14375e-08,-1.07995e-16
0.399975,-0.88,0.216969,0.01,50.2328,387.2,-395.825,395.814,-453.497,-7.45753e-09,7.45741e-09,-8.54415e-09,601.935,-601.947,-0.00212379,1.13409e-08,-1.1341e-08,-4.00134e-14
0.409975,-0.88,0.220898,0.01,52.66,387.2,-384.153,383.804,-457.148,-7.23615e-09,7.23261e-09,-8.61294e-09,596.838,-597.188,0.123294,1.12463e-08,-1.12498e-08,2.32294e-12
0.419975,-0.88,0.225204,0.01,55.1255,387.2,-374.167,372.107,-461.487,-7.04057e-09,7.01966e-09,-8.69468e-09,592.435,-594.496,0.18136,1.11708e-08,-1.11917e-08,3.41693e-12
0.429975,-0.88,0.229703,0.01,57.6283,387.2,-364.293,360.841,-464.459,-6.84848e-09,6.81346e-09,-8.75067e-09,587.49,-590.943,-0.590622,1.10837e-08,-1.11187e-08,-1.11277e-11
0.439975,-0.88,0.233934,0.01,60.1671,387.2,-353.944,348.095,-469.666,-6.64307e-09,6.58374e-09,-8.84878e-09,583.42,-589.269,1.01077,1.10174e-08,-1.10767e-08,1.90435e-11
0.449975,-0.88,0.238509,0.01,62.7408,387.2,-347.204,337.982,-473.254,-6.50143e-09,6.40787e-09,-8.91638e-09,579.631,-588.854,-0.669562,1.09607e-08,-1.10542e-08,-1.26149e-11
0.459975,-0.88,0.243212,0.01,65.3481,387.2,-334.083,325.681,-475.5,-6.25778e-09,6.17254e-09,-8.9587e-09,574.524,-582.926,0.572801,1.08609e-08,-1.09461e-08,1.07919e-11
-0.480025,-0.87,0.243916,0.01,65.732,378.45,-311.533,303.132,489.5,-5.83293e-09,5.7477e-09,9.22247e-09,573.781,-582.182,-1.02611,1.08469e-08,-1.09321e-08,-1.93325e-11
-0.470025,-0.87,0.238928,0.01,63.0129,378.45,-324.957,315.775,487.803,-6.08246e-09,5.98931e-09,9.19049e-09,579.006,-588.188,0.571134,1.09487e-08,-1.10419e-08,1.07605e-11
-0.460025,-0.87,0.234262,0.01,60.3253,378.45,-332.02,326.141,485.016,-6.22988e-09,6.17024e-09,9.13799e-09,583.178,-589.057,-1.09271,1.1013e-08,-1.10726e-08,-2.05874e-11
-0.450025,-0.87,0.229777,0.01,57.6704,378.45,-342.556,339.081,480.483,-6.43884e-09,6.4036e-09,9.05258e-09,587.348,-590.822,0.527965,1.10811e-08,-1.11163e-08,9.94718e-12
-0.440025,-0.87,0.225022,0.01,55.0494,378.45,-352.743,350.657,478.259,-6.63681e-09,6.61565e-09,9.01067e-09,592.61,-594.696,-0.122306,1.11742e-08,-1.11954e-08,-2.30431e-12
-0.430025,-0.87,0.220619,0.01,52.4635,378.45,-362.911,362.542,474.739,-6.83585e-09,6.83211e-09,8.94435e-09,597.266,-597.635,-0.140813,1.12544e-08,-1.12582e-08,-2.65299e-12
-0.420025,-0.87,0.216336,0.01,49.9138,378.45,-374.811,374.797,471.887,-7.06159e-09,7.06145e-09,8.89063e-09,602.617,-602.63,0.00245815,1.13537e-08,-1.13538e-08,4.63129e-14
-0.410025,-0.87,0.211848,0.01,47.4016,378.45,-387.011,387.007,468.952,-7.2915e-09,7.29146e-09,8.83532e-09,608.021,-608.025,4.65157e-06,1.14555e-08,-1.14555e-08,8.76383e-17
-0.400025,-0.87,0.207745,0.01,44.9281,378.45,-399.298,399.295,465.634,-7.523e-09,7.52296e-09,8.77281e-09,613.393,-613.396,5.23786e-06,1.15567e-08,-1.15567e-08,9.86842e-17
-0.390025,-0.87,0.203627,0.01,42.4946,378.45,-411.646,411.644,461.92,-7.75564e-09,7.75562e-09,8.70283e-09,618.724,-618.727,5.85368e-06,1.16571e-08,-1.16572e-08,1.10287e-16
-0.380025,-0.87,0.199446,0.01,40.1022,378.45,-424.041,424.039,457.8,-7.98917e-09,7.98915e-09,8.62521e-09,624.011,-624.013,6.49701e-06,1.17567e-08,-1.17568e-08,1.22407e-16
-0.370025,-0.87,0.195687,0.01,37.7522,378.45,-436.467,436.467,453.266,-8.2233e-09,8.22329e-09,8.53979e-09,629.248,-629.249,7.16536e-06,1.18554e-08,-1.18554e-08,1.35e-16
-0.360025,-0.87,0.191691,0.01,35.4459,378.45,-448.91,448.91,448.309,-8.45772e-09,8.45772e-09,8.44641e-09,634.43,-634.43,7.85519e-06,1.1953e-08,-1.1953e-08,1.47996e-16
-0.350025,-0.87,0.187862,0.01,33.1844,378.45,-461.351,461.352,442.924,-8.69213e-09,8.69214e-09,8.34495e-09,639.553,-639.552,8.56188e-06,1.20495e-08,-1.20495e-08,1.61311e-16
-0.340025,-0.87,0.184482,0.01,30.9691,378.45,-473.775,473.777,437.103,-8.92621e-09,8.92623e-09,8.23527e-09,644.612,-644.609,9.28211e-06,1.21448e-08,-1.21448e-08,1.7488e-16
-0.330025,-0.87,0.180578,0.01,28.8011,378.45,-486.163,486.166,430.839,-9.15961e-09,9.15964e-09,8.11727e-09,649.601,-649.598,1.0011e-05,1.22388e-08,-1.22388e-08,1.88613e-16
-0.320025,-0.87,0.177154,0.01,26.6818,378.45,-498.497,498.501,424.129,-9.392e-09,9.39204e-09,7.99085e-09,654.515,-654.511,1.07421e-05,1.23314e-08,-1.23314e-08,2.02387e-16
-0.310025,-0.87,0.173836,0.01,24.6123,378.45,-510.758,510.763,416.968,-9.623e-09,9.62305e-09,7.85593e-09,659.35,-659.345,1.14696e-05,1.24225e-08,-1.24225e-08,2.16094e-16
-0.300025,-0.87,0.170347,0.01,22.5939,378.45,-522.926,522.932,409.353,-9.85225e-09,9.85232e-09,7.71245e-09,664.1,-664.094,1.21868e-05,1.2512e-08,-1.25119e-08,2.29607e-16
-0.290025,-0.87,0.167384,0.01,20.6278,378.45,-534.98,534.988,401.281,-1.00794e-08,1.00795e-08,7.56037e-09,668.76,-668.752,1.2887e-05,1.25998e-08,-1.25997e-08,2.42798e-16
-0.280025,-0.87,0.164079,0.01,18.7152,378.45,-546.902,546.91,392.751,-1.0304e-08,1.03041e-08,7.39966e-09,673.324,-673.316,1.35629e-05,1.26858e-08,-1.26857e-08,2.55532e-16
-0.270025,-0.87,0.161065,0.01,16.8573,378.45,-558.668,558.678,383.763,-1.05257e-08,1.05258e-08,7.23032e-09,677.788,-677.778,1.42067e-05,1.27699e-08,-1.27698e-08,2.67662e-16
-0.260025,-0.87,0.158348,0.01,15.0552,378.45,-570.259,570.27,374.318,-1.07441e-08,1.07442e-08,7.05236e-09,682.146,-682.135,1.48106e-05,1.2852e-08,-1.28519e-08,2.7904e-16
-0.250025,-0.87,0.155281,0.01,13.3102,378.45,-581.652,581.665,364.417,-1.09587e-08,1.09588e-08,6.86583e-09,686.393,-686.38,1.5366e-05,1.2932e-08,-1.29319e-08,2.89505e-16
-0.240025,-0.87,0.152807,0.01,11.6233,378.45,-592.826,592.84,354.064,-1.11692e-08,1.11694e-08,6.67077e-09,690.523,-690.509,1.58647e-05,1.30098e-08,-1.30097e-08,2.98901e-16
-0.230025,-0.87,0.150031,0.01,9.99576,378.45,-603.759,603.774,343.263,-1.13752e-08,1.13754e-08,6.46728e-09,694.532,-694.517,1.62993e-05,1.30853e-08,-1.30852e-08,3.07089e-16
-0.220025,-0.87,0.14752,0.01,8.42855,378.45,-614.429,614.445,332.021,-1.15763e-08,1.15764e-08,6.25546e-09,698.414,-698.397,1.66616e-05,1.31584e-08,-1.31583e-08,3.13915e-16
-0.210025,-0.87,0.145317,0.01,6.92278,378.45,-624.813,624.831,320.343,-1.17719e-08,1.17721e-08,6.03544e-09,702.164,-702.146,1.69438e-05,1.32291e-08,-1.32289e-08,3.19231e-16
-0.200025,-0.87,0.142765,0.01,5.47949,378.45,-634.89,634.909,308.238,-1.19618e-08,1.1962e-08,5.80738e-09,705.777,-705.759,1.71393e-05,1.32972e-08,-1.3297e-08,3.22914e-16
-0.190025,-0.87,0.140878,0.01,4.09969,378.45,-644.639,644.659,295.716,-1.21455e-08,1.21457e-08,5.57145e-09,709.249,-709.229,1.72412e-05,1.33626e-08,-1.33624e-08,3.24834e-16
-0.180025,-0.87,0.138543,0.01,2.78435,378.45,-654.038,654.06,282.787,-1.23226e-08,1.23228e-08,5.32786e-09,712.575,-712.554,1.72431e-05,1.34252e-08,-1.3425e-08,3.2487e-16
-0.170025,-0.87,0.136633,0.01,1.53441,378.45,-663.066,663.089,269.463,-1.24926e-08,1.24929e-08,5.07684e-09,715.75,-715.727,1.71403e-05,1.3485e-08,-1.34848e-08,3.22933e-16
-0.160025,-0.87,0.134854,0.01,0.350778,378.45,-671.702,671.726,255.759,-1.26554e-08,1.26556e-08,4.81864e-09,718.769,-718.746,1.69285e-05,1.35419e-08,-1.35417e-08,3.18942e-16
-0.150025,-0.87,0.13292,0.01,-0.765688,378.45,-679.927,679.952,241.688,-1.28103e-08,1.28106e-08,4.55354e-09,721.629,-721.604,1.66046e-05,1.35958e-08,-1.35956e-08,3.1284e-16
-0.140025,-0.87,0.131697,0.01,-1.81416,378.45,-687.721,687.747,227.266,-1.29572e-08,1.29574e-08,4.28183e-09,724.325,-724.299,1.61669e-05,1.36466e-08,-1.36463e-08,3.04594e-16
-0.130025,-0.87,0.129739,0.01,-2.79387,378.45,-695.066,695.093,212.511,-1.30956e-08,1.30958e-08,4.00384e-09,726.853,-726.827,1.56144e-05,1.36942e-08,-1.3694e-08,2.94185e-16
-0.120025,-0.87,0.12853,0.01,-3.70407,378.45,-701.944,701.971,197.441,-1.32251e-08,1.32254e-08,3.71991e-09,729.21,-729.183,1.49476e-05,1.37386e-08,-1.37383e-08,2.81621e-16
-0.110025,-0.87,0.127089,0.01,-4.54408,378.45,-708.337,708.366,182.076,-1.33456e-08,1.33459e-08,3.43042e-09,731.392,-731.363,1.41683e-05,1.37797e-08,-1.37794e-08,2.66939e-16
-0.100025,-0.87,0.125872,0.01,-5.31326,378.45,-714.231,714.261,166.435,-1.34567e-08,1.3457e-08,3.13574e-09,733.396,-733.366,1.32799e-05,1.38175e-08,-1.38172e-08,2.502e-16
-0.0900249,-0.87,0.124971,0.01,-6.01102,378.45,-719.61,719.641,150.541,-1.3558e-08,1.35583e-08,2.83628e-09,735.218,-735.188,1.22868e-05,1.38518e-08,-1.38515e-08,2.3149e-16
-0.0800249,-0.87,0.123745,0.01,-6.63682,378.45,-724.461,724.492,134.416,-1.36494e-08,1.36497e-08,2.53247e-09,736.856,-736.825,1.11952e-05,1.38827e-08,-1.38824e-08,2.10923e-16
-0.0700249,-0.87,0.12332,0.01,-7.19018,378.45,-728.772,728.804,118.083,-1.37306e-08,1.37309e-08,2.22475e-09,738.308,-738.276,1.0012e-05,1.391e-08,-1.39097e-08,1.88632e-16
-0.0600249,-0.87,0.122149,0.01,-7.67066,378.45,-732.531,732.563,101.566,-1.38015e-08,1.38018e-08,1.91357e-09,739.571,-739.539,8.74572e-06,1.39338e-08,-1.39335e-08,1.64774e-16
-0.0500249,-0.87,0.121727,0.01,-8.0779,378.45,-735.729,735.762,84.8911,-1.38617e-08,1.3862e-08,1.5994e-09,740.643,-740.61,7.40602e-06,1.3954e-08,-1.39537e-08,1.39534e-16
-0.0400249,-0.87,0.121085,0.01,-8.41156,378.45,-738.357,738.39,68.0827,-1.39112e-08,1.39116e-08,1.28272e-09,741.522,-741.489,6.00375e-06,1.39706e-08,-1.39702e-08,1.13114e-16
-0.0300249,-0.87,0.120664,0.01,-8.67139,378.45,-740.409,740.442,51.1671,-1.39499e-08,1.39502e-08,9.64017e-10,742.208,-742.174,4.54988e-06,1.39835e-08,-1.39831e-08,8.57224e-17
-0.0200249,-0.87,0.120552,0.01,-8.85719,378.45,-741.878,741.912,34.1706,-1.39776e-08,1.39779e-08,6.43794e-10,742.698,-742.665,3.05662e-06,1.39927e-08,-1.39924e-08,5.75884e-17
-0.0100249,-0.87,0.120133,0.01,-8.9688,378.45,-742.762,742.796,17.1201,-1.39942e-08,1.39946e-08,3.22553e-10,742.993,-742.96,1.53703e-06,1.39983e-08,-1.39979e-08,2.89585e-17
-2.48653e-05,-0.87,0.120545,0.01,-9.00613,378.45,-743.058,743.092,0.0424753,-1.39998e-08,1.40001e-08,8.0026e-13,743.092,-743.058,4.18608e-09,1.40001e-08,-1.39998e-08,7.88682e-20
0.00997513,-0.87,0.120133,0.01,-8.96917,378.45,-742.765,742.799,-17.0352,-1.39943e-08,1.39946e-08,-3.20954e-10,742.994,-742.961,-1.529e-06,1.39983e-08,-1.3998e-08,-2.88072e-17
0.0199751,-0.87,0.120548,0.01,-8.85793,378.45,-741.884,741.918,-34.0859,-1.39777e-08,1.3978e-08,-6.42199e-10,742.7,-742.667,-3.04908e-06,1.39928e-08,-1.39924e-08,-5.74465e-17
0.0299751,-0.87,0.120664,0.01,-8.6725,378.45,-740.417,740.451,-51.0827,-1.395e-08,1.39504e-08,-9.62428e-10,742.211,-742.177,-4.54236e-06,1.39835e-08,-1.39832e-08,-8.55806e-17
0.0399751,-0.87,0.121081,0.01,-8.41304,378.45,-738.369,738.402,-67.9988,-1.39114e-08,1.39118e-08,-1.28114e-09,741.526,-741.493,-5.99669e-06,1.39706e-08,-1.39703e-08,-1.12981e-16
0.0499751,-0.87,0.121727,0.01,-8.07974,378.45,-735.743,735.776,-84.8079,-1.3862e-08,1.38623e-08,-1.59783e-09,740.648,-740.615,-7.39963e-06,1.39541e-08,-1.39538e-08,-1.39413e-16
0.0599751,-0.87,0.122145,0.01,-7.67287,378.45,-732.548,732.581,-101.484,-1.38018e-08,1.38021e-08,-1.91201e-09,739.577,-739.544,-8.73936e-06,1.39339e-08,-1.39336e-08,-1.64655e-16
0.0699751,-0.87,0.12332,0.01,-7.19275,378.45,-728.792,728.824,-118.001,-1.3731e-08,1.37313e-08,-2.22321e-09,738.315,-738.283,-1.00059e-05,1.39101e-08,-1.39098e-08,-1.88517e-16
0.0799751,-0.87,0.123741,0.01,-6.63975,378.45,-724.484,724.515,-134.335,-1.36498e-08,1.36502e-08,-2.53095e-09,736.864,-736.833,-1.11894e-05,1.38828e-08,-1.38825e-08,-2.10815e-16
0.0899751,-0.87,0.124963,0.01,-6.01431,378.45,-719.636,719.666,-150.461,-1.35585e-08,1.35588e-08,-2.83478e-09,735.227,-735.196,-1.22816e-05,1.3852e-08,-1.38517e-08,-2.31392e-16
0.0999751,-0.87,0.125868,0.01,-5.31691,378.45,-714.259,714.289,-166.357,-1.34572e-08,1.34575e-08,-3.13426e-09,733.405,-733.376,-1.32755e-05,1.38177e-08,-1.38174e-08,-2.50118e-16
0.109975,-0.87,0.127081,0.01,-4.54808,378.45,-708.368,708.396,-181.999,-1.33462e-08,1.33465e-08,-3.42896e-09,731.403,-731.374,-1.41645e-05,1.37799e-08,-1.37796e-08,-2.66868e-16
0.119975,-0.87,0.128526,0.01,-3.70842,378.45,-701.977,702.004,-197.366,-1.32258e-08,1.3226e-08,-3.71848e-09,729.222,-729.194,-1.4944e-05,1.37388e-08,-1.37386e-08,-2.81553e-16
0.129975,-0.87,0.129731,0.01,-2.79857,378.45,-695.101,695.128,-212.437,-1.30962e-08,1.30965e-08,-4.00244e-09,726.866,-726.839,-1.56111e-05,1.36945e-08,-1.36942e-08,-2.94121e-16
0.139975,-0.87,0.131686,0.01,-1.81921,378.45,-687.759,687.785,-227.194,-1.29579e-08,1.29582e-08,-4.28046e-09,724.338,-724.312,-1.61641e-05,1.36468e-08,-1.36466e-08,-3.04541e-16
0.149975,-0.87,0.132912,0.01,-0.771071,378.45,-679.967,679.992,-241.617,-1.28111e-08,1.28113e-08,-4.5522e-09,721.643,-721.618,-1.66027e-05,1.35961e-08,-1.35958e-08,-3.12804e-16
0.159975,-0.87,0.134843,0.01,0.345059,378.45,-671.744,671.768,-255.69,-1.26562e-08,1.26564e-08,-4.81734e-09,718.784,-718.76,-1.69273e-05,1.35422e-08,-1.3542e-08,-3.1892e-16
0.169975,-0.87,0.136626,0.01,1.52836,378.45,-663.11,663.132,-269.396,-1.24935e-08,1.24937e-08,-5.07558e-09,715.765,-715.743,-1.71394e-05,1.34853e-08,-1.34851e-08,-3.22917e-16
0.179975,-0.87,0.138532,0.01,2.77797,378.45,-654.084,654.105,-282.721,-1.23234e-08,1.23236e-08,-5.32663e-09,712.591,-712.57,-1.72423e-05,1.34255e-08,-1.34253e-08,-3.24855e-16
0.189975,-0.87,0.14087,0.01,4.09299,378.45,-644.687,644.707,-295.652,-1.21464e-08,1.21466e-08,-5.57026e-09,709.266,-709.246,-1.72411e-05,1.33629e-08,-1.33627e-08,-3.24831e-16
0.199975,-0.87,0.142754,0.01,5.47247,378.45,-634.94,634.959,-308.177,-1.19627e-08,1.19629e-08,-5.80623e-09,705.795,-705.776,-1.71403e-05,1.32975e-08,-1.32973e-08,-3.22934e-16
0.209975,-0.87,0.145303,0.01,6.91545,378.45,-624.864,624.882,-320.284,-1.17729e-08,1.17731e-08,-6.03433e-09,702.182,-702.165,-1.69455e-05,1.32294e-08,-1.32293e-08,-3.19262e-16
0.219975,-0.87,0.147509,0.01,8.42091,378.45,-614.481,614.497,-331.964,-1.15772e-08,1.15774e-08,-6.25439e-09,698.433,-698.416,-1.66634e-05,1.31588e-08,-1.31586e-08,-3.13948e-16
0.229975,-0.87,0.150017,0.01,9.98782,378.45,-603.813,603.828,-343.209,-1.13762e-08,1.13764e-08,-6.46625e-09,694.551,-694.536,-1.63015e-05,1.30857e-08,-1.30855e-08,-3.07129e-16
0.239975,-0.87,0.152796,0.01,11.6151,378.45,-592.881,592.895,-354.011,-1.11703e-08,1.11704e-08,-6.66978e-09,690.543,-690.529,-1.58672e-05,1.30102e-08,-1.301e-08,-2.98948e-16
0.249975,-0.87,0.155267,0.01,13.3017,378.45,-581.708,581.721,-364.367,-1.09598e-08,1.09599e-08,-6.86488e-09,686.414,-686.401,-1.53683e-05,1.29324e-08,-1.29322e-08,-2.89548e-16
0.259975,-0.87,0.158331,0.01,15.0464,378.45,-570.316,570.327,-374.27,-1.07451e-08,1.07453e-08,-7.05146e-09,682.167,-682.156,-1.48131e-05,1.28524e-08,-1.28523e-08,-2.79088e-16
0.269975,-0.87,0.161052,0.01,16.8482,378.45,-558.726,558.736,-383.717,-1.05268e-08,1.05269e-08,-7.22946e-09,677.81,-677.8,-1.421e-05,1.27703e-08,-1.27702e-08,-2.67725e-16
0.279975,-0.87,0.164062,0.01,18.7058,378.45,-546.961,546.969,-392.708,-1.03051e-08,1.03052e-08,-7.39884e-09,673.347,-673.338,-1.35664e-05,1.26862e-08,-1.26861e-08,-2.55599e-16
0.289975,-0.87,0.167371,0.01,20.6182,378.45,-535.04,535.048,-401.24,-1.00805e-08,1.00806e-08,-7.55959e-09,668.783,-668.775,-1.28904e-05,1.26002e-08,-1.26001e-08,-2.42863e-16
0.299975,-0.87,0.170331,0.01,22.584,378.45,-522.986,522.992,-409.314,-9.85339e-09,9.85345e-09,-7.71172e-09,664.124,-664.117,-1.21905e-05,1.25124e-08,-1.25124e-08,-2.29675e-16
0.309975,-0.87,0.173817,0.01,24.6022,378.45,-510.819,510.824,-416.932,-9.62414e-09,9.6242e-09,-7.85524e-09,659.374,-659.369,-1.1473e-05,1.2423e-08,-1.24229e-08,-2.16159e-16
0.319975,-0.87,0.177138,0.01,26.6714,378.45,-498.558,498.563,-424.095,-9.39315e-09,9.39319e-09,-7.9902e-09,654.539,-654.535,-1.07455e-05,1.23319e-08,-1.23318e-08,-2.02451e-16
0.329975,-0.87,0.18056,0.01,28.7905,378.45,-486.225,486.228,-430.807,-9.16077e-09,9.1608e-09,-8.11666e-09,649.625,-649.622,-1.00146e-05,1.22393e-08,-1.22393e-08,-1.8868e-16
0.339975,-0.87,0.184461,0.01,30.9582,378.45,-473.837,473.839,-437.073,-8.92737e-09,8.92739e-09,-8.2347e-09,644.636,-644.634,-9.28579e-06,1.21453e-08,-1.21453e-08,-1.7495e-16
0.349975,-0.87,0.187844,0.01,33.1733,378.45,-461.413,461.414,-442.896,-8.6933e-09,8.69331e-09,-8.34442e-09,639.578,-639.577,-8.56531e-06,1.205e-08,-1.205e-08,-1.61375e-16
0.359975,-0.87,0.191671,0.01,35.4345,378.45,-448.972,448.972,-448.284,-8.45889e-09,8.45889e-09,-8.44593e-09,634.456,-634.456,-7.85825e-06,1.19535e-08,-1.19535e-08,-1.48054e-16
0.369975,-0.87,0.195669,0.01,37.7406,378.45,-436.529,436.528,-453.242,-8.22446e-09,8.22445e-09,-8.53934e-09,629.274,-629.274,-7.16858e-06,1.18559e-08,-1.18559e-08,-1.3506e-16
0.379975,-0.87,0.199426,0.01,40.0904,378.45,-424.103,424.101,-457.778,-7.99033e-09,7.99032e-09,-8.62481e-09,624.037,-624.039,-6.50007e-06,1.17572e-08,-1.17572e-08,-1.22465e-16
0.389975,-0.87,0.203605,0.01,42.4826,378.45,-411.708,411.705,-461.9,-7.7568e-09,7.75677e-09,-8.70247e-09,618.751,-618.753,-5.85654e-06,1.16576e-08,-1.16577e-08,-1.10341e-16
0.399975,-0.87,0.207726,0.01,44.9159,378.45,-399.36,399.356,-465.616,-7.52415e-09,7.52411e-09,-8.77248e-09,613.419,-613.423,-5.24078e-06,1.15572e-08,-1.15572e-08,-9.87393e-17
0.409975,-0.87,0.211827,0.01,47.3892,378.45,-387.072,387.068,-468.936,-7.29265e-09,7.29261e-09,-8.83503e-09,608.048,-608.052,-4.65436e-06,1.1456e-08,-1.1456e-08,-8.76909e-17
0.419975,-0.87,0.216313,0.01,49.9012,378.45,-374.871,374.858,-471.873,-7.06273e-09,7.06259e-09,-8.89037e-09,602.644,-602.657,-0.00245769,1.13542e-08,-1.13544e-08,-4.63042e-14
0.429975,-0.87,0.220598,0.01,52.4507,378.45,-362.971,362.602,-474.727,-6.83699e-09,6.83324e-09,-8.94413e-09,597.293,-597.663,0.14079,1.1255e-08,-1.12587e-08,2.65256e-12
0.439975,-0.87,0.225,0.01,55.0365,378.45,-352.802,350.716,-478.249,-6.63793e-09,6.61677e-09,-9.01049e-09,592.638,-594.723,0.122434,1.11747e-08,-1.11959e-08,2.30673e-12
0.449975,-0.87,0.229753,0.01,57.6573,378.45,-342.615,339.141,-480.475,-6.43996e-09,6.40472e-09,-9.05243e-09,587.375,-590.85,-0.528131,1.10816e-08,-1.11168e-08,-9.95029e-12
0.459975,-0.87,0.234239,0.01,60.312,378.45,-332.079,326.2,-485.01,-6.231e-09,6.17135e-09,-9.13787e-09,583.205,-589.085,1.09264,1.10135e-08,-1.10731e-08,2.0586e-11
0.469975,-0.87,0.238904,0.01,62.9995,378.45,-325.016,315.834,-487.798,-6.08357e-09,5.99041e-09,-9.19039e-09,579.034,-588.217,-0.571374,1.09493e-08,-1.10424e-08,-1.0765e-11
0.479975,-0.87,0.24389,0.01,65.7184,378.45,-311.592,303.19,-489.497,-5.83404e-09,5.7488e-09,-9.2224e-09,573.809,-582.211,1.02531,1.08474e-08,-1.09327e-08,1.93173e-11
-0.500025,-0.86,0.244951,0.01,66.3866,369.8,-288.076,285.05,500.368,-5.41437e-09,5.38367e-09,9.42722e-09,575.101,-578.128,1.50461,1.08484e-08,-1.08791e-08,2.83478e-11
-0.490025,-0.86,0.239879,0.01,63.5591,369.8,-301.842,292.776,500.765,-5.64746e-09,5.55548e-09,9.4347e-09,577.839,-586.906,0.474542,1.09262e-08,-1.10182e-08,8.94065e-12
-0.480025,-0.86,0.235124,0.01,60.7608,369.8,-309.18,303.308,498.794,-5.79961e-09,5.74003e-09,9.39757e-09,582.367,-588.239,-1.16065,1.09977e-08,-1.10572e-08,-2.18673e-11
-0.470025,-0.86,0.230223,0.01,57.993,369.8,-319.837,316.362,494.96,-6.01081e-09,5.97556e-09,9.32533e-09,586.627,-590.101,0.459492,1.10675e-08,-1.11027e-08,8.6571e-12
-0.460025,-0.86,0.225376,0.01,55.2568,369.8,-330.272,328.174,493.493,-6.21339e-09,6.19211e-09,9.2977e-09,592.182,-594.28,-0.0609548,1.11662e-08,-1.11875e-08,-1.14842e-12
-0.450025,-0.86,0.220876,0.01,52.5534,369.8,-340.559,340.172,490.812,-6.41464e-09,6.41072e-09,9.24718e-09,597.088,-597.475,-0.15579,1.12512e-08,-1.12551e-08,-2.93518e-12
-0.440025,-0.86,0.216183,0.01,49.884,369.8,-352.61,352.595,488.778,-6.64331e-09,6.64315e-09,9.20885e-09,602.68,-602.695,0.00275029,1.13549e-08,-1.13551e-08,5.18171e-14
-0.430025,-0.86,0.211595,0.01,47.2499,369.8,-364.991,364.985,486.698,-6.87662e-09,6.87656e-09,9.16967e-09,608.348,-608.354,3.56481e-06,1.14617e-08,-1.14617e-08,6.71631e-17
-0.420025,-0.86,0.207389,0.01,44.6523,369.8,-377.494,377.489,484.244,-7.11218e-09,7.11213e-09,9.12343e-09,613.994,-613.999,4.11277e-06,1.1568e-08,-1.15681e-08,7.7487e-17
-0.410025,-0.86,0.202865,0.01,42.0924,369.8,-390.095,390.09,481.4,-7.3496e-09,7.34955e-09,9.06985e-09,619.609,-619.613,4.69752e-06,1.16738e-08,-1.16739e-08,8.85039e-17
-0.400025,-0.86,0.198577,0.01,39.5716,369.8,-402.781,402.777,478.155,-7.58861e-09,7.58857e-09,9.00871e-09,625.188,-625.192,5.31755e-06,1.17789e-08,-1.1779e-08,1.00186e-16
-0.390025,-0.86,0.194688,0.01,37.091,369.8,-415.537,415.534,474.499,-7.82895e-09,7.82892e-09,8.93984e-09,630.728,-630.731,5.97079e-06,1.18833e-08,-1.18833e-08,1.12493e-16
-0.380025,-0.86,0.190311,0.01,34.652,369.8,-428.35,428.347,470.423,-8.07035e-09,8.07032e-09,8.86304e-09,636.222,-636.225,6.65545e-06,1.19868e-08,-1.19868e-08,1.25393e-16
-0.370025,-0.86,0.186368,0.01,32.2558,369.8,-441.202,441.201,465.917,-8.3125e-09,8.31249e-09,8.77815e-09,641.667,-641.668,7.36898e-06,1.20894e-08,-1.20894e-08,1.38836e-16
-0.360025,-0.86,0.182593,0.01,29.9038,369.8,-454.079,454.078,460.972,-8.5551e-09,8.5551e-09,8.68499e-09,647.057,-647.057,8.1074e-06,1.21909e-08,-1.21909e-08,1.52748e-16
-0.350025,-0.86,0.17857,0.01,27.5971,369.8,-466.962,466.962,455.581,-8.79783e-09,8.79784e-09,8.58341e-09,652.387,-652.386,8.86629e-06,1.22913e-08,-1.22913e-08,1.67046e-16
-0.340025,-0.86,0.175026,0.01,25.3372,369.8,-479.834,479.835,449.736,-9.04035e-09,9.04037e-09,8.47329e-09,657.651,-657.649,9.64214e-06,1.23905e-08,-1.23905e-08,1.81664e-16
-0.330025,-0.86,0.171315,0.01,23.1252,369.8,-492.676,492.678,443.431,-9.28231e-09,9.28233e-09,8.35449e-09,662.845,-662.842,1.04295e-05,1.24884e-08,-1.24883e-08,1.96498e-16
-0.320025,-0.86,0.167701,0.01,20.9625,369.8,-505.468,505.472,436.659,-9.52333e-09,9.52337e-09,8.22692e-09,667.963,-667.959,1.12217e-05,1.25848e-08,-1.25847e-08,2.11424e-16
-0.310025,-0.86,0.164604,0.01,18.8504,369.8,-518.192,518.197,429.417,-9.76305e-09,9.76311e-09,8.09047e-09,672.999,-672.994,1.20128e-05,1.26797e-08,-1.26796e-08,2.26329e-16
-0.300025,-0.86,0.160916,0.01,16.79,369.8,-530.825,530.832,421.7,-1.00011e-08,1.00011e-08,7.94508e-09,677.948,-677.942,1.27956e-05,1.27729e-08,-1.27729e-08,2.41076e-16
-0.290025,-0.86,0.157776,0.01,14.7828,369.8,-543.348,543.355,413.506,-1.0237e-08,1.02371e-08,7.79069e-09,682.805,-682.798,1.35622e-05,1.28644e-08,-1.28643e-08,2.55519e-16
-0.280025,-0.86,0.15467,0.01,12.8298,369.8,-555.738,555.747,404.832,-1.04705e-08,1.04706e-08,7.62727e-09,687.564,-687.555,1.43047e-05,1.29541e-08,-1.2954e-08,2.69509e-16
-0.270025,-0.86,0.15147,0.01,10.9325,369.8,-567.973,567.984,395.678,-1.0701e-08,1.07011e-08,7.45481e-09,692.22,-692.209,1.50148e-05,1.30418e-08,-1.30417e-08,2.82887e-16
-0.260025,-0.86,0.148874,0.01,9.09195,369.8,-580.032,580.043,386.045,-1.09282e-08,1.09283e-08,7.27332e-09,696.766,-696.754,1.56839e-05,1.31274e-08,-1.31273e-08,2.95494e-16
-0.250025,-0.86,0.1457,0.01,7.3094,369.8,-591.89,591.903,375.935,-1.11516e-08,1.11517e-08,7.08283e-09,701.197,-701.184,1.63028e-05,1.32109e-08,-1.32108e-08,3.07154e-16
-0.240025,-0.86,0.143061,0.01,5.58604,369.8,-603.525,603.539,365.349,-1.13708e-08,1.1371e-08,6.88339e-09,705.508,-705.494,1.68617e-05,1.32921e-08,-1.3292e-08,3.17685e-16
-0.230025,-0.86,0.140466,0.01,3.92303,369.8,-614.914,614.93,354.294,-1.15854e-08,1.15856e-08,6.6751e-09,709.693,-709.677,1.73528e-05,1.3371e-08,-1.33708e-08,3.26936e-16
-0.220025,-0.86,0.137781,0.01,2.32151,369.8,-626.034,626.051,342.773,-1.17949e-08,1.17951e-08,6.45805e-09,713.747,-713.73,1.77671e-05,1.34473e-08,-1.34472e-08,3.34742e-16
-0.210025,-0.86,0.135769,0.01,0.782595,369.8,-636.861,636.879,330.795,-1.19989e-08,1.19991e-08,6.23237e-09,717.664,-717.646,1.80959e-05,1.35211e-08,-1.35209e-08,3.40938e-16
-0.200025,-0.86,0.133034,0.01,-0.692639,369.8,-647.371,647.391,318.368,-1.21969e-08,1.21971e-08,5.99823e-09,721.439,-721.42,1.83309e-05,1.35922e-08,-1.3592e-08,3.45364e-16
-0.190025,-0.86,0.131007,0.01,-2.10314,369.8,-657.543,657.564,305.5,-1.23886e-08,1.23888e-08,5.75581e-09,725.067,-725.047,1.84642e-05,1.36606e-08,-1.36604e-08,3.47877e-16
-0.180025,-0.86,0.128821,0.01,-3.44788,369.8,-667.354,667.376,292.205,-1.25734e-08,1.25737e-08,5.50531e-09,728.543,-728.521,1.84901e-05,1.37261e-08,-1.37259e-08,3.48365e-16
-0.170025,-0.86,0.126765,0.01,-4.7259,369.8,-676.78,676.803,278.493,-1.2751e-08,1.27513e-08,5.24698e-09,731.862,-731.839,1.84025e-05,1.37886e-08,-1.37884e-08,3.46713e-16
-0.160025,-0.86,0.125141,0.01,-5.93623,369.8,-685.801,685.825,264.38,-1.2921e-08,1.29212e-08,4.98107e-09,735.02,-734.995,1.81958e-05,1.38481e-08,-1.38478e-08,3.42818e-16
-0.150025,-0.86,0.123054,0.01,-7.07799,369.8,-694.394,694.42,249.879,-1.30829e-08,1.30832e-08,4.70787e-09,738.011,-737.985,1.78665e-05,1.39044e-08,-1.39042e-08,3.36615e-16
-0.140025,-0.86,0.121756,0.01,-8.15031,369.8,-702.54,702.567,235.009,-1.32364e-08,1.32366e-08,4.42771e-09,740.831,-740.804,1.74129e-05,1.39576e-08,-1.39573e-08,3.28068e-16
-0.130025,-0.86,0.119876,0.01,-9.15238,369.8,-710.218,710.246,219.786,-1.3381e-08,1.33813e-08,4.1409e-09,743.476,-743.448,1.68334e-05,1.40074e-08,-1.40071e-08,3.17151e-16
-0.120025,-0.86,0.118567,0.01,-10.0834,369.8,-717.409,717.438,204.231,-1.35165e-08,1.35168e-08,3.84783e-09,745.942,-745.913,1.61284e-05,1.40538e-08,-1.40536e-08,3.03869e-16
-0.110025,-0.86,0.117229,0.01,-10.9427,369.8,-724.097,724.127,188.363,-1.36425e-08,1.36428e-08,3.54886e-09,748.225,-748.195,1.52996e-05,1.40969e-08,-1.40966e-08,2.88253e-16
-0.100025,-0.86,0.115909,0.01,-11.7297,369.8,-730.262,730.293,172.204,-1.37587e-08,1.3759e-08,3.24442e-09,750.322,-750.291,1.43503e-05,1.41364e-08,-1.41361e-08,2.70368e-16
-0.0900249,-0.86,0.115114,0.01,-12.4435,369.8,-735.891,735.923,155.777,-1.38648e-08,1.38651e-08,2.93492e-09,752.23,-752.198,1.32856e-05,1.41723e-08,-1.4172e-08,2.50309e-16
-0.0800249,-0.86,0.113782,0.01,-13.0838,369.8,-740.968,741.001,139.105,-1.39604e-08,1.39607e-08,2.62082e-09,753.945,-753.912,1.21122e-05,1.42046e-08,-1.42043e-08,2.28201e-16
-0.0700249,-0.86,0.11332,0.01,-13.65,369.8,-745.48,745.513,122.213,-1.40454e-08,1.40458e-08,2.30257e-09,755.464,-755.431,1.08379e-05,1.42332e-08,-1.42329e-08,2.04192e-16
-0.0600249,-0.86,0.112187,0.01,-14.1417,369.8,-749.415,749.449,105.127,-1.41196e-08,1.41199e-08,1.98066e-09,756.787,-756.753,9.47132e-06,1.42582e-08,-1.42578e-08,1.78445e-16
-0.0500249,-0.86,0.111727,0.01,-14.5584,369.8,-752.763,752.798,87.8735,-1.41826e-08,1.4183e-08,1.65559e-09,757.909,-757.875,8.02331e-06,1.42793e-08,-1.4279e-08,1.51164e-16
-0.0400249,-0.86,0.111123,0.01,-14.8999,369.8,-755.515,755.55,70.4785,-1.42345e-08,1.42348e-08,1.32785e-09,758.83,-758.795,6.50607e-06,1.42966e-08,-1.42963e-08,1.22578e-16
-0.0300249,-0.86,0.110664,0.01,-15.1658,369.8,-757.664,757.699,52.9699,-1.4275e-08,1.42753e-08,9.97983e-10,759.548,-759.513,4.93201e-06,1.43102e-08,-1.43098e-08,9.29219e-17
-0.0200249,-0.86,0.11059,0.01,-15.3559,369.8,-759.203,759.238,35.3757,-1.4304e-08,1.43043e-08,6.66498e-10,760.062,-760.027,3.3141e-06,1.43199e-08,-1.43195e-08,6.24395e-17
-0.0100249,-0.86,0.110133,0.01,-15.4701,369.8,-760.129,760.164,17.7242,-1.43214e-08,1.43218e-08,3.33934e-10,760.371,-760.335,1.66666e-06,1.43257e-08,-1.43253e-08,3.14008e-17
-2.48653e-05,-0.86,0.110582,0.01,-15.5083,369.8,-760.439,760.474,0.0439743,-1.43273e-08,1.43276e-08,8.28502e-13,760.474,-760.439,4.47256e-09,1.43276e-08,-1.43273e-08,8.42656e-20
0.00997513,-0.86,0.110133,0.01,-15.4705,369.8,-760.132,760.167,-17.6363,-1.43215e-08,1.43218e-08,-3.32278e-10,760.372,-760.336,-1.65794e-06,1.43257e-08,-1.43253e-08,-3.12366e-17
0.0199751,-0.86,0.110585,0.01,-15.3567,369.8,-759.209,759.244,-35.288,-1.43041e-08,1.43045e-08,-6.64846e-10,760.064,-760.029,-3.3057e-06,1.43199e-08,-1.43195e-08,-6.22813e-17
0.0299751,-0.86,0.110664,0.01,-15.1669,369.8,-757.673,757.708,-52.8826,-1.42751e-08,1.42755e-08,-9.96338e-10,759.551,-759.516,-4.92397e-06,1.43102e-08,-1.43099e-08,-9.27705e-17
0.0399751,-0.86,0.111118,0.01,-14.9014,369.8,-755.528,755.562,-70.3916,-1.42347e-08,1.42351e-08,-1.32622e-09,758.834,-758.8,-6.49865e-06,1.42967e-08,-1.42964e-08,-1.22438e-16
0.0499751,-0.86,0.111727,0.01,-14.5603,369.8,-752.779,752.813,-87.7873,-1.41829e-08,1.41833e-08,-1.65396e-09,757.914,-757.88,-8.01647e-06,1.42794e-08,-1.4279e-08,-1.51035e-16
0.0599751,-0.86,0.112182,0.01,-14.144,369.8,-749.433,749.467,-105.042,-1.41199e-08,1.41203e-08,-1.97905e-09,756.793,-756.759,-9.46443e-06,1.42583e-08,-1.42579e-08,-1.78315e-16
0.0699751,-0.86,0.11332,0.01,-13.6527,369.8,-745.501,745.534,-122.129,-1.40458e-08,1.40462e-08,-2.30098e-09,755.471,-755.438,-1.0831e-05,1.42334e-08,-1.4233e-08,-2.04062e-16
0.0799751,-0.86,0.113778,0.01,-13.0868,369.8,-740.992,741.024,-139.021,-1.39609e-08,1.39612e-08,-2.61924e-09,753.953,-753.92,-1.2106e-05,1.42048e-08,-1.42044e-08,-2.28084e-16
0.0899751,-0.86,0.115105,0.01,-12.4469,369.8,-735.918,735.949,-155.694,-1.38653e-08,1.38656e-08,-2.93337e-09,752.239,-752.207,-1.32801e-05,1.41725e-08,-1.41722e-08,-2.50205e-16
0.0999751,-0.86,0.115905,0.01,-11.7334,369.8,-730.292,730.323,-172.123,-1.37593e-08,1.37596e-08,-3.24289e-09,750.332,-750.301,-1.43455e-05,1.41366e-08,-1.41362e-08,-2.70277e-16
0.109975,-0.86,0.117221,0.01,-10.9468,369.8,-724.129,724.159,-188.283,-1.36431e-08,1.36434e-08,-3.54736e-09,748.236,-748.206,-1.52956e-05,1.40971e-08,-1.40968e-08,-2.88177e-16
0.119975,-0.86,0.118563,0.01,-10.0879,369.8,-717.444,717.473,-204.153,-1.35172e-08,1.35175e-08,-3.84635e-09,745.953,-745.924,-1.61248e-05,1.40541e-08,-1.40538e-08,-3.038e-16
0.129975,-0.86,0.119867,0.01,-9.15719,369.8,-710.255,710.283,-219.71,-1.33817e-08,1.3382e-08,-4.13946e-09,743.488,-743.46,-1.68299e-05,1.40076e-08,-1.40073e-08,-3.17086e-16
0.139975,-0.86,0.121752,0.01,-8.15547,369.8,-702.579,702.606,-234.934,-1.32371e-08,1.32374e-08,-4.42629e-09,740.844,-740.817,-1.74099e-05,1.39578e-08,-1.39575e-08,-3.28013e-16
0.149975,-0.86,0.123046,0.01,-7.0835,369.8,-694.436,694.461,-249.806,-1.30837e-08,1.30839e-08,-4.7065e-09,738.025,-737.999,-1.78646e-05,1.39047e-08,-1.39044e-08,-3.3658e-16
0.159975,-0.86,0.125129,0.01,-5.94208,369.8,-685.844,685.869,-264.309,-1.29218e-08,1.29221e-08,-4.97973e-09,735.035,-735.01,-1.81945e-05,1.38484e-08,-1.38481e-08,-3.42795e-16
0.169975,-0.86,0.126757,0.01,-4.73208,369.8,-676.826,676.849,-278.424,-1.27519e-08,1.27521e-08,-5.24567e-09,731.879,-731.855,-1.84016e-05,1.37889e-08,-1.37887e-08,-3.46697e-16
0.179975,-0.86,0.128809,0.01,-3.4544,369.8,-667.402,667.424,-292.138,-1.25743e-08,1.25746e-08,-5.50404e-09,728.56,-728.538,-1.84898e-05,1.37264e-08,-1.37262e-08,-3.48358e-16
0.189975,-0.86,0.130999,0.01,-2.10999,369.8,-657.593,657.614,-305.435,-1.23895e-08,1.23897e-08,-5.75458e-09,725.085,-725.064,-1.84645e-05,1.36609e-08,-1.36607e-08,-3.47883e-16
0.199975,-0.86,0.133022,0.01,-0.699814,369.8,-647.423,647.442,-318.305,-1.21979e-08,1.21981e-08,-5.99705e-09,721.458,-721.438,-1.8332e-05,1.35926e-08,-1.35924e-08,-3.45386e-16
0.209975,-0.86,0.135754,0.01,0.7751,369.8,-636.914,636.932,-330.734,-1.19999e-08,1.20001e-08,-6.23123e-09,717.683,-717.665,-1.80977e-05,1.35215e-08,-1.35213e-08,-3.40971e-16
0.219975,-0.86,0.137769,0.01,2.3137,369.8,-626.088,626.105,-342.715,-1.17959e-08,1.17961e-08,-6.45695e-09,713.766,-713.75,-1.77691e-05,1.34477e-08,-1.34475e-08,-3.34779e-16
0.229975,-0.86,0.140451,0.01,3.91491,369.8,-614.97,614.986,-354.237,-1.15865e-08,1.15866e-08,-6.67404e-09,709.713,-709.698,-1.73551e-05,1.33713e-08,-1.33712e-08,-3.26981e-16
0.239975,-0.86,0.14305,0.01,5.57762,369.8,-603.582,603.596,-365.295,-1.13719e-08,1.1372e-08,-6.88238e-09,705.529,-705.515,-1.68645e-05,1.32925e-08,-1.32924e-08,-3.17737e-16
0.249975,-0.86,0.145685,0.01,7.30068,369.8,-591.948,591.961,-375.883,-1.11527e-08,1.11528e-08,-7.08186e-09,701.219,-701.206,-1.63052e-05,1.32113e-08,-1.32112e-08,-3.072e-16
0.259975,-0.86,0.148863,0.01,9.08294,369.8,-580.091,580.103,-385.996,-1.09293e-08,1.09294e-08,-7.27239e-09,696.788,-696.776,-1.56866e-05,1.31278e-08,-1.31277e-08,-2.95544e-16
0.269975,-0.86,0.151456,0.01,10.9232,369.8,-568.034,568.044,-395.632,-1.07021e-08,1.07022e-08,-7.45393e-09,692.242,-692.232,-1.50182e-05,1.30422e-08,-1.30421e-08,-2.82952e-16
0.279975,-0.86,0.154653,0.01,12.8203,369.8,-555.799,555.808,-404.788,-1.04716e-08,1.04717e-08,-7.62643e-09,687.588,-687.579,-1.43081e-05,1.29545e-08,-1.29544e-08,-2.69573e-16
0.289975,-0.86,0.157762,0.01,14.7729,369.8,-543.41,543.417,-413.464,-1.02382e-08,1.02383e-08,-7.7899e-09,682.829,-682.822,-1.35651e-05,1.28649e-08,-1.28648e-08,-2.55575e-16
0.299975,-0.86,0.160899,0.01,16.7799,369.8,-530.888,530.894,-421.661,-1.00023e-08,1.00023e-08,-7.94433e-09,677.973,-677.967,-1.27991e-05,1.27734e-08,-1.27733e-08,-2.41143e-16
0.309975,-0.86,0.164585,0.01,18.84,369.8,-518.255,518.26,-429.38,-9.76424e-09,9.76429e-09,-8.08977e-09,673.024,-673.019,-1.20167e-05,1.26801e-08,-1.26801e-08,-2.26402e-16
0.319975,-0.86,0.167685,0.01,20.9519,369.8,-505.532,505.536,-436.625,-9.52453e-09,9.52457e-09,-8.22626e-09,667.988,-667.984,-1.12256e-05,1.25853e-08,-1.25852e-08,-2.11497e-16
0.329975,-0.86,0.171296,0.01,23.1143,369.8,-492.739,492.742,-443.398,-9.28351e-09,9.28354e-09,-8.35388e-09,662.871,-662.868,-1.04336e-05,1.24889e-08,-1.24888e-08,-1.96575e-16
0.339975,-0.86,0.175009,0.01,25.3261,369.8,-479.898,479.899,-449.706,-9.04156e-09,9.04157e-09,-8.47272e-09,657.677,-657.675,-9.64629e-06,1.2391e-08,-1.2391e-08,-1.81742e-16
0.349975,-0.86,0.178551,0.01,27.5858,369.8,-467.026,467.027,-455.553,-8.79904e-09,8.79905e-09,-8.58289e-09,652.413,-652.412,-8.87024e-06,1.22918e-08,-1.22918e-08,-1.6712e-16
0.359975,-0.86,0.182572,0.01,29.8922,369.8,-454.143,454.142,-460.947,-8.55631e-09,8.55631e-09,-8.6845e-09,647.083,-647.084,-8.11095e-06,1.21914e-08,-1.21914e-08,-1.52815e-16
0.369975,-0.86,0.18635,0.01,32.244,369.8,-441.266,441.265,-465.893,-8.31371e-09,8.31369e-09,-8.7777e-09,641.694,-641.695,-7.37241e-06,1.20899e-08,-1.20899e-08,-1.389e-16
0.379975,-0.86,0.19029,0.01,34.64,369.8,-428.413,428.411,-470.402,-8.07155e-09,8.07153e-09,-8.86264e-09,636.249,-636.252,-6.6589e-06,1.19873e-08,-1.19873e-08,-1.25458e-16
0.389975,-0.86,0.194665,0.01,37.0788,369.8,-415.601,415.598,-474.48,-7.83015e-09,7.83012e-09,-8.93948e-09,630.755,-630.758,-5.974e-06,1.18838e-08,-1.18838e-08,-1.12554e-16
0.399975,-0.86,0.198557,0.01,39.5592,369.8,-402.844,402.84,-478.138,-7.5898e-09,7.58976e-09,-9.00839e-09,625.216,-625.22,-5.32061e-06,1.17794e-08,-1.17795e-08,-1.00243e-16
0.409975,-0.86,0.202843,0.01,42.0798,369.8,-390.158,390.153,-481.384,-7.35078e-09,7.35073e-09,-9.06956e-09,619.636,-619.641,-4.70066e-06,1.16743e-08,-1.16744e-08,-8.85632e-17
0.419975,-0.86,0.207369,0.01,44.6395,369.8,-377.557,377.551,-484.23,-7.11336e-09,7.1133e-09,-9.12318e-09,614.022,-614.027,-4.11558e-06,1.15685e-08,-1.15686e-08,-7.75399e-17
0.429975,-0.86,0.211573,0.01,47.2369,369.8,-365.053,365.047,-486.686,-6.87779e-09,6.87772e-09,-9.16946e-09,608.376,-608.382,-3.56705e-06,1.14622e-08,-1.14622e-08,-6.72054e-17
0.439975,-0.86,0.216159,0.01,49.8708,369.8,-352.671,352.656,-488.768,-6.64446e-09,6.64431e-09,-9.20868e-09,602.708,-602.723,-0.00274995,1.13554e-08,-1.13556e-08,-5.18107e-14
0.449975,-0.86,0.220854,0.01,52.54,369.8,-340.619,340.233,-490.804,-6.41579e-09,6.41187e-09,-9.24704e-09,597.116,-597.503,0.155774,1.12517e-08,-1.12556e-08,2.93487e-12
0.459975,-0.86,0.225353,0.01,55.2432,369.8,-330.332,328.234,-493.488,-6.21452e-09,6.19324e-09,-9.29759e-09,592.211,-594.309,0.0610807,1.11667e-08,-1.1188e-08,1.1508e-12
0.469975,-0.86,0.230198,0.01,57.9793,369.8,-319.897,316.422,-494.955,-6.01193e-09,5.97668e-09,-9.32525e-09,586.655,-590.13,-0.459663,1.1068e-08,-1.11033e-08,-8.66031e-12
0.479975,-0.86,0.235101,0.01,60.747,369.8,-309.24,303.367,-498.792,-5.80072e-09,5.74114e-09,-9.39752e-09,582.395,-588.268,1.16061,1.09982e-08,-1.10578e-08,2.18665e-11
0.489975,-0.86,0.239855,0.01,63.5451,369.8,-301.902,292.834,-500.764,-5.64858e-09,5.55659e-09,-9.43468e-09,577.868,-586.936,-0.47479,1.09268e-08,-1.10188e-08,-8.94532e-12
0.499975,-0.86,0.244925,0.01,66.3725,369.8,-288.135,285.109,-500.368,-5.41548e-09,5.38477e-09,-9.42723e-09,575.131,-578.157,-1.50567,1.0849e-08,-1.08797e-08,-2.83676e-11
-0.510025,-0.85,0.241385,0.01,64.3905,361.25,-279.27,267.484,513.365,-5.21037e-09,5.0908e-09,9.6721e-09,575.724,-587.511,-0.343714,1.08982e-08,-1.10178e-08,-6.47577e-12
-0.500025,-0.85,0.236481,0.01,61.4849,361.25,-285.302,281.546,509.94,-5.35893e-09,5.32082e-09,9.60756e-09,581.532,-585.288,-0.0115277,1.09727e-08,-1.10108e-08,-2.17189e-13
-0.490025,-0.85,0.231224,0.01,58.6074,361.25,-296.323,293.134,507.749,-5.56903e-09,5.53668e-09,9.56628e-09,585.494,-588.683,0.618737,1.10449e-08,-1.10773e-08,1.16574e-11
-0.480025,-0.85,0.226286,0.01,55.7592,361.25,-306.841,304.744,507.113,-5.77194e-09,5.75067e-09,9.5543e-09,591.128,-593.224,0.00132673,1.11463e-08,-1.11676e-08,2.49963e-14
-0.470025,-0.85,0.221627,0.01,52.9414,361.25,-317.18,316.779,505.284,-5.97411e-09,5.97004e-09,9.51984e-09,596.279,-596.68,-0.168081,1.1236e-08,-1.12401e-08,-3.16673e-12
-0.460025,-0.85,0.216588,0.01,50.1554,361.25,-329.306,329.289,504.078,-6.20424e-09,6.20407e-09,9.49711e-09,602.097,-602.114,0.00299389,1.13439e-08,-1.13441e-08,5.64067e-14
-0.450025,-0.85,0.211901,0.01,47.4022,361.25,-341.788,341.78,502.866,-6.43945e-09,6.43936e-09,9.47428e-09,608.017,-608.026,2.51565e-06,1.14554e-08,-1.14555e-08,4.73962e-17
-0.440025,-0.85,0.207449,0.01,44.6833,361.25,-354.426,354.418,501.292,-6.67755e-09,6.67747e-09,9.44463e-09,613.925,-613.933,3.0084e-06,1.15667e-08,-1.15668e-08,5.66801e-17
-0.430025,-0.85,0.202664,0.01,41.9998,361.25,-367.197,367.19,499.339,-6.91818e-09,6.91811e-09,9.40784e-09,619.812,-619.819,3.542e-06,1.16776e-08,-1.16777e-08,6.67333e-17
-0.420025,-0.85,0.198268,0.01,39.353,361.25,-380.091,380.085,496.995,-7.1611e-09,7.16104e-09,9.36368e-09,625.673,-625.68,4.11611e-06,1.17881e-08,-1.17881e-08,7.755e-17
-0.410025,-0.85,0.193982,0.01,36.7442,361.25,-393.094,393.088,494.248,-7.40609e-09,7.40604e-09,9.31192e-09,631.505,-631.51,4.73123e-06,1.18979e-08,-1.1898e-08,8.91391e-17
-0.400025,-0.85,0.189492,0.01,34.1748,361.25,-406.192,406.188,491.087,-7.65288e-09,7.65283e-09,9.25236e-09,637.302,-637.306,5.38614e-06,1.20072e-08,-1.20072e-08,1.01478e-16
-0.390025,-0.85,0.185434,0.01,31.6459,361.25,-419.372,419.368,487.5,-7.9012e-09,7.90116e-09,9.18477e-09,643.059,-643.063,6.07838e-06,1.21156e-08,-1.21157e-08,1.1452e-16
-0.380025,-0.85,0.181267,0.01,29.159,361.25,-432.618,432.615,483.476,-8.15076e-09,8.15073e-09,9.10897e-09,648.772,-648.774,6.80644e-06,1.22232e-08,-1.22233e-08,1.28237e-16
-0.370025,-0.85,0.177123,0.01,26.7154,361.25,-445.913,445.911,479.007,-8.40125e-09,8.40123e-09,9.02477e-09,654.434,-654.436,7.56783e-06,1.23299e-08,-1.23299e-08,1.42582e-16
-0.360025,-0.85,0.173457,0.01,24.3163,361.25,-459.241,459.24,474.082,-8.65236e-09,8.65235e-09,8.93198e-09,660.042,-660.042,8.35805e-06,1.24356e-08,-1.24356e-08,1.57471e-16
-0.350025,-0.85,0.169358,0.01,21.9632,361.25,-472.583,472.584,468.692,-8.90375e-09,8.90375e-09,8.83043e-09,665.588,-665.588,9.17295e-06,1.25401e-08,-1.25401e-08,1.72824e-16
-0.340025,-0.85,0.165617,0.01,19.6573,361.25,-485.922,485.923,462.83,-9.15506e-09,9.15507e-09,8.71999e-09,671.069,-671.067,1.00087e-05,1.26433e-08,-1.26433e-08,1.88569e-16
-0.330025,-0.85,0.162139,0.01,17.4,361.25,-499.237,499.239,456.488,-9.40592e-09,9.40595e-09,8.6005e-09,676.478,-676.475,1.0859e-05,1.27452e-08,-1.27452e-08,2.0459e-16
-0.320025,-0.85,0.158316,0.01,15.1927,361.25,-512.508,512.512,449.66,-9.65597e-09,9.65601e-09,8.47186e-09,681.809,-681.805,1.17173e-05,1.28457e-08,-1.28456e-08,2.2076e-16
-0.310025,-0.85,0.155045,0.01,13.0366,361.25,-525.715,525.72,442.341,-9.9048e-09,9.90485e-09,8.33395e-09,687.057,-687.052,1.25773e-05,1.29445e-08,-1.29445e-08,2.36964e-16
-0.300025,-0.85,0.151557,0.01,10.933,361.25,-538.836,538.842,434.525,-1.0152e-08,1.01521e-08,8.1867e-09,692.216,-692.21,1.34308e-05,1.30417e-08,-1.30417e-08,2.53043e-16
-0.290025,-0.85,0.14822,0.01,8.88337,361.25,-551.848,551.855,426.21,-1.03972e-08,1.03972e-08,8.03004e-09,697.281,-697.273,1.42697e-05,1.31371e-08,-1.31371e-08,2.6885e-16
-0.280025,-0.85,0.145341,0.01,6.8889,361.25,-564.729,564.738,417.393,-1.06399e-08,1.06399e-08,7.86392e-09,702.244,-702.235,1.50855e-05,1.32306e-08,-1.32306e-08,2.8422e-16
-0.270025,-0.85,0.141931,0.01,4.9509,361.25,-577.456,577.466,408.073,-1.08796e-08,1.08797e-08,7.68834e-09,707.101,-707.091,1.58686e-05,1.33221e-08,-1.3322e-08,2.98974e-16
-0.260025,-0.85,0.139157,0.01,3.07065,361.25,-590.004,590.016,398.251,-1.11161e-08,1.11162e-08,7.50328e-09,711.845,-711.834,1.66097e-05,1.34115e-08,-1.34114e-08,3.12937e-16
-0.250025,-0.85,0.13618,0.01,1.2494,361.25,-602.35,602.363,387.927,-1.13487e-08,1.13488e-08,7.30877e-09,716.471,-716.458,1.72984e-05,1.34987e-08,-1.34985e-08,3.25912e-16
-0.240025,-0.85,0.133353,0.01,-0.511622,361.25,-614.47,614.485,377.105,-1.1577e-08,1.15772e-08,7.10488e-09,720.972,-720.958,1.79247e-05,1.35835e-08,-1.35833e-08,3.37711e-16
-0.230025,-0.85,0.130967,0.01,-2.2112,361.25,-626.339,626.355,365.789,-1.18007e-08,1.18008e-08,6.89167e-09,725.344,-725.328,1.84792e-05,1.36658e-08,-1.36657e-08,3.4816e-16
-0.220025,-0.85,0.128082,0.01,-3.84814,361.25,-637.932,637.949,353.984,-1.20191e-08,1.20193e-08,6.66926e-09,729.579,-729.561,1.89524e-05,1.37456e-08,-1.37454e-08,3.57073e-16
-0.210025,-0.85,0.125928,0.01,-5.42128,361.25,-649.224,649.243,341.697,-1.22318e-08,1.2232e-08,6.43777e-09,733.672,-733.653,1.93338e-05,1.38227e-08,-1.38225e-08,3.6426e-16
-0.200025,-0.85,0.123346,0.01,-6.92951,361.25,-660.191,660.212,328.937,-1.24385e-08,1.24387e-08,6.19737e-09,737.618,-737.598,1.96137e-05,1.38971e-08,-1.38969e-08,3.69534e-16
-0.190025,-0.85,0.121157,0.01,-8.37172,361.25,-670.809,670.831,315.714,-1.26385e-08,1.26387e-08,5.94824e-09,741.411,-741.39,1.97842e-05,1.39685e-08,-1.39683e-08,3.72746e-16
-0.180025,-0.85,0.119145,0.01,-9.74686,361.25,-681.053,681.076,302.039,-1.28315e-08,1.28318e-08,5.6906e-09,745.046,-745.024,1.98385e-05,1.4037e-08,-1.40368e-08,3.73768e-16
-0.170025,-0.85,0.116919,0.01,-11.0539,361.25,-690.9,690.924,287.926,-1.30171e-08,1.30173e-08,5.42469e-09,748.518,-748.494,1.9769e-05,1.41024e-08,-1.41022e-08,3.72459e-16
-0.160025,-0.85,0.115477,0.01,-12.2918,361.25,-700.326,700.352,273.388,-1.31947e-08,1.31949e-08,5.15078e-09,751.821,-751.795,1.95701e-05,1.41646e-08,-1.41644e-08,3.68713e-16
-0.150025,-0.85,0.113212,0.01,-13.4597,361.25,-709.309,709.335,258.441,-1.33639e-08,1.33642e-08,4.86919e-09,754.95,-754.923,1.92378e-05,1.42236e-08,-1.42233e-08,3.62452e-16
-0.140025,-0.85,0.1118,0.01,-14.5567,361.25,-717.826,717.854,243.104,-1.35244e-08,1.35247e-08,4.58022e-09,757.901,-757.873,1.87684e-05,1.42792e-08,-1.42789e-08,3.53607e-16
-0.130025,-0.85,0.110038,0.01,-15.5819,361.25,-725.856,725.885,227.395,-1.36757e-08,1.3676e-08,4.28424e-09,760.67,-760.641,1.81609e-05,1.43313e-08,-1.4331e-08,3.42161e-16
-0.120025,-0.85,0.108611,0.01,-16.5345,361.25,-733.38,733.41,211.333,-1.38174e-08,1.38177e-08,3.98163e-09,763.252,-763.221,1.74155e-05,1.438e-08,-1.43797e-08,3.28117e-16
-0.110025,-0.85,0.107396,0.01,-17.4138,361.25,-740.378,740.409,194.941,-1.39493e-08,1.39496e-08,3.6728e-09,765.642,-765.611,1.6534e-05,1.4425e-08,-1.44247e-08,3.11511e-16
-0.100025,-0.85,0.105953,0.01,-18.2191,361.25,-746.831,746.864,178.241,-1.40709e-08,1.40712e-08,3.35816e-09,767.838,-767.806,1.55199e-05,1.44664e-08,-1.44661e-08,2.92404e-16
-0.0900249,-0.85,0.105285,0.01,-18.9496,361.25,-752.724,752.757,161.257,-1.41819e-08,1.41822e-08,3.03817e-09,769.836,-769.803,1.43783e-05,1.4504e-08,-1.45037e-08,2.70895e-16
-0.0800249,-0.85,0.103827,0.01,-19.605,361.25,-758.04,758.074,144.014,-1.42821e-08,1.42824e-08,2.71331e-09,771.632,-771.598,1.31161e-05,1.45379e-08,-1.45375e-08,2.47114e-16
-0.0700249,-0.85,0.10332,0.01,-20.1845,361.25,-762.765,762.8,126.538,-1.43711e-08,1.43714e-08,2.38405e-09,773.224,-773.19,1.17422e-05,1.45678e-08,-1.45675e-08,2.21229e-16
-0.0600249,-0.85,0.102232,0.01,-20.6877,361.25,-766.887,766.922,108.857,-1.44488e-08,1.44491e-08,2.05092e-09,774.61,-774.574,1.02665e-05,1.45939e-08,-1.45936e-08,1.93427e-16
-0.0500249,-0.85,0.101727,0.01,-21.1142,361.25,-770.394,770.43,90.997,-1.45148e-08,1.45152e-08,1.71444e-09,775.786,-775.75,8.70036e-06,1.46161e-08,-1.46157e-08,1.6392e-16
-0.0400249,-0.85,0.101168,0.01,-21.4637,361.25,-773.277,773.314,72.9878,-1.45692e-08,1.45695e-08,1.37513e-09,776.751,-776.714,7.05729e-06,1.46343e-08,-1.46339e-08,1.32964e-16
-0.0300249,-0.85,0.100664,0.01,-21.7359,361.25,-775.529,775.565,54.8583,-1.46116e-08,1.46119e-08,1.03356e-09,777.503,-777.466,5.35077e-06,1.46484e-08,-1.46481e-08,1.00812e-16
-0.0200249,-0.85,0.100635,0.01,-21.9305,361.25,-777.141,777.178,36.638,-1.4642e-08,1.46423e-08,6.90282e-10,778.041,-778.004,3.59603e-06,1.46586e-08,-1.46582e-08,6.77513e-17
-0.0100249,-0.85,0.100133,0.01,-22.0475,361.25,-778.111,778.149,18.357,-1.46602e-08,1.46606e-08,3.45857e-10,778.365,-778.328,1.80851e-06,1.46647e-08,-1.46643e-08,3.40733e-17
-2.48653e-05,-0.85,0.100627,0.01,-22.0866,361.25,-778.436,778.473,0.0455447,-1.46664e-08,1.46667e-08,8.58089e-13,778.473,-778.436,4.54227e-09,1.46667e-08,-1.46664e-08,8.55791e-20
0.00997513,-0.85,0.100133,0.01,-22.0478,361.25,-778.115,778.152,-18.266,-1.46603e-08,1.46607e-08,-3.44142e-10,778.366,-778.329,-1.79945e-06,1.46647e-08,-1.46643e-08,-3.39027e-17
0.0199751,-0.85,0.10063,0.01,-21.9313,361.25,-777.148,777.185,-36.5472,-1.46421e-08,1.46424e-08,-6.88571e-10,778.044,-778.007,-3.58723e-06,1.46586e-08,-1.46583e-08,-6.75856e-17
0.0299751,-0.85,0.100664,0.01,-21.7371,361.25,-775.538,775.575,-54.7679,-1.46117e-08,1.46121e-08,-1.03186e-09,777.506,-777.47,-5.34207e-06,1.46485e-08,-1.46481e-08,-1.00648e-16
0.0399751,-0.85,0.101163,0.01,-21.4653,361.25,-773.29,773.327,-72.898,-1.45694e-08,1.45698e-08,-1.37344e-09,776.755,-776.719,-7.0488e-06,1.46344e-08,-1.4634e-08,-1.32804e-16
0.0499751,-0.85,0.101727,0.01,-21.1161,361.25,-770.41,770.446,-90.9078,-1.45151e-08,1.45155e-08,-1.71276e-09,775.791,-775.755,-8.69245e-06,1.46162e-08,-1.46158e-08,-1.63771e-16
0.0599751,-0.85,0.102227,0.01,-20.69,361.25,-766.906,766.941,-108.768,-1.44491e-08,1.44495e-08,-2.04926e-09,774.616,-774.581,-1.02589e-05,1.45941e-08,-1.45937e-08,-1.93284e-16
0.0699751,-0.85,0.10332,0.01,-20.1871,361.25,-762.787,762.822,-126.451,-1.43715e-08,1.43719e-08,-2.38241e-09,773.232,-773.197,-1.17351e-05,1.4568e-08,-1.45676e-08,-2.21097e-16
0.0799751,-0.85,0.103822,0.01,-19.608,361.25,-758.065,758.099,-143.928,-1.42825e-08,1.42829e-08,-2.71168e-09,771.641,-771.607,-1.31097e-05,1.4538e-08,-1.45377e-08,-2.46995e-16
0.0899751,-0.85,0.105275,0.01,-18.9531,361.25,-752.752,752.785,-161.172,-1.41824e-08,1.41828e-08,-3.03657e-09,769.845,-769.812,-1.43723e-05,1.45042e-08,-1.45039e-08,-2.70782e-16
0.0999751,-0.85,0.105948,0.01,-18.2229,361.25,-746.862,746.894,-178.157,-1.40715e-08,1.40718e-08,-3.35658e-09,767.849,-767.816,-1.55145e-05,1.44666e-08,-1.44662e-08,-2.92303e-16
0.109975,-0.85,0.107387,0.01,-17.418,361.25,-740.411,740.442,-194.858,-1.39499e-08,1.39502e-08,-3.67125e-09,765.654,-765.622,-1.65299e-05,1.44252e-08,-1.44249e-08,-3.11432e-16
0.119975,-0.85,0.108606,0.01,-16.5391,361.25,-733.416,733.446,-211.252,-1.38181e-08,1.38184e-08,-3.98011e-09,763.264,-763.234,-1.74121e-05,1.43802e-08,-1.43799e-08,-3.28054e-16
0.129975,-0.85,0.110029,0.01,-15.5868,361.25,-725.895,725.924,-227.316,-1.36764e-08,1.36767e-08,-4.28276e-09,760.683,-760.654,-1.81577e-05,1.43316e-08,-1.43313e-08,-3.42102e-16
0.139975,-0.85,0.111795,0.01,-14.562,361.25,-717.867,717.895,-243.027,-1.35251e-08,1.35254e-08,-4.57877e-09,757.916,-757.888,-1.87654e-05,1.42794e-08,-1.42792e-08,-3.53551e-16
0.149975,-0.85,0.113203,0.01,-13.4654,361.25,-709.352,709.379,-258.366,-1.33647e-08,1.3365e-08,-4.86777e-09,754.965,-754.939,-1.92353e-05,1.42239e-08,-1.42236e-08,-3.62404e-16
0.159975,-0.85,0.115464,0.01,-12.2978,361.25,-700.372,700.397,-273.314,-1.31955e-08,1.31958e-08,-5.1494e-09,751.837,-751.811,-1.95687e-05,1.41649e-08,-1.41647e-08,-3.68687e-16
0.169975,-0.85,0.11691,0.01,-11.0602,361.25,-690.948,690.972,-287.854,-1.3018e-08,1.30182e-08,-5.42334e-09,748.535,-748.51,-1.97685e-05,1.41027e-08,-1.41025e-08,-3.72451e-16
0.179975,-0.85,0.119132,0.01,-9.75353,361.25,-681.103,681.126,-301.97,-1.28325e-08,1.28327e-08,-5.68929e-09,745.064,-745.041,-1.98388e-05,1.40373e-08,-1.40371e-08,-3.73775e-16
0.189975,-0.85,0.121148,0.01,-8.37873,361.25,-670.861,670.883,-315.647,-1.26395e-08,1.26397e-08,-5.94698e-09,741.43,-741.408,-1.97851e-05,1.39689e-08,-1.39687e-08,-3.72762e-16
0.199975,-0.85,0.123333,0.01,-6.93685,361.25,-660.245,660.265,-328.873,-1.24395e-08,1.24397e-08,-6.19615e-09,737.637,-737.617,-1.96145e-05,1.38974e-08,-1.38972e-08,-3.69548e-16
0.209975,-0.85,0.125919,0.01,-5.42895,361.25,-649.28,649.298,-341.635,-1.22329e-08,1.22331e-08,-6.4366e-09,733.692,-733.673,-1.9335e-05,1.38231e-08,-1.38229e-08,-3.64282e-16
0.219975,-0.85,0.12807,0.01,-3.85612,361.25,-637.989,638.006,-353.924,-1.20202e-08,1.20203e-08,-6.66813e-09,729.599,-729.582,-1.89544e-05,1.3746e-08,-1.37458e-08,-3.57111e-16
0.229975,-0.85,0.130951,0.01,-2.21949,361.25,-626.397,626.413,-365.731,-1.18018e-08,1.18019e-08,-6.89059e-09,725.365,-725.349,-1.84821e-05,1.36662e-08,-1.36661e-08,-3.48214e-16
0.239975,-0.85,0.13334,0.01,-0.520227,361.25,-614.53,614.544,-377.05,-1.15782e-08,1.15783e-08,-7.10384e-09,720.994,-720.98,-1.79284e-05,1.35839e-08,-1.35837e-08,-3.37781e-16
0.249975,-0.85,0.136164,0.01,1.24049,361.25,-602.411,602.424,-387.875,-1.13498e-08,1.135e-08,-7.30778e-09,716.494,-716.481,-1.73019e-05,1.34991e-08,-1.3499e-08,-3.25978e-16
0.259975,-0.85,0.139145,0.01,3.06144,361.25,-590.066,590.078,-398.201,-1.11172e-08,1.11174e-08,-7.50233e-09,711.869,-711.857,-1.66128e-05,1.3412e-08,-1.34118e-08,-3.12995e-16
0.269975,-0.85,0.141915,0.01,4.94141,361.25,-577.518,577.529,-408.026,-1.08808e-08,1.08809e-08,-7.68744e-09,707.125,-707.115,-1.58721e-05,1.33226e-08,-1.33225e-08,-2.9904e-16
0.279975,-0.85,0.145323,0.01,6.87912,361.25,-564.793,564.801,-417.348,-1.06411e-08,1.06411e-08,-7.86307e-09,702.269,-702.26,-1.50891e-05,1.32311e-08,-1.3231e-08,-2.84287e-16
0.289975,-0.85,0.148204,0.01,8.87331,361.25,-551.912,551.92,-426.167,-1.03984e-08,1.03985e-08,-8.02924e-09,697.306,-697.298,-1.42732e-05,1.31376e-08,-1.31375e-08,-2.68915e-16
0.299975,-0.85,0.151539,0.01,10.9227,361.25,-538.901,538.907,-434.485,-1.01532e-08,1.01533e-08,-8.18595e-09,692.242,-692.235,-1.34348e-05,1.30422e-08,-1.30421e-08,-2.5312e-16
0.309975,-0.85,0.15503,0.01,13.026,361.25,-525.781,525.785,-442.303,-9.90603e-09,9.90608e-09,-8.33324e-09,687.083,-687.078,-1.25817e-05,1.2945e-08,-1.2945e-08,-2.37047e-16
0.319975,-0.85,0.158299,0.01,15.1818,361.25,-512.574,512.578,-449.625,-9.65721e-09,9.65725e-09,-8.4712e-09,681.835,-681.832,-1.17217e-05,1.28462e-08,-1.28461e-08,-2.20843e-16
0.329975,-0.85,0.162119,0.01,17.3889,361.25,-499.303,499.306,-456.456,-9.40717e-09,9.40719e-09,-8.59989e-09,676.504,-676.502,-1.08635e-05,1.27457e-08,-1.27457e-08,-2.04674e-16
0.339975,-0.85,0.165599,0.01,19.6459,361.25,-485.988,485.99,-462.8,-9.1563e-09,9.15632e-09,-8.71942e-09,671.096,-671.095,-1.0013e-05,1.26438e-08,-1.26438e-08,-1.88652e-16
0.349975,-0.85,0.169338,0.01,21.9516,361.25,-472.65,472.65,-468.664,-8.905e-09,8.905e-09,-8.82991e-09,665.616,-665.615,-9.17711e-06,1.25406e-08,-1.25406e-08,-1.72902e-16
0.359975,-0.85,0.17344,0.01,24.3045,361.25,-459.307,459.306,-474.056,-8.65361e-09,8.6536e-09,-8.93149e-09,660.069,-660.07,-8.36182e-06,1.24361e-08,-1.24361e-08,-1.57542e-16
0.369975,-0.85,0.177104,0.01,26.7033,361.25,-445.979,445.977,-478.984,-8.4025e-09,8.40248e-09,-9.02433e-09,654.462,-654.464,-7.57167e-06,1.23305e-08,-1.23305e-08,-1.42655e-16
0.379975,-0.85,0.181246,0.01,29.1467,361.25,-432.684,432.681,-483.455,-8.152e-09,8.15197e-09,-9.10858e-09,648.8,-648.803,-6.81074e-06,1.22238e-08,-1.22238e-08,-1.28318e-16
0.389975,-0.85,0.185415,0.01,31.6334,361.25,-419.438,419.434,-487.481,-7.90244e-09,7.9024e-09,-9.18442e-09,643.088,-643.091,-6.08246e-06,1.21162e-08,-1.21162e-08,-1.14597e-16
0.399975,-0.85,0.189471,0.01,34.1621,361.25,-406.258,406.253,-491.07,-7.65411e-09,7.65407e-09,-9.25204e-09,637.33,-637.335,-5.38979e-06,1.20077e-08,-1.20077e-08,-1.01547e-16
0.409975,-0.85,0.193959,0.01,36.7313,361.25,-393.159,393.153,-494.233,-7.40732e-09,7.40726e-09,-9.31165e-09,631.534,-631.539,-4.73505e-06,1.18985e-08,-1.18985e-08,-8.92111e-17
0.419975,-0.85,0.198247,0.01,39.3399,361.25,-380.155,380.149,-496.983,-7.16232e-09,7.16225e-09,-9.36344e-09,625.702,-625.709,-4.11962e-06,1.17886e-08,-1.17887e-08,-7.7616e-17
0.429975,-0.85,0.202641,0.01,41.9865,361.25,-367.261,367.254,-499.329,-6.91938e-09,6.91931e-09,-9.40764e-09,619.841,-619.848,-3.54427e-06,1.16782e-08,-1.16783e-08,-6.67762e-17
0.439975,-0.85,0.207424,0.01,44.6699,361.25,-354.489,354.481,-501.283,-6.67874e-09,6.67866e-09,-9.44447e-09,613.954,-613.962,-3.01017e-06,1.15673e-08,-1.15674e-08,-5.67133e-17
0.449975,-0.85,0.211879,0.01,47.3886,361.25,-341.85,341.842,-502.859,-6.44062e-09,6.44054e-09,-9.47415e-09,608.047,-608.055,-2.51767e-06,1.1456e-08,-1.14561e-08,-4.74344e-17
0.459975,-0.85,0.216563,0.01,50.1416,361.25,-329.368,329.351,-504.072,-6.2054e-09,6.20523e-09,-9.49702e-09,602.127,-602.143,-0.00299367,1.13445e-08,-1.13447e-08,-5.64025e-14
0.469975,-0.85,0.221601,0.01,52.9275,361.25,-317.241,316.84,-505.28,-5.97526e-09,5.97119e-09,-9.51978e-09,596.308,-596.71,0.168071,1.12365e-08,-1.12406e-08,3.16655e-12
0.479975,-0.85,0.226263,0.01,55.7451,361.25,-306.901,304.804,-507.111,-5.77308e-09,5.7518e-09,-9.55427e-09,591.157,-593.254,-0.00120615,1.11469e-08,-1.11681e-08,-2.27245e-14
0.489975,-0.85,0.231198,0.01,58.5932,361.25,-296.383,293.194,-507.749,-5.57016e-09,5.5378e-09,-9.56628e-09,585.524,-588.713,-0.618934,1.10455e-08,-1.10778e-08,-1.16611e-11
0.499975,-0.85,0.236454,0.01,61.4705,361.25,-285.361,281.605,-509.941,-5.36004e-09,5.32194e-09,-9.60758e-09,581.562,-585.318,0.0111128,1.09733e-08,-1.10114e-08,2.09372e-13
0.509975,-0.85,0.24136,0.01,64.376,361.25,-279.329,267.542,-513.368,-5.21147e-09,5.0919e-09,-9.67216e-09,575.754,-587.541,0.343351,1.08988e-08,-1.10184e-08,6.46894e-12
-0.530025,-0.84,0.243445,0.01,65.5048,352.8,-251.165,248.078,521.745,-4.71868e-09,4.68736e-09,9.82998e-09,576.841,-579.928,0.71207,1.08814e-08,-1.09128e-08,1.34158e-11
-0.520025,-0.84,0.23812,0.01,62.4955,352.8,-266.709,256.277,522.83,-4.97959e-09,4.87376e-09,9.85041e-09,579.359,-589.791,0.951815,1.09608e-08,-1.10667e-08,1.79327e-11
-0.510025,-0.84,0.23278,0.01,59.5119,352.8,-275.251,267.401,522.205,-5.15176e-09,5.07212e-09,9.83864e-09,584.56,-592.411,-0.150699,1.10476e-08,-1.11272e-08,-2.83925e-12
-0.500025,-0.84,0.227753,0.01,56.5551,352.8,-282.664,280.208,519.336,-5.31487e-09,5.28995e-09,9.7846e-09,589.463,-591.919,-0.187398,1.11165e-08,-1.11414e-08,-3.53068e-12
-0.490025,-0.84,0.222681,0.01,53.6265,352.8,-292.931,292.522,518.068,-5.51721e-09,5.51306e-09,9.7607e-09,594.845,-595.253,-0.172738,1.1209e-08,-1.12131e-08,-3.25448e-12
-0.480025,-0.84,0.21755,0.01,50.7271,352.8,-305.052,305.034,517.695,-5.74728e-09,5.74709e-09,9.75368e-09,600.873,-600.891,0.00318327,1.13209e-08,-1.13211e-08,5.99747e-14
-0.470025,-0.84,0.212765,0.01,47.8582,352.8,-317.554,317.544,517.355,-5.98286e-09,5.98275e-09,9.74727e-09,607.031,-607.042,1.54443e-06,1.14369e-08,-1.1437e-08,2.9098e-17
-0.460025,-0.84,0.207909,0.01,45.0211,352.8,-330.244,330.234,516.669,-6.22194e-09,6.22184e-09,9.73434e-09,613.187,-613.197,1.9681e-06,1.15528e-08,-1.15529e-08,3.70801e-17
-0.450025,-0.84,0.203022,0.01,42.2169,352.8,-343.102,343.093,515.618,-6.4642e-09,6.46411e-09,9.71455e-09,619.332,-619.341,2.43569e-06,1.16686e-08,-1.16687e-08,4.58898e-17
-0.440025,-0.84,0.198519,0.01,39.4471,352.8,-356.118,356.11,514.19,-6.70943e-09,6.70935e-09,9.68765e-09,625.463,-625.471,2.9475e-06,1.17841e-08,-1.17842e-08,5.55327e-17
-0.430025,-0.84,0.193836,0.01,36.713,352.8,-369.281,369.273,512.372,-6.95743e-09,6.95735e-09,9.65338e-09,631.574,-631.582,3.50405e-06,1.18993e-08,-1.18993e-08,6.60183e-17
-0.420025,-0.84,0.189235,0.01,34.0157,352.8,-382.578,382.571,510.15,-7.20796e-09,7.20789e-09,9.61152e-09,637.661,-637.668,4.10541e-06,1.20139e-08,-1.2014e-08,7.73482e-17
-0.410025,-0.84,0.185061,0.01,31.3567,352.8,-395.997,395.991,507.511,-7.46078e-09,7.46072e-09,9.56181e-09,643.719,-643.726,4.75229e-06,1.21281e-08,-1.21281e-08,8.95359e-17
-0.400025,-0.84,0.180505,0.01,28.7373,352.8,-409.523,409.518,504.444,-7.71562e-09,7.71557e-09,9.50402e-09,649.744,-649.749,5.44323e-06,1.22416e-08,-1.22416e-08,1.02554e-16
-0.390025,-0.84,0.176239,0.01,26.1589,352.8,-423.141,423.137,500.936,-7.97221e-09,7.97216e-09,9.43793e-09,655.729,-655.734,6.17604e-06,1.23543e-08,-1.23544e-08,1.1636e-16
-0.380025,-0.84,0.172329,0.01,23.6227,352.8,-436.836,436.833,496.976,-8.23024e-09,8.2302e-09,9.36331e-09,661.67,-661.674,6.94948e-06,1.24663e-08,-1.24663e-08,1.30932e-16
-0.370025,-0.84,0.167965,0.01,21.1303,352.8,-450.591,450.589,492.553,-8.48939e-09,8.48937e-09,9.27998e-09,667.561,-667.564,7.76084e-06,1.25772e-08,-1.25773e-08,1.46219e-16
-0.360025,-0.84,0.164094,0.01,18.6829,352.8,-464.388,464.387,487.656,-8.74934e-09,8.74932e-09,9.18772e-09,673.397,-673.398,8.60604e-06,1.26872e-08,-1.26872e-08,1.62143e-16
-0.350025,-0.84,0.16024,0.01,16.2819,352.8,-478.209,478.209,482.276,-9.00973e-09,9.00973e-09,9.08636e-09,679.171,-679.171,9.48069e-06,1.2796e-08,-1.2796e-08,1.78622e-16
-0.340025,-0.84,0.156281,0.01,13.9288,352.8,-492.033,492.034,476.404,-9.2702e-09,9.27021e-09,8.97573e-09,684.879,-684.878,1.03802e-05,1.29035e-08,-1.29035e-08,1.95569e-16
-0.330025,-0.84,0.152875,0.01,11.6249,352.8,-505.842,505.844,470.032,-9.53036e-09,9.53038e-09,8.85568e-09,690.513,-690.511,1.12982e-05,1.30097e-08,-1.30096e-08,2.12864e-16
-0.320025,-0.84,0.149011,0.01,9.37156,352.8,-519.613,519.616,463.153,-9.78982e-09,9.78986e-09,8.72607e-09,696.069,-696.066,1.2228e-05,1.31143e-08,-1.31143e-08,2.30382e-16
-0.310025,-0.84,0.145531,0.01,7.17018,352.8,-533.325,533.329,455.76,-1.00482e-08,1.00482e-08,8.58679e-09,701.54,-701.535,1.31626e-05,1.32174e-08,-1.32174e-08,2.47991e-16
-0.300025,-0.84,0.142286,0.01,5.02213,352.8,-546.954,546.96,447.849,-1.0305e-08,1.0305e-08,8.43774e-09,706.92,-706.914,1.40931e-05,1.33188e-08,-1.33187e-08,2.65521e-16
-0.290025,-0.84,0.138726,0.01,2.92878,352.8,-560.479,560.486,439.416,-1.05598e-08,1.05599e-08,8.27885e-09,712.202,-712.195,1.50111e-05,1.34183e-08,-1.34182e-08,2.82817e-16
-0.280025,-0.84,0.135809,0.01,0.891471,352.8,-573.874,573.883,430.457,-1.08122e-08,1.08123e-08,8.11005e-09,717.381,-717.373,1.5907e-05,1.35158e-08,-1.35158e-08,2.99698e-16
-0.270025,-0.84,0.132459,0.01,-1.08845,352.8,-587.116,587.126,420.971,-1.10616e-08,1.10618e-08,7.93133e-09,722.451,-722.44,1.67705e-05,1.36113e-08,-1.36112e-08,3.15967e-16
-0.260025,-0.84,0.129483,0.01,-3.00966,352.8,-600.179,600.191,410.958,-1.13078e-08,1.13079e-08,7.74268e-09,727.404,-727.392,1.75911e-05,1.37047e-08,-1.37045e-08,3.31427e-16
-0.250025,-0.84,0.126733,0.01,-4.87085,352.8,-613.038,613.051,400.418,-1.155e-08,1.15502e-08,7.54412e-09,732.235,-732.222,1.83574e-05,1.37957e-08,-1.37955e-08,3.45865e-16
-0.240025,-0.84,0.12369,0.01,-6.67074,352.8,-625.666,625.681,389.356,-1.1788e-08,1.17881e-08,7.33568e-09,736.937,-736.922,1.90587e-05,1.38843e-08,-1.38841e-08,3.59077e-16
-0.230025,-0.84,0.121397,0.01,-8.40806,352.8,-638.039,638.056,377.773,-1.20211e-08,1.20213e-08,7.11746e-09,741.505,-741.488,1.96843e-05,1.39703e-08,-1.39701e-08,3.70864e-16
-0.220025,-0.84,0.118434,0.01,-10.0816,352.8,-650.13,650.148,365.676,-1.22489e-08,1.22491e-08,6.88956e-09,745.931,-745.913,2.02231e-05,1.40537e-08,-1.40535e-08,3.81015e-16
-0.210025,-0.84,0.1161,0.01,-11.6901,352.8,-661.913,661.932,353.073,-1.24709e-08,1.24711e-08,6.65209e-09,750.211,-750.191,2.06637e-05,1.41343e-08,-1.41341e-08,3.89316e-16
-0.200025,-0.84,0.113713,0.01,-13.2324,352.8,-673.361,673.382,339.97,-1.26866e-08,1.26868e-08,6.40524e-09,754.337,-754.316,2.09951e-05,1.42121e-08,-1.42118e-08,3.95559e-16
-0.190025,-0.84,0.111334,0.01,-14.7074,352.8,-684.449,684.471,326.38,-1.28955e-08,1.28957e-08,6.14918e-09,758.305,-758.283,2.1209e-05,1.42868e-08,-1.42866e-08,3.9959e-16
-0.180025,-0.84,0.109527,0.01,-16.1139,352.8,-695.151,695.174,312.313,-1.30971e-08,1.30974e-08,5.88415e-09,762.108,-762.084,2.12968e-05,1.43584e-08,-1.43582e-08,4.01244e-16
-0.170025,-0.84,0.107101,0.01,-17.451,352.8,-705.441,705.466,297.783,-1.3291e-08,1.32913e-08,5.6104e-09,765.74,-765.715,2.12498e-05,1.44269e-08,-1.44266e-08,4.00358e-16
-0.160025,-0.84,0.105571,0.01,-18.7175,352.8,-715.295,715.321,282.804,-1.34767e-08,1.3477e-08,5.3282e-09,769.197,-769.171,2.10618e-05,1.4492e-08,-1.44917e-08,3.96817e-16
-0.150025,-0.84,0.103401,0.01,-19.9124,352.8,-724.689,724.716,267.395,-1.36537e-08,1.3654e-08,5.03787e-09,772.473,-772.446,2.07281e-05,1.45537e-08,-1.45534e-08,3.9053e-16
-0.140025,-0.84,0.101852,0.01,-21.0349,352.8,-733.598,733.628,251.572,-1.38215e-08,1.38218e-08,4.73976e-09,775.564,-775.534,2.0244e-05,1.46119e-08,-1.46116e-08,3.81408e-16
-0.130025,-0.84,0.100233,0.01,-22.0841,352.8,-742.002,742.032,235.355,-1.39799e-08,1.39802e-08,4.43422e-09,778.463,-778.433,1.96082e-05,1.46666e-08,-1.46663e-08,3.69431e-16
-0.120025,-0.84,0.0986635,0.01,-23.059,352.8,-749.877,749.908,218.766,-1.41282e-08,1.41286e-08,4.12168e-09,781.167,-781.135,1.88203e-05,1.47175e-08,-1.47172e-08,3.54585e-16
-0.110025,-0.84,0.0975964,0.01,-23.959,352.8,-757.203,757.236,201.827,-1.42663e-08,1.42666e-08,3.80253e-09,783.671,-783.639,1.7883e-05,1.47647e-08,-1.47644e-08,3.36926e-16
-0.100025,-0.84,0.0960063,0.01,-24.7832,352.8,-763.961,763.995,184.562,-1.43936e-08,1.4394e-08,3.47725e-09,785.972,-785.938,1.67988e-05,1.4808e-08,-1.48077e-08,3.16499e-16
-0.0900249,-0.84,0.0954429,0.01,-25.531,352.8,-770.134,770.168,166.996,-1.45099e-08,1.45103e-08,3.1463e-09,788.066,-788.031,1.55745e-05,1.48475e-08,-1.48471e-08,2.93432e-16
-0.0800249,-0.84,0.0938806,0.01,-26.2019,352.8,-775.703,775.738,149.156,-1.46148e-08,1.46152e-08,2.81018e-09,789.948,-789.913,1.42159e-05,1.48829e-08,-1.48826e-08,2.67835e-16
-0.0700249,-0.84,0.0933203,0.01,-26.7951,352.8,-780.654,780.69,131.069,-1.47081e-08,1.47085e-08,2.46942e-09,791.617,-791.58,1.27335e-05,1.49144e-08,-1.4914e-08,2.39907e-16
-0.0600249,-0.84,0.0922865,0.01,-27.3104,352.8,-784.974,785.011,112.764,-1.47895e-08,1.47899e-08,2.12454e-09,793.069,-793.032,1.11389e-05,1.49417e-08,-1.49413e-08,2.09864e-16
-0.0500249,-0.84,0.0917271,0.01,-27.7471,352.8,-788.65,788.687,94.2701,-1.48588e-08,1.48592e-08,1.7761e-09,794.301,-794.264,9.44281e-06,1.49649e-08,-1.49646e-08,1.77908e-16
-0.0400249,-0.84,0.0912234,0.01,-28.1049,352.8,-791.672,791.71,75.6177,-1.49157e-08,1.49161e-08,1.42468e-09,795.313,-795.275,7.66316e-06,1.4984e-08,-1.49836e-08,1.44378e-16
-0.0300249,-0.84,0.0906644,0.01,-28.3836,352.8,-794.032,794.07,56.8376,-1.49602e-08,1.49606e-08,1.07085e-09,796.102,-796.063,5.81005e-06,1.49989e-08,-1.49985e-08,1.09465e-16
-0.0200249,-0.84,0.0906906,0.01,-28.5829,352.8,-795.723,795.761,37.9612,-1.4992e-08,1.49924e-08,7.1521e-10,796.666,-796.628,3.90627e-06,1.50095e-08,-1.50091e-08,7.35963e-17
-0.0100249,-0.84,0.0901329,0.01,-28.7026,352.8,-796.74,796.779,19.0203,-1.50112e-08,1.50116e-08,3.58354e-10,797.006,-796.967,1.96394e-06,1.50159e-08,-1.50155e-08,3.70017e-17
-2.48653e-05,-0.84,0.0906813,0.01,-28.7427,352.8,-797.08,797.119,0.0471907,-1.50176e-08,1.5018e-08,8.89101e-13,797.119,-797.08,4.61913e-09,1.5018e-08,-1.50176e-08,8.7027e-20
0.00997513,-0.84,0.0901329,0.01,-28.703,352.8,-796.743,796.782,-18.926,-1.50113e-08,1.50117e-08,-3.56577e-10,797.007,-796.968,-1.95462e-06,1.50159e-08,-1.50155e-08,-3.68261e-17
0.0199751,-0.84,0.0906851,0.01,-28.5837,352.8,-795.729,795.768,-37.8671,-1.49922e-08,1.49926e-08,-7.13438e-10,796.669,-796.63,-3.89698e-06,1.50095e-08,-1.50091e-08,-7.34213e-17
0.0299751,-0.84,0.0906644,0.01,-28.3848,352.8,-794.042,794.08,-56.7439,-1.49604e-08,1.49608e-08,-1.06909e-09,796.105,-796.067,-5.80057e-06,1.49989e-08,-1.49985e-08,-1.09286e-16
0.0399751,-0.84,0.0912179,0.01,-28.1065,352.8,-791.685,791.723,-75.5246,-1.4916e-08,1.49164e-08,-1.42293e-09,795.318,-795.28,-7.65365e-06,1.49841e-08,-1.49837e-08,-1.44199e-16
0.0499751,-0.84,0.091727,0.01,-27.749,352.8,-788.666,788.704,-94.1777,-1.48591e-08,1.48595e-08,-1.77436e-09,794.307,-794.269,-9.43403e-06,1.4965e-08,-1.49647e-08,-1.77743e-16
0.0599751,-0.84,0.092281,0.01,-27.3127,352.8,-784.994,785.031,-112.672,-1.47899e-08,1.47903e-08,-2.12282e-09,793.075,-793.038,-1.11309e-05,1.49418e-08,-1.49415e-08,-2.09713e-16
0.0699751,-0.84,0.0933202,0.01,-26.7979,352.8,-780.677,780.713,-130.979,-1.47086e-08,1.47089e-08,-2.46771e-09,791.624,-791.588,-1.27261e-05,1.49145e-08,-1.49141e-08,-2.39767e-16
0.0799751,-0.84,0.0938752,0.01,-26.205,352.8,-775.729,775.765,-149.067,-1.46153e-08,1.46157e-08,-2.8085e-09,789.957,-789.921,-1.4209e-05,1.48831e-08,-1.48827e-08,-2.67707e-16
0.0899751,-0.84,0.0954428,0.01,-25.5346,352.8,-770.163,770.197,-166.908,-1.45105e-08,1.45108e-08,-3.14464e-09,788.075,-788.041,-1.55679e-05,1.48476e-08,-1.48473e-08,-2.93308e-16
0.0999751,-0.84,0.0960009,0.01,-24.7871,352.8,-763.994,764.027,-184.475,-1.43942e-08,1.43946e-08,-3.47562e-09,785.983,-785.949,-1.67926e-05,1.48082e-08,-1.48079e-08,-3.16382e-16
0.109975,-0.84,0.0975861,0.01,-23.9632,352.8,-757.238,757.271,-201.742,-1.42669e-08,1.42673e-08,-3.80093e-09,783.683,-783.651,-1.78782e-05,1.47649e-08,-1.47646e-08,-3.36836e-16
0.119975,-0.84,0.0986582,0.01,-23.0637,352.8,-749.915,749.946,-218.682,-1.4129e-08,1.41293e-08,-4.1201e-09,781.18,-781.148,-1.88164e-05,1.47177e-08,-1.47174e-08,-3.54512e-16
0.129975,-0.84,0.100222,0.01,-22.0891,352.8,-742.042,742.072,-235.273,-1.39806e-08,1.39809e-08,-4.43269e-09,778.477,-778.447,-1.96048e-05,1.46668e-08,-1.46665e-08,-3.69366e-16
0.139975,-0.84,0.101847,0.01,-21.0403,352.8,-733.641,733.671,-251.492,-1.38224e-08,1.38227e-08,-4.73825e-09,775.578,-775.549,-2.02408e-05,1.46122e-08,-1.46119e-08,-3.81348e-16
0.149975,-0.84,0.103391,0.01,-19.9182,352.8,-724.734,724.762,-267.317,-1.36545e-08,1.36548e-08,-5.03641e-09,772.489,-772.461,-2.07253e-05,1.4554e-08,-1.45537e-08,-3.90477e-16
0.159975,-0.84,0.105565,0.01,-18.7236,352.8,-715.343,715.369,-282.729,-1.34776e-08,1.34779e-08,-5.32677e-09,769.214,-769.188,-2.10603e-05,1.44923e-08,-1.44921e-08,-3.96788e-16
0.169975,-0.84,0.107091,0.01,-17.4574,352.8,-705.491,705.516,-297.709,-1.3292e-08,1.32922e-08,-5.60901e-09,765.758,-765.733,-2.12493e-05,1.44272e-08,-1.4427e-08,-4.00348e-16
0.179975,-0.84,0.109513,0.01,-16.1208,352.8,-695.203,695.226,-312.242,-1.30981e-08,1.30984e-08,-5.88281e-09,762.126,-762.102,-2.12973e-05,1.43588e-08,-1.43586e-08,-4.01253e-16
0.189975,-0.84,0.111325,0.01,-14.7146,352.8,-684.503,684.525,-326.311,-1.28965e-08,1.28968e-08,-6.14789e-09,758.324,-758.302,-2.12104e-05,1.42872e-08,-1.42869e-08,-3.99616e-16
0.199975,-0.84,0.113699,0.01,-13.2399,352.8,-673.417,673.438,-339.904,-1.26877e-08,1.26879e-08,-6.40399e-09,754.357,-754.337,-2.09964e-05,1.42124e-08,-1.42122e-08,-3.95584e-16
0.209975,-0.84,0.116091,0.01,-11.6979,352.8,-661.971,661.99,-353.009,-1.2472e-08,1.24722e-08,-6.65089e-09,750.232,-750.212,-2.06651e-05,1.41347e-08,-1.41345e-08,-3.89342e-16
0.219975,-0.84,0.11842,0.01,-10.0897,352.8,-650.19,650.207,-365.615,-1.225e-08,1.22502e-08,-6.8884e-09,745.953,-745.935,-2.02255e-05,1.40541e-08,-1.40539e-08,-3.8106e-16
0.229975,-0.84,0.121388,0.01,-8.41654,352.8,-638.1,638.116,-377.714,-1.20222e-08,1.20224e-08,-7.11635e-09,741.527,-741.511,-1.96876e-05,1.39707e-08,-1.39706e-08,-3.70926e-16
0.239975,-0.84,0.123677,0.01,-6.67953,352.8,-625.729,625.743,-389.299,-1.17892e-08,1.17893e-08,-7.33462e-09,736.96,-736.945,-1.90627e-05,1.38847e-08,-1.38845e-08,-3.59153e-16
0.249975,-0.84,0.126717,0.01,-4.87995,352.8,-613.101,613.114,-400.365,-1.15512e-08,1.15514e-08,-7.5431e-09,732.258,-732.245,-1.83614e-05,1.37961e-08,-1.3796e-08,-3.4594e-16
0.259975,-0.84,0.12947,0.01,-3.01906,352.8,-600.243,600.255,-410.907,-1.1309e-08,1.13091e-08,-7.74172e-09,727.428,-727.416,-1.75946e-05,1.37051e-08,-1.3705e-08,-3.31492e-16
0.269975,-0.84,0.132443,0.01,-1.09815,352.8,-587.181,587.192,-420.922,-1.10629e-08,1.1063e-08,-7.93042e-09,722.476,-722.465,-1.67743e-05,1.36118e-08,-1.36117e-08,-3.16038e-16
0.279975,-0.84,0.135796,0.01,0.881482,352.8,-573.94,573.949,-430.411,-1.08134e-08,1.08135e-08,-8.10919e-09,717.407,-717.398,-1.59114e-05,1.35163e-08,-1.35162e-08,-2.9978e-16
0.289975,-0.84,0.138709,0.01,2.9185,352.8,-560.546,560.553,-439.372,-1.0561e-08,1.05611e-08,-8.27803e-09,712.228,-712.221,-1.50156e-05,1.34188e-08,-1.34187e-08,-2.82903e-16
0.299975,-0.84,0.142267,0.01,5.01158,352.8,-547.022,547.028,-447.809,-1.03062e-08,1.03063e-08,-8.43697e-09,706.946,-706.94,-1.40979e-05,1.33193e-08,-1.33192e-08,-2.65614e-16
0.309975,-0.84,0.145515,0.01,7.15936,352.8,-533.393,533.397,-455.722,-1.00494e-08,1.00495e-08,-8.58607e-09,701.567,-701.562,-1.31675e-05,1.32179e-08,-1.32179e-08,-2.48083e-16
0.319975,-0.84,0.148992,0.01,9.36048,352.8,-519.681,519.685,-463.117,-9.79111e-09,9.79114e-09,-8.7254e-09,696.097,-696.093,-1.22327e-05,1.31148e-08,-1.31148e-08,-2.30471e-16
0.329975,-0.84,0.152859,0.01,11.6136,352.8,-505.91,505.913,-469.999,-9.53165e-09,9.53168e-09,-8.85506e-09,690.541,-690.539,-1.13029e-05,1.30102e-08,-1.30102e-08,-2.12953e-16
0.339975,-0.84,0.156263,0.01,13.9172,352.8,-492.102,492.103,-476.374,-9.27149e-09,9.2715e-09,-8.97515e-09,684.907,-684.906,-1.03846e-05,1.2904e-08,-1.2904e-08,-1.95651e-16
0.349975,-0.84,0.160219,0.01,16.2701,352.8,-478.278,478.277,-482.248,-9.01103e-09,9.01102e-09,-9.08583e-09,679.2,-679.2,-9.48472e-06,1.27965e-08,-1.27965e-08,-1.78698e-16
0.359975,-0.84,0.164077,0.01,18.6708,352.8,-464.457,464.456,-487.63,-8.75063e-09,8.75062e-09,-9.18724e-09,673.426,-673.427,-8.60996e-06,1.26877e-08,-1.26877e-08,-1.62217e-16
0.369975,-0.84,0.167944,0.01,21.118,352.8,-450.66,450.657,-492.529,-8.49068e-09,8.49066e-09,-9.27954e-09,667.59,-667.593,-7.76478e-06,1.25778e-08,-1.25778e-08,-1.46293e-16
0.379975,-0.84,0.172307,0.01,23.6102,352.8,-436.905,436.901,-496.955,-8.23152e-09,8.23149e-09,-9.36292e-09,661.7,-661.703,-6.95351e-06,1.24668e-08,-1.24669e-08,-1.31008e-16
0.389975,-0.84,0.176219,0.01,26.1461,352.8,-423.209,423.205,-500.918,-7.97349e-09,7.97344e-09,-9.43758e-09,655.759,-655.763,-6.17983e-06,1.23549e-08,-1.23549e-08,-1.16432e-16
0.399975,-0.84,0.180482,0.01,28.7244,352.8,-409.59,409.585,-504.428,-7.7169e-09,7.71684e-09,-9.50371e-09,649.774,-649.779,-5.44636e-06,1.22421e-08,-1.22422e-08,-1.02613e-16
0.409975,-0.84,0.185041,0.01,31.3436,352.8,-396.064,396.058,-507.497,-7.46204e-09,7.46198e-09,-9.56154e-09,643.75,-643.756,-4.75565e-06,1.21286e-08,-1.21287e-08,-8.95993e-17
0.419975,-0.84,0.189214,0.01,34.0024,352.8,-382.645,382.638,-510.138,-7.20922e-09,7.20914e-09,-9.61129e-09,637.691,-637.698,-4.10895e-06,1.20145e-08,-1.20146e-08,-7.74151e-17
0.429975,-0.84,0.193813,0.01,36.6995,352.8,-369.347,369.339,-512.362,-6.95867e-09,6.95859e-09,-9.6532e-09,631.604,-631.612,-3.50653e-06,1.18998e-08,-1.18999e-08,-6.60651e-17
0.439975,-0.84,0.198497,0.01,39.4335,352.8,-356.183,356.175,-514.182,-6.71066e-09,6.71058e-09,-9.68749e-09,625.493,-625.502,-2.94944e-06,1.17847e-08,-1.17848e-08,-5.55691e-17
0.449975,-0.84,0.202999,0.01,42.2031,352.8,-343.166,343.157,-515.612,-6.46541e-09,6.46532e-09,-9.71443e-09,619.363,-619.372,-2.43785e-06,1.16692e-08,-1.16693e-08,-4.59306e-17
0.459975,-0.84,0.207884,0.01,45.007,352.8,-330.307,330.298,-516.664,-6.22314e-09,6.22304e-09,-9.73425e-09,613.218,-613.227,-1.97063e-06,1.15534e-08,-1.15535e-08,-3.71278e-17
0.469975,-0.84,0.212742,0.01,47.844,352.8,-317.617,317.606,-517.352,-5.98404e-09,5.98393e-09,-9.74722e-09,607.062,-607.072,-1.54695e-06,1.14374e-08,-1.14375e-08,-2.91454e-17
0.479975,-0.84,0.217525,0.01,50.7127,352.8,-305.114,305.096,-517.694,-5.74844e-09,5.74826e-09,-9.75366e-09,600.904,-600.922,-0.00318318,1.13215e-08,-1.13216e-08,-5.9973e-14
0.489975,-0.84,0.222654,0.01,53.612,352.8,-292.992,292.583,-518.069,-5.51836e-09,5.51421e-09,-9.76072e-09,594.875,-595.284,0.172733,1.12096e-08,-1.12137e-08,3.25439e-12
0.499975,-0.84,0.227729,0.01,56.5405,352.8,-282.724,280.268,-519.339,-5.316e-09,5.29108e-09,-9.78464e-09,589.494,-591.95,0.187365,1.11171e-08,-1.1142e-08,3.53006e-12
0.509975,-0.84,0.232754,0.01,59.4971,352.8,-275.311,267.46,-522.209,-5.15288e-09,5.07323e-09,-9.83871e-09,584.591,-592.442,0.150808,1.10482e-08,-1.11278e-08,2.8413e-12
0.519975,-0.84,0.238093,0.01,62.4806,352.8,-266.768,256.335,-522.835,-4.98071e-09,4.87487e-09,-9.85052e-09,579.39,-589.824,-0.952135,1.09614e-08,-1.10673e-08,-1.79388e-11
0.529975,-0.84,0.24342,0.01,65.4897,352.8,-251.224,248.137,-521.751,-4.71978e-09,4.68846e-09,-9.8301e-09,576.872,-579.959,-0.71307,1.0882e-08,-1.09133e-08,-1.34347e-11
-0.540025,-0.83,0.240312,0.01,63.7893,344.45,-241.85,229.429,533.343,-4.50259e-09,4.37658e-09,1.00485e-08,576.867,-589.289,-0.65861,1.09225e-08,-1.10485e-08,-1.24086e-11
-0.530025,-0.83,0.234891,0.01,60.7035,344.45,-247.895,243.803,531.038,-4.65269e-09,4.61118e-09,1.00051e-08,583.14,-587.231,-0.351987,1.10045e-08,-1.1046e-08,-6.63164e-12
-0.520025,-0.83,0.229776,0.01,57.6421,344.45,-258.962,255.796,529.812,-4.86524e-09,4.83311e-09,9.98197e-09,587.437,-590.603,0.487534,1.10814e-08,-1.11135e-08,9.18542e-12
-0.510025,-0.83,0.22429,0.01,54.6063,344.45,-269.792,267.688,530.403,-5.07389e-09,5.05254e-09,9.99309e-09,593.547,-595.651,0.108652,1.11919e-08,-1.12133e-08,2.04707e-12
-0.500025,-0.83,0.219069,0.01,51.5973,344.45,-280.216,279.787,529.953,-5.27757e-09,5.27321e-09,9.98462e-09,599.161,-599.59,-0.18153,1.12904e-08,-1.12948e-08,-3.42013e-12
-0.490025,-0.83,0.214188,0.01,48.6163,344.45,-292.452,292.44,530.082,-5.50992e-09,5.5098e-09,9.98706e-09,605.396,-605.408,6.86805e-07,1.14061e-08,-1.14062e-08,1.29398e-17
-0.480025,-0.83,0.208926,0.01,45.6645,344.45,-305.112,305.1,530.281,-5.74843e-09,5.74832e-09,9.9908e-09,611.785,-611.796,1.03293e-06,1.15264e-08,-1.15265e-08,1.94611e-17
-0.470025,-0.83,0.20394,0.01,42.7432,344.45,-317.972,317.961,530.134,-5.99073e-09,5.99061e-09,9.98804e-09,618.173,-618.184,1.42187e-06,1.16468e-08,-1.16469e-08,2.67889e-17
-0.460025,-0.83,0.19933,0.01,39.8537,344.45,-331.024,331.013,529.628,-6.23663e-09,6.23653e-09,9.9785e-09,624.558,-624.569,1.85684e-06,1.17671e-08,-1.17672e-08,3.49839e-17
-0.450025,-0.83,0.194252,0.01,36.9973,344.45,-344.258,344.248,528.748,-6.48598e-09,6.48588e-09,9.96192e-09,630.935,-630.944,2.33924e-06,1.18872e-08,-1.18873e-08,4.40726e-17
-0.440025,-0.83,0.18954,0.01,34.1754,344.45,-357.664,357.655,527.479,-6.73855e-09,6.73846e-09,9.93802e-09,637.298,-637.307,2.86953e-06,1.20071e-08,-1.20072e-08,5.40636e-17
-0.430025,-0.83,0.185128,0.01,31.3892,344.45,-371.23,371.221,525.808,-6.99415e-09,6.99406e-09,9.90654e-09,643.644,-643.652,3.44867e-06,1.21267e-08,-1.21267e-08,6.4975e-17
-0.420025,-0.83,0.180305,0.01,28.6401,344.45,-384.944,384.936,523.721,-7.25253e-09,7.25245e-09,9.86721e-09,649.967,-649.975,4.07777e-06,1.22458e-08,-1.22459e-08,7.68276e-17
-0.410025,-0.83,0.175919,0.01,25.9296,344.45,-398.792,398.785,521.203,-7.51345e-09,7.51338e-09,9.81977e-09,656.263,-656.27,4.75733e-06,1.23644e-08,-1.23645e-08,8.96309e-17
-0.400025,-0.83,0.171629,0.01,23.2589,344.45,-412.761,412.755,518.242,-7.77662e-09,7.77656e-09,9.76399e-09,662.525,-662.531,5.48567e-06,1.24824e-08,-1.24824e-08,1.03353e-16
-0.390025,-0.83,0.167138,0.01,20.6295,344.45,-426.834,426.829,514.825,-8.04177e-09,8.04172e-09,9.6996e-09,668.75,-668.755,6.2609e-06,1.25997e-08,-1.25997e-08,1.17959e-16
-0.380025,-0.83,0.163136,0.01,18.0428,344.45,-440.995,440.991,510.939,-8.30858e-09,8.30854e-09,9.62638e-09,674.93,-674.934,7.08174e-06,1.27161e-08,-1.27161e-08,1.33424e-16
-0.370025,-0.83,0.158908,0.01,15.5002,344.45,-455.227,455.224,506.572,-8.57673e-09,8.5767e-09,9.54411e-09,681.061,-681.064,7.94565e-06,1.28316e-08,-1.28316e-08,1.49701e-16
-0.360025,-0.83,0.154812,0.01,13.0031,344.45,-469.512,469.51,501.713,-8.84587e-09,8.84585e-09,9.45257e-09,687.136,-687.137,8.84885e-06,1.2946e-08,-1.29461e-08,1.66717e-16
-0.350025,-0.83,0.151234,0.01,10.5529,344.45,-483.83,483.829,496.352,-9.11563e-09,9.11563e-09,9.35155e-09,693.149,-693.15,9.78715e-06,1.30593e-08,-1.30593e-08,1.84396e-16
-0.340025,-0.83,0.147033,0.01,8.15114,344.45,-498.161,498.162,490.478,-9.38565e-09,9.38565e-09,9.24089e-09,699.095,-699.095,1.07549e-05,1.31714e-08,-1.31713e-08,2.02629e-16
-0.330025,-0.83,0.143407,0.01,5.79919,344.45,-512.484,512.486,484.083,-9.6555e-09,9.65552e-09,9.12041e-09,704.967,-704.965,1.17456e-05,1.3282e-08,-1.3282e-08,2.21294e-16
-0.320025,-0.83,0.139802,0.01,3.49849,344.45,-526.777,526.78,477.159,-9.92479e-09,9.92482e-09,8.98995e-09,710.759,-710.756,1.27527e-05,1.33911e-08,-1.33911e-08,2.40268e-16
-0.310025,-0.83,0.136087,0.01,1.25047,344.45,-541.016,541.02,469.699,-1.01931e-08,1.01931e-08,8.8494e-09,716.464,-716.46,1.37681e-05,1.34986e-08,-1.34985e-08,2.59398e-16
-0.300025,-0.83,0.133021,0.01,-0.943457,344.45,-555.178,555.184,461.696,-1.04599e-08,1.046e-08,8.69863e-09,722.076,-722.07,1.47826e-05,1.36043e-08,-1.36042e-08,2.78513e-16
-0.290025,-0.83,0.129308,0.01,-3.08186,344.45,-569.239,569.246,453.147,-1.07248e-08,1.07249e-08,8.53756e-09,727.588,-727.581,1.57872e-05,1.37082e-08,-1.37081e-08,2.9744e-16
-0.280025,-0.83,0.126174,0.01,-5.16334,344.45,-583.173,583.182,444.048,-1.09874e-08,1.09874e-08,8.36612e-09,732.995,-732.986,1.67707e-05,1.381e-08,-1.38099e-08,3.1597e-16
-0.270025,-0.83,0.123072,0.01,-7.18651,344.45,-596.955,596.965,434.396,-1.1247e-08,1.12471e-08,8.18427e-09,738.288,-738.277,1.77226e-05,1.39097e-08,-1.39096e-08,3.33903e-16
-0.260025,-0.83,0.119862,0.01,-9.14998,344.45,-610.558,610.569,424.191,-1.15033e-08,1.15034e-08,7.992e-09,743.461,-743.449,1.86311e-05,1.40072e-08,-1.40071e-08,3.5102e-16
-0.250025,-0.83,0.117379,0.01,-11.0524,344.45,-623.955,623.968,413.434,-1.17557e-08,1.17559e-08,7.78933e-09,748.508,-748.495,1.9484e-05,1.41023e-08,-1.41021e-08,3.67089e-16
-0.240025,-0.83,0.114087,0.01,-12.8924,344.45,-637.118,637.133,402.126,-1.20037e-08,1.20039e-08,7.57628e-09,753.423,-753.408,2.02692e-05,1.41949e-08,-1.41947e-08,3.81883e-16
-0.230025,-0.83,0.111596,0.01,-14.6687,344.45,-650.022,650.038,390.272,-1.22469e-08,1.2247e-08,7.35294e-09,758.198,-758.181,2.09741e-05,1.42848e-08,-1.42846e-08,3.95164e-16
-0.220025,-0.83,0.108849,0.01,-16.38,344.45,-662.637,662.655,377.876,-1.24845e-08,1.24847e-08,7.11941e-09,762.826,-762.808,2.15865e-05,1.4372e-08,-1.43718e-08,4.06702e-16
-0.210025,-0.83,0.106305,0.01,-18.0251,344.45,-674.936,674.956,364.947,-1.27163e-08,1.27165e-08,6.87581e-09,767.303,-767.283,2.20937e-05,1.44563e-08,-1.44561e-08,4.16259e-16
-0.200025,-0.83,0.104148,0.01,-19.6026,344.45,-686.891,686.912,351.492,-1.29415e-08,1.29417e-08,6.62231e-09,771.62,-771.598,2.24842e-05,1.45377e-08,-1.45375e-08,4.23615e-16
-0.190025,-0.83,0.101546,0.01,-21.1115,344.45,-698.475,698.498,337.522,-1.31598e-08,1.316e-08,6.35911e-09,775.772,-775.749,2.27482e-05,1.46159e-08,-1.46157e-08,4.2859e-16
-0.180025,-0.83,0.0998821,0.01,-22.5505,344.45,-709.659,709.684,323.05,-1.33705e-08,1.33707e-08,6.08644e-09,779.752,-779.728,2.28752e-05,1.46909e-08,-1.46906e-08,4.30981e-16
-0.170025,-0.83,0.0973207,0.01,-23.9186,344.45,-720.418,720.444,308.088,-1.35732e-08,1.35735e-08,5.80455e-09,783.556,-783.53,2.28554e-05,1.47625e-08,-1.47623e-08,4.30608e-16
-0.160025,-0.83,0.0956339,0.01,-25.2146,344.45,-730.725,730.752,292.653,-1.37674e-08,1.37677e-08,5.51375e-09,787.176,-787.148,2.26816e-05,1.48307e-08,-1.48304e-08,4.27334e-16
-0.150025,-0.83,0.0936286,0.01,-26.4376,344.45,-740.553,740.582,276.762,-1.39526e-08,1.39529e-08,5.21435e-09,790.607,-790.578,2.23495e-05,1.48954e-08,-1.48951e-08,4.21078e-16
-0.140025,-0.83,0.0919155,0.01,-27.5865,344.45,-749.878,749.908,260.433,-1.41283e-08,1.41286e-08,4.90671e-09,793.844,-793.814,2.18496e-05,1.49564e-08,-1.4956e-08,4.11659e-16
-0.130025,-0.83,0.0904695,0.01,-28.6604,344.45,-758.675,758.707,243.688,-1.4294e-08,1.42943e-08,4.59123e-09,796.882,-796.851,2.11888e-05,1.50136e-08,-1.50133e-08,3.99209e-16
-0.120025,-0.83,0.088728,0.01,-29.6584,344.45,-766.922,766.955,226.549,-1.44494e-08,1.44497e-08,4.26831e-09,799.716,-799.683,2.03525e-05,1.5067e-08,-1.50666e-08,3.83454e-16
-0.110025,-0.83,0.087842,0.01,-30.5798,344.45,-774.597,774.631,209.039,-1.4594e-08,1.45943e-08,3.93842e-09,802.341,-802.307,1.9361e-05,1.51164e-08,-1.51161e-08,3.64772e-16
-0.100025,-0.83,0.0860719,0.01,-31.4237,344.45,-781.678,781.713,191.184,-1.47274e-08,1.47278e-08,3.60201e-09,804.753,-804.718,1.81966e-05,1.51619e-08,-1.51615e-08,3.42835e-16
-0.0900249,-0.83,0.085443,0.01,-32.1895,344.45,-788.146,788.182,173.01,-1.48493e-08,1.48497e-08,3.2596e-09,806.948,-806.911,1.68857e-05,1.52032e-08,-1.52028e-08,3.18137e-16
-0.0800249,-0.83,0.0839474,0.01,-32.8764,344.45,-793.984,794.021,154.545,-1.49593e-08,1.49597e-08,2.91172e-09,808.922,-808.885,1.54231e-05,1.52404e-08,-1.524e-08,2.90581e-16
-0.0700249,-0.83,0.0833203,0.01,-33.4839,344.45,-799.175,799.213,135.818,-1.50571e-08,1.50575e-08,2.5589e-09,810.672,-810.634,1.38173e-05,1.52734e-08,-1.5273e-08,2.60325e-16
-0.0600249,-0.83,0.0823545,0.01,-34.0115,344.45,-803.704,803.743,116.86,-1.51424e-08,1.51428e-08,2.20172e-09,812.194,-812.156,1.21045e-05,1.5302e-08,-1.53016e-08,2.28057e-16
-0.0500249,-0.83,0.0817271,0.01,-34.4588,344.45,-807.559,807.599,97.702,-1.52151e-08,1.52155e-08,1.84076e-09,813.487,-813.448,1.02481e-05,1.53264e-08,-1.5326e-08,1.9308e-16
-0.0400249,-0.83,0.0812922,0.01,-34.8253,344.45,-810.729,810.769,78.3753,-1.52748e-08,1.52752e-08,1.47664e-09,814.548,-814.509,8.34072e-06,1.53464e-08,-1.5346e-08,1.57144e-16
-0.0300249,-0.83,0.0806644,0.01,-35.1107,344.45,-813.204,813.245,58.9131,-1.53214e-08,1.53218e-08,1.10996e-09,815.376,-815.335,6.30347e-06,1.5362e-08,-1.53616e-08,1.18761e-16
-0.0200249,-0.83,0.0807597,0.01,-35.3148,344.45,-814.978,815.019,39.3488,-1.53548e-08,1.53552e-08,7.41353e-10,815.968,-815.927,4.25719e-06,1.53731e-08,-1.53727e-08,8.0208e-17
-0.0100249,-0.83,0.0801329,0.01,-35.4375,344.45,-816.045,816.086,19.716,-1.53749e-08,1.53754e-08,3.71461e-10,816.324,-816.283,2.13023e-06,1.53798e-08,-1.53794e-08,4.01347e-17
-2.48653e-05,-0.83,0.0807492,0.01,-35.4785,344.45,-816.402,816.443,0.0489171,-1.53817e-08,1.53821e-08,9.21626e-13,816.443,-816.402,5.09131e-09,1.53821e-08,-1.53817e-08,9.59233e-20
0.00997513,-0.83,0.0801329,0.01,-35.4379,344.45,-816.049,816.089,-19.6182,-1.5375e-08,1.53754e-08,-3.69619e-10,816.325,-816.284,-2.11984e-06,1.53799e-08,-1.53794e-08,-3.9939e-17
0.0199751,-0.83,0.0807535,0.01,-35.3156,344.45,-814.985,815.026,-39.2513,-1.5355e-08,1.53554e-08,-7.39517e-10,815.97,-815.93,-4.24695e-06,1.53732e-08,-1.53728e-08,-8.00149e-17
0.0299751,-0.83,0.0806644,0.01,-35.1119,344.45,-813.215,813.255,-58.8161,-1.53216e-08,1.5322e-08,-1.10813e-09,815.379,-815.339,-6.29319e-06,1.5362e-08,-1.53616e-08,-1.18567e-16
0.0399751,-0.83,0.0812861,0.01,-34.8269,344.45,-810.743,810.783,-78.2788,-1.5275e-08,1.52754e-08,-1.47482e-09,814.553,-814.513,-8.33063e-06,1.53465e-08,-1.53461e-08,-1.56954e-16
0.0499751,-0.83,0.081727,0.01,-34.4608,344.45,-807.577,807.616,-97.6062,-1.52154e-08,1.52158e-08,-1.83896e-09,813.493,-813.454,-1.02388e-05,1.53265e-08,-1.53261e-08,-1.92906e-16
0.0599751,-0.83,0.0823483,0.01,-34.014,344.45,-803.725,803.764,-116.766,-1.51428e-08,1.51432e-08,-2.19993e-09,812.201,-812.163,-1.20957e-05,1.53022e-08,-1.53018e-08,-2.27891e-16
0.0699751,-0.83,0.0833202,0.01,-33.4867,344.45,-799.199,799.237,-135.725,-1.50575e-08,1.50579e-08,-2.55713e-09,810.68,-810.642,-1.38089e-05,1.52735e-08,-1.52731e-08,-2.60169e-16
0.0799751,-0.83,0.0839414,0.01,-32.8796,344.45,-794.011,794.049,-154.452,-1.49598e-08,1.49602e-08,-2.90997e-09,808.931,-808.894,-1.5415e-05,1.52406e-08,-1.52402e-08,-2.90427e-16
0.0899751,-0.83,0.0854428,0.01,-32.1931,344.45,-788.177,788.213,-172.919,-1.48499e-08,1.48502e-08,-3.25789e-09,806.958,-806.922,-1.68786e-05,1.52034e-08,-1.5203e-08,-3.18003e-16
0.0999751,-0.83,0.0860659,0.01,-31.4277,344.45,-781.712,781.747,-191.094,-1.47281e-08,1.47284e-08,-3.60032e-09,804.764,-804.729,-1.81899e-05,1.51621e-08,-1.51617e-08,-3.42708e-16
0.109975,-0.83,0.0878305,0.01,-30.5842,344.45,-774.633,774.668,-208.951,-1.45947e-08,1.4595e-08,-3.93676e-09,802.354,-802.32,-1.93554e-05,1.51167e-08,-1.51163e-08,-3.64667e-16
0.119975,-0.83,0.0887221,0.01,-29.6632,344.45,-766.962,766.995,-226.463,-1.44502e-08,1.44505e-08,-4.26669e-09,799.73,-799.697,-2.0348e-05,1.50672e-08,-1.50669e-08,-3.83369e-16
0.129975,-0.83,0.0904582,0.01,-28.6655,344.45,-758.718,758.749,-243.604,-1.42948e-08,1.42951e-08,-4.58964e-09,796.897,-796.865,-2.11855e-05,1.50139e-08,-1.50135e-08,-3.99146e-16
0.139975,-0.83,0.0919097,0.01,-27.592,344.45,-749.923,749.953,-260.351,-1.41291e-08,1.41294e-08,-4.90516e-09,793.86,-793.83,-2.1847e-05,1.49567e-08,-1.49563e-08,-4.1161e-16
0.149975,-0.83,0.0936176,0.01,-26.4435,344.45,-740.6,740.629,-276.681,-1.39535e-08,1.39538e-08,-5.21284e-09,790.624,-790.595,-2.23473e-05,1.48957e-08,-1.48954e-08,-4.21035e-16
0.159975,-0.83,0.0956281,0.01,-25.2209,344.45,-730.775,730.802,-292.575,-1.37683e-08,1.37686e-08,-5.51228e-09,787.193,-787.166,-2.26802e-05,1.48311e-08,-1.48308e-08,-4.27308e-16
0.169975,-0.83,0.0973098,0.01,-23.9252,344.45,-720.47,720.497,-308.012,-1.35742e-08,1.35745e-08,-5.80313e-09,783.574,-783.548,-2.28549e-05,1.47629e-08,-1.47626e-08,-4.306e-16
0.179975,-0.83,0.0998763,0.01,-22.5575,344.45,-709.714,709.738,-322.976,-1.33715e-08,1.33718e-08,-6.08506e-09,779.772,-779.747,-2.28753e-05,1.46912e-08,-1.4691e-08,-4.30984e-16
0.189975,-0.83,0.101535,0.01,-21.1188,344.45,-698.531,698.554,-337.451,-1.31608e-08,1.31611e-08,-6.35778e-09,775.792,-775.769,-2.27499e-05,1.46163e-08,-1.4616e-08,-4.28621e-16
0.199975,-0.83,0.104133,0.01,-19.6103,344.45,-686.95,686.971,-351.424,-1.29426e-08,1.29428e-08,-6.62103e-09,771.641,-771.619,-2.24868e-05,1.45381e-08,-1.45379e-08,-4.23664e-16
0.209975,-0.83,0.106294,0.01,-18.0331,344.45,-674.996,675.016,-364.881,-1.27174e-08,1.27176e-08,-6.87457e-09,767.324,-767.305,-2.20959e-05,1.44568e-08,-1.44566e-08,-4.16299e-16
0.219975,-0.83,0.108834,0.01,-16.3884,344.45,-662.699,662.717,-377.813,-1.24857e-08,1.24859e-08,-7.11822e-09,762.849,-762.831,-2.15888e-05,1.43724e-08,-1.43723e-08,-4.06746e-16
0.229975,-0.83,0.111586,0.01,-14.6774,344.45,-650.085,650.102,-390.211,-1.22481e-08,1.22482e-08,-7.35181e-09,758.221,-758.204,-2.09768e-05,1.42853e-08,-1.42851e-08,-3.95215e-16
0.239975,-0.83,0.114072,0.01,-12.9014,344.45,-637.183,637.198,-402.068,-1.2005e-08,1.20051e-08,-7.5752e-09,753.447,-753.432,-2.02724e-05,1.41953e-08,-1.41952e-08,-3.81943e-16
0.249975,-0.83,0.117361,0.01,-11.0617,344.45,-624.021,624.034,-413.379,-1.1757e-08,1.17571e-08,-7.78829e-09,748.533,-748.52,-1.94881e-05,1.41027e-08,-1.41026e-08,-3.67168e-16
0.259975,-0.83,0.119848,0.01,-9.15959,344.45,-610.625,610.637,-424.139,-1.15046e-08,1.15047e-08,-7.99102e-09,743.487,-743.475,-1.86354e-05,1.40077e-08,-1.40075e-08,-3.51102e-16
0.269975,-0.83,0.123054,0.01,-7.19642,344.45,-597.023,597.033,-434.347,-1.12483e-08,1.12484e-08,-8.18334e-09,738.314,-738.303,-1.77272e-05,1.39102e-08,-1.39101e-08,-3.33991e-16
0.279975,-0.83,0.12616,0.01,-5.17355,344.45,-583.242,583.251,-444.001,-1.09887e-08,1.09887e-08,-8.36524e-09,733.021,-733.012,-1.67758e-05,1.38105e-08,-1.38104e-08,-3.16066e-16
0.289975,-0.83,0.12929,0.01,-3.09236,344.45,-569.309,569.316,-453.103,-1.07261e-08,1.07262e-08,-8.53673e-09,727.616,-727.608,-1.57921e-05,1.37087e-08,-1.37086e-08,-2.97533e-16
0.299975,-0.83,0.133007,0.01,-0.95423,344.45,-555.248,555.254,-461.655,-1.04612e-08,1.04613e-08,-8.69785e-09,722.104,-722.098,-1.47878e-05,1.36048e-08,-1.36048e-08,-2.7861e-16
0.309975,-0.83,0.13607,0.01,1.23942,344.45,-541.086,541.091,-469.66,-1.01944e-08,1.01944e-08,-8.84867e-09,716.492,-716.488,-1.37731e-05,1.34991e-08,-1.34991e-08,-2.59493e-16
0.319975,-0.83,0.139782,0.01,3.48718,344.45,-526.847,526.851,-477.123,-9.92612e-09,9.92616e-09,-8.98928e-09,710.787,-710.784,-1.27575e-05,1.33916e-08,-1.33916e-08,-2.40359e-16
0.329975,-0.83,0.14339,0.01,5.78762,344.45,-512.555,512.557,-484.05,-9.65684e-09,9.65686e-09,-9.11978e-09,704.996,-704.994,-1.17507e-05,1.32825e-08,-1.32825e-08,-2.21391e-16
0.339975,-0.83,0.147013,0.01,8.13932,344.45,-498.232,498.233,-490.448,-9.38699e-09,9.38699e-09,-9.24032e-09,699.124,-699.124,-1.07599e-05,1.31719e-08,-1.31719e-08,-2.02722e-16
0.349975,-0.83,0.151212,0.01,10.5408,344.45,-483.901,483.901,-496.324,-9.11698e-09,9.11697e-09,-9.35103e-09,693.179,-693.18,-9.79183e-06,1.30599e-08,-1.30599e-08,-1.84484e-16
0.359975,-0.83,0.154792,0.01,12.9908,344.45,-469.583,469.581,-501.688,-8.84721e-09,8.84719e-09,-9.45209e-09,687.166,-687.168,-8.85373e-06,1.29466e-08,-1.29466e-08,-1.66809e-16
0.369975,-0.83,0.158887,0.01,15.4876,344.45,-455.298,455.295,-506.549,-8.57807e-09,8.57804e-09,-9.54368e-09,681.091,-681.094,-7.9501e-06,1.28322e-08,-1.28322e-08,-1.49784e-16
0.379975,-0.83,0.163117,0.01,18.03,344.45,-441.066,441.061,-510.918,-8.30991e-09,8.30987e-09,-9.626e-09,674.961,-674.965,-7.08566e-06,1.27167e-08,-1.27167e-08,-1.33498e-16
0.389975,-0.83,0.167116,0.01,20.6165,344.45,-426.904,426.899,-514.807,-8.04309e-09,8.04304e-09,-9.69926e-09,668.78,-668.786,-6.26428e-06,1.26002e-08,-1.26003e-08,-1.18023e-16
0.399975,-0.83,0.171606,0.01,23.2457,344.45,-412.83,412.824,-518.226,-7.77794e-09,7.77788e-09,-9.76369e-09,662.556,-662.562,-5.48837e-06,1.2483e-08,-1.2483e-08,-1.03404e-16
0.409975,-0.83,0.175898,0.01,25.9162,344.45,-398.861,398.854,-521.19,-7.51475e-09,7.51468e-09,-9.81952e-09,656.294,-656.301,-4.76034e-06,1.2365e-08,-1.23651e-08,-8.96875e-17
0.419975,-0.83,0.180283,0.01,28.6266,344.45,-385.012,385.005,-523.709,-7.25382e-09,7.25374e-09,-9.86699e-09,649.999,-650.006,-4.08154e-06,1.22464e-08,-1.22465e-08,-7.68985e-17
0.429975,-0.83,0.185103,0.01,31.3754,344.45,-371.298,371.289,-525.799,-6.99543e-09,6.99534e-09,-9.90636e-09,643.675,-643.684,-3.45195e-06,1.21273e-08,-1.21273e-08,-6.50368e-17
0.439975,-0.83,0.189518,0.01,34.1614,344.45,-357.731,357.722,-527.472,-6.73982e-09,6.73972e-09,-9.93788e-09,637.33,-637.339,-2.87186e-06,1.20077e-08,-1.20078e-08,-5.41074e-17
0.449975,-0.83,0.194227,0.01,36.9832,344.45,-344.324,344.314,-528.743,-6.48722e-09,6.48712e-09,-9.96182e-09,630.966,-630.976,-2.34143e-06,1.18878e-08,-1.18879e-08,-4.4114e-17
0.459975,-0.83,0.199308,0.01,39.8394,344.45,-331.089,331.079,-529.625,-6.23787e-09,6.23776e-09,-9.97844e-09,624.59,-624.6,-1.8593e-06,1.17677e-08,-1.17678e-08,-3.50303e-17
0.469975,-0.83,0.203916,0.01,42.7287,344.45,-318.036,318.025,-530.133,-5.99194e-09,5.99183e-09,-9.98801e-09,618.205,-618.216,-1.42431e-06,1.16474e-08,-1.16475e-08,-2.68347e-17
0.479975,-0.83,0.208901,0.01,45.6499,344.45,-305.175,305.164,-530.281,-5.74963e-09,5.74951e-09,-9.9908e-09,611.816,-611.828,-1.0347e-06,1.1527e-08,-1.15271e-08,-1.94943e-17
0.489975,-0.83,0.214164,0.01,48.6015,344.45,-292.515,292.503,-530.084,-5.5111e-09,5.51098e-09,-9.98709e-09,605.428,-605.44,-6.88129e-07,1.14067e-08,-1.14068e-08,-1.29647e-17
0.499975,-0.83,0.219044,0.01,51.5824,344.45,-280.278,279.848,-529.956,-5.27872e-09,5.27437e-09,-9.98469e-09,599.193,-599.622,0.181554,1.1291e-08,-1.12954e-08,3.42059e-12
0.509975,-0.83,0.224263,0.01,54.5913,344.45,-269.852,267.748,-530.408,-5.07503e-09,5.05368e-09,-9.99319e-09,593.579,-595.683,-0.108544,1.11925e-08,-1.12139e-08,-2.04503e-12
0.519975,-0.83,0.229752,0.01,57.627,344.45,-259.022,255.856,-529.819,-4.86636e-09,4.83424e-09,-9.98209e-09,587.469,-590.635,-0.48774,1.1082e-08,-1.11141e-08,-9.18931e-12
0.529975,-0.83,0.234864,0.01,60.6883,344.45,-247.953,243.862,-531.045,-4.6538e-09,4.61229e-09,-1.00052e-08,583.172,-587.263,0.351633,1.10051e-08,-1.10466e-08,6.62497e-12
0.539975,-0.83,0.240284,0.01,63.7739,344.45,-241.909,229.487,-533.352,-4.50369e-09,4.37767e-09,-1.00487e-08,576.899,-589.321,0.658321,1.09231e-08,-1.10491e-08,1.24031e-11
-0.560025,-0.82,0.243056,0.01,65.3626,336.2,-212.016,208.919,539.056,-3.98104e-09,3.94962e-09,1.01561e-08,577.138,-580.235,-0.0975347,1.08871e-08,-1.09185e-08,-1.83761e-12
-0.550025,-0.82,0.237555,0.01,62.1788,336.2,-227.658,217.559,540.986,-4.2453e-09,4.14285e-09,1.01925e-08,579.946,-590.045,0.724371,1.09704e-08,-1.10729e-08,1.36476e-11
-0.540025,-0.82,0.232073,0.01,59.0168,336.2,-236.808,228.837,541.68,-4.42695e-09,4.34608e-09,1.02056e-08,585.611,-593.582,-0.0622596,1.10679e-08,-1.11488e-08,-1.17301e-12
-0.530025,-0.82,0.226454,0.01,55.8779,336.2,-244.328,241.665,540.089,-4.5917e-09,4.56468e-09,1.01756e-08,590.905,-593.567,-0.218702,1.11446e-08,-1.11716e-08,-4.12048e-12
-0.520025,-0.82,0.221145,0.01,52.7633,336.2,-254.541,254.112,540.023,-4.79384e-09,4.78948e-09,1.01743e-08,596.699,-597.129,-0.185682,1.1244e-08,-1.12484e-08,-3.49836e-12
-0.510025,-0.82,0.21593,0.01,49.674,336.2,-266.663,266.642,540.989,-5.024e-09,5.02379e-09,1.01925e-08,603.125,-603.146,0.00341154,1.13633e-08,-1.13635e-08,6.42754e-14
-0.500025,-0.82,0.210502,0.01,46.6115,336.2,-279.202,279.188,542.057,-5.26026e-09,5.26013e-09,1.02127e-08,609.727,-609.74,2.3186e-07,1.14877e-08,-1.14878e-08,4.36838e-18
-0.490025,-0.82,0.205417,0.01,43.5768,336.2,-291.98,291.967,542.806,-5.50101e-09,5.50088e-09,1.02268e-08,616.343,-616.355,5.37681e-07,1.16123e-08,-1.16124e-08,1.01302e-17
-0.480025,-0.82,0.200431,0.01,40.5714,336.2,-304.981,304.969,543.216,-5.74597e-09,5.74584e-09,1.02345e-08,622.965,-622.978,8.87348e-07,1.17371e-08,-1.17372e-08,1.67182e-17
-0.470025,-0.82,0.195227,0.01,37.5964,336.2,-318.198,318.186,543.273,-5.99498e-09,5.99486e-09,1.02356e-08,629.591,-629.603,1.28303e-06,1.18619e-08,-1.1862e-08,2.4173e-17
-0.460025,-0.82,0.190407,0.01,34.6533,336.2,-331.621,331.61,542.962,-6.24789e-09,6.24778e-09,1.02297e-08,636.215,-636.226,1.72829e-06,1.19867e-08,-1.19868e-08,3.2562e-17
-0.450025,-0.82,0.185606,0.01,31.7433,336.2,-345.242,345.231,542.266,-6.50451e-09,6.5044e-09,1.02166e-08,642.833,-642.844,2.22481e-06,1.21114e-08,-1.21115e-08,4.19166e-17
-0.440025,-0.82,0.180669,0.01,28.8679,336.2,-359.049,359.039,541.171,-6.76465e-09,6.76455e-09,1.0196e-08,649.44,-649.45,2.7733e-06,1.22359e-08,-1.2236e-08,5.22506e-17
-0.430025,-0.82,0.176163,0.01,26.0283,336.2,-373.031,373.022,539.661,-7.02808e-09,7.02798e-09,1.01675e-08,656.031,-656.04,3.37513e-06,1.236e-08,-1.23601e-08,6.35894e-17
-0.420025,-0.82,0.171494,0.01,23.2261,336.2,-387.175,387.166,537.722,-7.29456e-09,7.29448e-09,1.0131e-08,662.601,-662.61,4.03174e-06,1.24838e-08,-1.24839e-08,7.59603e-17
-0.410025,-0.82,0.166876,0.01,20.4626,336.2,-401.467,401.46,535.339,-7.56385e-09,7.56377e-09,1.00861e-08,669.145,-669.153,4.74391e-06,1.26071e-08,-1.26072e-08,8.93779e-17
-0.400025,-0.82,0.162742,0.01,17.7392,336.2,-415.893,415.887,532.497,-7.83564e-09,7.83558e-09,1.00326e-08,675.657,-675.664,5.51042e-06,1.27298e-08,-1.27299e-08,1.0382e-16
-0.390025,-0.82,0.158144,0.01,15.0575,336.2,-430.437,430.432,529.183,-8.10967e-09,8.10961e-09,9.97011e-09,682.132,-682.138,6.32979e-06,1.28518e-08,-1.28518e-08,1.19257e-16
-0.380025,-0.82,0.153909,0.01,12.4187,336.2,-445.082,445.078,525.382,-8.38559e-09,8.38554e-09,9.89851e-09,688.563,-688.568,7.20041e-06,1.2973e-08,-1.2973e-08,1.3566e-16
-0.370025,-0.82,0.149971,0.01,9.8245,336.2,-459.81,459.807,521.083,-8.66308e-09,8.66304e-09,9.81751e-09,694.945,-694.949,8.11992e-06,1.30932e-08,-1.30932e-08,1.52984e-16
-0.360025,-0.82,0.145624,0.01,7.27626,336.2,-474.602,474.6,516.273,-8.94177e-09,8.94174e-09,9.72688e-09,701.272,-701.274,9.08468e-06,1.32124e-08,-1.32124e-08,1.71161e-16
-0.350025,-0.82,0.141848,0.01,4.77548,336.2,-489.438,489.437,510.94,-9.22129e-09,9.22128e-09,9.62641e-09,707.536,-707.538,1.00903e-05,1.33304e-08,-1.33304e-08,1.90107e-16
-0.340025,-0.82,0.137889,0.01,2.32364,336.2,-504.297,504.297,505.074,-9.50124e-09,9.50124e-09,9.51588e-09,713.733,-713.733,1.1131e-05,1.34471e-08,-1.34471e-08,2.09715e-16
-0.330025,-0.82,0.134016,0.01,-0.0777645,336.2,-519.156,519.158,498.664,-9.78121e-09,9.78122e-09,9.39511e-09,719.854,-719.853,1.22002e-05,1.35625e-08,-1.35625e-08,2.29858e-16
-0.320025,-0.82,0.130709,0.01,-2.42726,336.2,-533.993,533.996,491.702,-1.00608e-08,1.00608e-08,9.26395e-09,725.894,-725.892,1.32904e-05,1.36763e-08,-1.36762e-08,2.504e-16
-0.310025,-0.82,0.126727,0.01,-4.72335,336.2,-548.784,548.788,484.18,-1.03394e-08,1.03395e-08,9.12222e-09,731.846,-731.842,1.43933e-05,1.37884e-08,-1.37883e-08,2.71179e-16
-0.300025,-0.82,0.12343,0.01,-6.96456,336.2,-563.503,563.509,476.091,-1.06168e-08,1.06168e-08,8.96982e-09,737.703,-737.697,1.54994e-05,1.38987e-08,-1.38987e-08,2.92017e-16
-0.290025,-0.82,0.119984,0.01,-9.14943,336.2,-578.126,578.133,467.429,-1.08923e-08,1.08923e-08,8.80664e-09,743.457,-743.45,1.65983e-05,1.40071e-08,-1.40071e-08,3.12722e-16
-0.280025,-0.82,0.1166,0.01,-11.2765,336.2,-592.625,592.633,458.191,-1.11654e-08,1.11655e-08,8.63259e-09,749.103,-749.094,1.76779e-05,1.41135e-08,-1.41134e-08,3.33062e-16
-0.270025,-0.82,0.113788,0.01,-13.3443,336.2,-606.973,606.983,448.375,-1.14358e-08,1.14359e-08,8.44764e-09,754.632,-754.622,1.87266e-05,1.42177e-08,-1.42176e-08,3.5282e-16
-0.260025,-0.82,0.110309,0.01,-15.3514,336.2,-621.142,621.154,437.977,-1.17027e-08,1.17028e-08,8.25174e-09,760.038,-760.026,1.97323e-05,1.43195e-08,-1.43194e-08,3.71767e-16
-0.250025,-0.82,0.107649,0.01,-17.2963,336.2,-635.104,635.118,426.999,-1.19658e-08,1.19659e-08,8.04491e-09,765.314,-765.3,2.06811e-05,1.44189e-08,-1.44188e-08,3.89644e-16
-0.240025,-0.82,0.104557,0.01,-19.1778,336.2,-648.831,648.846,415.443,-1.22244e-08,1.22246e-08,7.82719e-09,770.452,-770.437,2.15596e-05,1.45157e-08,-1.45155e-08,4.06195e-16
-0.230025,-0.82,0.101834,0.01,-20.9944,336.2,-662.293,662.31,403.312,-1.24781e-08,1.24782e-08,7.59863e-09,775.446,-775.429,2.23534e-05,1.46098e-08,-1.46096e-08,4.21151e-16
-0.220025,-0.82,0.0993453,0.01,-22.7448,336.2,-675.46,675.478,390.611,-1.27261e-08,1.27263e-08,7.35933e-09,780.288,-780.27,2.3049e-05,1.4701e-08,-1.47008e-08,4.34256e-16
-0.210025,-0.82,0.0965516,0.01,-24.4276,336.2,-688.303,688.323,377.347,-1.29681e-08,1.29683e-08,7.10943e-09,784.972,-784.952,2.36318e-05,1.47892e-08,-1.4789e-08,4.45237e-16
-0.200025,-0.82,0.0946733,0.01,-26.0416,336.2,-700.793,700.815,363.529,-1.32034e-08,1.32037e-08,6.8491e-09,789.491,-789.469,2.40902e-05,1.48744e-08,-1.48742e-08,4.53873e-16
-0.190025,-0.82,0.0918034,0.01,-27.5855,336.2,-712.899,712.923,349.168,-1.34315e-08,1.34318e-08,6.57852e-09,793.838,-793.815,2.44125e-05,1.49563e-08,-1.4956e-08,4.59946e-16
-0.180025,-0.82,0.0899593,0.01,-29.0581,336.2,-724.594,724.619,334.276,-1.36519e-08,1.36521e-08,6.29795e-09,798.007,-797.982,2.45824e-05,1.50348e-08,-1.50345e-08,4.63147e-16
-0.170025,-0.82,0.0875898,0.01,-30.4583,336.2,-735.848,735.875,318.867,-1.38639e-08,1.38642e-08,6.00764e-09,801.991,-801.964,2.46015e-05,1.51099e-08,-1.51096e-08,4.63507e-16
-0.160025,-0.82,0.0857118,0.01,-31.7849,336.2,-746.632,746.661,302.958,-1.40671e-08,1.40674e-08,5.7079e-09,805.784,-805.755,2.44346e-05,1.51813e-08,-1.5181e-08,4.60361e-16
-0.150025,-0.82,0.0839105,0.01,-33.0368,336.2,-756.92,756.95,286.566,-1.42609e-08,1.42613e-08,5.39907e-09,809.38,-809.35,2.41274e-05,1.52491e-08,-1.52487e-08,4.54573e-16
-0.140025,-0.82,0.0819946,0.01,-34.213,336.2,-766.685,766.716,269.711,-1.44449e-08,1.44452e-08,5.08152e-09,812.773,-812.741,2.35816e-05,1.5313e-08,-1.53127e-08,4.44292e-16
-0.130025,-0.82,0.0807644,0.01,-35.3126,336.2,-775.9,775.933,252.416,-1.46185e-08,1.46189e-08,4.75566e-09,815.958,-815.925,2.29381e-05,1.5373e-08,-1.53726e-08,4.32167e-16
-0.120025,-0.82,0.0788087,0.01,-36.3346,336.2,-784.541,784.575,234.703,-1.47814e-08,1.47817e-08,4.42194e-09,818.929,-818.895,2.20015e-05,1.54289e-08,-1.54286e-08,4.1452e-16
-0.110025,-0.82,0.0780944,0.01,-37.2781,336.2,-792.584,792.62,216.597,-1.49329e-08,1.49333e-08,4.08081e-09,821.682,-821.646,2.09994e-05,1.54808e-08,-1.54804e-08,3.95641e-16
-0.100025,-0.82,0.0761546,0.01,-38.1424,336.2,-800.007,800.044,198.125,-1.50728e-08,1.50731e-08,3.73278e-09,824.212,-824.175,1.97224e-05,1.55285e-08,-1.55281e-08,3.71582e-16
-0.0900249,-0.82,0.0754432,0.01,-38.9267,336.2,-806.79,806.828,179.315,-1.52006e-08,1.52009e-08,3.37839e-09,826.514,-826.476,1.83009e-05,1.55718e-08,-1.55715e-08,3.44799e-16
-0.0800249,-0.82,0.0740323,0.01,-39.6303,336.2,-812.912,812.951,160.196,-1.53159e-08,1.53163e-08,3.01818e-09,828.585,-828.546,1.68116e-05,1.56109e-08,-1.56105e-08,3.1674e-16
-0.0700249,-0.82,0.0733204,0.01,-40.2526,336.2,-818.357,818.397,140.799,-1.54185e-08,1.54189e-08,2.65274e-09,830.421,-830.381,1.48938e-05,1.56454e-08,-1.5645e-08,2.80608e-16
-0.0600249,-0.82,0.0724411,0.01,-40.7931,336.2,-823.109,823.15,121.157,-1.5508e-08,1.55084e-08,2.28267e-09,832.019,-831.978,1.33295e-05,1.56755e-08,-1.56751e-08,2.51136e-16
-0.0500249,-0.82,0.0717271,0.01,-41.2513,336.2,-827.155,827.196,101.302,-1.55843e-08,1.55847e-08,1.90859e-09,833.376,-833.335,1.09305e-05,1.57011e-08,-1.57007e-08,2.05937e-16
-0.0400249,-0.82,0.0713802,0.01,-41.6267,336.2,-830.481,830.523,81.2686,-1.56469e-08,1.56473e-08,1.53115e-09,834.49,-834.448,9.30715e-06,1.57221e-08,-1.57217e-08,1.75352e-16
-0.0300249,-0.82,0.0706644,0.01,-41.9192,336.2,-833.079,833.121,61.091,-1.56959e-08,1.56963e-08,1.15099e-09,835.358,-835.316,6.63874e-06,1.57384e-08,-1.5738e-08,1.25078e-16
-0.0200249,-0.82,0.0708482,0.01,-42.1283,336.2,-834.94,834.983,40.8048,-1.57309e-08,1.57314e-08,7.68786e-10,835.98,-835.937,4.80603e-06,1.57502e-08,-1.57497e-08,9.05485e-17
-0.0100249,-0.82,0.0701329,0.01,-42.2539,336.2,-836.06,836.103,20.446,-1.5752e-08,1.57525e-08,3.85214e-10,836.353,-836.31,2.22492e-06,1.57572e-08,-1.57568e-08,4.19187e-17
-2.48653e-05,-0.82,0.0708363,0.01,-42.2959,336.2,-836.435,836.478,0.0507286,-1.57591e-08,1.57595e-08,9.55757e-13,836.478,-836.435,4.82289e-09,1.57595e-08,-1.57591e-08,9.0866e-20
0.00997513,-0.82,0.0701329,0.01,-42.2543,336.2,-836.064,836.107,-20.3446,-1.57521e-08,1.57526e-08,-3.83305e-10,836.354,-836.312,-2.21149e-06,1.57572e-08,-1.57568e-08,-4.16657e-17
0.0199751,-0.82,0.0708412,0.01,-42.1291,336.2,-834.948,834.991,-40.7037,-1.57311e-08,1.57315e-08,-7.66882e-10,835.982,-835.939,-4.79552e-06,1.57502e-08,-1.57498e-08,-9.03503e-17
0.0299751,-0.82,0.0706644,0.01,-41.9204,336.2,-833.09,833.132,-60.9903,-1.56961e-08,1.56965e-08,-1.14909e-09,835.362,-835.319,-6.62768e-06,1.57385e-08,-1.57381e-08,-1.24869e-16
0.0399751,-0.82,0.0713732,0.01,-41.6284,336.2,-830.496,830.538,-81.1685,-1.56472e-08,1.56476e-08,-1.52926e-09,834.495,-834.453,-9.29572e-06,1.57222e-08,-1.57218e-08,-1.75137e-16
0.0499751,-0.82,0.0717271,0.01,-41.2533,336.2,-827.173,827.214,-101.203,-1.55846e-08,1.5585e-08,-1.90672e-09,833.382,-833.341,-1.09221e-05,1.57012e-08,-1.57008e-08,-2.05779e-16
0.0599751,-0.82,0.0724342,0.01,-40.7956,336.2,-823.131,823.172,-121.059,-1.55084e-08,1.55089e-08,-2.28082e-09,832.026,-831.986,-1.33177e-05,1.56757e-08,-1.56753e-08,-2.50914e-16
0.0699751,-0.82,0.0733202,0.01,-40.2555,336.2,-818.383,818.423,-140.702,-1.5419e-08,1.54194e-08,-2.65091e-09,830.43,-830.39,-1.48873e-05,1.56456e-08,-1.56452e-08,-2.80485e-16
0.0799751,-0.82,0.0740254,0.01,-39.6336,336.2,-812.941,812.98,-160.1,-1.53165e-08,1.53168e-08,-3.01638e-09,828.595,-828.556,-1.68006e-05,1.5611e-08,-1.56106e-08,-3.16533e-16
0.0899751,-0.82,0.0754429,0.01,-38.9304,336.2,-806.822,806.86,-179.22,-1.52012e-08,1.52015e-08,-3.37661e-09,826.525,-826.487,-1.82955e-05,1.5572e-08,-1.55717e-08,-3.44697e-16
0.0999751,-0.82,0.0761478,0.01,-38.1465,336.2,-800.043,800.079,-198.032,-1.50734e-08,1.50738e-08,-3.73104e-09,824.224,-824.187,-1.97144e-05,1.55287e-08,-1.55283e-08,-3.7143e-16
0.109975,-0.82,0.078094,0.01,-37.2826,336.2,-792.622,792.658,-216.506,-1.49336e-08,1.4934e-08,-4.0791e-09,821.695,-821.659,-2.09947e-05,1.54811e-08,-1.54807e-08,-3.95552e-16
0.119975,-0.82,0.078802,0.01,-36.3395,336.2,-784.582,784.617,-234.614,-1.47821e-08,1.47825e-08,-4.42026e-09,818.943,-818.909,-2.1996e-05,1.54292e-08,-1.54289e-08,-4.14418e-16
0.129975,-0.82,0.0807518,0.01,-35.3179,336.2,-775.944,775.977,-252.329,-1.46194e-08,1.46197e-08,-4.75402e-09,815.973,-815.94,-2.29351e-05,1.53733e-08,-1.53729e-08,-4.3211e-16
0.139975,-0.82,0.081988,0.01,-34.2187,336.2,-766.732,766.764,-269.626,-1.44458e-08,1.44461e-08,-5.07992e-09,812.789,-812.758,-2.35789e-05,1.53133e-08,-1.5313e-08,-4.4424e-16
0.149975,-0.82,0.0838981,0.01,-33.0428,336.2,-756.97,757,-286.483,-1.42619e-08,1.42622e-08,-5.39751e-09,809.397,-809.367,-2.41253e-05,1.52494e-08,-1.52491e-08,-4.54535e-16
0.159975,-0.82,0.0857052,0.01,-31.7913,336.2,-746.685,746.713,-302.877,-1.40681e-08,1.40684e-08,-5.70638e-09,805.802,-805.774,-2.44331e-05,1.51817e-08,-1.51814e-08,-4.60334e-16
0.169975,-0.82,0.0875777,0.01,-30.4651,336.2,-735.903,735.93,-318.789,-1.38649e-08,1.38652e-08,-6.00617e-09,802.01,-801.983,-2.46012e-05,1.51102e-08,-1.51099e-08,-4.63501e-16
0.179975,-0.82,0.0899529,0.01,-29.0653,336.2,-724.651,724.676,-334.2,-1.3653e-08,1.36532e-08,-6.29653e-09,798.027,-798.002,-2.45825e-05,1.50352e-08,-1.50349e-08,-4.63149e-16
0.189975,-0.82,0.0917916,0.01,-27.593,336.2,-712.958,712.982,-349.095,-1.34327e-08,1.34329e-08,-6.57715e-09,793.859,-793.836,-2.44136e-05,1.49567e-08,-1.49564e-08,-4.59967e-16
0.199975,-0.82,0.0946567,0.01,-26.0494,336.2,-700.854,700.876,-363.459,-1.32046e-08,1.32048e-08,-6.84778e-09,789.513,-789.491,-2.40929e-05,1.48748e-08,-1.48746e-08,-4.53923e-16
0.209975,-0.82,0.0965401,0.01,-24.4358,336.2,-688.366,688.386,-377.279,-1.29693e-08,1.29695e-08,-7.10816e-09,784.995,-784.975,-2.36345e-05,1.47897e-08,-1.47895e-08,-4.45287e-16
0.219975,-0.82,0.0993291,0.01,-22.7533,336.2,-675.524,675.543,-390.546,-1.27274e-08,1.27275e-08,-7.35811e-09,780.312,-780.293,-2.30512e-05,1.47014e-08,-1.47013e-08,-4.34299e-16
0.229975,-0.82,0.101823,0.01,-21.0033,336.2,-662.359,662.376,-403.25,-1.24793e-08,1.24795e-08,-7.59746e-09,775.47,-775.453,-2.23562e-05,1.46102e-08,-1.46101e-08,-4.21204e-16
0.239975,-0.82,0.104541,0.01,-19.187,336.2,-648.899,648.914,-415.384,-1.22257e-08,1.22258e-08,-7.82608e-09,770.477,-770.462,-2.15633e-05,1.45162e-08,-1.4516e-08,-4.06265e-16
0.249975,-0.82,0.107638,0.01,-17.3059,336.2,-635.173,635.187,-426.943,-1.19671e-08,1.19672e-08,-8.04386e-09,765.34,-765.326,-2.06858e-05,1.44194e-08,-1.44192e-08,-3.89733e-16
0.259975,-0.82,0.110294,0.01,-15.3612,336.2,-621.212,621.224,-437.924,-1.1704e-08,1.17042e-08,-8.25074e-09,760.065,-760.053,-1.97377e-05,1.432e-08,-1.43199e-08,-3.7187e-16
0.269975,-0.82,0.113769,0.01,-13.3544,336.2,-607.044,607.054,-448.324,-1.14371e-08,1.14372e-08,-8.44669e-09,754.659,-754.649,-1.87323e-05,1.42182e-08,-1.42181e-08,-3.52928e-16
0.279975,-0.82,0.116585,0.01,-11.2869,336.2,-592.696,592.705,-458.144,-1.11668e-08,1.11669e-08,-8.6317e-09,749.131,-749.122,-1.76833e-05,1.4114e-08,-1.41139e-08,-3.33164e-16
0.289975,-0.82,0.119966,0.01,-9.16015,336.2,-578.198,578.205,-467.385,-1.08936e-08,1.08937e-08,-8.8058e-09,743.486,-743.479,-1.66034e-05,1.40077e-08,-1.40076e-08,-3.12817e-16
0.299975,-0.82,0.123415,0.01,-6.97557,336.2,-563.576,563.582,-476.049,-1.06181e-08,1.06182e-08,-8.96904e-09,737.732,-737.726,-1.55048e-05,1.38993e-08,-1.38992e-08,-2.92119e-16
0.309975,-0.82,0.126709,0.01,-4.73463,336.2,-548.857,548.861,-484.141,-1.03408e-08,1.03409e-08,-9.12149e-09,731.876,-731.872,-1.43989e-05,1.37889e-08,-1.37889e-08,-2.71284e-16
0.319975,-0.82,0.130688,0.01,-2.43881,336.2,-534.067,534.07,-491.666,-1.00621e-08,1.00622e-08,-9.26327e-09,725.924,-725.922,-1.32957e-05,1.36768e-08,-1.36768e-08,-2.50499e-16
0.329975,-0.82,0.133999,0.01,-0.0895783,336.2,-519.23,519.231,-498.631,-9.7826e-09,9.78261e-09,-9.39449e-09,719.885,-719.883,-1.22056e-05,1.3563e-08,-1.3563e-08,-2.29961e-16
0.339975,-0.82,0.137869,0.01,2.31157,336.2,-504.371,504.371,-505.043,-9.50264e-09,9.50264e-09,-9.5153e-09,713.763,-713.763,-1.11366e-05,1.34477e-08,-1.34477e-08,-2.0982e-16
0.349975,-0.82,0.141831,0.01,4.76316,336.2,-489.512,489.511,-510.912,-9.22268e-09,9.22267e-09,-9.62588e-09,707.567,-707.569,-1.00956e-05,1.3331e-08,-1.3331e-08,-1.90207e-16
0.359975,-0.82,0.145603,0.01,7.2637,336.2,-474.676,474.673,-516.248,-8.94316e-09,8.94313e-09,-9.72641e-09,701.303,-701.306,-9.09009e-06,1.3213e-08,-1.3213e-08,-1.71263e-16
0.369975,-0.82,0.149948,0.01,9.81171,336.2,-459.884,459.88,-521.061,-8.66446e-09,8.66442e-09,-9.81708e-09,694.977,-694.981,-8.12498e-06,1.30938e-08,-1.30938e-08,-1.53079e-16
0.379975,-0.82,0.153889,0.01,12.4057,336.2,-445.155,445.151,-525.362,-8.38697e-09,8.38692e-09,-9.89813e-09,688.595,-688.6,-7.20492e-06,1.29736e-08,-1.29736e-08,-1.35745e-16
0.389975,-0.82,0.158122,0.01,15.0442,336.2,-430.51,430.504,-529.165,-8.11103e-09,8.11097e-09,-9.96977e-09,682.164,-682.17,-6.33395e-06,1.28524e-08,-1.28525e-08,-1.19335e-16
0.399975,-0.82,0.162723,0.01,17.7258,336.2,-415.966,415.959,-532.482,-7.837e-09,7.83693e-09,-1.00323e-08,675.69,-675.697,-5.51421e-06,1.27304e-08,-1.27305e-08,-1.03891e-16
0.409975,-0.82,0.166854,0.01,20.4489,336.2,-401.539,401.531,-535.326,-7.56519e-09,7.56511e-09,-1.00858e-08,669.178,-669.186,-4.7479e-06,1.26077e-08,-1.26078e-08,-8.94533e-17
0.419975,-0.82,0.171469,0.01,23.2123,336.2,-387.246,387.237,-537.711,-7.2959e-09,7.29581e-09,-1.01308e-08,662.634,-662.643,-4.03636e-06,1.24844e-08,-1.24845e-08,-7.60474e-17
0.429975,-0.82,0.176141,0.01,26.0143,336.2,-373.101,373.092,-539.653,-7.0294e-09,7.0293e-09,-1.01674e-08,656.064,-656.073,-3.37901e-06,1.23607e-08,-1.23608e-08,-6.36625e-17
0.439975,-0.82,0.180646,0.01,28.8537,336.2,-359.118,359.108,-541.165,-6.76595e-09,6.76585e-09,-1.01959e-08,649.473,-649.483,-2.77583e-06,1.22365e-08,-1.22366e-08,-5.22983e-17
0.449975,-0.82,0.185581,0.01,31.7289,336.2,-345.31,345.3,-542.262,-6.5058e-09,6.50569e-09,-1.02165e-08,642.866,-642.876,-2.22681e-06,1.2112e-08,-1.21121e-08,-4.19544e-17
0.459975,-0.82,0.190384,0.01,34.6387,336.2,-331.689,331.677,-542.959,-6.24916e-09,6.24904e-09,-1.02297e-08,636.248,-636.259,-1.73054e-06,1.19873e-08,-1.19874e-08,-3.26044e-17
0.469975,-0.82,0.195203,0.01,37.5817,336.2,-318.264,318.252,-543.273,-5.99623e-09,5.99611e-09,-1.02356e-08,629.624,-629.636,-1.28539e-06,1.18625e-08,-1.18627e-08,-2.42175e-17
0.479975,-0.82,0.200404,0.01,40.5565,336.2,-305.046,305.034,-543.217,-5.74719e-09,5.74707e-09,-1.02345e-08,622.998,-623.011,-8.89308e-07,1.17377e-08,-1.17378e-08,-1.67551e-17
0.489975,-0.82,0.205392,0.01,43.5618,336.2,-292.044,292.031,-542.808,-5.50222e-09,5.50209e-09,-1.02268e-08,616.376,-616.388,-5.39242e-07,1.16129e-08,-1.16131e-08,-1.01596e-17
0.499975,-0.82,0.210475,0.01,46.5963,336.2,-279.265,279.251,-542.061,-5.26145e-09,5.26131e-09,-1.02127e-08,609.76,-609.773,-2.32965e-07,1.14883e-08,-1.14884e-08,-4.3892e-18
0.509975,-0.82,0.215902,0.01,49.6587,336.2,-266.725,266.704,-540.995,-5.02516e-09,5.02495e-09,-1.01927e-08,603.158,-603.179,-0.00341165,1.13639e-08,-1.13641e-08,-6.42775e-14
0.519975,-0.82,0.221119,0.01,52.7478,336.2,-254.602,254.172,-540.03,-4.79498e-09,4.79062e-09,-1.01745e-08,596.732,-597.162,0.185687,1.12446e-08,-1.1249e-08,3.49845e-12
0.529975,-0.82,0.226427,0.01,55.8624,336.2,-244.387,241.725,-540.098,-4.59282e-09,4.56581e-09,-1.01758e-08,590.937,-593.6,0.218696,1.11452e-08,-1.11722e-08,4.12036e-12
0.539975,-0.82,0.232044,0.01,59.0012,336.2,-236.867,228.895,-541.691,-4.42806e-09,4.34718e-09,-1.02058e-08,585.643,-593.615,0.0623725,1.10685e-08,-1.11494e-08,1.17513e-12
0.549975,-0.82,0.237529,0.01,62.163,336.2,-227.717,217.617,-540.998,-4.24641e-09,4.14394e-09,-1.01927e-08,579.979,-590.079,-0.724719,1.0971e-08,-1.10735e-08,-1.36541e-11
0.559975,-0.82,0.243028,0.01,65.3467,336.2,-212.074,208.976,-539.069,-3.98213e-09,3.9507e-09,-1.01564e-08,577.17,-580.268,0.0966203,1.08877e-08,-1.09191e-08,1.82038e-12
-0.570025,-0.81,0.240774,0.01,63.9331,328.05,-202.341,189.481,549.059,-3.7563e-09,3.62584e-09,1.03446e-08,576.534,-589.393,-0.938764,1.09181e-08,-1.10486e-08,-1.76869e-11
-0.560025,-0.81,0.234869,0.01,60.675,328.05,-208.299,203.937,547.918,-3.90551e-09,3.86125e-09,1.03231e-08,583.223,-587.585,-0.668325,1.10072e-08,-1.10515e-08,-1.25916e-11
-0.550025,-0.81,0.229172,0.01,57.4373,328.05,-219.234,216.142,547.684,-4.11705e-09,4.08568e-09,1.03187e-08,587.815,-590.907,0.336559,1.10882e-08,-1.11196e-08,6.34096e-12
-0.540025,-0.81,0.223777,0.01,54.2213,328.05,-230.191,228.121,549.506,-4.32793e-09,4.30693e-09,1.0353e-08,594.338,-596.408,0.205392,1.12067e-08,-1.12277e-08,3.86971e-12
-0.530025,-0.81,0.21815,0.01,51.0281,328.05,-240.566,240.096,550.458,-4.53037e-09,4.5256e-09,1.03709e-08,600.4,-600.871,-0.169827,1.13139e-08,-1.13187e-08,-3.19963e-12
-0.520025,-0.81,0.212633,0.01,47.8589,328.05,-252.691,252.676,551.944,-4.76078e-09,4.76063e-09,1.0399e-08,607.028,-607.042,-4.11906e-07,1.14368e-08,-1.1437e-08,-7.76055e-18
-0.510025,-0.81,0.207453,0.01,44.7151,328.05,-265.305,265.291,553.571,-4.99844e-09,4.99829e-09,1.04296e-08,613.852,-613.867,-1.91775e-07,1.15654e-08,-1.15655e-08,-3.61315e-18
-0.500025,-0.81,0.202066,0.01,41.5977,328.05,-278.171,278.157,554.883,-5.24085e-09,5.24071e-09,1.04543e-08,620.695,-620.709,6.90139e-08,1.16943e-08,-1.16945e-08,1.30026e-18
-0.490025,-0.81,0.196763,0.01,38.5082,328.05,-291.283,291.27,555.867,-5.48789e-09,5.48775e-09,1.04729e-08,627.552,-627.566,3.7422e-07,1.18235e-08,-1.18236e-08,7.05052e-18
-0.480025,-0.81,0.191835,0.01,35.4477,328.05,-304.635,304.621,556.505,-5.73943e-09,5.7393e-09,1.04849e-08,634.419,-634.432,7.26092e-07,1.19529e-08,-1.1953e-08,1.368e-17
-0.470025,-0.81,0.186644,0.01,32.4178,328.05,-318.217,318.204,556.781,-5.99533e-09,5.9952e-09,1.04901e-08,641.292,-641.305,1.12751e-06,1.20824e-08,-1.20825e-08,2.12429e-17
-0.460025,-0.81,0.181596,0.01,29.4197,328.05,-332.022,332.01,556.68,-6.25543e-09,6.25531e-09,1.04882e-08,648.166,-648.178,1.58185e-06,1.22119e-08,-1.2212e-08,2.9803e-17
-0.450025,-0.81,0.17697,0.01,26.4548,328.05,-346.04,346.028,556.184,-6.51953e-09,6.51942e-09,1.04788e-08,655.036,-655.048,2.09131e-06,1.23413e-08,-1.23414e-08,3.94015e-17
-0.440025,-0.81,0.171922,0.01,23.5244,328.05,-360.259,360.249,555.277,-6.78745e-09,6.78734e-09,1.04617e-08,661.898,-661.909,2.65721e-06,1.24706e-08,-1.24707e-08,5.00635e-17
-0.430025,-0.81,0.16718,0.01,20.6302,328.05,-374.67,374.66,553.944,-7.05895e-09,7.05885e-09,1.04366e-08,668.745,-668.756,3.28168e-06,1.25996e-08,-1.25997e-08,6.18287e-17
-0.420025,-0.81,0.162819,0.01,17.7733,328.05,-389.258,389.248,552.168,-7.3338e-09,7.3337e-09,1.04032e-08,675.574,-675.584,3.96601e-06,1.27283e-08,-1.27283e-08,7.4722e-17
-0.410025,-0.81,0.157948,0.01,14.9555,328.05,-404.009,404,549.933,-7.61172e-09,7.61164e-09,1.03611e-08,682.378,-682.387,4.71107e-06,1.28564e-08,-1.28565e-08,8.87592e-17
-0.400025,-0.81,0.153574,0.01,12.178,328.05,-418.908,418.901,547.224,-7.89244e-09,7.89237e-09,1.031e-08,689.152,-689.159,5.51676e-06,1.29841e-08,-1.29841e-08,1.03939e-16
-0.390025,-0.81,0.149279,0.01,9.44236,328.05,-433.94,433.934,544.026,-8.17565e-09,8.17559e-09,1.02498e-08,695.889,-695.895,6.38162e-06,1.3111e-08,-1.3111e-08,1.20233e-16
-0.380025,-0.81,0.144785,0.01,6.75016,328.05,-449.087,449.081,540.325,-8.46103e-09,8.46097e-09,1.018e-08,702.583,-702.589,7.30415e-06,1.32371e-08,-1.32372e-08,1.37614e-16
-0.370025,-0.81,0.140858,0.01,4.10287,328.05,-464.329,464.325,536.106,-8.74821e-09,8.74817e-09,1.01005e-08,709.229,-709.234,8.28194e-06,1.33623e-08,-1.33624e-08,1.56037e-16
-0.360025,-0.81,0.13655,0.01,1.50201,328.05,-479.648,479.645,531.356,-9.03684e-09,9.03681e-09,1.00111e-08,715.82,-715.823,9.31186e-06,1.34865e-08,-1.34865e-08,1.75441e-16
-0.350025,-0.81,0.132516,0.01,-1.05089,328.05,-495.023,495.021,526.062,-9.32651e-09,9.32649e-09,9.91131e-09,722.348,-722.35,1.0389e-05,1.36095e-08,-1.36095e-08,1.95734e-16
-0.340025,-0.81,0.128873,0.01,-3.55428,328.05,-510.432,510.431,520.213,-9.61682e-09,9.61682e-09,9.80111e-09,728.808,-728.808,1.15069e-05,1.37312e-08,-1.37312e-08,2.16797e-16
-0.330025,-0.81,0.124721,0.01,-6.00663,328.05,-525.851,525.851,513.797,-9.90734e-09,9.90734e-09,9.68023e-09,735.192,-735.191,1.266e-05,1.38514e-08,-1.38514e-08,2.38521e-16
-0.320025,-0.81,0.121252,0.01,-8.4064,328.05,-541.256,541.259,506.805,-1.01976e-08,1.01976e-08,9.54849e-09,741.493,-741.491,1.38402e-05,1.39702e-08,-1.39701e-08,2.60757e-16
-0.310025,-0.81,0.117474,0.01,-10.752,328.05,-556.623,556.627,499.227,-1.04871e-08,1.04872e-08,9.40573e-09,747.705,-747.701,1.50377e-05,1.40872e-08,-1.40871e-08,2.83319e-16
-0.300025,-0.81,0.113908,0.01,-13.042,328.05,-571.926,571.931,491.057,-1.07754e-08,1.07755e-08,9.2518e-09,753.819,-753.814,1.6243e-05,1.42024e-08,-1.42023e-08,3.06027e-16
-0.290025,-0.81,0.110779,0.01,-15.2748,328.05,-587.136,587.143,482.288,-1.1062e-08,1.10621e-08,9.08658e-09,759.829,-759.822,1.74446e-05,1.43156e-08,-1.43155e-08,3.28666e-16
-0.280025,-0.81,0.107104,0.01,-17.4489,328.05,-602.227,602.235,472.915,-1.13463e-08,1.13464e-08,8.90999e-09,765.726,-765.718,1.86297e-05,1.44267e-08,-1.44266e-08,3.50994e-16
-0.270025,-0.81,0.104263,0.01,-19.5627,328.05,-617.169,617.179,462.934,-1.16279e-08,1.1628e-08,8.72194e-09,771.505,-771.494,1.97856e-05,1.45356e-08,-1.45354e-08,3.72771e-16
-0.260025,-0.81,0.100842,0.01,-21.6149,328.05,-631.933,631.945,452.344,-1.1906e-08,1.19062e-08,8.52242e-09,777.156,-777.144,2.08985e-05,1.4642e-08,-1.46419e-08,3.9374e-16
-0.250025,-0.81,0.0979258,0.01,-23.6038,328.05,-646.49,646.504,441.144,-1.21803e-08,1.21804e-08,8.3114e-09,782.673,-782.659,2.19532e-05,1.4746e-08,-1.47458e-08,4.13611e-16
-0.240025,-0.81,0.0951241,0.01,-25.5281,328.05,-660.809,660.824,429.335,-1.24501e-08,1.24502e-08,8.08892e-09,788.048,-788.032,2.29353e-05,1.48472e-08,-1.48471e-08,4.32114e-16
-0.230025,-0.81,0.0921225,0.01,-27.3863,328.05,-674.858,674.875,416.922,-1.27148e-08,1.2715e-08,7.85505e-09,793.273,-793.256,2.38277e-05,1.49456e-08,-1.49455e-08,4.48929e-16
-0.220025,-0.81,0.0899498,0.01,-29.177,328.05,-688.607,688.626,403.908,-1.29738e-08,1.2974e-08,7.60986e-09,798.341,-798.322,2.46172e-05,1.50411e-08,-1.50409e-08,4.63803e-16
-0.210025,-0.81,0.0868544,0.01,-30.8989,328.05,-702.023,702.044,390.301,-1.32266e-08,1.32268e-08,7.3535e-09,803.245,-803.225,2.52891e-05,1.51335e-08,-1.51333e-08,4.76462e-16
-0.200025,-0.81,0.0848317,0.01,-32.5506,328.05,-715.077,715.1,376.11,-1.34726e-08,1.34728e-08,7.08612e-09,807.978,-807.955,2.58148e-05,1.52227e-08,-1.52224e-08,4.86365e-16
-0.190025,-0.81,0.0821225,0.01,-34.1308,328.05,-727.736,727.761,361.345,-1.37111e-08,1.37113e-08,6.80794e-09,812.532,-812.507,2.62299e-05,1.53085e-08,-1.53082e-08,4.94187e-16
-0.180025,-0.81,0.0800558,0.01,-35.6382,328.05,-739.97,739.996,346.019,-1.39416e-08,1.39418e-08,6.51919e-09,816.899,-816.873,2.63929e-05,1.53907e-08,-1.53905e-08,4.97258e-16
-0.170025,-0.81,0.077927,0.01,-37.0716,328.05,-751.747,751.775,330.147,-1.41635e-08,1.41637e-08,6.22015e-09,821.075,-821.047,2.65683e-05,1.54694e-08,-1.54691e-08,5.00562e-16
-0.160025,-0.81,0.07581,0.01,-38.4298,328.05,-763.037,763.067,313.745,-1.43762e-08,1.43765e-08,5.91114e-09,825.051,-825.021,2.62257e-05,1.55443e-08,-1.5544e-08,4.94107e-16
-0.150025,-0.81,0.0742672,0.01,-39.7117,328.05,-773.812,773.843,296.833,-1.45792e-08,1.45795e-08,5.59251e-09,828.821,-828.79,2.62289e-05,1.56153e-08,-1.5615e-08,4.94167e-16
-0.140025,-0.81,0.0720955,0.01,-40.9163,328.05,-784.041,784.074,279.431,-1.47719e-08,1.47723e-08,5.26464e-09,832.38,-832.347,2.52711e-05,1.56824e-08,-1.5682e-08,4.76122e-16
-0.130025,-0.81,0.0711411,0.01,-42.0424,328.05,-793.699,793.733,261.562,-1.49539e-08,1.49542e-08,4.92797e-09,835.72,-835.686,2.50449e-05,1.57453e-08,-1.5745e-08,4.71861e-16
-0.120025,-0.81,0.0689128,0.01,-43.0892,328.05,-802.757,802.793,243.25,-1.51246e-08,1.51249e-08,4.58296e-09,838.838,-838.802,2.37048e-05,1.5804e-08,-1.58037e-08,4.46613e-16
-0.110025,-0.81,0.0680947,0.01,-44.0557,328.05,-811.191,811.229,224.521,-1.52835e-08,1.52839e-08,4.23011e-09,841.726,-841.689,2.2665e-05,1.58584e-08,-1.58581e-08,4.27021e-16
-0.100025,-0.81,0.0662622,0.01,-44.9411,328.05,-818.978,819.016,205.404,-1.54302e-08,1.54306e-08,3.86993e-09,844.381,-844.342,2.19361e-05,1.59085e-08,-1.59081e-08,4.13289e-16
-0.0900249,-0.81,0.0654433,0.01,-45.7446,328.05,-826.093,826.133,185.928,-1.55643e-08,1.55647e-08,3.50299e-09,846.798,-846.758,1.87072e-05,1.5954e-08,-1.59536e-08,3.52454e-16
-0.0800249,-0.81,0.0641434,0.01,-46.4655,328.05,-832.518,832.559,166.125,-1.56853e-08,1.56857e-08,3.12989e-09,848.972,-848.931,2.02591e-05,1.59949e-08,-1.59945e-08,3.81694e-16
-0.0700249,-0.81,0.0633204,0.01,-47.1031,328.05,-838.233,838.275,146.026,-1.5793e-08,1.57934e-08,2.75122e-09,850.899,-850.857,1.33026e-05,1.60313e-08,-1.60308e-08,2.50628e-16
-0.0600249,-0.81,0.0625554,0.01,-47.657,328.05,-843.222,843.265,125.667,-1.5887e-08,1.58874e-08,2.36763e-09,852.577,-852.534,1.82438e-05,1.60629e-08,-1.60624e-08,3.43723e-16
-0.0500249,-0.81,0.0617272,0.01,-48.1265,328.05,-847.469,847.512,105.081,-1.5967e-08,1.59674e-08,1.97979e-09,854.002,-853.959,7.56219e-06,1.60897e-08,-1.60893e-08,1.42476e-16
-0.0400249,-0.81,0.0614968,0.01,-48.5112,328.05,-850.962,851.006,84.3059,-1.60328e-08,1.60332e-08,1.58837e-09,855.172,-855.128,1.46369e-05,1.61117e-08,-1.61113e-08,2.75768e-16
-0.0300249,-0.81,0.0606644,0.01,-48.8109,328.05,-853.69,853.734,63.3774,-1.60842e-08,1.60847e-08,1.19407e-09,856.083,-856.039,3.11929e-06,1.61289e-08,-1.61285e-08,5.87693e-17
-0.0200249,-0.81,0.0609656,0.01,-49.0252,328.05,-855.645,855.69,42.3336,-1.6121e-08,1.61215e-08,7.97589e-10,856.736,-856.692,8.38238e-06,1.61412e-08,-1.61408e-08,1.57929e-16
-0.0100249,-0.81,0.0601329,0.01,-49.154,328.05,-856.821,856.866,21.2125,-1.61432e-08,1.61437e-08,3.99656e-10,857.129,-857.084,7.23261e-07,1.61486e-08,-1.61481e-08,1.36267e-17
-2.48653e-05,-0.81,0.0609518,0.01,-49.1971,328.05,-857.215,857.26,0.0526308,-1.61506e-08,1.61511e-08,9.91594e-13,857.26,-857.215,-8.12463e-09,1.61511e-08,-1.61506e-08,-1.53073e-19
0.00997513,-0.81,0.0601329,0.01,-49.1544,328.05,-856.825,856.87,-21.1073,-1.61433e-08,1.61437e-08,-3.97674e-10,857.13,-857.085,-6.85351e-07,1.61486e-08,-1.61482e-08,-1.29124e-17
0.0199751,-0.81,0.0609575,0.01,-49.0261,328.05,-855.653,855.698,-42.2287,-1.61212e-08,1.61216e-08,-7.95613e-10,856.739,-856.694,-8.3853e-06,1.61413e-08,-1.61408e-08,-1.57984e-16
0.0299751,-0.81,0.0606644,0.01,-48.8122,328.05,-853.701,853.746,-63.273,-1.60844e-08,1.60849e-08,-1.1921e-09,856.087,-856.043,-3.10527e-06,1.6129e-08,-1.61285e-08,-5.8505e-17
0.0399751,-0.81,0.0614886,0.01,-48.5129,328.05,-850.977,851.021,-84.2021,-1.60331e-08,1.60335e-08,-1.58642e-09,855.177,-855.133,-1.46132e-05,1.61118e-08,-1.61114e-08,-2.75321e-16
0.0499751,-0.81,0.0617271,0.01,-48.1286,328.05,-847.488,847.531,-104.978,-1.59674e-08,1.59678e-08,-1.97785e-09,854.008,-853.965,-7.57691e-06,1.60898e-08,-1.60894e-08,-1.42753e-16
0.0599751,-0.81,0.0625473,0.01,-47.6595,328.05,-843.245,843.287,-125.565,-1.58874e-08,1.58878e-08,-2.36572e-09,852.585,-852.542,-1.81982e-05,1.6063e-08,-1.60626e-08,-3.42864e-16
0.0699751,-0.81,0.0633202,0.01,-47.1061,328.05,-838.26,838.302,-145.926,-1.57935e-08,1.57939e-08,-2.74932e-09,850.908,-850.866,-1.33323e-05,1.60314e-08,-1.6031e-08,-2.51189e-16
0.0799751,-0.81,0.0641355,0.01,-46.4689,328.05,-832.549,832.589,-166.025,-1.56859e-08,1.56863e-08,-3.12802e-09,848.982,-848.941,-2.02108e-05,1.59951e-08,-1.59947e-08,-3.80783e-16
0.0899751,-0.81,0.065443,0.01,-45.7484,328.05,-826.127,826.167,-185.83,-1.55649e-08,1.55653e-08,-3.50115e-09,846.809,-846.769,-1.87348e-05,1.59542e-08,-1.59538e-08,-3.52975e-16
0.0999751,-0.81,0.0662544,0.01,-44.9453,328.05,-819.015,819.053,-205.308,-1.54309e-08,1.54313e-08,-3.86812e-09,844.394,-844.355,-2.19006e-05,1.59087e-08,-1.59083e-08,-4.12621e-16
0.109975,-0.81,0.0680943,0.01,-44.0603,328.05,-811.232,811.269,-224.427,-1.52842e-08,1.52846e-08,-4.22833e-09,841.74,-841.703,-2.26804e-05,1.58587e-08,-1.58583e-08,-4.27312e-16
0.119975,-0.81,0.0689052,0.01,-43.0942,328.05,-802.801,802.837,-243.157,-1.51254e-08,1.51258e-08,-4.58123e-09,838.852,-838.817,-2.3684e-05,1.58043e-08,-1.58039e-08,-4.46221e-16
0.129975,-0.81,0.0711267,0.01,-42.0478,328.05,-793.745,793.78,-261.472,-1.49548e-08,1.49551e-08,-4.92628e-09,835.736,-835.702,-2.50502e-05,1.57456e-08,-1.57453e-08,-4.7196e-16
0.139975,-0.81,0.072088,0.01,-40.9221,328.05,-784.091,784.124,-279.343,-1.47729e-08,1.47732e-08,-5.26299e-09,832.397,-832.364,-2.52623e-05,1.56827e-08,-1.56824e-08,-4.75956e-16
0.149975,-0.81,0.0742532,0.01,-39.7179,328.05,-773.864,773.895,-296.748,-1.45802e-08,1.45805e-08,-5.5909e-09,828.839,-828.808,-2.62298e-05,1.56157e-08,-1.56154e-08,-4.94184e-16
0.159975,-0.81,0.0758027,0.01,-38.4364,328.05,-763.092,763.122,-313.662,-1.43772e-08,1.43775e-08,-5.90958e-09,825.07,-825.04,-2.62234e-05,1.55447e-08,-1.55444e-08,-4.94065e-16
0.169975,-0.81,0.0779135,0.01,-37.0785,328.05,-751.804,751.832,-330.066,-1.41645e-08,1.41648e-08,-6.21864e-09,821.095,-821.067,-2.65688e-05,1.54698e-08,-1.54695e-08,-5.00572e-16
0.179975,-0.81,0.0800485,0.01,-35.6455,328.05,-740.029,740.056,-345.941,-1.39427e-08,1.3943e-08,-6.51773e-09,816.921,-816.894,-2.63933e-05,1.53911e-08,-1.53909e-08,-4.97265e-16
0.189975,-0.81,0.0821094,0.01,-34.1384,328.05,-727.798,727.823,-361.27,-1.37122e-08,1.37125e-08,-6.80653e-09,812.554,-812.529,-2.62305e-05,1.53089e-08,-1.53086e-08,-4.94198e-16
0.199975,-0.81,0.0848244,0.01,-32.5586,328.05,-715.141,715.164,-376.038,-1.34738e-08,1.3474e-08,-7.08477e-09,808.001,-807.978,-2.5817e-05,1.52231e-08,-1.52229e-08,-4.86407e-16
0.209975,-0.81,0.0868416,0.01,-30.9073,328.05,-702.089,702.11,-390.232,-1.32279e-08,1.32281e-08,-7.3522e-09,803.269,-803.249,-2.52921e-05,1.5134e-08,-1.51338e-08,-4.76517e-16
0.219975,-0.81,0.0899319,0.01,-29.1858,328.05,-688.674,688.693,-403.842,-1.29751e-08,1.29753e-08,-7.60861e-09,798.366,-798.347,-2.46206e-05,1.50416e-08,-1.50414e-08,-4.63866e-16
0.229975,-0.81,0.09211,0.01,-27.3954,328.05,-674.927,674.944,-416.858,-1.27161e-08,1.27163e-08,-7.85386e-09,793.299,-793.281,-2.38322e-05,1.49461e-08,-1.4946e-08,-4.49012e-16
0.239975,-0.81,0.0951068,0.01,-25.5375,328.05,-660.879,660.895,-429.275,-1.24514e-08,1.24516e-08,-8.08779e-09,788.074,-788.059,-2.29402e-05,1.48477e-08,-1.48475e-08,-4.32207e-16
0.249975,-0.81,0.0979136,0.01,-23.6135,328.05,-646.562,646.576,-441.086,-1.21817e-08,1.21818e-08,-8.31032e-09,782.7,-782.686,-2.19583e-05,1.47465e-08,-1.47463e-08,-4.13706e-16
0.259975,-0.81,0.100826,0.01,-21.6249,328.05,-632.006,632.018,-452.289,-1.19074e-08,1.19075e-08,-8.52139e-09,777.184,-777.172,-2.09041e-05,1.46425e-08,-1.46424e-08,-3.93846e-16
0.269975,-0.81,0.104251,0.01,-19.5731,328.05,-617.243,617.253,-462.883,-1.16293e-08,1.16294e-08,-8.72098e-09,771.533,-771.523,-1.97918e-05,1.45361e-08,-1.4536e-08,-3.72889e-16
0.279975,-0.81,0.107088,0.01,-17.4595,328.05,-602.301,602.31,-472.866,-1.13477e-08,1.13478e-08,-8.90908e-09,765.755,-765.747,-1.86358e-05,1.44272e-08,-1.44272e-08,-3.5111e-16
0.289975,-0.81,0.110759,0.01,-15.2858,328.05,-587.211,587.218,-482.243,-1.10634e-08,1.10635e-08,-9.08573e-09,759.858,-759.851,-1.74502e-05,1.43161e-08,-1.43161e-08,-3.28773e-16
0.299975,-0.81,0.113893,0.01,-13.0533,328.05,-572.001,572.007,-491.015,-1.07769e-08,1.07769e-08,-9.25101e-09,753.849,-753.844,-1.62488e-05,1.42029e-08,-1.42029e-08,-3.06137e-16
0.309975,-0.81,0.117454,0.01,-10.7636,328.05,-556.7,556.703,-499.188,-1.04886e-08,1.04886e-08,-9.40499e-09,747.735,-747.732,-1.50437e-05,1.40877e-08,-1.40877e-08,-2.83432e-16
0.319975,-0.81,0.121237,0.01,-8.4182,328.05,-541.333,541.335,-506.768,-1.0199e-08,1.01991e-08,-9.54781e-09,741.524,-741.522,-1.38458e-05,1.39707e-08,-1.39707e-08,-2.60863e-16
0.329975,-0.81,0.124702,0.01,-6.0187,328.05,-525.927,525.928,-513.763,-9.90878e-09,9.90879e-09,-9.6796e-09,735.223,-735.223,-1.2666e-05,1.3852e-08,-1.3852e-08,-2.38634e-16
0.339975,-0.81,0.128851,0.01,-3.56661,328.05,-510.508,510.508,-520.182,-9.61827e-09,9.61826e-09,-9.80053e-09,728.84,-728.84,-1.15129e-05,1.37318e-08,-1.37318e-08,-2.16909e-16
0.349975,-0.81,0.132498,0.01,-1.06346,328.05,-495.1,495.098,-526.034,-9.32796e-09,9.32794e-09,-9.91079e-09,722.38,-722.382,-1.0394e-05,1.36101e-08,-1.36101e-08,-1.9583e-16
0.359975,-0.81,0.136528,0.01,1.48919,328.05,-479.725,479.722,-531.331,-9.03828e-09,9.03825e-09,-1.00106e-08,715.852,-715.855,-9.31701e-06,1.34871e-08,-1.34871e-08,-1.75538e-16
0.369975,-0.81,0.14084,0.01,4.08982,328.05,-464.405,464.401,-536.084,-8.74965e-09,8.7496e-09,-1.01001e-08,709.262,-709.267,-8.28715e-06,1.33629e-08,-1.3363e-08,-1.56135e-16
0.379975,-0.81,0.144764,0.01,6.73688,328.05,-449.162,449.157,-540.305,-8.46245e-09,8.4624e-09,-1.01797e-08,702.617,-702.622,-7.30895e-06,1.32377e-08,-1.32378e-08,-1.37705e-16
0.389975,-0.81,0.149255,0.01,9.42887,328.05,-434.015,434.009,-544.009,-8.17707e-09,8.177e-09,-1.02494e-08,695.922,-695.929,-6.38623e-06,1.31116e-08,-1.31117e-08,-1.2032e-16
0.399975,-0.81,0.153554,0.01,12.1643,328.05,-418.983,418.975,-547.21,-7.89385e-09,7.89377e-09,-1.03097e-08,689.185,-689.193,-5.52103e-06,1.29847e-08,-1.29848e-08,-1.04019e-16
0.409975,-0.81,0.157925,0.01,14.9415,328.05,-404.082,404.074,-549.921,-7.61311e-09,7.61302e-09,-1.03608e-08,682.412,-682.42,-4.71544e-06,1.28571e-08,-1.28572e-08,-8.88416e-17
0.419975,-0.81,0.162794,0.01,17.7592,328.05,-389.33,389.321,-552.158,-7.33517e-09,7.33508e-09,-1.0403e-08,675.608,-675.618,-3.97029e-06,1.27289e-08,-1.2729e-08,-7.48025e-17
0.429975,-0.81,0.167158,0.01,20.6159,328.05,-374.742,374.732,-553.936,-7.06031e-09,7.06021e-09,-1.04365e-08,668.78,-668.79,-3.28534e-06,1.26002e-08,-1.26003e-08,-6.18976e-17
0.439975,-0.81,0.171898,0.01,23.51,328.05,-360.331,360.32,-555.272,-6.78879e-09,6.78868e-09,-1.04616e-08,661.932,-661.943,-2.66007e-06,1.24712e-08,-1.24713e-08,-5.01172e-17
0.449975,-0.81,0.176948,0.01,26.4401,328.05,-346.11,346.098,-556.18,-6.52086e-09,6.52074e-09,-1.04788e-08,655.07,-655.082,-2.09347e-06,1.2342e-08,-1.23421e-08,-3.94422e-17
0.459975,-0.81,0.181572,0.01,29.4049,328.05,-332.091,332.079,-556.678,-6.25673e-09,6.25661e-09,-1.04881e-08,648.2,-648.212,-1.58405e-06,1.22125e-08,-1.22126e-08,-2.98445e-17
0.469975,-0.81,0.186618,0.01,32.4028,328.05,-318.285,318.272,-556.782,-5.99662e-09,5.99649e-09,-1.04901e-08,641.326,-641.339,-1.12982e-06,1.2083e-08,-1.20831e-08,-2.12865e-17
0.479975,-0.81,0.191812,0.01,35.4326,328.05,-304.702,304.688,-556.507,-5.7407e-09,5.74056e-09,-1.04849e-08,634.453,-634.467,-7.28258e-07,1.19535e-08,-1.19537e-08,-1.37208e-17
0.489975,-0.81,0.196738,0.01,38.4929,328.05,-291.349,291.336,-555.871,-5.48913e-09,5.48899e-09,-1.04729e-08,627.586,-627.6,-3.7611e-07,1.18241e-08,-1.18243e-08,-7.08614e-18
0.499975,-0.81,0.202038,0.01,41.5823,328.05,-278.236,278.222,-554.889,-5.24207e-09,5.24192e-09,-1.04544e-08,620.729,-620.743,-7.04191e-08,1.1695e-08,-1.16951e-08,-1.32674e-18
0.509975,-0.81,0.207428,0.01,44.6995,328.05,-265.369,265.354,-553.578,-4.99964e-09,4.99949e-09,-1.04297e-08,613.886,-613.901,1.90437e-07,1.1566e-08,-1.15662e-08,3.58794e-18
0.519975,-0.81,0.212607,0.01,47.8432,328.05,-252.753,252.738,-551.953,-4.76195e-09,4.7618e-09,-1.03991e-08,607.061,-607.076,4.10194e-07,1.14375e-08,-1.14376e-08,7.72829e-18
0.529975,-0.81,0.218121,0.01,51.0123,328.05,-240.627,240.157,-550.468,-4.53151e-09,4.52674e-09,-1.03711e-08,600.434,-600.904,0.16986,1.13146e-08,-1.13193e-08,3.20025e-12
0.539975,-0.81,0.223751,0.01,54.2054,328.05,-230.25,228.181,-549.518,-4.32905e-09,4.30805e-09,-1.03532e-08,594.372,-596.442,-0.205303,1.12073e-08,-1.12283e-08,-3.86803e-12
0.549975,-0.81,0.229144,0.01,57.4213,328.05,-219.293,216.201,-547.697,-4.11816e-09,4.08679e-09,-1.03189e-08,587.848,-590.941,-0.336769,1.10888e-08,-1.11202e-08,-6.34493e-12
0.559975,-0.81,0.23484,0.01,60.6588,328.05,-208.357,203.994,-547.932,-3.90659e-09,3.86234e-09,-1.03234e-08,583.257,-587.619,0.668039,1.10079e-08,-1.10521e-08,1.25862e-11
0.569975,-0.81,0.240747,0.01,63.9169,328.05,-202.398,189.537,-549.075,-3.75738e-09,3.62691e-09,-1.03449e-08,576.567,-589.427,0.938548,1.09188e-08,-1.10492e-08,1.76828e-11
-0.590025,-0.8,0.244261,0.01,65.9613,320,-171.255,168.198,552.013,-3.21326e-09,3.18225e-09,1.04002e-08,575.987,-579.044,-0.898079,1.08652e-08,-1.08962e-08,-1.69203e-11
-0.580025,-0.8,0.238215,0.01,62.6116,320,-186.744,177.141,554.756,-3.47661e-09,3.37918e-09,1.04519e-08,579.028,-588.631,0.452503,1.0951e-08,-1.10484e-08,8.52541e-12
-0.570025,-0.8,0.232443,0.01,59.2797,320,-196.354,188.39,556.759,-3.66479e-09,3.584e-09,1.04897e-08,585.074,-593.038,0.0330195,1.10578e-08,-1.11386e-08,6.22106e-13
-0.560025,-0.8,0.226827,0.01,55.9669,320,-203.857,201.03,556.474,-3.82849e-09,3.79981e-09,1.04843e-08,590.741,-593.568,-0.231134,1.11422e-08,-1.11709e-08,-4.35469e-12
-0.550025,-0.8,0.220923,0.01,52.6742,320,-213.848,213.405,557.617,-4.0271e-09,4.0226e-09,1.05058e-08,596.915,-597.359,-0.191564,1.12482e-08,-1.12527e-08,-3.60919e-12
-0.540025,-0.8,0.215321,0.01,49.4029,320,-225.769,225.746,559.917,-4.25351e-09,4.25329e-09,1.05492e-08,603.705,-603.728,0.00347872,1.13743e-08,-1.13745e-08,6.5541e-14
-0.530025,-0.8,0.209993,0.01,46.1542,320,-238.133,238.117,562.39,-4.48649e-09,4.48633e-09,1.05958e-08,610.718,-610.734,-7.50352e-07,1.15063e-08,-1.15065e-08,-1.41371e-17
-0.520025,-0.8,0.204257,0.01,42.9294,320,-250.782,250.767,564.581,-4.72482e-09,4.72466e-09,1.0637e-08,617.762,-617.778,-5.76049e-07,1.16391e-08,-1.16392e-08,-1.08531e-17
-0.510025,-0.8,0.198858,0.01,39.7296,320,-263.705,263.689,566.47,-4.96829e-09,4.96813e-09,1.06726e-08,624.831,-624.847,-3.62812e-07,1.17723e-08,-1.17724e-08,-6.83559e-18
-0.500025,-0.8,0.193779,0.01,36.5561,320,-276.895,276.88,568.039,-5.2168e-09,5.21665e-09,1.07022e-08,631.923,-631.938,-1.06743e-07,1.19059e-08,-1.1906e-08,-2.0111e-18
-0.490025,-0.8,0.188243,0.01,33.4104,320,-290.348,290.333,569.274,-5.47026e-09,5.47011e-09,1.07254e-08,639.031,-639.046,1.96091e-07,1.20398e-08,-1.20399e-08,3.69447e-18
-0.480025,-0.8,0.183086,0.01,30.2937,320,-304.057,304.042,570.156,-5.72854e-09,5.7284e-09,1.07421e-08,646.153,-646.168,5.48543e-07,1.2174e-08,-1.21741e-08,1.03349e-17
-0.470025,-0.8,0.178209,0.01,27.2074,320,-318.013,317.999,570.667,-5.99149e-09,5.99135e-09,1.07517e-08,653.284,-653.298,9.53768e-07,1.23083e-08,-1.23085e-08,1.79695e-17
-0.460025,-0.8,0.172915,0.01,24.1529,320,-332.209,332.196,570.792,-6.25895e-09,6.25882e-09,1.07541e-08,660.419,-660.432,1.41578e-06,1.24427e-08,-1.24429e-08,2.6674e-17
-0.450025,-0.8,0.16805,0.01,21.1316,320,-346.635,346.622,570.512,-6.53074e-09,6.53062e-09,1.07488e-08,667.553,-667.565,1.9371e-06,1.25771e-08,-1.25773e-08,3.64961e-17
-0.440025,-0.8,0.163319,0.01,18.145,320,-361.279,361.267,569.81,-6.80666e-09,6.80654e-09,1.07356e-08,674.681,-674.693,2.5196e-06,1.27114e-08,-1.27115e-08,4.74708e-17
-0.430025,-0.8,0.158319,0.01,15.1945,320,-376.131,376.12,568.669,-7.08647e-09,7.08636e-09,1.07141e-08,681.797,-681.808,3.16601e-06,1.28455e-08,-1.28456e-08,5.96495e-17
-0.420025,-0.8,0.153808,0.01,12.2817,320,-391.176,391.166,567.072,-7.36994e-09,7.36984e-09,1.0684e-08,688.896,-688.907,3.87781e-06,1.29793e-08,-1.29794e-08,7.30602e-17
-0.410025,-0.8,0.149156,0.01,9.40791,320,-406.402,406.392,565.001,-7.6568e-09,7.6567e-09,1.06449e-08,695.973,-695.982,4.65619e-06,1.31126e-08,-1.31127e-08,8.77254e-17
-0.400025,-0.8,0.144516,0.01,6.57481,320,-421.791,421.782,562.441,-7.94675e-09,7.94666e-09,1.05967e-08,703.02,-703.029,5.50172e-06,1.32453e-08,-1.32454e-08,1.03656e-16
-0.390025,-0.8,0.140437,0.01,3.78388,320,-437.328,437.32,559.374,-8.23948e-09,8.2394e-09,1.05389e-08,710.033,-710.04,6.41327e-06,1.33775e-08,-1.33775e-08,1.2083e-16
-0.380025,-0.8,0.135784,0.01,1.03669,320,-452.994,452.988,555.785,-8.53465e-09,8.53459e-09,1.04713e-08,717.003,-717.01,7.3895e-06,1.35088e-08,-1.35089e-08,1.39223e-16
-0.370025,-0.8,0.131589,0.01,-1.6652,320,-468.772,468.766,551.66,-8.83191e-09,8.83185e-09,1.03936e-08,723.926,-723.931,8.42819e-06,1.36392e-08,-1.36393e-08,1.58792e-16
-0.360025,-0.8,0.127614,0.01,-4.32021,320,-484.639,484.635,546.982,-9.13086e-09,9.13082e-09,1.03055e-08,730.794,-730.798,9.52661e-06,1.37686e-08,-1.37686e-08,1.79487e-16
-0.350025,-0.8,0.123289,0.01,-6.92676,320,-500.574,500.572,541.74,-9.4311e-09,9.43107e-09,1.02067e-08,737.6,-737.602,1.06794e-05,1.38968e-08,-1.38968e-08,2.01205e-16
-0.340025,-0.8,0.119645,0.01,-9.48325,320,-516.556,516.554,535.918,-9.7322e-09,9.73219e-09,1.0097e-08,744.336,-744.338,1.188e-05,1.40237e-08,-1.40237e-08,2.23827e-16
-0.330025,-0.8,0.115543,0.01,-11.9881,320,-532.559,532.559,529.506,-1.00337e-08,1.00337e-08,9.97621e-09,750.997,-750.996,1.31229e-05,1.41492e-08,-1.41492e-08,2.47243e-16
-0.320025,-0.8,0.11179,0.01,-14.4397,320,-548.558,548.56,522.493,-1.03352e-08,1.03352e-08,9.84407e-09,757.573,-757.571,1.43996e-05,1.42731e-08,-1.42731e-08,2.71296e-16
-0.310025,-0.8,0.108353,0.01,-16.8364,320,-564.527,564.53,514.868,-1.0636e-08,1.06361e-08,9.70041e-09,764.058,-764.055,1.56997e-05,1.43953e-08,-1.43952e-08,2.95792e-16
-0.300025,-0.8,0.104477,0.01,-19.1767,320,-580.439,580.444,506.623,-1.09358e-08,1.09359e-08,9.54507e-09,770.444,-770.439,1.70127e-05,1.45156e-08,-1.45155e-08,3.2053e-16
-0.290025,-0.8,0.101442,0.01,-21.4589,320,-596.266,596.272,497.751,-1.1234e-08,1.12341e-08,9.37791e-09,776.722,-776.716,1.83262e-05,1.46339e-08,-1.46338e-08,3.45276e-16
-0.280025,-0.8,0.0977091,0.01,-23.6815,320,-611.977,611.985,488.246,-1.153e-08,1.15301e-08,9.19883e-09,782.886,-782.878,1.9627e-05,1.475e-08,-1.47499e-08,3.69784e-16
-0.270025,-0.8,0.0945856,0.01,-25.8429,320,-627.543,627.553,478.103,-1.18233e-08,1.18234e-08,9.00774e-09,788.928,-788.918,2.09006e-05,1.48638e-08,-1.48637e-08,3.93779e-16
-0.260025,-0.8,0.0914896,0.01,-27.9416,320,-642.933,642.945,467.32,-1.21133e-08,1.21134e-08,8.80458e-09,794.838,-794.826,2.21331e-05,1.49752e-08,-1.4975e-08,4.17e-16
-0.250025,-0.8,0.0882644,0.01,-29.9759,320,-658.114,658.128,455.897,-1.23993e-08,1.23995e-08,8.58936e-09,800.61,-800.596,2.33042e-05,1.50839e-08,-1.50838e-08,4.39065e-16
-0.240025,-0.8,0.0858197,0.01,-31.9445,320,-673.055,673.071,443.833,-1.26808e-08,1.2681e-08,8.36207e-09,806.235,-806.219,2.44003e-05,1.51899e-08,-1.51897e-08,4.59715e-16
-0.230025,-0.8,0.0824802,0.01,-33.8457,320,-687.723,687.741,431.132,-1.29572e-08,1.29574e-08,8.12278e-09,811.705,-811.687,2.54132e-05,1.52929e-08,-1.52927e-08,4.788e-16
-0.220025,-0.8,0.0802555,0.01,-35.6782,320,-702.085,702.105,417.799,-1.32278e-08,1.3228e-08,7.87158e-09,817.012,-816.993,2.62718e-05,1.53929e-08,-1.53927e-08,4.94976e-16
-0.210025,-0.8,0.0772345,0.01,-37.4405,320,-716.107,716.129,403.84,-1.3492e-08,1.34922e-08,7.60858e-09,822.149,-822.128,2.71452e-05,1.54897e-08,-1.54895e-08,5.11432e-16
-0.200025,-0.8,0.0749526,0.01,-39.1311,320,-729.756,729.78,389.264,-1.37491e-08,1.37494e-08,7.33397e-09,827.108,-827.084,2.75127e-05,1.55831e-08,-1.55829e-08,5.18355e-16
-0.190025,-0.8,0.0725283,0.01,-40.7488,320,-742.999,743.024,374.083,-1.39986e-08,1.39989e-08,7.04793e-09,831.88,-831.855,2.85107e-05,1.5673e-08,-1.56727e-08,5.37158e-16
-0.180025,-0.8,0.0701797,0.01,-42.2922,320,-755.802,755.829,358.308,-1.42399e-08,1.42401e-08,6.75073e-09,836.459,-836.432,2.78118e-05,1.57593e-08,-1.5759e-08,5.23991e-16
-0.170025,-0.8,0.0683614,0.01,-43.76,320,-768.132,768.161,341.956,-1.44722e-08,1.44725e-08,6.44265e-09,840.837,-840.808,2.952e-05,1.58417e-08,-1.58414e-08,5.56174e-16
-0.160025,-0.8,0.065938,0.01,-45.151,320,-779.958,779.989,325.044,-1.4695e-08,1.46953e-08,6.12401e-09,845.008,-844.977,2.71462e-05,1.59203e-08,-1.592e-08,5.11451e-16
-0.150025,-0.8,0.0647322,0.01,-46.464,320,-791.248,791.28,307.59,-1.49077e-08,1.4908e-08,5.79518e-09,848.963,-848.93,2.94682e-05,1.59948e-08,-1.59945e-08,5.55197e-16
-0.140025,-0.8,0.0622286,0.01,-47.6979,320,-801.97,802.005,289.618,-1.51097e-08,1.51101e-08,5.45657e-09,852.697,-852.663,2.69415e-05,1.60652e-08,-1.60648e-08,5.07593e-16
-0.130025,-0.8,0.0612743,0.01,-48.8516,320,-812.097,812.133,271.151,-1.53005e-08,1.53009e-08,5.10863e-09,856.203,-856.167,2.54745e-05,1.61312e-08,-1.61308e-08,4.79954e-16
-0.120025,-0.8,0.0590519,0.01,-49.9241,320,-821.598,821.636,252.213,-1.54795e-08,1.54799e-08,4.75184e-09,859.475,-859.438,3.14734e-05,1.61929e-08,-1.61925e-08,5.92977e-16
-0.110025,-0.8,0.0580952,0.01,-50.9144,320,-830.447,830.486,232.834,-1.56463e-08,1.56467e-08,4.38673e-09,862.508,-862.469,1.18912e-05,1.625e-08,-1.62496e-08,2.24038e-16
-0.100025,-0.8,0.0564078,0.01,-51.8217,320,-838.619,838.659,213.042,-1.58002e-08,1.58006e-08,4.01384e-09,865.296,-865.256,4.67651e-05,1.63025e-08,-1.63021e-08,8.81082e-16
-0.0900249,-0.8,0.0554435,0.01,-52.6451,320,-846.088,846.13,192.87,-1.5941e-08,1.59414e-08,3.63377e-09,867.834,-867.792,-1.60461e-05,1.63503e-08,-1.63499e-08,-3.02317e-16
-0.0800249,-0.8,0.0542953,0.01,-53.384,320,-852.835,852.877,172.349,-1.60681e-08,1.60685e-08,3.24715e-09,870.118,-870.075,7.41645e-05,1.63933e-08,-1.63929e-08,1.3973e-15
-0.0700249,-0.8,0.0533205,0.01,-54.0375,320,-858.836,858.88,151.514,-1.61812e-08,1.61816e-08,2.85462e-09,872.142,-872.098,-5.37918e-05,1.64315e-08,-1.6431e-08,-1.01347e-15
-0.0600249,-0.8,0.0527128,0.01,-54.6052,320,-864.077,864.121,130.403,-1.62799e-08,1.62803e-08,2.45686e-09,873.905,-873.861,0.000101992,1.64647e-08,-1.64642e-08,1.92159e-15
-0.0500249,-0.8,0.0517272,0.01,-55.0864,320,-868.537,868.583,109.05,-1.63639e-08,1.63644e-08,2.05457e-09,875.402,-875.356,-8.22797e-05,1.64929e-08,-1.64924e-08,-1.5502e-15
-0.0400249,-0.8,0.0516581,0.01,-55.4809,320,-872.208,872.254,87.4962,-1.64331e-08,1.64336e-08,1.64848e-09,876.632,-876.586,0.000106639,1.6516e-08,-1.65156e-08,2.00914e-15
-0.0300249,-0.8,0.0506645,0.01,-55.7881,320,-875.073,875.12,65.7794,-1.64871e-08,1.64876e-08,1.23932e-09,877.589,-877.542,-7.73707e-05,1.65341e-08,-1.65336e-08,-1.45771e-15
-0.0200249,-0.8,0.0511288,0.01,-56.0078,320,-877.13,877.176,43.9396,-1.65258e-08,1.65263e-08,8.27848e-10,878.276,-878.23,6.99439e-05,1.6547e-08,-1.65466e-08,1.31778e-15
-0.0100249,-0.8,0.0501329,0.01,-56.1397,320,-878.364,878.412,22.0178,-1.65491e-08,1.65496e-08,4.14828e-10,878.688,-878.64,-3.18022e-05,1.65548e-08,-1.65543e-08,-5.99172e-16
-2.48653e-05,-0.8,0.0511123,0.01,-56.1839,320,-878.78,878.827,0.0546294,-1.65569e-08,1.65574e-08,1.02925e-12,878.827,-878.78,-1.89761e-07,1.65574e-08,-1.65569e-08,-3.5752e-18
0.00997513,-0.8,0.0501329,0.01,-56.1402,320,-878.368,878.416,-21.9086,-1.65492e-08,1.65497e-08,-4.12771e-10,878.689,-878.641,3.21631e-05,1.65548e-08,-1.65543e-08,6.05972e-16
0.0199751,-0.8,0.051119,0.01,-56.0086,320,-877.138,877.184,-43.8308,-1.6526e-08,1.65265e-08,-8.25797e-10,878.279,-878.232,-7.01487e-05,1.65471e-08,-1.65466e-08,-1.32164e-15
0.0299751,-0.8,0.0506644,0.01,-55.7894,320,-875.086,875.133,-65.6711,-1.64873e-08,1.64878e-08,-1.23728e-09,877.593,-877.546,7.74183e-05,1.65342e-08,-1.65337e-08,1.45861e-15
0.0399751,-0.8,0.0516485,0.01,-55.4826,320,-872.224,872.27,-87.3886,-1.64334e-08,1.64339e-08,-1.64645e-09,876.637,-876.591,-0.000106456,1.65162e-08,-1.65157e-08,-2.00569e-15
0.0499751,-0.8,0.0517271,0.01,-55.0886,320,-868.557,868.603,-108.944,-1.63643e-08,1.63648e-08,-2.05256e-09,875.409,-875.363,8.19351e-05,1.6493e-08,-1.64925e-08,1.54371e-15
0.0599751,-0.8,0.0527032,0.01,-54.6078,320,-864.101,864.145,-130.297,-1.62804e-08,1.62808e-08,-2.45487e-09,873.913,-873.869,-0.000101483,1.64648e-08,-1.64644e-08,-1.912e-15
0.0699751,-0.8,0.0533203,0.01,-54.0405,320,-858.864,858.908,-151.41,-1.61817e-08,1.61821e-08,-2.85265e-09,872.152,-872.108,5.32284e-05,1.64317e-08,-1.64312e-08,1.00285e-15
0.0799751,-0.8,0.0542859,0.01,-53.3874,320,-852.866,852.909,-172.246,-1.60687e-08,1.60691e-08,-3.24521e-09,870.128,-870.086,-7.35683e-05,1.63935e-08,-1.63931e-08,-1.38607e-15
0.0899751,-0.8,0.0554432,0.01,-52.649,320,-846.124,846.165,-192.768,-1.59416e-08,1.59421e-08,-3.63187e-09,867.846,-867.804,1.55107e-05,1.63505e-08,-1.63501e-08,2.9223e-16
0.0999751,-0.8,0.0563987,0.01,-51.826,320,-838.658,838.698,-212.943,-1.5801e-08,1.58014e-08,-4.01197e-09,865.309,-865.269,-4.62942e-05,1.63028e-08,-1.63023e-08,-8.72209e-16
0.109975,-0.8,0.0580947,0.01,-50.9191,320,-830.49,830.529,-232.737,-1.56471e-08,1.56475e-08,-4.38489e-09,862.523,-862.484,-1.2251e-05,1.62503e-08,-1.62499e-08,-2.30816e-16
0.119975,-0.8,0.059043,0.01,-49.9292,320,-821.644,821.681,-252.118,-1.54804e-08,1.54808e-08,-4.75005e-09,859.491,-859.454,-3.11972e-05,1.61931e-08,-1.61928e-08,-5.87774e-16
0.129975,-0.8,0.0612736,0.01,-48.8571,320,-812.146,812.182,-271.058,-1.53014e-08,1.53018e-08,-5.10688e-09,856.22,-856.184,-2.5655e-05,1.61315e-08,-1.61312e-08,-4.83355e-16
0.139975,-0.8,0.0622199,0.01,-47.7038,320,-802.022,802.057,-289.528,-1.51107e-08,1.51111e-08,-5.45487e-09,852.715,-852.681,-2.68207e-05,1.60655e-08,-1.60651e-08,-5.05317e-16
0.149975,-0.8,0.0647161,0.01,-46.4704,320,-791.302,791.335,-307.502,-1.49087e-08,1.49091e-08,-5.79352e-09,848.982,-848.95,-2.95358e-05,1.59952e-08,-1.59948e-08,-5.56472e-16
0.159975,-0.8,0.0659295,0.01,-45.1577,320,-780.015,780.046,-324.958,-1.46961e-08,1.46964e-08,-6.1224e-09,845.028,-844.997,-2.71084e-05,1.59207e-08,-1.59204e-08,-5.10738e-16
0.169975,-0.8,0.0683459,0.01,-43.7671,320,-768.192,768.221,-341.873,-1.44733e-08,1.44736e-08,-6.44109e-09,840.859,-840.83,-2.95387e-05,1.58421e-08,-1.58418e-08,-5.56527e-16
0.179975,-0.8,0.0701713,0.01,-42.2997,320,-755.864,755.891,-358.228,-1.4241e-08,1.42413e-08,-6.74923e-09,836.481,-836.454,-2.78049e-05,1.57597e-08,-1.57594e-08,-5.2386e-16
0.189975,-0.8,0.0725134,0.01,-40.7567,320,-743.063,743.089,-374.006,-1.39999e-08,1.40001e-08,-7.04648e-09,831.903,-831.878,-2.85146e-05,1.56734e-08,-1.56732e-08,-5.37232e-16
0.199975,-0.8,0.0749444,0.01,-39.1393,320,-729.823,729.846,-389.19,-1.37504e-08,1.37506e-08,-7.33257e-09,827.132,-827.109,-2.75144e-05,1.55835e-08,-1.55833e-08,-5.18386e-16
0.209975,-0.8,0.0772201,0.01,-37.449,320,-716.176,716.197,-403.769,-1.34933e-08,1.34935e-08,-7.60724e-09,822.174,-822.153,-2.7149e-05,1.54901e-08,-1.54899e-08,-5.11503e-16
0.219975,-0.8,0.0802474,0.01,-35.6871,320,-702.156,702.175,-417.731,-1.32291e-08,1.32293e-08,-7.8703e-09,817.038,-817.019,-2.62766e-05,1.53934e-08,-1.53932e-08,-4.95067e-16
0.229975,-0.8,0.0824663,0.01,-33.855,320,-687.796,687.813,-431.067,-1.29585e-08,1.29587e-08,-8.12156e-09,811.732,-811.714,-2.54188e-05,1.52934e-08,-1.52932e-08,-4.78904e-16
0.239975,-0.8,0.0858005,0.01,-31.9541,320,-673.129,673.145,-443.771,-1.26822e-08,1.26824e-08,-8.36091e-09,806.262,-806.247,-2.4406e-05,1.51904e-08,-1.51902e-08,-4.59823e-16
0.249975,-0.8,0.0882509,0.01,-29.9859,320,-658.189,658.203,-455.838,-1.24007e-08,1.24009e-08,-8.58826e-09,800.638,-800.624,-2.33094e-05,1.50844e-08,-1.50843e-08,-4.39162e-16
0.259975,-0.8,0.0914711,0.01,-27.9518,320,-643.009,643.021,-467.265,-1.21147e-08,1.21148e-08,-8.80354e-09,794.867,-794.855,-2.21386e-05,1.49757e-08,-1.49756e-08,-4.17104e-16
0.269975,-0.8,0.0945725,0.01,-25.8535,320,-627.62,627.63,-478.051,-1.18248e-08,1.18249e-08,-9.00675e-09,788.957,-788.947,-2.0907e-05,1.48644e-08,-1.48643e-08,-3.93901e-16
0.279975,-0.8,0.0976913,0.01,-23.6924,320,-612.055,612.063,-488.197,-1.15315e-08,1.15316e-08,-9.19791e-09,782.917,-782.908,-1.96338e-05,1.47506e-08,-1.47505e-08,-3.69912e-16
0.289975,-0.8,0.101429,0.01,-21.4701,320,-596.344,596.351,-497.705,-1.12355e-08,1.12356e-08,-9.37705e-09,776.753,-776.747,-1.83325e-05,1.46345e-08,-1.46344e-08,-3.45394e-16
0.299975,-0.8,0.104459,0.01,-19.1882,320,-580.518,580.523,-506.581,-1.09373e-08,1.09374e-08,-9.54427e-09,770.475,-770.47,-1.70187e-05,1.45162e-08,-1.45161e-08,-3.20643e-16
0.309975,-0.8,0.108332,0.01,-16.8482,320,-564.607,564.61,-514.829,-1.06375e-08,1.06376e-08,-9.69967e-09,764.09,-764.087,-1.5706e-05,1.43959e-08,-1.43958e-08,-2.9591e-16
0.319975,-0.8,0.111773,0.01,-14.4517,320,-548.637,548.639,-522.456,-1.03367e-08,1.03367e-08,-9.84338e-09,757.605,-757.604,-1.44059e-05,1.42737e-08,-1.42737e-08,-2.71416e-16
0.329975,-0.8,0.115522,0.01,-12.0004,320,-532.638,532.638,-529.473,-1.00352e-08,1.00352e-08,-9.97558e-09,751.029,-751.029,-1.31296e-05,1.41498e-08,-1.41498e-08,-2.47369e-16
0.339975,-0.8,0.119629,0.01,-9.49584,320,-516.635,516.634,-535.888,-9.7337e-09,9.73369e-09,-1.00964e-08,744.37,-744.371,-1.18863e-05,1.40244e-08,-1.40244e-08,-2.23945e-16
0.349975,-0.8,0.123269,0.01,-6.9396,320,-500.654,500.651,-541.712,-9.43259e-09,9.43257e-09,-1.02062e-08,737.633,-737.636,-1.06845e-05,1.38975e-08,-1.38975e-08,-2.01303e-16
0.359975,-0.8,0.127591,0.01,-4.3333,320,-484.718,484.714,-546.958,-9.13235e-09,9.13231e-09,-1.0305e-08,730.828,-730.832,-9.53179e-06,1.37692e-08,-1.37693e-08,-1.79584e-16
0.369975,-0.8,0.131569,0.01,-1.67852,320,-468.85,468.845,-551.638,-8.83339e-09,8.83334e-09,-1.03932e-08,723.96,-723.966,-8.43366e-06,1.36399e-08,-1.36399e-08,-1.58895e-16
0.379975,-0.8,0.135761,0.01,1.02314,320,-453.073,453.066,-555.766,-8.53612e-09,8.53606e-09,-1.0471e-08,717.038,-717.044,-7.39461e-06,1.35094e-08,-1.35095e-08,-1.39319e-16
0.389975,-0.8,0.140418,0.01,3.77011,320,-437.406,437.398,-559.357,-8.24094e-09,8.24087e-09,-1.05386e-08,710.067,-710.075,-6.41803e-06,1.33781e-08,-1.33782e-08,-1.20919e-16
0.399975,-0.8,0.144495,0.01,6.56082,320,-421.868,421.859,-562.427,-7.9482e-09,7.94811e-09,-1.05964e-08,703.055,-703.064,-5.5058e-06,1.3246e-08,-1.32461e-08,-1.03732e-16
0.409975,-0.8,0.149132,0.01,9.39372,320,-406.478,406.468,-564.99,-7.65823e-09,7.65814e-09,-1.06447e-08,696.008,-696.017,-4.66001e-06,1.31132e-08,-1.31133e-08,-8.77973e-17
0.419975,-0.8,0.153787,0.01,12.2673,320,-391.252,391.241,-567.063,-7.37136e-09,7.37126e-09,-1.06838e-08,688.932,-688.942,-3.88125e-06,1.29799e-08,-1.298e-08,-7.3125e-17
0.429975,-0.8,0.158296,0.01,15.1799,320,-376.205,376.194,-568.662,-7.08788e-09,7.08776e-09,-1.07139e-08,681.832,-681.844,-3.16914e-06,1.28462e-08,-1.28463e-08,-5.97085e-17
0.439975,-0.8,0.163293,0.01,18.1302,320,-361.353,361.341,-569.806,-6.80804e-09,6.80792e-09,-1.07355e-08,674.716,-674.728,-2.52271e-06,1.27121e-08,-1.27122e-08,-4.75293e-17
0.449975,-0.8,0.168027,0.01,21.1167,320,-346.707,346.694,-570.51,-6.53211e-09,6.53198e-09,-1.07487e-08,667.588,-667.601,-1.93958e-06,1.25778e-08,-1.25779e-08,-3.65428e-17
0.459975,-0.8,0.17289,0.01,24.1378,320,-332.28,332.267,-570.792,-6.2603e-09,6.26016e-09,-1.0754e-08,660.454,-660.468,-1.41786e-06,1.24434e-08,-1.24435e-08,-2.67133e-17
0.469975,-0.8,0.178182,0.01,27.1921,320,-318.083,318.069,-570.669,-5.99281e-09,5.99267e-09,-1.07517e-08,653.32,-653.333,-9.55763e-07,1.2309e-08,-1.23091e-08,-1.80071e-17
0.479975,-0.8,0.183061,0.01,30.2782,320,-304.125,304.111,-570.159,-5.72984e-09,5.72969e-09,-1.07421e-08,646.189,-646.203,-5.50333e-07,1.21746e-08,-1.21748e-08,-1.03686e-17
0.489975,-0.8,0.188216,0.01,33.3948,320,-290.416,290.401,-569.279,-5.47154e-09,5.47139e-09,-1.07255e-08,639.067,-639.081,-1.97954e-07,1.20405e-08,-1.20406e-08,-3.72956e-18
0.499975,-0.8,0.19375,0.01,36.5404,320,-276.962,276.947,-568.046,-5.21805e-09,5.2179e-09,-1.07023e-08,631.958,-631.973,1.05237e-07,1.19065e-08,-1.19067e-08,1.98273e-18
0.509975,-0.8,0.198832,0.01,39.7137,320,-263.77,263.754,-566.478,-4.96951e-09,4.96935e-09,-1.06728e-08,624.867,-624.882,3.61695e-07,1.17729e-08,-1.17731e-08,6.81453e-18
0.519975,-0.8,0.204229,0.01,42.9134,320,-250.846,250.83,-564.591,-4.72602e-09,4.72586e-09,-1.06372e-08,617.797,-617.813,5.74672e-07,1.16397e-08,-1.16399e-08,1.08272e-17
0.529975,-0.8,0.209964,0.01,46.1381,320,-238.195,238.179,-562.402,-4.48767e-09,4.4875e-09,-1.0596e-08,610.753,-610.769,7.49113e-07,1.1507e-08,-1.15072e-08,1.41137e-17
0.539975,-0.8,0.215294,0.01,49.3867,320,-225.829,225.807,-559.93,-4.25466e-09,4.25443e-09,-1.05494e-08,603.74,-603.763,-0.00347903,1.13749e-08,-1.13751e-08,-6.5547e-14
0.549975,-0.8,0.220894,0.01,52.6579,320,-213.908,213.464,-557.631,-4.02822e-09,4.02372e-09,-1.05061e-08,596.95,-597.394,0.191578,1.12488e-08,-1.12533e-08,3.60944e-12
0.559975,-0.8,0.226797,0.01,55.9504,320,-203.915,201.088,-556.49,-3.82959e-09,3.80091e-09,-1.04846e-08,590.775,-593.602,0.231149,1.11428e-08,-1.11715e-08,4.35499e-12
0.569975,-0.8,0.232415,0.01,59.2632,320,-196.411,188.447,-556.776,-3.66587e-09,3.58507e-09,-1.049e-08,585.109,-593.073,-0.0329153,1.10584e-08,-1.11392e-08,-6.20143e-13
0.579975,-0.8,0.238186,0.01,62.5949,320,-186.801,177.196,-554.774,-3.47768e-09,3.38024e-09,-1.04523e-08,579.062,-588.667,-0.452868,1.09516e-08,-1.10491e-08,-8.5323e-12
0.589975,-0.8,0.24423,0.01,65.9446,320,-171.311,168.254,-552.032,-3.2143e-09,3.18329e-09,-1.04006e-08,576.022,-579.079,0.897278,1.08659e-08,-1.08969e-08,1.69052e-11
-0.600025,-0.79,0.242111,0.01,64.8208,312.05,-160.321,153.361,558.781,-2.99028e-09,2.91968e-09,1.05278e-08,576.894,-583.854,1.15242,1.08993e-08,-1.09699e-08,2.17123e-11
-0.590025,-0.79,0.236266,0.01,61.3995,312.05,-167.157,162.616,560.301,-3.12959e-09,3.08352e-09,1.05564e-08,581.787,-586.329,-0.939196,1.0981e-08,-1.1027e-08,-1.7695e-11
-0.580025,-0.79,0.230226,0.01,57.9946,312.05,-177.779,174.812,561.062,-3.33656e-09,3.30646e-09,1.05707e-08,586.624,-589.591,0.169526,1.10652e-08,-1.10953e-08,3.19397e-12
-0.570025,-0.79,0.224248,0.01,54.6072,312.05,-188.684,186.682,564.083,-3.5462e-09,3.5259e-09,1.06277e-08,593.486,-595.487,0.291687,1.11903e-08,-1.12106e-08,5.49556e-12
-0.560025,-0.79,0.218564,0.01,51.2385,312.05,-198.839,198.336,566.423,-3.74405e-09,3.73895e-09,1.06717e-08,599.975,-600.478,-0.149874,1.13061e-08,-1.13112e-08,-2.8237e-12
-0.550025,-0.79,0.212824,0.01,47.8897,312.05,-210.648,210.631,569.247,-3.96866e-09,3.96849e-09,1.07249e-08,606.96,-606.977,-1.1336e-06,1.14356e-08,-1.14357e-08,-2.13577e-17
-0.540025,-0.79,0.207003,0.01,44.562,312.05,-223.004,222.987,572.282,-4.20145e-09,4.20128e-09,1.07821e-08,614.185,-614.202,-1.04005e-06,1.15717e-08,-1.15718e-08,-1.95952e-17
-0.530025,-0.79,0.201511,0.01,41.2566,312.05,-235.656,235.639,575.045,-4.43982e-09,4.43965e-09,1.08342e-08,621.447,-621.464,-9.13111e-07,1.17085e-08,-1.17087e-08,-1.72035e-17
-0.520025,-0.79,0.196032,0.01,37.9747,312.05,-248.601,248.585,577.519,-4.68372e-09,4.68355e-09,1.08808e-08,628.742,-628.759,-7.49211e-07,1.18459e-08,-1.18461e-08,-1.41156e-17
-0.510025,-0.79,0.1904,0.01,34.7177,312.05,-261.836,261.82,579.687,-4.93308e-09,4.93291e-09,1.09216e-08,636.067,-636.083,-5.447e-07,1.19839e-08,-1.19841e-08,-1.02625e-17
-0.500025,-0.79,0.185138,0.01,31.4869,312.05,-275.357,275.341,581.531,-5.18781e-09,5.18765e-09,1.09564e-08,643.417,-643.433,-2.95254e-07,1.21224e-08,-1.21226e-08,-5.56276e-18
-0.490025,-0.79,0.179875,0.01,28.2836,312.05,-289.157,289.141,583.033,-5.44782e-09,5.44766e-09,1.09847e-08,650.788,-650.804,3.18124e-09,1.22613e-08,-1.22614e-08,5.99359e-20
-0.480025,-0.79,0.174471,0.01,25.1092,312.05,-303.23,303.215,584.176,-5.71297e-09,5.71282e-09,1.10062e-08,658.176,-658.191,3.54117e-07,1.24005e-08,-1.24006e-08,6.67177e-18
-0.470025,-0.79,0.169486,0.01,21.9652,312.05,-317.57,317.555,584.941,-5.98314e-09,5.98299e-09,1.10206e-08,665.576,-665.591,7.61135e-07,1.25399e-08,-1.25401e-08,1.43402e-17
-0.460025,-0.79,0.164384,0.01,18.8529,312.05,-332.166,332.152,585.309,-6.25815e-09,6.258e-09,1.10276e-08,672.983,-672.998,1.22897e-06,1.26795e-08,-1.26796e-08,2.31544e-17
-0.450025,-0.79,0.159258,0.01,15.7738,312.05,-347.011,346.997,585.262,-6.53783e-09,6.53769e-09,1.10267e-08,680.393,-680.406,1.76061e-06,1.28191e-08,-1.28192e-08,3.31709e-17
-0.440025,-0.79,0.15461,0.01,12.7294,312.05,-362.092,362.079,584.782,-6.82197e-09,6.82183e-09,1.10176e-08,687.799,-687.812,2.35874e-06,1.29586e-08,-1.29587e-08,4.44401e-17
-0.430025,-0.79,0.149602,0.01,9.72128,312.05,-377.398,377.386,583.851,-7.11034e-09,7.11022e-09,1.10001e-08,695.196,-695.208,3.02611e-06,1.3098e-08,-1.30981e-08,5.70136e-17
-0.420025,-0.79,0.144819,0.01,6.75086,312.05,-392.915,392.904,582.449,-7.4027e-09,7.40259e-09,1.09737e-08,702.579,-702.59,3.76478e-06,1.3237e-08,-1.32372e-08,7.09307e-17
-0.410025,-0.79,0.140526,0.01,3.81974,312.05,-408.63,408.619,580.559,-7.69878e-09,7.69867e-09,1.09381e-08,709.941,-709.951,4.57694e-06,1.33757e-08,-1.33758e-08,8.62322e-17
-0.400025,-0.79,0.135591,0.01,0.929478,312.05,-424.526,424.516,578.163,-7.99827e-09,7.99817e-09,1.08929e-08,717.275,-717.285,5.46269e-06,1.35139e-08,-1.3514e-08,1.0292e-16
-0.390025,-0.79,0.131234,0.01,-1.91833,312.05,-440.586,440.577,575.243,-8.30086e-09,8.30077e-09,1.08379e-08,724.576,-724.585,6.42172e-06,1.36515e-08,-1.36516e-08,1.20989e-16
-0.380025,-0.79,0.126932,0.01,-4.72207,312.05,-456.792,456.784,571.783,-8.60619e-09,8.60611e-09,1.07727e-08,731.837,-731.845,7.45363e-06,1.37883e-08,-1.37883e-08,1.40431e-16
-0.370025,-0.79,0.122434,0.01,-7.48014,312.05,-473.124,473.117,567.765,-8.9139e-09,8.91383e-09,1.0697e-08,739.051,-739.057,8.5559e-06,1.39242e-08,-1.39242e-08,1.61198e-16
-0.360025,-0.79,0.118611,0.01,-10.1909,312.05,-489.56,489.556,563.175,-9.22358e-09,9.22353e-09,1.06105e-08,746.21,-746.215,9.72602e-06,1.4059e-08,-1.40591e-08,1.83244e-16
-0.350025,-0.79,0.114192,0.01,-12.8527,312.05,-506.08,506.076,557.996,-9.53482e-09,9.53479e-09,1.0513e-08,753.307,-753.311,1.09587e-05,1.41928e-08,-1.41928e-08,2.06468e-16
-0.340025,-0.79,0.110248,0.01,-15.4639,312.05,-522.658,522.656,552.215,-9.84717e-09,9.84715e-09,1.0404e-08,760.335,-760.337,1.22477e-05,1.43252e-08,-1.43252e-08,2.30753e-16
-0.330025,-0.79,0.106513,0.01,-18.0228,312.05,-539.27,539.269,545.818,-1.01602e-08,1.01601e-08,1.02835e-08,767.286,-767.287,1.35869e-05,1.44561e-08,-1.44561e-08,2.55986e-16
-0.320025,-0.79,0.10243,0.01,-20.5278,312.05,-555.889,555.89,538.793,-1.04733e-08,1.04733e-08,1.01512e-08,774.152,-774.151,1.4967e-05,1.45855e-08,-1.45855e-08,2.81986e-16
-0.310025,-0.79,0.0991903,0.01,-22.9772,312.05,-572.488,572.491,531.129,-1.0786e-08,1.07861e-08,1.00068e-08,780.925,-780.923,1.63777e-05,1.47131e-08,-1.4713e-08,3.08566e-16
-0.300025,-0.79,0.0951612,0.01,-25.3694,312.05,-589.039,589.043,522.817,-1.10978e-08,1.10979e-08,9.85017e-09,787.598,-787.593,1.78081e-05,1.48388e-08,-1.48387e-08,3.35515e-16
-0.290025,-0.79,0.0918186,0.01,-27.7026,312.05,-605.51,605.517,513.847,-1.14082e-08,1.14083e-08,9.68118e-09,794.16,-794.154,1.92434e-05,1.49624e-08,-1.49623e-08,3.62556e-16
-0.280025,-0.79,0.0884466,0.01,-29.9753,312.05,-621.873,621.881,504.214,-1.17165e-08,1.17166e-08,9.49969e-09,800.605,-800.597,2.06717e-05,1.50838e-08,-1.50838e-08,3.89467e-16
-0.270025,-0.79,0.0849834,0.01,-32.1858,312.05,-638.093,638.103,493.912,-1.20221e-08,1.20222e-08,9.30559e-09,806.924,-806.914,2.20732e-05,1.52029e-08,-1.52028e-08,4.15872e-16
-0.260025,-0.79,0.0822891,0.01,-34.3325,312.05,-654.14,654.152,482.938,-1.23244e-08,1.23245e-08,9.09883e-09,813.109,-813.097,2.34332e-05,1.53194e-08,-1.53193e-08,4.41495e-16
-0.250025,-0.79,0.0786877,0.01,-36.4138,312.05,-669.979,669.992,471.29,-1.26228e-08,1.2623e-08,8.87938e-09,819.15,-819.136,2.47628e-05,1.54332e-08,-1.54331e-08,4.66545e-16
-0.240025,-0.79,0.0762366,0.01,-38.4281,312.05,-685.575,685.591,458.968,-1.29167e-08,1.29169e-08,8.64723e-09,825.039,-825.023,2.58807e-05,1.55441e-08,-1.5544e-08,4.87608e-16
-0.230025,-0.79,0.0729342,0.01,-40.3739,312.05,-700.895,700.913,445.976,-1.32054e-08,1.32055e-08,8.40244e-09,830.768,-830.75,2.73326e-05,1.56521e-08,-1.56519e-08,5.14962e-16
-0.220025,-0.79,0.0704086,0.01,-42.2495,312.05,-715.903,715.923,432.316,-1.34881e-08,1.34883e-08,8.14508e-09,836.329,-836.309,2.75324e-05,1.57568e-08,-1.57566e-08,5.18727e-16
-0.210025,-0.79,0.0677249,0.01,-44.0536,312.05,-730.564,730.586,417.996,-1.37643e-08,1.37646e-08,7.87529e-09,841.712,-841.69,3.01788e-05,1.58583e-08,-1.5858e-08,5.68586e-16
-0.200025,-0.79,0.0651105,0.01,-45.7846,312.05,-744.842,744.866,403.025,-1.40334e-08,1.40336e-08,7.59323e-09,846.91,-846.886,2.75503e-05,1.59562e-08,-1.59559e-08,5.19064e-16
-0.190025,-0.79,0.0630604,0.01,-47.4412,312.05,-758.701,758.727,387.414,-1.42945e-08,1.42947e-08,7.2991e-09,851.915,-851.889,3.35479e-05,1.60505e-08,-1.60502e-08,6.32063e-16
-0.180025,-0.79,0.0603443,0.01,-49.0218,312.05,-772.106,772.134,371.176,-1.4547e-08,1.45473e-08,6.99316e-09,856.718,-856.689,2.67597e-05,1.61409e-08,-1.61406e-08,5.04167e-16
-0.170025,-0.79,0.0589401,0.01,-50.5253,312.05,-785.022,785.052,354.326,-1.47904e-08,1.47907e-08,6.67571e-09,861.311,-861.281,3.2777e-05,1.62275e-08,-1.62272e-08,6.17537e-16
-0.160025,-0.79,0.0561113,0.01,-51.9502,312.05,-797.415,797.447,336.883,-1.50239e-08,1.50242e-08,6.34707e-09,865.687,-865.655,3.66916e-05,1.63099e-08,-1.63096e-08,6.91291e-16
-0.150025,-0.79,0.0549819,0.01,-53.2955,312.05,-809.251,809.285,318.867,-1.52469e-08,1.52472e-08,6.00765e-09,869.839,-869.805,4.00492e-06,1.63881e-08,-1.63878e-08,7.54551e-17
-0.140025,-0.79,0.0524122,0.01,-54.5597,312.05,-820.497,820.532,300.301,-1.54588e-08,1.54591e-08,5.65785e-09,873.759,-873.724,9.85407e-05,1.6462e-08,-1.64616e-08,1.85656e-15
-0.130025,-0.79,0.0512756,0.01,-55.742,312.05,-831.12,831.157,281.209,-1.56589e-08,1.56593e-08,5.29815e-09,877.441,-877.403,-0.000115761,1.65313e-08,-1.6531e-08,-2.181e-15
-0.120025,-0.79,0.0492472,0.01,-56.8411,312.05,-841.092,841.131,261.619,-1.58468e-08,1.58472e-08,4.92905e-09,880.879,-880.84,0.000296435,1.65961e-08,-1.65957e-08,5.58501e-15
-0.110025,-0.79,0.0480958,0.01,-57.8562,312.05,-850.38,850.421,241.56,-1.60218e-08,1.60222e-08,4.55113e-09,884.064,-884.022,-0.000423454,1.66561e-08,-1.66557e-08,-7.97811e-15
-0.100025,-0.79,0.0466154,0.01,-58.7862,312.05,-858.964,859.005,221.062,-1.61836e-08,1.6184e-08,4.16493e-09,886.994,-886.953,0.000721179,1.67113e-08,-1.67109e-08,1.35874e-14
-0.0900249,-0.79,0.0454438,0.01,-59.6303,312.05,-866.804,866.85,200.16,-1.63313e-08,1.63318e-08,3.77112e-09,889.659,-889.613,-0.000972527,1.67615e-08,-1.6761e-08,-1.8323e-14
-0.0800249,-0.79,0.0445149,0.01,-60.3877,312.05,-873.9,873.942,178.886,-1.6465e-08,1.64654e-08,3.37031e-09,892.063,-892.021,0.0013536,1.68068e-08,-1.68064e-08,2.55026e-14
-0.0700249,-0.79,0.0433206,0.01,-61.0578,312.05,-880.194,880.245,157.281,-1.65836e-08,1.65841e-08,2.96327e-09,894.186,-894.136,-0.00163396,1.68468e-08,-1.68463e-08,-3.07848e-14
-0.0600249,-0.79,0.042943,0.01,-61.6398,312.05,-885.719,885.76,135.378,-1.66876e-08,1.66881e-08,2.5506e-09,896.046,-896.005,0.00193918,1.68819e-08,-1.68814e-08,3.65353e-14
-0.0500249,-0.79,0.0417272,0.01,-62.1333,312.05,-890.386,890.441,113.223,-1.67756e-08,1.67762e-08,2.13318e-09,897.611,-897.556,-0.00203621,1.69113e-08,-1.69107e-08,-3.83634e-14
-0.0400249,-0.79,0.041896,0.01,-62.5377,312.05,-894.273,894.313,90.8487,-1.68488e-08,1.68492e-08,1.71164e-09,898.915,-898.875,0.0020365,1.69359e-08,-1.69355e-08,3.83689e-14
-0.0300249,-0.79,0.0406645,0.01,-62.8527,312.05,-897.253,897.312,68.3049,-1.6905e-08,1.69056e-08,1.2869e-09,899.908,-899.849,-0.00175626,1.69545e-08,-1.69539e-08,-3.3089e-14
-0.0200249,-0.79,0.0413702,0.01,-63.078,312.05,-899.452,899.49,45.6274,-1.69464e-08,1.69468e-08,8.59648e-10,900.647,-900.608,0.00133295,1.69685e-08,-1.69682e-08,2.51135e-14
-0.0100249,-0.79,0.0401329,0.01,-63.2133,312.05,-900.71,900.771,22.8646,-1.69702e-08,1.69708e-08,4.30783e-10,901.061,-901,-0.000699093,1.69762e-08,-1.69756e-08,-1.31713e-14
-2.48653e-05,-0.79,0.0413498,0.01,-63.2586,312.05,-901.189,901.227,0.0567331,-1.69791e-08,1.69795e-08,1.06888e-12,901.227,-901.189,-2.01311e-06,1.69795e-08,-1.69791e-08,-3.79281e-17
0.00997513,-0.79,0.0401329,0.01,-63.2138,312.05,-900.714,900.775,-22.7513,-1.69702e-08,1.69709e-08,-4.28648e-10,901.063,-901.002,0.000702866,1.69763e-08,-1.69757e-08,1.32424e-14
0.0199751,-0.79,0.0413582,0.01,-63.0789,312.05,-899.46,899.499,-45.5144,-1.69465e-08,1.69469e-08,-8.57518e-10,900.65,-900.611,-0.00133522,1.69686e-08,-1.69682e-08,-2.51563e-14
0.0299751,-0.79,0.0406644,0.01,-62.854,312.05,-897.266,897.325,-68.1925,-1.69053e-08,1.69059e-08,-1.28479e-09,899.912,-899.854,0.00175686,1.69546e-08,-1.6954e-08,3.31003e-14
0.0399751,-0.79,0.0418841,0.01,-62.5395,312.05,-894.29,894.33,-90.737,-1.68491e-08,1.68495e-08,-1.70954e-09,898.921,-898.881,-0.00203472,1.6936e-08,-1.69356e-08,-3.83352e-14
0.0499751,-0.79,0.0417271,0.01,-62.1355,312.05,-890.407,890.462,-113.112,-1.6776e-08,1.67766e-08,-2.13109e-09,897.618,-897.563,0.00203256,1.69114e-08,-1.69108e-08,3.82946e-14
0.0599751,-0.79,0.0429312,0.01,-61.6425,312.05,-885.744,885.786,-135.269,-1.66881e-08,1.66885e-08,-2.54854e-09,896.055,-896.014,-0.00193365,1.6882e-08,-1.68816e-08,-3.64312e-14
0.0699751,-0.79,0.0433204,0.01,-61.0609,312.05,-880.224,880.274,-157.173,-1.65841e-08,1.65847e-08,-2.96123e-09,894.196,-894.146,0.00162752,1.6847e-08,-1.68464e-08,3.06634e-14
0.0799751,-0.79,0.0445035,0.01,-60.3913,312.05,-873.934,873.975,-178.779,-1.64656e-08,1.6466e-08,-3.3683e-09,892.074,-892.032,-0.00134664,1.6807e-08,-1.68066e-08,-2.53715e-14
0.0899751,-0.79,0.0454434,0.01,-59.6343,312.05,-866.841,866.887,-200.055,-1.6332e-08,1.63325e-08,-3.76915e-09,889.672,-889.626,0.000965896,1.67617e-08,-1.67613e-08,1.8198e-14
0.0999751,-0.79,0.0466044,0.01,-58.7906,312.05,-859.005,859.046,-220.959,-1.61843e-08,1.61847e-08,-4.16299e-09,887.008,-886.967,-0.000715215,1.67116e-08,-1.67112e-08,-1.34751e-14
0.109975,-0.79,0.0480952,0.01,-57.861,312.05,-850.424,850.466,-241.459,-1.60227e-08,1.60231e-08,-4.54923e-09,884.079,-884.037,0.000418541,1.66564e-08,-1.6656e-08,7.88556e-15
0.119975,-0.79,0.0492366,0.01,-56.8464,312.05,-841.14,841.179,-261.52,-1.58477e-08,1.58481e-08,-4.9272e-09,880.895,-880.856,-0.000292606,1.65964e-08,-1.6596e-08,-5.51287e-15
0.129975,-0.79,0.0512748,0.01,-55.7477,312.05,-831.171,831.209,-281.113,-1.56599e-08,1.56603e-08,-5.29634e-09,877.459,-877.421,0.000112993,1.65317e-08,-1.65313e-08,2.12885e-15
0.139975,-0.79,0.0524019,0.01,-54.5658,312.05,-820.551,820.587,-300.207,-1.54598e-08,1.54602e-08,-5.65608e-09,873.778,-873.743,-9.66505e-05,1.64623e-08,-1.6462e-08,-1.82095e-15
0.149975,-0.79,0.0549808,0.01,-53.3019,312.05,-809.308,809.342,-318.776,-1.5248e-08,1.52483e-08,-6.00593e-09,869.859,-869.825,-5.20433e-06,1.63885e-08,-1.63882e-08,-9.80526e-17
0.159975,-0.79,0.0561013,0.01,-51.9571,312.05,-797.475,797.507,-336.795,-1.5025e-08,1.50254e-08,-6.34541e-09,865.709,-865.677,-3.59755e-05,1.63103e-08,-1.631e-08,-6.77799e-16
0.169975,-0.79,0.0589222,0.01,-50.5326,312.05,-785.085,785.115,-354.241,-1.47916e-08,1.47919e-08,-6.6741e-09,861.333,-861.303,-3.31735e-05,1.62279e-08,-1.62276e-08,-6.25008e-16
0.179975,-0.79,0.0603346,0.01,-49.0295,312.05,-772.172,772.2,-371.093,-1.45483e-08,1.45486e-08,-6.99161e-09,856.741,-856.713,-2.65585e-05,1.61414e-08,-1.61411e-08,-5.00377e-16
0.189975,-0.79,0.0630432,0.01,-47.4492,312.05,-758.769,758.795,-387.335,-1.42958e-08,1.4296e-08,-7.29761e-09,851.939,-851.913,-3.36452e-05,1.60509e-08,-1.60506e-08,-6.33895e-16
0.199975,-0.79,0.0651011,0.01,-45.793,312.05,-744.912,744.936,-402.949,-1.40347e-08,1.40349e-08,-7.5918e-09,846.936,-846.912,-2.75133e-05,1.59567e-08,-1.59564e-08,-5.18367e-16
0.209975,-0.79,0.0677085,0.01,-44.0624,312.05,-730.636,730.658,-417.923,-1.37657e-08,1.37659e-08,-7.87392e-09,841.739,-841.717,-3.01977e-05,1.58587e-08,-1.58585e-08,-5.68943e-16
0.219975,-0.79,0.0703993,0.01,-42.2587,312.05,-715.977,715.997,-432.246,-1.34895e-08,1.34897e-08,-8.14377e-09,836.356,-836.336,-2.75329e-05,1.57573e-08,-1.57571e-08,-5.18737e-16
0.229975,-0.79,0.0729185,0.01,-40.3834,312.05,-700.971,700.989,-445.909,-1.32068e-08,1.3207e-08,-8.40119e-09,830.796,-830.778,-2.73389e-05,1.56526e-08,-1.56524e-08,-5.15081e-16
0.239975,-0.79,0.0762275,0.01,-38.438,312.05,-685.652,685.668,-458.905,-1.29182e-08,1.29183e-08,-8.64604e-09,825.068,-825.052,-2.58869e-05,1.55447e-08,-1.55445e-08,-4.87724e-16
0.249975,-0.79,0.0786726,0.01,-36.424,312.05,-670.057,670.071,-471.23,-1.26243e-08,1.26245e-08,-8.87825e-09,819.179,-819.165,-2.47681e-05,1.54338e-08,-1.54336e-08,-4.66646e-16
0.259975,-0.79,0.0822685,0.01,-34.3431,312.05,-654.219,654.231,-482.882,-1.23259e-08,1.2326e-08,-9.09777e-09,813.139,-813.127,-2.34393e-05,1.532e-08,-1.53198e-08,-4.4161e-16
0.269975,-0.79,0.0849688,0.01,-32.1967,312.05,-638.174,638.184,-493.859,-1.20236e-08,1.20237e-08,-9.3046e-09,806.955,-806.945,-2.20803e-05,1.52035e-08,-1.52034e-08,-4.16005e-16
0.279975,-0.79,0.0884269,0.01,-29.9865,312.05,-621.954,621.962,-504.165,-1.1718e-08,1.17181e-08,-9.49875e-09,800.637,-800.629,-2.06792e-05,1.50844e-08,-1.50843e-08,-3.89608e-16
0.289975,-0.79,0.0918044,0.01,-27.7141,312.05,-605.592,605.598,-513.801,-1.14097e-08,1.14098e-08,-9.68031e-09,794.193,-794.186,-1.92503e-05,1.4963e-08,-1.4963e-08,-3.62687e-16
0.299975,-0.79,0.0951423,0.01,-25.3811,312.05,-589.121,589.125,-522.774,-1.10994e-08,1.10994e-08,-9.84936e-09,787.63,-787.626,-1.78146e-05,1.48394e-08,-1.48393e-08,-3.35638e-16
0.309975,-0.79,0.0991764,0.01,-22.9892,312.05,-572.571,572.574,-531.089,-1.07876e-08,1.07876e-08,-1.0006e-08,780.959,-780.956,-1.63848e-05,1.47137e-08,-1.47137e-08,-3.08699e-16
0.319975,-0.79,0.102411,0.01,-20.5401,312.05,-555.972,555.973,-538.756,-1.04748e-08,1.04748e-08,-1.01505e-08,774.186,-774.185,-1.4974e-05,1.45861e-08,-1.45861e-08,-2.82119e-16
0.329975,-0.79,0.10649,0.01,-18.0354,312.05,-539.352,539.352,-545.784,-1.01617e-08,1.01617e-08,-1.02829e-08,767.321,-767.321,-1.35938e-05,1.44568e-08,-1.44568e-08,-2.56116e-16
0.339975,-0.79,0.11023,0.01,-15.4767,312.05,-522.74,522.738,-552.184,-9.84872e-09,9.8487e-09,-1.04035e-08,760.37,-760.372,-1.22544e-05,1.43258e-08,-1.43258e-08,-2.3088e-16
0.349975,-0.79,0.11417,0.01,-12.8658,312.05,-506.162,506.159,-557.969,-9.53637e-09,9.53634e-09,-1.05125e-08,753.342,-753.346,-1.09646e-05,1.41934e-08,-1.41935e-08,-2.06579e-16
0.359975,-0.79,0.118594,0.01,-10.2043,312.05,-489.642,489.638,-563.15,-9.22512e-09,9.22508e-09,-1.06101e-08,746.245,-746.25,-9.73183e-06,1.40597e-08,-1.40598e-08,-1.83353e-16
0.369975,-0.79,0.122414,0.01,-7.49374,312.05,-473.205,473.199,-567.744,-8.91543e-09,8.91537e-09,-1.06966e-08,739.087,-739.093,-8.56177e-06,1.39248e-08,-1.39249e-08,-1.61309e-16
0.379975,-0.79,0.126908,0.01,-4.7359,312.05,-456.873,456.865,-571.764,-8.60771e-09,8.60764e-09,-1.07724e-08,731.873,-731.88,-7.45921e-06,1.37889e-08,-1.3789e-08,-1.40536e-16
0.389975,-0.79,0.131214,0.01,-1.93238,312.05,-440.666,440.658,-575.228,-8.30237e-09,8.30228e-09,-1.08376e-08,724.613,-724.621,-6.42698e-06,1.36522e-08,-1.36522e-08,-1.21088e-16
0.399975,-0.79,0.135568,0.01,0.915209,312.05,-424.605,424.596,-578.15,-7.99977e-09,7.99967e-09,-1.08927e-08,717.312,-717.321,-5.46686e-06,1.35146e-08,-1.35147e-08,-1.02999e-16
0.409975,-0.79,0.1405,0.01,3.80526,312.05,-408.709,408.698,-580.548,-7.70026e-09,7.70015e-09,-1.09379e-08,709.977,-709.988,-4.58083e-06,1.33764e-08,-1.33765e-08,-8.63055e-17
0.419975,-0.79,0.144797,0.01,6.73618,312.05,-392.993,392.982,-582.441,-7.40417e-09,7.40405e-09,-1.09735e-08,702.615,-702.627,-3.76875e-06,1.32377e-08,-1.32378e-08,-7.10054e-17
0.429975,-0.79,0.149577,0.01,9.70641,312.05,-377.474,377.462,-583.845,-7.11179e-09,7.11166e-09,-1.1e-08,695.233,-695.245,-3.02942e-06,1.30986e-08,-1.30988e-08,-5.70761e-17
0.439975,-0.79,0.154588,0.01,12.7144,312.05,-362.167,362.155,-584.779,-6.82339e-09,6.82326e-09,-1.10176e-08,687.836,-687.849,-2.36193e-06,1.29593e-08,-1.29594e-08,-4.45001e-17
0.449975,-0.79,0.159234,0.01,15.7586,312.05,-347.085,347.072,-585.261,-6.53923e-09,6.53909e-09,-1.10267e-08,680.43,-680.443,-1.76346e-06,1.28197e-08,-1.28199e-08,-3.32246e-17
0.459975,-0.79,0.164357,0.01,18.8375,312.05,-332.24,332.225,-585.31,-6.25953e-09,6.25938e-09,-1.10276e-08,673.02,-673.034,-1.23138e-06,1.26802e-08,-1.26803e-08,-2.31999e-17
0.469975,-0.79,0.169462,0.01,21.9496,312.05,-317.642,317.627,-584.943,-5.98449e-09,5.98434e-09,-1.10207e-08,665.613,-665.628,-7.63322e-07,1.25406e-08,-1.25407e-08,-1.43814e-17
0.479975,-0.79,0.174445,0.01,25.0935,312.05,-303.301,303.286,-584.181,-5.7143e-09,5.71415e-09,-1.10063e-08,658.213,-658.228,-3.55936e-07,1.24012e-08,-1.24013e-08,-6.70605e-18
0.489975,-0.79,0.179847,0.01,28.2677,312.05,-289.226,289.211,-583.04,-5.44912e-09,5.44896e-09,-1.09848e-08,650.825,-650.84,-5.08243e-09,1.2262e-08,-1.22621e-08,-9.57536e-20
0.499975,-0.79,0.185113,0.01,31.4709,312.05,-275.425,275.409,-581.539,-5.18909e-09,5.18893e-09,-1.09565e-08,643.453,-643.469,2.93839e-07,1.21231e-08,-1.21233e-08,5.5361e-18
0.509975,-0.79,0.190373,0.01,34.7015,312.05,-261.903,261.887,-579.697,-4.93433e-09,4.93417e-09,-1.09218e-08,636.103,-636.12,5.43932e-07,1.19846e-08,-1.19848e-08,1.0248e-17
0.519975,-0.79,0.196003,0.01,37.9584,312.05,-248.666,248.65,-577.531,-4.68495e-09,4.68478e-09,-1.0881e-08,628.778,-628.795,7.48499e-07,1.18466e-08,-1.18468e-08,1.41022e-17
0.529975,-0.79,0.201485,0.01,41.2402,312.05,-235.72,235.703,-575.058,-4.44102e-09,4.44085e-09,-1.08344e-08,621.483,-621.5,9.12293e-07,1.17092e-08,-1.17093e-08,1.71881e-17
0.539975,-0.79,0.206975,0.01,44.5455,312.05,-223.066,223.049,-572.297,-4.20262e-09,4.20245e-09,-1.07824e-08,614.221,-614.238,1.03954e-06,1.15724e-08,-1.15725e-08,1.95856e-17
0.549975,-0.79,0.212794,0.01,47.8731,312.05,-210.709,210.692,-569.262,-3.9698e-09,3.96963e-09,-1.07252e-08,606.996,-607.013,1.13364e-06,1.14362e-08,-1.14364e-08,2.13585e-17
0.559975,-0.79,0.218537,0.01,51.2218,312.05,-198.898,198.395,-566.44,-3.74517e-09,3.74006e-09,-1.06721e-08,600.01,-600.513,0.149913,1.13067e-08,-1.13118e-08,2.82445e-12
0.569975,-0.79,0.224219,0.01,54.5904,312.05,-188.742,186.74,-564.101,-3.5473e-09,3.52699e-09,-1.0628e-08,593.522,-595.523,-0.291624,1.1191e-08,-1.12113e-08,-5.49436e-12
0.579975,-0.79,0.230195,0.01,57.9777,312.05,-177.836,174.868,-561.081,-3.33763e-09,3.30752e-09,-1.05711e-08,586.659,-589.627,-0.169734,1.10659e-08,-1.1096e-08,-3.19789e-12
0.589975,-0.79,0.236237,0.01,61.3825,312.05,-167.213,162.671,-560.321,-3.13064e-09,3.08456e-09,-1.05568e-08,581.822,-586.364,0.938981,1.09816e-08,-1.10277e-08,1.76909e-11
0.599975,-0.79,0.242081,0.01,64.8037,312.05,-160.375,153.416,-558.802,-2.99131e-09,2.9207e-09,-1.05282e-08,576.93,-583.889,-1.15298,1.08999e-08,-1.09705e-08,-2.17228e-11
-0.610025,-0.78,0.240486,0.01,63.7903,304.2,-147.225,132.617,566.481,-2.71029e-09,2.5621e-09,1.06728e-08,576.202,-590.809,-0.701648,1.09195e-08,-1.10677e-08,-1.32195e-11
-0.600025,-0.78,0.234173,0.01,60.2983,304.2,-154.449,147.388,566.856,-2.87921e-09,2.80758e-09,1.06799e-08,583.072,-590.133,0.491084,1.10161e-08,-1.10877e-08,9.25231e-12
-0.590025,-0.78,0.228125,0.01,56.8212,304.2,-161.981,159.264,568.17,-3.04e-09,3.01244e-09,1.07046e-08,589.079,-591.796,-0.0364346,1.11104e-08,-1.1138e-08,-6.8645e-13
-0.580025,-0.78,0.222361,0.01,53.3601,304.2,-171.52,171.07,570.555,-3.22958e-09,3.22502e-09,1.07496e-08,595.489,-595.939,-0.19051,1.12213e-08,-1.12259e-08,-3.58933e-12
-0.570025,-0.78,0.216205,0.01,49.9161,304.2,-183.042,183.018,574.147,-3.44852e-09,3.44828e-09,1.08173e-08,602.603,-602.627,0.00337495,1.13535e-08,-1.13537e-08,6.35861e-14
-0.560025,-0.78,0.210304,0.01,46.4904,304.2,-195.025,195.007,577.983,-3.6743e-09,3.67412e-09,1.08895e-08,609.987,-610.005,-1.32536e-06,1.14926e-08,-1.14928e-08,-2.49706e-17
-0.550025,-0.78,0.204722,0.01,43.0842,304.2,-207.331,207.312,581.582,-3.90615e-09,3.90597e-09,1.09573e-08,617.421,-617.439,-1.27585e-06,1.16326e-08,-1.16328e-08,-2.40378e-17
-0.540025,-0.78,0.19884,0.01,39.6988,304.2,-219.951,219.933,584.923,-4.14393e-09,4.14375e-09,1.10203e-08,624.899,-624.917,-1.1963e-06,1.17735e-08,-1.17737e-08,-2.25389e-17
-0.530025,-0.78,0.193116,0.01,36.3353,304.2,-232.885,232.867,587.99,-4.38761e-09,4.38743e-09,1.10781e-08,632.418,-632.435,-1.08275e-06,1.19152e-08,-1.19154e-08,-2.03996e-17
-0.520025,-0.78,0.187751,0.01,32.9952,304.2,-246.13,246.112,590.764,-4.63716e-09,4.63698e-09,1.11303e-08,639.974,-639.992,-9.31401e-07,1.20576e-08,-1.20577e-08,-1.75481e-17
-0.510025,-0.78,0.182099,0.01,29.6796,304.2,-259.682,259.665,593.229,-4.89249e-09,4.89232e-09,1.11768e-08,647.564,-647.582,-7.37508e-07,1.22006e-08,-1.22007e-08,-1.38951e-17
-0.500025,-0.78,0.176589,0.01,26.3901,304.2,-273.538,273.521,595.364,-5.15355e-09,5.15337e-09,1.1217e-08,655.184,-655.201,-4.96821e-07,1.23441e-08,-1.23443e-08,-9.36039e-18
-0.490025,-0.78,0.171486,0.01,23.1278,304.2,-287.692,287.676,597.153,-5.42022e-09,5.42005e-09,1.12507e-08,662.829,-662.846,-2.05136e-07,1.24882e-08,-1.24883e-08,-3.86489e-18
-0.480025,-0.78,0.166012,0.01,19.8944,304.2,-302.138,302.122,598.574,-5.69239e-09,5.69222e-09,1.12775e-08,670.494,-670.511,1.42198e-07,1.26326e-08,-1.26327e-08,2.6791e-18
-0.470025,-0.78,0.160764,0.01,16.6912,304.2,-316.869,316.853,599.61,-5.96993e-09,5.96977e-09,1.1297e-08,678.176,-678.192,5.49247e-07,1.27773e-08,-1.27775e-08,1.03481e-17
-0.460025,-0.78,0.155981,0.01,13.5196,304.2,-331.876,331.861,600.24,-6.25267e-09,6.25252e-09,1.13089e-08,685.868,-685.883,1.02088e-06,1.29222e-08,-1.29224e-08,1.92341e-17
-0.450025,-0.78,0.150617,0.01,10.3813,304.2,-347.15,347.135,600.446,-6.54044e-09,6.54029e-09,1.13127e-08,693.565,-693.58,1.56091e-06,1.30672e-08,-1.30674e-08,2.94084e-17
-0.440025,-0.78,0.145694,0.01,7.27765,304.2,-362.68,362.665,600.206,-6.83303e-09,6.83289e-09,1.13082e-08,701.263,-701.277,2.17265e-06,1.32123e-08,-1.32124e-08,4.09339e-17
-0.430025,-0.78,0.141056,0.01,4.21029,304.2,-378.453,378.44,599.503,-7.13022e-09,7.13008e-09,1.1295e-08,708.954,-708.967,2.8594e-06,1.33572e-08,-1.33573e-08,5.38728e-17
-0.420025,-0.78,0.135973,0.01,1.18077,304.2,-394.457,394.445,598.315,-7.43175e-09,7.43162e-09,1.12726e-08,716.633,-716.646,3.62429e-06,1.35018e-08,-1.3502e-08,6.82837e-17
-0.410025,-0.78,0.131455,0.01,-1.8093,304.2,-410.677,410.665,596.623,-7.73734e-09,7.73722e-09,1.12407e-08,724.294,-724.306,4.46984e-06,1.36462e-08,-1.36463e-08,8.42144e-17
-0.400025,-0.78,0.126826,0.01,-4.7583,304.2,-427.096,427.086,594.409,-8.04669e-09,8.04659e-09,1.1199e-08,731.93,-731.94,5.39628e-06,1.379e-08,-1.37901e-08,1.01669e-16
-0.390025,-0.78,0.122158,0.01,-7.6646,304.2,-443.698,443.688,591.654,-8.35948e-09,8.35939e-09,1.11471e-08,739.534,-739.543,6.40408e-06,1.39333e-08,-1.39334e-08,1.20657e-16
-0.380025,-0.78,0.118152,0.01,-10.5265,304.2,-460.463,460.454,588.338,-8.67535e-09,8.67526e-09,1.10846e-08,747.099,-747.107,7.49333e-06,1.40758e-08,-1.40759e-08,1.41179e-16
-0.370025,-0.78,0.113423,0.01,-13.3424,304.2,-477.37,477.363,584.444,-8.9939e-09,8.99383e-09,1.10113e-08,754.618,-754.625,8.66178e-06,1.42175e-08,-1.42175e-08,1.63193e-16
-0.360025,-0.78,0.109285,0.01,-16.1105,304.2,-494.399,494.394,579.955,-9.31474e-09,9.31469e-09,1.09267e-08,762.084,-762.089,9.90718e-06,1.43581e-08,-1.43582e-08,1.86657e-16
-0.350025,-0.78,0.105259,0.01,-18.8292,304.2,-511.526,511.522,574.855,-9.63743e-09,9.63739e-09,1.08306e-08,769.488,-769.492,1.12242e-05,1.44976e-08,-1.44977e-08,2.11471e-16
-0.340025,-0.78,0.100966,0.01,-21.4968,304.2,-528.726,528.723,569.127,-9.96149e-09,9.96147e-09,1.07227e-08,776.822,-776.825,1.26069e-05,1.46358e-08,-1.46358e-08,2.37521e-16
-0.330025,-0.78,0.0975138,0.01,-24.1114,304.2,-545.973,545.972,562.757,-1.02864e-08,1.02864e-08,1.06027e-08,784.08,-784.081,1.40491e-05,1.47725e-08,-1.47725e-08,2.64692e-16
-0.320025,-0.78,0.0932024,0.01,-26.6715,304.2,-563.24,563.241,555.732,-1.06118e-08,1.06118e-08,1.04703e-08,791.251,-791.25,1.554e-05,1.49076e-08,-1.49076e-08,2.92783e-16
-0.310025,-0.78,0.0896302,0.01,-29.1753,304.2,-580.498,580.5,548.039,-1.09369e-08,1.09369e-08,1.03254e-08,798.328,-798.326,1.70697e-05,1.5041e-08,-1.50409e-08,3.21604e-16
-0.300025,-0.78,0.0859996,0.01,-31.621,304.2,-597.716,597.721,539.667,-1.12613e-08,1.12614e-08,1.01676e-08,805.302,-805.298,1.86283e-05,1.51723e-08,-1.51723e-08,3.50967e-16
-0.290025,-0.78,0.0822857,0.01,-34.0069,304.2,-614.864,614.87,530.608,-1.15844e-08,1.15845e-08,9.99695e-09,812.164,-812.159,2.01955e-05,1.53016e-08,-1.53016e-08,3.80494e-16
-0.280025,-0.78,0.0793633,0.01,-36.3313,304.2,-631.909,631.917,520.852,-1.19056e-08,1.19057e-08,9.81315e-09,818.906,-818.898,2.17548e-05,1.54286e-08,-1.54286e-08,4.09874e-16
-0.270025,-0.78,0.0754845,0.01,-38.5926,304.2,-648.818,648.827,510.394,-1.22241e-08,1.22242e-08,9.61612e-09,825.519,-825.509,2.33526e-05,1.55532e-08,-1.55531e-08,4.39976e-16
-0.260025,-0.78,0.0727824,0.01,-40.789,304.2,-665.555,665.566,499.23,-1.25395e-08,1.25396e-08,9.40578e-09,831.992,-831.98,2.46377e-05,1.56752e-08,-1.5675e-08,4.64189e-16
-0.250025,-0.78,0.0692308,0.01,-42.9188,304.2,-682.085,682.099,487.357,-1.28509e-08,1.28511e-08,9.18209e-09,838.318,-838.304,2.67855e-05,1.57943e-08,-1.57942e-08,5.04654e-16
-0.240025,-0.78,0.0664317,0.01,-44.9804,304.2,-698.372,698.388,474.775,-1.31578e-08,1.3158e-08,8.94504e-09,844.488,-844.472,2.63454e-05,1.59106e-08,-1.59104e-08,4.96363e-16
-0.230025,-0.78,0.0635282,0.01,-46.9722,304.2,-714.379,714.397,461.486,-1.34594e-08,1.34596e-08,8.69466e-09,850.491,-850.473,3.15286e-05,1.60237e-08,-1.60235e-08,5.94018e-16
-0.220025,-0.78,0.0606118,0.01,-48.8925,304.2,-730.069,730.089,447.494,-1.3755e-08,1.37552e-08,8.43104e-09,856.32,-856.299,2.57572e-05,1.61335e-08,-1.61333e-08,4.85281e-16
-0.210025,-0.78,0.0583793,0.01,-50.7398,304.2,-745.404,745.427,432.804,-1.40439e-08,1.40442e-08,8.15428e-09,861.965,-861.942,3.54968e-05,1.62398e-08,-1.62396e-08,6.6878e-16
-0.200025,-0.78,0.0553251,0.01,-52.5126,304.2,-760.346,760.371,417.427,-1.43255e-08,1.43257e-08,7.86456e-09,867.417,-867.392,3.4495e-05,1.63425e-08,-1.63423e-08,6.49906e-16
-0.190025,-0.78,0.0537853,0.01,-54.2094,304.2,-774.857,774.884,401.373,-1.45989e-08,1.45991e-08,7.56209e-09,872.667,-872.64,1.52383e-06,1.64414e-08,-1.64412e-08,2.87099e-17
-0.180025,-0.78,0.0505735,0.01,-55.8287,304.2,-788.9,788.929,384.655,-1.48635e-08,1.48638e-08,7.24712e-09,877.708,-877.679,0.000143364,1.65364e-08,-1.65361e-08,2.70106e-15
-0.170025,-0.78,0.049219,0.01,-57.3691,304.2,-802.435,802.467,367.29,-1.51185e-08,1.51188e-08,6.91995e-09,882.529,-882.497,-0.000262879,1.66272e-08,-1.66269e-08,-4.95279e-15
-0.160025,-0.78,0.0463587,0.01,-58.8292,304.2,-815.432,815.464,349.296,-1.53633e-08,1.53637e-08,6.58094e-09,887.125,-887.093,0.000714677,1.67138e-08,-1.67135e-08,1.34649e-14
-0.150025,-0.78,0.0449852,0.01,-60.2078,304.2,-827.84,827.878,330.696,-1.55972e-08,1.55975e-08,6.2305e-09,891.484,-891.446,-0.00137232,1.67959e-08,-1.67955e-08,-2.58553e-14
-0.140025,-0.78,0.0426812,0.01,-61.5036,304.2,-839.652,839.684,311.509,-1.58197e-08,1.582e-08,5.86901e-09,895.605,-895.573,0.00270456,1.68736e-08,-1.68733e-08,5.09555e-14
-0.130025,-0.78,0.0412775,0.01,-62.7155,304.2,-850.783,850.83,291.769,-1.60294e-08,1.60299e-08,5.4971e-09,899.468,-899.421,-0.00464382,1.69463e-08,-1.69458e-08,-8.74923e-14
-0.120025,-0.78,0.0395405,0.01,-63.8423,304.2,-861.29,861.316,271.492,-1.62273e-08,1.62276e-08,5.11506e-09,903.092,-903.065,0.00781514,1.70147e-08,-1.70144e-08,1.47242e-13
-0.110025,-0.78,0.0380968,0.01,-64.883,304.2,-870.987,871.052,250.729,-1.64102e-08,1.64108e-08,4.72387e-09,906.421,-906.356,-0.0118135,1.70772e-08,-1.70766e-08,-2.22573e-13
-0.100025,-0.78,0.0369345,0.01,-65.8366,304.2,-880.101,880.109,229.48,-1.65817e-08,1.65817e-08,4.32353e-09,909.535,-909.527,0.0177804,1.71361e-08,-1.7136e-08,3.34994e-13
-0.0900249,-0.78,0.0354443,0.01,-66.7021,304.2,-888.177,888.289,207.818,-1.67343e-08,1.67354e-08,3.91542e-09,912.277,-912.165,-0.0163052,1.71873e-08,-1.71862e-08,-3.07199e-13
-0.0800249,-0.78,0.0348594,0.01,-67.4789,304.2,-895.104,895.575,185.74,-1.68663e-08,1.68711e-08,3.49944e-09,914.638,-914.167,-0.067411,1.72303e-08,-1.72255e-08,-1.27006e-12
-0.0700249,-0.78,0.0333208,0.01,-68.1661,304.2,-901.743,902.186,163.351,-1.69913e-08,1.69958e-08,3.07763e-09,916.858,-916.416,-0.0854775,1.72722e-08,-1.72677e-08,-1.61044e-12
-0.0600249,-0.78,0.03331,0.01,-68.763,304.2,-907.502,908.003,140.592,-1.71e-08,1.71051e-08,2.64884e-09,918.826,-918.325,-0.047104,1.7309e-08,-1.73039e-08,-8.87468e-13
-0.0500249,-0.78,0.0317273,0.01,-69.2691,304.2,-912.459,912.895,117.622,-1.71931e-08,1.71976e-08,2.21607e-09,920.443,-920.007,-0.070202,1.73398e-08,-1.73354e-08,-1.32265e-12
-0.0400249,-0.78,0.0322798,0.01,-69.684,304.2,-916.479,917.006,94.3584,-1.72693e-08,1.72746e-08,1.77777e-09,921.849,-921.323,-0.0265338,1.73659e-08,-1.73605e-08,-4.99911e-13
-0.0300249,-0.78,0.0306645,0.01,-70.0071,304.2,-919.684,920.11,70.9728,-1.73292e-08,1.73336e-08,1.33717e-09,922.844,-922.418,-0.0476008,1.73851e-08,-1.73807e-08,-8.96827e-13
-0.0200249,-0.78,0.0317622,0.01,-70.2382,304.2,-921.916,922.461,47.3929,-1.73718e-08,1.73773e-08,8.92909e-10,923.678,-923.133,-0.0111153,1.74003e-08,-1.73947e-08,-2.09419e-13
-0.0100249,-0.78,0.0301329,0.01,-70.377,304.2,-923.324,923.741,23.7602,-1.73978e-08,1.7402e-08,4.47656e-10,924.047,-923.63,-0.0170427,1.74078e-08,-1.74035e-08,-3.21094e-13
-2.48653e-05,-0.78,0.0317356,0.01,-70.4235,304.2,-923.74,924.291,0.0589566,-1.74062e-08,1.74118e-08,1.11078e-12,924.291,-923.74,-4.39847e-05,1.74118e-08,-1.74062e-08,-8.28697e-16
0.00997513,-0.78,0.0301329,0.01,-70.3775,304.2,-923.329,923.746,-23.6425,-1.73979e-08,1.74021e-08,-4.45438e-10,924.048,-923.631,0.0170411,1.74078e-08,-1.74036e-08,3.21064e-13
0.0199751,-0.78,0.0317465,0.01,-70.2391,304.2,-921.925,922.47,-47.2754,-1.7372e-08,1.73775e-08,-8.90696e-10,923.681,-923.136,0.0110329,1.74003e-08,-1.73948e-08,2.07865e-13
0.0299751,-0.78,0.0306644,0.01,-70.0085,304.2,-919.698,920.123,-70.856,-1.73295e-08,1.73338e-08,-1.33497e-09,922.848,-922.423,0.0475818,1.73851e-08,-1.73808e-08,8.96469e-13
0.0399751,-0.78,0.0322643,0.01,-69.6858,304.2,-916.497,917.024,-94.2423,-1.72696e-08,1.7275e-08,-1.77558e-09,921.855,-921.329,0.0264676,1.7366e-08,-1.73607e-08,4.98665e-13
0.0499751,-0.78,0.0317271,0.01,-69.2714,304.2,-912.481,912.918,-117.507,-1.71936e-08,1.7198e-08,-2.21391e-09,920.451,-920.014,0.0701585,1.73399e-08,-1.73355e-08,1.32183e-12
0.0599751,-0.78,0.0332949,0.01,-68.7657,304.2,-907.528,908.03,-140.478,-1.71005e-08,1.71056e-08,-2.64669e-09,918.835,-918.334,0.0470608,1.73092e-08,-1.73041e-08,8.86653e-13
0.0699751,-0.78,0.0333205,0.01,-68.1693,304.2,-901.774,902.217,-163.239,-1.69919e-08,1.69964e-08,-3.07552e-09,916.869,-916.426,0.0854161,1.72724e-08,-1.72679e-08,1.60929e-12
0.0799751,-0.78,0.0348448,0.01,-67.4825,304.2,-895.139,895.61,-185.629,-1.6867e-08,1.68718e-08,-3.49736e-09,914.65,-914.179,0.0673864,1.72305e-08,-1.72257e-08,1.2696e-12
0.0899751,-0.78,0.0354438,0.01,-66.7062,304.2,-888.216,888.328,-207.71,-1.6735e-08,1.67361e-08,-3.91337e-09,912.29,-912.178,0.0162795,1.71876e-08,-1.71864e-08,3.06715e-13
0.0999751,-0.78,0.0369205,0.01,-65.8411,304.2,-880.144,880.152,-229.373,-1.65825e-08,1.65825e-08,-4.32152e-09,909.549,-909.542,-0.0177514,1.71364e-08,-1.71363e-08,-3.34446e-13
0.109975,-0.78,0.0380961,0.01,-64.8879,304.2,-871.034,871.099,-250.624,-1.64111e-08,1.64117e-08,-4.7219e-09,906.437,-906.372,0.0117849,1.70775e-08,-1.70769e-08,2.22034e-13
0.119975,-0.78,0.0395272,0.01,-63.8477,304.2,-861.34,861.366,-271.39,-1.62283e-08,1.62285e-08,-5.11314e-09,903.109,-903.082,-0.00778744,1.7015e-08,-1.70147e-08,-1.4672e-13
0.129975,-0.78,0.0412764,0.01,-62.7213,304.2,-850.836,850.884,-291.669,-1.60305e-08,1.60309e-08,-5.49522e-09,899.487,-899.44,0.00462111,1.69467e-08,-1.69462e-08,8.70644e-14
0.139975,-0.78,0.0426685,0.01,-61.5099,304.2,-839.709,839.741,-311.412,-1.58207e-08,1.58211e-08,-5.86719e-09,895.625,-895.593,-0.0026866,1.6874e-08,-1.68736e-08,-5.06171e-14
0.149975,-0.78,0.0449838,0.01,-60.2145,304.2,-827.901,827.939,-330.602,-1.55983e-08,1.55987e-08,-6.22873e-09,891.505,-891.468,0.00135958,1.67963e-08,-1.67959e-08,2.56153e-14
0.159975,-0.78,0.0463466,0.01,-58.8363,304.2,-815.495,815.527,-349.205,-1.53645e-08,1.53649e-08,-6.57922e-09,887.147,-887.115,-0.00070613,1.67142e-08,-1.67139e-08,-1.33039e-14
0.169975,-0.78,0.0492172,0.01,-57.3765,304.2,-802.501,802.533,-367.202,-1.51197e-08,1.51201e-08,-6.9183e-09,882.553,-882.521,0.0002576,1.66277e-08,-1.66273e-08,4.85334e-15
0.179975,-0.78,0.050562,0.01,-55.8365,304.2,-788.969,788.997,-384.57,-1.48648e-08,1.4865e-08,-7.24552e-09,877.732,-877.703,-0.00014032,1.65369e-08,-1.65366e-08,-2.64371e-15
0.189975,-0.78,0.0537652,0.01,-54.2176,304.2,-774.928,774.955,-401.291,-1.46002e-08,1.46005e-08,-7.56056e-09,872.693,-872.666,-3.15436e-06,1.64419e-08,-1.64416e-08,-5.943e-17
0.199975,-0.78,0.055314,0.01,-52.5212,304.2,-760.419,760.444,-417.349,-1.43268e-08,1.43271e-08,-7.86309e-09,867.443,-867.419,-3.36928e-05,1.6343e-08,-1.63428e-08,-6.34792e-16
0.209975,-0.78,0.0583602,0.01,-50.7488,304.2,-745.479,745.502,-432.73,-1.40454e-08,1.40456e-08,-8.15287e-09,861.992,-861.97,-3.58669e-05,1.62403e-08,-1.62401e-08,-6.75754e-16
0.219975,-0.78,0.0606011,0.01,-48.9019,304.2,-730.146,730.167,-447.422,-1.37565e-08,1.37567e-08,-8.42969e-09,856.348,-856.328,-2.56118e-05,1.6134e-08,-1.61338e-08,-4.82541e-16
0.229975,-0.78,0.0635101,0.01,-46.9819,304.2,-714.458,714.476,-461.418,-1.34609e-08,1.34611e-08,-8.69338e-09,850.521,-850.502,-3.15899e-05,1.60242e-08,-1.6024e-08,-5.95172e-16
0.239975,-0.78,0.0664212,0.01,-44.9905,304.2,-698.452,698.468,-474.711,-1.31593e-08,1.31595e-08,-8.94383e-09,844.518,-844.502,-2.63346e-05,1.59111e-08,-1.5911e-08,-4.9616e-16
0.249975,-0.78,0.0692136,0.01,-42.9292,304.2,-682.166,682.18,-487.296,-1.28525e-08,1.28526e-08,-9.18094e-09,838.349,-838.335,-2.67965e-05,1.57949e-08,-1.57948e-08,-5.04862e-16
0.259975,-0.78,0.0727722,0.01,-40.7997,304.2,-665.637,665.649,-499.173,-1.2541e-08,1.25412e-08,-9.4047e-09,832.024,-832.012,-2.46443e-05,1.56758e-08,-1.56756e-08,-4.64313e-16
0.269975,-0.78,0.075468,0.01,-38.6037,304.2,-648.901,648.911,-510.34,-1.22257e-08,1.22258e-08,-9.61511e-09,825.551,-825.541,-2.33605e-05,1.55538e-08,-1.55537e-08,-4.40126e-16
0.279975,-0.78,0.0793414,0.01,-36.3427,304.2,-631.994,632.002,-520.802,-1.19072e-08,1.19072e-08,-9.8122e-09,818.939,-818.932,-2.17634e-05,1.54293e-08,-1.54292e-08,-4.10034e-16
0.289975,-0.78,0.0822698,0.01,-34.0186,304.2,-614.95,614.955,-530.561,-1.1586e-08,1.15861e-08,-9.99607e-09,812.198,-812.192,-2.02033e-05,1.53023e-08,-1.53022e-08,-3.80642e-16
0.299975,-0.78,0.0859787,0.01,-31.633,304.2,-597.802,597.806,-539.624,-1.1263e-08,1.1263e-08,-1.01668e-08,805.336,-805.332,-1.86359e-05,1.5173e-08,-1.51729e-08,-3.51112e-16
0.309975,-0.78,0.0896149,0.01,-29.1876,304.2,-580.584,580.586,-547.999,-1.09385e-08,1.09386e-08,-1.03246e-08,798.363,-798.361,-1.70777e-05,1.50416e-08,-1.50416e-08,-3.21753e-16
0.319975,-0.78,0.0931823,0.01,-26.6841,304.2,-563.326,563.327,-555.695,-1.06134e-08,1.06134e-08,-1.04696e-08,791.286,-791.286,-1.55477e-05,1.49083e-08,-1.49083e-08,-2.92927e-16
0.329975,-0.78,0.0974989,0.01,-24.1243,304.2,-546.059,546.058,-562.724,-1.02881e-08,1.02881e-08,-1.0602e-08,784.115,-784.117,-1.4056e-05,1.47732e-08,-1.47732e-08,-2.64823e-16
0.339975,-0.78,0.100947,0.01,-21.5099,304.2,-528.812,528.809,-569.097,-9.96311e-09,9.96308e-09,-1.07221e-08,776.859,-776.861,-1.26139e-05,1.46365e-08,-1.46365e-08,-2.37653e-16
0.349975,-0.78,0.105235,0.01,-18.8426,304.2,-511.611,511.607,-574.828,-9.63904e-09,9.63899e-09,-1.08301e-08,769.524,-769.529,-1.12309e-05,1.44983e-08,-1.44983e-08,-2.11597e-16
0.359975,-0.78,0.109266,0.01,-16.1242,304.2,-494.484,494.479,-579.931,-9.31634e-09,9.31629e-09,-1.09262e-08,762.121,-762.126,-9.91359e-06,1.43588e-08,-1.43589e-08,-1.86778e-16
0.369975,-0.78,0.113401,0.01,-13.3563,304.2,-477.455,477.448,-584.423,-8.99549e-09,8.99542e-09,-1.10109e-08,754.656,-754.663,-8.66788e-06,1.42182e-08,-1.42183e-08,-1.63308e-16
0.379975,-0.78,0.118134,0.01,-10.5406,304.2,-460.546,460.538,-588.32,-8.67692e-09,8.67684e-09,-1.10843e-08,747.137,-747.145,-7.49897e-06,1.40765e-08,-1.40766e-08,-1.41285e-16
0.389975,-0.78,0.122136,0.01,-7.67894,304.2,-443.781,443.771,-591.639,-8.36105e-09,8.36095e-09,-1.11468e-08,739.572,-739.581,-6.40956e-06,1.3934e-08,-1.39341e-08,-1.2076e-16
0.399975,-0.78,0.126802,0.01,-4.77286,304.2,-427.178,427.168,-594.397,-8.04824e-09,8.04814e-09,-1.11988e-08,731.968,-731.978,-5.40078e-06,1.37907e-08,-1.37909e-08,-1.01754e-16
0.409975,-0.78,0.131434,0.01,-1.82407,304.2,-410.758,410.746,-596.614,-7.73887e-09,7.73875e-09,-1.12405e-08,724.332,-724.344,-4.47413e-06,1.36469e-08,-1.3647e-08,-8.42953e-17
0.419975,-0.78,0.135949,0.01,1.1658,304.2,-394.537,394.525,-598.308,-7.43325e-09,7.43313e-09,-1.12725e-08,716.671,-716.684,-3.62899e-06,1.35026e-08,-1.35027e-08,-6.83723e-17
0.429975,-0.78,0.141029,0.01,4.19513,304.2,-378.532,378.519,-599.498,-7.13171e-09,7.13157e-09,-1.12949e-08,708.992,-709.005,-2.86335e-06,1.33579e-08,-1.3358e-08,-5.39472e-17
0.439975,-0.78,0.145671,0.01,7.26231,304.2,-362.757,362.743,-600.204,-6.8345e-09,6.83436e-09,-1.13082e-08,701.301,-701.315,-2.17587e-06,1.3213e-08,-1.32131e-08,-4.09947e-17
0.449975,-0.78,0.150591,0.01,10.3658,304.2,-347.226,347.212,-600.446,-6.54188e-09,6.54173e-09,-1.13127e-08,693.604,-693.618,-1.56386e-06,1.3068e-08,-1.30681e-08,-2.9464e-17
0.459975,-0.78,0.155959,0.01,13.5039,304.2,-331.951,331.936,-600.242,-6.25409e-09,6.25393e-09,-1.13089e-08,685.906,-685.921,-1.02374e-06,1.29229e-08,-1.29231e-08,-1.92878e-17
0.469975,-0.78,0.160739,0.01,16.6753,304.2,-316.943,316.927,-599.614,-5.97132e-09,5.97116e-09,-1.12971e-08,678.214,-678.23,-5.51722e-07,1.2778e-08,-1.27782e-08,-1.03948e-17
0.479975,-0.78,0.165984,0.01,19.8784,304.2,-302.211,302.195,-598.58,-5.69376e-09,5.69359e-09,-1.12776e-08,670.533,-670.549,-1.43919e-07,1.26333e-08,-1.26335e-08,-2.71151e-18
0.489975,-0.78,0.171462,0.01,23.1117,304.2,-287.763,287.747,-597.161,-5.42156e-09,5.42139e-09,-1.12509e-08,662.867,-662.884,2.0356e-07,1.24889e-08,-1.2489e-08,3.83518e-18
0.499975,-0.78,0.176563,0.01,26.3738,304.2,-273.608,273.591,-595.374,-5.15486e-09,5.15468e-09,-1.12172e-08,655.222,-655.239,4.95694e-07,1.23448e-08,-1.2345e-08,9.33917e-18
0.509975,-0.78,0.182071,0.01,29.6632,304.2,-259.751,259.733,-593.24,-4.89378e-09,4.8936e-09,-1.1177e-08,647.602,-647.62,7.36726e-07,1.22013e-08,-1.22015e-08,1.38804e-17
0.519975,-0.78,0.187725,0.01,32.9786,304.2,-246.197,246.179,-590.777,-4.63841e-09,4.63823e-09,-1.11306e-08,640.012,-640.029,9.30646e-07,1.20583e-08,-1.20584e-08,1.75339e-17
0.529975,-0.78,0.193089,0.01,36.3187,304.2,-232.95,232.932,-588.004,-4.38884e-09,4.38866e-09,-1.10783e-08,632.455,-632.473,1.08217e-06,1.19159e-08,-1.19161e-08,2.03887e-17
0.539975,-0.78,0.198811,0.01,39.682,304.2,-220.015,219.997,-584.939,-4.14513e-09,4.14495e-09,-1.10206e-08,624.936,-624.954,1.19597e-06,1.17742e-08,-1.17744e-08,2.25329e-17
0.549975,-0.78,0.204695,0.01,43.0673,304.2,-207.393,207.374,-581.599,-3.90732e-09,3.90713e-09,-1.09577e-08,617.458,-617.476,1.27588e-06,1.16333e-08,-1.16335e-08,2.40384e-17
0.559975,-0.78,0.210276,0.01,46.4734,304.2,-195.085,195.067,-578.001,-3.67544e-09,3.67526e-09,-1.08899e-08,610.024,-610.042,1.32537e-06,1.14933e-08,-1.14935e-08,2.49707e-17
0.569975,-0.78,0.216175,0.01,49.899,304.2,-183.101,183.077,-574.167,-3.44962e-09,3.44938e-09,-1.08176e-08,602.64,-602.663,-0.00337545,1.13542e-08,-1.13544e-08,-6.35955e-14
0.579975,-0.78,0.222333,0.01,53.3429,304.2,-171.577,171.127,-570.576,-3.23066e-09,3.2261e-09,-1.075e-08,595.525,-595.975,0.190531,1.1222e-08,-1.12266e-08,3.58972e-12
0.589975,-0.78,0.228095,0.01,56.8039,304.2,-162.037,159.32,-568.192,-3.04105e-09,3.01349e-09,-1.07051e-08,589.116,-591.832,0.0364317,1.11111e-08,-1.11386e-08,6.86394e-13
0.599975,-0.78,0.234143,0.01,60.281,304.2,-154.504,147.443,-566.879,-2.88025e-09,2.80861e-09,-1.06803e-08,583.108,-590.169,-0.491293,1.10168e-08,-1.10884e-08,-9.25625e-12
0.609975,-0.78,0.240454,0.01,63.7729,304.2,-147.279,132.671,-566.505,-2.71131e-09,2.56311e-09,-1.06733e-08,576.237,-590.846,0.701431,1.09202e-08,-1.10684e-08,1.32154e-11
-0.630025,-0.77,0.24504,0.01,66.4453,296.45,-113.723,110.778,565.683,-2.1298e-09,2.09993e-09,1.06578e-08,575.237,-578.181,-1.96641,1.08506e-08,-1.08805e-08,-3.70484e-11
-0.620025,-0.77,0.238668,0.01,62.8712,296.45,-128.72,119.973,569.495,-2.38712e-09,2.29839e-09,1.07296e-08,578.539,-587.285,0.00880298,1.0938e-08,-1.10268e-08,1.65853e-13
-0.610025,-0.77,0.232552,0.01,59.3094,296.45,-138.786,130.978,573.267,-2.58087e-09,2.50166e-09,1.08007e-08,585.017,-592.825,0.15927,1.1056e-08,-1.11352e-08,3.00074e-12
-0.600025,-0.77,0.226399,0.01,55.7609,296.45,-146.14,143.129,574.79,-2.74027e-09,2.70972e-09,1.08294e-08,591.203,-594.214,-0.214037,1.11517e-08,-1.11822e-08,-4.03258e-12
-0.590025,-0.77,0.220137,0.01,52.2269,296.45,-155.731,155.205,577.595,-2.93177e-09,2.92643e-09,1.08822e-08,597.889,-598.415,-0.121637,1.12669e-08,-1.12722e-08,-2.29171e-12
-0.580025,-0.77,0.214159,0.01,48.7084,296.45,-167.03,167.011,581.701,-3.14687e-09,3.14667e-09,1.09596e-08,605.195,-605.214,-1.44357e-06,1.14023e-08,-1.14025e-08,-2.71976e-17
-0.570025,-0.77,0.208332,0.01,45.2066,296.45,-178.921,178.901,586.088,-3.37088e-09,3.37069e-09,1.10422e-08,612.778,-612.797,-1.45963e-06,1.15452e-08,-1.15454e-08,-2.75003e-17
-0.560025,-0.77,0.202202,0.01,41.7227,296.45,-191.143,191.124,590.251,-3.60116e-09,3.60097e-09,1.11207e-08,620.417,-620.436,-1.45298e-06,1.16891e-08,-1.16893e-08,-2.7375e-17
-0.550025,-0.77,0.196389,0.01,38.258,296.45,-203.698,203.679,594.174,-3.8377e-09,3.83751e-09,1.11946e-08,628.108,-628.127,-1.41993e-06,1.1834e-08,-1.18342e-08,-2.67523e-17
-0.540025,-0.77,0.190852,0.01,34.8136,296.45,-216.585,216.566,597.838,-4.08051e-09,4.08031e-09,1.12636e-08,635.849,-635.868,-1.35654e-06,1.19798e-08,-1.198e-08,-2.55579e-17
-0.530025,-0.77,0.184881,0.01,31.3908,296.45,-229.804,229.785,601.226,-4.32955e-09,4.32936e-09,1.13275e-08,643.635,-643.654,-1.25859e-06,1.21265e-08,-1.21267e-08,-2.37126e-17
-0.520025,-0.77,0.179269,0.01,27.991,296.45,-243.351,243.332,604.319,-4.58479e-09,4.5846e-09,1.13857e-08,651.464,-651.482,-1.12197e-06,1.2274e-08,-1.22742e-08,-2.11386e-17
-0.510025,-0.77,0.173977,0.01,24.6156,296.45,-257.225,257.206,607.099,-4.84619e-09,4.846e-09,1.14381e-08,659.331,-659.349,-9.40999e-07,1.24222e-08,-1.24224e-08,-1.7729e-17
-0.500025,-0.77,0.168201,0.01,21.2659,296.45,-271.421,271.403,609.545,-5.11366e-09,5.11347e-09,1.14842e-08,667.231,-667.25,-7.11616e-07,1.25711e-08,-1.25713e-08,-1.34073e-17
-0.490025,-0.77,0.162835,0.01,17.9434,296.45,-285.935,285.918,611.638,-5.38711e-09,5.38693e-09,1.15236e-08,675.162,-675.18,-4.29164e-07,1.27205e-08,-1.27207e-08,-8.08569e-18
-0.480025,-0.77,0.157732,0.01,14.6494,296.45,-300.761,300.744,613.358,-5.66644e-09,5.66626e-09,1.1556e-08,683.117,-683.134,-8.78939e-08,1.28704e-08,-1.28706e-08,-1.65597e-18
-0.470025,-0.77,0.152199,0.01,11.3855,296.45,-315.892,315.875,614.685,-5.95151e-09,5.95134e-09,1.1581e-08,691.092,-691.109,3.16748e-07,1.30206e-08,-1.30208e-08,5.96771e-18
-0.460025,-0.77,0.147139,0.01,8.15322,296.45,-331.319,331.302,615.597,-6.24217e-09,6.242e-09,1.15982e-08,699.081,-699.098,7.90115e-07,1.31712e-08,-1.31713e-08,1.48862e-17
-0.450025,-0.77,0.142155,0.01,4.95407,296.45,-347.033,347.017,616.074,-6.53823e-09,6.53807e-09,1.16072e-08,707.08,-707.096,1.33659e-06,1.33219e-08,-1.3322e-08,2.51821e-17
-0.440025,-0.77,0.136927,0.01,1.78961,296.45,-363.023,363.008,616.095,-6.8395e-09,6.83934e-09,1.16076e-08,715.082,-715.097,1.96006e-06,1.34726e-08,-1.34728e-08,3.69287e-17
-0.430025,-0.77,0.13225,0.01,-1.33854,296.45,-379.278,379.263,615.638,-7.14575e-09,7.1456e-09,1.1599e-08,723.081,-723.096,2.66474e-06,1.36233e-08,-1.36235e-08,5.02053e-17
-0.420025,-0.77,0.127297,0.01,-4.42876,296.45,-395.783,395.769,614.684,-7.45672e-09,7.45658e-09,1.1581e-08,731.071,-731.085,3.45452e-06,1.37739e-08,-1.3774e-08,6.50851e-17
-0.410025,-0.77,0.122459,0.01,-7.4794,296.45,-412.524,412.511,613.21,-7.77213e-09,7.772e-09,1.15532e-08,739.046,-739.058,4.33246e-06,1.39241e-08,-1.39242e-08,8.16261e-17
-0.400025,-0.77,0.118258,0.01,-10.4888,296.45,-429.484,429.473,611.197,-8.09168e-09,8.09156e-09,1.15153e-08,746.997,-747.009,5.29942e-06,1.40739e-08,-1.4074e-08,9.98441e-17
-0.390025,-0.77,0.113236,0.01,-13.4552,296.45,-446.646,446.636,608.624,-8.41503e-09,8.41492e-09,1.14668e-08,754.919,-754.93,6.3569e-06,1.42232e-08,-1.42233e-08,1.19768e-16
-0.380025,-0.77,0.108903,0.01,-16.377,296.45,-463.99,463.981,605.471,-8.74181e-09,8.74171e-09,1.14074e-08,762.804,-762.814,7.50495e-06,1.43717e-08,-1.43718e-08,1.41398e-16
-0.370025,-0.77,0.104591,0.01,-19.2524,296.45,-481.496,481.488,601.718,-9.07163e-09,9.07154e-09,1.13367e-08,770.645,-770.653,8.74174e-06,1.45194e-08,-1.45195e-08,1.64699e-16
-0.360025,-0.77,0.100089,0.01,-22.0796,296.45,-499.14,499.133,597.348,-9.40406e-09,9.40399e-09,1.12544e-08,778.432,-778.439,1.00655e-05,1.46661e-08,-1.46662e-08,1.8964e-16
-0.350025,-0.77,0.0964166,0.01,-24.8569,296.45,-516.899,516.894,592.341,-9.73865e-09,9.7386e-09,1.116e-08,786.159,-786.164,1.14718e-05,1.48117e-08,-1.48118e-08,2.16135e-16
-0.340025,-0.77,0.0918355,0.01,-27.5825,296.45,-534.747,534.743,586.681,-1.00749e-08,1.00749e-08,1.10534e-08,793.816,-793.82,1.29535e-05,1.4956e-08,-1.4956e-08,2.44052e-16
-0.330025,-0.77,0.0880258,0.01,-30.2547,296.45,-552.657,552.655,580.352,-1.04124e-08,1.04123e-08,1.09342e-08,801.396,-801.398,1.4505e-05,1.50988e-08,-1.50988e-08,2.73283e-16
-0.320025,-0.77,0.0841519,0.01,-32.8716,296.45,-570.6,570.6,573.339,-1.07504e-08,1.07504e-08,1.0802e-08,808.889,-808.889,1.61169e-05,1.52399e-08,-1.52399e-08,3.03651e-16
-0.310025,-0.77,0.0801775,0.01,-35.4314,296.45,-588.547,588.548,565.628,-1.10886e-08,1.10886e-08,1.06568e-08,816.287,-816.285,1.77708e-05,1.53793e-08,-1.53793e-08,3.34811e-16
-0.300025,-0.77,0.0770468,0.01,-37.9323,296.45,-606.465,606.468,557.206,-1.14262e-08,1.14262e-08,1.04981e-08,823.58,-823.576,1.94693e-05,1.55167e-08,-1.55167e-08,3.66813e-16
-0.290025,-0.77,0.072878,0.01,-40.3726,296.45,-624.321,624.327,548.064,-1.17626e-08,1.17627e-08,1.03258e-08,830.758,-830.753,2.12215e-05,1.56519e-08,-1.56519e-08,3.99825e-16
-0.280025,-0.77,0.0699014,0.01,-42.7505,296.45,-642.083,642.09,538.192,-1.20972e-08,1.20973e-08,1.01398e-08,837.814,-837.806,2.27029e-05,1.57849e-08,-1.57848e-08,4.27735e-16
-0.270025,-0.77,0.0661335,0.01,-45.0642,296.45,-659.713,659.723,527.583,-1.24294e-08,1.24295e-08,9.93996e-09,844.736,-844.727,2.52351e-05,1.59153e-08,-1.59152e-08,4.75444e-16
-0.260025,-0.77,0.0630319,0.01,-47.3119,296.45,-677.176,677.188,516.231,-1.27584e-08,1.27586e-08,9.72609e-09,851.516,-851.504,2.47867e-05,1.6043e-08,-1.60429e-08,4.66995e-16
-0.250025,-0.77,0.0599504,0.01,-49.4919,296.45,-694.434,694.448,504.134,-1.30836e-08,1.30837e-08,9.49817e-09,858.144,-858.13,3.00792e-05,1.61679e-08,-1.61677e-08,5.66709e-16
-0.240025,-0.77,0.056695,0.01,-51.6025,296.45,-711.448,711.464,491.29,-1.34042e-08,1.34043e-08,9.25618e-09,864.61,-864.593,2.99806e-05,1.62897e-08,-1.62895e-08,5.64851e-16
-0.230025,-0.77,0.0543346,0.01,-53.6419,296.45,-728.18,728.199,477.7,-1.37194e-08,1.37196e-08,9.00014e-09,870.904,-870.885,1.18364e-05,1.64082e-08,-1.64081e-08,2.23004e-16
-0.220025,-0.77,0.0508941,0.01,-55.6085,296.45,-744.59,744.611,463.368,-1.40286e-08,1.40288e-08,8.73013e-09,877.016,-876.996,0.000119821,1.65234e-08,-1.65232e-08,2.2575e-15
-0.210025,-0.77,0.0492765,0.01,-57.5006,296.45,-760.636,760.66,448.301,-1.43309e-08,1.43312e-08,8.44625e-09,882.938,-882.914,-0.000258902,1.6635e-08,-1.66347e-08,-4.87787e-15
-0.200025,-0.77,0.0456327,0.01,-59.3167,296.45,-776.283,776.307,432.506,-1.46257e-08,1.4626e-08,8.14866e-09,888.66,-888.636,0.000857329,1.67428e-08,-1.67425e-08,1.61526e-14
-0.190025,-0.77,0.0439894,0.01,-61.0551,296.45,-791.477,791.509,415.996,-1.4912e-08,1.49123e-08,7.8376e-09,894.171,-894.139,-0.00201951,1.68466e-08,-1.68462e-08,-3.80487e-14
-0.180025,-0.77,0.0409137,0.01,-62.7144,296.45,-806.211,806.233,398.78,-1.51896e-08,1.51898e-08,7.51324e-09,899.466,-899.444,0.00477373,1.69464e-08,-1.69461e-08,8.99399e-14
-0.170025,-0.77,0.039227,0.01,-64.2931,296.45,-820.37,820.418,380.886,-1.54565e-08,1.54569e-08,7.17612e-09,904.525,-904.476,-0.00987976,1.70416e-08,-1.70411e-08,-1.8614e-13
-0.160025,-0.77,0.0367394,0.01,-65.7897,296.45,-834.073,834.074,362.309,-1.57144e-08,1.57144e-08,6.82612e-09,909.367,-909.366,0.0203001,1.7133e-08,-1.7133e-08,3.82465e-13
-0.150025,-0.77,0.0349904,0.01,-67.203,296.45,-846.938,847.051,343.11,-1.59573e-08,1.59584e-08,6.46439e-09,913.908,-913.794,-0.0310373,1.72181e-08,-1.72169e-08,-5.84762e-13
-0.140025,-0.77,0.0331109,0.01,-68.5315,296.45,-858.849,859.278,323.246,-1.61831e-08,1.61874e-08,6.09014e-09,918.081,-917.652,-0.110553,1.72953e-08,-1.7291e-08,-2.08288e-12
-0.130025,-0.77,0.0312806,0.01,-69.7741,296.45,-870.617,870.998,302.89,-1.64046e-08,1.64084e-08,5.70663e-09,922.171,-921.79,-0.154142,1.73726e-08,-1.73687e-08,-2.90412e-12
-0.120025,-0.77,0.0300268,0.01,-70.9296,296.45,-881.51,881.994,281.805,-1.66103e-08,1.66152e-08,5.30937e-09,925.932,-925.447,-0.067311,1.7443e-08,-1.74381e-08,-1.26818e-12
-0.110025,-0.77,0.0280985,0.01,-71.9969,296.45,-891.931,892.227,260.467,-1.68058e-08,1.68088e-08,4.90735e-09,929.475,-929.178,-0.207569,1.75106e-08,-1.75075e-08,-3.91073e-12
-0.100025,-0.77,0.0274829,0.01,-72.975,296.45,-901.273,901.737,238.31,-1.69825e-08,1.69872e-08,4.4899e-09,932.703,-932.239,-0.0718991,1.75707e-08,-1.75659e-08,-1.35462e-12
-0.0900249,-0.77,0.0254452,0.01,-73.8628,296.45,-907.028,909.581,214.362,-1.71e-08,1.71259e-08,4.03871e-09,934.533,-931.98,0.944407,1.7596e-08,-1.75701e-08,1.77932e-11
-0.0800249,-0.77,0.0254712,0.01,-74.6596,296.45,-907.487,915.465,191.435,-1.71323e-08,1.72132e-08,3.60675e-09,935.352,-927.373,0.0878323,1.75879e-08,-1.75069e-08,1.65481e-12
-0.0700249,-0.77,0.0233212,0.01,-75.3646,296.45,-912.919,922.31,168.987,-1.72407e-08,1.7336e-08,3.18382e-09,937.74,-928.349,-0.685959,1.76267e-08,-1.75315e-08,-1.29239e-11
-0.0600249,-0.77,0.0239795,0.01,-75.977,296.45,-920.251,928.16,144.616,-1.73725e-08,1.74527e-08,2.72465e-09,939.406,-931.497,0.352384,1.76646e-08,-1.75843e-08,6.63912e-12
-0.0500249,-0.77,0.0217275,0.01,-76.4963,296.45,-925.443,933.28,120.946,-1.74699e-08,1.75495e-08,2.27868e-09,941.117,-933.279,0.319842,1.76971e-08,-1.76176e-08,6.026e-12
-0.0400249,-0.77,0.0229935,0.01,-76.922,296.45,-929.47,937.586,97.0802,-1.7547e-08,1.76294e-08,1.82905e-09,942.62,-934.504,0.231683,1.77242e-08,-1.76419e-08,4.36505e-12
-0.0300249,-0.77,0.0206646,0.01,-77.2535,296.45,-932.901,940.803,72.9806,-1.76108e-08,1.76909e-08,1.375e-09,943.642,-935.739,0.192051,1.77444e-08,-1.76642e-08,3.61834e-12
-0.0200249,-0.77,0.0224984,0.01,-77.4907,296.45,-935.052,943.305,48.7673,-1.76528e-08,1.77365e-08,9.18805e-10,944.57,-936.318,0.114726,1.77604e-08,-1.76766e-08,2.1615e-12
-0.0100249,-0.77,0.0201329,0.01,-77.6331,296.45,-936.663,944.586,24.4327,-1.76817e-08,1.77621e-08,4.60326e-10,944.903,-936.98,0.0639856,1.77681e-08,-1.76877e-08,1.20553e-12
-2.48653e-05,-0.77,0.0224609,0.01,-77.6808,296.45,-936.925,945.226,0.0605933,-1.76883e-08,1.77725e-08,1.14161e-12,945.226,-936.925,0.000186162,1.77725e-08,-1.76883e-08,3.5074e-15
0.00997513,-0.77,0.0201329,0.01,-77.6336,296.45,-936.667,944.591,-24.3116,-1.76818e-08,1.77622e-08,-4.58044e-10,944.905,-936.981,-0.0636784,1.77681e-08,-1.76877e-08,-1.19974e-12
0.0199751,-0.77,0.0224763,0.01,-77.4916,296.45,-935.062,943.314,-48.6466,-1.7653e-08,1.77367e-08,-9.16531e-10,944.573,-936.321,-0.114369,1.77604e-08,-1.76767e-08,-2.15478e-12
0.0299751,-0.77,0.0206644,0.01,-77.2549,296.45,-932.914,940.818,-72.8604,-1.7611e-08,1.76912e-08,-1.37273e-09,943.647,-935.743,-0.191749,1.77445e-08,-1.76643e-08,-3.61265e-12
0.0399751,-0.77,0.0229717,0.01,-76.9239,296.45,-929.488,937.604,-96.9609,-1.75474e-08,1.76297e-08,-1.8268e-09,942.626,-934.51,-0.231361,1.77243e-08,-1.7642e-08,-4.35898e-12
0.0499751,-0.77,0.0217272,0.01,-76.4987,296.45,-925.465,933.303,-120.827,-1.74704e-08,1.75499e-08,-2.27646e-09,941.125,-933.286,-0.31954,1.76973e-08,-1.76177e-08,-6.02033e-12
0.0599751,-0.77,0.0239585,0.01,-75.9799,296.45,-920.279,928.188,-144.499,-1.7373e-08,1.74532e-08,-2.72245e-09,939.415,-931.507,-0.352091,1.76647e-08,-1.75845e-08,-6.6336e-12
0.0699751,-0.77,0.0233208,0.01,-75.3679,296.45,-912.95,922.342,-168.872,-1.72413e-08,1.73366e-08,-3.18165e-09,937.751,-928.359,0.686132,1.76269e-08,-1.75317e-08,1.29271e-11
0.0799751,-0.77,0.0254512,0.01,-74.6634,296.45,-907.523,915.502,-191.322,-1.7133e-08,1.72139e-08,-3.60461e-09,935.364,-927.386,-0.0877954,1.75881e-08,-1.75072e-08,-1.65412e-12
0.0899751,-0.77,0.0254445,0.01,-73.867,296.45,-907.069,909.622,-214.25,-1.71008e-08,1.71267e-08,-4.0366e-09,934.547,-931.994,-0.944163,1.75963e-08,-1.75704e-08,-1.77886e-11
0.0999751,-0.77,0.0274642,0.01,-72.9796,296.45,-901.318,901.782,-238.199,-1.69834e-08,1.69881e-08,-4.48781e-09,932.718,-932.254,0.0716517,1.75709e-08,-1.75662e-08,1.34996e-12
0.109975,-0.77,0.0280975,0.01,-72.002,296.45,-891.979,892.277,-260.359,-1.68067e-08,1.68097e-08,-4.90531e-09,929.492,-929.195,0.207615,1.75109e-08,-1.75079e-08,3.91158e-12
0.119975,-0.77,0.0300093,0.01,-70.9351,296.45,-881.562,882.047,-281.699,-1.66113e-08,1.66162e-08,-5.30737e-09,925.95,-925.465,0.0672486,1.74433e-08,-1.74384e-08,1.267e-12
0.129975,-0.77,0.0312792,0.01,-69.7801,296.45,-870.673,871.054,-302.787,-1.64056e-08,1.64095e-08,-5.70469e-09,922.19,-921.809,0.154076,1.73729e-08,-1.73691e-08,2.90289e-12
0.139975,-0.77,0.0330945,0.01,-68.5379,296.45,-858.909,859.338,-323.146,-1.61842e-08,1.61886e-08,-6.08826e-09,918.101,-917.673,0.110565,1.72957e-08,-1.72913e-08,2.08311e-12
0.149975,-0.77,0.0349886,0.01,-67.2098,296.45,-847,847.114,-343.013,-1.59585e-08,1.59596e-08,-6.46256e-09,913.93,-913.816,0.0310901,1.72185e-08,-1.72173e-08,5.85755e-13
0.159975,-0.77,0.0367242,0.01,-65.797,296.45,-834.14,834.141,-362.215,-1.57157e-08,1.57157e-08,-6.82435e-09,909.39,-909.389,-0.0203238,1.71334e-08,-1.71334e-08,-3.82913e-13
0.169975,-0.77,0.0392248,0.01,-64.3007,296.45,-820.439,820.488,-380.796,-1.54578e-08,1.54583e-08,-7.17441e-09,904.549,-904.501,0.00987433,1.7042e-08,-1.70415e-08,1.86038e-13
0.179975,-0.77,0.0408995,0.01,-62.7225,296.45,-806.283,806.305,-398.693,-1.51909e-08,1.51912e-08,-7.5116e-09,899.492,-899.47,-0.00476284,1.69468e-08,-1.69466e-08,-8.97347e-14
0.189975,-0.77,0.0439868,0.01,-61.0636,296.45,-791.551,791.583,-415.912,-1.49134e-08,1.49137e-08,-7.83602e-09,894.198,-894.166,0.00200988,1.68471e-08,-1.68467e-08,3.78672e-14
0.199975,-0.77,0.0456193,0.01,-59.3255,296.45,-776.36,776.384,-432.425,-1.46272e-08,1.46274e-08,-8.14714e-09,888.688,-888.664,-0.000850752,1.67433e-08,-1.67431e-08,-1.60287e-14
0.209975,-0.77,0.0492687,0.01,-57.5098,296.45,-760.715,760.739,-448.224,-1.43324e-08,1.43327e-08,-8.4448e-09,882.967,-882.943,0.000255101,1.66355e-08,-1.66353e-08,4.80625e-15
0.219975,-0.77,0.0508814,0.01,-55.618,296.45,-744.671,744.691,-463.295,-1.40301e-08,1.40303e-08,-8.72875e-09,877.046,-877.026,-0.00011788,1.6524e-08,-1.65238e-08,-2.22093e-15
0.229975,-0.77,0.0543135,0.01,-53.6518,296.45,-728.262,728.281,-477.631,-1.3721e-08,1.37212e-08,-8.99884e-09,870.934,-870.916,-1.27356e-05,1.64088e-08,-1.64086e-08,-2.39947e-16
0.239975,-0.77,0.0566827,0.01,-51.6128,296.45,-711.532,711.548,-491.224,-1.34057e-08,1.34059e-08,-9.25494e-09,864.641,-864.625,-2.96219e-05,1.62903e-08,-1.62901e-08,-5.58094e-16
0.249975,-0.77,0.0599305,0.01,-49.5026,296.45,-694.519,694.533,-504.072,-1.30852e-08,1.30853e-08,-9.497e-09,858.176,-858.162,-3.02203e-05,1.61685e-08,-1.61683e-08,-5.69368e-16
0.259975,-0.77,0.06302,0.01,-47.3229,296.45,-677.262,677.274,-516.173,-1.27601e-08,1.27602e-08,-9.72499e-09,851.549,-851.538,-2.47521e-05,1.60436e-08,-1.60435e-08,-4.66344e-16
0.269975,-0.77,0.0661147,0.01,-45.0756,296.45,-659.8,659.81,-527.528,-1.24311e-08,1.24312e-08,-9.93894e-09,844.77,-844.761,-2.52547e-05,1.59159e-08,-1.59158e-08,-4.75813e-16
0.279975,-0.77,0.0698899,0.01,-42.7622,296.45,-642.171,642.178,-538.141,-1.20989e-08,1.2099e-08,-1.01389e-08,837.849,-837.841,-2.27096e-05,1.57855e-08,-1.57854e-08,-4.27862e-16
0.289975,-0.77,0.0728601,0.01,-40.3846,296.45,-624.41,624.416,-548.017,-1.17643e-08,1.17643e-08,-1.0325e-08,830.794,-830.788,-2.12307e-05,1.56526e-08,-1.56526e-08,-3.99998e-16
0.299975,-0.77,0.0770234,0.01,-37.9446,296.45,-606.554,606.557,-557.163,-1.14278e-08,1.14279e-08,-1.04973e-08,823.616,-823.612,-1.94776e-05,1.55174e-08,-1.55173e-08,-3.66969e-16
0.309975,-0.77,0.0801604,0.01,-35.444,296.45,-588.636,588.637,-565.587,-1.10902e-08,1.10903e-08,-1.0656e-08,816.323,-816.322,-1.77789e-05,1.538e-08,-1.538e-08,-3.34965e-16
0.319975,-0.77,0.0841297,0.01,-32.8844,296.45,-570.689,570.689,-573.302,-1.07521e-08,1.07521e-08,-1.08013e-08,808.926,-808.926,-1.61251e-05,1.52406e-08,-1.52406e-08,-3.03806e-16
0.329975,-0.77,0.0880092,0.01,-30.2678,296.45,-552.746,552.744,-580.319,-1.0414e-08,1.0414e-08,-1.09335e-08,801.433,-801.435,-1.45127e-05,1.50995e-08,-1.50995e-08,-2.73428e-16
0.339975,-0.77,0.0918143,0.01,-27.596,296.45,-534.836,534.832,-586.651,-1.00766e-08,1.00766e-08,-1.10529e-08,793.854,-793.858,-1.2961e-05,1.49567e-08,-1.49567e-08,-2.44192e-16
0.349975,-0.77,0.0964006,0.01,-24.8706,296.45,-516.987,516.982,-592.315,-9.74032e-09,9.74027e-09,-1.11595e-08,786.197,-786.202,-1.14792e-05,1.48124e-08,-1.48125e-08,-2.16275e-16
0.359975,-0.77,0.100068,0.01,-22.0935,296.45,-499.228,499.221,-597.324,-9.40572e-09,9.40565e-09,-1.12539e-08,778.471,-778.477,-1.00726e-05,1.46669e-08,-1.46669e-08,-1.89773e-16
0.369975,-0.77,0.104567,0.01,-19.2666,296.45,-481.583,481.575,-601.698,-9.07327e-09,9.07319e-09,-1.13363e-08,770.683,-770.691,-8.74808e-06,1.45202e-08,-1.45202e-08,-1.64819e-16
0.379975,-0.77,0.108884,0.01,-16.3914,296.45,-464.077,464.068,-605.454,-8.74344e-09,8.74335e-09,-1.14071e-08,762.844,-762.853,-7.51048e-06,1.43725e-08,-1.43725e-08,-1.41502e-16
0.389975,-0.77,0.113213,0.01,-13.4699,296.45,-446.732,446.722,-608.61,-8.41664e-09,8.41654e-09,-1.14666e-08,754.959,-754.969,-6.36241e-06,1.42239e-08,-1.4224e-08,-1.19871e-16
0.399975,-0.77,0.118231,0.01,-10.5037,296.45,-429.569,429.557,-611.186,-8.09328e-09,8.09316e-09,-1.15151e-08,747.037,-747.048,-5.30425e-06,1.40747e-08,-1.40748e-08,-9.99351e-17
0.409975,-0.77,0.122437,0.01,-7.49447,296.45,-412.608,412.595,-613.202,-7.77371e-09,7.77358e-09,-1.15531e-08,739.085,-739.098,-4.33671e-06,1.39248e-08,-1.3925e-08,-8.17062e-17
0.419975,-0.77,0.127271,0.01,-4.44403,296.45,-395.865,395.852,-614.678,-7.45827e-09,7.45814e-09,-1.15809e-08,731.111,-731.124,-3.45911e-06,1.37746e-08,-1.37747e-08,-6.51716e-17
0.429975,-0.77,0.132229,0.01,-1.354,296.45,-379.359,379.345,-615.635,-7.14728e-09,7.14713e-09,-1.15989e-08,723.121,-723.135,-2.66885e-06,1.36241e-08,-1.36242e-08,-5.02827e-17
0.439975,-0.77,0.136902,0.01,1.77396,296.45,-363.103,363.088,-616.094,-6.84101e-09,6.84086e-09,-1.16076e-08,715.122,-715.137,-1.96341e-06,1.34734e-08,-1.34735e-08,-3.69918e-17
0.449975,-0.77,0.142127,0.01,4.93824,296.45,-347.112,347.096,-616.075,-6.53971e-09,6.53955e-09,-1.16072e-08,707.12,-707.136,-1.33951e-06,1.33226e-08,-1.33228e-08,-2.52371e-17
0.459975,-0.77,0.147115,0.01,8.13723,296.45,-331.396,331.38,-615.6,-6.24362e-09,6.24346e-09,-1.15983e-08,699.121,-699.138,-7.93014e-07,1.31719e-08,-1.31721e-08,-1.49408e-17
0.469975,-0.77,0.152173,0.01,11.3694,296.45,-315.968,315.951,-614.69,-5.95294e-09,5.95277e-09,-1.15811e-08,691.131,-691.148,-3.19386e-07,1.30214e-08,-1.30216e-08,-6.01742e-18
0.479975,-0.77,0.157704,0.01,14.6331,296.45,-300.836,300.818,-613.366,-5.66784e-09,5.66767e-09,-1.15562e-08,683.156,-683.174,8.63111e-08,1.28711e-08,-1.28713e-08,1.62615e-18
0.489975,-0.77,0.16281,0.01,17.9269,296.45,-286.008,285.99,-611.648,-5.38849e-09,5.3883e-09,-1.15238e-08,675.201,-675.219,4.27952e-07,1.27213e-08,-1.27214e-08,8.06287e-18
0.499975,-0.77,0.168174,0.01,21.2493,296.45,-271.493,271.475,-609.556,-5.115e-09,5.11482e-09,-1.14844e-08,667.271,-667.289,7.10707e-07,1.25718e-08,-1.2572e-08,1.33901e-17
0.509975,-0.77,0.173947,0.01,24.5989,296.45,-257.295,257.276,-607.112,-4.8475e-09,4.84731e-09,-1.14383e-08,659.37,-659.388,9.40221e-07,1.2423e-08,-1.24232e-08,1.77143e-17
0.519975,-0.77,0.179242,0.01,27.9742,296.45,-243.419,243.401,-604.334,-4.58608e-09,4.58589e-09,-1.1386e-08,651.503,-651.521,1.12112e-06,1.22748e-08,-1.2275e-08,2.11226e-17
0.529975,-0.77,0.184852,0.01,31.3738,296.45,-229.87,229.851,-601.242,-4.3308e-09,4.33061e-09,-1.13278e-08,643.674,-643.693,1.2581e-06,1.21273e-08,-1.21275e-08,2.37034e-17
0.539975,-0.77,0.190822,0.01,34.7965,296.45,-216.65,216.631,-597.856,-4.08173e-09,4.08154e-09,-1.12639e-08,635.887,-635.906,1.3561e-06,1.19806e-08,-1.19808e-08,2.55496e-17
0.549975,-0.77,0.196361,0.01,38.2408,296.45,-203.761,203.742,-594.193,-3.8389e-09,3.8387e-09,-1.11949e-08,628.146,-628.165,1.41945e-06,1.18347e-08,-1.18349e-08,2.67432e-17
0.559975,-0.77,0.202172,0.01,41.7055,296.45,-191.205,191.185,-590.271,-3.60232e-09,3.60213e-09,-1.11211e-08,620.455,-620.474,1.45242e-06,1.16898e-08,-1.169e-08,2.73644e-17
0.569975,-0.77,0.208301,0.01,45.1893,296.45,-178.981,178.961,-586.109,-3.37201e-09,3.37182e-09,-1.10426e-08,612.816,-612.835,1.45937e-06,1.15459e-08,-1.15461e-08,2.74954e-17
0.579975,-0.77,0.21413,0.01,48.691,296.45,-167.089,167.07,-581.723,-3.14797e-09,3.14777e-09,-1.096e-08,605.232,-605.251,1.44397e-06,1.1403e-08,-1.14032e-08,2.72051e-17
0.589975,-0.77,0.220107,0.01,52.2094,296.45,-155.787,155.261,-577.619,-2.93284e-09,2.9275e-09,-1.08827e-08,597.927,-598.453,0.121679,1.12676e-08,-1.12729e-08,2.2925e-12
0.599975,-0.77,0.226368,0.01,55.7433,296.45,-146.195,143.184,-574.815,-2.74131e-09,2.71076e-09,-1.08298e-08,591.24,-594.251,0.214075,1.11524e-08,-1.11829e-08,4.0333e-12
0.609975,-0.77,0.232522,0.01,59.2917,296.45,-138.841,131.032,-573.293,-2.58189e-09,2.50267e-09,-1.08012e-08,585.054,-592.863,-0.159195,1.10567e-08,-1.11359e-08,-2.99932e-12
0.619975,-0.77,0.238637,0.01,62.8535,296.45,-128.773,120.026,-569.522,-2.38813e-09,2.29938e-09,-1.07301e-08,578.576,-587.323,-0.00917795,1.09387e-08,-1.10275e-08,-1.72918e-13
0.629975,-0.77,0.245008,0.01,66.4275,296.45,-113.774,110.83,-565.71,-2.13077e-09,2.1009e-09,-1.06583e-08,575.273,-578.218,1.9658,1.08513e-08,-1.08812e-08,3.70368e-11
-0.640025,-0.76,0.24371,0.01,65.7058,288.8,-102.778,95.2339,570.028,-1.9036e-09,1.82706e-09,1.07397e-08,574.79,-582.334,0.577522,1.08622e-08,-1.09387e-08,1.08808e-11
-0.630025,-0.76,0.237524,0.01,62.0645,288.8,-109.172,104.441,573.035,-2.03629e-09,1.9883e-09,1.07963e-08,580.537,-585.268,-1.2802,1.09582e-08,-1.10062e-08,-2.41196e-11
-0.620025,-0.76,0.230945,0.01,58.434,288.8,-119.174,116.432,575.145,-2.23338e-09,2.20557e-09,1.08361e-08,585.715,-588.456,-0.081308,1.10471e-08,-1.10749e-08,-1.53189e-12
-0.610025,-0.76,0.224618,0.01,54.8152,288.8,-129.804,127.933,579.763,-2.43745e-09,2.41847e-09,1.09231e-08,592.977,-594.848,0.387562,1.11802e-08,-1.11991e-08,7.30189e-12
-0.600025,-0.76,0.218566,0.01,51.2092,288.8,-139.464,138.925,583.974,-2.62523e-09,2.61976e-09,1.10024e-08,600.064,-600.603,-0.111946,1.13079e-08,-1.13134e-08,-2.10913e-12
-0.590025,-0.76,0.21232,0.01,47.6171,288.8,-150.612,150.592,588.596,-2.83753e-09,2.83733e-09,1.10895e-08,607.547,-607.567,-1.48316e-06,1.14466e-08,-1.14468e-08,-2.79435e-17
-0.580025,-0.76,0.206115,0.01,44.0401,288.8,-162.369,162.349,593.529,-3.05904e-09,3.05884e-09,1.11824e-08,615.325,-615.345,-1.53446e-06,1.15932e-08,-1.15934e-08,-2.89102e-17
-0.570025,-0.76,0.200218,0.01,40.4793,288.8,-174.474,174.454,598.256,-3.28711e-09,3.2869e-09,1.12715e-08,623.165,-623.186,-1.5681e-06,1.17409e-08,-1.17411e-08,-2.95439e-17
-0.560025,-0.76,0.194276,0.01,36.936,288.8,-186.928,186.908,602.76,-3.52175e-09,3.52155e-09,1.13564e-08,631.067,-631.087,-1.57918e-06,1.18898e-08,-1.189e-08,-2.97526e-17
-0.550025,-0.76,0.188219,0.01,33.4113,288.8,-199.733,199.713,607.024,-3.763e-09,3.76279e-09,1.14367e-08,639.026,-639.047,-1.56439e-06,1.20397e-08,-1.20399e-08,-2.9474e-17
-0.540025,-0.76,0.182509,0.01,29.9067,288.8,-212.888,212.868,611.03,-4.01084e-09,4.01064e-09,1.15122e-08,647.04,-647.06,-1.51953e-06,1.21907e-08,-1.21909e-08,-2.86287e-17
-0.530025,-0.76,0.176828,0.01,26.4233,288.8,-226.393,226.373,614.757,-4.26528e-09,4.26508e-09,1.15824e-08,655.105,-655.125,-1.43951e-06,1.23426e-08,-1.23428e-08,-2.71213e-17
-0.520025,-0.76,0.170952,0.01,22.9626,288.8,-240.246,240.226,618.188,-4.52628e-09,4.52608e-09,1.1647e-08,663.217,-663.237,-1.31967e-06,1.24955e-08,-1.24957e-08,-2.48633e-17
-0.510025,-0.76,0.165472,0.01,19.5259,288.8,-254.445,254.425,621.302,-4.7938e-09,4.7936e-09,1.17057e-08,671.372,-671.392,-1.15427e-06,1.26491e-08,-1.26493e-08,-2.17471e-17
-0.500025,-0.76,0.159999,0.01,16.1146,288.8,-268.987,268.967,624.079,-5.06778e-09,5.06758e-09,1.1758e-08,679.566,-679.585,-9.39025e-07,1.28035e-08,-1.28037e-08,-1.76918e-17
-0.490025,-0.76,0.154348,0.01,12.7303,288.8,-283.867,283.848,626.497,-5.34813e-09,5.34794e-09,1.18036e-08,687.794,-687.813,-6.68355e-07,1.29585e-08,-1.29587e-08,-1.25922e-17
-0.480025,-0.76,0.149154,0.01,9.37432,288.8,-299.079,299.061,628.536,-5.63475e-09,5.63456e-09,1.1842e-08,696.051,-696.07,-3.35823e-07,1.31141e-08,-1.31143e-08,-6.3271e-18
-0.470025,-0.76,0.14382,0.01,6.04827,288.8,-314.618,314.599,630.174,-5.9275e-09,5.92732e-09,1.18728e-08,704.333,-704.351,6.34734e-08,1.32701e-08,-1.32703e-08,1.19587e-18
-0.460025,-0.76,0.138454,0.01,2.75368,288.8,-330.474,330.456,631.389,-6.22625e-09,6.22607e-09,1.18957e-08,712.633,-712.651,5.35589e-07,1.34265e-08,-1.34267e-08,1.00908e-17
-0.450025,-0.76,0.133621,0.01,-0.507858,288.8,-346.639,346.622,632.158,-6.53081e-09,6.53063e-09,1.19102e-08,720.947,-720.964,1.08602e-06,1.35831e-08,-1.35833e-08,2.04612e-17
-0.440025,-0.76,0.128341,0.01,-3.73473,288.8,-363.102,363.086,632.46,-6.84098e-09,6.84082e-09,1.19159e-08,729.268,-729.284,1.71935e-06,1.37399e-08,-1.37401e-08,3.23935e-17
-0.430025,-0.76,0.123339,0.01,-6.92529,288.8,-379.851,379.835,632.273,-7.15655e-09,7.15639e-09,1.19124e-08,737.589,-737.605,2.44045e-06,1.38967e-08,-1.38968e-08,4.59795e-17
-0.420025,-0.76,0.118829,0.01,-10.0779,288.8,-396.872,396.858,631.572,-7.47724e-09,7.47709e-09,1.18992e-08,745.905,-745.92,3.25347e-06,1.40533e-08,-1.40535e-08,6.12972e-17
-0.410025,-0.76,0.113631,0.01,-13.1908,288.8,-414.151,414.137,630.337,-7.80278e-09,7.80264e-09,1.18759e-08,754.208,-754.222,4.16231e-06,1.42098e-08,-1.42099e-08,7.84203e-17
-0.400025,-0.76,0.109105,0.01,-16.2622,288.8,-431.67,431.658,628.545,-8.13286e-09,8.13273e-09,1.18422e-08,762.491,-762.504,5.16924e-06,1.43658e-08,-1.4366e-08,9.73915e-17
-0.390025,-0.76,0.10451,0.01,-19.2905,288.8,-449.412,449.401,626.174,-8.46714e-09,8.46702e-09,1.17975e-08,770.747,-770.759,6.27662e-06,1.45214e-08,-1.45215e-08,1.18255e-16
-0.380025,-0.76,0.0997994,0.01,-22.2739,288.8,-467.357,467.346,623.203,-8.80523e-09,8.80512e-09,1.17415e-08,778.968,-778.979,7.48435e-06,1.46763e-08,-1.46764e-08,1.41009e-16
-0.370025,-0.76,0.0959032,0.01,-25.2105,288.8,-485.482,485.473,619.611,-9.14673e-09,9.14664e-09,1.16738e-08,787.146,-787.155,8.79197e-06,1.48303e-08,-1.48304e-08,1.65646e-16
-0.360025,-0.76,0.0910624,0.01,-28.0986,288.8,-503.766,503.758,615.376,-9.49121e-09,9.49113e-09,1.1594e-08,795.272,-795.28,1.01964e-05,1.49834e-08,-1.49835e-08,1.92106e-16
-0.350025,-0.76,0.0870102,0.01,-30.9363,288.8,-522.182,522.176,610.481,-9.83819e-09,9.83813e-09,1.15018e-08,803.339,-803.345,1.16964e-05,1.51354e-08,-1.51355e-08,2.20368e-16
-0.340025,-0.76,0.0829057,0.01,-33.7218,288.8,-540.706,540.701,604.905,-1.01872e-08,1.01871e-08,1.13968e-08,811.336,-811.341,1.32872e-05,1.52861e-08,-1.52861e-08,2.50338e-16
-0.330025,-0.76,0.0786647,0.01,-36.4532,288.8,-559.307,559.304,598.632,-1.05377e-08,1.05376e-08,1.12786e-08,819.256,-819.259,1.49355e-05,1.54353e-08,-1.54353e-08,2.81393e-16
-0.320025,-0.76,0.075342,0.01,-39.1287,288.8,-577.957,577.956,591.644,-1.0889e-08,1.0889e-08,1.11469e-08,827.088,-827.089,1.67326e-05,1.55828e-08,-1.55828e-08,3.15252e-16
-0.310025,-0.76,0.0708752,0.01,-41.7463,288.8,-596.623,596.624,583.927,-1.12407e-08,1.12407e-08,1.10015e-08,834.824,-834.823,1.8403e-05,1.57286e-08,-1.57286e-08,3.46723e-16
-0.300025,-0.76,0.0676032,0.01,-44.3044,288.8,-615.274,615.277,575.466,-1.15921e-08,1.15922e-08,1.08421e-08,842.453,-842.451,2.04508e-05,1.58723e-08,-1.58723e-08,3.85304e-16
-0.290025,-0.76,0.0636512,0.01,-46.8008,288.8,-633.874,633.879,566.251,-1.19426e-08,1.19426e-08,1.06685e-08,849.967,-849.962,2.20156e-05,1.60138e-08,-1.60138e-08,4.14787e-16
-0.280025,-0.76,0.0602203,0.01,-49.2339,288.8,-652.387,652.394,556.27,-1.22914e-08,1.22914e-08,1.04804e-08,857.354,-857.346,2.50329e-05,1.6153e-08,-1.61529e-08,4.71634e-16
-0.270025,-0.76,0.0570033,0.01,-51.6018,288.8,-670.776,670.785,545.514,-1.26378e-08,1.26379e-08,1.02778e-08,864.604,-864.595,1.98545e-05,1.62896e-08,-1.62895e-08,3.74069e-16
-0.260025,-0.76,0.0533737,0.01,-53.9026,288.8,-689.002,689.014,533.978,-1.29813e-08,1.29814e-08,1.00605e-08,871.708,-871.697,5.80898e-05,1.64234e-08,-1.64233e-08,1.09445e-15
-0.250025,-0.76,0.0509431,0.01,-56.1345,288.8,-707.026,707.04,521.657,-1.33208e-08,1.3321e-08,9.82833e-09,878.655,-878.641,-9.15421e-05,1.65543e-08,-1.65542e-08,-1.72471e-15
-0.240025,-0.76,0.0470687,0.01,-58.2957,288.8,-724.808,724.824,508.55,-1.36559e-08,1.3656e-08,9.58138e-09,885.435,-885.419,0.000445954,1.6682e-08,-1.66819e-08,8.40204e-15
-0.230025,-0.76,0.0451191,0.01,-60.3844,288.8,-742.3,742.322,494.657,-1.39855e-08,1.39857e-08,9.31962e-09,892.037,-892.015,-0.00121871,1.68064e-08,-1.68062e-08,-2.29611e-14
-0.220025,-0.76,0.0413115,0.01,-62.3989,288.8,-759.481,759.495,479.978,-1.43091e-08,1.43093e-08,9.04307e-09,898.451,-898.437,0.00349844,1.69273e-08,-1.69271e-08,6.59126e-14
-0.210025,-0.76,0.0393014,0.01,-64.3374,288.8,-776.254,776.293,464.529,-1.46252e-08,1.46256e-08,8.75199e-09,904.667,-904.628,-0.00861529,1.70443e-08,-1.70439e-08,-1.62317e-13
-0.200025,-0.76,0.0361086,0.01,-66.1983,288.8,-792.685,792.691,448.285,-1.49347e-08,1.49347e-08,8.44594e-09,910.669,-910.664,0.0223883,1.71575e-08,-1.71575e-08,4.21809e-13
-0.190025,-0.76,0.0340081,0.01,-67.98,288.8,-808.134,808.471,431.328,-1.52272e-08,1.52306e-08,8.12646e-09,916.355,-916.017,-0.1489,1.72632e-08,-1.72598e-08,-2.80537e-12
-0.180025,-0.76,0.0314672,0.01,-69.6808,288.8,-823.465,823.845,413.55,-1.55162e-08,1.55201e-08,7.79152e-09,921.836,-921.455,-0.132051,1.73663e-08,-1.73624e-08,-2.48791e-12
-0.170025,-0.76,0.0292405,0.01,-71.2992,288.8,-838.525,838.817,395.234,-1.57996e-08,1.58025e-08,7.44643e-09,927.281,-926.989,-0.192987,1.74692e-08,-1.74663e-08,-3.636e-12
-0.160025,-0.76,0.0273942,0.01,-72.8337,288.8,-852.41,853.145,375.575,-1.60631e-08,1.60706e-08,7.07605e-09,932.186,-931.452,0.188049,1.75597e-08,-1.75523e-08,3.54295e-12
-0.150025,-0.76,0.0249996,0.01,-74.2828,288.8,-862.262,865.97,353.822,-1.62616e-08,1.62993e-08,6.66622e-09,935.602,-931.894,1.0781,1.76112e-08,-1.75736e-08,2.0312e-11
-0.140025,-0.76,0.023895,0.01,-75.6454,288.8,-868.016,876.958,333.41,-1.63928e-08,1.64835e-08,6.28164e-09,938.492,-929.55,-0.573507,1.76429e-08,-1.75521e-08,-1.08052e-11
-0.130025,-0.76,0.0212866,0.01,-76.9198,288.8,-880.421,889.623,312.535,-1.66277e-08,1.6721e-08,5.88834e-09,943.186,-933.984,-0.542434,1.77302e-08,-1.76368e-08,-1.02198e-11
-0.120025,-0.76,0.0209706,0.01,-78.1052,288.8,-893.313,900.517,289.918,-1.68619e-08,1.69349e-08,5.46223e-09,946.21,-939.005,0.592765,1.77958e-08,-1.77227e-08,1.1168e-11
-0.110025,-0.76,0.0181021,0.01,-79.2,288.8,-904.378,911.576,267.638,-1.70703e-08,1.71433e-08,5.04245e-09,950.199,-943.001,0.848418,1.7871e-08,-1.7798e-08,1.59847e-11
-0.100025,-0.76,0.0186137,0.01,-80.2036,288.8,-913.86,920.408,246.083,-1.72461e-08,1.73126e-08,4.63634e-09,952.848,-946.3,-0.402001,1.79237e-08,-1.78573e-08,-7.57393e-12
-0.0900249,-0.76,0.0154471,0.01,-81.1145,288.8,-918.518,927.613,221.808,-1.7345e-08,1.74372e-08,4.17899e-09,953.888,-944.794,-0.0142535,1.79323e-08,-1.784e-08,-2.68544e-13
-0.0800249,-0.76,0.0168042,0.01,-81.9323,288.8,-908.673,936.035,196.416,-1.72389e-08,1.75165e-08,3.70058e-09,956.716,-929.355,0.002269,1.79061e-08,-1.76285e-08,4.27492e-14
-0.0700249,-0.76,0.0133222,0.01,-82.6555,288.8,-906.594,943.214,174.564,-1.724e-08,1.76115e-08,3.28888e-09,959.539,-922.92,-2.62211,1.79191e-08,-1.75476e-08,-4.9402e-11
-0.0600249,-0.76,0.0155074,0.01,-83.2844,288.8,-929.891,948.37,147.049,-1.76e-08,1.77875e-08,2.77049e-09,959.81,-941.331,2.19952,1.8003e-08,-1.78156e-08,4.14403e-11
-0.0500249,-0.76,0.0117279,0.01,-83.8169,288.8,-932.166,951.502,122.938,-1.76466e-08,1.78428e-08,2.31622e-09,959.49,-940.155,1.57521,1.79933e-08,-1.77971e-08,2.96778e-11
-0.0400249,-0.76,0.014677,0.01,-84.2544,288.8,-940.162,958.662,98.6844,-1.77936e-08,1.79813e-08,1.85927e-09,963.776,-945.276,1.58516,1.80777e-08,-1.789e-08,2.98654e-11
-0.0300249,-0.76,0.0106647,0.01,-84.594,288.8,-939.078,958.845,74.1885,-1.77787e-08,1.79793e-08,1.39775e-09,961.741,-941.973,0.90604,1.80338e-08,-1.78333e-08,1.70703e-11
-0.0200249,-0.76,0.0142661,0.01,-84.8382,288.8,-946.446,965.059,49.5758,-1.79125e-08,1.81014e-08,9.34038e-10,966.344,-947.731,0.823311,1.81256e-08,-1.79367e-08,1.55117e-11
-0.0100249,-0.76,0.010133,0.01,-84.9836,288.8,-942.476,962.47,24.8382,-1.78437e-08,1.80466e-08,4.67965e-10,962.794,-942.8,0.293517,1.80527e-08,-1.78498e-08,5.53003e-12
-2.48653e-05,-0.76,0.0142068,0.01,-85.0334,288.8,-948.586,967.233,0.0615831,-1.7953e-08,1.81422e-08,1.16026e-12,967.233,-948.586,0.00109767,1.81422e-08,-1.7953e-08,2.06808e-14
0.00997513,-0.76,0.0101329,0.01,-84.9841,288.8,-942.482,962.476,-24.715,-1.78438e-08,1.80467e-08,-4.65646e-10,962.796,-942.803,-0.292069,1.80527e-08,-1.78499e-08,-5.50275e-12
0.0199751,-0.76,0.0142311,0.01,-84.8392,288.8,-946.453,965.068,-49.4532,-1.79127e-08,1.81015e-08,-9.31726e-10,966.346,-947.732,-0.821087,1.81256e-08,-1.79367e-08,-1.54698e-11
0.0299751,-0.76,0.0106644,0.01,-84.5955,288.8,-939.094,958.862,-74.0663,-1.7779e-08,1.79796e-08,-1.39545e-09,961.748,-941.98,-0.90475,1.80339e-08,-1.78334e-08,-1.7046e-11
0.0399751,-0.76,0.0146428,0.01,-84.2563,288.8,-940.178,958.68,-98.5632,-1.77939e-08,1.79816e-08,-1.85699e-09,963.781,-945.279,-1.58288,1.80777e-08,-1.789e-08,-2.98223e-11
0.0499751,-0.76,0.0117274,0.01,-83.8194,288.8,-932.193,951.529,-122.818,-1.76471e-08,1.78433e-08,-2.31395e-09,959.502,-940.166,-1.57413,1.79935e-08,-1.77973e-08,-2.96575e-11
0.0599751,-0.76,0.0154749,0.01,-83.2873,288.8,-929.915,948.396,-146.93,-1.76005e-08,1.7788e-08,-2.76825e-09,959.818,-941.337,-2.1972,1.80032e-08,-1.78157e-08,-4.13965e-11
0.0699751,-0.76,0.0133214,0.01,-82.6589,288.8,-906.628,943.25,-174.447,-1.72406e-08,1.76122e-08,-3.28668e-09,959.554,-922.931,2.62306,1.79193e-08,-1.75478e-08,4.942e-11
0.0799751,-0.76,0.0167739,0.01,-81.9362,288.8,-908.711,936.07,-196.299,-1.72396e-08,1.75171e-08,-3.69839e-09,956.726,-929.368,-0.00161326,1.79063e-08,-1.76288e-08,-3.03948e-14
0.0899751,-0.76,0.0154459,0.01,-81.1188,288.8,-918.554,927.657,-221.692,-1.73457e-08,1.7438e-08,-4.1768e-09,953.904,-944.801,0.0147331,1.79325e-08,-1.78402e-08,2.77581e-13
0.0999751,-0.76,0.0185859,0.01,-80.2083,288.8,-913.907,920.454,-245.968,-1.7247e-08,1.73134e-08,-4.63418e-09,952.863,-946.316,0.401618,1.7924e-08,-1.78576e-08,7.56671e-12
0.109975,-0.76,0.0181005,0.01,-79.2053,288.8,-904.426,911.629,-267.526,-1.70712e-08,1.71443e-08,-5.04035e-09,950.218,-943.015,-0.84829,1.78713e-08,-1.77983e-08,-1.59823e-11
0.119975,-0.76,0.0209455,0.01,-78.1108,288.8,-893.368,900.571,-289.81,-1.68629e-08,1.6936e-08,-5.46019e-09,946.228,-939.024,-0.592448,1.77962e-08,-1.77231e-08,-1.11621e-11
0.129975,-0.76,0.0212845,0.01,-76.926,288.8,-880.477,889.683,-312.43,-1.66287e-08,1.67221e-08,-5.88636e-09,943.208,-934.002,0.543587,1.77306e-08,-1.76372e-08,1.02415e-11
0.139975,-0.76,0.0238724,0.01,-75.6519,288.8,-868.072,877.018,-333.309,-1.63939e-08,1.64846e-08,-6.27973e-09,938.513,-929.566,0.576036,1.76432e-08,-1.75525e-08,1.08528e-11
0.149975,-0.76,0.0249971,0.01,-74.2898,288.8,-862.322,866.035,-353.72,-1.62628e-08,1.63005e-08,-6.66429e-09,935.623,-931.911,-1.07868,1.76115e-08,-1.75739e-08,-2.0323e-11
0.159975,-0.76,0.0273738,0.01,-72.8411,288.8,-852.479,853.215,-375.475,-1.60644e-08,1.60719e-08,-7.07417e-09,932.21,-931.474,-0.190229,1.75602e-08,-1.75527e-08,-3.58403e-12
0.169975,-0.76,0.0292375,0.01,-71.307,288.8,-838.598,838.89,-395.141,-1.58009e-08,1.58039e-08,-7.44468e-09,927.307,-927.015,0.193223,1.74697e-08,-1.74668e-08,3.64043e-12
0.179975,-0.76,0.0314486,0.01,-69.689,288.8,-823.54,823.92,-413.46,-1.55176e-08,1.55215e-08,-7.78982e-09,921.862,-921.482,0.132074,1.73668e-08,-1.73629e-08,2.48836e-12
0.189975,-0.76,0.0340047,0.01,-67.9886,288.8,-808.212,808.55,-431.241,-1.52287e-08,1.52321e-08,-8.12483e-09,916.383,-916.045,0.148854,1.72637e-08,-1.72603e-08,2.80449e-12
0.199975,-0.76,0.0360916,0.01,-66.2074,288.8,-792.766,792.772,-448.202,-1.49362e-08,1.49363e-08,-8.44439e-09,910.699,-910.694,-0.0225468,1.71581e-08,-1.7158e-08,-4.24795e-13
0.209975,-0.76,0.0392975,0.01,-64.3469,288.8,-776.336,776.375,-464.45,-1.46268e-08,1.46272e-08,-8.7505e-09,904.697,-904.658,0.00865747,1.70449e-08,-1.70445e-08,1.63112e-13
0.219975,-0.76,0.0412957,0.01,-62.4087,288.8,-759.565,759.58,-479.903,-1.43107e-08,1.43109e-08,-9.04166e-09,898.482,-898.468,-0.00350927,1.69279e-08,-1.69277e-08,-6.61168e-14
0.229975,-0.76,0.0451147,0.01,-60.3946,288.8,-742.386,742.408,-494.586,-1.39871e-08,1.39873e-08,-9.31828e-09,892.069,-892.048,0.00121947,1.6807e-08,-1.68068e-08,2.29756e-14
0.239975,-0.76,0.047054,0.01,-58.3063,288.8,-724.896,724.911,-508.483,-1.36575e-08,1.36577e-08,-9.58011e-09,885.468,-885.453,-0.000445003,1.66827e-08,-1.66825e-08,-8.38411e-15
0.249975,-0.76,0.0509197,0.01,-56.1454,288.8,-707.115,707.129,-521.594,-1.33225e-08,1.33227e-08,-9.82714e-09,878.689,-878.675,9.07706e-05,1.6555e-08,-1.65548e-08,1.71017e-15
0.259975,-0.76,0.0533597,0.01,-53.9139,288.8,-689.092,689.104,-533.919,-1.2983e-08,1.29831e-08,-1.00593e-08,871.743,-871.731,-5.77224e-05,1.64241e-08,-1.6424e-08,-1.08752e-15
0.269975,-0.76,0.0569815,0.01,-51.6134,288.8,-670.867,670.876,-545.459,-1.26396e-08,1.26397e-08,-1.02768e-08,864.64,-864.63,-2.00054e-05,1.62903e-08,-1.62902e-08,-3.76913e-16
0.279975,-0.76,0.0602069,0.01,-49.2459,288.8,-652.479,652.486,-556.218,-1.22931e-08,1.22932e-08,-1.04795e-08,857.39,-857.383,-2.4999e-05,1.61537e-08,-1.61536e-08,-4.70996e-16
0.289975,-0.76,0.0636308,0.01,-46.8131,288.8,-633.966,633.971,-566.203,-1.19443e-08,1.19444e-08,-1.06676e-08,850.004,-849.999,-2.20355e-05,1.60145e-08,-1.60145e-08,-4.15161e-16
0.299975,-0.76,0.0675902,0.01,-44.3169,288.8,-615.367,615.37,-575.422,-1.15939e-08,1.15939e-08,-1.08413e-08,842.491,-842.488,-2.04578e-05,1.5873e-08,-1.5873e-08,-3.85437e-16
0.309975,-0.76,0.0708559,0.01,-41.7592,288.8,-596.716,596.717,-583.886,-1.12425e-08,1.12425e-08,-1.10008e-08,834.862,-834.861,-1.84116e-05,1.57293e-08,-1.57293e-08,-3.46884e-16
0.319975,-0.76,0.0753171,0.01,-39.1418,288.8,-578.05,578.049,-591.607,-1.08908e-08,1.08908e-08,-1.11462e-08,827.127,-827.128,-1.67417e-05,1.55836e-08,-1.55836e-08,-3.15423e-16
0.329975,-0.76,0.0786462,0.01,-36.4666,288.8,-559.4,559.397,-598.599,-1.05394e-08,1.05394e-08,-1.12779e-08,819.295,-819.298,-1.49444e-05,1.5436e-08,-1.5436e-08,-2.81562e-16
0.339975,-0.76,0.0828822,0.01,-33.7355,288.8,-540.798,540.793,-604.876,-1.01889e-08,1.01889e-08,-1.13962e-08,811.376,-811.38,-1.32951e-05,1.52868e-08,-1.52869e-08,-2.50487e-16
0.349975,-0.76,0.0869924,0.01,-30.9503,288.8,-522.274,522.268,-610.455,-9.83992e-09,9.83986e-09,-1.15013e-08,803.379,-803.385,-1.17044e-05,1.51361e-08,-1.51362e-08,-2.20517e-16
0.359975,-0.76,0.09104,0.01,-28.1128,288.8,-503.857,503.849,-615.354,-9.49293e-09,9.49285e-09,-1.15936e-08,795.313,-795.32,-1.02041e-05,1.49842e-08,-1.49843e-08,-1.92251e-16
0.369975,-0.76,0.0958861,0.01,-25.225,288.8,-485.573,485.564,-619.591,-9.14843e-09,9.14834e-09,-1.16735e-08,787.187,-787.196,-8.79872e-06,1.48311e-08,-1.48312e-08,-1.65773e-16
0.379975,-0.76,0.0997779,0.01,-22.2886,288.8,-467.446,467.436,-623.187,-8.80692e-09,8.80681e-09,-1.17412e-08,779.009,-779.019,-7.49017e-06,1.4677e-08,-1.46771e-08,-1.41119e-16
0.389975,-0.76,0.104485,0.01,-19.3055,288.8,-449.501,449.489,-626.161,-8.46881e-09,8.46869e-09,-1.17972e-08,770.788,-770.8,-6.28224e-06,1.45221e-08,-1.45223e-08,-1.18361e-16
0.399975,-0.76,0.109084,0.01,-16.2774,288.8,-431.758,431.745,-628.535,-8.13452e-09,8.13439e-09,-1.1842e-08,762.533,-762.545,-5.17447e-06,1.43666e-08,-1.43667e-08,-9.749e-17
0.409975,-0.76,0.113607,0.01,-13.2061,288.8,-414.238,414.224,-630.33,-7.80442e-09,7.80428e-09,-1.18758e-08,754.249,-754.263,-4.16676e-06,1.42106e-08,-1.42107e-08,-7.85041e-17
0.419975,-0.76,0.118801,0.01,-10.0935,288.8,-396.958,396.943,-631.567,-7.47885e-09,7.4787e-09,-1.18991e-08,745.946,-745.961,-3.25754e-06,1.40541e-08,-1.40543e-08,-6.13739e-17
0.429975,-0.76,0.123316,0.01,-6.94107,288.8,-379.935,379.919,-632.27,-7.15813e-09,7.15797e-09,-1.19123e-08,737.631,-737.646,-2.44411e-06,1.38975e-08,-1.38976e-08,-4.60485e-17
0.439975,-0.76,0.128315,0.01,-3.75069,288.8,-363.185,363.168,-632.461,-6.84254e-09,6.84237e-09,-1.19159e-08,729.309,-729.326,-1.72262e-06,1.37407e-08,-1.37408e-08,-3.24552e-17
0.449975,-0.76,0.133599,0.01,-0.523992,288.8,-346.72,346.703,-632.161,-6.53234e-09,6.53216e-09,-1.19103e-08,720.988,-721.005,-1.08862e-06,1.35839e-08,-1.35841e-08,-2.05102e-17
0.459975,-0.76,0.138428,0.01,2.73738,288.8,-330.554,330.536,-631.394,-6.22775e-09,6.22757e-09,-1.18958e-08,712.675,-712.692,-5.3801e-07,1.34273e-08,-1.34275e-08,-1.01364e-17
0.469975,-0.76,0.143793,0.01,6.03181,288.8,-314.696,314.678,-630.181,-5.92897e-09,5.92879e-09,-1.1873e-08,704.374,-704.392,-6.58102e-08,1.32709e-08,-1.32711e-08,-1.2399e-18
0.479975,-0.76,0.149129,0.01,9.35771,288.8,-299.156,299.137,-628.545,-5.63619e-09,5.636e-09,-1.18422e-08,696.092,-696.111,3.34231e-07,1.31149e-08,-1.31151e-08,6.2971e-18
0.489975,-0.76,0.154321,0.01,12.7135,288.8,-283.941,283.922,-626.508,-5.34954e-09,5.34935e-09,-1.18038e-08,687.835,-687.854,6.67128e-07,1.29593e-08,-1.29595e-08,1.25691e-17
0.499975,-0.76,0.15997,0.01,16.0977,288.8,-269.06,269.04,-624.092,-5.06916e-09,5.06896e-09,-1.17582e-08,679.607,-679.626,9.38131e-07,1.28043e-08,-1.28045e-08,1.76749e-17
0.509975,-0.76,0.165446,0.01,19.5089,288.8,-254.516,254.497,-621.317,-4.79515e-09,4.79495e-09,-1.1706e-08,671.413,-671.432,1.15338e-06,1.26499e-08,-1.26501e-08,2.17303e-17
0.519975,-0.76,0.170924,0.01,22.9454,288.8,-240.315,240.296,-618.205,-4.5276e-09,4.52739e-09,-1.16473e-08,663.257,-663.277,1.31852e-06,1.24962e-08,-1.24964e-08,2.48417e-17
0.529975,-0.76,0.176798,0.01,26.406,288.8,-226.461,226.441,-614.775,-4.26656e-09,4.26636e-09,-1.15827e-08,655.145,-655.165,1.43865e-06,1.23434e-08,-1.23436e-08,2.71051e-17
0.539975,-0.76,0.182481,0.01,29.8893,288.8,-212.954,212.934,-611.049,-4.01209e-09,4.01189e-09,-1.15125e-08,647.08,-647.1,1.51882e-06,1.21915e-08,-1.21917e-08,2.86154e-17
0.549975,-0.76,0.188189,0.01,33.3939,288.8,-199.797,199.777,-607.045,-3.76421e-09,3.76401e-09,-1.14371e-08,639.066,-639.086,1.56381e-06,1.20405e-08,-1.20407e-08,2.94631e-17
0.559975,-0.76,0.194245,0.01,36.9184,288.8,-186.991,186.971,-602.782,-3.52293e-09,3.52273e-09,-1.13568e-08,631.107,-631.127,1.57879e-06,1.18905e-08,-1.18907e-08,2.97454e-17
0.569975,-0.76,0.200189,0.01,40.4616,288.8,-174.535,174.515,-598.279,-3.28826e-09,3.28805e-09,-1.12719e-08,623.205,-623.225,1.56797e-06,1.17416e-08,-1.17418e-08,2.95414e-17
0.579975,-0.76,0.206085,0.01,44.0223,288.8,-162.428,162.409,-593.553,-3.06016e-09,3.05996e-09,-1.11829e-08,615.363,-615.383,1.53494e-06,1.15939e-08,-1.15941e-08,2.89192e-17
0.589975,-0.76,0.212288,0.01,47.5993,288.8,-150.669,150.65,-588.621,-2.83861e-09,2.83841e-09,-1.109e-08,607.586,-607.606,1.48358e-06,1.14474e-08,-1.14476e-08,2.79514e-17
0.599975,-0.76,0.218536,0.01,51.1913,288.8,-139.52,138.98,-584,-2.62629e-09,2.62082e-09,-1.10029e-08,600.102,-600.642,0.11199,1.13086e-08,-1.13141e-08,2.10996e-12
0.609975,-0.76,0.224587,0.01,54.7972,288.8,-129.858,127.988,-579.79,-2.43847e-09,2.41949e-09,-1.09236e-08,593.015,-594.886,-0.387537,1.11809e-08,-1.11999e-08,-7.30143e-12
0.619975,-0.76,0.230913,0.01,58.4159,288.8,-119.227,116.485,-575.173,-2.23438e-09,2.20657e-09,-1.08366e-08,585.752,-588.494,0.0811146,1.10478e-08,-1.10756e-08,1.52825e-12
0.629975,-0.76,0.237491,0.01,62.0464,288.8,-109.224,104.492,-573.064,-2.03727e-09,1.98927e-09,-1.07968e-08,580.574,-585.306,1.28008,1.09589e-08,-1.10069e-08,2.41175e-11
0.639975,-0.76,0.243679,0.01,65.6876,288.8,-102.829,95.2842,-570.057,-1.90455e-09,1.82801e-09,-1.07402e-08,574.827,-582.371,-0.578012,1.08629e-08,-1.09394e-08,-1.08901e-11
-0.650025,-0.75,0.242667,0.01,65.0785,281.25,-87.8619,78.7353,573.855,-1.61569e-09,1.5231e-09,1.08118e-08,575.305,-584.432,0.911758,1.08788e-08,-1.09714e-08,1.71781e-11
-0.640025,-0.75,0.236035,0.01,61.3713,281.25,-95.8763,88.5204,577.115,-1.77438e-09,1.69976e-09,1.08732e-08,580.755,-588.111,0.299718,1.09737e-08,-1.10484e-08,5.64686e-12
-0.630025,-0.75,0.229647,0.01,57.6731,281.25,-102.988,100.135,579.9,-1.92794e-09,1.899e-09,1.09257e-08,587.3,-590.153,-0.0355841,1.10775e-08,-1.11064e-08,-6.70425e-13
-0.620025,-0.75,0.223402,0.01,53.985,281.25,-111.83,111.38,583.858,-2.10498e-09,2.10041e-09,1.10002e-08,594.204,-594.654,-0.180132,1.11971e-08,-1.12017e-08,-3.39379e-12
-0.610025,-0.75,0.216855,0.01,50.3081,281.25,-122.587,122.563,589.158,-2.30951e-09,2.30926e-09,1.11001e-08,601.762,-601.787,0.00297611,1.13377e-08,-1.13379e-08,5.60716e-14
-0.600025,-0.75,0.21058,0.01,46.6435,281.25,-133.815,133.794,594.8,-2.52106e-09,2.52085e-09,1.12064e-08,609.654,-609.675,-1.46696e-06,1.14863e-08,-1.14865e-08,-2.76384e-17
-0.590025,-0.75,0.204601,0.01,42.9922,281.25,-145.407,145.386,600.274,-2.73946e-09,2.73924e-09,1.13095e-08,617.621,-617.642,-1.55011e-06,1.16364e-08,-1.16366e-08,-2.9205e-17
-0.580025,-0.75,0.19825,0.01,39.3555,281.25,-157.36,157.339,605.562,-2.96466e-09,2.96445e-09,1.14091e-08,625.66,-625.681,-1.61995e-06,1.17879e-08,-1.17881e-08,-3.05208e-17
-0.570025,-0.75,0.192111,0.01,35.7345,281.25,-169.678,169.657,610.646,-3.19675e-09,3.19653e-09,1.15049e-08,633.769,-633.79,-1.67254e-06,1.19407e-08,-1.19409e-08,-3.15116e-17
-0.560025,-0.75,0.186307,0.01,32.1305,281.25,-182.363,182.342,615.51,-3.43574e-09,3.43553e-09,1.15966e-08,641.943,-641.964,-1.70295e-06,1.20947e-08,-1.20949e-08,-3.20845e-17
-0.550025,-0.75,0.180233,0.01,28.5447,281.25,-195.417,195.396,620.133,-3.68168e-09,3.68147e-09,1.16837e-08,650.181,-650.202,-1.70823e-06,1.22499e-08,-1.22501e-08,-3.2184e-17
-0.540025,-0.75,0.174261,0.01,24.9785,281.25,-208.84,208.819,624.499,-3.93458e-09,3.93437e-09,1.17659e-08,658.479,-658.5,-1.68383e-06,1.24062e-08,-1.24064e-08,-3.17243e-17
-0.530025,-0.75,0.168672,0.01,21.4332,281.25,-222.633,222.612,628.586,-4.19444e-09,4.19423e-09,1.18429e-08,666.833,-666.854,-1.62393e-06,1.25636e-08,-1.25638e-08,-3.05958e-17
-0.520025,-0.75,0.162824,0.01,17.9101,281.25,-236.794,236.773,632.374,-4.46125e-09,4.46103e-09,1.19143e-08,675.24,-675.261,-1.52339e-06,1.2722e-08,-1.27222e-08,-2.87015e-17
-0.510025,-0.75,0.157061,0.01,14.4107,281.25,-251.322,251.301,635.843,-4.73496e-09,4.73475e-09,1.19796e-08,683.695,-683.716,-1.37663e-06,1.28813e-08,-1.28815e-08,-2.59364e-17
-0.500025,-0.75,0.151738,0.01,10.9365,281.25,-266.214,266.193,638.97,-5.01553e-09,5.01532e-09,1.20386e-08,692.194,-692.215,-1.17849e-06,1.30414e-08,-1.30416e-08,-2.22035e-17
-0.490025,-0.75,0.146052,0.01,7.48883,281.25,-281.465,281.445,641.735,-5.30288e-09,5.30267e-09,1.20907e-08,700.733,-700.753,-9.22409e-07,1.32023e-08,-1.32025e-08,-1.73787e-17
-0.480025,-0.75,0.140552,0.01,4.06934,281.25,-297.071,297.051,644.115,-5.59691e-09,5.5967e-09,1.21355e-08,709.306,-709.326,-6.01627e-07,1.33638e-08,-1.3364e-08,-1.1335e-17
-0.470025,-0.75,0.135567,0.01,0.679567,281.25,-313.026,313.006,646.086,-5.8975e-09,5.8973e-09,1.21726e-08,717.908,-717.928,-2.10495e-07,1.35259e-08,-1.35261e-08,-3.96585e-18
-0.460025,-0.75,0.129958,0.01,-2.6789,281.25,-329.321,329.302,647.626,-6.20451e-09,6.20432e-09,1.22016e-08,726.533,-726.553,2.57231e-07,1.36884e-08,-1.36886e-08,4.84637e-18
-0.450025,-0.75,0.124797,0.01,-6.00444,281.25,-345.947,345.929,648.71,-6.51777e-09,6.51758e-09,1.22221e-08,735.177,-735.195,8.07986e-07,1.38512e-08,-1.38514e-08,1.52229e-17
-0.440025,-0.75,0.119974,0.01,-9.29538,281.25,-362.895,362.877,649.316,-6.83708e-09,6.8369e-09,1.22335e-08,743.831,-743.849,1.44796e-06,1.40143e-08,-1.40145e-08,2.72804e-17
-0.430025,-0.75,0.114608,0.01,-12.55,281.25,-380.152,380.135,649.419,-7.16221e-09,7.16204e-09,1.22354e-08,752.49,-752.507,2.18282e-06,1.41774e-08,-1.41776e-08,4.11255e-17
-0.420025,-0.75,0.109891,0.01,-15.7667,281.25,-397.704,397.688,648.995,-7.49291e-09,7.49275e-09,1.22274e-08,761.147,-761.163,3.01715e-06,1.43405e-08,-1.43407e-08,5.68449e-17
-0.410025,-0.75,0.105014,0.01,-18.9435,281.25,-415.537,415.522,648.021,-7.8289e-09,7.82874e-09,1.22091e-08,769.795,-769.81,3.95561e-06,1.45035e-08,-1.45036e-08,7.4526e-17
-0.400025,-0.75,0.100099,0.01,-22.0788,281.25,-433.634,433.62,646.472,-8.16985e-09,8.16971e-09,1.21799e-08,778.426,-778.44,5.00167e-06,1.46661e-08,-1.46662e-08,9.42344e-17
-0.390025,-0.75,0.0959772,0.01,-25.1708,281.25,-451.975,451.962,644.325,-8.51542e-09,8.51529e-09,1.21395e-08,787.033,-787.046,6.15917e-06,1.48282e-08,-1.48283e-08,1.16042e-16
-0.380025,-0.75,0.090884,0.01,-28.2175,281.25,-470.542,470.53,641.557,-8.86522e-09,8.86511e-09,1.20873e-08,795.607,-795.618,7.42671e-06,1.49897e-08,-1.49899e-08,1.39924e-16
-0.370025,-0.75,0.0865876,0.01,-31.2172,281.25,-489.31,489.3,638.145,-9.21885e-09,9.21874e-09,1.2023e-08,804.139,-804.15,8.80656e-06,1.51505e-08,-1.51506e-08,1.65921e-16
-0.360025,-0.75,0.0822616,0.01,-34.168,281.25,-508.258,508.249,634.066,-9.57584e-09,9.57575e-09,1.19462e-08,812.622,-812.631,1.03055e-05,1.53103e-08,-1.53104e-08,1.94162e-16
-0.350025,-0.75,0.077752,0.01,-37.0679,281.25,-527.359,527.352,629.301,-9.93572e-09,9.93565e-09,1.18564e-08,821.046,-821.054,1.18533e-05,1.5469e-08,-1.54691e-08,2.23322e-16
-0.340025,-0.75,0.0742493,0.01,-39.9151,281.25,-546.586,546.58,623.827,-1.0298e-08,1.02979e-08,1.17533e-08,829.402,-829.408,1.37281e-05,1.56264e-08,-1.56265e-08,2.58645e-16
-0.330025,-0.75,0.0694819,0.01,-42.7076,281.25,-565.908,565.905,617.626,-1.0662e-08,1.0662e-08,1.16364e-08,837.68,-837.684,1.50139e-05,1.57824e-08,-1.57824e-08,2.8287e-16
-0.320025,-0.75,0.0658977,0.01,-45.4435,281.25,-585.296,585.294,610.679,-1.10273e-08,1.10273e-08,1.15055e-08,845.871,-845.873,1.81374e-05,1.59367e-08,-1.59367e-08,3.41719e-16
-0.310025,-0.75,0.0617913,0.01,-48.121,281.25,-604.716,604.716,602.969,-1.13932e-08,1.13932e-08,1.13603e-08,853.964,-853.963,1.71299e-05,1.60892e-08,-1.60892e-08,3.22738e-16
-0.300025,-0.75,0.058009,0.01,-50.7379,281.25,-624.134,624.136,594.482,-1.17591e-08,1.17591e-08,1.12004e-08,861.949,-861.946,2.695e-05,1.62396e-08,-1.62396e-08,5.07754e-16
-0.290025,-0.75,0.0546969,0.01,-53.2924,281.25,-643.512,643.517,585.203,-1.21242e-08,1.21242e-08,1.10256e-08,869.815,-869.811,3.59639e-06,1.63878e-08,-1.63878e-08,6.7758e-17
-0.280025,-0.75,0.0506631,0.01,-55.7826,281.25,-662.815,662.821,575.122,-1.24878e-08,1.24879e-08,1.08356e-08,877.553,-877.546,9.87631e-05,1.65336e-08,-1.65335e-08,1.86075e-15
-0.270025,-0.75,0.0482194,0.01,-58.2065,281.25,-682,682.01,564.226,-1.28493e-08,1.28494e-08,1.06304e-08,885.15,-885.14,-0.000236417,1.66767e-08,-1.66766e-08,-4.45424e-15
-0.260025,-0.75,0.0438689,0.01,-60.5622,281.25,-701.033,701.042,552.51,-1.32079e-08,1.3208e-08,1.04096e-08,892.597,-892.588,0.000905578,1.6817e-08,-1.68169e-08,1.70616e-14
-0.250025,-0.75,0.0415193,0.01,-62.8478,281.25,-719.855,719.876,539.969,-1.35626e-08,1.35628e-08,1.01733e-08,899.885,-899.863,-0.00259777,1.69543e-08,-1.6954e-08,-4.89436e-14
-0.240025,-0.75,0.0376379,0.01,-65.0614,281.25,-738.467,738.466,526.594,-1.39131e-08,1.39131e-08,9.92133e-09,906.991,-906.992,0.00730729,1.70882e-08,-1.70883e-08,1.37674e-13
-0.230025,-0.75,0.0351693,0.01,-67.2012,281.25,-756.69,756.767,512.396,-1.42568e-08,1.42576e-08,9.65383e-09,913.925,-913.847,-0.0185813,1.72185e-08,-1.72177e-08,-3.50082e-13
-0.220025,-0.75,0.0319853,0.01,-69.2653,281.25,-774.232,774.544,497.338,-1.45883e-08,1.45915e-08,9.37014e-09,920.494,-920.182,-0.162301,1.73413e-08,-1.73381e-08,-3.05784e-12
-0.210025,-0.75,0.0293432,0.01,-71.2519,281.25,-792.154,792.164,481.833,-1.49247e-08,1.49248e-08,9.07802e-09,927.194,-927.184,-0.358795,1.74688e-08,-1.74687e-08,-6.75991e-12
-0.200025,-0.75,0.0269316,0.01,-73.1593,281.25,-806.96,809.359,463.047,-1.5214e-08,1.52384e-08,8.72408e-09,932.614,-930.215,0.896786,1.75606e-08,-1.75362e-08,1.6896e-11
-0.190025,-0.75,0.0240423,0.01,-74.9857,281.25,-817.124,824.304,443.887,-1.54263e-08,1.54992e-08,8.36309e-09,936.654,-929.474,0.461378,1.76159e-08,-1.7543e-08,8.69264e-12
-0.180025,-0.75,0.022504,0.01,-76.7295,281.25,-832.045,839.688,426.08,-1.57094e-08,1.5787e-08,8.0276e-09,942.02,-934.378,-0.245978,1.7715e-08,-1.76374e-08,-4.63436e-12
-0.170025,-0.75,0.019268,0.01,-78.3891,281.25,-849.28,855.747,405.815,-1.60291e-08,1.60947e-08,7.64578e-09,947.406,-940.94,1.49406,1.78216e-08,-1.7756e-08,2.8149e-11
-0.160025,-0.75,0.0187377,0.01,-79.963,281.25,-863.076,869.83,386.475,-1.62902e-08,1.63587e-08,7.28142e-09,952.115,-945.361,0.825399,1.7909e-08,-1.78405e-08,1.5551e-11
-0.150025,-0.75,0.0150212,0.01,-81.4493,281.25,-870.34,882.714,363.615,-1.64515e-08,1.65771e-08,6.85072e-09,955.141,-942.767,1.54151,1.79416e-08,-1.78161e-08,2.90429e-11
-0.140025,-0.75,0.0156722,0.01,-82.8473,281.25,-864.137,896.757,340.776,-1.64227e-08,1.67536e-08,6.42042e-09,960.405,-927.785,-0.134418,1.79528e-08,-1.76218e-08,-2.53251e-12
-0.130025,-0.75,0.0113031,0.01,-84.1545,281.25,-870.211,908.781,320.749,-1.6563e-08,1.69543e-08,6.0431e-09,964.841,-926.271,-2.61243,1.80105e-08,-1.76192e-08,-4.92197e-11
-0.120025,-0.75,0.0133389,0.01,-85.3716,281.25,-904.599,920.484,294.735,-1.71122e-08,1.72734e-08,5.55297e-09,966.888,-951.004,4.76531,1.81477e-08,-1.79865e-08,8.97812e-11
-0.110025,-0.75,0.00811456,0.01,-86.4939,281.25,-906.849,925.874,272.199,-1.71683e-08,1.73613e-08,5.12839e-09,965.444,-946.419,2.46585,1.81068e-08,-1.79138e-08,4.64581e-11
-0.100025,-0.75,0.0117314,0.01,-87.5259,281.25,-930.582,945.533,249.171,-1.75977e-08,1.77494e-08,4.69452e-09,978.047,-963.096,5.37645,1.8362e-08,-1.82103e-08,1.01295e-10
-0.0900249,-0.75,0.00545629,0.01,-88.4579,281.25,-921.034,938.296,224.494,-1.74279e-08,1.7603e-08,4.22959e-09,965.015,-947.753,1.89461,1.81064e-08,-1.79313e-08,3.56956e-11
0.0899751,-0.75,0.00545294,0.01,-88.4623,281.25,-921.068,938.338,-224.373,-1.74285e-08,1.76038e-08,-4.22732e-09,965.028,-947.758,-1.89608,1.81066e-08,-1.79314e-08,-3.57232e-11
0.0999751,-0.75,0.0116874,0.01,-87.5308,281.25,-930.625,945.585,-249.052,-1.75986e-08,1.77503e-08,-4.69229e-09,978.067,-963.107,-5.37689,1.83623e-08,-1.82105e-08,-1.01304e-10
0.109975,-0.75,0.00811101,0.01,-86.4993,281.25,-906.902,925.931,-272.086,-1.71693e-08,1.73623e-08,-5.12625e-09,965.466,-946.437,-2.46637,1.81072e-08,-1.79142e-08,-4.64678e-11
0.119975,-0.75,0.0132994,0.01,-85.3774,281.25,-904.649,920.537,-294.625,-1.71132e-08,1.72744e-08,-5.5509e-09,966.905,-951.017,-4.76206,1.8148e-08,-1.79868e-08,-8.972e-11
0.129975,-0.75,0.0112993,0.01,-84.1608,281.25,-870.255,908.85,-320.647,-1.65639e-08,1.69555e-08,-6.04117e-09,964.872,-926.277,2.61878,1.80109e-08,-1.76194e-08,4.93393e-11
0.139975,-0.75,0.0156376,0.01,-82.8541,281.25,-864.173,896.818,-340.669,-1.64234e-08,1.67546e-08,-6.41841e-09,960.424,-927.779,0.138511,1.7953e-08,-1.76218e-08,2.60964e-12
0.149975,-0.75,0.0150171,0.01,-81.4565,281.25,-870.378,882.785,-363.501,-1.64524e-08,1.65782e-08,-6.84857e-09,955.164,-942.756,-1.54665,1.79419e-08,-1.7816e-08,-2.91397e-11
0.159975,-0.75,0.0187078,0.01,-79.9706,281.25,-863.146,869.906,-386.368,-1.62916e-08,1.63601e-08,-7.27939e-09,952.14,-945.38,-0.832981,1.79095e-08,-1.78409e-08,-1.56938e-11
0.169975,-0.75,0.0192635,0.01,-78.3971,281.25,-849.354,855.827,-405.718,-1.60305e-08,1.60961e-08,-7.64396e-09,947.437,-940.965,-1.4953,1.78221e-08,-1.77565e-08,-2.81723e-11
0.179975,-0.75,0.0224781,0.01,-76.738,281.25,-832.125,839.764,-425.988,-1.57109e-08,1.57884e-08,-8.02586e-09,942.046,-934.407,0.245801,1.77155e-08,-1.7638e-08,4.63104e-12
0.189975,-0.75,0.0240375,0.01,-74.9946,281.25,-817.215,824.389,-443.796,-1.5428e-08,1.55008e-08,-8.36137e-09,936.684,-929.51,-0.466893,1.76165e-08,-1.75437e-08,-8.79653e-12
0.199975,-0.75,0.0269088,0.01,-73.1685,281.25,-807.055,809.446,-462.966,-1.52158e-08,1.524e-08,-8.72254e-09,932.648,-930.258,-0.897479,1.75612e-08,-1.7537e-08,-1.6909e-11
0.209975,-0.75,0.029338,0.01,-71.2616,281.25,-792.244,792.25,-481.756,-1.49264e-08,1.49264e-08,-9.07657e-09,927.227,-927.221,0.361394,1.74695e-08,-1.74694e-08,6.80887e-12
0.219975,-0.75,0.031965,0.01,-69.2753,281.25,-774.32,774.632,-497.261,-1.459e-08,1.45932e-08,-9.36869e-09,920.527,-920.214,0.162569,1.73419e-08,-1.73387e-08,3.06289e-12
0.229975,-0.75,0.0351637,0.01,-67.2116,281.25,-756.779,756.857,-512.323,-1.42585e-08,1.42593e-08,-9.65246e-09,913.958,-913.88,0.0189067,1.72192e-08,-1.72184e-08,3.56213e-13
0.239975,-0.75,0.0376195,0.01,-65.0722,281.25,-738.559,738.557,-526.525,-1.39149e-08,1.39149e-08,-9.92004e-09,907.026,-907.027,-0.00743053,1.70889e-08,-1.70889e-08,-1.39996e-13
0.249975,-0.75,0.0415133,0.01,-62.859,281.25,-719.948,719.969,-539.905,-1.35643e-08,1.35645e-08,-1.01721e-08,899.92,-899.899,0.00263243,1.69549e-08,-1.69547e-08,4.95964e-14
0.259975,-0.75,0.0438519,0.01,-60.5737,281.25,-701.128,701.136,-552.45,-1.32097e-08,1.32098e-08,-1.04085e-08,892.633,-892.625,-0.000915546,1.68177e-08,-1.68176e-08,-1.72494e-14
0.269975,-0.75,0.0481936,0.01,-58.2184,281.25,-682.095,682.105,-564.17,-1.28511e-08,1.28512e-08,-1.06293e-08,885.188,-885.178,0.000238957,1.66774e-08,-1.66773e-08,4.50208e-15
0.279975,-0.75,0.0506472,0.01,-55.7948,281.25,-662.911,662.917,-575.069,-1.24897e-08,1.24897e-08,-1.08346e-08,877.591,-877.584,-9.94347e-05,1.65343e-08,-1.65342e-08,-1.87341e-15
0.289975,-0.75,0.0546731,0.01,-53.305,281.25,-643.609,643.613,-585.155,-1.2126e-08,1.2126e-08,-1.10247e-08,869.854,-869.849,-3.41438e-06,1.63885e-08,-1.63885e-08,-6.43288e-17
0.299975,-0.75,0.0579939,0.01,-50.7508,281.25,-624.23,624.232,-594.438,-1.17609e-08,1.17609e-08,-1.11996e-08,861.988,-861.986,-2.70279e-05,1.62403e-08,-1.62403e-08,-5.09221e-16
0.309975,-0.75,0.061769,0.01,-48.1341,281.25,-604.813,604.813,-602.929,-1.1395e-08,1.1395e-08,-1.13595e-08,854.004,-854.003,-1.71129e-05,1.60899e-08,-1.60899e-08,-3.22417e-16
0.319975,-0.75,0.0658832,0.01,-45.457,281.25,-585.393,585.391,-610.642,-1.10291e-08,1.10291e-08,-1.15049e-08,845.911,-845.913,-1.81569e-05,1.59375e-08,-1.59375e-08,-3.42087e-16
0.329975,-0.75,0.069461,0.01,-42.7214,281.25,-566.005,566.001,-617.593,-1.06638e-08,1.06638e-08,-1.16358e-08,837.721,-837.725,-1.50211e-05,1.57832e-08,-1.57832e-08,-2.83006e-16
0.339975,-0.75,0.074223,0.01,-39.9291,281.25,-546.681,546.676,-623.798,-1.02998e-08,1.02997e-08,-1.17527e-08,829.444,-829.449,-1.37368e-05,1.56272e-08,-1.56273e-08,-2.5881e-16
0.349975,-0.75,0.0777321,0.01,-37.0822,281.25,-527.454,527.447,-629.275,-9.93752e-09,9.93744e-09,-1.18559e-08,821.088,-821.095,-1.18614e-05,1.54698e-08,-1.54699e-08,-2.23476e-16
0.359975,-0.75,0.0822368,0.01,-34.1825,281.25,-508.353,508.344,-634.045,-9.57762e-09,9.57754e-09,-1.19458e-08,812.664,-812.673,-1.03134e-05,1.53111e-08,-1.53112e-08,-1.94311e-16
0.369975,-0.75,0.0865686,0.01,-31.232,281.25,-489.404,489.394,-638.126,-9.22062e-09,9.22051e-09,-1.20227e-08,804.182,-804.192,-8.8138e-06,1.51513e-08,-1.51514e-08,-1.66057e-16
0.379975,-0.75,0.0908604,0.01,-28.2325,281.25,-470.634,470.623,-641.542,-8.86697e-09,8.86686e-09,-1.2087e-08,795.649,-795.661,-7.43282e-06,1.49905e-08,-1.49907e-08,-1.40039e-16
0.389975,-0.75,0.0959589,0.01,-25.186,281.25,-452.067,452.054,-644.313,-8.51715e-09,8.51702e-09,-1.21392e-08,787.076,-787.088,-6.16499e-06,1.4829e-08,-1.48291e-08,-1.16152e-16
0.399975,-0.75,0.100076,0.01,-22.0943,281.25,-433.724,433.71,-646.463,-8.17156e-09,8.17141e-09,-1.21797e-08,778.469,-778.483,-5.00726e-06,1.46669e-08,-1.4667e-08,-9.43396e-17
0.409975,-0.75,0.104988,0.01,-18.9592,281.25,-415.627,415.612,-648.015,-7.83058e-09,7.83043e-09,-1.2209e-08,769.838,-769.853,-3.96078e-06,1.45043e-08,-1.45044e-08,-7.46234e-17
0.419975,-0.75,0.109869,0.01,-15.7826,281.25,-397.792,397.776,-648.992,-7.49457e-09,7.49441e-09,-1.22274e-08,761.19,-761.206,-3.02148e-06,1.43413e-08,-1.43415e-08,-5.69264e-17
0.429975,-0.75,0.114583,0.01,-12.5661,281.25,-380.239,380.222,-649.418,-7.16384e-09,7.16367e-09,-1.22354e-08,752.533,-752.55,-2.18645e-06,1.41782e-08,-1.41784e-08,-4.1194e-17
0.439975,-0.75,0.119946,0.01,-9.31166,281.25,-362.98,362.962,-649.318,-6.83868e-09,6.8385e-09,-1.22335e-08,743.874,-743.892,-1.45148e-06,1.40151e-08,-1.40153e-08,-2.73467e-17
0.449975,-0.75,0.124773,0.01,-6.02089,281.25,-346.031,346.012,-648.714,-6.51934e-09,6.51915e-09,-1.22222e-08,735.22,-735.238,-8.10635e-07,1.3852e-08,-1.38522e-08,-1.52728e-17
0.459975,-0.75,0.129931,0.01,-2.69552,281.25,-329.403,329.384,-647.632,-6.20605e-09,6.20586e-09,-1.22018e-08,726.576,-726.595,-2.5902e-07,1.36892e-08,-1.36894e-08,-4.88009e-18
0.469975,-0.75,0.135544,0.01,0.662787,281.25,-313.106,313.086,-646.095,-5.89901e-09,5.89881e-09,-1.21728e-08,717.951,-717.97,2.08769e-07,1.35267e-08,-1.35269e-08,3.93334e-18
0.479975,-0.75,0.140525,0.01,4.05241,281.25,-297.15,297.13,-644.126,-5.59839e-09,5.59818e-09,-1.21357e-08,709.349,-709.369,5.99969e-07,1.33646e-08,-1.33648e-08,1.13038e-17
0.489975,-0.75,0.146023,0.01,7.47175,281.25,-281.542,281.521,-641.748,-5.30432e-09,5.30412e-09,-1.20909e-08,700.776,-700.796,9.20972e-07,1.32031e-08,-1.32033e-08,1.73516e-17
0.499975,-0.75,0.151713,0.01,10.9192,281.25,-266.289,266.268,-638.985,-5.01694e-09,5.01673e-09,-1.20388e-08,692.237,-692.257,1.17734e-06,1.30422e-08,-1.30424e-08,2.21817e-17
0.509975,-0.75,0.157033,0.01,14.3934,281.25,-251.395,251.374,-635.859,-4.73634e-09,4.73613e-09,-1.198e-08,683.737,-683.758,1.37559e-06,1.28821e-08,-1.28823e-08,2.59169e-17
0.519975,-0.75,0.162794,0.01,17.8926,281.25,-236.865,236.844,-632.392,-4.46259e-09,4.46238e-09,-1.19146e-08,675.282,-675.303,1.52232e-06,1.27228e-08,-1.2723e-08,2.86815e-17
0.529975,-0.75,0.168645,0.01,21.4156,281.25,-222.703,222.681,-628.605,-4.19575e-09,4.19554e-09,-1.18433e-08,666.875,-666.896,1.62325e-06,1.25644e-08,-1.25646e-08,3.05829e-17
0.539975,-0.75,0.174233,0.01,24.9608,281.25,-208.908,208.887,-624.52,-3.93586e-09,3.93564e-09,-1.17663e-08,658.52,-658.542,1.68349e-06,1.2407e-08,-1.24072e-08,3.1718e-17
0.549975,-0.75,0.180202,0.01,28.527,281.25,-195.483,195.462,-620.156,-3.68292e-09,3.68271e-09,-1.16841e-08,650.222,-650.243,1.70824e-06,1.22507e-08,-1.22509e-08,3.21842e-17
0.559975,-0.75,0.186279,0.01,32.1126,281.25,-182.427,182.406,-615.533,-3.43695e-09,3.43673e-09,-1.1597e-08,641.984,-642.005,1.70324e-06,1.20954e-08,-1.20957e-08,3.209e-17
0.569975,-0.75,0.192081,0.01,35.7165,281.25,-169.74,169.719,-610.671,-3.19792e-09,3.1977e-09,-1.15054e-08,633.809,-633.83,1.67257e-06,1.19414e-08,-1.19416e-08,3.15122e-17
0.579975,-0.75,0.198218,0.01,39.3374,281.25,-157.42,157.4,-605.588,-2.9658e-09,2.96559e-09,-1.14096e-08,625.701,-625.721,1.6202e-06,1.17887e-08,-1.17889e-08,3.05255e-17
0.589975,-0.75,0.204572,0.01,42.9741,281.25,-145.465,145.444,-600.301,-2.74056e-09,2.74035e-09,-1.131e-08,617.661,-617.682,1.55087e-06,1.16372e-08,-1.16374e-08,2.92192e-17
0.599975,-0.75,0.210549,0.01,46.6253,281.25,-133.872,133.851,-594.828,-2.52213e-09,2.52192e-09,-1.12069e-08,609.694,-609.714,1.46746e-06,1.14871e-08,-1.14873e-08,2.76477e-17
0.609975,-0.75,0.216823,0.01,50.2898,281.25,-122.642,122.618,-589.187,-2.31054e-09,2.31029e-09,-1.11006e-08,601.801,-601.826,-0.00297681,1.13384e-08,-1.13386e-08,-5.60849e-14
0.619975,-0.75,0.223369,0.01,53.9667,281.25,-111.883,111.433,-583.887,-2.10598e-09,2.10142e-09,-1.10008e-08,594.242,-594.692,0.18016,1.11978e-08,-1.12024e-08,3.39433e-12
0.629975,-0.75,0.229616,0.01,57.6547,281.25,-103.04,100.186,-579.93,-1.92892e-09,1.89997e-09,-1.09262e-08,587.338,-590.192,0.0355941,1.10782e-08,-1.11071e-08,6.70614e-13
0.639975,-0.75,0.236003,0.01,61.3528,281.25,-95.927,88.5706,-577.146,-1.77534e-09,1.70071e-09,-1.08738e-08,580.793,-588.15,-0.299896,1.09745e-08,-1.10491e-08,-5.65021e-12
0.649975,-0.75,0.242634,0.01,65.0601,281.25,-87.9117,78.7845,-573.887,-1.61662e-09,1.52403e-09,-1.08124e-08,575.343,-584.47,-0.912327,1.08795e-08,-1.09721e-08,-1.71888e-11
-0.660025,-0.74,0.24167,0.01,64.5643,273.8,-71.4982,62.2681,577.07,-1.30694e-09,1.2133e-09,1.08723e-08,576.317,-585.547,0.733385,1.08983e-08,-1.09919e-08,1.38174e-11
-0.650025,-0.74,0.235223,0.01,60.7922,273.8,-79.4696,72.0208,580.74,-1.46487e-09,1.3893e-09,1.09415e-08,581.934,-589.383,0.245248,1.09964e-08,-1.10719e-08,4.62062e-12
-0.640025,-0.74,0.22854,0.01,57.0276,273.8,-86.4794,83.5765,583.937,-1.6167e-09,1.58725e-09,1.10017e-08,588.644,-591.547,-0.0241947,1.1103e-08,-1.11325e-08,-4.55842e-13
-0.630025,-0.74,0.221937,0.01,53.2715,273.8,-95.2653,94.7145,588.349,-1.79246e-09,1.78687e-09,1.10848e-08,595.693,-596.243,-0.0780568,1.12256e-08,-1.12312e-08,-1.47064e-12
-0.620025,-0.74,0.215595,0.01,49.5249,273.8,-105.655,105.634,594.13,-1.99052e-09,1.99031e-09,1.11938e-08,603.439,-603.46,-1.27957e-06,1.13692e-08,-1.13694e-08,-2.41079e-17
-0.610025,-0.74,0.209282,0.01,45.7888,273.8,-116.679,116.658,600.288,-2.1982e-09,2.19799e-09,1.13098e-08,611.509,-611.531,-1.39691e-06,1.15213e-08,-1.15215e-08,-2.63186e-17
-0.600025,-0.74,0.202773,0.01,42.0644,273.8,-128.072,128.05,606.296,-2.41286e-09,2.41264e-09,1.1423e-08,619.662,-619.684,-1.50772e-06,1.16749e-08,-1.16751e-08,-2.84063e-17
-0.590025,-0.74,0.196557,0.01,38.3528,273.8,-139.84,139.818,612.138,-2.63457e-09,2.63435e-09,1.1533e-08,627.895,-627.917,-1.60895e-06,1.183e-08,-1.18302e-08,-3.03136e-17
-0.580025,-0.74,0.190585,0.01,34.6552,273.8,-151.986,151.964,617.798,-2.86341e-09,2.86319e-09,1.16397e-08,636.205,-636.227,-1.69818e-06,1.19866e-08,-1.19868e-08,-3.19947e-17
-0.570025,-0.74,0.184191,0.01,30.9728,273.8,-164.515,164.493,623.258,-3.09947e-09,3.09924e-09,1.17425e-08,644.591,-644.613,-1.77096e-06,1.21446e-08,-1.21448e-08,-3.33659e-17
-0.560025,-0.74,0.178129,0.01,27.3068,273.8,-177.43,177.408,628.498,-3.34278e-09,3.34256e-09,1.18413e-08,653.049,-653.071,-1.82272e-06,1.23039e-08,-1.23041e-08,-3.43412e-17
-0.550025,-0.74,0.172434,0.01,23.6586,273.8,-190.732,190.71,633.501,-3.5934e-09,3.59318e-09,1.19355e-08,661.576,-661.599,-1.85014e-06,1.24646e-08,-1.24648e-08,-3.48578e-17
-0.540025,-0.74,0.166207,0.01,20.0295,273.8,-204.423,204.401,638.246,-3.85136e-09,3.85113e-09,1.20249e-08,670.169,-670.192,-1.8481e-06,1.26265e-08,-1.26267e-08,-3.48194e-17
-0.530025,-0.74,0.160337,0.01,16.4208,273.8,-218.505,218.482,642.712,-4.11666e-09,4.11643e-09,1.21091e-08,678.825,-678.847,-1.81049e-06,1.27896e-08,-1.27898e-08,-3.41106e-17
-0.520025,-0.74,0.15489,0.01,12.834,273.8,-232.976,232.953,646.879,-4.3893e-09,4.38907e-09,1.21876e-08,687.539,-687.561,-1.7322e-06,1.29537e-08,-1.2954e-08,-3.26356e-17
-0.510025,-0.74,0.148846,0.01,9.27042,273.8,-247.835,247.813,650.724,-4.66926e-09,4.66903e-09,1.226e-08,696.307,-696.329,-1.60725e-06,1.31189e-08,-1.31191e-08,-3.02815e-17
-0.500025,-0.74,0.143219,0.01,5.73166,273.8,-263.08,263.058,654.225,-4.95649e-09,4.95627e-09,1.2326e-08,705.124,-705.146,-1.42934e-06,1.3285e-08,-1.32853e-08,-2.69296e-17
-0.490025,-0.74,0.137982,0.01,2.21922,273.8,-278.709,278.687,657.359,-5.25094e-09,5.25072e-09,1.2385e-08,713.987,-714.009,-1.19142e-06,1.3452e-08,-1.34522e-08,-2.2447e-17
-0.480025,-0.74,0.132146,0.01,-1.26534,273.8,-294.715,294.693,660.102,-5.5525e-09,5.55228e-09,1.24367e-08,722.889,-722.911,-8.86211e-07,1.36197e-08,-1.362e-08,-1.66967e-17
-0.470025,-0.74,0.126832,0.01,-4.72044,273.8,-311.093,311.072,662.429,-5.86107e-09,5.86086e-09,1.24806e-08,731.826,-731.847,-5.06838e-07,1.37881e-08,-1.37883e-08,-9.54912e-18
-0.460025,-0.74,0.121691,0.01,-8.14442,273.8,-327.835,327.815,664.317,-6.17652e-09,6.17631e-09,1.25161e-08,740.791,-740.812,-4.67178e-08,1.3957e-08,-1.39572e-08,-8.80192e-19
-0.450025,-0.74,0.116164,0.01,-11.5356,273.8,-344.934,344.914,665.741,-6.49867e-09,6.49847e-09,1.25429e-08,749.779,-749.799,5.01245e-07,1.41264e-08,-1.41266e-08,9.44375e-18
-0.440025,-0.74,0.111261,0.01,-14.8923,273.8,-362.379,362.36,666.674,-6.82734e-09,6.82715e-09,1.25605e-08,758.783,-758.802,1.14459e-06,1.4296e-08,-1.42962e-08,2.15647e-17
-0.430025,-0.74,0.1061,0.01,-18.2128,273.8,-380.157,380.139,667.092,-7.1623e-09,7.16211e-09,1.25684e-08,767.796,-767.814,1.88981e-06,1.44658e-08,-1.4466e-08,3.56052e-17
-0.420025,-0.74,0.100987,0.01,-21.4952,273.8,-398.256,398.238,666.969,-7.50329e-09,7.50312e-09,1.25661e-08,776.811,-776.828,2.74253e-06,1.46356e-08,-1.46358e-08,5.16708e-17
-0.410025,-0.74,0.0966414,0.01,-24.7378,273.8,-416.66,416.643,666.279,-7.85004e-09,7.84987e-09,1.25531e-08,785.82,-785.837,3.70929e-06,1.48054e-08,-1.48056e-08,6.98852e-17
-0.400025,-0.74,0.0912998,0.01,-27.9388,273.8,-435.352,435.336,664.997,-8.20221e-09,8.20206e-09,1.25289e-08,794.817,-794.832,4.79262e-06,1.49749e-08,-1.4975e-08,9.02958e-17
-0.390025,-0.74,0.0867611,0.01,-31.0962,273.8,-454.313,454.299,663.098,-8.55946e-09,8.55932e-09,1.24931e-08,803.792,-803.806,5.99776e-06,1.5144e-08,-1.51441e-08,1.13001e-16
-0.380025,-0.74,0.0822185,0.01,-34.2082,273.8,-473.523,473.51,660.555,-8.9214e-09,8.92127e-09,1.24452e-08,812.737,-812.75,7.34376e-06,1.53125e-08,-1.53126e-08,1.38361e-16
-0.370025,-0.74,0.0774428,0.01,-37.2728,273.8,-492.96,492.948,657.345,-9.28759e-09,9.28748e-09,1.23848e-08,821.643,-821.654,8.71206e-06,1.54803e-08,-1.54804e-08,1.6414e-16
-0.360025,-0.74,0.0737217,0.01,-40.2881,273.8,-512.597,512.587,653.444,-9.65759e-09,9.65748e-09,1.23113e-08,830.501,-830.511,1.06024e-05,1.56472e-08,-1.56473e-08,1.99755e-16
-0.350025,-0.74,0.068702,0.01,-43.2522,273.8,-532.41,532.402,648.829,-1.00309e-08,1.00308e-08,1.22243e-08,839.302,-839.31,1.13939e-05,1.5813e-08,-1.58131e-08,2.14668e-16
-0.340025,-0.74,0.0647948,0.01,-46.163,273.8,-552.369,552.362,643.476,-1.04069e-08,1.04069e-08,1.21235e-08,848.035,-848.042,1.5362e-05,1.59775e-08,-1.59776e-08,2.89429e-16
-0.330025,-0.74,0.0605585,0.01,-49.0186,273.8,-572.444,572.44,637.365,-1.07852e-08,1.07851e-08,1.20083e-08,856.691,-856.696,1.3131e-05,1.61406e-08,-1.61406e-08,2.47395e-16
-0.320025,-0.74,0.0564102,0.01,-51.817,273.8,-592.603,592.6,630.476,-1.1165e-08,1.11649e-08,1.18785e-08,865.26,-865.263,2.14629e-05,1.6302e-08,-1.6302e-08,4.04374e-16
-0.310025,-0.74,0.0530379,0.01,-54.5561,273.8,-612.811,612.81,622.79,-1.15457e-08,1.15457e-08,1.17337e-08,873.73,-873.73,1.59329e-05,1.64616e-08,-1.64616e-08,3.00185e-16
-0.300025,-0.74,0.0485789,0.01,-57.2339,273.8,-633.032,633.033,614.29,-1.19267e-08,1.19267e-08,1.15736e-08,882.09,-882.089,3.04209e-05,1.66191e-08,-1.66191e-08,5.73147e-16
-0.290025,-0.74,0.0458999,0.01,-59.8484,273.8,-653.227,653.232,604.96,-1.23072e-08,1.23072e-08,1.13978e-08,890.331,-890.326,-1.59093e-05,1.67743e-08,-1.67743e-08,-2.99741e-16
-0.280025,-0.74,0.0413162,0.01,-62.3975,273.8,-673.361,673.362,594.787,-1.26865e-08,1.26865e-08,1.12061e-08,898.437,-898.436,0.000171009,1.69271e-08,-1.69271e-08,3.22191e-15
-0.270025,-0.74,0.0384971,0.01,-64.8794,273.8,-693.379,693.399,583.762,-1.30637e-08,1.30639e-08,1.09984e-08,906.413,-906.392,-0.000463589,1.70773e-08,-1.7077e-08,-8.73429e-15
-0.260025,-0.74,0.0346441,0.01,-67.2919,273.8,-713.236,713.242,571.853,-1.34378e-08,1.34379e-08,1.07741e-08,914.184,-914.178,-0.00248234,1.72237e-08,-1.72237e-08,-4.67687e-14
-0.250025,-0.74,0.0316162,0.01,-69.6331,273.8,-732.636,732.893,559.122,-1.38044e-08,1.3807e-08,1.05342e-08,921.844,-921.588,-0.119792,1.7367e-08,-1.73644e-08,-2.25696e-12
-0.240025,-0.74,0.0285965,0.01,-71.901,273.8,-751.587,752.361,544.931,-1.41637e-08,1.41716e-08,1.02668e-08,929.05,-928.276,0.196447,1.75005e-08,-1.74926e-08,3.70118e-12
-0.230025,-0.74,0.0252592,0.01,-74.0936,273.8,-766.645,771.038,527.993,-1.44631e-08,1.45077e-08,9.94769e-09,934.877,-930.484,0.916054,1.75945e-08,-1.755e-08,1.7259e-11
-0.220025,-0.74,0.0232268,0.01,-76.2091,273.8,-779.001,787.626,512.564,-1.47143e-08,1.48018e-08,9.65701e-09,940.422,-931.797,-1.32692,1.76806e-08,-1.75931e-08,-2.49999e-11
-0.210025,-0.74,0.019428,0.01,-78.2455,273.8,-800.85,804.298,498.826,-1.51035e-08,1.51384e-08,9.39817e-09,946.681,-943.233,-2.84625,1.7821e-08,-1.7786e-08,-5.36249e-11
-0.200025,-0.74,0.0186224,0.01,-80.2012,273.8,-819.619,823.863,478.376,-1.54606e-08,1.55036e-08,9.01288e-09,952.964,-948.72,0.760381,1.79359e-08,-1.78929e-08,1.4326e-11
-0.190025,-0.74,0.014125,0.01,-82.074,273.8,-820.617,840.639,453.732,-1.5548e-08,1.57511e-08,8.54858e-09,956.483,-936.461,2.60994,1.79336e-08,-1.77305e-08,4.91728e-11
-0.180025,-0.74,0.0149225,0.01,-83.8628,273.8,-828.687,858.126,435.335,-1.57409e-08,1.60396e-08,8.20196e-09,963.851,-934.412,0.747982,1.80315e-08,-1.77329e-08,1.40924e-11
-0.170025,-0.74,0.00935436,0.01,-85.5644,273.8,-851.866,868.909,412.43,-1.61238e-08,1.62967e-08,7.77043e-09,962.642,-945.599,4.47711,1.80626e-08,-1.78897e-08,8.43514e-11
-0.160025,-0.74,0.0123189,0.01,-87.1806,273.8,-877.93,891.896,391.799,-1.66014e-08,1.67431e-08,7.38173e-09,974.712,-960.747,8.83419,1.83034e-08,-1.81617e-08,1.66441e-10
-0.150025,-0.74,0.00512774,0.01,-88.7028,273.8,-872.489,891.689,368.5,-1.65217e-08,1.67165e-08,6.94276e-09,965.559,-946.358,4.13854,1.81082e-08,-1.79134e-08,7.79724e-11
0.149975,-0.74,0.00511562,0.01,-88.7101,273.8,-872.483,891.764,-368.35,-1.65219e-08,1.67175e-08,-6.93992e-09,965.572,-946.292,-4.16726,1.81081e-08,-1.79125e-08,-7.85136e-11
0.159975,-0.74,0.0122734,0.01,-87.1884,273.8,-878.01,892.015,-391.677,-1.66031e-08,1.67452e-08,-7.37942e-09,974.773,-960.768,-8.86237,1.83044e-08,-1.81623e-08,-1.66972e-10
0.169975,-0.74,0.00934514,0.01,-85.5726,273.8,-851.932,868.989,-412.331,-1.61251e-08,1.62981e-08,-7.76856e-09,962.672,-945.615,-4.47626,1.80631e-08,-1.78901e-08,-8.43353e-11
0.179975,-0.74,0.0148834,0.01,-83.8715,273.8,-828.792,858.2,-435.237,-1.57428e-08,1.60411e-08,-8.20012e-09,963.87,-934.462,-0.755727,1.8032e-08,-1.77337e-08,-1.42383e-11
0.189975,-0.74,0.0141168,0.01,-82.0831,273.8,-820.745,840.726,-453.644,-1.55502e-08,1.57529e-08,-8.54691e-09,956.515,-936.533,-2.61991,1.79344e-08,-1.77317e-08,-4.93607e-11
0.199975,-0.74,0.0185894,0.01,-80.2107,273.8,-819.749,823.948,-478.306,-1.54628e-08,1.55054e-08,-9.01157e-09,953,-948.801,-0.755501,1.79368e-08,-1.78942e-08,-1.42341e-11
0.209975,-0.74,0.0194201,0.01,-78.2555,273.8,-800.945,804.382,-498.759,-1.51052e-08,1.51401e-08,-9.39691e-09,946.716,-943.279,2.85981,1.78217e-08,-1.77869e-08,5.38805e-11
0.219975,-0.74,0.0231988,0.01,-76.2194,273.8,-779.075,787.71,-512.493,-1.47158e-08,1.48034e-08,-9.65566e-09,940.454,-931.819,1.33929,1.76811e-08,-1.75936e-08,2.52329e-11
0.229975,-0.74,0.0252514,0.01,-74.1043,273.8,-766.722,771.128,-527.912,-1.44646e-08,1.45093e-08,-9.94617e-09,934.907,-930.5,-0.915229,1.7595e-08,-1.75503e-08,-1.72434e-11
0.239975,-0.74,0.0285722,0.01,-71.912,273.8,-751.678,752.458,-544.855,-1.41654e-08,1.41733e-08,-1.02654e-08,929.084,-928.304,-0.200484,1.75011e-08,-1.74932e-08,-3.77723e-12
0.249975,-0.74,0.0316084,0.01,-69.6445,273.8,-732.735,732.991,-559.056,-1.38063e-08,1.38089e-08,-1.05329e-08,921.883,-921.627,0.119394,1.73677e-08,-1.73651e-08,2.24944e-12
0.259975,-0.74,0.0346226,0.01,-67.3037,273.8,-713.336,713.341,-571.792,-1.34397e-08,1.34397e-08,-1.07729e-08,914.222,-914.217,0.00218985,1.72245e-08,-1.72244e-08,4.1258e-14
0.269975,-0.74,0.038489,0.01,-64.8915,273.8,-693.477,693.498,-583.705,-1.30656e-08,1.30658e-08,-1.09973e-08,906.452,-906.431,0.000554811,1.7078e-08,-1.70778e-08,1.0453e-14
0.279975,-0.74,0.0412966,0.01,-62.41,273.8,-673.461,673.462,-594.734,-1.26884e-08,1.26884e-08,-1.12051e-08,898.476,-898.476,-0.000199099,1.69278e-08,-1.69278e-08,-3.75113e-15
0.289975,-0.74,0.0458916,0.01,-59.8612,273.8,-653.327,653.333,-604.911,-1.23091e-08,1.23091e-08,-1.13969e-08,890.372,-890.366,2.42018e-05,1.67751e-08,-1.6775e-08,4.55977e-16
0.299975,-0.74,0.0485609,0.01,-57.247,273.8,-633.133,633.134,-614.245,-1.19286e-08,1.19286e-08,-1.15727e-08,882.132,-882.131,-3.30544e-05,1.66199e-08,-1.66199e-08,-6.22764e-16
0.309975,-0.74,0.053012,0.01,-54.5695,273.8,-612.911,612.911,-622.75,-1.15476e-08,1.15476e-08,-1.1733e-08,873.772,-873.772,-1.50686e-05,1.64624e-08,-1.64624e-08,-2.83901e-16
0.319975,-0.74,0.0563933,0.01,-51.8307,273.8,-592.704,592.701,-630.44,-1.11669e-08,1.11668e-08,-1.18779e-08,865.302,-865.305,-2.17809e-05,1.63028e-08,-1.63028e-08,-4.10365e-16
0.329975,-0.74,0.0605345,0.01,-49.0327,273.8,-572.544,572.54,-637.333,-1.0787e-08,1.0787e-08,-1.20077e-08,856.734,-856.739,-1.30354e-05,1.61414e-08,-1.61414e-08,-2.45595e-16
0.339975,-0.74,0.0647787,0.01,-46.1774,273.8,-552.469,552.462,-643.448,-1.04088e-08,1.04087e-08,-1.21229e-08,848.079,-848.085,-1.54049e-05,1.59783e-08,-1.59784e-08,-2.90237e-16
0.349975,-0.74,0.0686796,0.01,-43.2668,273.8,-532.509,532.5,-648.804,-1.00327e-08,1.00327e-08,-1.22238e-08,839.345,-839.354,-1.13932e-05,1.58138e-08,-1.58139e-08,-2.14655e-16
0.359975,-0.74,0.0737061,0.01,-40.303,273.8,-512.695,512.685,-653.423,-9.65943e-09,9.65933e-09,-1.23109e-08,830.545,-830.555,-1.06125e-05,1.5648e-08,-1.56481e-08,-1.99947e-16
0.369975,-0.74,0.0774216,0.01,-37.2879,273.8,-493.057,493.045,-657.328,-9.28943e-09,9.28931e-09,-1.23844e-08,821.687,-821.699,-8.7195e-06,1.54811e-08,-1.54812e-08,-1.6428e-16
0.379975,-0.74,0.0821925,0.01,-34.2235,273.8,-473.62,473.607,-660.541,-8.92321e-09,8.92308e-09,-1.2445e-08,812.781,-812.794,-7.35027e-06,1.53133e-08,-1.53135e-08,-1.38483e-16
0.389975,-0.74,0.0867408,0.01,-31.1118,273.8,-454.408,454.394,-663.086,-8.56125e-09,8.56111e-09,-1.24929e-08,803.836,-803.85,-6.00414e-06,1.51448e-08,-1.51449e-08,-1.13122e-16
0.399975,-0.74,0.0912751,0.01,-27.9546,273.8,-435.445,435.43,-664.989,-8.20398e-09,8.20382e-09,-1.25288e-08,794.861,-794.877,-4.7984e-06,1.49757e-08,-1.49759e-08,-9.04047e-17
0.409975,-0.74,0.0966219,0.01,-24.7539,273.8,-416.752,416.735,-666.274,-7.85178e-09,7.85161e-09,-1.2553e-08,785.865,-785.882,-3.71491e-06,1.48062e-08,-1.48064e-08,-6.9991e-17
0.419975,-0.74,0.100964,0.01,-21.5114,273.8,-398.347,398.329,-666.967,-7.505e-09,7.50483e-09,-1.2566e-08,776.856,-776.873,-2.74731e-06,1.46365e-08,-1.46367e-08,-5.1761e-17
0.429975,-0.74,0.106073,0.01,-18.2292,273.8,-380.246,380.228,-667.093,-7.16398e-09,7.16379e-09,-1.25684e-08,767.841,-767.859,-1.89361e-06,1.44666e-08,-1.44668e-08,-3.56768e-17
0.439975,-0.74,0.111239,0.01,-14.9089,273.8,-362.466,362.447,-666.678,-6.82899e-09,6.8288e-09,-1.25606e-08,758.828,-758.847,-1.14831e-06,1.42968e-08,-1.4297e-08,-2.16349e-17
0.449975,-0.74,0.116138,0.01,-11.5524,273.8,-345.02,345,-665.747,-6.50029e-09,6.50009e-09,-1.25431e-08,749.824,-749.844,-5.04527e-07,1.41272e-08,-1.41274e-08,-9.50559e-18
0.459975,-0.74,0.121663,0.01,-8.16137,273.8,-327.92,327.899,-664.326,-6.17811e-09,6.1779e-09,-1.25163e-08,740.836,-740.857,4.44002e-08,1.39579e-08,-1.39581e-08,8.36527e-19
0.469975,-0.74,0.126807,0.01,-4.73754,273.8,-311.175,311.154,-662.44,-5.86263e-09,5.86241e-09,-1.24808e-08,731.871,-731.892,5.04706e-07,1.3789e-08,-1.37892e-08,9.50896e-18
0.479975,-0.74,0.132118,0.01,-1.2826,273.8,-294.795,294.774,-660.114,-5.55402e-09,5.5538e-09,-1.24369e-08,722.934,-722.955,8.8389e-07,1.36206e-08,-1.36208e-08,1.6653e-17
0.489975,-0.74,0.137952,0.01,2.20183,273.8,-278.787,278.765,-657.373,-5.25242e-09,5.2522e-09,-1.23853e-08,714.031,-714.053,1.18959e-06,1.34529e-08,-1.34531e-08,2.24126e-17
0.499975,-0.74,0.143192,0.01,5.71413,273.8,-263.157,263.135,-654.242,-4.95794e-09,4.95772e-09,-1.23263e-08,705.168,-705.19,1.42822e-06,1.32859e-08,-1.32861e-08,2.69086e-17
0.509975,-0.74,0.148817,0.01,9.25275,273.8,-247.91,247.888,-650.742,-4.67067e-09,4.67045e-09,-1.22604e-08,696.35,-696.373,1.60646e-06,1.31197e-08,-1.312e-08,3.02666e-17
0.519975,-0.74,0.154864,0.01,12.8162,273.8,-233.049,233.026,-646.899,-4.39067e-09,4.39045e-09,-1.21879e-08,687.582,-687.604,1.73169e-06,1.29545e-08,-1.29548e-08,3.2626e-17
0.529975,-0.74,0.160308,0.01,16.4029,273.8,-218.576,218.553,-642.734,-4.118e-09,4.11777e-09,-1.21095e-08,678.868,-678.89,1.81037e-06,1.27904e-08,-1.27906e-08,3.41085e-17
0.539975,-0.74,0.166177,0.01,20.0115,273.8,-204.492,204.47,-638.269,-3.85266e-09,3.85243e-09,-1.20254e-08,670.212,-670.235,1.8479e-06,1.26273e-08,-1.26275e-08,3.48156e-17
0.549975,-0.74,0.172407,0.01,23.6405,273.8,-190.799,190.777,-633.525,-3.59467e-09,3.59444e-09,-1.1936e-08,661.619,-661.641,1.85033e-06,1.24654e-08,-1.24656e-08,3.48613e-17
0.559975,-0.74,0.178099,0.01,27.2886,273.8,-177.495,177.473,-628.524,-3.34401e-09,3.34379e-09,-1.18418e-08,653.091,-653.113,1.8235e-06,1.23047e-08,-1.23049e-08,3.43558e-17
0.569975,-0.74,0.18416,0.01,30.9545,273.8,-164.579,164.556,-623.284,-3.10066e-09,3.10043e-09,-1.1743e-08,644.633,-644.655,1.7714e-06,1.21454e-08,-1.21456e-08,3.33742e-17
0.579975,-0.74,0.190552,0.01,34.6368,273.8,-152.048,152.026,-617.826,-2.86457e-09,2.86435e-09,-1.16402e-08,636.247,-636.269,1.69839e-06,1.19874e-08,-1.19876e-08,3.19987e-17
0.589975,-0.74,0.196527,0.01,38.3344,273.8,-139.899,139.877,-612.167,-2.63569e-09,2.63547e-09,-1.15336e-08,627.936,-627.958,1.60975e-06,1.18308e-08,-1.1831e-08,3.03286e-17
0.599975,-0.74,0.202741,0.01,42.0459,273.8,-128.13,128.108,-606.325,-2.41394e-09,2.41372e-09,-1.14235e-08,619.703,-619.724,1.50839e-06,1.16757e-08,-1.16759e-08,2.84189e-17
0.609975,-0.74,0.209249,0.01,45.7702,273.8,-116.734,116.713,-600.318,-2.19925e-09,2.19904e-09,-1.13103e-08,611.55,-611.571,1.3973e-06,1.1522e-08,-1.15223e-08,2.63259e-17
0.619975,-0.74,0.215564,0.01,49.5062,273.8,-105.709,105.688,-594.161,-1.99153e-09,1.99132e-09,-1.11943e-08,603.479,-603.5,1.28011e-06,1.137e-08,-1.13702e-08,2.41181e-17
0.629975,-0.74,0.221904,0.01,53.2528,273.8,-95.3174,94.7666,-588.381,-1.79344e-09,1.78785e-09,-1.10854e-08,595.732,-596.283,0.0781,1.12263e-08,-1.12319e-08,1.47145e-12
0.639975,-0.74,0.228507,0.01,57.0089,273.8,-86.5301,83.6269,-583.97,-1.61765e-09,1.5882e-09,-1.10023e-08,588.683,-591.586,0.0242062,1.11038e-08,-1.11332e-08,4.56058e-13
0.649975,-0.74,0.235192,0.01,60.7735,273.8,-79.5192,72.0698,-580.773,-1.4658e-09,1.39023e-09,-1.09421e-08,581.973,-589.422,-0.245419,1.09971e-08,-1.10727e-08,-4.62383e-12
0.659975,-0.74,0.241637,0.01,64.5456,273.8,-71.5468,62.316,-577.103,-1.30785e-09,1.2142e-09,-1.0873e-08,576.356,-585.587,-0.733936,1.0899e-08,-1.09927e-08,-1.38278e-11
-0.670025,-0.73,0.241109,0.01,64.1638,266.45,-54.9584,45.6472,579.583,-9.94964e-10,9.00503e-10,1.09197e-08,577.106,-586.418,0.552345,1.09135e-08,-1.1008e-08,1.04065e-11
-0.660025,-0.73,0.234221,0.01,60.3282,266.45,-62.8666,55.3428,583.657,-1.15173e-09,1.0754e-09,1.09964e-08,582.88,-590.404,0.190752,1.10145e-08,-1.10908e-08,3.59387e-12
-0.650025,-0.73,0.227563,0.01,56.4985,266.45,-69.7434,66.8072,587.267,-1.30124e-09,1.27145e-09,1.10644e-08,589.754,-592.69,-0.0204862,1.11241e-08,-1.11539e-08,-3.85971e-13
-0.640025,-0.73,0.221158,0.01,52.6755,266.45,-78.3242,77.7662,592.118,-1.47325e-09,1.46759e-09,1.11559e-08,596.961,-597.519,-0.0648238,1.12495e-08,-1.12552e-08,-1.22132e-12
-0.630025,-0.73,0.214415,0.01,48.8604,266.45,-88.4615,88.4401,598.375,-1.66657e-09,1.66636e-09,1.12737e-08,604.866,-604.888,-1.14166e-06,1.13961e-08,-1.13963e-08,-2.15095e-17
-0.620025,-0.73,0.207844,0.01,45.0541,266.45,-99.2438,99.2219,605.036,-1.86972e-09,1.86949e-09,1.13992e-08,613.109,-613.131,-1.27707e-06,1.15514e-08,-1.15516e-08,-2.40608e-17
-0.610025,-0.73,0.201554,0.01,41.2578,266.45,-110.406,110.384,611.569,-2.08002e-09,2.07979e-09,1.15223e-08,621.442,-621.464,-1.40998e-06,1.17084e-08,-1.17086e-08,-2.65648e-17
-0.600025,-0.73,0.195166,0.01,37.4725,266.45,-121.954,121.932,617.958,-2.29759e-09,2.29736e-09,1.16427e-08,629.863,-629.886,-1.53785e-06,1.18671e-08,-1.18673e-08,-2.89741e-17
-0.590025,-0.73,0.188699,0.01,33.6994,266.45,-133.894,133.871,624.185,-2.52254e-09,2.52231e-09,1.176e-08,638.371,-638.394,-1.65791e-06,1.20274e-08,-1.20276e-08,-3.12359e-17
-0.580025,-0.73,0.182552,0.01,29.9397,266.45,-146.23,146.207,630.235,-2.75496e-09,2.75472e-09,1.1874e-08,646.963,-646.986,-1.7673e-06,1.21893e-08,-1.21895e-08,-3.3297e-17
-0.570025,-0.73,0.176481,0.01,26.1946,266.45,-158.967,158.944,636.088,-2.99492e-09,2.99469e-09,1.19843e-08,655.637,-655.66,-1.86137e-06,1.23527e-08,-1.23529e-08,-3.50693e-17
-0.560025,-0.73,0.170145,0.01,22.4654,266.45,-172.108,172.085,641.725,-3.24252e-09,3.24228e-09,1.20905e-08,664.389,-664.412,-1.93615e-06,1.25176e-08,-1.25178e-08,-3.64781e-17
-0.550025,-0.73,0.164174,0.01,18.7534,266.45,-185.657,185.634,647.126,-3.49779e-09,3.49755e-09,1.21922e-08,673.217,-673.24,-1.98778e-06,1.26839e-08,-1.26841e-08,-3.7451e-17
-0.540025,-0.73,0.158374,0.01,15.06,266.45,-199.616,199.593,652.271,-3.76079e-09,3.76055e-09,1.22892e-08,682.117,-682.141,-2.01042e-06,1.28516e-08,-1.28518e-08,-3.78774e-17
-0.530025,-0.73,0.152202,0.01,11.3865,266.45,-213.987,213.963,657.138,-4.03153e-09,4.03129e-09,1.23809e-08,691.086,-691.11,-1.99777e-06,1.30206e-08,-1.30208e-08,-3.76392e-17
-0.520025,-0.73,0.146453,0.01,7.7345,266.45,-228.769,228.745,661.705,-4.31003e-09,4.30979e-09,1.24669e-08,700.119,-700.143,-1.94457e-06,1.31908e-08,-1.3191e-08,-3.66369e-17
-0.510025,-0.73,0.140863,0.01,4.10534,266.45,-243.962,243.938,665.949,-4.59628e-09,4.59604e-09,1.25469e-08,709.213,-709.237,-1.84413e-06,1.33621e-08,-1.33623e-08,-3.47444e-17
-0.500025,-0.73,0.134903,0.01,0.500566,266.45,-259.565,259.541,669.847,-4.89024e-09,4.89001e-09,1.26203e-08,718.363,-718.387,-1.68965e-06,1.35345e-08,-1.35347e-08,-3.1834e-17
-0.490025,-0.73,0.129442,0.01,-3.07824,266.45,-275.574,275.551,673.373,-5.19187e-09,5.19164e-09,1.26867e-08,727.564,-727.587,-1.4736e-06,1.37078e-08,-1.37081e-08,-2.77636e-17
-0.480025,-0.73,0.123978,0.01,-6.62949,266.45,-291.986,291.963,676.504,-5.50108e-09,5.50085e-09,1.27457e-08,736.81,-736.833,-1.18777e-06,1.3882e-08,-1.38823e-08,-2.23783e-17
-0.470025,-0.73,0.118297,0.01,-10.1515,266.45,-308.795,308.772,679.213,-5.81777e-09,5.81755e-09,1.27968e-08,746.097,-746.119,-8.24528e-07,1.4057e-08,-1.40572e-08,-1.55346e-17
-0.460025,-0.73,0.113216,0.01,-13.6427,266.45,-325.994,325.972,681.474,-6.14182e-09,6.1416e-09,1.28394e-08,755.417,-755.439,-3.76236e-07,1.42326e-08,-1.42328e-08,-7.08851e-18
-0.450025,-0.73,0.107767,0.01,-17.1013,266.45,-343.575,343.554,683.261,-6.47306e-09,6.47284e-09,1.2873e-08,764.766,-764.787,1.65376e-07,1.44087e-08,-1.44089e-08,3.11578e-18
-0.440025,-0.73,0.102464,0.01,-20.5255,266.45,-361.528,361.507,684.548,-6.81131e-09,6.8111e-09,1.28973e-08,774.135,-774.156,8.08506e-07,1.45852e-08,-1.45855e-08,1.52327e-17
-0.430025,-0.73,0.0978759,0.01,-23.9135,266.45,-379.841,379.822,685.307,-7.15635e-09,7.15614e-09,1.29116e-08,783.519,-783.539,1.56113e-06,1.4762e-08,-1.47622e-08,2.94127e-17
-0.420025,-0.73,0.0923082,0.01,-27.2636,266.45,-398.502,398.483,685.51,-7.50792e-09,7.50773e-09,1.29154e-08,792.909,-792.928,2.4286e-06,1.49389e-08,-1.49391e-08,4.57562e-17
-0.410025,-0.73,0.0875325,0.01,-30.5738,266.45,-417.494,417.476,685.13,-7.86574e-09,7.86556e-09,1.29082e-08,802.298,-802.316,3.41805e-06,1.51158e-08,-1.5116e-08,6.43981e-17
-0.400025,-0.73,0.0827739,0.01,-33.8423,266.45,-436.8,436.783,684.14,-8.2295e-09,8.22932e-09,1.28896e-08,811.678,-811.695,4.55902e-06,1.52926e-08,-1.52927e-08,8.58946e-17
-0.390025,-0.73,0.077739,0.01,-37.0671,266.45,-456.402,456.387,682.513,-8.59882e-09,8.59865e-09,1.28589e-08,821.04,-821.056,5.70787e-06,1.54689e-08,-1.54691e-08,1.0754e-16
-0.380025,-0.73,0.0737237,0.01,-40.2462,266.45,-476.279,476.264,680.22,-8.97331e-09,8.97316e-09,1.28157e-08,830.375,-830.389,7.46941e-06,1.56448e-08,-1.5645e-08,1.40728e-16
-0.370025,-0.73,0.0685374,0.01,-43.3777,266.45,-496.407,496.394,677.237,-9.35254e-09,9.3524e-09,1.27595e-08,839.674,-839.687,8.01606e-06,1.582e-08,-1.58201e-08,1.51027e-16
-0.360025,-0.73,0.064303,0.01,-46.4596,266.45,-516.761,516.75,673.537,-9.73603e-09,9.73591e-09,1.26898e-08,848.928,-848.939,1.13468e-05,1.59943e-08,-1.59945e-08,2.1378e-16
-0.350025,-0.73,0.0599548,0.01,-49.4898,266.45,-537.314,537.304,669.094,-1.01233e-08,1.01232e-08,1.26061e-08,858.125,-858.135,1.37163e-05,1.61676e-08,-1.61677e-08,2.58422e-16
-0.340025,-0.73,0.0554344,0.01,-52.4662,266.45,-558.036,558.028,663.884,-1.05137e-08,1.05136e-08,1.2508e-08,867.257,-867.265,-3.62365e-06,1.63397e-08,-1.63397e-08,-6.82716e-17
-0.330025,-0.73,0.0520282,0.01,-55.3869,266.45,-578.896,578.891,657.884,-1.09067e-08,1.09067e-08,1.23949e-08,876.312,-876.318,0.000100951,1.65103e-08,-1.65103e-08,1.90197e-15
-0.320025,-0.73,0.047135,0.01,-58.2497,266.45,-599.861,599.856,651.071,-1.13017e-08,1.13017e-08,1.22666e-08,885.279,-885.284,-0.00029929,1.66792e-08,-1.66792e-08,-5.63881e-15
-0.310025,-0.73,0.0440055,0.01,-61.0524,266.45,-620.893,620.893,643.425,-1.1698e-08,1.1698e-08,1.21225e-08,894.15,-894.149,0.00107968,1.68463e-08,-1.68463e-08,2.03418e-14
-0.300025,-0.73,0.0394306,0.01,-63.7931,266.45,-641.952,641.948,634.927,-1.20947e-08,1.20947e-08,1.19624e-08,902.9,-902.904,-0.00346666,1.70112e-08,-1.70112e-08,-6.53138e-14
-0.290025,-0.73,0.0360785,0.01,-66.4696,266.45,-663.002,663.026,625.553,-1.24914e-08,1.24917e-08,1.17858e-08,911.551,-911.527,0.00829818,1.71741e-08,-1.71738e-08,1.56343e-13
-0.280025,-0.73,0.032362,0.01,-69.0798,266.45,-683.655,683.866,615.276,-1.28814e-08,1.28835e-08,1.15922e-08,919.939,-919.728,-0.144538,1.73313e-08,-1.73291e-08,-2.72318e-12
-0.270025,-0.73,0.0286757,0.01,-71.6216,266.45,-704.554,704.981,603.986,-1.32761e-08,1.32804e-08,1.13794e-08,928.382,-927.955,0.0323319,1.74894e-08,-1.74851e-08,6.09151e-13
-0.260025,-0.73,0.0259991,0.01,-74.0929,266.45,-722.038,725.391,589.573,-1.36182e-08,1.36522e-08,1.11079e-08,935.142,-931.79,0.712525,1.7604e-08,-1.757e-08,1.34244e-11
-0.250025,-0.73,0.0218018,0.01,-76.4916,266.45,-736.953,744.805,575.132,-1.39188e-08,1.39984e-08,1.08358e-08,941.838,-933.986,-0.146876,1.77106e-08,-1.7631e-08,-2.76722e-12
-0.240025,-0.73,0.0204672,0.01,-78.8158,266.45,-757.443,764.488,561.038,-1.43013e-08,1.43728e-08,1.05703e-08,948.949,-941.904,0.0259009,1.78481e-08,-1.77767e-08,4.87988e-13
-0.230025,-0.73,0.0154653,0.01,-81.0631,266.45,-771.804,784.362,541.153,-1.45958e-08,1.47232e-08,1.01956e-08,954.041,-941.483,2.66502,1.79201e-08,-1.77927e-08,5.02105e-11
-0.220025,-0.73,0.0159972,0.01,-83.2322,266.45,-771.892,803.455,523.279,-1.46801e-08,1.50003e-08,9.85888e-09,961.429,-929.867,-0.849351,1.79767e-08,-1.76565e-08,-1.60023e-11
-0.210025,-0.73,0.00968876,0.01,-85.3197,266.45,-793.265,810.889,513.756,-1.50222e-08,1.5201e-08,9.67946e-09,961.278,-943.655,-8.96441,1.80344e-08,-1.78556e-08,-1.68895e-10
-0.200025,-0.73,0.0114819,0.01,-87.3269,266.45,-842.11,827.839,499.528,-1.58038e-08,1.5659e-08,9.4114e-09,965.846,-980.117,-4.13586,1.82592e-08,-1.84039e-08,-7.7922e-11
0.199975,-0.73,0.0115118,0.01,-87.3366,266.45,-842.299,827.923,-499.501,-1.58069e-08,1.56611e-08,-9.41089e-09,965.897,-980.272,4.16635,1.82606e-08,-1.84064e-08,7.84965e-11
0.209975,-0.73,0.00967295,0.01,-85.3298,266.45,-793.328,810.939,-513.71,-1.50233e-08,1.5202e-08,-9.6786e-09,961.295,-943.683,9.01573,1.80348e-08,-1.78561e-08,1.69862e-10
0.219975,-0.73,0.0159565,0.01,-83.2428,266.45,-771.904,803.544,-523.204,-1.46807e-08,1.50017e-08,-9.85746e-09,961.468,-929.828,0.876502,1.7977e-08,-1.76561e-08,1.65138e-11
0.229975,-0.73,0.0154526,0.01,-81.0741,266.45,-771.828,784.461,-541.047,-1.45966e-08,1.47248e-08,-1.01936e-08,954.068,-941.436,-2.6696,1.79203e-08,-1.77921e-08,-5.02968e-11
0.239975,-0.73,0.0204333,0.01,-78.8271,266.45,-757.529,764.599,-560.941,-1.4303e-08,1.43748e-08,-1.05685e-08,948.984,-941.914,-0.0458971,1.78487e-08,-1.77769e-08,-8.64728e-13
0.249975,-0.73,0.0217904,0.01,-76.5034,266.45,-737.077,744.918,-575.057,-1.3921e-08,1.40006e-08,-1.08344e-08,941.88,-934.039,0.12868,1.77115e-08,-1.76319e-08,2.4244e-12
0.259975,-0.73,0.0259703,0.01,-74.105,266.45,-722.164,725.498,-589.519,-1.36205e-08,1.36543e-08,-1.11069e-08,935.189,-931.856,-0.714723,1.7605e-08,-1.75712e-08,-1.34658e-11
0.269975,-0.73,0.0286649,0.01,-71.6341,266.45,-704.665,705.085,-603.936,-1.32781e-08,1.32824e-08,-1.13785e-08,928.427,-928.008,-0.0285602,1.74903e-08,-1.7486e-08,-5.3809e-13
0.279975,-0.73,0.0323371,0.01,-69.0926,266.45,-683.758,683.969,-615.224,-1.28833e-08,1.28855e-08,-1.15912e-08,919.98,-919.769,0.145502,1.7332e-08,-1.73299e-08,2.74133e-12
0.289975,-0.73,0.036068,0.01,-66.4828,266.45,-663.106,663.131,-625.504,-1.24934e-08,1.24937e-08,-1.17849e-08,911.594,-911.569,-0.00825793,1.71749e-08,-1.71746e-08,-1.55584e-13
0.299975,-0.73,0.0394083,0.01,-63.8066,266.45,-642.057,642.053,-634.882,-1.20967e-08,1.20967e-08,-1.19616e-08,902.943,-902.947,0.00346083,1.7012e-08,-1.7012e-08,6.5204e-14
0.309975,-0.73,0.0439951,0.01,-61.0662,266.45,-620.997,620.998,-643.385,-1.17e-08,1.17e-08,-1.21217e-08,894.194,-894.193,-0.00107593,1.68471e-08,-1.68471e-08,-2.02711e-14
0.319975,-0.73,0.0471147,0.01,-58.2637,266.45,-599.965,599.96,-651.035,-1.13037e-08,1.13036e-08,-1.22659e-08,885.324,-885.328,0.000297315,1.668e-08,-1.66801e-08,5.60159e-15
0.329975,-0.73,0.0520003,0.01,-55.4013,266.45,-579,578.995,-657.852,-1.09087e-08,1.09086e-08,-1.23943e-08,876.357,-876.363,-9.99879e-05,1.65111e-08,-1.65112e-08,-1.88383e-15
0.339975,-0.73,0.0554155,0.01,-52.4809,266.45,-558.14,558.132,-663.856,-1.05156e-08,1.05156e-08,-1.25074e-08,867.302,-867.31,3.18061e-06,1.63405e-08,-1.63406e-08,5.99245e-17
0.349975,-0.73,0.059929,0.01,-49.5047,266.45,-537.417,537.407,-669.07,-1.01252e-08,1.01251e-08,-1.26057e-08,858.171,-858.181,-1.35564e-05,1.61685e-08,-1.61686e-08,-2.5541e-16
0.359975,-0.73,0.0642851,0.01,-46.4748,266.45,-516.863,516.851,-673.517,-9.73794e-09,9.73783e-09,-1.26894e-08,848.974,-848.985,-1.14122e-05,1.59952e-08,-1.59953e-08,-2.15012e-16
0.369975,-0.73,0.0685134,0.01,-43.3932,266.45,-496.508,496.495,-677.221,-9.35443e-09,9.3543e-09,-1.27592e-08,839.72,-839.733,-8.00799e-06,1.58209e-08,-1.5821e-08,-1.50875e-16
0.379975,-0.73,0.0737066,0.01,-40.2619,266.45,-476.378,476.364,-680.207,-8.97518e-09,8.97504e-09,-1.28155e-08,830.421,-830.436,-7.48032e-06,1.56457e-08,-1.56458e-08,-1.40934e-16
0.389975,-0.73,0.0777164,0.01,-37.083,266.45,-456.5,456.485,-682.503,-8.60067e-09,8.6005e-09,-1.28587e-08,821.086,-821.102,-5.71421e-06,1.54698e-08,-1.547e-08,-1.07659e-16
0.399975,-0.73,0.0827467,0.01,-33.8584,266.45,-436.897,436.88,-684.134,-8.23132e-09,8.23115e-09,-1.28895e-08,811.724,-811.741,-4.56476e-06,1.52934e-08,-1.52936e-08,-8.60028e-17
0.409975,-0.73,0.087511,0.01,-30.5902,266.45,-417.589,417.571,-685.127,-7.86754e-09,7.86736e-09,-1.29082e-08,802.345,-802.363,-3.42353e-06,1.51167e-08,-1.51169e-08,-6.45012e-17
0.419975,-0.73,0.0922824,0.01,-27.2802,266.45,-398.595,398.576,-685.509,-7.50968e-09,7.50949e-09,-1.29154e-08,792.956,-792.975,-2.43323e-06,1.49398e-08,-1.494e-08,-4.58434e-17
0.429975,-0.73,0.0978464,0.01,-23.9303,266.45,-379.933,379.913,-685.309,-7.15808e-09,7.15788e-09,-1.29116e-08,783.565,-783.585,-1.56456e-06,1.47629e-08,-1.47631e-08,-2.94771e-17
0.439975,-0.73,0.102439,0.01,-20.5424,266.45,-361.618,361.598,-684.553,-6.81301e-09,6.8128e-09,-1.28974e-08,774.182,-774.202,-8.12064e-07,1.45861e-08,-1.45863e-08,-1.52997e-17
0.449975,-0.73,0.107739,0.01,-17.1184,266.45,-343.663,343.642,-683.269,-6.47473e-09,6.47451e-09,-1.28732e-08,764.812,-764.833,-1.69055e-07,1.44096e-08,-1.44098e-08,-3.18509e-18
0.459975,-0.73,0.113192,0.01,-13.66,266.45,-326.08,326.059,-681.484,-6.14345e-09,6.14323e-09,-1.28396e-08,755.464,-755.486,3.7326e-07,1.42335e-08,-1.42337e-08,7.03244e-18
0.469975,-0.73,0.11827,0.01,-10.169,266.45,-308.879,308.857,-679.225,-5.81937e-09,5.81914e-09,-1.2797e-08,746.143,-746.165,8.22329e-07,1.40579e-08,-1.40581e-08,1.54931e-17
0.479975,-0.73,0.123948,0.01,-6.64708,266.45,-292.068,292.046,-676.518,-5.50264e-09,5.50241e-09,-1.2746e-08,736.856,-736.879,1.18574e-06,1.38829e-08,-1.38831e-08,2.23401e-17
0.489975,-0.73,0.129416,0.01,-3.09597,266.45,-275.654,275.631,-673.39,-5.19339e-09,5.19315e-09,-1.26871e-08,727.61,-727.633,1.47203e-06,1.37087e-08,-1.37089e-08,2.7734e-17
0.499975,-0.73,0.134874,0.01,0.482703,266.45,-259.643,259.62,-669.865,-4.89173e-09,4.89149e-09,-1.26207e-08,718.409,-718.432,1.68905e-06,1.35353e-08,-1.35356e-08,3.18227e-17
0.509975,-0.73,0.140832,0.01,4.08735,266.45,-244.038,244.015,-665.97,-4.59772e-09,4.59749e-09,-1.25473e-08,709.259,-709.282,1.84369e-06,1.33629e-08,-1.33632e-08,3.47362e-17
0.519975,-0.73,0.146426,0.01,7.7164,266.45,-228.843,228.82,-661.727,-4.31144e-09,4.3112e-09,-1.24673e-08,700.165,-700.188,1.94426e-06,1.31916e-08,-1.31918e-08,3.66309e-17
0.529975,-0.73,0.152172,0.01,11.3683,266.45,-214.059,214.036,-657.162,-4.0329e-09,4.03266e-09,-1.23813e-08,691.131,-691.154,1.99784e-06,1.30214e-08,-1.30216e-08,3.76404e-17
0.539975,-0.73,0.158342,0.01,15.0417,266.45,-199.687,199.663,-652.296,-3.76211e-09,3.76187e-09,-1.22896e-08,682.161,-682.185,2.01019e-06,1.28524e-08,-1.28527e-08,3.78731e-17
0.549975,-0.73,0.164145,0.01,18.735,266.45,-185.726,185.702,-647.153,-3.49908e-09,3.49884e-09,-1.21927e-08,673.261,-673.284,1.98817e-06,1.26847e-08,-1.2685e-08,3.74584e-17
0.559975,-0.73,0.170114,0.01,22.4469,266.45,-172.175,172.151,-641.752,-3.24377e-09,3.24353e-09,-1.2091e-08,664.433,-664.456,1.9375e-06,1.25184e-08,-1.25186e-08,3.65036e-17
0.569975,-0.73,0.176449,0.01,26.176,266.45,-159.031,159.008,-636.116,-2.99614e-09,2.9959e-09,-1.19848e-08,655.68,-655.703,1.86238e-06,1.23535e-08,-1.23537e-08,3.50883e-17
0.579975,-0.73,0.182522,0.01,29.921,266.45,-146.292,146.269,-630.265,-2.75613e-09,2.7559e-09,-1.18746e-08,647.006,-647.029,1.76769e-06,1.21901e-08,-1.21903e-08,3.33043e-17
0.589975,-0.73,0.188668,0.01,33.6807,266.45,-133.954,133.931,-624.216,-2.52367e-09,2.52344e-09,-1.17606e-08,638.413,-638.436,1.65888e-06,1.20282e-08,-1.20284e-08,3.12543e-17
0.599975,-0.73,0.195133,0.01,37.4537,266.45,-122.013,121.99,-617.989,-2.29869e-09,2.29846e-09,-1.16433e-08,629.905,-629.928,1.53906e-06,1.18679e-08,-1.18681e-08,2.89968e-17
0.609975,-0.73,0.201524,0.01,41.2389,266.45,-110.462,110.44,-611.601,-2.08108e-09,2.08086e-09,-1.15229e-08,621.483,-621.505,1.4109e-06,1.17092e-08,-1.17094e-08,2.65821e-17
0.619975,-0.73,0.207812,0.01,45.0352,266.45,-99.2983,99.2765,-605.069,-1.87074e-09,1.87052e-09,-1.13998e-08,613.15,-613.172,1.27784e-06,1.15522e-08,-1.15524e-08,2.40753e-17
0.629975,-0.73,0.214382,0.01,48.8415,266.45,-88.5142,88.4927,-598.408,-1.66757e-09,1.66735e-09,-1.12744e-08,604.907,-604.928,1.1425e-06,1.13969e-08,-1.13971e-08,2.15254e-17
0.639975,-0.73,0.221127,0.01,52.6566,266.45,-78.3751,77.817,-592.152,-1.47421e-09,1.46854e-09,-1.11565e-08,597.001,-597.559,0.0648667,1.12503e-08,-1.12559e-08,1.22213e-12
0.649975,-0.73,0.227531,0.01,56.4794,266.45,-69.7927,66.8563,-587.301,-1.30217e-09,1.27238e-09,-1.10651e-08,589.794,-592.731,0.0204993,1.11248e-08,-1.11546e-08,3.86218e-13
0.659975,-0.73,0.234187,0.01,60.3091,266.45,-62.9149,55.3904,-583.693,-1.15264e-09,1.0763e-09,-1.09971e-08,582.92,-590.444,-0.190914,1.10153e-08,-1.10916e-08,-3.59693e-12
0.669975,-0.73,0.241075,0.01,64.1447,266.45,-55.0056,45.6936,-579.619,-9.9585e-10,9.0138e-10,-1.09204e-08,577.146,-586.458,-0.552877,1.09142e-08,-1.10087e-08,-1.04165e-11
-0.680025,-0.72,0.240443,0.01,63.8774,259.2,-38.2826,28.913,581.386,-6.80529e-10,5.85475e-10,1.09537e-08,577.671,-587.041,0.369285,1.09244e-08,-1.10195e-08,6.95755e-12
-0.670025,-0.72,0.233734,0.01,59.9797,259.2,-46.1075,38.5271,585.856,-8.35734e-10,7.58831e-10,1.10379e-08,583.592,-591.173,0.136239,1.10282e-08,-1.11051e-08,2.56682e-12
-0.660025,-0.72,0.226968,0.01,56.0863,259.2,-52.833,49.8707,589.871,-9.82525e-10,9.52473e-10,1.11135e-08,590.621,-593.583,-0.0160311,1.11405e-08,-1.11706e-08,-3.02035e-13
-0.650025,-0.72,0.220091,0.01,52.1979,259.2,-61.1855,60.6217,595.153,-1.15032e-09,1.1446e-09,1.1213e-08,597.979,-598.543,-0.0510204,1.12687e-08,-1.12744e-08,-9.61254e-13
-0.640025,-0.72,0.213462,0.01,48.3157,259.2,-71.0418,71.02,601.873,-1.33837e-09,1.33815e-09,1.13396e-08,606.039,-606.061,-9.64241e-07,1.14182e-08,-1.14184e-08,-1.81669e-17
-0.630025,-0.72,0.207103,0.01,44.4405,259.2,-81.5527,81.5304,609.024,-1.5364e-09,1.53618e-09,1.14744e-08,614.448,-614.47,-1.11156e-06,1.15767e-08,-1.15769e-08,-2.09424e-17
-0.620025,-0.72,0.200292,0.01,40.5735,259.2,-92.4521,92.4293,616.07,-1.74175e-09,1.74152e-09,1.16071e-08,622.955,-622.978,-1.2608e-06,1.17369e-08,-1.17372e-08,-2.37542e-17
-0.610025,-0.72,0.193758,0.01,36.7158,259.2,-103.747,103.724,622.994,-1.95456e-09,1.95432e-09,1.17376e-08,631.56,-631.583,-1.40958e-06,1.18991e-08,-1.18993e-08,-2.65573e-17
-0.600025,-0.72,0.18753,0.01,32.8684,259.2,-115.445,115.421,629.78,-2.17495e-09,2.17471e-09,1.18654e-08,640.26,-640.283,-1.55526e-06,1.2063e-08,-1.20632e-08,-2.9302e-17
-0.590025,-0.72,0.181053,0.01,29.0326,259.2,-127.551,127.528,636.411,-2.40304e-09,2.4028e-09,1.19903e-08,649.053,-649.077,-1.69491e-06,1.22286e-08,-1.22289e-08,-3.1933e-17
-0.580025,-0.72,0.174637,0.01,25.2095,259.2,-140.072,140.048,642.868,-2.63894e-09,2.6387e-09,1.2112e-08,657.937,-657.961,-1.82555e-06,1.2396e-08,-1.23963e-08,-3.43943e-17
-0.570025,-0.72,0.16857,0.01,21.4005,259.2,-153.014,152.989,649.134,-2.88276e-09,2.88251e-09,1.22301e-08,666.909,-666.933,-1.94262e-06,1.25651e-08,-1.25653e-08,-3.66001e-17
-0.560025,-0.72,0.162385,0.01,17.6068,259.2,-166.379,166.354,655.187,-3.13457e-09,3.13432e-09,1.23441e-08,675.967,-675.992,-2.0419e-06,1.27357e-08,-1.2736e-08,-3.84706e-17
-0.550025,-0.72,0.156117,0.01,13.8296,259.2,-180.173,180.148,661.008,-3.39445e-09,3.3942e-09,1.24538e-08,685.107,-685.132,-2.1194e-06,1.29079e-08,-1.29082e-08,-3.99306e-17
-0.540025,-0.72,0.150254,0.01,10.0706,259.2,-194.398,194.373,666.574,-3.66246e-09,3.66221e-09,1.25586e-08,694.327,-694.352,-2.16901e-06,1.30816e-08,-1.30819e-08,-4.08653e-17
-0.530025,-0.72,0.144302,0.01,6.33092,259.2,-209.057,209.032,671.865,-3.93864e-09,3.93839e-09,1.26583e-08,703.622,-703.647,-2.18424e-06,1.32568e-08,-1.3257e-08,-4.11524e-17
-0.520025,-0.72,0.138225,0.01,2.61218,259.2,-224.15,224.125,676.855,-4.22302e-09,4.22276e-09,1.27523e-08,712.988,-713.013,-2.15909e-06,1.34332e-08,-1.34335e-08,-4.06785e-17
-0.510025,-0.72,0.132625,0.01,-1.08414,259.2,-239.679,239.654,681.521,-4.51558e-09,4.51533e-09,1.28403e-08,722.422,-722.447,-2.08641e-06,1.3611e-08,-1.36112e-08,-3.93091e-17
-0.500025,-0.72,0.12683,0.01,-4.75648,259.2,-255.642,255.617,685.84,-4.81633e-09,4.81608e-09,1.29216e-08,731.918,-731.943,-1.95896e-06,1.37899e-08,-1.37901e-08,-3.6908e-17
-0.490025,-0.72,0.121005,0.01,-8.40327,259.2,-272.036,272.012,689.783,-5.12522e-09,5.12497e-09,1.29959e-08,741.472,-741.496,-1.76842e-06,1.39699e-08,-1.39701e-08,-3.3318e-17
-0.480025,-0.72,0.115753,0.01,-12.0228,259.2,-288.86,288.835,693.327,-5.44217e-09,5.44193e-09,1.30627e-08,751.077,-751.101,-1.50581e-06,1.41508e-08,-1.41511e-08,-2.83703e-17
-0.470025,-0.72,0.110009,0.01,-15.6135,259.2,-306.106,306.082,696.443,-5.76712e-09,5.76687e-09,1.31214e-08,760.729,-760.753,-1.16279e-06,1.43327e-08,-1.43329e-08,-2.19076e-17
-0.460025,-0.72,0.104526,0.01,-19.1736,259.2,-323.77,323.747,699.104,-6.09992e-09,6.09968e-09,1.31715e-08,770.421,-770.445,-7.30912e-07,1.45153e-08,-1.45155e-08,-1.37708e-17
-0.450025,-0.72,0.0996659,0.01,-22.7013,259.2,-341.844,341.821,701.283,-6.44043e-09,6.4402e-09,1.32126e-08,780.147,-780.17,-2.00269e-07,1.46985e-08,-1.46988e-08,-3.77318e-18
-0.440025,-0.72,0.0939066,0.01,-26.1948,259.2,-360.317,360.295,702.95,-6.78848e-09,6.78826e-09,1.3244e-08,789.899,-789.922,4.37755e-07,1.48823e-08,-1.48825e-08,8.24756e-18
-0.430025,-0.72,0.0889022,0.01,-29.6523,259.2,-379.179,379.157,704.076,-7.14385e-09,7.14363e-09,1.32652e-08,799.671,-799.693,1.1908e-06,1.50664e-08,-1.50666e-08,2.24354e-17
-0.420025,-0.72,0.0839237,0.01,-33.0718,259.2,-398.416,398.395,704.633,-7.50629e-09,7.50608e-09,1.32757e-08,809.455,-809.476,2.09023e-06,1.52507e-08,-1.52509e-08,3.93812e-17
-0.410025,-0.72,0.0786404,0.01,-36.4515,259.2,-418.013,417.993,704.591,-7.87552e-09,7.87532e-09,1.32749e-08,819.243,-819.262,3.00869e-06,1.54351e-08,-1.54353e-08,5.66854e-17
-0.400025,-0.72,0.0743333,0.01,-39.7895,259.2,-437.953,437.934,703.92,-8.2512e-09,8.25101e-09,1.32623e-08,829.025,-829.044,4.47234e-06,1.56194e-08,-1.56196e-08,8.42616e-17
-0.390025,-0.72,0.0689871,0.01,-43.0836,259.2,-458.216,458.199,702.592,-8.63299e-09,8.63281e-09,1.32372e-08,838.794,-838.811,5.14771e-06,1.58034e-08,-1.58036e-08,9.69858e-17
-0.380025,-0.72,0.0644286,0.01,-46.3319,259.2,-478.783,478.767,700.577,-9.02047e-09,9.02031e-09,1.31993e-08,848.54,-848.556,6.28127e-06,1.59871e-08,-1.59872e-08,1.18343e-16
-0.370025,-0.72,0.0599779,0.01,-49.5323,259.2,-499.628,499.613,697.846,-9.41321e-09,9.41306e-09,1.31478e-08,858.253,-858.267,1.81664e-05,1.617e-08,-1.61702e-08,3.42266e-16
-0.360025,-0.72,0.0550895,0.01,-52.6827,259.2,-520.726,520.713,694.372,-9.81071e-09,9.81058e-09,1.30824e-08,867.923,-867.936,-4.13268e-05,1.63522e-08,-1.63524e-08,-7.78622e-16
-0.350025,-0.72,0.0516641,0.01,-55.7811,259.2,-542.048,542.037,690.126,-1.02125e-08,1.02123e-08,1.30024e-08,877.539,-877.55,0.00022384,1.65334e-08,-1.65335e-08,4.21728e-15
-0.340025,-0.72,0.0463419,0.01,-58.8252,259.2,-563.565,563.555,685.082,-1.06178e-08,1.06177e-08,1.29073e-08,887.09,-887.1,-0.000729825,1.67133e-08,-1.67134e-08,-1.37503e-14
-0.330025,-0.72,0.0427314,0.01,-61.813,259.2,-585.247,585.241,679.215,-1.10264e-08,1.10263e-08,1.27968e-08,896.57,-896.576,0.00238626,1.68919e-08,-1.6892e-08,4.49585e-14
-0.320025,-0.72,0.0382271,0.01,-64.7423,259.2,-607.036,607.034,672.497,-1.14369e-08,1.14369e-08,1.26702e-08,905.948,-905.95,-0.00710899,1.70686e-08,-1.70686e-08,-1.33938e-13
-0.310025,-0.72,0.0342941,0.01,-67.6109,259.2,-628.979,628.963,664.913,-1.18503e-08,1.18501e-08,1.25274e-08,915.259,-915.275,0.0201716,1.72441e-08,-1.72442e-08,3.80045e-13
-0.300025,-0.72,0.0308161,0.01,-70.4166,259.2,-650.436,650.977,656.049,-1.22569e-08,1.22624e-08,1.23604e-08,924.294,-923.753,0.142511,1.74119e-08,-1.74064e-08,2.685e-12
-0.290025,-0.72,0.0263917,0.01,-73.1572,259.2,-668.729,672.765,643.956,-1.26168e-08,1.26577e-08,1.21325e-08,931.846,-927.81,0.775779,1.7539e-08,-1.7498e-08,1.46161e-11
-0.280025,-0.72,0.0242399,0.01,-75.8305,259.2,-685.145,692.901,632.916,-1.29423e-08,1.30209e-08,1.19245e-08,939.471,-931.716,-1.0648,1.76665e-08,-1.75878e-08,-2.00615e-11
-0.270025,-0.72,0.0190413,0.01,-78.4343,259.2,-710.178,713.876,622.493,-1.33962e-08,1.34338e-08,1.17281e-08,947.618,-943.92,-0.76203,1.78376e-08,-1.78001e-08,-1.43571e-11
-0.260025,-0.72,0.0183731,0.01,-80.9666,259.2,-728.739,737.213,605.511,-1.37667e-08,1.38527e-08,1.14082e-08,954.968,-946.495,2.55317,1.79553e-08,-1.78694e-08,4.81033e-11
-0.250025,-0.72,0.0122904,0.01,-83.4246,259.2,-734.11,757.447,586.267,-1.39325e-08,1.41693e-08,1.10456e-08,960.294,-936.957,2.12624,1.7991e-08,-1.77543e-08,4.00595e-11
-0.240025,-0.72,0.0122647,0.01,-85.8077,259.2,-751.844,780.067,573.571,-1.42879e-08,1.45742e-08,1.08064e-08,971.019,-942.795,0.776392,1.81718e-08,-1.78855e-08,1.46277e-11
-0.230025,-0.72,0.00635002,0.01,-88.1103,259.2,-777.864,790.02,552.122,-1.47083e-08,1.48316e-08,1.04023e-08,964.922,-952.765,4.66166,1.81268e-08,-1.80035e-08,8.78284e-11
0.229975,-0.72,0.00631892,0.01,-88.1215,259.2,-777.77,790.134,-551.929,-1.47074e-08,1.48328e-08,-1.03987e-08,964.923,-952.559,-4.70478,1.81259e-08,-1.80005e-08,-8.86407e-11
0.239975,-0.72,0.012285,0.01,-85.8194,259.2,-751.97,780.267,-573.439,-1.42906e-08,1.45777e-08,-1.08039e-08,971.107,-942.809,-0.860628,1.81732e-08,-1.78861e-08,-1.62147e-11
0.249975,-0.72,0.0122701,0.01,-83.4367,259.2,-734.318,757.558,-586.192,-1.3936e-08,1.41718e-08,-1.10442e-08,960.324,-937.084,-2.16682,1.7992e-08,-1.77563e-08,-4.08242e-11
0.259975,-0.72,0.0183833,0.01,-80.979,259.2,-728.935,737.316,-605.488,-1.377e-08,1.3855e-08,-1.14077e-08,955.023,-946.642,-2.55039,1.79567e-08,-1.78717e-08,-4.80509e-11
0.269975,-0.72,0.019025,0.01,-78.4471,259.2,-710.308,713.968,-622.466,-1.33985e-08,1.34357e-08,-1.17276e-08,947.665,-944.005,0.782795,1.78386e-08,-1.78015e-08,1.47483e-11
0.279975,-0.72,0.0242066,0.01,-75.8436,259.2,-685.241,692.998,-632.872,-1.29441e-08,1.30228e-08,-1.19237e-08,939.512,-931.755,1.07936,1.76672e-08,-1.75885e-08,2.03357e-11
0.289975,-0.72,0.0263773,0.01,-73.1706,259.2,-668.826,672.873,-643.901,-1.26187e-08,1.26597e-08,-1.21315e-08,931.888,-927.84,-0.775283,1.75397e-08,-1.74986e-08,-1.46068e-11
0.299975,-0.72,0.0307876,0.01,-70.4304,259.2,-650.541,651.086,-656.001,-1.22589e-08,1.22645e-08,-1.23594e-08,924.337,-923.792,-0.143711,1.74127e-08,-1.74071e-08,-2.70759e-12
0.309975,-0.72,0.0342808,0.01,-67.625,259.2,-629.088,629.072,-664.873,-1.18523e-08,1.18522e-08,-1.25266e-08,915.305,-915.321,-0.020508,1.7245e-08,-1.72451e-08,-3.86382e-13
0.319975,-0.72,0.0382021,0.01,-64.7567,259.2,-607.145,607.143,-672.461,-1.14389e-08,1.14389e-08,-1.26696e-08,905.994,-905.996,0.00721213,1.70695e-08,-1.70695e-08,1.35881e-13
0.329975,-0.72,0.0427185,0.01,-61.8278,259.2,-585.355,585.349,-679.184,-1.10284e-08,1.10283e-08,-1.27962e-08,896.617,-896.623,-0.00241079,1.68928e-08,-1.68929e-08,-4.54207e-14
0.339975,-0.72,0.0463193,0.01,-58.8402,259.2,-563.672,563.662,-685.055,-1.06199e-08,1.06198e-08,-1.29068e-08,887.137,-887.147,0.000734914,1.67142e-08,-1.67143e-08,1.38462e-14
0.349975,-0.72,0.0516342,0.01,-55.7963,259.2,-542.155,542.144,-690.103,-1.02145e-08,1.02144e-08,-1.30019e-08,877.587,-877.598,-0.000224413,1.65343e-08,-1.65344e-08,-4.22806e-15
0.359975,-0.72,0.0550687,0.01,-52.6982,259.2,-520.831,520.818,-694.353,-9.8127e-09,9.81257e-09,-1.3082e-08,867.97,-867.984,4.11632e-05,1.63531e-08,-1.63533e-08,7.75539e-16
0.369975,-0.72,0.0599505,0.01,-49.5481,259.2,-499.732,499.717,-697.831,-9.41518e-09,9.41503e-09,-1.31475e-08,858.301,-858.315,-1.80409e-05,1.61709e-08,-1.61711e-08,-3.39901e-16
0.379975,-0.72,0.064409,0.01,-46.3479,259.2,-478.886,478.87,-700.565,-9.02241e-09,9.02225e-09,-1.31991e-08,848.588,-848.604,-6.34573e-06,1.5988e-08,-1.59881e-08,-1.19557e-16
0.389975,-0.72,0.0689616,0.01,-43.0998,259.2,-458.318,458.301,-702.584,-8.6349e-09,8.63473e-09,-1.32371e-08,838.843,-838.86,-5.1364e-06,1.58044e-08,-1.58045e-08,-9.67728e-17
0.399975,-0.72,0.0743147,0.01,-39.8059,259.2,-438.053,438.034,-703.915,-8.25309e-09,8.2529e-09,-1.32622e-08,829.074,-829.093,-4.48212e-06,1.56203e-08,-1.56205e-08,-8.44457e-17
0.409975,-0.72,0.0786165,0.01,-36.4682,259.2,-418.111,418.091,-704.589,-7.87737e-09,7.87717e-09,-1.32749e-08,819.291,-819.311,-3.01308e-06,1.5436e-08,-1.54362e-08,-5.67682e-17
0.419975,-0.72,0.0838953,0.01,-33.0887,259.2,-398.512,398.492,-704.634,-7.50811e-09,7.5079e-09,-1.32757e-08,809.504,-809.525,-2.09462e-06,1.52516e-08,-1.52518e-08,-3.94638e-17
0.429975,-0.72,0.0888794,0.01,-29.6694,259.2,-379.273,379.252,-704.08,-7.14564e-09,7.14542e-09,-1.32653e-08,799.72,-799.742,-1.19399e-06,1.50673e-08,-1.50675e-08,-2.24955e-17
0.439975,-0.72,0.0938797,0.01,-26.2121,259.2,-360.41,360.388,-702.957,-6.79023e-09,6.79001e-09,-1.32441e-08,789.948,-789.97,-4.41094e-07,1.48832e-08,-1.48834e-08,-8.31046e-18
0.449975,-0.72,0.0996356,0.01,-22.7188,259.2,-341.935,341.912,-701.292,-6.44215e-09,6.44191e-09,-1.32128e-08,780.195,-780.218,1.96997e-07,1.46994e-08,-1.46997e-08,3.71154e-18
0.459975,-0.72,0.1045,0.01,-19.1912,259.2,-323.859,323.836,-699.117,-6.10159e-09,6.10135e-09,-1.31718e-08,770.469,-770.493,7.28741e-07,1.45162e-08,-1.45164e-08,1.37299e-17
0.469975,-0.72,0.10998,0.01,-15.6313,259.2,-306.193,306.169,-696.458,-5.76875e-09,5.76851e-09,-1.31217e-08,760.777,-760.801,1.1615e-06,1.43336e-08,-1.43338e-08,2.18833e-17
0.479975,-0.72,0.115728,0.01,-12.0408,259.2,-288.944,288.92,-693.344,-5.44377e-09,5.44352e-09,-1.3063e-08,751.125,-751.149,1.5044e-06,1.41517e-08,-1.4152e-08,2.83438e-17
0.489975,-0.72,0.120978,0.01,-8.42133,259.2,-272.119,272.094,-689.802,-5.12677e-09,5.12652e-09,-1.29963e-08,741.519,-741.544,1.76702e-06,1.39708e-08,-1.3971e-08,3.32916e-17
0.499975,-0.72,0.1268,0.01,-4.77468,259.2,-255.722,255.697,-685.86,-4.81785e-09,4.81759e-09,-1.2922e-08,731.965,-731.99,1.95836e-06,1.37908e-08,-1.3791e-08,3.68966e-17
0.509975,-0.72,0.132598,0.01,-1.10246,259.2,-239.757,239.732,-681.544,-4.51706e-09,4.51681e-09,-1.28407e-08,722.469,-722.494,2.08606e-06,1.36118e-08,-1.36121e-08,3.93026e-17
0.519975,-0.72,0.138196,0.01,2.59374,259.2,-224.227,224.202,-676.879,-4.22445e-09,4.2242e-09,-1.27528e-08,713.035,-713.06,2.15894e-06,1.34341e-08,-1.34344e-08,4.06757e-17
0.529975,-0.72,0.144271,0.01,6.31237,259.2,-209.131,209.106,-671.89,-3.94004e-09,3.93978e-09,-1.26588e-08,703.668,-703.693,2.1846e-06,1.32576e-08,-1.32579e-08,4.11592e-17
0.539975,-0.72,0.150226,0.01,10.0519,259.2,-194.47,194.445,-666.601,-3.66382e-09,3.66356e-09,-1.25592e-08,694.373,-694.398,2.16911e-06,1.30825e-08,-1.30828e-08,4.08673e-17
0.549975,-0.72,0.156087,0.01,13.8109,259.2,-180.242,180.218,-661.036,-3.39577e-09,3.39551e-09,-1.24543e-08,685.153,-685.178,2.11988e-06,1.29088e-08,-1.2909e-08,3.99398e-17
0.559975,-0.72,0.162353,0.01,17.5879,259.2,-166.447,166.422,-655.217,-3.13584e-09,3.13559e-09,-1.23447e-08,676.012,-676.037,2.04315e-06,1.27366e-08,-1.27368e-08,3.84941e-17
0.569975,-0.72,0.168541,0.01,21.3816,259.2,-153.079,153.055,-649.164,-2.88399e-09,2.88374e-09,-1.22306e-08,666.954,-666.978,1.94333e-06,1.25659e-08,-1.25662e-08,3.66134e-17
0.579975,-0.72,0.174606,0.01,25.1906,259.2,-140.136,140.112,-642.9,-2.64013e-09,2.63989e-09,-1.21126e-08,657.981,-658.005,1.82568e-06,1.23968e-08,-1.23971e-08,3.43969e-17
0.589975,-0.72,0.181021,0.01,29.0136,259.2,-127.613,127.589,-636.443,-2.40419e-09,2.40395e-09,-1.1991e-08,649.097,-649.121,1.69551e-06,1.22295e-08,-1.22297e-08,3.19444e-17
0.599975,-0.72,0.1875,0.01,32.8493,259.2,-115.504,115.481,-629.813,-2.17606e-09,2.17582e-09,-1.1866e-08,640.303,-640.327,1.55615e-06,1.20638e-08,-1.2064e-08,2.93187e-17
0.609975,-0.72,0.193726,0.01,36.6966,259.2,-103.804,103.781,-623.028,-1.95563e-09,1.9554e-09,-1.17382e-08,631.603,-631.626,1.4102e-06,1.18999e-08,-1.19001e-08,2.6569e-17
0.619975,-0.72,0.200259,0.01,40.5543,259.2,-92.5073,92.4845,-616.105,-1.74279e-09,1.74256e-09,-1.16078e-08,622.998,-623.021,1.26122e-06,1.17377e-08,-1.1738e-08,2.37621e-17
0.629975,-0.72,0.207069,0.01,44.4213,259.2,-81.6059,81.5836,-609.06,-1.53741e-09,1.53718e-09,-1.1475e-08,614.49,-614.512,1.11208e-06,1.15774e-08,-1.15777e-08,2.09522e-17
0.639975,-0.72,0.213429,0.01,48.2964,259.2,-71.0932,71.0713,-601.909,-1.33934e-09,1.33912e-09,-1.13403e-08,606.08,-606.102,9.64802e-07,1.1419e-08,-1.14192e-08,1.81774e-17
0.649975,-0.72,0.220058,0.01,52.1786,259.2,-61.2349,60.6711,-595.189,-1.15125e-09,1.14553e-09,-1.12137e-08,598.02,-598.584,0.0510626,1.12695e-08,-1.12752e-08,9.6205e-13
0.659975,-0.72,0.226933,0.01,56.0669,259.2,-52.8809,49.9184,-589.908,-9.83427e-10,9.53372e-10,-1.11142e-08,590.661,-593.624,0.0160453,1.11413e-08,-1.11713e-08,3.02302e-13
0.669975,-0.72,0.233702,0.01,59.9603,259.2,-46.1543,38.5732,-585.894,-8.36613e-10,7.59703e-10,-1.10386e-08,583.633,-591.214,-0.136394,1.10289e-08,-1.11058e-08,-2.56974e-12
0.679975,-0.72,0.240409,0.01,63.858,259.2,-38.3283,28.9579,-581.424,-6.81386e-10,5.86324e-10,-1.09544e-08,577.711,-587.082,-0.369795,1.09252e-08,-1.10202e-08,-6.96715e-12
-0.690025,-0.71,0.24037,0.01,63.7054,252.05,-21.5117,12.107,582.47,-3.64403e-10,2.68993e-10,1.09741e-08,578.011,-587.415,0.184868,1.09309e-08,-1.10264e-08,3.48302e-12
-0.680025,-0.71,0.233231,0.01,59.7472,252.05,-29.2335,21.6152,587.327,-5.17653e-10,4.40365e-10,1.10656e-08,584.068,-591.686,0.0817187,1.10373e-08,-1.11146e-08,1.53963e-12
-0.670025,-0.71,0.22631,0.01,55.7915,252.05,-35.79,32.809,591.738,-6.61343e-10,6.31101e-10,1.11487e-08,591.241,-594.222,-0.0110061,1.11523e-08,-1.11825e-08,-2.07362e-13
-0.660025,-0.71,0.219625,0.01,51.8392,252.05,-43.8916,43.3234,597.44,-8.24472e-10,8.18708e-10,1.12561e-08,598.745,-599.313,-0.0367655,1.12832e-08,-1.12889e-08,-6.92683e-13
-0.650025,-0.71,0.212827,0.01,47.8913,252.05,-53.4398,53.4176,604.609,-1.00674e-09,1.00651e-09,1.13912e-08,606.954,-606.976,-7.53596e-07,1.14355e-08,-1.14357e-08,-1.41982e-17
-0.640025,-0.71,0.205963,0.01,43.9487,252.05,-63.6498,63.627,612.236,-1.1991e-09,1.19887e-09,1.15349e-08,615.523,-615.546,-9.07199e-07,1.15969e-08,-1.15971e-08,-1.70921e-17
-0.630025,-0.71,0.199365,0.01,40.0125,252.05,-74.2552,74.232,619.78,-1.39891e-09,1.39868e-09,1.1677e-08,624.199,-624.222,-1.06625e-06,1.17604e-08,-1.17606e-08,-2.00888e-17
-0.620025,-0.71,0.192964,0.01,36.0837,252.05,-85.2646,85.2409,627.225,-1.60633e-09,1.60609e-09,1.18173e-08,632.981,-633.005,-1.22924e-06,1.19258e-08,-1.19261e-08,-2.31595e-17
-0.610025,-0.71,0.186173,0.01,32.1634,252.05,-96.6858,96.6617,634.557,-1.82151e-09,1.82127e-09,1.19554e-08,641.867,-641.891,-1.39389e-06,1.20932e-08,-1.20935e-08,-2.62617e-17
-0.600025,-0.71,0.179682,0.01,28.2528,252.05,-108.527,108.502,641.757,-2.0446e-09,2.04435e-09,1.20911e-08,650.855,-650.879,-1.5576e-06,1.22626e-08,-1.22628e-08,-2.93461e-17
-0.590025,-0.71,0.173524,0.01,24.3531,252.05,-120.794,120.769,648.809,-2.27572e-09,2.27547e-09,1.22239e-08,659.943,-659.968,-1.71738e-06,1.24338e-08,-1.24341e-08,-3.23564e-17
-0.580025,-0.71,0.166946,0.01,20.4654,252.05,-133.495,133.47,655.694,-2.51502e-09,2.51476e-09,1.23536e-08,669.13,-669.155,-1.87024e-06,1.26069e-08,-1.26072e-08,-3.52363e-17
-0.570025,-0.71,0.160589,0.01,16.5911,252.05,-146.636,146.61,662.391,-2.76259e-09,2.76233e-09,1.24798e-08,678.412,-678.438,-2.01187e-06,1.27818e-08,-1.27821e-08,-3.79048e-17
-0.560025,-0.71,0.154617,0.01,12.7315,252.05,-160.221,160.195,668.882,-3.01855e-09,3.01829e-09,1.26021e-08,687.787,-687.813,-2.1373e-06,1.29584e-08,-1.29587e-08,-4.0268e-17
-0.550025,-0.71,0.148297,0.01,8.88787,252.05,-174.257,174.231,675.143,-3.28298e-09,3.28272e-09,1.27201e-08,697.253,-697.279,-2.24233e-06,1.31368e-08,-1.3137e-08,-4.22468e-17
-0.540025,-0.71,0.142111,0.01,5.06169,252.05,-188.746,188.72,681.154,-3.55597e-09,3.5557e-09,1.28333e-08,706.804,-706.83,-2.32121e-06,1.33167e-08,-1.3317e-08,-4.37329e-17
-0.530025,-0.71,0.136379,0.01,1.25438,252.05,-203.692,203.666,686.89,-3.83756e-09,3.83729e-09,1.29414e-08,716.439,-716.465,-2.36703e-06,1.34982e-08,-1.34985e-08,-4.45962e-17
-0.520025,-0.71,0.130245,0.01,-2.53255,252.05,-219.097,219.07,692.328,-4.1278e-09,4.12753e-09,1.30439e-08,726.152,-726.178,-2.37295e-06,1.36812e-08,-1.36815e-08,-4.47078e-17
-0.510025,-0.71,0.124286,0.01,-6.29757,252.05,-234.962,234.935,697.442,-4.4267e-09,4.42644e-09,1.31402e-08,735.939,-735.966,-2.33161e-06,1.38656e-08,-1.38659e-08,-4.39289e-17
-0.500025,-0.71,0.11887,0.01,-10.0391,252.05,-251.287,251.26,702.206,-4.73427e-09,4.73401e-09,1.323e-08,745.796,-745.823,-2.23521e-06,1.40514e-08,-1.40516e-08,-4.21126e-17
-0.490025,-0.71,0.112825,0.01,-13.7555,252.05,-268.07,268.044,706.594,-5.05048e-09,5.05022e-09,1.33126e-08,755.718,-755.744,-2.07453e-06,1.42383e-08,-1.42385e-08,-3.90853e-17
-0.480025,-0.71,0.107172,0.01,-17.4451,252.05,-285.309,285.283,710.578,-5.37528e-09,5.37502e-09,1.33877e-08,765.699,-765.725,-1.83979e-06,1.44263e-08,-1.44266e-08,-3.46627e-17
-0.470025,-0.71,0.102029,0.01,-21.1061,252.05,-303,302.975,714.129,-5.70859e-09,5.70833e-09,1.34546e-08,775.733,-775.758,-1.52162e-06,1.46154e-08,-1.46156e-08,-2.86682e-17
-0.460025,-0.71,0.0960912,0.01,-24.7369,252.05,-321.137,321.112,717.218,-6.0503e-09,6.05004e-09,1.35128e-08,785.813,-785.838,-1.1108e-06,1.48053e-08,-1.48055e-08,-2.09281e-17
-0.450025,-0.71,0.090869,0.01,-28.3355,252.05,-339.712,339.688,719.816,-6.40027e-09,6.40002e-09,1.35617e-08,795.934,-795.959,-5.98237e-07,1.4996e-08,-1.49962e-08,-1.12711e-17
-0.440025,-0.71,0.0856627,0.01,-31.9002,252.05,-358.717,358.693,721.892,-6.75833e-09,6.75809e-09,1.36009e-08,806.088,-806.112,4.39787e-08,1.51873e-08,-1.51875e-08,8.28583e-19
-0.430025,-0.71,0.0801452,0.01,-35.4289,252.05,-378.14,378.117,723.415,-7.12428e-09,7.12405e-09,1.36296e-08,816.267,-816.29,7.31764e-07,1.5379e-08,-1.53793e-08,1.37869e-17
-0.420025,-0.71,0.075554,0.01,-38.9199,252.05,-397.969,397.947,724.355,-7.49787e-09,7.49764e-09,1.36473e-08,826.464,-826.486,1.80372e-06,1.55712e-08,-1.55714e-08,3.39831e-17
-0.410025,-0.71,0.0700478,0.01,-42.3711,252.05,-418.188,418.167,724.68,-7.87882e-09,7.8786e-09,1.36534e-08,836.67,-836.691,2.70444e-06,1.57634e-08,-1.57637e-08,5.09533e-17
-0.400025,-0.71,0.0651753,0.01,-45.7804,252.05,-438.781,438.761,724.359,-8.2668e-09,8.26659e-09,1.36473e-08,846.875,-846.896,1.65312e-06,1.59557e-08,-1.59559e-08,3.11457e-17
-0.390025,-0.71,0.0606224,0.01,-49.1459,252.05,-459.728,459.709,723.359,-8.66146e-09,8.66126e-09,1.36285e-08,857.072,-857.091,2.04295e-05,1.61478e-08,-1.6148e-08,3.84904e-16
-0.380025,-0.71,0.0553797,0.01,-52.4654,252.05,-481.007,480.989,721.65,-9.06238e-09,9.0622e-09,1.35963e-08,867.25,-867.267,-6.32675e-05,1.63396e-08,-1.63397e-08,-1.192e-15
-0.370025,-0.71,0.0515629,0.01,-55.7368,252.05,-502.595,502.579,719.2,-9.46911e-09,9.46895e-09,1.35501e-08,877.398,-877.414,0.000265621,1.65308e-08,-1.65309e-08,5.00445e-15
-0.360025,-0.71,0.0462043,0.01,-58.9579,252.05,-524.464,524.449,715.979,-9.88114e-09,9.88099e-09,1.34895e-08,887.506,-887.521,-0.000774432,1.67212e-08,-1.67213e-08,-1.45908e-14
-0.350025,-0.71,0.0420991,0.01,-62.1266,252.05,-546.593,546.578,711.958,-1.02981e-08,1.02979e-08,1.34137e-08,897.567,-897.582,0.00198853,1.69107e-08,-1.69109e-08,3.74651e-14
-0.340025,-0.71,0.0377117,0.01,-65.2406,252.05,-568.914,568.919,707.096,-1.07187e-08,1.07187e-08,1.33221e-08,907.555,-907.55,-0.00334324,1.70988e-08,-1.70988e-08,-6.29886e-14
-0.330025,-0.71,0.0331749,0.01,-68.2977,252.05,-591.52,591.445,701.417,-1.11443e-08,1.11435e-08,1.32151e-08,917.479,-917.555,0.00213427,1.72862e-08,-1.72869e-08,4.02109e-14
-0.320025,-0.71,0.0300152,0.01,-71.2957,252.05,-614.014,614.3,694.629,-1.15696e-08,1.15725e-08,1.30872e-08,927.342,-927.056,0.12081,1.74704e-08,-1.74675e-08,2.27613e-12
-0.310025,-0.71,0.0248131,0.01,-74.2323,252.05,-633.619,637.025,684.369,-1.19526e-08,1.19871e-08,1.28939e-08,935.509,-932.104,0.798159,1.76107e-08,-1.75762e-08,1.50378e-11
-0.300025,-0.71,0.0230318,0.01,-77.1051,252.05,-651.662,657.948,675.297,-1.2305e-08,1.23688e-08,1.2723e-08,943.778,-937.492,-1.11119,1.7754e-08,-1.76902e-08,-2.09355e-11
-0.290025,-0.71,0.0170699,0.01,-79.912,252.05,-671.07,682.63,660.653,-1.26936e-08,1.28109e-08,1.24471e-08,951.604,-940.044,2.18671,1.78785e-08,-1.77612e-08,4.11989e-11
-0.280025,-0.71,0.015436,0.01,-82.6508,252.05,-677.723,704.746,644.862,-1.28862e-08,1.31603e-08,1.21496e-08,958.843,-931.821,0.601395,1.79477e-08,-1.76735e-08,1.13306e-11
-0.270025,-0.71,0.0101413,0.01,-85.3184,252.05,-702.586,718.8,637.915,-1.33076e-08,1.34721e-08,1.20187e-08,963.094,-946.88,-4.42884,1.80748e-08,-1.79103e-08,-8.3442e-11
-0.260025,-0.71,0.00882289,0.01,-87.9145,252.05,-746.66,738.866,625.229,-1.40336e-08,1.39545e-08,1.17797e-08,966.98,-974.774,2.36109,1.82523e-08,-1.83314e-08,4.44844e-11
0.259975,-0.71,0.00884415,0.01,-87.9272,252.05,-747.003,738.952,-625.309,-1.4039e-08,1.39573e-08,-1.17812e-08,967.067,-975.118,-2.31889,1.82551e-08,-1.83368e-08,-4.36892e-11
0.269975,-0.71,0.0101107,0.01,-85.3315,252.05,-702.705,718.797,-637.923,-1.33093e-08,1.34726e-08,-1.20188e-08,963.082,-946.99,4.51317,1.80751e-08,-1.79118e-08,8.50307e-11
0.279975,-0.71,0.0154436,0.01,-82.6642,252.05,-677.778,704.847,-644.823,-1.28874e-08,1.3162e-08,-1.21488e-08,958.897,-931.827,-0.569169,1.79485e-08,-1.76739e-08,-1.07235e-11
0.289975,-0.71,0.0170477,0.01,-79.9258,252.05,-671.134,682.745,-660.583,-1.2695e-08,1.28128e-08,-1.24458e-08,951.645,-940.034,-2.18532,1.78791e-08,-1.77613e-08,-4.11726e-11
0.299975,-0.71,0.0230335,0.01,-77.1193,252.05,-651.752,658.067,-675.239,-1.23068e-08,1.23709e-08,-1.27219e-08,943.824,-937.508,1.10807,1.77547e-08,-1.76907e-08,2.08768e-11
0.309975,-0.71,0.0247946,0.01,-74.2467,252.05,-633.723,637.14,-684.324,-1.19546e-08,1.19892e-08,-1.28931e-08,935.556,-932.139,-0.799968,1.76116e-08,-1.75769e-08,-1.50719e-11
0.319975,-0.71,0.0299833,0.01,-71.3105,252.05,-614.124,614.412,-694.591,-1.15717e-08,1.15746e-08,-1.30865e-08,927.388,-927.1,-0.120812,1.74713e-08,-1.74684e-08,-2.27616e-12
0.329975,-0.71,0.0331583,0.01,-68.3128,252.05,-591.634,591.559,-701.386,-1.11464e-08,1.11456e-08,-1.32145e-08,917.529,-917.604,-0.00296844,1.72871e-08,-1.72879e-08,-5.59271e-14
0.339975,-0.71,0.037684,0.01,-65.2559,252.05,-569.025,569.03,-707.07,-1.07208e-08,1.07208e-08,-1.33216e-08,907.604,-907.599,0.00355056,1.70998e-08,-1.70997e-08,6.68947e-14
0.349975,-0.71,0.0420837,0.01,-62.1422,252.05,-546.703,546.688,-711.936,-1.03001e-08,1.03e-08,-1.34133e-08,897.617,-897.632,-0.00204689,1.69117e-08,-1.69118e-08,-3.85645e-14
0.359975,-0.71,0.0461794,0.01,-58.9738,252.05,-524.573,524.559,-715.961,-9.8832e-09,9.88305e-09,-1.34891e-08,887.556,-887.571,0.000788765,1.67221e-08,-1.67223e-08,1.48608e-14
0.369975,-0.71,0.0515481,0.01,-55.7529,252.05,-502.703,502.687,-719.186,-9.47115e-09,9.47099e-09,-1.35499e-08,877.449,-877.465,-0.000268537,1.65317e-08,-1.65319e-08,-5.05939e-15
0.379975,-0.71,0.0553569,0.01,-52.4818,252.05,-481.114,481.096,-721.639,-9.06439e-09,9.0642e-09,-1.35961e-08,867.3,-867.318,6.36515e-05,1.63405e-08,-1.63407e-08,1.19923e-15
0.389975,-0.71,0.0605934,0.01,-49.1625,252.05,-459.833,459.814,-723.352,-8.66344e-09,8.66324e-09,-1.36284e-08,857.123,-857.142,-2.04191e-05,1.61488e-08,-1.6149e-08,-3.84707e-16
0.399975,-0.71,0.065154,0.01,-45.7973,252.05,-438.884,438.864,-724.355,-8.26875e-09,8.26854e-09,-1.36473e-08,846.926,-846.946,-1.69261e-06,1.59567e-08,-1.59569e-08,-3.18898e-17
0.409975,-0.71,0.0700209,0.01,-42.3881,252.05,-418.29,418.268,-724.68,-7.88073e-09,7.88051e-09,-1.36534e-08,836.72,-836.742,-2.69665e-06,1.57644e-08,-1.57646e-08,-5.08065e-17
0.419975,-0.71,0.0755338,0.01,-38.9372,252.05,-398.069,398.046,-724.358,-7.49975e-09,7.49952e-09,-1.36473e-08,826.515,-826.537,-1.81227e-06,1.55721e-08,-1.55723e-08,-3.41442e-17
0.429975,-0.71,0.08012,0.01,-35.4464,252.05,-378.238,378.215,-723.422,-7.12612e-09,7.12588e-09,-1.36297e-08,816.318,-816.341,-7.34552e-07,1.538e-08,-1.53802e-08,-1.38394e-17
0.439975,-0.71,0.0856333,0.01,-31.9178,252.05,-358.813,358.789,-721.901,-6.76013e-09,6.75989e-09,-1.3601e-08,806.138,-806.163,-4.7454e-08,1.51882e-08,-1.51885e-08,-8.94061e-19
0.449975,-0.71,0.0908451,0.01,-28.3533,252.05,-339.806,339.781,-719.827,-6.40203e-09,6.40178e-09,-1.3562e-08,795.985,-796.009,5.95407e-07,1.49969e-08,-1.49972e-08,1.12178e-17
0.459975,-0.71,0.0960634,0.01,-24.7548,252.05,-321.228,321.203,-717.232,-6.05202e-09,6.05176e-09,-1.35131e-08,785.864,-785.889,1.10912e-06,1.48062e-08,-1.48065e-08,2.08965e-17
0.469975,-0.71,0.101998,0.01,-21.1242,252.05,-303.089,303.064,-714.145,-5.71027e-09,5.71001e-09,-1.34549e-08,775.783,-775.808,1.52023e-06,1.46163e-08,-1.46166e-08,2.86421e-17
0.479975,-0.71,0.107145,0.01,-17.4633,252.05,-285.396,285.37,-710.596,-5.37692e-09,5.37665e-09,-1.3388e-08,765.749,-765.775,1.83807e-06,1.44273e-08,-1.44275e-08,3.46303e-17
0.489975,-0.71,0.112795,0.01,-13.7739,252.05,-268.155,268.129,-706.615,-5.05208e-09,5.05181e-09,-1.3313e-08,755.768,-755.794,2.07284e-06,1.42392e-08,-1.42395e-08,3.90535e-17
0.499975,-0.71,0.118845,0.01,-10.0576,252.05,-251.369,251.343,-702.229,-4.73583e-09,4.73556e-09,-1.32304e-08,745.846,-745.872,2.23452e-06,1.40523e-08,-1.40525e-08,4.20997e-17
0.509975,-0.71,0.124258,0.01,-6.31624,252.05,-235.042,235.016,-697.466,-4.42821e-09,4.42794e-09,-1.31407e-08,735.988,-736.015,2.33148e-06,1.38666e-08,-1.38668e-08,4.39264e-17
0.519975,-0.71,0.130214,0.01,-2.55133,252.05,-219.175,219.148,-692.354,-4.12926e-09,4.12899e-09,-1.30444e-08,726.2,-726.227,2.37294e-06,1.36821e-08,-1.36824e-08,4.47075e-17
0.529975,-0.71,0.136352,0.01,1.2355,252.05,-203.767,203.741,-686.918,-3.83898e-09,3.83871e-09,-1.29419e-08,716.487,-716.513,2.36731e-06,1.34991e-08,-1.34994e-08,4.46015e-17
0.539975,-0.71,0.142082,0.01,5.04271,252.05,-188.819,188.793,-681.183,-3.55735e-09,3.55708e-09,-1.28339e-08,706.852,-706.878,2.32137e-06,1.33176e-08,-1.33179e-08,4.3736e-17
0.549975,-0.71,0.148265,0.01,8.8688,252.05,-174.328,174.302,-675.174,-3.28432e-09,3.28406e-09,-1.27207e-08,697.3,-697.326,2.24253e-06,1.31376e-08,-1.31379e-08,4.22506e-17
0.559975,-0.71,0.154589,0.01,12.7123,252.05,-160.29,160.264,-668.913,-3.01984e-09,3.01958e-09,-1.26027e-08,687.834,-687.86,2.13804e-06,1.29593e-08,-1.29596e-08,4.02819e-17
0.569975,-0.71,0.160558,0.01,16.5719,252.05,-146.702,146.677,-662.424,-2.76384e-09,2.76358e-09,-1.24805e-08,678.459,-678.484,2.01232e-06,1.27827e-08,-1.27829e-08,3.79132e-17
0.579975,-0.71,0.166914,0.01,20.4461,252.05,-133.559,133.534,-655.727,-2.51623e-09,2.51597e-09,-1.23543e-08,669.176,-669.201,1.87052e-06,1.26078e-08,-1.2608e-08,3.52417e-17
0.589975,-0.71,0.173494,0.01,24.3337,252.05,-120.856,120.831,-648.844,-2.27689e-09,2.27664e-09,-1.22246e-08,659.989,-660.014,1.71779e-06,1.24347e-08,-1.24349e-08,3.23641e-17
0.599975,-0.71,0.17965,0.01,28.2334,252.05,-108.587,108.562,-641.793,-2.04573e-09,2.04548e-09,-1.20917e-08,650.9,-650.924,1.55798e-06,1.22634e-08,-1.22637e-08,2.93532e-17
0.609975,-0.71,0.18614,0.01,32.1439,252.05,-96.7437,96.7196,-634.593,-1.8226e-09,1.82236e-09,-1.19561e-08,641.911,-641.935,1.39423e-06,1.20941e-08,-1.20943e-08,2.62681e-17
0.619975,-0.71,0.19293,0.01,36.0641,252.05,-85.3204,85.2967,-627.262,-1.60738e-09,1.60714e-09,-1.1818e-08,633.025,-633.049,1.22981e-06,1.19267e-08,-1.19269e-08,2.31704e-17
0.629975,-0.71,0.199333,0.01,39.9929,252.05,-74.309,74.2858,-619.817,-1.39992e-09,1.39969e-09,-1.16777e-08,624.243,-624.266,1.06717e-06,1.17612e-08,-1.17614e-08,2.0106e-17
0.639975,-0.71,0.20593,0.01,43.9291,252.05,-63.7015,63.6788,-612.274,-1.20007e-09,1.19984e-09,-1.15356e-08,615.566,-615.589,9.08051e-07,1.15977e-08,-1.1598e-08,1.71082e-17
0.649975,-0.71,0.212792,0.01,47.8716,252.05,-53.4896,53.4674,-604.647,-1.00768e-09,1.00745e-09,-1.13919e-08,606.996,-607.019,7.54374e-07,1.14363e-08,-1.14365e-08,1.42128e-17
0.659975,-0.71,0.219592,0.01,51.8195,252.05,-43.9395,43.3712,-597.478,-8.25375e-10,8.1961e-10,-1.12568e-08,598.787,-599.355,0.0368067,1.1284e-08,-1.12897e-08,6.93459e-13
0.669975,-0.71,0.226276,0.01,55.7718,252.05,-35.8364,32.8551,-591.777,-6.62216e-10,6.31971e-10,-1.11494e-08,591.283,-594.264,0.0110208,1.11531e-08,-1.11833e-08,2.07638e-13
0.679975,-0.71,0.233197,0.01,59.7275,252.05,-29.2788,21.6596,-587.366,-5.18502e-10,4.41207e-10,-1.10663e-08,584.109,-591.728,-0.0818658,1.10381e-08,-1.11154e-08,-1.5424e-12
0.689975,-0.71,0.240334,0.01,63.6857,252.05,-21.5558,12.1502,-582.51,-3.65229e-10,2.6981e-10,-1.09748e-08,578.051,-587.457,-0.185354,1.09317e-08,-1.10271e-08,-3.49218e-12
-0.700025,-0.7,0.240034,0.01,63.6482,245,-4.68724,-4.72911,582.832,-4.73697e-11,-4.81585e-11,1.09809e-08,578.124,-587.54,-0.000230266,1.09331e-08,-1.10287e-08,-4.33835e-15
-0.690025,-0.7,0.233069,0.01,59.6309,245,-12.2865,4.64907,588.063,-1.98278e-10,1.20797e-10,1.10795e-08,584.305,-591.943,0.0271947,1.10419e-08,-1.11193e-08,5.12364e-13
-0.680025,-0.7,0.226233,0.01,55.6145,245,-18.6569,15.6646,592.862,-3.38496e-10,3.0814e-10,1.11699e-08,591.614,-594.606,-0.00559641,1.11594e-08,-1.11897e-08,-1.0544e-13
-0.670025,-0.7,0.21909,0.01,51.5998,245,-26.486,25.9148,598.969,-4.96527e-10,4.90733e-10,1.12849e-08,599.257,-599.828,-0.0221838,1.12928e-08,-1.12986e-08,-4.17955e-13
-0.660025,-0.7,0.212178,0.01,47.5878,245,-35.6999,35.6774,606.572,-6.72509e-10,6.72281e-10,1.14282e-08,607.609,-607.632,-5.16991e-07,1.14478e-08,-1.1448e-08,-9.7404e-18
-0.650025,-0.7,0.20552,0.01,43.5793,245,-45.5806,45.5576,614.657,-8.58665e-10,8.58431e-10,1.15805e-08,616.332,-616.355,-6.71562e-07,1.16122e-08,-1.16124e-08,-1.26526e-17
-0.640025,-0.7,0.198686,0.01,39.5753,245,-55.8621,55.8385,622.682,-1.05237e-09,1.05213e-09,1.17317e-08,625.17,-625.194,-8.34371e-07,1.17787e-08,-1.17789e-08,-1.572e-17
-0.630025,-0.7,0.191838,0.01,35.577,245,-66.5539,66.5298,630.633,-1.25381e-09,1.25356e-09,1.18815e-08,634.122,-634.146,-1.00464e-06,1.19473e-08,-1.19476e-08,-1.8928e-17
-0.620025,-0.7,0.185276,0.01,31.5853,245,-77.6652,77.6405,638.495,-1.46315e-09,1.4629e-09,1.20296e-08,643.187,-643.212,-1.18124e-06,1.21181e-08,-1.21184e-08,-2.22553e-17
-0.610025,-0.7,0.178825,0.01,27.6014,245,-89.2049,89.1798,646.251,-1.68056e-09,1.68031e-09,1.21757e-08,652.364,-652.389,-1.36165e-06,1.2291e-08,-1.22913e-08,-2.56543e-17
-0.600025,-0.7,0.172057,0.01,23.6263,245,-101.182,101.156,653.883,-1.90621e-09,1.90595e-09,1.23195e-08,661.651,-661.676,-1.54327e-06,1.2466e-08,-1.24663e-08,-2.9076e-17
-0.590025,-0.7,0.165616,0.01,19.6615,245,-113.603,113.577,661.375,-2.14024e-09,2.13998e-09,1.24607e-08,671.045,-671.071,-1.72338e-06,1.2643e-08,-1.26433e-08,-3.24694e-17
-0.580025,-0.7,0.159511,0.01,15.708,245,-126.478,126.452,668.706,-2.38281e-09,2.38254e-09,1.25988e-08,680.546,-680.572,-1.89896e-06,1.2822e-08,-1.28223e-08,-3.57775e-17
-0.570025,-0.7,0.152845,0.01,11.7671,245,-139.813,139.786,675.856,-2.63404e-09,2.63376e-09,1.27335e-08,690.15,-690.177,-2.06592e-06,1.30029e-08,-1.30032e-08,-3.89232e-17
-0.560025,-0.7,0.146559,0.01,7.8402,245,-153.614,153.586,682.805,-2.89405e-09,2.89378e-09,1.28644e-08,699.855,-699.882,-2.21903e-06,1.31858e-08,-1.31861e-08,-4.18079e-17
-0.550025,-0.7,0.140703,0.01,3.92868,245,-167.887,167.859,689.53,-3.16296e-09,3.16268e-09,1.29911e-08,709.657,-709.685,-2.35349e-06,1.33705e-08,-1.33707e-08,-4.43411e-17
-0.540025,-0.7,0.13422,0.01,0.0339503,245,-182.637,182.609,696.008,-3.44086e-09,3.44058e-09,1.31132e-08,719.554,-719.582,-2.46385e-06,1.35569e-08,-1.35572e-08,-4.64203e-17
-0.530025,-0.7,0.128136,0.01,-3.84251,245,-197.868,197.84,702.214,-3.72782e-09,3.72754e-09,1.32301e-08,729.542,-729.569,-2.54291e-06,1.37451e-08,-1.37454e-08,-4.79098e-17
-0.520025,-0.7,0.122562,0.01,-7.69918,245,-213.583,213.555,708.124,-4.02391e-09,4.02363e-09,1.33415e-08,739.616,-739.644,-2.58309e-06,1.39349e-08,-1.39352e-08,-4.8667e-17
-0.510025,-0.7,0.116209,0.01,-11.5345,245,-229.785,229.757,713.712,-4.32915e-09,4.32887e-09,1.34467e-08,749.772,-749.8,-2.57649e-06,1.41263e-08,-1.41265e-08,-4.85426e-17
-0.500025,-0.7,0.110398,0.01,-15.3468,245,-246.473,246.445,718.949,-4.64357e-09,4.64329e-09,1.35454e-08,760.006,-760.034,-2.51496e-06,1.43191e-08,-1.43194e-08,-4.73833e-17
-0.490025,-0.7,0.10496,0.01,-19.1345,245,-263.648,263.62,723.809,-4.96716e-09,4.96688e-09,1.3637e-08,770.312,-770.34,-2.38872e-06,1.45132e-08,-1.45135e-08,-4.50049e-17
-0.480025,-0.7,0.0988581,0.01,-22.8958,245,-281.307,281.28,728.261,-5.29987e-09,5.29959e-09,1.37209e-08,780.684,-780.712,-2.18721e-06,1.47087e-08,-1.47089e-08,-4.12083e-17
-0.470025,-0.7,0.0934309,0.01,-26.629,245,-299.448,299.421,732.276,-5.64166e-09,5.64138e-09,1.37965e-08,791.117,-791.145,-1.90075e-06,1.49052e-08,-1.49055e-08,-3.58113e-17
-0.460025,-0.7,0.0879851,0.01,-30.3322,245,-318.065,318.038,735.823,-5.99241e-09,5.99214e-09,1.38633e-08,801.605,-801.632,-1.5087e-06,1.51028e-08,-1.51031e-08,-2.84247e-17
-0.450025,-0.7,0.0822499,0.01,-34.0037,245,-337.151,337.125,738.87,-6.35201e-09,6.35174e-09,1.39207e-08,812.139,-812.165,-1.05136e-06,1.53013e-08,-1.53016e-08,-1.98083e-17
-0.440025,-0.7,0.0773867,0.01,-37.6414,245,-356.698,356.673,741.386,-6.72029e-09,6.72003e-09,1.39681e-08,822.713,-822.739,-3.60227e-07,1.55005e-08,-1.55008e-08,-6.78689e-18
-0.430025,-0.7,0.0717142,0.01,-41.2434,245,-376.696,376.671,743.338,-7.09706e-09,7.09681e-09,1.40049e-08,833.319,-833.345,5.47235e-07,1.57003e-08,-1.57006e-08,1.03102e-17
-0.420025,-0.7,0.0665438,0.01,-44.8078,245,-397.132,397.107,744.693,-7.48208e-09,7.48184e-09,1.40304e-08,843.949,-843.974,-1.30383e-06,1.59006e-08,-1.59008e-08,-2.45648e-17
-0.410025,-0.7,0.0618795,0.01,-48.3324,245,-417.99,417.967,745.416,-7.87508e-09,7.87484e-09,1.40441e-08,854.594,-854.618,1.64852e-05,1.61012e-08,-1.61014e-08,3.1059e-16
-0.400025,-0.7,0.0563046,0.01,-51.8152,245,-439.255,439.233,745.475,-8.27572e-09,8.27549e-09,1.40452e-08,865.245,-865.267,-5.39387e-05,1.63018e-08,-1.6302e-08,-1.01624e-15
-0.390025,-0.7,0.0520704,0.01,-55.2542,245,-460.907,460.886,744.835,-8.68366e-09,8.68345e-09,1.40331e-08,875.891,-875.912,0.000175842,1.65024e-08,-1.65026e-08,3.31296e-15
-0.380025,-0.7,0.0467201,0.01,-58.647,245,-482.922,482.903,743.462,-9.09844e-09,9.09825e-09,1.40073e-08,886.523,-886.542,-0.000289306,1.67027e-08,-1.67029e-08,-5.4507e-15
-0.370025,-0.7,0.042126,0.01,-61.9915,245,-505.284,505.261,741.327,-9.51974e-09,9.51951e-09,1.3967e-08,897.132,-897.155,-0.000483466,1.69026e-08,-1.69028e-08,-9.10877e-15
-0.360025,-0.7,0.037879,0.01,-65.2855,245,-527.939,527.946,738.373,-9.9467e-09,9.94677e-09,1.39114e-08,907.703,-907.696,0.00772041,1.71016e-08,-1.71015e-08,1.45457e-13
-0.350025,-0.7,0.0327463,0.01,-68.5267,245,-550.923,550.815,734.667,-1.03792e-08,1.03781e-08,1.38416e-08,918.201,-918.309,-0.0526949,1.72999e-08,-1.7301e-08,-9.92803e-13
-0.340025,-0.7,0.0299462,0.01,-71.7128,245,-574.288,574.385,729.979,-1.08203e-08,1.08213e-08,1.37532e-08,928.882,-928.785,0.185326,1.75003e-08,-1.74993e-08,3.49166e-12
-0.330025,-0.7,0.0239828,0.01,-74.8415,245,-594.958,597.53,721.864,-1.12205e-08,1.12466e-08,1.36003e-08,937.551,-934.98,0.659856,1.76528e-08,-1.76267e-08,1.24321e-11
-0.320025,-0.7,0.0212973,0.01,-77.9105,245,-614.902,619.342,715.017,-1.16044e-08,1.16495e-08,1.34713e-08,946.724,-942.284,-1.07551,1.78175e-08,-1.77725e-08,-2.02632e-11
-0.310025,-0.7,0.0159778,0.01,-80.9173,245,-637.041,644.499,702.632,-1.20347e-08,1.21103e-08,1.3238e-08,954.661,-947.204,2.32112,1.7954e-08,-1.78783e-08,4.37313e-11
-0.300025,-0.7,0.0130409,0.01,-83.8597,245,-648.155,664.163,690.131,-1.22812e-08,1.24436e-08,1.30025e-08,960.278,-944.27,-0.745599,1.80226e-08,-1.78602e-08,-1.40475e-11
-0.290025,-0.7,0.00928673,0.01,-86.7351,245,-670.809,686.403,680.768,-1.27062e-08,1.28644e-08,1.28261e-08,969.02,-953.426,-1.35188,1.81891e-08,-1.80309e-08,-2.54702e-11
0.289975,-0.7,0.00924578,0.01,-86.7492,245,-670.78,686.536,-680.645,-1.27064e-08,1.28662e-08,-1.28237e-08,969.05,-953.294,1.34471,1.8189e-08,-1.80291e-08,2.53352e-11
0.299975,-0.7,0.0130438,0.01,-83.8742,245,-648.174,664.346,-690.055,-1.22823e-08,1.24463e-08,-1.3001e-08,960.374,-944.202,0.734244,1.80237e-08,-1.78596e-08,1.38336e-11
0.309975,-0.7,0.015949,0.01,-80.9321,245,-637.128,644.622,-702.571,-1.20364e-08,1.21125e-08,-1.32368e-08,954.705,-947.211,-2.32705,1.79546e-08,-1.78786e-08,-4.3843e-11
0.319975,-0.7,0.0212949,0.01,-77.9256,245,-615.013,619.467,-714.969,-1.16066e-08,1.16517e-08,-1.34704e-08,946.771,-942.317,1.06579,1.78184e-08,-1.77732e-08,2.008e-11
0.329975,-0.7,0.0239599,0.01,-74.8569,245,-595.084,597.653,-721.833,-1.12229e-08,1.1249e-08,-1.35997e-08,937.606,-935.037,-0.666649,1.76539e-08,-1.76278e-08,-1.256e-11
0.339975,-0.7,0.0299113,0.01,-71.7285,245,-574.407,574.5,-729.958,-1.08226e-08,1.08235e-08,-1.37528e-08,928.935,-928.843,-0.183845,1.75013e-08,-1.75003e-08,-3.46375e-12
0.349975,-0.7,0.0327264,0.01,-68.5427,245,-551.04,550.93,-734.647,-1.03814e-08,1.03803e-08,-1.38412e-08,918.254,-918.363,0.0522129,1.73009e-08,-1.7302e-08,9.83722e-13
0.359975,-0.7,0.0378487,0.01,-65.3018,245,-528.052,528.059,-738.357,-9.94884e-09,9.94891e-09,-1.39111e-08,907.755,-907.748,-0.00756052,1.71026e-08,-1.71025e-08,-1.42445e-13
0.369975,-0.7,0.0421078,0.01,-62.008,245,-505.396,505.373,-741.315,-9.52185e-09,9.52162e-09,-1.39668e-08,897.185,-897.208,0.000425899,1.69036e-08,-1.69038e-08,8.02419e-15
0.379975,-0.7,0.0466931,0.01,-58.6637,245,-483.032,483.013,-743.453,-9.10052e-09,9.10033e-09,-1.40071e-08,886.576,-886.595,0.000305621,1.67037e-08,-1.67039e-08,5.75808e-15
0.389975,-0.7,0.0520533,0.01,-55.2712,245,-461.015,460.994,-744.83,-8.6857e-09,8.68549e-09,-1.4033e-08,875.944,-875.965,-0.000179736,1.65034e-08,-1.65036e-08,-3.38634e-15
0.399975,-0.7,0.0562799,0.01,-51.8325,245,-439.362,439.339,-745.473,-8.27773e-09,8.27751e-09,-1.40452e-08,865.298,-865.32,5.46549e-05,1.63028e-08,-1.6303e-08,1.02973e-15
0.409975,-0.7,0.061849,0.01,-48.3498,245,-418.095,418.072,-745.418,-7.87705e-09,7.87681e-09,-1.40441e-08,854.647,-854.67,-1.65717e-05,1.61021e-08,-1.61024e-08,-3.1222e-16
0.419975,-0.7,0.0665208,0.01,-44.8254,245,-397.234,397.21,-744.698,-7.48402e-09,7.48377e-09,-1.40305e-08,844.002,-844.027,1.29061e-06,1.59016e-08,-1.59018e-08,2.43158e-17
0.429975,-0.7,0.0716859,0.01,-41.2612,245,-376.797,376.771,-743.346,-7.09896e-09,7.0987e-09,-1.40051e-08,833.372,-833.397,-5.44101e-07,1.57013e-08,-1.57016e-08,-1.02512e-17
0.439975,-0.7,0.077365,0.01,-37.6594,245,-356.797,356.771,-741.397,-6.72215e-09,6.72188e-09,-1.39684e-08,822.766,-822.792,3.5409e-07,1.55015e-08,-1.55018e-08,6.67126e-18
0.449975,-0.7,0.0822234,0.01,-34.0218,245,-337.247,337.221,-738.884,-6.35382e-09,6.35355e-09,-1.3921e-08,812.191,-812.218,1.04846e-06,1.53023e-08,-1.53025e-08,1.97536e-17
0.459975,-0.7,0.0879547,0.01,-30.3506,245,-318.159,318.132,-735.839,-5.99418e-09,5.9939e-09,-1.38636e-08,801.657,-801.684,1.50639e-06,1.51038e-08,-1.51041e-08,2.83813e-17
0.469975,-0.7,0.0934057,0.01,-26.6475,245,-299.539,299.512,-732.294,-5.64338e-09,5.6431e-09,-1.37968e-08,791.169,-791.197,1.89878e-06,1.49062e-08,-1.49065e-08,3.57741e-17
0.479975,-0.7,0.0988293,0.01,-22.9145,245,-281.396,281.369,-728.282,-5.30155e-09,5.30127e-09,-1.37212e-08,780.736,-780.764,2.18529e-06,1.47096e-08,-1.47099e-08,4.11721e-17
0.489975,-0.7,0.104928,0.01,-19.1533,245,-263.735,263.707,-723.832,-4.96879e-09,4.96851e-09,-1.36374e-08,770.363,-770.391,2.38759e-06,1.45142e-08,-1.45145e-08,4.49835e-17
0.499975,-0.7,0.110371,0.01,-15.3657,245,-246.557,246.529,-718.974,-4.64516e-09,4.64488e-09,-1.35459e-08,760.057,-760.085,2.51504e-06,1.432e-08,-1.43203e-08,4.73848e-17
0.509975,-0.7,0.116179,0.01,-11.5535,245,-229.866,229.838,-713.739,-4.3307e-09,4.33041e-09,-1.34473e-08,749.823,-749.851,2.57679e-06,1.41272e-08,-1.41275e-08,4.85482e-17
0.519975,-0.7,0.122529,0.01,-7.71831,245,-213.663,213.635,-708.153,-4.0254e-09,4.02512e-09,-1.3342e-08,739.666,-739.694,2.5829e-06,1.39359e-08,-1.39361e-08,4.86633e-17
0.529975,-0.7,0.128107,0.01,-3.86174,245,-197.945,197.917,-702.245,-3.72927e-09,3.72899e-09,-1.32307e-08,729.591,-729.619,2.5428e-06,1.3746e-08,-1.37463e-08,4.79078e-17
0.539975,-0.7,0.134189,0.01,0.0146259,245,-182.711,182.684,-696.039,-3.44227e-09,3.44199e-09,-1.31138e-08,719.603,-719.631,2.4641e-06,1.35579e-08,-1.35581e-08,4.64251e-17
0.549975,-0.7,0.140675,0.01,3.90927,245,-167.959,167.931,-689.563,-3.16432e-09,3.16404e-09,-1.29918e-08,709.706,-709.734,2.35378e-06,1.33714e-08,-1.33717e-08,4.43466e-17
0.559975,-0.7,0.146528,0.01,7.82071,245,-153.683,153.656,-682.839,-2.89537e-09,2.89509e-09,-1.28651e-08,699.903,-699.93,2.21961e-06,1.31867e-08,-1.3187e-08,4.18188e-17
0.569975,-0.7,0.152813,0.01,11.7475,245,-139.88,139.853,-675.891,-2.63531e-09,2.63503e-09,-1.27342e-08,690.198,-690.225,2.06661e-06,1.30038e-08,-1.30041e-08,3.89362e-17
0.579975,-0.7,0.159477,0.01,15.6883,245,-126.543,126.517,-668.742,-2.38403e-09,2.38377e-09,-1.25995e-08,680.593,-680.62,1.89985e-06,1.28229e-08,-1.28232e-08,3.57943e-17
0.589975,-0.7,0.165585,0.01,19.6418,245,-113.666,113.64,-661.411,-2.14143e-09,2.14116e-09,-1.24614e-08,671.092,-671.118,1.72427e-06,1.26439e-08,-1.26441e-08,3.24862e-17
0.599975,-0.7,0.172024,0.01,23.6066,245,-101.242,101.217,-653.921,-1.90735e-09,1.90709e-09,-1.23202e-08,661.697,-661.723,1.54397e-06,1.24669e-08,-1.24671e-08,2.90893e-17
0.609975,-0.7,0.17879,0.01,27.5816,245,-89.2633,89.2382,-646.289,-1.68166e-09,1.68141e-09,-1.21765e-08,652.41,-652.435,1.36228e-06,1.22919e-08,-1.22921e-08,2.56662e-17
0.619975,-0.7,0.185245,0.01,31.5654,245,-77.7215,77.6969,-638.534,-1.46421e-09,1.46396e-09,-1.20303e-08,643.233,-643.257,1.18216e-06,1.2119e-08,-1.21192e-08,2.22726e-17
0.629975,-0.7,0.191804,0.01,35.5571,245,-66.6081,66.584,-630.673,-1.25483e-09,1.25459e-09,-1.18822e-08,634.167,-634.191,1.00581e-06,1.19482e-08,-1.19484e-08,1.89501e-17
0.639975,-0.7,0.198651,0.01,39.5554,245,-55.9143,55.8907,-622.722,-1.05335e-09,1.05312e-09,-1.17324e-08,625.214,-625.238,8.3522e-07,1.17795e-08,-1.17797e-08,1.5736e-17
0.649975,-0.7,0.205487,0.01,43.5593,245,-45.6307,45.6077,-614.697,-8.5961e-10,8.59376e-10,-1.15812e-08,616.376,-616.399,6.72363e-07,1.1613e-08,-1.16132e-08,1.26677e-17
0.659975,-0.7,0.212144,0.01,47.5678,245,-35.7481,35.7256,-606.612,-6.73417e-10,6.73189e-10,-1.14289e-08,607.652,-607.675,5.17657e-07,1.14486e-08,-1.14489e-08,9.75297e-18
0.669975,-0.7,0.219055,0.01,51.5799,245,-26.5322,25.961,-599.01,-4.97399e-10,4.91604e-10,-1.12857e-08,599.299,-599.87,0.0222235,1.12936e-08,-1.12994e-08,4.18704e-13
0.679975,-0.7,0.226196,0.01,55.5946,245,-18.7016,15.709,-592.903,-3.39337e-10,3.08977e-10,-1.11706e-08,591.656,-594.649,0.00561101,1.11602e-08,-1.11905e-08,1.05715e-13
0.689975,-0.7,0.233035,0.01,59.611,245,-12.33,4.6918,-588.105,-1.99095e-10,1.21606e-10,-1.10802e-08,584.347,-591.985,-0.0273341,1.10426e-08,-1.11201e-08,-5.14991e-13
0.699975,-0.7,0.239998,0.01,63.6282,245,-4.72962,-4.68775,-582.873,-4.81637e-11,-4.73748e-11,-1.09817e-08,578.165,-587.582,-0.0002303,1.09339e-08,-1.10294e-08,-4.33899e-15
-0.710025,-0.69,0.240369,0.01,63.7057,238.05,12.1489,-21.5535,582.469,2.69781e-10,-3.6519e-10,1.0974e-08,578.01,-587.415,-0.185328,1.09309e-08,-1.10263e-08,-3.49168e-12
-0.700025,-0.69,0.23307,0.01,59.6311,238.05,4.69129,-12.3287,588.062,1.21593e-10,-1.99074e-10,1.10794e-08,584.305,-591.943,-0.0273303,1.10419e-08,-1.11193e-08,-5.14918e-13
-0.690025,-0.69,0.225891,0.01,55.5556,238.05,-1.47665,-1.5194,593.236,-1.47947e-11,-1.56e-11,1.11769e-08,591.738,-594.734,7.00695e-06,1.11617e-08,-1.11921e-08,1.32015e-16
-0.680025,-0.69,0.218934,0.01,51.4801,238.05,-9.01272,8.44007,599.735,-1.67315e-10,1.61506e-10,1.12994e-08,599.513,-600.085,-0.00740433,1.12977e-08,-1.13035e-08,-1.39502e-13
-0.670025,-0.69,0.212095,0.01,47.4056,238.05,-17.8677,17.8451,607.752,-3.36539e-10,3.3631e-10,1.14504e-08,608.003,-608.026,-2.62797e-07,1.14552e-08,-1.14555e-08,-4.95124e-18
-0.660025,-0.69,0.204948,0.01,43.3328,238.05,-27.392,27.3687,616.276,-5.15979e-10,5.15744e-10,1.1611e-08,616.873,-616.896,-4.12189e-07,1.16223e-08,-1.16226e-08,-7.76588e-18
-0.650025,-0.69,0.198047,0.01,39.2627,238.05,-37.3206,37.2968,624.764,-7.03038e-10,7.02796e-10,1.17709e-08,625.865,-625.889,-5.73204e-07,1.17918e-08,-1.1792e-08,-1.07995e-17
-0.640025,-0.69,0.19142,0.01,35.1964,238.05,-47.6641,47.6397,633.203,-8.97914e-10,8.97666e-10,1.19299e-08,634.981,-635.005,-7.44283e-07,1.19635e-08,-1.19638e-08,-1.40227e-17
-0.630025,-0.69,0.184545,0.01,31.1348,238.05,-58.433,58.4079,641.576,-1.1008e-09,1.10055e-09,1.20877e-08,644.218,-644.243,-9.2501e-07,1.21376e-08,-1.21378e-08,-1.74277e-17
-0.620025,-0.69,0.177714,0.01,27.0791,238.05,-69.6372,69.6116,649.87,-1.31189e-09,1.31163e-09,1.22439e-08,653.576,-653.602,-1.11468e-06,1.23139e-08,-1.23141e-08,-2.10012e-17
-0.610025,-0.69,0.171196,0.01,23.0304,238.05,-81.2868,81.2607,658.067,-1.53138e-09,1.53111e-09,1.23984e-08,663.054,-663.08,-1.31044e-06,1.24924e-08,-1.24927e-08,-2.46894e-17
-0.600025,-0.69,0.164686,0.01,18.9898,238.05,-93.3913,93.3646,666.15,-1.75943e-09,1.75916e-09,1.25507e-08,672.65,-672.676,-1.51002e-06,1.26732e-08,-1.26735e-08,-2.84497e-17
-0.590025,-0.69,0.157945,0.01,14.9585,238.05,-105.96,105.933,674.1,-1.99623e-09,1.99595e-09,1.27004e-08,682.361,-682.389,-1.71092e-06,1.28562e-08,-1.28565e-08,-3.22346e-17
-0.580025,-0.69,0.151565,0.01,10.9378,238.05,-119.001,118.973,681.898,-2.24193e-09,2.24165e-09,1.28474e-08,692.188,-692.215,-1.90971e-06,1.30413e-08,-1.30416e-08,-3.598e-17
-0.570025,-0.69,0.145377,0.01,6.92907,238.05,-132.523,132.495,689.522,-2.49669e-09,2.49641e-09,1.2991e-08,702.125,-702.153,-2.10257e-06,1.32286e-08,-1.32289e-08,-3.96136e-17
-0.560025,-0.69,0.138753,0.01,2.93356,238.05,-146.534,146.505,696.952,-2.76066e-09,2.76037e-09,1.3131e-08,712.172,-712.201,-2.28463e-06,1.34179e-08,-1.34182e-08,-4.30437e-17
-0.550025,-0.69,0.132552,0.01,-1.0473,238.05,-161.039,161.011,704.163,-3.03395e-09,3.03366e-09,1.32668e-08,722.325,-722.354,-2.4505e-06,1.36092e-08,-1.36094e-08,-4.61688e-17
-0.540025,-0.69,0.126628,0.01,-5.01205,238.05,-176.046,176.017,711.133,-3.31669e-09,3.31639e-09,1.33982e-08,732.581,-732.61,-2.59445e-06,1.38024e-08,-1.38027e-08,-4.88809e-17
-0.530025,-0.69,0.120159,0.01,-8.95919,238.05,-191.559,191.53,717.835,-3.60896e-09,3.60867e-09,1.35244e-08,742.936,-742.966,-2.7092e-06,1.39975e-08,-1.39978e-08,-5.10429e-17
-0.520025,-0.69,0.114201,0.01,-12.8872,238.05,-207.583,207.554,724.244,-3.91086e-09,3.91056e-09,1.36452e-08,753.387,-753.416,-2.78692e-06,1.41944e-08,-1.41947e-08,-5.25071e-17
-0.510025,-0.69,0.108454,0.01,-16.7944,238.05,-224.12,224.091,730.332,-4.22243e-09,4.22213e-09,1.37599e-08,763.927,-763.957,-2.81903e-06,1.4393e-08,-1.43933e-08,-5.31122e-17
-0.500025,-0.69,0.102203,0.01,-20.6792,238.05,-241.173,241.143,736.07,-4.5437e-09,4.5434e-09,1.3868e-08,774.554,-774.583,-2.79683e-06,1.45932e-08,-1.45935e-08,-5.26939e-17
-0.490025,-0.69,0.0965843,0.01,-24.5399,238.05,-258.741,258.711,741.43,-4.8747e-09,4.8744e-09,1.3969e-08,785.261,-785.29,-2.71021e-06,1.47949e-08,-1.47952e-08,-5.10618e-17
-0.480025,-0.69,0.0908848,0.01,-28.3747,238.05,-276.824,276.794,746.381,-5.21539e-09,5.2151e-09,1.40622e-08,796.043,-796.072,-2.54302e-06,1.4998e-08,-1.49983e-08,-4.7912e-17
-0.470025,-0.69,0.0849497,0.01,-32.1818,238.05,-295.419,295.39,750.89,-5.56574e-09,5.56545e-09,1.41472e-08,806.893,-806.922,-2.30718e-06,1.52025e-08,-1.52028e-08,-4.34686e-17
-0.460025,-0.69,0.0798302,0.01,-35.9594,238.05,-314.523,314.494,754.927,-5.92567e-09,5.92538e-09,1.42233e-08,817.806,-817.834,-1.93325e-06,1.54081e-08,-1.54084e-08,-3.64235e-17
-0.450025,-0.69,0.0739791,0.01,-39.7055,238.05,-334.129,334.1,758.456,-6.29506e-09,6.29477e-09,1.42898e-08,828.773,-828.801,-1.26806e-06,1.56147e-08,-1.5615e-08,-2.38909e-17
-0.440025,-0.69,0.0685315,0.01,-43.4182,238.05,-354.229,354.201,761.445,-6.67376e-09,6.67348e-09,1.43461e-08,839.788,-839.816,-2.70646e-06,1.58222e-08,-1.58225e-08,-5.09913e-17
-0.430025,-0.69,0.0637384,0.01,-47.0955,238.05,-374.814,374.787,763.858,-7.06159e-09,7.06131e-09,1.43915e-08,850.842,-850.869,8.8338e-06,1.60305e-08,-1.60307e-08,1.66434e-16
-0.420025,-0.69,0.0578597,0.01,-50.7353,238.05,-395.871,395.844,765.661,-7.45832e-09,7.45805e-09,1.44255e-08,861.926,-861.953,-2.88849e-05,1.62393e-08,-1.62396e-08,-5.44208e-16
-0.410025,-0.69,0.0532249,0.01,-54.3355,238.05,-417.386,417.36,766.817,-7.86368e-09,7.86342e-09,1.44473e-08,873.033,-873.058,4.44897e-05,1.64486e-08,-1.64488e-08,8.38211e-16
-0.400025,-0.69,0.0478809,0.01,-57.894,238.05,-439.341,439.318,767.289,-8.27734e-09,8.2771e-09,1.44562e-08,884.15,-884.174,0.000250591,1.6658e-08,-1.66582e-08,4.72129e-15
-0.390025,-0.69,0.0428218,0.01,-61.4085,238.05,-461.721,461.693,767.047,-8.69897e-09,8.69869e-09,1.44516e-08,895.271,-895.299,-0.00265382,1.68675e-08,-1.68678e-08,-4.99995e-14
-0.380025,-0.69,0.0387122,0.01,-64.8769,238.05,-484.498,484.496,766.029,-9.12821e-09,9.12819e-09,1.44324e-08,906.386,-906.388,0.0154124,1.70768e-08,-1.70769e-08,2.90378e-13
-0.370025,-0.69,0.0330222,0.01,-68.2968,238.05,-507.602,507.53,764.281,-9.56321e-09,9.56247e-09,1.43995e-08,917.433,-917.505,-0.0806909,1.72853e-08,-1.7286e-08,-1.52026e-12
-0.360025,-0.69,0.0297034,0.01,-71.6659,238.05,-531.221,531.554,761.396,-1.001e-08,1.00133e-08,1.43451e-08,928.658,-928.324,0.333027,1.7495e-08,-1.74916e-08,6.27441e-12
-0.350025,-0.69,0.0239228,0.01,-74.982,238.05,-552.07,554.585,755.633,-1.04123e-08,1.04378e-08,1.42366e-08,937.822,-935.307,0.162684,1.76582e-08,-1.76327e-08,3.06505e-12
-0.340025,-0.69,0.0202436,0.01,-78.2425,238.05,-573.873,577.24,751.531,-1.08267e-08,1.08609e-08,1.41593e-08,948.289,-944.922,-1.42555,1.78517e-08,-1.78175e-08,-2.68582e-11
-0.330025,-0.69,0.0158044,0.01,-81.4451,238.05,-598.789,603.115,741.373,-1.13003e-08,1.13442e-08,1.39679e-08,956.506,-952.18,2.52024,1.80023e-08,-1.79584e-08,4.74828e-11
-0.320025,-0.69,0.0113215,0.01,-84.5872,238.05,-614.782,620.478,731.363,-1.16076e-08,1.16654e-08,1.37793e-08,960.114,-954.418,-0.919917,1.80643e-08,-1.80066e-08,-1.73318e-11
-0.310025,-0.69,0.00974118,0.01,-87.6677,238.05,-641.625,647.482,725.728,-1.21141e-08,1.21735e-08,1.36731e-08,973.562,-967.706,-0.00572194,1.8317e-08,-1.82576e-08,-1.07805e-13
0.309975,-0.69,0.00969391,0.01,-87.6828,238.05,-641.658,647.624,-725.611,-1.21151e-08,1.21757e-08,-1.36709e-08,973.588,-967.622,-0.0205588,1.8317e-08,-1.82565e-08,-3.8734e-13
0.319975,-0.69,0.0113169,0.01,-84.6027,238.05,-614.889,620.651,-731.305,-1.16099e-08,1.16684e-08,-1.37782e-08,960.193,-954.431,0.888919,1.80655e-08,-1.80071e-08,1.67477e-11
0.329975,-0.69,0.0157696,0.01,-81.4609,238.05,-598.953,603.238,-741.348,-1.13033e-08,1.13467e-08,-1.39674e-08,956.556,-952.272,-2.53509,1.80035e-08,-1.796e-08,-4.77625e-11
0.339975,-0.69,0.020236,0.01,-78.2586,238.05,-574.021,577.359,-751.512,-1.08294e-08,1.08633e-08,-1.41589e-08,948.341,-945.002,1.41772,1.78528e-08,-1.78189e-08,2.67108e-11
0.349975,-0.69,0.0238956,0.01,-74.9983,238.05,-552.215,554.707,-755.622,-1.04149e-08,1.04402e-08,-1.42364e-08,937.881,-935.388,-0.169467,1.76594e-08,-1.76341e-08,-3.19285e-12
0.359975,-0.69,0.0296944,0.01,-71.6826,238.05,-531.348,531.672,-761.389,-1.00123e-08,1.00156e-08,-1.4345e-08,928.718,-928.394,-0.33197,1.74962e-08,-1.74929e-08,-6.2545e-12
0.369975,-0.69,0.032999,0.01,-68.3137,238.05,-507.72,507.645,-764.271,-9.56541e-09,9.56465e-09,-1.43993e-08,917.488,-917.562,0.081213,1.72863e-08,-1.72871e-08,1.5301e-12
0.379975,-0.69,0.0386796,0.01,-64.894,238.05,-484.612,484.61,-766.022,-9.13036e-09,9.13035e-09,-1.44323e-08,906.441,-906.443,-0.0154238,1.70779e-08,-1.70779e-08,-2.90593e-13
0.389975,-0.69,0.042801,0.01,-61.4259,238.05,-461.834,461.806,-767.044,-8.70109e-09,8.70081e-09,-1.44516e-08,895.326,-895.354,0.00263288,1.68686e-08,-1.68689e-08,4.9605e-14
0.399975,-0.69,0.0478519,0.01,-57.9116,238.05,-439.451,439.428,-767.289,-8.27942e-09,8.27918e-09,-1.44562e-08,884.206,-884.229,-0.000240867,1.6659e-08,-1.66593e-08,-4.53807e-15
0.409975,-0.69,0.0532056,0.01,-54.3533,238.05,-417.494,417.468,-766.821,-7.86572e-09,7.86546e-09,-1.44474e-08,873.088,-873.113,-4.73854e-05,1.64496e-08,-1.64499e-08,-8.92769e-16
0.419975,-0.69,0.0578332,0.01,-50.7533,238.05,-395.976,395.95,-765.668,-7.46031e-09,7.46005e-09,-1.44256e-08,861.982,-862.008,2.95169e-05,1.62403e-08,-1.62406e-08,5.56116e-16
0.429975,-0.69,0.0637066,0.01,-47.1137,238.05,-374.917,374.89,-763.869,-7.06354e-09,7.06326e-09,-1.43917e-08,850.897,-850.924,-8.93579e-06,1.60315e-08,-1.60318e-08,-1.68355e-16
0.439975,-0.69,0.068507,0.01,-43.4366,238.05,-354.33,354.302,-761.458,-6.67567e-09,6.67538e-09,-1.43463e-08,839.843,-839.87,2.7082e-06,1.58232e-08,-1.58235e-08,5.10241e-17
0.449975,-0.69,0.0739497,0.01,-39.7241,238.05,-334.228,334.199,-758.472,-6.29692e-09,6.29663e-09,-1.42901e-08,828.828,-828.856,1.26743e-06,1.56157e-08,-1.5616e-08,2.38791e-17
0.459975,-0.69,0.079807,0.01,-35.9781,238.05,-314.619,314.59,-754.945,-5.92748e-09,5.92719e-09,-1.42236e-08,817.86,-817.889,1.93013e-06,1.54091e-08,-1.54094e-08,3.63648e-17
0.469975,-0.69,0.0849221,0.01,-32.2007,238.05,-295.513,295.484,-750.912,-5.56751e-09,5.56721e-09,-1.41476e-08,806.947,-806.976,2.30585e-06,1.52035e-08,-1.52038e-08,4.34435e-17
0.479975,-0.69,0.0908535,0.01,-28.3937,238.05,-276.915,276.886,-746.404,-5.21711e-09,5.21681e-09,-1.40627e-08,796.096,-796.126,2.54133e-06,1.4999e-08,-1.49993e-08,4.78801e-17
0.489975,-0.69,0.0965581,0.01,-24.559,238.05,-258.83,258.8,-741.456,-4.87637e-09,4.87607e-09,-1.39695e-08,785.314,-785.344,2.70918e-06,1.47959e-08,-1.47962e-08,5.10424e-17
0.499975,-0.69,0.102173,0.01,-20.6985,238.05,-241.259,241.229,-736.098,-4.54533e-09,4.54503e-09,-1.38685e-08,774.607,-774.637,2.79695e-06,1.45942e-08,-1.45945e-08,5.26962e-17
0.509975,-0.69,0.108421,0.01,-16.8138,238.05,-224.204,224.174,-730.361,-4.224e-09,4.2237e-09,-1.37604e-08,763.98,-764.01,2.81943e-06,1.4394e-08,-1.43943e-08,5.31197e-17
0.519975,-0.69,0.114173,0.01,-12.9067,238.05,-207.664,207.635,-724.275,-3.91238e-09,3.91208e-09,-1.36458e-08,753.439,-753.468,2.78695e-06,1.41954e-08,-1.41957e-08,5.25078e-17
0.529975,-0.69,0.120128,0.01,-8.97877,238.05,-191.638,191.609,-717.868,-3.61044e-09,3.61014e-09,-1.3525e-08,742.988,-743.018,2.70933e-06,1.39985e-08,-1.39988e-08,5.10454e-17
0.539975,-0.69,0.126594,0.01,-5.03172,238.05,-176.122,176.093,-711.167,-3.31812e-09,3.31782e-09,-1.33988e-08,732.633,-732.662,2.59513e-06,1.38033e-08,-1.38036e-08,4.88937e-17
0.549975,-0.69,0.132523,0.01,-1.06706,238.05,-161.113,161.084,-704.198,-3.03533e-09,3.03504e-09,-1.32675e-08,722.376,-722.405,2.45123e-06,1.36101e-08,-1.36104e-08,4.61826e-17
0.559975,-0.69,0.138721,0.01,2.91372,238.05,-146.605,146.576,-696.988,-2.76199e-09,2.7617e-09,-1.31317e-08,712.223,-712.251,2.28544e-06,1.34188e-08,-1.34191e-08,4.3059e-17
0.569975,-0.69,0.145343,0.01,6.90917,238.05,-132.592,132.564,-689.56,-2.49798e-09,2.4977e-09,-1.29917e-08,702.175,-702.203,2.10375e-06,1.32295e-08,-1.32298e-08,3.96358e-17
0.579975,-0.69,0.151534,0.01,10.9179,238.05,-119.067,119.039,-681.936,-2.24317e-09,2.24289e-09,-1.28481e-08,692.237,-692.264,1.91108e-06,1.30423e-08,-1.30425e-08,3.60059e-17
0.589975,-0.69,0.157913,0.01,14.9385,238.05,-106.023,105.996,-674.139,-1.99743e-09,1.99715e-09,-1.27012e-08,682.41,-682.437,1.71227e-06,1.28571e-08,-1.28574e-08,3.22601e-17
0.599975,-0.69,0.164652,0.01,18.9697,238.05,-93.4526,93.426,-666.19,-1.76059e-09,1.76032e-09,-1.25514e-08,672.698,-672.724,1.51127e-06,1.26741e-08,-1.26744e-08,2.84731e-17
0.609975,-0.69,0.171165,0.01,23.0103,238.05,-81.3459,81.3197,-658.108,-1.53249e-09,1.53222e-09,-1.23991e-08,663.101,-663.128,1.31144e-06,1.24933e-08,-1.24936e-08,2.47083e-17
0.619975,-0.69,0.177681,0.01,27.059,238.05,-69.694,69.6685,-649.911,-1.31296e-09,1.31271e-09,-1.22447e-08,653.623,-653.649,1.11588e-06,1.23147e-08,-1.2315e-08,2.10239e-17
0.629975,-0.69,0.18451,0.01,31.1146,238.05,-58.4876,58.4626,-641.618,-1.10183e-09,1.10158e-09,-1.20885e-08,644.264,-644.289,9.26645e-07,1.21384e-08,-1.21387e-08,1.74585e-17
0.639975,-0.69,0.191388,0.01,35.1762,238.05,-47.7166,47.6922,-633.244,-8.98903e-10,8.98655e-10,-1.19307e-08,635.026,-635.051,7.45434e-07,1.19644e-08,-1.19646e-08,1.40444e-17
0.649975,-0.69,0.198013,0.01,39.2425,238.05,-37.371,37.3472,-624.806,-7.03988e-10,7.03746e-10,-1.17717e-08,625.91,-625.934,5.74299e-07,1.17926e-08,-1.17929e-08,1.08201e-17
0.659975,-0.69,0.204913,0.01,43.3125,238.05,-27.4403,27.4171,-616.319,-5.16891e-10,5.16655e-10,-1.16118e-08,616.917,-616.94,4.13253e-07,1.16232e-08,-1.16234e-08,7.78592e-18
0.669975,-0.69,0.212059,0.01,47.3853,238.05,-17.9141,17.8914,-607.795,-3.37413e-10,3.37183e-10,-1.14512e-08,608.047,-608.069,2.63293e-07,1.14561e-08,-1.14563e-08,4.96058e-18
0.679975,-0.69,0.2189,0.01,51.4599,238.05,-9.0572,8.48449,-599.778,-1.68153e-10,1.62343e-10,-1.13002e-08,599.556,-600.129,0.00744229,1.12985e-08,-1.13043e-08,1.40217e-13
0.689975,-0.69,0.225856,0.01,55.5353,238.05,-1.51956,-1.47681,-593.279,-1.56017e-11,-1.47963e-11,-1.11777e-08,591.781,-594.777,7.00789e-06,1.11625e-08,-1.11929e-08,1.32033e-16
0.699975,-0.69,0.233034,0.01,59.6108,238.05,4.64958,-12.2878,-588.105,1.2081e-10,-1.983e-10,-1.10802e-08,584.347,-591.986,0.0271985,1.10427e-08,-1.11201e-08,5.12436e-13
0.709975,-0.69,0.240335,0.01,63.6854,238.05,12.1083,-21.514,-582.512,2.69022e-10,-3.64442e-10,-1.09749e-08,578.052,-587.457,0.184894,1.09317e-08,-1.10271e-08,3.48352e-12
-0.720025,-0.68,0.240444,0.01,63.8779,231.2,28.9548,-38.3242,581.383,5.86261e-10,-6.81313e-10,1.09536e-08,577.67,-587.04,-0.369742,1.09244e-08,-1.10194e-08,-6.96616e-12
-0.710025,-0.68,0.233232,0.01,59.7476,231.2,21.6573,-29.2756,587.324,4.41159e-10,-5.18446e-10,1.10655e-08,584.067,-591.685,-0.0818542,1.10373e-08,-1.11146e-08,-1.54218e-12
-0.700025,-0.68,0.226232,0.01,55.6148,231.2,15.7073,-18.6995,592.86,3.08944e-10,-3.393e-10,1.11698e-08,591.613,-594.606,0.00561018,1.11593e-08,-1.11897e-08,1.05699e-13
-0.690025,-0.68,0.218935,0.01,51.4803,231.2,8.48356,-9.05621,599.735,1.62325e-10,-1.68134e-10,1.12993e-08,599.512,-600.085,0.00744121,1.12976e-08,-1.13035e-08,1.40197e-13
-0.680025,-0.68,0.211749,0.01,47.3449,231.2,0.0109026,-0.0335722,608.146,3.03975e-13,-5.33957e-13,1.14578e-08,608.134,-608.157,1.7335e-10,1.14577e-08,-1.14579e-08,3.26601e-21
-0.670025,-0.68,0.2048,0.01,43.2095,231.2,-9.1313,9.10796,617.087,-1.71938e-10,1.71701e-10,1.16263e-08,617.143,-617.166,-1.38831e-07,1.16274e-08,-1.16277e-08,-2.61566e-18
-0.660025,-0.68,0.197959,0.01,39.075,231.2,-18.6796,18.6556,626.017,-3.51831e-10,3.51587e-10,1.17945e-08,626.283,-626.307,-2.91564e-07,1.17996e-08,-1.17999e-08,-5.49323e-18
-0.650025,-0.68,0.190806,0.01,34.9424,231.2,-28.6457,28.621,634.921,-5.39594e-10,5.39344e-10,1.19623e-08,635.554,-635.579,-4.57749e-07,1.19743e-08,-1.19746e-08,-8.62426e-18
-0.640025,-0.68,0.183918,0.01,30.8127,231.2,-39.0409,39.0156,643.787,-7.35442e-10,7.35186e-10,1.21293e-08,644.956,-644.982,-6.36166e-07,1.21515e-08,-1.21517e-08,-1.19857e-17
-0.630025,-0.68,0.177327,0.01,26.6869,231.2,-49.8766,49.8506,652.599,-9.3959e-10,9.39327e-10,1.22953e-08,654.488,-654.514,-8.26692e-07,1.23311e-08,-1.23313e-08,-1.55754e-17
-0.620025,-0.68,0.170404,0.01,22.566,231.2,-61.1639,61.1373,661.342,-1.15225e-09,1.15198e-09,1.24601e-08,664.15,-664.176,-1.02851e-06,1.25131e-08,-1.25133e-08,-1.93778e-17
-0.610025,-0.68,0.163595,0.01,18.4513,231.2,-72.9138,72.8866,669.998,-1.37362e-09,1.37334e-09,1.26231e-08,673.939,-673.966,-1.23881e-06,1.26975e-08,-1.26978e-08,-2.334e-17
-0.600025,-0.68,0.157127,0.01,14.3439,231.2,-85.1369,85.1091,678.55,-1.60391e-09,1.60363e-09,1.27843e-08,683.854,-683.882,-1.45591e-06,1.28843e-08,-1.28846e-08,-2.74301e-17
-0.590025,-0.68,0.150548,0.01,10.245,231.2,-97.8434,97.815,686.978,-1.8433e-09,1.84301e-09,1.29431e-08,693.895,-693.923,-1.67752e-06,1.30735e-08,-1.30738e-08,-3.16055e-17
-0.580025,-0.68,0.14384,0.01,6.15583,231.2,-111.043,111.014,695.263,-2.09199e-09,2.0917e-09,1.30992e-08,704.058,-704.087,-1.8999e-06,1.3265e-08,-1.32653e-08,-3.57952e-17
-0.570025,-0.68,0.137532,0.01,2.07781,231.2,-124.745,124.716,703.383,-2.35014e-09,2.34985e-09,1.32522e-08,714.342,-714.372,-2.11937e-06,1.34588e-08,-1.34591e-08,-3.99303e-17
-0.560025,-0.68,0.131245,0.01,-1.98773,231.2,-138.958,138.929,711.316,-2.61793e-09,2.61762e-09,1.34016e-08,724.745,-724.774,-2.33132e-06,1.36547e-08,-1.3655e-08,-4.39234e-17
-0.550025,-0.68,0.124672,0.01,-6.03937,231.2,-153.691,153.661,719.038,-2.89549e-09,2.89518e-09,1.35471e-08,735.262,-735.292,-2.53014e-06,1.38529e-08,-1.38532e-08,-4.76692e-17
-0.540025,-0.68,0.118578,0.01,-10.0756,231.2,-168.949,168.919,726.525,-3.18297e-09,3.18266e-09,1.36881e-08,745.891,-745.922,-2.70973e-06,1.40532e-08,-1.40535e-08,-5.10529e-17
-0.530025,-0.68,0.112507,0.01,-14.095,231.2,-184.74,184.71,733.749,-3.48048e-09,3.48017e-09,1.38242e-08,756.629,-756.66,-2.86272e-06,1.42555e-08,-1.42558e-08,-5.39352e-17
-0.520025,-0.68,0.10612,0.01,-18.0959,231.2,-201.069,201.038,740.684,-3.78813e-09,3.78781e-09,1.39549e-08,767.47,-767.502,-2.98119e-06,1.44597e-08,-1.446e-08,-5.61674e-17
-0.510025,-0.68,0.100325,0.01,-22.0767,231.2,-217.94,217.909,747.301,-4.10599e-09,4.10567e-09,1.40796e-08,778.412,-778.443,-3.05612e-06,1.46659e-08,-1.46662e-08,-5.75791e-17
-0.500025,-0.68,0.0943555,0.01,-26.0357,231.2,-235.356,235.325,753.57,-4.43411e-09,4.43379e-09,1.41977e-08,789.448,-789.479,-3.07647e-06,1.48738e-08,-1.48741e-08,-5.79625e-17
-0.490025,-0.68,0.088239,0.01,-29.9711,231.2,-253.319,253.287,759.461,-4.77253e-09,4.77222e-09,1.43087e-08,800.574,-800.605,-3.03922e-06,1.50834e-08,-1.50837e-08,-5.72607e-17
-0.480025,-0.68,0.0828812,0.01,-33.8813,231.2,-271.828,271.796,764.941,-5.12126e-09,5.12094e-09,1.44119e-08,811.783,-811.814,-2.91481e-06,1.52946e-08,-1.52949e-08,-5.49167e-17
-0.470025,-0.68,0.0768347,0.01,-37.7642,231.2,-290.882,290.851,769.978,-5.48025e-09,5.47994e-09,1.45068e-08,823.07,-823.101,-2.57953e-06,1.55072e-08,-1.55076e-08,-4.85998e-17
-0.460025,-0.68,0.0711336,0.01,-41.618,231.2,-310.478,310.448,774.537,-5.84946e-09,5.84915e-09,1.45927e-08,834.427,-834.458,-3.33691e-06,1.57212e-08,-1.57215e-08,-6.28693e-17
-0.450025,-0.68,0.0661874,0.01,-45.4408,231.2,-330.612,330.581,778.583,-6.22878e-09,6.22847e-09,1.46689e-08,845.848,-845.879,2.11309e-06,1.59364e-08,-1.59367e-08,3.98119e-17
-0.440025,-0.68,0.0600369,0.01,-49.2305,231.2,-351.275,351.245,782.079,-6.61809e-09,6.61779e-09,1.47348e-08,857.325,-857.355,-1.00713e-05,1.61526e-08,-1.61529e-08,-1.89749e-16
-0.430025,-0.68,0.0550281,0.01,-52.9851,231.2,-372.459,372.429,784.99,-7.01721e-09,7.01691e-09,1.47897e-08,868.848,-868.878,-2.89027e-05,1.63697e-08,-1.637e-08,-5.44544e-16
-0.420025,-0.68,0.049673,0.01,-56.7025,231.2,-394.151,394.123,787.275,-7.42592e-09,7.42563e-09,1.48327e-08,880.41,-880.438,0.000421145,1.65876e-08,-1.65878e-08,7.93461e-15
-0.410025,-0.68,0.0441877,0.01,-60.3804,231.2,-416.339,416.308,788.902,-7.84393e-09,7.84363e-09,1.48634e-08,892.001,-892.031,-0.00273968,1.68059e-08,-1.68063e-08,-5.16172e-14
-0.400025,-0.68,0.0401866,0.01,-64.0167,231.2,-439.013,438.996,789.818,-8.27119e-09,8.27101e-09,1.48806e-08,903.616,-903.633,0.0129954,1.70247e-08,-1.70249e-08,2.4484e-13
-0.390025,-0.68,0.0340013,0.01,-67.6091,231.2,-462.056,462.043,789.997,-8.70535e-09,8.70521e-09,1.4884e-08,915.19,-915.204,-0.0556705,1.72428e-08,-1.72429e-08,-1.04887e-12
-0.380025,-0.68,0.0299536,0.01,-71.1553,231.2,-485.378,486.156,788.738,-9.14819e-09,9.15608e-09,1.48603e-08,926.714,-925.936,0.423508,1.74564e-08,-1.74485e-08,7.97914e-12
-0.370025,-0.68,0.0246237,0.01,-74.6529,231.2,-505.72,509.166,785.068,-9.54303e-09,9.578e-09,1.47911e-08,936.512,-933.066,-0.271842,1.76294e-08,-1.75945e-08,-5.12165e-12
-0.360025,-0.68,0.0199538,0.01,-78.0995,231.2,-528.092,532.689,783.084,-9.96954e-09,1.00162e-08,1.47538e-08,948.096,-943.498,-1.51884,1.78427e-08,-1.7796e-08,-2.86158e-11
-0.350025,-0.68,0.016501,0.01,-81.4928,231.2,-552.966,558.639,774.892,-1.04429e-08,1.05004e-08,1.45994e-08,956.445,-950.772,2.06594,1.79953e-08,-1.79378e-08,3.89235e-11
-0.340025,-0.68,0.0104778,0.01,-84.8297,231.2,-573.443,573.726,768.847,-1.08052e-08,1.08081e-08,1.44855e-08,959.37,-959.087,-2.3842,1.80739e-08,-1.8071e-08,-4.49197e-11
-0.330025,-0.68,0.0111526,0.01,-88.1107,231.2,-606.404,604.278,768.155,-1.14158e-08,1.13942e-08,1.44725e-08,976.945,-979.071,0.293485,1.84155e-08,-1.8437e-08,5.52943e-12
0.329975,-0.68,0.0111032,0.01,-88.1268,231.2,-606.624,604.414,-768.139,-1.14195e-08,1.13971e-08,-1.44722e-08,977,-979.211,-0.326704,1.84169e-08,-1.84393e-08,-6.15529e-12
0.339975,-0.68,0.010463,0.01,-84.8462,231.2,-573.683,573.824,-768.845,-1.08091e-08,1.08106e-08,-1.44855e-08,959.398,-959.258,2.36057,1.8075e-08,-1.80736e-08,4.44746e-11
0.349975,-0.68,0.0164615,0.01,-81.5095,231.2,-553.191,558.748,-774.913,-1.04466e-08,1.0503e-08,-1.45998e-08,956.502,-950.945,-2.07946,1.79969e-08,-1.79405e-08,-3.91783e-11
0.359975,-0.68,0.0199404,0.01,-78.1165,231.2,-528.256,532.801,-783.097,-9.97241e-09,1.00185e-08,-1.4754e-08,948.157,-943.613,1.52004,1.78441e-08,-1.7798e-08,2.86384e-11
0.369975,-0.68,0.0245926,0.01,-74.6701,231.2,-505.861,509.281,-785.072,-9.54558e-09,9.58028e-09,-1.47912e-08,936.572,-933.151,0.271917,1.76307e-08,-1.7596e-08,5.12307e-12
0.379975,-0.68,0.0299404,0.01,-71.1728,231.2,-485.504,486.276,-788.74,-9.15053e-09,9.15836e-09,-1.48603e-08,926.776,-926.005,-0.423938,1.74576e-08,-1.74498e-08,-7.98724e-12
0.389975,-0.68,0.0339751,0.01,-67.6268,231.2,-462.172,462.158,-789.997,-8.70753e-09,8.70738e-09,-1.4884e-08,915.248,-915.263,0.0565469,1.72439e-08,-1.7244e-08,1.06538e-12
0.399975,-0.68,0.040152,0.01,-64.0347,231.2,-439.127,439.11,-789.82,-8.27333e-09,8.27316e-09,-1.48807e-08,903.674,-903.691,-0.0131287,1.70258e-08,-1.7026e-08,-2.47352e-13
0.409975,-0.68,0.0441644,0.01,-60.3986,231.2,-416.451,416.42,-788.909,-7.84604e-09,7.84573e-09,-1.48635e-08,892.058,-892.089,0.00275095,1.6807e-08,-1.68073e-08,5.18294e-14
0.419975,-0.68,0.0496422,0.01,-56.7209,231.2,-394.26,394.233,-787.285,-7.42797e-09,7.42769e-09,-1.48329e-08,880.468,-880.495,-0.000418978,1.65886e-08,-1.65889e-08,-7.89379e-15
0.429975,-0.68,0.0550066,0.01,-53.0037,231.2,-372.565,372.536,-785.002,-7.01922e-09,7.01892e-09,-1.47899e-08,868.906,-868.935,2.76001e-05,1.63708e-08,-1.63711e-08,5.20002e-16
0.439975,-0.68,0.0600089,0.01,-49.2493,231.2,-351.379,351.349,-782.095,-6.62005e-09,6.61975e-09,-1.47351e-08,857.382,-857.412,1.04273e-05,1.61537e-08,-1.6154e-08,1.96456e-16
0.449975,-0.68,0.0661545,0.01,-45.4597,231.2,-330.713,330.683,-778.601,-6.2307e-09,6.23039e-09,-1.46693e-08,845.905,-845.936,-2.18106e-06,1.59375e-08,-1.59378e-08,-4.10925e-17
0.459975,-0.68,0.0711076,0.01,-41.6371,231.2,-310.577,310.546,-774.558,-5.85132e-09,5.85101e-09,-1.45931e-08,834.484,-834.515,3.34236e-06,1.57223e-08,-1.57226e-08,6.2972e-17
0.469975,-0.68,0.0768042,0.01,-37.7834,231.2,-290.978,290.947,-770.002,-5.48206e-09,5.48175e-09,-1.45073e-08,823.126,-823.157,2.57952e-06,1.55083e-08,-1.55086e-08,4.85996e-17
0.479975,-0.68,0.0828567,0.01,-33.9006,231.2,-271.921,271.89,-764.968,-5.12302e-09,5.1227e-09,-1.44124e-08,811.839,-811.87,2.91329e-06,1.52957e-08,-1.5296e-08,5.48881e-17
0.489975,-0.68,0.0882104,0.01,-29.9906,231.2,-253.409,253.378,-759.489,-4.77424e-09,4.77392e-09,-1.43092e-08,800.629,-800.661,3.03822e-06,1.50845e-08,-1.50848e-08,5.72418e-17
0.499975,-0.68,0.0943235,0.01,-26.0553,231.2,-235.444,235.413,-753.6,-4.43577e-09,4.43545e-09,-1.41983e-08,789.503,-789.535,3.07632e-06,1.48748e-08,-1.48752e-08,5.79597e-17
0.509975,-0.68,0.100298,0.01,-22.0964,231.2,-218.026,217.994,-747.333,-4.10759e-09,4.10728e-09,-1.40802e-08,778.466,-778.498,3.0566e-06,1.46669e-08,-1.46672e-08,5.7588e-17
0.519975,-0.68,0.10609,0.01,-18.1158,231.2,-201.152,201.121,-740.717,-3.78968e-09,3.78937e-09,-1.39555e-08,767.525,-767.556,2.9817e-06,1.44607e-08,-1.44611e-08,5.61769e-17
0.529975,-0.68,0.112474,0.01,-14.115,231.2,-184.82,184.789,-733.784,-3.48199e-09,3.48167e-09,-1.38249e-08,756.682,-756.713,2.86318e-06,1.42565e-08,-1.42568e-08,5.39439e-17
0.539975,-0.68,0.118549,0.01,-10.0957,231.2,-169.027,168.996,-726.561,-3.18443e-09,3.18411e-09,-1.36888e-08,745.944,-745.975,2.7105e-06,1.40542e-08,-1.40545e-08,5.10673e-17
0.549975,-0.68,0.12464,0.01,-6.05949,231.2,-153.765,153.735,-719.076,-2.8969e-09,2.89659e-09,-1.35478e-08,735.315,-735.345,2.53102e-06,1.38539e-08,-1.38542e-08,4.76859e-17
0.559975,-0.68,0.131211,0.01,-2.00792,231.2,-139.03,139.001,-711.355,-2.61928e-09,2.61898e-09,-1.34023e-08,724.797,-724.826,2.33219e-06,1.36557e-08,-1.3656e-08,4.39398e-17
0.569975,-0.68,0.137502,0.01,2.05756,231.2,-124.815,124.785,-703.423,-2.35145e-09,2.35115e-09,-1.32529e-08,714.394,-714.423,2.12072e-06,1.34597e-08,-1.346e-08,3.99556e-17
0.579975,-0.68,0.143807,0.01,6.13552,231.2,-111.11,111.081,-695.304,-2.09325e-09,2.09296e-09,-1.30999e-08,704.109,-704.138,1.90137e-06,1.32659e-08,-1.32662e-08,3.58229e-17
0.589975,-0.68,0.150514,0.01,10.2246,231.2,-97.9078,97.8794,-687.02,-1.84452e-09,1.84423e-09,-1.29439e-08,693.945,-693.973,1.67892e-06,1.30744e-08,-1.30747e-08,3.16318e-17
0.599975,-0.68,0.157096,0.01,14.3235,231.2,-85.1989,85.1711,-678.592,-1.60508e-09,1.60479e-09,-1.27851e-08,683.904,-683.932,1.45726e-06,1.28853e-08,-1.28855e-08,2.74556e-17
0.609975,-0.68,0.163562,0.01,18.4309,231.2,-72.9734,72.9462,-670.041,-1.37474e-09,1.37447e-09,-1.2624e-08,673.988,-674.015,1.23951e-06,1.26984e-08,-1.26987e-08,2.3353e-17
0.619975,-0.68,0.170369,0.01,22.5455,231.2,-61.2212,61.1946,-661.385,-1.15333e-09,1.15306e-09,-1.24609e-08,664.198,-664.224,1.02916e-06,1.2514e-08,-1.25143e-08,1.939e-17
0.629975,-0.68,0.177295,0.01,26.6664,231.2,-49.9316,49.9056,-652.643,-9.40627e-10,9.40363e-10,-1.22962e-08,654.536,-654.562,8.27943e-07,1.2332e-08,-1.23322e-08,1.55989e-17
0.639975,-0.68,0.183885,0.01,30.7922,231.2,-39.0936,39.0683,-643.831,-7.36437e-10,7.3618e-10,-1.21302e-08,645.004,-645.029,6.37026e-07,1.21523e-08,-1.21526e-08,1.20019e-17
0.649975,-0.68,0.190771,0.01,34.9219,231.2,-28.6963,28.6716,-634.966,-5.40548e-10,5.40297e-10,-1.19631e-08,635.601,-635.626,4.58581e-07,1.19752e-08,-1.19754e-08,8.63993e-18
0.659975,-0.68,0.197923,0.01,39.0545,231.2,-18.7282,18.7042,-626.061,-3.52745e-10,3.52501e-10,-1.17954e-08,626.329,-626.353,2.92501e-07,1.18005e-08,-1.18007e-08,5.51089e-18
0.669975,-0.68,0.204766,0.01,43.189,231.2,-9.17777,9.15443,-617.132,-1.72813e-10,1.72576e-10,-1.16271e-08,617.188,-617.211,1.39228e-07,1.16283e-08,-1.16285e-08,2.62314e-18
0.679975,-0.68,0.211714,0.01,47.3243,231.2,-0.0335763,0.0109034,-608.19,-5.34019e-13,3.04004e-13,-1.14587e-08,608.179,-608.201,4.09124e-10,1.14585e-08,-1.14588e-08,7.70813e-21
0.689975,-0.68,0.218899,0.01,51.4597,231.2,8.44099,-9.0137,-599.779,1.61523e-10,-1.67333e-10,-1.13002e-08,599.556,-600.129,-0.0074054,1.12985e-08,-1.13043e-08,-1.39522e-13
0.699975,-0.68,0.226197,0.01,55.5943,231.2,15.6663,-18.6589,-592.905,3.08173e-10,-3.38533e-10,-1.11707e-08,591.657,-594.649,-0.00559724,1.11602e-08,-1.11905e-08,-1.05455e-13
0.709975,-0.68,0.233196,0.01,59.7271,231.2,21.6175,-29.2367,-587.369,4.40413e-10,-5.17709e-10,-1.10664e-08,584.109,-591.729,0.0817303,1.10381e-08,-1.11154e-08,1.53985e-12
0.719975,-0.68,0.240408,0.01,63.8574,231.2,28.9161,-38.2867,-581.428,5.85538e-10,-6.80602e-10,-1.09544e-08,577.712,-587.083,0.369338,1.09252e-08,-1.10202e-08,6.95854e-12
-0.730025,-0.67,0.24111,0.01,64.1646,224.45,45.6887,-54.9997,579.578,9.01284e-10,-9.95743e-10,1.09196e-08,577.105,-586.416,-0.552798,1.09135e-08,-1.10079e-08,-1.0415e-11
-0.720025,-0.67,0.233737,0.01,59.9804,224.45,38.5691,-46.1494,585.852,7.59621e-10,-8.36523e-10,1.10378e-08,583.591,-591.171,-0.136375,1.10281e-08,-1.1105e-08,-2.56938e-12
-0.710025,-0.67,0.226311,0.01,55.7921,224.45,32.8515,-35.8325,591.735,6.31903e-10,-6.62144e-10,1.11486e-08,591.24,-594.221,0.0110192,1.11523e-08,-1.11825e-08,2.07607e-13
-0.700025,-0.67,0.21909,0.01,51.6003,224.45,25.9582,-26.5293,598.967,4.9155e-10,-4.97345e-10,1.12849e-08,599.256,-599.827,0.0222203,1.12928e-08,-1.12986e-08,4.18644e-13
-0.690025,-0.67,0.212094,0.01,47.4059,224.45,17.8895,-17.9121,607.75,3.37146e-10,-3.37376e-10,1.14504e-08,608.002,-608.025,2.63644e-07,1.14552e-08,-1.14554e-08,4.96721e-18
-0.680025,-0.67,0.204801,0.01,43.2097,224.45,9.15342,-9.17675,617.086,1.72557e-10,-1.72794e-10,1.16263e-08,617.143,-617.166,1.39489e-07,1.16274e-08,-1.16277e-08,2.62806e-18
-0.670025,-0.67,0.197607,0.01,39.0126,224.45,0.0112212,-0.0352749,626.434,3.15995e-13,-5.60018e-13,1.18024e-08,626.422,-626.446,2.51381e-10,1.18023e-08,-1.18025e-08,4.73617e-21
-0.660025,-0.67,0.190667,0.01,34.8154,224.45,-9.54961,9.52484,635.782,-1.79812e-10,1.79561e-10,1.19785e-08,635.841,-635.866,-1.54235e-07,1.19797e-08,-1.198e-08,-2.90589e-18
-0.650025,-0.67,0.183824,0.01,30.6193,224.45,-19.5416,19.5161,645.117,-3.68063e-10,3.67805e-10,1.21544e-08,645.4,-645.426,-3.23851e-07,1.21598e-08,-1.21601e-08,-6.10155e-18
-0.640025,-0.67,0.176664,0.01,26.4251,224.45,-29.9771,29.9509,654.425,-5.64671e-10,5.64405e-10,1.23298e-08,655.098,-655.124,-5.08399e-07,1.23425e-08,-1.23428e-08,-9.57853e-18
-0.630025,-0.67,0.169792,0.01,22.2339,224.45,-40.8685,40.8416,663.691,-7.69868e-10,7.69596e-10,1.25043e-08,664.934,-664.961,-7.07669e-07,1.25279e-08,-1.25281e-08,-1.33329e-17
-0.620025,-0.67,0.163243,0.01,18.0468,224.45,-52.228,52.2004,672.9,-9.83885e-10,9.83605e-10,1.26778e-08,674.909,-674.936,-9.20334e-07,1.27158e-08,-1.27161e-08,-1.73396e-17
-0.610025,-0.67,0.156264,0.01,13.8649,224.45,-64.0676,64.0393,682.033,-1.20695e-09,1.20666e-09,1.28499e-08,685.02,-685.048,-1.14428e-06,1.29063e-08,-1.29066e-08,-2.15588e-17
-0.600025,-0.67,0.149479,0.01,9.68945,224.45,-76.399,76.3701,691.072,-1.43928e-09,1.43898e-09,1.30202e-08,695.267,-695.295,-1.37825e-06,1.30994e-08,-1.30996e-08,-2.5967e-17
-0.590025,-0.67,0.143072,0.01,5.52162,224.45,-89.2336,89.2041,699.999,-1.68109e-09,1.68079e-09,1.31884e-08,705.648,-705.677,-1.62014e-06,1.32949e-08,-1.32952e-08,-3.05244e-17
-0.580025,-0.67,0.136411,0.01,1.36272,224.45,-102.582,102.552,708.793,-1.93258e-09,1.93228e-09,1.33541e-08,716.161,-716.191,-1.86623e-06,1.3493e-08,-1.34933e-08,-3.51608e-17
-0.570025,-0.67,0.129742,0.01,-2.78592,224.45,-116.456,116.425,717.432,-2.19396e-09,2.19365e-09,1.35168e-08,726.804,-726.835,-2.11275e-06,1.36935e-08,-1.36939e-08,-3.98055e-17
-0.560025,-0.67,0.123524,0.01,-6.92291,224.45,-130.864,130.833,725.892,-2.46542e-09,2.4651e-09,1.36762e-08,737.575,-737.606,-2.35531e-06,1.38965e-08,-1.38968e-08,-4.43753e-17
-0.550025,-0.67,0.117115,0.01,-11.0468,224.45,-145.816,145.784,734.149,-2.74712e-09,2.74679e-09,1.38318e-08,748.471,-748.503,-2.58834e-06,1.41018e-08,-1.41021e-08,-4.87658e-17
-0.540025,-0.67,0.110606,0.01,-15.1561,224.45,-161.32,161.288,742.178,-3.03922e-09,3.03889e-09,1.39831e-08,759.489,-759.521,-2.8055e-06,1.43093e-08,-1.43097e-08,-5.28572e-17
-0.530025,-0.67,0.104649,0.01,-19.2493,224.45,-177.383,177.351,749.952,-3.34187e-09,3.34154e-09,1.41295e-08,770.624,-770.657,-2.99932e-06,1.45191e-08,-1.45195e-08,-5.65089e-17
-0.520025,-0.67,0.0983917,0.01,-23.3248,224.45,-194.014,193.981,757.441,-3.65518e-09,3.65485e-09,1.42706e-08,781.873,-781.906,-3.16106e-06,1.47311e-08,-1.47314e-08,-5.95562e-17
-0.510025,-0.67,0.092112,0.01,-27.3808,224.45,-211.215,211.182,764.617,-3.97927e-09,3.97894e-09,1.44058e-08,793.232,-793.265,-3.28397e-06,1.49451e-08,-1.49454e-08,-6.18719e-17
-0.500025,-0.67,0.086535,0.01,-31.4157,224.45,-228.993,228.96,771.448,-4.31422e-09,4.31388e-09,1.45345e-08,804.696,-804.729,-3.35317e-06,1.51611e-08,-1.51614e-08,-6.31757e-17
-0.490025,-0.67,0.0802729,0.01,-35.4277,224.45,-247.35,247.316,777.902,-4.66006e-09,4.65973e-09,1.46561e-08,816.259,-816.292,-3.30445e-06,1.53789e-08,-1.53793e-08,-6.22578e-17
-0.480025,-0.67,0.0743431,0.01,-39.415,224.45,-266.286,266.253,783.946,-5.01684e-09,5.0165e-09,1.477e-08,827.915,-827.948,-3.66591e-06,1.55985e-08,-1.55989e-08,-6.90678e-17
-0.470025,-0.67,0.0692149,0.01,-43.3756,224.45,-285.803,285.769,789.544,-5.38454e-09,5.38421e-09,1.48755e-08,839.658,-839.691,-1.74415e-06,1.58198e-08,-1.58201e-08,-3.28608e-17
-0.460025,-0.67,0.062826,0.01,-47.3077,224.45,-305.897,305.864,794.66,-5.76313e-09,5.76279e-09,1.49719e-08,851.481,-851.514,-3.19783e-06,1.60425e-08,-1.60429e-08,-6.0249e-17
-0.450025,-0.67,0.0574762,0.01,-51.2091,224.45,-326.564,326.532,799.258,-6.15252e-09,6.15219e-09,1.50585e-08,863.377,-863.409,-3.76675e-05,1.62667e-08,-1.6267e-08,-7.09678e-16
-0.440025,-0.67,0.0520797,0.01,-55.078,224.45,-347.8,347.768,803.299,-6.55261e-09,6.55229e-09,1.51346e-08,875.337,-875.369,0.000295461,1.6492e-08,-1.64923e-08,5.56666e-15
-0.430025,-0.67,0.0462164,0.01,-58.912,224.45,-369.593,369.56,806.745,-6.9632e-09,6.96287e-09,1.51995e-08,887.353,-887.386,-0.00156563,1.67184e-08,-1.67187e-08,-2.94974e-14
-0.420025,-0.67,0.0419477,0.01,-62.709,224.45,-391.943,391.913,809.553,-7.3843e-09,7.38399e-09,1.52525e-08,899.42,-899.45,0.0057566,1.69457e-08,-1.6946e-08,1.08458e-13
-0.410025,-0.67,0.0356682,0.01,-66.4669,224.45,-414.757,414.767,811.652,-7.8143e-09,7.8144e-09,1.5292e-08,911.491,-911.481,-0.0185986,1.7173e-08,-1.71729e-08,-3.50408e-13
-0.400025,-0.67,0.0309414,0.01,-70.1833,224.45,-437.663,438.656,812.158,-8.25014e-09,8.26021e-09,1.53015e-08,923.31,-922.317,0.41334,1.73914e-08,-1.73813e-08,7.78757e-12
-0.390025,-0.67,0.0260474,0.01,-73.8558,224.45,-457.522,461.914,810.274,-8.63908e-09,8.68364e-09,1.5266e-08,933.8,-929.407,-0.348854,1.75742e-08,-1.75297e-08,-6.57262e-12
-0.380025,-0.67,0.020484,0.01,-77.4822,224.45,-479.333,486.107,809.565,-9.06037e-09,9.12909e-09,1.52527e-08,945.943,-939.169,-1.14598,1.77927e-08,-1.77239e-08,-2.15909e-11
-0.370025,-0.67,0.0179497,0.01,-81.0599,224.45,-501.848,512.337,802.67,-9.50071e-09,9.60713e-09,1.51228e-08,954.676,-944.186,1.73279,1.7941e-08,-1.78346e-08,3.26467e-11
-0.360025,-0.67,0.0106779,0.01,-84.5861,224.45,-522.451,528.671,799.659,-9.87032e-09,9.93342e-09,1.5066e-08,960.011,-953.791,-3.05737,1.80601e-08,-1.7997e-08,-5.76025e-11
-0.350025,-0.67,0.0102882,0.01,-88.0607,224.45,-557.559,558.205,801.208,-1.05075e-08,1.05141e-08,1.50952e-08,976.626,-975.98,0.288387,1.83974e-08,-1.83908e-08,5.43337e-12
0.349975,-0.67,0.0103105,0.01,-88.0779,224.45,-557.917,558.31,-801.312,-1.05132e-08,1.05172e-08,-1.50972e-08,976.717,-976.324,-0.304778,1.84002e-08,-1.83962e-08,-5.7422e-12
0.359975,-0.67,0.0106528,0.01,-84.6035,224.45,-522.735,528.699,-799.709,-9.87456e-09,9.93507e-09,-1.5067e-08,960.011,-954.046,3.06522,1.80612e-08,-1.80007e-08,5.77505e-11
0.369975,-0.67,0.017907,0.01,-81.0776,224.45,-502.05,512.435,-802.706,-9.50406e-09,9.60942e-09,-1.51235e-08,954.734,-944.349,-1.73241,1.79426e-08,-1.78372e-08,-3.26395e-11
0.379975,-0.67,0.0204648,0.01,-77.5001,224.45,-479.483,486.219,-809.585,-9.06302e-09,9.13136e-09,-1.52531e-08,946.009,-939.273,1.15019,1.77941e-08,-1.77257e-08,2.16703e-11
0.389975,-0.67,0.0260132,0.01,-73.874,224.45,-457.649,462.028,-810.284,-8.64141e-09,8.68583e-09,-1.52662e-08,933.86,-929.482,0.352234,1.75754e-08,-1.7531e-08,6.6363e-12
0.399975,-0.67,0.0309242,0.01,-70.2016,224.45,-437.783,438.775,-812.165,-8.2524e-09,8.26246e-09,-1.53017e-08,923.372,-922.38,-0.414387,1.73926e-08,-1.73825e-08,-7.80728e-12
0.409975,-0.67,0.0356393,0.01,-66.4855,224.45,-414.871,414.881,-811.661,-7.81646e-09,7.81656e-09,-1.52922e-08,911.551,-911.541,0.0192036,1.71741e-08,-1.7174e-08,3.61807e-13
0.419975,-0.67,0.0419314,0.01,-62.7278,224.45,-392.055,392.025,-809.566,-7.38642e-09,7.38611e-09,-1.52527e-08,899.48,-899.51,-0.00587975,1.69469e-08,-1.69472e-08,-1.10778e-13
0.429975,-0.67,0.0461908,0.01,-58.931,224.45,-369.703,369.67,-806.76,-6.96527e-09,6.96494e-09,-1.51998e-08,887.413,-887.445,0.00158365,1.67195e-08,-1.67198e-08,2.98369e-14
0.439975,-0.67,0.0520474,0.01,-55.0971,224.45,-347.907,347.875,-803.318,-6.55462e-09,6.5543e-09,-1.5135e-08,875.397,-875.429,-0.00029663,1.64931e-08,-1.64934e-08,-5.58868e-15
0.449975,-0.67,0.0574527,0.01,-51.2285,224.45,-326.669,326.636,-799.28,-6.15448e-09,6.15415e-09,-1.50589e-08,863.436,-863.469,3.735e-05,1.62678e-08,-1.62681e-08,7.03695e-16
0.459975,-0.67,0.0627966,0.01,-47.3272,224.45,-305.998,305.965,-794.685,-5.76504e-09,5.7647e-09,-1.49723e-08,851.54,-851.573,3.33842e-06,1.60436e-08,-1.6044e-08,6.28977e-17
0.469975,-0.67,0.069181,0.01,-43.3953,224.45,-285.901,285.868,-789.571,-5.3864e-09,5.38606e-09,-1.4876e-08,839.716,-839.75,1.71339e-06,1.58209e-08,-1.58212e-08,3.22813e-17
0.479975,-0.67,0.0743158,0.01,-39.4348,224.45,-266.382,266.348,-783.975,-5.01864e-09,5.0183e-09,-1.47705e-08,827.973,-828.006,3.66925e-06,1.55996e-08,-1.56e-08,6.91308e-17
0.489975,-0.67,0.0802414,0.01,-35.4476,224.45,-247.442,247.409,-777.933,-4.66181e-09,4.66147e-09,-1.46567e-08,816.316,-816.35,3.30442e-06,1.538e-08,-1.53804e-08,6.22573e-17
0.499975,-0.67,0.0865093,0.01,-31.4357,224.45,-229.083,229.05,-771.481,-4.31591e-09,4.31557e-09,-1.45351e-08,804.753,-804.786,3.35344e-06,1.51622e-08,-1.51625e-08,6.31807e-17
0.509975,-0.67,0.0920824,0.01,-27.4009,224.45,-211.302,211.269,-764.652,-3.98091e-09,3.98058e-09,-1.44065e-08,793.289,-793.322,3.28476e-06,1.49462e-08,-1.49465e-08,6.18869e-17
0.519975,-0.67,0.0983589,0.01,-23.345,224.45,-194.098,194.065,-757.477,-3.65677e-09,3.65644e-09,-1.42713e-08,781.93,-781.962,3.16196e-06,1.47321e-08,-1.47325e-08,5.95733e-17
0.529975,-0.67,0.104621,0.01,-19.2696,224.45,-177.465,177.432,-749.989,-3.3434e-09,3.34307e-09,-1.41302e-08,770.68,-770.712,3.00002e-06,1.45202e-08,-1.45205e-08,5.65222e-17
0.539975,-0.67,0.110575,0.01,-15.1765,224.45,-161.398,161.366,-742.217,-3.0407e-09,3.04037e-09,-1.39838e-08,759.544,-759.576,2.80633e-06,1.43104e-08,-1.43107e-08,5.28729e-17
0.549975,-0.67,0.117081,0.01,-11.0673,224.45,-145.891,145.86,-734.19,-2.74854e-09,2.74822e-09,-1.38326e-08,748.526,-748.557,2.58933e-06,1.41028e-08,-1.41031e-08,4.87845e-17
0.559975,-0.67,0.123495,0.01,-6.94345,224.45,-130.937,130.906,-725.933,-2.46679e-09,2.46648e-09,-1.3677e-08,737.629,-737.66,2.35614e-06,1.38975e-08,-1.38978e-08,4.4391e-17
0.569975,-0.67,0.12971,0.01,-2.80652,224.45,-116.526,116.496,-717.474,-2.19529e-09,2.19498e-09,-1.35176e-08,726.857,-726.888,2.11373e-06,1.36945e-08,-1.36949e-08,3.98239e-17
0.579975,-0.67,0.136377,0.01,1.34206,224.45,-102.65,102.62,-708.837,-1.93386e-09,1.93355e-09,-1.33549e-08,716.213,-716.244,1.86725e-06,1.3494e-08,-1.34943e-08,3.51801e-17
0.589975,-0.67,0.143041,0.01,5.50092,224.45,-89.2987,89.2692,-700.044,-1.68231e-09,1.68201e-09,-1.31892e-08,705.699,-705.729,1.62134e-06,1.32959e-08,-1.32962e-08,3.0547e-17
0.599975,-0.67,0.149446,0.01,9.66871,224.45,-76.4616,76.4327,-691.117,-1.44045e-09,1.44016e-09,-1.3021e-08,695.318,-695.347,1.37967e-06,1.31003e-08,-1.31006e-08,2.59939e-17
0.609975,-0.67,0.156229,0.01,13.8441,224.45,-64.1277,64.0994,-682.078,-1.20808e-09,1.20779e-09,-1.28507e-08,685.07,-685.099,1.14494e-06,1.29072e-08,-1.29075e-08,2.15714e-17
0.619975,-0.67,0.163211,0.01,18.026,224.45,-52.2856,52.2581,-672.945,-9.84972e-10,9.84692e-10,-1.26787e-08,674.958,-674.986,9.20612e-07,1.27167e-08,-1.2717e-08,1.73449e-17
0.629975,-0.67,0.169758,0.01,22.2131,224.45,-40.9238,40.8969,-663.737,-7.70911e-10,7.70638e-10,-1.25052e-08,664.983,-665.01,7.08407e-07,1.25288e-08,-1.25291e-08,1.33468e-17
0.639975,-0.67,0.176629,0.01,26.4043,224.45,-30.0301,30.0039,-654.471,-5.6567e-10,5.65404e-10,-1.23306e-08,655.146,-655.173,5.09127e-07,1.23435e-08,-1.23437e-08,9.59225e-18
0.649975,-0.67,0.183787,0.01,30.5984,224.45,-19.5923,19.5668,-645.164,-3.6902e-10,3.68762e-10,-1.21553e-08,645.448,-645.473,3.24776e-07,1.21607e-08,-1.2161e-08,6.11896e-18
0.659975,-0.67,0.190633,0.01,34.7946,224.45,-9.59822,9.57345,-635.829,-1.80728e-10,1.80477e-10,-1.19794e-08,635.889,-635.913,1.55018e-07,1.19806e-08,-1.19809e-08,2.92062e-18
0.669975,-0.67,0.197572,0.01,38.9917,224.45,-0.0352792,0.011222,-626.481,-5.60085e-13,3.16026e-13,-1.18033e-08,626.469,-626.493,-1.00864e-10,1.18031e-08,-1.18034e-08,-1.90033e-21
0.679975,-0.67,0.204765,0.01,43.1888,224.45,9.10897,-9.13231,-617.133,1.7172e-10,-1.71957e-10,-1.16271e-08,617.188,-617.212,-1.38886e-07,1.16283e-08,-1.16285e-08,-2.61669e-18
0.689975,-0.67,0.21206,0.01,47.385,224.45,17.847,-17.8696,-607.797,3.36346e-10,-3.36576e-10,-1.14512e-08,608.048,-608.07,-2.62602e-07,1.14561e-08,-1.14563e-08,-4.94757e-18
0.699975,-0.67,0.219054,0.01,51.5794,224.45,25.9176,-26.4888,-599.013,4.90786e-10,-4.96581e-10,-1.12858e-08,599.3,-599.871,-0.022187,1.12936e-08,-1.12994e-08,-4.18015e-13
0.709975,-0.67,0.226274,0.01,55.7712,224.45,32.8125,-35.7939,-591.781,6.3117e-10,-6.61415e-10,-1.11495e-08,591.284,-594.265,-0.0110077,1.11531e-08,-1.11833e-08,-2.07392e-13
0.719975,-0.67,0.233699,0.01,59.9596,224.45,38.5313,-46.1125,-585.898,7.58913e-10,-8.35824e-10,-1.10387e-08,583.634,-591.215,0.136258,1.1029e-08,-1.11059e-08,2.56719e-12
0.729975,-0.67,0.241074,0.01,64.1438,224.45,45.6521,-54.9643,-579.625,9.00599e-10,-9.95071e-10,-1.09205e-08,577.147,-586.46,0.552424,1.09143e-08,-1.10088e-08,1.0408e-11
-0.740025,-0.66,0.241672,0.01,64.5655,217.8,62.3093,-71.5391,577.062,1.21407e-09,-1.30771e-09,1.08722e-08,576.315,-585.545,-0.733832,1.08982e-08,-1.09919e-08,-1.38258e-11
-0.730025,-0.66,0.234222,0.01,60.3292,217.8,55.3845,-62.9081,583.651,1.07619e-09,-1.15251e-09,1.09963e-08,582.878,-590.402,-0.190887,1.10145e-08,-1.10908e-08,-3.59642e-12
-0.720025,-0.66,0.226968,0.01,56.0871,217.8,49.913,-52.8752,589.865,9.53269e-10,-9.83321e-10,1.11134e-08,590.619,-593.581,0.016043,1.11405e-08,-1.11705e-08,3.02259e-13
-0.710025,-0.66,0.219627,0.01,51.8399,217.8,43.3665,-43.9347,597.435,8.19521e-10,-8.25286e-10,1.1256e-08,598.743,-599.312,0.0368014,1.12831e-08,-1.12889e-08,6.93359e-13
-0.700025,-0.66,0.212179,0.01,47.5884,217.8,35.7217,-35.7442,606.568,6.73115e-10,-6.73343e-10,1.14281e-08,607.608,-607.631,5.17613e-07,1.14478e-08,-1.1448e-08,9.75213e-18
-0.690025,-0.66,0.204948,0.01,43.3332,217.8,27.4141,-27.4373,616.273,5.16598e-10,-5.16834e-10,1.16109e-08,616.872,-616.895,4.13273e-07,1.16223e-08,-1.16226e-08,7.7863e-18
-0.680025,-0.66,0.197958,0.01,39.0754,217.8,18.7021,-18.7261,626.015,3.52462e-10,-3.52706e-10,1.17945e-08,626.282,-626.306,2.92654e-07,1.17996e-08,-1.17999e-08,5.51378e-18
-0.670025,-0.66,0.190668,0.01,34.8156,217.8,9.57237,-9.59714,635.781,1.80457e-10,-1.80708e-10,1.19785e-08,635.841,-635.866,1.54881e-07,1.19797e-08,-1.198e-08,2.91805e-18
-0.660025,-0.66,0.183465,0.01,30.5549,217.8,0.0115484,-0.0370933,645.561,3.28643e-13,-5.87794e-13,1.21627e-08,645.548,-645.573,2.8273e-10,1.21626e-08,-1.21629e-08,5.32679e-21
-0.650025,-0.66,0.176535,0.01,26.2942,217.8,-9.99386,9.96754,655.34,-1.88176e-10,1.87909e-10,1.2347e-08,655.403,-655.429,-1.71006e-07,1.23483e-08,-1.23485e-08,-3.22186e-18
-0.640025,-0.66,0.169689,0.01,22.0345,217.8,-20.4573,20.4302,665.105,-3.8531e-10,3.85035e-10,1.2531e-08,665.406,-665.433,-3.59934e-07,1.25367e-08,-1.2537e-08,-6.78137e-18
-0.630025,-0.66,0.162522,0.01,17.7769,217.8,-31.3922,31.3644,674.841,-5.91326e-10,5.91044e-10,1.27144e-08,675.557,-675.584,-5.66061e-07,1.2728e-08,-1.27283e-08,-1.06649e-17
-0.620025,-0.66,0.155668,0.01,13.5224,217.8,-42.8119,42.7833,684.532,-8.06476e-10,8.06186e-10,1.2897e-08,685.854,-685.883,-7.88034e-07,1.2922e-08,-1.29223e-08,-1.4847e-17
-0.610025,-0.66,0.14917,0.01,9.27215,217.8,-54.7295,54.7001,694.161,-1.03101e-09,1.03071e-09,1.30784e-08,696.299,-696.328,-1.02467e-06,1.31188e-08,-1.31191e-08,-1.93054e-17
-0.600025,-0.66,0.142123,0.01,5.0274,217.8,-67.1578,67.1278,703.708,-1.26516e-09,1.26486e-09,1.32583e-08,706.889,-706.919,-1.27469e-06,1.33183e-08,-1.33186e-08,-2.4016e-17
-0.590025,-0.66,0.135369,0.01,0.789376,217.8,-80.1097,80.0789,713.154,-1.50918e-09,1.50887e-09,1.34362e-08,717.622,-717.653,-1.53607e-06,1.35206e-08,-1.35209e-08,-2.89404e-17
-0.580025,-0.66,0.129036,0.01,-3.44064,217.8,-93.5971,93.5657,722.478,-1.76329e-09,1.76297e-09,1.36119e-08,728.498,-728.529,-1.80546e-06,1.37255e-08,-1.37258e-08,-3.40159e-17
-0.570025,-0.66,0.122275,0.01,-7.66129,217.8,-107.632,107.6,731.658,-2.02771e-09,2.02738e-09,1.37849e-08,739.514,-739.546,-2.07913e-06,1.3933e-08,-1.39333e-08,-3.91721e-17
-0.560025,-0.66,0.115656,0.01,-11.8712,217.8,-122.226,122.193,740.67,-2.30266e-09,2.30233e-09,1.39546e-08,750.668,-750.701,-2.35275e-06,1.41432e-08,-1.41435e-08,-4.43272e-17
-0.550025,-0.66,0.109551,0.01,-16.0688,217.8,-137.388,137.355,749.488,-2.58833e-09,2.58799e-09,1.41208e-08,761.957,-761.99,-2.6209e-06,1.43559e-08,-1.43562e-08,-4.93793e-17
-0.540025,-0.66,0.102988,0.01,-20.2527,217.8,-153.13,153.096,758.087,-2.88491e-09,2.88457e-09,1.42828e-08,773.378,-773.412,-2.8771e-06,1.4571e-08,-1.45714e-08,-5.42062e-17
-0.530025,-0.66,0.0965626,0.01,-24.4213,217.8,-169.46,169.426,766.438,-3.19257e-09,3.19223e-09,1.44401e-08,784.928,-784.962,-3.11452e-06,1.47886e-08,-1.4789e-08,-5.86793e-17
-0.520025,-0.66,0.090786,0.01,-28.573,217.8,-186.386,186.351,774.512,-3.51146e-09,3.51111e-09,1.45923e-08,796.602,-796.636,-3.32335e-06,1.50086e-08,-1.50089e-08,-6.26139e-17
-0.510025,-0.66,0.0842858,0.01,-32.706,217.8,-203.914,203.879,782.278,-3.84171e-09,3.84135e-09,1.47386e-08,808.396,-808.431,-3.47652e-06,1.52308e-08,-1.52312e-08,-6.54996e-17
-0.500025,-0.66,0.0781523,0.01,-36.8186,217.8,-222.051,222.016,789.703,-4.18341e-09,4.18306e-09,1.48785e-08,820.305,-820.34,-3.73928e-06,1.54552e-08,-1.54555e-08,-7.04503e-17
-0.490025,-0.66,0.0728103,0.01,-40.909,217.8,-240.8,240.765,796.754,-4.53666e-09,4.5363e-09,1.50113e-08,832.324,-832.359,-3.30662e-06,1.56816e-08,-1.5682e-08,-6.22986e-17
-0.480025,-0.66,0.0662156,0.01,-44.9753,217.8,-260.164,260.129,803.395,-4.9015e-09,4.90114e-09,1.51364e-08,844.447,-844.482,-2.67916e-06,1.591e-08,-1.59104e-08,-5.04769e-17
-0.470025,-0.66,0.0605613,0.01,-49.0156,217.8,-280.145,280.11,809.591,-5.27794e-09,5.27758e-09,1.52532e-08,856.667,-856.702,-2.32027e-05,1.61403e-08,-1.61406e-08,-4.37153e-16
-0.460025,-0.66,0.0550839,0.01,-53.0279,217.8,-300.741,300.706,815.302,-5.66598e-09,5.66563e-09,1.53608e-08,868.978,-869.013,0.000130705,1.63722e-08,-1.63726e-08,2.46256e-15
-0.450025,-0.66,0.0488942,0.01,-57.0101,217.8,-321.949,321.914,820.491,-6.06555e-09,6.06519e-09,1.54585e-08,881.37,-881.405,-0.000560908,1.66057e-08,-1.6606e-08,-1.05678e-14
-0.440025,-0.66,0.0441254,0.01,-60.9601,217.8,-343.768,343.731,825.118,-6.47663e-09,6.47626e-09,1.55457e-08,893.841,-893.877,0.000972548,1.68406e-08,-1.6841e-08,1.83234e-14
-0.430025,-0.66,0.0379976,0.01,-64.8758,217.8,-366.168,366.156,829.114,-6.89876e-09,6.89864e-09,1.5621e-08,906.363,-906.375,0.00692123,1.70765e-08,-1.70766e-08,1.304e-13
-0.420025,-0.66,0.0326723,0.01,-68.7548,217.8,-388.636,389.604,831.531,-7.32633e-09,7.33616e-09,1.56665e-08,918.557,-917.588,0.368448,1.73019e-08,-1.72921e-08,6.94177e-12
-0.410025,-0.66,0.0281404,0.01,-72.5949,217.8,-408.234,412.91,831.496,-7.7117e-09,7.75914e-09,1.56659e-08,929.676,-925,-0.319912,1.74953e-08,-1.74479e-08,-6.02732e-12
-0.400025,-0.66,0.0218412,0.01,-76.3937,217.8,-429.548,437.373,832.083,-8.12695e-09,8.20633e-09,1.56769e-08,942.128,-934.304,-0.712285,1.77162e-08,-1.76368e-08,-1.34199e-11
-0.390025,-0.66,0.0190313,0.01,-80.1488,217.8,-450.341,464.281,826.267,-8.54529e-09,8.68671e-09,1.55674e-08,951.347,-937.406,2.05519,1.78633e-08,-1.77219e-08,3.8721e-11
-0.380025,-0.66,0.0119153,0.01,-83.8575,217.8,-467.836,484.41,824.41,-8.88636e-09,9.0545e-09,1.55324e-08,960.306,-943.732,-2.0927,1.80207e-08,-1.78525e-08,-3.94277e-11
-0.370025,-0.66,0.00911603,0.01,-87.5184,217.8,-500.061,511.294,824.746,-9.47028e-09,9.58424e-09,1.55387e-08,973.043,-961.81,1.14099,1.82839e-08,-1.81699e-08,2.1497e-11
0.369975,-0.66,0.00912738,0.01,-87.5365,217.8,-500.377,511.372,-824.866,-9.4752e-09,9.58674e-09,-1.55409e-08,973.129,-962.134,-1.13533,1.82865e-08,-1.8175e-08,-2.13903e-11
0.379975,-0.66,0.0118822,0.01,-83.8759,217.8,-468.062,484.448,-824.46,-8.8898e-09,9.05604e-09,-1.55333e-08,960.322,-943.935,2.1114,1.80218e-08,-1.78555e-08,3.978e-11
0.389975,-0.66,0.0190294,0.01,-80.1674,217.8,-450.489,464.386,-826.294,-8.5479e-09,8.68888e-09,-1.55679e-08,951.409,-937.513,-2.04796,1.78647e-08,-1.77237e-08,-3.85848e-11
0.399975,-0.66,0.0218168,0.01,-76.4124,217.8,-429.676,437.49,-832.1,-8.12932e-09,8.20859e-09,-1.56772e-08,942.195,-934.381,0.714756,1.77175e-08,-1.76383e-08,1.34664e-11
0.409975,-0.66,0.0281038,0.01,-72.6139,217.8,-408.352,413.025,-831.51,-7.7139e-09,7.76132e-09,-1.56661e-08,929.738,-925.065,0.322397,1.74965e-08,-1.74491e-08,6.07415e-12
0.419975,-0.66,0.0326513,0.01,-68.774,217.8,-388.752,389.721,-831.545,-7.32853e-09,7.33836e-09,-1.56668e-08,918.62,-917.651,-0.369647,1.73031e-08,-1.72933e-08,-6.96437e-12
0.429975,-0.66,0.0379664,0.01,-64.8952,217.8,-366.281,366.268,-829.132,-6.90089e-09,6.90076e-09,-1.56213e-08,906.425,-906.437,-0.00671287,1.70776e-08,-1.70778e-08,-1.26474e-13
0.439975,-0.66,0.0441061,0.01,-60.9797,217.8,-343.878,343.841,-825.14,-6.4787e-09,6.47833e-09,-1.55461e-08,893.903,-893.939,-0.00103148,1.68418e-08,-1.68422e-08,-1.94337e-14
0.449975,-0.66,0.0488666,0.01,-57.0299,217.8,-322.056,322.021,-820.515,-6.06756e-09,6.06721e-09,-1.5459e-08,881.432,-881.467,0.000571835,1.66068e-08,-1.66072e-08,1.07737e-14
0.459975,-0.66,0.0550503,0.01,-53.0478,217.8,-300.845,300.81,-815.329,-5.66794e-09,5.66759e-09,-1.53613e-08,869.039,-869.074,-0.000131975,1.63734e-08,-1.63737e-08,-2.48649e-15
0.469975,-0.66,0.060536,0.01,-49.0357,217.8,-280.246,280.211,-809.621,-5.27984e-09,5.27948e-09,-1.52537e-08,856.728,-856.763,2.32028e-05,1.61414e-08,-1.61418e-08,4.37153e-16
0.479975,-0.66,0.0661849,0.01,-44.9955,217.8,-260.262,260.227,-803.427,-4.90334e-09,4.90298e-09,-1.5137e-08,844.507,-844.543,2.71965e-06,1.59112e-08,-1.59115e-08,5.12398e-17
0.489975,-0.66,0.0727756,0.01,-40.9293,217.8,-240.895,240.859,-796.788,-4.53844e-09,4.53809e-09,-1.50119e-08,832.384,-832.419,3.29645e-06,1.56828e-08,-1.56831e-08,6.2107e-17
0.499975,-0.66,0.0781238,0.01,-36.839,217.8,-222.143,222.107,-789.739,-4.18514e-09,4.18478e-09,-1.48791e-08,820.364,-820.4,3.74131e-06,1.54563e-08,-1.54567e-08,7.04885e-17
0.509975,-0.66,0.0842534,0.01,-32.7265,217.8,-204.003,203.968,-782.315,-3.84338e-09,3.84302e-09,-1.47393e-08,808.455,-808.49,3.47742e-06,1.52319e-08,-1.52323e-08,6.55166e-17
0.519975,-0.66,0.0907591,0.01,-28.5936,217.8,-186.471,186.437,-774.551,-3.51308e-09,3.51273e-09,-1.4593e-08,796.66,-796.695,3.32498e-06,1.50097e-08,-1.501e-08,6.26445e-17
0.529975,-0.66,0.0965321,0.01,-24.442,217.8,-169.543,169.508,-766.479,-3.19413e-09,3.19379e-09,-1.44409e-08,784.985,-785.02,3.11611e-06,1.47897e-08,-1.47901e-08,5.87093e-17
0.539975,-0.66,0.102955,0.01,-20.2735,217.8,-153.21,153.176,-758.129,-2.88642e-09,2.88607e-09,-1.42836e-08,773.435,-773.469,2.87878e-06,1.45721e-08,-1.45725e-08,5.42379e-17
0.549975,-0.66,0.109522,0.01,-16.0897,217.8,-137.465,137.432,-749.532,-2.58978e-09,2.58944e-09,-1.41216e-08,762.013,-762.047,2.62282e-06,1.43569e-08,-1.43573e-08,4.94155e-17
0.559975,-0.66,0.115624,0.01,-11.8921,217.8,-122.3,122.267,-740.714,-2.30405e-09,2.30372e-09,-1.39555e-08,750.724,-750.756,2.35431e-06,1.41442e-08,-1.41445e-08,4.43565e-17
0.569975,-0.66,0.122241,0.01,-7.68225,217.8,-107.703,107.671,-731.703,-2.02905e-09,2.02873e-09,-1.37857e-08,739.569,-739.601,2.08046e-06,1.39341e-08,-1.39344e-08,3.91971e-17
0.579975,-0.66,0.129006,0.01,-3.46165,217.8,-93.6656,93.6341,-722.524,-1.76458e-09,1.76426e-09,-1.36128e-08,728.552,-728.584,1.80676e-06,1.37265e-08,-1.37268e-08,3.40405e-17
0.589975,-0.66,0.135336,0.01,0.768319,217.8,-80.1754,80.1446,-713.201,-1.51042e-09,1.5101e-09,-1.34371e-08,717.676,-717.707,1.53752e-06,1.35216e-08,-1.35219e-08,2.89678e-17
0.599975,-0.66,0.142089,0.01,5.00631,217.8,-67.2209,67.1909,-703.755,-1.26635e-09,1.26605e-09,-1.32592e-08,706.942,-706.972,1.27636e-06,1.33193e-08,-1.33196e-08,2.40473e-17
0.609975,-0.66,0.149138,0.01,9.25102,217.8,-54.79,54.7606,-694.208,-1.03215e-09,1.03185e-09,-1.30793e-08,696.351,-696.381,1.02573e-06,1.31198e-08,-1.31201e-08,1.93254e-17
0.619975,-0.66,0.155635,0.01,13.5012,217.8,-42.8699,42.8413,-684.58,-8.0757e-10,8.07279e-10,-1.28979e-08,685.906,-685.935,7.88736e-07,1.2923e-08,-1.29233e-08,1.48602e-17
0.629975,-0.66,0.162487,0.01,17.7557,217.8,-31.4478,31.4199,-674.89,-5.92374e-10,5.92091e-10,-1.27153e-08,675.607,-675.635,5.66953e-07,1.2729e-08,-1.27292e-08,1.06817e-17
0.639975,-0.66,0.169653,0.01,22.0133,217.8,-20.5105,20.4834,-665.154,-3.86312e-10,3.86037e-10,-1.25319e-08,665.456,-665.483,3.61097e-07,1.25377e-08,-1.2538e-08,6.80328e-18
0.649975,-0.66,0.176501,0.01,26.273,217.8,-10.0448,10.0184,-655.389,-1.89134e-10,1.88867e-10,-1.23479e-08,655.452,-655.478,1.72582e-07,1.23492e-08,-1.23495e-08,3.25155e-18
0.659975,-0.66,0.18343,0.01,30.5337,217.8,-0.0370979,0.0115492,-645.609,-5.87865e-13,3.28675e-13,-1.21637e-08,645.596,-645.622,7.67094e-10,1.21635e-08,-1.21638e-08,1.44525e-20
0.669975,-0.66,0.190631,0.01,34.7944,217.8,9.5259,-9.55068,-635.83,1.79581e-10,-1.79833e-10,-1.19794e-08,635.889,-635.914,-1.54411e-07,1.19806e-08,-1.19809e-08,-2.9092e-18
0.679975,-0.66,0.197924,0.01,39.0542,217.8,18.6577,-18.6817,-626.063,3.51627e-10,-3.5187e-10,-1.17954e-08,626.33,-626.354,-2.91473e-07,1.18005e-08,-1.18008e-08,-5.49153e-18
0.689975,-0.66,0.204912,0.01,43.3121,217.8,27.3718,-27.395,-616.322,5.15801e-10,-5.16036e-10,-1.16119e-08,616.918,-616.941,-4.11992e-07,1.16232e-08,-1.16234e-08,-7.76217e-18
0.699975,-0.66,0.212142,0.01,47.5672,217.8,35.6814,-35.7038,-606.616,6.72355e-10,-6.72583e-10,-1.1429e-08,607.654,-607.676,-5.17076e-07,1.14486e-08,-1.14489e-08,-9.74201e-18
0.709975,-0.66,0.21959,0.01,51.8188,217.8,43.3281,-43.8964,-597.483,8.18797e-10,-8.24562e-10,-1.12569e-08,598.788,-599.357,-0.0367708,1.1284e-08,-1.12898e-08,-6.92782e-13
0.719975,-0.66,0.226933,0.01,56.066,217.8,49.8761,-52.8387,-589.913,9.52576e-10,-9.82631e-10,-1.11143e-08,590.663,-593.626,-0.0160334,1.11413e-08,-1.11714e-08,-3.02079e-13
0.729975,-0.66,0.234186,0.01,60.3081,217.8,55.3488,-62.8734,-583.699,1.07552e-09,-1.15185e-09,-1.09972e-08,582.922,-590.447,0.190779,1.10153e-08,-1.10916e-08,3.59438e-12
0.739975,-0.66,0.241635,0.01,64.5444,217.8,62.2748,-71.5058,-577.11,1.21343e-09,-1.30708e-09,-1.08731e-08,576.358,-585.589,0.733488,1.08991e-08,-1.09927e-08,1.38193e-11
-0.750025,-0.65,0.242669,0.01,65.08,211.25,78.7761,-87.9024,573.846,1.52387e-09,-1.61645e-09,1.08116e-08,575.302,-584.429,-0.912198,1.08787e-08,-1.09713e-08,-1.71863e-11
-0.740025,-0.65,0.235227,0.01,60.7935,211.25,72.0621,-79.5106,580.731,1.39008e-09,-1.46564e-09,1.09413e-08,581.931,-589.38,-0.245384,1.09963e-08,-1.10719e-08,-4.62318e-12
-0.730025,-0.65,0.227566,0.01,56.4996,211.25,66.8491,-69.7852,587.259,1.27224e-09,-1.30203e-09,1.10643e-08,589.752,-592.688,0.0204964,1.1124e-08,-1.11538e-08,3.86164e-13
-0.720025,-0.65,0.220093,0.01,52.1989,211.25,60.6645,-61.2283,595.146,1.14541e-09,-1.15113e-09,1.12129e-08,597.977,-598.541,0.0510553,1.12687e-08,-1.12744e-08,9.61912e-13
-0.710025,-0.65,0.212827,0.01,47.8922,211.25,53.4615,-53.4837,604.603,1.00734e-09,-1.00757e-09,1.13911e-08,606.952,-606.974,7.54072e-07,1.14354e-08,-1.14357e-08,1.42072e-17
-0.700025,-0.65,0.205522,0.01,43.58,211.25,45.6027,-45.6257,614.652,8.59281e-10,-8.59515e-10,1.15804e-08,616.331,-616.354,6.71912e-07,1.16121e-08,-1.16124e-08,1.26592e-17
-0.690025,-0.65,0.198048,0.01,39.2633,211.25,37.343,-37.3669,624.76,7.03668e-10,-7.0391e-10,1.17708e-08,625.864,-625.888,5.73856e-07,1.17917e-08,-1.1792e-08,1.08118e-17
-0.680025,-0.65,0.190806,0.01,34.9429,211.25,28.6684,-28.6931,634.918,5.40237e-10,-5.40487e-10,1.19622e-08,635.553,-635.578,4.58437e-07,1.19743e-08,-1.19746e-08,8.63722e-18
-0.670025,-0.65,0.183822,0.01,30.6196,211.25,19.5646,-19.5901,645.115,3.6872e-10,-3.68979e-10,1.21543e-08,645.399,-645.425,3.24313e-07,1.21598e-08,-1.21601e-08,6.11025e-18
-0.660025,-0.65,0.176536,0.01,26.2944,211.25,10.0173,-10.0436,655.339,1.88846e-10,-1.89113e-10,1.2347e-08,655.402,-655.429,1.71754e-07,1.23483e-08,-1.23485e-08,3.23595e-18
-0.650025,-0.65,0.169323,0.01,21.9681,211.25,0.0118839,-0.0390374,665.576,3.41958e-13,-6.17429e-13,1.25398e-08,665.563,-665.59,6.18704e-10,1.25397e-08,-1.254e-08,1.16567e-20
-0.640025,-0.65,0.162405,0.01,17.6419,211.25,-10.4661,10.4381,675.814,-1.97066e-10,1.96782e-10,1.27327e-08,675.881,-675.909,-1.90562e-07,1.27341e-08,-1.27344e-08,-3.5903e-18
-0.630025,-0.65,0.155556,0.01,13.3167,211.25,-21.4312,21.4024,686.036,-4.03651e-10,4.03358e-10,1.29253e-08,686.356,-686.385,-4.01535e-07,1.29315e-08,-1.29318e-08,-7.56515e-18
-0.620025,-0.65,0.148381,0.01,8.99366,211.25,-32.8979,32.8682,696.227,-6.19686e-10,6.19385e-10,1.31173e-08,696.989,-697.018,-6.31157e-07,1.31318e-08,-1.31321e-08,-1.18914e-17
-0.610025,-0.65,0.141548,0.01,4.6739,211.25,-44.8805,44.85,706.369,-8.45442e-10,8.45133e-10,1.33084e-08,707.777,-707.808,-8.78833e-07,1.33351e-08,-1.33354e-08,-1.65577e-17
-0.600025,-0.65,0.135108,0.01,0.358642,211.25,-57.3932,57.3619,716.444,-1.08118e-09,1.08087e-09,1.34982e-08,718.722,-718.753,-1.14351e-06,1.35413e-08,-1.35416e-08,-2.15444e-17
-0.590025,-0.65,0.127984,0.01,-3.95088,211.25,-70.4499,70.4179,726.43,-1.32718e-09,1.32685e-09,1.36864e-08,729.821,-729.853,-1.42313e-06,1.37504e-08,-1.37507e-08,-2.68126e-17
-0.580025,-0.65,0.121266,0.01,-8.25335,211.25,-84.0643,84.0315,736.307,-1.58368e-09,1.58334e-09,1.38725e-08,741.072,-741.105,-1.71479e-06,1.39624e-08,-1.39627e-08,-3.23077e-17
-0.570025,-0.65,0.115027,0.01,-12.5474,211.25,-98.2494,98.2159,746.052,-1.85093e-09,1.85059e-09,1.40561e-08,752.475,-752.508,-2.01522e-06,1.41772e-08,-1.41775e-08,-3.79679e-17
-0.560025,-0.65,0.10814,0.01,-16.8316,211.25,-113.018,112.984,755.641,-2.12917e-09,2.12883e-09,1.42367e-08,764.026,-764.06,-2.31998e-06,1.43948e-08,-1.43952e-08,-4.37098e-17
-0.550025,-0.65,0.101585,0.01,-21.1046,211.25,-128.382,128.347,765.047,-2.41864e-09,2.41828e-09,1.44139e-08,775.724,-775.759,-2.62398e-06,1.46152e-08,-1.46156e-08,-4.94373e-17
-0.540025,-0.65,0.0956278,0.01,-25.3647,211.25,-144.353,144.317,774.244,-2.71953e-09,2.71917e-09,1.45872e-08,787.564,-787.6,-2.92079e-06,1.48383e-08,-1.48387e-08,-5.50293e-17
-0.530025,-0.65,0.0888663,0.01,-29.6103,211.25,-160.94,160.904,783.202,-3.03205e-09,3.03169e-09,1.4756e-08,799.545,-799.581,-3.19813e-06,1.5064e-08,-1.50644e-08,-6.02547e-17
-0.520025,-0.65,0.0825529,0.01,-33.8399,211.25,-178.155,178.118,791.891,-3.35638e-09,3.35601e-09,1.49197e-08,811.661,-811.698,-3.49526e-06,1.52923e-08,-1.52927e-08,-6.58527e-17
-0.510025,-0.65,0.0769647,0.01,-38.0516,211.25,-196.004,195.967,800.278,-3.69267e-09,3.6923e-09,1.50777e-08,823.909,-823.946,-3.60102e-06,1.55231e-08,-1.55235e-08,-6.78453e-17
-0.500025,-0.65,0.0701944,0.01,-42.2437,211.25,-214.496,214.459,808.331,-4.04106e-09,4.04068e-09,1.52294e-08,836.283,-836.32,-3.32419e-06,1.57562e-08,-1.57566e-08,-6.26297e-17
-0.490025,-0.65,0.0642725,0.01,-46.4144,211.25,-233.635,233.598,816.015,-4.40166e-09,4.40128e-09,1.53742e-08,848.778,-848.816,-1.14183e-05,1.59916e-08,-1.5992e-08,-2.15127e-16
-0.480025,-0.65,0.0586695,0.01,-50.5617,211.25,-253.426,253.389,823.291,-4.77454e-09,4.77415e-09,1.55113e-08,861.389,-861.426,3.94257e-05,1.62292e-08,-1.62296e-08,7.42804e-16
-0.470025,-0.65,0.0522042,0.01,-54.6837,211.25,-273.872,273.834,830.122,-5.15974e-09,5.15936e-09,1.564e-08,874.108,-874.145,-0.000125888,1.64689e-08,-1.64692e-08,-2.37181e-15
-0.460025,-0.65,0.0469941,0.01,-58.7782,211.25,-294.974,294.934,836.469,-5.5573e-09,5.5569e-09,1.57596e-08,886.929,-886.969,-0.000364926,1.67104e-08,-1.67108e-08,-6.87541e-15
-0.450025,-0.65,0.0409606,0.01,-62.8433,211.25,-316.725,316.698,842.276,-5.96716e-09,5.96689e-09,1.5869e-08,899.84,-899.866,0.00707674,1.69536e-08,-1.69539e-08,1.3333e-13
-0.440025,-0.65,0.0351308,0.01,-66.8767,211.25,-339.099,339.024,847.575,-6.38849e-09,6.38773e-09,1.59688e-08,912.84,-912.915,-0.0605812,1.71988e-08,-1.71995e-08,-1.14138e-12
-0.430025,-0.65,0.0308493,0.01,-70.8762,211.25,-362.188,362.77,851.537,-6.82637e-09,6.83227e-09,1.60435e-08,925.767,-925.185,0.54424,1.74395e-08,-1.74336e-08,1.02538e-11
-0.420025,-0.65,0.0239862,0.01,-74.8394,211.25,-382.399,387.441,851.606,-7.22655e-09,7.2777e-09,1.60447e-08,937.077,-932.035,1.02951,1.76332e-08,-1.7582e-08,1.93965e-11
-0.410025,-0.65,0.019975,0.01,-78.7641,211.25,-396.315,413.693,846.773,-7.54237e-09,7.71867e-09,1.59537e-08,947.333,-929.954,0.810467,1.77727e-08,-1.75964e-08,1.52697e-11
-0.400025,-0.65,0.014025,0.01,-82.6477,211.25,-412.516,437.034,845.925,-7.87863e-09,8.12737e-09,1.59377e-08,958.842,-934.324,-1.96045,1.79585e-08,-1.77098e-08,-3.6936e-11
-0.390025,-0.65,0.00904732,0.01,-86.4876,211.25,-443.94,463.313,844.565,-8.44831e-09,8.64485e-09,1.59121e-08,968.362,-948.989,2.86985,1.81603e-08,-1.79637e-08,5.40696e-11
0.389975,-0.65,0.00904337,0.01,-86.5066,211.25,-444.141,463.4,-844.634,-8.45161e-09,8.64699e-09,-1.59134e-08,968.434,-949.175,-2.85691,1.81621e-08,-1.79667e-08,-5.38258e-11
0.399975,-0.65,0.013987,0.01,-82.6669,211.25,-412.673,437.12,-845.954,-7.88129e-09,8.12931e-09,-1.59383e-08,958.887,-934.44,1.96966,1.79597e-08,-1.77117e-08,3.71095e-11
0.409975,-0.65,0.0199655,0.01,-78.7835,211.25,-396.451,413.811,-846.789,-7.54485e-09,7.72097e-09,-1.5954e-08,947.393,-930.033,-0.815081,1.7774e-08,-1.75978e-08,-1.53566e-11
0.419975,-0.65,0.0239576,0.01,-74.859,211.25,-382.536,387.565,-851.629,-7.22907e-09,7.28008e-09,-1.60452e-08,937.145,-932.116,-1.03784,1.76345e-08,-1.75835e-08,-1.95535e-11
0.429975,-0.65,0.0308109,0.01,-70.896,211.25,-362.312,362.887,-851.565,-6.82866e-09,6.83449e-09,-1.6044e-08,925.836,-925.261,-0.545295,1.74408e-08,-1.7435e-08,-1.02737e-11
0.439975,-0.65,0.0351066,0.01,-66.8967,211.25,-339.212,339.136,-847.6,-6.39062e-09,6.38985e-09,-1.59693e-08,912.905,-912.981,0.060964,1.72e-08,-1.72008e-08,1.1486e-12
0.449975,-0.65,0.0409276,0.01,-62.8634,211.25,-316.834,316.808,-842.304,-5.96923e-09,5.96896e-09,-1.58695e-08,899.904,-899.931,-0.00705963,1.69548e-08,-1.69551e-08,-1.33008e-13
0.459975,-0.65,0.046972,0.01,-58.7985,211.25,-295.08,295.041,-836.499,-5.55931e-09,5.55891e-09,-1.57601e-08,886.993,-887.033,0.000348209,1.67116e-08,-1.6712e-08,6.56046e-15
0.469975,-0.65,0.0521748,0.01,-54.7041,211.25,-273.975,273.938,-830.154,-5.16169e-09,5.1613e-09,-1.56406e-08,874.171,-874.209,0.000130039,1.64701e-08,-1.64704e-08,2.45001e-15
0.479975,-0.65,0.0586349,0.01,-50.5823,211.25,-253.526,253.489,-823.326,-4.77642e-09,4.77604e-09,-1.55119e-08,861.452,-861.489,-4.00338e-05,1.62304e-08,-1.62308e-08,-7.5426e-16
0.489975,-0.65,0.0642456,0.01,-46.4351,211.25,-233.732,233.694,-816.052,-4.40348e-09,4.4031e-09,-1.53749e-08,848.841,-848.878,1.14523e-05,1.59928e-08,-1.59932e-08,2.15769e-16
0.499975,-0.65,0.0701627,0.01,-42.2645,211.25,-214.589,214.552,-808.371,-4.04283e-09,4.04245e-09,-1.52302e-08,836.345,-836.382,3.33373e-06,1.57574e-08,-1.57578e-08,6.28094e-17
0.509975,-0.65,0.0769293,0.01,-38.0725,211.25,-196.095,196.058,-800.319,-3.69438e-09,3.694e-09,-1.50785e-08,823.97,-824.007,3.59867e-06,1.55242e-08,-1.55246e-08,6.7801e-17
0.519975,-0.65,0.0825234,0.01,-33.8609,211.25,-178.242,178.205,-791.933,-3.35802e-09,3.35765e-09,-1.49205e-08,811.722,-811.758,3.49735e-06,1.52935e-08,-1.52938e-08,6.5892e-17
0.529975,-0.65,0.0888332,0.01,-29.6314,211.25,-161.024,160.988,-783.245,-3.03364e-09,3.03327e-09,-1.47568e-08,799.605,-799.641,3.19971e-06,1.50652e-08,-1.50655e-08,6.02844e-17
0.539975,-0.65,0.0955999,0.01,-25.3858,211.25,-144.433,144.398,-774.289,-2.72106e-09,2.7207e-09,-1.4588e-08,787.624,-787.659,2.92226e-06,1.48394e-08,-1.48398e-08,5.50571e-17
0.549975,-0.65,0.101554,0.01,-21.1258,211.25,-128.46,128.425,-765.093,-2.4201e-09,2.41975e-09,-1.44148e-08,775.782,-775.817,2.62585e-06,1.46163e-08,-1.46167e-08,4.94726e-17
0.559975,-0.65,0.108106,0.01,-16.8529,211.25,-113.093,113.059,-755.688,-2.13059e-09,2.13024e-09,-1.42376e-08,764.084,-764.118,2.32152e-06,1.43959e-08,-1.43963e-08,4.37387e-17
0.569975,-0.65,0.114997,0.01,-12.5687,211.25,-98.3214,98.2879,-746.1,-1.85229e-09,1.85195e-09,-1.4057e-08,752.532,-752.565,2.0166e-06,1.41783e-08,-1.41786e-08,3.79939e-17
0.579975,-0.65,0.121234,0.01,-8.27473,211.25,-84.1334,84.1006,-736.356,-1.58498e-09,1.58465e-09,-1.38734e-08,741.129,-741.161,1.71646e-06,1.39634e-08,-1.39638e-08,3.23391e-17
0.589975,-0.65,0.127949,0.01,-3.97229,211.25,-70.5162,70.4842,-726.479,-1.32843e-09,1.3281e-09,-1.36873e-08,729.876,-729.908,1.42477e-06,1.37514e-08,-1.37518e-08,2.68435e-17
0.599975,-0.65,0.135072,0.01,0.337195,211.25,-57.4568,57.4255,-716.494,-1.08238e-09,1.08207e-09,-1.34992e-08,718.777,-718.808,1.14509e-06,1.35423e-08,-1.35426e-08,2.15741e-17
0.609975,-0.65,0.141515,0.01,4.65243,211.25,-44.9414,44.9109,-706.42,-8.46589e-10,8.4628e-10,-1.33094e-08,707.832,-707.862,8.79999e-07,1.33361e-08,-1.33364e-08,1.65797e-17
0.619975,-0.65,0.148346,0.01,8.97217,211.25,-32.9562,32.9265,-696.278,-6.20784e-10,6.20484e-10,-1.31183e-08,697.042,-697.072,6.31966e-07,1.31328e-08,-1.31331e-08,1.19066e-17
0.629975,-0.65,0.15552,0.01,13.2952,211.25,-21.487,21.4581,-686.087,-4.04702e-10,4.04409e-10,-1.29263e-08,686.409,-686.437,4.02216e-07,1.29325e-08,-1.29328e-08,7.57799e-18
0.639975,-0.65,0.162371,0.01,17.6204,211.25,-10.5194,10.4914,-675.865,-1.9807e-10,1.97786e-10,-1.27337e-08,675.932,-675.96,1.91275e-07,1.27351e-08,-1.27354e-08,3.60373e-18
0.649975,-0.65,0.169288,0.01,21.9466,211.25,-0.0390424,0.0118847,-665.627,-6.17505e-13,3.41992e-13,-1.25408e-08,665.614,-665.641,4.53031e-10,1.25407e-08,-1.25409e-08,8.53537e-21
0.659975,-0.65,0.1765,0.01,26.2729,211.25,9.96868,-9.995,-655.39,1.8793e-10,-1.88197e-10,-1.23479e-08,655.452,-655.479,-1.71108e-07,1.23492e-08,-1.23495e-08,-3.22378e-18
0.669975,-0.65,0.183788,0.01,30.5981,211.25,19.5183,-19.5438,-645.166,3.67846e-10,-3.68105e-10,-1.21553e-08,645.449,-645.474,-3.24066e-07,1.21607e-08,-1.2161e-08,-6.10558e-18
0.679975,-0.65,0.190771,0.01,34.9214,211.25,28.6242,-28.6489,-634.969,5.39404e-10,-5.39654e-10,-1.19632e-08,635.602,-635.627,-4.57525e-07,1.19752e-08,-1.19755e-08,-8.62004e-18
0.689975,-0.65,0.198012,0.01,39.2419,211.25,37.3009,-37.3248,-624.811,7.02874e-10,-7.03116e-10,-1.17718e-08,625.912,-625.936,-5.73018e-07,1.17926e-08,-1.17929e-08,-1.0796e-17
0.699975,-0.65,0.205485,0.01,43.5586,211.25,45.5626,-45.5856,-614.702,8.58526e-10,-8.5876e-10,-1.15813e-08,616.378,-616.401,-6.71683e-07,1.1613e-08,-1.16132e-08,-1.26549e-17
0.709975,-0.65,0.212792,0.01,47.8707,211.25,53.4234,-53.4456,-604.653,1.00662e-09,-1.00685e-09,-1.1392e-08,606.998,-607.021,-7.53768e-07,1.14363e-08,-1.14365e-08,-1.42014e-17
0.719975,-0.65,0.220056,0.01,52.1775,211.25,60.6282,-61.1921,-595.196,1.14472e-09,-1.15044e-09,-1.12138e-08,598.022,-598.586,-0.0510277,1.12695e-08,-1.12753e-08,-9.61391e-13
0.729975,-0.65,0.227528,0.01,56.4783,211.25,66.8144,-69.7509,-587.309,1.27159e-09,-1.30138e-09,-1.10652e-08,589.797,-592.733,-0.0204891,1.11249e-08,-1.11547e-08,-3.86026e-13
0.739975,-0.65,0.235188,0.01,60.7722,211.25,72.0285,-79.4781,-580.781,1.38945e-09,-1.46502e-09,-1.09422e-08,581.975,-589.425,0.245283,1.09971e-08,-1.10727e-08,4.62128e-12
0.749975,-0.65,0.242632,0.01,65.0587,211.25,78.7437,-87.8713,-573.895,1.52326e-09,-1.61586e-09,-1.08125e-08,575.346,-584.474,0.911887,1.08795e-08,-1.09721e-08,1.71805e-11
-0.760025,-0.64,0.243714,0.01,65.7075,204.8,95.2741,-102.818,570.017,1.82782e-09,-1.90435e-09,1.07395e-08,574.786,-582.33,-0.577917,1.08621e-08,-1.09386e-08,-1.08883e-11
-0.750025,-0.64,0.236038,0.01,61.3728,204.8,88.5612,-95.9168,577.105,1.70052e-09,-1.77515e-09,1.0873e-08,580.752,-588.107,-0.299853,1.09737e-08,-1.10483e-08,-5.64941e-12
-0.740025,-0.64,0.228542,0.01,57.0291,204.8,83.6179,-86.5208,583.928,1.58803e-09,-1.61748e-09,1.10015e-08,588.641,-591.544,0.0242028,1.1103e-08,-1.11324e-08,4.55996e-13
-0.730025,-0.64,0.221161,0.01,52.6769,204.8,77.8086,-78.3666,592.11,1.46839e-09,-1.47405e-09,1.11557e-08,596.958,-597.516,0.0648574,1.12495e-08,-1.12551e-08,1.22195e-12
-0.720025,-0.64,0.213464,0.01,48.3169,204.8,71.0635,-71.0854,601.865,1.33897e-09,-1.3392e-09,1.13395e-08,606.036,-606.058,9.64828e-07,1.14182e-08,-1.14184e-08,1.81779e-17
-0.710025,-0.64,0.205965,0.01,43.9497,204.8,63.6718,-63.6945,612.229,1.19971e-09,-1.19994e-09,1.15348e-08,615.521,-615.544,9.07884e-07,1.15969e-08,-1.15971e-08,1.71051e-17
-0.700025,-0.64,0.198686,0.01,39.5763,204.8,55.8845,-55.908,622.676,1.053e-09,-1.05324e-09,1.17316e-08,625.168,-625.192,8.34808e-07,1.17786e-08,-1.17789e-08,1.57283e-17
-0.690025,-0.64,0.191423,0.01,35.1972,204.8,47.6869,-47.7113,633.197,8.98554e-10,-8.98802e-10,1.19298e-08,634.979,-635.003,7.44916e-07,1.19635e-08,-1.19637e-08,1.40346e-17
-0.680025,-0.64,0.18392,0.01,30.8133,204.8,39.0639,-39.0892,643.783,7.36097e-10,-7.36354e-10,1.21292e-08,644.955,-644.98,6.36679e-07,1.21514e-08,-1.21517e-08,1.19954e-17
-0.670025,-0.64,0.176664,0.01,26.4256,204.8,30.0005,-30.0267,654.422,5.6534e-10,-5.65606e-10,1.23297e-08,655.097,-655.123,5.08748e-07,1.23425e-08,-1.23428e-08,9.58511e-18
-0.660025,-0.64,0.169688,0.01,22.0348,204.8,20.4811,-20.5082,665.103,3.85993e-10,-3.86268e-10,1.25309e-08,665.405,-665.432,3.60702e-07,1.25367e-08,-1.2537e-08,6.79583e-18
-0.650025,-0.64,0.162407,0.01,17.6421,204.8,10.4902,-10.5182,675.813,1.97763e-10,-1.98047e-10,1.27327e-08,675.88,-675.908,1.91848e-07,1.27341e-08,-1.27344e-08,3.61453e-18
-0.640025,-0.64,0.155181,0.01,13.2482,204.8,0.0122275,-0.0411182,686.538,3.55985e-13,-6.49079e-13,1.29348e-08,686.523,-686.552,8.70582e-10,1.29346e-08,-1.29349e-08,1.64023e-20
-0.630025,-0.64,0.148278,0.01,8.85439,204.8,-10.9686,10.9388,697.263,-2.06525e-10,2.06222e-10,1.31368e-08,697.334,-697.364,-2.12778e-07,1.31383e-08,-1.31386e-08,-4.00886e-18
-0.620025,-0.64,0.141425,0.01,4.46166,204.8,-22.4679,22.4372,707.971,-4.23174e-10,4.22863e-10,1.33386e-08,708.312,-708.342,-4.482e-07,1.33451e-08,-1.33454e-08,-8.44435e-18
-0.610025,-0.64,0.134239,0.01,0.0711786,204.8,-34.5013,34.4698,718.646,-6.49888e-10,6.49567e-10,1.35397e-08,719.457,-719.488,-7.0467e-07,1.35551e-08,-1.35554e-08,-1.32764e-17
-0.600025,-0.64,0.127433,0.01,-4.31585,204.8,-47.0844,47.052,729.267,-8.86957e-10,8.86628e-10,1.37398e-08,730.768,-730.801,-9.8198e-07,1.37682e-08,-1.37686e-08,-1.85011e-17
-0.590025,-0.64,0.120975,0.01,-8.69817,204.8,-60.2325,60.1992,739.815,-1.13467e-09,1.13433e-09,1.39385e-08,742.245,-742.278,-1.27827e-06,1.39845e-08,-1.39848e-08,-2.40834e-17
-0.580025,-0.64,0.113845,0.01,-13.0745,204.8,-73.9606,73.9264,750.268,-1.39331e-09,1.39296e-09,1.41355e-08,753.886,-753.92,-1.59116e-06,1.42038e-08,-1.42041e-08,-2.99785e-17
-0.570025,-0.64,0.107174,0.01,-17.4434,204.8,-88.2832,88.2482,760.603,-1.66316e-09,1.6628e-09,1.43302e-08,765.69,-765.725,-1.91778e-06,1.44262e-08,-1.44265e-08,-3.6132e-17
-0.560025,-0.64,0.101054,0.01,-21.8034,204.8,-103.215,103.179,770.794,-1.94447e-09,1.94411e-09,1.45222e-08,777.653,-777.689,-2.25341e-06,1.46516e-08,-1.4652e-08,-4.24556e-17
-0.550025,-0.64,0.0940082,0.01,-26.1532,204.8,-118.768,118.732,780.815,-2.23751e-09,2.23714e-09,1.4711e-08,789.775,-789.812,-2.59237e-06,1.488e-08,-1.48804e-08,-4.88417e-17
-0.540025,-0.64,0.0875369,0.01,-30.491,204.8,-134.958,134.92,790.638,-2.54252e-09,2.54214e-09,1.48961e-08,802.052,-802.089,-2.93984e-06,1.51113e-08,-1.51117e-08,-5.53882e-17
-0.530025,-0.64,0.0816707,0.01,-34.8154,204.8,-151.794,151.756,800.234,-2.85972e-09,2.85934e-09,1.50769e-08,814.481,-814.519,-3.24109e-06,1.53455e-08,-1.53458e-08,-6.1064e-17
-0.520025,-0.64,0.0747521,0.01,-39.1245,204.8,-169.289,169.25,809.57,-3.18933e-09,3.18894e-09,1.52528e-08,827.058,-827.096,-3.39754e-06,1.55824e-08,-1.55828e-08,-6.40117e-17
-0.510025,-0.64,0.0685977,0.01,-43.4168,204.8,-187.452,187.413,818.614,-3.53154e-09,3.53114e-09,1.54232e-08,839.778,-839.817,-5.99834e-06,1.58221e-08,-1.58225e-08,-1.13012e-16
-0.500025,-0.64,0.062823,0.01,-47.6903,204.8,-206.293,206.253,827.33,-3.8865e-09,3.8861e-09,1.55874e-08,852.637,-852.676,6.87091e-06,1.60643e-08,-1.60647e-08,1.29452e-16
-0.490025,-0.64,0.0561287,0.01,-51.9431,204.8,-225.818,225.778,835.682,-4.25437e-09,4.25396e-09,1.57447e-08,865.63,-865.669,-1.60032e-05,1.63091e-08,-1.63095e-08,-3.0151e-16
-0.480025,-0.64,0.0505383,0.01,-56.1734,204.8,-246.034,245.993,843.632,-4.63524e-09,4.63483e-09,1.58945e-08,878.75,-878.791,-0.000310686,1.65563e-08,-1.65567e-08,-5.8535e-15
-0.470025,-0.64,0.0445296,0.01,-60.3791,204.8,-266.944,266.908,851.134,-5.02923e-09,5.02885e-09,1.60359e-08,891.99,-892.027,0.00317559,1.68058e-08,-1.68061e-08,5.98299e-14
-0.460025,-0.64,0.038289,0.01,-64.558,204.8,-288.537,288.489,858.164,-5.43599e-09,5.43551e-09,1.61683e-08,905.341,-905.389,-0.0182754,1.70574e-08,-1.70578e-08,-3.44318e-13
-0.450025,-0.64,0.0339001,0.01,-68.7081,204.8,-310.45,311.37,863.738,-5.85306e-09,5.8624e-09,1.62733e-08,918.451,-917.531,0.38136,1.73002e-08,-1.72908e-08,7.18505e-12
-0.440025,-0.64,0.0268571,0.01,-72.8272,204.8,-330.115,333.658,867.482,-6.23497e-09,6.27091e-09,1.63439e-08,930.573,-927.03,-0.709191,1.75171e-08,-1.74812e-08,-1.33616e-11
-0.430025,-0.64,0.0218566,0.01,-76.9128,204.8,-352.846,357.67,872.141,-6.66879e-09,6.71774e-09,1.64316e-08,944.133,-939.309,-0.683332,1.7767e-08,-1.77181e-08,-1.28744e-11
-0.420025,-0.64,0.0168286,0.01,-80.9627,204.8,-377.295,383.214,870.758,-7.13419e-09,7.19423e-09,1.64056e-08,953.121,-947.203,2.37892,1.79316e-08,-1.78716e-08,4.48203e-11
-0.410025,-0.64,0.0103374,0.01,-84.974,204.8,-389.797,412.897,863.185,-7.44443e-09,7.67878e-09,1.62629e-08,963.471,-940.371,3.80444,1.80519e-08,-1.78176e-08,7.16779e-11
0.409975,-0.64,0.0103191,0.01,-84.9939,204.8,-389.997,413.003,-863.213,-7.4478e-09,7.68119e-09,-1.62634e-08,963.513,-940.507,-3.82742,1.80531e-08,-1.78197e-08,-7.21108e-11
0.419975,-0.64,0.0167878,0.01,-80.9828,204.8,-377.49,383.321,-870.81,-7.13748e-09,7.19664e-09,-1.64066e-08,953.185,-947.354,-2.39399,1.79332e-08,-1.78741e-08,-4.51042e-11
0.429975,-0.64,0.0218403,0.01,-76.933,204.8,-352.988,357.781,-872.186,-6.67134e-09,6.71996e-09,-1.64325e-08,944.206,-939.414,0.684012,1.77686e-08,-1.77199e-08,1.28872e-11
0.439975,-0.64,0.0268253,0.01,-72.8476,204.8,-330.238,333.769,-867.517,-6.23723e-09,6.27305e-09,-1.63445e-08,930.642,-927.111,0.711009,1.75185e-08,-1.74827e-08,1.33958e-11
0.449975,-0.64,0.0338842,0.01,-68.7287,204.8,-310.565,311.484,-863.77,-5.85522e-09,5.86454e-09,-1.62739e-08,918.52,-917.601,-0.382291,1.73015e-08,-1.72921e-08,-7.20258e-12
0.459975,-0.64,0.038262,0.01,-64.5788,204.8,-288.646,288.598,-858.198,-5.43805e-09,5.43756e-09,-1.6169e-08,905.408,-905.456,0.0185394,1.70586e-08,-1.70591e-08,3.49294e-13
0.469975,-0.64,0.0444952,0.01,-60.3999,204.8,-267.05,267.013,-851.17,-5.03122e-09,5.03084e-09,-1.60365e-08,892.056,-892.093,-0.00319377,1.6807e-08,-1.68074e-08,-6.01725e-14
0.479975,-0.64,0.0505139,0.01,-56.1944,204.8,-246.136,246.095,-843.67,-4.63717e-09,4.63676e-09,-1.58952e-08,878.816,-878.856,0.000308133,1.65576e-08,-1.6558e-08,5.80541e-15
0.489975,-0.64,0.0560978,0.01,-51.9642,204.8,-225.917,225.877,-835.722,-4.25623e-09,4.25583e-09,-1.57455e-08,865.695,-865.734,1.71269e-05,1.63104e-08,-1.63108e-08,3.2268e-16
0.499975,-0.64,0.0627876,0.01,-47.7115,204.8,-206.388,206.349,-827.372,-3.8883e-09,3.8879e-09,-1.55882e-08,852.701,-852.741,-7.06772e-06,1.60656e-08,-1.6066e-08,-1.3316e-16
0.509975,-0.64,0.0685694,0.01,-43.4381,204.8,-187.544,187.505,-818.658,-3.53327e-09,3.53288e-09,-1.5424e-08,839.841,-839.88,6.01437e-06,1.58233e-08,-1.58237e-08,1.13314e-16
0.519975,-0.64,0.0747195,0.01,-39.1459,204.8,-169.377,169.339,-809.616,-3.191e-09,3.19061e-09,-1.52536e-08,827.12,-827.159,3.40047e-06,1.55836e-08,-1.5584e-08,6.40669e-17
0.529975,-0.64,0.0816348,0.01,-34.8368,204.8,-151.879,151.841,-800.281,-2.86133e-09,2.86095e-09,-1.50778e-08,814.543,-814.581,3.2414e-06,1.53466e-08,-1.5347e-08,6.10699e-17
0.539975,-0.64,0.0875064,0.01,-30.5125,204.8,-135.04,135.002,-790.687,-2.54406e-09,2.54369e-09,-1.4897e-08,802.114,-802.151,2.9409e-06,1.51124e-08,-1.51128e-08,5.54083e-17
0.549975,-0.64,0.0939745,0.01,-26.1748,204.8,-118.847,118.811,-780.864,-2.239e-09,2.23862e-09,-1.47119e-08,789.836,-789.872,2.59384e-06,1.48811e-08,-1.48815e-08,4.88695e-17
0.559975,-0.64,0.10102,0.01,-21.8251,204.8,-103.29,103.255,-770.844,-1.9459e-09,1.94553e-09,-1.45231e-08,777.713,-777.749,2.25459e-06,1.46527e-08,-1.46531e-08,4.24778e-17
0.569975,-0.64,0.107142,0.01,-17.4651,204.8,-88.356,88.321,-760.654,-1.66453e-09,1.66417e-09,-1.43312e-08,765.749,-765.784,1.91884e-06,1.44273e-08,-1.44277e-08,3.61521e-17
0.579975,-0.64,0.11381,0.01,-13.0962,204.8,-74.0303,73.9961,-750.32,-1.39463e-09,1.39428e-09,-1.41365e-08,753.944,-753.979,1.59293e-06,1.42049e-08,-1.42052e-08,3.00118e-17
0.589975,-0.64,0.120938,0.01,-8.71995,204.8,-60.2993,60.266,-739.868,-1.13593e-09,1.13559e-09,-1.39395e-08,742.303,-742.336,1.28031e-06,1.39856e-08,-1.39859e-08,2.41219e-17
0.599975,-0.64,0.1274,0.01,-4.33766,204.8,-47.1484,47.116,-729.32,-8.88163e-10,8.87833e-10,-1.37408e-08,730.825,-730.857,9.84002e-07,1.37693e-08,-1.37696e-08,1.85392e-17
0.609975,-0.64,0.134204,0.01,0.0493521,204.8,-34.5625,34.531,-718.699,-6.51041e-10,6.5072e-10,-1.35407e-08,719.513,-719.544,7.06366e-07,1.35562e-08,-1.35565e-08,1.33083e-17
0.619975,-0.64,0.141388,0.01,4.43982,204.8,-22.5264,22.4957,-708.024,-4.24277e-10,4.23965e-10,-1.33396e-08,708.367,-708.397,4.49269e-07,1.33462e-08,-1.33465e-08,8.46448e-18
0.629975,-0.64,0.148244,0.01,8.83255,204.8,-11.0245,10.9947,-697.316,-2.07578e-10,2.07275e-10,-1.31378e-08,697.388,-697.418,2.13835e-07,1.31393e-08,-1.31396e-08,4.02877e-18
0.639975,-0.64,0.155146,0.01,13.2264,204.8,-0.0411236,0.0122283,-686.591,-6.49161e-13,3.5602e-13,-1.29358e-08,686.577,-686.606,1.51406e-10,1.29356e-08,-1.29359e-08,2.85257e-21
0.649975,-0.64,0.16237,0.01,17.6202,204.8,10.4393,-10.4673,-675.866,1.96805e-10,-1.97089e-10,-1.27337e-08,675.933,-675.961,-1.90791e-07,1.27351e-08,-1.27354e-08,-3.59461e-18
0.659975,-0.64,0.169654,0.01,22.013,204.8,20.4326,-20.4597,-665.156,3.85079e-10,-3.85354e-10,-1.25319e-08,665.457,-665.484,-3.60083e-07,1.25377e-08,-1.2538e-08,-6.78418e-18
0.669975,-0.64,0.176629,0.01,26.4038,204.8,29.9543,-29.9805,-654.475,5.6447e-10,-5.64735e-10,-1.23307e-08,655.148,-655.174,-5.08914e-07,1.23435e-08,-1.23437e-08,-9.58823e-18
0.679975,-0.64,0.183883,0.01,30.7915,204.8,39.02,-39.0453,-643.836,7.35269e-10,-7.35525e-10,-1.21302e-08,645.005,-645.03,-6.36824e-07,1.21524e-08,-1.21526e-08,-1.19981e-17
0.689975,-0.64,0.191385,0.01,35.1754,204.8,47.645,-47.6695,-633.25,8.97766e-10,-8.98014e-10,-1.19308e-08,635.028,-635.053,-7.45012e-07,1.19644e-08,-1.19647e-08,-1.40365e-17
0.699975,-0.64,0.198651,0.01,39.5545,204.8,55.8447,-55.8683,-622.728,1.05225e-09,-1.05249e-09,-1.17326e-08,625.216,-625.24,-8.35035e-07,1.17795e-08,-1.17798e-08,-1.57325e-17
0.709975,-0.64,0.205928,0.01,43.928,204.8,63.634,-63.6568,-612.281,1.199e-09,-1.19923e-09,-1.15357e-08,615.568,-615.591,-9.07701e-07,1.15978e-08,-1.1598e-08,-1.71016e-17
0.719975,-0.64,0.213426,0.01,48.2952,204.8,71.0277,-71.0496,-601.917,1.3383e-09,-1.33852e-09,-1.13405e-08,606.083,-606.105,-9.64791e-07,1.14191e-08,-1.14193e-08,-1.81772e-17
0.729975,-0.64,0.221123,0.01,52.6552,204.8,77.7746,-78.3327,-592.161,1.46775e-09,-1.47341e-09,-1.11567e-08,597.004,-597.562,-0.064833,1.12503e-08,-1.1256e-08,-1.22149e-12
0.739975,-0.64,0.228505,0.01,57.0075,204.8,83.5855,-86.4887,-583.979,1.58742e-09,-1.61687e-09,-1.10025e-08,588.686,-591.589,-0.024198,1.11038e-08,-1.11333e-08,-4.55905e-13
0.749975,-0.64,0.236,0.01,61.3513,204.8,88.5299,-95.8865,-577.155,1.69994e-09,-1.77457e-09,-1.08739e-08,580.796,-588.153,0.29976,1.09745e-08,-1.10492e-08,5.64766e-12
0.759975,-0.64,0.243675,0.01,65.6859,204.8,95.244,-102.789,-570.068,1.82726e-09,-1.9038e-09,-1.07404e-08,574.83,-582.375,0.577617,1.08629e-08,-1.09395e-08,1.08826e-11
-0.770025,-0.63,0.245043,0.01,66.4473,198.45,110.818,-113.762,565.67,2.10068e-09,-2.13055e-09,1.06576e-08,575.232,-578.177,1.96567,1.08505e-08,-1.08804e-08,3.70343e-11
-0.760025,-0.63,0.237526,0.01,62.0664,198.45,104.481,-109.212,573.023,1.98905e-09,-2.03705e-09,1.07961e-08,580.533,-585.264,1.27996,1.09581e-08,-1.10061e-08,2.41153e-11
-0.750025,-0.63,0.229651,0.01,57.6748,198.45,100.175,-103.029,579.889,1.89977e-09,-1.92871e-09,1.09254e-08,587.296,-590.149,0.0355897,1.10774e-08,-1.11063e-08,6.7053e-13
-0.740025,-0.63,0.221939,0.01,53.2731,198.45,94.7564,-95.3071,588.339,1.78766e-09,-1.79325e-09,1.10846e-08,595.689,-596.24,0.0780889,1.12255e-08,-1.12311e-08,1.47124e-12
-0.730025,-0.63,0.214417,0.01,48.8619,198.45,88.4831,-88.5046,598.365,1.66717e-09,-1.66738e-09,1.12735e-08,604.863,-604.884,1.14202e-06,1.13961e-08,-1.13963e-08,2.15162e-17
-0.720025,-0.63,0.207104,0.01,44.4419,198.45,81.5746,-81.597,609.016,1.53701e-09,-1.53724e-09,1.14742e-08,614.445,-614.467,1.11214e-06,1.15766e-08,-1.15768e-08,2.09534e-17
-0.710025,-0.63,0.199368,0.01,40.0137,198.45,74.2776,-74.3008,619.772,1.39953e-09,-1.39977e-09,1.16769e-08,624.197,-624.22,1.06705e-06,1.17603e-08,-1.17606e-08,2.01039e-17
-0.700025,-0.63,0.191839,0.01,35.5781,198.45,66.5765,-66.6006,630.626,1.25445e-09,-1.25469e-09,1.18814e-08,634.12,-634.144,1.00555e-06,1.19473e-08,-1.19475e-08,1.89451e-17
-0.690025,-0.63,0.184545,0.01,31.1358,198.45,58.456,-58.481,641.57,1.10145e-09,-1.10171e-09,1.20875e-08,644.216,-644.241,9.26337e-07,1.21375e-08,-1.21378e-08,1.74527e-17
-0.680025,-0.63,0.17733,0.01,26.6877,198.45,49.8999,-49.9259,652.594,9.40257e-10,-9.4052e-10,1.22952e-08,654.487,-654.512,8.27653e-07,1.2331e-08,-1.23313e-08,1.55935e-17
-0.670025,-0.63,0.169793,0.01,22.2346,198.45,40.8922,-40.9191,663.687,7.7055e-10,-7.70822e-10,1.25042e-08,664.933,-664.96,7.08296e-07,1.25278e-08,-1.25281e-08,1.33447e-17
-0.660025,-0.63,0.162522,0.01,17.7774,198.45,31.4163,-31.4442,674.838,5.92023e-10,-5.92305e-10,1.27143e-08,675.555,-675.583,5.66878e-07,1.2728e-08,-1.27283e-08,1.06803e-17
-0.650025,-0.63,0.155555,0.01,13.317,198.45,21.4556,-21.4845,686.034,4.04362e-10,-4.04654e-10,1.29253e-08,686.355,-686.384,4.02483e-07,1.29315e-08,-1.29318e-08,7.58301e-18
-0.640025,-0.63,0.148279,0.01,8.85457,198.45,10.9934,-11.0232,697.261,2.07251e-10,-2.07553e-10,1.31368e-08,697.333,-697.363,2.14151e-07,1.31383e-08,-1.31386e-08,4.03473e-18
-0.630025,-0.63,0.141039,0.01,4.391,198.45,0.0125786,-0.0433478,708.505,3.70768e-13,-6.82919e-13,1.33486e-08,708.49,-708.521,5.47133e-10,1.33485e-08,-1.33488e-08,1.03083e-20
-0.620025,-0.63,0.134153,0.01,-0.0725737,198.45,-11.5037,11.472,719.749,-2.16599e-10,2.16277e-10,1.35605e-08,719.825,-719.856,-2.37942e-07,1.35621e-08,-1.35624e-08,-4.48297e-18
-0.610025,-0.63,0.127296,0.01,-4.53499,198.45,-23.5725,23.5398,730.975,-4.43978e-10,4.43646e-10,1.3772e-08,731.338,-731.371,-5.00921e-07,1.3779e-08,-1.37793e-08,-9.43765e-18
-0.600025,-0.63,0.120097,0.01,-8.99505,198.45,-36.2107,36.177,742.164,-6.82084e-10,6.81743e-10,1.39828e-08,743.029,-743.063,-7.88614e-07,1.39992e-08,-1.39996e-08,-1.4858e-17
-0.590025,-0.63,0.113325,0.01,-13.4515,198.45,-49.4351,49.4004,753.295,-9.31235e-10,9.30884e-10,1.41925e-08,754.897,-754.932,-1.09947e-06,1.42229e-08,-1.42232e-08,-2.07146e-17
-0.580025,-0.63,0.106844,0.01,-17.903,198.45,-63.2622,63.2266,764.348,-1.19174e-09,1.19138e-09,1.44008e-08,766.942,-766.977,-1.43171e-06,1.44498e-08,-1.44501e-08,-2.69742e-17
-0.570025,-0.63,0.0997063,0.01,-22.3481,198.45,-77.7082,77.6717,775.296,-1.46391e-09,1.46354e-09,1.4607e-08,779.161,-779.197,-1.78256e-06,1.468e-08,-1.46804e-08,-3.35845e-17
-0.560025,-0.63,0.0930968,0.01,-26.7855,198.45,-92.7889,92.7516,786.116,-1.74804e-09,1.74766e-09,1.48109e-08,791.553,-791.59,-2.14995e-06,1.49135e-08,-1.49139e-08,-4.05063e-17
-0.550025,-0.63,0.0869229,0.01,-31.2136,198.45,-108.52,108.482,796.781,-2.04441e-09,2.04402e-09,1.50118e-08,804.115,-804.153,-2.51924e-06,1.51502e-08,-1.51506e-08,-4.74639e-17
-0.540025,-0.63,0.0798796,0.01,-35.6308,198.45,-124.915,124.876,807.261,-2.3533e-09,2.35291e-09,1.52093e-08,816.846,-816.885,-2.8646e-06,1.539e-08,-1.53904e-08,-5.39707e-17
-0.530025,-0.63,0.073525,0.01,-40.0356,198.45,-141.989,141.949,817.525,-2.67498e-09,2.67458e-09,1.54026e-08,829.741,-829.78,-3.78411e-06,1.5633e-08,-1.56334e-08,-7.12948e-17
-0.520025,-0.63,0.0675335,0.01,-44.4261,198.45,-159.754,159.714,827.542,-3.00968e-09,3.00927e-09,1.55914e-08,842.797,-842.837,-1.31564e-06,1.5879e-08,-1.58794e-08,-2.47874e-17
-0.510025,-0.63,0.060651,0.01,-48.8007,198.45,-178.222,178.181,837.276,-3.35764e-09,3.35722e-09,1.57748e-08,856.01,-856.051,-1.99317e-06,1.61279e-08,-1.61283e-08,-3.75525e-17
-0.500025,-0.63,0.0547385,0.01,-53.1574,198.45,-197.405,197.363,846.693,-3.71904e-09,3.71861e-09,1.59522e-08,869.375,-869.417,-0.000118775,1.63797e-08,-1.63801e-08,-2.23779e-15
-0.490025,-0.63,0.0486816,0.01,-57.4944,198.45,-217.311,217.269,855.751,-4.09408e-09,4.09366e-09,1.61228e-08,882.886,-882.928,0.0009345,1.66343e-08,-1.66347e-08,1.76065e-14
-0.480025,-0.63,0.042114,0.01,-61.8097,198.45,-237.94,237.899,864.412,-4.48276e-09,4.48234e-09,1.6286e-08,896.536,-896.577,-0.00400676,1.68914e-08,-1.68919e-08,-7.54896e-14
-0.470025,-0.63,0.0371118,0.01,-66.1012,198.45,-259.348,259.271,872.677,-4.88593e-09,4.88515e-09,1.64417e-08,910.349,-910.427,0.000796005,1.71518e-08,-1.71526e-08,1.49972e-14
-0.460025,-0.63,0.0303917,0.01,-70.3667,198.45,-281.12,281.78,879.684,-5.29933e-09,5.30603e-09,1.65738e-08,923.942,-923.282,0.249508,1.74047e-08,-1.7398e-08,4.70087e-12
-0.450025,-0.63,0.0246338,0.01,-74.6041,198.45,-300.942,306.089,883.116,-5.6923e-09,5.74451e-09,1.66384e-08,936.391,-931.244,0.742025,1.76198e-08,-1.75676e-08,1.39802e-11
-0.440025,-0.63,0.0202096,0.01,-78.811,198.45,-316.045,330.859,882.668,-6.01887e-09,6.16916e-09,1.663e-08,947.472,-932.658,-0.161295,1.77865e-08,-1.76362e-08,-3.0389e-12
-0.430025,-0.63,0.0128388,0.01,-82.985,198.45,-338.155,351.25,887.007,-6.42797e-09,6.56082e-09,1.67117e-08,958.176,-945.081,-2.1586,1.79957e-08,-1.78628e-08,-4.06693e-11
-0.420025,-0.63,0.0110111,0.01,-87.125,198.45,-375.986,372.574,894.399,-7.06895e-09,7.03434e-09,1.6851e-08,967.847,-971.259,1.54221,1.82496e-08,-1.82843e-08,2.90562e-11
0.419975,-0.63,0.0110239,0.01,-87.1455,198.45,-376.254,372.666,-894.518,-7.07324e-09,7.03685e-09,-1.68532e-08,967.938,-971.525,-1.55712,1.82521e-08,-1.82885e-08,-2.9337e-11
0.429975,-0.63,0.0128111,0.01,-83.0057,198.45,-338.345,351.309,-887.078,-6.43097e-09,6.56249e-09,-1.67131e-08,958.222,-945.258,2.1714,1.79971e-08,-1.78656e-08,4.09105e-11
0.439975,-0.63,0.0201673,0.01,-78.8319,198.45,-316.179,330.957,-882.719,-6.02125e-09,6.17116e-09,-1.66309e-08,947.542,-932.764,0.169625,1.7788e-08,-1.76381e-08,3.19583e-12
0.449975,-0.63,0.0246119,0.01,-74.6251,198.45,-301.059,306.2,-883.157,-5.69447e-09,5.74663e-09,-1.66392e-08,936.463,-931.322,-0.73868,1.76212e-08,-1.7569e-08,-1.39172e-11
0.459975,-0.63,0.0303577,0.01,-70.3878,198.45,-281.23,281.889,-879.723,-5.3014e-09,5.30808e-09,-1.65745e-08,924.011,-923.352,-0.247007,1.7406e-08,-1.73994e-08,-4.65375e-12
0.469975,-0.63,0.037092,0.01,-66.1224,198.45,-259.457,259.379,-872.716,-4.88798e-09,4.8872e-09,-1.64425e-08,910.418,-910.496,-0.00129998,1.71531e-08,-1.71539e-08,-2.44925e-14
0.479975,-0.63,0.0420848,0.01,-61.8311,198.45,-238.045,238.004,-864.454,-4.48473e-09,4.48431e-09,-1.62868e-08,896.605,-896.646,0.00409956,1.68927e-08,-1.68931e-08,7.72381e-14
0.489975,-0.63,0.0486461,0.01,-57.516,198.45,-217.411,217.37,-855.795,-4.09598e-09,4.09556e-09,-1.61237e-08,882.954,-882.995,-0.000944517,1.66355e-08,-1.6636e-08,-1.77952e-14
0.499975,-0.63,0.0547121,0.01,-53.1791,198.45,-197.502,197.46,-846.739,-3.72087e-09,3.72045e-09,-1.5953e-08,869.442,-869.483,0.000118793,1.6381e-08,-1.63814e-08,2.23814e-15
0.509975,-0.63,0.0606189,0.01,-48.8224,198.45,-178.316,178.275,-837.324,-3.3594e-09,3.35898e-09,-1.57757e-08,856.076,-856.117,2.23147e-06,1.61291e-08,-1.61296e-08,4.20422e-17
0.519975,-0.63,0.0674973,0.01,-44.4479,198.45,-159.844,159.804,-827.591,-3.01138e-09,3.01097e-09,-1.55923e-08,842.862,-842.903,1.26825e-06,1.58802e-08,-1.58806e-08,2.38946e-17
0.529975,-0.63,0.0734954,0.01,-40.0575,198.45,-142.076,142.036,-817.576,-2.67661e-09,2.67621e-09,-1.54036e-08,829.805,-829.845,3.79014e-06,1.56342e-08,-1.56346e-08,7.14085e-17
0.539975,-0.63,0.0798462,0.01,-35.6528,198.45,-124.998,124.959,-807.312,-2.35487e-09,2.35448e-09,-1.52102e-08,816.909,-816.948,2.86685e-06,1.53912e-08,-1.53916e-08,5.40132e-17
0.549975,-0.63,0.0868864,0.01,-31.2356,198.45,-108.6,108.561,-796.833,-2.04591e-09,2.04553e-09,-1.50128e-08,804.178,-804.216,2.52131e-06,1.51513e-08,-1.51517e-08,4.75029e-17
0.559975,-0.63,0.0930655,0.01,-26.8075,198.45,-92.8655,92.8282,-786.17,-1.74948e-09,1.7491e-09,-1.48119e-08,791.615,-791.652,2.15195e-06,1.49146e-08,-1.4915e-08,4.05439e-17
0.569975,-0.63,0.099672,0.01,-22.3702,198.45,-77.7816,77.7451,-775.35,-1.46529e-09,1.46492e-09,-1.46081e-08,779.222,-779.259,1.7843e-06,1.46812e-08,-1.46815e-08,3.36173e-17
0.579975,-0.63,0.106807,0.01,-17.9251,198.45,-63.3325,63.2969,-764.402,-1.19307e-09,1.1927e-09,-1.44018e-08,767.002,-767.038,1.43376e-06,1.44509e-08,-1.44513e-08,2.7013e-17
0.589975,-0.63,0.113292,0.01,-13.4736,198.45,-49.5023,49.4677,-753.351,-9.32502e-10,9.32151e-10,-1.41936e-08,754.957,-754.991,1.10137e-06,1.4224e-08,-1.42243e-08,2.07505e-17
0.599975,-0.63,0.120063,0.01,-9.01722,198.45,-36.275,36.2413,-742.219,-6.83296e-10,6.82954e-10,-1.39838e-08,743.088,-743.121,7.90262e-07,1.40003e-08,-1.40007e-08,1.4889e-17
0.609975,-0.63,0.127259,0.01,-4.55718,198.45,-23.6339,23.6012,-731.03,-4.45135e-10,4.44803e-10,-1.3773e-08,731.396,-731.428,5.02551e-07,1.37801e-08,-1.37804e-08,9.46835e-18
0.619975,-0.63,0.13412,0.01,-0.0947694,198.45,-11.5624,11.5306,-719.805,-2.17704e-10,2.17381e-10,-1.35615e-08,719.881,-719.913,2.39185e-07,1.35631e-08,-1.35634e-08,4.50638e-18
0.629975,-0.63,0.141003,0.01,4.3688,198.45,-0.0433536,0.0125795,-708.561,-6.83006e-13,3.70806e-13,-1.33497e-08,708.546,-708.576,8.74417e-10,1.33495e-08,-1.33499e-08,1.64745e-20
0.639975,-0.63,0.148242,0.01,8.83237,198.45,10.9401,-10.9699,-697.317,2.06247e-10,-2.06549e-10,-1.31379e-08,697.388,-697.418,-2.12693e-07,1.31393e-08,-1.31396e-08,-4.00726e-18
0.649975,-0.63,0.155521,0.01,13.2949,198.45,21.4049,-21.4337,-686.09,4.03405e-10,-4.03698e-10,-1.29263e-08,686.409,-686.438,-4.01167e-07,1.29325e-08,-1.29328e-08,-7.55821e-18
0.659975,-0.63,0.162487,0.01,17.7552,198.45,31.368,-31.3958,-674.893,5.91112e-10,-5.91395e-10,-1.27154e-08,675.609,-675.636,-5.65606e-07,1.2729e-08,-1.27293e-08,-1.06563e-17
0.669975,-0.63,0.169757,0.01,22.2124,198.45,40.8462,-40.8731,-663.742,7.69684e-10,-7.69957e-10,-1.25053e-08,664.985,-665.012,-7.07455e-07,1.25288e-08,-1.25291e-08,-1.33289e-17
0.679975,-0.63,0.177292,0.01,26.6655,198.45,49.8563,-49.8822,-652.649,9.39434e-10,-9.39697e-10,-1.22963e-08,654.538,-654.564,-8.27209e-07,1.2332e-08,-1.23323e-08,-1.55851e-17
0.689975,-0.63,0.18451,0.01,31.1137,198.45,58.4145,-58.4395,-641.624,1.10067e-09,-1.10093e-09,-1.20886e-08,644.267,-644.292,-9.2591e-07,1.21385e-08,-1.21387e-08,-1.74447e-17
0.699975,-0.63,0.191803,0.01,35.556,198.45,66.5372,-66.5613,-630.68,1.2537e-09,-1.25395e-09,-1.18824e-08,634.17,-634.194,-1.00516e-06,1.19482e-08,-1.19485e-08,-1.89378e-17
0.709975,-0.63,0.19933,0.01,39.9917,198.45,74.2403,-74.2635,-619.825,1.39883e-09,-1.39907e-09,-1.16779e-08,624.245,-624.269,-1.06652e-06,1.17612e-08,-1.17615e-08,-2.00939e-17
0.719975,-0.63,0.207068,0.01,44.4199,198.45,81.5393,-81.5617,-609.069,1.53635e-09,-1.53657e-09,-1.14752e-08,614.493,-614.515,-1.11191e-06,1.15775e-08,-1.15777e-08,-2.0949e-17
0.729975,-0.63,0.21438,0.01,48.84,198.45,88.4497,-88.4712,-598.418,1.66654e-09,-1.66675e-09,-1.12745e-08,604.91,-604.932,-1.14194e-06,1.1397e-08,-1.13972e-08,-2.15148e-17
0.739975,-0.63,0.221902,0.01,53.2512,198.45,94.7247,-95.2756,-588.391,1.78706e-09,-1.79265e-09,-1.10856e-08,595.736,-596.287,-0.0780679,1.12264e-08,-1.1232e-08,-1.47084e-12
0.749975,-0.63,0.229612,0.01,57.6529,198.45,100.145,-102.999,-579.941,1.8992e-09,-1.92815e-09,-1.09264e-08,587.342,-590.195,-0.0355886,1.10783e-08,-1.11072e-08,-6.70509e-13
0.759975,-0.63,0.237489,0.01,62.0446,198.45,104.452,-109.184,-573.075,1.98851e-09,-2.03651e-09,-1.07971e-08,580.578,-585.31,-1.28031,1.0959e-08,-1.1007e-08,-2.41218e-11
0.769975,-0.63,0.245005,0.01,66.4255,198.45,110.79,-113.735,-565.722,2.10015e-09,-2.13002e-09,-1.06585e-08,575.277,-578.222,-1.96655,1.08514e-08,-1.08812e-08,-3.70509e-11
-0.770025,-0.62,0.238672,0.01,62.8734,192.2,120.013,-128.76,569.482,2.29914e-09,-2.38787e-09,1.07294e-08,578.535,-587.281,-0.00913994,1.0938e-08,-1.10267e-08,-1.72202e-13
-0.760025,-0.62,0.230948,0.01,58.436,192.2,116.473,-119.214,575.132,2.20633e-09,-2.23414e-09,1.08358e-08,585.71,-588.452,0.0811249,1.1047e-08,-1.10749e-08,1.52844e-12
-0.750025,-0.62,0.223404,0.01,53.9869,192.2,111.421,-111.871,583.846,2.10119e-09,-2.10576e-09,1.1e-08,594.2,-594.65,0.18014,1.1197e-08,-1.12016e-08,3.39395e-12
-0.740025,-0.62,0.215599,0.01,49.5267,192.2,105.677,-105.698,594.119,1.99111e-09,-1.99132e-09,1.11935e-08,603.435,-603.456,1.27981e-06,1.13692e-08,-1.13694e-08,2.41123e-17
-0.730025,-0.62,0.207847,0.01,45.0558,192.2,99.2656,-99.2875,605.025,1.87032e-09,-1.87054e-09,1.1399e-08,613.105,-613.127,1.2769e-06,1.15514e-08,-1.15516e-08,2.40575e-17
-0.720025,-0.62,0.200294,0.01,40.5751,192.2,92.4743,-92.4971,616.06,1.74237e-09,-1.7426e-09,1.16069e-08,622.952,-622.975,1.261e-06,1.17369e-08,-1.17371e-08,2.37579e-17
-0.710025,-0.62,0.192965,0.01,36.0851,192.2,85.2872,-85.3109,627.216,1.60696e-09,-1.6072e-09,1.18171e-08,632.978,-633.001,1.22989e-06,1.19258e-08,-1.1926e-08,2.31718e-17
-0.700025,-0.62,0.18528,0.01,31.5866,192.2,77.6881,-77.7127,638.486,1.4638e-09,-1.46405e-09,1.20294e-08,643.184,-643.209,1.18209e-06,1.21181e-08,-1.21183e-08,2.22712e-17
-0.690025,-0.62,0.177716,0.01,27.0803,192.2,69.6605,-69.6861,649.862,1.31256e-09,-1.31282e-09,1.22438e-08,653.574,-653.599,1.11572e-06,1.23138e-08,-1.23141e-08,2.10209e-17
-0.680025,-0.62,0.170405,0.01,22.567,192.2,61.1876,-61.2142,661.335,1.15293e-09,-1.15319e-09,1.24599e-08,664.147,-664.174,1.02918e-06,1.2513e-08,-1.25133e-08,1.93903e-17
-0.670025,-0.62,0.163246,0.01,18.0476,192.2,52.252,-52.2796,672.894,9.84578e-10,-9.84858e-10,1.26777e-08,674.906,-674.934,9.20969e-07,1.27157e-08,-1.2716e-08,1.73516e-17
-0.660025,-0.62,0.15567,0.01,13.523,192.2,42.8363,-42.8649,684.527,8.07185e-10,-8.07476e-10,1.28969e-08,685.853,-685.881,7.88886e-07,1.2922e-08,-1.29223e-08,1.48631e-17
-0.650025,-0.62,0.148381,0.01,8.99418,192.2,32.9227,-32.9523,696.223,6.20411e-10,-6.20711e-10,1.31173e-08,696.987,-697.017,6.31979e-07,1.31318e-08,-1.31321e-08,1.19068e-17
-0.640025,-0.62,0.141423,0.01,4.46201,192.2,22.493,-22.5237,707.969,4.23915e-10,-4.24226e-10,1.33385e-08,708.311,-708.342,4.49195e-07,1.33451e-08,-1.33454e-08,8.46309e-18
-0.630025,-0.62,0.134155,0.01,-0.0723947,192.2,11.5292,-11.561,719.747,2.17355e-10,-2.17678e-10,1.35605e-08,719.824,-719.856,2.38786e-07,1.3562e-08,-1.35624e-08,4.49887e-18
-0.620025,-0.62,0.126896,0.01,-4.60795,192.2,0.0129368,-0.0457396,731.544,3.86358e-13,-7.1914e-13,1.37827e-08,731.528,-731.56,4.06817e-10,1.37825e-08,-1.37829e-08,7.66466e-21
-0.610025,-0.62,0.120033,0.01,-9.14351,192.2,-12.0743,12.0404,743.34,-2.27339e-10,2.26995e-10,1.4005e-08,743.421,-743.455,-2.66289e-07,1.40066e-08,-1.4007e-08,-5.01705e-18
-0.600025,-0.62,0.113171,0.01,-13.6779,192.2,-24.7508,24.7158,755.118,-4.66167e-10,4.65813e-10,1.42269e-08,755.505,-755.54,-5.6143e-07,1.42343e-08,-1.42347e-08,-1.05777e-17
-0.590025,-0.62,0.105956,0.01,-18.2097,192.2,-38.0349,37.9989,766.855,-7.16443e-10,7.16078e-10,1.4448e-08,767.779,-767.815,-8.8406e-07,1.44656e-08,-1.44659e-08,-1.66562e-17
-0.580025,-0.62,0.0992259,0.01,-22.7378,192.2,-51.9448,51.9078,778.53,-9.78509e-10,9.78133e-10,1.4668e-08,780.241,-780.278,-1.23361e-06,1.47004e-08,-1.47007e-08,-2.32419e-17
-0.570025,-0.62,0.0927169,0.01,-27.2606,192.2,-66.4983,66.4603,790.118,-1.2527e-09,1.25232e-09,1.48863e-08,792.891,-792.929,-1.60536e-06,1.49387e-08,-1.49391e-08,-3.0246e-17
-0.560025,-0.62,0.0855693,0.01,-31.7769,192.2,-81.7131,81.6741,801.595,-1.53935e-09,1.53896e-09,1.51025e-08,805.727,-805.766,-1.99384e-06,1.51805e-08,-1.51809e-08,-3.7565e-17
-0.550025,-0.62,0.0790429,0.01,-36.2849,192.2,-97.6062,97.5662,812.931,-1.83878e-09,1.83838e-09,1.53161e-08,818.747,-818.787,-2.51029e-06,1.54258e-08,-1.54263e-08,-4.72954e-17
-0.540025,-0.62,0.0727928,0.01,-40.7832,192.2,-114.194,114.153,824.098,-2.1513e-09,2.15089e-09,1.55265e-08,831.949,-831.99,-2.38066e-06,1.56746e-08,-1.5675e-08,-4.48531e-17
-0.530025,-0.62,0.0657568,0.01,-45.27,192.2,-131.492,131.451,835.064,-2.47721e-09,2.47679e-09,1.57331e-08,845.329,-845.371,-2.20599e-06,1.59267e-08,-1.59271e-08,-4.15621e-17
-0.520025,-0.62,0.0595745,0.01,-49.7437,192.2,-149.516,149.473,845.796,-2.81678e-09,2.81635e-09,1.59353e-08,858.884,-858.927,-3.32649e-05,1.61821e-08,-1.61825e-08,-6.2673e-16
-0.510025,-0.62,0.0533988,0.01,-54.2024,192.2,-168.279,168.236,856.257,-3.17029e-09,3.16985e-09,1.61324e-08,872.611,-872.654,0.000204725,1.64407e-08,-1.64411e-08,3.85714e-15
-0.500025,-0.62,0.0465747,0.01,-58.6443,192.2,-187.792,187.749,866.41,-3.53792e-09,3.53749e-09,1.63237e-08,886.502,-886.545,-0.000553161,1.67024e-08,-1.67028e-08,-1.04219e-14
-0.490025,-0.62,0.0410727,0.01,-63.0675,192.2,-208.077,208.019,876.232,-3.92004e-09,3.91945e-09,1.65087e-08,900.564,-900.621,-0.00417906,1.69674e-08,-1.6968e-08,-7.8736e-14
-0.480025,-0.62,0.0345408,0.01,-67.4698,192.2,-229.118,229.156,885.555,-4.31689e-09,4.31727e-09,1.66844e-08,914.738,-914.7,0.0573282,1.7234e-08,-1.72336e-08,1.0801e-12
-0.470025,-0.62,0.0282269,0.01,-71.8492,192.2,-250.083,251.211,893.335,-4.71662e-09,4.72806e-09,1.6831e-08,928.396,-927.268,0.0749699,1.74866e-08,-1.74752e-08,1.41248e-12
-0.460025,-0.62,0.0241095,0.01,-76.2035,192.2,-268.265,274.038,898.6,-5.07937e-09,5.13793e-09,1.69301e-08,941.504,-935.731,-0.980459,1.77134e-08,-1.76548e-08,-1.84724e-11
-0.450025,-0.62,0.0162613,0.01,-80.5303,192.2,-285.479,297.567,901.401,-5.43115e-09,5.55378e-09,1.69829e-08,953.411,-941.323,-2.15654,1.79103e-08,-1.77876e-08,-4.06305e-11
-0.440025,-0.62,0.0121488,0.01,-84.8278,192.2,-302.073,328.397,899.954,-5.80568e-09,6.07273e-09,1.69557e-08,966.729,-940.405,0.536776,1.80993e-08,-1.78322e-08,1.01132e-11
0.439975,-0.62,0.0121455,0.01,-84.8491,192.2,-302.194,328.487,-900.035,-5.80782e-09,6.07456e-09,-1.69572e-08,966.825,-940.531,-0.50785,1.81012e-08,-1.78345e-08,-9.56819e-12
0.449975,-0.62,0.0162282,0.01,-80.5518,192.2,-285.578,297.66,-901.448,-5.43298e-09,5.55555e-09,-1.69838e-08,953.482,-941.4,2.17982,1.79116e-08,-1.77891e-08,4.1069e-11
0.459975,-0.62,0.0240665,0.01,-76.2251,192.2,-268.355,274.144,-898.633,-5.08112e-09,5.13985e-09,-1.69308e-08,941.573,-935.784,0.993834,1.77146e-08,-1.76559e-08,1.87244e-11
0.469975,-0.62,0.0282008,0.01,-71.8709,192.2,-250.185,251.322,-893.371,-4.71857e-09,4.73011e-09,-1.68316e-08,928.464,-927.326,-0.0732661,1.74878e-08,-1.74763e-08,-1.38037e-12
0.479975,-0.62,0.0345051,0.01,-67.4916,192.2,-229.224,229.263,-885.599,-4.31889e-09,4.31928e-09,-1.66852e-08,914.809,-914.77,-0.0575038,1.72354e-08,-1.7235e-08,-1.0834e-12
0.489975,-0.62,0.0410496,0.01,-63.0894,192.2,-208.18,208.122,-876.28,-3.92197e-09,3.92139e-09,-1.65096e-08,900.634,-900.692,0.00410344,1.69687e-08,-1.69693e-08,7.73111e-14
0.499975,-0.62,0.0465436,0.01,-58.6664,192.2,-187.891,187.848,-866.46,-3.53979e-09,3.53936e-09,-1.63246e-08,886.572,-886.614,0.000575366,1.67037e-08,-1.67041e-08,1.08402e-14
0.509975,-0.62,0.0533624,0.01,-54.2246,192.2,-168.374,168.331,-856.308,-3.17208e-09,3.17164e-09,-1.61333e-08,872.679,-872.722,-0.000207721,1.6442e-08,-1.64424e-08,-3.91359e-15
0.519975,-0.62,0.0595464,0.01,-49.7659,192.2,-149.607,149.565,-845.848,-2.81851e-09,2.81807e-09,-1.59363e-08,858.952,-858.995,3.33841e-05,1.61833e-08,-1.61838e-08,6.28975e-16
0.529975,-0.62,0.0657237,0.01,-45.2923,192.2,-131.58,131.538,-835.118,-2.47886e-09,2.47844e-09,-1.57341e-08,845.396,-845.438,2.25082e-06,1.59279e-08,-1.59284e-08,4.24067e-17
0.539975,-0.62,0.0727561,0.01,-40.8055,192.2,-114.278,114.237,-824.153,-2.15289e-09,2.15248e-09,-1.55275e-08,832.015,-832.056,2.37316e-06,1.56758e-08,-1.56762e-08,4.47118e-17
0.549975,-0.62,0.0790123,0.01,-36.3073,192.2,-97.6869,97.647,-812.987,-1.8403e-09,1.8399e-09,-1.53171e-08,818.812,-818.852,2.51354e-06,1.54271e-08,-1.54275e-08,4.73565e-17
0.559975,-0.62,0.0855352,0.01,-31.7993,192.2,-81.7904,81.7515,-801.651,-1.54081e-09,1.54041e-09,-1.51036e-08,805.791,-805.83,1.99613e-06,1.51817e-08,-1.51821e-08,3.76082e-17
0.569975,-0.62,0.0926801,0.01,-27.2831,192.2,-66.5723,66.5343,-790.176,-1.2541e-09,1.25371e-09,-1.48874e-08,792.954,-792.992,1.60726e-06,1.49399e-08,-1.49403e-08,3.02816e-17
0.579975,-0.62,0.0991939,0.01,-22.7603,192.2,-52.0155,51.9785,-778.588,-9.79842e-10,9.79467e-10,-1.4669e-08,780.303,-780.34,1.23538e-06,1.47015e-08,-1.47019e-08,2.32753e-17
0.589975,-0.62,0.105921,0.01,-18.2323,192.2,-38.1025,38.0665,-766.913,-7.17716e-10,7.17352e-10,-1.44491e-08,767.84,-767.876,8.85341e-07,1.44667e-08,-1.44671e-08,1.66803e-17
0.599975,-0.62,0.113134,0.01,-13.7004,192.2,-24.8153,24.7804,-755.176,-4.67383e-10,4.67029e-10,-1.4228e-08,755.566,-755.601,5.62322e-07,1.42354e-08,-1.42358e-08,1.05945e-17
0.609975,-0.62,0.12,0.01,-9.16606,192.2,-12.1358,12.102,-743.399,-2.28499e-10,2.28155e-10,-1.40061e-08,743.481,-743.515,2.6739e-07,1.40078e-08,-1.40081e-08,5.03778e-18
0.619975,-0.62,0.126861,0.01,-4.63051,192.2,-0.0457458,0.0129377,-731.603,-7.19233e-13,3.86397e-13,-1.37838e-08,731.586,-731.619,5.66803e-10,1.37837e-08,-1.3784e-08,1.06789e-20
0.629975,-0.62,0.134118,0.01,-0.0949484,192.2,11.4733,-11.5051,-719.806,2.16303e-10,-2.16625e-10,-1.35616e-08,719.882,-719.914,-2.37884e-07,1.35631e-08,-1.35635e-08,-4.48187e-18
0.639975,-0.62,0.14139,0.01,4.43947,192.2,22.4398,-22.4705,-708.027,4.22913e-10,-4.23224e-10,-1.33396e-08,708.368,-708.398,-4.4824e-07,1.33462e-08,-1.33465e-08,-8.44511e-18
0.649975,-0.62,0.148345,0.01,8.97165,192.2,32.8721,-32.9017,-696.282,6.19458e-10,-6.19759e-10,-1.31184e-08,697.043,-697.073,-6.31268e-07,1.31328e-08,-1.31331e-08,-1.18935e-17
0.659975,-0.62,0.155633,0.01,13.5005,192.2,42.7883,-42.8169,-684.585,8.0628e-10,-8.0657e-10,-1.2898e-08,685.908,-685.936,-7.87927e-07,1.2923e-08,-1.29233e-08,-1.4845e-17
0.669975,-0.62,0.163208,0.01,18.0252,192.2,52.2064,-52.234,-672.951,9.83719e-10,-9.83999e-10,-1.26788e-08,674.96,-674.988,-9.19744e-07,1.27168e-08,-1.2717e-08,-1.73285e-17
0.679975,-0.62,0.170369,0.01,22.5446,192.2,61.1443,-61.1709,-661.392,1.15211e-09,-1.15238e-09,-1.2461e-08,664.2,-664.227,-1.02835e-06,1.2514e-08,-1.25143e-08,-1.93747e-17
0.689975,-0.62,0.177679,0.01,27.0578,192.2,69.6195,-69.6451,-649.919,1.31178e-09,-1.31204e-09,-1.22449e-08,653.626,-653.651,-1.115e-06,1.23148e-08,-1.23151e-08,-2.10073e-17
0.699975,-0.62,0.185241,0.01,31.5642,192.2,77.6493,-77.6739,-638.543,1.46306e-09,-1.46331e-09,-1.20305e-08,643.236,-643.26,-1.18116e-06,1.2119e-08,-1.21193e-08,-2.22538e-17
0.709975,-0.62,0.192929,0.01,36.0627,192.2,85.2504,-85.2741,-627.272,1.60627e-09,-1.60651e-09,-1.18182e-08,633.028,-633.052,-1.22919e-06,1.19267e-08,-1.1927e-08,-2.31587e-17
0.719975,-0.62,0.200257,0.01,40.5528,192.2,92.4396,-92.4623,-616.115,1.74171e-09,-1.74194e-09,-1.1608e-08,623.001,-623.024,-1.26104e-06,1.17378e-08,-1.1738e-08,-2.37587e-17
0.729975,-0.62,0.207809,0.01,45.0336,192.2,99.2328,-99.2546,-605.08,1.8697e-09,-1.86992e-09,-1.14001e-08,613.154,-613.175,-1.27711e-06,1.15523e-08,-1.15525e-08,-2.40614e-17
0.739975,-0.62,0.21556,0.01,49.5044,192.2,105.646,-105.667,-594.172,1.99052e-09,-1.99073e-09,-1.11946e-08,603.483,-603.504,-1.27943e-06,1.13701e-08,-1.13703e-08,-2.41053e-17
0.749975,-0.62,0.223367,0.01,53.9648,192.2,111.392,-111.842,-583.899,2.10064e-09,-2.10521e-09,-1.1001e-08,594.246,-594.697,-0.180152,1.11979e-08,-1.12025e-08,-3.39417e-12
0.759975,-0.62,0.23091,0.01,58.4139,192.2,116.445,-119.187,-575.185,2.20581e-09,-2.23362e-09,-1.08368e-08,585.756,-588.498,-0.0812977,1.10479e-08,-1.10757e-08,-1.5317e-12
0.769975,-0.62,0.238633,0.01,62.8513,192.2,119.986,-128.733,-569.535,2.29864e-09,-2.38738e-09,-1.07304e-08,578.58,-587.327,0.00884094,1.09388e-08,-1.10276e-08,1.66568e-13
-0.780025,-0.61,0.240489,0.01,63.7928,186.05,132.657,-147.264,566.466,2.56284e-09,-2.71102e-09,1.06726e-08,576.197,-590.804,0.701388,1.09194e-08,-1.10676e-08,1.32146e-11
-0.770025,-0.61,0.232557,0.01,59.3117,186.05,131.018,-138.826,573.253,2.5024e-09,-2.58162e-09,1.08004e-08,585.012,-592.821,-0.159187,1.10559e-08,-1.11351e-08,-2.99917e-12
-0.760025,-0.61,0.224622,0.01,54.8174,186.05,127.974,-129.844,579.749,2.41923e-09,-2.43821e-09,1.09228e-08,592.973,-594.843,-0.387502,1.11801e-08,-1.11991e-08,-7.30076e-12
-0.750025,-0.61,0.216858,0.01,50.3102,186.05,122.604,-122.629,589.145,2.31004e-09,-2.31029e-09,1.10998e-08,601.757,-601.782,-0.00297645,1.13376e-08,-1.13378e-08,-5.60781e-14
-0.740025,-0.61,0.209284,0.01,45.7908,186.05,116.701,-116.722,600.275,2.1988e-09,-2.19901e-09,1.13095e-08,611.505,-611.526,1.39694e-06,1.15212e-08,-1.15214e-08,2.63191e-17
-0.730025,-0.61,0.201559,0.01,41.2597,186.05,110.428,-110.45,611.557,2.08063e-09,-2.08085e-09,1.15221e-08,621.438,-621.46,1.40962e-06,1.17083e-08,-1.17086e-08,2.65581e-17
-0.720025,-0.61,0.193761,0.01,36.7175,186.05,103.77,-103.793,622.982,1.95518e-09,-1.95542e-09,1.17373e-08,631.556,-631.579,1.40955e-06,1.1899e-08,-1.18992e-08,2.65568e-17
-0.710025,-0.61,0.186175,0.01,32.165,186.05,96.7087,-96.7328,634.546,1.82215e-09,-1.8224e-09,1.19552e-08,641.863,-641.887,1.39421e-06,1.20932e-08,-1.20934e-08,2.62677e-17
-0.700025,-0.61,0.178826,0.01,27.6028,186.05,89.2281,-89.2532,646.24,1.68122e-09,-1.68147e-09,1.21755e-08,652.361,-652.386,1.36204e-06,1.2291e-08,-1.22912e-08,2.56616e-17
-0.690025,-0.61,0.1712,0.01,23.0317,186.05,81.3104,-81.3366,658.058,1.53205e-09,-1.53231e-09,1.23982e-08,663.051,-663.077,1.31088e-06,1.24924e-08,-1.24926e-08,2.46978e-17
-0.680025,-0.61,0.163597,0.01,18.4525,186.05,72.9378,-72.965,669.989,1.37431e-09,-1.37458e-09,1.2623e-08,673.936,-673.963,1.23923e-06,1.26975e-08,-1.26977e-08,2.33478e-17
-0.670025,-0.61,0.156264,0.01,13.8659,186.05,64.092,-64.1202,682.025,1.20765e-09,-1.20794e-09,1.28497e-08,685.017,-685.045,1.14504e-06,1.29062e-08,-1.29065e-08,2.15733e-17
-0.660025,-0.61,0.149173,0.01,9.27301,186.05,54.7542,-54.7836,694.154,1.03173e-09,-1.03203e-09,1.30783e-08,696.297,-696.326,1.02566e-06,1.31188e-08,-1.31191e-08,1.9324e-17
-0.650025,-0.61,0.14155,0.01,4.67461,186.05,44.9056,-44.9361,706.364,8.4618e-10,-8.46489e-10,1.33083e-08,707.776,-707.806,8.79985e-07,1.3335e-08,-1.33353e-08,1.65794e-17
-0.640025,-0.61,0.134239,0.01,0.0717153,186.05,34.5268,-34.5584,718.642,6.50643e-10,-6.50963e-10,1.35396e-08,719.455,-719.487,7.06221e-07,1.35551e-08,-1.35554e-08,1.33056e-17
-0.630025,-0.61,0.127295,0.01,-4.53463,186.05,23.5984,-23.6311,730.972,4.44749e-10,-4.45081e-10,1.37719e-08,731.337,-731.37,5.02389e-07,1.3779e-08,-1.37793e-08,9.4653e-18
-0.620025,-0.61,0.120035,0.01,-9.14333,186.05,12.1005,-12.1344,743.339,2.28128e-10,-2.28471e-10,1.40049e-08,743.421,-743.455,2.67546e-07,1.40066e-08,-1.4007e-08,5.04072e-18
-0.610025,-0.61,0.112754,0.01,-13.7532,186.05,0.0133012,-0.0483084,755.725,4.02808e-13,-7.57954e-13,1.42383e-08,755.708,-755.743,5.90236e-10,1.42381e-08,-1.42385e-08,1.11204e-20
-0.600025,-0.61,0.105918,0.01,-18.3631,186.05,-12.6832,12.647,768.111,-2.38801e-10,2.38434e-10,1.44717e-08,768.198,-768.234,-2.98493e-07,1.44734e-08,-1.44738e-08,-5.62379e-18
-0.590025,-0.61,0.0990502,0.01,-22.9718,186.05,-26.0088,25.9715,780.476,-4.8986e-10,4.89481e-10,1.47046e-08,780.89,-780.928,-6.29525e-07,1.47126e-08,-1.4713e-08,-1.18606e-17
-0.580025,-0.61,0.0918151,0.01,-27.5778,186.05,-39.9836,39.9452,792.798,-7.53147e-10,7.52758e-10,1.49368e-08,793.786,-793.824,-9.92484e-07,1.49555e-08,-1.49559e-08,-1.8699e-17
-0.570025,-0.61,0.0851416,0.01,-32.1798,186.05,-54.6272,54.5876,805.052,-1.02904e-09,1.02863e-09,1.51676e-08,806.882,-806.922,-1.4026e-06,1.52023e-08,-1.52027e-08,-2.64257e-17
-0.560025,-0.61,0.0785951,0.01,-36.7764,186.05,-69.9589,69.9182,817.212,-1.31789e-09,1.31748e-09,1.53968e-08,820.179,-820.22,-1.72218e-06,1.54528e-08,-1.54532e-08,-3.24469e-17
-0.550025,-0.61,0.0714344,0.01,-41.3659,186.05,-85.9978,85.9561,829.25,-1.62007e-09,1.61964e-09,1.56236e-08,833.674,-833.716,-2.02916e-06,1.57071e-08,-1.57075e-08,-3.82306e-17
-0.540025,-0.61,0.0650273,0.01,-45.9469,186.05,-102.762,102.72,841.136,-1.93591e-09,1.93548e-09,1.58475e-08,847.366,-847.408,-8.6747e-06,1.5965e-08,-1.59655e-08,-1.63436e-16
-0.530025,-0.61,0.0586685,0.01,-50.5176,186.05,-120.27,120.227,852.837,-2.26577e-09,2.26533e-09,1.60679e-08,861.251,-861.294,3.51883e-05,1.62266e-08,-1.62271e-08,6.62969e-16
-0.520025,-0.61,0.0516446,0.01,-55.0762,186.05,-138.538,138.494,864.318,-2.60995e-09,2.6095e-09,1.62843e-08,875.325,-875.369,-4.01369e-05,1.64918e-08,-1.64923e-08,-7.56202e-16
-0.510025,-0.61,0.045742,0.01,-59.621,186.05,-157.584,157.535,875.548,-2.96876e-09,2.96826e-09,1.64958e-08,889.588,-889.637,-0.00156533,1.67606e-08,-1.67611e-08,-2.94917e-14
-0.500025,-0.61,0.0392695,0.01,-64.15,186.05,-177.428,177.393,886.465,-3.34269e-09,3.34234e-09,1.67015e-08,904.027,-904.061,0.0165109,1.70325e-08,-1.70329e-08,3.11075e-13
-0.490025,-0.61,0.0325555,0.01,-68.6613,186.05,-197.432,198.422,896.065,-3.72404e-09,3.73408e-09,1.68824e-08,918.158,-917.169,0.111099,1.72943e-08,-1.72843e-08,2.09317e-12
-0.480025,-0.61,0.027886,0.01,-73.1528,186.05,-215.801,220.401,903.483,-4.08581e-09,4.13248e-09,1.70221e-08,931.735,-927.135,-0.457246,1.75344e-08,-1.74878e-08,-8.61478e-12
-0.470025,-0.61,0.0204018,0.01,-77.6223,186.05,-235.641,243.459,910.417,-4.47361e-09,4.55292e-09,1.71528e-08,945.314,-937.496,-0.452604,1.77763e-08,-1.7697e-08,-8.52733e-12
-0.460025,-0.61,0.0148299,0.01,-82.0676,186.05,-253.782,267.185,912.839,-4.83967e-09,4.97564e-09,1.71984e-08,955.978,-942.575,-0.511602,1.79529e-08,-1.78169e-08,-9.63889e-12
-0.450025,-0.61,0.0110471,0.01,-86.487,186.05,-268.496,284.81,921.132,-5.12956e-09,5.29506e-09,1.73547e-08,969.908,-953.594,-7.50467,1.82027e-08,-1.80372e-08,-1.41392e-10
0.449975,-0.61,0.0109983,0.01,-86.5089,186.05,-268.52,284.903,-921.159,-5.13031e-09,5.29651e-09,-1.73552e-08,969.984,-953.602,7.55836,1.82038e-08,-1.80376e-08,1.42404e-10
0.459975,-0.61,0.0148138,0.01,-82.0896,186.05,-253.8,267.323,-912.843,-4.84053e-09,4.97772e-09,-1.71985e-08,956.063,-942.54,0.536445,1.7954e-08,-1.78168e-08,1.01069e-11
0.469975,-0.61,0.0203657,0.01,-77.6444,186.05,-235.724,243.583,-910.439,-4.47535e-09,4.55508e-09,-1.71532e-08,945.382,-937.522,0.454343,1.77774e-08,-1.76976e-08,8.56009e-12
0.479975,-0.61,0.0278698,0.01,-73.1751,186.05,-215.901,220.517,-903.523,-4.08777e-09,4.1346e-09,-1.70229e-08,931.807,-927.191,0.455,1.75357e-08,-1.74889e-08,8.57247e-12
0.489975,-0.61,0.0325263,0.01,-68.6837,186.05,-197.534,198.526,-896.115,-3.72597e-09,3.73603e-09,-1.68833e-08,918.23,-917.239,-0.1101,1.72957e-08,-1.72856e-08,-2.07435e-12
0.499975,-0.61,0.0392326,0.01,-64.1725,186.05,-177.528,177.494,-886.519,-3.34458e-09,3.34424e-09,-1.67025e-08,904.099,-904.133,-0.0166649,1.70339e-08,-1.70342e-08,-3.13976e-13
0.509975,-0.61,0.0457162,0.01,-59.6436,186.05,-157.68,157.632,-875.604,-2.97058e-09,2.97009e-09,-1.64969e-08,889.66,-889.708,0.00156054,1.67619e-08,-1.67624e-08,2.94015e-14
0.519975,-0.61,0.0516121,0.01,-55.0988,186.05,-138.631,138.587,-864.375,-2.6117e-09,2.61125e-09,-1.62853e-08,875.396,-875.44,4.41953e-05,1.64932e-08,-1.64936e-08,8.32665e-16
0.529975,-0.61,0.0586314,0.01,-50.5403,186.05,-120.359,120.315,-852.894,-2.26745e-09,2.267e-09,-1.6069e-08,861.32,-861.364,-3.58378e-05,1.6228e-08,-1.62284e-08,-6.75206e-16
0.539975,-0.61,0.0649977,0.01,-45.9696,186.05,-102.847,102.805,-841.194,-1.93752e-09,1.93709e-09,-1.58486e-08,847.434,-847.477,8.71123e-06,1.59663e-08,-1.59668e-08,1.64125e-16
0.549975,-0.61,0.0714005,0.01,-41.3887,186.05,-86.0793,86.0376,-829.31,-1.6216e-09,1.62118e-09,-1.56247e-08,833.742,-833.784,2.03829e-06,1.57084e-08,-1.57088e-08,3.84025e-17
0.559975,-0.61,0.078558,0.01,-36.7992,186.05,-70.0369,69.9962,-817.272,-1.31936e-09,1.31895e-09,-1.53979e-08,820.246,-820.286,1.72235e-06,1.54541e-08,-1.54545e-08,3.24501e-17
0.569975,-0.61,0.0851101,0.01,-32.2027,186.05,-54.7017,54.6621,-805.113,-1.03044e-09,1.03004e-09,-1.51688e-08,806.948,-806.987,1.40461e-06,1.52035e-08,-1.52039e-08,2.64637e-17
0.579975,-0.61,0.0917805,0.01,-27.6007,186.05,-40.0548,40.0163,-792.859,-7.54488e-10,7.54098e-10,-1.49379e-08,793.85,-793.889,9.94262e-07,1.49568e-08,-1.49572e-08,1.87325e-17
0.589975,-0.61,0.099013,0.01,-22.9947,186.05,-26.0767,26.0394,-780.538,-4.91138e-10,4.9076e-10,-1.47058e-08,780.954,-780.991,6.31195e-07,1.47138e-08,-1.47142e-08,1.18921e-17
0.599975,-0.61,0.105886,0.01,-18.3861,186.05,-12.7479,12.7117,-768.173,-2.4002e-10,2.39653e-10,-1.44728e-08,768.26,-768.296,3.00054e-07,1.44746e-08,-1.4475e-08,5.65318e-18
0.609975,-0.61,0.112719,0.01,-13.7762,186.05,-0.0483151,0.0133021,-755.787,-7.58054e-13,4.0285e-13,-1.42395e-08,755.769,-755.804,9.12163e-10,1.42393e-08,-1.42396e-08,1.71857e-20
0.619975,-0.61,0.119998,0.01,-9.16625,186.05,12.0419,-12.0757,-743.401,2.27023e-10,-2.27366e-10,-1.40061e-08,743.481,-743.515,-2.66415e-07,1.40078e-08,-1.40081e-08,-5.01942e-18
0.629975,-0.61,0.127261,0.01,-4.55754,186.05,23.5426,-23.5753,-731.033,4.43699e-10,-4.44031e-10,-1.37731e-08,731.396,-731.429,-5.01724e-07,1.37801e-08,-1.37804e-08,-9.45277e-18
0.639975,-0.61,0.134204,0.01,0.0488154,186.05,34.4739,-34.5055,-718.703,6.49645e-10,-6.49965e-10,-1.35408e-08,719.514,-719.546,-7.05422e-07,1.35562e-08,-1.35565e-08,-1.32906e-17
0.649975,-0.61,0.141513,0.01,4.65173,186.05,44.8553,-44.8858,-706.425,8.45233e-10,-8.45542e-10,-1.33095e-08,707.833,-707.864,-8.79446e-07,1.33361e-08,-1.33364e-08,-1.65693e-17
0.659975,-0.61,0.149135,0.01,9.25016,186.05,54.7065,-54.7359,-694.215,1.03083e-09,-1.03113e-09,-1.30794e-08,696.353,-696.383,-1.02515e-06,1.31198e-08,-1.31201e-08,-1.93145e-17
0.669975,-0.61,0.156228,0.01,13.8431,186.05,64.0468,-64.075,-682.085,1.2068e-09,-1.20709e-09,-1.28509e-08,685.073,-685.101,-1.14433e-06,1.29073e-08,-1.29076e-08,-2.15598e-17
0.679975,-0.61,0.16356,0.01,18.4297,186.05,72.895,-72.9222,-670.049,1.3735e-09,-1.37378e-09,-1.26241e-08,673.99,-674.018,-1.23911e-06,1.26985e-08,-1.26988e-08,-2.33455e-17
0.689975,-0.61,0.171161,0.01,23.009,186.05,81.27,-81.2961,-658.117,1.53129e-09,-1.53155e-09,-1.23993e-08,663.104,-663.131,-1.31096e-06,1.24934e-08,-1.24937e-08,-2.46993e-17
0.699975,-0.61,0.17879,0.01,27.5801,186.05,89.1898,-89.215,-646.299,1.6805e-09,-1.68075e-09,-1.21766e-08,652.413,-652.438,-1.36169e-06,1.2292e-08,-1.22922e-08,-2.5655e-17
0.709975,-0.61,0.186138,0.01,32.1423,186.05,96.6726,-96.6967,-634.604,1.82147e-09,-1.82172e-09,-1.19563e-08,641.915,-641.939,-1.39399e-06,1.20941e-08,-1.20944e-08,-2.62636e-17
0.719975,-0.61,0.193723,0.01,36.6949,186.05,103.736,-103.759,-623.04,1.95454e-09,-1.95477e-09,-1.17384e-08,631.607,-631.63,-1.40998e-06,1.18999e-08,-1.19002e-08,-2.65649e-17
0.729975,-0.61,0.20152,0.01,41.2371,186.05,110.396,-110.418,-611.613,2.08002e-09,-2.08025e-09,-1.15231e-08,621.487,-621.51,-1.41044e-06,1.17093e-08,-1.17095e-08,-2.65735e-17
0.739975,-0.61,0.209247,0.01,45.7683,186.05,116.67,-116.691,-600.331,2.19823e-09,-2.19844e-09,-1.13106e-08,611.554,-611.575,-1.39719e-06,1.15221e-08,-1.15223e-08,-2.63238e-17
0.749975,-0.61,0.21682,0.01,50.2877,186.05,122.576,-122.601,-589.2,2.30951e-09,-2.30976e-09,-1.11009e-08,601.806,-601.83,0.00297647,1.13385e-08,-1.13387e-08,5.60784e-14
0.759975,-0.61,0.224583,0.01,54.795,186.05,127.947,-129.818,-579.804,2.41873e-09,-2.43771e-09,-1.09238e-08,593.02,-594.89,0.387597,1.1181e-08,-1.11999e-08,7.30256e-12
0.769975,-0.61,0.232517,0.01,59.2894,186.05,130.992,-138.801,-573.307,2.50192e-09,-2.58114e-09,-1.08014e-08,585.059,-592.868,0.159278,1.10568e-08,-1.1136e-08,3.00089e-12
0.779975,-0.61,0.240451,0.01,63.7705,186.05,132.632,-147.24,-566.52,2.56237e-09,-2.71058e-09,-1.06736e-08,576.242,-590.851,-0.701691,1.09203e-08,-1.10685e-08,-1.32203e-11
-0.790025,-0.6,0.242116,0.01,64.8235,180,153.4,-160.359,558.764,2.9204e-09,-2.99099e-09,1.05274e-08,576.889,-583.848,-1.1528,1.08992e-08,-1.09698e-08,-2.17195e-11
-0.780025,-0.6,0.234178,0.01,60.3009,180,147.427,-154.488,566.84,2.80832e-09,-2.87994e-09,1.06796e-08,583.067,-590.127,-0.491223,1.1016e-08,-1.10876e-08,-9.25492e-12
-0.770025,-0.6,0.226403,0.01,55.7634,180,143.168,-146.18,574.775,2.71047e-09,-2.74102e-09,1.08291e-08,591.197,-594.209,0.21405,1.11516e-08,-1.11821e-08,4.03283e-12
-0.760025,-0.6,0.218571,0.01,51.2115,180,138.965,-139.505,583.959,2.62053e-09,-2.626e-09,1.10021e-08,600.059,-600.598,0.111975,1.13078e-08,-1.13133e-08,2.10967e-12
-0.750025,-0.6,0.210584,0.01,46.6457,180,133.837,-133.857,594.785,2.52165e-09,-2.52186e-09,1.12061e-08,609.649,-609.67,1.46737e-06,1.14862e-08,-1.14864e-08,2.76461e-17
-0.740025,-0.6,0.202776,0.01,42.0665,180,128.094,-128.115,606.282,2.41346e-09,-2.41368e-09,1.14227e-08,619.657,-619.679,1.50802e-06,1.16748e-08,-1.1675e-08,2.8412e-17
-0.730025,-0.6,0.195168,0.01,37.4745,180,121.977,-121.999,617.944,2.29821e-09,-2.29844e-09,1.16424e-08,629.858,-629.881,1.53789e-06,1.1867e-08,-1.18672e-08,2.89748e-17
-0.720025,-0.6,0.187534,0.01,32.8703,180,115.468,-115.491,629.767,2.17558e-09,-2.17582e-09,1.18652e-08,640.255,-640.279,1.55543e-06,1.20629e-08,-1.20631e-08,2.93052e-17
-0.710025,-0.6,0.179685,0.01,28.2546,180,108.55,-108.574,641.745,2.04525e-09,-2.0455e-09,1.20908e-08,650.851,-650.875,1.55805e-06,1.22625e-08,-1.22628e-08,2.93546e-17
-0.700025,-0.6,0.172059,0.01,23.628,180,101.205,-101.231,653.872,1.90687e-09,-1.90713e-09,1.23193e-08,661.647,-661.672,1.54396e-06,1.24659e-08,-1.24662e-08,2.9089e-17
-0.690025,-0.6,0.164687,0.01,18.9913,180,93.4152,-93.4419,666.139,1.76011e-09,-1.76038e-09,1.25505e-08,672.646,-672.673,1.5106e-06,1.26732e-08,-1.26734e-08,2.84606e-17
-0.680025,-0.6,0.157131,0.01,14.3452,180,85.1612,-85.189,678.54,1.60461e-09,-1.60489e-09,1.27841e-08,683.851,-683.879,1.45655e-06,1.28843e-08,-1.28846e-08,2.74422e-17
-0.670025,-0.6,0.149481,0.01,9.69066,180,76.4237,-76.4526,691.063,1.43999e-09,-1.44029e-09,1.302e-08,695.264,-695.292,1.37936e-06,1.30993e-08,-1.30996e-08,2.59879e-17
-0.660025,-0.6,0.142124,0.01,5.02846,180,67.1829,-67.213,703.7,1.2659e-09,-1.2662e-09,1.32581e-08,706.886,-706.916,1.27588e-06,1.33183e-08,-1.33186e-08,2.40384e-17
-0.650025,-0.6,0.135107,0.01,0.359535,180,57.4187,-57.4499,716.437,1.08194e-09,-1.08225e-09,1.34981e-08,718.72,-718.751,1.14468e-06,1.35412e-08,-1.35415e-08,2.15663e-17
-0.640025,-0.6,0.127435,0.01,-4.31512,180,47.1103,-47.1428,729.261,8.87726e-10,-8.88056e-10,1.37397e-08,730.766,-730.799,9.83493e-07,1.37682e-08,-1.37685e-08,1.85296e-17
-0.630025,-0.6,0.120098,0.01,-8.99449,180,36.2369,-36.2706,742.159,6.82871e-10,-6.83213e-10,1.39827e-08,743.028,-743.061,7.90144e-07,1.39992e-08,-1.39996e-08,1.48868e-17
-0.620025,-0.6,0.113169,0.01,-13.6775,180,24.7774,-24.8123,755.115,4.66972e-10,-4.67326e-10,1.42268e-08,755.504,-755.539,5.62707e-07,1.42343e-08,-1.42346e-08,1.06017e-17
-0.610025,-0.6,0.105921,0.01,-18.3629,180,12.7101,-12.7463,768.11,2.39623e-10,-2.3999e-10,1.44716e-08,768.197,-768.233,2.99586e-07,1.44734e-08,-1.44738e-08,5.64438e-18
-0.600025,-0.6,0.0986122,0.01,-23.0497,180,0.0136708,-0.0510708,781.125,4.20175e-13,-7.99596e-13,1.47169e-08,781.107,-781.144,6.18784e-10,1.47167e-08,-1.4717e-08,1.16582e-20
-0.590025,-0.6,0.0918124,0.01,-27.7364,180,-13.3337,13.2951,794.141,-2.51047e-10,2.50655e-10,1.49621e-08,794.233,-794.272,-3.37626e-07,1.4964e-08,-1.49644e-08,-6.36107e-18
-0.580025,-0.6,0.0849367,0.01,-32.4218,180,-27.3537,27.3138,807.134,-5.15185e-10,5.14781e-10,1.52069e-08,807.577,-807.617,-6.94069e-07,1.52154e-08,-1.52158e-08,-1.30767e-17
-0.570025,-0.6,0.0776745,0.01,-37.1044,180,-42.0678,42.0267,820.08,-7.92402e-10,7.91985e-10,1.54508e-08,821.136,-821.177,-1.09226e-06,1.54709e-08,-1.54713e-08,-2.05788e-17
-0.560025,-0.6,0.0710803,0.01,-41.7829,180,-57.4974,57.4551,832.952,-1.0831e-09,1.08267e-09,1.56933e-08,834.911,-834.953,-2.54703e-06,1.57304e-08,-1.57308e-08,-4.79874e-17
-0.550025,-0.6,0.0644822,0.01,-46.4556,180,-73.6636,73.6201,845.721,-1.38768e-09,1.38723e-09,1.59339e-08,848.9,-848.943,4.24952e-06,1.59939e-08,-1.59944e-08,8.00634e-17
-0.540025,-0.6,0.057303,0.01,-51.1209,180,-90.587,90.5424,858.358,-1.70652e-09,1.70606e-09,1.6172e-08,863.1,-863.144,-5.33385e-07,1.62615e-08,-1.62619e-08,-1.00493e-17
-0.530025,-0.6,0.0510814,0.01,-55.7771,180,-108.287,108.241,870.829,-2.04e-09,2.03953e-09,1.64069e-08,877.51,-877.556,-0.000359614,1.6533e-08,-1.65335e-08,-6.77533e-15
-0.520025,-0.6,0.0445556,0.01,-60.4226,180,-126.787,126.741,883.097,-2.38854e-09,2.38808e-09,1.66381e-08,892.126,-892.172,0.00311911,1.68084e-08,-1.68088e-08,5.87658e-14
-0.510025,-0.6,0.0375548,0.01,-65.0553,180,-146.072,146.044,895.104,-2.75195e-09,2.75167e-09,1.68643e-08,906.928,-906.956,-0.0105476,1.70872e-08,-1.70875e-08,-1.98723e-13
-0.500025,-0.6,0.0321797,0.01,-69.6734,180,-165.579,166.814,905.673,-3.12498e-09,3.1375e-09,1.70634e-08,921.413,-920.179,0.198963,1.73546e-08,-1.73421e-08,3.74859e-12
-0.490025,-0.6,0.0251546,0.01,-74.2749,180,-182.961,189.599,912.833,-3.47596e-09,3.54329e-09,1.71983e-08,934.965,-928.327,0.186311,1.75864e-08,-1.75191e-08,3.51021e-12
-0.480025,-0.6,0.0187222,0.01,-78.8577,180,-196.802,215.52,915.785,-3.78925e-09,3.97913e-09,1.72539e-08,948.062,-929.345,0.153951,1.77807e-08,-1.75908e-08,2.90053e-12
-0.470025,-0.6,0.0153527,0.01,-83.4198,180,-212.677,242.282,920.593,-4.13567e-09,4.43601e-09,1.73445e-08,963.084,-933.479,0.468428,1.80163e-08,-1.7716e-08,8.82546e-12
-0.460025,-0.6,0.00627686,0.01,-87.9569,180,-237.298,256.505,923.151,-4.55435e-09,4.7492e-09,1.73927e-08,965.201,-945.994,-1.18495,1.81014e-08,-1.79066e-08,-2.23252e-11
0.459975,-0.6,0.00623879,0.01,-87.9794,180,-237.245,256.663,-923.085,-4.55425e-09,4.75125e-09,-1.73915e-08,965.257,-945.838,1.21755,1.81016e-08,-1.79046e-08,2.29394e-11
0.469975,-0.6,0.0153048,0.01,-83.4424,180,-212.707,242.47,-920.589,-4.13693e-09,4.43888e-09,-1.73444e-08,963.186,-933.423,-0.478296,1.80176e-08,-1.77156e-08,-9.01136e-12
0.479975,-0.6,0.018698,0.01,-78.8804,180,-196.892,215.656,-915.815,-3.79114e-09,3.9815e-09,-1.72545e-08,948.14,-929.376,-0.162674,1.77819e-08,-1.75916e-08,-3.06487e-12
0.489975,-0.6,0.0251168,0.01,-74.2978,180,-183.066,189.709,-912.883,-3.47795e-09,3.54534e-09,-1.71992e-08,935.038,-928.394,-0.188751,1.75878e-08,-1.75204e-08,-3.55618e-12
0.499975,-0.6,0.0321585,0.01,-69.6964,180,-165.683,166.919,-905.73,-3.12693e-09,3.13947e-09,-1.70645e-08,921.489,-920.252,-0.201169,1.7356e-08,-1.73435e-08,-3.79013e-12
0.509975,-0.6,0.0375234,0.01,-65.0783,180,-146.169,146.141,-895.163,-2.75379e-09,2.75351e-09,-1.68654e-08,907.002,-907.03,0.0109003,1.70886e-08,-1.70889e-08,2.05368e-13
0.519975,-0.6,0.0445179,0.01,-60.4456,180,-126.881,126.835,-883.157,-2.39032e-09,2.38985e-09,-1.66392e-08,892.199,-892.245,-0.00316014,1.68097e-08,-1.68102e-08,-5.95388e-14
0.529975,-0.6,0.0510535,0.01,-55.8003,180,-108.377,108.331,-870.89,-2.04169e-09,2.04122e-09,-1.64081e-08,877.582,-877.628,0.000360352,1.65344e-08,-1.65348e-08,6.78924e-15
0.539975,-0.6,0.0572694,0.01,-51.1441,180,-90.673,90.6285,-858.42,-1.70814e-09,1.70769e-09,-1.61731e-08,863.171,-863.216,1.16247e-06,1.62628e-08,-1.62633e-08,2.19017e-17
0.549975,-0.6,0.0644447,0.01,-46.4788,180,-73.7459,73.7024,-845.784,-1.38923e-09,1.38878e-09,-1.59351e-08,848.97,-849.013,-4.36146e-06,1.59953e-08,-1.59957e-08,-8.21724e-17
0.559975,-0.6,0.0710495,0.01,-41.8061,180,-57.576,57.5336,-833.015,-1.08458e-09,1.08415e-09,-1.56945e-08,834.98,-835.022,2.555e-06,1.57317e-08,-1.57321e-08,4.81376e-17
0.569975,-0.6,0.0776399,0.01,-37.1277,180,-42.1427,42.1016,-820.144,-7.93814e-10,7.93397e-10,-1.5452e-08,821.204,-821.245,1.09567e-06,1.54721e-08,-1.54726e-08,2.06431e-17
0.579975,-0.6,0.0848993,0.01,-32.4451,180,-27.4251,27.3852,-807.198,-5.16531e-10,5.16127e-10,-1.52081e-08,807.644,-807.683,6.95759e-07,1.52166e-08,-1.52171e-08,1.31085e-17
0.589975,-0.6,0.0917801,0.01,-27.7597,180,-13.4017,13.3631,-794.206,-2.52328e-10,2.51936e-10,-1.49633e-08,794.299,-794.338,3.39448e-07,1.49652e-08,-1.49656e-08,6.3954e-18
0.599975,-0.6,0.098577,0.01,-23.073,180,-0.051078,0.0136718,-781.19,-7.99703e-13,4.20219e-13,-1.47181e-08,781.171,-781.209,8.82414e-10,1.47179e-08,-1.47183e-08,1.66252e-20
0.609975,-0.6,0.105883,0.01,-18.3862,180,12.6486,-12.6847,-768.174,2.38464e-10,-2.3883e-10,-1.44728e-08,768.261,-768.297,-2.98275e-07,1.44746e-08,-1.4475e-08,-5.61966e-18
0.619975,-0.6,0.113136,0.01,-13.7008,180,24.7189,-24.7538,-755.179,4.6587e-10,-4.66224e-10,-1.4228e-08,755.567,-755.602,-5.61388e-07,1.42355e-08,-1.42358e-08,-1.05769e-17
0.629975,-0.6,0.120062,0.01,-9.01777,180,36.1814,-36.2151,-742.224,6.81825e-10,-6.82167e-10,-1.39839e-08,743.089,-743.123,-7.89191e-07,1.40004e-08,-1.40007e-08,-1.48688e-17
0.639975,-0.6,0.127398,0.01,-4.33838,180,47.0576,-47.0901,-729.325,8.86734e-10,-8.87064e-10,-1.37409e-08,730.827,-730.859,-9.82664e-07,1.37693e-08,-1.37697e-08,-1.8514e-17
0.649975,-0.6,0.135073,0.01,0.336301,180,57.3688,-57.4,-716.5,1.081e-09,-1.08131e-09,-1.34993e-08,718.779,-718.81,-1.14405e-06,1.35423e-08,-1.35427e-08,-2.15546e-17
0.659975,-0.6,0.142088,0.01,5.00525,180,67.1357,-67.1658,-703.763,1.26501e-09,-1.26531e-09,-1.32593e-08,706.944,-706.974,-1.27522e-06,1.33194e-08,-1.33197e-08,-2.40258e-17
0.669975,-0.6,0.149444,0.01,9.66749,180,76.379,-76.4079,-691.126,1.43915e-09,-1.43944e-09,-1.30212e-08,695.321,-695.35,-1.37851e-06,1.31004e-08,-1.31007e-08,-2.5972e-17
0.679975,-0.6,0.157092,0.01,14.3221,180,85.119,-85.1468,-678.602,1.60381e-09,-1.60409e-09,-1.27853e-08,683.907,-683.935,-1.45637e-06,1.28853e-08,-1.28856e-08,-2.74389e-17
0.689975,-0.6,0.164651,0.01,18.9682,180,93.3754,-93.402,-666.201,1.75936e-09,-1.75963e-09,-1.25516e-08,672.701,-672.728,-1.51075e-06,1.26742e-08,-1.26745e-08,-2.84634e-17
0.699975,-0.6,0.172022,0.01,23.605,180,101.168,-101.193,-653.932,1.90617e-09,-1.90643e-09,-1.23205e-08,661.701,-661.726,-1.54375e-06,1.24669e-08,-1.24672e-08,-2.90851e-17
0.709975,-0.6,0.179647,0.01,28.2316,180,108.514,-108.539,-641.805,2.04458e-09,-2.04483e-09,-1.2092e-08,650.904,-650.928,-1.55799e-06,1.22635e-08,-1.22638e-08,-2.93535e-17
0.719975,-0.6,0.187495,0.01,32.8474,180,115.434,-115.458,-629.826,2.17495e-09,-2.17519e-09,-1.18663e-08,640.308,-640.331,-1.55578e-06,1.20639e-08,-1.20641e-08,-2.93117e-17
0.729975,-0.6,0.195131,0.01,37.4517,180,121.945,-121.968,-618.002,2.29762e-09,-2.29784e-09,-1.16435e-08,629.91,-629.932,-1.53855e-06,1.1868e-08,-1.18682e-08,-2.89871e-17
0.739975,-0.6,0.202738,0.01,42.0437,180,128.064,-128.086,-606.339,2.4129e-09,-2.41312e-09,-1.14238e-08,619.708,-619.729,-1.50828e-06,1.16757e-08,-1.1676e-08,-2.84169e-17
0.749975,-0.6,0.210545,0.01,46.623,180,133.809,-133.83,-594.842,2.52113e-09,-2.52134e-09,-1.12072e-08,609.698,-609.719,-1.46723e-06,1.14872e-08,-1.14874e-08,-2.76436e-17
0.759975,-0.6,0.218531,0.01,51.1889,180,138.94,-139.479,-584.015,2.62005e-09,-2.62552e-09,-1.10032e-08,600.107,-600.647,-0.111962,1.13087e-08,-1.13142e-08,-2.10942e-12
0.769975,-0.6,0.226364,0.01,55.7408,180,143.144,-146.156,-574.83,2.71001e-09,-2.74056e-09,-1.08301e-08,591.245,-594.257,-0.214062,1.11525e-08,-1.1183e-08,-4.03305e-12
0.779975,-0.6,0.234138,0.01,60.2784,180,147.404,-154.465,-566.895,2.80788e-09,-2.87952e-09,-1.06806e-08,583.113,-590.175,0.491155,1.10169e-08,-1.10885e-08,9.25364e-12
0.789975,-0.6,0.242076,0.01,64.801,180,153.378,-160.338,-558.819,2.91998e-09,-2.99059e-09,-1.05285e-08,576.935,-583.895,1.1526,1.09e-08,-1.09707e-08,2.17156e-11
-0.800025,-0.59,0.244265,0.01,65.9643,174.05,168.236,-171.293,551.995,3.18295e-09,-3.21397e-09,1.03999e-08,575.981,-579.038,0.8973,1.08651e-08,-1.08961e-08,1.69057e-11
-0.790025,-0.59,0.236272,0.01,61.4023,174.05,162.654,-167.195,560.283,3.08424e-09,-3.13031e-09,1.05561e-08,581.781,-586.322,0.938919,1.09808e-08,-1.10269e-08,1.76898e-11
-0.780025,-0.59,0.22813,0.01,56.824,174.05,159.303,-162.019,568.153,3.01317e-09,-3.04073e-09,1.07043e-08,589.074,-591.79,0.0364284,1.11103e-08,-1.11379e-08,6.86331e-13
-0.770025,-0.59,0.220142,0.01,52.2296,174.05,155.245,-155.771,577.578,2.92719e-09,-2.93252e-09,1.08819e-08,597.884,-598.41,0.121662,1.12668e-08,-1.12721e-08,2.29218e-12
-0.760025,-0.59,0.212323,0.01,47.6196,174.05,150.633,-150.653,588.579,2.8381e-09,-2.83831e-09,1.10892e-08,607.542,-607.562,1.48298e-06,1.14465e-08,-1.14467e-08,2.79402e-17
-0.750025,-0.59,0.204607,0.01,42.9947,174.05,145.429,-145.449,600.258,2.74005e-09,-2.74026e-09,1.13092e-08,617.616,-617.637,1.55083e-06,1.16363e-08,-1.16365e-08,2.92185e-17
-0.740025,-0.59,0.196562,0.01,38.3551,174.05,139.862,-139.884,612.123,2.63517e-09,-2.6354e-09,1.15328e-08,627.89,-627.911,1.60954e-06,1.18299e-08,-1.18301e-08,3.03247e-17
-0.730025,-0.59,0.188703,0.01,33.7016,174.05,133.916,-133.939,624.171,2.52316e-09,-2.52339e-09,1.17597e-08,638.366,-638.389,1.65818e-06,1.20273e-08,-1.20275e-08,3.12411e-17
-0.720025,-0.59,0.181056,0.01,29.0347,174.05,127.574,-127.598,636.396,2.40368e-09,-2.40392e-09,1.19901e-08,649.048,-649.072,1.69523e-06,1.22285e-08,-1.22288e-08,3.19391e-17
-0.710025,-0.59,0.173529,0.01,24.355,174.05,120.818,-120.843,648.795,2.27638e-09,-2.27664e-09,1.22237e-08,659.939,-659.963,1.71812e-06,1.24337e-08,-1.2434e-08,3.23704e-17
-0.700025,-0.59,0.16562,0.01,19.6633,174.05,113.627,-113.653,661.362,2.14092e-09,-2.14118e-09,1.24604e-08,671.041,-671.067,1.72458e-06,1.26429e-08,-1.26432e-08,3.2492e-17
-0.690025,-0.59,0.157948,0.01,14.9602,174.05,105.984,-106.011,674.088,1.99692e-09,-1.99719e-09,1.27002e-08,682.357,-682.385,1.71161e-06,1.28561e-08,-1.28564e-08,3.22478e-17
-0.680025,-0.59,0.150549,0.01,10.2465,174.05,97.868,-97.8964,686.967,1.84401e-09,-1.8443e-09,1.29429e-08,693.891,-693.919,1.67795e-06,1.30734e-08,-1.30737e-08,3.16135e-17
-0.670025,-0.59,0.143076,0.01,5.52303,174.05,89.2587,-89.2882,699.989,1.68181e-09,-1.68211e-09,1.31882e-08,705.644,-705.674,1.62095e-06,1.32949e-08,-1.32952e-08,3.05396e-17
-0.660025,-0.59,0.135371,0.01,0.790625,174.05,80.1351,-80.1659,713.144,1.50993e-09,-1.51024e-09,1.34361e-08,717.619,-717.65,1.53688e-06,1.35205e-08,-1.35208e-08,2.89557e-17
-0.650025,-0.59,0.127984,0.01,-3.94979,174.05,70.4757,-70.5078,726.422,1.32794e-09,-1.32827e-09,1.36862e-08,729.818,-729.85,1.42375e-06,1.37503e-08,-1.37507e-08,2.68243e-17
-0.640025,-0.59,0.120973,0.01,-8.69725,174.05,60.2587,-60.292,739.808,1.13545e-09,-1.13579e-09,1.39384e-08,742.243,-742.276,1.27919e-06,1.39844e-08,-1.39848e-08,2.41007e-17
-0.630025,-0.59,0.113327,0.01,-13.4507,174.05,49.4617,-49.4963,753.289,9.32037e-10,-9.32388e-10,1.41924e-08,754.895,-754.93,1.10079e-06,1.42228e-08,-1.42232e-08,2.07394e-17
-0.620025,-0.59,0.105957,0.01,-18.2092,174.05,38.0618,-38.0978,766.85,7.17263e-10,-7.17628e-10,1.44479e-08,767.777,-767.813,8.85515e-07,1.44655e-08,-1.44659e-08,1.66836e-17
-0.610025,-0.59,0.0990481,0.01,-22.9714,174.05,26.0362,-26.0735,780.473,4.90699e-10,-4.91077e-10,1.47046e-08,780.889,-780.927,6.30786e-07,1.47126e-08,-1.47129e-08,1.18844e-17
-0.600025,-0.59,0.0918152,0.01,-27.7362,174.05,13.3614,-13.4001,794.139,2.51905e-10,-2.52297e-10,1.4962e-08,794.233,-794.271,3.39149e-07,1.4964e-08,-1.49644e-08,6.38977e-18
-0.590025,-0.59,0.08447,0.01,-32.5024,174.05,0.0140445,-0.0540452,807.828,4.38522e-13,-8.44327e-13,1.52199e-08,807.808,-807.848,1.06634e-09,1.52197e-08,-1.52202e-08,2.00904e-20
-0.580025,-0.59,0.0777197,0.01,-37.2685,174.05,-14.0295,13.9881,821.517,-2.64144e-10,2.63725e-10,1.54778e-08,821.615,-821.657,-5.13033e-07,1.54799e-08,-1.54803e-08,-9.66584e-18
-0.570025,-0.59,0.0708347,0.01,-42.0333,174.05,-28.7928,28.7501,835.18,-5.42287e-10,5.41854e-10,1.57353e-08,835.655,-835.697,1.58507e-07,1.57444e-08,-1.57448e-08,2.98637e-18
-0.560025,-0.59,0.0635345,0.01,-46.7951,174.05,-44.2993,44.2552,848.793,-8.34433e-10,8.33986e-10,1.59917e-08,849.925,-849.969,-5.99766e-07,1.60133e-08,-1.60137e-08,-1.12999e-17
-0.550025,-0.59,0.0570589,0.01,-51.5526,174.05,-60.5722,60.5268,862.325,-1.14102e-09,1.14056e-09,1.62467e-08,864.425,-864.471,-6.31e-05,1.62865e-08,-1.62869e-08,-1.18884e-15
-0.540025,-0.59,0.0503857,0.01,-56.3039,174.05,-77.635,77.5882,875.746,-1.46249e-09,1.46201e-09,1.64996e-08,879.155,-879.201,0.000482411,1.6564e-08,-1.65645e-08,9.0889e-15
-0.530025,-0.59,0.0431787,0.01,-61.0475,174.05,-95.5044,95.4616,889.015,-1.79917e-09,1.79874e-09,1.67496e-08,894.106,-894.149,-0.000792852,1.68457e-08,-1.68461e-08,-1.49378e-14
-0.520025,-0.59,0.0372837,0.01,-65.7816,174.05,-114.223,114.13,902.163,-2.15162e-09,2.15067e-09,1.69973e-08,909.313,-909.406,-0.0207471,1.71324e-08,-1.71333e-08,-3.90887e-13
-0.510025,-0.59,0.0304697,0.01,-70.5042,174.05,-133.561,134.416,914.106,-2.52008e-09,2.52875e-09,1.72223e-08,924.301,-923.446,0.361548,1.74106e-08,-1.7402e-08,6.81178e-12
-0.500025,-0.59,0.0235281,0.01,-75.2134,174.05,-151.09,156.867,922.209,-2.87174e-09,2.93035e-09,1.73749e-08,937.863,-932.086,0.678965,1.76448e-08,-1.75862e-08,1.27921e-11
-0.490025,-0.59,0.0194613,0.01,-79.9073,174.05,-164.162,181.178,926.623,-3.16689e-09,3.33952e-09,1.74581e-08,951.082,-934.065,-0.356776,1.7845e-08,-1.76723e-08,-6.72187e-12
-0.480025,-0.59,0.0111091,0.01,-84.5833,174.05,-177.555,213.23,928.047,-3.50034e-09,3.86226e-09,1.74849e-08,966.227,-930.552,2.53559,1.80492e-08,-1.76872e-08,4.7772e-11
0.479975,-0.59,0.0110683,0.01,-84.6065,174.05,-177.654,213.378,-928.059,-3.50242e-09,3.86485e-09,-1.74852e-08,966.289,-930.564,-2.55818,1.80501e-08,-1.76877e-08,-4.81976e-11
0.489975,-0.59,0.0194518,0.01,-79.9306,174.05,-164.276,181.305,-926.674,-3.16909e-09,3.34185e-09,-1.74591e-08,951.161,-934.132,0.341874,1.78464e-08,-1.76736e-08,6.44111e-12
0.499975,-0.59,0.0234991,0.01,-75.2368,174.05,-151.207,156.977,-922.274,-2.87391e-09,2.93245e-09,-1.73762e-08,937.943,-932.172,-0.688534,1.76463e-08,-1.75878e-08,-1.29724e-11
0.509975,-0.59,0.030431,0.01,-70.5277,174.05,-133.665,134.514,-914.173,-2.52201e-09,2.53063e-09,-1.72236e-08,924.38,-923.53,-0.362761,1.74122e-08,-1.74035e-08,-6.83463e-12
0.519975,-0.59,0.0372588,0.01,-65.8051,174.05,-114.319,114.225,-902.229,-2.15342e-09,2.15247e-09,-1.69985e-08,909.39,-909.484,0.020678,1.71338e-08,-1.71348e-08,3.89586e-13
0.529975,-0.59,0.0431456,0.01,-61.0711,174.05,-95.5953,95.5525,-889.08,-1.80088e-09,1.80045e-09,-1.67508e-08,894.181,-894.224,0.000847083,1.68471e-08,-1.68475e-08,1.59595e-14
0.539975,-0.59,0.0503475,0.01,-56.3276,174.05,-77.7219,77.6751,-875.812,-1.46412e-09,1.46365e-09,-1.65008e-08,879.228,-879.275,-0.00048999,1.65654e-08,-1.65658e-08,-9.2317e-15
0.549975,-0.59,0.0570292,0.01,-51.5762,174.05,-60.6551,60.6096,-862.392,-1.14258e-09,1.14212e-09,-1.6248e-08,864.498,-864.544,6.33618e-05,1.62878e-08,-1.62883e-08,1.19377e-15
0.559975,-0.59,0.0635001,0.01,-46.8188,174.05,-44.3783,44.3343,-848.86,-8.35921e-10,8.35474e-10,-1.5993e-08,849.996,-850.041,6.91537e-07,1.60146e-08,-1.60151e-08,1.3029e-17
0.569975,-0.59,0.0707968,0.01,-42.057,174.05,-28.868,28.8253,-835.248,-5.43705e-10,5.43272e-10,-1.57366e-08,835.725,-835.768,-1.7291e-07,1.57457e-08,-1.57462e-08,-3.25773e-18
0.579975,-0.59,0.0776879,0.01,-37.2922,174.05,-14.1011,14.0598,-821.585,-2.65493e-10,2.65074e-10,-1.54791e-08,821.685,-821.726,5.15749e-07,1.54812e-08,-1.54816e-08,9.71701e-18
0.589975,-0.59,0.0844349,0.01,-32.5261,174.05,-0.0540529,0.0140454,-807.896,-8.44442e-13,4.38569e-13,-1.52212e-08,807.876,-807.916,1.00167e-09,1.5221e-08,-1.52214e-08,1.8872e-20
0.599975,-0.59,0.0917774,0.01,-27.7599,174.05,13.2967,-13.3354,-794.207,2.50686e-10,-2.51078e-10,-1.49633e-08,794.3,-794.338,-3.37839e-07,1.49652e-08,-1.49656e-08,-6.36509e-18
0.609975,-0.59,0.0990151,0.01,-22.9951,174.05,25.9748,-26.0121,-780.541,4.89542e-10,-4.8992e-10,-1.47058e-08,780.955,-780.992,-6.29612e-07,1.47138e-08,-1.47142e-08,-1.18623e-17
0.619975,-0.59,0.105921,0.01,-18.2328,174.05,38.0036,-38.0396,-766.918,7.16166e-10,-7.16531e-10,-1.44492e-08,767.842,-767.878,-8.83945e-07,1.44667e-08,-1.44671e-08,-1.6654e-17
0.629975,-0.59,0.11329,0.01,-13.4744,174.05,49.4065,-49.4411,-753.357,9.30997e-10,-9.31349e-10,-1.41937e-08,754.959,-754.993,-1.09972e-06,1.4224e-08,-1.42244e-08,-2.07193e-17
0.639975,-0.59,0.12094,0.01,-8.72087,174.05,60.2065,-60.2398,-739.875,1.13447e-09,-1.13481e-09,-1.39397e-08,742.305,-742.338,-1.27883e-06,1.39856e-08,-1.39859e-08,-2.40939e-17
0.649975,-0.59,0.127949,0.01,-3.97338,174.05,70.4263,-70.4584,-726.488,1.32701e-09,-1.32734e-09,-1.36875e-08,729.879,-729.911,-1.42352e-06,1.37515e-08,-1.37518e-08,-2.682e-17
0.659975,-0.59,0.135334,0.01,0.767069,174.05,80.0884,-80.1192,-713.21,1.50905e-09,-1.50936e-09,-1.34373e-08,717.679,-717.71,-1.53637e-06,1.35216e-08,-1.35219e-08,-2.89461e-17
0.669975,-0.59,0.143037,0.01,5.49951,174.05,89.2146,-89.2442,-700.054,1.68098e-09,-1.68128e-09,-1.31894e-08,705.703,-705.733,-1.6204e-06,1.3296e-08,-1.32963e-08,-3.05293e-17
0.679975,-0.59,0.150513,0.01,10.223,174.05,97.8264,-97.8548,-687.031,1.84323e-09,-1.84352e-09,-1.29441e-08,693.949,-693.977,-1.67807e-06,1.30745e-08,-1.30748e-08,-3.16158e-17
0.689975,-0.59,0.15791,0.01,14.9368,174.05,105.945,-105.972,-674.152,1.99618e-09,-1.99646e-09,-1.27014e-08,682.414,-682.441,-1.71169e-06,1.28572e-08,-1.28575e-08,-3.22493e-17
0.699975,-0.59,0.165581,0.01,19.6399,174.05,113.59,-113.616,-661.424,2.14022e-09,-2.14049e-09,-1.24616e-08,671.097,-671.123,-1.72391e-06,1.2644e-08,-1.26442e-08,-3.24795e-17
0.709975,-0.59,0.173489,0.01,24.3317,174.05,120.783,-120.808,-648.857,2.27573e-09,-2.27598e-09,-1.22249e-08,659.993,-660.018,-1.71767e-06,1.24348e-08,-1.2435e-08,-3.23619e-17
0.719975,-0.59,0.181018,0.01,29.0115,174.05,127.542,-127.566,-636.458,2.40307e-09,-2.40331e-09,-1.19912e-08,649.102,-649.125,-1.69537e-06,1.22296e-08,-1.22298e-08,-3.19418e-17
0.729975,-0.59,0.188664,0.01,33.6784,174.05,133.886,-133.909,-624.231,2.52259e-09,-2.52282e-09,-1.17609e-08,638.419,-638.441,-1.65868e-06,1.20283e-08,-1.20285e-08,-3.12505e-17
0.739975,-0.59,0.196522,0.01,38.332,174.05,139.833,-139.855,-612.182,2.63464e-09,-2.63486e-09,-1.15339e-08,627.941,-627.963,-1.60967e-06,1.18309e-08,-1.18311e-08,-3.03272e-17
0.749975,-0.59,0.204567,0.01,42.9716,174.05,145.402,-145.423,-600.317,2.73954e-09,-2.73975e-09,-1.13103e-08,617.667,-617.687,-1.55071e-06,1.16373e-08,-1.16375e-08,-2.92163e-17
0.759975,-0.59,0.212285,0.01,47.5967,174.05,150.608,-150.628,-588.637,2.83763e-09,-2.83783e-09,-1.10903e-08,607.591,-607.611,-1.48352e-06,1.14475e-08,-1.14477e-08,-2.79504e-17
0.769975,-0.59,0.220102,0.01,52.2067,174.05,155.221,-155.747,-577.635,2.92675e-09,-2.93208e-09,-1.0883e-08,597.932,-598.459,-0.121653,1.12677e-08,-1.1273e-08,-2.29202e-12
0.779975,-0.59,0.22809,0.01,56.8011,174.05,159.281,-161.998,-568.209,3.01276e-09,-3.04032e-09,-1.07054e-08,589.121,-591.838,-0.036438,1.11112e-08,-1.11388e-08,-6.86512e-13
0.789975,-0.59,0.236231,0.01,61.3796,174.05,162.633,-167.175,-560.339,3.08384e-09,-3.12992e-09,-1.05571e-08,581.828,-586.37,-0.939257,1.09817e-08,-1.10278e-08,-1.76962e-11
0.799975,-0.59,0.244226,0.01,65.9417,174.05,168.216,-171.273,-552.05,3.18258e-09,-3.2136e-09,-1.04009e-08,576.028,-579.085,-0.898057,1.0866e-08,-1.0897e-08,-1.69199e-11
-0.800025,-0.58,0.23822,0.01,62.6147,168.2,177.178,-186.781,554.737,3.37989e-09,-3.47732e-09,1.04516e-08,579.021,-588.625,-0.452775,1.09508e-08,-1.10483e-08,-8.53055e-12
-0.790025,-0.58,0.23023,0.01,57.9976,168.2,174.85,-177.817,561.043,3.30717e-09,-3.33728e-09,1.05704e-08,586.617,-589.585,-0.16969,1.10651e-08,-1.10952e-08,-3.19706e-12
-0.780025,-0.58,0.222368,0.01,53.363,168.2,171.109,-171.559,570.537,3.22575e-09,-3.23032e-09,1.07492e-08,595.482,-595.932,0.190511,1.12212e-08,-1.12258e-08,3.58933e-12
-0.770025,-0.58,0.214165,0.01,48.7113,168.2,167.052,-167.071,581.683,3.14743e-09,-3.14763e-09,1.09592e-08,605.188,-605.207,1.44333e-06,1.14022e-08,-1.14024e-08,2.71932e-17
-0.760025,-0.58,0.20612,0.01,44.0428,168.2,162.391,-162.411,593.511,3.05962e-09,-3.05983e-09,1.11821e-08,615.319,-615.339,1.53434e-06,1.1593e-08,-1.15932e-08,2.89078e-17
-0.750025,-0.58,0.198253,0.01,39.3581,168.2,157.382,-157.403,605.545,2.96526e-09,-2.96548e-09,1.14088e-08,625.654,-625.675,1.62027e-06,1.17878e-08,-1.1788e-08,3.05269e-17
-0.740025,-0.58,0.190587,0.01,34.6577,168.2,152.009,-152.031,617.781,2.86403e-09,-2.86425e-09,1.16394e-08,636.2,-636.222,1.69825e-06,1.19865e-08,-1.19867e-08,3.1996e-17
-0.730025,-0.58,0.182557,0.01,29.9421,168.2,146.253,-146.276,630.219,2.75559e-09,-2.75582e-09,1.18737e-08,646.957,-646.98,1.76696e-06,1.21892e-08,-1.21894e-08,3.32906e-17
-0.720025,-0.58,0.174641,0.01,25.2118,168.2,140.096,-140.12,642.852,2.63959e-09,-2.63984e-09,1.21117e-08,657.931,-657.955,1.82508e-06,1.23959e-08,-1.23962e-08,3.43856e-17
-0.710025,-0.58,0.166949,0.01,20.4676,168.2,133.519,-133.544,655.678,2.51568e-09,-2.51594e-09,1.23534e-08,669.125,-669.15,1.87018e-06,1.26068e-08,-1.26071e-08,3.52352e-17
-0.700025,-0.58,0.159513,0.01,15.71,168.2,126.502,-126.529,668.691,2.38349e-09,-2.38376e-09,1.25985e-08,680.541,-680.567,1.89961e-06,1.28219e-08,-1.28222e-08,3.57898e-17
-0.690025,-0.58,0.151569,0.01,10.9397,168.2,119.026,-119.053,681.884,2.24263e-09,-2.24291e-09,1.28471e-08,692.183,-692.211,1.91009e-06,1.30412e-08,-1.30415e-08,3.59872e-17
-0.680025,-0.58,0.143842,0.01,6.15758,168.2,111.068,-111.097,695.25,2.09271e-09,-2.093e-09,1.30989e-08,704.054,-704.083,1.90005e-06,1.32649e-08,-1.32652e-08,3.5798e-17
-0.670025,-0.58,0.136412,0.01,1.36432,168.2,102.608,-102.638,708.781,1.93332e-09,-1.93363e-09,1.33538e-08,716.157,-716.187,1.86667e-06,1.34929e-08,-1.34932e-08,3.51691e-17
-0.660025,-0.58,0.129041,0.01,-3.43919,168.2,93.6229,-93.6544,722.467,1.76405e-09,-1.76437e-09,1.36117e-08,728.494,-728.526,1.80605e-06,1.37254e-08,-1.37257e-08,3.4027e-17
-0.650025,-0.58,0.121269,0.01,-8.25206,168.2,84.0904,-84.1232,736.297,1.58446e-09,-1.58479e-09,1.38723e-08,741.069,-741.102,1.7154e-06,1.39623e-08,-1.39626e-08,3.23192e-17
-0.640025,-0.58,0.113845,0.01,-13.0733,168.2,73.9871,-74.0213,750.259,1.39411e-09,-1.39446e-09,1.41353e-08,753.883,-753.917,1.59215e-06,1.42037e-08,-1.42041e-08,2.9997e-17
-0.630025,-0.58,0.106843,0.01,-17.902,168.2,63.2891,-63.3247,764.34,1.19256e-09,-1.19292e-09,1.44006e-08,766.939,-766.975,1.4333e-06,1.44497e-08,-1.44501e-08,2.70042e-17
-0.620025,-0.58,0.0992289,0.01,-22.737,168.2,51.9721,-52.0091,778.523,9.79345e-10,-9.7972e-10,1.46678e-08,780.239,-780.276,1.23531e-06,1.47003e-08,-1.47007e-08,2.32739e-17
-0.610025,-0.58,0.0918156,0.01,-27.5772,168.2,40.0113,-40.0498,792.793,7.54004e-10,-7.54393e-10,1.49367e-08,793.784,-793.822,9.93822e-07,1.49555e-08,-1.49559e-08,1.87242e-17
-0.600025,-0.58,0.0849343,0.01,-32.4214,168.2,27.3817,-27.4216,807.13,5.16061e-10,-5.16466e-10,1.52068e-08,807.576,-807.615,6.95633e-07,1.52154e-08,-1.52158e-08,1.31061e-17
-0.590025,-0.58,0.0777229,0.01,-37.2683,168.2,14.058,-14.0993,821.515,2.6504e-10,-2.6546e-10,1.54778e-08,821.615,-821.656,5.14546e-07,1.54799e-08,-1.54803e-08,9.69435e-18
-0.580025,-0.58,0.0703279,0.01,-42.1166,168.2,0.0144213,-0.0572512,835.924,4.57923e-13,-8.92429e-13,1.57493e-08,835.902,-835.945,7.28985e-09,1.57491e-08,-1.57495e-08,1.37345e-19
-0.570025,-0.58,0.0636489,0.01,-46.965,168.2,-14.7746,14.7302,850.332,-2.78169e-10,2.77719e-10,1.60208e-08,850.438,-850.483,-8.94234e-06,1.60229e-08,-1.60234e-08,-1.68479e-16
-0.560025,-0.58,0.0567527,0.01,-51.8118,168.2,-30.3348,30.2889,864.714,-5.71325e-10,5.7086e-10,1.62917e-08,865.222,-865.268,6.58265e-05,1.63015e-08,-1.6302e-08,1.24021e-15
-0.550025,-0.58,0.0493958,0.01,-56.6556,168.2,-46.6909,46.6445,879.039,-8.79482e-10,8.79012e-10,1.65616e-08,880.254,-880.3,-2.42554e-05,1.65847e-08,-1.65852e-08,-4.56986e-16
-0.540025,-0.58,0.0431164,0.01,-61.4947,168.2,-63.8693,63.8152,893.284,-1.2031e-09,1.20255e-09,1.683e-08,895.535,-895.589,-0.00399392,1.68726e-08,-1.68732e-08,-7.52477e-14
-0.530025,-0.58,0.0363247,0.01,-66.3275,168.2,-81.9333,81.8861,907.393,-1.54347e-09,1.54299e-09,1.70958e-08,911.059,-911.106,0.0389922,1.71651e-08,-1.71656e-08,7.34636e-13
-0.520025,-0.58,0.0290717,0.01,-71.152,168.2,-100.193,100.933,920.525,-1.89091e-09,1.89842e-09,1.73432e-08,926.372,-925.632,-0.1125,1.74502e-08,-1.74427e-08,-2.11956e-12
-0.510025,-0.58,0.0238923,0.01,-75.9665,168.2,-117.449,122.713,930.65,-2.2357e-09,2.2891e-09,1.7534e-08,940.996,-935.733,0.0980746,1.7706e-08,-1.76526e-08,1.84778e-12
-0.500025,-0.58,0.0164805,0.01,-80.7689,168.2,-133.05,147.018,937.11,-2.56747e-09,2.70917e-09,1.76557e-08,954.499,-940.532,0.478754,1.79226e-08,-1.77809e-08,9.02e-12
-0.490025,-0.58,0.00983751,0.01,-85.5568,168.2,-149.882,168.69,940.898,-2.90564e-09,3.09645e-09,1.77271e-08,963.69,-944.881,-0.0740134,1.80747e-08,-1.78839e-08,-1.39445e-12
0.489975,-0.58,0.0098187,0.01,-85.5806,168.2,-150.029,168.819,-940.973,-2.90833e-09,3.09896e-09,-1.77285e-08,963.778,-944.988,0.0462316,1.80764e-08,-1.78858e-08,8.71031e-13
0.499975,-0.58,0.0164391,0.01,-80.7927,168.2,-133.18,147.105,-937.202,-2.56973e-09,2.711e-09,-1.76574e-08,954.584,-940.659,-0.479504,1.79244e-08,-1.77831e-08,-9.03413e-12
0.509975,-0.58,0.0238742,0.01,-75.9904,168.2,-117.543,122.802,-930.727,-2.23744e-09,2.29079e-09,-1.75354e-08,941.082,-935.823,-0.0878495,1.77077e-08,-1.76543e-08,-1.65514e-12
0.519975,-0.58,0.0290397,0.01,-71.176,168.2,-100.284,101.024,-920.593,-1.89262e-09,1.90014e-09,-1.73445e-08,926.45,-925.709,0.117644,1.74516e-08,-1.74441e-08,2.21647e-12
0.529975,-0.58,0.0362854,0.01,-66.3515,168.2,-82.0252,81.9787,-907.462,-1.5452e-09,1.54473e-09,-1.70971e-08,911.136,-911.183,-0.0395219,1.71665e-08,-1.7167e-08,-7.44616e-13
0.539975,-0.58,0.0430887,0.01,-61.5188,168.2,-63.9569,63.9027,-893.355,-1.20475e-09,1.2042e-09,-1.68313e-08,895.612,-895.666,0.00400182,1.68741e-08,-1.68746e-08,7.53966e-14
0.549975,-0.58,0.0493616,0.01,-56.6797,168.2,-46.7743,46.7279,-879.11,-8.81053e-10,8.80583e-10,-1.65629e-08,880.329,-880.375,3.12735e-05,1.65861e-08,-1.65866e-08,5.8921e-16
0.559975,-0.58,0.0567141,0.01,-51.8359,168.2,-30.4141,30.3683,-864.786,-5.7282e-10,5.72355e-10,-1.62931e-08,865.297,-865.342,-6.69398e-05,1.63029e-08,-1.63034e-08,-1.26118e-15
0.569975,-0.58,0.0636178,0.01,-46.9891,168.2,-14.85,14.8057,-850.404,-2.7959e-10,2.7914e-10,-1.60221e-08,850.511,-850.555,8.98446e-06,1.60243e-08,-1.60248e-08,1.69273e-16
0.579975,-0.58,0.0702927,0.01,-42.1408,168.2,-0.0572595,0.0144222,-835.995,-8.92553e-13,4.57972e-13,-1.57506e-08,835.974,-836.017,7.38587e-09,1.57504e-08,-1.57509e-08,1.39154e-19
0.589975,-0.58,0.0776847,0.01,-37.2924,168.2,13.9899,-14.0313,-821.586,2.63758e-10,-2.64178e-10,-1.54792e-08,821.685,-821.727,-5.14146e-07,1.54812e-08,-1.54816e-08,-9.68682e-18
0.599975,-0.58,0.0849017,0.01,-32.4455,168.2,27.3172,-27.3571,-807.202,5.14846e-10,-5.1525e-10,-1.52082e-08,807.645,-807.685,-6.93704e-07,1.52167e-08,-1.52171e-08,-1.30698e-17
0.609975,-0.58,0.09178,0.01,-27.6013,168.2,39.9502,-39.9886,-792.864,7.52852e-10,-7.53242e-10,-1.4938e-08,793.852,-793.89,-9.92402e-07,1.49568e-08,-1.49572e-08,-1.86974e-17
0.619975,-0.58,0.0991909,0.01,-22.7611,168.2,51.9142,-51.9512,-778.594,9.78255e-10,-9.7863e-10,-1.46692e-08,780.306,-780.343,-1.23378e-06,1.47016e-08,-1.47019e-08,-2.3245e-17
0.629975,-0.58,0.106809,0.01,-17.926,168.2,63.2344,-63.2699,-764.41,1.19153e-09,-1.19189e-09,-1.44019e-08,767.005,-767.04,-1.43243e-06,1.4451e-08,-1.44513e-08,-2.69878e-17
0.639975,-0.58,0.113809,0.01,-13.0973,168.2,73.9354,-73.9696,-750.329,1.39313e-09,-1.39348e-09,-1.41366e-08,753.947,-753.982,-1.59218e-06,1.4205e-08,-1.42053e-08,-2.99975e-17
0.649975,-0.58,0.121231,0.01,-8.27602,168.2,84.0416,-84.0744,-736.366,1.58354e-09,-1.58387e-09,-1.38736e-08,741.132,-741.165,-1.71523e-06,1.39635e-08,-1.39638e-08,-3.23159e-17
0.659975,-0.58,0.129002,0.01,-3.4631,168.2,93.5769,-93.6083,-722.535,1.76318e-09,-1.7635e-09,-1.3613e-08,728.556,-728.588,-1.80536e-06,1.37266e-08,-1.37269e-08,-3.4014e-17
0.669975,-0.58,0.136376,0.01,1.34046,168.2,102.564,-102.595,-708.849,1.93251e-09,-1.93281e-09,-1.33551e-08,716.217,-716.248,-1.86639e-06,1.34941e-08,-1.34944e-08,-3.5164e-17
0.679975,-0.58,0.143805,0.01,6.13377,168.2,111.027,-111.056,-695.317,2.09194e-09,-2.09224e-09,-1.31002e-08,704.113,-704.142,-1.90068e-06,1.3266e-08,-1.32663e-08,-3.58099e-17
0.689975,-0.58,0.15153,0.01,10.916,168.2,118.987,-119.015,-681.95,2.24191e-09,-2.24219e-09,-1.28483e-08,692.241,-692.269,-1.91064e-06,1.30423e-08,-1.30426e-08,-3.59976e-17
0.699975,-0.58,0.159476,0.01,15.6863,168.2,126.466,-126.493,-668.756,2.38281e-09,-2.38308e-09,-1.25998e-08,680.598,-680.625,-1.89928e-06,1.2823e-08,-1.28232e-08,-3.57835e-17
0.709975,-0.58,0.166911,0.01,20.444,168.2,133.485,-133.51,-655.743,2.51505e-09,-2.5153e-09,-1.23546e-08,669.181,-669.206,-1.87013e-06,1.26079e-08,-1.26081e-08,-3.52344e-17
0.719975,-0.58,0.174602,0.01,25.1883,168.2,140.064,-140.088,-642.916,2.639e-09,-2.63924e-09,-1.21129e-08,657.986,-658.011,-1.82578e-06,1.2397e-08,-1.23972e-08,-3.43987e-17
0.729975,-0.58,0.182517,0.01,29.9186,168.2,146.223,-146.246,-630.281,2.75503e-09,-2.75526e-09,-1.18749e-08,647.011,-647.034,-1.76788e-06,1.21902e-08,-1.21904e-08,-3.33079e-17
0.739975,-0.58,0.190549,0.01,34.6343,168.2,151.981,-152.003,-617.843,2.86351e-09,-2.86373e-09,-1.16405e-08,636.253,-636.275,-1.69858e-06,1.19875e-08,-1.19877e-08,-3.20023e-17
0.749975,-0.58,0.198215,0.01,39.3348,168.2,157.356,-157.377,-605.605,2.96478e-09,-2.96499e-09,-1.14099e-08,625.706,-625.727,-1.62036e-06,1.17888e-08,-1.1789e-08,-3.05285e-17
0.759975,-0.58,0.20608,0.01,44.0196,168.2,162.367,-162.387,-593.57,3.05917e-09,-3.05937e-09,-1.11832e-08,615.369,-615.389,-1.53495e-06,1.1594e-08,-1.15942e-08,-2.89193e-17
0.769975,-0.58,0.214124,0.01,48.6881,168.2,167.029,-167.048,-581.741,3.14701e-09,-3.14721e-09,-1.09603e-08,605.238,-605.257,-1.44428e-06,1.14031e-08,-1.14033e-08,-2.7211e-17
0.779975,-0.58,0.222327,0.01,53.3399,168.2,171.088,-171.538,-570.594,3.22536e-09,-3.22993e-09,-1.07503e-08,595.531,-595.981,-0.190531,1.12221e-08,-1.12267e-08,-3.58972e-12
0.789975,-0.58,0.230191,0.01,57.9746,168.2,174.83,-177.798,-561.1,3.30681e-09,-3.33691e-09,-1.05714e-08,586.665,-589.633,0.16957,1.1066e-08,-1.10961e-08,3.1948e-12
0.799975,-0.58,0.23818,0.01,62.5918,168.2,177.159,-186.764,-554.793,3.37954e-09,-3.47698e-09,-1.04526e-08,579.068,-588.673,0.452595,1.09517e-08,-1.10492e-08,8.52716e-12
-0.810025,-0.57,0.240781,0.01,63.9365,162.45,189.518,-202.377,549.039,3.62653e-09,-3.75698e-09,1.03442e-08,576.527,-589.386,0.938493,1.0918e-08,-1.10485e-08,1.76818e-11
-0.800025,-0.57,0.232449,0.01,59.283,162.45,188.427,-196.391,556.739,3.5847e-09,-3.66549e-09,1.04893e-08,585.067,-593.031,-0.032927,1.10576e-08,-1.11384e-08,-6.20364e-13
-0.790025,-0.57,0.224254,0.01,54.6105,162.45,186.72,-188.722,564.063,3.52662e-09,-3.54692e-09,1.06273e-08,593.479,-595.481,-0.291605,1.11902e-08,-1.12105e-08,-5.49401e-12
-0.780025,-0.57,0.21621,0.01,49.9192,162.45,183.058,-183.081,574.127,3.44901e-09,-3.44925e-09,1.08169e-08,602.596,-602.62,-0.00337506,1.13534e-08,-1.13536e-08,-6.35882e-14
-0.770025,-0.57,0.208336,0.01,45.2097,162.45,178.942,-178.961,586.069,3.37146e-09,-3.37165e-09,1.10419e-08,612.771,-612.79,1.45923e-06,1.1545e-08,-1.15452e-08,2.74927e-17
-0.760025,-0.57,0.200224,0.01,40.4822,162.45,174.496,-174.516,598.237,3.28769e-09,-3.2879e-09,1.12711e-08,623.159,-623.179,1.56775e-06,1.17408e-08,-1.1741e-08,2.95374e-17
-0.750025,-0.57,0.192116,0.01,35.7373,162.45,169.701,-169.722,610.628,3.19735e-09,-3.19756e-09,1.15046e-08,633.762,-633.783,1.67267e-06,1.19405e-08,-1.19408e-08,3.15141e-17
-0.740025,-0.57,0.184194,0.01,30.9755,162.45,164.538,-164.56,623.239,3.10009e-09,-3.10031e-09,1.17422e-08,644.585,-644.607,1.77105e-06,1.21444e-08,-1.21447e-08,3.33676e-17
-0.730025,-0.57,0.176484,0.01,26.1972,162.45,158.99,-159.013,636.07,2.99556e-09,-2.9958e-09,1.19839e-08,655.63,-655.654,1.86115e-06,1.23526e-08,-1.23528e-08,3.50652e-17
-0.720025,-0.57,0.168576,0.01,21.403,162.45,153.037,-153.062,649.116,2.88341e-09,-2.88366e-09,1.22297e-08,666.903,-666.928,1.94206e-06,1.25649e-08,-1.25652e-08,3.65896e-17
-0.710025,-0.57,0.160593,0.01,16.5935,162.45,146.66,-146.685,662.374,2.76327e-09,-2.76352e-09,1.24795e-08,678.407,-678.432,2.01134e-06,1.27817e-08,-1.27819e-08,3.78947e-17
-0.700025,-0.57,0.152848,0.01,11.7693,162.45,139.837,-139.864,675.84,2.63473e-09,-2.635e-09,1.27332e-08,690.144,-690.171,2.06615e-06,1.30028e-08,-1.30031e-08,3.89274e-17
-0.690025,-0.57,0.145379,0.01,6.93116,162.45,132.548,-132.576,689.507,2.4974e-09,-2.49769e-09,1.29907e-08,702.12,-702.148,2.10301e-06,1.32285e-08,-1.32288e-08,3.9622e-17
-0.680025,-0.57,0.137537,0.01,2.07976,162.45,124.77,-124.8,703.369,2.35088e-09,-2.35117e-09,1.32519e-08,714.337,-714.367,2.11964e-06,1.34587e-08,-1.3459e-08,3.99352e-17
-0.670025,-0.57,0.129745,0.01,-2.78411,162.45,116.482,-116.512,717.418,2.19472e-09,-2.19503e-09,1.35166e-08,726.8,-726.83,2.11319e-06,1.36935e-08,-1.36938e-08,3.98138e-17
-0.660025,-0.57,0.122276,0.01,-7.65963,162.45,107.658,-107.69,731.645,2.02848e-09,-2.02881e-09,1.37846e-08,739.51,-739.542,2.07996e-06,1.39329e-08,-1.39333e-08,3.91877e-17
-0.650025,-0.57,0.115032,0.01,-12.5459,162.45,98.2759,-98.3094,746.04,1.85172e-09,-1.85206e-09,1.40558e-08,752.471,-752.504,2.01615e-06,1.41771e-08,-1.41775e-08,3.79854e-17
-0.640025,-0.57,0.107177,0.01,-17.442,162.45,88.3101,-88.3451,760.592,1.66397e-09,-1.66432e-09,1.433e-08,765.686,-765.721,1.91869e-06,1.44261e-08,-1.44265e-08,3.61492e-17
-0.630025,-0.57,0.0997072,0.01,-22.347,162.45,77.7355,-77.772,775.287,1.46474e-09,-1.46511e-09,1.46069e-08,779.158,-779.194,1.78405e-06,1.46799e-08,-1.46803e-08,3.36125e-17
-0.620025,-0.57,0.0927152,0.01,-27.2597,162.45,66.526,-66.564,790.11,1.25355e-09,-1.25394e-09,1.48861e-08,792.888,-792.926,1.60716e-06,1.49386e-08,-1.4939e-08,3.02798e-17
-0.610025,-0.57,0.0851451,0.01,-32.179,162.45,54.6552,-54.6948,805.045,1.02991e-09,-1.03031e-09,1.51675e-08,806.88,-806.919,1.40398e-06,1.52023e-08,-1.52027e-08,2.64517e-17
-0.600025,-0.57,0.0776751,0.01,-37.1038,162.45,42.0962,-42.1373,820.074,7.93296e-10,-7.93713e-10,1.54507e-08,821.134,-821.176,1.09548e-06,1.54708e-08,-1.54712e-08,2.06395e-17
-0.590025,-0.57,0.0708319,0.01,-42.0329,162.45,28.8216,-28.8643,835.177,5.43202e-10,-5.43635e-10,1.57352e-08,835.653,-835.696,-1.62677e-07,1.57444e-08,-1.57448e-08,-3.06493e-18
-0.580025,-0.57,0.0636528,0.01,-46.9648,162.45,14.8038,-14.8481,850.331,2.79104e-10,-2.79554e-10,1.60207e-08,850.438,-850.482,8.89602e-06,1.60229e-08,-1.60234e-08,1.67606e-16
-0.570025,-0.57,0.0561858,0.01,-51.8981,162.45,0.0148518,-0.0606586,865.511,4.78977e-13,-9.43683e-13,1.63067e-08,865.488,-865.534,4.19283e-07,1.63065e-08,-1.6307e-08,7.89954e-18
-0.560025,-0.57,0.0496186,0.01,-56.8315,162.45,-15.573,15.525,880.692,-2.93196e-10,2.92708e-10,1.65927e-08,880.805,-880.853,-0.000577419,1.65951e-08,-1.65956e-08,-1.08789e-14
-0.550025,-0.57,0.0427104,0.01,-61.7633,162.45,-31.9951,31.9432,895.845,-6.0258e-10,6.02054e-10,1.68782e-08,896.39,-896.442,0.00498949,1.68887e-08,-1.68893e-08,9.40048e-14
-0.540025,-0.57,0.0352599,0.01,-66.6919,162.45,-49.2168,49.2282,910.86,-9.27323e-10,9.27438e-10,1.71611e-08,912.195,-912.183,-0.00715158,1.71862e-08,-1.71861e-08,-1.3474e-13
-0.530025,-0.57,0.0293655,0.01,-71.6156,162.45,-66.3884,67.9198,924.472,-1.25745e-09,1.27299e-09,1.74176e-08,927.674,-926.143,-0.12547,1.74713e-08,-1.74557e-08,-2.36392e-12
-0.520025,-0.57,0.0223663,0.01,-76.5325,162.45,-81.6348,88.0231,935.322,-1.56582e-09,1.63063e-09,1.7622e-08,942.354,-935.966,-1.11173,1.77267e-08,-1.76619e-08,-2.09456e-11
-0.510025,-0.57,0.0150309,0.01,-81.4407,162.45,-96.6093,109.845,944.422,-1.87772e-09,2.012e-09,1.77935e-08,956.662,-943.427,-1.97483,1.79665e-08,-1.78323e-08,-3.7207e-11
-0.500025,-0.57,0.0123128,0.01,-86.3392,162.45,-114.777,132.123,955.54,-2.23788e-09,2.41386e-09,1.80029e-08,972.152,-954.806,-2.04578,1.82405e-08,-1.80645e-08,-3.85436e-11
0.499975,-0.57,0.0123181,0.01,-86.3635,162.45,-114.856,132.19,-955.677,-2.23932e-09,2.41517e-09,-1.80055e-08,972.292,-954.957,2.08621,1.82432e-08,-1.80673e-08,3.93054e-11
0.509975,-0.57,0.0150021,0.01,-81.4651,162.45,-96.6749,109.919,-944.491,-1.87899e-09,2.01335e-09,-1.77948e-08,956.742,-943.498,2.00536,1.7968e-08,-1.78336e-08,3.77821e-11
0.519975,-0.57,0.0223247,0.01,-76.557,162.45,-81.713,88.1154,-935.381,-1.56736e-09,1.63231e-09,-1.76231e-08,942.428,-936.026,1.12171,1.77281e-08,-1.76631e-08,2.11337e-11
0.529975,-0.57,0.0293418,0.01,-71.6401,162.45,-66.4781,68.0178,-924.54,-1.25918e-09,1.2748e-09,-1.74189e-08,927.752,-926.213,0.123518,1.74727e-08,-1.74571e-08,2.32716e-12
0.539975,-0.57,0.035226,0.01,-66.7164,162.45,-49.304,49.3158,-910.934,-9.28968e-10,9.29088e-10,-1.71625e-08,912.274,-912.262,0.00774003,1.71877e-08,-1.71876e-08,1.45827e-13
0.549975,-0.57,0.0426708,0.01,-61.7878,162.45,-32.0789,32.0271,-895.921,-6.04159e-10,6.03634e-10,-1.68797e-08,896.468,-896.52,-0.00506932,1.68902e-08,-1.68907e-08,-9.55088e-14
0.559975,-0.57,0.0495888,0.01,-56.856,162.45,-15.6526,15.6045,-880.767,-2.94695e-10,2.94207e-10,-1.65942e-08,880.882,-880.93,0.00057987,1.65965e-08,-1.6597e-08,1.09251e-14
0.569975,-0.57,0.0561506,0.01,-51.9227,162.45,-0.0606669,0.0148534,-865.586,-9.43811e-13,4.79035e-13,-1.63081e-08,865.563,-865.609,4.23595e-07,1.63079e-08,-1.63084e-08,7.98078e-18
0.579975,-0.57,0.0636139,0.01,-46.9893,162.45,14.7322,-14.7765,-850.406,2.77755e-10,-2.78205e-10,-1.60221e-08,850.512,-850.556,-9.03155e-06,1.60243e-08,-1.60248e-08,-1.7016e-16
0.589975,-0.57,0.0707997,0.01,-42.0574,162.45,28.7538,-28.7965,-835.252,5.41924e-10,-5.42357e-10,-1.57366e-08,835.726,-835.769,1.68255e-07,1.57458e-08,-1.57462e-08,3.17003e-18
0.599975,-0.57,0.0776393,0.01,-37.1283,162.45,42.032,-42.0731,-820.149,7.92086e-10,-7.92503e-10,-1.54521e-08,821.206,-821.247,-1.09239e-06,1.54722e-08,-1.54726e-08,-2.05812e-17
0.609975,-0.57,0.0851066,0.01,-32.2035,162.45,54.5945,-54.6341,-805.12,1.02876e-09,-1.02917e-09,-1.51689e-08,806.95,-806.99,-1.40305e-06,1.52036e-08,-1.5204e-08,-2.64343e-17
0.619975,-0.57,0.0926818,0.01,-27.2841,162.45,66.4686,-66.5066,-790.184,1.25247e-09,-1.25286e-09,-1.48875e-08,792.957,-792.995,-1.60572e-06,1.49399e-08,-1.49403e-08,-3.02528e-17
0.629975,-0.57,0.0996711,0.01,-22.3714,162.45,77.6813,-77.7178,-775.36,1.46372e-09,-1.46409e-09,-1.46082e-08,779.225,-779.262,-1.78314e-06,1.46812e-08,-1.46816e-08,-3.35954e-17
0.639975,-0.57,0.107139,0.01,-17.4664,162.45,88.2591,-88.2941,-760.665,1.663e-09,-1.66336e-09,-1.43314e-08,765.752,-765.787,-1.91864e-06,1.44274e-08,-1.44277e-08,-3.61483e-17
0.649975,-0.57,0.114992,0.01,-12.5702,162.45,98.2278,-98.2613,-746.112,1.85081e-09,-1.85115e-09,-1.40572e-08,752.536,-752.569,-2.01582e-06,1.41784e-08,-1.41787e-08,-3.79792e-17
0.659975,-0.57,0.12224,0.01,-7.68391,162.45,107.613,-107.645,-731.716,2.02763e-09,-2.02795e-09,-1.3786e-08,739.573,-739.606,-2.07898e-06,1.39341e-08,-1.39345e-08,-3.91693e-17
0.669975,-0.57,0.129707,0.01,-2.80833,162.45,116.439,-116.47,-717.488,2.19391e-09,-2.19423e-09,-1.35179e-08,726.862,-726.893,-2.11268e-06,1.36946e-08,-1.36949e-08,-3.98041e-17
0.679975,-0.57,0.137497,0.01,2.05561,162.45,124.731,-124.76,-703.438,2.35012e-09,-2.35042e-09,-1.32532e-08,714.399,-714.428,-2.11989e-06,1.34598e-08,-1.34601e-08,-3.99399e-17
0.689975,-0.57,0.145342,0.01,6.90707,162.45,132.511,-132.539,-689.575,2.4967e-09,-2.49698e-09,-1.2992e-08,702.18,-702.208,-2.10325e-06,1.32296e-08,-1.32299e-08,-3.96264e-17
0.699975,-0.57,0.15281,0.01,11.7453,162.45,139.802,-139.829,-675.907,2.63407e-09,-2.63434e-09,-1.27345e-08,690.203,-690.23,-2.06604e-06,1.30039e-08,-1.30042e-08,-3.89253e-17
0.709975,-0.57,0.160554,0.01,16.5695,162.45,146.627,-146.652,-662.441,2.76265e-09,-2.76291e-09,-1.24808e-08,678.464,-678.49,-2.01187e-06,1.27828e-08,-1.2783e-08,-3.79048e-17
0.719975,-0.57,0.168535,0.01,21.3791,162.45,153.006,-153.031,-649.182,2.88284e-09,-2.88308e-09,-1.2231e-08,666.96,-666.984,-1.94328e-06,1.2566e-08,-1.25663e-08,-3.66124e-17
0.729975,-0.57,0.176446,0.01,26.1734,162.45,158.961,-158.985,-636.134,2.99503e-09,-2.99526e-09,-1.19851e-08,655.686,-655.709,-1.86216e-06,1.23536e-08,-1.23538e-08,-3.50842e-17
0.739975,-0.57,0.184156,0.01,30.9518,162.45,164.511,-164.534,-623.303,3.09959e-09,-3.09981e-09,-1.17434e-08,644.639,-644.661,-1.77108e-06,1.21455e-08,-1.21457e-08,-3.33682e-17
0.749975,-0.57,0.192076,0.01,35.7137,162.45,169.676,-169.697,-610.69,3.19688e-09,-3.1971e-09,-1.15057e-08,633.815,-633.837,-1.6726e-06,1.19415e-08,-1.19418e-08,-3.15128e-17
0.759975,-0.57,0.200183,0.01,40.4587,162.45,174.473,-174.493,-598.298,3.28726e-09,-3.28747e-09,-1.12723e-08,623.211,-623.231,-1.56833e-06,1.17417e-08,-1.1742e-08,-2.95482e-17
0.769975,-0.57,0.208297,0.01,45.1862,162.45,178.921,-178.94,-586.129,3.37106e-09,-3.37125e-09,-1.1043e-08,612.822,-612.841,-1.46019e-06,1.1546e-08,-1.15462e-08,-2.75109e-17
0.779975,-0.57,0.21617,0.01,49.8958,162.45,183.038,-183.062,-574.186,3.44864e-09,-3.44888e-09,-1.0818e-08,602.647,-602.67,0.00337534,1.13543e-08,-1.13546e-08,6.35934e-14
0.789975,-0.57,0.224213,0.01,54.5872,162.45,186.702,-188.704,-564.121,3.52627e-09,-3.54658e-09,-1.06284e-08,593.528,-595.53,0.291706,1.11911e-08,-1.12114e-08,5.49591e-12
0.799975,-0.57,0.232408,0.01,59.2598,162.45,188.41,-196.374,-556.796,3.58438e-09,-3.66518e-09,-1.04904e-08,585.116,-593.08,0.0330077,1.10585e-08,-1.11393e-08,6.21885e-13
0.809975,-0.57,0.240739,0.01,63.9134,162.45,189.501,-202.362,-549.096,3.62622e-09,-3.7567e-09,-1.03453e-08,576.574,-589.435,-0.938819,1.09189e-08,-1.10494e-08,-1.76879e-11
-0.820025,-0.56,0.243062,0.01,65.3663,156.8,208.954,-212.052,539.034,3.95029e-09,-3.98171e-09,1.01557e-08,577.13,-580.227,0.096757,1.08869e-08,-1.09183e-08,1.82296e-12
-0.810025,-0.56,0.234874,0.01,60.6786,156.8,203.973,-208.335,547.896,3.86194e-09,-3.90618e-09,1.03227e-08,583.215,-587.577,0.668022,1.10071e-08,-1.10513e-08,1.25859e-11
-0.800025,-0.56,0.226832,0.01,55.9704,156.8,201.067,-203.894,556.453,3.80051e-09,-3.82918e-09,1.04839e-08,590.734,-593.56,0.231125,1.11421e-08,-1.11707e-08,4.35454e-12
-0.790025,-0.56,0.218571,0.01,51.242,156.8,198.374,-198.877,566.401,3.73967e-09,-3.74477e-09,1.06713e-08,599.967,-600.47,0.149893,1.13059e-08,-1.1311e-08,2.82407e-12
-0.780025,-0.56,0.21031,0.01,46.4937,156.8,195.046,-195.064,577.962,3.67486e-09,-3.67504e-09,1.08891e-08,609.98,-609.998,1.32473e-06,1.14925e-08,-1.14926e-08,2.49586e-17
-0.770025,-0.56,0.202207,0.01,41.726,156.8,191.165,-191.184,590.231,3.60174e-09,-3.60193e-09,1.11203e-08,620.409,-620.429,1.45233e-06,1.1689e-08,-1.16892e-08,2.73627e-17
-0.760025,-0.56,0.19428,0.01,36.9391,156.8,186.951,-186.971,602.74,3.52234e-09,-3.52255e-09,1.1356e-08,631.06,-631.08,1.57889e-06,1.18896e-08,-1.18898e-08,2.97471e-17
-0.750025,-0.56,0.186314,0.01,32.1335,156.8,182.386,-182.407,615.489,3.43635e-09,-3.43657e-09,1.15962e-08,641.936,-641.957,1.70348e-06,1.20945e-08,-1.20948e-08,3.20945e-17
-0.740025,-0.56,0.178134,0.01,27.3097,156.8,177.453,-177.475,628.478,3.34341e-09,-3.34364e-09,1.18409e-08,653.042,-653.064,1.82319e-06,1.23038e-08,-1.2304e-08,3.43499e-17
-0.730025,-0.56,0.170149,0.01,22.4682,156.8,172.132,-172.155,641.705,3.24316e-09,-3.2434e-09,1.20901e-08,664.382,-664.406,1.93623e-06,1.25174e-08,-1.25177e-08,3.64797e-17
-0.720025,-0.56,0.162388,0.01,17.6094,156.8,166.403,-166.428,655.168,3.13523e-09,-3.13548e-09,1.23437e-08,675.96,-675.985,2.04206e-06,1.27356e-08,-1.27358e-08,3.84735e-17
-0.710025,-0.56,0.154623,0.01,12.734,156.8,160.246,-160.271,668.863,3.01923e-09,-3.01949e-09,1.26018e-08,687.781,-687.807,2.13755e-06,1.29583e-08,-1.29586e-08,4.02726e-17
-0.700025,-0.56,0.146563,0.01,7.84264,156.8,153.638,-153.665,682.787,2.89475e-09,-2.89503e-09,1.28641e-08,699.849,-699.876,2.2196e-06,1.31857e-08,-1.31859e-08,4.18186e-17
-0.690025,-0.56,0.138756,0.01,2.93586,156.8,146.559,-146.587,696.935,2.76138e-09,-2.76167e-09,1.31307e-08,712.167,-712.195,2.28532e-06,1.34178e-08,-1.3418e-08,4.30568e-17
-0.680025,-0.56,0.131246,0.01,-1.98557,156.8,138.984,-139.014,711.3,2.61867e-09,-2.61897e-09,1.34013e-08,724.739,-724.769,2.33163e-06,1.36546e-08,-1.36549e-08,4.39293e-17
-0.670025,-0.56,0.123529,0.01,-6.92089,156.8,130.89,-130.921,725.876,2.46618e-09,-2.4665e-09,1.36759e-08,737.57,-737.601,2.35566e-06,1.38964e-08,-1.38967e-08,4.43819e-17
-0.660025,-0.56,0.115659,0.01,-11.8693,156.8,122.252,-122.285,740.655,2.30344e-09,-2.30377e-09,1.39544e-08,750.663,-750.696,2.35375e-06,1.41431e-08,-1.41434e-08,4.4346e-17
-0.650025,-0.56,0.108142,0.01,-16.8299,156.8,113.045,-113.079,755.627,2.12998e-09,-2.13033e-09,1.42365e-08,764.022,-764.056,2.32132e-06,1.43948e-08,-1.43951e-08,4.37351e-17
-0.640025,-0.56,0.101055,0.01,-21.8019,156.8,103.242,-103.278,770.781,1.94529e-09,-1.94566e-09,1.4522e-08,777.649,-777.685,2.25431e-06,1.46515e-08,-1.46519e-08,4.24725e-17
-0.630025,-0.56,0.0931005,0.01,-26.7841,156.8,92.8166,-92.854,786.105,1.74888e-09,-1.74926e-09,1.48107e-08,791.549,-791.586,2.15119e-06,1.49134e-08,-1.49138e-08,4.05296e-17
-0.620025,-0.56,0.0855704,0.01,-31.7757,156.8,81.7412,-81.7801,801.584,1.54022e-09,-1.54062e-09,1.51023e-08,805.724,-805.763,1.99578e-06,1.51805e-08,-1.51809e-08,3.76017e-17
-0.610025,-0.56,0.0785931,0.01,-36.7754,156.8,69.9873,-70.028,817.203,1.31878e-09,-1.31919e-09,1.53966e-08,820.176,-820.217,1.72276e-06,1.54528e-08,-1.54532e-08,3.24578e-17
-0.600025,-0.56,0.0710844,0.01,-41.7821,156.8,57.5262,-57.5686,832.944,1.08401e-09,-1.08444e-09,1.56932e-08,834.909,-834.951,2.54455e-06,1.57303e-08,-1.57308e-08,4.79409e-17
-0.590025,-0.56,0.0635352,0.01,-46.7945,156.8,44.3285,-44.3725,848.787,8.35366e-10,-8.35813e-10,1.59916e-08,849.923,-849.967,6.94997e-07,1.60132e-08,-1.60137e-08,1.30941e-17
-0.580025,-0.56,0.0567491,0.01,-51.8114,156.8,30.3643,-30.4101,864.71,5.7228e-10,-5.72745e-10,1.62916e-08,865.221,-865.267,-6.62224e-05,1.63015e-08,-1.63019e-08,-1.24767e-15
-0.570025,-0.56,0.0496236,0.01,-56.8313,156.8,15.6025,-15.6505,880.69,2.94169e-10,-2.94656e-10,1.65927e-08,880.804,-880.853,0.000573776,1.65951e-08,-1.65956e-08,1.08103e-14
-0.560025,-0.56,0.0420436,0.01,-61.8527,156.8,0.0192908,-0.0602762,896.688,5.41647e-13,-9.57441e-13,1.68941e-08,896.667,-896.708,3.06124e-05,1.68939e-08,-1.68943e-08,5.76756e-16
-0.550025,-0.56,0.0356768,0.01,-66.8742,156.8,-16.4106,16.3176,912.753,-3.08782e-10,3.07838e-10,1.71968e-08,912.854,-912.947,-0.0419191,1.71991e-08,-1.72e-08,-7.8978e-13
-0.540025,-0.56,0.0287661,0.01,-71.894,156.8,-33.5532,34.7655,927.497,-6.37433e-10,6.49732e-10,1.74746e-08,928.732,-927.52,0.463469,1.74926e-08,-1.74803e-08,8.73203e-12
-0.530025,-0.56,0.0211321,0.01,-76.9104,156.8,-48.7742,55.6363,938.151,-9.4877e-10,1.01839e-09,1.76753e-08,943.033,-936.171,0.568005,1.77375e-08,-1.76678e-08,1.07015e-11
-0.520025,-0.56,0.0162986,0.01,-81.9218,156.8,-58.8509,78.7568,945.393,-1.19533e-09,1.39728e-09,1.78118e-08,957.846,-937.94,-1.27263,1.79598e-08,-1.77579e-08,-2.39771e-11
-0.510025,-0.56,0.0090008,0.01,-86.9257,156.8,-74.32,94.7997,956.357,-1.48927e-09,1.69704e-09,1.80183e-08,970.315,-949.836,-4.94644,1.81923e-08,-1.79845e-08,-9.31937e-11
0.509975,-0.56,0.00895265,0.01,-86.9506,156.8,-74.3646,94.8843,-956.356,-1.49029e-09,1.69846e-09,-1.80183e-08,970.339,-949.82,4.97521,1.81925e-08,-1.79844e-08,9.37358e-11
0.519975,-0.56,0.0162863,0.01,-81.9467,156.8,-58.9228,78.8992,-945.429,-1.19699e-09,1.39965e-09,-1.78124e-08,957.925,-937.948,1.25884,1.7961e-08,-1.77583e-08,2.37173e-11
0.529975,-0.56,0.0210991,0.01,-76.9354,156.8,-48.8857,55.7509,-938.223,-9.50883e-10,1.02053e-09,-1.76767e-08,943.113,-936.247,-0.588856,1.77389e-08,-1.76693e-08,-1.10944e-11
0.539975,-0.56,0.0287246,0.01,-71.919,156.8,-33.6507,34.8577,-927.581,-6.39246e-10,6.51492e-10,-1.74762e-08,928.817,-927.61,-0.469773,1.74942e-08,-1.7482e-08,-8.85079e-12
0.549975,-0.56,0.0356493,0.01,-66.8992,156.8,-16.4951,16.4009,-912.834,-3.10368e-10,3.09412e-10,-1.71983e-08,912.935,-913.03,0.0420733,1.72006e-08,-1.72016e-08,7.92686e-13
0.559975,-0.56,0.0420085,0.01,-61.8777,156.8,-0.0602406,0.0193364,-896.767,-9.57123e-13,5.42153e-13,-1.68956e-08,896.747,-896.788,3.09442e-05,1.68954e-08,-1.68958e-08,5.83007e-16
0.569975,-0.56,0.0495838,0.01,-56.8563,156.8,15.527,-15.5751,-880.769,2.92747e-10,-2.93235e-10,-1.65942e-08,880.883,-880.931,-0.000583553,1.65965e-08,-1.6597e-08,-1.09945e-14
0.579975,-0.56,0.0567177,0.01,-51.8363,156.8,30.2929,-30.3387,-864.79,5.70935e-10,-5.714e-10,-1.62931e-08,865.298,-865.344,6.65394e-05,1.63029e-08,-1.63034e-08,1.25364e-15
0.589975,-0.56,0.0634994,0.01,-46.8194,156.8,44.261,-44.305,-848.866,8.34094e-10,-8.34541e-10,-1.59931e-08,849.998,-850.042,-5.96125e-07,1.60147e-08,-1.60151e-08,-1.12313e-17
0.599975,-0.56,0.0710454,0.01,-41.807,156.8,57.4625,-57.5048,-833.023,1.08281e-09,-1.08324e-09,-1.56946e-08,834.983,-835.025,-2.55773e-06,1.57317e-08,-1.57322e-08,-4.8189e-17
0.609975,-0.56,0.07856,0.01,-36.8002,156.8,69.9271,-69.9678,-817.281,1.31764e-09,-1.31806e-09,-1.53981e-08,820.249,-820.289,-1.72157e-06,1.54541e-08,-1.54545e-08,-3.24353e-17
0.619975,-0.56,0.0855342,0.01,-31.8005,156.8,81.6844,-81.7234,-801.662,1.53915e-09,-1.53955e-09,-1.51038e-08,805.795,-805.834,-1.99423e-06,1.51818e-08,-1.51822e-08,-3.75724e-17
0.629975,-0.56,0.0930619,0.01,-26.8089,156.8,92.7632,-92.8005,-786.181,1.74787e-09,-1.74825e-09,-1.48121e-08,791.619,-791.656,-2.15042e-06,1.49147e-08,-1.49151e-08,-4.05152e-17
0.639975,-0.56,0.101019,0.01,-21.8266,156.8,103.192,-103.227,-770.857,1.94435e-09,-1.94471e-09,-1.45234e-08,777.718,-777.753,-2.25416e-06,1.46528e-08,-1.46532e-08,-4.24697e-17
0.649975,-0.56,0.108105,0.01,-16.8546,156.8,112.998,-113.032,-755.702,2.12909e-09,-2.12943e-09,-1.42379e-08,764.089,-764.123,-2.32085e-06,1.4396e-08,-1.43964e-08,-4.37261e-17
0.659975,-0.56,0.115621,0.01,-11.8939,156.8,122.208,-122.24,-740.729,2.30261e-09,-2.30294e-09,-1.39558e-08,750.729,-750.761,-2.35313e-06,1.41443e-08,-1.41446e-08,-4.43344e-17
0.669975,-0.56,0.12349,0.01,-6.94547,156.8,130.848,-130.88,-725.949,2.4654e-09,-2.46571e-09,-1.36773e-08,737.634,-737.666,-2.35579e-06,1.38976e-08,-1.38979e-08,-4.43845e-17
0.679975,-0.56,0.13121,0.01,-2.01008,156.8,138.945,-138.975,-711.372,2.61794e-09,-2.61824e-09,-1.34027e-08,724.802,-724.832,-2.33217e-06,1.36558e-08,-1.36561e-08,-4.39394e-17
0.689975,-0.56,0.138718,0.01,2.91142,156.8,146.522,-146.551,-697.005,2.76069e-09,-2.76098e-09,-1.3132e-08,712.228,-712.257,-2.28526e-06,1.34189e-08,-1.34192e-08,-4.30556e-17
0.699975,-0.56,0.146524,0.01,7.81827,156.8,153.604,-153.631,-682.857,2.89411e-09,-2.89439e-09,-1.28654e-08,699.909,-699.936,-2.2193e-06,1.31868e-08,-1.31871e-08,-4.18129e-17
0.709975,-0.56,0.154583,0.01,12.7098,156.8,160.214,-160.24,-668.932,3.01864e-09,-3.0189e-09,-1.26031e-08,687.841,-687.866,-2.13774e-06,1.29594e-08,-1.29597e-08,-4.02763e-17
0.719975,-0.56,0.16235,0.01,17.5852,156.8,166.373,-166.398,-655.236,3.13468e-09,-3.13493e-09,-1.2345e-08,676.019,-676.043,-2.04313e-06,1.27367e-08,-1.27369e-08,-3.84938e-17
0.729975,-0.56,0.17011,0.01,22.4441,156.8,172.104,-172.128,-641.772,3.24265e-09,-3.24288e-09,-1.20914e-08,664.439,-664.463,-1.93732e-06,1.25185e-08,-1.25188e-08,-3.65002e-17
0.739975,-0.56,0.178094,0.01,27.2857,156.8,177.427,-177.45,-628.544,3.34293e-09,-3.34316e-09,-1.18421e-08,653.098,-653.12,-1.82305e-06,1.23048e-08,-1.23051e-08,-3.43473e-17
0.749975,-0.56,0.186273,0.01,32.1096,156.8,182.362,-182.384,-615.553,3.43591e-09,-3.43612e-09,-1.15974e-08,641.991,-642.012,-1.70314e-06,1.20956e-08,-1.20958e-08,-3.20882e-17
0.759975,-0.56,0.194241,0.01,36.9152,156.8,186.929,-186.949,-602.803,3.52193e-09,-3.52214e-09,-1.13572e-08,631.114,-631.134,-1.57925e-06,1.18906e-08,-1.18908e-08,-2.9754e-17
0.769975,-0.56,0.202167,0.01,41.7022,156.8,191.145,-191.164,-590.292,3.60136e-09,-3.60155e-09,-1.11214e-08,620.462,-620.481,-1.45312e-06,1.16899e-08,-1.16901e-08,-2.73777e-17
0.779975,-0.56,0.21027,0.01,46.4701,156.8,195.028,-195.046,-578.022,3.67451e-09,-3.6747e-09,-1.08903e-08,610.031,-610.049,-1.32596e-06,1.14934e-08,-1.14936e-08,-2.49818e-17
0.789975,-0.56,0.21853,0.01,51.2184,156.8,198.357,-198.86,-566.461,3.73935e-09,-3.74445e-09,-1.06724e-08,600.018,-600.521,-0.149893,1.13069e-08,-1.1312e-08,-2.82408e-12
0.799975,-0.56,0.226792,0.01,55.9469,156.8,201.051,-203.878,-556.511,3.80021e-09,-3.82889e-09,-1.0485e-08,590.783,-593.61,-0.231158,1.1143e-08,-1.11717e-08,-4.35515e-12
0.809975,-0.56,0.234834,0.01,60.6552,156.8,203.958,-208.321,-547.954,3.86166e-09,-3.90591e-09,-1.03238e-08,583.264,-587.626,-0.668343,1.1008e-08,-1.10523e-08,-1.2592e-11
0.819975,-0.56,0.243021,0.01,65.343,156.8,208.941,-212.038,-539.091,3.95003e-09,-3.98146e-09,-1.01568e-08,577.178,-580.276,-0.0973981,1.08878e-08,-1.09193e-08,-1.83504e-12
-0.820025,-0.55,0.237563,0.01,62.1827,151.25,217.594,-227.693,540.963,4.14351e-09,-4.24596e-09,1.01921e-08,579.938,-590.037,-0.724595,1.09703e-08,-1.10727e-08,-1.36518e-11
-0.810025,-0.55,0.229179,0.01,57.4411,151.25,216.178,-219.27,547.661,4.08636e-09,-4.11773e-09,1.03183e-08,587.807,-590.899,-0.336704,1.10881e-08,-1.11194e-08,-6.34371e-12
-0.800025,-0.55,0.220929,0.01,52.6779,151.25,213.442,-213.885,557.594,4.02329e-09,-4.02779e-09,1.05054e-08,596.908,-597.351,0.191558,1.1248e-08,-1.12525e-08,3.60907e-12
-0.790025,-0.55,0.212829,0.01,47.8934,151.25,210.669,-210.686,569.224,3.96921e-09,-3.96938e-09,1.07245e-08,606.952,-606.969,1.13335e-06,1.14354e-08,-1.14356e-08,2.1353e-17
-0.780025,-0.55,0.204729,0.01,43.0877,151.25,207.352,-207.37,581.559,3.90671e-09,-3.9069e-09,1.09569e-08,617.413,-617.431,1.27518e-06,1.16325e-08,-1.16327e-08,2.40251e-17
-0.770025,-0.55,0.196396,0.01,38.2614,151.25,203.72,-203.739,594.152,3.83828e-09,-3.83848e-09,1.11942e-08,628.1,-628.119,1.41909e-06,1.18339e-08,-1.1834e-08,2.67365e-17
-0.760025,-0.55,0.188224,0.01,33.4147,151.25,199.755,-199.775,607.002,3.76359e-09,-3.7638e-09,1.14363e-08,639.019,-639.039,1.56388e-06,1.20396e-08,-1.20398e-08,2.94644e-17
-0.750025,-0.55,0.180237,0.01,28.548,151.25,195.44,-195.461,620.112,3.6823e-09,-3.68251e-09,1.16833e-08,650.174,-650.195,1.70849e-06,1.22497e-08,-1.225e-08,3.21889e-17
-0.740025,-0.55,0.172441,0.01,23.6617,151.25,190.755,-190.778,633.48,3.59404e-09,-3.59426e-09,1.19351e-08,661.569,-661.591,1.85018e-06,1.24644e-08,-1.24647e-08,3.48585e-17
-0.730025,-0.55,0.16418,0.01,18.7564,151.25,185.681,-185.705,647.105,3.49844e-09,-3.49868e-09,1.21918e-08,673.21,-673.233,1.98728e-06,1.26838e-08,-1.2684e-08,3.74414e-17
-0.720025,-0.55,0.156122,0.01,13.8325,151.25,180.197,-180.222,660.987,3.39512e-09,-3.39538e-09,1.24534e-08,685.1,-685.125,2.11924e-06,1.29078e-08,-1.2908e-08,3.99278e-17
-0.710025,-0.55,0.1483,0.01,8.89065,151.25,174.281,-174.307,675.123,3.28367e-09,-3.28394e-09,1.27197e-08,697.246,-697.272,2.24239e-06,1.31366e-08,-1.31369e-08,4.22479e-17
-0.700025,-0.55,0.140709,0.01,3.93133,151.25,167.912,-167.939,689.51,3.16367e-09,-3.16395e-09,1.29908e-08,709.65,-709.678,2.35381e-06,1.33703e-08,-1.33706e-08,4.43472e-17
-0.690025,-0.55,0.132557,0.01,-1.04478,151.25,161.065,-161.094,704.144,3.03468e-09,-3.03497e-09,1.32665e-08,722.319,-722.348,2.45131e-06,1.3609e-08,-1.36093e-08,4.61842e-17
-0.680025,-0.55,0.124675,0.01,-6.037,151.25,153.717,-153.747,719.02,2.89624e-09,-2.89655e-09,1.35468e-08,735.256,-735.286,2.53062e-06,1.38528e-08,-1.38531e-08,4.76784e-17
-0.670025,-0.55,0.117116,0.01,-11.0446,151.25,145.842,-145.874,734.132,2.74789e-09,-2.74821e-09,1.38315e-08,748.465,-748.497,2.58844e-06,1.41017e-08,-1.4102e-08,4.87677e-17
-0.660025,-0.55,0.109557,0.01,-16.0667,151.25,137.415,-137.448,749.472,2.58913e-09,-2.58946e-09,1.41205e-08,761.951,-761.985,2.62163e-06,1.43557e-08,-1.43561e-08,4.93931e-17
-0.650025,-0.55,0.101589,0.01,-21.1026,151.25,128.409,-128.444,765.031,2.41945e-09,-2.41981e-09,1.44136e-08,775.718,-775.753,2.62554e-06,1.46151e-08,-1.46155e-08,4.94667e-17
-0.640025,-0.55,0.0940096,0.01,-26.1514,151.25,118.796,-118.833,780.8,2.23835e-09,-2.23872e-09,1.47107e-08,789.77,-789.807,2.5936e-06,1.48799e-08,-1.48803e-08,4.88649e-17
-0.630025,-0.55,0.0869215,0.01,-31.212,151.25,108.548,-108.586,796.767,2.04527e-09,-2.04566e-09,1.50116e-08,804.111,-804.149,2.52046e-06,1.51501e-08,-1.51505e-08,4.74869e-17
-0.620025,-0.55,0.0790472,0.01,-36.2835,151.25,97.6346,-97.6745,812.918,1.83967e-09,-1.84007e-09,1.53159e-08,818.743,-818.783,2.51186e-06,1.54258e-08,-1.54262e-08,4.7325e-17
-0.610025,-0.55,0.0714356,0.01,-41.3647,151.25,86.0266,-86.0683,829.239,1.62097e-09,-1.6214e-09,1.56233e-08,833.671,-833.712,2.03914e-06,1.5707e-08,-1.57074e-08,3.84186e-17
-0.600025,-0.55,0.0644798,0.01,-46.4545,151.25,73.6928,-73.7364,845.712,1.38861e-09,-1.38905e-09,1.59337e-08,848.896,-848.94,-4.2937e-06,1.59939e-08,-1.59943e-08,-8.08957e-17
-0.590025,-0.55,0.057064,0.01,-51.5517,151.25,60.6017,-60.6471,862.317,1.14197e-09,-1.14243e-09,1.62466e-08,864.423,-864.468,6.2729e-05,1.62864e-08,-1.62869e-08,1.18185e-15
-0.580025,-0.55,0.0493967,0.01,-56.655,151.25,46.7217,-46.7681,879.033,8.80466e-10,-8.80937e-10,1.65615e-08,880.252,-880.298,3.07843e-05,1.65847e-08,-1.65851e-08,5.79994e-16
-0.570025,-0.55,0.0427056,0.01,-61.7629,151.25,32.0228,-32.0745,895.841,6.03553e-10,-6.04078e-10,1.68782e-08,896.388,-896.44,-0.00501477,1.68887e-08,-1.68892e-08,-9.44812e-14
-0.560025,-0.55,0.0356837,0.01,-66.874,151.25,16.3993,-16.4931,912.752,3.09381e-10,-3.10332e-10,1.71968e-08,912.853,-912.947,0.0416253,1.71991e-08,-1.72e-08,7.84244e-13
-0.550025,-0.55,0.0279015,0.01,-71.9867,151.25,0.253697,0.175295,929.022,2.91462e-12,1.43748e-12,1.75033e-08,929.236,-928.807,0.00279875,1.75055e-08,-1.75011e-08,5.273e-14
-0.540025,-0.55,0.0219922,0.01,-77.0995,151.25,-15.6682,21.0867,941.891,-3.18757e-10,3.73727e-10,1.77458e-08,944.779,-939.361,1.13676,1.77766e-08,-1.77217e-08,2.14173e-11
-0.530025,-0.55,0.0151921,0.01,-82.2105,151.25,-28.8407,46.0638,949.859,-6.18258e-10,7.92986e-10,1.78959e-08,959.206,-941.983,2.30324,1.79971e-08,-1.78224e-08,4.33943e-11
-0.520025,-0.55,0.00706235,0.01,-87.3169,151.25,-43.6284,65.7167,953.681,-9.1802e-10,1.1421e-09,1.79679e-08,966.29,-944.202,1.19683,1.81094e-08,-1.78853e-08,2.25489e-11
0.519975,-0.55,0.00703397,0.01,-87.3422,151.25,-43.7829,65.882,-953.715,-9.20978e-10,1.14517e-09,-1.79685e-08,966.338,-944.239,-1.26334,1.81103e-08,-1.78861e-08,-2.38021e-11
0.529975,-0.55,0.0151461,0.01,-82.2359,151.25,-28.9887,46.1688,-949.967,-6.2086e-10,7.95151e-10,-1.78979e-08,959.298,-942.117,-2.33652,1.7999e-08,-1.78247e-08,-4.40214e-11
0.539975,-0.55,0.0219702,0.01,-77.1249,151.25,-15.7663,21.1691,-941.995,-3.20537e-10,3.75348e-10,-1.77477e-08,944.877,-939.474,-1.13839,1.77785e-08,-1.77237e-08,-2.14479e-11
0.549975,-0.55,0.0278663,0.01,-72.0122,151.25,0.171938,0.250284,-929.111,1.40366e-12,2.87974e-12,-1.7505e-08,929.322,-928.9,0.00283273,1.75071e-08,-1.75029e-08,5.33703e-14
0.559975,-0.55,0.0356423,0.01,-66.8994,151.25,16.3192,-16.4126,-912.836,3.07869e-10,-3.08817e-10,-1.71984e-08,912.936,-913.029,-0.0423704,1.72006e-08,-1.72016e-08,-7.98282e-13
0.569975,-0.55,0.0426756,0.01,-61.7883,151.25,31.9475,-31.9994,-895.925,6.02135e-10,-6.02662e-10,-1.68797e-08,896.469,-896.521,0.00504377,1.68902e-08,-1.68908e-08,9.50275e-14
0.579975,-0.55,0.0493607,0.01,-56.6803,151.25,46.6507,-46.6971,-879.116,8.79128e-10,-8.79598e-10,-1.65631e-08,880.331,-880.377,-2.46744e-05,1.65861e-08,-1.65866e-08,-4.6488e-16
0.589975,-0.55,0.0570241,0.01,-51.5771,151.25,60.5347,-60.5801,-862.4,1.14071e-09,-1.14117e-09,-1.62481e-08,864.501,-864.546,-6.37372e-05,1.62879e-08,-1.62884e-08,-1.20085e-15
0.599975,-0.55,0.0644472,0.01,-46.4799,151.25,73.6296,-73.6732,-845.794,1.38741e-09,-1.38786e-09,-1.59352e-08,848.973,-849.016,4.31736e-06,1.59953e-08,-1.59958e-08,8.13415e-17
0.609975,-0.55,0.0713993,0.01,-41.39,151.25,85.9671,-86.0088,-829.321,1.61985e-09,-1.62027e-09,-1.56249e-08,833.746,-833.787,-2.02765e-06,1.57084e-08,-1.57089e-08,-3.82021e-17
0.619975,-0.55,0.079008,0.01,-36.3087,151.25,97.5786,-97.6186,-812.999,1.83861e-09,-1.83902e-09,-1.53174e-08,818.817,-818.857,-2.51245e-06,1.54272e-08,-1.54276e-08,-4.73361e-17
0.629975,-0.55,0.0868877,0.01,-31.2372,151.25,108.495,-108.533,-796.847,2.04428e-09,-2.04466e-09,-1.50131e-08,804.183,-804.221,-2.52053e-06,1.51514e-08,-1.51518e-08,-4.74883e-17
0.639975,-0.55,0.0939731,0.01,-26.1765,151.25,118.747,-118.783,-780.879,2.23742e-09,-2.23779e-09,-1.47122e-08,789.841,-789.877,-2.5937e-06,1.48812e-08,-1.48816e-08,-4.88667e-17
0.649975,-0.55,0.10155,0.01,-21.1277,151.25,128.363,-128.398,-765.109,2.41858e-09,-2.41894e-09,-1.44151e-08,775.788,-775.822,-2.62516e-06,1.46164e-08,-1.46168e-08,-4.94596e-17
0.659975,-0.55,0.109517,0.01,-16.0918,151.25,137.372,-137.405,-749.548,2.58831e-09,-2.58865e-09,-1.41219e-08,762.019,-762.052,-2.62151e-06,1.4357e-08,-1.43574e-08,-4.93907e-17
0.669975,-0.55,0.11708,0.01,-11.0695,151.25,145.802,-145.833,-734.207,2.74712e-09,-2.74745e-09,-1.38329e-08,748.532,-748.563,-2.58915e-06,1.41029e-08,-1.41032e-08,-4.87811e-17
0.679975,-0.55,0.124637,0.01,-6.06186,151.25,153.679,-153.709,-719.095,2.89553e-09,-2.89584e-09,-1.35482e-08,735.321,-735.351,-2.53137e-06,1.3854e-08,-1.38543e-08,-4.76925e-17
0.689975,-0.55,0.132518,0.01,-1.06957,151.25,161.03,-161.058,-704.218,3.03402e-09,-3.03431e-09,-1.32679e-08,722.383,-722.411,-2.45149e-06,1.36102e-08,-1.36105e-08,-4.61874e-17
0.699975,-0.55,0.140668,0.01,3.90662,151.25,167.879,-167.906,-689.582,3.16305e-09,-3.16333e-09,-1.29921e-08,709.713,-709.74,-2.35419e-06,1.33715e-08,-1.33718e-08,-4.43542e-17
0.709975,-0.55,0.148262,0.01,8.86603,151.25,174.251,-174.277,-675.194,3.2831e-09,-3.28336e-09,-1.2721e-08,697.307,-697.333,-2.24275e-06,1.31378e-08,-1.3138e-08,-4.22547e-17
0.719975,-0.55,0.156082,0.01,13.808,151.25,180.169,-180.193,-661.057,3.39459e-09,-3.39484e-09,-1.24547e-08,685.16,-685.185,-2.1203e-06,1.29089e-08,-1.29092e-08,-3.99477e-17
0.729975,-0.55,0.164139,0.01,18.732,151.25,185.655,-185.679,-647.174,3.49795e-09,-3.49819e-09,-1.21931e-08,673.268,-673.292,-1.9888e-06,1.26849e-08,-1.26851e-08,-3.74701e-17
0.739975,-0.55,0.1724,0.01,23.6374,151.25,190.731,-190.753,-633.547,3.59358e-09,-3.59381e-09,-1.19364e-08,661.626,-661.649,-1.8507e-06,1.24655e-08,-1.24657e-08,-3.48683e-17
0.749975,-0.55,0.180198,0.01,28.5237,151.25,195.418,-195.439,-620.178,3.68188e-09,-3.68209e-09,-1.16845e-08,650.23,-650.251,-1.7087e-06,1.22508e-08,-1.2251e-08,-3.21929e-17
0.759975,-0.55,0.188184,0.01,33.3905,151.25,199.735,-199.755,-607.067,3.7632e-09,-3.76341e-09,-1.14375e-08,639.074,-639.094,-1.56437e-06,1.20406e-08,-1.20408e-08,-2.94736e-17
0.769975,-0.55,0.196355,0.01,38.2373,151.25,203.701,-203.72,-594.215,3.83793e-09,-3.83812e-09,-1.11954e-08,628.154,-628.173,-1.41964e-06,1.18349e-08,-1.18351e-08,-2.67469e-17
0.779975,-0.55,0.204688,0.01,43.0638,151.25,207.335,-207.353,-581.621,3.90639e-09,-3.90657e-09,-1.09581e-08,617.465,-617.484,-1.27603e-06,1.16335e-08,-1.16337e-08,-2.40412e-17
0.789975,-0.55,0.212789,0.01,47.8695,151.25,210.654,-210.671,-569.285,3.96891e-09,-3.96908e-09,-1.07257e-08,607.004,-607.021,-1.13376e-06,1.14364e-08,-1.14365e-08,-2.13607e-17
0.799975,-0.55,0.220888,0.01,52.6542,151.25,213.427,-213.871,-557.654,4.02302e-09,-4.02752e-09,-1.05065e-08,596.958,-597.402,-0.191584,1.1249e-08,-1.12535e-08,-3.60956e-12
0.809975,-0.55,0.229137,0.01,57.4175,151.25,216.165,-219.257,-547.72,4.08611e-09,-4.11748e-09,-1.03194e-08,587.856,-590.948,0.336623,1.1089e-08,-1.11204e-08,6.34218e-12
0.819975,-0.55,0.237521,0.01,62.1591,151.25,217.582,-227.682,-541.021,4.14328e-09,-4.24574e-09,-1.01931e-08,579.987,-590.087,0.724494,1.09712e-08,-1.10737e-08,1.36499e-11
-0.830025,-0.54,0.240319,0.01,63.7935,145.8,229.463,-241.884,533.318,4.37722e-09,-4.50323e-09,1.0048e-08,576.859,-589.28,0.658311,1.09224e-08,-1.10484e-08,1.2403e-11
-0.820025,-0.54,0.232079,0.01,59.0209,145.8,228.872,-236.843,541.656,4.34673e-09,-4.4276e-09,1.02051e-08,585.602,-593.573,0.0623476,1.10677e-08,-1.11486e-08,1.17467e-12
-0.810025,-0.54,0.223785,0.01,54.2253,145.8,228.157,-230.226,549.482,4.3076e-09,-4.3286e-09,1.03526e-08,594.33,-596.399,-0.205299,1.12065e-08,-1.12275e-08,-3.86796e-12
-0.800025,-0.54,0.215329,0.01,49.4068,145.8,225.783,-225.805,559.893,4.25398e-09,-4.25421e-09,1.05487e-08,603.697,-603.719,-0.00347866,1.13741e-08,-1.13743e-08,-6.55399e-14
-0.790025,-0.54,0.20701,0.01,44.5658,145.8,223.025,-223.042,572.258,4.202e-09,-4.20217e-09,1.07817e-08,614.177,-614.194,1.03969e-06,1.15715e-08,-1.15717e-08,1.95883e-17
-0.780025,-0.54,0.198846,0.01,39.7025,145.8,219.973,-219.991,584.899,4.1445e-09,-4.14468e-09,1.10198e-08,624.89,-624.908,1.19566e-06,1.17734e-08,-1.17736e-08,2.25269e-17
-0.770025,-0.54,0.190857,0.01,34.8172,145.8,216.607,-216.626,597.815,4.08109e-09,-4.08128e-09,1.12632e-08,635.84,-635.859,1.35551e-06,1.19797e-08,-1.19799e-08,2.55385e-17
-0.760025,-0.54,0.182516,0.01,29.9102,145.8,212.91,-212.931,611.006,4.01144e-09,-4.01165e-09,1.15117e-08,647.032,-647.052,1.51861e-06,1.21905e-08,-1.21908e-08,2.86115e-17
-0.750025,-0.54,0.174267,0.01,24.982,145.8,208.864,-208.885,624.475,3.9352e-09,-3.93542e-09,1.17655e-08,658.471,-658.492,1.6835e-06,1.24061e-08,-1.24063e-08,3.17181e-17
-0.740025,-0.54,0.166211,0.01,20.0328,145.8,204.447,-204.469,638.223,3.852e-09,-3.85223e-09,1.20245e-08,670.161,-670.184,1.84756e-06,1.26263e-08,-1.26266e-08,3.48091e-17
-0.730025,-0.54,0.158377,0.01,15.0632,145.8,199.64,-199.664,652.248,3.76145e-09,-3.76168e-09,1.22887e-08,682.109,-682.133,2.00944e-06,1.28514e-08,-1.28517e-08,3.7859e-17
-0.720025,-0.54,0.15026,0.01,10.0737,145.8,194.423,-194.447,666.552,3.66314e-09,-3.66339e-09,1.25582e-08,694.319,-694.344,2.16836e-06,1.30815e-08,-1.30817e-08,4.08531e-17
-0.710025,-0.54,0.142116,0.01,5.06468,145.8,188.771,-188.797,681.132,3.55667e-09,-3.55693e-09,1.28329e-08,706.797,-706.823,2.32055e-06,1.33166e-08,-1.33168e-08,4.37205e-17
-0.700025,-0.54,0.134224,0.01,0.036813,145.8,182.662,-182.69,695.986,3.44158e-09,-3.44186e-09,1.31128e-08,719.547,-719.574,2.46357e-06,1.35568e-08,-1.35571e-08,4.6415e-17
-0.690025,-0.54,0.12663,0.01,-5.00932,145.8,176.072,-176.101,711.112,3.31743e-09,-3.31772e-09,1.33978e-08,732.574,-732.603,2.59518e-06,1.38023e-08,-1.38025e-08,4.88947e-17
-0.680025,-0.54,0.118584,0.01,-10.073,145.8,168.976,-169.006,726.504,3.18373e-09,-3.18404e-09,1.36878e-08,745.884,-745.915,2.71037e-06,1.4053e-08,-1.40533e-08,5.1065e-17
-0.670025,-0.54,0.11061,0.01,-15.1537,145.8,161.346,-161.379,742.159,3.04e-09,-3.04033e-09,1.39827e-08,759.482,-759.514,2.80536e-06,1.43092e-08,-1.43095e-08,5.28546e-17
-0.660025,-0.54,0.10299,0.01,-20.2504,145.8,153.157,-153.191,758.068,2.88572e-09,-2.88606e-09,1.42824e-08,773.372,-773.405,2.87727e-06,1.45709e-08,-1.45713e-08,5.42094e-17
-0.650025,-0.54,0.0956344,0.01,-25.3625,145.8,144.38,-144.416,774.226,2.72036e-09,-2.72072e-09,1.45869e-08,787.558,-787.594,2.92176e-06,1.48382e-08,-1.48386e-08,5.50476e-17
-0.640025,-0.54,0.0875413,0.01,-30.489,145.8,134.986,-135.023,790.621,2.54337e-09,-2.54375e-09,1.48958e-08,802.046,-802.084,2.94056e-06,1.51112e-08,-1.51116e-08,5.54019e-17
-0.630025,-0.54,0.0798813,0.01,-35.629,145.8,124.943,-124.982,807.245,2.35418e-09,-2.35457e-09,1.5209e-08,816.84,-816.879,2.86613e-06,1.53899e-08,-1.53903e-08,5.39996e-17
-0.620025,-0.54,0.0727912,0.01,-40.7815,145.8,114.223,-114.264,824.083,2.1522e-09,-2.15262e-09,1.55262e-08,831.944,-831.985,2.37724e-06,1.56745e-08,-1.56749e-08,4.47886e-17
-0.610025,-0.54,0.0650325,0.01,-45.9454,145.8,102.791,-102.834,841.122,1.93684e-09,-1.93727e-09,1.58472e-08,847.361,-847.404,8.64927e-06,1.5965e-08,-1.59654e-08,1.62957e-16
-0.600025,-0.54,0.0573046,0.01,-51.1196,145.8,90.6166,-90.6612,858.346,1.70746e-09,-1.70792e-09,1.61717e-08,863.096,-863.14,1.14375e-06,1.62614e-08,-1.62619e-08,2.15489e-17
-0.590025,-0.54,0.0503826,0.01,-56.3028,145.8,77.6649,-77.7117,875.735,1.46345e-09,-1.46393e-09,1.64994e-08,879.151,-879.198,-0.000484682,1.65639e-08,-1.65644e-08,-9.13168e-15
-0.580025,-0.54,0.0431232,0.01,-61.4939,145.8,63.8942,-63.9484,893.275,1.20404e-09,-1.20459e-09,1.68298e-08,895.533,-895.587,0.00396033,1.68726e-08,-1.68731e-08,7.46149e-14
-0.570025,-0.54,0.0352611,0.01,-66.6912,145.8,49.309,-49.2979,910.853,9.28962e-10,-9.28849e-10,1.7161e-08,912.192,-912.181,0.00764107,1.71862e-08,-1.71861e-08,1.43962e-13
-0.560025,-0.54,0.028759,0.01,-71.8936,145.8,34.8478,-33.6423,927.498,6.51311e-10,-6.39082e-10,1.74746e-08,928.733,-927.527,-0.465157,1.74926e-08,-1.74804e-08,-8.76382e-12
-0.550025,-0.54,0.0220035,0.01,-77.0993,145.8,21.158,-15.7483,941.901,3.75108e-10,-3.20228e-10,1.7746e-08,944.786,-939.376,-1.12633,1.77768e-08,-1.77219e-08,-2.12207e-11
-0.540025,-0.54,0.0137594,0.01,-82.3065,145.8,5.3352,5.27888,954.622,5.43701e-11,5.3309e-11,1.79856e-08,959.929,-949.315,0.0157945,1.80395e-08,-1.79318e-08,2.97577e-13
-0.530025,-0.54,0.00972033,0.01,-87.5148,145.8,-12.4459,30.1841,967.174,-3.11611e-10,4.91564e-10,1.82221e-08,976.272,-958.534,3.28024,1.83164e-08,-1.81365e-08,6.18017e-11
0.529975,-0.54,0.00972178,0.01,-87.5407,145.8,-12.5663,30.258,-967.388,-3.13677e-10,4.93158e-10,-1.82261e-08,976.465,-958.773,-3.2826,1.83202e-08,-1.81408e-08,-6.1846e-11
0.539975,-0.54,0.0137242,0.01,-82.3324,145.8,5.2505,5.30647,-954.742,5.30226e-11,5.40772e-11,-1.79879e-08,960.021,-949.464,0.0159765,1.80414e-08,-1.79343e-08,3.01006e-13
0.549975,-0.54,0.0219589,0.01,-77.1251,145.8,21.098,-15.6862,-941.985,3.73969e-10,-3.19067e-10,-1.77475e-08,944.87,-939.458,1.14894,1.77784e-08,-1.77235e-08,2.16467e-11
0.559975,-0.54,0.0287317,0.01,-71.9194,145.8,34.7755,-33.5615,-927.58,6.49912e-10,-6.37596e-10,-1.74761e-08,928.816,-927.602,0.468065,1.74942e-08,-1.74818e-08,8.81862e-12
0.569975,-0.54,0.0352247,0.01,-66.7171,145.8,49.235,-49.223,-910.941,9.27563e-10,-9.27441e-10,-1.71626e-08,912.276,-912.264,-0.00724521,1.71878e-08,-1.71876e-08,-1.36504e-13
0.579975,-0.54,0.0430819,0.01,-61.5197,145.8,63.8236,-63.8778,-893.363,1.20271e-09,-1.20326e-09,-1.68315e-08,895.615,-895.669,-0.00403579,1.68741e-08,-1.68747e-08,-7.60366e-14
0.589975,-0.54,0.0503507,0.01,-56.3286,145.8,77.5985,-77.6453,-875.822,1.4622e-09,-1.46268e-09,-1.6501e-08,879.232,-879.279,0.000487697,1.65654e-08,-1.65659e-08,9.1885e-15
0.599975,-0.54,0.0572679,0.01,-51.1454,145.8,90.5542,-90.5988,-858.432,1.70629e-09,-1.70674e-09,-1.61734e-08,863.175,-863.219,-5.45211e-07,1.62629e-08,-1.62634e-08,-1.02721e-17
0.609975,-0.54,0.0649925,0.01,-45.9711,145.8,102.733,-102.776,-841.208,1.93573e-09,-1.93616e-09,-1.58488e-08,847.439,-847.481,-8.7365e-06,1.59664e-08,-1.59669e-08,-1.64601e-16
0.619975,-0.54,0.0727576,0.01,-40.8072,145.8,114.168,-114.209,-824.168,2.15116e-09,-2.15158e-09,-1.55278e-08,832.02,-832.061,-2.37712e-06,1.56759e-08,-1.56763e-08,-4.47864e-17
0.629975,-0.54,0.0798445,0.01,-35.6546,145.8,124.892,-124.931,-807.328,2.3532e-09,-2.3536e-09,-1.52105e-08,816.915,-816.954,-2.86579e-06,1.53913e-08,-1.53917e-08,-5.39931e-17
0.639975,-0.54,0.087502,0.01,-30.5145,145.8,134.937,-134.974,-790.704,2.54246e-09,-2.54284e-09,-1.48973e-08,802.119,-802.157,-2.94109e-06,1.51126e-08,-1.51129e-08,-5.54118e-17
0.649975,-0.54,0.0955933,0.01,-25.388,145.8,144.335,-144.37,-774.307,2.71951e-09,-2.71987e-09,-1.45884e-08,787.63,-787.665,-2.92172e-06,1.48396e-08,-1.48399e-08,-5.50468e-17
0.659975,-0.54,0.102953,0.01,-20.2758,145.8,153.115,-153.149,-758.148,2.88493e-09,-2.88527e-09,-1.42839e-08,773.442,-773.475,-2.87755e-06,1.45722e-08,-1.45726e-08,-5.42148e-17
0.669975,-0.54,0.110571,0.01,-15.179,145.8,161.307,-161.339,-742.237,3.03926e-09,-3.03959e-09,-1.39842e-08,759.55,-759.582,-2.80597e-06,1.43105e-08,-1.43108e-08,-5.28661e-17
0.679975,-0.54,0.118543,0.01,-10.0983,145.8,168.939,-168.97,-726.581,3.18304e-09,-3.18335e-09,-1.36892e-08,745.951,-745.982,-2.71039e-06,1.40543e-08,-1.40546e-08,-5.10654e-17
0.689975,-0.54,0.126593,0.01,-5.03445,145.8,176.038,-176.067,-711.188,3.31679e-09,-3.31708e-09,-1.33992e-08,732.64,-732.669,-2.59498e-06,1.38035e-08,-1.38038e-08,-4.88909e-17
0.699975,-0.54,0.134185,0.01,0.011763,145.8,182.631,-182.658,-696.061,3.44099e-09,-3.44127e-09,-1.31142e-08,719.611,-719.638,-2.46443e-06,1.3558e-08,-1.35583e-08,-4.64313e-17
0.709975,-0.54,0.142077,0.01,5.03972,145.8,188.742,-188.768,-681.205,3.55612e-09,-3.55638e-09,-1.28343e-08,706.859,-706.886,-2.32146e-06,1.33178e-08,-1.3318e-08,-4.37376e-17
0.719975,-0.54,0.150219,0.01,10.0488,145.8,194.396,-194.42,-666.624,3.66263e-09,-3.66289e-09,-1.25596e-08,694.381,-694.406,-2.16941e-06,1.30826e-08,-1.30829e-08,-4.08729e-17
0.729975,-0.54,0.158339,0.01,15.0385,145.8,199.616,-199.639,-652.319,3.76098e-09,-3.76122e-09,-1.22901e-08,682.169,-682.193,-2.01089e-06,1.28526e-08,-1.28528e-08,-3.78864e-17
0.739975,-0.54,0.166172,0.01,20.0081,145.8,204.424,-204.447,-638.292,3.85157e-09,-3.85179e-09,-1.20258e-08,670.22,-670.243,-1.84838e-06,1.26274e-08,-1.26277e-08,-3.48245e-17
0.749975,-0.54,0.174227,0.01,24.9574,145.8,208.842,-208.864,-624.543,3.93481e-09,-3.93502e-09,-1.17668e-08,658.528,-658.55,-1.68424e-06,1.24071e-08,-1.24074e-08,-3.1732e-17
0.759975,-0.54,0.182474,0.01,29.8858,145.8,212.891,-212.911,-611.072,4.01108e-09,-4.01128e-09,-1.1513e-08,647.088,-647.109,-1.5194e-06,1.21916e-08,-1.21918e-08,-2.86264e-17
0.769975,-0.54,0.190817,0.01,34.7928,145.8,216.59,-216.609,-597.879,4.08076e-09,-4.08095e-09,-1.12644e-08,635.895,-635.914,-1.35619e-06,1.19807e-08,-1.19809e-08,-2.55514e-17
0.779975,-0.54,0.198806,0.01,39.6783,145.8,219.957,-219.975,-584.963,4.1442e-09,-4.14438e-09,-1.1021e-08,624.944,-624.962,-1.19642e-06,1.17744e-08,-1.17746e-08,-2.25413e-17
0.789975,-0.54,0.206969,0.01,44.5417,145.8,223.011,-223.028,-572.32,4.20173e-09,-4.2019e-09,-1.07828e-08,614.229,-614.246,-1.03992e-06,1.15725e-08,-1.15727e-08,-1.95927e-17
0.799975,-0.54,0.215287,0.01,49.3828,145.8,225.77,-225.793,-559.954,4.25374e-09,-4.25396e-09,-1.05499e-08,603.749,-603.771,0.00347909,1.13751e-08,-1.13753e-08,6.55481e-14
0.809975,-0.54,0.223743,0.01,54.2014,145.8,228.145,-230.215,-549.542,4.30738e-09,-4.32838e-09,-1.03537e-08,594.38,-596.45,0.205396,1.12075e-08,-1.12285e-08,3.86978e-12
0.819975,-0.54,0.232038,0.01,58.9971,145.8,228.861,-236.833,-541.715,4.34653e-09,-4.42741e-09,-1.02062e-08,585.652,-593.624,-0.0622845,1.10687e-08,-1.11496e-08,-1.17348e-12
0.829975,-0.54,0.240278,0.01,63.7698,145.8,229.452,-241.875,-533.377,4.37703e-09,-4.50306e-09,-1.00491e-08,576.908,-589.33,-0.658619,1.09233e-08,-1.10493e-08,-1.24088e-11
-0.840025,-0.53,0.243454,0.01,65.5091,140.45,248.111,-251.198,521.719,4.68798e-09,-4.7193e-09,9.82949e-09,576.832,-579.919,-0.712822,1.08813e-08,-1.09126e-08,-1.343e-11
-0.830025,-0.53,0.234899,0.01,60.7079,140.45,243.837,-247.928,531.012,4.61181e-09,-4.65332e-09,1.00046e-08,583.131,-587.222,0.351665,1.10043e-08,-1.10458e-08,6.62557e-12
-0.820025,-0.53,0.226461,0.01,55.8822,140.45,241.699,-244.362,540.064,4.56533e-09,-4.59234e-09,1.01751e-08,590.896,-593.558,0.218677,1.11444e-08,-1.11714e-08,4.12e-12
-0.810025,-0.53,0.218156,0.01,51.0323,140.45,240.132,-240.602,550.433,4.52627e-09,-4.53104e-09,1.03705e-08,600.391,-600.862,0.169838,1.13138e-08,-1.13185e-08,3.19985e-12
-0.800025,-0.53,0.209999,0.01,46.1583,140.45,238.154,-238.17,562.365,4.48703e-09,-4.48719e-09,1.05953e-08,610.709,-610.725,7.49436e-07,1.15062e-08,-1.15063e-08,1.41198e-17
-0.790025,-0.53,0.201519,0.01,41.2606,140.45,235.677,-235.694,575.02,4.44037e-09,-4.44054e-09,1.08337e-08,621.438,-621.455,9.12654e-07,1.17083e-08,-1.17085e-08,1.71949e-17
-0.780025,-0.53,0.193123,0.01,36.3393,140.45,232.907,-232.925,587.964,4.38818e-09,-4.38836e-09,1.10776e-08,632.409,-632.427,1.08221e-06,1.1915e-08,-1.19152e-08,2.03894e-17
-0.770025,-0.53,0.184887,0.01,31.3946,140.45,229.826,-229.845,601.201,4.33014e-09,-4.33033e-09,1.1327e-08,643.626,-643.645,1.25754e-06,1.21264e-08,-1.21266e-08,2.36928e-17
-0.760025,-0.53,0.176833,0.01,26.4271,140.45,226.415,-226.435,614.732,4.26589e-09,-4.26609e-09,1.15819e-08,655.096,-655.116,1.43848e-06,1.23425e-08,-1.23427e-08,2.71019e-17
-0.750025,-0.53,0.168679,0.01,21.4368,140.45,222.656,-222.678,628.561,4.19507e-09,-4.19528e-09,1.18424e-08,666.824,-666.846,1.6233e-06,1.25635e-08,-1.25637e-08,3.05838e-17
-0.740025,-0.53,0.160343,0.01,16.4243,140.45,218.529,-218.551,642.687,4.1173e-09,-4.11753e-09,1.21086e-08,678.816,-678.839,1.8099e-06,1.27894e-08,-1.27896e-08,3.40995e-17
-0.730025,-0.53,0.152207,0.01,11.39,140.45,214.011,-214.035,657.114,4.0322e-09,-4.03244e-09,1.23804e-08,691.077,-691.101,1.9972e-06,1.30204e-08,-1.30206e-08,3.76285e-17
-0.720025,-0.53,0.144306,0.01,6.33424,140.45,209.082,-209.107,671.84,3.93933e-09,-3.93958e-09,1.26579e-08,703.614,-703.639,2.18392e-06,1.32566e-08,-1.32569e-08,4.11462e-17
-0.710025,-0.53,0.136387,0.01,1.25759,140.45,203.717,-203.744,686.866,3.83826e-09,-3.83853e-09,1.2941e-08,716.43,-716.457,2.36635e-06,1.34981e-08,-1.34983e-08,4.45833e-17
-0.700025,-0.53,0.128142,0.01,-3.83943,140.45,197.894,-197.921,702.191,3.72855e-09,-3.72883e-09,1.32297e-08,729.534,-729.561,2.54234e-06,1.3745e-08,-1.37452e-08,4.78992e-17
-0.690025,-0.53,0.120163,0.01,-8.95623,140.45,191.586,-191.615,717.812,3.60971e-09,-3.61001e-09,1.3524e-08,742.929,-742.958,2.70948e-06,1.39973e-08,-1.39976e-08,5.10481e-17
-0.680025,-0.53,0.112509,0.01,-14.0922,140.45,184.767,-184.798,733.726,3.48125e-09,-3.48157e-09,1.38238e-08,756.621,-756.652,2.86293e-06,1.42553e-08,-1.42556e-08,5.39393e-17
-0.670025,-0.53,0.104656,0.01,-19.2466,140.45,177.411,-177.443,749.93,3.34266e-09,-3.34299e-09,1.41291e-08,770.617,-770.649,2.99892e-06,1.4519e-08,-1.45193e-08,5.65015e-17
-0.660025,-0.53,0.096567,0.01,-24.4188,140.45,169.487,-169.522,766.417,3.19339e-09,-3.19374e-09,1.44397e-08,784.92,-784.955,3.11456e-06,1.47885e-08,-1.47889e-08,5.868e-17
-0.650025,-0.53,0.0888683,0.01,-29.6079,140.45,160.968,-161.004,783.182,3.03289e-09,-3.03326e-09,1.47556e-08,799.538,-799.574,3.19897e-06,1.50639e-08,-1.50643e-08,6.02704e-17
-0.640025,-0.53,0.0816699,0.01,-34.8131,140.45,151.822,-151.86,800.215,2.86059e-09,-2.86097e-09,1.50765e-08,814.474,-814.512,3.24115e-06,1.53453e-08,-1.53457e-08,6.10652e-17
-0.630025,-0.53,0.0735302,0.01,-40.0335,140.45,142.018,-142.057,817.507,2.67587e-09,-2.67627e-09,1.54023e-08,829.735,-829.774,3.78373e-06,1.56329e-08,-1.56333e-08,7.12877e-17
-0.620025,-0.53,0.0657588,0.01,-45.2681,140.45,131.522,-131.563,835.047,2.47812e-09,-2.47855e-09,1.57328e-08,845.323,-845.365,2.25612e-06,1.59266e-08,-1.5927e-08,4.25066e-17
-0.610025,-0.53,0.0586665,0.01,-50.5159,140.45,120.3,-120.344,852.821,2.26671e-09,-2.26715e-09,1.60676e-08,861.245,-861.289,-3.54134e-05,1.62266e-08,-1.6227e-08,-6.67209e-16
-0.600025,-0.53,0.051088,0.01,-55.7756,140.45,108.317,-108.363,870.814,2.04096e-09,-2.04143e-09,1.64066e-08,877.505,-877.551,0.000356747,1.65329e-08,-1.65334e-08,6.72132e-15
-0.590025,-0.53,0.0431807,0.01,-61.0462,140.45,95.5398,-95.5826,889.002,1.80021e-09,-1.80065e-09,1.67493e-08,894.102,-894.145,0.000835755,1.68456e-08,-1.6846e-08,1.57461e-14
-0.580025,-0.53,0.0363203,0.01,-66.3263,140.45,81.9673,-82.0139,907.381,1.54451e-09,-1.54499e-09,1.70956e-08,911.055,-911.101,-0.0390894,1.7165e-08,-1.71655e-08,-7.36467e-13
-0.570025,-0.53,0.0293755,0.01,-71.6147,140.45,68.0081,-66.4739,924.461,1.27464e-09,-1.25908e-09,1.74174e-08,927.67,-926.136,0.12166,1.74712e-08,-1.74556e-08,2.29215e-12
-0.560025,-0.53,0.0211342,0.01,-76.9097,140.45,55.7328,-48.8774,938.149,1.02023e-09,-9.50685e-10,1.76753e-08,943.034,-936.178,-0.582159,1.77375e-08,-1.76679e-08,-1.09682e-11
-0.550025,-0.53,0.0151786,0.01,-82.2101,140.45,46.1298,-28.9643,949.888,7.94479e-10,-6.20336e-10,1.78964e-08,959.209,-942.044,-2.30938,1.79974e-08,-1.78233e-08,-4.351e-11
-0.540025,-0.53,0.00974588,0.01,-87.5146,140.45,30.2267,-12.5148,967.247,4.9248e-10,-3.12794e-10,1.82235e-08,976.334,-958.622,-3.24464,1.83177e-08,-1.8138e-08,-6.11308e-11
0.539975,-0.53,0.00969617,0.01,-87.541,140.45,30.216,-12.4977,-967.313,4.92251e-10,-3.125e-10,-1.82247e-08,976.403,-958.684,3.3186,1.8319e-08,-1.81392e-08,6.25244e-11
0.549975,-0.53,0.0151596,0.01,-82.2364,140.45,46.1031,-28.8647,-949.939,7.9366e-10,-6.18777e-10,-1.78974e-08,959.294,-942.056,2.33031,1.79987e-08,-1.78238e-08,4.39044e-11
0.559975,-0.53,0.021097,0.01,-76.9361,140.45,55.6542,-48.7822,-938.224,1.01868e-09,-9.48964e-10,-1.76767e-08,943.112,-936.24,0.574541,1.77389e-08,-1.76692e-08,1.08247e-11
0.569975,-0.53,0.0293318,0.01,-71.641,140.45,67.9294,-66.3925,-924.551,1.27315e-09,-1.25756e-09,-1.74191e-08,927.756,-926.219,-0.127368,1.74728e-08,-1.74572e-08,-2.39969e-12
0.579975,-0.53,0.0362899,0.01,-66.3526,140.45,81.8976,-81.9447,-907.474,1.5432e-09,-1.54368e-09,-1.70973e-08,911.14,-911.187,0.0394239,1.71666e-08,-1.71671e-08,7.42769e-13
0.589975,-0.53,0.0431436,0.01,-61.0724,140.45,95.4742,-95.517,-889.093,1.79898e-09,-1.79941e-09,-1.6751e-08,894.185,-894.228,-0.000803724,1.68472e-08,-1.68476e-08,-1.51426e-14
0.599975,-0.53,0.0510469,0.01,-55.8018,140.45,108.255,-108.302,-870.904,2.0398e-09,-2.04027e-09,-1.64083e-08,877.587,-877.633,-0.000363252,1.65344e-08,-1.65349e-08,-6.84389e-15
0.609975,-0.53,0.0586334,0.01,-50.542,140.45,120.242,-120.286,-852.91,2.26562e-09,-2.26607e-09,-1.60693e-08,861.325,-861.369,3.56112e-05,1.62281e-08,-1.62285e-08,6.70936e-16
0.619975,-0.53,0.0657217,0.01,-45.2942,140.45,131.468,-131.509,-835.135,2.47711e-09,-2.47753e-09,-1.57344e-08,845.402,-845.443,-2.19973e-06,1.5928e-08,-1.59285e-08,-4.14442e-17
0.629975,-0.53,0.0734902,0.01,-40.0595,140.45,141.967,-142.007,-817.594,2.67492e-09,-2.67532e-09,-1.54039e-08,829.811,-829.851,-3.79021e-06,1.56343e-08,-1.56347e-08,-7.14097e-17
0.639975,-0.53,0.0816356,0.01,-34.8391,140.45,151.775,-151.813,-800.3,2.8597e-09,-2.86008e-09,-1.50781e-08,814.549,-814.587,-3.24142e-06,1.53467e-08,-1.53471e-08,-6.10703e-17
0.649975,-0.53,0.0888312,0.01,-29.6338,140.45,160.924,-160.96,-783.266,3.03207e-09,-3.03243e-09,-1.47572e-08,799.612,-799.648,-3.19873e-06,1.50653e-08,-1.50657e-08,-6.02659e-17
0.659975,-0.53,0.0965277,0.01,-24.4446,140.45,169.447,-169.481,-766.5,3.19262e-09,-3.19297e-09,-1.44413e-08,784.992,-785.027,-3.11522e-06,1.47899e-08,-1.47902e-08,-5.86926e-17
0.669975,-0.53,0.104615,0.01,-19.2723,140.45,177.373,-177.405,-750.011,3.34194e-09,-3.34227e-09,-1.41306e-08,770.687,-770.72,-3.00005e-06,1.45203e-08,-1.45207e-08,-5.65227e-17
0.679975,-0.53,0.112472,0.01,-14.1178,140.45,184.732,-184.763,-733.806,3.48059e-09,-3.4809e-09,-1.38253e-08,756.69,-756.721,-2.86316e-06,1.42566e-08,-1.42569e-08,-5.39435e-17
0.689975,-0.53,0.120124,0.01,-8.98173,140.45,191.553,-191.582,-717.89,3.6091e-09,-3.6094e-09,-1.35255e-08,742.996,-743.025,-2.70925e-06,1.39986e-08,-1.39989e-08,-5.10438e-17
0.699975,-0.53,0.128101,0.01,-3.86483,140.45,197.863,-197.891,-702.268,3.72798e-09,-3.72827e-09,-1.32311e-08,729.599,-729.627,-2.54306e-06,1.37462e-08,-1.37465e-08,-4.79127e-17
0.709975,-0.53,0.136345,0.01,1.23229,140.45,203.689,-203.716,-686.942,3.83774e-09,-3.83801e-09,-1.29424e-08,716.495,-716.521,-2.36716e-06,1.34993e-08,-1.34996e-08,-4.45986e-17
0.719975,-0.53,0.144267,0.01,6.30905,140.45,209.056,-209.081,-671.914,3.93885e-09,-3.9391e-09,-1.26593e-08,703.677,-703.702,-2.1845e-06,1.32578e-08,-1.3258e-08,-4.11573e-17
0.729975,-0.53,0.152167,0.01,11.3649,140.45,213.988,-214.011,-657.186,4.03175e-09,-4.03199e-09,-1.23818e-08,691.139,-691.163,-1.99811e-06,1.30216e-08,-1.30218e-08,-3.76456e-17
0.739975,-0.53,0.160302,0.01,16.3993,140.45,218.507,-218.53,-642.758,4.1169e-09,-4.11713e-09,-1.21099e-08,678.877,-678.899,-1.81055e-06,1.27905e-08,-1.27908e-08,-3.41118e-17
0.749975,-0.53,0.168638,0.01,21.412,140.45,222.637,-222.658,-628.63,4.1947e-09,-4.19491e-09,-1.18438e-08,666.883,-666.905,-1.62395e-06,1.25646e-08,-1.25648e-08,-3.05961e-17
0.759975,-0.53,0.176793,0.01,26.4023,140.45,226.398,-226.418,-614.8,4.26555e-09,-4.26575e-09,-1.15832e-08,655.154,-655.174,-1.43906e-06,1.23436e-08,-1.23438e-08,-2.71128e-17
0.769975,-0.53,0.184846,0.01,31.37,140.45,229.81,-229.829,-601.268,4.32983e-09,-4.33002e-09,-1.13282e-08,643.683,-643.702,-1.25834e-06,1.21274e-08,-1.21276e-08,-2.37078e-17
0.779975,-0.53,0.193082,0.01,36.3147,140.45,232.893,-232.91,-588.03,4.38791e-09,-4.38809e-09,-1.10788e-08,632.464,-632.482,-1.08314e-06,1.19161e-08,-1.19162e-08,-2.04069e-17
0.789975,-0.53,0.201477,0.01,41.2362,140.45,235.664,-235.681,-575.084,4.44013e-09,-4.4403e-09,-1.08349e-08,621.492,-621.509,-9.13291e-07,1.17093e-08,-1.17095e-08,-1.72069e-17
0.799975,-0.53,0.209958,0.01,46.134,140.45,238.142,-238.158,-562.427,4.48681e-09,-4.48697e-09,-1.05965e-08,610.762,-610.778,-7.50223e-07,1.15072e-08,-1.15073e-08,-1.41346e-17
0.809975,-0.53,0.218115,0.01,51.0081,140.45,240.121,-240.592,-550.493,4.52607e-09,-4.53084e-09,-1.03716e-08,600.443,-600.913,-0.169848,1.13147e-08,-1.13195e-08,-3.20003e-12
0.819975,-0.53,0.22642,0.01,55.8581,140.45,241.69,-244.353,-540.124,4.56516e-09,-4.59217e-09,-1.01762e-08,590.946,-593.609,-0.218721,1.11453e-08,-1.11724e-08,-4.12084e-12
0.829975,-0.53,0.234856,0.01,60.6839,140.45,243.828,-247.92,-531.071,4.61166e-09,-4.65317e-09,-1.00057e-08,583.181,-587.273,-0.351955,1.10053e-08,-1.10468e-08,-6.63103e-12
0.839975,-0.53,0.243411,0.01,65.4853,140.45,248.104,-251.191,-521.777,4.68785e-09,-4.71917e-09,-9.83059e-09,576.881,-579.968,0.712319,1.08822e-08,-1.09135e-08,1.34205e-11
-0.840025,-0.52,0.238127,0.01,62.5,135.2,256.309,-266.741,522.803,4.87436e-09,-4.9802e-09,9.84991e-09,579.35,-589.782,-0.951989,1.09606e-08,-1.10665e-08,-1.7936e-11
-0.830025,-0.52,0.229786,0.01,57.6467,135.2,255.829,-258.996,529.786,4.83374e-09,-4.86586e-09,9.98147e-09,587.428,-590.594,-0.487658,1.10812e-08,-1.11134e-08,-9.18776e-12
-0.820025,-0.52,0.221153,0.01,52.7677,135.2,254.146,-254.576,539.996,4.79012e-09,-4.79448e-09,1.01738e-08,596.69,-597.119,0.185669,1.12438e-08,-1.12482e-08,3.49812e-12
-0.810025,-0.52,0.212641,0.01,47.8633,135.2,252.711,-252.726,551.918,4.76129e-09,-4.76144e-09,1.03984e-08,607.018,-607.033,4.11414e-07,1.14366e-08,-1.14368e-08,7.75129e-18
-0.800025,-0.52,0.204263,0.01,42.9337,135.2,250.804,-250.819,564.554,4.72535e-09,-4.72551e-09,1.06365e-08,617.752,-617.768,5.75166e-07,1.16389e-08,-1.1639e-08,1.08365e-17
-0.790025,-0.52,0.196038,0.01,37.9789,135.2,248.623,-248.64,577.493,4.68427e-09,-4.68444e-09,1.08803e-08,628.733,-628.749,7.48512e-07,1.18458e-08,-1.18459e-08,1.41024e-17
-0.780025,-0.52,0.187759,0.01,32.9993,135.2,246.152,-246.17,590.738,4.63773e-09,-4.63791e-09,1.11298e-08,639.965,-639.982,9.30563e-07,1.20574e-08,-1.20576e-08,1.75324e-17
-0.770025,-0.52,0.179277,0.01,27.9951,135.2,243.374,-243.393,604.293,4.58538e-09,-4.58557e-09,1.13852e-08,651.454,-651.473,1.12069e-06,1.22739e-08,-1.2274e-08,2.11145e-17
-0.760025,-0.52,0.170958,0.01,22.9665,135.2,240.269,-240.289,618.161,4.52689e-09,-4.52709e-09,1.16465e-08,663.208,-663.228,1.31872e-06,1.24953e-08,-1.24955e-08,2.48454e-17
-0.750025,-0.52,0.162829,0.01,17.914,135.2,236.818,-236.839,632.347,4.46188e-09,-4.46209e-09,1.19138e-08,675.231,-675.252,1.52281e-06,1.27218e-08,-1.2722e-08,2.86906e-17
-0.740025,-0.52,0.154898,0.01,12.8377,135.2,233,-233.022,646.852,4.38995e-09,-4.39018e-09,1.21871e-08,687.529,-687.552,1.73157e-06,1.29536e-08,-1.29538e-08,3.26238e-17
-0.730025,-0.52,0.14646,0.01,7.73816,135.2,228.793,-228.817,661.679,4.3107e-09,-4.31094e-09,1.24664e-08,700.11,-700.134,1.94432e-06,1.31906e-08,-1.31908e-08,3.66321e-17
-0.720025,-0.52,0.138231,0.01,2.61573,135.2,224.176,-224.201,676.829,4.22371e-09,-4.22396e-09,1.27518e-08,712.979,-713.004,2.15908e-06,1.34331e-08,-1.34333e-08,4.06784e-17
-0.710025,-0.52,0.130249,0.01,-2.52912,135.2,219.122,-219.149,692.302,4.12851e-09,-4.12878e-09,1.30434e-08,726.143,-726.169,2.37241e-06,1.36811e-08,-1.36813e-08,4.46975e-17
-0.700025,-0.52,0.122564,0.01,-7.69587,135.2,213.609,-213.637,708.099,4.02464e-09,-4.02493e-09,1.3341e-08,739.607,-739.635,2.58246e-06,1.39347e-08,-1.3935e-08,4.8655e-17
-0.690025,-0.52,0.114208,0.01,-12.884,135.2,207.61,-207.639,724.219,3.91161e-09,-3.91191e-09,1.36447e-08,753.378,-753.408,2.78678e-06,1.41942e-08,-1.41945e-08,5.25045e-17
-0.680025,-0.52,0.106124,0.01,-18.0929,135.2,201.096,-201.128,740.659,3.78891e-09,-3.78922e-09,1.39544e-08,767.462,-767.493,2.98094e-06,1.44596e-08,-1.44599e-08,5.61627e-17
-0.670025,-0.52,0.098394,0.01,-23.3218,135.2,194.041,-194.074,757.417,3.65599e-09,-3.65632e-09,1.42702e-08,781.865,-781.898,3.16061e-06,1.47309e-08,-1.47313e-08,5.95478e-17
-0.660025,-0.52,0.0907935,0.01,-28.5702,135.2,186.414,-186.448,774.489,3.51229e-09,-3.51264e-09,1.45918e-08,796.594,-796.628,3.32345e-06,1.50084e-08,-1.50088e-08,6.26156e-17
-0.650025,-0.52,0.0825581,0.01,-33.8372,135.2,178.183,-178.22,791.868,3.35723e-09,-3.3576e-09,1.49193e-08,811.653,-811.69,3.49593e-06,1.52922e-08,-1.52926e-08,6.58654e-17
-0.640025,-0.52,0.0747545,0.01,-39.1221,135.2,169.318,-169.356,809.549,3.19021e-09,-3.1906e-09,1.52524e-08,827.05,-827.089,3.40115e-06,1.55823e-08,-1.55827e-08,6.40797e-17
-0.630025,-0.52,0.0675325,0.01,-44.4238,135.2,159.783,-159.824,827.521,3.01059e-09,-3.011e-09,1.5591e-08,842.79,-842.83,1.29382e-06,1.58788e-08,-1.58792e-08,2.43762e-17
-0.620025,-0.52,0.059581,0.01,-49.7416,135.2,149.546,-149.588,845.776,2.81771e-09,-2.81814e-09,1.59349e-08,858.878,-858.92,3.30864e-05,1.61819e-08,-1.61824e-08,6.23368e-16
-0.610025,-0.52,0.0516472,0.01,-55.0743,135.2,138.569,-138.613,864.3,2.6109e-09,-2.61135e-09,1.62839e-08,875.319,-875.363,4.34948e-05,1.64917e-08,-1.64922e-08,8.19468e-16
-0.600025,-0.52,0.044553,0.01,-60.4208,135.2,126.818,-126.864,883.08,2.38953e-09,-2.39e-09,1.66377e-08,892.12,-892.166,-0.00312582,1.68083e-08,-1.68087e-08,-5.88923e-14
-0.590025,-0.52,0.0372928,0.01,-65.78,135.2,114.21,-114.303,902.148,2.15218e-09,-2.15313e-09,1.6997e-08,909.308,-909.402,0.020471,1.71323e-08,-1.71332e-08,3.85685e-13
-0.580025,-0.52,0.0290747,0.01,-71.1506,135.2,101.015,-100.271,920.509,1.89994e-09,-1.8924e-09,1.73429e-08,926.366,-925.622,0.114943,1.745e-08,-1.74425e-08,2.1656e-12
-0.570025,-0.52,0.0223591,0.01,-76.5314,135.2,88.1136,-81.7167,935.299,1.6323e-09,-1.5674e-09,1.76216e-08,942.344,-935.947,1.10936,1.77265e-08,-1.76616e-08,2.0901e-11
-0.560025,-0.52,0.0163166,0.01,-81.9208,135.2,78.8765,-58.9486,945.369,1.39944e-09,-1.19727e-09,1.78113e-08,957.841,-937.913,1.24968,1.79596e-08,-1.77575e-08,2.35447e-11
-0.550025,-0.52,0.00706857,0.01,-87.3161,135.2,65.8398,-43.7708,953.7,1.14451e-09,-9.2062e-10,1.79683e-08,966.307,-944.238,-1.23963,1.81098e-08,-1.78859e-08,-2.33553e-11
0.549975,-0.52,0.00702772,0.01,-87.343,135.2,65.7585,-43.6398,-953.696,1.14276e-09,-9.18367e-10,-1.79682e-08,966.322,-944.203,1.22004,1.81099e-08,-1.78855e-08,2.29863e-11
0.559975,-0.52,0.0162684,0.01,-81.9476,135.2,78.7792,-58.825,-945.453,1.39749e-09,-1.19505e-09,-1.78129e-08,957.929,-937.975,-1.28205,1.79612e-08,-1.77588e-08,-2.41546e-11
0.569975,-0.52,0.0223319,0.01,-76.5581,135.2,88.0249,-81.6311,-935.404,1.63064e-09,-1.56578e-09,-1.76236e-08,942.439,-936.045,-1.12411,1.77283e-08,-1.76634e-08,-2.11789e-11
0.579975,-0.52,0.0290367,0.01,-71.1774,135.2,100.943,-100.206,-920.61,1.89862e-09,-1.89114e-09,-1.73448e-08,926.456,-925.719,-0.115174,1.74518e-08,-1.74443e-08,-2.16994e-12
0.589975,-0.52,0.0372497,0.01,-65.8067,135.2,114.145,-114.238,-902.244,2.15096e-09,-2.15191e-09,-1.69988e-08,909.395,-909.488,-0.0209573,1.71339e-08,-1.71349e-08,-3.94847e-13
0.599975,-0.52,0.0445205,0.01,-60.4474,135.2,126.758,-126.804,-883.174,2.38839e-09,-2.38886e-09,-1.66395e-08,892.204,-892.251,0.00315338,1.68098e-08,-1.68103e-08,5.94114e-14
0.609975,-0.52,0.0516095,0.01,-55.1008,135.2,138.512,-138.556,-864.393,2.60984e-09,-2.61029e-09,-1.62857e-08,875.402,-875.446,-4.08013e-05,1.64933e-08,-1.64937e-08,-7.68721e-16
0.619975,-0.52,0.05954,0.01,-49.7681,135.2,149.493,-149.535,-845.868,2.81672e-09,-2.81715e-09,-1.59366e-08,858.959,-859.001,-3.35643e-05,1.61835e-08,-1.61839e-08,-6.3237e-16
0.629975,-0.52,0.0674983,0.01,-44.4502,135.2,159.734,-159.775,-827.611,3.00966e-09,-3.01007e-09,-1.55927e-08,842.869,-842.909,-1.29018e-06,1.58803e-08,-1.58807e-08,-2.43077e-17
0.639975,-0.52,0.074717,0.01,-39.1484,135.2,169.272,-169.31,-809.637,3.18935e-09,-3.18974e-09,-1.5254e-08,827.128,-827.166,-3.39672e-06,1.55837e-08,-1.55841e-08,-6.39962e-17
0.649975,-0.52,0.0825182,0.01,-33.8635,135.2,178.141,-178.177,-791.955,3.35643e-09,-3.3568e-09,-1.49209e-08,811.729,-811.766,-3.49648e-06,1.52936e-08,-1.5294e-08,-6.58757e-17
0.659975,-0.52,0.0907516,0.01,-28.5964,135.2,186.374,-186.409,-774.574,3.51155e-09,-3.5119e-09,-1.45934e-08,796.668,-796.702,-3.32462e-06,1.50098e-08,-1.50102e-08,-6.26378e-17
0.669975,-0.52,0.0983566,0.01,-23.3479,135.2,194.004,-194.037,-757.501,3.6553e-09,-3.65563e-09,-1.42718e-08,781.938,-781.971,-3.16237e-06,1.47323e-08,-1.47326e-08,-5.95808e-17
0.679975,-0.52,0.106085,0.01,-18.1188,135.2,201.063,-201.094,-740.742,3.78827e-09,-3.78859e-09,-1.3956e-08,767.533,-767.564,-2.9822e-06,1.44609e-08,-1.44612e-08,-5.61863e-17
0.689975,-0.52,0.114167,0.01,-12.9098,135.2,207.579,-207.608,-724.3,3.91103e-09,-3.91133e-09,-1.36462e-08,753.447,-753.477,-2.7876e-06,1.41955e-08,-1.41958e-08,-5.252e-17
0.699975,-0.52,0.122527,0.01,-7.72162,135.2,213.581,-213.609,-708.178,4.0241e-09,-4.02439e-09,-1.33425e-08,739.675,-739.703,-2.58385e-06,1.3936e-08,-1.39363e-08,-4.86812e-17
0.709975,-0.52,0.13021,0.01,-2.55476,135.2,219.096,-219.123,-692.38,4.12801e-09,-4.12828e-09,-1.30448e-08,726.209,-726.236,-2.37354e-06,1.36823e-08,-1.36826e-08,-4.47188e-17
0.719975,-0.52,0.13819,0.01,2.5902,135.2,224.151,-224.176,-676.905,4.22325e-09,-4.22351e-09,-1.27533e-08,713.044,-713.069,-2.15965e-06,1.34343e-08,-1.34345e-08,-4.06891e-17
0.729975,-0.52,0.146419,0.01,7.71274,135.2,228.771,-228.795,-661.754,4.31029e-09,-4.31053e-09,-1.24678e-08,700.174,-700.197,-1.94527e-06,1.31918e-08,-1.3192e-08,-3.665e-17
0.739975,-0.52,0.154856,0.01,12.8124,135.2,232.98,-233.002,-646.925,4.38957e-09,-4.3898e-09,-1.21884e-08,687.591,-687.614,-1.73268e-06,1.29547e-08,-1.29549e-08,-3.26446e-17
0.749975,-0.52,0.162789,0.01,17.8888,135.2,236.8,-236.821,-632.419,4.46154e-09,-4.46175e-09,-1.19151e-08,675.291,-675.312,-1.52369e-06,1.2723e-08,-1.27232e-08,-2.87072e-17
0.759975,-0.52,0.170917,0.01,22.9415,135.2,240.253,-240.272,-618.231,4.52658e-09,-4.52679e-09,-1.16478e-08,663.267,-663.287,-1.31935e-06,1.24964e-08,-1.24966e-08,-2.48574e-17
0.769975,-0.52,0.179235,0.01,27.9701,135.2,243.359,-243.378,-604.361,4.58511e-09,-4.5853e-09,-1.13865e-08,651.512,-651.531,-1.12205e-06,1.22749e-08,-1.22751e-08,-2.114e-17
0.779975,-0.52,0.187716,0.01,32.9745,135.2,246.139,-246.157,-590.804,4.63748e-09,-4.63766e-09,-1.11311e-08,640.021,-640.039,-9.32232e-07,1.20584e-08,-1.20586e-08,-1.75638e-17
0.789975,-0.52,0.195998,0.01,37.9542,135.2,248.611,-248.628,-577.558,4.68405e-09,-4.68422e-09,-1.08815e-08,628.788,-628.805,-7.49742e-07,1.18468e-08,-1.1847e-08,-1.41256e-17
0.799975,-0.52,0.204222,0.01,42.9091,135.2,250.794,-250.809,-564.618,4.72516e-09,-4.72532e-09,-1.06377e-08,617.806,-617.822,-5.762e-07,1.16399e-08,-1.16401e-08,-1.08559e-17
0.809975,-0.52,0.212599,0.01,47.8389,135.2,252.703,-252.717,-551.98,4.76113e-09,-4.76128e-09,-1.03996e-08,607.071,-607.086,-4.11856e-07,1.14376e-08,-1.14378e-08,-7.75961e-18
0.819975,-0.52,0.221111,0.01,52.7434,135.2,254.138,-254.568,-540.057,4.78998e-09,-4.79434e-09,-1.0175e-08,596.741,-597.171,-0.1857,1.12448e-08,-1.12492e-08,-3.49869e-12
0.829975,-0.52,0.229743,0.01,57.6225,135.2,255.822,-258.989,-529.845,4.83361e-09,-4.86574e-09,-9.98259e-09,587.478,-590.645,0.487616,1.10822e-08,-1.11143e-08,9.18697e-12
0.839975,-0.52,0.238086,0.01,62.476,135.2,256.303,-266.736,-522.862,4.87426e-09,-4.9801e-09,-9.85102e-09,579.4,-589.833,0.951961,1.09616e-08,-1.10674e-08,1.79355e-11
-0.850025,-0.51,0.241394,0.01,64.3954,130.05,267.515,-279.3,513.337,5.09138e-09,-5.21094e-09,9.67157e-09,575.715,-587.5,0.343393,1.0898e-08,-1.10176e-08,6.46972e-12
-0.840025,-0.51,0.232788,0.01,59.5166,130.05,267.432,-275.282,522.177,5.07271e-09,-5.15235e-09,9.83811e-09,584.55,-592.4,0.150773,1.10474e-08,-1.1127e-08,2.84065e-12
-0.830025,-0.51,0.224298,0.01,54.611,130.05,267.721,-269.825,530.375,5.05316e-09,-5.0745e-09,9.99257e-09,593.537,-595.641,-0.108555,1.11917e-08,-1.12131e-08,-2.04524e-12
-0.820025,-0.51,0.215937,0.01,49.6787,130.05,266.676,-266.697,540.961,5.02443e-09,-5.02464e-09,1.0192e-08,603.115,-603.136,-0.00341132,1.13631e-08,-1.13633e-08,-6.42713e-14
-0.810025,-0.51,0.207462,0.01,44.7196,130.05,265.326,-265.341,553.543,4.99896e-09,-4.99911e-09,1.04291e-08,613.842,-613.857,1.90807e-07,1.15652e-08,-1.15654e-08,3.59492e-18
-0.800025,-0.51,0.198866,0.01,39.7341,130.05,263.726,-263.742,566.441,4.96882e-09,-4.96898e-09,1.06721e-08,624.821,-624.837,3.61461e-07,1.17721e-08,-1.17722e-08,6.81013e-18
-0.790025,-0.51,0.190408,0.01,34.7221,130.05,261.858,-261.875,579.659,4.93363e-09,-4.9338e-09,1.09211e-08,636.057,-636.073,5.43535e-07,1.19837e-08,-1.19839e-08,1.02405e-17
-0.780025,-0.51,0.182106,0.01,29.684,130.05,259.705,-259.722,593.2,4.89307e-09,-4.89324e-09,1.11762e-08,647.554,-647.572,7.36552e-07,1.22004e-08,-1.22006e-08,1.38771e-17
-0.770025,-0.51,0.173982,0.01,24.6199,130.05,257.248,-257.266,607.07,4.84678e-09,-4.84697e-09,1.14376e-08,659.321,-659.339,9.4004e-07,1.24221e-08,-1.24222e-08,1.77109e-17
-0.760025,-0.51,0.16548,0.01,19.5301,130.05,254.468,-254.488,621.274,4.79442e-09,-4.79461e-09,1.17052e-08,671.362,-671.382,1.15379e-06,1.26489e-08,-1.26491e-08,2.17381e-17
-0.750025,-0.51,0.157068,0.01,14.4148,130.05,251.346,-251.367,635.814,4.73559e-09,-4.7358e-09,1.19791e-08,683.685,-683.706,1.37611e-06,1.28811e-08,-1.28813e-08,2.59267e-17
-0.740025,-0.51,0.148852,0.01,9.2744,130.05,247.859,-247.882,650.696,4.66991e-09,-4.67014e-09,1.22595e-08,696.297,-696.319,1.6062e-06,1.31187e-08,-1.3119e-08,3.02617e-17
-0.730025,-0.51,0.140867,0.01,4.10921,130.05,243.987,-244.01,665.921,4.59695e-09,-4.59719e-09,1.25463e-08,709.204,-709.227,1.84359e-06,1.33619e-08,-1.33621e-08,3.47344e-17
-0.720025,-0.51,0.132633,0.01,-1.08036,130.05,239.704,-239.729,681.493,4.51628e-09,-4.51653e-09,1.28397e-08,722.412,-722.437,2.08607e-06,1.36108e-08,-1.3611e-08,3.93028e-17
-0.710025,-0.51,0.124292,0.01,-6.29391,130.05,234.988,-235.014,697.414,4.42742e-09,-4.42769e-09,1.31397e-08,735.93,-735.956,2.33065e-06,1.38655e-08,-1.38657e-08,4.39107e-17
-0.700025,-0.51,0.116214,0.01,-11.531,130.05,229.811,-229.839,713.684,4.32989e-09,-4.33018e-09,1.34462e-08,749.763,-749.791,2.57583e-06,1.41261e-08,-1.41264e-08,4.85301e-17
-0.690025,-0.51,0.108456,0.01,-16.791,130.05,224.147,-224.177,730.305,4.22319e-09,-4.22349e-09,1.37594e-08,763.918,-763.948,2.81897e-06,1.43928e-08,-1.43931e-08,5.3111e-17
-0.680025,-0.51,0.100332,0.01,-22.0734,130.05,217.968,-217.999,747.274,4.10677e-09,-4.10709e-09,1.40791e-08,778.403,-778.434,3.05596e-06,1.46657e-08,-1.4666e-08,5.7576e-17
-0.670025,-0.51,0.0921172,0.01,-27.3776,130.05,211.243,-211.276,764.591,3.98009e-09,-3.98042e-09,1.44053e-08,793.223,-793.257,3.28365e-06,1.49449e-08,-1.49453e-08,6.18659e-17
-0.660025,-0.51,0.0842885,0.01,-32.703,130.05,203.942,-203.977,782.252,3.84254e-09,-3.8429e-09,1.47381e-08,808.387,-808.422,3.47635e-06,1.52306e-08,-1.5231e-08,6.54964e-17
-0.650025,-0.51,0.0769645,0.01,-38.0487,130.05,196.033,-196.07,800.254,3.69354e-09,-3.69391e-09,1.50772e-08,823.9,-823.937,3.59896e-06,1.55229e-08,-1.55233e-08,6.78065e-17
-0.640025,-0.51,0.068604,0.01,-43.4141,130.05,187.481,-187.52,818.59,3.53243e-09,-3.53282e-09,1.54227e-08,839.77,-839.809,5.99185e-06,1.58219e-08,-1.58223e-08,1.1289e-16
-0.630025,-0.51,0.0606539,0.01,-48.7981,130.05,178.252,-178.293,837.253,3.35855e-09,-3.35897e-09,1.57743e-08,856.002,-856.043,2.22388e-06,1.61278e-08,-1.61282e-08,4.18993e-17
-0.620025,-0.51,0.0533975,0.01,-54.2001,130.05,168.309,-168.352,856.235,3.17123e-09,-3.17167e-09,1.6132e-08,872.603,-872.646,-0.000205409,1.64405e-08,-1.6441e-08,-3.87003e-15
-0.610025,-0.51,0.0457504,0.01,-59.6188,130.05,157.611,-157.66,875.528,2.96969e-09,-2.97019e-09,1.64954e-08,889.581,-889.63,0.00154565,1.67604e-08,-1.67609e-08,2.91209e-14
-0.600025,-0.51,0.0375584,0.01,-65.0533,130.05,146.122,-146.15,895.085,2.75314e-09,-2.75343e-09,1.68639e-08,906.921,-906.95,0.0107652,1.7087e-08,-1.70873e-08,2.02822e-13
-0.590025,-0.51,0.0304659,0.01,-70.5024,130.05,134.495,-133.643,914.09,2.53025e-09,-2.52161e-09,1.7222e-08,924.296,-923.444,-0.360416,1.74106e-08,-1.74019e-08,-6.79045e-12
-0.580025,-0.51,0.0239064,0.01,-75.9649,130.05,122.788,-117.522,930.634,2.2905e-09,-2.23708e-09,1.75337e-08,940.992,-935.726,-0.0880025,1.77059e-08,-1.76525e-08,-1.65802e-12
-0.570025,-0.51,0.0150368,0.01,-81.4393,130.05,109.932,-96.6651,944.39,2.0135e-09,-1.87891e-09,1.77929e-08,956.654,-943.387,1.98766,1.79662e-08,-1.78316e-08,3.74487e-11
-0.560025,-0.51,0.00898298,0.01,-86.9245,130.05,94.9046,-74.4001,956.277,1.69891e-09,-1.49089e-09,1.80168e-08,970.256,-949.751,4.93588,1.8191e-08,-1.7983e-08,9.29948e-11
0.559975,-0.51,0.00897054,0.01,-86.9518,130.05,94.7792,-74.2846,-956.437,1.69659e-09,-1.48867e-09,-1.80198e-08,970.399,-949.905,-4.9859,1.81938e-08,-1.79859e-08,-9.39373e-11
0.569975,-0.51,0.0149962,0.01,-81.4665,130.05,109.832,-96.6195,-944.523,2.01185e-09,-1.87781e-09,-1.77954e-08,956.751,-943.539,-1.9924,1.79683e-08,-1.78343e-08,-3.75379e-11
0.579975,-0.51,0.0238601,0.01,-75.992,130.05,122.727,-117.47,-930.742,2.28939e-09,-2.23606e-09,-1.75357e-08,941.087,-935.83,0.0980316,1.77078e-08,-1.76544e-08,1.84697e-12
0.589975,-0.51,0.0304347,0.01,-70.5295,130.05,134.435,-133.582,-914.189,2.52913e-09,-2.52048e-09,-1.72239e-08,924.385,-923.532,0.363907,1.74122e-08,-1.74036e-08,6.85622e-12
0.599975,-0.51,0.0375199,0.01,-65.0803,130.05,146.063,-146.091,-895.182,2.75203e-09,-2.75231e-09,-1.68658e-08,907.008,-907.036,-0.0106805,1.70887e-08,-1.7089e-08,-2.01227e-13
0.609975,-0.51,0.0457078,0.01,-59.6458,130.05,157.556,-157.604,-875.624,2.96866e-09,-2.96915e-09,-1.64973e-08,889.667,-889.715,-0.00158044,1.6762e-08,-1.67625e-08,-2.97765e-14
0.619975,-0.51,0.0533637,0.01,-54.227,130.05,168.258,-168.301,-856.33,3.17026e-09,-3.1707e-09,-1.61338e-08,872.687,-872.73,0.000207032,1.64421e-08,-1.64425e-08,3.9006e-15
0.629975,-0.51,0.0606159,0.01,-48.825,130.05,178.204,-178.245,-837.347,3.35765e-09,-3.35807e-09,-1.57761e-08,856.084,-856.125,-1.9988e-06,1.61293e-08,-1.61297e-08,-3.76585e-17
0.639975,-0.51,0.0685631,0.01,-43.4408,130.05,187.437,-187.476,-818.682,3.53159e-09,-3.53199e-09,-1.54244e-08,839.85,-839.889,-6.02078e-06,1.58234e-08,-1.58238e-08,-1.13435e-16
0.649975,-0.51,0.0769295,0.01,-38.0754,130.05,195.992,-196.029,-800.344,3.69276e-09,-3.69314e-09,-1.50789e-08,823.978,-824.015,-3.60059e-06,1.55244e-08,-1.55248e-08,-6.78372e-17
0.659975,-0.51,0.0842507,0.01,-32.7295,130.05,203.905,-203.939,-782.341,3.84183e-09,-3.84219e-09,-1.47398e-08,808.463,-808.498,-3.47747e-06,1.52321e-08,-1.52324e-08,-6.55175e-17
0.669975,-0.51,0.0920772,0.01,-27.4041,130.05,211.208,-211.241,-764.678,3.97943e-09,-3.97977e-09,-1.4407e-08,793.298,-793.331,-3.28499e-06,1.49463e-08,-1.49467e-08,-6.18912e-17
0.679975,-0.51,0.100291,0.01,-22.0997,130.05,217.936,-217.967,-747.359,4.10617e-09,-4.10649e-09,-1.40807e-08,778.476,-778.507,-3.05691e-06,1.46671e-08,-1.46674e-08,-5.75939e-17
0.689975,-0.51,0.108419,0.01,-16.8172,130.05,224.118,-224.147,-730.388,4.22264e-09,-4.22294e-09,-1.37609e-08,763.989,-764.019,-2.81997e-06,1.43941e-08,-1.43944e-08,-5.31298e-17
0.699975,-0.51,0.116174,0.01,-11.5571,130.05,229.784,-229.812,-713.766,4.32939e-09,-4.32967e-09,-1.34478e-08,749.832,-749.86,-2.57763e-06,1.41274e-08,-1.41277e-08,-4.85641e-17
0.709975,-0.51,0.124251,0.01,-6.3199,130.05,234.963,-234.99,-697.494,4.42696e-09,-4.42723e-09,-1.31412e-08,735.998,-736.024,-2.33231e-06,1.38667e-08,-1.3867e-08,-4.3942e-17
0.719975,-0.51,0.132591,0.01,-1.10623,130.05,239.682,-239.707,-681.572,4.51586e-09,-4.51611e-09,-1.28412e-08,722.479,-722.504,-2.08699e-06,1.3612e-08,-1.36123e-08,-3.93202e-17
0.729975,-0.51,0.140828,0.01,4.08347,130.05,243.967,-243.99,-665.998,4.59657e-09,-4.59681e-09,-1.25478e-08,709.269,-709.292,-1.84489e-06,1.33631e-08,-1.33634e-08,-3.47588e-17
0.739975,-0.51,0.148811,0.01,9.24877,130.05,247.841,-247.863,-650.771,4.66957e-09,-4.66979e-09,-1.22609e-08,696.36,-696.383,-1.60784e-06,1.31199e-08,-1.31202e-08,-3.02926e-17
0.749975,-0.51,0.157026,0.01,14.3893,130.05,251.329,-251.35,-635.887,4.73528e-09,-4.7355e-09,-1.19805e-08,683.747,-683.768,-1.37707e-06,1.28823e-08,-1.28825e-08,-2.59449e-17
0.759975,-0.51,0.165438,0.01,19.5047,130.05,254.454,-254.473,-621.345,4.79414e-09,-4.79434e-09,-1.17065e-08,671.423,-671.442,-1.15422e-06,1.26501e-08,-1.26503e-08,-2.17462e-17
0.769975,-0.51,0.173942,0.01,24.5946,130.05,257.235,-257.253,-607.14,4.84653e-09,-4.84672e-09,-1.14389e-08,659.38,-659.398,-9.4138e-07,1.24232e-08,-1.24234e-08,-1.77361e-17
0.779975,-0.51,0.182065,0.01,29.6589,130.05,259.693,-259.711,-593.269,4.89285e-09,-4.89303e-09,-1.11775e-08,647.612,-647.63,-7.38284e-07,1.22015e-08,-1.22016e-08,-1.39097e-17
0.789975,-0.51,0.190366,0.01,34.6971,130.05,261.848,-261.865,-579.725,4.93344e-09,-4.93361e-09,-1.09224e-08,636.113,-636.13,-5.44769e-07,1.19848e-08,-1.1985e-08,-1.02638e-17
0.799975,-0.51,0.198824,0.01,39.7092,130.05,263.718,-263.733,-566.506,4.96866e-09,-4.96882e-09,-1.06733e-08,624.877,-624.892,-3.6233e-07,1.17731e-08,-1.17733e-08,-6.8265e-18
0.809975,-0.51,0.207419,0.01,44.6949,130.05,265.319,-265.333,-553.606,4.99882e-09,-4.99897e-09,-1.04303e-08,613.896,-613.911,-1.91316e-07,1.15662e-08,-1.15664e-08,-3.60451e-18
0.819975,-0.51,0.215895,0.01,49.6541,130.05,266.67,-266.691,-541.023,5.02431e-09,-5.02452e-09,-1.01932e-08,603.168,-603.189,0.00341187,1.13641e-08,-1.13643e-08,6.42816e-14
0.829975,-0.51,0.224256,0.01,54.5866,130.05,267.716,-269.82,-530.435,5.05307e-09,-5.07441e-09,-9.99371e-09,593.589,-595.693,0.108641,1.11927e-08,-1.12141e-08,2.04686e-12
0.839975,-0.51,0.232746,0.01,59.4923,130.05,267.428,-275.279,-522.236,5.07264e-09,-5.15228e-09,-9.83924e-09,584.601,-592.452,-0.150733,1.10484e-08,-1.1128e-08,-2.83991e-12
0.849975,-0.51,0.241351,0.01,64.3712,130.05,267.511,-279.298,-513.396,5.09132e-09,-5.2109e-09,-9.67268e-09,575.764,-587.551,-0.343672,1.0899e-08,-1.10186e-08,-6.47498e-12
-0.860025,-0.5,0.244959,0.01,66.3917,125,285.08,-288.106,500.339,5.38423e-09,-5.41493e-09,9.42668e-09,575.091,-578.117,-1.50531,1.08482e-08,-1.08789e-08,-2.8361e-11
-0.850025,-0.5,0.236488,0.01,61.49,125,281.577,-285.332,509.911,5.3214e-09,-5.3595e-09,9.60701e-09,581.522,-585.278,0.0111971,1.09725e-08,-1.10106e-08,2.10961e-13
-0.840025,-0.5,0.227763,0.01,56.5601,125,280.239,-282.695,519.307,5.29054e-09,-5.31545e-09,9.78405e-09,589.453,-591.909,0.187355,1.11163e-08,-1.11412e-08,3.52987e-12
-0.830025,-0.5,0.219078,0.01,51.6022,125,279.819,-280.249,529.924,5.27382e-09,-5.27818e-09,9.98408e-09,599.15,-599.58,0.181533,1.12902e-08,-1.12946e-08,3.42019e-12
-0.820025,-0.5,0.21051,0.01,46.6163,125,279.222,-279.235,542.027,5.26076e-09,-5.2609e-09,1.02121e-08,609.717,-609.73,-2.33212e-07,1.14875e-08,-1.14876e-08,-4.39385e-18
-0.810025,-0.5,0.202073,0.01,41.6025,125,278.192,-278.207,554.854,5.24137e-09,-5.24151e-09,1.04538e-08,620.684,-620.699,-7.05243e-08,1.16941e-08,-1.16943e-08,-1.32872e-18
-0.800025,-0.5,0.193785,0.01,36.5608,125,276.917,-276.932,568.01,5.21734e-09,-5.21749e-09,1.07016e-08,631.912,-631.927,1.05114e-07,1.19057e-08,-1.19058e-08,1.98041e-18
-0.790025,-0.5,0.185147,0.01,31.4915,125,275.379,-275.395,581.501,5.18837e-09,-5.18853e-09,1.09558e-08,643.406,-643.422,2.9413e-07,1.21222e-08,-1.21224e-08,5.54159e-18
-0.780025,-0.5,0.176597,0.01,26.3946,125,273.561,-273.578,595.334,5.15412e-09,-5.15429e-09,1.12164e-08,655.173,-655.19,4.95877e-07,1.23439e-08,-1.23441e-08,9.34262e-18
-0.770025,-0.5,0.168208,0.01,21.2704,125,271.444,-271.463,609.515,5.11425e-09,-5.11444e-09,1.14836e-08,667.221,-667.239,7.10526e-07,1.25709e-08,-1.25711e-08,1.33867e-17
-0.760025,-0.5,0.160004,0.01,16.119,125,269.01,-269.03,624.049,5.06839e-09,-5.06859e-09,1.17574e-08,679.555,-679.575,9.38234e-07,1.28033e-08,-1.28035e-08,1.76769e-17
-0.750025,-0.5,0.151747,0.01,10.9408,125,266.238,-266.258,638.94,5.01616e-09,-5.01637e-09,1.2038e-08,692.184,-692.204,1.17751e-06,1.30412e-08,-1.30414e-08,2.2185e-17
-0.740025,-0.5,0.143226,0.01,5.73587,125,263.105,-263.127,654.195,4.95715e-09,-4.95737e-09,1.23254e-08,705.114,-705.136,1.42764e-06,1.32849e-08,-1.32851e-08,2.68975e-17
-0.730025,-0.5,0.134909,0.01,0.504675,125,259.59,-259.613,669.817,4.89092e-09,-4.89116e-09,1.26197e-08,718.353,-718.376,1.68837e-06,1.35343e-08,-1.35345e-08,3.181e-17
-0.720025,-0.5,0.126835,0.01,-4.75248,125,255.667,-255.692,685.81,4.81703e-09,-4.81728e-09,1.2921e-08,731.908,-731.932,1.95788e-06,1.37897e-08,-1.37899e-08,3.68875e-17
-0.710025,-0.5,0.118879,0.01,-10.0352,125,251.313,-251.339,702.176,4.735e-09,-4.73526e-09,1.32294e-08,745.786,-745.812,2.23376e-06,1.40512e-08,-1.40514e-08,4.20853e-17
-0.700025,-0.5,0.110405,0.01,-15.343,125,246.5,-246.528,718.92,4.64432e-09,-4.6446e-09,1.35449e-08,759.996,-760.024,2.51422e-06,1.43189e-08,-1.43192e-08,4.73693e-17
-0.690025,-0.5,0.102208,0.01,-20.6755,125,241.2,-241.23,736.041,4.54447e-09,-4.54478e-09,1.38674e-08,774.544,-774.573,2.79654e-06,1.4593e-08,-1.45933e-08,5.26884e-17
-0.680025,-0.5,0.0943585,0.01,-26.0322,125,235.384,-235.415,753.541,4.43491e-09,-4.43523e-09,1.41972e-08,789.438,-789.469,3.07576e-06,1.48736e-08,-1.48739e-08,5.79491e-17
-0.670025,-0.5,0.0865434,0.01,-31.4123,125,229.021,-229.054,771.42,4.31504e-09,-4.31537e-09,1.4534e-08,804.686,-804.719,3.35227e-06,1.51609e-08,-1.51612e-08,6.31587e-17
-0.660025,-0.5,0.0781584,0.01,-36.8154,125,222.079,-222.115,789.675,4.18426e-09,-4.18462e-09,1.48779e-08,820.295,-820.331,3.739e-06,1.5455e-08,-1.54554e-08,7.0445e-17
-0.650025,-0.5,0.0701977,0.01,-42.2406,125,214.525,-214.562,808.304,4.04194e-09,-4.04231e-09,1.52289e-08,836.274,-836.311,3.33729e-06,1.5756e-08,-1.57564e-08,6.28764e-17
-0.640025,-0.5,0.0628227,0.01,-47.6873,125,206.322,-206.362,827.304,3.8874e-09,-3.8878e-09,1.55869e-08,852.628,-852.667,-6.94156e-06,1.60642e-08,-1.60646e-08,-1.30783e-16
-0.630025,-0.5,0.0547464,0.01,-53.1546,125,197.435,-197.476,846.667,3.71996e-09,-3.72039e-09,1.59517e-08,869.366,-869.408,0.000117703,1.63795e-08,-1.638e-08,2.2176e-15
-0.620025,-0.5,0.0465786,0.01,-58.6417,125,187.824,-187.866,866.385,3.53889e-09,-3.53932e-09,1.63232e-08,886.494,-886.537,0.000567675,1.67022e-08,-1.67027e-08,1.06953e-14
-0.610025,-0.5,0.0392677,0.01,-64.1475,125,177.47,-177.504,886.442,3.34379e-09,-3.34414e-09,1.67011e-08,904.019,-904.053,-0.0164869,1.70324e-08,-1.70327e-08,-3.10622e-13
-0.600025,-0.5,0.0321916,0.01,-69.6711,125,166.895,-165.661,905.652,3.13904e-09,-3.12652e-09,1.7063e-08,921.407,-920.173,-0.200705,1.73545e-08,-1.7342e-08,-3.78141e-12
-0.590025,-0.5,0.0235338,0.01,-75.2113,125,156.95,-151.179,922.194,2.93193e-09,-2.87338e-09,1.73747e-08,937.86,-932.088,-0.681103,1.76447e-08,-1.75862e-08,-1.28324e-11
-0.580025,-0.5,0.0164735,0.01,-80.767,125,147.081,-133.139,937.107,2.71048e-09,-2.56904e-09,1.76556e-08,954.494,-940.552,-0.467963,1.79226e-08,-1.77812e-08,-8.8167e-12
-0.570025,-0.5,0.0123401,0.01,-86.3375,125,132.18,-114.828,955.536,2.41491e-09,-2.23887e-09,1.80028e-08,972.158,-954.806,2.08086,1.82406e-08,-1.80645e-08,3.92046e-11
0.569975,-0.5,0.0122907,0.01,-86.3652,125,132.133,-114.805,-955.681,2.41413e-09,-2.23834e-09,-1.80056e-08,972.285,-954.957,-2.05076,1.82431e-08,-1.80673e-08,-3.86374e-11
0.579975,-0.5,0.0164461,0.01,-80.7946,125,147.042,-133.091,-937.205,2.7097e-09,-2.56817e-09,-1.76575e-08,954.589,-940.639,0.490415,1.79244e-08,-1.77828e-08,9.23971e-12
0.589975,-0.5,0.0234934,0.01,-75.2389,125,156.895,-151.118,-922.289,2.93087e-09,-2.87227e-09,-1.73765e-08,937.947,-932.17,0.686378,1.76463e-08,-1.75877e-08,1.29318e-11
0.599975,-0.5,0.0321466,0.01,-69.6986,125,166.838,-165.6,-905.751,3.13794e-09,-3.12539e-09,-1.70649e-08,921.495,-920.258,0.199409,1.73561e-08,-1.73436e-08,3.75699e-12
0.609975,-0.5,0.0392344,0.01,-64.175,125,177.417,-177.451,-886.542,3.34279e-09,-3.34313e-09,-1.6703e-08,904.107,-904.141,0.0166894,1.7034e-08,-1.70344e-08,3.14438e-13
0.619975,-0.5,0.0465397,0.01,-58.669,125,187.774,-187.817,-866.484,3.53796e-09,-3.53839e-09,-1.63251e-08,886.58,-886.623,-0.000560706,1.67039e-08,-1.67043e-08,-1.0564e-14
0.629975,-0.5,0.0547043,0.01,-53.1819,125,197.389,-197.43,-846.764,3.7191e-09,-3.71952e-09,-1.59535e-08,869.45,-869.492,-0.000119878,1.63811e-08,-1.63816e-08,-2.25858e-15
0.639975,-0.5,0.0627879,0.01,-47.7144,125,206.28,-206.319,-827.399,3.8866e-09,-3.887e-09,-1.55887e-08,852.71,-852.75,6.99649e-06,1.60657e-08,-1.60661e-08,1.31818e-16
0.649975,-0.5,0.0701594,0.01,-42.2676,125,214.486,-214.523,-808.398,4.0412e-09,-4.04158e-09,-1.52307e-08,836.354,-836.391,-3.321e-06,1.57576e-08,-1.57579e-08,-6.25696e-17
0.659975,-0.5,0.0781177,0.01,-36.8423,125,222.043,-222.079,-789.767,4.18358e-09,-4.18394e-09,-1.48797e-08,820.374,-820.409,-3.74152e-06,1.54565e-08,-1.54568e-08,-7.04924e-17
0.669975,-0.5,0.0865009,0.01,-31.4391,125,228.988,-229.021,-771.509,4.31441e-09,-4.31475e-09,-1.45357e-08,804.763,-804.796,-3.35354e-06,1.51623e-08,-1.51627e-08,-6.31826e-17
0.679975,-0.5,0.0943205,0.01,-26.0589,125,235.354,-235.385,-753.629,4.43434e-09,-4.43466e-09,-1.41988e-08,789.513,-789.544,-3.07637e-06,1.4875e-08,-1.48753e-08,-5.79607e-17
0.689975,-0.5,0.102168,0.01,-20.7021,125,241.172,-241.202,-736.127,4.54395e-09,-4.54425e-09,-1.38691e-08,774.617,-774.647,-2.79708e-06,1.45944e-08,-1.45947e-08,-5.26987e-17
0.699975,-0.5,0.110364,0.01,-15.3695,125,246.475,-246.503,-719.004,4.64385e-09,-4.64413e-09,-1.35465e-08,760.067,-760.095,-2.51543e-06,1.43202e-08,-1.43205e-08,-4.73922e-17
0.709975,-0.5,0.118836,0.01,-10.0615,125,251.29,-251.317,-702.259,4.73457e-09,-4.73484e-09,-1.3231e-08,745.856,-745.882,-2.23516e-06,1.40525e-08,-1.40527e-08,-4.21116e-17
0.719975,-0.5,0.126795,0.01,-4.77869,125,255.647,-255.672,-685.89,4.81664e-09,-4.81689e-09,-1.29226e-08,731.976,-732.001,-1.95895e-06,1.3791e-08,-1.37912e-08,-3.69077e-17
0.729975,-0.5,0.134868,0.01,0.478594,125,259.571,-259.595,-669.895,4.89057e-09,-4.89081e-09,-1.26212e-08,718.419,-718.443,-1.68986e-06,1.35355e-08,-1.35358e-08,-3.18379e-17
0.739975,-0.5,0.143184,0.01,5.70992,125,263.089,-263.111,-654.272,4.95684e-09,-4.95706e-09,-1.23269e-08,705.179,-705.201,-1.42939e-06,1.32861e-08,-1.32863e-08,-2.69305e-17
0.749975,-0.5,0.151704,0.01,10.9149,125,266.223,-266.244,-639.015,5.01589e-09,-5.0161e-09,-1.20394e-08,692.247,-692.268,-1.17828e-06,1.30424e-08,-1.30426e-08,-2.21995e-17
0.759975,-0.5,0.159964,0.01,16.0933,125,268.997,-269.017,-624.122,5.06815e-09,-5.06835e-09,-1.17588e-08,679.617,-679.637,-9.38485e-07,1.28045e-08,-1.28047e-08,-1.76816e-17
0.769975,-0.5,0.168167,0.01,21.2448,125,271.433,-271.451,-609.586,5.11404e-09,-5.11422e-09,-1.1485e-08,667.281,-667.3,-7.11557e-07,1.2572e-08,-1.25722e-08,-1.34061e-17
0.779975,-0.5,0.176555,0.01,26.3692,125,273.551,-273.568,-595.404,5.15394e-09,-5.15411e-09,-1.12178e-08,655.233,-655.25,-4.96922e-07,1.2345e-08,-1.23452e-08,-9.36229e-18
0.789975,-0.5,0.185104,0.01,31.4662,125,275.371,-275.387,-581.569,5.18821e-09,-5.18837e-09,-1.09571e-08,643.464,-643.48,-2.94595e-07,1.21233e-08,-1.21235e-08,-5.55033e-18
0.799975,-0.5,0.193744,0.01,36.5357,125,276.91,-276.925,-568.076,5.21721e-09,-5.21736e-09,-1.07029e-08,631.969,-631.984,-1.05716e-07,1.19067e-08,-1.19069e-08,-1.99176e-18
0.809975,-0.5,0.202031,0.01,41.5775,125,278.187,-278.201,-554.919,5.24126e-09,-5.2414e-09,-1.0455e-08,620.74,-620.754,6.97882e-08,1.16952e-08,-1.16953e-08,1.31485e-18
0.819975,-0.5,0.210467,0.01,46.5914,125,279.218,-279.231,-542.09,5.26068e-09,-5.26081e-09,-1.02133e-08,609.771,-609.784,2.32365e-07,1.14885e-08,-1.14886e-08,4.37788e-18
0.829975,-0.5,0.219035,0.01,51.5775,125,279.816,-280.245,-529.985,5.27376e-09,-5.27811e-09,-9.98523e-09,599.203,-599.632,-0.181551,1.12912e-08,-1.12956e-08,-3.42053e-12
0.839975,-0.5,0.227719,0.01,56.5355,125,280.236,-282.693,-519.368,5.2905e-09,-5.31541e-09,-9.78519e-09,589.505,-591.961,-0.187408,1.11173e-08,-1.11422e-08,-3.53087e-12
0.849975,-0.5,0.236447,0.01,61.4655,125,281.575,-285.331,-509.97,5.32137e-09,-5.35947e-09,-9.60813e-09,581.573,-585.329,-0.0114434,1.09735e-08,-1.10116e-08,-2.15601e-13
0.859975,-0.5,0.244917,0.01,66.3674,125,285.079,-288.106,-500.397,5.38421e-09,-5.41492e-09,-9.42777e-09,575.141,-578.168,1.50496,1.08492e-08,-1.08799e-08,2.83544e-11
-0.860025,-0.49,0.239889,0.01,63.5644,120.05,292.805,-301.871,500.735,5.55603e-09,-5.64801e-09,9.43414e-09,577.828,-586.895,-0.474696,1.0926e-08,-1.1018e-08,-8.94354e-12
-0.850025,-0.49,0.231232,0.01,58.6126,120.05,293.164,-296.353,507.719,5.53724e-09,-5.56959e-09,9.56572e-09,585.483,-588.672,-0.618838,1.10447e-08,-1.10771e-08,-1.16593e-11
-0.840025,-0.49,0.222689,0.01,53.6316,120.05,292.553,-292.962,518.038,5.51364e-09,-5.51779e-09,9.76014e-09,594.834,-595.242,0.172719,1.12088e-08,-1.12129e-08,3.25412e-12
-0.830025,-0.49,0.214198,0.01,48.6214,120.05,292.473,-292.485,530.052,5.5104e-09,-5.51053e-09,9.98648e-09,605.385,-605.397,-6.879e-07,1.14059e-08,-1.1406e-08,-1.29604e-17
-0.820025,-0.49,0.205426,0.01,43.5819,120.05,292,-292.013,542.775,5.50151e-09,-5.50164e-09,1.02262e-08,616.332,-616.344,-5.38783e-07,1.16121e-08,-1.16122e-08,-1.0151e-17
-0.810025,-0.49,0.196772,0.01,38.5131,120.05,291.305,-291.318,555.836,5.48841e-09,-5.48855e-09,1.04723e-08,627.541,-627.555,-3.75608e-07,1.18233e-08,-1.18234e-08,-7.07668e-18
-0.800025,-0.49,0.188251,0.01,33.4153,120.05,290.37,-290.385,569.243,5.4708e-09,-5.47095e-09,1.07249e-08,639.02,-639.035,-1.97687e-07,1.20396e-08,-1.20397e-08,-3.72454e-18
-0.790025,-0.49,0.179882,0.01,28.2884,120.05,289.179,-289.195,583.002,5.44837e-09,-5.44853e-09,1.09841e-08,650.777,-650.792,-4.36728e-09,1.22611e-08,-1.22612e-08,-8.22805e-20
-0.780025,-0.49,0.171496,0.01,23.1326,120.05,287.715,-287.732,597.121,5.42079e-09,-5.42096e-09,1.12501e-08,662.818,-662.834,2.03961e-07,1.24879e-08,-1.24881e-08,3.84274e-18
-0.770025,-0.49,0.162844,0.01,17.9481,120.05,285.959,-285.977,611.607,5.38771e-09,-5.38789e-09,1.1523e-08,675.15,-675.168,4.2743e-07,1.27203e-08,-1.27205e-08,8.05302e-18
-0.760025,-0.49,0.154355,0.01,12.7349,120.05,283.891,-283.91,626.465,5.34874e-09,-5.34894e-09,1.1803e-08,687.782,-687.802,6.66625e-07,1.29583e-08,-1.29585e-08,1.25596e-17
-0.750025,-0.49,0.146058,0.01,7.49336,120.05,281.489,-281.51,641.703,5.30351e-09,-5.30372e-09,1.20901e-08,700.722,-700.742,9.20824e-07,1.32021e-08,-1.32023e-08,1.73489e-17
-0.740025,-0.49,0.137986,0.01,2.22366,120.05,278.733,-278.755,657.327,5.25159e-09,-5.25181e-09,1.23844e-08,713.976,-713.998,1.18931e-06,1.34518e-08,-1.3452e-08,2.24073e-17
-0.730025,-0.49,0.12945,0.01,-3.0739,120.05,275.599,-275.622,673.341,5.19255e-09,-5.19279e-09,1.26861e-08,727.553,-727.576,1.47183e-06,1.37076e-08,-1.37078e-08,2.77301e-17
-0.720025,-0.49,0.121012,0.01,-8.39902,120.05,272.062,-272.087,689.751,5.12592e-09,-5.12617e-09,1.29953e-08,741.46,-741.485,1.76694e-06,1.39696e-08,-1.39699e-08,3.32902e-17
-0.710025,-0.49,0.11283,0.01,-13.7514,120.05,268.097,-268.123,706.562,5.05121e-09,-5.05148e-09,1.3312e-08,755.707,-755.733,2.07268e-06,1.42381e-08,-1.42383e-08,3.90505e-17
-0.700025,-0.49,0.104963,0.01,-19.1305,120.05,263.675,-263.703,723.777,4.96791e-09,-4.96819e-09,1.36364e-08,770.301,-770.329,2.38739e-06,1.4513e-08,-1.45133e-08,4.49799e-17
-0.690025,-0.49,0.0965923,0.01,-24.536,120.05,258.768,-258.798,741.399,4.87548e-09,-4.87578e-09,1.39684e-08,785.25,-785.28,2.70901e-06,1.47947e-08,-1.4795e-08,5.10394e-17
-0.680025,-0.49,0.088245,0.01,-29.9674,120.05,253.347,-253.378,759.43,4.77334e-09,-4.77366e-09,1.43081e-08,800.563,-800.594,3.03759e-06,1.50832e-08,-1.50835e-08,5.72299e-17
-0.670025,-0.49,0.0802764,0.01,-35.4241,120.05,247.378,-247.411,777.871,4.66089e-09,-4.66123e-09,1.46555e-08,816.248,-816.281,3.30346e-06,1.53787e-08,-1.53791e-08,6.22392e-17
-0.660025,-0.49,0.0728108,0.01,-40.9055,120.05,240.829,-240.864,796.723,4.53751e-09,-4.53787e-09,1.50107e-08,832.314,-832.349,3.3001e-06,1.56814e-08,-1.56818e-08,6.21758e-17
-0.650025,-0.49,0.0642799,0.01,-46.411,120.05,233.665,-233.702,815.985,4.40254e-09,-4.40292e-09,1.53736e-08,848.768,-848.806,1.13789e-05,1.59914e-08,-1.59918e-08,2.14386e-16
-0.640025,-0.49,0.0561327,0.01,-51.9399,120.05,225.848,-225.887,835.653,4.25528e-09,-4.25568e-09,1.57442e-08,865.62,-865.659,1.68716e-05,1.63089e-08,-1.63094e-08,3.1787e-16
-0.630025,-0.49,0.0486812,0.01,-57.4914,120.05,217.342,-217.383,855.723,4.09502e-09,-4.09544e-09,1.61223e-08,882.877,-882.918,-0.000934362,1.66341e-08,-1.66345e-08,-1.76039e-14
-0.620025,-0.49,0.0410832,0.01,-63.0646,120.05,208.095,-208.152,876.205,3.92087e-09,-3.92146e-09,1.65082e-08,900.555,-900.612,0.0040716,1.69672e-08,-1.69678e-08,7.67112e-14
-0.610025,-0.49,0.032561,0.01,-68.6586,120.05,198.5,-197.509,896.037,3.73555e-09,-3.7255e-09,1.68819e-08,918.149,-917.158,-0.111143,1.72941e-08,-1.72841e-08,-2.094e-12
-0.600025,-0.49,0.0251519,0.01,-74.2724,120.05,189.683,-183.046,912.806,3.54489e-09,-3.47755e-09,1.71978e-08,934.955,-928.318,-0.190676,1.75862e-08,-1.75189e-08,-3.59245e-12
-0.590025,-0.49,0.0194809,0.01,-79.9049,120.05,181.267,-164.26,926.604,3.34123e-09,-3.16869e-09,1.74578e-08,951.076,-934.068,0.347478,1.78449e-08,-1.76723e-08,6.54668e-12
-0.580025,-0.49,0.0098511,0.01,-85.5546,120.05,168.775,-149.984,940.909,3.09812e-09,-2.90749e-09,1.77273e-08,963.707,-944.916,0.0718588,1.80751e-08,-1.78845e-08,1.35386e-12
0.579975,-0.49,0.00980507,0.01,-85.5828,120.05,168.735,-149.927,-940.962,3.09728e-09,-2.90648e-09,-1.77283e-08,963.761,-944.952,-0.0484054,1.8076e-08,-1.78852e-08,-9.11986e-13
0.589975,-0.49,0.0194321,0.01,-79.933,120.05,181.216,-164.178,-926.694,3.34013e-09,-3.16728e-09,-1.74594e-08,951.167,-934.129,-0.351274,1.78465e-08,-1.76736e-08,-6.6182e-12
0.599975,-0.49,0.0251195,0.01,-74.3003,120.05,189.624,-182.981,-912.91,3.54374e-09,-3.47635e-09,-1.71998e-08,935.048,-928.404,0.184338,1.7588e-08,-1.75206e-08,3.47303e-12
0.609975,-0.49,0.0325208,0.01,-68.6864,120.05,198.447,-197.457,-896.142,3.73455e-09,-3.72451e-09,-1.68838e-08,918.24,-917.25,0.110055,1.72959e-08,-1.72858e-08,2.07349e-12
0.619975,-0.49,0.0410391,0.01,-63.0923,120.05,208.047,-208.104,-876.308,3.91997e-09,-3.92055e-09,-1.65101e-08,900.644,-900.701,-0.00421211,1.69689e-08,-1.69695e-08,-7.93587e-14
0.629975,-0.49,0.0486465,0.01,-57.519,120.05,217.297,-217.339,-855.824,4.09419e-09,-4.09461e-09,-1.61242e-08,882.964,-883.005,0.000944671,1.66357e-08,-1.66361e-08,1.77982e-14
0.639975,-0.49,0.0560937,0.01,-51.9675,120.05,225.807,-225.847,-835.752,4.25451e-09,-4.25492e-09,-1.5746e-08,865.704,-865.744,-1.62492e-05,1.63105e-08,-1.63109e-08,-3.06144e-16
0.649975,-0.49,0.0642381,0.01,-46.4385,120.05,233.627,-233.665,-816.082,4.40184e-09,-4.40222e-09,-1.53754e-08,848.851,-848.888,-1.14928e-05,1.5993e-08,-1.59934e-08,-2.16532e-16
0.659975,-0.49,0.0727752,0.01,-40.9328,120.05,240.795,-240.83,-796.818,4.53687e-09,-4.53723e-09,-1.50125e-08,832.394,-832.43,-3.3031e-06,1.56829e-08,-1.56833e-08,-6.22323e-17
0.669975,-0.49,0.0802379,0.01,-35.4513,120.05,247.347,-247.38,-777.964,4.66031e-09,-4.66064e-09,-1.46573e-08,816.327,-816.36,-3.30445e-06,1.53802e-08,-1.53806e-08,-6.22577e-17
0.679975,-0.49,0.0882044,0.01,-29.9944,120.05,253.318,-253.35,-759.52,4.7728e-09,-4.77312e-09,-1.43098e-08,800.64,-800.671,-3.03922e-06,1.50847e-08,-1.5085e-08,-5.72607e-17
0.689975,-0.49,0.09655,0.01,-24.5629,120.05,258.743,-258.772,-741.487,4.87499e-09,-4.87529e-09,-1.39701e-08,785.325,-785.355,-2.71025e-06,1.47961e-08,-1.47964e-08,-5.10627e-17
0.699975,-0.49,0.104925,0.01,-19.1573,120.05,263.652,-263.68,-723.863,4.96747e-09,-4.96776e-09,-1.3638e-08,770.374,-770.402,-2.38876e-06,1.45144e-08,-1.45147e-08,-4.50055e-17
0.709975,-0.49,0.11279,0.01,-13.778,120.05,268.076,-268.102,-706.647,5.05082e-09,-5.05108e-09,-1.33136e-08,755.779,-755.805,-2.07405e-06,1.42394e-08,-1.42397e-08,-3.90764e-17
0.719975,-0.49,0.120971,0.01,-8.42558,120.05,272.044,-272.068,-689.834,5.12557e-09,-5.12582e-09,-1.29969e-08,741.53,-741.555,-1.76797e-06,1.3971e-08,-1.39712e-08,-3.33095e-17
0.729975,-0.49,0.129407,0.01,-3.10032,120.05,275.583,-275.606,-673.422,5.19224e-09,-5.19247e-09,-1.26877e-08,727.621,-727.644,-1.47346e-06,1.37089e-08,-1.37091e-08,-2.77608e-17
0.739975,-0.49,0.137947,0.01,2.19739,120.05,278.719,-278.741,-657.405,5.25132e-09,-5.25154e-09,-1.23859e-08,714.042,-714.064,-1.19144e-06,1.34531e-08,-1.34533e-08,-2.24473e-17
0.749975,-0.49,0.146017,0.01,7.46722,120.05,281.477,-281.497,-641.78,5.30327e-09,-5.30348e-09,-1.20915e-08,700.787,-700.807,-9.22282e-07,1.32033e-08,-1.32035e-08,-1.73763e-17
0.759975,-0.49,0.154313,0.01,12.7089,120.05,283.879,-283.899,-626.54,5.34854e-09,-5.34873e-09,-1.18044e-08,687.846,-687.865,-6.67945e-07,1.29595e-08,-1.29597e-08,-1.25845e-17
0.769975,-0.49,0.162801,0.01,17.9222,120.05,285.949,-285.967,-611.679,5.38753e-09,-5.38771e-09,-1.15244e-08,675.212,-675.23,-4.29208e-07,1.27215e-08,-1.27217e-08,-8.08653e-18
0.779975,-0.49,0.171452,0.01,23.1069,120.05,287.707,-287.724,-597.192,5.42064e-09,-5.42081e-09,-1.12514e-08,662.878,-662.895,-2.05039e-07,1.24891e-08,-1.24893e-08,-3.86305e-18
0.789975,-0.49,0.179841,0.01,28.2629,120.05,289.173,-289.188,-583.071,5.44825e-09,-5.44841e-09,-1.09854e-08,650.836,-650.852,3.92077e-09,1.22622e-08,-1.22624e-08,7.38689e-20
0.799975,-0.49,0.188209,0.01,33.3899,120.05,290.365,-290.379,-569.31,5.4707e-09,-5.47085e-09,-1.07261e-08,639.078,-639.093,1.96739e-07,1.20407e-08,-1.20408e-08,3.70667e-18
0.809975,-0.49,0.196729,0.01,38.4879,120.05,291.301,-291.314,-555.902,5.48833e-09,-5.48847e-09,-1.04735e-08,627.597,-627.611,3.74343e-07,1.18244e-08,-1.18245e-08,7.05283e-18
0.819975,-0.49,0.205383,0.01,43.5567,120.05,291.997,-292.01,-542.839,5.50146e-09,-5.50159e-09,-1.02274e-08,616.387,-616.4,5.37928e-07,1.16131e-08,-1.16133e-08,1.01349e-17
0.829975,-0.49,0.214154,0.01,48.5964,120.05,292.471,-292.483,-530.114,5.51037e-09,-5.51049e-09,-9.98766e-09,605.439,-605.451,6.87531e-07,1.14069e-08,-1.1407e-08,1.29535e-17
0.839975,-0.49,0.222647,0.01,53.6068,120.05,292.552,-292.961,-518.099,5.51363e-09,-5.51778e-09,-9.76128e-09,594.886,-595.295,-0.172752,1.12098e-08,-1.12139e-08,-3.25475e-12
0.849975,-0.49,0.23119,0.01,58.5879,120.05,293.164,-296.353,-507.778,5.53724e-09,-5.5696e-09,-9.56684e-09,585.535,-588.724,0.618833,1.10457e-08,-1.1078e-08,1.16592e-11
0.859975,-0.49,0.239845,0.01,63.5398,120.05,292.805,-301.873,-500.794,5.55604e-09,-5.64803e-09,-9.43524e-09,577.879,-586.946,0.474637,1.0927e-08,-1.1019e-08,8.94243e-12
-0.870025,-0.48,0.243924,0.01,65.7375,115.2,303.159,-311.56,489.469,5.74823e-09,-5.83345e-09,9.22189e-09,573.769,-582.171,1.0254,1.08467e-08,-1.09319e-08,1.93191e-11
-0.860025,-0.48,0.235134,0.01,60.7663,115.2,303.336,-309.209,498.763,5.74056e-09,-5.80014e-09,9.39699e-09,582.355,-588.228,1.16052,1.09974e-08,-1.1057e-08,2.18648e-11
-0.850025,-0.48,0.226296,0.01,55.7646,115.2,304.773,-306.87,507.082,5.75122e-09,-5.77249e-09,9.55372e-09,591.116,-593.213,-0.00123224,1.11461e-08,-1.11674e-08,-2.32161e-14
-0.840025,-0.48,0.217559,0.01,50.7325,115.2,305.064,-305.083,517.664,5.74767e-09,-5.74785e-09,9.75309e-09,600.862,-600.88,-0.00318292,1.13207e-08,-1.13208e-08,-5.99681e-14
-0.830025,-0.48,0.208935,0.01,45.6698,115.2,305.132,-305.144,530.249,5.74892e-09,-5.74903e-09,9.9902e-09,611.773,-611.785,-1.03393e-06,1.15262e-08,-1.15263e-08,-1.94799e-17
-0.820025,-0.48,0.200439,0.01,40.5766,115.2,305.002,-305.014,543.184,5.74646e-09,-5.74659e-09,1.02339e-08,622.954,-622.966,-8.88445e-07,1.17369e-08,-1.1737e-08,-1.67388e-17
-0.810025,-0.48,0.191846,0.01,35.453,115.2,304.656,-304.669,556.473,5.73995e-09,-5.74009e-09,1.04843e-08,634.407,-634.421,-7.27442e-07,1.19527e-08,-1.19528e-08,-1.37054e-17
-0.800025,-0.48,0.183095,0.01,30.2988,115.2,304.078,-304.093,570.123,5.72908e-09,-5.72922e-09,1.07414e-08,646.142,-646.156,-5.50216e-07,1.21737e-08,-1.21739e-08,-1.03664e-17
-0.790025,-0.48,0.174479,0.01,25.1143,115.2,303.253,-303.268,584.143,5.71353e-09,-5.71368e-09,1.10056e-08,658.164,-658.179,-3.55637e-07,1.24003e-08,-1.24004e-08,-6.70041e-18
-0.780025,-0.48,0.166019,0.01,19.8994,115.2,302.161,-302.178,598.541,5.69296e-09,-5.69313e-09,1.12769e-08,670.482,-670.499,-1.43496e-07,1.26323e-08,-1.26325e-08,-2.70355e-18
-0.770025,-0.48,0.157738,0.01,14.6543,115.2,300.785,-300.802,613.325,5.66704e-09,-5.66721e-09,1.15554e-08,683.105,-683.122,8.61014e-08,1.28702e-08,-1.28703e-08,1.6222e-18
-0.760025,-0.48,0.149163,0.01,9.37917,115.2,299.103,-299.122,628.502,5.63536e-09,-5.63555e-09,1.18413e-08,696.039,-696.058,3.33949e-07,1.31139e-08,-1.31141e-08,6.2918e-18
-0.750025,-0.48,0.14056,0.01,4.0741,115.2,297.096,-297.116,644.081,5.59754e-09,-5.59775e-09,1.21349e-08,709.294,-709.314,6.00197e-07,1.33636e-08,-1.33638e-08,1.13081e-17
-0.740025,-0.48,0.132153,0.01,-1.26067,115.2,294.74,-294.761,660.068,5.55316e-09,-5.55338e-09,1.24361e-08,722.877,-722.899,8.84464e-07,1.36195e-08,-1.36197e-08,1.66638e-17
-0.730025,-0.48,0.123983,0.01,-6.62491,115.2,292.011,-292.034,676.47,5.50176e-09,-5.502e-09,1.27451e-08,736.798,-736.821,1.18626e-06,1.38818e-08,-1.3882e-08,2.23499e-17
-0.720025,-0.48,0.115762,0.01,-12.0184,115.2,288.886,-288.91,693.293,5.44288e-09,-5.44313e-09,1.3062e-08,751.065,-751.089,1.50461e-06,1.41506e-08,-1.41509e-08,2.83476e-17
-0.710025,-0.48,0.10718,0.01,-17.4407,115.2,285.336,-285.362,710.543,5.37601e-09,-5.37628e-09,1.33871e-08,765.687,-765.713,1.83802e-06,1.44261e-08,-1.44264e-08,3.46294e-17
-0.700025,-0.48,0.098864,0.01,-22.8916,115.2,281.335,-281.362,728.227,5.30063e-09,-5.30091e-09,1.37202e-08,780.672,-780.7,2.18543e-06,1.47084e-08,-1.47087e-08,4.11747e-17
-0.690025,-0.48,0.0908885,0.01,-28.3705,115.2,276.852,-276.881,746.347,5.21618e-09,-5.21648e-09,1.40616e-08,796.031,-796.06,2.54158e-06,1.49978e-08,-1.49981e-08,4.78849e-17
-0.680025,-0.48,0.0828906,0.01,-33.8772,115.2,271.856,-271.888,764.908,5.12207e-09,-5.12238e-09,1.44113e-08,811.771,-811.803,2.91294e-06,1.52944e-08,-1.52947e-08,5.48815e-17
-0.670025,-0.48,0.0743502,0.01,-39.4111,115.2,266.315,-266.348,783.912,5.01768e-09,-5.01801e-09,1.47694e-08,827.903,-827.937,3.66398e-06,1.55983e-08,-1.55987e-08,6.90315e-17
-0.660025,-0.48,0.0662199,0.01,-44.9716,115.2,260.194,-260.229,803.362,4.90236e-09,-4.90272e-09,1.51358e-08,844.436,-844.471,2.72129e-06,1.59098e-08,-1.59102e-08,5.12707e-17
-0.650025,-0.48,0.0586701,0.01,-50.5581,115.2,253.456,-253.494,823.258,4.77543e-09,-4.77581e-09,1.55107e-08,861.378,-861.415,-3.95473e-05,1.6229e-08,-1.62294e-08,-7.45094e-16
-0.640025,-0.48,0.0505477,0.01,-56.1699,115.2,246.064,-246.104,843.6,4.63616e-09,-4.63657e-09,1.58939e-08,878.739,-878.78,0.000305617,1.65561e-08,-1.65565e-08,5.75801e-15
-0.630025,-0.48,0.0421195,0.01,-61.8064,115.2,237.973,-238.014,864.381,4.48372e-09,-4.48414e-09,1.62854e-08,896.526,-896.567,0.00404944,1.68912e-08,-1.68917e-08,7.62938e-14
-0.620025,-0.48,0.0345402,0.01,-67.4666,115.2,229.232,-229.194,885.524,4.3187e-09,-4.31831e-09,1.66838e-08,914.727,-914.689,-0.056875,1.72338e-08,-1.72334e-08,-1.07156e-12
-0.610025,-0.48,0.0279014,0.01,-73.1498,115.2,220.481,-215.876,903.45,4.13396e-09,-4.08724e-09,1.70215e-08,931.724,-927.118,0.457896,1.75342e-08,-1.74875e-08,8.62703e-12
-0.600025,-0.48,0.0187318,0.01,-78.8548,115.2,215.61,-196.877,915.747,3.98077e-09,-3.79072e-09,1.72532e-08,948.052,-929.319,-0.157482,1.77804e-08,-1.75903e-08,-2.96705e-12
-0.590025,-0.48,0.011103,0.01,-84.5806,115.2,213.321,-177.651,928.003,3.864e-09,-3.50214e-09,1.74841e-08,966.201,-930.531,-2.54928,1.80487e-08,-1.76868e-08,-4.80298e-11
0.589975,-0.48,0.0110745,0.01,-84.6092,115.2,213.287,-177.557,-928.103,3.8631e-09,-3.50062e-09,-1.7486e-08,966.316,-930.585,2.54436,1.80506e-08,-1.76881e-08,4.79372e-11
0.599975,-0.48,0.0186884,0.01,-78.8833,115.2,215.565,-196.817,-915.853,3.97986e-09,-3.78966e-09,-1.72552e-08,948.151,-929.402,0.159121,1.77822e-08,-1.7592e-08,2.99793e-12
0.609975,-0.48,0.0278544,0.01,-73.1781,115.2,220.437,-215.827,-903.556,4.13311e-09,-4.08634e-09,-1.70235e-08,931.818,-927.208,-0.454335,1.75359e-08,-1.74892e-08,-8.55994e-12
0.619975,-0.48,0.0345056,0.01,-67.4948,115.2,229.187,-229.149,-885.63,4.31786e-09,-4.31746e-09,-1.66858e-08,914.819,-914.781,0.057963,1.72356e-08,-1.72352e-08,1.09206e-12
0.629975,-0.48,0.0420793,0.01,-61.8344,115.2,237.931,-237.972,-864.485,4.48293e-09,-4.48335e-09,-1.62874e-08,896.615,-896.656,-0.00405649,1.68929e-08,-1.68933e-08,-7.64266e-14
0.639975,-0.48,0.0505044,0.01,-56.1979,115.2,246.025,-246.066,-843.702,4.63543e-09,-4.63584e-09,-1.58958e-08,878.826,-878.867,-0.000313259,1.65578e-08,-1.65582e-08,-5.90199e-15
0.649975,-0.48,0.0586344,0.01,-50.5859,115.2,253.421,-253.459,-823.358,4.77477e-09,-4.77515e-09,-1.55125e-08,861.463,-861.501,3.99115e-05,1.62306e-08,-1.6231e-08,7.51955e-16
0.659975,-0.48,0.0661807,0.01,-44.9993,115.2,260.162,-260.197,-803.46,4.90176e-09,-4.90212e-09,-1.51377e-08,844.519,-844.554,-2.67714e-06,1.59114e-08,-1.59117e-08,-5.04389e-17
0.669975,-0.48,0.0743087,0.01,-39.4387,115.2,266.286,-266.32,-784.008,5.01713e-09,-5.01747e-09,-1.47712e-08,827.984,-828.018,-3.67067e-06,1.55999e-08,-1.56002e-08,-6.91576e-17
0.679975,-0.48,0.0828473,0.01,-33.9047,115.2,271.83,-271.861,-765.001,5.12157e-09,-5.12189e-09,-1.44131e-08,811.851,-811.882,-2.91545e-06,1.52959e-08,-1.52962e-08,-5.49288e-17
0.689975,-0.48,0.0908498,0.01,-28.3979,115.2,276.828,-276.858,-746.438,5.21573e-09,-5.21603e-09,-1.40633e-08,796.108,-796.138,-2.54362e-06,1.49993e-08,-1.49996e-08,-4.79232e-17
0.699975,-0.48,0.0988234,0.01,-22.9187,115.2,281.314,-281.341,-728.316,5.30023e-09,-5.30051e-09,-1.37219e-08,780.748,-780.776,-2.18752e-06,1.47099e-08,-1.47101e-08,-4.12141e-17
0.709975,-0.48,0.107137,0.01,-17.4677,115.2,285.317,-285.343,-710.63,5.37566e-09,-5.37592e-09,-1.33887e-08,765.76,-765.786,-1.8396e-06,1.44275e-08,-1.44277e-08,-3.4659e-17
0.719975,-0.48,0.115719,0.01,-12.0453,115.2,288.869,-288.894,-693.378,5.44257e-09,-5.44282e-09,-1.30636e-08,751.137,-751.161,-1.50539e-06,1.4152e-08,-1.41522e-08,-2.83624e-17
0.729975,-0.48,0.123943,0.01,-6.65166,115.2,291.997,-292.02,-676.552,5.50149e-09,-5.50172e-09,-1.27466e-08,736.868,-736.891,-1.18748e-06,1.38831e-08,-1.38834e-08,-2.23728e-17
0.739975,-0.48,0.132112,0.01,-1.28727,115.2,294.727,-294.749,-660.148,5.55292e-09,-5.55314e-09,-1.24376e-08,722.946,-722.967,-8.86119e-07,1.36208e-08,-1.3621e-08,-1.6695e-17
0.749975,-0.48,0.140517,0.01,4.04765,115.2,297.085,-297.105,-644.159,5.59734e-09,-5.59754e-09,-1.21363e-08,709.361,-709.381,-6.01629e-07,1.33649e-08,-1.33651e-08,-1.1335e-17
0.759975,-0.48,0.14912,0.01,9.35286,115.2,299.094,-299.113,-628.579,5.63519e-09,-5.63538e-09,-1.18428e-08,696.104,-696.123,-3.35706e-07,1.31151e-08,-1.31153e-08,-6.32491e-18
0.769975,-0.48,0.157698,0.01,14.6282,115.2,300.777,-300.795,-613.399,5.66689e-09,-5.66707e-09,-1.15568e-08,683.168,-683.186,-8.80959e-08,1.28714e-08,-1.28715e-08,-1.65978e-18
0.779975,-0.48,0.165977,0.01,19.8734,115.2,302.155,-302.172,-598.614,5.69285e-09,-5.69302e-09,-1.12782e-08,670.544,-670.561,1.424e-07,1.26335e-08,-1.26337e-08,2.6829e-18
0.789975,-0.48,0.174437,0.01,25.0884,115.2,303.248,-303.263,-584.214,5.71344e-09,-5.71359e-09,-1.10069e-08,658.225,-658.24,3.549e-07,1.24014e-08,-1.24016e-08,6.68653e-18
0.799975,-0.48,0.183052,0.01,30.2731,115.2,304.075,-304.089,-570.192,5.72901e-09,-5.72916e-09,-1.07427e-08,646.201,-646.215,5.49006e-07,1.21749e-08,-1.2175e-08,1.03436e-17
0.809975,-0.48,0.191802,0.01,35.4274,115.2,304.654,-304.667,-556.54,5.73991e-09,-5.74004e-09,-1.04855e-08,634.465,-634.478,7.26004e-07,1.19537e-08,-1.19539e-08,1.36783e-17
0.819975,-0.48,0.200397,0.01,40.5512,115.2,305.001,-305.013,-543.249,5.74644e-09,-5.74657e-09,-1.02351e-08,623.01,-623.022,8.87408e-07,1.17379e-08,-1.1738e-08,1.67193e-17
0.829975,-0.48,0.208892,0.01,45.6445,115.2,305.132,-305.144,-530.313,5.74891e-09,-5.74903e-09,-9.9914e-09,611.828,-611.84,1.03352e-06,1.15272e-08,-1.15274e-08,1.94721e-17
0.839975,-0.48,0.217516,0.01,50.7074,115.2,305.065,-305.083,-517.726,5.74768e-09,-5.74787e-09,-9.75425e-09,600.915,-600.934,0.00318354,1.13217e-08,-1.13219e-08,5.99797e-14
0.849975,-0.48,0.226253,0.01,55.7397,115.2,304.775,-306.872,-507.142,5.75125e-09,-5.77253e-09,-9.55486e-09,591.169,-593.266,0.00130065,1.11471e-08,-1.11684e-08,2.45049e-14
0.859975,-0.48,0.23509,0.01,60.7415,115.2,303.338,-309.212,-498.823,5.74061e-09,-5.80019e-09,-9.39811e-09,582.407,-588.28,-1.16074,1.09984e-08,-1.1058e-08,-2.1869e-11
0.869975,-0.48,0.243881,0.01,65.7129,115.2,303.162,-311.564,-489.528,5.74828e-09,-5.83352e-09,-9.22299e-09,573.82,-582.222,-1.02602,1.08476e-08,-1.09329e-08,-1.93307e-11
-0.870025,-0.47,0.238938,0.01,63.0186,110.45,315.802,-324.984,487.771,5.98982e-09,-6.08296e-09,9.18989e-09,578.994,-588.176,-0.57127,1.09485e-08,-1.10417e-08,-1.07631e-11
-0.860025,-0.47,0.230232,0.01,57.9986,110.45,316.39,-319.865,494.928,5.97608e-09,-6.01133e-09,9.32472e-09,586.615,-590.089,-0.459584,1.10673e-08,-1.11025e-08,-8.65884e-12
-0.850025,-0.47,0.221635,0.01,52.9471,110.45,316.807,-317.209,505.252,5.97058e-09,-5.97466e-09,9.51923e-09,596.267,-596.668,0.168058,1.12358e-08,-1.12398e-08,3.16632e-12
-0.840025,-0.47,0.212776,0.01,47.8638,110.45,317.574,-317.584,517.322,5.98332e-09,-5.98342e-09,9.74665e-09,607.019,-607.03,-1.54571e-06,1.14366e-08,-1.14367e-08,-2.9122e-17
-0.830025,-0.47,0.20395,0.01,42.7487,110.45,317.992,-318.003,530.101,5.99121e-09,-5.99132e-09,9.98742e-09,618.161,-618.172,-1.42321e-06,1.16466e-08,-1.16467e-08,-2.68141e-17
-0.820025,-0.47,0.195237,0.01,37.6019,110.45,318.219,-318.231,543.24,5.99548e-09,-5.9956e-09,1.0235e-08,629.579,-629.59,-1.28454e-06,1.18617e-08,-1.18618e-08,-2.42015e-17
-0.810025,-0.47,0.186653,0.01,32.4232,110.45,318.238,-318.251,556.748,5.99585e-09,-5.99598e-09,1.04894e-08,641.279,-641.292,-1.12891e-06,1.20821e-08,-1.20823e-08,-2.12693e-17
-0.800025,-0.47,0.178216,0.01,27.2127,110.45,318.035,-318.049,570.633,5.99203e-09,-5.99217e-09,1.07511e-08,653.272,-653.285,-9.5543e-07,1.23081e-08,-1.23082e-08,-1.80009e-17
-0.790025,-0.47,0.169496,0.01,21.9705,110.45,317.592,-317.607,584.906,5.98369e-09,-5.98384e-09,1.102e-08,665.563,-665.578,-7.63143e-07,1.25397e-08,-1.25398e-08,-1.43781e-17
-0.780025,-0.47,0.160773,0.01,16.6964,110.45,316.892,-316.908,599.575,5.9705e-09,-5.97066e-09,1.12963e-08,678.163,-678.179,-5.50886e-07,1.27771e-08,-1.27772e-08,-1.0379e-17
-0.770025,-0.47,0.152207,0.01,11.3907,110.45,315.915,-315.933,614.65,5.9521e-09,-5.95228e-09,1.15804e-08,691.079,-691.096,-3.18468e-07,1.30204e-08,-1.30206e-08,-6.00013e-18
-0.760025,-0.47,0.143827,0.01,6.05335,110.45,314.642,-314.66,630.138,5.92812e-09,-5.9283e-09,1.18722e-08,704.32,-704.338,-6.52912e-08,1.32699e-08,-1.32701e-08,-1.23012e-18
-0.750025,-0.47,0.135577,0.01,0.684565,110.45,313.051,-313.07,646.05,5.89814e-09,-5.89834e-09,1.2172e-08,717.895,-717.915,2.09269e-07,1.35256e-08,-1.35258e-08,3.94274e-18
-0.740025,-0.47,0.126841,0.01,-4.71552,110.45,311.118,-311.139,662.393,5.86174e-09,-5.86195e-09,1.24799e-08,731.813,-731.834,5.05331e-07,1.37879e-08,-1.37881e-08,9.52073e-18
-0.730025,-0.47,0.118304,0.01,-10.1467,110.45,308.821,-308.843,679.176,5.81846e-09,-5.81869e-09,1.27961e-08,746.084,-746.106,8.22925e-07,1.40568e-08,-1.4057e-08,1.55044e-17
-0.720025,-0.47,0.110015,0.01,-15.6088,110.45,306.133,-306.157,696.407,5.76783e-09,-5.76807e-09,1.31207e-08,760.716,-760.74,1.16147e-06,1.43324e-08,-1.43327e-08,2.18827e-17
-0.710025,-0.47,0.102033,0.01,-21.1015,110.45,303.027,-303.053,714.092,5.70932e-09,-5.70958e-09,1.34539e-08,775.72,-775.745,1.51983e-06,1.46151e-08,-1.46154e-08,2.86345e-17
-0.700025,-0.47,0.0934398,0.01,-26.6245,110.45,299.476,-299.503,732.239,5.64242e-09,-5.64269e-09,1.37958e-08,791.105,-791.132,1.8988e-06,1.4905e-08,-1.49053e-08,3.57745e-17
-0.690025,-0.47,0.0849566,0.01,-32.1774,110.45,295.448,-295.477,750.854,5.56653e-09,-5.56683e-09,1.41465e-08,806.88,-806.91,2.30591e-06,1.52022e-08,-1.52025e-08,4.34447e-17
-0.680025,-0.47,0.0768391,0.01,-37.7599,110.45,290.911,-290.942,769.942,5.48107e-09,-5.48138e-09,1.45062e-08,823.057,-823.088,2.57988e-06,1.5507e-08,-1.55073e-08,4.86064e-17
-0.670025,-0.47,0.0692161,0.01,-43.3715,110.45,285.832,-285.865,789.508,5.38538e-09,-5.38572e-09,1.48748e-08,839.645,-839.679,1.7295e-06,1.58195e-08,-1.58199e-08,3.25848e-17
-0.660025,-0.47,0.06057,0.01,-49.0116,110.45,280.175,-280.21,809.555,5.27881e-09,-5.27917e-09,1.52525e-08,856.655,-856.69,2.30239e-05,1.614e-08,-1.61404e-08,4.33785e-16
-0.650025,-0.47,0.0522096,0.01,-54.6798,110.45,273.902,-273.94,830.086,5.16064e-09,-5.16102e-09,1.56393e-08,874.096,-874.133,0.000128285,1.64686e-08,-1.6469e-08,2.41697e-15
-0.640025,-0.47,0.0445303,0.01,-60.3753,110.45,266.978,-267.015,851.099,5.03019e-09,-5.03056e-09,1.60352e-08,891.978,-892.015,-0.00316137,1.68055e-08,-1.68059e-08,-5.9562e-14
-0.630025,-0.47,0.0371247,0.01,-66.0975,110.45,259.345,-259.422,872.642,4.88655e-09,-4.88733e-09,1.64411e-08,910.337,-910.414,-0.00122191,1.71516e-08,-1.71524e-08,-2.30214e-14
-0.620025,-0.47,0.028235,0.01,-71.8457,110.45,251.291,-250.158,893.298,4.72954e-09,-4.71804e-09,1.68303e-08,928.383,-927.25,-0.0764588,1.74864e-08,-1.74749e-08,-1.44053e-12
-0.610025,-0.47,0.0204008,0.01,-77.619,110.45,243.547,-235.713,910.377,4.55451e-09,-4.47503e-09,1.7152e-08,945.304,-937.47,0.450605,1.7776e-08,-1.76965e-08,8.48967e-12
-0.600025,-0.47,0.0153353,0.01,-83.4166,110.45,242.38,-212.74,920.549,4.43771e-09,-4.13702e-09,1.73437e-08,963.078,-933.438,-0.470592,1.80161e-08,-1.77154e-08,-8.86623e-12
0.599975,-0.47,0.0153222,0.01,-83.4455,110.45,242.372,-212.644,-920.634,4.43718e-09,-4.13559e-09,-1.73453e-08,963.192,-933.464,0.476111,1.80178e-08,-1.77163e-08,8.97021e-12
0.609975,-0.47,0.0203666,0.01,-77.6477,110.45,243.495,-235.652,-910.478,4.55349e-09,-4.47393e-09,-1.71539e-08,945.392,-937.549,-0.456379,1.77776e-08,-1.76981e-08,-8.59845e-12
0.619975,-0.47,0.0281927,0.01,-71.8744,110.45,251.242,-250.11,-893.408,4.72862e-09,-4.71714e-09,-1.68323e-08,928.476,-927.344,0.0717532,1.74881e-08,-1.74766e-08,1.35187e-12
0.629975,-0.47,0.0370791,0.01,-66.1261,110.45,259.305,-259.383,-872.751,4.88579e-09,-4.88658e-09,-1.64431e-08,910.43,-910.508,0.000869451,1.71534e-08,-1.71542e-08,1.6381e-14
0.639975,-0.47,0.0444945,0.01,-60.4037,110.45,266.942,-266.979,-851.205,5.02951e-09,-5.02988e-09,-1.60372e-08,892.068,-892.105,0.00320819,1.68072e-08,-1.68076e-08,6.04442e-14
0.649975,-0.47,0.0521694,0.01,-54.708,110.45,273.869,-273.907,-830.19,5.16002e-09,-5.1604e-09,-1.56413e-08,874.183,-874.221,-0.00012762,1.64703e-08,-1.64707e-08,-2.40443e-15
0.659975,-0.47,0.0605272,0.01,-49.0397,110.45,280.145,-280.181,-809.656,5.27825e-09,-5.27861e-09,-1.52544e-08,856.74,-856.776,-2.3384e-05,1.61416e-08,-1.6142e-08,-4.40569e-16
0.669975,-0.47,0.0691797,0.01,-43.3994,110.45,285.805,-285.839,-789.606,5.38488e-09,-5.38522e-09,-1.48766e-08,839.729,-839.762,-1.72757e-06,1.58211e-08,-1.58215e-08,-3.25485e-17
0.679975,-0.47,0.0767998,0.01,-37.7877,110.45,290.887,-290.918,-770.038,5.48062e-09,-5.48093e-09,-1.4508e-08,823.139,-823.17,-2.57926e-06,1.55085e-08,-1.55089e-08,-4.85947e-17
0.689975,-0.47,0.0849152,0.01,-32.2051,110.45,295.426,-295.456,-750.948,5.56613e-09,-5.56643e-09,-1.41483e-08,806.96,-806.989,-2.30813e-06,1.52037e-08,-1.5204e-08,-4.34866e-17
0.699975,-0.47,0.0933968,0.01,-26.652,110.45,299.457,-299.484,-732.331,5.64206e-09,-5.64234e-09,-1.37975e-08,791.182,-791.209,-1.90119e-06,1.49064e-08,-1.49067e-08,-3.58196e-17
0.709975,-0.47,0.101994,0.01,-21.1289,110.45,303.011,-303.037,-714.181,5.70901e-09,-5.70927e-09,-1.34556e-08,775.795,-775.821,-1.52165e-06,1.46165e-08,-1.46168e-08,-2.86687e-17
0.719975,-0.47,0.109974,0.01,-15.636,110.45,306.118,-306.142,-696.494,5.76755e-09,-5.7678e-09,-1.31223e-08,760.79,-760.814,-1.16263e-06,1.43338e-08,-1.43341e-08,-2.19046e-17
0.729975,-0.47,0.118262,0.01,-10.1738,110.45,308.808,-308.831,-679.261,5.81823e-09,-5.81845e-09,-1.27977e-08,746.156,-746.178,-8.24262e-07,1.40581e-08,-1.40583e-08,-1.55296e-17
0.739975,-0.47,0.126798,0.01,-4.74246,110.45,311.108,-311.129,-662.476,5.86154e-09,-5.86175e-09,-1.24814e-08,731.883,-731.904,-5.06506e-07,1.37892e-08,-1.37894e-08,-9.54286e-18
0.749975,-0.47,0.135533,0.01,0.657788,110.45,313.042,-313.061,-646.13,5.89797e-09,-5.89817e-09,-1.21735e-08,717.964,-717.983,-2.10054e-07,1.35269e-08,-1.35271e-08,-3.95753e-18
0.759975,-0.47,0.143786,0.01,6.02673,110.45,314.635,-314.653,-630.216,5.92798e-09,-5.92817e-09,-1.18736e-08,704.387,-704.405,6.43006e-08,1.32711e-08,-1.32713e-08,1.21146e-18
0.769975,-0.47,0.152165,0.01,11.3642,110.45,315.91,-315.927,-614.726,5.952e-09,-5.95217e-09,-1.15818e-08,691.144,-691.161,3.175e-07,1.30216e-08,-1.30218e-08,5.98189e-18
0.779975,-0.47,0.16073,0.01,16.6701,110.45,316.888,-316.904,-599.649,5.97042e-09,-5.97058e-09,-1.12977e-08,678.227,-678.242,5.50327e-07,1.27783e-08,-1.27784e-08,1.03685e-17
0.789975,-0.47,0.169452,0.01,21.9443,110.45,317.59,-317.604,-584.978,5.98364e-09,-5.98379e-09,-1.10213e-08,665.625,-665.64,7.62492e-07,1.25408e-08,-1.2541e-08,1.43658e-17
0.799975,-0.47,0.178175,0.01,27.1867,110.45,318.034,-318.047,-570.703,5.992e-09,-5.99214e-09,-1.07524e-08,653.332,-653.346,9.54569e-07,1.23092e-08,-1.23094e-08,1.79846e-17
0.809975,-0.47,0.18661,0.01,32.3974,110.45,318.238,-318.251,-556.816,5.99584e-09,-5.99597e-09,-1.04907e-08,641.338,-641.351,1.12793e-06,1.20832e-08,-1.20834e-08,2.12508e-17
0.819975,-0.47,0.195193,0.01,37.5762,110.45,318.219,-318.231,-543.306,5.99549e-09,-5.99561e-09,-1.02362e-08,629.636,-629.648,1.28381e-06,1.18628e-08,-1.18629e-08,2.41878e-17
0.829975,-0.47,0.203906,0.01,42.7232,110.45,317.994,-318.005,-530.166,5.99124e-09,-5.99135e-09,-9.98863e-09,618.217,-618.228,1.42281e-06,1.16476e-08,-1.16477e-08,2.68065e-17
0.839975,-0.47,0.212732,0.01,47.8384,110.45,317.576,-317.587,-517.385,5.98337e-09,-5.98347e-09,-9.74783e-09,607.074,-607.084,1.54501e-06,1.14377e-08,-1.14378e-08,2.91088e-17
0.849975,-0.47,0.221592,0.01,52.9219,110.45,316.811,-317.212,-505.313,5.97065e-09,-5.97472e-09,-9.52038e-09,596.32,-596.722,-0.168093,1.12368e-08,-1.12408e-08,-3.16697e-12
0.859975,-0.47,0.230189,0.01,57.9736,110.45,316.394,-319.869,-494.987,5.97616e-09,-6.01141e-09,-9.32585e-09,586.667,-590.142,0.459571,1.10683e-08,-1.11035e-08,8.65857e-12
0.869975,-0.47,0.238894,0.01,62.9937,110.45,315.807,-324.99,-487.83,5.98991e-09,-6.08307e-09,-9.19099e-09,579.046,-588.229,0.571238,1.09495e-08,-1.10426e-08,1.07625e-11
-0.880025,-0.46,0.243245,0.01,65.3672,105.8,325.648,-334.05,475.475,6.17193e-09,-6.25716e-09,8.95823e-09,574.485,-582.886,0.572958,1.08602e-08,-1.09454e-08,1.07949e-11
-0.870025,-0.46,0.234273,0.01,60.3312,105.8,326.167,-332.046,484.984,6.17074e-09,-6.23037e-09,9.13737e-09,583.165,-589.044,1.09256,1.10127e-08,-1.10724e-08,2.05845e-11
-0.860025,-0.46,0.225386,0.01,55.2626,105.8,328.201,-330.299,493.46,6.19262e-09,-6.2139e-09,9.29708e-09,592.17,-594.268,0.0610462,1.11659e-08,-1.11872e-08,1.15015e-12
-0.850025,-0.46,0.216597,0.01,50.1612,105.8,329.317,-329.334,504.044,6.2046e-09,-6.20477e-09,9.49648e-09,602.085,-602.101,-0.00299346,1.13437e-08,-1.13439e-08,-5.63986e-14
-0.840025,-0.46,0.207918,0.01,45.0268,105.8,330.264,-330.273,516.635,6.2224e-09,-6.2225e-09,9.7337e-09,613.174,-613.184,-1.96963e-06,1.15526e-08,-1.15527e-08,-3.71091e-17
-0.830025,-0.46,0.199342,0.01,39.8595,105.8,331.044,-331.055,529.594,6.23711e-09,-6.23722e-09,9.97785e-09,624.545,-624.556,-1.85814e-06,1.17668e-08,-1.17669e-08,-3.50085e-17
-0.820025,-0.46,0.190418,0.01,34.659,105.8,331.642,-331.654,542.927,6.24839e-09,-6.2485e-09,1.02291e-08,636.202,-636.213,-1.72986e-06,1.19865e-08,-1.19866e-08,-3.25915e-17
-0.810025,-0.46,0.181606,0.01,29.4253,105.8,332.043,-332.056,556.644,6.25594e-09,-6.25607e-09,1.04875e-08,648.153,-648.165,-1.58317e-06,1.22116e-08,-1.22118e-08,-2.98279e-17
-0.800025,-0.46,0.172924,0.01,24.1585,105.8,332.231,-332.244,570.756,6.25949e-09,-6.25962e-09,1.07534e-08,660.406,-660.419,-1.41701e-06,1.24425e-08,-1.24426e-08,-2.66973e-17
-0.790025,-0.46,0.164391,0.01,18.8584,105.8,332.189,-332.203,585.273,6.2587e-09,-6.25884e-09,1.10269e-08,672.97,-672.984,-1.23088e-06,1.26792e-08,-1.26794e-08,-2.31905e-17
-0.780025,-0.46,0.155992,0.01,13.5251,105.8,331.899,-331.915,600.204,6.25324e-09,-6.2534e-09,1.13082e-08,685.854,-685.87,-1.02278e-06,1.2922e-08,-1.29221e-08,-1.92697e-17
-0.770025,-0.46,0.147149,0.01,8.15861,105.8,331.343,-331.359,615.56,6.24276e-09,-6.24293e-09,1.15975e-08,699.068,-699.084,-7.91827e-07,1.31709e-08,-1.31711e-08,-1.49185e-17
-0.760025,-0.46,0.138463,0.01,2.759,105.8,330.499,-330.516,631.351,6.22686e-09,-6.22704e-09,1.1895e-08,712.62,-712.638,-5.37475e-07,1.34262e-08,-1.34264e-08,-1.01263e-17
-0.750025,-0.46,0.129966,0.01,-2.67366,105.8,329.346,-329.365,647.588,6.20515e-09,-6.20534e-09,1.22009e-08,726.52,-726.539,-2.58899e-07,1.36881e-08,-1.36883e-08,-4.8778e-18
-0.740025,-0.46,0.121697,0.01,-8.13926,105.8,327.861,-327.882,664.28,6.17718e-09,-6.17739e-09,1.25154e-08,740.778,-740.798,4.46518e-08,1.39568e-08,-1.3957e-08,8.41267e-19
-0.730025,-0.46,0.113226,0.01,-13.6376,105.8,326.02,-326.042,681.436,6.14251e-09,-6.14273e-09,1.28386e-08,755.404,-755.426,3.73888e-07,1.42323e-08,-1.42326e-08,7.04427e-18
-0.720025,-0.46,0.104534,0.01,-19.1686,105.8,323.797,-323.821,699.066,6.10063e-09,-6.10087e-09,1.31708e-08,770.407,-770.431,7.2889e-07,1.4515e-08,-1.45153e-08,1.37327e-17
-0.710025,-0.46,0.0960979,0.01,-24.732,105.8,321.165,-321.19,717.179,6.05104e-09,-6.05129e-09,1.35121e-08,785.8,-785.825,1.10871e-06,1.4805e-08,-1.48053e-08,2.08887e-17
-0.700025,-0.46,0.0879896,0.01,-30.3275,105.8,318.093,-318.12,735.784,5.99317e-09,-5.99345e-09,1.38626e-08,801.591,-801.618,1.50645e-06,1.51026e-08,-1.51028e-08,2.83824e-17
-0.690025,-0.46,0.0798406,0.01,-35.9547,105.8,314.552,-314.58,754.888,5.92646e-09,-5.92675e-09,1.42225e-08,817.792,-817.821,1.93061e-06,1.54078e-08,-1.54081e-08,3.63738e-17
-0.680025,-0.46,0.0711418,0.01,-41.6135,105.8,310.508,-310.539,774.498,5.85028e-09,-5.85059e-09,1.4592e-08,834.414,-834.445,3.33243e-06,1.5721e-08,-1.57213e-08,6.27848e-17
-0.670025,-0.46,0.0628314,0.01,-47.3032,105.8,305.926,-305.959,794.622,5.76398e-09,-5.76431e-09,1.49711e-08,851.468,-851.5,3.31046e-06,1.60423e-08,-1.60426e-08,6.2371e-17
-0.660025,-0.46,0.0550855,0.01,-53.0236,105.8,300.771,-300.807,815.264,5.66686e-09,-5.66722e-09,1.536e-08,868.964,-868.999,-0.00013055,1.63719e-08,-1.63723e-08,-2.45963e-15
-0.650025,-0.46,0.0470053,0.01,-58.774,105.8,295.003,-295.042,836.431,5.55819e-09,-5.55859e-09,1.57588e-08,886.916,-886.955,0.000347552,1.67102e-08,-1.67106e-08,6.54808e-15
-0.640025,-0.46,0.0382964,0.01,-64.554,105.8,288.56,-288.608,858.127,5.43685e-09,-5.43734e-09,1.61676e-08,905.328,-905.376,0.0183285,1.70571e-08,-1.70576e-08,3.45319e-13
-0.630025,-0.46,0.0303928,0.01,-70.3628,105.8,281.853,-281.191,879.646,5.30739e-09,-5.30068e-09,1.6573e-08,923.927,-923.266,-0.247591,1.74045e-08,-1.73977e-08,-4.66476e-12
-0.620025,-0.46,0.0241005,0.01,-76.1997,105.8,274.116,-268.332,898.554,5.13935e-09,-5.08068e-09,1.69293e-08,941.487,-935.703,0.982438,1.7713e-08,-1.76543e-08,1.85097e-11
-0.610025,-0.46,0.0148453,0.01,-82.064,105.8,267.294,-253.825,912.782,4.97742e-09,-4.84077e-09,1.71973e-08,955.977,-942.508,0.509014,1.79526e-08,-1.7816e-08,9.59011e-12
-0.600025,-0.46,0.00627383,0.01,-87.9535,105.8,256.621,-237.356,923.095,4.75113e-09,-4.55569e-09,1.73916e-08,965.198,-945.934,1.17473,1.81011e-08,-1.79057e-08,2.21326e-11
0.599975,-0.46,0.00624183,0.01,-87.9828,105.8,256.547,-237.186,-923.141,4.74931e-09,-4.5529e-09,-1.73925e-08,965.259,-945.899,-1.22799,1.81019e-08,-1.79055e-08,-2.31361e-11
0.609975,-0.46,0.0147983,0.01,-82.0932,105.8,267.213,-253.757,-912.9,4.97594e-09,-4.83943e-09,-1.71996e-08,956.064,-942.608,-0.539127,1.79543e-08,-1.78178e-08,-1.01575e-11
0.619975,-0.46,0.0240755,0.01,-76.2288,105.8,274.066,-268.287,-898.679,5.13843e-09,-5.07981e-09,-1.69316e-08,941.59,-935.812,-0.991856,1.7715e-08,-1.76564e-08,-1.86871e-11
0.629975,-0.46,0.0303566,0.01,-70.3917,105.8,281.816,-281.159,-879.761,5.30672e-09,-5.30005e-09,-1.65752e-08,924.025,-923.368,0.248945,1.74063e-08,-1.73996e-08,4.69026e-12
0.639975,-0.46,0.0382546,0.01,-64.5828,105.8,288.527,-288.574,-858.236,5.43622e-09,-5.4367e-09,-1.61697e-08,905.421,-905.469,-0.0184861,1.70589e-08,-1.70593e-08,-3.48289e-13
0.649975,-0.46,0.0469608,0.01,-58.8027,105.8,294.972,-295.012,-836.538,5.55762e-09,-5.55802e-09,-1.57609e-08,887.007,-887.046,-0.00036577,1.67119e-08,-1.67123e-08,-6.89133e-15
0.659975,-0.46,0.0550487,0.01,-53.0521,105.8,300.744,-300.779,-815.368,5.66635e-09,-5.66671e-09,-1.5362e-08,869.052,-869.087,0.000132134,1.63736e-08,-1.6374e-08,2.48948e-15
0.669975,-0.46,0.0627913,0.01,-47.3316,105.8,305.902,-305.935,-794.723,5.76352e-09,-5.76385e-09,-1.4973e-08,851.553,-851.586,-3.22446e-06,1.60439e-08,-1.60442e-08,-6.07508e-17
0.679975,-0.46,0.0710994,0.01,-41.6417,105.8,310.486,-310.517,-774.597,5.84988e-09,-5.85019e-09,-1.45939e-08,834.498,-834.528,-3.34684e-06,1.57226e-08,-1.57229e-08,-6.30565e-17
0.689975,-0.46,0.0797966,0.01,-35.9828,105.8,314.533,-314.562,-754.984,5.92611e-09,-5.9264e-09,-1.42243e-08,817.874,-817.903,-1.93322e-06,1.54093e-08,-1.54096e-08,-3.6423e-17
0.699975,-0.46,0.0879503,0.01,-30.3554,105.8,318.077,-318.104,-735.878,5.99286e-09,-5.99314e-09,-1.38644e-08,801.67,-801.697,-1.50853e-06,1.51041e-08,-1.51043e-08,-2.84216e-17
0.709975,-0.46,0.0960567,0.01,-24.7597,105.8,321.15,-321.176,-717.271,6.05077e-09,-6.05102e-09,-1.35138e-08,785.877,-785.902,-1.11073e-06,1.48065e-08,-1.48067e-08,-2.09268e-17
0.719975,-0.46,0.104492,0.01,-19.1962,105.8,323.785,-323.809,-699.155,6.1004e-09,-6.10064e-09,-1.31725e-08,770.483,-770.506,-7.31009e-07,1.45164e-08,-1.45167e-08,-1.37726e-17
0.729975,-0.46,0.113182,0.01,-13.6651,105.8,326.01,-326.032,-681.522,6.14232e-09,-6.14254e-09,-1.28403e-08,755.477,-755.499,-3.7637e-07,1.42337e-08,-1.42339e-08,-7.09103e-18
0.739975,-0.46,0.121657,0.01,-8.16652,105.8,327.853,-327.873,-664.364,6.17703e-09,-6.17724e-09,-1.2517e-08,740.85,-740.87,-4.65384e-08,1.39581e-08,-1.39583e-08,-8.76811e-19
0.749975,-0.46,0.129924,0.01,-2.70076,105.8,329.339,-329.358,-647.67,6.20503e-09,-6.20522e-09,-1.22025e-08,726.59,-726.609,2.57646e-07,1.36895e-08,-1.36897e-08,4.85419e-18
0.759975,-0.46,0.13842,0.01,2.73206,105.8,330.494,-330.511,-631.431,6.22677e-09,-6.22695e-09,-1.18965e-08,712.688,-712.706,5.363e-07,1.34275e-08,-1.34277e-08,1.01042e-17
0.769975,-0.46,0.147105,0.01,8.13184,105.8,331.339,-331.356,-615.637,6.24269e-09,-6.24286e-09,-1.1599e-08,699.134,-699.151,7.90966e-07,1.31722e-08,-1.31723e-08,1.49023e-17
0.779975,-0.46,0.155948,0.01,13.4985,105.8,331.897,-331.913,-600.279,6.25321e-09,-6.25336e-09,-1.13096e-08,685.919,-685.935,1.0222e-06,1.29232e-08,-1.29233e-08,1.92588e-17
0.789975,-0.46,0.164349,0.01,18.8319,105.8,332.188,-332.203,-585.346,6.25868e-09,-6.25883e-09,-1.10283e-08,673.033,-673.048,1.23027e-06,1.26804e-08,-1.26805e-08,2.31791e-17
0.799975,-0.46,0.172881,0.01,24.1322,105.8,332.232,-332.245,-570.827,6.25949e-09,-6.25963e-09,-1.07547e-08,660.468,-660.481,1.41655e-06,1.24436e-08,-1.24438e-08,2.66887e-17
0.809975,-0.46,0.181563,0.01,29.3992,105.8,332.045,-332.057,-556.714,6.25597e-09,-6.25609e-09,-1.04888e-08,648.213,-648.225,1.58242e-06,1.22128e-08,-1.22129e-08,2.98137e-17
0.819975,-0.46,0.190374,0.01,34.633,105.8,331.645,-331.656,-542.994,6.24843e-09,-6.24855e-09,-1.02303e-08,636.261,-636.272,1.72936e-06,1.19876e-08,-1.19877e-08,3.25822e-17
0.829975,-0.46,0.199297,0.01,39.8337,105.8,331.048,-331.058,-529.659,6.23718e-09,-6.23728e-09,-9.97909e-09,624.603,-624.613,1.85804e-06,1.17679e-08,-1.1768e-08,3.50065e-17
0.839975,-0.46,0.207875,0.01,45.0012,105.8,330.268,-330.278,-516.698,6.22248e-09,-6.22258e-09,-9.73489e-09,613.23,-613.24,1.96868e-06,1.15537e-08,-1.15538e-08,3.70911e-17
0.849975,-0.46,0.216554,0.01,50.1358,105.8,329.322,-329.339,-504.106,6.2047e-09,-6.20487e-09,-9.49765e-09,602.139,-602.156,0.0029941,1.13447e-08,-1.13449e-08,5.64107e-14
0.859975,-0.46,0.225342,0.01,55.2373,105.8,328.207,-330.305,-493.521,6.19273e-09,-6.21401e-09,-9.29821e-09,592.223,-594.321,-0.0609893,1.1167e-08,-1.11882e-08,-1.14907e-12
0.869975,-0.46,0.234228,0.01,60.3061,105.8,326.173,-332.053,-485.043,6.17086e-09,-6.2305e-09,-9.13849e-09,583.218,-589.097,-1.09279,1.10137e-08,-1.10734e-08,-2.05888e-11
0.879975,-0.46,0.2432,0.01,65.3422,105.8,325.655,-334.057,-475.533,6.17206e-09,-6.2573e-09,-8.95932e-09,574.536,-582.938,-0.573506,1.08611e-08,-1.09464e-08,-1.08052e-11
-0.880025,-0.45,0.238542,0.01,62.7598,101.25,337.949,-347.17,473.229,6.40724e-09,-6.50079e-09,8.91592e-09,579.592,-588.813,-0.669449,1.09599e-08,-1.10535e-08,-1.26128e-11
-0.870025,-0.45,0.229787,0.01,57.6766,101.25,339.107,-342.581,480.449,6.40408e-09,-6.43932e-09,9.05195e-09,587.335,-590.809,-0.528046,1.10808e-08,-1.11161e-08,-9.94869e-12
-0.860025,-0.45,0.220888,0.01,52.5594,101.25,340.199,-340.585,490.778,6.41122e-09,-6.41514e-09,9.24654e-09,597.075,-597.462,0.155765,1.12509e-08,-1.12548e-08,2.93469e-12
-0.850025,-0.45,0.211912,0.01,47.4083,101.25,341.807,-341.816,502.831,6.43989e-09,-6.43997e-09,9.47363e-09,608.004,-608.013,-2.51737e-06,1.14552e-08,-1.14553e-08,-4.74288e-17
-0.840025,-0.45,0.203032,0.01,42.2229,101.25,343.122,-343.131,515.583,6.46466e-09,-6.46475e-09,9.71388e-09,619.319,-619.328,-2.43723e-06,1.16684e-08,-1.16685e-08,-4.59188e-17
-0.830025,-0.45,0.194261,0.01,37.0033,101.25,344.279,-344.288,528.712,6.48645e-09,-6.48655e-09,9.96124e-09,630.921,-630.931,-2.34025e-06,1.1887e-08,-1.18871e-08,-4.40916e-17
-0.820025,-0.45,0.185615,0.01,31.7492,101.25,345.263,-345.274,542.23,6.50501e-09,-6.50511e-09,1.02159e-08,642.819,-642.83,-2.22619e-06,1.21111e-08,-1.21112e-08,-4.19428e-17
-0.810025,-0.45,0.176981,0.01,26.4606,101.25,346.061,-346.073,556.147,6.52005e-09,-6.52016e-09,1.04781e-08,655.022,-655.034,-2.0929e-06,1.23411e-08,-1.23412e-08,-3.94314e-17
-0.800025,-0.45,0.16806,0.01,21.1374,101.25,346.657,-346.67,570.475,6.53127e-09,-6.5314e-09,1.07481e-08,667.539,-667.552,-1.9385e-06,1.25769e-08,-1.2577e-08,-3.65224e-17
-0.790025,-0.45,0.159268,0.01,15.7796,101.25,347.034,-347.047,585.224,6.53838e-09,-6.53851e-09,1.1026e-08,680.379,-680.393,-1.76254e-06,1.28188e-08,-1.28189e-08,-3.32073e-17
-0.780025,-0.45,0.150626,0.01,10.387,101.25,347.173,-347.188,600.407,6.54101e-09,-6.54116e-09,1.1312e-08,693.551,-693.566,-1.56304e-06,1.3067e-08,-1.30671e-08,-2.94485e-17
-0.770025,-0.45,0.142162,0.01,4.95969,101.25,347.057,-347.073,616.035,6.53882e-09,-6.53898e-09,1.16065e-08,707.066,-707.082,-1.33852e-06,1.33216e-08,-1.33218e-08,-2.52185e-17
-0.760025,-0.45,0.133632,0.01,-0.5023,101.25,346.664,-346.681,632.119,6.53142e-09,-6.5316e-09,1.19095e-08,720.933,-720.95,-1.08807e-06,1.35829e-08,-1.3583e-08,-2.04999e-17
-0.750025,-0.45,0.124807,0.01,-5.99896,101.25,345.973,-345.991,648.671,6.51841e-09,-6.51859e-09,1.22213e-08,735.162,-735.181,-8.10237e-07,1.3851e-08,-1.38511e-08,-1.52653e-17
-0.740025,-0.45,0.116172,0.01,-11.5302,101.25,344.96,-344.98,665.701,6.49934e-09,-6.49954e-09,1.25422e-08,749.765,-749.785,-5.03898e-07,1.41261e-08,-1.41263e-08,-9.49373e-18
-0.730025,-0.45,0.107773,0.01,-17.096,101.25,343.602,-343.623,683.221,6.47375e-09,-6.47397e-09,1.28723e-08,764.751,-764.772,-1.68144e-07,1.44084e-08,-1.44087e-08,-3.16792e-18
-0.720025,-0.45,0.0996705,0.01,-22.6961,101.25,341.871,-341.894,701.242,6.44115e-09,-6.44138e-09,1.32118e-08,780.132,-780.155,1.97655e-07,1.46982e-08,-1.46985e-08,3.72393e-18
-0.710025,-0.45,0.0908788,0.01,-28.3303,101.25,339.74,-339.765,719.775,6.40101e-09,-6.40126e-09,1.3561e-08,795.92,-795.944,5.9559e-07,1.49957e-08,-1.49959e-08,1.12213e-17
-0.700025,-0.45,0.0822577,0.01,-33.9986,101.25,337.18,-337.206,738.829,6.35278e-09,-6.35304e-09,1.392e-08,812.124,-812.151,1.04877e-06,1.5301e-08,-1.53013e-08,1.97594e-17
-0.690025,-0.45,0.0739844,0.01,-39.7006,101.25,334.158,-334.186,758.415,6.29585e-09,-6.29614e-09,1.4289e-08,828.758,-828.787,1.26946e-06,1.56144e-08,-1.56147e-08,2.39173e-17
-0.680025,-0.45,0.0661896,0.01,-45.436,101.25,330.641,-330.672,778.541,6.22961e-09,-6.22992e-09,1.46682e-08,845.834,-845.864,-2.13301e-06,1.59361e-08,-1.59364e-08,-4.01872e-17
-0.670025,-0.45,0.0574864,0.01,-51.2044,101.25,326.595,-326.627,799.217,6.15337e-09,-6.1537e-09,1.50577e-08,863.362,-863.395,3.70924e-05,1.62664e-08,-1.62667e-08,6.98842e-16
-0.660025,-0.45,0.0489011,0.01,-57.0055,101.25,321.979,-322.014,820.449,6.06643e-09,-6.06679e-09,1.54577e-08,881.356,-881.391,0.000564874,1.66054e-08,-1.66058e-08,1.06426e-14
-0.650025,-0.45,0.0409627,0.01,-62.8388,101.25,316.767,-316.793,842.235,5.96818e-09,-5.96845e-09,1.58682e-08,899.825,-899.852,-0.00699749,1.69533e-08,-1.69536e-08,-1.31837e-13
-0.640025,-0.45,0.0339157,0.01,-68.7038,101.25,311.442,-310.523,863.698,5.86375e-09,-5.85443e-09,1.62726e-08,918.438,-917.519,-0.381361,1.72999e-08,-1.72906e-08,-7.18506e-12
-0.630025,-0.45,0.0246452,0.01,-74.5999,101.25,306.158,-301.011,883.078,5.74582e-09,-5.6936e-09,1.66377e-08,936.378,-931.231,-0.736204,1.76195e-08,-1.75673e-08,-1.38705e-11
-0.620025,-0.45,0.0162633,0.01,-80.5263,101.25,297.636,-285.534,901.354,5.55502e-09,-5.43225e-09,1.6982e-08,953.393,-941.291,2.16916,1.79099e-08,-1.77871e-08,4.08683e-11
-0.610025,-0.45,0.0110275,0.01,-86.4831,101.25,284.892,-268.539,921.046,5.29643e-09,-5.13053e-09,1.7353e-08,969.862,-953.51,7.50784,1.82017e-08,-1.80358e-08,1.41452e-10
0.609975,-0.45,0.0110179,0.01,-86.5128,101.25,284.821,-268.478,-921.246,5.29514e-09,-5.12933e-09,-1.73568e-08,970.03,-953.687,-7.55526,1.82049e-08,-1.80391e-08,-1.42346e-10
0.619975,-0.45,0.0162262,0.01,-80.5558,101.25,297.591,-285.523,-901.494,5.55432e-09,-5.43188e-09,-1.69847e-08,953.5,-941.432,-2.16708,1.7912e-08,-1.77896e-08,-4.0829e-11
0.629975,-0.45,0.0246005,0.01,-74.6293,101.25,306.13,-300.99,-883.195,5.74532e-09,-5.69317e-09,-1.66399e-08,936.476,-931.336,0.744571,1.76214e-08,-1.75693e-08,1.40282e-11
0.639975,-0.45,0.0338685,0.01,-68.7331,101.25,311.412,-310.492,-863.81,5.86318e-09,-5.85385e-09,-1.62747e-08,918.533,-917.613,0.382293,1.73017e-08,-1.72924e-08,7.20261e-12
0.649975,-0.45,0.0409255,0.01,-62.8679,101.25,316.739,-316.766,-842.345,5.96767e-09,-5.96793e-09,-1.58703e-08,899.918,-899.945,0.00713986,1.69551e-08,-1.69554e-08,1.34519e-13
0.659975,-0.45,0.0488597,0.01,-57.0345,101.25,321.955,-321.99,-820.556,6.06597e-09,-6.06632e-09,-1.54598e-08,881.447,-881.482,-0.000567841,1.66071e-08,-1.66075e-08,-1.06984e-14
0.669975,-0.45,0.0574426,0.01,-51.2332,101.25,326.573,-326.606,-799.321,6.15297e-09,-6.1533e-09,-1.50597e-08,863.451,-863.483,-3.79315e-05,1.62681e-08,-1.62684e-08,-7.14651e-16
0.679975,-0.45,0.0661523,0.01,-45.4646,101.25,330.623,-330.653,-778.643,6.22925e-09,-6.22956e-09,-1.46701e-08,845.92,-845.95,2.16068e-06,1.59378e-08,-1.59381e-08,4.07085e-17
0.689975,-0.45,0.0739443,0.01,-39.729,101.25,334.142,-334.17,-758.514,6.29555e-09,-6.29583e-09,-1.42908e-08,828.842,-828.871,-1.2666e-06,1.5616e-08,-1.56163e-08,-2.38635e-17
0.699975,-0.45,0.0822156,0.01,-34.0269,101.25,337.166,-337.192,-738.925,6.35251e-09,-6.35278e-09,-1.39218e-08,812.206,-812.232,-1.051e-06,1.53025e-08,-1.53028e-08,-1.98015e-17
0.709975,-0.45,0.0908353,0.01,-28.3585,101.25,339.729,-339.753,-719.868,6.40079e-09,-6.40104e-09,-1.35627e-08,795.999,-796.024,-5.97704e-07,1.49972e-08,-1.49974e-08,-1.12611e-17
0.719975,-0.45,0.099631,0.01,-22.724,101.25,341.861,-341.884,-701.333,6.44097e-09,-6.4412e-09,-1.32135e-08,780.21,-780.233,-2.0022e-07,1.46997e-08,-1.46999e-08,-3.77225e-18
0.729975,-0.45,0.107732,0.01,-17.1237,101.25,343.594,-343.615,-683.309,6.4736e-09,-6.47382e-09,-1.28739e-08,764.827,-764.848,1.65411e-07,1.44099e-08,-1.44101e-08,3.11644e-18
0.739975,-0.45,0.116129,0.01,-11.5578,101.25,344.954,-344.974,-665.787,6.49923e-09,-6.49943e-09,-1.25438e-08,749.838,-749.858,5.01762e-07,1.41275e-08,-1.41277e-08,9.45349e-18
0.749975,-0.45,0.124763,0.01,-6.02638,101.25,345.969,-345.987,-648.754,6.51833e-09,-6.51852e-09,-1.22229e-08,735.234,-735.252,8.08249e-07,1.38523e-08,-1.38525e-08,1.52279e-17
0.759975,-0.45,0.133588,0.01,-0.52955,101.25,346.661,-346.678,-632.2,6.53137e-09,-6.53155e-09,-1.1911e-08,721.003,-721.02,1.08612e-06,1.35842e-08,-1.35844e-08,2.04631e-17
0.769975,-0.45,0.14212,0.01,4.93261,101.25,347.056,-347.072,-616.114,6.5388e-09,-6.53896e-09,-1.16079e-08,707.134,-707.15,1.3371e-06,1.33229e-08,-1.3323e-08,2.51918e-17
0.779975,-0.45,0.150583,0.01,10.3601,101.25,347.173,-347.188,-600.484,6.54101e-09,-6.54116e-09,-1.13135e-08,693.618,-693.632,1.56189e-06,1.30682e-08,-1.30684e-08,2.94269e-17
0.789975,-0.45,0.159224,0.01,15.7528,101.25,347.035,-347.049,-585.299,6.5384e-09,-6.53854e-09,-1.10274e-08,680.444,-680.457,1.76171e-06,1.282e-08,-1.28201e-08,3.31916e-17
0.799975,-0.45,0.168016,0.01,21.1109,101.25,346.659,-346.672,-570.547,6.53132e-09,-6.53145e-09,-1.07494e-08,667.602,-667.615,1.93782e-06,1.25781e-08,-1.25782e-08,3.65096e-17
0.809975,-0.45,0.176937,0.01,26.4342,101.25,346.065,-346.076,-556.217,6.52011e-09,-6.52023e-09,-1.04795e-08,655.084,-655.095,2.09186e-06,1.23422e-08,-1.23423e-08,3.94118e-17
0.819975,-0.45,0.185572,0.01,31.723,101.25,345.268,-345.278,-542.298,6.50509e-09,-6.5052e-09,-1.02172e-08,642.879,-642.89,2.22583e-06,1.21123e-08,-1.21124e-08,4.19359e-17
0.829975,-0.45,0.194218,0.01,36.9773,101.25,344.284,-344.294,-528.778,6.48655e-09,-6.48665e-09,-9.96249e-09,630.98,-630.989,2.34043e-06,1.18881e-08,-1.18882e-08,4.4095e-17
0.839975,-0.45,0.202988,0.01,42.1971,101.25,343.128,-343.137,-515.647,6.46477e-09,-6.46486e-09,-9.71509e-09,619.376,-619.385,2.4364e-06,1.16694e-08,-1.16695e-08,4.59031e-17
0.849975,-0.45,0.211868,0.01,47.3826,101.25,341.814,-341.823,-502.894,6.44002e-09,-6.4401e-09,-9.47481e-09,608.06,-608.068,2.51665e-06,1.14562e-08,-1.14563e-08,4.74151e-17
0.859975,-0.45,0.220843,0.01,52.5339,101.25,340.206,-340.593,-490.839,6.41136e-09,-6.41529e-09,-9.24768e-09,597.129,-597.516,-0.1558,1.12519e-08,-1.12559e-08,-2.93536e-12
0.869975,-0.45,0.229743,0.01,57.6512,101.25,339.115,-342.59,-480.509,6.40423e-09,-6.43948e-09,-9.05306e-09,587.388,-590.863,0.52805,1.10818e-08,-1.11171e-08,9.94877e-12
0.879975,-0.45,0.238499,0.01,62.7346,101.25,337.957,-347.18,-473.288,6.40741e-09,-6.50097e-09,-8.91702e-09,579.644,-588.866,0.669445,1.09609e-08,-1.10545e-08,1.26127e-11
-0.890025,-0.44,0.242983,0.01,65.2817,96.8,347.201,-355.551,459.978,6.57778e-09,-6.66249e-09,8.66624e-09,574.656,-583.005,0.112935,1.08631e-08,-1.09479e-08,2.12776e-12
-0.880025,-0.44,0.233967,0.01,60.1862,96.8,348.06,-353.909,469.642,6.58309e-09,-6.64242e-09,8.84833e-09,583.38,-589.229,1.01071,1.10166e-08,-1.1076e-08,1.90424e-11
-0.870025,-0.44,0.225033,0.01,55.0558,96.8,350.682,-352.767,478.224,6.61611e-09,-6.63727e-09,9.01002e-09,592.597,-594.683,0.122392,1.11739e-08,-1.11951e-08,2.30593e-12
-0.860025,-0.44,0.216193,0.01,49.8903,96.8,352.621,-352.636,488.742,6.64364e-09,-6.6438e-09,9.20819e-09,602.666,-602.681,-0.0027498,1.13546e-08,-1.13548e-08,-5.18078e-14
-0.850025,-0.44,0.207458,0.01,44.6895,96.8,354.445,-354.453,501.256,6.67798e-09,-6.67806e-09,9.44396e-09,613.911,-613.919,-3.00994e-06,1.15665e-08,-1.15666e-08,-5.67091e-17
-0.840025,-0.44,0.198531,0.01,39.4534,96.8,356.138,-356.147,514.154,6.70989e-09,-6.70997e-09,9.68696e-09,625.449,-625.457,-2.94874e-06,1.17839e-08,-1.17839e-08,-5.55561e-17
-0.830025,-0.44,0.189551,0.01,34.1816,96.8,357.684,-357.694,527.442,6.73902e-09,-6.73912e-09,9.93732e-09,637.284,-637.293,-2.87053e-06,1.20068e-08,-1.20069e-08,-5.40825e-17
-0.820025,-0.44,0.18068,0.01,28.874,96.8,359.07,-359.08,541.133,6.76514e-09,-6.76524e-09,1.01953e-08,649.426,-649.436,-2.77484e-06,1.22356e-08,-1.22357e-08,-5.22796e-17
-0.810025,-0.44,0.171932,0.01,23.5305,96.8,360.281,-360.292,555.239,6.78796e-09,-6.78807e-09,1.0461e-08,661.883,-661.894,-2.65939e-06,1.24703e-08,-1.24704e-08,-5.01044e-17
-0.800025,-0.44,0.163327,0.01,18.151,96.8,361.302,-361.314,569.771,6.80719e-09,-6.80731e-09,1.07348e-08,674.666,-674.678,-2.52151e-06,1.27112e-08,-1.27113e-08,-4.75067e-17
-0.790025,-0.44,0.154622,0.01,12.7354,96.8,362.115,-362.128,584.743,6.82251e-09,-6.82264e-09,1.10169e-08,687.784,-687.797,-2.3606e-06,1.29583e-08,-1.29584e-08,-4.4475e-17
-0.780025,-0.44,0.145704,0.01,7.28358,96.8,362.703,-362.717,600.166,6.8336e-09,-6.83374e-09,1.13075e-08,701.248,-701.262,-2.175e-06,1.3212e-08,-1.32121e-08,-4.09783e-17
-0.770025,-0.44,0.136936,0.01,1.79548,96.8,363.047,-363.063,616.054,6.84009e-09,-6.84024e-09,1.16068e-08,715.067,-715.082,-1.96259e-06,1.34723e-08,-1.34725e-08,-3.69764e-17
-0.760025,-0.44,0.128349,0.01,-3.72893,96.8,363.127,-363.144,632.419,6.8416e-09,-6.84176e-09,1.19151e-08,729.253,-729.269,-1.72165e-06,1.37396e-08,-1.37398e-08,-3.24369e-17
-0.750025,-0.44,0.119981,0.01,-9.28965,96.8,362.921,-362.939,649.274,6.83772e-09,-6.8379e-09,1.22327e-08,743.816,-743.834,-1.45043e-06,1.4014e-08,-1.40142e-08,-2.7327e-17
-0.740025,-0.44,0.111272,0.01,-14.8867,96.8,362.405,-362.424,666.632,6.828e-09,-6.8282e-09,1.25597e-08,758.768,-758.787,-1.14746e-06,1.42957e-08,-1.42959e-08,-2.16188e-17
-0.730025,-0.44,0.102473,0.01,-20.5199,96.8,361.555,-361.576,684.505,6.812e-09,-6.81221e-09,1.28965e-08,774.12,-774.14,-8.11269e-07,1.4585e-08,-1.45852e-08,-1.52848e-17
-0.720025,-0.44,0.0939141,0.01,-26.1893,96.8,360.345,-360.367,702.907,6.7892e-09,-6.78942e-09,1.32432e-08,789.884,-789.906,-4.40417e-07,1.4882e-08,-1.48822e-08,-8.29771e-18
-0.710025,-0.44,0.0856681,0.01,-31.8947,96.8,358.745,-358.769,721.848,6.75907e-09,-6.75932e-09,1.36e-08,806.072,-806.096,-4.6748e-08,1.5187e-08,-1.51872e-08,-8.80759e-19
-0.700025,-0.44,0.0773982,0.01,-37.636,96.8,356.727,-356.753,741.343,6.72106e-09,-6.72132e-09,1.39673e-08,822.698,-822.723,3.55996e-07,1.55002e-08,-1.55005e-08,6.70717e-18
-0.690025,-0.44,0.0685409,0.01,-43.413,96.8,354.258,-354.286,761.401,6.67456e-09,-6.67484e-09,1.43452e-08,839.772,-839.8,2.69215e-06,1.58219e-08,-1.58222e-08,5.07216e-17
-0.680025,-0.44,0.0600435,0.01,-49.2254,96.8,351.305,-351.335,782.035,6.61892e-09,-6.61922e-09,1.4734e-08,857.309,-857.339,1.02818e-05,1.61523e-08,-1.61526e-08,1.93714e-16
-0.670025,-0.44,0.0520825,0.01,-55.0729,96.8,347.831,-347.862,803.255,6.55347e-09,-6.55379e-09,1.51338e-08,875.321,-875.353,-0.000293755,1.64917e-08,-1.6492e-08,-5.53452e-15
-0.660025,-0.44,0.0441386,0.01,-60.9553,96.8,343.797,-343.834,825.074,6.4775e-09,-6.47787e-09,1.55449e-08,893.825,-893.862,-0.00101186,1.68403e-08,-1.68407e-08,-1.9064e-14
-0.650025,-0.44,0.0351404,0.01,-66.8719,96.8,339.093,-339.168,847.531,6.38903e-09,-6.38979e-09,1.5968e-08,912.825,-912.9,0.0603938,1.71985e-08,-1.71992e-08,1.13785e-12
-0.640025,-0.44,0.0268603,0.01,-72.8225,96.8,333.729,-330.192,867.441,6.27228e-09,-6.23639e-09,1.63431e-08,930.559,-927.022,0.708342,1.75169e-08,-1.7481e-08,1.33456e-11
-0.630025,-0.44,0.0202016,0.01,-78.8065,96.8,330.924,-316.125,882.635,6.17045e-09,-6.02032e-09,1.66294e-08,947.459,-932.66,0.166561,1.77863e-08,-1.76362e-08,3.13811e-12
-0.620025,-0.44,0.0121719,0.01,-84.8234,96.8,328.464,-302.129,899.935,6.07395e-09,-5.80678e-09,1.69553e-08,966.737,-940.401,-0.514266,1.80994e-08,-1.78322e-08,-9.68908e-12
0.619975,-0.44,0.0121223,0.01,-84.8534,96.8,328.419,-302.138,-900.054,6.07335e-09,-5.80673e-09,-1.69575e-08,966.817,-940.535,0.530593,1.81011e-08,-1.78345e-08,9.99668e-12
0.629975,-0.44,0.0201753,0.01,-78.8364,96.8,330.891,-316.099,-882.751,6.16987e-09,-6.0198e-09,-1.66315e-08,947.555,-932.763,-0.164302,1.77882e-08,-1.76381e-08,-3.09554e-12
0.639975,-0.44,0.026822,0.01,-72.8522,96.8,333.698,-330.161,-867.558,6.27168e-09,-6.23581e-09,-1.63453e-08,930.656,-927.12,-0.711869,1.75187e-08,-1.74829e-08,-1.3412e-11
0.649975,-0.44,0.035097,0.01,-66.9014,96.8,339.067,-339.143,-847.644,6.38855e-09,-6.38932e-09,-1.59701e-08,912.92,-912.996,-0.0611544,1.72003e-08,-1.7201e-08,-1.15218e-12
0.659975,-0.44,0.0440928,0.01,-60.9846,96.8,343.776,-343.812,-825.184,6.47709e-09,-6.47746e-09,-1.55469e-08,893.918,-893.955,0.000991789,1.68421e-08,-1.68425e-08,1.86859e-14
0.669975,-0.44,0.0520446,0.01,-55.1021,96.8,347.812,-347.844,-803.362,6.55312e-09,-6.55344e-09,-1.51358e-08,875.412,-875.444,0.000298361,1.64934e-08,-1.64937e-08,5.6213e-15
0.679975,-0.44,0.0600024,0.01,-49.2544,96.8,351.289,-351.319,-782.139,6.61862e-09,-6.61892e-09,-1.4736e-08,857.397,-857.427,-1.02147e-05,1.6154e-08,-1.61543e-08,-1.92451e-16
0.689975,-0.44,0.0684976,0.01,-43.4418,96.8,354.245,-354.273,-761.502,6.6743e-09,-6.67459e-09,-1.43471e-08,839.858,-839.886,-2.72307e-06,1.58235e-08,-1.58238e-08,-5.13041e-17
0.699975,-0.44,0.0773535,0.01,-37.6647,96.8,356.716,-356.742,-741.441,6.72085e-09,-6.72111e-09,-1.39692e-08,822.781,-822.807,-3.58466e-07,1.55018e-08,-1.55021e-08,-6.75371e-18
0.709975,-0.44,0.085628,0.01,-31.9232,96.8,358.736,-358.76,-721.944,6.75891e-09,-6.75915e-09,-1.36018e-08,806.154,-806.178,4.51109e-08,1.51885e-08,-1.51888e-08,8.49915e-19
0.719975,-0.44,0.0938722,0.01,-26.2176,96.8,360.338,-360.36,-703,6.78907e-09,-6.78929e-09,-1.32449e-08,789.963,-789.986,4.38343e-07,1.48835e-08,-1.48837e-08,8.25864e-18
0.729975,-0.44,0.10243,0.01,-20.548,96.8,361.55,-361.571,-684.596,6.8119e-09,-6.81211e-09,-1.28982e-08,774.197,-774.218,8.09347e-07,1.45864e-08,-1.45866e-08,1.52486e-17
0.739975,-0.44,0.111228,0.01,-14.9146,96.8,362.402,-362.421,-666.72,6.82794e-09,-6.82813e-09,-1.25614e-08,758.843,-758.862,1.14596e-06,1.42971e-08,-1.42973e-08,2.15906e-17
0.749975,-0.44,0.11994,0.01,-9.31739,96.8,362.919,-362.937,-649.359,6.83768e-09,-6.83786e-09,-1.22343e-08,743.889,-743.907,1.44854e-06,1.40154e-08,-1.40156e-08,2.72913e-17
0.759975,-0.44,0.128307,0.01,-3.75649,96.8,363.127,-363.143,-632.502,6.84159e-09,-6.84176e-09,-1.19167e-08,729.324,-729.341,1.71953e-06,1.3741e-08,-1.37411e-08,3.2397e-17
0.769975,-0.44,0.136893,0.01,1.76809,96.8,363.048,-363.064,-616.134,6.84011e-09,-6.84026e-09,-1.16083e-08,715.137,-715.152,1.96102e-06,1.34737e-08,-1.34738e-08,3.69468e-17
0.779975,-0.44,0.14566,0.01,7.25638,96.8,362.706,-362.72,-600.244,6.83364e-09,-6.83379e-09,-1.13089e-08,701.316,-701.33,2.17368e-06,1.32133e-08,-1.32134e-08,4.09534e-17
0.789975,-0.44,0.154577,0.01,12.7084,96.8,362.119,-362.131,-584.818,6.82258e-09,-6.82271e-09,-1.10183e-08,687.85,-687.863,2.35962e-06,1.29596e-08,-1.29597e-08,4.44565e-17
0.799975,-0.44,0.163285,0.01,18.1242,96.8,361.306,-361.318,-569.845,6.80727e-09,-6.80739e-09,-1.07362e-08,674.731,-674.743,2.52052e-06,1.27124e-08,-1.27125e-08,4.7488e-17
0.809975,-0.44,0.171888,0.01,23.5039,96.8,360.287,-360.298,-555.31,6.78806e-09,-6.78817e-09,-1.04624e-08,661.946,-661.957,2.65804e-06,1.24715e-08,-1.24716e-08,5.00791e-17
0.819975,-0.44,0.180636,0.01,28.8475,96.8,359.077,-359.087,-541.202,6.76526e-09,-6.76536e-09,-1.01966e-08,649.487,-649.497,2.77438e-06,1.22368e-08,-1.22369e-08,5.22709e-17
0.829975,-0.44,0.189507,0.01,34.1553,96.8,357.692,-357.701,-527.509,6.73916e-09,-6.73925e-09,-9.93858e-09,637.344,-637.353,2.87043e-06,1.2008e-08,-1.20081e-08,5.40805e-17
0.839975,-0.44,0.198486,0.01,39.4272,96.8,356.146,-356.155,-514.219,6.71004e-09,-6.71012e-09,-9.68818e-09,625.507,-625.515,2.94802e-06,1.1785e-08,-1.1785e-08,5.55424e-17
0.849975,-0.44,0.207415,0.01,44.6636,96.8,354.454,-354.462,-501.319,6.67815e-09,-6.67823e-09,-9.44515e-09,613.968,-613.976,3.00972e-06,1.15675e-08,-1.15676e-08,5.67049e-17
0.859975,-0.44,0.216149,0.01,49.8645,96.8,352.63,-352.645,-488.804,6.64382e-09,-6.64397e-09,-9.20934e-09,602.721,-602.737,0.00275045,1.13557e-08,-1.13558e-08,5.182e-14
0.869975,-0.44,0.224989,0.01,55.0302,96.8,350.692,-352.778,-478.284,6.6163e-09,-6.63746e-09,-9.01114e-09,592.651,-594.737,-0.122348,1.1175e-08,-1.11961e-08,-2.30511e-12
0.879975,-0.44,0.233922,0.01,60.1607,96.8,348.071,-353.92,-469.701,6.58328e-09,-6.64262e-09,-8.84943e-09,583.433,-589.282,-1.01094,1.10176e-08,-1.1077e-08,-1.90466e-11
0.889975,-0.44,0.242938,0.01,65.2565,96.8,347.212,-355.563,-460.035,6.57798e-09,-6.6627e-09,-8.66733e-09,574.707,-583.058,-0.113406,1.08641e-08,-1.09488e-08,-2.13663e-12
-0.890025,-0.43,0.238702,0.01,62.7887,92.45,359.082,-368.286,457.197,6.80534e-09,-6.89871e-09,8.61386e-09,579.602,-588.807,-0.758774,1.09601e-08,-1.10534e-08,-1.42957e-11
-0.880025,-0.43,0.229736,0.01,57.6474,92.45,360.805,-364.257,464.435,6.81279e-09,-6.84781e-09,8.75023e-09,587.45,-590.902,-0.590531,1.10829e-08,-1.11179e-08,-1.1126e-11
-0.870025,-0.43,0.220631,0.01,52.47,92.45,362.566,-362.935,474.703,6.83256e-09,-6.83631e-09,8.94368e-09,597.252,-597.622,0.140784,1.12542e-08,-1.12579e-08,2.65245e-12
-0.860025,-0.43,0.211607,0.01,47.2564,92.45,365.01,-365.017,486.661,6.87703e-09,-6.8771e-09,9.16898e-09,608.334,-608.34,-3.56632e-06,1.14614e-08,-1.14615e-08,-6.71915e-17
-0.850025,-0.43,0.202674,0.01,42.0063,92.45,367.217,-367.224,499.302,6.91861e-09,-6.91868e-09,9.40714e-09,619.797,-619.804,-3.54348e-06,1.16774e-08,-1.16774e-08,-6.67613e-17
-0.840025,-0.43,0.193846,0.01,36.7194,92.45,369.301,-369.309,512.334,6.95788e-09,-6.95796e-09,9.65267e-09,631.559,-631.567,-3.50556e-06,1.1899e-08,-1.18991e-08,-6.60468e-17
-0.830025,-0.43,0.185137,0.01,31.3956,92.45,371.251,-371.259,525.77,6.99461e-09,-6.9947e-09,9.90581e-09,643.629,-643.638,-3.45051e-06,1.21264e-08,-1.21265e-08,-6.50096e-17
-0.820025,-0.43,0.176174,0.01,26.0347,92.45,373.052,-373.062,539.622,7.02856e-09,-7.02866e-09,1.01668e-08,656.016,-656.026,-3.37737e-06,1.23598e-08,-1.23599e-08,-6.36316e-17
-0.810025,-0.43,0.167191,0.01,20.6365,92.45,374.692,-374.702,553.904,7.05945e-09,-7.05956e-09,1.04359e-08,668.73,-668.741,-3.28412e-06,1.25993e-08,-1.25994e-08,-6.18748e-17
-0.800025,-0.43,0.158329,0.01,15.2008,92.45,376.153,-376.165,568.629,7.087e-09,-7.08711e-09,1.07133e-08,681.782,-681.793,-3.16794e-06,1.28452e-08,-1.28453e-08,-5.96858e-17
-0.790025,-0.43,0.149611,0.01,9.7275,92.45,377.421,-377.433,583.81,7.11089e-09,-7.11101e-09,1.09993e-08,695.181,-695.193,-3.02787e-06,1.30977e-08,-1.30978e-08,-5.70467e-17
-0.780025,-0.43,0.141063,0.01,4.21646,92.45,378.477,-378.49,599.461,7.13078e-09,-7.13092e-09,1.12942e-08,708.938,-708.952,-2.86203e-06,1.33569e-08,-1.3357e-08,-5.39222e-17
-0.770025,-0.43,0.132262,0.01,-1.33243,92.45,379.302,-379.317,615.596,7.14633e-09,-7.14648e-09,1.15982e-08,723.065,-723.08,-2.66767e-06,1.3623e-08,-1.36232e-08,-5.02604e-17
-0.760025,-0.43,0.123349,0.01,-6.91924,92.45,379.876,-379.892,632.229,7.15716e-09,-7.15732e-09,1.19116e-08,737.573,-737.589,-2.44268e-06,1.38964e-08,-1.38965e-08,-4.60215e-17
-0.750025,-0.43,0.114617,0.01,-12.544,92.45,380.178,-380.195,649.375,7.16285e-09,-7.16302e-09,1.22346e-08,752.474,-752.491,-2.185e-06,1.41771e-08,-1.41773e-08,-4.11666e-17
-0.740025,-0.43,0.106108,0.01,-18.2069,92.45,380.184,-380.202,667.048,7.16296e-09,-7.16315e-09,1.25676e-08,767.78,-767.798,-1.89258e-06,1.44655e-08,-1.44657e-08,-3.56573e-17
-0.730025,-0.43,0.0978812,0.01,-23.9077,92.45,379.869,-379.889,685.262,7.15703e-09,-7.15724e-09,1.29107e-08,783.502,-783.522,-1.56386e-06,1.47617e-08,-1.47619e-08,-2.9464e-17
-0.720025,-0.43,0.0889129,0.01,-29.6465,92.45,379.207,-379.228,704.031,7.14457e-09,-7.14478e-09,1.32644e-08,799.655,-799.677,-1.1934e-06,1.50661e-08,-1.50663e-08,-2.24843e-17
-0.710025,-0.43,0.080154,0.01,-35.4233,92.45,378.169,-378.192,723.37,7.12502e-09,-7.12526e-09,1.36287e-08,816.251,-816.274,-7.34627e-07,1.53787e-08,-1.5379e-08,-1.38408e-17
-0.700025,-0.43,0.0717205,0.01,-41.2378,92.45,376.725,-376.75,743.292,7.09783e-09,-7.09809e-09,1.40041e-08,833.303,-833.328,-5.42958e-07,1.57e-08,-1.57003e-08,-1.02296e-17
-0.690025,-0.43,0.0637417,0.01,-47.09,92.45,374.844,-374.871,763.812,7.06239e-09,-7.06266e-09,1.43907e-08,850.825,-850.852,-8.83709e-06,1.60302e-08,-1.60304e-08,-1.66496e-16
-0.680025,-0.43,0.0550398,0.01,-52.9797,92.45,372.489,-372.518,784.943,7.01804e-09,-7.01833e-09,1.47888e-08,868.832,-868.861,2.76135e-05,1.63694e-08,-1.63697e-08,5.20255e-16
-0.670025,-0.43,0.0462249,0.01,-58.9067,92.45,369.623,-369.656,806.698,6.96405e-09,-6.96438e-09,1.51987e-08,887.336,-887.369,0.00156614,1.67181e-08,-1.67184e-08,2.95069e-14
-0.660025,-0.43,0.0380014,0.01,-64.8706,92.45,366.221,-366.234,829.067,6.89987e-09,-6.9e-09,1.56201e-08,906.346,-906.359,-0.0066899,1.70761e-08,-1.70763e-08,-1.26042e-13
-0.650025,-0.43,0.0308459,0.01,-70.8711,92.45,362.838,-362.259,851.493,6.83356e-09,-6.82769e-09,1.60426e-08,925.752,-925.173,-0.54366,1.74392e-08,-1.74333e-08,-1.02429e-11
-0.640025,-0.43,0.0218719,0.01,-76.9079,92.45,357.737,-352.926,872.1,6.71905e-09,-6.67025e-09,1.64309e-08,944.116,-939.305,0.68409,1.77668e-08,-1.7718e-08,1.28887e-11
-0.630025,-0.43,0.0128456,0.01,-82.9802,92.45,351.308,-338.25,886.974,6.56208e-09,-6.4296e-09,1.67111e-08,958.155,-945.097,2.16156,1.79954e-08,-1.78629e-08,4.07251e-11
0.629975,-0.43,0.0128043,0.01,-83.0105,92.45,351.251,-338.249,-887.111,6.56124e-09,-6.42934e-09,-1.67137e-08,958.243,-945.242,-2.16843,1.79973e-08,-1.78654e-08,-4.08546e-11
0.639975,-0.43,0.0218249,0.01,-76.938,92.45,357.714,-352.908,-872.227,6.71864e-09,-6.66988e-09,-1.64333e-08,944.223,-939.417,-0.683249,1.77688e-08,-1.77201e-08,-1.28728e-11
0.649975,-0.43,0.0308143,0.01,-70.901,92.45,362.819,-362.24,-851.609,6.83321e-09,-6.82734e-09,-1.60448e-08,925.852,-925.273,0.545884,1.74411e-08,-1.74352e-08,1.02848e-11
0.659975,-0.43,0.0379626,0.01,-64.9003,92.45,366.203,-366.215,-829.18,6.89953e-09,-6.89965e-09,-1.56222e-08,906.442,-906.454,0.00694671,1.70779e-08,-1.70781e-08,1.3088e-13
0.669975,-0.43,0.0461823,0.01,-58.9362,92.45,369.607,-369.64,-806.808,6.96376e-09,-6.96409e-09,-1.52007e-08,887.43,-887.462,-0.00158317,1.67198e-08,-1.67202e-08,-2.98279e-14
0.679975,-0.43,0.0549949,0.01,-53.0091,92.45,372.476,-372.505,-785.049,7.01779e-09,-7.01809e-09,-1.47908e-08,868.922,-868.952,-2.89019e-05,1.63711e-08,-1.63714e-08,-5.44528e-16
0.689975,-0.43,0.0637034,0.01,-47.1192,92.45,374.833,-374.86,-763.915,7.06219e-09,-7.06247e-09,-1.43926e-08,850.913,-850.941,8.93293e-06,1.60318e-08,-1.60321e-08,1.68302e-16
0.699975,-0.43,0.0716796,0.01,-41.2668,92.45,376.717,-376.742,-743.393,7.09768e-09,-7.09793e-09,-1.40059e-08,833.389,-833.414,5.4866e-07,1.57016e-08,-1.57019e-08,1.03371e-17
0.709975,-0.43,0.0801112,0.01,-35.4521,92.45,378.163,-378.186,-723.467,7.12491e-09,-7.12514e-09,-1.36305e-08,816.334,-816.358,7.32145e-07,1.53803e-08,-1.53805e-08,1.3794e-17
0.719975,-0.43,0.0888687,0.01,-29.6751,92.45,379.202,-379.224,-704.126,7.14449e-09,-7.14471e-09,-1.32661e-08,799.736,-799.758,1.19159e-06,1.50676e-08,-1.50678e-08,2.24502e-17
0.729975,-0.43,0.0978411,0.01,-23.9361,92.45,379.866,-379.886,-685.354,7.15699e-09,-7.15719e-09,-1.29125e-08,783.582,-783.602,1.56268e-06,1.47632e-08,-1.47634e-08,2.94418e-17
0.739975,-0.43,0.106066,0.01,-18.2351,92.45,380.183,-380.201,-667.137,7.16295e-09,-7.16313e-09,-1.25693e-08,767.857,-767.875,1.89189e-06,1.44669e-08,-1.44671e-08,3.56443e-17
0.749975,-0.43,0.114574,0.01,-12.5721,92.45,380.179,-380.196,-649.462,7.16286e-09,-7.16303e-09,-1.22362e-08,752.549,-752.566,2.18383e-06,1.41785e-08,-1.41787e-08,4.11446e-17
0.759975,-0.43,0.123306,0.01,-6.94712,92.45,379.879,-379.894,-632.313,7.1572e-09,-7.15736e-09,-1.19132e-08,737.647,-737.662,2.44143e-06,1.38978e-08,-1.38979e-08,4.59979e-17
0.769975,-0.43,0.132217,0.01,-1.36012,92.45,379.306,-379.32,-615.677,7.1464e-09,-7.14655e-09,-1.15997e-08,723.137,-723.151,2.66666e-06,1.36244e-08,-1.36245e-08,5.02413e-17
0.779975,-0.43,0.141021,0.01,4.18896,92.45,378.482,-378.495,-599.54,7.13087e-09,-7.13101e-09,-1.12957e-08,709.008,-709.021,2.861e-06,1.33582e-08,-1.33583e-08,5.3903e-17
0.789975,-0.43,0.149568,0.01,9.70018,92.45,377.427,-377.439,-583.886,7.11099e-09,-7.11112e-09,-1.10008e-08,695.248,-695.261,3.02714e-06,1.30989e-08,-1.30991e-08,5.70331e-17
0.799975,-0.43,0.158286,0.01,15.1737,92.45,376.16,-376.171,-568.703,7.08713e-09,-7.08724e-09,-1.07147e-08,681.848,-681.859,3.16709e-06,1.28465e-08,-1.28466e-08,5.96699e-17
0.809975,-0.43,0.167147,0.01,20.6095,92.45,374.699,-374.71,-553.976,7.0596e-09,-7.0597e-09,-1.04372e-08,668.795,-668.805,3.28299e-06,1.26005e-08,-1.26006e-08,6.18533e-17
0.819975,-0.43,0.176129,0.01,26.0079,92.45,373.061,-373.07,-539.692,7.02872e-09,-7.02882e-09,-1.01681e-08,656.079,-656.088,3.37689e-06,1.23609e-08,-1.2361e-08,6.36226e-17
0.829975,-0.43,0.185094,0.01,31.369,92.45,371.26,-371.269,-525.838,6.99479e-09,-6.99488e-09,-9.90709e-09,643.69,-643.699,3.44994e-06,1.21275e-08,-1.21276e-08,6.49989e-17
0.839975,-0.43,0.193803,0.01,36.693,92.45,369.311,-369.319,-512.4,6.95807e-09,-6.95815e-09,-9.65391e-09,631.619,-631.626,3.50454e-06,1.19001e-08,-1.19002e-08,6.60275e-17
0.849975,-0.43,0.20263,0.01,41.9801,92.45,367.227,-367.234,-499.366,6.91881e-09,-6.91888e-09,-9.40834e-09,619.855,-619.862,3.54325e-06,1.16785e-08,-1.16785e-08,6.67568e-17
0.859975,-0.43,0.211562,0.01,47.2304,92.45,365.022,-365.028,-486.723,6.87724e-09,-6.87731e-09,-9.17014e-09,608.39,-608.396,3.56658e-06,1.14624e-08,-1.14625e-08,6.71965e-17
0.869975,-0.43,0.220586,0.01,52.4442,92.45,362.578,-362.947,-474.763,6.83279e-09,-6.83653e-09,-8.94481e-09,597.307,-597.677,-0.140819,1.12552e-08,-1.1259e-08,-2.65311e-12
0.879975,-0.43,0.22969,0.01,57.6217,92.45,360.818,-364.27,-464.494,6.81302e-09,-6.84805e-09,-8.75134e-09,587.504,-590.957,0.590553,1.10839e-08,-1.1119e-08,1.11264e-11
0.889975,-0.43,0.238658,0.01,62.7633,92.45,359.095,-368.3,-457.255,6.80558e-09,-6.89897e-09,-8.61495e-09,579.655,-588.861,0.758794,1.09611e-08,-1.10545e-08,1.42961e-11
-0.900025,-0.42,0.243277,0.01,65.4815,88.2,367.684,-375.93,443.071,6.96323e-09,-7.04689e-09,8.34771e-09,574.282,-582.528,-0.349129,1.08557e-08,-1.09393e-08,-6.57779e-12
-0.890025,-0.42,0.234217,0.01,60.3315,88.2,368.878,-374.66,452.831,6.97501e-09,-7.03367e-09,8.53161e-09,582.999,-588.781,0.915012,1.10092e-08,-1.10678e-08,1.72394e-11
-0.880025,-0.42,0.225237,0.01,55.1446,88.2,372.07,-374.131,461.465,7.01898e-09,-7.03988e-09,8.69426e-09,592.395,-594.455,0.181311,1.117e-08,-1.11909e-08,3.41601e-12
-0.870025,-0.42,0.216347,0.01,49.9206,88.2,374.821,-374.834,471.85,7.06189e-09,-7.06203e-09,8.88993e-09,602.602,-602.616,-0.00245759,1.13534e-08,-1.13536e-08,-4.63025e-14
-0.860025,-0.42,0.207402,0.01,44.659,88.2,377.513,-377.519,484.206,7.11259e-09,-7.11265e-09,9.12272e-09,613.979,-613.985,-4.11429e-06,1.15677e-08,-1.15678e-08,-7.75155e-17
-0.850025,-0.42,0.19828,0.01,39.3597,88.2,380.11,-380.117,496.957,7.16153e-09,-7.16159e-09,9.36295e-09,625.658,-625.665,-4.11829e-06,1.17878e-08,-1.17879e-08,-7.7591e-17
-0.840025,-0.42,0.189247,0.01,34.0224,88.2,382.598,-382.605,510.111,7.2084e-09,-7.20848e-09,9.61078e-09,637.646,-637.653,-4.10743e-06,1.20137e-08,-1.20137e-08,-7.73863e-17
-0.830025,-0.42,0.180316,0.01,28.6468,88.2,384.965,-384.972,523.681,7.25299e-09,-7.25307e-09,9.86645e-09,649.952,-649.96,-4.07976e-06,1.22455e-08,-1.22456e-08,-7.68651e-17
-0.820025,-0.42,0.171503,0.01,23.2327,88.2,387.196,-387.205,537.681,7.29504e-09,-7.29513e-09,1.01302e-08,662.586,-662.594,-4.03394e-06,1.24835e-08,-1.24836e-08,-7.60018e-17
-0.810025,-0.42,0.162828,0.01,17.7799,88.2,389.28,-389.289,552.126,7.33429e-09,-7.33439e-09,1.04024e-08,675.558,-675.568,-3.96824e-06,1.2728e-08,-1.2728e-08,-7.47639e-17
-0.800025,-0.42,0.15382,0.01,12.2882,88.2,391.199,-391.209,567.03,7.37046e-09,-7.37057e-09,1.06832e-08,688.88,-688.891,-3.87977e-06,1.2979e-08,-1.29791e-08,-7.30971e-17
-0.790025,-0.42,0.14483,0.01,6.75732,88.2,392.939,-392.95,582.406,7.40324e-09,-7.40336e-09,1.09729e-08,702.563,-702.574,-3.76681e-06,1.32367e-08,-1.32369e-08,-7.09688e-17
-0.780025,-0.42,0.135982,0.01,1.18719,88.2,394.481,-394.494,598.271,7.43231e-09,-7.43243e-09,1.12718e-08,716.617,-716.629,-3.62713e-06,1.35015e-08,-1.35017e-08,-6.83372e-17
-0.770025,-0.42,0.127305,0.01,-4.4224,88.2,395.808,-395.821,614.64,7.4573e-09,-7.45744e-09,1.15802e-08,731.055,-731.068,-3.4576e-06,1.37736e-08,-1.37737e-08,-6.51432e-17
-0.760025,-0.42,0.118836,0.01,-10.0716,88.2,396.898,-396.913,631.527,7.47785e-09,-7.478e-09,1.18983e-08,745.888,-745.903,-3.25585e-06,1.4053e-08,-1.40532e-08,-6.1342e-17
-0.750025,-0.42,0.109903,0.01,-15.7604,88.2,397.731,-397.747,648.95,7.49355e-09,-7.49371e-09,1.22266e-08,761.13,-761.146,-3.01936e-06,1.43402e-08,-1.43404e-08,-5.68865e-17
-0.740025,-0.42,0.100997,0.01,-21.489,88.2,398.283,-398.3,666.923,7.50395e-09,-7.50413e-09,1.25652e-08,776.794,-776.811,-2.74556e-06,1.46353e-08,-1.46355e-08,-5.17279e-17
-0.730025,-0.42,0.0923166,0.01,-27.2575,88.2,398.529,-398.548,685.463,7.50861e-09,-7.5088e-09,1.29145e-08,792.892,-792.911,-2.432e-06,1.49386e-08,-1.49388e-08,-4.58203e-17
-0.720025,-0.42,0.0839299,0.01,-33.0658,88.2,398.444,-398.465,704.585,7.507e-09,-7.50721e-09,1.32748e-08,809.438,-809.458,-2.09335e-06,1.52504e-08,-1.52506e-08,-3.94399e-17
-0.710025,-0.42,0.0755666,0.01,-38.9139,88.2,397.998,-398.02,724.307,7.49861e-09,-7.49884e-09,1.36464e-08,826.446,-826.469,-1.80915e-06,1.55708e-08,-1.55711e-08,-3.40854e-17
-0.700025,-0.42,0.0665544,0.01,-44.8019,88.2,397.161,-397.186,744.644,7.48285e-09,-7.4831e-09,1.40295e-08,843.932,-843.956,1.27228e-06,1.59003e-08,-1.59005e-08,2.39706e-17
-0.690025,-0.42,0.0578675,0.01,-50.7295,88.2,395.901,-395.927,765.612,7.45912e-09,-7.45938e-09,1.44246e-08,861.909,-861.935,2.91252e-05,1.6239e-08,-1.62392e-08,5.48737e-16
-0.680025,-0.42,0.0496771,0.01,-56.6968,88.2,394.183,-394.211,787.226,7.42675e-09,-7.42704e-09,1.48318e-08,880.392,-880.42,-0.000415726,1.65872e-08,-1.65875e-08,-7.83253e-15
-0.670025,-0.42,0.041963,0.01,-62.7034,88.2,391.975,-392.005,809.503,7.38517e-09,-7.38547e-09,1.52515e-08,899.402,-899.432,-0.00580294,1.69454e-08,-1.69457e-08,-1.09331e-13
-0.660025,-0.42,0.0326843,0.01,-68.7493,88.2,389.67,-388.703,831.481,7.33741e-09,-7.32759e-09,1.56656e-08,918.54,-917.572,-0.369146,1.73016e-08,-1.72918e-08,-6.95493e-12
-0.650025,-0.42,0.0239922,0.01,-74.8341,88.2,387.509,-382.476,851.561,7.27901e-09,-7.22795e-09,1.60439e-08,937.061,-932.028,-1.03055,1.76329e-08,-1.75818e-08,-1.94162e-11
-0.640025,-0.42,0.0168224,0.01,-80.9575,88.2,383.267,-377.396,870.724,7.19544e-09,-7.13589e-09,1.64049e-08,953.096,-947.226,-2.37814,1.79314e-08,-1.78718e-08,-4.48056e-11
-0.630025,-0.42,0.0110415,0.01,-87.1199,88.2,372.626,-376.095,894.374,7.03557e-09,-7.07077e-09,1.68505e-08,967.826,-971.296,-1.53827,1.82495e-08,-1.82847e-08,-2.89819e-11
0.629975,-0.42,0.0109935,0.01,-87.1506,88.2,372.614,-376.144,-894.543,7.03562e-09,-7.07142e-09,-1.68537e-08,967.959,-971.489,1.56111,1.82523e-08,-1.82881e-08,2.94123e-11
0.639975,-0.42,0.016794,0.01,-80.988,88.2,383.268,-377.389,-870.845,7.19543e-09,-7.13578e-09,-1.64072e-08,953.21,-947.331,2.3948,1.79335e-08,-1.78738e-08,4.51195e-11
0.649975,-0.42,0.0239516,0.01,-74.8644,88.2,387.497,-382.46,-851.674,7.27877e-09,-7.22767e-09,-1.6046e-08,937.16,-932.123,1.0368,1.76347e-08,-1.75836e-08,1.95339e-11
0.659975,-0.42,0.0326392,0.01,-68.7795,88.2,389.655,-388.685,-831.595,7.33711e-09,-7.32727e-09,-1.56677e-08,918.637,-917.667,0.368943,1.73034e-08,-1.72936e-08,6.95109e-12
0.669975,-0.42,0.0419161,0.01,-62.7334,88.2,391.963,-391.993,-809.616,7.38494e-09,-7.38524e-09,-1.52536e-08,899.498,-899.528,0.00583312,1.69472e-08,-1.69475e-08,1.09899e-13
0.679975,-0.42,0.049638,0.01,-56.7266,88.2,394.173,-394.201,-787.335,7.42657e-09,-7.42685e-09,-1.48338e-08,880.486,-880.513,0.000424462,1.6589e-08,-1.65893e-08,7.99712e-15
0.689975,-0.42,0.0578254,0.01,-50.7591,88.2,395.894,-395.92,-765.718,7.45898e-09,-7.45925e-09,-1.44266e-08,861.999,-862.026,-2.92752e-05,1.62407e-08,-1.62409e-08,-5.51561e-16
0.699975,-0.42,0.0665102,0.01,-44.8313,88.2,397.156,-397.18,-744.747,7.48276e-09,-7.483e-09,-1.40315e-08,844.02,-844.044,-1.32229e-06,1.59019e-08,-1.59022e-08,-2.49127e-17
0.709975,-0.42,0.0755212,0.01,-38.9431,88.2,397.995,-398.017,-724.407,7.49855e-09,-7.49878e-09,-1.36482e-08,826.532,-826.555,1.80679e-06,1.55724e-08,-1.55727e-08,3.4041e-17
0.719975,-0.42,0.0838891,0.01,-33.0948,88.2,398.443,-398.463,-704.682,7.50698e-09,-7.50719e-09,-1.32766e-08,809.521,-809.542,2.09133e-06,1.52519e-08,-1.52521e-08,3.94019e-17
0.729975,-0.42,0.0922741,0.01,-27.2863,88.2,398.53,-398.549,-685.556,7.50861e-09,-7.50881e-09,-1.29163e-08,792.973,-792.992,2.43046e-06,1.49401e-08,-1.49403e-08,4.57912e-17
0.739975,-0.42,0.100954,0.01,-21.5176,88.2,398.285,-398.302,-667.014,7.50399e-09,-7.50417e-09,-1.25669e-08,776.873,-776.89,2.74464e-06,1.46368e-08,-1.4637e-08,5.17105e-17
0.749975,-0.42,0.109858,0.01,-15.7888,88.2,397.734,-397.75,-649.038,7.49361e-09,-7.49377e-09,-1.22282e-08,761.207,-761.223,3.01853e-06,1.43417e-08,-1.43418e-08,5.68708e-17
0.759975,-0.42,0.118794,0.01,-10.0998,88.2,396.903,-396.917,-631.613,7.47794e-09,-7.47809e-09,-1.18999e-08,745.963,-745.978,3.25533e-06,1.40544e-08,-1.40546e-08,6.13323e-17
0.769975,-0.42,0.127262,0.01,-4.4504,88.2,395.814,-395.827,-614.722,7.45742e-09,-7.45755e-09,-1.15817e-08,731.127,-731.141,3.45712e-06,1.37749e-08,-1.37751e-08,6.51341e-17
0.779975,-0.42,0.135939,0.01,1.15939,88.2,394.488,-394.501,-598.351,7.43244e-09,-7.43257e-09,-1.12733e-08,716.688,-716.7,3.62659e-06,1.35029e-08,-1.3503e-08,6.8327e-17
0.789975,-0.42,0.144786,0.01,6.72972,88.2,392.947,-392.958,-582.484,7.4034e-09,-7.40351e-09,-1.09743e-08,702.632,-702.643,3.7667e-06,1.3238e-08,-1.32382e-08,7.09669e-17
0.799975,-0.42,0.153775,0.01,12.2608,88.2,391.208,-391.219,-567.105,7.37063e-09,-7.37074e-09,-1.06846e-08,688.948,-688.958,3.87956e-06,1.29802e-08,-1.29803e-08,7.30931e-17
0.809975,-0.42,0.162785,0.01,17.7527,88.2,389.29,-389.299,-552.199,7.33448e-09,-7.33458e-09,-1.04038e-08,675.624,-675.633,3.96781e-06,1.27292e-08,-1.27293e-08,7.47559e-17
0.819975,-0.42,0.17146,0.01,23.2057,88.2,387.207,-387.216,-537.752,7.29524e-09,-7.29533e-09,-1.01316e-08,662.65,-662.658,4.03407e-06,1.24847e-08,-1.24848e-08,7.60042e-17
0.829975,-0.42,0.180272,0.01,28.6199,88.2,384.976,-384.984,-523.749,7.25321e-09,-7.25329e-09,-9.86774e-09,650.014,-650.022,4.07962e-06,1.22467e-08,-1.22468e-08,7.68624e-17
0.839975,-0.42,0.189202,0.01,33.9957,88.2,382.61,-382.617,-510.177,7.20863e-09,-7.2087e-09,-9.61203e-09,637.706,-637.713,4.10675e-06,1.20148e-08,-1.20149e-08,7.73735e-17
0.849975,-0.42,0.198235,0.01,39.3332,88.2,380.123,-380.129,-497.021,7.16177e-09,-7.16183e-09,-9.36417e-09,625.717,-625.723,4.11805e-06,1.17889e-08,-1.1789e-08,7.75864e-17
0.859975,-0.42,0.207356,0.01,44.6327,88.2,377.526,-377.532,-484.268,7.11284e-09,-7.1129e-09,-9.12389e-09,614.036,-614.042,4.11454e-06,1.15688e-08,-1.15689e-08,7.75203e-17
0.869975,-0.42,0.216303,0.01,49.8945,88.2,374.834,-374.848,-471.91,7.06215e-09,-7.06229e-09,-8.89107e-09,602.658,-602.672,0.00245824,1.13545e-08,-1.13546e-08,4.63146e-14
0.879975,-0.42,0.225193,0.01,55.1188,88.2,372.084,-374.145,-461.524,7.01924e-09,-7.04015e-09,-8.69537e-09,592.449,-594.51,-0.181281,1.11711e-08,-1.1192e-08,-3.41544e-12
0.889975,-0.42,0.234172,0.01,60.3058,88.2,368.892,-374.675,-452.889,6.97528e-09,-7.03395e-09,-8.53269e-09,583.053,-588.835,-0.915233,1.10102e-08,-1.10689e-08,-1.72435e-11
0.899975,-0.42,0.243231,0.01,65.456,88.2,367.698,-375.946,-443.127,6.96351e-09,-7.04718e-09,-8.34878e-09,574.334,-582.582,0.348742,1.08566e-08,-1.09403e-08,6.5705e-12
-0.900025,-0.41,0.239296,0.01,63.1053,84.05,379.072,-388.203,439.774,7.18164e-09,-7.27426e-09,8.2856e-09,579.026,-588.156,-0.839762,1.09489e-08,-1.10415e-08,-1.58216e-11
-0.890025,-0.41,0.230079,0.01,57.9112,84.05,381.348,-384.757,446.985,7.19964e-09,-7.23422e-09,8.42146e-09,586.959,-590.368,-0.64669,1.10735e-08,-1.1108e-08,-1.2184e-11
-0.880025,-0.41,0.220931,0.01,52.6791,84.05,383.767,-384.116,457.127,7.2319e-09,-7.23545e-09,8.61254e-09,596.798,-597.147,0.123292,1.12455e-08,-1.12491e-08,2.32289e-12
-0.870025,-0.41,0.21186,0.01,47.4086,84.05,387.03,-387.034,468.913,7.29188e-09,-7.29193e-09,8.8346e-09,608.006,-608.01,-4.65239e-06,1.14552e-08,-1.14552e-08,-8.76537e-17
-0.860025,-0.41,0.202876,0.01,42.0994,84.05,390.114,-390.119,481.361,7.35e-09,-7.35005e-09,9.06911e-09,619.593,-619.598,-4.69884e-06,1.16735e-08,-1.16736e-08,-8.85288e-17
-0.850025,-0.41,0.193992,0.01,36.7511,84.05,393.113,-393.119,494.208,7.40651e-09,-7.40657e-09,9.31117e-09,631.489,-631.495,-4.73339e-06,1.18976e-08,-1.18977e-08,-8.91798e-17
-0.840025,-0.41,0.185074,0.01,31.3636,84.05,396.017,-396.023,507.471,7.46122e-09,-7.46128e-09,9.56104e-09,643.704,-643.71,-4.75384e-06,1.21278e-08,-1.21278e-08,-8.95651e-17
-0.830025,-0.41,0.175931,0.01,25.9364,84.05,398.813,-398.82,521.162,7.5139e-09,-7.51397e-09,9.81899e-09,656.247,-656.254,-4.75838e-06,1.23641e-08,-1.23642e-08,-8.96506e-17
-0.820025,-0.41,0.166887,0.01,20.4694,84.05,401.489,-401.497,535.297,7.56432e-09,-7.5644e-09,1.00853e-08,669.129,-669.137,-4.7454e-06,1.26068e-08,-1.26069e-08,-8.94061e-17
-0.810025,-0.41,0.157958,0.01,14.9622,84.05,404.031,-404.039,549.89,7.61221e-09,-7.6123e-09,1.03602e-08,682.362,-682.37,-4.71315e-06,1.28561e-08,-1.28562e-08,-8.87986e-17
-0.800025,-0.41,0.149165,0.01,9.41466,84.05,406.424,-406.434,564.957,7.65731e-09,-7.65741e-09,1.06441e-08,695.956,-695.965,-4.65842e-06,1.31123e-08,-1.31124e-08,-8.77674e-17
-0.790025,-0.41,0.140534,0.01,3.82644,84.05,408.653,-408.664,580.515,7.69931e-09,-7.69942e-09,1.09372e-08,709.924,-709.934,-4.57893e-06,1.33754e-08,-1.33755e-08,-8.62696e-17
-0.780025,-0.41,0.131467,0.01,-1.80264,84.05,410.701,-410.713,596.578,7.7379e-09,-7.73801e-09,1.12399e-08,724.277,-724.288,-4.47228e-06,1.36458e-08,-1.3646e-08,-8.42604e-17
-0.770025,-0.41,0.12247,0.01,-7.47279,84.05,412.549,-412.561,613.164,7.77271e-09,-7.77284e-09,1.15524e-08,739.028,-739.041,-4.33522e-06,1.39238e-08,-1.39239e-08,-8.16781e-17
-0.760025,-0.41,0.113641,0.01,-13.1842,84.05,414.177,-414.191,630.29,7.80339e-09,-7.80353e-09,1.1875e-08,754.191,-754.204,-4.16496e-06,1.42094e-08,-1.42096e-08,-7.84703e-17
-0.750025,-0.41,0.105022,0.01,-18.937,84.05,415.564,-415.579,647.973,7.82953e-09,-7.82968e-09,1.22082e-08,769.777,-769.792,-3.95842e-06,1.45031e-08,-1.45033e-08,-7.4579e-17
-0.740025,-0.41,0.0966545,0.01,-24.7314,84.05,416.687,-416.703,666.231,7.85069e-09,-7.85086e-09,1.25522e-08,785.802,-785.819,-3.71267e-06,1.4805e-08,-1.48052e-08,-6.99489e-17
-0.730025,-0.41,0.0875441,0.01,-30.5674,84.05,417.522,-417.54,685.081,7.86643e-09,-7.86661e-09,1.29073e-08,802.28,-802.298,-3.4219e-06,1.51155e-08,-1.51157e-08,-6.44706e-17
-0.720025,-0.41,0.0786502,0.01,-36.4452,84.05,418.041,-418.061,704.541,7.87622e-09,-7.87642e-09,1.3274e-08,819.224,-819.244,-3.01221e-06,1.54347e-08,-1.54349e-08,-5.67518e-17
-0.710025,-0.41,0.0700553,0.01,-42.3648,84.05,418.218,-418.239,724.629,7.87956e-09,-7.87977e-09,1.36524e-08,836.651,-836.672,-2.6978e-06,1.57631e-08,-1.57633e-08,-5.0828e-17
-0.700025,-0.41,0.0618839,0.01,-48.3262,84.05,418.02,-418.044,745.365,7.87585e-09,-7.87608e-09,1.40431e-08,854.575,-854.599,-1.64303e-05,1.61008e-08,-1.6101e-08,-3.09556e-16
-0.690025,-0.41,0.0532381,0.01,-54.3295,84.05,417.416,-417.442,766.765,7.86448e-09,-7.86474e-09,1.44463e-08,873.014,-873.039,-4.63703e-05,1.64482e-08,-1.64485e-08,-8.73643e-16
-0.680025,-0.41,0.044198,0.01,-60.3744,84.05,416.367,-416.398,788.85,7.84474e-09,-7.84505e-09,1.48624e-08,891.982,-892.012,0.00272432,1.68056e-08,-1.68059e-08,5.13277e-14
-0.670025,-0.41,0.035674,0.01,-66.461,84.05,414.828,-414.819,811.599,7.81556e-09,-7.81547e-09,1.5291e-08,911.472,-911.462,0.0189721,1.71726e-08,-1.71725e-08,3.57446e-13
-0.660025,-0.41,0.0281389,0.01,-72.5891,84.05,412.972,-408.303,831.447,7.76033e-09,-7.71296e-09,1.56649e-08,929.657,-924.988,0.321136,1.7495e-08,-1.74476e-08,6.05039e-12
-0.650025,-0.41,0.0199946,0.01,-78.7584,84.05,413.752,-396.398,846.73,7.71987e-09,-7.54381e-09,1.59529e-08,947.312,-929.958,-0.808902,1.77725e-08,-1.75964e-08,-1.52402e-11
-0.640025,-0.41,0.0103514,0.01,-84.9684,84.05,412.948,-389.9,863.159,7.67997e-09,-7.44615e-09,1.62624e-08,963.455,-940.406,-3.79936,1.80518e-08,-1.7818e-08,-7.15822e-11
0.639975,-0.41,0.0103051,0.01,-84.9994,84.05,412.952,-389.894,-863.238,7.68e-09,-7.44608e-09,-1.62639e-08,963.53,-940.472,3.8326,1.80532e-08,-1.78193e-08,7.22084e-11
0.649975,-0.41,0.0199458,0.01,-78.7892,84.05,413.753,-396.369,-846.832,7.71976e-09,-7.5434e-09,-1.59548e-08,947.414,-930.03,0.816676,1.77742e-08,-1.75979e-08,1.53866e-11
0.659975,-0.41,0.0281053,0.01,-72.6197,84.05,412.964,-408.283,-831.559,7.76012e-09,-7.71264e-09,-1.56671e-08,929.757,-925.077,-0.32116,1.74968e-08,-1.74493e-08,-6.05083e-12
0.669975,-0.41,0.0356335,0.01,-66.4914,84.05,414.819,-414.809,-811.714,7.8154e-09,-7.81529e-09,-1.52932e-08,911.57,-911.56,-0.0188267,1.71745e-08,-1.71744e-08,-3.54705e-13
0.679975,-0.41,0.0441541,0.01,-60.4046,84.05,416.361,-416.392,-788.961,7.84462e-09,-7.84493e-09,-1.48645e-08,892.077,-892.108,-0.00276655,1.68074e-08,-1.68077e-08,-5.21235e-14
0.689975,-0.41,0.0531923,0.01,-54.3594,84.05,417.412,-417.438,-766.873,7.8644e-09,-7.86466e-09,-1.44483e-08,873.107,-873.132,4.54877e-05,1.64499e-08,-1.64502e-08,8.57014e-16
0.699975,-0.41,0.0618446,0.01,-48.356,84.05,418.018,-418.042,-745.469,7.87581e-09,-7.87605e-09,-1.40451e-08,854.666,-854.689,1.66279e-05,1.61025e-08,-1.61027e-08,3.13279e-16
0.709975,-0.41,0.0700135,0.01,-42.3944,84.05,418.218,-418.239,-724.731,7.87956e-09,-7.87977e-09,-1.36544e-08,836.739,-836.76,2.70309e-06,1.57647e-08,-1.5765e-08,5.09278e-17
0.719975,-0.41,0.0786067,0.01,-36.4746,84.05,418.043,-418.063,-704.639,7.87626e-09,-7.87646e-09,-1.32758e-08,819.31,-819.329,3.00945e-06,1.54364e-08,-1.54366e-08,5.66998e-17
0.729975,-0.41,0.0874993,0.01,-30.5966,84.05,417.525,-417.543,-685.176,7.86649e-09,-7.86667e-09,-1.29091e-08,802.363,-802.381,3.41997e-06,1.51171e-08,-1.51172e-08,6.44343e-17
0.739975,-0.41,0.0966088,0.01,-24.7603,84.05,416.692,-416.708,-666.323,7.85079e-09,-7.85095e-09,-1.25539e-08,785.883,-785.9,3.71113e-06,1.48066e-08,-1.48067e-08,6.99199e-17
0.749975,-0.41,0.10498,0.01,-18.9657,84.05,415.57,-415.585,-648.063,7.82964e-09,-7.8298e-09,-1.22099e-08,769.856,-769.871,3.95715e-06,1.45046e-08,-1.45048e-08,7.4555e-17
0.759975,-0.41,0.113598,0.01,-13.2127,84.05,414.184,-414.198,-630.377,7.80353e-09,-7.80367e-09,-1.18767e-08,754.267,-754.281,4.16409e-06,1.42109e-08,-1.4211e-08,7.84538e-17
0.769975,-0.41,0.122426,0.01,-7.50109,84.05,412.557,-412.57,-613.248,7.77287e-09,-7.773e-09,-1.15539e-08,739.103,-739.115,4.33441e-06,1.39252e-08,-1.39253e-08,8.16628e-17
0.779975,-0.41,0.131422,0.01,-1.83073,84.05,410.711,-410.722,-596.659,7.73808e-09,-7.73819e-09,-1.12414e-08,724.349,-724.361,4.47183e-06,1.36472e-08,-1.36473e-08,8.42519e-17
0.789975,-0.41,0.140492,0.01,3.79855,84.05,408.664,-408.675,-580.593,7.69951e-09,-7.69962e-09,-1.09387e-08,709.994,-710.005,4.5791e-06,1.33767e-08,-1.33769e-08,8.62728e-17
0.799975,-0.41,0.149122,0.01,9.38697,84.05,406.436,-406.445,-565.033,7.65753e-09,-7.65763e-09,-1.06456e-08,696.025,-696.034,4.65856e-06,1.31135e-08,-1.31136e-08,8.777e-17
0.809975,-0.41,0.157914,0.01,14.9348,84.05,404.043,-404.052,-549.964,7.61245e-09,-7.61253e-09,-1.03616e-08,682.428,-682.437,4.71312e-06,1.28574e-08,-1.28575e-08,8.8798e-17
0.819975,-0.41,0.166843,0.01,20.4421,84.05,401.502,-401.51,-535.368,7.56456e-09,-7.56464e-09,-1.00866e-08,669.194,-669.202,4.7458e-06,1.2608e-08,-1.26081e-08,8.94136e-17
0.829975,-0.41,0.175886,0.01,25.9094,84.05,398.827,-398.834,-521.231,7.51416e-09,-7.51423e-09,-9.8203e-09,656.31,-656.317,4.75872e-06,1.23653e-08,-1.23654e-08,8.96571e-17
0.839975,-0.41,0.185028,0.01,31.3367,84.05,396.031,-396.037,-507.538,7.46148e-09,-7.46155e-09,-9.56231e-09,643.765,-643.771,4.75395e-06,1.21289e-08,-1.2129e-08,8.95672e-17
0.849975,-0.41,0.193948,0.01,36.7244,84.05,393.128,-393.134,-494.273,7.40679e-09,-7.40684e-09,-9.3124e-09,631.549,-631.555,4.73362e-06,1.18988e-08,-1.18988e-08,8.91841e-17
0.859975,-0.41,0.202832,0.01,42.0729,84.05,390.129,-390.134,-481.423,7.35028e-09,-7.35033e-09,-9.0703e-09,619.652,-619.657,4.69932e-06,1.16746e-08,-1.16747e-08,8.85378e-17
0.869975,-0.41,0.211815,0.01,47.3823,84.05,387.045,-387.05,-468.974,7.29218e-09,-7.29222e-09,-8.83575e-09,608.063,-608.067,4.65282e-06,1.14563e-08,-1.14563e-08,8.76617e-17
0.879975,-0.41,0.220886,0.01,52.653,84.05,383.782,-384.132,-457.186,7.2322e-09,-7.23575e-09,-8.61365e-09,596.853,-597.202,-0.123326,1.12466e-08,-1.12501e-08,-2.32354e-12
0.889975,-0.41,0.230034,0.01,57.8853,84.05,381.364,-384.773,-447.043,7.19995e-09,-7.23453e-09,-8.42254e-09,587.013,-590.422,0.646728,1.10745e-08,-1.11091e-08,1.21847e-11
0.899975,-0.41,0.23925,0.01,63.0796,84.05,379.088,-388.22,-439.831,7.18195e-09,-7.27459e-09,-8.28667e-09,579.079,-588.211,0.839804,1.09499e-08,-1.10425e-08,1.58224e-11
-0.910025,-0.4,0.244125,0.01,65.9659,80,387.823,-387.901,427.345,7.30715e-09,-7.30795e-09,8.05142e-09,577.066,-577.144,3.19489,1.08726e-08,-1.08734e-08,6.01936e-11
-0.900025,-0.4,0.235023,0.01,60.7669,80,388.586,-393.264,435.3,7.34153e-09,-7.38899e-09,8.20131e-09,582.731,-587.409,1.53671,1.09993e-08,-1.10468e-08,2.89525e-11
-0.890025,-0.4,0.225998,0.01,55.529,80,392.233,-394.256,443.29,7.3987e-09,-7.41921e-09,8.35183e-09,591.565,-593.588,0.23637,1.11542e-08,-1.11747e-08,4.45335e-12
-0.880025,-0.4,0.217001,0.01,50.252,80,395.775,-395.787,453.476,7.45668e-09,-7.4568e-09,8.54376e-09,601.894,-601.906,-0.00212376,1.13401e-08,-1.13402e-08,-4.00129e-14
-0.870025,-0.4,0.207759,0.01,44.9353,80,399.317,-399.32,465.595,7.52337e-09,-7.52341e-09,8.77207e-09,613.377,-613.381,-5.2386e-06,1.15564e-08,-1.15564e-08,-9.86982e-17
-0.860025,-0.4,0.198589,0.01,39.5787,80,402.8,-402.804,478.115,7.589e-09,-7.58904e-09,9.00796e-09,625.172,-625.176,-5.3184e-06,1.17786e-08,-1.17787e-08,-1.00202e-16
-0.850025,-0.4,0.189504,0.01,34.1819,80,406.212,-406.217,491.046,7.65329e-09,-7.65334e-09,9.25158e-09,637.286,-637.29,-5.3877e-06,1.20069e-08,-1.20069e-08,-1.01507e-16
-0.840025,-0.4,0.180516,0.01,28.7444,80,409.543,-409.548,504.402,7.71605e-09,-7.71611e-09,9.50323e-09,649.727,-649.733,-5.44457e-06,1.22413e-08,-1.22413e-08,-1.02579e-16
-0.830025,-0.4,0.171639,0.01,23.266,80,412.781,-412.788,518.2,7.77707e-09,-7.77713e-09,9.76318e-09,662.509,-662.515,-5.48677e-06,1.24821e-08,-1.24821e-08,-1.03374e-16
-0.820025,-0.4,0.162756,0.01,17.7463,80,415.915,-415.922,532.453,7.83611e-09,-7.83618e-09,1.00317e-08,675.641,-675.647,-5.51219e-06,1.27295e-08,-1.27296e-08,-1.03853e-16
-0.810025,-0.4,0.153587,0.01,12.185,80,418.931,-418.938,547.18,7.89293e-09,-7.89301e-09,1.03092e-08,689.135,-689.142,-5.51902e-06,1.29837e-08,-1.29838e-08,-1.03981e-16
-0.800025,-0.4,0.144528,0.01,6.5818,80,421.814,-421.822,562.395,7.94726e-09,-7.94734e-09,1.05958e-08,703.003,-703.011,-5.5041e-06,1.3245e-08,-1.32451e-08,-1.037e-16
-0.790025,-0.4,0.135602,0.01,0.936433,80,424.549,-424.559,578.117,7.9988e-09,-7.99889e-09,1.08921e-08,717.258,-717.267,-5.46481e-06,1.35136e-08,-1.35137e-08,-1.0296e-16
-0.780025,-0.4,0.126836,0.01,-4.75139,80,427.121,-427.131,594.362,8.04725e-09,-8.04735e-09,1.11981e-08,731.912,-731.922,-5.39862e-06,1.37897e-08,-1.37898e-08,-1.01713e-16
-0.770025,-0.4,0.118266,0.01,-10.4819,80,429.509,-429.521,611.149,8.09225e-09,-8.09237e-09,1.15144e-08,746.979,-746.991,-5.30215e-06,1.40736e-08,-1.40737e-08,-9.98956e-17
-0.760025,-0.4,0.109117,0.01,-16.2554,80,431.696,-431.709,628.496,8.13346e-09,-8.13359e-09,1.18412e-08,762.473,-762.486,-5.17216e-06,1.43655e-08,-1.43656e-08,-9.74465e-17
-0.750025,-0.4,0.10011,0.01,-22.0721,80,433.66,-433.674,646.422,8.17047e-09,-8.17062e-09,1.2179e-08,778.408,-778.422,-5.00486e-06,1.46657e-08,-1.46659e-08,-9.42944e-17
-0.740025,-0.4,0.0913091,0.01,-27.9321,80,435.379,-435.395,664.946,8.20286e-09,-8.20302e-09,1.2528e-08,794.798,-794.813,-4.796e-06,1.49745e-08,-1.49747e-08,-9.03594e-17
-0.730025,-0.4,0.0827811,0.01,-33.8356,80,436.828,-436.845,684.088,8.23017e-09,-8.23035e-09,1.28886e-08,811.659,-811.676,-4.56257e-06,1.52922e-08,-1.52924e-08,-8.59614e-17
-0.720025,-0.4,0.074347,0.01,-39.7829,80,437.982,-438,703.868,8.25191e-09,-8.2521e-09,1.32613e-08,829.006,-829.024,-4.47711e-06,1.5619e-08,-1.56192e-08,-8.43514e-17
-0.710025,-0.4,0.0651872,0.01,-45.7739,80,438.811,-438.831,724.305,8.26754e-09,-8.26774e-09,1.36463e-08,846.856,-846.876,-1.70115e-06,1.59553e-08,-1.59555e-08,-3.20507e-17
-0.700025,-0.4,0.0563138,0.01,-51.8088,80,439.285,-439.308,745.421,8.27649e-09,-8.27671e-09,1.40442e-08,865.225,-865.247,5.3996e-05,1.63014e-08,-1.63017e-08,1.01732e-15
-0.690025,-0.4,0.0478866,0.01,-57.8876,80,439.373,-439.396,767.234,8.27815e-09,-8.27838e-09,1.44551e-08,884.13,-884.154,-0.000240956,1.66576e-08,-1.66579e-08,-4.53976e-15
-0.680025,-0.4,0.0401872,0.01,-64.0104,80,439.054,-439.071,789.762,8.27211e-09,-8.27228e-09,1.48796e-08,903.596,-903.613,-0.0129842,1.70243e-08,-1.70245e-08,-2.44631e-13
-0.670025,-0.4,0.0309562,0.01,-70.1771,80,438.718,-437.728,812.105,8.26139e-09,-8.25135e-09,1.53005e-08,923.291,-922.302,-0.413768,1.7391e-08,-1.7381e-08,-7.79562e-12
-0.660025,-0.4,0.0218506,0.01,-76.3876,80,437.432,-429.625,832.037,8.20753e-09,-8.12832e-09,1.56761e-08,942.111,-934.303,0.713614,1.7716e-08,-1.76368e-08,1.34449e-11
-0.650025,-0.4,0.014022,0.01,-82.6417,80,437.062,-412.626,845.892,8.12826e-09,-7.88036e-09,1.59371e-08,958.803,-934.367,1.9683,1.79582e-08,-1.77103e-08,3.70839e-11
0.649975,-0.4,0.01399,0.01,-82.6729,80,437.092,-412.562,-845.987,8.12841e-09,-7.87956e-09,-1.59389e-08,958.926,-934.397,-1.96173,1.79601e-08,-1.77112e-08,-3.69601e-11
0.659975,-0.4,0.0218073,0.01,-76.4185,80,437.43,-429.599,-832.146,8.20739e-09,-8.12795e-09,-1.56781e-08,942.212,-934.381,-0.713416,1.77178e-08,-1.76383e-08,-1.34412e-11
0.669975,-0.4,0.0309095,0.01,-70.2079,80,438.713,-437.718,-812.218,8.26128e-09,-8.25119e-09,-1.53027e-08,923.39,-922.396,0.413956,1.73929e-08,-1.73828e-08,7.79918e-12
0.679975,-0.4,0.0401514,0.01,-64.041,80,439.052,-439.069,-789.876,8.27206e-09,-8.27224e-09,-1.48817e-08,903.694,-903.711,0.0131403,1.70262e-08,-1.70264e-08,2.47571e-13
0.689975,-0.4,0.0478462,0.01,-57.918,80,439.373,-439.396,-767.344,8.27814e-09,-8.27837e-09,-1.44572e-08,884.226,-884.249,0.000250603,1.66594e-08,-1.66597e-08,4.7215e-15
0.699975,-0.4,0.0562706,0.01,-51.8389,80,439.287,-439.309,-745.527,8.27651e-09,-8.27674e-09,-1.40462e-08,865.318,-865.34,-5.45986e-05,1.63032e-08,-1.63034e-08,-1.02867e-15
0.709975,-0.4,0.0651422,0.01,-45.8038,80,438.814,-438.834,-724.409,8.2676e-09,-8.26781e-09,-1.36483e-08,846.946,-846.966,1.64397e-06,1.5957e-08,-1.59572e-08,3.09734e-17
0.719975,-0.4,0.074301,0.01,-39.8125,80,437.987,-438.005,-703.968,8.252e-09,-8.25219e-09,-1.32632e-08,829.093,-829.112,4.47782e-06,1.56207e-08,-1.56209e-08,8.43647e-17
0.729975,-0.4,0.0827395,0.01,-33.8651,80,436.835,-436.852,-684.185,8.2303e-09,-8.23047e-09,-1.28904e-08,811.744,-811.761,4.56164e-06,1.52938e-08,-1.5294e-08,8.59439e-17
0.739975,-0.4,0.0912659,0.01,-27.9613,80,435.387,-435.403,-665.04,8.20301e-09,-8.20317e-09,-1.25297e-08,794.88,-794.896,4.7947e-06,1.49761e-08,-1.49762e-08,9.03349e-17
0.749975,-0.4,0.100065,0.01,-22.1011,80,433.67,-433.684,-646.513,8.17065e-09,-8.17079e-09,-1.21807e-08,778.488,-778.502,5.00378e-06,1.46672e-08,-1.46674e-08,9.42742e-17
0.759975,-0.4,0.109072,0.01,-16.2842,80,431.707,-431.719,-628.584,8.13366e-09,-8.13379e-09,-1.18429e-08,762.551,-762.564,5.17119e-06,1.4367e-08,-1.43671e-08,9.74283e-17
0.769975,-0.4,0.118224,0.01,-10.5105,80,429.521,-429.532,-611.234,8.09247e-09,-8.09259e-09,-1.1516e-08,747.055,-747.067,5.30124e-06,1.4075e-08,-1.40751e-08,9.98785e-17
0.779975,-0.4,0.126793,0.01,-4.77978,80,427.133,-427.143,-594.444,8.04748e-09,-8.04758e-09,-1.11997e-08,731.986,-731.996,5.39826e-06,1.37911e-08,-1.37912e-08,1.01706e-16
0.789975,-0.4,0.135558,0.01,0.908253,80,424.563,-424.572,-578.196,7.99905e-09,-7.99914e-09,-1.08936e-08,717.329,-717.339,5.46483e-06,1.35149e-08,-1.3515e-08,1.02961e-16
0.799975,-0.4,0.144483,0.01,6.55383,80,421.828,-421.836,-562.472,7.94752e-09,-7.94761e-09,-1.05973e-08,703.073,-703.081,5.50403e-06,1.32463e-08,-1.32464e-08,1.03699e-16
0.809975,-0.4,0.153541,0.01,12.1572,80,418.945,-418.953,-547.254,7.89321e-09,-7.89328e-09,-1.03106e-08,689.203,-689.21,5.51886e-06,1.2985e-08,-1.29851e-08,1.03979e-16
0.819975,-0.4,0.16271,0.01,17.7187,80,415.93,-415.937,-532.525,7.8364e-09,-7.83647e-09,-1.00331e-08,675.707,-675.714,5.51208e-06,1.27307e-08,-1.27308e-08,1.03851e-16
0.829975,-0.4,0.171595,0.01,23.2386,80,412.797,-412.803,-518.269,7.77737e-09,-7.77743e-09,-9.76449e-09,662.573,-662.579,5.48664e-06,1.24833e-08,-1.24833e-08,1.03372e-16
0.839975,-0.4,0.180471,0.01,28.7173,80,409.559,-409.565,-504.47,7.71636e-09,-7.71641e-09,-9.5045e-09,649.79,-649.796,5.44468e-06,1.22424e-08,-1.22425e-08,1.02581e-16
0.849975,-0.4,0.189459,0.01,34.1549,80,406.229,-406.234,-491.111,7.65361e-09,-7.65366e-09,-9.25281e-09,637.347,-637.351,5.38831e-06,1.2008e-08,-1.2008e-08,1.01519e-16
0.859975,-0.4,0.198544,0.01,39.552,80,402.817,-402.821,-478.178,7.58932e-09,-7.58936e-09,-9.00915e-09,625.232,-625.236,5.31933e-06,1.17797e-08,-1.17798e-08,1.00219e-16
0.869975,-0.4,0.207713,0.01,44.9088,80,399.334,-399.338,-465.656,7.5237e-09,-7.52374e-09,-8.77323e-09,613.435,-613.438,5.23936e-06,1.15575e-08,-1.15575e-08,9.87125e-17
0.879975,-0.4,0.216955,0.01,50.2256,80,395.793,-395.805,-453.536,7.45702e-09,-7.45714e-09,-8.54488e-09,601.95,-601.962,0.00212438,1.13411e-08,-1.13413e-08,4.00245e-14
0.889975,-0.4,0.225953,0.01,55.5029,80,392.251,-394.274,-443.347,7.39904e-09,-7.41956e-09,-8.35292e-09,591.62,-593.643,-0.236354,1.11553e-08,-1.11758e-08,-4.45305e-12
0.899975,-0.4,0.234978,0.01,60.7409,80,388.604,-393.283,-435.357,7.34187e-09,-7.38934e-09,-8.20238e-09,582.785,-587.463,-1.53702,1.10003e-08,-1.10478e-08,-2.89583e-11
0.909975,-0.4,0.244079,0.01,65.9401,80,387.841,-387.92,-427.4,7.30749e-09,-7.30829e-09,-8.05247e-09,577.119,-577.198,-3.19577,1.08736e-08,-1.08744e-08,-6.02101e-11
-0.910025,-0.39,0.240233,0.01,63.7086,76.05,397.808,-406.517,421.078,7.53279e-09,-7.62115e-09,7.93335e-09,577.917,-586.627,-0.811172,1.09262e-08,-1.10145e-08,-1.52829e-11
-0.900025,-0.39,0.230979,0.01,58.4673,76.05,400.348,-402.467,428.604,7.55201e-09,-7.5735e-09,8.07515e-09,586.163,-588.282,0.209827,1.10529e-08,-1.10744e-08,3.95327e-12
-0.890025,-0.39,0.221789,0.01,53.186,76.05,403.667,-403.989,438.169,7.60671e-09,-7.60998e-09,8.25536e-09,595.716,-596.038,0.108713,1.1225e-08,-1.12283e-08,2.04821e-12
-0.880025,-0.39,0.212672,0.01,47.8644,76.05,407.726,-407.728,449.706,7.68181e-09,-7.68183e-09,8.47273e-09,607.022,-607.024,-5.72985e-06,1.14367e-08,-1.14367e-08,-1.07954e-16
-0.870025,-0.39,0.203638,0.01,42.502,76.05,411.665,-411.667,461.879,7.75601e-09,-7.75604e-09,8.70207e-09,618.708,-618.711,-5.85469e-06,1.16568e-08,-1.16569e-08,-1.10306e-16
-0.860025,-0.39,0.194699,0.01,37.0984,76.05,415.556,-415.559,474.458,7.82933e-09,-7.82937e-09,8.93906e-09,630.711,-630.714,-5.97173e-06,1.1883e-08,-1.1883e-08,-1.12511e-16
-0.850025,-0.39,0.185447,0.01,31.6533,76.05,419.392,-419.396,487.457,7.9016e-09,-7.90164e-09,9.18398e-09,643.042,-643.046,-6.08e-06,1.21153e-08,-1.21153e-08,-1.14551e-16
-0.840025,-0.39,0.176252,0.01,26.1662,76.05,423.162,-423.166,500.893,7.97263e-09,-7.97267e-09,9.43711e-09,655.712,-655.716,-6.17791e-06,1.2354e-08,-1.23541e-08,-1.16395e-16
-0.830025,-0.39,0.167149,0.01,20.6368,76.05,426.855,-426.86,514.781,8.04221e-09,-8.04226e-09,9.69877e-09,668.732,-668.737,-6.26276e-06,1.25993e-08,-1.25994e-08,-1.17994e-16
-0.820025,-0.39,0.158155,0.01,15.0647,76.05,430.459,-430.465,529.138,8.11012e-09,-8.11018e-09,9.96926e-09,682.114,-682.12,-6.33201e-06,1.28515e-08,-1.28515e-08,-1.19299e-16
-0.810025,-0.39,0.149289,0.01,9.44963,76.05,433.962,-433.969,543.98,8.17613e-09,-8.1762e-09,1.02489e-08,695.871,-695.877,-6.38384e-06,1.31106e-08,-1.31107e-08,-1.20275e-16
-0.800025,-0.39,0.14045,0.01,3.79112,76.05,437.351,-437.358,559.327,8.23998e-09,-8.24005e-09,1.0538e-08,710.014,-710.022,-6.4155e-06,1.33771e-08,-1.33772e-08,-1.20872e-16
-0.790025,-0.39,0.131247,0.01,-1.91112,76.05,440.61,-440.618,575.195,8.30138e-09,-8.30146e-09,1.0837e-08,724.558,-724.566,-6.42413e-06,1.36511e-08,-1.36512e-08,-1.21034e-16
-0.780025,-0.39,0.122169,0.01,-7.65742,76.05,443.722,-443.732,591.605,8.36003e-09,-8.36012e-09,1.11462e-08,739.515,-739.525,-6.4068e-06,1.39329e-08,-1.3933e-08,-1.20708e-16
-0.770025,-0.39,0.113247,0.01,-13.4481,76.05,446.672,-446.682,608.574,8.4156e-09,-8.4157e-09,1.14659e-08,754.9,-754.911,-6.35975e-06,1.42228e-08,-1.42229e-08,-1.19821e-16
-0.760025,-0.39,0.104519,0.01,-19.2834,76.05,449.438,-449.45,626.123,8.46773e-09,-8.46785e-09,1.17965e-08,770.728,-770.74,-6.27947e-06,1.4521e-08,-1.45211e-08,-1.18309e-16
-0.750025,-0.39,0.0959912,0.01,-25.1637,76.05,452.002,-452.015,644.273,8.51604e-09,-8.51617e-09,1.21385e-08,787.013,-787.026,-6.16242e-06,1.48278e-08,-1.4828e-08,-1.16104e-16
-0.740025,-0.39,0.0867737,0.01,-31.0892,76.05,454.341,-454.355,663.045,8.56011e-09,-8.56025e-09,1.24921e-08,803.772,-803.786,-6.00136e-06,1.51436e-08,-1.51437e-08,-1.13069e-16
-0.730025,-0.39,0.0777498,0.01,-37.0601,76.05,456.431,-456.447,682.459,8.59949e-09,-8.59965e-09,1.28579e-08,821.019,-821.035,-5.71214e-06,1.54686e-08,-1.54687e-08,-1.0762e-16
-0.720025,-0.39,0.0689957,0.01,-43.0767,76.05,458.246,-458.263,702.537,8.63369e-09,-8.63387e-09,1.32362e-08,838.774,-838.791,-5.14157e-06,1.58031e-08,-1.58032e-08,-9.68703e-17
-0.710025,-0.39,0.0606281,0.01,-49.1391,76.05,459.758,-459.777,723.303,8.66219e-09,-8.66238e-09,1.36274e-08,857.051,-857.07,-2.02929e-05,1.61474e-08,-1.61476e-08,-3.8233e-16
-0.700025,-0.39,0.0520852,0.01,-55.2474,76.05,460.938,-460.958,744.778,8.68442e-09,-8.68463e-09,1.40321e-08,875.87,-875.891,-0.000177324,1.6502e-08,-1.65022e-08,-3.34089e-15
-0.690025,-0.39,0.042834,0.01,-61.4019,76.05,461.748,-461.776,766.989,8.69972e-09,-8.7e-09,1.44505e-08,895.249,-895.277,0.0026147,1.68671e-08,-1.68674e-08,4.92625e-14
-0.680025,-0.39,0.0340093,0.01,-67.6025,76.05,462.1,-462.114,789.939,8.70629e-09,-8.70644e-09,1.48829e-08,915.169,-915.183,0.0559172,1.72424e-08,-1.72425e-08,1.05351e-12
-0.670025,-0.39,0.0260483,0.01,-73.8493,76.05,461.972,-457.592,810.222,8.68478e-09,-8.64035e-09,1.5265e-08,933.779,-929.4,0.348933,1.75739e-08,-1.75295e-08,6.5741e-12
-0.660025,-0.39,0.0190552,0.01,-80.1424,76.05,464.33,-450.441,826.229,8.68786e-09,-8.54695e-09,1.55666e-08,951.323,-937.434,-2.05498,1.78631e-08,-1.77222e-08,-3.8717e-11
-0.650025,-0.39,0.0090701,0.01,-86.4813,76.05,463.353,-444.09,844.563,8.64608e-09,-8.45066e-09,1.59121e-08,968.35,-949.087,-2.86842,1.81605e-08,-1.79651e-08,-5.40427e-11
0.649975,-0.39,0.00902052,0.01,-86.5129,76.05,463.36,-443.99,-844.636,8.64576e-09,-8.44925e-09,-1.59134e-08,968.446,-949.076,2.85832,1.81619e-08,-1.79654e-08,5.38523e-11
0.659975,-0.39,0.0190055,0.01,-80.1738,76.05,464.337,-450.389,-826.332,8.68774e-09,-8.54623e-09,-1.55686e-08,951.433,-937.484,2.04816,1.78649e-08,-1.77234e-08,3.85885e-11
0.669975,-0.39,0.0260123,0.01,-73.8805,76.05,461.97,-457.579,-810.336,8.68469e-09,-8.64014e-09,-1.52672e-08,933.881,-929.489,-0.352158,1.75758e-08,-1.75312e-08,-6.63485e-12
0.679975,-0.39,0.0339671,0.01,-67.6334,76.05,462.1,-462.114,-790.055,8.7063e-09,-8.70644e-09,-1.48851e-08,915.269,-915.283,-0.056299,1.72443e-08,-1.72444e-08,-1.06071e-12
0.689975,-0.39,0.0427888,0.01,-61.4326,76.05,461.751,-461.779,-767.102,8.69978e-09,-8.70006e-09,-1.44526e-08,895.347,-895.375,-0.00267247,1.6869e-08,-1.68693e-08,-5.03508e-14
0.699975,-0.39,0.0520385,0.01,-55.2779,76.05,460.943,-460.963,-744.887,8.68452e-09,-8.68473e-09,-1.40341e-08,875.965,-875.986,0.000178246,1.65038e-08,-1.6504e-08,3.35826e-15
0.709975,-0.39,0.0605877,0.01,-49.1693,76.05,459.765,-459.784,-723.408,8.66232e-09,-8.66251e-09,-1.36294e-08,857.143,-857.163,2.05571e-05,1.61492e-08,-1.61494e-08,3.87308e-16
0.719975,-0.39,0.068953,0.01,-43.1067,76.05,458.254,-458.271,-702.639,8.63385e-09,-8.63402e-09,-1.32381e-08,838.863,-838.881,5.14312e-06,1.58047e-08,-1.58049e-08,9.68994e-17
0.729975,-0.39,0.0777055,0.01,-37.0899,76.05,456.44,-456.456,-682.557,8.59967e-09,-8.59983e-09,-1.28598e-08,821.106,-821.122,5.71013e-06,1.54702e-08,-1.54704e-08,1.07582e-16
0.739975,-0.39,0.0867283,0.01,-31.1188,76.05,454.352,-454.366,-663.139,8.56032e-09,-8.56046e-09,-1.24939e-08,803.856,-803.87,6.00039e-06,1.51452e-08,-1.51453e-08,1.13051e-16
0.749975,-0.39,0.0959449,0.01,-25.1931,76.05,452.014,-452.027,-644.365,8.51627e-09,-8.5164e-09,-1.21402e-08,787.095,-787.108,6.16161e-06,1.48294e-08,-1.48295e-08,1.16088e-16
0.759975,-0.39,0.104476,0.01,-19.3126,76.05,449.452,-449.463,-626.212,8.46798e-09,-8.4681e-09,-1.17982e-08,770.808,-770.819,6.27869e-06,1.45225e-08,-1.45226e-08,1.18294e-16
0.769975,-0.39,0.113203,0.01,-13.477,76.05,446.686,-446.696,-608.66,8.41586e-09,-8.41597e-09,-1.14675e-08,754.978,-754.988,6.35916e-06,1.42243e-08,-1.42244e-08,1.1981e-16
0.779975,-0.39,0.122124,0.01,-7.68611,76.05,443.737,-443.747,-591.688,8.36031e-09,-8.36041e-09,-1.11477e-08,739.591,-739.6,6.40668e-06,1.39344e-08,-1.39345e-08,1.20706e-16
0.789975,-0.39,0.131202,0.01,-1.93959,76.05,440.625,-440.634,-575.276,8.30168e-09,-8.30176e-09,-1.08385e-08,724.631,-724.64,6.42407e-06,1.36525e-08,-1.36526e-08,1.21033e-16
0.799975,-0.39,0.140404,0.01,3.76287,76.05,437.368,-437.375,-559.404,8.24029e-09,-8.24037e-09,-1.05395e-08,710.086,-710.093,6.41541e-06,1.33785e-08,-1.33785e-08,1.2087e-16
0.809975,-0.39,0.149245,0.01,9.4216,76.05,433.98,-433.986,-544.055,8.17646e-09,-8.17652e-09,-1.02503e-08,695.94,-695.947,6.38374e-06,1.31119e-08,-1.3112e-08,1.20273e-16
0.819975,-0.39,0.158111,0.01,15.0369,76.05,430.477,-430.483,-529.21,8.11046e-09,-8.11052e-09,-9.97063e-09,682.182,-682.188,6.33172e-06,1.28527e-08,-1.28528e-08,1.19293e-16
0.829975,-0.39,0.167104,0.01,20.6092,76.05,426.873,-426.878,-514.851,8.04255e-09,-8.0426e-09,-9.70009e-09,668.798,-668.803,6.26225e-06,1.26006e-08,-1.26006e-08,1.17984e-16
0.839975,-0.39,0.176207,0.01,26.1388,76.05,423.18,-423.185,-500.961,7.97298e-09,-7.97302e-09,-9.43839e-09,655.776,-655.78,6.17773e-06,1.23552e-08,-1.23553e-08,1.16392e-16
0.849975,-0.39,0.185401,0.01,31.6261,76.05,419.411,-419.415,-487.523,7.90196e-09,-7.902e-09,-9.18522e-09,643.104,-643.108,6.08063e-06,1.21165e-08,-1.21165e-08,1.14563e-16
0.859975,-0.39,0.194655,0.01,37.0714,76.05,415.575,-415.579,-474.521,7.8297e-09,-7.82973e-09,-8.94026e-09,630.772,-630.775,5.97273e-06,1.18841e-08,-1.18842e-08,1.1253e-16
0.869975,-0.39,0.203594,0.01,42.4752,76.05,411.684,-411.687,-461.941,7.75638e-09,-7.75641e-09,-8.70323e-09,618.767,-618.77,5.85543e-06,1.16579e-08,-1.1658e-08,1.1032e-16
0.879975,-0.39,0.212627,0.01,47.8378,76.05,407.746,-407.748,-449.766,7.68218e-09,-7.6822e-09,-8.47385e-09,607.079,-607.082,5.73058e-06,1.14377e-08,-1.14378e-08,1.07968e-16
0.889975,-0.39,0.221743,0.01,53.1596,76.05,403.686,-404.009,-438.227,7.60709e-09,-7.61035e-09,-8.25645e-09,595.771,-596.094,-0.108747,1.12261e-08,-1.12293e-08,-2.04885e-12
0.899975,-0.39,0.230933,0.01,58.4411,76.05,400.368,-402.487,-428.661,7.55238e-09,-7.57388e-09,-8.07621e-09,586.217,-588.336,-0.21002,1.10539e-08,-1.10754e-08,-3.95689e-12
0.909975,-0.39,0.240187,0.01,63.6826,76.05,397.828,-406.538,-421.133,7.53318e-09,-7.62154e-09,-7.93439e-09,577.97,-586.681,0.811053,1.09272e-08,-1.10155e-08,1.52807e-11
-0.910025,-0.38,0.236385,0.01,61.4908,72.2,406.853,-419.131,418.177,7.71873e-09,-7.84329e-09,7.8787e-09,581.598,-593.876,0.301513,1.1011e-08,-1.11356e-08,5.68068e-12
-0.900025,-0.38,0.227303,0.01,56.2076,72.2,411.71,-415.383,424.202,7.77283e-09,-7.81009e-09,7.9922e-09,590.589,-594.261,-0.530231,1.1143e-08,-1.11803e-08,-9.98986e-12
-0.890025,-0.38,0.217958,0.01,50.8834,72.2,415.396,-415.481,433.746,7.82668e-09,-7.82754e-09,8.17203e-09,600.561,-600.646,-0.0578597,1.13153e-08,-1.13162e-08,-1.09011e-12
-0.880025,-0.38,0.208674,0.01,45.5176,72.2,419.718,-419.72,445.55,7.90774e-09,-7.90776e-09,8.39442e-09,612.109,-612.111,-6.33426e-06,1.15325e-08,-1.15325e-08,-1.19341e-16
-0.870025,-0.38,0.199459,0.01,40.1098,72.2,424.059,-424.061,457.758,7.98953e-09,-7.98955e-09,8.62443e-09,623.994,-623.996,-6.49828e-06,1.17564e-08,-1.17564e-08,-1.22431e-16
-0.860025,-0.38,0.190323,0.01,34.6596,72.2,428.369,-428.371,470.38,8.07072e-09,-8.07075e-09,8.86224e-09,636.205,-636.207,-6.65664e-06,1.19865e-08,-1.19865e-08,-1.25415e-16
-0.850025,-0.38,0.181279,0.01,29.1666,72.2,432.637,-432.64,483.433,8.15115e-09,-8.15118e-09,9.10815e-09,648.754,-648.757,-6.80814e-06,1.22229e-08,-1.22229e-08,-1.28269e-16
-0.840025,-0.38,0.17234,0.01,23.6303,72.2,436.857,-436.86,496.931,8.23065e-09,-8.23068e-09,9.36247e-09,661.652,-661.656,-6.95145e-06,1.24659e-08,-1.2466e-08,-1.30969e-16
-0.830025,-0.38,0.16315,0.01,18.0503,72.2,441.016,-441.02,510.893,8.30901e-09,-8.30905e-09,9.62552e-09,674.912,-674.916,-7.08369e-06,1.27157e-08,-1.27158e-08,-1.33461e-16
-0.820025,-0.38,0.153922,0.01,12.4263,72.2,445.104,-445.109,525.336,8.38604e-09,-8.38609e-09,9.89763e-09,688.545,-688.55,-7.20254e-06,1.29726e-08,-1.29727e-08,-1.357e-16
-0.810025,-0.38,0.144797,0.01,6.75767,72.2,449.109,-449.115,540.277,8.4615e-09,-8.46155e-09,1.01791e-08,702.565,-702.57,-7.30602e-06,1.32368e-08,-1.32368e-08,-1.3765e-16
-0.800025,-0.38,0.135795,0.01,1.04418,72.2,453.018,-453.024,555.737,8.53514e-09,-8.53521e-09,1.04704e-08,716.984,-716.991,-7.39149e-06,1.35084e-08,-1.35085e-08,-1.3926e-16
-0.790025,-0.38,0.126942,0.01,-4.71461,72.2,456.816,-456.823,571.733,8.6067e-09,-8.60678e-09,1.07718e-08,731.818,-731.825,-7.45607e-06,1.37879e-08,-1.3788e-08,-1.40477e-16
-0.780025,-0.38,0.118166,0.01,-10.5191,72.2,460.487,-460.496,588.287,8.67588e-09,-8.67597e-09,1.10837e-08,747.08,-747.088,-7.49628e-06,1.40754e-08,-1.40755e-08,-1.41234e-16
-0.770025,-0.38,0.108916,0.01,-16.3696,72.2,464.016,-464.025,605.419,8.74237e-09,-8.74246e-09,1.14064e-08,762.784,-762.794,-7.50802e-06,1.43713e-08,-1.43714e-08,-1.41456e-16
-0.760025,-0.38,0.0998111,0.01,-22.2665,72.2,467.383,-467.393,623.15,8.80581e-09,-8.80592e-09,1.17405e-08,778.948,-778.958,-7.48725e-06,1.46759e-08,-1.4676e-08,-1.41064e-16
-0.750025,-0.38,0.0908941,0.01,-28.2102,72.2,470.569,-470.58,641.503,8.86584e-09,-8.86595e-09,1.20863e-08,795.586,-795.598,-7.42992e-06,1.49894e-08,-1.49895e-08,-1.39984e-16
-0.740025,-0.38,0.0822267,0.01,-34.2009,72.2,473.551,-473.564,660.5,8.92204e-09,-8.92217e-09,1.24442e-08,812.716,-812.729,-7.3472e-06,1.53121e-08,-1.53122e-08,-1.38426e-16
-0.730025,-0.38,0.0737385,0.01,-40.239,72.2,476.308,-476.322,680.164,8.97397e-09,-8.97412e-09,1.28147e-08,830.354,-830.368,-7.47374e-06,1.56444e-08,-1.56446e-08,-1.4081e-16
-0.720025,-0.38,0.0644416,0.01,-46.3247,72.2,478.812,-478.828,700.52,9.02117e-09,-9.02133e-09,1.31982e-08,848.518,-848.534,-6.33338e-06,1.59866e-08,-1.59868e-08,-1.19325e-16
-0.710025,-0.38,0.0553904,0.01,-52.4583,72.2,481.038,-481.055,721.591,9.0631e-09,-9.06328e-09,1.35952e-08,867.228,-867.245,6.29644e-05,1.63391e-08,-1.63393e-08,1.18629e-15
-0.700025,-0.38,0.0467275,0.01,-58.6399,72.2,482.954,-482.973,743.402,9.09921e-09,-9.0994e-09,1.40061e-08,886.501,-886.52,0.000298991,1.67023e-08,-1.67025e-08,5.63316e-15
-0.690025,-0.38,0.0387147,0.01,-64.8699,72.2,484.55,-484.551,765.968,9.1292e-09,-9.12922e-09,1.44313e-08,906.364,-906.365,-0.0152883,1.70764e-08,-1.70764e-08,-2.88041e-13
-0.680025,-0.38,0.029971,0.01,-71.1483,72.2,486.213,-485.44,788.681,9.15717e-09,-9.14933e-09,1.48592e-08,926.694,-925.921,-0.423169,1.74561e-08,-1.74482e-08,-7.97274e-12
-0.670025,-0.38,0.0204973,0.01,-77.4753,72.2,486.161,-479.414,809.517,9.13021e-09,-9.06177e-09,1.52518e-08,945.923,-939.176,1.1466,1.77924e-08,-1.7724e-08,2.16027e-11
-0.660025,-0.38,0.0119173,0.01,-83.8508,72.2,484.422,-467.974,824.38,9.05528e-09,-8.88842e-09,1.55318e-08,960.255,-943.807,2.09704,1.80202e-08,-1.78534e-08,3.95094e-11
0.659975,-0.38,0.0118802,0.01,-83.8826,72.2,484.436,-467.922,-824.49,9.05525e-09,-8.88772e-09,-1.55339e-08,960.373,-943.86,-2.10705,1.80222e-08,-1.78547e-08,-3.9698e-11
0.669975,-0.38,0.0204515,0.01,-77.5069,72.2,486.166,-479.402,-809.633,9.13023e-09,-9.06162e-09,-1.5254e-08,946.03,-939.266,-1.14957,1.77943e-08,-1.77257e-08,-2.16585e-11
0.679975,-0.38,0.029923,0.01,-71.1797,72.2,486.219,-485.442,-788.797,9.15727e-09,-9.14939e-09,-1.48614e-08,926.796,-926.019,0.424283,1.7458e-08,-1.74501e-08,7.99373e-12
0.689975,-0.38,0.0386771,0.01,-64.901,72.2,484.557,-484.558,-766.082,9.12934e-09,-9.12936e-09,-1.44334e-08,906.464,-906.466,0.0155496,1.70783e-08,-1.70783e-08,2.92963e-13
0.699975,-0.38,0.0466857,0.01,-58.6708,72.2,482.962,-482.981,-743.513,9.09937e-09,-9.09957e-09,-1.40082e-08,886.598,-886.617,-0.000295858,1.67041e-08,-1.67043e-08,-5.57413e-15
0.709975,-0.38,0.0553462,0.01,-52.4889,72.2,481.048,-481.066,-721.698,9.0633e-09,-9.06348e-09,-1.35972e-08,867.322,-867.34,-6.39606e-05,1.63409e-08,-1.63411e-08,-1.20505e-15
0.719975,-0.38,0.0643959,0.01,-46.3551,72.2,478.824,-478.84,-700.623,9.02139e-09,-9.02155e-09,-1.32001e-08,848.61,-848.626,6.29337e-06,1.59884e-08,-1.59885e-08,1.18571e-16
0.729975,-0.38,0.0736918,0.01,-40.2691,72.2,476.321,-476.335,-680.264,8.97422e-09,-8.97437e-09,-1.28166e-08,830.443,-830.457,7.47592e-06,1.56461e-08,-1.56462e-08,1.40851e-16
0.739975,-0.38,0.0821843,0.01,-34.2308,72.2,473.566,-473.579,-660.596,8.92231e-09,-8.92244e-09,-1.2446e-08,812.802,-812.815,7.34675e-06,1.53137e-08,-1.53138e-08,1.38417e-16
0.749975,-0.38,0.0908503,0.01,-28.2399,72.2,470.584,-470.596,-641.596,8.86613e-09,-8.86624e-09,-1.2088e-08,795.67,-795.682,7.42939e-06,1.49909e-08,-1.49911e-08,1.39974e-16
0.759975,-0.38,0.0997663,0.01,-22.296,72.2,467.399,-467.41,-623.24,8.80612e-09,-8.80622e-09,-1.17422e-08,779.029,-779.04,7.48676e-06,1.46774e-08,-1.46775e-08,1.41055e-16
0.769975,-0.38,0.108871,0.01,-16.3988,72.2,464.033,-464.042,-605.506,8.74269e-09,-8.74279e-09,-1.14081e-08,762.864,-762.873,7.50755e-06,1.43728e-08,-1.43729e-08,1.41447e-16
0.779975,-0.38,0.11812,0.01,-10.5481,72.2,460.505,-460.513,-588.371,8.67622e-09,-8.6763e-09,-1.10852e-08,747.157,-747.165,7.49623e-06,1.40769e-08,-1.4077e-08,1.41233e-16
0.789975,-0.38,0.126898,0.01,-4.74337,72.2,456.834,-456.841,-571.814,8.60705e-09,-8.60713e-09,-1.07733e-08,731.893,-731.9,7.45632e-06,1.37893e-08,-1.37894e-08,1.40481e-16
0.799975,-0.38,0.13575,0.01,1.01565,72.2,453.037,-453.043,-555.815,8.5355e-09,-8.53557e-09,-1.04719e-08,717.057,-717.063,7.3921e-06,1.35098e-08,-1.35099e-08,1.39271e-16
0.809975,-0.38,0.144752,0.01,6.72937,72.2,449.129,-449.134,-540.353,8.46187e-09,-8.46193e-09,-1.01806e-08,702.635,-702.641,7.30682e-06,1.32381e-08,-1.32381e-08,1.37665e-16
0.819975,-0.38,0.153876,0.01,12.3982,72.2,445.124,-445.129,-525.409,8.38642e-09,-8.38647e-09,-9.89901e-09,688.614,-688.618,7.20303e-06,1.29739e-08,-1.2974e-08,1.35709e-16
0.829975,-0.38,0.163104,0.01,18.0225,72.2,441.036,-441.04,-510.964,8.3094e-09,-8.30944e-09,-9.62685e-09,674.979,-674.983,7.08383e-06,1.2717e-08,-1.2717e-08,1.33463e-16
0.839975,-0.38,0.172296,0.01,23.6027,72.2,436.878,-436.881,-497,8.23104e-09,-8.23108e-09,-9.36376e-09,661.717,-661.721,6.95169e-06,1.24672e-08,-1.24672e-08,1.30974e-16
0.849975,-0.38,0.181234,0.01,29.1392,72.2,432.659,-432.661,-483.499,8.15155e-09,-8.15158e-09,-9.1094e-09,648.817,-648.82,6.80898e-06,1.22241e-08,-1.22241e-08,1.28285e-16
0.859975,-0.38,0.190278,0.01,34.6324,72.2,428.39,-428.392,-470.444,8.07112e-09,-8.07115e-09,-8.86344e-09,636.267,-636.269,6.65755e-06,1.19876e-08,-1.19877e-08,1.25432e-16
0.869975,-0.38,0.199413,0.01,40.0828,72.2,424.081,-424.083,-457.82,7.98994e-09,-7.98996e-09,-8.62559e-09,624.054,-624.056,6.49878e-06,1.17575e-08,-1.17576e-08,1.22441e-16
0.879975,-0.38,0.208628,0.01,45.4908,72.2,419.74,-419.741,-445.61,7.90815e-09,-7.90816e-09,-8.39554e-09,612.168,-612.169,6.33474e-06,1.15336e-08,-1.15336e-08,1.1935e-16
0.889975,-0.38,0.217911,0.01,50.8568,72.2,415.418,-415.503,-433.804,7.82709e-09,-7.82795e-09,-8.17312e-09,600.618,-600.703,0.0578618,1.13164e-08,-1.13172e-08,1.09015e-12
0.899975,-0.38,0.227256,0.01,56.1813,72.2,411.732,-415.405,-424.258,7.77324e-09,-7.81051e-09,-7.99326e-09,590.644,-594.317,0.530348,1.1144e-08,-1.11813e-08,9.99206e-12
0.909975,-0.38,0.23634,0.01,61.4647,72.2,406.875,-419.155,-418.232,7.71915e-09,-7.84373e-09,-7.87974e-09,581.652,-593.932,-0.301516,1.10121e-08,-1.11366e-08,-5.68074e-12
-0.920025,-0.37,0.241725,0.01,64.5966,68.45,415.752,-423.69,400.727,7.86752e-09,-7.94805e-09,7.54994e-09,576.33,-584.267,-1.44341,1.08929e-08,-1.09734e-08,-2.71947e-11
-0.910025,-0.37,0.232434,0.01,59.3138,68.45,417.422,-423.325,410.747,7.89014e-09,-7.95002e-09,7.73872e-09,584.779,-590.681,0.870398,1.10432e-08,-1.11031e-08,1.63988e-11
-0.900025,-0.37,0.223203,0.01,53.9891,68.45,422.292,-424.276,419.248,7.96486e-09,-7.98497e-09,7.89887e-09,594.775,-596.758,0.316209,1.12145e-08,-1.12346e-08,5.95757e-12
-0.890025,-0.37,0.214042,0.01,48.6223,68.45,426.977,-426.986,429.178,8.04454e-09,-8.04463e-09,8.08596e-09,605.394,-605.403,-0.00161852,1.1406e-08,-1.14061e-08,-3.04939e-14
-0.880025,-0.37,0.20496,0.01,43.2127,68.45,431.734,-431.735,440.995,8.13413e-09,-8.13413e-09,8.3086e-09,617.147,-617.148,-6.95992e-06,1.16274e-08,-1.16274e-08,-1.31129e-16
-0.870025,-0.37,0.195702,0.01,37.76,68.45,436.486,-436.487,453.223,8.22365e-09,-8.22366e-09,8.53898e-09,629.23,-629.231,-7.16647e-06,1.18551e-08,-1.18551e-08,-1.3502e-16
-0.860025,-0.37,0.186382,0.01,32.2637,68.45,441.221,-441.223,465.873,8.31287e-09,-8.31288e-09,8.77732e-09,641.649,-641.651,-7.36997e-06,1.2089e-08,-1.20891e-08,-1.38855e-16
-0.850025,-0.37,0.177136,0.01,26.7232,68.45,445.933,-445.935,478.962,8.40164e-09,-8.40166e-09,9.02392e-09,654.416,-654.418,-7.56905e-06,1.23296e-08,-1.23296e-08,-1.42605e-16
-0.840025,-0.37,0.167977,0.01,21.1381,68.45,450.612,-450.614,492.507,8.48979e-09,-8.48982e-09,9.27911e-09,667.543,-667.545,-7.76237e-06,1.25769e-08,-1.25769e-08,-1.46248e-16
-0.830025,-0.37,0.15892,0.01,15.5079,68.45,455.248,-455.251,506.525,8.57715e-09,-8.57718e-09,9.54322e-09,681.042,-681.045,-7.94741e-06,1.28312e-08,-1.28313e-08,-1.49734e-16
-0.820025,-0.37,0.149982,0.01,9.83228,68.45,459.832,-459.836,521.035,8.66352e-09,-8.66355e-09,9.81661e-09,694.926,-694.93,-8.12214e-06,1.30928e-08,-1.30929e-08,-1.53026e-16
-0.810025,-0.37,0.140872,0.01,4.11063,68.45,464.352,-464.356,536.057,8.74867e-09,-8.74872e-09,1.00996e-08,709.21,-709.214,-8.28421e-06,1.33619e-08,-1.3362e-08,-1.56079e-16
-0.800025,-0.37,0.131602,0.01,-1.65746,68.45,468.795,-468.8,551.609,8.83239e-09,-8.83244e-09,1.03926e-08,723.906,-723.911,-8.43072e-06,1.36388e-08,-1.36389e-08,-1.5884e-16
-0.790025,-0.37,0.122447,0.01,-7.47242,68.45,473.148,-473.154,567.714,8.9144e-09,-8.91446e-09,1.06961e-08,739.031,-739.037,-8.55889e-06,1.39238e-08,-1.39239e-08,-1.61254e-16
-0.780025,-0.37,0.113434,0.01,-13.3347,68.45,477.395,-477.402,584.392,8.99443e-09,-8.9945e-09,1.10103e-08,754.598,-754.605,-8.6651e-06,1.42171e-08,-1.42172e-08,-1.63256e-16
-0.770025,-0.37,0.104601,0.01,-19.2447,68.45,481.521,-481.529,601.665,9.07218e-09,-9.07226e-09,1.13357e-08,770.624,-770.632,-8.74513e-06,1.4519e-08,-1.45191e-08,-1.64763e-16
-0.760025,-0.37,0.095918,0.01,-25.2029,68.45,485.509,-485.518,619.556,9.14731e-09,-9.1474e-09,1.16728e-08,787.125,-787.134,-8.79522e-06,1.48299e-08,-1.483e-08,-1.65707e-16
-0.750025,-0.37,0.086601,0.01,-31.2096,68.45,489.338,-489.348,638.089,9.21945e-09,-9.21956e-09,1.2022e-08,804.118,-804.128,-8.81017e-06,1.51501e-08,-1.51502e-08,-1.65989e-16
-0.740025,-0.37,0.0774547,0.01,-37.2653,68.45,492.988,-492.999,657.288,9.28823e-09,-9.28834e-09,1.23837e-08,821.621,-821.632,-8.7168e-06,1.54799e-08,-1.548e-08,-1.6423e-16
-0.730025,-0.37,0.0685471,0.01,-43.3702,68.45,496.436,-496.449,677.179,9.3532e-09,-9.35333e-09,1.27584e-08,839.652,-839.665,-8.01481e-06,1.58196e-08,-1.58197e-08,-1.51004e-16
-0.720025,-0.37,0.0599849,0.01,-49.5248,68.45,499.658,-499.672,697.787,9.4139e-09,-9.41405e-09,1.31467e-08,858.23,-858.244,-1.79941e-05,1.61696e-08,-1.61698e-08,-3.3902e-16
-0.710025,-0.37,0.0515792,0.01,-55.7293,68.45,502.626,-502.642,719.139,9.46984e-09,-9.47e-09,1.3549e-08,877.375,-877.391,-0.000265589,1.65303e-08,-1.65305e-08,-5.00385e-15
-0.700025,-0.37,0.0421401,0.01,-61.9842,68.45,505.311,-505.334,741.265,9.52045e-09,-9.52068e-09,1.39659e-08,897.109,-897.131,0.000436683,1.69021e-08,-1.69024e-08,8.22735e-15
-0.690025,-0.37,0.0330326,0.01,-68.2895,68.45,507.583,-507.656,764.218,9.56347e-09,-9.56421e-09,1.43983e-08,917.409,-917.483,0.0804022,1.72848e-08,-1.72856e-08,1.51482e-12
-0.680025,-0.37,0.0246276,0.01,-74.6456,68.45,509.222,-505.789,785.009,9.57912e-09,-9.54429e-09,1.479e-08,936.49,-933.057,0.268313,1.76291e-08,-1.75943e-08,5.05516e-12
-0.670025,-0.37,0.0179411,0.01,-81.0528,68.45,512.385,-501.961,802.627,9.60831e-09,-9.50256e-09,1.5122e-08,954.65,-944.225,-1.74004,1.79408e-08,-1.78351e-08,-3.27834e-11
-0.660025,-0.37,0.00914588,0.01,-87.5113,68.45,511.341,-500.238,824.744,9.58568e-09,-9.47304e-09,1.55387e-08,973.035,-961.932,-1.15047,1.82843e-08,-1.81716e-08,-2.16755e-11
0.659975,-0.37,0.00909746,0.01,-87.5436,68.45,511.326,-500.199,-824.867,9.5853e-09,-9.47242e-09,-1.5541e-08,973.138,-962.011,1.12569,1.82861e-08,-1.81732e-08,2.12086e-11
0.669975,-0.37,0.0179156,0.01,-81.0848,68.45,512.388,-501.936,-802.749,9.60824e-09,-9.5022e-09,-1.51243e-08,954.761,-944.309,1.72504,1.79428e-08,-1.78368e-08,3.25008e-11
0.679975,-0.37,0.0245887,0.01,-74.6774,68.45,509.224,-505.791,-785.131,9.57915e-09,-9.54432e-09,-1.47923e-08,936.594,-933.16,-0.275495,1.7631e-08,-1.75962e-08,-5.19048e-12
0.689975,-0.37,0.0329886,0.01,-68.321,68.45,507.592,-507.666,-764.335,9.56365e-09,-9.5644e-09,-1.44005e-08,917.511,-917.585,-0.0815072,1.72868e-08,-1.72875e-08,-1.53564e-12
0.699975,-0.37,0.0420938,0.01,-62.0154,68.45,505.323,-505.346,-741.377,9.52068e-09,-9.52092e-09,-1.3968e-08,897.208,-897.231,-0.000473137,1.6904e-08,-1.69043e-08,-8.91417e-15
0.709975,-0.37,0.0515318,0.01,-55.7603,68.45,502.64,-502.656,-719.247,9.4701e-09,-9.47027e-09,-1.3551e-08,877.472,-877.488,0.000268579,1.65321e-08,-1.65323e-08,5.06019e-15
0.719975,-0.37,0.0599435,0.01,-49.5555,68.45,499.673,-499.687,-697.891,9.41419e-09,-9.41434e-09,-1.31487e-08,858.324,-858.338,1.82156e-05,1.61714e-08,-1.61715e-08,3.43193e-16
0.729975,-0.37,0.0685036,0.01,-43.4007,68.45,496.452,-496.465,-677.279,9.35351e-09,-9.35364e-09,-1.27603e-08,839.743,-839.756,8.00987e-06,1.58213e-08,-1.58214e-08,1.50911e-16
0.739975,-0.37,0.0774097,0.01,-37.2955,68.45,493.005,-493.017,-657.385,9.28856e-09,-9.28868e-09,-1.23855e-08,821.709,-821.721,8.71535e-06,1.54815e-08,-1.54816e-08,1.64202e-16
0.749975,-0.37,0.0865551,0.01,-31.2396,68.45,489.356,-489.367,-638.182,9.2198e-09,-9.21991e-09,-1.20237e-08,804.204,-804.214,8.81052e-06,1.51517e-08,-1.51518e-08,1.65995e-16
0.759975,-0.37,0.0958713,0.01,-25.2326,68.45,485.528,-485.537,-619.646,9.14767e-09,-9.14776e-09,-1.16745e-08,787.208,-787.217,8.79582e-06,1.48315e-08,-1.48316e-08,1.65718e-16
0.769975,-0.37,0.104558,0.01,-19.2742,68.45,481.542,-481.55,-601.752,9.07256e-09,-9.07264e-09,-1.13374e-08,770.705,-770.712,8.74541e-06,1.45206e-08,-1.45206e-08,1.64769e-16
0.779975,-0.37,0.11339,0.01,-13.364,68.45,477.416,-477.423,-584.476,8.99482e-09,-8.9949e-09,-1.10119e-08,754.676,-754.683,8.66534e-06,1.42186e-08,-1.42186e-08,1.6326e-16
0.789975,-0.37,0.122401,0.01,-7.50146,68.45,473.169,-473.175,-567.795,8.9148e-09,-8.91486e-09,-1.06976e-08,739.107,-739.113,8.55937e-06,1.39252e-08,-1.39253e-08,1.61264e-16
0.799975,-0.37,0.131556,0.01,-1.68626,68.45,468.817,-468.822,-551.688,8.8328e-09,-8.83285e-09,-1.03941e-08,723.98,-723.986,8.43166e-06,1.36402e-08,-1.36403e-08,1.58857e-16
0.809975,-0.37,0.140826,0.01,4.08206,68.45,464.374,-464.378,-536.133,8.74909e-09,-8.74914e-09,-1.01011e-08,709.282,-709.286,8.28554e-06,1.33633e-08,-1.33633e-08,1.56104e-16
0.819975,-0.37,0.149938,0.01,9.80394,68.45,459.855,-459.858,-521.109,8.66394e-09,-8.66398e-09,-9.81799e-09,694.996,-695,8.12325e-06,1.30941e-08,-1.30942e-08,1.53047e-16
0.829975,-0.37,0.158875,0.01,15.4798,68.45,455.271,-455.274,-506.596,8.57758e-09,-8.57761e-09,-9.54456e-09,681.11,-681.113,7.94828e-06,1.28325e-08,-1.28325e-08,1.4975e-16
0.839975,-0.37,0.167932,0.01,21.1102,68.45,450.635,-450.637,-492.575,8.49023e-09,-8.49025e-09,-9.2804e-09,667.609,-667.611,7.76344e-06,1.25781e-08,-1.25782e-08,1.46268e-16
0.849975,-0.37,0.177091,0.01,26.6955,68.45,445.956,-445.958,-479.028,8.40208e-09,-8.4021e-09,-9.02517e-09,654.48,-654.482,7.57043e-06,1.23308e-08,-1.23308e-08,1.42631e-16
0.859975,-0.37,0.186336,0.01,32.2362,68.45,441.245,-441.246,-465.937,8.31331e-09,-8.31333e-09,-8.77853e-09,641.712,-641.713,7.37105e-06,1.20902e-08,-1.20902e-08,1.38875e-16
0.869975,-0.37,0.195655,0.01,37.7328,68.45,436.509,-436.51,-453.285,8.22409e-09,-8.2241e-09,-8.54015e-09,629.291,-629.292,7.16722e-06,1.18562e-08,-1.18562e-08,1.35035e-16
0.879975,-0.37,0.204915,0.01,43.1857,68.45,431.758,-431.758,-441.055,8.13457e-09,-8.13458e-09,-8.30972e-09,617.207,-617.207,6.96063e-06,1.16285e-08,-1.16285e-08,1.31142e-16
0.889975,-0.37,0.213997,0.01,48.5955,68.45,427.001,-427.01,-429.236,8.04498e-09,-8.04508e-09,-8.08705e-09,605.452,-605.461,0.00161909,1.14071e-08,-1.14072e-08,3.05045e-14
0.899975,-0.37,0.223158,0.01,53.9625,68.45,422.316,-424.3,-419.304,7.9653e-09,-7.98543e-09,-7.89993e-09,594.831,-596.815,-0.316214,1.12156e-08,-1.12357e-08,-5.95766e-12
0.909975,-0.37,0.232388,0.01,59.2874,68.45,417.446,-423.349,-410.802,7.89058e-09,-7.95047e-09,-7.73975e-09,584.834,-590.737,-0.87063,1.10443e-08,-1.11042e-08,-1.64032e-11
0.919975,-0.37,0.241679,0.01,64.5705,68.45,415.776,-423.715,-400.781,7.86797e-09,-7.94851e-09,-7.55095e-09,576.383,-584.322,1.44323,1.08939e-08,-1.09745e-08,2.71914e-11
-0.920025,-0.36,0.238282,0.01,62.5012,64.8,425.85,-434.695,396.215,8.06171e-09,-8.15145e-09,7.46492e-09,580.487,-589.333,-1.01949,1.09752e-08,-1.10649e-08,-1.92078e-11
-0.910025,-0.36,0.228851,0.01,57.1784,64.8,429.429,-432.692,403.274,8.10488e-09,-8.13797e-09,7.59791e-09,588.659,-591.921,-0.76573,1.11049e-08,-1.1138e-08,-1.44268e-11
-0.900025,-0.36,0.21947,0.01,51.8128,64.8,433.4,-433.697,412.989,8.1668e-09,-8.16982e-09,7.78095e-09,598.621,-598.918,0.0732327,1.12797e-08,-1.12827e-08,1.37975e-12
-0.890025,-0.36,0.210146,0.01,46.4039,64.8,438.597,-438.596,424.214,8.26342e-09,-8.26341e-09,7.99244e-09,610.184,-610.184,-7.35282e-06,1.14962e-08,-1.14962e-08,-1.38531e-16
-0.880025,-0.36,0.200888,0.01,40.9511,64.8,443.759,-443.758,436.033,8.36067e-09,-8.36067e-09,8.21512e-09,622.131,-622.131,-7.60379e-06,1.17213e-08,-1.17213e-08,-1.4326e-16
-0.870025,-0.36,0.191704,0.01,35.4539,64.8,448.928,-448.928,448.266,8.45806e-09,-8.45806e-09,8.44559e-09,634.412,-634.412,-7.85613e-06,1.19527e-08,-1.19527e-08,-1.48014e-16
-0.860025,-0.36,0.182605,0.01,29.9118,64.8,454.098,-454.098,460.927,8.55546e-09,-8.55547e-09,8.68414e-09,647.038,-647.039,-8.10834e-06,1.21906e-08,-1.21906e-08,-1.52766e-16
-0.850025,-0.36,0.173472,0.01,24.3243,64.8,459.26,-459.261,474.036,8.65274e-09,-8.65274e-09,8.93111e-09,660.023,-660.023,-8.35907e-06,1.24352e-08,-1.24352e-08,-1.5749e-16
-0.840025,-0.36,0.164109,0.01,18.6909,64.8,464.408,-464.41,487.609,8.74973e-09,-8.74974e-09,9.18683e-09,673.377,-673.379,-8.6074e-06,1.26868e-08,-1.26868e-08,-1.62168e-16
-0.830025,-0.36,0.154825,0.01,13.0111,64.8,469.533,-469.535,501.665,8.84628e-09,-8.8463e-09,9.45166e-09,687.116,-687.118,-8.85079e-06,1.29457e-08,-1.29457e-08,-1.66754e-16
-0.820025,-0.36,0.145636,0.01,7.28428,64.8,474.624,-474.626,516.224,8.9422e-09,-8.94223e-09,9.72595e-09,701.252,-701.254,-9.08704e-06,1.3212e-08,-1.3212e-08,-1.71205e-16
-0.810025,-0.36,0.136561,0.01,1.51001,64.8,479.671,-479.674,531.305,9.03729e-09,-9.03732e-09,1.00101e-08,715.799,-715.802,-9.31408e-06,1.34861e-08,-1.34861e-08,-1.75483e-16
-0.800025,-0.36,0.127625,0.01,-4.31222,64.8,484.662,-484.666,546.931,9.13133e-09,-9.13137e-09,1.03045e-08,730.773,-730.777,-9.52882e-06,1.37682e-08,-1.37682e-08,-1.79528e-16
-0.790025,-0.36,0.118626,0.01,-10.1829,64.8,489.584,-489.589,563.122,9.22408e-09,-9.22412e-09,1.06095e-08,746.189,-746.193,-9.72867e-06,1.40586e-08,-1.40587e-08,-1.83294e-16
-0.780025,-0.36,0.109298,0.01,-16.1026,64.8,494.424,-494.43,579.901,9.31526e-09,-9.31532e-09,1.09257e-08,762.062,-762.068,-9.90993e-06,1.43577e-08,-1.43578e-08,-1.86709e-16
-0.770025,-0.36,0.100101,0.01,-22.0717,64.8,499.166,-499.172,597.292,9.4046e-09,-9.40467e-09,1.12533e-08,778.41,-778.417,-1.00683e-05,1.46657e-08,-1.46658e-08,-1.89693e-16
-0.760025,-0.36,0.0910734,0.01,-28.0907,64.8,503.792,-503.8,615.319,9.49178e-09,-9.49185e-09,1.1593e-08,795.25,-795.258,-1.01996e-05,1.4983e-08,-1.49831e-08,-1.92165e-16
-0.750025,-0.36,0.0822707,0.01,-34.1601,64.8,508.286,-508.295,634.008,9.57644e-09,-9.57653e-09,1.19451e-08,812.6,-812.608,-1.03091e-05,1.53099e-08,-1.531e-08,-1.94229e-16
-0.740025,-0.36,0.0737375,0.01,-40.2803,64.8,512.626,-512.636,653.385,9.65821e-09,-9.65831e-09,1.23101e-08,830.478,-830.488,-1.0606e-05,1.56467e-08,-1.56468e-08,-1.99823e-16
-0.730025,-0.36,0.0643172,0.01,-46.4518,64.8,516.79,-516.802,673.476,9.73668e-09,-9.7368e-09,1.26887e-08,848.904,-848.915,-1.13839e-05,1.59939e-08,-1.5994e-08,-2.1448e-16
-0.720025,-0.36,0.0551017,0.01,-52.6749,64.8,520.756,-520.769,694.31,9.8114e-09,-9.81153e-09,1.30812e-08,867.899,-867.912,4.07807e-05,1.63518e-08,-1.63519e-08,7.68331e-16
-0.710025,-0.36,0.0462134,0.01,-58.9502,64.8,524.495,-524.509,715.915,9.88185e-09,-9.882e-09,1.34883e-08,887.482,-887.496,0.000778205,1.67207e-08,-1.67209e-08,1.46618e-14
-0.700025,-0.36,0.0378835,0.01,-65.2778,64.8,527.994,-527.987,738.308,9.94768e-09,-9.94761e-09,1.39102e-08,907.678,-907.671,-0.00753691,1.71012e-08,-1.71011e-08,-1.42e-13
-0.690025,-0.36,0.0297233,0.01,-71.6583,64.8,531.605,-531.275,761.332,1.00143e-08,-1.0011e-08,1.43439e-08,928.634,-928.304,-0.332051,1.74946e-08,-1.74912e-08,-6.25603e-12
-0.680025,-0.36,0.019971,0.01,-78.0919,64.8,532.742,-528.162,783.021,1.00173e-08,-9.97079e-09,1.47526e-08,948.07,-943.49,1.51527,1.78423e-08,-1.77958e-08,2.85486e-11
-0.670025,-0.36,0.0106868,0.01,-84.5786,64.8,528.711,-522.571,799.606,9.93453e-09,-9.87223e-09,1.5065e-08,959.971,-953.83,3.04613,1.80597e-08,-1.79974e-08,5.73909e-11
0.669975,-0.36,0.0106439,0.01,-84.611,64.8,528.659,-522.614,-799.762,9.93396e-09,-9.87264e-09,-1.5068e-08,960.051,-954.007,-3.07664,1.80616e-08,-1.80003e-08,-5.79657e-11
0.679975,-0.36,0.0199231,0.01,-78.124,64.8,532.748,-528.185,-783.159,1.00174e-08,-9.97115e-09,-1.47552e-08,948.184,-943.621,-1.52366,1.78445e-08,-1.77982e-08,-2.87067e-11
0.689975,-0.36,0.0296744,0.01,-71.6902,64.8,531.622,-531.294,-761.453,1.00146e-08,-1.00113e-08,-1.43462e-08,928.742,-928.415,0.332955,1.74966e-08,-1.74933e-08,6.27306e-12
0.699975,-0.36,0.0378441,0.01,-65.3094,64.8,528.011,-528.004,-738.422,9.948e-09,-9.94793e-09,-1.39123e-08,907.78,-907.773,0.00774599,1.71031e-08,-1.7103e-08,1.45939e-13
0.709975,-0.36,0.0461703,0.01,-58.9815,64.8,524.513,-524.527,-716.024,9.88219e-09,-9.88234e-09,-1.34903e-08,887.581,-887.595,-0.000784992,1.67226e-08,-1.67227e-08,-1.47897e-14
0.719975,-0.36,0.0550565,0.01,-52.706,64.8,520.775,-520.788,-694.415,9.81176e-09,-9.81189e-09,-1.30832e-08,867.994,-868.008,-4.17168e-05,1.63536e-08,-1.63537e-08,-7.85969e-16
0.729975,-0.36,0.0642708,0.01,-46.4826,64.8,516.811,-516.822,-673.578,9.73706e-09,-9.73718e-09,-1.26906e-08,848.997,-849.009,1.13749e-05,1.59956e-08,-1.59958e-08,2.1431e-16
0.739975,-0.36,0.0736903,0.01,-40.3109,64.8,512.647,-512.657,-653.483,9.65861e-09,-9.65871e-09,-1.2312e-08,830.568,-830.578,1.0609e-05,1.56484e-08,-1.56485e-08,1.99881e-16
0.749975,-0.36,0.0822276,0.01,-34.1904,64.8,508.308,-508.317,-634.103,9.57685e-09,-9.57694e-09,-1.19469e-08,812.687,-812.696,1.03101e-05,1.53115e-08,-1.53116e-08,1.94248e-16
0.759975,-0.36,0.091029,0.01,-28.1207,64.8,503.815,-503.823,-615.411,9.4922e-09,-9.49228e-09,-1.15947e-08,795.335,-795.343,1.02011e-05,1.49846e-08,-1.49847e-08,1.92194e-16
0.769975,-0.36,0.100056,0.01,-22.1015,64.8,499.189,-499.196,-597.38,9.40504e-09,-9.40511e-09,-1.1255e-08,778.493,-778.499,1.00695e-05,1.46673e-08,-1.46673e-08,1.89715e-16
0.779975,-0.36,0.109252,0.01,-16.1321,64.8,494.448,-494.454,-579.986,9.31571e-09,-9.31577e-09,-1.09273e-08,762.142,-762.148,9.91075e-06,1.43592e-08,-1.43593e-08,1.86724e-16
0.789975,-0.36,0.118579,0.01,-10.2122,64.8,489.609,-489.613,-563.204,9.22453e-09,-9.22458e-09,-1.06111e-08,746.267,-746.271,9.72951e-06,1.40601e-08,-1.40602e-08,1.8331e-16
0.799975,-0.36,0.127581,0.01,-4.34129,64.8,484.687,-484.691,-547.01,9.13179e-09,-9.13183e-09,-1.0306e-08,730.849,-730.853,9.52994e-06,1.37696e-08,-1.37697e-08,1.7955e-16
0.809975,-0.36,0.136516,0.01,1.48118,64.8,479.696,-479.699,-531.381,9.03776e-09,-9.03779e-09,-1.00115e-08,715.873,-715.876,9.31523e-06,1.34875e-08,-1.34875e-08,1.75504e-16
0.819975,-0.36,0.145591,0.01,7.25568,64.8,474.649,-474.652,-516.297,8.94268e-09,-8.9427e-09,-9.72734e-09,701.323,-701.326,9.08794e-06,1.32133e-08,-1.32134e-08,1.71222e-16
0.829975,-0.36,0.154779,0.01,12.9827,64.8,469.558,-469.56,-501.736,8.84676e-09,-8.84678e-09,-9.453e-09,687.185,-687.187,8.85169e-06,1.2947e-08,-1.2947e-08,1.66771e-16
0.839975,-0.36,0.164062,0.01,18.6628,64.8,464.434,-464.435,-487.677,8.75021e-09,-8.75023e-09,-9.18812e-09,673.445,-673.446,8.60891e-06,1.26881e-08,-1.26881e-08,1.62197e-16
0.849975,-0.36,0.173425,0.01,24.2964,64.8,459.286,-459.287,-474.102,8.65322e-09,-8.65323e-09,-8.93236e-09,660.088,-660.089,8.36084e-06,1.24364e-08,-1.24365e-08,1.57523e-16
0.859975,-0.36,0.18256,0.01,29.8842,64.8,454.123,-454.124,-460.991,8.55595e-09,-8.55595e-09,-8.68535e-09,647.102,-647.102,8.1096e-06,1.21918e-08,-1.21918e-08,1.5279e-16
0.869975,-0.36,0.191658,0.01,35.4264,64.8,448.954,-448.954,-448.328,8.45855e-09,-8.45855e-09,-8.44675e-09,634.474,-634.474,7.85725e-06,1.19539e-08,-1.19539e-08,1.48035e-16
0.879975,-0.36,0.200842,0.01,40.9239,64.8,443.785,-443.784,-436.093,8.36116e-09,-8.36115e-09,-8.21625e-09,622.191,-622.191,7.60506e-06,1.17224e-08,-1.17224e-08,1.43284e-16
0.889975,-0.36,0.2101,0.01,46.3769,64.8,438.623,-438.622,-424.272,8.2639e-09,-8.26389e-09,-7.99353e-09,610.243,-610.242,7.3541e-06,1.14973e-08,-1.14973e-08,1.38555e-16
0.899975,-0.36,0.219424,0.01,51.786,64.8,433.426,-433.723,-413.045,8.16729e-09,-8.1703e-09,-7.78201e-09,598.678,-598.975,-0.0732625,1.12807e-08,-1.12837e-08,-1.38031e-12
0.909975,-0.36,0.228804,0.01,57.1519,64.8,429.455,-432.718,-403.328,8.10536e-09,-8.13846e-09,-7.59894e-09,588.714,-591.977,0.765803,1.11059e-08,-1.1139e-08,1.44282e-11
0.919975,-0.36,0.238235,0.01,62.4748,64.8,425.875,-434.722,-396.268,8.0622e-09,-8.15195e-09,-7.46593e-09,580.542,-589.389,1.01958,1.09762e-08,-1.1066e-08,1.92094e-11
-0.930025,-0.35,0.24377,0.01,65.7669,61.25,432.801,-432.601,382.022,8.15335e-09,-8.15133e-09,7.19751e-09,577.306,-577.106,1.95911,1.08759e-08,-1.08739e-08,3.69108e-11
-0.920025,-0.35,0.234443,0.01,60.4481,61.25,434.347,-438.729,389.993,8.2024e-09,-8.24686e-09,7.3477e-09,583.18,-587.561,1.23414,1.10065e-08,-1.10509e-08,2.32519e-11
-0.910025,-0.35,0.225174,0.01,55.0859,61.25,439.269,-441.176,397.881,8.28437e-09,-8.30373e-09,7.49631e-09,592.431,-594.338,0.350629,1.117e-08,-1.11894e-08,6.60606e-12
-0.900025,-0.35,0.21597,0.01,49.6799,61.25,444.669,-444.676,407.465,8.37785e-09,-8.37792e-09,7.67687e-09,603.123,-603.13,-0.00121073,1.13632e-08,-1.13633e-08,-2.28108e-14
-0.890025,-0.35,0.206661,0.01,44.2293,61.25,450.206,-450.205,418.858,8.48214e-09,-8.48213e-09,7.89153e-09,614.921,-614.92,-7.96513e-06,1.15855e-08,-1.15855e-08,-1.50068e-16
-0.880025,-0.35,0.197239,0.01,38.7338,61.25,455.776,-455.775,430.659,8.58708e-09,-8.58707e-09,8.11387e-09,627.056,-627.055,-8.26219e-06,1.18141e-08,-1.18141e-08,-1.55664e-16
-0.870025,-0.35,0.187877,0.01,33.1927,61.25,461.369,-461.368,442.879,8.69246e-09,-8.69245e-09,8.3441e-09,639.534,-639.533,-8.56336e-06,1.20492e-08,-1.20492e-08,-1.61339e-16
-0.860025,-0.35,0.178583,0.01,27.6054,61.25,466.981,-466.98,455.535,8.79818e-09,-8.79817e-09,8.58255e-09,652.367,-652.367,-8.86776e-06,1.2291e-08,-1.2291e-08,-1.67074e-16
-0.850025,-0.35,0.16937,0.01,21.9714,61.25,472.603,-472.603,468.645,8.90411e-09,-8.90411e-09,8.82954e-09,665.569,-665.568,-9.17444e-06,1.25397e-08,-1.25397e-08,-1.72852e-16
-0.840025,-0.35,0.160252,0.01,16.2902,61.25,478.229,-478.229,482.228,9.01011e-09,-9.01011e-09,9.08545e-09,679.151,-679.151,-9.48215e-06,1.27956e-08,-1.27956e-08,-1.78649e-16
-0.830025,-0.35,0.151245,0.01,10.5612,61.25,483.851,-483.852,496.302,9.11604e-09,-9.11604e-09,9.35062e-09,693.129,-693.129,-9.78879e-06,1.30589e-08,-1.3059e-08,-1.84426e-16
-0.820025,-0.35,0.141863,0.01,4.78375,61.25,489.46,-489.461,510.889,9.22171e-09,-9.22173e-09,9.62545e-09,707.516,-707.517,-1.00921e-05,1.333e-08,-1.333e-08,-1.90142e-16
-0.810025,-0.35,0.13253,0.01,-1.04263,61.25,495.046,-495.048,526.01,9.32696e-09,-9.32697e-09,9.91033e-09,722.327,-722.329,-1.03905e-05,1.36091e-08,-1.36091e-08,-1.95763e-16
-0.800025,-0.35,0.123302,0.01,-6.91851,61.25,500.598,-500.6,541.686,9.43156e-09,-9.43159e-09,1.02057e-08,737.578,-737.581,-1.0681e-05,1.38964e-08,-1.38964e-08,-2.01237e-16
-0.790025,-0.35,0.114204,0.01,-12.8444,61.25,506.104,-506.107,557.941,9.5353e-09,-9.53534e-09,1.05119e-08,753.285,-753.289,-1.09609e-05,1.41923e-08,-1.41924e-08,-2.0651e-16
-0.780025,-0.35,0.105269,0.01,-18.821,61.25,511.551,-511.555,574.799,9.63794e-09,-9.63798e-09,1.08295e-08,769.465,-769.469,-1.12268e-05,1.44972e-08,-1.44972e-08,-2.1152e-16
-0.770025,-0.35,0.0964322,0.01,-24.8487,61.25,516.925,-516.93,592.284,9.73919e-09,-9.73924e-09,1.1159e-08,786.136,-786.141,-1.14745e-05,1.48113e-08,-1.48113e-08,-2.16187e-16
-0.760025,-0.35,0.0870245,0.01,-30.9281,61.25,522.209,-522.215,610.422,9.83875e-09,-9.83881e-09,1.15007e-08,803.315,-803.321,-1.16995e-05,1.5135e-08,-1.5135e-08,-2.20425e-16
-0.750025,-0.35,0.0777648,0.01,-37.0597,61.25,527.387,-527.394,629.24,9.93631e-09,-9.93638e-09,1.18553e-08,821.023,-821.03,-1.18569e-05,1.54686e-08,-1.54686e-08,-2.23392e-16
-0.740025,-0.35,0.068713,0.01,-43.2441,61.25,532.439,-532.447,648.767,1.00315e-08,-1.00316e-08,1.22231e-08,839.277,-839.286,-1.13966e-05,1.58125e-08,-1.58126e-08,-2.14718e-16
-0.730025,-0.35,0.0599631,0.01,-49.4817,61.25,537.344,-537.353,669.03,1.01239e-08,-1.0124e-08,1.26049e-08,858.101,-858.11,-1.35887e-05,1.61672e-08,-1.61673e-08,-2.56019e-16
-0.720025,-0.35,0.051669,0.01,-55.773,61.25,542.079,-542.09,690.061,1.02131e-08,-1.02132e-08,1.30012e-08,877.514,-877.525,-0.000222475,1.65329e-08,-1.6533e-08,-4.19155e-15
-0.710025,-0.35,0.042115,0.01,-62.1185,61.25,546.622,-546.637,711.892,1.02987e-08,-1.02989e-08,1.34125e-08,897.541,-897.556,-0.00201356,1.69103e-08,-1.69104e-08,-3.79366e-14
-0.700025,-0.35,0.0327591,0.01,-68.5187,61.25,550.863,-550.971,734.599,1.0379e-08,-1.03801e-08,1.38403e-08,918.175,-918.283,0.0519033,1.72994e-08,-1.73005e-08,9.77888e-13
-0.690025,-0.35,0.02393,0.01,-74.974,61.25,554.64,-552.127,755.563,1.04388e-08,-1.04133e-08,1.42352e-08,937.797,-935.284,-0.168621,1.76577e-08,-1.76322e-08,-3.17691e-12
-0.680025,-0.35,0.0164963,0.01,-81.4849,61.25,558.694,-553.05,774.824,1.05016e-08,-1.04443e-08,1.45981e-08,956.417,-950.772,-2.07832,1.79949e-08,-1.79376e-08,-3.91568e-11
-0.670025,-0.35,0.0103215,0.01,-88.0529,61.25,558.273,-557.669,801.146,1.05156e-08,-1.05094e-08,1.50941e-08,976.605,-976.001,-0.310468,1.83972e-08,-1.8391e-08,-5.84939e-12
0.669975,-0.35,0.0102771,0.01,-88.0857,61.25,558.242,-557.806,-801.375,1.05157e-08,-1.05113e-08,-1.50984e-08,976.738,-976.303,0.282384,1.84004e-08,-1.8396e-08,5.32028e-12
0.679975,-0.35,0.0164661,0.01,-81.5174,61.25,558.692,-553.107,-774.981,1.05018e-08,-1.04451e-08,-1.46011e-08,956.53,-950.945,2.06692,1.79973e-08,-1.79406e-08,3.8942e-11
0.689975,-0.35,0.0238884,0.01,-75.0063,61.25,554.652,-552.158,-755.693,1.04391e-08,-1.04138e-08,-1.42377e-08,937.905,-935.412,0.163457,1.76598e-08,-1.76345e-08,3.07963e-12
0.699975,-0.35,0.0327135,0.01,-68.5507,61.25,550.882,-550.992,-734.715,1.03794e-08,-1.03805e-08,-1.38424e-08,918.279,-918.389,-0.0530155,1.73014e-08,-1.73025e-08,-9.98843e-13
0.709975,-0.35,0.0420678,0.01,-62.1502,61.25,546.644,-546.659,-712.002,1.02992e-08,-1.02993e-08,-1.34145e-08,897.642,-897.657,0.00202173,1.69122e-08,-1.69123e-08,3.80906e-14
0.719975,-0.35,0.0516292,0.01,-55.8044,61.25,542.102,-542.113,-690.168,1.02136e-08,-1.02137e-08,-1.30032e-08,877.612,-877.623,0.000225799,1.65348e-08,-1.65349e-08,4.25418e-15
0.729975,-0.35,0.0599206,0.01,-49.5128,61.25,537.368,-537.377,-669.133,1.01244e-08,-1.01245e-08,-1.26069e-08,858.196,-858.205,1.36846e-05,1.61689e-08,-1.6169e-08,2.57825e-16
0.739975,-0.35,0.0686686,0.01,-43.275,61.25,532.463,-532.472,-648.866,1.0032e-08,-1.0032e-08,-1.2225e-08,839.37,-839.378,1.13895e-05,1.58142e-08,-1.58143e-08,2.14586e-16
0.749975,-0.35,0.0777192,0.01,-37.0903,61.25,527.412,-527.42,-629.336,9.93679e-09,-9.93686e-09,-1.1857e-08,821.112,-821.119,1.18571e-05,1.54703e-08,-1.54703e-08,2.23395e-16
0.759975,-0.35,0.0869781,0.01,-30.9585,61.25,522.235,-522.241,-610.514,9.83924e-09,-9.8393e-09,-1.15024e-08,803.402,-803.408,1.17011e-05,1.51366e-08,-1.51366e-08,2.20455e-16
0.769975,-0.35,0.0963851,0.01,-24.8788,61.25,516.951,-516.956,-592.372,9.73968e-09,-9.73974e-09,-1.11606e-08,786.22,-786.225,1.14758e-05,1.48129e-08,-1.48129e-08,2.1621e-16
0.779975,-0.35,0.105225,0.01,-18.8508,61.25,511.578,-511.582,-574.884,9.63844e-09,-9.63849e-09,-1.08311e-08,769.547,-769.551,1.1228e-05,1.44987e-08,-1.44988e-08,2.11541e-16
0.789975,-0.35,0.114159,0.01,-12.874,61.25,506.131,-506.134,-558.023,9.53582e-09,-9.53585e-09,-1.05135e-08,753.364,-753.368,1.09625e-05,1.41938e-08,-1.41939e-08,2.06539e-16
0.799975,-0.35,0.123256,0.01,-6.94785,61.25,500.625,-500.628,-541.766,9.43208e-09,-9.43211e-09,-1.02072e-08,737.655,-737.658,1.06828e-05,1.38979e-08,-1.38979e-08,2.0127e-16
0.809975,-0.35,0.132484,0.01,-1.07173,61.25,495.073,-495.075,-526.086,9.32748e-09,-9.3275e-09,-9.91177e-09,722.402,-722.404,1.03922e-05,1.36105e-08,-1.36105e-08,1.95795e-16
0.819975,-0.35,0.141816,0.01,4.75489,61.25,489.488,-489.489,-510.963,9.22224e-09,-9.22225e-09,-9.62684e-09,707.588,-707.59,1.00934e-05,1.33314e-08,-1.33314e-08,1.90165e-16
0.829975,-0.35,0.151201,0.01,10.5326,61.25,483.879,-483.88,-496.373,9.11656e-09,-9.11657e-09,-9.35196e-09,693.199,-693.2,9.78985e-06,1.30603e-08,-1.30603e-08,1.84446e-16
0.839975,-0.35,0.160207,0.01,16.2618,61.25,478.257,-478.257,-482.296,9.01064e-09,-9.01064e-09,-9.08674e-09,679.22,-679.22,9.48372e-06,1.27969e-08,-1.27969e-08,1.78679e-16
0.849975,-0.35,0.169325,0.01,21.9433,61.25,472.631,-472.631,-468.711,8.90464e-09,-8.90463e-09,-8.83079e-09,665.635,-665.635,9.17614e-06,1.2541e-08,-1.2541e-08,1.72884e-16
0.859975,-0.35,0.178537,0.01,27.5775,61.25,467.008,-467.008,-455.599,8.79871e-09,-8.7987e-09,-8.58375e-09,652.432,-652.431,8.86916e-06,1.22922e-08,-1.22922e-08,1.671e-16
0.869975,-0.35,0.18783,0.01,33.165,61.25,461.397,-461.396,-442.941,8.69299e-09,-8.69298e-09,-8.34527e-09,639.597,-639.596,8.56457e-06,1.20504e-08,-1.20504e-08,1.61361e-16
0.879975,-0.35,0.197192,0.01,38.7064,61.25,455.804,-455.803,-430.719,8.5876e-09,-8.58759e-09,-8.11499e-09,627.117,-627.116,8.26352e-06,1.18152e-08,-1.18152e-08,1.5569e-16
0.889975,-0.35,0.206614,0.01,44.2021,61.25,450.234,-450.232,-418.916,8.48266e-09,-8.48265e-09,-7.89262e-09,614.981,-614.979,7.96662e-06,1.15866e-08,-1.15866e-08,1.50096e-16
0.899975,-0.35,0.215925,0.01,49.6529,61.25,444.696,-444.703,-407.52,8.37837e-09,-8.37844e-09,-7.67792e-09,603.18,-603.188,0.00121123,1.13643e-08,-1.13644e-08,2.28203e-14
0.909975,-0.35,0.225128,0.01,55.0592,61.25,439.296,-441.204,-397.935,8.28489e-09,-8.30425e-09,-7.49733e-09,592.487,-594.395,-0.350647,1.11711e-08,-1.11905e-08,-6.6064e-12
0.919975,-0.35,0.234397,0.01,60.4215,61.25,434.374,-438.757,-390.046,8.20292e-09,-8.24738e-09,-7.34869e-09,583.235,-587.618,-1.23443,1.10075e-08,-1.1052e-08,-2.32574e-11
0.929975,-0.35,0.243724,0.01,65.7405,61.25,432.828,-432.628,-382.073,8.15386e-09,-8.15184e-09,-7.19848e-09,577.36,-577.161,-1.95981,1.08769e-08,-1.08749e-08,-3.69239e-11
-0.930025,-0.34,0.240415,0.01,63.7949,57.8,441.303,-450.881,374.664,8.35604e-09,-8.45321e-09,7.05889e-09,577.765,-587.343,-1.38991,1.09271e-08,-1.10242e-08,-2.61867e-11
-0.920025,-0.34,0.230953,0.01,58.4383,57.8,445.214,-447.549,381.816,8.39824e-09,-8.42193e-09,7.19363e-09,586.233,-588.568,-0.223969,1.10551e-08,-1.10788e-08,-4.21971e-12
-0.910025,-0.34,0.221538,0.01,53.0374,57.8,449.937,-450.203,390.937,8.47823e-09,-8.48093e-09,7.36549e-09,596.017,-596.284,0.0525712,1.12305e-08,-1.12332e-08,9.90472e-13
-0.900025,-0.34,0.212176,0.01,47.5914,57.8,455.85,-455.847,401.741,8.58846e-09,-8.58843e-09,7.56903e-09,607.614,-607.611,-8.24823e-06,1.14478e-08,-1.14478e-08,-1.55401e-16
-0.890025,-0.34,0.202876,0.01,42.0998,57.8,461.787,-461.784,413.1,8.70032e-09,-8.7003e-09,7.78304e-09,619.596,-619.593,-8.58485e-06,1.16735e-08,-1.16735e-08,-1.61744e-16
-0.880025,-0.34,0.193645,0.01,36.5621,57.8,467.77,-467.767,424.866,8.81304e-09,-8.81302e-09,8.00473e-09,631.918,-631.916,-8.93036e-06,1.19057e-08,-1.19057e-08,-1.68253e-16
-0.870025,-0.34,0.184494,0.01,30.9776,57.8,473.793,-473.791,437.057,8.92653e-09,-8.92651e-09,8.2344e-09,644.592,-644.59,-9.28347e-06,1.21445e-08,-1.21445e-08,-1.74906e-16
-0.860025,-0.34,0.175041,0.01,25.3457,57.8,479.852,-479.851,449.689,9.04069e-09,-9.04067e-09,8.4724e-09,657.631,-657.629,-9.64354e-06,1.23901e-08,-1.23901e-08,-1.8169e-16
-0.850025,-0.34,0.165631,0.01,19.6658,57.8,485.941,-485.94,462.782,9.15541e-09,-9.15539e-09,8.71908e-09,671.048,-671.047,-1.001e-05,1.26429e-08,-1.26429e-08,-1.88594e-16
-0.840025,-0.34,0.156295,0.01,13.9373,57.8,492.054,-492.053,476.354,9.27057e-09,-9.27056e-09,8.97479e-09,684.858,-684.857,-1.03813e-05,1.29031e-08,-1.29031e-08,-1.9559e-16
-0.830025,-0.34,0.147046,0.01,8.15966,57.8,498.182,-498.181,490.427,9.38603e-09,-9.38603e-09,9.23993e-09,699.074,-699.073,-1.07559e-05,1.3171e-08,-1.31709e-08,-2.02647e-16
-0.820025,-0.34,0.137902,0.01,2.33216,57.8,504.318,-504.318,505.021,9.50165e-09,-9.50165e-09,9.5149e-09,713.711,-713.711,-1.11322e-05,1.34467e-08,-1.34467e-08,-2.09737e-16
-0.810025,-0.34,0.128884,0.01,-3.54577,57.8,510.454,-510.455,520.159,9.61725e-09,-9.61726e-09,9.8001e-09,728.786,-728.786,-1.15088e-05,1.37307e-08,-1.37308e-08,-2.16832e-16
-0.800025,-0.34,0.11966,0.01,-9.47474,57.8,516.579,-516.58,535.863,9.73265e-09,-9.73266e-09,1.0096e-08,744.314,-744.315,-1.18823e-05,1.40233e-08,-1.40233e-08,-2.2387e-16
-0.790025,-0.34,0.110262,0.01,-15.4554,57.8,522.682,-522.684,552.158,9.84764e-09,-9.84766e-09,1.0403e-08,760.312,-760.314,-1.22504e-05,1.43247e-08,-1.43248e-08,-2.30805e-16
-0.780025,-0.34,0.100979,0.01,-21.4883,57.8,528.751,-528.754,569.069,9.96199e-09,-9.96202e-09,1.07216e-08,776.799,-776.802,-1.261e-05,1.46354e-08,-1.46354e-08,-2.37579e-16
-0.770025,-0.34,0.0918474,0.01,-27.574,57.8,534.773,-534.776,586.622,1.00754e-08,-1.00755e-08,1.10523e-08,793.792,-793.796,-1.29565e-05,1.49555e-08,-1.49556e-08,-2.44108e-16
-0.760025,-0.34,0.0829159,0.01,-33.7133,57.8,540.732,-540.737,604.844,1.01877e-08,-1.01878e-08,1.13956e-08,811.312,-811.316,-1.32902e-05,1.52856e-08,-1.52856e-08,-2.50395e-16
-0.750025,-0.34,0.0742573,0.01,-39.9066,57.8,546.614,-546.619,623.764,1.02985e-08,-1.02986e-08,1.17521e-08,829.377,-829.383,-1.37306e-05,1.5626e-08,-1.5626e-08,-2.58692e-16
-0.740025,-0.34,0.0648103,0.01,-46.1546,57.8,552.398,-552.405,643.412,1.04075e-08,-1.04076e-08,1.21223e-08,848.01,-848.017,-1.53772e-05,1.5977e-08,-1.59771e-08,-2.89715e-16
-0.730025,-0.34,0.0554479,0.01,-52.4578,57.8,558.066,-558.074,663.818,1.05143e-08,-1.05144e-08,1.25067e-08,867.231,-867.239,3.17023e-06,1.63392e-08,-1.63393e-08,5.9729e-17
-0.720025,-0.34,0.0463528,0.01,-58.8169,57.8,563.595,-563.605,685.015,1.06185e-08,-1.06186e-08,1.29061e-08,887.064,-887.074,0.00072714,1.67128e-08,-1.67129e-08,1.36997e-14
-0.710025,-0.34,0.0377185,0.01,-65.2322,57.8,568.961,-568.957,707.028,1.07195e-08,-1.07195e-08,1.33208e-08,907.528,-907.523,0.00346411,1.70983e-08,-1.70983e-08,6.52658e-14
-0.700025,-0.34,0.0299464,0.01,-71.7045,57.8,574.429,-574.33,729.906,1.08221e-08,-1.08211e-08,1.37519e-08,928.852,-928.753,-0.184982,1.74997e-08,-1.74987e-08,-3.48516e-12
-0.690025,-0.34,0.0202643,0.01,-78.2342,57.8,577.294,-573.914,751.447,1.08619e-08,-1.08276e-08,1.41577e-08,948.257,-944.878,1.41801,1.7851e-08,-1.78167e-08,2.67162e-11
-0.680025,-0.34,0.0104941,0.01,-84.8215,57.8,573.823,-573.477,768.751,1.08097e-08,-1.08061e-08,1.44837e-08,959.364,-959.017,2.35859,1.80735e-08,-1.80699e-08,4.44373e-11
0.679975,-0.34,0.0104466,0.01,-84.8544,57.8,573.726,-573.65,-768.942,1.0809e-08,-1.08082e-08,-1.44873e-08,959.404,-959.329,-2.38652,1.80754e-08,-1.80746e-08,-4.49634e-11
0.689975,-0.34,0.0202152,0.01,-78.2668,57.8,577.305,-573.979,-751.597,1.08623e-08,-1.08286e-08,-1.41605e-08,948.373,-945.047,-1.42536,1.78534e-08,-1.78197e-08,-2.68546e-11
0.699975,-0.34,0.0299111,0.01,-71.7369,57.8,574.456,-574.365,-730.031,1.08227e-08,-1.08218e-08,-1.37542e-08,928.965,-928.875,0.184189,1.75018e-08,-1.75009e-08,3.47022e-12
0.709975,-0.34,0.0376772,0.01,-65.2643,57.8,568.988,-568.983,-707.139,1.072e-08,-1.072e-08,-1.33229e-08,907.631,-907.626,-0.00342875,1.71003e-08,-1.71002e-08,-6.45996e-14
0.719975,-0.34,0.0463085,0.01,-58.8486,57.8,563.622,-563.632,-685.123,1.0619e-08,-1.06191e-08,-1.29081e-08,887.164,-887.174,-0.000737659,1.67147e-08,-1.67148e-08,-1.38979e-14
0.729975,-0.34,0.0554019,0.01,-52.4893,57.8,558.094,-558.102,-663.922,1.05148e-08,-1.05149e-08,-1.25087e-08,867.328,-867.336,-3.63793e-06,1.6341e-08,-1.63411e-08,-6.85407e-17
0.739975,-0.34,0.0647632,0.01,-46.1858,57.8,552.427,-552.433,-643.512,1.04081e-08,-1.04081e-08,-1.21241e-08,848.104,-848.111,1.53893e-05,1.59788e-08,-1.59789e-08,2.89943e-16
0.749975,-0.34,0.0742151,0.01,-39.9376,57.8,546.643,-546.648,-623.86,1.02991e-08,-1.02991e-08,-1.17539e-08,829.469,-829.474,1.37339e-05,1.56277e-08,-1.56277e-08,2.58755e-16
0.759975,-0.34,0.0828721,0.01,-33.744,57.8,540.762,-540.766,-604.936,1.01883e-08,-1.01883e-08,-1.13974e-08,811.4,-811.405,1.32919e-05,1.52873e-08,-1.52873e-08,2.50427e-16
0.769975,-0.34,0.0918024,0.01,-27.6044,57.8,534.803,-534.806,-586.711,1.0076e-08,-1.0076e-08,-1.1054e-08,793.878,-793.882,1.29577e-05,1.49571e-08,-1.49572e-08,2.4413e-16
0.779975,-0.34,0.100934,0.01,-21.5184,57.8,528.781,-528.784,-569.155,9.96256e-09,-9.96258e-09,-1.07232e-08,776.882,-776.885,1.26113e-05,1.46369e-08,-1.46369e-08,2.37603e-16
0.789975,-0.34,0.110216,0.01,-15.4852,57.8,522.712,-522.714,-552.241,9.84821e-09,-9.84823e-09,-1.04045e-08,760.393,-760.395,1.22524e-05,1.43263e-08,-1.43263e-08,2.30842e-16
0.799975,-0.34,0.119613,0.01,-9.50435,57.8,516.609,-516.611,-535.943,9.73323e-09,-9.73324e-09,-1.00975e-08,744.392,-744.393,1.18844e-05,1.40248e-08,-1.40248e-08,2.23909e-16
0.809975,-0.34,0.12884,0.01,-3.57513,57.8,510.485,-510.485,-520.236,9.61783e-09,-9.61783e-09,-9.80154e-09,728.862,-728.862,1.1511e-05,1.37322e-08,-1.37322e-08,2.16874e-16
0.819975,-0.34,0.137856,0.01,2.30305,57.8,504.349,-504.349,-505.095,9.50223e-09,-9.50223e-09,-9.51629e-09,713.785,-713.785,1.11345e-05,1.34481e-08,-1.34481e-08,2.0978e-16
0.829975,-0.34,0.147,0.01,8.1308,57.8,498.212,-498.212,-490.498,9.38661e-09,-9.3866e-09,-9.24128e-09,699.146,-699.145,1.07576e-05,1.31723e-08,-1.31723e-08,2.0268e-16
0.839975,-0.34,0.156249,0.01,13.9087,57.8,492.084,-492.083,-476.423,9.27114e-09,-9.27113e-09,-8.97609e-09,684.928,-684.927,1.03829e-05,1.29044e-08,-1.29044e-08,1.95621e-16
0.849975,-0.34,0.165585,0.01,19.6374,57.8,485.972,-485.97,-462.848,9.15598e-09,-9.15597e-09,-8.72033e-09,671.116,-671.115,1.00118e-05,1.26442e-08,-1.26442e-08,1.88628e-16
0.859975,-0.34,0.174994,0.01,25.3176,57.8,479.882,-479.881,-449.753,9.04126e-09,-9.04124e-09,-8.47361e-09,657.697,-657.695,9.64543e-06,1.23914e-08,-1.23914e-08,1.81725e-16
0.869975,-0.34,0.184449,0.01,30.9497,57.8,473.823,-473.821,-437.118,8.92709e-09,-8.92707e-09,-8.23557e-09,644.656,-644.654,9.28524e-06,1.21457e-08,-1.21457e-08,1.74939e-16
0.879975,-0.34,0.193599,0.01,36.5344,57.8,467.799,-467.797,-424.926,8.8136e-09,-8.81358e-09,-8.00585e-09,631.98,-631.978,8.93218e-06,1.19069e-08,-1.19068e-08,1.68288e-16
0.889975,-0.34,0.202829,0.01,42.0724,57.8,461.817,-461.814,-413.158,8.70088e-09,-8.70085e-09,-7.78413e-09,619.656,-619.654,8.58672e-06,1.16747e-08,-1.16746e-08,1.61779e-16
0.899975,-0.34,0.21213,0.01,47.5642,57.8,455.879,-455.876,-401.796,8.58901e-09,-8.58898e-09,-7.57008e-09,607.673,-607.67,8.24976e-06,1.14489e-08,-1.14489e-08,1.5543e-16
0.909975,-0.34,0.221491,0.01,53.0104,57.8,449.966,-450.233,-390.991,8.47877e-09,-8.48148e-09,-7.3665e-09,596.074,-596.341,-0.0525986,1.12315e-08,-1.12342e-08,-9.90989e-13
0.919975,-0.34,0.230906,0.01,58.4116,57.8,445.243,-447.578,-381.868,8.39879e-09,-8.42247e-09,-7.19461e-09,586.289,-588.624,0.223867,1.10562e-08,-1.10799e-08,4.21778e-12
0.929975,-0.34,0.240368,0.01,63.7684,57.8,441.331,-450.911,-374.715,8.35659e-09,-8.45377e-09,-7.05985e-09,577.82,-587.399,1.38994,1.09281e-08,-1.10253e-08,2.61873e-11
-0.930025,-0.33,0.237007,0.01,61.8668,54.45,449.24,-461.518,370.232,8.51733e-09,-8.64189e-09,6.97539e-09,580.753,-593.031,0.403977,1.09951e-08,-1.11197e-08,7.61117e-12
-0.920025,-0.33,0.227701,0.01,56.473,54.45,455.403,-459.207,375.992,8.59659e-09,-8.63518e-09,7.08391e-09,590.126,-593.93,-0.389114,1.11349e-08,-1.11735e-08,-7.33114e-12
-0.910025,-0.33,0.218299,0.01,51.0338,54.45,460.771,-460.882,384.728,8.68168e-09,-8.6828e-09,7.24849e-09,600.258,-600.369,-0.0709506,1.13097e-08,-1.13108e-08,-1.33675e-12
-0.900025,-0.33,0.208792,0.01,45.5485,54.45,466.984,-466.98,395.631,8.79823e-09,-8.79819e-09,7.45393e-09,612.045,-612.041,-8.82457e-06,1.15313e-08,-1.15312e-08,-1.6626e-16
-0.890025,-0.33,0.199334,0.01,40.0165,54.45,473.322,-473.318,406.935,8.91764e-09,-8.91761e-09,7.66689e-09,624.204,-624.2,-9.20803e-06,1.17603e-08,-1.17603e-08,-1.73485e-16
-0.880025,-0.33,0.189931,0.01,34.4372,54.45,479.722,-479.719,418.65,9.03823e-09,-9.0382e-09,7.8876e-09,636.711,-636.708,-9.60407e-06,1.1996e-08,-1.1996e-08,-1.80946e-16
-0.870025,-0.33,0.180592,0.01,28.8099,54.45,486.181,-486.178,430.793,9.15992e-09,-9.15989e-09,8.11638e-09,649.58,-649.577,-1.00116e-05,1.22385e-08,-1.22384e-08,-1.88624e-16
-0.860025,-0.33,0.171328,0.01,23.1339,54.45,492.694,-492.691,443.383,9.28263e-09,-9.2826e-09,8.35359e-09,662.824,-662.821,-1.04304e-05,1.2488e-08,-1.2488e-08,-1.96515e-16
-0.850025,-0.33,0.162151,0.01,17.4088,54.45,499.256,-499.254,456.439,9.40626e-09,-9.40624e-09,8.59957e-09,676.457,-676.454,-1.086e-05,1.27448e-08,-1.27448e-08,-2.04608e-16
-0.840025,-0.33,0.15289,0.01,11.6337,54.45,505.862,-505.86,469.981,9.53072e-09,-9.5307e-09,8.85472e-09,690.492,-690.49,-1.12992e-05,1.30093e-08,-1.30092e-08,-2.12884e-16
-0.830025,-0.33,0.143422,0.01,5.80795,54.45,512.505,-512.503,484.031,9.65588e-09,-9.65586e-09,9.11943e-09,704.945,-704.943,-1.17468e-05,1.32816e-08,-1.32815e-08,-2.21317e-16
-0.820025,-0.33,0.134031,0.01,-0.0689939,54.45,519.178,-519.177,498.61,9.78161e-09,-9.78159e-09,9.39411e-09,719.832,-719.831,-1.22014e-05,1.3562e-08,-1.3562e-08,-2.29882e-16
-0.810025,-0.33,0.124734,0.01,-5.99786,54.45,525.873,-525.872,513.742,9.90775e-09,-9.90774e-09,9.67919e-09,735.169,-735.168,-1.26619e-05,1.3851e-08,-1.3851e-08,-2.38558e-16
-0.800025,-0.33,0.115555,0.01,-11.9793,54.45,532.582,-532.582,529.45,1.00341e-08,-1.00341e-08,9.97514e-09,750.973,-750.973,-1.31255e-05,1.41488e-08,-1.41488e-08,-2.47292e-16
-0.790025,-0.33,0.106524,0.01,-18.014,54.45,539.294,-539.294,545.76,1.01606e-08,-1.01606e-08,1.02824e-08,767.262,-767.263,-1.35894e-05,1.44557e-08,-1.44557e-08,-2.56032e-16
-0.780025,-0.33,0.09753,0.01,-24.1027,54.45,545.998,-546,562.697,1.02869e-08,-1.02869e-08,1.06015e-08,784.055,-784.056,-1.40513e-05,1.47721e-08,-1.47721e-08,-2.64735e-16
-0.770025,-0.33,0.088041,0.01,-30.2459,54.45,552.683,-552.685,580.291,1.04129e-08,-1.04129e-08,1.0933e-08,801.371,-801.373,-1.45075e-05,1.50983e-08,-1.50983e-08,-2.7333e-16
-0.760025,-0.33,0.0786785,0.01,-36.4444,54.45,559.334,-559.337,598.569,1.05382e-08,-1.05382e-08,1.12774e-08,819.23,-819.233,-1.49388e-05,1.54348e-08,-1.54348e-08,-2.81456e-16
-0.750025,-0.33,0.069494,0.01,-42.6989,54.45,565.936,-565.94,617.561,1.06626e-08,-1.06626e-08,1.16352e-08,837.654,-837.658,-1.5019e-05,1.57819e-08,-1.57819e-08,-2.82966e-16
-0.740025,-0.33,0.0605683,0.01,-49.0099,54.45,572.473,-572.478,637.299,1.07858e-08,-1.07858e-08,1.20071e-08,856.665,-856.67,-1.30854e-05,1.61401e-08,-1.61401e-08,-2.46537e-16
-0.730025,-0.33,0.0520348,0.01,-55.3782,54.45,578.927,-578.932,657.816,1.09073e-08,-1.09074e-08,1.23936e-08,876.285,-876.291,-9.95765e-05,1.65097e-08,-1.65098e-08,-1.87608e-15
-0.720025,-0.33,0.042749,0.01,-61.8043,54.45,585.279,-585.285,679.145,1.1027e-08,-1.10271e-08,1.27955e-08,896.542,-896.548,-0.00238327,1.68914e-08,-1.68915e-08,-4.49021e-14
-0.710025,-0.33,0.0331901,0.01,-68.289,54.45,591.487,-591.561,701.345,1.11443e-08,-1.1145e-08,1.32137e-08,917.451,-917.526,-0.0026446,1.72856e-08,-1.72864e-08,-4.98258e-14
-0.700025,-0.33,0.0239934,0.01,-74.8329,54.45,597.577,-594.993,721.784,1.12475e-08,-1.12212e-08,1.35988e-08,937.522,-934.938,-0.662129,1.76522e-08,-1.7626e-08,-1.24749e-11
-0.690025,-0.33,0.0158047,0.01,-81.4365,54.45,603.17,-598.806,741.276,1.13451e-08,-1.13008e-08,1.39661e-08,956.473,-952.109,-2.52607,1.80015e-08,-1.79573e-08,-4.75926e-11
-0.680025,-0.33,0.0111307,0.01,-88.1021,54.45,604.352,-606.369,768.007,1.13951e-08,-1.14156e-08,1.44697e-08,976.895,-978.912,-0.314231,1.8414e-08,-1.84345e-08,-5.9203e-12
0.679975,-0.33,0.0111251,0.01,-88.1354,54.45,604.34,-606.661,-768.288,1.13962e-08,-1.14198e-08,-1.4475e-08,977.051,-979.372,0.305738,1.84183e-08,-1.84418e-08,5.76029e-12
0.689975,-0.33,0.0157692,0.01,-81.4695,54.45,603.183,-598.937,-741.445,1.13459e-08,-1.13028e-08,-1.39693e-08,956.59,-952.344,2.52924,1.80042e-08,-1.79612e-08,4.76523e-11
0.699975,-0.33,0.0239493,0.01,-74.8656,54.45,597.606,-595.049,-721.913,1.12481e-08,-1.12222e-08,-1.36013e-08,937.635,-935.078,0.664376,1.76545e-08,-1.76285e-08,1.25172e-11
0.709975,-0.33,0.0331432,0.01,-68.3214,54.45,591.517,-591.593,-701.458,1.11449e-08,-1.11456e-08,-1.32159e-08,917.557,-917.633,0.00245414,1.72876e-08,-1.72884e-08,4.62375e-14
0.719975,-0.33,0.0427009,0.01,-61.8365,54.45,585.31,-585.317,-679.253,1.10276e-08,-1.10277e-08,-1.27975e-08,896.644,-896.651,0.00241394,1.68933e-08,-1.68934e-08,4.548e-14
0.729975,-0.33,0.0519937,0.01,-55.41,54.45,578.959,-578.964,-657.92,1.09079e-08,-1.0908e-08,-1.23956e-08,876.384,-876.39,0.000101379,1.65116e-08,-1.65117e-08,1.91003e-15
0.739975,-0.33,0.0605248,0.01,-49.0414,54.45,572.506,-572.511,-637.399,1.07864e-08,-1.07864e-08,-1.2009e-08,856.761,-856.766,1.30812e-05,1.61419e-08,-1.61419e-08,2.46457e-16
0.749975,-0.33,0.0694489,0.01,-42.7301,54.45,565.969,-565.973,-617.657,1.06632e-08,-1.06632e-08,-1.1637e-08,837.747,-837.751,1.50161e-05,1.57837e-08,-1.57837e-08,2.82913e-16
0.759975,-0.33,0.0786324,0.01,-36.4754,54.45,559.367,-559.37,-598.661,1.05388e-08,-1.05388e-08,-1.12791e-08,819.321,-819.323,1.49409e-05,1.54365e-08,-1.54365e-08,2.81495e-16
0.769975,-0.33,0.087994,0.01,-30.2766,54.45,552.716,-552.718,-580.38,1.04135e-08,-1.04135e-08,-1.09347e-08,801.458,-801.46,1.45095e-05,1.51e-08,-1.51e-08,2.73367e-16
0.779975,-0.33,0.0974826,0.01,-24.1331,54.45,546.032,-546.033,-562.783,1.02876e-08,-1.02876e-08,-1.06032e-08,784.14,-784.141,1.40535e-05,1.47737e-08,-1.47737e-08,2.64777e-16
0.789975,-0.33,0.106479,0.01,-18.0442,54.45,539.327,-539.328,-545.842,1.01612e-08,-1.01612e-08,-1.0284e-08,767.345,-767.345,1.35918e-05,1.44572e-08,-1.44572e-08,2.56077e-16
0.799975,-0.33,0.11551,0.01,-12.0092,54.45,532.615,-532.615,-529.529,1.00348e-08,-1.00348e-08,-9.97664e-09,751.053,-751.053,1.31276e-05,1.41503e-08,-1.41503e-08,2.47331e-16
0.809975,-0.33,0.124688,0.01,-6.02748,54.45,525.906,-525.906,-513.818,9.90838e-09,-9.90837e-09,-9.68064e-09,735.246,-735.246,1.26644e-05,1.38525e-08,-1.38525e-08,2.38604e-16
0.819975,-0.33,0.133984,0.01,-0.0983495,54.45,519.211,-519.21,-498.684,9.78223e-09,-9.78222e-09,-9.3955e-09,719.907,-719.906,1.22042e-05,1.35635e-08,-1.35634e-08,2.29933e-16
0.829975,-0.33,0.143375,0.01,5.77886,54.45,512.538,-512.536,-484.102,9.6565e-09,-9.65648e-09,-9.12077e-09,705.018,-705.016,1.17489e-05,1.32829e-08,-1.32829e-08,2.21356e-16
0.839975,-0.33,0.152843,0.01,11.6048,54.45,505.895,-505.893,-470.05,9.53134e-09,-9.53132e-09,-8.85601e-09,690.563,-690.56,1.13012e-05,1.30106e-08,-1.30106e-08,2.12921e-16
0.849975,-0.33,0.162106,0.01,17.3802,54.45,499.289,-499.286,-456.505,9.40688e-09,-9.40685e-09,-8.60082e-09,676.525,-676.523,1.08622e-05,1.27461e-08,-1.27461e-08,2.0465e-16
0.859975,-0.33,0.171282,0.01,23.1056,54.45,492.727,-492.724,-443.446,9.28324e-09,-9.28321e-09,-8.35479e-09,662.891,-662.888,1.04328e-05,1.24892e-08,-1.24892e-08,1.9656e-16
0.869975,-0.33,0.180546,0.01,28.7818,54.45,486.213,-486.21,-430.854,9.16053e-09,-9.1605e-09,-8.11754e-09,649.645,-649.642,1.00139e-05,1.22397e-08,-1.22397e-08,1.88667e-16
0.879975,-0.33,0.189884,0.01,34.4093,54.45,479.754,-479.751,-418.709,9.03883e-09,-9.0388e-09,-7.88872e-09,636.774,-636.771,9.60629e-06,1.19972e-08,-1.19972e-08,1.80988e-16
0.889975,-0.33,0.199287,0.01,39.9889,54.45,473.354,-473.35,-406.992,8.91824e-09,-8.9182e-09,-7.66797e-09,624.265,-624.261,9.21042e-06,1.17615e-08,-1.17615e-08,1.7353e-16
0.899975,-0.33,0.208745,0.01,45.5211,54.45,467.015,-467.011,-395.687,8.79882e-09,-8.79878e-09,-7.45497e-09,612.104,-612.101,8.82681e-06,1.15324e-08,-1.15323e-08,1.66302e-16
0.909975,-0.33,0.218252,0.01,51.0066,54.45,460.802,-460.913,-384.781,8.68226e-09,-8.68339e-09,-7.2495e-09,600.316,-600.427,0.070958,1.13108e-08,-1.13119e-08,1.33689e-12
0.919975,-0.33,0.227655,0.01,56.4461,54.45,455.434,-459.238,-376.044,8.59717e-09,-8.63577e-09,-7.08488e-09,590.183,-593.987,0.38922,1.11359e-08,-1.11745e-08,7.33313e-12
0.929975,-0.33,0.236961,0.01,61.8401,54.45,449.271,-461.55,-370.283,8.51791e-09,-8.64248e-09,-6.97635e-09,580.808,-593.088,-0.404007,1.09962e-08,-1.11207e-08,-7.61172e-12
-0.940025,-0.32,0.243099,0.01,65.368,51.2,457.315,-456.992,353.566,8.61467e-09,-8.61139e-09,6.66138e-09,578.086,-577.762,1.20806,1.08901e-08,-1.08868e-08,2.27606e-11
-0.930025,-0.32,0.233607,0.01,59.9835,51.2,458.99,-463.494,361.604,8.66722e-09,-8.71291e-09,6.81282e-09,583.837,-588.34,1.24161,1.10194e-08,-1.10651e-08,2.33926e-11
-0.920025,-0.32,0.22416,0.01,54.5531,51.2,464.947,-466.774,369.19,8.76781e-09,-8.78634e-09,6.95575e-09,593.499,-595.326,0.408924,1.11898e-08,-1.12083e-08,7.70437e-12
-0.910025,-0.32,0.214762,0.01,49.0763,51.2,471.396,-471.4,378.299,8.88138e-09,-8.88143e-09,7.12738e-09,604.42,-604.424,-0.000619126,1.13876e-08,-1.13877e-08,-1.16647e-14
-0.900025,-0.32,0.205422,0.01,43.5523,51.2,478.052,-478.048,389.128,9.00676e-09,-9.00672e-09,7.3314e-09,616.405,-616.4,-9.39803e-06,1.16134e-08,-1.16134e-08,-1.77064e-16
-0.890025,-0.32,0.196146,0.01,37.9805,51.2,484.795,-484.79,400.359,9.13379e-09,-9.13374e-09,7.543e-09,628.74,-628.735,-9.82974e-06,1.18458e-08,-1.18458e-08,-1.85198e-16
-0.880025,-0.32,0.18668,0.01,32.3602,51.2,491.616,-491.612,412.004,9.26232e-09,-9.26227e-09,7.7624e-09,641.432,-641.427,-1.02782e-05,1.20849e-08,-1.20849e-08,-1.93648e-16
-0.870025,-0.32,0.17717,0.01,26.6908,51.2,498.515,-498.511,424.082,9.39229e-09,-9.39225e-09,7.98994e-09,654.494,-654.49,-1.07425e-05,1.2331e-08,-1.2331e-08,-2.02394e-16
-0.860025,-0.32,0.167716,0.01,20.9715,51.2,505.486,-505.483,436.61,9.52364e-09,-9.5236e-09,8.22599e-09,667.941,-667.937,-1.12223e-05,1.25844e-08,-1.25843e-08,-2.11436e-16
-0.850025,-0.32,0.158331,0.01,15.2016,51.2,512.527,-512.524,449.61,9.6563e-09,-9.65626e-09,8.47091e-09,681.787,-681.783,-1.17181e-05,1.28452e-08,-1.28452e-08,-2.20775e-16
-0.840025,-0.32,0.149025,0.01,9.38056,51.2,519.633,-519.629,463.101,9.79017e-09,-9.79013e-09,8.72509e-09,696.047,-696.043,-1.22292e-05,1.31139e-08,-1.31139e-08,-2.30405e-16
-0.830025,-0.32,0.139815,0.01,3.5075,51.2,526.797,-526.794,477.106,9.92515e-09,-9.92512e-09,8.98895e-09,710.736,-710.733,-1.27543e-05,1.33907e-08,-1.33906e-08,-2.40298e-16
-0.820025,-0.32,0.130721,0.01,-2.41823,51.2,534.015,-534.012,491.647,1.00611e-08,-1.00611e-08,9.26291e-09,725.871,-725.868,-1.32918e-05,1.36758e-08,-1.36758e-08,-2.50425e-16
-0.810025,-0.32,0.121268,0.01,-8.39737,51.2,541.279,-541.276,506.748,1.0198e-08,-1.0198e-08,9.54743e-09,741.469,-741.467,-1.38415e-05,1.39697e-08,-1.39697e-08,-2.60782e-16
-0.800025,-0.32,0.111805,0.01,-14.4306,51.2,548.581,-548.579,522.435,1.03356e-08,-1.03356e-08,9.84298e-09,757.549,-757.547,-1.44016e-05,1.42726e-08,-1.42726e-08,-2.71334e-16
-0.790025,-0.32,0.102444,0.01,-20.5187,51.2,555.913,-555.912,538.733,1.04737e-08,-1.04737e-08,1.015e-08,774.127,-774.126,-1.49692e-05,1.4585e-08,-1.4585e-08,-2.82029e-16
-0.780025,-0.32,0.0932151,0.01,-26.6625,51.2,563.265,-563.265,555.671,1.06122e-08,-1.06122e-08,1.04692e-08,791.225,-791.225,-1.55423e-05,1.49071e-08,-1.49071e-08,-2.92825e-16
-0.770025,-0.32,0.0841631,0.01,-32.8625,51.2,570.626,-570.626,573.276,1.07509e-08,-1.07509e-08,1.08008e-08,808.863,-808.863,-1.61193e-05,1.52395e-08,-1.52395e-08,-3.03698e-16
-0.760025,-0.32,0.0753511,0.01,-39.1196,51.2,577.984,-577.985,591.579,1.08896e-08,-1.08896e-08,1.11457e-08,827.062,-827.063,-1.67356e-05,1.55823e-08,-1.55823e-08,-3.15308e-16
-0.750025,-0.32,0.0659143,0.01,-45.4345,51.2,585.324,-585.326,610.612,1.10279e-08,-1.10279e-08,1.15043e-08,845.844,-845.845,-1.81404e-05,1.59362e-08,-1.59362e-08,-3.41776e-16
-0.740025,-0.32,0.0564251,0.01,-51.8079,51.2,592.632,-592.635,630.408,1.11655e-08,-1.11656e-08,1.18772e-08,865.232,-865.235,-2.16419e-05,1.63015e-08,-1.63015e-08,-4.07747e-16
-0.730025,-0.32,0.0471476,0.01,-58.2406,51.2,599.89,-599.895,651.001,1.13023e-08,-1.13023e-08,1.22652e-08,885.251,-885.256,0.000295246,1.66787e-08,-1.66787e-08,5.5626e-15
-0.720025,-0.32,0.0382361,0.01,-64.7333,51.2,607.071,-607.073,672.425,1.14376e-08,-1.14376e-08,1.26689e-08,905.919,-905.921,0.00711967,1.7068e-08,-1.70681e-08,1.34139e-13
-0.710025,-0.32,0.0300184,0.01,-71.2867,51.2,614.338,-614.048,694.55,1.15732e-08,-1.15703e-08,1.30857e-08,927.309,-927.019,-0.121681,1.74698e-08,-1.74668e-08,-2.29254e-12
-0.700025,-0.32,0.0213209,0.01,-77.9015,51.2,619.39,-614.919,714.925,1.16502e-08,-1.16049e-08,1.34696e-08,946.692,-942.22,1.07182,1.78168e-08,-1.77714e-08,2.01937e-11
-0.690025,-0.32,0.011344,0.01,-84.5783,51.2,620.591,-614.73,731.249,1.16668e-08,-1.16073e-08,1.37772e-08,960.129,-954.268,0.906246,1.80639e-08,-1.80044e-08,1.70742e-11
0.689975,-0.32,0.0112944,0.01,-84.6117,51.2,620.537,-614.943,-731.419,1.1667e-08,-1.16102e-08,-1.37804e-08,960.177,-954.583,-0.902654,1.8066e-08,-1.80092e-08,-1.70065e-11
0.699975,-0.32,0.0212712,0.01,-77.9346,51.2,619.418,-614.996,-715.061,1.1651e-08,-1.16061e-08,-1.34722e-08,946.804,-942.382,-1.06948,1.78191e-08,-1.77742e-08,-2.01497e-11
0.709975,-0.32,0.0299802,0.01,-71.3195,51.2,614.374,-614.09,-694.67,1.15739e-08,-1.1571e-08,-1.3088e-08,927.421,-927.138,0.119927,1.74719e-08,-1.7469e-08,2.25949e-12
0.719975,-0.32,0.0381931,0.01,-64.7658,51.2,607.106,-607.108,-672.533,1.14382e-08,-1.14383e-08,-1.26709e-08,906.023,-906.025,-0.00720172,1.707e-08,-1.707e-08,-1.35685e-13
0.729975,-0.32,0.0471022,0.01,-58.2728,51.2,599.926,-599.931,-651.105,1.1303e-08,-1.1303e-08,-1.22672e-08,885.352,-885.357,-0.000301412,1.66806e-08,-1.66806e-08,-5.67877e-15
0.739975,-0.32,0.0563784,0.01,-51.8398,51.2,592.669,-592.671,-630.508,1.11662e-08,-1.11663e-08,-1.18791e-08,865.33,-865.333,2.16006e-05,1.63033e-08,-1.63034e-08,4.06968e-16
0.749975,-0.32,0.0658667,0.01,-45.4661,51.2,585.361,-585.363,-610.709,1.10285e-08,-1.10286e-08,-1.15061e-08,845.938,-845.94,1.81547e-05,1.5938e-08,-1.5938e-08,3.42045e-16
0.759975,-0.32,0.075308,0.01,-39.1509,51.2,578.02,-578.021,-591.672,1.08902e-08,-1.08903e-08,-1.11474e-08,827.154,-827.155,1.67392e-05,1.55841e-08,-1.55841e-08,3.15376e-16
0.769975,-0.32,0.0841186,0.01,-32.8935,51.2,570.663,-570.663,-573.365,1.07516e-08,-1.07516e-08,-1.08025e-08,808.952,-808.952,1.61222e-05,1.52411e-08,-1.52411e-08,3.03751e-16
0.779975,-0.32,0.0931696,0.01,-26.6932,51.2,563.302,-563.301,-555.756,1.06129e-08,-1.06129e-08,-1.04708e-08,791.312,-791.311,1.55452e-05,1.49088e-08,-1.49088e-08,2.92881e-16
0.789975,-0.32,0.102397,0.01,-20.5492,51.2,555.95,-555.949,-538.816,1.04744e-08,-1.04744e-08,-1.01516e-08,774.211,-774.21,1.49721e-05,1.45866e-08,-1.45866e-08,2.82083e-16
0.799975,-0.32,0.111758,0.01,-14.4608,51.2,548.617,-548.616,-522.514,1.03363e-08,-1.03362e-08,-9.84447e-09,757.63,-757.628,1.44043e-05,1.42742e-08,-1.42742e-08,2.71385e-16
0.809975,-0.32,0.121221,0.01,-8.42723,51.2,541.315,-541.313,-506.825,1.01987e-08,-1.01987e-08,-9.54887e-09,741.548,-741.546,1.38445e-05,1.39712e-08,-1.39712e-08,2.60838e-16
0.819975,-0.32,0.130676,0.01,-2.44783,51.2,534.051,-534.048,-491.721,1.00618e-08,-1.00618e-08,-9.2643e-09,725.948,-725.945,1.32944e-05,1.36773e-08,-1.36772e-08,2.50475e-16
0.829975,-0.32,0.139769,0.01,3.47816,51.2,526.833,-526.83,-477.177,9.92582e-09,-9.92579e-09,-8.99029e-09,710.81,-710.807,1.27562e-05,1.33921e-08,-1.3392e-08,2.40334e-16
0.839975,-0.32,0.148979,0.01,9.35148,51.2,519.668,-519.665,-463.169,9.79083e-09,-9.7908e-09,-8.72638e-09,696.119,-696.115,1.22316e-05,1.31153e-08,-1.31152e-08,2.30451e-16
0.849975,-0.32,0.158284,0.01,15.1728,51.2,512.562,-512.559,-449.676,9.65696e-09,-9.65692e-09,-8.47215e-09,681.857,-681.853,1.1721e-05,1.28466e-08,-1.28465e-08,2.20831e-16
0.859975,-0.32,0.16767,0.01,20.9429,51.2,505.521,-505.517,-436.674,9.5243e-09,-9.52426e-09,-8.22719e-09,668.009,-668.005,1.12249e-05,1.25857e-08,-1.25856e-08,2.11484e-16
0.869975,-0.32,0.177122,0.01,26.6624,51.2,498.549,-498.545,-424.143,9.39294e-09,-9.3929e-09,-7.9911e-09,654.56,-654.556,1.07445e-05,1.23323e-08,-1.23322e-08,2.02432e-16
0.879975,-0.32,0.186632,0.01,32.3321,51.2,491.65,-491.646,-412.063,9.26296e-09,-9.26292e-09,-7.76351e-09,641.496,-641.491,1.02801e-05,1.20861e-08,-1.20861e-08,1.93683e-16
0.889975,-0.32,0.1961,0.01,37.9526,51.2,484.828,-484.824,-400.416,9.13443e-09,-9.13438e-09,-7.54407e-09,628.802,-628.797,9.83207e-06,1.1847e-08,-1.18469e-08,1.85242e-16
0.899975,-0.32,0.205375,0.01,43.5247,51.2,478.086,-478.081,-389.183,9.00739e-09,-9.00734e-09,-7.33243e-09,616.466,-616.461,9.40039e-06,1.16146e-08,-1.16145e-08,1.77109e-16
0.909975,-0.32,0.214716,0.01,49.0489,51.2,471.428,-471.433,-378.352,8.882e-09,-8.88205e-09,-7.12838e-09,604.479,-604.483,0.000619533,1.13888e-08,-1.13888e-08,1.16724e-14
0.919975,-0.32,0.224113,0.01,54.526,51.2,464.979,-466.807,-369.241,8.76842e-09,-8.78696e-09,-6.95671e-09,593.557,-595.384,-0.408961,1.11909e-08,-1.12094e-08,-7.70507e-12
0.929975,-0.32,0.23356,0.01,59.9566,51.2,459.022,-463.527,-361.654,8.66782e-09,-8.71352e-09,-6.81377e-09,583.893,-588.397,-1.24191,1.10205e-08,-1.10662e-08,-2.33983e-11
0.939975,-0.32,0.243052,0.01,65.3413,51.2,457.347,-457.024,-353.614,8.61527e-09,-8.612e-09,-6.6623e-09,578.141,-577.818,-1.20863,1.08911e-08,-1.08878e-08,-2.27713e-11
-0.940025,-0.31,0.240125,0.01,63.5655,48.05,464.875,-474.859,345.635,8.80193e-09,-8.90321e-09,6.51196e-09,578.306,-588.289,-1.67628,1.0939e-08,-1.10403e-08,-3.15821e-11
-0.930025,-0.31,0.230591,0.01,58.146,48.05,469.551,-471.987,352.485,8.85721e-09,-8.88192e-09,6.64102e-09,586.888,-589.324,-0.464267,1.10679e-08,-1.10926e-08,-8.74705e-12
-0.920025,-0.31,0.221015,0.01,52.6797,48.05,475.049,-475.28,361.241,8.95121e-09,-8.95355e-09,6.80599e-09,596.774,-597.005,0.0152011,1.12446e-08,-1.12469e-08,2.86397e-13
-0.910025,-0.31,0.211477,0.01,47.1659,48.05,481.989,-481.983,371.485,9.08093e-09,-9.08087e-09,6.999e-09,608.536,-608.53,-9.5017e-06,1.14651e-08,-1.14651e-08,-1.79018e-16
-0.900025,-0.31,0.201985,0.01,41.6039,48.05,489.039,-489.033,382.228,9.21375e-09,-9.21369e-09,7.20139e-09,620.691,-620.686,-9.96334e-06,1.16942e-08,-1.16941e-08,-1.87715e-16
-0.890025,-0.31,0.192544,0.01,35.9929,48.05,496.187,-496.182,393.369,9.34843e-09,-9.34838e-09,7.4113e-09,633.2,-633.194,-1.04447e-05,1.19298e-08,-1.19298e-08,-1.96785e-16
-0.880025,-0.31,0.183162,0.01,30.3324,48.05,503.434,-503.428,404.927,9.48496e-09,-9.4849e-09,7.62906e-09,646.074,-646.069,-1.0947e-05,1.21724e-08,-1.21723e-08,-2.06247e-16
-0.870025,-0.31,0.173849,0.01,24.6215,48.05,510.775,-510.77,416.92,9.62328e-09,-9.62322e-09,7.85501e-09,659.329,-659.323,-1.14698e-05,1.24221e-08,-1.24221e-08,-2.16097e-16
-0.860025,-0.31,0.164617,0.01,18.8596,48.05,518.21,-518.205,429.367,9.76335e-09,-9.7633e-09,8.08952e-09,672.977,-672.972,-1.2013e-05,1.26793e-08,-1.26792e-08,-2.26332e-16
-0.850025,-0.31,0.155062,0.01,13.0458,48.05,525.734,-525.729,442.289,9.90511e-09,-9.90506e-09,8.33298e-09,687.035,-687.03,-1.25776e-05,1.29441e-08,-1.29441e-08,-2.3697e-16
-0.840025,-0.31,0.145547,0.01,7.17942,48.05,533.344,-533.34,455.707,1.00485e-08,-1.00484e-08,8.58579e-09,701.517,-701.512,-1.31636e-05,1.3217e-08,-1.32169e-08,-2.48009e-16
-0.830025,-0.31,0.136102,0.01,1.25973,48.05,541.036,-541.032,469.644,1.01934e-08,-1.01934e-08,8.84837e-09,716.44,-716.436,-1.37696e-05,1.34981e-08,-1.34981e-08,-2.59428e-16
-0.820025,-0.31,0.126742,0.01,-4.71407,48.05,548.805,-548.801,484.123,1.03398e-08,-1.03398e-08,9.12117e-09,731.822,-731.818,-1.43946e-05,1.37879e-08,-1.37879e-08,-2.71202e-16
-0.810025,-0.31,0.117487,0.01,-10.7427,48.05,556.646,-556.642,499.17,1.04875e-08,-1.04875e-08,9.40464e-09,747.68,-747.676,-1.50388e-05,1.40867e-08,-1.40867e-08,-2.8334e-16
-0.800025,-0.31,0.108365,0.01,-16.8271,48.05,564.55,-564.547,514.809,1.06364e-08,-1.06364e-08,9.69929e-09,764.033,-764.029,-1.57013e-05,1.43948e-08,-1.43948e-08,-2.95822e-16
-0.790025,-0.31,0.0992073,0.01,-22.9679,48.05,572.512,-572.51,531.068,1.07865e-08,-1.07864e-08,1.00056e-08,780.9,-780.897,-1.63799e-05,1.47126e-08,-1.47126e-08,-3.08607e-16
-0.780025,-0.31,0.0896462,0.01,-29.1659,48.05,580.523,-580.521,547.976,1.09374e-08,-1.09374e-08,1.03242e-08,798.301,-798.299,-1.70723e-05,1.50405e-08,-1.50404e-08,-3.21653e-16
-0.770025,-0.31,0.0801923,0.01,-35.422,48.05,588.573,-588.571,565.563,1.1089e-08,-1.1089e-08,1.06555e-08,816.26,-816.258,-1.77732e-05,1.53788e-08,-1.53788e-08,-3.34858e-16
-0.760025,-0.31,0.0708884,0.01,-41.737,48.05,596.651,-596.65,583.86,1.12412e-08,-1.12412e-08,1.10003e-08,834.796,-834.795,-1.84064e-05,1.5728e-08,-1.5728e-08,-3.46788e-16
-0.750025,-0.31,0.0618024,0.01,-48.1116,48.05,604.744,-604.744,602.901,1.13937e-08,-1.13937e-08,1.1359e-08,853.935,-853.935,-1.7134e-05,1.60886e-08,-1.60886e-08,-3.22815e-16
-0.740025,-0.31,0.0530462,0.01,-54.5467,48.05,612.841,-612.841,622.72,1.15463e-08,-1.15463e-08,1.17324e-08,873.701,-873.701,-1.53867e-05,1.6461e-08,-1.6461e-08,-2.89895e-16
-0.730025,-0.31,0.0440246,0.01,-61.0431,48.05,620.926,-620.925,643.352,1.16986e-08,-1.16986e-08,1.21211e-08,894.12,-894.12,-0.00106802,1.68457e-08,-1.68457e-08,-2.01221e-14
-0.720025,-0.31,0.0343114,0.01,-67.6016,48.05,628.997,-629.013,664.839,1.18507e-08,-1.18509e-08,1.25259e-08,915.229,-915.244,-0.0201883,1.72435e-08,-1.72437e-08,-3.8036e-13
-0.710025,-0.31,0.0248269,0.01,-74.2229,48.05,637.061,-633.642,684.287,1.19877e-08,-1.19531e-08,1.28924e-08,935.476,-932.057,-0.797077,1.761e-08,-1.75754e-08,-1.50174e-11
-0.700025,-0.31,0.0159837,0.01,-80.908,48.05,644.544,-637.025,702.529,1.21109e-08,-1.20346e-08,1.32361e-08,954.625,-947.107,-2.31991,1.7953e-08,-1.78767e-08,-4.37084e-11
-0.690025,-0.31,0.0097253,0.01,-87.6584,48.05,647.543,-641.512,725.563,1.21739e-08,-1.21127e-08,1.367e-08,973.509,-967.478,0.000153741,1.83153e-08,-1.82541e-08,2.89658e-15
0.689975,-0.31,0.00970984,0.01,-87.6921,48.05,647.563,-641.773,-725.777,1.21753e-08,-1.21165e-08,-1.36741e-08,973.642,-967.851,0.015014,1.83188e-08,-1.82601e-08,2.82873e-13
0.699975,-0.31,0.0159431,0.01,-80.9414,48.05,644.576,-637.145,-702.675,1.21119e-08,-1.20365e-08,-1.32388e-08,954.741,-947.31,2.32831,1.79556e-08,-1.78802e-08,4.38667e-11
0.709975,-0.31,0.0247807,0.01,-74.256,48.05,637.104,-633.701,-684.406,1.19886e-08,-1.19541e-08,-1.28946e-08,935.59,-932.187,0.801079,1.76123e-08,-1.75777e-08,1.50928e-11
0.719975,-0.31,0.0342635,0.01,-67.6343,48.05,629.037,-629.054,-664.948,1.18515e-08,-1.18517e-08,-1.2528e-08,915.336,-915.352,0.020493,1.72455e-08,-1.72457e-08,3.86099e-13
0.729975,-0.31,0.043976,0.01,-61.0756,48.05,620.966,-620.965,-643.457,1.16994e-08,-1.16993e-08,-1.21231e-08,894.224,-894.223,0.00108775,1.68477e-08,-1.68477e-08,2.04938e-14
0.739975,-0.31,0.0530037,0.01,-54.5789,48.05,612.881,-612.881,-622.82,1.1547e-08,-1.1547e-08,-1.17343e-08,873.801,-873.801,1.56184e-05,1.64629e-08,-1.64629e-08,2.9426e-16
0.749975,-0.31,0.0617579,0.01,-48.1435,48.05,604.785,-604.785,-602.997,1.13945e-08,-1.13945e-08,-1.13608e-08,854.032,-854.032,1.7109e-05,1.60905e-08,-1.60905e-08,3.22343e-16
0.759975,-0.31,0.0708426,0.01,-41.7685,48.05,596.691,-596.69,-583.953,1.1242e-08,-1.1242e-08,-1.1002e-08,834.89,-834.889,1.84085e-05,1.57298e-08,-1.57298e-08,3.46827e-16
0.769975,-0.31,0.0801456,0.01,-35.4533,48.05,588.613,-588.611,-565.652,1.10898e-08,-1.10898e-08,-1.06572e-08,816.35,-816.349,1.77767e-05,1.53805e-08,-1.53805e-08,3.34924e-16
0.779975,-0.31,0.0895989,0.01,-29.1969,48.05,580.563,-580.561,-548.062,1.09381e-08,-1.09381e-08,-1.03258e-08,798.389,-798.387,1.70756e-05,1.50421e-08,-1.50421e-08,3.21714e-16
0.789975,-0.31,0.0991595,0.01,-22.9986,48.05,572.552,-572.549,-531.15,1.07872e-08,-1.07872e-08,-1.00072e-08,780.985,-780.982,1.63831e-05,1.47142e-08,-1.47142e-08,3.08668e-16
0.799975,-0.31,0.10832,0.01,-16.8575,48.05,564.59,-564.587,-514.888,1.06372e-08,-1.06372e-08,-9.70079e-09,764.115,-764.112,1.57047e-05,1.43964e-08,-1.43963e-08,2.95886e-16
0.809975,-0.31,0.117441,0.01,-10.7729,48.05,556.685,-556.681,-499.246,1.04882e-08,-1.04882e-08,-9.40608e-09,747.76,-747.756,1.50424e-05,1.40882e-08,-1.40882e-08,2.83407e-16
0.819975,-0.31,0.126695,0.01,-4.74391,48.05,548.844,-548.84,-484.197,1.03405e-08,-1.03405e-08,-9.12255e-09,731.9,-731.896,1.43974e-05,1.37894e-08,-1.37894e-08,2.71255e-16
0.829975,-0.31,0.136055,0.01,1.23016,48.05,541.075,-541.07,-469.715,1.01941e-08,-1.01941e-08,-8.8497e-09,716.516,-716.511,1.37718e-05,1.34996e-08,-1.34995e-08,2.59468e-16
0.839975,-0.31,0.1455,0.01,7.15011,48.05,533.382,-533.378,-455.775,1.00492e-08,-1.00492e-08,-8.58707e-09,701.59,-701.585,1.31665e-05,1.32183e-08,-1.32183e-08,2.48064e-16
0.849975,-0.31,0.155014,0.01,13.0167,48.05,525.772,-525.767,-442.355,9.90582e-09,-9.90577e-09,-8.33422e-09,687.106,-687.101,1.25811e-05,1.29454e-08,-1.29454e-08,2.37036e-16
0.859975,-0.31,0.164572,0.01,18.8308,48.05,518.247,-518.242,-429.43,9.76405e-09,-9.764e-09,-8.09071e-09,673.046,-673.041,1.20162e-05,1.26806e-08,-1.26805e-08,2.26392e-16
0.869975,-0.31,0.173803,0.01,24.593,48.05,510.812,-510.807,-416.98,9.62397e-09,-9.62392e-09,-7.85615e-09,659.395,-659.39,1.14721e-05,1.24234e-08,-1.24233e-08,2.16141e-16
0.879975,-0.31,0.183116,0.01,30.3041,48.05,503.47,-503.464,-404.985,9.48564e-09,-9.48559e-09,-7.63016e-09,646.139,-646.134,1.0949e-05,1.21736e-08,-1.21736e-08,2.06286e-16
0.889975,-0.31,0.192497,0.01,35.9649,48.05,496.223,-496.218,-393.426,9.34911e-09,-9.34905e-09,-7.41236e-09,633.263,-633.257,1.04469e-05,1.1931e-08,-1.1931e-08,1.96827e-16
0.899975,-0.31,0.201938,0.01,41.5761,48.05,489.074,-489.068,-382.282,9.21441e-09,-9.21435e-09,-7.20242e-09,620.753,-620.747,9.96537e-06,1.16953e-08,-1.16953e-08,1.87753e-16
0.909975,-0.31,0.21143,0.01,47.1383,48.05,482.024,-482.018,-371.538,9.08159e-09,-9.08153e-09,-6.99999e-09,608.595,-608.589,9.50375e-06,1.14663e-08,-1.14662e-08,1.79056e-16
0.919975,-0.31,0.220967,0.01,52.6524,48.05,475.084,-475.315,-361.292,8.95185e-09,-8.9542e-09,-6.80694e-09,596.832,-597.063,-0.0152229,1.12457e-08,-1.1248e-08,-2.86808e-13
0.929975,-0.31,0.230543,0.01,58.1189,48.05,469.585,-472.021,-352.534,8.85785e-09,-8.88256e-09,-6.64194e-09,586.945,-589.381,0.464218,1.1069e-08,-1.10937e-08,8.74613e-12
0.939975,-0.31,0.240078,0.01,63.5387,48.05,464.909,-474.894,-345.683,8.80257e-09,-8.90387e-09,-6.51286e-09,578.361,-588.346,1.67639,1.09401e-08,-1.10414e-08,3.15842e-11
-0.940025,-0.3,0.236814,0.01,61.8091,45,472.072,-484.214,340.351,8.94691e-09,-9.07009e-09,6.41242e-09,580.836,-592.978,0.450586,1.09961e-08,-1.11193e-08,8.48931e-12
-0.930025,-0.3,0.227335,0.01,56.3554,45,478.934,-482.773,345.89,9.04008e-09,-9.07902e-09,6.51677e-09,590.415,-594.253,-0.29028,1.11404e-08,-1.11794e-08,-5.46904e-12
-0.920025,-0.3,0.217904,0.01,50.8538,45,485.231,-485.356,354.049,9.14257e-09,-9.14384e-09,6.67049e-09,600.654,-600.779,-0.075003,1.13172e-08,-1.13185e-08,-1.4131e-12
-0.910025,-0.3,0.208525,0.01,45.3037,45,492.485,-492.479,364.295,9.27868e-09,-9.27861e-09,6.86352e-09,612.579,-612.572,-1.00074e-05,1.15413e-08,-1.15412e-08,-1.88545e-16
-0.900025,-0.3,0.198992,0.01,39.7044,45,499.926,-499.919,374.929,9.41886e-09,-9.41879e-09,7.06388e-09,624.898,-624.892,-1.05154e-05,1.17734e-08,-1.17734e-08,-1.98116e-16
-0.890025,-0.3,0.189402,0.01,34.055,45,507.483,-507.476,385.963,9.56124e-09,-9.56117e-09,7.27176e-09,637.579,-637.572,-1.10473e-05,1.20123e-08,-1.20123e-08,-2.08137e-16
-0.880025,-0.3,0.179856,0.01,28.355,45,515.155,-515.149,397.415,9.7058e-09,-9.70573e-09,7.48752e-09,650.634,-650.627,-1.16042e-05,1.22583e-08,-1.22582e-08,-2.1863e-16
-0.870025,-0.3,0.170363,0.01,22.6034,45,522.943,-522.936,409.304,9.85252e-09,-9.85245e-09,7.71152e-09,664.078,-664.071,-1.21868e-05,1.25116e-08,-1.25115e-08,-2.29607e-16
-0.860025,-0.3,0.160931,0.01,16.7995,45,530.843,-530.837,421.649,1.00014e-08,-1.00013e-08,7.94411e-09,677.926,-677.919,-1.27957e-05,1.27725e-08,-1.27724e-08,-2.41078e-16
-0.850025,-0.3,0.151572,0.01,10.9425,45,538.854,-538.848,434.472,1.01523e-08,-1.01522e-08,8.18571e-09,692.193,-692.187,-1.34313e-05,1.30413e-08,-1.30412e-08,-2.53054e-16
-0.840025,-0.3,0.1423,0.01,5.03162,45,546.974,-546.968,447.795,1.03053e-08,-1.03052e-08,8.43672e-09,706.896,-706.89,-1.40941e-05,1.33183e-08,-1.33182e-08,-2.65541e-16
-0.830025,-0.3,0.133038,0.01,-0.933941,45,555.199,-555.193,461.641,1.04602e-08,-1.04602e-08,8.69758e-09,722.052,-722.046,-1.4784e-05,1.36038e-08,-1.36038e-08,-2.7854e-16
-0.820025,-0.3,0.123446,0.01,-6.95502,45,563.525,-563.519,476.033,1.06171e-08,-1.06171e-08,8.96874e-09,737.678,-737.672,-1.55003e-05,1.38983e-08,-1.38982e-08,-2.92036e-16
-0.810025,-0.3,0.113924,0.01,-13.0325,45,571.948,-571.942,490.998,1.07758e-08,-1.07757e-08,9.25069e-09,753.793,-753.788,-1.62438e-05,1.42019e-08,-1.42018e-08,-3.06042e-16
-0.800025,-0.3,0.104491,0.01,-19.1671,45,580.462,-580.457,506.562,1.09362e-08,-1.09362e-08,9.54393e-09,770.417,-770.412,-1.70139e-05,1.45151e-08,-1.4515e-08,-3.20551e-16
-0.790025,-0.3,0.0951748,0.01,-25.3598,45,589.063,-589.058,522.754,1.10983e-08,-1.10982e-08,9.84899e-09,787.571,-787.566,-1.78094e-05,1.48383e-08,-1.48382e-08,-3.35539e-16
-0.780025,-0.3,0.0860117,0.01,-31.6113,45,597.742,-597.738,539.603,1.12618e-08,-1.12617e-08,1.01664e-08,805.275,-805.27,-1.863e-05,1.51718e-08,-1.51718e-08,-3.51e-16
-0.770025,-0.3,0.0770571,0.01,-37.9227,45,606.491,-606.487,557.14,1.14266e-08,-1.14266e-08,1.04968e-08,823.551,-823.548,-1.94709e-05,1.55162e-08,-1.55161e-08,-3.66843e-16
-0.760025,-0.3,0.0676207,0.01,-44.2947,45,615.301,-615.298,575.398,1.15926e-08,-1.15926e-08,1.08408e-08,842.425,-842.422,-2.04498e-05,1.58718e-08,-1.58717e-08,-3.85286e-16
-0.750025,-0.3,0.0580252,0.01,-50.7283,45,624.162,-624.16,594.412,1.17596e-08,-1.17595e-08,1.11991e-08,861.919,-861.917,-2.69444e-05,1.6239e-08,-1.6239e-08,-5.07648e-16
-0.740025,-0.3,0.048593,0.01,-57.2242,45,633.061,-633.061,614.217,1.19272e-08,-1.19272e-08,1.15722e-08,882.06,-882.059,-3.21183e-05,1.66185e-08,-1.66185e-08,-6.05128e-16
-0.730025,-0.3,0.0394417,0.01,-63.7835,45,641.978,-641.982,634.852,1.20953e-08,-1.20953e-08,1.1961e-08,902.869,-902.873,0.00343158,1.70106e-08,-1.70106e-08,6.4653e-14
-0.720025,-0.3,0.0308223,0.01,-70.4069,45,651.009,-650.465,655.97,1.2263e-08,-1.22575e-08,1.23588e-08,924.261,-923.717,-0.14355,1.74112e-08,-1.74057e-08,-2.70456e-12
-0.710025,-0.3,0.0230575,0.01,-77.0955,45,657.985,-651.674,675.21,1.23694e-08,-1.23054e-08,1.27213e-08,943.745,-937.435,1.11283,1.77533e-08,-1.76892e-08,2.09663e-11
-0.700025,-0.3,0.0130672,0.01,-83.8501,45,664.243,-648.095,690.028,1.24445e-08,-1.22807e-08,1.30005e-08,960.28,-944.131,0.748533,1.8022e-08,-1.78582e-08,1.41028e-11
0.699975,-0.3,0.0130175,0.01,-83.8838,45,664.265,-648.235,-690.158,1.24454e-08,-1.22828e-08,-1.3003e-08,960.371,-944.341,-0.731204,1.80243e-08,-1.78616e-08,-1.37763e-11
0.709975,-0.3,0.0230078,0.01,-77.1289,45,658.03,-651.74,-675.325,1.23703e-08,-1.23065e-08,-1.27235e-08,943.856,-937.566,-1.10639,1.77554e-08,-1.76916e-08,-2.08451e-11
0.719975,-0.3,0.0307815,0.01,-70.44,45,651.054,-650.511,-656.081,1.22639e-08,-1.22584e-08,-1.23609e-08,924.371,-923.828,0.142661,1.74133e-08,-1.74078e-08,2.68782e-12
0.729975,-0.3,0.0393972,0.01,-63.8162,45,642.023,-642.027,-634.957,1.20961e-08,-1.20961e-08,-1.1963e-08,902.974,-902.978,-0.00349642,1.70126e-08,-1.70126e-08,-6.58746e-14
0.739975,-0.3,0.0485467,0.01,-57.2567,45,633.106,-633.105,-614.318,1.19281e-08,-1.19281e-08,-1.15741e-08,882.162,-882.161,3.13429e-05,1.66204e-08,-1.66204e-08,5.90519e-16
0.749975,-0.3,0.0579778,0.01,-50.7604,45,624.206,-624.204,-594.508,1.17604e-08,-1.17604e-08,-1.12009e-08,862.018,-862.015,2.70331e-05,1.62409e-08,-1.62409e-08,5.09319e-16
0.759975,-0.3,0.0675727,0.01,-44.3266,45,615.345,-615.342,-575.491,1.15934e-08,-1.15934e-08,-1.08426e-08,842.52,-842.517,2.04578e-05,1.58736e-08,-1.58735e-08,3.85436e-16
0.769975,-0.3,0.0770132,0.01,-37.9542,45,606.535,-606.531,-557.229,1.14274e-08,-1.14274e-08,-1.04985e-08,823.644,-823.64,1.94756e-05,1.55179e-08,-1.55179e-08,3.66931e-16
0.779975,-0.3,0.0859666,0.01,-31.6426,45,597.785,-597.781,-539.688,1.12626e-08,-1.12626e-08,-1.0168e-08,805.364,-805.36,1.86341e-05,1.51735e-08,-1.51735e-08,3.51077e-16
0.789975,-0.3,0.0951288,0.01,-25.3907,45,589.106,-589.101,-522.836,1.10991e-08,-1.1099e-08,-9.85054e-09,787.657,-787.653,1.78133e-05,1.48399e-08,-1.48399e-08,3.35612e-16
0.799975,-0.3,0.104445,0.01,-19.1977,45,580.505,-580.5,-506.641,1.0937e-08,-1.0937e-08,-9.54542e-09,770.501,-770.496,1.70178e-05,1.45167e-08,-1.45166e-08,3.20625e-16
0.809975,-0.3,0.113877,0.01,-13.0628,45,571.99,-571.985,-491.074,1.07766e-08,-1.07765e-08,-9.25212e-09,753.875,-753.869,1.6248e-05,1.42034e-08,-1.42034e-08,3.06121e-16
0.819975,-0.3,0.123398,0.01,-6.98511,45,563.566,-563.561,-476.106,1.06179e-08,-1.06178e-08,-8.97012e-09,737.757,-737.751,1.55038e-05,1.38997e-08,-1.38997e-08,2.92101e-16
0.829975,-0.3,0.13299,0.01,-0.963746,45,555.24,-555.234,-461.711,1.0461e-08,-1.0461e-08,-8.6989e-09,722.128,-722.122,1.47868e-05,1.36053e-08,-1.36052e-08,2.78592e-16
0.839975,-0.3,0.142254,0.01,5.00209,45,547.014,-547.008,-447.863,1.0306e-08,-1.0306e-08,-8.43799e-09,706.97,-706.964,1.40974e-05,1.33197e-08,-1.33196e-08,2.65604e-16
0.849975,-0.3,0.151525,0.01,10.9132,45,538.894,-538.888,-434.537,1.01531e-08,-1.0153e-08,-8.18694e-09,692.265,-692.259,1.34349e-05,1.30426e-08,-1.30426e-08,2.53121e-16
0.859975,-0.3,0.160884,0.01,16.7705,45,530.883,-530.876,-421.712,1.00021e-08,-1.0002e-08,-7.94529e-09,677.996,-677.989,1.2799e-05,1.27738e-08,-1.27737e-08,2.4114e-16
0.869975,-0.3,0.170316,0.01,22.5746,45,522.982,-522.975,-409.364,9.85325e-09,-9.85319e-09,-7.71265e-09,664.146,-664.139,1.21899e-05,1.25129e-08,-1.25128e-08,2.29666e-16
0.879975,-0.3,0.179809,0.01,28.3265,45,515.194,-515.187,-397.473,9.70652e-09,-9.70646e-09,-7.48862e-09,650.7,-650.693,1.16073e-05,1.22595e-08,-1.22595e-08,2.18688e-16
0.889975,-0.3,0.189354,0.01,34.0268,45,507.521,-507.514,-386.019,9.56195e-09,-9.56188e-09,-7.27281e-09,637.643,-637.636,1.10502e-05,1.20135e-08,-1.20135e-08,2.08192e-16
0.899975,-0.3,0.198944,0.01,39.6764,45,499.963,-499.956,-374.983,9.41956e-09,-9.41949e-09,-7.06489e-09,624.961,-624.954,1.05178e-05,1.17746e-08,-1.17745e-08,1.98161e-16
0.909975,-0.3,0.208478,0.01,45.276,45,492.522,-492.515,-364.347,9.27937e-09,-9.2793e-09,-6.8645e-09,612.64,-612.633,1.00097e-05,1.15425e-08,-1.15424e-08,1.88588e-16
0.919975,-0.3,0.217857,0.01,50.8263,45,485.267,-485.392,-354.099,9.14325e-09,-9.14452e-09,-6.67143e-09,600.713,-600.838,0.0750127,1.13183e-08,-1.13196e-08,1.41328e-12
0.929975,-0.3,0.227288,0.01,56.3281,45,478.969,-482.809,-345.938,9.04075e-09,-9.0797e-09,-6.51768e-09,590.472,-594.311,0.290371,1.11415e-08,-1.11805e-08,5.47077e-12
0.939975,-0.3,0.236766,0.01,61.7821,45,472.107,-484.251,-340.399,8.94758e-09,-9.07077e-09,-6.41331e-09,580.892,-593.036,-0.450633,1.09971e-08,-1.11203e-08,-8.49019e-12
-0.950025,-0.29,0.243518,0.01,65.5392,42.05,479.077,-478.592,322.879,9.02398e-09,-9.01906e-09,6.08323e-09,577.766,-577.281,0.420412,1.08833e-08,-1.08784e-08,7.9208e-12
-0.940025,-0.29,0.233883,0.01,60.0999,42.05,481.174,-485.4,330.739,9.08398e-09,-9.12684e-09,6.23132e-09,583.51,-587.735,0.977934,1.1012e-08,-1.10549e-08,1.84248e-11
-0.930025,-0.29,0.224281,0.01,54.6125,42.05,487.759,-489.474,338.078,9.19712e-09,-9.21452e-09,6.36959e-09,593.317,-595.032,0.443,1.11859e-08,-1.12033e-08,8.34638e-12
-0.920025,-0.29,0.214716,0.01,49.0764,42.05,495.169,-495.171,346.601,9.32928e-09,-9.3293e-09,6.53017e-09,604.421,-604.423,-7.21699e-06,1.13877e-08,-1.13877e-08,-1.35972e-16
-0.910025,-0.29,0.205191,0.01,43.4908,42.05,502.864,-502.856,356.721,9.47422e-09,-9.47414e-09,6.72084e-09,616.541,-616.534,-1.04944e-05,1.1616e-08,-1.16159e-08,-1.9772e-16
-0.900025,-0.29,0.195714,0.01,37.8549,42.05,510.696,-510.688,367.23,9.62177e-09,-9.6217e-09,6.91882e-09,629.022,-629.015,-1.10484e-05,1.18511e-08,-1.1851e-08,-2.08159e-16
-0.890025,-0.29,0.186292,0.01,32.1679,42.05,518.662,-518.654,378.139,9.77186e-09,-9.77178e-09,7.12435e-09,641.872,-641.865,-1.16311e-05,1.20932e-08,-1.20931e-08,-2.19136e-16
-0.880025,-0.29,0.176933,0.01,26.429,42.05,526.763,-526.755,389.466,9.92448e-09,-9.9244e-09,7.33776e-09,655.106,-655.098,-1.22435e-05,1.23425e-08,-1.23425e-08,-2.30674e-16
-0.870025,-0.29,0.167402,0.01,20.6375,42.05,534.997,-534.99,401.231,1.00796e-08,-1.00795e-08,7.55942e-09,668.737,-668.729,-1.28871e-05,1.25994e-08,-1.25993e-08,-2.428e-16
-0.860025,-0.29,0.157793,0.01,14.7924,42.05,543.366,-543.358,413.454,1.02373e-08,-1.02372e-08,7.78971e-09,682.782,-682.774,-1.35624e-05,1.2864e-08,-1.28639e-08,-2.55523e-16
-0.850025,-0.29,0.148236,0.01,8.89307,42.05,551.866,-551.859,426.156,1.03974e-08,-1.03974e-08,8.02903e-09,697.257,-697.249,-1.42702e-05,1.31367e-08,-1.31366e-08,-2.68858e-16
-0.840025,-0.29,0.138741,0.01,2.93852,42.05,560.498,-560.491,439.361,1.05601e-08,-1.056e-08,8.27781e-09,712.178,-712.17,-1.50117e-05,1.34178e-08,-1.34177e-08,-2.82828e-16
-0.830025,-0.29,0.129322,0.01,-3.07209,42.05,569.259,-569.252,453.09,1.07251e-08,-1.07251e-08,8.53649e-09,727.563,-727.556,-1.57878e-05,1.37077e-08,-1.37076e-08,-2.97451e-16
-0.820025,-0.29,0.119998,0.01,-9.13963,42.05,578.147,-578.14,467.371,1.08926e-08,-1.08925e-08,8.80554e-09,743.431,-743.424,-1.65986e-05,1.40066e-08,-1.40066e-08,-3.12727e-16
-0.810025,-0.29,0.110792,0.01,-15.265,42.05,587.158,-587.151,482.228,1.10624e-08,-1.10623e-08,9.08545e-09,759.802,-759.795,-1.74448e-05,1.43151e-08,-1.4315e-08,-3.28671e-16
-0.800025,-0.29,0.101459,0.01,-21.449,42.05,596.289,-596.282,497.689,1.12344e-08,-1.12343e-08,9.37675e-09,776.695,-776.689,-1.83269e-05,1.46334e-08,-1.46333e-08,-3.4529e-16
-0.790025,-0.29,0.0918354,0.01,-27.6927,42.05,605.534,-605.528,513.783,1.14086e-08,-1.14085e-08,9.67997e-09,794.132,-794.126,-1.92442e-05,1.49619e-08,-1.49618e-08,-3.62573e-16
-0.780025,-0.29,0.0823013,0.01,-33.997,42.05,614.89,-614.884,530.542,1.15848e-08,-1.15848e-08,9.99571e-09,812.136,-812.13,-2.01965e-05,1.53011e-08,-1.5301e-08,-3.80514e-16
-0.770025,-0.29,0.0728923,0.01,-40.3627,42.05,624.348,-624.342,547.996,1.1763e-08,-1.1763e-08,1.03246e-08,830.729,-830.724,-2.12229e-05,1.56514e-08,-1.56513e-08,-3.99852e-16
-0.760025,-0.29,0.0636637,0.01,-46.7909,42.05,633.901,-633.896,566.181,1.1943e-08,-1.1943e-08,1.06672e-08,849.937,-849.932,-2.20271e-05,1.60133e-08,-1.60132e-08,-4.15004e-16
-0.750025,-0.29,0.0547068,0.01,-53.2825,42.05,643.541,-643.537,585.131,1.21247e-08,-1.21246e-08,1.10242e-08,869.784,-869.78,-3.64964e-06,1.63872e-08,-1.63872e-08,-6.87613e-17
-0.740025,-0.29,0.0459203,0.01,-59.8384,42.05,653.258,-653.252,604.885,1.23077e-08,-1.23077e-08,1.13964e-08,890.3,-890.294,2.12452e-05,1.67737e-08,-1.67737e-08,4.00273e-16
-0.730025,-0.29,0.0360976,0.01,-66.4596,42.05,663.054,-663.029,625.476,1.24922e-08,-1.2492e-08,1.17843e-08,911.519,-911.494,-0.00817725,1.71734e-08,-1.71732e-08,-1.54064e-13
-0.720025,-0.29,0.0264083,0.01,-73.1472,42.05,672.794,-668.75,643.874,1.26582e-08,-1.26172e-08,1.2131e-08,931.811,-927.767,-0.774503,1.75383e-08,-1.74973e-08,-1.45921e-11
-0.710025,-0.29,0.017081,0.01,-79.902,42.05,682.664,-671.064,660.559,1.28113e-08,-1.26937e-08,1.24453e-08,951.569,-939.969,-2.18289,1.78777e-08,-1.776e-08,-4.11269e-11
-0.700025,-0.29,0.00928037,0.01,-86.7251,42.05,686.446,-670.73,680.642,1.28647e-08,-1.27053e-08,1.28237e-08,968.979,-953.263,1.35853,1.81878e-08,-1.80284e-08,2.55954e-11
0.699975,-0.29,0.00925216,0.01,-86.7592,42.05,686.493,-670.86,-680.77,1.2866e-08,-1.27074e-08,-1.28261e-08,969.091,-953.457,-1.33794,1.81903e-08,-1.80317e-08,-2.52076e-11
0.709975,-0.29,0.0170365,0.01,-79.9357,42.05,682.711,-671.14,-660.676,1.28124e-08,-1.2695e-08,-1.24475e-08,951.68,-940.109,2.18918,1.78799e-08,-1.77625e-08,4.12455e-11
0.719975,-0.29,0.0263607,0.01,-73.1806,42.05,672.845,-668.804,-643.983,1.26592e-08,-1.26182e-08,-1.2133e-08,931.923,-927.883,0.776575,1.75404e-08,-1.74994e-08,1.46311e-11
0.729975,-0.29,0.036049,0.01,-66.4927,42.05,663.103,-663.079,-625.581,1.24931e-08,-1.24929e-08,-1.17863e-08,911.626,-911.602,0.00838056,1.71755e-08,-1.71752e-08,1.57895e-13
0.739975,-0.29,0.0458712,0.01,-59.8712,42.05,653.307,-653.301,-604.986,1.23087e-08,-1.23086e-08,-1.13983e-08,890.404,-890.398,-1.88217e-05,1.67757e-08,-1.67756e-08,-3.54612e-16
0.749975,-0.29,0.0546632,0.01,-53.3149,42.05,643.589,-643.585,-585.228,1.21256e-08,-1.21255e-08,-1.1026e-08,869.885,-869.88,3.35985e-06,1.63891e-08,-1.63891e-08,6.33016e-17
0.759975,-0.29,0.0636183,0.01,-46.823,42.05,633.949,-633.944,-566.273,1.19439e-08,-1.19439e-08,-1.06689e-08,850.034,-850.029,2.20236e-05,1.60151e-08,-1.60151e-08,4.14938e-16
0.769975,-0.29,0.0728459,0.01,-40.3945,42.05,624.395,-624.389,-548.085,1.17639e-08,-1.17639e-08,-1.03262e-08,830.823,-830.818,2.12287e-05,1.56532e-08,-1.56531e-08,3.99961e-16
0.779975,-0.29,0.0822542,0.01,-34.0285,42.05,614.936,-614.93,-530.627,1.15857e-08,-1.15857e-08,-9.99731e-09,812.227,-812.221,2.02014e-05,1.53028e-08,-1.53027e-08,3.80606e-16
0.789975,-0.29,0.0917877,0.01,-27.7239,42.05,605.581,-605.574,-513.865,1.14095e-08,-1.14094e-08,-9.68151e-09,794.221,-794.214,1.92488e-05,1.49635e-08,-1.49635e-08,3.62658e-16
0.799975,-0.29,0.101411,0.01,-21.4799,42.05,596.334,-596.328,-497.767,1.12353e-08,-1.12352e-08,-9.37822e-09,776.781,-776.774,1.83316e-05,1.4635e-08,-1.46349e-08,3.45377e-16
0.809975,-0.29,0.110746,0.01,-15.2956,42.05,587.203,-587.196,-482.303,1.10632e-08,-1.10631e-08,-9.08687e-09,759.885,-759.878,1.74497e-05,1.43166e-08,-1.43166e-08,3.28762e-16
0.819975,-0.29,0.119952,0.01,-9.16995,42.05,578.191,-578.184,-467.443,1.08934e-08,-1.08934e-08,-8.8069e-09,743.512,-743.505,1.66027e-05,1.40082e-08,-1.40081e-08,3.12805e-16
0.829975,-0.29,0.129276,0.01,-3.10213,42.05,569.303,-569.296,-453.16,1.0726e-08,-1.07259e-08,-8.5378e-09,727.641,-727.634,1.57913e-05,1.37091e-08,-1.37091e-08,2.97518e-16
0.839975,-0.29,0.138694,0.01,2.90876,42.05,560.541,-560.534,-439.428,1.05609e-08,-1.05608e-08,-8.27907e-09,712.253,-712.246,1.50155e-05,1.34192e-08,-1.34192e-08,2.82902e-16
0.849975,-0.29,0.148188,0.01,8.8636,42.05,551.909,-551.901,-426.221,1.03983e-08,-1.03982e-08,-8.03024e-09,697.33,-697.322,1.42739e-05,1.31381e-08,-1.3138e-08,2.68929e-16
0.859975,-0.29,0.157745,0.01,14.7632,42.05,543.407,-543.4,-413.516,1.02381e-08,-1.0238e-08,-7.79088e-09,682.853,-682.845,1.35654e-05,1.28653e-08,-1.28652e-08,2.5558e-16
0.869975,-0.29,0.167354,0.01,20.6085,42.05,535.039,-535.031,-401.29,1.00804e-08,-1.00803e-08,-7.56054e-09,668.806,-668.798,1.28902e-05,1.26007e-08,-1.26006e-08,2.42858e-16
0.879975,-0.29,0.176887,0.01,26.4003,42.05,526.803,-526.796,-389.523,9.92524e-09,-9.92517e-09,-7.33884e-09,655.172,-655.165,1.22471e-05,1.23438e-08,-1.23437e-08,2.30743e-16
0.889975,-0.29,0.186245,0.01,32.1395,42.05,518.702,-518.694,-378.194,9.77261e-09,-9.77253e-09,-7.12539e-09,641.937,-641.929,1.16346e-05,1.20944e-08,-1.20944e-08,2.19203e-16
0.899975,-0.29,0.195667,0.01,37.8267,42.05,510.735,-510.728,-367.283,9.62251e-09,-9.62244e-09,-6.91983e-09,629.085,-629.078,1.10513e-05,1.18523e-08,-1.18522e-08,2.08213e-16
0.909975,-0.29,0.205144,0.01,43.4629,42.05,502.903,-502.895,-356.773,9.47495e-09,-9.47487e-09,-6.72181e-09,616.603,-616.595,1.0497e-05,1.16171e-08,-1.1617e-08,1.9777e-16
0.919975,-0.29,0.214668,0.01,49.0488,42.05,495.207,-495.209,-346.651,9.33e-09,-9.33002e-09,-6.5311e-09,604.481,-604.482,7.50955e-06,1.13888e-08,-1.13888e-08,1.41484e-16
0.929975,-0.29,0.224234,0.01,54.5851,42.05,487.797,-489.512,-338.126,9.19783e-09,-9.21523e-09,-6.3705e-09,593.375,-595.09,-0.443053,1.1187e-08,-1.12044e-08,-8.34737e-12
0.939975,-0.29,0.233836,0.01,60.0727,42.05,481.211,-485.437,-330.786,9.08467e-09,-9.12754e-09,-6.2322e-09,583.567,-587.792,-0.978205,1.10131e-08,-1.1056e-08,-1.843e-11
0.949975,-0.29,0.24347,0.01,65.5123,42.05,479.114,-478.628,-322.925,9.02467e-09,-9.01975e-09,-6.08409e-09,577.822,-577.336,-0.420836,1.08844e-08,-1.08795e-08,-7.9288e-12
-0.950025,-0.28,0.240571,0.01,63.9099,39.2,485.572,-495.838,314.486,9.19309e-09,-9.29724e-09,5.92509e-09,577.695,-587.961,-1.91567,1.09287e-08,-1.10329e-08,-3.60923e-11
-0.940025,-0.28,0.231064,0.01,58.4386,39.2,490.954,-493.46,320.949,9.26075e-09,-9.28618e-09,6.04686e-09,586.348,-588.855,-0.687708,1.1058e-08,-1.10835e-08,-1.29568e-11
-0.930025,-0.28,0.2216,0.01,52.9184,39.2,497.158,-497.351,329.229,9.36758e-09,-9.36954e-09,6.20286e-09,596.271,-596.463,-0.0246525,1.12349e-08,-1.12369e-08,-4.64467e-13
-0.920025,-0.28,0.211952,0.01,47.3485,39.2,505.037,-505.029,338.782,9.51516e-09,-9.51507e-09,6.38285e-09,608.142,-608.133,-1.03887e-05,1.14577e-08,-1.14576e-08,-1.95729e-16
-0.910025,-0.28,0.202297,0.01,41.7281,39.2,513.109,-513.1,348.765,9.66723e-09,-9.66715e-09,6.57094e-09,620.419,-620.41,-1.09573e-05,1.1689e-08,-1.16889e-08,-2.06442e-16
-0.900025,-0.28,0.192678,0.01,36.0564,39.2,521.332,-521.323,359.131,9.82216e-09,-9.82207e-09,6.76624e-09,633.058,-633.05,-1.15573e-05,1.19271e-08,-1.19271e-08,-2.17746e-16
-0.890025,-0.28,0.1831,0.01,30.3326,39.2,529.707,-529.698,369.896,9.97995e-09,-9.97986e-09,6.96906e-09,646.076,-646.067,-1.21906e-05,1.21724e-08,-1.21723e-08,-2.29678e-16
-0.880025,-0.28,0.173569,0.01,24.5557,39.2,538.236,-538.227,381.079,1.01406e-08,-1.01405e-08,7.17975e-09,659.485,-659.476,-1.28586e-05,1.2425e-08,-1.24249e-08,-2.42264e-16
-0.870025,-0.28,0.164094,0.01,18.7251,39.2,546.918,-546.909,392.7,1.03042e-08,-1.03041e-08,7.3987e-09,673.301,-673.292,-1.3563e-05,1.26853e-08,-1.26852e-08,-2.55535e-16
-0.860025,-0.28,0.154685,0.01,12.8398,39.2,555.755,-555.746,404.779,1.04707e-08,-1.04706e-08,7.62628e-09,687.54,-687.531,-1.43046e-05,1.29536e-08,-1.29535e-08,-2.69507e-16
-0.850025,-0.28,0.145355,0.01,6.89885,39.2,564.747,-564.738,417.338,1.06401e-08,-1.064e-08,7.8629e-09,702.219,-702.21,-1.50851e-05,1.32302e-08,-1.32301e-08,-2.84213e-16
-0.840025,-0.28,0.135827,0.01,0.90146,39.2,573.893,-573.884,430.401,1.08124e-08,-1.08124e-08,8.109e-09,717.356,-717.347,-1.59068e-05,1.35154e-08,-1.35153e-08,-2.99693e-16
-0.830025,-0.28,0.126191,0.01,-5.15332,39.2,583.193,-583.184,443.99,1.09877e-08,-1.09876e-08,8.36503e-09,732.968,-732.96,-1.67709e-05,1.38095e-08,-1.38094e-08,-3.15973e-16
-0.820025,-0.28,0.116616,0.01,-11.2664,39.2,592.645,-592.637,458.132,1.11657e-08,-1.11657e-08,8.63147e-09,749.076,-749.067,-1.76782e-05,1.4113e-08,-1.41129e-08,-3.33067e-16
-0.810025,-0.28,0.10712,0.01,-17.4388,39.2,602.248,-602.24,472.853,1.13467e-08,-1.13466e-08,8.90883e-09,765.699,-765.69,-1.86302e-05,1.44262e-08,-1.44261e-08,-3.51003e-16
-0.800025,-0.28,0.0977234,0.01,-23.6714,39.2,612,-611.991,488.182,1.15304e-08,-1.15303e-08,9.19764e-09,782.858,-782.85,-1.96279e-05,1.47495e-08,-1.47494e-08,-3.69801e-16
-0.790025,-0.28,0.0884596,0.01,-29.9652,39.2,621.896,-621.888,504.149,1.17169e-08,-1.17168e-08,9.49846e-09,800.576,-800.568,-2.06727e-05,1.50833e-08,-1.50832e-08,-3.89486e-16
-0.780025,-0.28,0.0793747,0.01,-36.3212,39.2,631.934,-631.926,520.784,1.1906e-08,-1.19059e-08,9.81188e-09,818.877,-818.869,-2.17562e-05,1.54281e-08,-1.5428e-08,-4.09899e-16
-0.770025,-0.28,0.0699198,0.01,-42.7403,39.2,642.109,-642.101,538.122,1.20977e-08,-1.20976e-08,1.01385e-08,837.783,-837.776,-2.27049e-05,1.57843e-08,-1.57842e-08,-4.27773e-16
-0.760025,-0.28,0.0602375,0.01,-49.2237,39.2,652.414,-652.407,556.198,1.22918e-08,-1.22918e-08,1.04791e-08,857.322,-857.315,-2.49943e-05,1.61524e-08,-1.61523e-08,-4.70906e-16
-0.750025,-0.28,0.0506787,0.01,-55.7723,39.2,662.843,-662.837,575.048,1.24883e-08,-1.24883e-08,1.08342e-08,877.521,-877.514,-9.85653e-05,1.6533e-08,-1.65329e-08,-1.85703e-15
-0.740025,-0.28,0.0413293,0.01,-62.3873,39.2,673.386,-673.385,594.711,1.2687e-08,-1.2687e-08,1.12047e-08,898.404,-898.403,-0.000189312,1.69264e-08,-1.69264e-08,-3.56674e-15
-0.730025,-0.28,0.032371,0.01,-69.0695,39.2,683.891,-683.68,615.198,1.2884e-08,-1.28819e-08,1.15907e-08,919.905,-919.694,0.145075,1.73306e-08,-1.73285e-08,2.7333e-12
-0.720025,-0.28,0.0242417,0.01,-75.8202,39.2,692.922,-685.166,632.841,1.30213e-08,-1.29426e-08,1.19231e-08,939.436,-931.68,1.07382,1.76658e-08,-1.75871e-08,2.02314e-11
-0.710025,-0.28,0.0154644,0.01,-82.6404,39.2,704.765,-677.719,644.788,1.31606e-08,-1.28862e-08,1.21482e-08,958.809,-931.763,-0.580497,1.79469e-08,-1.76726e-08,-1.09369e-11
0.709975,-0.28,0.0154152,0.01,-82.6745,39.2,704.829,-677.783,-644.897,1.31618e-08,-1.28874e-08,-1.21502e-08,958.93,-931.884,0.590235,1.79492e-08,-1.76748e-08,1.11204e-11
0.719975,-0.28,0.0242048,0.01,-75.8539,39.2,692.977,-685.22,-632.946,1.30224e-08,-1.29437e-08,-1.19251e-08,939.548,-931.791,-1.07026,1.76679e-08,-1.75892e-08,-2.01644e-11
0.729975,-0.28,0.032328,0.01,-69.1029,39.2,683.944,-683.733,-615.302,1.2885e-08,-1.28828e-08,-1.15926e-08,920.014,-919.803,-0.14496,1.73327e-08,-1.73305e-08,-2.73113e-12
0.739975,-0.28,0.0412835,0.01,-62.4203,39.2,673.438,-673.438,-594.811,1.2688e-08,-1.2688e-08,-1.12066e-08,898.509,-898.508,0.00018064,1.69284e-08,-1.69284e-08,3.40337e-15
0.749975,-0.28,0.0506316,0.01,-55.8051,39.2,662.895,-662.889,-575.143,1.24893e-08,-1.24892e-08,-1.0836e-08,877.623,-877.616,9.964e-05,1.65349e-08,-1.65348e-08,1.87728e-15
0.759975,-0.28,0.0601896,0.01,-49.2561,39.2,652.466,-652.459,-556.29,1.22928e-08,-1.22927e-08,-1.04808e-08,857.421,-857.414,2.50397e-05,1.61543e-08,-1.61542e-08,4.71762e-16
0.769975,-0.28,0.0698714,0.01,-42.7724,39.2,642.16,-642.152,-538.211,1.20986e-08,-1.20986e-08,-1.01402e-08,837.879,-837.871,2.27084e-05,1.57861e-08,-1.5786e-08,4.27839e-16
0.779975,-0.28,0.0793301,0.01,-36.3529,39.2,631.985,-631.977,-520.869,1.19069e-08,-1.19068e-08,-9.81347e-09,818.969,-818.961,2.17614e-05,1.54298e-08,-1.54297e-08,4.09997e-16
0.789975,-0.28,0.088414,0.01,-29.9966,39.2,621.946,-621.938,-504.23,1.17178e-08,-1.17177e-08,-9.49998e-09,800.666,-800.658,2.06779e-05,1.5085e-08,-1.50849e-08,3.89583e-16
0.799975,-0.28,0.097677,0.01,-23.7025,39.2,612.049,-612.04,-488.26,1.15313e-08,-1.15312e-08,-9.1991e-09,782.945,-782.937,1.96331e-05,1.47511e-08,-1.4751e-08,3.699e-16
0.809975,-0.28,0.107073,0.01,-17.4696,39.2,602.297,-602.288,-472.928,1.13476e-08,-1.13475e-08,-8.91024e-09,765.783,-765.774,1.86352e-05,1.44278e-08,-1.44277e-08,3.51099e-16
0.819975,-0.28,0.116569,0.01,-11.297,39.2,592.693,-592.684,-458.204,1.11666e-08,-1.11666e-08,-8.63282e-09,749.157,-749.149,1.76826e-05,1.41145e-08,-1.41144e-08,3.3315e-16
0.829975,-0.28,0.126143,0.01,-5.18358,39.2,583.24,-583.231,-444.059,1.09885e-08,-1.09884e-08,-8.36633e-09,733.047,-733.038,1.67752e-05,1.3811e-08,-1.38109e-08,3.16055e-16
0.839975,-0.28,0.135779,0.01,0.871492,39.2,573.939,-573.93,-430.467,1.08133e-08,-1.08132e-08,-8.11025e-09,717.432,-717.424,1.59116e-05,1.35168e-08,-1.35167e-08,2.99783e-16
0.849975,-0.28,0.145309,0.01,6.86916,39.2,564.792,-564.783,-417.402,1.0641e-08,-1.06409e-08,-7.8641e-09,702.293,-702.285,1.50894e-05,1.32316e-08,-1.32315e-08,2.84294e-16
0.859975,-0.28,0.154638,0.01,12.8104,39.2,555.8,-555.791,-404.84,1.04715e-08,-1.04715e-08,-7.62743e-09,687.612,-687.603,1.43081e-05,1.2955e-08,-1.29549e-08,2.69572e-16
0.869975,-0.28,0.164047,0.01,18.696,39.2,546.962,-546.953,-392.759,1.0305e-08,-1.03049e-08,-7.39981e-09,673.371,-673.362,1.35662e-05,1.26867e-08,-1.26866e-08,2.55595e-16
0.879975,-0.28,0.173522,0.01,24.5269,39.2,538.278,-538.269,-381.136,1.01414e-08,-1.01413e-08,-7.18082e-09,659.552,-659.543,1.2862e-05,1.24263e-08,-1.24262e-08,2.42328e-16
0.889975,-0.28,0.183052,0.01,30.304,39.2,529.749,-529.74,-369.951,9.98074e-09,-9.98065e-09,-6.97008e-09,646.141,-646.132,1.21939e-05,1.21736e-08,-1.21735e-08,2.29741e-16
0.899975,-0.28,0.19263,0.01,36.0281,39.2,521.373,-521.364,-359.184,9.82293e-09,-9.82285e-09,-6.76723e-09,633.122,-633.113,1.15603e-05,1.19284e-08,-1.19283e-08,2.17803e-16
0.909975,-0.28,0.202249,0.01,41.7001,39.2,513.15,-513.141,-348.816,9.668e-09,-9.66791e-09,-6.5719e-09,620.48,-620.472,1.09601e-05,1.16902e-08,-1.16901e-08,2.06494e-16
0.919975,-0.28,0.211904,0.01,47.3207,39.2,505.077,-505.068,-338.831,9.51591e-09,-9.51582e-09,-6.38377e-09,608.202,-608.194,1.03912e-05,1.14588e-08,-1.14588e-08,1.95777e-16
0.929975,-0.28,0.221553,0.01,52.8909,39.2,497.197,-497.39,-329.276,9.36832e-09,-9.37027e-09,-6.20375e-09,596.329,-596.522,0.0246374,1.1236e-08,-1.1238e-08,4.64183e-13
0.939975,-0.28,0.231017,0.01,58.4113,39.2,490.992,-493.499,-320.994,9.26148e-09,-9.28691e-09,-6.04772e-09,586.405,-588.912,0.687711,1.10591e-08,-1.10845e-08,1.29569e-11
0.949975,-0.28,0.240524,0.01,63.8828,39.2,485.61,-495.877,-314.53,9.19381e-09,-9.29797e-09,-5.92593e-09,577.751,-588.018,1.91585,1.09298e-08,-1.1034e-08,3.60957e-11
-0.950025,-0.27,0.237725,0.01,62.3287,36.45,491.94,-503.797,308.418,9.31999e-09,-9.44028e-09,5.81077e-09,579.729,-591.586,0.476464,1.0974e-08,-1.10943e-08,8.97685e-12
-0.940025,-0.27,0.228099,0.01,56.8263,36.45,499.413,-503.239,313.666,9.42587e-09,-9.46468e-09,5.90966e-09,589.454,-593.279,-0.183886,1.11223e-08,-1.11611e-08,-3.46452e-12
-0.930025,-0.27,0.218506,0.01,51.2741,36.45,506.557,-506.695,321.147,9.54443e-09,-9.54583e-09,6.05059e-09,599.769,-599.906,-0.0760164,1.13006e-08,-1.1302e-08,-1.43219e-12
-0.920025,-0.27,0.208952,0.01,45.6712,36.45,514.758,-514.749,330.603,9.69831e-09,-9.69821e-09,6.22875e-09,611.781,-611.771,-1.07812e-05,1.15263e-08,-1.15262e-08,-2.03123e-16
-0.910025,-0.27,0.199441,0.01,40.0168,36.45,523.203,-523.193,340.428,9.8574e-09,-9.8573e-09,6.41386e-09,624.206,-624.196,-1.13911e-05,1.17604e-08,-1.17603e-08,-2.14615e-16
-0.900025,-0.27,0.189981,0.01,34.3101,36.45,531.815,-531.806,350.633,1.00197e-08,-1.00196e-08,6.60612e-09,637.002,-636.993,-1.20366e-05,1.20015e-08,-1.20014e-08,-2.26776e-16
-0.890025,-0.27,0.180406,0.01,28.5502,36.45,540.599,-540.589,361.236,1.01851e-08,-1.0185e-08,6.80589e-09,650.184,-650.174,-1.27195e-05,1.22498e-08,-1.22497e-08,-2.39643e-16
-0.880025,-0.27,0.170725,0.01,22.7363,36.45,549.554,-549.544,372.255,1.03539e-08,-1.03538e-08,7.0135e-09,663.766,-663.756,-1.3442e-05,1.25057e-08,-1.25056e-08,-2.53255e-16
-0.870025,-0.27,0.161082,0.01,16.8674,36.45,558.684,-558.674,383.711,1.05259e-08,-1.05258e-08,7.22934e-09,677.764,-677.754,-1.42063e-05,1.27694e-08,-1.27693e-08,-2.67655e-16
-0.860025,-0.27,0.151487,0.01,10.9427,36.45,567.99,-567.98,395.625,1.07012e-08,-1.07011e-08,7.4538e-09,692.195,-692.184,-1.50142e-05,1.30413e-08,-1.30412e-08,-2.82876e-16
-0.850025,-0.27,0.141947,0.01,4.9611,36.45,577.473,-577.463,408.018,1.08799e-08,-1.08798e-08,7.68729e-09,707.075,-707.065,-1.5868e-05,1.33217e-08,-1.33216e-08,-2.98962e-16
-0.840025,-0.27,0.132475,0.01,-1.07821,36.45,587.135,-587.124,420.914,1.10619e-08,-1.10618e-08,7.93026e-09,722.424,-722.414,-1.67702e-05,1.36108e-08,-1.36107e-08,-3.1596e-16
-0.830025,-0.27,0.123086,0.01,-7.17623,36.45,596.974,-596.964,434.337,1.12473e-08,-1.12472e-08,8.18317e-09,738.261,-738.25,-1.77226e-05,1.39092e-08,-1.39091e-08,-3.33904e-16
-0.820025,-0.27,0.113802,0.01,-13.3339,36.45,606.993,-606.983,448.314,1.14361e-08,-1.1436e-08,8.44649e-09,754.604,-754.594,-1.87271e-05,1.42171e-08,-1.4217e-08,-3.5283e-16
-0.810025,-0.27,0.104281,0.01,-19.5524,36.45,617.191,-617.18,462.871,1.16282e-08,-1.16281e-08,8.72076e-09,771.476,-771.466,-1.97862e-05,1.4535e-08,-1.45349e-08,-3.72784e-16
-0.800025,-0.27,0.094603,0.01,-25.8325,36.45,627.566,-627.555,478.038,1.18237e-08,-1.18236e-08,9.00652e-09,788.899,-788.888,-2.09012e-05,1.48633e-08,-1.48632e-08,-3.93791e-16
-0.790025,-0.27,0.0849998,0.01,-32.1754,36.45,638.117,-638.107,493.846,1.20224e-08,-1.20223e-08,9.30434e-09,806.894,-806.884,-2.20739e-05,1.52023e-08,-1.52022e-08,-4.15885e-16
-0.780025,-0.27,0.0754997,0.01,-38.5821,36.45,648.842,-648.833,510.325,1.22245e-08,-1.22244e-08,9.61483e-09,825.488,-825.478,-2.33531e-05,1.55526e-08,-1.55525e-08,-4.39986e-16
-0.770025,-0.27,0.0661471,0.01,-45.0537,36.45,659.739,-659.729,527.512,1.24298e-08,-1.24297e-08,9.93863e-09,844.705,-844.695,-2.52394e-05,1.59147e-08,-1.59146e-08,-4.75524e-16
-0.760025,-0.27,0.0570148,0.01,-51.5913,36.45,670.803,-670.794,545.441,1.26383e-08,-1.26382e-08,1.02764e-08,864.572,-864.562,-2.00117e-05,1.6289e-08,-1.62889e-08,-3.77032e-16
-0.750025,-0.27,0.0482278,0.01,-58.1959,36.45,682.03,-682.02,564.151,1.28498e-08,-1.28497e-08,1.06289e-08,885.117,-885.107,0.000235895,1.66761e-08,-1.6676e-08,4.4444e-15
-0.740025,-0.27,0.0385176,0.01,-64.8688,36.45,693.42,-693.399,583.684,1.30643e-08,-1.30641e-08,1.09969e-08,906.378,-906.358,0.000521714,1.70766e-08,-1.70764e-08,9.82939e-15
-0.730025,-0.27,0.0286946,0.01,-71.611,36.45,705.004,-704.581,603.91,1.32808e-08,-1.32766e-08,1.1378e-08,928.349,-927.927,-0.0301917,1.74888e-08,-1.74845e-08,-5.6883e-13
-0.720025,-0.27,0.0190567,0.01,-78.4236,36.45,713.894,-710.215,622.427,1.34342e-08,-1.33969e-08,1.17269e-08,947.586,-943.907,0.773161,1.78371e-08,-1.77997e-08,1.45668e-11
-0.710025,-0.27,0.0101456,0.01,-85.3077,36.45,718.775,-702.617,637.867,1.34719e-08,-1.3308e-08,1.20178e-08,963.037,-946.878,4.4722,1.80739e-08,-1.791e-08,8.42588e-11
0.709975,-0.27,0.0101063,0.01,-85.3421,36.45,718.822,-702.675,-637.97,1.34728e-08,-1.3309e-08,-1.20197e-08,963.139,-946.992,-4.46954,1.80759e-08,-1.79121e-08,-8.42088e-11
0.719975,-0.27,0.0190097,0.01,-78.4577,36.45,713.951,-710.272,-622.532,1.34353e-08,-1.33979e-08,-1.17289e-08,947.697,-944.019,-0.771593,1.78392e-08,-1.78019e-08,-1.45373e-11
0.729975,-0.27,0.0286461,0.01,-71.6447,36.45,705.062,-704.638,-604.012,1.32819e-08,-1.32776e-08,-1.13799e-08,928.46,-928.036,0.0307149,1.74909e-08,-1.74866e-08,5.78687e-13
0.739975,-0.27,0.0384685,0.01,-64.9021,36.45,693.477,-693.457,-583.783,1.30654e-08,-1.30652e-08,-1.09988e-08,906.486,-906.466,-0.000496253,1.70786e-08,-1.70784e-08,-9.3497e-15
0.749975,-0.27,0.0481853,0.01,-58.2289,36.45,682.086,-682.076,-564.246,1.28508e-08,-1.28507e-08,-1.06307e-08,885.221,-885.211,-0.000239499,1.6678e-08,-1.66779e-08,-4.51229e-15
0.759975,-0.27,0.0569701,0.01,-51.624,36.45,670.858,-670.849,-545.532,1.26393e-08,-1.26392e-08,-1.02781e-08,864.672,-864.663,1.98473e-05,1.62909e-08,-1.62908e-08,3.73934e-16
0.769975,-0.27,0.0661011,0.01,-45.0861,36.45,659.794,-659.784,-527.599,1.24309e-08,-1.24308e-08,-9.94027e-09,844.802,-844.792,2.52513e-05,1.59165e-08,-1.59164e-08,4.75749e-16
0.779975,-0.27,0.0754528,0.01,-38.6141,36.45,648.896,-648.886,-510.409,1.22255e-08,-1.22254e-08,-9.6164e-09,825.582,-825.572,2.336e-05,1.55544e-08,-1.55543e-08,4.40115e-16
0.789975,-0.27,0.0849523,0.01,-32.2071,36.45,638.17,-638.16,-493.926,1.20234e-08,-1.20233e-08,-9.30585e-09,806.985,-806.975,2.20796e-05,1.5204e-08,-1.52039e-08,4.15992e-16
0.799975,-0.27,0.0945551,0.01,-25.8639,36.45,627.618,-627.608,-478.115,1.18246e-08,-1.18245e-08,-9.00797e-09,788.987,-788.976,2.09068e-05,1.48649e-08,-1.48648e-08,3.93897e-16
0.809975,-0.27,0.104233,0.01,-19.5834,36.45,617.242,-617.232,-462.945,1.16291e-08,-1.1629e-08,-8.72216e-09,771.562,-771.551,1.97913e-05,1.45366e-08,-1.45365e-08,3.7288e-16
0.819975,-0.27,0.113756,0.01,-13.3647,36.45,607.044,-607.033,-448.385,1.1437e-08,-1.14369e-08,-8.44783e-09,754.687,-754.677,1.87318e-05,1.42187e-08,-1.42186e-08,3.52918e-16
0.829975,-0.27,0.12304,0.01,-7.2067,36.45,597.024,-597.014,-434.405,1.12482e-08,-1.12481e-08,-8.18445e-09,738.341,-738.33,1.77276e-05,1.39107e-08,-1.39106e-08,3.33998e-16
0.839975,-0.27,0.132428,0.01,-1.10839,36.45,587.183,-587.173,-420.979,1.10628e-08,-1.10627e-08,-7.93149e-09,722.502,-722.492,1.67754e-05,1.36123e-08,-1.36122e-08,3.16058e-16
0.849975,-0.27,0.141899,0.01,4.93121,36.45,577.521,-577.511,-408.081,1.08808e-08,-1.08807e-08,-7.68848e-09,707.15,-707.14,1.58727e-05,1.33231e-08,-1.3323e-08,2.99051e-16
0.859975,-0.27,0.151439,0.01,10.9131,36.45,568.037,-568.027,-395.685,1.07021e-08,-1.0702e-08,-7.45494e-09,692.267,-692.257,1.50186e-05,1.30427e-08,-1.30426e-08,2.82959e-16
0.869975,-0.27,0.161035,0.01,16.8381,36.45,558.73,-558.72,-383.769,1.05268e-08,-1.05267e-08,-7.23044e-09,677.834,-677.824,1.42105e-05,1.27708e-08,-1.27706e-08,2.67734e-16
0.879975,-0.27,0.170677,0.01,22.7073,36.45,549.599,-549.589,-372.311,1.03547e-08,-1.03546e-08,-7.01455e-09,663.834,-663.824,1.34456e-05,1.2507e-08,-1.25069e-08,2.53324e-16
0.889975,-0.27,0.180358,0.01,28.5215,36.45,540.643,-540.633,-361.289,1.0186e-08,-1.01859e-08,-6.8069e-09,650.25,-650.241,1.27226e-05,1.22511e-08,-1.2251e-08,2.39702e-16
0.899975,-0.27,0.189934,0.01,34.2816,36.45,531.859,-531.849,-350.684,1.00205e-08,-1.00204e-08,-6.6071e-09,637.067,-637.057,1.20397e-05,1.20027e-08,-1.20026e-08,2.26835e-16
0.909975,-0.27,0.199394,0.01,39.9885,36.45,523.245,-523.236,-340.478,9.8582e-09,-9.8581e-09,-6.4148e-09,624.269,-624.259,1.13943e-05,1.17615e-08,-1.17614e-08,2.14675e-16
0.919975,-0.27,0.208904,0.01,45.6432,36.45,514.8,-514.791,-330.651,9.69909e-09,-9.69899e-09,-6.22966e-09,611.842,-611.832,1.07839e-05,1.15274e-08,-1.15273e-08,2.03175e-16
0.929975,-0.27,0.218458,0.01,51.2463,36.45,506.598,-506.736,-321.193,9.5452e-09,-9.54659e-09,-6.05146e-09,599.828,-599.966,0.0760277,1.13017e-08,-1.13031e-08,1.43241e-12
0.939975,-0.27,0.228051,0.01,56.7988,36.45,499.453,-503.28,-313.711,9.42663e-09,-9.46544e-09,-5.9105e-09,589.511,-593.338,0.18396,1.11234e-08,-1.11622e-08,3.4659e-12
0.949975,-0.27,0.237677,0.01,62.3015,36.45,491.979,-503.838,-308.462,9.32074e-09,-9.44105e-09,-5.8116e-09,579.785,-591.644,-0.476526,1.09751e-08,-1.10954e-08,-8.97803e-12
-0.960025,-0.26,0.244879,0.01,66.2794,33.8,497.811,-497.097,290.382,9.37594e-09,-9.3687e-09,5.47096e-09,576.362,-575.648,-0.339387,1.08559e-08,-1.08486e-08,-6.39425e-12
-0.950025,-0.26,0.235269,0.01,60.7966,33.8,500.285,-504.18,297.946,9.44259e-09,-9.48212e-09,5.61348e-09,582.012,-585.908,0.680061,1.09824e-08,-1.10219e-08,1.28127e-11
-0.940025,-0.26,0.225538,0.01,55.2638,33.8,507.412,-508.994,304.948,9.56681e-09,-9.58286e-09,5.7454e-09,591.884,-593.466,0.457901,1.11583e-08,-1.11744e-08,8.62712e-12
-0.930025,-0.26,0.215832,0.01,49.6803,33.8,515.685,-515.684,312.778,9.71579e-09,-9.71578e-09,5.89291e-09,603.126,-603.125,0.000597981,1.13632e-08,-1.13632e-08,1.12663e-14
-0.920025,-0.26,0.206154,0.01,44.0453,33.8,524.314,-524.303,322.061,9.87833e-09,-9.87822e-09,6.06782e-09,615.328,-615.318,-1.11406e-05,1.15931e-08,-1.1593e-08,-2.09896e-16
-0.910025,-0.26,0.196507,0.01,38.3578,33.8,533.128,-533.117,331.71,1.00444e-08,-1.00443e-08,6.24961e-09,627.9,-627.889,-1.179e-05,1.183e-08,-1.18298e-08,-2.2213e-16
-0.900025,-0.26,0.186899,0.01,32.617,33.8,542.128,-542.118,341.737,1.0214e-08,-1.02139e-08,6.43852e-09,640.85,-640.839,-1.24791e-05,1.20739e-08,-1.20738e-08,-2.35114e-16
-0.890025,-0.26,0.177333,0.01,26.822,33.8,551.318,-551.307,352.158,1.03871e-08,-1.0387e-08,6.63487e-09,654.193,-654.182,-1.32104e-05,1.23253e-08,-1.23252e-08,-2.48892e-16
-0.880025,-0.26,0.167818,0.01,20.9718,33.8,560.699,-560.688,362.995,1.05638e-08,-1.05637e-08,6.83903e-09,667.944,-667.933,-1.39862e-05,1.25844e-08,-1.25843e-08,-2.63508e-16
-0.870025,-0.26,0.158363,0.01,15.0656,33.8,570.275,-570.263,374.265,1.07443e-08,-1.07441e-08,7.05137e-09,682.121,-682.11,-1.48095e-05,1.28515e-08,-1.28514e-08,-2.79019e-16
-0.860025,-0.26,0.148892,0.01,9.10235,33.8,580.048,-580.037,385.991,1.09284e-08,-1.09283e-08,7.27229e-09,696.74,-696.728,-1.5683e-05,1.31269e-08,-1.31268e-08,-2.95477e-16
-0.850025,-0.26,0.139175,0.01,3.08109,33.8,590.022,-590.01,398.195,1.11163e-08,-1.11162e-08,7.50222e-09,711.819,-711.807,-1.66091e-05,1.3411e-08,-1.34109e-08,-3.12925e-16
-0.840025,-0.26,0.1295,0.01,-2.99917,33.8,600.197,-600.185,410.9,1.1308e-08,-1.13079e-08,7.74159e-09,727.377,-727.365,-1.75908e-05,1.37041e-08,-1.3704e-08,-3.3142e-16
-0.830025,-0.26,0.119879,0.01,-9.13944,33.8,610.577,-610.565,424.131,1.15036e-08,-1.15035e-08,7.99088e-09,743.433,-743.422,-1.86307e-05,1.40067e-08,-1.40065e-08,-3.51013e-16
-0.820025,-0.26,0.110325,0.01,-15.3408,33.8,621.162,-621.15,437.915,1.1703e-08,-1.17029e-08,8.25058e-09,760.009,-759.997,-1.97321e-05,1.4319e-08,-1.43188e-08,-3.71764e-16
-0.810025,-0.26,0.100857,0.01,-21.6042,33.8,631.955,-631.943,452.28,1.19063e-08,-1.19062e-08,8.52122e-09,777.127,-777.115,-2.08985e-05,1.46415e-08,-1.46413e-08,-3.9374e-16
-0.800025,-0.26,0.0915034,0.01,-27.9309,33.8,642.955,-642.943,467.255,1.21136e-08,-1.21135e-08,8.80335e-09,794.808,-794.796,-2.21329e-05,1.49746e-08,-1.49745e-08,-4.16997e-16
-0.790025,-0.26,0.0823014,0.01,-34.3218,33.8,654.163,-654.151,482.87,1.23248e-08,-1.23246e-08,9.09755e-09,813.078,-813.066,-2.3433e-05,1.53188e-08,-1.53187e-08,-4.41492e-16
-0.780025,-0.26,0.0728016,0.01,-40.7782,33.8,665.579,-665.567,499.16,1.25398e-08,-1.25397e-08,9.40446e-09,831.96,-831.949,-2.46387e-05,1.56746e-08,-1.56744e-08,-4.64207e-16
-0.770025,-0.26,0.0630501,0.01,-47.3011,33.8,677.202,-677.19,516.159,1.27588e-08,-1.27587e-08,9.72473e-09,851.483,-851.472,-2.4769e-05,1.60424e-08,-1.60423e-08,-4.66662e-16
-0.760025,-0.26,0.0533905,0.01,-53.8918,33.8,689.029,-689.018,533.903,1.29817e-08,-1.29815e-08,1.00591e-08,871.674,-871.663,-5.75695e-05,1.64228e-08,-1.64227e-08,-1.08464e-15
-0.750025,-0.26,0.0438838,0.01,-60.5513,33.8,701.059,-701.05,552.433,1.32083e-08,-1.32082e-08,1.04082e-08,892.562,-892.554,-0.000904966,1.68164e-08,-1.68163e-08,-1.70501e-14
-0.740025,-0.26,0.0346558,0.01,-67.281,33.8,713.261,-713.255,571.774,1.34382e-08,-1.34382e-08,1.07725e-08,914.149,-914.143,0.00225718,1.72231e-08,-1.7223e-08,4.25266e-14
-0.730025,-0.26,0.026005,0.01,-74.082,33.8,725.415,-722.072,589.494,1.36527e-08,-1.36188e-08,1.11064e-08,935.11,-931.767,-0.714869,1.76035e-08,-1.75696e-08,-1.34685e-11
-0.720025,-0.26,0.0184025,0.01,-80.9556,33.8,737.232,-728.814,605.446,1.38533e-08,-1.37679e-08,1.14069e-08,954.935,-946.517,-2.55387,1.79549e-08,-1.78695e-08,-4.81165e-11
-0.710025,-0.26,0.00885598,0.01,-87.9035,33.8,738.883,-746.798,625.21,1.39554e-08,-1.40357e-08,1.17793e-08,966.967,-974.882,-2.34368,1.82526e-08,-1.83329e-08,-4.41564e-11
0.709975,-0.26,0.00881102,0.01,-87.9382,33.8,738.934,-746.864,-625.327,1.39564e-08,-1.40369e-08,-1.17815e-08,967.08,-975.009,2.33635,1.82548e-08,-1.83353e-08,4.40181e-11
0.719975,-0.26,0.0183538,0.01,-80.99,33.8,737.298,-728.861,-605.552,1.38544e-08,-1.37688e-08,-1.1409e-08,955.056,-946.619,2.54965,1.79571e-08,-1.78715e-08,4.8037e-11
0.729975,-0.26,0.0259644,0.01,-74.116,33.8,725.475,-722.131,-589.598,1.36538e-08,-1.36199e-08,-1.11084e-08,935.222,-931.878,0.71235,1.76056e-08,-1.75717e-08,1.34211e-11
0.739975,-0.26,0.034611,0.01,-67.3146,33.8,713.322,-713.316,-571.872,1.34394e-08,-1.34393e-08,-1.07744e-08,914.258,-914.252,-0.00241735,1.72251e-08,-1.72251e-08,-4.55442e-14
0.749975,-0.26,0.043837,0.01,-60.5846,33.8,701.119,-701.111,-552.527,1.32095e-08,-1.32094e-08,-1.04099e-08,892.668,-892.659,0.000916212,1.68183e-08,-1.68183e-08,1.7262e-14
0.759975,-0.26,0.0533428,0.01,-53.9247,33.8,689.089,-689.077,-533.994,1.29828e-08,-1.29827e-08,-1.00608e-08,871.777,-871.765,5.82484e-05,1.64247e-08,-1.64246e-08,1.09743e-15
0.769975,-0.26,0.0630018,0.01,-47.3337,33.8,677.26,-677.248,-516.245,1.27599e-08,-1.27598e-08,-9.72636e-09,851.582,-851.57,2.477e-05,1.60443e-08,-1.60441e-08,4.66681e-16
0.779975,-0.26,0.072753,0.01,-40.8105,33.8,665.636,-665.625,-499.243,1.25409e-08,-1.25408e-08,-9.40602e-09,832.056,-832.044,2.4643e-05,1.56764e-08,-1.56762e-08,4.64288e-16
0.789975,-0.26,0.0822561,0.01,-34.3538,33.8,654.219,-654.208,-482.95,1.23258e-08,-1.23257e-08,-9.09905e-09,813.17,-813.158,2.34393e-05,1.53205e-08,-1.53204e-08,4.4161e-16
0.799975,-0.26,0.0914572,0.01,-27.9625,33.8,643.01,-642.998,-467.331,1.21146e-08,-1.21145e-08,-8.80478e-09,794.897,-794.885,2.21391e-05,1.49763e-08,-1.49762e-08,4.17114e-16
0.809975,-0.26,0.100811,0.01,-21.6355,33.8,632.009,-631.997,-452.353,1.19074e-08,-1.19072e-08,-8.52259e-09,777.213,-777.201,2.09041e-05,1.46431e-08,-1.4643e-08,3.93846e-16
0.819975,-0.26,0.110278,0.01,-15.3718,33.8,621.216,-621.204,-437.985,1.1704e-08,-1.17039e-08,-8.2519e-09,760.093,-760.081,1.97374e-05,1.43205e-08,-1.43204e-08,3.71863e-16
0.829975,-0.26,0.119831,0.01,-9.17013,33.8,610.629,-610.617,-424.199,1.15046e-08,-1.15044e-08,-7.99215e-09,743.514,-743.503,1.86358e-05,1.40082e-08,-1.40081e-08,3.5111e-16
0.839975,-0.26,0.129452,0.01,-3.02955,33.8,600.248,-600.237,-410.964,1.1309e-08,-1.13089e-08,-7.74281e-09,727.455,-727.444,1.75956e-05,1.37056e-08,-1.37055e-08,3.31511e-16
0.849975,-0.26,0.139127,0.01,3.051,33.8,590.072,-590.06,-398.257,1.11172e-08,-1.11171e-08,-7.50339e-09,711.895,-711.883,1.66136e-05,1.34125e-08,-1.34123e-08,3.1301e-16
0.859975,-0.26,0.148844,0.01,9.07255,33.8,580.097,-580.086,-386.051,1.09293e-08,-1.09292e-08,-7.27342e-09,696.814,-696.802,1.56876e-05,1.31283e-08,-1.31282e-08,2.95563e-16
0.869975,-0.26,0.158316,0.01,15.0361,33.8,570.323,-570.312,-374.322,1.07452e-08,-1.0745e-08,-7.05245e-09,682.193,-682.181,1.48142e-05,1.28529e-08,-1.28527e-08,2.79107e-16
0.879975,-0.26,0.167771,0.01,20.9426,33.8,560.746,-560.735,-363.05,1.05647e-08,-1.05646e-08,-6.84006e-09,668.014,-668.002,1.39904e-05,1.25857e-08,-1.25856e-08,2.63587e-16
0.889975,-0.26,0.177286,0.01,26.793,33.8,551.364,-551.353,-352.211,1.0388e-08,-1.03879e-08,-6.63587e-09,654.26,-654.249,1.32141e-05,1.23266e-08,-1.23265e-08,2.48962e-16
0.899975,-0.26,0.186851,0.01,32.5883,33.8,542.174,-542.163,-341.787,1.02148e-08,-1.02147e-08,-6.43947e-09,640.915,-640.904,1.24829e-05,1.20752e-08,-1.20751e-08,2.35185e-16
0.909975,-0.26,0.19646,0.01,38.3294,33.8,533.172,-533.162,-331.759,1.00452e-08,-1.00451e-08,-6.25053e-09,627.963,-627.953,1.17936e-05,1.18311e-08,-1.1831e-08,2.22197e-16
0.919975,-0.26,0.206105,0.01,44.0171,33.8,524.357,-524.347,-322.108,9.87914e-09,-9.87904e-09,-6.0687e-09,615.39,-615.38,1.11437e-05,1.15943e-08,-1.15942e-08,2.09954e-16
0.929975,-0.26,0.215784,0.01,49.6524,33.8,515.727,-515.726,-312.823,9.71659e-09,-9.71658e-09,-5.89377e-09,603.186,-603.184,-0.000597816,1.13644e-08,-1.13644e-08,-1.12632e-14
0.939975,-0.26,0.22549,0.01,55.2362,33.8,507.454,-509.036,-304.992,9.5676e-09,-9.58365e-09,-5.74622e-09,591.942,-593.524,-0.457965,1.11594e-08,-1.11755e-08,-8.62833e-12
0.949975,-0.26,0.235221,0.01,60.7692,33.8,500.326,-504.222,-297.989,9.44336e-09,-9.48289e-09,-5.61428e-09,582.069,-585.965,-0.680289,1.09835e-08,-1.1023e-08,-1.2817e-11
0.959975,-0.26,0.244832,0.01,66.2523,33.8,497.851,-497.138,-290.423,9.3767e-09,-9.36947e-09,-5.47174e-09,576.418,-575.704,0.339114,1.08569e-08,-1.08497e-08,6.3891e-12
-0.960025,-0.25,0.242114,0.01,64.8259,31.25,504.492,-506.467,283.443,9.51351e-09,-9.53354e-09,5.34023e-09,578.537,-580.511,0.897033,1.09086e-08,-1.09286e-08,1.69006e-11
-0.950025,-0.25,0.232465,0.01,59.3143,31.25,509.245,-510.932,288.203,9.60181e-09,-9.61892e-09,5.42991e-09,585.033,-586.72,-0.201268,1.10297e-08,-1.10468e-08,-3.792e-12
-0.940025,-0.25,0.222848,0.01,53.752,31.25,515.993,-516.145,295.315,9.72227e-09,-9.72381e-09,5.5639e-09,594.515,-594.666,-0.0657601,1.12017e-08,-1.12032e-08,-1.23896e-12
-0.930025,-0.25,0.213265,0.01,48.1382,31.25,524.704,-524.693,304.059,9.88568e-09,-9.88556e-09,5.72865e-09,606.438,-606.427,-1.08163e-05,1.14256e-08,-1.14255e-08,-2.03786e-16
-0.920025,-0.25,0.203723,0.01,42.4718,31.25,533.686,-533.675,313.159,1.00549e-08,-1.00548e-08,5.9001e-09,618.781,-618.77,-1.14617e-05,1.16582e-08,-1.1658e-08,-2.15945e-16
-0.910025,-0.25,0.194045,0.01,36.7521,31.25,542.868,-542.856,322.615,1.02279e-08,-1.02278e-08,6.07826e-09,631.496,-631.484,-1.21484e-05,1.18977e-08,-1.18976e-08,-2.28884e-16
-0.900025,-0.25,0.184308,0.01,30.9781,31.25,552.252,-552.241,332.445,1.04047e-08,-1.04046e-08,6.26346e-09,644.596,-644.584,-1.28794e-05,1.21445e-08,-1.21444e-08,-2.42654e-16
-0.890025,-0.25,0.174601,0.01,25.1488,31.25,561.845,-561.833,342.667,1.05854e-08,-1.05853e-08,6.45605e-09,658.097,-658.085,-1.36573e-05,1.23989e-08,-1.23988e-08,-2.57311e-16
-0.880025,-0.25,0.164929,0.01,19.2634,31.25,571.648,-571.636,353.3,1.07701e-08,-1.077e-08,6.65638e-09,672.015,-672.003,-1.44846e-05,1.26611e-08,-1.2661e-08,-2.72899e-16
-0.870025,-0.25,0.155298,0.01,13.3208,31.25,581.668,-581.655,364.364,1.09589e-08,-1.09588e-08,6.86482e-09,686.367,-686.354,-1.53648e-05,1.29315e-08,-1.29314e-08,-2.89481e-16
-0.860025,-0.25,0.145716,0.01,7.32004,31.25,591.906,-591.893,375.88,1.11518e-08,-1.11517e-08,7.08179e-09,701.17,-701.157,-1.63014e-05,1.32104e-08,-1.32103e-08,-3.07127e-16
-0.850025,-0.25,0.136196,0.01,1.26009,31.25,602.368,-602.355,387.87,1.13489e-08,-1.13488e-08,7.30771e-09,716.444,-716.431,-1.72975e-05,1.34982e-08,-1.3498e-08,-3.25894e-16
-0.840025,-0.25,0.126748,0.01,-4.86011,31.25,613.056,-613.042,400.36,1.15503e-08,-1.15501e-08,7.54301e-09,732.207,-732.194,-1.83568e-05,1.37951e-08,-1.3795e-08,-3.45853e-16
-0.830025,-0.25,0.117393,0.01,-11.0416,31.25,623.974,-623.96,413.373,1.1756e-08,-1.17558e-08,7.78819e-09,748.48,-748.466,-1.94831e-05,1.41017e-08,-1.41016e-08,-3.67073e-16
-0.820025,-0.25,0.107668,0.01,-17.2855,31.25,635.124,-635.111,426.937,1.19661e-08,-1.19659e-08,8.04374e-09,765.284,-765.271,-2.06801e-05,1.44183e-08,-1.44182e-08,-3.89625e-16
-0.810025,-0.25,0.0979438,0.01,-23.5929,31.25,646.511,-646.498,441.079,1.21806e-08,-1.21804e-08,8.31019e-09,782.643,-782.629,-2.19524e-05,1.47454e-08,-1.47452e-08,-4.13596e-16
-0.800025,-0.25,0.0882816,0.01,-29.965,31.25,658.136,-658.122,455.83,1.23996e-08,-1.23995e-08,8.5881e-09,800.579,-800.565,-2.33034e-05,1.50833e-08,-1.50832e-08,-4.39049e-16
-0.790025,-0.25,0.0787038,0.01,-36.4028,31.25,670.002,-669.988,471.221,1.26232e-08,-1.2623e-08,8.87808e-09,819.118,-819.104,-2.47614e-05,1.54326e-08,-1.54324e-08,-4.66518e-16
-0.780025,-0.25,0.0692455,0.01,-42.9077,31.25,682.109,-682.095,487.286,1.28513e-08,-1.28511e-08,9.18075e-09,838.285,-838.271,-2.67835e-05,1.57937e-08,-1.57936e-08,-5.04617e-16
-0.770025,-0.25,0.0599633,0.01,-49.4808,31.25,694.459,-694.445,504.06,1.3084e-08,-1.30838e-08,9.49678e-09,858.11,-858.096,-3.0153e-05,1.61672e-08,-1.61671e-08,-5.68101e-16
-0.760025,-0.25,0.0509533,0.01,-56.1234,31.25,707.053,-707.039,521.581,1.33212e-08,-1.33211e-08,9.82689e-09,878.62,-878.606,9.00117e-05,1.65537e-08,-1.65535e-08,1.69587e-15
-0.750025,-0.25,0.041541,0.01,-62.8366,31.25,719.89,-719.869,539.891,1.35631e-08,-1.35628e-08,1.01719e-08,899.849,-899.827,0.00259943,1.69536e-08,-1.69534e-08,4.89747e-14
-0.740025,-0.25,0.0316368,0.01,-69.6218,31.25,732.909,-732.652,559.04,1.38073e-08,-1.38047e-08,1.05326e-08,921.808,-921.551,0.119713,1.73663e-08,-1.73637e-08,2.25547e-12
-0.730025,-0.25,0.0218203,0.01,-76.4804,31.25,744.826,-736.982,575.045,1.39989e-08,-1.39193e-08,1.08342e-08,941.8,-933.956,0.139086,1.771e-08,-1.76304e-08,2.62045e-12
-0.720025,-0.25,0.012303,0.01,-83.4133,31.25,757.471,-734.18,586.181,1.41699e-08,-1.39336e-08,1.1044e-08,960.254,-936.963,-2.14405,1.79905e-08,-1.77542e-08,-4.03952e-11
0.719975,-0.25,0.0122576,0.01,-83.448,31.25,757.534,-734.248,-586.278,1.41711e-08,-1.39349e-08,-1.10458e-08,960.364,-937.077,2.14892,1.79926e-08,-1.77563e-08,4.0487e-11
0.729975,-0.25,0.0217719,0.01,-76.5146,31.25,744.897,-737.048,-575.144,1.40002e-08,-1.39205e-08,-1.08361e-08,941.917,-934.069,-0.1365,1.77121e-08,-1.76325e-08,-2.57173e-12
0.739975,-0.25,0.0315877,0.01,-69.6558,31.25,732.975,-732.719,-559.138,1.38086e-08,-1.3806e-08,-1.05345e-08,921.92,-921.663,-0.119471,1.73684e-08,-1.73658e-08,-2.2509e-12
0.749975,-0.25,0.0414916,0.01,-62.8702,31.25,719.955,-719.933,-539.984,1.35643e-08,-1.35641e-08,-1.01736e-08,899.956,-899.935,-0.00263091,1.69556e-08,-1.69554e-08,-4.95679e-14
0.759975,-0.25,0.0509094,0.01,-56.1566,31.25,707.116,-707.102,-521.67,1.33224e-08,-1.33223e-08,-9.82857e-09,878.724,-878.71,-9.23205e-05,1.65556e-08,-1.65555e-08,-1.73937e-15
0.769975,-0.25,0.0599177,0.01,-49.5137,31.25,694.521,-694.507,-504.145,1.30851e-08,-1.3085e-08,-9.49839e-09,858.21,-858.196,3.01453e-05,1.61691e-08,-1.6169e-08,5.67955e-16
0.779975,-0.25,0.0691989,0.01,-42.9402,31.25,682.17,-682.156,-487.368,1.28524e-08,-1.28523e-08,-9.18229e-09,838.382,-838.368,2.67977e-05,1.57955e-08,-1.57954e-08,5.04883e-16
0.789975,-0.25,0.0786565,0.01,-36.435,31.25,670.061,-670.047,-471.299,1.26243e-08,-1.26241e-08,-8.87955e-09,819.211,-819.197,2.47694e-05,1.54344e-08,-1.54342e-08,4.66669e-16
0.799975,-0.25,0.0882337,0.01,-29.9968,31.25,658.195,-658.181,-455.905,1.24007e-08,-1.24006e-08,-8.58951e-09,800.669,-800.656,2.33107e-05,1.5085e-08,-1.50849e-08,4.39187e-16
0.809975,-0.25,0.0978956,0.01,-23.6244,31.25,646.568,-646.555,-441.151,1.21817e-08,-1.21815e-08,-8.31154e-09,782.73,-782.717,2.19591e-05,1.4747e-08,-1.47469e-08,4.13722e-16
0.819975,-0.25,0.107619,0.01,-17.3167,31.25,635.18,-635.167,-427.006,1.19671e-08,-1.1967e-08,-8.04503e-09,765.369,-765.356,2.06864e-05,1.44199e-08,-1.44198e-08,3.89743e-16
0.829975,-0.25,0.117347,0.01,-11.0725,31.25,624.028,-624.015,-413.439,1.1757e-08,-1.17569e-08,-7.78943e-09,748.562,-748.549,1.94888e-05,1.41033e-08,-1.41031e-08,3.6718e-16
0.839975,-0.25,0.126702,0.01,-4.89069,31.25,613.109,-613.096,-400.423,1.15513e-08,-1.15511e-08,-7.54421e-09,732.286,-732.273,1.83619e-05,1.37966e-08,-1.37965e-08,3.45949e-16
0.849975,-0.25,0.136148,0.01,1.2298,31.25,602.42,-602.407,-387.931,1.13499e-08,-1.13498e-08,-7.30885e-09,716.521,-716.508,1.73021e-05,1.34996e-08,-1.34995e-08,3.25982e-16
0.859975,-0.25,0.145669,0.01,7.29005,31.25,591.958,-591.945,-375.938,1.11528e-08,-1.11526e-08,-7.08289e-09,701.245,-701.232,1.63057e-05,1.32118e-08,-1.32117e-08,3.07209e-16
0.869975,-0.25,0.15525,0.01,13.2911,31.25,581.718,-581.705,-364.42,1.09599e-08,-1.09597e-08,-6.86588e-09,686.439,-686.427,1.53691e-05,1.29329e-08,-1.29327e-08,2.89563e-16
0.879975,-0.25,0.164881,0.01,19.234,31.25,571.698,-571.685,-353.354,1.07711e-08,-1.07709e-08,-6.65739e-09,672.085,-672.073,1.44887e-05,1.26624e-08,-1.26623e-08,2.72975e-16
0.889975,-0.25,0.174553,0.01,25.1197,31.25,561.893,-561.881,-342.719,1.05863e-08,-1.05862e-08,-6.45703e-09,658.165,-658.153,1.36613e-05,1.24002e-08,-1.24e-08,2.57387e-16
0.899975,-0.25,0.18426,0.01,30.9492,31.25,552.3,-552.288,-332.495,1.04056e-08,-1.04055e-08,-6.2644e-09,644.662,-644.65,1.28835e-05,1.21458e-08,-1.21456e-08,2.42732e-16
0.909975,-0.25,0.193997,0.01,36.7235,31.25,542.914,-542.902,-322.663,1.02288e-08,-1.02286e-08,-6.07916e-09,631.56,-631.548,1.21521e-05,1.18989e-08,-1.18988e-08,2.28953e-16
0.919975,-0.25,0.203676,0.01,42.4435,31.25,533.731,-533.72,-313.205,1.00558e-08,-1.00556e-08,-5.90097e-09,618.844,-618.832,1.14649e-05,1.16593e-08,-1.16592e-08,2.16006e-16
0.929975,-0.25,0.213218,0.01,48.1101,31.25,524.748,-524.737,-304.104,9.88651e-09,-9.8864e-09,-5.72949e-09,606.499,-606.487,1.08195e-05,1.14267e-08,-1.14266e-08,2.03846e-16
0.939975,-0.25,0.2228,0.01,53.7243,31.25,516.036,-516.188,-295.357,9.72308e-09,-9.72462e-09,-5.5647e-09,594.573,-594.725,0.0657527,1.12028e-08,-1.12043e-08,1.23882e-12
0.949975,-0.25,0.232417,0.01,59.2868,31.25,509.288,-510.974,-288.244,9.60261e-09,-9.61972e-09,-5.43069e-09,585.09,-586.777,0.201204,1.10308e-08,-1.10479e-08,3.79079e-12
0.959975,-0.25,0.242066,0.01,64.7986,31.25,504.535,-506.509,-283.483,9.51431e-09,-9.53433e-09,-5.34099e-09,578.594,-580.568,-0.897322,1.09096e-08,-1.09297e-08,-1.69061e-11
-0.960025,-0.24,0.239734,0.01,63.4222,28.8,508.549,-523.411,274.793,9.64597e-09,-9.79674e-09,5.17725e-09,577.159,-592.021,-0.342718,1.09386e-08,-1.10894e-08,-6.457e-12
-0.950025,-0.24,0.229985,0.01,57.8828,28.8,516.612,-520.409,279.728,9.74978e-09,-9.7883e-09,5.27025e-09,587.255,-591.051,-0.0951078,1.10807e-08,-1.11192e-08,-1.79189e-12
-0.940025,-0.24,0.22026,0.01,52.2919,28.8,524.497,-524.645,286.453,9.88247e-09,-9.88397e-09,5.39694e-09,597.613,-597.761,-0.0732352,1.126e-08,-1.12615e-08,-1.37979e-12
-0.930025,-0.24,0.210559,0.01,46.6485,28.8,533.531,-533.519,295.006,1.0052e-08,-1.00519e-08,5.55808e-09,609.66,-609.647,-1.10629e-05,1.14863e-08,-1.14862e-08,-2.08431e-16
-0.920025,-0.24,0.200889,0.01,40.9517,28.8,542.86,-542.847,303.9,1.02277e-08,-1.02276e-08,5.72566e-09,622.136,-622.123,-1.17398e-05,1.17213e-08,-1.17212e-08,-2.21184e-16
-0.910025,-0.24,0.191252,0.01,35.2007,28.8,552.404,-552.391,313.147,1.04076e-08,-1.04074e-08,5.89987e-09,634.99,-634.977,-1.24617e-05,1.19635e-08,-1.19634e-08,-2.34786e-16
-0.900025,-0.24,0.181654,0.01,29.3944,28.8,562.169,-562.156,322.762,1.05915e-08,-1.05914e-08,6.08103e-09,648.237,-648.224,-1.32319e-05,1.22131e-08,-1.2213e-08,-2.49297e-16
-0.890025,-0.24,0.172102,0.01,23.5319,28.8,572.16,-572.147,332.765,1.07798e-08,-1.07796e-08,6.26949e-09,661.892,-661.879,-1.40533e-05,1.24704e-08,-1.24702e-08,-2.64772e-16
-0.880025,-0.24,0.162603,0.01,17.6121,28.8,582.383,-582.369,343.175,1.09724e-08,-1.09722e-08,6.46561e-09,675.973,-675.96,-1.49294e-05,1.27357e-08,-1.27355e-08,-2.81278e-16
-0.870025,-0.24,0.152826,0.01,11.6342,28.8,592.841,-592.827,354.01,1.11694e-08,-1.11693e-08,6.66976e-09,690.496,-690.483,-1.58635e-05,1.30093e-08,-1.30092e-08,-2.98878e-16
-0.860025,-0.24,0.14308,0.01,5.59692,28.8,603.541,-603.527,365.294,1.1371e-08,-1.13709e-08,6.88235e-09,705.48,-705.466,-1.686e-05,1.32916e-08,-1.32915e-08,-3.17653e-16
-0.850025,-0.24,0.13337,0.01,-0.500687,28.8,614.487,-614.472,377.048,1.15772e-08,-1.15771e-08,7.1038e-09,720.944,-720.93,-1.79233e-05,1.35829e-08,-1.35828e-08,-3.37686e-16
-0.840025,-0.24,0.123708,0.01,-6.65974,28.8,625.684,-625.669,389.296,1.17882e-08,-1.1788e-08,7.33457e-09,736.908,-736.894,-1.90579e-05,1.38837e-08,-1.38836e-08,-3.59061e-16
-0.830025,-0.24,0.114103,0.01,-12.8814,28.8,637.137,-637.122,402.065,1.2004e-08,-1.20038e-08,7.57513e-09,753.393,-753.378,-2.02679e-05,1.41943e-08,-1.41941e-08,-3.81859e-16
-0.820025,-0.24,0.104573,0.01,-19.1667,28.8,648.851,-648.835,415.38,1.22247e-08,-1.22245e-08,7.82599e-09,770.421,-770.406,-2.15579e-05,1.45151e-08,-1.4515e-08,-4.06163e-16
-0.810025,-0.24,0.0951388,0.01,-25.5169,28.8,660.829,-660.814,429.27,1.24503e-08,-1.24502e-08,8.08769e-09,788.016,-788.001,-2.2934e-05,1.48466e-08,-1.48465e-08,-4.3209e-16
-0.800025,-0.24,0.085833,0.01,-31.9332,28.8,673.077,-673.061,443.765,1.26811e-08,-1.26809e-08,8.3608e-09,806.203,-806.187,-2.43997e-05,1.51893e-08,-1.51891e-08,-4.59705e-16
-0.790025,-0.24,0.0762565,0.01,-38.4169,28.8,685.598,-685.582,458.898,1.2917e-08,-1.29168e-08,8.64591e-09,825.006,-824.99,-2.58805e-05,1.55435e-08,-1.55434e-08,-4.87604e-16
-0.780025,-0.24,0.0664508,0.01,-44.969,28.8,698.396,-698.38,474.703,1.31581e-08,-1.3158e-08,8.94368e-09,844.454,-844.438,-2.63424e-05,1.59099e-08,-1.59098e-08,-4.96305e-16
-0.770025,-0.24,0.0567129,0.01,-51.5911,28.8,711.474,-711.457,491.215,1.34045e-08,-1.34043e-08,9.25477e-09,864.575,-864.558,-2.97269e-05,1.6289e-08,-1.62888e-08,-5.60072e-16
-0.760025,-0.24,0.0470851,0.01,-58.2842,28.8,724.834,-724.819,508.473,1.36562e-08,-1.36561e-08,9.57992e-09,885.399,-885.383,-0.000441897,1.66814e-08,-1.66812e-08,-8.3256e-15
-0.750025,-0.24,0.0376518,0.01,-65.0499,28.8,738.477,-738.479,526.514,1.39133e-08,-1.39134e-08,9.91982e-09,906.954,-906.955,-0.00732983,1.70875e-08,-1.70876e-08,-1.38098e-13
-0.740025,-0.24,0.0286061,0.01,-71.8894,28.8,752.374,-751.599,544.847,1.41718e-08,-1.41639e-08,1.02652e-08,929.011,-928.236,-0.197399,1.74997e-08,-1.74919e-08,-3.71912e-12
-0.730025,-0.24,0.0204684,0.01,-78.8042,28.8,764.503,-757.458,560.947,1.4373e-08,-1.43016e-08,1.05686e-08,948.907,-941.862,-0.0306185,1.78473e-08,-1.77759e-08,-5.76871e-13
-0.720025,-0.24,0.0122976,0.01,-85.7961,28.8,780.093,-751.881,573.468,1.45747e-08,-1.42885e-08,1.08045e-08,970.976,-942.764,-0.798112,1.81711e-08,-1.78849e-08,-1.50369e-11
0.719975,-0.24,0.0122521,0.01,-85.8311,28.8,780.242,-751.933,-573.542,1.45771e-08,-1.42899e-08,-1.08059e-08,971.15,-942.84,0.838995,1.81739e-08,-1.78867e-08,1.58072e-11
0.729975,-0.24,0.0204321,0.01,-78.8388,28.8,764.585,-757.514,-561.032,1.43745e-08,-1.43027e-08,-1.05702e-08,949.026,-941.955,0.0412061,1.78495e-08,-1.77777e-08,7.76346e-13
0.739975,-0.24,0.0285627,0.01,-71.9236,28.8,752.444,-751.666,-544.939,1.41731e-08,-1.41652e-08,-1.0267e-08,929.123,-928.344,0.199537,1.75018e-08,-1.74939e-08,3.7594e-12
0.749975,-0.24,0.0376056,0.01,-65.0837,28.8,738.546,-738.547,-526.605,1.39146e-08,-1.39147e-08,-9.92155e-09,907.063,-907.064,0.00740822,1.70896e-08,-1.70896e-08,1.39575e-13
0.759975,-0.24,0.0470376,0.01,-58.3177,28.8,724.901,-724.886,-508.56,1.36575e-08,-1.36573e-08,-9.58157e-09,885.504,-885.489,0.000449115,1.66833e-08,-1.66832e-08,8.46158e-15
0.769975,-0.24,0.0566647,0.01,-51.6242,28.8,711.539,-711.523,-491.299,1.34057e-08,-1.34056e-08,-9.25635e-09,864.676,-864.66,2.98768e-05,1.62909e-08,-1.62908e-08,5.62897e-16
0.779975,-0.24,0.0664022,0.01,-45.0018,28.8,698.46,-698.444,-474.783,1.31593e-08,-1.31592e-08,-8.94519e-09,844.552,-844.536,2.63366e-05,1.59118e-08,-1.59116e-08,4.96196e-16
0.789975,-0.24,0.0762076,0.01,-38.4493,28.8,685.661,-685.645,-458.975,1.29182e-08,-1.2918e-08,-8.64736e-09,825.101,-825.085,2.58875e-05,1.55453e-08,-1.55452e-08,4.87736e-16
0.799975,-0.24,0.0857871,0.01,-31.9653,28.8,673.139,-673.123,-443.839,1.26823e-08,-1.26821e-08,-8.36218e-09,806.295,-806.279,2.44074e-05,1.5191e-08,-1.51908e-08,4.59849e-16
0.809975,-0.24,0.0950921,0.01,-25.5487,28.8,660.89,-660.874,-429.34,1.24515e-08,-1.24513e-08,-8.08902e-09,788.105,-788.09,2.29411e-05,1.48483e-08,-1.48481e-08,4.32223e-16
0.819975,-0.24,0.104526,0.01,-19.1981,28.8,648.91,-648.894,-415.447,1.22258e-08,-1.22256e-08,-7.82727e-09,770.508,-770.492,2.15648e-05,1.45167e-08,-1.45166e-08,4.06294e-16
0.829975,-0.24,0.114056,0.01,-12.9125,28.8,637.195,-637.18,-402.129,1.20051e-08,-1.20049e-08,-7.57635e-09,753.477,-753.462,2.02744e-05,1.41959e-08,-1.41957e-08,3.81981e-16
0.839975,-0.24,0.12366,0.01,-6.69053,28.8,625.74,-625.726,-389.359,1.17892e-08,-1.17891e-08,-7.33574e-09,736.989,-736.974,1.90641e-05,1.38852e-08,-1.38851e-08,3.59179e-16
0.849975,-0.24,0.133322,0.01,-0.531163,28.8,614.542,-614.528,-377.107,1.15783e-08,-1.15781e-08,-7.10492e-09,721.022,-721.008,1.79291e-05,1.35844e-08,-1.35843e-08,3.37794e-16
0.859975,-0.24,0.143031,0.01,5.56674,28.8,603.595,-603.581,-365.351,1.1372e-08,-1.13719e-08,-6.88343e-09,705.556,-705.542,1.68651e-05,1.3293e-08,-1.32929e-08,3.17748e-16
0.869975,-0.24,0.152778,0.01,11.6043,28.8,592.894,-592.88,-354.065,1.11704e-08,-1.11703e-08,-6.67079e-09,690.57,-690.556,1.58681e-05,1.30107e-08,-1.30105e-08,2.98964e-16
0.879975,-0.24,0.162555,0.01,17.5825,28.8,582.434,-582.421,-343.227,1.09733e-08,-1.09732e-08,-6.4666e-09,676.044,-676.031,1.49336e-05,1.2737e-08,-1.27369e-08,2.81358e-16
0.889975,-0.24,0.172055,0.01,23.5026,28.8,572.211,-572.197,-332.816,1.07807e-08,-1.07806e-08,-6.27045e-09,661.961,-661.948,1.40576e-05,1.24717e-08,-1.24715e-08,2.64853e-16
0.899975,-0.24,0.181607,0.01,29.3653,28.8,562.218,-562.205,-322.811,1.05925e-08,-1.05923e-08,-6.08195e-09,648.304,-648.291,1.3236e-05,1.22144e-08,-1.22142e-08,2.49374e-16
0.909975,-0.24,0.191204,0.01,35.1719,28.8,552.452,-552.439,-313.194,1.04085e-08,-1.04083e-08,-5.90075e-09,635.055,-635.042,1.24653e-05,1.19647e-08,-1.19646e-08,2.34853e-16
0.919975,-0.24,0.200841,0.01,40.9232,28.8,542.906,-542.894,-303.945,1.02286e-08,-1.02285e-08,-5.72651e-09,622.199,-622.186,1.17429e-05,1.17225e-08,-1.17224e-08,2.21244e-16
0.929975,-0.24,0.210511,0.01,46.6203,28.8,533.577,-533.565,-295.049,1.00528e-08,-1.00527e-08,-5.5589e-09,609.721,-609.709,1.1066e-05,1.14874e-08,-1.14873e-08,2.0849e-16
0.939975,-0.24,0.220211,0.01,52.2639,28.8,524.542,-524.69,-286.495,9.88332e-09,-9.88481e-09,-5.39773e-09,597.673,-597.82,0.0732468,1.12611e-08,-1.12626e-08,1.38001e-12
0.949975,-0.24,0.229937,0.01,57.8552,28.8,516.656,-520.454,-279.769,9.75061e-09,-9.78914e-09,-5.27101e-09,587.312,-591.11,0.0951016,1.10818e-08,-1.11203e-08,1.79177e-12
0.959975,-0.24,0.239685,0.01,63.3948,28.8,508.592,-523.456,-274.832,9.64679e-09,-9.79758e-09,-5.178e-09,577.216,-592.08,0.342737,1.09397e-08,-1.10905e-08,6.45736e-12
-0.960025,-0.23,0.23738,0.01,62.0693,26.45,516.13,-527.893,266.088,9.77533e-09,-9.89467e-09,5.01326e-09,580.035,-591.798,0.654022,1.09793e-08,-1.10987e-08,1.23222e-11
-0.950025,-0.23,0.227739,0.01,56.5029,26.45,524.601,-528.385,270.759,9.90023e-09,-9.93863e-09,5.10126e-09,590.142,-593.927,-0.0352655,1.11351e-08,-1.11735e-08,-6.64422e-13
-0.940025,-0.23,0.2181,0.01,50.8841,26.45,532.791,-532.944,277.279,1.00388e-08,-1.00403e-08,5.22411e-09,600.616,-600.769,-0.0736168,1.13166e-08,-1.13182e-08,-1.38698e-12
-0.930025,-0.23,0.208299,0.01,45.2121,26.45,542.147,-542.134,285.617,1.02143e-08,-1.02142e-08,5.38119e-09,612.782,-612.769,-1.12646e-05,1.15451e-08,-1.1545e-08,-2.12231e-16
-0.920025,-0.23,0.198518,0.01,39.4859,26.45,551.817,-551.804,294.29,1.03965e-08,-1.03964e-08,5.54459e-09,625.387,-625.374,-1.19702e-05,1.17826e-08,-1.17825e-08,-2.25525e-16
-0.910025,-0.23,0.18876,0.01,33.7045,26.45,561.719,-561.705,303.309,1.05831e-08,-1.05829e-08,5.71452e-09,638.378,-638.364,-1.27244e-05,1.20273e-08,-1.20272e-08,-2.39735e-16
-0.900025,-0.23,0.179029,0.01,27.8669,26.45,571.86,-571.846,312.693,1.07741e-08,-1.0774e-08,5.89131e-09,651.768,-651.754,-1.35303e-05,1.22796e-08,-1.22795e-08,-2.54919e-16
-0.890025,-0.23,0.169329,0.01,21.9721,26.45,582.245,-582.23,322.457,1.09698e-08,-1.09696e-08,6.07528e-09,665.574,-665.56,-1.43916e-05,1.25397e-08,-1.25396e-08,-2.71146e-16
-0.880025,-0.23,0.159667,0.01,16.0191,26.45,592.881,-592.866,332.623,1.11702e-08,-1.117e-08,6.26681e-09,679.814,-679.799,-1.5313e-05,1.2808e-08,-1.28079e-08,-2.88505e-16
-0.870025,-0.23,0.150048,0.01,10.0068,26.45,603.774,-603.758,343.209,1.13754e-08,-1.13752e-08,6.46626e-09,694.504,-694.489,-1.62979e-05,1.30848e-08,-1.30846e-08,-3.07062e-16
-0.860025,-0.23,0.140483,0.01,3.93415,26.45,614.93,-614.914,354.238,1.15856e-08,-1.15854e-08,6.67404e-09,709.665,-709.649,-1.7351e-05,1.33704e-08,-1.33703e-08,-3.26903e-16
-0.850025,-0.23,0.130982,0.01,-2.20001,26.45,626.355,-626.339,365.731,1.18008e-08,-1.18007e-08,6.89058e-09,725.315,-725.299,-1.84776e-05,1.36653e-08,-1.36651e-08,-3.48129e-16
-0.840025,-0.23,0.121417,0.01,-8.39681,26.45,638.056,-638.04,377.713,1.20213e-08,-1.20211e-08,7.11634e-09,741.475,-741.459,-1.96832e-05,1.39697e-08,-1.39696e-08,-3.70842e-16
-0.830025,-0.23,0.111615,0.01,-14.6574,26.45,650.04,-650.023,390.21,1.22471e-08,-1.22469e-08,7.35178e-09,758.167,-758.151,-2.09725e-05,1.42842e-08,-1.42841e-08,-3.95134e-16
-0.820025,-0.23,0.101852,0.01,-20.983,26.45,662.312,-662.295,403.248,1.24783e-08,-1.24781e-08,7.59742e-09,775.414,-775.397,-2.23512e-05,1.46092e-08,-1.4609e-08,-4.21109e-16
-0.810025,-0.23,0.0921403,0.01,-27.3749,26.45,674.878,-674.861,416.856,1.2715e-08,-1.27148e-08,7.8538e-09,793.241,-793.224,-2.38262e-05,1.4945e-08,-1.49449e-08,-4.489e-16
-0.800025,-0.23,0.0824971,0.01,-33.8342,26.45,687.745,-687.727,431.064,1.29574e-08,-1.29573e-08,8.12149e-09,811.672,-811.654,-2.54126e-05,1.52923e-08,-1.52921e-08,-4.78787e-16
-0.790025,-0.23,0.07295,0.01,-40.3623,26.45,700.918,-700.9,445.905,1.32056e-08,-1.32054e-08,8.4011e-09,830.734,-830.716,-2.73299e-05,1.56514e-08,-1.56513e-08,-5.14911e-16
-0.780025,-0.23,0.0635423,0.01,-46.9605,26.45,714.403,-714.385,461.413,1.34597e-08,-1.34595e-08,8.69328e-09,850.456,-850.438,-3.15428e-05,1.6023e-08,-1.60228e-08,-5.94285e-16
-0.770025,-0.23,0.0543466,0.01,-53.6302,26.45,728.205,-728.186,477.624,1.37197e-08,-1.37195e-08,8.99871e-09,870.867,-870.849,-1.25814e-05,1.64076e-08,-1.64074e-08,-2.3704e-16
-0.760025,-0.23,0.0451417,0.01,-60.3726,26.45,742.329,-742.308,494.578,1.39858e-08,-1.39856e-08,9.31814e-09,892,-891.978,0.00120906,1.68057e-08,-1.68055e-08,2.27794e-14
-0.750025,-0.23,0.0351912,0.01,-67.1893,26.45,756.776,-756.698,512.314,1.42578e-08,-1.4257e-08,9.6523e-09,913.886,-913.808,0.0186396,1.72178e-08,-1.7217e-08,3.51182e-13
-0.740025,-0.23,0.0252799,0.01,-74.0817,26.45,771.047,-766.652,527.908,1.45079e-08,-1.44633e-08,9.94609e-09,934.836,-930.442,-0.915243,1.75938e-08,-1.75492e-08,-1.72437e-11
-0.730025,-0.23,0.0154829,0.01,-81.0512,26.45,784.375,-771.798,541.063,1.47234e-08,-1.45958e-08,1.01939e-08,954.001,-941.425,-2.66384,1.79193e-08,-1.77917e-08,-5.01884e-11
-0.720025,-0.23,0.00635386,0.01,-88.0983,26.45,790.03,-777.846,552.018,1.48316e-08,-1.4708e-08,1.04003e-08,964.873,-952.689,-4.66476,1.81258e-08,-1.80022e-08,-8.78868e-11
0.719975,-0.23,0.00631505,0.01,-88.1335,26.45,790.124,-777.787,-552.032,1.48328e-08,-1.47076e-08,-1.04006e-08,964.972,-952.635,4.70183,1.8127e-08,-1.80018e-08,8.85852e-11
0.729975,-0.23,0.0154349,0.01,-81.086,26.45,784.448,-771.834,-541.138,1.47246e-08,-1.45966e-08,-1.01953e-08,954.107,-941.494,2.6708,1.79211e-08,-1.77931e-08,5.03194e-11
0.739975,-0.23,0.0252307,0.01,-74.1162,26.45,771.12,-766.715,-527.997,1.45092e-08,-1.44645e-08,-9.94776e-09,934.947,-930.543,0.916043,1.75958e-08,-1.75511e-08,1.72588e-11
0.749975,-0.23,0.0351418,0.01,-67.2234,26.45,756.849,-756.77,-512.405,1.42591e-08,-1.42583e-08,-9.654e-09,913.997,-913.919,-0.0188492,1.72199e-08,-1.72191e-08,-3.5513e-13
0.759975,-0.23,0.0450921,0.01,-60.4064,26.45,742.4,-742.379,-494.664,1.39872e-08,-1.39869e-08,-9.31976e-09,892.107,-892.085,-0.00122927,1.68077e-08,-1.68075e-08,-2.31601e-14
0.769975,-0.23,0.0543016,0.01,-53.6635,26.45,728.275,-728.256,-477.706,1.3721e-08,-1.37208e-08,-9.00027e-09,870.971,-870.952,1.19844e-05,1.64095e-08,-1.64093e-08,2.25792e-16
0.779975,-0.23,0.063496,0.01,-46.9935,26.45,714.471,-714.452,-461.491,1.3461e-08,-1.34608e-08,-8.69477e-09,850.556,-850.538,3.15755e-05,1.60249e-08,-1.60247e-08,5.949e-16
0.789975,-0.23,0.0729028,0.01,-40.395,26.45,700.984,-700.966,-445.98,1.32069e-08,-1.32067e-08,-8.40252e-09,830.83,-830.813,2.73425e-05,1.56533e-08,-1.56531e-08,5.15149e-16
0.799975,-0.23,0.0824493,0.01,-33.8665,26.45,687.81,-687.792,-431.136,1.29587e-08,-1.29585e-08,-8.12285e-09,811.765,-811.747,2.54203e-05,1.5294e-08,-1.52939e-08,4.78934e-16
0.809975,-0.23,0.0920922,0.01,-27.4068,26.45,674.941,-674.924,-416.925,1.27162e-08,-1.2716e-08,-7.8551e-09,793.331,-793.314,2.38332e-05,1.49467e-08,-1.49466e-08,4.49031e-16
0.819975,-0.23,0.101804,0.01,-21.0147,26.45,662.374,-662.357,-403.314,1.24794e-08,-1.24793e-08,-7.59867e-09,775.502,-775.485,2.23581e-05,1.46108e-08,-1.46107e-08,4.2124e-16
0.829975,-0.23,0.111567,0.01,-14.6887,26.45,650.1,-650.084,-390.273,1.22482e-08,-1.2248e-08,-7.35297e-09,758.252,-758.235,2.0979e-05,1.42858e-08,-1.42857e-08,3.95256e-16
0.839975,-0.23,0.121368,0.01,-8.42779,26.45,638.115,-638.099,-377.774,1.20224e-08,-1.20222e-08,-7.11748e-09,741.557,-741.54,1.96895e-05,1.39713e-08,-1.39711e-08,3.70961e-16
0.849975,-0.23,0.130935,0.01,-2.23067,26.45,626.413,-626.397,-365.789,1.18019e-08,-1.18017e-08,-6.89168e-09,725.394,-725.378,1.84838e-05,1.36668e-08,-1.36666e-08,3.48245e-16
0.859975,-0.23,0.140435,0.01,3.9038,26.45,614.986,-614.97,-354.294,1.15866e-08,-1.15865e-08,-6.6751e-09,709.741,-709.726,1.73567e-05,1.33719e-08,-1.33717e-08,3.27009e-16
0.869975,-0.23,0.15,0.01,9.97677,26.45,603.828,-603.813,-343.263,1.13764e-08,-1.13763e-08,-6.46727e-09,694.579,-694.563,1.6303e-05,1.30862e-08,-1.3086e-08,3.07158e-16
0.879975,-0.23,0.159619,0.01,15.9894,26.45,592.934,-592.919,-332.674,1.11712e-08,-1.1171e-08,-6.26778e-09,679.886,-679.871,1.53177e-05,1.28094e-08,-1.28092e-08,2.88595e-16
0.889975,-0.23,0.169281,0.01,21.9426,26.45,582.297,-582.283,-322.507,1.09708e-08,-1.09706e-08,-6.07622e-09,665.644,-665.629,1.43966e-05,1.25411e-08,-1.25409e-08,2.71239e-16
0.899975,-0.23,0.178981,0.01,27.8377,26.45,571.911,-571.897,-312.74,1.07751e-08,-1.07749e-08,-5.89221e-09,651.835,-651.821,1.35346e-05,1.22809e-08,-1.22808e-08,2.55001e-16
0.909975,-0.23,0.188712,0.01,33.6756,26.45,561.769,-561.755,-303.355,1.0584e-08,-1.05839e-08,-5.71539e-09,638.443,-638.43,1.27281e-05,1.20286e-08,-1.20284e-08,2.39804e-16
0.919975,-0.23,0.19847,0.01,39.4573,26.45,551.866,-551.852,-294.334,1.03974e-08,-1.03973e-08,-5.54542e-09,625.451,-625.438,1.19737e-05,1.17838e-08,-1.17837e-08,2.25591e-16
0.929975,-0.23,0.20825,0.01,45.1838,26.45,542.195,-542.182,-285.659,1.02152e-08,-1.02151e-08,-5.38198e-09,612.844,-612.831,1.12676e-05,1.15463e-08,-1.15461e-08,2.12288e-16
0.939975,-0.23,0.218051,0.01,50.856,26.45,532.837,-532.99,-277.32,1.00396e-08,-1.00412e-08,-5.22487e-09,600.676,-600.829,0.0736291,1.13178e-08,-1.13193e-08,1.38722e-12
0.949975,-0.23,0.227691,0.01,56.4751,26.45,524.646,-528.431,-270.798,9.90109e-09,-9.93949e-09,-5.102e-09,590.201,-593.986,0.0353101,1.11362e-08,-1.11746e-08,6.65262e-13
0.959975,-0.23,0.237332,0.01,62.0417,26.45,516.174,-527.939,-266.127,9.77617e-09,-9.89553e-09,-5.01398e-09,580.092,-591.857,-0.65413,1.09804e-08,-1.10998e-08,-1.23242e-11
-0.970025,-0.22,0.244743,0.01,66.308,24.2,520.734,-519.819,247.296,9.80694e-09,-9.79766e-09,4.6592e-09,576.514,-575.599,-1.35033,1.08579e-08,-1.08486e-08,-2.54409e-11
-0.960025,-0.22,0.234978,0.01,60.7677,24.2,523.695,-527.128,254.435,9.88164e-09,-9.91647e-09,4.79371e-09,582.059,-585.492,0.25318,1.09813e-08,-1.10161e-08,4.77005e-12
-0.950025,-0.22,0.225234,0.01,55.1753,24.2,531.461,-532.856,260.935,1.00191e-08,-1.00333e-08,4.91617e-09,591.991,-593.386,0.450924,1.11595e-08,-1.11737e-08,8.49566e-12
-0.940025,-0.22,0.215514,0.01,49.5297,24.2,540.777,-540.773,267.791,1.01885e-08,-1.01885e-08,5.04534e-09,603.45,-603.446,0.00134932,1.13693e-08,-1.13693e-08,2.5422e-14
-0.930025,-0.22,0.20582,0.01,43.83,24.2,550.537,-550.523,275.897,1.03724e-08,-1.03722e-08,5.19807e-09,615.801,-615.787,-1.1417e-05,1.1602e-08,-1.16019e-08,-2.15102e-16
-0.920025,-0.22,0.196157,0.01,38.0752,24.2,560.542,-560.528,284.333,1.05609e-08,-1.05607e-08,5.357e-09,628.533,-628.519,-1.21484e-05,1.18419e-08,-1.18417e-08,-2.28883e-16
-0.910025,-0.22,0.18653,0.01,32.2645,24.2,570.796,-570.781,293.109,1.07541e-08,-1.07539e-08,5.52233e-09,641.655,-641.641,-1.29312e-05,1.20891e-08,-1.20889e-08,-2.43631e-16
-0.900025,-0.22,0.176931,0.01,26.3966,24.2,581.306,-581.291,302.241,1.09521e-08,-1.09519e-08,5.6944e-09,655.185,-655.17,-1.37692e-05,1.2344e-08,-1.23438e-08,-2.59419e-16
-0.890025,-0.22,0.16711,0.01,20.4706,24.2,592.079,-592.063,311.749,1.1155e-08,-1.11549e-08,5.87353e-09,669.138,-669.122,-1.46667e-05,1.26069e-08,-1.26067e-08,-2.7633e-16
-0.880025,-0.22,0.157311,0.01,14.4854,24.2,603.122,-603.106,321.65,1.13631e-08,-1.13629e-08,6.06008e-09,683.532,-683.516,-1.5629e-05,1.28781e-08,-1.28779e-08,-2.94459e-16
-0.870025,-0.22,0.147539,0.01,8.43984,24.2,614.443,-614.426,331.966,1.15764e-08,-1.15762e-08,6.25443e-09,698.386,-698.369,-1.66603e-05,1.31579e-08,-1.31578e-08,-3.13889e-16
-0.860025,-0.22,0.137799,0.01,2.33287,24.2,626.049,-626.032,342.717,1.1795e-08,-1.17949e-08,6.45698e-09,713.718,-713.701,-1.77653e-05,1.34468e-08,-1.34466e-08,-3.34708e-16
-0.850025,-0.22,0.1281,0.01,-3.83671,24.2,637.947,-637.93,353.925,1.20192e-08,-1.20191e-08,6.66816e-09,729.549,-729.532,-1.89502e-05,1.37451e-08,-1.37449e-08,-3.57033e-16
-0.840025,-0.22,0.118451,0.01,-10.0701,24.2,650.147,-650.129,365.616,1.22491e-08,-1.22489e-08,6.88842e-09,745.901,-745.883,-2.02211e-05,1.40531e-08,-1.40529e-08,-3.80977e-16
-0.830025,-0.22,0.108865,0.01,-16.3685,24.2,662.655,-662.636,377.814,1.24847e-08,-1.24845e-08,7.11823e-09,762.795,-762.777,-2.15844e-05,1.43714e-08,-1.43712e-08,-4.06662e-16
-0.820025,-0.22,0.0993607,0.01,-22.7331,24.2,675.478,-675.46,390.546,1.27263e-08,-1.27261e-08,7.35811e-09,780.256,-780.237,-2.30463e-05,1.47004e-08,-1.47002e-08,-4.34206e-16
-0.810025,-0.22,0.0899641,0.01,-29.1653,24.2,688.626,-688.607,403.841,1.2974e-08,-1.29738e-08,7.6086e-09,798.308,-798.289,-2.46148e-05,1.50405e-08,-1.50403e-08,-4.63756e-16
-0.800025,-0.22,0.0802759,0.01,-35.6664,24.2,702.106,-702.087,417.73,1.3228e-08,-1.32278e-08,7.87027e-09,816.978,-816.959,-2.62703e-05,1.53923e-08,-1.53921e-08,-4.94949e-16
-0.790025,-0.22,0.0704284,0.01,-42.2377,24.2,715.925,-715.906,432.244,1.34884e-08,-1.34882e-08,8.14373e-09,836.294,-836.274,-2.75318e-05,1.57562e-08,-1.5756e-08,-5.18716e-16
-0.780025,-0.22,0.0606307,0.01,-48.8806,24.2,730.092,-730.072,447.419,1.37553e-08,-1.37551e-08,8.42964e-09,856.284,-856.263,-2.56896e-05,1.61328e-08,-1.61326e-08,-4.84006e-16
-0.770025,-0.22,0.0509118,0.01,-55.5965,24.2,744.614,-744.594,463.291,1.40289e-08,-1.40287e-08,8.72868e-09,876.979,-876.958,-0.000117845,1.65227e-08,-1.65225e-08,-2.22026e-15
-0.760025,-0.22,0.0413272,0.01,-62.3868,24.2,759.5,-759.486,479.899,1.43094e-08,-1.43092e-08,9.04157e-09,898.412,-898.398,-0.00347736,1.69265e-08,-1.69264e-08,-6.55155e-14
-0.750025,-0.22,0.0319979,0.01,-69.2531,24.2,774.55,-774.238,497.256,1.45916e-08,-1.45884e-08,9.36859e-09,920.455,-920.142,0.162325,1.73405e-08,-1.73374e-08,3.0583e-12
-0.740025,-0.22,0.0232334,0.01,-76.1969,24.2,787.632,-779.006,512.48,1.48019e-08,-1.47144e-08,9.65542e-09,940.381,-931.755,1.3278,1.76798e-08,-1.75923e-08,2.50165e-11
-0.730025,-0.22,0.0159911,0.01,-83.2199,24.2,803.457,-771.892,523.191,1.50004e-08,-1.46801e-08,9.85722e-09,961.382,-929.817,0.851946,1.79758e-08,-1.76555e-08,1.60512e-11
0.729975,-0.22,0.0159626,0.01,-83.2551,24.2,803.541,-771.904,-523.292,1.50016e-08,-1.46807e-08,-9.85912e-09,961.515,-929.877,-0.874024,1.79779e-08,-1.7657e-08,-1.64671e-11
0.739975,-0.22,0.0231923,0.01,-76.2316,24.2,787.703,-779.07,-512.577,1.48033e-08,-1.47157e-08,-9.65726e-09,940.494,-931.861,-1.33846,1.76819e-08,-1.75943e-08,-2.52173e-11
0.749975,-0.22,0.0319525,0.01,-69.2875,24.2,774.626,-774.314,-497.344,1.45931e-08,-1.45899e-08,-9.37025e-09,920.567,-920.254,-0.162546,1.73426e-08,-1.73395e-08,-3.06246e-12
0.759975,-0.22,0.04128,0.01,-62.4208,24.2,759.575,-759.561,-479.983,1.43108e-08,-1.43106e-08,-9.04316e-09,898.521,-898.507,0.00353072,1.69286e-08,-1.69284e-08,6.65209e-14
0.769975,-0.22,0.0508637,0.01,-55.63,24.2,744.687,-744.667,-463.372,1.40303e-08,-1.403e-08,-8.7302e-09,877.084,-877.063,0.000119877,1.65247e-08,-1.65245e-08,2.25855e-15
0.779975,-0.22,0.0605821,0.01,-48.9138,24.2,730.164,-730.143,-447.496,1.37566e-08,-1.37564e-08,-8.43109e-09,856.385,-856.364,2.56801e-05,1.61347e-08,-1.61345e-08,4.83828e-16
0.789975,-0.22,0.0703795,0.01,-42.2705,24.2,715.995,-715.975,-432.318,1.34897e-08,-1.34895e-08,-8.14512e-09,836.391,-836.371,2.75341e-05,1.5758e-08,-1.57578e-08,5.18759e-16
0.799975,-0.22,0.0802269,0.01,-35.6989,24.2,702.174,-702.154,-417.8,1.32293e-08,-1.32291e-08,-7.8716e-09,817.073,-817.053,2.62784e-05,1.5394e-08,-1.53938e-08,4.951e-16
0.809975,-0.22,0.0899177,0.01,-29.1975,24.2,688.692,-688.673,-403.909,1.29753e-08,-1.29751e-08,-7.60987e-09,798.399,-798.38,2.46228e-05,1.50422e-08,-1.5042e-08,4.63907e-16
0.819975,-0.22,0.0993137,0.01,-22.7649,24.2,675.543,-675.524,-390.611,1.27275e-08,-1.27274e-08,-7.35933e-09,780.344,-780.326,2.30539e-05,1.47021e-08,-1.47019e-08,4.34348e-16
0.829975,-0.22,0.108817,0.01,-16.4,24.2,662.718,-662.699,-377.876,1.24859e-08,-1.24857e-08,-7.1194e-09,762.88,-762.862,2.15909e-05,1.4373e-08,-1.43728e-08,4.06785e-16
0.839975,-0.22,0.118403,0.01,-10.1012,24.2,650.208,-650.191,-365.675,1.22502e-08,-1.225e-08,-6.88954e-09,745.983,-745.966,2.02271e-05,1.40547e-08,-1.40545e-08,3.8109e-16
0.849975,-0.22,0.128052,0.01,-3.86755,24.2,638.007,-637.99,-353.982,1.20204e-08,-1.20202e-08,-6.66923e-09,729.629,-729.612,1.8956e-05,1.37466e-08,-1.37464e-08,3.57143e-16
0.859975,-0.22,0.137751,0.01,2.30234,24.2,626.107,-626.09,-342.771,1.17961e-08,-1.1796e-08,-6.45801e-09,713.795,-713.778,1.77709e-05,1.34482e-08,-1.34481e-08,3.34814e-16
0.869975,-0.22,0.14749,0.01,8.40962,24.2,614.5,-614.483,-332.018,1.15775e-08,-1.15773e-08,-6.25542e-09,698.461,-698.444,1.66653e-05,1.31593e-08,-1.31592e-08,3.13984e-16
0.879975,-0.22,0.157262,0.01,14.4555,24.2,603.177,-603.161,-321.701,1.13641e-08,-1.1364e-08,-6.06103e-09,683.605,-683.589,1.5634e-05,1.28794e-08,-1.28793e-08,2.94553e-16
0.889975,-0.22,0.167061,0.01,20.441,24.2,592.133,-592.117,-311.797,1.11561e-08,-1.11559e-08,-5.87444e-09,669.208,-669.193,1.46717e-05,1.26082e-08,-1.2608e-08,2.76423e-16
0.899975,-0.22,0.176882,0.01,26.3673,24.2,581.359,-581.344,-302.288,1.09531e-08,-1.09529e-08,-5.69527e-09,655.253,-655.238,1.37733e-05,1.23453e-08,-1.23451e-08,2.59497e-16
0.909975,-0.22,0.186482,0.01,32.2354,24.2,570.848,-570.833,-293.153,1.0755e-08,-1.07549e-08,-5.52317e-09,641.722,-641.707,1.2935e-05,1.20903e-08,-1.20902e-08,2.43704e-16
0.919975,-0.22,0.196109,0.01,38.0465,24.2,560.592,-560.578,-284.376,1.05618e-08,-1.05617e-08,-5.3578e-09,628.597,-628.583,1.21524e-05,1.18431e-08,-1.18429e-08,2.28958e-16
0.929975,-0.22,0.205772,0.01,43.8015,24.2,550.586,-550.572,-275.938,1.03733e-08,-1.03732e-08,-5.19884e-09,615.864,-615.85,1.14207e-05,1.16032e-08,-1.1603e-08,2.15173e-16
0.939975,-0.22,0.215466,0.01,49.5014,24.2,540.825,-540.821,-267.831,1.01894e-08,-1.01894e-08,-5.04609e-09,603.511,-603.506,-0.00134933,1.13705e-08,-1.13704e-08,-2.54221e-14
0.949975,-0.22,0.225186,0.01,55.1473,24.2,531.508,-532.903,-260.973,1.002e-08,-1.00341e-08,-4.91689e-09,592.05,-593.445,-0.450997,1.11606e-08,-1.11748e-08,-8.49705e-12
0.959975,-0.22,0.23493,0.01,60.74,24.2,523.741,-527.174,-254.472,9.88251e-09,-9.91734e-09,-4.79441e-09,582.117,-585.55,-0.253339,1.09823e-08,-1.10172e-08,-4.77305e-12
0.969975,-0.22,0.244694,0.01,66.2806,24.2,520.779,-519.864,-247.332,9.8078e-09,-9.79852e-09,-4.65988e-09,576.57,-575.655,1.35026,1.08589e-08,-1.08497e-08,2.54396e-11
-0.970025,-0.21,0.242826,0.01,65.0831,22.05,525.833,-528.326,239.887,9.91784e-09,-9.94314e-09,4.51961e-09,577.855,-580.348,0.410367,1.0898e-08,-1.09233e-08,7.73155e-12
-0.960025,-0.21,0.232981,0.01,59.5184,22.05,531.404,-533.187,244.032,1.00197e-08,-1.00378e-08,4.59771e-09,584.676,-586.46,-0.494167,1.10234e-08,-1.10415e-08,-9.31038e-12
-0.950025,-0.21,0.22315,0.01,53.9008,22.05,538.902,-539,250.374,1.01537e-08,-1.01546e-08,4.71719e-09,594.22,-594.318,-0.120524,1.11959e-08,-1.11969e-08,-2.27075e-12
-0.940025,-0.21,0.213334,0.01,48.2293,22.05,548.609,-548.595,257.989,1.0336e-08,-1.03359e-08,4.86066e-09,606.243,-606.229,-1.08148e-05,1.14219e-08,-1.14218e-08,-2.03757e-16
-0.930025,-0.21,0.203537,0.01,42.5029,22.05,558.685,-558.67,265.854,1.05259e-08,-1.05257e-08,5.00884e-09,618.715,-618.7,-1.1517e-05,1.16569e-08,-1.16567e-08,-2.16988e-16
-0.920025,-0.21,0.19376,0.01,36.7207,22.05,569.018,-569.003,274.036,1.07206e-08,-1.07204e-08,5.163e-09,631.568,-631.553,-1.22701e-05,1.1899e-08,-1.18989e-08,-2.31176e-16
-0.910025,-0.21,0.184008,0.01,30.8815,22.05,579.617,-579.601,282.551,1.09202e-08,-1.09201e-08,5.32342e-09,644.819,-644.803,-1.30773e-05,1.21487e-08,-1.21485e-08,-2.46385e-16
-0.900025,-0.21,0.174283,0.01,24.9844,22.05,590.489,-590.473,291.415,1.11251e-08,-1.11249e-08,5.49043e-09,658.484,-658.468,-1.39431e-05,1.24061e-08,-1.2406e-08,-2.62696e-16
-0.890025,-0.21,0.164591,0.01,19.0283,22.05,601.642,-601.625,300.647,1.13352e-08,-1.1335e-08,5.66436e-09,672.579,-672.563,-1.48724e-05,1.26717e-08,-1.26715e-08,-2.80205e-16
-0.880025,-0.21,0.154939,0.01,13.0119,22.05,613.085,-613.068,310.264,1.15508e-08,-1.15506e-08,5.84556e-09,687.123,-687.106,-1.58704e-05,1.29457e-08,-1.29456e-08,-2.99007e-16
-0.870025,-0.21,0.145333,0.01,6.93431,22.05,624.827,-624.809,320.288,1.1772e-08,-1.17718e-08,6.03441e-09,702.135,-702.117,-1.69422e-05,1.32286e-08,-1.32284e-08,-3.192e-16
-0.860025,-0.21,0.135785,0.01,0.794193,22.05,636.875,-636.857,330.738,1.1999e-08,-1.19988e-08,6.2313e-09,717.634,-717.616,-1.80936e-05,1.35206e-08,-1.35204e-08,-3.40894e-16
-0.850025,-0.21,0.125948,0.01,-5.40961,22.05,649.239,-649.221,341.638,1.2232e-08,-1.22318e-08,6.43666e-09,733.642,-733.623,-1.93307e-05,1.38222e-08,-1.3822e-08,-3.64202e-16
-0.840025,-0.21,0.11612,0.01,-11.6783,22.05,661.929,-661.91,353.012,1.2471e-08,-1.24708e-08,6.65095e-09,750.179,-750.16,-2.06606e-05,1.41337e-08,-1.41335e-08,-3.89258e-16
-0.830025,-0.21,0.106324,0.01,-18.0133,22.05,674.953,-674.933,364.884,1.27164e-08,-1.27162e-08,6.87462e-09,767.27,-767.251,-2.2091e-05,1.44557e-08,-1.44555e-08,-4.16208e-16
-0.820025,-0.21,0.09657,0.01,-24.4157,22.05,688.321,-688.301,377.282,1.29683e-08,-1.29681e-08,7.1082e-09,784.939,-784.919,-2.36291e-05,1.47886e-08,-1.47884e-08,-4.45185e-16
-0.810025,-0.21,0.086872,0.01,-30.8869,22.05,702.043,-702.022,390.234,1.32268e-08,-1.32266e-08,7.35223e-09,803.211,-803.19,-2.52859e-05,1.51329e-08,-1.51327e-08,-4.76401e-16
-0.800025,-0.21,0.0772511,0.01,-37.4284,22.05,716.128,-716.106,403.77,1.34922e-08,-1.34919e-08,7.60726e-09,822.114,-822.093,-2.71417e-05,1.5489e-08,-1.54888e-08,-5.11366e-16
-0.790025,-0.21,0.0677401,0.01,-44.0415,22.05,730.586,-730.564,417.924,1.37646e-08,-1.37643e-08,7.87393e-09,841.676,-841.654,-3.01764e-05,1.58576e-08,-1.58573e-08,-5.6854e-16
-0.780025,-0.21,0.0583927,0.01,-50.7276,22.05,745.427,-745.404,432.729,1.40442e-08,-1.40439e-08,8.15287e-09,861.927,-861.905,-3.56951e-05,1.62391e-08,-1.62389e-08,-6.72517e-16
-0.770025,-0.21,0.0492998,0.01,-57.4883,22.05,760.661,-760.637,448.223,1.43312e-08,-1.43309e-08,8.44478e-09,882.9,-882.876,0.000254136,1.66342e-08,-1.6634e-08,4.78807e-15
-0.760025,-0.21,0.0393242,0.01,-64.325,22.05,776.295,-776.256,464.448,1.46257e-08,-1.46253e-08,8.75047e-09,904.627,-904.588,0.00857351,1.70435e-08,-1.70431e-08,1.6153e-13
-0.750025,-0.21,0.0293653,0.01,-71.2394,22.05,792.167,-792.156,481.749,1.49248e-08,-1.49247e-08,9.07643e-09,927.152,-927.142,0.358481,1.7468e-08,-1.74679e-08,6.754e-12
-0.740025,-0.21,0.0194486,0.01,-78.233,22.05,804.305,-800.849,498.738,1.51385e-08,-1.51035e-08,9.39651e-09,946.641,-943.185,2.84492,1.78202e-08,-1.77852e-08,5.35999e-11
-0.730025,-0.21,0.0097044,0.01,-85.3071,22.05,810.915,-793.262,513.665,1.52014e-08,-1.50223e-08,9.67774e-09,961.253,-943.6,8.95845,1.80338e-08,-1.78547e-08,1.68782e-10
0.729975,-0.21,0.00965725,0.01,-85.3424,22.05,810.913,-793.331,-513.802,1.52016e-08,-1.50233e-08,-9.68032e-09,961.319,-943.738,-9.02206,1.80354e-08,-1.7857e-08,-1.69981e-10
0.739975,-0.21,0.0193995,0.01,-78.268,22.05,804.375,-800.946,-498.847,1.514e-08,-1.51052e-08,-9.39858e-09,946.757,-943.327,-2.86124,1.78225e-08,-1.77877e-08,-5.39074e-11
0.749975,-0.21,0.0293159,0.01,-71.274,22.05,792.247,-792.242,-481.84,1.49264e-08,-1.49263e-08,-9.07815e-09,927.268,-927.263,-0.361728,1.74702e-08,-1.74702e-08,-6.81516e-12
0.759975,-0.21,0.0392746,0.01,-64.3592,22.05,776.373,-776.334,-464.53,1.46272e-08,-1.46268e-08,-8.75202e-09,904.737,-904.698,-0.00870009,1.70456e-08,-1.70452e-08,-1.63915e-13
0.769975,-0.21,0.0492501,0.01,-57.5221,22.05,760.738,-760.714,-448.302,1.43326e-08,-1.43324e-08,-8.44627e-09,883.006,-882.982,-0.000259918,1.66362e-08,-1.6636e-08,-4.897e-15
0.779975,-0.21,0.0583468,0.01,-50.761,22.05,745.502,-745.479,-432.805,1.40456e-08,-1.40454e-08,-8.15429e-09,862.03,-862.007,3.5668e-05,1.6241e-08,-1.62408e-08,6.72006e-16
0.789975,-0.21,0.0676932,0.01,-44.0745,22.05,730.659,-730.637,-417.996,1.37659e-08,-1.37657e-08,-7.87529e-09,841.775,-841.753,3.02004e-05,1.58594e-08,-1.58592e-08,5.68993e-16
0.799975,-0.21,0.0772035,0.01,-37.4611,22.05,716.199,-716.177,-403.839,1.34935e-08,-1.34933e-08,-7.60856e-09,822.21,-822.188,2.71523e-05,1.54908e-08,-1.54906e-08,5.11566e-16
0.809975,-0.21,0.086824,0.01,-30.9193,22.05,702.112,-702.091,-390.299,1.32281e-08,-1.32279e-08,-7.35347e-09,803.304,-803.283,2.52951e-05,1.51346e-08,-1.51344e-08,4.76575e-16
0.819975,-0.21,0.0965216,0.01,-24.4477,22.05,688.388,-688.368,-377.345,1.29695e-08,-1.29693e-08,-7.10939e-09,785.028,-785.008,2.36376e-05,1.47903e-08,-1.47901e-08,4.45346e-16
0.829975,-0.21,0.106275,0.01,-18.0449,22.05,675.019,-674.999,-364.944,1.27177e-08,-1.27175e-08,-6.87576e-09,767.357,-767.337,2.20984e-05,1.44574e-08,-1.44572e-08,4.16347e-16
0.839975,-0.21,0.116071,0.01,-11.7097,22.05,661.993,-661.974,-353.07,1.24722e-08,-1.24721e-08,-6.65204e-09,750.263,-750.244,2.06674e-05,1.41353e-08,-1.41351e-08,3.89385e-16
0.849975,-0.21,0.125899,0.01,-5.44062,22.05,649.302,-649.283,-341.694,1.22331e-08,-1.22329e-08,-6.43771e-09,733.723,-733.704,1.9337e-05,1.38237e-08,-1.38235e-08,3.6432e-16
0.859975,-0.21,0.135738,0.01,0.7635,22.05,636.936,-636.917,-330.791,1.20002e-08,-1.2e-08,-6.2323e-09,717.713,-717.694,1.80995e-05,1.3522e-08,-1.35219e-08,3.41005e-16
0.869975,-0.21,0.145286,0.01,6.90393,22.05,624.886,-624.868,-320.339,1.17731e-08,-1.1773e-08,-6.03536e-09,702.211,-702.193,1.69478e-05,1.323e-08,-1.32298e-08,3.19307e-16
0.879975,-0.21,0.154891,0.01,12.9819,22.05,613.143,-613.126,-310.313,1.15519e-08,-1.15517e-08,-5.84648e-09,687.197,-687.18,1.58757e-05,1.29471e-08,-1.29469e-08,2.99107e-16
0.889975,-0.21,0.164543,0.01,18.9985,22.05,601.698,-601.682,-300.693,1.13363e-08,-1.13361e-08,-5.66524e-09,672.65,-672.634,1.4877e-05,1.26731e-08,-1.26729e-08,2.80292e-16
0.899975,-0.21,0.174235,0.01,24.9549,22.05,590.544,-590.527,-291.46,1.11261e-08,-1.11259e-08,-5.49128e-09,658.553,-658.537,1.3947e-05,1.24074e-08,-1.24073e-08,2.62769e-16
0.909975,-0.21,0.183959,0.01,30.8523,22.05,579.67,-579.655,-282.594,1.09213e-08,-1.09211e-08,-5.32423e-09,644.886,-644.87,1.30812e-05,1.215e-08,-1.21498e-08,2.46456e-16
0.919975,-0.21,0.193712,0.01,36.6918,22.05,569.07,-569.055,-274.077,1.07215e-08,-1.07214e-08,-5.16378e-09,631.633,-631.618,1.2274e-05,1.19003e-08,-1.19001e-08,2.3125e-16
0.929975,-0.21,0.203488,0.01,42.4743,22.05,558.736,-558.721,-265.894,1.05268e-08,-1.05267e-08,-5.00959e-09,618.778,-618.763,1.15209e-05,1.16581e-08,-1.16579e-08,2.17061e-16
0.939975,-0.21,0.213286,0.01,48.2009,22.05,548.658,-548.644,-258.027,1.0337e-08,-1.03368e-08,-4.86138e-09,606.304,-606.29,1.08186e-05,1.14231e-08,-1.14229e-08,2.03829e-16
0.949975,-0.21,0.223101,0.01,53.8727,22.05,538.95,-539.048,-250.411,1.01546e-08,-1.01556e-08,-4.71789e-09,594.279,-594.377,0.120528,1.1197e-08,-1.1198e-08,2.27082e-12
0.959975,-0.21,0.232932,0.01,59.4906,22.05,531.451,-533.235,-244.068,1.00206e-08,-1.00387e-08,-4.59838e-09,584.734,-586.518,0.494167,1.10245e-08,-1.10426e-08,9.3104e-12
0.969975,-0.21,0.242777,0.01,65.0555,22.05,525.88,-528.373,-239.922,9.91872e-09,-9.94402e-09,-4.52027e-09,577.912,-580.405,-0.410555,1.0899e-08,-1.09243e-08,-7.7351e-12
-0.970025,-0.2,0.240515,0.01,63.9102,20,530.002,-537.084,232.169,1.00163e-08,-1.00882e-08,4.37421e-09,578.323,-585.406,2.19444,1.09267e-08,-1.09986e-08,4.13446e-11
-0.960025,-0.2,0.230755,0.01,58.322,20,537.569,-540.737,235.329,1.01419e-08,-1.0174e-08,4.43374e-09,586.689,-589.857,0.454765,1.10673e-08,-1.10995e-08,8.56804e-12
-0.950025,-0.2,0.221016,0.01,52.6801,20,546.169,-546.331,240.585,1.02908e-08,-1.02925e-08,4.53276e-09,596.803,-596.965,-0.0683099,1.12448e-08,-1.12465e-08,-1.287e-12
-0.940025,-0.2,0.211301,0.01,46.9837,20,556.194,-556.178,247.89,1.04789e-08,-1.04788e-08,4.67039e-09,608.935,-608.92,-1.08439e-05,1.14726e-08,-1.14725e-08,-2.04305e-16
-0.930025,-0.2,0.201614,0.01,41.2317,20,566.575,-566.559,255.494,1.06745e-08,-1.06744e-08,4.81365e-09,621.518,-621.503,-1.1561e-05,1.17097e-08,-1.17095e-08,-2.17815e-16
-0.920025,-0.2,0.191855,0.01,35.423,20,577.229,-577.213,263.406,1.08753e-08,-1.08751e-08,4.96273e-09,634.49,-634.474,-1.23309e-05,1.19541e-08,-1.19539e-08,-2.32322e-16
-0.910025,-0.2,0.182,0.01,29.5565,20,588.165,-588.148,271.644,1.10813e-08,-1.10811e-08,5.11792e-09,647.865,-647.848,-1.3158e-05,1.22061e-08,-1.22059e-08,-2.47904e-16
-0.900025,-0.2,0.172162,0.01,23.6313,20,599.39,-599.373,280.222,1.12928e-08,-1.12926e-08,5.27954e-09,661.66,-661.643,-1.40469e-05,1.2466e-08,-1.24658e-08,-2.64651e-16
-0.890025,-0.2,0.162344,0.01,17.6461,20,610.916,-610.898,289.159,1.15099e-08,-1.15098e-08,5.44792e-09,675.894,-675.876,-1.50026e-05,1.27341e-08,-1.2734e-08,-2.82657e-16
-0.880025,-0.2,0.15255,0.01,11.5998,20,622.75,-622.732,298.472,1.17329e-08,-1.17327e-08,5.62339e-09,690.583,-690.565,-1.60305e-05,1.30109e-08,-1.30107e-08,-3.02025e-16
-0.870025,-0.2,0.142784,0.01,5.49125,20,634.903,-634.885,308.183,1.19619e-08,-1.19617e-08,5.80634e-09,705.748,-705.729,-1.7137e-05,1.32966e-08,-1.32964e-08,-3.22871e-16
-0.860025,-0.2,0.133052,0.01,-0.6808,20,647.385,-647.366,318.31,1.2197e-08,-1.21968e-08,5.99715e-09,721.409,-721.389,-1.83281e-05,1.35917e-08,-1.35915e-08,-3.45312e-16
-0.850025,-0.2,0.123364,0.01,-6.91759,20,660.206,-660.186,328.878,1.24386e-08,-1.24384e-08,6.19625e-09,737.587,-737.567,-1.96104e-05,1.38965e-08,-1.38963e-08,-3.69472e-16
-0.840025,-0.2,0.113729,0.01,-13.2204,20,673.377,-673.356,339.909,1.26867e-08,-1.26865e-08,6.40409e-09,754.305,-754.284,-2.0992e-05,1.42115e-08,-1.42112e-08,-3.95501e-16
-0.830025,-0.2,0.104164,0.01,-19.5906,20,686.908,-686.886,351.429,1.29416e-08,-1.29414e-08,6.62112e-09,771.587,-771.565,-2.24816e-05,1.4537e-08,-1.45368e-08,-4.23566e-16
-0.820025,-0.2,0.0946884,0.01,-26.0294,20,700.81,-700.788,363.463,1.32036e-08,-1.32033e-08,6.84786e-09,789.457,-789.435,-2.40874e-05,1.48737e-08,-1.48735e-08,-4.5382e-16
-0.810025,-0.2,0.0848527,0.01,-32.5383,20,715.096,-715.073,376.042,1.34727e-08,-1.34725e-08,7.08484e-09,807.943,-807.92,-2.58114e-05,1.5222e-08,-1.52218e-08,-4.86302e-16
-0.800025,-0.2,0.0749731,0.01,-39.1188,20,729.776,-729.753,389.194,1.37493e-08,-1.37491e-08,7.33264e-09,827.071,-827.048,-2.751e-05,1.55824e-08,-1.55822e-08,-5.18304e-16
-0.790025,-0.2,0.0651302,0.01,-45.7722,20,744.863,-744.839,402.952,1.40335e-08,-1.40333e-08,7.59185e-09,846.873,-846.849,-2.75378e-05,1.59555e-08,-1.59552e-08,-5.18829e-16
-0.780025,-0.2,0.0553437,0.01,-52.5001,20,760.368,-760.344,417.351,1.43257e-08,-1.43254e-08,7.86314e-09,867.378,-867.353,-3.39583e-05,1.63418e-08,-1.63415e-08,-6.39793e-16
-0.770025,-0.2,0.0456499,0.01,-59.3041,20,776.305,-776.281,432.427,1.46259e-08,-1.46257e-08,8.14718e-09,888.62,-888.596,-0.000846615,1.6742e-08,-1.67418e-08,-1.59507e-14
-0.760025,-0.2,0.0361234,0.01,-66.1856,20,792.69,-792.684,448.203,1.49347e-08,-1.49347e-08,8.44441e-09,910.628,-910.623,-0.0223205,1.71567e-08,-1.71567e-08,-4.20531e-13
-0.750025,-0.2,0.0269423,0.01,-73.1465,20,809.358,-806.958,462.962,1.52383e-08,-1.5214e-08,8.72247e-09,932.571,-930.171,-0.897218,1.75597e-08,-1.75354e-08,-1.69041e-11
-0.740025,-0.2,0.0186245,0.01,-80.1884,20,823.861,-819.615,478.285,1.55036e-08,-1.54605e-08,9.01116e-09,952.917,-948.671,-0.761747,1.7935e-08,-1.7892e-08,-1.43518e-11
-0.730025,-0.2,0.0115167,0.01,-87.3139,20,827.845,-842.08,499.42,1.5659e-08,-1.58034e-08,9.40936e-09,965.799,-980.034,4.12738,1.82581e-08,-1.84025e-08,7.77622e-11
0.729975,-0.2,0.011477,0.01,-87.3496,20,827.917,-842.33,-499.61,1.56611e-08,-1.58073e-08,-9.41294e-09,965.945,-980.358,-4.17514,1.82616e-08,-1.84078e-08,-7.8662e-11
0.739975,-0.2,0.0185873,0.01,-80.2236,20,823.95,-819.754,-478.397,1.55055e-08,-1.54629e-08,-9.01329e-09,953.047,-948.851,0.754083,1.79377e-08,-1.78951e-08,1.42074e-11
0.749975,-0.2,0.0268981,0.01,-73.1813,20,809.446,-807.057,-463.051,1.524e-08,-1.52158e-08,-8.72415e-09,932.691,-930.302,0.897045,1.75621e-08,-1.75378e-08,1.69009e-11
0.759975,-0.2,0.0360767,0.01,-66.2201,20,792.773,-792.767,-448.283,1.49363e-08,-1.49362e-08,-8.44592e-09,910.74,-910.735,0.0226166,1.71588e-08,-1.71588e-08,4.26109e-13
0.769975,-0.2,0.0456021,0.01,-59.3381,20,776.386,-776.362,-432.504,1.46275e-08,-1.46272e-08,-8.14862e-09,888.728,-888.704,0.00086159,1.6744e-08,-1.67438e-08,1.62329e-14
0.779975,-0.2,0.0552953,0.01,-52.5338,20,760.447,-760.422,-417.424,1.43271e-08,-1.43269e-08,-7.86452e-09,867.482,-867.457,3.4233e-05,1.63438e-08,-1.63435e-08,6.4497e-16
0.789975,-0.2,0.0650814,0.01,-45.8055,20,744.939,-744.915,-403.022,1.4035e-08,-1.40347e-08,-7.59317e-09,846.973,-846.949,2.75257e-05,1.59574e-08,-1.59571e-08,5.18601e-16
0.799975,-0.2,0.074924,0.01,-39.1517,20,729.85,-729.827,-389.261,1.37507e-08,-1.37505e-08,-7.3339e-09,827.168,-827.145,2.7517e-05,1.55842e-08,-1.5584e-08,5.18436e-16
0.809975,-0.2,0.0848034,0.01,-32.5709,20,715.168,-715.145,-376.106,1.34741e-08,-1.34738e-08,-7.08605e-09,808.036,-808.013,2.58203e-05,1.52238e-08,-1.52235e-08,4.8647e-16
0.819975,-0.2,0.0946416,0.01,-26.0616,20,700.88,-700.858,-363.525,1.32049e-08,-1.32047e-08,-6.84901e-09,789.547,-789.525,2.4096e-05,1.48754e-08,-1.48752e-08,4.53983e-16
0.829975,-0.2,0.104117,0.01,-19.6224,20,686.976,-686.954,-351.487,1.29429e-08,-1.29427e-08,-6.62222e-09,771.674,-771.653,2.24896e-05,1.45387e-08,-1.45385e-08,4.23717e-16
0.839975,-0.2,0.113682,0.01,-13.2519,20,673.443,-673.422,-339.965,1.2688e-08,-1.26878e-08,-6.40514e-09,754.389,-754.369,2.09996e-05,1.4213e-08,-1.42128e-08,3.95644e-16
0.849975,-0.2,0.123316,0.01,-6.94877,20,660.271,-660.251,-328.932,1.24398e-08,-1.24396e-08,-6.19727e-09,737.669,-737.649,1.96173e-05,1.3898e-08,-1.38978e-08,3.69601e-16
0.859975,-0.2,0.133004,0.01,-0.711654,20,647.448,-647.429,-318.362,1.21982e-08,-1.2198e-08,-5.99812e-09,721.488,-721.468,1.83341e-05,1.35932e-08,-1.3593e-08,3.45425e-16
0.869975,-0.2,0.142735,0.01,5.46072,20,634.965,-634.946,-308.232,1.1963e-08,-1.19628e-08,-5.80727e-09,705.825,-705.806,1.71429e-05,1.32981e-08,-1.32979e-08,3.22982e-16
0.879975,-0.2,0.152501,0.01,11.5696,20,622.81,-622.792,-298.52,1.1734e-08,-1.17338e-08,-5.62428e-09,690.657,-690.639,1.60362e-05,1.30123e-08,-1.30121e-08,3.0213e-16
0.889975,-0.2,0.162295,0.01,17.6162,20,610.974,-610.956,-289.204,1.1511e-08,-1.15108e-08,-5.44877e-09,675.965,-675.948,1.50073e-05,1.27355e-08,-1.27353e-08,2.82746e-16
0.899975,-0.2,0.172113,0.01,23.6017,20,599.447,-599.43,-280.265,1.12939e-08,-1.12937e-08,-5.28036e-09,661.73,-661.713,1.40512e-05,1.24673e-08,-1.24671e-08,2.64732e-16
0.909975,-0.2,0.181951,0.01,29.5272,20,588.22,-588.203,-271.686,1.10823e-08,-1.10822e-08,-5.11871e-09,647.932,-647.916,1.31621e-05,1.22073e-08,-1.22072e-08,2.47982e-16
0.919975,-0.2,0.191806,0.01,35.3939,20,577.283,-577.266,-263.447,1.08763e-08,-1.08761e-08,-4.96349e-09,634.555,-634.539,1.23347e-05,1.19553e-08,-1.19552e-08,2.32393e-16
0.929975,-0.2,0.201566,0.01,41.2029,20,566.627,-566.611,-255.532,1.06755e-08,-1.06754e-08,-4.81438e-09,621.582,-621.566,1.15646e-05,1.17109e-08,-1.17107e-08,2.17884e-16
0.939975,-0.2,0.211253,0.01,46.9553,20,556.245,-556.229,-247.927,1.04799e-08,-1.04797e-08,-4.67109e-09,608.996,-608.981,1.08475e-05,1.14738e-08,-1.14736e-08,2.04373e-16
0.949975,-0.2,0.220967,0.01,52.652,20,546.219,-546.381,-240.621,1.02918e-08,-1.02934e-08,-4.53344e-09,596.863,-597.025,0.0683218,1.12459e-08,-1.12476e-08,1.28722e-12
0.959975,-0.2,0.230706,0.01,58.294,20,537.617,-540.786,-235.364,1.01428e-08,-1.01749e-08,-4.43439e-09,586.747,-589.916,-0.454859,1.10684e-08,-1.11006e-08,-8.5698e-12
0.969975,-0.2,0.240467,0.01,63.8825,20,530.049,-537.133,-232.203,1.00172e-08,-1.00891e-08,-4.37485e-09,578.38,-585.464,-2.19487,1.09278e-08,-1.09997e-08,-4.13526e-11
-0.970025,-0.19,0.238585,0.01,62.7899,18.05,535.06,-550.594,220.812,1.01484e-08,-1.0306e-08,4.16023e-09,578.253,-593.787,-0.296346,1.09622e-08,-1.11198e-08,-5.58334e-12
-0.960025,-0.19,0.228742,0.01,57.1792,18.05,544.257,-548.361,224.888,1.0272e-08,-1.03136e-08,4.23702e-09,588.734,-592.838,-0.156268,1.11099e-08,-1.11516e-08,-2.94418e-12
-0.950025,-0.19,0.218913,0.01,51.5141,18.05,553.209,-553.375,230.459,1.04235e-08,-1.04252e-08,4.34198e-09,599.286,-599.452,-0.0669748,1.12916e-08,-1.12933e-08,-1.26184e-12
-0.940025,-0.19,0.209101,0.01,45.7938,18.05,563.514,-563.498,237.497,1.06169e-08,-1.06167e-08,4.47458e-09,611.517,-611.501,-1.08179e-05,1.15213e-08,-1.15211e-08,-2.03815e-16
-0.930025,-0.19,0.199307,0.01,40.0171,18.05,574.192,-574.176,244.825,1.0818e-08,-1.08179e-08,4.61264e-09,624.209,-624.192,-1.15454e-05,1.17604e-08,-1.17602e-08,-2.17522e-16
-0.920025,-0.19,0.189535,0.01,34.183,18.05,585.158,-585.141,252.453,1.10246e-08,-1.10245e-08,4.75635e-09,637.294,-637.277,-1.23276e-05,1.20069e-08,-1.20067e-08,-2.32259e-16
-0.910025,-0.19,0.179788,0.01,28.2904,18.05,596.422,-596.404,260.396,1.12369e-08,-1.12367e-08,4.90601e-09,650.789,-650.771,-1.31696e-05,1.22612e-08,-1.2261e-08,-2.48122e-16
-0.900025,-0.19,0.17007,0.01,22.3381,18.05,607.993,-607.974,268.67,1.14549e-08,-1.14547e-08,5.06191e-09,664.71,-664.692,-1.40762e-05,1.25235e-08,-1.25233e-08,-2.65203e-16
-0.890025,-0.19,0.160387,0.01,16.325,18.05,619.881,-619.862,277.294,1.16788e-08,-1.16786e-08,5.22437e-09,679.077,-679.058,-1.50523e-05,1.27941e-08,-1.27939e-08,-2.83594e-16
-0.880025,-0.19,0.150745,0.01,10.25,18.05,632.097,-632.077,286.284,1.1909e-08,-1.19088e-08,5.39375e-09,693.906,-693.887,-1.61042e-05,1.30735e-08,-1.30733e-08,-3.03413e-16
-0.870025,-0.19,0.140899,0.01,4.11168,18.05,644.652,-644.632,295.66,1.21455e-08,-1.21453e-08,5.57041e-09,709.219,-709.199,-1.72384e-05,1.3362e-08,-1.33618e-08,-3.24782e-16
-0.860025,-0.19,0.131028,0.01,-2.09106,18.05,657.557,-657.536,305.443,1.23887e-08,-1.23884e-08,5.75473e-09,725.036,-725.015,-1.84614e-05,1.366e-08,-1.36598e-08,-3.47824e-16
-0.850025,-0.19,0.121177,0.01,-8.35956,18.05,670.823,-670.802,315.655,1.26386e-08,-1.26384e-08,5.94712e-09,741.379,-741.358,-1.9781e-05,1.39679e-08,-1.39677e-08,-3.72686e-16
-0.840025,-0.19,0.111354,0.01,-14.6951,18.05,684.464,-684.442,326.318,1.28956e-08,-1.28954e-08,6.14803e-09,758.272,-758.249,-2.12059e-05,1.42862e-08,-1.4286e-08,-3.99531e-16
-0.830025,-0.19,0.101565,0.01,-21.0992,18.05,698.49,-698.468,337.459,1.31599e-08,-1.31596e-08,6.35791e-09,775.738,-775.715,-2.27451e-05,1.46152e-08,-1.4615e-08,-4.28531e-16
-0.820025,-0.19,0.0918217,0.01,-27.5731,18.05,712.916,-712.893,349.102,1.34317e-08,-1.34314e-08,6.57728e-09,793.803,-793.78,-2.44088e-05,1.49556e-08,-1.49554e-08,-4.59877e-16
-0.810025,-0.19,0.0821399,0.01,-34.1182,18.05,727.754,-727.73,361.276,1.37112e-08,-1.3711e-08,6.80665e-09,812.495,-812.471,-2.62257e-05,1.53078e-08,-1.53075e-08,-4.94108e-16
-0.800025,-0.19,0.0725446,0.01,-40.7362,18.05,743.018,-742.993,374.012,1.39988e-08,-1.39985e-08,7.0466e-09,831.843,-831.818,-2.85055e-05,1.56723e-08,-1.5672e-08,-5.3706e-16
-0.790025,-0.19,0.0630751,0.01,-47.4284,18.05,758.721,-758.695,387.34,1.42946e-08,-1.42944e-08,7.29772e-09,851.876,-851.85,-3.35777e-05,1.60497e-08,-1.60495e-08,-6.32623e-16
-0.780025,-0.19,0.053798,0.01,-54.1966,18.05,774.879,-774.852,401.296,1.4599e-08,-1.45988e-08,7.56065e-09,872.627,-872.6,-2.78155e-06,1.64407e-08,-1.64404e-08,-5.2406e-17
-0.770025,-0.19,0.0440129,0.01,-61.0422,18.05,791.504,-791.472,415.916,1.49123e-08,-1.49119e-08,7.83611e-09,894.13,-894.098,0.00199729,1.68458e-08,-1.68455e-08,3.76301e-14
-0.760025,-0.19,0.0340312,0.01,-67.967,18.05,808.467,-808.13,431.245,1.52305e-08,-1.52271e-08,8.12491e-09,916.312,-915.975,0.148824,1.72624e-08,-1.7259e-08,2.80392e-12
-0.750025,-0.19,0.0240646,0.01,-74.9726,18.05,824.3,-817.118,443.803,1.54991e-08,-1.54262e-08,8.36151e-09,936.61,-929.428,-0.459766,1.7615e-08,-1.75422e-08,-8.66226e-12
-0.740025,-0.19,0.0141454,0.01,-82.0608,18.05,840.64,-820.601,453.647,1.5751e-08,-1.55477e-08,8.54697e-09,956.444,-936.404,-2.60615,1.79328e-08,-1.77295e-08,-4.91014e-11
0.739975,-0.19,0.0140964,0.01,-82.0962,18.05,840.726,-820.762,-453.729,1.5753e-08,-1.55504e-08,-8.54852e-09,956.554,-936.59,2.62382,1.79352e-08,-1.77327e-08,4.94343e-11
0.749975,-0.19,0.0240152,0.01,-75.0077,18.05,824.393,-817.221,-443.88,1.55009e-08,-1.54281e-08,-8.36296e-09,936.728,-929.556,0.468563,1.76173e-08,-1.75446e-08,8.828e-12
0.759975,-0.19,0.0339816,0.01,-68.0016,18.05,808.554,-808.216,-431.324,1.52322e-08,-1.52287e-08,-8.12639e-09,916.425,-916.088,-0.148931,1.72645e-08,-1.72611e-08,-2.80595e-12
0.769975,-0.19,0.0439632,0.01,-61.0764,18.05,791.588,-791.556,-415.991,1.49138e-08,-1.49135e-08,-7.83751e-09,894.239,-894.207,-0.00203238,1.68478e-08,-1.68475e-08,-3.82912e-14
0.779975,-0.19,0.0537525,0.01,-54.2304,18.05,774.96,-774.933,-401.367,1.46006e-08,-1.46003e-08,-7.56199e-09,872.732,-872.705,1.88615e-06,1.64427e-08,-1.64424e-08,3.55361e-17
0.789975,-0.19,0.0630285,0.01,-47.4619,18.05,758.801,-758.774,-387.408,1.42961e-08,-1.42959e-08,-7.299e-09,851.978,-851.952,3.3615e-05,1.60516e-08,-1.60514e-08,6.33326e-16
0.799975,-0.19,0.0724972,0.01,-40.7693,18.05,743.095,-743.07,-374.077,1.40002e-08,-1.4e-08,-7.04782e-09,831.941,-831.916,2.852e-05,1.56741e-08,-1.56739e-08,5.37334e-16
0.809975,-0.19,0.082092,0.01,-34.151,18.05,727.829,-727.805,-361.338,1.37126e-08,-1.37124e-08,-6.80782e-09,812.59,-812.565,2.62348e-05,1.53096e-08,-1.53093e-08,4.94279e-16
0.819975,-0.19,0.0917733,0.01,-27.6054,18.05,712.989,-712.965,-349.161,1.3433e-08,-1.34328e-08,-6.5784e-09,793.895,-793.871,2.4417e-05,1.49573e-08,-1.49571e-08,4.60031e-16
0.829975,-0.19,0.101516,0.01,-21.1312,18.05,698.561,-698.538,-337.515,1.31612e-08,-1.3161e-08,-6.35898e-09,775.826,-775.803,2.27529e-05,1.46169e-08,-1.46167e-08,4.28679e-16
0.839975,-0.19,0.111305,0.01,-14.7268,18.05,684.533,-684.51,-326.373,1.28969e-08,-1.28967e-08,-6.14905e-09,758.357,-758.335,2.12138e-05,1.42878e-08,-1.42876e-08,3.9968e-16
0.849975,-0.19,0.121128,0.01,-8.3909,18.05,670.89,-670.869,-315.707,1.26399e-08,-1.26396e-08,-5.9481e-09,741.462,-741.44,1.97882e-05,1.39695e-08,-1.39693e-08,3.72822e-16
0.859975,-0.19,0.130978,0.01,-2.12207,18.05,657.622,-657.601,-305.493,1.23899e-08,-1.23897e-08,-5.75566e-09,725.116,-725.095,1.84674e-05,1.36615e-08,-1.36613e-08,3.47937e-16
0.869975,-0.19,0.14085,0.01,4.081,18.05,644.715,-644.695,-295.708,1.21467e-08,-1.21465e-08,-5.5713e-09,709.297,-709.276,1.72439e-05,1.33635e-08,-1.33633e-08,3.24885e-16
0.879975,-0.19,0.150697,0.01,10.2196,18.05,632.158,-632.139,-286.329,1.19101e-08,-1.19099e-08,-5.39461e-09,693.981,-693.962,1.61096e-05,1.30749e-08,-1.30747e-08,3.03515e-16
0.889975,-0.19,0.160339,0.01,16.295,18.05,619.941,-619.922,-277.338,1.168e-08,-1.16798e-08,-5.2252e-09,679.149,-679.13,1.50574e-05,1.27955e-08,-1.27953e-08,2.83691e-16
0.899975,-0.19,0.170022,0.01,22.3083,18.05,608.051,-608.033,-268.712,1.1456e-08,-1.14558e-08,-5.0627e-09,664.781,-664.763,1.4081e-05,1.25248e-08,-1.25246e-08,2.65295e-16
0.909975,-0.19,0.179739,0.01,28.2609,18.05,596.479,-596.461,-260.436,1.12379e-08,-1.12377e-08,-4.90677e-09,650.857,-650.839,1.31741e-05,1.22624e-08,-1.22623e-08,2.48207e-16
0.919975,-0.19,0.189486,0.01,34.1538,18.05,585.214,-585.197,-252.491,1.10257e-08,-1.10255e-08,-4.75708e-09,637.36,-637.343,1.23315e-05,1.20082e-08,-1.2008e-08,2.32332e-16
0.929975,-0.19,0.199258,0.01,39.9882,18.05,574.246,-574.229,-244.862,1.08191e-08,-1.08189e-08,-4.61334e-09,624.273,-624.256,1.1549e-05,1.17616e-08,-1.17614e-08,2.1759e-16
0.939975,-0.19,0.209052,0.01,45.7652,18.05,563.566,-563.55,-237.532,1.06178e-08,-1.06177e-08,-4.47525e-09,611.579,-611.563,1.08213e-05,1.15224e-08,-1.15223e-08,2.0388e-16
0.949975,-0.19,0.218864,0.01,51.4858,18.05,553.26,-553.426,-230.493,1.04245e-08,-1.04261e-08,-4.34263e-09,599.347,-599.512,0.0669867,1.12928e-08,-1.12944e-08,1.26207e-12
0.959975,-0.19,0.228693,0.01,57.1511,18.05,544.306,-548.412,-224.921,1.02729e-08,-1.03145e-08,-4.23765e-09,588.792,-592.898,0.156281,1.1111e-08,-1.11527e-08,2.94443e-12
0.969975,-0.19,0.238536,0.01,62.7621,18.05,535.109,-550.645,-220.845,1.01493e-08,-1.03069e-08,-4.16085e-09,578.31,-593.847,0.296368,1.09632e-08,-1.11209e-08,5.58374e-12
-0.970025,-0.18,0.23682,0.01,61.7229,16.2,541.509,-552.412,210.826,1.02498e-08,-1.03604e-08,3.97208e-09,580.734,-591.636,0.556475,1.09888e-08,-1.10994e-08,1.04843e-11
-0.960025,-0.18,0.227064,0.01,56.0906,16.2,550.685,-554.324,214.872,1.0391e-08,-1.0428e-08,4.04831e-09,590.997,-594.636,0.129602,1.11505e-08,-1.11875e-08,2.44178e-12
-0.950025,-0.18,0.217251,0.01,50.4034,16.2,559.979,-560.147,220.062,1.05511e-08,-1.05528e-08,4.14609e-09,601.661,-601.83,-0.0646552,1.13364e-08,-1.13381e-08,-1.21814e-12
-0.940025,-0.18,0.20736,0.01,44.6602,16.2,570.555,-570.539,226.818,1.07495e-08,-1.07494e-08,4.27339e-09,613.987,-613.971,-1.07342e-05,1.15678e-08,-1.15676e-08,-2.02239e-16
-0.930025,-0.18,0.19748,0.01,38.86,16.2,581.522,-581.504,233.856,1.09561e-08,-1.0956e-08,4.40598e-09,626.783,-626.766,-1.14677e-05,1.18089e-08,-1.18087e-08,-2.16058e-16
-0.920025,-0.18,0.187613,0.01,33.0015,16.2,592.791,-592.773,241.184,1.11684e-08,-1.11683e-08,4.54404e-09,639.977,-639.959,-1.22575e-05,1.20575e-08,-1.20573e-08,-2.30939e-16
-0.910025,-0.18,0.17776,0.01,27.0838,16.2,604.372,-604.354,248.817,1.13866e-08,-1.13865e-08,4.68785e-09,653.587,-653.569,-1.31088e-05,1.23139e-08,-1.23137e-08,-2.46978e-16
-0.900025,-0.18,0.167925,0.01,21.1057,16.2,616.278,-616.258,256.771,1.16109e-08,-1.16107e-08,4.83771e-09,667.63,-667.611,-1.40268e-05,1.25785e-08,-1.25783e-08,-2.64272e-16
-0.890025,-0.18,0.158111,0.01,15.0659,16.2,628.518,-628.498,265.062,1.18416e-08,-1.18414e-08,4.99393e-09,682.124,-682.104,-1.50169e-05,1.28515e-08,-1.28513e-08,-2.82928e-16
-0.880025,-0.18,0.148321,0.01,8.96331,16.2,641.104,-641.084,273.709,1.20787e-08,-1.20785e-08,5.15684e-09,697.089,-697.068,-1.60858e-05,1.31335e-08,-1.31333e-08,-3.03065e-16
-0.870025,-0.18,0.138562,0.01,2.79658,16.2,654.05,-654.028,282.731,1.23226e-08,-1.23224e-08,5.32682e-09,712.544,-712.523,-1.724e-05,1.34247e-08,-1.34244e-08,-3.24812e-16
-0.860025,-0.18,0.128839,0.01,-3.43556,16.2,667.366,-667.344,292.147,1.25735e-08,-1.25732e-08,5.50423e-09,728.512,-728.489,-1.84869e-05,1.37255e-08,-1.37253e-08,-3.48304e-16
-0.850025,-0.18,0.119162,0.01,-9.73444,16.2,681.067,-681.044,301.98,1.28316e-08,-1.28314e-08,5.68947e-09,745.013,-744.991,-1.98348e-05,1.40364e-08,-1.40362e-08,-3.73699e-16
-0.840025,-0.18,0.109544,0.01,-16.1014,16.2,695.165,-695.141,312.251,1.30972e-08,-1.3097e-08,5.88299e-09,762.074,-762.05,-2.12931e-05,1.43578e-08,-1.43576e-08,-4.01174e-16
-0.830025,-0.18,0.0999039,0.01,-22.5379,16.2,709.674,-709.65,322.986,1.33706e-08,-1.33703e-08,6.08524e-09,779.717,-779.693,-2.28712e-05,1.46902e-08,-1.469e-08,-4.30906e-16
-0.820025,-0.18,0.0899808,0.01,-29.0454,16.2,724.61,-724.585,334.209,1.3652e-08,-1.36517e-08,6.2967e-09,797.971,-797.946,-2.45782e-05,1.50341e-08,-1.50339e-08,-4.63068e-16
-0.810025,-0.18,0.0800768,0.01,-35.6254,16.2,739.987,-739.961,345.95,1.39417e-08,-1.39414e-08,6.5179e-09,816.862,-816.836,-2.63888e-05,1.539e-08,-1.53898e-08,-4.9718e-16
-0.800025,-0.18,0.0702,0.01,-42.2793,16.2,755.82,-755.793,358.237,1.424e-08,-1.42397e-08,6.74939e-09,836.421,-836.394,-2.78072e-05,1.57585e-08,-1.57583e-08,-5.23903e-16
-0.790025,-0.18,0.0603638,0.01,-49.0088,16.2,772.126,-772.098,371.102,1.45472e-08,-1.45469e-08,6.99177e-09,856.678,-856.65,-2.66588e-05,1.61402e-08,-1.61399e-08,-5.02267e-16
-0.780025,-0.18,0.050592,0.01,-55.8156,16.2,788.921,-788.892,384.578,1.48636e-08,-1.48633e-08,7.24567e-09,877.667,-877.638,-0.000140615,1.65356e-08,-1.65353e-08,-2.64928e-15
-0.770025,-0.18,0.0409304,0.01,-62.7012,16.2,806.225,-806.203,398.7,1.51897e-08,-1.51894e-08,7.51175e-09,899.424,-899.402,-0.00472946,1.69456e-08,-1.69453e-08,-8.91058e-14
-0.760025,-0.18,0.031481,0.01,-69.6675,16.2,823.838,-823.458,413.467,1.55199e-08,-1.55161e-08,7.78996e-09,921.792,-921.412,0.132105,1.73654e-08,-1.73616e-08,2.48894e-12
-0.750025,-0.18,0.0225123,0.01,-76.7161,16.2,839.682,-832.039,425.995,1.57869e-08,-1.57093e-08,8.02599e-09,941.976,-934.333,0.245118,1.77141e-08,-1.76366e-08,4.61816e-12
-0.740025,-0.18,0.0149183,0.01,-83.8493,16.2,858.112,-828.668,435.246,1.60393e-08,-1.57406e-08,8.20029e-09,963.799,-934.354,-0.744255,1.80305e-08,-1.77318e-08,-1.40222e-11
0.739975,-0.18,0.0148876,0.01,-83.885,16.2,858.214,-828.812,-435.326,1.60414e-08,-1.57431e-08,-8.20179e-09,963.923,-934.521,0.759545,1.8033e-08,-1.77348e-08,1.43103e-11
0.749975,-0.18,0.0224698,0.01,-76.7514,16.2,839.769,-832.131,-426.074,1.57885e-08,-1.5711e-08,-8.02748e-09,942.09,-934.452,-0.246679,1.77163e-08,-1.76388e-08,-4.64757e-12
0.759975,-0.18,0.0314348,0.01,-69.7023,16.2,823.927,-823.547,-413.542,1.55216e-08,-1.55178e-08,-7.79137e-09,921.906,-921.526,-0.13202,1.73676e-08,-1.73637e-08,-2.48733e-12
0.769975,-0.18,0.0408828,0.01,-62.7356,16.2,806.312,-806.291,-398.772,1.51913e-08,-1.51911e-08,-7.5131e-09,899.534,-899.512,0.00480773,1.69476e-08,-1.69474e-08,9.05804e-14
0.779975,-0.18,0.0505436,0.01,-55.8496,16.2,789.006,-788.977,-384.647,1.48652e-08,-1.48649e-08,-7.24697e-09,877.773,-877.744,0.000143091,1.65376e-08,-1.65373e-08,2.69592e-15
0.789975,-0.18,0.0603151,0.01,-49.0425,16.2,772.208,-772.18,-371.167,1.45487e-08,-1.45484e-08,-6.99301e-09,856.781,-856.752,2.66595e-05,1.61421e-08,-1.61418e-08,5.0228e-16
0.799975,-0.18,0.070151,0.01,-42.3126,16.2,755.9,-755.873,-358.299,1.42415e-08,-1.42412e-08,-6.75057e-09,836.52,-836.493,2.78099e-05,1.57604e-08,-1.57601e-08,5.23955e-16
0.809975,-0.18,0.0800276,0.01,-35.6583,16.2,740.064,-740.038,-346.01,1.39431e-08,-1.39429e-08,-6.51902e-09,816.958,-816.932,2.63976e-05,1.53918e-08,-1.53916e-08,4.97346e-16
0.819975,-0.18,0.0899314,0.01,-29.078,16.2,724.686,-724.66,-334.266,1.36534e-08,-1.36531e-08,-6.29777e-09,798.063,-798.038,2.45867e-05,1.50359e-08,-1.50356e-08,4.63227e-16
0.829975,-0.18,0.0998545,0.01,-22.5701,16.2,709.748,-709.723,-323.04,1.3372e-08,-1.33717e-08,-6.08627e-09,779.807,-779.782,2.28791e-05,1.46919e-08,-1.46917e-08,4.31056e-16
0.839975,-0.18,0.109496,0.01,-16.1333,16.2,695.236,-695.212,-312.303,1.30985e-08,-1.30983e-08,-5.88398e-09,762.16,-762.136,2.13011e-05,1.43594e-08,-1.43592e-08,4.01325e-16
0.849975,-0.18,0.119114,0.01,-9.76594,16.2,681.136,-681.113,-302.03,1.28329e-08,-1.28327e-08,-5.69042e-09,745.097,-745.074,1.98421e-05,1.4038e-08,-1.40377e-08,3.73836e-16
0.859975,-0.18,0.128791,0.01,-3.46672,16.2,667.433,-667.411,-292.195,1.25747e-08,-1.25745e-08,-5.50513e-09,728.592,-728.57,1.8493e-05,1.3727e-08,-1.37268e-08,3.48418e-16
0.869975,-0.18,0.138513,0.01,2.76575,16.2,654.115,-654.094,-282.777,1.23238e-08,-1.23236e-08,-5.32768e-09,712.622,-712.601,1.72456e-05,1.34261e-08,-1.34259e-08,3.24916e-16
0.879975,-0.18,0.148272,0.01,8.9328,16.2,641.168,-641.147,-273.753,1.20799e-08,-1.20797e-08,-5.15767e-09,697.165,-697.144,1.60911e-05,1.31349e-08,-1.31347e-08,3.03166e-16
0.889975,-0.18,0.158062,0.01,15.0357,16.2,628.58,-628.56,-265.104,1.18427e-08,-1.18425e-08,-4.99472e-09,682.198,-682.178,1.50222e-05,1.28529e-08,-1.28527e-08,2.83028e-16
0.899975,-0.18,0.167876,0.01,21.0758,16.2,616.338,-616.318,-256.811,1.16121e-08,-1.16119e-08,-4.83847e-09,667.701,-667.682,1.40319e-05,1.25798e-08,-1.25796e-08,2.64369e-16
0.909975,-0.18,0.177711,0.01,27.0543,16.2,604.431,-604.412,-248.855,1.13877e-08,-1.13876e-08,-4.68858e-09,653.656,-653.638,1.31135e-05,1.23152e-08,-1.2315e-08,2.47066e-16
0.919975,-0.18,0.187564,0.01,32.9723,16.2,592.847,-592.829,-241.221,1.11695e-08,-1.11693e-08,-4.54474e-09,640.044,-640.026,1.22616e-05,1.20587e-08,-1.20585e-08,2.31015e-16
0.929975,-0.18,0.197431,0.01,38.831,16.2,581.577,-581.56,-233.892,1.09572e-08,-1.0957e-08,-4.40665e-09,626.848,-626.83,1.14714e-05,1.18101e-08,-1.18099e-08,2.16127e-16
0.939975,-0.18,0.207311,0.01,44.6315,16.2,570.609,-570.592,-226.852,1.07505e-08,-1.07504e-08,-4.27403e-09,614.05,-614.033,1.07376e-05,1.1569e-08,-1.15688e-08,2.02302e-16
0.949975,-0.18,0.217202,0.01,50.375,16.2,560.031,-560.2,-220.095,1.0552e-08,-1.05538e-08,-4.14671e-09,601.722,-601.891,0.0646671,1.13375e-08,-1.13392e-08,1.21837e-12
0.959975,-0.18,0.227015,0.01,56.0625,16.2,550.736,-554.376,-214.904,1.0392e-08,-1.04289e-08,-4.04891e-09,591.056,-594.695,-0.129594,1.11517e-08,-1.11886e-08,-2.44163e-12
0.969975,-0.18,0.236772,0.01,61.695,16.2,541.559,-552.463,-210.857,1.02507e-08,-1.03613e-08,-3.97266e-09,580.792,-591.696,-0.556586,1.09899e-08,-1.11005e-08,-1.04864e-11
-0.980025,-0.17,0.244729,0.01,66.3081,14.45,544.088,-542.943,191.709,1.0246e-08,-1.02343e-08,3.61191e-09,576.901,-575.756,-2.54487,1.08642e-08,-1.08526e-08,-4.79468e-11
-0.970025,-0.17,0.234875,0.01,60.7099,14.45,547.586,-550.372,198.168,1.0329e-08,-1.03572e-08,3.7336e-09,582.258,-585.044,-0.329029,1.09822e-08,-1.10105e-08,-6.19909e-12
-0.960025,-0.17,0.225035,0.01,55.0571,14.45,555.972,-557.105,203.904,1.04798e-08,-1.04913e-08,3.84166e-09,592.149,-593.282,0.395289,1.11614e-08,-1.11728e-08,7.44747e-12
-0.950025,-0.17,0.215209,0.01,49.3487,14.45,566.369,-566.36,209.401,1.06707e-08,-1.06706e-08,3.94524e-09,603.84,-603.832,0.00216165,1.13767e-08,-1.13766e-08,4.07267e-14
-0.940025,-0.17,0.205399,0.01,43.5837,14.45,577.305,-577.287,215.863,1.08767e-08,-1.08765e-08,4.06699e-09,616.343,-616.325,-1.0591e-05,1.16122e-08,-1.1612e-08,-1.9954e-16
-0.930025,-0.17,0.19561,0.01,37.761,14.45,588.549,-588.531,222.597,1.10885e-08,-1.10883e-08,4.19385e-09,629.238,-629.219,-1.13255e-05,1.18551e-08,-1.18549e-08,-2.13379e-16
-0.920025,-0.17,0.185842,0.01,31.8794,14.45,600.11,-600.091,229.61,1.13063e-08,-1.13061e-08,4.32598e-09,642.537,-642.518,-1.2118e-05,1.21057e-08,-1.21055e-08,-2.2831e-16
-0.910025,-0.17,0.1761,0.01,25.9377,14.45,611.999,-611.979,236.917,1.15303e-08,-1.15301e-08,4.46365e-09,656.257,-656.237,-1.29727e-05,1.23642e-08,-1.2364e-08,-2.44414e-16
-0.900025,-0.17,0.166355,0.01,19.9349,14.45,624.228,-624.207,244.533,1.17607e-08,-1.17605e-08,4.60715e-09,670.416,-670.396,-1.38956e-05,1.26309e-08,-1.26307e-08,-2.61802e-16
-0.890025,-0.17,0.156442,0.01,13.8697,14.45,636.808,-636.787,252.475,1.19977e-08,-1.19975e-08,4.75678e-09,685.033,-685.012,-1.48928e-05,1.29063e-08,-1.29061e-08,-2.80589e-16
-0.880025,-0.17,0.146541,0.01,7.74077,14.45,649.754,-649.732,260.761,1.22416e-08,-1.22414e-08,4.91288e-09,700.127,-700.105,-1.59708e-05,1.31907e-08,-1.31905e-08,-3.009e-16
-0.870025,-0.17,0.136654,0.01,1.54687,14.45,663.077,-663.054,269.408,1.24927e-08,-1.24924e-08,5.0758e-09,715.718,-715.696,-1.71369e-05,1.34844e-08,-1.34842e-08,-3.22869e-16
-0.860025,-0.17,0.126785,0.01,-4.71334,14.45,676.792,-676.768,278.436,1.2751e-08,-1.27508e-08,5.24589e-09,731.83,-731.806,-1.83988e-05,1.3788e-08,-1.37878e-08,-3.46644e-16
-0.850025,-0.17,0.116939,0.01,-11.0412,14.45,690.913,-690.888,287.866,1.30171e-08,-1.30168e-08,5.42356e-09,748.484,-748.46,-1.97651e-05,1.41018e-08,-1.41015e-08,-3.72386e-16
-0.840025,-0.17,0.107121,0.01,-17.4382,14.45,705.454,-705.429,297.721,1.32911e-08,-1.32908e-08,5.60923e-09,765.706,-765.681,-2.12457e-05,1.44262e-08,-1.4426e-08,-4.00281e-16
-0.830025,-0.17,0.0973395,0.01,-23.9057,14.45,720.432,-720.407,308.024,1.35733e-08,-1.3573e-08,5.80335e-09,783.52,-783.494,-2.28512e-05,1.47619e-08,-1.47616e-08,-4.3053e-16
-0.820025,-0.17,0.0876079,0.01,-30.4453,14.45,735.863,-735.836,318.8,1.3864e-08,-1.38637e-08,6.00639e-09,801.954,-801.927,-2.45969e-05,1.51092e-08,-1.51089e-08,-4.6342e-16
-0.810025,-0.17,0.0779442,0.01,-37.0585,14.45,751.763,-751.735,330.078,1.41635e-08,-1.41632e-08,6.21886e-09,821.037,-821.009,-2.65632e-05,1.54687e-08,-1.54684e-08,-5.00466e-16
-0.800025,-0.17,0.0683773,0.01,-43.7468,14.45,768.15,-768.121,341.885,1.44723e-08,-1.4472e-08,6.4413e-09,840.798,-840.769,-2.95191e-05,1.5841e-08,-1.58407e-08,-5.56156e-16
-0.790025,-0.17,0.0589543,0.01,-50.512,14.45,785.041,-785.011,354.252,1.47905e-08,-1.47902e-08,6.67431e-09,861.27,-861.24,-3.29982e-05,1.62267e-08,-1.62264e-08,-6.21706e-16
-0.780025,-0.17,0.0492429,0.01,-57.3557,14.45,802.456,-802.424,367.213,1.51186e-08,-1.51183e-08,6.9185e-09,882.487,-882.455,0.000257364,1.66264e-08,-1.66261e-08,4.84889e-15
-0.770025,-0.17,0.0392507,0.01,-64.2796,14.45,820.408,-820.359,380.806,1.54567e-08,-1.54563e-08,7.17461e-09,904.481,-904.433,0.00979919,1.70407e-08,-1.70402e-08,1.84622e-13
-0.760025,-0.17,0.0292638,0.01,-71.2856,14.45,838.807,-838.513,395.15,1.58023e-08,-1.57994e-08,7.44485e-09,927.235,-926.942,0.192616,1.74684e-08,-1.74654e-08,3.629e-12
-0.750025,-0.17,0.0192905,0.01,-78.3754,14.45,855.736,-849.266,405.729,1.60944e-08,-1.60288e-08,7.64418e-09,947.36,-940.89,-1.49224,1.78207e-08,-1.7755e-08,-2.81147e-11
-0.740025,-0.17,0.00937416,0.01,-85.5505,14.45,868.913,-851.882,412.344,1.62968e-08,-1.6124e-08,7.7688e-09,962.607,-945.576,-4.48396,1.8062e-08,-1.78893e-08,-8.44804e-11
0.739975,-0.17,0.00932529,0.01,-85.5864,14.45,868.985,-851.916,-412.417,1.6298e-08,-1.61248e-08,-7.77018e-09,962.706,-945.637,4.46927,1.80637e-08,-1.78906e-08,8.42037e-11
0.749975,-0.17,0.0192409,0.01,-78.4109,14.45,855.838,-849.369,-405.803,1.60964e-08,-1.60307e-08,-7.64556e-09,947.484,-941.015,1.49714,1.7823e-08,-1.77574e-08,2.8207e-11
0.759975,-0.17,0.0292142,0.01,-71.3206,14.45,838.901,-838.609,-395.224,1.58041e-08,-1.58012e-08,-7.44626e-09,927.352,-927.061,-0.193603,1.74706e-08,-1.74676e-08,-3.6476e-12
0.769975,-0.17,0.039201,0.01,-64.3142,14.45,820.498,-820.45,-380.876,1.54585e-08,-1.5458e-08,-7.17592e-09,904.593,-904.544,-0.00995608,1.70428e-08,-1.70423e-08,-1.87578e-13
0.779975,-0.17,0.0491932,0.01,-57.3899,14.45,802.544,-802.512,-367.279,1.51203e-08,-1.51199e-08,-6.91975e-09,882.595,-882.563,-0.000263167,1.66285e-08,-1.66281e-08,-4.95822e-15
0.789975,-0.17,0.0589079,0.01,-50.5458,14.45,785.127,-785.097,-354.315,1.47921e-08,-1.47918e-08,-6.6755e-09,861.374,-861.344,3.29518e-05,1.62287e-08,-1.62283e-08,6.20832e-16
0.799975,-0.17,0.06833,0.01,-43.7803,14.45,768.233,-768.204,-341.945,1.44738e-08,-1.44735e-08,-6.44244e-09,840.898,-840.869,2.95403e-05,1.58429e-08,-1.58426e-08,5.56555e-16
0.809975,-0.17,0.0778963,0.01,-37.0916,14.45,751.843,-751.815,-330.135,1.4165e-08,-1.41648e-08,-6.21994e-09,821.133,-821.105,2.65739e-05,1.54705e-08,-1.54702e-08,5.00668e-16
0.819975,-0.17,0.0875596,0.01,-30.478,14.45,735.941,-735.914,-318.855,1.38654e-08,-1.38652e-08,-6.00742e-09,802.047,-802.02,2.4606e-05,1.51109e-08,-1.51106e-08,4.63592e-16
0.829975,-0.17,0.097291,0.01,-23.9381,14.45,720.508,-720.482,-308.076,1.35747e-08,-1.35744e-08,-5.80434e-09,783.61,-783.584,2.28596e-05,1.47636e-08,-1.47633e-08,4.30689e-16
0.839975,-0.17,0.107072,0.01,-17.4702,14.45,705.528,-705.503,-297.771,1.32924e-08,-1.32922e-08,-5.61018e-09,765.793,-765.768,2.12536e-05,1.44279e-08,-1.44276e-08,4.00431e-16
0.849975,-0.17,0.11689,0.01,-11.0729,14.45,690.984,-690.96,-287.914,1.30184e-08,-1.30182e-08,-5.42447e-09,748.568,-748.544,1.97722e-05,1.41034e-08,-1.41031e-08,3.72519e-16
0.859975,-0.17,0.126736,0.01,-4.74464,14.45,676.861,-676.838,-278.482,1.27524e-08,-1.27521e-08,-5.24676e-09,731.911,-731.888,1.84051e-05,1.37895e-08,-1.37893e-08,3.46763e-16
0.869975,-0.17,0.136605,0.01,1.5159,14.45,663.144,-663.122,-269.452,1.24939e-08,-1.24937e-08,-5.07662e-09,715.797,-715.775,1.7143e-05,1.34859e-08,-1.34857e-08,3.22984e-16
0.879975,-0.17,0.146492,0.01,7.71013,14.45,649.819,-649.797,-260.803,1.22429e-08,-1.22427e-08,-4.91368e-09,700.203,-700.181,1.59764e-05,1.31921e-08,-1.31919e-08,3.01005e-16
0.889975,-0.17,0.156392,0.01,13.8394,14.45,636.872,-636.851,-252.516,1.19989e-08,-1.19987e-08,-4.75754e-09,685.107,-685.086,1.48977e-05,1.29077e-08,-1.29075e-08,2.80682e-16
0.899975,-0.17,0.166305,0.01,19.9049,14.45,624.289,-624.269,-244.572,1.17619e-08,-1.17617e-08,-4.60788e-09,670.488,-670.467,1.39002e-05,1.26323e-08,-1.26321e-08,2.61889e-16
0.909975,-0.17,0.176052,0.01,25.908,14.45,612.059,-612.039,-236.954,1.15315e-08,-1.15313e-08,-4.46435e-09,656.326,-656.307,1.29773e-05,1.23655e-08,-1.23653e-08,2.44499e-16
0.919975,-0.17,0.185793,0.01,31.85,14.45,600.168,-600.149,-229.645,1.13074e-08,-1.13072e-08,-4.32665e-09,642.604,-642.585,1.21223e-05,1.21069e-08,-1.21068e-08,2.28391e-16
0.929975,-0.17,0.195561,0.01,37.7319,14.45,588.606,-588.587,-222.631,1.10896e-08,-1.10894e-08,-4.1945e-09,629.303,-629.285,1.13296e-05,1.18563e-08,-1.18562e-08,2.13455e-16
0.939975,-0.17,0.205351,0.01,43.5549,14.45,577.36,-577.342,-215.896,1.08777e-08,-1.08775e-08,-4.06761e-09,616.406,-616.388,1.05946e-05,1.16134e-08,-1.16132e-08,1.99608e-16
0.949975,-0.17,0.21516,0.01,49.3202,14.45,566.423,-566.414,-209.433,1.06717e-08,-1.06716e-08,-3.94583e-09,603.901,-603.893,-0.00216185,1.13778e-08,-1.13777e-08,-4.07305e-14
0.959975,-0.17,0.224986,0.01,55.0288,14.45,556.024,-557.157,-203.934,1.04807e-08,-1.04922e-08,-3.84224e-09,592.208,-593.342,-0.395362,1.11625e-08,-1.1174e-08,-7.44885e-12
0.969975,-0.17,0.234827,0.01,60.6819,14.45,547.637,-550.424,-198.198,1.03299e-08,-1.03582e-08,-3.73416e-09,582.316,-585.103,0.328975,1.09833e-08,-1.10116e-08,6.19808e-12
0.979975,-0.17,0.24468,0.01,66.2804,14.45,544.138,-542.993,-191.737,1.02469e-08,-1.02353e-08,-3.61244e-09,576.958,-575.813,2.54505,1.08652e-08,-1.08536e-08,4.79503e-11
-0.980025,-0.16,0.243259,0.01,65.3686,12.8,547.101,-550.278,183.857,1.03215e-08,-1.03537e-08,3.46397e-09,577.085,-580.263,-0.197606,1.08864e-08,-1.09187e-08,-3.72302e-12
-0.970025,-0.16,0.233343,0.01,59.7514,12.8,553.582,-555.446,187.179,1.04379e-08,-1.04568e-08,3.52655e-09,584.321,-586.185,-0.819342,1.10171e-08,-1.1036e-08,-1.54369e-11
-0.960025,-0.16,0.223435,0.01,54.0791,12.8,561.839,-561.869,192.432,1.05855e-08,-1.05858e-08,3.62554e-09,593.879,-593.909,-0.187333,1.11892e-08,-1.11895e-08,-3.52946e-12
-0.950025,-0.16,0.213536,0.01,48.3506,12.8,572.556,-572.538,198.483,1.07872e-08,-1.0787e-08,3.73953e-09,605.983,-605.966,-9.71054e-06,1.1417e-08,-1.14168e-08,-1.82952e-16
-0.940025,-0.16,0.203646,0.01,42.5649,12.8,583.748,-583.73,204.643,1.09981e-08,-1.09979e-08,3.85559e-09,618.58,-618.562,-1.03873e-05,1.16543e-08,-1.16541e-08,-1.95703e-16
-0.930025,-0.16,0.193767,0.01,36.7208,12.8,595.26,-595.241,211.058,1.1215e-08,-1.12148e-08,3.97646e-09,631.57,-631.551,-1.11178e-05,1.18991e-08,-1.18989e-08,-2.09466e-16
-0.920025,-0.16,0.183902,0.01,30.8172,12.8,607.101,-607.082,217.742,1.14381e-08,-1.14379e-08,4.10239e-09,644.969,-644.949,-1.19068e-05,1.21515e-08,-1.21513e-08,-2.24331e-16
-0.910025,-0.16,0.174052,0.01,24.8528,12.8,619.286,-619.266,224.708,1.16676e-08,-1.16674e-08,4.23362e-09,658.794,-658.774,-1.2759e-05,1.2412e-08,-1.24118e-08,-2.40387e-16
-0.900025,-0.16,0.16422,0.01,18.8266,12.8,631.826,-631.805,231.97,1.19039e-08,-1.19037e-08,4.37045e-09,673.064,-673.043,-1.36803e-05,1.26808e-08,-1.26806e-08,-2.57744e-16
-0.890025,-0.16,0.15441,0.01,12.7371,12.8,644.734,-644.712,239.546,1.21471e-08,-1.21469e-08,4.51318e-09,687.798,-687.776,-1.46771e-05,1.29584e-08,-1.29582e-08,-2.76525e-16
-0.880025,-0.16,0.144625,0.01,6.5832,12.8,658.025,-658.002,247.451,1.23975e-08,-1.23972e-08,4.66211e-09,703.015,-702.992,-1.5756e-05,1.32451e-08,-1.32449e-08,-2.96853e-16
-0.870025,-0.16,0.134873,0.01,0.363467,12.8,671.712,-671.689,255.703,1.26553e-08,-1.26551e-08,4.8176e-09,718.737,-718.713,-1.69249e-05,1.35413e-08,-1.35411e-08,-3.18875e-16
-0.860025,-0.16,0.125159,0.01,-5.92344,12.8,685.811,-685.787,264.322,1.2921e-08,-1.29207e-08,4.97998e-09,734.986,-734.962,-1.81921e-05,1.38475e-08,-1.38472e-08,-3.4275e-16
-0.850025,-0.16,0.115494,0.01,-12.2789,12.8,700.338,-700.312,273.328,1.31947e-08,-1.31944e-08,5.14966e-09,751.786,-751.761,-1.95661e-05,1.4164e-08,-1.41637e-08,-3.68636e-16
-0.840025,-0.16,0.105593,0.01,-18.7045,12.8,715.308,-715.281,282.743,1.34767e-08,-1.34764e-08,5.32704e-09,769.162,-769.135,-2.10573e-05,1.44913e-08,-1.44911e-08,-3.96732e-16
-0.830025,-0.16,0.0956557,0.01,-25.2015,12.8,730.738,-730.711,292.589,1.37674e-08,-1.37671e-08,5.51254e-09,787.139,-787.112,-2.26769e-05,1.483e-08,-1.48298e-08,-4.27246e-16
-0.820025,-0.16,0.0857331,0.01,-31.7716,12.8,746.647,-746.618,302.891,1.40671e-08,-1.40668e-08,5.70664e-09,805.746,-805.717,-2.44294e-05,1.51806e-08,-1.51803e-08,-4.60264e-16
-0.810025,-0.16,0.0758309,0.01,-38.4165,12.8,763.053,-763.023,313.676,1.43762e-08,-1.43759e-08,5.90984e-09,825.012,-824.982,-2.62203e-05,1.55436e-08,-1.55433e-08,-4.94006e-16
-0.800025,-0.16,0.0659582,0.01,-45.1376,12.8,779.975,-779.944,324.972,1.4695e-08,-1.46947e-08,6.12266e-09,844.967,-844.936,-2.71278e-05,1.59195e-08,-1.59192e-08,-5.11104e-16
-0.790025,-0.16,0.0561306,0.01,-51.9367,12.8,797.433,-797.401,336.809,1.5024e-08,-1.50236e-08,6.34568e-09,865.646,-865.614,-3.62087e-05,1.63091e-08,-1.63088e-08,-6.82193e-16
-0.780025,-0.16,0.0463768,0.01,-58.8155,12.8,815.45,-815.418,349.219,1.53634e-08,-1.53631e-08,6.57949e-09,887.082,-887.05,-0.000704234,1.6713e-08,-1.67127e-08,-1.32682e-14
-0.770025,-0.16,0.0367555,0.01,-65.7759,12.8,834.061,-834.059,362.229,1.57142e-08,-1.57142e-08,6.82461e-09,909.322,-909.321,-0.0201521,1.71322e-08,-1.71321e-08,-3.79678e-13
-0.760025,-0.16,0.0274067,0.01,-72.8198,12.8,853.13,-852.398,375.494,1.60703e-08,-1.60629e-08,7.07453e-09,932.14,-931.408,-0.185631,1.75589e-08,-1.75514e-08,-3.49741e-12
-0.750025,-0.16,0.0187426,0.01,-79.9489,12.8,869.806,-863.07,386.4,1.63584e-08,-1.629e-08,7.28e-09,952.061,-945.326,-0.815143,1.79081e-08,-1.78398e-08,-1.53578e-11
-0.740025,-0.16,0.0123062,0.01,-87.1665,12.8,891.817,-877.893,391.738,1.67418e-08,-1.66005e-08,7.38057e-09,974.613,-960.689,-8.79048,1.83017e-08,-1.81605e-08,-1.65618e-10
0.739975,-0.16,0.0122862,0.01,-87.2026,12.8,892.096,-878.048,-391.738,1.67465e-08,-1.6604e-08,-7.38057e-09,974.873,-960.825,8.90689,1.83061e-08,-1.81636e-08,1.67811e-10
0.749975,-0.16,0.0187028,0.01,-79.9846,12.8,869.93,-863.151,-386.443,1.63605e-08,-1.62917e-08,-7.28081e-09,952.194,-945.415,0.84343,1.79104e-08,-1.78416e-08,1.58907e-11
0.759975,-0.16,0.0273613,0.01,-72.855,12.8,853.23,-852.491,-375.556,1.60721e-08,-1.60646e-08,-7.07569e-09,932.257,-931.517,0.192695,1.7561e-08,-1.75535e-08,3.63049e-12
0.769975,-0.16,0.0367082,0.01,-65.8108,12.8,834.155,-834.154,-362.295,1.5716e-08,-1.57159e-08,-6.82586e-09,909.435,-909.434,0.0204743,1.71343e-08,-1.71343e-08,3.85747e-13
0.779975,-0.16,0.0463286,0.01,-58.8499,12.8,815.541,-815.509,-349.282,1.53651e-08,-1.53648e-08,-6.58068e-09,887.19,-887.159,0.000716679,1.6715e-08,-1.67147e-08,1.35026e-14
0.789975,-0.16,0.0560819,0.01,-51.9707,12.8,797.521,-797.489,-336.869,1.50256e-08,-1.50253e-08,-6.34681e-09,865.75,-865.718,3.64616e-05,1.63111e-08,-1.63108e-08,6.86958e-16
0.799975,-0.16,0.0659092,0.01,-45.1712,12.8,780.06,-780.029,-325.03,1.46967e-08,-1.46963e-08,-6.12375e-09,845.068,-845.037,2.71265e-05,1.59214e-08,-1.59211e-08,5.1108e-16
0.809975,-0.16,0.0757818,0.01,-38.4497,12.8,763.136,-763.106,-313.731,1.43778e-08,-1.43775e-08,-5.91088e-09,825.109,-825.079,2.62282e-05,1.55454e-08,-1.55451e-08,4.94155e-16
0.819975,-0.16,0.0856838,0.01,-31.8045,12.8,746.727,-746.699,-302.944,1.40687e-08,-1.40684e-08,-5.70763e-09,805.84,-805.812,2.44382e-05,1.51824e-08,-1.51821e-08,4.6043e-16
0.829975,-0.16,0.0956063,0.01,-25.234,12.8,730.816,-730.789,-292.639,1.37689e-08,-1.37686e-08,-5.51349e-09,787.23,-787.203,2.2685e-05,1.48318e-08,-1.48315e-08,4.27399e-16
0.839975,-0.16,0.105543,0.01,-18.7366,12.8,715.383,-715.357,-282.791,1.34781e-08,-1.34779e-08,-5.32794e-09,769.25,-769.223,2.1065e-05,1.4493e-08,-1.44927e-08,3.96877e-16
0.849975,-0.16,0.115446,0.01,-12.3107,12.8,700.411,-700.386,-273.374,1.3196e-08,-1.31958e-08,-5.15052e-09,751.871,-751.846,1.9573e-05,1.41656e-08,-1.41653e-08,3.68767e-16
0.859975,-0.16,0.125111,0.01,-5.95487,12.8,685.883,-685.858,-264.366,1.29223e-08,-1.29221e-08,-4.98081e-09,735.068,-735.044,1.81986e-05,1.3849e-08,-1.38488e-08,3.42871e-16
0.869975,-0.16,0.134824,0.01,0.332369,12.8,671.782,-671.758,-255.745,1.26567e-08,-1.26564e-08,-4.81839e-09,718.816,-718.793,1.69313e-05,1.35428e-08,-1.35426e-08,3.18996e-16
0.879975,-0.16,0.144577,0.01,6.55243,12.8,658.092,-658.069,-247.491,1.23987e-08,-1.23985e-08,-4.66287e-09,703.092,-703.069,1.57617e-05,1.32466e-08,-1.32463e-08,2.96959e-16
0.889975,-0.16,0.154361,0.01,12.7067,12.8,644.8,-644.778,-239.584,1.21483e-08,-1.21481e-08,-4.5139e-09,687.872,-687.85,1.46819e-05,1.29598e-08,-1.29596e-08,2.76615e-16
0.899975,-0.16,0.164171,0.01,18.7965,12.8,631.889,-631.868,-232.007,1.19051e-08,-1.19049e-08,-4.37115e-09,673.136,-673.115,1.36847e-05,1.26822e-08,-1.2682e-08,2.57828e-16
0.909975,-0.16,0.174003,0.01,24.823,12.8,619.348,-619.327,-224.743,1.16688e-08,-1.16686e-08,-4.23429e-09,658.864,-658.843,1.27632e-05,1.24133e-08,-1.24131e-08,2.40466e-16
0.919975,-0.16,0.183853,0.01,30.7877,12.8,607.161,-607.142,-217.776,1.14392e-08,-1.1439e-08,-4.10302e-09,645.036,-645.017,1.1911e-05,1.21528e-08,-1.21526e-08,2.24409e-16
0.929975,-0.16,0.193718,0.01,36.6916,12.8,595.318,-595.299,-211.091,1.1216e-08,-1.12159e-08,-3.97708e-09,631.635,-631.616,1.11219e-05,1.19003e-08,-1.19001e-08,2.09544e-16
0.939975,-0.16,0.203597,0.01,42.536,12.8,583.805,-583.786,-204.674,1.09991e-08,-1.0999e-08,-3.85618e-09,618.644,-618.625,1.03911e-05,1.16555e-08,-1.16553e-08,1.95774e-16
0.949975,-0.16,0.213486,0.01,48.322,12.8,572.61,-572.593,-198.513,1.07882e-08,-1.07881e-08,-3.74009e-09,606.045,-606.027,9.71395e-06,1.14182e-08,-1.1418e-08,1.83016e-16
0.959975,-0.16,0.223386,0.01,54.0507,12.8,561.893,-561.922,-192.461,1.05865e-08,-1.05868e-08,-3.62608e-09,593.939,-593.969,0.18735,1.11903e-08,-1.11906e-08,3.52979e-12
0.969975,-0.16,0.233294,0.01,59.7233,12.8,553.635,-555.498,-187.207,1.04389e-08,-1.04578e-08,-3.52708e-09,584.38,-586.244,0.819416,1.10182e-08,-1.10371e-08,1.54383e-11
0.979975,-0.16,0.24321,0.01,65.3408,12.8,547.152,-550.33,-183.884,1.03225e-08,-1.03547e-08,-3.46449e-09,577.142,-580.321,0.197544,1.08875e-08,-1.09198e-08,3.72184e-12
-0.980025,-0.15,0.24155,0.01,64.4831,11.25,549.678,-557.423,175.263,1.03899e-08,-1.04685e-08,3.30205e-09,576.759,-584.504,1.66797,1.09001e-08,-1.09787e-08,3.14254e-11
-0.970025,-0.15,0.231698,0.01,58.848,11.25,557.992,-561.459,177.688,1.0528e-08,-1.05631e-08,3.34774e-09,585.518,-588.986,0.324377,1.10466e-08,-1.10818e-08,6.11144e-12
-0.960025,-0.15,0.22186,0.01,53.1573,11.25,567.423,-567.598,181.721,1.06913e-08,-1.06931e-08,3.42372e-09,595.807,-595.982,-0.0567575,1.12261e-08,-1.12279e-08,-1.06934e-12
-0.950025,-0.15,0.212036,0.01,47.4098,11.25,578.437,-578.419,187.327,1.0898e-08,-1.08978e-08,3.52934e-09,608.014,-607.996,-9.45522e-06,1.14553e-08,-1.14551e-08,-1.78142e-16
-0.940025,-0.15,0.20223,0.01,41.6045,11.25,589.873,-589.854,193.168,1.11135e-08,-1.11133e-08,3.63939e-09,620.697,-620.678,-1.01224e-05,1.16942e-08,-1.1694e-08,-1.90713e-16
-0.930025,-0.15,0.192428,0.01,35.7402,11.25,601.64,-601.62,199.252,1.13352e-08,-1.1335e-08,3.75402e-09,633.776,-633.756,-1.08433e-05,1.19406e-08,-1.19404e-08,-2.04294e-16
-0.920025,-0.15,0.18249,0.01,29.8157,11.25,613.75,-613.73,205.592,1.15633e-08,-1.15631e-08,3.87348e-09,647.27,-647.249,-1.16228e-05,1.21949e-08,-1.21946e-08,-2.18981e-16
-0.910025,-0.15,0.172559,0.01,23.8299,11.25,626.218,-626.197,212.202,1.17982e-08,-1.1798e-08,3.998e-09,661.195,-661.174,-1.24661e-05,1.24572e-08,-1.2457e-08,-2.34869e-16
-0.900025,-0.15,0.162637,0.01,17.7814,11.25,639.056,-639.034,219.095,1.20401e-08,-1.20399e-08,4.12787e-09,675.571,-675.548,-1.33787e-05,1.2728e-08,-1.27278e-08,-2.52062e-16
-0.890025,-0.15,0.152725,0.01,11.669,11.25,652.278,-652.255,226.286,1.22892e-08,-1.2289e-08,4.26337e-09,690.415,-690.392,-1.43671e-05,1.30077e-08,-1.30075e-08,-2.70684e-16
-0.880025,-0.15,0.142825,0.01,5.49143,11.25,665.9,-665.876,233.793,1.25458e-08,-1.25456e-08,4.4048e-09,705.75,-705.726,-1.54383e-05,1.32966e-08,-1.32964e-08,-2.90867e-16
-0.870025,-0.15,0.132941,0.01,-0.752769,11.25,679.937,-679.912,241.632,1.28103e-08,-1.281e-08,4.55249e-09,721.596,-721.571,-1.66007e-05,1.35952e-08,-1.35949e-08,-3.12767e-16
-0.860025,-0.15,0.123075,0.01,-7.06496,11.25,694.404,-694.378,249.822,1.30829e-08,-1.30826e-08,4.70679e-09,737.976,-737.951,-1.78628e-05,1.39038e-08,-1.39035e-08,-3.36546e-16
-0.850025,-0.15,0.113232,0.01,-13.4466,11.25,709.319,-709.293,258.382,1.33639e-08,-1.33636e-08,4.86807e-09,754.915,-754.888,-1.92333e-05,1.42229e-08,-1.42226e-08,-3.62366e-16
-0.840025,-0.15,0.10342,0.01,-19.8992,11.25,724.7,-724.673,267.333,1.36537e-08,-1.36534e-08,5.03671e-09,772.437,-772.409,-2.07228e-05,1.4553e-08,-1.45528e-08,-3.90429e-16
-0.830025,-0.15,0.0936473,0.01,-26.4242,11.25,740.565,-740.537,276.698,1.39526e-08,-1.39523e-08,5.21314e-09,790.57,-790.541,-2.2344e-05,1.48947e-08,-1.48944e-08,-4.20975e-16
-0.820025,-0.15,0.0839284,0.01,-33.0233,11.25,756.934,-756.904,286.499,1.42609e-08,-1.42606e-08,5.39782e-09,809.341,-809.311,-2.41218e-05,1.52483e-08,-1.5248e-08,-4.54468e-16
-0.810025,-0.15,0.074284,0.01,-39.6981,11.25,773.826,-773.795,296.764,1.45792e-08,-1.45789e-08,5.59121e-09,828.781,-828.75,-2.62231e-05,1.56146e-08,-1.56143e-08,-4.94058e-16
-0.800025,-0.15,0.0647477,0.01,-46.4503,11.25,791.264,-791.231,307.519,1.49077e-08,-1.49074e-08,5.79384e-09,848.922,-848.889,-2.94925e-05,1.5994e-08,-1.59937e-08,-5.55655e-16
-0.790025,-0.15,0.0550062,0.01,-53.2816,11.25,809.268,-809.234,318.793,1.52469e-08,-1.52466e-08,6.00625e-09,869.796,-869.762,-4.9134e-06,1.63873e-08,-1.6387e-08,-9.25713e-17
-0.780025,-0.15,0.0450094,0.01,-60.1939,11.25,827.861,-827.824,330.618,1.55972e-08,-1.55968e-08,6.22904e-09,891.44,-891.402,0.00135388,1.67951e-08,-1.67947e-08,2.55079e-14
-0.770025,-0.15,0.0350143,0.01,-67.1889,11.25,847.035,-846.921,343.029,1.59581e-08,-1.5957e-08,6.46287e-09,913.862,-913.749,0.0308036,1.72172e-08,-1.72161e-08,5.80358e-13
-0.760025,-0.15,0.0250232,0.01,-74.2686,11.25,865.956,-862.253,353.743,1.6299e-08,-1.62614e-08,6.66473e-09,935.559,-931.856,-1.07627,1.76104e-08,-1.75728e-08,-2.02776e-11
-0.750025,-0.15,0.0150439,0.01,-81.435,11.25,882.701,-870.35,363.547,1.65769e-08,-1.64516e-08,6.84944e-09,955.102,-942.751,-1.53099,1.7941e-08,-1.78157e-08,-2.88448e-11
-0.740025,-0.15,0.00514574,0.01,-88.6883,11.25,891.659,-872.576,368.483,1.67164e-08,-1.65228e-08,6.94244e-09,965.52,-946.437,-4.09134,1.8108e-08,-1.79144e-08,-7.70832e-11
0.739975,-0.15,0.00509751,0.01,-88.7246,11.25,891.795,-872.394,-368.366,1.67176e-08,-1.65208e-08,-6.94023e-09,965.611,-946.211,4.21534,1.81083e-08,-1.79115e-08,7.94195e-11
0.749975,-0.15,0.0149944,0.01,-81.4708,11.25,882.799,-870.367,-363.569,1.65784e-08,-1.64523e-08,-6.84985e-09,955.204,-942.772,1.55735,1.79425e-08,-1.78164e-08,2.93414e-11
0.759975,-0.15,0.0249735,0.01,-74.3041,11.25,866.049,-862.331,-353.799,1.63007e-08,-1.6263e-08,-6.66578e-09,935.667,-931.949,1.08054,1.76123e-08,-1.75746e-08,2.0358e-11
0.769975,-0.15,0.0349646,0.01,-67.2239,11.25,847.131,-847.017,-343.093,1.59599e-08,-1.59588e-08,-6.46407e-09,913.976,-913.862,-0.0313275,1.72193e-08,-1.72182e-08,-5.90229e-13
0.779975,-0.15,0.0449596,0.01,-60.2284,11.25,827.955,-827.917,-330.679,1.5599e-08,-1.55986e-08,-6.23018e-09,891.55,-891.512,-0.00137822,1.67971e-08,-1.67968e-08,-2.59665e-14
0.789975,-0.15,0.0549565,0.01,-53.3158,11.25,809.359,-809.325,-318.851,1.52486e-08,-1.52483e-08,-6.00733e-09,869.902,-869.868,4.28896e-06,1.63893e-08,-1.6389e-08,8.08066e-17
0.799975,-0.15,0.0647006,0.01,-46.4841,11.25,791.352,-791.319,-307.574,1.49094e-08,-1.49091e-08,-5.79487e-09,849.024,-848.991,2.95106e-05,1.5996e-08,-1.59956e-08,5.55997e-16
0.809975,-0.15,0.0742363,0.01,-39.7315,11.25,773.912,-773.88,-296.816,1.45808e-08,-1.45805e-08,-5.59219e-09,828.879,-828.848,2.62355e-05,1.56164e-08,-1.56161e-08,4.94292e-16
0.819975,-0.15,0.0838802,0.01,-33.0563,11.25,757.017,-756.987,-286.549,1.42625e-08,-1.42622e-08,-5.39876e-09,809.436,-809.406,2.41312e-05,1.52501e-08,-1.52498e-08,4.54646e-16
0.829975,-0.15,0.0935989,0.01,-26.4568,11.25,740.646,-740.617,-276.745,1.39541e-08,-1.39538e-08,-5.21404e-09,790.661,-790.632,2.23524e-05,1.48964e-08,-1.48961e-08,4.21132e-16
0.839975,-0.15,0.103371,0.01,-19.9314,11.25,724.778,-724.75,-267.379,1.36551e-08,-1.36548e-08,-5.03757e-09,772.526,-772.498,2.07302e-05,1.45547e-08,-1.45544e-08,3.90569e-16
0.849975,-0.15,0.113183,0.01,-13.4785,11.25,709.395,-709.368,-258.426,1.33653e-08,-1.3365e-08,-4.86889e-09,755.001,-754.974,1.92399e-05,1.42245e-08,-1.42243e-08,3.6249e-16
0.859975,-0.15,0.123026,0.01,-7.09653,11.25,694.477,-694.451,-249.864,1.30842e-08,-1.3084e-08,-4.70758e-09,738.059,-738.033,1.78691e-05,1.39054e-08,-1.39051e-08,3.36665e-16
0.869975,-0.15,0.132892,0.01,-0.783991,11.25,680.007,-679.983,-241.672,1.28116e-08,-1.28114e-08,-4.55324e-09,721.676,-721.651,1.66069e-05,1.35967e-08,-1.35964e-08,3.12884e-16
0.879975,-0.15,0.142776,0.01,5.46054,11.25,665.969,-665.945,-233.831,1.25471e-08,-1.25469e-08,-4.40552e-09,705.827,-705.804,1.54439e-05,1.32981e-08,-1.32979e-08,2.90973e-16
0.889975,-0.15,0.152676,0.01,11.6385,11.25,652.345,-652.322,-226.323,1.22905e-08,-1.22902e-08,-4.26406e-09,690.49,-690.467,1.43721e-05,1.30091e-08,-1.30089e-08,2.70779e-16
0.899975,-0.15,0.162588,0.01,17.7512,11.25,639.121,-639.099,-219.13,1.20413e-08,-1.20411e-08,-4.12853e-09,675.643,-675.621,1.33832e-05,1.27294e-08,-1.27292e-08,2.52148e-16
0.909975,-0.15,0.17251,0.01,23.8,11.25,626.281,-626.26,-212.235,1.17994e-08,-1.17992e-08,-3.99863e-09,661.266,-661.244,1.24701e-05,1.24585e-08,-1.24583e-08,2.34944e-16
0.919975,-0.15,0.18244,0.01,29.7861,11.25,613.811,-613.791,-205.624,1.15645e-08,-1.15643e-08,-3.87408e-09,647.338,-647.318,1.16269e-05,1.21961e-08,-1.21959e-08,2.19057e-16
0.929975,-0.15,0.192378,0.01,35.7109,11.25,601.699,-601.679,-199.283,1.13363e-08,-1.13361e-08,-3.75461e-09,633.842,-633.823,1.08474e-05,1.19419e-08,-1.19417e-08,2.04371e-16
0.939975,-0.15,0.202181,0.01,41.5755,11.25,589.93,-589.911,-193.197,1.11145e-08,-1.11144e-08,-3.63995e-09,620.761,-620.742,1.0126e-05,1.16954e-08,-1.16952e-08,1.90779e-16
0.949975,-0.15,0.211987,0.01,47.3811,11.25,578.493,-578.475,-187.355,1.08991e-08,-1.08989e-08,-3.52988e-09,608.077,-608.058,9.45845e-06,1.14564e-08,-1.14562e-08,1.78203e-16
0.959975,-0.15,0.221811,0.01,53.1288,11.25,567.477,-567.653,-181.748,1.06924e-08,-1.06941e-08,-3.42424e-09,595.867,-596.043,0.0567681,1.12272e-08,-1.1229e-08,1.06954e-12
0.969975,-0.15,0.231649,0.01,58.8198,11.25,558.045,-561.513,-177.714,1.0529e-08,-1.05641e-08,-3.34824e-09,585.577,-589.045,-0.324443,1.10477e-08,-1.10829e-08,-6.1127e-12
0.979975,-0.15,0.241501,0.01,64.4552,11.25,549.73,-557.477,-175.289,1.03909e-08,-1.04695e-08,-3.30255e-09,576.816,-584.563,-1.6683,1.09012e-08,-1.09798e-08,-3.14317e-11
-0.980025,-0.14,0.240072,0.01,63.6522,9.8,554.409,-562.743,164.684,1.04816e-08,-1.05662e-08,3.10274e-09,578.177,-586.511,1.69938,1.09294e-08,-1.1014e-08,3.20173e-11
-0.970025,-0.14,0.230157,0.01,58.0002,9.8,563.142,-566.685,166.856,1.06253e-08,-1.06613e-08,3.14367e-09,587.268,-590.812,0.310516,1.10799e-08,-1.11158e-08,5.8503e-12
-0.960025,-0.14,0.22025,0.01,52.2922,9.8,572.767,-572.946,170.653,1.0792e-08,-1.07939e-08,3.21519e-09,597.645,-597.824,-0.0541792,1.12608e-08,-1.12626e-08,-1.02077e-12
-0.950025,-0.14,0.210351,0.01,46.5268,9.8,584,-583.981,175.94,1.10028e-08,-1.10026e-08,3.3148e-09,609.927,-609.908,-9.14314e-06,1.14913e-08,-1.14911e-08,-1.72262e-16
-0.940025,-0.14,0.200463,0.01,40.703,9.8,595.666,-595.646,181.449,1.12226e-08,-1.12224e-08,3.41861e-09,622.69,-622.67,-9.79562e-06,1.17317e-08,-1.17315e-08,-1.84555e-16
-0.930025,-0.14,0.190586,0.01,34.8197,9.8,607.676,-607.656,187.19,1.14489e-08,-1.14487e-08,3.52677e-09,635.854,-635.834,-1.05015e-05,1.19798e-08,-1.19796e-08,-1.97854e-16
-0.920025,-0.14,0.180723,0.01,28.8756,9.8,620.043,-620.021,193.173,1.16819e-08,-1.16817e-08,3.6395e-09,649.438,-649.416,-1.12656e-05,1.22357e-08,-1.22355e-08,-2.12251e-16
-0.910025,-0.14,0.170875,0.01,22.8695,9.8,632.78,-632.757,199.412,1.19218e-08,-1.19216e-08,3.75704e-09,663.457,-663.435,-1.20929e-05,1.24998e-08,-1.24996e-08,-2.27838e-16
-0.900025,-0.14,0.161047,0.01,16.8001,9.8,645.901,-645.878,205.92,1.21691e-08,-1.21688e-08,3.87966e-09,677.932,-677.909,-1.29893e-05,1.27725e-08,-1.27723e-08,-2.44726e-16
-0.890025,-0.14,0.151241,0.01,10.6662,9.8,659.423,-659.399,212.712,1.24238e-08,-1.24236e-08,4.00763e-09,692.882,-692.858,-1.39614e-05,1.30542e-08,-1.3054e-08,-2.63042e-16
-0.880025,-0.14,0.141462,0.01,4.46624,9.8,673.36,-673.335,219.804,1.26864e-08,-1.26861e-08,4.14123e-09,708.328,-708.303,-1.50164e-05,1.33452e-08,-1.33449e-08,-2.82918e-16
-0.870025,-0.14,0.131716,0.01,-1.80102,9.8,687.73,-687.704,227.211,1.29571e-08,-1.29569e-08,4.28079e-09,724.291,-724.266,-1.61625e-05,1.3646e-08,-1.36457e-08,-3.0451e-16
-0.860025,-0.14,0.121779,0.01,-8.13705,9.8,702.549,-702.522,234.952,1.32363e-08,-1.3236e-08,4.42663e-09,740.796,-740.769,-1.74086e-05,1.39569e-08,-1.39566e-08,-3.27988e-16
-0.850025,-0.14,0.111822,0.01,-14.5433,9.8,717.836,-717.808,243.045,1.35243e-08,-1.3524e-08,4.57911e-09,757.865,-757.837,-1.87636e-05,1.42785e-08,-1.42782e-08,-3.53518e-16
-0.840025,-0.14,0.101874,0.01,-21.0214,9.8,733.609,-733.58,251.51,1.38215e-08,-1.38212e-08,4.7386e-09,775.526,-775.497,-2.02382e-05,1.46112e-08,-1.46109e-08,-3.81299e-16
-0.830025,-0.14,0.0919373,0.01,-27.5729,9.8,749.89,-749.859,260.369,1.41282e-08,-1.41279e-08,4.90551e-09,793.806,-793.776,-2.18438e-05,1.49556e-08,-1.49553e-08,-4.11549e-16
-0.820025,-0.14,0.0820159,0.01,-34.1993,9.8,766.698,-766.666,269.645,1.44449e-08,-1.44446e-08,5.08027e-09,812.733,-812.702,-2.3576e-05,1.53122e-08,-1.53119e-08,-4.44186e-16
-0.810025,-0.14,0.0721163,0.01,-40.9024,9.8,784.055,-784.022,279.362,1.47719e-08,-1.47716e-08,5.26335e-09,832.339,-832.306,-2.52633e-05,1.56816e-08,-1.56813e-08,-4.75976e-16
-0.800025,-0.14,0.0622487,0.01,-47.6839,9.8,801.985,-801.951,289.547,1.51097e-08,-1.51094e-08,5.45523e-09,852.655,-852.62,-2.68703e-05,1.60644e-08,-1.6064e-08,-5.06253e-16
-0.790025,-0.14,0.0524314,0.01,-54.5456,9.8,820.513,-820.477,300.227,1.54588e-08,-1.54584e-08,5.65645e-09,873.716,-873.68,-9.69018e-05,1.64612e-08,-1.64608e-08,-1.82569e-15
-0.780025,-0.14,0.0426989,0.01,-61.4894,9.8,839.664,-839.632,311.432,1.58196e-08,-1.58193e-08,5.86756e-09,895.56,-895.528,-0.0026733,1.68727e-08,-1.68724e-08,-5.03665e-14
-0.770025,-0.14,0.0331262,0.01,-68.5171,9.8,859.258,-858.829,323.166,1.61871e-08,-1.61827e-08,6.08864e-09,918.034,-917.605,0.110648,1.72944e-08,-1.72901e-08,2.08467e-12
-0.760025,-0.14,0.0239059,0.01,-75.6308,9.8,876.94,-868.006,333.325,1.64832e-08,-1.63926e-08,6.28004e-09,938.445,-929.511,0.568855,1.7642e-08,-1.75514e-08,1.07176e-11
-0.750025,-0.14,0.0156728,0.01,-82.8327,9.8,896.731,-864.167,340.693,1.67533e-08,-1.6423e-08,6.41885e-09,960.349,-927.785,0.127713,1.79519e-08,-1.76216e-08,2.40619e-12
0.749975,-0.14,0.015637,0.01,-82.8687,9.8,896.844,-864.141,-340.753,1.67549e-08,-1.64231e-08,-6.41998e-09,960.481,-927.778,-0.145332,1.79538e-08,-1.76221e-08,-2.73814e-12
0.759975,-0.14,0.0238616,0.01,-75.6664,9.8,877.036,-868.081,-333.394,1.64849e-08,-1.63941e-08,-6.28133e-09,938.56,-929.605,-0.580767,1.76441e-08,-1.75532e-08,-1.0942e-11
0.769975,-0.14,0.0330792,0.01,-68.5523,9.8,859.358,-858.929,-323.226,1.61889e-08,-1.61846e-08,-6.08976e-09,918.148,-917.719,-0.110468,1.72966e-08,-1.72922e-08,-2.08129e-12
0.779975,-0.14,0.0426508,0.01,-61.5241,9.8,839.761,-839.729,-311.489,1.58214e-08,-1.58211e-08,-5.86864e-09,895.671,-895.638,0.00271823,1.68748e-08,-1.68745e-08,5.12131e-14
0.789975,-0.14,0.0523827,0.01,-54.58,9.8,820.606,-820.571,-300.282,1.54605e-08,-1.54602e-08,-5.65748e-09,873.822,-873.787,9.83014e-05,1.64632e-08,-1.64628e-08,1.85206e-15
0.799975,-0.14,0.0621998,0.01,-47.7178,9.8,802.076,-802.042,-289.599,1.51114e-08,-1.51111e-08,-5.45621e-09,852.757,-852.723,2.68916e-05,1.60663e-08,-1.60659e-08,5.06653e-16
0.809975,-0.14,0.0720671,0.01,-40.9359,9.8,784.143,-784.11,-279.412,1.47736e-08,-1.47732e-08,-5.26428e-09,832.438,-832.405,2.52707e-05,1.56835e-08,-1.56831e-08,4.76115e-16
0.819975,-0.14,0.0819666,0.01,-34.2324,9.8,766.782,-766.751,-269.693,1.44465e-08,-1.44462e-08,-5.08116e-09,812.829,-812.797,2.35853e-05,1.5314e-08,-1.53137e-08,4.4436e-16
0.829975,-0.14,0.0918879,0.01,-27.6056,9.8,749.972,-749.941,-260.415,1.41298e-08,-1.41295e-08,-4.90636e-09,793.898,-793.868,2.18525e-05,1.49574e-08,-1.49571e-08,4.11713e-16
0.839975,-0.14,0.101825,0.01,-21.0538,9.8,733.689,-733.66,-251.553,1.3823e-08,-1.38227e-08,-4.73941e-09,775.616,-775.587,2.02459e-05,1.46129e-08,-1.46126e-08,3.81444e-16
0.849975,-0.14,0.111773,0.01,-14.5754,9.8,717.913,-717.885,-243.086,1.35258e-08,-1.35255e-08,-4.57988e-09,757.952,-757.924,1.87702e-05,1.42801e-08,-1.42798e-08,3.53642e-16
0.859975,-0.14,0.121729,0.01,-8.16873,9.8,702.624,-702.597,-234.991,1.32377e-08,-1.32374e-08,-4.42737e-09,740.879,-740.852,1.74148e-05,1.39585e-08,-1.39582e-08,3.28105e-16
0.869975,-0.14,0.131667,0.01,-1.83236,9.8,687.802,-687.776,-227.249,1.29585e-08,-1.29582e-08,-4.2815e-09,724.372,-724.346,1.61686e-05,1.36475e-08,-1.36472e-08,3.04627e-16
0.879975,-0.14,0.141413,0.01,4.43524,9.8,673.431,-673.406,-219.84,1.26877e-08,-1.26875e-08,-4.14191e-09,708.406,-708.381,1.5022e-05,1.33467e-08,-1.33464e-08,2.83023e-16
0.889975,-0.14,0.151192,0.01,10.6355,9.8,659.491,-659.467,-212.747,1.24251e-08,-1.24248e-08,-4.00828e-09,692.958,-692.934,1.39665e-05,1.30556e-08,-1.30554e-08,2.63136e-16
0.899975,-0.14,0.160998,0.01,16.7698,9.8,645.967,-645.945,-205.953,1.21703e-08,-1.21701e-08,-3.88028e-09,678.006,-677.983,1.29939e-05,1.27739e-08,-1.27737e-08,2.44813e-16
0.909975,-0.14,0.170826,0.01,22.8395,9.8,632.844,-632.822,-199.444,1.1923e-08,-1.19228e-08,-3.75764e-09,663.528,-663.506,1.20971e-05,1.25012e-08,-1.25009e-08,2.27916e-16
0.919975,-0.14,0.180674,0.01,28.8459,9.8,620.105,-620.084,-193.204,1.1683e-08,-1.16828e-08,-3.64007e-09,649.506,-649.485,1.12695e-05,1.2237e-08,-1.22368e-08,2.12323e-16
0.929975,-0.14,0.190537,0.01,34.7903,9.8,607.737,-607.716,-187.219,1.145e-08,-1.14498e-08,-3.52732e-09,635.921,-635.9,1.0505e-05,1.1981e-08,-1.19808e-08,1.9792e-16
0.939975,-0.14,0.200414,0.01,40.6739,9.8,595.725,-595.705,-181.477,1.12237e-08,-1.12235e-08,-3.41914e-09,622.754,-622.734,9.79873e-06,1.1733e-08,-1.17328e-08,1.84614e-16
0.949975,-0.14,0.210302,0.01,46.498,9.8,584.057,-584.038,-175.966,1.10039e-08,-1.10037e-08,-3.31531e-09,609.989,-609.97,9.14605e-06,1.14925e-08,-1.14923e-08,1.72317e-16
0.959975,-0.14,0.220201,0.01,52.2636,9.8,572.823,-573.001,-170.678,1.07931e-08,-1.07949e-08,-3.21568e-09,597.706,-597.885,0.0541895,1.12619e-08,-1.12637e-08,1.02096e-12
0.969975,-0.14,0.230108,0.01,57.972,9.8,563.196,-566.74,-166.881,1.06263e-08,-1.06623e-08,-3.14414e-09,587.327,-590.871,-0.310579,1.1081e-08,-1.11169e-08,-5.85149e-12
0.979975,-0.14,0.240023,0.01,63.6242,9.8,554.462,-562.797,-164.708,1.04826e-08,-1.05672e-08,-3.1032e-09,578.235,-586.57,-1.69971,1.09305e-08,-1.10151e-08,-3.20236e-11
-0.980025,-0.13,0.238902,0.01,62.8764,8.45,559.107,-567.588,153.781,1.05708e-08,-1.06568e-08,2.89732e-09,579.717,-588.198,1.59113,1.09591e-08,-1.10451e-08,2.99778e-11
-0.970025,-0.13,0.229043,0.01,57.2087,8.45,567.994,-571.6,155.817,1.0717e-08,-1.07536e-08,2.93568e-09,588.915,-592.521,0.288127,1.11112e-08,-1.11478e-08,5.42848e-12
-0.960025,-0.13,0.219086,0.01,51.4843,8.45,577.793,-577.974,159.376,1.08867e-08,-1.08886e-08,3.00274e-09,599.367,-599.549,-0.0513711,1.12932e-08,-1.12951e-08,-9.67862e-13
-0.950025,-0.13,0.209132,0.01,45.7022,8.45,589.231,-589.211,164.333,1.11014e-08,-1.11012e-08,3.09614e-09,611.718,-611.699,-8.77429e-06,1.1525e-08,-1.15248e-08,-1.65313e-16
-0.940025,-0.13,0.199183,0.01,39.8612,8.45,601.116,-601.096,169.501,1.13253e-08,-1.13251e-08,3.19349e-09,624.557,-624.537,-9.40726e-06,1.17669e-08,-1.17667e-08,-1.77238e-16
-0.930025,-0.13,0.189239,0.01,33.96,8.45,613.356,-613.335,174.885,1.15559e-08,-1.15557e-08,3.29494e-09,637.802,-637.78,-1.00926e-05,1.20165e-08,-1.20162e-08,-1.9015e-16
-0.920025,-0.13,0.179302,0.01,27.9975,8.45,625.964,-625.942,180.499,1.17934e-08,-1.17932e-08,3.4007e-09,651.469,-651.447,-1.08348e-05,1.2274e-08,-1.22737e-08,-2.04134e-16
-0.910025,-0.13,0.169372,0.01,21.9724,8.45,638.956,-638.934,186.354,1.20382e-08,-1.2038e-08,3.51101e-09,665.578,-665.555,-1.16393e-05,1.25398e-08,-1.25395e-08,-2.19292e-16
-0.900025,-0.13,0.15945,0.01,15.8835,8.45,652.347,-652.323,192.462,1.22905e-08,-1.22902e-08,3.6261e-09,680.146,-680.122,-1.25123e-05,1.28142e-08,-1.2814e-08,-2.35739e-16
-0.890025,-0.13,0.14954,0.01,9.72923,8.45,666.152,-666.127,198.839,1.25506e-08,-1.25503e-08,3.74625e-09,695.195,-695.17,-1.34603e-05,1.30978e-08,-1.30975e-08,-2.536e-16
-0.880025,-0.13,0.139642,0.01,3.50839,8.45,680.388,-680.362,205.499,1.28188e-08,-1.28185e-08,3.87171e-09,710.745,-710.719,-1.449e-05,1.33907e-08,-1.33905e-08,-2.73e-16
-0.870025,-0.13,0.129759,0.01,-2.7805,8.45,695.073,-695.047,212.457,1.30955e-08,-1.30952e-08,4.00281e-09,726.819,-726.792,-1.56096e-05,1.36936e-08,-1.36933e-08,-2.94094e-16
-0.860025,-0.13,0.119896,0.01,-9.13889,8.45,710.226,-710.198,219.73,1.33809e-08,-1.33807e-08,4.13983e-09,743.44,-743.412,-1.68284e-05,1.40067e-08,-1.40064e-08,-3.17056e-16
-0.850025,-0.13,0.110058,0.01,-15.5683,8.45,725.865,-725.836,227.336,1.36756e-08,-1.36753e-08,4.28314e-09,760.633,-760.604,-1.81558e-05,1.43306e-08,-1.43303e-08,-3.42065e-16
-0.840025,-0.13,0.100252,0.01,-22.0703,8.45,742.011,-741.981,235.294,1.39798e-08,-1.39795e-08,4.43307e-09,778.425,-778.395,-1.96025e-05,1.46658e-08,-1.46655e-08,-3.69323e-16
-0.830025,-0.13,0.0904881,0.01,-28.6465,8.45,758.686,-758.654,243.625,1.42939e-08,-1.42936e-08,4.59003e-09,796.843,-796.811,-2.11826e-05,1.50128e-08,-1.50125e-08,-3.99093e-16
-0.820025,-0.13,0.0807821,0.01,-35.2986,8.45,775.912,-775.879,252.35,1.46185e-08,-1.46181e-08,4.75442e-09,815.917,-815.884,-2.29319e-05,1.53722e-08,-1.53719e-08,-4.3205e-16
-0.810025,-0.13,0.0711577,0.01,-42.0283,8.45,793.711,-793.677,261.493,1.49538e-08,-1.49535e-08,4.92669e-09,835.678,-835.644,-2.50419e-05,1.57445e-08,-1.57442e-08,-4.71804e-16
-0.800025,-0.13,0.0612988,0.01,-48.8373,8.45,812.111,-812.075,271.08,1.53005e-08,-1.53001e-08,5.1073e-09,856.16,-856.124,-2.55847e-05,1.61304e-08,-1.613e-08,-4.8203e-16
-0.790025,-0.13,0.0513,0.01,-55.7276,8.45,831.135,-831.097,281.136,1.56589e-08,-1.56585e-08,5.29676e-09,877.396,-877.358,0.000113059,1.65305e-08,-1.65301e-08,2.13009e-15
-0.780025,-0.13,0.0413018,0.01,-62.701,8.45,850.807,-850.76,291.692,1.60295e-08,-1.6029e-08,5.49565e-09,899.422,-899.375,0.00459468,1.69454e-08,-1.69449e-08,8.65664e-14
-0.770025,-0.13,0.0313047,0.01,-69.7594,8.45,870.974,-870.593,302.81,1.6408e-08,-1.64041e-08,5.70512e-09,922.123,-921.741,0.153815,1.73717e-08,-1.73678e-08,2.89797e-12
-0.760025,-0.13,0.0213104,0.01,-76.905,8.45,889.599,-880.398,312.452,1.67206e-08,-1.66272e-08,5.88677e-09,943.136,-933.935,0.541589,1.77292e-08,-1.76359e-08,1.02038e-11
-0.750025,-0.13,0.011326,0.01,-84.1396,8.45,908.765,-870.223,320.661,1.69541e-08,-1.65631e-08,6.04145e-09,964.796,-926.253,2.60218,1.80097e-08,-1.76187e-08,4.90265e-11
0.749975,-0.13,0.0112764,0.01,-84.1758,8.45,908.866,-870.243,-320.734,1.69556e-08,-1.65638e-08,-6.04282e-09,964.917,-926.295,-2.62922,1.80117e-08,-1.76199e-08,-4.9536e-11
0.759975,-0.13,0.0212607,0.01,-76.9408,8.45,889.708,-880.5,-312.513,1.67226e-08,-1.66292e-08,-5.88793e-09,943.259,-934.051,-0.544452,1.77315e-08,-1.76381e-08,-1.02578e-11
0.769975,-0.13,0.031255,0.01,-69.7948,8.45,871.077,-870.697,-302.868,1.64099e-08,-1.64061e-08,-5.7062e-09,922.239,-921.858,-0.154408,1.73739e-08,-1.737e-08,-2.90913e-12
0.779975,-0.13,0.0412521,0.01,-62.7359,8.45,850.907,-850.859,-291.746,1.60314e-08,-1.60309e-08,-5.49667e-09,899.534,-899.486,-0.00467085,1.69475e-08,-1.6947e-08,-8.80015e-14
0.789975,-0.13,0.0512503,0.01,-55.7621,8.45,831.231,-831.193,-281.187,1.56607e-08,-1.56603e-08,-5.29773e-09,877.504,-877.466,-0.000115718,1.65325e-08,-1.65321e-08,-2.18019e-15
0.799975,-0.13,0.0612491,0.01,-48.8714,8.45,812.204,-812.168,-271.128,1.53022e-08,-1.53019e-08,-5.10822e-09,856.263,-856.227,2.55448e-05,1.61323e-08,-1.6132e-08,4.81278e-16
0.809975,-0.13,0.0711101,0.01,-42.0619,8.45,793.801,-793.767,-261.54,1.49555e-08,-1.49552e-08,-4.92756e-09,835.778,-835.744,2.50539e-05,1.57464e-08,-1.5746e-08,4.72029e-16
0.819975,-0.13,0.080734,0.01,-35.3319,8.45,775.999,-775.966,-252.395,1.46201e-08,-1.46198e-08,-4.75526e-09,816.014,-815.981,2.29413e-05,1.5374e-08,-1.53737e-08,4.32228e-16
0.829975,-0.13,0.0904396,0.01,-28.6794,8.45,758.77,-758.739,-243.667,1.42955e-08,-1.42952e-08,-4.59083e-09,796.936,-796.905,2.11911e-05,1.50146e-08,-1.50143e-08,3.99252e-16
0.839975,-0.13,0.100203,0.01,-22.1028,8.45,742.093,-742.063,-235.334,1.39813e-08,-1.3981e-08,-4.43384e-09,778.515,-778.485,1.96102e-05,1.46675e-08,-1.46672e-08,3.69467e-16
0.849975,-0.13,0.110009,0.01,-15.6005,8.45,725.944,-725.915,-227.374,1.36771e-08,-1.36768e-08,-4.28387e-09,760.72,-760.691,1.81628e-05,1.43323e-08,-1.4332e-08,3.42197e-16
0.859975,-0.13,0.119847,0.01,-9.17069,8.45,710.303,-710.275,-219.767,1.33824e-08,-1.33821e-08,-4.14053e-09,743.524,-743.496,1.68349e-05,1.40083e-08,-1.4008e-08,3.1718e-16
0.869975,-0.13,0.12971,0.01,-2.81194,8.45,695.148,-695.121,-212.492,1.30969e-08,-1.30966e-08,-4.00347e-09,726.9,-726.873,1.56158e-05,1.36951e-08,-1.36948e-08,2.9421e-16
0.879975,-0.13,0.139592,0.01,3.47728,8.45,680.46,-680.434,-205.533,1.28202e-08,-1.28199e-08,-3.87235e-09,710.824,-710.798,1.44955e-05,1.33922e-08,-1.3392e-08,2.73105e-16
0.889975,-0.13,0.14949,0.01,9.69846,8.45,666.222,-666.197,-198.872,1.25519e-08,-1.25516e-08,-3.74686e-09,695.271,-695.246,1.34653e-05,1.30992e-08,-1.3099e-08,2.53693e-16
0.899975,-0.13,0.159401,0.01,15.853,8.45,652.415,-652.391,-192.494,1.22918e-08,-1.22915e-08,-3.62669e-09,680.22,-680.196,1.25172e-05,1.28156e-08,-1.28154e-08,2.35832e-16
0.909975,-0.13,0.169322,0.01,21.9423,8.45,639.022,-638.999,-186.383,1.20394e-08,-1.20392e-08,-3.51157e-09,665.649,-665.626,1.16441e-05,1.25411e-08,-1.25409e-08,2.19382e-16
0.919975,-0.13,0.179252,0.01,27.9677,8.45,626.028,-626.006,-180.527,1.17946e-08,-1.17944e-08,-3.40124e-09,651.538,-651.516,1.08387e-05,1.22753e-08,-1.2275e-08,2.04207e-16
0.929975,-0.13,0.18919,0.01,33.9305,8.45,613.418,-613.396,-174.913,1.15571e-08,-1.15568e-08,-3.29546e-09,637.868,-637.847,1.00954e-05,1.20177e-08,-1.20175e-08,1.90203e-16
0.939975,-0.13,0.199133,0.01,39.832,8.45,601.176,-601.156,-169.527,1.13264e-08,-1.13262e-08,-3.19398e-09,624.622,-624.601,9.41006e-06,1.17681e-08,-1.17679e-08,1.77291e-16
0.949975,-0.13,0.209082,0.01,45.6733,8.45,589.289,-589.27,-164.359,1.11025e-08,-1.11023e-08,-3.09661e-09,611.781,-611.761,8.77737e-06,1.15262e-08,-1.1526e-08,1.65371e-16
0.959975,-0.13,0.219036,0.01,51.4557,8.45,577.849,-578.031,-159.4,1.08878e-08,-1.08896e-08,-3.0032e-09,599.428,-599.61,0.051381,1.12944e-08,-1.12962e-08,9.68049e-13
0.969975,-0.13,0.228994,0.01,57.1803,8.45,568.05,-571.656,-155.841,1.07181e-08,-1.07546e-08,-2.93613e-09,588.975,-592.581,-0.288186,1.11123e-08,-1.11489e-08,-5.42959e-12
0.979975,-0.13,0.238853,0.01,62.8483,8.45,559.161,-567.643,-153.804,1.05718e-08,-1.06578e-08,-2.89775e-09,579.775,-588.257,-1.59145,1.09602e-08,-1.10462e-08,-2.99838e-11
-0.980025,-0.12,0.237417,0.01,62.1561,7.2,563.476,-572.178,142.67,1.0654e-08,-1.07423e-08,2.68798e-09,581.123,-589.825,1.45296,1.09865e-08,-1.10748e-08,2.73746e-11
-0.970025,-0.12,0.227503,0.01,56.4737,7.2,572.528,-576.193,144.589,1.08027e-08,-1.08399e-08,2.72414e-09,590.448,-594.113,0.265763,1.11403e-08,-1.11775e-08,5.00713e-12
-0.960025,-0.12,0.217597,0.01,50.7342,7.2,582.489,-582.674,147.903,1.09752e-08,-1.09771e-08,2.78659e-09,600.971,-601.155,-0.0483431,1.13234e-08,-1.13253e-08,-9.10812e-13
-0.950025,-0.12,0.207699,0.01,44.9365,7.2,594.121,-594.101,152.521,1.11935e-08,-1.11933e-08,2.87358e-09,613.386,-613.366,-8.34972e-06,1.15565e-08,-1.15563e-08,-1.57314e-16
-0.940025,-0.12,0.197812,0.01,39.0794,7.2,606.211,-606.19,157.334,1.14213e-08,-1.14211e-08,2.96427e-09,626.296,-626.275,-8.95841e-06,1.17997e-08,-1.17995e-08,-1.68782e-16
-0.930025,-0.12,0.187937,0.01,33.1616,7.2,618.667,-618.645,162.352,1.1656e-08,-1.16557e-08,3.0588e-09,639.615,-639.593,-9.61728e-06,1.20506e-08,-1.20504e-08,-1.81195e-16
-0.920025,-0.12,0.178075,0.01,27.182,7.2,631.503,-631.48,167.584,1.18978e-08,-1.18976e-08,3.15737e-09,653.361,-653.339,-1.03315e-05,1.23096e-08,-1.23094e-08,-1.94651e-16
-0.910025,-0.12,0.168231,0.01,21.1392,7.2,644.735,-644.711,173.041,1.21471e-08,-1.21468e-08,3.26019e-09,667.553,-667.529,-1.11071e-05,1.2577e-08,-1.25767e-08,-2.09263e-16
-0.900025,-0.12,0.158405,0.01,15.032,7.2,658.378,-658.354,178.737,1.24041e-08,-1.24039e-08,3.3675e-09,682.209,-682.184,-1.19492e-05,1.28531e-08,-1.28529e-08,-2.25131e-16
-0.890025,-0.12,0.148494,0.01,8.8589,7.2,672.45,-672.424,184.684,1.26692e-08,-1.2669e-08,3.47954e-09,697.35,-697.325,-1.28644e-05,1.31384e-08,-1.31381e-08,-2.42372e-16
-0.880025,-0.12,0.138521,0.01,2.61856,7.2,686.968,-686.941,190.895,1.29428e-08,-1.29425e-08,3.59658e-09,712.998,-712.971,-1.38596e-05,1.34332e-08,-1.34329e-08,-2.61123e-16
-0.870025,-0.12,0.128553,0.01,-3.69047,7.2,701.95,-701.922,197.387,1.3225e-08,-1.32247e-08,3.71889e-09,729.175,-729.147,-1.49427e-05,1.3738e-08,-1.37377e-08,-2.8153e-16
-0.860025,-0.12,0.11859,0.01,-10.0697,7.2,717.417,-717.388,204.174,1.35164e-08,-1.35161e-08,3.84677e-09,745.905,-745.876,-1.6123e-05,1.40532e-08,-1.40529e-08,-3.03767e-16
-0.850025,-0.12,0.108633,0.01,-16.5207,7.2,733.388,-733.358,211.275,1.38173e-08,-1.3817e-08,3.98053e-09,763.214,-763.184,-1.74102e-05,1.43793e-08,-1.4379e-08,-3.28018e-16
-0.840025,-0.12,0.0986856,0.01,-23.045,7.2,749.885,-749.854,218.705,1.41281e-08,-1.41278e-08,4.12053e-09,781.128,-781.097,-1.88147e-05,1.47168e-08,-1.47165e-08,-3.5448e-16
-0.830025,-0.12,0.0887497,0.01,-29.6443,7.2,766.932,-766.899,226.486,1.44493e-08,-1.4449e-08,4.26713e-09,799.676,-799.643,-2.03462e-05,1.50662e-08,-1.50659e-08,-3.83334e-16
-0.820025,-0.12,0.07883,0.01,-36.3203,7.2,784.551,-784.517,234.637,1.47813e-08,-1.47809e-08,4.42071e-09,818.888,-818.853,-2.19942e-05,1.54282e-08,-1.54278e-08,-4.14384e-16
-0.810025,-0.12,0.0689335,0.01,-43.0748,7.2,802.769,-802.733,243.182,1.51245e-08,-1.51241e-08,4.58169e-09,838.795,-838.759,-2.369e-05,1.58032e-08,-1.58029e-08,-4.46332e-16
-0.800025,-0.12,0.0590719,0.01,-49.9096,7.2,821.611,-821.573,252.143,1.54795e-08,-1.54791e-08,4.75052e-09,859.431,-859.393,-3.12696e-05,1.6192e-08,-1.61916e-08,-5.89137e-16
-0.790025,-0.12,0.0492662,0.01,-56.8265,7.2,841.105,-841.067,261.546,1.58467e-08,-1.58464e-08,4.92767e-09,880.833,-880.794,-0.000292197,1.65952e-08,-1.65948e-08,-5.50516e-15
-0.780025,-0.12,0.0395578,0.01,-63.8275,7.2,861.29,-861.264,271.416,1.62271e-08,-1.62268e-08,5.11363e-09,903.044,-903.017,-0.00773876,1.70138e-08,-1.70135e-08,-1.45803e-13
-0.770025,-0.12,0.0300413,0.01,-70.9147,7.2,881.968,-881.483,281.726,1.66147e-08,-1.66098e-08,5.30788e-09,925.882,-925.398,0.0675867,1.74421e-08,-1.74371e-08,1.27337e-12
-0.760025,-0.12,0.0209795,0.01,-78.0901,7.2,900.491,-893.287,289.835,1.69345e-08,-1.68614e-08,5.46067e-09,946.16,-938.955,-0.594132,1.77949e-08,-1.77218e-08,-1.11938e-11
-0.750025,-0.12,0.0133342,0.01,-85.3563,7.2,920.439,-904.541,294.65,1.72725e-08,-1.71112e-08,5.55137e-09,966.82,-950.922,-4.75837,1.81463e-08,-1.7985e-08,-8.96505e-11
0.749975,-0.12,0.013304,0.01,-85.3927,7.2,920.581,-904.707,-294.71,1.72753e-08,-1.71142e-08,-5.5525e-09,966.974,-951.099,4.76906,1.81493e-08,-1.79883e-08,8.98519e-11
0.759975,-0.12,0.0209366,0.01,-78.126,7.2,900.597,-893.394,-289.893,1.69365e-08,-1.68634e-08,-5.46175e-09,946.278,-939.074,0.591048,1.77971e-08,-1.7724e-08,1.11357e-11
0.769975,-0.12,0.0299947,0.01,-70.9501,7.2,882.074,-881.589,-281.778,1.66167e-08,-1.66117e-08,-5.30886e-09,925.999,-925.514,-0.0669695,1.74442e-08,-1.74393e-08,-1.26174e-12
0.779975,-0.12,0.0395099,0.01,-63.8625,7.2,861.392,-861.366,-271.466,1.6229e-08,-1.62287e-08,-5.11457e-09,903.156,-903.13,0.00786483,1.70159e-08,-1.70156e-08,1.48178e-13
0.789975,-0.12,0.0492176,0.01,-56.8611,7.2,841.204,-841.165,-261.594,1.58486e-08,-1.58482e-08,-4.92858e-09,880.941,-880.902,0.000296883,1.65973e-08,-1.65969e-08,5.59345e-15
0.799975,-0.12,0.059023,0.01,-49.9437,7.2,821.706,-821.669,-252.188,1.54813e-08,-1.54809e-08,-4.75138e-09,859.535,-859.498,3.14031e-05,1.6194e-08,-1.61936e-08,5.91653e-16
0.809975,-0.12,0.0688844,0.01,-43.1086,7.2,802.861,-802.825,-243.225,1.51262e-08,-1.51258e-08,-4.58251e-09,838.895,-838.86,2.36991e-05,1.58051e-08,-1.58048e-08,4.46504e-16
0.819975,-0.12,0.0787807,0.01,-36.3537,7.2,784.64,-784.606,-234.679,1.47829e-08,-1.47826e-08,-4.42149e-09,818.985,-818.95,2.20028e-05,1.543e-08,-1.54296e-08,4.14546e-16
0.829975,-0.12,0.0887003,0.01,-29.6773,7.2,767.018,-766.985,-226.526,1.44509e-08,-1.44506e-08,-4.26787e-09,799.77,-799.737,2.03542e-05,1.5068e-08,-1.50677e-08,3.83485e-16
0.839975,-0.12,0.0986362,0.01,-23.0776,7.2,749.969,-749.937,-218.743,1.41297e-08,-1.41294e-08,-4.12125e-09,781.219,-781.187,1.88221e-05,1.47185e-08,-1.47182e-08,3.54619e-16
0.849975,-0.12,0.108584,0.01,-16.553,7.2,733.469,-733.438,-211.311,1.38188e-08,-1.38185e-08,-3.98121e-09,763.302,-763.271,1.74171e-05,1.43809e-08,-1.43806e-08,3.28149e-16
0.859975,-0.12,0.11854,0.01,-10.1016,7.2,717.495,-717.466,-204.209,1.35179e-08,-1.35176e-08,-3.84742e-09,745.99,-745.961,1.61296e-05,1.40548e-08,-1.40545e-08,3.0389e-16
0.869975,-0.12,0.128503,0.01,-3.72202,7.2,702.026,-701.998,-197.42,1.32265e-08,-1.32262e-08,-3.71951e-09,729.257,-729.229,1.49486e-05,1.37395e-08,-1.37392e-08,2.81639e-16
0.879975,-0.12,0.138472,0.01,2.58736,7.2,687.041,-687.014,-190.927,1.29441e-08,-1.29439e-08,-3.59717e-09,713.077,-713.05,1.38646e-05,1.34347e-08,-1.34344e-08,2.61217e-16
0.889975,-0.12,0.148445,0.01,8.82804,7.2,672.521,-672.495,-184.714,1.26706e-08,-1.26703e-08,-3.48011e-09,697.427,-697.401,1.2869e-05,1.31398e-08,-1.31396e-08,2.4246e-16
0.899975,-0.12,0.158356,0.01,15.0015,7.2,658.447,-658.422,-178.766,1.24054e-08,-1.24052e-08,-3.36805e-09,682.283,-682.259,1.19538e-05,1.28545e-08,-1.28543e-08,2.25217e-16
0.909975,-0.12,0.168182,0.01,21.109,7.2,644.802,-644.778,-173.069,1.21483e-08,-1.21481e-08,-3.26072e-09,667.625,-667.601,1.11116e-05,1.25783e-08,-1.25781e-08,2.09349e-16
0.919975,-0.12,0.178026,0.01,27.1521,7.2,631.568,-631.545,-167.61,1.1899e-08,-1.18988e-08,-3.15787e-09,653.431,-653.408,1.03355e-05,1.23109e-08,-1.23107e-08,1.94728e-16
0.929975,-0.12,0.187888,0.01,33.1321,7.2,618.73,-618.708,-162.377,1.16571e-08,-1.16569e-08,-3.05928e-09,639.682,-639.661,9.62043e-06,1.20519e-08,-1.20517e-08,1.81254e-16
0.939975,-0.12,0.197763,0.01,39.0501,7.2,606.272,-606.251,-157.359,1.14224e-08,-1.14222e-08,-2.96473e-09,626.361,-626.34,8.96142e-06,1.18009e-08,-1.18007e-08,1.68838e-16
0.949975,-0.12,0.20765,0.01,44.9076,7.2,594.18,-594.16,-152.544,1.11946e-08,-1.11944e-08,-2.87402e-09,613.449,-613.429,8.35307e-06,1.15577e-08,-1.15575e-08,1.57377e-16
0.959975,-0.12,0.217547,0.01,50.7056,7.2,582.547,-582.731,-147.926,1.09763e-08,-1.09782e-08,-2.78701e-09,601.032,-601.216,0.0483525,1.13246e-08,-1.13265e-08,9.10989e-13
0.969975,-0.12,0.227454,0.01,56.4453,7.2,572.584,-576.249,-144.611,1.08038e-08,-1.08409e-08,-2.72455e-09,590.508,-594.173,-0.265817,1.11414e-08,-1.11786e-08,-5.00815e-12
0.979975,-0.12,0.237368,0.01,62.128,7.2,563.531,-572.234,-142.691,1.06551e-08,-1.07434e-08,-2.68839e-09,581.182,-589.885,-1.45325,1.09876e-08,-1.10759e-08,-2.73801e-11
-0.980025,-0.11,0.236346,0.01,61.4918,6.05,566.525,-581.76,130.029,1.07399e-08,-1.08945e-08,2.44982e-09,581.065,-596.3,-0.488605,1.10138e-08,-1.11684e-08,-9.2056e-12
-0.970025,-0.11,0.226385,0.01,55.7959,6.05,576.653,-581.035,132.778,1.08835e-08,-1.0928e-08,2.50161e-09,591.686,-596.068,-0.207704,1.11668e-08,-1.12112e-08,-3.91326e-12
-0.960025,-0.11,0.216428,0.01,50.0424,6.05,586.847,-587.034,136.247,1.10574e-08,-1.10593e-08,2.56697e-09,602.454,-602.64,-0.045106,1.13514e-08,-1.13533e-08,-8.49824e-13
-0.950025,-0.11,0.206474,0.01,44.2303,6.05,598.659,-598.638,140.515,1.1279e-08,-1.12788e-08,2.64738e-09,614.929,-614.908,-7.8718e-06,1.15855e-08,-1.15853e-08,-1.48309e-16
-0.940025,-0.11,0.196525,0.01,38.3582,6.05,610.941,-610.919,144.965,1.15104e-08,-1.15102e-08,2.73122e-09,627.904,-627.883,-8.45047e-06,1.183e-08,-1.18298e-08,-1.59212e-16
-0.930025,-0.11,0.186582,0.01,32.4251,6.05,623.598,-623.576,149.604,1.17489e-08,-1.17486e-08,2.81863e-09,641.293,-641.27,-9.07738e-06,1.20822e-08,-1.2082e-08,-1.71023e-16
-0.920025,-0.11,0.176645,0.01,26.4297,6.05,636.647,-636.623,154.442,1.19947e-08,-1.19945e-08,2.90978e-09,655.112,-655.089,-9.75792e-06,1.23426e-08,-1.23424e-08,-1.83845e-16
-0.910025,-0.11,0.166716,0.01,20.3705,6.05,650.102,-650.078,159.491,1.22482e-08,-1.22479e-08,3.00489e-09,669.38,-669.356,-1.04976e-05,1.26114e-08,-1.26112e-08,-1.97782e-16
-0.900025,-0.11,0.156796,0.01,14.2464,6.05,663.981,-663.956,164.76,1.25097e-08,-1.25094e-08,3.10417e-09,684.118,-684.093,-1.13014e-05,1.28891e-08,-1.28888e-08,-2.12924e-16
-0.890025,-0.11,0.146886,0.01,8.05582,6.05,678.302,-678.275,170.263,1.27795e-08,-1.27792e-08,3.20785e-09,699.345,-699.319,-1.21752e-05,1.31759e-08,-1.31757e-08,-2.29388e-16
-0.880025,-0.11,0.13699,0.01,1.79743,6.05,693.082,-693.055,176.012,1.3058e-08,-1.30577e-08,3.31617e-09,715.083,-715.056,-1.31268e-05,1.34725e-08,-1.34722e-08,-2.47317e-16
-0.870025,-0.11,0.127109,0.01,-4.53026,6.05,708.343,-708.314,182.022,1.33455e-08,-1.33452e-08,3.4294e-09,731.356,-731.328,-1.41638e-05,1.37791e-08,-1.37788e-08,-2.66854e-16
-0.860025,-0.11,0.11725,0.01,-10.9288,6.05,724.103,-724.073,188.307,1.36424e-08,-1.36421e-08,3.54781e-09,748.188,-748.158,-1.52942e-05,1.40962e-08,-1.40959e-08,-2.88151e-16
-0.850025,-0.11,0.107416,0.01,-17.3997,6.05,740.385,-740.353,194.883,1.39491e-08,-1.39488e-08,3.67171e-09,765.604,-765.573,-1.65284e-05,1.44243e-08,-1.4424e-08,-3.11404e-16
-0.840025,-0.11,0.0976156,0.01,-23.9447,6.05,757.211,-757.178,201.767,1.42661e-08,-1.42658e-08,3.8014e-09,783.632,-783.599,-1.78775e-05,1.47639e-08,-1.47636e-08,-3.36822e-16
-0.830025,-0.11,0.0878605,0.01,-30.5654,6.05,774.605,-774.571,208.977,1.45939e-08,-1.45935e-08,3.93724e-09,802.3,-802.266,-1.93548e-05,1.51157e-08,-1.51153e-08,-3.64656e-16
-0.820025,-0.11,0.0781191,0.01,-37.2636,6.05,792.593,-792.558,216.532,1.49328e-08,-1.49324e-08,4.07959e-09,821.639,-821.604,-2.09926e-05,1.548e-08,-1.54796e-08,-3.95512e-16
-0.810025,-0.11,0.0681194,0.01,-44.0411,6.05,811.202,-811.165,224.454,1.52834e-08,-1.5283e-08,4.22884e-09,841.682,-841.645,-2.26699e-05,1.58576e-08,-1.58572e-08,-4.27115e-16
-0.800025,-0.11,0.0581198,0.01,-50.8996,6.05,830.459,-830.42,232.764,1.56462e-08,-1.56458e-08,4.38541e-09,862.463,-862.424,-1.21859e-05,1.62491e-08,-1.62487e-08,-2.29589e-16
-0.790025,-0.11,0.0481204,0.01,-57.8412,6.05,850.393,-850.351,241.487,1.60217e-08,-1.60213e-08,4.54976e-09,884.017,-883.975,0.000417261,1.66552e-08,-1.66548e-08,7.86144e-15
-0.780025,-0.11,0.0381213,0.01,-64.8679,6.05,871.023,-870.959,250.653,1.64103e-08,-1.64096e-08,4.72245e-09,906.372,-906.308,0.0117069,1.70763e-08,-1.70756e-08,2.20565e-13
-0.770025,-0.11,0.0281229,0.01,-71.9816,6.05,892.198,-891.9,260.387,1.68082e-08,-1.68052e-08,4.90585e-09,929.424,-929.126,0.206713,1.75096e-08,-1.75066e-08,3.89459e-12
-0.760025,-0.11,0.0181262,0.01,-79.1846,6.05,911.546,-904.342,267.557,1.71427e-08,-1.70697e-08,5.04092e-09,950.147,-942.944,-0.847478,1.787e-08,-1.77969e-08,-1.5967e-11
-0.750025,-0.11,0.00813755,0.01,-86.4783,6.05,925.871,-906.86,272.116,1.73613e-08,-1.71684e-08,5.12683e-09,965.417,-946.407,-2.4753,1.81064e-08,-1.79135e-08,-4.66362e-11
0.749975,-0.11,0.00808795,0.01,-86.5148,6.05,925.933,-906.89,-272.168,1.73623e-08,-1.71691e-08,-5.12781e-09,965.492,-946.449,2.45674,1.81076e-08,-1.79144e-08,4.62864e-11
0.759975,-0.11,0.0180765,0.01,-79.2207,6.05,911.659,-904.462,-267.608,1.71449e-08,-1.70719e-08,-5.04188e-09,950.27,-943.073,0.849229,1.78723e-08,-1.77993e-08,1.6e-11
0.769975,-0.11,0.0280732,0.01,-72.0172,6.05,892.306,-892.011,-260.439,1.68103e-08,-1.68073e-08,-4.90682e-09,929.542,-929.247,-0.208488,1.75118e-08,-1.75088e-08,-3.92803e-12
0.779975,-0.11,0.0380716,0.01,-64.903,6.05,871.128,-871.063,-250.7,1.64123e-08,-1.64116e-08,-4.72333e-09,906.485,-906.421,-0.0118929,1.70784e-08,-1.70778e-08,-2.24069e-13
0.789975,-0.11,0.0480707,0.01,-57.876,6.05,850.494,-850.452,-241.532,1.60236e-08,-1.60232e-08,-4.55059e-09,884.126,-884.084,-0.000424795,1.66573e-08,-1.66568e-08,-8.00339e-15
0.799975,-0.11,0.0580701,0.01,-50.9339,6.05,830.556,-830.517,-232.806,1.5648e-08,-1.56476e-08,-4.38621e-09,862.568,-862.529,1.19545e-05,1.62511e-08,-1.62507e-08,2.25229e-16
0.809975,-0.11,0.0680697,0.01,-44.075,6.05,811.296,-811.259,-224.494,1.52851e-08,-1.52847e-08,-4.2296e-09,841.784,-841.746,2.2675e-05,1.58595e-08,-1.58592e-08,4.27211e-16
0.819975,-0.11,0.0780693,0.01,-37.2971,6.05,792.684,-792.649,-216.571,1.49345e-08,-1.49341e-08,-4.08031e-09,821.737,-821.702,2.10012e-05,1.54819e-08,-1.54815e-08,3.95675e-16
0.829975,-0.11,0.0878121,0.01,-30.5986,6.05,774.693,-774.659,-209.013,1.45955e-08,-1.45952e-08,-3.93793e-09,802.395,-802.36,1.93623e-05,1.51174e-08,-1.51171e-08,3.64796e-16
0.839975,-0.11,0.0975669,0.01,-23.9775,6.05,757.296,-757.263,-201.802,1.42678e-08,-1.42674e-08,-3.80206e-09,783.723,-783.69,1.78844e-05,1.47657e-08,-1.47653e-08,3.36952e-16
0.849975,-0.11,0.107367,0.01,-17.4321,6.05,740.467,-740.436,-194.916,1.39507e-08,-1.39504e-08,-3.67234e-09,765.692,-765.661,1.65351e-05,1.44259e-08,-1.44256e-08,3.11531e-16
0.859975,-0.11,0.117201,0.01,-10.9608,6.05,724.182,-724.152,-188.339,1.36439e-08,-1.36436e-08,-3.54841e-09,748.273,-748.243,1.53004e-05,1.40978e-08,-1.40975e-08,2.88269e-16
0.869975,-0.11,0.12706,0.01,-4.56191,6.05,708.42,-708.391,-182.053,1.33469e-08,-1.33466e-08,-3.42998e-09,731.439,-731.41,1.4169e-05,1.37806e-08,-1.37803e-08,2.66952e-16
0.879975,-0.11,0.13694,0.01,1.76614,6.05,693.157,-693.13,-176.042,1.30594e-08,-1.30591e-08,-3.31672e-09,715.163,-715.135,1.31314e-05,1.3474e-08,-1.34737e-08,2.47403e-16
0.889975,-0.11,0.146837,0.01,8.02486,6.05,678.374,-678.348,-170.291,1.27808e-08,-1.27806e-08,-3.20838e-09,699.422,-699.396,1.21795e-05,1.31774e-08,-1.31771e-08,2.29468e-16
0.899975,-0.11,0.156746,0.01,14.2158,6.05,664.051,-664.026,-164.787,1.2511e-08,-1.25107e-08,-3.10468e-09,684.192,-684.167,1.13051e-05,1.28905e-08,-1.28902e-08,2.12994e-16
0.909975,-0.11,0.166667,0.01,20.3402,6.05,650.17,-650.146,-159.516,1.22495e-08,-1.22492e-08,-3.00538e-09,669.453,-669.428,1.05012e-05,1.26128e-08,-1.26125e-08,1.97849e-16
0.919975,-0.11,0.176596,0.01,26.3997,6.05,636.712,-636.689,-154.467,1.19959e-08,-1.19957e-08,-2.91025e-09,655.182,-655.158,9.76177e-06,1.23439e-08,-1.23437e-08,1.83917e-16
0.929975,-0.11,0.186533,0.01,32.3955,6.05,623.662,-623.64,-149.628,1.17501e-08,-1.17498e-08,-2.81907e-09,641.36,-641.338,9.08107e-06,1.20835e-08,-1.20833e-08,1.71093e-16
0.939975,-0.11,0.196476,0.01,38.3289,6.05,611.003,-610.981,-144.987,1.15116e-08,-1.15113e-08,-2.73165e-09,627.97,-627.948,8.45372e-06,1.18312e-08,-1.1831e-08,1.59273e-16
0.949975,-0.11,0.206425,0.01,44.2012,6.05,598.719,-598.699,-140.536,1.12801e-08,-1.12799e-08,-2.64779e-09,614.992,-614.972,7.87476e-06,1.15867e-08,-1.15865e-08,1.48365e-16
0.959975,-0.11,0.216378,0.01,50.0137,6.05,586.906,-587.093,-136.268,1.10585e-08,-1.10604e-08,-2.56736e-09,602.515,-602.702,0.0451149,1.13525e-08,-1.13544e-08,8.49991e-13
0.969975,-0.11,0.226336,0.01,55.7674,6.05,576.709,-581.092,-132.798,1.08846e-08,-1.09291e-08,-2.50199e-09,591.746,-596.129,0.207734,1.11679e-08,-1.12124e-08,3.91382e-12
0.979975,-0.11,0.236297,0.01,61.4636,6.05,566.58,-581.817,-130.049,1.07409e-08,-1.08955e-08,-2.45019e-09,581.123,-596.36,0.488664,1.10149e-08,-1.11695e-08,9.20671e-12
-0.980025,-0.1,0.235294,0.01,60.884,5,570.425,-579.445,118.738,1.07864e-08,-1.08779e-08,2.23709e-09,582.558,-591.578,0.169018,1.10149e-08,-1.11065e-08,3.18439e-12
-0.970025,-0.1,0.22538,0.01,55.1755,5,580.274,-583.507,121.597,1.09468e-08,-1.09796e-08,2.29096e-09,592.843,-596.076,0.32722,1.11836e-08,-1.12164e-08,6.16501e-12
-0.960025,-0.1,0.215475,0.01,49.4092,5,590.857,-591.043,124.422,1.11329e-08,-1.11348e-08,2.34417e-09,603.813,-603.999,-0.03935,1.1377e-08,-1.13789e-08,-7.41377e-13
-0.950025,-0.1,0.205578,0.01,43.5839,5,602.836,-602.815,128.329,1.13577e-08,-1.13575e-08,2.4178e-09,616.344,-616.323,-7.34183e-06,1.16122e-08,-1.1612e-08,-1.38324e-16
-0.940025,-0.1,0.195692,0.01,37.6982,5,615.295,-615.273,132.406,1.15924e-08,-1.15922e-08,2.49461e-09,629.38,-629.358,-7.88557e-06,1.18578e-08,-1.18576e-08,-1.48569e-16
-0.930025,-0.1,0.185757,0.01,31.751,5,628.138,-628.115,136.657,1.18344e-08,-1.18342e-08,2.5747e-09,642.832,-642.809,-8.47551e-06,1.21112e-08,-1.2111e-08,-1.59684e-16
-0.920025,-0.1,0.175773,0.01,25.741,5,641.383,-641.359,141.092,1.20839e-08,-1.20837e-08,2.65825e-09,656.719,-656.695,-9.11639e-06,1.23729e-08,-1.23726e-08,-1.71758e-16
-0.910025,-0.1,0.165792,0.01,19.6668,5,655.045,-655.02,145.719,1.23413e-08,-1.23411e-08,2.74543e-09,671.058,-671.033,-9.81307e-06,1.2643e-08,-1.26428e-08,-1.84884e-16
-0.900025,-0.1,0.155812,0.01,13.5271,5,669.143,-669.117,150.55,1.26069e-08,-1.26067e-08,2.83645e-09,685.87,-685.844,-1.05708e-05,1.29221e-08,-1.29218e-08,-1.9916e-16
-0.890025,-0.1,0.145836,0.01,7.32056,5,683.694,-683.667,155.596,1.28811e-08,-1.28808e-08,2.93152e-09,701.176,-701.149,-1.13958e-05,1.32104e-08,-1.32102e-08,-2.14704e-16
-0.880025,-0.1,0.135863,0.01,1.04561,5,698.718,-698.69,160.869,1.31641e-08,-1.31638e-08,3.03087e-09,716.998,-716.97,-1.2295e-05,1.35085e-08,-1.35082e-08,-2.31645e-16
-0.870025,-0.1,0.125895,0.01,-5.29922,5,714.235,-714.206,166.382,1.34565e-08,-1.34562e-08,3.13473e-09,733.359,-733.33,-1.32754e-05,1.38168e-08,-1.38165e-08,-2.50117e-16
-0.860025,-0.1,0.115932,0.01,-11.7155,5,730.267,-730.237,172.149,1.37585e-08,-1.37582e-08,3.24338e-09,750.284,-750.253,-1.4345e-05,1.41357e-08,-1.41353e-08,-2.70269e-16
-0.850025,-0.1,0.105975,0.01,-18.2048,5,746.837,-746.805,178.183,1.40707e-08,-1.40704e-08,3.35708e-09,767.799,-767.767,-1.5514e-05,1.44656e-08,-1.44653e-08,-2.92293e-16
-0.840025,-0.1,0.0960283,0.01,-24.7687,5,763.968,-763.934,184.502,1.43935e-08,-1.43931e-08,3.47613e-09,785.932,-785.898,-1.67928e-05,1.48073e-08,-1.48069e-08,-3.16387e-16
-0.830025,-0.1,0.0860936,0.01,-31.4091,5,781.685,-781.65,191.122,1.47272e-08,-1.47269e-08,3.60085e-09,804.711,-804.676,-1.81903e-05,1.51611e-08,-1.51607e-08,-3.42716e-16
-0.820025,-0.1,0.0761759,0.01,-38.1276,5,800.015,-799.979,198.061,1.50726e-08,-1.50722e-08,3.73158e-09,824.168,-824.132,-1.97143e-05,1.55276e-08,-1.55273e-08,-3.71428e-16
-0.810025,-0.1,0.0662829,0.01,-44.9262,5,818.987,-818.948,205.337,1.543e-08,-1.54296e-08,3.86868e-09,844.336,-844.298,-2.19079e-05,1.59076e-08,-1.59072e-08,-4.12758e-16
-0.800025,-0.1,0.0564277,0.01,-51.8066,5,838.629,-838.589,212.973,1.58001e-08,-1.57997e-08,4.01254e-09,865.25,-865.209,-4.63224e-05,1.63016e-08,-1.63012e-08,-8.7274e-16
-0.790025,-0.1,0.0466341,0.01,-58.771,5,858.974,-858.933,220.99,1.61834e-08,-1.6183e-08,4.16357e-09,886.946,-886.905,-0.00071256,1.67104e-08,-1.671e-08,-1.3425e-14
-0.780025,-0.1,0.0369513,0.01,-65.8212,5,880.077,-880.069,229.405,1.65811e-08,-1.6581e-08,4.32212e-09,909.485,-909.477,-0.0176247,1.71352e-08,-1.71351e-08,-3.3206e-13
-0.770025,-0.1,0.0274966,0.01,-72.9594,5,901.702,-901.241,238.235,1.69866e-08,-1.69819e-08,4.48849e-09,932.65,-932.189,0.0749685,1.75697e-08,-1.7565e-08,1.41245e-12
-0.760025,-0.1,0.0186204,0.01,-80.1879,5,920.362,-913.833,246.014,1.73118e-08,-1.72455e-08,4.63505e-09,952.786,-946.256,0.414635,1.79226e-08,-1.78564e-08,7.81196e-12
-0.750025,-0.1,0.011721,0.01,-87.51,5,945.408,-930.506,249.12,1.77472e-08,-1.75961e-08,4.69356e-09,977.913,-963.011,-5.32784,1.83597e-08,-1.82085e-08,-1.0038e-10
0.749975,-0.1,0.0116978,0.01,-87.5467,5,945.712,-930.701,-249.103,1.77525e-08,-1.76002e-08,-4.69324e-09,978.203,-963.193,5.42624,1.83647e-08,-1.82124e-08,1.02233e-10
0.759975,-0.1,0.0185792,0.01,-80.2241,5,920.5,-913.935,-246.036,1.73142e-08,-1.72476e-08,-4.63547e-09,952.926,-946.36,-0.388793,1.79251e-08,-1.78585e-08,-7.32508e-12
0.769975,-0.1,0.0274505,0.01,-72.9951,5,901.817,-901.35,-238.274,1.69887e-08,-1.6984e-08,-4.48922e-09,932.771,-932.304,-0.0685341,1.75719e-08,-1.75672e-08,-1.29122e-12
0.779975,-0.1,0.0369036,0.01,-65.8565,5,880.184,-880.177,-229.448,1.65832e-08,-1.65831e-08,-4.32293e-09,909.599,-909.592,0.0179093,1.71373e-08,-1.71373e-08,3.37422e-13
0.789975,-0.1,0.0465856,0.01,-58.8058,5,859.077,-859.036,-221.031,1.61853e-08,-1.61849e-08,-4.16434e-09,887.056,-887.015,0.000723925,1.67125e-08,-1.67121e-08,1.36392e-14
0.799975,-0.1,0.0563788,0.01,-51.8411,5,838.728,-838.688,-213.012,1.5802e-08,-1.58015e-08,-4.01327e-09,865.356,-865.315,4.674e-05,1.63036e-08,-1.63032e-08,8.80608e-16
0.809975,-0.1,0.0662338,0.01,-44.9602,5,819.083,-819.044,-205.374,1.54318e-08,-1.54314e-08,-3.86937e-09,844.438,-844.4,2.19281e-05,1.59095e-08,-1.59091e-08,4.13138e-16
0.819975,-0.1,0.0761266,0.01,-38.1613,5,800.108,-800.071,-198.096,1.50743e-08,-1.5074e-08,-3.73224e-09,824.267,-824.23,1.97221e-05,1.55295e-08,-1.55291e-08,3.71575e-16
0.829975,-0.1,0.0860442,0.01,-31.4423,5,781.775,-781.739,-191.156,1.47289e-08,-1.47286e-08,-3.60149e-09,804.806,-804.771,1.8197e-05,1.51629e-08,-1.51625e-08,3.42842e-16
0.839975,-0.1,0.0959789,0.01,-24.8016,5,764.054,-764.021,-184.535,1.43951e-08,-1.43947e-08,-3.47674e-09,786.024,-785.99,1.67994e-05,1.4809e-08,-1.48087e-08,3.1651e-16
0.849975,-0.1,0.105926,0.01,-18.2372,5,746.921,-746.889,-178.214,1.40723e-08,-1.4072e-08,-3.35766e-09,767.888,-767.856,1.55203e-05,1.44673e-08,-1.4467e-08,2.92412e-16
0.859975,-0.1,0.115882,0.01,-11.7476,5,730.349,-730.318,-172.178,1.37601e-08,-1.37597e-08,-3.24393e-09,750.37,-750.339,1.43507e-05,1.41373e-08,-1.4137e-08,2.70375e-16
0.869975,-0.1,0.125845,0.01,-5.33095,5,714.314,-714.284,-166.41,1.3458e-08,-1.34577e-08,-3.13526e-09,733.442,-733.412,1.32801e-05,1.38183e-08,-1.3818e-08,2.50204e-16
0.879975,-0.1,0.135814,0.01,1.01423,5,698.794,-698.766,-160.896,1.31656e-08,-1.31653e-08,-3.03137e-09,717.078,-717.05,1.22994e-05,1.351e-08,-1.35098e-08,2.31728e-16
0.889975,-0.1,0.145786,0.01,7.28953,5,683.767,-683.74,-155.622,1.28825e-08,-1.28822e-08,-2.932e-09,701.254,-701.226,1.14001e-05,1.32119e-08,-1.32116e-08,2.14785e-16
0.899975,-0.1,0.155763,0.01,13.4964,5,669.214,-669.188,-150.574,1.26083e-08,-1.2608e-08,-2.83691e-09,685.945,-685.919,1.05747e-05,1.29235e-08,-1.29232e-08,1.99233e-16
0.909975,-0.1,0.165742,0.01,19.6364,5,655.114,-655.089,-145.742,1.23426e-08,-1.23424e-08,-2.74587e-09,671.13,-671.105,9.81658e-06,1.26444e-08,-1.26441e-08,1.8495e-16
0.919975,-0.1,0.175723,0.01,25.7109,5,641.45,-641.426,-141.114,1.20852e-08,-1.20849e-08,-2.65867e-09,656.789,-656.765,9.11986e-06,1.23742e-08,-1.23739e-08,1.71823e-16
0.929975,-0.1,0.185707,0.01,31.7213,5,628.203,-628.18,-136.679,1.18356e-08,-1.18354e-08,-2.57511e-09,642.9,-642.877,8.47884e-06,1.21125e-08,-1.21123e-08,1.59746e-16
0.939975,-0.1,0.195643,0.01,37.6688,5,615.358,-615.335,-132.427,1.15936e-08,-1.15934e-08,-2.495e-09,629.446,-629.424,7.88857e-06,1.1859e-08,-1.18588e-08,1.48625e-16
0.949975,-0.1,0.205529,0.01,43.5547,5,602.897,-602.876,-128.349,1.13588e-08,-1.13586e-08,-2.41817e-09,616.408,-616.387,7.34444e-06,1.16134e-08,-1.16132e-08,1.38374e-16
0.959975,-0.1,0.215425,0.01,49.3804,5,590.916,-591.102,-124.441,1.1134e-08,-1.11359e-08,-2.34453e-09,603.875,-604.061,0.039358,1.13782e-08,-1.138e-08,7.41528e-13
0.969975,-0.1,0.225331,0.01,55.147,5,580.332,-583.565,-121.616,1.09478e-08,-1.09806e-08,-2.29131e-09,592.904,-596.137,-0.327261,1.11847e-08,-1.12175e-08,-6.16579e-12
0.979975,-0.1,0.235244,0.01,60.8557,5,570.481,-579.502,-118.756,1.07874e-08,-1.08789e-08,-2.23743e-09,582.617,-591.638,-0.169078,1.10161e-08,-1.11076e-08,-3.18553e-12
-0.990025,-0.09,0.244183,0.01,65.9954,4.05,569.682,-568.225,100.021,1.07268e-08,-1.0712e-08,1.88446e-09,578.391,-576.935,-4.21379,1.08909e-08,-1.08761e-08,-7.93902e-11
-0.980025,-0.09,0.234219,0.01,60.3328,4.05,573.858,-575.491,105.102,1.08189e-08,-1.08355e-08,1.98019e-09,583.389,-585.022,-1.32283,1.09985e-08,-1.10151e-08,-2.49229e-11
-0.970025,-0.09,0.224258,0.01,54.6131,4.05,582.814,-583.48,109.356,1.09834e-08,-1.09902e-08,2.06033e-09,592.979,-593.645,0.202606,1.1175e-08,-1.11817e-08,3.81722e-12
-0.960025,-0.09,0.214301,0.01,48.8351,4.05,594.404,-594.39,112.438,1.11989e-08,-1.11987e-08,2.11839e-09,604.945,-604.931,0.0030256,1.13975e-08,-1.13973e-08,5.70041e-14
-0.950025,-0.09,0.204348,0.01,42.9977,4.05,606.643,-606.622,115.979,1.14294e-08,-1.14292e-08,2.18511e-09,617.63,-617.609,-6.7621e-06,1.16364e-08,-1.16362e-08,-1.27402e-16
-0.940025,-0.09,0.194399,0.01,37.0996,4.05,619.263,-619.241,119.674,1.16672e-08,-1.1667e-08,2.25473e-09,630.721,-630.699,-7.26666e-06,1.18831e-08,-1.18828e-08,-1.36908e-16
-0.930025,-0.09,0.184456,0.01,31.1396,4.05,632.277,-632.254,123.528,1.19124e-08,-1.19121e-08,2.32733e-09,644.231,-644.208,-7.81468e-06,1.21376e-08,-1.21374e-08,-1.47233e-16
-0.920025,-0.09,0.17452,0.01,25.1164,4.05,645.702,-645.677,127.548,1.21653e-08,-1.2165e-08,2.40307e-09,658.179,-658.154,-8.40993e-06,1.24004e-08,-1.24001e-08,-1.58448e-16
-0.910025,-0.09,0.164592,0.01,19.0286,4.05,659.554,-659.528,131.744,1.24263e-08,-1.2426e-08,2.48213e-09,672.583,-672.557,-9.0572e-06,1.26717e-08,-1.26715e-08,-1.70643e-16
-0.900025,-0.09,0.154672,0.01,12.8748,4.05,673.851,-673.824,136.125,1.26956e-08,-1.26954e-08,2.56467e-09,687.463,-687.437,-9.76217e-06,1.29521e-08,-1.29518e-08,-1.83925e-16
-0.890025,-0.09,0.144764,0.01,6.65367,4.05,688.613,-688.586,140.702,1.29738e-08,-1.29735e-08,2.65091e-09,702.841,-702.813,-1.05305e-05,1.32418e-08,-1.32415e-08,-1.98401e-16
-0.880025,-0.09,0.134869,0.01,0.363646,4.05,703.86,-703.831,145.486,1.3261e-08,-1.32607e-08,2.74104e-09,718.739,-718.71,-1.13681e-05,1.35413e-08,-1.3541e-08,-2.14183e-16
-0.870025,-0.09,0.124991,0.01,-5.99676,4.05,719.614,-719.583,150.489,1.35578e-08,-1.35575e-08,2.83529e-09,735.181,-735.15,-1.2282e-05,1.38511e-08,-1.38508e-08,-2.31399e-16
-0.860025,-0.09,0.115134,0.01,-12.4291,4.05,735.895,-735.863,155.722,1.38646e-08,-1.38642e-08,2.93389e-09,752.191,-752.159,-1.32805e-05,1.41716e-08,-1.41713e-08,-2.50212e-16
-0.850025,-0.09,0.105304,0.01,-18.9351,4.05,752.728,-752.695,161.2,1.41817e-08,-1.41814e-08,3.03711e-09,769.796,-769.763,-1.43726e-05,1.45033e-08,-1.45029e-08,-2.70787e-16
-0.840025,-0.09,0.0954677,0.01,-25.5163,4.05,770.139,-770.104,166.937,1.45097e-08,-1.45094e-08,3.1452e-09,788.024,-787.99,-1.55681e-05,1.48467e-08,-1.48463e-08,-2.93311e-16
-0.830025,-0.09,0.0854678,0.01,-32.1746,4.05,788.152,-788.116,172.949,1.48491e-08,-1.48487e-08,3.25846e-09,806.905,-806.869,-1.68788e-05,1.52024e-08,-1.5202e-08,-3.18007e-16
-0.820025,-0.09,0.0754679,0.01,-38.9117,4.05,806.797,-806.759,179.251,1.52003e-08,-1.52e-08,3.3772e-09,826.47,-826.432,-1.82947e-05,1.5571e-08,-1.55706e-08,-3.44683e-16
-0.810025,-0.09,0.065468,0.01,-45.7294,4.05,826.101,-826.061,185.862,1.55641e-08,-1.55636e-08,3.50176e-09,846.752,-846.712,-1.87271e-05,1.59531e-08,-1.59527e-08,-3.52828e-16
-0.800025,-0.09,0.0554682,0.01,-52.6298,4.05,846.097,-846.055,192.801,1.59408e-08,-1.59404e-08,3.63249e-09,867.787,-867.745,1.54745e-05,1.63494e-08,-1.6349e-08,2.91549e-16
-0.790025,-0.09,0.0454685,0.01,-59.6148,4.05,866.816,-866.77,200.089,1.63311e-08,-1.63307e-08,3.76979e-09,889.61,-889.564,0.000961326,1.67606e-08,-1.67601e-08,1.81119e-14
-0.780025,-0.09,0.0354689,0.01,-66.6865,4.05,888.255,-888.143,207.744,1.67347e-08,-1.67336e-08,3.91402e-09,912.226,-912.114,0.0161273,1.71864e-08,-1.71852e-08,3.03847e-13
-0.770025,-0.09,0.0254697,0.01,-73.847,4.05,909.548,-907.002,214.291,1.71253e-08,-1.70995e-08,4.03737e-09,934.484,-931.938,-0.940674,1.75952e-08,-1.75693e-08,-1.77228e-11
-0.760025,-0.09,0.0154714,0.01,-81.0985,4.05,927.579,-918.515,221.751,1.74367e-08,-1.73448e-08,4.17791e-09,953.841,-944.778,0.0314384,1.79315e-08,-1.78396e-08,5.92317e-13
-0.750025,-0.09,0.00547937,0.01,-88.4417,4.05,938.24,-921.128,224.504,1.76026e-08,-1.7429e-08,4.22978e-09,964.962,-947.849,-1.81974,1.8106e-08,-1.79324e-08,-3.42849e-11
0.749975,-0.09,0.00542975,0.01,-88.4785,4.05,938.394,-920.972,-224.362,1.76041e-08,-1.74274e-08,-4.22711e-09,965.082,-947.66,1.97212,1.81069e-08,-1.79302e-08,3.71559e-11
0.759975,-0.09,0.0154217,0.01,-81.1348,4.05,927.691,-918.556,-221.749,1.74385e-08,-1.73458e-08,-4.17788e-09,953.951,-944.817,0.00271786,1.79333e-08,-1.78406e-08,5.12061e-14
0.769975,-0.09,0.0254199,0.01,-73.8828,4.05,909.654,-907.095,-214.322,1.71273e-08,-1.71013e-08,-4.03794e-09,934.595,-932.036,0.947955,1.75972e-08,-1.75712e-08,1.786e-11
0.779975,-0.09,0.0354192,0.01,-66.7219,4.05,888.363,-888.25,-207.784,1.67368e-08,-1.67356e-08,-3.91476e-09,912.341,-912.228,-0.0164599,1.71885e-08,-1.71874e-08,-3.10113e-13
0.789975,-0.09,0.0454188,0.01,-59.6498,4.05,866.921,-866.875,-200.126,1.63331e-08,-1.63326e-08,-3.77049e-09,889.721,-889.675,-0.000977222,1.67627e-08,-1.67622e-08,-1.84114e-14
0.799975,-0.09,0.0554185,0.01,-52.6643,4.05,846.198,-846.157,-192.837,1.59427e-08,-1.59423e-08,-3.63315e-09,867.893,-867.851,-1.60875e-05,1.63514e-08,-1.6351e-08,-3.03099e-16
0.809975,-0.09,0.0654183,0.01,-45.7636,4.05,826.199,-826.159,-185.896,1.55659e-08,-1.55655e-08,-3.50239e-09,846.855,-846.815,1.87146e-05,1.59551e-08,-1.59547e-08,3.52594e-16
0.819975,-0.09,0.0754182,0.01,-38.9454,4.05,806.891,-806.853,-179.283,1.52021e-08,-1.52017e-08,-3.3778e-09,826.569,-826.531,1.83016e-05,1.55729e-08,-1.55725e-08,3.44813e-16
0.829975,-0.09,0.0854181,0.01,-32.2079,4.05,788.243,-788.207,-172.98,1.48508e-08,-1.48504e-08,-3.25903e-09,807.001,-806.964,1.68856e-05,1.52042e-08,-1.52038e-08,3.18135e-16
0.839975,-0.09,0.095418,0.01,-25.5493,4.05,770.227,-770.192,-166.967,1.45114e-08,-1.4511e-08,-3.14575e-09,788.117,-788.082,1.55744e-05,1.48484e-08,-1.48481e-08,2.93431e-16
0.849975,-0.09,0.105256,0.01,-18.9676,4.05,752.814,-752.78,-161.228,1.41833e-08,-1.4183e-08,-3.03763e-09,769.885,-769.852,1.43781e-05,1.45049e-08,-1.45046e-08,2.70892e-16
0.859975,-0.09,0.115085,0.01,-12.4613,4.05,735.977,-735.946,-155.749,1.38661e-08,-1.38658e-08,-2.9344e-09,752.277,-752.245,1.32853e-05,1.41732e-08,-1.41729e-08,2.50303e-16
0.869975,-0.09,0.124942,0.01,-6.02857,4.05,719.693,-719.663,-150.514,1.35593e-08,-1.3559e-08,-2.83577e-09,735.264,-735.234,1.22863e-05,1.38527e-08,-1.38524e-08,2.31482e-16
0.879975,-0.09,0.13482,0.01,0.332191,4.05,703.937,-703.908,-145.51,1.32625e-08,-1.32622e-08,-2.7415e-09,718.82,-718.791,1.13723e-05,1.35429e-08,-1.35426e-08,2.14262e-16
0.889975,-0.09,0.144715,0.01,6.62256,4.05,688.688,-688.66,-140.725,1.29752e-08,-1.29749e-08,-2.65135e-09,702.919,-702.891,1.05347e-05,1.32433e-08,-1.3243e-08,1.98481e-16
0.899975,-0.09,0.154623,0.01,12.8441,4.05,673.923,-673.897,-136.147,1.2697e-08,-1.26967e-08,-2.56509e-09,687.538,-687.512,9.7662e-06,1.29535e-08,-1.29532e-08,1.84001e-16
0.909975,-0.09,0.164542,0.01,18.9982,4.05,659.624,-659.598,-131.765,1.24276e-08,-1.24273e-08,-2.48253e-09,672.656,-672.63,9.06082e-06,1.26731e-08,-1.26729e-08,1.70711e-16
0.919975,-0.09,0.174471,0.01,25.0863,4.05,645.77,-645.745,-127.568,1.21666e-08,-1.21663e-08,-2.40346e-09,658.249,-658.225,8.41294e-06,1.24017e-08,-1.24014e-08,1.58505e-16
0.929975,-0.09,0.184407,0.01,31.1098,4.05,632.343,-632.32,-123.547,1.19136e-08,-1.19134e-08,-2.3277e-09,644.3,-644.276,7.81727e-06,1.21389e-08,-1.21386e-08,1.47282e-16
0.939975,-0.09,0.19435,0.01,37.0702,4.05,619.327,-619.305,-119.693,1.16684e-08,-1.16682e-08,-2.25508e-09,630.787,-630.765,7.26926e-06,1.18843e-08,-1.18841e-08,1.36957e-16
0.949975,-0.09,0.204298,0.01,42.9685,4.05,606.705,-606.683,-115.997,1.14306e-08,-1.14304e-08,-2.18545e-09,617.695,-617.673,6.76466e-06,1.16376e-08,-1.16374e-08,1.2745e-16
0.959975,-0.09,0.214251,0.01,48.8063,4.05,594.464,-594.45,-112.455,1.12e-08,-1.11998e-08,-2.11872e-09,605.007,-604.993,-0.00302603,1.13986e-08,-1.13985e-08,-5.70122e-14
0.969975,-0.09,0.224209,0.01,54.5845,4.05,582.872,-583.538,-109.372,1.09845e-08,-1.09913e-08,-2.06064e-09,593.039,-593.705,-0.202652,1.11761e-08,-1.11829e-08,-3.81809e-12
0.979975,-0.09,0.23417,0.01,60.3045,4.05,573.915,-575.549,-105.118,1.082e-08,-1.08366e-08,-1.98049e-09,583.448,-585.081,1.32297,1.09996e-08,-1.10162e-08,2.49255e-11
0.989975,-0.09,0.244134,0.01,65.9674,4.05,569.738,-568.281,-100.037,1.07279e-08,-1.07131e-08,-1.88475e-09,578.449,-576.993,4.21434,1.0892e-08,-1.08772e-08,7.94006e-11
-0.990025,-0.08,0.243559,0.01,65.5113,3.2,569.271,-573.371,91.8494,1.07432e-08,-1.07848e-08,1.7305e-09,576.606,-580.706,-1.07571,1.08814e-08,-1.0923e-08,-2.02671e-11
-0.980025,-0.08,0.233569,0.01,59.8388,3.2,576.873,-578.773,93.7201,1.08769e-08,-1.08962e-08,1.76574e-09,584.423,-586.323,-1.23229,1.10191e-08,-1.10384e-08,-2.3217e-11
-0.970025,-0.08,0.223579,0.01,54.1089,3.2,585.92,-585.841,97.012,1.10387e-08,-1.10379e-08,1.82776e-09,593.897,-593.818,-0.283528,1.1189e-08,-1.11882e-08,-5.34184e-12
-0.960025,-0.08,0.213589,0.01,48.3205,3.2,597.691,-597.67,100.307,1.12608e-08,-1.12605e-08,1.88985e-09,606.05,-606.029,-5.71188e-06,1.14182e-08,-1.1418e-08,-1.07615e-16
-0.950025,-0.08,0.203601,0.01,42.4723,3.2,610.072,-610.05,103.478,1.1494e-08,-1.14938e-08,1.94959e-09,618.786,-618.764,-6.13631e-06,1.16582e-08,-1.1658e-08,-1.15612e-16
-0.940025,-0.08,0.193615,0.01,36.563,3.2,622.838,-622.815,106.784,1.17345e-08,-1.17343e-08,2.01187e-09,631.926,-631.903,-6.59736e-06,1.19058e-08,-1.19055e-08,-1.24298e-16
-0.930025,-0.08,0.183629,0.01,30.5915,3.2,636.007,-635.983,110.231,1.19826e-08,-1.19824e-08,2.07682e-09,645.489,-645.464,-7.09832e-06,1.21613e-08,-1.2161e-08,-1.33736e-16
-0.920025,-0.08,0.173646,0.01,24.5564,3.2,649.593,-649.568,113.828,1.22386e-08,-1.22384e-08,2.14459e-09,659.491,-659.466,-7.64264e-06,1.24251e-08,-1.24248e-08,-1.43992e-16
-0.910025,-0.08,0.163664,0.01,18.4563,3.2,663.617,-663.59,117.583,1.25028e-08,-1.25025e-08,2.21533e-09,673.953,-673.927,-8.23484e-06,1.26976e-08,-1.26973e-08,-1.55149e-16
-0.900025,-0.08,0.153685,0.01,12.2899,3.2,678.095,-678.068,121.504,1.27756e-08,-1.27753e-08,2.28921e-09,688.895,-688.868,-8.88019e-06,1.29791e-08,-1.29788e-08,-1.67308e-16
-0.890025,-0.08,0.143709,0.01,6.05563,3.2,693.048,-693.02,125.602,1.30573e-08,-1.3057e-08,2.36641e-09,704.338,-704.309,-9.58392e-06,1.327e-08,-1.32697e-08,-1.80567e-16
-0.880025,-0.08,0.133736,0.01,-0.247935,3.2,708.497,-708.467,129.885,1.33484e-08,-1.33481e-08,2.4471e-09,720.304,-720.275,-1.03515e-05,1.35708e-08,-1.35705e-08,-1.95028e-16
-0.870025,-0.08,0.123768,0.01,-6.62235,3.2,724.463,-724.432,134.364,1.36492e-08,-1.36489e-08,2.5315e-09,736.818,-736.787,-1.119e-05,1.3882e-08,-1.38816e-08,-2.10827e-16
-0.860025,-0.08,0.113805,0.01,-13.0692,3.2,740.971,-740.938,139.051,1.39602e-08,-1.39598e-08,2.61981e-09,753.905,-753.873,-1.21072e-05,1.42039e-08,-1.42035e-08,-2.28107e-16
-0.850025,-0.08,0.103849,0.01,-19.5902,3.2,758.043,-758.009,143.958,1.42818e-08,-1.42815e-08,2.71226e-09,771.592,-771.558,-1.31107e-05,1.45371e-08,-1.45367e-08,-2.47013e-16
-0.840025,-0.08,0.0939026,0.01,-26.1869,3.2,775.707,-775.671,149.098,1.46146e-08,-1.46143e-08,2.8091e-09,789.906,-789.871,-1.42094e-05,1.48821e-08,-1.48818e-08,-2.67713e-16
-0.830025,-0.08,0.0839691,0.01,-32.8613,3.2,793.989,-793.951,154.485,1.4959e-08,-1.49587e-08,2.91059e-09,808.878,-808.841,-1.54157e-05,1.52396e-08,-1.52392e-08,-2.9044e-16
-0.820025,-0.08,0.0740534,0.01,-39.615,3.2,812.918,-812.879,160.134,1.53157e-08,-1.53153e-08,3.01701e-09,828.54,-828.501,-1.68023e-05,1.561e-08,-1.56096e-08,-3.16566e-16
-0.810025,-0.08,0.064164,0.01,-46.4501,3.2,832.525,-832.484,166.06,1.56851e-08,-1.56847e-08,3.12867e-09,848.925,-848.884,-2.02146e-05,1.59941e-08,-1.59936e-08,-3.80855e-16
-0.800025,-0.08,0.054315,0.01,-53.3684,3.2,852.842,-852.799,172.281,1.60678e-08,-1.60674e-08,3.24588e-09,870.069,-870.027,-7.34311e-05,1.63924e-08,-1.6392e-08,-1.38348e-15
-0.790025,-0.08,0.0445334,0.01,-60.372,3.2,873.905,-873.864,178.816,1.64647e-08,-1.64643e-08,3.369e-09,892.013,-891.971,-0.0013397,1.68059e-08,-1.68054e-08,-2.52407e-14
-0.780025,-0.08,0.0348759,0.01,-67.463,3.2,895.537,-895.067,185.667,1.68704e-08,-1.68656e-08,3.49807e-09,914.586,-914.116,0.0674552,1.72293e-08,-1.72245e-08,1.2709e-12
-0.770025,-0.08,0.025484,0.01,-74.6435,3.2,915.429,-907.461,191.358,1.72126e-08,-1.71317e-08,3.60529e-09,935.3,-927.332,-0.0916286,1.7587e-08,-1.75061e-08,-1.72634e-12
-0.760025,-0.08,0.0168088,0.01,-81.916,3.2,935.991,-908.693,196.343,1.75159e-08,-1.7239e-08,3.69921e-09,956.658,-929.36,-0.00365985,1.79053e-08,-1.76284e-08,-6.89537e-14
0.759975,-0.08,0.0167693,0.01,-81.9524,3.2,936.113,-908.691,-196.372,1.75177e-08,-1.72395e-08,-3.69976e-09,956.784,-929.362,0.000209118,1.79071e-08,-1.76289e-08,3.93991e-15
0.769975,-0.08,0.0254384,0.01,-74.6795,3.2,915.538,-907.549,-191.399,1.72145e-08,-1.71335e-08,-3.60607e-09,935.416,-927.427,0.0839463,1.7589e-08,-1.7508e-08,1.5816e-12
0.779975,-0.08,0.0348284,0.01,-67.4984,3.2,895.648,-895.177,-185.702,1.68725e-08,-1.68677e-08,-3.49873e-09,914.702,-914.231,-0.0673412,1.72315e-08,-1.72267e-08,-1.26875e-12
0.789975,-0.08,0.044485,0.01,-60.407,3.2,874.012,-873.97,-178.849,1.64667e-08,-1.64663e-08,-3.36962e-09,892.124,-892.082,0.00136071,1.68079e-08,-1.68075e-08,2.56365e-14
0.799975,-0.08,0.0542662,0.01,-53.403,3.2,852.945,-852.902,-172.313,1.60698e-08,-1.60694e-08,-3.24648e-09,870.176,-870.134,7.43084e-05,1.63944e-08,-1.6394e-08,1.40001e-15
0.809975,-0.08,0.0641149,0.01,-46.4843,3.2,832.624,-832.583,-166.09,1.56869e-08,-1.56865e-08,-3.12923e-09,849.028,-848.988,2.02561e-05,1.5996e-08,-1.59956e-08,3.81637e-16
0.819975,-0.08,0.0740042,0.01,-39.6488,3.2,813.014,-812.975,-160.162,1.53175e-08,-1.53171e-08,-3.01755e-09,828.64,-828.601,1.68105e-05,1.56119e-08,-1.56115e-08,3.1672e-16
0.829975,-0.08,0.0839197,0.01,-32.8947,3.2,794.081,-794.044,-154.512,1.49608e-08,-1.49604e-08,-2.9111e-09,808.974,-808.937,1.54223e-05,1.52414e-08,-1.5241e-08,2.90565e-16
0.839975,-0.08,0.0938532,0.01,-26.2199,3.2,775.796,-775.761,-149.124,1.46163e-08,-1.46159e-08,-2.80959e-09,789.999,-789.963,1.42151e-05,1.48839e-08,-1.48835e-08,2.67821e-16
0.849975,-0.08,0.103799,0.01,-19.6228,3.2,758.13,-758.096,-143.983,1.42835e-08,-1.42831e-08,-2.71273e-09,771.681,-771.647,1.31155e-05,1.45388e-08,-1.45384e-08,2.47104e-16
0.859975,-0.08,0.113755,0.01,-13.1015,3.2,741.054,-741.022,-139.075,1.39618e-08,-1.39614e-08,-2.62025e-09,753.992,-753.959,1.21115e-05,1.42055e-08,-1.42052e-08,2.28188e-16
0.869975,-0.08,0.123718,0.01,-6.65423,3.2,724.544,-724.513,-134.387,1.36507e-08,-1.36504e-08,-2.53193e-09,736.902,-736.871,1.11943e-05,1.38835e-08,-1.38832e-08,2.10907e-16
0.879975,-0.08,0.133686,0.01,-0.279458,3.2,708.575,-708.545,-129.906,1.33498e-08,-1.33495e-08,-2.44751e-09,720.385,-720.355,1.03557e-05,1.35723e-08,-1.3572e-08,1.95107e-16
0.889975,-0.08,0.143659,0.01,6.02445,3.2,693.124,-693.095,-125.622,1.30587e-08,-1.30584e-08,-2.3668e-09,704.416,-704.387,9.58769e-06,1.32715e-08,-1.32712e-08,1.80638e-16
0.899975,-0.08,0.153635,0.01,12.259,3.2,678.168,-678.141,-121.524,1.2777e-08,-1.27767e-08,-2.28959e-09,688.971,-688.943,8.88366e-06,1.29805e-08,-1.29802e-08,1.67373e-16
0.909975,-0.08,0.163615,0.01,18.4258,3.2,663.687,-663.661,-117.602,1.25041e-08,-1.25039e-08,-2.21569e-09,674.026,-674,8.2379e-06,1.26989e-08,-1.26987e-08,1.55207e-16
0.919975,-0.08,0.173596,0.01,24.5262,3.2,649.662,-649.637,-113.846,1.22399e-08,-1.22396e-08,-2.14493e-09,659.562,-659.537,7.64511e-06,1.24264e-08,-1.24262e-08,1.44038e-16
0.929975,-0.08,0.18358,0.01,30.5617,3.2,636.073,-636.049,-110.249,1.19839e-08,-1.19836e-08,-2.07715e-09,645.557,-645.533,7.1005e-06,1.21626e-08,-1.21623e-08,1.33778e-16
0.939975,-0.08,0.193565,0.01,36.5335,3.2,622.903,-622.88,-106.8,1.17358e-08,-1.17355e-08,-2.01218e-09,631.993,-631.969,6.59963e-06,1.1907e-08,-1.19068e-08,1.24341e-16
0.949975,-0.08,0.203552,0.01,42.443,3.2,610.135,-610.112,-103.494,1.14952e-08,-1.1495e-08,-1.94989e-09,618.85,-618.828,6.13864e-06,1.16594e-08,-1.16592e-08,1.15655e-16
0.959975,-0.08,0.21354,0.01,48.2915,3.2,597.752,-597.731,-100.323,1.12619e-08,-1.12617e-08,-1.89014e-09,606.112,-606.091,5.71397e-06,1.14194e-08,-1.14192e-08,1.07655e-16
0.969975,-0.08,0.223529,0.01,54.0803,3.2,585.979,-585.899,-97.0267,1.10398e-08,-1.1039e-08,-1.82804e-09,593.958,-593.878,0.283567,1.11902e-08,-1.11894e-08,5.34256e-12
0.979975,-0.08,0.233519,0.01,59.8105,3.2,576.93,-578.831,-93.7343,1.0878e-08,-1.08972e-08,-1.76601e-09,584.482,-586.382,1.23245,1.10202e-08,-1.10395e-08,2.32202e-11
0.989975,-0.08,0.24351,0.01,65.4832,3.2,569.327,-573.428,-91.8632,1.07443e-08,-1.07859e-08,-1.73076e-09,576.664,-580.765,1.07584,1.08825e-08,-1.09241e-08,2.02694e-11
-0.990025,-0.07,0.242588,0.01,65.0834,2.45,569.208,-577.748,82.2582,1.07613e-08,-1.0848e-08,1.54979e-09,575.077,-583.617,0.747344,1.08719e-08,-1.09585e-08,1.40804e-11
-0.980025,-0.07,0.232624,0.01,59.4022,2.45,578.322,-582.092,83.4517,1.09123e-08,-1.09506e-08,1.57228e-09,584.293,-588.063,0.14063,1.10248e-08,-1.10631e-08,2.64955e-12
-0.970025,-0.07,0.222663,0.01,53.6633,2.45,588.594,-588.783,85.3785,1.10903e-08,-1.10922e-08,1.60858e-09,594.753,-594.942,-0.0291291,1.12063e-08,-1.12082e-08,-5.48808e-13
-0.960025,-0.07,0.212706,0.01,47.8656,2.45,600.611,-600.589,88.0534,1.13158e-08,-1.13155e-08,1.65898e-09,607.031,-607.01,-5.0882e-06,1.14367e-08,-1.14365e-08,-9.58646e-17
-0.950025,-0.07,0.202753,0.01,42.0078,2.45,613.115,-613.093,90.843,1.15513e-08,-1.15511e-08,1.71153e-09,619.809,-619.786,-5.46829e-06,1.16775e-08,-1.16772e-08,-1.03026e-16
-0.940025,-0.07,0.192805,0.01,36.0887,2.45,626.012,-625.988,93.7515,1.17943e-08,-1.17941e-08,1.76633e-09,632.993,-632.97,-5.88146e-06,1.19259e-08,-1.19256e-08,-1.1081e-16
-0.930025,-0.07,0.182862,0.01,30.107,2.45,639.317,-639.293,96.7852,1.2045e-08,-1.20448e-08,1.82349e-09,646.602,-646.577,-6.33067e-06,1.21822e-08,-1.2182e-08,-1.19273e-16
-0.920025,-0.07,0.172927,0.01,24.0614,2.45,653.049,-653.023,99.9509,1.23037e-08,-1.23034e-08,1.88313e-09,660.653,-660.628,-6.81895e-06,1.2447e-08,-1.24467e-08,-1.28473e-16
-0.910025,-0.07,0.162999,0.01,17.9504,2.45,667.224,-667.198,103.256,1.25708e-08,-1.25705e-08,1.9454e-09,675.167,-675.14,-7.35053e-06,1.27204e-08,-1.27202e-08,-1.38488e-16
-0.900025,-0.07,0.15308,0.01,11.7727,2.45,681.864,-681.836,106.708,1.28466e-08,-1.28463e-08,2.01044e-09,690.163,-690.135,-7.92982e-06,1.3003e-08,-1.30027e-08,-1.49402e-16
-0.890025,-0.07,0.143173,0.01,5.52689,2.45,696.987,-696.958,110.315,1.31315e-08,-1.31312e-08,2.07841e-09,705.664,-705.635,-8.56194e-06,1.3295e-08,-1.32947e-08,-1.61312e-16
-0.880025,-0.07,0.13328,0.01,-0.788671,2.45,712.616,-712.586,114.087,1.3426e-08,-1.34257e-08,2.14946e-09,721.691,-721.661,-9.25244e-06,1.35969e-08,-1.35966e-08,-1.74321e-16
-0.870025,-0.07,0.123345,0.01,-7.1755,2.45,728.773,-728.741,118.032,1.37304e-08,-1.373e-08,2.22379e-09,738.269,-738.238,-1.00072e-05,1.39093e-08,-1.3909e-08,-1.88541e-16
-0.860025,-0.07,0.113345,0.01,-13.6352,2.45,745.482,-745.448,122.161,1.40452e-08,-1.40448e-08,2.30158e-09,755.425,-755.391,-1.08328e-05,1.42325e-08,-1.42322e-08,-2.04097e-16
-0.850025,-0.07,0.103345,0.01,-20.1695,2.45,762.767,-762.733,126.483,1.43708e-08,-1.43705e-08,2.38302e-09,773.183,-773.149,-1.17367e-05,1.45671e-08,-1.45667e-08,-2.21126e-16
-0.840025,-0.07,0.0933451,0.01,-26.78,2.45,780.657,-780.62,131.012,1.47079e-08,-1.47075e-08,2.46835e-09,791.574,-791.538,-1.2727e-05,1.49136e-08,-1.49132e-08,-2.39784e-16
-0.830025,-0.07,0.0833451,0.01,-33.4686,2.45,799.178,-799.14,135.759,1.50568e-08,-1.50564e-08,2.55779e-09,810.627,-810.589,-1.381e-05,1.52725e-08,-1.52721e-08,-2.60189e-16
-0.820025,-0.07,0.0733451,0.01,-40.2371,2.45,818.361,-818.322,140.738,1.54182e-08,-1.54178e-08,2.65159e-09,830.375,-830.335,-1.48883e-05,1.56446e-08,-1.56442e-08,-2.80505e-16
-0.810025,-0.07,0.0633452,0.01,-47.0875,2.45,838.238,-838.196,145.963,1.57927e-08,-1.57923e-08,2.75002e-09,850.852,-850.81,-1.33377e-05,1.60304e-08,-1.60299e-08,-2.51289e-16
-0.800025,-0.07,0.0533453,0.01,-54.0217,2.45,858.842,-858.798,151.448,1.61809e-08,-1.61804e-08,2.85337e-09,872.093,-872.049,5.29595e-05,1.64306e-08,-1.64301e-08,9.97787e-16
-0.790025,-0.07,0.0433454,0.01,-61.0418,2.45,880.205,-880.155,157.212,1.65834e-08,-1.65828e-08,2.96197e-09,894.135,-894.085,0.001618,1.68458e-08,-1.68453e-08,3.0484e-14
-0.780025,-0.07,0.0333455,0.01,-68.1499,2.45,902.145,-901.702,163.28,1.6995e-08,-1.69905e-08,3.07628e-09,916.806,-916.363,0.0853304,1.72712e-08,-1.72667e-08,1.60767e-12
-0.770025,-0.07,0.0233459,0.01,-75.3482,2.45,922.268,-912.879,168.912,1.73352e-08,-1.724e-08,3.1824e-09,937.685,-928.297,0.684219,1.76257e-08,-1.75305e-08,1.28911e-11
-0.760025,-0.07,0.0133466,0.01,-82.639,2.45,943.172,-906.59,174.482,1.76109e-08,-1.72397e-08,3.28734e-09,959.483,-922.9,2.61227,1.79182e-08,-1.7547e-08,4.92166e-11
0.759975,-0.07,0.0132969,0.01,-82.6754,2.45,943.292,-906.631,-174.529,1.76128e-08,-1.72409e-08,-3.28823e-09,959.61,-922.95,-2.63305,1.79202e-08,-1.75483e-08,-4.96082e-11
0.769975,-0.07,0.0232961,0.01,-75.3842,2.45,922.384,-912.989,-168.947,1.73374e-08,-1.72421e-08,-3.18307e-09,937.806,-928.411,-0.687897,1.7628e-08,-1.75327e-08,-1.29604e-11
0.779975,-0.07,0.0332958,0.01,-68.1854,2.45,902.257,-901.815,-163.311,1.69971e-08,-1.69926e-08,-3.07687e-09,916.921,-916.479,-0.0855649,1.72734e-08,-1.72689e-08,-1.61209e-12
0.789975,-0.07,0.0432956,0.01,-61.0769,2.45,880.313,-880.263,-157.242,1.65854e-08,-1.65849e-08,-2.96252e-09,894.247,-894.196,-0.00164368,1.68479e-08,-1.68474e-08,-3.09679e-14
0.799975,-0.07,0.0532955,0.01,-54.0564,2.45,858.946,-858.902,-151.476,1.61829e-08,-1.61824e-08,-2.8539e-09,872.201,-872.157,-5.40693e-05,1.64326e-08,-1.64321e-08,-1.0187e-15
0.809975,-0.07,0.0632955,0.01,-47.1218,2.45,838.339,-838.297,-145.989,1.57946e-08,-1.57942e-08,-2.75052e-09,850.956,-850.914,1.32971e-05,1.60323e-08,-1.60319e-08,2.50525e-16
0.819975,-0.07,0.0732954,0.01,-40.271,2.45,818.459,-818.419,-140.763,1.54201e-08,-1.54197e-08,-2.65207e-09,830.475,-830.435,1.48929e-05,1.56465e-08,-1.56461e-08,2.80591e-16
0.829975,-0.07,0.0832954,0.01,-33.5021,2.45,799.272,-799.234,-135.784,1.50586e-08,-1.50582e-08,-2.55824e-09,810.724,-810.686,1.38157e-05,1.52743e-08,-1.5274e-08,2.60296e-16
0.839975,-0.07,0.0932953,0.01,-26.8131,2.45,780.747,-780.711,-131.035,1.47096e-08,-1.47092e-08,-2.46878e-09,791.667,-791.631,1.27321e-05,1.49153e-08,-1.49149e-08,2.39879e-16
0.849975,-0.07,0.103295,0.01,-20.2021,2.45,762.855,-762.82,-126.505,1.43725e-08,-1.43721e-08,-2.38344e-09,773.273,-773.238,1.17411e-05,1.45688e-08,-1.45684e-08,2.21208e-16
0.859975,-0.07,0.113295,0.01,-13.6675,2.45,745.566,-745.533,-122.182,1.40468e-08,-1.40464e-08,-2.30197e-09,755.511,-755.478,1.08369e-05,1.42341e-08,-1.42338e-08,2.04173e-16
0.869975,-0.07,0.123295,0.01,-7.20744,2.45,728.855,-728.823,-118.052,1.37319e-08,-1.37316e-08,-2.22417e-09,738.353,-738.322,1.00111e-05,1.39109e-08,-1.39105e-08,1.88615e-16
0.879975,-0.07,0.13323,0.01,-0.820256,2.45,712.695,-712.665,-114.106,1.34275e-08,-1.34272e-08,-2.14983e-09,721.772,-721.742,9.25629e-06,1.35985e-08,-1.35982e-08,1.74394e-16
0.889975,-0.07,0.143124,0.01,5.49565,2.45,697.064,-697.035,-110.334,1.3133e-08,-1.31327e-08,-2.07875e-09,705.742,-705.713,8.56554e-06,1.32965e-08,-1.32962e-08,1.6138e-16
0.899975,-0.07,0.153031,0.01,11.7419,2.45,681.938,-681.91,-106.726,1.2848e-08,-1.28477e-08,-2.01077e-09,690.239,-690.211,7.93301e-06,1.30044e-08,-1.30041e-08,1.49462e-16
0.909975,-0.07,0.162949,0.01,17.9199,2.45,667.296,-667.269,-103.273,1.25721e-08,-1.25719e-08,-1.94572e-09,675.24,-675.214,7.35321e-06,1.27218e-08,-1.27215e-08,1.38539e-16
0.919975,-0.07,0.172877,0.01,24.0311,2.45,653.118,-653.092,-99.967,1.2305e-08,-1.23048e-08,-1.88344e-09,660.724,-660.699,6.82116e-06,1.24483e-08,-1.24481e-08,1.28515e-16
0.929975,-0.07,0.182813,0.01,30.0771,2.45,639.384,-639.36,-96.8006,1.20463e-08,-1.2046e-08,-1.82378e-09,646.671,-646.646,6.33256e-06,1.21835e-08,-1.21833e-08,1.19309e-16
0.939975,-0.07,0.192755,0.01,36.0591,2.45,626.077,-626.053,-93.7662,1.17956e-08,-1.17953e-08,-1.76661e-09,633.06,-633.036,5.88342e-06,1.19271e-08,-1.19269e-08,1.10847e-16
0.949975,-0.07,0.202703,0.01,41.9785,2.45,613.178,-613.156,-90.8572,1.15525e-08,-1.15523e-08,-1.7118e-09,619.873,-619.851,5.47024e-06,1.16787e-08,-1.16784e-08,1.03062e-16
0.959975,-0.07,0.212656,0.01,47.8366,2.45,600.672,-600.651,-88.067,1.13169e-08,-1.13167e-08,-1.65923e-09,607.094,-607.072,5.09001e-06,1.14379e-08,-1.14377e-08,9.58986e-17
0.969975,-0.07,0.222613,0.01,53.6346,2.45,588.653,-588.842,-85.3915,1.10914e-08,-1.10933e-08,-1.60883e-09,594.813,-595.003,0.0291349,1.12075e-08,-1.12094e-08,5.48918e-13
0.979975,-0.07,0.232574,0.01,59.3738,2.45,578.38,-582.151,-83.4644,1.09134e-08,-1.09517e-08,-1.57252e-09,584.352,-588.123,-0.140659,1.10259e-08,-1.10642e-08,-2.65009e-12
0.989975,-0.07,0.242538,0.01,65.0553,2.45,569.265,-577.806,-82.2706,1.07624e-08,-1.08491e-08,-1.55003e-09,575.135,-583.676,-0.747497,1.0873e-08,-1.09597e-08,-1.40833e-11
-0.990025,-0.06,0.241964,0.01,64.712,1.8,571.274,-580.234,70.7844,1.08021e-08,-1.0893e-08,1.33362e-09,575.609,-584.568,0.735086,1.08838e-08,-1.09746e-08,1.38495e-11
-0.980025,-0.06,0.231973,0.01,59.0232,1.8,580.667,-584.478,71.73,1.09567e-08,-1.09953e-08,1.35143e-09,585.067,-588.877,0.127062,1.10396e-08,-1.10782e-08,2.39391e-12
-0.970025,-0.06,0.221983,0.01,53.2765,1.8,591.035,-591.226,73.3831,1.11363e-08,-1.11382e-08,1.38258e-09,595.573,-595.763,-0.0252116,1.12218e-08,-1.12237e-08,-4.75002e-13
-0.960025,-0.06,0.211994,0.01,47.4707,1.8,603.154,-603.132,75.6866,1.13637e-08,-1.13635e-08,1.42598e-09,607.884,-607.862,-4.42972e-06,1.14528e-08,-1.14526e-08,-8.34584e-17
-0.950025,-0.06,0.202006,0.01,41.6046,1.8,615.766,-615.743,78.089,1.16013e-08,-1.16011e-08,1.47124e-09,620.698,-620.675,-4.76208e-06,1.16942e-08,-1.1694e-08,-8.97204e-17
-0.940025,-0.06,0.192019,0.01,35.677,1.8,628.777,-628.753,80.594,1.18464e-08,-1.18462e-08,1.51844e-09,633.921,-633.897,-5.12327e-06,1.19433e-08,-1.19431e-08,-9.65253e-17
-0.930025,-0.06,0.182033,0.01,29.6864,1.8,642.202,-642.177,83.2072,1.20993e-08,-1.20991e-08,1.56767e-09,647.57,-647.545,-5.51635e-06,1.22005e-08,-1.22002e-08,-1.03931e-16
-0.920025,-0.06,0.17205,0.01,23.6316,1.8,656.06,-656.034,85.9345,1.23604e-08,-1.23602e-08,1.61906e-09,661.664,-661.638,-5.94414e-06,1.2466e-08,-1.24658e-08,-1.11991e-16
-0.910025,-0.06,0.162068,0.01,17.5112,1.8,670.369,-670.342,88.782,1.263e-08,-1.26297e-08,1.6727e-09,676.222,-676.195,-6.4099e-06,1.27403e-08,-1.274e-08,-1.20766e-16
-0.900025,-0.06,0.152089,0.01,11.3238,1.8,685.149,-685.121,91.7566,1.29085e-08,-1.29082e-08,1.72875e-09,691.266,-691.238,-6.91776e-06,1.30237e-08,-1.30234e-08,-1.30335e-16
-0.890025,-0.06,0.142113,0.01,5.06784,1.8,700.421,-700.392,94.8653,1.31962e-08,-1.31959e-08,1.78732e-09,706.817,-706.787,-7.47249e-06,1.33167e-08,-1.33164e-08,-1.40786e-16
-0.880025,-0.06,0.13214,0.01,-1.25815,1.8,716.208,-716.177,98.1159,1.34936e-08,-1.34933e-08,1.84856e-09,722.897,-722.866,-8.07869e-06,1.36197e-08,-1.36194e-08,-1.52207e-16
-0.870025,-0.06,0.122172,0.01,-7.65577,1.8,732.531,-732.498,101.516,1.38012e-08,-1.38008e-08,1.91263e-09,739.532,-739.499,-8.74115e-06,1.39331e-08,-1.39327e-08,-1.64688e-16
-0.860025,-0.06,0.112209,0.01,-14.1266,1.8,749.415,-749.382,105.076,1.41193e-08,-1.41189e-08,1.97969e-09,756.746,-756.712,-9.46606e-06,1.42574e-08,-1.4257e-08,-1.78346e-16
-0.850025,-0.06,0.102254,0.01,-20.6725,1.8,766.888,-766.852,108.803,1.44485e-08,-1.44481e-08,2.04991e-09,774.568,-774.532,-1.02605e-05,1.45932e-08,-1.45928e-08,-1.93314e-16
-0.840025,-0.06,0.0923085,0.01,-27.295,1.8,784.975,-784.938,112.708,1.47892e-08,-1.47888e-08,2.12349e-09,793.025,-792.988,-1.11324e-05,1.49409e-08,-1.49405e-08,-2.09741e-16
-0.830025,-0.06,0.0823761,0.01,-33.996,1.8,803.706,-803.667,116.803,1.51421e-08,-1.51417e-08,2.20063e-09,812.149,-812.111,-1.2097e-05,1.53012e-08,-1.53008e-08,-2.27914e-16
-0.820025,-0.06,0.0724623,0.01,-40.7774,1.8,823.112,-823.071,121.097,1.55077e-08,-1.55073e-08,2.28154e-09,831.972,-831.932,-1.33189e-05,1.56747e-08,-1.56743e-08,-2.50936e-16
-0.810025,-0.06,0.0625759,0.01,-47.6411,1.8,843.225,-843.182,125.604,1.58867e-08,-1.58862e-08,2.36646e-09,852.529,-852.486,-1.81879e-05,1.6062e-08,-1.60615e-08,-3.4267e-16
-0.800025,-0.06,0.0527324,0.01,-54.5891,1.8,864.08,-864.036,130.338,1.62796e-08,-1.62791e-08,2.45564e-09,873.855,-873.811,-0.000101076,1.64637e-08,-1.64633e-08,-1.90433e-15
-0.790025,-0.06,0.0429613,0.01,-61.6235,1.8,885.718,-885.677,135.311,1.66873e-08,-1.66868e-08,2.54933e-09,895.994,-895.953,-0.00192166,1.68809e-08,-1.68805e-08,-3.62052e-14
-0.780025,-0.06,0.0333262,0.01,-68.7466,1.8,907.959,-907.458,140.522,1.71043e-08,-1.70992e-08,2.64752e-09,918.772,-918.271,0.0471878,1.7308e-08,-1.73029e-08,8.89046e-13
-0.770025,-0.06,0.0239916,0.01,-75.9604,1.8,928.115,-920.208,144.544,1.74518e-08,-1.73716e-08,2.72329e-09,939.351,-931.443,-0.352331,1.76635e-08,-1.75833e-08,-6.63811e-12
-0.760025,-0.06,0.01551,0.01,-83.2676,1.8,948.315,-929.834,146.975,1.77865e-08,-1.7599e-08,2.7691e-09,959.745,-941.263,-2.1969,1.80018e-08,-1.78143e-08,-4.13908e-11
0.759975,-0.06,0.0154723,0.01,-83.3042,1.8,948.451,-929.973,-147.004,1.7789e-08,-1.76016e-08,-2.76964e-09,959.884,-941.405,2.19985,1.80044e-08,-1.7817e-08,4.14464e-11
0.769975,-0.06,0.0239465,0.01,-75.9965,1.8,928.233,-920.323,-144.572,1.74541e-08,-1.73738e-08,-2.72381e-09,939.471,-931.561,0.352142,1.76658e-08,-1.75855e-08,6.63456e-12
0.779975,-0.06,0.0332788,0.01,-68.7822,1.8,908.073,-907.572,-140.548,1.71064e-08,-1.71014e-08,-2.64801e-09,918.889,-918.387,-0.0469753,1.73102e-08,-1.73051e-08,-8.85043e-13
0.789975,-0.06,0.0429129,0.01,-61.6587,1.8,885.828,-885.787,-135.336,1.66893e-08,-1.66889e-08,-2.54981e-09,896.107,-896.065,0.0019514,1.6883e-08,-1.68826e-08,3.67656e-14
0.799975,-0.06,0.0526836,0.01,-54.6239,1.8,864.186,-864.141,-130.362,1.62816e-08,-1.62811e-08,-2.45609e-09,873.963,-873.919,0.00010241,1.64658e-08,-1.64653e-08,1.92946e-15
0.809975,-0.06,0.0625268,0.01,-47.6754,1.8,843.327,-843.284,-125.627,1.58886e-08,-1.58882e-08,-2.36689e-09,852.633,-852.59,1.82544e-05,1.60639e-08,-1.60635e-08,3.43923e-16
0.819975,-0.06,0.072413,0.01,-40.8113,1.8,823.21,-823.17,-121.119,1.55096e-08,-1.55092e-08,-2.28195e-09,832.073,-832.032,1.33274e-05,1.56766e-08,-1.56761e-08,2.51095e-16
0.829975,-0.06,0.0823267,0.01,-34.0295,1.8,803.801,-803.762,-116.823,1.51439e-08,-1.51435e-08,-2.20102e-09,812.246,-812.207,1.21022e-05,1.5303e-08,-1.53026e-08,2.28012e-16
0.839975,-0.06,0.092259,0.01,-27.3281,1.8,785.066,-785.029,-112.728,1.47909e-08,-1.47906e-08,-2.12386e-09,793.119,-793.082,1.1137e-05,1.49427e-08,-1.49423e-08,2.09827e-16
0.849975,-0.06,0.102205,0.01,-20.7052,1.8,766.976,-766.941,-108.822,1.44501e-08,-1.44498e-08,-2.05027e-09,774.658,-774.623,1.02649e-05,1.45949e-08,-1.45945e-08,1.93396e-16
0.859975,-0.06,0.11216,0.01,-14.159,1.8,749.501,-749.467,-105.094,1.41209e-08,-1.41205e-08,-1.98003e-09,756.833,-756.799,9.46987e-06,1.4259e-08,-1.42587e-08,1.78418e-16
0.869975,-0.06,0.122122,0.01,-7.68777,1.8,732.613,-732.581,-101.534,1.38027e-08,-1.38024e-08,-1.91295e-09,739.616,-739.584,8.74442e-06,1.39347e-08,-1.39343e-08,1.6475e-16
0.879975,-0.06,0.132091,0.01,-1.28979,1.8,716.287,-716.257,-98.1324,1.34951e-08,-1.34948e-08,-1.84887e-09,722.978,-722.948,8.08167e-06,1.36212e-08,-1.36209e-08,1.52263e-16
0.889975,-0.06,0.142063,0.01,5.03656,1.8,700.499,-700.469,-94.8811,1.31977e-08,-1.31974e-08,-1.78762e-09,706.895,-706.866,7.47555e-06,1.33182e-08,-1.33179e-08,1.40844e-16
0.899975,-0.06,0.152039,0.01,11.2928,1.8,685.224,-685.196,-91.7717,1.29099e-08,-1.29096e-08,-1.72903e-09,691.342,-691.314,6.92088e-06,1.30252e-08,-1.30249e-08,1.30393e-16
0.909975,-0.06,0.162019,0.01,17.4806,1.8,670.441,-670.414,-88.7965,1.26314e-08,-1.26311e-08,-1.67298e-09,676.296,-676.269,6.4126e-06,1.27417e-08,-1.27414e-08,1.20817e-16
0.919975,-0.06,0.172,0.01,23.6013,1.8,656.13,-656.104,-85.9483,1.23617e-08,-1.23615e-08,-1.61932e-09,661.735,-661.709,5.94622e-06,1.24674e-08,-1.24671e-08,1.1203e-16
0.929975,-0.06,0.181984,0.01,29.6564,1.8,642.27,-642.245,-83.2205,1.21006e-08,-1.21004e-08,-1.56792e-09,647.639,-647.614,5.51815e-06,1.22018e-08,-1.22015e-08,1.03965e-16
0.939975,-0.06,0.191969,0.01,35.6473,1.8,628.842,-628.818,-80.6068,1.18476e-08,-1.18474e-08,-1.51868e-09,633.988,-633.964,5.1251e-06,1.19446e-08,-1.19443e-08,9.65598e-17
0.949975,-0.06,0.201956,0.01,41.5753,1.8,615.83,-615.807,-78.1012,1.16025e-08,-1.16023e-08,-1.47147e-09,620.763,-620.74,4.76368e-06,1.16954e-08,-1.16952e-08,8.97504e-17
0.959975,-0.06,0.211944,0.01,47.4417,1.8,603.216,-603.194,-75.6983,1.13648e-08,-1.13646e-08,-1.4262e-09,607.947,-607.925,4.4311e-06,1.1454e-08,-1.14538e-08,8.34844e-17
0.969975,-0.06,0.221933,0.01,53.2478,1.8,591.095,-591.286,-73.3944,1.11374e-08,-1.11393e-08,-1.38279e-09,595.634,-595.824,0.0252167,1.12229e-08,-1.12248e-08,4.75097e-13
0.979975,-0.06,0.231923,0.01,58.9948,1.8,580.726,-584.537,-71.7409,1.09578e-08,-1.09964e-08,-1.35164e-09,585.126,-588.937,-0.127087,1.10407e-08,-1.10793e-08,-2.39439e-12
0.989975,-0.06,0.241914,0.01,64.6838,1.8,571.331,-580.292,-70.7951,1.08032e-08,-1.08941e-08,-1.33382e-09,575.667,-584.627,-0.735233,1.08849e-08,-1.09758e-08,-1.38522e-11
-0.990025,-0.05,0.241524,0.01,64.3974,1.25,573.212,-582.232,59.1213,1.08389e-08,-1.09304e-08,1.11388e-09,576.228,-585.249,0.614652,1.08957e-08,-1.09872e-08,1.15804e-11
-0.980025,-0.05,0.23156,0.01,58.7022,1.25,582.67,-586.506,59.9124,1.09945e-08,-1.10334e-08,1.12878e-09,585.732,-589.568,0.105831,1.10522e-08,-1.10911e-08,1.99392e-12
-0.970025,-0.05,0.221599,0.01,52.9488,1.25,593.11,-593.302,61.2953,1.11754e-08,-1.11773e-08,1.15484e-09,596.268,-596.46,-0.021183,1.12349e-08,-1.12368e-08,-3.991e-13
-0.960025,-0.05,0.211642,0.01,47.1362,1.25,605.315,-605.293,63.2224,1.14044e-08,-1.14042e-08,1.19115e-09,608.608,-608.586,-3.74041e-06,1.14664e-08,-1.14662e-08,-7.04715e-17
-0.950025,-0.05,0.201689,0.01,41.2631,1.25,618.019,-617.996,65.2324,1.16437e-08,-1.16435e-08,1.22902e-09,621.453,-621.43,-4.02195e-06,1.17084e-08,-1.17082e-08,-7.57759e-17
-0.940025,-0.05,0.191741,0.01,35.3281,1.25,631.127,-631.102,67.3285,1.18907e-08,-1.18904e-08,1.26851e-09,634.708,-634.684,-4.32793e-06,1.19582e-08,-1.19579e-08,-8.15408e-17
-0.930025,-0.05,0.181752,0.01,29.33,1.25,644.654,-644.629,69.5153,1.21455e-08,-1.21453e-08,1.30971e-09,648.391,-648.366,-4.66124e-06,1.2216e-08,-1.22157e-08,-8.78204e-17
-0.920025,-0.05,0.171752,0.01,23.2675,1.25,658.619,-658.593,71.7978,1.24087e-08,-1.24084e-08,1.35271e-09,662.521,-662.495,-5.02446e-06,1.24822e-08,-1.24819e-08,-9.46638e-17
-0.910025,-0.05,0.161752,0.01,17.1391,1.25,673.042,-673.015,74.1811,1.26804e-08,-1.26801e-08,1.39761e-09,677.118,-677.091,-5.42018e-06,1.27572e-08,-1.27569e-08,-1.02119e-16
-0.900025,-0.05,0.151752,0.01,10.9433,1.25,687.943,-687.914,76.671,1.29611e-08,-1.29608e-08,1.44453e-09,692.202,-692.173,-5.85169e-06,1.30414e-08,-1.30411e-08,-1.10249e-16
-0.890025,-0.05,0.141752,0.01,4.67883,1.25,703.342,-703.312,79.2735,1.32512e-08,-1.32509e-08,1.49356e-09,707.795,-707.765,-6.323e-06,1.33351e-08,-1.33348e-08,-1.19129e-16
-0.880025,-0.05,0.131752,0.01,-1.65602,1.25,719.262,-719.231,81.9949,1.35512e-08,-1.35509e-08,1.54483e-09,723.921,-723.889,-6.83799e-06,1.3639e-08,-1.36386e-08,-1.28832e-16
-0.870025,-0.05,0.121752,0.01,-8.0628,1.25,735.727,-735.694,84.8422,1.38614e-08,-1.38611e-08,1.59848e-09,740.603,-740.57,-7.40117e-06,1.39532e-08,-1.39529e-08,-1.39442e-16
-0.860025,-0.05,0.111752,0.01,-14.5432,1.25,752.762,-752.728,87.8228,1.41823e-08,-1.4182e-08,1.65463e-09,757.868,-757.834,-8.01803e-06,1.42785e-08,-1.42782e-08,-1.51064e-16
-0.850025,-0.05,0.101752,0.01,-21.0988,1.25,770.394,-770.358,90.9444,1.45145e-08,-1.45141e-08,1.71345e-09,775.743,-775.707,-8.69451e-06,1.46153e-08,-1.46149e-08,-1.6381e-16
-0.840025,-0.05,0.0917519,0.01,-27.7315,1.25,788.65,-788.612,94.2156,1.48585e-08,-1.48581e-08,1.77508e-09,794.257,-794.22,-9.43631e-06,1.49641e-08,-1.49637e-08,-1.77786e-16
-0.830025,-0.05,0.0817519,0.01,-34.443,1.25,807.56,-807.52,97.6454,1.52147e-08,-1.52143e-08,1.8397e-09,813.442,-813.402,-1.0241e-05,1.53255e-08,-1.53251e-08,-1.92946e-16
-0.820025,-0.05,0.071752,0.01,-41.2353,1.25,827.155,-827.114,101.243,1.55839e-08,-1.55835e-08,1.90748e-09,833.329,-833.287,-1.09253e-05,1.57002e-08,-1.56998e-08,-2.05839e-16
-0.810025,-0.05,0.061752,0.01,-48.1103,1.25,847.47,-847.427,105.02,1.59666e-08,-1.59662e-08,1.97864e-09,853.953,-853.91,-7.60129e-06,1.60888e-08,-1.60883e-08,-1.43213e-16
-0.800025,-0.05,0.051752,0.01,-55.0701,1.25,868.54,-868.494,108.987,1.63636e-08,-1.63631e-08,2.05338e-09,875.351,-875.305,8.13916e-05,1.64919e-08,-1.64915e-08,1.53347e-15
-0.790025,-0.05,0.041752,0.01,-62.1168,1.25,890.396,-890.342,113.157,1.67753e-08,-1.67748e-08,2.13194e-09,897.558,-897.503,0.00201883,1.69103e-08,-1.69097e-08,3.80359e-14
-0.780025,-0.05,0.0317521,0.01,-69.2524,1.25,912.849,-912.412,117.554,1.71967e-08,-1.71923e-08,2.21478e-09,920.389,-919.952,0.0700367,1.73388e-08,-1.73343e-08,1.31953e-12
-0.770025,-0.05,0.0217522,0.01,-76.4794,1.25,933.232,-925.394,120.875,1.75486e-08,-1.7469e-08,2.27735e-09,941.06,-933.222,-0.319575,1.7696e-08,-1.76165e-08,-6.02097e-12
-0.760025,-0.05,0.0117525,0.01,-83.7998,1.25,951.464,-932.133,122.866,1.78421e-08,-1.7646e-08,2.31486e-09,959.443,-940.113,-1.57589,1.79924e-08,-1.77963e-08,-2.96907e-11
0.759975,-0.05,0.0117028,0.01,-83.8365,1.25,951.567,-932.226,-122.89,1.7844e-08,-1.76478e-08,-2.31531e-09,959.549,-940.208,1.57342,1.79944e-08,-1.77982e-08,2.96441e-11
0.769975,-0.05,0.0217025,0.01,-76.5156,1.25,933.351,-925.513,-120.898,1.75508e-08,-1.74713e-08,-2.27779e-09,941.181,-933.343,0.319808,1.76983e-08,-1.76188e-08,6.02537e-12
0.779975,-0.05,0.0317024,0.01,-69.2881,1.25,912.964,-912.527,-117.576,1.71989e-08,-1.71944e-08,-2.2152e-09,920.505,-920.069,-0.070326,1.7341e-08,-1.73365e-08,-1.32498e-12
0.789975,-0.05,0.0417023,0.01,-62.152,1.25,890.507,-890.452,-113.178,1.67774e-08,-1.67769e-08,-2.13234e-09,897.67,-897.616,-0.00205018,1.69124e-08,-1.69118e-08,-3.86266e-14
0.799975,-0.05,0.0517023,0.01,-55.1049,1.25,868.647,-868.601,-109.007,1.63656e-08,-1.63651e-08,-2.05376e-09,875.46,-875.414,-8.28335e-05,1.6494e-08,-1.64935e-08,-1.56063e-15
0.809975,-0.05,0.0617022,0.01,-48.1447,1.25,847.573,-847.53,-105.039,1.59686e-08,-1.59681e-08,-1.979e-09,854.057,-854.014,7.53764e-06,1.60907e-08,-1.60903e-08,1.42014e-16
0.819975,-0.05,0.0717022,0.01,-41.2693,1.25,827.255,-827.213,-101.262,1.55858e-08,-1.55854e-08,-1.90783e-09,833.429,-833.388,1.09267e-05,1.57021e-08,-1.57017e-08,2.05866e-16
0.829975,-0.05,0.0817022,0.01,-34.4766,1.25,807.655,-807.616,-97.6628,1.52165e-08,-1.52161e-08,-1.84002e-09,813.539,-813.499,1.02452e-05,1.53274e-08,-1.5327e-08,1.93026e-16
0.839975,-0.05,0.0917022,0.01,-27.7646,1.25,788.742,-788.704,-94.2323,1.48602e-08,-1.48598e-08,-1.77539e-09,794.351,-794.314,9.44038e-06,1.49659e-08,-1.49655e-08,1.77862e-16
0.849975,-0.05,0.101702,0.01,-21.1316,1.25,770.483,-770.447,-90.9603,1.45162e-08,-1.45158e-08,-1.71375e-09,775.834,-775.798,8.69832e-06,1.4617e-08,-1.46166e-08,1.63881e-16
0.859975,-0.05,0.111702,0.01,-14.5756,1.25,752.848,-752.814,-87.838,1.4184e-08,-1.41836e-08,-1.65492e-09,757.955,-757.921,8.02147e-06,1.42802e-08,-1.42798e-08,1.51129e-16
0.869975,-0.05,0.121702,0.01,-8.09484,1.25,735.81,-735.778,-84.8567,1.3863e-08,-1.38626e-08,-1.59875e-09,740.687,-740.655,7.40404e-06,1.39548e-08,-1.39545e-08,1.39496e-16
0.879975,-0.05,0.131702,0.01,-1.6877,1.25,719.343,-719.311,-82.0088,1.35527e-08,-1.35524e-08,-1.54509e-09,724.002,-723.971,6.84045e-06,1.36405e-08,-1.36402e-08,1.28878e-16
0.889975,-0.05,0.141702,0.01,4.6475,1.25,703.42,-703.39,-79.2867,1.32527e-08,-1.32524e-08,-1.49381e-09,707.874,-707.844,6.32535e-06,1.33366e-08,-1.33363e-08,1.19173e-16
0.899975,-0.05,0.151702,0.01,10.9124,1.25,688.018,-687.989,-76.6837,1.29625e-08,-1.29622e-08,-1.44476e-09,692.278,-692.25,5.85406e-06,1.30428e-08,-1.30425e-08,1.10294e-16
0.909975,-0.05,0.161702,0.01,17.1084,1.25,673.115,-673.088,-74.1932,1.26818e-08,-1.26815e-08,-1.39784e-09,677.192,-677.164,5.42248e-06,1.27586e-08,-1.27583e-08,1.02163e-16
0.919975,-0.05,0.171702,0.01,23.2372,1.25,658.69,-658.664,-71.8094,1.241e-08,-1.24097e-08,-1.35293e-09,662.593,-662.567,5.02665e-06,1.24835e-08,-1.24833e-08,9.47049e-17
0.929975,-0.05,0.181702,0.01,29.3,1.25,644.722,-644.697,-69.5264,1.21468e-08,-1.21466e-08,-1.30992e-09,648.46,-648.435,4.66331e-06,1.22173e-08,-1.2217e-08,8.78595e-17
0.939975,-0.05,0.191692,0.01,35.2984,1.25,631.193,-631.169,-67.3392,1.18919e-08,-1.18917e-08,-1.26871e-09,634.775,-634.751,4.3298e-06,1.19594e-08,-1.19592e-08,8.1576e-17
0.949975,-0.05,0.20164,0.01,41.2337,1.25,618.084,-618.06,-65.2427,1.1645e-08,-1.16447e-08,-1.22921e-09,621.518,-621.494,4.0233e-06,1.17097e-08,-1.17094e-08,7.58013e-17
0.959975,-0.05,0.211592,0.01,47.1072,1.25,605.378,-605.355,-63.2322,1.14056e-08,-1.14053e-08,-1.19133e-09,608.671,-608.649,3.74129e-06,1.14676e-08,-1.14674e-08,7.04881e-17
0.969975,-0.05,0.221549,0.01,52.9201,1.25,593.17,-593.362,-61.3047,1.11765e-08,-1.11785e-08,-1.15502e-09,596.329,-596.521,0.0211873,1.1236e-08,-1.1238e-08,3.99181e-13
0.979975,-0.05,0.23151,0.01,58.6737,1.25,582.728,-586.565,-59.9215,1.09956e-08,-1.10345e-08,-1.12896e-09,585.791,-589.628,-0.105852,1.10533e-08,-1.10923e-08,-1.99432e-12
0.989975,-0.05,0.241474,0.01,64.3692,1.25,573.269,-582.291,-59.1303,1.08399e-08,-1.09315e-08,-1.11405e-09,576.286,-585.309,-0.614775,1.08968e-08,-1.09883e-08,-1.15827e-11
-0.990025,-0.04,0.240899,0.01,64.1397,0.8,574.802,-583.873,47.3852,1.0869e-08,-1.09611e-08,8.92765e-10,576.736,-585.808,0.49309,1.09055e-08,-1.09975e-08,9.29009e-12
-0.980025,-0.04,0.230908,0.01,58.4392,0.8,584.313,-588.171,48.0201,1.10256e-08,-1.10647e-08,9.04726e-10,586.277,-590.135,0.0846285,1.10626e-08,-1.11017e-08,1.59445e-12
-0.970025,-0.04,0.220918,0.01,52.6804,0.8,594.813,-595.006,49.1299,1.12075e-08,-1.12094e-08,9.25636e-10,596.839,-597.032,-0.0170606,1.12456e-08,-1.12476e-08,-3.21432e-13
-0.960025,-0.04,0.210929,0.01,46.8622,0.8,607.09,-607.068,50.6766,1.14378e-08,-1.14376e-08,9.54776e-10,609.201,-609.179,-3.02443e-06,1.14776e-08,-1.14774e-08,-5.69821e-17
-0.950025,-0.04,0.200941,0.01,40.9833,0.8,619.87,-619.846,52.2899,1.16786e-08,-1.16784e-08,9.85172e-10,622.071,-622.048,-3.25305e-06,1.17201e-08,-1.17198e-08,-6.12894e-17
-0.940025,-0.04,0.190954,0.01,35.0423,0.8,633.057,-633.032,53.9724,1.1927e-08,-1.19268e-08,1.01687e-09,635.353,-635.329,-3.50139e-06,1.19703e-08,-1.19701e-08,-6.59683e-17
-0.930025,-0.04,0.180969,0.01,29.0381,0.8,646.668,-646.642,55.7278,1.21835e-08,-1.21832e-08,1.04994e-09,649.065,-649.039,-3.77182e-06,1.22286e-08,-1.22284e-08,-7.10633e-17
-0.920025,-0.04,0.170985,0.01,22.9692,0.8,660.722,-660.696,57.5602,1.24483e-08,-1.2448e-08,1.08447e-09,663.225,-663.198,-4.06672e-06,1.24954e-08,-1.24952e-08,-7.66194e-17
-0.910025,-0.04,0.161004,0.01,16.8342,0.8,675.239,-675.211,59.4737,1.27218e-08,-1.27215e-08,1.12052e-09,677.853,-677.825,-4.38832e-06,1.2771e-08,-1.27707e-08,-8.26785e-17
-0.900025,-0.04,0.151025,0.01,10.6317,0.8,690.238,-690.209,61.4729,1.30044e-08,-1.30041e-08,1.15819e-09,692.97,-692.941,-4.73898e-06,1.30558e-08,-1.30555e-08,-8.92851e-17
-0.890025,-0.04,0.141048,0.01,4.36015,0.8,705.741,-705.711,63.5627,1.32964e-08,-1.32961e-08,1.19756e-09,708.598,-708.568,-5.12177e-06,1.33503e-08,-1.335e-08,-9.64971e-17
-0.880025,-0.04,0.131076,0.01,-1.98196,0.8,721.772,-721.74,65.7482,1.35985e-08,-1.35981e-08,1.23873e-09,724.76,-724.729,-5.54032e-06,1.36548e-08,-1.36544e-08,-1.04383e-16
-0.870025,-0.04,0.121108,0.01,-8.39626,0.8,738.354,-738.321,68.035,1.39109e-08,-1.39105e-08,1.28182e-09,741.482,-741.449,-5.99877e-06,1.39698e-08,-1.39695e-08,-1.1302e-16
-0.860025,-0.04,0.111145,0.01,-14.8844,0.8,755.513,-755.478,70.429,1.42341e-08,-1.42338e-08,1.32692e-09,758.788,-758.754,-6.50108e-06,1.42959e-08,-1.42955e-08,-1.22484e-16
-0.850025,-0.04,0.10119,0.01,-21.4481,0.8,773.275,-773.239,72.9365,1.45688e-08,-1.45684e-08,1.37417e-09,776.707,-776.671,-7.05161e-06,1.46335e-08,-1.46331e-08,-1.32856e-16
-0.840025,-0.04,0.0912454,0.01,-28.0891,0.8,791.67,-791.632,75.5644,1.49154e-08,-1.4915e-08,1.42368e-09,795.268,-795.23,-7.65675e-06,1.49832e-08,-1.49828e-08,-1.44258e-16
-0.830025,-0.04,0.0813138,0.01,-34.8093,0.8,810.728,-810.688,78.3201,1.52744e-08,-1.5274e-08,1.4756e-09,814.502,-814.462,-8.33395e-06,1.53455e-08,-1.53451e-08,-1.57016e-16
-0.820025,-0.04,0.0714014,0.01,-41.6106,0.8,830.48,-830.438,81.2112,1.56465e-08,-1.56461e-08,1.53007e-09,834.442,-834.4,-9.298e-06,1.57212e-08,-1.57208e-08,-1.7518e-16
-0.810025,-0.04,0.0615172,0.01,-48.4949,0.8,850.962,-850.918,84.2463,1.60324e-08,-1.6032e-08,1.58725e-09,855.122,-855.078,-1.45884e-05,1.61108e-08,-1.61104e-08,-2.74854e-16
-0.800025,-0.04,0.0516777,0.01,-55.4643,0.8,872.208,-872.163,87.4343,1.64327e-08,-1.64322e-08,1.64731e-09,876.58,-876.534,-0.00010583,1.65151e-08,-1.65146e-08,-1.9939e-15
-0.790025,-0.04,0.0419142,0.01,-62.5209,0.8,894.265,-894.225,90.7843,1.68483e-08,-1.68479e-08,1.71043e-09,898.862,-898.822,-0.00202021,1.69349e-08,-1.69345e-08,-3.80619e-14
-0.780025,-0.04,0.0322957,0.01,-69.667,0.8,916.956,-916.43,94.2915,1.72737e-08,-1.72684e-08,1.77651e-09,921.793,-921.267,0.0266126,1.73648e-08,-1.73595e-08,5.01396e-13
-0.770025,-0.04,0.023005,0.01,-76.9048,0.8,937.535,-929.42,97.0111,1.76284e-08,-1.75461e-08,1.82774e-09,942.562,-934.448,-0.231619,1.77231e-08,-1.76408e-08,-4.36384e-12
-0.760025,-0.04,0.014678,0.01,-84.237,0.8,958.598,-940.094,98.6141,1.79801e-08,-1.77924e-08,1.85795e-09,963.704,-945.201,-1.58254,1.80763e-08,-1.78886e-08,-2.9816e-11
0.759975,-0.04,0.0146418,0.01,-84.2737,0.8,958.745,-940.246,-98.6335,1.79829e-08,-1.77952e-08,-1.85831e-09,963.853,-945.354,1.58551,1.80791e-08,-1.78914e-08,2.9872e-11
0.769975,-0.04,0.0229602,0.01,-76.941,0.8,937.655,-929.538,-97.03,1.76307e-08,-1.75483e-08,-1.8281e-09,942.684,-934.567,0.231423,1.77254e-08,-1.76431e-08,4.36014e-12
0.779975,-0.04,0.0322485,0.01,-69.7028,0.8,917.073,-916.546,-94.3092,1.72759e-08,-1.72706e-08,-1.77684e-09,921.911,-921.384,-0.0263871,1.7367e-08,-1.73617e-08,-4.97149e-13
0.789975,-0.04,0.0418659,0.01,-62.5562,0.8,894.377,-894.337,-90.8014,1.68504e-08,-1.685e-08,-1.71075e-09,898.975,-898.935,0.00205124,1.6937e-08,-1.69366e-08,3.86466e-14
0.799975,-0.04,0.0516289,0.01,-55.4992,0.8,872.316,-872.27,-87.4506,1.64347e-08,-1.64343e-08,-1.64762e-09,876.689,-876.643,0.000107275,1.65171e-08,-1.65167e-08,2.02113e-15
0.809975,-0.04,0.0614682,0.01,-48.5293,0.8,851.065,-851.021,-84.2617,1.60344e-08,-1.60339e-08,-1.58754e-09,855.226,-855.183,1.46626e-05,1.61128e-08,-1.61123e-08,2.76251e-16
0.819975,-0.04,0.0713521,0.01,-41.6446,0.8,830.58,-830.538,-81.2259,1.56484e-08,-1.5648e-08,-1.53034e-09,834.543,-834.501,9.30543e-06,1.57231e-08,-1.57227e-08,1.7532e-16
0.829975,-0.04,0.0812645,0.01,-34.8429,0.8,810.824,-810.784,-78.3341,1.52762e-08,-1.52758e-08,-1.47586e-09,814.599,-814.56,8.33793e-06,1.53474e-08,-1.53469e-08,1.57091e-16
0.839975,-0.04,0.091196,0.01,-28.1223,0.8,791.763,-791.725,-75.5778,1.49171e-08,-1.49167e-08,-1.42393e-09,795.362,-795.324,7.66019e-06,1.49849e-08,-1.49845e-08,1.44322e-16
0.849975,-0.04,0.101141,0.01,-21.4809,0.8,773.365,-773.329,-72.9493,1.45705e-08,-1.45701e-08,-1.37441e-09,776.798,-776.762,7.05458e-06,1.46352e-08,-1.46348e-08,1.32912e-16
0.859975,-0.04,0.111096,0.01,-14.9168,0.8,755.6,-755.565,-70.4411,1.42358e-08,-1.42354e-08,-1.32715e-09,758.876,-758.841,6.50359e-06,1.42975e-08,-1.42972e-08,1.22531e-16
0.869975,-0.04,0.121058,0.01,-8.42834,0.8,738.438,-738.405,-68.0466,1.39125e-08,-1.39121e-08,-1.28204e-09,741.567,-741.533,6.00121e-06,1.39714e-08,-1.39711e-08,1.13066e-16
0.879975,-0.04,0.131026,0.01,-2.01368,0.8,721.853,-721.821,-65.7593,1.36e-08,-1.35997e-08,-1.23894e-09,724.842,-724.811,5.54263e-06,1.36563e-08,-1.3656e-08,1.04426e-16
0.889975,-0.04,0.140999,0.01,4.32879,0.8,705.82,-705.789,-63.5733,1.32979e-08,-1.32976e-08,-1.19776e-09,708.677,-708.647,5.12367e-06,1.33518e-08,-1.33514e-08,9.65329e-17
0.899975,-0.04,0.150975,0.01,10.6007,0.8,690.314,-690.285,-61.4831,1.30058e-08,-1.30055e-08,-1.15838e-09,693.046,-693.017,4.74054e-06,1.30573e-08,-1.3057e-08,8.93146e-17
0.909975,-0.04,0.160954,0.01,16.8035,0.8,675.312,-675.284,-59.4834,1.27231e-08,-1.27229e-08,-1.1207e-09,677.927,-677.899,4.38985e-06,1.27724e-08,-1.27721e-08,8.27074e-17
0.919975,-0.04,0.170936,0.01,22.9388,0.8,660.793,-660.767,-57.5695,1.24496e-08,-1.24493e-08,-1.08464e-09,663.296,-663.27,4.06857e-06,1.24968e-08,-1.24965e-08,7.66542e-17
0.929975,-0.04,0.180919,0.01,29.0081,0.8,646.737,-646.711,-55.7368,1.21848e-08,-1.21845e-08,-1.05011e-09,649.134,-649.109,3.77376e-06,1.22299e-08,-1.22297e-08,7.10998e-17
0.939975,-0.04,0.190905,0.01,35.0126,0.8,633.123,-633.099,-53.981,1.19283e-08,-1.19281e-08,-1.01703e-09,635.42,-635.396,3.50301e-06,1.19716e-08,-1.19713e-08,6.59988e-17
0.949975,-0.04,0.200892,0.01,40.9539,0.8,619.934,-619.911,-52.2981,1.16798e-08,-1.16796e-08,-9.85326e-10,622.136,-622.113,3.25426e-06,1.17213e-08,-1.17211e-08,6.13122e-17
0.959975,-0.04,0.21088,0.01,46.8331,0.8,607.153,-607.13,-50.6844,1.1439e-08,-1.14388e-08,-9.54924e-10,609.265,-609.242,3.02531e-06,1.14788e-08,-1.14786e-08,5.69986e-17
0.969975,-0.04,0.220869,0.01,52.6517,0.8,594.874,-595.067,-49.1375,1.12086e-08,-1.12106e-08,-9.25778e-10,596.9,-597.093,0.0170641,1.12468e-08,-1.12487e-08,3.21497e-13
0.979975,-0.04,0.230859,0.01,58.4107,0.8,584.372,-588.231,-48.0274,1.10267e-08,-1.10658e-08,-9.04864e-10,586.336,-590.195,-0.0846455,1.10637e-08,-1.11028e-08,-1.59477e-12
0.989975,-0.04,0.24085,0.01,64.1115,0.8,574.86,-583.932,-47.3924,1.08701e-08,-1.09622e-08,-8.92901e-10,576.794,-585.867,-0.493188,1.09066e-08,-1.09986e-08,-9.29196e-12
-0.990025,-0.03,0.240689,0.01,63.9391,0.45,576.042,-585.153,35.5905,1.08926e-08,-1.0985e-08,6.70546e-10,577.132,-586.243,0.370618,1.09131e-08,-1.10055e-08,6.98266e-12
-0.980025,-0.03,0.230689,0.01,58.2345,0.45,585.595,-589.47,36.0678,1.10498e-08,-1.10891e-08,6.79538e-10,586.701,-590.576,0.0634498,1.10706e-08,-1.11099e-08,1.19543e-12
-0.970025,-0.03,0.220689,0.01,52.4715,0.45,596.142,-596.336,36.9022,1.12325e-08,-1.12345e-08,6.9526e-10,597.283,-597.477,-0.0128624,1.1254e-08,-1.1256e-08,-2.42335e-13
-0.960025,-0.03,0.210689,0.01,46.6489,0.45,608.474,-608.452,38.0651,1.14639e-08,-1.14637e-08,7.17169e-10,609.664,-609.641,-2.28688e-06,1.14863e-08,-1.14861e-08,-4.30862e-17
-0.950025,-0.03,0.200689,0.01,40.7655,0.45,621.313,-621.29,39.2782,1.17058e-08,-1.17056e-08,7.40024e-10,622.553,-622.53,-2.46056e-06,1.17292e-08,-1.17289e-08,-4.63585e-17
-0.940025,-0.03,0.190689,0.01,34.8199,0.45,634.562,-634.538,40.5434,1.19554e-08,-1.19552e-08,7.63861e-10,635.856,-635.831,-2.64911e-06,1.19798e-08,-1.19795e-08,-4.99108e-17
-0.930025,-0.03,0.180689,0.01,28.8108,0.45,648.239,-648.213,41.8635,1.22131e-08,-1.22128e-08,7.88732e-10,649.59,-649.564,-2.85425e-06,1.22385e-08,-1.22383e-08,-5.37758e-17
-0.920025,-0.03,0.170689,0.01,22.737,0.45,662.363,-662.336,43.2415,1.24792e-08,-1.24789e-08,8.14695e-10,663.773,-663.746,-3.07801e-06,1.25057e-08,-1.25055e-08,-5.79915e-17
-0.910025,-0.03,0.160689,0.01,16.5969,0.45,676.952,-676.924,44.6806,1.27541e-08,-1.27538e-08,8.41809e-10,678.425,-678.397,-3.32192e-06,1.27818e-08,-1.27815e-08,-6.2587e-17
-0.900025,-0.03,0.150689,0.01,10.389,0.45,692.029,-691.999,46.1843,1.30381e-08,-1.30378e-08,8.70139e-10,693.568,-693.539,-3.58798e-06,1.30671e-08,-1.30668e-08,-6.75997e-17
-0.890025,-0.03,0.140689,0.01,4.11204,0.45,707.614,-707.583,47.7562,1.33317e-08,-1.33314e-08,8.99754e-10,709.224,-709.193,-3.87854e-06,1.3362e-08,-1.33617e-08,-7.3074e-17
-0.880025,-0.03,0.130689,0.01,-2.23574,0.45,723.731,-723.699,49.4002,1.36354e-08,-1.3635e-08,9.30729e-10,725.415,-725.383,-4.19671e-06,1.36671e-08,-1.36668e-08,-7.90685e-17
-0.870025,-0.03,0.120689,0.01,-8.65589,0.45,740.404,-740.371,51.1205,1.39495e-08,-1.39492e-08,9.6314e-10,742.167,-742.134,-4.54534e-06,1.39827e-08,-1.39824e-08,-8.56369e-17
-0.860025,-0.03,0.110689,0.01,-15.1501,0.45,757.66,-757.625,52.9216,1.42746e-08,-1.42742e-08,9.97074e-10,759.506,-759.471,-4.92708e-06,1.43094e-08,-1.4309e-08,-9.2829e-17
-0.850025,-0.03,0.100689,0.01,-21.7201,0.45,775.525,-775.488,54.8083,1.46112e-08,-1.46108e-08,1.03262e-09,777.459,-777.422,-5.3454e-06,1.46476e-08,-1.46472e-08,-1.0071e-16
-0.840025,-0.03,0.0906893,0.01,-28.3676,0.45,794.028,-793.99,56.7857,1.49598e-08,-1.49594e-08,1.06988e-09,796.056,-796.018,-5.80428e-06,1.4998e-08,-1.49976e-08,-1.09356e-16
-0.830025,-0.03,0.0806893,0.01,-35.0945,0.45,813.201,-813.161,58.8593,1.5321e-08,-1.53206e-08,1.10894e-09,815.329,-815.288,-6.29738e-06,1.53611e-08,-1.53607e-08,-1.18646e-16
-0.820025,-0.03,0.0706893,0.01,-41.9028,0.45,833.076,-833.034,61.0351,1.56955e-08,-1.5695e-08,1.14994e-09,835.309,-835.267,-6.63371e-06,1.57375e-08,-1.57371e-08,-1.24983e-16
-0.810025,-0.03,0.0606893,0.01,-48.7943,0.45,853.688,-853.643,63.3194,1.60838e-08,-1.60833e-08,1.19297e-09,856.033,-855.989,-3.14262e-06,1.6128e-08,-1.61275e-08,-5.92088e-17
-0.800025,-0.03,0.0506893,0.01,-55.7713,0.45,875.072,-875.025,65.7191,1.64867e-08,-1.64862e-08,1.23819e-09,877.537,-877.49,7.67622e-05,1.65331e-08,-1.65326e-08,1.44625e-15
-0.790025,-0.03,0.0406893,0.01,-62.8357,0.45,897.262,-897.203,68.2423,1.69047e-08,-1.69041e-08,1.28572e-09,899.853,-899.795,0.00174328,1.69535e-08,-1.69529e-08,3.28445e-14
-0.780025,-0.03,0.0306893,0.01,-69.9899,0.45,920.059,-919.633,70.9075,1.73326e-08,-1.73283e-08,1.33594e-09,922.787,-922.361,0.0474662,1.7384e-08,-1.73797e-08,8.94291e-13
-0.770025,-0.03,0.0206893,0.01,-77.2361,0.45,940.751,-932.847,72.9135,1.76899e-08,-1.76097e-08,1.37373e-09,943.584,-935.68,-0.191837,1.77433e-08,-1.76631e-08,-3.61433e-12
-0.760025,-0.03,0.0106894,0.01,-84.5764,0.45,958.805,-939.043,74.1202,1.79785e-08,-1.7778e-08,1.39647e-09,961.695,-941.933,-0.906511,1.8033e-08,-1.78325e-08,-1.70792e-11
0.759975,-0.03,0.0106397,0.01,-84.6131,0.45,958.902,-939.129,-74.1346,1.79803e-08,-1.77797e-08,-1.39674e-09,961.793,-942.019,0.904258,1.80348e-08,-1.78342e-08,1.70368e-11
0.769975,-0.03,0.0206396,0.01,-77.2724,0.45,940.871,-932.968,-72.9275,1.76922e-08,-1.7612e-08,-1.374e-09,943.704,-935.802,0.191962,1.77456e-08,-1.76654e-08,3.61667e-12
0.779975,-0.03,0.0306396,0.01,-70.0257,0.45,920.175,-919.75,-70.9213,1.73348e-08,-1.73305e-08,-1.3362e-09,922.904,-922.479,-0.0477184,1.73862e-08,-1.73819e-08,-8.99043e-13
0.789975,-0.03,0.0406396,0.01,-62.8711,0.45,897.374,-897.316,-68.2551,1.69068e-08,-1.69062e-08,-1.28597e-09,899.966,-899.908,-0.00177004,1.69556e-08,-1.6955e-08,-3.33485e-14
0.799975,-0.03,0.0506396,0.01,-55.8062,0.45,875.181,-875.134,-65.7313,1.64887e-08,-1.64882e-08,-1.23842e-09,877.646,-877.599,-7.80363e-05,1.65352e-08,-1.65347e-08,-1.47025e-15
0.809975,-0.03,0.0606395,0.01,-48.8288,0.45,853.792,-853.748,-63.331,1.60857e-08,-1.60853e-08,-1.19319e-09,856.138,-856.093,3.08123e-06,1.61299e-08,-1.61295e-08,5.80522e-17
0.819975,-0.03,0.0706395,0.01,-41.9368,0.45,833.177,-833.135,-61.0462,1.56974e-08,-1.56969e-08,-1.15015e-09,835.41,-835.368,6.63312e-06,1.57394e-08,-1.5739e-08,1.24972e-16
0.829975,-0.03,0.0806395,0.01,-35.1282,0.45,813.298,-813.258,-58.8699,1.53228e-08,-1.53224e-08,-1.10914e-09,815.426,-815.386,6.30002e-06,1.53629e-08,-1.53625e-08,1.18696e-16
0.839975,-0.03,0.0906395,0.01,-28.4008,0.45,794.122,-794.084,-56.7958,1.49616e-08,-1.49612e-08,-1.07006e-09,796.151,-796.112,5.80683e-06,1.49998e-08,-1.49994e-08,1.09404e-16
0.849975,-0.03,0.10064,0.01,-21.7529,0.45,775.615,-775.579,-54.8179,1.46129e-08,-1.46125e-08,-1.0328e-09,777.55,-777.513,5.34746e-06,1.46493e-08,-1.4649e-08,1.00749e-16
0.859975,-0.03,0.11064,0.01,-15.1826,0.45,757.747,-757.712,-52.9308,1.42762e-08,-1.42759e-08,-9.97247e-10,759.594,-759.558,4.92875e-06,1.4311e-08,-1.43107e-08,9.28605e-17
0.869975,-0.03,0.12064,0.01,-8.688,0.45,740.489,-740.455,-51.1293,1.39511e-08,-1.39507e-08,-9.63305e-10,742.252,-742.218,4.54708e-06,1.39843e-08,-1.3984e-08,8.56696e-17
0.879975,-0.03,0.13064,0.01,-2.26749,0.45,723.812,-723.78,-49.4086,1.36369e-08,-1.36366e-08,-9.30886e-10,725.497,-725.465,4.19859e-06,1.36686e-08,-1.36683e-08,7.91039e-17
0.889975,-0.03,0.14064,0.01,4.08065,0.45,707.693,-707.662,-47.7642,1.33332e-08,-1.33329e-08,-8.99905e-10,709.303,-709.272,3.88028e-06,1.33635e-08,-1.33632e-08,7.31067e-17
0.899975,-0.03,0.15064,0.01,10.358,0.45,692.105,-692.076,-46.1919,1.30395e-08,-1.30392e-08,-8.70283e-10,693.645,-693.615,3.58931e-06,1.30685e-08,-1.30682e-08,6.76247e-17
0.909975,-0.03,0.16064,0.01,16.5662,0.45,677.026,-676.998,-44.6879,1.27554e-08,-1.27552e-08,-8.41947e-10,678.499,-678.471,3.3229e-06,1.27832e-08,-1.27829e-08,6.26053e-17
0.919975,-0.03,0.17064,0.01,22.7066,0.45,662.434,-662.407,-43.2485,1.24805e-08,-1.24803e-08,-8.14827e-10,663.844,-663.818,3.07883e-06,1.25071e-08,-1.25068e-08,5.80069e-17
0.929975,-0.03,0.18064,0.01,28.7808,0.45,648.308,-648.283,-41.8702,1.22144e-08,-1.22141e-08,-7.88859e-10,649.659,-649.633,2.85539e-06,1.22398e-08,-1.22396e-08,5.37973e-17
0.939975,-0.03,0.19064,0.01,34.7902,0.45,634.629,-634.605,-40.5498,1.19567e-08,-1.19564e-08,-7.63982e-10,635.923,-635.899,2.65036e-06,1.19811e-08,-1.19808e-08,4.99343e-17
0.949975,-0.03,0.20064,0.01,40.736,0.45,621.378,-621.354,-39.2844,1.1707e-08,-1.17068e-08,-7.40141e-10,622.619,-622.595,2.46181e-06,1.17304e-08,-1.17302e-08,4.6382e-17
0.959975,-0.03,0.21064,0.01,46.6198,0.45,608.537,-608.515,-38.071,1.14651e-08,-1.14649e-08,-7.1728e-10,609.727,-609.704,2.28815e-06,1.14875e-08,-1.14873e-08,4.31101e-17
0.969975,-0.03,0.22064,0.01,52.4427,0.45,596.203,-596.397,-36.9079,1.12337e-08,-1.12356e-08,-6.95366e-10,597.344,-597.538,0.012865,1.12552e-08,-1.12571e-08,2.42385e-13
0.979975,-0.03,0.23064,0.01,58.206,0.45,585.655,-589.53,-36.0733,1.10509e-08,-1.10902e-08,-6.79642e-10,586.761,-590.636,-0.0634625,1.10718e-08,-1.11111e-08,-1.19567e-12
0.989975,-0.03,0.24064,0.01,63.9109,0.45,576.1,-585.212,-35.5959,1.08937e-08,-1.09861e-08,-6.70647e-10,577.19,-586.302,-0.370692,1.09142e-08,-1.10067e-08,-6.98406e-12
-0.990025,-0.02,0.240367,0.01,63.7957,0.2,576.93,-586.069,23.7516,1.09094e-08,-1.10021e-08,4.47494e-10,577.415,-586.554,0.247461,1.09186e-08,-1.10113e-08,4.66231e-12
-0.980025,-0.02,0.230376,0.01,58.0882,0.2,586.513,-590.4,24.0703,1.10671e-08,-1.11066e-08,4.53499e-10,587.005,-590.892,0.0422894,1.10764e-08,-1.11158e-08,7.96757e-13
-0.970025,-0.02,0.220386,0.01,52.3222,0.2,597.093,-597.288,24.6276,1.12504e-08,-1.12524e-08,4.63999e-10,597.601,-597.795,-0.00860697,1.126e-08,-1.1262e-08,-1.6216e-13
-0.960025,-0.02,0.210396,0.01,46.4965,0.2,609.465,-609.443,25.4043,1.14826e-08,-1.14823e-08,4.78631e-10,609.994,-609.972,-1.53358e-06,1.14926e-08,-1.14923e-08,-2.88935e-17
-0.950025,-0.02,0.200408,0.01,40.6098,0.2,622.346,-622.323,26.2145,1.17253e-08,-1.1725e-08,4.93896e-10,622.898,-622.875,-1.65022e-06,1.17357e-08,-1.17354e-08,-3.10911e-17
-0.940025,-0.02,0.190421,0.01,34.6609,0.2,635.64,-635.615,27.0595,1.19757e-08,-1.19755e-08,5.09817e-10,636.216,-636.191,-1.77698e-06,1.19866e-08,-1.19863e-08,-3.34794e-17
-0.930025,-0.02,0.180436,0.01,28.6484,0.2,649.364,-649.338,27.9413,1.22343e-08,-1.2234e-08,5.26429e-10,649.965,-649.939,-1.91515e-06,1.22456e-08,-1.22453e-08,-3.60825e-17
-0.920025,-0.02,0.170452,0.01,22.571,0.2,663.537,-663.51,28.8617,1.25013e-08,-1.2501e-08,5.43771e-10,664.165,-664.138,-2.06559e-06,1.25131e-08,-1.25129e-08,-3.89169e-17
-0.910025,-0.02,0.160471,0.01,16.4272,0.2,678.179,-678.151,29.823,1.27772e-08,-1.27769e-08,5.61883e-10,678.835,-678.806,-2.22946e-06,1.27895e-08,-1.27892e-08,-4.20043e-17
-0.900025,-0.02,0.150492,0.01,10.2156,0.2,693.311,-693.282,30.8275,1.30623e-08,-1.3062e-08,5.80809e-10,693.996,-693.967,-2.40813e-06,1.30752e-08,-1.30749e-08,-4.53706e-17
-0.890025,-0.02,0.140515,0.01,3.93468,0.2,708.955,-708.924,31.8776,1.3357e-08,-1.33567e-08,6.00593e-10,709.671,-709.64,-2.60354e-06,1.33705e-08,-1.33702e-08,-4.90522e-17
-0.880025,-0.02,0.130543,0.01,-2.41715,0.2,725.134,-725.102,32.976,1.36618e-08,-1.36615e-08,6.21287e-10,725.883,-725.851,-2.81771e-06,1.36759e-08,-1.36756e-08,-5.30874e-17
-0.870025,-0.02,0.120575,0.01,-8.84149,0.2,741.873,-741.839,34.1254,1.39772e-08,-1.39768e-08,6.42942e-10,742.657,-742.623,-3.05226e-06,1.39919e-08,-1.39916e-08,-5.75064e-17
-0.860025,-0.02,0.110612,0.01,-15.34,0.2,759.197,-759.162,35.3288,1.43036e-08,-1.43032e-08,6.65615e-10,760.019,-759.984,-3.30914e-06,1.4319e-08,-1.43187e-08,-6.2346e-17
-0.850025,-0.02,0.100657,0.01,-21.9145,0.2,777.136,-777.099,36.5894,1.46415e-08,-1.46412e-08,6.89366e-10,777.997,-777.96,-3.59101e-06,1.46578e-08,-1.46574e-08,-6.76567e-17
-0.840025,-0.02,0.0907126,0.01,-28.5667,0.2,795.718,-795.679,37.9108,1.49916e-08,-1.49912e-08,7.14261e-10,796.62,-796.582,-3.90104e-06,1.50086e-08,-1.50082e-08,-7.34978e-17
-0.830025,-0.02,0.0807813,0.01,-35.2984,0.2,814.973,-814.933,39.2965,1.53544e-08,-1.5354e-08,7.40369e-10,815.92,-815.88,-4.25127e-06,1.53722e-08,-1.53718e-08,-8.00963e-17
-0.820025,-0.02,0.0708693,0.01,-42.1117,0.2,834.936,-834.894,40.7506,1.57305e-08,-1.57301e-08,7.67764e-10,835.93,-835.888,-4.79852e-06,1.57492e-08,-1.57488e-08,-9.04069e-17
-0.810025,-0.02,0.0609861,0.01,-49.0084,0.2,855.641,-855.596,42.2773,1.61206e-08,-1.61201e-08,7.96528e-10,856.685,-856.64,-8.35844e-06,1.61402e-08,-1.61398e-08,-1.57478e-16
-0.800025,-0.02,0.0511483,0.01,-55.9907,0.2,877.126,-877.079,43.8811,1.65254e-08,-1.65249e-08,8.26746e-10,878.223,-878.176,-6.95689e-05,1.6546e-08,-1.65456e-08,-1.31072e-15
-0.790025,-0.02,0.0413883,0.01,-63.0608,0.2,899.438,-899.399,45.5666,1.69458e-08,-1.69454e-08,8.58502e-10,900.592,-900.553,-0.00132403,1.69675e-08,-1.69671e-08,-2.49455e-14
-0.780025,-0.02,0.0317779,0.01,-70.2207,0.2,922.406,-921.862,47.3297,1.73763e-08,-1.73708e-08,8.91719e-10,923.62,-923.076,0.0111473,1.73992e-08,-1.73937e-08,2.10021e-13
-0.770025,-0.02,0.0225096,0.01,-77.473,0.2,943.248,-934.998,48.7022,1.77355e-08,-1.76518e-08,9.17578e-10,944.51,-936.26,-0.11461,1.77593e-08,-1.76755e-08,-2.15932e-12
-0.760025,-0.02,0.0142663,0.01,-84.8203,0.2,964.986,-946.368,49.5096,1.80999e-08,-1.79111e-08,9.32789e-10,966.267,-947.65,-0.821274,1.81241e-08,-1.79352e-08,-1.54733e-11
0.759975,-0.02,0.0142309,0.01,-84.8571,0.2,965.142,-946.531,-49.5194,1.81029e-08,-1.79141e-08,-9.32975e-10,966.423,-947.813,0.823136,1.81271e-08,-1.79383e-08,1.55084e-11
0.769975,-0.02,0.0224651,0.01,-77.5093,0.2,943.371,-935.117,-48.7118,1.77378e-08,-1.7654e-08,-9.17758e-10,944.633,-936.379,0.114483,1.77615e-08,-1.76778e-08,2.15692e-12
0.779975,-0.02,0.0317307,0.01,-70.2566,0.2,922.524,-921.979,-47.3386,1.73785e-08,-1.7373e-08,-8.91887e-10,923.738,-923.194,-0.0109998,1.74014e-08,-1.73959e-08,-2.07243e-13
0.789975,-0.02,0.0413401,0.01,-63.0961,0.2,899.551,-899.513,-45.5752,1.69479e-08,-1.69475e-08,-8.58664e-10,900.705,-900.667,0.0013443,1.69696e-08,-1.69692e-08,2.53273e-14
0.799975,-0.02,0.0510995,0.01,-56.0257,0.2,877.235,-877.188,-43.8893,1.65274e-08,-1.65269e-08,-8.269e-10,878.332,-878.285,7.0531e-05,1.65481e-08,-1.65476e-08,1.32884e-15
0.809975,-0.02,0.060937,0.01,-49.0429,0.2,855.746,-855.701,-42.285,1.61226e-08,-1.61221e-08,-7.96675e-10,856.79,-856.745,8.40951e-06,1.61422e-08,-1.61418e-08,1.5844e-16
0.819975,-0.02,0.0708201,0.01,-42.1457,0.2,835.037,-834.995,-40.758,1.57324e-08,-1.5732e-08,-7.67904e-10,836.031,-835.989,4.80309e-06,1.57511e-08,-1.57507e-08,9.04929e-17
0.829975,-0.02,0.0807319,0.01,-35.3321,0.2,815.071,-815.03,-39.3035,1.53562e-08,-1.53558e-08,-7.40502e-10,816.018,-815.977,4.25313e-06,1.53741e-08,-1.53737e-08,8.01315e-17
0.839975,-0.02,0.0906631,0.01,-28.5999,0.2,795.812,-795.773,-37.9175,1.49934e-08,-1.4993e-08,-7.14388e-10,796.715,-796.676,3.90253e-06,1.50104e-08,-1.501e-08,7.35259e-17
0.849975,-0.02,0.100608,0.01,-21.9474,0.2,777.227,-777.19,-36.5958,1.46432e-08,-1.46429e-08,-6.89487e-10,778.088,-778.051,3.59218e-06,1.46595e-08,-1.46591e-08,6.76788e-17
0.859975,-0.02,0.110563,0.01,-15.3725,0.2,759.285,-759.25,-35.3349,1.43052e-08,-1.43049e-08,-6.6573e-10,760.107,-760.072,3.31035e-06,1.43207e-08,-1.43203e-08,6.23688e-17
0.869975,-0.02,0.120525,0.01,-8.87362,0.2,741.957,-741.924,-34.1312,1.39788e-08,-1.39784e-08,-6.43052e-10,742.742,-742.708,3.0535e-06,1.39935e-08,-1.39932e-08,5.75298e-17
0.879975,-0.02,0.130493,0.01,-2.44892,0.2,725.216,-725.183,-32.9816,1.36633e-08,-1.3663e-08,-6.21392e-10,725.965,-725.933,2.81881e-06,1.36775e-08,-1.36771e-08,5.3108e-17
0.889975,-0.02,0.140466,0.01,3.90327,0.2,709.034,-709.003,-31.883,1.33585e-08,-1.33582e-08,-6.00694e-10,709.75,-709.72,2.60474e-06,1.3372e-08,-1.33717e-08,4.90749e-17
0.899975,-0.02,0.150442,0.01,10.1845,0.2,693.388,-693.358,-30.8326,1.30637e-08,-1.30634e-08,-5.80905e-10,694.073,-694.043,2.40932e-06,1.30766e-08,-1.30763e-08,4.53929e-17
0.909975,-0.02,0.160421,0.01,16.3965,0.2,678.253,-678.225,-29.8279,1.27786e-08,-1.27783e-08,-5.61976e-10,678.909,-678.881,2.2302e-06,1.27909e-08,-1.27906e-08,4.20182e-17
0.919975,-0.02,0.170403,0.01,22.5406,0.2,663.609,-663.582,-28.8664,1.25027e-08,-1.25024e-08,-5.4386e-10,664.236,-664.209,2.06606e-06,1.25145e-08,-1.25142e-08,3.89258e-17
0.929975,-0.02,0.180386,0.01,28.6183,0.2,649.433,-649.408,-27.9457,1.22356e-08,-1.22353e-08,-5.26514e-10,650.034,-650.009,1.9157e-06,1.22469e-08,-1.22467e-08,3.6093e-17
0.939975,-0.02,0.190372,0.01,34.6311,0.2,635.707,-635.682,-27.0638,1.1977e-08,-1.19767e-08,-5.09898e-10,636.283,-636.258,1.77772e-06,1.19878e-08,-1.19876e-08,3.34933e-17
0.949975,-0.02,0.200359,0.01,40.5804,0.2,622.411,-622.388,-26.2186,1.17265e-08,-1.17262e-08,-4.93974e-10,622.963,-622.94,1.6511e-06,1.17369e-08,-1.17366e-08,3.11078e-17
0.959975,-0.02,0.210347,0.01,46.4673,0.2,609.528,-609.506,-25.4082,1.14838e-08,-1.14835e-08,-4.78706e-10,610.058,-610.035,1.53479e-06,1.14937e-08,-1.14935e-08,2.89164e-17
0.969975,-0.02,0.220336,0.01,52.2934,0.2,597.154,-597.349,-24.6314,1.12516e-08,-1.12536e-08,-4.6407e-10,597.662,-597.856,0.00860872,1.12611e-08,-1.12631e-08,1.62193e-13
0.979975,-0.02,0.230326,0.01,58.0597,0.2,586.572,-590.46,-24.074,1.10683e-08,-1.11077e-08,-4.53568e-10,587.065,-590.952,-0.0422979,1.10775e-08,-1.1117e-08,-7.96916e-13
0.989975,-0.02,0.240317,0.01,63.7675,0.2,576.988,-586.129,-23.7552,1.09105e-08,-1.10033e-08,-4.47562e-10,577.473,-586.614,-0.247511,1.09197e-08,-1.10124e-08,-4.66325e-12
-0.990025,-0.01,0.240158,0.01,63.7097,0.05,577.463,-586.62,11.8832,1.09196e-08,-1.10124e-08,2.23886e-10,577.585,-586.741,0.123846,1.09218e-08,-1.10147e-08,2.33332e-12
-0.980025,-0.01,0.230158,0.01,58.0004,0.05,587.064,-590.958,12.0427,1.10776e-08,-1.11171e-08,2.26892e-10,587.187,-591.082,0.0211415,1.10799e-08,-1.11194e-08,3.98318e-13
-0.970025,-0.01,0.220158,0.01,52.2325,0.05,597.665,-597.859,12.3217,1.12612e-08,-1.12632e-08,2.32147e-10,597.792,-597.986,-0.00431311,1.12636e-08,-1.12656e-08,-8.12616e-14
-0.960025,-0.01,0.210158,0.01,46.4049,0.05,610.061,-610.038,12.7104,1.14938e-08,-1.14936e-08,2.39471e-10,610.193,-610.17,-7.69751e-07,1.14963e-08,-1.14961e-08,-1.45026e-17
-0.950025,-0.01,0.200158,0.01,40.5163,0.05,622.967,-622.943,13.116,1.1737e-08,-1.17367e-08,2.47112e-10,623.105,-623.082,-8.28095e-07,1.17396e-08,-1.17393e-08,-1.56018e-17
-0.940025,-0.01,0.190158,0.01,34.5654,0.05,636.288,-636.263,13.5389,1.19879e-08,-1.19877e-08,2.55082e-10,636.432,-636.407,-8.91893e-07,1.19906e-08,-1.19904e-08,-1.68038e-17
-0.930025,-0.01,0.180158,0.01,28.5509,0.05,650.04,-650.014,13.9803,1.2247e-08,-1.22468e-08,2.63397e-10,650.19,-650.164,-9.61305e-07,1.22499e-08,-1.22496e-08,-1.81115e-17
-0.920025,-0.01,0.170158,0.01,22.4713,0.05,664.243,-664.216,14.4411,1.25146e-08,-1.25143e-08,2.72078e-10,664.4,-664.373,-1.03676e-06,1.25176e-08,-1.25173e-08,-1.95332e-17
-0.910025,-0.01,0.160158,0.01,16.3254,0.05,678.917,-678.888,14.9223,1.27911e-08,-1.27908e-08,2.81145e-10,679.081,-679.052,-1.11923e-06,1.27941e-08,-1.27939e-08,-2.10869e-17
-0.900025,-0.01,0.150158,0.01,10.1115,0.05,694.082,-694.052,15.4252,1.30768e-08,-1.30765e-08,2.90619e-10,694.253,-694.224,-1.20914e-06,1.308e-08,-1.30797e-08,-2.27808e-17
-0.890025,-0.01,0.140158,0.01,3.82821,0.05,709.761,-709.73,15.9509,1.33722e-08,-1.33719e-08,3.00524e-10,709.94,-709.909,-1.3072e-06,1.33755e-08,-1.33752e-08,-2.46283e-17
-0.880025,-0.01,0.130158,0.01,-2.52605,0.05,725.977,-725.945,16.5008,1.36777e-08,-1.36774e-08,3.10884e-10,726.164,-726.132,-1.41467e-06,1.36812e-08,-1.36809e-08,-2.66531e-17
-0.870025,-0.01,0.120158,0.01,-8.95291,0.05,742.755,-742.721,17.0762,1.39938e-08,-1.39934e-08,3.21726e-10,742.951,-742.918,-1.53249e-06,1.39975e-08,-1.39971e-08,-2.8873e-17
-0.860025,-0.01,0.110158,0.01,-15.454,0.05,760.122,-760.086,17.6787,1.4321e-08,-1.43206e-08,3.33077e-10,760.327,-760.292,-1.66179e-06,1.43249e-08,-1.43245e-08,-3.13091e-17
-0.850025,-0.01,0.100158,0.01,-22.0312,0.05,778.105,-778.068,18.3099,1.46598e-08,-1.46594e-08,3.44969e-10,778.32,-778.283,-1.80377e-06,1.46638e-08,-1.46635e-08,-3.3984e-17
-0.840025,-0.01,0.0901578,0.01,-28.6862,0.05,796.733,-796.694,18.9715,1.50107e-08,-1.50104e-08,3.57434e-10,796.959,-796.92,-1.95909e-06,1.5015e-08,-1.50146e-08,-3.69104e-17
-0.830025,-0.01,0.0801578,0.01,-35.4208,0.05,816.039,-815.998,19.6654,1.53745e-08,-1.53741e-08,3.70507e-10,816.276,-816.235,-2.12453e-06,1.53789e-08,-1.53785e-08,-4.00274e-17
-0.820025,-0.01,0.0701578,0.01,-42.2371,0.05,836.054,-836.012,20.3935,1.57516e-08,-1.57511e-08,3.84225e-10,836.303,-836.26,-2.21832e-06,1.57562e-08,-1.57558e-08,-4.17945e-17
-0.810025,-0.01,0.0601578,0.01,-49.1369,0.05,856.816,-856.771,21.158,1.61427e-08,-1.61422e-08,3.98628e-10,857.077,-857.032,-7.16608e-07,1.61476e-08,-1.61472e-08,-1.35013e-17
-0.800025,-0.01,0.0501578,0.01,-56.1225,0.05,878.359,-878.311,21.9612,1.65486e-08,-1.65481e-08,4.13761e-10,878.634,-878.586,3.17284e-05,1.65538e-08,-1.65533e-08,5.97782e-16
-0.790025,-0.01,0.0401578,0.01,-63.1959,0.05,900.717,-900.656,22.8058,1.69698e-08,-1.69691e-08,4.29675e-10,901.005,-900.944,0.000695709,1.69752e-08,-1.69746e-08,1.31076e-14
-0.780025,-0.01,0.0301578,0.01,-70.3593,0.05,923.685,-923.267,23.699,1.74009e-08,-1.73967e-08,4.46503e-10,923.989,-923.571,0.0169915,1.74067e-08,-1.74024e-08,3.20129e-13
-0.770025,-0.01,0.0201578,0.01,-77.6152,0.05,944.528,-936.604,24.3698,1.7761e-08,-1.76806e-08,4.59141e-10,944.844,-936.919,-0.0638145,1.7767e-08,-1.76866e-08,-1.2023e-12
-0.760025,-0.01,0.0101578,0.01,-84.9655,0.05,962.426,-942.439,24.7742,1.80458e-08,-1.7843e-08,4.6676e-10,962.748,-942.761,-0.293249,1.80518e-08,-1.78491e-08,-5.52497e-12
0.759975,-0.01,0.010108,0.01,-85.0022,0.05,962.519,-942.519,-24.779,1.80475e-08,-1.78446e-08,-4.66851e-10,962.842,-942.841,0.292329,1.80535e-08,-1.78506e-08,5.50765e-12
0.769975,-0.01,0.020108,0.01,-77.6515,0.05,944.649,-936.726,-24.3745,1.77633e-08,-1.76829e-08,-4.59229e-10,944.965,-937.042,0.0638494,1.77692e-08,-1.76889e-08,1.20296e-12
0.779975,-0.01,0.030108,0.01,-70.3952,0.05,923.802,-923.386,-23.7036,1.74032e-08,-1.73989e-08,-4.4659e-10,924.106,-923.69,-0.0170931,1.74089e-08,-1.74047e-08,-3.22044e-13
0.789975,-0.01,0.040108,0.01,-63.2313,0.05,900.83,-900.769,-22.8101,1.69719e-08,-1.69713e-08,-4.29756e-10,901.119,-901.058,-0.000706329,1.69773e-08,-1.69767e-08,-1.33077e-14
0.799975,-0.01,0.050108,0.01,-56.1574,0.05,878.468,-878.421,-21.9653,1.65506e-08,-1.65502e-08,-4.13838e-10,878.743,-878.695,-3.2241e-05,1.65558e-08,-1.65553e-08,-6.07439e-16
0.809975,-0.01,0.060108,0.01,-49.1715,0.05,856.921,-856.876,-21.1619,1.61447e-08,-1.61442e-08,-3.98702e-10,857.182,-857.137,6.91702e-07,1.61496e-08,-1.61492e-08,1.30321e-17
0.819975,-0.01,0.070108,0.01,-42.2712,0.05,836.156,-836.113,-20.3972,1.57535e-08,-1.5753e-08,-3.84295e-10,836.405,-836.362,2.21799e-06,1.57582e-08,-1.57577e-08,4.17882e-17
0.829975,-0.01,0.080108,0.01,-35.4545,0.05,816.136,-816.096,-19.6689,1.53763e-08,-1.53759e-08,-3.70573e-10,816.373,-816.333,2.12537e-06,1.53808e-08,-1.53804e-08,4.00431e-17
0.839975,-0.01,0.090108,0.01,-28.7195,0.05,796.827,-796.789,-18.9749,1.50125e-08,-1.50121e-08,-3.57498e-10,797.053,-797.014,1.95965e-06,1.50168e-08,-1.50164e-08,3.69209e-17
0.849975,-0.01,0.100108,0.01,-22.0641,0.05,778.196,-778.159,-18.3131,1.46615e-08,-1.46611e-08,-3.4503e-10,778.411,-778.374,1.80423e-06,1.46656e-08,-1.46652e-08,3.39928e-17
0.859975,-0.01,0.110108,0.01,-15.4866,0.05,760.21,-760.174,-17.6818,1.43226e-08,-1.43223e-08,-3.33135e-10,760.415,-760.38,1.66251e-06,1.43265e-08,-1.43262e-08,3.13226e-17
0.869975,-0.01,0.120108,0.01,-8.98505,0.05,742.84,-742.806,-17.0791,1.39954e-08,-1.3995e-08,-3.21781e-10,743.036,-743.003,1.53334e-06,1.39991e-08,-1.39987e-08,2.88891e-17
0.879975,-0.01,0.130108,0.01,-2.55783,0.05,726.059,-726.027,-16.5036,1.36792e-08,-1.36789e-08,-3.10937e-10,726.246,-726.214,1.41529e-06,1.36828e-08,-1.36824e-08,2.66648e-17
0.889975,-0.01,0.140108,0.01,3.79679,0.05,709.84,-709.809,-15.9536,1.33737e-08,-1.33733e-08,-3.00575e-10,710.019,-709.988,1.30772e-06,1.3377e-08,-1.33767e-08,2.46381e-17
0.899975,-0.01,0.150108,0.01,10.0804,0.05,694.158,-694.129,-15.4277,1.30782e-08,-1.30779e-08,-2.90668e-10,694.33,-694.3,1.20952e-06,1.30814e-08,-1.30811e-08,2.27881e-17
0.909975,-0.01,0.160108,0.01,16.2946,0.05,678.991,-678.963,-14.9248,1.27925e-08,-1.27922e-08,-2.81191e-10,679.155,-679.127,1.11967e-06,1.27955e-08,-1.27953e-08,2.10953e-17
0.919975,-0.01,0.170108,0.01,22.4409,0.05,664.315,-664.288,-14.4434,1.2516e-08,-1.25157e-08,-2.72123e-10,664.472,-664.445,1.03744e-06,1.25189e-08,-1.25186e-08,1.95459e-17
0.929975,-0.01,0.180108,0.01,28.5208,0.05,650.11,-650.084,-13.9826,1.22483e-08,-1.22481e-08,-2.6344e-10,650.26,-650.234,9.61857e-07,1.22512e-08,-1.22509e-08,1.81219e-17
0.939975,-0.01,0.190108,0.01,34.5357,0.05,636.355,-636.33,-13.5411,1.19892e-08,-1.19889e-08,-2.55122e-10,636.499,-636.474,8.92109e-07,1.19919e-08,-1.19917e-08,1.68078e-17
0.949975,-0.01,0.200108,0.01,40.4869,0.05,623.032,-623.009,-13.118,1.17382e-08,-1.17379e-08,-2.47151e-10,623.171,-623.147,8.28283e-07,1.17408e-08,-1.17405e-08,1.56053e-17
0.959975,-0.01,0.210108,0.01,46.3758,0.05,610.124,-610.101,-12.7124,1.1495e-08,-1.14948e-08,-2.39509e-10,610.256,-610.233,7.70386e-07,1.14975e-08,-1.14973e-08,1.45145e-17
0.969975,-0.01,0.220108,0.01,52.2037,0.05,597.726,-597.921,-12.3236,1.12623e-08,-1.12643e-08,-2.32183e-10,597.853,-598.048,0.00431399,1.12647e-08,-1.12667e-08,8.12781e-14
0.979975,-0.01,0.230108,0.01,57.9719,0.05,587.124,-591.019,-12.0446,1.10787e-08,-1.11182e-08,-2.26927e-10,587.247,-591.142,-0.0211458,1.1081e-08,-1.11205e-08,-3.98398e-13
0.989975,-0.01,0.240108,0.01,63.6814,0.05,577.522,-586.679,-11.885,1.09207e-08,-1.10136e-08,-2.2392e-10,577.643,-586.8,-0.12387,1.09229e-08,-1.10158e-08,-2.33379e-12
-0.990025,0,0.240365,0.01,63.681,0,577.641,-586.803,5.27212e-10,1.09229e-08,-1.10159e-08,9.93297e-21,577.641,-586.803,5.27354e-10,1.09229e-08,-1.10159e-08,9.93566e-21
-0.980025,0,0.230374,0.01,57.9711,0,587.248,-591.145,8.25221e-11,1.1081e-08,-1.11206e-08,1.55476e-21,587.248,-591.145,8.26664e-11,1.1081e-08,-1.11206e-08,1.55748e-21
-0.970025,0,0.220384,0.01,52.2027,0,597.855,-598.05,-2.14564e-10,1.12648e-08,-1.12668e-08,-4.04252e-21,597.855,-598.05,-2.14418e-10,1.12648e-08,-1.12668e-08,-4.03976e-21
-0.960025,0,0.210395,0.01,46.3744,0,610.259,-610.236,-7.3898e-11,1.14975e-08,-1.14973e-08,-1.39228e-21,610.259,-610.236,-7.37485e-11,1.14975e-08,-1.14973e-08,-1.38946e-21
-0.950025,0,0.200407,0.01,40.4852,0,623.174,-623.151,-6.40447e-11,1.17409e-08,-1.17406e-08,-1.20664e-21,623.174,-623.151,-6.38921e-11,1.17409e-08,-1.17406e-08,-1.20376e-21
-0.940025,0,0.19042,0.01,34.5336,0,636.504,-636.479,-2.82515e-10,1.1992e-08,-1.19917e-08,-5.32275e-21,636.504,-636.479,-2.82359e-10,1.1992e-08,-1.19917e-08,-5.31981e-21
-0.930025,0,0.180434,0.01,28.5184,0,650.266,-650.24,-3.97795e-11,1.22513e-08,-1.2251e-08,-7.49469e-22,650.266,-650.24,-3.96203e-11,1.22513e-08,-1.2251e-08,-7.46469e-22
-0.920025,0,0.17045,0.01,22.4381,0,664.478,-664.451,1.65412e-10,1.2519e-08,-1.25188e-08,3.11646e-21,664.478,-664.451,1.65575e-10,1.2519e-08,-1.25188e-08,3.11953e-21
-0.910025,0,0.160469,0.01,16.2914,0,679.163,-679.134,-8.91102e-11,1.27957e-08,-1.27954e-08,-1.67889e-21,679.163,-679.134,-8.89438e-11,1.27957e-08,-1.27954e-08,-1.67575e-21
-0.900025,0,0.150489,0.01,10.0768,0,694.339,-694.309,-2.58838e-10,1.30816e-08,-1.30813e-08,-4.87665e-21,694.339,-694.309,-2.58668e-10,1.30816e-08,-1.30813e-08,-4.87345e-21
-0.890025,0,0.140513,0.01,3.79271,0,710.029,-709.999,1.20002e-10,1.33772e-08,-1.33769e-08,2.26091e-21,710.029,-709.999,1.20176e-10,1.33772e-08,-1.33769e-08,2.26419e-21
-0.880025,0,0.13054,0.01,-2.56236,0,726.258,-726.226,3.09193e-10,1.3683e-08,-1.36827e-08,5.82538e-21,726.258,-726.226,3.09371e-10,1.3683e-08,-1.36827e-08,5.82874e-21
-0.870025,0,0.120572,0.01,-8.99006,0,743.05,-743.016,2.57351e-10,1.39993e-08,-1.3999e-08,4.84864e-21,743.05,-743.016,2.57533e-10,1.39993e-08,-1.3999e-08,4.85207e-21
-0.860025,0,0.110609,0.01,-15.4921,0,760.43,-760.395,2.45297e-10,1.43268e-08,-1.43264e-08,4.62155e-21,760.43,-760.395,2.45484e-10,1.43268e-08,-1.43264e-08,4.62506e-21
-0.850025,0,0.100654,0.01,-22.0701,0,778.428,-778.391,-3.4681e-11,1.46659e-08,-1.46655e-08,-6.5341e-22,778.428,-778.391,-3.44904e-11,1.46659e-08,-1.46655e-08,-6.49818e-22
-0.840025,0,0.0907087,0.01,-28.726,0,797.072,-797.033,-2.49417e-10,1.50171e-08,-1.50167e-08,-4.69916e-21,797.072,-797.033,-2.49222e-10,1.50171e-08,-1.50167e-08,-4.69548e-21
-0.830025,0,0.080777,0.01,-35.4616,0,816.394,-816.353,-1.78784e-10,1.53812e-08,-1.53807e-08,-3.36839e-21,816.394,-816.353,-1.78584e-10,1.53812e-08,-1.53807e-08,-3.36462e-21
-0.820025,0,0.0708644,0.01,-42.2789,0,836.428,-836.385,6.42711e-11,1.57586e-08,-1.57582e-08,1.2109e-21,836.428,-836.385,6.4476e-11,1.57586e-08,-1.57582e-08,1.21476e-21
-0.810025,0,0.0609804,0.01,-49.1798,0,857.207,-857.162,3.86375e-10,1.61501e-08,-1.61496e-08,7.27953e-21,857.207,-857.162,3.86585e-10,1.61501e-08,-1.61496e-08,7.28349e-21
-0.800025,0,0.0511415,0.01,-56.1664,0,878.772,-878.725,4.90717e-10,1.65564e-08,-1.65559e-08,9.2454e-21,878.772,-878.725,4.90932e-10,1.65564e-08,-1.65559e-08,9.24945e-21
-0.790025,0,0.0413799,0.01,-63.2409,0,901.17,-901.132,2.02432e-10,1.69784e-08,-1.6978e-08,3.81394e-21,901.17,-901.132,2.02653e-10,1.69784e-08,-1.6978e-08,3.8181e-21
-0.780025,0,0.031767,0.01,-70.4055,0,924.232,-923.681,-1.64157e-10,1.74107e-08,-1.74051e-08,-3.09281e-21,924.232,-923.681,-1.63931e-10,1.74107e-08,-1.74051e-08,-3.08855e-21
-0.770025,0,0.0224942,0.01,-77.6626,0,945.164,-936.865,-3.87565e-10,1.77714e-08,-1.76872e-08,-7.30194e-21,945.164,-936.865,-3.87334e-10,1.77714e-08,-1.76872e-08,-7.2976e-21
-0.760025,0,0.014242,0.01,-85.015,0,967.153,-948.503,-3.46264e-10,1.81406e-08,-1.79514e-08,-6.52381e-21,967.153,-948.503,-3.46029e-10,1.81406e-08,-1.79514e-08,-6.51939e-21
0.759975,0,0.0142066,0.01,-85.0518,0,967.313,-948.67,2.3536e-10,1.81437e-08,-1.79545e-08,4.43433e-21,967.313,-948.67,2.3536e-10,1.81437e-08,-1.79545e-08,4.43433e-21
0.769975,0,0.0224497,0.01,-77.699,0,945.287,-936.985,1.85355e-10,1.77737e-08,-1.76894e-08,3.49219e-21,945.287,-936.985,1.85355e-10,1.77737e-08,-1.76894e-08,3.49219e-21
0.779975,0,0.0317198,0.01,-70.4414,0,924.35,-923.799,-1.5531e-10,1.74129e-08,-1.74073e-08,-2.92614e-21,924.35,-923.799,-1.5531e-10,1.74129e-08,-1.74073e-08,-2.92614e-21
0.789975,0,0.0413317,0.01,-63.2763,0,901.284,-901.246,-2.50443e-10,1.69805e-08,-1.69802e-08,-4.71849e-21,901.284,-901.246,-2.50443e-10,1.69805e-08,-1.69802e-08,-4.71849e-21
0.799975,0,0.0510927,0.01,-56.2014,0,878.881,-878.834,-1.08445e-10,1.65584e-08,-1.6558e-08,-2.04316e-21,878.881,-878.834,-1.08445e-10,1.65584e-08,-1.6558e-08,-2.04316e-21
0.809975,0,0.0609314,0.01,-49.2143,0,857.313,-857.268,7.94182e-12,1.61521e-08,-1.61516e-08,1.49628e-22,857.313,-857.268,7.94182e-12,1.61521e-08,-1.61516e-08,1.49628e-22
0.819975,0,0.0708152,0.01,-42.313,0,836.529,-836.486,2.09302e-11,1.57605e-08,-1.57601e-08,3.94337e-22,836.529,-836.486,2.09302e-11,1.57605e-08,-1.57601e-08,3.94337e-22
0.829975,0,0.0807276,0.01,-35.4953,0,816.492,-816.451,-2.54576e-11,1.5383e-08,-1.53826e-08,-4.79636e-22,816.492,-816.451,-2.54576e-11,1.5383e-08,-1.53826e-08,-4.79636e-22
0.839975,0,0.0906593,0.01,-28.7593,0,797.166,-797.127,-7.57304e-11,1.50189e-08,-1.50185e-08,-1.42681e-21,797.166,-797.127,-7.57304e-11,1.50189e-08,-1.50185e-08,-1.42681e-21
0.849975,0,0.100605,0.01,-22.103,0,778.519,-778.482,-2.05474e-10,1.46676e-08,-1.46672e-08,-3.87124e-21,778.519,-778.482,-2.05474e-10,1.46676e-08,-1.46672e-08,-3.87124e-21
0.859975,0,0.11056,0.01,-15.5246,0,760.518,-760.483,-1.09762e-10,1.43284e-08,-1.43281e-08,-2.06799e-21,760.518,-760.483,-1.09762e-10,1.43284e-08,-1.43281e-08,-2.06799e-21
0.869975,0,0.120522,0.01,-9.02221,0,743.135,-743.101,1.56414e-10,1.40009e-08,-1.40006e-08,2.94693e-21,743.135,-743.101,1.56414e-10,1.40009e-08,-1.40006e-08,2.94693e-21
0.879975,0,0.13049,0.01,-2.59414,0,726.34,-726.308,2.62033e-10,1.36845e-08,-1.36842e-08,4.93685e-21,726.34,-726.308,2.62033e-10,1.36845e-08,-1.36842e-08,4.93685e-21
0.889975,0,0.140463,0.01,3.76128,0,710.109,-710.078,4.87931e-11,1.33787e-08,-1.33784e-08,9.1929e-22,710.109,-710.078,4.87931e-11,1.33787e-08,-1.33784e-08,9.1929e-22
0.899975,0,0.15044,0.01,10.0457,0,694.416,-694.386,-1.85858e-10,1.30831e-08,-1.30828e-08,-3.50168e-21,694.416,-694.386,-1.85858e-10,1.30831e-08,-1.30828e-08,-3.50168e-21
0.909975,0,0.160419,0.01,16.2607,0,679.237,-679.209,-2.10658e-10,1.27971e-08,-1.27968e-08,-3.96892e-21,679.237,-679.209,-2.10658e-10,1.27971e-08,-1.27968e-08,-3.96892e-21
0.919975,0,0.170401,0.01,22.4077,0,664.55,-664.523,-3.86499e-11,1.25204e-08,-1.25201e-08,-7.28186e-22,664.55,-664.523,-3.86499e-11,1.25204e-08,-1.25201e-08,-7.28186e-22
0.929975,0,0.180384,0.01,28.4883,0,650.335,-650.309,2.87025e-10,1.22526e-08,-1.22523e-08,5.40771e-21,650.335,-650.309,2.87025e-10,1.22526e-08,-1.22523e-08,5.40771e-21
0.939975,0,0.19037,0.01,34.5038,0,636.571,-636.546,2.23131e-10,1.19933e-08,-1.1993e-08,4.20391e-21,636.571,-636.546,2.23131e-10,1.19933e-08,-1.1993e-08,4.20391e-21
0.949975,0,0.200357,0.01,40.4557,0,623.24,-623.216,-1.38557e-10,1.17421e-08,-1.17419e-08,-2.6105e-21,623.24,-623.216,-1.38557e-10,1.17421e-08,-1.17419e-08,-2.6105e-21
0.959975,0,0.210345,0.01,46.3453,0,610.322,-610.3,-1.18253e-10,1.14987e-08,-1.14985e-08,-2.22795e-21,610.322,-610.3,-1.18253e-10,1.14987e-08,-1.14985e-08,-2.22795e-21
0.969975,0,0.220334,0.01,52.1738,0,597.917,-598.111,8.16223e-11,1.12659e-08,-1.12679e-08,1.53781e-21,597.917,-598.111,8.16223e-11,1.12659e-08,-1.12679e-08,1.53781e-21
0.979975,0,0.230324,0.01,57.9426,0,587.308,-591.205,8.7191e-12,1.10822e-08,-1.11217e-08,1.64273e-22,587.308,-591.205,8.7191e-12,1.10822e-08,-1.11217e-08,1.64273e-22
0.989975,0,0.240315,0.01,63.6528,0,577.7,-586.863,-1.20909e-10,1.0924e-08,-1.1017e-08,-2.278e-21,577.7,-586.863,-1.20909e-10,1.0924e-08,-1.1017e-08,-2.278e-21
-0.990025,0.01,0.240158,0.01,63.7097,0.05,577.463,-586.62,-11.8832,1.09196e-08,-1.10124e-08,-2.23886e-10,577.585,-586.741,-0.123846,1.09218e-08,-1.10147e-08,-2.33332e-12
-0.980025,0.01,0.230158,0.01,58.0004,0.05,587.064,-590.958,-12.0427,1.10776e-08,-1.11171e-08,-2.26892e-10,587.187,-591.082,-0.0211415,1.10799e-08,-1.11194e-08,-3.98318e-13
-0.970025,0.01,0.220158,0.01,52.2325,0.05,597.665,-597.859,-12.3217,1.12612e-08,-1.12632e-08,-2.32147e-10,597.792,-597.986,0.00431311,1.12636e-08,-1.12656e-08,8.12616e-14
-0.960025,0.01,0.210158,0.01,46.4049,0.05,610.061,-610.038,-12.7104,1.14938e-08,-1.14936e-08,-2.39471e-10,610.193,-610.17,7.69829e-07,1.14963e-08,-1.14961e-08,1.4504e-17
-0.950025,0.01,0.200158,0.01,40.5163,0.05,622.967,-622.943,-13.116,1.1737e-08,-1.17367e-08,-2.47112e-10,623.105,-623.082,8.27967e-07,1.17396e-08,-1.17393e-08,1.55994e-17
-0.940025,0.01,0.190158,0.01,34.5654,0.05,636.288,-636.263,-13.5389,1.19879e-08,-1.19877e-08,-2.55082e-10,636.432,-636.407,8.91529e-07,1.19906e-08,-1.19904e-08,1.67969e-17
-0.930025,0.01,0.180158,0.01,28.5509,0.05,650.04,-650.014,-13.9803,1.2247e-08,-1.22468e-08,-2.63397e-10,650.19,-650.164,9.61115e-07,1.22499e-08,-1.22496e-08,1.8108e-17
-0.920025,0.01,0.170158,0.01,22.4713,0.05,664.243,-664.216,-14.4411,1.25146e-08,-1.25143e-08,-2.72078e-10,664.4,-664.373,1.03683e-06,1.25176e-08,-1.25173e-08,1.95345e-17
-0.910025,0.01,0.160158,0.01,16.3254,0.05,678.917,-678.888,-14.9223,1.27911e-08,-1.27908e-08,-2.81145e-10,679.081,-679.052,1.11917e-06,1.27941e-08,-1.27939e-08,2.10858e-17
-0.900025,0.01,0.150158,0.01,10.1115,0.05,694.082,-694.052,-15.4252,1.30768e-08,-1.30765e-08,-2.90619e-10,694.253,-694.224,1.20907e-06,1.308e-08,-1.30797e-08,2.27797e-17
-0.890025,0.01,0.140158,0.01,3.82821,0.05,709.761,-709.73,-15.9509,1.33722e-08,-1.33719e-08,-3.00524e-10,709.94,-709.909,1.30735e-06,1.33755e-08,-1.33752e-08,2.46313e-17
-0.880025,0.01,0.130158,0.01,-2.52605,0.05,725.977,-725.945,-16.5008,1.36777e-08,-1.36774e-08,-3.10884e-10,726.164,-726.132,1.41493e-06,1.36812e-08,-1.36809e-08,2.66581e-17
-0.870025,0.01,0.120158,0.01,-8.95291,0.05,742.755,-742.721,-17.0762,1.39938e-08,-1.39934e-08,-3.21726e-10,742.951,-742.918,1.5327e-06,1.39975e-08,-1.39971e-08,2.8877e-17
-0.860025,0.01,0.110158,0.01,-15.454,0.05,760.122,-760.086,-17.6787,1.4321e-08,-1.43206e-08,-3.33077e-10,760.327,-760.292,1.66188e-06,1.43249e-08,-1.43245e-08,3.13108e-17
-0.850025,0.01,0.100158,0.01,-22.0312,0.05,778.105,-778.068,-18.3099,1.46598e-08,-1.46594e-08,-3.44969e-10,778.32,-778.283,1.80365e-06,1.46638e-08,-1.46635e-08,3.39818e-17
-0.840025,0.01,0.0901578,0.01,-28.6862,0.05,796.733,-796.694,-18.9715,1.50107e-08,-1.50104e-08,-3.57434e-10,796.959,-796.92,1.95885e-06,1.5015e-08,-1.50146e-08,3.69058e-17
-0.830025,0.01,0.0801578,0.01,-35.4208,0.05,816.039,-815.998,-19.6654,1.53745e-08,-1.53741e-08,-3.70507e-10,816.276,-816.235,2.12442e-06,1.53789e-08,-1.53785e-08,4.00252e-17
-0.820025,0.01,0.0701578,0.01,-42.2371,0.05,836.054,-836.012,-20.3935,1.57516e-08,-1.57511e-08,-3.84225e-10,836.303,-836.26,2.21825e-06,1.57562e-08,-1.57558e-08,4.17931e-17
-0.810025,0.01,0.0601578,0.01,-49.1369,0.05,856.816,-856.771,-21.158,1.61427e-08,-1.61422e-08,-3.98628e-10,857.077,-857.032,7.16851e-07,1.61476e-08,-1.61472e-08,1.35059e-17
-0.800025,0.01,0.0501578,0.01,-56.1225,0.05,878.359,-878.311,-21.9612,1.65486e-08,-1.65481e-08,-4.13761e-10,878.634,-878.586,-3.17277e-05,1.65538e-08,-1.65533e-08,-5.97769e-16
-0.790025,0.01,0.0401578,0.01,-63.1959,0.05,900.717,-900.656,-22.8058,1.69698e-08,-1.69691e-08,-4.29675e-10,901.005,-900.944,-0.000695709,1.69752e-08,-1.69746e-08,-1.31076e-14
-0.780025,0.01,0.0301578,0.01,-70.3593,0.05,923.685,-923.267,-23.699,1.74009e-08,-1.73967e-08,-4.46503e-10,923.989,-923.571,-0.0169915,1.74067e-08,-1.74024e-08,-3.20129e-13
-0.770025,0.01,0.0201578,0.01,-77.6152,0.05,944.528,-936.604,-24.3698,1.7761e-08,-1.76806e-08,-4.59141e-10,944.844,-936.919,0.0638145,1.7767e-08,-1.76866e-08,1.2023e-12
-0.760025,0.01,0.0101578,0.01,-84.9655,0.05,962.426,-942.439,-24.7742,1.80458e-08,-1.7843e-08,-4.6676e-10,962.748,-942.761,0.293249,1.80518e-08,-1.78491e-08,5.52497e-12
0.759975,0.01,0.010108,0.01,-85.0022,0.05,962.519,-942.519,24.779,1.80475e-08,-1.78446e-08,4.66851e-10,962.842,-942.841,-0.292329,1.80535e-08,-1.78506e-08,-5.50765e-12
0.769975,0.01,0.020108,0.01,-77.6515,0.05,944.649,-936.726,24.3745,1.77633e-08,-1.76829e-08,4.59229e-10,944.965,-937.042,-0.0638494,1.77692e-08,-1.76889e-08,-1.20296e-12
0.779975,0.01,0.030108,0.01,-70.3952,0.05,923.802,-923.386,23.7036,1.74032e-08,-1.73989e-08,4.4659e-10,924.106,-923.69,0.0170931,1.74089e-08,-1.74047e-08,3.22044e-13
0.789975,0.01,0.040108,0.01,-63.2313,0.05,900.83,-900.769,22.8101,1.69719e-08,-1.69713e-08,4.29756e-10,901.119,-901.058,0.000706329,1.69773e-08,-1.69767e-08,1.33076e-14
0.799975,0.01,0.050108,0.01,-56.1574,0.05,878.468,-878.421,21.9653,1.65506e-08,-1.65502e-08,4.13838e-10,878.743,-878.695,3.22409e-05,1.65558e-08,-1.65553e-08,6.07437e-16
0.809975,0.01,0.060108,0.01,-49.1715,0.05,856.921,-856.876,21.1619,1.61447e-08,-1.61442e-08,3.98702e-10,857.182,-857.137,-6.91578e-07,1.61496e-08,-1.61492e-08,-1.30297e-17
0.819975,0.01,0.070108,0.01,-42.2712,0.05,836.156,-836.113,20.3972,1.57535e-08,-1.5753e-08,3.84295e-10,836.405,-836.362,-2.21793e-06,1.57582e-08,-1.57577e-08,-4.17871e-17
0.829975,0.01,0.080108,0.01,-35.4545,0.05,816.136,-816.096,19.6689,1.53763e-08,-1.53759e-08,3.70573e-10,816.373,-816.333,-2.12539e-06,1.53808e-08,-1.53804e-08,-4.00435e-17
0.839975,0.01,0.090108,0.01,-28.7195,0.05,796.827,-796.789,18.9749,1.50125e-08,-1.50121e-08,3.57498e-10,797.053,-797.014,-1.95974e-06,1.50168e-08,-1.50164e-08,-3.69227e-17
0.849975,0.01,0.100108,0.01,-22.0641,0.05,778.196,-778.159,18.3131,1.46615e-08,-1.46611e-08,3.4503e-10,778.411,-778.374,-1.8044e-06,1.46656e-08,-1.46652e-08,-3.39959e-17
0.859975,0.01,0.110108,0.01,-15.4866,0.05,760.21,-760.174,17.6818,1.43226e-08,-1.43223e-08,3.33135e-10,760.415,-760.38,-1.66255e-06,1.43265e-08,-1.43262e-08,-3.13234e-17
0.869975,0.01,0.120108,0.01,-8.98505,0.05,742.84,-742.806,17.0791,1.39954e-08,-1.3995e-08,3.21781e-10,743.036,-743.003,-1.53297e-06,1.39991e-08,-1.39987e-08,-2.8882e-17
0.879975,0.01,0.130108,0.01,-2.55783,0.05,726.059,-726.027,16.5036,1.36792e-08,-1.36789e-08,3.10937e-10,726.246,-726.214,-1.41518e-06,1.36828e-08,-1.36824e-08,-2.66629e-17
0.889975,0.01,0.140108,0.01,3.79679,0.05,709.84,-709.809,15.9536,1.33737e-08,-1.33733e-08,3.00575e-10,710.019,-709.988,-1.30805e-06,1.3377e-08,-1.33767e-08,-2.46445e-17
0.899975,0.01,0.150108,0.01,10.0804,0.05,694.158,-694.129,15.4277,1.30782e-08,-1.30779e-08,2.90668e-10,694.33,-694.3,-1.20978e-06,1.30814e-08,-1.30811e-08,-2.27929e-17
0.909975,0.01,0.160108,0.01,16.2946,0.05,678.991,-678.963,14.9248,1.27925e-08,-1.27922e-08,2.81191e-10,679.155,-679.127,-1.11979e-06,1.27955e-08,-1.27953e-08,-2.10976e-17
0.919975,0.01,0.170108,0.01,22.4409,0.05,664.315,-664.288,14.4434,1.2516e-08,-1.25157e-08,2.72123e-10,664.472,-664.445,-1.03725e-06,1.25189e-08,-1.25186e-08,-1.95425e-17
0.929975,0.01,0.180108,0.01,28.5208,0.05,650.11,-650.084,13.9826,1.22483e-08,-1.22481e-08,2.6344e-10,650.26,-650.234,-9.61403e-07,1.22512e-08,-1.22509e-08,-1.81134e-17
0.939975,0.01,0.190108,0.01,34.5357,0.05,636.355,-636.33,13.5411,1.19892e-08,-1.19889e-08,2.55122e-10,636.499,-636.474,-8.91861e-07,1.19919e-08,-1.19917e-08,-1.68032e-17
0.949975,0.01,0.200108,0.01,40.4869,0.05,623.032,-623.009,13.118,1.17382e-08,-1.17379e-08,2.47151e-10,623.171,-623.147,-8.2853e-07,1.17408e-08,-1.17405e-08,-1.561e-17
0.959975,0.01,0.210108,0.01,46.3758,0.05,610.124,-610.101,12.7124,1.1495e-08,-1.14948e-08,2.39509e-10,610.256,-610.233,-7.70583e-07,1.14975e-08,-1.14973e-08,-1.45182e-17
0.969975,0.01,0.220108,0.01,52.2037,0.05,597.726,-597.921,12.3236,1.12623e-08,-1.12643e-08,2.32183e-10,597.853,-598.048,-0.00431399,1.12647e-08,-1.12667e-08,-8.12781e-14
0.979975,0.01,0.230108,0.01,57.9719,0.05,587.124,-591.019,12.0446,1.10787e-08,-1.11182e-08,2.26927e-10,587.247,-591.142,0.0211458,1.1081e-08,-1.11205e-08,3.98398e-13
0.989975,0.01,0.240108,0.01,63.6814,0.05,577.522,-586.679,11.885,1.09207e-08,-1.10136e-08,2.2392e-10,577.643,-586.8,0.12387,1.09229e-08,-1.10158e-08,2.33379e-12
-0.990025,0.02,0.240367,0.01,63.7957,0.2,576.93,-586.069,-23.7516,1.09094e-08,-1.10021e-08,-4.47494e-10,577.415,-586.554,-0.247461,1.09186e-08,-1.10113e-08,-4.66231e-12
-0.980025,0.02,0.230376,0.01,58.0882,0.2,586.513,-590.4,-24.0703,1.10671e-08,-1.11066e-08,-4.53499e-10,587.005,-590.892,-0.0422894,1.10764e-08,-1.11158e-08,-7.96757e-13
-0.970025,0.02,0.220386,0.01,52.3222,0.2,597.093,-597.288,-24.6276,1.12504e-08,-1.12524e-08,-4.63999e-10,597.601,-597.795,0.00860697,1.126e-08,-1.1262e-08,1.6216e-13
-0.960025,0.02,0.210396,0.01,46.4965,0.2,609.465,-609.443,-25.4043,1.14826e-08,-1.14823e-08,-4.78631e-10,609.994,-609.972,1.53391e-06,1.14926e-08,-1.14923e-08,2.88997e-17
-0.950025,0.02,0.200408,0.01,40.6098,0.2,622.346,-622.323,-26.2145,1.17253e-08,-1.1725e-08,-4.93896e-10,622.898,-622.875,1.65002e-06,1.17357e-08,-1.17354e-08,3.10873e-17
-0.940025,0.02,0.190421,0.01,34.6609,0.2,635.64,-635.615,-27.0595,1.19757e-08,-1.19755e-08,-5.09817e-10,636.216,-636.191,1.77685e-06,1.19866e-08,-1.19863e-08,3.34769e-17
-0.930025,0.02,0.180436,0.01,28.6484,0.2,649.364,-649.338,-27.9413,1.22343e-08,-1.2234e-08,-5.26429e-10,649.965,-649.939,1.91491e-06,1.22456e-08,-1.22453e-08,3.60779e-17
-0.920025,0.02,0.170452,0.01,22.571,0.2,663.537,-663.51,-28.8617,1.25013e-08,-1.2501e-08,-5.43771e-10,664.165,-664.138,2.06538e-06,1.25131e-08,-1.25129e-08,3.8913e-17
-0.910025,0.02,0.160471,0.01,16.4272,0.2,678.179,-678.151,-29.823,1.27772e-08,-1.27769e-08,-5.61883e-10,678.835,-678.806,2.22968e-06,1.27895e-08,-1.27892e-08,4.20085e-17
-0.900025,0.02,0.150492,0.01,10.2156,0.2,693.311,-693.282,-30.8275,1.30623e-08,-1.3062e-08,-5.80809e-10,693.996,-693.967,2.40846e-06,1.30752e-08,-1.30749e-08,4.53767e-17
-0.890025,0.02,0.140515,0.01,3.93468,0.2,708.955,-708.924,-31.8776,1.3357e-08,-1.33567e-08,-6.00593e-10,709.671,-709.64,2.60363e-06,1.33705e-08,-1.33702e-08,4.90538e-17
-0.880025,0.02,0.130543,0.01,-2.41715,0.2,725.134,-725.102,-32.976,1.36618e-08,-1.36615e-08,-6.21287e-10,725.883,-725.851,2.81756e-06,1.36759e-08,-1.36756e-08,5.30845e-17
-0.870025,0.02,0.120575,0.01,-8.84149,0.2,741.873,-741.839,-34.1254,1.39772e-08,-1.39768e-08,-6.42942e-10,742.657,-742.623,3.05193e-06,1.39919e-08,-1.39916e-08,5.75001e-17
-0.860025,0.02,0.110612,0.01,-15.34,0.2,759.197,-759.162,-35.3288,1.43036e-08,-1.43032e-08,-6.65615e-10,760.019,-759.984,3.30873e-06,1.4319e-08,-1.43187e-08,6.23383e-17
-0.850025,0.02,0.100657,0.01,-21.9145,0.2,777.136,-777.099,-36.5894,1.46415e-08,-1.46412e-08,-6.89366e-10,777.997,-777.96,3.59075e-06,1.46578e-08,-1.46574e-08,6.76517e-17
-0.840025,0.02,0.0907126,0.01,-28.5667,0.2,795.718,-795.679,-37.9108,1.49916e-08,-1.49912e-08,-7.14261e-10,796.62,-796.582,3.90112e-06,1.50086e-08,-1.50082e-08,7.34994e-17
-0.830025,0.02,0.0807813,0.01,-35.2984,0.2,814.973,-814.933,-39.2965,1.53544e-08,-1.5354e-08,-7.40369e-10,815.92,-815.88,4.25138e-06,1.53722e-08,-1.53718e-08,8.00985e-17
-0.820025,0.02,0.0708693,0.01,-42.1117,0.2,834.936,-834.894,-40.7506,1.57305e-08,-1.57301e-08,-7.67764e-10,835.93,-835.888,4.79834e-06,1.57492e-08,-1.57488e-08,9.04035e-17
-0.810025,0.02,0.0609861,0.01,-49.0084,0.2,855.641,-855.596,-42.2773,1.61206e-08,-1.61201e-08,-7.96528e-10,856.685,-856.64,8.35834e-06,1.61402e-08,-1.61398e-08,1.57476e-16
-0.800025,0.02,0.0511483,0.01,-55.9907,0.2,877.126,-877.079,-43.8811,1.65254e-08,-1.65249e-08,-8.26746e-10,878.223,-878.176,6.95689e-05,1.6546e-08,-1.65456e-08,1.31072e-15
-0.790025,0.02,0.0413883,0.01,-63.0608,0.2,899.438,-899.399,-45.5666,1.69458e-08,-1.69454e-08,-8.58502e-10,900.592,-900.553,0.00132403,1.69675e-08,-1.69671e-08,2.49455e-14
-0.780025,0.02,0.0317779,0.01,-70.2207,0.2,922.406,-921.862,-47.3297,1.73763e-08,-1.73708e-08,-8.91719e-10,923.62,-923.076,-0.0111473,1.73992e-08,-1.73937e-08,-2.10021e-13
-0.770025,0.02,0.0225096,0.01,-77.473,0.2,943.248,-934.998,-48.7022,1.77355e-08,-1.76518e-08,-9.17578e-10,944.51,-936.26,0.11461,1.77593e-08,-1.76755e-08,2.15932e-12
-0.760025,0.02,0.0142663,0.01,-84.8203,0.2,964.986,-946.368,-49.5096,1.80999e-08,-1.79111e-08,-9.32789e-10,966.267,-947.65,0.821274,1.81241e-08,-1.79352e-08,1.54733e-11
0.759975,0.02,0.0142309,0.01,-84.8571,0.2,965.142,-946.531,49.5194,1.81029e-08,-1.79141e-08,9.32975e-10,966.423,-947.813,-0.823136,1.81271e-08,-1.79383e-08,-1.55084e-11
0.769975,0.02,0.0224651,0.01,-77.5093,0.2,943.371,-935.117,48.7118,1.77378e-08,-1.7654e-08,9.17758e-10,944.633,-936.379,-0.114483,1.77615e-08,-1.76778e-08,-2.15692e-12
0.779975,0.02,0.0317307,0.01,-70.2566,0.2,922.524,-921.979,47.3386,1.73785e-08,-1.7373e-08,8.91887e-10,923.738,-923.194,0.0109998,1.74014e-08,-1.73959e-08,2.07243e-13
0.789975,0.02,0.0413401,0.01,-63.0961,0.2,899.551,-899.513,45.5752,1.69479e-08,-1.69475e-08,8.58664e-10,900.705,-900.667,-0.0013443,1.69696e-08,-1.69692e-08,-2.53273e-14
0.799975,0.02,0.0510995,0.01,-56.0257,0.2,877.235,-877.188,43.8893,1.65274e-08,-1.65269e-08,8.269e-10,878.332,-878.285,-7.05309e-05,1.65481e-08,-1.65476e-08,-1.32884e-15
0.809975,0.02,0.060937,0.01,-49.0429,0.2,855.746,-855.701,42.285,1.61226e-08,-1.61221e-08,7.96675e-10,856.79,-856.745,-8.40962e-06,1.61422e-08,-1.61418e-08,-1.58442e-16
0.819975,0.02,0.0708201,0.01,-42.1457,0.2,835.037,-834.995,40.758,1.57324e-08,-1.5732e-08,7.67904e-10,836.031,-835.989,-4.80309e-06,1.57511e-08,-1.57507e-08,-9.04931e-17
0.829975,0.02,0.0807319,0.01,-35.3321,0.2,815.071,-815.03,39.3035,1.53562e-08,-1.53558e-08,7.40502e-10,816.018,-815.977,-4.25293e-06,1.53741e-08,-1.53737e-08,-8.01276e-17
0.839975,0.02,0.0906631,0.01,-28.5999,0.2,795.812,-795.773,37.9175,1.49934e-08,-1.4993e-08,7.14388e-10,796.715,-796.676,-3.90222e-06,1.50104e-08,-1.501e-08,-7.352e-17
0.849975,0.02,0.100608,0.01,-21.9474,0.2,777.227,-777.19,36.5958,1.46432e-08,-1.46429e-08,6.89487e-10,778.088,-778.051,-3.59195e-06,1.46595e-08,-1.46591e-08,-6.76745e-17
0.859975,0.02,0.110563,0.01,-15.3725,0.2,759.285,-759.25,35.3349,1.43052e-08,-1.43049e-08,6.6573e-10,760.107,-760.072,-3.31017e-06,1.43207e-08,-1.43203e-08,-6.23656e-17
0.869975,0.02,0.120525,0.01,-8.87362,0.2,741.957,-741.924,34.1312,1.39788e-08,-1.39784e-08,6.43052e-10,742.742,-742.708,-3.05345e-06,1.39935e-08,-1.39932e-08,-5.75288e-17
0.879975,0.02,0.130493,0.01,-2.44892,0.2,725.216,-725.183,32.9816,1.36633e-08,-1.3663e-08,6.21392e-10,725.965,-725.933,-2.81907e-06,1.36775e-08,-1.36771e-08,-5.31129e-17
0.889975,0.02,0.140466,0.01,3.90327,0.2,709.034,-709.003,31.883,1.33585e-08,-1.33582e-08,6.00694e-10,709.75,-709.72,-2.60502e-06,1.3372e-08,-1.33717e-08,-4.90801e-17
0.899975,0.02,0.150442,0.01,10.1845,0.2,693.388,-693.358,30.8326,1.30637e-08,-1.30634e-08,5.80905e-10,694.073,-694.043,-2.40933e-06,1.30766e-08,-1.30763e-08,-4.53932e-17
0.909975,0.02,0.160421,0.01,16.3965,0.2,678.253,-678.225,29.8279,1.27786e-08,-1.27783e-08,5.61976e-10,678.909,-678.881,-2.23025e-06,1.27909e-08,-1.27906e-08,-4.20192e-17
0.919975,0.02,0.170403,0.01,22.5406,0.2,663.609,-663.582,28.8664,1.25027e-08,-1.25024e-08,5.4386e-10,664.236,-664.209,-2.06618e-06,1.25145e-08,-1.25142e-08,-3.8928e-17
0.929975,0.02,0.180386,0.01,28.6183,0.2,649.433,-649.408,27.9457,1.22356e-08,-1.22353e-08,5.26514e-10,650.034,-650.009,-1.91565e-06,1.22469e-08,-1.22467e-08,-3.6092e-17
0.939975,0.02,0.190372,0.01,34.6311,0.2,635.707,-635.682,27.0638,1.1977e-08,-1.19767e-08,5.09898e-10,636.283,-636.258,-1.77772e-06,1.19878e-08,-1.19876e-08,-3.34933e-17
0.949975,0.02,0.200359,0.01,40.5804,0.2,622.411,-622.388,26.2186,1.17265e-08,-1.17262e-08,4.93974e-10,622.963,-622.94,-1.65119e-06,1.17369e-08,-1.17366e-08,-3.11093e-17
0.959975,0.02,0.210347,0.01,46.4673,0.2,609.528,-609.506,25.4082,1.14838e-08,-1.14835e-08,4.78706e-10,610.058,-610.035,-1.53495e-06,1.14937e-08,-1.14935e-08,-2.89193e-17
0.969975,0.02,0.220336,0.01,52.2934,0.2,597.154,-597.349,24.6314,1.12516e-08,-1.12536e-08,4.6407e-10,597.662,-597.856,-0.00860872,1.12611e-08,-1.12631e-08,-1.62193e-13
0.979975,0.02,0.230326,0.01,58.0597,0.2,586.572,-590.46,24.074,1.10683e-08,-1.11077e-08,4.53568e-10,587.065,-590.952,0.0422979,1.10775e-08,-1.1117e-08,7.96916e-13
0.989975,0.02,0.240317,0.01,63.7675,0.2,576.988,-586.129,23.7552,1.09105e-08,-1.10033e-08,4.47562e-10,577.473,-586.614,0.247511,1.09197e-08,-1.10124e-08,4.66325e-12
-0.990025,0.03,0.240689,0.01,63.9391,0.45,576.042,-585.153,-35.5905,1.08926e-08,-1.0985e-08,-6.70546e-10,577.132,-586.243,-0.370618,1.09131e-08,-1.10055e-08,-6.98266e-12
-0.980025,0.03,0.230689,0.01,58.2345,0.45,585.595,-589.47,-36.0678,1.10498e-08,-1.10891e-08,-6.79538e-10,586.701,-590.576,-0.0634498,1.10706e-08,-1.11099e-08,-1.19543e-12
-0.970025,0.03,0.220689,0.01,52.4715,0.45,596.142,-596.336,-36.9022,1.12325e-08,-1.12345e-08,-6.9526e-10,597.283,-597.477,0.0128624,1.1254e-08,-1.1256e-08,2.42335e-13
-0.960025,0.03,0.210689,0.01,46.6489,0.45,608.474,-608.452,-38.0651,1.14639e-08,-1.14637e-08,-7.17169e-10,609.664,-609.641,2.28701e-06,1.14863e-08,-1.14861e-08,4.30886e-17
-0.950025,0.03,0.200689,0.01,40.7655,0.45,621.313,-621.29,-39.2782,1.17058e-08,-1.17056e-08,-7.40024e-10,622.553,-622.53,2.46032e-06,1.17292e-08,-1.17289e-08,4.63538e-17
-0.940025,0.03,0.190689,0.01,34.8199,0.45,634.562,-634.538,-40.5434,1.19554e-08,-1.19552e-08,-7.63861e-10,635.856,-635.831,2.64919e-06,1.19798e-08,-1.19795e-08,4.99122e-17
-0.930025,0.03,0.180689,0.01,28.8108,0.45,648.239,-648.213,-41.8635,1.22131e-08,-1.22128e-08,-7.88732e-10,649.59,-649.564,2.8543e-06,1.22385e-08,-1.22383e-08,5.37768e-17
-0.920025,0.03,0.170689,0.01,22.737,0.45,662.363,-662.336,-43.2415,1.24792e-08,-1.24789e-08,-8.14695e-10,663.773,-663.746,3.07791e-06,1.25057e-08,-1.25055e-08,5.79895e-17
-0.910025,0.03,0.160689,0.01,16.5969,0.45,676.952,-676.924,-44.6806,1.27541e-08,-1.27538e-08,-8.41809e-10,678.425,-678.397,3.32202e-06,1.27818e-08,-1.27815e-08,6.25888e-17
-0.900025,0.03,0.150689,0.01,10.389,0.45,692.029,-691.999,-46.1843,1.30381e-08,-1.30378e-08,-8.70139e-10,693.568,-693.539,3.58808e-06,1.30671e-08,-1.30668e-08,6.76016e-17
-0.890025,0.03,0.140689,0.01,4.11204,0.45,707.614,-707.583,-47.7562,1.33317e-08,-1.33314e-08,-8.99754e-10,709.224,-709.193,3.87867e-06,1.3362e-08,-1.33617e-08,7.30764e-17
-0.880025,0.03,0.130689,0.01,-2.23574,0.45,723.731,-723.699,-49.4002,1.36354e-08,-1.3635e-08,-9.30729e-10,725.415,-725.383,4.19664e-06,1.36671e-08,-1.36668e-08,7.90672e-17
-0.870025,0.03,0.120689,0.01,-8.65589,0.45,740.404,-740.371,-51.1205,1.39495e-08,-1.39492e-08,-9.6314e-10,742.167,-742.134,4.54499e-06,1.39827e-08,-1.39824e-08,8.56302e-17
-0.860025,0.03,0.110689,0.01,-15.1501,0.45,757.66,-757.625,-52.9216,1.42746e-08,-1.42742e-08,-9.97074e-10,759.506,-759.471,4.92681e-06,1.43094e-08,-1.4309e-08,9.2824e-17
-0.850025,0.03,0.100689,0.01,-21.7201,0.45,775.525,-775.488,-54.8083,1.46112e-08,-1.46108e-08,-1.03262e-09,777.459,-777.422,5.3454e-06,1.46476e-08,-1.46472e-08,1.0071e-16
-0.840025,0.03,0.0906893,0.01,-28.3676,0.45,794.028,-793.99,-56.7857,1.49598e-08,-1.49594e-08,-1.06988e-09,796.056,-796.018,5.80437e-06,1.4998e-08,-1.49976e-08,1.09358e-16
-0.830025,0.03,0.0806893,0.01,-35.0945,0.45,813.201,-813.161,-58.8593,1.5321e-08,-1.53206e-08,-1.10894e-09,815.329,-815.288,6.29727e-06,1.53611e-08,-1.53607e-08,1.18644e-16
-0.820025,0.03,0.0706893,0.01,-41.9028,0.45,833.076,-833.034,-61.0351,1.56955e-08,-1.5695e-08,-1.14994e-09,835.309,-835.267,6.63353e-06,1.57375e-08,-1.57371e-08,1.24979e-16
-0.810025,0.03,0.0606893,0.01,-48.7943,0.45,853.688,-853.643,-63.3194,1.60838e-08,-1.60833e-08,-1.19297e-09,856.033,-855.989,3.14245e-06,1.6128e-08,-1.61275e-08,5.92055e-17
-0.800025,0.03,0.0506893,0.01,-55.7713,0.45,875.072,-875.025,-65.7191,1.64867e-08,-1.64862e-08,-1.23819e-09,877.537,-877.49,-7.67627e-05,1.65331e-08,-1.65326e-08,-1.44625e-15
-0.790025,0.03,0.0406893,0.01,-62.8357,0.45,897.262,-897.203,-68.2423,1.69047e-08,-1.69041e-08,-1.28572e-09,899.853,-899.795,-0.00174328,1.69535e-08,-1.69529e-08,-3.28445e-14
-0.780025,0.03,0.0306893,0.01,-69.9899,0.45,920.059,-919.633,-70.9075,1.73326e-08,-1.73283e-08,-1.33594e-09,922.787,-922.361,-0.0474662,1.7384e-08,-1.73797e-08,-8.94291e-13
-0.770025,0.03,0.0206893,0.01,-77.2361,0.45,940.751,-932.847,-72.9135,1.76899e-08,-1.76097e-08,-1.37373e-09,943.584,-935.68,0.191837,1.77433e-08,-1.76631e-08,3.61433e-12
-0.760025,0.03,0.0106894,0.01,-84.5764,0.45,958.805,-939.043,-74.1202,1.79785e-08,-1.7778e-08,-1.39647e-09,961.695,-941.933,0.906511,1.8033e-08,-1.78325e-08,1.70792e-11
0.759975,0.03,0.0106397,0.01,-84.6131,0.45,958.902,-939.129,74.1346,1.79803e-08,-1.77797e-08,1.39674e-09,961.793,-942.019,-0.904258,1.80348e-08,-1.78342e-08,-1.70368e-11
0.769975,0.03,0.0206396,0.01,-77.2724,0.45,940.871,-932.968,72.9275,1.76922e-08,-1.7612e-08,1.374e-09,943.704,-935.802,-0.191962,1.77456e-08,-1.76654e-08,-3.61667e-12
0.779975,0.03,0.0306396,0.01,-70.0257,0.45,920.175,-919.75,70.9213,1.73348e-08,-1.73305e-08,1.3362e-09,922.904,-922.479,0.0477184,1.73862e-08,-1.73819e-08,8.99043e-13
0.789975,0.03,0.0406396,0.01,-62.8711,0.45,897.374,-897.316,68.2551,1.69068e-08,-1.69062e-08,1.28597e-09,899.966,-899.908,0.00177004,1.69556e-08,-1.6955e-08,3.33485e-14
0.799975,0.03,0.0506396,0.01,-55.8062,0.45,875.181,-875.134,65.7313,1.64887e-08,-1.64882e-08,1.23842e-09,877.646,-877.599,7.80363e-05,1.65352e-08,-1.65347e-08,1.47025e-15
0.809975,0.03,0.0606395,0.01,-48.8288,0.45,853.792,-853.748,63.331,1.60857e-08,-1.60853e-08,1.19319e-09,856.138,-856.093,-3.08142e-06,1.61299e-08,-1.61295e-08,-5.80557e-17
0.819975,0.03,0.0706395,0.01,-41.9368,0.45,833.177,-833.135,61.0462,1.56974e-08,-1.56969e-08,1.15015e-09,835.41,-835.368,-6.63327e-06,1.57394e-08,-1.5739e-08,-1.24975e-16
0.829975,0.03,0.0806395,0.01,-35.1282,0.45,813.298,-813.258,58.8699,1.53228e-08,-1.53224e-08,1.10914e-09,815.426,-815.386,-6.29983e-06,1.53629e-08,-1.53625e-08,-1.18693e-16
0.839975,0.03,0.0906395,0.01,-28.4008,0.45,794.122,-794.084,56.7958,1.49616e-08,-1.49612e-08,1.07006e-09,796.151,-796.112,-5.80639e-06,1.49998e-08,-1.49994e-08,-1.09396e-16
0.849975,0.03,0.10064,0.01,-21.7529,0.45,775.615,-775.579,54.8179,1.46129e-08,-1.46125e-08,1.0328e-09,777.55,-777.513,-5.34709e-06,1.46493e-08,-1.4649e-08,-1.00742e-16
0.859975,0.03,0.11064,0.01,-15.1826,0.45,757.747,-757.712,52.9308,1.42762e-08,-1.42759e-08,9.97247e-10,759.594,-759.558,-4.92868e-06,1.4311e-08,-1.43107e-08,-9.28592e-17
0.869975,0.03,0.12064,0.01,-8.688,0.45,740.489,-740.455,51.1293,1.39511e-08,-1.39507e-08,9.63305e-10,742.252,-742.218,-4.54741e-06,1.39843e-08,-1.3984e-08,-8.56758e-17
0.879975,0.03,0.13064,0.01,-2.26749,0.45,723.812,-723.78,49.4086,1.36369e-08,-1.36366e-08,9.30886e-10,725.497,-725.465,-4.19888e-06,1.36686e-08,-1.36683e-08,-7.91093e-17
0.889975,0.03,0.14064,0.01,4.08065,0.45,707.693,-707.662,47.7642,1.33332e-08,-1.33329e-08,8.99905e-10,709.303,-709.272,-3.88005e-06,1.33635e-08,-1.33632e-08,-7.31025e-17
0.899975,0.03,0.15064,0.01,10.358,0.45,692.105,-692.076,46.1919,1.30395e-08,-1.30392e-08,8.70283e-10,693.645,-693.615,-3.589e-06,1.30685e-08,-1.30682e-08,-6.76188e-17
0.909975,0.03,0.16064,0.01,16.5662,0.45,677.026,-676.998,44.6879,1.27554e-08,-1.27552e-08,8.41947e-10,678.499,-678.471,-3.32316e-06,1.27832e-08,-1.27829e-08,-6.26103e-17
0.919975,0.03,0.17064,0.01,22.7066,0.45,662.434,-662.407,43.2485,1.24805e-08,-1.24803e-08,8.14827e-10,663.844,-663.818,-3.07937e-06,1.25071e-08,-1.25068e-08,-5.80172e-17
0.929975,0.03,0.18064,0.01,28.7808,0.45,648.308,-648.283,41.8702,1.22144e-08,-1.22141e-08,7.88859e-10,649.659,-649.633,-2.85567e-06,1.22398e-08,-1.22396e-08,-5.38024e-17
0.939975,0.03,0.19064,0.01,34.7902,0.45,634.629,-634.605,40.5498,1.19567e-08,-1.19564e-08,7.63982e-10,635.923,-635.899,-2.65049e-06,1.19811e-08,-1.19808e-08,-4.99368e-17
0.949975,0.03,0.20064,0.01,40.736,0.45,621.378,-621.354,39.2844,1.1707e-08,-1.17068e-08,7.40141e-10,622.619,-622.595,-2.4618e-06,1.17304e-08,-1.17302e-08,-4.63817e-17
0.959975,0.03,0.21064,0.01,46.6198,0.45,608.537,-608.515,38.071,1.14651e-08,-1.14649e-08,7.1728e-10,609.727,-609.704,-2.28831e-06,1.14875e-08,-1.14873e-08,-4.31132e-17
0.969975,0.03,0.22064,0.01,52.4427,0.45,596.203,-596.397,36.9079,1.12337e-08,-1.12356e-08,6.95366e-10,597.344,-597.538,-0.012865,1.12552e-08,-1.12571e-08,-2.42385e-13
0.979975,0.03,0.23064,0.01,58.206,0.45,585.655,-589.53,36.0733,1.10509e-08,-1.10902e-08,6.79642e-10,586.761,-590.636,0.0634625,1.10718e-08,-1.11111e-08,1.19567e-12
0.989975,0.03,0.24064,0.01,63.9109,0.45,576.1,-585.212,35.5959,1.08937e-08,-1.09861e-08,6.70647e-10,577.19,-586.302,0.370692,1.09142e-08,-1.10067e-08,6.98406e-12
-0.990025,0.04,0.240899,0.01,64.1397,0.8,574.802,-583.873,-47.3852,1.0869e-08,-1.09611e-08,-8.92765e-10,576.736,-585.808,-0.49309,1.09055e-08,-1.09975e-08,-9.29009e-12
-0.980025,0.04,0.230908,0.01,58.4392,0.8,584.313,-588.171,-48.0201,1.10256e-08,-1.10647e-08,-9.04726e-10,586.277,-590.135,-0.0846285,1.10626e-08,-1.11017e-08,-1.59445e-12
-0.970025,0.04,0.220918,0.01,52.6804,0.8,594.813,-595.006,-49.1299,1.12075e-08,-1.12094e-08,-9.25636e-10,596.839,-597.032,0.0170606,1.12456e-08,-1.12476e-08,3.21432e-13
-0.960025,0.04,0.210929,0.01,46.8622,0.8,607.09,-607.068,-50.6766,1.14378e-08,-1.14376e-08,-9.54776e-10,609.201,-609.179,3.02399e-06,1.14776e-08,-1.14774e-08,5.69738e-17
-0.950025,0.04,0.200941,0.01,40.9833,0.8,619.87,-619.846,-52.2899,1.16786e-08,-1.16784e-08,-9.85172e-10,622.071,-622.048,3.253e-06,1.17201e-08,-1.17198e-08,6.12885e-17
-0.940025,0.04,0.190954,0.01,35.0423,0.8,633.057,-633.032,-53.9724,1.1927e-08,-1.19268e-08,-1.01687e-09,635.353,-635.329,3.50203e-06,1.19703e-08,-1.19701e-08,6.59803e-17
-0.930025,0.04,0.180969,0.01,29.0381,0.8,646.668,-646.642,-55.7278,1.21835e-08,-1.21832e-08,-1.04994e-09,649.065,-649.039,3.77237e-06,1.22286e-08,-1.22284e-08,7.10736e-17
-0.920025,0.04,0.170985,0.01,22.9692,0.8,660.722,-660.696,-57.5602,1.24483e-08,-1.2448e-08,-1.08447e-09,663.225,-663.198,4.0668e-06,1.24954e-08,-1.24952e-08,7.66209e-17
-0.910025,0.04,0.161004,0.01,16.8342,0.8,675.239,-675.211,-59.4737,1.27218e-08,-1.27215e-08,-1.12052e-09,677.853,-677.825,4.38794e-06,1.2771e-08,-1.27707e-08,8.26713e-17
-0.900025,0.04,0.151025,0.01,10.6317,0.8,690.238,-690.209,-61.4729,1.30044e-08,-1.30041e-08,-1.15819e-09,692.97,-692.941,4.73863e-06,1.30558e-08,-1.30555e-08,8.92785e-17
-0.890025,0.04,0.141048,0.01,4.36015,0.8,705.741,-705.711,-63.5627,1.32964e-08,-1.32961e-08,-1.19756e-09,708.598,-708.568,5.12184e-06,1.33503e-08,-1.335e-08,9.64984e-17
-0.880025,0.04,0.131076,0.01,-1.98196,0.8,721.772,-721.74,-65.7482,1.35985e-08,-1.35981e-08,-1.23873e-09,724.76,-724.729,5.54047e-06,1.36548e-08,-1.36544e-08,1.04386e-16
-0.870025,0.04,0.121108,0.01,-8.39626,0.8,738.354,-738.321,-68.035,1.39109e-08,-1.39105e-08,-1.28182e-09,741.482,-741.449,5.99888e-06,1.39698e-08,-1.39695e-08,1.13022e-16
-0.860025,0.04,0.111145,0.01,-14.8844,0.8,755.513,-755.478,-70.429,1.42341e-08,-1.42338e-08,-1.32692e-09,758.788,-758.754,6.50142e-06,1.42959e-08,-1.42955e-08,1.22491e-16
-0.850025,0.04,0.10119,0.01,-21.4481,0.8,773.275,-773.239,-72.9365,1.45688e-08,-1.45684e-08,-1.37417e-09,776.707,-776.671,7.05206e-06,1.46335e-08,-1.46331e-08,1.32865e-16
-0.840025,0.04,0.0912454,0.01,-28.0891,0.8,791.67,-791.632,-75.5644,1.49154e-08,-1.4915e-08,-1.42368e-09,795.268,-795.23,7.65676e-06,1.49832e-08,-1.49828e-08,1.44258e-16
-0.830025,0.04,0.0813138,0.01,-34.8093,0.8,810.728,-810.688,-78.3201,1.52744e-08,-1.5274e-08,-1.4756e-09,814.502,-814.462,8.3336e-06,1.53455e-08,-1.53451e-08,1.5701e-16
-0.820025,0.04,0.0714014,0.01,-41.6106,0.8,830.48,-830.438,-81.2112,1.56465e-08,-1.56461e-08,-1.53007e-09,834.442,-834.4,9.29772e-06,1.57212e-08,-1.57208e-08,1.75174e-16
-0.810025,0.04,0.0615172,0.01,-48.4949,0.8,850.962,-850.918,-84.2463,1.60324e-08,-1.6032e-08,-1.58725e-09,855.122,-855.078,1.45879e-05,1.61108e-08,-1.61104e-08,2.74845e-16
-0.800025,0.04,0.0516777,0.01,-55.4643,0.8,872.208,-872.163,-87.4343,1.64327e-08,-1.64322e-08,-1.64731e-09,876.58,-876.534,0.00010583,1.65151e-08,-1.65146e-08,1.99389e-15
-0.790025,0.04,0.0419142,0.01,-62.5209,0.8,894.265,-894.225,-90.7843,1.68483e-08,-1.68479e-08,-1.71043e-09,898.862,-898.822,0.00202021,1.69349e-08,-1.69345e-08,3.80619e-14
-0.780025,0.04,0.0322957,0.01,-69.667,0.8,916.956,-916.43,-94.2915,1.72737e-08,-1.72684e-08,-1.77651e-09,921.793,-921.267,-0.0266126,1.73648e-08,-1.73595e-08,-5.01396e-13
-0.770025,0.04,0.023005,0.01,-76.9048,0.8,937.535,-929.42,-97.0111,1.76284e-08,-1.75461e-08,-1.82774e-09,942.562,-934.448,0.231619,1.77231e-08,-1.76408e-08,4.36384e-12
-0.760025,0.04,0.014678,0.01,-84.237,0.8,958.598,-940.094,-98.6141,1.79801e-08,-1.77924e-08,-1.85795e-09,963.704,-945.201,1.58254,1.80763e-08,-1.78886e-08,2.9816e-11
0.759975,0.04,0.0146418,0.01,-84.2737,0.8,958.745,-940.246,98.6335,1.79829e-08,-1.77952e-08,1.85831e-09,963.853,-945.354,-1.58551,1.80791e-08,-1.78914e-08,-2.9872e-11
0.769975,0.04,0.0229602,0.01,-76.941,0.8,937.655,-929.538,97.03,1.76307e-08,-1.75483e-08,1.8281e-09,942.684,-934.567,-0.231423,1.77254e-08,-1.76431e-08,-4.36014e-12
0.779975,0.04,0.0322485,0.01,-69.7028,0.8,917.073,-916.546,94.3092,1.72759e-08,-1.72706e-08,1.77684e-09,921.911,-921.384,0.0263871,1.7367e-08,-1.73617e-08,4.97149e-13
0.789975,0.04,0.0418659,0.01,-62.5562,0.8,894.377,-894.337,90.8014,1.68504e-08,-1.685e-08,1.71075e-09,898.975,-898.935,-0.00205124,1.6937e-08,-1.69366e-08,-3.86466e-14
0.799975,0.04,0.0516289,0.01,-55.4992,0.8,872.316,-872.27,87.4506,1.64347e-08,-1.64343e-08,1.64762e-09,876.689,-876.643,-0.000107275,1.65171e-08,-1.65167e-08,-2.02113e-15
0.809975,0.04,0.0614682,0.01,-48.5293,0.8,851.065,-851.021,84.2617,1.60344e-08,-1.60339e-08,1.58754e-09,855.226,-855.183,-1.46624e-05,1.61128e-08,-1.61123e-08,-2.76249e-16
0.819975,0.04,0.0713521,0.01,-41.6446,0.8,830.58,-830.538,81.2259,1.56484e-08,-1.5648e-08,1.53034e-09,834.543,-834.501,-9.3055e-06,1.57231e-08,-1.57227e-08,-1.75321e-16
0.829975,0.04,0.0812645,0.01,-34.8429,0.8,810.824,-810.784,78.3341,1.52762e-08,-1.52758e-08,1.47586e-09,814.599,-814.56,-8.33826e-06,1.53474e-08,-1.53469e-08,-1.57098e-16
0.839975,0.04,0.091196,0.01,-28.1223,0.8,791.763,-791.725,75.5778,1.49171e-08,-1.49167e-08,1.42393e-09,795.362,-795.324,-7.66034e-06,1.49849e-08,-1.49845e-08,-1.44325e-16
0.849975,0.04,0.101141,0.01,-21.4809,0.8,773.365,-773.329,72.9493,1.45705e-08,-1.45701e-08,1.37441e-09,776.798,-776.762,-7.05422e-06,1.46352e-08,-1.46348e-08,-1.32906e-16
0.859975,0.04,0.111096,0.01,-14.9168,0.8,755.6,-755.565,70.4411,1.42358e-08,-1.42354e-08,1.32715e-09,758.876,-758.841,-6.50334e-06,1.42975e-08,-1.42972e-08,-1.22527e-16
0.869975,0.04,0.121058,0.01,-8.42834,0.8,738.438,-738.405,68.0466,1.39125e-08,-1.39121e-08,1.28204e-09,741.567,-741.533,-6.00152e-06,1.39714e-08,-1.39711e-08,-1.13072e-16
0.879975,0.04,0.131026,0.01,-2.01368,0.8,721.853,-721.821,65.7593,1.36e-08,-1.35997e-08,1.23894e-09,724.842,-724.811,-5.54302e-06,1.36563e-08,-1.3656e-08,-1.04434e-16
0.889975,0.04,0.140999,0.01,4.32879,0.8,705.82,-705.789,63.5733,1.32979e-08,-1.32976e-08,1.19776e-09,708.677,-708.647,-5.12358e-06,1.33518e-08,-1.33514e-08,-9.65312e-17
0.899975,0.04,0.150975,0.01,10.6007,0.8,690.314,-690.285,61.4831,1.30058e-08,-1.30055e-08,1.15838e-09,693.046,-693.017,-4.74027e-06,1.30573e-08,-1.3057e-08,-8.93095e-17
0.909975,0.04,0.160954,0.01,16.8035,0.8,675.312,-675.284,59.4834,1.27231e-08,-1.27229e-08,1.1207e-09,677.927,-677.899,-4.38965e-06,1.27724e-08,-1.27721e-08,-8.27035e-17
0.919975,0.04,0.170936,0.01,22.9388,0.8,660.793,-660.767,57.5695,1.24496e-08,-1.24493e-08,1.08464e-09,663.296,-663.27,-4.06852e-06,1.24968e-08,-1.24965e-08,-7.66533e-17
0.929975,0.04,0.180919,0.01,29.0081,0.8,646.737,-646.711,55.7368,1.21848e-08,-1.21845e-08,1.05011e-09,649.134,-649.109,-3.77386e-06,1.22299e-08,-1.22297e-08,-7.11018e-17
0.939975,0.04,0.190905,0.01,35.0126,0.8,633.123,-633.099,53.981,1.19283e-08,-1.19281e-08,1.01703e-09,635.42,-635.396,-3.503e-06,1.19716e-08,-1.19713e-08,-6.59986e-17
0.949975,0.04,0.200892,0.01,40.9539,0.8,619.934,-619.911,52.2981,1.16798e-08,-1.16796e-08,9.85326e-10,622.136,-622.113,-3.25431e-06,1.17213e-08,-1.17211e-08,-6.13131e-17
0.959975,0.04,0.21088,0.01,46.8331,0.8,607.153,-607.13,50.6844,1.1439e-08,-1.14388e-08,9.54924e-10,609.265,-609.242,-3.02547e-06,1.14788e-08,-1.14786e-08,-5.70017e-17
0.969975,0.04,0.220869,0.01,52.6517,0.8,594.874,-595.067,49.1375,1.12086e-08,-1.12106e-08,9.25778e-10,596.9,-597.093,-0.0170641,1.12468e-08,-1.12487e-08,-3.21497e-13
0.979975,0.04,0.230859,0.01,58.4107,0.8,584.372,-588.231,48.0274,1.10267e-08,-1.10658e-08,9.04864e-10,586.336,-590.195,0.0846455,1.10637e-08,-1.11028e-08,1.59477e-12
0.989975,0.04,0.24085,0.01,64.1115,0.8,574.86,-583.932,47.3924,1.08701e-08,-1.09622e-08,8.92901e-10,576.794,-585.867,0.493188,1.09066e-08,-1.09986e-08,9.29196e-12
-0.990025,0.05,0.241524,0.01,64.3974,1.25,573.212,-582.232,-59.1213,1.08389e-08,-1.09304e-08,-1.11388e-09,576.228,-585.249,-0.614652,1.08957e-08,-1.09872e-08,-1.15804e-11
-0.980025,0.05,0.23156,0.01,58.7022,1.25,582.67,-586.506,-59.9124,1.09945e-08,-1.10334e-08,-1.12878e-09,585.732,-589.568,-0.105831,1.10522e-08,-1.10911e-08,-1.99392e-12
-0.970025,0.05,0.221599,0.01,52.9488,1.25,593.11,-593.302,-61.2953,1.11754e-08,-1.11773e-08,-1.15484e-09,596.268,-596.46,0.021183,1.12349e-08,-1.12368e-08,3.991e-13
-0.960025,0.05,0.211642,0.01,47.1362,1.25,605.315,-605.293,-63.2224,1.14044e-08,-1.14042e-08,-1.19115e-09,608.608,-608.586,3.73993e-06,1.14664e-08,-1.14662e-08,7.04624e-17
-0.950025,0.05,0.201689,0.01,41.2631,1.25,618.019,-617.996,-65.2324,1.16437e-08,-1.16435e-08,-1.22902e-09,621.453,-621.43,4.02199e-06,1.17084e-08,-1.17082e-08,7.57767e-17
-0.940025,0.05,0.191741,0.01,35.3281,1.25,631.127,-631.102,-67.3285,1.18907e-08,-1.18904e-08,-1.26851e-09,634.708,-634.684,4.32853e-06,1.19582e-08,-1.19579e-08,8.15519e-17
-0.930025,0.05,0.181752,0.01,29.33,1.25,644.654,-644.629,-69.5153,1.21455e-08,-1.21453e-08,-1.30971e-09,648.391,-648.366,4.66188e-06,1.2216e-08,-1.22157e-08,8.78325e-17
-0.920025,0.05,0.171752,0.01,23.2675,1.25,658.619,-658.593,-71.7978,1.24087e-08,-1.24084e-08,-1.35271e-09,662.521,-662.495,5.02465e-06,1.24822e-08,-1.24819e-08,9.46674e-17
-0.910025,0.05,0.161752,0.01,17.1391,1.25,673.042,-673.015,-74.1811,1.26804e-08,-1.26801e-08,-1.39761e-09,677.118,-677.091,5.41982e-06,1.27572e-08,-1.27569e-08,1.02113e-16
-0.900025,0.05,0.151752,0.01,10.9433,1.25,687.943,-687.914,-76.671,1.29611e-08,-1.29608e-08,-1.44453e-09,692.202,-692.173,5.85142e-06,1.30414e-08,-1.30411e-08,1.10244e-16
-0.890025,0.05,0.141752,0.01,4.67883,1.25,703.342,-703.312,-79.2735,1.32512e-08,-1.32509e-08,-1.49356e-09,707.795,-707.765,6.32297e-06,1.33351e-08,-1.33348e-08,1.19128e-16
-0.880025,0.05,0.131752,0.01,-1.65602,1.25,719.262,-719.231,-81.9949,1.35512e-08,-1.35509e-08,-1.54483e-09,723.921,-723.889,6.83792e-06,1.3639e-08,-1.36386e-08,1.2883e-16
-0.870025,0.05,0.121752,0.01,-8.0628,1.25,735.727,-735.694,-84.8422,1.38614e-08,-1.38611e-08,-1.59848e-09,740.603,-740.57,7.4015e-06,1.39532e-08,-1.39529e-08,1.39449e-16
-0.860025,0.05,0.111752,0.01,-14.5432,1.25,752.762,-752.728,-87.8228,1.41823e-08,-1.4182e-08,-1.65463e-09,757.868,-757.834,8.01869e-06,1.42785e-08,-1.42782e-08,1.51077e-16
-0.850025,0.05,0.101752,0.01,-21.0988,1.25,770.394,-770.358,-90.9444,1.45145e-08,-1.45141e-08,-1.71345e-09,775.743,-775.707,8.69486e-06,1.46153e-08,-1.46149e-08,1.63816e-16
-0.840025,0.05,0.0917519,0.01,-27.7315,1.25,788.65,-788.612,-94.2156,1.48585e-08,-1.48581e-08,-1.77508e-09,794.257,-794.22,9.43631e-06,1.49641e-08,-1.49637e-08,1.77785e-16
-0.830025,0.05,0.0817519,0.01,-34.443,1.25,807.56,-807.52,-97.6454,1.52147e-08,-1.52143e-08,-1.8397e-09,813.442,-813.402,1.0241e-05,1.53255e-08,-1.53251e-08,1.92946e-16
-0.820025,0.05,0.071752,0.01,-41.2353,1.25,827.155,-827.114,-101.243,1.55839e-08,-1.55835e-08,-1.90748e-09,833.329,-833.287,1.09252e-05,1.57002e-08,-1.56998e-08,2.05837e-16
-0.810025,0.05,0.061752,0.01,-48.1103,1.25,847.47,-847.427,-105.02,1.59666e-08,-1.59662e-08,-1.97864e-09,853.953,-853.91,7.60095e-06,1.60888e-08,-1.60883e-08,1.43206e-16
-0.800025,0.05,0.051752,0.01,-55.0701,1.25,868.54,-868.494,-108.987,1.63636e-08,-1.63631e-08,-2.05338e-09,875.351,-875.305,-8.13918e-05,1.64919e-08,-1.64915e-08,-1.53347e-15
-0.790025,0.05,0.041752,0.01,-62.1168,1.25,890.396,-890.342,-113.157,1.67753e-08,-1.67748e-08,-2.13194e-09,897.558,-897.503,-0.00201883,1.69103e-08,-1.69097e-08,-3.80359e-14
-0.780025,0.05,0.0317521,0.01,-69.2524,1.25,912.849,-912.412,-117.554,1.71967e-08,-1.71923e-08,-2.21478e-09,920.389,-919.952,-0.0700367,1.73388e-08,-1.73343e-08,-1.31953e-12
-0.770025,0.05,0.0217522,0.01,-76.4794,1.25,933.232,-925.394,-120.875,1.75486e-08,-1.7469e-08,-2.27735e-09,941.06,-933.222,0.319575,1.7696e-08,-1.76165e-08,6.02097e-12
-0.760025,0.05,0.0117525,0.01,-83.7998,1.25,951.464,-932.133,-122.866,1.78421e-08,-1.7646e-08,-2.31486e-09,959.443,-940.113,1.57589,1.79924e-08,-1.77963e-08,2.96907e-11
0.759975,0.05,0.0117028,0.01,-83.8365,1.25,951.567,-932.226,122.89,1.7844e-08,-1.76478e-08,2.31531e-09,959.549,-940.208,-1.57342,1.79944e-08,-1.77982e-08,-2.96441e-11
0.769975,0.05,0.0217025,0.01,-76.5156,1.25,933.351,-925.513,120.898,1.75508e-08,-1.74713e-08,2.27779e-09,941.181,-933.343,-0.319808,1.76983e-08,-1.76188e-08,-6.02537e-12
0.779975,0.05,0.0317024,0.01,-69.2881,1.25,912.964,-912.527,117.576,1.71989e-08,-1.71944e-08,2.2152e-09,920.505,-920.069,0.070326,1.7341e-08,-1.73365e-08,1.32498e-12
0.789975,0.05,0.0417023,0.01,-62.152,1.25,890.507,-890.452,113.178,1.67774e-08,-1.67769e-08,2.13234e-09,897.67,-897.616,0.00205018,1.69124e-08,-1.69118e-08,3.86266e-14
0.799975,0.05,0.0517023,0.01,-55.1049,1.25,868.647,-868.601,109.007,1.63656e-08,-1.63651e-08,2.05376e-09,875.46,-875.414,8.28335e-05,1.6494e-08,-1.64935e-08,1.56063e-15
0.809975,0.05,0.0617022,0.01,-48.1447,1.25,847.573,-847.53,105.039,1.59686e-08,-1.59681e-08,1.979e-09,854.057,-854.014,-7.53729e-06,1.60907e-08,-1.60903e-08,-1.42007e-16
0.819975,0.05,0.0717022,0.01,-41.2693,1.25,827.255,-827.213,101.262,1.55858e-08,-1.55854e-08,1.90783e-09,833.429,-833.388,-1.09265e-05,1.57021e-08,-1.57017e-08,-2.05862e-16
0.829975,0.05,0.0817022,0.01,-34.4766,1.25,807.655,-807.616,97.6628,1.52165e-08,-1.52161e-08,1.84002e-09,813.539,-813.499,-1.02456e-05,1.53274e-08,-1.5327e-08,-1.93034e-16
0.839975,0.05,0.0917022,0.01,-27.7646,1.25,788.742,-788.704,94.2323,1.48602e-08,-1.48598e-08,1.77539e-09,794.351,-794.314,-9.44069e-06,1.49659e-08,-1.49655e-08,-1.77868e-16
0.849975,0.05,0.101702,0.01,-21.1316,1.25,770.483,-770.447,90.9603,1.45162e-08,-1.45158e-08,1.71375e-09,775.834,-775.798,-8.69804e-06,1.4617e-08,-1.46166e-08,-1.63876e-16
0.859975,0.05,0.111702,0.01,-14.5756,1.25,752.848,-752.814,87.838,1.4184e-08,-1.41836e-08,1.65492e-09,757.955,-757.921,-8.02117e-06,1.42802e-08,-1.42798e-08,-1.51124e-16
0.869975,0.05,0.121702,0.01,-8.09484,1.25,735.81,-735.778,84.8567,1.3863e-08,-1.38626e-08,1.59875e-09,740.687,-740.655,-7.4041e-06,1.39548e-08,-1.39545e-08,-1.39497e-16
0.879975,0.05,0.131702,0.01,-1.6877,1.25,719.343,-719.311,82.0088,1.35527e-08,-1.35524e-08,1.54509e-09,724.002,-723.971,-6.84044e-06,1.36405e-08,-1.36402e-08,-1.28878e-16
0.889975,0.05,0.141702,0.01,4.6475,1.25,703.42,-703.39,79.2867,1.32527e-08,-1.32524e-08,1.49381e-09,707.874,-707.844,-6.32532e-06,1.33366e-08,-1.33363e-08,-1.19173e-16
0.899975,0.05,0.151702,0.01,10.9124,1.25,688.018,-687.989,76.6837,1.29625e-08,-1.29622e-08,1.44476e-09,692.278,-692.25,-5.85396e-06,1.30428e-08,-1.30425e-08,-1.10292e-16
0.909975,0.05,0.161702,0.01,17.1084,1.25,673.115,-673.088,74.1932,1.26818e-08,-1.26815e-08,1.39784e-09,677.192,-677.164,-5.4221e-06,1.27586e-08,-1.27583e-08,-1.02155e-16
0.919975,0.05,0.171702,0.01,23.2372,1.25,658.69,-658.664,71.8094,1.241e-08,-1.24097e-08,1.35293e-09,662.593,-662.567,-5.02658e-06,1.24835e-08,-1.24833e-08,-9.47037e-17
0.929975,0.05,0.181702,0.01,29.3,1.25,644.722,-644.697,69.5264,1.21468e-08,-1.21466e-08,1.30992e-09,648.46,-648.435,-4.66352e-06,1.22173e-08,-1.2217e-08,-8.78634e-17
0.939975,0.05,0.191692,0.01,35.2984,1.25,631.193,-631.169,67.3392,1.18919e-08,-1.18917e-08,1.26871e-09,634.775,-634.751,-4.32967e-06,1.19594e-08,-1.19592e-08,-8.15735e-17
0.949975,0.05,0.20164,0.01,41.2337,1.25,618.084,-618.06,65.2427,1.1645e-08,-1.16447e-08,1.22921e-09,621.518,-621.494,-4.02313e-06,1.17097e-08,-1.17094e-08,-7.57981e-17
0.959975,0.05,0.211592,0.01,47.1072,1.25,605.378,-605.355,63.2322,1.14056e-08,-1.14053e-08,1.19133e-09,608.671,-608.649,-3.74125e-06,1.14676e-08,-1.14674e-08,-7.04873e-17
0.969975,0.05,0.221549,0.01,52.9201,1.25,593.17,-593.362,61.3047,1.11765e-08,-1.11785e-08,1.15502e-09,596.329,-596.521,-0.0211873,1.1236e-08,-1.1238e-08,-3.99181e-13
0.979975,0.05,0.23151,0.01,58.6737,1.25,582.728,-586.565,59.9215,1.09956e-08,-1.10345e-08,1.12896e-09,585.791,-589.628,0.105852,1.10533e-08,-1.10923e-08,1.99432e-12
0.989975,0.05,0.241474,0.01,64.3692,1.25,573.269,-582.291,59.1303,1.08399e-08,-1.09315e-08,1.11405e-09,576.286,-585.309,0.614775,1.08968e-08,-1.09883e-08,1.15827e-11
-0.990025,0.06,0.241964,0.01,64.712,1.8,571.274,-580.234,-70.7844,1.08021e-08,-1.0893e-08,-1.33362e-09,575.609,-584.568,-0.735086,1.08838e-08,-1.09746e-08,-1.38495e-11
-0.980025,0.06,0.231973,0.01,59.0232,1.8,580.667,-584.478,-71.73,1.09567e-08,-1.09953e-08,-1.35143e-09,585.067,-588.877,-0.127062,1.10396e-08,-1.10782e-08,-2.39391e-12
-0.970025,0.06,0.221983,0.01,53.2765,1.8,591.035,-591.226,-73.3831,1.11363e-08,-1.11382e-08,-1.38258e-09,595.573,-595.763,0.0252116,1.12218e-08,-1.12237e-08,4.75002e-13
-0.960025,0.06,0.211994,0.01,47.4707,1.8,603.154,-603.132,-75.6866,1.13637e-08,-1.13635e-08,-1.42598e-09,607.884,-607.862,4.4297e-06,1.14528e-08,-1.14526e-08,8.3458e-17
-0.950025,0.06,0.202006,0.01,41.6046,1.8,615.766,-615.743,-78.089,1.16013e-08,-1.16011e-08,-1.47124e-09,620.698,-620.675,4.762e-06,1.16942e-08,-1.1694e-08,8.97189e-17
-0.940025,0.06,0.192019,0.01,35.677,1.8,628.777,-628.753,-80.594,1.18464e-08,-1.18462e-08,-1.51844e-09,633.921,-633.897,5.1233e-06,1.19433e-08,-1.19431e-08,9.65259e-17
-0.930025,0.06,0.182033,0.01,29.6864,1.8,642.202,-642.177,-83.2072,1.20993e-08,-1.20991e-08,-1.56767e-09,647.57,-647.545,5.51648e-06,1.22005e-08,-1.22002e-08,1.03934e-16
-0.920025,0.06,0.17205,0.01,23.6316,1.8,656.06,-656.034,-85.9345,1.23604e-08,-1.23602e-08,-1.61906e-09,661.664,-661.638,5.94411e-06,1.2466e-08,-1.24658e-08,1.11991e-16
-0.910025,0.06,0.162068,0.01,17.5112,1.8,670.369,-670.342,-88.782,1.263e-08,-1.26297e-08,-1.6727e-09,676.222,-676.195,6.40974e-06,1.27403e-08,-1.274e-08,1.20763e-16
-0.900025,0.06,0.152089,0.01,11.3238,1.8,685.149,-685.121,-91.7566,1.29085e-08,-1.29082e-08,-1.72875e-09,691.266,-691.238,6.91793e-06,1.30237e-08,-1.30234e-08,1.30338e-16
-0.890025,0.06,0.142113,0.01,5.06784,1.8,700.421,-700.392,-94.8653,1.31962e-08,-1.31959e-08,-1.78732e-09,706.817,-706.787,7.47256e-06,1.33167e-08,-1.33164e-08,1.40787e-16
-0.880025,0.06,0.13214,0.01,-1.25815,1.8,716.208,-716.177,-98.1159,1.34936e-08,-1.34933e-08,-1.84856e-09,722.897,-722.866,8.07842e-06,1.36197e-08,-1.36194e-08,1.52202e-16
-0.870025,0.06,0.122172,0.01,-7.65577,1.8,732.531,-732.498,-101.516,1.38012e-08,-1.38008e-08,-1.91263e-09,739.532,-739.499,8.74125e-06,1.39331e-08,-1.39327e-08,1.6469e-16
-0.860025,0.06,0.112209,0.01,-14.1266,1.8,749.415,-749.382,-105.076,1.41193e-08,-1.41189e-08,-1.97969e-09,756.746,-756.712,9.4663e-06,1.42574e-08,-1.4257e-08,1.7835e-16
-0.850025,0.06,0.102254,0.01,-20.6725,1.8,766.888,-766.852,-108.803,1.44485e-08,-1.44481e-08,-2.04991e-09,774.568,-774.532,1.02606e-05,1.45932e-08,-1.45928e-08,1.93315e-16
-0.840025,0.06,0.0923085,0.01,-27.295,1.8,784.975,-784.938,-112.708,1.47892e-08,-1.47888e-08,-2.12349e-09,793.025,-792.988,1.11325e-05,1.49409e-08,-1.49405e-08,2.09743e-16
-0.830025,0.06,0.0823761,0.01,-33.996,1.8,803.706,-803.667,-116.803,1.51421e-08,-1.51417e-08,-2.20063e-09,812.149,-812.111,1.20973e-05,1.53012e-08,-1.53008e-08,2.27921e-16
-0.820025,0.06,0.0724623,0.01,-40.7774,1.8,823.112,-823.071,-121.097,1.55077e-08,-1.55073e-08,-2.28154e-09,831.972,-831.932,1.33191e-05,1.56747e-08,-1.56743e-08,2.50939e-16
-0.810025,0.06,0.0625759,0.01,-47.6411,1.8,843.225,-843.182,-125.604,1.58867e-08,-1.58862e-08,-2.36646e-09,852.529,-852.486,1.81878e-05,1.6062e-08,-1.60615e-08,3.42669e-16
-0.800025,0.06,0.0527324,0.01,-54.5891,1.8,864.08,-864.036,-130.338,1.62796e-08,-1.62791e-08,-2.45564e-09,873.855,-873.811,0.000101076,1.64637e-08,-1.64633e-08,1.90433e-15
-0.790025,0.06,0.0429613,0.01,-61.6235,1.8,885.718,-885.677,-135.311,1.66873e-08,-1.66868e-08,-2.54933e-09,895.994,-895.953,0.00192166,1.68809e-08,-1.68805e-08,3.62052e-14
-0.780025,0.06,0.0333262,0.01,-68.7466,1.8,907.959,-907.458,-140.522,1.71043e-08,-1.70992e-08,-2.64752e-09,918.772,-918.271,-0.0471878,1.7308e-08,-1.73029e-08,-8.89046e-13
-0.770025,0.06,0.0239916,0.01,-75.9604,1.8,928.115,-920.208,-144.544,1.74518e-08,-1.73716e-08,-2.72329e-09,939.351,-931.443,0.352331,1.76635e-08,-1.75833e-08,6.63811e-12
-0.760025,0.06,0.01551,0.01,-83.2676,1.8,948.315,-929.834,-146.975,1.77865e-08,-1.7599e-08,-2.7691e-09,959.745,-941.263,2.1969,1.80018e-08,-1.78143e-08,4.13908e-11
0.759975,0.06,0.0154723,0.01,-83.3042,1.8,948.451,-929.973,147.004,1.7789e-08,-1.76016e-08,2.76964e-09,959.884,-941.405,-2.19985,1.80044e-08,-1.7817e-08,-4.14464e-11
0.769975,0.06,0.0239465,0.01,-75.9965,1.8,928.233,-920.323,144.572,1.74541e-08,-1.73738e-08,2.72381e-09,939.471,-931.561,-0.352142,1.76658e-08,-1.75855e-08,-6.63456e-12
0.779975,0.06,0.0332788,0.01,-68.7822,1.8,908.073,-907.572,140.548,1.71064e-08,-1.71014e-08,2.64801e-09,918.889,-918.387,0.0469753,1.73102e-08,-1.73051e-08,8.85043e-13
0.789975,0.06,0.0429129,0.01,-61.6587,1.8,885.828,-885.787,135.336,1.66893e-08,-1.66889e-08,2.54981e-09,896.107,-896.065,-0.0019514,1.6883e-08,-1.68826e-08,-3.67656e-14
0.799975,0.06,0.0526836,0.01,-54.6239,1.8,864.186,-864.141,130.362,1.62816e-08,-1.62811e-08,2.45609e-09,873.963,-873.919,-0.000102409,1.64658e-08,-1.64653e-08,-1.92945e-15
0.809975,0.06,0.0625268,0.01,-47.6754,1.8,843.327,-843.284,125.627,1.58886e-08,-1.58882e-08,2.36689e-09,852.633,-852.59,-1.82542e-05,1.60639e-08,-1.60635e-08,-3.4392e-16
0.819975,0.06,0.072413,0.01,-40.8113,1.8,823.21,-823.17,121.119,1.55096e-08,-1.55092e-08,2.28195e-09,832.073,-832.032,-1.3327e-05,1.56766e-08,-1.56761e-08,-2.51089e-16
0.829975,0.06,0.0823267,0.01,-34.0295,1.8,803.801,-803.762,116.823,1.51439e-08,-1.51435e-08,2.20102e-09,812.246,-812.207,-1.21022e-05,1.5303e-08,-1.53026e-08,-2.28013e-16
0.839975,0.06,0.092259,0.01,-27.3281,1.8,785.066,-785.029,112.728,1.47909e-08,-1.47906e-08,2.12386e-09,793.119,-793.082,-1.11373e-05,1.49427e-08,-1.49423e-08,-2.09833e-16
0.849975,0.06,0.102205,0.01,-20.7052,1.8,766.976,-766.941,108.822,1.44501e-08,-1.44498e-08,2.05027e-09,774.658,-774.623,-1.02651e-05,1.45949e-08,-1.45945e-08,-1.934e-16
0.859975,0.06,0.11216,0.01,-14.159,1.8,749.501,-749.467,105.094,1.41209e-08,-1.41205e-08,1.98003e-09,756.833,-756.799,-9.46983e-06,1.4259e-08,-1.42587e-08,-1.78417e-16
0.869975,0.06,0.122122,0.01,-7.68777,1.8,732.613,-732.581,101.534,1.38027e-08,-1.38024e-08,1.91295e-09,739.616,-739.584,-8.74406e-06,1.39347e-08,-1.39343e-08,-1.64743e-16
0.879975,0.06,0.132091,0.01,-1.28979,1.8,716.287,-716.257,98.1324,1.34951e-08,-1.34948e-08,1.84887e-09,722.978,-722.948,-8.08125e-06,1.36212e-08,-1.36209e-08,-1.52255e-16
0.889975,0.06,0.142063,0.01,5.03656,1.8,700.499,-700.469,94.8811,1.31977e-08,-1.31974e-08,1.78762e-09,706.895,-706.866,-7.47543e-06,1.33182e-08,-1.33179e-08,-1.40841e-16
0.899975,0.06,0.152039,0.01,11.2928,1.8,685.224,-685.196,91.7717,1.29099e-08,-1.29096e-08,1.72903e-09,691.342,-691.314,-6.92088e-06,1.30252e-08,-1.30249e-08,-1.30393e-16
0.909975,0.06,0.162019,0.01,17.4806,1.8,670.441,-670.414,88.7965,1.26314e-08,-1.26311e-08,1.67298e-09,676.296,-676.269,-6.41253e-06,1.27417e-08,-1.27414e-08,-1.20816e-16
0.919975,0.06,0.172,0.01,23.6013,1.8,656.13,-656.104,85.9483,1.23617e-08,-1.23615e-08,1.61932e-09,661.735,-661.709,-5.94657e-06,1.24674e-08,-1.24671e-08,-1.12037e-16
0.929975,0.06,0.181984,0.01,29.6564,1.8,642.27,-642.245,83.2205,1.21006e-08,-1.21004e-08,1.56792e-09,647.639,-647.614,-5.51874e-06,1.22018e-08,-1.22015e-08,-1.03976e-16
0.939975,0.06,0.191969,0.01,35.6473,1.8,628.842,-628.818,80.6068,1.18476e-08,-1.18474e-08,1.51868e-09,633.988,-633.964,-5.12515e-06,1.19446e-08,-1.19443e-08,-9.65608e-17
0.949975,0.06,0.201956,0.01,41.5753,1.8,615.83,-615.807,78.1012,1.16025e-08,-1.16023e-08,1.47147e-09,620.763,-620.74,-4.76331e-06,1.16954e-08,-1.16952e-08,-8.97436e-17
0.959975,0.06,0.211944,0.01,47.4417,1.8,603.216,-603.194,75.6983,1.13648e-08,-1.13646e-08,1.4262e-09,607.947,-607.925,-4.43074e-06,1.1454e-08,-1.14538e-08,-8.34776e-17
0.969975,0.06,0.221933,0.01,53.2478,1.8,591.095,-591.286,73.3944,1.11374e-08,-1.11393e-08,1.38279e-09,595.634,-595.824,-0.0252167,1.12229e-08,-1.12248e-08,-4.75097e-13
0.979975,0.06,0.231923,0.01,58.9948,1.8,580.726,-584.537,71.7409,1.09578e-08,-1.09964e-08,1.35164e-09,585.126,-588.937,0.127087,1.10407e-08,-1.10793e-08,2.39439e-12
0.989975,0.06,0.241914,0.01,64.6838,1.8,571.331,-580.292,70.7951,1.08032e-08,-1.08941e-08,1.33382e-09,575.667,-584.627,0.735233,1.08849e-08,-1.09758e-08,1.38522e-11
-0.990025,0.07,0.242588,0.01,65.0834,2.45,569.208,-577.748,-82.2582,1.07613e-08,-1.0848e-08,-1.54979e-09,575.077,-583.617,-0.747344,1.08719e-08,-1.09585e-08,-1.40804e-11
-0.980025,0.07,0.232624,0.01,59.4022,2.45,578.322,-582.092,-83.4517,1.09123e-08,-1.09506e-08,-1.57228e-09,584.293,-588.063,-0.14063,1.10248e-08,-1.10631e-08,-2.64955e-12
-0.970025,0.07,0.222663,0.01,53.6633,2.45,588.594,-588.783,-85.3785,1.10903e-08,-1.10922e-08,-1.60858e-09,594.753,-594.942,0.0291291,1.12063e-08,-1.12082e-08,5.48808e-13
-0.960025,0.07,0.212706,0.01,47.8656,2.45,600.611,-600.589,-88.0534,1.13158e-08,-1.13155e-08,-1.65898e-09,607.031,-607.01,5.08829e-06,1.14367e-08,-1.14365e-08,9.58664e-17
-0.950025,0.07,0.202753,0.01,42.0078,2.45,613.115,-613.093,-90.843,1.15513e-08,-1.15511e-08,-1.71153e-09,619.809,-619.786,5.4685e-06,1.16775e-08,-1.16772e-08,1.0303e-16
-0.940025,0.07,0.192805,0.01,36.0887,2.45,626.012,-625.988,-93.7515,1.17943e-08,-1.17941e-08,-1.76633e-09,632.993,-632.97,5.88145e-06,1.19259e-08,-1.19256e-08,1.1081e-16
-0.930025,0.07,0.182862,0.01,30.107,2.45,639.317,-639.293,-96.7852,1.2045e-08,-1.20448e-08,-1.82349e-09,646.602,-646.577,6.3303e-06,1.21822e-08,-1.2182e-08,1.19266e-16
-0.920025,0.07,0.172927,0.01,24.0614,2.45,653.049,-653.023,-99.9509,1.23037e-08,-1.23034e-08,-1.88313e-09,660.653,-660.628,6.81853e-06,1.2447e-08,-1.24467e-08,1.28465e-16
-0.910025,0.07,0.162999,0.01,17.9504,2.45,667.224,-667.198,-103.256,1.25708e-08,-1.25705e-08,-1.9454e-09,675.167,-675.14,7.35033e-06,1.27204e-08,-1.27202e-08,1.38485e-16
-0.900025,0.07,0.15308,0.01,11.7727,2.45,681.864,-681.836,-106.708,1.28466e-08,-1.28463e-08,-2.01044e-09,690.163,-690.135,7.93e-06,1.3003e-08,-1.30027e-08,1.49406e-16
-0.890025,0.07,0.143173,0.01,5.52689,2.45,696.987,-696.958,-110.315,1.31315e-08,-1.31312e-08,-2.07841e-09,705.664,-705.635,8.56199e-06,1.3295e-08,-1.32947e-08,1.61313e-16
-0.880025,0.07,0.13328,0.01,-0.788671,2.45,712.616,-712.586,-114.087,1.3426e-08,-1.34257e-08,-2.14946e-09,721.691,-721.661,9.25248e-06,1.35969e-08,-1.35966e-08,1.74322e-16
-0.870025,0.07,0.123345,0.01,-7.1755,2.45,728.773,-728.741,-118.032,1.37304e-08,-1.373e-08,-2.22379e-09,738.269,-738.238,1.00073e-05,1.39093e-08,-1.3909e-08,1.88543e-16
-0.860025,0.07,0.113345,0.01,-13.6352,2.45,745.482,-745.448,-122.161,1.40452e-08,-1.40448e-08,-2.30158e-09,755.425,-755.391,1.08324e-05,1.42325e-08,-1.42322e-08,2.04089e-16
-0.850025,0.07,0.103345,0.01,-20.1695,2.45,762.767,-762.733,-126.483,1.43708e-08,-1.43705e-08,-2.38302e-09,773.183,-773.149,1.17362e-05,1.45671e-08,-1.45667e-08,2.21116e-16
-0.840025,0.07,0.0933451,0.01,-26.78,2.45,780.657,-780.62,-131.012,1.47079e-08,-1.47075e-08,-2.46835e-09,791.574,-791.538,1.27272e-05,1.49136e-08,-1.49132e-08,2.39788e-16
-0.830025,0.07,0.0833451,0.01,-33.4686,2.45,799.178,-799.14,-135.759,1.50568e-08,-1.50564e-08,-2.55779e-09,810.627,-810.589,1.38104e-05,1.52725e-08,-1.52721e-08,2.60197e-16
-0.820025,0.07,0.0733451,0.01,-40.2371,2.45,818.361,-818.322,-140.738,1.54182e-08,-1.54178e-08,-2.65159e-09,830.375,-830.335,1.48885e-05,1.56446e-08,-1.56442e-08,2.80509e-16
-0.810025,0.07,0.0633452,0.01,-47.0875,2.45,838.238,-838.196,-145.963,1.57927e-08,-1.57923e-08,-2.75002e-09,850.852,-850.81,1.33377e-05,1.60304e-08,-1.60299e-08,2.51291e-16
-0.800025,0.07,0.0533453,0.01,-54.0217,2.45,858.842,-858.798,-151.448,1.61809e-08,-1.61804e-08,-2.85337e-09,872.093,-872.049,-5.29593e-05,1.64306e-08,-1.64301e-08,-9.97784e-16
-0.790025,0.07,0.0433454,0.01,-61.0418,2.45,880.205,-880.155,-157.212,1.65834e-08,-1.65828e-08,-2.96197e-09,894.135,-894.085,-0.001618,1.68458e-08,-1.68453e-08,-3.0484e-14
-0.780025,0.07,0.0333455,0.01,-68.1499,2.45,902.145,-901.702,-163.28,1.6995e-08,-1.69905e-08,-3.07628e-09,916.806,-916.363,-0.0853304,1.72712e-08,-1.72667e-08,-1.60767e-12
-0.770025,0.07,0.0233459,0.01,-75.3482,2.45,922.268,-912.879,-168.912,1.73352e-08,-1.724e-08,-3.1824e-09,937.685,-928.297,-0.684219,1.76257e-08,-1.75305e-08,-1.28911e-11
-0.760025,0.07,0.0133466,0.01,-82.639,2.45,943.172,-906.59,-174.482,1.76109e-08,-1.72397e-08,-3.28734e-09,959.483,-922.9,-2.61227,1.79182e-08,-1.7547e-08,-4.92166e-11
0.759975,0.07,0.0132969,0.01,-82.6754,2.45,943.292,-906.631,174.529,1.76128e-08,-1.72409e-08,3.28823e-09,959.61,-922.95,2.63305,1.79202e-08,-1.75483e-08,4.96082e-11
0.769975,0.07,0.0232961,0.01,-75.3842,2.45,922.384,-912.989,168.947,1.73374e-08,-1.72421e-08,3.18307e-09,937.806,-928.411,0.687897,1.7628e-08,-1.75327e-08,1.29604e-11
0.779975,0.07,0.0332958,0.01,-68.1854,2.45,902.257,-901.815,163.311,1.69971e-08,-1.69926e-08,3.07687e-09,916.921,-916.479,0.0855649,1.72734e-08,-1.72689e-08,1.61209e-12
0.789975,0.07,0.0432956,0.01,-61.0769,2.45,880.313,-880.263,157.242,1.65854e-08,-1.65849e-08,2.96252e-09,894.247,-894.196,0.00164368,1.68479e-08,-1.68474e-08,3.09679e-14
0.799975,0.07,0.0532955,0.01,-54.0564,2.45,858.946,-858.902,151.476,1.61829e-08,-1.61824e-08,2.8539e-09,872.201,-872.157,5.40693e-05,1.64326e-08,-1.64321e-08,1.0187e-15
0.809975,0.07,0.0632955,0.01,-47.1218,2.45,838.339,-838.297,145.989,1.57946e-08,-1.57942e-08,2.75052e-09,850.956,-850.914,-1.32973e-05,1.60323e-08,-1.60319e-08,-2.50529e-16
0.819975,0.07,0.0732954,0.01,-40.271,2.45,818.459,-818.419,140.763,1.54201e-08,-1.54197e-08,2.65207e-09,830.475,-830.435,-1.48928e-05,1.56465e-08,-1.56461e-08,-2.80589e-16
0.829975,0.07,0.0832954,0.01,-33.5021,2.45,799.272,-799.234,135.784,1.50586e-08,-1.50582e-08,2.55824e-09,810.724,-810.686,-1.38156e-05,1.52743e-08,-1.5274e-08,-2.60294e-16
0.839975,0.07,0.0932953,0.01,-26.8131,2.45,780.747,-780.711,131.035,1.47096e-08,-1.47092e-08,2.46878e-09,791.667,-791.631,-1.27323e-05,1.49153e-08,-1.49149e-08,-2.39884e-16
0.849975,0.07,0.103295,0.01,-20.2021,2.45,762.855,-762.82,126.505,1.43725e-08,-1.43721e-08,2.38344e-09,773.273,-773.238,-1.17414e-05,1.45688e-08,-1.45684e-08,-2.21214e-16
0.859975,0.07,0.113295,0.01,-13.6675,2.45,745.566,-745.533,122.182,1.40468e-08,-1.40464e-08,2.30197e-09,755.511,-755.478,-1.08369e-05,1.42341e-08,-1.42338e-08,-2.04173e-16
0.869975,0.07,0.123295,0.01,-7.20744,2.45,728.855,-728.823,118.052,1.37319e-08,-1.37316e-08,2.22417e-09,738.353,-738.322,-1.00108e-05,1.39109e-08,-1.39105e-08,-1.8861e-16
0.879975,0.07,0.13323,0.01,-0.820256,2.45,712.695,-712.665,114.106,1.34275e-08,-1.34272e-08,2.14983e-09,721.772,-721.742,-9.25619e-06,1.35985e-08,-1.35982e-08,-1.74392e-16
0.889975,0.07,0.143124,0.01,5.49565,2.45,697.064,-697.035,110.334,1.3133e-08,-1.31327e-08,2.07875e-09,705.742,-705.713,-8.56567e-06,1.32965e-08,-1.32962e-08,-1.61382e-16
0.899975,0.07,0.153031,0.01,11.7419,2.45,681.938,-681.91,106.726,1.2848e-08,-1.28477e-08,2.01077e-09,690.239,-690.211,-7.93304e-06,1.30044e-08,-1.30041e-08,-1.49463e-16
0.909975,0.07,0.162949,0.01,17.9199,2.45,667.296,-667.269,103.273,1.25721e-08,-1.25719e-08,1.94572e-09,675.24,-675.214,-7.35309e-06,1.27218e-08,-1.27215e-08,-1.38537e-16
0.919975,0.07,0.172877,0.01,24.0311,2.45,653.118,-653.092,99.967,1.2305e-08,-1.23048e-08,1.88344e-09,660.724,-660.699,-6.82108e-06,1.24483e-08,-1.24481e-08,-1.28513e-16
0.929975,0.07,0.182813,0.01,30.0771,2.45,639.384,-639.36,96.8006,1.20463e-08,-1.2046e-08,1.82378e-09,646.671,-646.646,-6.33286e-06,1.21835e-08,-1.21833e-08,-1.19315e-16
0.939975,0.07,0.192755,0.01,36.0591,2.45,626.077,-626.053,93.7662,1.17956e-08,-1.17953e-08,1.76661e-09,633.06,-633.036,-5.88366e-06,1.19271e-08,-1.19269e-08,-1.10852e-16
0.949975,0.07,0.202703,0.01,41.9785,2.45,613.178,-613.156,90.8572,1.15525e-08,-1.15523e-08,1.7118e-09,619.873,-619.851,-5.47005e-06,1.16787e-08,-1.16784e-08,-1.03059e-16
0.959975,0.07,0.212656,0.01,47.8366,2.45,600.672,-600.651,88.067,1.13169e-08,-1.13167e-08,1.65923e-09,607.094,-607.072,-5.08959e-06,1.14379e-08,-1.14377e-08,-9.58908e-17
0.969975,0.07,0.222613,0.01,53.6346,2.45,588.653,-588.842,85.3915,1.10914e-08,-1.10933e-08,1.60883e-09,594.813,-595.003,-0.0291349,1.12075e-08,-1.12094e-08,-5.48918e-13
0.979975,0.07,0.232574,0.01,59.3738,2.45,578.38,-582.151,83.4644,1.09134e-08,-1.09517e-08,1.57252e-09,584.352,-588.123,0.140659,1.10259e-08,-1.10642e-08,2.65009e-12
0.989975,0.07,0.242538,0.01,65.0553,2.45,569.265,-577.806,82.2706,1.07624e-08,-1.08491e-08,1.55003e-09,575.135,-583.676,0.747497,1.0873e-08,-1.09597e-08,1.40833e-11
-0.990025,0.08,0.243559,0.01,65.5113,3.2,569.271,-573.371,-91.8494,1.07432e-08,-1.07848e-08,-1.7305e-09,576.606,-580.706,1.07571,1.08814e-08,-1.0923e-08,2.02671e-11
-0.980025,0.08,0.233569,0.01,59.8388,3.2,576.873,-578.773,-93.7201,1.08769e-08,-1.08962e-08,-1.76574e-09,584.423,-586.323,1.23229,1.10191e-08,-1.10384e-08,2.3217e-11
-0.970025,0.08,0.223579,0.01,54.1089,3.2,585.92,-585.841,-97.012,1.10387e-08,-1.10379e-08,-1.82776e-09,593.897,-593.818,0.283528,1.1189e-08,-1.11882e-08,5.34184e-12
-0.960025,0.08,0.213589,0.01,48.3205,3.2,597.691,-597.67,-100.307,1.12608e-08,-1.12605e-08,-1.88985e-09,606.05,-606.029,5.7119e-06,1.14182e-08,-1.1418e-08,1.07615e-16
-0.950025,0.08,0.203601,0.01,42.4723,3.2,610.072,-610.05,-103.478,1.1494e-08,-1.14938e-08,-1.94959e-09,618.786,-618.764,6.13681e-06,1.16582e-08,-1.1658e-08,1.15621e-16
-0.940025,0.08,0.193615,0.01,36.563,3.2,622.838,-622.815,-106.784,1.17345e-08,-1.17343e-08,-2.01187e-09,631.926,-631.903,6.59749e-06,1.19058e-08,-1.19055e-08,1.24301e-16
-0.930025,0.08,0.183629,0.01,30.5915,3.2,636.007,-635.983,-110.231,1.19826e-08,-1.19824e-08,-2.07682e-09,645.489,-645.464,7.09778e-06,1.21613e-08,-1.2161e-08,1.33726e-16
-0.920025,0.08,0.173646,0.01,24.5564,3.2,649.593,-649.568,-113.828,1.22386e-08,-1.22384e-08,-2.14459e-09,659.491,-659.466,7.64219e-06,1.24251e-08,-1.24248e-08,1.43983e-16
-0.910025,0.08,0.163664,0.01,18.4563,3.2,663.617,-663.59,-117.583,1.25028e-08,-1.25025e-08,-2.21533e-09,673.953,-673.927,8.23499e-06,1.26976e-08,-1.26973e-08,1.55152e-16
-0.900025,0.08,0.153685,0.01,12.2899,3.2,678.095,-678.068,-121.504,1.27756e-08,-1.27753e-08,-2.28921e-09,688.895,-688.868,8.88034e-06,1.29791e-08,-1.29788e-08,1.67311e-16
-0.890025,0.08,0.143709,0.01,6.05563,3.2,693.048,-693.02,-125.602,1.30573e-08,-1.3057e-08,-2.36641e-09,704.338,-704.309,9.58372e-06,1.327e-08,-1.32697e-08,1.80563e-16
-0.880025,0.08,0.133736,0.01,-0.247935,3.2,708.497,-708.467,-129.885,1.33484e-08,-1.33481e-08,-2.4471e-09,720.304,-720.275,1.03517e-05,1.35708e-08,-1.35705e-08,1.95032e-16
-0.870025,0.08,0.123768,0.01,-6.62235,3.2,724.463,-724.432,-134.364,1.36492e-08,-1.36489e-08,-2.5315e-09,736.818,-736.787,1.11902e-05,1.3882e-08,-1.38816e-08,2.1083e-16
-0.860025,0.08,0.113805,0.01,-13.0692,3.2,740.971,-740.938,-139.051,1.39602e-08,-1.39598e-08,-2.61981e-09,753.905,-753.873,1.21066e-05,1.42039e-08,-1.42035e-08,2.28095e-16
-0.850025,0.08,0.103849,0.01,-19.5902,3.2,758.043,-758.009,-143.958,1.42818e-08,-1.42815e-08,-2.71226e-09,771.592,-771.558,1.311e-05,1.45371e-08,-1.45367e-08,2.47e-16
-0.840025,0.08,0.0939026,0.01,-26.1869,3.2,775.707,-775.671,-149.098,1.46146e-08,-1.46143e-08,-2.8091e-09,789.906,-789.871,1.42095e-05,1.48821e-08,-1.48818e-08,2.67715e-16
-0.830025,0.08,0.0839691,0.01,-32.8613,3.2,793.989,-793.951,-154.485,1.4959e-08,-1.49587e-08,-2.91059e-09,808.878,-808.841,1.54161e-05,1.52396e-08,-1.52392e-08,2.90448e-16
-0.820025,0.08,0.0740534,0.01,-39.615,3.2,812.918,-812.879,-160.134,1.53157e-08,-1.53153e-08,-3.01701e-09,828.54,-828.501,1.68024e-05,1.561e-08,-1.56096e-08,3.16568e-16
-0.810025,0.08,0.064164,0.01,-46.4501,3.2,832.525,-832.484,-166.06,1.56851e-08,-1.56847e-08,-3.12867e-09,848.925,-848.884,2.02148e-05,1.59941e-08,-1.59936e-08,3.80858e-16
-0.800025,0.08,0.054315,0.01,-53.3684,3.2,852.842,-852.799,-172.281,1.60678e-08,-1.60674e-08,-3.24588e-09,870.069,-870.027,7.34312e-05,1.63924e-08,-1.6392e-08,1.38349e-15
-0.790025,0.08,0.0445334,0.01,-60.372,3.2,873.905,-873.864,-178.816,1.64647e-08,-1.64643e-08,-3.369e-09,892.013,-891.971,0.0013397,1.68059e-08,-1.68054e-08,2.52407e-14
-0.780025,0.08,0.0348759,0.01,-67.463,3.2,895.537,-895.067,-185.667,1.68704e-08,-1.68656e-08,-3.49807e-09,914.586,-914.116,-0.0674552,1.72293e-08,-1.72245e-08,-1.2709e-12
-0.770025,0.08,0.025484,0.01,-74.6435,3.2,915.429,-907.461,-191.358,1.72126e-08,-1.71317e-08,-3.60529e-09,935.3,-927.332,0.0916286,1.7587e-08,-1.75061e-08,1.72634e-12
-0.760025,0.08,0.0168088,0.01,-81.916,3.2,935.991,-908.693,-196.343,1.75159e-08,-1.7239e-08,-3.69921e-09,956.658,-929.36,0.00365985,1.79053e-08,-1.76284e-08,6.89537e-14
0.759975,0.08,0.0167693,0.01,-81.9524,3.2,936.113,-908.691,196.372,1.75177e-08,-1.72395e-08,3.69976e-09,956.784,-929.362,-0.000209118,1.79071e-08,-1.76289e-08,-3.93991e-15
0.769975,0.08,0.0254384,0.01,-74.6795,3.2,915.538,-907.549,191.399,1.72145e-08,-1.71335e-08,3.60607e-09,935.416,-927.427,-0.0839463,1.7589e-08,-1.7508e-08,-1.5816e-12
0.779975,0.08,0.0348284,0.01,-67.4984,3.2,895.648,-895.177,185.702,1.68725e-08,-1.68677e-08,3.49873e-09,914.702,-914.231,0.0673412,1.72315e-08,-1.72267e-08,1.26875e-12
0.789975,0.08,0.044485,0.01,-60.407,3.2,874.012,-873.97,178.849,1.64667e-08,-1.64663e-08,3.36962e-09,892.124,-892.082,-0.00136071,1.68079e-08,-1.68075e-08,-2.56365e-14
0.799975,0.08,0.0542662,0.01,-53.403,3.2,852.945,-852.902,172.313,1.60698e-08,-1.60694e-08,3.24648e-09,870.176,-870.134,-7.43083e-05,1.63944e-08,-1.6394e-08,-1.40001e-15
0.809975,0.08,0.0641149,0.01,-46.4843,3.2,832.624,-832.583,166.09,1.56869e-08,-1.56865e-08,3.12923e-09,849.028,-848.988,-2.02563e-05,1.5996e-08,-1.59956e-08,-3.8164e-16
0.819975,0.08,0.0740042,0.01,-39.6488,3.2,813.014,-812.975,160.162,1.53175e-08,-1.53171e-08,3.01755e-09,828.64,-828.601,-1.68108e-05,1.56119e-08,-1.56115e-08,-3.16725e-16
0.829975,0.08,0.0839197,0.01,-32.8947,3.2,794.081,-794.044,154.512,1.49608e-08,-1.49604e-08,2.9111e-09,808.974,-808.937,-1.54221e-05,1.52414e-08,-1.5241e-08,-2.90562e-16
0.839975,0.08,0.0938532,0.01,-26.2199,3.2,775.796,-775.761,149.124,1.46163e-08,-1.46159e-08,2.80959e-09,789.999,-789.963,-1.4215e-05,1.48839e-08,-1.48835e-08,-2.67819e-16
0.849975,0.08,0.103799,0.01,-19.6228,3.2,758.13,-758.096,143.983,1.42835e-08,-1.42831e-08,2.71273e-09,771.681,-771.647,-1.31157e-05,1.45388e-08,-1.45384e-08,-2.47107e-16
0.859975,0.08,0.113755,0.01,-13.1015,3.2,741.054,-741.022,139.075,1.39618e-08,-1.39614e-08,2.62025e-09,753.992,-753.959,-1.21118e-05,1.42055e-08,-1.42052e-08,-2.28193e-16
0.869975,0.08,0.123718,0.01,-6.65423,3.2,724.544,-724.513,134.387,1.36507e-08,-1.36504e-08,2.53193e-09,736.902,-736.871,-1.11945e-05,1.38835e-08,-1.38832e-08,-2.10912e-16
0.879975,0.08,0.133686,0.01,-0.279458,3.2,708.575,-708.545,129.906,1.33498e-08,-1.33495e-08,2.44751e-09,720.385,-720.355,-1.03558e-05,1.35723e-08,-1.3572e-08,-1.9511e-16
0.889975,0.08,0.143659,0.01,6.02445,3.2,693.124,-693.095,125.622,1.30587e-08,-1.30584e-08,2.3668e-09,704.416,-704.387,-9.58777e-06,1.32715e-08,-1.32712e-08,-1.80639e-16
0.899975,0.08,0.153635,0.01,12.259,3.2,678.168,-678.141,121.524,1.2777e-08,-1.27767e-08,2.28959e-09,688.971,-688.943,-8.88358e-06,1.29805e-08,-1.29802e-08,-1.67372e-16
0.909975,0.08,0.163615,0.01,18.4258,3.2,663.687,-663.661,117.602,1.25041e-08,-1.25039e-08,2.21569e-09,674.026,-674,-8.23773e-06,1.26989e-08,-1.26987e-08,-1.55204e-16
0.919975,0.08,0.173596,0.01,24.5262,3.2,649.662,-649.637,113.846,1.22399e-08,-1.22396e-08,2.14493e-09,659.562,-659.537,-7.64482e-06,1.24264e-08,-1.24262e-08,-1.44033e-16
0.929975,0.08,0.18358,0.01,30.5617,3.2,636.073,-636.049,110.249,1.19839e-08,-1.19836e-08,2.07715e-09,645.557,-645.533,-7.10044e-06,1.21626e-08,-1.21623e-08,-1.33776e-16
0.939975,0.08,0.193565,0.01,36.5335,3.2,622.903,-622.88,106.8,1.17358e-08,-1.17355e-08,2.01218e-09,631.993,-631.969,-6.59995e-06,1.1907e-08,-1.19068e-08,-1.24347e-16
0.949975,0.08,0.203552,0.01,42.443,3.2,610.135,-610.112,103.494,1.14952e-08,-1.1495e-08,1.94989e-09,618.85,-618.828,-6.1387e-06,1.16594e-08,-1.16592e-08,-1.15657e-16
0.959975,0.08,0.21354,0.01,48.2915,3.2,597.752,-597.731,100.323,1.12619e-08,-1.12617e-08,1.89014e-09,606.112,-606.091,-5.7139e-06,1.14194e-08,-1.14192e-08,-1.07653e-16
0.969975,0.08,0.223529,0.01,54.0803,3.2,585.979,-585.899,97.0267,1.10398e-08,-1.1039e-08,1.82804e-09,593.958,-593.878,-0.283567,1.11902e-08,-1.11894e-08,-5.34256e-12
0.979975,0.08,0.233519,0.01,59.8105,3.2,576.93,-578.831,93.7343,1.0878e-08,-1.08972e-08,1.76601e-09,584.482,-586.382,-1.23245,1.10202e-08,-1.10395e-08,-2.32202e-11
0.989975,0.08,0.24351,0.01,65.4832,3.2,569.327,-573.428,91.8632,1.07443e-08,-1.07859e-08,1.73076e-09,576.664,-580.765,-1.07584,1.08825e-08,-1.09241e-08,-2.02694e-11
-0.990025,0.09,0.244183,0.01,65.9954,4.05,569.682,-568.225,-100.021,1.07268e-08,-1.0712e-08,-1.88446e-09,578.391,-576.935,4.21379,1.08909e-08,-1.08761e-08,7.93902e-11
-0.980025,0.09,0.234219,0.01,60.3328,4.05,573.858,-575.491,-105.102,1.08189e-08,-1.08355e-08,-1.98019e-09,583.389,-585.022,1.32283,1.09985e-08,-1.10151e-08,2.49229e-11
-0.970025,0.09,0.224258,0.01,54.6131,4.05,582.814,-583.48,-109.356,1.09834e-08,-1.09902e-08,-2.06033e-09,592.979,-593.645,-0.202606,1.1175e-08,-1.11817e-08,-3.81722e-12
-0.960025,0.09,0.214301,0.01,48.8351,4.05,594.404,-594.39,-112.438,1.11989e-08,-1.11987e-08,-2.11839e-09,604.945,-604.931,-0.0030256,1.13975e-08,-1.13973e-08,-5.70041e-14
-0.950025,0.09,0.204348,0.01,42.9977,4.05,606.643,-606.622,-115.979,1.14294e-08,-1.14292e-08,-2.18511e-09,617.63,-617.609,6.76232e-06,1.16364e-08,-1.16362e-08,1.27406e-16
-0.940025,0.09,0.194399,0.01,37.0996,4.05,619.263,-619.241,-119.674,1.16672e-08,-1.1667e-08,-2.25473e-09,630.721,-630.699,7.26674e-06,1.18831e-08,-1.18828e-08,1.3691e-16
-0.930025,0.09,0.184456,0.01,31.1396,4.05,632.277,-632.254,-123.528,1.19124e-08,-1.19121e-08,-2.32733e-09,644.231,-644.208,7.81442e-06,1.21376e-08,-1.21374e-08,1.47228e-16
-0.920025,0.09,0.17452,0.01,25.1164,4.05,645.702,-645.677,-127.548,1.21653e-08,-1.2165e-08,-2.40307e-09,658.179,-658.154,8.40991e-06,1.24004e-08,-1.24001e-08,1.58448e-16
-0.910025,0.09,0.164592,0.01,19.0286,4.05,659.554,-659.528,-131.744,1.24263e-08,-1.2426e-08,-2.48213e-09,672.583,-672.557,9.05769e-06,1.26717e-08,-1.26715e-08,1.70652e-16
-0.900025,0.09,0.154672,0.01,12.8748,4.05,673.851,-673.824,-136.125,1.26956e-08,-1.26954e-08,-2.56467e-09,687.463,-687.437,9.76248e-06,1.29521e-08,-1.29518e-08,1.83931e-16
-0.890025,0.09,0.144764,0.01,6.65367,4.05,688.613,-688.586,-140.702,1.29738e-08,-1.29735e-08,-2.65091e-09,702.841,-702.813,1.05304e-05,1.32418e-08,-1.32415e-08,1.98399e-16
-0.880025,0.09,0.134869,0.01,0.363646,4.05,703.86,-703.831,-145.486,1.3261e-08,-1.32607e-08,-2.74104e-09,718.739,-718.71,1.13681e-05,1.35413e-08,-1.3541e-08,2.14181e-16
-0.870025,0.09,0.124991,0.01,-5.99676,4.05,719.614,-719.583,-150.489,1.35578e-08,-1.35575e-08,-2.83529e-09,735.181,-735.15,1.22819e-05,1.38511e-08,-1.38508e-08,2.31398e-16
-0.860025,0.09,0.115134,0.01,-12.4291,4.05,735.895,-735.863,-155.722,1.38646e-08,-1.38642e-08,-2.93389e-09,752.191,-752.159,1.32803e-05,1.41716e-08,-1.41713e-08,2.50208e-16
-0.850025,0.09,0.105304,0.01,-18.9351,4.05,752.728,-752.695,-161.2,1.41817e-08,-1.41814e-08,-3.03711e-09,769.796,-769.763,1.43724e-05,1.45033e-08,-1.45029e-08,2.70785e-16
-0.840025,0.09,0.0954677,0.01,-25.5163,4.05,770.139,-770.104,-166.937,1.45097e-08,-1.45094e-08,-3.1452e-09,788.024,-787.99,1.5568e-05,1.48467e-08,-1.48463e-08,2.9331e-16
-0.830025,0.09,0.0854678,0.01,-32.1746,4.05,788.152,-788.116,-172.949,1.48491e-08,-1.48487e-08,-3.25846e-09,806.905,-806.869,1.68788e-05,1.52024e-08,-1.5202e-08,3.18006e-16
-0.820025,0.09,0.0754679,0.01,-38.9117,4.05,806.797,-806.759,-179.251,1.52003e-08,-1.52e-08,-3.3772e-09,826.47,-826.432,1.82948e-05,1.5571e-08,-1.55706e-08,3.44684e-16
-0.810025,0.09,0.065468,0.01,-45.7294,4.05,826.101,-826.061,-185.862,1.55641e-08,-1.55636e-08,-3.50176e-09,846.752,-846.712,1.87274e-05,1.59531e-08,-1.59527e-08,3.52836e-16
-0.800025,0.09,0.0554682,0.01,-52.6298,4.05,846.097,-846.055,-192.801,1.59408e-08,-1.59404e-08,-3.63249e-09,867.787,-867.745,-1.54744e-05,1.63494e-08,-1.6349e-08,-2.91547e-16
-0.790025,0.09,0.0454685,0.01,-59.6148,4.05,866.816,-866.77,-200.089,1.63311e-08,-1.63307e-08,-3.76979e-09,889.61,-889.564,-0.000961326,1.67606e-08,-1.67601e-08,-1.81119e-14
-0.780025,0.09,0.0354689,0.01,-66.6865,4.05,888.255,-888.143,-207.744,1.67347e-08,-1.67336e-08,-3.91402e-09,912.226,-912.114,-0.0161273,1.71864e-08,-1.71852e-08,-3.03847e-13
-0.770025,0.09,0.0254697,0.01,-73.847,4.05,909.548,-907.002,-214.291,1.71253e-08,-1.70995e-08,-4.03737e-09,934.484,-931.938,0.940674,1.75952e-08,-1.75693e-08,1.77228e-11
-0.760025,0.09,0.0154714,0.01,-81.0985,4.05,927.579,-918.515,-221.751,1.74367e-08,-1.73448e-08,-4.17791e-09,953.841,-944.778,-0.0314384,1.79315e-08,-1.78396e-08,-5.92317e-13
-0.750025,0.09,0.00547937,0.01,-88.4417,4.05,938.24,-921.128,-224.504,1.76026e-08,-1.7429e-08,-4.22978e-09,964.962,-947.849,1.81974,1.8106e-08,-1.79324e-08,3.42849e-11
0.749975,0.09,0.00542975,0.01,-88.4785,4.05,938.394,-920.972,224.362,1.76041e-08,-1.74274e-08,4.22711e-09,965.082,-947.66,-1.97212,1.81069e-08,-1.79302e-08,-3.71559e-11
0.759975,0.09,0.0154217,0.01,-81.1348,4.05,927.691,-918.556,221.749,1.74385e-08,-1.73458e-08,4.17788e-09,953.951,-944.817,-0.00271786,1.79333e-08,-1.78406e-08,-5.12061e-14
0.769975,0.09,0.0254199,0.01,-73.8828,4.05,909.654,-907.095,214.322,1.71273e-08,-1.71013e-08,4.03794e-09,934.595,-932.036,-0.947955,1.75972e-08,-1.75712e-08,-1.786e-11
0.779975,0.09,0.0354192,0.01,-66.7219,4.05,888.363,-888.25,207.784,1.67368e-08,-1.67356e-08,3.91476e-09,912.341,-912.228,0.0164599,1.71885e-08,-1.71874e-08,3.10113e-13
0.789975,0.09,0.0454188,0.01,-59.6498,4.05,866.921,-866.875,200.126,1.63331e-08,-1.63326e-08,3.77049e-09,889.721,-889.675,0.000977222,1.67627e-08,-1.67622e-08,1.84114e-14
0.799975,0.09,0.0554185,0.01,-52.6643,4.05,846.198,-846.157,192.837,1.59427e-08,-1.59423e-08,3.63315e-09,867.893,-867.851,1.60879e-05,1.63514e-08,-1.6351e-08,3.03106e-16
0.809975,0.09,0.0654183,0.01,-45.7636,4.05,826.199,-826.159,185.896,1.55659e-08,-1.55655e-08,3.50239e-09,846.855,-846.815,-1.87146e-05,1.59551e-08,-1.59547e-08,-3.52593e-16
0.819975,0.09,0.0754182,0.01,-38.9454,4.05,806.891,-806.853,179.283,1.52021e-08,-1.52017e-08,3.3778e-09,826.569,-826.531,-1.8302e-05,1.55729e-08,-1.55725e-08,-3.4482e-16
0.829975,0.09,0.0854181,0.01,-32.2079,4.05,788.243,-788.207,172.98,1.48508e-08,-1.48504e-08,3.25903e-09,807.001,-806.964,-1.68855e-05,1.52042e-08,-1.52038e-08,-3.18133e-16
0.839975,0.09,0.095418,0.01,-25.5493,4.05,770.227,-770.192,166.967,1.45114e-08,-1.4511e-08,3.14575e-09,788.117,-788.082,-1.55741e-05,1.48484e-08,-1.48481e-08,-2.93424e-16
0.849975,0.09,0.105256,0.01,-18.9676,4.05,752.814,-752.78,161.228,1.41833e-08,-1.4183e-08,3.03763e-09,769.885,-769.852,-1.43782e-05,1.45049e-08,-1.45046e-08,-2.70894e-16
0.859975,0.09,0.115085,0.01,-12.4613,4.05,735.977,-735.946,155.749,1.38661e-08,-1.38658e-08,2.9344e-09,752.277,-752.245,-1.32857e-05,1.41732e-08,-1.41729e-08,-2.50311e-16
0.869975,0.09,0.124942,0.01,-6.02857,4.05,719.693,-719.663,150.514,1.35593e-08,-1.3559e-08,2.83577e-09,735.264,-735.234,-1.22866e-05,1.38527e-08,-1.38524e-08,-2.31487e-16
0.879975,0.09,0.13482,0.01,0.332191,4.05,703.937,-703.908,145.51,1.32625e-08,-1.32622e-08,2.7415e-09,718.82,-718.791,-1.13723e-05,1.35429e-08,-1.35426e-08,-2.14261e-16
0.889975,0.09,0.144715,0.01,6.62256,4.05,688.688,-688.66,140.725,1.29752e-08,-1.29749e-08,2.65135e-09,702.919,-702.891,-1.05345e-05,1.32433e-08,-1.3243e-08,-1.98477e-16
0.899975,0.09,0.154623,0.01,12.8441,4.05,673.923,-673.897,136.147,1.2697e-08,-1.26967e-08,2.56509e-09,687.538,-687.512,-9.76618e-06,1.29535e-08,-1.29532e-08,-1.84e-16
0.909975,0.09,0.164542,0.01,18.9982,4.05,659.624,-659.598,131.765,1.24276e-08,-1.24273e-08,2.48253e-09,672.656,-672.63,-9.06085e-06,1.26731e-08,-1.26729e-08,-1.70712e-16
0.919975,0.09,0.174471,0.01,25.0863,4.05,645.77,-645.745,127.568,1.21666e-08,-1.21663e-08,2.40346e-09,658.249,-658.225,-8.41272e-06,1.24017e-08,-1.24014e-08,-1.58501e-16
0.929975,0.09,0.184407,0.01,31.1098,4.05,632.343,-632.32,123.547,1.19136e-08,-1.19134e-08,2.3277e-09,644.3,-644.276,-7.81711e-06,1.21389e-08,-1.21386e-08,-1.47279e-16
0.939975,0.09,0.19435,0.01,37.0702,4.05,619.327,-619.305,119.693,1.16684e-08,-1.16682e-08,2.25508e-09,630.787,-630.765,-7.26935e-06,1.18843e-08,-1.18841e-08,-1.36959e-16
0.949975,0.09,0.204298,0.01,42.9685,4.05,606.705,-606.683,115.997,1.14306e-08,-1.14304e-08,2.18545e-09,617.695,-617.673,-6.76466e-06,1.16376e-08,-1.16374e-08,-1.2745e-16
0.959975,0.09,0.214251,0.01,48.8063,4.05,594.464,-594.45,112.455,1.12e-08,-1.11998e-08,2.11872e-09,605.007,-604.993,0.00302603,1.13986e-08,-1.13985e-08,5.70122e-14
0.969975,0.09,0.224209,0.01,54.5845,4.05,582.872,-583.538,109.372,1.09845e-08,-1.09913e-08,2.06064e-09,593.039,-593.705,0.202652,1.11761e-08,-1.11829e-08,3.81809e-12
0.979975,0.09,0.23417,0.01,60.3045,4.05,573.915,-575.549,105.118,1.082e-08,-1.08366e-08,1.98049e-09,583.448,-585.081,-1.32297,1.09996e-08,-1.10162e-08,-2.49255e-11
0.989975,0.09,0.244134,0.01,65.9674,4.05,569.738,-568.281,100.037,1.07279e-08,-1.07131e-08,1.88475e-09,578.449,-576.993,-4.21434,1.0892e-08,-1.08772e-08,-7.94006e-11
-0.980025,0.1,0.235294,0.01,60.884,5,570.425,-579.445,-118.738,1.07864e-08,-1.08779e-08,-2.23709e-09,582.558,-591.578,-0.169018,1.10149e-08,-1.11065e-08,-3.18439e-12
-0.970025,0.1,0.22538,0.01,55.1755,5,580.274,-583.507,-121.597,1.09468e-08,-1.09796e-08,-2.29096e-09,592.843,-596.076,-0.32722,1.11836e-08,-1.12164e-08,-6.16501e-12
-0.960025,0.1,0.215475,0.01,49.4092,5,590.857,-591.043,-124.422,1.11329e-08,-1.11348e-08,-2.34417e-09,603.813,-603.999,0.03935,1.1377e-08,-1.13789e-08,7.41377e-13
-0.950025,0.1,0.205578,0.01,43.5839,5,602.836,-602.815,-128.329,1.13577e-08,-1.13575e-08,-2.4178e-09,616.344,-616.323,7.34148e-06,1.16122e-08,-1.1612e-08,1.38318e-16
-0.940025,0.1,0.195692,0.01,37.6982,5,615.295,-615.273,-132.406,1.15924e-08,-1.15922e-08,-2.49461e-09,629.38,-629.358,7.88525e-06,1.18578e-08,-1.18576e-08,1.48563e-16
-0.930025,0.1,0.185757,0.01,31.751,5,628.138,-628.115,-136.657,1.18344e-08,-1.18342e-08,-2.5747e-09,642.832,-642.809,8.47559e-06,1.21112e-08,-1.2111e-08,1.59685e-16
-0.920025,0.1,0.175773,0.01,25.741,5,641.383,-641.359,-141.092,1.20839e-08,-1.20837e-08,-2.65825e-09,656.719,-656.695,9.11667e-06,1.23729e-08,-1.23726e-08,1.71763e-16
-0.910025,0.1,0.165792,0.01,19.6668,5,655.045,-655.02,-145.719,1.23413e-08,-1.23411e-08,-2.74543e-09,671.058,-671.033,9.81336e-06,1.2643e-08,-1.26428e-08,1.84889e-16
-0.900025,0.1,0.155812,0.01,13.5271,5,669.143,-669.117,-150.55,1.26069e-08,-1.26067e-08,-2.83645e-09,685.87,-685.844,1.05711e-05,1.29221e-08,-1.29218e-08,1.99166e-16
-0.890025,0.1,0.145836,0.01,7.32056,5,683.694,-683.667,-155.596,1.28811e-08,-1.28808e-08,-2.93152e-09,701.176,-701.149,1.13958e-05,1.32104e-08,-1.32102e-08,2.14703e-16
-0.880025,0.1,0.135863,0.01,1.04561,5,698.718,-698.69,-160.869,1.31641e-08,-1.31638e-08,-3.03087e-09,716.998,-716.97,1.22945e-05,1.35085e-08,-1.35082e-08,2.31635e-16
-0.870025,0.1,0.125895,0.01,-5.29922,5,714.235,-714.206,-166.382,1.34565e-08,-1.34562e-08,-3.13473e-09,733.359,-733.33,1.32749e-05,1.38168e-08,-1.38165e-08,2.50107e-16
-0.860025,0.1,0.115932,0.01,-11.7155,5,730.267,-730.237,-172.149,1.37585e-08,-1.37582e-08,-3.24338e-09,750.284,-750.253,1.43453e-05,1.41357e-08,-1.41353e-08,2.70274e-16
-0.850025,0.1,0.105975,0.01,-18.2048,5,746.837,-746.805,-178.183,1.40707e-08,-1.40704e-08,-3.35708e-09,767.799,-767.767,1.55144e-05,1.44656e-08,-1.44653e-08,2.923e-16
-0.840025,0.1,0.0960283,0.01,-24.7687,5,763.968,-763.934,-184.502,1.43935e-08,-1.43931e-08,-3.47613e-09,785.932,-785.898,1.67925e-05,1.48073e-08,-1.48069e-08,3.16381e-16
-0.830025,0.1,0.0860936,0.01,-31.4091,5,781.685,-781.65,-191.122,1.47272e-08,-1.47269e-08,-3.60085e-09,804.711,-804.676,1.81897e-05,1.51611e-08,-1.51607e-08,3.42705e-16
-0.820025,0.1,0.0761759,0.01,-38.1276,5,800.015,-799.979,-198.061,1.50726e-08,-1.50722e-08,-3.73158e-09,824.168,-824.132,1.97144e-05,1.55276e-08,-1.55273e-08,3.7143e-16
-0.810025,0.1,0.0662829,0.01,-44.9262,5,818.987,-818.948,-205.337,1.543e-08,-1.54296e-08,-3.86868e-09,844.336,-844.298,2.19086e-05,1.59076e-08,-1.59072e-08,4.12771e-16
-0.800025,0.1,0.0564277,0.01,-51.8066,5,838.629,-838.589,-212.973,1.58001e-08,-1.57997e-08,-4.01254e-09,865.25,-865.209,4.63225e-05,1.63016e-08,-1.63012e-08,8.72742e-16
-0.790025,0.1,0.0466341,0.01,-58.771,5,858.974,-858.933,-220.99,1.61834e-08,-1.6183e-08,-4.16357e-09,886.946,-886.905,0.00071256,1.67104e-08,-1.671e-08,1.3425e-14
-0.780025,0.1,0.0369513,0.01,-65.8212,5,880.077,-880.069,-229.405,1.65811e-08,-1.6581e-08,-4.32212e-09,909.485,-909.477,0.0176247,1.71352e-08,-1.71351e-08,3.3206e-13
-0.770025,0.1,0.0274966,0.01,-72.9594,5,901.702,-901.241,-238.235,1.69866e-08,-1.69819e-08,-4.48849e-09,932.65,-932.189,-0.0749685,1.75697e-08,-1.7565e-08,-1.41245e-12
-0.760025,0.1,0.0186204,0.01,-80.1879,5,920.362,-913.833,-246.014,1.73118e-08,-1.72455e-08,-4.63505e-09,952.786,-946.256,-0.414635,1.79226e-08,-1.78564e-08,-7.81196e-12
-0.750025,0.1,0.011721,0.01,-87.51,5,945.408,-930.506,-249.12,1.77472e-08,-1.75961e-08,-4.69356e-09,977.913,-963.011,5.32784,1.83597e-08,-1.82085e-08,1.0038e-10
0.749975,0.1,0.0116978,0.01,-87.5467,5,945.712,-930.701,249.103,1.77525e-08,-1.76002e-08,4.69324e-09,978.203,-963.193,-5.42624,1.83647e-08,-1.82124e-08,-1.02233e-10
0.759975,0.1,0.0185792,0.01,-80.2241,5,920.5,-913.935,246.036,1.73142e-08,-1.72476e-08,4.63547e-09,952.926,-946.36,0.388793,1.79251e-08,-1.78585e-08,7.32508e-12
0.769975,0.1,0.0274505,0.01,-72.9951,5,901.817,-901.35,238.274,1.69887e-08,-1.6984e-08,4.48922e-09,932.771,-932.304,0.0685341,1.75719e-08,-1.75672e-08,1.29122e-12
0.779975,0.1,0.0369036,0.01,-65.8565,5,880.184,-880.177,229.448,1.65832e-08,-1.65831e-08,4.32293e-09,909.599,-909.592,-0.0179093,1.71373e-08,-1.71373e-08,-3.37422e-13
0.789975,0.1,0.0465856,0.01,-58.8058,5,859.077,-859.036,221.031,1.61853e-08,-1.61849e-08,4.16434e-09,887.056,-887.015,-0.000723925,1.67125e-08,-1.67121e-08,-1.36392e-14
0.799975,0.1,0.0563788,0.01,-51.8411,5,838.728,-838.688,213.012,1.5802e-08,-1.58015e-08,4.01327e-09,865.356,-865.315,-4.674e-05,1.63036e-08,-1.63032e-08,-8.80608e-16
0.809975,0.1,0.0662338,0.01,-44.9602,5,819.083,-819.044,205.374,1.54318e-08,-1.54314e-08,3.86937e-09,844.438,-844.4,-2.19283e-05,1.59095e-08,-1.59091e-08,-4.13141e-16
0.819975,0.1,0.0761266,0.01,-38.1613,5,800.108,-800.071,198.096,1.50743e-08,-1.5074e-08,3.73224e-09,824.267,-824.23,-1.97223e-05,1.55295e-08,-1.55291e-08,-3.7158e-16
0.829975,0.1,0.0860442,0.01,-31.4423,5,781.775,-781.739,191.156,1.47289e-08,-1.47286e-08,3.60149e-09,804.806,-804.771,-1.81969e-05,1.51629e-08,-1.51625e-08,-3.42839e-16
0.839975,0.1,0.0959789,0.01,-24.8016,5,764.054,-764.021,184.535,1.43951e-08,-1.43947e-08,3.47674e-09,786.024,-785.99,-1.67991e-05,1.4809e-08,-1.48087e-08,-3.16505e-16
0.849975,0.1,0.105926,0.01,-18.2372,5,746.921,-746.889,178.214,1.40723e-08,-1.4072e-08,3.35766e-09,767.888,-767.856,-1.55203e-05,1.44673e-08,-1.4467e-08,-2.92411e-16
0.859975,0.1,0.115882,0.01,-11.7476,5,730.349,-730.318,172.178,1.37601e-08,-1.37597e-08,3.24393e-09,750.37,-750.339,-1.43508e-05,1.41373e-08,-1.4137e-08,-2.70378e-16
0.869975,0.1,0.125845,0.01,-5.33095,5,714.314,-714.284,166.41,1.3458e-08,-1.34577e-08,3.13526e-09,733.442,-733.412,-1.32801e-05,1.38183e-08,-1.3818e-08,-2.50204e-16
0.879975,0.1,0.135814,0.01,1.01423,5,698.794,-698.766,160.896,1.31656e-08,-1.31653e-08,3.03137e-09,717.078,-717.05,-1.22993e-05,1.351e-08,-1.35098e-08,-2.31727e-16
0.889975,0.1,0.145786,0.01,7.28953,5,683.767,-683.74,155.622,1.28825e-08,-1.28822e-08,2.932e-09,701.254,-701.226,-1.14003e-05,1.32119e-08,-1.32116e-08,-2.14788e-16
0.899975,0.1,0.155763,0.01,13.4964,5,669.214,-669.188,150.574,1.26083e-08,-1.2608e-08,2.83691e-09,685.945,-685.919,-1.05748e-05,1.29235e-08,-1.29232e-08,-1.99236e-16
0.909975,0.1,0.165742,0.01,19.6364,5,655.114,-655.089,145.742,1.23426e-08,-1.23424e-08,2.74587e-09,671.13,-671.105,-9.81682e-06,1.26444e-08,-1.26441e-08,-1.84954e-16
0.919975,0.1,0.175723,0.01,25.7109,5,641.45,-641.426,141.114,1.20852e-08,-1.20849e-08,2.65867e-09,656.789,-656.765,-9.11975e-06,1.23742e-08,-1.23739e-08,-1.71821e-16
0.929975,0.1,0.185707,0.01,31.7213,5,628.203,-628.18,136.679,1.18356e-08,-1.18354e-08,2.57511e-09,642.9,-642.877,-8.47836e-06,1.21125e-08,-1.21123e-08,-1.59737e-16
0.939975,0.1,0.195643,0.01,37.6688,5,615.358,-615.335,132.427,1.15936e-08,-1.15934e-08,2.495e-09,629.446,-629.424,-7.88837e-06,1.1859e-08,-1.18588e-08,-1.48622e-16
0.949975,0.1,0.205529,0.01,43.5547,5,602.897,-602.876,128.349,1.13588e-08,-1.13586e-08,2.41817e-09,616.408,-616.387,-7.34446e-06,1.16134e-08,-1.16132e-08,-1.38374e-16
0.959975,0.1,0.215425,0.01,49.3804,5,590.916,-591.102,124.441,1.1134e-08,-1.11359e-08,2.34453e-09,603.875,-604.061,-0.039358,1.13782e-08,-1.138e-08,-7.41528e-13
0.969975,0.1,0.225331,0.01,55.147,5,580.332,-583.565,121.616,1.09478e-08,-1.09806e-08,2.29131e-09,592.904,-596.137,0.327261,1.11847e-08,-1.12175e-08,6.16579e-12
0.979975,0.1,0.235244,0.01,60.8557,5,570.481,-579.502,118.756,1.07874e-08,-1.08789e-08,2.23743e-09,582.617,-591.638,0.169078,1.10161e-08,-1.11076e-08,3.18553e-12
-0.980025,0.11,0.236346,0.01,61.4918,6.05,566.525,-581.76,-130.029,1.07399e-08,-1.08945e-08,-2.44982e-09,581.065,-596.3,0.488605,1.10138e-08,-1.11684e-08,9.2056e-12
-0.970025,0.11,0.226385,0.01,55.7959,6.05,576.653,-581.035,-132.778,1.08835e-08,-1.0928e-08,-2.50161e-09,591.686,-596.068,0.207704,1.11668e-08,-1.12112e-08,3.91326e-12
-0.960025,0.11,0.216428,0.01,50.0424,6.05,586.847,-587.034,-136.247,1.10574e-08,-1.10593e-08,-2.56697e-09,602.454,-602.64,0.045106,1.13514e-08,-1.13533e-08,8.49824e-13
-0.950025,0.11,0.206474,0.01,44.2303,6.05,598.659,-598.638,-140.515,1.1279e-08,-1.12788e-08,-2.64738e-09,614.929,-614.908,7.8715e-06,1.15855e-08,-1.15853e-08,1.48304e-16
-0.940025,0.11,0.196525,0.01,38.3582,6.05,610.941,-610.919,-144.965,1.15104e-08,-1.15102e-08,-2.73122e-09,627.904,-627.883,8.45e-06,1.183e-08,-1.18298e-08,1.59203e-16
-0.930025,0.11,0.186582,0.01,32.4251,6.05,623.598,-623.576,-149.604,1.17489e-08,-1.17486e-08,-2.81863e-09,641.293,-641.27,9.07752e-06,1.20822e-08,-1.2082e-08,1.71026e-16
-0.920025,0.11,0.176645,0.01,26.4297,6.05,636.647,-636.623,-154.442,1.19947e-08,-1.19945e-08,-2.90978e-09,655.112,-655.089,9.75836e-06,1.23426e-08,-1.23424e-08,1.83853e-16
-0.910025,0.11,0.166716,0.01,20.3705,6.05,650.102,-650.078,-159.491,1.22482e-08,-1.22479e-08,-3.00489e-09,669.38,-669.356,1.04976e-05,1.26114e-08,-1.26112e-08,1.97781e-16
-0.900025,0.11,0.156796,0.01,14.2464,6.05,663.981,-663.956,-164.76,1.25097e-08,-1.25094e-08,-3.10417e-09,684.118,-684.093,1.13011e-05,1.28891e-08,-1.28888e-08,2.12919e-16
-0.890025,0.11,0.146886,0.01,8.05582,6.05,678.302,-678.275,-170.263,1.27795e-08,-1.27792e-08,-3.20785e-09,699.345,-699.319,1.2175e-05,1.31759e-08,-1.31757e-08,2.29385e-16
-0.880025,0.11,0.13699,0.01,1.79743,6.05,693.082,-693.055,-176.012,1.3058e-08,-1.30577e-08,-3.31617e-09,715.083,-715.056,1.31264e-05,1.34725e-08,-1.34722e-08,2.47309e-16
-0.870025,0.11,0.127109,0.01,-4.53026,6.05,708.343,-708.314,-182.022,1.33455e-08,-1.33452e-08,-3.4294e-09,731.356,-731.328,1.41634e-05,1.37791e-08,-1.37788e-08,2.66846e-16
-0.860025,0.11,0.11725,0.01,-10.9288,6.05,724.103,-724.073,-188.307,1.36424e-08,-1.36421e-08,-3.54781e-09,748.188,-748.158,1.52943e-05,1.40962e-08,-1.40959e-08,2.88153e-16
-0.850025,0.11,0.107416,0.01,-17.3997,6.05,740.385,-740.353,-194.883,1.39491e-08,-1.39488e-08,-3.67171e-09,765.604,-765.573,1.65285e-05,1.44243e-08,-1.4424e-08,3.11407e-16
-0.840025,0.11,0.0976156,0.01,-23.9447,6.05,757.211,-757.178,-201.767,1.42661e-08,-1.42658e-08,-3.8014e-09,783.632,-783.599,1.78772e-05,1.47639e-08,-1.47636e-08,3.36816e-16
-0.830025,0.11,0.0878605,0.01,-30.5654,6.05,774.605,-774.571,-208.977,1.45939e-08,-1.45935e-08,-3.93724e-09,802.3,-802.266,1.93544e-05,1.51157e-08,-1.51153e-08,3.64649e-16
-0.820025,0.11,0.0781191,0.01,-37.2636,6.05,792.593,-792.558,-216.532,1.49328e-08,-1.49324e-08,-4.07959e-09,821.639,-821.604,2.09929e-05,1.548e-08,-1.54796e-08,3.95519e-16
-0.810025,0.11,0.0681194,0.01,-44.0411,6.05,811.202,-811.165,-224.454,1.52834e-08,-1.5283e-08,-4.22884e-09,841.682,-841.645,2.26704e-05,1.58576e-08,-1.58572e-08,4.27124e-16
-0.800025,0.11,0.0581198,0.01,-50.8996,6.05,830.459,-830.42,-232.764,1.56462e-08,-1.56458e-08,-4.38541e-09,862.463,-862.424,1.21857e-05,1.62491e-08,-1.62487e-08,2.29586e-16
-0.790025,0.11,0.0481204,0.01,-57.8412,6.05,850.393,-850.351,-241.487,1.60217e-08,-1.60213e-08,-4.54976e-09,884.017,-883.975,-0.000417261,1.66552e-08,-1.66548e-08,-7.86144e-15
-0.780025,0.11,0.0381213,0.01,-64.8679,6.05,871.023,-870.959,-250.653,1.64103e-08,-1.64096e-08,-4.72245e-09,906.372,-906.308,-0.0117069,1.70763e-08,-1.70756e-08,-2.20565e-13
-0.770025,0.11,0.0281229,0.01,-71.9816,6.05,892.198,-891.9,-260.387,1.68082e-08,-1.68052e-08,-4.90585e-09,929.424,-929.126,-0.206713,1.75096e-08,-1.75066e-08,-3.89459e-12
-0.760025,0.11,0.0181262,0.01,-79.1846,6.05,911.546,-904.342,-267.557,1.71427e-08,-1.70697e-08,-5.04092e-09,950.147,-942.944,0.847478,1.787e-08,-1.77969e-08,1.5967e-11
-0.750025,0.11,0.00813755,0.01,-86.4783,6.05,925.871,-906.86,-272.116,1.73613e-08,-1.71684e-08,-5.12683e-09,965.417,-946.407,2.4753,1.81064e-08,-1.79135e-08,4.66362e-11
0.749975,0.11,0.00808795,0.01,-86.5148,6.05,925.933,-906.89,272.168,1.73623e-08,-1.71691e-08,5.12781e-09,965.492,-946.449,-2.45674,1.81076e-08,-1.79144e-08,-4.62864e-11
0.759975,0.11,0.0180765,0.01,-79.2207,6.05,911.659,-904.462,267.608,1.71449e-08,-1.70719e-08,5.04188e-09,950.27,-943.073,-0.849229,1.78723e-08,-1.77993e-08,-1.6e-11
0.769975,0.11,0.0280732,0.01,-72.0172,6.05,892.306,-892.011,260.439,1.68103e-08,-1.68073e-08,4.90682e-09,929.542,-929.247,0.208488,1.75118e-08,-1.75088e-08,3.92803e-12
0.779975,0.11,0.0380716,0.01,-64.903,6.05,871.128,-871.063,250.7,1.64123e-08,-1.64116e-08,4.72333e-09,906.485,-906.421,0.0118929,1.70784e-08,-1.70778e-08,2.24069e-13
0.789975,0.11,0.0480707,0.01,-57.876,6.05,850.494,-850.452,241.532,1.60236e-08,-1.60232e-08,4.55059e-09,884.126,-884.084,0.000424795,1.66573e-08,-1.66568e-08,8.00338e-15
0.799975,0.11,0.0580701,0.01,-50.9339,6.05,830.556,-830.517,232.806,1.5648e-08,-1.56476e-08,4.38621e-09,862.568,-862.529,-1.19548e-05,1.62511e-08,-1.62507e-08,-2.25235e-16
0.809975,0.11,0.0680697,0.01,-44.075,6.05,811.296,-811.259,224.494,1.52851e-08,-1.52847e-08,4.2296e-09,841.784,-841.746,-2.26752e-05,1.58595e-08,-1.58592e-08,-4.27213e-16
0.819975,0.11,0.0780693,0.01,-37.2971,6.05,792.684,-792.649,216.571,1.49345e-08,-1.49341e-08,4.08031e-09,821.737,-821.702,-2.10013e-05,1.54819e-08,-1.54815e-08,-3.95676e-16
0.829975,0.11,0.0878121,0.01,-30.5986,6.05,774.693,-774.659,209.013,1.45955e-08,-1.45952e-08,3.93793e-09,802.395,-802.36,-1.93621e-05,1.51174e-08,-1.51171e-08,-3.64793e-16
0.839975,0.11,0.0975669,0.01,-23.9775,6.05,757.296,-757.263,201.802,1.42678e-08,-1.42674e-08,3.80206e-09,783.723,-783.69,-1.78843e-05,1.47657e-08,-1.47653e-08,-3.36951e-16
0.849975,0.11,0.107367,0.01,-17.4321,6.05,740.467,-740.436,194.916,1.39507e-08,-1.39504e-08,3.67234e-09,765.692,-765.661,-1.65352e-05,1.44259e-08,-1.44256e-08,-3.11533e-16
0.859975,0.11,0.117201,0.01,-10.9608,6.05,724.182,-724.152,188.339,1.36439e-08,-1.36436e-08,3.54841e-09,748.273,-748.243,-1.53004e-05,1.40978e-08,-1.40975e-08,-2.88269e-16
0.869975,0.11,0.12706,0.01,-4.56191,6.05,708.42,-708.391,182.053,1.33469e-08,-1.33466e-08,3.42998e-09,731.439,-731.41,-1.41691e-05,1.37806e-08,-1.37803e-08,-2.66954e-16
0.879975,0.11,0.13694,0.01,1.76614,6.05,693.157,-693.13,176.042,1.30594e-08,-1.30591e-08,3.31672e-09,715.163,-715.135,-1.31315e-05,1.3474e-08,-1.34737e-08,-2.47405e-16
0.889975,0.11,0.146837,0.01,8.02486,6.05,678.374,-678.348,170.291,1.27808e-08,-1.27806e-08,3.20838e-09,699.422,-699.396,-1.21795e-05,1.31774e-08,-1.31771e-08,-2.29469e-16
0.899975,0.11,0.156746,0.01,14.2158,6.05,664.051,-664.026,164.787,1.2511e-08,-1.25107e-08,3.10468e-09,684.192,-684.167,-1.13051e-05,1.28905e-08,-1.28902e-08,-2.12995e-16
0.909975,0.11,0.166667,0.01,20.3402,6.05,650.17,-650.146,159.516,1.22495e-08,-1.22492e-08,3.00538e-09,669.453,-669.428,-1.05013e-05,1.26128e-08,-1.26125e-08,-1.97851e-16
0.919975,0.11,0.176596,0.01,26.3997,6.05,636.712,-636.689,154.467,1.19959e-08,-1.19957e-08,2.91025e-09,655.182,-655.158,-9.76187e-06,1.23439e-08,-1.23437e-08,-1.83919e-16
0.929975,0.11,0.186533,0.01,32.3955,6.05,623.662,-623.64,149.628,1.17501e-08,-1.17498e-08,2.81907e-09,641.36,-641.338,-9.08069e-06,1.20835e-08,-1.20833e-08,-1.71085e-16
0.939975,0.11,0.196476,0.01,38.3289,6.05,611.003,-610.981,144.987,1.15116e-08,-1.15113e-08,2.73165e-09,627.97,-627.948,-8.45345e-06,1.18312e-08,-1.1831e-08,-1.59268e-16
0.949975,0.11,0.206425,0.01,44.2012,6.05,598.719,-598.699,140.536,1.12801e-08,-1.12799e-08,2.64779e-09,614.992,-614.972,-7.87499e-06,1.15867e-08,-1.15865e-08,-1.48369e-16
0.959975,0.11,0.216378,0.01,50.0137,6.05,586.906,-587.093,136.268,1.10585e-08,-1.10604e-08,2.56736e-09,602.515,-602.702,-0.0451149,1.13525e-08,-1.13544e-08,-8.49991e-13
0.969975,0.11,0.226336,0.01,55.7674,6.05,576.709,-581.092,132.798,1.08846e-08,-1.09291e-08,2.50199e-09,591.746,-596.129,-0.207734,1.11679e-08,-1.12124e-08,-3.91382e-12
0.979975,0.11,0.236297,0.01,61.4636,6.05,566.58,-581.817,130.049,1.07409e-08,-1.08955e-08,2.45019e-09,581.123,-596.36,-0.488664,1.10149e-08,-1.11695e-08,-9.20671e-12
-0.980025,0.12,0.237417,0.01,62.1561,7.2,563.476,-572.178,-142.67,1.0654e-08,-1.07423e-08,-2.68798e-09,581.123,-589.825,-1.45296,1.09865e-08,-1.10748e-08,-2.73746e-11
-0.970025,0.12,0.227503,0.01,56.4737,7.2,572.528,-576.193,-144.589,1.08027e-08,-1.08399e-08,-2.72414e-09,590.448,-594.113,-0.265763,1.11403e-08,-1.11775e-08,-5.00713e-12
-0.960025,0.12,0.217597,0.01,50.7342,7.2,582.489,-582.674,-147.903,1.09752e-08,-1.09771e-08,-2.78659e-09,600.971,-601.155,0.0483431,1.13234e-08,-1.13253e-08,9.10812e-13
-0.950025,0.12,0.207699,0.01,44.9365,7.2,594.121,-594.101,-152.521,1.11935e-08,-1.11933e-08,-2.87358e-09,613.386,-613.366,8.35e-06,1.15565e-08,-1.15563e-08,1.57319e-16
-0.940025,0.12,0.197812,0.01,39.0794,7.2,606.211,-606.19,-157.334,1.14213e-08,-1.14211e-08,-2.96427e-09,626.296,-626.275,8.95824e-06,1.17997e-08,-1.17995e-08,1.68778e-16
-0.930025,0.12,0.187937,0.01,33.1616,7.2,618.667,-618.645,-162.352,1.1656e-08,-1.16557e-08,-3.0588e-09,639.615,-639.593,9.61736e-06,1.20506e-08,-1.20504e-08,1.81197e-16
-0.920025,0.12,0.178075,0.01,27.182,7.2,631.503,-631.48,-167.584,1.18978e-08,-1.18976e-08,-3.15737e-09,653.361,-653.339,1.0332e-05,1.23096e-08,-1.23094e-08,1.94662e-16
-0.910025,0.12,0.168231,0.01,21.1392,7.2,644.735,-644.711,-173.041,1.21471e-08,-1.21468e-08,-3.26019e-09,667.553,-667.529,1.11072e-05,1.2577e-08,-1.25767e-08,2.09266e-16
-0.900025,0.12,0.158405,0.01,15.032,7.2,658.378,-658.354,-178.737,1.24041e-08,-1.24039e-08,-3.3675e-09,682.209,-682.184,1.19491e-05,1.28531e-08,-1.28529e-08,2.25127e-16
-0.890025,0.12,0.148494,0.01,8.8589,7.2,672.45,-672.424,-184.684,1.26692e-08,-1.2669e-08,-3.47954e-09,697.35,-697.325,1.28644e-05,1.31384e-08,-1.31381e-08,2.42373e-16
-0.880025,0.12,0.138521,0.01,2.61856,7.2,686.968,-686.941,-190.895,1.29428e-08,-1.29425e-08,-3.59658e-09,712.998,-712.971,1.38598e-05,1.34332e-08,-1.34329e-08,2.61126e-16
-0.870025,0.12,0.128553,0.01,-3.69047,7.2,701.95,-701.922,-197.387,1.3225e-08,-1.32247e-08,-3.71889e-09,729.175,-729.147,1.49429e-05,1.3738e-08,-1.37377e-08,2.81534e-16
-0.860025,0.12,0.11859,0.01,-10.0697,7.2,717.417,-717.388,-204.174,1.35164e-08,-1.35161e-08,-3.84677e-09,745.905,-745.876,1.6123e-05,1.40532e-08,-1.40529e-08,3.03766e-16
-0.850025,0.12,0.108633,0.01,-16.5207,7.2,733.388,-733.358,-211.275,1.38173e-08,-1.3817e-08,-3.98053e-09,763.214,-763.184,1.741e-05,1.43793e-08,-1.4379e-08,3.28014e-16
-0.840025,0.12,0.0986856,0.01,-23.045,7.2,749.885,-749.854,-218.705,1.41281e-08,-1.41278e-08,-4.12053e-09,781.128,-781.097,1.88146e-05,1.47168e-08,-1.47165e-08,3.54477e-16
-0.830025,0.12,0.0887497,0.01,-29.6443,7.2,766.932,-766.899,-226.486,1.44493e-08,-1.4449e-08,-4.26713e-09,799.676,-799.643,2.03463e-05,1.50662e-08,-1.50659e-08,3.83337e-16
-0.820025,0.12,0.07883,0.01,-36.3203,7.2,784.551,-784.517,-234.637,1.47813e-08,-1.47809e-08,-4.42071e-09,818.888,-818.853,2.19947e-05,1.54282e-08,-1.54278e-08,4.14392e-16
-0.810025,0.12,0.0689335,0.01,-43.0748,7.2,802.769,-802.733,-243.182,1.51245e-08,-1.51241e-08,-4.58169e-09,838.795,-838.759,2.36899e-05,1.58032e-08,-1.58029e-08,4.46331e-16
-0.800025,0.12,0.0590719,0.01,-49.9096,7.2,821.611,-821.573,-252.143,1.54795e-08,-1.54791e-08,-4.75052e-09,859.431,-859.393,3.12688e-05,1.6192e-08,-1.61916e-08,5.89122e-16
-0.790025,0.12,0.0492662,0.01,-56.8265,7.2,841.105,-841.067,-261.546,1.58467e-08,-1.58464e-08,-4.92767e-09,880.833,-880.794,0.000292197,1.65952e-08,-1.65948e-08,5.50515e-15
-0.780025,0.12,0.0395578,0.01,-63.8275,7.2,861.29,-861.264,-271.416,1.62271e-08,-1.62268e-08,-5.11363e-09,903.044,-903.017,0.00773876,1.70138e-08,-1.70135e-08,1.45803e-13
-0.770025,0.12,0.0300413,0.01,-70.9147,7.2,881.968,-881.483,-281.726,1.66147e-08,-1.66098e-08,-5.30788e-09,925.882,-925.398,-0.0675867,1.74421e-08,-1.74371e-08,-1.27337e-12
-0.760025,0.12,0.0209795,0.01,-78.0901,7.2,900.491,-893.287,-289.835,1.69345e-08,-1.68614e-08,-5.46067e-09,946.16,-938.955,0.594132,1.77949e-08,-1.77218e-08,1.11938e-11
-0.750025,0.12,0.0133342,0.01,-85.3563,7.2,920.439,-904.541,-294.65,1.72725e-08,-1.71112e-08,-5.55137e-09,966.82,-950.922,4.75837,1.81463e-08,-1.7985e-08,8.96505e-11
0.749975,0.12,0.013304,0.01,-85.3927,7.2,920.581,-904.707,294.71,1.72753e-08,-1.71142e-08,5.5525e-09,966.974,-951.099,-4.76906,1.81493e-08,-1.79883e-08,-8.98519e-11
0.759975,0.12,0.0209366,0.01,-78.126,7.2,900.597,-893.394,289.893,1.69365e-08,-1.68634e-08,5.46175e-09,946.278,-939.074,-0.591048,1.77971e-08,-1.7724e-08,-1.11357e-11
0.769975,0.12,0.0299947,0.01,-70.9501,7.2,882.074,-881.589,281.778,1.66167e-08,-1.66117e-08,5.30886e-09,925.999,-925.514,0.0669695,1.74442e-08,-1.74393e-08,1.26174e-12
0.779975,0.12,0.0395099,0.01,-63.8625,7.2,861.392,-861.366,271.466,1.6229e-08,-1.62287e-08,5.11457e-09,903.156,-903.13,-0.00786483,1.70159e-08,-1.70156e-08,-1.48178e-13
0.789975,0.12,0.0492176,0.01,-56.8611,7.2,841.204,-841.165,261.594,1.58486e-08,-1.58482e-08,4.92858e-09,880.941,-880.902,-0.000296883,1.65973e-08,-1.65969e-08,-5.59345e-15
0.799975,0.12,0.059023,0.01,-49.9437,7.2,821.706,-821.669,252.188,1.54813e-08,-1.54809e-08,4.75138e-09,859.535,-859.498,-3.14029e-05,1.6194e-08,-1.61936e-08,-5.91649e-16
0.809975,0.12,0.0688844,0.01,-43.1086,7.2,802.861,-802.825,243.225,1.51262e-08,-1.51258e-08,4.58251e-09,838.895,-838.86,-2.36988e-05,1.58051e-08,-1.58048e-08,-4.46499e-16
0.819975,0.12,0.0787807,0.01,-36.3537,7.2,784.64,-784.606,234.679,1.47829e-08,-1.47826e-08,4.42149e-09,818.985,-818.95,-2.20028e-05,1.543e-08,-1.54296e-08,-4.14546e-16
0.829975,0.12,0.0887003,0.01,-29.6773,7.2,767.018,-766.985,226.526,1.44509e-08,-1.44506e-08,4.26787e-09,799.77,-799.737,-2.03541e-05,1.5068e-08,-1.50677e-08,-3.83484e-16
0.839975,0.12,0.0986362,0.01,-23.0776,7.2,749.969,-749.937,218.743,1.41297e-08,-1.41294e-08,4.12125e-09,781.219,-781.187,-1.8822e-05,1.47185e-08,-1.47182e-08,-3.54617e-16
0.849975,0.12,0.108584,0.01,-16.553,7.2,733.469,-733.438,211.311,1.38188e-08,-1.38185e-08,3.98121e-09,763.302,-763.271,-1.74171e-05,1.43809e-08,-1.43806e-08,-3.28149e-16
0.859975,0.12,0.11854,0.01,-10.1016,7.2,717.495,-717.466,204.209,1.35179e-08,-1.35176e-08,3.84742e-09,745.99,-745.961,-1.61296e-05,1.40548e-08,-1.40545e-08,-3.03892e-16
0.869975,0.12,0.128503,0.01,-3.72202,7.2,702.026,-701.998,197.42,1.32265e-08,-1.32262e-08,3.71951e-09,729.257,-729.229,-1.49488e-05,1.37395e-08,-1.37392e-08,-2.81644e-16
0.879975,0.12,0.138472,0.01,2.58736,7.2,687.041,-687.014,190.927,1.29441e-08,-1.29439e-08,3.59717e-09,713.077,-713.05,-1.38647e-05,1.34347e-08,-1.34344e-08,-2.61219e-16
0.889975,0.12,0.148445,0.01,8.82804,7.2,672.521,-672.495,184.714,1.26706e-08,-1.26703e-08,3.48011e-09,697.427,-697.401,-1.28688e-05,1.31398e-08,-1.31396e-08,-2.42456e-16
0.899975,0.12,0.158356,0.01,15.0015,7.2,658.447,-658.422,178.766,1.24054e-08,-1.24052e-08,3.36805e-09,682.283,-682.259,-1.19532e-05,1.28545e-08,-1.28543e-08,-2.25206e-16
0.909975,0.12,0.168182,0.01,21.109,7.2,644.802,-644.778,173.069,1.21483e-08,-1.21481e-08,3.26072e-09,667.625,-667.601,-1.11112e-05,1.25783e-08,-1.25781e-08,-2.09341e-16
0.919975,0.12,0.178026,0.01,27.1521,7.2,631.568,-631.545,167.61,1.1899e-08,-1.18988e-08,3.15787e-09,653.431,-653.408,-1.03358e-05,1.23109e-08,-1.23107e-08,-1.94733e-16
0.929975,0.12,0.187888,0.01,33.1321,7.2,618.73,-618.708,162.377,1.16571e-08,-1.16569e-08,3.05928e-09,639.682,-639.661,-9.62085e-06,1.20519e-08,-1.20517e-08,-1.81262e-16
0.939975,0.12,0.197763,0.01,39.0501,7.2,606.272,-606.251,157.359,1.14224e-08,-1.14222e-08,2.96473e-09,626.361,-626.34,-8.96152e-06,1.18009e-08,-1.18007e-08,-1.6884e-16
0.949975,0.12,0.20765,0.01,44.9076,7.2,594.18,-594.16,152.544,1.11946e-08,-1.11944e-08,2.87402e-09,613.449,-613.429,-8.35302e-06,1.15577e-08,-1.15575e-08,-1.57376e-16
0.959975,0.12,0.217547,0.01,50.7056,7.2,582.547,-582.731,147.926,1.09763e-08,-1.09782e-08,2.78701e-09,601.032,-601.216,-0.0483525,1.13246e-08,-1.13265e-08,-9.10989e-13
0.969975,0.12,0.227454,0.01,56.4453,7.2,572.584,-576.249,144.611,1.08038e-08,-1.08409e-08,2.72455e-09,590.508,-594.173,0.265817,1.11414e-08,-1.11786e-08,5.00815e-12
0.979975,0.12,0.237368,0.01,62.128,7.2,563.531,-572.234,142.691,1.06551e-08,-1.07434e-08,2.68839e-09,581.182,-589.885,1.45325,1.09876e-08,-1.10759e-08,2.73801e-11
-0.980025,0.13,0.238902,0.01,62.8764,8.45,559.107,-567.588,-153.781,1.05708e-08,-1.06568e-08,-2.89732e-09,579.717,-588.198,-1.59113,1.09591e-08,-1.10451e-08,-2.99778e-11
-0.970025,0.13,0.229043,0.01,57.2087,8.45,567.994,-571.6,-155.817,1.0717e-08,-1.07536e-08,-2.93568e-09,588.915,-592.521,-0.288127,1.11112e-08,-1.11478e-08,-5.42848e-12
-0.960025,0.13,0.219086,0.01,51.4843,8.45,577.793,-577.974,-159.376,1.08867e-08,-1.08886e-08,-3.00274e-09,599.367,-599.549,0.0513711,1.12932e-08,-1.12951e-08,9.67862e-13
-0.950025,0.13,0.209132,0.01,45.7022,8.45,589.231,-589.211,-164.333,1.11014e-08,-1.11012e-08,-3.09614e-09,611.718,-611.699,8.7744e-06,1.1525e-08,-1.15248e-08,1.65315e-16
-0.940025,0.13,0.199183,0.01,39.8612,8.45,601.116,-601.096,-169.501,1.13253e-08,-1.13251e-08,-3.19349e-09,624.557,-624.537,9.4074e-06,1.17669e-08,-1.17667e-08,1.77241e-16
-0.930025,0.13,0.189239,0.01,33.96,8.45,613.356,-613.335,-174.885,1.15559e-08,-1.15557e-08,-3.29494e-09,637.802,-637.78,1.00924e-05,1.20165e-08,-1.20162e-08,1.90146e-16
-0.920025,0.13,0.179302,0.01,27.9975,8.45,625.964,-625.942,-180.499,1.17934e-08,-1.17932e-08,-3.4007e-09,651.469,-651.447,1.08347e-05,1.2274e-08,-1.22737e-08,2.04131e-16
-0.910025,0.13,0.169372,0.01,21.9724,8.45,638.956,-638.934,-186.354,1.20382e-08,-1.2038e-08,-3.51101e-09,665.578,-665.555,1.16394e-05,1.25398e-08,-1.25395e-08,2.19293e-16
-0.900025,0.13,0.15945,0.01,15.8835,8.45,652.347,-652.323,-192.462,1.22905e-08,-1.22902e-08,-3.6261e-09,680.146,-680.122,1.25126e-05,1.28142e-08,-1.2814e-08,2.35744e-16
-0.890025,0.13,0.14954,0.01,9.72923,8.45,666.152,-666.127,-198.839,1.25506e-08,-1.25503e-08,-3.74625e-09,695.195,-695.17,1.34606e-05,1.30978e-08,-1.30975e-08,2.53606e-16
-0.880025,0.13,0.139642,0.01,3.50839,8.45,680.388,-680.362,-205.499,1.28188e-08,-1.28185e-08,-3.87171e-09,710.745,-710.719,1.44904e-05,1.33907e-08,-1.33905e-08,2.73007e-16
-0.870025,0.13,0.129759,0.01,-2.7805,8.45,695.073,-695.047,-212.457,1.30955e-08,-1.30952e-08,-4.00281e-09,726.819,-726.792,1.561e-05,1.36936e-08,-1.36933e-08,2.94102e-16
-0.860025,0.13,0.119896,0.01,-9.13889,8.45,710.226,-710.198,-219.73,1.33809e-08,-1.33807e-08,-4.13983e-09,743.44,-743.412,1.68286e-05,1.40067e-08,-1.40064e-08,3.1706e-16
-0.850025,0.13,0.110058,0.01,-15.5683,8.45,725.865,-725.836,-227.336,1.36756e-08,-1.36753e-08,-4.28314e-09,760.633,-760.604,1.81559e-05,1.43306e-08,-1.43303e-08,3.42067e-16
-0.840025,0.13,0.100252,0.01,-22.0703,8.45,742.011,-741.981,-235.294,1.39798e-08,-1.39795e-08,-4.43307e-09,778.425,-778.395,1.9603e-05,1.46658e-08,-1.46655e-08,3.69332e-16
-0.830025,0.13,0.0904881,0.01,-28.6465,8.45,758.686,-758.654,-243.625,1.42939e-08,-1.42936e-08,-4.59003e-09,796.843,-796.811,2.11833e-05,1.50128e-08,-1.50125e-08,3.99106e-16
-0.820025,0.13,0.0807821,0.01,-35.2986,8.45,775.912,-775.879,-252.35,1.46185e-08,-1.46181e-08,-4.75442e-09,815.917,-815.884,2.29321e-05,1.53722e-08,-1.53719e-08,4.32054e-16
-0.810025,0.13,0.0711577,0.01,-42.0283,8.45,793.711,-793.677,-261.493,1.49538e-08,-1.49535e-08,-4.92669e-09,835.678,-835.644,2.50414e-05,1.57445e-08,-1.57442e-08,4.71795e-16
-0.800025,0.13,0.0612988,0.01,-48.8373,8.45,812.111,-812.075,-271.08,1.53005e-08,-1.53001e-08,-5.1073e-09,856.16,-856.124,2.55838e-05,1.61304e-08,-1.613e-08,4.82013e-16
-0.790025,0.13,0.0513,0.01,-55.7276,8.45,831.135,-831.097,-281.136,1.56589e-08,-1.56585e-08,-5.29676e-09,877.396,-877.358,-0.000113059,1.65305e-08,-1.65301e-08,-2.1301e-15
-0.780025,0.13,0.0413018,0.01,-62.701,8.45,850.807,-850.76,-291.692,1.60295e-08,-1.6029e-08,-5.49565e-09,899.422,-899.375,-0.00459468,1.69454e-08,-1.69449e-08,-8.65664e-14
-0.770025,0.13,0.0313047,0.01,-69.7594,8.45,870.974,-870.593,-302.81,1.6408e-08,-1.64041e-08,-5.70512e-09,922.123,-921.741,-0.153815,1.73717e-08,-1.73678e-08,-2.89797e-12
-0.760025,0.13,0.0213104,0.01,-76.905,8.45,889.599,-880.398,-312.452,1.67206e-08,-1.66272e-08,-5.88677e-09,943.136,-933.935,-0.541589,1.77292e-08,-1.76359e-08,-1.02038e-11
-0.750025,0.13,0.011326,0.01,-84.1396,8.45,908.765,-870.223,-320.661,1.69541e-08,-1.65631e-08,-6.04145e-09,964.796,-926.253,-2.60218,1.80097e-08,-1.76187e-08,-4.90265e-11
0.749975,0.13,0.0112764,0.01,-84.1758,8.45,908.866,-870.243,320.734,1.69556e-08,-1.65638e-08,6.04282e-09,964.917,-926.295,2.62922,1.80117e-08,-1.76199e-08,4.9536e-11
0.759975,0.13,0.0212607,0.01,-76.9408,8.45,889.708,-880.5,312.513,1.67226e-08,-1.66292e-08,5.88793e-09,943.259,-934.051,0.544452,1.77315e-08,-1.76381e-08,1.02578e-11
0.769975,0.13,0.031255,0.01,-69.7948,8.45,871.077,-870.697,302.868,1.64099e-08,-1.64061e-08,5.7062e-09,922.239,-921.858,0.154408,1.73739e-08,-1.737e-08,2.90913e-12
0.779975,0.13,0.0412521,0.01,-62.7359,8.45,850.907,-850.859,291.746,1.60314e-08,-1.60309e-08,5.49667e-09,899.534,-899.486,0.00467085,1.69475e-08,-1.6947e-08,8.80015e-14
0.789975,0.13,0.0512503,0.01,-55.7621,8.45,831.231,-831.193,281.187,1.56607e-08,-1.56603e-08,5.29773e-09,877.504,-877.466,0.000115718,1.65325e-08,-1.65321e-08,2.18019e-15
0.799975,0.13,0.0612491,0.01,-48.8714,8.45,812.204,-812.168,271.128,1.53022e-08,-1.53019e-08,5.10822e-09,856.263,-856.227,-2.55445e-05,1.61323e-08,-1.6132e-08,-4.81273e-16
0.809975,0.13,0.0711101,0.01,-42.0619,8.45,793.801,-793.767,261.54,1.49555e-08,-1.49552e-08,4.92756e-09,835.778,-835.744,-2.50536e-05,1.57464e-08,-1.5746e-08,-4.72024e-16
0.819975,0.13,0.080734,0.01,-35.3319,8.45,775.999,-775.966,252.395,1.46201e-08,-1.46198e-08,4.75526e-09,816.014,-815.981,-2.29413e-05,1.5374e-08,-1.53737e-08,-4.32228e-16
0.829975,0.13,0.0904396,0.01,-28.6794,8.45,758.77,-758.739,243.667,1.42955e-08,-1.42952e-08,4.59083e-09,796.936,-796.905,-2.1191e-05,1.50146e-08,-1.50143e-08,-3.99252e-16
0.839975,0.13,0.100203,0.01,-22.1028,8.45,742.093,-742.063,235.334,1.39813e-08,-1.3981e-08,4.43384e-09,778.515,-778.485,-1.96102e-05,1.46675e-08,-1.46672e-08,-3.69467e-16
0.849975,0.13,0.110009,0.01,-15.6005,8.45,725.944,-725.915,227.374,1.36771e-08,-1.36768e-08,4.28387e-09,760.72,-760.691,-1.81628e-05,1.43323e-08,-1.4332e-08,-3.42198e-16
0.859975,0.13,0.119847,0.01,-9.17069,8.45,710.303,-710.275,219.767,1.33824e-08,-1.33821e-08,4.14053e-09,743.524,-743.496,-1.68348e-05,1.40083e-08,-1.4008e-08,-3.17178e-16
0.869975,0.13,0.12971,0.01,-2.81194,8.45,695.148,-695.121,212.492,1.30969e-08,-1.30966e-08,4.00347e-09,726.9,-726.873,-1.56158e-05,1.36951e-08,-1.36948e-08,-2.9421e-16
0.879975,0.13,0.139592,0.01,3.47728,8.45,680.46,-680.434,205.533,1.28202e-08,-1.28199e-08,3.87235e-09,710.824,-710.798,-1.44956e-05,1.33922e-08,-1.3392e-08,-2.73106e-16
0.889975,0.13,0.14949,0.01,9.69846,8.45,666.222,-666.197,198.872,1.25519e-08,-1.25516e-08,3.74686e-09,695.271,-695.246,-1.34652e-05,1.30992e-08,-1.3099e-08,-2.53693e-16
0.899975,0.13,0.159401,0.01,15.853,8.45,652.415,-652.391,192.494,1.22918e-08,-1.22915e-08,3.62669e-09,680.22,-680.196,-1.25168e-05,1.28156e-08,-1.28154e-08,-2.35824e-16
0.909975,0.13,0.169322,0.01,21.9423,8.45,639.022,-638.999,186.383,1.20394e-08,-1.20392e-08,3.51157e-09,665.649,-665.626,-1.16436e-05,1.25411e-08,-1.25409e-08,-2.19373e-16
0.919975,0.13,0.179252,0.01,27.9677,8.45,626.028,-626.006,180.527,1.17946e-08,-1.17944e-08,3.40124e-09,651.538,-651.516,-1.08389e-05,1.22753e-08,-1.2275e-08,-2.04211e-16
0.929975,0.13,0.18919,0.01,33.9305,8.45,613.418,-613.396,174.913,1.15571e-08,-1.15568e-08,3.29546e-09,637.868,-637.847,-1.00961e-05,1.20177e-08,-1.20175e-08,-1.90217e-16
0.939975,0.13,0.199133,0.01,39.832,8.45,601.176,-601.156,169.527,1.13264e-08,-1.13262e-08,3.19398e-09,624.622,-624.601,-9.4103e-06,1.17681e-08,-1.17679e-08,-1.77296e-16
0.949975,0.13,0.209082,0.01,45.6733,8.45,589.289,-589.27,164.359,1.11025e-08,-1.11023e-08,3.09661e-09,611.781,-611.761,-8.77715e-06,1.15262e-08,-1.1526e-08,-1.65367e-16
0.959975,0.13,0.219036,0.01,51.4557,8.45,577.849,-578.031,159.4,1.08878e-08,-1.08896e-08,3.0032e-09,599.428,-599.61,-0.051381,1.12944e-08,-1.12962e-08,-9.68049e-13
0.969975,0.13,0.228994,0.01,57.1803,8.45,568.05,-571.656,155.841,1.07181e-08,-1.07546e-08,2.93613e-09,588.975,-592.581,0.288186,1.11123e-08,-1.11489e-08,5.42959e-12
0.979975,0.13,0.238853,0.01,62.8483,8.45,559.161,-567.643,153.804,1.05718e-08,-1.06578e-08,2.89775e-09,579.775,-588.257,1.59145,1.09602e-08,-1.10462e-08,2.99838e-11
-0.980025,0.14,0.240072,0.01,63.6522,9.8,554.409,-562.743,-164.684,1.04816e-08,-1.05662e-08,-3.10274e-09,578.177,-586.511,-1.69938,1.09294e-08,-1.1014e-08,-3.20173e-11
-0.970025,0.14,0.230157,0.01,58.0002,9.8,563.142,-566.685,-166.856,1.06253e-08,-1.06613e-08,-3.14367e-09,587.268,-590.812,-0.310516,1.10799e-08,-1.11158e-08,-5.8503e-12
-0.960025,0.14,0.22025,0.01,52.2922,9.8,572.767,-572.946,-170.653,1.0792e-08,-1.07939e-08,-3.21519e-09,597.645,-597.824,0.0541792,1.12608e-08,-1.12626e-08,1.02077e-12
-0.950025,0.14,0.210351,0.01,46.5268,9.8,584,-583.981,-175.94,1.10028e-08,-1.10026e-08,-3.3148e-09,609.927,-609.908,9.14296e-06,1.14913e-08,-1.14911e-08,1.72259e-16
-0.940025,0.14,0.200463,0.01,40.703,9.8,595.666,-595.646,-181.449,1.12226e-08,-1.12224e-08,-3.41861e-09,622.69,-622.67,9.79575e-06,1.17317e-08,-1.17315e-08,1.84558e-16
-0.930025,0.14,0.190586,0.01,34.8197,9.8,607.676,-607.656,-187.19,1.14489e-08,-1.14487e-08,-3.52677e-09,635.854,-635.834,1.05014e-05,1.19798e-08,-1.19796e-08,1.97852e-16
-0.920025,0.14,0.180723,0.01,28.8756,9.8,620.043,-620.021,-193.173,1.16819e-08,-1.16817e-08,-3.6395e-09,649.438,-649.416,1.12649e-05,1.22357e-08,-1.22355e-08,2.12238e-16
-0.910025,0.14,0.170875,0.01,22.8695,9.8,632.78,-632.757,-199.412,1.19218e-08,-1.19216e-08,-3.75704e-09,663.457,-663.435,1.20924e-05,1.24998e-08,-1.24996e-08,2.27828e-16
-0.900025,0.14,0.161047,0.01,16.8001,9.8,645.901,-645.878,-205.92,1.21691e-08,-1.21688e-08,-3.87966e-09,677.932,-677.909,1.29894e-05,1.27725e-08,-1.27723e-08,2.44728e-16
-0.890025,0.14,0.151241,0.01,10.6662,9.8,659.423,-659.399,-212.712,1.24238e-08,-1.24236e-08,-4.00763e-09,692.882,-692.858,1.39616e-05,1.30542e-08,-1.3054e-08,2.63045e-16
-0.880025,0.14,0.141462,0.01,4.46624,9.8,673.36,-673.335,-219.804,1.26864e-08,-1.26861e-08,-4.14123e-09,708.328,-708.303,1.50165e-05,1.33452e-08,-1.33449e-08,2.8292e-16
-0.870025,0.14,0.131716,0.01,-1.80102,9.8,687.73,-687.704,-227.211,1.29571e-08,-1.29569e-08,-4.28079e-09,724.291,-724.266,1.61627e-05,1.3646e-08,-1.36457e-08,3.04515e-16
-0.860025,0.14,0.121779,0.01,-8.13705,9.8,702.549,-702.522,-234.952,1.32363e-08,-1.3236e-08,-4.42663e-09,740.796,-740.769,1.74086e-05,1.39569e-08,-1.39566e-08,3.27987e-16
-0.850025,0.14,0.111822,0.01,-14.5433,9.8,717.836,-717.808,-243.045,1.35243e-08,-1.3524e-08,-4.57911e-09,757.865,-757.837,1.87637e-05,1.42785e-08,-1.42782e-08,3.53518e-16
-0.840025,0.14,0.101874,0.01,-21.0214,9.8,733.609,-733.58,-251.51,1.38215e-08,-1.38212e-08,-4.7386e-09,775.526,-775.497,2.02388e-05,1.46112e-08,-1.46109e-08,3.8131e-16
-0.830025,0.14,0.0919373,0.01,-27.5729,9.8,749.89,-749.859,-260.369,1.41282e-08,-1.41279e-08,-4.90551e-09,793.806,-793.776,2.18443e-05,1.49556e-08,-1.49553e-08,4.1156e-16
-0.820025,0.14,0.0820159,0.01,-34.1993,9.8,766.698,-766.666,-269.645,1.44449e-08,-1.44446e-08,-5.08027e-09,812.733,-812.702,2.35762e-05,1.53122e-08,-1.53119e-08,4.44189e-16
-0.810025,0.14,0.0721163,0.01,-40.9024,9.8,784.055,-784.022,-279.362,1.47719e-08,-1.47716e-08,-5.26335e-09,832.339,-832.306,2.52634e-05,1.56816e-08,-1.56813e-08,4.75976e-16
-0.800025,0.14,0.0622487,0.01,-47.6839,9.8,801.985,-801.951,-289.547,1.51097e-08,-1.51094e-08,-5.45523e-09,852.655,-852.62,2.68705e-05,1.60644e-08,-1.6064e-08,5.06255e-16
-0.790025,0.14,0.0524314,0.01,-54.5456,9.8,820.513,-820.477,-300.227,1.54588e-08,-1.54584e-08,-5.65645e-09,873.716,-873.68,9.6902e-05,1.64612e-08,-1.64608e-08,1.82569e-15
-0.780025,0.14,0.0426989,0.01,-61.4894,9.8,839.664,-839.632,-311.432,1.58196e-08,-1.58193e-08,-5.86756e-09,895.56,-895.528,0.0026733,1.68727e-08,-1.68724e-08,5.03665e-14
-0.770025,0.14,0.0331262,0.01,-68.5171,9.8,859.258,-858.829,-323.166,1.61871e-08,-1.61827e-08,-6.08864e-09,918.034,-917.605,-0.110648,1.72944e-08,-1.72901e-08,-2.08467e-12
-0.760025,0.14,0.0239059,0.01,-75.6308,9.8,876.94,-868.006,-333.325,1.64832e-08,-1.63926e-08,-6.28004e-09,938.445,-929.511,-0.568855,1.7642e-08,-1.75514e-08,-1.07176e-11
-0.750025,0.14,0.0156728,0.01,-82.8327,9.8,896.731,-864.167,-340.693,1.67533e-08,-1.6423e-08,-6.41885e-09,960.349,-927.785,-0.127713,1.79519e-08,-1.76216e-08,-2.40619e-12
0.749975,0.14,0.015637,0.01,-82.8687,9.8,896.844,-864.141,340.753,1.67549e-08,-1.64231e-08,6.41998e-09,960.481,-927.778,0.145332,1.79538e-08,-1.76221e-08,2.73814e-12
0.759975,0.14,0.0238616,0.01,-75.6664,9.8,877.036,-868.081,333.394,1.64849e-08,-1.63941e-08,6.28133e-09,938.56,-929.605,0.580767,1.76441e-08,-1.75532e-08,1.0942e-11
0.769975,0.14,0.0330792,0.01,-68.5523,9.8,859.358,-858.929,323.226,1.61889e-08,-1.61846e-08,6.08976e-09,918.148,-917.719,0.110468,1.72966e-08,-1.72922e-08,2.08129e-12
0.779975,0.14,0.0426508,0.01,-61.5241,9.8,839.761,-839.729,311.489,1.58214e-08,-1.58211e-08,5.86864e-09,895.671,-895.638,-0.00271823,1.68748e-08,-1.68745e-08,-5.12131e-14
0.789975,0.14,0.0523827,0.01,-54.58,9.8,820.606,-820.571,300.282,1.54605e-08,-1.54602e-08,5.65748e-09,873.822,-873.787,-9.83016e-05,1.64632e-08,-1.64628e-08,-1.85206e-15
0.799975,0.14,0.0621998,0.01,-47.7178,9.8,802.076,-802.042,289.599,1.51114e-08,-1.51111e-08,5.45621e-09,852.757,-852.723,-2.6892e-05,1.60663e-08,-1.60659e-08,-5.0666e-16
0.809975,0.14,0.0720671,0.01,-40.9359,9.8,784.143,-784.11,279.412,1.47736e-08,-1.47732e-08,5.26428e-09,832.438,-832.405,-2.52705e-05,1.56835e-08,-1.56831e-08,-4.76112e-16
0.819975,0.14,0.0819666,0.01,-34.2324,9.8,766.782,-766.751,269.693,1.44465e-08,-1.44462e-08,5.08116e-09,812.829,-812.797,-2.35849e-05,1.5314e-08,-1.53137e-08,-4.44352e-16
0.829975,0.14,0.0918879,0.01,-27.6056,9.8,749.972,-749.941,260.415,1.41298e-08,-1.41295e-08,4.90636e-09,793.898,-793.868,-2.18523e-05,1.49574e-08,-1.49571e-08,-4.1171e-16
0.839975,0.14,0.101825,0.01,-21.0538,9.8,733.689,-733.66,251.553,1.3823e-08,-1.38227e-08,4.73941e-09,775.616,-775.587,-2.0246e-05,1.46129e-08,-1.46126e-08,-3.81446e-16
0.849975,0.14,0.111773,0.01,-14.5754,9.8,717.913,-717.885,243.086,1.35258e-08,-1.35255e-08,4.57988e-09,757.952,-757.924,-1.87703e-05,1.42801e-08,-1.42798e-08,-3.53644e-16
0.859975,0.14,0.121729,0.01,-8.16873,9.8,702.624,-702.597,234.991,1.32377e-08,-1.32374e-08,4.42737e-09,740.879,-740.852,-1.74146e-05,1.39585e-08,-1.39582e-08,-3.28102e-16
0.869975,0.14,0.131667,0.01,-1.83236,9.8,687.802,-687.776,227.249,1.29585e-08,-1.29582e-08,4.2815e-09,724.372,-724.346,-1.61684e-05,1.36475e-08,-1.36472e-08,-3.04622e-16
0.879975,0.14,0.141413,0.01,4.43524,9.8,673.431,-673.406,219.84,1.26877e-08,-1.26875e-08,4.14191e-09,708.406,-708.381,-1.5022e-05,1.33467e-08,-1.33464e-08,-2.83024e-16
0.889975,0.14,0.151192,0.01,10.6355,9.8,659.491,-659.467,212.747,1.24251e-08,-1.24248e-08,4.00828e-09,692.958,-692.934,-1.39666e-05,1.30556e-08,-1.30554e-08,-2.63139e-16
0.899975,0.14,0.160998,0.01,16.7698,9.8,645.967,-645.945,205.953,1.21703e-08,-1.21701e-08,3.88028e-09,678.006,-677.983,-1.2994e-05,1.27739e-08,-1.27737e-08,-2.44815e-16
0.909975,0.14,0.170826,0.01,22.8395,9.8,632.844,-632.822,199.444,1.1923e-08,-1.19228e-08,3.75764e-09,663.528,-663.506,-1.20971e-05,1.25012e-08,-1.25009e-08,-2.27917e-16
0.919975,0.14,0.180674,0.01,28.8459,9.8,620.105,-620.084,193.204,1.1683e-08,-1.16828e-08,3.64007e-09,649.506,-649.485,-1.12695e-05,1.2237e-08,-1.22368e-08,-2.12325e-16
0.929975,0.14,0.190537,0.01,34.7903,9.8,607.737,-607.716,187.219,1.145e-08,-1.14498e-08,3.52732e-09,635.921,-635.9,-1.05051e-05,1.1981e-08,-1.19808e-08,-1.97922e-16
0.939975,0.14,0.200414,0.01,40.6739,9.8,595.725,-595.705,181.477,1.12237e-08,-1.12235e-08,3.41914e-09,622.754,-622.734,-9.79872e-06,1.1733e-08,-1.17328e-08,-1.84614e-16
0.949975,0.14,0.210302,0.01,46.498,9.8,584.057,-584.038,175.966,1.10039e-08,-1.10037e-08,3.31531e-09,609.989,-609.97,-9.14607e-06,1.14925e-08,-1.14923e-08,-1.72317e-16
0.959975,0.14,0.220201,0.01,52.2636,9.8,572.823,-573.001,170.678,1.07931e-08,-1.07949e-08,3.21568e-09,597.706,-597.885,-0.0541895,1.12619e-08,-1.12637e-08,-1.02096e-12
0.969975,0.14,0.230108,0.01,57.972,9.8,563.196,-566.74,166.881,1.06263e-08,-1.06623e-08,3.14414e-09,587.327,-590.871,0.310579,1.1081e-08,-1.11169e-08,5.85149e-12
0.979975,0.14,0.240023,0.01,63.6242,9.8,554.462,-562.797,164.708,1.04826e-08,-1.05672e-08,3.1032e-09,578.235,-586.57,1.69971,1.09305e-08,-1.10151e-08,3.20236e-11
-0.980025,0.15,0.24155,0.01,64.4831,11.25,549.678,-557.423,-175.263,1.03899e-08,-1.04685e-08,-3.30205e-09,576.759,-584.504,-1.66797,1.09001e-08,-1.09787e-08,-3.14254e-11
-0.970025,0.15,0.231698,0.01,58.848,11.25,557.992,-561.459,-177.688,1.0528e-08,-1.05631e-08,-3.34774e-09,585.518,-588.986,-0.324377,1.10466e-08,-1.10818e-08,-6.11144e-12
-0.960025,0.15,0.22186,0.01,53.1573,11.25,567.423,-567.598,-181.721,1.06913e-08,-1.06931e-08,-3.42372e-09,595.807,-595.982,0.0567575,1.12261e-08,-1.12279e-08,1.06934e-12
-0.950025,0.15,0.212036,0.01,47.4098,11.25,578.437,-578.419,-187.327,1.0898e-08,-1.08978e-08,-3.52934e-09,608.014,-607.996,9.45504e-06,1.14553e-08,-1.14551e-08,1.78138e-16
-0.940025,0.15,0.20223,0.01,41.6045,11.25,589.873,-589.854,-193.168,1.11135e-08,-1.11133e-08,-3.63939e-09,620.697,-620.678,1.01225e-05,1.16942e-08,-1.1694e-08,1.90713e-16
-0.930025,0.15,0.192428,0.01,35.7402,11.25,601.64,-601.62,-199.252,1.13352e-08,-1.1335e-08,-3.75402e-09,633.776,-633.756,1.08434e-05,1.19406e-08,-1.19404e-08,2.04296e-16
-0.920025,0.15,0.18249,0.01,29.8157,11.25,613.75,-613.73,-205.592,1.15633e-08,-1.15631e-08,-3.87348e-09,647.27,-647.249,1.16226e-05,1.21949e-08,-1.21946e-08,2.18977e-16
-0.910025,0.15,0.172559,0.01,23.8299,11.25,626.218,-626.197,-212.202,1.17982e-08,-1.1798e-08,-3.998e-09,661.195,-661.174,1.24658e-05,1.24572e-08,-1.2457e-08,2.34863e-16
-0.900025,0.15,0.162637,0.01,17.7814,11.25,639.056,-639.034,-219.095,1.20401e-08,-1.20399e-08,-4.12787e-09,675.571,-675.548,1.33785e-05,1.2728e-08,-1.27278e-08,2.52058e-16
-0.890025,0.15,0.152725,0.01,11.669,11.25,652.278,-652.255,-226.286,1.22892e-08,-1.2289e-08,-4.26337e-09,690.415,-690.392,1.43666e-05,1.30077e-08,-1.30075e-08,2.70676e-16
-0.880025,0.15,0.142825,0.01,5.49143,11.25,665.9,-665.876,-233.793,1.25458e-08,-1.25456e-08,-4.4048e-09,705.75,-705.726,1.54381e-05,1.32966e-08,-1.32964e-08,2.90864e-16
-0.870025,0.15,0.132941,0.01,-0.752769,11.25,679.937,-679.912,-241.632,1.28103e-08,-1.281e-08,-4.55249e-09,721.596,-721.571,1.66009e-05,1.35952e-08,-1.35949e-08,3.1277e-16
-0.860025,0.15,0.123075,0.01,-7.06496,11.25,694.404,-694.378,-249.822,1.30829e-08,-1.30826e-08,-4.70679e-09,737.976,-737.951,1.78627e-05,1.39038e-08,-1.39035e-08,3.36543e-16
-0.850025,0.15,0.113232,0.01,-13.4466,11.25,709.319,-709.293,-258.382,1.33639e-08,-1.33636e-08,-4.86807e-09,754.915,-754.888,1.9233e-05,1.42229e-08,-1.42226e-08,3.62361e-16
-0.840025,0.15,0.10342,0.01,-19.8992,11.25,724.7,-724.673,-267.333,1.36537e-08,-1.36534e-08,-5.03671e-09,772.437,-772.409,2.07227e-05,1.4553e-08,-1.45528e-08,3.90427e-16
-0.830025,0.15,0.0936473,0.01,-26.4242,11.25,740.565,-740.537,-276.698,1.39526e-08,-1.39523e-08,-5.21314e-09,790.57,-790.541,2.2344e-05,1.48947e-08,-1.48944e-08,4.20974e-16
-0.820025,0.15,0.0839284,0.01,-33.0233,11.25,756.934,-756.904,-286.499,1.42609e-08,-1.42606e-08,-5.39782e-09,809.341,-809.311,2.41217e-05,1.52483e-08,-1.5248e-08,4.54467e-16
-0.810025,0.15,0.074284,0.01,-39.6981,11.25,773.826,-773.795,-296.764,1.45792e-08,-1.45789e-08,-5.59121e-09,828.781,-828.75,2.62234e-05,1.56146e-08,-1.56143e-08,4.94064e-16
-0.800025,0.15,0.0647477,0.01,-46.4503,11.25,791.264,-791.231,-307.519,1.49077e-08,-1.49074e-08,-5.79384e-09,848.922,-848.889,2.94934e-05,1.5994e-08,-1.59937e-08,5.55672e-16
-0.790025,0.15,0.0550062,0.01,-53.2816,11.25,809.268,-809.234,-318.793,1.52469e-08,-1.52466e-08,-6.00625e-09,869.796,-869.762,4.9144e-06,1.63873e-08,-1.6387e-08,9.25902e-17
-0.780025,0.15,0.0450094,0.01,-60.1939,11.25,827.861,-827.824,-330.618,1.55972e-08,-1.55968e-08,-6.22904e-09,891.44,-891.402,-0.00135388,1.67951e-08,-1.67947e-08,-2.55079e-14
-0.770025,0.15,0.0350143,0.01,-67.1889,11.25,847.035,-846.921,-343.029,1.59581e-08,-1.5957e-08,-6.46287e-09,913.862,-913.749,-0.0308036,1.72172e-08,-1.72161e-08,-5.80358e-13
-0.760025,0.15,0.0250232,0.01,-74.2686,11.25,865.956,-862.253,-353.743,1.6299e-08,-1.62614e-08,-6.66473e-09,935.559,-931.856,1.07627,1.76104e-08,-1.75728e-08,2.02776e-11
-0.750025,0.15,0.0150439,0.01,-81.435,11.25,882.701,-870.35,-363.547,1.65769e-08,-1.64516e-08,-6.84944e-09,955.102,-942.751,1.53099,1.7941e-08,-1.78157e-08,2.88448e-11
-0.740025,0.15,0.00514574,0.01,-88.6883,11.25,891.659,-872.576,-368.483,1.67164e-08,-1.65228e-08,-6.94244e-09,965.52,-946.437,4.09134,1.8108e-08,-1.79144e-08,7.70832e-11
0.739975,0.15,0.00509751,0.01,-88.7246,11.25,891.795,-872.394,368.366,1.67176e-08,-1.65208e-08,6.94023e-09,965.611,-946.211,-4.21534,1.81083e-08,-1.79115e-08,-7.94195e-11
0.749975,0.15,0.0149944,0.01,-81.4708,11.25,882.799,-870.367,363.569,1.65784e-08,-1.64523e-08,6.84985e-09,955.204,-942.772,-1.55735,1.79425e-08,-1.78164e-08,-2.93414e-11
0.759975,0.15,0.0249735,0.01,-74.3041,11.25,866.049,-862.331,353.799,1.63007e-08,-1.6263e-08,6.66578e-09,935.667,-931.949,-1.08054,1.76123e-08,-1.75746e-08,-2.0358e-11
0.769975,0.15,0.0349646,0.01,-67.2239,11.25,847.131,-847.017,343.093,1.59599e-08,-1.59588e-08,6.46407e-09,913.976,-913.862,0.0313275,1.72193e-08,-1.72182e-08,5.90229e-13
0.779975,0.15,0.0449596,0.01,-60.2284,11.25,827.955,-827.917,330.679,1.5599e-08,-1.55986e-08,6.23018e-09,891.55,-891.512,0.00137822,1.67971e-08,-1.67968e-08,2.59665e-14
0.789975,0.15,0.0549565,0.01,-53.3158,11.25,809.359,-809.325,318.851,1.52486e-08,-1.52483e-08,6.00733e-09,869.902,-869.868,-4.28887e-06,1.63893e-08,-1.6389e-08,-8.08049e-17
0.799975,0.15,0.0647006,0.01,-46.4841,11.25,791.352,-791.319,307.574,1.49094e-08,-1.49091e-08,5.79487e-09,849.024,-848.991,-2.9511e-05,1.5996e-08,-1.59956e-08,-5.56004e-16
0.809975,0.15,0.0742363,0.01,-39.7315,11.25,773.912,-773.88,296.816,1.45808e-08,-1.45805e-08,5.59219e-09,828.879,-828.848,-2.62355e-05,1.56164e-08,-1.56161e-08,-4.94293e-16
0.819975,0.15,0.0838802,0.01,-33.0563,11.25,757.017,-756.987,286.549,1.42625e-08,-1.42622e-08,5.39876e-09,809.436,-809.406,-2.41311e-05,1.52501e-08,-1.52498e-08,-4.54643e-16
0.829975,0.15,0.0935989,0.01,-26.4568,11.25,740.646,-740.617,276.745,1.39541e-08,-1.39538e-08,5.21404e-09,790.661,-790.632,-2.23524e-05,1.48964e-08,-1.48961e-08,-4.21133e-16
0.839975,0.15,0.103371,0.01,-19.9314,11.25,724.778,-724.75,267.379,1.36551e-08,-1.36548e-08,5.03757e-09,772.526,-772.498,-2.07304e-05,1.45547e-08,-1.45544e-08,-3.90573e-16
0.849975,0.15,0.113183,0.01,-13.4785,11.25,709.395,-709.368,258.426,1.33653e-08,-1.3365e-08,4.86889e-09,755.001,-754.974,-1.924e-05,1.42245e-08,-1.42243e-08,-3.62494e-16
0.859975,0.15,0.123026,0.01,-7.09653,11.25,694.477,-694.451,249.864,1.30842e-08,-1.3084e-08,4.70758e-09,738.059,-738.033,-1.7869e-05,1.39054e-08,-1.39051e-08,-3.36663e-16
0.869975,0.15,0.132892,0.01,-0.783991,11.25,680.007,-679.983,241.672,1.28116e-08,-1.28114e-08,4.55324e-09,721.676,-721.651,-1.66068e-05,1.35967e-08,-1.35964e-08,-3.12882e-16
0.879975,0.15,0.142776,0.01,5.46054,11.25,665.969,-665.945,233.831,1.25471e-08,-1.25469e-08,4.40552e-09,705.827,-705.804,-1.54438e-05,1.32981e-08,-1.32979e-08,-2.90971e-16
0.889975,0.15,0.152676,0.01,11.6385,11.25,652.345,-652.322,226.323,1.22905e-08,-1.22902e-08,4.26406e-09,690.49,-690.467,-1.43722e-05,1.30091e-08,-1.30089e-08,-2.70781e-16
0.899975,0.15,0.162588,0.01,17.7512,11.25,639.121,-639.099,219.13,1.20413e-08,-1.20411e-08,4.12853e-09,675.643,-675.621,-1.33835e-05,1.27294e-08,-1.27292e-08,-2.52154e-16
0.909975,0.15,0.17251,0.01,23.8,11.25,626.281,-626.26,212.235,1.17994e-08,-1.17992e-08,3.99863e-09,661.266,-661.244,-1.24704e-05,1.24585e-08,-1.24583e-08,-2.34949e-16
0.919975,0.15,0.18244,0.01,29.7861,11.25,613.811,-613.791,205.624,1.15645e-08,-1.15643e-08,3.87408e-09,647.338,-647.318,-1.16268e-05,1.21961e-08,-1.21959e-08,-2.19056e-16
0.929975,0.15,0.192378,0.01,35.7109,11.25,601.699,-601.679,199.283,1.13363e-08,-1.13361e-08,3.75461e-09,633.842,-633.823,-1.08471e-05,1.19419e-08,-1.19417e-08,-2.04366e-16
0.939975,0.15,0.202181,0.01,41.5755,11.25,589.93,-589.911,193.197,1.11145e-08,-1.11144e-08,3.63995e-09,620.761,-620.742,-1.01258e-05,1.16954e-08,-1.16952e-08,-1.90776e-16
0.949975,0.15,0.211987,0.01,47.3811,11.25,578.493,-578.475,187.355,1.08991e-08,-1.08989e-08,3.52988e-09,608.077,-608.058,-9.45837e-06,1.14564e-08,-1.14562e-08,-1.78201e-16
0.959975,0.15,0.221811,0.01,53.1288,11.25,567.477,-567.653,181.748,1.06924e-08,-1.06941e-08,3.42424e-09,595.867,-596.043,-0.0567681,1.12272e-08,-1.1229e-08,-1.06954e-12
0.969975,0.15,0.231649,0.01,58.8198,11.25,558.045,-561.513,177.714,1.0529e-08,-1.05641e-08,3.34824e-09,585.577,-589.045,0.324443,1.10477e-08,-1.10829e-08,6.1127e-12
0.979975,0.15,0.241501,0.01,64.4552,11.25,549.73,-557.477,175.289,1.03909e-08,-1.04695e-08,3.30255e-09,576.816,-584.563,1.6683,1.09012e-08,-1.09798e-08,3.14317e-11
-0.980025,0.16,0.243259,0.01,65.3686,12.8,547.101,-550.278,-183.857,1.03215e-08,-1.03537e-08,-3.46397e-09,577.085,-580.263,0.197606,1.08864e-08,-1.09187e-08,3.72302e-12
-0.970025,0.16,0.233343,0.01,59.7514,12.8,553.582,-555.446,-187.179,1.04379e-08,-1.04568e-08,-3.52655e-09,584.321,-586.185,0.819342,1.10171e-08,-1.1036e-08,1.54369e-11
-0.960025,0.16,0.223435,0.01,54.0791,12.8,561.839,-561.869,-192.432,1.05855e-08,-1.05858e-08,-3.62554e-09,593.879,-593.909,0.187333,1.11892e-08,-1.11895e-08,3.52946e-12
-0.950025,0.16,0.213536,0.01,48.3506,12.8,572.556,-572.538,-198.483,1.07872e-08,-1.0787e-08,-3.73953e-09,605.983,-605.966,9.71058e-06,1.1417e-08,-1.14168e-08,1.82953e-16
-0.940025,0.16,0.203646,0.01,42.5649,12.8,583.748,-583.73,-204.643,1.09981e-08,-1.09979e-08,-3.85559e-09,618.58,-618.562,1.03874e-05,1.16543e-08,-1.16541e-08,1.95705e-16
-0.930025,0.16,0.193767,0.01,36.7208,12.8,595.26,-595.241,-211.058,1.1215e-08,-1.12148e-08,-3.97646e-09,631.57,-631.551,1.11178e-05,1.18991e-08,-1.18989e-08,2.09466e-16
-0.920025,0.16,0.183902,0.01,30.8172,12.8,607.101,-607.082,-217.742,1.14381e-08,-1.14379e-08,-4.10239e-09,644.969,-644.949,1.19068e-05,1.21515e-08,-1.21513e-08,2.24332e-16
-0.910025,0.16,0.174052,0.01,24.8528,12.8,619.286,-619.266,-224.708,1.16676e-08,-1.16674e-08,-4.23362e-09,658.794,-658.774,1.27593e-05,1.2412e-08,-1.24118e-08,2.40393e-16
-0.900025,0.16,0.16422,0.01,18.8266,12.8,631.826,-631.805,-231.97,1.19039e-08,-1.19037e-08,-4.37045e-09,673.064,-673.043,1.36802e-05,1.26808e-08,-1.26806e-08,2.57744e-16
-0.890025,0.16,0.15441,0.01,12.7371,12.8,644.734,-644.712,-239.546,1.21471e-08,-1.21469e-08,-4.51318e-09,687.798,-687.776,1.46765e-05,1.29584e-08,-1.29582e-08,2.76513e-16
-0.880025,0.16,0.144625,0.01,6.5832,12.8,658.025,-658.002,-247.451,1.23975e-08,-1.23972e-08,-4.66211e-09,703.015,-702.992,1.57556e-05,1.32451e-08,-1.32449e-08,2.96844e-16
-0.870025,0.16,0.134873,0.01,0.363467,12.8,671.712,-671.689,-255.703,1.26553e-08,-1.26551e-08,-4.8176e-09,718.737,-718.713,1.69248e-05,1.35413e-08,-1.35411e-08,3.18874e-16
-0.860025,0.16,0.125159,0.01,-5.92344,12.8,685.811,-685.787,-264.322,1.2921e-08,-1.29207e-08,-4.97998e-09,734.986,-734.962,1.81919e-05,1.38475e-08,-1.38472e-08,3.42745e-16
-0.850025,0.16,0.115494,0.01,-12.2789,12.8,700.338,-700.312,-273.328,1.31947e-08,-1.31944e-08,-5.14966e-09,751.786,-751.761,1.95658e-05,1.4164e-08,-1.41637e-08,3.6863e-16
-0.840025,0.16,0.105593,0.01,-18.7045,12.8,715.308,-715.281,-282.743,1.34767e-08,-1.34764e-08,-5.32704e-09,769.162,-769.135,2.10571e-05,1.44913e-08,-1.44911e-08,3.96728e-16
-0.830025,0.16,0.0956557,0.01,-25.2015,12.8,730.738,-730.711,-292.589,1.37674e-08,-1.37671e-08,-5.51254e-09,787.139,-787.112,2.26767e-05,1.483e-08,-1.48298e-08,4.27243e-16
-0.820025,0.16,0.0857331,0.01,-31.7716,12.8,746.647,-746.618,-302.891,1.40671e-08,-1.40668e-08,-5.70664e-09,805.746,-805.717,2.44291e-05,1.51806e-08,-1.51803e-08,4.60258e-16
-0.810025,0.16,0.0758309,0.01,-38.4165,12.8,763.053,-763.023,-313.676,1.43762e-08,-1.43759e-08,-5.90984e-09,825.012,-824.982,2.62199e-05,1.55436e-08,-1.55433e-08,4.93997e-16
-0.800025,0.16,0.0659582,0.01,-45.1376,12.8,779.975,-779.944,-324.972,1.4695e-08,-1.46947e-08,-6.12266e-09,844.967,-844.936,2.71276e-05,1.59195e-08,-1.59192e-08,5.111e-16
-0.790025,0.16,0.0561306,0.01,-51.9367,12.8,797.433,-797.401,-336.809,1.5024e-08,-1.50236e-08,-6.34568e-09,865.646,-865.614,3.62094e-05,1.63091e-08,-1.63088e-08,6.82206e-16
-0.780025,0.16,0.0463768,0.01,-58.8155,12.8,815.45,-815.418,-349.219,1.53634e-08,-1.53631e-08,-6.57949e-09,887.082,-887.05,0.000704235,1.6713e-08,-1.67127e-08,1.32682e-14
-0.770025,0.16,0.0367555,0.01,-65.7759,12.8,834.061,-834.059,-362.229,1.57142e-08,-1.57142e-08,-6.82461e-09,909.322,-909.321,0.0201521,1.71322e-08,-1.71321e-08,3.79678e-13
-0.760025,0.16,0.0274067,0.01,-72.8198,12.8,853.13,-852.398,-375.494,1.60703e-08,-1.60629e-08,-7.07453e-09,932.14,-931.408,0.185631,1.75589e-08,-1.75514e-08,3.49741e-12
-0.750025,0.16,0.0187426,0.01,-79.9489,12.8,869.806,-863.07,-386.4,1.63584e-08,-1.629e-08,-7.28e-09,952.061,-945.326,0.815143,1.79081e-08,-1.78398e-08,1.53578e-11
-0.740025,0.16,0.0123062,0.01,-87.1665,12.8,891.817,-877.893,-391.738,1.67418e-08,-1.66005e-08,-7.38057e-09,974.613,-960.689,8.79048,1.83017e-08,-1.81605e-08,1.65618e-10
0.739975,0.16,0.0122862,0.01,-87.2026,12.8,892.096,-878.048,391.738,1.67465e-08,-1.6604e-08,7.38057e-09,974.873,-960.825,-8.90689,1.83061e-08,-1.81636e-08,-1.67811e-10
0.749975,0.16,0.0187028,0.01,-79.9846,12.8,869.93,-863.151,386.443,1.63605e-08,-1.62917e-08,7.28081e-09,952.194,-945.415,-0.84343,1.79104e-08,-1.78416e-08,-1.58907e-11
0.759975,0.16,0.0273613,0.01,-72.855,12.8,853.23,-852.491,375.556,1.60721e-08,-1.60646e-08,7.07569e-09,932.257,-931.517,-0.192695,1.7561e-08,-1.75535e-08,-3.63049e-12
0.769975,0.16,0.0367082,0.01,-65.8108,12.8,834.155,-834.154,362.295,1.5716e-08,-1.57159e-08,6.82586e-09,909.435,-909.434,-0.0204743,1.71343e-08,-1.71343e-08,-3.85747e-13
0.779975,0.16,0.0463286,0.01,-58.8499,12.8,815.541,-815.509,349.282,1.53651e-08,-1.53648e-08,6.58068e-09,887.19,-887.159,-0.000716679,1.6715e-08,-1.67147e-08,-1.35026e-14
0.789975,0.16,0.0560819,0.01,-51.9707,12.8,797.521,-797.489,336.869,1.50256e-08,-1.50253e-08,6.34681e-09,865.75,-865.718,-3.64615e-05,1.63111e-08,-1.63108e-08,-6.86956e-16
0.799975,0.16,0.0659092,0.01,-45.1712,12.8,780.06,-780.029,325.03,1.46967e-08,-1.46963e-08,6.12375e-09,845.068,-845.037,-2.71267e-05,1.59214e-08,-1.59211e-08,-5.11082e-16
0.809975,0.16,0.0757818,0.01,-38.4497,12.8,763.136,-763.106,313.731,1.43778e-08,-1.43775e-08,5.91088e-09,825.109,-825.079,-2.62284e-05,1.55454e-08,-1.55451e-08,-4.94159e-16
0.819975,0.16,0.0856838,0.01,-31.8045,12.8,746.727,-746.699,302.944,1.40687e-08,-1.40684e-08,5.70763e-09,805.84,-805.812,-2.44383e-05,1.51824e-08,-1.51821e-08,-4.60432e-16
0.829975,0.16,0.0956063,0.01,-25.234,12.8,730.816,-730.789,292.639,1.37689e-08,-1.37686e-08,5.51349e-09,787.23,-787.203,-2.26852e-05,1.48318e-08,-1.48315e-08,-4.27402e-16
0.839975,0.16,0.105543,0.01,-18.7366,12.8,715.383,-715.357,282.791,1.34781e-08,-1.34779e-08,5.32794e-09,769.25,-769.223,-2.10652e-05,1.4493e-08,-1.44927e-08,-3.9688e-16
0.849975,0.16,0.115446,0.01,-12.3107,12.8,700.411,-700.386,273.374,1.3196e-08,-1.31958e-08,5.15052e-09,751.871,-751.846,-1.95732e-05,1.41656e-08,-1.41653e-08,-3.68771e-16
0.859975,0.16,0.125111,0.01,-5.95487,12.8,685.883,-685.858,264.366,1.29223e-08,-1.29221e-08,4.98081e-09,735.068,-735.044,-1.81984e-05,1.3849e-08,-1.38488e-08,-3.42869e-16
0.869975,0.16,0.134824,0.01,0.332369,12.8,671.782,-671.758,255.745,1.26567e-08,-1.26564e-08,4.81839e-09,718.816,-718.793,-1.69309e-05,1.35428e-08,-1.35426e-08,-3.18988e-16
0.879975,0.16,0.144577,0.01,6.55243,12.8,658.092,-658.069,247.491,1.23987e-08,-1.23985e-08,4.66287e-09,703.092,-703.069,-1.57614e-05,1.32466e-08,-1.32463e-08,-2.96954e-16
0.889975,0.16,0.154361,0.01,12.7067,12.8,644.8,-644.778,239.584,1.21483e-08,-1.21481e-08,4.5139e-09,687.872,-687.85,-1.4682e-05,1.29598e-08,-1.29596e-08,-2.76618e-16
0.899975,0.16,0.164171,0.01,18.7965,12.8,631.889,-631.868,232.007,1.19051e-08,-1.19049e-08,4.37115e-09,673.136,-673.115,-1.36853e-05,1.26822e-08,-1.2682e-08,-2.57839e-16
0.909975,0.16,0.174003,0.01,24.823,12.8,619.348,-619.327,224.743,1.16688e-08,-1.16686e-08,4.23429e-09,658.864,-658.843,-1.27632e-05,1.24133e-08,-1.24131e-08,-2.40467e-16
0.919975,0.16,0.183853,0.01,30.7877,12.8,607.161,-607.142,217.776,1.14392e-08,-1.1439e-08,4.10302e-09,645.036,-645.017,-1.19105e-05,1.21528e-08,-1.21526e-08,-2.24401e-16
0.929975,0.16,0.193718,0.01,36.6916,12.8,595.318,-595.299,211.091,1.1216e-08,-1.12159e-08,3.97708e-09,631.635,-631.616,-1.11218e-05,1.19003e-08,-1.19001e-08,-2.09542e-16
0.939975,0.16,0.203597,0.01,42.536,12.8,583.805,-583.786,204.674,1.09991e-08,-1.0999e-08,3.85618e-09,618.644,-618.625,-1.03911e-05,1.16555e-08,-1.16553e-08,-1.95774e-16
0.949975,0.16,0.213486,0.01,48.322,12.8,572.61,-572.593,198.513,1.07882e-08,-1.07881e-08,3.74009e-09,606.045,-606.027,-9.71386e-06,1.14182e-08,-1.1418e-08,-1.83015e-16
0.959975,0.16,0.223386,0.01,54.0507,12.8,561.893,-561.922,192.461,1.05865e-08,-1.05868e-08,3.62608e-09,593.939,-593.969,-0.18735,1.11903e-08,-1.11906e-08,-3.52979e-12
0.969975,0.16,0.233294,0.01,59.7233,12.8,553.635,-555.498,187.207,1.04389e-08,-1.04578e-08,3.52708e-09,584.38,-586.244,-0.819416,1.10182e-08,-1.10371e-08,-1.54383e-11
0.979975,0.16,0.24321,0.01,65.3408,12.8,547.152,-550.33,183.884,1.03225e-08,-1.03547e-08,3.46449e-09,577.142,-580.321,-0.197544,1.08875e-08,-1.09198e-08,-3.72184e-12
-0.980025,0.17,0.244729,0.01,66.3081,14.45,544.088,-542.943,-191.709,1.0246e-08,-1.02343e-08,-3.61191e-09,576.901,-575.756,2.54487,1.08642e-08,-1.08526e-08,4.79468e-11
-0.970025,0.17,0.234875,0.01,60.7099,14.45,547.586,-550.372,-198.168,1.0329e-08,-1.03572e-08,-3.7336e-09,582.258,-585.044,0.329029,1.09822e-08,-1.10105e-08,6.19909e-12
-0.960025,0.17,0.225035,0.01,55.0571,14.45,555.972,-557.105,-203.904,1.04798e-08,-1.04913e-08,-3.84166e-09,592.149,-593.282,-0.395289,1.11614e-08,-1.11728e-08,-7.44747e-12
-0.950025,0.17,0.215209,0.01,49.3487,14.45,566.369,-566.36,-209.401,1.06707e-08,-1.06706e-08,-3.94524e-09,603.84,-603.832,-0.00216165,1.13767e-08,-1.13766e-08,-4.07267e-14
-0.940025,0.17,0.205399,0.01,43.5837,14.45,577.305,-577.287,-215.863,1.08767e-08,-1.08765e-08,-4.06699e-09,616.343,-616.325,1.05911e-05,1.16122e-08,-1.1612e-08,1.99543e-16
-0.930025,0.17,0.19561,0.01,37.761,14.45,588.549,-588.531,-222.597,1.10885e-08,-1.10883e-08,-4.19385e-09,629.238,-629.219,1.13255e-05,1.18551e-08,-1.18549e-08,2.13379e-16
-0.920025,0.17,0.185842,0.01,31.8794,14.45,600.11,-600.091,-229.61,1.13063e-08,-1.13061e-08,-4.32598e-09,642.537,-642.518,1.2118e-05,1.21057e-08,-1.21055e-08,2.2831e-16
-0.910025,0.17,0.1761,0.01,25.9377,14.45,611.999,-611.979,-236.917,1.15303e-08,-1.15301e-08,-4.46365e-09,656.257,-656.237,1.29731e-05,1.23642e-08,-1.2364e-08,2.4442e-16
-0.900025,0.17,0.166355,0.01,19.9349,14.45,624.228,-624.207,-244.533,1.17607e-08,-1.17605e-08,-4.60715e-09,670.416,-670.396,1.38958e-05,1.26309e-08,-1.26307e-08,2.61806e-16
-0.890025,0.17,0.156442,0.01,13.8697,14.45,636.808,-636.787,-252.475,1.19977e-08,-1.19975e-08,-4.75678e-09,685.033,-685.012,1.48928e-05,1.29063e-08,-1.29061e-08,2.80589e-16
-0.880025,0.17,0.146541,0.01,7.74077,14.45,649.754,-649.732,-260.761,1.22416e-08,-1.22414e-08,-4.91288e-09,700.127,-700.105,1.59709e-05,1.31907e-08,-1.31905e-08,3.00901e-16
-0.870025,0.17,0.136654,0.01,1.54687,14.45,663.077,-663.054,-269.408,1.24927e-08,-1.24924e-08,-5.0758e-09,715.718,-715.696,1.71368e-05,1.34844e-08,-1.34842e-08,3.22868e-16
-0.860025,0.17,0.126785,0.01,-4.71334,14.45,676.792,-676.768,-278.436,1.2751e-08,-1.27508e-08,-5.24589e-09,731.83,-731.806,1.83986e-05,1.3788e-08,-1.37878e-08,3.46639e-16
-0.850025,0.17,0.116939,0.01,-11.0412,14.45,690.913,-690.888,-287.866,1.30171e-08,-1.30168e-08,-5.42356e-09,748.484,-748.46,1.97651e-05,1.41018e-08,-1.41015e-08,3.72385e-16
-0.840025,0.17,0.107121,0.01,-17.4382,14.45,705.454,-705.429,-297.721,1.32911e-08,-1.32908e-08,-5.60923e-09,765.706,-765.681,2.12459e-05,1.44262e-08,-1.4426e-08,4.00284e-16
-0.830025,0.17,0.0973395,0.01,-23.9057,14.45,720.432,-720.407,-308.024,1.35733e-08,-1.3573e-08,-5.80335e-09,783.52,-783.494,2.28514e-05,1.47619e-08,-1.47616e-08,4.30533e-16
-0.820025,0.17,0.0876079,0.01,-30.4453,14.45,735.863,-735.836,-318.8,1.3864e-08,-1.38637e-08,-6.00639e-09,801.954,-801.927,2.45968e-05,1.51092e-08,-1.51089e-08,4.63417e-16
-0.810025,0.17,0.0779442,0.01,-37.0585,14.45,751.763,-751.735,-330.078,1.41635e-08,-1.41632e-08,-6.21886e-09,821.037,-821.009,2.65625e-05,1.54687e-08,-1.54684e-08,5.00453e-16
-0.800025,0.17,0.0683773,0.01,-43.7468,14.45,768.15,-768.121,-341.885,1.44723e-08,-1.4472e-08,-6.4413e-09,840.798,-840.769,2.95181e-05,1.5841e-08,-1.58407e-08,5.56138e-16
-0.790025,0.17,0.0589543,0.01,-50.512,14.45,785.041,-785.011,-354.252,1.47905e-08,-1.47902e-08,-6.67431e-09,861.27,-861.24,3.29979e-05,1.62267e-08,-1.62264e-08,6.21699e-16
-0.780025,0.17,0.0492429,0.01,-57.3557,14.45,802.456,-802.424,-367.213,1.51186e-08,-1.51183e-08,-6.9185e-09,882.487,-882.455,-0.000257364,1.66264e-08,-1.66261e-08,-4.84888e-15
-0.770025,0.17,0.0392507,0.01,-64.2796,14.45,820.408,-820.359,-380.806,1.54567e-08,-1.54563e-08,-7.17461e-09,904.481,-904.433,-0.00979919,1.70407e-08,-1.70402e-08,-1.84622e-13
-0.760025,0.17,0.0292638,0.01,-71.2856,14.45,838.807,-838.513,-395.15,1.58023e-08,-1.57994e-08,-7.44485e-09,927.235,-926.942,-0.192616,1.74684e-08,-1.74654e-08,-3.629e-12
-0.750025,0.17,0.0192905,0.01,-78.3754,14.45,855.736,-849.266,-405.729,1.60944e-08,-1.60288e-08,-7.64418e-09,947.36,-940.89,1.49224,1.78207e-08,-1.7755e-08,2.81147e-11
-0.740025,0.17,0.00937416,0.01,-85.5505,14.45,868.913,-851.882,-412.344,1.62968e-08,-1.6124e-08,-7.7688e-09,962.607,-945.576,4.48396,1.8062e-08,-1.78893e-08,8.44804e-11
0.739975,0.17,0.00932529,0.01,-85.5864,14.45,868.985,-851.916,412.417,1.6298e-08,-1.61248e-08,7.77018e-09,962.706,-945.637,-4.46927,1.80637e-08,-1.78906e-08,-8.42037e-11
0.749975,0.17,0.0192409,0.01,-78.4109,14.45,855.838,-849.369,405.803,1.60964e-08,-1.60307e-08,7.64556e-09,947.484,-941.015,-1.49714,1.7823e-08,-1.77574e-08,-2.8207e-11
0.759975,0.17,0.0292142,0.01,-71.3206,14.45,838.901,-838.609,395.224,1.58041e-08,-1.58012e-08,7.44626e-09,927.352,-927.061,0.193603,1.74706e-08,-1.74676e-08,3.6476e-12
0.769975,0.17,0.039201,0.01,-64.3142,14.45,820.498,-820.45,380.876,1.54585e-08,-1.5458e-08,7.17592e-09,904.593,-904.544,0.00995608,1.70428e-08,-1.70423e-08,1.87578e-13
0.779975,0.17,0.0491932,0.01,-57.3899,14.45,802.544,-802.512,367.279,1.51203e-08,-1.51199e-08,6.91975e-09,882.595,-882.563,0.000263167,1.66285e-08,-1.66281e-08,4.95821e-15
0.789975,0.17,0.0589079,0.01,-50.5458,14.45,785.127,-785.097,354.315,1.47921e-08,-1.47918e-08,6.6755e-09,861.374,-861.344,-3.2952e-05,1.62287e-08,-1.62283e-08,-6.20834e-16
0.799975,0.17,0.06833,0.01,-43.7803,14.45,768.233,-768.204,341.945,1.44738e-08,-1.44735e-08,6.44244e-09,840.898,-840.869,-2.95401e-05,1.58429e-08,-1.58426e-08,-5.56552e-16
0.809975,0.17,0.0778963,0.01,-37.0916,14.45,751.843,-751.815,330.135,1.4165e-08,-1.41648e-08,6.21994e-09,821.133,-821.105,-2.65736e-05,1.54705e-08,-1.54702e-08,-5.00662e-16
0.819975,0.17,0.0875596,0.01,-30.478,14.45,735.941,-735.914,318.855,1.38654e-08,-1.38652e-08,6.00742e-09,802.047,-802.02,-2.46059e-05,1.51109e-08,-1.51106e-08,-4.63589e-16
0.829975,0.17,0.097291,0.01,-23.9381,14.45,720.508,-720.482,308.076,1.35747e-08,-1.35744e-08,5.80434e-09,783.61,-783.584,-2.28597e-05,1.47636e-08,-1.47633e-08,-4.30689e-16
0.839975,0.17,0.107072,0.01,-17.4702,14.45,705.528,-705.503,297.771,1.32924e-08,-1.32922e-08,5.61018e-09,765.793,-765.768,-2.12537e-05,1.44279e-08,-1.44276e-08,-4.00431e-16
0.849975,0.17,0.11689,0.01,-11.0729,14.45,690.984,-690.96,287.914,1.30184e-08,-1.30182e-08,5.42447e-09,748.568,-748.544,-1.97722e-05,1.41034e-08,-1.41031e-08,-3.72519e-16
0.859975,0.17,0.126736,0.01,-4.74464,14.45,676.861,-676.838,278.482,1.27524e-08,-1.27521e-08,5.24676e-09,731.911,-731.888,-1.84049e-05,1.37895e-08,-1.37893e-08,-3.46758e-16
0.869975,0.17,0.136605,0.01,1.5159,14.45,663.144,-663.122,269.452,1.24939e-08,-1.24937e-08,5.07662e-09,715.797,-715.775,-1.71427e-05,1.34859e-08,-1.34857e-08,-3.22978e-16
0.879975,0.17,0.146492,0.01,7.71013,14.45,649.819,-649.797,260.803,1.22429e-08,-1.22427e-08,4.91368e-09,700.203,-700.181,-1.59764e-05,1.31921e-08,-1.31919e-08,-3.01005e-16
0.889975,0.17,0.156392,0.01,13.8394,14.45,636.872,-636.851,252.516,1.19989e-08,-1.19987e-08,4.75754e-09,685.107,-685.086,-1.48979e-05,1.29077e-08,-1.29075e-08,-2.80686e-16
0.899975,0.17,0.166305,0.01,19.9049,14.45,624.289,-624.269,244.572,1.17619e-08,-1.17617e-08,4.60788e-09,670.488,-670.467,-1.39005e-05,1.26323e-08,-1.26321e-08,-2.61893e-16
0.909975,0.17,0.176052,0.01,25.908,14.45,612.059,-612.039,236.954,1.15315e-08,-1.15313e-08,4.46435e-09,656.326,-656.307,-1.29771e-05,1.23655e-08,-1.23653e-08,-2.44497e-16
0.919975,0.17,0.185793,0.01,31.85,14.45,600.168,-600.149,229.645,1.13074e-08,-1.13072e-08,4.32665e-09,642.604,-642.585,-1.21219e-05,1.21069e-08,-1.21068e-08,-2.28383e-16
0.929975,0.17,0.195561,0.01,37.7319,14.45,588.606,-588.587,222.631,1.10896e-08,-1.10894e-08,4.1945e-09,629.303,-629.285,-1.13295e-05,1.18563e-08,-1.18562e-08,-2.13455e-16
0.939975,0.17,0.205351,0.01,43.5549,14.45,577.36,-577.342,215.896,1.08777e-08,-1.08775e-08,4.06761e-09,616.406,-616.388,-1.05947e-05,1.16134e-08,-1.16132e-08,-1.99611e-16
0.949975,0.17,0.21516,0.01,49.3202,14.45,566.423,-566.414,209.433,1.06717e-08,-1.06716e-08,3.94583e-09,603.901,-603.893,0.00216185,1.13778e-08,-1.13777e-08,4.07305e-14
0.959975,0.17,0.224986,0.01,55.0288,14.45,556.024,-557.157,203.934,1.04807e-08,-1.04922e-08,3.84224e-09,592.208,-593.342,0.395362,1.11625e-08,-1.1174e-08,7.44885e-12
0.969975,0.17,0.234827,0.01,60.6819,14.45,547.637,-550.424,198.198,1.03299e-08,-1.03582e-08,3.73416e-09,582.316,-585.103,-0.328975,1.09833e-08,-1.10116e-08,-6.19808e-12
0.979975,0.17,0.24468,0.01,66.2804,14.45,544.138,-542.993,191.737,1.02469e-08,-1.02353e-08,3.61244e-09,576.958,-575.813,-2.54505,1.08652e-08,-1.08536e-08,-4.79503e-11
-0.970025,0.18,0.23682,0.01,61.7229,16.2,541.509,-552.412,-210.826,1.02498e-08,-1.03604e-08,-3.97208e-09,580.734,-591.636,-0.556475,1.09888e-08,-1.10994e-08,-1.04843e-11
-0.960025,0.18,0.227064,0.01,56.0906,16.2,550.685,-554.324,-214.872,1.0391e-08,-1.0428e-08,-4.04831e-09,590.997,-594.636,-0.129602,1.11505e-08,-1.11875e-08,-2.44178e-12
-0.950025,0.18,0.217251,0.01,50.4034,16.2,559.979,-560.147,-220.062,1.05511e-08,-1.05528e-08,-4.14609e-09,601.661,-601.83,0.0646552,1.13364e-08,-1.13381e-08,1.21814e-12
-0.940025,0.18,0.20736,0.01,44.6602,16.2,570.555,-570.539,-226.818,1.07495e-08,-1.07494e-08,-4.27339e-09,613.987,-613.971,1.07343e-05,1.15678e-08,-1.15676e-08,2.0224e-16
-0.930025,0.18,0.19748,0.01,38.86,16.2,581.522,-581.504,-233.856,1.09561e-08,-1.0956e-08,-4.40598e-09,626.783,-626.766,1.14675e-05,1.18089e-08,-1.18087e-08,2.16055e-16
-0.920025,0.18,0.187613,0.01,33.0015,16.2,592.791,-592.773,-241.184,1.11684e-08,-1.11683e-08,-4.54404e-09,639.977,-639.959,1.22576e-05,1.20575e-08,-1.20573e-08,2.30939e-16
-0.910025,0.18,0.17776,0.01,27.0838,16.2,604.372,-604.354,-248.817,1.13866e-08,-1.13865e-08,-4.68785e-09,653.587,-653.569,1.3109e-05,1.23139e-08,-1.23137e-08,2.46981e-16
-0.900025,0.18,0.167925,0.01,21.1057,16.2,616.278,-616.258,-256.771,1.16109e-08,-1.16107e-08,-4.83771e-09,667.63,-667.611,1.40267e-05,1.25785e-08,-1.25783e-08,2.64272e-16
-0.890025,0.18,0.158111,0.01,15.0659,16.2,628.518,-628.498,-265.062,1.18416e-08,-1.18414e-08,-4.99393e-09,682.124,-682.104,1.50172e-05,1.28515e-08,-1.28513e-08,2.82932e-16
-0.880025,0.18,0.148321,0.01,8.96331,16.2,641.104,-641.084,-273.709,1.20787e-08,-1.20785e-08,-5.15684e-09,697.089,-697.068,1.60862e-05,1.31335e-08,-1.31333e-08,3.03073e-16
-0.870025,0.18,0.138562,0.01,2.79658,16.2,654.05,-654.028,-282.731,1.23226e-08,-1.23224e-08,-5.32682e-09,712.544,-712.523,1.724e-05,1.34247e-08,-1.34244e-08,3.24812e-16
-0.860025,0.18,0.128839,0.01,-3.43556,16.2,667.366,-667.344,-292.147,1.25735e-08,-1.25732e-08,-5.50423e-09,728.512,-728.489,1.84869e-05,1.37255e-08,-1.37253e-08,3.48304e-16
-0.850025,0.18,0.119162,0.01,-9.73444,16.2,681.067,-681.044,-301.98,1.28316e-08,-1.28314e-08,-5.68947e-09,745.013,-744.991,1.98351e-05,1.40364e-08,-1.40362e-08,3.73704e-16
-0.840025,0.18,0.109544,0.01,-16.1014,16.2,695.165,-695.141,-312.251,1.30972e-08,-1.3097e-08,-5.88299e-09,762.074,-762.05,2.12933e-05,1.43578e-08,-1.43576e-08,4.01178e-16
-0.830025,0.18,0.0999039,0.01,-22.5379,16.2,709.674,-709.65,-322.986,1.33706e-08,-1.33703e-08,-6.08524e-09,779.717,-779.693,2.28713e-05,1.46902e-08,-1.469e-08,4.30909e-16
-0.820025,0.18,0.0899808,0.01,-29.0454,16.2,724.61,-724.585,-334.209,1.3652e-08,-1.36517e-08,-6.2967e-09,797.971,-797.946,2.45781e-05,1.50341e-08,-1.50339e-08,4.63066e-16
-0.810025,0.18,0.0800768,0.01,-35.6254,16.2,739.987,-739.961,-345.95,1.39417e-08,-1.39414e-08,-6.5179e-09,816.862,-816.836,2.63886e-05,1.539e-08,-1.53898e-08,4.97177e-16
-0.800025,0.18,0.0702,0.01,-42.2793,16.2,755.82,-755.793,-358.237,1.424e-08,-1.42397e-08,-6.74939e-09,836.421,-836.394,2.7807e-05,1.57585e-08,-1.57583e-08,5.239e-16
-0.790025,0.18,0.0603638,0.01,-49.0088,16.2,772.126,-772.098,-371.102,1.45472e-08,-1.45469e-08,-6.99177e-09,856.678,-856.65,2.66587e-05,1.61402e-08,-1.61399e-08,5.02265e-16
-0.780025,0.18,0.050592,0.01,-55.8156,16.2,788.921,-788.892,-384.578,1.48636e-08,-1.48633e-08,-7.24567e-09,877.667,-877.638,0.000140615,1.65356e-08,-1.65353e-08,2.64928e-15
-0.770025,0.18,0.0409304,0.01,-62.7012,16.2,806.225,-806.203,-398.7,1.51897e-08,-1.51894e-08,-7.51175e-09,899.424,-899.402,0.00472946,1.69456e-08,-1.69453e-08,8.91057e-14
-0.760025,0.18,0.031481,0.01,-69.6675,16.2,823.838,-823.458,-413.467,1.55199e-08,-1.55161e-08,-7.78996e-09,921.792,-921.412,-0.132105,1.73654e-08,-1.73616e-08,-2.48894e-12
-0.750025,0.18,0.0225123,0.01,-76.7161,16.2,839.682,-832.039,-425.995,1.57869e-08,-1.57093e-08,-8.02599e-09,941.976,-934.333,-0.245118,1.77141e-08,-1.76366e-08,-4.61816e-12
-0.740025,0.18,0.0149183,0.01,-83.8493,16.2,858.112,-828.668,-435.246,1.60393e-08,-1.57406e-08,-8.20029e-09,963.799,-934.354,0.744255,1.80305e-08,-1.77318e-08,1.40222e-11
0.739975,0.18,0.0148876,0.01,-83.885,16.2,858.214,-828.812,435.326,1.60414e-08,-1.57431e-08,8.20179e-09,963.923,-934.521,-0.759545,1.8033e-08,-1.77348e-08,-1.43103e-11
0.749975,0.18,0.0224698,0.01,-76.7514,16.2,839.769,-832.131,426.074,1.57885e-08,-1.5711e-08,8.02748e-09,942.09,-934.452,0.246679,1.77163e-08,-1.76388e-08,4.64757e-12
0.759975,0.18,0.0314348,0.01,-69.7023,16.2,823.927,-823.547,413.542,1.55216e-08,-1.55178e-08,7.79137e-09,921.906,-921.526,0.13202,1.73676e-08,-1.73637e-08,2.48733e-12
0.769975,0.18,0.0408828,0.01,-62.7356,16.2,806.312,-806.291,398.772,1.51913e-08,-1.51911e-08,7.5131e-09,899.534,-899.512,-0.00480773,1.69476e-08,-1.69474e-08,-9.05804e-14
0.779975,0.18,0.0505436,0.01,-55.8496,16.2,789.006,-788.977,384.647,1.48652e-08,-1.48649e-08,7.24697e-09,877.773,-877.744,-0.000143091,1.65376e-08,-1.65373e-08,-2.69593e-15
0.789975,0.18,0.0603151,0.01,-49.0425,16.2,772.208,-772.18,371.167,1.45487e-08,-1.45484e-08,6.99301e-09,856.781,-856.752,-2.66595e-05,1.61421e-08,-1.61418e-08,-5.0228e-16
0.799975,0.18,0.070151,0.01,-42.3126,16.2,755.9,-755.873,358.299,1.42415e-08,-1.42412e-08,6.75057e-09,836.52,-836.493,-2.78098e-05,1.57604e-08,-1.57601e-08,-5.23953e-16
0.809975,0.18,0.0800276,0.01,-35.6583,16.2,740.064,-740.038,346.01,1.39431e-08,-1.39429e-08,6.51902e-09,816.958,-816.932,-2.63974e-05,1.53918e-08,-1.53916e-08,-4.97341e-16
0.819975,0.18,0.0899314,0.01,-29.078,16.2,724.686,-724.66,334.266,1.36534e-08,-1.36531e-08,6.29777e-09,798.063,-798.038,-2.45868e-05,1.50359e-08,-1.50356e-08,-4.6323e-16
0.829975,0.18,0.0998545,0.01,-22.5701,16.2,709.748,-709.723,323.04,1.3372e-08,-1.33717e-08,6.08627e-09,779.807,-779.782,-2.28795e-05,1.46919e-08,-1.46917e-08,-4.31064e-16
0.839975,0.18,0.109496,0.01,-16.1333,16.2,695.236,-695.212,312.303,1.30985e-08,-1.30983e-08,5.88398e-09,762.16,-762.136,-2.13008e-05,1.43594e-08,-1.43592e-08,-4.01319e-16
0.849975,0.18,0.119114,0.01,-9.76594,16.2,681.136,-681.113,302.03,1.28329e-08,-1.28327e-08,5.69042e-09,745.097,-745.074,-1.98419e-05,1.4038e-08,-1.40377e-08,-3.73833e-16
0.859975,0.18,0.128791,0.01,-3.46672,16.2,667.433,-667.411,292.195,1.25747e-08,-1.25745e-08,5.50513e-09,728.592,-728.57,-1.84931e-05,1.3727e-08,-1.37268e-08,-3.48421e-16
0.869975,0.18,0.138513,0.01,2.76575,16.2,654.115,-654.094,282.777,1.23238e-08,-1.23236e-08,5.32768e-09,712.622,-712.601,-1.72458e-05,1.34261e-08,-1.34259e-08,-3.24921e-16
0.879975,0.18,0.148272,0.01,8.9328,16.2,641.168,-641.147,273.753,1.20799e-08,-1.20797e-08,5.15767e-09,697.165,-697.144,-1.60914e-05,1.31349e-08,-1.31347e-08,-3.03172e-16
0.889975,0.18,0.158062,0.01,15.0357,16.2,628.58,-628.56,265.104,1.18427e-08,-1.18425e-08,4.99472e-09,682.198,-682.178,-1.50219e-05,1.28529e-08,-1.28527e-08,-2.83021e-16
0.899975,0.18,0.167876,0.01,21.0758,16.2,616.338,-616.318,256.811,1.16121e-08,-1.16119e-08,4.83847e-09,667.701,-667.682,-1.40312e-05,1.25798e-08,-1.25796e-08,-2.64357e-16
0.909975,0.18,0.177711,0.01,27.0543,16.2,604.431,-604.412,248.855,1.13877e-08,-1.13876e-08,4.68858e-09,653.656,-653.638,-1.31134e-05,1.23152e-08,-1.2315e-08,-2.47064e-16
0.919975,0.18,0.187564,0.01,32.9723,16.2,592.847,-592.829,241.221,1.11695e-08,-1.11693e-08,4.54474e-09,640.044,-640.026,-1.2262e-05,1.20587e-08,-1.20585e-08,-2.31022e-16
0.929975,0.18,0.197431,0.01,38.831,16.2,581.577,-581.56,233.892,1.09572e-08,-1.0957e-08,4.40665e-09,626.848,-626.83,-1.14715e-05,1.18101e-08,-1.18099e-08,-2.1613e-16
0.939975,0.18,0.207311,0.01,44.6315,16.2,570.609,-570.592,226.852,1.07505e-08,-1.07504e-08,4.27403e-09,614.05,-614.033,-1.07375e-05,1.1569e-08,-1.15688e-08,-2.02301e-16
0.949975,0.18,0.217202,0.01,50.375,16.2,560.031,-560.2,220.095,1.0552e-08,-1.05538e-08,4.14671e-09,601.722,-601.891,-0.0646671,1.13375e-08,-1.13392e-08,-1.21837e-12
0.959975,0.18,0.227015,0.01,56.0625,16.2,550.736,-554.376,214.904,1.0392e-08,-1.04289e-08,4.04891e-09,591.056,-594.695,0.129594,1.11517e-08,-1.11886e-08,2.44163e-12
0.969975,0.18,0.236772,0.01,61.695,16.2,541.559,-552.463,210.857,1.02507e-08,-1.03613e-08,3.97266e-09,580.792,-591.696,0.556586,1.09899e-08,-1.11005e-08,1.04864e-11
-0.970025,0.19,0.238585,0.01,62.7899,18.05,535.06,-550.594,-220.812,1.01484e-08,-1.0306e-08,-4.16023e-09,578.253,-593.787,0.296346,1.09622e-08,-1.11198e-08,5.58334e-12
-0.960025,0.19,0.228742,0.01,57.1792,18.05,544.257,-548.361,-224.888,1.0272e-08,-1.03136e-08,-4.23702e-09,588.734,-592.838,0.156268,1.11099e-08,-1.11516e-08,2.94418e-12
-0.950025,0.19,0.218913,0.01,51.5141,18.05,553.209,-553.375,-230.459,1.04235e-08,-1.04252e-08,-4.34198e-09,599.286,-599.452,0.0669748,1.12916e-08,-1.12933e-08,1.26184e-12
-0.940025,0.19,0.209101,0.01,45.7938,18.05,563.514,-563.498,-237.497,1.06169e-08,-1.06167e-08,-4.47458e-09,611.517,-611.501,1.08178e-05,1.15213e-08,-1.15211e-08,2.03814e-16
-0.930025,0.19,0.199307,0.01,40.0171,18.05,574.192,-574.176,-244.825,1.0818e-08,-1.08179e-08,-4.61264e-09,624.209,-624.192,1.15452e-05,1.17604e-08,-1.17602e-08,2.17519e-16
-0.920025,0.19,0.189535,0.01,34.183,18.05,585.158,-585.141,-252.453,1.10246e-08,-1.10245e-08,-4.75635e-09,637.294,-637.277,1.23277e-05,1.20069e-08,-1.20067e-08,2.32261e-16
-0.910025,0.19,0.179788,0.01,28.2904,18.05,596.422,-596.404,-260.396,1.12369e-08,-1.12367e-08,-4.90601e-09,650.789,-650.771,1.31696e-05,1.22612e-08,-1.2261e-08,2.48123e-16
-0.900025,0.19,0.17007,0.01,22.3381,18.05,607.993,-607.974,-268.67,1.14549e-08,-1.14547e-08,-5.06191e-09,664.71,-664.692,1.4076e-05,1.25235e-08,-1.25233e-08,2.65199e-16
-0.890025,0.19,0.160387,0.01,16.325,18.05,619.881,-619.862,-277.294,1.16788e-08,-1.16786e-08,-5.22437e-09,679.077,-679.058,1.50523e-05,1.27941e-08,-1.27939e-08,2.83594e-16
-0.880025,0.19,0.150745,0.01,10.25,18.05,632.097,-632.077,-286.284,1.1909e-08,-1.19088e-08,-5.39375e-09,693.906,-693.887,1.61042e-05,1.30735e-08,-1.30733e-08,3.03412e-16
-0.870025,0.19,0.140899,0.01,4.11168,18.05,644.652,-644.632,-295.66,1.21455e-08,-1.21453e-08,-5.57041e-09,709.219,-709.199,1.72382e-05,1.3362e-08,-1.33618e-08,3.24777e-16
-0.860025,0.19,0.131028,0.01,-2.09106,18.05,657.557,-657.536,-305.443,1.23887e-08,-1.23884e-08,-5.75473e-09,725.036,-725.015,1.84616e-05,1.366e-08,-1.36598e-08,3.47827e-16
-0.850025,0.19,0.121177,0.01,-8.35956,18.05,670.823,-670.802,-315.655,1.26386e-08,-1.26384e-08,-5.94712e-09,741.379,-741.358,1.97813e-05,1.39679e-08,-1.39677e-08,3.72692e-16
-0.840025,0.19,0.111354,0.01,-14.6951,18.05,684.464,-684.442,-326.318,1.28956e-08,-1.28954e-08,-6.14803e-09,758.272,-758.249,2.1206e-05,1.42862e-08,-1.4286e-08,3.99533e-16
-0.830025,0.19,0.101565,0.01,-21.0992,18.05,698.49,-698.468,-337.459,1.31599e-08,-1.31596e-08,-6.35791e-09,775.738,-775.715,2.2745e-05,1.46152e-08,-1.4615e-08,4.2853e-16
-0.820025,0.19,0.0918217,0.01,-27.5731,18.05,712.916,-712.893,-349.102,1.34317e-08,-1.34314e-08,-6.57728e-09,793.803,-793.78,2.44087e-05,1.49556e-08,-1.49554e-08,4.59873e-16
-0.810025,0.19,0.0821399,0.01,-34.1182,18.05,727.754,-727.73,-361.276,1.37112e-08,-1.3711e-08,-6.80665e-09,812.495,-812.471,2.62256e-05,1.53078e-08,-1.53075e-08,4.94105e-16
-0.800025,0.19,0.0725446,0.01,-40.7362,18.05,743.018,-742.993,-374.012,1.39988e-08,-1.39985e-08,-7.0466e-09,831.843,-831.818,2.85057e-05,1.56723e-08,-1.5672e-08,5.37063e-16
-0.790025,0.19,0.0630751,0.01,-47.4284,18.05,758.721,-758.695,-387.34,1.42946e-08,-1.42944e-08,-7.29772e-09,851.876,-851.85,3.35783e-05,1.60497e-08,-1.60495e-08,6.32635e-16
-0.780025,0.19,0.053798,0.01,-54.1966,18.05,774.879,-774.852,-401.296,1.4599e-08,-1.45988e-08,-7.56065e-09,872.627,-872.6,2.78188e-06,1.64407e-08,-1.64404e-08,5.24123e-17
-0.770025,0.19,0.0440129,0.01,-61.0422,18.05,791.504,-791.472,-415.916,1.49123e-08,-1.49119e-08,-7.83611e-09,894.13,-894.098,-0.00199729,1.68458e-08,-1.68455e-08,-3.76301e-14
-0.760025,0.19,0.0340312,0.01,-67.967,18.05,808.467,-808.13,-431.245,1.52305e-08,-1.52271e-08,-8.12491e-09,916.312,-915.975,-0.148824,1.72624e-08,-1.7259e-08,-2.80392e-12
-0.750025,0.19,0.0240646,0.01,-74.9726,18.05,824.3,-817.118,-443.803,1.54991e-08,-1.54262e-08,-8.36151e-09,936.61,-929.428,0.459766,1.7615e-08,-1.75422e-08,8.66226e-12
-0.740025,0.19,0.0141454,0.01,-82.0608,18.05,840.64,-820.601,-453.647,1.5751e-08,-1.55477e-08,-8.54697e-09,956.444,-936.404,2.60615,1.79328e-08,-1.77295e-08,4.91014e-11
0.739975,0.19,0.0140964,0.01,-82.0962,18.05,840.726,-820.762,453.729,1.5753e-08,-1.55504e-08,8.54852e-09,956.554,-936.59,-2.62382,1.79352e-08,-1.77327e-08,-4.94343e-11
0.749975,0.19,0.0240152,0.01,-75.0077,18.05,824.393,-817.221,443.88,1.55009e-08,-1.54281e-08,8.36296e-09,936.728,-929.556,-0.468563,1.76173e-08,-1.75446e-08,-8.828e-12
0.759975,0.19,0.0339816,0.01,-68.0016,18.05,808.554,-808.216,431.324,1.52322e-08,-1.52287e-08,8.12639e-09,916.425,-916.088,0.148931,1.72645e-08,-1.72611e-08,2.80595e-12
0.769975,0.19,0.0439632,0.01,-61.0764,18.05,791.588,-791.556,415.991,1.49138e-08,-1.49135e-08,7.83751e-09,894.239,-894.207,0.00203238,1.68478e-08,-1.68475e-08,3.82912e-14
0.779975,0.19,0.0537525,0.01,-54.2304,18.05,774.96,-774.933,401.367,1.46006e-08,-1.46003e-08,7.56199e-09,872.732,-872.705,-1.88625e-06,1.64427e-08,-1.64424e-08,-3.5538e-17
0.789975,0.19,0.0630285,0.01,-47.4619,18.05,758.801,-758.774,387.408,1.42961e-08,-1.42959e-08,7.299e-09,851.978,-851.952,-3.36152e-05,1.60516e-08,-1.60514e-08,-6.3333e-16
0.799975,0.19,0.0724972,0.01,-40.7693,18.05,743.095,-743.07,374.077,1.40002e-08,-1.4e-08,7.04782e-09,831.941,-831.916,-2.85204e-05,1.56741e-08,-1.56739e-08,-5.3734e-16
0.809975,0.19,0.082092,0.01,-34.151,18.05,727.829,-727.805,361.338,1.37126e-08,-1.37124e-08,6.80782e-09,812.59,-812.565,-2.62352e-05,1.53096e-08,-1.53093e-08,-4.94286e-16
0.819975,0.19,0.0917733,0.01,-27.6054,18.05,712.989,-712.965,349.161,1.3433e-08,-1.34328e-08,6.5784e-09,793.895,-793.871,-2.44173e-05,1.49573e-08,-1.49571e-08,-4.60035e-16
0.829975,0.19,0.101516,0.01,-21.1312,18.05,698.561,-698.538,337.515,1.31612e-08,-1.3161e-08,6.35898e-09,775.826,-775.803,-2.2753e-05,1.46169e-08,-1.46167e-08,-4.2868e-16
0.839975,0.19,0.111305,0.01,-14.7268,18.05,684.533,-684.51,326.373,1.28969e-08,-1.28967e-08,6.14905e-09,758.357,-758.335,-2.12134e-05,1.42878e-08,-1.42876e-08,-3.99674e-16
0.849975,0.19,0.121128,0.01,-8.3909,18.05,670.89,-670.869,315.707,1.26399e-08,-1.26396e-08,5.9481e-09,741.462,-741.44,-1.97881e-05,1.39695e-08,-1.39693e-08,-3.7282e-16
0.859975,0.19,0.130978,0.01,-2.12207,18.05,657.622,-657.601,305.493,1.23899e-08,-1.23897e-08,5.75566e-09,725.116,-725.095,-1.84678e-05,1.36615e-08,-1.36613e-08,-3.47944e-16
0.869975,0.19,0.14085,0.01,4.081,18.05,644.715,-644.695,295.708,1.21467e-08,-1.21465e-08,5.5713e-09,709.297,-709.276,-1.72441e-05,1.33635e-08,-1.33633e-08,-3.24889e-16
0.879975,0.19,0.150697,0.01,10.2196,18.05,632.158,-632.139,286.329,1.19101e-08,-1.19099e-08,5.39461e-09,693.981,-693.962,-1.61099e-05,1.30749e-08,-1.30747e-08,-3.03519e-16
0.889975,0.19,0.160339,0.01,16.295,18.05,619.941,-619.922,277.338,1.168e-08,-1.16798e-08,5.2252e-09,679.149,-679.13,-1.50574e-05,1.27955e-08,-1.27953e-08,-2.8369e-16
0.899975,0.19,0.170022,0.01,22.3083,18.05,608.051,-608.033,268.712,1.1456e-08,-1.14558e-08,5.0627e-09,664.781,-664.763,-1.40805e-05,1.25248e-08,-1.25246e-08,-2.65285e-16
0.909975,0.19,0.179739,0.01,28.2609,18.05,596.479,-596.461,260.436,1.12379e-08,-1.12377e-08,4.90677e-09,650.857,-650.839,-1.31741e-05,1.22624e-08,-1.22623e-08,-2.48207e-16
0.919975,0.19,0.189486,0.01,34.1538,18.05,585.214,-585.197,252.491,1.10257e-08,-1.10255e-08,4.75708e-09,637.36,-637.343,-1.2332e-05,1.20082e-08,-1.2008e-08,-2.32343e-16
0.929975,0.19,0.199258,0.01,39.9882,18.05,574.246,-574.229,244.862,1.08191e-08,-1.08189e-08,4.61334e-09,624.273,-624.256,-1.15491e-05,1.17616e-08,-1.17614e-08,-2.17592e-16
0.939975,0.19,0.209052,0.01,45.7652,18.05,563.566,-563.55,237.532,1.06178e-08,-1.06177e-08,4.47525e-09,611.579,-611.563,-1.08212e-05,1.15224e-08,-1.15223e-08,-2.03877e-16
0.949975,0.19,0.218864,0.01,51.4858,18.05,553.26,-553.426,230.493,1.04245e-08,-1.04261e-08,4.34263e-09,599.347,-599.512,-0.0669867,1.12928e-08,-1.12944e-08,-1.26207e-12
0.959975,0.19,0.228693,0.01,57.1511,18.05,544.306,-548.412,224.921,1.02729e-08,-1.03145e-08,4.23765e-09,588.792,-592.898,-0.156281,1.1111e-08,-1.11527e-08,-2.94443e-12
0.969975,0.19,0.238536,0.01,62.7621,18.05,535.109,-550.645,220.845,1.01493e-08,-1.03069e-08,4.16085e-09,578.31,-593.847,-0.296368,1.09632e-08,-1.11209e-08,-5.58374e-12
-0.970025,0.2,0.240515,0.01,63.9102,20,530.002,-537.084,-232.169,1.00163e-08,-1.00882e-08,-4.37421e-09,578.323,-585.406,-2.19444,1.09267e-08,-1.09986e-08,-4.13446e-11
-0.960025,0.2,0.230755,0.01,58.322,20,537.569,-540.737,-235.329,1.01419e-08,-1.0174e-08,-4.43374e-09,586.689,-589.857,-0.454765,1.10673e-08,-1.10995e-08,-8.56804e-12
-0.950025,0.2,0.221016,0.01,52.6801,20,546.169,-546.331,-240.585,1.02908e-08,-1.02925e-08,-4.53276e-09,596.803,-596.965,0.0683099,1.12448e-08,-1.12465e-08,1.287e-12
-0.940025,0.2,0.211301,0.01,46.9837,20,556.194,-556.178,-247.89,1.04789e-08,-1.04788e-08,-4.67039e-09,608.935,-608.92,1.08442e-05,1.14726e-08,-1.14725e-08,2.0431e-16
-0.930025,0.2,0.201614,0.01,41.2317,20,566.575,-566.559,-255.494,1.06745e-08,-1.06744e-08,-4.81365e-09,621.518,-621.503,1.15612e-05,1.17097e-08,-1.17095e-08,2.17819e-16
-0.920025,0.2,0.191855,0.01,35.423,20,577.229,-577.213,-263.406,1.08753e-08,-1.08751e-08,-4.96273e-09,634.49,-634.474,1.23309e-05,1.19541e-08,-1.19539e-08,2.32321e-16
-0.910025,0.2,0.182,0.01,29.5565,20,588.165,-588.148,-271.644,1.10813e-08,-1.10811e-08,-5.11792e-09,647.865,-647.848,1.31579e-05,1.22061e-08,-1.22059e-08,2.47902e-16
-0.900025,0.2,0.172162,0.01,23.6313,20,599.39,-599.373,-280.222,1.12928e-08,-1.12926e-08,-5.27954e-09,661.66,-661.643,1.40467e-05,1.2466e-08,-1.24658e-08,2.64649e-16
-0.890025,0.2,0.162344,0.01,17.6461,20,610.916,-610.898,-289.159,1.15099e-08,-1.15098e-08,-5.44792e-09,675.894,-675.876,1.50025e-05,1.27341e-08,-1.2734e-08,2.82656e-16
-0.880025,0.2,0.15255,0.01,11.5998,20,622.75,-622.732,-298.472,1.17329e-08,-1.17327e-08,-5.62339e-09,690.583,-690.565,1.60304e-05,1.30109e-08,-1.30107e-08,3.02023e-16
-0.870025,0.2,0.142784,0.01,5.49125,20,634.903,-634.885,-308.183,1.19619e-08,-1.19617e-08,-5.80634e-09,705.748,-705.729,1.71368e-05,1.32966e-08,-1.32964e-08,3.22868e-16
-0.860025,0.2,0.133052,0.01,-0.6808,20,647.385,-647.366,-318.31,1.2197e-08,-1.21968e-08,-5.99715e-09,721.409,-721.389,1.83283e-05,1.35917e-08,-1.35915e-08,3.45315e-16
-0.850025,0.2,0.123364,0.01,-6.91759,20,660.206,-660.186,-328.878,1.24386e-08,-1.24384e-08,-6.19625e-09,737.587,-737.567,1.96108e-05,1.38965e-08,-1.38963e-08,3.69479e-16
-0.840025,0.2,0.113729,0.01,-13.2204,20,673.377,-673.356,-339.909,1.26867e-08,-1.26865e-08,-6.40409e-09,754.305,-754.284,2.09923e-05,1.42115e-08,-1.42112e-08,3.95508e-16
-0.830025,0.2,0.104164,0.01,-19.5906,20,686.908,-686.886,-351.429,1.29416e-08,-1.29414e-08,-6.62112e-09,771.587,-771.565,2.24817e-05,1.4537e-08,-1.45368e-08,4.23568e-16
-0.820025,0.2,0.0946884,0.01,-26.0294,20,700.81,-700.788,-363.463,1.32036e-08,-1.32033e-08,-6.84786e-09,789.457,-789.435,2.40871e-05,1.48737e-08,-1.48735e-08,4.53816e-16
-0.810025,0.2,0.0848527,0.01,-32.5383,20,715.096,-715.073,-376.042,1.34727e-08,-1.34725e-08,-7.08484e-09,807.943,-807.92,2.58112e-05,1.5222e-08,-1.52218e-08,4.86299e-16
-0.800025,0.2,0.0749731,0.01,-39.1188,20,729.776,-729.753,-389.194,1.37493e-08,-1.37491e-08,-7.33264e-09,827.071,-827.048,2.75101e-05,1.55824e-08,-1.55822e-08,5.18307e-16
-0.790025,0.2,0.0651302,0.01,-45.7722,20,744.863,-744.839,-402.952,1.40335e-08,-1.40333e-08,-7.59185e-09,846.873,-846.849,2.75382e-05,1.59555e-08,-1.59552e-08,5.18836e-16
-0.780025,0.2,0.0553437,0.01,-52.5001,20,760.368,-760.344,-417.351,1.43257e-08,-1.43254e-08,-7.86314e-09,867.378,-867.353,3.39586e-05,1.63418e-08,-1.63415e-08,6.398e-16
-0.770025,0.2,0.0456499,0.01,-59.3041,20,776.305,-776.281,-432.427,1.46259e-08,-1.46257e-08,-8.14718e-09,888.62,-888.596,0.000846615,1.6742e-08,-1.67418e-08,1.59507e-14
-0.760025,0.2,0.0361234,0.01,-66.1856,20,792.69,-792.684,-448.203,1.49347e-08,-1.49347e-08,-8.44441e-09,910.628,-910.623,0.0223205,1.71567e-08,-1.71567e-08,4.20531e-13
-0.750025,0.2,0.0269423,0.01,-73.1465,20,809.358,-806.958,-462.962,1.52383e-08,-1.5214e-08,-8.72247e-09,932.571,-930.171,0.897218,1.75597e-08,-1.75354e-08,1.69041e-11
-0.740025,0.2,0.0186245,0.01,-80.1884,20,823.861,-819.615,-478.285,1.55036e-08,-1.54605e-08,-9.01116e-09,952.917,-948.671,0.761747,1.7935e-08,-1.7892e-08,1.43518e-11
-0.730025,0.2,0.0115167,0.01,-87.3139,20,827.845,-842.08,-499.42,1.5659e-08,-1.58034e-08,-9.40936e-09,965.799,-980.034,-4.12738,1.82581e-08,-1.84025e-08,-7.77622e-11
0.729975,0.2,0.011477,0.01,-87.3496,20,827.917,-842.33,499.61,1.56611e-08,-1.58073e-08,9.41294e-09,965.945,-980.358,4.17514,1.82616e-08,-1.84078e-08,7.8662e-11
0.739975,0.2,0.0185873,0.01,-80.2236,20,823.95,-819.754,478.397,1.55055e-08,-1.54629e-08,9.01329e-09,953.047,-948.851,-0.754083,1.79377e-08,-1.78951e-08,-1.42074e-11
0.749975,0.2,0.0268981,0.01,-73.1813,20,809.446,-807.057,463.051,1.524e-08,-1.52158e-08,8.72415e-09,932.691,-930.302,-0.897045,1.75621e-08,-1.75378e-08,-1.69009e-11
0.759975,0.2,0.0360767,0.01,-66.2201,20,792.773,-792.767,448.283,1.49363e-08,-1.49362e-08,8.44592e-09,910.74,-910.735,-0.0226166,1.71588e-08,-1.71588e-08,-4.26109e-13
0.769975,0.2,0.0456021,0.01,-59.3381,20,776.386,-776.362,432.504,1.46275e-08,-1.46272e-08,8.14862e-09,888.728,-888.704,-0.00086159,1.6744e-08,-1.67438e-08,-1.62329e-14
0.779975,0.2,0.0552953,0.01,-52.5338,20,760.447,-760.422,417.424,1.43271e-08,-1.43269e-08,7.86452e-09,867.482,-867.457,-3.42333e-05,1.63438e-08,-1.63435e-08,-6.44975e-16
0.789975,0.2,0.0650814,0.01,-45.8055,20,744.939,-744.915,403.022,1.4035e-08,-1.40347e-08,7.59317e-09,846.973,-846.949,-2.7526e-05,1.59574e-08,-1.59571e-08,-5.18607e-16
0.799975,0.2,0.074924,0.01,-39.1517,20,729.85,-729.827,389.261,1.37507e-08,-1.37505e-08,7.3339e-09,827.168,-827.145,-2.75173e-05,1.55842e-08,-1.5584e-08,-5.18442e-16
0.809975,0.2,0.0848034,0.01,-32.5709,20,715.168,-715.145,376.106,1.34741e-08,-1.34738e-08,7.08605e-09,808.036,-808.013,-2.58203e-05,1.52238e-08,-1.52235e-08,-4.86469e-16
0.819975,0.2,0.0946416,0.01,-26.0616,20,700.88,-700.858,363.525,1.32049e-08,-1.32047e-08,6.84901e-09,789.547,-789.525,-2.40954e-05,1.48754e-08,-1.48752e-08,-4.53972e-16
0.829975,0.2,0.104117,0.01,-19.6224,20,686.976,-686.954,351.487,1.29429e-08,-1.29427e-08,6.62222e-09,771.674,-771.653,-2.24891e-05,1.45387e-08,-1.45385e-08,-4.23708e-16
0.839975,0.2,0.113682,0.01,-13.2519,20,673.443,-673.422,339.965,1.2688e-08,-1.26878e-08,6.40514e-09,754.389,-754.369,-2.09995e-05,1.4213e-08,-1.42128e-08,-3.95644e-16
0.849975,0.2,0.123316,0.01,-6.94877,20,660.271,-660.251,328.932,1.24398e-08,-1.24396e-08,6.19727e-09,737.669,-737.649,-1.96173e-05,1.3898e-08,-1.38978e-08,-3.69602e-16
0.859975,0.2,0.133004,0.01,-0.711654,20,647.448,-647.429,318.362,1.21982e-08,-1.2198e-08,5.99812e-09,721.488,-721.468,-1.83342e-05,1.35932e-08,-1.3593e-08,-3.45427e-16
0.869975,0.2,0.142735,0.01,5.46072,20,634.965,-634.946,308.232,1.1963e-08,-1.19628e-08,5.80727e-09,705.825,-705.806,-1.7143e-05,1.32981e-08,-1.32979e-08,-3.22984e-16
0.879975,0.2,0.152501,0.01,11.5696,20,622.81,-622.792,298.52,1.1734e-08,-1.17338e-08,5.62428e-09,690.657,-690.639,-1.60366e-05,1.30123e-08,-1.30121e-08,-3.02139e-16
0.889975,0.2,0.162295,0.01,17.6162,20,610.974,-610.956,289.204,1.1511e-08,-1.15108e-08,5.44877e-09,675.965,-675.948,-1.50078e-05,1.27355e-08,-1.27353e-08,-2.82755e-16
0.899975,0.2,0.172113,0.01,23.6017,20,599.447,-599.43,280.265,1.12939e-08,-1.12937e-08,5.28036e-09,661.73,-661.713,-1.40511e-05,1.24673e-08,-1.24671e-08,-2.6473e-16
0.909975,0.2,0.181951,0.01,29.5272,20,588.22,-588.203,271.686,1.10823e-08,-1.10822e-08,5.11871e-09,647.932,-647.916,-1.31618e-05,1.22073e-08,-1.22072e-08,-2.47976e-16
0.919975,0.2,0.191806,0.01,35.3939,20,577.283,-577.266,263.447,1.08763e-08,-1.08761e-08,4.96349e-09,634.555,-634.539,-1.23346e-05,1.19553e-08,-1.19552e-08,-2.32391e-16
0.929975,0.2,0.201566,0.01,41.2029,20,566.627,-566.611,255.532,1.06755e-08,-1.06754e-08,4.81438e-09,621.582,-621.566,-1.15645e-05,1.17109e-08,-1.17107e-08,-2.17882e-16
0.939975,0.2,0.211253,0.01,46.9553,20,556.245,-556.229,247.927,1.04799e-08,-1.04797e-08,4.67109e-09,608.996,-608.981,-1.08474e-05,1.14738e-08,-1.14736e-08,-2.04372e-16
0.949975,0.2,0.220967,0.01,52.652,20,546.219,-546.381,240.621,1.02918e-08,-1.02934e-08,4.53344e-09,596.863,-597.025,-0.0683218,1.12459e-08,-1.12476e-08,-1.28722e-12
0.959975,0.2,0.230706,0.01,58.294,20,537.617,-540.786,235.364,1.01428e-08,-1.01749e-08,4.43439e-09,586.747,-589.916,0.454859,1.10684e-08,-1.11006e-08,8.5698e-12
0.969975,0.2,0.240467,0.01,63.8825,20,530.049,-537.133,232.203,1.00172e-08,-1.00891e-08,4.37485e-09,578.38,-585.464,2.19487,1.09278e-08,-1.09997e-08,4.13526e-11
-0.970025,0.21,0.242826,0.01,65.0831,22.05,525.833,-528.326,-239.887,9.91784e-09,-9.94314e-09,-4.51961e-09,577.855,-580.348,-0.410367,1.0898e-08,-1.09233e-08,-7.73155e-12
-0.960025,0.21,0.232981,0.01,59.5184,22.05,531.404,-533.187,-244.032,1.00197e-08,-1.00378e-08,-4.59771e-09,584.676,-586.46,0.494167,1.10234e-08,-1.10415e-08,9.31038e-12
-0.950025,0.21,0.22315,0.01,53.9008,22.05,538.902,-539,-250.374,1.01537e-08,-1.01546e-08,-4.71719e-09,594.22,-594.318,0.120524,1.11959e-08,-1.11969e-08,2.27075e-12
-0.940025,0.21,0.213334,0.01,48.2293,22.05,548.609,-548.595,-257.989,1.0336e-08,-1.03359e-08,-4.86066e-09,606.243,-606.229,1.08154e-05,1.14219e-08,-1.14218e-08,2.03768e-16
-0.930025,0.21,0.203537,0.01,42.5029,22.05,558.685,-558.67,-265.854,1.05259e-08,-1.05257e-08,-5.00884e-09,618.715,-618.7,1.15175e-05,1.16569e-08,-1.16567e-08,2.16997e-16
-0.920025,0.21,0.19376,0.01,36.7207,22.05,569.018,-569.003,-274.036,1.07206e-08,-1.07204e-08,-5.163e-09,631.568,-631.553,1.22701e-05,1.1899e-08,-1.18989e-08,2.31176e-16
-0.910025,0.21,0.184008,0.01,30.8815,22.05,579.617,-579.601,-282.551,1.09202e-08,-1.09201e-08,-5.32342e-09,644.819,-644.803,1.30772e-05,1.21487e-08,-1.21485e-08,2.46381e-16
-0.900025,0.21,0.174283,0.01,24.9844,22.05,590.489,-590.473,-291.415,1.11251e-08,-1.11249e-08,-5.49043e-09,658.484,-658.468,1.39429e-05,1.24061e-08,-1.2406e-08,2.62692e-16
-0.890025,0.21,0.164591,0.01,19.0283,22.05,601.642,-601.625,-300.647,1.13352e-08,-1.1335e-08,-5.66436e-09,672.579,-672.563,1.48724e-05,1.26717e-08,-1.26715e-08,2.80204e-16
-0.880025,0.21,0.154939,0.01,13.0119,22.05,613.085,-613.068,-310.264,1.15508e-08,-1.15506e-08,-5.84556e-09,687.123,-687.106,1.58704e-05,1.29457e-08,-1.29456e-08,2.99008e-16
-0.870025,0.21,0.145333,0.01,6.93431,22.05,624.827,-624.809,-320.288,1.1772e-08,-1.17718e-08,-6.03441e-09,702.135,-702.117,1.69423e-05,1.32286e-08,-1.32284e-08,3.19202e-16
-0.860025,0.21,0.135785,0.01,0.794193,22.05,636.875,-636.857,-330.738,1.1999e-08,-1.19988e-08,-6.2313e-09,717.634,-717.616,1.80935e-05,1.35206e-08,-1.35204e-08,3.40893e-16
-0.850025,0.21,0.125948,0.01,-5.40961,22.05,649.239,-649.221,-341.638,1.2232e-08,-1.22318e-08,-6.43666e-09,733.642,-733.623,1.93306e-05,1.38222e-08,-1.3822e-08,3.64199e-16
-0.840025,0.21,0.11612,0.01,-11.6783,22.05,661.929,-661.91,-353.012,1.2471e-08,-1.24708e-08,-6.65095e-09,750.179,-750.16,2.06608e-05,1.41337e-08,-1.41335e-08,3.89262e-16
-0.830025,0.21,0.106324,0.01,-18.0133,22.05,674.953,-674.933,-364.884,1.27164e-08,-1.27162e-08,-6.87462e-09,767.27,-767.251,2.20911e-05,1.44557e-08,-1.44555e-08,4.16209e-16
-0.820025,0.21,0.09657,0.01,-24.4157,22.05,688.321,-688.301,-377.282,1.29683e-08,-1.29681e-08,-7.1082e-09,784.939,-784.919,2.36289e-05,1.47886e-08,-1.47884e-08,4.45182e-16
-0.810025,0.21,0.086872,0.01,-30.8869,22.05,702.043,-702.022,-390.234,1.32268e-08,-1.32266e-08,-7.35223e-09,803.211,-803.19,2.52862e-05,1.51329e-08,-1.51327e-08,4.76406e-16
-0.800025,0.21,0.0772511,0.01,-37.4284,22.05,716.128,-716.106,-403.77,1.34922e-08,-1.34919e-08,-7.60726e-09,822.114,-822.093,2.7142e-05,1.5489e-08,-1.54888e-08,5.1137e-16
-0.790025,0.21,0.0677401,0.01,-44.0415,22.05,730.586,-730.564,-417.924,1.37646e-08,-1.37643e-08,-7.87393e-09,841.676,-841.654,3.01762e-05,1.58576e-08,-1.58573e-08,5.68537e-16
-0.780025,0.21,0.0583927,0.01,-50.7276,22.05,745.427,-745.404,-432.729,1.40442e-08,-1.40439e-08,-8.15287e-09,861.927,-861.905,3.56949e-05,1.62391e-08,-1.62389e-08,6.72513e-16
-0.770025,0.21,0.0492998,0.01,-57.4883,22.05,760.661,-760.637,-448.223,1.43312e-08,-1.43309e-08,-8.44478e-09,882.9,-882.876,-0.000254136,1.66342e-08,-1.6634e-08,-4.78808e-15
-0.760025,0.21,0.0393242,0.01,-64.325,22.05,776.295,-776.256,-464.448,1.46257e-08,-1.46253e-08,-8.75047e-09,904.627,-904.588,-0.00857351,1.70435e-08,-1.70431e-08,-1.6153e-13
-0.750025,0.21,0.0293653,0.01,-71.2394,22.05,792.167,-792.156,-481.749,1.49248e-08,-1.49247e-08,-9.07643e-09,927.152,-927.142,-0.358481,1.7468e-08,-1.74679e-08,-6.754e-12
-0.740025,0.21,0.0194486,0.01,-78.233,22.05,804.305,-800.849,-498.738,1.51385e-08,-1.51035e-08,-9.39651e-09,946.641,-943.185,-2.84492,1.78202e-08,-1.77852e-08,-5.35999e-11
-0.730025,0.21,0.0097044,0.01,-85.3071,22.05,810.915,-793.262,-513.665,1.52014e-08,-1.50223e-08,-9.67774e-09,961.253,-943.6,-8.95845,1.80338e-08,-1.78547e-08,-1.68782e-10
0.729975,0.21,0.00965725,0.01,-85.3424,22.05,810.913,-793.331,513.802,1.52016e-08,-1.50233e-08,9.68032e-09,961.319,-943.738,9.02206,1.80354e-08,-1.7857e-08,1.69981e-10
0.739975,0.21,0.0193995,0.01,-78.268,22.05,804.375,-800.946,498.847,1.514e-08,-1.51052e-08,9.39858e-09,946.757,-943.327,2.86124,1.78225e-08,-1.77877e-08,5.39074e-11
0.749975,0.21,0.0293159,0.01,-71.274,22.05,792.247,-792.242,481.84,1.49264e-08,-1.49263e-08,9.07815e-09,927.268,-927.263,0.361728,1.74702e-08,-1.74702e-08,6.81516e-12
0.759975,0.21,0.0392746,0.01,-64.3592,22.05,776.373,-776.334,464.53,1.46272e-08,-1.46268e-08,8.75202e-09,904.737,-904.698,0.00870009,1.70456e-08,-1.70452e-08,1.63915e-13
0.769975,0.21,0.0492501,0.01,-57.5221,22.05,760.738,-760.714,448.302,1.43326e-08,-1.43324e-08,8.44627e-09,883.006,-882.982,0.000259918,1.66362e-08,-1.6636e-08,4.897e-15
0.779975,0.21,0.0583468,0.01,-50.761,22.05,745.502,-745.479,432.805,1.40456e-08,-1.40454e-08,8.15429e-09,862.03,-862.007,-3.56678e-05,1.6241e-08,-1.62408e-08,-6.72002e-16
0.789975,0.21,0.0676932,0.01,-44.0745,22.05,730.659,-730.637,417.996,1.37659e-08,-1.37657e-08,7.87529e-09,841.775,-841.753,-3.02002e-05,1.58594e-08,-1.58592e-08,-5.68989e-16
0.799975,0.21,0.0772035,0.01,-37.4611,22.05,716.199,-716.177,403.839,1.34935e-08,-1.34933e-08,7.60856e-09,822.21,-822.188,-2.71522e-05,1.54908e-08,-1.54906e-08,-5.11563e-16
0.809975,0.21,0.086824,0.01,-30.9193,22.05,702.112,-702.091,390.299,1.32281e-08,-1.32279e-08,7.35347e-09,803.304,-803.283,-2.52948e-05,1.51346e-08,-1.51344e-08,-4.76569e-16
0.819975,0.21,0.0965216,0.01,-24.4477,22.05,688.388,-688.368,377.345,1.29695e-08,-1.29693e-08,7.10939e-09,785.028,-785.008,-2.36369e-05,1.47903e-08,-1.47901e-08,-4.45333e-16
0.829975,0.21,0.106275,0.01,-18.0449,22.05,675.019,-674.999,364.944,1.27177e-08,-1.27175e-08,6.87576e-09,767.357,-767.337,-2.20983e-05,1.44574e-08,-1.44572e-08,-4.16344e-16
0.839975,0.21,0.116071,0.01,-11.7097,22.05,661.993,-661.974,353.07,1.24722e-08,-1.24721e-08,6.65204e-09,750.263,-750.244,-2.06678e-05,1.41353e-08,-1.41351e-08,-3.89393e-16
0.849975,0.21,0.125899,0.01,-5.44062,22.05,649.302,-649.283,341.694,1.22331e-08,-1.22329e-08,6.43771e-09,733.723,-733.704,-1.93373e-05,1.38237e-08,-1.38235e-08,-3.64325e-16
0.859975,0.21,0.135738,0.01,0.7635,22.05,636.936,-636.917,330.791,1.20002e-08,-1.2e-08,6.2323e-09,717.713,-717.694,-1.80993e-05,1.3522e-08,-1.35219e-08,-3.41e-16
0.869975,0.21,0.145286,0.01,6.90393,22.05,624.886,-624.868,320.339,1.17731e-08,-1.1773e-08,6.03536e-09,702.211,-702.193,-1.69476e-05,1.323e-08,-1.32298e-08,-3.19302e-16
0.879975,0.21,0.154891,0.01,12.9819,22.05,613.143,-613.126,310.313,1.15519e-08,-1.15517e-08,5.84648e-09,687.197,-687.18,-1.58756e-05,1.29471e-08,-1.29469e-08,-2.99105e-16
0.889975,0.21,0.164543,0.01,18.9985,22.05,601.698,-601.682,300.693,1.13363e-08,-1.13361e-08,5.66524e-09,672.65,-672.634,-1.4877e-05,1.26731e-08,-1.26729e-08,-2.80291e-16
0.899975,0.21,0.174235,0.01,24.9549,22.05,590.544,-590.527,291.46,1.11261e-08,-1.11259e-08,5.49128e-09,658.553,-658.537,-1.39471e-05,1.24074e-08,-1.24073e-08,-2.62771e-16
0.909975,0.21,0.183959,0.01,30.8523,22.05,579.67,-579.655,282.594,1.09213e-08,-1.09211e-08,5.32423e-09,644.886,-644.87,-1.3081e-05,1.215e-08,-1.21498e-08,-2.46454e-16
0.919975,0.21,0.193712,0.01,36.6918,22.05,569.07,-569.055,274.077,1.07215e-08,-1.07214e-08,5.16378e-09,631.633,-631.618,-1.22736e-05,1.19003e-08,-1.19001e-08,-2.31242e-16
0.929975,0.21,0.203488,0.01,42.4743,22.05,558.736,-558.721,265.894,1.05268e-08,-1.05267e-08,5.00959e-09,618.778,-618.763,-1.15206e-05,1.16581e-08,-1.16579e-08,-2.17055e-16
0.939975,0.21,0.213286,0.01,48.2009,22.05,548.658,-548.644,258.027,1.0337e-08,-1.03368e-08,4.86138e-09,606.304,-606.29,-1.08184e-05,1.14231e-08,-1.14229e-08,-2.03825e-16
0.949975,0.21,0.223101,0.01,53.8727,22.05,538.95,-539.048,250.411,1.01546e-08,-1.01556e-08,4.71789e-09,594.279,-594.377,-0.120528,1.1197e-08,-1.1198e-08,-2.27082e-12
0.959975,0.21,0.232932,0.01,59.4906,22.05,531.451,-533.235,244.068,1.00206e-08,-1.00387e-08,4.59838e-09,584.734,-586.518,-0.494167,1.10245e-08,-1.10426e-08,-9.3104e-12
0.969975,0.21,0.242777,0.01,65.0555,22.05,525.88,-528.373,239.922,9.91872e-09,-9.94402e-09,4.52027e-09,577.912,-580.405,0.410555,1.0899e-08,-1.09243e-08,7.7351e-12
-0.970025,0.22,0.244743,0.01,66.308,24.2,520.734,-519.819,-247.296,9.80694e-09,-9.79766e-09,-4.6592e-09,576.514,-575.599,1.35033,1.08579e-08,-1.08486e-08,2.54409e-11
-0.960025,0.22,0.234978,0.01,60.7677,24.2,523.695,-527.128,-254.435,9.88164e-09,-9.91647e-09,-4.79371e-09,582.059,-585.492,-0.25318,1.09813e-08,-1.10161e-08,-4.77005e-12
-0.950025,0.22,0.225234,0.01,55.1753,24.2,531.461,-532.856,-260.935,1.00191e-08,-1.00333e-08,-4.91617e-09,591.991,-593.386,-0.450924,1.11595e-08,-1.11737e-08,-8.49566e-12
-0.940025,0.22,0.215514,0.01,49.5297,24.2,540.777,-540.773,-267.791,1.01885e-08,-1.01885e-08,-5.04534e-09,603.45,-603.446,-0.00134932,1.13693e-08,-1.13693e-08,-2.5422e-14
-0.930025,0.22,0.20582,0.01,43.83,24.2,550.537,-550.523,-275.897,1.03724e-08,-1.03722e-08,-5.19807e-09,615.801,-615.787,1.14173e-05,1.1602e-08,-1.16019e-08,2.15108e-16
-0.920025,0.22,0.196157,0.01,38.0752,24.2,560.542,-560.528,-284.333,1.05609e-08,-1.05607e-08,-5.357e-09,628.533,-628.519,1.21487e-05,1.18419e-08,-1.18417e-08,2.28888e-16
-0.910025,0.22,0.18653,0.01,32.2645,24.2,570.796,-570.781,-293.109,1.07541e-08,-1.07539e-08,-5.52233e-09,641.655,-641.641,1.29313e-05,1.20891e-08,-1.20889e-08,2.43634e-16
-0.900025,0.22,0.176931,0.01,26.3966,24.2,581.306,-581.291,-302.241,1.09521e-08,-1.09519e-08,-5.6944e-09,655.185,-655.17,1.37691e-05,1.2344e-08,-1.23438e-08,2.59417e-16
-0.890025,0.22,0.16711,0.01,20.4706,24.2,592.079,-592.063,-311.749,1.1155e-08,-1.11549e-08,-5.87353e-09,669.138,-669.122,1.46669e-05,1.26069e-08,-1.26067e-08,2.76333e-16
-0.880025,0.22,0.157311,0.01,14.4854,24.2,603.122,-603.106,-321.65,1.13631e-08,-1.13629e-08,-6.06008e-09,683.532,-683.516,1.56293e-05,1.28781e-08,-1.28779e-08,2.94466e-16
-0.870025,0.22,0.147539,0.01,8.43984,24.2,614.443,-614.426,-331.966,1.15764e-08,-1.15762e-08,-6.25443e-09,698.386,-698.369,1.66605e-05,1.31579e-08,-1.31578e-08,3.13893e-16
-0.860025,0.22,0.137799,0.01,2.33287,24.2,626.049,-626.032,-342.717,1.1795e-08,-1.17949e-08,-6.45698e-09,713.718,-713.701,1.77652e-05,1.34468e-08,-1.34466e-08,3.34707e-16
-0.850025,0.22,0.1281,0.01,-3.83671,24.2,637.947,-637.93,-353.925,1.20192e-08,-1.20191e-08,-6.66816e-09,729.549,-729.532,1.89498e-05,1.37451e-08,-1.37449e-08,3.57025e-16
-0.840025,0.22,0.118451,0.01,-10.0701,24.2,650.147,-650.129,-365.616,1.22491e-08,-1.22489e-08,-6.88842e-09,745.901,-745.883,2.02207e-05,1.40531e-08,-1.40529e-08,3.8097e-16
-0.830025,0.22,0.108865,0.01,-16.3685,24.2,662.655,-662.636,-377.814,1.24847e-08,-1.24845e-08,-7.11823e-09,762.795,-762.777,2.15839e-05,1.43714e-08,-1.43712e-08,4.06653e-16
-0.820025,0.22,0.0993607,0.01,-22.7331,24.2,675.478,-675.46,-390.546,1.27263e-08,-1.27261e-08,-7.35811e-09,780.256,-780.237,2.30463e-05,1.47004e-08,-1.47002e-08,4.34205e-16
-0.810025,0.22,0.0899641,0.01,-29.1653,24.2,688.626,-688.607,-403.841,1.2974e-08,-1.29738e-08,-7.6086e-09,798.308,-798.289,2.46152e-05,1.50405e-08,-1.50403e-08,4.63764e-16
-0.800025,0.22,0.0802759,0.01,-35.6664,24.2,702.106,-702.087,-417.73,1.3228e-08,-1.32278e-08,-7.87027e-09,816.978,-816.959,2.62702e-05,1.53923e-08,-1.53921e-08,4.94946e-16
-0.790025,0.22,0.0704284,0.01,-42.2377,24.2,715.925,-715.906,-432.244,1.34884e-08,-1.34882e-08,-8.14373e-09,836.294,-836.274,2.75314e-05,1.57562e-08,-1.5756e-08,5.18708e-16
-0.780025,0.22,0.0606307,0.01,-48.8806,24.2,730.092,-730.072,-447.419,1.37553e-08,-1.37551e-08,-8.42964e-09,856.284,-856.263,2.56893e-05,1.61328e-08,-1.61326e-08,4.84001e-16
-0.770025,0.22,0.0509118,0.01,-55.5965,24.2,744.614,-744.594,-463.291,1.40289e-08,-1.40287e-08,-8.72868e-09,876.979,-876.958,0.000117844,1.65227e-08,-1.65225e-08,2.22025e-15
-0.760025,0.22,0.0413272,0.01,-62.3868,24.2,759.5,-759.486,-479.899,1.43094e-08,-1.43092e-08,-9.04157e-09,898.412,-898.398,0.00347736,1.69265e-08,-1.69264e-08,6.55155e-14
-0.750025,0.22,0.0319979,0.01,-69.2531,24.2,774.55,-774.238,-497.256,1.45916e-08,-1.45884e-08,-9.36859e-09,920.455,-920.142,-0.162325,1.73405e-08,-1.73374e-08,-3.0583e-12
-0.740025,0.22,0.0232334,0.01,-76.1969,24.2,787.632,-779.006,-512.48,1.48019e-08,-1.47144e-08,-9.65542e-09,940.381,-931.755,-1.3278,1.76798e-08,-1.75923e-08,-2.50165e-11
-0.730025,0.22,0.0159911,0.01,-83.2199,24.2,803.457,-771.892,-523.191,1.50004e-08,-1.46801e-08,-9.85722e-09,961.382,-929.817,-0.851946,1.79758e-08,-1.76555e-08,-1.60512e-11
0.729975,0.22,0.0159626,0.01,-83.2551,24.2,803.541,-771.904,523.292,1.50016e-08,-1.46807e-08,9.85912e-09,961.515,-929.877,0.874024,1.79779e-08,-1.7657e-08,1.64671e-11
0.739975,0.22,0.0231923,0.01,-76.2316,24.2,787.703,-779.07,512.577,1.48033e-08,-1.47157e-08,9.65726e-09,940.494,-931.861,1.33846,1.76819e-08,-1.75943e-08,2.52173e-11
0.749975,0.22,0.0319525,0.01,-69.2875,24.2,774.626,-774.314,497.344,1.45931e-08,-1.45899e-08,9.37025e-09,920.567,-920.254,0.162546,1.73426e-08,-1.73395e-08,3.06246e-12
0.759975,0.22,0.04128,0.01,-62.4208,24.2,759.575,-759.561,479.983,1.43108e-08,-1.43106e-08,9.04316e-09,898.521,-898.507,-0.00353072,1.69286e-08,-1.69284e-08,-6.65209e-14
0.769975,0.22,0.0508637,0.01,-55.63,24.2,744.687,-744.667,463.372,1.40303e-08,-1.403e-08,8.7302e-09,877.084,-877.063,-0.000119877,1.65247e-08,-1.65245e-08,-2.25855e-15
0.779975,0.22,0.0605821,0.01,-48.9138,24.2,730.164,-730.143,447.496,1.37566e-08,-1.37564e-08,8.43109e-09,856.385,-856.364,-2.56793e-05,1.61347e-08,-1.61345e-08,-4.83813e-16
0.789975,0.22,0.0703795,0.01,-42.2705,24.2,715.995,-715.975,432.318,1.34897e-08,-1.34895e-08,8.14512e-09,836.391,-836.371,-2.75333e-05,1.5758e-08,-1.57578e-08,-5.18743e-16
0.799975,0.22,0.0802269,0.01,-35.6989,24.2,702.174,-702.154,417.8,1.32293e-08,-1.32291e-08,7.8716e-09,817.073,-817.053,-2.62783e-05,1.5394e-08,-1.53938e-08,-4.95099e-16
0.809975,0.22,0.0899177,0.01,-29.1975,24.2,688.692,-688.673,403.909,1.29753e-08,-1.29751e-08,7.60987e-09,798.399,-798.38,-2.4623e-05,1.50422e-08,-1.5042e-08,-4.63912e-16
0.819975,0.22,0.0993137,0.01,-22.7649,24.2,675.543,-675.524,390.611,1.27275e-08,-1.27274e-08,7.35933e-09,780.344,-780.326,-2.30539e-05,1.47021e-08,-1.47019e-08,-4.34348e-16
0.829975,0.22,0.108817,0.01,-16.4,24.2,662.718,-662.699,377.876,1.24859e-08,-1.24857e-08,7.1194e-09,762.88,-762.862,-2.1591e-05,1.4373e-08,-1.43728e-08,-4.06787e-16
0.839975,0.22,0.118403,0.01,-10.1012,24.2,650.208,-650.191,365.675,1.22502e-08,-1.225e-08,6.88954e-09,745.983,-745.966,-2.02274e-05,1.40547e-08,-1.40545e-08,-3.81097e-16
0.849975,0.22,0.128052,0.01,-3.86755,24.2,638.007,-637.99,353.982,1.20204e-08,-1.20202e-08,6.66923e-09,729.629,-729.612,-1.89563e-05,1.37466e-08,-1.37464e-08,-3.57148e-16
0.859975,0.22,0.137751,0.01,2.30234,24.2,626.107,-626.09,342.771,1.17961e-08,-1.1796e-08,6.45801e-09,713.795,-713.778,-1.77707e-05,1.34482e-08,-1.34481e-08,-3.34811e-16
0.869975,0.22,0.14749,0.01,8.40962,24.2,614.5,-614.483,332.018,1.15775e-08,-1.15773e-08,6.25542e-09,698.461,-698.444,-1.66649e-05,1.31593e-08,-1.31592e-08,-3.13976e-16
0.879975,0.22,0.157262,0.01,14.4555,24.2,603.177,-603.161,321.701,1.13641e-08,-1.1364e-08,6.06103e-09,683.605,-683.589,-1.56336e-05,1.28794e-08,-1.28793e-08,-2.94546e-16
0.889975,0.22,0.167061,0.01,20.441,24.2,592.133,-592.117,311.797,1.11561e-08,-1.11559e-08,5.87444e-09,669.208,-669.193,-1.46719e-05,1.26082e-08,-1.2608e-08,-2.76427e-16
0.899975,0.22,0.176882,0.01,26.3673,24.2,581.359,-581.344,302.288,1.09531e-08,-1.09529e-08,5.69527e-09,655.253,-655.238,-1.37741e-05,1.23453e-08,-1.23451e-08,-2.59512e-16
0.909975,0.22,0.186482,0.01,32.2354,24.2,570.848,-570.833,293.153,1.0755e-08,-1.07549e-08,5.52317e-09,641.722,-641.707,-1.29355e-05,1.20903e-08,-1.20902e-08,-2.43711e-16
0.919975,0.22,0.196109,0.01,38.0465,24.2,560.592,-560.578,284.376,1.05618e-08,-1.05617e-08,5.3578e-09,628.597,-628.583,-1.2152e-05,1.18431e-08,-1.18429e-08,-2.28951e-16
0.929975,0.22,0.205772,0.01,43.8015,24.2,550.586,-550.572,275.938,1.03733e-08,-1.03732e-08,5.19884e-09,615.864,-615.85,-1.14204e-05,1.16032e-08,-1.1603e-08,-2.15166e-16
0.939975,0.22,0.215466,0.01,49.5014,24.2,540.825,-540.821,267.831,1.01894e-08,-1.01894e-08,5.04609e-09,603.511,-603.506,0.00134933,1.13705e-08,-1.13704e-08,2.54221e-14
0.949975,0.22,0.225186,0.01,55.1473,24.2,531.508,-532.903,260.973,1.002e-08,-1.00341e-08,4.91689e-09,592.05,-593.445,0.450997,1.11606e-08,-1.11748e-08,8.49705e-12
0.959975,0.22,0.23493,0.01,60.74,24.2,523.741,-527.174,254.472,9.88251e-09,-9.91734e-09,4.79441e-09,582.117,-585.55,0.253339,1.09823e-08,-1.10172e-08,4.77305e-12
0.969975,0.22,0.244694,0.01,66.2806,24.2,520.779,-519.864,247.332,9.8078e-09,-9.79852e-09,4.65988e-09,576.57,-575.655,-1.35026,1.08589e-08,-1.08497e-08,-2.54396e-11
-0.960025,0.23,0.23738,0.01,62.0693,26.45,516.13,-527.893,-266.088,9.77533e-09,-9.89467e-09,-5.01326e-09,580.035,-591.798,-0.654022,1.09793e-08,-1.10987e-08,-1.23222e-11
-0.950025,0.23,0.227739,0.01,56.5029,26.45,524.601,-528.385,-270.759,9.90023e-09,-9.93863e-09,-5.10126e-09,590.142,-593.927,0.0352655,1.11351e-08,-1.11735e-08,6.64422e-13
-0.940025,0.23,0.2181,0.01,50.8841,26.45,532.791,-532.944,-277.279,1.00388e-08,-1.00403e-08,-5.22411e-09,600.616,-600.769,0.0736168,1.13166e-08,-1.13182e-08,1.38698e-12
-0.930025,0.23,0.208299,0.01,45.2121,26.45,542.147,-542.134,-285.617,1.02143e-08,-1.02142e-08,-5.38119e-09,612.782,-612.769,1.12641e-05,1.15451e-08,-1.1545e-08,2.12222e-16
-0.920025,0.23,0.198518,0.01,39.4859,26.45,551.817,-551.804,-294.29,1.03965e-08,-1.03964e-08,-5.54459e-09,625.387,-625.374,1.19704e-05,1.17826e-08,-1.17825e-08,2.25529e-16
-0.910025,0.23,0.18876,0.01,33.7045,26.45,561.719,-561.705,-303.309,1.05831e-08,-1.05829e-08,-5.71452e-09,638.378,-638.364,1.27246e-05,1.20273e-08,-1.20272e-08,2.39739e-16
-0.900025,0.23,0.179029,0.01,27.8669,26.45,571.86,-571.846,-312.693,1.07741e-08,-1.0774e-08,-5.89131e-09,651.768,-651.754,1.35303e-05,1.22796e-08,-1.22795e-08,2.54918e-16
-0.890025,0.23,0.169329,0.01,21.9721,26.45,582.245,-582.23,-322.457,1.09698e-08,-1.09696e-08,-6.07528e-09,665.574,-665.56,1.43919e-05,1.25397e-08,-1.25396e-08,2.71152e-16
-0.880025,0.23,0.159667,0.01,16.0191,26.45,592.881,-592.866,-332.623,1.11702e-08,-1.117e-08,-6.26681e-09,679.814,-679.799,1.53132e-05,1.2808e-08,-1.28079e-08,2.88509e-16
-0.870025,0.23,0.150048,0.01,10.0068,26.45,603.774,-603.758,-343.209,1.13754e-08,-1.13752e-08,-6.46626e-09,694.504,-694.489,1.62979e-05,1.30848e-08,-1.30846e-08,3.07063e-16
-0.860025,0.23,0.140483,0.01,3.93415,26.45,614.93,-614.914,-354.238,1.15856e-08,-1.15854e-08,-6.67404e-09,709.665,-709.649,1.73512e-05,1.33704e-08,-1.33703e-08,3.26906e-16
-0.850025,0.23,0.130982,0.01,-2.20001,26.45,626.355,-626.339,-365.731,1.18008e-08,-1.18007e-08,-6.89058e-09,725.315,-725.299,1.84779e-05,1.36653e-08,-1.36651e-08,3.48135e-16
-0.840025,0.23,0.121417,0.01,-8.39681,26.45,638.056,-638.04,-377.713,1.20213e-08,-1.20211e-08,-7.11634e-09,741.475,-741.459,1.9683e-05,1.39697e-08,-1.39696e-08,3.7084e-16
-0.830025,0.23,0.111615,0.01,-14.6574,26.45,650.04,-650.023,-390.21,1.22471e-08,-1.22469e-08,-7.35178e-09,758.167,-758.151,2.09721e-05,1.42842e-08,-1.42841e-08,3.95126e-16
-0.820025,0.23,0.101852,0.01,-20.983,26.45,662.312,-662.295,-403.248,1.24783e-08,-1.24781e-08,-7.59742e-09,775.414,-775.397,2.23513e-05,1.46092e-08,-1.4609e-08,4.21111e-16
-0.810025,0.23,0.0921403,0.01,-27.3749,26.45,674.878,-674.861,-416.856,1.2715e-08,-1.27148e-08,-7.8538e-09,793.241,-793.224,2.38265e-05,1.4945e-08,-1.49449e-08,4.48905e-16
-0.800025,0.23,0.0824971,0.01,-33.8342,26.45,687.745,-687.727,-431.064,1.29574e-08,-1.29573e-08,-8.12149e-09,811.672,-811.654,2.54123e-05,1.52923e-08,-1.52921e-08,4.78782e-16
-0.790025,0.23,0.07295,0.01,-40.3623,26.45,700.918,-700.9,-445.905,1.32056e-08,-1.32054e-08,-8.4011e-09,830.734,-830.716,2.73298e-05,1.56514e-08,-1.56513e-08,5.1491e-16
-0.780025,0.23,0.0635423,0.01,-46.9605,26.45,714.403,-714.385,-461.413,1.34597e-08,-1.34595e-08,-8.69328e-09,850.456,-850.438,3.15431e-05,1.6023e-08,-1.60228e-08,5.94291e-16
-0.770025,0.23,0.0543466,0.01,-53.6302,26.45,728.205,-728.186,-477.624,1.37197e-08,-1.37195e-08,-8.99871e-09,870.867,-870.849,1.25812e-05,1.64076e-08,-1.64074e-08,2.37037e-16
-0.760025,0.23,0.0451417,0.01,-60.3726,26.45,742.329,-742.308,-494.578,1.39858e-08,-1.39856e-08,-9.31814e-09,892,-891.978,-0.00120906,1.68057e-08,-1.68055e-08,-2.27794e-14
-0.750025,0.23,0.0351912,0.01,-67.1893,26.45,756.776,-756.698,-512.314,1.42578e-08,-1.4257e-08,-9.6523e-09,913.886,-913.808,-0.0186396,1.72178e-08,-1.7217e-08,-3.51182e-13
-0.740025,0.23,0.0252799,0.01,-74.0817,26.45,771.047,-766.652,-527.908,1.45079e-08,-1.44633e-08,-9.94609e-09,934.836,-930.442,0.915243,1.75938e-08,-1.75492e-08,1.72437e-11
-0.730025,0.23,0.0154829,0.01,-81.0512,26.45,784.375,-771.798,-541.063,1.47234e-08,-1.45958e-08,-1.01939e-08,954.001,-941.425,2.66384,1.79193e-08,-1.77917e-08,5.01884e-11
-0.720025,0.23,0.00635386,0.01,-88.0983,26.45,790.03,-777.846,-552.018,1.48316e-08,-1.4708e-08,-1.04003e-08,964.873,-952.689,4.66476,1.81258e-08,-1.80022e-08,8.78868e-11
0.719975,0.23,0.00631505,0.01,-88.1335,26.45,790.124,-777.787,552.032,1.48328e-08,-1.47076e-08,1.04006e-08,964.972,-952.635,-4.70183,1.8127e-08,-1.80018e-08,-8.85852e-11
0.729975,0.23,0.0154349,0.01,-81.086,26.45,784.448,-771.834,541.138,1.47246e-08,-1.45966e-08,1.01953e-08,954.107,-941.494,-2.6708,1.79211e-08,-1.77931e-08,-5.03194e-11
0.739975,0.23,0.0252307,0.01,-74.1162,26.45,771.12,-766.715,527.997,1.45092e-08,-1.44645e-08,9.94776e-09,934.947,-930.543,-0.916043,1.75958e-08,-1.75511e-08,-1.72588e-11
0.749975,0.23,0.0351418,0.01,-67.2234,26.45,756.849,-756.77,512.405,1.42591e-08,-1.42583e-08,9.654e-09,913.997,-913.919,0.0188492,1.72199e-08,-1.72191e-08,3.5513e-13
0.759975,0.23,0.0450921,0.01,-60.4064,26.45,742.4,-742.379,494.664,1.39872e-08,-1.39869e-08,9.31976e-09,892.107,-892.085,0.00122927,1.68077e-08,-1.68075e-08,2.31601e-14
0.769975,0.23,0.0543016,0.01,-53.6635,26.45,728.275,-728.256,477.706,1.3721e-08,-1.37208e-08,9.00027e-09,870.971,-870.952,-1.19844e-05,1.64095e-08,-1.64093e-08,-2.25793e-16
0.779975,0.23,0.063496,0.01,-46.9935,26.45,714.471,-714.452,461.491,1.3461e-08,-1.34608e-08,8.69477e-09,850.556,-850.538,-3.15753e-05,1.60249e-08,-1.60247e-08,-5.94896e-16
0.789975,0.23,0.0729028,0.01,-40.395,26.45,700.984,-700.966,445.98,1.32069e-08,-1.32067e-08,8.40252e-09,830.83,-830.813,-2.73421e-05,1.56533e-08,-1.56531e-08,-5.15141e-16
0.799975,0.23,0.0824493,0.01,-33.8665,26.45,687.81,-687.792,431.136,1.29587e-08,-1.29585e-08,8.12285e-09,811.765,-811.747,-2.54207e-05,1.5294e-08,-1.52939e-08,-4.7894e-16
0.809975,0.23,0.0920922,0.01,-27.4068,26.45,674.941,-674.924,416.925,1.27162e-08,-1.2716e-08,7.8551e-09,793.331,-793.314,-2.38339e-05,1.49467e-08,-1.49466e-08,-4.49045e-16
0.819975,0.23,0.101804,0.01,-21.0147,26.45,662.374,-662.357,403.314,1.24794e-08,-1.24793e-08,7.59867e-09,775.502,-775.485,-2.23583e-05,1.46108e-08,-1.46107e-08,-4.21243e-16
0.829975,0.23,0.111567,0.01,-14.6887,26.45,650.1,-650.084,390.273,1.22482e-08,-1.2248e-08,7.35297e-09,758.252,-758.235,-2.09786e-05,1.42858e-08,-1.42857e-08,-3.9525e-16
0.839975,0.23,0.121368,0.01,-8.42779,26.45,638.115,-638.099,377.774,1.20224e-08,-1.20222e-08,7.11748e-09,741.557,-741.54,-1.96892e-05,1.39713e-08,-1.39711e-08,-3.70955e-16
0.849975,0.23,0.130935,0.01,-2.23067,26.45,626.413,-626.397,365.789,1.18019e-08,-1.18017e-08,6.89168e-09,725.394,-725.378,-1.8484e-05,1.36668e-08,-1.36666e-08,-3.48249e-16
0.859975,0.23,0.140435,0.01,3.9038,26.45,614.986,-614.97,354.294,1.15866e-08,-1.15865e-08,6.6751e-09,709.741,-709.726,-1.7357e-05,1.33719e-08,-1.33717e-08,-3.27016e-16
0.869975,0.23,0.15,0.01,9.97677,26.45,603.828,-603.813,343.263,1.13764e-08,-1.13763e-08,6.46727e-09,694.579,-694.563,-1.63028e-05,1.30862e-08,-1.3086e-08,-3.07155e-16
0.879975,0.23,0.159619,0.01,15.9894,26.45,592.934,-592.919,332.674,1.11712e-08,-1.1171e-08,6.26778e-09,679.886,-679.871,-1.53178e-05,1.28094e-08,-1.28092e-08,-2.88595e-16
0.889975,0.23,0.169281,0.01,21.9426,26.45,582.297,-582.283,322.507,1.09708e-08,-1.09706e-08,6.07622e-09,665.644,-665.629,-1.4397e-05,1.25411e-08,-1.25409e-08,-2.71247e-16
0.899975,0.23,0.178981,0.01,27.8377,26.45,571.911,-571.897,312.74,1.07751e-08,-1.07749e-08,5.89221e-09,651.835,-651.821,-1.35351e-05,1.22809e-08,-1.22808e-08,-2.55009e-16
0.909975,0.23,0.188712,0.01,33.6756,26.45,561.769,-561.755,303.355,1.0584e-08,-1.05839e-08,5.71539e-09,638.443,-638.43,-1.27282e-05,1.20286e-08,-1.20284e-08,-2.39807e-16
0.919975,0.23,0.19847,0.01,39.4573,26.45,551.866,-551.852,294.334,1.03974e-08,-1.03973e-08,5.54542e-09,625.451,-625.438,-1.19735e-05,1.17838e-08,-1.17837e-08,-2.25588e-16
0.929975,0.23,0.20825,0.01,45.1838,26.45,542.195,-542.182,285.659,1.02152e-08,-1.02151e-08,5.38198e-09,612.844,-612.831,-1.12676e-05,1.15463e-08,-1.15461e-08,-2.12289e-16
0.939975,0.23,0.218051,0.01,50.856,26.45,532.837,-532.99,277.32,1.00396e-08,-1.00412e-08,5.22487e-09,600.676,-600.829,-0.0736291,1.13178e-08,-1.13193e-08,-1.38722e-12
0.949975,0.23,0.227691,0.01,56.4751,26.45,524.646,-528.431,270.798,9.90109e-09,-9.93949e-09,5.102e-09,590.201,-593.986,-0.0353101,1.11362e-08,-1.11746e-08,-6.65262e-13
0.959975,0.23,0.237332,0.01,62.0417,26.45,516.174,-527.939,266.127,9.77617e-09,-9.89553e-09,5.01398e-09,580.092,-591.857,0.65413,1.09804e-08,-1.10998e-08,1.23242e-11
-0.960025,0.24,0.239734,0.01,63.4222,28.8,508.549,-523.411,-274.793,9.64597e-09,-9.79674e-09,-5.17725e-09,577.159,-592.021,0.342718,1.09386e-08,-1.10894e-08,6.457e-12
-0.950025,0.24,0.229985,0.01,57.8828,28.8,516.612,-520.409,-279.728,9.74978e-09,-9.7883e-09,-5.27025e-09,587.255,-591.051,0.0951078,1.10807e-08,-1.11192e-08,1.79189e-12
-0.940025,0.24,0.22026,0.01,52.2919,28.8,524.497,-524.645,-286.453,9.88247e-09,-9.88397e-09,-5.39694e-09,597.613,-597.761,0.0732352,1.126e-08,-1.12615e-08,1.37979e-12
-0.930025,0.24,0.210559,0.01,46.6485,28.8,533.531,-533.519,-295.006,1.0052e-08,-1.00519e-08,-5.55808e-09,609.66,-609.647,1.10624e-05,1.14863e-08,-1.14862e-08,2.08422e-16
-0.920025,0.24,0.200889,0.01,40.9517,28.8,542.86,-542.847,-303.9,1.02277e-08,-1.02276e-08,-5.72566e-09,622.136,-622.123,1.17398e-05,1.17213e-08,-1.17212e-08,2.21184e-16
-0.910025,0.24,0.191252,0.01,35.2007,28.8,552.404,-552.391,-313.147,1.04076e-08,-1.04074e-08,-5.89987e-09,634.99,-634.977,1.24618e-05,1.19635e-08,-1.19634e-08,2.34787e-16
-0.900025,0.24,0.181654,0.01,29.3944,28.8,562.169,-562.156,-322.762,1.05915e-08,-1.05914e-08,-6.08103e-09,648.237,-648.224,1.32318e-05,1.22131e-08,-1.2213e-08,2.49295e-16
-0.890025,0.24,0.172102,0.01,23.5319,28.8,572.16,-572.147,-332.765,1.07798e-08,-1.07796e-08,-6.26949e-09,661.892,-661.879,1.40533e-05,1.24704e-08,-1.24702e-08,2.64772e-16
-0.880025,0.24,0.162603,0.01,17.6121,28.8,582.383,-582.369,-343.175,1.09724e-08,-1.09722e-08,-6.46561e-09,675.973,-675.96,1.49291e-05,1.27357e-08,-1.27355e-08,2.81273e-16
-0.870025,0.24,0.152826,0.01,11.6342,28.8,592.841,-592.827,-354.01,1.11694e-08,-1.11693e-08,-6.66976e-09,690.496,-690.483,1.58632e-05,1.30093e-08,-1.30092e-08,2.98871e-16
-0.860025,0.24,0.14308,0.01,5.59692,28.8,603.541,-603.527,-365.294,1.1371e-08,-1.13709e-08,-6.88235e-09,705.48,-705.466,1.686e-05,1.32916e-08,-1.32915e-08,3.17651e-16
-0.850025,0.24,0.13337,0.01,-0.500687,28.8,614.487,-614.472,-377.048,1.15772e-08,-1.15771e-08,-7.1038e-09,720.944,-720.93,1.79237e-05,1.35829e-08,-1.35828e-08,3.37692e-16
-0.840025,0.24,0.123708,0.01,-6.65974,28.8,625.684,-625.669,-389.296,1.17882e-08,-1.1788e-08,-7.33457e-09,736.908,-736.894,1.9058e-05,1.38837e-08,-1.38836e-08,3.59063e-16
-0.830025,0.24,0.114103,0.01,-12.8814,28.8,637.137,-637.122,-402.065,1.2004e-08,-1.20038e-08,-7.57513e-09,753.393,-753.378,2.02677e-05,1.41943e-08,-1.41941e-08,3.81854e-16
-0.820025,0.24,0.104573,0.01,-19.1667,28.8,648.851,-648.835,-415.38,1.22247e-08,-1.22245e-08,-7.82599e-09,770.421,-770.406,2.15581e-05,1.45151e-08,-1.4515e-08,4.06166e-16
-0.810025,0.24,0.0951388,0.01,-25.5169,28.8,660.829,-660.814,-429.27,1.24503e-08,-1.24502e-08,-8.08769e-09,788.016,-788.001,2.29342e-05,1.48466e-08,-1.48465e-08,4.32094e-16
-0.800025,0.24,0.085833,0.01,-31.9332,28.8,673.077,-673.061,-443.765,1.26811e-08,-1.26809e-08,-8.3608e-09,806.203,-806.187,2.43996e-05,1.51893e-08,-1.51891e-08,4.59702e-16
-0.790025,0.24,0.0762565,0.01,-38.4169,28.8,685.598,-685.582,-458.898,1.2917e-08,-1.29168e-08,-8.64591e-09,825.006,-824.99,2.58807e-05,1.55435e-08,-1.55434e-08,4.87607e-16
-0.780025,0.24,0.0664508,0.01,-44.969,28.8,698.396,-698.38,-474.703,1.31581e-08,-1.3158e-08,-8.94368e-09,844.454,-844.438,2.6343e-05,1.59099e-08,-1.59098e-08,4.96317e-16
-0.770025,0.24,0.0567129,0.01,-51.5911,28.8,711.474,-711.457,-491.215,1.34045e-08,-1.34043e-08,-9.25477e-09,864.575,-864.558,2.97271e-05,1.6289e-08,-1.62888e-08,5.60076e-16
-0.760025,0.24,0.0470851,0.01,-58.2842,28.8,724.834,-724.819,-508.473,1.36562e-08,-1.36561e-08,-9.57992e-09,885.399,-885.383,0.000441898,1.66814e-08,-1.66812e-08,8.32561e-15
-0.750025,0.24,0.0376518,0.01,-65.0499,28.8,738.477,-738.479,-526.514,1.39133e-08,-1.39134e-08,-9.91982e-09,906.954,-906.955,0.00732983,1.70875e-08,-1.70876e-08,1.38098e-13
-0.740025,0.24,0.0286061,0.01,-71.8894,28.8,752.374,-751.599,-544.847,1.41718e-08,-1.41639e-08,-1.02652e-08,929.011,-928.236,0.197399,1.74997e-08,-1.74919e-08,3.71912e-12
-0.730025,0.24,0.0204684,0.01,-78.8042,28.8,764.503,-757.458,-560.947,1.4373e-08,-1.43016e-08,-1.05686e-08,948.907,-941.862,0.0306185,1.78473e-08,-1.77759e-08,5.76871e-13
-0.720025,0.24,0.0122976,0.01,-85.7961,28.8,780.093,-751.881,-573.468,1.45747e-08,-1.42885e-08,-1.08045e-08,970.976,-942.764,0.798112,1.81711e-08,-1.78849e-08,1.50369e-11
0.719975,0.24,0.0122521,0.01,-85.8311,28.8,780.242,-751.933,573.542,1.45771e-08,-1.42899e-08,1.08059e-08,971.15,-942.84,-0.838995,1.81739e-08,-1.78867e-08,-1.58072e-11
0.729975,0.24,0.0204321,0.01,-78.8388,28.8,764.585,-757.514,561.032,1.43745e-08,-1.43027e-08,1.05702e-08,949.026,-941.955,-0.0412061,1.78495e-08,-1.77777e-08,-7.76346e-13
0.739975,0.24,0.0285627,0.01,-71.9236,28.8,752.444,-751.666,544.939,1.41731e-08,-1.41652e-08,1.0267e-08,929.123,-928.344,-0.199537,1.75018e-08,-1.74939e-08,-3.7594e-12
0.749975,0.24,0.0376056,0.01,-65.0837,28.8,738.546,-738.547,526.605,1.39146e-08,-1.39147e-08,9.92155e-09,907.063,-907.064,-0.00740822,1.70896e-08,-1.70896e-08,-1.39575e-13
0.759975,0.24,0.0470376,0.01,-58.3177,28.8,724.901,-724.886,508.56,1.36575e-08,-1.36573e-08,9.58157e-09,885.504,-885.489,-0.000449115,1.66833e-08,-1.66832e-08,-8.46158e-15
0.769975,0.24,0.0566647,0.01,-51.6242,28.8,711.539,-711.523,491.299,1.34057e-08,-1.34056e-08,9.25635e-09,864.676,-864.66,-2.98773e-05,1.62909e-08,-1.62908e-08,-5.62906e-16
0.779975,0.24,0.0664022,0.01,-45.0018,28.8,698.46,-698.444,474.783,1.31593e-08,-1.31592e-08,8.94519e-09,844.552,-844.536,-2.63373e-05,1.59118e-08,-1.59116e-08,-4.96209e-16
0.789975,0.24,0.0762076,0.01,-38.4493,28.8,685.661,-685.645,458.975,1.29182e-08,-1.2918e-08,8.64736e-09,825.101,-825.085,-2.58876e-05,1.55453e-08,-1.55452e-08,-4.87738e-16
0.799975,0.24,0.0857871,0.01,-31.9653,28.8,673.139,-673.123,443.839,1.26823e-08,-1.26821e-08,8.36218e-09,806.295,-806.279,-2.44074e-05,1.5191e-08,-1.51908e-08,-4.59849e-16
0.809975,0.24,0.0950921,0.01,-25.5487,28.8,660.89,-660.874,429.34,1.24515e-08,-1.24513e-08,8.08902e-09,788.105,-788.09,-2.29412e-05,1.48483e-08,-1.48481e-08,-4.32226e-16
0.819975,0.24,0.104526,0.01,-19.1981,28.8,648.91,-648.894,415.447,1.22258e-08,-1.22256e-08,7.82727e-09,770.508,-770.492,-2.15646e-05,1.45167e-08,-1.45166e-08,-4.06289e-16
0.829975,0.24,0.114056,0.01,-12.9125,28.8,637.195,-637.18,402.129,1.20051e-08,-1.20049e-08,7.57635e-09,753.477,-753.462,-2.0274e-05,1.41959e-08,-1.41957e-08,-3.81974e-16
0.839975,0.24,0.12366,0.01,-6.69053,28.8,625.74,-625.726,389.359,1.17892e-08,-1.17891e-08,7.33574e-09,736.989,-736.974,-1.9064e-05,1.38852e-08,-1.38851e-08,-3.59177e-16
0.849975,0.24,0.133322,0.01,-0.531163,28.8,614.542,-614.528,377.107,1.15783e-08,-1.15781e-08,7.10492e-09,721.022,-721.008,-1.79294e-05,1.35844e-08,-1.35843e-08,-3.378e-16
0.859975,0.24,0.143031,0.01,5.56674,28.8,603.595,-603.581,365.351,1.1372e-08,-1.13719e-08,6.88343e-09,705.556,-705.542,-1.68656e-05,1.3293e-08,-1.32929e-08,-3.17758e-16
0.869975,0.24,0.152778,0.01,11.6043,28.8,592.894,-592.88,354.065,1.11704e-08,-1.11703e-08,6.67079e-09,690.57,-690.556,-1.58684e-05,1.30107e-08,-1.30105e-08,-2.98969e-16
0.879975,0.24,0.162555,0.01,17.5825,28.8,582.434,-582.421,343.227,1.09733e-08,-1.09732e-08,6.4666e-09,676.044,-676.031,-1.49335e-05,1.2737e-08,-1.27369e-08,-2.81355e-16
0.889975,0.24,0.172055,0.01,23.5026,28.8,572.211,-572.197,332.816,1.07807e-08,-1.07806e-08,6.27045e-09,661.961,-661.948,-1.40571e-05,1.24717e-08,-1.24715e-08,-2.64844e-16
0.899975,0.24,0.181607,0.01,29.3653,28.8,562.218,-562.205,322.811,1.05925e-08,-1.05923e-08,6.08195e-09,648.304,-648.291,-1.32356e-05,1.22144e-08,-1.22142e-08,-2.49366e-16
0.909975,0.24,0.191204,0.01,35.1719,28.8,552.452,-552.439,313.194,1.04085e-08,-1.04083e-08,5.90075e-09,635.055,-635.042,-1.24654e-05,1.19647e-08,-1.19646e-08,-2.34856e-16
0.919975,0.24,0.200841,0.01,40.9232,28.8,542.906,-542.894,303.945,1.02286e-08,-1.02285e-08,5.72651e-09,622.199,-622.186,-1.17435e-05,1.17225e-08,-1.17224e-08,-2.21255e-16
0.929975,0.24,0.210511,0.01,46.6203,28.8,533.577,-533.565,295.049,1.00528e-08,-1.00527e-08,5.5589e-09,609.721,-609.709,-1.10663e-05,1.14874e-08,-1.14873e-08,-2.08495e-16
0.939975,0.24,0.220211,0.01,52.2639,28.8,524.542,-524.69,286.495,9.88332e-09,-9.88481e-09,5.39773e-09,597.673,-597.82,-0.0732468,1.12611e-08,-1.12626e-08,-1.38001e-12
0.949975,0.24,0.229937,0.01,57.8552,28.8,516.656,-520.454,279.769,9.75061e-09,-9.78914e-09,5.27101e-09,587.312,-591.11,-0.0951016,1.10818e-08,-1.11203e-08,-1.79177e-12
0.959975,0.24,0.239685,0.01,63.3948,28.8,508.592,-523.456,274.832,9.64679e-09,-9.79758e-09,5.178e-09,577.216,-592.08,-0.342737,1.09397e-08,-1.10905e-08,-6.45736e-12
-0.960025,0.25,0.242114,0.01,64.8259,31.25,504.492,-506.467,-283.443,9.51351e-09,-9.53354e-09,-5.34023e-09,578.537,-580.511,-0.897033,1.09086e-08,-1.09286e-08,-1.69006e-11
-0.950025,0.25,0.232465,0.01,59.3143,31.25,509.245,-510.932,-288.203,9.60181e-09,-9.61892e-09,-5.42991e-09,585.033,-586.72,0.201268,1.10297e-08,-1.10468e-08,3.792e-12
-0.940025,0.25,0.222848,0.01,53.752,31.25,515.993,-516.145,-295.315,9.72227e-09,-9.72381e-09,-5.5639e-09,594.515,-594.666,0.0657601,1.12017e-08,-1.12032e-08,1.23896e-12
-0.930025,0.25,0.213265,0.01,48.1382,31.25,524.704,-524.693,-304.059,9.88568e-09,-9.88556e-09,-5.72865e-09,606.438,-606.427,1.08162e-05,1.14256e-08,-1.14255e-08,2.03784e-16
-0.920025,0.25,0.203723,0.01,42.4718,31.25,533.686,-533.675,-313.159,1.00549e-08,-1.00548e-08,-5.9001e-09,618.781,-618.77,1.14619e-05,1.16582e-08,-1.1658e-08,2.15948e-16
-0.910025,0.25,0.194045,0.01,36.7521,31.25,542.868,-542.856,-322.615,1.02279e-08,-1.02278e-08,-6.07826e-09,631.496,-631.484,1.21485e-05,1.18977e-08,-1.18976e-08,2.28885e-16
-0.900025,0.25,0.184308,0.01,30.9781,31.25,552.252,-552.241,-332.445,1.04047e-08,-1.04046e-08,-6.26346e-09,644.596,-644.584,1.28795e-05,1.21445e-08,-1.21444e-08,2.42657e-16
-0.890025,0.25,0.174601,0.01,25.1488,31.25,561.845,-561.833,-342.667,1.05854e-08,-1.05853e-08,-6.45605e-09,658.097,-658.085,1.36573e-05,1.23989e-08,-1.23988e-08,2.57311e-16
-0.880025,0.25,0.164929,0.01,19.2634,31.25,571.648,-571.636,-353.3,1.07701e-08,-1.077e-08,-6.65638e-09,672.015,-672.003,1.44845e-05,1.26611e-08,-1.2661e-08,2.72897e-16
-0.870025,0.25,0.155298,0.01,13.3208,31.25,581.668,-581.655,-364.364,1.09589e-08,-1.09588e-08,-6.86482e-09,686.367,-686.354,1.53647e-05,1.29315e-08,-1.29314e-08,2.89479e-16
-0.860025,0.25,0.145716,0.01,7.32004,31.25,591.906,-591.893,-375.88,1.11518e-08,-1.11517e-08,-7.08179e-09,701.17,-701.157,1.63011e-05,1.32104e-08,-1.32103e-08,3.07122e-16
-0.850025,0.25,0.136196,0.01,1.26009,31.25,602.368,-602.355,-387.87,1.13489e-08,-1.13488e-08,-7.30771e-09,716.444,-716.431,1.72971e-05,1.34982e-08,-1.3498e-08,3.25888e-16
-0.840025,0.25,0.126748,0.01,-4.86011,31.25,613.056,-613.042,-400.36,1.15503e-08,-1.15501e-08,-7.54301e-09,732.207,-732.194,1.83564e-05,1.37951e-08,-1.3795e-08,3.45845e-16
-0.830025,0.25,0.117393,0.01,-11.0416,31.25,623.974,-623.96,-413.373,1.1756e-08,-1.17558e-08,-7.78819e-09,748.48,-748.466,1.94831e-05,1.41017e-08,-1.41016e-08,3.67072e-16
-0.820025,0.25,0.107668,0.01,-17.2855,31.25,635.124,-635.111,-426.937,1.19661e-08,-1.19659e-08,-8.04374e-09,765.284,-765.271,2.06805e-05,1.44183e-08,-1.44182e-08,3.89633e-16
-0.810025,0.25,0.0979438,0.01,-23.5929,31.25,646.511,-646.498,-441.079,1.21806e-08,-1.21804e-08,-8.31019e-09,782.643,-782.629,2.19525e-05,1.47454e-08,-1.47452e-08,4.13597e-16
-0.800025,0.25,0.0882816,0.01,-29.965,31.25,658.136,-658.122,-455.83,1.23996e-08,-1.23995e-08,-8.5881e-09,800.579,-800.565,2.33031e-05,1.50833e-08,-1.50832e-08,4.39044e-16
-0.790025,0.25,0.0787038,0.01,-36.4028,31.25,670.002,-669.988,-471.221,1.26232e-08,-1.2623e-08,-8.87808e-09,819.118,-819.104,2.47613e-05,1.54326e-08,-1.54324e-08,4.66518e-16
-0.780025,0.25,0.0692455,0.01,-42.9077,31.25,682.109,-682.095,-487.286,1.28513e-08,-1.28511e-08,-9.18075e-09,838.285,-838.271,2.67838e-05,1.57937e-08,-1.57936e-08,5.04622e-16
-0.770025,0.25,0.0599633,0.01,-49.4808,31.25,694.459,-694.445,-504.06,1.3084e-08,-1.30838e-08,-9.49678e-09,858.11,-858.096,3.01532e-05,1.61672e-08,-1.61671e-08,5.68104e-16
-0.760025,0.25,0.0509533,0.01,-56.1234,31.25,707.053,-707.039,-521.581,1.33212e-08,-1.33211e-08,-9.82689e-09,878.62,-878.606,-9.00116e-05,1.65537e-08,-1.65535e-08,-1.69587e-15
-0.750025,0.25,0.041541,0.01,-62.8366,31.25,719.89,-719.869,-539.891,1.35631e-08,-1.35628e-08,-1.01719e-08,899.849,-899.827,-0.00259943,1.69536e-08,-1.69534e-08,-4.89747e-14
-0.740025,0.25,0.0316368,0.01,-69.6218,31.25,732.909,-732.652,-559.04,1.38073e-08,-1.38047e-08,-1.05326e-08,921.808,-921.551,-0.119713,1.73663e-08,-1.73637e-08,-2.25547e-12
-0.730025,0.25,0.0218203,0.01,-76.4804,31.25,744.826,-736.982,-575.045,1.39989e-08,-1.39193e-08,-1.08342e-08,941.8,-933.956,-0.139086,1.771e-08,-1.76304e-08,-2.62045e-12
-0.720025,0.25,0.012303,0.01,-83.4133,31.25,757.471,-734.18,-586.181,1.41699e-08,-1.39336e-08,-1.1044e-08,960.254,-936.963,2.14405,1.79905e-08,-1.77542e-08,4.03952e-11
0.719975,0.25,0.0122576,0.01,-83.448,31.25,757.534,-734.248,586.278,1.41711e-08,-1.39349e-08,1.10458e-08,960.364,-937.077,-2.14892,1.79926e-08,-1.77563e-08,-4.0487e-11
0.729975,0.25,0.0217719,0.01,-76.5146,31.25,744.897,-737.048,575.144,1.40002e-08,-1.39205e-08,1.08361e-08,941.917,-934.069,0.1365,1.77121e-08,-1.76325e-08,2.57173e-12
0.739975,0.25,0.0315877,0.01,-69.6558,31.25,732.975,-732.719,559.138,1.38086e-08,-1.3806e-08,1.05345e-08,921.92,-921.663,0.119471,1.73684e-08,-1.73658e-08,2.2509e-12
0.749975,0.25,0.0414916,0.01,-62.8702,31.25,719.955,-719.933,539.984,1.35643e-08,-1.35641e-08,1.01736e-08,899.956,-899.935,0.00263091,1.69556e-08,-1.69554e-08,4.95679e-14
0.759975,0.25,0.0509094,0.01,-56.1566,31.25,707.116,-707.102,521.67,1.33224e-08,-1.33223e-08,9.82857e-09,878.724,-878.71,9.23208e-05,1.65556e-08,-1.65555e-08,1.73938e-15
0.769975,0.25,0.0599177,0.01,-49.5137,31.25,694.521,-694.507,504.145,1.30851e-08,-1.3085e-08,9.49839e-09,858.21,-858.196,-3.01452e-05,1.61691e-08,-1.6169e-08,-5.67954e-16
0.779975,0.25,0.0691989,0.01,-42.9402,31.25,682.17,-682.156,487.368,1.28524e-08,-1.28523e-08,9.18229e-09,838.382,-838.368,-2.6798e-05,1.57955e-08,-1.57954e-08,-5.0489e-16
0.789975,0.25,0.0786565,0.01,-36.435,31.25,670.061,-670.047,471.299,1.26243e-08,-1.26241e-08,8.87955e-09,819.211,-819.197,-2.47695e-05,1.54344e-08,-1.54342e-08,-4.66671e-16
0.799975,0.25,0.0882337,0.01,-29.9968,31.25,658.195,-658.181,455.905,1.24007e-08,-1.24006e-08,8.58951e-09,800.669,-800.656,-2.33104e-05,1.5085e-08,-1.50849e-08,-4.39181e-16
0.809975,0.25,0.0978956,0.01,-23.6244,31.25,646.568,-646.555,441.151,1.21817e-08,-1.21815e-08,8.31154e-09,782.73,-782.717,-2.19588e-05,1.4747e-08,-1.47469e-08,-4.13717e-16
0.819975,0.25,0.107619,0.01,-17.3167,31.25,635.18,-635.167,427.006,1.19671e-08,-1.1967e-08,8.04503e-09,765.369,-765.356,-2.06864e-05,1.44199e-08,-1.44198e-08,-3.89743e-16
0.829975,0.25,0.117347,0.01,-11.0725,31.25,624.028,-624.015,413.439,1.1757e-08,-1.17569e-08,7.78943e-09,748.562,-748.549,-1.94889e-05,1.41033e-08,-1.41031e-08,-3.67182e-16
0.839975,0.25,0.126702,0.01,-4.89069,31.25,613.109,-613.096,400.423,1.15513e-08,-1.15511e-08,7.54421e-09,732.286,-732.273,-1.83621e-05,1.37966e-08,-1.37965e-08,-3.45952e-16
0.849975,0.25,0.136148,0.01,1.2298,31.25,602.42,-602.407,387.931,1.13499e-08,-1.13498e-08,7.30885e-09,716.521,-716.508,-1.73022e-05,1.34996e-08,-1.34995e-08,-3.25983e-16
0.859975,0.25,0.145669,0.01,7.29005,31.25,591.958,-591.945,375.938,1.11528e-08,-1.11526e-08,7.08289e-09,701.245,-701.232,-1.63058e-05,1.32118e-08,-1.32117e-08,-3.0721e-16
0.869975,0.25,0.15525,0.01,13.2911,31.25,581.718,-581.705,364.42,1.09599e-08,-1.09597e-08,6.86588e-09,686.439,-686.427,-1.53694e-05,1.29329e-08,-1.29327e-08,-2.89568e-16
0.879975,0.25,0.164881,0.01,19.234,31.25,571.698,-571.685,353.354,1.07711e-08,-1.07709e-08,6.65739e-09,672.085,-672.073,-1.44887e-05,1.26624e-08,-1.26623e-08,-2.72975e-16
0.889975,0.25,0.174553,0.01,25.1197,31.25,561.893,-561.881,342.719,1.05863e-08,-1.05862e-08,6.45703e-09,658.165,-658.153,-1.36606e-05,1.24002e-08,-1.24e-08,-2.57374e-16
0.899975,0.25,0.18426,0.01,30.9492,31.25,552.3,-552.288,332.495,1.04056e-08,-1.04055e-08,6.2644e-09,644.662,-644.65,-1.28829e-05,1.21458e-08,-1.21456e-08,-2.42722e-16
0.909975,0.25,0.193997,0.01,36.7235,31.25,542.914,-542.902,322.663,1.02288e-08,-1.02286e-08,6.07916e-09,631.56,-631.548,-1.21524e-05,1.18989e-08,-1.18988e-08,-2.28958e-16
0.919975,0.25,0.203676,0.01,42.4435,31.25,533.731,-533.72,313.205,1.00558e-08,-1.00556e-08,5.90097e-09,618.844,-618.832,-1.14657e-05,1.16593e-08,-1.16592e-08,-2.1602e-16
0.929975,0.25,0.213218,0.01,48.1101,31.25,524.748,-524.737,304.104,9.88651e-09,-9.8864e-09,5.72949e-09,606.499,-606.487,-1.08196e-05,1.14267e-08,-1.14266e-08,-2.03847e-16
0.939975,0.25,0.2228,0.01,53.7243,31.25,516.036,-516.188,295.357,9.72308e-09,-9.72462e-09,5.5647e-09,594.573,-594.725,-0.0657527,1.12028e-08,-1.12043e-08,-1.23882e-12
0.949975,0.25,0.232417,0.01,59.2868,31.25,509.288,-510.974,288.244,9.60261e-09,-9.61972e-09,5.43069e-09,585.09,-586.777,-0.201204,1.10308e-08,-1.10479e-08,-3.79079e-12
0.959975,0.25,0.242066,0.01,64.7986,31.25,504.535,-506.509,283.483,9.51431e-09,-9.53433e-09,5.34099e-09,578.594,-580.568,0.897322,1.09096e-08,-1.09297e-08,1.69061e-11
-0.960025,0.26,0.244879,0.01,66.2794,33.8,497.811,-497.097,-290.382,9.37594e-09,-9.3687e-09,-5.47096e-09,576.362,-575.648,0.339387,1.08559e-08,-1.08486e-08,6.39425e-12
-0.950025,0.26,0.235269,0.01,60.7966,33.8,500.285,-504.18,-297.946,9.44259e-09,-9.48212e-09,-5.61348e-09,582.012,-585.908,-0.680061,1.09824e-08,-1.10219e-08,-1.28127e-11
-0.940025,0.26,0.225538,0.01,55.2638,33.8,507.412,-508.994,-304.948,9.56681e-09,-9.58286e-09,-5.7454e-09,591.884,-593.466,-0.457901,1.11583e-08,-1.11744e-08,-8.62712e-12
-0.930025,0.26,0.215832,0.01,49.6803,33.8,515.685,-515.684,-312.778,9.71579e-09,-9.71578e-09,-5.89291e-09,603.126,-603.125,-0.000597981,1.13632e-08,-1.13632e-08,-1.12663e-14
-0.920025,0.26,0.206154,0.01,44.0453,33.8,524.314,-524.303,-322.061,9.87833e-09,-9.87822e-09,-6.06782e-09,615.328,-615.318,1.11409e-05,1.15931e-08,-1.1593e-08,2.09901e-16
-0.910025,0.26,0.196507,0.01,38.3578,33.8,533.128,-533.117,-331.71,1.00444e-08,-1.00443e-08,-6.24961e-09,627.9,-627.889,1.179e-05,1.183e-08,-1.18298e-08,2.22131e-16
-0.900025,0.26,0.186899,0.01,32.617,33.8,542.128,-542.118,-341.737,1.0214e-08,-1.02139e-08,-6.43852e-09,640.85,-640.839,1.24793e-05,1.20739e-08,-1.20738e-08,2.35117e-16
-0.890025,0.26,0.177333,0.01,26.822,33.8,551.318,-551.307,-352.158,1.03871e-08,-1.0387e-08,-6.63487e-09,654.193,-654.182,1.32105e-05,1.23253e-08,-1.23252e-08,2.48894e-16
-0.880025,0.26,0.167818,0.01,20.9718,33.8,560.699,-560.688,-362.995,1.05638e-08,-1.05637e-08,-6.83903e-09,667.944,-667.933,1.39864e-05,1.25844e-08,-1.25843e-08,2.63512e-16
-0.870025,0.26,0.158363,0.01,15.0656,33.8,570.275,-570.263,-374.265,1.07443e-08,-1.07441e-08,-7.05137e-09,682.121,-682.11,1.48098e-05,1.28515e-08,-1.28514e-08,2.79025e-16
-0.860025,0.26,0.148892,0.01,9.10235,33.8,580.048,-580.037,-385.991,1.09284e-08,-1.09283e-08,-7.27229e-09,696.74,-696.728,1.56831e-05,1.31269e-08,-1.31268e-08,2.95479e-16
-0.850025,0.26,0.139175,0.01,3.08109,33.8,590.022,-590.01,-398.195,1.11163e-08,-1.11162e-08,-7.50222e-09,711.819,-711.807,1.66089e-05,1.3411e-08,-1.34109e-08,3.12921e-16
-0.840025,0.26,0.1295,0.01,-2.99917,33.8,600.197,-600.185,-410.9,1.1308e-08,-1.13079e-08,-7.74159e-09,727.377,-727.365,1.75903e-05,1.37041e-08,-1.3704e-08,3.31411e-16
-0.830025,0.26,0.119879,0.01,-9.13944,33.8,610.577,-610.565,-424.131,1.15036e-08,-1.15035e-08,-7.99088e-09,743.433,-743.422,1.86307e-05,1.40067e-08,-1.40065e-08,3.51014e-16
-0.820025,0.26,0.110325,0.01,-15.3408,33.8,621.162,-621.15,-437.915,1.1703e-08,-1.17029e-08,-8.25058e-09,760.009,-759.997,1.97325e-05,1.4319e-08,-1.43188e-08,3.71772e-16
-0.810025,0.26,0.100857,0.01,-21.6042,33.8,631.955,-631.943,-452.28,1.19063e-08,-1.19062e-08,-8.52122e-09,777.127,-777.115,2.08984e-05,1.46415e-08,-1.46413e-08,3.93738e-16
-0.800025,0.26,0.0915034,0.01,-27.9309,33.8,642.955,-642.943,-467.255,1.21136e-08,-1.21135e-08,-8.80335e-09,794.808,-794.796,2.21325e-05,1.49746e-08,-1.49745e-08,4.16989e-16
-0.790025,0.26,0.0823014,0.01,-34.3218,33.8,654.163,-654.151,-482.87,1.23248e-08,-1.23246e-08,-9.09755e-09,813.078,-813.066,2.34329e-05,1.53188e-08,-1.53187e-08,4.41489e-16
-0.780025,0.26,0.0728016,0.01,-40.7782,33.8,665.579,-665.567,-499.16,1.25398e-08,-1.25397e-08,-9.40446e-09,831.96,-831.949,2.4639e-05,1.56746e-08,-1.56744e-08,4.64214e-16
-0.770025,0.26,0.0630501,0.01,-47.3011,33.8,677.202,-677.19,-516.159,1.27588e-08,-1.27587e-08,-9.72473e-09,851.483,-851.472,2.47691e-05,1.60424e-08,-1.60423e-08,4.66664e-16
-0.760025,0.26,0.0533905,0.01,-53.8918,33.8,689.029,-689.018,-533.903,1.29817e-08,-1.29815e-08,-1.00591e-08,871.674,-871.663,5.75694e-05,1.64228e-08,-1.64227e-08,1.08464e-15
-0.750025,0.26,0.0438838,0.01,-60.5513,33.8,701.059,-701.05,-552.433,1.32083e-08,-1.32082e-08,-1.04082e-08,892.562,-892.554,0.000904966,1.68164e-08,-1.68163e-08,1.70501e-14
-0.740025,0.26,0.0346558,0.01,-67.281,33.8,713.261,-713.255,-571.774,1.34382e-08,-1.34382e-08,-1.07725e-08,914.149,-914.143,-0.00225718,1.72231e-08,-1.7223e-08,-4.25266e-14
-0.730025,0.26,0.026005,0.01,-74.082,33.8,725.415,-722.072,-589.494,1.36527e-08,-1.36188e-08,-1.11064e-08,935.11,-931.767,0.714869,1.76035e-08,-1.75696e-08,1.34685e-11
-0.720025,0.26,0.0184025,0.01,-80.9556,33.8,737.232,-728.814,-605.446,1.38533e-08,-1.37679e-08,-1.14069e-08,954.935,-946.517,2.55387,1.79549e-08,-1.78695e-08,4.81165e-11
-0.710025,0.26,0.00885598,0.01,-87.9035,33.8,738.883,-746.798,-625.21,1.39554e-08,-1.40357e-08,-1.17793e-08,966.967,-974.882,2.34368,1.82526e-08,-1.83329e-08,4.41564e-11
0.709975,0.26,0.00881102,0.01,-87.9382,33.8,738.934,-746.864,625.327,1.39564e-08,-1.40369e-08,1.17815e-08,967.08,-975.009,-2.33635,1.82548e-08,-1.83353e-08,-4.40181e-11
0.719975,0.26,0.0183538,0.01,-80.99,33.8,737.298,-728.861,605.552,1.38544e-08,-1.37688e-08,1.1409e-08,955.056,-946.619,-2.54965,1.79571e-08,-1.78715e-08,-4.8037e-11
0.729975,0.26,0.0259644,0.01,-74.116,33.8,725.475,-722.131,589.598,1.36538e-08,-1.36199e-08,1.11084e-08,935.222,-931.878,-0.71235,1.76056e-08,-1.75717e-08,-1.34211e-11
0.739975,0.26,0.034611,0.01,-67.3146,33.8,713.322,-713.316,571.872,1.34394e-08,-1.34393e-08,1.07744e-08,914.258,-914.252,0.00241735,1.72251e-08,-1.72251e-08,4.55442e-14
0.749975,0.26,0.043837,0.01,-60.5846,33.8,701.119,-701.111,552.527,1.32095e-08,-1.32094e-08,1.04099e-08,892.668,-892.659,-0.000916212,1.68183e-08,-1.68183e-08,-1.7262e-14
0.759975,0.26,0.0533428,0.01,-53.9247,33.8,689.089,-689.077,533.994,1.29828e-08,-1.29827e-08,1.00608e-08,871.777,-871.765,-5.82483e-05,1.64247e-08,-1.64246e-08,-1.09743e-15
0.769975,0.26,0.0630018,0.01,-47.3337,33.8,677.26,-677.248,516.245,1.27599e-08,-1.27598e-08,9.72636e-09,851.582,-851.57,-2.47697e-05,1.60443e-08,-1.60441e-08,-4.66675e-16
0.779975,0.26,0.072753,0.01,-40.8105,33.8,665.636,-665.625,499.243,1.25409e-08,-1.25408e-08,9.40602e-09,832.056,-832.044,-2.4643e-05,1.56764e-08,-1.56762e-08,-4.64288e-16
0.789975,0.26,0.0822561,0.01,-34.3538,33.8,654.219,-654.208,482.95,1.23258e-08,-1.23257e-08,9.09905e-09,813.17,-813.158,-2.34397e-05,1.53205e-08,-1.53204e-08,-4.41617e-16
0.799975,0.26,0.0914572,0.01,-27.9625,33.8,643.01,-642.998,467.331,1.21146e-08,-1.21145e-08,8.80478e-09,794.897,-794.885,-2.21392e-05,1.49763e-08,-1.49762e-08,-4.17114e-16
0.809975,0.26,0.100811,0.01,-21.6355,33.8,632.009,-631.997,452.353,1.19074e-08,-1.19072e-08,8.52259e-09,777.213,-777.201,-2.09044e-05,1.46431e-08,-1.4643e-08,-3.93851e-16
0.819975,0.26,0.110278,0.01,-15.3718,33.8,621.216,-621.204,437.985,1.1704e-08,-1.17039e-08,8.2519e-09,760.093,-760.081,-1.97377e-05,1.43205e-08,-1.43204e-08,-3.71869e-16
0.829975,0.26,0.119831,0.01,-9.17013,33.8,610.629,-610.617,424.199,1.15046e-08,-1.15044e-08,7.99215e-09,743.514,-743.503,-1.86356e-05,1.40082e-08,-1.40081e-08,-3.51106e-16
0.839975,0.26,0.129452,0.01,-3.02955,33.8,600.248,-600.237,410.964,1.1309e-08,-1.13089e-08,7.74281e-09,727.455,-727.444,-1.75952e-05,1.37056e-08,-1.37055e-08,-3.31504e-16
0.849975,0.26,0.139127,0.01,3.051,33.8,590.072,-590.06,398.257,1.11172e-08,-1.11171e-08,7.50339e-09,711.895,-711.883,-1.66134e-05,1.34125e-08,-1.34123e-08,-3.13006e-16
0.859975,0.26,0.148844,0.01,9.07255,33.8,580.097,-580.086,386.051,1.09293e-08,-1.09292e-08,7.27342e-09,696.814,-696.802,-1.56874e-05,1.31283e-08,-1.31282e-08,-2.95559e-16
0.869975,0.26,0.158316,0.01,15.0361,33.8,570.323,-570.312,374.322,1.07452e-08,-1.0745e-08,7.05245e-09,682.193,-682.181,-1.48142e-05,1.28529e-08,-1.28527e-08,-2.79108e-16
0.879975,0.26,0.167771,0.01,20.9426,33.8,560.746,-560.735,363.05,1.05647e-08,-1.05646e-08,6.84006e-09,668.014,-668.002,-1.39905e-05,1.25857e-08,-1.25856e-08,-2.63589e-16
0.889975,0.26,0.177286,0.01,26.793,33.8,551.364,-551.353,352.211,1.0388e-08,-1.03879e-08,6.63587e-09,654.26,-654.249,-1.32139e-05,1.23266e-08,-1.23265e-08,-2.48957e-16
0.899975,0.26,0.186851,0.01,32.5883,33.8,542.174,-542.163,341.787,1.02148e-08,-1.02147e-08,6.43947e-09,640.915,-640.904,-1.24824e-05,1.20752e-08,-1.20751e-08,-2.35176e-16
0.909975,0.26,0.19646,0.01,38.3294,33.8,533.172,-533.162,331.759,1.00452e-08,-1.00451e-08,6.25053e-09,627.963,-627.953,-1.17932e-05,1.18311e-08,-1.1831e-08,-2.22191e-16
0.919975,0.26,0.206105,0.01,44.0171,33.8,524.357,-524.347,322.108,9.87914e-09,-9.87904e-09,6.0687e-09,615.39,-615.38,-1.11439e-05,1.15943e-08,-1.15942e-08,-2.09958e-16
0.929975,0.26,0.215784,0.01,49.6524,33.8,515.727,-515.726,312.823,9.71659e-09,-9.71658e-09,5.89377e-09,603.186,-603.184,0.000597815,1.13644e-08,-1.13644e-08,1.12632e-14
0.939975,0.26,0.22549,0.01,55.2362,33.8,507.454,-509.036,304.992,9.5676e-09,-9.58365e-09,5.74622e-09,591.942,-593.524,0.457965,1.11594e-08,-1.11755e-08,8.62833e-12
0.949975,0.26,0.235221,0.01,60.7692,33.8,500.326,-504.222,297.989,9.44336e-09,-9.48289e-09,5.61428e-09,582.069,-585.965,0.680289,1.09835e-08,-1.1023e-08,1.2817e-11
0.959975,0.26,0.244832,0.01,66.2523,33.8,497.851,-497.138,290.423,9.3767e-09,-9.36947e-09,5.47174e-09,576.418,-575.704,-0.339114,1.08569e-08,-1.08497e-08,-6.3891e-12
-0.950025,0.27,0.237725,0.01,62.3287,36.45,491.94,-503.797,-308.418,9.31999e-09,-9.44028e-09,-5.81077e-09,579.729,-591.586,-0.476464,1.0974e-08,-1.10943e-08,-8.97685e-12
-0.940025,0.27,0.228099,0.01,56.8263,36.45,499.413,-503.239,-313.666,9.42587e-09,-9.46468e-09,-5.90966e-09,589.454,-593.279,0.183886,1.11223e-08,-1.11611e-08,3.46452e-12
-0.930025,0.27,0.218506,0.01,51.2741,36.45,506.557,-506.695,-321.147,9.54443e-09,-9.54583e-09,-6.05059e-09,599.769,-599.906,0.0760164,1.13006e-08,-1.1302e-08,1.43219e-12
-0.920025,0.27,0.208952,0.01,45.6712,36.45,514.758,-514.749,-330.603,9.69831e-09,-9.69821e-09,-6.22875e-09,611.781,-611.771,1.07812e-05,1.15263e-08,-1.15262e-08,2.03124e-16
-0.910025,0.27,0.199441,0.01,40.0168,36.45,523.203,-523.193,-340.428,9.8574e-09,-9.8573e-09,-6.41386e-09,624.206,-624.196,1.13909e-05,1.17604e-08,-1.17603e-08,2.14611e-16
-0.900025,0.27,0.189981,0.01,34.3101,36.45,531.815,-531.806,-350.633,1.00197e-08,-1.00196e-08,-6.60612e-09,637.002,-636.993,1.20364e-05,1.20015e-08,-1.20014e-08,2.26773e-16
-0.890025,0.27,0.180406,0.01,28.5502,36.45,540.599,-540.589,-361.236,1.01851e-08,-1.0185e-08,-6.80589e-09,650.184,-650.174,1.27194e-05,1.22498e-08,-1.22497e-08,2.3964e-16
-0.880025,0.27,0.170725,0.01,22.7363,36.45,549.554,-549.544,-372.255,1.03539e-08,-1.03538e-08,-7.0135e-09,663.766,-663.756,1.34419e-05,1.25057e-08,-1.25056e-08,2.53253e-16
-0.870025,0.27,0.161082,0.01,16.8674,36.45,558.684,-558.674,-383.711,1.05259e-08,-1.05258e-08,-7.22934e-09,677.764,-677.754,1.42062e-05,1.27694e-08,-1.27693e-08,2.67654e-16
-0.860025,0.27,0.151487,0.01,10.9427,36.45,567.99,-567.98,-395.625,1.07012e-08,-1.07011e-08,-7.4538e-09,692.195,-692.184,1.50144e-05,1.30413e-08,-1.30412e-08,2.82881e-16
-0.850025,0.27,0.141947,0.01,4.9611,36.45,577.473,-577.463,-408.018,1.08799e-08,-1.08798e-08,-7.68729e-09,707.075,-707.065,1.58685e-05,1.33217e-08,-1.33216e-08,2.98971e-16
-0.840025,0.27,0.132475,0.01,-1.07821,36.45,587.135,-587.124,-420.914,1.10619e-08,-1.10618e-08,-7.93026e-09,722.424,-722.414,1.67704e-05,1.36108e-08,-1.36107e-08,3.15964e-16
-0.830025,0.27,0.123086,0.01,-7.17623,36.45,596.974,-596.964,-434.337,1.12473e-08,-1.12472e-08,-8.18317e-09,738.261,-738.25,1.77227e-05,1.39092e-08,-1.39091e-08,3.33905e-16
-0.820025,0.27,0.113802,0.01,-13.3339,36.45,606.993,-606.983,-448.314,1.14361e-08,-1.1436e-08,-8.44649e-09,754.604,-754.594,1.8727e-05,1.42171e-08,-1.4217e-08,3.52828e-16
-0.810025,0.27,0.104281,0.01,-19.5524,36.45,617.191,-617.18,-462.871,1.16282e-08,-1.16281e-08,-8.72076e-09,771.476,-771.466,1.97858e-05,1.4535e-08,-1.45349e-08,3.72776e-16
-0.800025,0.27,0.094603,0.01,-25.8325,36.45,627.566,-627.555,-478.038,1.18237e-08,-1.18236e-08,-9.00652e-09,788.899,-788.888,2.09009e-05,1.48633e-08,-1.48632e-08,3.93784e-16
-0.790025,0.27,0.0849998,0.01,-32.1754,36.45,638.117,-638.107,-493.846,1.20224e-08,-1.20223e-08,-9.30434e-09,806.894,-806.884,2.20739e-05,1.52023e-08,-1.52022e-08,4.15886e-16
-0.780025,0.27,0.0754997,0.01,-38.5821,36.45,648.842,-648.833,-510.325,1.22245e-08,-1.22244e-08,-9.61483e-09,825.488,-825.478,2.33533e-05,1.55526e-08,-1.55525e-08,4.39991e-16
-0.770025,0.27,0.0661471,0.01,-45.0537,36.45,659.739,-659.729,-527.512,1.24298e-08,-1.24297e-08,-9.93863e-09,844.705,-844.695,2.5239e-05,1.59147e-08,-1.59146e-08,4.75517e-16
-0.760025,0.27,0.0570148,0.01,-51.5913,36.45,670.803,-670.794,-545.441,1.26383e-08,-1.26382e-08,-1.02764e-08,864.572,-864.562,2.00114e-05,1.6289e-08,-1.62889e-08,3.77026e-16
-0.750025,0.27,0.0482278,0.01,-58.1959,36.45,682.03,-682.02,-564.151,1.28498e-08,-1.28497e-08,-1.06289e-08,885.117,-885.107,-0.000235895,1.66761e-08,-1.6676e-08,-4.44439e-15
-0.740025,0.27,0.0385176,0.01,-64.8688,36.45,693.42,-693.399,-583.684,1.30643e-08,-1.30641e-08,-1.09969e-08,906.378,-906.358,-0.000521714,1.70766e-08,-1.70764e-08,-9.82939e-15
-0.730025,0.27,0.0286946,0.01,-71.611,36.45,705.004,-704.581,-603.91,1.32808e-08,-1.32766e-08,-1.1378e-08,928.349,-927.927,0.0301917,1.74888e-08,-1.74845e-08,5.6883e-13
-0.720025,0.27,0.0190567,0.01,-78.4236,36.45,713.894,-710.215,-622.427,1.34342e-08,-1.33969e-08,-1.17269e-08,947.586,-943.907,-0.773161,1.78371e-08,-1.77997e-08,-1.45668e-11
-0.710025,0.27,0.0101456,0.01,-85.3077,36.45,718.775,-702.617,-637.867,1.34719e-08,-1.3308e-08,-1.20178e-08,963.037,-946.878,-4.4722,1.80739e-08,-1.791e-08,-8.42588e-11
0.709975,0.27,0.0101063,0.01,-85.3421,36.45,718.822,-702.675,637.97,1.34728e-08,-1.3309e-08,1.20197e-08,963.139,-946.992,4.46954,1.80759e-08,-1.79121e-08,8.42088e-11
0.719975,0.27,0.0190097,0.01,-78.4577,36.45,713.951,-710.272,622.532,1.34353e-08,-1.33979e-08,1.17289e-08,947.697,-944.019,0.771593,1.78392e-08,-1.78019e-08,1.45373e-11
0.729975,0.27,0.0286461,0.01,-71.6447,36.45,705.062,-704.638,604.012,1.32819e-08,-1.32776e-08,1.13799e-08,928.46,-928.036,-0.0307149,1.74909e-08,-1.74866e-08,-5.78687e-13
0.739975,0.27,0.0384685,0.01,-64.9021,36.45,693.477,-693.457,583.783,1.30654e-08,-1.30652e-08,1.09988e-08,906.486,-906.466,0.000496253,1.70786e-08,-1.70784e-08,9.3497e-15
0.749975,0.27,0.0481853,0.01,-58.2289,36.45,682.086,-682.076,564.246,1.28508e-08,-1.28507e-08,1.06307e-08,885.221,-885.211,0.000239499,1.6678e-08,-1.66779e-08,4.5123e-15
0.759975,0.27,0.0569701,0.01,-51.624,36.45,670.858,-670.849,545.532,1.26393e-08,-1.26392e-08,1.02781e-08,864.672,-864.663,-1.98472e-05,1.62909e-08,-1.62908e-08,-3.73933e-16
0.769975,0.27,0.0661011,0.01,-45.0861,36.45,659.794,-659.784,527.599,1.24309e-08,-1.24308e-08,9.94027e-09,844.802,-844.792,-2.52514e-05,1.59165e-08,-1.59164e-08,-4.75752e-16
0.779975,0.27,0.0754528,0.01,-38.6141,36.45,648.896,-648.886,510.409,1.22255e-08,-1.22254e-08,9.6164e-09,825.582,-825.572,-2.33599e-05,1.55544e-08,-1.55543e-08,-4.40114e-16
0.789975,0.27,0.0849523,0.01,-32.2071,36.45,638.17,-638.16,493.926,1.20234e-08,-1.20233e-08,9.30585e-09,806.985,-806.975,-2.20798e-05,1.5204e-08,-1.52039e-08,-4.15996e-16
0.799975,0.27,0.0945551,0.01,-25.8639,36.45,627.618,-627.608,478.115,1.18246e-08,-1.18245e-08,9.00797e-09,788.987,-788.976,-2.0907e-05,1.48649e-08,-1.48648e-08,-3.939e-16
0.809975,0.27,0.104233,0.01,-19.5834,36.45,617.242,-617.232,462.945,1.16291e-08,-1.1629e-08,8.72216e-09,771.562,-771.551,-1.97916e-05,1.45366e-08,-1.45365e-08,-3.72884e-16
0.819975,0.27,0.113756,0.01,-13.3647,36.45,607.044,-607.033,448.385,1.1437e-08,-1.14369e-08,8.44783e-09,754.687,-754.677,-1.8732e-05,1.42187e-08,-1.42186e-08,-3.52922e-16
0.829975,0.27,0.12304,0.01,-7.2067,36.45,597.024,-597.014,434.405,1.12482e-08,-1.12481e-08,8.18445e-09,738.341,-738.33,-1.77269e-05,1.39107e-08,-1.39106e-08,-3.33985e-16
0.839975,0.27,0.132428,0.01,-1.10839,36.45,587.183,-587.173,420.979,1.10628e-08,-1.10627e-08,7.93149e-09,722.502,-722.492,-1.67748e-05,1.36123e-08,-1.36122e-08,-3.16046e-16
0.849975,0.27,0.141899,0.01,4.93121,36.45,577.521,-577.511,408.081,1.08808e-08,-1.08807e-08,7.68848e-09,707.15,-707.14,-1.58729e-05,1.33231e-08,-1.3323e-08,-2.99054e-16
0.859975,0.27,0.151439,0.01,10.9131,36.45,568.037,-568.027,395.685,1.07021e-08,-1.0702e-08,7.45494e-09,692.267,-692.257,-1.50186e-05,1.30427e-08,-1.30426e-08,-2.8296e-16
0.869975,0.27,0.161035,0.01,16.8381,36.45,558.73,-558.72,383.769,1.05268e-08,-1.05267e-08,7.23044e-09,677.834,-677.824,-1.42102e-05,1.27708e-08,-1.27706e-08,-2.67728e-16
0.879975,0.27,0.170677,0.01,22.7073,36.45,549.599,-549.589,372.311,1.03547e-08,-1.03546e-08,7.01455e-09,663.834,-663.824,-1.34456e-05,1.2507e-08,-1.25069e-08,-2.53322e-16
0.889975,0.27,0.180358,0.01,28.5215,36.45,540.643,-540.633,361.289,1.0186e-08,-1.01859e-08,6.8069e-09,650.25,-650.241,-1.27228e-05,1.22511e-08,-1.2251e-08,-2.39705e-16
0.899975,0.27,0.189934,0.01,34.2816,36.45,531.859,-531.849,350.684,1.00205e-08,-1.00204e-08,6.6071e-09,637.067,-637.057,-1.20397e-05,1.20027e-08,-1.20026e-08,-2.26835e-16
0.909975,0.27,0.199394,0.01,39.9885,36.45,523.245,-523.236,340.478,9.8582e-09,-9.8581e-09,6.4148e-09,624.269,-624.259,-1.13939e-05,1.17615e-08,-1.17614e-08,-2.14667e-16
0.919975,0.27,0.208904,0.01,45.6432,36.45,514.8,-514.791,330.651,9.69909e-09,-9.69899e-09,6.22966e-09,611.842,-611.832,-1.0784e-05,1.15274e-08,-1.15273e-08,-2.03177e-16
0.929975,0.27,0.218458,0.01,51.2463,36.45,506.598,-506.736,321.193,9.5452e-09,-9.54659e-09,6.05146e-09,599.828,-599.966,-0.0760277,1.13017e-08,-1.13031e-08,-1.43241e-12
0.939975,0.27,0.228051,0.01,56.7988,36.45,499.453,-503.28,313.711,9.42663e-09,-9.46544e-09,5.9105e-09,589.511,-593.338,-0.18396,1.11234e-08,-1.11622e-08,-3.4659e-12
0.949975,0.27,0.237677,0.01,62.3015,36.45,491.979,-503.838,308.462,9.32074e-09,-9.44105e-09,5.8116e-09,579.785,-591.644,0.476526,1.09751e-08,-1.10954e-08,8.97803e-12
-0.950025,0.28,0.240571,0.01,63.9099,39.2,485.572,-495.838,-314.486,9.19309e-09,-9.29724e-09,-5.92509e-09,577.695,-587.961,1.91567,1.09287e-08,-1.10329e-08,3.60923e-11
-0.940025,0.28,0.231064,0.01,58.4386,39.2,490.954,-493.46,-320.949,9.26075e-09,-9.28618e-09,-6.04686e-09,586.348,-588.855,0.687708,1.1058e-08,-1.10835e-08,1.29568e-11
-0.930025,0.28,0.2216,0.01,52.9184,39.2,497.158,-497.351,-329.229,9.36758e-09,-9.36954e-09,-6.20286e-09,596.271,-596.463,0.0246525,1.12349e-08,-1.12369e-08,4.64467e-13
-0.920025,0.28,0.211952,0.01,47.3485,39.2,505.037,-505.029,-338.782,9.51516e-09,-9.51507e-09,-6.38285e-09,608.142,-608.133,1.03887e-05,1.14577e-08,-1.14576e-08,1.95728e-16
-0.910025,0.28,0.202297,0.01,41.7281,39.2,513.109,-513.1,-348.765,9.66723e-09,-9.66715e-09,-6.57094e-09,620.419,-620.41,1.0957e-05,1.1689e-08,-1.16889e-08,2.06436e-16
-0.900025,0.28,0.192678,0.01,36.0564,39.2,521.332,-521.323,-359.131,9.82216e-09,-9.82207e-09,-6.76624e-09,633.058,-633.05,1.15569e-05,1.19271e-08,-1.19271e-08,2.17739e-16
-0.890025,0.28,0.1831,0.01,30.3326,39.2,529.707,-529.698,-369.896,9.97995e-09,-9.97986e-09,-6.96906e-09,646.076,-646.067,1.21905e-05,1.21724e-08,-1.21723e-08,2.29676e-16
-0.880025,0.28,0.173569,0.01,24.5557,39.2,538.236,-538.227,-381.079,1.01406e-08,-1.01405e-08,-7.17975e-09,659.485,-659.476,1.28587e-05,1.2425e-08,-1.24249e-08,2.42265e-16
-0.870025,0.28,0.164094,0.01,18.7251,39.2,546.918,-546.909,-392.7,1.03042e-08,-1.03041e-08,-7.3987e-09,673.301,-673.292,1.35627e-05,1.26853e-08,-1.26852e-08,2.55529e-16
-0.860025,0.28,0.154685,0.01,12.8398,39.2,555.755,-555.746,-404.779,1.04707e-08,-1.04706e-08,-7.62628e-09,687.54,-687.531,1.43044e-05,1.29536e-08,-1.29535e-08,2.69503e-16
-0.850025,0.28,0.145355,0.01,6.89885,39.2,564.747,-564.738,-417.338,1.06401e-08,-1.064e-08,-7.8629e-09,702.219,-702.21,1.50855e-05,1.32302e-08,-1.32301e-08,2.8422e-16
-0.840025,0.28,0.135827,0.01,0.90146,39.2,573.893,-573.884,-430.401,1.08124e-08,-1.08124e-08,-8.109e-09,717.356,-717.347,1.59073e-05,1.35154e-08,-1.35153e-08,2.99702e-16
-0.830025,0.28,0.126191,0.01,-5.15332,39.2,583.193,-583.184,-443.99,1.09877e-08,-1.09876e-08,-8.36503e-09,732.968,-732.96,1.67708e-05,1.38095e-08,-1.38094e-08,3.15971e-16
-0.820025,0.28,0.116616,0.01,-11.2664,39.2,592.645,-592.637,-458.132,1.11657e-08,-1.11657e-08,-8.63147e-09,749.076,-749.067,1.76778e-05,1.4113e-08,-1.41129e-08,3.33059e-16
-0.810025,0.28,0.10712,0.01,-17.4388,39.2,602.248,-602.24,-472.853,1.13467e-08,-1.13466e-08,-8.90883e-09,765.699,-765.69,1.863e-05,1.44262e-08,-1.44261e-08,3.51e-16
-0.800025,0.28,0.0977234,0.01,-23.6714,39.2,612,-611.991,-488.182,1.15304e-08,-1.15303e-08,-9.19764e-09,782.858,-782.85,1.96278e-05,1.47495e-08,-1.47494e-08,3.698e-16
-0.790025,0.28,0.0884596,0.01,-29.9652,39.2,621.896,-621.888,-504.149,1.17169e-08,-1.17168e-08,-9.49846e-09,800.576,-800.568,2.06728e-05,1.50833e-08,-1.50832e-08,3.89487e-16
-0.780025,0.28,0.0793747,0.01,-36.3212,39.2,631.934,-631.926,-520.784,1.1906e-08,-1.19059e-08,-9.81188e-09,818.877,-818.869,2.17561e-05,1.54281e-08,-1.5428e-08,4.09898e-16
-0.770025,0.28,0.0699198,0.01,-42.7403,39.2,642.109,-642.101,-538.122,1.20977e-08,-1.20976e-08,-1.01385e-08,837.783,-837.776,2.27043e-05,1.57843e-08,-1.57842e-08,4.27762e-16
-0.760025,0.28,0.0602375,0.01,-49.2237,39.2,652.414,-652.407,-556.198,1.22918e-08,-1.22918e-08,-1.04791e-08,857.322,-857.315,2.49941e-05,1.61524e-08,-1.61523e-08,4.70903e-16
-0.750025,0.28,0.0506787,0.01,-55.7723,39.2,662.843,-662.837,-575.048,1.24883e-08,-1.24883e-08,-1.08342e-08,877.521,-877.514,9.85655e-05,1.6533e-08,-1.65329e-08,1.85703e-15
-0.740025,0.28,0.0413293,0.01,-62.3873,39.2,673.386,-673.385,-594.711,1.2687e-08,-1.2687e-08,-1.12047e-08,898.404,-898.403,0.000189312,1.69264e-08,-1.69264e-08,3.56674e-15
-0.730025,0.28,0.032371,0.01,-69.0695,39.2,683.891,-683.68,-615.198,1.2884e-08,-1.28819e-08,-1.15907e-08,919.905,-919.694,-0.145075,1.73306e-08,-1.73285e-08,-2.7333e-12
-0.720025,0.28,0.0242417,0.01,-75.8202,39.2,692.922,-685.166,-632.841,1.30213e-08,-1.29426e-08,-1.19231e-08,939.436,-931.68,-1.07382,1.76658e-08,-1.75871e-08,-2.02314e-11
-0.710025,0.28,0.0154644,0.01,-82.6404,39.2,704.765,-677.719,-644.788,1.31606e-08,-1.28862e-08,-1.21482e-08,958.809,-931.763,0.580497,1.79469e-08,-1.76726e-08,1.09369e-11
0.709975,0.28,0.0154152,0.01,-82.6745,39.2,704.829,-677.783,644.897,1.31618e-08,-1.28874e-08,1.21502e-08,958.93,-931.884,-0.590235,1.79492e-08,-1.76748e-08,-1.11204e-11
0.719975,0.28,0.0242048,0.01,-75.8539,39.2,692.977,-685.22,632.946,1.30224e-08,-1.29437e-08,1.19251e-08,939.548,-931.791,1.07026,1.76679e-08,-1.75892e-08,2.01644e-11
0.729975,0.28,0.032328,0.01,-69.1029,39.2,683.944,-683.733,615.302,1.2885e-08,-1.28828e-08,1.15926e-08,920.014,-919.803,0.14496,1.73327e-08,-1.73305e-08,2.73113e-12
0.739975,0.28,0.0412835,0.01,-62.4203,39.2,673.438,-673.438,594.811,1.2688e-08,-1.2688e-08,1.12066e-08,898.509,-898.508,-0.00018064,1.69284e-08,-1.69284e-08,-3.40337e-15
0.749975,0.28,0.0506316,0.01,-55.8051,39.2,662.895,-662.889,575.143,1.24893e-08,-1.24892e-08,1.0836e-08,877.623,-877.616,-9.96395e-05,1.65349e-08,-1.65348e-08,-1.87727e-15
0.759975,0.28,0.0601896,0.01,-49.2561,39.2,652.466,-652.459,556.29,1.22928e-08,-1.22927e-08,1.04808e-08,857.421,-857.414,-2.50394e-05,1.61543e-08,-1.61542e-08,-4.71756e-16
0.769975,0.28,0.0698714,0.01,-42.7724,39.2,642.16,-642.152,538.211,1.20986e-08,-1.20986e-08,1.01402e-08,837.879,-837.871,-2.27087e-05,1.57861e-08,-1.5786e-08,-4.27845e-16
0.779975,0.28,0.0793301,0.01,-36.3529,39.2,631.985,-631.977,520.869,1.19069e-08,-1.19068e-08,9.81347e-09,818.969,-818.961,-2.17614e-05,1.54298e-08,-1.54297e-08,-4.09998e-16
0.789975,0.28,0.088414,0.01,-29.9966,39.2,621.946,-621.938,504.23,1.17178e-08,-1.17177e-08,9.49998e-09,800.666,-800.658,-2.06779e-05,1.5085e-08,-1.50849e-08,-3.89584e-16
0.799975,0.28,0.097677,0.01,-23.7025,39.2,612.049,-612.04,488.26,1.15313e-08,-1.15312e-08,9.1991e-09,782.945,-782.937,-1.96332e-05,1.47511e-08,-1.4751e-08,-3.69901e-16
0.809975,0.28,0.107073,0.01,-17.4696,39.2,602.297,-602.288,472.928,1.13476e-08,-1.13475e-08,8.91024e-09,765.783,-765.774,-1.8635e-05,1.44278e-08,-1.44277e-08,-3.51095e-16
0.819975,0.28,0.116569,0.01,-11.297,39.2,592.693,-592.684,458.204,1.11666e-08,-1.11666e-08,8.63282e-09,749.157,-749.149,-1.76826e-05,1.41145e-08,-1.41144e-08,-3.3315e-16
0.829975,0.28,0.126143,0.01,-5.18358,39.2,583.24,-583.231,444.059,1.09885e-08,-1.09884e-08,8.36633e-09,733.047,-733.038,-1.67751e-05,1.3811e-08,-1.38109e-08,-3.16053e-16
0.839975,0.28,0.135779,0.01,0.871492,39.2,573.939,-573.93,430.467,1.08133e-08,-1.08132e-08,8.11025e-09,717.432,-717.424,-1.59114e-05,1.35168e-08,-1.35167e-08,-2.99779e-16
0.849975,0.28,0.145309,0.01,6.86916,39.2,564.792,-564.783,417.402,1.0641e-08,-1.06409e-08,7.8641e-09,702.293,-702.285,-1.50896e-05,1.32316e-08,-1.32315e-08,-2.84297e-16
0.859975,0.28,0.154638,0.01,12.8104,39.2,555.8,-555.791,404.84,1.04715e-08,-1.04715e-08,7.62743e-09,687.612,-687.603,-1.43082e-05,1.2955e-08,-1.29549e-08,-2.69575e-16
0.869975,0.28,0.164047,0.01,18.696,39.2,546.962,-546.953,392.759,1.0305e-08,-1.03049e-08,7.39981e-09,673.371,-673.362,-1.35661e-05,1.26867e-08,-1.26866e-08,-2.55594e-16
0.879975,0.28,0.173522,0.01,24.5269,39.2,538.278,-538.269,381.136,1.01414e-08,-1.01413e-08,7.18082e-09,659.552,-659.543,-1.28621e-05,1.24263e-08,-1.24262e-08,-2.42328e-16
0.889975,0.28,0.183052,0.01,30.304,39.2,529.749,-529.74,369.951,9.98074e-09,-9.98065e-09,6.97008e-09,646.141,-646.132,-1.21941e-05,1.21736e-08,-1.21735e-08,-2.29745e-16
0.899975,0.28,0.19263,0.01,36.0281,39.2,521.373,-521.364,359.184,9.82293e-09,-9.82285e-09,6.76723e-09,633.122,-633.113,-1.15609e-05,1.19284e-08,-1.19283e-08,-2.17814e-16
0.909975,0.28,0.202249,0.01,41.7001,39.2,513.15,-513.141,348.816,9.668e-09,-9.66791e-09,6.5719e-09,620.48,-620.472,-1.09602e-05,1.16902e-08,-1.16901e-08,-2.06496e-16
0.919975,0.28,0.211904,0.01,47.3207,39.2,505.077,-505.068,338.831,9.51591e-09,-9.51582e-09,6.38377e-09,608.202,-608.194,-1.0391e-05,1.14588e-08,-1.14588e-08,-1.95772e-16
0.929975,0.28,0.221553,0.01,52.8909,39.2,497.197,-497.39,329.276,9.36832e-09,-9.37027e-09,6.20375e-09,596.329,-596.522,-0.0246374,1.1236e-08,-1.1238e-08,-4.64183e-13
0.939975,0.28,0.231017,0.01,58.4113,39.2,490.992,-493.499,320.994,9.26148e-09,-9.28691e-09,6.04772e-09,586.405,-588.912,-0.687711,1.10591e-08,-1.10845e-08,-1.29569e-11
0.949975,0.28,0.240524,0.01,63.8828,39.2,485.61,-495.877,314.53,9.19381e-09,-9.29797e-09,5.92593e-09,577.751,-588.018,-1.91585,1.09298e-08,-1.1034e-08,-3.60957e-11
-0.950025,0.29,0.243518,0.01,65.5392,42.05,479.077,-478.592,-322.879,9.02398e-09,-9.01906e-09,-6.08323e-09,577.766,-577.281,-0.420412,1.08833e-08,-1.08784e-08,-7.9208e-12
-0.940025,0.29,0.233883,0.01,60.0999,42.05,481.174,-485.4,-330.739,9.08398e-09,-9.12684e-09,-6.23132e-09,583.51,-587.735,-0.977934,1.1012e-08,-1.10549e-08,-1.84248e-11
-0.930025,0.29,0.224281,0.01,54.6125,42.05,487.759,-489.474,-338.078,9.19712e-09,-9.21452e-09,-6.36959e-09,593.317,-595.032,-0.443,1.11859e-08,-1.12033e-08,-8.34638e-12
-0.920025,0.29,0.214716,0.01,49.0764,42.05,495.169,-495.171,-346.601,9.32928e-09,-9.3293e-09,-6.53017e-09,604.421,-604.423,7.21714e-06,1.13877e-08,-1.13877e-08,1.35975e-16
-0.910025,0.29,0.205191,0.01,43.4908,42.05,502.864,-502.856,-356.721,9.47422e-09,-9.47414e-09,-6.72084e-09,616.541,-616.534,1.04942e-05,1.1616e-08,-1.16159e-08,1.97716e-16
-0.900025,0.29,0.195714,0.01,37.8549,42.05,510.696,-510.688,-367.23,9.62177e-09,-9.6217e-09,-6.91882e-09,629.022,-629.015,1.10479e-05,1.18511e-08,-1.1851e-08,2.0815e-16
-0.890025,0.29,0.186292,0.01,32.1679,42.05,518.662,-518.654,-378.139,9.77186e-09,-9.77178e-09,-7.12435e-09,641.872,-641.865,1.16312e-05,1.20932e-08,-1.20931e-08,2.19139e-16
-0.880025,0.29,0.176933,0.01,26.429,42.05,526.763,-526.755,-389.466,9.92448e-09,-9.9244e-09,-7.33776e-09,655.106,-655.098,1.22439e-05,1.23425e-08,-1.23425e-08,2.30683e-16
-0.870025,0.29,0.167402,0.01,20.6375,42.05,534.997,-534.99,-401.231,1.00796e-08,-1.00795e-08,-7.55942e-09,668.737,-668.729,1.28871e-05,1.25994e-08,-1.25993e-08,2.42801e-16
-0.860025,0.29,0.157793,0.01,14.7924,42.05,543.366,-543.358,-413.454,1.02373e-08,-1.02372e-08,-7.78971e-09,682.782,-682.774,1.35622e-05,1.2864e-08,-1.28639e-08,2.55521e-16
-0.850025,0.29,0.148236,0.01,8.89307,42.05,551.866,-551.859,-426.156,1.03974e-08,-1.03974e-08,-8.02903e-09,697.257,-697.249,1.42703e-05,1.31367e-08,-1.31366e-08,2.68861e-16
-0.840025,0.29,0.138741,0.01,2.93852,42.05,560.498,-560.491,-439.361,1.05601e-08,-1.056e-08,-8.27781e-09,712.178,-712.17,1.50119e-05,1.34178e-08,-1.34177e-08,2.82834e-16
-0.830025,0.29,0.129322,0.01,-3.07209,42.05,569.259,-569.252,-453.09,1.07251e-08,-1.07251e-08,-8.53649e-09,727.563,-727.556,1.57875e-05,1.37077e-08,-1.37076e-08,2.97445e-16
-0.820025,0.29,0.119998,0.01,-9.13963,42.05,578.147,-578.14,-467.371,1.08926e-08,-1.08925e-08,-8.80554e-09,743.431,-743.424,1.65982e-05,1.40066e-08,-1.40066e-08,3.1272e-16
-0.810025,0.29,0.110792,0.01,-15.265,42.05,587.158,-587.151,-482.228,1.10624e-08,-1.10623e-08,-9.08545e-09,759.802,-759.795,1.74451e-05,1.43151e-08,-1.4315e-08,3.28675e-16
-0.800025,0.29,0.101459,0.01,-21.449,42.05,596.289,-596.282,-497.689,1.12344e-08,-1.12343e-08,-9.37675e-09,776.695,-776.689,1.83273e-05,1.46334e-08,-1.46333e-08,3.45296e-16
-0.790025,0.29,0.0918354,0.01,-27.6927,42.05,605.534,-605.528,-513.783,1.14086e-08,-1.14085e-08,-9.67997e-09,794.132,-794.126,1.92444e-05,1.49619e-08,-1.49618e-08,3.62575e-16
-0.780025,0.29,0.0823013,0.01,-33.997,42.05,614.89,-614.884,-530.542,1.15848e-08,-1.15848e-08,-9.99571e-09,812.136,-812.13,2.01963e-05,1.53011e-08,-1.5301e-08,3.8051e-16
-0.770025,0.29,0.0728923,0.01,-40.3627,42.05,624.348,-624.342,-547.996,1.1763e-08,-1.1763e-08,-1.03246e-08,830.729,-830.724,2.12227e-05,1.56514e-08,-1.56513e-08,3.99848e-16
-0.760025,0.29,0.0636637,0.01,-46.7909,42.05,633.901,-633.896,-566.181,1.1943e-08,-1.1943e-08,-1.06672e-08,849.937,-849.932,2.20275e-05,1.60133e-08,-1.60132e-08,4.15011e-16
-0.750025,0.29,0.0547068,0.01,-53.2825,42.05,643.541,-643.537,-585.131,1.21247e-08,-1.21246e-08,-1.10242e-08,869.784,-869.78,3.64985e-06,1.63872e-08,-1.63872e-08,6.87653e-17
-0.740025,0.29,0.0459203,0.01,-59.8384,42.05,653.258,-653.252,-604.885,1.23077e-08,-1.23077e-08,-1.13964e-08,890.3,-890.294,-2.12455e-05,1.67737e-08,-1.67737e-08,-4.00277e-16
-0.730025,0.29,0.0360976,0.01,-66.4596,42.05,663.054,-663.029,-625.476,1.24922e-08,-1.2492e-08,-1.17843e-08,911.519,-911.494,0.00817725,1.71734e-08,-1.71732e-08,1.54064e-13
-0.720025,0.29,0.0264083,0.01,-73.1472,42.05,672.794,-668.75,-643.874,1.26582e-08,-1.26172e-08,-1.2131e-08,931.811,-927.767,0.774503,1.75383e-08,-1.74973e-08,1.45921e-11
-0.710025,0.29,0.017081,0.01,-79.902,42.05,682.664,-671.064,-660.559,1.28113e-08,-1.26937e-08,-1.24453e-08,951.569,-939.969,2.18289,1.78777e-08,-1.776e-08,4.11269e-11
-0.700025,0.29,0.00928037,0.01,-86.7251,42.05,686.446,-670.73,-680.642,1.28647e-08,-1.27053e-08,-1.28237e-08,968.979,-953.263,-1.35853,1.81878e-08,-1.80284e-08,-2.55954e-11
0.699975,0.29,0.00925216,0.01,-86.7592,42.05,686.493,-670.86,680.77,1.2866e-08,-1.27074e-08,1.28261e-08,969.091,-953.457,1.33794,1.81903e-08,-1.80317e-08,2.52076e-11
0.709975,0.29,0.0170365,0.01,-79.9357,42.05,682.711,-671.14,660.676,1.28124e-08,-1.2695e-08,1.24475e-08,951.68,-940.109,-2.18918,1.78799e-08,-1.77625e-08,-4.12455e-11
0.719975,0.29,0.0263607,0.01,-73.1806,42.05,672.845,-668.804,643.983,1.26592e-08,-1.26182e-08,1.2133e-08,931.923,-927.883,-0.776575,1.75404e-08,-1.74994e-08,-1.46311e-11
0.729975,0.29,0.036049,0.01,-66.4927,42.05,663.103,-663.079,625.581,1.24931e-08,-1.24929e-08,1.17863e-08,911.626,-911.602,-0.00838056,1.71755e-08,-1.71752e-08,-1.57895e-13
0.739975,0.29,0.0458712,0.01,-59.8712,42.05,653.307,-653.301,604.986,1.23087e-08,-1.23086e-08,1.13983e-08,890.404,-890.398,1.88215e-05,1.67757e-08,-1.67756e-08,3.54609e-16
0.749975,0.29,0.0546632,0.01,-53.3149,42.05,643.589,-643.585,585.228,1.21256e-08,-1.21255e-08,1.1026e-08,869.885,-869.88,-3.35996e-06,1.63891e-08,-1.63891e-08,-6.33037e-17
0.759975,0.29,0.0636183,0.01,-46.823,42.05,633.949,-633.944,566.273,1.19439e-08,-1.19439e-08,1.06689e-08,850.034,-850.029,-2.20231e-05,1.60151e-08,-1.60151e-08,-4.14929e-16
0.769975,0.29,0.0728459,0.01,-40.3945,42.05,624.395,-624.389,548.085,1.17639e-08,-1.17639e-08,1.03262e-08,830.823,-830.818,-2.12286e-05,1.56532e-08,-1.56531e-08,-3.9996e-16
0.779975,0.29,0.0822542,0.01,-34.0285,42.05,614.936,-614.93,530.627,1.15857e-08,-1.15857e-08,9.99731e-09,812.227,-812.221,-2.02014e-05,1.53028e-08,-1.53027e-08,-3.80606e-16
0.789975,0.29,0.0917877,0.01,-27.7239,42.05,605.581,-605.574,513.865,1.14095e-08,-1.14094e-08,9.68151e-09,794.221,-794.214,-1.92489e-05,1.49635e-08,-1.49635e-08,-3.6266e-16
0.799975,0.29,0.101411,0.01,-21.4799,42.05,596.334,-596.328,497.767,1.12353e-08,-1.12352e-08,9.37822e-09,776.781,-776.774,-1.83317e-05,1.4635e-08,-1.46349e-08,-3.45379e-16
0.809975,0.29,0.110746,0.01,-15.2956,42.05,587.203,-587.196,482.303,1.10632e-08,-1.10631e-08,9.08687e-09,759.885,-759.878,-1.74493e-05,1.43166e-08,-1.43166e-08,-3.28755e-16
0.819975,0.29,0.119952,0.01,-9.16995,42.05,578.191,-578.184,467.443,1.08934e-08,-1.08934e-08,8.8069e-09,743.512,-743.505,-1.66028e-05,1.40082e-08,-1.40081e-08,-3.12806e-16
0.829975,0.29,0.129276,0.01,-3.10213,42.05,569.303,-569.296,453.16,1.0726e-08,-1.07259e-08,8.5378e-09,727.641,-727.634,-1.57917e-05,1.37091e-08,-1.37091e-08,-2.97526e-16
0.839975,0.29,0.138694,0.01,2.90876,42.05,560.541,-560.534,439.428,1.05609e-08,-1.05608e-08,8.27907e-09,712.253,-712.246,-1.50155e-05,1.34192e-08,-1.34192e-08,-2.82901e-16
0.849975,0.29,0.148188,0.01,8.8636,42.05,551.909,-551.901,426.221,1.03983e-08,-1.03982e-08,8.03024e-09,697.33,-697.322,-1.42736e-05,1.31381e-08,-1.3138e-08,-2.68923e-16
0.859975,0.29,0.157745,0.01,14.7632,42.05,543.407,-543.4,413.516,1.02381e-08,-1.0238e-08,7.79088e-09,682.853,-682.845,-1.35654e-05,1.28653e-08,-1.28652e-08,-2.5558e-16
0.869975,0.29,0.167354,0.01,20.6085,42.05,535.039,-535.031,401.29,1.00804e-08,-1.00803e-08,7.56054e-09,668.806,-668.798,-1.28903e-05,1.26007e-08,-1.26006e-08,-2.42861e-16
0.879975,0.29,0.176887,0.01,26.4003,42.05,526.803,-526.796,389.523,9.92524e-09,-9.92517e-09,7.33884e-09,655.172,-655.165,-1.2247e-05,1.23438e-08,-1.23437e-08,-2.30741e-16
0.889975,0.29,0.186245,0.01,32.1395,42.05,518.702,-518.694,378.194,9.77261e-09,-9.77253e-09,7.12539e-09,641.937,-641.929,-1.16343e-05,1.20944e-08,-1.20944e-08,-2.19197e-16
0.899975,0.29,0.195667,0.01,37.8267,42.05,510.735,-510.728,367.283,9.62251e-09,-9.62244e-09,6.91983e-09,629.085,-629.078,-1.10515e-05,1.18523e-08,-1.18522e-08,-2.08217e-16
0.909975,0.29,0.205144,0.01,43.4629,42.05,502.903,-502.895,356.773,9.47495e-09,-9.47487e-09,6.72181e-09,616.603,-616.595,-1.04972e-05,1.16171e-08,-1.1617e-08,-1.97772e-16
0.919975,0.29,0.214668,0.01,49.0488,42.05,495.207,-495.209,346.651,9.33e-09,-9.33002e-09,6.5311e-09,604.481,-604.482,-7.50896e-06,1.13888e-08,-1.13888e-08,-1.41473e-16
0.929975,0.29,0.224234,0.01,54.5851,42.05,487.797,-489.512,338.126,9.19783e-09,-9.21523e-09,6.3705e-09,593.375,-595.09,0.443053,1.1187e-08,-1.12044e-08,8.34737e-12
0.939975,0.29,0.233836,0.01,60.0727,42.05,481.211,-485.437,330.786,9.08467e-09,-9.12754e-09,6.2322e-09,583.567,-587.792,0.978205,1.10131e-08,-1.1056e-08,1.843e-11
0.949975,0.29,0.24347,0.01,65.5123,42.05,479.114,-478.628,322.925,9.02467e-09,-9.01975e-09,6.08409e-09,577.822,-577.336,0.420836,1.08844e-08,-1.08795e-08,7.9288e-12
-0.940025,0.3,0.236814,0.01,61.8091,45,472.072,-484.214,-340.351,8.94691e-09,-9.07009e-09,-6.41242e-09,580.836,-592.978,-0.450586,1.09961e-08,-1.11193e-08,-8.48931e-12
-0.930025,0.3,0.227335,0.01,56.3554,45,478.934,-482.773,-345.89,9.04008e-09,-9.07902e-09,-6.51677e-09,590.415,-594.253,0.29028,1.11404e-08,-1.11794e-08,5.46904e-12
-0.920025,0.3,0.217904,0.01,50.8538,45,485.231,-485.356,-354.049,9.14257e-09,-9.14384e-09,-6.67049e-09,600.654,-600.779,0.075003,1.13172e-08,-1.13185e-08,1.4131e-12
-0.910025,0.3,0.208525,0.01,45.3037,45,492.485,-492.479,-364.295,9.27868e-09,-9.27861e-09,-6.86352e-09,612.579,-612.572,1.00072e-05,1.15413e-08,-1.15412e-08,1.88541e-16
-0.900025,0.3,0.198992,0.01,39.7044,45,499.926,-499.919,-374.929,9.41886e-09,-9.41879e-09,-7.06388e-09,624.898,-624.892,1.0515e-05,1.17734e-08,-1.17734e-08,1.98109e-16
-0.890025,0.3,0.189402,0.01,34.055,45,507.483,-507.476,-385.963,9.56124e-09,-9.56117e-09,-7.27176e-09,637.579,-637.572,1.10475e-05,1.20123e-08,-1.20123e-08,2.08142e-16
-0.880025,0.3,0.179856,0.01,28.355,45,515.155,-515.149,-397.415,9.7058e-09,-9.70573e-09,-7.48752e-09,650.634,-650.627,1.16043e-05,1.22583e-08,-1.22582e-08,2.18633e-16
-0.870025,0.3,0.170363,0.01,22.6034,45,522.943,-522.936,-409.304,9.85252e-09,-9.85245e-09,-7.71152e-09,664.078,-664.071,1.21867e-05,1.25116e-08,-1.25115e-08,2.29605e-16
-0.860025,0.3,0.160931,0.01,16.7995,45,530.843,-530.837,-421.649,1.00014e-08,-1.00013e-08,-7.94411e-09,677.926,-677.919,1.27957e-05,1.27725e-08,-1.27724e-08,2.41078e-16
-0.850025,0.3,0.151572,0.01,10.9425,45,538.854,-538.848,-434.472,1.01523e-08,-1.01522e-08,-8.18571e-09,692.193,-692.187,1.34314e-05,1.30413e-08,-1.30412e-08,2.53056e-16
-0.840025,0.3,0.1423,0.01,5.03162,45,546.974,-546.968,-447.795,1.03053e-08,-1.03052e-08,-8.43672e-09,706.896,-706.89,1.40942e-05,1.33183e-08,-1.33182e-08,2.65543e-16
-0.830025,0.3,0.133038,0.01,-0.933941,45,555.199,-555.193,-461.641,1.04602e-08,-1.04602e-08,-8.69758e-09,722.052,-722.046,1.47837e-05,1.36038e-08,-1.36038e-08,2.78533e-16
-0.820025,0.3,0.123446,0.01,-6.95502,45,563.525,-563.519,-476.033,1.06171e-08,-1.06171e-08,-8.96874e-09,737.678,-737.672,1.55003e-05,1.38983e-08,-1.38982e-08,2.92034e-16
-0.810025,0.3,0.113924,0.01,-13.0325,45,571.948,-571.942,-490.998,1.07758e-08,-1.07757e-08,-9.25069e-09,753.793,-753.788,1.62441e-05,1.42019e-08,-1.42018e-08,3.06048e-16
-0.800025,0.3,0.104491,0.01,-19.1671,45,580.462,-580.457,-506.562,1.09362e-08,-1.09362e-08,-9.54393e-09,770.417,-770.412,1.70139e-05,1.45151e-08,-1.4515e-08,3.20553e-16
-0.790025,0.3,0.0951748,0.01,-25.3598,45,589.063,-589.058,-522.754,1.10983e-08,-1.10982e-08,-9.84899e-09,787.571,-787.566,1.78093e-05,1.48383e-08,-1.48382e-08,3.35538e-16
-0.780025,0.3,0.0860117,0.01,-31.6113,45,597.742,-597.738,-539.603,1.12618e-08,-1.12617e-08,-1.01664e-08,805.275,-805.27,1.86298e-05,1.51718e-08,-1.51718e-08,3.50997e-16
-0.770025,0.3,0.0770571,0.01,-37.9227,45,606.491,-606.487,-557.14,1.14266e-08,-1.14266e-08,-1.04968e-08,823.551,-823.548,1.9471e-05,1.55162e-08,-1.55161e-08,3.66846e-16
-0.760025,0.3,0.0676207,0.01,-44.2947,45,615.301,-615.298,-575.398,1.15926e-08,-1.15926e-08,-1.08408e-08,842.425,-842.422,2.045e-05,1.58718e-08,-1.58717e-08,3.85291e-16
-0.750025,0.3,0.0580252,0.01,-50.7283,45,624.162,-624.16,-594.412,1.17596e-08,-1.17595e-08,-1.11991e-08,861.919,-861.917,2.6944e-05,1.6239e-08,-1.6239e-08,5.07641e-16
-0.740025,0.3,0.048593,0.01,-57.2242,45,633.061,-633.061,-614.217,1.19272e-08,-1.19272e-08,-1.15722e-08,882.06,-882.059,3.2118e-05,1.66185e-08,-1.66185e-08,6.05121e-16
-0.730025,0.3,0.0394417,0.01,-63.7835,45,641.978,-641.982,-634.852,1.20953e-08,-1.20953e-08,-1.1961e-08,902.869,-902.873,-0.00343158,1.70106e-08,-1.70106e-08,-6.4653e-14
-0.720025,0.3,0.0308223,0.01,-70.4069,45,651.009,-650.465,-655.97,1.2263e-08,-1.22575e-08,-1.23588e-08,924.261,-923.717,0.14355,1.74112e-08,-1.74057e-08,2.70456e-12
-0.710025,0.3,0.0230575,0.01,-77.0955,45,657.985,-651.674,-675.21,1.23694e-08,-1.23054e-08,-1.27213e-08,943.745,-937.435,-1.11283,1.77533e-08,-1.76892e-08,-2.09663e-11
-0.700025,0.3,0.0130672,0.01,-83.8501,45,664.243,-648.095,-690.028,1.24445e-08,-1.22807e-08,-1.30005e-08,960.28,-944.131,-0.748533,1.8022e-08,-1.78582e-08,-1.41028e-11
0.699975,0.3,0.0130175,0.01,-83.8838,45,664.265,-648.235,690.158,1.24454e-08,-1.22828e-08,1.3003e-08,960.371,-944.341,0.731204,1.80243e-08,-1.78616e-08,1.37763e-11
0.709975,0.3,0.0230078,0.01,-77.1289,45,658.03,-651.74,675.325,1.23703e-08,-1.23065e-08,1.27235e-08,943.856,-937.566,1.10639,1.77554e-08,-1.76916e-08,2.08451e-11
0.719975,0.3,0.0307815,0.01,-70.44,45,651.054,-650.511,656.081,1.22639e-08,-1.22584e-08,1.23609e-08,924.371,-923.828,-0.142661,1.74133e-08,-1.74078e-08,-2.68782e-12
0.729975,0.3,0.0393972,0.01,-63.8162,45,642.023,-642.027,634.957,1.20961e-08,-1.20961e-08,1.1963e-08,902.974,-902.978,0.00349642,1.70126e-08,-1.70126e-08,6.58746e-14
0.739975,0.3,0.0485467,0.01,-57.2567,45,633.106,-633.105,614.318,1.19281e-08,-1.19281e-08,1.15741e-08,882.162,-882.161,-3.13433e-05,1.66204e-08,-1.66204e-08,-5.90527e-16
0.749975,0.3,0.0579778,0.01,-50.7604,45,624.206,-624.204,594.508,1.17604e-08,-1.17604e-08,1.12009e-08,862.018,-862.015,-2.70335e-05,1.62409e-08,-1.62409e-08,-5.09326e-16
0.759975,0.3,0.0675727,0.01,-44.3266,45,615.345,-615.342,575.491,1.15934e-08,-1.15934e-08,1.08426e-08,842.52,-842.517,-2.04573e-05,1.58736e-08,-1.58735e-08,-3.85427e-16
0.769975,0.3,0.0770132,0.01,-37.9542,45,606.535,-606.531,557.229,1.14274e-08,-1.14274e-08,1.04985e-08,823.644,-823.64,-1.94751e-05,1.55179e-08,-1.55179e-08,-3.66922e-16
0.779975,0.3,0.0859666,0.01,-31.6426,45,597.785,-597.781,539.688,1.12626e-08,-1.12626e-08,1.0168e-08,805.364,-805.36,-1.86341e-05,1.51735e-08,-1.51735e-08,-3.51077e-16
0.789975,0.3,0.0951288,0.01,-25.3907,45,589.106,-589.101,522.836,1.10991e-08,-1.1099e-08,9.85054e-09,787.657,-787.653,-1.78132e-05,1.48399e-08,-1.48399e-08,-3.35612e-16
0.799975,0.3,0.104445,0.01,-19.1977,45,580.505,-580.5,506.641,1.0937e-08,-1.0937e-08,9.54542e-09,770.501,-770.496,-1.70178e-05,1.45167e-08,-1.45166e-08,-3.20625e-16
0.809975,0.3,0.113877,0.01,-13.0628,45,571.99,-571.985,491.074,1.07766e-08,-1.07765e-08,9.25212e-09,753.875,-753.869,-1.62479e-05,1.42034e-08,-1.42034e-08,-3.06119e-16
0.819975,0.3,0.123398,0.01,-6.98511,45,563.566,-563.561,476.106,1.06179e-08,-1.06178e-08,8.97012e-09,737.757,-737.751,-1.55041e-05,1.38997e-08,-1.38997e-08,-2.92107e-16
0.829975,0.3,0.13299,0.01,-0.963746,45,555.24,-555.234,461.711,1.0461e-08,-1.0461e-08,8.6989e-09,722.128,-722.122,-1.47871e-05,1.36053e-08,-1.36052e-08,-2.78598e-16
0.839975,0.3,0.142254,0.01,5.00209,45,547.014,-547.008,447.863,1.0306e-08,-1.0306e-08,8.43799e-09,706.97,-706.964,-1.4097e-05,1.33197e-08,-1.33196e-08,-2.65596e-16
0.849975,0.3,0.151525,0.01,10.9132,45,538.894,-538.888,434.537,1.01531e-08,-1.0153e-08,8.18694e-09,692.265,-692.259,-1.34345e-05,1.30426e-08,-1.30426e-08,-2.53113e-16
0.859975,0.3,0.160884,0.01,16.7705,45,530.883,-530.876,421.712,1.00021e-08,-1.0002e-08,7.94529e-09,677.996,-677.989,-1.27989e-05,1.27738e-08,-1.27737e-08,-2.41139e-16
0.869975,0.3,0.170316,0.01,22.5746,45,522.982,-522.975,409.364,9.85325e-09,-9.85319e-09,7.71265e-09,664.146,-664.139,-1.219e-05,1.25129e-08,-1.25128e-08,-2.29666e-16
0.879975,0.3,0.179809,0.01,28.3265,45,515.194,-515.187,397.473,9.70652e-09,-9.70646e-09,7.48862e-09,650.7,-650.693,-1.16073e-05,1.22595e-08,-1.22595e-08,-2.18688e-16
0.889975,0.3,0.189354,0.01,34.0268,45,507.521,-507.514,386.019,9.56195e-09,-9.56188e-09,7.27281e-09,637.643,-637.636,-1.105e-05,1.20135e-08,-1.20135e-08,-2.08188e-16
0.899975,0.3,0.198944,0.01,39.6764,45,499.963,-499.956,374.983,9.41956e-09,-9.41949e-09,7.06489e-09,624.961,-624.954,-1.05178e-05,1.17746e-08,-1.17745e-08,-1.98162e-16
0.909975,0.3,0.208478,0.01,45.276,45,492.522,-492.515,364.347,9.27937e-09,-9.2793e-09,6.8645e-09,612.64,-612.633,-1.001e-05,1.15425e-08,-1.15424e-08,-1.88595e-16
0.919975,0.3,0.217857,0.01,50.8263,45,485.267,-485.392,354.099,9.14325e-09,-9.14452e-09,6.67143e-09,600.713,-600.838,-0.0750127,1.13183e-08,-1.13196e-08,-1.41328e-12
0.929975,0.3,0.227288,0.01,56.3281,45,478.969,-482.809,345.938,9.04075e-09,-9.0797e-09,6.51768e-09,590.472,-594.311,-0.290371,1.11415e-08,-1.11805e-08,-5.47077e-12
0.939975,0.3,0.236766,0.01,61.7821,45,472.107,-484.251,340.399,8.94758e-09,-9.07077e-09,6.41331e-09,580.892,-593.036,0.450633,1.09971e-08,-1.11203e-08,8.49019e-12
-0.940025,0.31,0.240125,0.01,63.5655,48.05,464.875,-474.859,-345.635,8.80193e-09,-8.90321e-09,-6.51196e-09,578.306,-588.289,1.67628,1.0939e-08,-1.10403e-08,3.15821e-11
-0.930025,0.31,0.230591,0.01,58.146,48.05,469.551,-471.987,-352.485,8.85721e-09,-8.88192e-09,-6.64102e-09,586.888,-589.324,0.464267,1.10679e-08,-1.10926e-08,8.74705e-12
-0.920025,0.31,0.221015,0.01,52.6797,48.05,475.049,-475.28,-361.241,8.95121e-09,-8.95355e-09,-6.80599e-09,596.774,-597.005,-0.0152011,1.12446e-08,-1.12469e-08,-2.86397e-13
-0.910025,0.31,0.211477,0.01,47.1659,48.05,481.989,-481.983,-371.485,9.08093e-09,-9.08087e-09,-6.999e-09,608.536,-608.53,9.50145e-06,1.14651e-08,-1.14651e-08,1.79013e-16
-0.900025,0.31,0.201985,0.01,41.6039,48.05,489.039,-489.033,-382.228,9.21375e-09,-9.21369e-09,-7.20139e-09,620.691,-620.686,9.96323e-06,1.16942e-08,-1.16941e-08,1.87713e-16
-0.890025,0.31,0.192544,0.01,35.9929,48.05,496.187,-496.182,-393.369,9.34843e-09,-9.34838e-09,-7.4113e-09,633.2,-633.194,1.04449e-05,1.19298e-08,-1.19298e-08,1.96788e-16
-0.880025,0.31,0.183162,0.01,30.3324,48.05,503.434,-503.428,-404.927,9.48496e-09,-9.4849e-09,-7.62906e-09,646.074,-646.069,1.09468e-05,1.21724e-08,-1.21723e-08,2.06244e-16
-0.870025,0.31,0.173849,0.01,24.6215,48.05,510.775,-510.77,-416.92,9.62328e-09,-9.62322e-09,-7.85501e-09,659.329,-659.323,1.14696e-05,1.24221e-08,-1.24221e-08,2.16094e-16
-0.860025,0.31,0.164617,0.01,18.8596,48.05,518.21,-518.205,-429.367,9.76335e-09,-9.7633e-09,-8.08952e-09,672.977,-672.972,1.20134e-05,1.26793e-08,-1.26792e-08,2.26339e-16
-0.850025,0.31,0.155062,0.01,13.0458,48.05,525.734,-525.729,-442.289,9.90511e-09,-9.90506e-09,-8.33298e-09,687.035,-687.03,1.25779e-05,1.29441e-08,-1.29441e-08,2.36974e-16
-0.840025,0.31,0.145547,0.01,7.17942,48.05,533.344,-533.34,-455.707,1.00485e-08,-1.00484e-08,-8.58579e-09,701.517,-701.512,1.31632e-05,1.3217e-08,-1.32169e-08,2.48002e-16
-0.830025,0.31,0.136102,0.01,1.25973,48.05,541.036,-541.032,-469.644,1.01934e-08,-1.01934e-08,-8.84837e-09,716.44,-716.436,1.37689e-05,1.34981e-08,-1.34981e-08,2.59415e-16
-0.820025,0.31,0.126742,0.01,-4.71407,48.05,548.805,-548.801,-484.123,1.03398e-08,-1.03398e-08,-9.12117e-09,731.822,-731.818,1.43947e-05,1.37879e-08,-1.37879e-08,2.71205e-16
-0.810025,0.31,0.117487,0.01,-10.7427,48.05,556.646,-556.642,-499.17,1.04875e-08,-1.04875e-08,-9.40464e-09,747.68,-747.676,1.50392e-05,1.40867e-08,-1.40867e-08,2.83347e-16
-0.800025,0.31,0.108365,0.01,-16.8271,48.05,564.55,-564.547,-514.809,1.06364e-08,-1.06364e-08,-9.69929e-09,764.033,-764.029,1.57012e-05,1.43948e-08,-1.43948e-08,2.9582e-16
-0.790025,0.31,0.0992073,0.01,-22.9679,48.05,572.512,-572.51,-531.068,1.07865e-08,-1.07864e-08,-1.00056e-08,780.9,-780.897,1.63797e-05,1.47126e-08,-1.47126e-08,3.08602e-16
-0.780025,0.31,0.0896462,0.01,-29.1659,48.05,580.523,-580.521,-547.976,1.09374e-08,-1.09374e-08,-1.03242e-08,798.301,-798.299,1.70723e-05,1.50405e-08,-1.50404e-08,3.21652e-16
-0.770025,0.31,0.0801923,0.01,-35.422,48.05,588.573,-588.571,-565.563,1.1089e-08,-1.1089e-08,-1.06555e-08,816.26,-816.258,1.77737e-05,1.53788e-08,-1.53788e-08,3.34867e-16
-0.760025,0.31,0.0708884,0.01,-41.737,48.05,596.651,-596.65,-583.86,1.12412e-08,-1.12412e-08,-1.10003e-08,834.796,-834.795,1.84065e-05,1.5728e-08,-1.5728e-08,3.46789e-16
-0.750025,0.31,0.0618024,0.01,-48.1116,48.05,604.744,-604.744,-602.901,1.13937e-08,-1.13937e-08,-1.1359e-08,853.935,-853.935,1.71334e-05,1.60886e-08,-1.60886e-08,3.22803e-16
-0.740025,0.31,0.0530462,0.01,-54.5467,48.05,612.841,-612.841,-622.72,1.15463e-08,-1.15463e-08,-1.17324e-08,873.701,-873.701,1.53865e-05,1.6461e-08,-1.6461e-08,2.8989e-16
-0.730025,0.31,0.0440246,0.01,-61.0431,48.05,620.926,-620.925,-643.352,1.16986e-08,-1.16986e-08,-1.21211e-08,894.12,-894.12,0.00106802,1.68457e-08,-1.68457e-08,2.01221e-14
-0.720025,0.31,0.0343114,0.01,-67.6016,48.05,628.997,-629.013,-664.839,1.18507e-08,-1.18509e-08,-1.25259e-08,915.229,-915.244,0.0201883,1.72435e-08,-1.72437e-08,3.8036e-13
-0.710025,0.31,0.0248269,0.01,-74.2229,48.05,637.061,-633.642,-684.287,1.19877e-08,-1.19531e-08,-1.28924e-08,935.476,-932.057,0.797077,1.761e-08,-1.75754e-08,1.50174e-11
-0.700025,0.31,0.0159837,0.01,-80.908,48.05,644.544,-637.025,-702.529,1.21109e-08,-1.20346e-08,-1.32361e-08,954.625,-947.107,2.31991,1.7953e-08,-1.78767e-08,4.37084e-11
-0.690025,0.31,0.0097253,0.01,-87.6584,48.05,647.543,-641.512,-725.563,1.21739e-08,-1.21127e-08,-1.367e-08,973.509,-967.478,-0.000153741,1.83153e-08,-1.82541e-08,-2.89658e-15
0.689975,0.31,0.00970984,0.01,-87.6921,48.05,647.563,-641.773,725.777,1.21753e-08,-1.21165e-08,1.36741e-08,973.642,-967.851,-0.015014,1.83188e-08,-1.82601e-08,-2.82873e-13
0.699975,0.31,0.0159431,0.01,-80.9414,48.05,644.576,-637.145,702.675,1.21119e-08,-1.20365e-08,1.32388e-08,954.741,-947.31,-2.32831,1.79556e-08,-1.78802e-08,-4.38667e-11
0.709975,0.31,0.0247807,0.01,-74.256,48.05,637.104,-633.701,684.406,1.19886e-08,-1.19541e-08,1.28946e-08,935.59,-932.187,-0.801079,1.76123e-08,-1.75777e-08,-1.50928e-11
0.719975,0.31,0.0342635,0.01,-67.6343,48.05,629.037,-629.054,664.948,1.18515e-08,-1.18517e-08,1.2528e-08,915.336,-915.352,-0.020493,1.72455e-08,-1.72457e-08,-3.86099e-13
0.729975,0.31,0.043976,0.01,-61.0756,48.05,620.966,-620.965,643.457,1.16994e-08,-1.16993e-08,1.21231e-08,894.224,-894.223,-0.00108775,1.68477e-08,-1.68477e-08,-2.04938e-14
0.739975,0.31,0.0530037,0.01,-54.5789,48.05,612.881,-612.881,622.82,1.1547e-08,-1.1547e-08,1.17343e-08,873.801,-873.801,-1.56183e-05,1.64629e-08,-1.64629e-08,-2.94258e-16
0.749975,0.31,0.0617579,0.01,-48.1435,48.05,604.785,-604.785,602.997,1.13945e-08,-1.13945e-08,1.13608e-08,854.032,-854.032,-1.71088e-05,1.60905e-08,-1.60905e-08,-3.22341e-16
0.759975,0.31,0.0708426,0.01,-41.7685,48.05,596.691,-596.69,583.953,1.1242e-08,-1.1242e-08,1.1002e-08,834.89,-834.889,-1.84083e-05,1.57298e-08,-1.57298e-08,-3.46823e-16
0.769975,0.31,0.0801456,0.01,-35.4533,48.05,588.613,-588.611,565.652,1.10898e-08,-1.10898e-08,1.06572e-08,816.35,-816.349,-1.77767e-05,1.53805e-08,-1.53805e-08,-3.34923e-16
0.779975,0.31,0.0895989,0.01,-29.1969,48.05,580.563,-580.561,548.062,1.09381e-08,-1.09381e-08,1.03258e-08,798.389,-798.387,-1.70757e-05,1.50421e-08,-1.50421e-08,-3.21717e-16
0.789975,0.31,0.0991595,0.01,-22.9986,48.05,572.552,-572.549,531.15,1.07872e-08,-1.07872e-08,1.00072e-08,780.985,-780.982,-1.63831e-05,1.47142e-08,-1.47142e-08,-3.08666e-16
0.799975,0.31,0.10832,0.01,-16.8575,48.05,564.59,-564.587,514.888,1.06372e-08,-1.06372e-08,9.70079e-09,764.115,-764.112,-1.57047e-05,1.43964e-08,-1.43963e-08,-2.95886e-16
0.809975,0.31,0.117441,0.01,-10.7729,48.05,556.685,-556.681,499.246,1.04882e-08,-1.04882e-08,9.40608e-09,747.76,-747.756,-1.50425e-05,1.40882e-08,-1.40882e-08,-2.8341e-16
0.819975,0.31,0.126695,0.01,-4.74391,48.05,548.844,-548.84,484.197,1.03405e-08,-1.03405e-08,9.12255e-09,731.9,-731.896,-1.43976e-05,1.37894e-08,-1.37894e-08,-2.7126e-16
0.829975,0.31,0.136055,0.01,1.23016,48.05,541.075,-541.07,469.715,1.01941e-08,-1.01941e-08,8.8497e-09,716.516,-716.511,-1.3772e-05,1.34996e-08,-1.34995e-08,-2.59472e-16
0.839975,0.31,0.1455,0.01,7.15011,48.05,533.382,-533.378,455.775,1.00492e-08,-1.00492e-08,8.58707e-09,701.59,-701.585,-1.31662e-05,1.32183e-08,-1.32183e-08,-2.48058e-16
0.849975,0.31,0.155014,0.01,13.0167,48.05,525.772,-525.767,442.355,9.90582e-09,-9.90577e-09,8.33422e-09,687.106,-687.101,-1.2581e-05,1.29454e-08,-1.29454e-08,-2.37033e-16
0.859975,0.31,0.164572,0.01,18.8308,48.05,518.247,-518.242,429.43,9.76405e-09,-9.764e-09,8.09071e-09,673.046,-673.041,-1.20165e-05,1.26806e-08,-1.26805e-08,-2.26398e-16
0.869975,0.31,0.173803,0.01,24.593,48.05,510.812,-510.807,416.98,9.62397e-09,-9.62392e-09,7.85615e-09,659.395,-659.39,-1.14725e-05,1.24234e-08,-1.24233e-08,-2.16148e-16
0.879975,0.31,0.183116,0.01,30.3041,48.05,503.47,-503.464,404.985,9.48564e-09,-9.48559e-09,7.63016e-09,646.139,-646.134,-1.09494e-05,1.21736e-08,-1.21736e-08,-2.06294e-16
0.889975,0.31,0.192497,0.01,35.9649,48.05,496.223,-496.218,393.426,9.34911e-09,-9.34905e-09,7.41236e-09,633.263,-633.257,-1.04471e-05,1.1931e-08,-1.1931e-08,-1.9683e-16
0.899975,0.31,0.201938,0.01,41.5761,48.05,489.074,-489.068,382.282,9.21441e-09,-9.21435e-09,7.20242e-09,620.753,-620.747,-9.96532e-06,1.16953e-08,-1.16953e-08,-1.87752e-16
0.909975,0.31,0.21143,0.01,47.1383,48.05,482.024,-482.018,371.538,9.08159e-09,-9.08153e-09,6.99999e-09,608.595,-608.589,-9.50393e-06,1.14663e-08,-1.14662e-08,-1.7906e-16
0.919975,0.31,0.220967,0.01,52.6524,48.05,475.084,-475.315,361.292,8.95185e-09,-8.9542e-09,6.80694e-09,596.832,-597.063,0.0152229,1.12457e-08,-1.1248e-08,2.86808e-13
0.929975,0.31,0.230543,0.01,58.1189,48.05,469.585,-472.021,352.534,8.85785e-09,-8.88256e-09,6.64194e-09,586.945,-589.381,-0.464218,1.1069e-08,-1.10937e-08,-8.74613e-12
0.939975,0.31,0.240078,0.01,63.5387,48.05,464.909,-474.894,345.683,8.80257e-09,-8.90387e-09,6.51286e-09,578.361,-588.346,-1.67639,1.09401e-08,-1.10414e-08,-3.15842e-11
-0.940025,0.32,0.243099,0.01,65.368,51.2,457.315,-456.992,-353.566,8.61467e-09,-8.61139e-09,-6.66138e-09,578.086,-577.762,-1.20806,1.08901e-08,-1.08868e-08,-2.27606e-11
-0.930025,0.32,0.233607,0.01,59.9835,51.2,458.99,-463.494,-361.604,8.66722e-09,-8.71291e-09,-6.81282e-09,583.837,-588.34,-1.24161,1.10194e-08,-1.10651e-08,-2.33926e-11
-0.920025,0.32,0.22416,0.01,54.5531,51.2,464.947,-466.774,-369.19,8.76781e-09,-8.78634e-09,-6.95575e-09,593.499,-595.326,-0.408924,1.11898e-08,-1.12083e-08,-7.70437e-12
-0.910025,0.32,0.214762,0.01,49.0763,51.2,471.396,-471.4,-378.299,8.88138e-09,-8.88143e-09,-7.12738e-09,604.42,-604.424,0.000619126,1.13876e-08,-1.13877e-08,1.16647e-14
-0.900025,0.32,0.205422,0.01,43.5523,51.2,478.052,-478.048,-389.128,9.00676e-09,-9.00672e-09,-7.3314e-09,616.405,-616.4,9.39813e-06,1.16134e-08,-1.16134e-08,1.77066e-16
-0.890025,0.32,0.196146,0.01,37.9805,51.2,484.795,-484.79,-400.359,9.13379e-09,-9.13374e-09,-7.543e-09,628.74,-628.735,9.82979e-06,1.18458e-08,-1.18458e-08,1.85199e-16
-0.880025,0.32,0.18668,0.01,32.3602,51.2,491.616,-491.612,-412.004,9.26232e-09,-9.26227e-09,-7.7624e-09,641.432,-641.427,1.02779e-05,1.20849e-08,-1.20849e-08,1.93641e-16
-0.870025,0.32,0.17717,0.01,26.6908,51.2,498.515,-498.511,-424.082,9.39229e-09,-9.39225e-09,-7.98994e-09,654.494,-654.49,1.07425e-05,1.2331e-08,-1.2331e-08,2.02395e-16
-0.860025,0.32,0.167716,0.01,20.9715,51.2,505.486,-505.483,-436.61,9.52364e-09,-9.5236e-09,-8.22599e-09,667.941,-667.937,1.1223e-05,1.25844e-08,-1.25843e-08,2.11448e-16
-0.850025,0.32,0.158331,0.01,15.2016,51.2,512.527,-512.524,-449.61,9.6563e-09,-9.65626e-09,-8.47091e-09,681.787,-681.783,1.17186e-05,1.28452e-08,-1.28452e-08,2.20786e-16
-0.840025,0.32,0.149025,0.01,9.38056,51.2,519.633,-519.629,-463.101,9.79017e-09,-9.79013e-09,-8.72509e-09,696.047,-696.043,1.2229e-05,1.31139e-08,-1.31139e-08,2.30402e-16
-0.830025,0.32,0.139815,0.01,3.5075,51.2,526.797,-526.794,-477.106,9.92515e-09,-9.92512e-09,-8.98895e-09,710.736,-710.733,1.27537e-05,1.33907e-08,-1.33906e-08,2.40287e-16
-0.820025,0.32,0.130721,0.01,-2.41823,51.2,534.015,-534.012,-491.647,1.00611e-08,-1.00611e-08,-9.26291e-09,725.871,-725.868,1.32918e-05,1.36758e-08,-1.36758e-08,2.50426e-16
-0.810025,0.32,0.121268,0.01,-8.39737,51.2,541.279,-541.276,-506.748,1.0198e-08,-1.0198e-08,-9.54743e-09,741.469,-741.467,1.38417e-05,1.39697e-08,-1.39697e-08,2.60786e-16
-0.800025,0.32,0.111805,0.01,-14.4306,51.2,548.581,-548.579,-522.435,1.03356e-08,-1.03356e-08,-9.84298e-09,757.549,-757.547,1.44015e-05,1.42726e-08,-1.42726e-08,2.71332e-16
-0.790025,0.32,0.102444,0.01,-20.5187,51.2,555.913,-555.912,-538.733,1.04737e-08,-1.04737e-08,-1.015e-08,774.127,-774.126,1.49691e-05,1.4585e-08,-1.4585e-08,2.82027e-16
-0.780025,0.32,0.0932151,0.01,-26.6625,51.2,563.265,-563.265,-555.671,1.06122e-08,-1.06122e-08,-1.04692e-08,791.225,-791.225,1.55424e-05,1.49071e-08,-1.49071e-08,2.92828e-16
-0.770025,0.32,0.0841631,0.01,-32.8625,51.2,570.626,-570.626,-573.276,1.07509e-08,-1.07509e-08,-1.08008e-08,808.863,-808.863,1.61198e-05,1.52395e-08,-1.52395e-08,3.03707e-16
-0.760025,0.32,0.0753511,0.01,-39.1196,51.2,577.984,-577.985,-591.579,1.08896e-08,-1.08896e-08,-1.11457e-08,827.062,-827.063,1.67358e-05,1.55823e-08,-1.55823e-08,3.15312e-16
-0.750025,0.32,0.0659143,0.01,-45.4345,51.2,585.324,-585.326,-610.612,1.10279e-08,-1.10279e-08,-1.15043e-08,845.844,-845.845,1.81403e-05,1.59362e-08,-1.59362e-08,3.41774e-16
-0.740025,0.32,0.0564251,0.01,-51.8079,51.2,592.632,-592.635,-630.408,1.11655e-08,-1.11656e-08,-1.18772e-08,865.232,-865.235,2.16423e-05,1.63015e-08,-1.63015e-08,4.07754e-16
-0.730025,0.32,0.0471476,0.01,-58.2406,51.2,599.89,-599.895,-651.001,1.13023e-08,-1.13023e-08,-1.22652e-08,885.251,-885.256,-0.000295246,1.66787e-08,-1.66787e-08,-5.5626e-15
-0.720025,0.32,0.0382361,0.01,-64.7333,51.2,607.071,-607.073,-672.425,1.14376e-08,-1.14376e-08,-1.26689e-08,905.919,-905.921,-0.00711967,1.7068e-08,-1.70681e-08,-1.34139e-13
-0.710025,0.32,0.0300184,0.01,-71.2867,51.2,614.338,-614.048,-694.55,1.15732e-08,-1.15703e-08,-1.30857e-08,927.309,-927.019,0.121681,1.74698e-08,-1.74668e-08,2.29254e-12
-0.700025,0.32,0.0213209,0.01,-77.9015,51.2,619.39,-614.919,-714.925,1.16502e-08,-1.16049e-08,-1.34696e-08,946.692,-942.22,-1.07182,1.78168e-08,-1.77714e-08,-2.01937e-11
-0.690025,0.32,0.011344,0.01,-84.5783,51.2,620.591,-614.73,-731.249,1.16668e-08,-1.16073e-08,-1.37772e-08,960.129,-954.268,-0.906246,1.80639e-08,-1.80044e-08,-1.70742e-11
0.689975,0.32,0.0112944,0.01,-84.6117,51.2,620.537,-614.943,731.419,1.1667e-08,-1.16102e-08,1.37804e-08,960.177,-954.583,0.902654,1.8066e-08,-1.80092e-08,1.70065e-11
0.699975,0.32,0.0212712,0.01,-77.9346,51.2,619.418,-614.996,715.061,1.1651e-08,-1.16061e-08,1.34722e-08,946.804,-942.382,1.06948,1.78191e-08,-1.77742e-08,2.01497e-11
0.709975,0.32,0.0299802,0.01,-71.3195,51.2,614.374,-614.09,694.67,1.15739e-08,-1.1571e-08,1.3088e-08,927.421,-927.138,-0.119927,1.74719e-08,-1.7469e-08,-2.25949e-12
0.719975,0.32,0.0381931,0.01,-64.7658,51.2,607.106,-607.108,672.533,1.14382e-08,-1.14383e-08,1.26709e-08,906.023,-906.025,0.00720172,1.707e-08,-1.707e-08,1.35685e-13
0.729975,0.32,0.0471022,0.01,-58.2728,51.2,599.926,-599.931,651.105,1.1303e-08,-1.1303e-08,1.22672e-08,885.352,-885.357,0.000301412,1.66806e-08,-1.66806e-08,5.67877e-15
0.739975,0.32,0.0563784,0.01,-51.8398,51.2,592.669,-592.671,630.508,1.11662e-08,-1.11663e-08,1.18791e-08,865.33,-865.333,-2.16004e-05,1.63033e-08,-1.63034e-08,-4.06965e-16
0.749975,0.32,0.0658667,0.01,-45.4661,51.2,585.361,-585.363,610.709,1.10285e-08,-1.10286e-08,1.15061e-08,845.938,-845.94,-1.81545e-05,1.5938e-08,-1.5938e-08,-3.42041e-16
0.759975,0.32,0.075308,0.01,-39.1509,51.2,578.02,-578.021,591.672,1.08902e-08,-1.08903e-08,1.11474e-08,827.154,-827.155,-1.67391e-05,1.55841e-08,-1.55841e-08,-3.15375e-16
0.769975,0.32,0.0841186,0.01,-32.8935,51.2,570.663,-570.663,573.365,1.07516e-08,-1.07516e-08,1.08025e-08,808.952,-808.952,-1.61224e-05,1.52411e-08,-1.52411e-08,-3.03756e-16
0.779975,0.32,0.0931696,0.01,-26.6932,51.2,563.302,-563.301,555.756,1.06129e-08,-1.06129e-08,1.04708e-08,791.312,-791.311,-1.55451e-05,1.49088e-08,-1.49088e-08,-2.92879e-16
0.789975,0.32,0.102397,0.01,-20.5492,51.2,555.95,-555.949,538.816,1.04744e-08,-1.04744e-08,1.01516e-08,774.211,-774.21,-1.4972e-05,1.45866e-08,-1.45866e-08,-2.8208e-16
0.799975,0.32,0.111758,0.01,-14.4608,51.2,548.617,-548.616,522.514,1.03363e-08,-1.03362e-08,9.84447e-09,757.63,-757.628,-1.44044e-05,1.42742e-08,-1.42742e-08,-2.71387e-16
0.809975,0.32,0.121221,0.01,-8.42723,51.2,541.315,-541.313,506.825,1.01987e-08,-1.01987e-08,9.54887e-09,741.548,-741.546,-1.38446e-05,1.39712e-08,-1.39712e-08,-2.6084e-16
0.819975,0.32,0.130676,0.01,-2.44783,51.2,534.051,-534.048,491.721,1.00618e-08,-1.00618e-08,9.2643e-09,725.948,-725.945,-1.32946e-05,1.36773e-08,-1.36772e-08,-2.50477e-16
0.829975,0.32,0.139769,0.01,3.47816,51.2,526.833,-526.83,477.177,9.92582e-09,-9.92579e-09,8.99029e-09,710.81,-710.807,-1.27565e-05,1.33921e-08,-1.3392e-08,-2.4034e-16
0.839975,0.32,0.148979,0.01,9.35148,51.2,519.668,-519.665,463.169,9.79083e-09,-9.7908e-09,8.72638e-09,696.119,-696.115,-1.22318e-05,1.31153e-08,-1.31152e-08,-2.30454e-16
0.849975,0.32,0.158284,0.01,15.1728,51.2,512.562,-512.559,449.676,9.65696e-09,-9.65692e-09,8.47215e-09,681.857,-681.853,-1.17211e-05,1.28466e-08,-1.28465e-08,-2.20832e-16
0.859975,0.32,0.16767,0.01,20.9429,51.2,505.521,-505.517,436.674,9.5243e-09,-9.52426e-09,8.22719e-09,668.009,-668.005,-1.12253e-05,1.25857e-08,-1.25856e-08,-2.11491e-16
0.869975,0.32,0.177122,0.01,26.6624,51.2,498.549,-498.545,424.143,9.39294e-09,-9.3929e-09,7.9911e-09,654.56,-654.556,-1.07447e-05,1.23323e-08,-1.23322e-08,-2.02437e-16
0.879975,0.32,0.186632,0.01,32.3321,51.2,491.65,-491.646,412.063,9.26296e-09,-9.26292e-09,7.76351e-09,641.496,-641.491,-1.028e-05,1.20861e-08,-1.20861e-08,-1.93682e-16
0.889975,0.32,0.1961,0.01,37.9526,51.2,484.828,-484.824,400.416,9.13443e-09,-9.13438e-09,7.54407e-09,628.802,-628.797,-9.83174e-06,1.1847e-08,-1.18469e-08,-1.85236e-16
0.899975,0.32,0.205375,0.01,43.5247,51.2,478.086,-478.081,389.183,9.00739e-09,-9.00734e-09,7.33243e-09,616.466,-616.461,-9.3997e-06,1.16146e-08,-1.16145e-08,-1.77096e-16
0.909975,0.32,0.214716,0.01,49.0489,51.2,471.428,-471.433,378.352,8.882e-09,-8.88205e-09,7.12838e-09,604.479,-604.483,-0.000619533,1.13888e-08,-1.13888e-08,-1.16724e-14
0.919975,0.32,0.224113,0.01,54.526,51.2,464.979,-466.807,369.241,8.76842e-09,-8.78696e-09,6.95671e-09,593.557,-595.384,0.408961,1.11909e-08,-1.12094e-08,7.70507e-12
0.929975,0.32,0.23356,0.01,59.9566,51.2,459.022,-463.527,361.654,8.66782e-09,-8.71352e-09,6.81377e-09,583.893,-588.397,1.24191,1.10205e-08,-1.10662e-08,2.33983e-11
0.939975,0.32,0.243052,0.01,65.3413,51.2,457.347,-457.024,353.614,8.61527e-09,-8.612e-09,6.6623e-09,578.141,-577.818,1.20863,1.08911e-08,-1.08878e-08,2.27713e-11
-0.930025,0.33,0.237007,0.01,61.8668,54.45,449.24,-461.518,-370.232,8.51733e-09,-8.64189e-09,-6.97539e-09,580.753,-593.031,-0.403977,1.09951e-08,-1.11197e-08,-7.61117e-12
-0.920025,0.33,0.227701,0.01,56.473,54.45,455.403,-459.207,-375.992,8.59659e-09,-8.63518e-09,-7.08391e-09,590.126,-593.93,0.389114,1.11349e-08,-1.11735e-08,7.33114e-12
-0.910025,0.33,0.218299,0.01,51.0338,54.45,460.771,-460.882,-384.728,8.68168e-09,-8.6828e-09,-7.24849e-09,600.258,-600.369,0.0709506,1.13097e-08,-1.13108e-08,1.33675e-12
-0.900025,0.33,0.208792,0.01,45.5485,54.45,466.984,-466.98,-395.631,8.79823e-09,-8.79819e-09,-7.45393e-09,612.045,-612.041,8.82491e-06,1.15313e-08,-1.15312e-08,1.66266e-16
-0.890025,0.33,0.199334,0.01,40.0165,54.45,473.322,-473.318,-406.935,8.91764e-09,-8.91761e-09,-7.66689e-09,624.204,-624.2,9.20834e-06,1.17603e-08,-1.17603e-08,1.73491e-16
-0.880025,0.33,0.189931,0.01,34.4372,54.45,479.722,-479.719,-418.65,9.03823e-09,-9.0382e-09,-7.8876e-09,636.711,-636.708,9.60409e-06,1.1996e-08,-1.1996e-08,1.80947e-16
-0.870025,0.33,0.180592,0.01,28.8099,54.45,486.181,-486.178,-430.793,9.15992e-09,-9.15989e-09,-8.11638e-09,649.58,-649.577,1.00115e-05,1.22385e-08,-1.22384e-08,1.88622e-16
-0.860025,0.33,0.171328,0.01,23.1339,54.45,492.694,-492.691,-443.383,9.28263e-09,-9.2826e-09,-8.35359e-09,662.824,-662.821,1.04304e-05,1.2488e-08,-1.2488e-08,1.96515e-16
-0.850025,0.33,0.162151,0.01,17.4088,54.45,499.256,-499.254,-456.439,9.40626e-09,-9.40624e-09,-8.59957e-09,676.457,-676.454,1.08601e-05,1.27448e-08,-1.27448e-08,2.04611e-16
-0.840025,0.33,0.15289,0.01,11.6337,54.45,505.862,-505.86,-469.981,9.53072e-09,-9.5307e-09,-8.85472e-09,690.492,-690.49,1.12993e-05,1.30093e-08,-1.30092e-08,2.12886e-16
-0.830025,0.33,0.143422,0.01,5.80795,54.45,512.505,-512.503,-484.031,9.65588e-09,-9.65586e-09,-9.11943e-09,704.945,-704.943,1.17469e-05,1.32816e-08,-1.32815e-08,2.21319e-16
-0.820025,0.33,0.134031,0.01,-0.0689939,54.45,519.178,-519.177,-498.61,9.78161e-09,-9.78159e-09,-9.39411e-09,719.832,-719.831,1.22016e-05,1.3562e-08,-1.3562e-08,2.29885e-16
-0.810025,0.33,0.124734,0.01,-5.99786,54.45,525.873,-525.872,-513.742,9.90775e-09,-9.90774e-09,-9.67919e-09,735.169,-735.168,1.2662e-05,1.3851e-08,-1.3851e-08,2.38559e-16
-0.800025,0.33,0.115555,0.01,-11.9793,54.45,532.582,-532.582,-529.45,1.00341e-08,-1.00341e-08,-9.97514e-09,750.973,-750.973,1.31255e-05,1.41488e-08,-1.41488e-08,2.47292e-16
-0.790025,0.33,0.106524,0.01,-18.014,54.45,539.294,-539.294,-545.76,1.01606e-08,-1.01606e-08,-1.02824e-08,767.262,-767.263,1.35895e-05,1.44557e-08,-1.44557e-08,2.56034e-16
-0.780025,0.33,0.09753,0.01,-24.1027,54.45,545.998,-546,-562.697,1.02869e-08,-1.02869e-08,-1.06015e-08,784.055,-784.056,1.40512e-05,1.47721e-08,-1.47721e-08,2.64733e-16
-0.770025,0.33,0.088041,0.01,-30.2459,54.45,552.683,-552.685,-580.291,1.04129e-08,-1.04129e-08,-1.0933e-08,801.371,-801.373,1.45074e-05,1.50983e-08,-1.50983e-08,2.73328e-16
-0.760025,0.33,0.0786785,0.01,-36.4444,54.45,559.334,-559.337,-598.569,1.05382e-08,-1.05382e-08,-1.12774e-08,819.23,-819.233,1.49386e-05,1.54348e-08,-1.54348e-08,2.81452e-16
-0.750025,0.33,0.069494,0.01,-42.6989,54.45,565.936,-565.94,-617.561,1.06626e-08,-1.06626e-08,-1.16352e-08,837.654,-837.658,1.50191e-05,1.57819e-08,-1.57819e-08,2.82968e-16
-0.740025,0.33,0.0605683,0.01,-49.0099,54.45,572.473,-572.478,-637.299,1.07858e-08,-1.07858e-08,-1.20071e-08,856.665,-856.67,1.30858e-05,1.61401e-08,-1.61401e-08,2.46545e-16
-0.730025,0.33,0.0520348,0.01,-55.3782,54.45,578.927,-578.932,-657.816,1.09073e-08,-1.09074e-08,-1.23936e-08,876.285,-876.291,9.95762e-05,1.65097e-08,-1.65098e-08,1.87607e-15
-0.720025,0.33,0.042749,0.01,-61.8043,54.45,585.279,-585.285,-679.145,1.1027e-08,-1.10271e-08,-1.27955e-08,896.542,-896.548,0.00238327,1.68914e-08,-1.68915e-08,4.49021e-14
-0.710025,0.33,0.0331901,0.01,-68.289,54.45,591.487,-591.561,-701.345,1.11443e-08,-1.1145e-08,-1.32137e-08,917.451,-917.526,0.0026446,1.72856e-08,-1.72864e-08,4.98259e-14
-0.700025,0.33,0.0239934,0.01,-74.8329,54.45,597.577,-594.993,-721.784,1.12475e-08,-1.12212e-08,-1.35988e-08,937.522,-934.938,0.662129,1.76522e-08,-1.7626e-08,1.24749e-11
-0.690025,0.33,0.0158047,0.01,-81.4365,54.45,603.17,-598.806,-741.276,1.13451e-08,-1.13008e-08,-1.39661e-08,956.473,-952.109,2.52607,1.80015e-08,-1.79573e-08,4.75926e-11
-0.680025,0.33,0.0111307,0.01,-88.1021,54.45,604.352,-606.369,-768.007,1.13951e-08,-1.14156e-08,-1.44697e-08,976.895,-978.912,0.314231,1.8414e-08,-1.84345e-08,5.9203e-12
0.679975,0.33,0.0111251,0.01,-88.1354,54.45,604.34,-606.661,768.288,1.13962e-08,-1.14198e-08,1.4475e-08,977.051,-979.372,-0.305738,1.84183e-08,-1.84418e-08,-5.76029e-12
0.689975,0.33,0.0157692,0.01,-81.4695,54.45,603.183,-598.937,741.445,1.13459e-08,-1.13028e-08,1.39693e-08,956.59,-952.344,-2.52924,1.80042e-08,-1.79612e-08,-4.76523e-11
0.699975,0.33,0.0239493,0.01,-74.8656,54.45,597.606,-595.049,721.913,1.12481e-08,-1.12222e-08,1.36013e-08,937.635,-935.078,-0.664376,1.76545e-08,-1.76285e-08,-1.25172e-11
0.709975,0.33,0.0331432,0.01,-68.3214,54.45,591.517,-591.593,701.458,1.11449e-08,-1.11456e-08,1.32159e-08,917.557,-917.633,-0.00245414,1.72876e-08,-1.72884e-08,-4.62375e-14
0.719975,0.33,0.0427009,0.01,-61.8365,54.45,585.31,-585.317,679.253,1.10276e-08,-1.10277e-08,1.27975e-08,896.644,-896.651,-0.00241394,1.68933e-08,-1.68934e-08,-4.548e-14
0.729975,0.33,0.0519937,0.01,-55.41,54.45,578.959,-578.964,657.92,1.09079e-08,-1.0908e-08,1.23956e-08,876.384,-876.39,-0.000101379,1.65116e-08,-1.65117e-08,-1.91003e-15
0.739975,0.33,0.0605248,0.01,-49.0414,54.45,572.506,-572.511,637.399,1.07864e-08,-1.07864e-08,1.2009e-08,856.761,-856.766,-1.30814e-05,1.61419e-08,-1.61419e-08,-2.46461e-16
0.749975,0.33,0.0694489,0.01,-42.7301,54.45,565.969,-565.973,617.657,1.06632e-08,-1.06632e-08,1.1637e-08,837.747,-837.751,-1.50163e-05,1.57837e-08,-1.57837e-08,-2.82915e-16
0.759975,0.33,0.0786324,0.01,-36.4754,54.45,559.367,-559.37,598.661,1.05388e-08,-1.05388e-08,1.12791e-08,819.321,-819.323,-1.4941e-05,1.54365e-08,-1.54365e-08,-2.81496e-16
0.769975,0.33,0.087994,0.01,-30.2766,54.45,552.716,-552.718,580.38,1.04135e-08,-1.04135e-08,1.09347e-08,801.458,-801.46,-1.45098e-05,1.51e-08,-1.51e-08,-2.73374e-16
0.779975,0.33,0.0974826,0.01,-24.1331,54.45,546.032,-546.033,562.783,1.02876e-08,-1.02876e-08,1.06032e-08,784.14,-784.141,-1.40535e-05,1.47737e-08,-1.47737e-08,-2.64777e-16
0.789975,0.33,0.106479,0.01,-18.0442,54.45,539.327,-539.328,545.842,1.01612e-08,-1.01612e-08,1.0284e-08,767.345,-767.345,-1.35917e-05,1.44572e-08,-1.44572e-08,-2.56075e-16
0.799975,0.33,0.11551,0.01,-12.0092,54.45,532.615,-532.615,529.529,1.00348e-08,-1.00348e-08,9.97664e-09,751.053,-751.053,-1.31279e-05,1.41503e-08,-1.41503e-08,-2.47338e-16
0.809975,0.33,0.124688,0.01,-6.02748,54.45,525.906,-525.906,513.818,9.90838e-09,-9.90837e-09,9.68064e-09,735.246,-735.246,-1.26647e-05,1.38525e-08,-1.38525e-08,-2.3861e-16
0.819975,0.33,0.133984,0.01,-0.0983495,54.45,519.211,-519.21,498.684,9.78223e-09,-9.78222e-09,9.3955e-09,719.907,-719.906,-1.2204e-05,1.35635e-08,-1.35634e-08,-2.29931e-16
0.829975,0.33,0.143375,0.01,5.77886,54.45,512.538,-512.536,484.102,9.6565e-09,-9.65648e-09,9.12077e-09,705.018,-705.016,-1.17489e-05,1.32829e-08,-1.32829e-08,-2.21356e-16
0.839975,0.33,0.152843,0.01,11.6048,54.45,505.895,-505.893,470.05,9.53134e-09,-9.53132e-09,8.85601e-09,690.563,-690.56,-1.13013e-05,1.30106e-08,-1.30106e-08,-2.12922e-16
0.849975,0.33,0.162106,0.01,17.3802,54.45,499.289,-499.286,456.505,9.40688e-09,-9.40685e-09,8.60082e-09,676.525,-676.523,-1.0862e-05,1.27461e-08,-1.27461e-08,-2.04647e-16
0.859975,0.33,0.171282,0.01,23.1056,54.45,492.727,-492.724,443.446,9.28324e-09,-9.28321e-09,8.35479e-09,662.891,-662.888,-1.04326e-05,1.24892e-08,-1.24892e-08,-1.96556e-16
0.869975,0.33,0.180546,0.01,28.7818,54.45,486.213,-486.21,430.854,9.16053e-09,-9.1605e-09,8.11754e-09,649.645,-649.642,-1.00137e-05,1.22397e-08,-1.22397e-08,-1.88663e-16
0.879975,0.33,0.189884,0.01,34.4093,54.45,479.754,-479.751,418.709,9.03883e-09,-9.0388e-09,7.88872e-09,636.774,-636.771,-9.60563e-06,1.19972e-08,-1.19972e-08,-1.80976e-16
0.889975,0.33,0.199287,0.01,39.9889,54.45,473.354,-473.35,406.992,8.91824e-09,-8.9182e-09,7.66797e-09,624.265,-624.261,-9.20976e-06,1.17615e-08,-1.17615e-08,-1.73517e-16
0.899975,0.33,0.208745,0.01,45.5211,54.45,467.015,-467.011,395.687,8.79882e-09,-8.79878e-09,7.45497e-09,612.104,-612.101,-8.82645e-06,1.15324e-08,-1.15323e-08,-1.66295e-16
0.909975,0.33,0.218252,0.01,51.0066,54.45,460.802,-460.913,384.781,8.68226e-09,-8.68339e-09,7.2495e-09,600.316,-600.427,-0.070958,1.13108e-08,-1.13119e-08,-1.33689e-12
0.919975,0.33,0.227655,0.01,56.4461,54.45,455.434,-459.238,376.044,8.59717e-09,-8.63577e-09,7.08488e-09,590.183,-593.987,-0.38922,1.11359e-08,-1.11745e-08,-7.33313e-12
0.929975,0.33,0.236961,0.01,61.8401,54.45,449.271,-461.55,370.283,8.51791e-09,-8.64248e-09,6.97635e-09,580.808,-593.088,0.404007,1.09962e-08,-1.11207e-08,7.61172e-12
-0.930025,0.34,0.240415,0.01,63.7949,57.8,441.303,-450.881,-374.664,8.35604e-09,-8.45321e-09,-7.05889e-09,577.765,-587.343,1.38991,1.09271e-08,-1.10242e-08,2.61867e-11
-0.920025,0.34,0.230953,0.01,58.4383,57.8,445.214,-447.549,-381.816,8.39824e-09,-8.42193e-09,-7.19363e-09,586.233,-588.568,0.223969,1.10551e-08,-1.10788e-08,4.21971e-12
-0.910025,0.34,0.221538,0.01,53.0374,57.8,449.937,-450.203,-390.937,8.47823e-09,-8.48093e-09,-7.36549e-09,596.017,-596.284,-0.0525712,1.12305e-08,-1.12332e-08,-9.90472e-13
-0.900025,0.34,0.212176,0.01,47.5914,57.8,455.85,-455.847,-401.741,8.58846e-09,-8.58843e-09,-7.56903e-09,607.614,-607.611,8.248e-06,1.14478e-08,-1.14478e-08,1.55397e-16
-0.890025,0.34,0.202876,0.01,42.0998,57.8,461.787,-461.784,-413.1,8.70032e-09,-8.7003e-09,-7.78304e-09,619.596,-619.593,8.58515e-06,1.16735e-08,-1.16735e-08,1.61749e-16
-0.880025,0.34,0.193645,0.01,36.5621,57.8,467.77,-467.767,-424.866,8.81304e-09,-8.81302e-09,-8.00473e-09,631.918,-631.916,8.93069e-06,1.19057e-08,-1.19057e-08,1.68259e-16
-0.870025,0.34,0.184494,0.01,30.9776,57.8,473.793,-473.791,-437.057,8.92653e-09,-8.92651e-09,-8.2344e-09,644.592,-644.59,9.28354e-06,1.21445e-08,-1.21445e-08,1.74907e-16
-0.860025,0.34,0.175041,0.01,25.3457,57.8,479.852,-479.851,-449.689,9.04069e-09,-9.04067e-09,-8.4724e-09,657.631,-657.629,9.6436e-06,1.23901e-08,-1.23901e-08,1.81691e-16
-0.850025,0.34,0.165631,0.01,19.6658,57.8,485.941,-485.94,-462.782,9.15541e-09,-9.15539e-09,-8.71908e-09,671.048,-671.047,1.00099e-05,1.26429e-08,-1.26429e-08,1.88593e-16
-0.840025,0.34,0.156295,0.01,13.9373,57.8,492.054,-492.053,-476.354,9.27057e-09,-9.27056e-09,-8.97479e-09,684.858,-684.857,1.03811e-05,1.29031e-08,-1.29031e-08,1.95586e-16
-0.830025,0.34,0.147046,0.01,8.15966,57.8,498.182,-498.181,-490.427,9.38603e-09,-9.38603e-09,-9.23993e-09,699.074,-699.073,1.07559e-05,1.3171e-08,-1.31709e-08,2.02647e-16
-0.820025,0.34,0.137902,0.01,2.33216,57.8,504.318,-504.318,-505.021,9.50165e-09,-9.50165e-09,-9.5149e-09,713.711,-713.711,1.11324e-05,1.34467e-08,-1.34467e-08,2.09741e-16
-0.810025,0.34,0.128884,0.01,-3.54577,57.8,510.454,-510.455,-520.159,9.61725e-09,-9.61726e-09,-9.8001e-09,728.786,-728.786,1.1509e-05,1.37307e-08,-1.37308e-08,2.16836e-16
-0.800025,0.34,0.11966,0.01,-9.47474,57.8,516.579,-516.58,-535.863,9.73265e-09,-9.73266e-09,-1.0096e-08,744.314,-744.315,1.18826e-05,1.40233e-08,-1.40233e-08,2.23875e-16
-0.790025,0.34,0.110262,0.01,-15.4554,57.8,522.682,-522.684,-552.158,9.84764e-09,-9.84766e-09,-1.0403e-08,760.312,-760.314,1.22505e-05,1.43247e-08,-1.43248e-08,2.30806e-16
-0.780025,0.34,0.100979,0.01,-21.4883,57.8,528.751,-528.754,-569.069,9.96199e-09,-9.96202e-09,-1.07216e-08,776.799,-776.802,1.26095e-05,1.46354e-08,-1.46354e-08,2.37571e-16
-0.770025,0.34,0.0918474,0.01,-27.574,57.8,534.773,-534.776,-586.622,1.00754e-08,-1.00755e-08,-1.10523e-08,793.792,-793.796,1.29562e-05,1.49555e-08,-1.49556e-08,2.44103e-16
-0.760025,0.34,0.0829159,0.01,-33.7133,57.8,540.732,-540.737,-604.844,1.01877e-08,-1.01878e-08,-1.13956e-08,811.312,-811.316,1.32901e-05,1.52856e-08,-1.52856e-08,2.50393e-16
-0.750025,0.34,0.0742573,0.01,-39.9066,57.8,546.614,-546.619,-623.764,1.02985e-08,-1.02986e-08,-1.17521e-08,829.377,-829.383,1.37307e-05,1.5626e-08,-1.5626e-08,2.58695e-16
-0.740025,0.34,0.0648103,0.01,-46.1546,57.8,552.398,-552.405,-643.412,1.04075e-08,-1.04076e-08,-1.21223e-08,848.01,-848.017,1.53772e-05,1.5977e-08,-1.59771e-08,2.89716e-16
-0.730025,0.34,0.0554479,0.01,-52.4578,57.8,558.066,-558.074,-663.818,1.05143e-08,-1.05144e-08,-1.25067e-08,867.231,-867.239,-3.17088e-06,1.63392e-08,-1.63393e-08,-5.97412e-17
-0.720025,0.34,0.0463528,0.01,-58.8169,57.8,563.595,-563.605,-685.015,1.06185e-08,-1.06186e-08,-1.29061e-08,887.064,-887.074,-0.00072714,1.67128e-08,-1.67129e-08,-1.36997e-14
-0.710025,0.34,0.0377185,0.01,-65.2322,57.8,568.961,-568.957,-707.028,1.07195e-08,-1.07195e-08,-1.33208e-08,907.528,-907.523,-0.00346411,1.70983e-08,-1.70983e-08,-6.52658e-14
-0.700025,0.34,0.0299464,0.01,-71.7045,57.8,574.429,-574.33,-729.906,1.08221e-08,-1.08211e-08,-1.37519e-08,928.852,-928.753,0.184982,1.74997e-08,-1.74987e-08,3.48516e-12
-0.690025,0.34,0.0202643,0.01,-78.2342,57.8,577.294,-573.914,-751.447,1.08619e-08,-1.08276e-08,-1.41577e-08,948.257,-944.878,-1.41801,1.7851e-08,-1.78167e-08,-2.67162e-11
-0.680025,0.34,0.0104941,0.01,-84.8215,57.8,573.823,-573.477,-768.751,1.08097e-08,-1.08061e-08,-1.44837e-08,959.364,-959.017,-2.35859,1.80735e-08,-1.80699e-08,-4.44373e-11
0.679975,0.34,0.0104466,0.01,-84.8544,57.8,573.726,-573.65,768.942,1.0809e-08,-1.08082e-08,1.44873e-08,959.404,-959.329,2.38652,1.80754e-08,-1.80746e-08,4.49634e-11
0.689975,0.34,0.0202152,0.01,-78.2668,57.8,577.305,-573.979,751.597,1.08623e-08,-1.08286e-08,1.41605e-08,948.373,-945.047,1.42536,1.78534e-08,-1.78197e-08,2.68546e-11
0.699975,0.34,0.0299111,0.01,-71.7369,57.8,574.456,-574.365,730.031,1.08227e-08,-1.08218e-08,1.37542e-08,928.965,-928.875,-0.184189,1.75018e-08,-1.75009e-08,-3.47022e-12
0.709975,0.34,0.0376772,0.01,-65.2643,57.8,568.988,-568.983,707.139,1.072e-08,-1.072e-08,1.33229e-08,907.631,-907.626,0.00342875,1.71003e-08,-1.71002e-08,6.45996e-14
0.719975,0.34,0.0463085,0.01,-58.8486,57.8,563.622,-563.632,685.123,1.0619e-08,-1.06191e-08,1.29081e-08,887.164,-887.174,0.000737659,1.67147e-08,-1.67148e-08,1.38979e-14
0.729975,0.34,0.0554019,0.01,-52.4893,57.8,558.094,-558.102,663.922,1.05148e-08,-1.05149e-08,1.25087e-08,867.328,-867.336,3.63786e-06,1.6341e-08,-1.63411e-08,6.85393e-17
0.739975,0.34,0.0647632,0.01,-46.1858,57.8,552.427,-552.433,643.512,1.04081e-08,-1.04081e-08,1.21241e-08,848.104,-848.111,-1.53902e-05,1.59788e-08,-1.59789e-08,-2.89959e-16
0.749975,0.34,0.0742151,0.01,-39.9376,57.8,546.643,-546.648,623.86,1.02991e-08,-1.02991e-08,1.17539e-08,829.469,-829.474,-1.37346e-05,1.56277e-08,-1.56277e-08,-2.58768e-16
0.759975,0.34,0.0828721,0.01,-33.744,57.8,540.762,-540.766,604.936,1.01883e-08,-1.01883e-08,1.13974e-08,811.4,-811.405,-1.32921e-05,1.52873e-08,-1.52873e-08,-2.50431e-16
0.769975,0.34,0.0918024,0.01,-27.6044,57.8,534.803,-534.806,586.711,1.0076e-08,-1.0076e-08,1.1054e-08,793.878,-793.882,-1.29582e-05,1.49571e-08,-1.49572e-08,-2.44139e-16
0.779975,0.34,0.100934,0.01,-21.5184,57.8,528.781,-528.784,569.155,9.96256e-09,-9.96258e-09,1.07232e-08,776.882,-776.885,-1.26112e-05,1.46369e-08,-1.46369e-08,-2.37603e-16
0.789975,0.34,0.110216,0.01,-15.4852,57.8,522.712,-522.714,552.241,9.84821e-09,-9.84823e-09,1.04045e-08,760.393,-760.395,-1.22519e-05,1.43263e-08,-1.43263e-08,-2.30833e-16
0.799975,0.34,0.119613,0.01,-9.50435,57.8,516.609,-516.611,535.943,9.73323e-09,-9.73324e-09,1.00975e-08,744.392,-744.393,-1.18844e-05,1.40248e-08,-1.40248e-08,-2.23908e-16
0.809975,0.34,0.12884,0.01,-3.57513,57.8,510.485,-510.485,520.236,9.61783e-09,-9.61783e-09,9.80154e-09,728.862,-728.862,-1.1511e-05,1.37322e-08,-1.37322e-08,-2.16873e-16
0.819975,0.34,0.137856,0.01,2.30305,57.8,504.349,-504.349,505.095,9.50223e-09,-9.50223e-09,9.51629e-09,713.785,-713.785,-1.11345e-05,1.34481e-08,-1.34481e-08,-2.0978e-16
0.829975,0.34,0.147,0.01,8.1308,57.8,498.212,-498.212,490.498,9.38661e-09,-9.3866e-09,9.24128e-09,699.146,-699.145,-1.07576e-05,1.31723e-08,-1.31723e-08,-2.02679e-16
0.839975,0.34,0.156249,0.01,13.9087,57.8,492.084,-492.083,476.423,9.27114e-09,-9.27113e-09,8.97609e-09,684.928,-684.927,-1.03828e-05,1.29044e-08,-1.29044e-08,-1.95618e-16
0.849975,0.34,0.165585,0.01,19.6374,57.8,485.972,-485.97,462.848,9.15598e-09,-9.15597e-09,8.72033e-09,671.116,-671.115,-1.00115e-05,1.26442e-08,-1.26442e-08,-1.88623e-16
0.859975,0.34,0.174994,0.01,25.3176,57.8,479.882,-479.881,449.753,9.04126e-09,-9.04124e-09,8.47361e-09,657.697,-657.695,-9.6452e-06,1.23914e-08,-1.23914e-08,-1.81721e-16
0.869975,0.34,0.184449,0.01,30.9497,57.8,473.823,-473.821,437.118,8.92709e-09,-8.92707e-09,8.23557e-09,644.656,-644.654,-9.28537e-06,1.21457e-08,-1.21457e-08,-1.74942e-16
0.879975,0.34,0.193599,0.01,36.5344,57.8,467.799,-467.797,424.926,8.8136e-09,-8.81358e-09,8.00585e-09,631.98,-631.978,-8.93199e-06,1.19069e-08,-1.19068e-08,-1.68284e-16
0.889975,0.34,0.202829,0.01,42.0724,57.8,461.817,-461.814,413.158,8.70088e-09,-8.70085e-09,7.78413e-09,619.656,-619.654,-8.58648e-06,1.16747e-08,-1.16746e-08,-1.61774e-16
0.899975,0.34,0.21213,0.01,47.5642,57.8,455.879,-455.876,401.796,8.58901e-09,-8.58898e-09,7.57008e-09,607.673,-607.67,-8.25008e-06,1.14489e-08,-1.14489e-08,-1.55436e-16
0.909975,0.34,0.221491,0.01,53.0104,57.8,449.966,-450.233,390.991,8.47877e-09,-8.48148e-09,7.3665e-09,596.074,-596.341,0.0525986,1.12315e-08,-1.12342e-08,9.90989e-13
0.919975,0.34,0.230906,0.01,58.4116,57.8,445.243,-447.578,381.868,8.39879e-09,-8.42247e-09,7.19461e-09,586.289,-588.624,-0.223867,1.10562e-08,-1.10799e-08,-4.21778e-12
0.929975,0.34,0.240368,0.01,63.7684,57.8,441.331,-450.911,374.715,8.35659e-09,-8.45377e-09,7.05985e-09,577.82,-587.399,-1.38994,1.09281e-08,-1.10253e-08,-2.61873e-11
-0.930025,0.35,0.24377,0.01,65.7669,61.25,432.801,-432.601,-382.022,8.15335e-09,-8.15133e-09,-7.19751e-09,577.306,-577.106,-1.95911,1.08759e-08,-1.08739e-08,-3.69108e-11
-0.920025,0.35,0.234443,0.01,60.4481,61.25,434.347,-438.729,-389.993,8.2024e-09,-8.24686e-09,-7.3477e-09,583.18,-587.561,-1.23414,1.10065e-08,-1.10509e-08,-2.32519e-11
-0.910025,0.35,0.225174,0.01,55.0859,61.25,439.269,-441.176,-397.881,8.28437e-09,-8.30373e-09,-7.49631e-09,592.431,-594.338,-0.350629,1.117e-08,-1.11894e-08,-6.60606e-12
-0.900025,0.35,0.21597,0.01,49.6799,61.25,444.669,-444.676,-407.465,8.37785e-09,-8.37792e-09,-7.67687e-09,603.123,-603.13,0.00121073,1.13632e-08,-1.13633e-08,2.28108e-14
-0.890025,0.35,0.206661,0.01,44.2293,61.25,450.206,-450.205,-418.858,8.48214e-09,-8.48213e-09,-7.89153e-09,614.921,-614.92,7.96477e-06,1.15855e-08,-1.15855e-08,1.50061e-16
-0.880025,0.35,0.197239,0.01,38.7338,61.25,455.776,-455.775,-430.659,8.58708e-09,-8.58707e-09,-8.11387e-09,627.056,-627.055,8.26186e-06,1.18141e-08,-1.18141e-08,1.55658e-16
-0.870025,0.35,0.187877,0.01,33.1927,61.25,461.369,-461.368,-442.879,8.69246e-09,-8.69245e-09,-8.3441e-09,639.534,-639.533,8.56323e-06,1.20492e-08,-1.20492e-08,1.61336e-16
-0.860025,0.35,0.178583,0.01,27.6054,61.25,466.981,-466.98,-455.535,8.79818e-09,-8.79817e-09,-8.58255e-09,652.367,-652.367,8.86818e-06,1.2291e-08,-1.2291e-08,1.67082e-16
-0.850025,0.35,0.16937,0.01,21.9714,61.25,472.603,-472.603,-468.645,8.90411e-09,-8.90411e-09,-8.82954e-09,665.569,-665.568,9.17479e-06,1.25397e-08,-1.25397e-08,1.72858e-16
-0.840025,0.35,0.160252,0.01,16.2902,61.25,478.229,-478.229,-482.228,9.01011e-09,-9.01011e-09,-9.08545e-09,679.151,-679.151,9.48191e-06,1.27956e-08,-1.27956e-08,1.78645e-16
-0.830025,0.35,0.151245,0.01,10.5612,61.25,483.851,-483.852,-496.302,9.11604e-09,-9.11604e-09,-9.35062e-09,693.129,-693.129,9.78821e-06,1.30589e-08,-1.3059e-08,1.84415e-16
-0.820025,0.35,0.141863,0.01,4.78375,61.25,489.46,-489.461,-510.889,9.22171e-09,-9.22173e-09,-9.62545e-09,707.516,-707.517,1.00919e-05,1.333e-08,-1.333e-08,1.90137e-16
-0.810025,0.35,0.13253,0.01,-1.04263,61.25,495.046,-495.048,-526.01,9.32696e-09,-9.32697e-09,-9.91033e-09,722.327,-722.329,1.03907e-05,1.36091e-08,-1.36091e-08,1.95767e-16
-0.800025,0.35,0.123302,0.01,-6.91851,61.25,500.598,-500.6,-541.686,9.43156e-09,-9.43159e-09,-1.02057e-08,737.578,-737.581,1.06813e-05,1.38964e-08,-1.38964e-08,2.01243e-16
-0.790025,0.35,0.114204,0.01,-12.8444,61.25,506.104,-506.107,-557.941,9.5353e-09,-9.53534e-09,-1.05119e-08,753.285,-753.289,1.0961e-05,1.41923e-08,-1.41924e-08,2.06512e-16
-0.780025,0.35,0.105269,0.01,-18.821,61.25,511.551,-511.555,-574.799,9.63794e-09,-9.63798e-09,-1.08295e-08,769.465,-769.469,1.12266e-05,1.44972e-08,-1.44972e-08,2.11516e-16
-0.770025,0.35,0.0964322,0.01,-24.8487,61.25,516.925,-516.93,-592.284,9.73919e-09,-9.73924e-09,-1.1159e-08,786.136,-786.141,1.14747e-05,1.48113e-08,-1.48113e-08,2.16189e-16
-0.760025,0.35,0.0870245,0.01,-30.9281,61.25,522.209,-522.215,-610.422,9.83875e-09,-9.83881e-09,-1.15007e-08,803.315,-803.321,1.16999e-05,1.5135e-08,-1.5135e-08,2.20433e-16
-0.750025,0.35,0.0777648,0.01,-37.0597,61.25,527.387,-527.394,-629.24,9.93631e-09,-9.93638e-09,-1.18553e-08,821.023,-821.03,1.18572e-05,1.54686e-08,-1.54686e-08,2.23396e-16
-0.740025,0.35,0.068713,0.01,-43.2441,61.25,532.439,-532.447,-648.767,1.00315e-08,-1.00316e-08,-1.22231e-08,839.277,-839.286,1.13964e-05,1.58125e-08,-1.58126e-08,2.14715e-16
-0.730025,0.35,0.0599631,0.01,-49.4817,61.25,537.344,-537.353,-669.03,1.01239e-08,-1.0124e-08,-1.26049e-08,858.101,-858.11,1.35882e-05,1.61672e-08,-1.61673e-08,2.56009e-16
-0.720025,0.35,0.051669,0.01,-55.773,61.25,542.079,-542.09,-690.061,1.02131e-08,-1.02132e-08,-1.30012e-08,877.514,-877.525,0.000222475,1.65329e-08,-1.6533e-08,4.19156e-15
-0.710025,0.35,0.042115,0.01,-62.1185,61.25,546.622,-546.637,-711.892,1.02987e-08,-1.02989e-08,-1.34125e-08,897.541,-897.556,0.00201356,1.69103e-08,-1.69104e-08,3.79366e-14
-0.700025,0.35,0.0327591,0.01,-68.5187,61.25,550.863,-550.971,-734.599,1.0379e-08,-1.03801e-08,-1.38403e-08,918.175,-918.283,-0.0519033,1.72994e-08,-1.73005e-08,-9.77888e-13
-0.690025,0.35,0.02393,0.01,-74.974,61.25,554.64,-552.127,-755.563,1.04388e-08,-1.04133e-08,-1.42352e-08,937.797,-935.284,0.168621,1.76577e-08,-1.76322e-08,3.17691e-12
-0.680025,0.35,0.0164963,0.01,-81.4849,61.25,558.694,-553.05,-774.824,1.05016e-08,-1.04443e-08,-1.45981e-08,956.417,-950.772,2.07832,1.79949e-08,-1.79376e-08,3.91568e-11
-0.670025,0.35,0.0103215,0.01,-88.0529,61.25,558.273,-557.669,-801.146,1.05156e-08,-1.05094e-08,-1.50941e-08,976.605,-976.001,0.310468,1.83972e-08,-1.8391e-08,5.84939e-12
0.669975,0.35,0.0102771,0.01,-88.0857,61.25,558.242,-557.806,801.375,1.05157e-08,-1.05113e-08,1.50984e-08,976.738,-976.303,-0.282384,1.84004e-08,-1.8396e-08,-5.32028e-12
0.679975,0.35,0.0164661,0.01,-81.5174,61.25,558.692,-553.107,774.981,1.05018e-08,-1.04451e-08,1.46011e-08,956.53,-950.945,-2.06692,1.79973e-08,-1.79406e-08,-3.8942e-11
0.689975,0.35,0.0238884,0.01,-75.0063,61.25,554.652,-552.158,755.693,1.04391e-08,-1.04138e-08,1.42377e-08,937.905,-935.412,-0.163457,1.76598e-08,-1.76345e-08,-3.07963e-12
0.699975,0.35,0.0327135,0.01,-68.5507,61.25,550.882,-550.992,734.715,1.03794e-08,-1.03805e-08,1.38424e-08,918.279,-918.389,0.0530155,1.73014e-08,-1.73025e-08,9.98843e-13
0.709975,0.35,0.0420678,0.01,-62.1502,61.25,546.644,-546.659,712.002,1.02992e-08,-1.02993e-08,1.34145e-08,897.642,-897.657,-0.00202173,1.69122e-08,-1.69123e-08,-3.80906e-14
0.719975,0.35,0.0516292,0.01,-55.8044,61.25,542.102,-542.113,690.168,1.02136e-08,-1.02137e-08,1.30032e-08,877.612,-877.623,-0.000225799,1.65348e-08,-1.65349e-08,-4.25418e-15
0.729975,0.35,0.0599206,0.01,-49.5128,61.25,537.368,-537.377,669.133,1.01244e-08,-1.01245e-08,1.26069e-08,858.196,-858.205,-1.36847e-05,1.61689e-08,-1.6169e-08,-2.57828e-16
0.739975,0.35,0.0686686,0.01,-43.275,61.25,532.463,-532.472,648.866,1.0032e-08,-1.0032e-08,1.2225e-08,839.37,-839.378,-1.13904e-05,1.58142e-08,-1.58143e-08,-2.14601e-16
0.749975,0.35,0.0777192,0.01,-37.0903,61.25,527.412,-527.42,629.336,9.93679e-09,-9.93686e-09,1.1857e-08,821.112,-821.119,-1.18574e-05,1.54703e-08,-1.54703e-08,-2.23401e-16
0.759975,0.35,0.0869781,0.01,-30.9585,61.25,522.235,-522.241,610.514,9.83924e-09,-9.8393e-09,1.15024e-08,803.402,-803.408,-1.17007e-05,1.51366e-08,-1.51366e-08,-2.20448e-16
0.769975,0.35,0.0963851,0.01,-24.8788,61.25,516.951,-516.956,592.372,9.73968e-09,-9.73974e-09,1.11606e-08,786.22,-786.225,-1.14758e-05,1.48129e-08,-1.48129e-08,-2.1621e-16
0.779975,0.35,0.105225,0.01,-18.8508,61.25,511.578,-511.582,574.884,9.63844e-09,-9.63849e-09,1.08311e-08,769.547,-769.551,-1.12278e-05,1.44987e-08,-1.44988e-08,-2.11538e-16
0.789975,0.35,0.114159,0.01,-12.874,61.25,506.131,-506.134,558.023,9.53582e-09,-9.53585e-09,1.05135e-08,753.364,-753.368,-1.09619e-05,1.41938e-08,-1.41939e-08,-2.06529e-16
0.799975,0.35,0.123256,0.01,-6.94785,61.25,500.625,-500.628,541.766,9.43208e-09,-9.43211e-09,1.02072e-08,737.655,-737.658,-1.06825e-05,1.38979e-08,-1.38979e-08,-2.01264e-16
0.809975,0.35,0.132484,0.01,-1.07173,61.25,495.073,-495.075,526.086,9.32748e-09,-9.3275e-09,9.91177e-09,722.402,-722.404,-1.03922e-05,1.36105e-08,-1.36105e-08,-1.95795e-16
0.819975,0.35,0.141816,0.01,4.75489,61.25,489.488,-489.489,510.963,9.22224e-09,-9.22225e-09,9.62684e-09,707.588,-707.59,-1.00939e-05,1.33314e-08,-1.33314e-08,-1.90176e-16
0.829975,0.35,0.151201,0.01,10.5326,61.25,483.879,-483.88,496.373,9.11656e-09,-9.11657e-09,9.35196e-09,693.199,-693.2,-9.79023e-06,1.30603e-08,-1.30603e-08,-1.84454e-16
0.839975,0.35,0.160207,0.01,16.2618,61.25,478.257,-478.257,482.296,9.01064e-09,-9.01064e-09,9.08674e-09,679.22,-679.22,-9.48358e-06,1.27969e-08,-1.27969e-08,-1.78676e-16
0.849975,0.35,0.169325,0.01,21.9433,61.25,472.631,-472.631,468.711,8.90464e-09,-8.90463e-09,8.83079e-09,665.635,-665.635,-9.17591e-06,1.2541e-08,-1.2541e-08,-1.72879e-16
0.859975,0.35,0.178537,0.01,27.5775,61.25,467.008,-467.008,455.599,8.79871e-09,-8.7987e-09,8.58375e-09,652.432,-652.431,-8.86901e-06,1.22922e-08,-1.22922e-08,-1.67097e-16
0.869975,0.35,0.18783,0.01,33.165,61.25,461.397,-461.396,442.941,8.69299e-09,-8.69298e-09,8.34527e-09,639.597,-639.596,-8.56506e-06,1.20504e-08,-1.20504e-08,-1.61371e-16
0.879975,0.35,0.197192,0.01,38.7064,61.25,455.804,-455.803,430.719,8.5876e-09,-8.58759e-09,8.11499e-09,627.117,-627.116,-8.26399e-06,1.18152e-08,-1.18152e-08,-1.55698e-16
0.889975,0.35,0.206614,0.01,44.2021,61.25,450.234,-450.232,418.916,8.48266e-09,-8.48265e-09,7.89262e-09,614.981,-614.979,-7.9666e-06,1.15866e-08,-1.15866e-08,-1.50095e-16
0.899975,0.35,0.215925,0.01,49.6529,61.25,444.696,-444.703,407.52,8.37837e-09,-8.37844e-09,7.67792e-09,603.18,-603.188,-0.00121123,1.13643e-08,-1.13644e-08,-2.28203e-14
0.909975,0.35,0.225128,0.01,55.0592,61.25,439.296,-441.204,397.935,8.28489e-09,-8.30425e-09,7.49733e-09,592.487,-594.395,0.350647,1.11711e-08,-1.11905e-08,6.6064e-12
0.919975,0.35,0.234397,0.01,60.4215,61.25,434.374,-438.757,390.046,8.20292e-09,-8.24738e-09,7.34869e-09,583.235,-587.618,1.23443,1.10075e-08,-1.1052e-08,2.32574e-11
0.929975,0.35,0.243724,0.01,65.7405,61.25,432.828,-432.628,382.073,8.15386e-09,-8.15184e-09,7.19848e-09,577.36,-577.161,1.95981,1.08769e-08,-1.08749e-08,3.69239e-11
-0.920025,0.36,0.238282,0.01,62.5012,64.8,425.85,-434.695,-396.215,8.06171e-09,-8.15145e-09,-7.46492e-09,580.487,-589.333,1.01949,1.09752e-08,-1.10649e-08,1.92078e-11
-0.910025,0.36,0.228851,0.01,57.1784,64.8,429.429,-432.692,-403.274,8.10488e-09,-8.13797e-09,-7.59791e-09,588.659,-591.921,0.76573,1.11049e-08,-1.1138e-08,1.44268e-11
-0.900025,0.36,0.21947,0.01,51.8128,64.8,433.4,-433.697,-412.989,8.1668e-09,-8.16982e-09,-7.78095e-09,598.621,-598.918,-0.0732327,1.12797e-08,-1.12827e-08,-1.37975e-12
-0.890025,0.36,0.210146,0.01,46.4039,64.8,438.597,-438.596,-424.214,8.26342e-09,-8.26341e-09,-7.99244e-09,610.184,-610.184,7.35248e-06,1.14962e-08,-1.14962e-08,1.38525e-16
-0.880025,0.36,0.200888,0.01,40.9511,64.8,443.759,-443.758,-436.033,8.36067e-09,-8.36067e-09,-8.21512e-09,622.131,-622.131,7.60343e-06,1.17213e-08,-1.17213e-08,1.43253e-16
-0.870025,0.36,0.191704,0.01,35.4539,64.8,448.928,-448.928,-448.266,8.45806e-09,-8.45806e-09,-8.44559e-09,634.412,-634.412,7.856e-06,1.19527e-08,-1.19527e-08,1.48012e-16
-0.860025,0.36,0.182605,0.01,29.9118,64.8,454.098,-454.098,-460.927,8.55546e-09,-8.55547e-09,-8.68414e-09,647.038,-647.039,8.10865e-06,1.21906e-08,-1.21906e-08,1.52772e-16
-0.850025,0.36,0.173472,0.01,24.3243,64.8,459.26,-459.261,-474.036,8.65274e-09,-8.65274e-09,-8.93111e-09,660.023,-660.023,8.35927e-06,1.24352e-08,-1.24352e-08,1.57493e-16
-0.840025,0.36,0.164109,0.01,18.6909,64.8,464.408,-464.41,-487.609,8.74973e-09,-8.74974e-09,-9.18683e-09,673.377,-673.379,8.6071e-06,1.26868e-08,-1.26868e-08,1.62163e-16
-0.830025,0.36,0.154825,0.01,13.0111,64.8,469.533,-469.535,-501.665,8.84628e-09,-8.8463e-09,-9.45166e-09,687.116,-687.118,8.85058e-06,1.29457e-08,-1.29457e-08,1.6675e-16
-0.820025,0.36,0.145636,0.01,7.28428,64.8,474.624,-474.626,-516.224,8.9422e-09,-8.94223e-09,-9.72595e-09,701.252,-701.254,9.08701e-06,1.3212e-08,-1.3212e-08,1.71205e-16
-0.810025,0.36,0.136561,0.01,1.51001,64.8,479.671,-479.674,-531.305,9.03729e-09,-9.03732e-09,-1.00101e-08,715.799,-715.802,9.31398e-06,1.34861e-08,-1.34861e-08,1.75481e-16
-0.800025,0.36,0.127625,0.01,-4.31222,64.8,484.662,-484.666,-546.931,9.13133e-09,-9.13137e-09,-1.03045e-08,730.773,-730.777,9.52857e-06,1.37682e-08,-1.37682e-08,1.79524e-16
-0.790025,0.36,0.118626,0.01,-10.1829,64.8,489.584,-489.589,-563.122,9.22408e-09,-9.22412e-09,-1.06095e-08,746.189,-746.193,9.72833e-06,1.40586e-08,-1.40587e-08,1.83287e-16
-0.780025,0.36,0.109298,0.01,-16.1026,64.8,494.424,-494.43,-579.901,9.31526e-09,-9.31532e-09,-1.09257e-08,762.062,-762.068,9.90976e-06,1.43577e-08,-1.43578e-08,1.86706e-16
-0.770025,0.36,0.100101,0.01,-22.0717,64.8,499.166,-499.172,-597.292,9.4046e-09,-9.40467e-09,-1.12533e-08,778.41,-778.417,1.00687e-05,1.46657e-08,-1.46658e-08,1.897e-16
-0.760025,0.36,0.0910734,0.01,-28.0907,64.8,503.792,-503.8,-615.319,9.49178e-09,-9.49185e-09,-1.1593e-08,795.25,-795.258,1.02002e-05,1.4983e-08,-1.49831e-08,1.92177e-16
-0.750025,0.36,0.0822707,0.01,-34.1601,64.8,508.286,-508.295,-634.008,9.57644e-09,-9.57653e-09,-1.19451e-08,812.6,-812.608,1.03092e-05,1.53099e-08,-1.531e-08,1.94232e-16
-0.740025,0.36,0.0737375,0.01,-40.2803,64.8,512.626,-512.636,-653.385,9.65821e-09,-9.65831e-09,-1.23101e-08,830.478,-830.488,1.06056e-05,1.56467e-08,-1.56468e-08,1.99817e-16
-0.730025,0.36,0.0643172,0.01,-46.4518,64.8,516.79,-516.802,-673.476,9.73668e-09,-9.7368e-09,-1.26887e-08,848.904,-848.915,1.13836e-05,1.59939e-08,-1.5994e-08,2.14473e-16
-0.720025,0.36,0.0551017,0.01,-52.6749,64.8,520.756,-520.769,-694.31,9.8114e-09,-9.81153e-09,-1.30812e-08,867.899,-867.912,-4.07803e-05,1.63518e-08,-1.63519e-08,-7.68325e-16
-0.710025,0.36,0.0462134,0.01,-58.9502,64.8,524.495,-524.509,-715.915,9.88185e-09,-9.882e-09,-1.34883e-08,887.482,-887.496,-0.000778205,1.67207e-08,-1.67209e-08,-1.46618e-14
-0.700025,0.36,0.0378835,0.01,-65.2778,64.8,527.994,-527.987,-738.308,9.94768e-09,-9.94761e-09,-1.39102e-08,907.678,-907.671,0.00753691,1.71012e-08,-1.71011e-08,1.42e-13
-0.690025,0.36,0.0297233,0.01,-71.6583,64.8,531.605,-531.275,-761.332,1.00143e-08,-1.0011e-08,-1.43439e-08,928.634,-928.304,0.332051,1.74946e-08,-1.74912e-08,6.25603e-12
-0.680025,0.36,0.019971,0.01,-78.0919,64.8,532.742,-528.162,-783.021,1.00173e-08,-9.97079e-09,-1.47526e-08,948.07,-943.49,-1.51527,1.78423e-08,-1.77958e-08,-2.85486e-11
-0.670025,0.36,0.0106868,0.01,-84.5786,64.8,528.711,-522.571,-799.606,9.93453e-09,-9.87223e-09,-1.5065e-08,959.971,-953.83,-3.04613,1.80597e-08,-1.79974e-08,-5.73909e-11
0.669975,0.36,0.0106439,0.01,-84.611,64.8,528.659,-522.614,799.762,9.93396e-09,-9.87264e-09,1.5068e-08,960.051,-954.007,3.07664,1.80616e-08,-1.80003e-08,5.79657e-11
0.679975,0.36,0.0199231,0.01,-78.124,64.8,532.748,-528.185,783.159,1.00174e-08,-9.97115e-09,1.47552e-08,948.184,-943.621,1.52366,1.78445e-08,-1.77982e-08,2.87067e-11
0.689975,0.36,0.0296744,0.01,-71.6902,64.8,531.622,-531.294,761.453,1.00146e-08,-1.00113e-08,1.43462e-08,928.742,-928.415,-0.332955,1.74966e-08,-1.74933e-08,-6.27306e-12
0.699975,0.36,0.0378441,0.01,-65.3094,64.8,528.011,-528.004,738.422,9.948e-09,-9.94793e-09,1.39123e-08,907.78,-907.773,-0.00774599,1.71031e-08,-1.7103e-08,-1.45939e-13
0.709975,0.36,0.0461703,0.01,-58.9815,64.8,524.513,-524.527,716.024,9.88219e-09,-9.88234e-09,1.34903e-08,887.581,-887.595,0.000784992,1.67226e-08,-1.67227e-08,1.47897e-14
0.719975,0.36,0.0550565,0.01,-52.706,64.8,520.775,-520.788,694.415,9.81176e-09,-9.81189e-09,1.30832e-08,867.994,-868.008,4.17168e-05,1.63536e-08,-1.63537e-08,7.85968e-16
0.729975,0.36,0.0642708,0.01,-46.4826,64.8,516.811,-516.822,673.578,9.73706e-09,-9.73718e-09,1.26906e-08,848.997,-849.009,-1.13746e-05,1.59956e-08,-1.59958e-08,-2.14305e-16
0.739975,0.36,0.0736903,0.01,-40.3109,64.8,512.647,-512.657,653.483,9.65861e-09,-9.65871e-09,1.2312e-08,830.568,-830.578,-1.06089e-05,1.56484e-08,-1.56485e-08,-1.99878e-16
0.749975,0.36,0.0822276,0.01,-34.1904,64.8,508.308,-508.317,634.103,9.57685e-09,-9.57694e-09,1.19469e-08,812.687,-812.696,-1.03097e-05,1.53115e-08,-1.53116e-08,-1.9424e-16
0.759975,0.36,0.091029,0.01,-28.1207,64.8,503.815,-503.823,615.411,9.4922e-09,-9.49228e-09,1.15947e-08,795.335,-795.343,-1.02004e-05,1.49846e-08,-1.49847e-08,-1.92181e-16
0.769975,0.36,0.100056,0.01,-22.1015,64.8,499.189,-499.196,597.38,9.40504e-09,-9.40511e-09,1.1255e-08,778.493,-778.499,-1.00695e-05,1.46673e-08,-1.46673e-08,-1.89715e-16
0.779975,0.36,0.109252,0.01,-16.1321,64.8,494.448,-494.454,579.986,9.31571e-09,-9.31577e-09,1.09273e-08,762.142,-762.148,-9.91098e-06,1.43592e-08,-1.43593e-08,-1.86729e-16
0.789975,0.36,0.118579,0.01,-10.2122,64.8,489.609,-489.613,563.204,9.22453e-09,-9.22458e-09,1.06111e-08,746.267,-746.271,-9.72934e-06,1.40601e-08,-1.40602e-08,-1.83306e-16
0.799975,0.36,0.127581,0.01,-4.34129,64.8,484.687,-484.691,547.01,9.13179e-09,-9.13183e-09,1.0306e-08,730.849,-730.853,-9.52967e-06,1.37696e-08,-1.37697e-08,-1.79545e-16
0.809975,0.36,0.136516,0.01,1.48118,64.8,479.696,-479.699,531.381,9.03776e-09,-9.03779e-09,1.00115e-08,715.873,-715.876,-9.31513e-06,1.34875e-08,-1.34875e-08,-1.75503e-16
0.819975,0.36,0.145591,0.01,7.25568,64.8,474.649,-474.652,516.297,8.94268e-09,-8.9427e-09,9.72734e-09,701.323,-701.326,-9.08829e-06,1.32133e-08,-1.32134e-08,-1.71229e-16
0.829975,0.36,0.154779,0.01,12.9827,64.8,469.558,-469.56,501.736,8.84676e-09,-8.84678e-09,9.453e-09,687.185,-687.187,-8.85194e-06,1.2947e-08,-1.2947e-08,-1.66776e-16
0.839975,0.36,0.164062,0.01,18.6628,64.8,464.434,-464.435,487.677,8.75021e-09,-8.75023e-09,9.18812e-09,673.445,-673.446,-8.6086e-06,1.26881e-08,-1.26881e-08,-1.62191e-16
0.849975,0.36,0.173425,0.01,24.2964,64.8,459.286,-459.287,474.102,8.65322e-09,-8.65323e-09,8.93236e-09,660.088,-660.089,-8.36057e-06,1.24364e-08,-1.24365e-08,-1.57518e-16
0.859975,0.36,0.18256,0.01,29.8842,64.8,454.123,-454.124,460.991,8.55595e-09,-8.55595e-09,8.68535e-09,647.102,-647.102,-8.10934e-06,1.21918e-08,-1.21918e-08,-1.52785e-16
0.869975,0.36,0.191658,0.01,35.4264,64.8,448.954,-448.954,448.328,8.45855e-09,-8.45855e-09,8.44675e-09,634.474,-634.474,-7.85739e-06,1.19539e-08,-1.19539e-08,-1.48038e-16
0.879975,0.36,0.200842,0.01,40.9239,64.8,443.785,-443.784,436.093,8.36116e-09,-8.36115e-09,8.21625e-09,622.191,-622.191,-7.60571e-06,1.17224e-08,-1.17224e-08,-1.43296e-16
0.889975,0.36,0.2101,0.01,46.3769,64.8,438.623,-438.622,424.272,8.2639e-09,-8.26389e-09,7.99353e-09,610.243,-610.242,-7.35437e-06,1.14973e-08,-1.14973e-08,-1.38561e-16
0.899975,0.36,0.219424,0.01,51.786,64.8,433.426,-433.723,413.045,8.16729e-09,-8.1703e-09,7.78201e-09,598.678,-598.975,0.0732625,1.12807e-08,-1.12837e-08,1.38031e-12
0.909975,0.36,0.228804,0.01,57.1519,64.8,429.455,-432.718,403.328,8.10536e-09,-8.13846e-09,7.59894e-09,588.714,-591.977,-0.765803,1.11059e-08,-1.1139e-08,-1.44282e-11
0.919975,0.36,0.238235,0.01,62.4748,64.8,425.875,-434.722,396.268,8.0622e-09,-8.15195e-09,7.46593e-09,580.542,-589.389,-1.01958,1.09762e-08,-1.1066e-08,-1.92094e-11
-0.920025,0.37,0.241725,0.01,64.5966,68.45,415.752,-423.69,-400.727,7.86752e-09,-7.94805e-09,-7.54994e-09,576.33,-584.267,1.44341,1.08929e-08,-1.09734e-08,2.71947e-11
-0.910025,0.37,0.232434,0.01,59.3138,68.45,417.422,-423.325,-410.747,7.89014e-09,-7.95002e-09,-7.73872e-09,584.779,-590.681,-0.870398,1.10432e-08,-1.11031e-08,-1.63988e-11
-0.900025,0.37,0.223203,0.01,53.9891,68.45,422.292,-424.276,-419.248,7.96486e-09,-7.98497e-09,-7.89887e-09,594.775,-596.758,-0.316209,1.12145e-08,-1.12346e-08,-5.95757e-12
-0.890025,0.37,0.214042,0.01,48.6223,68.45,426.977,-426.986,-429.178,8.04454e-09,-8.04463e-09,-8.08596e-09,605.394,-605.403,0.00161852,1.1406e-08,-1.14061e-08,3.04939e-14
-0.880025,0.37,0.20496,0.01,43.2127,68.45,431.734,-431.735,-440.995,8.13413e-09,-8.13413e-09,-8.3086e-09,617.147,-617.148,6.95993e-06,1.16274e-08,-1.16274e-08,1.31129e-16
-0.870025,0.37,0.195702,0.01,37.76,68.45,436.486,-436.487,-453.223,8.22365e-09,-8.22366e-09,-8.53898e-09,629.23,-629.231,7.16697e-06,1.18551e-08,-1.18551e-08,1.3503e-16
-0.860025,0.37,0.186382,0.01,32.2637,68.45,441.221,-441.223,-465.873,8.31287e-09,-8.31288e-09,-8.77732e-09,641.649,-641.651,7.3704e-06,1.2089e-08,-1.20891e-08,1.38863e-16
-0.850025,0.37,0.177136,0.01,26.7232,68.45,445.933,-445.935,-478.962,8.40164e-09,-8.40166e-09,-9.02392e-09,654.416,-654.418,7.56872e-06,1.23296e-08,-1.23296e-08,1.42599e-16
-0.840025,0.37,0.167977,0.01,21.1381,68.45,450.612,-450.614,-492.507,8.48979e-09,-8.48982e-09,-9.27911e-09,667.543,-667.545,7.76193e-06,1.25769e-08,-1.25769e-08,1.46239e-16
-0.830025,0.37,0.15892,0.01,15.5079,68.45,455.248,-455.251,-506.525,8.57715e-09,-8.57718e-09,-9.54322e-09,681.042,-681.045,7.94764e-06,1.28312e-08,-1.28313e-08,1.49738e-16
-0.820025,0.37,0.149982,0.01,9.83228,68.45,459.832,-459.836,-521.035,8.66352e-09,-8.66355e-09,-9.81661e-09,694.926,-694.93,8.12265e-06,1.30928e-08,-1.30929e-08,1.53035e-16
-0.810025,0.37,0.140872,0.01,4.11063,68.45,464.352,-464.356,-536.057,8.74867e-09,-8.74872e-09,-1.00996e-08,709.21,-709.214,8.28437e-06,1.33619e-08,-1.3362e-08,1.56082e-16
-0.800025,0.37,0.131602,0.01,-1.65746,68.45,468.795,-468.8,-551.609,8.83239e-09,-8.83244e-09,-1.03926e-08,723.906,-723.911,8.43045e-06,1.36388e-08,-1.36389e-08,1.58835e-16
-0.790025,0.37,0.122447,0.01,-7.47242,68.45,473.148,-473.154,-567.714,8.9144e-09,-8.91446e-09,-1.06961e-08,739.031,-739.037,8.55866e-06,1.39238e-08,-1.39239e-08,1.6125e-16
-0.780025,0.37,0.113434,0.01,-13.3347,68.45,477.395,-477.402,-584.392,8.99443e-09,-8.9945e-09,-1.10103e-08,754.598,-754.605,8.66495e-06,1.42171e-08,-1.42172e-08,1.63253e-16
-0.770025,0.37,0.104601,0.01,-19.2447,68.45,481.521,-481.529,-601.665,9.07218e-09,-9.07226e-09,-1.13357e-08,770.624,-770.632,8.74525e-06,1.4519e-08,-1.45191e-08,1.64766e-16
-0.760025,0.37,0.095918,0.01,-25.2029,68.45,485.509,-485.518,-619.556,9.14731e-09,-9.1474e-09,-1.16728e-08,787.125,-787.134,8.79562e-06,1.48299e-08,-1.483e-08,1.65715e-16
-0.750025,0.37,0.086601,0.01,-31.2096,68.45,489.338,-489.348,-638.089,9.21945e-09,-9.21956e-09,-1.2022e-08,804.118,-804.128,8.8102e-06,1.51501e-08,-1.51502e-08,1.65989e-16
-0.740025,0.37,0.0774547,0.01,-37.2653,68.45,492.988,-492.999,-657.288,9.28823e-09,-9.28834e-09,-1.23837e-08,821.621,-821.632,8.71647e-06,1.54799e-08,-1.548e-08,1.64223e-16
-0.730025,0.37,0.0685471,0.01,-43.3702,68.45,496.436,-496.449,-677.179,9.3532e-09,-9.35333e-09,-1.27584e-08,839.652,-839.665,8.01491e-06,1.58196e-08,-1.58197e-08,1.51006e-16
-0.720025,0.37,0.0599849,0.01,-49.5248,68.45,499.658,-499.672,-697.787,9.4139e-09,-9.41405e-09,-1.31467e-08,858.23,-858.244,1.79946e-05,1.61696e-08,-1.61698e-08,3.39029e-16
-0.710025,0.37,0.0515792,0.01,-55.7293,68.45,502.626,-502.642,-719.139,9.46984e-09,-9.47e-09,-1.3549e-08,877.375,-877.391,0.00026559,1.65303e-08,-1.65305e-08,5.00386e-15
-0.700025,0.37,0.0421401,0.01,-61.9842,68.45,505.311,-505.334,-741.265,9.52045e-09,-9.52068e-09,-1.39659e-08,897.109,-897.131,-0.000436683,1.69021e-08,-1.69024e-08,-8.22736e-15
-0.690025,0.37,0.0330326,0.01,-68.2895,68.45,507.583,-507.656,-764.218,9.56347e-09,-9.56421e-09,-1.43983e-08,917.409,-917.483,-0.0804022,1.72848e-08,-1.72856e-08,-1.51482e-12
-0.680025,0.37,0.0246276,0.01,-74.6456,68.45,509.222,-505.789,-785.009,9.57912e-09,-9.54429e-09,-1.479e-08,936.49,-933.057,-0.268313,1.76291e-08,-1.75943e-08,-5.05516e-12
-0.670025,0.37,0.0179411,0.01,-81.0528,68.45,512.385,-501.961,-802.627,9.60831e-09,-9.50256e-09,-1.5122e-08,954.65,-944.225,1.74004,1.79408e-08,-1.78351e-08,3.27834e-11
-0.660025,0.37,0.00914588,0.01,-87.5113,68.45,511.341,-500.238,-824.744,9.58568e-09,-9.47304e-09,-1.55387e-08,973.035,-961.932,1.15047,1.82843e-08,-1.81716e-08,2.16755e-11
0.659975,0.37,0.00909746,0.01,-87.5436,68.45,511.326,-500.199,824.867,9.5853e-09,-9.47242e-09,1.5541e-08,973.138,-962.011,-1.12569,1.82861e-08,-1.81732e-08,-2.12086e-11
0.669975,0.37,0.0179156,0.01,-81.0848,68.45,512.388,-501.936,802.749,9.60824e-09,-9.5022e-09,1.51243e-08,954.761,-944.309,-1.72504,1.79428e-08,-1.78368e-08,-3.25008e-11
0.679975,0.37,0.0245887,0.01,-74.6774,68.45,509.224,-505.791,785.131,9.57915e-09,-9.54432e-09,1.47923e-08,936.594,-933.16,0.275495,1.7631e-08,-1.75962e-08,5.19048e-12
0.689975,0.37,0.0329886,0.01,-68.321,68.45,507.592,-507.666,764.335,9.56365e-09,-9.5644e-09,1.44005e-08,917.511,-917.585,0.0815072,1.72868e-08,-1.72875e-08,1.53564e-12
0.699975,0.37,0.0420938,0.01,-62.0154,68.45,505.323,-505.346,741.377,9.52068e-09,-9.52092e-09,1.3968e-08,897.208,-897.231,0.000473137,1.6904e-08,-1.69043e-08,8.91417e-15
0.709975,0.37,0.0515318,0.01,-55.7603,68.45,502.64,-502.656,719.247,9.4701e-09,-9.47027e-09,1.3551e-08,877.472,-877.488,-0.000268579,1.65321e-08,-1.65323e-08,-5.06019e-15
0.719975,0.37,0.0599435,0.01,-49.5555,68.45,499.673,-499.687,697.891,9.41419e-09,-9.41434e-09,1.31487e-08,858.324,-858.338,-1.82157e-05,1.61714e-08,-1.61715e-08,-3.43193e-16
0.729975,0.37,0.0685036,0.01,-43.4007,68.45,496.452,-496.465,677.279,9.35351e-09,-9.35364e-09,1.27603e-08,839.743,-839.756,-8.0099e-06,1.58213e-08,-1.58214e-08,-1.50911e-16
0.739975,0.37,0.0774097,0.01,-37.2955,68.45,493.005,-493.017,657.385,9.28856e-09,-9.28868e-09,1.23855e-08,821.709,-821.721,-8.71517e-06,1.54815e-08,-1.54816e-08,-1.64199e-16
0.749975,0.37,0.0865551,0.01,-31.2396,68.45,489.356,-489.367,638.182,9.2198e-09,-9.21991e-09,1.20237e-08,804.204,-804.214,-8.81025e-06,1.51517e-08,-1.51518e-08,-1.6599e-16
0.759975,0.37,0.0958713,0.01,-25.2326,68.45,485.528,-485.537,619.646,9.14767e-09,-9.14776e-09,1.16745e-08,787.208,-787.217,-8.79575e-06,1.48315e-08,-1.48316e-08,-1.65717e-16
0.769975,0.37,0.104558,0.01,-19.2742,68.45,481.542,-481.55,601.752,9.07256e-09,-9.07264e-09,1.13374e-08,770.705,-770.712,-8.74567e-06,1.45206e-08,-1.45206e-08,-1.64773e-16
0.779975,0.37,0.11339,0.01,-13.364,68.45,477.416,-477.423,584.476,8.99482e-09,-8.9949e-09,1.10119e-08,754.676,-754.683,-8.66554e-06,1.42186e-08,-1.42186e-08,-1.63264e-16
0.789975,0.37,0.122401,0.01,-7.50146,68.45,473.169,-473.175,567.795,8.9148e-09,-8.91486e-09,1.06976e-08,739.107,-739.113,-8.55905e-06,1.39252e-08,-1.39253e-08,-1.61257e-16
0.799975,0.37,0.131556,0.01,-1.68626,68.45,468.817,-468.822,551.688,8.8328e-09,-8.83285e-09,1.03941e-08,723.98,-723.986,-8.43109e-06,1.36402e-08,-1.36403e-08,-1.58847e-16
0.809975,0.37,0.140826,0.01,4.08206,68.45,464.374,-464.378,536.133,8.74909e-09,-8.74914e-09,1.01011e-08,709.282,-709.286,-8.28492e-06,1.33633e-08,-1.33633e-08,-1.56093e-16
0.819975,0.37,0.149938,0.01,9.80394,68.45,459.855,-459.858,521.109,8.66394e-09,-8.66398e-09,9.81799e-09,694.996,-695,-8.12293e-06,1.30941e-08,-1.30942e-08,-1.53041e-16
0.829975,0.37,0.158875,0.01,15.4798,68.45,455.271,-455.274,506.596,8.57758e-09,-8.57761e-09,9.54456e-09,681.11,-681.113,-7.94822e-06,1.28325e-08,-1.28325e-08,-1.49749e-16
0.839975,0.37,0.167932,0.01,21.1102,68.45,450.635,-450.637,492.575,8.49023e-09,-8.49025e-09,9.2804e-09,667.609,-667.611,-7.76333e-06,1.25781e-08,-1.25782e-08,-1.46266e-16
0.849975,0.37,0.177091,0.01,26.6955,68.45,445.956,-445.958,479.028,8.40208e-09,-8.4021e-09,9.02517e-09,654.48,-654.482,-7.57036e-06,1.23308e-08,-1.23308e-08,-1.4263e-16
0.859975,0.37,0.186336,0.01,32.2362,68.45,441.245,-441.246,465.937,8.31331e-09,-8.31333e-09,8.77853e-09,641.712,-641.713,-7.37085e-06,1.20902e-08,-1.20902e-08,-1.38871e-16
0.869975,0.37,0.195655,0.01,37.7328,68.45,436.509,-436.51,453.285,8.22409e-09,-8.2241e-09,8.54015e-09,629.291,-629.292,-7.1673e-06,1.18562e-08,-1.18562e-08,-1.35036e-16
0.879975,0.37,0.204915,0.01,43.1857,68.45,431.758,-431.758,441.055,8.13457e-09,-8.13458e-09,8.30972e-09,617.207,-617.207,-6.96135e-06,1.16285e-08,-1.16285e-08,-1.31156e-16
0.889975,0.37,0.213997,0.01,48.5955,68.45,427.001,-427.01,429.236,8.04498e-09,-8.04508e-09,8.08705e-09,605.452,-605.461,-0.00161909,1.14071e-08,-1.14072e-08,-3.05046e-14
0.899975,0.37,0.223158,0.01,53.9625,68.45,422.316,-424.3,419.304,7.9653e-09,-7.98543e-09,7.89993e-09,594.831,-596.815,0.316214,1.12156e-08,-1.12357e-08,5.95766e-12
0.909975,0.37,0.232388,0.01,59.2874,68.45,417.446,-423.349,410.802,7.89058e-09,-7.95047e-09,7.73975e-09,584.834,-590.737,0.87063,1.10443e-08,-1.11042e-08,1.64032e-11
0.919975,0.37,0.241679,0.01,64.5705,68.45,415.776,-423.715,400.781,7.86797e-09,-7.94851e-09,7.55095e-09,576.383,-584.322,-1.44323,1.08939e-08,-1.09745e-08,-2.71914e-11
-0.910025,0.38,0.236385,0.01,61.4908,72.2,406.853,-419.131,-418.177,7.71873e-09,-7.84329e-09,-7.8787e-09,581.598,-593.876,-0.301513,1.1011e-08,-1.11356e-08,-5.68068e-12
-0.900025,0.38,0.227303,0.01,56.2076,72.2,411.71,-415.383,-424.202,7.77283e-09,-7.81009e-09,-7.9922e-09,590.589,-594.261,0.530231,1.1143e-08,-1.11803e-08,9.98986e-12
-0.890025,0.38,0.217958,0.01,50.8834,72.2,415.396,-415.481,-433.746,7.82668e-09,-7.82754e-09,-8.17203e-09,600.561,-600.646,0.0578597,1.13153e-08,-1.13162e-08,1.09011e-12
-0.880025,0.38,0.208674,0.01,45.5176,72.2,419.718,-419.72,-445.55,7.90774e-09,-7.90776e-09,-8.39442e-09,612.109,-612.111,6.3346e-06,1.15325e-08,-1.15325e-08,1.19348e-16
-0.870025,0.38,0.199459,0.01,40.1098,72.2,424.059,-424.061,-457.758,7.98953e-09,-7.98955e-09,-8.62443e-09,623.994,-623.996,6.49876e-06,1.17564e-08,-1.17564e-08,1.2244e-16
-0.860025,0.38,0.190323,0.01,34.6596,72.2,428.369,-428.371,-470.38,8.07072e-09,-8.07075e-09,-8.86224e-09,636.205,-636.207,6.65673e-06,1.19865e-08,-1.19865e-08,1.25417e-16
-0.850025,0.38,0.181279,0.01,29.1666,72.2,432.637,-432.64,-483.433,8.15115e-09,-8.15118e-09,-9.10815e-09,648.754,-648.757,6.80767e-06,1.22229e-08,-1.22229e-08,1.2826e-16
-0.840025,0.38,0.17234,0.01,23.6303,72.2,436.857,-436.86,-496.931,8.23065e-09,-8.23068e-09,-9.36247e-09,661.652,-661.656,6.95105e-06,1.24659e-08,-1.2466e-08,1.30962e-16
-0.830025,0.38,0.16315,0.01,18.0503,72.2,441.016,-441.02,-510.893,8.30901e-09,-8.30905e-09,-9.62552e-09,674.912,-674.916,7.08372e-06,1.27157e-08,-1.27158e-08,1.33461e-16
-0.820025,0.38,0.153922,0.01,12.4263,72.2,445.104,-445.109,-525.336,8.38604e-09,-8.38609e-09,-9.89763e-09,688.545,-688.55,7.2026e-06,1.29726e-08,-1.29727e-08,1.35701e-16
-0.810025,0.38,0.144797,0.01,6.75767,72.2,449.109,-449.115,-540.277,8.4615e-09,-8.46155e-09,-1.01791e-08,702.565,-702.57,7.30599e-06,1.32368e-08,-1.32368e-08,1.37649e-16
-0.800025,0.38,0.135795,0.01,1.04418,72.2,453.018,-453.024,-555.737,8.53514e-09,-8.53521e-09,-1.04704e-08,716.984,-716.991,7.39167e-06,1.35084e-08,-1.35085e-08,1.39263e-16
-0.790025,0.38,0.126942,0.01,-4.71461,72.2,456.816,-456.823,-571.733,8.6067e-09,-8.60678e-09,-1.07718e-08,731.818,-731.825,7.45651e-06,1.37879e-08,-1.3788e-08,1.40485e-16
-0.780025,0.38,0.118166,0.01,-10.5191,72.2,460.487,-460.496,-588.287,8.67588e-09,-8.67597e-09,-1.10837e-08,747.08,-747.088,7.49636e-06,1.40754e-08,-1.40755e-08,1.41236e-16
-0.770025,0.38,0.108916,0.01,-16.3696,72.2,464.016,-464.025,-605.419,8.74237e-09,-8.74246e-09,-1.14064e-08,762.784,-762.794,7.50783e-06,1.43713e-08,-1.43714e-08,1.41452e-16
-0.760025,0.38,0.0998111,0.01,-22.2665,72.2,467.383,-467.393,-623.15,8.80581e-09,-8.80592e-09,-1.17405e-08,778.948,-778.958,7.4871e-06,1.46759e-08,-1.4676e-08,1.41061e-16
-0.750025,0.38,0.0908941,0.01,-28.2102,72.2,470.569,-470.58,-641.503,8.86584e-09,-8.86595e-09,-1.20863e-08,795.586,-795.598,7.42945e-06,1.49894e-08,-1.49895e-08,1.39975e-16
-0.740025,0.38,0.0822267,0.01,-34.2009,72.2,473.551,-473.564,-660.5,8.92204e-09,-8.92217e-09,-1.24442e-08,812.716,-812.729,7.34692e-06,1.53121e-08,-1.53122e-08,1.3842e-16
-0.730025,0.38,0.0737385,0.01,-40.239,72.2,476.308,-476.322,-680.164,8.97397e-09,-8.97412e-09,-1.28147e-08,830.354,-830.368,7.47392e-06,1.56444e-08,-1.56446e-08,1.40813e-16
-0.720025,0.38,0.0644416,0.01,-46.3247,72.2,478.812,-478.828,-700.52,9.02117e-09,-9.02133e-09,-1.31982e-08,848.518,-848.534,6.33351e-06,1.59866e-08,-1.59868e-08,1.19327e-16
-0.710025,0.38,0.0553904,0.01,-52.4583,72.2,481.038,-481.055,-721.591,9.0631e-09,-9.06328e-09,-1.35952e-08,867.228,-867.245,-6.2964e-05,1.63391e-08,-1.63393e-08,-1.18628e-15
-0.700025,0.38,0.0467275,0.01,-58.6399,72.2,482.954,-482.973,-743.402,9.09921e-09,-9.0994e-09,-1.40061e-08,886.501,-886.52,-0.000298991,1.67023e-08,-1.67025e-08,-5.63316e-15
-0.690025,0.38,0.0387147,0.01,-64.8699,72.2,484.55,-484.551,-765.968,9.1292e-09,-9.12922e-09,-1.44313e-08,906.364,-906.365,0.0152883,1.70764e-08,-1.70764e-08,2.88041e-13
-0.680025,0.38,0.029971,0.01,-71.1483,72.2,486.213,-485.44,-788.681,9.15717e-09,-9.14933e-09,-1.48592e-08,926.694,-925.921,0.423169,1.74561e-08,-1.74482e-08,7.97274e-12
-0.670025,0.38,0.0204973,0.01,-77.4753,72.2,486.161,-479.414,-809.517,9.13021e-09,-9.06177e-09,-1.52518e-08,945.923,-939.176,-1.1466,1.77924e-08,-1.7724e-08,-2.16027e-11
-0.660025,0.38,0.0119173,0.01,-83.8508,72.2,484.422,-467.974,-824.38,9.05528e-09,-8.88842e-09,-1.55318e-08,960.255,-943.807,-2.09704,1.80202e-08,-1.78534e-08,-3.95094e-11
0.659975,0.38,0.0118802,0.01,-83.8826,72.2,484.436,-467.922,824.49,9.05525e-09,-8.88772e-09,1.55339e-08,960.373,-943.86,2.10705,1.80222e-08,-1.78547e-08,3.9698e-11
0.669975,0.38,0.0204515,0.01,-77.5069,72.2,486.166,-479.402,809.633,9.13023e-09,-9.06162e-09,1.5254e-08,946.03,-939.266,1.14957,1.77943e-08,-1.77257e-08,2.16585e-11
0.679975,0.38,0.029923,0.01,-71.1797,72.2,486.219,-485.442,788.797,9.15727e-09,-9.14939e-09,1.48614e-08,926.796,-926.019,-0.424283,1.7458e-08,-1.74501e-08,-7.99373e-12
0.689975,0.38,0.0386771,0.01,-64.901,72.2,484.557,-484.558,766.082,9.12934e-09,-9.12936e-09,1.44334e-08,906.464,-906.466,-0.0155496,1.70783e-08,-1.70783e-08,-2.92963e-13
0.699975,0.38,0.0466857,0.01,-58.6708,72.2,482.962,-482.981,743.513,9.09937e-09,-9.09957e-09,1.40082e-08,886.598,-886.617,0.000295858,1.67041e-08,-1.67043e-08,5.57413e-15
0.709975,0.38,0.0553462,0.01,-52.4889,72.2,481.048,-481.066,721.698,9.0633e-09,-9.06348e-09,1.35972e-08,867.322,-867.34,6.39603e-05,1.63409e-08,-1.63411e-08,1.20505e-15
0.719975,0.38,0.0643959,0.01,-46.3551,72.2,478.824,-478.84,700.623,9.02139e-09,-9.02155e-09,1.32001e-08,848.61,-848.626,-6.29336e-06,1.59884e-08,-1.59885e-08,-1.18571e-16
0.729975,0.38,0.0736918,0.01,-40.2691,72.2,476.321,-476.335,680.264,8.97422e-09,-8.97437e-09,1.28166e-08,830.443,-830.457,-7.47626e-06,1.56461e-08,-1.56462e-08,-1.40857e-16
0.739975,0.38,0.0821843,0.01,-34.2308,72.2,473.566,-473.579,660.596,8.92231e-09,-8.92244e-09,1.2446e-08,812.802,-812.815,-7.34691e-06,1.53137e-08,-1.53138e-08,-1.3842e-16
0.749975,0.38,0.0908503,0.01,-28.2399,72.2,470.584,-470.596,641.596,8.86613e-09,-8.86624e-09,1.2088e-08,795.67,-795.682,-7.42937e-06,1.49909e-08,-1.49911e-08,-1.39974e-16
0.759975,0.38,0.0997663,0.01,-22.296,72.2,467.399,-467.41,623.24,8.80612e-09,-8.80622e-09,1.17422e-08,779.029,-779.04,-7.4871e-06,1.46774e-08,-1.46775e-08,-1.41061e-16
0.769975,0.38,0.108871,0.01,-16.3988,72.2,464.033,-464.042,605.506,8.74269e-09,-8.74279e-09,1.14081e-08,762.864,-762.873,-7.50779e-06,1.43728e-08,-1.43729e-08,-1.41451e-16
0.779975,0.38,0.11812,0.01,-10.5481,72.2,460.505,-460.513,588.371,8.67622e-09,-8.6763e-09,1.10852e-08,747.157,-747.165,-7.49635e-06,1.40769e-08,-1.4077e-08,-1.41235e-16
0.789975,0.38,0.126898,0.01,-4.74337,72.2,456.834,-456.841,571.814,8.60705e-09,-8.60713e-09,1.07733e-08,731.893,-731.9,-7.45641e-06,1.37893e-08,-1.37894e-08,-1.40483e-16
0.799975,0.38,0.13575,0.01,1.01565,72.2,453.037,-453.043,555.815,8.5355e-09,-8.53557e-09,1.04719e-08,717.057,-717.063,-7.39199e-06,1.35098e-08,-1.35099e-08,-1.39269e-16
0.809975,0.38,0.144752,0.01,6.72937,72.2,449.129,-449.134,540.353,8.46187e-09,-8.46193e-09,1.01806e-08,702.635,-702.641,-7.30676e-06,1.32381e-08,-1.32381e-08,-1.37664e-16
0.819975,0.38,0.153876,0.01,12.3982,72.2,445.124,-445.129,525.409,8.38642e-09,-8.38647e-09,9.89901e-09,688.614,-688.618,-7.20317e-06,1.29739e-08,-1.2974e-08,-1.35712e-16
0.829975,0.38,0.163104,0.01,18.0225,72.2,441.036,-441.04,510.964,8.3094e-09,-8.30944e-09,9.62685e-09,674.979,-674.983,-7.08422e-06,1.2717e-08,-1.2717e-08,-1.33471e-16
0.839975,0.38,0.172296,0.01,23.6027,72.2,436.878,-436.881,497,8.23104e-09,-8.23108e-09,9.36376e-09,661.717,-661.721,-6.9522e-06,1.24672e-08,-1.24672e-08,-1.30983e-16
0.849975,0.38,0.181234,0.01,29.1392,72.2,432.659,-432.661,483.499,8.15155e-09,-8.15158e-09,9.1094e-09,648.817,-648.82,-6.80919e-06,1.22241e-08,-1.22241e-08,-1.28289e-16
0.859975,0.38,0.190278,0.01,34.6324,72.2,428.39,-428.392,470.444,8.07112e-09,-8.07115e-09,8.86344e-09,636.267,-636.269,-6.65751e-06,1.19876e-08,-1.19877e-08,-1.25431e-16
0.869975,0.38,0.199413,0.01,40.0828,72.2,424.081,-424.083,457.82,7.98994e-09,-7.98996e-09,8.62559e-09,624.054,-624.056,-6.49901e-06,1.17575e-08,-1.17576e-08,-1.22445e-16
0.879975,0.38,0.208628,0.01,45.4908,72.2,419.74,-419.741,445.61,7.90815e-09,-7.90816e-09,8.39554e-09,612.168,-612.169,-6.33525e-06,1.15336e-08,-1.15336e-08,-1.1936e-16
0.889975,0.38,0.217911,0.01,50.8568,72.2,415.418,-415.503,433.804,7.82709e-09,-7.82795e-09,8.17312e-09,600.618,-600.703,-0.0578618,1.13164e-08,-1.13172e-08,-1.09015e-12
0.899975,0.38,0.227256,0.01,56.1813,72.2,411.732,-415.405,424.258,7.77324e-09,-7.81051e-09,7.99326e-09,590.644,-594.317,-0.530348,1.1144e-08,-1.11813e-08,-9.99206e-12
0.909975,0.38,0.23634,0.01,61.4647,72.2,406.875,-419.155,418.232,7.71915e-09,-7.84373e-09,7.87974e-09,581.652,-593.932,0.301516,1.10121e-08,-1.11366e-08,5.68074e-12
-0.910025,0.39,0.240233,0.01,63.7086,76.05,397.808,-406.517,-421.078,7.53279e-09,-7.62115e-09,-7.93335e-09,577.917,-586.627,0.811172,1.09262e-08,-1.10145e-08,1.52829e-11
-0.900025,0.39,0.230979,0.01,58.4673,76.05,400.348,-402.467,-428.604,7.55201e-09,-7.5735e-09,-8.07515e-09,586.163,-588.282,-0.209827,1.10529e-08,-1.10744e-08,-3.95327e-12
-0.890025,0.39,0.221789,0.01,53.186,76.05,403.667,-403.989,-438.169,7.60671e-09,-7.60998e-09,-8.25536e-09,595.716,-596.038,-0.108713,1.1225e-08,-1.12283e-08,-2.04821e-12
-0.880025,0.39,0.212672,0.01,47.8644,76.05,407.726,-407.728,-449.706,7.68181e-09,-7.68183e-09,-8.47273e-09,607.022,-607.024,5.73052e-06,1.14367e-08,-1.14367e-08,1.07966e-16
-0.870025,0.39,0.203638,0.01,42.502,76.05,411.665,-411.667,-461.879,7.75601e-09,-7.75604e-09,-8.70207e-09,618.708,-618.711,5.85507e-06,1.16568e-08,-1.16569e-08,1.10313e-16
-0.860025,0.39,0.194699,0.01,37.0984,76.05,415.556,-415.559,-474.458,7.82933e-09,-7.82937e-09,-8.93906e-09,630.711,-630.714,5.97157e-06,1.1883e-08,-1.1883e-08,1.12508e-16
-0.850025,0.39,0.185447,0.01,31.6533,76.05,419.392,-419.396,-487.457,7.9016e-09,-7.90164e-09,-9.18398e-09,643.042,-643.046,6.0798e-06,1.21153e-08,-1.21153e-08,1.14547e-16
-0.840025,0.39,0.176252,0.01,26.1662,76.05,423.162,-423.166,-500.893,7.97263e-09,-7.97267e-09,-9.43711e-09,655.712,-655.716,6.17804e-06,1.2354e-08,-1.23541e-08,1.16398e-16
-0.830025,0.39,0.167149,0.01,20.6368,76.05,426.855,-426.86,-514.781,8.04221e-09,-8.04226e-09,-9.69877e-09,668.732,-668.737,6.26268e-06,1.25993e-08,-1.25994e-08,1.17993e-16
-0.820025,0.39,0.158155,0.01,15.0647,76.05,430.459,-430.465,-529.138,8.11012e-09,-8.11018e-09,-9.96926e-09,682.114,-682.12,6.33127e-06,1.28515e-08,-1.28515e-08,1.19285e-16
-0.810025,0.39,0.149289,0.01,9.44963,76.05,433.962,-433.969,-543.98,8.17613e-09,-8.1762e-09,-1.02489e-08,695.871,-695.877,6.38298e-06,1.31106e-08,-1.31107e-08,1.20259e-16
-0.800025,0.39,0.14045,0.01,3.79112,76.05,437.351,-437.358,-559.327,8.23998e-09,-8.24005e-09,-1.0538e-08,710.014,-710.022,6.41535e-06,1.33771e-08,-1.33772e-08,1.20869e-16
-0.790025,0.39,0.131247,0.01,-1.91112,76.05,440.61,-440.618,-575.195,8.30138e-09,-8.30146e-09,-1.0837e-08,724.558,-724.566,6.42454e-06,1.36511e-08,-1.36512e-08,1.21042e-16
-0.780025,0.39,0.122169,0.01,-7.65742,76.05,443.722,-443.732,-591.605,8.36003e-09,-8.36012e-09,-1.11462e-08,739.515,-739.525,6.40684e-06,1.39329e-08,-1.3933e-08,1.20709e-16
-0.770025,0.39,0.113247,0.01,-13.4481,76.05,446.672,-446.682,-608.574,8.4156e-09,-8.4157e-09,-1.14659e-08,754.9,-754.911,6.35954e-06,1.42228e-08,-1.42229e-08,1.19817e-16
-0.760025,0.39,0.104519,0.01,-19.2834,76.05,449.438,-449.45,-626.123,8.46773e-09,-8.46785e-09,-1.17965e-08,770.728,-770.74,6.27922e-06,1.4521e-08,-1.45211e-08,1.18304e-16
-0.750025,0.39,0.0959912,0.01,-25.1637,76.05,452.002,-452.015,-644.273,8.51604e-09,-8.51617e-09,-1.21385e-08,787.013,-787.026,6.16206e-06,1.48278e-08,-1.4828e-08,1.16097e-16
-0.740025,0.39,0.0867737,0.01,-31.0892,76.05,454.341,-454.355,-663.045,8.56011e-09,-8.56025e-09,-1.24921e-08,803.772,-803.786,6.00158e-06,1.51436e-08,-1.51437e-08,1.13073e-16
-0.730025,0.39,0.0777498,0.01,-37.0601,76.05,456.431,-456.447,-682.459,8.59949e-09,-8.59965e-09,-1.28579e-08,821.019,-821.035,5.71252e-06,1.54686e-08,-1.54687e-08,1.07627e-16
-0.720025,0.39,0.0689957,0.01,-43.0767,76.05,458.246,-458.263,-702.537,8.63369e-09,-8.63387e-09,-1.32362e-08,838.774,-838.791,5.14148e-06,1.58031e-08,-1.58032e-08,9.68685e-17
-0.710025,0.39,0.0606281,0.01,-49.1391,76.05,459.758,-459.777,-723.303,8.66219e-09,-8.66238e-09,-1.36274e-08,857.051,-857.07,2.02927e-05,1.61474e-08,-1.61476e-08,3.82327e-16
-0.700025,0.39,0.0520852,0.01,-55.2474,76.05,460.938,-460.958,-744.778,8.68442e-09,-8.68463e-09,-1.40321e-08,875.87,-875.891,0.000177323,1.6502e-08,-1.65022e-08,3.34088e-15
-0.690025,0.39,0.042834,0.01,-61.4019,76.05,461.748,-461.776,-766.989,8.69972e-09,-8.7e-09,-1.44505e-08,895.249,-895.277,-0.0026147,1.68671e-08,-1.68674e-08,-4.92626e-14
-0.680025,0.39,0.0340093,0.01,-67.6025,76.05,462.1,-462.114,-789.939,8.70629e-09,-8.70644e-09,-1.48829e-08,915.169,-915.183,-0.0559172,1.72424e-08,-1.72425e-08,-1.05351e-12
-0.670025,0.39,0.0260483,0.01,-73.8493,76.05,461.972,-457.592,-810.222,8.68478e-09,-8.64035e-09,-1.5265e-08,933.779,-929.4,-0.348933,1.75739e-08,-1.75295e-08,-6.5741e-12
-0.660025,0.39,0.0190552,0.01,-80.1424,76.05,464.33,-450.441,-826.229,8.68786e-09,-8.54695e-09,-1.55666e-08,951.323,-937.434,2.05498,1.78631e-08,-1.77222e-08,3.8717e-11
-0.650025,0.39,0.0090701,0.01,-86.4813,76.05,463.353,-444.09,-844.563,8.64608e-09,-8.45066e-09,-1.59121e-08,968.35,-949.087,2.86842,1.81605e-08,-1.79651e-08,5.40427e-11
0.649975,0.39,0.00902052,0.01,-86.5129,76.05,463.36,-443.99,844.636,8.64576e-09,-8.44925e-09,1.59134e-08,968.446,-949.076,-2.85832,1.81619e-08,-1.79654e-08,-5.38523e-11
0.659975,0.39,0.0190055,0.01,-80.1738,76.05,464.337,-450.389,826.332,8.68774e-09,-8.54623e-09,1.55686e-08,951.433,-937.484,-2.04816,1.78649e-08,-1.77234e-08,-3.85885e-11
0.669975,0.39,0.0260123,0.01,-73.8805,76.05,461.97,-457.579,810.336,8.68469e-09,-8.64014e-09,1.52672e-08,933.881,-929.489,0.352158,1.75758e-08,-1.75312e-08,6.63485e-12
0.679975,0.39,0.0339671,0.01,-67.6334,76.05,462.1,-462.114,790.055,8.7063e-09,-8.70644e-09,1.48851e-08,915.269,-915.283,0.056299,1.72443e-08,-1.72444e-08,1.06071e-12
0.689975,0.39,0.0427888,0.01,-61.4326,76.05,461.751,-461.779,767.102,8.69978e-09,-8.70006e-09,1.44526e-08,895.347,-895.375,0.00267247,1.6869e-08,-1.68693e-08,5.03508e-14
0.699975,0.39,0.0520385,0.01,-55.2779,76.05,460.943,-460.963,744.887,8.68452e-09,-8.68473e-09,1.40341e-08,875.965,-875.986,-0.000178247,1.65038e-08,-1.6504e-08,-3.35828e-15
0.709975,0.39,0.0605877,0.01,-49.1693,76.05,459.765,-459.784,723.408,8.66232e-09,-8.66251e-09,1.36294e-08,857.143,-857.163,-2.05577e-05,1.61492e-08,-1.61494e-08,-3.87319e-16
0.719975,0.39,0.068953,0.01,-43.1067,76.05,458.254,-458.271,702.639,8.63385e-09,-8.63402e-09,1.32381e-08,838.863,-838.881,-5.14248e-06,1.58047e-08,-1.58049e-08,-9.68873e-17
0.729975,0.39,0.0777055,0.01,-37.0899,76.05,456.44,-456.456,682.557,8.59967e-09,-8.59983e-09,1.28598e-08,821.106,-821.122,-5.70986e-06,1.54702e-08,-1.54704e-08,-1.07577e-16
0.739975,0.39,0.0867283,0.01,-31.1188,76.05,454.352,-454.366,663.139,8.56032e-09,-8.56046e-09,1.24939e-08,803.856,-803.87,-6.00049e-06,1.51452e-08,-1.51453e-08,-1.13053e-16
0.749975,0.39,0.0959449,0.01,-25.1931,76.05,452.014,-452.027,644.365,8.51627e-09,-8.5164e-09,1.21402e-08,787.095,-787.108,-6.16154e-06,1.48294e-08,-1.48295e-08,-1.16087e-16
0.759975,0.39,0.104476,0.01,-19.3126,76.05,449.452,-449.463,626.212,8.46798e-09,-8.4681e-09,1.17982e-08,770.808,-770.819,-6.2791e-06,1.45225e-08,-1.45226e-08,-1.18302e-16
0.769975,0.39,0.113203,0.01,-13.477,76.05,446.686,-446.696,608.66,8.41586e-09,-8.41597e-09,1.14675e-08,754.978,-754.988,-6.35951e-06,1.42243e-08,-1.42244e-08,-1.19817e-16
0.779975,0.39,0.122124,0.01,-7.68611,76.05,443.737,-443.747,591.688,8.36031e-09,-8.36041e-09,1.11477e-08,739.591,-739.6,-6.40692e-06,1.39344e-08,-1.39345e-08,-1.2071e-16
0.789975,0.39,0.131202,0.01,-1.93959,76.05,440.625,-440.634,575.276,8.30168e-09,-8.30176e-09,1.08385e-08,724.631,-724.64,-6.4245e-06,1.36525e-08,-1.36526e-08,-1.21041e-16
0.799975,0.39,0.140404,0.01,3.76287,76.05,437.368,-437.375,559.404,8.24029e-09,-8.24037e-09,1.05395e-08,710.086,-710.093,-6.41549e-06,1.33785e-08,-1.33785e-08,-1.20872e-16
0.809975,0.39,0.149245,0.01,9.4216,76.05,433.98,-433.986,544.055,8.17646e-09,-8.17652e-09,1.02503e-08,695.94,-695.947,-6.38376e-06,1.31119e-08,-1.3112e-08,-1.20274e-16
0.819975,0.39,0.158111,0.01,15.0369,76.05,430.477,-430.483,529.21,8.11046e-09,-8.11052e-09,9.97063e-09,682.182,-682.188,-6.33204e-06,1.28527e-08,-1.28528e-08,-1.19299e-16
0.829975,0.39,0.167104,0.01,20.6092,76.05,426.873,-426.878,514.851,8.04255e-09,-8.0426e-09,9.70009e-09,668.798,-668.803,-6.26272e-06,1.26006e-08,-1.26006e-08,-1.17993e-16
0.839975,0.39,0.176207,0.01,26.1388,76.05,423.18,-423.185,500.961,7.97298e-09,-7.97302e-09,9.43839e-09,655.776,-655.78,-6.17815e-06,1.23552e-08,-1.23553e-08,-1.164e-16
0.849975,0.39,0.185401,0.01,31.6261,76.05,419.411,-419.415,487.523,7.90196e-09,-7.902e-09,9.18522e-09,643.104,-643.108,-6.08066e-06,1.21165e-08,-1.21165e-08,-1.14563e-16
0.859975,0.39,0.194655,0.01,37.0714,76.05,415.575,-415.579,474.521,7.8297e-09,-7.82973e-09,8.94026e-09,630.772,-630.775,-5.97237e-06,1.18841e-08,-1.18842e-08,-1.12523e-16
0.869975,0.39,0.203594,0.01,42.4752,76.05,411.684,-411.687,461.941,7.75638e-09,-7.75641e-09,8.70323e-09,618.767,-618.77,-5.8551e-06,1.16579e-08,-1.1658e-08,-1.10313e-16
0.879975,0.39,0.212627,0.01,47.8378,76.05,407.746,-407.748,449.766,7.68218e-09,-7.6822e-09,8.47385e-09,607.079,-607.082,-5.73056e-06,1.14377e-08,-1.14378e-08,-1.07967e-16
0.889975,0.39,0.221743,0.01,53.1596,76.05,403.686,-404.009,438.227,7.60709e-09,-7.61035e-09,8.25645e-09,595.771,-596.094,0.108747,1.12261e-08,-1.12293e-08,2.04885e-12
0.899975,0.39,0.230933,0.01,58.4411,76.05,400.368,-402.487,428.661,7.55238e-09,-7.57388e-09,8.07621e-09,586.217,-588.336,0.21002,1.10539e-08,-1.10754e-08,3.95689e-12
0.909975,0.39,0.240187,0.01,63.6826,76.05,397.828,-406.538,421.133,7.53318e-09,-7.62154e-09,7.93439e-09,577.97,-586.681,-0.811053,1.09272e-08,-1.10155e-08,-1.52807e-11
-0.910025,0.4,0.244125,0.01,65.9659,80,387.823,-387.901,-427.345,7.30715e-09,-7.30795e-09,-8.05142e-09,577.066,-577.144,-3.19489,1.08726e-08,-1.08734e-08,-6.01936e-11
-0.900025,0.4,0.235023,0.01,60.7669,80,388.586,-393.264,-435.3,7.34153e-09,-7.38899e-09,-8.20131e-09,582.731,-587.409,-1.53671,1.09993e-08,-1.10468e-08,-2.89525e-11
-0.890025,0.4,0.225998,0.01,55.529,80,392.233,-394.256,-443.29,7.3987e-09,-7.41921e-09,-8.35183e-09,591.565,-593.588,-0.23637,1.11542e-08,-1.11747e-08,-4.45335e-12
-0.880025,0.4,0.217001,0.01,50.252,80,395.775,-395.787,-453.476,7.45668e-09,-7.4568e-09,-8.54376e-09,601.894,-601.906,0.00212376,1.13401e-08,-1.13402e-08,4.00129e-14
-0.870025,0.4,0.207759,0.01,44.9353,80,399.317,-399.32,-465.595,7.52337e-09,-7.52341e-09,-8.77207e-09,613.377,-613.381,5.23879e-06,1.15564e-08,-1.15564e-08,9.87019e-17
-0.860025,0.4,0.198589,0.01,39.5787,80,402.8,-402.804,-478.115,7.589e-09,-7.58904e-09,-9.00796e-09,625.172,-625.176,5.31815e-06,1.17786e-08,-1.17787e-08,1.00197e-16
-0.850025,0.4,0.189504,0.01,34.1819,80,406.212,-406.217,-491.046,7.65329e-09,-7.65334e-09,-9.25158e-09,637.286,-637.29,5.38779e-06,1.20069e-08,-1.20069e-08,1.01509e-16
-0.840025,0.4,0.180516,0.01,28.7444,80,409.543,-409.548,-504.402,7.71605e-09,-7.71611e-09,-9.50323e-09,649.727,-649.733,5.44512e-06,1.22413e-08,-1.22413e-08,1.02589e-16
-0.830025,0.4,0.171639,0.01,23.266,80,412.781,-412.788,-518.2,7.77707e-09,-7.77713e-09,-9.76318e-09,662.509,-662.515,5.48702e-06,1.24821e-08,-1.24821e-08,1.03379e-16
-0.820025,0.4,0.162756,0.01,17.7463,80,415.915,-415.922,-532.453,7.83611e-09,-7.83618e-09,-1.00317e-08,675.641,-675.647,5.51189e-06,1.27295e-08,-1.27296e-08,1.03847e-16
-0.810025,0.4,0.153587,0.01,12.185,80,418.931,-418.938,-547.18,7.89293e-09,-7.89301e-09,-1.03092e-08,689.135,-689.142,5.51858e-06,1.29837e-08,-1.29838e-08,1.03973e-16
-0.800025,0.4,0.144528,0.01,6.5818,80,421.814,-421.822,-562.395,7.94726e-09,-7.94734e-09,-1.05958e-08,703.003,-703.011,5.50413e-06,1.3245e-08,-1.32451e-08,1.03701e-16
-0.790025,0.4,0.135602,0.01,0.936433,80,424.549,-424.559,-578.117,7.9988e-09,-7.99889e-09,-1.08921e-08,717.258,-717.267,5.46506e-06,1.35136e-08,-1.35137e-08,1.02965e-16
-0.780025,0.4,0.126836,0.01,-4.75139,80,427.121,-427.131,-594.362,8.04725e-09,-8.04735e-09,-1.11981e-08,731.912,-731.922,5.39858e-06,1.37897e-08,-1.37898e-08,1.01712e-16
-0.770025,0.4,0.118266,0.01,-10.4819,80,429.509,-429.521,-611.149,8.09225e-09,-8.09237e-09,-1.15144e-08,746.979,-746.991,5.302e-06,1.40736e-08,-1.40737e-08,9.98928e-17
-0.760025,0.4,0.109117,0.01,-16.2554,80,431.696,-431.709,-628.496,8.13346e-09,-8.13359e-09,-1.18412e-08,762.473,-762.486,5.17197e-06,1.43655e-08,-1.43656e-08,9.74429e-17
-0.750025,0.4,0.10011,0.01,-22.0721,80,433.66,-433.674,-646.422,8.17047e-09,-8.17062e-09,-1.2179e-08,778.408,-778.422,5.0048e-06,1.46657e-08,-1.46659e-08,9.42934e-17
-0.740025,0.4,0.0913091,0.01,-27.9321,80,435.379,-435.395,-664.946,8.20286e-09,-8.20302e-09,-1.2528e-08,794.798,-794.813,4.79646e-06,1.49745e-08,-1.49747e-08,9.0368e-17
-0.730025,0.4,0.0827811,0.01,-33.8356,80,436.828,-436.845,-684.088,8.23017e-09,-8.23035e-09,-1.28886e-08,811.659,-811.676,4.56302e-06,1.52922e-08,-1.52924e-08,8.59699e-17
-0.720025,0.4,0.074347,0.01,-39.7829,80,437.982,-438,-703.868,8.25191e-09,-8.2521e-09,-1.32613e-08,829.006,-829.024,4.47773e-06,1.5619e-08,-1.56192e-08,8.4363e-17
-0.710025,0.4,0.0651872,0.01,-45.7739,80,438.811,-438.831,-724.305,8.26754e-09,-8.26774e-09,-1.36463e-08,846.856,-846.876,1.70169e-06,1.59553e-08,-1.59555e-08,3.20608e-17
-0.700025,0.4,0.0563138,0.01,-51.8088,80,439.285,-439.308,-745.421,8.27649e-09,-8.27671e-09,-1.40442e-08,865.225,-865.247,-5.39964e-05,1.63014e-08,-1.63017e-08,-1.01732e-15
-0.690025,0.4,0.0478866,0.01,-57.8876,80,439.373,-439.396,-767.234,8.27815e-09,-8.27838e-09,-1.44551e-08,884.13,-884.154,0.000240956,1.66576e-08,-1.66579e-08,4.53975e-15
-0.680025,0.4,0.0401872,0.01,-64.0104,80,439.054,-439.071,-789.762,8.27211e-09,-8.27228e-09,-1.48796e-08,903.596,-903.613,0.0129842,1.70243e-08,-1.70245e-08,2.44631e-13
-0.670025,0.4,0.0309562,0.01,-70.1771,80,438.718,-437.728,-812.105,8.26139e-09,-8.25135e-09,-1.53005e-08,923.291,-922.302,0.413768,1.7391e-08,-1.7381e-08,7.79562e-12
-0.660025,0.4,0.0218506,0.01,-76.3876,80,437.432,-429.625,-832.037,8.20753e-09,-8.12832e-09,-1.56761e-08,942.111,-934.303,-0.713614,1.7716e-08,-1.76368e-08,-1.34449e-11
-0.650025,0.4,0.014022,0.01,-82.6417,80,437.062,-412.626,-845.892,8.12826e-09,-7.88036e-09,-1.59371e-08,958.803,-934.367,-1.9683,1.79582e-08,-1.77103e-08,-3.70839e-11
0.649975,0.4,0.01399,0.01,-82.6729,80,437.092,-412.562,845.987,8.12841e-09,-7.87956e-09,1.59389e-08,958.926,-934.397,1.96173,1.79601e-08,-1.77112e-08,3.69601e-11
0.659975,0.4,0.0218073,0.01,-76.4185,80,437.43,-429.599,832.146,8.20739e-09,-8.12795e-09,1.56781e-08,942.212,-934.381,0.713416,1.77178e-08,-1.76383e-08,1.34412e-11
0.669975,0.4,0.0309095,0.01,-70.2079,80,438.713,-437.718,812.218,8.26128e-09,-8.25119e-09,1.53027e-08,923.39,-922.396,-0.413956,1.73929e-08,-1.73828e-08,-7.79918e-12
0.679975,0.4,0.0401514,0.01,-64.041,80,439.052,-439.069,789.876,8.27206e-09,-8.27224e-09,1.48817e-08,903.694,-903.711,-0.0131403,1.70262e-08,-1.70264e-08,-2.47571e-13
0.689975,0.4,0.0478462,0.01,-57.918,80,439.373,-439.396,767.344,8.27814e-09,-8.27837e-09,1.44572e-08,884.226,-884.249,-0.000250603,1.66594e-08,-1.66597e-08,-4.7215e-15
0.699975,0.4,0.0562706,0.01,-51.8389,80,439.287,-439.309,745.527,8.27651e-09,-8.27674e-09,1.40462e-08,865.318,-865.34,5.45983e-05,1.63032e-08,-1.63034e-08,1.02866e-15
0.709975,0.4,0.0651422,0.01,-45.8038,80,438.814,-438.834,724.409,8.2676e-09,-8.26781e-09,1.36483e-08,846.946,-846.966,-1.64421e-06,1.5957e-08,-1.59572e-08,-3.09779e-17
0.719975,0.4,0.074301,0.01,-39.8125,80,437.987,-438.005,703.968,8.252e-09,-8.25219e-09,1.32632e-08,829.093,-829.112,-4.47693e-06,1.56207e-08,-1.56209e-08,-8.43479e-17
0.729975,0.4,0.0827395,0.01,-33.8651,80,436.835,-436.852,684.185,8.2303e-09,-8.23047e-09,1.28904e-08,811.744,-811.761,-4.56123e-06,1.52938e-08,-1.5294e-08,-8.59361e-17
0.739975,0.4,0.0912659,0.01,-27.9613,80,435.387,-435.403,665.04,8.20301e-09,-8.20317e-09,1.25297e-08,794.88,-794.896,-4.79523e-06,1.49761e-08,-1.49762e-08,-9.03449e-17
0.749975,0.4,0.100065,0.01,-22.1011,80,433.67,-433.684,646.513,8.17065e-09,-8.17079e-09,1.21807e-08,778.488,-778.502,-5.00415e-06,1.46672e-08,-1.46674e-08,-9.42811e-17
0.759975,0.4,0.109072,0.01,-16.2842,80,431.707,-431.719,628.584,8.13366e-09,-8.13379e-09,1.18429e-08,762.551,-762.564,-5.17173e-06,1.4367e-08,-1.43671e-08,-9.74383e-17
0.769975,0.4,0.118224,0.01,-10.5105,80,429.521,-429.532,611.234,8.09247e-09,-8.09259e-09,1.1516e-08,747.055,-747.067,-5.30168e-06,1.4075e-08,-1.40751e-08,-9.98867e-17
0.779975,0.4,0.126793,0.01,-4.77978,80,427.133,-427.143,594.444,8.04748e-09,-8.04758e-09,1.11997e-08,731.986,-731.996,-5.39822e-06,1.37911e-08,-1.37912e-08,-1.01706e-16
0.789975,0.4,0.135558,0.01,0.908253,80,424.563,-424.572,578.196,7.99905e-09,-7.99914e-09,1.08936e-08,717.329,-717.339,-5.46452e-06,1.35149e-08,-1.3515e-08,-1.02955e-16
0.799975,0.4,0.144483,0.01,6.55383,80,421.828,-421.836,562.472,7.94752e-09,-7.94761e-09,1.05973e-08,703.073,-703.081,-5.50344e-06,1.32463e-08,-1.32464e-08,-1.03688e-16
0.809975,0.4,0.153541,0.01,12.1572,80,418.945,-418.953,547.254,7.89321e-09,-7.89328e-09,1.03106e-08,689.203,-689.21,-5.51845e-06,1.2985e-08,-1.29851e-08,-1.03971e-16
0.819975,0.4,0.16271,0.01,17.7187,80,415.93,-415.937,532.525,7.8364e-09,-7.83647e-09,1.00331e-08,675.707,-675.714,-5.51214e-06,1.27307e-08,-1.27308e-08,-1.03852e-16
0.829975,0.4,0.171595,0.01,23.2386,80,412.797,-412.803,518.269,7.77737e-09,-7.77743e-09,9.76449e-09,662.573,-662.579,-5.4868e-06,1.24833e-08,-1.24833e-08,-1.03375e-16
0.839975,0.4,0.180471,0.01,28.7173,80,409.559,-409.565,504.47,7.71636e-09,-7.71641e-09,9.5045e-09,649.79,-649.796,-5.4448e-06,1.22424e-08,-1.22425e-08,-1.02583e-16
0.849975,0.4,0.189459,0.01,34.1549,80,406.229,-406.234,491.111,7.65361e-09,-7.65366e-09,9.25281e-09,637.347,-637.351,-5.38826e-06,1.2008e-08,-1.2008e-08,-1.01518e-16
0.859975,0.4,0.198544,0.01,39.552,80,402.817,-402.821,478.178,7.58932e-09,-7.58936e-09,9.00915e-09,625.232,-625.236,-5.31886e-06,1.17797e-08,-1.17798e-08,-1.0021e-16
0.869975,0.4,0.207713,0.01,44.9088,80,399.334,-399.338,465.656,7.5237e-09,-7.52374e-09,8.77323e-09,613.435,-613.438,-5.23878e-06,1.15575e-08,-1.15575e-08,-9.87017e-17
0.879975,0.4,0.216955,0.01,50.2256,80,395.793,-395.805,453.536,7.45702e-09,-7.45714e-09,8.54488e-09,601.95,-601.962,-0.00212438,1.13411e-08,-1.13413e-08,-4.00245e-14
0.889975,0.4,0.225953,0.01,55.5029,80,392.251,-394.274,443.347,7.39904e-09,-7.41956e-09,8.35292e-09,591.62,-593.643,0.236354,1.11553e-08,-1.11758e-08,4.45305e-12
0.899975,0.4,0.234978,0.01,60.7409,80,388.604,-393.283,435.357,7.34187e-09,-7.38934e-09,8.20238e-09,582.785,-587.463,1.53702,1.10003e-08,-1.10478e-08,2.89583e-11
0.909975,0.4,0.244079,0.01,65.9401,80,387.841,-387.92,427.4,7.30749e-09,-7.30829e-09,8.05247e-09,577.119,-577.198,3.19577,1.08736e-08,-1.08744e-08,6.02101e-11
-0.900025,0.41,0.239296,0.01,63.1053,84.05,379.072,-388.203,-439.774,7.18164e-09,-7.27426e-09,-8.2856e-09,579.026,-588.156,0.839762,1.09489e-08,-1.10415e-08,1.58216e-11
-0.890025,0.41,0.230079,0.01,57.9112,84.05,381.348,-384.757,-446.985,7.19964e-09,-7.23422e-09,-8.42146e-09,586.959,-590.368,0.64669,1.10735e-08,-1.1108e-08,1.2184e-11
-0.880025,0.41,0.220931,0.01,52.6791,84.05,383.767,-384.116,-457.127,7.2319e-09,-7.23545e-09,-8.61254e-09,596.798,-597.147,-0.123292,1.12455e-08,-1.12491e-08,-2.32289e-12
-0.870025,0.41,0.21186,0.01,47.4086,84.05,387.03,-387.034,-468.913,7.29188e-09,-7.29193e-09,-8.8346e-09,608.006,-608.01,4.65235e-06,1.14552e-08,-1.14552e-08,8.7653e-17
-0.860025,0.41,0.202876,0.01,42.0994,84.05,390.114,-390.119,-481.361,7.35e-09,-7.35005e-09,-9.06911e-09,619.593,-619.598,4.69861e-06,1.16735e-08,-1.16736e-08,8.85245e-17
-0.850025,0.41,0.193992,0.01,36.7511,84.05,393.113,-393.119,-494.208,7.40651e-09,-7.40657e-09,-9.31117e-09,631.489,-631.495,4.73339e-06,1.18976e-08,-1.18977e-08,8.91798e-17
-0.840025,0.41,0.185074,0.01,31.3636,84.05,396.017,-396.023,-507.471,7.46122e-09,-7.46128e-09,-9.56104e-09,643.704,-643.71,4.75413e-06,1.21278e-08,-1.21278e-08,8.95705e-17
-0.830025,0.41,0.175931,0.01,25.9364,84.05,398.813,-398.82,-521.162,7.5139e-09,-7.51397e-09,-9.81899e-09,656.247,-656.254,4.75866e-06,1.23641e-08,-1.23642e-08,8.96559e-17
-0.820025,0.41,0.166887,0.01,20.4694,84.05,401.489,-401.497,-535.297,7.56432e-09,-7.5644e-09,-1.00853e-08,669.129,-669.137,4.74582e-06,1.26068e-08,-1.26069e-08,8.94141e-17
-0.810025,0.41,0.157958,0.01,14.9622,84.05,404.031,-404.039,-549.89,7.61221e-09,-7.6123e-09,-1.03602e-08,682.362,-682.37,4.71379e-06,1.28561e-08,-1.28562e-08,8.88105e-17
-0.800025,0.41,0.149165,0.01,9.41466,84.05,406.424,-406.434,-564.957,7.65731e-09,-7.65741e-09,-1.06441e-08,695.956,-695.965,4.659e-06,1.31123e-08,-1.31124e-08,8.77782e-17
-0.790025,0.41,0.140534,0.01,3.82644,84.05,408.653,-408.664,-580.515,7.69931e-09,-7.69942e-09,-1.09372e-08,709.924,-709.934,4.5792e-06,1.33754e-08,-1.33755e-08,8.62748e-17
-0.780025,0.41,0.131467,0.01,-1.80264,84.05,410.701,-410.713,-596.578,7.7379e-09,-7.73801e-09,-1.12399e-08,724.277,-724.288,4.47223e-06,1.36458e-08,-1.3646e-08,8.42594e-17
-0.770025,0.41,0.12247,0.01,-7.47279,84.05,412.549,-412.561,-613.164,7.77271e-09,-7.77284e-09,-1.15524e-08,739.028,-739.041,4.33504e-06,1.39238e-08,-1.39239e-08,8.16747e-17
-0.760025,0.41,0.113641,0.01,-13.1842,84.05,414.177,-414.191,-630.29,7.80339e-09,-7.80353e-09,-1.1875e-08,754.191,-754.204,4.1648e-06,1.42094e-08,-1.42096e-08,7.84673e-17
-0.750025,0.41,0.105022,0.01,-18.937,84.05,415.564,-415.579,-647.973,7.82953e-09,-7.82968e-09,-1.22082e-08,769.777,-769.792,3.95845e-06,1.45031e-08,-1.45033e-08,7.45794e-17
-0.740025,0.41,0.0966545,0.01,-24.7314,84.05,416.687,-416.703,-666.231,7.85069e-09,-7.85086e-09,-1.25522e-08,785.802,-785.819,3.71264e-06,1.4805e-08,-1.48052e-08,6.99484e-17
-0.730025,0.41,0.0875441,0.01,-30.5674,84.05,417.522,-417.54,-685.081,7.86643e-09,-7.86661e-09,-1.29073e-08,802.28,-802.298,3.42153e-06,1.51155e-08,-1.51157e-08,6.44636e-17
-0.720025,0.41,0.0786502,0.01,-36.4452,84.05,418.041,-418.061,-704.541,7.87622e-09,-7.87642e-09,-1.3274e-08,819.224,-819.244,3.01229e-06,1.54347e-08,-1.54349e-08,5.67533e-17
-0.710025,0.41,0.0700553,0.01,-42.3648,84.05,418.218,-418.239,-724.629,7.87956e-09,-7.87977e-09,-1.36524e-08,836.651,-836.672,2.69814e-06,1.57631e-08,-1.57633e-08,5.08346e-17
-0.700025,0.41,0.0618839,0.01,-48.3262,84.05,418.02,-418.044,-745.365,7.87585e-09,-7.87608e-09,-1.40431e-08,854.575,-854.599,1.64301e-05,1.61008e-08,-1.6101e-08,3.09553e-16
-0.690025,0.41,0.0532381,0.01,-54.3295,84.05,417.416,-417.442,-766.765,7.86448e-09,-7.86474e-09,-1.44463e-08,873.014,-873.039,4.63705e-05,1.64482e-08,-1.64485e-08,8.73648e-16
-0.680025,0.41,0.044198,0.01,-60.3744,84.05,416.367,-416.398,-788.85,7.84474e-09,-7.84505e-09,-1.48624e-08,891.982,-892.012,-0.00272431,1.68056e-08,-1.68059e-08,-5.13277e-14
-0.670025,0.41,0.035674,0.01,-66.461,84.05,414.828,-414.819,-811.599,7.81556e-09,-7.81547e-09,-1.5291e-08,911.472,-911.462,-0.0189721,1.71726e-08,-1.71725e-08,-3.57446e-13
-0.660025,0.41,0.0281389,0.01,-72.5891,84.05,412.972,-408.303,-831.447,7.76033e-09,-7.71296e-09,-1.56649e-08,929.657,-924.988,-0.321136,1.7495e-08,-1.74476e-08,-6.05039e-12
-0.650025,0.41,0.0199946,0.01,-78.7584,84.05,413.752,-396.398,-846.73,7.71987e-09,-7.54381e-09,-1.59529e-08,947.312,-929.958,0.808902,1.77725e-08,-1.75964e-08,1.52402e-11
-0.640025,0.41,0.0103514,0.01,-84.9684,84.05,412.948,-389.9,-863.159,7.67997e-09,-7.44615e-09,-1.62624e-08,963.455,-940.406,3.79936,1.80518e-08,-1.7818e-08,7.15822e-11
0.639975,0.41,0.0103051,0.01,-84.9994,84.05,412.952,-389.894,863.238,7.68e-09,-7.44608e-09,1.62639e-08,963.53,-940.472,-3.8326,1.80532e-08,-1.78193e-08,-7.22084e-11
0.649975,0.41,0.0199458,0.01,-78.7892,84.05,413.753,-396.369,846.832,7.71976e-09,-7.5434e-09,1.59548e-08,947.414,-930.03,-0.816676,1.77742e-08,-1.75979e-08,-1.53866e-11
0.659975,0.41,0.0281053,0.01,-72.6197,84.05,412.964,-408.283,831.559,7.76012e-09,-7.71264e-09,1.56671e-08,929.757,-925.077,0.32116,1.74968e-08,-1.74493e-08,6.05083e-12
0.669975,0.41,0.0356335,0.01,-66.4914,84.05,414.819,-414.809,811.714,7.8154e-09,-7.81529e-09,1.52932e-08,911.57,-911.56,0.0188267,1.71745e-08,-1.71744e-08,3.54705e-13
0.679975,0.41,0.0441541,0.01,-60.4046,84.05,416.361,-416.392,788.961,7.84462e-09,-7.84493e-09,1.48645e-08,892.077,-892.108,0.00276655,1.68074e-08,-1.68077e-08,5.21235e-14
0.689975,0.41,0.0531923,0.01,-54.3594,84.05,417.412,-417.438,766.873,7.8644e-09,-7.86466e-09,1.44483e-08,873.107,-873.132,-4.54871e-05,1.64499e-08,-1.64502e-08,-8.57003e-16
0.699975,0.41,0.0618446,0.01,-48.356,84.05,418.018,-418.042,745.469,7.87581e-09,-7.87605e-09,1.40451e-08,854.666,-854.689,-1.66273e-05,1.61025e-08,-1.61027e-08,-3.13268e-16
0.709975,0.41,0.0700135,0.01,-42.3944,84.05,418.218,-418.239,724.731,7.87956e-09,-7.87977e-09,1.36544e-08,836.739,-836.76,-2.70337e-06,1.57647e-08,-1.5765e-08,-5.0933e-17
0.719975,0.41,0.0786067,0.01,-36.4746,84.05,418.043,-418.063,704.639,7.87626e-09,-7.87646e-09,1.32758e-08,819.31,-819.329,-3.0093e-06,1.54364e-08,-1.54366e-08,-5.6697e-17
0.729975,0.41,0.0874993,0.01,-30.5966,84.05,417.525,-417.543,685.176,7.86649e-09,-7.86667e-09,1.29091e-08,802.363,-802.381,-3.41981e-06,1.51171e-08,-1.51172e-08,-6.44312e-17
0.739975,0.41,0.0966088,0.01,-24.7603,84.05,416.692,-416.708,666.323,7.85079e-09,-7.85095e-09,1.25539e-08,785.883,-785.9,-3.71158e-06,1.48066e-08,-1.48067e-08,-6.99282e-17
0.749975,0.41,0.10498,0.01,-18.9657,84.05,415.57,-415.585,648.063,7.82964e-09,-7.8298e-09,1.22099e-08,769.856,-769.871,-3.95741e-06,1.45046e-08,-1.45048e-08,-7.45599e-17
0.759975,0.41,0.113598,0.01,-13.2127,84.05,414.184,-414.198,630.377,7.80353e-09,-7.80367e-09,1.18767e-08,754.267,-754.281,-4.16399e-06,1.42109e-08,-1.4211e-08,-7.8452e-17
0.769975,0.41,0.122426,0.01,-7.50109,84.05,412.557,-412.57,613.248,7.77287e-09,-7.773e-09,1.15539e-08,739.103,-739.115,-4.33421e-06,1.39252e-08,-1.39253e-08,-8.1659e-17
0.779975,0.41,0.131422,0.01,-1.83073,84.05,410.711,-410.722,596.659,7.73808e-09,-7.73819e-09,1.12414e-08,724.349,-724.361,-4.47142e-06,1.36472e-08,-1.36473e-08,-8.42442e-17
0.789975,0.41,0.140492,0.01,3.79855,84.05,408.664,-408.675,580.593,7.69951e-09,-7.69962e-09,1.09387e-08,709.994,-710.005,-4.57851e-06,1.33767e-08,-1.33769e-08,-8.62617e-17
0.799975,0.41,0.149122,0.01,9.38697,84.05,406.436,-406.445,565.033,7.65753e-09,-7.65763e-09,1.06456e-08,696.025,-696.034,-4.65797e-06,1.31135e-08,-1.31136e-08,-8.77588e-17
0.809975,0.41,0.157914,0.01,14.9348,84.05,404.043,-404.052,549.964,7.61245e-09,-7.61253e-09,1.03616e-08,682.428,-682.437,-4.71306e-06,1.28574e-08,-1.28575e-08,-8.87967e-17
0.819975,0.41,0.166843,0.01,20.4421,84.05,401.502,-401.51,535.368,7.56456e-09,-7.56464e-09,1.00866e-08,669.194,-669.202,-4.74591e-06,1.2608e-08,-1.26081e-08,-8.94158e-17
0.829975,0.41,0.175886,0.01,25.9094,84.05,398.827,-398.834,521.231,7.51416e-09,-7.51423e-09,9.8203e-09,656.31,-656.317,-4.75893e-06,1.23653e-08,-1.23654e-08,-8.9661e-17
0.839975,0.41,0.185028,0.01,31.3367,84.05,396.031,-396.037,507.538,7.46148e-09,-7.46155e-09,9.56231e-09,643.765,-643.771,-4.75435e-06,1.21289e-08,-1.2129e-08,-8.95748e-17
0.849975,0.41,0.193948,0.01,36.7244,84.05,393.128,-393.134,494.273,7.40679e-09,-7.40684e-09,9.3124e-09,631.549,-631.555,-4.73397e-06,1.18988e-08,-1.18988e-08,-8.91908e-17
0.859975,0.41,0.202832,0.01,42.0729,84.05,390.129,-390.134,481.423,7.35028e-09,-7.35033e-09,9.0703e-09,619.652,-619.657,-4.69921e-06,1.16746e-08,-1.16747e-08,-8.85359e-17
0.869975,0.41,0.211815,0.01,47.3823,84.05,387.045,-387.05,468.974,7.29218e-09,-7.29222e-09,8.83575e-09,608.063,-608.067,-4.65242e-06,1.14563e-08,-1.14563e-08,-8.76543e-17
0.879975,0.41,0.220886,0.01,52.653,84.05,383.782,-384.132,457.186,7.2322e-09,-7.23575e-09,8.61365e-09,596.853,-597.202,0.123326,1.12466e-08,-1.12501e-08,2.32354e-12
0.889975,0.41,0.230034,0.01,57.8853,84.05,381.364,-384.773,447.043,7.19995e-09,-7.23453e-09,8.42254e-09,587.013,-590.422,-0.646728,1.10745e-08,-1.11091e-08,-1.21847e-11
0.899975,0.41,0.23925,0.01,63.0796,84.05,379.088,-388.22,439.831,7.18195e-09,-7.27459e-09,8.28667e-09,579.079,-588.211,-0.839804,1.09499e-08,-1.10425e-08,-1.58224e-11
-0.900025,0.42,0.243277,0.01,65.4815,88.2,367.684,-375.93,-443.071,6.96323e-09,-7.04689e-09,-8.34771e-09,574.282,-582.528,0.349129,1.08557e-08,-1.09393e-08,6.57779e-12
-0.890025,0.42,0.234217,0.01,60.3315,88.2,368.878,-374.66,-452.831,6.97501e-09,-7.03367e-09,-8.53161e-09,582.999,-588.781,-0.915012,1.10092e-08,-1.10678e-08,-1.72394e-11
-0.880025,0.42,0.225237,0.01,55.1446,88.2,372.07,-374.131,-461.465,7.01898e-09,-7.03988e-09,-8.69426e-09,592.395,-594.455,-0.181311,1.117e-08,-1.11909e-08,-3.41601e-12
-0.870025,0.42,0.216347,0.01,49.9206,88.2,374.821,-374.834,-471.85,7.06189e-09,-7.06203e-09,-8.88993e-09,602.602,-602.616,0.00245759,1.13534e-08,-1.13536e-08,4.63025e-14
-0.860025,0.42,0.207402,0.01,44.659,88.2,377.513,-377.519,-484.206,7.11259e-09,-7.11265e-09,-9.12272e-09,613.979,-613.985,4.11427e-06,1.15677e-08,-1.15678e-08,7.75152e-17
-0.850025,0.42,0.19828,0.01,39.3597,88.2,380.11,-380.117,-496.957,7.16153e-09,-7.16159e-09,-9.36295e-09,625.658,-625.665,4.11821e-06,1.17878e-08,-1.17879e-08,7.75895e-17
-0.840025,0.42,0.189247,0.01,34.0224,88.2,382.598,-382.605,-510.111,7.2084e-09,-7.20848e-09,-9.61078e-09,637.646,-637.653,4.10715e-06,1.20137e-08,-1.20137e-08,7.73811e-17
-0.830025,0.42,0.180316,0.01,28.6468,88.2,384.965,-384.972,-523.681,7.25299e-09,-7.25307e-09,-9.86645e-09,649.952,-649.96,4.07957e-06,1.22455e-08,-1.22456e-08,7.68614e-17
-0.820025,0.42,0.171503,0.01,23.2327,88.2,387.196,-387.205,-537.681,7.29504e-09,-7.29513e-09,-1.01302e-08,662.586,-662.594,4.03414e-06,1.24835e-08,-1.24836e-08,7.60055e-17
-0.810025,0.42,0.162828,0.01,17.7799,88.2,389.28,-389.289,-552.126,7.33429e-09,-7.33439e-09,-1.04024e-08,675.558,-675.568,3.96855e-06,1.2728e-08,-1.2728e-08,7.47697e-17
-0.800025,0.42,0.15382,0.01,12.2882,88.2,391.199,-391.209,-567.03,7.37046e-09,-7.37057e-09,-1.06832e-08,688.88,-688.891,3.88011e-06,1.2979e-08,-1.29791e-08,7.31035e-17
-0.790025,0.42,0.14483,0.01,6.75732,88.2,392.939,-392.95,-582.406,7.40324e-09,-7.40336e-09,-1.09729e-08,702.563,-702.574,3.76718e-06,1.32367e-08,-1.32369e-08,7.09758e-17
-0.780025,0.42,0.135982,0.01,1.18719,88.2,394.481,-394.494,-598.271,7.43231e-09,-7.43243e-09,-1.12718e-08,716.617,-716.629,3.62725e-06,1.35015e-08,-1.35017e-08,6.83395e-17
-0.770025,0.42,0.127305,0.01,-4.4224,88.2,395.808,-395.821,-614.64,7.4573e-09,-7.45744e-09,-1.15802e-08,731.055,-731.068,3.45772e-06,1.37736e-08,-1.37737e-08,6.51454e-17
-0.760025,0.42,0.118836,0.01,-10.0716,88.2,396.898,-396.913,-631.527,7.47785e-09,-7.478e-09,-1.18983e-08,745.888,-745.903,3.2561e-06,1.4053e-08,-1.40532e-08,6.13468e-17
-0.750025,0.42,0.109903,0.01,-15.7604,88.2,397.731,-397.747,-648.95,7.49355e-09,-7.49371e-09,-1.22266e-08,761.13,-761.146,3.0196e-06,1.43402e-08,-1.43404e-08,5.6891e-17
-0.740025,0.42,0.100997,0.01,-21.489,88.2,398.283,-398.3,-666.923,7.50395e-09,-7.50413e-09,-1.25652e-08,776.794,-776.811,2.74547e-06,1.46353e-08,-1.46355e-08,5.17262e-17
-0.730025,0.42,0.0923166,0.01,-27.2575,88.2,398.529,-398.548,-685.463,7.50861e-09,-7.5088e-09,-1.29145e-08,792.892,-792.911,2.43166e-06,1.49386e-08,-1.49388e-08,4.5814e-17
-0.720025,0.42,0.0839299,0.01,-33.0658,88.2,398.444,-398.465,-704.585,7.507e-09,-7.50721e-09,-1.32748e-08,809.438,-809.458,2.09293e-06,1.52504e-08,-1.52506e-08,3.9432e-17
-0.710025,0.42,0.0755666,0.01,-38.9139,88.2,397.998,-398.02,-724.307,7.49861e-09,-7.49884e-09,-1.36464e-08,826.446,-826.469,1.80867e-06,1.55708e-08,-1.55711e-08,3.40764e-17
-0.700025,0.42,0.0665544,0.01,-44.8019,88.2,397.161,-397.186,-744.644,7.48285e-09,-7.4831e-09,-1.40295e-08,843.932,-843.956,-1.27276e-06,1.59003e-08,-1.59005e-08,-2.39796e-17
-0.690025,0.42,0.0578675,0.01,-50.7295,88.2,395.901,-395.927,-765.612,7.45912e-09,-7.45938e-09,-1.44246e-08,861.909,-861.935,-2.91252e-05,1.6239e-08,-1.62392e-08,-5.48735e-16
-0.680025,0.42,0.0496771,0.01,-56.6968,88.2,394.183,-394.211,-787.226,7.42675e-09,-7.42704e-09,-1.48318e-08,880.392,-880.42,0.000415727,1.65872e-08,-1.65875e-08,7.83254e-15
-0.670025,0.42,0.041963,0.01,-62.7034,88.2,391.975,-392.005,-809.503,7.38517e-09,-7.38547e-09,-1.52515e-08,899.402,-899.432,0.00580294,1.69454e-08,-1.69457e-08,1.09331e-13
-0.660025,0.42,0.0326843,0.01,-68.7493,88.2,389.67,-388.703,-831.481,7.33741e-09,-7.32759e-09,-1.56656e-08,918.54,-917.572,0.369146,1.73016e-08,-1.72918e-08,6.95493e-12
-0.650025,0.42,0.0239922,0.01,-74.8341,88.2,387.509,-382.476,-851.561,7.27901e-09,-7.22795e-09,-1.60439e-08,937.061,-932.028,1.03055,1.76329e-08,-1.75818e-08,1.94162e-11
-0.640025,0.42,0.0168224,0.01,-80.9575,88.2,383.267,-377.396,-870.724,7.19544e-09,-7.13589e-09,-1.64049e-08,953.096,-947.226,2.37814,1.79314e-08,-1.78718e-08,4.48056e-11
-0.630025,0.42,0.0110415,0.01,-87.1199,88.2,372.626,-376.095,-894.374,7.03557e-09,-7.07077e-09,-1.68505e-08,967.826,-971.296,1.53827,1.82495e-08,-1.82847e-08,2.89819e-11
0.629975,0.42,0.0109935,0.01,-87.1506,88.2,372.614,-376.144,894.543,7.03562e-09,-7.07142e-09,1.68537e-08,967.959,-971.489,-1.56111,1.82523e-08,-1.82881e-08,-2.94123e-11
0.639975,0.42,0.016794,0.01,-80.988,88.2,383.268,-377.389,870.845,7.19543e-09,-7.13578e-09,1.64072e-08,953.21,-947.331,-2.3948,1.79335e-08,-1.78738e-08,-4.51195e-11
0.649975,0.42,0.0239516,0.01,-74.8644,88.2,387.497,-382.46,851.674,7.27877e-09,-7.22767e-09,1.6046e-08,937.16,-932.123,-1.0368,1.76347e-08,-1.75836e-08,-1.95339e-11
0.659975,0.42,0.0326392,0.01,-68.7795,88.2,389.655,-388.685,831.595,7.33711e-09,-7.32727e-09,1.56677e-08,918.637,-917.667,-0.368943,1.73034e-08,-1.72936e-08,-6.95109e-12
0.669975,0.42,0.0419161,0.01,-62.7334,88.2,391.963,-391.993,809.616,7.38494e-09,-7.38524e-09,1.52536e-08,899.498,-899.528,-0.00583312,1.69472e-08,-1.69475e-08,-1.09899e-13
0.679975,0.42,0.049638,0.01,-56.7266,88.2,394.173,-394.201,787.335,7.42657e-09,-7.42685e-09,1.48338e-08,880.486,-880.513,-0.000424462,1.6589e-08,-1.65893e-08,-7.99711e-15
0.689975,0.42,0.0578254,0.01,-50.7591,88.2,395.894,-395.92,765.718,7.45898e-09,-7.45925e-09,1.44266e-08,861.999,-862.026,2.92759e-05,1.62407e-08,-1.62409e-08,5.51575e-16
0.699975,0.42,0.0665102,0.01,-44.8313,88.2,397.156,-397.18,744.747,7.48276e-09,-7.483e-09,1.40315e-08,844.02,-844.044,1.32279e-06,1.59019e-08,-1.59022e-08,2.49221e-17
0.709975,0.42,0.0755212,0.01,-38.9431,88.2,397.995,-398.017,724.407,7.49855e-09,-7.49878e-09,1.36482e-08,826.532,-826.555,-1.80759e-06,1.55724e-08,-1.55727e-08,-3.4056e-17
0.719975,0.42,0.0838891,0.01,-33.0948,88.2,398.443,-398.463,704.682,7.50698e-09,-7.50719e-09,1.32766e-08,809.521,-809.542,-2.09186e-06,1.52519e-08,-1.52521e-08,-3.94118e-17
0.729975,0.42,0.0922741,0.01,-27.2863,88.2,398.53,-398.549,685.556,7.50861e-09,-7.50881e-09,1.29163e-08,792.973,-792.992,-2.43011e-06,1.49401e-08,-1.49403e-08,-4.57847e-17
0.739975,0.42,0.100954,0.01,-21.5176,88.2,398.285,-398.302,667.014,7.50399e-09,-7.50417e-09,1.25669e-08,776.873,-776.89,-2.74414e-06,1.46368e-08,-1.4637e-08,-5.17012e-17
0.749975,0.42,0.109858,0.01,-15.7888,88.2,397.734,-397.75,649.038,7.49361e-09,-7.49377e-09,1.22282e-08,761.207,-761.223,-3.01805e-06,1.43417e-08,-1.43418e-08,-5.68618e-17
0.759975,0.42,0.118794,0.01,-10.0998,88.2,396.903,-396.917,631.613,7.47794e-09,-7.47809e-09,1.18999e-08,745.963,-745.978,-3.25472e-06,1.40544e-08,-1.40546e-08,-6.13208e-17
0.769975,0.42,0.127262,0.01,-4.4504,88.2,395.814,-395.827,614.722,7.45742e-09,-7.45755e-09,1.15817e-08,731.127,-731.141,-3.45657e-06,1.37749e-08,-1.37751e-08,-6.51237e-17
0.779975,0.42,0.135939,0.01,1.15939,88.2,394.488,-394.501,598.351,7.43244e-09,-7.43257e-09,1.12733e-08,716.688,-716.7,-3.62648e-06,1.35029e-08,-1.3503e-08,-6.8325e-17
0.789975,0.42,0.144786,0.01,6.72972,88.2,392.947,-392.958,582.484,7.4034e-09,-7.40351e-09,1.09743e-08,702.632,-702.643,-3.76668e-06,1.3238e-08,-1.32382e-08,-7.09664e-17
0.799975,0.42,0.153775,0.01,12.2608,88.2,391.208,-391.219,567.105,7.37063e-09,-7.37074e-09,1.06846e-08,688.948,-688.958,-3.87947e-06,1.29802e-08,-1.29803e-08,-7.30915e-17
0.809975,0.42,0.162785,0.01,17.7527,88.2,389.29,-389.299,552.199,7.33448e-09,-7.33458e-09,1.04038e-08,675.624,-675.633,-3.96806e-06,1.27292e-08,-1.27293e-08,-7.47605e-17
0.819975,0.42,0.17146,0.01,23.2057,88.2,387.207,-387.216,537.752,7.29524e-09,-7.29533e-09,1.01316e-08,662.65,-662.658,-4.03407e-06,1.24847e-08,-1.24848e-08,-7.60041e-17
0.829975,0.42,0.180272,0.01,28.6199,88.2,384.976,-384.984,523.749,7.25321e-09,-7.25329e-09,9.86774e-09,650.014,-650.022,-4.07979e-06,1.22467e-08,-1.22468e-08,-7.68657e-17
0.839975,0.42,0.189202,0.01,33.9957,88.2,382.61,-382.617,510.177,7.20863e-09,-7.2087e-09,9.61203e-09,637.706,-637.713,-4.10729e-06,1.20148e-08,-1.20149e-08,-7.73837e-17
0.849975,0.42,0.198235,0.01,39.3332,88.2,380.123,-380.129,497.021,7.16177e-09,-7.16183e-09,9.36417e-09,625.717,-625.723,-4.11824e-06,1.17889e-08,-1.1789e-08,-7.75901e-17
0.859975,0.42,0.207356,0.01,44.6327,88.2,377.526,-377.532,484.268,7.11284e-09,-7.1129e-09,9.12389e-09,614.036,-614.042,-4.11419e-06,1.15688e-08,-1.15689e-08,-7.75137e-17
0.869975,0.42,0.216303,0.01,49.8945,88.2,374.834,-374.848,471.91,7.06215e-09,-7.06229e-09,8.89107e-09,602.658,-602.672,-0.00245824,1.13545e-08,-1.13546e-08,-4.63146e-14
0.879975,0.42,0.225193,0.01,55.1188,88.2,372.084,-374.145,461.524,7.01924e-09,-7.04015e-09,8.69537e-09,592.449,-594.51,0.181281,1.11711e-08,-1.1192e-08,3.41544e-12
0.889975,0.42,0.234172,0.01,60.3058,88.2,368.892,-374.675,452.889,6.97528e-09,-7.03395e-09,8.53269e-09,583.053,-588.835,0.915233,1.10102e-08,-1.10689e-08,1.72435e-11
0.899975,0.42,0.243231,0.01,65.456,88.2,367.698,-375.946,443.127,6.96351e-09,-7.04718e-09,8.34878e-09,574.334,-582.582,-0.348742,1.08566e-08,-1.09403e-08,-6.5705e-12
-0.890025,0.43,0.238702,0.01,62.7887,92.45,359.082,-368.286,-457.197,6.80534e-09,-6.89871e-09,-8.61386e-09,579.602,-588.807,0.758774,1.09601e-08,-1.10534e-08,1.42957e-11
-0.880025,0.43,0.229736,0.01,57.6474,92.45,360.805,-364.257,-464.435,6.81279e-09,-6.84781e-09,-8.75023e-09,587.45,-590.902,0.590531,1.10829e-08,-1.11179e-08,1.1126e-11
-0.870025,0.43,0.220631,0.01,52.47,92.45,362.566,-362.935,-474.703,6.83256e-09,-6.83631e-09,-8.94368e-09,597.252,-597.622,-0.140784,1.12542e-08,-1.12579e-08,-2.65245e-12
-0.860025,0.43,0.211607,0.01,47.2564,92.45,365.01,-365.017,-486.661,6.87703e-09,-6.8771e-09,-9.16898e-09,608.334,-608.34,3.56596e-06,1.14614e-08,-1.14615e-08,6.71847e-17
-0.850025,0.43,0.202674,0.01,42.0063,92.45,367.217,-367.224,-499.302,6.91861e-09,-6.91868e-09,-9.40714e-09,619.797,-619.804,3.54305e-06,1.16774e-08,-1.16774e-08,6.67531e-17
-0.840025,0.43,0.193846,0.01,36.7194,92.45,369.301,-369.309,-512.334,6.95788e-09,-6.95796e-09,-9.65267e-09,631.559,-631.567,3.50494e-06,1.1899e-08,-1.18991e-08,6.60351e-17
-0.830025,0.43,0.185137,0.01,31.3956,92.45,371.251,-371.259,-525.77,6.99461e-09,-6.9947e-09,-9.90581e-09,643.629,-643.638,3.45021e-06,1.21264e-08,-1.21265e-08,6.5004e-17
-0.820025,0.43,0.176174,0.01,26.0347,92.45,373.052,-373.062,-539.622,7.02856e-09,-7.02866e-09,-1.01668e-08,656.016,-656.026,3.37703e-06,1.23598e-08,-1.23599e-08,6.36253e-17
-0.810025,0.43,0.167191,0.01,20.6365,92.45,374.692,-374.702,-553.904,7.05945e-09,-7.05956e-09,-1.04359e-08,668.73,-668.741,3.28343e-06,1.25993e-08,-1.25994e-08,6.18618e-17
-0.800025,0.43,0.158329,0.01,15.2008,92.45,376.153,-376.165,-568.629,7.087e-09,-7.08711e-09,-1.07133e-08,681.782,-681.793,3.16787e-06,1.28452e-08,-1.28453e-08,5.96846e-17
-0.790025,0.43,0.149611,0.01,9.7275,92.45,377.421,-377.433,-583.81,7.11089e-09,-7.11101e-09,-1.09993e-08,695.181,-695.193,3.02823e-06,1.30977e-08,-1.30978e-08,5.70536e-17
-0.780025,0.43,0.141063,0.01,4.21646,92.45,378.477,-378.49,-599.461,7.13078e-09,-7.13092e-09,-1.12942e-08,708.938,-708.952,2.86216e-06,1.33569e-08,-1.3357e-08,5.39247e-17
-0.770025,0.43,0.132262,0.01,-1.33243,92.45,379.302,-379.317,-615.596,7.14633e-09,-7.14648e-09,-1.15982e-08,723.065,-723.08,2.66781e-06,1.3623e-08,-1.36232e-08,5.02631e-17
-0.760025,0.43,0.123349,0.01,-6.91924,92.45,379.876,-379.892,-632.229,7.15716e-09,-7.15732e-09,-1.19116e-08,737.573,-737.589,2.44289e-06,1.38964e-08,-1.38965e-08,4.60255e-17
-0.750025,0.43,0.114617,0.01,-12.544,92.45,380.178,-380.195,-649.375,7.16285e-09,-7.16302e-09,-1.22346e-08,752.474,-752.491,2.18506e-06,1.41771e-08,-1.41773e-08,4.11679e-17
-0.740025,0.43,0.106108,0.01,-18.2069,92.45,380.184,-380.202,-667.048,7.16296e-09,-7.16315e-09,-1.25676e-08,767.78,-767.798,1.8925e-06,1.44655e-08,-1.44657e-08,3.56558e-17
-0.730025,0.43,0.0978812,0.01,-23.9077,92.45,379.869,-379.889,-685.262,7.15703e-09,-7.15724e-09,-1.29107e-08,783.502,-783.522,1.564e-06,1.47617e-08,-1.47619e-08,2.94666e-17
-0.720025,0.43,0.0889129,0.01,-29.6465,92.45,379.207,-379.228,-704.031,7.14457e-09,-7.14478e-09,-1.32644e-08,799.655,-799.677,1.19347e-06,1.50661e-08,-1.50663e-08,2.24856e-17
-0.710025,0.43,0.080154,0.01,-35.4233,92.45,378.169,-378.192,-723.37,7.12502e-09,-7.12526e-09,-1.36287e-08,816.251,-816.274,7.34279e-07,1.53787e-08,-1.5379e-08,1.38342e-17
-0.700025,0.43,0.0717205,0.01,-41.2378,92.45,376.725,-376.75,-743.292,7.09783e-09,-7.09809e-09,-1.40041e-08,833.303,-833.328,5.4256e-07,1.57e-08,-1.57003e-08,1.02221e-17
-0.690025,0.43,0.0637417,0.01,-47.09,92.45,374.844,-374.871,-763.812,7.06239e-09,-7.06266e-09,-1.43907e-08,850.825,-850.852,8.83716e-06,1.60302e-08,-1.60304e-08,1.66497e-16
-0.680025,0.43,0.0550398,0.01,-52.9797,92.45,372.489,-372.518,-784.943,7.01804e-09,-7.01833e-09,-1.47888e-08,868.832,-868.861,-2.76136e-05,1.63694e-08,-1.63697e-08,-5.20256e-16
-0.670025,0.43,0.0462249,0.01,-58.9067,92.45,369.623,-369.656,-806.698,6.96405e-09,-6.96438e-09,-1.51987e-08,887.336,-887.369,-0.00156614,1.67181e-08,-1.67184e-08,-2.9507e-14
-0.660025,0.43,0.0380014,0.01,-64.8706,92.45,366.221,-366.234,-829.067,6.89987e-09,-6.9e-09,-1.56201e-08,906.346,-906.359,0.0066899,1.70761e-08,-1.70763e-08,1.26042e-13
-0.650025,0.43,0.0308459,0.01,-70.8711,92.45,362.838,-362.259,-851.493,6.83356e-09,-6.82769e-09,-1.60426e-08,925.752,-925.173,0.54366,1.74392e-08,-1.74333e-08,1.02429e-11
-0.640025,0.43,0.0218719,0.01,-76.9079,92.45,357.737,-352.926,-872.1,6.71905e-09,-6.67025e-09,-1.64309e-08,944.116,-939.305,-0.68409,1.77668e-08,-1.7718e-08,-1.28887e-11
-0.630025,0.43,0.0128456,0.01,-82.9802,92.45,351.308,-338.25,-886.974,6.56208e-09,-6.4296e-09,-1.67111e-08,958.155,-945.097,-2.16156,1.79954e-08,-1.78629e-08,-4.07251e-11
0.629975,0.43,0.0128043,0.01,-83.0105,92.45,351.251,-338.249,887.111,6.56124e-09,-6.42934e-09,1.67137e-08,958.243,-945.242,2.16843,1.79973e-08,-1.78654e-08,4.08546e-11
0.639975,0.43,0.0218249,0.01,-76.938,92.45,357.714,-352.908,872.227,6.71864e-09,-6.66988e-09,1.64333e-08,944.223,-939.417,0.683249,1.77688e-08,-1.77201e-08,1.28728e-11
0.649975,0.43,0.0308143,0.01,-70.901,92.45,362.819,-362.24,851.609,6.83321e-09,-6.82734e-09,1.60448e-08,925.852,-925.273,-0.545884,1.74411e-08,-1.74352e-08,-1.02848e-11
0.659975,0.43,0.0379626,0.01,-64.9003,92.45,366.203,-366.215,829.18,6.89953e-09,-6.89965e-09,1.56222e-08,906.442,-906.454,-0.00694671,1.70779e-08,-1.70781e-08,-1.3088e-13
0.669975,0.43,0.0461823,0.01,-58.9362,92.45,369.607,-369.64,806.808,6.96376e-09,-6.96409e-09,1.52007e-08,887.43,-887.462,0.00158317,1.67198e-08,-1.67202e-08,2.98279e-14
0.679975,0.43,0.0549949,0.01,-53.0091,92.45,372.476,-372.505,785.049,7.01779e-09,-7.01809e-09,1.47908e-08,868.922,-868.952,2.8902e-05,1.63711e-08,-1.63714e-08,5.4453e-16
0.689975,0.43,0.0637034,0.01,-47.1192,92.45,374.833,-374.86,763.915,7.06219e-09,-7.06247e-09,1.43926e-08,850.913,-850.941,-8.93274e-06,1.60318e-08,-1.60321e-08,-1.68298e-16
0.699975,0.43,0.0716796,0.01,-41.2668,92.45,376.717,-376.742,743.393,7.09768e-09,-7.09793e-09,1.40059e-08,833.389,-833.414,-5.48444e-07,1.57016e-08,-1.57019e-08,-1.0333e-17
0.709975,0.43,0.0801112,0.01,-35.4521,92.45,378.163,-378.186,723.467,7.12491e-09,-7.12514e-09,1.36305e-08,816.334,-816.358,-7.32646e-07,1.53803e-08,-1.53805e-08,-1.38035e-17
0.719975,0.43,0.0888687,0.01,-29.6751,92.45,379.202,-379.224,704.126,7.14449e-09,-7.14471e-09,1.32661e-08,799.736,-799.758,-1.19205e-06,1.50676e-08,-1.50678e-08,-2.24589e-17
0.729975,0.43,0.0978411,0.01,-23.9361,92.45,379.866,-379.886,685.354,7.15699e-09,-7.15719e-09,1.29125e-08,783.582,-783.602,-1.56214e-06,1.47632e-08,-1.47634e-08,-2.94316e-17
0.739975,0.43,0.106066,0.01,-18.2351,92.45,380.183,-380.201,667.137,7.16295e-09,-7.16313e-09,1.25693e-08,767.857,-767.875,-1.8908e-06,1.44669e-08,-1.44671e-08,-3.56237e-17
0.749975,0.43,0.114574,0.01,-12.5721,92.45,380.179,-380.196,649.462,7.16286e-09,-7.16303e-09,1.22362e-08,752.549,-752.566,-2.18339e-06,1.41785e-08,-1.41787e-08,-4.11363e-17
0.759975,0.43,0.123306,0.01,-6.94712,92.45,379.879,-379.894,632.313,7.1572e-09,-7.15736e-09,1.19132e-08,737.647,-737.662,-2.44143e-06,1.38978e-08,-1.38979e-08,-4.5998e-17
0.769975,0.43,0.132217,0.01,-1.36012,92.45,379.306,-379.32,615.677,7.1464e-09,-7.14655e-09,1.15997e-08,723.137,-723.151,-2.66656e-06,1.36244e-08,-1.36245e-08,-5.02395e-17
0.779975,0.43,0.141021,0.01,4.18896,92.45,378.482,-378.495,599.54,7.13087e-09,-7.13101e-09,1.12957e-08,709.008,-709.021,-2.86143e-06,1.33582e-08,-1.33583e-08,-5.3911e-17
0.789975,0.43,0.149568,0.01,9.70018,92.45,377.427,-377.439,583.886,7.11099e-09,-7.11112e-09,1.10008e-08,695.248,-695.261,-3.02765e-06,1.30989e-08,-1.30991e-08,-5.70428e-17
0.799975,0.43,0.158286,0.01,15.1737,92.45,376.16,-376.171,568.703,7.08713e-09,-7.08724e-09,1.07147e-08,681.848,-681.859,-3.16714e-06,1.28465e-08,-1.28466e-08,-5.96708e-17
0.809975,0.43,0.167147,0.01,20.6095,92.45,374.699,-374.71,553.976,7.0596e-09,-7.0597e-09,1.04372e-08,668.795,-668.805,-3.28299e-06,1.26005e-08,-1.26006e-08,-6.18534e-17
0.819975,0.43,0.176129,0.01,26.0079,92.45,373.061,-373.07,539.692,7.02872e-09,-7.02882e-09,1.01681e-08,656.079,-656.088,-3.37662e-06,1.23609e-08,-1.2361e-08,-6.36176e-17
0.829975,0.43,0.185094,0.01,31.369,92.45,371.26,-371.269,525.838,6.99479e-09,-6.99488e-09,9.90709e-09,643.69,-643.699,-3.44987e-06,1.21275e-08,-1.21276e-08,-6.49975e-17
0.839975,0.43,0.193803,0.01,36.693,92.45,369.311,-369.319,512.4,6.95807e-09,-6.95815e-09,9.65391e-09,631.619,-631.626,-3.5048e-06,1.19001e-08,-1.19002e-08,-6.60324e-17
0.849975,0.43,0.20263,0.01,41.9801,92.45,367.227,-367.234,499.366,6.91881e-09,-6.91888e-09,9.40834e-09,619.855,-619.862,-3.54311e-06,1.16785e-08,-1.16785e-08,-6.67543e-17
0.859975,0.43,0.211562,0.01,47.2304,92.45,365.022,-365.028,486.723,6.87724e-09,-6.87731e-09,9.17014e-09,608.39,-608.396,-3.56614e-06,1.14624e-08,-1.14625e-08,-6.71882e-17
0.869975,0.43,0.220586,0.01,52.4442,92.45,362.578,-362.947,474.763,6.83279e-09,-6.83653e-09,8.94481e-09,597.307,-597.677,0.140819,1.12552e-08,-1.1259e-08,2.65311e-12
0.879975,0.43,0.22969,0.01,57.6217,92.45,360.818,-364.27,464.494,6.81302e-09,-6.84805e-09,8.75134e-09,587.504,-590.957,-0.590553,1.10839e-08,-1.1119e-08,-1.11264e-11
0.889975,0.43,0.238658,0.01,62.7633,92.45,359.095,-368.3,457.255,6.80558e-09,-6.89897e-09,8.61495e-09,579.655,-588.861,-0.758794,1.09611e-08,-1.10545e-08,-1.42961e-11
-0.890025,0.44,0.242983,0.01,65.2817,96.8,347.201,-355.551,-459.978,6.57778e-09,-6.66249e-09,-8.66624e-09,574.656,-583.005,-0.112935,1.08631e-08,-1.09479e-08,-2.12776e-12
-0.880025,0.44,0.233967,0.01,60.1862,96.8,348.06,-353.909,-469.642,6.58309e-09,-6.64242e-09,-8.84833e-09,583.38,-589.229,-1.01071,1.10166e-08,-1.1076e-08,-1.90424e-11
-0.870025,0.44,0.225033,0.01,55.0558,96.8,350.682,-352.767,-478.224,6.61611e-09,-6.63727e-09,-9.01002e-09,592.597,-594.683,-0.122392,1.11739e-08,-1.11951e-08,-2.30593e-12
-0.860025,0.44,0.216193,0.01,49.8903,96.8,352.621,-352.636,-488.742,6.64364e-09,-6.6438e-09,-9.20819e-09,602.666,-602.681,0.0027498,1.13546e-08,-1.13548e-08,5.18078e-14
-0.850025,0.44,0.207458,0.01,44.6895,96.8,354.445,-354.453,-501.256,6.67798e-09,-6.67806e-09,-9.44396e-09,613.911,-613.919,3.00943e-06,1.15665e-08,-1.15666e-08,5.66994e-17
-0.840025,0.44,0.198531,0.01,39.4534,96.8,356.138,-356.147,-514.154,6.70989e-09,-6.70997e-09,-9.68696e-09,625.449,-625.457,2.94836e-06,1.17839e-08,-1.17839e-08,5.55488e-17
-0.830025,0.44,0.189551,0.01,34.1816,96.8,357.684,-357.694,-527.442,6.73902e-09,-6.73912e-09,-9.93732e-09,637.284,-637.293,2.87059e-06,1.20068e-08,-1.20069e-08,5.40835e-17
-0.820025,0.44,0.18068,0.01,28.874,96.8,359.07,-359.08,-541.133,6.76514e-09,-6.76524e-09,-1.01953e-08,649.426,-649.436,2.77445e-06,1.22356e-08,-1.22357e-08,5.22722e-17
-0.810025,0.44,0.171932,0.01,23.5305,96.8,360.281,-360.292,-555.239,6.78796e-09,-6.78807e-09,-1.0461e-08,661.883,-661.894,2.65844e-06,1.24703e-08,-1.24704e-08,5.00865e-17
-0.800025,0.44,0.163327,0.01,18.151,96.8,361.302,-361.314,-569.771,6.80719e-09,-6.80731e-09,-1.07348e-08,674.666,-674.678,2.52115e-06,1.27112e-08,-1.27113e-08,4.75e-17
-0.790025,0.44,0.154622,0.01,12.7354,96.8,362.115,-362.128,-584.743,6.82251e-09,-6.82264e-09,-1.10169e-08,687.784,-687.797,2.36057e-06,1.29583e-08,-1.29584e-08,4.44746e-17
-0.780025,0.44,0.145704,0.01,7.28358,96.8,362.703,-362.717,-600.166,6.8336e-09,-6.83374e-09,-1.13075e-08,701.248,-701.262,2.17467e-06,1.3212e-08,-1.32121e-08,4.0972e-17
-0.770025,0.44,0.136936,0.01,1.79548,96.8,363.047,-363.063,-616.054,6.84009e-09,-6.84024e-09,-1.16068e-08,715.067,-715.082,1.96222e-06,1.34723e-08,-1.34725e-08,3.69693e-17
-0.760025,0.44,0.128349,0.01,-3.72893,96.8,363.127,-363.144,-632.419,6.8416e-09,-6.84176e-09,-1.19151e-08,729.253,-729.269,1.72137e-06,1.37396e-08,-1.37398e-08,3.24315e-17
-0.750025,0.44,0.119981,0.01,-9.28965,96.8,362.921,-362.939,-649.274,6.83772e-09,-6.8379e-09,-1.22327e-08,743.816,-743.834,1.4502e-06,1.4014e-08,-1.40142e-08,2.73227e-17
-0.740025,0.44,0.111272,0.01,-14.8867,96.8,362.405,-362.424,-666.632,6.828e-09,-6.8282e-09,-1.25597e-08,758.768,-758.787,1.14727e-06,1.42957e-08,-1.42959e-08,2.16153e-17
-0.730025,0.44,0.102473,0.01,-20.5199,96.8,361.555,-361.576,-684.505,6.812e-09,-6.81221e-09,-1.28965e-08,774.12,-774.14,8.11421e-07,1.4585e-08,-1.45852e-08,1.52876e-17
-0.720025,0.44,0.0939141,0.01,-26.1893,96.8,360.345,-360.367,-702.907,6.7892e-09,-6.78942e-09,-1.32432e-08,789.884,-789.906,4.40658e-07,1.4882e-08,-1.48822e-08,8.30225e-18
-0.710025,0.44,0.0856681,0.01,-31.8947,96.8,358.745,-358.769,-721.848,6.75907e-09,-6.75932e-09,-1.36e-08,806.072,-806.096,4.66219e-08,1.5187e-08,-1.51872e-08,8.78383e-19
-0.700025,0.44,0.0773982,0.01,-37.636,96.8,356.727,-356.753,-741.343,6.72106e-09,-6.72132e-09,-1.39673e-08,822.698,-822.723,-3.56123e-07,1.55002e-08,-1.55005e-08,-6.70956e-18
-0.690025,0.44,0.0685409,0.01,-43.413,96.8,354.258,-354.286,-761.401,6.67456e-09,-6.67484e-09,-1.43452e-08,839.772,-839.8,-2.69184e-06,1.58219e-08,-1.58222e-08,-5.07159e-17
-0.680025,0.44,0.0600435,0.01,-49.2254,96.8,351.305,-351.335,-782.035,6.61892e-09,-6.61922e-09,-1.4734e-08,857.309,-857.339,-1.0282e-05,1.61523e-08,-1.61526e-08,-1.93719e-16
-0.670025,0.44,0.0520825,0.01,-55.0729,96.8,347.831,-347.862,-803.255,6.55347e-09,-6.55379e-09,-1.51338e-08,875.321,-875.353,0.000293755,1.64917e-08,-1.6492e-08,5.53451e-15
-0.660025,0.44,0.0441386,0.01,-60.9553,96.8,343.797,-343.834,-825.074,6.4775e-09,-6.47787e-09,-1.55449e-08,893.825,-893.862,0.00101186,1.68403e-08,-1.68407e-08,1.9064e-14
-0.650025,0.44,0.0351404,0.01,-66.8719,96.8,339.093,-339.168,-847.531,6.38903e-09,-6.38979e-09,-1.5968e-08,912.825,-912.9,-0.0603938,1.71985e-08,-1.71992e-08,-1.13785e-12
-0.640025,0.44,0.0268603,0.01,-72.8225,96.8,333.729,-330.192,-867.441,6.27228e-09,-6.23639e-09,-1.63431e-08,930.559,-927.022,-0.708342,1.75169e-08,-1.7481e-08,-1.33456e-11
-0.630025,0.44,0.0202016,0.01,-78.8065,96.8,330.924,-316.125,-882.635,6.17045e-09,-6.02032e-09,-1.66294e-08,947.459,-932.66,-0.166561,1.77863e-08,-1.76362e-08,-3.13811e-12
-0.620025,0.44,0.0121719,0.01,-84.8234,96.8,328.464,-302.129,-899.935,6.07395e-09,-5.80678e-09,-1.69553e-08,966.737,-940.401,0.514266,1.80994e-08,-1.78322e-08,9.68908e-12
0.619975,0.44,0.0121223,0.01,-84.8534,96.8,328.419,-302.138,900.054,6.07335e-09,-5.80673e-09,1.69575e-08,966.817,-940.535,-0.530593,1.81011e-08,-1.78345e-08,-9.99668e-12
0.629975,0.44,0.0201753,0.01,-78.8364,96.8,330.891,-316.099,882.751,6.16987e-09,-6.0198e-09,1.66315e-08,947.555,-932.763,0.164302,1.77882e-08,-1.76381e-08,3.09554e-12
0.639975,0.44,0.026822,0.01,-72.8522,96.8,333.698,-330.161,867.558,6.27168e-09,-6.23581e-09,1.63453e-08,930.656,-927.12,0.711869,1.75187e-08,-1.74829e-08,1.3412e-11
0.649975,0.44,0.035097,0.01,-66.9014,96.8,339.067,-339.143,847.644,6.38855e-09,-6.38932e-09,1.59701e-08,912.92,-912.996,0.0611544,1.72003e-08,-1.7201e-08,1.15218e-12
0.659975,0.44,0.0440928,0.01,-60.9846,96.8,343.776,-343.812,825.184,6.47709e-09,-6.47746e-09,1.55469e-08,893.918,-893.955,-0.000991789,1.68421e-08,-1.68425e-08,-1.86859e-14
0.669975,0.44,0.0520446,0.01,-55.1021,96.8,347.812,-347.844,803.362,6.55312e-09,-6.55344e-09,1.51358e-08,875.412,-875.444,-0.000298361,1.64934e-08,-1.64937e-08,-5.6213e-15
0.679975,0.44,0.0600024,0.01,-49.2544,96.8,351.289,-351.319,782.139,6.61862e-09,-6.61892e-09,1.4736e-08,857.397,-857.427,1.02146e-05,1.6154e-08,-1.61543e-08,1.92448e-16
0.689975,0.44,0.0684976,0.01,-43.4418,96.8,354.245,-354.273,761.502,6.6743e-09,-6.67459e-09,1.43471e-08,839.858,-839.886,2.72287e-06,1.58235e-08,-1.58238e-08,5.13004e-17
0.699975,0.44,0.0773535,0.01,-37.6647,96.8,356.716,-356.742,741.441,6.72085e-09,-6.72111e-09,1.39692e-08,822.781,-822.807,3.58666e-07,1.55018e-08,-1.55021e-08,6.75748e-18
0.709975,0.44,0.085628,0.01,-31.9232,96.8,358.736,-358.76,721.944,6.75891e-09,-6.75915e-09,1.36018e-08,806.154,-806.178,-4.50682e-08,1.51885e-08,-1.51888e-08,-8.49112e-19
0.719975,0.44,0.0938722,0.01,-26.2176,96.8,360.338,-360.36,703,6.78907e-09,-6.78929e-09,1.32449e-08,789.963,-789.986,-4.3867e-07,1.48835e-08,-1.48837e-08,-8.26479e-18
0.729975,0.44,0.10243,0.01,-20.548,96.8,361.55,-361.571,684.596,6.8119e-09,-6.81211e-09,1.28982e-08,774.197,-774.218,-8.09191e-07,1.45864e-08,-1.45866e-08,-1.52456e-17
0.739975,0.44,0.111228,0.01,-14.9146,96.8,362.402,-362.421,666.72,6.82794e-09,-6.82813e-09,1.25614e-08,758.843,-758.862,-1.14533e-06,1.42971e-08,-1.42973e-08,-2.15787e-17
0.749975,0.44,0.11994,0.01,-9.31739,96.8,362.919,-362.937,649.359,6.83768e-09,-6.83786e-09,1.22343e-08,743.889,-743.907,-1.44869e-06,1.40154e-08,-1.40156e-08,-2.72941e-17
0.759975,0.44,0.128307,0.01,-3.75649,96.8,363.127,-363.143,632.502,6.84159e-09,-6.84176e-09,1.19167e-08,729.324,-729.341,-1.7203e-06,1.3741e-08,-1.37411e-08,-3.24114e-17
0.769975,0.44,0.136893,0.01,1.76809,96.8,363.048,-363.064,616.134,6.84011e-09,-6.84026e-09,1.16083e-08,715.137,-715.152,-1.96123e-06,1.34737e-08,-1.34738e-08,-3.69507e-17
0.779975,0.44,0.14566,0.01,7.25638,96.8,362.706,-362.72,600.244,6.83364e-09,-6.83379e-09,1.13089e-08,701.316,-701.33,-2.17402e-06,1.32133e-08,-1.32134e-08,-4.09599e-17
0.789975,0.44,0.154577,0.01,12.7084,96.8,362.119,-362.131,584.818,6.82258e-09,-6.82271e-09,1.10183e-08,687.85,-687.863,-2.36005e-06,1.29596e-08,-1.29597e-08,-4.44646e-17
0.799975,0.44,0.163285,0.01,18.1242,96.8,361.306,-361.318,569.845,6.80727e-09,-6.80739e-09,1.07362e-08,674.731,-674.743,-2.52048e-06,1.27124e-08,-1.27125e-08,-4.74873e-17
0.809975,0.44,0.171888,0.01,23.5039,96.8,360.287,-360.298,555.31,6.78806e-09,-6.78817e-09,1.04624e-08,661.946,-661.957,-2.65791e-06,1.24715e-08,-1.24716e-08,-5.00766e-17
0.819975,0.44,0.180636,0.01,28.8475,96.8,359.077,-359.087,541.202,6.76526e-09,-6.76536e-09,1.01966e-08,649.487,-649.497,-2.7739e-06,1.22368e-08,-1.22369e-08,-5.22619e-17
0.829975,0.44,0.189507,0.01,34.1553,96.8,357.692,-357.701,527.509,6.73916e-09,-6.73925e-09,9.93858e-09,637.344,-637.353,-2.87008e-06,1.2008e-08,-1.20081e-08,-5.40739e-17
0.839975,0.44,0.198486,0.01,39.4272,96.8,356.146,-356.155,514.219,6.71004e-09,-6.71012e-09,9.68818e-09,625.507,-625.515,-2.94802e-06,1.1785e-08,-1.1785e-08,-5.55425e-17
0.849975,0.44,0.207415,0.01,44.6636,96.8,354.454,-354.462,501.319,6.67815e-09,-6.67823e-09,9.44515e-09,613.968,-613.976,-3.00955e-06,1.15675e-08,-1.15676e-08,-5.67016e-17
0.859975,0.44,0.216149,0.01,49.8645,96.8,352.63,-352.645,488.804,6.64382e-09,-6.64397e-09,9.20934e-09,602.721,-602.737,-0.00275045,1.13557e-08,-1.13558e-08,-5.182e-14
0.869975,0.44,0.224989,0.01,55.0302,96.8,350.692,-352.778,478.284,6.6163e-09,-6.63746e-09,9.01114e-09,592.651,-594.737,0.122348,1.1175e-08,-1.11961e-08,2.30511e-12
0.879975,0.44,0.233922,0.01,60.1607,96.8,348.071,-353.92,469.701,6.58328e-09,-6.64262e-09,8.84943e-09,583.433,-589.282,1.01094,1.10176e-08,-1.1077e-08,1.90466e-11
0.889975,0.44,0.242938,0.01,65.2565,96.8,347.212,-355.563,460.035,6.57798e-09,-6.6627e-09,8.66733e-09,574.707,-583.058,0.113406,1.08641e-08,-1.09488e-08,2.13663e-12
-0.880025,0.45,0.238542,0.01,62.7598,101.25,337.949,-347.17,-473.229,6.40724e-09,-6.50079e-09,-8.91592e-09,579.592,-588.813,0.669449,1.09599e-08,-1.10535e-08,1.26128e-11
-0.870025,0.45,0.229787,0.01,57.6766,101.25,339.107,-342.581,-480.449,6.40408e-09,-6.43932e-09,-9.05195e-09,587.335,-590.809,0.528046,1.10808e-08,-1.11161e-08,9.94869e-12
-0.860025,0.45,0.220888,0.01,52.5594,101.25,340.199,-340.585,-490.778,6.41122e-09,-6.41514e-09,-9.24654e-09,597.075,-597.462,-0.155765,1.12509e-08,-1.12548e-08,-2.93469e-12
-0.850025,0.45,0.211912,0.01,47.4083,101.25,341.807,-341.816,-502.831,6.43989e-09,-6.43997e-09,-9.47363e-09,608.004,-608.013,2.51727e-06,1.14552e-08,-1.14553e-08,4.74268e-17
-0.840025,0.45,0.203032,0.01,42.2229,101.25,343.122,-343.131,-515.583,6.46466e-09,-6.46475e-09,-9.71388e-09,619.319,-619.328,2.43705e-06,1.16684e-08,-1.16685e-08,4.59155e-17
-0.830025,0.45,0.194261,0.01,37.0033,101.25,344.279,-344.288,-528.712,6.48645e-09,-6.48655e-09,-9.96124e-09,630.921,-630.931,2.3405e-06,1.1887e-08,-1.18871e-08,4.40964e-17
-0.820025,0.45,0.185615,0.01,31.7492,101.25,345.263,-345.274,-542.23,6.50501e-09,-6.50511e-09,-1.02159e-08,642.819,-642.83,2.2262e-06,1.21111e-08,-1.21112e-08,4.19429e-17
-0.810025,0.45,0.176981,0.01,26.4606,101.25,346.061,-346.073,-556.147,6.52005e-09,-6.52016e-09,-1.04781e-08,655.022,-655.034,2.09261e-06,1.23411e-08,-1.23412e-08,3.9426e-17
-0.800025,0.45,0.16806,0.01,21.1374,101.25,346.657,-346.67,-570.475,6.53127e-09,-6.5314e-09,-1.07481e-08,667.539,-667.552,1.93864e-06,1.25769e-08,-1.2577e-08,3.6525e-17
-0.790025,0.45,0.159268,0.01,15.7796,101.25,347.034,-347.047,-585.224,6.53838e-09,-6.53851e-09,-1.1026e-08,680.379,-680.393,1.76253e-06,1.28188e-08,-1.28189e-08,3.32071e-17
-0.780025,0.45,0.150626,0.01,10.387,101.25,347.173,-347.188,-600.407,6.54101e-09,-6.54116e-09,-1.1312e-08,693.551,-693.566,1.56272e-06,1.3067e-08,-1.30671e-08,2.94426e-17
-0.770025,0.45,0.142162,0.01,4.95969,101.25,347.057,-347.073,-616.035,6.53882e-09,-6.53898e-09,-1.16065e-08,707.066,-707.082,1.33833e-06,1.33216e-08,-1.33218e-08,2.5215e-17
-0.760025,0.45,0.133632,0.01,-0.5023,101.25,346.664,-346.681,-632.119,6.53142e-09,-6.5316e-09,-1.19095e-08,720.933,-720.95,1.08782e-06,1.35829e-08,-1.3583e-08,2.04952e-17
-0.750025,0.45,0.124807,0.01,-5.99896,101.25,345.973,-345.991,-648.671,6.51841e-09,-6.51859e-09,-1.22213e-08,735.162,-735.181,8.09923e-07,1.3851e-08,-1.38511e-08,1.52594e-17
-0.740025,0.45,0.116172,0.01,-11.5302,101.25,344.96,-344.98,-665.701,6.49934e-09,-6.49954e-09,-1.25422e-08,749.765,-749.785,5.03524e-07,1.41261e-08,-1.41263e-08,9.48668e-18
-0.730025,0.45,0.107773,0.01,-17.096,101.25,343.602,-343.623,-683.221,6.47375e-09,-6.47397e-09,-1.28723e-08,764.751,-764.772,1.68078e-07,1.44084e-08,-1.44087e-08,3.16668e-18
-0.720025,0.45,0.0996705,0.01,-22.6961,101.25,341.871,-341.894,-701.242,6.44115e-09,-6.44138e-09,-1.32118e-08,780.132,-780.155,-1.97507e-07,1.46982e-08,-1.46985e-08,-3.72115e-18
-0.710025,0.45,0.0908788,0.01,-28.3303,101.25,339.74,-339.765,-719.775,6.40101e-09,-6.40126e-09,-1.3561e-08,795.92,-795.944,-5.95766e-07,1.49957e-08,-1.49959e-08,-1.12246e-17
-0.700025,0.45,0.0822577,0.01,-33.9986,101.25,337.18,-337.206,-738.829,6.35278e-09,-6.35304e-09,-1.392e-08,812.124,-812.151,-1.04883e-06,1.5301e-08,-1.53013e-08,-1.97606e-17
-0.690025,0.45,0.0739844,0.01,-39.7006,101.25,334.158,-334.186,-758.415,6.29585e-09,-6.29614e-09,-1.4289e-08,828.758,-828.787,-1.26905e-06,1.56144e-08,-1.56147e-08,-2.39096e-17
-0.680025,0.45,0.0661896,0.01,-45.436,101.25,330.641,-330.672,-778.541,6.22961e-09,-6.22992e-09,-1.46682e-08,845.834,-845.864,2.13318e-06,1.59361e-08,-1.59364e-08,4.01903e-17
-0.670025,0.45,0.0574864,0.01,-51.2044,101.25,326.595,-326.627,-799.217,6.15337e-09,-6.1537e-09,-1.50577e-08,863.362,-863.395,-3.70924e-05,1.62664e-08,-1.62667e-08,-6.98843e-16
-0.660025,0.45,0.0489011,0.01,-57.0055,101.25,321.979,-322.014,-820.449,6.06643e-09,-6.06679e-09,-1.54577e-08,881.356,-881.391,-0.000564874,1.66054e-08,-1.66058e-08,-1.06426e-14
-0.650025,0.45,0.0409627,0.01,-62.8388,101.25,316.767,-316.793,-842.235,5.96818e-09,-5.96845e-09,-1.58682e-08,899.825,-899.852,0.00699749,1.69533e-08,-1.69536e-08,1.31837e-13
-0.640025,0.45,0.0339157,0.01,-68.7038,101.25,311.442,-310.523,-863.698,5.86375e-09,-5.85443e-09,-1.62726e-08,918.438,-917.519,0.381361,1.72999e-08,-1.72906e-08,7.18506e-12
-0.630025,0.45,0.0246452,0.01,-74.5999,101.25,306.158,-301.011,-883.078,5.74582e-09,-5.6936e-09,-1.66377e-08,936.378,-931.231,0.736204,1.76195e-08,-1.75673e-08,1.38705e-11
-0.620025,0.45,0.0162633,0.01,-80.5263,101.25,297.636,-285.534,-901.354,5.55502e-09,-5.43225e-09,-1.6982e-08,953.393,-941.291,-2.16916,1.79099e-08,-1.77871e-08,-4.08683e-11
-0.610025,0.45,0.0110275,0.01,-86.4831,101.25,284.892,-268.539,-921.046,5.29643e-09,-5.13053e-09,-1.7353e-08,969.862,-953.51,-7.50784,1.82017e-08,-1.80358e-08,-1.41452e-10
0.609975,0.45,0.0110179,0.01,-86.5128,101.25,284.821,-268.478,921.246,5.29514e-09,-5.12933e-09,1.73568e-08,970.03,-953.687,7.55526,1.82049e-08,-1.80391e-08,1.42346e-10
0.619975,0.45,0.0162262,0.01,-80.5558,101.25,297.591,-285.523,901.494,5.55432e-09,-5.43188e-09,1.69847e-08,953.5,-941.432,2.16708,1.7912e-08,-1.77896e-08,4.0829e-11
0.629975,0.45,0.0246005,0.01,-74.6293,101.25,306.13,-300.99,883.195,5.74532e-09,-5.69317e-09,1.66399e-08,936.476,-931.336,-0.744571,1.76214e-08,-1.75693e-08,-1.40282e-11
0.639975,0.45,0.0338685,0.01,-68.7331,101.25,311.412,-310.492,863.81,5.86318e-09,-5.85385e-09,1.62747e-08,918.533,-917.613,-0.382293,1.73017e-08,-1.72924e-08,-7.20261e-12
0.649975,0.45,0.0409255,0.01,-62.8679,101.25,316.739,-316.766,842.345,5.96767e-09,-5.96793e-09,1.58703e-08,899.918,-899.945,-0.00713986,1.69551e-08,-1.69554e-08,-1.34519e-13
0.659975,0.45,0.0488597,0.01,-57.0345,101.25,321.955,-321.99,820.556,6.06597e-09,-6.06632e-09,1.54598e-08,881.447,-881.482,0.00056784,1.66071e-08,-1.66075e-08,1.06984e-14
0.669975,0.45,0.0574426,0.01,-51.2332,101.25,326.573,-326.606,799.321,6.15297e-09,-6.1533e-09,1.50597e-08,863.451,-863.483,3.79316e-05,1.62681e-08,-1.62684e-08,7.14653e-16
0.679975,0.45,0.0661523,0.01,-45.4646,101.25,330.623,-330.653,778.643,6.22925e-09,-6.22956e-09,1.46701e-08,845.92,-845.95,-2.16065e-06,1.59378e-08,-1.59381e-08,-4.0708e-17
0.689975,0.45,0.0739443,0.01,-39.729,101.25,334.142,-334.17,758.514,6.29555e-09,-6.29583e-09,1.42908e-08,828.842,-828.871,1.26661e-06,1.5616e-08,-1.56163e-08,2.38636e-17
0.699975,0.45,0.0822156,0.01,-34.0269,101.25,337.166,-337.192,738.925,6.35251e-09,-6.35278e-09,1.39218e-08,812.206,-812.232,1.05141e-06,1.53025e-08,-1.53028e-08,1.98092e-17
0.709975,0.45,0.0908353,0.01,-28.3585,101.25,339.729,-339.753,719.868,6.40079e-09,-6.40104e-09,1.35627e-08,795.999,-796.024,5.98017e-07,1.49972e-08,-1.49974e-08,1.1267e-17
0.719975,0.45,0.099631,0.01,-22.724,101.25,341.861,-341.884,701.333,6.44097e-09,-6.4412e-09,1.32135e-08,780.21,-780.233,1.99747e-07,1.46997e-08,-1.46999e-08,3.76334e-18
0.729975,0.45,0.107732,0.01,-17.1237,101.25,343.594,-343.615,683.309,6.4736e-09,-6.47382e-09,1.28739e-08,764.827,-764.848,-1.66072e-07,1.44099e-08,-1.44101e-08,-3.12889e-18
0.739975,0.45,0.116129,0.01,-11.5578,101.25,344.954,-344.974,665.787,6.49923e-09,-6.49943e-09,1.25438e-08,749.838,-749.858,-5.02075e-07,1.41275e-08,-1.41277e-08,-9.45938e-18
0.749975,0.45,0.124763,0.01,-6.02638,101.25,345.969,-345.987,648.754,6.51833e-09,-6.51852e-09,1.22229e-08,735.234,-735.252,-8.08793e-07,1.38523e-08,-1.38525e-08,-1.52381e-17
0.759975,0.45,0.133588,0.01,-0.52955,101.25,346.661,-346.678,632.2,6.53137e-09,-6.53155e-09,1.1911e-08,721.003,-721.02,-1.08683e-06,1.35842e-08,-1.35844e-08,-2.04765e-17
0.769975,0.45,0.14212,0.01,4.93261,101.25,347.056,-347.072,616.114,6.5388e-09,-6.53896e-09,1.16079e-08,707.134,-707.15,-1.33722e-06,1.33229e-08,-1.3323e-08,-2.51939e-17
0.779975,0.45,0.150583,0.01,10.3601,101.25,347.173,-347.188,600.484,6.54101e-09,-6.54116e-09,1.13135e-08,693.618,-693.632,-1.56176e-06,1.30682e-08,-1.30684e-08,-2.94244e-17
0.789975,0.45,0.159224,0.01,15.7528,101.25,347.035,-347.049,585.299,6.5384e-09,-6.53854e-09,1.10274e-08,680.444,-680.457,-1.76179e-06,1.282e-08,-1.28201e-08,-3.31931e-17
0.799975,0.45,0.168016,0.01,21.1109,101.25,346.659,-346.672,570.547,6.53132e-09,-6.53145e-09,1.07494e-08,667.602,-667.615,-1.93806e-06,1.25781e-08,-1.25782e-08,-3.65143e-17
0.809975,0.45,0.176937,0.01,26.4342,101.25,346.065,-346.076,556.217,6.52011e-09,-6.52023e-09,1.04795e-08,655.084,-655.095,-2.09201e-06,1.23422e-08,-1.23423e-08,-3.94147e-17
0.819975,0.45,0.185572,0.01,31.723,101.25,345.268,-345.278,542.298,6.50509e-09,-6.5052e-09,1.02172e-08,642.879,-642.89,-2.22528e-06,1.21123e-08,-1.21124e-08,-4.19255e-17
0.829975,0.45,0.194218,0.01,36.9773,101.25,344.284,-344.294,528.778,6.48655e-09,-6.48665e-09,9.96249e-09,630.98,-630.989,-2.33981e-06,1.18881e-08,-1.18882e-08,-4.40834e-17
0.839975,0.45,0.202988,0.01,42.1971,101.25,343.128,-343.137,515.647,6.46477e-09,-6.46486e-09,9.71509e-09,619.376,-619.385,-2.4364e-06,1.16694e-08,-1.16695e-08,-4.59032e-17
0.849975,0.45,0.211868,0.01,47.3826,101.25,341.814,-341.823,502.894,6.44002e-09,-6.4401e-09,9.47481e-09,608.06,-608.068,-2.51658e-06,1.14562e-08,-1.14563e-08,-4.74139e-17
0.859975,0.45,0.220843,0.01,52.5339,101.25,340.206,-340.593,490.839,6.41136e-09,-6.41529e-09,9.24768e-09,597.129,-597.516,0.1558,1.12519e-08,-1.12559e-08,2.93536e-12
0.869975,0.45,0.229743,0.01,57.6512,101.25,339.115,-342.59,480.509,6.40423e-09,-6.43948e-09,9.05306e-09,587.388,-590.863,-0.52805,1.10818e-08,-1.11171e-08,-9.94877e-12
0.879975,0.45,0.238499,0.01,62.7346,101.25,337.957,-347.18,473.288,6.40741e-09,-6.50097e-09,8.91702e-09,579.644,-588.866,-0.669445,1.09609e-08,-1.10545e-08,-1.26127e-11
-0.880025,0.46,0.243245,0.01,65.3672,105.8,325.648,-334.05,-475.475,6.17193e-09,-6.25716e-09,-8.95823e-09,574.485,-582.886,-0.572958,1.08602e-08,-1.09454e-08,-1.07949e-11
-0.870025,0.46,0.234273,0.01,60.3312,105.8,326.167,-332.046,-484.984,6.17074e-09,-6.23037e-09,-9.13737e-09,583.165,-589.044,-1.09256,1.10127e-08,-1.10724e-08,-2.05845e-11
-0.860025,0.46,0.225386,0.01,55.2626,105.8,328.201,-330.299,-493.46,6.19262e-09,-6.2139e-09,-9.29708e-09,592.17,-594.268,-0.0610462,1.11659e-08,-1.11872e-08,-1.15015e-12
-0.850025,0.46,0.216597,0.01,50.1612,105.8,329.317,-329.334,-504.044,6.2046e-09,-6.20477e-09,-9.49648e-09,602.085,-602.101,0.00299346,1.13437e-08,-1.13439e-08,5.63986e-14
-0.840025,0.46,0.207918,0.01,45.0268,105.8,330.264,-330.273,-516.635,6.2224e-09,-6.2225e-09,-9.7337e-09,613.174,-613.184,1.96964e-06,1.15526e-08,-1.15527e-08,3.71092e-17
-0.830025,0.46,0.199342,0.01,39.8595,105.8,331.044,-331.055,-529.594,6.23711e-09,-6.23722e-09,-9.97785e-09,624.545,-624.556,1.85861e-06,1.17668e-08,-1.17669e-08,3.50172e-17
-0.820025,0.46,0.190418,0.01,34.659,105.8,331.642,-331.654,-542.927,6.24839e-09,-6.2485e-09,-1.02291e-08,636.202,-636.213,1.73043e-06,1.19865e-08,-1.19866e-08,3.26022e-17
-0.810025,0.46,0.181606,0.01,29.4253,105.8,332.043,-332.056,-556.644,6.25594e-09,-6.25607e-09,-1.04875e-08,648.153,-648.165,1.58373e-06,1.22116e-08,-1.22118e-08,2.98385e-17
-0.800025,0.46,0.172924,0.01,24.1585,105.8,332.231,-332.244,-570.756,6.25949e-09,-6.25962e-09,-1.07534e-08,660.406,-660.419,1.41778e-06,1.24425e-08,-1.24426e-08,2.67118e-17
-0.790025,0.46,0.164391,0.01,18.8584,105.8,332.189,-332.203,-585.273,6.2587e-09,-6.25884e-09,-1.10269e-08,672.97,-672.984,1.23129e-06,1.26792e-08,-1.26794e-08,2.31981e-17
-0.780025,0.46,0.155992,0.01,13.5251,105.8,331.899,-331.915,-600.204,6.25324e-09,-6.2534e-09,-1.13082e-08,685.854,-685.87,1.02292e-06,1.2922e-08,-1.29221e-08,1.92724e-17
-0.770025,0.46,0.147149,0.01,8.15861,105.8,331.343,-331.359,-615.56,6.24276e-09,-6.24293e-09,-1.15975e-08,699.068,-699.084,7.9215e-07,1.31709e-08,-1.31711e-08,1.49246e-17
-0.760025,0.46,0.138463,0.01,2.759,105.8,330.499,-330.516,-631.351,6.22686e-09,-6.22704e-09,-1.1895e-08,712.62,-712.638,5.37882e-07,1.34262e-08,-1.34264e-08,1.0134e-17
-0.750025,0.46,0.129966,0.01,-2.67366,105.8,329.346,-329.365,-647.588,6.20515e-09,-6.20534e-09,-1.22009e-08,726.52,-726.539,2.58953e-07,1.36881e-08,-1.36883e-08,4.87882e-18
-0.740025,0.46,0.121697,0.01,-8.13926,105.8,327.861,-327.882,-664.28,6.17718e-09,-6.17739e-09,-1.25154e-08,740.778,-740.798,-4.50129e-08,1.39568e-08,-1.3957e-08,-8.48072e-19
-0.730025,0.46,0.113226,0.01,-13.6376,105.8,326.02,-326.042,-681.436,6.14251e-09,-6.14273e-09,-1.28386e-08,755.404,-755.426,-3.73992e-07,1.42323e-08,-1.42326e-08,-7.04622e-18
-0.720025,0.46,0.104534,0.01,-19.1686,105.8,323.797,-323.821,-699.066,6.10063e-09,-6.10087e-09,-1.31708e-08,770.407,-770.431,-7.2867e-07,1.4515e-08,-1.45153e-08,-1.37286e-17
-0.710025,0.46,0.0960979,0.01,-24.732,105.8,321.165,-321.19,-717.179,6.05104e-09,-6.05129e-09,-1.35121e-08,785.8,-785.825,-1.10898e-06,1.4805e-08,-1.48053e-08,-2.08938e-17
-0.700025,0.46,0.0879896,0.01,-30.3275,105.8,318.093,-318.12,-735.784,5.99317e-09,-5.99345e-09,-1.38626e-08,801.591,-801.618,-1.50678e-06,1.51026e-08,-1.51028e-08,-2.83887e-17
-0.690025,0.46,0.0798406,0.01,-35.9547,105.8,314.552,-314.58,-754.888,5.92646e-09,-5.92675e-09,-1.42225e-08,817.792,-817.821,-1.9303e-06,1.54078e-08,-1.54081e-08,-3.6368e-17
-0.680025,0.46,0.0711418,0.01,-41.6135,105.8,310.508,-310.539,-774.498,5.85028e-09,-5.85059e-09,-1.4592e-08,834.414,-834.445,-3.33214e-06,1.5721e-08,-1.57213e-08,-6.27794e-17
-0.670025,0.46,0.0628314,0.01,-47.3032,105.8,305.926,-305.959,-794.622,5.76398e-09,-5.76431e-09,-1.49711e-08,851.468,-851.5,-3.31028e-06,1.60423e-08,-1.60426e-08,-6.23676e-17
-0.660025,0.46,0.0550855,0.01,-53.0236,105.8,300.771,-300.807,-815.264,5.66686e-09,-5.66722e-09,-1.536e-08,868.964,-868.999,0.00013055,1.63719e-08,-1.63723e-08,2.45964e-15
-0.650025,0.46,0.0470053,0.01,-58.774,105.8,295.003,-295.042,-836.431,5.55819e-09,-5.55859e-09,-1.57588e-08,886.916,-886.955,-0.000347552,1.67102e-08,-1.67106e-08,-6.54808e-15
-0.640025,0.46,0.0382964,0.01,-64.554,105.8,288.56,-288.608,-858.127,5.43685e-09,-5.43734e-09,-1.61676e-08,905.328,-905.376,-0.0183285,1.70571e-08,-1.70576e-08,-3.45319e-13
-0.630025,0.46,0.0303928,0.01,-70.3628,105.8,281.853,-281.191,-879.646,5.30739e-09,-5.30068e-09,-1.6573e-08,923.927,-923.266,0.247591,1.74045e-08,-1.73977e-08,4.66476e-12
-0.620025,0.46,0.0241005,0.01,-76.1997,105.8,274.116,-268.332,-898.554,5.13935e-09,-5.08068e-09,-1.69293e-08,941.487,-935.703,-0.982438,1.7713e-08,-1.76543e-08,-1.85097e-11
-0.610025,0.46,0.0148453,0.01,-82.064,105.8,267.294,-253.825,-912.782,4.97742e-09,-4.84077e-09,-1.71973e-08,955.977,-942.508,-0.509014,1.79526e-08,-1.7816e-08,-9.59011e-12
-0.600025,0.46,0.00627383,0.01,-87.9535,105.8,256.621,-237.356,-923.095,4.75113e-09,-4.55569e-09,-1.73916e-08,965.198,-945.934,-1.17473,1.81011e-08,-1.79057e-08,-2.21326e-11
0.599975,0.46,0.00624183,0.01,-87.9828,105.8,256.547,-237.186,923.141,4.74931e-09,-4.5529e-09,1.73925e-08,965.259,-945.899,1.22799,1.81019e-08,-1.79055e-08,2.31361e-11
0.609975,0.46,0.0147983,0.01,-82.0932,105.8,267.213,-253.757,912.9,4.97594e-09,-4.83943e-09,1.71996e-08,956.064,-942.608,0.539127,1.79543e-08,-1.78178e-08,1.01575e-11
0.619975,0.46,0.0240755,0.01,-76.2288,105.8,274.066,-268.287,898.679,5.13843e-09,-5.07981e-09,1.69316e-08,941.59,-935.812,0.991856,1.7715e-08,-1.76564e-08,1.86871e-11
0.629975,0.46,0.0303566,0.01,-70.3917,105.8,281.816,-281.159,879.761,5.30672e-09,-5.30005e-09,1.65752e-08,924.025,-923.368,-0.248945,1.74063e-08,-1.73996e-08,-4.69026e-12
0.639975,0.46,0.0382546,0.01,-64.5828,105.8,288.527,-288.574,858.236,5.43622e-09,-5.4367e-09,1.61697e-08,905.421,-905.469,0.0184861,1.70589e-08,-1.70593e-08,3.48289e-13
0.649975,0.46,0.0469608,0.01,-58.8027,105.8,294.972,-295.012,836.538,5.55762e-09,-5.55802e-09,1.57609e-08,887.007,-887.046,0.00036577,1.67119e-08,-1.67123e-08,6.89132e-15
0.659975,0.46,0.0550487,0.01,-53.0521,105.8,300.744,-300.779,815.368,5.66635e-09,-5.66671e-09,1.5362e-08,869.052,-869.087,-0.000132134,1.63736e-08,-1.6374e-08,-2.48949e-15
0.669975,0.46,0.0627913,0.01,-47.3316,105.8,305.902,-305.935,794.723,5.76352e-09,-5.76385e-09,1.4973e-08,851.553,-851.586,3.22465e-06,1.60439e-08,-1.60442e-08,6.07543e-17
0.679975,0.46,0.0710994,0.01,-41.6417,105.8,310.486,-310.517,774.597,5.84988e-09,-5.85019e-09,1.45939e-08,834.498,-834.528,3.34703e-06,1.57226e-08,-1.57229e-08,6.30601e-17
0.689975,0.46,0.0797966,0.01,-35.9828,105.8,314.533,-314.562,754.984,5.92611e-09,-5.9264e-09,1.42243e-08,817.874,-817.903,1.93318e-06,1.54093e-08,-1.54096e-08,3.64223e-17
0.699975,0.46,0.0879503,0.01,-30.3554,105.8,318.077,-318.104,735.878,5.99286e-09,-5.99314e-09,1.38644e-08,801.67,-801.697,1.5086e-06,1.51041e-08,-1.51043e-08,2.84229e-17
0.709975,0.46,0.0960567,0.01,-24.7597,105.8,321.15,-321.176,717.271,6.05077e-09,-6.05102e-09,1.35138e-08,785.877,-785.902,1.11092e-06,1.48065e-08,-1.48067e-08,2.09304e-17
0.719975,0.46,0.104492,0.01,-19.1962,105.8,323.785,-323.809,699.155,6.1004e-09,-6.10064e-09,1.31725e-08,770.483,-770.506,7.3069e-07,1.45164e-08,-1.45167e-08,1.37666e-17
0.729975,0.46,0.113182,0.01,-13.6651,105.8,326.01,-326.032,681.522,6.14232e-09,-6.14254e-09,1.28403e-08,755.477,-755.499,3.75737e-07,1.42337e-08,-1.42339e-08,7.07911e-18
0.739975,0.46,0.121657,0.01,-8.16652,105.8,327.853,-327.873,664.364,6.17703e-09,-6.17724e-09,1.2517e-08,740.85,-740.87,4.6381e-08,1.39581e-08,-1.39583e-08,8.73845e-19
0.749975,0.46,0.129924,0.01,-2.70076,105.8,329.339,-329.358,647.67,6.20503e-09,-6.20522e-09,1.22025e-08,726.59,-726.609,-2.57664e-07,1.36895e-08,-1.36897e-08,-4.85453e-18
0.759975,0.46,0.13842,0.01,2.73206,105.8,330.494,-330.511,631.431,6.22677e-09,-6.22695e-09,1.18965e-08,712.688,-712.706,-5.36478e-07,1.34275e-08,-1.34277e-08,-1.01076e-17
0.769975,0.46,0.147105,0.01,8.13184,105.8,331.339,-331.356,615.637,6.24269e-09,-6.24286e-09,1.1599e-08,699.134,-699.151,-7.90754e-07,1.31722e-08,-1.31723e-08,-1.48983e-17
0.779975,0.46,0.155948,0.01,13.4985,105.8,331.897,-331.913,600.279,6.25321e-09,-6.25336e-09,1.13096e-08,685.919,-685.935,-1.0216e-06,1.29232e-08,-1.29233e-08,-1.92475e-17
0.789975,0.46,0.164349,0.01,18.8319,105.8,332.188,-332.203,585.346,6.25868e-09,-6.25883e-09,1.10283e-08,673.033,-673.048,-1.23015e-06,1.26804e-08,-1.26805e-08,-2.31767e-17
0.799975,0.46,0.172881,0.01,24.1322,105.8,332.232,-332.245,570.827,6.25949e-09,-6.25963e-09,1.07547e-08,660.468,-660.481,-1.41707e-06,1.24436e-08,-1.24438e-08,-2.66983e-17
0.809975,0.46,0.181563,0.01,29.3992,105.8,332.045,-332.057,556.714,6.25597e-09,-6.25609e-09,1.04888e-08,648.213,-648.225,-1.58283e-06,1.22128e-08,-1.22129e-08,-2.98215e-17
0.819975,0.46,0.190374,0.01,34.633,105.8,331.645,-331.656,542.994,6.24843e-09,-6.24855e-09,1.02303e-08,636.261,-636.272,-1.72893e-06,1.19876e-08,-1.19877e-08,-3.25741e-17
0.829975,0.46,0.199297,0.01,39.8337,105.8,331.048,-331.058,529.659,6.23718e-09,-6.23728e-09,9.97909e-09,624.603,-624.613,-1.85763e-06,1.17679e-08,-1.1768e-08,-3.49989e-17
0.839975,0.46,0.207875,0.01,45.0012,105.8,330.268,-330.278,516.698,6.22248e-09,-6.22258e-09,9.73489e-09,613.23,-613.24,-1.96907e-06,1.15537e-08,-1.15538e-08,-3.70984e-17
0.849975,0.46,0.216554,0.01,50.1358,105.8,329.322,-329.339,504.106,6.2047e-09,-6.20487e-09,9.49765e-09,602.139,-602.156,-0.0029941,1.13447e-08,-1.13449e-08,-5.64107e-14
0.859975,0.46,0.225342,0.01,55.2373,105.8,328.207,-330.305,493.521,6.19273e-09,-6.21401e-09,9.29821e-09,592.223,-594.321,0.0609893,1.1167e-08,-1.11882e-08,1.14907e-12
0.869975,0.46,0.234228,0.01,60.3061,105.8,326.173,-332.053,485.043,6.17086e-09,-6.2305e-09,9.13849e-09,583.218,-589.097,1.09279,1.10137e-08,-1.10734e-08,2.05888e-11
0.879975,0.46,0.2432,0.01,65.3422,105.8,325.655,-334.057,475.533,6.17206e-09,-6.2573e-09,8.95932e-09,574.536,-582.938,0.573506,1.08611e-08,-1.09464e-08,1.08052e-11
-0.870025,0.47,0.238938,0.01,63.0186,110.45,315.802,-324.984,-487.771,5.98982e-09,-6.08296e-09,-9.18989e-09,578.994,-588.176,0.57127,1.09485e-08,-1.10417e-08,1.07631e-11
-0.860025,0.47,0.230232,0.01,57.9986,110.45,316.39,-319.865,-494.928,5.97608e-09,-6.01133e-09,-9.32472e-09,586.615,-590.089,0.459584,1.10673e-08,-1.11025e-08,8.65884e-12
-0.850025,0.47,0.221635,0.01,52.9471,110.45,316.807,-317.209,-505.252,5.97058e-09,-5.97466e-09,-9.51923e-09,596.267,-596.668,-0.168058,1.12358e-08,-1.12398e-08,-3.16632e-12
-0.840025,0.47,0.212776,0.01,47.8638,110.45,317.574,-317.584,-517.322,5.98332e-09,-5.98342e-09,-9.74665e-09,607.019,-607.03,1.5457e-06,1.14366e-08,-1.14367e-08,2.9122e-17
-0.830025,0.47,0.20395,0.01,42.7487,110.45,317.992,-318.003,-530.101,5.99121e-09,-5.99132e-09,-9.98742e-09,618.161,-618.172,1.42349e-06,1.16466e-08,-1.16467e-08,2.68194e-17
-0.820025,0.47,0.195237,0.01,37.6019,110.45,318.219,-318.231,-543.24,5.99548e-09,-5.9956e-09,-1.0235e-08,629.579,-629.59,1.28488e-06,1.18617e-08,-1.18618e-08,2.42078e-17
-0.810025,0.47,0.186653,0.01,32.4232,110.45,318.238,-318.251,-556.748,5.99585e-09,-5.99598e-09,-1.04894e-08,641.279,-641.292,1.12906e-06,1.20821e-08,-1.20823e-08,2.12722e-17
-0.800025,0.47,0.178216,0.01,27.2127,110.45,318.035,-318.049,-570.633,5.99203e-09,-5.99217e-09,-1.07511e-08,653.272,-653.285,9.55556e-07,1.23081e-08,-1.23082e-08,1.80032e-17
-0.790025,0.47,0.169496,0.01,21.9705,110.45,317.592,-317.607,-584.906,5.98369e-09,-5.98384e-09,-1.102e-08,665.563,-665.578,7.63203e-07,1.25397e-08,-1.25398e-08,1.43792e-17
-0.780025,0.47,0.160773,0.01,16.6964,110.45,316.892,-316.908,-599.575,5.9705e-09,-5.97066e-09,-1.12963e-08,678.163,-678.179,5.50891e-07,1.27771e-08,-1.27772e-08,1.03791e-17
-0.770025,0.47,0.152207,0.01,11.3907,110.45,315.915,-315.933,-614.65,5.9521e-09,-5.95228e-09,-1.15804e-08,691.079,-691.096,3.1861e-07,1.30204e-08,-1.30206e-08,6.00279e-18
-0.760025,0.47,0.143827,0.01,6.05335,110.45,314.642,-314.66,-630.138,5.92812e-09,-5.9283e-09,-1.18722e-08,704.32,-704.338,6.55785e-08,1.32699e-08,-1.32701e-08,1.23554e-18
-0.750025,0.47,0.135577,0.01,0.684565,110.45,313.051,-313.07,-646.05,5.89814e-09,-5.89834e-09,-1.2172e-08,717.895,-717.915,-2.09105e-07,1.35256e-08,-1.35258e-08,-3.93965e-18
-0.740025,0.47,0.126841,0.01,-4.71552,110.45,311.118,-311.139,-662.393,5.86174e-09,-5.86195e-09,-1.24799e-08,731.813,-731.834,-5.05264e-07,1.37879e-08,-1.37881e-08,-9.51947e-18
-0.730025,0.47,0.118304,0.01,-10.1467,110.45,308.821,-308.843,-679.176,5.81846e-09,-5.81869e-09,-1.27961e-08,746.084,-746.106,-8.22555e-07,1.40568e-08,-1.4057e-08,-1.54974e-17
-0.720025,0.47,0.110015,0.01,-15.6088,110.45,306.133,-306.157,-696.407,5.76783e-09,-5.76807e-09,-1.31207e-08,760.716,-760.74,-1.161e-06,1.43324e-08,-1.43327e-08,-2.18738e-17
-0.710025,0.47,0.102033,0.01,-21.1015,110.45,303.027,-303.053,-714.092,5.70932e-09,-5.70958e-09,-1.34539e-08,775.72,-775.745,-1.52005e-06,1.46151e-08,-1.46154e-08,-2.86386e-17
-0.700025,0.47,0.0934398,0.01,-26.6245,110.45,299.476,-299.503,-732.239,5.64242e-09,-5.64269e-09,-1.37958e-08,791.105,-791.132,-1.89935e-06,1.4905e-08,-1.49053e-08,-3.57849e-17
-0.690025,0.47,0.0849566,0.01,-32.1774,110.45,295.448,-295.477,-750.854,5.56653e-09,-5.56683e-09,-1.41465e-08,806.88,-806.91,-2.30582e-06,1.52022e-08,-1.52025e-08,-4.34431e-17
-0.680025,0.47,0.0768391,0.01,-37.7599,110.45,290.911,-290.942,-769.942,5.48107e-09,-5.48138e-09,-1.45062e-08,823.057,-823.088,-2.57975e-06,1.5507e-08,-1.55073e-08,-4.8604e-17
-0.670025,0.47,0.0692161,0.01,-43.3715,110.45,285.832,-285.865,-789.508,5.38538e-09,-5.38572e-09,-1.48748e-08,839.645,-839.679,-1.72981e-06,1.58195e-08,-1.58199e-08,-3.25906e-17
-0.660025,0.47,0.06057,0.01,-49.0116,110.45,280.175,-280.21,-809.555,5.27881e-09,-5.27917e-09,-1.52525e-08,856.655,-856.69,-2.30242e-05,1.614e-08,-1.61404e-08,-4.33789e-16
-0.650025,0.47,0.0522096,0.01,-54.6798,110.45,273.902,-273.94,-830.086,5.16064e-09,-5.16102e-09,-1.56393e-08,874.096,-874.133,-0.000128286,1.64686e-08,-1.6469e-08,-2.41697e-15
-0.640025,0.47,0.0445303,0.01,-60.3753,110.45,266.978,-267.015,-851.099,5.03019e-09,-5.03056e-09,-1.60352e-08,891.978,-892.015,0.00316137,1.68055e-08,-1.68059e-08,5.9562e-14
-0.630025,0.47,0.0371247,0.01,-66.0975,110.45,259.345,-259.422,-872.642,4.88655e-09,-4.88733e-09,-1.64411e-08,910.337,-910.414,0.00122191,1.71516e-08,-1.71524e-08,2.30215e-14
-0.620025,0.47,0.028235,0.01,-71.8457,110.45,251.291,-250.158,-893.298,4.72954e-09,-4.71804e-09,-1.68303e-08,928.383,-927.25,0.0764588,1.74864e-08,-1.74749e-08,1.44053e-12
-0.610025,0.47,0.0204008,0.01,-77.619,110.45,243.547,-235.713,-910.377,4.55451e-09,-4.47503e-09,-1.7152e-08,945.304,-937.47,-0.450605,1.7776e-08,-1.76965e-08,-8.48967e-12
-0.600025,0.47,0.0153353,0.01,-83.4166,110.45,242.38,-212.74,-920.549,4.43771e-09,-4.13702e-09,-1.73437e-08,963.078,-933.438,0.470592,1.80161e-08,-1.77154e-08,8.86623e-12
0.599975,0.47,0.0153222,0.01,-83.4455,110.45,242.372,-212.644,920.634,4.43718e-09,-4.13559e-09,1.73453e-08,963.192,-933.464,-0.476111,1.80178e-08,-1.77163e-08,-8.97021e-12
0.609975,0.47,0.0203666,0.01,-77.6477,110.45,243.495,-235.652,910.478,4.55349e-09,-4.47393e-09,1.71539e-08,945.392,-937.549,0.456379,1.77776e-08,-1.76981e-08,8.59845e-12
0.619975,0.47,0.0281927,0.01,-71.8744,110.45,251.242,-250.11,893.408,4.72862e-09,-4.71714e-09,1.68323e-08,928.476,-927.344,-0.0717532,1.74881e-08,-1.74766e-08,-1.35187e-12
0.629975,0.47,0.0370791,0.01,-66.1261,110.45,259.305,-259.383,872.751,4.88579e-09,-4.88658e-09,1.64431e-08,910.43,-910.508,-0.000869451,1.71534e-08,-1.71542e-08,-1.6381e-14
0.639975,0.47,0.0444945,0.01,-60.4037,110.45,266.942,-266.979,851.205,5.02951e-09,-5.02988e-09,1.60372e-08,892.068,-892.105,-0.00320819,1.68072e-08,-1.68076e-08,-6.04442e-14
0.649975,0.47,0.0521694,0.01,-54.708,110.45,273.869,-273.907,830.19,5.16002e-09,-5.1604e-09,1.56413e-08,874.183,-874.221,0.000127619,1.64703e-08,-1.64707e-08,2.40442e-15
0.659975,0.47,0.0605272,0.01,-49.0397,110.45,280.145,-280.181,809.656,5.27825e-09,-5.27861e-09,1.52544e-08,856.74,-856.776,2.33838e-05,1.61416e-08,-1.6142e-08,4.40564e-16
0.669975,0.47,0.0691797,0.01,-43.3994,110.45,285.805,-285.839,789.606,5.38488e-09,-5.38522e-09,1.48766e-08,839.729,-839.762,1.72777e-06,1.58211e-08,-1.58215e-08,3.25522e-17
0.679975,0.47,0.0767998,0.01,-37.7877,110.45,290.887,-290.918,770.038,5.48062e-09,-5.48093e-09,1.4508e-08,823.139,-823.17,2.57928e-06,1.55085e-08,-1.55089e-08,4.85951e-17
0.689975,0.47,0.0849152,0.01,-32.2051,110.45,295.426,-295.456,750.948,5.56613e-09,-5.56643e-09,1.41483e-08,806.96,-806.989,2.30784e-06,1.52037e-08,-1.5204e-08,4.34811e-17
0.699975,0.47,0.0933968,0.01,-26.652,110.45,299.457,-299.484,732.331,5.64206e-09,-5.64234e-09,1.37975e-08,791.182,-791.209,1.90097e-06,1.49064e-08,-1.49067e-08,3.58154e-17
0.709975,0.47,0.101994,0.01,-21.1289,110.45,303.011,-303.037,714.181,5.70901e-09,-5.70927e-09,1.34556e-08,775.795,-775.821,1.52193e-06,1.46165e-08,-1.46168e-08,2.8674e-17
0.719975,0.47,0.109974,0.01,-15.636,110.45,306.118,-306.142,696.494,5.76755e-09,-5.7678e-09,1.31223e-08,760.79,-760.814,1.16314e-06,1.43338e-08,-1.43341e-08,2.19143e-17
0.729975,0.47,0.118262,0.01,-10.1738,110.45,308.808,-308.831,679.261,5.81823e-09,-5.81845e-09,1.27977e-08,746.156,-746.178,8.24573e-07,1.40581e-08,-1.40583e-08,1.55354e-17
0.739975,0.47,0.126798,0.01,-4.74246,110.45,311.108,-311.129,662.476,5.86154e-09,-5.86175e-09,1.24814e-08,731.883,-731.904,5.06879e-07,1.37892e-08,-1.37894e-08,9.54989e-18
0.749975,0.47,0.135533,0.01,0.657788,110.45,313.042,-313.061,646.13,5.89797e-09,-5.89817e-09,1.21735e-08,717.964,-717.983,2.10559e-07,1.35269e-08,-1.35271e-08,3.96706e-18
0.759975,0.47,0.143786,0.01,6.02673,110.45,314.635,-314.653,630.216,5.92798e-09,-5.92817e-09,1.18736e-08,704.387,-704.405,-6.4131e-08,1.32711e-08,-1.32713e-08,-1.20826e-18
0.769975,0.47,0.152165,0.01,11.3642,110.45,315.91,-315.927,614.726,5.952e-09,-5.95217e-09,1.15818e-08,691.144,-691.161,-3.17433e-07,1.30216e-08,-1.30218e-08,-5.98063e-18
0.779975,0.47,0.16073,0.01,16.6701,110.45,316.888,-316.904,599.649,5.97042e-09,-5.97058e-09,1.12977e-08,678.227,-678.242,-5.49881e-07,1.27783e-08,-1.27784e-08,-1.03601e-17
0.789975,0.47,0.169452,0.01,21.9443,110.45,317.59,-317.604,584.978,5.98364e-09,-5.98379e-09,1.10213e-08,665.625,-665.64,-7.62222e-07,1.25408e-08,-1.2541e-08,-1.43607e-17
0.799975,0.47,0.178175,0.01,27.1867,110.45,318.034,-318.047,570.703,5.992e-09,-5.99214e-09,1.07524e-08,653.332,-653.346,-9.54974e-07,1.23092e-08,-1.23094e-08,-1.79923e-17
0.809975,0.47,0.18661,0.01,32.3974,110.45,318.238,-318.251,556.816,5.99584e-09,-5.99597e-09,1.04907e-08,641.338,-641.351,-1.12847e-06,1.20832e-08,-1.20834e-08,-2.1261e-17
0.819975,0.47,0.195193,0.01,37.5762,110.45,318.219,-318.231,543.306,5.99549e-09,-5.99561e-09,1.02362e-08,629.636,-629.648,-1.28369e-06,1.18628e-08,-1.18629e-08,-2.41855e-17
0.829975,0.47,0.203906,0.01,42.7232,110.45,317.994,-318.005,530.166,5.99124e-09,-5.99135e-09,9.98863e-09,618.217,-618.228,-1.42273e-06,1.16476e-08,-1.16477e-08,-2.6805e-17
0.839975,0.47,0.212732,0.01,47.8384,110.45,317.576,-317.587,517.385,5.98337e-09,-5.98347e-09,9.74783e-09,607.074,-607.084,-1.5455e-06,1.14377e-08,-1.14378e-08,-2.91181e-17
0.849975,0.47,0.221592,0.01,52.9219,110.45,316.811,-317.212,505.313,5.97065e-09,-5.97472e-09,9.52038e-09,596.32,-596.722,0.168093,1.12368e-08,-1.12408e-08,3.16697e-12
0.859975,0.47,0.230189,0.01,57.9736,110.45,316.394,-319.869,494.987,5.97616e-09,-6.01141e-09,9.32585e-09,586.667,-590.142,-0.459571,1.10683e-08,-1.11035e-08,-8.65857e-12
0.869975,0.47,0.238894,0.01,62.9937,110.45,315.807,-324.99,487.83,5.98991e-09,-6.08307e-09,9.19099e-09,579.046,-588.229,-0.571238,1.09495e-08,-1.10426e-08,-1.07625e-11
-0.870025,0.48,0.243924,0.01,65.7375,115.2,303.159,-311.56,-489.469,5.74823e-09,-5.83345e-09,-9.22189e-09,573.769,-582.171,-1.0254,1.08467e-08,-1.09319e-08,-1.93191e-11
-0.860025,0.48,0.235134,0.01,60.7663,115.2,303.336,-309.209,-498.763,5.74056e-09,-5.80014e-09,-9.39699e-09,582.355,-588.228,-1.16052,1.09974e-08,-1.1057e-08,-2.18648e-11
-0.850025,0.48,0.226296,0.01,55.7646,115.2,304.773,-306.87,-507.082,5.75122e-09,-5.77249e-09,-9.55372e-09,591.116,-593.213,0.00123224,1.11461e-08,-1.11674e-08,2.32161e-14
-0.840025,0.48,0.217559,0.01,50.7325,115.2,305.064,-305.083,-517.664,5.74767e-09,-5.74785e-09,-9.75309e-09,600.862,-600.88,0.00318292,1.13207e-08,-1.13208e-08,5.99681e-14
-0.830025,0.48,0.208935,0.01,45.6698,115.2,305.132,-305.144,-530.249,5.74892e-09,-5.74903e-09,-9.9902e-09,611.773,-611.785,1.03432e-06,1.15262e-08,-1.15263e-08,1.94873e-17
-0.820025,0.48,0.200439,0.01,40.5766,115.2,305.002,-305.014,-543.184,5.74646e-09,-5.74659e-09,-1.02339e-08,622.954,-622.966,8.88633e-07,1.17369e-08,-1.1737e-08,1.67424e-17
-0.810025,0.48,0.191846,0.01,35.453,115.2,304.656,-304.669,-556.473,5.73995e-09,-5.74009e-09,-1.04843e-08,634.407,-634.421,7.27295e-07,1.19527e-08,-1.19528e-08,1.37027e-17
-0.800025,0.48,0.183095,0.01,30.2988,115.2,304.078,-304.093,-570.123,5.72908e-09,-5.72922e-09,-1.07414e-08,646.142,-646.156,5.49859e-07,1.21737e-08,-1.21739e-08,1.03597e-17
-0.790025,0.48,0.174479,0.01,25.1143,115.2,303.253,-303.268,-584.143,5.71353e-09,-5.71368e-09,-1.10056e-08,658.164,-658.179,3.55345e-07,1.24003e-08,-1.24004e-08,6.6949e-18
-0.780025,0.48,0.166019,0.01,19.8994,115.2,302.161,-302.178,-598.541,5.69296e-09,-5.69313e-09,-1.12769e-08,670.482,-670.499,1.43344e-07,1.26323e-08,-1.26325e-08,2.70068e-18
-0.770025,0.48,0.157738,0.01,14.6543,115.2,300.785,-300.802,-613.325,5.66704e-09,-5.66721e-09,-1.15554e-08,683.105,-683.122,-8.62487e-08,1.28702e-08,-1.28703e-08,-1.62498e-18
-0.760025,0.48,0.149163,0.01,9.37917,115.2,299.103,-299.122,-628.502,5.63536e-09,-5.63555e-09,-1.18413e-08,696.039,-696.058,-3.34259e-07,1.31139e-08,-1.31141e-08,-6.29763e-18
-0.750025,0.48,0.14056,0.01,4.0741,115.2,297.096,-297.116,-644.081,5.59754e-09,-5.59775e-09,-1.21349e-08,709.294,-709.314,-6.00404e-07,1.33636e-08,-1.33638e-08,-1.1312e-17
-0.740025,0.48,0.132153,0.01,-1.26067,115.2,294.74,-294.761,-660.068,5.55316e-09,-5.55338e-09,-1.24361e-08,722.877,-722.899,-8.8445e-07,1.36195e-08,-1.36197e-08,-1.66635e-17
-0.730025,0.48,0.123983,0.01,-6.62491,115.2,292.011,-292.034,-676.47,5.50176e-09,-5.502e-09,-1.27451e-08,736.798,-736.821,-1.18586e-06,1.38818e-08,-1.3882e-08,-2.23423e-17
-0.720025,0.48,0.115762,0.01,-12.0184,115.2,288.886,-288.91,-693.293,5.44288e-09,-5.44313e-09,-1.3062e-08,751.065,-751.089,-1.50392e-06,1.41506e-08,-1.41509e-08,-2.83348e-17
-0.710025,0.48,0.10718,0.01,-17.4407,115.2,285.336,-285.362,-710.543,5.37601e-09,-5.37628e-09,-1.33871e-08,765.687,-765.713,-1.83788e-06,1.44261e-08,-1.44264e-08,-3.46268e-17
-0.700025,0.48,0.098864,0.01,-22.8916,115.2,281.335,-281.362,-728.227,5.30063e-09,-5.30091e-09,-1.37202e-08,780.672,-780.7,-2.18568e-06,1.47084e-08,-1.47087e-08,-4.11794e-17
-0.690025,0.48,0.0908885,0.01,-28.3705,115.2,276.852,-276.881,-746.347,5.21618e-09,-5.21648e-09,-1.40616e-08,796.031,-796.06,-2.54144e-06,1.49978e-08,-1.49981e-08,-4.78823e-17
-0.680025,0.48,0.0828906,0.01,-33.8772,115.2,271.856,-271.888,-764.908,5.12207e-09,-5.12238e-09,-1.44113e-08,811.771,-811.803,-2.91288e-06,1.52944e-08,-1.52947e-08,-5.48803e-17
-0.670025,0.48,0.0743502,0.01,-39.4111,115.2,266.315,-266.348,-783.912,5.01768e-09,-5.01801e-09,-1.47694e-08,827.903,-827.937,-3.66446e-06,1.55983e-08,-1.55987e-08,-6.90406e-17
-0.660025,0.48,0.0662199,0.01,-44.9716,115.2,260.194,-260.229,-803.362,4.90236e-09,-4.90272e-09,-1.51358e-08,844.436,-844.471,-2.72185e-06,1.59098e-08,-1.59102e-08,-5.12812e-17
-0.650025,0.48,0.0586701,0.01,-50.5581,115.2,253.456,-253.494,-823.258,4.77543e-09,-4.77581e-09,-1.55107e-08,861.378,-861.415,3.95471e-05,1.6229e-08,-1.62294e-08,7.45089e-16
-0.640025,0.48,0.0505477,0.01,-56.1699,115.2,246.064,-246.104,-843.6,4.63616e-09,-4.63657e-09,-1.58939e-08,878.739,-878.78,-0.000305618,1.65561e-08,-1.65565e-08,-5.75802e-15
-0.630025,0.48,0.0421195,0.01,-61.8064,115.2,237.973,-238.014,-864.381,4.48372e-09,-4.48414e-09,-1.62854e-08,896.526,-896.567,-0.00404944,1.68912e-08,-1.68917e-08,-7.62938e-14
-0.620025,0.48,0.0345402,0.01,-67.4666,115.2,229.232,-229.194,-885.524,4.3187e-09,-4.31831e-09,-1.66838e-08,914.727,-914.689,0.056875,1.72338e-08,-1.72334e-08,1.07156e-12
-0.610025,0.48,0.0279014,0.01,-73.1498,115.2,220.481,-215.876,-903.45,4.13396e-09,-4.08724e-09,-1.70215e-08,931.724,-927.118,-0.457896,1.75342e-08,-1.74875e-08,-8.62703e-12
-0.600025,0.48,0.0187318,0.01,-78.8548,115.2,215.61,-196.877,-915.747,3.98077e-09,-3.79072e-09,-1.72532e-08,948.052,-929.319,0.157482,1.77804e-08,-1.75903e-08,2.96705e-12
-0.590025,0.48,0.011103,0.01,-84.5806,115.2,213.321,-177.651,-928.003,3.864e-09,-3.50214e-09,-1.74841e-08,966.201,-930.531,2.54928,1.80487e-08,-1.76868e-08,4.80298e-11
0.589975,0.48,0.0110745,0.01,-84.6092,115.2,213.287,-177.557,928.103,3.8631e-09,-3.50062e-09,1.7486e-08,966.316,-930.585,-2.54436,1.80506e-08,-1.76881e-08,-4.79372e-11
0.599975,0.48,0.0186884,0.01,-78.8833,115.2,215.565,-196.817,915.853,3.97986e-09,-3.78966e-09,1.72552e-08,948.151,-929.402,-0.159121,1.77822e-08,-1.7592e-08,-2.99793e-12
0.609975,0.48,0.0278544,0.01,-73.1781,115.2,220.437,-215.827,903.556,4.13311e-09,-4.08634e-09,1.70235e-08,931.818,-927.208,0.454335,1.75359e-08,-1.74892e-08,8.55994e-12
0.619975,0.48,0.0345056,0.01,-67.4948,115.2,229.187,-229.149,885.63,4.31786e-09,-4.31746e-09,1.66858e-08,914.819,-914.781,-0.057963,1.72356e-08,-1.72352e-08,-1.09206e-12
0.629975,0.48,0.0420793,0.01,-61.8344,115.2,237.931,-237.972,864.485,4.48293e-09,-4.48335e-09,1.62874e-08,896.615,-896.656,0.00405649,1.68929e-08,-1.68933e-08,7.64266e-14
0.639975,0.48,0.0505044,0.01,-56.1979,115.2,246.025,-246.066,843.702,4.63543e-09,-4.63584e-09,1.58958e-08,878.826,-878.867,0.00031326,1.65578e-08,-1.65582e-08,5.902e-15
0.649975,0.48,0.0586344,0.01,-50.5859,115.2,253.421,-253.459,823.358,4.77477e-09,-4.77515e-09,1.55125e-08,861.463,-861.501,-3.99118e-05,1.62306e-08,-1.6231e-08,-7.51961e-16
0.659975,0.48,0.0661807,0.01,-44.9993,115.2,260.162,-260.197,803.46,4.90176e-09,-4.90212e-09,1.51377e-08,844.519,-844.554,2.67679e-06,1.59114e-08,-1.59117e-08,5.04324e-17
0.669975,0.48,0.0743087,0.01,-39.4387,115.2,266.286,-266.32,784.008,5.01713e-09,-5.01747e-09,1.47712e-08,827.984,-828.018,3.67065e-06,1.55999e-08,-1.56002e-08,6.91572e-17
0.679975,0.48,0.0828473,0.01,-33.9047,115.2,271.83,-271.861,765.001,5.12157e-09,-5.12189e-09,1.44131e-08,811.851,-811.882,2.91538e-06,1.52959e-08,-1.52962e-08,5.49275e-17
0.689975,0.48,0.0908498,0.01,-28.3979,115.2,276.828,-276.858,746.438,5.21573e-09,-5.21603e-09,1.40633e-08,796.108,-796.138,2.54356e-06,1.49993e-08,-1.49996e-08,4.79221e-17
0.699975,0.48,0.0988234,0.01,-22.9187,115.2,281.314,-281.341,728.316,5.30023e-09,-5.30051e-09,1.37219e-08,780.748,-780.776,2.18726e-06,1.47099e-08,-1.47101e-08,4.12093e-17
0.709975,0.48,0.107137,0.01,-17.4677,115.2,285.317,-285.343,710.63,5.37566e-09,-5.37592e-09,1.33887e-08,765.76,-765.786,1.83959e-06,1.44275e-08,-1.44277e-08,3.46589e-17
0.719975,0.48,0.115719,0.01,-12.0453,115.2,288.869,-288.894,693.378,5.44257e-09,-5.44282e-09,1.30636e-08,751.137,-751.161,1.50585e-06,1.4152e-08,-1.41522e-08,2.83711e-17
0.729975,0.48,0.123943,0.01,-6.65166,115.2,291.997,-292.02,676.552,5.50149e-09,-5.50172e-09,1.27466e-08,736.868,-736.891,1.18754e-06,1.38831e-08,-1.38834e-08,2.2374e-17
0.739975,0.48,0.132112,0.01,-1.28727,115.2,294.727,-294.749,660.148,5.55292e-09,-5.55314e-09,1.24376e-08,722.946,-722.967,8.85737e-07,1.36208e-08,-1.3621e-08,1.66878e-17
0.749975,0.48,0.140517,0.01,4.04765,115.2,297.085,-297.105,644.159,5.59734e-09,-5.59754e-09,1.21363e-08,709.361,-709.381,6.01521e-07,1.33649e-08,-1.33651e-08,1.1333e-17
0.759975,0.48,0.14912,0.01,9.35286,115.2,299.094,-299.113,628.579,5.63519e-09,-5.63538e-09,1.18428e-08,696.104,-696.123,3.35437e-07,1.31151e-08,-1.31153e-08,6.31983e-18
0.769975,0.48,0.157698,0.01,14.6282,115.2,300.777,-300.795,613.399,5.66689e-09,-5.66707e-09,1.15568e-08,683.168,-683.186,8.747e-08,1.28714e-08,-1.28715e-08,1.64799e-18
0.779975,0.48,0.165977,0.01,19.8734,115.2,302.155,-302.172,598.614,5.69285e-09,-5.69302e-09,1.12782e-08,670.544,-670.561,-1.42352e-07,1.26335e-08,-1.26337e-08,-2.68199e-18
0.789975,0.48,0.174437,0.01,25.0884,115.2,303.248,-303.263,584.214,5.71344e-09,-5.71359e-09,1.10069e-08,658.225,-658.24,-3.54402e-07,1.24014e-08,-1.24016e-08,-6.67715e-18
0.799975,0.48,0.183052,0.01,30.2731,115.2,304.075,-304.089,570.192,5.72901e-09,-5.72916e-09,1.07427e-08,646.201,-646.215,-5.4908e-07,1.21749e-08,-1.2175e-08,-1.0345e-17
0.809975,0.48,0.191802,0.01,35.4274,115.2,304.654,-304.667,556.54,5.73991e-09,-5.74004e-09,1.04855e-08,634.465,-634.478,-7.26724e-07,1.19537e-08,-1.19539e-08,-1.36919e-17
0.819975,0.48,0.200397,0.01,40.5512,115.2,305.001,-305.013,543.249,5.74644e-09,-5.74657e-09,1.02351e-08,623.01,-623.022,-8.87682e-07,1.17379e-08,-1.1738e-08,-1.67244e-17
0.829975,0.48,0.208892,0.01,45.6445,115.2,305.132,-305.144,530.313,5.74891e-09,-5.74903e-09,9.9914e-09,611.828,-611.84,-1.03332e-06,1.15272e-08,-1.15274e-08,-1.94683e-17
0.839975,0.48,0.217516,0.01,50.7074,115.2,305.065,-305.083,517.726,5.74768e-09,-5.74787e-09,9.75425e-09,600.915,-600.934,-0.00318354,1.13217e-08,-1.13219e-08,-5.99797e-14
0.849975,0.48,0.226253,0.01,55.7397,115.2,304.775,-306.872,507.142,5.75125e-09,-5.77253e-09,9.55486e-09,591.169,-593.266,-0.00130065,1.11471e-08,-1.11684e-08,-2.45049e-14
0.859975,0.48,0.23509,0.01,60.7415,115.2,303.338,-309.212,498.823,5.74061e-09,-5.80019e-09,9.39811e-09,582.407,-588.28,1.16074,1.09984e-08,-1.1058e-08,2.1869e-11
0.869975,0.48,0.243881,0.01,65.7129,115.2,303.162,-311.564,489.528,5.74828e-09,-5.83352e-09,9.22299e-09,573.82,-582.222,1.02602,1.08476e-08,-1.09329e-08,1.93307e-11
-0.860025,0.49,0.239889,0.01,63.5644,120.05,292.805,-301.871,-500.735,5.55603e-09,-5.64801e-09,-9.43414e-09,577.828,-586.895,0.474696,1.0926e-08,-1.1018e-08,8.94354e-12
-0.850025,0.49,0.231232,0.01,58.6126,120.05,293.164,-296.353,-507.719,5.53724e-09,-5.56959e-09,-9.56572e-09,585.483,-588.672,0.618838,1.10447e-08,-1.10771e-08,1.16593e-11
-0.840025,0.49,0.222689,0.01,53.6316,120.05,292.553,-292.962,-518.038,5.51364e-09,-5.51779e-09,-9.76014e-09,594.834,-595.242,-0.172719,1.12088e-08,-1.12129e-08,-3.25412e-12
-0.830025,0.49,0.214198,0.01,48.6214,120.05,292.473,-292.485,-530.052,5.5104e-09,-5.51053e-09,-9.98648e-09,605.385,-605.397,6.88307e-07,1.14059e-08,-1.1406e-08,1.29681e-17
-0.820025,0.49,0.205426,0.01,43.5819,120.05,292,-292.013,-542.775,5.50151e-09,-5.50164e-09,-1.02262e-08,616.332,-616.344,5.39069e-07,1.16121e-08,-1.16122e-08,1.01564e-17
-0.810025,0.49,0.196772,0.01,38.5131,120.05,291.305,-291.318,-555.836,5.48841e-09,-5.48855e-09,-1.04723e-08,627.541,-627.555,3.75772e-07,1.18233e-08,-1.18234e-08,7.07975e-18
-0.800025,0.49,0.188251,0.01,33.4153,120.05,290.37,-290.385,-569.243,5.4708e-09,-5.47095e-09,-1.07249e-08,639.02,-639.035,1.97613e-07,1.20396e-08,-1.20397e-08,3.72315e-18
-0.790025,0.49,0.179882,0.01,28.2884,120.05,289.179,-289.195,-583.002,5.44837e-09,-5.44853e-09,-1.09841e-08,650.777,-650.792,4.1934e-09,1.22611e-08,-1.22612e-08,7.90065e-20
-0.780025,0.49,0.171496,0.01,23.1326,120.05,287.715,-287.732,-597.121,5.42079e-09,-5.42096e-09,-1.12501e-08,662.818,-662.834,-2.04106e-07,1.24879e-08,-1.24881e-08,-3.84547e-18
-0.770025,0.49,0.162844,0.01,17.9481,120.05,285.959,-285.977,-611.607,5.38771e-09,-5.38789e-09,-1.1523e-08,675.15,-675.168,-4.27636e-07,1.27203e-08,-1.27205e-08,-8.05691e-18
-0.760025,0.49,0.154355,0.01,12.7349,120.05,283.891,-283.91,-626.465,5.34874e-09,-5.34894e-09,-1.1803e-08,687.782,-687.802,-6.66941e-07,1.29583e-08,-1.29585e-08,-1.25656e-17
-0.750025,0.49,0.146058,0.01,7.49336,120.05,281.489,-281.51,-641.703,5.30351e-09,-5.30372e-09,-1.20901e-08,700.722,-700.742,-9.20932e-07,1.32021e-08,-1.32023e-08,-1.73509e-17
-0.740025,0.49,0.137986,0.01,2.22366,120.05,278.733,-278.755,-657.327,5.25159e-09,-5.25181e-09,-1.23844e-08,713.976,-713.998,-1.18951e-06,1.34518e-08,-1.3452e-08,-2.24111e-17
-0.730025,0.49,0.12945,0.01,-3.0739,120.05,275.599,-275.622,-673.341,5.19255e-09,-5.19279e-09,-1.26861e-08,727.553,-727.576,-1.47179e-06,1.37076e-08,-1.37078e-08,-2.77294e-17
-0.720025,0.49,0.121012,0.01,-8.39902,120.05,272.062,-272.087,-689.751,5.12592e-09,-5.12617e-09,-1.29953e-08,741.46,-741.485,-1.76647e-06,1.39696e-08,-1.39699e-08,-3.32814e-17
-0.710025,0.49,0.11283,0.01,-13.7514,120.05,268.097,-268.123,-706.562,5.05121e-09,-5.05148e-09,-1.3312e-08,755.707,-755.733,-2.0725e-06,1.42381e-08,-1.42383e-08,-3.9047e-17
-0.700025,0.49,0.104963,0.01,-19.1305,120.05,263.675,-263.703,-723.777,4.96791e-09,-4.96819e-09,-1.36364e-08,770.301,-770.329,-2.38735e-06,1.4513e-08,-1.45133e-08,-4.49791e-17
-0.690025,0.49,0.0965923,0.01,-24.536,120.05,258.768,-258.798,-741.399,4.87548e-09,-4.87578e-09,-1.39684e-08,785.25,-785.28,-2.70869e-06,1.47947e-08,-1.4795e-08,-5.10333e-17
-0.680025,0.49,0.088245,0.01,-29.9674,120.05,253.347,-253.378,-759.43,4.77334e-09,-4.77366e-09,-1.43081e-08,800.563,-800.594,-3.03751e-06,1.50832e-08,-1.50835e-08,-5.72284e-17
-0.670025,0.49,0.0802764,0.01,-35.4241,120.05,247.378,-247.411,-777.871,4.66089e-09,-4.66123e-09,-1.46555e-08,816.248,-816.281,-3.30392e-06,1.53787e-08,-1.53791e-08,-6.22478e-17
-0.660025,0.49,0.0728108,0.01,-40.9055,120.05,240.829,-240.864,-796.723,4.53751e-09,-4.53787e-09,-1.50107e-08,832.314,-832.349,-3.30064e-06,1.56814e-08,-1.56818e-08,-6.21859e-17
-0.650025,0.49,0.0642799,0.01,-46.411,120.05,233.665,-233.702,-815.985,4.40254e-09,-4.40292e-09,-1.53736e-08,848.768,-848.806,-1.1379e-05,1.59914e-08,-1.59918e-08,-2.14386e-16
-0.640025,0.49,0.0561327,0.01,-51.9399,120.05,225.848,-225.887,-835.653,4.25528e-09,-4.25568e-09,-1.57442e-08,865.62,-865.659,-1.68716e-05,1.63089e-08,-1.63094e-08,-3.1787e-16
-0.630025,0.49,0.0486812,0.01,-57.4914,120.05,217.342,-217.383,-855.723,4.09502e-09,-4.09544e-09,-1.61223e-08,882.877,-882.918,0.000934362,1.66341e-08,-1.66345e-08,1.76039e-14
-0.620025,0.49,0.0410832,0.01,-63.0646,120.05,208.095,-208.152,-876.205,3.92087e-09,-3.92146e-09,-1.65082e-08,900.555,-900.612,-0.0040716,1.69672e-08,-1.69678e-08,-7.67112e-14
-0.610025,0.49,0.032561,0.01,-68.6586,120.05,198.5,-197.509,-896.037,3.73555e-09,-3.7255e-09,-1.68819e-08,918.149,-917.158,0.111143,1.72941e-08,-1.72841e-08,2.094e-12
-0.600025,0.49,0.0251519,0.01,-74.2724,120.05,189.683,-183.046,-912.806,3.54489e-09,-3.47755e-09,-1.71978e-08,934.955,-928.318,0.190676,1.75862e-08,-1.75189e-08,3.59245e-12
-0.590025,0.49,0.0194809,0.01,-79.9049,120.05,181.267,-164.26,-926.604,3.34123e-09,-3.16869e-09,-1.74578e-08,951.076,-934.068,-0.347478,1.78449e-08,-1.76723e-08,-6.54668e-12
-0.580025,0.49,0.0098511,0.01,-85.5546,120.05,168.775,-149.984,-940.909,3.09812e-09,-2.90749e-09,-1.77273e-08,963.707,-944.916,-0.0718588,1.80751e-08,-1.78845e-08,-1.35386e-12
0.579975,0.49,0.00980507,0.01,-85.5828,120.05,168.735,-149.927,940.962,3.09728e-09,-2.90648e-09,1.77283e-08,963.761,-944.952,0.0484054,1.8076e-08,-1.78852e-08,9.11986e-13
0.589975,0.49,0.0194321,0.01,-79.933,120.05,181.216,-164.178,926.694,3.34013e-09,-3.16728e-09,1.74594e-08,951.167,-934.129,0.351274,1.78465e-08,-1.76736e-08,6.6182e-12
0.599975,0.49,0.0251195,0.01,-74.3003,120.05,189.624,-182.981,912.91,3.54374e-09,-3.47635e-09,1.71998e-08,935.048,-928.404,-0.184338,1.7588e-08,-1.75206e-08,-3.47303e-12
0.609975,0.49,0.0325208,0.01,-68.6864,120.05,198.447,-197.457,896.142,3.73455e-09,-3.72451e-09,1.68838e-08,918.24,-917.25,-0.110055,1.72959e-08,-1.72858e-08,-2.07349e-12
0.619975,0.49,0.0410391,0.01,-63.0923,120.05,208.047,-208.104,876.308,3.91997e-09,-3.92055e-09,1.65101e-08,900.644,-900.701,0.00421211,1.69689e-08,-1.69695e-08,7.93587e-14
0.629975,0.49,0.0486465,0.01,-57.519,120.05,217.297,-217.339,855.824,4.09419e-09,-4.09461e-09,1.61242e-08,882.964,-883.005,-0.000944671,1.66357e-08,-1.66361e-08,-1.77981e-14
0.639975,0.49,0.0560937,0.01,-51.9675,120.05,225.807,-225.847,835.752,4.25451e-09,-4.25492e-09,1.5746e-08,865.704,-865.744,1.62499e-05,1.63105e-08,-1.63109e-08,3.06158e-16
0.649975,0.49,0.0642381,0.01,-46.4385,120.05,233.627,-233.665,816.082,4.40184e-09,-4.40222e-09,1.53754e-08,848.851,-848.888,1.14925e-05,1.5993e-08,-1.59934e-08,2.16526e-16
0.659975,0.49,0.0727752,0.01,-40.9328,120.05,240.795,-240.83,796.818,4.53687e-09,-4.53723e-09,1.50125e-08,832.394,-832.43,3.30279e-06,1.56829e-08,-1.56833e-08,6.22265e-17
0.669975,0.49,0.0802379,0.01,-35.4513,120.05,247.347,-247.38,777.964,4.66031e-09,-4.66064e-09,1.46573e-08,816.327,-816.36,3.3045e-06,1.53802e-08,-1.53806e-08,6.22587e-17
0.679975,0.49,0.0882044,0.01,-29.9944,120.05,253.318,-253.35,759.52,4.7728e-09,-4.77312e-09,1.43098e-08,800.64,-800.671,3.03936e-06,1.50847e-08,-1.5085e-08,5.72633e-17
0.689975,0.49,0.09655,0.01,-24.5629,120.05,258.743,-258.772,741.487,4.87499e-09,-4.87529e-09,1.39701e-08,785.325,-785.355,2.71051e-06,1.47961e-08,-1.47964e-08,5.10676e-17
0.699975,0.49,0.104925,0.01,-19.1573,120.05,263.652,-263.68,723.863,4.96747e-09,-4.96776e-09,1.3638e-08,770.374,-770.402,2.38849e-06,1.45144e-08,-1.45147e-08,4.50004e-17
0.709975,0.49,0.11279,0.01,-13.778,120.05,268.076,-268.102,706.647,5.05082e-09,-5.05108e-09,1.33136e-08,755.779,-755.805,2.07369e-06,1.42394e-08,-1.42397e-08,3.90695e-17
0.719975,0.49,0.120971,0.01,-8.42558,120.05,272.044,-272.068,689.834,5.12557e-09,-5.12582e-09,1.29969e-08,741.53,-741.555,1.76818e-06,1.3971e-08,-1.39712e-08,3.33136e-17
0.729975,0.49,0.129407,0.01,-3.10032,120.05,275.583,-275.606,673.422,5.19224e-09,-5.19247e-09,1.26877e-08,727.621,-727.644,1.47341e-06,1.37089e-08,-1.37091e-08,2.77599e-17
0.739975,0.49,0.137947,0.01,2.19739,120.05,278.719,-278.741,657.405,5.25132e-09,-5.25154e-09,1.23859e-08,714.042,-714.064,1.19084e-06,1.34531e-08,-1.34533e-08,2.24362e-17
0.749975,0.49,0.146017,0.01,7.46722,120.05,281.477,-281.497,641.78,5.30327e-09,-5.30348e-09,1.20915e-08,700.787,-700.807,9.21971e-07,1.32033e-08,-1.32035e-08,1.73705e-17
0.759975,0.49,0.154313,0.01,12.7089,120.05,283.879,-283.899,626.54,5.34854e-09,-5.34873e-09,1.18044e-08,687.846,-687.865,6.67912e-07,1.29595e-08,-1.29597e-08,1.25838e-17
0.769975,0.49,0.162801,0.01,17.9222,120.05,285.949,-285.967,611.679,5.38753e-09,-5.38771e-09,1.15244e-08,675.212,-675.23,4.28943e-07,1.27215e-08,-1.27217e-08,8.08154e-18
0.779975,0.49,0.171452,0.01,23.1069,120.05,287.707,-287.724,597.192,5.42064e-09,-5.42081e-09,1.12514e-08,662.878,-662.895,2.0519e-07,1.24891e-08,-1.24893e-08,3.8659e-18
0.789975,0.49,0.179841,0.01,28.2629,120.05,289.173,-289.188,583.071,5.44825e-09,-5.44841e-09,1.09854e-08,650.836,-650.852,-3.25906e-09,1.22622e-08,-1.22624e-08,-6.14008e-20
0.799975,0.49,0.188209,0.01,33.3899,120.05,290.365,-290.379,569.31,5.4707e-09,-5.47085e-09,1.07261e-08,639.078,-639.093,-1.965e-07,1.20407e-08,-1.20408e-08,-3.70218e-18
0.809975,0.49,0.196729,0.01,38.4879,120.05,291.301,-291.314,555.902,5.48833e-09,-5.48847e-09,1.04735e-08,627.597,-627.611,-3.74644e-07,1.18244e-08,-1.18245e-08,-7.05851e-18
0.819975,0.49,0.205383,0.01,43.5567,120.05,291.997,-292.01,542.839,5.50146e-09,-5.50159e-09,1.02274e-08,616.387,-616.4,-5.37719e-07,1.16131e-08,-1.16133e-08,-1.01309e-17
0.829975,0.49,0.214154,0.01,48.5964,120.05,292.471,-292.483,530.114,5.51037e-09,-5.51049e-09,9.98766e-09,605.439,-605.451,-6.86938e-07,1.14069e-08,-1.1407e-08,-1.29423e-17
0.839975,0.49,0.222647,0.01,53.6068,120.05,292.552,-292.961,518.099,5.51363e-09,-5.51778e-09,9.76128e-09,594.886,-595.295,0.172752,1.12098e-08,-1.12139e-08,3.25475e-12
0.849975,0.49,0.23119,0.01,58.5879,120.05,293.164,-296.353,507.778,5.53724e-09,-5.5696e-09,9.56684e-09,585.535,-588.724,-0.618833,1.10457e-08,-1.1078e-08,-1.16592e-11
0.859975,0.49,0.239845,0.01,63.5398,120.05,292.805,-301.873,500.794,5.55604e-09,-5.64803e-09,9.43524e-09,577.879,-586.946,-0.474637,1.0927e-08,-1.1019e-08,-8.94243e-12
-0.860025,0.5,0.244959,0.01,66.3917,125,285.08,-288.106,-500.339,5.38423e-09,-5.41493e-09,-9.42668e-09,575.091,-578.117,1.50531,1.08482e-08,-1.08789e-08,2.8361e-11
-0.850025,0.5,0.236488,0.01,61.49,125,281.577,-285.332,-509.911,5.3214e-09,-5.3595e-09,-9.60701e-09,581.522,-585.278,-0.0111971,1.09725e-08,-1.10106e-08,-2.10961e-13
-0.840025,0.5,0.227763,0.01,56.5601,125,280.239,-282.695,-519.307,5.29054e-09,-5.31545e-09,-9.78405e-09,589.453,-591.909,-0.187355,1.11163e-08,-1.11412e-08,-3.52987e-12
-0.830025,0.5,0.219078,0.01,51.6022,125,279.819,-280.249,-529.924,5.27382e-09,-5.27818e-09,-9.98408e-09,599.15,-599.58,-0.181533,1.12902e-08,-1.12946e-08,-3.42019e-12
-0.820025,0.5,0.21051,0.01,46.6163,125,279.222,-279.235,-542.027,5.26076e-09,-5.2609e-09,-1.02121e-08,609.717,-609.73,2.32897e-07,1.14875e-08,-1.14876e-08,4.38791e-18
-0.810025,0.5,0.202073,0.01,41.6025,125,278.192,-278.207,-554.854,5.24137e-09,-5.24151e-09,-1.04538e-08,620.684,-620.699,7.0425e-08,1.16941e-08,-1.16943e-08,1.32685e-18
-0.800025,0.5,0.193785,0.01,36.5608,125,276.917,-276.932,-568.01,5.21734e-09,-5.21749e-09,-1.07016e-08,631.912,-631.927,-1.05024e-07,1.19057e-08,-1.19058e-08,-1.97872e-18
-0.790025,0.5,0.185147,0.01,31.4915,125,275.379,-275.395,-581.501,5.18837e-09,-5.18853e-09,-1.09558e-08,643.406,-643.422,-2.94039e-07,1.21222e-08,-1.21224e-08,-5.53988e-18
-0.780025,0.5,0.176597,0.01,26.3946,125,273.561,-273.578,-595.334,5.15412e-09,-5.15429e-09,-1.12164e-08,655.173,-655.19,-4.95846e-07,1.23439e-08,-1.23441e-08,-9.34202e-18
-0.770025,0.5,0.168208,0.01,21.2704,125,271.444,-271.463,-609.515,5.11425e-09,-5.11444e-09,-1.14836e-08,667.221,-667.239,-7.10635e-07,1.25709e-08,-1.25711e-08,-1.33888e-17
-0.760025,0.5,0.160004,0.01,16.119,125,269.01,-269.03,-624.049,5.06839e-09,-5.06859e-09,-1.17574e-08,679.555,-679.575,-9.38221e-07,1.28033e-08,-1.28035e-08,-1.76766e-17
-0.750025,0.5,0.151747,0.01,10.9408,125,266.238,-266.258,-638.94,5.01616e-09,-5.01637e-09,-1.2038e-08,692.184,-692.204,-1.17723e-06,1.30412e-08,-1.30414e-08,-2.21797e-17
-0.740025,0.5,0.143226,0.01,5.73587,125,263.105,-263.127,-654.195,4.95715e-09,-4.95737e-09,-1.23254e-08,705.114,-705.136,-1.4279e-06,1.32849e-08,-1.32851e-08,-2.69025e-17
-0.730025,0.5,0.134909,0.01,0.504675,125,259.59,-259.613,-669.817,4.89092e-09,-4.89116e-09,-1.26197e-08,718.353,-718.376,-1.68872e-06,1.35343e-08,-1.35345e-08,-3.18164e-17
-0.720025,0.5,0.126835,0.01,-4.75248,125,255.667,-255.692,-685.81,4.81703e-09,-4.81728e-09,-1.2921e-08,731.908,-731.932,-1.9579e-06,1.37897e-08,-1.37899e-08,-3.68879e-17
-0.710025,0.5,0.118879,0.01,-10.0352,125,251.313,-251.339,-702.176,4.735e-09,-4.73526e-09,-1.32294e-08,745.786,-745.812,-2.23404e-06,1.40512e-08,-1.40514e-08,-4.20905e-17
-0.700025,0.5,0.110405,0.01,-15.343,125,246.5,-246.528,-718.92,4.64432e-09,-4.6446e-09,-1.35449e-08,759.996,-760.024,-2.51436e-06,1.43189e-08,-1.43192e-08,-4.7372e-17
-0.690025,0.5,0.102208,0.01,-20.6755,125,241.2,-241.23,-736.041,4.54447e-09,-4.54478e-09,-1.38674e-08,774.544,-774.573,-2.79618e-06,1.4593e-08,-1.45933e-08,-5.26816e-17
-0.680025,0.5,0.0943585,0.01,-26.0322,125,235.384,-235.415,-753.541,4.43491e-09,-4.43523e-09,-1.41972e-08,789.438,-789.469,-3.07542e-06,1.48736e-08,-1.48739e-08,-5.79426e-17
-0.670025,0.5,0.0865434,0.01,-31.4123,125,229.021,-229.054,-771.42,4.31504e-09,-4.31537e-09,-1.4534e-08,804.686,-804.719,-3.35224e-06,1.51609e-08,-1.51612e-08,-6.31581e-17
-0.660025,0.5,0.0781584,0.01,-36.8154,125,222.079,-222.115,-789.675,4.18426e-09,-4.18462e-09,-1.48779e-08,820.295,-820.331,-3.73918e-06,1.5455e-08,-1.54554e-08,-7.04482e-17
-0.650025,0.5,0.0701977,0.01,-42.2406,125,214.525,-214.562,-808.304,4.04194e-09,-4.04231e-09,-1.52289e-08,836.274,-836.311,-3.33706e-06,1.5756e-08,-1.57564e-08,-6.28721e-17
-0.640025,0.5,0.0628227,0.01,-47.6873,125,206.322,-206.362,-827.304,3.8874e-09,-3.8878e-09,-1.55869e-08,852.628,-852.667,6.942e-06,1.60642e-08,-1.60646e-08,1.30791e-16
-0.630025,0.5,0.0547464,0.01,-53.1546,125,197.435,-197.476,-846.667,3.71996e-09,-3.72039e-09,-1.59517e-08,869.366,-869.408,-0.000117703,1.63795e-08,-1.638e-08,-2.21759e-15
-0.620025,0.5,0.0465786,0.01,-58.6417,125,187.824,-187.866,-866.385,3.53889e-09,-3.53932e-09,-1.63232e-08,886.494,-886.537,-0.000567675,1.67022e-08,-1.67027e-08,-1.06953e-14
-0.610025,0.5,0.0392677,0.01,-64.1475,125,177.47,-177.504,-886.442,3.34379e-09,-3.34414e-09,-1.67011e-08,904.019,-904.053,0.0164869,1.70324e-08,-1.70327e-08,3.10622e-13
-0.600025,0.5,0.0321916,0.01,-69.6711,125,166.895,-165.661,-905.652,3.13904e-09,-3.12652e-09,-1.7063e-08,921.407,-920.173,0.200705,1.73545e-08,-1.7342e-08,3.78141e-12
-0.590025,0.5,0.0235338,0.01,-75.2113,125,156.95,-151.179,-922.194,2.93193e-09,-2.87338e-09,-1.73747e-08,937.86,-932.088,0.681103,1.76447e-08,-1.75862e-08,1.28324e-11
-0.580025,0.5,0.0164735,0.01,-80.767,125,147.081,-133.139,-937.107,2.71048e-09,-2.56904e-09,-1.76556e-08,954.494,-940.552,0.467963,1.79226e-08,-1.77812e-08,8.8167e-12
-0.570025,0.5,0.0123401,0.01,-86.3375,125,132.18,-114.828,-955.536,2.41491e-09,-2.23887e-09,-1.80028e-08,972.158,-954.806,-2.08086,1.82406e-08,-1.80645e-08,-3.92046e-11
0.569975,0.5,0.0122907,0.01,-86.3652,125,132.133,-114.805,955.681,2.41413e-09,-2.23834e-09,1.80056e-08,972.285,-954.957,2.05076,1.82431e-08,-1.80673e-08,3.86374e-11
0.579975,0.5,0.0164461,0.01,-80.7946,125,147.042,-133.091,937.205,2.7097e-09,-2.56817e-09,1.76575e-08,954.589,-940.639,-0.490415,1.79244e-08,-1.77828e-08,-9.23971e-12
0.589975,0.5,0.0234934,0.01,-75.2389,125,156.895,-151.118,922.289,2.93087e-09,-2.87227e-09,1.73765e-08,937.947,-932.17,-0.686378,1.76463e-08,-1.75877e-08,-1.29318e-11
0.599975,0.5,0.0321466,0.01,-69.6986,125,166.838,-165.6,905.751,3.13794e-09,-3.12539e-09,1.70649e-08,921.495,-920.258,-0.199409,1.73561e-08,-1.73436e-08,-3.75699e-12
0.609975,0.5,0.0392344,0.01,-64.175,125,177.417,-177.451,886.542,3.34279e-09,-3.34313e-09,1.6703e-08,904.107,-904.141,-0.0166894,1.7034e-08,-1.70344e-08,-3.14438e-13
0.619975,0.5,0.0465397,0.01,-58.669,125,187.774,-187.817,866.484,3.53796e-09,-3.53839e-09,1.63251e-08,886.58,-886.623,0.000560705,1.67039e-08,-1.67043e-08,1.0564e-14
0.629975,0.5,0.0547043,0.01,-53.1819,125,197.389,-197.43,846.764,3.7191e-09,-3.71952e-09,1.59535e-08,869.45,-869.492,0.000119879,1.63811e-08,-1.63816e-08,2.25858e-15
0.639975,0.5,0.0627879,0.01,-47.7144,125,206.28,-206.319,827.399,3.8866e-09,-3.887e-09,1.55887e-08,852.71,-852.75,-6.99572e-06,1.60657e-08,-1.60661e-08,-1.31803e-16
0.649975,0.5,0.0701594,0.01,-42.2676,125,214.486,-214.523,808.398,4.0412e-09,-4.04158e-09,1.52307e-08,836.354,-836.391,3.32123e-06,1.57576e-08,-1.57579e-08,6.25739e-17
0.659975,0.5,0.0781177,0.01,-36.8423,125,222.043,-222.079,789.767,4.18358e-09,-4.18394e-09,1.48797e-08,820.374,-820.409,3.74183e-06,1.54565e-08,-1.54568e-08,7.04983e-17
0.669975,0.5,0.0865009,0.01,-31.4391,125,228.988,-229.021,771.509,4.31441e-09,-4.31475e-09,1.45357e-08,804.763,-804.796,3.35403e-06,1.51623e-08,-1.51627e-08,6.31919e-17
0.679975,0.5,0.0943205,0.01,-26.0589,125,235.354,-235.385,753.629,4.43434e-09,-4.43466e-09,1.41988e-08,789.513,-789.544,3.07691e-06,1.4875e-08,-1.48753e-08,5.79707e-17
0.689975,0.5,0.102168,0.01,-20.7021,125,241.172,-241.202,736.127,4.54395e-09,-4.54425e-09,1.38691e-08,774.617,-774.647,2.79757e-06,1.45944e-08,-1.45947e-08,5.27078e-17
0.699975,0.5,0.110364,0.01,-15.3695,125,246.475,-246.503,719.004,4.64385e-09,-4.64413e-09,1.35465e-08,760.067,-760.095,2.51536e-06,1.43202e-08,-1.43205e-08,4.73908e-17
0.709975,0.5,0.118836,0.01,-10.0615,125,251.29,-251.317,702.259,4.73457e-09,-4.73484e-09,1.3231e-08,745.856,-745.882,2.23505e-06,1.40525e-08,-1.40527e-08,4.21095e-17
0.719975,0.5,0.126795,0.01,-4.77869,125,255.647,-255.672,685.89,4.81664e-09,-4.81689e-09,1.29226e-08,731.976,-732.001,1.95939e-06,1.3791e-08,-1.37912e-08,3.6916e-17
0.729975,0.5,0.134868,0.01,0.478594,125,259.571,-259.595,669.895,4.89057e-09,-4.89081e-09,1.26212e-08,718.419,-718.443,1.69031e-06,1.35355e-08,-1.35358e-08,3.18464e-17
0.739975,0.5,0.143184,0.01,5.70992,125,263.089,-263.111,654.272,4.95684e-09,-4.95706e-09,1.23269e-08,705.179,-705.201,1.4293e-06,1.32861e-08,-1.32863e-08,2.69289e-17
0.749975,0.5,0.151704,0.01,10.9149,125,266.223,-266.244,639.015,5.01589e-09,-5.0161e-09,1.20394e-08,692.247,-692.268,1.17823e-06,1.30424e-08,-1.30426e-08,2.21985e-17
0.759975,0.5,0.159964,0.01,16.0933,125,268.997,-269.017,624.122,5.06815e-09,-5.06835e-09,1.17588e-08,679.617,-679.637,9.39043e-07,1.28045e-08,-1.28047e-08,1.76921e-17
0.769975,0.5,0.168167,0.01,21.2448,125,271.433,-271.451,609.586,5.11404e-09,-5.11422e-09,1.1485e-08,667.281,-667.3,7.12056e-07,1.2572e-08,-1.25722e-08,1.34155e-17
0.779975,0.5,0.176555,0.01,26.3692,125,273.551,-273.568,595.404,5.15394e-09,-5.15411e-09,1.12178e-08,655.233,-655.25,4.97215e-07,1.2345e-08,-1.23452e-08,9.36782e-18
0.789975,0.5,0.185104,0.01,31.4662,125,275.371,-275.387,581.569,5.18821e-09,-5.18837e-09,1.09571e-08,643.464,-643.48,2.95066e-07,1.21233e-08,-1.21235e-08,5.55921e-18
0.799975,0.5,0.193744,0.01,36.5357,125,276.91,-276.925,568.076,5.21721e-09,-5.21736e-09,1.07029e-08,631.969,-631.984,1.06057e-07,1.19067e-08,-1.19069e-08,1.99818e-18
0.809975,0.5,0.202031,0.01,41.5775,125,278.187,-278.201,554.919,5.24126e-09,-5.2414e-09,1.0455e-08,620.74,-620.754,-6.97987e-08,1.16952e-08,-1.16953e-08,-1.31505e-18
0.819975,0.5,0.210467,0.01,46.5914,125,279.218,-279.231,542.09,5.26068e-09,-5.26081e-09,1.02133e-08,609.771,-609.784,-2.32241e-07,1.14885e-08,-1.14886e-08,-4.37555e-18
0.829975,0.5,0.219035,0.01,51.5775,125,279.816,-280.245,529.985,5.27376e-09,-5.27811e-09,9.98523e-09,599.203,-599.632,0.181551,1.12912e-08,-1.12956e-08,3.42053e-12
0.839975,0.5,0.227719,0.01,56.5355,125,280.236,-282.693,519.368,5.2905e-09,-5.31541e-09,9.78519e-09,589.505,-591.961,0.187408,1.11173e-08,-1.11422e-08,3.53087e-12
0.849975,0.5,0.236447,0.01,61.4655,125,281.575,-285.331,509.97,5.32137e-09,-5.35947e-09,9.60813e-09,581.573,-585.329,0.0114434,1.09735e-08,-1.10116e-08,2.15601e-13
0.859975,0.5,0.244917,0.01,66.3674,125,285.079,-288.106,500.397,5.38421e-09,-5.41492e-09,9.42777e-09,575.141,-578.168,-1.50496,1.08492e-08,-1.08799e-08,-2.83544e-11
-0.850025,0.51,0.241394,0.01,64.3954,130.05,267.515,-279.3,-513.337,5.09138e-09,-5.21094e-09,-9.67157e-09,575.715,-587.5,-0.343393,1.0898e-08,-1.10176e-08,-6.46972e-12
-0.840025,0.51,0.232788,0.01,59.5166,130.05,267.432,-275.282,-522.177,5.07271e-09,-5.15235e-09,-9.83811e-09,584.55,-592.4,-0.150773,1.10474e-08,-1.1127e-08,-2.84065e-12
-0.830025,0.51,0.224298,0.01,54.611,130.05,267.721,-269.825,-530.375,5.05316e-09,-5.0745e-09,-9.99257e-09,593.537,-595.641,0.108555,1.11917e-08,-1.12131e-08,2.04524e-12
-0.820025,0.51,0.215937,0.01,49.6787,130.05,266.676,-266.697,-540.961,5.02443e-09,-5.02464e-09,-1.0192e-08,603.115,-603.136,0.00341132,1.13631e-08,-1.13633e-08,6.42713e-14
-0.810025,0.51,0.207462,0.01,44.7196,130.05,265.326,-265.341,-553.543,4.99896e-09,-4.99911e-09,-1.04291e-08,613.842,-613.857,-1.90768e-07,1.15652e-08,-1.15654e-08,-3.59418e-18
-0.800025,0.51,0.198866,0.01,39.7341,130.05,263.726,-263.742,-566.441,4.96882e-09,-4.96898e-09,-1.06721e-08,624.821,-624.837,-3.61403e-07,1.17721e-08,-1.17722e-08,-6.80905e-18
-0.790025,0.51,0.190408,0.01,34.7221,130.05,261.858,-261.875,-579.659,4.93363e-09,-4.9338e-09,-1.09211e-08,636.057,-636.073,-5.43505e-07,1.19837e-08,-1.19839e-08,-1.02399e-17
-0.780025,0.51,0.182106,0.01,29.684,130.05,259.705,-259.722,-593.2,4.89307e-09,-4.89324e-09,-1.11762e-08,647.554,-647.572,-7.36439e-07,1.22004e-08,-1.22006e-08,-1.38749e-17
-0.770025,0.51,0.173982,0.01,24.6199,130.05,257.248,-257.266,-607.07,4.84678e-09,-4.84697e-09,-1.14376e-08,659.321,-659.339,-9.40121e-07,1.24221e-08,-1.24222e-08,-1.77124e-17
-0.760025,0.51,0.16548,0.01,19.5301,130.05,254.468,-254.488,-621.274,4.79442e-09,-4.79461e-09,-1.17052e-08,671.362,-671.382,-1.15359e-06,1.26489e-08,-1.26491e-08,-2.17344e-17
-0.750025,0.51,0.157068,0.01,14.4148,130.05,251.346,-251.367,-635.814,4.73559e-09,-4.7358e-09,-1.19791e-08,683.685,-683.706,-1.37565e-06,1.28811e-08,-1.28813e-08,-2.5918e-17
-0.740025,0.51,0.148852,0.01,9.2744,130.05,247.859,-247.882,-650.696,4.66991e-09,-4.67014e-09,-1.22595e-08,696.297,-696.319,-1.60637e-06,1.31187e-08,-1.3119e-08,-3.0265e-17
-0.730025,0.51,0.140867,0.01,4.10921,130.05,243.987,-244.01,-665.921,4.59695e-09,-4.59719e-09,-1.25463e-08,709.204,-709.227,-1.84377e-06,1.33619e-08,-1.33621e-08,-3.47376e-17
-0.720025,0.51,0.132633,0.01,-1.08036,130.05,239.704,-239.729,-681.493,4.51628e-09,-4.51653e-09,-1.28397e-08,722.412,-722.437,-2.08593e-06,1.36108e-08,-1.3611e-08,-3.93001e-17
-0.710025,0.51,0.124292,0.01,-6.29391,130.05,234.988,-235.014,-697.414,4.42742e-09,-4.42769e-09,-1.31397e-08,735.93,-735.956,-2.33107e-06,1.38655e-08,-1.38657e-08,-4.39187e-17
-0.700025,0.51,0.116214,0.01,-11.531,130.05,229.811,-229.839,-713.684,4.32989e-09,-4.33018e-09,-1.34462e-08,749.763,-749.791,-2.5762e-06,1.41261e-08,-1.41264e-08,-4.85371e-17
-0.690025,0.51,0.108456,0.01,-16.791,130.05,224.147,-224.177,-730.305,4.22319e-09,-4.22349e-09,-1.37594e-08,763.918,-763.948,-2.81886e-06,1.43928e-08,-1.43931e-08,-5.3109e-17
-0.680025,0.51,0.100332,0.01,-22.0734,130.05,217.968,-217.999,-747.274,4.10677e-09,-4.10709e-09,-1.40791e-08,778.403,-778.434,-3.05564e-06,1.46657e-08,-1.4666e-08,-5.75701e-17
-0.670025,0.51,0.0921172,0.01,-27.3776,130.05,211.243,-211.276,-764.591,3.98009e-09,-3.98042e-09,-1.44053e-08,793.223,-793.257,-3.28327e-06,1.49449e-08,-1.49453e-08,-6.18588e-17
-0.660025,0.51,0.0842885,0.01,-32.703,130.05,203.942,-203.977,-782.252,3.84254e-09,-3.8429e-09,-1.47381e-08,808.387,-808.422,-3.47637e-06,1.52306e-08,-1.5231e-08,-6.54968e-17
-0.650025,0.51,0.0769645,0.01,-38.0487,130.05,196.033,-196.07,-800.254,3.69354e-09,-3.69391e-09,-1.50772e-08,823.9,-823.937,-3.59901e-06,1.55229e-08,-1.55233e-08,-6.78075e-17
-0.640025,0.51,0.068604,0.01,-43.4141,130.05,187.481,-187.52,-818.59,3.53243e-09,-3.53282e-09,-1.54227e-08,839.77,-839.809,-5.99163e-06,1.58219e-08,-1.58223e-08,-1.12886e-16
-0.630025,0.51,0.0606539,0.01,-48.7981,130.05,178.252,-178.293,-837.253,3.35855e-09,-3.35897e-09,-1.57743e-08,856.002,-856.043,-2.22366e-06,1.61278e-08,-1.61282e-08,-4.18951e-17
-0.620025,0.51,0.0533975,0.01,-54.2001,130.05,168.309,-168.352,-856.235,3.17123e-09,-3.17167e-09,-1.6132e-08,872.603,-872.646,0.000205409,1.64405e-08,-1.6441e-08,3.87003e-15
-0.610025,0.51,0.0457504,0.01,-59.6188,130.05,157.611,-157.66,-875.528,2.96969e-09,-2.97019e-09,-1.64954e-08,889.581,-889.63,-0.00154565,1.67604e-08,-1.67609e-08,-2.91209e-14
-0.600025,0.51,0.0375584,0.01,-65.0533,130.05,146.122,-146.15,-895.085,2.75314e-09,-2.75343e-09,-1.68639e-08,906.921,-906.95,-0.0107652,1.7087e-08,-1.70873e-08,-2.02822e-13
-0.590025,0.51,0.0304659,0.01,-70.5024,130.05,134.495,-133.643,-914.09,2.53025e-09,-2.52161e-09,-1.7222e-08,924.296,-923.444,0.360416,1.74106e-08,-1.74019e-08,6.79045e-12
-0.580025,0.51,0.0239064,0.01,-75.9649,130.05,122.788,-117.522,-930.634,2.2905e-09,-2.23708e-09,-1.75337e-08,940.992,-935.726,0.0880025,1.77059e-08,-1.76525e-08,1.65802e-12
-0.570025,0.51,0.0150368,0.01,-81.4393,130.05,109.932,-96.6651,-944.39,2.0135e-09,-1.87891e-09,-1.77929e-08,956.654,-943.387,-1.98766,1.79662e-08,-1.78316e-08,-3.74487e-11
-0.560025,0.51,0.00898298,0.01,-86.9245,130.05,94.9046,-74.4001,-956.277,1.69891e-09,-1.49089e-09,-1.80168e-08,970.256,-949.751,-4.93588,1.8191e-08,-1.7983e-08,-9.29948e-11
0.559975,0.51,0.00897054,0.01,-86.9518,130.05,94.7792,-74.2846,956.437,1.69659e-09,-1.48867e-09,1.80198e-08,970.399,-949.905,4.9859,1.81938e-08,-1.79859e-08,9.39373e-11
0.569975,0.51,0.0149962,0.01,-81.4665,130.05,109.832,-96.6195,944.523,2.01185e-09,-1.87781e-09,1.77954e-08,956.751,-943.539,1.9924,1.79683e-08,-1.78343e-08,3.75379e-11
0.579975,0.51,0.0238601,0.01,-75.992,130.05,122.727,-117.47,930.742,2.28939e-09,-2.23606e-09,1.75357e-08,941.087,-935.83,-0.0980316,1.77078e-08,-1.76544e-08,-1.84697e-12
0.589975,0.51,0.0304347,0.01,-70.5295,130.05,134.435,-133.582,914.189,2.52913e-09,-2.52048e-09,1.72239e-08,924.385,-923.532,-0.363907,1.74122e-08,-1.74036e-08,-6.85622e-12
0.599975,0.51,0.0375199,0.01,-65.0803,130.05,146.063,-146.091,895.182,2.75203e-09,-2.75231e-09,1.68658e-08,907.008,-907.036,0.0106805,1.70887e-08,-1.7089e-08,2.01227e-13
0.609975,0.51,0.0457078,0.01,-59.6458,130.05,157.556,-157.604,875.624,2.96866e-09,-2.96915e-09,1.64973e-08,889.667,-889.715,0.00158044,1.6762e-08,-1.67625e-08,2.97765e-14
0.619975,0.51,0.0533637,0.01,-54.227,130.05,168.258,-168.301,856.33,3.17026e-09,-3.1707e-09,1.61338e-08,872.687,-872.73,-0.000207032,1.64421e-08,-1.64425e-08,-3.90061e-15
0.629975,0.51,0.0606159,0.01,-48.825,130.05,178.204,-178.245,837.347,3.35765e-09,-3.35807e-09,1.57761e-08,856.084,-856.125,1.99808e-06,1.61293e-08,-1.61297e-08,3.76451e-17
0.639975,0.51,0.0685631,0.01,-43.4408,130.05,187.437,-187.476,818.682,3.53159e-09,-3.53199e-09,1.54244e-08,839.85,-839.889,6.02074e-06,1.58234e-08,-1.58238e-08,1.13434e-16
0.649975,0.51,0.0769295,0.01,-38.0754,130.05,195.992,-196.029,800.344,3.69276e-09,-3.69314e-09,1.50789e-08,823.978,-824.015,3.60067e-06,1.55244e-08,-1.55248e-08,6.78387e-17
0.659975,0.51,0.0842507,0.01,-32.7295,130.05,203.905,-203.939,782.341,3.84183e-09,-3.84219e-09,1.47398e-08,808.463,-808.498,3.47753e-06,1.52321e-08,-1.52324e-08,6.55186e-17
0.669975,0.51,0.0920772,0.01,-27.4041,130.05,211.208,-211.241,764.678,3.97943e-09,-3.97977e-09,1.4407e-08,793.298,-793.331,3.28498e-06,1.49463e-08,-1.49467e-08,6.18909e-17
0.679975,0.51,0.100291,0.01,-22.0997,130.05,217.936,-217.967,747.359,4.10617e-09,-4.10649e-09,1.40807e-08,778.476,-778.507,3.05694e-06,1.46671e-08,-1.46674e-08,5.75945e-17
0.689975,0.51,0.108419,0.01,-16.8172,130.05,224.118,-224.147,730.388,4.22264e-09,-4.22294e-09,1.37609e-08,763.989,-764.019,2.82009e-06,1.43941e-08,-1.43944e-08,5.31321e-17
0.699975,0.51,0.116174,0.01,-11.5571,130.05,229.784,-229.812,713.766,4.32939e-09,-4.32967e-09,1.34478e-08,749.832,-749.86,2.57738e-06,1.41274e-08,-1.41277e-08,4.85594e-17
0.709975,0.51,0.124251,0.01,-6.3199,130.05,234.963,-234.99,697.494,4.42696e-09,-4.42723e-09,1.31412e-08,735.998,-736.024,2.33204e-06,1.38667e-08,-1.3867e-08,4.39369e-17
0.719975,0.51,0.132591,0.01,-1.10623,130.05,239.682,-239.707,681.572,4.51586e-09,-4.51611e-09,1.28412e-08,722.479,-722.504,2.08702e-06,1.3612e-08,-1.36123e-08,3.93206e-17
0.729975,0.51,0.140828,0.01,4.08347,130.05,243.967,-243.99,665.998,4.59657e-09,-4.59681e-09,1.25478e-08,709.269,-709.292,1.84494e-06,1.33631e-08,-1.33634e-08,3.47598e-17
0.739975,0.51,0.148811,0.01,9.24877,130.05,247.841,-247.863,650.771,4.66957e-09,-4.66979e-09,1.22609e-08,696.36,-696.383,1.6076e-06,1.31199e-08,-1.31202e-08,3.02882e-17
0.749975,0.51,0.157026,0.01,14.3893,130.05,251.329,-251.35,635.887,4.73528e-09,-4.7355e-09,1.19805e-08,683.747,-683.768,1.37672e-06,1.28823e-08,-1.28825e-08,2.59382e-17
0.759975,0.51,0.165438,0.01,19.5047,130.05,254.454,-254.473,621.345,4.79414e-09,-4.79434e-09,1.17065e-08,671.423,-671.442,1.15451e-06,1.26501e-08,-1.26503e-08,2.17516e-17
0.769975,0.51,0.173942,0.01,24.5946,130.05,257.235,-257.253,607.14,4.84653e-09,-4.84672e-09,1.14389e-08,659.38,-659.398,9.41519e-07,1.24232e-08,-1.24234e-08,1.77388e-17
0.779975,0.51,0.182065,0.01,29.6589,130.05,259.693,-259.711,593.269,4.89285e-09,-4.89303e-09,1.11775e-08,647.612,-647.63,7.37823e-07,1.22015e-08,-1.22016e-08,1.3901e-17
0.789975,0.51,0.190366,0.01,34.6971,130.05,261.848,-261.865,579.725,4.93344e-09,-4.93361e-09,1.09224e-08,636.113,-636.13,5.44572e-07,1.19848e-08,-1.1985e-08,1.02601e-17
0.799975,0.51,0.198824,0.01,39.7092,130.05,263.718,-263.733,566.506,4.96866e-09,-4.96882e-09,1.06733e-08,624.877,-624.892,3.62385e-07,1.17731e-08,-1.17733e-08,6.82755e-18
0.809975,0.51,0.207419,0.01,44.6949,130.05,265.319,-265.333,553.606,4.99882e-09,-4.99897e-09,1.04303e-08,613.896,-613.911,1.91057e-07,1.15662e-08,-1.15664e-08,3.59963e-18
0.819975,0.51,0.215895,0.01,49.6541,130.05,266.67,-266.691,541.023,5.02431e-09,-5.02452e-09,1.01932e-08,603.168,-603.189,-0.00341187,1.13641e-08,-1.13643e-08,-6.42816e-14
0.829975,0.51,0.224256,0.01,54.5866,130.05,267.716,-269.82,530.435,5.05307e-09,-5.07441e-09,9.99371e-09,593.589,-595.693,-0.108641,1.11927e-08,-1.12141e-08,-2.04686e-12
0.839975,0.51,0.232746,0.01,59.4923,130.05,267.428,-275.279,522.236,5.07264e-09,-5.15228e-09,9.83924e-09,584.601,-592.452,0.150733,1.10484e-08,-1.1128e-08,2.83991e-12
0.849975,0.51,0.241351,0.01,64.3712,130.05,267.511,-279.298,513.396,5.09132e-09,-5.2109e-09,9.67268e-09,575.764,-587.551,0.343672,1.0899e-08,-1.10186e-08,6.47498e-12
-0.840025,0.52,0.238127,0.01,62.5,135.2,256.309,-266.741,-522.803,4.87436e-09,-4.9802e-09,-9.84991e-09,579.35,-589.782,0.951989,1.09606e-08,-1.10665e-08,1.7936e-11
-0.830025,0.52,0.229786,0.01,57.6467,135.2,255.829,-258.996,-529.786,4.83374e-09,-4.86586e-09,-9.98147e-09,587.428,-590.594,0.487658,1.10812e-08,-1.11134e-08,9.18776e-12
-0.820025,0.52,0.221153,0.01,52.7677,135.2,254.146,-254.576,-539.996,4.79012e-09,-4.79448e-09,-1.01738e-08,596.69,-597.119,-0.185669,1.12438e-08,-1.12482e-08,-3.49812e-12
-0.810025,0.52,0.212641,0.01,47.8633,135.2,252.711,-252.726,-551.918,4.76129e-09,-4.76144e-09,-1.03984e-08,607.018,-607.033,-4.11005e-07,1.14366e-08,-1.14368e-08,-7.74357e-18
-0.800025,0.52,0.204263,0.01,42.9337,135.2,250.804,-250.819,-564.554,4.72535e-09,-4.72551e-09,-1.06365e-08,617.752,-617.768,-5.75065e-07,1.16389e-08,-1.1639e-08,-1.08346e-17
-0.790025,0.52,0.196038,0.01,37.9789,135.2,248.623,-248.64,-577.493,4.68427e-09,-4.68444e-09,-1.08803e-08,628.733,-628.749,-7.486e-07,1.18458e-08,-1.18459e-08,-1.41041e-17
-0.780025,0.52,0.187759,0.01,32.9993,135.2,246.152,-246.17,-590.738,4.63773e-09,-4.63791e-09,-1.11298e-08,639.965,-639.982,-9.30927e-07,1.20574e-08,-1.20576e-08,-1.75392e-17
-0.770025,0.52,0.179277,0.01,27.9951,135.2,243.374,-243.393,-604.293,4.58538e-09,-4.58557e-09,-1.13852e-08,651.454,-651.473,-1.12125e-06,1.22739e-08,-1.2274e-08,-2.1125e-17
-0.760025,0.52,0.170958,0.01,22.9665,135.2,240.269,-240.289,-618.161,4.52689e-09,-4.52709e-09,-1.16465e-08,663.208,-663.228,-1.31865e-06,1.24953e-08,-1.24955e-08,-2.48441e-17
-0.750025,0.52,0.162829,0.01,17.914,135.2,236.818,-236.839,-632.347,4.46188e-09,-4.46209e-09,-1.19138e-08,675.231,-675.252,-1.5224e-06,1.27218e-08,-1.2722e-08,-2.86828e-17
-0.740025,0.52,0.154898,0.01,12.8377,135.2,233,-233.022,-646.852,4.38995e-09,-4.39018e-09,-1.21871e-08,687.529,-687.552,-1.73162e-06,1.29536e-08,-1.29538e-08,-3.26248e-17
-0.730025,0.52,0.14646,0.01,7.73816,135.2,228.793,-228.817,-661.679,4.3107e-09,-4.31094e-09,-1.24664e-08,700.11,-700.134,-1.94402e-06,1.31906e-08,-1.31908e-08,-3.66264e-17
-0.720025,0.52,0.138231,0.01,2.61573,135.2,224.176,-224.201,-676.829,4.22371e-09,-4.22396e-09,-1.27518e-08,712.979,-713.004,-2.15822e-06,1.34331e-08,-1.34333e-08,-4.06622e-17
-0.710025,0.52,0.130249,0.01,-2.52912,135.2,219.122,-219.149,-692.302,4.12851e-09,-4.12878e-09,-1.30434e-08,726.143,-726.169,-2.37213e-06,1.36811e-08,-1.36813e-08,-4.46924e-17
-0.700025,0.52,0.122564,0.01,-7.69587,135.2,213.609,-213.637,-708.099,4.02464e-09,-4.02493e-09,-1.3341e-08,739.607,-739.635,-2.58242e-06,1.39347e-08,-1.3935e-08,-4.86544e-17
-0.690025,0.52,0.114208,0.01,-12.884,135.2,207.61,-207.639,-724.219,3.91161e-09,-3.91191e-09,-1.36447e-08,753.378,-753.408,-2.78667e-06,1.41942e-08,-1.41945e-08,-5.25024e-17
-0.680025,0.52,0.106124,0.01,-18.0929,135.2,201.096,-201.128,-740.659,3.78891e-09,-3.78922e-09,-1.39544e-08,767.462,-767.493,-2.98086e-06,1.44596e-08,-1.44599e-08,-5.61612e-17
-0.670025,0.52,0.098394,0.01,-23.3218,135.2,194.041,-194.074,-757.417,3.65599e-09,-3.65632e-09,-1.42702e-08,781.865,-781.898,-3.16063e-06,1.47309e-08,-1.47313e-08,-5.95482e-17
-0.660025,0.52,0.0907935,0.01,-28.5702,135.2,186.414,-186.448,-774.489,3.51229e-09,-3.51264e-09,-1.45918e-08,796.594,-796.628,-3.32362e-06,1.50084e-08,-1.50088e-08,-6.26189e-17
-0.650025,0.52,0.0825581,0.01,-33.8372,135.2,178.183,-178.22,-791.868,3.35723e-09,-3.3576e-09,-1.49193e-08,811.653,-811.69,-3.49587e-06,1.52922e-08,-1.52926e-08,-6.58643e-17
-0.640025,0.52,0.0747545,0.01,-39.1221,135.2,169.318,-169.356,-809.549,3.19021e-09,-3.1906e-09,-1.52524e-08,827.05,-827.089,-3.40084e-06,1.55823e-08,-1.55827e-08,-6.40738e-17
-0.630025,0.52,0.0675325,0.01,-44.4238,135.2,159.783,-159.824,-827.521,3.01059e-09,-3.011e-09,-1.5591e-08,842.79,-842.83,-1.29386e-06,1.58788e-08,-1.58792e-08,-2.43771e-17
-0.620025,0.52,0.059581,0.01,-49.7416,135.2,149.546,-149.588,-845.776,2.81771e-09,-2.81814e-09,-1.59349e-08,858.878,-858.92,-3.30868e-05,1.61819e-08,-1.61824e-08,-6.23374e-16
-0.610025,0.52,0.0516472,0.01,-55.0743,135.2,138.569,-138.613,-864.3,2.6109e-09,-2.61135e-09,-1.62839e-08,875.319,-875.363,-4.34949e-05,1.64917e-08,-1.64922e-08,-8.19469e-16
-0.600025,0.52,0.044553,0.01,-60.4208,135.2,126.818,-126.864,-883.08,2.38953e-09,-2.39e-09,-1.66377e-08,892.12,-892.166,0.00312582,1.68083e-08,-1.68087e-08,5.88923e-14
-0.590025,0.52,0.0372928,0.01,-65.78,135.2,114.21,-114.303,-902.148,2.15218e-09,-2.15313e-09,-1.6997e-08,909.308,-909.402,-0.020471,1.71323e-08,-1.71332e-08,-3.85685e-13
-0.580025,0.52,0.0290747,0.01,-71.1506,135.2,101.015,-100.271,-920.509,1.89994e-09,-1.8924e-09,-1.73429e-08,926.366,-925.622,-0.114943,1.745e-08,-1.74425e-08,-2.1656e-12
-0.570025,0.52,0.0223591,0.01,-76.5314,135.2,88.1136,-81.7167,-935.299,1.6323e-09,-1.5674e-09,-1.76216e-08,942.344,-935.947,-1.10936,1.77265e-08,-1.76616e-08,-2.0901e-11
-0.560025,0.52,0.0163166,0.01,-81.9208,135.2,78.8765,-58.9486,-945.369,1.39944e-09,-1.19727e-09,-1.78113e-08,957.841,-937.913,-1.24968,1.79596e-08,-1.77575e-08,-2.35447e-11
-0.550025,0.52,0.00706857,0.01,-87.3161,135.2,65.8398,-43.7708,-953.7,1.14451e-09,-9.2062e-10,-1.79683e-08,966.307,-944.238,1.23963,1.81098e-08,-1.78859e-08,2.33553e-11
0.549975,0.52,0.00702772,0.01,-87.343,135.2,65.7585,-43.6398,953.696,1.14276e-09,-9.18367e-10,1.79682e-08,966.322,-944.203,-1.22004,1.81099e-08,-1.78855e-08,-2.29863e-11
0.559975,0.52,0.0162684,0.01,-81.9476,135.2,78.7792,-58.825,945.453,1.39749e-09,-1.19505e-09,1.78129e-08,957.929,-937.975,1.28205,1.79612e-08,-1.77588e-08,2.41546e-11
0.569975,0.52,0.0223319,0.01,-76.5581,135.2,88.0249,-81.6311,935.404,1.63064e-09,-1.56578e-09,1.76236e-08,942.439,-936.045,1.12411,1.77283e-08,-1.76634e-08,2.11789e-11
0.579975,0.52,0.0290367,0.01,-71.1774,135.2,100.943,-100.206,920.61,1.89862e-09,-1.89114e-09,1.73448e-08,926.456,-925.719,0.115174,1.74518e-08,-1.74443e-08,2.16994e-12
0.589975,0.52,0.0372497,0.01,-65.8067,135.2,114.145,-114.238,902.244,2.15096e-09,-2.15191e-09,1.69988e-08,909.395,-909.488,0.0209573,1.71339e-08,-1.71349e-08,3.94847e-13
0.599975,0.52,0.0445205,0.01,-60.4474,135.2,126.758,-126.804,883.174,2.38839e-09,-2.38886e-09,1.66395e-08,892.204,-892.251,-0.00315338,1.68098e-08,-1.68103e-08,-5.94114e-14
0.609975,0.52,0.0516095,0.01,-55.1008,135.2,138.512,-138.556,864.393,2.60984e-09,-2.61029e-09,1.62857e-08,875.402,-875.446,4.08011e-05,1.64933e-08,-1.64937e-08,7.68717e-16
0.619975,0.52,0.05954,0.01,-49.7681,135.2,149.493,-149.535,845.868,2.81672e-09,-2.81715e-09,1.59366e-08,858.959,-859.001,3.35641e-05,1.61835e-08,-1.61839e-08,6.32368e-16
0.629975,0.52,0.0674983,0.01,-44.4502,135.2,159.734,-159.775,827.611,3.00966e-09,-3.01007e-09,1.55927e-08,842.869,-842.909,1.28962e-06,1.58803e-08,-1.58807e-08,2.42972e-17
0.639975,0.52,0.074717,0.01,-39.1484,135.2,169.272,-169.31,809.637,3.18935e-09,-3.18974e-09,1.5254e-08,827.128,-827.166,3.39638e-06,1.55837e-08,-1.55841e-08,6.39897e-17
0.649975,0.52,0.0825182,0.01,-33.8635,135.2,178.141,-178.177,791.955,3.35643e-09,-3.3568e-09,1.49209e-08,811.729,-811.766,3.49633e-06,1.52936e-08,-1.5294e-08,6.58729e-17
0.659975,0.52,0.0907516,0.01,-28.5964,135.2,186.374,-186.409,774.574,3.51155e-09,-3.5119e-09,1.45934e-08,796.668,-796.702,3.32409e-06,1.50098e-08,-1.50102e-08,6.26278e-17
0.669975,0.52,0.0983566,0.01,-23.3479,135.2,194.004,-194.037,757.501,3.6553e-09,-3.65563e-09,1.42718e-08,781.938,-781.971,3.16146e-06,1.47323e-08,-1.47326e-08,5.95637e-17
0.679975,0.52,0.106085,0.01,-18.1188,135.2,201.063,-201.094,740.742,3.78827e-09,-3.78859e-09,1.3956e-08,767.533,-767.564,2.98165e-06,1.44609e-08,-1.44612e-08,5.61761e-17
0.689975,0.52,0.114167,0.01,-12.9098,135.2,207.579,-207.608,724.3,3.91103e-09,-3.91133e-09,1.36462e-08,753.447,-753.477,2.78763e-06,1.41955e-08,-1.41958e-08,5.25205e-17
0.699975,0.52,0.122527,0.01,-7.72162,135.2,213.581,-213.609,708.178,4.0241e-09,-4.02439e-09,1.33425e-08,739.675,-739.703,2.58351e-06,1.3936e-08,-1.39363e-08,4.86749e-17
0.709975,0.52,0.13021,0.01,-2.55476,135.2,219.096,-219.123,692.38,4.12801e-09,-4.12828e-09,1.30448e-08,726.209,-726.236,2.37294e-06,1.36823e-08,-1.36826e-08,4.47076e-17
0.719975,0.52,0.13819,0.01,2.5902,135.2,224.151,-224.176,676.905,4.22325e-09,-4.22351e-09,1.27533e-08,713.044,-713.069,2.15933e-06,1.34343e-08,-1.34345e-08,4.06829e-17
0.729975,0.52,0.146419,0.01,7.71274,135.2,228.771,-228.795,661.754,4.31029e-09,-4.31053e-09,1.24678e-08,700.174,-700.197,1.94531e-06,1.31918e-08,-1.3192e-08,3.66508e-17
0.739975,0.52,0.154856,0.01,12.8124,135.2,232.98,-233.002,646.925,4.38957e-09,-4.3898e-09,1.21884e-08,687.591,-687.614,1.73276e-06,1.29547e-08,-1.29549e-08,3.26462e-17
0.749975,0.52,0.162789,0.01,17.8888,135.2,236.8,-236.821,632.419,4.46154e-09,-4.46175e-09,1.19151e-08,675.291,-675.312,1.52348e-06,1.2723e-08,-1.27232e-08,2.87032e-17
0.759975,0.52,0.170917,0.01,22.9415,135.2,240.253,-240.272,618.231,4.52658e-09,-4.52679e-09,1.16478e-08,663.267,-663.287,1.31947e-06,1.24964e-08,-1.24966e-08,2.48596e-17
0.769975,0.52,0.179235,0.01,27.9701,135.2,243.359,-243.378,604.361,4.58511e-09,-4.5853e-09,1.13865e-08,651.512,-651.531,1.12186e-06,1.22749e-08,-1.22751e-08,2.11365e-17
0.779975,0.52,0.187716,0.01,32.9745,135.2,246.139,-246.157,590.804,4.63748e-09,-4.63766e-09,1.11311e-08,640.021,-640.039,9.31209e-07,1.20584e-08,-1.20586e-08,1.75445e-17
0.789975,0.52,0.195998,0.01,37.9542,135.2,248.611,-248.628,577.558,4.68405e-09,-4.68422e-09,1.08815e-08,628.788,-628.805,7.49074e-07,1.18468e-08,-1.1847e-08,1.4113e-17
0.799975,0.52,0.204222,0.01,42.9091,135.2,250.794,-250.809,564.618,4.72516e-09,-4.72532e-09,1.06377e-08,617.806,-617.822,5.76012e-07,1.16399e-08,-1.16401e-08,1.08524e-17
0.809975,0.52,0.212599,0.01,47.8389,135.2,252.703,-252.717,551.98,4.76113e-09,-4.76128e-09,1.03996e-08,607.071,-607.086,4.11359e-07,1.14376e-08,-1.14378e-08,7.75024e-18
0.819975,0.52,0.221111,0.01,52.7434,135.2,254.138,-254.568,540.057,4.78998e-09,-4.79434e-09,1.0175e-08,596.741,-597.171,0.1857,1.12448e-08,-1.12492e-08,3.49869e-12
0.829975,0.52,0.229743,0.01,57.6225,135.2,255.822,-258.989,529.845,4.83361e-09,-4.86574e-09,9.98259e-09,587.478,-590.645,-0.487616,1.10822e-08,-1.11143e-08,-9.18697e-12
0.839975,0.52,0.238086,0.01,62.476,135.2,256.303,-266.736,522.862,4.87426e-09,-4.9801e-09,9.85102e-09,579.4,-589.833,-0.951961,1.09616e-08,-1.10674e-08,-1.79355e-11
-0.840025,0.53,0.243454,0.01,65.5091,140.45,248.111,-251.198,-521.719,4.68798e-09,-4.7193e-09,-9.82949e-09,576.832,-579.919,0.712822,1.08813e-08,-1.09126e-08,1.343e-11
-0.830025,0.53,0.234899,0.01,60.7079,140.45,243.837,-247.928,-531.012,4.61181e-09,-4.65332e-09,-1.00046e-08,583.131,-587.222,-0.351665,1.10043e-08,-1.10458e-08,-6.62557e-12
-0.820025,0.53,0.226461,0.01,55.8822,140.45,241.699,-244.362,-540.064,4.56533e-09,-4.59234e-09,-1.01751e-08,590.896,-593.558,-0.218677,1.11444e-08,-1.11714e-08,-4.12e-12
-0.810025,0.53,0.218156,0.01,51.0323,140.45,240.132,-240.602,-550.433,4.52627e-09,-4.53104e-09,-1.03705e-08,600.391,-600.862,-0.169838,1.13138e-08,-1.13185e-08,-3.19985e-12
-0.800025,0.53,0.209999,0.01,46.1583,140.45,238.154,-238.17,-562.365,4.48703e-09,-4.48719e-09,-1.05953e-08,610.709,-610.725,-7.49338e-07,1.15062e-08,-1.15063e-08,-1.4118e-17
-0.790025,0.53,0.201519,0.01,41.2606,140.45,235.677,-235.694,-575.02,4.44037e-09,-4.44054e-09,-1.08337e-08,621.438,-621.455,-9.12655e-07,1.17083e-08,-1.17085e-08,-1.71949e-17
-0.780025,0.53,0.193123,0.01,36.3393,140.45,232.907,-232.925,-587.964,4.38818e-09,-4.38836e-09,-1.10776e-08,632.409,-632.427,-1.08278e-06,1.1915e-08,-1.19152e-08,-2.04003e-17
-0.770025,0.53,0.184887,0.01,31.3946,140.45,229.826,-229.845,-601.201,4.33014e-09,-4.33033e-09,-1.1327e-08,643.626,-643.645,-1.25814e-06,1.21264e-08,-1.21266e-08,-2.37041e-17
-0.760025,0.53,0.176833,0.01,26.4271,140.45,226.415,-226.435,-614.732,4.26589e-09,-4.26609e-09,-1.15819e-08,655.096,-655.116,-1.43835e-06,1.23425e-08,-1.23427e-08,-2.70993e-17
-0.750025,0.53,0.168679,0.01,21.4368,140.45,222.656,-222.678,-628.561,4.19507e-09,-4.19528e-09,-1.18424e-08,666.824,-666.846,-1.62298e-06,1.25635e-08,-1.25637e-08,-3.05779e-17
-0.740025,0.53,0.160343,0.01,16.4243,140.45,218.529,-218.551,-642.687,4.1173e-09,-4.11753e-09,-1.21086e-08,678.816,-678.839,-1.81024e-06,1.27894e-08,-1.27896e-08,-3.4106e-17
-0.730025,0.53,0.152207,0.01,11.39,140.45,214.011,-214.035,-657.114,4.0322e-09,-4.03244e-09,-1.23804e-08,691.077,-691.101,-1.99751e-06,1.30204e-08,-1.30206e-08,-3.76343e-17
-0.720025,0.53,0.144306,0.01,6.33424,140.45,209.082,-209.107,-671.84,3.93933e-09,-3.93958e-09,-1.26579e-08,703.614,-703.639,-2.18366e-06,1.32566e-08,-1.32569e-08,-4.11414e-17
-0.710025,0.53,0.136387,0.01,1.25759,140.45,203.717,-203.744,-686.866,3.83826e-09,-3.83853e-09,-1.2941e-08,716.43,-716.457,-2.3663e-06,1.34981e-08,-1.34983e-08,-4.45824e-17
-0.700025,0.53,0.128142,0.01,-3.83943,140.45,197.894,-197.921,-702.191,3.72855e-09,-3.72883e-09,-1.32297e-08,729.534,-729.561,-2.54233e-06,1.3745e-08,-1.37452e-08,-4.78989e-17
-0.690025,0.53,0.120163,0.01,-8.95623,140.45,191.586,-191.615,-717.812,3.60971e-09,-3.61001e-09,-1.3524e-08,742.929,-742.958,-2.70917e-06,1.39973e-08,-1.39976e-08,-5.10424e-17
-0.680025,0.53,0.112509,0.01,-14.0922,140.45,184.767,-184.798,-733.726,3.48125e-09,-3.48157e-09,-1.38238e-08,756.621,-756.652,-2.86279e-06,1.42553e-08,-1.42556e-08,-5.39366e-17
-0.670025,0.53,0.104656,0.01,-19.2466,140.45,177.411,-177.443,-749.93,3.34266e-09,-3.34299e-09,-1.41291e-08,770.617,-770.649,-2.99948e-06,1.4519e-08,-1.45193e-08,-5.65119e-17
-0.660025,0.53,0.096567,0.01,-24.4188,140.45,169.487,-169.522,-766.417,3.19339e-09,-3.19374e-09,-1.44397e-08,784.92,-784.955,-3.11527e-06,1.47885e-08,-1.47889e-08,-5.86935e-17
-0.650025,0.53,0.0888683,0.01,-29.6079,140.45,160.968,-161.004,-783.182,3.03289e-09,-3.03326e-09,-1.47556e-08,799.538,-799.574,-3.19912e-06,1.50639e-08,-1.50643e-08,-6.02732e-17
-0.640025,0.53,0.0816699,0.01,-34.8131,140.45,151.822,-151.86,-800.215,2.86059e-09,-2.86097e-09,-1.50765e-08,814.474,-814.512,-3.24108e-06,1.53453e-08,-1.53457e-08,-6.10638e-17
-0.630025,0.53,0.0735302,0.01,-40.0335,140.45,142.018,-142.057,-817.507,2.67587e-09,-2.67627e-09,-1.54023e-08,829.735,-829.774,-3.78403e-06,1.56329e-08,-1.56333e-08,-7.12933e-17
-0.620025,0.53,0.0657588,0.01,-45.2681,140.45,131.522,-131.563,-835.047,2.47812e-09,-2.47855e-09,-1.57328e-08,845.323,-845.365,-2.25648e-06,1.59266e-08,-1.5927e-08,-4.25134e-17
-0.610025,0.53,0.0586665,0.01,-50.5159,140.45,120.3,-120.344,-852.821,2.26671e-09,-2.26715e-09,-1.60676e-08,861.245,-861.289,3.54134e-05,1.62266e-08,-1.6227e-08,6.6721e-16
-0.600025,0.53,0.051088,0.01,-55.7756,140.45,108.317,-108.363,-870.814,2.04096e-09,-2.04143e-09,-1.64066e-08,877.505,-877.551,-0.000356746,1.65329e-08,-1.65334e-08,-6.72131e-15
-0.590025,0.53,0.0431807,0.01,-61.0462,140.45,95.5398,-95.5826,-889.002,1.80021e-09,-1.80065e-09,-1.67493e-08,894.102,-894.145,-0.000835754,1.68456e-08,-1.6846e-08,-1.57461e-14
-0.580025,0.53,0.0363203,0.01,-66.3263,140.45,81.9673,-82.0139,-907.381,1.54451e-09,-1.54499e-09,-1.70956e-08,911.055,-911.101,0.0390894,1.7165e-08,-1.71655e-08,7.36467e-13
-0.570025,0.53,0.0293755,0.01,-71.6147,140.45,68.0081,-66.4739,-924.461,1.27464e-09,-1.25908e-09,-1.74174e-08,927.67,-926.136,-0.12166,1.74712e-08,-1.74556e-08,-2.29215e-12
-0.560025,0.53,0.0211342,0.01,-76.9097,140.45,55.7328,-48.8774,-938.149,1.02023e-09,-9.50685e-10,-1.76753e-08,943.034,-936.178,0.582159,1.77375e-08,-1.76679e-08,1.09682e-11
-0.550025,0.53,0.0151786,0.01,-82.2101,140.45,46.1298,-28.9643,-949.888,7.94479e-10,-6.20336e-10,-1.78964e-08,959.209,-942.044,2.30938,1.79974e-08,-1.78233e-08,4.351e-11
-0.540025,0.53,0.00974588,0.01,-87.5146,140.45,30.2267,-12.5148,-967.247,4.9248e-10,-3.12794e-10,-1.82235e-08,976.334,-958.622,3.24464,1.83177e-08,-1.8138e-08,6.11308e-11
0.539975,0.53,0.00969617,0.01,-87.541,140.45,30.216,-12.4977,967.313,4.92251e-10,-3.125e-10,1.82247e-08,976.403,-958.684,-3.3186,1.8319e-08,-1.81392e-08,-6.25244e-11
0.549975,0.53,0.0151596,0.01,-82.2364,140.45,46.1031,-28.8647,949.939,7.9366e-10,-6.18777e-10,1.78974e-08,959.294,-942.056,-2.33031,1.79987e-08,-1.78238e-08,-4.39044e-11
0.559975,0.53,0.021097,0.01,-76.9361,140.45,55.6542,-48.7822,938.224,1.01868e-09,-9.48964e-10,1.76767e-08,943.112,-936.24,-0.574541,1.77389e-08,-1.76692e-08,-1.08247e-11
0.569975,0.53,0.0293318,0.01,-71.641,140.45,67.9294,-66.3925,924.551,1.27315e-09,-1.25756e-09,1.74191e-08,927.756,-926.219,0.127368,1.74728e-08,-1.74572e-08,2.39969e-12
0.579975,0.53,0.0362899,0.01,-66.3526,140.45,81.8976,-81.9447,907.474,1.5432e-09,-1.54368e-09,1.70973e-08,911.14,-911.187,-0.0394239,1.71666e-08,-1.71671e-08,-7.42769e-13
0.589975,0.53,0.0431436,0.01,-61.0724,140.45,95.4742,-95.517,889.093,1.79898e-09,-1.79941e-09,1.6751e-08,894.185,-894.228,0.000803724,1.68472e-08,-1.68476e-08,1.51426e-14
0.599975,0.53,0.0510469,0.01,-55.8018,140.45,108.255,-108.302,870.904,2.0398e-09,-2.04027e-09,1.64083e-08,877.587,-877.633,0.000363253,1.65344e-08,-1.65349e-08,6.84389e-15
0.609975,0.53,0.0586334,0.01,-50.542,140.45,120.242,-120.286,852.91,2.26562e-09,-2.26607e-09,1.60693e-08,861.325,-861.369,-3.56107e-05,1.62281e-08,-1.62285e-08,-6.70925e-16
0.619975,0.53,0.0657217,0.01,-45.2942,140.45,131.468,-131.509,835.135,2.47711e-09,-2.47753e-09,1.57344e-08,845.402,-845.443,2.20064e-06,1.5928e-08,-1.59285e-08,4.14614e-17
0.629975,0.53,0.0734902,0.01,-40.0595,140.45,141.967,-142.007,817.594,2.67492e-09,-2.67532e-09,1.54039e-08,829.811,-829.851,3.79044e-06,1.56343e-08,-1.56347e-08,7.14141e-17
0.639975,0.53,0.0816356,0.01,-34.8391,140.45,151.775,-151.813,800.3,2.8597e-09,-2.86008e-09,1.50781e-08,814.549,-814.587,3.24152e-06,1.53467e-08,-1.53471e-08,6.10722e-17
0.649975,0.53,0.0888312,0.01,-29.6338,140.45,160.924,-160.96,783.266,3.03207e-09,-3.03243e-09,1.47572e-08,799.612,-799.648,3.19924e-06,1.50653e-08,-1.50657e-08,6.02756e-17
0.659975,0.53,0.0965277,0.01,-24.4446,140.45,169.447,-169.481,766.5,3.19262e-09,-3.19297e-09,1.44413e-08,784.992,-785.027,3.11557e-06,1.47899e-08,-1.47902e-08,5.86991e-17
0.669975,0.53,0.104615,0.01,-19.2723,140.45,177.373,-177.405,750.011,3.34194e-09,-3.34227e-09,1.41306e-08,770.687,-770.72,2.99987e-06,1.45203e-08,-1.45207e-08,5.65192e-17
0.679975,0.53,0.112472,0.01,-14.1178,140.45,184.732,-184.763,733.806,3.48059e-09,-3.4809e-09,1.38253e-08,756.69,-756.721,2.86331e-06,1.42566e-08,-1.42569e-08,5.39465e-17
0.689975,0.53,0.120124,0.01,-8.98173,140.45,191.553,-191.582,717.89,3.6091e-09,-3.6094e-09,1.35255e-08,742.996,-743.025,2.70999e-06,1.39986e-08,-1.39989e-08,5.10577e-17
0.699975,0.53,0.128101,0.01,-3.86483,140.45,197.863,-197.891,702.268,3.72798e-09,-3.72827e-09,1.32311e-08,729.599,-729.627,2.54321e-06,1.37462e-08,-1.37465e-08,4.79156e-17
0.709975,0.53,0.136345,0.01,1.23229,140.45,203.689,-203.716,686.942,3.83774e-09,-3.83801e-09,1.29424e-08,716.495,-716.521,2.3668e-06,1.34993e-08,-1.34996e-08,4.45919e-17
0.719975,0.53,0.144267,0.01,6.30905,140.45,209.056,-209.081,671.914,3.93885e-09,-3.9391e-09,1.26593e-08,703.677,-703.702,2.18454e-06,1.32578e-08,-1.3258e-08,4.11581e-17
0.729975,0.53,0.152167,0.01,11.3649,140.45,213.988,-214.011,657.186,4.03175e-09,-4.03199e-09,1.23818e-08,691.139,-691.163,1.9987e-06,1.30216e-08,-1.30218e-08,3.76567e-17
0.739975,0.53,0.160302,0.01,16.3993,140.45,218.507,-218.53,642.758,4.1169e-09,-4.11713e-09,1.21099e-08,678.877,-678.899,1.81099e-06,1.27905e-08,-1.27908e-08,3.41201e-17
0.749975,0.53,0.168638,0.01,21.412,140.45,222.637,-222.658,628.63,4.1947e-09,-4.19491e-09,1.18438e-08,666.883,-666.905,1.62383e-06,1.25646e-08,-1.25648e-08,3.05939e-17
0.759975,0.53,0.176793,0.01,26.4023,140.45,226.398,-226.418,614.8,4.26555e-09,-4.26575e-09,1.15832e-08,655.154,-655.174,1.43936e-06,1.23436e-08,-1.23438e-08,2.71184e-17
0.769975,0.53,0.184846,0.01,31.37,140.45,229.81,-229.829,601.268,4.32983e-09,-4.33002e-09,1.13282e-08,643.683,-643.702,1.25875e-06,1.21274e-08,-1.21276e-08,2.37156e-17
0.779975,0.53,0.193082,0.01,36.3147,140.45,232.893,-232.91,588.03,4.38791e-09,-4.38809e-09,1.10788e-08,632.464,-632.482,1.08279e-06,1.19161e-08,-1.19162e-08,2.04003e-17
0.789975,0.53,0.201477,0.01,41.2362,140.45,235.664,-235.681,575.084,4.44013e-09,-4.4403e-09,1.08349e-08,621.492,-621.509,9.13112e-07,1.17093e-08,-1.17095e-08,1.72036e-17
0.799975,0.53,0.209958,0.01,46.134,140.45,238.142,-238.158,562.427,4.48681e-09,-4.48697e-09,1.05965e-08,610.762,-610.778,7.50454e-07,1.15072e-08,-1.15073e-08,1.4139e-17
0.809975,0.53,0.218115,0.01,51.0081,140.45,240.121,-240.592,550.493,4.52607e-09,-4.53084e-09,1.03716e-08,600.443,-600.913,0.169848,1.13147e-08,-1.13195e-08,3.20003e-12
0.819975,0.53,0.22642,0.01,55.8581,140.45,241.69,-244.353,540.124,4.56516e-09,-4.59217e-09,1.01762e-08,590.946,-593.609,0.218721,1.11453e-08,-1.11724e-08,4.12084e-12
0.829975,0.53,0.234856,0.01,60.6839,140.45,243.828,-247.92,531.071,4.61166e-09,-4.65317e-09,1.00057e-08,583.181,-587.273,0.351955,1.10053e-08,-1.10468e-08,6.63103e-12
0.839975,0.53,0.243411,0.01,65.4853,140.45,248.104,-251.191,521.777,4.68785e-09,-4.71917e-09,9.83059e-09,576.881,-579.968,-0.712319,1.08822e-08,-1.09135e-08,-1.34205e-11
-0.830025,0.54,0.240319,0.01,63.7935,145.8,229.463,-241.884,-533.318,4.37722e-09,-4.50323e-09,-1.0048e-08,576.859,-589.28,-0.658311,1.09224e-08,-1.10484e-08,-1.2403e-11
-0.820025,0.54,0.232079,0.01,59.0209,145.8,228.872,-236.843,-541.656,4.34673e-09,-4.4276e-09,-1.02051e-08,585.602,-593.573,-0.0623476,1.10677e-08,-1.11486e-08,-1.17467e-12
-0.810025,0.54,0.223785,0.01,54.2253,145.8,228.157,-230.226,-549.482,4.3076e-09,-4.3286e-09,-1.03526e-08,594.33,-596.399,0.205299,1.12065e-08,-1.12275e-08,3.86796e-12
-0.800025,0.54,0.215329,0.01,49.4068,145.8,225.783,-225.805,-559.893,4.25398e-09,-4.25421e-09,-1.05487e-08,603.697,-603.719,0.00347866,1.13741e-08,-1.13743e-08,6.55399e-14
-0.790025,0.54,0.20701,0.01,44.5658,145.8,223.025,-223.042,-572.258,4.202e-09,-4.20217e-09,-1.07817e-08,614.177,-614.194,-1.03949e-06,1.15715e-08,-1.15717e-08,-1.95845e-17
-0.780025,0.54,0.198846,0.01,39.7025,145.8,219.973,-219.991,-584.899,4.1445e-09,-4.14468e-09,-1.10198e-08,624.89,-624.908,-1.19602e-06,1.17734e-08,-1.17736e-08,-2.25336e-17
-0.770025,0.54,0.190857,0.01,34.8172,145.8,216.607,-216.626,-597.815,4.08109e-09,-4.08128e-09,-1.12632e-08,635.84,-635.859,-1.35566e-06,1.19797e-08,-1.19799e-08,-2.55414e-17
-0.760025,0.54,0.182516,0.01,29.9102,145.8,212.91,-212.931,-611.006,4.01144e-09,-4.01165e-09,-1.15117e-08,647.032,-647.052,-1.51824e-06,1.21905e-08,-1.21908e-08,-2.86044e-17
-0.750025,0.54,0.174267,0.01,24.982,145.8,208.864,-208.885,-624.475,3.9352e-09,-3.93542e-09,-1.17655e-08,658.471,-658.492,-1.68293e-06,1.24061e-08,-1.24063e-08,-3.17074e-17
-0.740025,0.54,0.166211,0.01,20.0328,145.8,204.447,-204.469,-638.223,3.852e-09,-3.85223e-09,-1.20245e-08,670.161,-670.184,-1.84771e-06,1.26263e-08,-1.26266e-08,-3.4812e-17
-0.730025,0.54,0.158377,0.01,15.0632,145.8,199.64,-199.664,-652.248,3.76145e-09,-3.76168e-09,-1.22887e-08,682.109,-682.133,-2.01016e-06,1.28514e-08,-1.28517e-08,-3.78727e-17
-0.720025,0.54,0.15026,0.01,10.0737,145.8,194.423,-194.447,-666.552,3.66314e-09,-3.66339e-09,-1.25582e-08,694.319,-694.344,-2.16872e-06,1.30815e-08,-1.30817e-08,-4.086e-17
-0.710025,0.54,0.142116,0.01,5.06468,145.8,188.771,-188.797,-681.132,3.55667e-09,-3.55693e-09,-1.28329e-08,706.797,-706.823,-2.32085e-06,1.33166e-08,-1.33168e-08,-4.37262e-17
-0.700025,0.54,0.134224,0.01,0.036813,145.8,182.662,-182.69,-695.986,3.44158e-09,-3.44186e-09,-1.31128e-08,719.547,-719.574,-2.46366e-06,1.35568e-08,-1.35571e-08,-4.64168e-17
-0.690025,0.54,0.12663,0.01,-5.00932,145.8,176.072,-176.101,-711.112,3.31743e-09,-3.31772e-09,-1.33978e-08,732.574,-732.603,-2.5946e-06,1.38023e-08,-1.38025e-08,-4.88838e-17
-0.680025,0.54,0.118584,0.01,-10.073,145.8,168.976,-169.006,-726.504,3.18373e-09,-3.18404e-09,-1.36878e-08,745.884,-745.915,-2.70984e-06,1.4053e-08,-1.40533e-08,-5.1055e-17
-0.670025,0.54,0.11061,0.01,-15.1537,145.8,161.346,-161.379,-742.159,3.04e-09,-3.04033e-09,-1.39827e-08,759.482,-759.514,-2.80563e-06,1.43092e-08,-1.43095e-08,-5.28597e-17
-0.660025,0.54,0.10299,0.01,-20.2504,145.8,153.157,-153.191,-758.068,2.88572e-09,-2.88606e-09,-1.42824e-08,773.372,-773.405,-2.87759e-06,1.45709e-08,-1.45713e-08,-5.42155e-17
-0.650025,0.54,0.0956344,0.01,-25.3625,145.8,144.38,-144.416,-774.226,2.72036e-09,-2.72072e-09,-1.45869e-08,787.558,-787.594,-2.92159e-06,1.48382e-08,-1.48386e-08,-5.50445e-17
-0.640025,0.54,0.0875413,0.01,-30.489,145.8,134.986,-135.023,-790.621,2.54337e-09,-2.54375e-09,-1.48958e-08,802.046,-802.084,-2.94059e-06,1.51112e-08,-1.51116e-08,-5.54024e-17
-0.630025,0.54,0.0798813,0.01,-35.629,145.8,124.943,-124.982,-807.245,2.35418e-09,-2.35457e-09,-1.5209e-08,816.84,-816.879,-2.86625e-06,1.53899e-08,-1.53903e-08,-5.40018e-17
-0.620025,0.54,0.0727912,0.01,-40.7815,145.8,114.223,-114.264,-824.083,2.1522e-09,-2.15262e-09,-1.55262e-08,831.944,-831.985,-2.37697e-06,1.56745e-08,-1.56749e-08,-4.47834e-17
-0.610025,0.54,0.0650325,0.01,-45.9454,145.8,102.791,-102.834,-841.122,1.93684e-09,-1.93727e-09,-1.58472e-08,847.361,-847.404,-8.64893e-06,1.5965e-08,-1.59654e-08,-1.62951e-16
-0.600025,0.54,0.0573046,0.01,-51.1196,145.8,90.6166,-90.6612,-858.346,1.70746e-09,-1.70792e-09,-1.61717e-08,863.096,-863.14,-1.1434e-06,1.62614e-08,-1.62619e-08,-2.15423e-17
-0.590025,0.54,0.0503826,0.01,-56.3028,145.8,77.6649,-77.7117,-875.735,1.46345e-09,-1.46393e-09,-1.64994e-08,879.151,-879.198,0.000484682,1.65639e-08,-1.65644e-08,9.13169e-15
-0.580025,0.54,0.0431232,0.01,-61.4939,145.8,63.8942,-63.9484,-893.275,1.20404e-09,-1.20459e-09,-1.68298e-08,895.533,-895.587,-0.00396033,1.68726e-08,-1.68731e-08,-7.46148e-14
-0.570025,0.54,0.0352611,0.01,-66.6912,145.8,49.309,-49.2979,-910.853,9.28962e-10,-9.28849e-10,-1.7161e-08,912.192,-912.181,-0.00764107,1.71862e-08,-1.71861e-08,-1.43962e-13
-0.560025,0.54,0.028759,0.01,-71.8936,145.8,34.8478,-33.6423,-927.498,6.51311e-10,-6.39082e-10,-1.74746e-08,928.733,-927.527,0.465157,1.74926e-08,-1.74804e-08,8.76382e-12
-0.550025,0.54,0.0220035,0.01,-77.0993,145.8,21.158,-15.7483,-941.901,3.75108e-10,-3.20228e-10,-1.7746e-08,944.786,-939.376,1.12633,1.77768e-08,-1.77219e-08,2.12207e-11
-0.540025,0.54,0.0137594,0.01,-82.3065,145.8,5.3352,5.27888,-954.622,5.43701e-11,5.3309e-11,-1.79856e-08,959.929,-949.315,-0.0157945,1.80395e-08,-1.79318e-08,-2.97577e-13
-0.530025,0.54,0.00972033,0.01,-87.5148,145.8,-12.4459,30.1841,-967.174,-3.11611e-10,4.91564e-10,-1.82221e-08,976.272,-958.534,-3.28024,1.83164e-08,-1.81365e-08,-6.18017e-11
0.529975,0.54,0.00972178,0.01,-87.5407,145.8,-12.5663,30.258,967.388,-3.13677e-10,4.93158e-10,1.82261e-08,976.465,-958.773,3.2826,1.83202e-08,-1.81408e-08,6.1846e-11
0.539975,0.54,0.0137242,0.01,-82.3324,145.8,5.2505,5.30647,954.742,5.30226e-11,5.40772e-11,1.79879e-08,960.021,-949.464,-0.0159765,1.80414e-08,-1.79343e-08,-3.01006e-13
0.549975,0.54,0.0219589,0.01,-77.1251,145.8,21.098,-15.6862,941.985,3.73969e-10,-3.19067e-10,1.77475e-08,944.87,-939.458,-1.14894,1.77784e-08,-1.77235e-08,-2.16467e-11
0.559975,0.54,0.0287317,0.01,-71.9194,145.8,34.7755,-33.5615,927.58,6.49912e-10,-6.37596e-10,1.74761e-08,928.816,-927.602,-0.468065,1.74942e-08,-1.74818e-08,-8.81862e-12
0.569975,0.54,0.0352247,0.01,-66.7171,145.8,49.235,-49.223,910.941,9.27563e-10,-9.27441e-10,1.71626e-08,912.276,-912.264,0.00724521,1.71878e-08,-1.71876e-08,1.36504e-13
0.579975,0.54,0.0430819,0.01,-61.5197,145.8,63.8236,-63.8778,893.363,1.20271e-09,-1.20326e-09,1.68315e-08,895.615,-895.669,0.00403579,1.68741e-08,-1.68747e-08,7.60366e-14
0.589975,0.54,0.0503507,0.01,-56.3286,145.8,77.5985,-77.6453,875.822,1.4622e-09,-1.46268e-09,1.6501e-08,879.232,-879.279,-0.000487697,1.65654e-08,-1.65659e-08,-9.1885e-15
0.599975,0.54,0.0572679,0.01,-51.1454,145.8,90.5542,-90.5988,858.432,1.70629e-09,-1.70674e-09,1.61734e-08,863.175,-863.219,5.45262e-07,1.62629e-08,-1.62634e-08,1.02731e-17
0.609975,0.54,0.0649925,0.01,-45.9711,145.8,102.733,-102.776,841.208,1.93573e-09,-1.93616e-09,1.58488e-08,847.439,-847.481,8.73648e-06,1.59664e-08,-1.59669e-08,1.646e-16
0.619975,0.54,0.0727576,0.01,-40.8072,145.8,114.168,-114.209,824.168,2.15116e-09,-2.15158e-09,1.55278e-08,832.02,-832.061,2.37705e-06,1.56759e-08,-1.56763e-08,4.47849e-17
0.629975,0.54,0.0798445,0.01,-35.6546,145.8,124.892,-124.931,807.328,2.3532e-09,-2.3536e-09,1.52105e-08,816.915,-816.954,2.86521e-06,1.53913e-08,-1.53917e-08,5.39822e-17
0.639975,0.54,0.087502,0.01,-30.5145,145.8,134.937,-134.974,790.704,2.54246e-09,-2.54284e-09,1.48973e-08,802.119,-802.157,2.94046e-06,1.51126e-08,-1.51129e-08,5.53999e-17
0.649975,0.54,0.0955933,0.01,-25.388,145.8,144.335,-144.37,774.307,2.71951e-09,-2.71987e-09,1.45884e-08,787.63,-787.665,2.92195e-06,1.48396e-08,-1.48399e-08,5.50511e-17
0.659975,0.54,0.102953,0.01,-20.2758,145.8,153.115,-153.149,758.148,2.88493e-09,-2.88527e-09,1.42839e-08,773.442,-773.475,2.87837e-06,1.45722e-08,-1.45726e-08,5.42301e-17
0.669975,0.54,0.110571,0.01,-15.179,145.8,161.307,-161.339,742.237,3.03926e-09,-3.03959e-09,1.39842e-08,759.55,-759.582,2.80616e-06,1.43105e-08,-1.43108e-08,5.28696e-17
0.679975,0.54,0.118543,0.01,-10.0983,145.8,168.939,-168.97,726.581,3.18304e-09,-3.18335e-09,1.36892e-08,745.951,-745.982,2.71044e-06,1.40543e-08,-1.40546e-08,5.10663e-17
0.689975,0.54,0.126593,0.01,-5.03445,145.8,176.038,-176.067,711.188,3.31679e-09,-3.31708e-09,1.33992e-08,732.64,-732.669,2.5957e-06,1.38035e-08,-1.38038e-08,4.89044e-17
0.699975,0.54,0.134185,0.01,0.011763,145.8,182.631,-182.658,696.061,3.44099e-09,-3.44127e-09,1.31142e-08,719.611,-719.638,2.46482e-06,1.3558e-08,-1.35583e-08,4.64386e-17
0.709975,0.54,0.142077,0.01,5.03972,145.8,188.742,-188.768,681.205,3.55612e-09,-3.55638e-09,1.28343e-08,706.859,-706.886,2.32141e-06,1.33178e-08,-1.3318e-08,4.37367e-17
0.719975,0.54,0.150219,0.01,10.0488,145.8,194.396,-194.42,666.624,3.66263e-09,-3.66289e-09,1.25596e-08,694.381,-694.406,2.16948e-06,1.30826e-08,-1.30829e-08,4.08742e-17
0.729975,0.54,0.158339,0.01,15.0385,145.8,199.616,-199.639,652.319,3.76098e-09,-3.76122e-09,1.22901e-08,682.169,-682.193,2.01128e-06,1.28526e-08,-1.28528e-08,3.78937e-17
0.739975,0.54,0.166172,0.01,20.0081,145.8,204.424,-204.447,638.292,3.85157e-09,-3.85179e-09,1.20258e-08,670.22,-670.243,1.84837e-06,1.26274e-08,-1.26277e-08,3.48244e-17
0.749975,0.54,0.174227,0.01,24.9574,145.8,208.842,-208.864,624.543,3.93481e-09,-3.93502e-09,1.17668e-08,658.528,-658.55,1.68361e-06,1.24071e-08,-1.24074e-08,3.17202e-17
0.759975,0.54,0.182474,0.01,29.8858,145.8,212.891,-212.911,611.072,4.01108e-09,-4.01128e-09,1.1513e-08,647.088,-647.109,1.51952e-06,1.21916e-08,-1.21918e-08,2.86287e-17
0.769975,0.54,0.190817,0.01,34.7928,145.8,216.59,-216.609,597.879,4.08076e-09,-4.08095e-09,1.12644e-08,635.895,-635.914,1.35688e-06,1.19807e-08,-1.19809e-08,2.55643e-17
0.779975,0.54,0.198806,0.01,39.6783,145.8,219.957,-219.975,584.963,4.1442e-09,-4.14438e-09,1.1021e-08,624.944,-624.962,1.19662e-06,1.17744e-08,-1.17746e-08,2.2545e-17
0.789975,0.54,0.206969,0.01,44.5417,145.8,223.011,-223.028,572.32,4.20173e-09,-4.2019e-09,1.07828e-08,614.229,-614.246,1.04048e-06,1.15725e-08,-1.15727e-08,1.96032e-17
0.799975,0.54,0.215287,0.01,49.3828,145.8,225.77,-225.793,559.954,4.25374e-09,-4.25396e-09,1.05499e-08,603.749,-603.771,-0.00347909,1.13751e-08,-1.13753e-08,-6.55481e-14
0.809975,0.54,0.223743,0.01,54.2014,145.8,228.145,-230.215,549.542,4.30738e-09,-4.32838e-09,1.03537e-08,594.38,-596.45,-0.205396,1.12075e-08,-1.12285e-08,-3.86978e-12
0.819975,0.54,0.232038,0.01,58.9971,145.8,228.861,-236.833,541.715,4.34653e-09,-4.42741e-09,1.02062e-08,585.652,-593.624,0.0622845,1.10687e-08,-1.11496e-08,1.17348e-12
0.829975,0.54,0.240278,0.01,63.7698,145.8,229.452,-241.875,533.377,4.37703e-09,-4.50306e-09,1.00491e-08,576.908,-589.33,0.658619,1.09233e-08,-1.10493e-08,1.24088e-11
-0.820025,0.55,0.237563,0.01,62.1827,151.25,217.594,-227.693,-540.963,4.14351e-09,-4.24596e-09,-1.01921e-08,579.938,-590.037,0.724595,1.09703e-08,-1.10727e-08,1.36518e-11
-0.810025,0.55,0.229179,0.01,57.4411,151.25,216.178,-219.27,-547.661,4.08636e-09,-4.11773e-09,-1.03183e-08,587.807,-590.899,0.336704,1.10881e-08,-1.11194e-08,6.34371e-12
-0.800025,0.55,0.220929,0.01,52.6779,151.25,213.442,-213.885,-557.594,4.02329e-09,-4.02779e-09,-1.05054e-08,596.908,-597.351,-0.191558,1.1248e-08,-1.12525e-08,-3.60907e-12
-0.790025,0.55,0.212829,0.01,47.8934,151.25,210.669,-210.686,-569.224,3.96921e-09,-3.96938e-09,-1.07245e-08,606.952,-606.969,-1.13364e-06,1.14354e-08,-1.14356e-08,-2.13585e-17
-0.780025,0.55,0.204729,0.01,43.0877,151.25,207.352,-207.37,-581.559,3.90671e-09,-3.9069e-09,-1.09569e-08,617.413,-617.431,-1.27574e-06,1.16325e-08,-1.16327e-08,-2.40356e-17
-0.770025,0.55,0.196396,0.01,38.2614,151.25,203.72,-203.739,-594.152,3.83828e-09,-3.83848e-09,-1.11942e-08,628.1,-628.119,-1.41931e-06,1.18339e-08,-1.1834e-08,-2.67407e-17
-0.760025,0.55,0.188224,0.01,33.4147,151.25,199.755,-199.775,-607.002,3.76359e-09,-3.7638e-09,-1.14363e-08,639.019,-639.039,-1.56394e-06,1.20396e-08,-1.20398e-08,-2.94655e-17
-0.750025,0.55,0.180237,0.01,28.548,151.25,195.44,-195.461,-620.112,3.6823e-09,-3.68251e-09,-1.16833e-08,650.174,-650.195,-1.70814e-06,1.22497e-08,-1.225e-08,-3.21823e-17
-0.740025,0.55,0.172441,0.01,23.6617,151.25,190.755,-190.778,-633.48,3.59404e-09,-3.59426e-09,-1.19351e-08,661.569,-661.591,-1.85018e-06,1.24644e-08,-1.24647e-08,-3.48585e-17
-0.730025,0.55,0.16418,0.01,18.7564,151.25,185.681,-185.705,-647.105,3.49844e-09,-3.49868e-09,-1.21918e-08,673.21,-673.233,-1.98777e-06,1.26838e-08,-1.2684e-08,-3.74507e-17
-0.720025,0.55,0.156122,0.01,13.8325,151.25,180.197,-180.222,-660.987,3.39512e-09,-3.39538e-09,-1.24534e-08,685.1,-685.125,-2.11927e-06,1.29078e-08,-1.2908e-08,-3.99283e-17
-0.710025,0.55,0.1483,0.01,8.89065,151.25,174.281,-174.307,-675.123,3.28367e-09,-3.28394e-09,-1.27197e-08,697.246,-697.272,-2.24236e-06,1.31366e-08,-1.31369e-08,-4.22474e-17
-0.700025,0.55,0.140709,0.01,3.93133,151.25,167.912,-167.939,-689.51,3.16367e-09,-3.16395e-09,-1.29908e-08,709.65,-709.678,-2.35386e-06,1.33703e-08,-1.33706e-08,-4.4348e-17
-0.690025,0.55,0.132557,0.01,-1.04478,151.25,161.065,-161.094,-704.144,3.03468e-09,-3.03497e-09,-1.32665e-08,722.319,-722.348,-2.45112e-06,1.3609e-08,-1.36093e-08,-4.61806e-17
-0.680025,0.55,0.124675,0.01,-6.037,151.25,153.717,-153.747,-719.02,2.89624e-09,-2.89655e-09,-1.35468e-08,735.256,-735.286,-2.53069e-06,1.38528e-08,-1.38531e-08,-4.76796e-17
-0.670025,0.55,0.117116,0.01,-11.0446,151.25,145.842,-145.874,-734.132,2.74789e-09,-2.74821e-09,-1.38315e-08,748.465,-748.497,-2.5887e-06,1.41017e-08,-1.4102e-08,-4.87727e-17
-0.660025,0.55,0.109557,0.01,-16.0667,151.25,137.415,-137.448,-749.472,2.58913e-09,-2.58946e-09,-1.41205e-08,761.951,-761.985,-2.62135e-06,1.43557e-08,-1.43561e-08,-4.93877e-17
-0.650025,0.55,0.101589,0.01,-21.1026,151.25,128.409,-128.444,-765.031,2.41945e-09,-2.41981e-09,-1.44136e-08,775.718,-775.753,-2.62478e-06,1.46151e-08,-1.46155e-08,-4.94523e-17
-0.640025,0.55,0.0940096,0.01,-26.1514,151.25,118.796,-118.833,-780.8,2.23835e-09,-2.23872e-09,-1.47107e-08,789.77,-789.807,-2.59348e-06,1.48799e-08,-1.48803e-08,-4.88627e-17
-0.630025,0.55,0.0869215,0.01,-31.212,151.25,108.548,-108.586,-796.767,2.04527e-09,-2.04566e-09,-1.50116e-08,804.111,-804.149,-2.52048e-06,1.51501e-08,-1.51505e-08,-4.74874e-17
-0.620025,0.55,0.0790472,0.01,-36.2835,151.25,97.6346,-97.6745,-812.918,1.83967e-09,-1.84007e-09,-1.53159e-08,818.743,-818.783,-2.5116e-06,1.54258e-08,-1.54262e-08,-4.732e-17
-0.610025,0.55,0.0714356,0.01,-41.3647,151.25,86.0266,-86.0683,-829.239,1.62097e-09,-1.6214e-09,-1.56233e-08,833.671,-833.712,-2.03922e-06,1.5707e-08,-1.57074e-08,-3.84201e-17
-0.600025,0.55,0.0644798,0.01,-46.4545,151.25,73.6928,-73.7364,-845.712,1.38861e-09,-1.38905e-09,-1.59337e-08,848.896,-848.94,4.29341e-06,1.59939e-08,-1.59943e-08,8.08904e-17
-0.590025,0.55,0.057064,0.01,-51.5517,151.25,60.6017,-60.6471,-862.317,1.14197e-09,-1.14243e-09,-1.62466e-08,864.423,-864.468,-6.27289e-05,1.62864e-08,-1.62869e-08,-1.18185e-15
-0.580025,0.55,0.0493967,0.01,-56.655,151.25,46.7217,-46.7681,-879.033,8.80466e-10,-8.80937e-10,-1.65615e-08,880.252,-880.298,-3.07843e-05,1.65847e-08,-1.65851e-08,-5.79994e-16
-0.570025,0.55,0.0427056,0.01,-61.7629,151.25,32.0228,-32.0745,-895.841,6.03553e-10,-6.04078e-10,-1.68782e-08,896.388,-896.44,0.00501477,1.68887e-08,-1.68892e-08,9.44812e-14
-0.560025,0.55,0.0356837,0.01,-66.874,151.25,16.3993,-16.4931,-912.752,3.09381e-10,-3.10332e-10,-1.71968e-08,912.853,-912.947,-0.0416253,1.71991e-08,-1.72e-08,-7.84244e-13
-0.550025,0.55,0.0279015,0.01,-71.9867,151.25,0.253697,0.175295,-929.022,2.91462e-12,1.43748e-12,-1.75033e-08,929.236,-928.807,-0.00279875,1.75055e-08,-1.75011e-08,-5.273e-14
-0.540025,0.55,0.0219922,0.01,-77.0995,151.25,-15.6682,21.0867,-941.891,-3.18757e-10,3.73727e-10,-1.77458e-08,944.779,-939.361,-1.13676,1.77766e-08,-1.77217e-08,-2.14173e-11
-0.530025,0.55,0.0151921,0.01,-82.2105,151.25,-28.8407,46.0638,-949.859,-6.18258e-10,7.92986e-10,-1.78959e-08,959.206,-941.983,-2.30324,1.79971e-08,-1.78224e-08,-4.33943e-11
-0.520025,0.55,0.00706235,0.01,-87.3169,151.25,-43.6284,65.7167,-953.681,-9.1802e-10,1.1421e-09,-1.79679e-08,966.29,-944.202,-1.19683,1.81094e-08,-1.78853e-08,-2.25489e-11
0.519975,0.55,0.00703397,0.01,-87.3422,151.25,-43.7829,65.882,953.715,-9.20978e-10,1.14517e-09,1.79685e-08,966.338,-944.239,1.26334,1.81103e-08,-1.78861e-08,2.38021e-11
0.529975,0.55,0.0151461,0.01,-82.2359,151.25,-28.9887,46.1688,949.967,-6.2086e-10,7.95151e-10,1.78979e-08,959.298,-942.117,2.33652,1.7999e-08,-1.78247e-08,4.40214e-11
0.539975,0.55,0.0219702,0.01,-77.1249,151.25,-15.7663,21.1691,941.995,-3.20537e-10,3.75348e-10,1.77477e-08,944.877,-939.474,1.13839,1.77785e-08,-1.77237e-08,2.14479e-11
0.549975,0.55,0.0278663,0.01,-72.0122,151.25,0.171938,0.250284,929.111,1.40366e-12,2.87974e-12,1.7505e-08,929.322,-928.9,-0.00283273,1.75071e-08,-1.75029e-08,-5.33703e-14
0.559975,0.55,0.0356423,0.01,-66.8994,151.25,16.3192,-16.4126,912.836,3.07869e-10,-3.08817e-10,1.71984e-08,912.936,-913.029,0.0423704,1.72006e-08,-1.72016e-08,7.98282e-13
0.569975,0.55,0.0426756,0.01,-61.7883,151.25,31.9475,-31.9994,895.925,6.02135e-10,-6.02662e-10,1.68797e-08,896.469,-896.521,-0.00504377,1.68902e-08,-1.68908e-08,-9.50275e-14
0.579975,0.55,0.0493607,0.01,-56.6803,151.25,46.6507,-46.6971,879.116,8.79128e-10,-8.79598e-10,1.65631e-08,880.331,-880.377,2.46742e-05,1.65861e-08,-1.65866e-08,4.64875e-16
0.589975,0.55,0.0570241,0.01,-51.5771,151.25,60.5347,-60.5801,862.4,1.14071e-09,-1.14117e-09,1.62481e-08,864.501,-864.546,6.3737e-05,1.62879e-08,-1.62884e-08,1.20084e-15
0.599975,0.55,0.0644472,0.01,-46.4799,151.25,73.6296,-73.6732,845.794,1.38741e-09,-1.38786e-09,1.59352e-08,848.973,-849.016,-4.31773e-06,1.59953e-08,-1.59958e-08,-8.13486e-17
0.609975,0.55,0.0713993,0.01,-41.39,151.25,85.9671,-86.0088,829.321,1.61985e-09,-1.62027e-09,1.56249e-08,833.746,-833.787,2.02742e-06,1.57084e-08,-1.57089e-08,3.81977e-17
0.619975,0.55,0.079008,0.01,-36.3087,151.25,97.5786,-97.6186,812.999,1.83861e-09,-1.83902e-09,1.53174e-08,818.817,-818.857,2.51193e-06,1.54272e-08,-1.54276e-08,4.73262e-17
0.629975,0.55,0.0868877,0.01,-31.2372,151.25,108.495,-108.533,796.847,2.04428e-09,-2.04466e-09,1.50131e-08,804.183,-804.221,2.51973e-06,1.51514e-08,-1.51518e-08,4.74732e-17
0.639975,0.55,0.0939731,0.01,-26.1765,151.25,118.747,-118.783,780.879,2.23742e-09,-2.23779e-09,1.47122e-08,789.841,-789.877,2.59278e-06,1.48812e-08,-1.48816e-08,4.88495e-17
0.649975,0.55,0.10155,0.01,-21.1277,151.25,128.363,-128.398,765.109,2.41858e-09,-2.41894e-09,1.44151e-08,775.788,-775.822,2.62487e-06,1.46164e-08,-1.46168e-08,4.9454e-17
0.659975,0.55,0.109517,0.01,-16.0918,151.25,137.372,-137.405,749.548,2.58831e-09,-2.58865e-09,1.41219e-08,762.019,-762.052,2.62191e-06,1.4357e-08,-1.43574e-08,4.93984e-17
0.669975,0.55,0.11708,0.01,-11.0695,151.25,145.802,-145.833,734.207,2.74712e-09,-2.74745e-09,1.38329e-08,748.532,-748.563,2.58885e-06,1.41029e-08,-1.41032e-08,4.87754e-17
0.679975,0.55,0.124637,0.01,-6.06186,151.25,153.679,-153.709,719.095,2.89553e-09,-2.89584e-09,1.35482e-08,735.321,-735.351,2.53069e-06,1.3854e-08,-1.38543e-08,4.76797e-17
0.689975,0.55,0.132518,0.01,-1.06957,151.25,161.03,-161.058,704.218,3.03402e-09,-3.03431e-09,1.32679e-08,722.383,-722.411,2.45185e-06,1.36102e-08,-1.36105e-08,4.61944e-17
0.699975,0.55,0.140668,0.01,3.90662,151.25,167.879,-167.906,689.582,3.16305e-09,-3.16333e-09,1.29921e-08,709.713,-709.74,2.35477e-06,1.33715e-08,-1.33718e-08,4.43652e-17
0.709975,0.55,0.148262,0.01,8.86603,151.25,174.251,-174.277,675.194,3.2831e-09,-3.28336e-09,1.2721e-08,697.307,-697.333,2.24291e-06,1.31378e-08,-1.3138e-08,4.22577e-17
0.719975,0.55,0.156082,0.01,13.808,151.25,180.169,-180.193,661.057,3.39459e-09,-3.39484e-09,1.24547e-08,685.16,-685.185,2.12019e-06,1.29089e-08,-1.29092e-08,3.99456e-17
0.729975,0.55,0.164139,0.01,18.732,151.25,185.655,-185.679,647.174,3.49795e-09,-3.49819e-09,1.21931e-08,673.268,-673.292,1.98895e-06,1.26849e-08,-1.26851e-08,3.74729e-17
0.739975,0.55,0.1724,0.01,23.6374,151.25,190.731,-190.753,633.547,3.59358e-09,-3.59381e-09,1.19364e-08,661.626,-661.649,1.85082e-06,1.24655e-08,-1.24657e-08,3.48705e-17
0.749975,0.55,0.180198,0.01,28.5237,151.25,195.418,-195.439,620.178,3.68188e-09,-3.68209e-09,1.16845e-08,650.23,-650.251,1.7086e-06,1.22508e-08,-1.2251e-08,3.21911e-17
0.759975,0.55,0.188184,0.01,33.3905,151.25,199.735,-199.755,607.067,3.7632e-09,-3.76341e-09,1.14375e-08,639.074,-639.094,1.56478e-06,1.20406e-08,-1.20408e-08,2.94814e-17
0.769975,0.55,0.196355,0.01,38.2373,151.25,203.701,-203.72,594.215,3.83793e-09,-3.83812e-09,1.11954e-08,628.154,-628.173,1.4201e-06,1.18349e-08,-1.18351e-08,2.67555e-17
0.779975,0.55,0.204688,0.01,43.0638,151.25,207.335,-207.353,581.621,3.90639e-09,-3.90657e-09,1.09581e-08,617.465,-617.484,1.27594e-06,1.16335e-08,-1.16337e-08,2.40395e-17
0.789975,0.55,0.212789,0.01,47.8695,151.25,210.654,-210.671,569.285,3.96891e-09,-3.96908e-09,1.07257e-08,607.004,-607.021,1.13417e-06,1.14364e-08,-1.14365e-08,2.13685e-17
0.799975,0.55,0.220888,0.01,52.6542,151.25,213.427,-213.871,557.654,4.02302e-09,-4.02752e-09,1.05065e-08,596.958,-597.402,0.191584,1.1249e-08,-1.12535e-08,3.60956e-12
0.809975,0.55,0.229137,0.01,57.4175,151.25,216.165,-219.257,547.72,4.08611e-09,-4.11748e-09,1.03194e-08,587.856,-590.948,-0.336623,1.1089e-08,-1.11204e-08,-6.34218e-12
0.819975,0.55,0.237521,0.01,62.1591,151.25,217.582,-227.682,541.021,4.14328e-09,-4.24574e-09,1.01931e-08,579.987,-590.087,-0.724494,1.09712e-08,-1.10737e-08,-1.36499e-11
-0.820025,0.56,0.243062,0.01,65.3663,156.8,208.954,-212.052,-539.034,3.95029e-09,-3.98171e-09,-1.01557e-08,577.13,-580.227,-0.096757,1.08869e-08,-1.09183e-08,-1.82296e-12
-0.810025,0.56,0.234874,0.01,60.6786,156.8,203.973,-208.335,-547.896,3.86194e-09,-3.90618e-09,-1.03227e-08,583.215,-587.577,-0.668022,1.10071e-08,-1.10513e-08,-1.25859e-11
-0.800025,0.56,0.226832,0.01,55.9704,156.8,201.067,-203.894,-556.453,3.80051e-09,-3.82918e-09,-1.04839e-08,590.734,-593.56,-0.231125,1.11421e-08,-1.11707e-08,-4.35454e-12
-0.790025,0.56,0.218571,0.01,51.242,156.8,198.374,-198.877,-566.401,3.73967e-09,-3.74477e-09,-1.06713e-08,599.967,-600.47,-0.149893,1.13059e-08,-1.1311e-08,-2.82407e-12
-0.780025,0.56,0.21031,0.01,46.4937,156.8,195.046,-195.064,-577.962,3.67486e-09,-3.67504e-09,-1.08891e-08,609.98,-609.998,-1.32528e-06,1.14925e-08,-1.14926e-08,-2.4969e-17
-0.770025,0.56,0.202207,0.01,41.726,156.8,191.165,-191.184,-590.231,3.60174e-09,-3.60193e-09,-1.11203e-08,620.409,-620.429,-1.4525e-06,1.1689e-08,-1.16892e-08,-2.7366e-17
-0.760025,0.56,0.19428,0.01,36.9391,156.8,186.951,-186.971,-602.74,3.52234e-09,-3.52255e-09,-1.1356e-08,631.06,-631.08,-1.57894e-06,1.18896e-08,-1.18898e-08,-2.97482e-17
-0.750025,0.56,0.186314,0.01,32.1335,156.8,182.386,-182.407,-615.489,3.43635e-09,-3.43657e-09,-1.15962e-08,641.936,-641.957,-1.70285e-06,1.20945e-08,-1.20948e-08,-3.20827e-17
-0.740025,0.56,0.178134,0.01,27.3097,156.8,177.453,-177.475,-628.478,3.34341e-09,-3.34364e-09,-1.18409e-08,653.042,-653.064,-1.82291e-06,1.23038e-08,-1.2304e-08,-3.43446e-17
-0.730025,0.56,0.170149,0.01,22.4682,156.8,172.132,-172.155,-641.705,3.24316e-09,-3.2434e-09,-1.20901e-08,664.382,-664.406,-1.93644e-06,1.25174e-08,-1.25177e-08,-3.64837e-17
-0.720025,0.56,0.162388,0.01,17.6094,156.8,166.403,-166.428,-655.168,3.13523e-09,-3.13548e-09,-1.23437e-08,675.96,-675.985,-2.04184e-06,1.27356e-08,-1.27358e-08,-3.84695e-17
-0.710025,0.56,0.154623,0.01,12.734,156.8,160.246,-160.271,-668.863,3.01923e-09,-3.01949e-09,-1.26018e-08,687.781,-687.807,-2.13726e-06,1.29583e-08,-1.29586e-08,-4.02672e-17
-0.700025,0.56,0.146563,0.01,7.84264,156.8,153.638,-153.665,-682.787,2.89475e-09,-2.89503e-09,-1.28641e-08,699.849,-699.876,-2.21936e-06,1.31857e-08,-1.31859e-08,-4.18141e-17
-0.690025,0.56,0.138756,0.01,2.93586,156.8,146.559,-146.587,-696.935,2.76138e-09,-2.76167e-09,-1.31307e-08,712.167,-712.195,-2.28542e-06,1.34178e-08,-1.3418e-08,-4.30586e-17
-0.680025,0.56,0.131246,0.01,-1.98557,156.8,138.984,-139.014,-711.3,2.61867e-09,-2.61897e-09,-1.34013e-08,724.739,-724.769,-2.33226e-06,1.36546e-08,-1.36549e-08,-4.39412e-17
-0.670025,0.56,0.123529,0.01,-6.92089,156.8,130.89,-130.921,-725.876,2.46618e-09,-2.4665e-09,-1.36759e-08,737.57,-737.601,-2.35607e-06,1.38964e-08,-1.38967e-08,-4.43898e-17
-0.660025,0.56,0.115659,0.01,-11.8693,156.8,122.252,-122.285,-740.655,2.30344e-09,-2.30377e-09,-1.39544e-08,750.663,-750.696,-2.3535e-06,1.41431e-08,-1.41434e-08,-4.43413e-17
-0.650025,0.56,0.108142,0.01,-16.8299,156.8,113.045,-113.079,-755.627,2.12998e-09,-2.13033e-09,-1.42365e-08,764.022,-764.056,-2.32093e-06,1.43948e-08,-1.43951e-08,-4.37277e-17
-0.640025,0.56,0.101055,0.01,-21.8019,156.8,103.242,-103.278,-770.781,1.94529e-09,-1.94566e-09,-1.4522e-08,777.649,-777.685,-2.25458e-06,1.46515e-08,-1.46519e-08,-4.24777e-17
-0.630025,0.56,0.0931005,0.01,-26.7841,156.8,92.8166,-92.854,-786.105,1.74888e-09,-1.74926e-09,-1.48107e-08,791.549,-791.586,-2.15149e-06,1.49134e-08,-1.49138e-08,-4.05354e-17
-0.620025,0.56,0.0855704,0.01,-31.7757,156.8,81.7412,-81.7801,-801.584,1.54022e-09,-1.54062e-09,-1.51023e-08,805.724,-805.763,-1.99584e-06,1.51805e-08,-1.51809e-08,-3.76028e-17
-0.610025,0.56,0.0785931,0.01,-36.7754,156.8,69.9873,-70.028,-817.203,1.31878e-09,-1.31919e-09,-1.53966e-08,820.176,-820.217,-1.72318e-06,1.54528e-08,-1.54532e-08,-3.24657e-17
-0.600025,0.56,0.0710844,0.01,-41.7821,156.8,57.5262,-57.5686,-832.944,1.08401e-09,-1.08444e-09,-1.56932e-08,834.909,-834.951,-2.545e-06,1.57303e-08,-1.57308e-08,-4.79493e-17
-0.590025,0.56,0.0635352,0.01,-46.7945,156.8,44.3285,-44.3725,-848.787,8.35366e-10,-8.35813e-10,-1.59916e-08,849.923,-849.967,-6.94972e-07,1.60132e-08,-1.60137e-08,-1.30937e-17
-0.580025,0.56,0.0567491,0.01,-51.8114,156.8,30.3643,-30.4101,-864.71,5.7228e-10,-5.72745e-10,-1.62916e-08,865.221,-865.267,6.62222e-05,1.63015e-08,-1.63019e-08,1.24766e-15
-0.570025,0.56,0.0496236,0.01,-56.8313,156.8,15.6025,-15.6505,-880.69,2.94169e-10,-2.94656e-10,-1.65927e-08,880.804,-880.853,-0.000573776,1.65951e-08,-1.65956e-08,-1.08103e-14
-0.560025,0.56,0.0420436,0.01,-61.8527,156.8,0.0192908,-0.0602762,-896.688,5.41647e-13,-9.57441e-13,-1.68941e-08,896.667,-896.708,-3.06124e-05,1.68939e-08,-1.68943e-08,-5.76756e-16
-0.550025,0.56,0.0356768,0.01,-66.8742,156.8,-16.4106,16.3176,-912.753,-3.08782e-10,3.07838e-10,-1.71968e-08,912.854,-912.947,0.0419191,1.71991e-08,-1.72e-08,7.8978e-13
-0.540025,0.56,0.0287661,0.01,-71.894,156.8,-33.5532,34.7655,-927.497,-6.37433e-10,6.49732e-10,-1.74746e-08,928.732,-927.52,-0.463469,1.74926e-08,-1.74803e-08,-8.73203e-12
-0.530025,0.56,0.0211321,0.01,-76.9104,156.8,-48.7742,55.6363,-938.151,-9.4877e-10,1.01839e-09,-1.76753e-08,943.033,-936.171,-0.568005,1.77375e-08,-1.76678e-08,-1.07015e-11
-0.520025,0.56,0.0162986,0.01,-81.9218,156.8,-58.8509,78.7568,-945.393,-1.19533e-09,1.39728e-09,-1.78118e-08,957.846,-937.94,1.27263,1.79598e-08,-1.77579e-08,2.39771e-11
-0.510025,0.56,0.0090008,0.01,-86.9257,156.8,-74.32,94.7997,-956.357,-1.48927e-09,1.69704e-09,-1.80183e-08,970.315,-949.836,4.94644,1.81923e-08,-1.79845e-08,9.31937e-11
0.509975,0.56,0.00895265,0.01,-86.9506,156.8,-74.3646,94.8843,956.356,-1.49029e-09,1.69846e-09,1.80183e-08,970.339,-949.82,-4.97521,1.81925e-08,-1.79844e-08,-9.37358e-11
0.519975,0.56,0.0162863,0.01,-81.9467,156.8,-58.9228,78.8992,945.429,-1.19699e-09,1.39965e-09,1.78124e-08,957.925,-937.948,-1.25884,1.7961e-08,-1.77583e-08,-2.37173e-11
0.529975,0.56,0.0210991,0.01,-76.9354,156.8,-48.8857,55.7509,938.223,-9.50883e-10,1.02053e-09,1.76767e-08,943.113,-936.247,0.588856,1.77389e-08,-1.76693e-08,1.10944e-11
0.539975,0.56,0.0287246,0.01,-71.919,156.8,-33.6507,34.8577,927.581,-6.39246e-10,6.51492e-10,1.74762e-08,928.817,-927.61,0.469773,1.74942e-08,-1.7482e-08,8.85079e-12
0.549975,0.56,0.0356493,0.01,-66.8992,156.8,-16.4951,16.4009,912.834,-3.10368e-10,3.09412e-10,1.71983e-08,912.935,-913.03,-0.0420733,1.72006e-08,-1.72016e-08,-7.92686e-13
0.559975,0.56,0.0420085,0.01,-61.8777,156.8,-0.0602406,0.0193364,896.767,-9.57123e-13,5.42153e-13,1.68956e-08,896.747,-896.788,-3.09441e-05,1.68954e-08,-1.68958e-08,-5.83005e-16
0.569975,0.56,0.0495838,0.01,-56.8563,156.8,15.527,-15.5751,880.769,2.92747e-10,-2.93235e-10,1.65942e-08,880.883,-880.931,0.000583553,1.65965e-08,-1.6597e-08,1.09945e-14
0.579975,0.56,0.0567177,0.01,-51.8363,156.8,30.2929,-30.3387,864.79,5.70935e-10,-5.714e-10,1.62931e-08,865.298,-865.344,-6.65397e-05,1.63029e-08,-1.63034e-08,-1.25365e-15
0.589975,0.56,0.0634994,0.01,-46.8194,156.8,44.261,-44.305,848.866,8.34094e-10,-8.34541e-10,1.59931e-08,849.998,-850.042,5.95775e-07,1.60147e-08,-1.60151e-08,1.12248e-17
0.599975,0.56,0.0710454,0.01,-41.807,156.8,57.4625,-57.5048,833.023,1.08281e-09,-1.08324e-09,1.56946e-08,834.983,-835.025,2.55756e-06,1.57317e-08,-1.57322e-08,4.8186e-17
0.609975,0.56,0.07856,0.01,-36.8002,156.8,69.9271,-69.9678,817.281,1.31764e-09,-1.31806e-09,1.53981e-08,820.249,-820.289,1.72197e-06,1.54541e-08,-1.54545e-08,3.24428e-17
0.619975,0.56,0.0855342,0.01,-31.8005,156.8,81.6844,-81.7234,801.662,1.53915e-09,-1.53955e-09,1.51038e-08,805.795,-805.834,1.99452e-06,1.51818e-08,-1.51822e-08,3.75779e-17
0.629975,0.56,0.0930619,0.01,-26.8089,156.8,92.7632,-92.8005,786.181,1.74787e-09,-1.74825e-09,1.48121e-08,791.619,-791.656,2.15042e-06,1.49147e-08,-1.49151e-08,4.05152e-17
0.639975,0.56,0.101019,0.01,-21.8266,156.8,103.192,-103.227,770.857,1.94435e-09,-1.94471e-09,1.45234e-08,777.718,-777.753,2.25379e-06,1.46528e-08,-1.46532e-08,4.24628e-17
0.649975,0.56,0.108105,0.01,-16.8546,156.8,112.998,-113.032,755.702,2.12909e-09,-2.12943e-09,1.42379e-08,764.089,-764.123,2.32058e-06,1.4396e-08,-1.43964e-08,4.37212e-17
0.659975,0.56,0.115621,0.01,-11.8939,156.8,122.208,-122.24,740.729,2.30261e-09,-2.30294e-09,1.39558e-08,750.729,-750.761,2.35331e-06,1.41443e-08,-1.41446e-08,4.43377e-17
0.669975,0.56,0.12349,0.01,-6.94547,156.8,130.848,-130.88,725.949,2.4654e-09,-2.46571e-09,1.36773e-08,737.634,-737.666,2.35541e-06,1.38976e-08,-1.38979e-08,4.43773e-17
0.679975,0.56,0.13121,0.01,-2.01008,156.8,138.945,-138.975,711.372,2.61794e-09,-2.61824e-09,1.34027e-08,724.802,-724.832,2.33135e-06,1.36558e-08,-1.36561e-08,4.3924e-17
0.689975,0.56,0.138718,0.01,2.91142,156.8,146.522,-146.551,697.005,2.76069e-09,-2.76098e-09,1.3132e-08,712.228,-712.257,2.2853e-06,1.34189e-08,-1.34192e-08,4.30564e-17
0.699975,0.56,0.146524,0.01,7.81827,156.8,153.604,-153.631,682.857,2.89411e-09,-2.89439e-09,1.28654e-08,699.909,-699.936,2.21948e-06,1.31868e-08,-1.31871e-08,4.18164e-17
0.709975,0.56,0.154583,0.01,12.7098,156.8,160.214,-160.24,668.932,3.01864e-09,-3.0189e-09,1.26031e-08,687.841,-687.866,2.13733e-06,1.29594e-08,-1.29597e-08,4.02685e-17
0.719975,0.56,0.16235,0.01,17.5852,156.8,166.373,-166.398,655.236,3.13468e-09,-3.13493e-09,1.2345e-08,676.019,-676.043,2.04253e-06,1.27367e-08,-1.27369e-08,3.84825e-17
0.729975,0.56,0.17011,0.01,22.4441,156.8,172.104,-172.128,641.772,3.24265e-09,-3.24288e-09,1.20914e-08,664.439,-664.463,1.93718e-06,1.25185e-08,-1.25188e-08,3.64976e-17
0.739975,0.56,0.178094,0.01,27.2857,156.8,177.427,-177.45,628.544,3.34293e-09,-3.34316e-09,1.18421e-08,653.098,-653.12,1.82325e-06,1.23048e-08,-1.23051e-08,3.4351e-17
0.749975,0.56,0.186273,0.01,32.1096,156.8,182.362,-182.384,615.553,3.43591e-09,-3.43612e-09,1.15974e-08,641.991,-642.012,1.70331e-06,1.20956e-08,-1.20958e-08,3.20914e-17
0.759975,0.56,0.194241,0.01,36.9152,156.8,186.929,-186.949,602.803,3.52193e-09,-3.52214e-09,1.13572e-08,631.114,-631.134,1.57955e-06,1.18906e-08,-1.18908e-08,2.97595e-17
0.769975,0.56,0.202167,0.01,41.7022,156.8,191.145,-191.164,590.292,3.60136e-09,-3.60155e-09,1.11214e-08,620.462,-620.481,1.45295e-06,1.16899e-08,-1.16901e-08,2.73744e-17
0.779975,0.56,0.21027,0.01,46.4701,156.8,195.028,-195.046,578.022,3.67451e-09,-3.6747e-09,1.08903e-08,610.031,-610.049,1.32525e-06,1.14934e-08,-1.14936e-08,2.49685e-17
0.789975,0.56,0.21853,0.01,51.2184,156.8,198.357,-198.86,566.461,3.73935e-09,-3.74445e-09,1.06724e-08,600.018,-600.521,0.149893,1.13069e-08,-1.1312e-08,2.82408e-12
0.799975,0.56,0.226792,0.01,55.9469,156.8,201.051,-203.878,556.511,3.80021e-09,-3.82889e-09,1.0485e-08,590.783,-593.61,0.231158,1.1143e-08,-1.11717e-08,4.35515e-12
0.809975,0.56,0.234834,0.01,60.6552,156.8,203.958,-208.321,547.954,3.86166e-09,-3.90591e-09,1.03238e-08,583.264,-587.626,0.668343,1.1008e-08,-1.10523e-08,1.2592e-11
0.819975,0.56,0.243021,0.01,65.343,156.8,208.941,-212.038,539.091,3.95003e-09,-3.98146e-09,1.01568e-08,577.178,-580.276,0.0973981,1.08878e-08,-1.09193e-08,1.83504e-12
-0.810025,0.57,0.240781,0.01,63.9365,162.45,189.518,-202.377,-549.039,3.62653e-09,-3.75698e-09,-1.03442e-08,576.527,-589.386,-0.938493,1.0918e-08,-1.10485e-08,-1.76818e-11
-0.800025,0.57,0.232449,0.01,59.283,162.45,188.427,-196.391,-556.739,3.5847e-09,-3.66549e-09,-1.04893e-08,585.067,-593.031,0.032927,1.10576e-08,-1.11384e-08,6.20364e-13
-0.790025,0.57,0.224254,0.01,54.6105,162.45,186.72,-188.722,-564.063,3.52662e-09,-3.54692e-09,-1.06273e-08,593.479,-595.481,0.291605,1.11902e-08,-1.12105e-08,5.49401e-12
-0.780025,0.57,0.21621,0.01,49.9192,162.45,183.058,-183.081,-574.127,3.44901e-09,-3.44925e-09,-1.08169e-08,602.596,-602.62,0.00337506,1.13534e-08,-1.13536e-08,6.35882e-14
-0.770025,0.57,0.208336,0.01,45.2097,162.45,178.942,-178.961,-586.069,3.37146e-09,-3.37165e-09,-1.10419e-08,612.771,-612.79,-1.45902e-06,1.1545e-08,-1.15452e-08,-2.74889e-17
-0.760025,0.57,0.200224,0.01,40.4822,162.45,174.496,-174.516,-598.237,3.28769e-09,-3.2879e-09,-1.12711e-08,623.159,-623.179,-1.56748e-06,1.17408e-08,-1.1741e-08,-2.95322e-17
-0.750025,0.57,0.192116,0.01,35.7373,162.45,169.701,-169.722,-610.628,3.19735e-09,-3.19756e-09,-1.15046e-08,633.762,-633.783,-1.67185e-06,1.19405e-08,-1.19408e-08,-3.14986e-17
-0.740025,0.57,0.184194,0.01,30.9755,162.45,164.538,-164.56,-623.239,3.10009e-09,-3.10031e-09,-1.17422e-08,644.585,-644.607,-1.77096e-06,1.21444e-08,-1.21447e-08,-3.3366e-17
-0.730025,0.57,0.176484,0.01,26.1972,162.45,158.99,-159.013,-636.07,2.99556e-09,-2.9958e-09,-1.19839e-08,655.63,-655.654,-1.86157e-06,1.23526e-08,-1.23528e-08,-3.50731e-17
-0.720025,0.57,0.168576,0.01,21.403,162.45,153.037,-153.062,-649.116,2.88341e-09,-2.88366e-09,-1.22297e-08,666.903,-666.928,-1.94228e-06,1.25649e-08,-1.25652e-08,-3.65937e-17
-0.710025,0.57,0.160593,0.01,16.5935,162.45,146.66,-146.685,-662.374,2.76327e-09,-2.76352e-09,-1.24795e-08,678.407,-678.432,-2.01157e-06,1.27817e-08,-1.27819e-08,-3.78992e-17
-0.700025,0.57,0.152848,0.01,11.7693,162.45,139.837,-139.864,-675.84,2.63473e-09,-2.635e-09,-1.27332e-08,690.144,-690.171,-2.06596e-06,1.30028e-08,-1.30031e-08,-3.89239e-17
-0.690025,0.57,0.145379,0.01,6.93116,162.45,132.548,-132.576,-689.507,2.4974e-09,-2.49769e-09,-1.29907e-08,702.12,-702.148,-2.10309e-06,1.32285e-08,-1.32288e-08,-3.96235e-17
-0.680025,0.57,0.137537,0.01,2.07976,162.45,124.77,-124.8,-703.369,2.35088e-09,-2.35117e-09,-1.32519e-08,714.337,-714.367,-2.12017e-06,1.34587e-08,-1.3459e-08,-3.99451e-17
-0.670025,0.57,0.129745,0.01,-2.78411,162.45,116.482,-116.512,-717.418,2.19472e-09,-2.19503e-09,-1.35166e-08,726.8,-726.83,-2.11333e-06,1.36935e-08,-1.36938e-08,-3.98163e-17
-0.660025,0.57,0.122276,0.01,-7.65963,162.45,107.658,-107.69,-731.645,2.02848e-09,-2.02881e-09,-1.37846e-08,739.51,-739.542,-2.07989e-06,1.39329e-08,-1.39333e-08,-3.91863e-17
-0.650025,0.57,0.115032,0.01,-12.5459,162.45,98.2759,-98.3094,-746.04,1.85172e-09,-1.85206e-09,-1.40558e-08,752.471,-752.504,-2.0165e-06,1.41771e-08,-1.41775e-08,-3.7992e-17
-0.640025,0.57,0.107177,0.01,-17.442,162.45,88.3101,-88.3451,-760.592,1.66397e-09,-1.66432e-09,-1.433e-08,765.686,-765.721,-1.91922e-06,1.44261e-08,-1.44265e-08,-3.61592e-17
-0.630025,0.57,0.0997072,0.01,-22.347,162.45,77.7355,-77.772,-775.287,1.46474e-09,-1.46511e-09,-1.46069e-08,779.158,-779.194,-1.78403e-06,1.46799e-08,-1.46803e-08,-3.36122e-17
-0.620025,0.57,0.0927152,0.01,-27.2597,162.45,66.526,-66.564,-790.11,1.25355e-09,-1.25394e-09,-1.48861e-08,792.888,-792.926,-1.60686e-06,1.49386e-08,-1.4939e-08,-3.02741e-17
-0.610025,0.57,0.0851451,0.01,-32.179,162.45,54.6552,-54.6948,-805.045,1.02991e-09,-1.03031e-09,-1.51675e-08,806.88,-806.919,-1.40422e-06,1.52023e-08,-1.52027e-08,-2.64564e-17
-0.600025,0.57,0.0776751,0.01,-37.1038,162.45,42.0962,-42.1373,-820.074,7.93296e-10,-7.93713e-10,-1.54507e-08,821.134,-821.176,-1.09548e-06,1.54708e-08,-1.54712e-08,-2.06395e-17
-0.590025,0.57,0.0708319,0.01,-42.0329,162.45,28.8216,-28.8643,-835.177,5.43202e-10,-5.43635e-10,-1.57352e-08,835.653,-835.696,1.63371e-07,1.57444e-08,-1.57448e-08,3.07799e-18
-0.580025,0.57,0.0636528,0.01,-46.9648,162.45,14.8038,-14.8481,-850.331,2.79104e-10,-2.79554e-10,-1.60207e-08,850.438,-850.482,-8.89574e-06,1.60229e-08,-1.60234e-08,-1.67601e-16
-0.570025,0.57,0.0561858,0.01,-51.8981,162.45,0.0148518,-0.0606586,-865.511,4.78977e-13,-9.43683e-13,-1.63067e-08,865.488,-865.534,-4.1909e-07,1.63065e-08,-1.6307e-08,-7.8959e-18
-0.560025,0.57,0.0496186,0.01,-56.8315,162.45,-15.573,15.525,-880.692,-2.93196e-10,2.92708e-10,-1.65927e-08,880.805,-880.853,0.00057742,1.65951e-08,-1.65956e-08,1.08789e-14
-0.550025,0.57,0.0427104,0.01,-61.7633,162.45,-31.9951,31.9432,-895.845,-6.0258e-10,6.02054e-10,-1.68782e-08,896.39,-896.442,-0.00498949,1.68887e-08,-1.68893e-08,-9.40048e-14
-0.540025,0.57,0.0352599,0.01,-66.6919,162.45,-49.2168,49.2282,-910.86,-9.27323e-10,9.27438e-10,-1.71611e-08,912.195,-912.183,0.00715158,1.71862e-08,-1.71861e-08,1.3474e-13
-0.530025,0.57,0.0293655,0.01,-71.6156,162.45,-66.3884,67.9198,-924.472,-1.25745e-09,1.27299e-09,-1.74176e-08,927.674,-926.143,0.12547,1.74713e-08,-1.74557e-08,2.36392e-12
-0.520025,0.57,0.0223663,0.01,-76.5325,162.45,-81.6348,88.0231,-935.322,-1.56582e-09,1.63063e-09,-1.7622e-08,942.354,-935.966,1.11173,1.77267e-08,-1.76619e-08,2.09456e-11
-0.510025,0.57,0.0150309,0.01,-81.4407,162.45,-96.6093,109.845,-944.422,-1.87772e-09,2.012e-09,-1.77935e-08,956.662,-943.427,1.97483,1.79665e-08,-1.78323e-08,3.7207e-11
-0.500025,0.57,0.0123128,0.01,-86.3392,162.45,-114.777,132.123,-955.54,-2.23788e-09,2.41386e-09,-1.80029e-08,972.152,-954.806,2.04578,1.82405e-08,-1.80645e-08,3.85436e-11
0.499975,0.57,0.0123181,0.01,-86.3635,162.45,-114.856,132.19,955.677,-2.23932e-09,2.41517e-09,1.80055e-08,972.292,-954.957,-2.08621,1.82432e-08,-1.80673e-08,-3.93054e-11
0.509975,0.57,0.0150021,0.01,-81.4651,162.45,-96.6749,109.919,944.491,-1.87899e-09,2.01335e-09,1.77948e-08,956.742,-943.498,-2.00536,1.7968e-08,-1.78336e-08,-3.77821e-11
0.519975,0.57,0.0223247,0.01,-76.557,162.45,-81.713,88.1154,935.381,-1.56736e-09,1.63231e-09,1.76231e-08,942.428,-936.026,-1.12171,1.77281e-08,-1.76631e-08,-2.11337e-11
0.529975,0.57,0.0293418,0.01,-71.6401,162.45,-66.4781,68.0178,924.54,-1.25918e-09,1.2748e-09,1.74189e-08,927.752,-926.213,-0.123518,1.74727e-08,-1.74571e-08,-2.32716e-12
0.539975,0.57,0.035226,0.01,-66.7164,162.45,-49.304,49.3158,910.934,-9.28968e-10,9.29088e-10,1.71625e-08,912.274,-912.262,-0.00774003,1.71877e-08,-1.71876e-08,-1.45827e-13
0.549975,0.57,0.0426708,0.01,-61.7878,162.45,-32.0789,32.0271,895.921,-6.04159e-10,6.03634e-10,1.68797e-08,896.468,-896.52,0.00506932,1.68902e-08,-1.68907e-08,9.55088e-14
0.559975,0.57,0.0495888,0.01,-56.856,162.45,-15.6526,15.6045,880.767,-2.94695e-10,2.94207e-10,1.65942e-08,880.882,-880.93,-0.000579869,1.65965e-08,-1.6597e-08,-1.09251e-14
0.569975,0.57,0.0561506,0.01,-51.9227,162.45,-0.0606669,0.0148534,865.586,-9.43811e-13,4.79035e-13,1.63081e-08,865.563,-865.609,-4.23578e-07,1.63079e-08,-1.63084e-08,-7.98045e-18
0.579975,0.57,0.0636139,0.01,-46.9893,162.45,14.7322,-14.7765,850.406,2.77755e-10,-2.78205e-10,1.60221e-08,850.512,-850.556,9.03145e-06,1.60243e-08,-1.60248e-08,1.70158e-16
0.589975,0.57,0.0707997,0.01,-42.0574,162.45,28.7538,-28.7965,835.252,5.41924e-10,-5.42357e-10,1.57366e-08,835.726,-835.769,-1.68518e-07,1.57458e-08,-1.57462e-08,-3.17498e-18
0.599975,0.57,0.0776393,0.01,-37.1283,162.45,42.032,-42.0731,820.149,7.92086e-10,-7.92503e-10,1.54521e-08,821.206,-821.247,1.09237e-06,1.54722e-08,-1.54726e-08,2.0581e-17
0.609975,0.57,0.0851066,0.01,-32.2035,162.45,54.5945,-54.6341,805.12,1.02876e-09,-1.02917e-09,1.51689e-08,806.95,-806.99,1.40346e-06,1.52036e-08,-1.5204e-08,2.6442e-17
0.619975,0.57,0.0926818,0.01,-27.2841,162.45,66.4686,-66.5066,790.184,1.25247e-09,-1.25286e-09,1.48875e-08,792.957,-792.995,1.60592e-06,1.49399e-08,-1.49403e-08,3.02564e-17
0.629975,0.57,0.0996711,0.01,-22.3714,162.45,77.6813,-77.7178,775.36,1.46372e-09,-1.46409e-09,1.46082e-08,779.225,-779.262,1.78278e-06,1.46812e-08,-1.46816e-08,3.35886e-17
0.639975,0.57,0.107139,0.01,-17.4664,162.45,88.2591,-88.2941,760.665,1.663e-09,-1.66336e-09,1.43314e-08,765.752,-765.787,1.91818e-06,1.44274e-08,-1.44277e-08,3.61395e-17
0.649975,0.57,0.114992,0.01,-12.5702,162.45,98.2278,-98.2613,746.112,1.85081e-09,-1.85115e-09,1.40572e-08,752.536,-752.569,2.0159e-06,1.41784e-08,-1.41787e-08,3.79807e-17
0.659975,0.57,0.12224,0.01,-7.68391,162.45,107.613,-107.645,731.716,2.02763e-09,-2.02795e-09,1.3786e-08,739.573,-739.606,2.07975e-06,1.39341e-08,-1.39345e-08,3.91837e-17
0.669975,0.57,0.129707,0.01,-2.80833,162.45,116.439,-116.47,717.488,2.19391e-09,-2.19423e-09,1.35179e-08,726.862,-726.893,2.1131e-06,1.36946e-08,-1.36949e-08,3.98121e-17
0.679975,0.57,0.137497,0.01,2.05561,162.45,124.731,-124.76,703.438,2.35012e-09,-2.35042e-09,1.32532e-08,714.399,-714.428,2.11978e-06,1.34598e-08,-1.34601e-08,3.99378e-17
0.689975,0.57,0.145342,0.01,6.90707,162.45,132.511,-132.539,689.575,2.4967e-09,-2.49698e-09,1.2992e-08,702.18,-702.208,2.10344e-06,1.32296e-08,-1.32299e-08,3.963e-17
0.699975,0.57,0.15281,0.01,11.7453,162.45,139.802,-139.829,675.907,2.63407e-09,-2.63434e-09,1.27345e-08,690.203,-690.23,2.06627e-06,1.30039e-08,-1.30042e-08,3.89297e-17
0.709975,0.57,0.160554,0.01,16.5695,162.45,146.627,-146.652,662.441,2.76265e-09,-2.76291e-09,1.24808e-08,678.464,-678.49,2.01162e-06,1.27828e-08,-1.2783e-08,3.79001e-17
0.719975,0.57,0.168535,0.01,21.3791,162.45,153.006,-153.031,649.182,2.88284e-09,-2.88308e-09,1.2231e-08,666.96,-666.984,1.94285e-06,1.2566e-08,-1.25663e-08,3.66044e-17
0.729975,0.57,0.176446,0.01,26.1734,162.45,158.961,-158.985,636.134,2.99503e-09,-2.99526e-09,1.19851e-08,655.686,-655.709,1.86175e-06,1.23536e-08,-1.23538e-08,3.50765e-17
0.739975,0.57,0.184156,0.01,30.9518,162.45,164.511,-164.534,623.303,3.09959e-09,-3.09981e-09,1.17434e-08,644.639,-644.661,1.77071e-06,1.21455e-08,-1.21457e-08,3.33612e-17
0.749975,0.57,0.192076,0.01,35.7137,162.45,169.676,-169.697,610.69,3.19688e-09,-3.1971e-09,1.15057e-08,633.815,-633.837,1.67218e-06,1.19415e-08,-1.19418e-08,3.15048e-17
0.759975,0.57,0.200183,0.01,40.4587,162.45,174.473,-174.493,598.298,3.28726e-09,-3.28747e-09,1.12723e-08,623.211,-623.231,1.56817e-06,1.17417e-08,-1.1742e-08,2.95452e-17
0.769975,0.57,0.208297,0.01,45.1862,162.45,178.921,-178.94,586.129,3.37106e-09,-3.37125e-09,1.1043e-08,612.822,-612.841,1.45963e-06,1.1546e-08,-1.15462e-08,2.75003e-17
0.779975,0.57,0.21617,0.01,49.8958,162.45,183.038,-183.062,574.186,3.44864e-09,-3.44888e-09,1.0818e-08,602.647,-602.67,-0.00337534,1.13543e-08,-1.13546e-08,-6.35934e-14
0.789975,0.57,0.224213,0.01,54.5872,162.45,186.702,-188.704,564.121,3.52627e-09,-3.54658e-09,1.06284e-08,593.528,-595.53,-0.291706,1.11911e-08,-1.12114e-08,-5.49591e-12
0.799975,0.57,0.232408,0.01,59.2598,162.45,188.41,-196.374,556.796,3.58438e-09,-3.66518e-09,1.04904e-08,585.116,-593.08,-0.0330077,1.10585e-08,-1.11393e-08,-6.21885e-13
0.809975,0.57,0.240739,0.01,63.9134,162.45,189.501,-202.362,549.096,3.62622e-09,-3.7567e-09,1.03453e-08,576.574,-589.435,0.938819,1.09189e-08,-1.10494e-08,1.76879e-11
-0.800025,0.58,0.23822,0.01,62.6147,168.2,177.178,-186.781,-554.737,3.37989e-09,-3.47732e-09,-1.04516e-08,579.021,-588.625,0.452775,1.09508e-08,-1.10483e-08,8.53055e-12
-0.790025,0.58,0.23023,0.01,57.9976,168.2,174.85,-177.817,-561.043,3.30717e-09,-3.33728e-09,-1.05704e-08,586.617,-589.585,0.16969,1.10651e-08,-1.10952e-08,3.19706e-12
-0.780025,0.58,0.222368,0.01,53.363,168.2,171.109,-171.559,-570.537,3.22575e-09,-3.23032e-09,-1.07492e-08,595.482,-595.932,-0.190511,1.12212e-08,-1.12258e-08,-3.58933e-12
-0.770025,0.58,0.214165,0.01,48.7113,168.2,167.052,-167.071,-581.683,3.14743e-09,-3.14763e-09,-1.09592e-08,605.188,-605.207,-1.44347e-06,1.14022e-08,-1.14024e-08,-2.71958e-17
-0.760025,0.58,0.20612,0.01,44.0428,168.2,162.391,-162.411,-593.511,3.05962e-09,-3.05983e-09,-1.11821e-08,615.319,-615.339,-1.53427e-06,1.1593e-08,-1.15932e-08,-2.89066e-17
-0.750025,0.58,0.198253,0.01,39.3581,168.2,157.382,-157.403,-605.545,2.96526e-09,-2.96548e-09,-1.14088e-08,625.654,-625.675,-1.6198e-06,1.17878e-08,-1.1788e-08,-3.0518e-17
-0.740025,0.58,0.190587,0.01,34.6577,168.2,152.009,-152.031,-617.781,2.86403e-09,-2.86425e-09,-1.16394e-08,636.2,-636.222,-1.69854e-06,1.19865e-08,-1.19867e-08,-3.20015e-17
-0.730025,0.58,0.182557,0.01,29.9421,168.2,146.253,-146.276,-630.219,2.75559e-09,-2.75582e-09,-1.18737e-08,646.957,-646.98,-1.76732e-06,1.21892e-08,-1.21894e-08,-3.32973e-17
-0.720025,0.58,0.174641,0.01,25.2118,168.2,140.096,-140.12,-642.852,2.63959e-09,-2.63984e-09,-1.21117e-08,657.931,-657.955,-1.8252e-06,1.23959e-08,-1.23962e-08,-3.43878e-17
-0.710025,0.58,0.166949,0.01,20.4676,168.2,133.519,-133.544,-655.678,2.51568e-09,-2.51594e-09,-1.23534e-08,669.125,-669.15,-1.87035e-06,1.26068e-08,-1.26071e-08,-3.52385e-17
-0.700025,0.58,0.159513,0.01,15.71,168.2,126.502,-126.529,-668.691,2.38349e-09,-2.38376e-09,-1.25985e-08,680.541,-680.567,-1.89928e-06,1.28219e-08,-1.28222e-08,-3.57835e-17
-0.690025,0.58,0.151569,0.01,10.9397,168.2,119.026,-119.053,-681.884,2.24263e-09,-2.24291e-09,-1.28471e-08,692.183,-692.211,-1.91017e-06,1.30412e-08,-1.30415e-08,-3.59887e-17
-0.680025,0.58,0.143842,0.01,6.15758,168.2,111.068,-111.097,-695.25,2.09271e-09,-2.093e-09,-1.30989e-08,704.054,-704.083,-1.90052e-06,1.32649e-08,-1.32652e-08,-3.58068e-17
-0.670025,0.58,0.136412,0.01,1.36432,168.2,102.608,-102.638,-708.781,1.93332e-09,-1.93363e-09,-1.33538e-08,716.157,-716.187,-1.86641e-06,1.34929e-08,-1.34932e-08,-3.51643e-17
-0.660025,0.58,0.129041,0.01,-3.43919,168.2,93.6229,-93.6544,-722.467,1.76405e-09,-1.76437e-09,-1.36117e-08,728.494,-728.526,-1.8057e-06,1.37254e-08,-1.37257e-08,-3.40205e-17
-0.650025,0.58,0.121269,0.01,-8.25206,168.2,84.0904,-84.1232,-736.297,1.58446e-09,-1.58479e-09,-1.38723e-08,741.069,-741.102,-1.71566e-06,1.39623e-08,-1.39626e-08,-3.2324e-17
-0.640025,0.58,0.113845,0.01,-13.0733,168.2,73.9871,-74.0213,-750.259,1.39411e-09,-1.39446e-09,-1.41353e-08,753.883,-753.917,-1.59237e-06,1.42037e-08,-1.42041e-08,-3.00011e-17
-0.630025,0.58,0.106843,0.01,-17.902,168.2,63.2891,-63.3247,-764.34,1.19256e-09,-1.19292e-09,-1.44006e-08,766.939,-766.975,-1.43283e-06,1.44497e-08,-1.44501e-08,-2.69953e-17
-0.620025,0.58,0.0992289,0.01,-22.737,168.2,51.9721,-52.0091,-778.523,9.79345e-10,-9.7972e-10,-1.46678e-08,780.239,-780.276,-1.23469e-06,1.47003e-08,-1.47007e-08,-2.32623e-17
-0.610025,0.58,0.0918156,0.01,-27.5772,168.2,40.0113,-40.0498,-792.793,7.54004e-10,-7.54393e-10,-1.49367e-08,793.784,-793.822,-9.94006e-07,1.49555e-08,-1.49559e-08,-1.87276e-17
-0.600025,0.58,0.0849343,0.01,-32.4214,168.2,27.3817,-27.4216,-807.13,5.16061e-10,-5.16466e-10,-1.52068e-08,807.576,-807.615,-6.95434e-07,1.52154e-08,-1.52158e-08,-1.31024e-17
-0.590025,0.58,0.0777229,0.01,-37.2683,168.2,14.058,-14.0993,-821.515,2.6504e-10,-2.6546e-10,-1.54778e-08,821.615,-821.656,-5.1367e-07,1.54799e-08,-1.54803e-08,-9.67785e-18
-0.580025,0.58,0.0703279,0.01,-42.1166,168.2,0.0144213,-0.0572512,-835.924,4.57923e-13,-8.92429e-13,-1.57493e-08,835.902,-835.945,-7.14506e-09,1.57491e-08,-1.57495e-08,-1.34617e-19
-0.570025,0.58,0.0636489,0.01,-46.965,168.2,-14.7746,14.7302,-850.332,-2.78169e-10,2.77719e-10,-1.60208e-08,850.438,-850.483,8.94244e-06,1.60229e-08,-1.60234e-08,1.68481e-16
-0.560025,0.58,0.0567527,0.01,-51.8118,168.2,-30.3348,30.2889,-864.714,-5.71325e-10,5.7086e-10,-1.62917e-08,865.222,-865.268,-6.5826e-05,1.63015e-08,-1.6302e-08,-1.2402e-15
-0.550025,0.58,0.0493958,0.01,-56.6556,168.2,-46.6909,46.6445,-879.039,-8.79482e-10,8.79012e-10,-1.65616e-08,880.254,-880.3,2.4255e-05,1.65847e-08,-1.65852e-08,4.56979e-16
-0.540025,0.58,0.0431164,0.01,-61.4947,168.2,-63.8693,63.8152,-893.284,-1.2031e-09,1.20255e-09,-1.683e-08,895.535,-895.589,0.00399392,1.68726e-08,-1.68732e-08,7.52477e-14
-0.530025,0.58,0.0363247,0.01,-66.3275,168.2,-81.9333,81.8861,-907.393,-1.54347e-09,1.54299e-09,-1.70958e-08,911.059,-911.106,-0.0389922,1.71651e-08,-1.71656e-08,-7.34636e-13
-0.520025,0.58,0.0290717,0.01,-71.152,168.2,-100.193,100.933,-920.525,-1.89091e-09,1.89842e-09,-1.73432e-08,926.372,-925.632,0.1125,1.74502e-08,-1.74427e-08,2.11956e-12
-0.510025,0.58,0.0238923,0.01,-75.9665,168.2,-117.449,122.713,-930.65,-2.2357e-09,2.2891e-09,-1.7534e-08,940.996,-935.733,-0.0980746,1.7706e-08,-1.76526e-08,-1.84778e-12
-0.500025,0.58,0.0164805,0.01,-80.7689,168.2,-133.05,147.018,-937.11,-2.56747e-09,2.70917e-09,-1.76557e-08,954.499,-940.532,-0.478754,1.79226e-08,-1.77809e-08,-9.02e-12
-0.490025,0.58,0.00983751,0.01,-85.5568,168.2,-149.882,168.69,-940.898,-2.90564e-09,3.09645e-09,-1.77271e-08,963.69,-944.881,0.0740134,1.80747e-08,-1.78839e-08,1.39445e-12
0.489975,0.58,0.0098187,0.01,-85.5806,168.2,-150.029,168.819,940.973,-2.90833e-09,3.09896e-09,1.77285e-08,963.778,-944.988,-0.0462316,1.80764e-08,-1.78858e-08,-8.71031e-13
0.499975,0.58,0.0164391,0.01,-80.7927,168.2,-133.18,147.105,937.202,-2.56973e-09,2.711e-09,1.76574e-08,954.584,-940.659,0.479504,1.79244e-08,-1.77831e-08,9.03413e-12
0.509975,0.58,0.0238742,0.01,-75.9904,168.2,-117.543,122.802,930.727,-2.23744e-09,2.29079e-09,1.75354e-08,941.082,-935.823,0.0878495,1.77077e-08,-1.76543e-08,1.65514e-12
0.519975,0.58,0.0290397,0.01,-71.176,168.2,-100.284,101.024,920.593,-1.89262e-09,1.90014e-09,1.73445e-08,926.45,-925.709,-0.117644,1.74516e-08,-1.74441e-08,-2.21647e-12
0.529975,0.58,0.0362854,0.01,-66.3515,168.2,-82.0252,81.9787,907.462,-1.5452e-09,1.54473e-09,1.70971e-08,911.136,-911.183,0.0395219,1.71665e-08,-1.7167e-08,7.44616e-13
0.539975,0.58,0.0430887,0.01,-61.5188,168.2,-63.9569,63.9027,893.355,-1.20475e-09,1.2042e-09,1.68313e-08,895.612,-895.666,-0.00400182,1.68741e-08,-1.68746e-08,-7.53966e-14
0.549975,0.58,0.0493616,0.01,-56.6797,168.2,-46.7743,46.7279,879.11,-8.81053e-10,8.80583e-10,1.65629e-08,880.329,-880.375,-3.12732e-05,1.65861e-08,-1.65866e-08,-5.89205e-16
0.559975,0.58,0.0567141,0.01,-51.8359,168.2,-30.4141,30.3683,864.786,-5.7282e-10,5.72355e-10,1.62931e-08,865.297,-865.342,6.69398e-05,1.63029e-08,-1.63034e-08,1.26118e-15
0.569975,0.58,0.0636178,0.01,-46.9891,168.2,-14.85,14.8057,850.404,-2.7959e-10,2.7914e-10,1.60221e-08,850.511,-850.555,-8.9842e-06,1.60243e-08,-1.60248e-08,-1.69268e-16
0.579975,0.58,0.0702927,0.01,-42.1408,168.2,-0.0572595,0.0144222,835.995,-8.92553e-13,4.57972e-13,1.57506e-08,835.974,-836.017,-7.27737e-09,1.57504e-08,-1.57509e-08,-1.3711e-19
0.589975,0.58,0.0776847,0.01,-37.2924,168.2,13.9899,-14.0313,821.586,2.63758e-10,-2.64178e-10,1.54792e-08,821.685,-821.727,5.1407e-07,1.54812e-08,-1.54816e-08,9.68538e-18
0.599975,0.58,0.0849017,0.01,-32.4455,168.2,27.3172,-27.3571,807.202,5.14846e-10,-5.1525e-10,1.52082e-08,807.645,-807.685,6.93823e-07,1.52167e-08,-1.52171e-08,1.3072e-17
0.609975,0.58,0.09178,0.01,-27.6013,168.2,39.9502,-39.9886,792.864,7.52852e-10,-7.53242e-10,1.4938e-08,793.852,-793.89,9.92785e-07,1.49568e-08,-1.49572e-08,1.87046e-17
0.619975,0.58,0.0991909,0.01,-22.7611,168.2,51.9142,-51.9512,778.594,9.78255e-10,-9.7863e-10,1.46692e-08,780.306,-780.343,1.23392e-06,1.47016e-08,-1.47019e-08,2.32477e-17
0.629975,0.58,0.106809,0.01,-17.926,168.2,63.2344,-63.2699,764.41,1.19153e-09,-1.19189e-09,1.44019e-08,767.005,-767.04,1.43192e-06,1.4451e-08,-1.44513e-08,2.69782e-17
0.639975,0.58,0.113809,0.01,-13.0973,168.2,73.9354,-73.9696,750.329,1.39313e-09,-1.39348e-09,1.41366e-08,753.947,-753.982,1.5919e-06,1.4205e-08,-1.42053e-08,2.99924e-17
0.649975,0.58,0.121231,0.01,-8.27602,168.2,84.0416,-84.0744,736.366,1.58354e-09,-1.58387e-09,1.38736e-08,741.132,-741.165,1.71576e-06,1.39635e-08,-1.39638e-08,3.23259e-17
0.659975,0.58,0.129002,0.01,-3.4631,168.2,93.5769,-93.6083,722.535,1.76318e-09,-1.7635e-09,1.3613e-08,728.556,-728.588,1.80623e-06,1.37266e-08,-1.37269e-08,3.40304e-17
0.669975,0.58,0.136376,0.01,1.34046,168.2,102.564,-102.595,708.849,1.93251e-09,-1.93281e-09,1.33551e-08,716.217,-716.248,1.86671e-06,1.34941e-08,-1.34944e-08,3.51698e-17
0.679975,0.58,0.143805,0.01,6.13377,168.2,111.027,-111.056,695.317,2.09194e-09,-2.09224e-09,1.31002e-08,704.113,-704.142,1.90057e-06,1.3266e-08,-1.32663e-08,3.58079e-17
0.689975,0.58,0.15153,0.01,10.916,168.2,118.987,-119.015,681.95,2.24191e-09,-2.24219e-09,1.28483e-08,692.241,-692.269,1.91085e-06,1.30423e-08,-1.30426e-08,3.60014e-17
0.699975,0.58,0.159476,0.01,15.6863,168.2,126.466,-126.493,668.756,2.38281e-09,-2.38308e-09,1.25998e-08,680.598,-680.625,1.89974e-06,1.2823e-08,-1.28232e-08,3.57923e-17
0.709975,0.58,0.166911,0.01,20.444,168.2,133.485,-133.51,655.743,2.51505e-09,-2.5153e-09,1.23546e-08,669.181,-669.206,1.87037e-06,1.26079e-08,-1.26081e-08,3.52389e-17
0.719975,0.58,0.174602,0.01,25.1883,168.2,140.064,-140.088,642.916,2.639e-09,-2.63924e-09,1.21129e-08,657.986,-658.011,1.82581e-06,1.2397e-08,-1.23972e-08,3.43993e-17
0.729975,0.58,0.182517,0.01,29.9186,168.2,146.223,-146.246,630.281,2.75503e-09,-2.75526e-09,1.18749e-08,647.011,-647.034,1.76772e-06,1.21902e-08,-1.21904e-08,3.33048e-17
0.739975,0.58,0.190549,0.01,34.6343,168.2,151.981,-152.003,617.843,2.86351e-09,-2.86373e-09,1.16405e-08,636.253,-636.275,1.69837e-06,1.19875e-08,-1.19877e-08,3.19984e-17
0.749975,0.58,0.198215,0.01,39.3348,168.2,157.356,-157.377,605.605,2.96478e-09,-2.96499e-09,1.14099e-08,625.706,-625.727,1.62007e-06,1.17888e-08,-1.1789e-08,3.0523e-17
0.759975,0.58,0.20608,0.01,44.0196,168.2,162.367,-162.387,593.57,3.05917e-09,-3.05937e-09,1.11832e-08,615.369,-615.389,1.53498e-06,1.1594e-08,-1.15942e-08,2.89198e-17
0.769975,0.58,0.214124,0.01,48.6881,168.2,167.029,-167.048,581.741,3.14701e-09,-3.14721e-09,1.09603e-08,605.238,-605.257,1.44401e-06,1.14031e-08,-1.14033e-08,2.72059e-17
0.779975,0.58,0.222327,0.01,53.3399,168.2,171.088,-171.538,570.594,3.22536e-09,-3.22993e-09,1.07503e-08,595.531,-595.981,0.190531,1.12221e-08,-1.12267e-08,3.58972e-12
0.789975,0.58,0.230191,0.01,57.9746,168.2,174.83,-177.798,561.1,3.30681e-09,-3.33691e-09,1.05714e-08,586.665,-589.633,-0.16957,1.1066e-08,-1.10961e-08,-3.1948e-12
0.799975,0.58,0.23818,0.01,62.5918,168.2,177.159,-186.764,554.793,3.37954e-09,-3.47698e-09,1.04526e-08,579.068,-588.673,-0.452595,1.09517e-08,-1.10492e-08,-8.52716e-12
-0.800025,0.59,0.244265,0.01,65.9643,174.05,168.236,-171.293,-551.995,3.18295e-09,-3.21397e-09,-1.03999e-08,575.981,-579.038,-0.8973,1.08651e-08,-1.08961e-08,-1.69057e-11
-0.790025,0.59,0.236272,0.01,61.4023,174.05,162.654,-167.195,-560.283,3.08424e-09,-3.13031e-09,-1.05561e-08,581.781,-586.322,-0.938919,1.09808e-08,-1.10269e-08,-1.76898e-11
-0.780025,0.59,0.22813,0.01,56.824,174.05,159.303,-162.019,-568.153,3.01317e-09,-3.04073e-09,-1.07043e-08,589.074,-591.79,-0.0364284,1.11103e-08,-1.11379e-08,-6.86331e-13
-0.770025,0.59,0.220142,0.01,52.2296,174.05,155.245,-155.771,-577.578,2.92719e-09,-2.93252e-09,-1.08819e-08,597.884,-598.41,-0.121662,1.12668e-08,-1.12721e-08,-2.29218e-12
-0.760025,0.59,0.212323,0.01,47.6196,174.05,150.633,-150.653,-588.579,2.8381e-09,-2.83831e-09,-1.10892e-08,607.542,-607.562,-1.48301e-06,1.14465e-08,-1.14467e-08,-2.79407e-17
-0.750025,0.59,0.204607,0.01,42.9947,174.05,145.429,-145.449,-600.258,2.74005e-09,-2.74026e-09,-1.13092e-08,617.616,-617.637,-1.55028e-06,1.16363e-08,-1.16365e-08,-2.92082e-17
-0.740025,0.59,0.196562,0.01,38.3551,174.05,139.862,-139.884,-612.123,2.63517e-09,-2.6354e-09,-1.15328e-08,627.89,-627.911,-1.60938e-06,1.18299e-08,-1.18301e-08,-3.03216e-17
-0.730025,0.59,0.188703,0.01,33.7016,174.05,133.916,-133.939,-624.171,2.52316e-09,-2.52339e-09,-1.17597e-08,638.366,-638.389,-1.6577e-06,1.20273e-08,-1.20275e-08,-3.1232e-17
-0.720025,0.59,0.181056,0.01,29.0347,174.05,127.574,-127.598,-636.396,2.40368e-09,-2.40392e-09,-1.19901e-08,649.048,-649.072,-1.6946e-06,1.22285e-08,-1.22288e-08,-3.19272e-17
-0.710025,0.59,0.173529,0.01,24.355,174.05,120.818,-120.843,-648.795,2.27638e-09,-2.27664e-09,-1.22237e-08,659.939,-659.963,-1.71777e-06,1.24337e-08,-1.2434e-08,-3.23639e-17
-0.700025,0.59,0.16562,0.01,19.6633,174.05,113.627,-113.653,-661.362,2.14092e-09,-2.14118e-09,-1.24604e-08,671.041,-671.067,-1.7239e-06,1.26429e-08,-1.26432e-08,-3.24792e-17
-0.690025,0.59,0.157948,0.01,14.9602,174.05,105.984,-106.011,-674.088,1.99692e-09,-1.99719e-09,-1.27002e-08,682.357,-682.385,-1.71155e-06,1.28561e-08,-1.28564e-08,-3.22466e-17
-0.680025,0.59,0.150549,0.01,10.2465,174.05,97.868,-97.8964,-686.967,1.84401e-09,-1.8443e-09,-1.29429e-08,693.891,-693.919,-1.67836e-06,1.30734e-08,-1.30737e-08,-3.16212e-17
-0.670025,0.59,0.143076,0.01,5.52303,174.05,89.2587,-89.2882,-699.989,1.68181e-09,-1.68211e-09,-1.31882e-08,705.644,-705.674,-1.62069e-06,1.32949e-08,-1.32952e-08,-3.05348e-17
-0.660025,0.59,0.135371,0.01,0.790625,174.05,80.1351,-80.1659,-713.144,1.50993e-09,-1.51024e-09,-1.34361e-08,717.619,-717.65,-1.53657e-06,1.35205e-08,-1.35208e-08,-2.89499e-17
-0.650025,0.59,0.127984,0.01,-3.94979,174.05,70.4757,-70.5078,-726.422,1.32794e-09,-1.32827e-09,-1.36862e-08,729.818,-729.85,-1.4239e-06,1.37503e-08,-1.37507e-08,-2.68271e-17
-0.640025,0.59,0.120973,0.01,-8.69725,174.05,60.2587,-60.292,-739.808,1.13545e-09,-1.13579e-09,-1.39384e-08,742.243,-742.276,-1.27945e-06,1.39844e-08,-1.39848e-08,-2.41055e-17
-0.630025,0.59,0.113327,0.01,-13.4507,174.05,49.4617,-49.4963,-753.289,9.32037e-10,-9.32388e-10,-1.41924e-08,754.895,-754.93,-1.1005e-06,1.42228e-08,-1.42232e-08,-2.07341e-17
-0.620025,0.59,0.105957,0.01,-18.2092,174.05,38.0618,-38.0978,-766.85,7.17263e-10,-7.17628e-10,-1.44479e-08,767.777,-767.813,-8.85078e-07,1.44655e-08,-1.44659e-08,-1.66754e-17
-0.610025,0.59,0.0990481,0.01,-22.9714,174.05,26.0362,-26.0735,-780.473,4.90699e-10,-4.91077e-10,-1.47046e-08,780.889,-780.927,-6.31456e-07,1.47126e-08,-1.47129e-08,-1.1897e-17
-0.600025,0.59,0.0918152,0.01,-27.7362,174.05,13.3614,-13.4001,-794.139,2.51905e-10,-2.52297e-10,-1.4962e-08,794.233,-794.271,-3.39605e-07,1.4964e-08,-1.49644e-08,-6.39836e-18
-0.590025,0.59,0.08447,0.01,-32.5024,174.05,0.0140445,-0.0540452,-807.828,4.38522e-13,-8.44327e-13,-1.52199e-08,807.808,-807.848,-8.79091e-10,1.52197e-08,-1.52202e-08,-1.65626e-20
-0.580025,0.59,0.0777197,0.01,-37.2685,174.05,-14.0295,13.9881,-821.517,-2.64144e-10,2.63725e-10,-1.54778e-08,821.615,-821.657,5.12694e-07,1.54799e-08,-1.54803e-08,9.65946e-18
-0.570025,0.59,0.0708347,0.01,-42.0333,174.05,-28.7928,28.7501,-835.18,-5.42287e-10,5.41854e-10,-1.57353e-08,835.655,-835.697,-1.58571e-07,1.57444e-08,-1.57448e-08,-2.98757e-18
-0.560025,0.59,0.0635345,0.01,-46.7951,174.05,-44.2993,44.2552,-848.793,-8.34433e-10,8.33986e-10,-1.59917e-08,849.925,-849.969,5.99964e-07,1.60133e-08,-1.60137e-08,1.13037e-17
-0.550025,0.59,0.0570589,0.01,-51.5526,174.05,-60.5722,60.5268,-862.325,-1.14102e-09,1.14056e-09,-1.62467e-08,864.425,-864.471,6.30994e-05,1.62865e-08,-1.62869e-08,1.18883e-15
-0.540025,0.59,0.0503857,0.01,-56.3039,174.05,-77.635,77.5882,-875.746,-1.46249e-09,1.46201e-09,-1.64996e-08,879.155,-879.201,-0.000482411,1.6564e-08,-1.65645e-08,-9.08891e-15
-0.530025,0.59,0.0431787,0.01,-61.0475,174.05,-95.5044,95.4616,-889.015,-1.79917e-09,1.79874e-09,-1.67496e-08,894.106,-894.149,0.000792852,1.68457e-08,-1.68461e-08,1.49378e-14
-0.520025,0.59,0.0372837,0.01,-65.7816,174.05,-114.223,114.13,-902.163,-2.15162e-09,2.15067e-09,-1.69973e-08,909.313,-909.406,0.0207471,1.71324e-08,-1.71333e-08,3.90887e-13
-0.510025,0.59,0.0304697,0.01,-70.5042,174.05,-133.561,134.416,-914.106,-2.52008e-09,2.52875e-09,-1.72223e-08,924.301,-923.446,-0.361548,1.74106e-08,-1.7402e-08,-6.81178e-12
-0.500025,0.59,0.0235281,0.01,-75.2134,174.05,-151.09,156.867,-922.209,-2.87174e-09,2.93035e-09,-1.73749e-08,937.863,-932.086,-0.678965,1.76448e-08,-1.75862e-08,-1.27921e-11
-0.490025,0.59,0.0194613,0.01,-79.9073,174.05,-164.162,181.178,-926.623,-3.16689e-09,3.33952e-09,-1.74581e-08,951.082,-934.065,0.356776,1.7845e-08,-1.76723e-08,6.72187e-12
-0.480025,0.59,0.0111091,0.01,-84.5833,174.05,-177.555,213.23,-928.047,-3.50034e-09,3.86226e-09,-1.74849e-08,966.227,-930.552,-2.53559,1.80492e-08,-1.76872e-08,-4.7772e-11
0.479975,0.59,0.0110683,0.01,-84.6065,174.05,-177.654,213.378,928.059,-3.50242e-09,3.86485e-09,1.74852e-08,966.289,-930.564,2.55818,1.80501e-08,-1.76877e-08,4.81976e-11
0.489975,0.59,0.0194518,0.01,-79.9306,174.05,-164.276,181.305,926.674,-3.16909e-09,3.34185e-09,1.74591e-08,951.161,-934.132,-0.341874,1.78464e-08,-1.76736e-08,-6.44111e-12
0.499975,0.59,0.0234991,0.01,-75.2368,174.05,-151.207,156.977,922.274,-2.87391e-09,2.93245e-09,1.73762e-08,937.943,-932.172,0.688534,1.76463e-08,-1.75878e-08,1.29724e-11
0.509975,0.59,0.030431,0.01,-70.5277,174.05,-133.665,134.514,914.173,-2.52201e-09,2.53063e-09,1.72236e-08,924.38,-923.53,0.362761,1.74122e-08,-1.74035e-08,6.83463e-12
0.519975,0.59,0.0372588,0.01,-65.8051,174.05,-114.319,114.225,902.229,-2.15342e-09,2.15247e-09,1.69985e-08,909.39,-909.484,-0.020678,1.71338e-08,-1.71348e-08,-3.89586e-13
0.529975,0.59,0.0431456,0.01,-61.0711,174.05,-95.5953,95.5525,889.08,-1.80088e-09,1.80045e-09,1.67508e-08,894.181,-894.224,-0.000847083,1.68471e-08,-1.68475e-08,-1.59595e-14
0.539975,0.59,0.0503475,0.01,-56.3276,174.05,-77.7219,77.6751,875.812,-1.46412e-09,1.46365e-09,1.65008e-08,879.228,-879.275,0.00048999,1.65654e-08,-1.65658e-08,9.2317e-15
0.549975,0.59,0.0570292,0.01,-51.5762,174.05,-60.6551,60.6096,862.392,-1.14258e-09,1.14212e-09,1.6248e-08,864.498,-864.544,-6.3362e-05,1.62878e-08,-1.62883e-08,-1.19378e-15
0.559975,0.59,0.0635001,0.01,-46.8188,174.05,-44.3783,44.3343,848.86,-8.35921e-10,8.35474e-10,1.5993e-08,849.996,-850.041,-6.91656e-07,1.60146e-08,-1.60151e-08,-1.30312e-17
0.569975,0.59,0.0707968,0.01,-42.057,174.05,-28.868,28.8253,835.248,-5.43705e-10,5.43272e-10,1.57366e-08,835.725,-835.768,1.73264e-07,1.57457e-08,-1.57462e-08,3.26439e-18
0.579975,0.59,0.0776879,0.01,-37.2922,174.05,-14.1011,14.0598,821.585,-2.65493e-10,2.65074e-10,1.54791e-08,821.685,-821.726,-5.15471e-07,1.54812e-08,-1.54816e-08,-9.71178e-18
0.589975,0.59,0.0844349,0.01,-32.5261,174.05,-0.0540529,0.0140454,807.896,-8.44442e-13,4.38569e-13,1.52212e-08,807.876,-807.916,-7.95146e-10,1.5221e-08,-1.52214e-08,-1.4981e-20
0.599975,0.59,0.0917774,0.01,-27.7599,174.05,13.2967,-13.3354,794.207,2.50686e-10,-2.51078e-10,1.49633e-08,794.3,-794.338,3.38218e-07,1.49652e-08,-1.49656e-08,6.37222e-18
0.609975,0.59,0.0990151,0.01,-22.9951,174.05,25.9748,-26.0121,780.541,4.89542e-10,-4.8992e-10,1.47058e-08,780.955,-780.992,6.30275e-07,1.47138e-08,-1.47142e-08,1.18748e-17
0.619975,0.59,0.105921,0.01,-18.2328,174.05,38.0036,-38.0396,766.918,7.16166e-10,-7.16531e-10,1.44492e-08,767.842,-767.878,8.8456e-07,1.44667e-08,-1.44671e-08,1.66656e-17
0.629975,0.59,0.11329,0.01,-13.4744,174.05,49.4065,-49.4411,753.357,9.30997e-10,-9.31349e-10,1.41937e-08,754.959,-754.993,1.09978e-06,1.4224e-08,-1.42244e-08,2.07206e-17
0.639975,0.59,0.12094,0.01,-8.72087,174.05,60.2065,-60.2398,739.875,1.13447e-09,-1.13481e-09,1.39397e-08,742.305,-742.338,1.27903e-06,1.39856e-08,-1.39859e-08,2.40976e-17
0.649975,0.59,0.127949,0.01,-3.97338,174.05,70.4263,-70.4584,726.488,1.32701e-09,-1.32734e-09,1.36875e-08,729.879,-729.911,1.42385e-06,1.37515e-08,-1.37518e-08,2.68262e-17
0.659975,0.59,0.135334,0.01,0.767069,174.05,80.0884,-80.1192,713.21,1.50905e-09,-1.50936e-09,1.34373e-08,717.679,-717.71,1.53652e-06,1.35216e-08,-1.35219e-08,2.89489e-17
0.669975,0.59,0.143037,0.01,5.49951,174.05,89.2146,-89.2442,700.054,1.68098e-09,-1.68128e-09,1.31894e-08,705.703,-705.733,1.62012e-06,1.3296e-08,-1.32963e-08,3.0524e-17
0.679975,0.59,0.150513,0.01,10.223,174.05,97.8264,-97.8548,687.031,1.84323e-09,-1.84352e-09,1.29441e-08,693.949,-693.977,1.67757e-06,1.30745e-08,-1.30748e-08,3.16065e-17
0.689975,0.59,0.15791,0.01,14.9368,174.05,105.945,-105.972,674.152,1.99618e-09,-1.99646e-09,1.27014e-08,682.414,-682.441,1.71144e-06,1.28572e-08,-1.28575e-08,3.22446e-17
0.699975,0.59,0.165581,0.01,19.6399,174.05,113.59,-113.616,661.424,2.14022e-09,-2.14049e-09,1.24616e-08,671.097,-671.123,1.72381e-06,1.2644e-08,-1.26442e-08,3.24776e-17
0.709975,0.59,0.173489,0.01,24.3317,174.05,120.783,-120.808,648.857,2.27573e-09,-2.27598e-09,1.22249e-08,659.993,-660.018,1.71748e-06,1.24348e-08,-1.2435e-08,3.23583e-17
0.719975,0.59,0.181018,0.01,29.0115,174.05,127.542,-127.566,636.458,2.40307e-09,-2.40331e-09,1.19912e-08,649.102,-649.125,1.69526e-06,1.22296e-08,-1.22298e-08,3.19398e-17
0.729975,0.59,0.188664,0.01,33.6784,174.05,133.886,-133.909,624.231,2.52259e-09,-2.52282e-09,1.17609e-08,638.419,-638.441,1.65888e-06,1.20283e-08,-1.20285e-08,3.12542e-17
0.739975,0.59,0.196522,0.01,38.332,174.05,139.833,-139.855,612.182,2.63464e-09,-2.63486e-09,1.15339e-08,627.941,-627.963,1.61004e-06,1.18309e-08,-1.18311e-08,3.0334e-17
0.749975,0.59,0.204567,0.01,42.9716,174.05,145.402,-145.423,600.317,2.73954e-09,-2.73975e-09,1.13103e-08,617.667,-617.687,1.55071e-06,1.16373e-08,-1.16375e-08,2.92162e-17
0.759975,0.59,0.212285,0.01,47.5967,174.05,150.608,-150.628,588.637,2.83763e-09,-2.83783e-09,1.10903e-08,607.591,-607.611,1.48373e-06,1.14475e-08,-1.14477e-08,2.79543e-17
0.769975,0.59,0.220102,0.01,52.2067,174.05,155.221,-155.747,577.635,2.92675e-09,-2.93208e-09,1.0883e-08,597.932,-598.459,0.121653,1.12677e-08,-1.1273e-08,2.29202e-12
0.779975,0.59,0.22809,0.01,56.8011,174.05,159.281,-161.998,568.209,3.01276e-09,-3.04032e-09,1.07054e-08,589.121,-591.838,0.036438,1.11112e-08,-1.11388e-08,6.86512e-13
0.789975,0.59,0.236231,0.01,61.3796,174.05,162.633,-167.175,560.339,3.08384e-09,-3.12992e-09,1.05571e-08,581.828,-586.37,0.939257,1.09817e-08,-1.10278e-08,1.76962e-11
0.799975,0.59,0.244226,0.01,65.9417,174.05,168.216,-171.273,552.05,3.18258e-09,-3.2136e-09,1.04009e-08,576.028,-579.085,0.898057,1.0866e-08,-1.0897e-08,1.69199e-11
-0.790025,0.6,0.242116,0.01,64.8235,180,153.4,-160.359,-558.764,2.9204e-09,-2.99099e-09,-1.05274e-08,576.889,-583.848,1.1528,1.08992e-08,-1.09698e-08,2.17195e-11
-0.780025,0.6,0.234178,0.01,60.3009,180,147.427,-154.488,-566.84,2.80832e-09,-2.87994e-09,-1.06796e-08,583.067,-590.127,0.491223,1.1016e-08,-1.10876e-08,9.25492e-12
-0.770025,0.6,0.226403,0.01,55.7634,180,143.168,-146.18,-574.775,2.71047e-09,-2.74102e-09,-1.08291e-08,591.197,-594.209,-0.21405,1.11516e-08,-1.11821e-08,-4.03283e-12
-0.760025,0.6,0.218571,0.01,51.2115,180,138.965,-139.505,-583.959,2.62053e-09,-2.626e-09,-1.10021e-08,600.059,-600.598,-0.111975,1.13078e-08,-1.13133e-08,-2.10967e-12
-0.750025,0.6,0.210584,0.01,46.6457,180,133.837,-133.857,-594.785,2.52165e-09,-2.52186e-09,-1.12061e-08,609.649,-609.67,-1.46694e-06,1.14862e-08,-1.14864e-08,-2.7638e-17
-0.740025,0.6,0.202776,0.01,42.0665,180,128.094,-128.115,-606.282,2.41346e-09,-2.41368e-09,-1.14227e-08,619.657,-619.679,-1.50793e-06,1.16748e-08,-1.1675e-08,-2.84103e-17
-0.730025,0.6,0.195168,0.01,37.4745,180,121.977,-121.999,-617.944,2.29821e-09,-2.29844e-09,-1.16424e-08,629.858,-629.881,-1.53762e-06,1.1867e-08,-1.18672e-08,-2.89697e-17
-0.720025,0.6,0.187534,0.01,32.8703,180,115.468,-115.491,-629.767,2.17558e-09,-2.17582e-09,-1.18652e-08,640.255,-640.279,-1.55523e-06,1.20629e-08,-1.20631e-08,-2.93014e-17
-0.710025,0.6,0.179685,0.01,28.2546,180,108.55,-108.574,-641.745,2.04525e-09,-2.0455e-09,-1.20908e-08,650.851,-650.875,-1.55822e-06,1.22625e-08,-1.22628e-08,-2.93579e-17
-0.700025,0.6,0.172059,0.01,23.628,180,101.205,-101.231,-653.872,1.90687e-09,-1.90713e-09,-1.23193e-08,661.647,-661.672,-1.54369e-06,1.24659e-08,-1.24662e-08,-2.90841e-17
-0.690025,0.6,0.164687,0.01,18.9913,180,93.4152,-93.4419,-666.139,1.76011e-09,-1.76038e-09,-1.25505e-08,672.646,-672.673,-1.51054e-06,1.26732e-08,-1.26734e-08,-2.84595e-17
-0.680025,0.6,0.157131,0.01,14.3452,180,85.1612,-85.189,-678.54,1.60461e-09,-1.60489e-09,-1.27841e-08,683.851,-683.879,-1.4567e-06,1.28843e-08,-1.28846e-08,-2.74451e-17
-0.670025,0.6,0.149481,0.01,9.69066,180,76.4237,-76.4526,-691.063,1.43999e-09,-1.44029e-09,-1.302e-08,695.264,-695.292,-1.3791e-06,1.30993e-08,-1.30996e-08,-2.59831e-17
-0.660025,0.6,0.142124,0.01,5.02846,180,67.1829,-67.213,-703.7,1.2659e-09,-1.2662e-09,-1.32581e-08,706.886,-706.916,-1.27575e-06,1.33183e-08,-1.33186e-08,-2.40358e-17
-0.650025,0.6,0.135107,0.01,0.359535,180,57.4187,-57.4499,-716.437,1.08194e-09,-1.08225e-09,-1.34981e-08,718.72,-718.751,-1.14482e-06,1.35412e-08,-1.35415e-08,-2.1569e-17
-0.640025,0.6,0.127435,0.01,-4.31512,180,47.1103,-47.1428,-729.261,8.87726e-10,-8.88056e-10,-1.37397e-08,730.766,-730.799,-9.83891e-07,1.37682e-08,-1.37685e-08,-1.85371e-17
-0.630025,0.6,0.120098,0.01,-8.99449,180,36.2369,-36.2706,-742.159,6.82871e-10,-6.83213e-10,-1.39827e-08,743.028,-743.061,-7.90251e-07,1.39992e-08,-1.39996e-08,-1.48888e-17
-0.620025,0.6,0.113169,0.01,-13.6775,180,24.7774,-24.8123,-755.115,4.66972e-10,-4.67326e-10,-1.42268e-08,755.504,-755.539,-5.62599e-07,1.42343e-08,-1.42346e-08,-1.05997e-17
-0.610025,0.6,0.105921,0.01,-18.3629,180,12.7101,-12.7463,-768.11,2.39623e-10,-2.3999e-10,-1.44716e-08,768.197,-768.233,-3.00477e-07,1.44734e-08,-1.44738e-08,-5.66116e-18
-0.600025,0.6,0.0986122,0.01,-23.0497,180,0.0136708,-0.0510708,-781.125,4.20175e-13,-7.99596e-13,-1.47169e-08,781.107,-781.144,-1.39903e-09,1.47167e-08,-1.4717e-08,-2.63585e-20
-0.590025,0.6,0.0918124,0.01,-27.7364,180,-13.3337,13.2951,-794.141,-2.51047e-10,2.50655e-10,-1.49621e-08,794.233,-794.272,3.37578e-07,1.4964e-08,-1.49644e-08,6.36017e-18
-0.580025,0.6,0.0849367,0.01,-32.4218,180,-27.3537,27.3138,-807.134,-5.15185e-10,5.14781e-10,-1.52069e-08,807.577,-807.617,6.93857e-07,1.52154e-08,-1.52158e-08,1.30727e-17
-0.570025,0.6,0.0776745,0.01,-37.1044,180,-42.0678,42.0267,-820.08,-7.92402e-10,7.91985e-10,-1.54508e-08,821.136,-821.177,1.09221e-06,1.54709e-08,-1.54713e-08,2.05779e-17
-0.560025,0.6,0.0710803,0.01,-41.7829,180,-57.4974,57.4551,-832.952,-1.0831e-09,1.08267e-09,-1.56933e-08,834.911,-834.953,2.54682e-06,1.57304e-08,-1.57308e-08,4.79835e-17
-0.550025,0.6,0.0644822,0.01,-46.4556,180,-73.6636,73.6201,-845.721,-1.38768e-09,1.38723e-09,-1.59339e-08,848.9,-848.943,-4.25037e-06,1.59939e-08,-1.59944e-08,-8.00795e-17
-0.540025,0.6,0.057303,0.01,-51.1209,180,-90.587,90.5424,-858.358,-1.70652e-09,1.70606e-09,-1.6172e-08,863.1,-863.144,5.33006e-07,1.62615e-08,-1.62619e-08,1.00421e-17
-0.530025,0.6,0.0510814,0.01,-55.7771,180,-108.287,108.241,-870.829,-2.04e-09,2.03953e-09,-1.64069e-08,877.51,-877.556,0.000359614,1.6533e-08,-1.65335e-08,6.77533e-15
-0.520025,0.6,0.0445556,0.01,-60.4226,180,-126.787,126.741,-883.097,-2.38854e-09,2.38808e-09,-1.66381e-08,892.126,-892.172,-0.00311911,1.68084e-08,-1.68088e-08,-5.87658e-14
-0.510025,0.6,0.0375548,0.01,-65.0553,180,-146.072,146.044,-895.104,-2.75195e-09,2.75167e-09,-1.68643e-08,906.928,-906.956,0.0105476,1.70872e-08,-1.70875e-08,1.98723e-13
-0.500025,0.6,0.0321797,0.01,-69.6734,180,-165.579,166.814,-905.673,-3.12498e-09,3.1375e-09,-1.70634e-08,921.413,-920.179,-0.198963,1.73546e-08,-1.73421e-08,-3.74859e-12
-0.490025,0.6,0.0251546,0.01,-74.2749,180,-182.961,189.599,-912.833,-3.47596e-09,3.54329e-09,-1.71983e-08,934.965,-928.327,-0.186311,1.75864e-08,-1.75191e-08,-3.51021e-12
-0.480025,0.6,0.0187222,0.01,-78.8577,180,-196.802,215.52,-915.785,-3.78925e-09,3.97913e-09,-1.72539e-08,948.062,-929.345,-0.153951,1.77807e-08,-1.75908e-08,-2.90053e-12
-0.470025,0.6,0.0153527,0.01,-83.4198,180,-212.677,242.282,-920.593,-4.13567e-09,4.43601e-09,-1.73445e-08,963.084,-933.479,-0.468428,1.80163e-08,-1.7716e-08,-8.82546e-12
-0.460025,0.6,0.00627686,0.01,-87.9569,180,-237.298,256.505,-923.151,-4.55435e-09,4.7492e-09,-1.73927e-08,965.201,-945.994,1.18495,1.81014e-08,-1.79066e-08,2.23252e-11
0.459975,0.6,0.00623879,0.01,-87.9794,180,-237.245,256.663,923.085,-4.55425e-09,4.75125e-09,1.73915e-08,965.257,-945.838,-1.21755,1.81016e-08,-1.79046e-08,-2.29394e-11
0.469975,0.6,0.0153048,0.01,-83.4424,180,-212.707,242.47,920.589,-4.13693e-09,4.43888e-09,1.73444e-08,963.186,-933.423,0.478296,1.80176e-08,-1.77156e-08,9.01136e-12
0.479975,0.6,0.018698,0.01,-78.8804,180,-196.892,215.656,915.815,-3.79114e-09,3.9815e-09,1.72545e-08,948.14,-929.376,0.162674,1.77819e-08,-1.75916e-08,3.06487e-12
0.489975,0.6,0.0251168,0.01,-74.2978,180,-183.066,189.709,912.883,-3.47795e-09,3.54534e-09,1.71992e-08,935.038,-928.394,0.188751,1.75878e-08,-1.75204e-08,3.55618e-12
0.499975,0.6,0.0321585,0.01,-69.6964,180,-165.683,166.919,905.73,-3.12693e-09,3.13947e-09,1.70645e-08,921.489,-920.252,0.201169,1.7356e-08,-1.73435e-08,3.79013e-12
0.509975,0.6,0.0375234,0.01,-65.0783,180,-146.169,146.141,895.163,-2.75379e-09,2.75351e-09,1.68654e-08,907.002,-907.03,-0.0109003,1.70886e-08,-1.70889e-08,-2.05368e-13
0.519975,0.6,0.0445179,0.01,-60.4456,180,-126.881,126.835,883.157,-2.39032e-09,2.38985e-09,1.66392e-08,892.199,-892.245,0.00316014,1.68097e-08,-1.68102e-08,5.95388e-14
0.529975,0.6,0.0510535,0.01,-55.8003,180,-108.377,108.331,870.89,-2.04169e-09,2.04122e-09,1.64081e-08,877.582,-877.628,-0.000360352,1.65344e-08,-1.65348e-08,-6.78924e-15
0.539975,0.6,0.0572694,0.01,-51.1441,180,-90.673,90.6285,858.42,-1.70814e-09,1.70769e-09,1.61731e-08,863.171,-863.216,-1.1622e-06,1.62628e-08,-1.62633e-08,-2.18965e-17
0.549975,0.6,0.0644447,0.01,-46.4788,180,-73.7459,73.7024,845.784,-1.38923e-09,1.38878e-09,1.59351e-08,848.97,-849.013,4.36137e-06,1.59953e-08,-1.59957e-08,8.21707e-17
0.559975,0.6,0.0710495,0.01,-41.8061,180,-57.576,57.5336,833.015,-1.08458e-09,1.08415e-09,1.56945e-08,834.98,-835.022,-2.55507e-06,1.57317e-08,-1.57321e-08,-4.81389e-17
0.569975,0.6,0.0776399,0.01,-37.1277,180,-42.1427,42.1016,820.144,-7.93814e-10,7.93397e-10,1.5452e-08,821.204,-821.245,-1.09562e-06,1.54721e-08,-1.54726e-08,-2.06422e-17
0.579975,0.6,0.0848993,0.01,-32.4451,180,-27.4251,27.3852,807.198,-5.16531e-10,5.16127e-10,1.52081e-08,807.644,-807.683,-6.95801e-07,1.52166e-08,-1.52171e-08,-1.31093e-17
0.589975,0.6,0.0917801,0.01,-27.7597,180,-13.4017,13.3631,794.206,-2.52328e-10,2.51936e-10,1.49633e-08,794.299,-794.338,-3.39205e-07,1.49652e-08,-1.49656e-08,-6.39082e-18
0.599975,0.6,0.098577,0.01,-23.073,180,-0.051078,0.0136718,781.19,-7.99703e-13,4.20219e-13,1.47181e-08,781.171,-781.209,-2.1886e-10,1.47179e-08,-1.47183e-08,-4.12346e-21
0.609975,0.6,0.105883,0.01,-18.3862,180,12.6486,-12.6847,768.174,2.38464e-10,-2.3883e-10,1.44728e-08,768.261,-768.297,2.98931e-07,1.44746e-08,-1.4475e-08,5.63203e-18
0.619975,0.6,0.113136,0.01,-13.7008,180,24.7189,-24.7538,755.179,4.6587e-10,-4.66224e-10,1.4228e-08,755.567,-755.602,5.61606e-07,1.42355e-08,-1.42358e-08,1.0581e-17
0.629975,0.6,0.120062,0.01,-9.01777,180,36.1814,-36.2151,742.224,6.81825e-10,-6.82167e-10,1.39839e-08,743.089,-743.123,7.88859e-07,1.40004e-08,-1.40007e-08,1.48626e-17
0.639975,0.6,0.127398,0.01,-4.33838,180,47.0576,-47.0901,729.325,8.86734e-10,-8.87064e-10,1.37409e-08,730.827,-730.859,9.82588e-07,1.37693e-08,-1.37697e-08,1.85125e-17
0.649975,0.6,0.135073,0.01,0.336301,180,57.3688,-57.4,716.5,1.081e-09,-1.08131e-09,1.34993e-08,718.779,-718.81,1.14389e-06,1.35423e-08,-1.35427e-08,2.15516e-17
0.659975,0.6,0.142088,0.01,5.00525,180,67.1357,-67.1658,703.763,1.26501e-09,-1.26531e-09,1.32593e-08,706.944,-706.974,1.27484e-06,1.33194e-08,-1.33197e-08,2.40186e-17
0.669975,0.6,0.149444,0.01,9.66749,180,76.379,-76.4079,691.126,1.43915e-09,-1.43944e-09,1.30212e-08,695.321,-695.35,1.3782e-06,1.31004e-08,-1.31007e-08,2.5966e-17
0.679975,0.6,0.157092,0.01,14.3221,180,85.119,-85.1468,678.602,1.60381e-09,-1.60409e-09,1.27853e-08,683.907,-683.935,1.4561e-06,1.28853e-08,-1.28856e-08,2.74338e-17
0.689975,0.6,0.164651,0.01,18.9682,180,93.3754,-93.402,666.201,1.75936e-09,-1.75963e-09,1.25516e-08,672.701,-672.728,1.51056e-06,1.26742e-08,-1.26745e-08,2.84599e-17
0.699975,0.6,0.172022,0.01,23.605,180,101.168,-101.193,653.932,1.90617e-09,-1.90643e-09,1.23205e-08,661.701,-661.726,1.54359e-06,1.24669e-08,-1.24672e-08,2.90821e-17
0.709975,0.6,0.179647,0.01,28.2316,180,108.514,-108.539,641.805,2.04458e-09,-2.04483e-09,1.2092e-08,650.904,-650.928,1.55767e-06,1.22635e-08,-1.22638e-08,2.93474e-17
0.719975,0.6,0.187495,0.01,32.8474,180,115.434,-115.458,629.826,2.17495e-09,-2.17519e-09,1.18663e-08,640.308,-640.331,1.55532e-06,1.20639e-08,-1.20641e-08,2.93031e-17
0.729975,0.6,0.195131,0.01,37.4517,180,121.945,-121.968,618.002,2.29762e-09,-2.29784e-09,1.16435e-08,629.91,-629.932,1.53847e-06,1.1868e-08,-1.18682e-08,2.89857e-17
0.739975,0.6,0.202738,0.01,42.0437,180,128.064,-128.086,606.339,2.4129e-09,-2.41312e-09,1.14238e-08,619.708,-619.729,1.50856e-06,1.16757e-08,-1.1676e-08,2.84222e-17
0.749975,0.6,0.210545,0.01,46.623,180,133.809,-133.83,594.842,2.52113e-09,-2.52134e-09,1.12072e-08,609.698,-609.719,1.46714e-06,1.14872e-08,-1.14874e-08,2.76418e-17
0.759975,0.6,0.218531,0.01,51.1889,180,138.94,-139.479,584.015,2.62005e-09,-2.62552e-09,1.10032e-08,600.107,-600.647,0.111962,1.13087e-08,-1.13142e-08,2.10942e-12
0.769975,0.6,0.226364,0.01,55.7408,180,143.144,-146.156,574.83,2.71001e-09,-2.74056e-09,1.08301e-08,591.245,-594.257,0.214062,1.11525e-08,-1.1183e-08,4.03305e-12
0.779975,0.6,0.234138,0.01,60.2784,180,147.404,-154.465,566.895,2.80788e-09,-2.87952e-09,1.06806e-08,583.113,-590.175,-0.491155,1.10169e-08,-1.10885e-08,-9.25364e-12
0.789975,0.6,0.242076,0.01,64.801,180,153.378,-160.338,558.819,2.91998e-09,-2.99059e-09,1.05285e-08,576.935,-583.895,-1.1526,1.09e-08,-1.09707e-08,-2.17156e-11
-0.780025,0.61,0.240489,0.01,63.7928,186.05,132.657,-147.264,-566.466,2.56284e-09,-2.71102e-09,-1.06726e-08,576.197,-590.804,-0.701388,1.09194e-08,-1.10676e-08,-1.32146e-11
-0.770025,0.61,0.232557,0.01,59.3117,186.05,131.018,-138.826,-573.253,2.5024e-09,-2.58162e-09,-1.08004e-08,585.012,-592.821,0.159187,1.10559e-08,-1.11351e-08,2.99917e-12
-0.760025,0.61,0.224622,0.01,54.8174,186.05,127.974,-129.844,-579.749,2.41923e-09,-2.43821e-09,-1.09228e-08,592.973,-594.843,0.387502,1.11801e-08,-1.11991e-08,7.30076e-12
-0.750025,0.61,0.216858,0.01,50.3102,186.05,122.604,-122.629,-589.145,2.31004e-09,-2.31029e-09,-1.10998e-08,601.757,-601.782,0.00297645,1.13376e-08,-1.13378e-08,5.60781e-14
-0.740025,0.61,0.209284,0.01,45.7908,186.05,116.701,-116.722,-600.275,2.1988e-09,-2.19901e-09,-1.13095e-08,611.505,-611.526,-1.39739e-06,1.15212e-08,-1.15214e-08,-2.63277e-17
-0.730025,0.61,0.201559,0.01,41.2597,186.05,110.428,-110.45,-611.557,2.08063e-09,-2.08085e-09,-1.15221e-08,621.438,-621.46,-1.41013e-06,1.17083e-08,-1.17086e-08,-2.65677e-17
-0.720025,0.61,0.193761,0.01,36.7175,186.05,103.77,-103.793,-622.982,1.95518e-09,-1.95542e-09,-1.17373e-08,631.556,-631.579,-1.4101e-06,1.1899e-08,-1.18992e-08,-2.65671e-17
-0.710025,0.61,0.186175,0.01,32.165,186.05,96.7087,-96.7328,-634.546,1.82215e-09,-1.8224e-09,-1.19552e-08,641.863,-641.887,-1.39487e-06,1.20932e-08,-1.20934e-08,-2.62801e-17
-0.700025,0.61,0.178826,0.01,27.6028,186.05,89.2281,-89.2532,-646.24,1.68122e-09,-1.68147e-09,-1.21755e-08,652.361,-652.386,-1.36214e-06,1.2291e-08,-1.22912e-08,-2.56635e-17
-0.690025,0.61,0.1712,0.01,23.0317,186.05,81.3104,-81.3366,-658.058,1.53205e-09,-1.53231e-09,-1.23982e-08,663.051,-663.077,-1.31091e-06,1.24924e-08,-1.24926e-08,-2.46984e-17
-0.680025,0.61,0.163597,0.01,18.4525,186.05,72.9378,-72.965,-669.989,1.37431e-09,-1.37458e-09,-1.2623e-08,673.936,-673.963,-1.23929e-06,1.26975e-08,-1.26977e-08,-2.3349e-17
-0.670025,0.61,0.156264,0.01,13.8659,186.05,64.092,-64.1202,-682.025,1.20765e-09,-1.20794e-09,-1.28497e-08,685.017,-685.045,-1.14491e-06,1.29062e-08,-1.29065e-08,-2.15707e-17
-0.660025,0.61,0.149173,0.01,9.27301,186.05,54.7542,-54.7836,-694.154,1.03173e-09,-1.03203e-09,-1.30783e-08,696.297,-696.326,-1.02564e-06,1.31188e-08,-1.31191e-08,-1.93237e-17
-0.650025,0.61,0.14155,0.01,4.67461,186.05,44.9056,-44.9361,-706.364,8.4618e-10,-8.46489e-10,-1.33083e-08,707.776,-707.806,-8.80009e-07,1.3335e-08,-1.33353e-08,-1.65799e-17
-0.640025,0.61,0.134239,0.01,0.0717153,186.05,34.5268,-34.5584,-718.642,6.50643e-10,-6.50963e-10,-1.35396e-08,719.455,-719.487,-7.06307e-07,1.35551e-08,-1.35554e-08,-1.33072e-17
-0.630025,0.61,0.127295,0.01,-4.53463,186.05,23.5984,-23.6311,-730.972,4.44749e-10,-4.45081e-10,-1.37719e-08,731.337,-731.37,-5.02339e-07,1.3779e-08,-1.37793e-08,-9.46435e-18
-0.620025,0.61,0.120035,0.01,-9.14333,186.05,12.1005,-12.1344,-743.339,2.28128e-10,-2.28471e-10,-1.40049e-08,743.421,-743.455,-2.67307e-07,1.40066e-08,-1.4007e-08,-5.03621e-18
-0.610025,0.61,0.112754,0.01,-13.7532,186.05,0.0133012,-0.0483084,-755.725,4.02808e-13,-7.57954e-13,-1.42383e-08,755.708,-755.743,-9.98665e-10,1.42381e-08,-1.42385e-08,-1.88154e-20
-0.600025,0.61,0.105918,0.01,-18.3631,186.05,-12.6832,12.647,-768.111,-2.38801e-10,2.38434e-10,-1.44717e-08,768.198,-768.234,2.97958e-07,1.44734e-08,-1.44738e-08,5.6137e-18
-0.590025,0.61,0.0990502,0.01,-22.9718,186.05,-26.0088,25.9715,-780.476,-4.8986e-10,4.89481e-10,-1.47046e-08,780.89,-780.928,6.29588e-07,1.47126e-08,-1.4713e-08,1.18618e-17
-0.580025,0.61,0.0918151,0.01,-27.5778,186.05,-39.9836,39.9452,-792.798,-7.53147e-10,7.52758e-10,-1.49368e-08,793.786,-793.824,9.92746e-07,1.49555e-08,-1.49559e-08,1.87039e-17
-0.570025,0.61,0.0851416,0.01,-32.1798,186.05,-54.6272,54.5876,-805.052,-1.02904e-09,1.02863e-09,-1.51676e-08,806.882,-806.922,1.40281e-06,1.52023e-08,-1.52027e-08,2.64297e-17
-0.560025,0.61,0.0785951,0.01,-36.7764,186.05,-69.9589,69.9182,-817.212,-1.31789e-09,1.31748e-09,-1.53968e-08,820.179,-820.22,1.72204e-06,1.54528e-08,-1.54532e-08,3.24443e-17
-0.550025,0.61,0.0714344,0.01,-41.3659,186.05,-85.9978,85.9561,-829.25,-1.62007e-09,1.61964e-09,-1.56236e-08,833.674,-833.716,2.02872e-06,1.57071e-08,-1.57075e-08,3.82223e-17
-0.540025,0.61,0.0650273,0.01,-45.9469,186.05,-102.762,102.72,-841.136,-1.93591e-09,1.93548e-09,-1.58475e-08,847.366,-847.408,8.67459e-06,1.5965e-08,-1.59655e-08,1.63434e-16
-0.530025,0.61,0.0586685,0.01,-50.5176,186.05,-120.27,120.227,-852.837,-2.26577e-09,2.26533e-09,-1.60679e-08,861.251,-861.294,-3.51882e-05,1.62266e-08,-1.62271e-08,-6.62967e-16
-0.520025,0.61,0.0516446,0.01,-55.0762,186.05,-138.538,138.494,-864.318,-2.60995e-09,2.6095e-09,-1.62843e-08,875.325,-875.369,4.0137e-05,1.64918e-08,-1.64923e-08,7.56204e-16
-0.510025,0.61,0.045742,0.01,-59.621,186.05,-157.584,157.535,-875.548,-2.96876e-09,2.96826e-09,-1.64958e-08,889.588,-889.637,0.00156533,1.67606e-08,-1.67611e-08,2.94917e-14
-0.500025,0.61,0.0392695,0.01,-64.15,186.05,-177.428,177.393,-886.465,-3.34269e-09,3.34234e-09,-1.67015e-08,904.027,-904.061,-0.0165109,1.70325e-08,-1.70329e-08,-3.11075e-13
-0.490025,0.61,0.0325555,0.01,-68.6613,186.05,-197.432,198.422,-896.065,-3.72404e-09,3.73408e-09,-1.68824e-08,918.158,-917.169,-0.111099,1.72943e-08,-1.72843e-08,-2.09317e-12
-0.480025,0.61,0.027886,0.01,-73.1528,186.05,-215.801,220.401,-903.483,-4.08581e-09,4.13248e-09,-1.70221e-08,931.735,-927.135,0.457246,1.75344e-08,-1.74878e-08,8.61478e-12
-0.470025,0.61,0.0204018,0.01,-77.6223,186.05,-235.641,243.459,-910.417,-4.47361e-09,4.55292e-09,-1.71528e-08,945.314,-937.496,0.452604,1.77763e-08,-1.7697e-08,8.52733e-12
-0.460025,0.61,0.0148299,0.01,-82.0676,186.05,-253.782,267.185,-912.839,-4.83967e-09,4.97564e-09,-1.71984e-08,955.978,-942.575,0.511602,1.79529e-08,-1.78169e-08,9.63889e-12
-0.450025,0.61,0.0110471,0.01,-86.487,186.05,-268.496,284.81,-921.132,-5.12956e-09,5.29506e-09,-1.73547e-08,969.908,-953.594,7.50467,1.82027e-08,-1.80372e-08,1.41392e-10
0.449975,0.61,0.0109983,0.01,-86.5089,186.05,-268.52,284.903,921.159,-5.13031e-09,5.29651e-09,1.73552e-08,969.984,-953.602,-7.55836,1.82038e-08,-1.80376e-08,-1.42404e-10
0.459975,0.61,0.0148138,0.01,-82.0896,186.05,-253.8,267.323,912.843,-4.84053e-09,4.97772e-09,1.71985e-08,956.063,-942.54,-0.536445,1.7954e-08,-1.78168e-08,-1.01069e-11
0.469975,0.61,0.0203657,0.01,-77.6444,186.05,-235.724,243.583,910.439,-4.47535e-09,4.55508e-09,1.71532e-08,945.382,-937.522,-0.454343,1.77774e-08,-1.76976e-08,-8.56009e-12
0.479975,0.61,0.0278698,0.01,-73.1751,186.05,-215.901,220.517,903.523,-4.08777e-09,4.1346e-09,1.70229e-08,931.807,-927.191,-0.455,1.75357e-08,-1.74889e-08,-8.57247e-12
0.489975,0.61,0.0325263,0.01,-68.6837,186.05,-197.534,198.526,896.115,-3.72597e-09,3.73603e-09,1.68833e-08,918.23,-917.239,0.1101,1.72957e-08,-1.72856e-08,2.07435e-12
0.499975,0.61,0.0392326,0.01,-64.1725,186.05,-177.528,177.494,886.519,-3.34458e-09,3.34424e-09,1.67025e-08,904.099,-904.133,0.0166649,1.70339e-08,-1.70342e-08,3.13976e-13
0.509975,0.61,0.0457162,0.01,-59.6436,186.05,-157.68,157.632,875.604,-2.97058e-09,2.97009e-09,1.64969e-08,889.66,-889.708,-0.00156054,1.67619e-08,-1.67624e-08,-2.94015e-14
0.519975,0.61,0.0516121,0.01,-55.0988,186.05,-138.631,138.587,864.375,-2.6117e-09,2.61125e-09,1.62853e-08,875.396,-875.44,-4.41954e-05,1.64932e-08,-1.64936e-08,-8.32667e-16
0.529975,0.61,0.0586314,0.01,-50.5403,186.05,-120.359,120.315,852.894,-2.26745e-09,2.267e-09,1.6069e-08,861.32,-861.364,3.58378e-05,1.6228e-08,-1.62284e-08,6.75205e-16
0.539975,0.61,0.0649977,0.01,-45.9696,186.05,-102.847,102.805,841.194,-1.93752e-09,1.93709e-09,1.58486e-08,847.434,-847.477,-8.71113e-06,1.59663e-08,-1.59668e-08,-1.64123e-16
0.549975,0.61,0.0714005,0.01,-41.3887,186.05,-86.0793,86.0376,829.31,-1.6216e-09,1.62118e-09,1.56247e-08,833.742,-833.784,-2.03842e-06,1.57084e-08,-1.57088e-08,-3.84051e-17
0.559975,0.61,0.078558,0.01,-36.7992,186.05,-70.0369,69.9962,817.272,-1.31936e-09,1.31895e-09,1.53979e-08,820.246,-820.286,-1.72241e-06,1.54541e-08,-1.54545e-08,-3.24512e-17
0.569975,0.61,0.0851101,0.01,-32.2027,186.05,-54.7017,54.6621,805.113,-1.03044e-09,1.03004e-09,1.51688e-08,806.948,-806.987,-1.40483e-06,1.52035e-08,-1.52039e-08,-2.64677e-17
0.579975,0.61,0.0917805,0.01,-27.6007,186.05,-40.0548,40.0163,792.859,-7.54488e-10,7.54098e-10,1.49379e-08,793.85,-793.889,-9.9487e-07,1.49568e-08,-1.49572e-08,-1.87439e-17
0.589975,0.61,0.099013,0.01,-22.9947,186.05,-26.0767,26.0394,780.538,-4.91138e-10,4.9076e-10,1.47058e-08,780.954,-780.991,-6.31563e-07,1.47138e-08,-1.47142e-08,-1.1899e-17
0.599975,0.61,0.105886,0.01,-18.3861,186.05,-12.7479,12.7117,768.173,-2.4002e-10,2.39653e-10,1.44728e-08,768.26,-768.296,-2.99932e-07,1.44746e-08,-1.4475e-08,-5.6509e-18
0.609975,0.61,0.112719,0.01,-13.7762,186.05,-0.0483151,0.0133021,755.787,-7.58054e-13,4.0285e-13,1.42395e-08,755.769,-755.804,-1.0001e-09,1.42393e-08,-1.42396e-08,-1.88424e-20
0.619975,0.61,0.119998,0.01,-9.16625,186.05,12.0419,-12.0757,743.401,2.27023e-10,-2.27366e-10,1.40061e-08,743.481,-743.515,2.6589e-07,1.40078e-08,-1.40081e-08,5.00953e-18
0.629975,0.61,0.127261,0.01,-4.55754,186.05,23.5426,-23.5753,731.033,4.43699e-10,-4.44031e-10,1.37731e-08,731.396,-731.429,5.01043e-07,1.37801e-08,-1.37804e-08,9.43994e-18
0.639975,0.61,0.134204,0.01,0.0488154,186.05,34.4739,-34.5055,718.703,6.49645e-10,-6.49965e-10,1.35408e-08,719.514,-719.546,7.0533e-07,1.35562e-08,-1.35565e-08,1.32888e-17
0.649975,0.61,0.141513,0.01,4.65173,186.05,44.8553,-44.8858,706.425,8.45233e-10,-8.45542e-10,1.33095e-08,707.833,-707.864,8.7942e-07,1.33361e-08,-1.33364e-08,1.65688e-17
0.659975,0.61,0.149135,0.01,9.25016,186.05,54.7065,-54.7359,694.215,1.03083e-09,-1.03113e-09,1.30794e-08,696.353,-696.383,1.02497e-06,1.31198e-08,-1.31201e-08,1.93111e-17
0.669975,0.61,0.156228,0.01,13.8431,186.05,64.0468,-64.075,682.085,1.2068e-09,-1.20709e-09,1.28509e-08,685.073,-685.101,1.14438e-06,1.29073e-08,-1.29076e-08,2.15609e-17
0.679975,0.61,0.16356,0.01,18.4297,186.05,72.895,-72.9222,670.049,1.3735e-09,-1.37378e-09,1.26241e-08,673.99,-674.018,1.23919e-06,1.26985e-08,-1.26988e-08,2.3347e-17
0.689975,0.61,0.171161,0.01,23.009,186.05,81.27,-81.2961,658.117,1.53129e-09,-1.53155e-09,1.23993e-08,663.104,-663.131,1.3111e-06,1.24934e-08,-1.24937e-08,2.47018e-17
0.699975,0.61,0.17879,0.01,27.5801,186.05,89.1898,-89.215,646.299,1.6805e-09,-1.68075e-09,1.21766e-08,652.413,-652.438,1.36219e-06,1.2292e-08,-1.22922e-08,2.56645e-17
0.709975,0.61,0.186138,0.01,32.1423,186.05,96.6726,-96.6967,634.604,1.82147e-09,-1.82172e-09,1.19563e-08,641.915,-641.939,1.39431e-06,1.20941e-08,-1.20944e-08,2.62696e-17
0.719975,0.61,0.193723,0.01,36.6949,186.05,103.736,-103.759,623.04,1.95454e-09,-1.95477e-09,1.17384e-08,631.607,-631.63,1.40952e-06,1.18999e-08,-1.19002e-08,2.65562e-17
0.729975,0.61,0.20152,0.01,41.2371,186.05,110.396,-110.418,611.613,2.08002e-09,-2.08025e-09,1.15231e-08,621.487,-621.51,1.41005e-06,1.17093e-08,-1.17095e-08,2.65662e-17
0.739975,0.61,0.209247,0.01,45.7683,186.05,116.67,-116.691,600.331,2.19823e-09,-2.19844e-09,1.13106e-08,611.554,-611.575,1.39729e-06,1.15221e-08,-1.15223e-08,2.63257e-17
0.749975,0.61,0.21682,0.01,50.2877,186.05,122.576,-122.601,589.2,2.30951e-09,-2.30976e-09,1.11009e-08,601.806,-601.83,-0.00297647,1.13385e-08,-1.13387e-08,-5.60784e-14
0.759975,0.61,0.224583,0.01,54.795,186.05,127.947,-129.818,579.804,2.41873e-09,-2.43771e-09,1.09238e-08,593.02,-594.89,-0.387597,1.1181e-08,-1.11999e-08,-7.30256e-12
0.769975,0.61,0.232517,0.01,59.2894,186.05,130.992,-138.801,573.307,2.50192e-09,-2.58114e-09,1.08014e-08,585.059,-592.868,-0.159278,1.10568e-08,-1.1136e-08,-3.00089e-12
0.779975,0.61,0.240451,0.01,63.7705,186.05,132.632,-147.24,566.52,2.56237e-09,-2.71058e-09,1.06736e-08,576.242,-590.851,0.701691,1.09203e-08,-1.10685e-08,1.32203e-11
-0.770025,0.62,0.238672,0.01,62.8734,192.2,120.013,-128.76,-569.482,2.29914e-09,-2.38787e-09,-1.07294e-08,578.535,-587.281,0.00913994,1.0938e-08,-1.10267e-08,1.72202e-13
-0.760025,0.62,0.230948,0.01,58.436,192.2,116.473,-119.214,-575.132,2.20633e-09,-2.23414e-09,-1.08358e-08,585.71,-588.452,-0.0811249,1.1047e-08,-1.10749e-08,-1.52844e-12
-0.750025,0.62,0.223404,0.01,53.9869,192.2,111.421,-111.871,-583.846,2.10119e-09,-2.10576e-09,-1.1e-08,594.2,-594.65,-0.18014,1.1197e-08,-1.12016e-08,-3.39395e-12
-0.740025,0.62,0.215599,0.01,49.5267,192.2,105.677,-105.698,-594.119,1.99111e-09,-1.99132e-09,-1.11935e-08,603.435,-603.456,-1.27982e-06,1.13692e-08,-1.13694e-08,-2.41125e-17
-0.730025,0.62,0.207847,0.01,45.0558,192.2,99.2656,-99.2875,-605.025,1.87032e-09,-1.87054e-09,-1.1399e-08,613.105,-613.127,-1.27688e-06,1.15514e-08,-1.15516e-08,-2.40571e-17
-0.720025,0.62,0.200294,0.01,40.5751,192.2,92.4743,-92.4971,-616.06,1.74237e-09,-1.7426e-09,-1.16069e-08,622.952,-622.975,-1.26108e-06,1.17369e-08,-1.17371e-08,-2.37595e-17
-0.710025,0.62,0.192965,0.01,36.0851,192.2,85.2872,-85.3109,-627.216,1.60696e-09,-1.6072e-09,-1.18171e-08,632.978,-633.001,-1.23012e-06,1.19258e-08,-1.1926e-08,-2.31762e-17
-0.700025,0.62,0.18528,0.01,31.5866,192.2,77.6881,-77.7127,-638.486,1.4638e-09,-1.46405e-09,-1.20294e-08,643.184,-643.209,-1.18187e-06,1.21181e-08,-1.21183e-08,-2.22672e-17
-0.690025,0.62,0.177716,0.01,27.0803,192.2,69.6605,-69.6861,-649.862,1.31256e-09,-1.31282e-09,-1.22438e-08,653.574,-653.599,-1.11543e-06,1.23138e-08,-1.23141e-08,-2.10154e-17
-0.680025,0.62,0.170405,0.01,22.567,192.2,61.1876,-61.2142,-661.335,1.15293e-09,-1.15319e-09,-1.24599e-08,664.147,-664.174,-1.02906e-06,1.2513e-08,-1.25133e-08,-1.93882e-17
-0.670025,0.62,0.163246,0.01,18.0476,192.2,52.252,-52.2796,-672.894,9.84578e-10,-9.84858e-10,-1.26777e-08,674.906,-674.934,-9.20731e-07,1.27157e-08,-1.2716e-08,-1.73471e-17
-0.660025,0.62,0.15567,0.01,13.523,192.2,42.8363,-42.8649,-684.527,8.07185e-10,-8.07476e-10,-1.28969e-08,685.853,-685.881,-7.88692e-07,1.2922e-08,-1.29223e-08,-1.48594e-17
-0.650025,0.62,0.148381,0.01,8.99418,192.2,32.9227,-32.9523,-696.223,6.20411e-10,-6.20711e-10,-1.31173e-08,696.987,-697.017,-6.31869e-07,1.31318e-08,-1.31321e-08,-1.19048e-17
-0.640025,0.62,0.141423,0.01,4.46201,192.2,22.493,-22.5237,-707.969,4.23915e-10,-4.24226e-10,-1.33385e-08,708.311,-708.342,-4.49059e-07,1.33451e-08,-1.33454e-08,-8.46053e-18
-0.630025,0.62,0.134155,0.01,-0.0723947,192.2,11.5292,-11.561,-719.747,2.17355e-10,-2.17678e-10,-1.35605e-08,719.824,-719.856,-2.38719e-07,1.3562e-08,-1.35624e-08,-4.4976e-18
-0.620025,0.62,0.126896,0.01,-4.60795,192.2,0.0129368,-0.0457396,-731.544,3.86358e-13,-7.1914e-13,-1.37827e-08,731.528,-731.56,-3.85638e-10,1.37825e-08,-1.37829e-08,-7.26563e-21
-0.610025,0.62,0.120033,0.01,-9.14351,192.2,-12.0743,12.0404,-743.34,-2.27339e-10,2.26995e-10,-1.4005e-08,743.421,-743.455,2.66205e-07,1.40066e-08,-1.4007e-08,5.01546e-18
-0.600025,0.62,0.113171,0.01,-13.6779,192.2,-24.7508,24.7158,-755.118,-4.66167e-10,4.65813e-10,-1.42269e-08,755.505,-755.54,5.61156e-07,1.42343e-08,-1.42347e-08,1.05725e-17
-0.590025,0.62,0.105956,0.01,-18.2097,192.2,-38.0349,37.9989,-766.855,-7.16443e-10,7.16078e-10,-1.4448e-08,767.779,-767.815,8.84167e-07,1.44656e-08,-1.44659e-08,1.66582e-17
-0.580025,0.62,0.0992259,0.01,-22.7378,192.2,-51.9448,51.9078,-778.53,-9.78509e-10,9.78133e-10,-1.4668e-08,780.241,-780.278,1.23412e-06,1.47004e-08,-1.47007e-08,2.32516e-17
-0.570025,0.62,0.0927169,0.01,-27.2606,192.2,-66.4983,66.4603,-790.118,-1.2527e-09,1.25232e-09,-1.48863e-08,792.891,-792.929,1.60566e-06,1.49387e-08,-1.49391e-08,3.02516e-17
-0.560025,0.62,0.0855693,0.01,-31.7769,192.2,-81.7131,81.6741,-801.595,-1.53935e-09,1.53896e-09,-1.51025e-08,805.727,-805.766,1.99388e-06,1.51805e-08,-1.51809e-08,3.75659e-17
-0.550025,0.62,0.0790429,0.01,-36.2849,192.2,-97.6062,97.5662,-812.931,-1.83878e-09,1.83838e-09,-1.53161e-08,818.747,-818.787,2.51048e-06,1.54258e-08,-1.54263e-08,4.72988e-17
-0.540025,0.62,0.0727928,0.01,-40.7832,192.2,-114.194,114.153,-824.098,-2.1513e-09,2.15089e-09,-1.55265e-08,831.949,-831.99,2.38104e-06,1.56746e-08,-1.5675e-08,4.48602e-17
-0.530025,0.62,0.0657568,0.01,-45.27,192.2,-131.492,131.451,-835.064,-2.47721e-09,2.47679e-09,-1.57331e-08,845.329,-845.371,2.20632e-06,1.59267e-08,-1.59271e-08,4.15683e-17
-0.520025,0.62,0.0595745,0.01,-49.7437,192.2,-149.516,149.473,-845.796,-2.81678e-09,2.81635e-09,-1.59353e-08,858.884,-858.927,3.3265e-05,1.61821e-08,-1.61825e-08,6.26732e-16
-0.510025,0.62,0.0533988,0.01,-54.2024,192.2,-168.279,168.236,-856.257,-3.17029e-09,3.16985e-09,-1.61324e-08,872.611,-872.654,-0.000204725,1.64407e-08,-1.64411e-08,-3.85713e-15
-0.500025,0.62,0.0465747,0.01,-58.6443,192.2,-187.792,187.749,-866.41,-3.53792e-09,3.53749e-09,-1.63237e-08,886.502,-886.545,0.000553162,1.67024e-08,-1.67028e-08,1.04219e-14
-0.490025,0.62,0.0410727,0.01,-63.0675,192.2,-208.077,208.019,-876.232,-3.92004e-09,3.91945e-09,-1.65087e-08,900.564,-900.621,0.00417906,1.69674e-08,-1.6968e-08,7.8736e-14
-0.480025,0.62,0.0345408,0.01,-67.4698,192.2,-229.118,229.156,-885.555,-4.31689e-09,4.31727e-09,-1.66844e-08,914.738,-914.7,-0.0573282,1.7234e-08,-1.72336e-08,-1.0801e-12
-0.470025,0.62,0.0282269,0.01,-71.8492,192.2,-250.083,251.211,-893.335,-4.71662e-09,4.72806e-09,-1.6831e-08,928.396,-927.268,-0.0749699,1.74866e-08,-1.74752e-08,-1.41248e-12
-0.460025,0.62,0.0241095,0.01,-76.2035,192.2,-268.265,274.038,-898.6,-5.07937e-09,5.13793e-09,-1.69301e-08,941.504,-935.731,0.980459,1.77134e-08,-1.76548e-08,1.84724e-11
-0.450025,0.62,0.0162613,0.01,-80.5303,192.2,-285.479,297.567,-901.401,-5.43115e-09,5.55378e-09,-1.69829e-08,953.411,-941.323,2.15654,1.79103e-08,-1.77876e-08,4.06305e-11
-0.440025,0.62,0.0121488,0.01,-84.8278,192.2,-302.073,328.397,-899.954,-5.80568e-09,6.07273e-09,-1.69557e-08,966.729,-940.405,-0.536776,1.80993e-08,-1.78322e-08,-1.01132e-11
0.439975,0.62,0.0121455,0.01,-84.8491,192.2,-302.194,328.487,900.035,-5.80782e-09,6.07456e-09,1.69572e-08,966.825,-940.531,0.50785,1.81012e-08,-1.78345e-08,9.56819e-12
0.449975,0.62,0.0162282,0.01,-80.5518,192.2,-285.578,297.66,901.448,-5.43298e-09,5.55555e-09,1.69838e-08,953.482,-941.4,-2.17982,1.79116e-08,-1.77891e-08,-4.1069e-11
0.459975,0.62,0.0240665,0.01,-76.2251,192.2,-268.355,274.144,898.633,-5.08112e-09,5.13985e-09,1.69308e-08,941.573,-935.784,-0.993834,1.77146e-08,-1.76559e-08,-1.87244e-11
0.469975,0.62,0.0282008,0.01,-71.8709,192.2,-250.185,251.322,893.371,-4.71857e-09,4.73011e-09,1.68316e-08,928.464,-927.326,0.0732661,1.74878e-08,-1.74763e-08,1.38037e-12
0.479975,0.62,0.0345051,0.01,-67.4916,192.2,-229.224,229.263,885.599,-4.31889e-09,4.31928e-09,1.66852e-08,914.809,-914.77,0.0575038,1.72354e-08,-1.7235e-08,1.0834e-12
0.489975,0.62,0.0410496,0.01,-63.0894,192.2,-208.18,208.122,876.28,-3.92197e-09,3.92139e-09,1.65096e-08,900.634,-900.692,-0.00410344,1.69687e-08,-1.69693e-08,-7.73111e-14
0.499975,0.62,0.0465436,0.01,-58.6664,192.2,-187.891,187.848,866.46,-3.53979e-09,3.53936e-09,1.63246e-08,886.572,-886.614,-0.000575366,1.67037e-08,-1.67041e-08,-1.08402e-14
0.509975,0.62,0.0533624,0.01,-54.2246,192.2,-168.374,168.331,856.308,-3.17208e-09,3.17164e-09,1.61333e-08,872.679,-872.722,0.000207722,1.6442e-08,-1.64424e-08,3.91359e-15
0.519975,0.62,0.0595464,0.01,-49.7659,192.2,-149.607,149.565,845.848,-2.81851e-09,2.81807e-09,1.59363e-08,858.952,-858.995,-3.3384e-05,1.61833e-08,-1.61838e-08,-6.28973e-16
0.529975,0.62,0.0657237,0.01,-45.2923,192.2,-131.58,131.538,835.118,-2.47886e-09,2.47844e-09,1.57341e-08,845.396,-845.438,-2.25085e-06,1.59279e-08,-1.59284e-08,-4.24074e-17
0.539975,0.62,0.0727561,0.01,-40.8055,192.2,-114.278,114.237,824.153,-2.15289e-09,2.15248e-09,1.55275e-08,832.015,-832.056,-2.37319e-06,1.56758e-08,-1.56762e-08,-4.47123e-17
0.549975,0.62,0.0790123,0.01,-36.3073,192.2,-97.6869,97.647,812.987,-1.8403e-09,1.8399e-09,1.53171e-08,818.812,-818.852,-2.51344e-06,1.54271e-08,-1.54275e-08,-4.73547e-17
0.559975,0.62,0.0855352,0.01,-31.7993,192.2,-81.7904,81.7515,801.651,-1.54081e-09,1.54041e-09,1.51036e-08,805.791,-805.83,-1.99583e-06,1.51817e-08,-1.51821e-08,-3.76026e-17
0.569975,0.62,0.0926801,0.01,-27.2831,192.2,-66.5723,66.5343,790.176,-1.2541e-09,1.25371e-09,1.48874e-08,792.954,-792.992,-1.60719e-06,1.49399e-08,-1.49403e-08,-3.02804e-17
0.579975,0.62,0.0991939,0.01,-22.7603,192.2,-52.0155,51.9785,778.588,-9.79842e-10,9.79467e-10,1.4669e-08,780.303,-780.34,-1.23595e-06,1.47015e-08,-1.47019e-08,-2.3286e-17
0.589975,0.62,0.105921,0.01,-18.2323,192.2,-38.1025,38.0665,766.913,-7.17716e-10,7.17352e-10,1.44491e-08,767.84,-767.876,-8.85919e-07,1.44667e-08,-1.44671e-08,-1.66912e-17
0.599975,0.62,0.113134,0.01,-13.7004,192.2,-24.8153,24.7804,755.176,-4.67383e-10,4.67029e-10,1.4228e-08,755.566,-755.601,-5.62714e-07,1.42354e-08,-1.42358e-08,-1.06019e-17
0.609975,0.62,0.12,0.01,-9.16606,192.2,-12.1358,12.102,743.399,-2.28499e-10,2.28155e-10,1.40061e-08,743.481,-743.515,-2.67901e-07,1.40078e-08,-1.40081e-08,-5.04742e-18
0.619975,0.62,0.126861,0.01,-4.63051,192.2,-0.0457458,0.0129377,731.603,-7.19233e-13,3.86397e-13,1.37838e-08,731.586,-731.619,-1.08114e-09,1.37837e-08,-1.3784e-08,-2.03692e-20
0.629975,0.62,0.134118,0.01,-0.0949484,192.2,11.4733,-11.5051,719.806,2.16303e-10,-2.16625e-10,1.35616e-08,719.882,-719.914,2.37653e-07,1.35631e-08,-1.35635e-08,4.47751e-18
0.639975,0.62,0.14139,0.01,4.43947,192.2,22.4398,-22.4705,708.027,4.22913e-10,-4.23224e-10,1.33396e-08,708.368,-708.398,4.48475e-07,1.33462e-08,-1.33465e-08,8.44953e-18
0.649975,0.62,0.148345,0.01,8.97165,192.2,32.8721,-32.9017,696.282,6.19458e-10,-6.19759e-10,1.31184e-08,697.043,-697.073,6.31569e-07,1.31328e-08,-1.31331e-08,1.18991e-17
0.659975,0.62,0.155633,0.01,13.5005,192.2,42.7883,-42.8169,684.585,8.0628e-10,-8.0657e-10,1.2898e-08,685.908,-685.936,7.88023e-07,1.2923e-08,-1.29233e-08,1.48468e-17
0.669975,0.62,0.163208,0.01,18.0252,192.2,52.2064,-52.234,672.951,9.83719e-10,-9.83999e-10,1.26788e-08,674.96,-674.988,9.19967e-07,1.27168e-08,-1.2717e-08,1.73327e-17
0.679975,0.62,0.170369,0.01,22.5446,192.2,61.1443,-61.1709,661.392,1.15211e-09,-1.15238e-09,1.2461e-08,664.2,-664.227,1.02853e-06,1.2514e-08,-1.25143e-08,1.9378e-17
0.689975,0.62,0.177679,0.01,27.0578,192.2,69.6195,-69.6451,649.919,1.31178e-09,-1.31204e-09,1.22449e-08,653.626,-653.651,1.11521e-06,1.23148e-08,-1.23151e-08,2.10112e-17
0.699975,0.62,0.185241,0.01,31.5642,192.2,77.6493,-77.6739,638.543,1.46306e-09,-1.46331e-09,1.20305e-08,643.236,-643.26,1.18196e-06,1.2119e-08,-1.21193e-08,2.22689e-17
0.709975,0.62,0.192929,0.01,36.0627,192.2,85.2504,-85.2741,627.272,1.60627e-09,-1.60651e-09,1.18182e-08,633.028,-633.052,1.22983e-06,1.19267e-08,-1.1927e-08,2.31707e-17
0.719975,0.62,0.200257,0.01,40.5528,192.2,92.4396,-92.4623,616.115,1.74171e-09,-1.74194e-09,1.1608e-08,623.001,-623.024,1.2608e-06,1.17378e-08,-1.1738e-08,2.37542e-17
0.729975,0.62,0.207809,0.01,45.0336,192.2,99.2328,-99.2546,605.08,1.8697e-09,-1.86992e-09,1.14001e-08,613.154,-613.175,1.27705e-06,1.15523e-08,-1.15525e-08,2.40604e-17
0.739975,0.62,0.21556,0.01,49.5044,192.2,105.646,-105.667,594.172,1.99052e-09,-1.99073e-09,1.11946e-08,603.483,-603.504,1.27986e-06,1.13701e-08,-1.13703e-08,2.41132e-17
0.749975,0.62,0.223367,0.01,53.9648,192.2,111.392,-111.842,583.899,2.10064e-09,-2.10521e-09,1.1001e-08,594.246,-594.697,0.180152,1.11979e-08,-1.12025e-08,3.39417e-12
0.759975,0.62,0.23091,0.01,58.4139,192.2,116.445,-119.187,575.185,2.20581e-09,-2.23362e-09,1.08368e-08,585.756,-588.498,0.0812977,1.10479e-08,-1.10757e-08,1.5317e-12
0.769975,0.62,0.238633,0.01,62.8513,192.2,119.986,-128.733,569.535,2.29864e-09,-2.38738e-09,1.07304e-08,578.58,-587.327,-0.00884094,1.09388e-08,-1.10276e-08,-1.66569e-13
-0.770025,0.63,0.245043,0.01,66.4473,198.45,110.818,-113.762,-565.67,2.10068e-09,-2.13055e-09,-1.06576e-08,575.232,-578.177,-1.96567,1.08505e-08,-1.08804e-08,-3.70343e-11
-0.760025,0.63,0.237526,0.01,62.0664,198.45,104.481,-109.212,-573.023,1.98905e-09,-2.03705e-09,-1.07961e-08,580.533,-585.264,-1.27996,1.09581e-08,-1.10061e-08,-2.41153e-11
-0.750025,0.63,0.229651,0.01,57.6748,198.45,100.175,-103.029,-579.889,1.89977e-09,-1.92871e-09,-1.09254e-08,587.296,-590.149,-0.0355897,1.10774e-08,-1.11063e-08,-6.7053e-13
-0.740025,0.63,0.221939,0.01,53.2731,198.45,94.7564,-95.3071,-588.339,1.78766e-09,-1.79325e-09,-1.10846e-08,595.689,-596.24,-0.0780889,1.12255e-08,-1.12311e-08,-1.47124e-12
-0.730025,0.63,0.214417,0.01,48.8619,198.45,88.4831,-88.5046,-598.365,1.66717e-09,-1.66738e-09,-1.12735e-08,604.863,-604.884,-1.14159e-06,1.13961e-08,-1.13963e-08,-2.15082e-17
-0.720025,0.63,0.207104,0.01,44.4419,198.45,81.5746,-81.597,-609.016,1.53701e-09,-1.53724e-09,-1.14742e-08,614.445,-614.467,-1.11188e-06,1.15766e-08,-1.15768e-08,-2.09485e-17
-0.710025,0.63,0.199368,0.01,40.0137,198.45,74.2776,-74.3008,-619.772,1.39953e-09,-1.39977e-09,-1.16769e-08,624.197,-624.22,-1.06714e-06,1.17603e-08,-1.17606e-08,-2.01056e-17
-0.700025,0.63,0.191839,0.01,35.5781,198.45,66.5765,-66.6006,-630.626,1.25445e-09,-1.25469e-09,-1.18814e-08,634.12,-634.144,-1.00541e-06,1.19473e-08,-1.19475e-08,-1.89426e-17
-0.690025,0.63,0.184545,0.01,31.1358,198.45,58.456,-58.481,-641.57,1.10145e-09,-1.10171e-09,-1.20875e-08,644.216,-644.241,-9.2606e-07,1.21375e-08,-1.21378e-08,-1.74475e-17
-0.680025,0.63,0.17733,0.01,26.6877,198.45,49.8999,-49.9259,-652.594,9.40257e-10,-9.4052e-10,-1.22952e-08,654.487,-654.512,-8.27675e-07,1.2331e-08,-1.23313e-08,-1.55939e-17
-0.670025,0.63,0.169793,0.01,22.2346,198.45,40.8922,-40.9191,-663.687,7.7055e-10,-7.70822e-10,-1.25042e-08,664.933,-664.96,-7.08258e-07,1.25278e-08,-1.25281e-08,-1.3344e-17
-0.660025,0.63,0.162522,0.01,17.7774,198.45,31.4163,-31.4442,-674.838,5.92023e-10,-5.92305e-10,-1.27143e-08,675.555,-675.583,-5.66797e-07,1.2728e-08,-1.27283e-08,-1.06788e-17
-0.650025,0.63,0.155555,0.01,13.317,198.45,21.4556,-21.4845,-686.034,4.04362e-10,-4.04654e-10,-1.29253e-08,686.355,-686.384,-4.02391e-07,1.29315e-08,-1.29318e-08,-7.58128e-18
-0.640025,0.63,0.148279,0.01,8.85457,198.45,10.9934,-11.0232,-697.261,2.07251e-10,-2.07553e-10,-1.31368e-08,697.333,-697.363,-2.14002e-07,1.31383e-08,-1.31386e-08,-4.03192e-18
-0.630025,0.63,0.141039,0.01,4.391,198.45,0.0125786,-0.0433478,-708.505,3.70768e-13,-6.82919e-13,-1.33486e-08,708.49,-708.521,-6.21894e-10,1.33485e-08,-1.33488e-08,-1.17168e-20
-0.620025,0.63,0.134153,0.01,-0.0725737,198.45,-11.5037,11.472,-719.749,-2.16599e-10,2.16277e-10,-1.35605e-08,719.825,-719.856,2.37855e-07,1.35621e-08,-1.35624e-08,4.48134e-18
-0.610025,0.63,0.127296,0.01,-4.53499,198.45,-23.5725,23.5398,-730.975,-4.43978e-10,4.43646e-10,-1.3772e-08,731.338,-731.371,5.01289e-07,1.3779e-08,-1.37793e-08,9.44458e-18
-0.600025,0.63,0.120097,0.01,-8.99505,198.45,-36.2107,36.177,-742.164,-6.82084e-10,6.81743e-10,-1.39828e-08,743.029,-743.063,7.88853e-07,1.39992e-08,-1.39996e-08,1.48624e-17
-0.590025,0.63,0.113325,0.01,-13.4515,198.45,-49.4351,49.4004,-753.295,-9.31235e-10,9.30884e-10,-1.41925e-08,754.897,-754.932,1.09974e-06,1.42229e-08,-1.42232e-08,2.07197e-17
-0.580025,0.63,0.106844,0.01,-17.903,198.45,-63.2622,63.2266,-764.348,-1.19174e-09,1.19138e-09,-1.44008e-08,766.942,-766.977,1.43221e-06,1.44498e-08,-1.44501e-08,2.69837e-17
-0.570025,0.63,0.0997063,0.01,-22.3481,198.45,-77.7082,77.6717,-775.296,-1.46391e-09,1.46354e-09,-1.4607e-08,779.161,-779.197,1.78267e-06,1.468e-08,-1.46804e-08,3.35866e-17
-0.560025,0.63,0.0930968,0.01,-26.7855,198.45,-92.7889,92.7516,-786.116,-1.74804e-09,1.74766e-09,-1.48109e-08,791.553,-791.59,2.14979e-06,1.49135e-08,-1.49139e-08,4.05033e-17
-0.550025,0.63,0.0869229,0.01,-31.2136,198.45,-108.52,108.482,-796.781,-2.04441e-09,2.04402e-09,-1.50118e-08,804.115,-804.153,2.51916e-06,1.51502e-08,-1.51506e-08,4.74624e-17
-0.540025,0.63,0.0798796,0.01,-35.6308,198.45,-124.915,124.876,-807.261,-2.3533e-09,2.35291e-09,-1.52093e-08,816.846,-816.885,2.86436e-06,1.539e-08,-1.53904e-08,5.39662e-17
-0.530025,0.63,0.073525,0.01,-40.0356,198.45,-141.989,141.949,-817.525,-2.67498e-09,2.67458e-09,-1.54026e-08,829.741,-829.78,3.78388e-06,1.5633e-08,-1.56334e-08,7.12905e-17
-0.520025,0.63,0.0675335,0.01,-44.4261,198.45,-159.754,159.714,-827.542,-3.00968e-09,3.00927e-09,-1.55914e-08,842.797,-842.837,1.31545e-06,1.5879e-08,-1.58794e-08,2.47839e-17
-0.510025,0.63,0.060651,0.01,-48.8007,198.45,-178.222,178.181,-837.276,-3.35764e-09,3.35722e-09,-1.57748e-08,856.01,-856.051,1.99316e-06,1.61279e-08,-1.61283e-08,3.75522e-17
-0.500025,0.63,0.0547385,0.01,-53.1574,198.45,-197.405,197.363,-846.693,-3.71904e-09,3.71861e-09,-1.59522e-08,869.375,-869.417,0.000118775,1.63797e-08,-1.63801e-08,2.23779e-15
-0.490025,0.63,0.0486816,0.01,-57.4944,198.45,-217.311,217.269,-855.751,-4.09408e-09,4.09366e-09,-1.61228e-08,882.886,-882.928,-0.000934501,1.66343e-08,-1.66347e-08,-1.76065e-14
-0.480025,0.63,0.042114,0.01,-61.8097,198.45,-237.94,237.899,-864.412,-4.48276e-09,4.48234e-09,-1.6286e-08,896.536,-896.577,0.00400676,1.68914e-08,-1.68919e-08,7.54896e-14
-0.470025,0.63,0.0371118,0.01,-66.1012,198.45,-259.348,259.271,-872.677,-4.88593e-09,4.88515e-09,-1.64417e-08,910.349,-910.427,-0.000796005,1.71518e-08,-1.71526e-08,-1.49972e-14
-0.460025,0.63,0.0303917,0.01,-70.3667,198.45,-281.12,281.78,-879.684,-5.29933e-09,5.30603e-09,-1.65738e-08,923.942,-923.282,-0.249508,1.74047e-08,-1.7398e-08,-4.70087e-12
-0.450025,0.63,0.0246338,0.01,-74.6041,198.45,-300.942,306.089,-883.116,-5.6923e-09,5.74451e-09,-1.66384e-08,936.391,-931.244,-0.742025,1.76198e-08,-1.75676e-08,-1.39802e-11
-0.440025,0.63,0.0202096,0.01,-78.811,198.45,-316.045,330.859,-882.668,-6.01887e-09,6.16916e-09,-1.663e-08,947.472,-932.658,0.161295,1.77865e-08,-1.76362e-08,3.0389e-12
-0.430025,0.63,0.0128388,0.01,-82.985,198.45,-338.155,351.25,-887.007,-6.42797e-09,6.56082e-09,-1.67117e-08,958.176,-945.081,2.1586,1.79957e-08,-1.78628e-08,4.06693e-11
-0.420025,0.63,0.0110111,0.01,-87.125,198.45,-375.986,372.574,-894.399,-7.06895e-09,7.03434e-09,-1.6851e-08,967.847,-971.259,-1.54221,1.82496e-08,-1.82843e-08,-2.90562e-11
0.419975,0.63,0.0110239,0.01,-87.1455,198.45,-376.254,372.666,894.518,-7.07324e-09,7.03685e-09,1.68532e-08,967.938,-971.525,1.55712,1.82521e-08,-1.82885e-08,2.9337e-11
0.429975,0.63,0.0128111,0.01,-83.0057,198.45,-338.345,351.309,887.078,-6.43097e-09,6.56249e-09,1.67131e-08,958.222,-945.258,-2.1714,1.79971e-08,-1.78656e-08,-4.09105e-11
0.439975,0.63,0.0201673,0.01,-78.8319,198.45,-316.179,330.957,882.719,-6.02125e-09,6.17116e-09,1.66309e-08,947.542,-932.764,-0.169625,1.7788e-08,-1.76381e-08,-3.19583e-12
0.449975,0.63,0.0246119,0.01,-74.6251,198.45,-301.059,306.2,883.157,-5.69447e-09,5.74663e-09,1.66392e-08,936.463,-931.322,0.73868,1.76212e-08,-1.7569e-08,1.39172e-11
0.459975,0.63,0.0303577,0.01,-70.3878,198.45,-281.23,281.889,879.723,-5.3014e-09,5.30808e-09,1.65745e-08,924.011,-923.352,0.247007,1.7406e-08,-1.73994e-08,4.65375e-12
0.469975,0.63,0.037092,0.01,-66.1224,198.45,-259.457,259.379,872.716,-4.88798e-09,4.8872e-09,1.64425e-08,910.418,-910.496,0.00129998,1.71531e-08,-1.71539e-08,2.44924e-14
0.479975,0.63,0.0420848,0.01,-61.8311,198.45,-238.045,238.004,864.454,-4.48473e-09,4.48431e-09,1.62868e-08,896.605,-896.646,-0.00409956,1.68927e-08,-1.68931e-08,-7.72381e-14
0.489975,0.63,0.0486461,0.01,-57.516,198.45,-217.411,217.37,855.795,-4.09598e-09,4.09556e-09,1.61237e-08,882.954,-882.995,0.000944517,1.66355e-08,-1.6636e-08,1.77952e-14
0.499975,0.63,0.0547121,0.01,-53.1791,198.45,-197.502,197.46,846.739,-3.72087e-09,3.72045e-09,1.5953e-08,869.442,-869.483,-0.000118794,1.6381e-08,-1.63814e-08,-2.23814e-15
0.509975,0.63,0.0606189,0.01,-48.8224,198.45,-178.316,178.275,837.324,-3.3594e-09,3.35898e-09,1.57757e-08,856.076,-856.117,-2.23118e-06,1.61291e-08,-1.61296e-08,-4.20367e-17
0.519975,0.63,0.0674973,0.01,-44.4479,198.45,-159.844,159.804,827.591,-3.01138e-09,3.01097e-09,1.55923e-08,842.862,-842.903,-1.26774e-06,1.58802e-08,-1.58806e-08,-2.3885e-17
0.529975,0.63,0.0734954,0.01,-40.0575,198.45,-142.076,142.036,817.576,-2.67661e-09,2.67621e-09,1.54036e-08,829.805,-829.845,-3.78999e-06,1.56342e-08,-1.56346e-08,-7.14056e-17
0.539975,0.63,0.0798462,0.01,-35.6528,198.45,-124.998,124.959,807.312,-2.35487e-09,2.35448e-09,1.52102e-08,816.909,-816.948,-2.86701e-06,1.53912e-08,-1.53916e-08,-5.40162e-17
0.549975,0.63,0.0868864,0.01,-31.2356,198.45,-108.6,108.561,796.833,-2.04591e-09,2.04553e-09,1.50128e-08,804.178,-804.216,-2.52115e-06,1.51513e-08,-1.51517e-08,-4.74999e-17
0.559975,0.63,0.0930655,0.01,-26.8075,198.45,-92.8655,92.8282,786.17,-1.74948e-09,1.7491e-09,1.48119e-08,791.615,-791.652,-2.15151e-06,1.49146e-08,-1.4915e-08,-4.05357e-17
0.569975,0.63,0.099672,0.01,-22.3702,198.45,-77.7816,77.7451,775.35,-1.46529e-09,1.46492e-09,1.46081e-08,779.222,-779.259,-1.7841e-06,1.46812e-08,-1.46815e-08,-3.36136e-17
0.579975,0.63,0.106807,0.01,-17.9251,198.45,-63.3325,63.2969,764.402,-1.19307e-09,1.1927e-09,1.44018e-08,767.002,-767.038,-1.43386e-06,1.44509e-08,-1.44513e-08,-2.70147e-17
0.589975,0.63,0.113292,0.01,-13.4736,198.45,-49.5023,49.4677,753.351,-9.32502e-10,9.32151e-10,1.41936e-08,754.957,-754.991,-1.10119e-06,1.4224e-08,-1.42243e-08,-2.07471e-17
0.599975,0.63,0.120063,0.01,-9.01722,198.45,-36.275,36.2413,742.219,-6.83296e-10,6.82954e-10,1.39838e-08,743.088,-743.121,-7.89917e-07,1.40003e-08,-1.40007e-08,-1.48825e-17
0.609975,0.63,0.127259,0.01,-4.55718,198.45,-23.6339,23.6012,731.03,-4.45135e-10,4.44803e-10,1.3773e-08,731.396,-731.428,-5.0222e-07,1.37801e-08,-1.37804e-08,-9.46212e-18
0.619975,0.63,0.13412,0.01,-0.0947694,198.45,-11.5624,11.5306,719.805,-2.17704e-10,2.17381e-10,1.35615e-08,719.881,-719.913,-2.38997e-07,1.35631e-08,-1.35634e-08,-4.50285e-18
0.629975,0.63,0.141003,0.01,4.3688,198.45,-0.0433536,0.0125795,708.561,-6.83006e-13,3.70806e-13,1.33497e-08,708.546,-708.576,-6.71868e-10,1.33495e-08,-1.33499e-08,-1.26584e-20
0.639975,0.63,0.148242,0.01,8.83237,198.45,10.9401,-10.9699,697.317,2.06247e-10,-2.06549e-10,1.31379e-08,697.388,-697.418,2.12904e-07,1.31393e-08,-1.31396e-08,4.01124e-18
0.649975,0.63,0.155521,0.01,13.2949,198.45,21.4049,-21.4337,686.09,4.03405e-10,-4.03698e-10,1.29263e-08,686.409,-686.438,4.01446e-07,1.29325e-08,-1.29328e-08,7.56348e-18
0.659975,0.63,0.162487,0.01,17.7552,198.45,31.368,-31.3958,674.893,5.91112e-10,-5.91395e-10,1.27154e-08,675.609,-675.636,5.65733e-07,1.2729e-08,-1.27293e-08,1.06587e-17
0.669975,0.63,0.169757,0.01,22.2124,198.45,40.8462,-40.8731,663.742,7.69684e-10,-7.69957e-10,1.25053e-08,664.985,-665.012,7.07413e-07,1.25288e-08,-1.25291e-08,1.33281e-17
0.679975,0.63,0.177292,0.01,26.6655,198.45,49.8563,-49.8822,652.649,9.39434e-10,-9.39697e-10,1.22963e-08,654.538,-654.564,8.26913e-07,1.2332e-08,-1.23323e-08,1.55795e-17
0.689975,0.63,0.18451,0.01,31.1137,198.45,58.4145,-58.4395,641.624,1.10067e-09,-1.10093e-09,1.20886e-08,644.267,-644.292,9.25644e-07,1.21385e-08,-1.21387e-08,1.74397e-17
0.699975,0.63,0.191803,0.01,35.556,198.45,66.5372,-66.5613,630.68,1.2537e-09,-1.25395e-09,1.18824e-08,634.17,-634.194,1.00546e-06,1.19482e-08,-1.19485e-08,1.89434e-17
0.709975,0.63,0.19933,0.01,39.9917,198.45,74.2403,-74.2635,619.825,1.39883e-09,-1.39907e-09,1.16779e-08,624.245,-624.269,1.0669e-06,1.17612e-08,-1.17615e-08,2.0101e-17
0.719975,0.63,0.207068,0.01,44.4199,198.45,81.5393,-81.5617,609.069,1.53635e-09,-1.53657e-09,1.14752e-08,614.493,-614.515,1.11166e-06,1.15775e-08,-1.15777e-08,2.09443e-17
0.729975,0.63,0.21438,0.01,48.84,198.45,88.4497,-88.4712,598.418,1.66654e-09,-1.66675e-09,1.12745e-08,604.91,-604.932,1.142e-06,1.1397e-08,-1.13972e-08,2.1516e-17
0.739975,0.63,0.221902,0.01,53.2512,198.45,94.7247,-95.2756,588.391,1.78706e-09,-1.79265e-09,1.10856e-08,595.736,-596.287,0.0780679,1.12264e-08,-1.1232e-08,1.47084e-12
0.749975,0.63,0.229612,0.01,57.6529,198.45,100.145,-102.999,579.941,1.8992e-09,-1.92815e-09,1.09264e-08,587.342,-590.195,0.0355886,1.10783e-08,-1.11072e-08,6.70509e-13
0.759975,0.63,0.237489,0.01,62.0446,198.45,104.452,-109.184,573.075,1.98851e-09,-2.03651e-09,1.07971e-08,580.578,-585.31,1.28031,1.0959e-08,-1.1007e-08,2.41218e-11
0.769975,0.63,0.245005,0.01,66.4255,198.45,110.79,-113.735,565.722,2.10015e-09,-2.13002e-09,1.06585e-08,575.277,-578.222,1.96655,1.08514e-08,-1.08812e-08,3.70509e-11
-0.760025,0.64,0.243714,0.01,65.7075,204.8,95.2741,-102.818,-570.017,1.82782e-09,-1.90435e-09,-1.07395e-08,574.786,-582.33,0.577917,1.08621e-08,-1.09386e-08,1.08883e-11
-0.750025,0.64,0.236038,0.01,61.3728,204.8,88.5612,-95.9168,-577.105,1.70052e-09,-1.77515e-09,-1.0873e-08,580.752,-588.107,0.299853,1.09737e-08,-1.10483e-08,5.64941e-12
-0.740025,0.64,0.228542,0.01,57.0291,204.8,83.6179,-86.5208,-583.928,1.58803e-09,-1.61748e-09,-1.10015e-08,588.641,-591.544,-0.0242028,1.1103e-08,-1.11324e-08,-4.55996e-13
-0.730025,0.64,0.221161,0.01,52.6769,204.8,77.8086,-78.3666,-592.11,1.46839e-09,-1.47405e-09,-1.11557e-08,596.958,-597.516,-0.0648574,1.12495e-08,-1.12551e-08,-1.22195e-12
-0.720025,0.64,0.213464,0.01,48.3169,204.8,71.0635,-71.0854,-601.865,1.33897e-09,-1.3392e-09,-1.13395e-08,606.036,-606.058,-9.64965e-07,1.14182e-08,-1.14184e-08,-1.81805e-17
-0.710025,0.64,0.205965,0.01,43.9497,204.8,63.6718,-63.6945,-612.229,1.19971e-09,-1.19994e-09,-1.15348e-08,615.521,-615.544,-9.08364e-07,1.15969e-08,-1.15971e-08,-1.71141e-17
-0.700025,0.64,0.198686,0.01,39.5763,204.8,55.8845,-55.908,-622.676,1.053e-09,-1.05324e-09,-1.17316e-08,625.168,-625.192,-8.35241e-07,1.17786e-08,-1.17789e-08,-1.57364e-17
-0.690025,0.64,0.191423,0.01,35.1972,204.8,47.6869,-47.7113,-633.197,8.98554e-10,-8.98802e-10,-1.19298e-08,634.979,-635.003,-7.4512e-07,1.19635e-08,-1.19637e-08,-1.40385e-17
-0.680025,0.64,0.18392,0.01,30.8133,204.8,39.0639,-39.0892,-643.783,7.36097e-10,-7.36354e-10,-1.21292e-08,644.955,-644.98,-6.37059e-07,1.21514e-08,-1.21517e-08,-1.20026e-17
-0.670025,0.64,0.176664,0.01,26.4256,204.8,30.0005,-30.0267,-654.422,5.6534e-10,-5.65606e-10,-1.23297e-08,655.097,-655.123,-5.09289e-07,1.23425e-08,-1.23428e-08,-9.5953e-18
-0.660025,0.64,0.169688,0.01,22.0348,204.8,20.4811,-20.5082,-665.103,3.85993e-10,-3.86268e-10,-1.25309e-08,665.405,-665.432,-3.61204e-07,1.25367e-08,-1.2537e-08,-6.8053e-18
-0.650025,0.64,0.162407,0.01,17.6421,204.8,10.4902,-10.5182,-675.813,1.97763e-10,-1.98047e-10,-1.27327e-08,675.88,-675.908,-1.91943e-07,1.27341e-08,-1.27344e-08,-3.61632e-18
-0.640025,0.64,0.155181,0.01,13.2482,204.8,0.0122275,-0.0411182,-686.538,3.55985e-13,-6.49079e-13,-1.29348e-08,686.523,-686.552,-7.07176e-10,1.29346e-08,-1.29349e-08,-1.33236e-20
-0.630025,0.64,0.148278,0.01,8.85439,204.8,-10.9686,10.9388,-697.263,-2.06525e-10,2.06222e-10,-1.31368e-08,697.334,-697.364,2.12724e-07,1.31383e-08,-1.31386e-08,4.00784e-18
-0.620025,0.64,0.141425,0.01,4.46166,204.8,-22.4679,22.4372,-707.971,-4.23174e-10,4.22863e-10,-1.33386e-08,708.312,-708.342,4.48268e-07,1.33451e-08,-1.33454e-08,8.44563e-18
-0.610025,0.64,0.134239,0.01,0.0711786,204.8,-34.5013,34.4698,-718.646,-6.49888e-10,6.49567e-10,-1.35397e-08,719.457,-719.488,7.05254e-07,1.35551e-08,-1.35554e-08,1.32874e-17
-0.600025,0.64,0.127433,0.01,-4.31585,204.8,-47.0844,47.052,-729.267,-8.86957e-10,8.86628e-10,-1.37398e-08,730.768,-730.801,9.82367e-07,1.37682e-08,-1.37686e-08,1.85084e-17
-0.590025,0.64,0.120975,0.01,-8.69817,204.8,-60.2325,60.1992,-739.815,-1.13467e-09,1.13433e-09,-1.39385e-08,742.245,-742.278,1.27851e-06,1.39845e-08,-1.39848e-08,2.40879e-17
-0.580025,0.64,0.113845,0.01,-13.0745,204.8,-73.9606,73.9264,-750.268,-1.39331e-09,1.39296e-09,-1.41355e-08,753.886,-753.92,1.59147e-06,1.42038e-08,-1.42041e-08,2.99841e-17
-0.570025,0.64,0.107174,0.01,-17.4434,204.8,-88.2832,88.2482,-760.603,-1.66316e-09,1.6628e-09,-1.43302e-08,765.69,-765.725,1.91786e-06,1.44262e-08,-1.44265e-08,3.61336e-17
-0.560025,0.64,0.101054,0.01,-21.8034,204.8,-103.215,103.179,-770.794,-1.94447e-09,1.94411e-09,-1.45222e-08,777.653,-777.689,2.25359e-06,1.46516e-08,-1.4652e-08,4.2459e-17
-0.550025,0.64,0.0940082,0.01,-26.1532,204.8,-118.768,118.732,-780.815,-2.23751e-09,2.23714e-09,-1.4711e-08,789.775,-789.812,2.59265e-06,1.488e-08,-1.48804e-08,4.88471e-17
-0.540025,0.64,0.0875369,0.01,-30.491,204.8,-134.958,134.92,-790.638,-2.54252e-09,2.54214e-09,-1.48961e-08,802.052,-802.089,2.93977e-06,1.51113e-08,-1.51117e-08,5.53869e-17
-0.530025,0.64,0.0816707,0.01,-34.8154,204.8,-151.794,151.756,-800.234,-2.85972e-09,2.85934e-09,-1.50769e-08,814.481,-814.519,3.24104e-06,1.53455e-08,-1.53458e-08,6.10631e-17
-0.520025,0.64,0.0747521,0.01,-39.1245,204.8,-169.289,169.25,-809.57,-3.18933e-09,3.18894e-09,-1.52528e-08,827.058,-827.096,3.39755e-06,1.55824e-08,-1.55828e-08,6.40119e-17
-0.510025,0.64,0.0685977,0.01,-43.4168,204.8,-187.452,187.413,-818.614,-3.53154e-09,3.53114e-09,-1.54232e-08,839.778,-839.817,5.99818e-06,1.58221e-08,-1.58225e-08,1.13009e-16
-0.500025,0.64,0.062823,0.01,-47.6903,204.8,-206.293,206.253,-827.33,-3.8865e-09,3.8861e-09,-1.55874e-08,852.637,-852.676,-6.87103e-06,1.60643e-08,-1.60647e-08,-1.29454e-16
-0.490025,0.64,0.0561287,0.01,-51.9431,204.8,-225.818,225.778,-835.682,-4.25437e-09,4.25396e-09,-1.57447e-08,865.63,-865.669,1.60027e-05,1.63091e-08,-1.63095e-08,3.015e-16
-0.480025,0.64,0.0505383,0.01,-56.1734,204.8,-246.034,245.993,-843.632,-4.63524e-09,4.63483e-09,-1.58945e-08,878.75,-878.791,0.000310685,1.65563e-08,-1.65567e-08,5.85348e-15
-0.470025,0.64,0.0445296,0.01,-60.3791,204.8,-266.944,266.908,-851.134,-5.02923e-09,5.02885e-09,-1.60359e-08,891.99,-892.027,-0.00317559,1.68058e-08,-1.68061e-08,-5.98299e-14
-0.460025,0.64,0.038289,0.01,-64.558,204.8,-288.537,288.489,-858.164,-5.43599e-09,5.43551e-09,-1.61683e-08,905.341,-905.389,0.0182754,1.70574e-08,-1.70578e-08,3.44318e-13
-0.450025,0.64,0.0339001,0.01,-68.7081,204.8,-310.45,311.37,-863.738,-5.85306e-09,5.8624e-09,-1.62733e-08,918.451,-917.531,-0.38136,1.73002e-08,-1.72908e-08,-7.18505e-12
-0.440025,0.64,0.0268571,0.01,-72.8272,204.8,-330.115,333.658,-867.482,-6.23497e-09,6.27091e-09,-1.63439e-08,930.573,-927.03,0.709191,1.75171e-08,-1.74812e-08,1.33616e-11
-0.430025,0.64,0.0218566,0.01,-76.9128,204.8,-352.846,357.67,-872.141,-6.66879e-09,6.71774e-09,-1.64316e-08,944.133,-939.309,0.683332,1.7767e-08,-1.77181e-08,1.28744e-11
-0.420025,0.64,0.0168286,0.01,-80.9627,204.8,-377.295,383.214,-870.758,-7.13419e-09,7.19423e-09,-1.64056e-08,953.121,-947.203,-2.37892,1.79316e-08,-1.78716e-08,-4.48203e-11
-0.410025,0.64,0.0103374,0.01,-84.974,204.8,-389.797,412.897,-863.185,-7.44443e-09,7.67878e-09,-1.62629e-08,963.471,-940.371,-3.80444,1.80519e-08,-1.78176e-08,-7.16779e-11
0.409975,0.64,0.0103191,0.01,-84.9939,204.8,-389.997,413.003,863.213,-7.4478e-09,7.68119e-09,1.62634e-08,963.513,-940.507,3.82742,1.80531e-08,-1.78197e-08,7.21108e-11
0.419975,0.64,0.0167878,0.01,-80.9828,204.8,-377.49,383.321,870.81,-7.13748e-09,7.19664e-09,1.64066e-08,953.185,-947.354,2.39399,1.79332e-08,-1.78741e-08,4.51042e-11
0.429975,0.64,0.0218403,0.01,-76.933,204.8,-352.988,357.781,872.186,-6.67134e-09,6.71996e-09,1.64325e-08,944.206,-939.414,-0.684012,1.77686e-08,-1.77199e-08,-1.28872e-11
0.439975,0.64,0.0268253,0.01,-72.8476,204.8,-330.238,333.769,867.517,-6.23723e-09,6.27305e-09,1.63445e-08,930.642,-927.111,-0.711009,1.75185e-08,-1.74827e-08,-1.33958e-11
0.449975,0.64,0.0338842,0.01,-68.7287,204.8,-310.565,311.484,863.77,-5.85522e-09,5.86454e-09,1.62739e-08,918.52,-917.601,0.382291,1.73015e-08,-1.72921e-08,7.20258e-12
0.459975,0.64,0.038262,0.01,-64.5788,204.8,-288.646,288.598,858.198,-5.43805e-09,5.43756e-09,1.6169e-08,905.408,-905.456,-0.0185394,1.70586e-08,-1.70591e-08,-3.49294e-13
0.469975,0.64,0.0444952,0.01,-60.3999,204.8,-267.05,267.013,851.17,-5.03122e-09,5.03084e-09,1.60365e-08,892.056,-892.093,0.00319377,1.6807e-08,-1.68074e-08,6.01725e-14
0.479975,0.64,0.0505139,0.01,-56.1944,204.8,-246.136,246.095,843.67,-4.63717e-09,4.63676e-09,1.58952e-08,878.816,-878.856,-0.000308133,1.65576e-08,-1.6558e-08,-5.80541e-15
0.489975,0.64,0.0560978,0.01,-51.9642,204.8,-225.917,225.877,835.722,-4.25623e-09,4.25583e-09,1.57455e-08,865.695,-865.734,-1.7127e-05,1.63104e-08,-1.63108e-08,-3.22682e-16
0.499975,0.64,0.0627876,0.01,-47.7115,204.8,-206.388,206.349,827.372,-3.8883e-09,3.8879e-09,1.55882e-08,852.701,-852.741,7.06742e-06,1.60656e-08,-1.6066e-08,1.33154e-16
0.509975,0.64,0.0685694,0.01,-43.4381,204.8,-187.544,187.505,818.658,-3.53327e-09,3.53288e-09,1.5424e-08,839.841,-839.88,-6.01443e-06,1.58233e-08,-1.58237e-08,-1.13315e-16
0.519975,0.64,0.0747195,0.01,-39.1459,204.8,-169.377,169.339,809.616,-3.191e-09,3.19061e-09,1.52536e-08,827.12,-827.159,-3.40023e-06,1.55836e-08,-1.5584e-08,-6.40623e-17
0.529975,0.64,0.0816348,0.01,-34.8368,204.8,-151.879,151.841,800.281,-2.86133e-09,2.86095e-09,1.50778e-08,814.543,-814.581,-3.24164e-06,1.53466e-08,-1.5347e-08,-6.10743e-17
0.539975,0.64,0.0875064,0.01,-30.5125,204.8,-135.04,135.002,790.687,-2.54406e-09,2.54369e-09,1.4897e-08,802.114,-802.151,-2.94168e-06,1.51124e-08,-1.51128e-08,-5.54229e-17
0.549975,0.64,0.0939745,0.01,-26.1748,204.8,-118.847,118.811,780.864,-2.239e-09,2.23862e-09,1.47119e-08,789.836,-789.872,-2.59417e-06,1.48811e-08,-1.48815e-08,-4.88757e-17
0.559975,0.64,0.10102,0.01,-21.8251,204.8,-103.29,103.255,770.844,-1.9459e-09,1.94553e-09,1.45231e-08,777.713,-777.749,-2.25465e-06,1.46527e-08,-1.46531e-08,-4.24789e-17
0.569975,0.64,0.107142,0.01,-17.4651,204.8,-88.356,88.321,760.654,-1.66453e-09,1.66417e-09,1.43312e-08,765.749,-765.784,-1.91924e-06,1.44273e-08,-1.44277e-08,-3.61595e-17
0.579975,0.64,0.11381,0.01,-13.0962,204.8,-74.0303,73.9961,750.32,-1.39463e-09,1.39428e-09,1.41365e-08,753.944,-753.979,-1.59323e-06,1.42049e-08,-1.42052e-08,-3.00173e-17
0.589975,0.64,0.120938,0.01,-8.71995,204.8,-60.2993,60.266,739.868,-1.13593e-09,1.13559e-09,1.39395e-08,742.303,-742.336,-1.28019e-06,1.39856e-08,-1.39859e-08,-2.41195e-17
0.599975,0.64,0.1274,0.01,-4.33766,204.8,-47.1484,47.116,729.32,-8.88163e-10,8.87833e-10,1.37408e-08,730.825,-730.857,-9.8377e-07,1.37693e-08,-1.37696e-08,-1.85348e-17
0.609975,0.64,0.134204,0.01,0.0493521,204.8,-34.5625,34.531,718.699,-6.51041e-10,6.5072e-10,1.35407e-08,719.513,-719.544,-7.06072e-07,1.35562e-08,-1.35565e-08,-1.33028e-17
0.619975,0.64,0.141388,0.01,4.43982,204.8,-22.5264,22.4957,708.024,-4.24277e-10,4.23965e-10,1.33396e-08,708.367,-708.397,-4.492e-07,1.33462e-08,-1.33465e-08,-8.46319e-18
0.629975,0.64,0.148244,0.01,8.83255,204.8,-11.0245,10.9947,697.316,-2.07578e-10,2.07275e-10,1.31378e-08,697.388,-697.418,-2.13953e-07,1.31393e-08,-1.31396e-08,-4.031e-18
0.639975,0.64,0.155146,0.01,13.2264,204.8,-0.0411236,0.0122283,686.591,-6.49161e-13,3.5602e-13,1.29358e-08,686.577,-686.606,-3.40726e-10,1.29356e-08,-1.29359e-08,-6.41947e-21
0.649975,0.64,0.16237,0.01,17.6202,204.8,10.4393,-10.4673,675.866,1.96805e-10,-1.97089e-10,1.27337e-08,675.933,-675.961,1.90872e-07,1.27351e-08,-1.27354e-08,3.59614e-18
0.659975,0.64,0.169654,0.01,22.013,204.8,20.4326,-20.4597,665.156,3.85079e-10,-3.85354e-10,1.25319e-08,665.457,-665.484,3.60163e-07,1.25377e-08,-1.2538e-08,6.78568e-18
0.669975,0.64,0.176629,0.01,26.4038,204.8,29.9543,-29.9805,654.475,5.6447e-10,-5.64735e-10,1.23307e-08,655.148,-655.174,5.08593e-07,1.23435e-08,-1.23437e-08,9.58219e-18
0.679975,0.64,0.183883,0.01,30.7915,204.8,39.02,-39.0453,643.836,7.35269e-10,-7.35525e-10,1.21302e-08,645.005,-645.03,6.36281e-07,1.21524e-08,-1.21526e-08,1.19879e-17
0.689975,0.64,0.191385,0.01,35.1754,204.8,47.645,-47.6695,633.25,8.97766e-10,-8.98014e-10,1.19308e-08,635.028,-635.053,7.44434e-07,1.19644e-08,-1.19647e-08,1.40256e-17
0.699975,0.64,0.198651,0.01,39.5545,204.8,55.8447,-55.8683,622.728,1.05225e-09,-1.05249e-09,1.17326e-08,625.216,-625.24,8.34828e-07,1.17795e-08,-1.17798e-08,1.57287e-17
0.709975,0.64,0.205928,0.01,43.928,204.8,63.634,-63.6568,612.281,1.199e-09,-1.19923e-09,1.15357e-08,615.568,-615.591,9.07683e-07,1.15978e-08,-1.1598e-08,1.71013e-17
0.719975,0.64,0.213426,0.01,48.2952,204.8,71.0277,-71.0496,601.917,1.3383e-09,-1.33852e-09,1.13405e-08,606.083,-606.105,9.64037e-07,1.14191e-08,-1.14193e-08,1.8163e-17
0.729975,0.64,0.221123,0.01,52.6552,204.8,77.7746,-78.3327,592.161,1.46775e-09,-1.47341e-09,1.11567e-08,597.004,-597.562,0.064833,1.12503e-08,-1.1256e-08,1.22149e-12
0.739975,0.64,0.228505,0.01,57.0075,204.8,83.5855,-86.4887,583.979,1.58742e-09,-1.61687e-09,1.10025e-08,588.686,-591.589,0.024198,1.11038e-08,-1.11333e-08,4.55905e-13
0.749975,0.64,0.236,0.01,61.3513,204.8,88.5299,-95.8865,577.155,1.69994e-09,-1.77457e-09,1.08739e-08,580.796,-588.153,-0.29976,1.09745e-08,-1.10492e-08,-5.64766e-12
0.759975,0.64,0.243675,0.01,65.6859,204.8,95.244,-102.789,570.068,1.82726e-09,-1.9038e-09,1.07404e-08,574.83,-582.375,-0.577617,1.08629e-08,-1.09395e-08,-1.08826e-11
-0.750025,0.65,0.242669,0.01,65.08,211.25,78.7761,-87.9024,-573.846,1.52387e-09,-1.61645e-09,-1.08116e-08,575.302,-584.429,0.912198,1.08787e-08,-1.09713e-08,1.71863e-11
-0.740025,0.65,0.235227,0.01,60.7935,211.25,72.0621,-79.5106,-580.731,1.39008e-09,-1.46564e-09,-1.09413e-08,581.931,-589.38,0.245384,1.09963e-08,-1.10719e-08,4.62318e-12
-0.730025,0.65,0.227566,0.01,56.4996,211.25,66.8491,-69.7852,-587.259,1.27224e-09,-1.30203e-09,-1.10643e-08,589.752,-592.688,-0.0204964,1.1124e-08,-1.11538e-08,-3.86164e-13
-0.720025,0.65,0.220093,0.01,52.1989,211.25,60.6645,-61.2283,-595.146,1.14541e-09,-1.15113e-09,-1.12129e-08,597.977,-598.541,-0.0510553,1.12687e-08,-1.12744e-08,-9.61912e-13
-0.710025,0.65,0.212827,0.01,47.8922,211.25,53.4615,-53.4837,-604.603,1.00734e-09,-1.00757e-09,-1.13911e-08,606.952,-606.974,-7.54215e-07,1.14354e-08,-1.14357e-08,-1.42099e-17
-0.700025,0.65,0.205522,0.01,43.58,211.25,45.6027,-45.6257,-614.652,8.59281e-10,-8.59515e-10,-1.15804e-08,616.331,-616.354,-6.72144e-07,1.16121e-08,-1.16124e-08,-1.26636e-17
-0.690025,0.65,0.198048,0.01,39.2633,211.25,37.343,-37.3669,-624.76,7.03668e-10,-7.0391e-10,-1.17708e-08,625.864,-625.888,-5.73703e-07,1.17917e-08,-1.1792e-08,-1.08089e-17
-0.680025,0.65,0.190806,0.01,34.9429,211.25,28.6684,-28.6931,-634.918,5.40237e-10,-5.40487e-10,-1.19622e-08,635.553,-635.578,-4.58273e-07,1.19743e-08,-1.19746e-08,-8.63414e-18
-0.670025,0.65,0.183822,0.01,30.6196,211.25,19.5646,-19.5901,-645.115,3.6872e-10,-3.68979e-10,-1.21543e-08,645.399,-645.425,-3.24534e-07,1.21598e-08,-1.21601e-08,-6.11441e-18
-0.660025,0.65,0.176536,0.01,26.2944,211.25,10.0173,-10.0436,-655.339,1.88846e-10,-1.89113e-10,-1.2347e-08,655.402,-655.429,-1.72072e-07,1.23483e-08,-1.23485e-08,-3.24194e-18
-0.650025,0.65,0.169323,0.01,21.9681,211.25,0.0118839,-0.0390374,-665.576,3.41958e-13,-6.17429e-13,-1.25398e-08,665.563,-665.59,-3.49621e-10,1.25397e-08,-1.254e-08,-6.58706e-21
-0.640025,0.65,0.162405,0.01,17.6419,211.25,-10.4661,10.4381,-675.814,-1.97066e-10,1.96782e-10,-1.27327e-08,675.881,-675.909,1.90956e-07,1.27341e-08,-1.27344e-08,3.59772e-18
-0.630025,0.65,0.155556,0.01,13.3167,211.25,-21.4312,21.4024,-686.036,-4.03651e-10,4.03358e-10,-1.29253e-08,686.356,-686.385,4.01491e-07,1.29315e-08,-1.29318e-08,7.56432e-18
-0.620025,0.65,0.148381,0.01,8.99366,211.25,-32.8979,32.8682,-696.227,-6.19686e-10,6.19385e-10,-1.31173e-08,696.989,-697.018,6.31232e-07,1.31318e-08,-1.31321e-08,1.18928e-17
-0.610025,0.65,0.141548,0.01,4.6739,211.25,-44.8805,44.85,-706.369,-8.45442e-10,8.45133e-10,-1.33084e-08,707.777,-707.808,8.79023e-07,1.33351e-08,-1.33354e-08,1.65613e-17
-0.600025,0.65,0.135108,0.01,0.358642,211.25,-57.3932,57.3619,-716.444,-1.08118e-09,1.08087e-09,-1.34982e-08,718.722,-718.753,1.14332e-06,1.35413e-08,-1.35416e-08,2.15409e-17
-0.590025,0.65,0.127984,0.01,-3.95088,211.25,-70.4499,70.4179,-726.43,-1.32718e-09,1.32685e-09,-1.36864e-08,729.821,-729.853,1.42285e-06,1.37504e-08,-1.37507e-08,2.68072e-17
-0.580025,0.65,0.121266,0.01,-8.25335,211.25,-84.0643,84.0315,-736.307,-1.58368e-09,1.58334e-09,-1.38725e-08,741.072,-741.105,1.71467e-06,1.39624e-08,-1.39627e-08,3.23054e-17
-0.570025,0.65,0.115027,0.01,-12.5474,211.25,-98.2494,98.2159,-746.052,-1.85093e-09,1.85059e-09,-1.40561e-08,752.475,-752.508,2.01521e-06,1.41772e-08,-1.41775e-08,3.79677e-17
-0.560025,0.65,0.10814,0.01,-16.8316,211.25,-113.018,112.984,-755.641,-2.12917e-09,2.12883e-09,-1.42367e-08,764.026,-764.06,2.32034e-06,1.43948e-08,-1.43952e-08,4.37165e-17
-0.550025,0.65,0.101585,0.01,-21.1046,211.25,-128.382,128.347,-765.047,-2.41864e-09,2.41828e-09,-1.44139e-08,775.724,-775.759,2.62448e-06,1.46152e-08,-1.46156e-08,4.94468e-17
-0.540025,0.65,0.0956278,0.01,-25.3647,211.25,-144.353,144.317,-774.244,-2.71953e-09,2.71917e-09,-1.45872e-08,787.564,-787.6,2.92096e-06,1.48383e-08,-1.48387e-08,5.50326e-17
-0.530025,0.65,0.0888663,0.01,-29.6103,211.25,-160.94,160.904,-783.202,-3.03205e-09,3.03169e-09,-1.4756e-08,799.545,-799.581,3.19832e-06,1.5064e-08,-1.50644e-08,6.02583e-17
-0.520025,0.65,0.0825529,0.01,-33.8399,211.25,-178.155,178.118,-791.891,-3.35638e-09,3.35601e-09,-1.49197e-08,811.661,-811.698,3.49558e-06,1.52923e-08,-1.52927e-08,6.58588e-17
-0.510025,0.65,0.0769647,0.01,-38.0516,211.25,-196.004,195.967,-800.278,-3.69267e-09,3.6923e-09,-1.50777e-08,823.909,-823.946,3.60082e-06,1.55231e-08,-1.55235e-08,6.78416e-17
-0.500025,0.65,0.0701944,0.01,-42.2437,211.25,-214.496,214.459,-808.331,-4.04106e-09,4.04068e-09,-1.52294e-08,836.283,-836.32,3.32394e-06,1.57562e-08,-1.57566e-08,6.26249e-17
-0.490025,0.65,0.0642725,0.01,-46.4144,211.25,-233.635,233.598,-816.015,-4.40166e-09,4.40128e-09,-1.53742e-08,848.778,-848.816,1.14182e-05,1.59916e-08,-1.5992e-08,2.15126e-16
-0.480025,0.65,0.0586695,0.01,-50.5617,211.25,-253.426,253.389,-823.291,-4.77454e-09,4.77415e-09,-1.55113e-08,861.389,-861.426,-3.9426e-05,1.62292e-08,-1.62296e-08,-7.42809e-16
-0.470025,0.65,0.0522042,0.01,-54.6837,211.25,-273.872,273.834,-830.122,-5.15974e-09,5.15936e-09,-1.564e-08,874.108,-874.145,0.000125888,1.64689e-08,-1.64692e-08,2.37181e-15
-0.460025,0.65,0.0469941,0.01,-58.7782,211.25,-294.974,294.934,-836.469,-5.5573e-09,5.5569e-09,-1.57596e-08,886.929,-886.969,0.000364926,1.67104e-08,-1.67108e-08,6.87542e-15
-0.450025,0.65,0.0409606,0.01,-62.8433,211.25,-316.725,316.698,-842.276,-5.96716e-09,5.96689e-09,-1.5869e-08,899.84,-899.866,-0.00707674,1.69536e-08,-1.69539e-08,-1.3333e-13
-0.440025,0.65,0.0351308,0.01,-66.8767,211.25,-339.099,339.024,-847.575,-6.38849e-09,6.38773e-09,-1.59688e-08,912.84,-912.915,0.0605812,1.71988e-08,-1.71995e-08,1.14138e-12
-0.430025,0.65,0.0308493,0.01,-70.8762,211.25,-362.188,362.77,-851.537,-6.82637e-09,6.83227e-09,-1.60435e-08,925.767,-925.185,-0.54424,1.74395e-08,-1.74336e-08,-1.02538e-11
-0.420025,0.65,0.0239862,0.01,-74.8394,211.25,-382.399,387.441,-851.606,-7.22655e-09,7.2777e-09,-1.60447e-08,937.077,-932.035,-1.02951,1.76332e-08,-1.7582e-08,-1.93965e-11
-0.410025,0.65,0.019975,0.01,-78.7641,211.25,-396.315,413.693,-846.773,-7.54237e-09,7.71867e-09,-1.59537e-08,947.333,-929.954,-0.810467,1.77727e-08,-1.75964e-08,-1.52697e-11
-0.400025,0.65,0.014025,0.01,-82.6477,211.25,-412.516,437.034,-845.925,-7.87863e-09,8.12737e-09,-1.59377e-08,958.842,-934.324,1.96045,1.79585e-08,-1.77098e-08,3.6936e-11
-0.390025,0.65,0.00904732,0.01,-86.4876,211.25,-443.94,463.313,-844.565,-8.44831e-09,8.64485e-09,-1.59121e-08,968.362,-948.989,-2.86985,1.81603e-08,-1.79637e-08,-5.40696e-11
0.389975,0.65,0.00904337,0.01,-86.5066,211.25,-444.141,463.4,844.634,-8.45161e-09,8.64699e-09,1.59134e-08,968.434,-949.175,2.85691,1.81621e-08,-1.79667e-08,5.38258e-11
0.399975,0.65,0.013987,0.01,-82.6669,211.25,-412.673,437.12,845.954,-7.88129e-09,8.12931e-09,1.59383e-08,958.887,-934.44,-1.96966,1.79597e-08,-1.77117e-08,-3.71095e-11
0.409975,0.65,0.0199655,0.01,-78.7835,211.25,-396.451,413.811,846.789,-7.54485e-09,7.72097e-09,1.5954e-08,947.393,-930.033,0.815081,1.7774e-08,-1.75978e-08,1.53566e-11
0.419975,0.65,0.0239576,0.01,-74.859,211.25,-382.536,387.565,851.629,-7.22907e-09,7.28008e-09,1.60452e-08,937.145,-932.116,1.03784,1.76345e-08,-1.75835e-08,1.95535e-11
0.429975,0.65,0.0308109,0.01,-70.896,211.25,-362.312,362.887,851.565,-6.82866e-09,6.83449e-09,1.6044e-08,925.836,-925.261,0.545295,1.74408e-08,-1.7435e-08,1.02737e-11
0.439975,0.65,0.0351066,0.01,-66.8967,211.25,-339.212,339.136,847.6,-6.39062e-09,6.38985e-09,1.59693e-08,912.905,-912.981,-0.060964,1.72e-08,-1.72008e-08,-1.1486e-12
0.449975,0.65,0.0409276,0.01,-62.8634,211.25,-316.834,316.808,842.304,-5.96923e-09,5.96896e-09,1.58695e-08,899.904,-899.931,0.00705963,1.69548e-08,-1.69551e-08,1.33008e-13
0.459975,0.65,0.046972,0.01,-58.7985,211.25,-295.08,295.041,836.499,-5.55931e-09,5.55891e-09,1.57601e-08,886.993,-887.033,-0.000348209,1.67116e-08,-1.6712e-08,-6.56045e-15
0.469975,0.65,0.0521748,0.01,-54.7041,211.25,-273.975,273.938,830.154,-5.16169e-09,5.1613e-09,1.56406e-08,874.171,-874.209,-0.000130039,1.64701e-08,-1.64704e-08,-2.45001e-15
0.479975,0.65,0.0586349,0.01,-50.5823,211.25,-253.526,253.489,823.326,-4.77642e-09,4.77604e-09,1.55119e-08,861.452,-861.489,4.00338e-05,1.62304e-08,-1.62308e-08,7.54259e-16
0.489975,0.65,0.0642456,0.01,-46.4351,211.25,-233.732,233.694,816.052,-4.40348e-09,4.4031e-09,1.53749e-08,848.841,-848.878,-1.14523e-05,1.59928e-08,-1.59932e-08,-2.15767e-16
0.499975,0.65,0.0701627,0.01,-42.2645,211.25,-214.589,214.552,808.371,-4.04283e-09,4.04245e-09,1.52302e-08,836.345,-836.382,-3.33376e-06,1.57574e-08,-1.57578e-08,-6.28099e-17
0.509975,0.65,0.0769293,0.01,-38.0725,211.25,-196.095,196.058,800.319,-3.69438e-09,3.694e-09,1.50785e-08,823.97,-824.007,-3.59858e-06,1.55242e-08,-1.55246e-08,-6.77993e-17
0.519975,0.65,0.0825234,0.01,-33.8609,211.25,-178.242,178.205,791.933,-3.35802e-09,3.35765e-09,1.49205e-08,811.722,-811.758,-3.49687e-06,1.52935e-08,-1.52938e-08,-6.5883e-17
0.529975,0.65,0.0888332,0.01,-29.6314,211.25,-161.024,160.988,783.245,-3.03364e-09,3.03327e-09,1.47568e-08,799.605,-799.641,-3.19979e-06,1.50652e-08,-1.50655e-08,-6.0286e-17
0.539975,0.65,0.0955999,0.01,-25.3858,211.25,-144.433,144.398,774.289,-2.72106e-09,2.7207e-09,1.4588e-08,787.624,-787.659,-2.92281e-06,1.48394e-08,-1.48398e-08,-5.50674e-17
0.549975,0.65,0.101554,0.01,-21.1258,211.25,-128.46,128.425,765.093,-2.4201e-09,2.41975e-09,1.44148e-08,775.782,-775.817,-2.62588e-06,1.46163e-08,-1.46167e-08,-4.94731e-17
0.559975,0.65,0.108106,0.01,-16.8529,211.25,-113.093,113.059,755.688,-2.13059e-09,2.13024e-09,1.42376e-08,764.084,-764.118,-2.32121e-06,1.43959e-08,-1.43963e-08,-4.37329e-17
0.569975,0.65,0.114997,0.01,-12.5687,211.25,-98.3214,98.2879,746.1,-1.85229e-09,1.85195e-09,1.4057e-08,752.532,-752.565,-2.0166e-06,1.41783e-08,-1.41786e-08,-3.79939e-17
0.579975,0.65,0.121234,0.01,-8.27473,211.25,-84.1334,84.1006,736.356,-1.58498e-09,1.58465e-09,1.38734e-08,741.129,-741.161,-1.71643e-06,1.39634e-08,-1.39638e-08,-3.23386e-17
0.589975,0.65,0.127949,0.01,-3.97229,211.25,-70.5162,70.4842,726.479,-1.32843e-09,1.3281e-09,1.36873e-08,729.876,-729.908,-1.42477e-06,1.37514e-08,-1.37518e-08,-2.68434e-17
0.599975,0.65,0.135072,0.01,0.337195,211.25,-57.4568,57.4255,716.494,-1.08238e-09,1.08207e-09,1.34992e-08,718.777,-718.808,-1.14538e-06,1.35423e-08,-1.35426e-08,-2.15797e-17
0.609975,0.65,0.141515,0.01,4.65243,211.25,-44.9414,44.9109,706.42,-8.46589e-10,8.4628e-10,1.33094e-08,707.832,-707.862,-8.80455e-07,1.33361e-08,-1.33364e-08,-1.65883e-17
0.619975,0.65,0.148346,0.01,8.97217,211.25,-32.9562,32.9265,696.278,-6.20784e-10,6.20484e-10,1.31183e-08,697.042,-697.072,-6.32597e-07,1.31328e-08,-1.31331e-08,-1.19185e-17
0.629975,0.65,0.15552,0.01,13.2952,211.25,-21.487,21.4581,686.087,-4.04702e-10,4.04409e-10,1.29263e-08,686.409,-686.437,-4.02751e-07,1.29325e-08,-1.29328e-08,-7.58806e-18
0.639975,0.65,0.162371,0.01,17.6204,211.25,-10.5194,10.4914,675.865,-1.9807e-10,1.97786e-10,1.27337e-08,675.932,-675.96,-1.91506e-07,1.27351e-08,-1.27354e-08,-3.60809e-18
0.649975,0.65,0.169288,0.01,21.9466,211.25,-0.0390424,0.0118847,665.627,-6.17505e-13,3.41992e-13,1.25408e-08,665.614,-665.641,-2.22777e-10,1.25407e-08,-1.25409e-08,-4.19724e-21
0.659975,0.65,0.1765,0.01,26.2729,211.25,9.96868,-9.995,655.39,1.8793e-10,-1.88197e-10,1.23479e-08,655.452,-655.479,1.71442e-07,1.23492e-08,-1.23495e-08,3.23007e-18
0.669975,0.65,0.183788,0.01,30.5981,211.25,19.5183,-19.5438,645.166,3.67846e-10,-3.68105e-10,1.21553e-08,645.449,-645.474,3.2395e-07,1.21607e-08,-1.2161e-08,6.1034e-18
0.679975,0.65,0.190771,0.01,34.9214,211.25,28.6242,-28.6489,634.969,5.39404e-10,-5.39654e-10,1.19632e-08,635.602,-635.627,4.57504e-07,1.19752e-08,-1.19755e-08,8.61964e-18
0.689975,0.65,0.198012,0.01,39.2419,211.25,37.3009,-37.3248,624.811,7.02874e-10,-7.03116e-10,1.17718e-08,625.912,-625.936,5.73001e-07,1.17926e-08,-1.17929e-08,1.07957e-17
0.699975,0.65,0.205485,0.01,43.5586,211.25,45.5626,-45.5856,614.702,8.58526e-10,-8.5876e-10,1.15813e-08,616.378,-616.401,6.71808e-07,1.1613e-08,-1.16132e-08,1.26573e-17
0.709975,0.65,0.212792,0.01,47.8707,211.25,53.4234,-53.4456,604.653,1.00662e-09,-1.00685e-09,1.1392e-08,606.998,-607.021,7.54059e-07,1.14363e-08,-1.14365e-08,1.42069e-17
0.719975,0.65,0.220056,0.01,52.1775,211.25,60.6282,-61.1921,595.196,1.14472e-09,-1.15044e-09,1.12138e-08,598.022,-598.586,0.0510277,1.12695e-08,-1.12753e-08,9.61391e-13
0.729975,0.65,0.227528,0.01,56.4783,211.25,66.8144,-69.7509,587.309,1.27159e-09,-1.30138e-09,1.10652e-08,589.797,-592.733,0.0204891,1.11249e-08,-1.11547e-08,3.86026e-13
0.739975,0.65,0.235188,0.01,60.7722,211.25,72.0285,-79.4781,580.781,1.38945e-09,-1.46502e-09,1.09422e-08,581.975,-589.425,-0.245283,1.09971e-08,-1.10727e-08,-4.62128e-12
0.749975,0.65,0.242632,0.01,65.0587,211.25,78.7437,-87.8713,573.895,1.52326e-09,-1.61586e-09,1.08125e-08,575.346,-584.474,-0.911887,1.08795e-08,-1.09721e-08,-1.71805e-11
-0.740025,0.66,0.241672,0.01,64.5655,217.8,62.3093,-71.5391,-577.062,1.21407e-09,-1.30771e-09,-1.08722e-08,576.315,-585.545,0.733832,1.08982e-08,-1.09919e-08,1.38258e-11
-0.730025,0.66,0.234222,0.01,60.3292,217.8,55.3845,-62.9081,-583.651,1.07619e-09,-1.15251e-09,-1.09963e-08,582.878,-590.402,0.190887,1.10145e-08,-1.10908e-08,3.59642e-12
-0.720025,0.66,0.226968,0.01,56.0871,217.8,49.913,-52.8752,-589.865,9.53269e-10,-9.83321e-10,-1.11134e-08,590.619,-593.581,-0.016043,1.11405e-08,-1.11705e-08,-3.02259e-13
-0.710025,0.66,0.219627,0.01,51.8399,217.8,43.3665,-43.9347,-597.435,8.19521e-10,-8.25286e-10,-1.1256e-08,598.743,-599.312,-0.0368014,1.12831e-08,-1.12889e-08,-6.93359e-13
-0.700025,0.66,0.212179,0.01,47.5884,217.8,35.7217,-35.7442,-606.568,6.73115e-10,-6.73343e-10,-1.14281e-08,607.608,-607.631,-5.17652e-07,1.14478e-08,-1.1448e-08,-9.75286e-18
-0.690025,0.66,0.204948,0.01,43.3332,217.8,27.4141,-27.4373,-616.273,5.16598e-10,-5.16834e-10,-1.16109e-08,616.872,-616.895,-4.12812e-07,1.16223e-08,-1.16226e-08,-7.77762e-18
-0.680025,0.66,0.197958,0.01,39.0754,217.8,18.7021,-18.7261,-626.015,3.52462e-10,-3.52706e-10,-1.17945e-08,626.282,-626.306,-2.9206e-07,1.17996e-08,-1.17999e-08,-5.50257e-18
-0.670025,0.66,0.190668,0.01,34.8156,217.8,9.57237,-9.59714,-635.781,1.80457e-10,-1.80708e-10,-1.19785e-08,635.841,-635.866,-1.54667e-07,1.19797e-08,-1.198e-08,-2.91401e-18
-0.660025,0.66,0.183465,0.01,30.5549,217.8,0.0115484,-0.0370933,-645.561,3.28643e-13,-5.87794e-13,-1.21627e-08,645.548,-645.573,-1.32991e-10,1.21626e-08,-1.21629e-08,-2.50563e-21
-0.650025,0.66,0.176535,0.01,26.2942,217.8,-9.99386,9.96754,-655.34,-1.88176e-10,1.87909e-10,-1.2347e-08,655.403,-655.429,1.71603e-07,1.23483e-08,-1.23485e-08,3.23311e-18
-0.640025,0.66,0.169689,0.01,22.0345,217.8,-20.4573,20.4302,-665.105,-3.8531e-10,3.85035e-10,-1.2531e-08,665.406,-665.433,3.60371e-07,1.25367e-08,-1.2537e-08,6.78959e-18
-0.630025,0.66,0.162522,0.01,17.7769,217.8,-31.3922,31.3644,-674.841,-5.91326e-10,5.91044e-10,-1.27144e-08,675.557,-675.584,5.65817e-07,1.2728e-08,-1.27283e-08,1.06603e-17
-0.620025,0.66,0.155668,0.01,13.5224,217.8,-42.8119,42.7833,-684.532,-8.06476e-10,8.06186e-10,-1.2897e-08,685.854,-685.883,7.87765e-07,1.2922e-08,-1.29223e-08,1.48419e-17
-0.610025,0.66,0.14917,0.01,9.27215,217.8,-54.7295,54.7001,-694.161,-1.03101e-09,1.03071e-09,-1.30784e-08,696.299,-696.328,1.02455e-06,1.31188e-08,-1.31191e-08,1.93032e-17
-0.600025,0.66,0.142123,0.01,5.0274,217.8,-67.1578,67.1278,-703.708,-1.26516e-09,1.26486e-09,-1.32583e-08,706.889,-706.919,1.27456e-06,1.33183e-08,-1.33186e-08,2.40134e-17
-0.590025,0.66,0.135369,0.01,0.789376,217.8,-80.1097,80.0789,-713.154,-1.50918e-09,1.50887e-09,-1.34362e-08,717.622,-717.653,1.53588e-06,1.35206e-08,-1.35209e-08,2.89368e-17
-0.580025,0.66,0.129036,0.01,-3.44064,217.8,-93.5971,93.5657,-722.478,-1.76329e-09,1.76297e-09,-1.36119e-08,728.498,-728.529,1.80519e-06,1.37255e-08,-1.37258e-08,3.40108e-17
-0.570025,0.66,0.122275,0.01,-7.66129,217.8,-107.632,107.6,-731.658,-2.02771e-09,2.02738e-09,-1.37849e-08,739.514,-739.546,2.07884e-06,1.3933e-08,-1.39333e-08,3.91666e-17
-0.560025,0.66,0.115656,0.01,-11.8712,217.8,-122.226,122.193,-740.67,-2.30266e-09,2.30233e-09,-1.39546e-08,750.668,-750.701,2.35269e-06,1.41432e-08,-1.41435e-08,4.4326e-17
-0.550025,0.66,0.109551,0.01,-16.0688,217.8,-137.388,137.355,-749.488,-2.58833e-09,2.58799e-09,-1.41208e-08,761.957,-761.99,2.62089e-06,1.43559e-08,-1.43562e-08,4.93792e-17
-0.540025,0.66,0.102988,0.01,-20.2527,217.8,-153.13,153.096,-758.087,-2.88491e-09,2.88457e-09,-1.42828e-08,773.378,-773.412,2.87683e-06,1.4571e-08,-1.45714e-08,5.42012e-17
-0.530025,0.66,0.0965626,0.01,-24.4213,217.8,-169.46,169.426,-766.438,-3.19257e-09,3.19223e-09,-1.44401e-08,784.928,-784.962,3.11423e-06,1.47886e-08,-1.4789e-08,5.86738e-17
-0.520025,0.66,0.090786,0.01,-28.573,217.8,-186.386,186.351,-774.512,-3.51146e-09,3.51111e-09,-1.45923e-08,796.602,-796.636,3.32361e-06,1.50086e-08,-1.50089e-08,6.26186e-17
-0.510025,0.66,0.0842858,0.01,-32.706,217.8,-203.914,203.879,-782.278,-3.84171e-09,3.84135e-09,-1.47386e-08,808.396,-808.431,3.47668e-06,1.52308e-08,-1.52312e-08,6.55026e-17
-0.500025,0.66,0.0781523,0.01,-36.8186,217.8,-222.051,222.016,-789.703,-4.18341e-09,4.18306e-09,-1.48785e-08,820.305,-820.34,3.73921e-06,1.54552e-08,-1.54555e-08,7.04489e-17
-0.490025,0.66,0.0728103,0.01,-40.909,217.8,-240.8,240.765,-796.754,-4.53666e-09,4.5363e-09,-1.50113e-08,832.324,-832.359,3.30678e-06,1.56816e-08,-1.5682e-08,6.23017e-17
-0.480025,0.66,0.0662156,0.01,-44.9753,217.8,-260.164,260.129,-803.395,-4.9015e-09,4.90114e-09,-1.51364e-08,844.447,-844.482,2.67918e-06,1.591e-08,-1.59104e-08,5.04773e-17
-0.470025,0.66,0.0605613,0.01,-49.0156,217.8,-280.145,280.11,-809.591,-5.27794e-09,5.27758e-09,-1.52532e-08,856.667,-856.702,2.32027e-05,1.61403e-08,-1.61406e-08,4.37152e-16
-0.460025,0.66,0.0550839,0.01,-53.0279,217.8,-300.741,300.706,-815.302,-5.66598e-09,5.66563e-09,-1.53608e-08,868.978,-869.013,-0.000130705,1.63722e-08,-1.63726e-08,-2.46255e-15
-0.450025,0.66,0.0488942,0.01,-57.0101,217.8,-321.949,321.914,-820.491,-6.06555e-09,6.06519e-09,-1.54585e-08,881.37,-881.405,0.000560908,1.66057e-08,-1.6606e-08,1.05678e-14
-0.440025,0.66,0.0441254,0.01,-60.9601,217.8,-343.768,343.731,-825.118,-6.47663e-09,6.47626e-09,-1.55457e-08,893.841,-893.877,-0.000972548,1.68406e-08,-1.6841e-08,-1.83234e-14
-0.430025,0.66,0.0379976,0.01,-64.8758,217.8,-366.168,366.156,-829.114,-6.89876e-09,6.89864e-09,-1.5621e-08,906.363,-906.375,-0.00692123,1.70765e-08,-1.70766e-08,-1.304e-13
-0.420025,0.66,0.0326723,0.01,-68.7548,217.8,-388.636,389.604,-831.531,-7.32633e-09,7.33616e-09,-1.56665e-08,918.557,-917.588,-0.368448,1.73019e-08,-1.72921e-08,-6.94177e-12
-0.410025,0.66,0.0281404,0.01,-72.5949,217.8,-408.234,412.91,-831.496,-7.7117e-09,7.75914e-09,-1.56659e-08,929.676,-925,0.319912,1.74953e-08,-1.74479e-08,6.02732e-12
-0.400025,0.66,0.0218412,0.01,-76.3937,217.8,-429.548,437.373,-832.083,-8.12695e-09,8.20633e-09,-1.56769e-08,942.128,-934.304,0.712285,1.77162e-08,-1.76368e-08,1.34199e-11
-0.390025,0.66,0.0190313,0.01,-80.1488,217.8,-450.341,464.281,-826.267,-8.54529e-09,8.68671e-09,-1.55674e-08,951.347,-937.406,-2.05519,1.78633e-08,-1.77219e-08,-3.8721e-11
-0.380025,0.66,0.0119153,0.01,-83.8575,217.8,-467.836,484.41,-824.41,-8.88636e-09,9.0545e-09,-1.55324e-08,960.306,-943.732,2.0927,1.80207e-08,-1.78525e-08,3.94277e-11
-0.370025,0.66,0.00911603,0.01,-87.5184,217.8,-500.061,511.294,-824.746,-9.47028e-09,9.58424e-09,-1.55387e-08,973.043,-961.81,-1.14099,1.82839e-08,-1.81699e-08,-2.1497e-11
0.369975,0.66,0.00912738,0.01,-87.5365,217.8,-500.377,511.372,824.866,-9.4752e-09,9.58674e-09,1.55409e-08,973.129,-962.134,1.13533,1.82865e-08,-1.8175e-08,2.13903e-11
0.379975,0.66,0.0118822,0.01,-83.8759,217.8,-468.062,484.448,824.46,-8.8898e-09,9.05604e-09,1.55333e-08,960.322,-943.935,-2.1114,1.80218e-08,-1.78555e-08,-3.978e-11
0.389975,0.66,0.0190294,0.01,-80.1674,217.8,-450.489,464.386,826.294,-8.5479e-09,8.68888e-09,1.55679e-08,951.409,-937.513,2.04796,1.78647e-08,-1.77237e-08,3.85848e-11
0.399975,0.66,0.0218168,0.01,-76.4124,217.8,-429.676,437.49,832.1,-8.12932e-09,8.20859e-09,1.56772e-08,942.195,-934.381,-0.714756,1.77175e-08,-1.76383e-08,-1.34664e-11
0.409975,0.66,0.0281038,0.01,-72.6139,217.8,-408.352,413.025,831.51,-7.7139e-09,7.76132e-09,1.56661e-08,929.738,-925.065,-0.322397,1.74965e-08,-1.74491e-08,-6.07415e-12
0.419975,0.66,0.0326513,0.01,-68.774,217.8,-388.752,389.721,831.545,-7.32853e-09,7.33836e-09,1.56668e-08,918.62,-917.651,0.369647,1.73031e-08,-1.72933e-08,6.96437e-12
0.429975,0.66,0.0379664,0.01,-64.8952,217.8,-366.281,366.268,829.132,-6.90089e-09,6.90076e-09,1.56213e-08,906.425,-906.437,0.00671287,1.70776e-08,-1.70778e-08,1.26474e-13
0.439975,0.66,0.0441061,0.01,-60.9797,217.8,-343.878,343.841,825.14,-6.4787e-09,6.47833e-09,1.55461e-08,893.903,-893.939,0.00103148,1.68418e-08,-1.68422e-08,1.94337e-14
0.449975,0.66,0.0488666,0.01,-57.0299,217.8,-322.056,322.021,820.515,-6.06756e-09,6.06721e-09,1.5459e-08,881.432,-881.467,-0.000571835,1.66068e-08,-1.66072e-08,-1.07737e-14
0.459975,0.66,0.0550503,0.01,-53.0478,217.8,-300.845,300.81,815.329,-5.66794e-09,5.66759e-09,1.53613e-08,869.039,-869.074,0.000131975,1.63734e-08,-1.63737e-08,2.48649e-15
0.469975,0.66,0.060536,0.01,-49.0357,217.8,-280.246,280.211,809.621,-5.27984e-09,5.27948e-09,1.52537e-08,856.728,-856.763,-2.32032e-05,1.61414e-08,-1.61418e-08,-4.37161e-16
0.479975,0.66,0.0661849,0.01,-44.9955,217.8,-260.262,260.227,803.427,-4.90334e-09,4.90298e-09,1.5137e-08,844.507,-844.543,-2.72023e-06,1.59112e-08,-1.59115e-08,-5.12507e-17
0.489975,0.66,0.0727756,0.01,-40.9293,217.8,-240.895,240.859,796.788,-4.53844e-09,4.53809e-09,1.50119e-08,832.384,-832.419,-3.29653e-06,1.56828e-08,-1.56831e-08,-6.21086e-17
0.499975,0.66,0.0781238,0.01,-36.839,217.8,-222.143,222.107,789.739,-4.18514e-09,4.18478e-09,1.48791e-08,820.364,-820.4,-3.7412e-06,1.54563e-08,-1.54567e-08,-7.04863e-17
0.509975,0.66,0.0842534,0.01,-32.7265,217.8,-204.003,203.968,782.315,-3.84338e-09,3.84302e-09,1.47393e-08,808.455,-808.49,-3.47719e-06,1.52319e-08,-1.52323e-08,-6.55124e-17
0.519975,0.66,0.0907591,0.01,-28.5936,217.8,-186.471,186.437,774.551,-3.51308e-09,3.51273e-09,1.4593e-08,796.66,-796.695,-3.3243e-06,1.50097e-08,-1.501e-08,-6.26317e-17
0.529975,0.66,0.0965321,0.01,-24.442,217.8,-169.543,169.508,766.479,-3.19413e-09,3.19379e-09,1.44409e-08,784.985,-785.02,-3.11571e-06,1.47897e-08,-1.47901e-08,-5.87018e-17
0.539975,0.66,0.102955,0.01,-20.2735,217.8,-153.21,153.176,758.129,-2.88642e-09,2.88607e-09,1.42836e-08,773.435,-773.469,-2.87874e-06,1.45721e-08,-1.45725e-08,-5.42371e-17
0.549975,0.66,0.109522,0.01,-16.0897,217.8,-137.465,137.432,749.532,-2.58978e-09,2.58944e-09,1.41216e-08,762.013,-762.047,-2.62252e-06,1.43569e-08,-1.43573e-08,-4.94099e-17
0.559975,0.66,0.115624,0.01,-11.8921,217.8,-122.3,122.267,740.714,-2.30405e-09,2.30372e-09,1.39555e-08,750.724,-750.756,-2.35364e-06,1.41442e-08,-1.41445e-08,-4.43439e-17
0.569975,0.66,0.122241,0.01,-7.68225,217.8,-107.703,107.671,731.703,-2.02905e-09,2.02873e-09,1.37857e-08,739.569,-739.601,-2.08009e-06,1.39341e-08,-1.39344e-08,-3.91901e-17
0.579975,0.66,0.129006,0.01,-3.46165,217.8,-93.6656,93.6341,722.524,-1.76458e-09,1.76426e-09,1.36128e-08,728.552,-728.584,-1.80659e-06,1.37265e-08,-1.37268e-08,-3.40372e-17
0.589975,0.66,0.135336,0.01,0.768319,217.8,-80.1754,80.1446,713.201,-1.51042e-09,1.5101e-09,1.34371e-08,717.676,-717.707,-1.53726e-06,1.35216e-08,-1.35219e-08,-2.89628e-17
0.599975,0.66,0.142089,0.01,5.00631,217.8,-67.2209,67.1909,703.755,-1.26635e-09,1.26605e-09,1.32592e-08,706.942,-706.972,-1.2761e-06,1.33193e-08,-1.33196e-08,-2.40425e-17
0.609975,0.66,0.149138,0.01,9.25102,217.8,-54.79,54.7606,694.208,-1.03215e-09,1.03185e-09,1.30793e-08,696.351,-696.381,-1.02571e-06,1.31198e-08,-1.31201e-08,-1.9325e-17
0.619975,0.66,0.155635,0.01,13.5012,217.8,-42.8699,42.8413,684.58,-8.0757e-10,8.07279e-10,1.28979e-08,685.906,-685.935,-7.89057e-07,1.2923e-08,-1.29233e-08,-1.48663e-17
0.629975,0.66,0.162487,0.01,17.7557,217.8,-31.4478,31.4199,674.89,-5.92374e-10,5.92091e-10,1.27153e-08,675.607,-675.635,-5.67165e-07,1.2729e-08,-1.27292e-08,-1.06857e-17
0.639975,0.66,0.169653,0.01,22.0133,217.8,-20.5105,20.4834,665.154,-3.86312e-10,3.86037e-10,1.25319e-08,665.456,-665.483,-3.61038e-07,1.25377e-08,-1.2538e-08,-6.80216e-18
0.649975,0.66,0.176501,0.01,26.273,217.8,-10.0448,10.0184,655.389,-1.89134e-10,1.88867e-10,1.23479e-08,655.452,-655.478,-1.72093e-07,1.23492e-08,-1.23495e-08,-3.24233e-18
0.659975,0.66,0.18343,0.01,30.5337,217.8,-0.037098,0.0115492,645.609,-5.87865e-13,3.28675e-13,1.21637e-08,645.596,-645.622,-2.49223e-10,1.21635e-08,-1.21638e-08,-4.69551e-21
0.669975,0.66,0.190631,0.01,34.7944,217.8,9.5259,-9.55068,635.83,1.79581e-10,-1.79833e-10,1.19794e-08,635.889,-635.914,1.5423e-07,1.19806e-08,-1.19809e-08,2.90578e-18
0.679975,0.66,0.197924,0.01,39.0542,217.8,18.6577,-18.6817,626.063,3.51627e-10,-3.5187e-10,1.17954e-08,626.33,-626.354,2.91554e-07,1.18005e-08,-1.18008e-08,5.49305e-18
0.689975,0.66,0.204912,0.01,43.3121,217.8,27.3718,-27.395,616.322,5.15801e-10,-5.16036e-10,1.16119e-08,616.918,-616.941,4.12409e-07,1.16232e-08,-1.16234e-08,7.77003e-18
0.699975,0.66,0.212142,0.01,47.5672,217.8,35.6814,-35.7038,606.616,6.72355e-10,-6.72583e-10,1.1429e-08,607.654,-607.676,5.17428e-07,1.14486e-08,-1.14489e-08,9.74864e-18
0.709975,0.66,0.21959,0.01,51.8188,217.8,43.3281,-43.8964,597.483,8.18797e-10,-8.24562e-10,1.12569e-08,598.788,-599.357,0.0367708,1.1284e-08,-1.12898e-08,6.92782e-13
0.719975,0.66,0.226933,0.01,56.066,217.8,49.8761,-52.8387,589.913,9.52576e-10,-9.82631e-10,1.11143e-08,590.663,-593.626,0.0160334,1.11413e-08,-1.11714e-08,3.02079e-13
0.729975,0.66,0.234186,0.01,60.3081,217.8,55.3488,-62.8734,583.699,1.07552e-09,-1.15185e-09,1.09972e-08,582.922,-590.447,-0.190779,1.10153e-08,-1.10916e-08,-3.59438e-12
0.739975,0.66,0.241635,0.01,64.5444,217.8,62.2748,-71.5058,577.11,1.21343e-09,-1.30708e-09,1.08731e-08,576.358,-585.589,-0.733488,1.08991e-08,-1.09927e-08,-1.38193e-11
-0.730025,0.67,0.24111,0.01,64.1646,224.45,45.6887,-54.9997,-579.578,9.01284e-10,-9.95743e-10,-1.09196e-08,577.105,-586.416,0.552798,1.09135e-08,-1.10079e-08,1.0415e-11
-0.720025,0.67,0.233737,0.01,59.9804,224.45,38.5691,-46.1494,-585.852,7.59621e-10,-8.36523e-10,-1.10378e-08,583.591,-591.171,0.136375,1.10281e-08,-1.1105e-08,2.56938e-12
-0.710025,0.67,0.226311,0.01,55.7921,224.45,32.8515,-35.8325,-591.735,6.31903e-10,-6.62144e-10,-1.11486e-08,591.24,-594.221,-0.0110192,1.11523e-08,-1.11825e-08,-2.07607e-13
-0.700025,0.67,0.21909,0.01,51.6003,224.45,25.9582,-26.5293,-598.967,4.9155e-10,-4.97345e-10,-1.12849e-08,599.256,-599.827,-0.0222203,1.12928e-08,-1.12986e-08,-4.18644e-13
-0.690025,0.67,0.212094,0.01,47.4059,224.45,17.8895,-17.9121,-607.75,3.37146e-10,-3.37376e-10,-1.14504e-08,608.002,-608.025,-2.6366e-07,1.14552e-08,-1.14554e-08,-4.96751e-18
-0.680025,0.67,0.204801,0.01,43.2097,224.45,9.15342,-9.17675,-617.086,1.72557e-10,-1.72794e-10,-1.16263e-08,617.143,-617.166,-1.39558e-07,1.16274e-08,-1.16277e-08,-2.62935e-18
-0.670025,0.67,0.197607,0.01,39.0126,224.45,0.0112212,-0.0352749,-626.434,3.15995e-13,-5.60018e-13,-1.18024e-08,626.422,-626.446,-5.61496e-10,1.18023e-08,-1.18025e-08,-1.05789e-20
-0.660025,0.67,0.190667,0.01,34.8154,224.45,-9.54961,9.52484,-635.782,-1.79812e-10,1.79561e-10,-1.19785e-08,635.841,-635.866,1.53834e-07,1.19797e-08,-1.198e-08,2.89832e-18
-0.650025,0.67,0.183824,0.01,30.6193,224.45,-19.5416,19.5161,-645.117,-3.68063e-10,3.67805e-10,-1.21544e-08,645.4,-645.426,3.23564e-07,1.21598e-08,-1.21601e-08,6.09614e-18
-0.640025,0.67,0.176664,0.01,26.4251,224.45,-29.9771,29.9509,-654.425,-5.64671e-10,5.64405e-10,-1.23298e-08,655.098,-655.124,5.08103e-07,1.23425e-08,-1.23428e-08,9.57296e-18
-0.630025,0.67,0.169792,0.01,22.2339,224.45,-40.8685,40.8416,-663.691,-7.69868e-10,7.69596e-10,-1.25043e-08,664.934,-664.961,7.07156e-07,1.25279e-08,-1.25281e-08,1.33232e-17
-0.620025,0.67,0.163243,0.01,18.0468,224.45,-52.228,52.2004,-672.9,-9.83885e-10,9.83605e-10,-1.26778e-08,674.909,-674.936,9.1967e-07,1.27158e-08,-1.27161e-08,1.73271e-17
-0.610025,0.67,0.156264,0.01,13.8649,224.45,-64.0676,64.0393,-682.033,-1.20695e-09,1.20666e-09,-1.28499e-08,685.02,-685.048,1.14384e-06,1.29063e-08,-1.29066e-08,2.15507e-17
-0.600025,0.67,0.149479,0.01,9.68945,224.45,-76.399,76.3701,-691.072,-1.43928e-09,1.43898e-09,-1.30202e-08,695.267,-695.295,1.37819e-06,1.30994e-08,-1.30996e-08,2.59659e-17
-0.590025,0.67,0.143072,0.01,5.52162,224.45,-89.2336,89.2041,-699.999,-1.68109e-09,1.68079e-09,-1.31884e-08,705.648,-705.677,1.62011e-06,1.32949e-08,-1.32952e-08,3.05238e-17
-0.580025,0.67,0.136411,0.01,1.36272,224.45,-102.582,102.552,-708.793,-1.93258e-09,1.93228e-09,-1.33541e-08,716.161,-716.191,1.86614e-06,1.3493e-08,-1.34933e-08,3.51591e-17
-0.570025,0.67,0.129742,0.01,-2.78592,224.45,-116.456,116.425,-717.432,-2.19396e-09,2.19365e-09,-1.35168e-08,726.804,-726.835,2.11271e-06,1.36935e-08,-1.36939e-08,3.98047e-17
-0.560025,0.67,0.123524,0.01,-6.92291,224.45,-130.864,130.833,-725.892,-2.46542e-09,2.4651e-09,-1.36762e-08,737.575,-737.606,2.3554e-06,1.38965e-08,-1.38968e-08,4.43771e-17
-0.550025,0.67,0.117115,0.01,-11.0468,224.45,-145.816,145.784,-734.149,-2.74712e-09,2.74679e-09,-1.38318e-08,748.471,-748.503,2.58851e-06,1.41018e-08,-1.41021e-08,4.87691e-17
-0.540025,0.67,0.110606,0.01,-15.1561,224.45,-161.32,161.288,-742.178,-3.03922e-09,3.03889e-09,-1.39831e-08,759.489,-759.521,2.80546e-06,1.43093e-08,-1.43097e-08,5.28564e-17
-0.530025,0.67,0.104649,0.01,-19.2493,224.45,-177.383,177.351,-749.952,-3.34187e-09,3.34154e-09,-1.41295e-08,770.624,-770.657,2.99903e-06,1.45191e-08,-1.45195e-08,5.65034e-17
-0.520025,0.67,0.0983917,0.01,-23.3248,224.45,-194.014,193.981,-757.441,-3.65518e-09,3.65485e-09,-1.42706e-08,781.873,-781.906,3.16122e-06,1.47311e-08,-1.47314e-08,5.95593e-17
-0.510025,0.67,0.092112,0.01,-27.3808,224.45,-211.215,211.182,-764.617,-3.97927e-09,3.97894e-09,-1.44058e-08,793.232,-793.265,3.28449e-06,1.49451e-08,-1.49454e-08,6.18818e-17
-0.500025,0.67,0.086535,0.01,-31.4157,224.45,-228.993,228.96,-771.448,-4.31422e-09,4.31388e-09,-1.45345e-08,804.696,-804.729,3.35305e-06,1.51611e-08,-1.51614e-08,6.31734e-17
-0.490025,0.67,0.0802729,0.01,-35.4277,224.45,-247.35,247.316,-777.902,-4.66006e-09,4.65973e-09,-1.46561e-08,816.259,-816.292,3.30418e-06,1.53789e-08,-1.53793e-08,6.22527e-17
-0.480025,0.67,0.0743431,0.01,-39.415,224.45,-266.286,266.253,-783.946,-5.01684e-09,5.0165e-09,-1.477e-08,827.915,-827.948,3.66614e-06,1.55985e-08,-1.55989e-08,6.90721e-17
-0.470025,0.67,0.0692149,0.01,-43.3756,224.45,-285.803,285.769,-789.544,-5.38454e-09,5.38421e-09,-1.48755e-08,839.658,-839.691,1.74447e-06,1.58198e-08,-1.58201e-08,3.28668e-17
-0.460025,0.67,0.062826,0.01,-47.3077,224.45,-305.897,305.864,-794.66,-5.76313e-09,5.76279e-09,-1.49719e-08,851.481,-851.514,3.19826e-06,1.60425e-08,-1.60429e-08,6.0257e-17
-0.450025,0.67,0.0574762,0.01,-51.2091,224.45,-326.564,326.532,-799.258,-6.15252e-09,6.15219e-09,-1.50585e-08,863.377,-863.409,3.76678e-05,1.62667e-08,-1.6267e-08,7.09684e-16
-0.440025,0.67,0.0520797,0.01,-55.078,224.45,-347.8,347.768,-803.299,-6.55261e-09,6.55229e-09,-1.51346e-08,875.337,-875.369,-0.000295461,1.6492e-08,-1.64923e-08,-5.56666e-15
-0.430025,0.67,0.0462164,0.01,-58.912,224.45,-369.593,369.56,-806.745,-6.9632e-09,6.96287e-09,-1.51995e-08,887.353,-887.386,0.00156563,1.67184e-08,-1.67187e-08,2.94973e-14
-0.420025,0.67,0.0419477,0.01,-62.709,224.45,-391.943,391.913,-809.553,-7.3843e-09,7.38399e-09,-1.52525e-08,899.42,-899.45,-0.0057566,1.69457e-08,-1.6946e-08,-1.08458e-13
-0.410025,0.67,0.0356682,0.01,-66.4669,224.45,-414.757,414.767,-811.652,-7.8143e-09,7.8144e-09,-1.5292e-08,911.491,-911.481,0.0185986,1.7173e-08,-1.71729e-08,3.50408e-13
-0.400025,0.67,0.0309414,0.01,-70.1833,224.45,-437.663,438.656,-812.158,-8.25014e-09,8.26021e-09,-1.53015e-08,923.31,-922.317,-0.41334,1.73914e-08,-1.73813e-08,-7.78757e-12
-0.390025,0.67,0.0260474,0.01,-73.8558,224.45,-457.522,461.914,-810.274,-8.63908e-09,8.68364e-09,-1.5266e-08,933.8,-929.407,0.348854,1.75742e-08,-1.75297e-08,6.57262e-12
-0.380025,0.67,0.020484,0.01,-77.4822,224.45,-479.333,486.107,-809.565,-9.06037e-09,9.12909e-09,-1.52527e-08,945.943,-939.169,1.14598,1.77927e-08,-1.77239e-08,2.15909e-11
-0.370025,0.67,0.0179497,0.01,-81.0599,224.45,-501.848,512.337,-802.67,-9.50071e-09,9.60713e-09,-1.51228e-08,954.676,-944.186,-1.73279,1.7941e-08,-1.78346e-08,-3.26467e-11
-0.360025,0.67,0.0106779,0.01,-84.5861,224.45,-522.451,528.671,-799.659,-9.87032e-09,9.93342e-09,-1.5066e-08,960.011,-953.791,3.05737,1.80601e-08,-1.7997e-08,5.76025e-11
-0.350025,0.67,0.0102882,0.01,-88.0607,224.45,-557.559,558.205,-801.208,-1.05075e-08,1.05141e-08,-1.50952e-08,976.626,-975.98,-0.288387,1.83974e-08,-1.83908e-08,-5.43337e-12
0.349975,0.67,0.0103105,0.01,-88.0779,224.45,-557.917,558.31,801.312,-1.05132e-08,1.05172e-08,1.50972e-08,976.717,-976.324,0.304778,1.84002e-08,-1.83962e-08,5.7422e-12
0.359975,0.67,0.0106528,0.01,-84.6035,224.45,-522.735,528.699,799.709,-9.87456e-09,9.93507e-09,1.5067e-08,960.011,-954.046,-3.06522,1.80612e-08,-1.80007e-08,-5.77505e-11
0.369975,0.67,0.017907,0.01,-81.0776,224.45,-502.05,512.435,802.706,-9.50406e-09,9.60942e-09,1.51235e-08,954.734,-944.349,1.73241,1.79426e-08,-1.78372e-08,3.26395e-11
0.379975,0.67,0.0204648,0.01,-77.5001,224.45,-479.483,486.219,809.585,-9.06302e-09,9.13136e-09,1.52531e-08,946.009,-939.273,-1.15019,1.77941e-08,-1.77257e-08,-2.16703e-11
0.389975,0.67,0.0260132,0.01,-73.874,224.45,-457.649,462.028,810.284,-8.64141e-09,8.68583e-09,1.52662e-08,933.86,-929.482,-0.352234,1.75754e-08,-1.7531e-08,-6.6363e-12
0.399975,0.67,0.0309242,0.01,-70.2016,224.45,-437.783,438.775,812.165,-8.2524e-09,8.26246e-09,1.53017e-08,923.372,-922.38,0.414387,1.73926e-08,-1.73825e-08,7.80728e-12
0.409975,0.67,0.0356393,0.01,-66.4855,224.45,-414.871,414.881,811.661,-7.81646e-09,7.81656e-09,1.52922e-08,911.551,-911.541,-0.0192036,1.71741e-08,-1.7174e-08,-3.61807e-13
0.419975,0.67,0.0419314,0.01,-62.7278,224.45,-392.055,392.025,809.566,-7.38642e-09,7.38611e-09,1.52527e-08,899.48,-899.51,0.00587975,1.69469e-08,-1.69472e-08,1.10778e-13
0.429975,0.67,0.0461908,0.01,-58.931,224.45,-369.703,369.67,806.76,-6.96527e-09,6.96494e-09,1.51998e-08,887.413,-887.445,-0.00158365,1.67195e-08,-1.67198e-08,-2.98368e-14
0.439975,0.67,0.0520474,0.01,-55.0971,224.45,-347.907,347.875,803.318,-6.55462e-09,6.5543e-09,1.5135e-08,875.397,-875.429,0.00029663,1.64931e-08,-1.64934e-08,5.58869e-15
0.449975,0.67,0.0574527,0.01,-51.2285,224.45,-326.669,326.636,799.28,-6.15448e-09,6.15415e-09,1.50589e-08,863.436,-863.469,-3.73496e-05,1.62678e-08,-1.62681e-08,-7.03688e-16
0.459975,0.67,0.0627966,0.01,-47.3272,224.45,-305.998,305.965,794.685,-5.76504e-09,5.7647e-09,1.49723e-08,851.54,-851.573,-3.33786e-06,1.60436e-08,-1.6044e-08,-6.28872e-17
0.469975,0.67,0.069181,0.01,-43.3953,224.45,-285.901,285.868,789.571,-5.3864e-09,5.38606e-09,1.4876e-08,839.716,-839.75,-1.71323e-06,1.58209e-08,-1.58212e-08,-3.22782e-17
0.479975,0.67,0.0743158,0.01,-39.4348,224.45,-266.382,266.348,783.975,-5.01864e-09,5.0183e-09,1.47705e-08,827.973,-828.006,-3.66954e-06,1.55996e-08,-1.56e-08,-6.91363e-17
0.489975,0.67,0.0802414,0.01,-35.4476,224.45,-247.442,247.409,777.933,-4.66181e-09,4.66147e-09,1.46567e-08,816.316,-816.35,-3.30433e-06,1.538e-08,-1.53804e-08,-6.22555e-17
0.499975,0.67,0.0865093,0.01,-31.4357,224.45,-229.083,229.05,771.481,-4.31591e-09,4.31557e-09,1.45351e-08,804.753,-804.786,-3.35326e-06,1.51622e-08,-1.51625e-08,-6.31774e-17
0.509975,0.67,0.0920824,0.01,-27.4009,224.45,-211.302,211.269,764.652,-3.98091e-09,3.98058e-09,1.44065e-08,793.289,-793.322,-3.28469e-06,1.49462e-08,-1.49465e-08,-6.18855e-17
0.519975,0.67,0.0983589,0.01,-23.345,224.45,-194.098,194.065,757.477,-3.65677e-09,3.65644e-09,1.42713e-08,781.93,-781.962,-3.16167e-06,1.47321e-08,-1.47325e-08,-5.95677e-17
0.529975,0.67,0.104621,0.01,-19.2696,224.45,-177.465,177.432,749.989,-3.3434e-09,3.34307e-09,1.41302e-08,770.68,-770.712,-2.99987e-06,1.45202e-08,-1.45205e-08,-5.65194e-17
0.539975,0.67,0.110575,0.01,-15.1765,224.45,-161.398,161.366,742.217,-3.0407e-09,3.04037e-09,1.39838e-08,759.544,-759.576,-2.80642e-06,1.43104e-08,-1.43107e-08,-5.28745e-17
0.549975,0.67,0.117081,0.01,-11.0673,224.45,-145.891,145.86,734.19,-2.74854e-09,2.74822e-09,1.38326e-08,748.526,-748.557,-2.58925e-06,1.41028e-08,-1.41031e-08,-4.8783e-17
0.559975,0.67,0.123495,0.01,-6.94345,224.45,-130.937,130.906,725.933,-2.46679e-09,2.46648e-09,1.3677e-08,737.629,-737.66,-2.35568e-06,1.38975e-08,-1.38978e-08,-4.43823e-17
0.569975,0.67,0.12971,0.01,-2.80652,224.45,-116.526,116.496,717.474,-2.19529e-09,2.19498e-09,1.35176e-08,726.857,-726.888,-2.11348e-06,1.36945e-08,-1.36949e-08,-3.98192e-17
0.579975,0.67,0.136377,0.01,1.34206,224.45,-102.65,102.62,708.837,-1.93386e-09,1.93355e-09,1.33549e-08,716.213,-716.244,-1.86715e-06,1.3494e-08,-1.34943e-08,-3.51783e-17
0.589975,0.67,0.143041,0.01,5.50092,224.45,-89.2987,89.2692,700.044,-1.68231e-09,1.68201e-09,1.31892e-08,705.699,-705.729,-1.62105e-06,1.32959e-08,-1.32962e-08,-3.05414e-17
0.599975,0.67,0.149446,0.01,9.66871,224.45,-76.4616,76.4327,691.117,-1.44045e-09,1.44016e-09,1.3021e-08,695.318,-695.347,-1.3792e-06,1.31003e-08,-1.31006e-08,-2.59849e-17
0.609975,0.67,0.156229,0.01,13.8441,224.45,-64.1277,64.0994,682.078,-1.20808e-09,1.20779e-09,1.28507e-08,685.07,-685.099,-1.14452e-06,1.29072e-08,-1.29075e-08,-2.15635e-17
0.619975,0.67,0.163211,0.01,18.026,224.45,-52.2856,52.2581,672.945,-9.84972e-10,9.84692e-10,1.26787e-08,674.958,-674.986,-9.20474e-07,1.27167e-08,-1.2717e-08,-1.73423e-17
0.629975,0.67,0.169758,0.01,22.2131,224.45,-40.9238,40.8969,663.737,-7.70911e-10,7.70638e-10,1.25052e-08,664.983,-665.01,-7.08307e-07,1.25288e-08,-1.25291e-08,-1.33449e-17
0.639975,0.67,0.176629,0.01,26.4043,224.45,-30.0301,30.0039,654.471,-5.6567e-10,5.65404e-10,1.23306e-08,655.146,-655.173,-5.09261e-07,1.23435e-08,-1.23437e-08,-9.59476e-18
0.649975,0.67,0.183787,0.01,30.5984,224.45,-19.5923,19.5668,645.164,-3.6902e-10,3.68762e-10,1.21553e-08,645.448,-645.473,-3.24743e-07,1.21607e-08,-1.2161e-08,-6.11834e-18
0.659975,0.67,0.190633,0.01,34.7946,224.45,-9.59822,9.57345,635.829,-1.80728e-10,1.80477e-10,1.19794e-08,635.889,-635.913,-1.54819e-07,1.19806e-08,-1.19809e-08,-2.91688e-18
0.669975,0.67,0.197572,0.01,38.9917,224.45,-0.0352792,0.011222,626.481,-5.60085e-13,3.16026e-13,1.18033e-08,626.469,-626.493,-3.71292e-10,1.18031e-08,-1.18034e-08,-6.99535e-21
0.679975,0.67,0.204765,0.01,43.1888,224.45,9.10897,-9.13231,617.133,1.7172e-10,-1.71957e-10,1.16271e-08,617.188,-617.212,1.38696e-07,1.16283e-08,-1.16285e-08,2.61312e-18
0.689975,0.67,0.21206,0.01,47.385,224.45,17.847,-17.8696,607.797,3.36346e-10,-3.36576e-10,1.14512e-08,608.048,-608.07,2.62878e-07,1.14561e-08,-1.14563e-08,4.95278e-18
0.699975,0.67,0.219054,0.01,51.5794,224.45,25.9176,-26.4888,599.013,4.90786e-10,-4.96581e-10,1.12858e-08,599.3,-599.871,0.022187,1.12936e-08,-1.12994e-08,4.18015e-13
0.709975,0.67,0.226274,0.01,55.7712,224.45,32.8125,-35.7939,591.781,6.3117e-10,-6.61415e-10,1.11495e-08,591.284,-594.265,0.0110077,1.11531e-08,-1.11833e-08,2.07392e-13
0.719975,0.67,0.233699,0.01,59.9596,224.45,38.5313,-46.1125,585.898,7.58913e-10,-8.35824e-10,1.10387e-08,583.634,-591.215,-0.136258,1.1029e-08,-1.11059e-08,-2.56719e-12
0.729975,0.67,0.241074,0.01,64.1438,224.45,45.6521,-54.9643,579.625,9.00599e-10,-9.95071e-10,1.09205e-08,577.147,-586.46,-0.552424,1.09143e-08,-1.10088e-08,-1.0408e-11
-0.720025,0.68,0.240444,0.01,63.8779,231.2,28.9548,-38.3242,-581.383,5.86261e-10,-6.81313e-10,-1.09536e-08,577.67,-587.04,0.369742,1.09244e-08,-1.10194e-08,6.96616e-12
-0.710025,0.68,0.233232,0.01,59.7476,231.2,21.6573,-29.2756,-587.324,4.41159e-10,-5.18446e-10,-1.10655e-08,584.067,-591.685,0.0818542,1.10373e-08,-1.11146e-08,1.54218e-12
-0.700025,0.68,0.226232,0.01,55.6148,231.2,15.7073,-18.6995,-592.86,3.08944e-10,-3.393e-10,-1.11698e-08,591.613,-594.606,-0.00561018,1.11593e-08,-1.11897e-08,-1.05699e-13
-0.690025,0.68,0.218935,0.01,51.4803,231.2,8.48356,-9.05621,-599.735,1.62325e-10,-1.68134e-10,-1.12993e-08,599.512,-600.085,-0.00744121,1.12976e-08,-1.13035e-08,-1.40197e-13
-0.680025,0.68,0.211749,0.01,47.3449,231.2,0.0109026,-0.0335722,-608.146,3.03975e-13,-5.33957e-13,-1.14578e-08,608.134,-608.157,-2.67067e-10,1.14577e-08,-1.14579e-08,-5.03169e-21
-0.670025,0.68,0.2048,0.01,43.2095,231.2,-9.1313,9.10796,-617.087,-1.71938e-10,1.71701e-10,-1.16263e-08,617.143,-617.166,1.38698e-07,1.16274e-08,-1.16277e-08,2.61315e-18
-0.660025,0.68,0.197959,0.01,39.075,231.2,-18.6796,18.6556,-626.017,-3.51831e-10,3.51587e-10,-1.17945e-08,626.283,-626.307,2.91172e-07,1.17996e-08,-1.17999e-08,5.48584e-18
-0.650025,0.68,0.190806,0.01,34.9424,231.2,-28.6457,28.621,-634.921,-5.39594e-10,5.39344e-10,-1.19623e-08,635.554,-635.579,4.57108e-07,1.19743e-08,-1.19746e-08,8.61219e-18
-0.640025,0.68,0.183918,0.01,30.8127,231.2,-39.0409,39.0156,-643.787,-7.35442e-10,7.35186e-10,-1.21293e-08,644.956,-644.982,6.35884e-07,1.21515e-08,-1.21517e-08,1.19804e-17
-0.630025,0.68,0.177327,0.01,26.6869,231.2,-49.8766,49.8506,-652.599,-9.3959e-10,9.39327e-10,-1.22953e-08,654.488,-654.514,8.26945e-07,1.23311e-08,-1.23313e-08,1.55801e-17
-0.620025,0.68,0.170404,0.01,22.566,231.2,-61.1639,61.1373,-661.342,-1.15225e-09,1.15198e-09,-1.24601e-08,664.15,-664.176,1.02836e-06,1.25131e-08,-1.25133e-08,1.9375e-17
-0.610025,0.68,0.163595,0.01,18.4513,231.2,-72.9138,72.8866,-669.998,-1.37362e-09,1.37334e-09,-1.26231e-08,673.939,-673.966,1.23853e-06,1.26975e-08,-1.26978e-08,2.33345e-17
-0.600025,0.68,0.157127,0.01,14.3439,231.2,-85.1369,85.1091,-678.55,-1.60391e-09,1.60363e-09,-1.27843e-08,683.854,-683.882,1.45593e-06,1.28843e-08,-1.28846e-08,2.74305e-17
-0.590025,0.68,0.150548,0.01,10.245,231.2,-97.8434,97.815,-686.978,-1.8433e-09,1.84301e-09,-1.29431e-08,693.895,-693.923,1.67754e-06,1.30735e-08,-1.30738e-08,3.16059e-17
-0.580025,0.68,0.14384,0.01,6.15583,231.2,-111.043,111.014,-695.263,-2.09199e-09,2.0917e-09,-1.30992e-08,704.058,-704.087,1.89987e-06,1.3265e-08,-1.32653e-08,3.57946e-17
-0.570025,0.68,0.137532,0.01,2.07781,231.2,-124.745,124.716,-703.383,-2.35014e-09,2.34985e-09,-1.32522e-08,714.342,-714.372,2.11936e-06,1.34588e-08,-1.34591e-08,3.993e-17
-0.560025,0.68,0.131245,0.01,-1.98773,231.2,-138.958,138.929,-711.316,-2.61793e-09,2.61762e-09,-1.34016e-08,724.745,-724.774,2.33134e-06,1.36547e-08,-1.3655e-08,4.39238e-17
-0.550025,0.68,0.124672,0.01,-6.03937,231.2,-153.691,153.661,-719.038,-2.89549e-09,2.89518e-09,-1.35471e-08,735.262,-735.292,2.53036e-06,1.38529e-08,-1.38532e-08,4.76735e-17
-0.540025,0.68,0.118578,0.01,-10.0756,231.2,-168.949,168.919,-726.525,-3.18297e-09,3.18266e-09,-1.36881e-08,745.891,-745.922,2.70979e-06,1.40532e-08,-1.40535e-08,5.1054e-17
-0.530025,0.68,0.112507,0.01,-14.095,231.2,-184.74,184.71,-733.749,-3.48048e-09,3.48017e-09,-1.38242e-08,756.629,-756.66,2.86245e-06,1.42555e-08,-1.42558e-08,5.39302e-17
-0.520025,0.68,0.10612,0.01,-18.0959,231.2,-201.069,201.038,-740.684,-3.78813e-09,3.78781e-09,-1.39549e-08,767.47,-767.502,2.9811e-06,1.44597e-08,-1.446e-08,5.61656e-17
-0.510025,0.68,0.100325,0.01,-22.0767,231.2,-217.94,217.909,-747.301,-4.10599e-09,4.10567e-09,-1.40796e-08,778.412,-778.443,3.0565e-06,1.46659e-08,-1.46662e-08,5.75862e-17
-0.500025,0.68,0.0943555,0.01,-26.0357,231.2,-235.356,235.325,-753.57,-4.43411e-09,4.43379e-09,-1.41977e-08,789.448,-789.479,3.07599e-06,1.48738e-08,-1.48741e-08,5.79535e-17
-0.490025,0.68,0.088239,0.01,-29.9711,231.2,-253.319,253.287,-759.461,-4.77253e-09,4.77222e-09,-1.43087e-08,800.574,-800.605,3.03838e-06,1.50834e-08,-1.50837e-08,5.72449e-17
-0.480025,0.68,0.0828812,0.01,-33.8813,231.2,-271.828,271.796,-764.941,-5.12126e-09,5.12094e-09,-1.44119e-08,811.783,-811.814,2.91509e-06,1.52946e-08,-1.52949e-08,5.4922e-17
-0.470025,0.68,0.0768347,0.01,-37.7642,231.2,-290.882,290.851,-769.978,-5.48025e-09,5.47994e-09,-1.45068e-08,823.07,-823.101,2.5802e-06,1.55072e-08,-1.55076e-08,4.86125e-17
-0.460025,0.68,0.0711336,0.01,-41.618,231.2,-310.478,310.448,-774.537,-5.84946e-09,5.84915e-09,-1.45927e-08,834.427,-834.458,3.33732e-06,1.57212e-08,-1.57215e-08,6.2877e-17
-0.450025,0.68,0.0661874,0.01,-45.4408,231.2,-330.612,330.581,-778.583,-6.22878e-09,6.22847e-09,-1.46689e-08,845.848,-845.879,-2.11278e-06,1.59364e-08,-1.59367e-08,-3.9806e-17
-0.440025,0.68,0.0600369,0.01,-49.2305,231.2,-351.275,351.245,-782.079,-6.61809e-09,6.61779e-09,-1.47348e-08,857.325,-857.355,1.00712e-05,1.61526e-08,-1.61529e-08,1.89748e-16
-0.430025,0.68,0.0550281,0.01,-52.9851,231.2,-372.459,372.429,-784.99,-7.01721e-09,7.01691e-09,-1.47897e-08,868.848,-868.878,2.89026e-05,1.63697e-08,-1.637e-08,5.44542e-16
-0.420025,0.68,0.049673,0.01,-56.7025,231.2,-394.151,394.123,-787.275,-7.42592e-09,7.42563e-09,-1.48327e-08,880.41,-880.438,-0.000421145,1.65876e-08,-1.65878e-08,-7.93462e-15
-0.410025,0.68,0.0441877,0.01,-60.3804,231.2,-416.339,416.308,-788.902,-7.84393e-09,7.84363e-09,-1.48634e-08,892.001,-892.031,0.00273968,1.68059e-08,-1.68063e-08,5.16172e-14
-0.400025,0.68,0.0401866,0.01,-64.0167,231.2,-439.013,438.996,-789.818,-8.27119e-09,8.27101e-09,-1.48806e-08,903.616,-903.633,-0.0129954,1.70247e-08,-1.70249e-08,-2.4484e-13
-0.390025,0.68,0.0340013,0.01,-67.6091,231.2,-462.056,462.043,-789.997,-8.70535e-09,8.70521e-09,-1.4884e-08,915.19,-915.204,0.0556705,1.72428e-08,-1.72429e-08,1.04887e-12
-0.380025,0.68,0.0299536,0.01,-71.1553,231.2,-485.378,486.156,-788.738,-9.14819e-09,9.15608e-09,-1.48603e-08,926.714,-925.936,-0.423508,1.74564e-08,-1.74485e-08,-7.97914e-12
-0.370025,0.68,0.0246237,0.01,-74.6529,231.2,-505.72,509.166,-785.068,-9.54303e-09,9.578e-09,-1.47911e-08,936.512,-933.066,0.271842,1.76294e-08,-1.75945e-08,5.12165e-12
-0.360025,0.68,0.0199538,0.01,-78.0995,231.2,-528.092,532.689,-783.084,-9.96954e-09,1.00162e-08,-1.47538e-08,948.096,-943.498,1.51884,1.78427e-08,-1.7796e-08,2.86158e-11
-0.350025,0.68,0.016501,0.01,-81.4928,231.2,-552.966,558.639,-774.892,-1.04429e-08,1.05004e-08,-1.45994e-08,956.445,-950.772,-2.06594,1.79953e-08,-1.79378e-08,-3.89235e-11
-0.340025,0.68,0.0104778,0.01,-84.8297,231.2,-573.443,573.726,-768.847,-1.08052e-08,1.08081e-08,-1.44855e-08,959.37,-959.087,2.3842,1.80739e-08,-1.8071e-08,4.49197e-11
-0.330025,0.68,0.0111526,0.01,-88.1107,231.2,-606.404,604.278,-768.155,-1.14158e-08,1.13942e-08,-1.44725e-08,976.945,-979.071,-0.293485,1.84155e-08,-1.8437e-08,-5.52943e-12
0.329975,0.68,0.0111032,0.01,-88.1268,231.2,-606.624,604.414,768.139,-1.14195e-08,1.13971e-08,1.44722e-08,977,-979.211,0.326704,1.84169e-08,-1.84393e-08,6.15529e-12
0.339975,0.68,0.010463,0.01,-84.8462,231.2,-573.683,573.824,768.845,-1.08091e-08,1.08106e-08,1.44855e-08,959.398,-959.258,-2.36057,1.8075e-08,-1.80736e-08,-4.44746e-11
0.349975,0.68,0.0164615,0.01,-81.5095,231.2,-553.191,558.748,774.913,-1.04466e-08,1.0503e-08,1.45998e-08,956.502,-950.945,2.07946,1.79969e-08,-1.79405e-08,3.91783e-11
0.359975,0.68,0.0199404,0.01,-78.1165,231.2,-528.256,532.801,783.097,-9.97241e-09,1.00185e-08,1.4754e-08,948.157,-943.613,-1.52004,1.78441e-08,-1.7798e-08,-2.86384e-11
0.369975,0.68,0.0245926,0.01,-74.6701,231.2,-505.861,509.281,785.072,-9.54558e-09,9.58028e-09,1.47912e-08,936.572,-933.151,-0.271917,1.76307e-08,-1.7596e-08,-5.12307e-12
0.379975,0.68,0.0299404,0.01,-71.1728,231.2,-485.504,486.276,788.74,-9.15053e-09,9.15836e-09,1.48603e-08,926.776,-926.005,0.423938,1.74576e-08,-1.74498e-08,7.98724e-12
0.389975,0.68,0.0339751,0.01,-67.6268,231.2,-462.172,462.158,789.997,-8.70753e-09,8.70738e-09,1.4884e-08,915.248,-915.263,-0.0565469,1.72439e-08,-1.7244e-08,-1.06538e-12
0.399975,0.68,0.040152,0.01,-64.0347,231.2,-439.127,439.11,789.82,-8.27333e-09,8.27316e-09,1.48807e-08,903.674,-903.691,0.0131287,1.70258e-08,-1.7026e-08,2.47352e-13
0.409975,0.68,0.0441644,0.01,-60.3986,231.2,-416.451,416.42,788.909,-7.84604e-09,7.84573e-09,1.48635e-08,892.058,-892.089,-0.00275095,1.6807e-08,-1.68073e-08,-5.18294e-14
0.419975,0.68,0.0496422,0.01,-56.7209,231.2,-394.26,394.233,787.285,-7.42797e-09,7.42769e-09,1.48329e-08,880.468,-880.495,0.000418978,1.65886e-08,-1.65889e-08,7.89379e-15
0.429975,0.68,0.0550066,0.01,-53.0037,231.2,-372.565,372.536,785.002,-7.01922e-09,7.01892e-09,1.47899e-08,868.906,-868.935,-2.75997e-05,1.63708e-08,-1.63711e-08,-5.19995e-16
0.439975,0.68,0.0600089,0.01,-49.2493,231.2,-351.379,351.349,782.095,-6.62005e-09,6.61975e-09,1.47351e-08,857.382,-857.412,-1.0427e-05,1.61537e-08,-1.6154e-08,-1.9645e-16
0.449975,0.68,0.0661545,0.01,-45.4597,231.2,-330.713,330.683,778.601,-6.2307e-09,6.23039e-09,1.46693e-08,845.905,-845.936,2.18137e-06,1.59375e-08,-1.59378e-08,4.10983e-17
0.459975,0.68,0.0711076,0.01,-41.6371,231.2,-310.577,310.546,774.558,-5.85132e-09,5.85101e-09,1.45931e-08,834.484,-834.515,-3.3416e-06,1.57223e-08,-1.57226e-08,-6.29577e-17
0.469975,0.68,0.0768042,0.01,-37.7834,231.2,-290.978,290.947,770.002,-5.48206e-09,5.48175e-09,1.45073e-08,823.126,-823.157,-2.57908e-06,1.55083e-08,-1.55086e-08,-4.85913e-17
0.479975,0.68,0.0828567,0.01,-33.9006,231.2,-271.921,271.89,764.968,-5.12302e-09,5.1227e-09,1.44124e-08,811.839,-811.87,-2.91335e-06,1.52957e-08,-1.5296e-08,-5.48892e-17
0.489975,0.68,0.0882104,0.01,-29.9906,231.2,-253.409,253.378,759.489,-4.77424e-09,4.77392e-09,1.43092e-08,800.629,-800.661,-3.03812e-06,1.50845e-08,-1.50848e-08,-5.72399e-17
0.499975,0.68,0.0943235,0.01,-26.0553,231.2,-235.444,235.413,753.6,-4.43577e-09,4.43545e-09,1.41983e-08,789.503,-789.535,-3.07621e-06,1.48748e-08,-1.48752e-08,-5.79576e-17
0.509975,0.68,0.100298,0.01,-22.0964,231.2,-218.026,217.994,747.333,-4.10759e-09,4.10728e-09,1.40802e-08,778.466,-778.498,-3.05652e-06,1.46669e-08,-1.46672e-08,-5.75865e-17
0.519975,0.68,0.10609,0.01,-18.1158,231.2,-201.152,201.121,740.717,-3.78968e-09,3.78937e-09,1.39555e-08,767.525,-767.556,-2.98168e-06,1.44607e-08,-1.44611e-08,-5.61765e-17
0.529975,0.68,0.112474,0.01,-14.115,231.2,-184.82,184.789,733.784,-3.48199e-09,3.48167e-09,1.38249e-08,756.682,-756.713,-2.86358e-06,1.42565e-08,-1.42568e-08,-5.39516e-17
0.539975,0.68,0.118549,0.01,-10.0957,231.2,-169.027,168.996,726.561,-3.18443e-09,3.18411e-09,1.36888e-08,745.944,-745.975,-2.71096e-06,1.40542e-08,-1.40545e-08,-5.1076e-17
0.549975,0.68,0.12464,0.01,-6.05949,231.2,-153.765,153.735,719.076,-2.8969e-09,2.89659e-09,1.35478e-08,735.315,-735.345,-2.53122e-06,1.38539e-08,-1.38542e-08,-4.76897e-17
0.559975,0.68,0.131211,0.01,-2.00792,231.2,-139.03,139.001,711.355,-2.61928e-09,2.61898e-09,1.34023e-08,724.797,-724.826,-2.33204e-06,1.36557e-08,-1.3656e-08,-4.39371e-17
0.569975,0.68,0.137502,0.01,2.05756,231.2,-124.815,124.785,703.423,-2.35145e-09,2.35115e-09,1.32529e-08,714.394,-714.423,-2.12058e-06,1.34597e-08,-1.346e-08,-3.99531e-17
0.579975,0.68,0.143807,0.01,6.13552,231.2,-111.11,111.081,695.304,-2.09325e-09,2.09296e-09,1.30999e-08,704.109,-704.138,-1.90127e-06,1.32659e-08,-1.32662e-08,-3.5821e-17
0.589975,0.68,0.150514,0.01,10.2246,231.2,-97.9078,97.8794,687.02,-1.84452e-09,1.84423e-09,1.29439e-08,693.945,-693.973,-1.67881e-06,1.30744e-08,-1.30747e-08,-3.16298e-17
0.599975,0.68,0.157096,0.01,14.3235,231.2,-85.1989,85.1711,678.592,-1.60508e-09,1.60479e-09,1.27851e-08,683.904,-683.932,-1.45722e-06,1.28853e-08,-1.28855e-08,-2.74549e-17
0.609975,0.68,0.163562,0.01,18.4309,231.2,-72.9734,72.9462,670.041,-1.37474e-09,1.37447e-09,1.2624e-08,673.988,-674.015,-1.23947e-06,1.26984e-08,-1.26987e-08,-2.33523e-17
0.619975,0.68,0.170369,0.01,22.5455,231.2,-61.2212,61.1946,661.385,-1.15333e-09,1.15306e-09,1.24609e-08,664.198,-664.224,-1.02916e-06,1.2514e-08,-1.25143e-08,-1.93899e-17
0.629975,0.68,0.177295,0.01,26.6664,231.2,-49.9316,49.9056,652.643,-9.40627e-10,9.40363e-10,1.22962e-08,654.536,-654.562,-8.27781e-07,1.2332e-08,-1.23322e-08,-1.55959e-17
0.639975,0.68,0.183885,0.01,30.7922,231.2,-39.0936,39.0683,643.831,-7.36437e-10,7.3618e-10,1.21302e-08,645.004,-645.029,-6.36967e-07,1.21523e-08,-1.21526e-08,-1.20008e-17
0.649975,0.68,0.190771,0.01,34.9219,231.2,-28.6963,28.6716,634.966,-5.40548e-10,5.40297e-10,1.19631e-08,635.601,-635.626,-4.58446e-07,1.19752e-08,-1.19754e-08,-8.6374e-18
0.659975,0.68,0.197923,0.01,39.0545,231.2,-18.7282,18.7042,626.061,-3.52745e-10,3.52501e-10,1.17954e-08,626.329,-626.353,-2.92374e-07,1.18005e-08,-1.18007e-08,-5.50849e-18
0.669975,0.68,0.204766,0.01,43.189,231.2,-9.17777,9.15443,617.132,-1.72813e-10,1.72576e-10,1.16271e-08,617.188,-617.211,-1.39739e-07,1.16283e-08,-1.16285e-08,-2.63276e-18
0.679975,0.68,0.211714,0.01,47.3243,231.2,-0.0335763,0.0109034,608.19,-5.34019e-13,3.04004e-13,1.14587e-08,608.179,-608.201,-5.60057e-10,1.14585e-08,-1.14588e-08,-1.05518e-20
0.689975,0.68,0.218899,0.01,51.4597,231.2,8.44099,-9.0137,599.779,1.61523e-10,-1.67333e-10,1.13002e-08,599.556,-600.129,0.0074054,1.12985e-08,-1.13043e-08,1.39522e-13
0.699975,0.68,0.226197,0.01,55.5943,231.2,15.6663,-18.6589,592.905,3.08173e-10,-3.38533e-10,1.11707e-08,591.657,-594.649,0.00559724,1.11602e-08,-1.11905e-08,1.05455e-13
0.709975,0.68,0.233196,0.01,59.7271,231.2,21.6175,-29.2367,587.369,4.40413e-10,-5.17709e-10,1.10664e-08,584.109,-591.729,-0.0817303,1.10381e-08,-1.11154e-08,-1.53985e-12
0.719975,0.68,0.240408,0.01,63.8574,231.2,28.9161,-38.2867,581.428,5.85538e-10,-6.80602e-10,1.09544e-08,577.712,-587.083,-0.369338,1.09252e-08,-1.10202e-08,-6.95854e-12
-0.710025,0.69,0.240369,0.01,63.7057,238.05,12.1489,-21.5535,-582.469,2.69781e-10,-3.6519e-10,-1.0974e-08,578.01,-587.415,0.185328,1.09309e-08,-1.10263e-08,3.49168e-12
-0.700025,0.69,0.23307,0.01,59.6311,238.05,4.69129,-12.3287,-588.062,1.21593e-10,-1.99074e-10,-1.10794e-08,584.305,-591.943,0.0273303,1.10419e-08,-1.11193e-08,5.14918e-13
-0.690025,0.69,0.225891,0.01,55.5556,238.05,-1.47665,-1.5194,-593.236,-1.47947e-11,-1.56e-11,-1.11769e-08,591.738,-594.734,-7.00663e-06,1.11617e-08,-1.11921e-08,-1.32009e-16
-0.680025,0.69,0.218934,0.01,51.4801,238.05,-9.01272,8.44007,-599.735,-1.67315e-10,1.61506e-10,-1.12994e-08,599.513,-600.085,0.00740433,1.12977e-08,-1.13035e-08,1.39502e-13
-0.670025,0.69,0.212095,0.01,47.4056,238.05,-17.8677,17.8451,-607.752,-3.36539e-10,3.3631e-10,-1.14504e-08,608.003,-608.026,2.63089e-07,1.14552e-08,-1.14555e-08,4.95674e-18
-0.660025,0.69,0.204948,0.01,43.3328,238.05,-27.392,27.3687,-616.276,-5.15979e-10,5.15744e-10,-1.1611e-08,616.873,-616.896,4.12318e-07,1.16223e-08,-1.16226e-08,7.7683e-18
-0.650025,0.69,0.198047,0.01,39.2627,238.05,-37.3206,37.2968,-624.764,-7.03038e-10,7.02796e-10,-1.17709e-08,625.865,-625.889,5.73076e-07,1.17918e-08,-1.1792e-08,1.07971e-17
-0.640025,0.69,0.19142,0.01,35.1964,238.05,-47.6641,47.6397,-633.203,-8.97914e-10,8.97666e-10,-1.19299e-08,634.981,-635.005,7.44664e-07,1.19635e-08,-1.19638e-08,1.40299e-17
-0.630025,0.69,0.184545,0.01,31.1348,238.05,-58.433,58.4079,-641.576,-1.1008e-09,1.10055e-09,-1.20877e-08,644.218,-644.243,9.26055e-07,1.21376e-08,-1.21378e-08,1.74474e-17
-0.620025,0.69,0.177714,0.01,27.0791,238.05,-69.6372,69.6116,-649.87,-1.31189e-09,1.31163e-09,-1.22439e-08,653.576,-653.602,1.11514e-06,1.23139e-08,-1.23141e-08,2.10098e-17
-0.610025,0.69,0.171196,0.01,23.0304,238.05,-81.2868,81.2607,-658.067,-1.53138e-09,1.53111e-09,-1.23984e-08,663.054,-663.08,1.31042e-06,1.24924e-08,-1.24927e-08,2.4689e-17
-0.600025,0.69,0.164686,0.01,18.9898,238.05,-93.3913,93.3646,-666.15,-1.75943e-09,1.75916e-09,-1.25507e-08,672.65,-672.676,1.51012e-06,1.26732e-08,-1.26735e-08,2.84516e-17
-0.590025,0.69,0.157945,0.01,14.9585,238.05,-105.96,105.933,-674.1,-1.99623e-09,1.99595e-09,-1.27004e-08,682.361,-682.389,1.71102e-06,1.28562e-08,-1.28565e-08,3.22366e-17
-0.580025,0.69,0.151565,0.01,10.9378,238.05,-119.001,118.973,-681.898,-2.24193e-09,2.24165e-09,-1.28474e-08,692.188,-692.215,1.90964e-06,1.30413e-08,-1.30416e-08,3.59787e-17
-0.570025,0.69,0.145377,0.01,6.92907,238.05,-132.523,132.495,-689.522,-2.49669e-09,2.49641e-09,-1.2991e-08,702.125,-702.153,2.10243e-06,1.32286e-08,-1.32289e-08,3.96109e-17
-0.560025,0.69,0.138753,0.01,2.93356,238.05,-146.534,146.505,-696.952,-2.76066e-09,2.76037e-09,-1.3131e-08,712.172,-712.201,2.28461e-06,1.34179e-08,-1.34182e-08,4.30434e-17
-0.550025,0.69,0.132552,0.01,-1.0473,238.05,-161.039,161.011,-704.163,-3.03395e-09,3.03366e-09,-1.32668e-08,722.325,-722.354,2.45073e-06,1.36092e-08,-1.36094e-08,4.61732e-17
-0.540025,0.69,0.126628,0.01,-5.01205,238.05,-176.046,176.017,-711.133,-3.31669e-09,3.31639e-09,-1.33982e-08,732.581,-732.61,2.59454e-06,1.38024e-08,-1.38027e-08,4.88826e-17
-0.530025,0.69,0.120159,0.01,-8.95919,238.05,-191.559,191.53,-717.835,-3.60896e-09,3.60867e-09,-1.35244e-08,742.936,-742.966,2.709e-06,1.39975e-08,-1.39978e-08,5.10392e-17
-0.520025,0.69,0.114201,0.01,-12.8872,238.05,-207.583,207.554,-724.244,-3.91086e-09,3.91056e-09,-1.36452e-08,753.387,-753.416,2.78674e-06,1.41944e-08,-1.41947e-08,5.25039e-17
-0.510025,0.69,0.108454,0.01,-16.7944,238.05,-224.12,224.091,-730.332,-4.22243e-09,4.22213e-09,-1.37599e-08,763.927,-763.957,2.81937e-06,1.4393e-08,-1.43933e-08,5.31186e-17
-0.500025,0.69,0.102203,0.01,-20.6792,238.05,-241.173,241.143,-736.07,-4.5437e-09,4.5434e-09,-1.3868e-08,774.554,-774.583,2.79668e-06,1.45932e-08,-1.45935e-08,5.2691e-17
-0.490025,0.69,0.0965843,0.01,-24.5399,238.05,-258.741,258.711,-741.43,-4.8747e-09,4.8744e-09,-1.3969e-08,785.261,-785.29,2.70967e-06,1.47949e-08,-1.47952e-08,5.10517e-17
-0.480025,0.69,0.0908848,0.01,-28.3747,238.05,-276.824,276.794,-746.381,-5.21539e-09,5.2151e-09,-1.40622e-08,796.043,-796.072,2.54337e-06,1.4998e-08,-1.49983e-08,4.79185e-17
-0.470025,0.69,0.0849497,0.01,-32.1818,238.05,-295.419,295.39,-750.89,-5.56574e-09,5.56545e-09,-1.41472e-08,806.893,-806.922,2.30769e-06,1.52025e-08,-1.52028e-08,4.34782e-17
-0.460025,0.69,0.0798302,0.01,-35.9594,238.05,-314.523,314.494,-754.927,-5.92567e-09,5.92538e-09,-1.42233e-08,817.806,-817.834,1.93315e-06,1.54081e-08,-1.54084e-08,3.64218e-17
-0.450025,0.69,0.0739791,0.01,-39.7055,238.05,-334.129,334.1,-758.456,-6.29506e-09,6.29477e-09,-1.42898e-08,828.773,-828.801,1.26778e-06,1.56147e-08,-1.5615e-08,2.38857e-17
-0.440025,0.69,0.0685315,0.01,-43.4182,238.05,-354.229,354.201,-761.445,-6.67376e-09,6.67348e-09,-1.43461e-08,839.788,-839.816,2.70604e-06,1.58222e-08,-1.58225e-08,5.09834e-17
-0.430025,0.69,0.0637384,0.01,-47.0955,238.05,-374.814,374.787,-763.858,-7.06159e-09,7.06131e-09,-1.43915e-08,850.842,-850.869,-8.83382e-06,1.60305e-08,-1.60307e-08,-1.66434e-16
-0.420025,0.69,0.0578597,0.01,-50.7353,238.05,-395.871,395.844,-765.661,-7.45832e-09,7.45805e-09,-1.44255e-08,861.926,-861.953,2.8885e-05,1.62393e-08,-1.62396e-08,5.4421e-16
-0.410025,0.69,0.0532249,0.01,-54.3355,238.05,-417.386,417.36,-766.817,-7.86368e-09,7.86342e-09,-1.44473e-08,873.033,-873.058,-4.44897e-05,1.64486e-08,-1.64488e-08,-8.38212e-16
-0.400025,0.69,0.0478809,0.01,-57.894,238.05,-439.341,439.318,-767.289,-8.27734e-09,8.2771e-09,-1.44562e-08,884.15,-884.174,-0.000250591,1.6658e-08,-1.66582e-08,-4.72129e-15
-0.390025,0.69,0.0428218,0.01,-61.4085,238.05,-461.721,461.693,-767.047,-8.69897e-09,8.69869e-09,-1.44516e-08,895.271,-895.299,0.00265382,1.68675e-08,-1.68678e-08,4.99995e-14
-0.380025,0.69,0.0387122,0.01,-64.8769,238.05,-484.498,484.496,-766.029,-9.12821e-09,9.12819e-09,-1.44324e-08,906.386,-906.388,-0.0154124,1.70768e-08,-1.70769e-08,-2.90378e-13
-0.370025,0.69,0.0330222,0.01,-68.2968,238.05,-507.602,507.53,-764.281,-9.56321e-09,9.56247e-09,-1.43995e-08,917.433,-917.505,0.0806909,1.72853e-08,-1.7286e-08,1.52026e-12
-0.360025,0.69,0.0297034,0.01,-71.6659,238.05,-531.221,531.554,-761.396,-1.001e-08,1.00133e-08,-1.43451e-08,928.658,-928.324,-0.333027,1.7495e-08,-1.74916e-08,-6.27441e-12
-0.350025,0.69,0.0239228,0.01,-74.982,238.05,-552.07,554.585,-755.633,-1.04123e-08,1.04378e-08,-1.42366e-08,937.822,-935.307,-0.162684,1.76582e-08,-1.76327e-08,-3.06505e-12
-0.340025,0.69,0.0202436,0.01,-78.2425,238.05,-573.873,577.24,-751.531,-1.08267e-08,1.08609e-08,-1.41593e-08,948.289,-944.922,1.42555,1.78517e-08,-1.78175e-08,2.68582e-11
-0.330025,0.69,0.0158044,0.01,-81.4451,238.05,-598.789,603.115,-741.373,-1.13003e-08,1.13442e-08,-1.39679e-08,956.506,-952.18,-2.52024,1.80023e-08,-1.79584e-08,-4.74828e-11
-0.320025,0.69,0.0113215,0.01,-84.5872,238.05,-614.782,620.478,-731.363,-1.16076e-08,1.16654e-08,-1.37793e-08,960.114,-954.418,0.919917,1.80643e-08,-1.80066e-08,1.73318e-11
-0.310025,0.69,0.00974118,0.01,-87.6677,238.05,-641.625,647.482,-725.728,-1.21141e-08,1.21735e-08,-1.36731e-08,973.562,-967.706,0.00572194,1.8317e-08,-1.82576e-08,1.07805e-13
0.309975,0.69,0.00969391,0.01,-87.6828,238.05,-641.658,647.624,725.611,-1.21151e-08,1.21757e-08,1.36709e-08,973.588,-967.622,0.0205588,1.8317e-08,-1.82565e-08,3.8734e-13
0.319975,0.69,0.0113169,0.01,-84.6027,238.05,-614.889,620.651,731.305,-1.16099e-08,1.16684e-08,1.37782e-08,960.193,-954.431,-0.888919,1.80655e-08,-1.80071e-08,-1.67477e-11
0.329975,0.69,0.0157696,0.01,-81.4609,238.05,-598.953,603.238,741.348,-1.13033e-08,1.13467e-08,1.39674e-08,956.556,-952.272,2.53509,1.80035e-08,-1.796e-08,4.77625e-11
0.339975,0.69,0.020236,0.01,-78.2586,238.05,-574.021,577.359,751.512,-1.08294e-08,1.08633e-08,1.41589e-08,948.341,-945.002,-1.41772,1.78528e-08,-1.78189e-08,-2.67108e-11
0.349975,0.69,0.0238956,0.01,-74.9983,238.05,-552.215,554.707,755.622,-1.04149e-08,1.04402e-08,1.42364e-08,937.881,-935.388,0.169467,1.76594e-08,-1.76341e-08,3.19285e-12
0.359975,0.69,0.0296944,0.01,-71.6826,238.05,-531.348,531.672,761.389,-1.00123e-08,1.00156e-08,1.4345e-08,928.718,-928.394,0.33197,1.74962e-08,-1.74929e-08,6.2545e-12
0.369975,0.69,0.032999,0.01,-68.3137,238.05,-507.72,507.645,764.271,-9.56541e-09,9.56465e-09,1.43993e-08,917.488,-917.562,-0.081213,1.72863e-08,-1.72871e-08,-1.5301e-12
0.379975,0.69,0.0386796,0.01,-64.894,238.05,-484.612,484.61,766.022,-9.13036e-09,9.13035e-09,1.44323e-08,906.441,-906.443,0.0154238,1.70779e-08,-1.70779e-08,2.90593e-13
0.389975,0.69,0.042801,0.01,-61.4259,238.05,-461.834,461.806,767.044,-8.70109e-09,8.70081e-09,1.44516e-08,895.326,-895.354,-0.00263288,1.68686e-08,-1.68689e-08,-4.9605e-14
0.399975,0.69,0.0478519,0.01,-57.9116,238.05,-439.451,439.428,767.289,-8.27942e-09,8.27918e-09,1.44562e-08,884.206,-884.229,0.000240867,1.6659e-08,-1.66593e-08,4.53807e-15
0.409975,0.69,0.0532056,0.01,-54.3533,238.05,-417.494,417.468,766.821,-7.86572e-09,7.86546e-09,1.44474e-08,873.088,-873.113,4.73851e-05,1.64496e-08,-1.64499e-08,8.92763e-16
0.419975,0.69,0.0578332,0.01,-50.7533,238.05,-395.976,395.95,765.668,-7.46031e-09,7.46005e-09,1.44256e-08,861.982,-862.008,-2.95175e-05,1.62403e-08,-1.62406e-08,-5.56126e-16
0.429975,0.69,0.0637066,0.01,-47.1137,238.05,-374.917,374.89,763.869,-7.06354e-09,7.06326e-09,1.43917e-08,850.897,-850.924,8.93577e-06,1.60315e-08,-1.60318e-08,1.68355e-16
0.439975,0.69,0.068507,0.01,-43.4366,238.05,-354.33,354.302,761.458,-6.67567e-09,6.67538e-09,1.43463e-08,839.843,-839.87,-2.70859e-06,1.58232e-08,-1.58235e-08,-5.10315e-17
0.449975,0.69,0.0739497,0.01,-39.7241,238.05,-334.228,334.199,758.472,-6.29692e-09,6.29663e-09,1.42901e-08,828.828,-828.856,-1.26802e-06,1.56157e-08,-1.5616e-08,-2.38902e-17
0.459975,0.69,0.079807,0.01,-35.9781,238.05,-314.619,314.59,754.945,-5.92748e-09,5.92719e-09,1.42236e-08,817.86,-817.889,-1.93028e-06,1.54091e-08,-1.54094e-08,-3.63677e-17
0.469975,0.69,0.0849221,0.01,-32.2007,238.05,-295.513,295.484,750.912,-5.56751e-09,5.56721e-09,1.41476e-08,806.947,-806.976,-2.30618e-06,1.52035e-08,-1.52038e-08,-4.34498e-17
0.479975,0.69,0.0908535,0.01,-28.3937,238.05,-276.915,276.886,746.404,-5.21711e-09,5.21681e-09,1.40627e-08,796.096,-796.126,-2.54173e-06,1.4999e-08,-1.49993e-08,-4.78877e-17
0.489975,0.69,0.0965581,0.01,-24.559,238.05,-258.83,258.8,741.456,-4.87637e-09,4.87607e-09,1.39695e-08,785.314,-785.344,-2.70935e-06,1.47959e-08,-1.47962e-08,-5.10458e-17
0.499975,0.69,0.102173,0.01,-20.6985,238.05,-241.259,241.229,736.098,-4.54533e-09,4.54503e-09,1.38685e-08,774.607,-774.637,-2.79699e-06,1.45942e-08,-1.45945e-08,-5.2697e-17
0.509975,0.69,0.108421,0.01,-16.8138,238.05,-224.204,224.174,730.361,-4.224e-09,4.2237e-09,1.37604e-08,763.98,-764.01,-2.81936e-06,1.4394e-08,-1.43943e-08,-5.31183e-17
0.519975,0.69,0.114173,0.01,-12.9067,238.05,-207.664,207.635,724.275,-3.91238e-09,3.91208e-09,1.36458e-08,753.439,-753.468,-2.7873e-06,1.41954e-08,-1.41957e-08,-5.25143e-17
0.529975,0.69,0.120128,0.01,-8.97877,238.05,-191.638,191.609,717.868,-3.61044e-09,3.61014e-09,1.3525e-08,742.988,-743.018,-2.71032e-06,1.39985e-08,-1.39988e-08,-5.1064e-17
0.539975,0.69,0.126594,0.01,-5.03172,238.05,-176.122,176.093,711.167,-3.31812e-09,3.31782e-09,1.33988e-08,732.633,-732.662,-2.59592e-06,1.38033e-08,-1.38036e-08,-4.89086e-17
0.549975,0.69,0.132523,0.01,-1.06706,238.05,-161.113,161.084,704.198,-3.03533e-09,3.03504e-09,1.32675e-08,722.376,-722.405,-2.45167e-06,1.36101e-08,-1.36104e-08,-4.61909e-17
0.559975,0.69,0.138721,0.01,2.91372,238.05,-146.605,146.576,696.988,-2.76199e-09,2.7617e-09,1.31317e-08,712.223,-712.251,-2.28549e-06,1.34188e-08,-1.34191e-08,-4.306e-17
0.569975,0.69,0.145343,0.01,6.90917,238.05,-132.592,132.564,689.56,-2.49798e-09,2.4977e-09,1.29917e-08,702.175,-702.203,-2.10381e-06,1.32295e-08,-1.32298e-08,-3.9637e-17
0.579975,0.69,0.151534,0.01,10.9179,238.05,-119.067,119.039,681.936,-2.24317e-09,2.24289e-09,1.28481e-08,692.237,-692.264,-1.91131e-06,1.30423e-08,-1.30425e-08,-3.60101e-17
0.589975,0.69,0.157913,0.01,14.9385,238.05,-106.023,105.996,674.139,-1.99743e-09,1.99715e-09,1.27012e-08,682.41,-682.437,-1.71259e-06,1.28571e-08,-1.28574e-08,-3.22662e-17
0.599975,0.69,0.164652,0.01,18.9697,238.05,-93.4526,93.426,666.19,-1.76059e-09,1.76032e-09,1.25514e-08,672.698,-672.724,-1.51155e-06,1.26741e-08,-1.26744e-08,-2.84785e-17
0.609975,0.69,0.171165,0.01,23.0103,238.05,-81.3459,81.3197,658.108,-1.53249e-09,1.53222e-09,1.23991e-08,663.101,-663.128,-1.3116e-06,1.24933e-08,-1.24936e-08,-2.47114e-17
0.619975,0.69,0.177681,0.01,27.059,238.05,-69.694,69.6685,649.911,-1.31296e-09,1.31271e-09,1.22447e-08,653.623,-653.649,-1.11596e-06,1.23147e-08,-1.2315e-08,-2.10253e-17
0.629975,0.69,0.18451,0.01,31.1146,238.05,-58.4876,58.4626,641.618,-1.10183e-09,1.10158e-09,1.20885e-08,644.264,-644.289,-9.26393e-07,1.21384e-08,-1.21387e-08,-1.74538e-17
0.639975,0.69,0.191388,0.01,35.1762,238.05,-47.7166,47.6922,633.244,-8.98903e-10,8.98655e-10,1.19307e-08,635.026,-635.051,-7.45025e-07,1.19644e-08,-1.19646e-08,-1.40367e-17
0.649975,0.69,0.198013,0.01,39.2425,238.05,-37.371,37.3472,624.806,-7.03988e-10,7.03746e-10,1.17717e-08,625.91,-625.934,-5.73538e-07,1.17926e-08,-1.17929e-08,-1.08058e-17
0.659975,0.69,0.204913,0.01,43.3125,238.05,-27.4403,27.4171,616.319,-5.16891e-10,5.16655e-10,1.16118e-08,616.917,-616.94,-4.12668e-07,1.16232e-08,-1.16234e-08,-7.77491e-18
0.669975,0.69,0.212059,0.01,47.3853,238.05,-17.9141,17.8914,607.795,-3.37413e-10,3.37183e-10,1.14512e-08,608.047,-608.069,-2.63572e-07,1.14561e-08,-1.14563e-08,-4.96585e-18
0.679975,0.69,0.2189,0.01,51.4599,238.05,-9.0572,8.48449,599.778,-1.68153e-10,1.62343e-10,1.13002e-08,599.556,-600.129,-0.00744229,1.12985e-08,-1.13043e-08,-1.40217e-13
0.689975,0.69,0.225856,0.01,55.5353,238.05,-1.51956,-1.47681,593.279,-1.56017e-11,-1.47963e-11,1.11777e-08,591.781,-594.777,-7.00783e-06,1.11625e-08,-1.11929e-08,-1.32031e-16
0.699975,0.69,0.233034,0.01,59.6108,238.05,4.64958,-12.2878,588.105,1.2081e-10,-1.983e-10,1.10802e-08,584.347,-591.986,-0.0271985,1.10427e-08,-1.11201e-08,-5.12436e-13
0.709975,0.69,0.240335,0.01,63.6854,238.05,12.1083,-21.514,582.512,2.69022e-10,-3.64442e-10,1.09749e-08,578.052,-587.457,-0.184894,1.09317e-08,-1.10271e-08,-3.48352e-12
-0.700025,0.7,0.240034,0.01,63.6482,245,-4.68724,-4.72911,-582.832,-4.73697e-11,-4.81585e-11,-1.09809e-08,578.124,-587.54,0.000230267,1.09331e-08,-1.10287e-08,4.33837e-15
-0.690025,0.7,0.233069,0.01,59.6309,245,-12.2865,4.64907,-588.063,-1.98278e-10,1.20797e-10,-1.10795e-08,584.305,-591.943,-0.0271947,1.10419e-08,-1.11193e-08,-5.12364e-13
-0.680025,0.7,0.226233,0.01,55.6145,245,-18.6569,15.6646,-592.862,-3.38496e-10,3.0814e-10,-1.11699e-08,591.614,-594.606,0.00559641,1.11594e-08,-1.11897e-08,1.0544e-13
-0.670025,0.7,0.21909,0.01,51.5998,245,-26.486,25.9148,-598.969,-4.96527e-10,4.90733e-10,-1.12849e-08,599.257,-599.828,0.0221838,1.12928e-08,-1.12986e-08,4.17955e-13
-0.660025,0.7,0.212178,0.01,47.5878,245,-35.6999,35.6774,-606.572,-6.72509e-10,6.72281e-10,-1.14282e-08,607.609,-607.632,5.1701e-07,1.14478e-08,-1.1448e-08,9.74077e-18
-0.650025,0.7,0.20552,0.01,43.5793,245,-45.5806,45.5576,-614.657,-8.58665e-10,8.58431e-10,-1.15805e-08,616.332,-616.355,6.71352e-07,1.16122e-08,-1.16124e-08,1.26487e-17
-0.640025,0.7,0.198686,0.01,39.5753,245,-55.8621,55.8385,-622.682,-1.05237e-09,1.05213e-09,-1.17317e-08,625.17,-625.194,8.34629e-07,1.17787e-08,-1.17789e-08,1.57249e-17
-0.630025,0.7,0.191838,0.01,35.577,245,-66.5539,66.5298,-630.633,-1.25381e-09,1.25356e-09,-1.18815e-08,634.122,-634.146,1.0053e-06,1.19473e-08,-1.19476e-08,1.89405e-17
-0.620025,0.7,0.185276,0.01,31.5853,245,-77.6652,77.6405,-638.495,-1.46315e-09,1.4629e-09,-1.20296e-08,643.187,-643.212,1.18144e-06,1.21181e-08,-1.21184e-08,2.22589e-17
-0.610025,0.7,0.178825,0.01,27.6014,245,-89.2049,89.1798,-646.251,-1.68056e-09,1.68031e-09,-1.21757e-08,652.364,-652.389,1.3614e-06,1.2291e-08,-1.22913e-08,2.56495e-17
-0.600025,0.7,0.172057,0.01,23.6263,245,-101.182,101.156,-653.883,-1.90621e-09,1.90595e-09,-1.23195e-08,661.651,-661.676,1.54318e-06,1.2466e-08,-1.24663e-08,2.90744e-17
-0.590025,0.7,0.165616,0.01,19.6615,245,-113.603,113.577,-661.375,-2.14024e-09,2.13998e-09,-1.24607e-08,671.045,-671.071,1.72355e-06,1.2643e-08,-1.26433e-08,3.24728e-17
-0.580025,0.7,0.159511,0.01,15.708,245,-126.478,126.452,-668.706,-2.38281e-09,2.38254e-09,-1.25988e-08,680.546,-680.572,1.89909e-06,1.2822e-08,-1.28223e-08,3.57799e-17
-0.570025,0.7,0.152845,0.01,11.7671,245,-139.813,139.786,-675.856,-2.63404e-09,2.63376e-09,-1.27335e-08,690.15,-690.177,2.06587e-06,1.30029e-08,-1.30032e-08,3.89223e-17
-0.560025,0.7,0.146559,0.01,7.8402,245,-153.614,153.586,-682.805,-2.89405e-09,2.89378e-09,-1.28644e-08,699.855,-699.882,2.21914e-06,1.31858e-08,-1.31861e-08,4.18099e-17
-0.550025,0.7,0.140703,0.01,3.92868,245,-167.887,167.859,-689.53,-3.16296e-09,3.16268e-09,-1.29911e-08,709.657,-709.685,2.3538e-06,1.33705e-08,-1.33707e-08,4.43469e-17
-0.540025,0.7,0.13422,0.01,0.0339503,245,-182.637,182.609,-696.008,-3.44086e-09,3.44058e-09,-1.31132e-08,719.554,-719.582,2.46399e-06,1.35569e-08,-1.35572e-08,4.64231e-17
-0.530025,0.7,0.128136,0.01,-3.84251,245,-197.868,197.84,-702.214,-3.72782e-09,3.72754e-09,-1.32301e-08,729.542,-729.569,2.54284e-06,1.37451e-08,-1.37454e-08,4.79087e-17
-0.520025,0.7,0.122562,0.01,-7.69918,245,-213.583,213.555,-708.124,-4.02391e-09,4.02363e-09,-1.33415e-08,739.616,-739.644,2.58296e-06,1.39349e-08,-1.39352e-08,4.86645e-17
-0.510025,0.7,0.116209,0.01,-11.5345,245,-229.785,229.757,-713.712,-4.32915e-09,4.32887e-09,-1.34467e-08,749.772,-749.8,2.57662e-06,1.41263e-08,-1.41265e-08,4.8545e-17
-0.500025,0.7,0.110398,0.01,-15.3468,245,-246.473,246.445,-718.949,-4.64357e-09,4.64329e-09,-1.35454e-08,760.006,-760.034,2.51478e-06,1.43191e-08,-1.43194e-08,4.738e-17
-0.490025,0.7,0.10496,0.01,-19.1345,245,-263.648,263.62,-723.809,-4.96716e-09,4.96688e-09,-1.3637e-08,770.312,-770.34,2.38824e-06,1.45132e-08,-1.45135e-08,4.49959e-17
-0.480025,0.7,0.0988581,0.01,-22.8958,245,-281.307,281.28,-728.261,-5.29987e-09,5.29959e-09,-1.37209e-08,780.684,-780.712,2.18737e-06,1.47087e-08,-1.47089e-08,4.12112e-17
-0.470025,0.7,0.0934309,0.01,-26.629,245,-299.448,299.421,-732.276,-5.64166e-09,5.64138e-09,-1.37965e-08,791.117,-791.145,1.9009e-06,1.49052e-08,-1.49055e-08,3.58141e-17
-0.460025,0.7,0.0879851,0.01,-30.3322,245,-318.065,318.038,-735.823,-5.99241e-09,5.99214e-09,-1.38633e-08,801.605,-801.632,1.50843e-06,1.51028e-08,-1.51031e-08,2.84198e-17
-0.450025,0.7,0.0822499,0.01,-34.0037,245,-337.151,337.125,-738.87,-6.35201e-09,6.35174e-09,-1.39207e-08,812.139,-812.165,1.05091e-06,1.53013e-08,-1.53016e-08,1.97997e-17
-0.440025,0.7,0.0773867,0.01,-37.6414,245,-356.698,356.673,-741.386,-6.72029e-09,6.72003e-09,-1.39681e-08,822.713,-822.739,3.59685e-07,1.55005e-08,-1.55008e-08,6.77667e-18
-0.430025,0.7,0.0717142,0.01,-41.2434,245,-376.696,376.671,-743.338,-7.09706e-09,7.09681e-09,-1.40049e-08,833.319,-833.345,-5.47174e-07,1.57003e-08,-1.57006e-08,-1.03091e-17
-0.420025,0.7,0.0665438,0.01,-44.8078,245,-397.132,397.107,-744.693,-7.48208e-09,7.48184e-09,-1.40304e-08,843.949,-843.974,1.3039e-06,1.59006e-08,-1.59008e-08,2.45663e-17
-0.410025,0.7,0.0618795,0.01,-48.3324,245,-417.99,417.967,-745.416,-7.87508e-09,7.87484e-09,-1.40441e-08,854.594,-854.618,-1.64853e-05,1.61012e-08,-1.61014e-08,-3.10593e-16
-0.400025,0.7,0.0563046,0.01,-51.8152,245,-439.255,439.233,-745.475,-8.27572e-09,8.27549e-09,-1.40452e-08,865.245,-865.267,5.39384e-05,1.63018e-08,-1.6302e-08,1.01623e-15
-0.390025,0.7,0.0520704,0.01,-55.2542,245,-460.907,460.886,-744.835,-8.68366e-09,8.68345e-09,-1.40331e-08,875.891,-875.912,-0.000175842,1.65024e-08,-1.65026e-08,-3.31297e-15
-0.380025,0.7,0.0467201,0.01,-58.647,245,-482.922,482.903,-743.462,-9.09844e-09,9.09825e-09,-1.40073e-08,886.523,-886.542,0.000289306,1.67027e-08,-1.67029e-08,5.4507e-15
-0.370025,0.7,0.042126,0.01,-61.9915,245,-505.284,505.261,-741.327,-9.51974e-09,9.51951e-09,-1.3967e-08,897.132,-897.155,0.000483466,1.69026e-08,-1.69028e-08,9.10877e-15
-0.360025,0.7,0.037879,0.01,-65.2855,245,-527.939,527.946,-738.373,-9.9467e-09,9.94677e-09,-1.39114e-08,907.703,-907.696,-0.00772041,1.71016e-08,-1.71015e-08,-1.45457e-13
-0.350025,0.7,0.0327463,0.01,-68.5267,245,-550.923,550.815,-734.667,-1.03792e-08,1.03781e-08,-1.38416e-08,918.201,-918.309,0.0526949,1.72999e-08,-1.7301e-08,9.92803e-13
-0.340025,0.7,0.0299462,0.01,-71.7128,245,-574.288,574.385,-729.979,-1.08203e-08,1.08213e-08,-1.37532e-08,928.882,-928.785,-0.185326,1.75003e-08,-1.74993e-08,-3.49166e-12
-0.330025,0.7,0.0239828,0.01,-74.8415,245,-594.958,597.53,-721.864,-1.12205e-08,1.12466e-08,-1.36003e-08,937.551,-934.98,-0.659856,1.76528e-08,-1.76267e-08,-1.24321e-11
-0.320025,0.7,0.0212973,0.01,-77.9105,245,-614.902,619.342,-715.017,-1.16044e-08,1.16495e-08,-1.34713e-08,946.724,-942.284,1.07551,1.78175e-08,-1.77725e-08,2.02632e-11
-0.310025,0.7,0.0159778,0.01,-80.9173,245,-637.041,644.499,-702.632,-1.20347e-08,1.21103e-08,-1.3238e-08,954.661,-947.204,-2.32112,1.7954e-08,-1.78783e-08,-4.37313e-11
-0.300025,0.7,0.0130409,0.01,-83.8597,245,-648.155,664.163,-690.131,-1.22812e-08,1.24436e-08,-1.30025e-08,960.278,-944.27,0.745599,1.80226e-08,-1.78602e-08,1.40475e-11
-0.290025,0.7,0.00928673,0.01,-86.7351,245,-670.809,686.403,-680.768,-1.27062e-08,1.28644e-08,-1.28261e-08,969.02,-953.426,1.35188,1.81891e-08,-1.80309e-08,2.54702e-11
0.289975,0.7,0.00924578,0.01,-86.7492,245,-670.78,686.536,680.645,-1.27064e-08,1.28662e-08,1.28237e-08,969.05,-953.294,-1.34471,1.8189e-08,-1.80291e-08,-2.53352e-11
0.299975,0.7,0.0130438,0.01,-83.8742,245,-648.174,664.346,690.055,-1.22823e-08,1.24463e-08,1.3001e-08,960.374,-944.202,-0.734244,1.80237e-08,-1.78596e-08,-1.38336e-11
0.309975,0.7,0.015949,0.01,-80.9321,245,-637.128,644.622,702.571,-1.20364e-08,1.21125e-08,1.32368e-08,954.705,-947.211,2.32705,1.79546e-08,-1.78786e-08,4.3843e-11
0.319975,0.7,0.0212949,0.01,-77.9256,245,-615.013,619.467,714.969,-1.16066e-08,1.16517e-08,1.34704e-08,946.771,-942.317,-1.06579,1.78184e-08,-1.77732e-08,-2.008e-11
0.329975,0.7,0.0239599,0.01,-74.8569,245,-595.084,597.653,721.833,-1.12229e-08,1.1249e-08,1.35997e-08,937.606,-935.037,0.666649,1.76539e-08,-1.76278e-08,1.256e-11
0.339975,0.7,0.0299113,0.01,-71.7285,245,-574.407,574.5,729.958,-1.08226e-08,1.08235e-08,1.37528e-08,928.935,-928.843,0.183845,1.75013e-08,-1.75003e-08,3.46375e-12
0.349975,0.7,0.0327264,0.01,-68.5427,245,-551.04,550.93,734.647,-1.03814e-08,1.03803e-08,1.38412e-08,918.254,-918.363,-0.0522129,1.73009e-08,-1.7302e-08,-9.83722e-13
0.359975,0.7,0.0378487,0.01,-65.3018,245,-528.052,528.059,738.357,-9.94884e-09,9.94891e-09,1.39111e-08,907.755,-907.748,0.00756052,1.71026e-08,-1.71025e-08,1.42445e-13
0.369975,0.7,0.0421078,0.01,-62.008,245,-505.396,505.373,741.315,-9.52185e-09,9.52162e-09,1.39668e-08,897.185,-897.208,-0.000425899,1.69036e-08,-1.69038e-08,-8.02418e-15
0.379975,0.7,0.0466931,0.01,-58.6637,245,-483.032,483.013,743.453,-9.10052e-09,9.10033e-09,1.40071e-08,886.576,-886.595,-0.000305621,1.67037e-08,-1.67039e-08,-5.75807e-15
0.389975,0.7,0.0520533,0.01,-55.2712,245,-461.015,460.994,744.83,-8.6857e-09,8.68549e-09,1.4033e-08,875.944,-875.965,0.000179737,1.65034e-08,-1.65036e-08,3.38634e-15
0.399975,0.7,0.0562799,0.01,-51.8325,245,-439.362,439.339,745.473,-8.27773e-09,8.27751e-09,1.40452e-08,865.298,-865.32,-5.46547e-05,1.63028e-08,-1.6303e-08,-1.02973e-15
0.409975,0.7,0.061849,0.01,-48.3498,245,-418.095,418.072,745.418,-7.87705e-09,7.87681e-09,1.40441e-08,854.647,-854.67,1.65715e-05,1.61021e-08,-1.61024e-08,3.12216e-16
0.419975,0.7,0.0665208,0.01,-44.8254,245,-397.234,397.21,744.698,-7.48402e-09,7.48377e-09,1.40305e-08,844.002,-844.027,-1.29065e-06,1.59016e-08,-1.59018e-08,-2.43166e-17
0.429975,0.7,0.0716859,0.01,-41.2612,245,-376.797,376.771,743.346,-7.09896e-09,7.0987e-09,1.40051e-08,833.372,-833.397,5.44389e-07,1.57013e-08,-1.57016e-08,1.02566e-17
0.439975,0.7,0.077365,0.01,-37.6594,245,-356.797,356.771,741.397,-6.72215e-09,6.72188e-09,1.39684e-08,822.766,-822.792,-3.5458e-07,1.55015e-08,-1.55018e-08,-6.68049e-18
0.449975,0.7,0.0822234,0.01,-34.0218,245,-337.247,337.221,738.884,-6.35382e-09,6.35355e-09,1.3921e-08,812.191,-812.218,-1.04915e-06,1.53023e-08,-1.53025e-08,-1.97666e-17
0.459975,0.7,0.0879547,0.01,-30.3506,245,-318.159,318.132,735.839,-5.99418e-09,5.9939e-09,1.38636e-08,801.657,-801.684,-1.50671e-06,1.51038e-08,-1.51041e-08,-2.83874e-17
0.469975,0.7,0.0934057,0.01,-26.6475,245,-299.539,299.512,732.294,-5.64338e-09,5.6431e-09,1.37968e-08,791.169,-791.197,-1.8993e-06,1.49062e-08,-1.49065e-08,-3.5784e-17
0.479975,0.7,0.0988293,0.01,-22.9145,245,-281.396,281.369,728.282,-5.30155e-09,5.30127e-09,1.37212e-08,780.736,-780.764,-2.18576e-06,1.47096e-08,-1.47099e-08,-4.1181e-17
0.489975,0.7,0.104928,0.01,-19.1533,245,-263.735,263.707,723.832,-4.96879e-09,4.96851e-09,1.36374e-08,770.363,-770.391,-2.38779e-06,1.45142e-08,-1.45145e-08,-4.49874e-17
0.499975,0.7,0.110371,0.01,-15.3657,245,-246.557,246.529,718.974,-4.64516e-09,4.64488e-09,1.35459e-08,760.057,-760.085,-2.5149e-06,1.432e-08,-1.43203e-08,-4.73822e-17
0.509975,0.7,0.116179,0.01,-11.5535,245,-229.866,229.838,713.739,-4.3307e-09,4.33041e-09,1.34473e-08,749.823,-749.851,-2.57637e-06,1.41272e-08,-1.41275e-08,-4.85402e-17
0.519975,0.7,0.122529,0.01,-7.71831,245,-213.663,213.635,708.153,-4.0254e-09,4.02512e-09,1.3342e-08,739.666,-739.694,-2.58285e-06,1.39359e-08,-1.39361e-08,-4.86624e-17
0.529975,0.7,0.128107,0.01,-3.86174,245,-197.945,197.917,702.245,-3.72927e-09,3.72899e-09,1.32307e-08,729.591,-729.619,-2.54329e-06,1.3746e-08,-1.37463e-08,-4.79171e-17
0.539975,0.7,0.134189,0.01,0.0146259,245,-182.711,182.684,696.039,-3.44227e-09,3.44199e-09,1.31138e-08,719.603,-719.631,-2.46451e-06,1.35579e-08,-1.35581e-08,-4.64328e-17
0.549975,0.7,0.140675,0.01,3.90927,245,-167.959,167.931,689.563,-3.16432e-09,3.16404e-09,1.29918e-08,709.706,-709.734,-2.35409e-06,1.33714e-08,-1.33717e-08,-4.43525e-17
0.559975,0.7,0.146528,0.01,7.82071,245,-153.683,153.656,682.839,-2.89537e-09,2.89509e-09,1.28651e-08,699.903,-699.93,-2.21931e-06,1.31867e-08,-1.3187e-08,-4.18132e-17
0.569975,0.7,0.152813,0.01,11.7475,245,-139.88,139.853,675.891,-2.63531e-09,2.63503e-09,1.27342e-08,690.198,-690.225,-2.06634e-06,1.30038e-08,-1.30041e-08,-3.89311e-17
0.579975,0.7,0.159477,0.01,15.6883,245,-126.543,126.517,668.742,-2.38403e-09,2.38377e-09,1.25995e-08,680.593,-680.62,-1.89996e-06,1.28229e-08,-1.28232e-08,-3.57963e-17
0.589975,0.7,0.165585,0.01,19.6418,245,-113.666,113.64,661.411,-2.14143e-09,2.14116e-09,1.24614e-08,671.092,-671.118,-1.72444e-06,1.26439e-08,-1.26441e-08,-3.24895e-17
0.599975,0.7,0.172024,0.01,23.6066,245,-101.242,101.217,653.921,-1.90735e-09,1.90709e-09,1.23202e-08,661.697,-661.723,-1.54397e-06,1.24669e-08,-1.24671e-08,-2.90894e-17
0.609975,0.7,0.17879,0.01,27.5816,245,-89.2633,89.2382,646.289,-1.68166e-09,1.68141e-09,1.21765e-08,652.41,-652.435,-1.36247e-06,1.22919e-08,-1.22921e-08,-2.56698e-17
0.619975,0.7,0.185245,0.01,31.5654,245,-77.7215,77.6969,638.534,-1.46421e-09,1.46396e-09,1.20303e-08,643.233,-643.257,-1.18242e-06,1.2119e-08,-1.21192e-08,-2.22776e-17
0.629975,0.7,0.191804,0.01,35.5571,245,-66.6081,66.584,630.673,-1.25483e-09,1.25459e-09,1.18822e-08,634.167,-634.191,-1.00586e-06,1.19482e-08,-1.19484e-08,-1.8951e-17
0.639975,0.7,0.198651,0.01,39.5554,245,-55.9143,55.8907,622.722,-1.05335e-09,1.05312e-09,1.17324e-08,625.214,-625.238,-8.35265e-07,1.17795e-08,-1.17797e-08,-1.57369e-17
0.649975,0.7,0.205487,0.01,43.5593,245,-45.6307,45.6077,614.697,-8.5961e-10,8.59376e-10,1.15812e-08,616.376,-616.399,-6.71932e-07,1.1613e-08,-1.16132e-08,-1.26596e-17
0.659975,0.7,0.212144,0.01,47.5678,245,-35.7481,35.7256,606.612,-6.73417e-10,6.73189e-10,1.14289e-08,607.652,-607.675,-5.17159e-07,1.14486e-08,-1.14489e-08,-9.74357e-18
0.669975,0.7,0.219055,0.01,51.5799,245,-26.5322,25.961,599.01,-4.97399e-10,4.91604e-10,1.12857e-08,599.299,-599.87,-0.0222235,1.12936e-08,-1.12994e-08,-4.18704e-13
0.679975,0.7,0.226196,0.01,55.5946,245,-18.7016,15.709,592.903,-3.39337e-10,3.08977e-10,1.11706e-08,591.656,-594.649,-0.00561101,1.11602e-08,-1.11905e-08,-1.05715e-13
0.689975,0.7,0.233035,0.01,59.611,245,-12.33,4.6918,588.105,-1.99095e-10,1.21606e-10,1.10802e-08,584.347,-591.985,0.0273341,1.10426e-08,-1.11201e-08,5.14991e-13
0.699975,0.7,0.239998,0.01,63.6282,245,-4.72962,-4.68775,582.873,-4.81637e-11,-4.73748e-11,1.09817e-08,578.165,-587.582,0.000230299,1.09339e-08,-1.10294e-08,4.33898e-15
-0.690025,0.71,0.24037,0.01,63.7054,252.05,-21.5117,12.107,-582.47,-3.64403e-10,2.68993e-10,-1.09741e-08,578.011,-587.415,-0.184868,1.09309e-08,-1.10264e-08,-3.48302e-12
-0.680025,0.71,0.233231,0.01,59.7472,252.05,-29.2335,21.6152,-587.327,-5.17653e-10,4.40365e-10,-1.10656e-08,584.068,-591.686,-0.0817187,1.10373e-08,-1.11146e-08,-1.53963e-12
-0.670025,0.71,0.22631,0.01,55.7915,252.05,-35.79,32.809,-591.738,-6.61343e-10,6.31101e-10,-1.11487e-08,591.241,-594.222,0.0110061,1.11523e-08,-1.11825e-08,2.07362e-13
-0.660025,0.71,0.219625,0.01,51.8392,252.05,-43.8916,43.3234,-597.44,-8.24472e-10,8.18708e-10,-1.12561e-08,598.745,-599.313,0.0367655,1.12832e-08,-1.12889e-08,6.92683e-13
-0.650025,0.71,0.212827,0.01,47.8913,252.05,-53.4398,53.4176,-604.609,-1.00674e-09,1.00651e-09,-1.13912e-08,606.954,-606.976,7.53073e-07,1.14355e-08,-1.14357e-08,1.41883e-17
-0.640025,0.71,0.205963,0.01,43.9487,252.05,-63.6498,63.627,-612.236,-1.1991e-09,1.19887e-09,-1.15349e-08,615.523,-615.546,9.07132e-07,1.15969e-08,-1.15971e-08,1.70909e-17
-0.630025,0.71,0.199365,0.01,40.0125,252.05,-74.2552,74.232,-619.78,-1.39891e-09,1.39868e-09,-1.1677e-08,624.199,-624.222,1.06664e-06,1.17604e-08,-1.17606e-08,2.00961e-17
-0.620025,0.71,0.192964,0.01,36.0837,252.05,-85.2646,85.2409,-627.225,-1.60633e-09,1.60609e-09,-1.18173e-08,632.981,-633.005,1.22939e-06,1.19258e-08,-1.19261e-08,2.31625e-17
-0.610025,0.71,0.186173,0.01,32.1634,252.05,-96.6858,96.6617,-634.557,-1.82151e-09,1.82127e-09,-1.19554e-08,641.867,-641.891,1.39372e-06,1.20932e-08,-1.20935e-08,2.62584e-17
-0.600025,0.71,0.179682,0.01,28.2528,252.05,-108.527,108.502,-641.757,-2.0446e-09,2.04435e-09,-1.20911e-08,650.855,-650.879,1.55764e-06,1.22626e-08,-1.22628e-08,2.93467e-17
-0.590025,0.71,0.173524,0.01,24.3531,252.05,-120.794,120.769,-648.809,-2.27572e-09,2.27547e-09,-1.22239e-08,659.943,-659.968,1.71754e-06,1.24338e-08,-1.24341e-08,3.23594e-17
-0.580025,0.71,0.166946,0.01,20.4654,252.05,-133.495,133.47,-655.694,-2.51502e-09,2.51476e-09,-1.23536e-08,669.13,-669.155,1.87025e-06,1.26069e-08,-1.26072e-08,3.52365e-17
-0.570025,0.71,0.160589,0.01,16.5911,252.05,-146.636,146.61,-662.391,-2.76259e-09,2.76233e-09,-1.24798e-08,678.412,-678.438,2.01165e-06,1.27818e-08,-1.27821e-08,3.79007e-17
-0.560025,0.71,0.154617,0.01,12.7315,252.05,-160.221,160.195,-668.882,-3.01855e-09,3.01829e-09,-1.26021e-08,687.787,-687.813,2.13714e-06,1.29584e-08,-1.29587e-08,4.0265e-17
-0.550025,0.71,0.148297,0.01,8.88787,252.05,-174.257,174.231,-675.143,-3.28298e-09,3.28272e-09,-1.27201e-08,697.253,-697.279,2.24211e-06,1.31368e-08,-1.3137e-08,4.22426e-17
-0.540025,0.71,0.142111,0.01,5.06169,252.05,-188.746,188.72,-681.154,-3.55597e-09,3.5557e-09,-1.28333e-08,706.804,-706.83,2.32095e-06,1.33167e-08,-1.3317e-08,4.37281e-17
-0.530025,0.71,0.136379,0.01,1.25438,252.05,-203.692,203.666,-686.89,-3.83756e-09,3.83729e-09,-1.29414e-08,716.439,-716.465,2.36692e-06,1.34982e-08,-1.34985e-08,4.45941e-17
-0.520025,0.71,0.130245,0.01,-2.53255,252.05,-219.097,219.07,-692.328,-4.1278e-09,4.12753e-09,-1.30439e-08,726.152,-726.178,2.37295e-06,1.36812e-08,-1.36815e-08,4.47077e-17
-0.510025,0.71,0.124286,0.01,-6.29757,252.05,-234.962,234.935,-697.442,-4.4267e-09,4.42644e-09,-1.31402e-08,735.939,-735.966,2.33159e-06,1.38656e-08,-1.38659e-08,4.39285e-17
-0.500025,0.71,0.11887,0.01,-10.0391,252.05,-251.287,251.26,-702.206,-4.73427e-09,4.73401e-09,-1.323e-08,745.796,-745.823,2.23481e-06,1.40514e-08,-1.40516e-08,4.21051e-17
-0.490025,0.71,0.112825,0.01,-13.7555,252.05,-268.07,268.044,-706.594,-5.05048e-09,5.05022e-09,-1.33126e-08,755.718,-755.744,2.07404e-06,1.42383e-08,-1.42385e-08,3.90761e-17
-0.480025,0.71,0.107172,0.01,-17.4451,252.05,-285.309,285.283,-710.578,-5.37528e-09,5.37502e-09,-1.33877e-08,765.699,-765.725,1.84012e-06,1.44263e-08,-1.44266e-08,3.4669e-17
-0.470025,0.71,0.102029,0.01,-21.1061,252.05,-303,302.975,-714.129,-5.70859e-09,5.70833e-09,-1.34546e-08,775.733,-775.758,1.52209e-06,1.46154e-08,-1.46156e-08,2.86771e-17
-0.460025,0.71,0.0960912,0.01,-24.7369,252.05,-321.137,321.112,-717.218,-6.0503e-09,6.05004e-09,-1.35128e-08,785.813,-785.838,1.11101e-06,1.48053e-08,-1.48055e-08,2.09321e-17
-0.450025,0.71,0.090869,0.01,-28.3355,252.05,-339.712,339.688,-719.816,-6.40027e-09,6.40002e-09,-1.35617e-08,795.934,-795.959,5.9831e-07,1.4996e-08,-1.49962e-08,1.12725e-17
-0.440025,0.71,0.0856627,0.01,-31.9002,252.05,-358.717,358.693,-721.892,-6.75833e-09,6.75809e-09,-1.36009e-08,806.088,-806.112,-4.40933e-08,1.51873e-08,-1.51875e-08,-8.30743e-19
-0.430025,0.71,0.0801452,0.01,-35.4289,252.05,-378.14,378.117,-723.415,-7.12428e-09,7.12405e-09,-1.36296e-08,816.267,-816.29,-7.31456e-07,1.5379e-08,-1.53793e-08,-1.37811e-17
-0.420025,0.71,0.075554,0.01,-38.9199,252.05,-397.969,397.947,-724.355,-7.49787e-09,7.49764e-09,-1.36473e-08,826.464,-826.486,-1.80337e-06,1.55712e-08,-1.55714e-08,-3.39765e-17
-0.410025,0.71,0.0700478,0.01,-42.3711,252.05,-418.188,418.167,-724.68,-7.87882e-09,7.8786e-09,-1.36534e-08,836.67,-836.691,-2.70435e-06,1.57634e-08,-1.57637e-08,-5.09514e-17
-0.400025,0.71,0.0651753,0.01,-45.7804,252.05,-438.781,438.761,-724.359,-8.2668e-09,8.26659e-09,-1.36473e-08,846.875,-846.896,-1.65326e-06,1.59557e-08,-1.59559e-08,-3.11484e-17
-0.390025,0.71,0.0606224,0.01,-49.1459,252.05,-459.728,459.709,-723.359,-8.66146e-09,8.66126e-09,-1.36285e-08,857.072,-857.091,-2.04299e-05,1.61478e-08,-1.6148e-08,-3.8491e-16
-0.380025,0.71,0.0553797,0.01,-52.4654,252.05,-481.007,480.989,-721.65,-9.06238e-09,9.0622e-09,-1.35963e-08,867.25,-867.267,6.32674e-05,1.63396e-08,-1.63397e-08,1.19199e-15
-0.370025,0.71,0.0515629,0.01,-55.7368,252.05,-502.595,502.579,-719.2,-9.46911e-09,9.46895e-09,-1.35501e-08,877.398,-877.414,-0.000265621,1.65308e-08,-1.65309e-08,-5.00445e-15
-0.360025,0.71,0.0462043,0.01,-58.9579,252.05,-524.464,524.449,-715.979,-9.88114e-09,9.88099e-09,-1.34895e-08,887.506,-887.521,0.000774432,1.67212e-08,-1.67213e-08,1.45908e-14
-0.350025,0.71,0.0420991,0.01,-62.1266,252.05,-546.593,546.578,-711.958,-1.02981e-08,1.02979e-08,-1.34137e-08,897.567,-897.582,-0.00198853,1.69107e-08,-1.69109e-08,-3.74651e-14
-0.340025,0.71,0.0377117,0.01,-65.2406,252.05,-568.914,568.919,-707.096,-1.07187e-08,1.07187e-08,-1.33221e-08,907.555,-907.55,0.00334324,1.70988e-08,-1.70988e-08,6.29886e-14
-0.330025,0.71,0.0331749,0.01,-68.2977,252.05,-591.52,591.445,-701.417,-1.11443e-08,1.11435e-08,-1.32151e-08,917.479,-917.555,-0.00213427,1.72862e-08,-1.72869e-08,-4.02109e-14
-0.320025,0.71,0.0300152,0.01,-71.2957,252.05,-614.014,614.3,-694.629,-1.15696e-08,1.15725e-08,-1.30872e-08,927.342,-927.056,-0.12081,1.74704e-08,-1.74675e-08,-2.27613e-12
-0.310025,0.71,0.0248131,0.01,-74.2323,252.05,-633.619,637.025,-684.369,-1.19526e-08,1.19871e-08,-1.28939e-08,935.509,-932.104,-0.798159,1.76107e-08,-1.75762e-08,-1.50378e-11
-0.300025,0.71,0.0230318,0.01,-77.1051,252.05,-651.662,657.948,-675.297,-1.2305e-08,1.23688e-08,-1.2723e-08,943.778,-937.492,1.11119,1.7754e-08,-1.76902e-08,2.09355e-11
-0.290025,0.71,0.0170699,0.01,-79.912,252.05,-671.07,682.63,-660.653,-1.26936e-08,1.28109e-08,-1.24471e-08,951.604,-940.044,-2.18671,1.78785e-08,-1.77612e-08,-4.11989e-11
-0.280025,0.71,0.015436,0.01,-82.6508,252.05,-677.723,704.746,-644.862,-1.28862e-08,1.31603e-08,-1.21496e-08,958.843,-931.821,-0.601395,1.79477e-08,-1.76735e-08,-1.13306e-11
-0.270025,0.71,0.0101413,0.01,-85.3184,252.05,-702.586,718.8,-637.915,-1.33076e-08,1.34721e-08,-1.20187e-08,963.094,-946.88,4.42884,1.80748e-08,-1.79103e-08,8.3442e-11
-0.260025,0.71,0.00882289,0.01,-87.9145,252.05,-746.66,738.866,-625.229,-1.40336e-08,1.39545e-08,-1.17797e-08,966.98,-974.774,-2.36109,1.82523e-08,-1.83314e-08,-4.44844e-11
0.259975,0.71,0.00884415,0.01,-87.9272,252.05,-747.003,738.952,625.309,-1.4039e-08,1.39573e-08,1.17812e-08,967.067,-975.118,2.31889,1.82551e-08,-1.83368e-08,4.36892e-11
0.269975,0.71,0.0101107,0.01,-85.3315,252.05,-702.705,718.797,637.923,-1.33093e-08,1.34726e-08,1.20188e-08,963.082,-946.99,-4.51317,1.80751e-08,-1.79118e-08,-8.50307e-11
0.279975,0.71,0.0154436,0.01,-82.6642,252.05,-677.778,704.847,644.823,-1.28874e-08,1.3162e-08,1.21488e-08,958.897,-931.827,0.569169,1.79485e-08,-1.76739e-08,1.07235e-11
0.289975,0.71,0.0170477,0.01,-79.9258,252.05,-671.134,682.745,660.583,-1.2695e-08,1.28128e-08,1.24458e-08,951.645,-940.034,2.18532,1.78791e-08,-1.77613e-08,4.11726e-11
0.299975,0.71,0.0230335,0.01,-77.1193,252.05,-651.752,658.067,675.239,-1.23068e-08,1.23709e-08,1.27219e-08,943.824,-937.508,-1.10807,1.77547e-08,-1.76907e-08,-2.08768e-11
0.309975,0.71,0.0247946,0.01,-74.2467,252.05,-633.723,637.14,684.324,-1.19546e-08,1.19892e-08,1.28931e-08,935.556,-932.139,0.799968,1.76116e-08,-1.75769e-08,1.50719e-11
0.319975,0.71,0.0299833,0.01,-71.3105,252.05,-614.124,614.412,694.591,-1.15717e-08,1.15746e-08,1.30865e-08,927.388,-927.1,0.120812,1.74713e-08,-1.74684e-08,2.27616e-12
0.329975,0.71,0.0331583,0.01,-68.3128,252.05,-591.634,591.559,701.386,-1.11464e-08,1.11456e-08,1.32145e-08,917.529,-917.604,0.00296844,1.72871e-08,-1.72879e-08,5.59271e-14
0.339975,0.71,0.037684,0.01,-65.2559,252.05,-569.025,569.03,707.07,-1.07208e-08,1.07208e-08,1.33216e-08,907.604,-907.599,-0.00355056,1.70998e-08,-1.70997e-08,-6.68947e-14
0.349975,0.71,0.0420837,0.01,-62.1422,252.05,-546.703,546.688,711.936,-1.03001e-08,1.03e-08,1.34133e-08,897.617,-897.632,0.00204689,1.69117e-08,-1.69118e-08,3.85645e-14
0.359975,0.71,0.0461794,0.01,-58.9738,252.05,-524.573,524.559,715.961,-9.8832e-09,9.88305e-09,1.34891e-08,887.556,-887.571,-0.000788766,1.67221e-08,-1.67223e-08,-1.48608e-14
0.369975,0.71,0.0515481,0.01,-55.7529,252.05,-502.703,502.687,719.186,-9.47115e-09,9.47099e-09,1.35499e-08,877.449,-877.465,0.000268537,1.65317e-08,-1.65319e-08,5.05938e-15
0.379975,0.71,0.0553569,0.01,-52.4818,252.05,-481.114,481.096,721.639,-9.06439e-09,9.0642e-09,1.35961e-08,867.3,-867.318,-6.36513e-05,1.63405e-08,-1.63407e-08,-1.19923e-15
0.389975,0.71,0.0605934,0.01,-49.1625,252.05,-459.833,459.814,723.352,-8.66344e-09,8.66324e-09,1.36284e-08,857.123,-857.142,2.04193e-05,1.61488e-08,-1.6149e-08,3.84711e-16
0.399975,0.71,0.065154,0.01,-45.7973,252.05,-438.884,438.864,724.355,-8.26875e-09,8.26854e-09,1.36473e-08,846.926,-846.946,1.69268e-06,1.59567e-08,-1.59569e-08,3.18911e-17
0.409975,0.71,0.0700209,0.01,-42.3881,252.05,-418.29,418.268,724.68,-7.88073e-09,7.88051e-09,1.36534e-08,836.72,-836.742,2.6965e-06,1.57644e-08,-1.57646e-08,5.08036e-17
0.419975,0.71,0.0755338,0.01,-38.9372,252.05,-398.069,398.046,724.358,-7.49975e-09,7.49952e-09,1.36473e-08,826.515,-826.537,1.81267e-06,1.55721e-08,-1.55723e-08,3.41517e-17
0.429975,0.71,0.08012,0.01,-35.4464,252.05,-378.238,378.215,723.422,-7.12612e-09,7.12588e-09,1.36297e-08,816.318,-816.341,7.35476e-07,1.538e-08,-1.53802e-08,1.38568e-17
0.439975,0.71,0.0856333,0.01,-31.9178,252.05,-358.813,358.789,721.901,-6.76013e-09,6.75989e-09,1.3601e-08,806.138,-806.163,4.78875e-08,1.51882e-08,-1.51885e-08,9.02229e-19
0.449975,0.71,0.0908451,0.01,-28.3533,252.05,-339.806,339.781,719.827,-6.40203e-09,6.40178e-09,1.3562e-08,795.985,-796.009,-5.94959e-07,1.49969e-08,-1.49972e-08,-1.12094e-17
0.459975,0.71,0.0960634,0.01,-24.7548,252.05,-321.228,321.203,717.232,-6.05202e-09,6.05176e-09,1.35131e-08,785.864,-785.889,-1.10848e-06,1.48062e-08,-1.48065e-08,-2.08844e-17
0.469975,0.71,0.101998,0.01,-21.1242,252.05,-303.089,303.064,714.145,-5.71027e-09,5.71001e-09,1.34549e-08,775.783,-775.808,-1.52004e-06,1.46163e-08,-1.46166e-08,-2.86384e-17
0.479975,0.71,0.107145,0.01,-17.4633,252.05,-285.396,285.37,710.596,-5.37692e-09,5.37665e-09,1.3388e-08,765.749,-765.775,-1.83798e-06,1.44273e-08,-1.44275e-08,-3.46285e-17
0.489975,0.71,0.112795,0.01,-13.7739,252.05,-268.155,268.129,706.615,-5.05208e-09,5.05181e-09,1.3313e-08,755.768,-755.794,-2.07267e-06,1.42392e-08,-1.42395e-08,-3.90503e-17
0.499975,0.71,0.118845,0.01,-10.0576,252.05,-251.369,251.343,702.229,-4.73583e-09,4.73556e-09,1.32304e-08,745.846,-745.872,-2.23435e-06,1.40523e-08,-1.40525e-08,-4.20964e-17
0.509975,0.71,0.124258,0.01,-6.31624,252.05,-235.042,235.016,697.466,-4.42821e-09,4.42794e-09,1.31407e-08,735.988,-736.015,-2.33119e-06,1.38666e-08,-1.38668e-08,-4.3921e-17
0.519975,0.71,0.130214,0.01,-2.55133,252.05,-219.175,219.148,692.354,-4.12926e-09,4.12899e-09,1.30444e-08,726.2,-726.227,-2.37255e-06,1.36821e-08,-1.36824e-08,-4.47002e-17
0.529975,0.71,0.136352,0.01,1.2355,252.05,-203.767,203.741,686.918,-3.83898e-09,3.83871e-09,1.29419e-08,716.487,-716.513,-2.36701e-06,1.34991e-08,-1.34994e-08,-4.45959e-17
0.539975,0.71,0.142082,0.01,5.04271,252.05,-188.819,188.793,681.183,-3.55735e-09,3.55708e-09,1.28339e-08,706.852,-706.878,-2.32145e-06,1.33176e-08,-1.33179e-08,-4.37374e-17
0.549975,0.71,0.148265,0.01,8.8688,252.05,-174.328,174.302,675.174,-3.28432e-09,3.28406e-09,1.27207e-08,697.3,-697.326,-2.24272e-06,1.31376e-08,-1.31379e-08,-4.22542e-17
0.559975,0.71,0.154589,0.01,12.7123,252.05,-160.29,160.264,668.913,-3.01984e-09,3.01958e-09,1.26027e-08,687.834,-687.86,-2.13756e-06,1.29593e-08,-1.29596e-08,-4.02729e-17
0.569975,0.71,0.160558,0.01,16.5719,252.05,-146.702,146.677,662.424,-2.76384e-09,2.76358e-09,1.24805e-08,678.459,-678.484,-2.01208e-06,1.27827e-08,-1.27829e-08,-3.79088e-17
0.579975,0.71,0.166914,0.01,20.4461,252.05,-133.559,133.534,655.727,-2.51623e-09,2.51597e-09,1.23543e-08,669.176,-669.201,-1.87079e-06,1.26078e-08,-1.2608e-08,-3.52468e-17
0.589975,0.71,0.173494,0.01,24.3337,252.05,-120.856,120.831,648.844,-2.27689e-09,2.27664e-09,1.22246e-08,659.989,-660.014,-1.71782e-06,1.24347e-08,-1.24349e-08,-3.23647e-17
0.599975,0.71,0.17965,0.01,28.2334,252.05,-108.587,108.562,641.793,-2.04573e-09,2.04548e-09,1.20917e-08,650.9,-650.924,-1.55786e-06,1.22634e-08,-1.22637e-08,-2.93509e-17
0.609975,0.71,0.18614,0.01,32.1439,252.05,-96.7437,96.7196,634.593,-1.8226e-09,1.82236e-09,1.19561e-08,641.911,-641.935,-1.39465e-06,1.20941e-08,-1.20943e-08,-2.6276e-17
0.619975,0.71,0.19293,0.01,36.0641,252.05,-85.3204,85.2967,627.262,-1.60738e-09,1.60714e-09,1.1818e-08,633.025,-633.049,-1.23047e-06,1.19267e-08,-1.19269e-08,-2.31827e-17
0.629975,0.71,0.199333,0.01,39.9929,252.05,-74.309,74.2858,619.817,-1.39992e-09,1.39969e-09,1.16777e-08,624.243,-624.266,-1.06752e-06,1.17612e-08,-1.17614e-08,-2.01127e-17
0.639975,0.71,0.20593,0.01,43.9291,252.05,-63.7015,63.6788,612.274,-1.20007e-09,1.19984e-09,1.15356e-08,615.566,-615.589,-9.08459e-07,1.15977e-08,-1.1598e-08,-1.71159e-17
0.649975,0.71,0.212792,0.01,47.8716,252.05,-53.4896,53.4674,604.647,-1.00768e-09,1.00745e-09,1.13919e-08,606.996,-607.019,-7.54522e-07,1.14363e-08,-1.14365e-08,-1.42156e-17
0.659975,0.71,0.219592,0.01,51.8195,252.05,-43.9395,43.3712,597.478,-8.25375e-10,8.1961e-10,1.12568e-08,598.787,-599.355,-0.0368067,1.1284e-08,-1.12897e-08,-6.93459e-13
0.669975,0.71,0.226276,0.01,55.7718,252.05,-35.8364,32.8551,591.777,-6.62216e-10,6.31971e-10,1.11494e-08,591.283,-594.264,-0.0110208,1.11531e-08,-1.11833e-08,-2.07638e-13
0.679975,0.71,0.233197,0.01,59.7275,252.05,-29.2788,21.6596,587.366,-5.18502e-10,4.41207e-10,1.10663e-08,584.109,-591.728,0.0818659,1.10381e-08,-1.11154e-08,1.5424e-12
0.689975,0.71,0.240334,0.01,63.6857,252.05,-21.5558,12.1502,582.51,-3.65229e-10,2.6981e-10,1.09748e-08,578.051,-587.457,0.185354,1.09317e-08,-1.10271e-08,3.49218e-12
-0.680025,0.72,0.240443,0.01,63.8774,259.2,-38.2826,28.913,-581.386,-6.80529e-10,5.85475e-10,-1.09537e-08,577.671,-587.041,-0.369285,1.09244e-08,-1.10195e-08,-6.95755e-12
-0.670025,0.72,0.233734,0.01,59.9797,259.2,-46.1075,38.5271,-585.856,-8.35734e-10,7.58831e-10,-1.10379e-08,583.592,-591.173,-0.136239,1.10282e-08,-1.11051e-08,-2.56682e-12
-0.660025,0.72,0.226968,0.01,56.0863,259.2,-52.833,49.8707,-589.871,-9.82525e-10,9.52473e-10,-1.11135e-08,590.621,-593.583,0.0160311,1.11405e-08,-1.11706e-08,3.02035e-13
-0.650025,0.72,0.220091,0.01,52.1979,259.2,-61.1855,60.6217,-595.153,-1.15032e-09,1.1446e-09,-1.1213e-08,597.979,-598.543,0.0510204,1.12687e-08,-1.12744e-08,9.61254e-13
-0.640025,0.72,0.213462,0.01,48.3157,259.2,-71.0418,71.02,-601.873,-1.33837e-09,1.33815e-09,-1.13396e-08,606.039,-606.061,9.64045e-07,1.14182e-08,-1.14184e-08,1.81632e-17
-0.630025,0.72,0.207103,0.01,44.4405,259.2,-81.5527,81.5304,-609.024,-1.5364e-09,1.53618e-09,-1.14744e-08,614.448,-614.47,1.11176e-06,1.15767e-08,-1.15769e-08,2.09463e-17
-0.620025,0.72,0.200292,0.01,40.5735,259.2,-92.4521,92.4293,-616.07,-1.74175e-09,1.74152e-09,-1.16071e-08,622.955,-622.978,1.26054e-06,1.17369e-08,-1.17372e-08,2.37493e-17
-0.610025,0.72,0.193758,0.01,36.7158,259.2,-103.747,103.724,-622.994,-1.95456e-09,1.95432e-09,-1.17376e-08,631.56,-631.583,1.40908e-06,1.18991e-08,-1.18993e-08,2.6548e-17
-0.600025,0.72,0.18753,0.01,32.8684,259.2,-115.445,115.421,-629.78,-2.17495e-09,2.17471e-09,-1.18654e-08,640.26,-640.283,1.55521e-06,1.2063e-08,-1.20632e-08,2.9301e-17
-0.590025,0.72,0.181053,0.01,29.0326,259.2,-127.551,127.528,-636.411,-2.40304e-09,2.4028e-09,-1.19903e-08,649.053,-649.077,1.69487e-06,1.22286e-08,-1.22289e-08,3.19324e-17
-0.580025,0.72,0.174637,0.01,25.2095,259.2,-140.072,140.048,-642.868,-2.63894e-09,2.6387e-09,-1.2112e-08,657.937,-657.961,1.82526e-06,1.2396e-08,-1.23963e-08,3.43889e-17
-0.570025,0.72,0.16857,0.01,21.4005,259.2,-153.014,152.989,-649.134,-2.88276e-09,2.88251e-09,-1.22301e-08,666.909,-666.933,1.94245e-06,1.25651e-08,-1.25653e-08,3.65969e-17
-0.560025,0.72,0.162385,0.01,17.6068,259.2,-166.379,166.354,-655.187,-3.13457e-09,3.13432e-09,-1.23441e-08,675.967,-675.992,2.04189e-06,1.27357e-08,-1.2736e-08,3.84704e-17
-0.550025,0.72,0.156117,0.01,13.8296,259.2,-180.173,180.148,-661.008,-3.39445e-09,3.3942e-09,-1.24538e-08,685.107,-685.132,2.11917e-06,1.29079e-08,-1.29082e-08,3.99264e-17
-0.540025,0.72,0.150254,0.01,10.0706,259.2,-194.398,194.373,-666.574,-3.66246e-09,3.66221e-09,-1.25586e-08,694.327,-694.352,2.16888e-06,1.30816e-08,-1.30819e-08,4.0863e-17
-0.530025,0.72,0.144302,0.01,6.33092,259.2,-209.057,209.032,-671.865,-3.93864e-09,3.93839e-09,-1.26583e-08,703.622,-703.647,2.18459e-06,1.32568e-08,-1.3257e-08,4.1159e-17
-0.520025,0.72,0.138225,0.01,2.61218,259.2,-224.15,224.125,-676.855,-4.22302e-09,4.22276e-09,-1.27523e-08,712.988,-713.013,2.15951e-06,1.34332e-08,-1.34335e-08,4.06864e-17
-0.510025,0.72,0.132625,0.01,-1.08414,259.2,-239.679,239.654,-681.521,-4.51558e-09,4.51533e-09,-1.28403e-08,722.422,-722.447,2.08648e-06,1.3611e-08,-1.36112e-08,3.93105e-17
-0.500025,0.72,0.12683,0.01,-4.75648,259.2,-255.642,255.617,-685.84,-4.81633e-09,4.81608e-09,-1.29216e-08,731.918,-731.943,1.95856e-06,1.37899e-08,-1.37901e-08,3.69004e-17
-0.490025,0.72,0.121005,0.01,-8.40327,259.2,-272.036,272.012,-689.783,-5.12522e-09,5.12497e-09,-1.29959e-08,741.472,-741.496,1.76792e-06,1.39699e-08,-1.39701e-08,3.33087e-17
-0.480025,0.72,0.115753,0.01,-12.0228,259.2,-288.86,288.835,-693.327,-5.44217e-09,5.44193e-09,-1.30627e-08,751.077,-751.101,1.50607e-06,1.41508e-08,-1.41511e-08,2.83752e-17
-0.470025,0.72,0.110009,0.01,-15.6135,259.2,-306.106,306.082,-696.443,-5.76712e-09,5.76687e-09,-1.31214e-08,760.729,-760.753,1.16309e-06,1.43327e-08,-1.43329e-08,2.19134e-17
-0.460025,0.72,0.104526,0.01,-19.1736,259.2,-323.77,323.747,-699.104,-6.09992e-09,6.09968e-09,-1.31715e-08,770.421,-770.445,7.30778e-07,1.45153e-08,-1.45155e-08,1.37683e-17
-0.450025,0.72,0.0996659,0.01,-22.7013,259.2,-341.844,341.821,-701.283,-6.44043e-09,6.4402e-09,-1.32126e-08,780.147,-780.17,2.0022e-07,1.46985e-08,-1.46988e-08,3.77226e-18
-0.440025,0.72,0.0939066,0.01,-26.1948,259.2,-360.317,360.295,-702.95,-6.78848e-09,6.78826e-09,-1.3244e-08,789.899,-789.922,-4.37664e-07,1.48823e-08,-1.48825e-08,-8.24584e-18
-0.430025,0.72,0.0889022,0.01,-29.6523,259.2,-379.179,379.157,-704.076,-7.14385e-09,7.14363e-09,-1.32652e-08,799.671,-799.693,-1.19043e-06,1.50664e-08,-1.50666e-08,-2.24283e-17
-0.420025,0.72,0.0839237,0.01,-33.0718,259.2,-398.416,398.395,-704.633,-7.50629e-09,7.50608e-09,-1.32757e-08,809.455,-809.476,-2.08986e-06,1.52507e-08,-1.52509e-08,-3.93743e-17
-0.410025,0.72,0.0786404,0.01,-36.4515,259.2,-418.013,417.993,-704.591,-7.87552e-09,7.87532e-09,-1.32749e-08,819.243,-819.262,-3.00861e-06,1.54351e-08,-1.54353e-08,-5.66839e-17
-0.400025,0.72,0.0743333,0.01,-39.7895,259.2,-437.953,437.934,-703.92,-8.2512e-09,8.25101e-09,-1.32623e-08,829.025,-829.044,-4.47232e-06,1.56194e-08,-1.56196e-08,-8.4261e-17
-0.390025,0.72,0.0689871,0.01,-43.0836,259.2,-458.216,458.199,-702.592,-8.63299e-09,8.63281e-09,-1.32372e-08,838.794,-838.811,-5.14768e-06,1.58034e-08,-1.58036e-08,-9.69852e-17
-0.380025,0.72,0.0644286,0.01,-46.3319,259.2,-478.783,478.767,-700.577,-9.02047e-09,9.02031e-09,-1.31993e-08,848.54,-848.556,-6.2812e-06,1.59871e-08,-1.59872e-08,-1.18341e-16
-0.370025,0.72,0.0599779,0.01,-49.5323,259.2,-499.628,499.613,-697.846,-9.41321e-09,9.41306e-09,-1.31478e-08,858.253,-858.267,-1.81661e-05,1.617e-08,-1.61702e-08,-3.4226e-16
-0.360025,0.72,0.0550895,0.01,-52.6827,259.2,-520.726,520.713,-694.372,-9.81071e-09,9.81058e-09,-1.30824e-08,867.923,-867.936,4.13276e-05,1.63522e-08,-1.63524e-08,7.78636e-16
-0.350025,0.72,0.0516641,0.01,-55.7811,259.2,-542.048,542.037,-690.126,-1.02125e-08,1.02123e-08,-1.30024e-08,877.539,-877.55,-0.000223839,1.65334e-08,-1.65335e-08,-4.21727e-15
-0.340025,0.72,0.0463419,0.01,-58.8252,259.2,-563.565,563.555,-685.082,-1.06178e-08,1.06177e-08,-1.29073e-08,887.09,-887.1,0.000729825,1.67133e-08,-1.67134e-08,1.37503e-14
-0.330025,0.72,0.0427314,0.01,-61.813,259.2,-585.247,585.241,-679.215,-1.10264e-08,1.10263e-08,-1.27968e-08,896.57,-896.576,-0.00238626,1.68919e-08,-1.6892e-08,-4.49585e-14
-0.320025,0.72,0.0382271,0.01,-64.7423,259.2,-607.036,607.034,-672.497,-1.14369e-08,1.14369e-08,-1.26702e-08,905.948,-905.95,0.00710899,1.70686e-08,-1.70686e-08,1.33938e-13
-0.310025,0.72,0.0342941,0.01,-67.6109,259.2,-628.979,628.963,-664.913,-1.18503e-08,1.18501e-08,-1.25274e-08,915.259,-915.275,-0.0201716,1.72441e-08,-1.72442e-08,-3.80045e-13
-0.300025,0.72,0.0308161,0.01,-70.4166,259.2,-650.436,650.977,-656.049,-1.22569e-08,1.22624e-08,-1.23604e-08,924.294,-923.753,-0.142511,1.74119e-08,-1.74064e-08,-2.685e-12
-0.290025,0.72,0.0263917,0.01,-73.1572,259.2,-668.729,672.765,-643.956,-1.26168e-08,1.26577e-08,-1.21325e-08,931.846,-927.81,-0.775779,1.7539e-08,-1.7498e-08,-1.46161e-11
-0.280025,0.72,0.0242399,0.01,-75.8305,259.2,-685.145,692.901,-632.916,-1.29423e-08,1.30209e-08,-1.19245e-08,939.471,-931.716,1.0648,1.76665e-08,-1.75878e-08,2.00615e-11
-0.270025,0.72,0.0190413,0.01,-78.4343,259.2,-710.178,713.876,-622.493,-1.33962e-08,1.34338e-08,-1.17281e-08,947.618,-943.92,0.76203,1.78376e-08,-1.78001e-08,1.43571e-11
-0.260025,0.72,0.0183731,0.01,-80.9666,259.2,-728.739,737.213,-605.511,-1.37667e-08,1.38527e-08,-1.14082e-08,954.968,-946.495,-2.55317,1.79553e-08,-1.78694e-08,-4.81033e-11
-0.250025,0.72,0.0122904,0.01,-83.4246,259.2,-734.11,757.447,-586.267,-1.39325e-08,1.41693e-08,-1.10456e-08,960.294,-936.957,-2.12624,1.7991e-08,-1.77543e-08,-4.00595e-11
-0.240025,0.72,0.0122647,0.01,-85.8077,259.2,-751.844,780.067,-573.571,-1.42879e-08,1.45742e-08,-1.08064e-08,971.019,-942.795,-0.776392,1.81718e-08,-1.78855e-08,-1.46277e-11
-0.230025,0.72,0.00635002,0.01,-88.1103,259.2,-777.864,790.02,-552.122,-1.47083e-08,1.48316e-08,-1.04023e-08,964.922,-952.765,-4.66166,1.81268e-08,-1.80035e-08,-8.78284e-11
0.229975,0.72,0.00631892,0.01,-88.1215,259.2,-777.77,790.134,551.929,-1.47074e-08,1.48328e-08,1.03987e-08,964.923,-952.559,4.70478,1.81259e-08,-1.80005e-08,8.86407e-11
0.239975,0.72,0.012285,0.01,-85.8194,259.2,-751.97,780.267,573.439,-1.42906e-08,1.45777e-08,1.08039e-08,971.107,-942.809,0.860628,1.81732e-08,-1.78861e-08,1.62147e-11
0.249975,0.72,0.0122701,0.01,-83.4367,259.2,-734.318,757.558,586.192,-1.3936e-08,1.41718e-08,1.10442e-08,960.324,-937.084,2.16682,1.7992e-08,-1.77563e-08,4.08242e-11
0.259975,0.72,0.0183833,0.01,-80.979,259.2,-728.935,737.316,605.488,-1.377e-08,1.3855e-08,1.14077e-08,955.023,-946.642,2.55039,1.79567e-08,-1.78717e-08,4.80509e-11
0.269975,0.72,0.019025,0.01,-78.4471,259.2,-710.308,713.968,622.466,-1.33985e-08,1.34357e-08,1.17276e-08,947.665,-944.005,-0.782795,1.78386e-08,-1.78015e-08,-1.47483e-11
0.279975,0.72,0.0242066,0.01,-75.8436,259.2,-685.241,692.998,632.872,-1.29441e-08,1.30228e-08,1.19237e-08,939.512,-931.755,-1.07936,1.76672e-08,-1.75885e-08,-2.03357e-11
0.289975,0.72,0.0263773,0.01,-73.1706,259.2,-668.826,672.873,643.901,-1.26187e-08,1.26597e-08,1.21315e-08,931.888,-927.84,0.775283,1.75397e-08,-1.74986e-08,1.46068e-11
0.299975,0.72,0.0307876,0.01,-70.4304,259.2,-650.541,651.086,656.001,-1.22589e-08,1.22645e-08,1.23594e-08,924.337,-923.792,0.143711,1.74127e-08,-1.74071e-08,2.70759e-12
0.309975,0.72,0.0342808,0.01,-67.625,259.2,-629.088,629.072,664.873,-1.18523e-08,1.18522e-08,1.25266e-08,915.305,-915.321,0.020508,1.7245e-08,-1.72451e-08,3.86382e-13
0.319975,0.72,0.0382021,0.01,-64.7567,259.2,-607.145,607.143,672.461,-1.14389e-08,1.14389e-08,1.26696e-08,905.994,-905.996,-0.00721213,1.70695e-08,-1.70695e-08,-1.35881e-13
0.329975,0.72,0.0427185,0.01,-61.8278,259.2,-585.355,585.349,679.184,-1.10284e-08,1.10283e-08,1.27962e-08,896.617,-896.623,0.00241079,1.68928e-08,-1.68929e-08,4.54207e-14
0.339975,0.72,0.0463193,0.01,-58.8402,259.2,-563.672,563.662,685.055,-1.06199e-08,1.06198e-08,1.29068e-08,887.137,-887.147,-0.000734914,1.67142e-08,-1.67143e-08,-1.38462e-14
0.349975,0.72,0.0516342,0.01,-55.7963,259.2,-542.155,542.144,690.103,-1.02145e-08,1.02144e-08,1.30019e-08,877.587,-877.598,0.000224413,1.65343e-08,-1.65344e-08,4.22806e-15
0.359975,0.72,0.0550687,0.01,-52.6982,259.2,-520.831,520.818,694.353,-9.8127e-09,9.81257e-09,1.3082e-08,867.97,-867.984,-4.11637e-05,1.63531e-08,-1.63533e-08,-7.75547e-16
0.369975,0.72,0.0599505,0.01,-49.5481,259.2,-499.732,499.717,697.831,-9.41518e-09,9.41503e-09,1.31475e-08,858.301,-858.315,1.80405e-05,1.61709e-08,-1.61711e-08,3.39893e-16
0.379975,0.72,0.064409,0.01,-46.3479,259.2,-478.886,478.87,700.565,-9.02241e-09,9.02225e-09,1.31991e-08,848.588,-848.604,6.34556e-06,1.5988e-08,-1.59881e-08,1.19554e-16
0.389975,0.72,0.0689616,0.01,-43.0998,259.2,-458.318,458.301,702.584,-8.6349e-09,8.63473e-09,1.32371e-08,838.843,-838.86,5.13635e-06,1.58044e-08,-1.58045e-08,9.67718e-17
0.399975,0.72,0.0743147,0.01,-39.8059,259.2,-438.053,438.034,703.915,-8.25309e-09,8.2529e-09,1.32622e-08,829.074,-829.093,4.48217e-06,1.56203e-08,-1.56205e-08,8.44467e-17
0.409975,0.72,0.0786165,0.01,-36.4682,259.2,-418.111,418.091,704.589,-7.87737e-09,7.87717e-09,1.32749e-08,819.291,-819.311,3.01296e-06,1.5436e-08,-1.54362e-08,5.67659e-17
0.419975,0.72,0.0838953,0.01,-33.0887,259.2,-398.512,398.492,704.634,-7.50811e-09,7.5079e-09,1.32757e-08,809.504,-809.525,2.09457e-06,1.52516e-08,-1.52518e-08,3.94628e-17
0.429975,0.72,0.0888794,0.01,-29.6694,259.2,-379.273,379.252,704.08,-7.14564e-09,7.14542e-09,1.32653e-08,799.72,-799.742,1.19415e-06,1.50673e-08,-1.50675e-08,2.24985e-17
0.439975,0.72,0.0938797,0.01,-26.2121,259.2,-360.41,360.388,702.957,-6.79023e-09,6.79001e-09,1.32441e-08,789.948,-789.97,4.40938e-07,1.48832e-08,-1.48834e-08,8.30753e-18
0.449975,0.72,0.0996356,0.01,-22.7188,259.2,-341.935,341.912,701.292,-6.44215e-09,6.44191e-09,1.32128e-08,780.195,-780.218,-1.96848e-07,1.46994e-08,-1.46997e-08,-3.70873e-18
0.459975,0.72,0.1045,0.01,-19.1912,259.2,-323.859,323.836,699.117,-6.10159e-09,6.10135e-09,1.31718e-08,770.469,-770.493,-7.28226e-07,1.45162e-08,-1.45164e-08,-1.37202e-17
0.469975,0.72,0.10998,0.01,-15.6313,259.2,-306.193,306.169,696.458,-5.76875e-09,5.76851e-09,1.31217e-08,760.777,-760.801,-1.16122e-06,1.43336e-08,-1.43338e-08,-2.1878e-17
0.479975,0.72,0.115728,0.01,-12.0408,259.2,-288.944,288.92,693.344,-5.44377e-09,5.44352e-09,1.3063e-08,751.125,-751.149,-1.50396e-06,1.41517e-08,-1.4152e-08,-2.83354e-17
0.489975,0.72,0.120978,0.01,-8.42133,259.2,-272.119,272.094,689.802,-5.12677e-09,5.12652e-09,1.29963e-08,741.519,-741.544,-1.76643e-06,1.39708e-08,-1.3971e-08,-3.32805e-17
0.499975,0.72,0.1268,0.01,-4.77468,259.2,-255.722,255.697,685.86,-4.81785e-09,4.81759e-09,1.2922e-08,731.965,-731.99,-1.95822e-06,1.37908e-08,-1.3791e-08,-3.6894e-17
0.509975,0.72,0.132598,0.01,-1.10246,259.2,-239.757,239.732,681.544,-4.51706e-09,4.51681e-09,1.28407e-08,722.469,-722.494,-2.08628e-06,1.36118e-08,-1.36121e-08,-3.93066e-17
0.519975,0.72,0.138196,0.01,2.59374,259.2,-224.227,224.202,676.879,-4.22445e-09,4.2242e-09,1.27528e-08,713.035,-713.06,-2.1588e-06,1.34341e-08,-1.34344e-08,-4.0673e-17
0.529975,0.72,0.144271,0.01,6.31237,259.2,-209.131,209.106,671.89,-3.94004e-09,3.93978e-09,1.26588e-08,703.668,-703.693,-2.18433e-06,1.32576e-08,-1.32579e-08,-4.11541e-17
0.539975,0.72,0.150226,0.01,10.0519,259.2,-194.47,194.445,666.601,-3.66382e-09,3.66356e-09,1.25592e-08,694.373,-694.398,-2.16941e-06,1.30825e-08,-1.30828e-08,-4.0873e-17
0.549975,0.72,0.156087,0.01,13.8109,259.2,-180.242,180.218,661.036,-3.39577e-09,3.39551e-09,1.24543e-08,685.153,-685.178,-2.11983e-06,1.29088e-08,-1.2909e-08,-3.99388e-17
0.559975,0.72,0.162353,0.01,17.5879,259.2,-166.447,166.422,655.217,-3.13584e-09,3.13559e-09,1.23447e-08,676.012,-676.037,-2.04251e-06,1.27366e-08,-1.27368e-08,-3.84821e-17
0.569975,0.72,0.168541,0.01,21.3816,259.2,-153.079,153.055,649.164,-2.88399e-09,2.88374e-09,1.22306e-08,666.954,-666.978,-1.94338e-06,1.25659e-08,-1.25662e-08,-3.66143e-17
0.579975,0.72,0.174606,0.01,25.1906,259.2,-140.136,140.112,642.9,-2.64013e-09,2.63989e-09,1.21126e-08,657.981,-658.005,-1.8264e-06,1.23968e-08,-1.23971e-08,-3.44103e-17
0.589975,0.72,0.181021,0.01,29.0136,259.2,-127.613,127.589,636.443,-2.40419e-09,2.40395e-09,1.1991e-08,649.097,-649.121,-1.69573e-06,1.22295e-08,-1.22297e-08,-3.19486e-17
0.599975,0.72,0.1875,0.01,32.8493,259.2,-115.504,115.481,629.813,-2.17606e-09,2.17582e-09,1.1866e-08,640.303,-640.327,-1.55591e-06,1.20638e-08,-1.2064e-08,-2.93143e-17
0.609975,0.72,0.193726,0.01,36.6966,259.2,-103.804,103.781,623.028,-1.95563e-09,1.9554e-09,1.17382e-08,631.603,-631.626,-1.41019e-06,1.18999e-08,-1.19001e-08,-2.65688e-17
0.619975,0.72,0.200259,0.01,40.5543,259.2,-92.5073,92.4845,616.105,-1.74279e-09,1.74256e-09,1.16078e-08,622.998,-623.021,-1.26154e-06,1.17377e-08,-1.1738e-08,-2.37682e-17
0.629975,0.72,0.207069,0.01,44.4213,259.2,-81.6059,81.5836,609.06,-1.53741e-09,1.53718e-09,1.1475e-08,614.49,-614.512,-1.1123e-06,1.15774e-08,-1.15777e-08,-2.09563e-17
0.639975,0.72,0.213429,0.01,48.2964,259.2,-71.0932,71.0713,601.909,-1.33934e-09,1.33912e-09,1.13403e-08,606.08,-606.102,-9.64872e-07,1.1419e-08,-1.14192e-08,-1.81787e-17
0.649975,0.72,0.220058,0.01,52.1786,259.2,-61.2349,60.6711,595.189,-1.15125e-09,1.14553e-09,1.12137e-08,598.02,-598.584,-0.0510626,1.12695e-08,-1.12752e-08,-9.6205e-13
0.659975,0.72,0.226933,0.01,56.0669,259.2,-52.8809,49.9184,589.908,-9.83427e-10,9.53372e-10,1.11142e-08,590.661,-593.624,-0.0160453,1.11413e-08,-1.11713e-08,-3.02302e-13
0.669975,0.72,0.233702,0.01,59.9603,259.2,-46.1543,38.5732,585.894,-8.36613e-10,7.59703e-10,1.10386e-08,583.633,-591.214,0.136394,1.10289e-08,-1.11058e-08,2.56974e-12
0.679975,0.72,0.240409,0.01,63.858,259.2,-38.3283,28.9579,581.424,-6.81386e-10,5.86324e-10,1.09544e-08,577.711,-587.082,0.369795,1.09252e-08,-1.10202e-08,6.96715e-12
-0.670025,0.73,0.241109,0.01,64.1638,266.45,-54.9584,45.6472,-579.583,-9.94964e-10,9.00503e-10,-1.09197e-08,577.106,-586.418,-0.552345,1.09135e-08,-1.1008e-08,-1.04065e-11
-0.660025,0.73,0.234221,0.01,60.3282,266.45,-62.8666,55.3428,-583.657,-1.15173e-09,1.0754e-09,-1.09964e-08,582.88,-590.404,-0.190752,1.10145e-08,-1.10908e-08,-3.59387e-12
-0.650025,0.73,0.227563,0.01,56.4985,266.45,-69.7434,66.8072,-587.267,-1.30124e-09,1.27145e-09,-1.10644e-08,589.754,-592.69,0.0204862,1.11241e-08,-1.11539e-08,3.85971e-13
-0.640025,0.73,0.221158,0.01,52.6755,266.45,-78.3242,77.7662,-592.118,-1.47325e-09,1.46759e-09,-1.11559e-08,596.961,-597.519,0.0648238,1.12495e-08,-1.12552e-08,1.22132e-12
-0.630025,0.73,0.214415,0.01,48.8604,266.45,-88.4615,88.4401,-598.375,-1.66657e-09,1.66636e-09,-1.12737e-08,604.866,-604.888,1.14185e-06,1.13961e-08,-1.13963e-08,2.15132e-17
-0.620025,0.73,0.207844,0.01,45.0541,266.45,-99.2438,99.2219,-605.036,-1.86972e-09,1.86949e-09,-1.13992e-08,613.109,-613.131,1.2766e-06,1.15514e-08,-1.15516e-08,2.40518e-17
-0.610025,0.73,0.201554,0.01,41.2578,266.45,-110.406,110.384,-611.569,-2.08002e-09,2.07979e-09,-1.15223e-08,621.442,-621.464,1.40938e-06,1.17084e-08,-1.17086e-08,2.65536e-17
-0.600025,0.73,0.195166,0.01,37.4725,266.45,-121.954,121.932,-617.958,-2.29759e-09,2.29736e-09,-1.16427e-08,629.863,-629.886,1.53775e-06,1.18671e-08,-1.18673e-08,2.89721e-17
-0.590025,0.73,0.188699,0.01,33.6994,266.45,-133.894,133.871,-624.185,-2.52254e-09,2.52231e-09,-1.176e-08,638.371,-638.394,1.65793e-06,1.20274e-08,-1.20276e-08,3.12363e-17
-0.580025,0.73,0.182552,0.01,29.9397,266.45,-146.23,146.207,-630.235,-2.75496e-09,2.75472e-09,-1.1874e-08,646.963,-646.986,1.76714e-06,1.21893e-08,-1.21895e-08,3.32939e-17
-0.570025,0.73,0.176481,0.01,26.1946,266.45,-158.967,158.944,-636.088,-2.99492e-09,2.99469e-09,-1.19843e-08,655.637,-655.66,1.86148e-06,1.23527e-08,-1.23529e-08,3.50713e-17
-0.560025,0.73,0.170145,0.01,22.4654,266.45,-172.108,172.085,-641.725,-3.24252e-09,3.24228e-09,-1.20905e-08,664.389,-664.412,1.93644e-06,1.25176e-08,-1.25178e-08,3.64837e-17
-0.550025,0.73,0.164174,0.01,18.7534,266.45,-185.657,185.634,-647.126,-3.49779e-09,3.49755e-09,-1.21922e-08,673.217,-673.24,1.98784e-06,1.26839e-08,-1.26841e-08,3.7452e-17
-0.540025,0.73,0.158374,0.01,15.06,266.45,-199.616,199.593,-652.271,-3.76079e-09,3.76055e-09,-1.22892e-08,682.117,-682.141,2.01051e-06,1.28516e-08,-1.28518e-08,3.78792e-17
-0.530025,0.73,0.152202,0.01,11.3865,266.45,-213.987,213.963,-657.138,-4.03153e-09,4.03129e-09,-1.23809e-08,691.086,-691.11,1.99853e-06,1.30206e-08,-1.30208e-08,3.76535e-17
-0.520025,0.73,0.146453,0.01,7.7345,266.45,-228.769,228.745,-661.705,-4.31003e-09,4.30979e-09,-1.24669e-08,700.119,-700.143,1.94516e-06,1.31908e-08,-1.3191e-08,3.6648e-17
-0.510025,0.73,0.140863,0.01,4.10534,266.45,-243.962,243.938,-665.949,-4.59628e-09,4.59604e-09,-1.25469e-08,709.213,-709.237,1.84397e-06,1.33621e-08,-1.33623e-08,3.47415e-17
-0.500025,0.73,0.134903,0.01,0.500566,266.45,-259.565,259.541,-669.847,-4.89024e-09,4.89001e-09,-1.26203e-08,718.363,-718.387,1.68893e-06,1.35345e-08,-1.35347e-08,3.18204e-17
-0.490025,0.73,0.129442,0.01,-3.07824,266.45,-275.574,275.551,-673.373,-5.19187e-09,5.19164e-09,-1.26867e-08,727.564,-727.587,1.47259e-06,1.37078e-08,-1.37081e-08,2.77445e-17
-0.480025,0.73,0.123978,0.01,-6.62949,266.45,-291.986,291.963,-676.504,-5.50108e-09,5.50085e-09,-1.27457e-08,736.81,-736.833,1.18737e-06,1.3882e-08,-1.38823e-08,2.23707e-17
-0.470025,0.73,0.118297,0.01,-10.1515,266.45,-308.795,308.772,-679.213,-5.81777e-09,5.81755e-09,-1.27968e-08,746.097,-746.119,8.24345e-07,1.4057e-08,-1.40572e-08,1.55311e-17
-0.460025,0.73,0.113216,0.01,-13.6427,266.45,-325.994,325.972,-681.474,-6.14182e-09,6.1416e-09,-1.28394e-08,755.417,-755.439,3.75878e-07,1.42326e-08,-1.42328e-08,7.08176e-18
-0.450025,0.73,0.107767,0.01,-17.1013,266.45,-343.575,343.554,-683.261,-6.47306e-09,6.47284e-09,-1.2873e-08,764.766,-764.787,-1.65566e-07,1.44087e-08,-1.44089e-08,-3.11937e-18
-0.440025,0.73,0.102464,0.01,-20.5255,266.45,-361.528,361.507,-684.548,-6.81131e-09,6.8111e-09,-1.28973e-08,774.135,-774.156,-8.08495e-07,1.45852e-08,-1.45855e-08,-1.52325e-17
-0.430025,0.73,0.0978759,0.01,-23.9135,266.45,-379.841,379.822,-685.307,-7.15635e-09,7.15614e-09,-1.29116e-08,783.519,-783.539,-1.56098e-06,1.4762e-08,-1.47622e-08,-2.94098e-17
-0.420025,0.73,0.0923082,0.01,-27.2636,266.45,-398.502,398.483,-685.51,-7.50792e-09,7.50773e-09,-1.29154e-08,792.909,-792.928,-2.42841e-06,1.49389e-08,-1.49391e-08,-4.57527e-17
-0.410025,0.73,0.0875325,0.01,-30.5738,266.45,-417.494,417.476,-685.13,-7.86574e-09,7.86556e-09,-1.29082e-08,802.298,-802.316,-3.41808e-06,1.51158e-08,-1.5116e-08,-6.43985e-17
-0.400025,0.73,0.0827739,0.01,-33.8423,266.45,-436.8,436.783,-684.14,-8.2295e-09,8.22932e-09,-1.28896e-08,811.678,-811.695,-4.559e-06,1.52926e-08,-1.52927e-08,-8.58943e-17
-0.390025,0.73,0.077739,0.01,-37.0671,266.45,-456.402,456.387,-682.513,-8.59882e-09,8.59865e-09,-1.28589e-08,821.04,-821.056,-5.70771e-06,1.54689e-08,-1.54691e-08,-1.07537e-16
-0.380025,0.73,0.0737237,0.01,-40.2462,266.45,-476.279,476.264,-680.22,-8.97331e-09,8.97316e-09,-1.28157e-08,830.375,-830.389,-7.46947e-06,1.56448e-08,-1.5645e-08,-1.40729e-16
-0.370025,0.73,0.0685374,0.01,-43.3777,266.45,-496.407,496.394,-677.237,-9.35254e-09,9.3524e-09,-1.27595e-08,839.674,-839.687,-8.01623e-06,1.582e-08,-1.58201e-08,-1.5103e-16
-0.360025,0.73,0.064303,0.01,-46.4596,266.45,-516.761,516.75,-673.537,-9.73603e-09,9.73591e-09,-1.26898e-08,848.928,-848.939,-1.13463e-05,1.59943e-08,-1.59945e-08,-2.1377e-16
-0.350025,0.73,0.0599548,0.01,-49.4898,266.45,-537.314,537.304,-669.094,-1.01233e-08,1.01232e-08,-1.26061e-08,858.125,-858.135,-1.37155e-05,1.61676e-08,-1.61677e-08,-2.58409e-16
-0.340025,0.73,0.0554344,0.01,-52.4662,266.45,-558.036,558.028,-663.884,-1.05137e-08,1.05136e-08,-1.2508e-08,867.257,-867.265,3.62354e-06,1.63397e-08,-1.63397e-08,6.82695e-17
-0.330025,0.73,0.0520282,0.01,-55.3869,266.45,-578.896,578.891,-657.884,-1.09067e-08,1.09067e-08,-1.23949e-08,876.312,-876.318,-0.000100951,1.65103e-08,-1.65103e-08,-1.90198e-15
-0.320025,0.73,0.047135,0.01,-58.2497,266.45,-599.861,599.856,-651.071,-1.13017e-08,1.13017e-08,-1.22666e-08,885.279,-885.284,0.00029929,1.66792e-08,-1.66792e-08,5.6388e-15
-0.310025,0.73,0.0440055,0.01,-61.0524,266.45,-620.893,620.893,-643.425,-1.1698e-08,1.1698e-08,-1.21225e-08,894.15,-894.149,-0.00107968,1.68463e-08,-1.68463e-08,-2.03418e-14
-0.300025,0.73,0.0394306,0.01,-63.7931,266.45,-641.952,641.948,-634.927,-1.20947e-08,1.20947e-08,-1.19624e-08,902.9,-902.904,0.00346666,1.70112e-08,-1.70112e-08,6.53138e-14
-0.290025,0.73,0.0360785,0.01,-66.4696,266.45,-663.002,663.026,-625.553,-1.24914e-08,1.24917e-08,-1.17858e-08,911.551,-911.527,-0.00829818,1.71741e-08,-1.71738e-08,-1.56343e-13
-0.280025,0.73,0.032362,0.01,-69.0798,266.45,-683.655,683.866,-615.276,-1.28814e-08,1.28835e-08,-1.15922e-08,919.939,-919.728,0.144538,1.73313e-08,-1.73291e-08,2.72318e-12
-0.270025,0.73,0.0286757,0.01,-71.6216,266.45,-704.554,704.981,-603.986,-1.32761e-08,1.32804e-08,-1.13794e-08,928.382,-927.955,-0.0323319,1.74894e-08,-1.74851e-08,-6.09151e-13
-0.260025,0.73,0.0259991,0.01,-74.0929,266.45,-722.038,725.391,-589.573,-1.36182e-08,1.36522e-08,-1.11079e-08,935.142,-931.79,-0.712525,1.7604e-08,-1.757e-08,-1.34244e-11
-0.250025,0.73,0.0218018,0.01,-76.4916,266.45,-736.953,744.805,-575.132,-1.39188e-08,1.39984e-08,-1.08358e-08,941.838,-933.986,0.146876,1.77106e-08,-1.7631e-08,2.76722e-12
-0.240025,0.73,0.0204672,0.01,-78.8158,266.45,-757.443,764.488,-561.038,-1.43013e-08,1.43728e-08,-1.05703e-08,948.949,-941.904,-0.0259009,1.78481e-08,-1.77767e-08,-4.87988e-13
-0.230025,0.73,0.0154653,0.01,-81.0631,266.45,-771.804,784.362,-541.153,-1.45958e-08,1.47232e-08,-1.01956e-08,954.041,-941.483,-2.66502,1.79201e-08,-1.77927e-08,-5.02105e-11
-0.220025,0.73,0.0159972,0.01,-83.2322,266.45,-771.892,803.455,-523.279,-1.46801e-08,1.50003e-08,-9.85888e-09,961.429,-929.867,0.849351,1.79767e-08,-1.76565e-08,1.60023e-11
-0.210025,0.73,0.00968876,0.01,-85.3197,266.45,-793.265,810.889,-513.756,-1.50222e-08,1.5201e-08,-9.67946e-09,961.278,-943.655,8.96441,1.80344e-08,-1.78556e-08,1.68895e-10
-0.200025,0.73,0.0114819,0.01,-87.3269,266.45,-842.11,827.839,-499.528,-1.58038e-08,1.5659e-08,-9.4114e-09,965.846,-980.117,4.13586,1.82592e-08,-1.84039e-08,7.7922e-11
0.199975,0.73,0.0115118,0.01,-87.3366,266.45,-842.299,827.923,499.501,-1.58069e-08,1.56611e-08,9.41089e-09,965.897,-980.272,-4.16635,1.82606e-08,-1.84064e-08,-7.84965e-11
0.209975,0.73,0.00967295,0.01,-85.3298,266.45,-793.328,810.939,513.71,-1.50233e-08,1.5202e-08,9.6786e-09,961.295,-943.683,-9.01573,1.80348e-08,-1.78561e-08,-1.69862e-10
0.219975,0.73,0.0159565,0.01,-83.2428,266.45,-771.904,803.544,523.204,-1.46807e-08,1.50017e-08,9.85746e-09,961.468,-929.828,-0.876502,1.7977e-08,-1.76561e-08,-1.65138e-11
0.229975,0.73,0.0154526,0.01,-81.0741,266.45,-771.828,784.461,541.047,-1.45966e-08,1.47248e-08,1.01936e-08,954.068,-941.436,2.6696,1.79203e-08,-1.77921e-08,5.02968e-11
0.239975,0.73,0.0204333,0.01,-78.8271,266.45,-757.529,764.599,560.941,-1.4303e-08,1.43748e-08,1.05685e-08,948.984,-941.914,0.0458971,1.78487e-08,-1.77769e-08,8.64728e-13
0.249975,0.73,0.0217904,0.01,-76.5034,266.45,-737.077,744.918,575.057,-1.3921e-08,1.40006e-08,1.08344e-08,941.88,-934.039,-0.12868,1.77115e-08,-1.76319e-08,-2.4244e-12
0.259975,0.73,0.0259703,0.01,-74.105,266.45,-722.164,725.498,589.519,-1.36205e-08,1.36543e-08,1.11069e-08,935.189,-931.856,0.714723,1.7605e-08,-1.75712e-08,1.34658e-11
0.269975,0.73,0.0286649,0.01,-71.6341,266.45,-704.665,705.085,603.936,-1.32781e-08,1.32824e-08,1.13785e-08,928.427,-928.008,0.0285602,1.74903e-08,-1.7486e-08,5.3809e-13
0.279975,0.73,0.0323371,0.01,-69.0926,266.45,-683.758,683.969,615.224,-1.28833e-08,1.28855e-08,1.15912e-08,919.98,-919.769,-0.145502,1.7332e-08,-1.73299e-08,-2.74133e-12
0.289975,0.73,0.036068,0.01,-66.4828,266.45,-663.106,663.131,625.504,-1.24934e-08,1.24937e-08,1.17849e-08,911.594,-911.569,0.00825793,1.71749e-08,-1.71746e-08,1.55584e-13
0.299975,0.73,0.0394083,0.01,-63.8066,266.45,-642.057,642.053,634.882,-1.20967e-08,1.20967e-08,1.19616e-08,902.943,-902.947,-0.00346083,1.7012e-08,-1.7012e-08,-6.5204e-14
0.309975,0.73,0.0439951,0.01,-61.0662,266.45,-620.997,620.998,643.385,-1.17e-08,1.17e-08,1.21217e-08,894.194,-894.193,0.00107593,1.68471e-08,-1.68471e-08,2.02711e-14
0.319975,0.73,0.0471147,0.01,-58.2637,266.45,-599.965,599.96,651.035,-1.13037e-08,1.13036e-08,1.22659e-08,885.324,-885.328,-0.000297316,1.668e-08,-1.66801e-08,-5.6016e-15
0.329975,0.73,0.0520003,0.01,-55.4013,266.45,-579,578.995,657.852,-1.09087e-08,1.09086e-08,1.23943e-08,876.357,-876.363,9.99873e-05,1.65111e-08,-1.65112e-08,1.88382e-15
0.339975,0.73,0.0554155,0.01,-52.4809,266.45,-558.14,558.132,663.856,-1.05156e-08,1.05156e-08,1.25074e-08,867.302,-867.31,-3.1806e-06,1.63405e-08,-1.63406e-08,-5.99243e-17
0.349975,0.73,0.059929,0.01,-49.5047,266.45,-537.417,537.407,669.07,-1.01252e-08,1.01251e-08,1.26057e-08,858.171,-858.181,1.35566e-05,1.61685e-08,-1.61686e-08,2.55414e-16
0.359975,0.73,0.0642851,0.01,-46.4748,266.45,-516.863,516.851,673.517,-9.73794e-09,9.73783e-09,1.26894e-08,848.974,-848.985,1.14124e-05,1.59952e-08,-1.59953e-08,2.15016e-16
0.369975,0.73,0.0685134,0.01,-43.3932,266.45,-496.508,496.495,677.221,-9.35443e-09,9.3543e-09,1.27592e-08,839.72,-839.733,8.00842e-06,1.58209e-08,-1.5821e-08,1.50883e-16
0.379975,0.73,0.0737066,0.01,-40.2619,266.45,-476.378,476.364,680.207,-8.97518e-09,8.97504e-09,1.28155e-08,830.421,-830.436,7.48039e-06,1.56457e-08,-1.56458e-08,1.40935e-16
0.389975,0.73,0.0777164,0.01,-37.083,266.45,-456.5,456.485,682.503,-8.60067e-09,8.6005e-09,1.28587e-08,821.086,-821.102,5.71398e-06,1.54698e-08,-1.547e-08,1.07655e-16
0.399975,0.73,0.0827467,0.01,-33.8584,266.45,-436.897,436.88,684.134,-8.23132e-09,8.23115e-09,1.28895e-08,811.724,-811.741,4.56491e-06,1.52934e-08,-1.52936e-08,8.60055e-17
0.409975,0.73,0.087511,0.01,-30.5902,266.45,-417.589,417.571,685.127,-7.86754e-09,7.86736e-09,1.29082e-08,802.345,-802.363,3.42355e-06,1.51167e-08,-1.51169e-08,6.45017e-17
0.419975,0.73,0.0922824,0.01,-27.2802,266.45,-398.595,398.576,685.509,-7.50968e-09,7.50949e-09,1.29154e-08,792.956,-792.975,2.43323e-06,1.49398e-08,-1.494e-08,4.58435e-17
0.429975,0.73,0.0978464,0.01,-23.9303,266.45,-379.933,379.913,685.309,-7.15808e-09,7.15788e-09,1.29116e-08,783.565,-783.585,1.56432e-06,1.47629e-08,-1.47631e-08,2.94728e-17
0.439975,0.73,0.102439,0.01,-20.5424,266.45,-361.618,361.598,684.553,-6.81301e-09,6.8128e-09,1.28974e-08,774.182,-774.202,8.11214e-07,1.45861e-08,-1.45863e-08,1.52837e-17
0.449975,0.73,0.107739,0.01,-17.1184,266.45,-343.663,343.642,683.269,-6.47473e-09,6.47451e-09,1.28732e-08,764.812,-764.833,1.68414e-07,1.44096e-08,-1.44098e-08,3.17301e-18
0.459975,0.73,0.113192,0.01,-13.66,266.45,-326.08,326.059,681.484,-6.14345e-09,6.14323e-09,1.28396e-08,755.464,-755.486,-3.73792e-07,1.42335e-08,-1.42337e-08,-7.04246e-18
0.469975,0.73,0.11827,0.01,-10.169,266.45,-308.879,308.857,679.225,-5.81937e-09,5.81914e-09,1.2797e-08,746.143,-746.165,-8.22782e-07,1.40579e-08,-1.40581e-08,-1.55017e-17
0.479975,0.73,0.123948,0.01,-6.64708,266.45,-292.068,292.046,676.518,-5.50264e-09,5.50241e-09,1.2746e-08,736.856,-736.879,-1.18568e-06,1.38829e-08,-1.38831e-08,-2.23388e-17
0.489975,0.73,0.129416,0.01,-3.09597,266.45,-275.654,275.631,673.39,-5.19339e-09,5.19315e-09,1.26871e-08,727.61,-727.633,-1.47183e-06,1.37087e-08,-1.37089e-08,-2.77301e-17
0.499975,0.73,0.134874,0.01,0.482703,266.45,-259.643,259.62,669.865,-4.89173e-09,4.89149e-09,1.26207e-08,718.409,-718.432,-1.68907e-06,1.35353e-08,-1.35356e-08,-3.1823e-17
0.509975,0.73,0.140832,0.01,4.08735,266.45,-244.038,244.015,665.97,-4.59772e-09,4.59749e-09,1.25473e-08,709.259,-709.282,-1.84371e-06,1.33629e-08,-1.33632e-08,-3.47366e-17
0.519975,0.73,0.146426,0.01,7.7164,266.45,-228.843,228.82,661.727,-4.31144e-09,4.3112e-09,1.24673e-08,700.165,-700.188,-1.94383e-06,1.31916e-08,-1.31918e-08,-3.66229e-17
0.529975,0.73,0.152172,0.01,11.3683,266.45,-214.059,214.036,657.162,-4.0329e-09,4.03266e-09,1.23813e-08,691.131,-691.154,-1.99753e-06,1.30214e-08,-1.30216e-08,-3.76346e-17
0.539975,0.73,0.158342,0.01,15.0417,266.45,-199.687,199.663,652.296,-3.76211e-09,3.76187e-09,1.22896e-08,682.161,-682.185,-2.0106e-06,1.28524e-08,-1.28527e-08,-3.78809e-17
0.549975,0.73,0.164145,0.01,18.735,266.45,-185.726,185.702,647.153,-3.49908e-09,3.49884e-09,1.21927e-08,673.261,-673.284,-1.98803e-06,1.26847e-08,-1.2685e-08,-3.74557e-17
0.559975,0.73,0.170114,0.01,22.4469,266.45,-172.175,172.151,641.752,-3.24377e-09,3.24353e-09,1.2091e-08,664.433,-664.456,-1.93666e-06,1.25184e-08,-1.25186e-08,-3.64878e-17
0.569975,0.73,0.176449,0.01,26.176,266.45,-159.031,159.008,636.116,-2.99614e-09,2.9959e-09,1.19848e-08,655.68,-655.703,-1.862e-06,1.23535e-08,-1.23537e-08,-3.50812e-17
0.579975,0.73,0.182522,0.01,29.921,266.45,-146.292,146.269,630.265,-2.75613e-09,2.7559e-09,1.18746e-08,647.006,-647.029,-1.76789e-06,1.21901e-08,-1.21903e-08,-3.3308e-17
0.589975,0.73,0.188668,0.01,33.6807,266.45,-133.954,133.931,624.216,-2.52367e-09,2.52344e-09,1.17606e-08,638.413,-638.436,-1.65881e-06,1.20282e-08,-1.20284e-08,-3.12529e-17
0.599975,0.73,0.195133,0.01,37.4537,266.45,-122.013,121.99,617.989,-2.29869e-09,2.29846e-09,1.16433e-08,629.905,-629.928,-1.53852e-06,1.18679e-08,-1.18681e-08,-2.89865e-17
0.609975,0.73,0.201524,0.01,41.2389,266.45,-110.462,110.44,611.601,-2.08108e-09,2.08086e-09,1.15229e-08,621.483,-621.505,-1.41016e-06,1.17092e-08,-1.17094e-08,-2.65682e-17
0.619975,0.73,0.207812,0.01,45.0352,266.45,-99.2983,99.2765,605.069,-1.87074e-09,1.87052e-09,1.13998e-08,613.15,-613.172,-1.2775e-06,1.15522e-08,-1.15524e-08,-2.40688e-17
0.629975,0.73,0.214382,0.01,48.8415,266.45,-88.5142,88.4927,598.408,-1.66757e-09,1.66735e-09,1.12744e-08,604.907,-604.928,-1.1423e-06,1.13969e-08,-1.13971e-08,-2.15216e-17
0.639975,0.73,0.221127,0.01,52.6566,266.45,-78.3751,77.817,592.152,-1.47421e-09,1.46854e-09,1.11565e-08,597.001,-597.559,-0.0648667,1.12503e-08,-1.12559e-08,-1.22213e-12
0.649975,0.73,0.227531,0.01,56.4794,266.45,-69.7927,66.8563,587.301,-1.30217e-09,1.27238e-09,1.10651e-08,589.794,-592.731,-0.0204993,1.11248e-08,-1.11546e-08,-3.86218e-13
0.659975,0.73,0.234187,0.01,60.3091,266.45,-62.9149,55.3904,583.693,-1.15264e-09,1.0763e-09,1.09971e-08,582.92,-590.444,0.190914,1.10153e-08,-1.10916e-08,3.59693e-12
0.669975,0.73,0.241075,0.01,64.1447,266.45,-55.0056,45.6936,579.619,-9.9585e-10,9.0138e-10,1.09204e-08,577.146,-586.458,0.552877,1.09142e-08,-1.10087e-08,1.04165e-11
-0.660025,0.74,0.24167,0.01,64.5643,273.8,-71.4982,62.2681,-577.07,-1.30694e-09,1.2133e-09,-1.08723e-08,576.317,-585.547,-0.733385,1.08983e-08,-1.09919e-08,-1.38174e-11
-0.650025,0.74,0.235223,0.01,60.7922,273.8,-79.4696,72.0208,-580.74,-1.46487e-09,1.3893e-09,-1.09415e-08,581.934,-589.383,-0.245248,1.09964e-08,-1.10719e-08,-4.62062e-12
-0.640025,0.74,0.22854,0.01,57.0276,273.8,-86.4794,83.5765,-583.937,-1.6167e-09,1.58725e-09,-1.10017e-08,588.644,-591.547,0.0241947,1.1103e-08,-1.11325e-08,4.55842e-13
-0.630025,0.74,0.221937,0.01,53.2715,273.8,-95.2653,94.7145,-588.349,-1.79246e-09,1.78687e-09,-1.10848e-08,595.693,-596.243,0.0780568,1.12256e-08,-1.12312e-08,1.47064e-12
-0.620025,0.74,0.215595,0.01,49.5249,273.8,-105.655,105.634,-594.13,-1.99052e-09,1.99031e-09,-1.11938e-08,603.439,-603.46,1.27966e-06,1.13692e-08,-1.13694e-08,2.41096e-17
-0.610025,0.74,0.209282,0.01,45.7888,273.8,-116.679,116.658,-600.288,-2.1982e-09,2.19799e-09,-1.13098e-08,611.509,-611.531,1.39684e-06,1.15213e-08,-1.15215e-08,2.63173e-17
-0.600025,0.74,0.202773,0.01,42.0644,273.8,-128.072,128.05,-606.296,-2.41286e-09,2.41264e-09,-1.1423e-08,619.662,-619.684,1.50772e-06,1.16749e-08,-1.16751e-08,2.84063e-17
-0.590025,0.74,0.196557,0.01,38.3528,273.8,-139.84,139.818,-612.138,-2.63457e-09,2.63435e-09,-1.1533e-08,627.895,-627.917,1.60928e-06,1.183e-08,-1.18302e-08,3.03197e-17
-0.580025,0.74,0.190585,0.01,34.6552,273.8,-151.986,151.964,-617.798,-2.86341e-09,2.86319e-09,-1.16397e-08,636.205,-636.227,1.69823e-06,1.19866e-08,-1.19868e-08,3.19956e-17
-0.570025,0.74,0.184191,0.01,30.9728,273.8,-164.515,164.493,-623.258,-3.09947e-09,3.09924e-09,-1.17425e-08,644.591,-644.613,1.77068e-06,1.21446e-08,-1.21448e-08,3.33607e-17
-0.560025,0.74,0.178129,0.01,27.3068,273.8,-177.43,177.408,-628.498,-3.34278e-09,3.34256e-09,-1.18413e-08,653.049,-653.071,1.82277e-06,1.23039e-08,-1.23041e-08,3.43421e-17
-0.550025,0.74,0.172434,0.01,23.6586,273.8,-190.732,190.71,-633.501,-3.5934e-09,3.59318e-09,-1.19355e-08,661.576,-661.599,1.85005e-06,1.24646e-08,-1.24648e-08,3.48561e-17
-0.540025,0.74,0.166207,0.01,20.0295,273.8,-204.423,204.401,-638.246,-3.85136e-09,3.85113e-09,-1.20249e-08,670.169,-670.192,1.84781e-06,1.26265e-08,-1.26267e-08,3.48137e-17
-0.530025,0.74,0.160337,0.01,16.4208,273.8,-218.505,218.482,-642.712,-4.11666e-09,4.11643e-09,-1.21091e-08,678.825,-678.847,1.81071e-06,1.27896e-08,-1.27898e-08,3.41149e-17
-0.520025,0.74,0.15489,0.01,12.834,273.8,-232.976,232.953,-646.879,-4.3893e-09,4.38907e-09,-1.21876e-08,687.539,-687.561,1.73245e-06,1.29537e-08,-1.2954e-08,3.26404e-17
-0.510025,0.74,0.148846,0.01,9.27042,273.8,-247.835,247.813,-650.724,-4.66926e-09,4.66903e-09,-1.226e-08,696.307,-696.329,1.60711e-06,1.31189e-08,-1.31191e-08,3.02789e-17
-0.500025,0.74,0.143219,0.01,5.73166,273.8,-263.08,263.058,-654.225,-4.95649e-09,4.95627e-09,-1.2326e-08,705.124,-705.146,1.42902e-06,1.3285e-08,-1.32853e-08,2.69236e-17
-0.490025,0.74,0.137982,0.01,2.21922,273.8,-278.709,278.687,-657.359,-5.25094e-09,5.25072e-09,-1.2385e-08,713.987,-714.009,1.19094e-06,1.3452e-08,-1.34522e-08,2.24381e-17
-0.480025,0.74,0.132146,0.01,-1.26534,273.8,-294.715,294.693,-660.102,-5.5525e-09,5.55228e-09,-1.24367e-08,722.889,-722.911,8.86138e-07,1.36197e-08,-1.362e-08,1.66954e-17
-0.470025,0.74,0.126832,0.01,-4.72044,273.8,-311.093,311.072,-662.429,-5.86107e-09,5.86086e-09,-1.24806e-08,731.826,-731.847,5.07401e-07,1.37881e-08,-1.37883e-08,9.55973e-18
-0.460025,0.74,0.121691,0.01,-8.14442,273.8,-327.835,327.815,-664.317,-6.17652e-09,6.17631e-09,-1.25161e-08,740.791,-740.812,4.71894e-08,1.3957e-08,-1.39572e-08,8.89075e-19
-0.450025,0.74,0.116164,0.01,-11.5356,273.8,-344.934,344.914,-665.741,-6.49867e-09,6.49847e-09,-1.25429e-08,749.779,-749.799,-5.0125e-07,1.41264e-08,-1.41266e-08,-9.44384e-18
-0.440025,0.74,0.111261,0.01,-14.8923,273.8,-362.379,362.36,-666.674,-6.82734e-09,6.82715e-09,-1.25605e-08,758.783,-758.802,-1.14479e-06,1.4296e-08,-1.42962e-08,-2.15686e-17
-0.430025,0.74,0.1061,0.01,-18.2128,273.8,-380.157,380.139,-667.092,-7.1623e-09,7.16211e-09,-1.25684e-08,767.796,-767.814,-1.89008e-06,1.44658e-08,-1.4466e-08,-3.56102e-17
-0.420025,0.74,0.100987,0.01,-21.4952,273.8,-398.256,398.238,-666.969,-7.50329e-09,7.50312e-09,-1.25661e-08,776.811,-776.828,-2.74262e-06,1.46356e-08,-1.46358e-08,-5.16725e-17
-0.410025,0.74,0.0966414,0.01,-24.7378,273.8,-416.66,416.643,-666.279,-7.85004e-09,7.84987e-09,-1.25531e-08,785.82,-785.837,-3.70965e-06,1.48054e-08,-1.48056e-08,-6.98919e-17
-0.400025,0.74,0.0912998,0.01,-27.9388,273.8,-435.352,435.336,-664.997,-8.20221e-09,8.20206e-09,-1.25289e-08,794.817,-794.832,-4.79323e-06,1.49749e-08,-1.4975e-08,-9.03072e-17
-0.390025,0.74,0.0867611,0.01,-31.0962,273.8,-454.313,454.299,-663.098,-8.55946e-09,8.55932e-09,-1.24931e-08,803.792,-803.806,-5.99803e-06,1.5144e-08,-1.51441e-08,-1.13006e-16
-0.380025,0.74,0.0822185,0.01,-34.2082,273.8,-473.523,473.51,-660.555,-8.9214e-09,8.92127e-09,-1.24452e-08,812.737,-812.75,-7.34409e-06,1.53125e-08,-1.53126e-08,-1.38367e-16
-0.370025,0.74,0.0774428,0.01,-37.2728,273.8,-492.96,492.948,-657.345,-9.28759e-09,9.28748e-09,-1.23848e-08,821.643,-821.654,-8.71284e-06,1.54803e-08,-1.54804e-08,-1.64155e-16
-0.360025,0.74,0.0737217,0.01,-40.2881,273.8,-512.597,512.587,-653.444,-9.65759e-09,9.65748e-09,-1.23113e-08,830.501,-830.511,-1.06026e-05,1.56472e-08,-1.56473e-08,-1.99759e-16
-0.350025,0.74,0.068702,0.01,-43.2522,273.8,-532.41,532.402,-648.829,-1.00309e-08,1.00308e-08,-1.22243e-08,839.302,-839.31,-1.13936e-05,1.5813e-08,-1.58131e-08,-2.14661e-16
-0.340025,0.74,0.0647948,0.01,-46.163,273.8,-552.369,552.362,-643.476,-1.04069e-08,1.04069e-08,-1.21235e-08,848.035,-848.042,-1.53622e-05,1.59775e-08,-1.59776e-08,-2.89432e-16
-0.330025,0.74,0.0605585,0.01,-49.0186,273.8,-572.444,572.44,-637.365,-1.07852e-08,1.07851e-08,-1.20083e-08,856.691,-856.696,-1.31319e-05,1.61406e-08,-1.61406e-08,-2.47413e-16
-0.320025,0.74,0.0564102,0.01,-51.817,273.8,-592.603,592.6,-630.476,-1.1165e-08,1.11649e-08,-1.18785e-08,865.26,-865.263,-2.14639e-05,1.6302e-08,-1.6302e-08,-4.04391e-16
-0.310025,0.74,0.0530379,0.01,-54.5561,273.8,-612.811,612.81,-622.79,-1.15457e-08,1.15457e-08,-1.17337e-08,873.73,-873.73,-1.59332e-05,1.64616e-08,-1.64616e-08,-3.00191e-16
-0.300025,0.74,0.0485789,0.01,-57.2339,273.8,-633.032,633.033,-614.29,-1.19267e-08,1.19267e-08,-1.15736e-08,882.09,-882.089,-3.0421e-05,1.66191e-08,-1.66191e-08,-5.7315e-16
-0.290025,0.74,0.0458999,0.01,-59.8484,273.8,-653.227,653.232,-604.96,-1.23072e-08,1.23072e-08,-1.13978e-08,890.331,-890.326,1.59089e-05,1.67743e-08,-1.67743e-08,2.99732e-16
-0.280025,0.74,0.0413162,0.01,-62.3975,273.8,-673.361,673.362,-594.787,-1.26865e-08,1.26865e-08,-1.12061e-08,898.437,-898.436,-0.000171009,1.69271e-08,-1.69271e-08,-3.2219e-15
-0.270025,0.74,0.0384971,0.01,-64.8794,273.8,-693.379,693.399,-583.762,-1.30637e-08,1.30639e-08,-1.09984e-08,906.413,-906.392,0.000463589,1.70773e-08,-1.7077e-08,8.73429e-15
-0.260025,0.74,0.0346441,0.01,-67.2919,273.8,-713.236,713.242,-571.853,-1.34378e-08,1.34379e-08,-1.07741e-08,914.184,-914.178,0.00248234,1.72237e-08,-1.72237e-08,4.67687e-14
-0.250025,0.74,0.0316162,0.01,-69.6331,273.8,-732.636,732.893,-559.122,-1.38044e-08,1.3807e-08,-1.05342e-08,921.844,-921.588,0.119792,1.7367e-08,-1.73644e-08,2.25696e-12
-0.240025,0.74,0.0285965,0.01,-71.901,273.8,-751.587,752.361,-544.931,-1.41637e-08,1.41716e-08,-1.02668e-08,929.05,-928.276,-0.196447,1.75005e-08,-1.74926e-08,-3.70118e-12
-0.230025,0.74,0.0252592,0.01,-74.0936,273.8,-766.645,771.038,-527.993,-1.44631e-08,1.45077e-08,-9.94769e-09,934.877,-930.484,-0.916054,1.75945e-08,-1.755e-08,-1.7259e-11
-0.220025,0.74,0.0232268,0.01,-76.2091,273.8,-779.001,787.626,-512.564,-1.47143e-08,1.48018e-08,-9.65701e-09,940.422,-931.797,1.32692,1.76806e-08,-1.75931e-08,2.49999e-11
-0.210025,0.74,0.019428,0.01,-78.2455,273.8,-800.85,804.298,-498.826,-1.51035e-08,1.51384e-08,-9.39817e-09,946.681,-943.233,2.84625,1.7821e-08,-1.7786e-08,5.36249e-11
-0.200025,0.74,0.0186224,0.01,-80.2012,273.8,-819.619,823.863,-478.376,-1.54606e-08,1.55036e-08,-9.01288e-09,952.964,-948.72,-0.760381,1.79359e-08,-1.78929e-08,-1.4326e-11
-0.190025,0.74,0.014125,0.01,-82.074,273.8,-820.617,840.639,-453.732,-1.5548e-08,1.57511e-08,-8.54858e-09,956.483,-936.461,-2.60994,1.79336e-08,-1.77305e-08,-4.91728e-11
-0.180025,0.74,0.0149225,0.01,-83.8628,273.8,-828.687,858.126,-435.335,-1.57409e-08,1.60396e-08,-8.20196e-09,963.851,-934.412,-0.747982,1.80315e-08,-1.77329e-08,-1.40924e-11
-0.170025,0.74,0.00935436,0.01,-85.5644,273.8,-851.866,868.909,-412.43,-1.61238e-08,1.62967e-08,-7.77043e-09,962.642,-945.599,-4.47711,1.80626e-08,-1.78897e-08,-8.43514e-11
-0.160025,0.74,0.0123189,0.01,-87.1806,273.8,-877.93,891.896,-391.799,-1.66014e-08,1.67431e-08,-7.38173e-09,974.712,-960.747,-8.83419,1.83034e-08,-1.81617e-08,-1.66441e-10
-0.150025,0.74,0.00512774,0.01,-88.7028,273.8,-872.489,891.689,-368.5,-1.65217e-08,1.67165e-08,-6.94276e-09,965.559,-946.358,-4.13854,1.81082e-08,-1.79134e-08,-7.79724e-11
0.149975,0.74,0.00511562,0.01,-88.7101,273.8,-872.483,891.764,368.35,-1.65219e-08,1.67175e-08,6.93992e-09,965.572,-946.292,4.16726,1.81081e-08,-1.79125e-08,7.85136e-11
0.159975,0.74,0.0122734,0.01,-87.1884,273.8,-878.01,892.015,391.677,-1.66031e-08,1.67452e-08,7.37942e-09,974.773,-960.768,8.86237,1.83044e-08,-1.81623e-08,1.66972e-10
0.169975,0.74,0.00934514,0.01,-85.5726,273.8,-851.932,868.989,412.331,-1.61251e-08,1.62981e-08,7.76856e-09,962.672,-945.615,4.47626,1.80631e-08,-1.78901e-08,8.43353e-11
0.179975,0.74,0.0148834,0.01,-83.8715,273.8,-828.792,858.2,435.237,-1.57428e-08,1.60411e-08,8.20012e-09,963.87,-934.462,0.755727,1.8032e-08,-1.77337e-08,1.42383e-11
0.189975,0.74,0.0141168,0.01,-82.0831,273.8,-820.745,840.726,453.644,-1.55502e-08,1.57529e-08,8.54691e-09,956.515,-936.533,2.61991,1.79344e-08,-1.77317e-08,4.93607e-11
0.199975,0.74,0.0185894,0.01,-80.2107,273.8,-819.749,823.948,478.306,-1.54628e-08,1.55054e-08,9.01157e-09,953,-948.801,0.755501,1.79368e-08,-1.78942e-08,1.42341e-11
0.209975,0.74,0.0194201,0.01,-78.2555,273.8,-800.945,804.382,498.759,-1.51052e-08,1.51401e-08,9.39691e-09,946.716,-943.279,-2.85981,1.78217e-08,-1.77869e-08,-5.38805e-11
0.219975,0.74,0.0231988,0.01,-76.2194,273.8,-779.075,787.71,512.493,-1.47158e-08,1.48034e-08,9.65566e-09,940.454,-931.819,-1.33929,1.76811e-08,-1.75936e-08,-2.52329e-11
0.229975,0.74,0.0252514,0.01,-74.1043,273.8,-766.722,771.128,527.912,-1.44646e-08,1.45093e-08,9.94617e-09,934.907,-930.5,0.915229,1.7595e-08,-1.75503e-08,1.72434e-11
0.239975,0.74,0.0285722,0.01,-71.912,273.8,-751.678,752.458,544.855,-1.41654e-08,1.41733e-08,1.02654e-08,929.084,-928.304,0.200484,1.75011e-08,-1.74932e-08,3.77723e-12
0.249975,0.74,0.0316084,0.01,-69.6445,273.8,-732.735,732.991,559.056,-1.38063e-08,1.38089e-08,1.05329e-08,921.883,-921.627,-0.119394,1.73677e-08,-1.73651e-08,-2.24944e-12
0.259975,0.74,0.0346226,0.01,-67.3037,273.8,-713.336,713.341,571.792,-1.34397e-08,1.34397e-08,1.07729e-08,914.222,-914.217,-0.00218985,1.72245e-08,-1.72244e-08,-4.1258e-14
0.269975,0.74,0.038489,0.01,-64.8915,273.8,-693.477,693.498,583.705,-1.30656e-08,1.30658e-08,1.09973e-08,906.452,-906.431,-0.000554811,1.7078e-08,-1.70778e-08,-1.0453e-14
0.279975,0.74,0.0412966,0.01,-62.41,273.8,-673.461,673.462,594.734,-1.26884e-08,1.26884e-08,1.12051e-08,898.476,-898.476,0.000199099,1.69278e-08,-1.69278e-08,3.75114e-15
0.289975,0.74,0.0458916,0.01,-59.8612,273.8,-653.327,653.333,604.911,-1.23091e-08,1.23091e-08,1.13969e-08,890.372,-890.366,-2.42019e-05,1.67751e-08,-1.6775e-08,-4.55978e-16
0.299975,0.74,0.0485609,0.01,-57.247,273.8,-633.133,633.134,614.245,-1.19286e-08,1.19286e-08,1.15727e-08,882.132,-882.131,3.30541e-05,1.66199e-08,-1.66199e-08,6.22759e-16
0.309975,0.74,0.053012,0.01,-54.5695,273.8,-612.911,612.911,622.75,-1.15476e-08,1.15476e-08,1.1733e-08,873.772,-873.772,1.50686e-05,1.64624e-08,-1.64624e-08,2.83902e-16
0.319975,0.74,0.0563933,0.01,-51.8307,273.8,-592.704,592.701,630.44,-1.11669e-08,1.11668e-08,1.18779e-08,865.302,-865.305,2.17805e-05,1.63028e-08,-1.63028e-08,4.10357e-16
0.329975,0.74,0.0605345,0.01,-49.0327,273.8,-572.544,572.54,637.333,-1.0787e-08,1.0787e-08,1.20077e-08,856.734,-856.739,1.30348e-05,1.61414e-08,-1.61414e-08,2.45583e-16
0.339975,0.74,0.0647787,0.01,-46.1774,273.8,-552.469,552.462,643.448,-1.04088e-08,1.04087e-08,1.21229e-08,848.079,-848.085,1.5405e-05,1.59783e-08,-1.59784e-08,2.9024e-16
0.349975,0.74,0.0686796,0.01,-43.2668,273.8,-532.509,532.5,648.804,-1.00327e-08,1.00327e-08,1.22238e-08,839.345,-839.354,1.13931e-05,1.58138e-08,-1.58139e-08,2.14654e-16
0.359975,0.74,0.0737061,0.01,-40.303,273.8,-512.695,512.685,653.423,-9.65943e-09,9.65933e-09,1.23109e-08,830.545,-830.555,1.06125e-05,1.5648e-08,-1.56481e-08,1.99946e-16
0.369975,0.74,0.0774216,0.01,-37.2879,273.8,-493.057,493.045,657.328,-9.28943e-09,9.28931e-09,1.23844e-08,821.687,-821.699,8.7202e-06,1.54811e-08,-1.54812e-08,1.64294e-16
0.379975,0.74,0.0821925,0.01,-34.2235,273.8,-473.62,473.607,660.541,-8.92321e-09,8.92308e-09,1.2445e-08,812.781,-812.794,7.35078e-06,1.53133e-08,-1.53135e-08,1.38493e-16
0.389975,0.74,0.0867408,0.01,-31.1118,273.8,-454.408,454.394,663.086,-8.56125e-09,8.56111e-09,1.24929e-08,803.836,-803.85,6.00422e-06,1.51448e-08,-1.51449e-08,1.13123e-16
0.399975,0.74,0.0912751,0.01,-27.9546,273.8,-435.445,435.43,664.989,-8.20398e-09,8.20382e-09,1.25288e-08,794.861,-794.877,4.79871e-06,1.49757e-08,-1.49759e-08,9.04105e-17
0.409975,0.74,0.0966219,0.01,-24.7539,273.8,-416.752,416.735,666.274,-7.85178e-09,7.85161e-09,1.2553e-08,785.865,-785.882,3.71513e-06,1.48062e-08,-1.48064e-08,6.99953e-17
0.419975,0.74,0.100964,0.01,-21.5114,273.8,-398.347,398.329,666.967,-7.505e-09,7.50483e-09,1.2566e-08,776.856,-776.873,2.74761e-06,1.46365e-08,-1.46367e-08,5.17665e-17
0.429975,0.74,0.106073,0.01,-18.2292,273.8,-380.246,380.228,667.093,-7.16398e-09,7.16379e-09,1.25684e-08,767.841,-767.859,1.89376e-06,1.44666e-08,-1.44668e-08,3.56796e-17
0.439975,0.74,0.111239,0.01,-14.9089,273.8,-362.466,362.447,666.678,-6.82899e-09,6.8288e-09,1.25606e-08,758.828,-758.847,1.14801e-06,1.42968e-08,-1.4297e-08,2.16292e-17
0.449975,0.74,0.116138,0.01,-11.5524,273.8,-345.02,345,665.747,-6.50029e-09,6.50009e-09,1.25431e-08,749.824,-749.844,5.0438e-07,1.41272e-08,-1.41274e-08,9.50282e-18
0.459975,0.74,0.121663,0.01,-8.16137,273.8,-327.92,327.899,664.326,-6.17811e-09,6.1779e-09,1.25163e-08,740.836,-740.857,-4.46816e-08,1.39579e-08,-1.39581e-08,-8.41829e-19
0.469975,0.74,0.126807,0.01,-4.73754,273.8,-311.175,311.154,662.44,-5.86263e-09,5.86241e-09,1.24808e-08,731.871,-731.892,-5.05081e-07,1.3789e-08,-1.37892e-08,-9.51602e-18
0.479975,0.74,0.132118,0.01,-1.2826,273.8,-294.795,294.774,660.114,-5.55402e-09,5.5538e-09,1.24369e-08,722.934,-722.955,-8.84022e-07,1.36206e-08,-1.36208e-08,-1.66555e-17
0.489975,0.74,0.137952,0.01,2.20183,273.8,-278.787,278.765,657.373,-5.25242e-09,5.2522e-09,1.23853e-08,714.031,-714.053,-1.18996e-06,1.34529e-08,-1.34531e-08,-2.24196e-17
0.499975,0.74,0.143192,0.01,5.71413,273.8,-263.157,263.135,654.242,-4.95794e-09,4.95772e-09,1.23263e-08,705.168,-705.19,-1.42867e-06,1.32859e-08,-1.32861e-08,-2.69171e-17
0.509975,0.74,0.148817,0.01,9.25275,273.8,-247.91,247.888,650.742,-4.67067e-09,4.67045e-09,1.22604e-08,696.35,-696.373,-1.6066e-06,1.31197e-08,-1.312e-08,-3.02693e-17
0.519975,0.74,0.154864,0.01,12.8162,273.8,-233.049,233.026,646.899,-4.39067e-09,4.39045e-09,1.21879e-08,687.582,-687.604,-1.73135e-06,1.29545e-08,-1.29548e-08,-3.26197e-17
0.529975,0.74,0.160308,0.01,16.4029,273.8,-218.576,218.553,642.734,-4.118e-09,4.11777e-09,1.21095e-08,678.868,-678.89,-1.81001e-06,1.27904e-08,-1.27906e-08,-3.41016e-17
0.539975,0.74,0.166177,0.01,20.0115,273.8,-204.492,204.47,638.269,-3.85266e-09,3.85243e-09,1.20254e-08,670.212,-670.235,-1.84804e-06,1.26273e-08,-1.26275e-08,-3.48182e-17
0.549975,0.74,0.172407,0.01,23.6405,273.8,-190.799,190.777,633.525,-3.59467e-09,3.59444e-09,1.1936e-08,661.619,-661.641,-1.85021e-06,1.24654e-08,-1.24656e-08,-3.4859e-17
0.559975,0.74,0.178099,0.01,27.2886,273.8,-177.495,177.473,628.524,-3.34401e-09,3.34379e-09,1.18418e-08,653.091,-653.113,-1.82272e-06,1.23047e-08,-1.23049e-08,-3.43412e-17
0.569975,0.74,0.18416,0.01,30.9545,273.8,-164.579,164.556,623.284,-3.10066e-09,3.10043e-09,1.1743e-08,644.633,-644.655,-1.77069e-06,1.21454e-08,-1.21456e-08,-3.33608e-17
0.579975,0.74,0.190552,0.01,34.6368,273.8,-152.048,152.026,617.826,-2.86457e-09,2.86435e-09,1.16402e-08,636.247,-636.269,-1.6982e-06,1.19874e-08,-1.19876e-08,-3.19951e-17
0.589975,0.74,0.196527,0.01,38.3344,273.8,-139.899,139.877,612.167,-2.63569e-09,2.63547e-09,1.15336e-08,627.936,-627.958,-1.60974e-06,1.18308e-08,-1.1831e-08,-3.03284e-17
0.599975,0.74,0.202741,0.01,42.0459,273.8,-128.13,128.108,606.325,-2.41394e-09,2.41372e-09,1.14235e-08,619.703,-619.724,-1.50801e-06,1.16757e-08,-1.16759e-08,-2.84118e-17
0.609975,0.74,0.209249,0.01,45.7702,273.8,-116.734,116.713,600.318,-2.19925e-09,2.19904e-09,1.13103e-08,611.55,-611.571,-1.39696e-06,1.1522e-08,-1.15223e-08,-2.63195e-17
0.619975,0.74,0.215564,0.01,49.5062,273.8,-105.709,105.688,594.161,-1.99153e-09,1.99132e-09,1.11943e-08,603.479,-603.5,-1.28038e-06,1.137e-08,-1.13702e-08,-2.41231e-17
0.629975,0.74,0.221904,0.01,53.2528,273.8,-95.3174,94.7666,588.381,-1.79344e-09,1.78785e-09,1.10854e-08,595.732,-596.283,-0.0781,1.12263e-08,-1.12319e-08,-1.47145e-12
0.639975,0.74,0.228507,0.01,57.0089,273.8,-86.5301,83.6269,583.97,-1.61765e-09,1.5882e-09,1.10023e-08,588.683,-591.586,-0.0242062,1.11038e-08,-1.11332e-08,-4.56058e-13
0.649975,0.74,0.235192,0.01,60.7735,273.8,-79.5192,72.0698,580.773,-1.4658e-09,1.39023e-09,1.09421e-08,581.973,-589.422,0.245419,1.09971e-08,-1.10727e-08,4.62383e-12
0.659975,0.74,0.241637,0.01,64.5456,273.8,-71.5468,62.316,577.103,-1.30785e-09,1.2142e-09,1.0873e-08,576.356,-585.587,0.733936,1.0899e-08,-1.09927e-08,1.38278e-11
-0.650025,0.75,0.242667,0.01,65.0785,281.25,-87.8619,78.7353,-573.855,-1.61569e-09,1.5231e-09,-1.08118e-08,575.305,-584.432,-0.911758,1.08788e-08,-1.09714e-08,-1.71781e-11
-0.640025,0.75,0.236035,0.01,61.3713,281.25,-95.8763,88.5204,-577.115,-1.77438e-09,1.69976e-09,-1.08732e-08,580.755,-588.111,-0.299718,1.09737e-08,-1.10484e-08,-5.64686e-12
-0.630025,0.75,0.229647,0.01,57.6731,281.25,-102.988,100.135,-579.9,-1.92794e-09,1.899e-09,-1.09257e-08,587.3,-590.153,0.0355841,1.10775e-08,-1.11064e-08,6.70425e-13
-0.620025,0.75,0.223402,0.01,53.985,281.25,-111.83,111.38,-583.858,-2.10498e-09,2.10041e-09,-1.10002e-08,594.204,-594.654,0.180132,1.11971e-08,-1.12017e-08,3.39379e-12
-0.610025,0.75,0.216855,0.01,50.3081,281.25,-122.587,122.563,-589.158,-2.30951e-09,2.30926e-09,-1.11001e-08,601.762,-601.787,-0.00297611,1.13377e-08,-1.13379e-08,-5.60716e-14
-0.600025,0.75,0.21058,0.01,46.6435,281.25,-133.815,133.794,-594.8,-2.52106e-09,2.52085e-09,-1.12064e-08,609.654,-609.675,1.46681e-06,1.14863e-08,-1.14865e-08,2.76356e-17
-0.590025,0.75,0.204601,0.01,42.9922,281.25,-145.407,145.386,-600.274,-2.73946e-09,2.73924e-09,-1.13095e-08,617.621,-617.642,1.55065e-06,1.16364e-08,-1.16366e-08,2.92152e-17
-0.580025,0.75,0.19825,0.01,39.3555,281.25,-157.36,157.339,-605.562,-2.96466e-09,2.96445e-09,-1.14091e-08,625.66,-625.681,1.62044e-06,1.17879e-08,-1.17881e-08,3.053e-17
-0.570025,0.75,0.192111,0.01,35.7345,281.25,-169.678,169.657,-610.646,-3.19675e-09,3.19653e-09,-1.15049e-08,633.769,-633.79,1.6723e-06,1.19407e-08,-1.19409e-08,3.15072e-17
-0.560025,0.75,0.186307,0.01,32.1305,281.25,-182.363,182.342,-615.51,-3.43574e-09,3.43553e-09,-1.15966e-08,641.943,-641.964,1.70304e-06,1.20947e-08,-1.20949e-08,3.20863e-17
-0.550025,0.75,0.180233,0.01,28.5447,281.25,-195.417,195.396,-620.133,-3.68168e-09,3.68147e-09,-1.16837e-08,650.181,-650.202,1.70821e-06,1.22499e-08,-1.22501e-08,3.21836e-17
-0.540025,0.75,0.174261,0.01,24.9785,281.25,-208.84,208.819,-624.499,-3.93458e-09,3.93437e-09,-1.17659e-08,658.479,-658.5,1.68337e-06,1.24062e-08,-1.24064e-08,3.17156e-17
-0.530025,0.75,0.168672,0.01,21.4332,281.25,-222.633,222.612,-628.586,-4.19444e-09,4.19423e-09,-1.18429e-08,666.833,-666.854,1.62383e-06,1.25636e-08,-1.25638e-08,3.05939e-17
-0.520025,0.75,0.162824,0.01,17.9101,281.25,-236.794,236.773,-632.374,-4.46125e-09,4.46103e-09,-1.19143e-08,675.24,-675.261,1.52357e-06,1.2722e-08,-1.27222e-08,2.8705e-17
-0.510025,0.75,0.157061,0.01,14.4107,281.25,-251.322,251.301,-635.843,-4.73496e-09,4.73475e-09,-1.19796e-08,683.695,-683.716,1.37696e-06,1.28813e-08,-1.28815e-08,2.59426e-17
-0.500025,0.75,0.151738,0.01,10.9365,281.25,-266.214,266.193,-638.97,-5.01553e-09,5.01532e-09,-1.20386e-08,692.194,-692.215,1.17891e-06,1.30414e-08,-1.30416e-08,2.22114e-17
-0.490025,0.75,0.146052,0.01,7.48883,281.25,-281.465,281.445,-641.735,-5.30288e-09,5.30267e-09,-1.20907e-08,700.733,-700.753,9.22621e-07,1.32023e-08,-1.32025e-08,1.73827e-17
-0.480025,0.75,0.140552,0.01,4.06934,281.25,-297.071,297.051,-644.115,-5.59691e-09,5.5967e-09,-1.21355e-08,709.306,-709.326,6.02069e-07,1.33638e-08,-1.3364e-08,1.13433e-17
-0.470025,0.75,0.135567,0.01,0.679567,281.25,-313.026,313.006,-646.086,-5.8975e-09,5.8973e-09,-1.21726e-08,717.908,-717.928,2.1132e-07,1.35259e-08,-1.35261e-08,3.98139e-18
-0.460025,0.75,0.129958,0.01,-2.6789,281.25,-329.321,329.302,-647.626,-6.20451e-09,6.20432e-09,-1.22016e-08,726.533,-726.553,-2.56582e-07,1.36884e-08,-1.36886e-08,-4.83415e-18
-0.450025,0.75,0.124797,0.01,-6.00444,281.25,-345.947,345.929,-648.71,-6.51777e-09,6.51758e-09,-1.22221e-08,735.177,-735.195,-8.07828e-07,1.38512e-08,-1.38514e-08,-1.522e-17
-0.440025,0.75,0.119974,0.01,-9.29538,281.25,-362.895,362.877,-649.316,-6.83708e-09,6.8369e-09,-1.22335e-08,743.831,-743.849,-1.44802e-06,1.40143e-08,-1.40145e-08,-2.72815e-17
-0.430025,0.75,0.114608,0.01,-12.55,281.25,-380.152,380.135,-649.419,-7.16221e-09,7.16204e-09,-1.22354e-08,752.49,-752.507,-2.18269e-06,1.41774e-08,-1.41776e-08,-4.11231e-17
-0.420025,0.75,0.109891,0.01,-15.7667,281.25,-397.704,397.688,-648.995,-7.49291e-09,7.49275e-09,-1.22274e-08,761.147,-761.163,-3.01701e-06,1.43405e-08,-1.43407e-08,-5.68423e-17
-0.410025,0.75,0.105014,0.01,-18.9435,281.25,-415.537,415.522,-648.021,-7.8289e-09,7.82874e-09,-1.22091e-08,769.795,-769.81,-3.9557e-06,1.45035e-08,-1.45036e-08,-7.45277e-17
-0.400025,0.75,0.100099,0.01,-22.0788,281.25,-433.634,433.62,-646.472,-8.16985e-09,8.16971e-09,-1.21799e-08,778.426,-778.44,-5.00217e-06,1.46661e-08,-1.46662e-08,-9.42438e-17
-0.390025,0.75,0.0959772,0.01,-25.1708,281.25,-451.975,451.962,-644.325,-8.51542e-09,8.51529e-09,-1.21395e-08,787.033,-787.046,-6.15944e-06,1.48282e-08,-1.48283e-08,-1.16047e-16
-0.380025,0.75,0.090884,0.01,-28.2175,281.25,-470.542,470.53,-641.557,-8.86522e-09,8.86511e-09,-1.20873e-08,795.607,-795.618,-7.42658e-06,1.49897e-08,-1.49899e-08,-1.39921e-16
-0.370025,0.75,0.0865876,0.01,-31.2172,281.25,-489.31,489.3,-638.145,-9.21885e-09,9.21874e-09,-1.2023e-08,804.139,-804.15,-8.8069e-06,1.51505e-08,-1.51506e-08,-1.65927e-16
-0.360025,0.75,0.0822616,0.01,-34.168,281.25,-508.258,508.249,-634.066,-9.57584e-09,9.57575e-09,-1.19462e-08,812.622,-812.631,-1.03059e-05,1.53103e-08,-1.53104e-08,-1.94169e-16
-0.350025,0.75,0.077752,0.01,-37.0679,281.25,-527.359,527.352,-629.301,-9.93572e-09,9.93565e-09,-1.18564e-08,821.046,-821.054,-1.18529e-05,1.5469e-08,-1.54691e-08,-2.23316e-16
-0.340025,0.75,0.0742493,0.01,-39.9151,281.25,-546.586,546.58,-623.827,-1.0298e-08,1.02979e-08,-1.17533e-08,829.402,-829.408,-1.37279e-05,1.56264e-08,-1.56265e-08,-2.58641e-16
-0.330025,0.75,0.0694819,0.01,-42.7076,281.25,-565.908,565.905,-617.626,-1.0662e-08,1.0662e-08,-1.16364e-08,837.68,-837.684,-1.50145e-05,1.57824e-08,-1.57824e-08,-2.82881e-16
-0.320025,0.75,0.0658977,0.01,-45.4435,281.25,-585.296,585.294,-610.679,-1.10273e-08,1.10273e-08,-1.15055e-08,845.871,-845.873,-1.8138e-05,1.59367e-08,-1.59367e-08,-3.41731e-16
-0.310025,0.75,0.0617913,0.01,-48.121,281.25,-604.716,604.716,-602.969,-1.13932e-08,1.13932e-08,-1.13603e-08,853.964,-853.963,-1.71297e-05,1.60892e-08,-1.60892e-08,-3.22734e-16
-0.300025,0.75,0.058009,0.01,-50.7379,281.25,-624.134,624.136,-594.482,-1.17591e-08,1.17591e-08,-1.12004e-08,861.949,-861.946,-2.69493e-05,1.62396e-08,-1.62396e-08,-5.07741e-16
-0.290025,0.75,0.0546969,0.01,-53.2924,281.25,-643.512,643.517,-585.203,-1.21242e-08,1.21242e-08,-1.10256e-08,869.815,-869.811,-3.59669e-06,1.63878e-08,-1.63878e-08,-6.77637e-17
-0.280025,0.75,0.0506631,0.01,-55.7826,281.25,-662.815,662.821,-575.122,-1.24878e-08,1.24879e-08,-1.08356e-08,877.553,-877.546,-9.87634e-05,1.65336e-08,-1.65335e-08,-1.86076e-15
-0.270025,0.75,0.0482194,0.01,-58.2065,281.25,-682,682.01,-564.226,-1.28493e-08,1.28494e-08,-1.06304e-08,885.15,-885.14,0.000236418,1.66767e-08,-1.66766e-08,4.45425e-15
-0.260025,0.75,0.0438689,0.01,-60.5622,281.25,-701.033,701.042,-552.51,-1.32079e-08,1.3208e-08,-1.04096e-08,892.597,-892.588,-0.000905578,1.6817e-08,-1.68169e-08,-1.70616e-14
-0.250025,0.75,0.0415193,0.01,-62.8478,281.25,-719.855,719.876,-539.969,-1.35626e-08,1.35628e-08,-1.01733e-08,899.885,-899.863,0.00259777,1.69543e-08,-1.6954e-08,4.89436e-14
-0.240025,0.75,0.0376379,0.01,-65.0614,281.25,-738.467,738.466,-526.594,-1.39131e-08,1.39131e-08,-9.92133e-09,906.991,-906.992,-0.00730729,1.70882e-08,-1.70883e-08,-1.37674e-13
-0.230025,0.75,0.0351693,0.01,-67.2012,281.25,-756.69,756.767,-512.396,-1.42568e-08,1.42576e-08,-9.65383e-09,913.925,-913.847,0.0185813,1.72185e-08,-1.72177e-08,3.50082e-13
-0.220025,0.75,0.0319853,0.01,-69.2653,281.25,-774.232,774.544,-497.338,-1.45883e-08,1.45915e-08,-9.37014e-09,920.494,-920.182,0.162301,1.73413e-08,-1.73381e-08,3.05784e-12
-0.210025,0.75,0.0293432,0.01,-71.2519,281.25,-792.154,792.164,-481.833,-1.49247e-08,1.49248e-08,-9.07802e-09,927.194,-927.184,0.358795,1.74688e-08,-1.74687e-08,6.75991e-12
-0.200025,0.75,0.0269316,0.01,-73.1593,281.25,-806.96,809.359,-463.047,-1.5214e-08,1.52384e-08,-8.72408e-09,932.614,-930.215,-0.896786,1.75606e-08,-1.75362e-08,-1.6896e-11
-0.190025,0.75,0.0240423,0.01,-74.9857,281.25,-817.124,824.304,-443.887,-1.54263e-08,1.54992e-08,-8.36309e-09,936.654,-929.474,-0.461378,1.76159e-08,-1.7543e-08,-8.69264e-12
-0.180025,0.75,0.022504,0.01,-76.7295,281.25,-832.045,839.688,-426.08,-1.57094e-08,1.5787e-08,-8.0276e-09,942.02,-934.378,0.245978,1.7715e-08,-1.76374e-08,4.63436e-12
-0.170025,0.75,0.019268,0.01,-78.3891,281.25,-849.28,855.747,-405.815,-1.60291e-08,1.60947e-08,-7.64578e-09,947.406,-940.94,-1.49406,1.78216e-08,-1.7756e-08,-2.8149e-11
-0.160025,0.75,0.0187377,0.01,-79.963,281.25,-863.076,869.83,-386.475,-1.62902e-08,1.63587e-08,-7.28142e-09,952.115,-945.361,-0.825399,1.7909e-08,-1.78405e-08,-1.5551e-11
-0.150025,0.75,0.0150212,0.01,-81.4493,281.25,-870.34,882.714,-363.615,-1.64515e-08,1.65771e-08,-6.85072e-09,955.141,-942.767,-1.54151,1.79416e-08,-1.78161e-08,-2.90429e-11
-0.140025,0.75,0.0156722,0.01,-82.8473,281.25,-864.137,896.757,-340.776,-1.64227e-08,1.67536e-08,-6.42042e-09,960.405,-927.785,0.134418,1.79528e-08,-1.76218e-08,2.53252e-12
-0.130025,0.75,0.0113031,0.01,-84.1545,281.25,-870.211,908.781,-320.749,-1.6563e-08,1.69543e-08,-6.0431e-09,964.841,-926.271,2.61243,1.80105e-08,-1.76192e-08,4.92197e-11
-0.120025,0.75,0.0133389,0.01,-85.3716,281.25,-904.599,920.484,-294.735,-1.71122e-08,1.72734e-08,-5.55297e-09,966.888,-951.004,-4.76531,1.81477e-08,-1.79865e-08,-8.97812e-11
-0.110025,0.75,0.00811456,0.01,-86.4939,281.25,-906.849,925.874,-272.199,-1.71683e-08,1.73613e-08,-5.12839e-09,965.444,-946.419,-2.46585,1.81068e-08,-1.79138e-08,-4.64581e-11
-0.100025,0.75,0.0117314,0.01,-87.5259,281.25,-930.582,945.533,-249.171,-1.75977e-08,1.77494e-08,-4.69452e-09,978.047,-963.096,-5.37645,1.8362e-08,-1.82103e-08,-1.01295e-10
-0.0900249,0.75,0.00545629,0.01,-88.4579,281.25,-921.034,938.296,-224.494,-1.74279e-08,1.7603e-08,-4.22959e-09,965.015,-947.753,-1.89461,1.81064e-08,-1.79313e-08,-3.56956e-11
0.0899751,0.75,0.00545294,0.01,-88.4623,281.25,-921.068,938.338,224.373,-1.74285e-08,1.76038e-08,4.22732e-09,965.028,-947.758,1.89608,1.81066e-08,-1.79314e-08,3.57232e-11
0.0999751,0.75,0.0116874,0.01,-87.5308,281.25,-930.625,945.585,249.052,-1.75986e-08,1.77503e-08,4.69229e-09,978.067,-963.107,5.37689,1.83623e-08,-1.82105e-08,1.01304e-10
0.109975,0.75,0.00811101,0.01,-86.4993,281.25,-906.902,925.931,272.086,-1.71693e-08,1.73623e-08,5.12625e-09,965.466,-946.437,2.46637,1.81072e-08,-1.79142e-08,4.64678e-11
0.119975,0.75,0.0132994,0.01,-85.3774,281.25,-904.649,920.537,294.625,-1.71132e-08,1.72744e-08,5.5509e-09,966.905,-951.017,4.76206,1.8148e-08,-1.79868e-08,8.972e-11
0.129975,0.75,0.0112993,0.01,-84.1608,281.25,-870.255,908.85,320.647,-1.65639e-08,1.69555e-08,6.04117e-09,964.872,-926.277,-2.61878,1.80109e-08,-1.76194e-08,-4.93393e-11
0.139975,0.75,0.0156376,0.01,-82.8541,281.25,-864.173,896.818,340.669,-1.64234e-08,1.67546e-08,6.41841e-09,960.424,-927.779,-0.138511,1.7953e-08,-1.76218e-08,-2.60964e-12
0.149975,0.75,0.0150171,0.01,-81.4565,281.25,-870.378,882.785,363.501,-1.64524e-08,1.65782e-08,6.84857e-09,955.164,-942.756,1.54665,1.79419e-08,-1.7816e-08,2.91397e-11
0.159975,0.75,0.0187078,0.01,-79.9706,281.25,-863.146,869.906,386.368,-1.62916e-08,1.63601e-08,7.27939e-09,952.14,-945.38,0.832981,1.79095e-08,-1.78409e-08,1.56938e-11
0.169975,0.75,0.0192635,0.01,-78.3971,281.25,-849.354,855.827,405.718,-1.60305e-08,1.60961e-08,7.64396e-09,947.437,-940.965,1.4953,1.78221e-08,-1.77565e-08,2.81723e-11
0.179975,0.75,0.0224781,0.01,-76.738,281.25,-832.125,839.764,425.988,-1.57109e-08,1.57884e-08,8.02586e-09,942.046,-934.407,-0.245801,1.77155e-08,-1.7638e-08,-4.63104e-12
0.189975,0.75,0.0240375,0.01,-74.9946,281.25,-817.215,824.389,443.796,-1.5428e-08,1.55008e-08,8.36137e-09,936.684,-929.51,0.466893,1.76165e-08,-1.75437e-08,8.79653e-12
0.199975,0.75,0.0269088,0.01,-73.1685,281.25,-807.055,809.446,462.966,-1.52158e-08,1.524e-08,8.72254e-09,932.648,-930.258,0.897479,1.75612e-08,-1.7537e-08,1.6909e-11
0.209975,0.75,0.029338,0.01,-71.2616,281.25,-792.244,792.25,481.756,-1.49264e-08,1.49264e-08,9.07657e-09,927.227,-927.221,-0.361394,1.74695e-08,-1.74694e-08,-6.80887e-12
0.219975,0.75,0.031965,0.01,-69.2753,281.25,-774.32,774.632,497.261,-1.459e-08,1.45932e-08,9.36869e-09,920.527,-920.214,-0.162569,1.73419e-08,-1.73387e-08,-3.06289e-12
0.229975,0.75,0.0351637,0.01,-67.2116,281.25,-756.779,756.857,512.323,-1.42585e-08,1.42593e-08,9.65246e-09,913.958,-913.88,-0.0189067,1.72192e-08,-1.72184e-08,-3.56213e-13
0.239975,0.75,0.0376195,0.01,-65.0722,281.25,-738.559,738.557,526.525,-1.39149e-08,1.39149e-08,9.92004e-09,907.026,-907.027,0.00743053,1.70889e-08,-1.70889e-08,1.39996e-13
0.249975,0.75,0.0415133,0.01,-62.859,281.25,-719.948,719.969,539.905,-1.35643e-08,1.35645e-08,1.01721e-08,899.92,-899.899,-0.00263243,1.69549e-08,-1.69547e-08,-4.95964e-14
0.259975,0.75,0.0438519,0.01,-60.5737,281.25,-701.128,701.136,552.45,-1.32097e-08,1.32098e-08,1.04085e-08,892.633,-892.625,0.000915546,1.68177e-08,-1.68176e-08,1.72494e-14
0.269975,0.75,0.0481936,0.01,-58.2184,281.25,-682.095,682.105,564.17,-1.28511e-08,1.28512e-08,1.06293e-08,885.188,-885.178,-0.000238956,1.66774e-08,-1.66773e-08,-4.50207e-15
0.279975,0.75,0.0506472,0.01,-55.7948,281.25,-662.911,662.917,575.069,-1.24897e-08,1.24897e-08,1.08346e-08,877.591,-877.584,9.94356e-05,1.65343e-08,-1.65342e-08,1.87342e-15
0.289975,0.75,0.0546731,0.01,-53.305,281.25,-643.609,643.613,585.155,-1.2126e-08,1.2126e-08,1.10247e-08,869.854,-869.849,3.41452e-06,1.63885e-08,-1.63885e-08,6.43316e-17
0.299975,0.75,0.0579939,0.01,-50.7508,281.25,-624.23,624.232,594.438,-1.17609e-08,1.17609e-08,1.11996e-08,861.988,-861.986,2.70276e-05,1.62403e-08,-1.62403e-08,5.09216e-16
0.309975,0.75,0.061769,0.01,-48.1341,281.25,-604.813,604.813,602.929,-1.1395e-08,1.1395e-08,1.13595e-08,854.004,-854.003,1.7113e-05,1.60899e-08,-1.60899e-08,3.22419e-16
0.319975,0.75,0.0658832,0.01,-45.457,281.25,-585.393,585.391,610.642,-1.10291e-08,1.10291e-08,1.15049e-08,845.911,-845.913,1.81564e-05,1.59375e-08,-1.59375e-08,3.42077e-16
0.329975,0.75,0.069461,0.01,-42.7214,281.25,-566.005,566.001,617.593,-1.06638e-08,1.06638e-08,1.16358e-08,837.721,-837.725,1.50208e-05,1.57832e-08,-1.57832e-08,2.83e-16
0.339975,0.75,0.074223,0.01,-39.9291,281.25,-546.681,546.676,623.798,-1.02998e-08,1.02997e-08,1.17527e-08,829.444,-829.449,1.37374e-05,1.56272e-08,-1.56273e-08,2.58821e-16
0.349975,0.75,0.0777321,0.01,-37.0822,281.25,-527.454,527.447,629.275,-9.93752e-09,9.93744e-09,1.18559e-08,821.088,-821.095,1.18612e-05,1.54698e-08,-1.54699e-08,2.23471e-16
0.359975,0.75,0.0822368,0.01,-34.1825,281.25,-508.353,508.344,634.045,-9.57762e-09,9.57754e-09,1.19458e-08,812.664,-812.673,1.03128e-05,1.53111e-08,-1.53112e-08,1.94299e-16
0.369975,0.75,0.0865686,0.01,-31.232,281.25,-489.404,489.394,638.126,-9.22062e-09,9.22051e-09,1.20227e-08,804.182,-804.192,8.81382e-06,1.51513e-08,-1.51514e-08,1.66058e-16
0.379975,0.75,0.0908604,0.01,-28.2325,281.25,-470.634,470.623,641.542,-8.86697e-09,8.86686e-09,1.2087e-08,795.649,-795.661,7.43276e-06,1.49905e-08,-1.49907e-08,1.40037e-16
0.389975,0.75,0.0959589,0.01,-25.186,281.25,-452.067,452.054,644.313,-8.51715e-09,8.51702e-09,1.21392e-08,787.076,-787.088,6.16476e-06,1.4829e-08,-1.48291e-08,1.16148e-16
0.399975,0.75,0.100076,0.01,-22.0943,281.25,-433.724,433.71,646.463,-8.17156e-09,8.17141e-09,1.21797e-08,778.469,-778.483,5.00724e-06,1.46669e-08,-1.4667e-08,9.43393e-17
0.409975,0.75,0.104988,0.01,-18.9592,281.25,-415.627,415.612,648.015,-7.83058e-09,7.83043e-09,1.2209e-08,769.838,-769.853,3.96071e-06,1.45043e-08,-1.45044e-08,7.46221e-17
0.419975,0.75,0.109869,0.01,-15.7826,281.25,-397.792,397.776,648.992,-7.49457e-09,7.49441e-09,1.22274e-08,761.19,-761.206,3.0214e-06,1.43413e-08,-1.43415e-08,5.6925e-17
0.429975,0.75,0.114583,0.01,-12.5661,281.25,-380.239,380.222,649.418,-7.16384e-09,7.16367e-09,1.22354e-08,752.533,-752.55,2.18637e-06,1.41782e-08,-1.41784e-08,4.11924e-17
0.439975,0.75,0.119946,0.01,-9.31166,281.25,-362.98,362.962,649.318,-6.83868e-09,6.8385e-09,1.22335e-08,743.874,-743.892,1.45146e-06,1.40151e-08,-1.40153e-08,2.73463e-17
0.449975,0.75,0.124773,0.01,-6.02089,281.25,-346.031,346.012,648.714,-6.51934e-09,6.51915e-09,1.22222e-08,735.22,-735.238,8.11131e-07,1.3852e-08,-1.38522e-08,1.52822e-17
0.459975,0.75,0.129931,0.01,-2.69552,281.25,-329.403,329.384,647.632,-6.20605e-09,6.20586e-09,1.22018e-08,726.576,-726.595,2.59456e-07,1.36892e-08,-1.36894e-08,4.8883e-18
0.469975,0.75,0.135544,0.01,0.662787,281.25,-313.106,313.086,646.095,-5.89901e-09,5.89881e-09,1.21728e-08,717.951,-717.97,-2.08537e-07,1.35267e-08,-1.35269e-08,-3.92896e-18
0.479975,0.75,0.140525,0.01,4.05241,281.25,-297.15,297.13,644.126,-5.59839e-09,5.59818e-09,1.21357e-08,709.349,-709.369,-5.99857e-07,1.33646e-08,-1.33648e-08,-1.13016e-17
0.489975,0.75,0.146023,0.01,7.47175,281.25,-281.542,281.521,641.748,-5.30432e-09,5.30412e-09,1.20909e-08,700.776,-700.796,-9.2127e-07,1.32031e-08,-1.32033e-08,-1.73573e-17
0.499975,0.75,0.151713,0.01,10.9192,281.25,-266.289,266.268,638.985,-5.01694e-09,5.01673e-09,1.20388e-08,692.237,-692.257,-1.17776e-06,1.30422e-08,-1.30424e-08,-2.21897e-17
0.509975,0.75,0.157033,0.01,14.3934,281.25,-251.395,251.374,635.859,-4.73634e-09,4.73613e-09,1.198e-08,683.737,-683.758,-1.37621e-06,1.28821e-08,-1.28823e-08,-2.59285e-17
0.519975,0.75,0.162794,0.01,17.8926,281.25,-236.865,236.844,632.392,-4.46259e-09,4.46238e-09,1.19146e-08,675.282,-675.303,-1.52291e-06,1.27228e-08,-1.2723e-08,-2.86924e-17
0.529975,0.75,0.168645,0.01,21.4156,281.25,-222.703,222.681,628.605,-4.19575e-09,4.19554e-09,1.18433e-08,666.875,-666.896,-1.62371e-06,1.25644e-08,-1.25646e-08,-3.05916e-17
0.539975,0.75,0.174233,0.01,24.9608,281.25,-208.908,208.887,624.52,-3.93586e-09,3.93564e-09,1.17663e-08,658.52,-658.542,-1.68403e-06,1.2407e-08,-1.24072e-08,-3.17281e-17
0.549975,0.75,0.180202,0.01,28.527,281.25,-195.483,195.462,620.156,-3.68292e-09,3.68271e-09,1.16841e-08,650.222,-650.243,-1.70861e-06,1.22507e-08,-1.22509e-08,-3.21912e-17
0.559975,0.75,0.186279,0.01,32.1126,281.25,-182.427,182.406,615.533,-3.43695e-09,3.43673e-09,1.1597e-08,641.984,-642.005,-1.70308e-06,1.20954e-08,-1.20957e-08,-3.20869e-17
0.569975,0.75,0.192081,0.01,35.7165,281.25,-169.74,169.719,610.671,-3.19792e-09,3.1977e-09,1.15054e-08,633.809,-633.83,-1.67223e-06,1.19414e-08,-1.19416e-08,-3.15058e-17
0.579975,0.75,0.198218,0.01,39.3374,281.25,-157.42,157.4,605.588,-2.9658e-09,2.96559e-09,1.14096e-08,625.701,-625.721,-1.62034e-06,1.17887e-08,-1.17889e-08,-3.05282e-17
0.589975,0.75,0.204572,0.01,42.9741,281.25,-145.465,145.444,600.301,-2.74056e-09,2.74035e-09,1.131e-08,617.661,-617.682,-1.55128e-06,1.16372e-08,-1.16374e-08,-2.92271e-17
0.599975,0.75,0.210549,0.01,46.6253,281.25,-133.872,133.851,594.828,-2.52213e-09,2.52192e-09,1.12069e-08,609.694,-609.714,-1.4673e-06,1.14871e-08,-1.14873e-08,-2.76447e-17
0.609975,0.75,0.216823,0.01,50.2898,281.25,-122.642,122.618,589.187,-2.31054e-09,2.31029e-09,1.11006e-08,601.801,-601.826,0.00297681,1.13384e-08,-1.13386e-08,5.60849e-14
0.619975,0.75,0.223369,0.01,53.9667,281.25,-111.883,111.433,583.887,-2.10598e-09,2.10142e-09,1.10008e-08,594.242,-594.692,-0.18016,1.11978e-08,-1.12024e-08,-3.39433e-12
0.629975,0.75,0.229616,0.01,57.6547,281.25,-103.04,100.186,579.93,-1.92892e-09,1.89997e-09,1.09262e-08,587.338,-590.192,-0.0355941,1.10782e-08,-1.11071e-08,-6.70614e-13
0.639975,0.75,0.236003,0.01,61.3528,281.25,-95.927,88.5706,577.146,-1.77534e-09,1.70071e-09,1.08738e-08,580.793,-588.15,0.299896,1.09745e-08,-1.10491e-08,5.65021e-12
0.649975,0.75,0.242634,0.01,65.0601,281.25,-87.9117,78.7845,573.887,-1.61662e-09,1.52403e-09,1.08124e-08,575.343,-584.47,0.912327,1.08795e-08,-1.09721e-08,1.71888e-11
-0.640025,0.76,0.24371,0.01,65.7058,288.8,-102.778,95.2339,-570.028,-1.9036e-09,1.82706e-09,-1.07397e-08,574.79,-582.334,-0.577522,1.08622e-08,-1.09387e-08,-1.08808e-11
-0.630025,0.76,0.237524,0.01,62.0645,288.8,-109.172,104.441,-573.035,-2.03629e-09,1.9883e-09,-1.07963e-08,580.537,-585.268,1.2802,1.09582e-08,-1.10062e-08,2.41196e-11
-0.620025,0.76,0.230945,0.01,58.434,288.8,-119.174,116.432,-575.145,-2.23338e-09,2.20557e-09,-1.08361e-08,585.715,-588.456,0.081308,1.10471e-08,-1.10749e-08,1.53189e-12
-0.610025,0.76,0.224618,0.01,54.8152,288.8,-129.804,127.933,-579.763,-2.43745e-09,2.41847e-09,-1.09231e-08,592.977,-594.848,-0.387562,1.11802e-08,-1.11991e-08,-7.30189e-12
-0.600025,0.76,0.218566,0.01,51.2092,288.8,-139.464,138.925,-583.974,-2.62523e-09,2.61976e-09,-1.10024e-08,600.064,-600.603,0.111946,1.13079e-08,-1.13134e-08,2.10913e-12
-0.590025,0.76,0.21232,0.01,47.6171,288.8,-150.612,150.592,-588.596,-2.83753e-09,2.83733e-09,-1.10895e-08,607.547,-607.567,1.48334e-06,1.14466e-08,-1.14468e-08,2.79469e-17
-0.580025,0.76,0.206115,0.01,44.0401,288.8,-162.369,162.349,-593.529,-3.05904e-09,3.05884e-09,-1.11824e-08,615.325,-615.345,1.53518e-06,1.15932e-08,-1.15934e-08,2.89237e-17
-0.570025,0.76,0.200218,0.01,40.4793,288.8,-174.474,174.454,-598.256,-3.28711e-09,3.2869e-09,-1.12715e-08,623.165,-623.186,1.56809e-06,1.17409e-08,-1.17411e-08,2.95437e-17
-0.560025,0.76,0.194276,0.01,36.936,288.8,-186.928,186.908,-602.76,-3.52175e-09,3.52155e-09,-1.13564e-08,631.067,-631.087,1.57908e-06,1.18898e-08,-1.189e-08,2.97507e-17
-0.550025,0.76,0.188219,0.01,33.4113,288.8,-199.733,199.713,-607.024,-3.763e-09,3.76279e-09,-1.14367e-08,639.026,-639.047,1.5643e-06,1.20397e-08,-1.20399e-08,2.94724e-17
-0.540025,0.76,0.182509,0.01,29.9067,288.8,-212.888,212.868,-611.03,-4.01084e-09,4.01064e-09,-1.15122e-08,647.04,-647.06,1.51933e-06,1.21907e-08,-1.21909e-08,2.86251e-17
-0.530025,0.76,0.176828,0.01,26.4233,288.8,-226.393,226.373,-614.757,-4.26528e-09,4.26508e-09,-1.15824e-08,655.105,-655.125,1.43963e-06,1.23426e-08,-1.23428e-08,2.71235e-17
-0.520025,0.76,0.170952,0.01,22.9626,288.8,-240.246,240.226,-618.188,-4.52628e-09,4.52608e-09,-1.1647e-08,663.217,-663.237,1.31958e-06,1.24955e-08,-1.24957e-08,2.48616e-17
-0.510025,0.76,0.165472,0.01,19.5259,288.8,-254.445,254.425,-621.302,-4.7938e-09,4.7936e-09,-1.17057e-08,671.372,-671.392,1.15415e-06,1.26491e-08,-1.26493e-08,2.17449e-17
-0.500025,0.76,0.159999,0.01,16.1146,288.8,-268.987,268.967,-624.079,-5.06778e-09,5.06758e-09,-1.1758e-08,679.566,-679.585,9.39111e-07,1.28035e-08,-1.28037e-08,1.76934e-17
-0.490025,0.76,0.154348,0.01,12.7303,288.8,-283.867,283.848,-626.497,-5.34813e-09,5.34794e-09,-1.18036e-08,687.794,-687.813,6.68263e-07,1.29585e-08,-1.29587e-08,1.25905e-17
-0.480025,0.76,0.149154,0.01,9.37432,288.8,-299.079,299.061,-628.536,-5.63475e-09,5.63456e-09,-1.1842e-08,696.051,-696.07,3.35612e-07,1.31141e-08,-1.31143e-08,6.32313e-18
-0.470025,0.76,0.14382,0.01,6.04827,288.8,-314.618,314.599,-630.174,-5.9275e-09,5.92732e-09,-1.18728e-08,704.333,-704.351,-6.38183e-08,1.32701e-08,-1.32703e-08,-1.20237e-18
-0.460025,0.76,0.138454,0.01,2.75368,288.8,-330.474,330.456,-631.389,-6.22625e-09,6.22607e-09,-1.18957e-08,712.633,-712.651,-5.35858e-07,1.34265e-08,-1.34267e-08,-1.00959e-17
-0.450025,0.76,0.133621,0.01,-0.507858,288.8,-346.639,346.622,-632.158,-6.53081e-09,6.53063e-09,-1.19102e-08,720.947,-720.964,-1.08609e-06,1.35831e-08,-1.35833e-08,-2.04626e-17
-0.440025,0.76,0.128341,0.01,-3.73473,288.8,-363.102,363.086,-632.46,-6.84098e-09,6.84082e-09,-1.19159e-08,729.268,-729.284,-1.71925e-06,1.37399e-08,-1.37401e-08,-3.23917e-17
-0.430025,0.76,0.123339,0.01,-6.92529,288.8,-379.851,379.835,-632.273,-7.15655e-09,7.15639e-09,-1.19124e-08,737.589,-737.605,-2.44014e-06,1.38967e-08,-1.38968e-08,-4.59737e-17
-0.420025,0.76,0.118829,0.01,-10.0779,288.8,-396.872,396.858,-631.572,-7.47724e-09,7.47709e-09,-1.18992e-08,745.905,-745.92,-3.2532e-06,1.40533e-08,-1.40535e-08,-6.12921e-17
-0.410025,0.76,0.113631,0.01,-13.1908,288.8,-414.151,414.137,-630.337,-7.80278e-09,7.80264e-09,-1.18759e-08,754.208,-754.222,-4.1619e-06,1.42098e-08,-1.42099e-08,-7.84127e-17
-0.400025,0.76,0.109105,0.01,-16.2622,288.8,-431.67,431.658,-628.545,-8.13286e-09,8.13273e-09,-1.18422e-08,762.491,-762.504,-5.169e-06,1.43658e-08,-1.4366e-08,-9.73869e-17
-0.390025,0.76,0.10451,0.01,-19.2905,288.8,-449.412,449.401,-626.174,-8.46714e-09,8.46702e-09,-1.17975e-08,770.747,-770.759,-6.27639e-06,1.45214e-08,-1.45215e-08,-1.18251e-16
-0.380025,0.76,0.0997994,0.01,-22.2739,288.8,-467.357,467.346,-623.203,-8.80523e-09,8.80512e-09,-1.17415e-08,778.968,-778.979,-7.48393e-06,1.46763e-08,-1.46764e-08,-1.41002e-16
-0.370025,0.76,0.0959032,0.01,-25.2105,288.8,-485.482,485.473,-619.611,-9.14673e-09,9.14664e-09,-1.16738e-08,787.146,-787.155,-8.79184e-06,1.48303e-08,-1.48304e-08,-1.65643e-16
-0.360025,0.76,0.0910624,0.01,-28.0986,288.8,-503.766,503.758,-615.376,-9.49121e-09,9.49113e-09,-1.1594e-08,795.272,-795.28,-1.01965e-05,1.49834e-08,-1.49835e-08,-1.92108e-16
-0.350025,0.76,0.0870102,0.01,-30.9363,288.8,-522.182,522.176,-610.481,-9.83819e-09,9.83813e-09,-1.15018e-08,803.339,-803.345,-1.16962e-05,1.51354e-08,-1.51355e-08,-2.20364e-16
-0.340025,0.76,0.0829057,0.01,-33.7218,288.8,-540.706,540.701,-604.905,-1.01872e-08,1.01871e-08,-1.13968e-08,811.336,-811.341,-1.32866e-05,1.52861e-08,-1.52861e-08,-2.50328e-16
-0.330025,0.76,0.0786647,0.01,-36.4532,288.8,-559.307,559.304,-598.632,-1.05377e-08,1.05376e-08,-1.12786e-08,819.256,-819.259,-1.49353e-05,1.54353e-08,-1.54353e-08,-2.8139e-16
-0.320025,0.76,0.075342,0.01,-39.1287,288.8,-577.957,577.956,-591.644,-1.0889e-08,1.0889e-08,-1.11469e-08,827.088,-827.089,-1.67329e-05,1.55828e-08,-1.55828e-08,-3.15258e-16
-0.310025,0.76,0.0708752,0.01,-41.7463,288.8,-596.623,596.624,-583.927,-1.12407e-08,1.12407e-08,-1.10015e-08,834.824,-834.823,-1.84028e-05,1.57286e-08,-1.57286e-08,-3.4672e-16
-0.300025,0.76,0.0676032,0.01,-44.3044,288.8,-615.274,615.277,-575.466,-1.15921e-08,1.15922e-08,-1.08421e-08,842.453,-842.451,-2.045e-05,1.58723e-08,-1.58723e-08,-3.8529e-16
-0.290025,0.76,0.0636512,0.01,-46.8008,288.8,-633.874,633.879,-566.251,-1.19426e-08,1.19426e-08,-1.06685e-08,849.967,-849.962,-2.20157e-05,1.60138e-08,-1.60138e-08,-4.14789e-16
-0.280025,0.76,0.0602203,0.01,-49.2339,288.8,-652.387,652.394,-556.27,-1.22914e-08,1.22914e-08,-1.04804e-08,857.354,-857.346,-2.50336e-05,1.6153e-08,-1.61529e-08,-4.71647e-16
-0.270025,0.76,0.0570033,0.01,-51.6018,288.8,-670.776,670.785,-545.514,-1.26378e-08,1.26379e-08,-1.02778e-08,864.604,-864.595,-1.98541e-05,1.62896e-08,-1.62895e-08,-3.74063e-16
-0.260025,0.76,0.0533737,0.01,-53.9026,288.8,-689.002,689.014,-533.978,-1.29813e-08,1.29814e-08,-1.00605e-08,871.708,-871.697,-5.8089e-05,1.64234e-08,-1.64233e-08,-1.09443e-15
-0.250025,0.76,0.0509431,0.01,-56.1345,288.8,-707.026,707.04,-521.657,-1.33208e-08,1.3321e-08,-9.82833e-09,878.655,-878.641,9.15422e-05,1.65543e-08,-1.65542e-08,1.72471e-15
-0.240025,0.76,0.0470687,0.01,-58.2957,288.8,-724.808,724.824,-508.55,-1.36559e-08,1.3656e-08,-9.58138e-09,885.435,-885.419,-0.000445955,1.6682e-08,-1.66819e-08,-8.40204e-15
-0.230025,0.76,0.0451191,0.01,-60.3844,288.8,-742.3,742.322,-494.657,-1.39855e-08,1.39857e-08,-9.31962e-09,892.037,-892.015,0.00121871,1.68064e-08,-1.68062e-08,2.29611e-14
-0.220025,0.76,0.0413115,0.01,-62.3989,288.8,-759.481,759.495,-479.978,-1.43091e-08,1.43093e-08,-9.04307e-09,898.451,-898.437,-0.00349844,1.69273e-08,-1.69271e-08,-6.59126e-14
-0.210025,0.76,0.0393014,0.01,-64.3374,288.8,-776.254,776.293,-464.529,-1.46252e-08,1.46256e-08,-8.75199e-09,904.667,-904.628,0.00861529,1.70443e-08,-1.70439e-08,1.62317e-13
-0.200025,0.76,0.0361086,0.01,-66.1983,288.8,-792.685,792.691,-448.285,-1.49347e-08,1.49347e-08,-8.44594e-09,910.669,-910.664,-0.0223883,1.71575e-08,-1.71575e-08,-4.21809e-13
-0.190025,0.76,0.0340081,0.01,-67.98,288.8,-808.134,808.471,-431.328,-1.52272e-08,1.52306e-08,-8.12646e-09,916.355,-916.017,0.1489,1.72632e-08,-1.72598e-08,2.80537e-12
-0.180025,0.76,0.0314672,0.01,-69.6808,288.8,-823.465,823.845,-413.55,-1.55162e-08,1.55201e-08,-7.79152e-09,921.836,-921.455,0.132051,1.73663e-08,-1.73624e-08,2.48791e-12
-0.170025,0.76,0.0292405,0.01,-71.2992,288.8,-838.525,838.817,-395.234,-1.57996e-08,1.58025e-08,-7.44643e-09,927.281,-926.989,0.192987,1.74692e-08,-1.74663e-08,3.636e-12
-0.160025,0.76,0.0273942,0.01,-72.8337,288.8,-852.41,853.145,-375.575,-1.60631e-08,1.60706e-08,-7.07605e-09,932.186,-931.452,-0.188049,1.75597e-08,-1.75523e-08,-3.54295e-12
-0.150025,0.76,0.0249996,0.01,-74.2828,288.8,-862.262,865.97,-353.822,-1.62616e-08,1.62993e-08,-6.66622e-09,935.602,-931.894,-1.0781,1.76112e-08,-1.75736e-08,-2.0312e-11
-0.140025,0.76,0.023895,0.01,-75.6454,288.8,-868.016,876.958,-333.41,-1.63928e-08,1.64835e-08,-6.28164e-09,938.492,-929.55,0.573507,1.76429e-08,-1.75521e-08,1.08052e-11
-0.130025,0.76,0.0212866,0.01,-76.9198,288.8,-880.421,889.623,-312.535,-1.66277e-08,1.6721e-08,-5.88834e-09,943.186,-933.984,0.542434,1.77302e-08,-1.76368e-08,1.02198e-11
-0.120025,0.76,0.0209706,0.01,-78.1052,288.8,-893.313,900.517,-289.918,-1.68619e-08,1.69349e-08,-5.46223e-09,946.21,-939.005,-0.592765,1.77958e-08,-1.77227e-08,-1.1168e-11
-0.110025,0.76,0.0181021,0.01,-79.2,288.8,-904.378,911.576,-267.638,-1.70703e-08,1.71433e-08,-5.04245e-09,950.199,-943.001,-0.848418,1.7871e-08,-1.7798e-08,-1.59847e-11
-0.100025,0.76,0.0186137,0.01,-80.2036,288.8,-913.86,920.408,-246.083,-1.72461e-08,1.73126e-08,-4.63634e-09,952.848,-946.3,0.402001,1.79237e-08,-1.78573e-08,7.57393e-12
-0.0900249,0.76,0.0154471,0.01,-81.1145,288.8,-918.518,927.613,-221.808,-1.7345e-08,1.74372e-08,-4.17899e-09,953.888,-944.794,0.0142535,1.79323e-08,-1.784e-08,2.68544e-13
-0.0800249,0.76,0.0168042,0.01,-81.9323,288.8,-908.673,936.035,-196.416,-1.72389e-08,1.75165e-08,-3.70058e-09,956.716,-929.355,-0.002269,1.79061e-08,-1.76285e-08,-4.27492e-14
-0.0700249,0.76,0.0133222,0.01,-82.6555,288.8,-906.594,943.214,-174.564,-1.724e-08,1.76115e-08,-3.28888e-09,959.539,-922.92,2.62211,1.79191e-08,-1.75476e-08,4.9402e-11
-0.0600249,0.76,0.0155074,0.01,-83.2844,288.8,-929.891,948.37,-147.049,-1.76e-08,1.77875e-08,-2.77049e-09,959.81,-941.331,-2.19952,1.8003e-08,-1.78156e-08,-4.14403e-11
-0.0500249,0.76,0.0117279,0.01,-83.8169,288.8,-932.166,951.502,-122.938,-1.76466e-08,1.78428e-08,-2.31622e-09,959.49,-940.155,-1.57521,1.79933e-08,-1.77971e-08,-2.96778e-11
-0.0400249,0.76,0.014677,0.01,-84.2544,288.8,-940.162,958.662,-98.6844,-1.77936e-08,1.79813e-08,-1.85927e-09,963.776,-945.276,-1.58516,1.80777e-08,-1.789e-08,-2.98654e-11
-0.0300249,0.76,0.0106647,0.01,-84.594,288.8,-939.078,958.845,-74.1885,-1.77787e-08,1.79793e-08,-1.39775e-09,961.741,-941.973,-0.90604,1.80338e-08,-1.78333e-08,-1.70703e-11
-0.0200249,0.76,0.0142661,0.01,-84.8382,288.8,-946.446,965.059,-49.5758,-1.79125e-08,1.81014e-08,-9.34038e-10,966.344,-947.731,-0.823311,1.81256e-08,-1.79367e-08,-1.55117e-11
-0.0100249,0.76,0.010133,0.01,-84.9836,288.8,-942.476,962.47,-24.8382,-1.78437e-08,1.80466e-08,-4.67965e-10,962.794,-942.8,-0.293517,1.80527e-08,-1.78498e-08,-5.53003e-12
-2.48653e-05,0.76,0.0142068,0.01,-85.0334,288.8,-948.586,967.233,-0.0615831,-1.7953e-08,1.81422e-08,-1.16026e-12,967.233,-948.586,-0.00109767,1.81422e-08,-1.7953e-08,-2.06808e-14
0.00997513,0.76,0.0101329,0.01,-84.9841,288.8,-942.482,962.476,24.715,-1.78438e-08,1.80467e-08,4.65646e-10,962.796,-942.803,0.292069,1.80527e-08,-1.78499e-08,5.50275e-12
0.0199751,0.76,0.0142311,0.01,-84.8392,288.8,-946.453,965.068,49.4532,-1.79127e-08,1.81015e-08,9.31726e-10,966.346,-947.732,0.821087,1.81256e-08,-1.79367e-08,1.54698e-11
0.0299751,0.76,0.0106644,0.01,-84.5955,288.8,-939.094,958.862,74.0663,-1.7779e-08,1.79796e-08,1.39545e-09,961.748,-941.98,0.90475,1.80339e-08,-1.78334e-08,1.7046e-11
0.0399751,0.76,0.0146428,0.01,-84.2563,288.8,-940.178,958.68,98.5632,-1.77939e-08,1.79816e-08,1.85699e-09,963.781,-945.279,1.58288,1.80777e-08,-1.789e-08,2.98223e-11
0.0499751,0.76,0.0117274,0.01,-83.8194,288.8,-932.193,951.529,122.818,-1.76471e-08,1.78433e-08,2.31395e-09,959.502,-940.166,1.57413,1.79935e-08,-1.77973e-08,2.96575e-11
0.0599751,0.76,0.0154749,0.01,-83.2873,288.8,-929.915,948.396,146.93,-1.76005e-08,1.7788e-08,2.76825e-09,959.818,-941.337,2.1972,1.80032e-08,-1.78157e-08,4.13965e-11
0.0699751,0.76,0.0133214,0.01,-82.6589,288.8,-906.628,943.25,174.447,-1.72406e-08,1.76122e-08,3.28668e-09,959.554,-922.931,-2.62306,1.79193e-08,-1.75478e-08,-4.942e-11
0.0799751,0.76,0.0167739,0.01,-81.9362,288.8,-908.711,936.07,196.299,-1.72396e-08,1.75171e-08,3.69839e-09,956.726,-929.368,0.00161326,1.79063e-08,-1.76288e-08,3.03948e-14
0.0899751,0.76,0.0154459,0.01,-81.1188,288.8,-918.554,927.657,221.692,-1.73457e-08,1.7438e-08,4.1768e-09,953.904,-944.801,-0.0147331,1.79325e-08,-1.78402e-08,-2.77581e-13
0.0999751,0.76,0.0185859,0.01,-80.2083,288.8,-913.907,920.454,245.968,-1.7247e-08,1.73134e-08,4.63418e-09,952.863,-946.316,-0.401618,1.7924e-08,-1.78576e-08,-7.56671e-12
0.109975,0.76,0.0181005,0.01,-79.2053,288.8,-904.426,911.629,267.526,-1.70712e-08,1.71443e-08,5.04035e-09,950.218,-943.015,0.84829,1.78713e-08,-1.77983e-08,1.59823e-11
0.119975,0.76,0.0209455,0.01,-78.1108,288.8,-893.368,900.571,289.81,-1.68629e-08,1.6936e-08,5.46019e-09,946.228,-939.024,0.592448,1.77962e-08,-1.77231e-08,1.11621e-11
0.129975,0.76,0.0212845,0.01,-76.926,288.8,-880.477,889.683,312.43,-1.66287e-08,1.67221e-08,5.88636e-09,943.208,-934.002,-0.543587,1.77306e-08,-1.76372e-08,-1.02415e-11
0.139975,0.76,0.0238724,0.01,-75.6519,288.8,-868.072,877.018,333.309,-1.63939e-08,1.64846e-08,6.27973e-09,938.513,-929.566,-0.576036,1.76432e-08,-1.75525e-08,-1.08528e-11
0.149975,0.76,0.0249971,0.01,-74.2898,288.8,-862.322,866.035,353.72,-1.62628e-08,1.63005e-08,6.66429e-09,935.623,-931.911,1.07868,1.76115e-08,-1.75739e-08,2.0323e-11
0.159975,0.76,0.0273738,0.01,-72.8411,288.8,-852.479,853.215,375.475,-1.60644e-08,1.60719e-08,7.07417e-09,932.21,-931.474,0.190229,1.75602e-08,-1.75527e-08,3.58403e-12
0.169975,0.76,0.0292375,0.01,-71.307,288.8,-838.598,838.89,395.141,-1.58009e-08,1.58039e-08,7.44468e-09,927.307,-927.015,-0.193223,1.74697e-08,-1.74668e-08,-3.64043e-12
0.179975,0.76,0.0314486,0.01,-69.689,288.8,-823.54,823.92,413.46,-1.55176e-08,1.55215e-08,7.78982e-09,921.862,-921.482,-0.132074,1.73668e-08,-1.73629e-08,-2.48836e-12
0.189975,0.76,0.0340047,0.01,-67.9886,288.8,-808.212,808.55,431.241,-1.52287e-08,1.52321e-08,8.12483e-09,916.383,-916.045,-0.148854,1.72637e-08,-1.72603e-08,-2.80449e-12
0.199975,0.76,0.0360916,0.01,-66.2074,288.8,-792.766,792.772,448.202,-1.49362e-08,1.49363e-08,8.44439e-09,910.699,-910.694,0.0225468,1.71581e-08,-1.7158e-08,4.24795e-13
0.209975,0.76,0.0392975,0.01,-64.3469,288.8,-776.336,776.375,464.45,-1.46268e-08,1.46272e-08,8.7505e-09,904.697,-904.658,-0.00865747,1.70449e-08,-1.70445e-08,-1.63112e-13
0.219975,0.76,0.0412957,0.01,-62.4087,288.8,-759.565,759.58,479.903,-1.43107e-08,1.43109e-08,9.04166e-09,898.482,-898.468,0.00350927,1.69279e-08,-1.69277e-08,6.61168e-14
0.229975,0.76,0.0451147,0.01,-60.3946,288.8,-742.386,742.408,494.586,-1.39871e-08,1.39873e-08,9.31828e-09,892.069,-892.048,-0.00121947,1.6807e-08,-1.68068e-08,-2.29756e-14
0.239975,0.76,0.047054,0.01,-58.3063,288.8,-724.896,724.911,508.483,-1.36575e-08,1.36577e-08,9.58011e-09,885.468,-885.453,0.000445002,1.66827e-08,-1.66825e-08,8.3841e-15
0.249975,0.76,0.0509197,0.01,-56.1454,288.8,-707.115,707.129,521.594,-1.33225e-08,1.33227e-08,9.82714e-09,878.689,-878.675,-9.0771e-05,1.6555e-08,-1.65548e-08,-1.71018e-15
0.259975,0.76,0.0533597,0.01,-53.9139,288.8,-689.092,689.104,533.919,-1.2983e-08,1.29831e-08,1.00593e-08,871.743,-871.731,5.77226e-05,1.64241e-08,-1.6424e-08,1.08753e-15
0.269975,0.76,0.0569815,0.01,-51.6134,288.8,-670.867,670.876,545.459,-1.26396e-08,1.26397e-08,1.02768e-08,864.64,-864.63,2.00065e-05,1.62903e-08,-1.62902e-08,3.76933e-16
0.279975,0.76,0.0602069,0.01,-49.2459,288.8,-652.479,652.486,556.218,-1.22931e-08,1.22932e-08,1.04795e-08,857.39,-857.383,2.50001e-05,1.61537e-08,-1.61536e-08,4.71016e-16
0.289975,0.76,0.0636308,0.01,-46.8131,288.8,-633.966,633.971,566.203,-1.19443e-08,1.19444e-08,1.06676e-08,850.004,-849.999,2.20355e-05,1.60145e-08,-1.60145e-08,4.15162e-16
0.299975,0.76,0.0675902,0.01,-44.3169,288.8,-615.367,615.37,575.422,-1.15939e-08,1.15939e-08,1.08413e-08,842.491,-842.488,2.04577e-05,1.5873e-08,-1.5873e-08,3.85435e-16
0.309975,0.76,0.0708559,0.01,-41.7592,288.8,-596.716,596.717,583.886,-1.12425e-08,1.12425e-08,1.10008e-08,834.862,-834.861,1.84118e-05,1.57293e-08,-1.57293e-08,3.46889e-16
0.319975,0.76,0.0753171,0.01,-39.1418,288.8,-578.05,578.049,591.607,-1.08908e-08,1.08908e-08,1.11462e-08,827.127,-827.128,1.67413e-05,1.55836e-08,-1.55836e-08,3.15415e-16
0.329975,0.76,0.0786462,0.01,-36.4666,288.8,-559.4,559.397,598.599,-1.05394e-08,1.05394e-08,1.12779e-08,819.295,-819.298,1.49444e-05,1.5436e-08,-1.5436e-08,2.81562e-16
0.339975,0.76,0.0828822,0.01,-33.7355,288.8,-540.798,540.793,604.876,-1.01889e-08,1.01889e-08,1.13962e-08,811.376,-811.38,1.32959e-05,1.52868e-08,-1.52869e-08,2.50502e-16
0.349975,0.76,0.0869924,0.01,-30.9503,288.8,-522.274,522.268,610.455,-9.83992e-09,9.83986e-09,1.15013e-08,803.379,-803.385,1.17042e-05,1.51361e-08,-1.51362e-08,2.20513e-16
0.359975,0.76,0.09104,0.01,-28.1128,288.8,-503.857,503.849,615.354,-9.49293e-09,9.49285e-09,1.15936e-08,795.313,-795.32,1.02036e-05,1.49842e-08,-1.49843e-08,1.92242e-16
0.369975,0.76,0.0958861,0.01,-25.225,288.8,-485.573,485.564,619.591,-9.14843e-09,9.14834e-09,1.16735e-08,787.187,-787.196,8.79896e-06,1.48311e-08,-1.48312e-08,1.65777e-16
0.379975,0.76,0.0997779,0.01,-22.2886,288.8,-467.446,467.436,623.187,-8.80692e-09,8.80681e-09,1.17412e-08,779.009,-779.019,7.49004e-06,1.4677e-08,-1.46771e-08,1.41117e-16
0.389975,0.76,0.104485,0.01,-19.3055,288.8,-449.501,449.489,626.161,-8.46881e-09,8.46869e-09,1.17972e-08,770.788,-770.8,6.28185e-06,1.45221e-08,-1.45223e-08,1.18354e-16
0.399975,0.76,0.109084,0.01,-16.2774,288.8,-431.758,431.745,628.535,-8.13452e-09,8.13439e-09,1.1842e-08,762.533,-762.545,5.1745e-06,1.43666e-08,-1.43667e-08,9.74906e-17
0.409975,0.76,0.113607,0.01,-13.2061,288.8,-414.238,414.224,630.33,-7.80442e-09,7.80428e-09,1.18758e-08,754.249,-754.263,4.1669e-06,1.42106e-08,-1.42107e-08,7.85069e-17
0.419975,0.76,0.118801,0.01,-10.0935,288.8,-396.958,396.943,631.567,-7.47885e-09,7.4787e-09,1.18991e-08,745.946,-745.961,3.25759e-06,1.40541e-08,-1.40543e-08,6.13749e-17
0.429975,0.76,0.123316,0.01,-6.94107,288.8,-379.935,379.919,632.27,-7.15813e-09,7.15797e-09,1.19123e-08,737.631,-737.646,2.44398e-06,1.38975e-08,-1.38976e-08,4.6046e-17
0.439975,0.76,0.128315,0.01,-3.75069,288.8,-363.185,363.168,632.461,-6.84254e-09,6.84237e-09,1.19159e-08,729.309,-729.326,1.72255e-06,1.37407e-08,-1.37408e-08,3.24539e-17
0.449975,0.76,0.133599,0.01,-0.523992,288.8,-346.72,346.703,632.161,-6.53234e-09,6.53216e-09,1.19103e-08,720.988,-721.005,1.08899e-06,1.35839e-08,-1.35841e-08,2.05173e-17
0.459975,0.76,0.138428,0.01,2.73738,288.8,-330.554,330.536,631.394,-6.22775e-09,6.22757e-09,1.18958e-08,712.675,-712.692,5.38482e-07,1.34273e-08,-1.34275e-08,1.01453e-17
0.469975,0.76,0.143793,0.01,6.03181,288.8,-314.696,314.678,630.181,-5.92897e-09,5.92879e-09,1.1873e-08,704.374,-704.392,6.63577e-08,1.32709e-08,-1.32711e-08,1.25022e-18
0.479975,0.76,0.149129,0.01,9.35771,288.8,-299.156,299.137,628.545,-5.63619e-09,5.636e-09,1.18422e-08,696.092,-696.111,-3.33694e-07,1.31149e-08,-1.31151e-08,-6.28699e-18
0.489975,0.76,0.154321,0.01,12.7135,288.8,-283.941,283.922,626.508,-5.34954e-09,5.34935e-09,1.18038e-08,687.835,-687.854,-6.66808e-07,1.29593e-08,-1.29595e-08,-1.2563e-17
0.499975,0.76,0.15997,0.01,16.0977,288.8,-269.06,269.04,624.092,-5.06916e-09,5.06896e-09,1.17582e-08,679.607,-679.626,-9.37824e-07,1.28043e-08,-1.28045e-08,-1.76692e-17
0.509975,0.76,0.165446,0.01,19.5089,288.8,-254.516,254.497,621.317,-4.79515e-09,4.79495e-09,1.1706e-08,671.413,-671.432,-1.15329e-06,1.26499e-08,-1.26501e-08,-2.17286e-17
0.519975,0.76,0.170924,0.01,22.9454,288.8,-240.315,240.296,618.205,-4.5276e-09,4.52739e-09,1.16473e-08,663.257,-663.277,-1.31861e-06,1.24962e-08,-1.24964e-08,-2.48434e-17
0.529975,0.76,0.176798,0.01,26.406,288.8,-226.461,226.441,614.775,-4.26656e-09,4.26636e-09,1.15827e-08,655.145,-655.165,-1.43896e-06,1.23434e-08,-1.23436e-08,-2.71108e-17
0.539975,0.76,0.182481,0.01,29.8893,288.8,-212.954,212.934,611.049,-4.01209e-09,4.01189e-09,1.15125e-08,647.08,-647.1,-1.51934e-06,1.21915e-08,-1.21917e-08,-2.86253e-17
0.549975,0.76,0.188189,0.01,33.3939,288.8,-199.797,199.777,607.045,-3.76421e-09,3.76401e-09,1.14371e-08,639.066,-639.086,-1.56438e-06,1.20405e-08,-1.20407e-08,-2.94738e-17
0.559975,0.76,0.194245,0.01,36.9184,288.8,-186.991,186.971,602.782,-3.52293e-09,3.52273e-09,1.13568e-08,631.107,-631.127,-1.57926e-06,1.18905e-08,-1.18907e-08,-2.97541e-17
0.569975,0.76,0.200189,0.01,40.4616,288.8,-174.535,174.515,598.279,-3.28826e-09,3.28805e-09,1.12719e-08,623.205,-623.225,-1.56822e-06,1.17416e-08,-1.17418e-08,-2.95462e-17
0.579975,0.76,0.206085,0.01,44.0223,288.8,-162.428,162.409,593.553,-3.06016e-09,3.05996e-09,1.11829e-08,615.363,-615.383,-1.53543e-06,1.15939e-08,-1.15941e-08,-2.89284e-17
0.589975,0.76,0.212288,0.01,47.5993,288.8,-150.669,150.65,588.621,-2.83861e-09,2.83841e-09,1.109e-08,607.586,-607.606,-1.48416e-06,1.14474e-08,-1.14476e-08,-2.79624e-17
0.599975,0.76,0.218536,0.01,51.1913,288.8,-139.52,138.98,584,-2.62629e-09,2.62082e-09,1.10029e-08,600.102,-600.642,-0.11199,1.13086e-08,-1.13141e-08,-2.10996e-12
0.609975,0.76,0.224587,0.01,54.7972,288.8,-129.858,127.988,579.79,-2.43847e-09,2.41949e-09,1.09236e-08,593.015,-594.886,0.387537,1.11809e-08,-1.11999e-08,7.30143e-12
0.619975,0.76,0.230913,0.01,58.4159,288.8,-119.227,116.485,575.173,-2.23438e-09,2.20657e-09,1.08366e-08,585.752,-588.494,-0.0811146,1.10478e-08,-1.10756e-08,-1.52825e-12
0.629975,0.76,0.237491,0.01,62.0464,288.8,-109.224,104.492,573.064,-2.03727e-09,1.98927e-09,1.07968e-08,580.574,-585.306,-1.28008,1.09589e-08,-1.10069e-08,-2.41175e-11
0.639975,0.76,0.243679,0.01,65.6876,288.8,-102.829,95.2842,570.057,-1.90455e-09,1.82801e-09,1.07402e-08,574.827,-582.371,0.578012,1.08629e-08,-1.09394e-08,1.08901e-11
-0.630025,0.77,0.24504,0.01,66.4453,296.45,-113.723,110.778,-565.683,-2.1298e-09,2.09993e-09,-1.06578e-08,575.237,-578.181,1.96641,1.08506e-08,-1.08805e-08,3.70484e-11
-0.620025,0.77,0.238668,0.01,62.8712,296.45,-128.72,119.973,-569.495,-2.38712e-09,2.29839e-09,-1.07296e-08,578.539,-587.285,-0.00880298,1.0938e-08,-1.10268e-08,-1.65853e-13
-0.610025,0.77,0.232552,0.01,59.3094,296.45,-138.786,130.978,-573.267,-2.58087e-09,2.50166e-09,-1.08007e-08,585.017,-592.825,-0.15927,1.1056e-08,-1.11352e-08,-3.00074e-12
-0.600025,0.77,0.226399,0.01,55.7609,296.45,-146.14,143.129,-574.79,-2.74027e-09,2.70972e-09,-1.08294e-08,591.203,-594.214,0.214037,1.11517e-08,-1.11822e-08,4.03258e-12
-0.590025,0.77,0.220137,0.01,52.2269,296.45,-155.731,155.205,-577.595,-2.93177e-09,2.92643e-09,-1.08822e-08,597.889,-598.415,0.121637,1.12669e-08,-1.12722e-08,2.29171e-12
-0.580025,0.77,0.214159,0.01,48.7084,296.45,-167.03,167.011,-581.701,-3.14687e-09,3.14667e-09,-1.09596e-08,605.195,-605.214,1.44424e-06,1.14023e-08,-1.14025e-08,2.72104e-17
-0.570025,0.77,0.208332,0.01,45.2066,296.45,-178.921,178.901,-586.088,-3.37088e-09,3.37069e-09,-1.10422e-08,612.778,-612.797,1.4598e-06,1.15452e-08,-1.15454e-08,2.75035e-17
-0.560025,0.77,0.202202,0.01,41.7227,296.45,-191.143,191.124,-590.251,-3.60116e-09,3.60097e-09,-1.11207e-08,620.417,-620.436,1.45267e-06,1.16891e-08,-1.16893e-08,2.73691e-17
-0.550025,0.77,0.196389,0.01,38.258,296.45,-203.698,203.679,-594.174,-3.8377e-09,3.83751e-09,-1.11946e-08,628.108,-628.127,1.41973e-06,1.1834e-08,-1.18342e-08,2.67485e-17
-0.540025,0.77,0.190852,0.01,34.8136,296.45,-216.585,216.566,-597.838,-4.08051e-09,4.08031e-09,-1.12636e-08,635.849,-635.868,1.35662e-06,1.19798e-08,-1.198e-08,2.55596e-17
-0.530025,0.77,0.184881,0.01,31.3908,296.45,-229.804,229.785,-601.226,-4.32955e-09,4.32936e-09,-1.13275e-08,643.635,-643.654,1.25888e-06,1.21265e-08,-1.21267e-08,2.37181e-17
-0.520025,0.77,0.179269,0.01,27.991,296.45,-243.351,243.332,-604.319,-4.58479e-09,4.5846e-09,-1.13857e-08,651.464,-651.482,1.12198e-06,1.2274e-08,-1.22742e-08,2.11388e-17
-0.510025,0.77,0.173977,0.01,24.6156,296.45,-257.225,257.206,-607.099,-4.84619e-09,4.846e-09,-1.14381e-08,659.331,-659.349,9.40968e-07,1.24222e-08,-1.24224e-08,1.77284e-17
-0.500025,0.77,0.168201,0.01,21.2659,296.45,-271.421,271.403,-609.545,-5.11366e-09,5.11347e-09,-1.14842e-08,667.231,-667.25,7.11983e-07,1.25711e-08,-1.25713e-08,1.34142e-17
-0.490025,0.77,0.162835,0.01,17.9434,296.45,-285.935,285.918,-611.638,-5.38711e-09,5.38693e-09,-1.15236e-08,675.162,-675.18,4.29473e-07,1.27205e-08,-1.27207e-08,8.09152e-18
-0.480025,0.77,0.157732,0.01,14.6494,296.45,-300.761,300.744,-613.358,-5.66644e-09,5.66626e-09,-1.1556e-08,683.117,-683.134,8.76942e-08,1.28704e-08,-1.28706e-08,1.65221e-18
-0.470025,0.77,0.152199,0.01,11.3855,296.45,-315.892,315.875,-614.685,-5.95151e-09,5.95134e-09,-1.1581e-08,691.092,-691.109,-3.1723e-07,1.30206e-08,-1.30208e-08,-5.97679e-18
-0.460025,0.77,0.147139,0.01,8.15322,296.45,-331.319,331.302,-615.597,-6.24217e-09,6.242e-09,-1.15982e-08,699.081,-699.098,-7.90399e-07,1.31712e-08,-1.31713e-08,-1.48916e-17
-0.450025,0.77,0.142155,0.01,4.95407,296.45,-347.033,347.017,-616.074,-6.53823e-09,6.53807e-09,-1.16072e-08,707.08,-707.096,-1.33671e-06,1.33219e-08,-1.3322e-08,-2.51843e-17
-0.440025,0.77,0.136927,0.01,1.78961,296.45,-363.023,363.008,-616.095,-6.8395e-09,6.83934e-09,-1.16076e-08,715.082,-715.097,-1.96007e-06,1.34726e-08,-1.34728e-08,-3.69288e-17
-0.430025,0.77,0.13225,0.01,-1.33854,296.45,-379.278,379.263,-615.638,-7.14575e-09,7.1456e-09,-1.1599e-08,723.081,-723.096,-2.66473e-06,1.36233e-08,-1.36235e-08,-5.0205e-17
-0.420025,0.77,0.127297,0.01,-4.42876,296.45,-395.783,395.769,-614.684,-7.45672e-09,7.45658e-09,-1.1581e-08,731.071,-731.085,-3.45458e-06,1.37739e-08,-1.3774e-08,-6.50863e-17
-0.410025,0.77,0.122459,0.01,-7.4794,296.45,-412.524,412.511,-613.21,-7.77213e-09,7.772e-09,-1.15532e-08,739.046,-739.058,-4.33221e-06,1.39241e-08,-1.39242e-08,-8.16214e-17
-0.400025,0.77,0.118258,0.01,-10.4888,296.45,-429.484,429.473,-611.197,-8.09168e-09,8.09156e-09,-1.15153e-08,746.997,-747.009,-5.2991e-06,1.40739e-08,-1.4074e-08,-9.98381e-17
-0.390025,0.77,0.113236,0.01,-13.4552,296.45,-446.646,446.636,-608.624,-8.41503e-09,8.41492e-09,-1.14668e-08,754.919,-754.93,-6.35666e-06,1.42232e-08,-1.42233e-08,-1.19763e-16
-0.380025,0.77,0.108903,0.01,-16.377,296.45,-463.99,463.981,-605.471,-8.74181e-09,8.74171e-09,-1.14074e-08,762.804,-762.814,-7.50477e-06,1.43717e-08,-1.43718e-08,-1.41394e-16
-0.370025,0.77,0.104591,0.01,-19.2524,296.45,-481.496,481.488,-601.718,-9.07163e-09,9.07154e-09,-1.13367e-08,770.645,-770.653,-8.74174e-06,1.45194e-08,-1.45195e-08,-1.64699e-16
-0.360025,0.77,0.100089,0.01,-22.0796,296.45,-499.14,499.133,-597.348,-9.40406e-09,9.40399e-09,-1.12544e-08,778.432,-778.439,-1.00653e-05,1.46661e-08,-1.46662e-08,-1.89636e-16
-0.350025,0.77,0.0964166,0.01,-24.8569,296.45,-516.899,516.894,-592.341,-9.73865e-09,9.7386e-09,-1.116e-08,786.159,-786.164,-1.14715e-05,1.48117e-08,-1.48118e-08,-2.1613e-16
-0.340025,0.77,0.0918355,0.01,-27.5825,296.45,-534.747,534.743,-586.681,-1.00749e-08,1.00749e-08,-1.10534e-08,793.816,-793.82,-1.29532e-05,1.4956e-08,-1.4956e-08,-2.44045e-16
-0.330025,0.77,0.0880258,0.01,-30.2547,296.45,-552.657,552.655,-580.352,-1.04124e-08,1.04123e-08,-1.09342e-08,801.396,-801.398,-1.45047e-05,1.50988e-08,-1.50988e-08,-2.73276e-16
-0.320025,0.77,0.0841519,0.01,-32.8716,296.45,-570.6,570.6,-573.339,-1.07504e-08,1.07504e-08,-1.0802e-08,808.889,-808.889,-1.61171e-05,1.52399e-08,-1.52399e-08,-3.03656e-16
-0.310025,0.77,0.0801775,0.01,-35.4314,296.45,-588.547,588.548,-565.628,-1.10886e-08,1.10886e-08,-1.06568e-08,816.287,-816.285,-1.7771e-05,1.53793e-08,-1.53793e-08,-3.34816e-16
-0.300025,0.77,0.0770468,0.01,-37.9323,296.45,-606.465,606.468,-557.206,-1.14262e-08,1.14262e-08,-1.04981e-08,823.58,-823.576,-1.94688e-05,1.55167e-08,-1.55167e-08,-3.66804e-16
-0.290025,0.77,0.072878,0.01,-40.3726,296.45,-624.321,624.327,-548.064,-1.17626e-08,1.17627e-08,-1.03258e-08,830.758,-830.753,-2.12212e-05,1.56519e-08,-1.56519e-08,-3.99819e-16
-0.280025,0.77,0.0699014,0.01,-42.7505,296.45,-642.083,642.09,-538.192,-1.20972e-08,1.20973e-08,-1.01398e-08,837.814,-837.806,-2.27035e-05,1.57849e-08,-1.57848e-08,-4.27747e-16
-0.270025,0.77,0.0661335,0.01,-45.0642,296.45,-659.713,659.723,-527.583,-1.24294e-08,1.24295e-08,-9.93996e-09,844.736,-844.727,-2.52355e-05,1.59153e-08,-1.59152e-08,-4.75452e-16
-0.260025,0.77,0.0630319,0.01,-47.3119,296.45,-677.176,677.188,-516.231,-1.27584e-08,1.27586e-08,-9.72609e-09,851.516,-851.504,-2.47865e-05,1.6043e-08,-1.60429e-08,-4.66993e-16
-0.250025,0.77,0.0599504,0.01,-49.4919,296.45,-694.434,694.448,-504.134,-1.30836e-08,1.30837e-08,-9.49817e-09,858.144,-858.13,-3.00791e-05,1.61679e-08,-1.61677e-08,-5.66707e-16
-0.240025,0.77,0.056695,0.01,-51.6025,296.45,-711.448,711.464,-491.29,-1.34042e-08,1.34043e-08,-9.25618e-09,864.61,-864.593,-2.99808e-05,1.62897e-08,-1.62895e-08,-5.64855e-16
-0.230025,0.77,0.0543346,0.01,-53.6419,296.45,-728.18,728.199,-477.7,-1.37194e-08,1.37196e-08,-9.00014e-09,870.904,-870.885,-1.18368e-05,1.64082e-08,-1.64081e-08,-2.23012e-16
-0.220025,0.77,0.0508941,0.01,-55.6085,296.45,-744.59,744.611,-463.368,-1.40286e-08,1.40288e-08,-8.73013e-09,877.016,-876.996,-0.000119822,1.65234e-08,-1.65232e-08,-2.25751e-15
-0.210025,0.77,0.0492765,0.01,-57.5006,296.45,-760.636,760.66,-448.301,-1.43309e-08,1.43312e-08,-8.44625e-09,882.938,-882.914,0.000258902,1.6635e-08,-1.66347e-08,4.87787e-15
-0.200025,0.77,0.0456327,0.01,-59.3167,296.45,-776.283,776.307,-432.506,-1.46257e-08,1.4626e-08,-8.14866e-09,888.66,-888.636,-0.000857328,1.67428e-08,-1.67425e-08,-1.61526e-14
-0.190025,0.77,0.0439894,0.01,-61.0551,296.45,-791.477,791.509,-415.996,-1.4912e-08,1.49123e-08,-7.8376e-09,894.171,-894.139,0.00201951,1.68466e-08,-1.68462e-08,3.80487e-14
-0.180025,0.77,0.0409137,0.01,-62.7144,296.45,-806.211,806.233,-398.78,-1.51896e-08,1.51898e-08,-7.51324e-09,899.466,-899.444,-0.00477373,1.69464e-08,-1.69461e-08,-8.99399e-14
-0.170025,0.77,0.039227,0.01,-64.2931,296.45,-820.37,820.418,-380.886,-1.54565e-08,1.54569e-08,-7.17612e-09,904.525,-904.476,0.00987976,1.70416e-08,-1.70411e-08,1.8614e-13
-0.160025,0.77,0.0367394,0.01,-65.7897,296.45,-834.073,834.074,-362.309,-1.57144e-08,1.57144e-08,-6.82612e-09,909.367,-909.366,-0.0203001,1.7133e-08,-1.7133e-08,-3.82465e-13
-0.150025,0.77,0.0349904,0.01,-67.203,296.45,-846.938,847.051,-343.11,-1.59573e-08,1.59584e-08,-6.46439e-09,913.908,-913.794,0.0310373,1.72181e-08,-1.72169e-08,5.84762e-13
-0.140025,0.77,0.0331109,0.01,-68.5315,296.45,-858.849,859.278,-323.246,-1.61831e-08,1.61874e-08,-6.09014e-09,918.081,-917.652,0.110553,1.72953e-08,-1.7291e-08,2.08288e-12
-0.130025,0.77,0.0312806,0.01,-69.7741,296.45,-870.617,870.998,-302.89,-1.64046e-08,1.64084e-08,-5.70663e-09,922.171,-921.79,0.154142,1.73726e-08,-1.73687e-08,2.90412e-12
-0.120025,0.77,0.0300268,0.01,-70.9296,296.45,-881.51,881.994,-281.805,-1.66103e-08,1.66152e-08,-5.30937e-09,925.932,-925.447,0.067311,1.7443e-08,-1.74381e-08,1.26818e-12
-0.110025,0.77,0.0280985,0.01,-71.9969,296.45,-891.931,892.227,-260.467,-1.68058e-08,1.68088e-08,-4.90735e-09,929.475,-929.178,0.207569,1.75106e-08,-1.75075e-08,3.91073e-12
-0.100025,0.77,0.0274829,0.01,-72.975,296.45,-901.273,901.737,-238.31,-1.69825e-08,1.69872e-08,-4.4899e-09,932.703,-932.239,0.0718991,1.75707e-08,-1.75659e-08,1.35462e-12
-0.0900249,0.77,0.0254452,0.01,-73.8628,296.45,-907.028,909.581,-214.362,-1.71e-08,1.71259e-08,-4.03871e-09,934.533,-931.98,-0.944407,1.7596e-08,-1.75701e-08,-1.77932e-11
-0.0800249,0.77,0.0254712,0.01,-74.6596,296.45,-907.487,915.465,-191.435,-1.71323e-08,1.72132e-08,-3.60675e-09,935.352,-927.373,-0.0878323,1.75879e-08,-1.75069e-08,-1.65481e-12
-0.0700249,0.77,0.0233212,0.01,-75.3646,296.45,-912.919,922.31,-168.987,-1.72407e-08,1.7336e-08,-3.18382e-09,937.74,-928.349,0.685959,1.76267e-08,-1.75315e-08,1.29239e-11
-0.0600249,0.77,0.0239795,0.01,-75.977,296.45,-920.251,928.16,-144.616,-1.73725e-08,1.74527e-08,-2.72465e-09,939.406,-931.497,-0.352384,1.76646e-08,-1.75843e-08,-6.63912e-12
-0.0500249,0.77,0.0217275,0.01,-76.4963,296.45,-925.443,933.28,-120.946,-1.74699e-08,1.75495e-08,-2.27868e-09,941.117,-933.279,-0.319842,1.76971e-08,-1.76176e-08,-6.026e-12
-0.0400249,0.77,0.0229935,0.01,-76.922,296.45,-929.47,937.586,-97.0802,-1.7547e-08,1.76294e-08,-1.82905e-09,942.62,-934.504,-0.231683,1.77242e-08,-1.76419e-08,-4.36505e-12
-0.0300249,0.77,0.0206646,0.01,-77.2535,296.45,-932.901,940.803,-72.9806,-1.76108e-08,1.76909e-08,-1.375e-09,943.642,-935.739,-0.192051,1.77444e-08,-1.76642e-08,-3.61834e-12
-0.0200249,0.77,0.0224984,0.01,-77.4907,296.45,-935.052,943.305,-48.7673,-1.76528e-08,1.77365e-08,-9.18805e-10,944.57,-936.318,-0.114726,1.77604e-08,-1.76766e-08,-2.1615e-12
-0.0100249,0.77,0.0201329,0.01,-77.6331,296.45,-936.663,944.586,-24.4327,-1.76817e-08,1.77621e-08,-4.60326e-10,944.903,-936.98,-0.0639856,1.77681e-08,-1.76877e-08,-1.20553e-12
-2.48653e-05,0.77,0.0224609,0.01,-77.6808,296.45,-936.925,945.226,-0.0605933,-1.76883e-08,1.77725e-08,-1.14161e-12,945.226,-936.925,-0.000186163,1.77725e-08,-1.76883e-08,-3.50741e-15
0.00997513,0.77,0.0201329,0.01,-77.6336,296.45,-936.667,944.591,24.3116,-1.76818e-08,1.77622e-08,4.58044e-10,944.905,-936.981,0.0636784,1.77681e-08,-1.76877e-08,1.19974e-12
0.0199751,0.77,0.0224763,0.01,-77.4916,296.45,-935.062,943.314,48.6466,-1.7653e-08,1.77367e-08,9.16531e-10,944.573,-936.321,0.114369,1.77604e-08,-1.76767e-08,2.15478e-12
0.0299751,0.77,0.0206644,0.01,-77.2549,296.45,-932.914,940.818,72.8604,-1.7611e-08,1.76912e-08,1.37273e-09,943.647,-935.743,0.191749,1.77445e-08,-1.76643e-08,3.61265e-12
0.0399751,0.77,0.0229717,0.01,-76.9239,296.45,-929.488,937.604,96.9609,-1.75474e-08,1.76297e-08,1.8268e-09,942.626,-934.51,0.231361,1.77243e-08,-1.7642e-08,4.35898e-12
0.0499751,0.77,0.0217272,0.01,-76.4987,296.45,-925.465,933.303,120.827,-1.74704e-08,1.75499e-08,2.27646e-09,941.125,-933.286,0.31954,1.76973e-08,-1.76177e-08,6.02033e-12
0.0599751,0.77,0.0239585,0.01,-75.9799,296.45,-920.279,928.188,144.499,-1.7373e-08,1.74532e-08,2.72245e-09,939.415,-931.507,0.352091,1.76647e-08,-1.75845e-08,6.6336e-12
0.0699751,0.77,0.0233208,0.01,-75.3679,296.45,-912.95,922.342,168.872,-1.72413e-08,1.73366e-08,3.18165e-09,937.751,-928.359,-0.686132,1.76269e-08,-1.75317e-08,-1.29271e-11
0.0799751,0.77,0.0254512,0.01,-74.6634,296.45,-907.523,915.502,191.322,-1.7133e-08,1.72139e-08,3.60461e-09,935.364,-927.386,0.0877954,1.75881e-08,-1.75072e-08,1.65412e-12
0.0899751,0.77,0.0254445,0.01,-73.867,296.45,-907.069,909.622,214.25,-1.71008e-08,1.71267e-08,4.0366e-09,934.547,-931.994,0.944163,1.75963e-08,-1.75704e-08,1.77886e-11
0.0999751,0.77,0.0274642,0.01,-72.9796,296.45,-901.318,901.782,238.199,-1.69834e-08,1.69881e-08,4.48781e-09,932.718,-932.254,-0.0716517,1.75709e-08,-1.75662e-08,-1.34996e-12
0.109975,0.77,0.0280975,0.01,-72.002,296.45,-891.979,892.277,260.359,-1.68067e-08,1.68097e-08,4.90531e-09,929.492,-929.195,-0.207615,1.75109e-08,-1.75079e-08,-3.91158e-12
0.119975,0.77,0.0300093,0.01,-70.9351,296.45,-881.562,882.047,281.699,-1.66113e-08,1.66162e-08,5.30737e-09,925.95,-925.465,-0.0672486,1.74433e-08,-1.74384e-08,-1.267e-12
0.129975,0.77,0.0312792,0.01,-69.7801,296.45,-870.673,871.054,302.787,-1.64056e-08,1.64095e-08,5.70469e-09,922.19,-921.809,-0.154076,1.73729e-08,-1.73691e-08,-2.90289e-12
0.139975,0.77,0.0330945,0.01,-68.5379,296.45,-858.909,859.338,323.146,-1.61842e-08,1.61886e-08,6.08826e-09,918.101,-917.673,-0.110565,1.72957e-08,-1.72913e-08,-2.08311e-12
0.149975,0.77,0.0349886,0.01,-67.2098,296.45,-847,847.114,343.013,-1.59585e-08,1.59596e-08,6.46256e-09,913.93,-913.816,-0.0310901,1.72185e-08,-1.72173e-08,-5.85755e-13
0.159975,0.77,0.0367242,0.01,-65.797,296.45,-834.14,834.141,362.215,-1.57157e-08,1.57157e-08,6.82435e-09,909.39,-909.389,0.0203238,1.71334e-08,-1.71334e-08,3.82913e-13
0.169975,0.77,0.0392248,0.01,-64.3007,296.45,-820.439,820.488,380.796,-1.54578e-08,1.54583e-08,7.17441e-09,904.549,-904.501,-0.00987433,1.7042e-08,-1.70415e-08,-1.86038e-13
0.179975,0.77,0.0408995,0.01,-62.7225,296.45,-806.283,806.305,398.693,-1.51909e-08,1.51912e-08,7.5116e-09,899.492,-899.47,0.00476284,1.69468e-08,-1.69466e-08,8.97347e-14
0.189975,0.77,0.0439868,0.01,-61.0636,296.45,-791.551,791.583,415.912,-1.49134e-08,1.49137e-08,7.83602e-09,894.198,-894.166,-0.00200988,1.68471e-08,-1.68467e-08,-3.78672e-14
0.199975,0.77,0.0456193,0.01,-59.3255,296.45,-776.36,776.384,432.425,-1.46272e-08,1.46274e-08,8.14714e-09,888.688,-888.664,0.000850752,1.67433e-08,-1.67431e-08,1.60287e-14
0.209975,0.77,0.0492687,0.01,-57.5098,296.45,-760.715,760.739,448.224,-1.43324e-08,1.43327e-08,8.4448e-09,882.967,-882.943,-0.000255101,1.66355e-08,-1.66353e-08,-4.80625e-15
0.219975,0.77,0.0508814,0.01,-55.618,296.45,-744.671,744.691,463.295,-1.40301e-08,1.40303e-08,8.72875e-09,877.046,-877.026,0.00011788,1.6524e-08,-1.65238e-08,2.22093e-15
0.229975,0.77,0.0543135,0.01,-53.6518,296.45,-728.262,728.281,477.631,-1.3721e-08,1.37212e-08,8.99884e-09,870.934,-870.916,1.27355e-05,1.64088e-08,-1.64086e-08,2.39945e-16
0.239975,0.77,0.0566827,0.01,-51.6128,296.45,-711.532,711.548,491.224,-1.34057e-08,1.34059e-08,9.25494e-09,864.641,-864.625,2.96214e-05,1.62903e-08,-1.62901e-08,5.58084e-16
0.249975,0.77,0.0599305,0.01,-49.5026,296.45,-694.519,694.533,504.072,-1.30852e-08,1.30853e-08,9.497e-09,858.176,-858.162,3.02198e-05,1.61685e-08,-1.61683e-08,5.69359e-16
0.259975,0.77,0.06302,0.01,-47.3229,296.45,-677.262,677.274,516.173,-1.27601e-08,1.27602e-08,9.72499e-09,851.549,-851.538,2.47522e-05,1.60436e-08,-1.60435e-08,4.66345e-16
0.269975,0.77,0.0661147,0.01,-45.0756,296.45,-659.8,659.81,527.528,-1.24311e-08,1.24312e-08,9.93894e-09,844.77,-844.761,2.5255e-05,1.59159e-08,-1.59158e-08,4.75818e-16
0.279975,0.77,0.0698899,0.01,-42.7622,296.45,-642.171,642.178,538.141,-1.20989e-08,1.2099e-08,1.01389e-08,837.849,-837.841,2.27096e-05,1.57855e-08,-1.57854e-08,4.27862e-16
0.289975,0.77,0.0728601,0.01,-40.3846,296.45,-624.41,624.416,548.017,-1.17643e-08,1.17643e-08,1.0325e-08,830.794,-830.788,2.12301e-05,1.56526e-08,-1.56526e-08,3.99987e-16
0.299975,0.77,0.0770234,0.01,-37.9446,296.45,-606.554,606.557,557.163,-1.14278e-08,1.14279e-08,1.04973e-08,823.616,-823.612,1.94773e-05,1.55174e-08,-1.55173e-08,3.66964e-16
0.309975,0.77,0.0801604,0.01,-35.444,296.45,-588.636,588.637,565.587,-1.10902e-08,1.10903e-08,1.0656e-08,816.323,-816.322,1.7779e-05,1.538e-08,-1.538e-08,3.34966e-16
0.319975,0.77,0.0841297,0.01,-32.8844,296.45,-570.689,570.689,573.302,-1.07521e-08,1.07521e-08,1.08013e-08,808.926,-808.926,1.61248e-05,1.52406e-08,-1.52406e-08,3.038e-16
0.329975,0.77,0.0880092,0.01,-30.2678,296.45,-552.746,552.744,580.319,-1.0414e-08,1.0414e-08,1.09335e-08,801.433,-801.435,1.4513e-05,1.50995e-08,-1.50995e-08,2.73433e-16
0.339975,0.77,0.0918143,0.01,-27.596,296.45,-534.836,534.832,586.651,-1.00766e-08,1.00766e-08,1.10529e-08,793.854,-793.858,1.29614e-05,1.49567e-08,-1.49567e-08,2.442e-16
0.349975,0.77,0.0964006,0.01,-24.8706,296.45,-516.987,516.982,592.315,-9.74032e-09,9.74027e-09,1.11595e-08,786.197,-786.202,1.14785e-05,1.48124e-08,-1.48125e-08,2.16262e-16
0.359975,0.77,0.100068,0.01,-22.0935,296.45,-499.228,499.221,597.324,-9.40572e-09,9.40565e-09,1.12539e-08,778.471,-778.477,1.00723e-05,1.46669e-08,-1.46669e-08,1.89768e-16
0.369975,0.77,0.104567,0.01,-19.2666,296.45,-481.583,481.575,601.698,-9.07327e-09,9.07319e-09,1.13363e-08,770.683,-770.691,8.74862e-06,1.45202e-08,-1.45202e-08,1.64829e-16
0.379975,0.77,0.108884,0.01,-16.3914,296.45,-464.077,464.068,605.454,-8.74344e-09,8.74335e-09,1.14071e-08,762.844,-762.853,7.51052e-06,1.43725e-08,-1.43725e-08,1.41503e-16
0.389975,0.77,0.113213,0.01,-13.4699,296.45,-446.732,446.722,608.61,-8.41664e-09,8.41654e-09,1.14666e-08,754.959,-754.969,6.36212e-06,1.42239e-08,-1.4224e-08,1.19866e-16
0.399975,0.77,0.118231,0.01,-10.5037,296.45,-429.569,429.557,611.186,-8.09328e-09,8.09316e-09,1.15151e-08,747.037,-747.048,5.30445e-06,1.40747e-08,-1.40748e-08,9.99389e-17
0.409975,0.77,0.122437,0.01,-7.49447,296.45,-412.608,412.595,613.202,-7.77371e-09,7.77358e-09,1.15531e-08,739.085,-739.098,4.33692e-06,1.39248e-08,-1.3925e-08,8.17101e-17
0.419975,0.77,0.127271,0.01,-4.44403,296.45,-395.865,395.852,614.678,-7.45827e-09,7.45814e-09,1.15809e-08,731.111,-731.124,3.45896e-06,1.37746e-08,-1.37747e-08,6.51687e-17
0.429975,0.77,0.132229,0.01,-1.354,296.45,-379.359,379.345,615.635,-7.14728e-09,7.14713e-09,1.15989e-08,723.121,-723.135,2.66879e-06,1.36241e-08,-1.36242e-08,5.02815e-17
0.439975,0.77,0.136902,0.01,1.77396,296.45,-363.103,363.088,616.094,-6.84101e-09,6.84086e-09,1.16076e-08,715.122,-715.137,1.96333e-06,1.34734e-08,-1.34735e-08,3.69903e-17
0.449975,0.77,0.142127,0.01,4.93824,296.45,-347.112,347.096,616.075,-6.53971e-09,6.53955e-09,1.16072e-08,707.12,-707.136,1.33927e-06,1.33226e-08,-1.33228e-08,2.52326e-17
0.459975,0.77,0.147115,0.01,8.13723,296.45,-331.396,331.38,615.6,-6.24362e-09,6.24346e-09,1.15983e-08,699.121,-699.138,7.92544e-07,1.31719e-08,-1.31721e-08,1.4932e-17
0.469975,0.77,0.152173,0.01,11.3694,296.45,-315.968,315.951,614.69,-5.95294e-09,5.95277e-09,1.15811e-08,691.131,-691.148,3.19143e-07,1.30214e-08,-1.30216e-08,6.01285e-18
0.479975,0.77,0.157704,0.01,14.6331,296.45,-300.836,300.818,613.366,-5.66784e-09,5.66767e-09,1.15562e-08,683.156,-683.174,-8.59577e-08,1.28711e-08,-1.28713e-08,-1.61949e-18
0.489975,0.77,0.16281,0.01,17.9269,296.45,-286.008,285.99,611.648,-5.38849e-09,5.3883e-09,1.15238e-08,675.201,-675.219,-4.27665e-07,1.27213e-08,-1.27214e-08,-8.05746e-18
0.499975,0.77,0.168174,0.01,21.2493,296.45,-271.493,271.475,609.556,-5.115e-09,5.11482e-09,1.14844e-08,667.271,-667.289,-7.10586e-07,1.25718e-08,-1.2572e-08,-1.33879e-17
0.509975,0.77,0.173947,0.01,24.5989,296.45,-257.295,257.276,607.112,-4.8475e-09,4.84731e-09,1.14383e-08,659.37,-659.388,-9.40031e-07,1.2423e-08,-1.24232e-08,-1.77107e-17
0.519975,0.77,0.179242,0.01,27.9742,296.45,-243.419,243.401,604.334,-4.58608e-09,4.58589e-09,1.1386e-08,651.503,-651.521,-1.12085e-06,1.22748e-08,-1.2275e-08,-2.11174e-17
0.529975,0.77,0.184852,0.01,31.3738,296.45,-229.87,229.851,601.242,-4.3308e-09,4.33061e-09,1.13278e-08,643.674,-643.693,-1.25797e-06,1.21273e-08,-1.21275e-08,-2.3701e-17
0.539975,0.77,0.190822,0.01,34.7965,296.45,-216.65,216.631,597.856,-4.08173e-09,4.08154e-09,1.12639e-08,635.887,-635.906,-1.35591e-06,1.19806e-08,-1.19808e-08,-2.55462e-17
0.549975,0.77,0.196361,0.01,38.2408,296.45,-203.761,203.742,594.193,-3.8389e-09,3.8387e-09,1.11949e-08,628.146,-628.165,-1.41913e-06,1.18347e-08,-1.18349e-08,-2.67373e-17
0.559975,0.77,0.202172,0.01,41.7055,296.45,-191.205,191.185,590.271,-3.60232e-09,3.60213e-09,1.11211e-08,620.455,-620.474,-1.45256e-06,1.16898e-08,-1.169e-08,-2.73671e-17
0.569975,0.77,0.208301,0.01,45.1893,296.45,-178.981,178.961,586.109,-3.37201e-09,3.37182e-09,1.10426e-08,612.816,-612.835,-1.45973e-06,1.15459e-08,-1.15461e-08,-2.75021e-17
0.579975,0.77,0.21413,0.01,48.691,296.45,-167.089,167.07,581.723,-3.14797e-09,3.14777e-09,1.096e-08,605.232,-605.251,-1.44445e-06,1.1403e-08,-1.14032e-08,-2.72143e-17
0.589975,0.77,0.220107,0.01,52.2094,296.45,-155.787,155.261,577.619,-2.93284e-09,2.9275e-09,1.08827e-08,597.927,-598.453,-0.121679,1.12676e-08,-1.12729e-08,-2.2925e-12
0.599975,0.77,0.226368,0.01,55.7433,296.45,-146.195,143.184,574.815,-2.74131e-09,2.71076e-09,1.08298e-08,591.24,-594.251,-0.214075,1.11524e-08,-1.11829e-08,-4.0333e-12
0.609975,0.77,0.232522,0.01,59.2917,296.45,-138.841,131.032,573.293,-2.58189e-09,2.50267e-09,1.08012e-08,585.054,-592.863,0.159195,1.10567e-08,-1.11359e-08,2.99932e-12
0.619975,0.77,0.238637,0.01,62.8535,296.45,-128.773,120.026,569.522,-2.38813e-09,2.29938e-09,1.07301e-08,578.576,-587.323,0.00917795,1.09387e-08,-1.10275e-08,1.72918e-13
0.629975,0.77,0.245008,0.01,66.4275,296.45,-113.774,110.83,565.71,-2.13077e-09,2.1009e-09,1.06583e-08,575.273,-578.218,-1.9658,1.08513e-08,-1.08812e-08,-3.70368e-11
-0.610025,0.78,0.240486,0.01,63.7903,304.2,-147.225,132.617,-566.481,-2.71029e-09,2.5621e-09,-1.06728e-08,576.202,-590.809,0.701648,1.09195e-08,-1.10677e-08,1.32195e-11
-0.600025,0.78,0.234173,0.01,60.2983,304.2,-154.449,147.388,-566.856,-2.87921e-09,2.80758e-09,-1.06799e-08,583.072,-590.133,-0.491084,1.10161e-08,-1.10877e-08,-9.25231e-12
-0.590025,0.78,0.228125,0.01,56.8212,304.2,-161.981,159.264,-568.17,-3.04e-09,3.01244e-09,-1.07046e-08,589.079,-591.796,0.0364346,1.11104e-08,-1.1138e-08,6.8645e-13
-0.580025,0.78,0.222361,0.01,53.3601,304.2,-171.52,171.07,-570.555,-3.22958e-09,3.22502e-09,-1.07496e-08,595.489,-595.939,0.19051,1.12213e-08,-1.12259e-08,3.58933e-12
-0.570025,0.78,0.216205,0.01,49.9161,304.2,-183.042,183.018,-574.147,-3.44852e-09,3.44828e-09,-1.08173e-08,602.603,-602.627,-0.00337495,1.13535e-08,-1.13537e-08,-6.35861e-14
-0.560025,0.78,0.210304,0.01,46.4904,304.2,-195.025,195.007,-577.983,-3.6743e-09,3.67412e-09,-1.08895e-08,609.987,-610.005,1.32498e-06,1.14926e-08,-1.14928e-08,2.49634e-17
-0.550025,0.78,0.204722,0.01,43.0842,304.2,-207.331,207.312,-581.582,-3.90615e-09,3.90597e-09,-1.09573e-08,617.421,-617.439,1.27556e-06,1.16326e-08,-1.16328e-08,2.40323e-17
-0.540025,0.78,0.19884,0.01,39.6988,304.2,-219.951,219.933,-584.923,-4.14393e-09,4.14375e-09,-1.10203e-08,624.899,-624.917,1.19614e-06,1.17735e-08,-1.17737e-08,2.2536e-17
-0.530025,0.78,0.193116,0.01,36.3353,304.2,-232.885,232.867,-587.99,-4.38761e-09,4.38743e-09,-1.10781e-08,632.418,-632.435,1.08276e-06,1.19152e-08,-1.19154e-08,2.03999e-17
-0.520025,0.78,0.187751,0.01,32.9952,304.2,-246.13,246.112,-590.764,-4.63716e-09,4.63698e-09,-1.11303e-08,639.974,-639.992,9.31636e-07,1.20576e-08,-1.20577e-08,1.75526e-17
-0.510025,0.78,0.182099,0.01,29.6796,304.2,-259.682,259.665,-593.229,-4.89249e-09,4.89232e-09,-1.11768e-08,647.564,-647.582,7.37538e-07,1.22006e-08,-1.22007e-08,1.38957e-17
-0.500025,0.78,0.176589,0.01,26.3901,304.2,-273.538,273.521,-595.364,-5.15355e-09,5.15337e-09,-1.1217e-08,655.184,-655.201,4.97041e-07,1.23441e-08,-1.23443e-08,9.36454e-18
-0.490025,0.78,0.171486,0.01,23.1278,304.2,-287.692,287.676,-597.153,-5.42022e-09,5.42005e-09,-1.12507e-08,662.829,-662.846,2.05364e-07,1.24882e-08,-1.24883e-08,3.86917e-18
-0.480025,0.78,0.166012,0.01,19.8944,304.2,-302.138,302.122,-598.574,-5.69239e-09,5.69222e-09,-1.12775e-08,670.494,-670.511,-1.42499e-07,1.26326e-08,-1.26327e-08,-2.68476e-18
-0.470025,0.78,0.160764,0.01,16.6912,304.2,-316.869,316.853,-599.61,-5.96993e-09,5.96977e-09,-1.1297e-08,678.176,-678.192,-5.49714e-07,1.27773e-08,-1.27775e-08,-1.03569e-17
-0.460025,0.78,0.155981,0.01,13.5196,304.2,-331.876,331.861,-600.24,-6.25267e-09,6.25252e-09,-1.13089e-08,685.868,-685.883,-1.02107e-06,1.29222e-08,-1.29224e-08,-1.92375e-17
-0.450025,0.78,0.150617,0.01,10.3813,304.2,-347.15,347.135,-600.446,-6.54044e-09,6.54029e-09,-1.13127e-08,693.565,-693.58,-1.56108e-06,1.30672e-08,-1.30674e-08,-2.94117e-17
-0.440025,0.78,0.145694,0.01,7.27765,304.2,-362.68,362.665,-600.206,-6.83303e-09,6.83289e-09,-1.13082e-08,701.263,-701.277,-2.17264e-06,1.32123e-08,-1.32124e-08,-4.09337e-17
-0.430025,0.78,0.141056,0.01,4.21029,304.2,-378.453,378.44,-599.503,-7.13022e-09,7.13008e-09,-1.1295e-08,708.954,-708.967,-2.85943e-06,1.33572e-08,-1.33573e-08,-5.38733e-17
-0.420025,0.78,0.135973,0.01,1.18077,304.2,-394.457,394.445,-598.315,-7.43175e-09,7.43162e-09,-1.12726e-08,716.633,-716.646,-3.62457e-06,1.35018e-08,-1.3502e-08,-6.82891e-17
-0.410025,0.78,0.131455,0.01,-1.8093,304.2,-410.677,410.665,-596.623,-7.73734e-09,7.73722e-09,-1.12407e-08,724.294,-724.306,-4.47001e-06,1.36462e-08,-1.36463e-08,-8.42175e-17
-0.400025,0.78,0.126826,0.01,-4.7583,304.2,-427.096,427.086,-594.409,-8.04669e-09,8.04659e-09,-1.1199e-08,731.93,-731.94,-5.39629e-06,1.379e-08,-1.37901e-08,-1.01669e-16
-0.390025,0.78,0.122158,0.01,-7.6646,304.2,-443.698,443.688,-591.654,-8.35948e-09,8.35939e-09,-1.11471e-08,739.534,-739.543,-6.40416e-06,1.39333e-08,-1.39334e-08,-1.20658e-16
-0.380025,0.78,0.118152,0.01,-10.5265,304.2,-460.463,460.454,-588.338,-8.67535e-09,8.67526e-09,-1.10846e-08,747.099,-747.107,-7.49365e-06,1.40758e-08,-1.40759e-08,-1.41185e-16
-0.370025,0.78,0.113423,0.01,-13.3424,304.2,-477.37,477.363,-584.444,-8.9939e-09,8.99383e-09,-1.10113e-08,754.618,-754.625,-8.66237e-06,1.42175e-08,-1.42175e-08,-1.63204e-16
-0.360025,0.78,0.109285,0.01,-16.1105,304.2,-494.399,494.394,-579.955,-9.31474e-09,9.31469e-09,-1.09267e-08,762.084,-762.089,-9.90721e-06,1.43581e-08,-1.43582e-08,-1.86658e-16
-0.350025,0.78,0.105259,0.01,-18.8292,304.2,-511.526,511.522,-574.855,-9.63743e-09,9.63739e-09,-1.08306e-08,769.488,-769.492,-1.12241e-05,1.44976e-08,-1.44977e-08,-2.11468e-16
-0.340025,0.78,0.100966,0.01,-21.4968,304.2,-528.726,528.723,-569.127,-9.96149e-09,9.96147e-09,-1.07227e-08,776.822,-776.825,-1.26071e-05,1.46358e-08,-1.46358e-08,-2.37525e-16
-0.330025,0.78,0.0975138,0.01,-24.1114,304.2,-545.973,545.972,-562.757,-1.02864e-08,1.02864e-08,-1.06027e-08,784.08,-784.081,-1.4049e-05,1.47725e-08,-1.47725e-08,-2.64691e-16
-0.320025,0.78,0.0932024,0.01,-26.6715,304.2,-563.24,563.241,-555.732,-1.06118e-08,1.06118e-08,-1.04703e-08,791.251,-791.25,-1.55403e-05,1.49076e-08,-1.49076e-08,-2.92789e-16
-0.310025,0.78,0.0896302,0.01,-29.1753,304.2,-580.498,580.5,-548.039,-1.09369e-08,1.09369e-08,-1.03254e-08,798.328,-798.326,-1.70702e-05,1.5041e-08,-1.50409e-08,-3.21613e-16
-0.300025,0.78,0.0859996,0.01,-31.621,304.2,-597.716,597.721,-539.667,-1.12613e-08,1.12614e-08,-1.01676e-08,805.302,-805.298,-1.8628e-05,1.51723e-08,-1.51723e-08,-3.50962e-16
-0.290025,0.78,0.0822857,0.01,-34.0069,304.2,-614.864,614.87,-530.608,-1.15844e-08,1.15845e-08,-9.99695e-09,812.164,-812.159,-2.01948e-05,1.53016e-08,-1.53016e-08,-3.80482e-16
-0.280025,0.78,0.0793633,0.01,-36.3313,304.2,-631.909,631.917,-520.852,-1.19056e-08,1.19057e-08,-9.81315e-09,818.906,-818.898,-2.1755e-05,1.54286e-08,-1.54286e-08,-4.09876e-16
-0.270025,0.78,0.0754845,0.01,-38.5926,304.2,-648.818,648.827,-510.394,-1.22241e-08,1.22242e-08,-9.61612e-09,825.519,-825.509,-2.3353e-05,1.55532e-08,-1.55531e-08,-4.39985e-16
-0.260025,0.78,0.0727824,0.01,-40.789,304.2,-665.555,665.566,-499.23,-1.25395e-08,1.25396e-08,-9.40578e-09,831.992,-831.98,-2.46377e-05,1.56752e-08,-1.5675e-08,-4.64188e-16
-0.250025,0.78,0.0692308,0.01,-42.9188,304.2,-682.085,682.099,-487.357,-1.28509e-08,1.28511e-08,-9.18209e-09,838.318,-838.304,-2.67852e-05,1.57943e-08,-1.57942e-08,-5.04648e-16
-0.240025,0.78,0.0664317,0.01,-44.9804,304.2,-698.372,698.388,-474.775,-1.31578e-08,1.3158e-08,-8.94504e-09,844.488,-844.472,-2.63451e-05,1.59106e-08,-1.59104e-08,-4.96356e-16
-0.230025,0.78,0.0635282,0.01,-46.9722,304.2,-714.379,714.397,-461.486,-1.34594e-08,1.34596e-08,-8.69466e-09,850.491,-850.473,-3.15283e-05,1.60237e-08,-1.60235e-08,-5.94011e-16
-0.220025,0.78,0.0606118,0.01,-48.8925,304.2,-730.069,730.089,-447.494,-1.3755e-08,1.37552e-08,-8.43104e-09,856.32,-856.299,-2.57571e-05,1.61335e-08,-1.61333e-08,-4.85279e-16
-0.210025,0.78,0.0583793,0.01,-50.7398,304.2,-745.404,745.427,-432.804,-1.40439e-08,1.40442e-08,-8.15428e-09,861.965,-861.942,-3.54967e-05,1.62398e-08,-1.62396e-08,-6.68778e-16
-0.200025,0.78,0.0553251,0.01,-52.5126,304.2,-760.346,760.371,-417.427,-1.43255e-08,1.43257e-08,-7.86456e-09,867.417,-867.392,-3.44946e-05,1.63425e-08,-1.63423e-08,-6.49899e-16
-0.190025,0.78,0.0537853,0.01,-54.2094,304.2,-774.857,774.884,-401.373,-1.45989e-08,1.45991e-08,-7.56209e-09,872.667,-872.64,-1.52335e-06,1.64414e-08,-1.64412e-08,-2.87008e-17
-0.180025,0.78,0.0505735,0.01,-55.8287,304.2,-788.9,788.929,-384.655,-1.48635e-08,1.48638e-08,-7.24712e-09,877.708,-877.679,-0.000143364,1.65364e-08,-1.65361e-08,-2.70106e-15
-0.170025,0.78,0.049219,0.01,-57.3691,304.2,-802.435,802.467,-367.29,-1.51185e-08,1.51188e-08,-6.91995e-09,882.529,-882.497,0.000262878,1.66272e-08,-1.66269e-08,4.95278e-15
-0.160025,0.78,0.0463587,0.01,-58.8292,304.2,-815.432,815.464,-349.296,-1.53633e-08,1.53637e-08,-6.58094e-09,887.125,-887.093,-0.000714677,1.67138e-08,-1.67135e-08,-1.34649e-14
-0.150025,0.78,0.0449852,0.01,-60.2078,304.2,-827.84,827.878,-330.696,-1.55972e-08,1.55975e-08,-6.2305e-09,891.484,-891.446,0.00137232,1.67959e-08,-1.67955e-08,2.58553e-14
-0.140025,0.78,0.0426812,0.01,-61.5036,304.2,-839.652,839.684,-311.509,-1.58197e-08,1.582e-08,-5.86901e-09,895.605,-895.573,-0.00270456,1.68736e-08,-1.68733e-08,-5.09555e-14
-0.130025,0.78,0.0412775,0.01,-62.7155,304.2,-850.783,850.83,-291.769,-1.60294e-08,1.60299e-08,-5.4971e-09,899.468,-899.421,0.00464382,1.69463e-08,-1.69458e-08,8.74923e-14
-0.120025,0.78,0.0395405,0.01,-63.8423,304.2,-861.29,861.316,-271.492,-1.62273e-08,1.62276e-08,-5.11506e-09,903.092,-903.065,-0.00781514,1.70147e-08,-1.70144e-08,-1.47242e-13
-0.110025,0.78,0.0380968,0.01,-64.883,304.2,-870.987,871.052,-250.729,-1.64102e-08,1.64108e-08,-4.72387e-09,906.421,-906.356,0.0118135,1.70772e-08,-1.70766e-08,2.22573e-13
-0.100025,0.78,0.0369345,0.01,-65.8366,304.2,-880.101,880.109,-229.48,-1.65817e-08,1.65817e-08,-4.32353e-09,909.535,-909.527,-0.0177804,1.71361e-08,-1.7136e-08,-3.34994e-13
-0.0900249,0.78,0.0354443,0.01,-66.7021,304.2,-888.177,888.289,-207.818,-1.67343e-08,1.67354e-08,-3.91542e-09,912.277,-912.165,0.0163052,1.71873e-08,-1.71862e-08,3.07199e-13
-0.0800249,0.78,0.0348594,0.01,-67.4789,304.2,-895.104,895.575,-185.74,-1.68663e-08,1.68711e-08,-3.49944e-09,914.638,-914.167,0.067411,1.72303e-08,-1.72255e-08,1.27006e-12
-0.0700249,0.78,0.0333208,0.01,-68.1661,304.2,-901.743,902.186,-163.351,-1.69913e-08,1.69958e-08,-3.07763e-09,916.858,-916.416,0.0854775,1.72722e-08,-1.72677e-08,1.61044e-12
-0.0600249,0.78,0.03331,0.01,-68.763,304.2,-907.502,908.003,-140.592,-1.71e-08,1.71051e-08,-2.64884e-09,918.826,-918.325,0.047104,1.7309e-08,-1.73039e-08,8.87468e-13
-0.0500249,0.78,0.0317273,0.01,-69.2691,304.2,-912.459,912.895,-117.622,-1.71931e-08,1.71976e-08,-2.21607e-09,920.443,-920.007,0.070202,1.73398e-08,-1.73354e-08,1.32265e-12
-0.0400249,0.78,0.0322798,0.01,-69.684,304.2,-916.479,917.006,-94.3584,-1.72693e-08,1.72746e-08,-1.77777e-09,921.849,-921.323,0.0265338,1.73659e-08,-1.73605e-08,4.99911e-13
-0.0300249,0.78,0.0306645,0.01,-70.0071,304.2,-919.684,920.11,-70.9728,-1.73292e-08,1.73336e-08,-1.33717e-09,922.844,-922.418,0.0476008,1.73851e-08,-1.73807e-08,8.96827e-13
-0.0200249,0.78,0.0317622,0.01,-70.2382,304.2,-921.916,922.461,-47.3929,-1.73718e-08,1.73773e-08,-8.92909e-10,923.678,-923.133,0.0111153,1.74003e-08,-1.73947e-08,2.09419e-13
-0.0100249,0.78,0.0301329,0.01,-70.377,304.2,-923.324,923.741,-23.7602,-1.73978e-08,1.7402e-08,-4.47656e-10,924.047,-923.63,0.0170427,1.74078e-08,-1.74035e-08,3.21094e-13
-2.48653e-05,0.78,0.0317356,0.01,-70.4235,304.2,-923.74,924.291,-0.0589566,-1.74062e-08,1.74118e-08,-1.11078e-12,924.291,-923.74,4.39844e-05,1.74118e-08,-1.74062e-08,8.28692e-16
0.00997513,0.78,0.0301329,0.01,-70.3775,304.2,-923.329,923.746,23.6425,-1.73979e-08,1.74021e-08,4.45438e-10,924.048,-923.631,-0.0170411,1.74078e-08,-1.74036e-08,-3.21064e-13
0.0199751,0.78,0.0317465,0.01,-70.2391,304.2,-921.925,922.47,47.2754,-1.7372e-08,1.73775e-08,8.90696e-10,923.681,-923.136,-0.0110329,1.74003e-08,-1.73948e-08,-2.07865e-13
0.0299751,0.78,0.0306644,0.01,-70.0085,304.2,-919.698,920.123,70.856,-1.73295e-08,1.73338e-08,1.33497e-09,922.848,-922.423,-0.0475818,1.73851e-08,-1.73808e-08,-8.96469e-13
0.0399751,0.78,0.0322643,0.01,-69.6858,304.2,-916.497,917.024,94.2423,-1.72696e-08,1.7275e-08,1.77558e-09,921.855,-921.329,-0.0264676,1.7366e-08,-1.73607e-08,-4.98665e-13
0.0499751,0.78,0.0317271,0.01,-69.2714,304.2,-912.481,912.918,117.507,-1.71936e-08,1.7198e-08,2.21391e-09,920.451,-920.014,-0.0701585,1.73399e-08,-1.73355e-08,-1.32183e-12
0.0599751,0.78,0.0332949,0.01,-68.7657,304.2,-907.528,908.03,140.478,-1.71005e-08,1.71056e-08,2.64669e-09,918.835,-918.334,-0.0470608,1.73092e-08,-1.73041e-08,-8.86653e-13
0.0699751,0.78,0.0333205,0.01,-68.1693,304.2,-901.774,902.217,163.239,-1.69919e-08,1.69964e-08,3.07552e-09,916.869,-916.426,-0.0854161,1.72724e-08,-1.72679e-08,-1.60929e-12
0.0799751,0.78,0.0348448,0.01,-67.4825,304.2,-895.139,895.61,185.629,-1.6867e-08,1.68718e-08,3.49736e-09,914.65,-914.179,-0.0673864,1.72305e-08,-1.72257e-08,-1.2696e-12
0.0899751,0.78,0.0354438,0.01,-66.7062,304.2,-888.216,888.328,207.71,-1.6735e-08,1.67361e-08,3.91337e-09,912.29,-912.178,-0.0162795,1.71876e-08,-1.71864e-08,-3.06715e-13
0.0999751,0.78,0.0369205,0.01,-65.8411,304.2,-880.144,880.152,229.373,-1.65825e-08,1.65825e-08,4.32152e-09,909.549,-909.542,0.0177514,1.71364e-08,-1.71363e-08,3.34446e-13
0.109975,0.78,0.0380961,0.01,-64.8879,304.2,-871.034,871.099,250.624,-1.64111e-08,1.64117e-08,4.7219e-09,906.437,-906.372,-0.0117849,1.70775e-08,-1.70769e-08,-2.22034e-13
0.119975,0.78,0.0395272,0.01,-63.8477,304.2,-861.34,861.366,271.39,-1.62283e-08,1.62285e-08,5.11314e-09,903.109,-903.082,0.00778744,1.7015e-08,-1.70147e-08,1.4672e-13
0.129975,0.78,0.0412764,0.01,-62.7213,304.2,-850.836,850.884,291.669,-1.60305e-08,1.60309e-08,5.49522e-09,899.487,-899.44,-0.00462111,1.69467e-08,-1.69462e-08,-8.70644e-14
0.139975,0.78,0.0426685,0.01,-61.5099,304.2,-839.709,839.741,311.412,-1.58207e-08,1.58211e-08,5.86719e-09,895.625,-895.593,0.0026866,1.6874e-08,-1.68736e-08,5.06171e-14
0.149975,0.78,0.0449838,0.01,-60.2145,304.2,-827.901,827.939,330.602,-1.55983e-08,1.55987e-08,6.22873e-09,891.505,-891.468,-0.00135958,1.67963e-08,-1.67959e-08,-2.56153e-14
0.159975,0.78,0.0463466,0.01,-58.8363,304.2,-815.495,815.527,349.205,-1.53645e-08,1.53649e-08,6.57922e-09,887.147,-887.115,0.00070613,1.67142e-08,-1.67139e-08,1.33039e-14
0.169975,0.78,0.0492172,0.01,-57.3765,304.2,-802.501,802.533,367.202,-1.51197e-08,1.51201e-08,6.9183e-09,882.553,-882.521,-0.0002576,1.66277e-08,-1.66273e-08,-4.85334e-15
0.179975,0.78,0.050562,0.01,-55.8365,304.2,-788.969,788.997,384.57,-1.48648e-08,1.4865e-08,7.24552e-09,877.732,-877.703,0.00014032,1.65369e-08,-1.65366e-08,2.6437e-15
0.189975,0.78,0.0537652,0.01,-54.2176,304.2,-774.928,774.955,401.291,-1.46002e-08,1.46005e-08,7.56056e-09,872.693,-872.666,3.15466e-06,1.64419e-08,-1.64416e-08,5.94356e-17
0.199975,0.78,0.055314,0.01,-52.5212,304.2,-760.419,760.444,417.349,-1.43268e-08,1.43271e-08,7.86309e-09,867.443,-867.419,3.36931e-05,1.6343e-08,-1.63428e-08,6.34798e-16
0.209975,0.78,0.0583602,0.01,-50.7488,304.2,-745.479,745.502,432.73,-1.40454e-08,1.40456e-08,8.15287e-09,861.992,-861.97,3.58667e-05,1.62403e-08,-1.62401e-08,6.7575e-16
0.219975,0.78,0.0606011,0.01,-48.9019,304.2,-730.146,730.167,447.422,-1.37565e-08,1.37567e-08,8.42969e-09,856.348,-856.328,2.56117e-05,1.6134e-08,-1.61338e-08,4.82539e-16
0.229975,0.78,0.0635101,0.01,-46.9819,304.2,-714.458,714.476,461.418,-1.34609e-08,1.34611e-08,8.69338e-09,850.521,-850.502,3.15899e-05,1.60242e-08,-1.6024e-08,5.95172e-16
0.239975,0.78,0.0664212,0.01,-44.9905,304.2,-698.452,698.468,474.711,-1.31593e-08,1.31595e-08,8.94383e-09,844.518,-844.502,2.63343e-05,1.59111e-08,-1.5911e-08,4.96154e-16
0.249975,0.78,0.0692136,0.01,-42.9292,304.2,-682.166,682.18,487.296,-1.28525e-08,1.28526e-08,9.18094e-09,838.349,-838.335,2.67963e-05,1.57949e-08,-1.57948e-08,5.04857e-16
0.259975,0.78,0.0727722,0.01,-40.7997,304.2,-665.637,665.649,499.173,-1.2541e-08,1.25412e-08,9.4047e-09,832.024,-832.012,2.46443e-05,1.56758e-08,-1.56756e-08,4.64314e-16
0.269975,0.78,0.075468,0.01,-38.6037,304.2,-648.901,648.911,510.34,-1.22257e-08,1.22258e-08,9.61511e-09,825.551,-825.541,2.33604e-05,1.55538e-08,-1.55537e-08,4.40124e-16
0.279975,0.78,0.0793414,0.01,-36.3427,304.2,-631.994,632.002,520.802,-1.19072e-08,1.19072e-08,9.8122e-09,818.939,-818.932,2.17628e-05,1.54293e-08,-1.54292e-08,4.10023e-16
0.289975,0.78,0.0822698,0.01,-34.0186,304.2,-614.95,614.955,530.561,-1.1586e-08,1.15861e-08,9.99607e-09,812.198,-812.192,2.02027e-05,1.53023e-08,-1.53022e-08,3.80631e-16
0.299975,0.78,0.0859787,0.01,-31.633,304.2,-597.802,597.806,539.624,-1.1263e-08,1.1263e-08,1.01668e-08,805.336,-805.332,1.86358e-05,1.5173e-08,-1.51729e-08,3.51108e-16
0.309975,0.78,0.0896149,0.01,-29.1876,304.2,-580.584,580.586,547.999,-1.09385e-08,1.09386e-08,1.03246e-08,798.363,-798.361,1.70777e-05,1.50416e-08,-1.50416e-08,3.21754e-16
0.319975,0.78,0.0931823,0.01,-26.6841,304.2,-563.326,563.327,555.695,-1.06134e-08,1.06134e-08,1.04696e-08,791.286,-791.286,1.55477e-05,1.49083e-08,-1.49083e-08,2.92927e-16
0.329975,0.78,0.0974989,0.01,-24.1243,304.2,-546.059,546.058,562.724,-1.02881e-08,1.02881e-08,1.0602e-08,784.115,-784.117,1.40563e-05,1.47732e-08,-1.47732e-08,2.64829e-16
0.339975,0.78,0.100947,0.01,-21.5099,304.2,-528.812,528.809,569.097,-9.96311e-09,9.96308e-09,1.07221e-08,776.859,-776.861,1.26138e-05,1.46365e-08,-1.46365e-08,2.37652e-16
0.349975,0.78,0.105235,0.01,-18.8426,304.2,-511.611,511.607,574.828,-9.63904e-09,9.63899e-09,1.08301e-08,769.524,-769.529,1.12303e-05,1.44983e-08,-1.44983e-08,2.11585e-16
0.359975,0.78,0.109266,0.01,-16.1242,304.2,-494.484,494.479,579.931,-9.31634e-09,9.31629e-09,1.09262e-08,762.121,-762.126,9.91366e-06,1.43588e-08,-1.43589e-08,1.86779e-16
0.369975,0.78,0.113401,0.01,-13.3563,304.2,-477.455,477.448,584.423,-8.99549e-09,8.99542e-09,1.10109e-08,754.656,-754.663,8.66843e-06,1.42182e-08,-1.42183e-08,1.63318e-16
0.379975,0.78,0.118134,0.01,-10.5406,304.2,-460.546,460.538,588.32,-8.67692e-09,8.67684e-09,1.10843e-08,747.137,-747.145,7.49871e-06,1.40765e-08,-1.40766e-08,1.4128e-16
0.389975,0.78,0.122136,0.01,-7.67894,304.2,-443.781,443.771,591.639,-8.36105e-09,8.36095e-09,1.11468e-08,739.572,-739.581,6.40912e-06,1.3934e-08,-1.39341e-08,1.20752e-16
0.399975,0.78,0.126802,0.01,-4.77286,304.2,-427.178,427.168,594.397,-8.04824e-09,8.04814e-09,1.11988e-08,731.968,-731.978,5.4011e-06,1.37907e-08,-1.37909e-08,1.0176e-16
0.409975,0.78,0.131434,0.01,-1.82407,304.2,-410.758,410.746,596.614,-7.73887e-09,7.73875e-09,1.12405e-08,724.332,-724.344,4.47415e-06,1.36469e-08,-1.3647e-08,8.42957e-17
0.419975,0.78,0.135949,0.01,1.1658,304.2,-394.537,394.525,598.308,-7.43325e-09,7.43313e-09,1.12725e-08,716.671,-716.684,3.62854e-06,1.35026e-08,-1.35027e-08,6.83637e-17
0.429975,0.78,0.141029,0.01,4.19513,304.2,-378.532,378.519,599.498,-7.13171e-09,7.13157e-09,1.12949e-08,708.992,-709.005,2.86311e-06,1.33579e-08,-1.3358e-08,5.39426e-17
0.439975,0.78,0.145671,0.01,7.26231,304.2,-362.757,362.743,600.204,-6.8345e-09,6.83436e-09,1.13082e-08,701.301,-701.315,2.1759e-06,1.3213e-08,-1.32131e-08,4.09952e-17
0.449975,0.78,0.150591,0.01,10.3658,304.2,-347.226,347.212,600.446,-6.54188e-09,6.54173e-09,1.13127e-08,693.604,-693.618,1.56389e-06,1.3068e-08,-1.30681e-08,2.94646e-17
0.459975,0.78,0.155959,0.01,13.5039,304.2,-331.951,331.936,600.242,-6.25409e-09,6.25393e-09,1.13089e-08,685.906,-685.921,1.02333e-06,1.29229e-08,-1.29231e-08,1.92801e-17
0.469975,0.78,0.160739,0.01,16.6753,304.2,-316.943,316.927,599.614,-5.97132e-09,5.97116e-09,1.12971e-08,678.214,-678.23,5.51353e-07,1.2778e-08,-1.27782e-08,1.03878e-17
0.479975,0.78,0.165984,0.01,19.8784,304.2,-302.211,302.195,598.58,-5.69376e-09,5.69359e-09,1.12776e-08,670.533,-670.549,1.44043e-07,1.26333e-08,-1.26335e-08,2.71385e-18
0.489975,0.78,0.171462,0.01,23.1117,304.2,-287.763,287.747,597.161,-5.42156e-09,5.42139e-09,1.12509e-08,662.867,-662.884,-2.03701e-07,1.24889e-08,-1.2489e-08,-3.83785e-18
0.499975,0.78,0.176563,0.01,26.3738,304.2,-273.608,273.591,595.374,-5.15486e-09,5.15468e-09,1.12172e-08,655.222,-655.239,-4.95913e-07,1.23448e-08,-1.2345e-08,-9.34328e-18
0.509975,0.78,0.182071,0.01,29.6632,304.2,-259.751,259.733,593.24,-4.89378e-09,4.8936e-09,1.1177e-08,647.602,-647.62,-7.36659e-07,1.22013e-08,-1.22015e-08,-1.38791e-17
0.519975,0.78,0.187725,0.01,32.9786,304.2,-246.197,246.179,590.777,-4.63841e-09,4.63823e-09,1.11306e-08,640.012,-640.029,-9.30565e-07,1.20583e-08,-1.20584e-08,-1.75324e-17
0.529975,0.78,0.193089,0.01,36.3187,304.2,-232.95,232.932,588.004,-4.38884e-09,4.38866e-09,1.10783e-08,632.455,-632.473,-1.08232e-06,1.19159e-08,-1.19161e-08,-2.03916e-17
0.539975,0.78,0.198811,0.01,39.682,304.2,-220.015,219.997,584.939,-4.14513e-09,4.14495e-09,1.10206e-08,624.936,-624.954,-1.19568e-06,1.17742e-08,-1.17744e-08,-2.25272e-17
0.549975,0.78,0.204695,0.01,43.0673,304.2,-207.393,207.374,581.599,-3.90732e-09,3.90713e-09,1.09577e-08,617.458,-617.476,-1.275e-06,1.16333e-08,-1.16335e-08,-2.40217e-17
0.559975,0.78,0.210276,0.01,46.4734,304.2,-195.085,195.067,578.001,-3.67544e-09,3.67526e-09,1.08899e-08,610.024,-610.042,-1.32501e-06,1.14933e-08,-1.14935e-08,-2.49639e-17
0.569975,0.78,0.216175,0.01,49.899,304.2,-183.101,183.077,574.167,-3.44962e-09,3.44938e-09,1.08176e-08,602.64,-602.663,0.00337545,1.13542e-08,-1.13544e-08,6.35955e-14
0.579975,0.78,0.222333,0.01,53.3429,304.2,-171.577,171.127,570.576,-3.23066e-09,3.2261e-09,1.075e-08,595.525,-595.975,-0.190531,1.1222e-08,-1.12266e-08,-3.58972e-12
0.589975,0.78,0.228095,0.01,56.8039,304.2,-162.037,159.32,568.192,-3.04105e-09,3.01349e-09,1.07051e-08,589.116,-591.832,-0.0364317,1.11111e-08,-1.11386e-08,-6.86394e-13
0.599975,0.78,0.234143,0.01,60.281,304.2,-154.504,147.443,566.879,-2.88025e-09,2.80861e-09,1.06803e-08,583.108,-590.169,0.491293,1.10168e-08,-1.10884e-08,9.25625e-12
0.609975,0.78,0.240454,0.01,63.7729,304.2,-147.279,132.671,566.505,-2.71131e-09,2.56311e-09,1.06733e-08,576.237,-590.846,-0.701431,1.09202e-08,-1.10684e-08,-1.32154e-11
-0.600025,0.79,0.242111,0.01,64.8208,312.05,-160.321,153.361,-558.781,-2.99028e-09,2.91968e-09,-1.05278e-08,576.894,-583.854,-1.15242,1.08993e-08,-1.09699e-08,-2.17123e-11
-0.590025,0.79,0.236266,0.01,61.3995,312.05,-167.157,162.616,-560.301,-3.12959e-09,3.08352e-09,-1.05564e-08,581.787,-586.329,0.939196,1.0981e-08,-1.1027e-08,1.7695e-11
-0.580025,0.79,0.230226,0.01,57.9946,312.05,-177.779,174.812,-561.062,-3.33656e-09,3.30646e-09,-1.05707e-08,586.624,-589.591,-0.169526,1.10652e-08,-1.10953e-08,-3.19397e-12
-0.570025,0.79,0.224248,0.01,54.6072,312.05,-188.684,186.682,-564.083,-3.5462e-09,3.5259e-09,-1.06277e-08,593.486,-595.487,-0.291687,1.11903e-08,-1.12106e-08,-5.49556e-12
-0.560025,0.79,0.218564,0.01,51.2385,312.05,-198.839,198.336,-566.423,-3.74405e-09,3.73895e-09,-1.06717e-08,599.975,-600.478,0.149874,1.13061e-08,-1.13112e-08,2.8237e-12
-0.550025,0.79,0.212824,0.01,47.8897,312.05,-210.648,210.631,-569.247,-3.96866e-09,3.96849e-09,-1.07249e-08,606.96,-606.977,1.13376e-06,1.14356e-08,-1.14357e-08,2.13607e-17
-0.540025,0.79,0.207003,0.01,44.562,312.05,-223.004,222.987,-572.282,-4.20145e-09,4.20128e-09,-1.07821e-08,614.185,-614.202,1.04002e-06,1.15717e-08,-1.15718e-08,1.95945e-17
-0.530025,0.79,0.201511,0.01,41.2566,312.05,-235.656,235.639,-575.045,-4.43982e-09,4.43965e-09,-1.08342e-08,621.447,-621.464,9.12894e-07,1.17085e-08,-1.17087e-08,1.71994e-17
-0.520025,0.79,0.196032,0.01,37.9747,312.05,-248.601,248.585,-577.519,-4.68372e-09,4.68355e-09,-1.08808e-08,628.742,-628.759,7.49462e-07,1.18459e-08,-1.18461e-08,1.41203e-17
-0.510025,0.79,0.1904,0.01,34.7177,312.05,-261.836,261.82,-579.687,-4.93308e-09,4.93291e-09,-1.09216e-08,636.067,-636.083,5.44411e-07,1.19839e-08,-1.19841e-08,1.0257e-17
-0.500025,0.79,0.185138,0.01,31.4869,312.05,-275.357,275.341,-581.531,-5.18781e-09,5.18765e-09,-1.09564e-08,643.417,-643.433,2.94714e-07,1.21224e-08,-1.21226e-08,5.55258e-18
-0.490025,0.79,0.179875,0.01,28.2836,312.05,-289.157,289.141,-583.033,-5.44782e-09,5.44766e-09,-1.09847e-08,650.788,-650.804,-3.33478e-09,1.22613e-08,-1.22614e-08,-6.28277e-20
-0.480025,0.79,0.174471,0.01,25.1092,312.05,-303.23,303.215,-584.176,-5.71297e-09,5.71282e-09,-1.10062e-08,658.176,-658.191,-3.54566e-07,1.24005e-08,-1.24006e-08,-6.68022e-18
-0.470025,0.79,0.169486,0.01,21.9652,312.05,-317.57,317.555,-584.941,-5.98314e-09,5.98299e-09,-1.10206e-08,665.576,-665.591,-7.61571e-07,1.25399e-08,-1.25401e-08,-1.43484e-17
-0.460025,0.79,0.164384,0.01,18.8529,312.05,-332.166,332.152,-585.309,-6.25815e-09,6.258e-09,-1.10276e-08,672.983,-672.998,-1.22867e-06,1.26795e-08,-1.26796e-08,-2.31489e-17
-0.450025,0.79,0.159258,0.01,15.7738,312.05,-347.011,346.997,-585.262,-6.53783e-09,6.53769e-09,-1.10267e-08,680.393,-680.406,-1.76041e-06,1.28191e-08,-1.28192e-08,-3.31672e-17
-0.440025,0.79,0.15461,0.01,12.7294,312.05,-362.092,362.079,-584.782,-6.82197e-09,6.82183e-09,-1.10176e-08,687.799,-687.812,-2.35868e-06,1.29586e-08,-1.29587e-08,-4.4439e-17
-0.430025,0.79,0.149602,0.01,9.72128,312.05,-377.398,377.386,-583.851,-7.11034e-09,7.11022e-09,-1.10001e-08,695.196,-695.208,-3.02604e-06,1.3098e-08,-1.30981e-08,-5.70123e-17
-0.420025,0.79,0.144819,0.01,6.75086,312.05,-392.915,392.904,-582.449,-7.4027e-09,7.40259e-09,-1.09737e-08,702.579,-702.59,-3.76496e-06,1.3237e-08,-1.32372e-08,-7.09341e-17
-0.410025,0.79,0.140526,0.01,3.81974,312.05,-408.63,408.619,-580.559,-7.69878e-09,7.69867e-09,-1.09381e-08,709.941,-709.951,-4.57704e-06,1.33757e-08,-1.33758e-08,-8.6234e-17
-0.400025,0.79,0.135591,0.01,0.929478,312.05,-424.526,424.516,-578.163,-7.99827e-09,7.99817e-09,-1.08929e-08,717.275,-717.285,-5.46274e-06,1.35139e-08,-1.3514e-08,-1.02921e-16
-0.390025,0.79,0.131234,0.01,-1.91833,312.05,-440.586,440.577,-575.243,-8.30086e-09,8.30077e-09,-1.08379e-08,724.576,-724.585,-6.42188e-06,1.36515e-08,-1.36516e-08,-1.20992e-16
-0.380025,0.79,0.126932,0.01,-4.72207,312.05,-456.792,456.784,-571.783,-8.60619e-09,8.60611e-09,-1.07727e-08,731.837,-731.845,-7.45372e-06,1.37883e-08,-1.37883e-08,-1.40432e-16
-0.370025,0.79,0.122434,0.01,-7.48014,312.05,-473.124,473.117,-567.765,-8.9139e-09,8.91383e-09,-1.0697e-08,739.051,-739.057,-8.55636e-06,1.39242e-08,-1.39242e-08,-1.61207e-16
-0.360025,0.79,0.118611,0.01,-10.1909,312.05,-489.56,489.556,-563.175,-9.22358e-09,9.22353e-09,-1.06105e-08,746.21,-746.215,-9.72609e-06,1.4059e-08,-1.40591e-08,-1.83245e-16
-0.350025,0.79,0.114192,0.01,-12.8527,312.05,-506.08,506.076,-557.996,-9.53482e-09,9.53479e-09,-1.0513e-08,753.307,-753.311,-1.09584e-05,1.41928e-08,-1.41928e-08,-2.06463e-16
-0.340025,0.79,0.110248,0.01,-15.4639,312.05,-522.658,522.656,-552.215,-9.84717e-09,9.84715e-09,-1.0404e-08,760.335,-760.337,-1.2248e-05,1.43252e-08,-1.43252e-08,-2.3076e-16
-0.330025,0.79,0.106513,0.01,-18.0228,312.05,-539.27,539.269,-545.818,-1.01602e-08,1.01601e-08,-1.02835e-08,767.286,-767.287,-1.35871e-05,1.44561e-08,-1.44561e-08,-2.5599e-16
-0.320025,0.79,0.10243,0.01,-20.5278,312.05,-555.889,555.89,-538.793,-1.04733e-08,1.04733e-08,-1.01512e-08,774.152,-774.151,-1.49671e-05,1.45855e-08,-1.45855e-08,-2.81989e-16
-0.310025,0.79,0.0991903,0.01,-22.9772,312.05,-572.488,572.491,-531.129,-1.0786e-08,1.07861e-08,-1.00068e-08,780.925,-780.923,-1.6378e-05,1.47131e-08,-1.4713e-08,-3.08572e-16
-0.300025,0.79,0.0951612,0.01,-25.3694,312.05,-589.039,589.043,-522.817,-1.10978e-08,1.10979e-08,-9.85017e-09,787.598,-787.593,-1.7808e-05,1.48388e-08,-1.48387e-08,-3.35513e-16
-0.290025,0.79,0.0918186,0.01,-27.7026,312.05,-605.51,605.517,-513.847,-1.14082e-08,1.14083e-08,-9.68118e-09,794.16,-794.154,-1.92431e-05,1.49624e-08,-1.49623e-08,-3.62551e-16
-0.280025,0.79,0.0884466,0.01,-29.9753,312.05,-621.873,621.881,-504.214,-1.17165e-08,1.17166e-08,-9.49969e-09,800.605,-800.597,-2.06718e-05,1.50838e-08,-1.50838e-08,-3.89468e-16
-0.270025,0.79,0.0849834,0.01,-32.1858,312.05,-638.093,638.103,-493.912,-1.20221e-08,1.20222e-08,-9.30559e-09,806.924,-806.914,-2.20731e-05,1.52029e-08,-1.52028e-08,-4.1587e-16
-0.260025,0.79,0.0822891,0.01,-34.3325,312.05,-654.14,654.152,-482.938,-1.23244e-08,1.23245e-08,-9.09883e-09,813.109,-813.097,-2.34327e-05,1.53194e-08,-1.53193e-08,-4.41485e-16
-0.250025,0.79,0.0786877,0.01,-36.4138,312.05,-669.979,669.992,-471.29,-1.26228e-08,1.2623e-08,-8.87938e-09,819.15,-819.136,-2.47626e-05,1.54332e-08,-1.54331e-08,-4.66542e-16
-0.240025,0.79,0.0762366,0.01,-38.4281,312.05,-685.575,685.591,-458.968,-1.29167e-08,1.29169e-08,-8.64723e-09,825.039,-825.023,-2.58813e-05,1.55441e-08,-1.5544e-08,-4.87618e-16
-0.230025,0.79,0.0729342,0.01,-40.3739,312.05,-700.895,700.913,-445.976,-1.32054e-08,1.32055e-08,-8.40244e-09,830.768,-830.75,-2.7333e-05,1.56521e-08,-1.56519e-08,-5.1497e-16
-0.220025,0.79,0.0704086,0.01,-42.2495,312.05,-715.903,715.923,-432.316,-1.34881e-08,1.34883e-08,-8.14508e-09,836.329,-836.309,-2.75323e-05,1.57568e-08,-1.57566e-08,-5.18724e-16
-0.210025,0.79,0.0677249,0.01,-44.0536,312.05,-730.564,730.586,-417.996,-1.37643e-08,1.37646e-08,-7.87529e-09,841.712,-841.69,-3.01785e-05,1.58583e-08,-1.5858e-08,-5.6858e-16
-0.200025,0.79,0.0651105,0.01,-45.7846,312.05,-744.842,744.866,-403.025,-1.40334e-08,1.40336e-08,-7.59323e-09,846.91,-846.886,-2.755e-05,1.59562e-08,-1.59559e-08,-5.19058e-16
-0.190025,0.79,0.0630604,0.01,-47.4412,312.05,-758.701,758.727,-387.414,-1.42945e-08,1.42947e-08,-7.2991e-09,851.915,-851.889,-3.35479e-05,1.60505e-08,-1.60502e-08,-6.32063e-16
-0.180025,0.79,0.0603443,0.01,-49.0218,312.05,-772.106,772.134,-371.176,-1.4547e-08,1.45473e-08,-6.99316e-09,856.718,-856.689,-2.676e-05,1.61409e-08,-1.61406e-08,-5.04174e-16
-0.170025,0.79,0.0589401,0.01,-50.5253,312.05,-785.022,785.052,-354.326,-1.47904e-08,1.47907e-08,-6.67571e-09,861.311,-861.281,-3.27773e-05,1.62275e-08,-1.62272e-08,-6.17543e-16
-0.160025,0.79,0.0561113,0.01,-51.9502,312.05,-797.415,797.447,-336.883,-1.50239e-08,1.50242e-08,-6.34707e-09,865.687,-865.655,-3.66918e-05,1.63099e-08,-1.63096e-08,-6.91295e-16
-0.150025,0.79,0.0549819,0.01,-53.2955,312.05,-809.251,809.285,-318.867,-1.52469e-08,1.52472e-08,-6.00765e-09,869.839,-869.805,-4.00499e-06,1.63881e-08,-1.63878e-08,-7.54564e-17
-0.140025,0.79,0.0524122,0.01,-54.5597,312.05,-820.497,820.532,-300.301,-1.54588e-08,1.54591e-08,-5.65785e-09,873.759,-873.724,-9.8541e-05,1.6462e-08,-1.64616e-08,-1.85657e-15
-0.130025,0.79,0.0512756,0.01,-55.742,312.05,-831.12,831.157,-281.209,-1.56589e-08,1.56593e-08,-5.29815e-09,877.441,-877.403,0.00011576,1.65313e-08,-1.6531e-08,2.18099e-15
-0.120025,0.79,0.0492472,0.01,-56.8411,312.05,-841.092,841.131,-261.619,-1.58468e-08,1.58472e-08,-4.92905e-09,880.879,-880.84,-0.000296435,1.65961e-08,-1.65957e-08,-5.58501e-15
-0.110025,0.79,0.0480958,0.01,-57.8562,312.05,-850.38,850.421,-241.56,-1.60218e-08,1.60222e-08,-4.55113e-09,884.064,-884.022,0.000423454,1.66561e-08,-1.66557e-08,7.97812e-15
-0.100025,0.79,0.0466154,0.01,-58.7862,312.05,-858.964,859.005,-221.062,-1.61836e-08,1.6184e-08,-4.16493e-09,886.994,-886.953,-0.000721179,1.67113e-08,-1.67109e-08,-1.35874e-14
-0.0900249,0.79,0.0454438,0.01,-59.6303,312.05,-866.804,866.85,-200.16,-1.63313e-08,1.63318e-08,-3.77112e-09,889.659,-889.613,0.000972527,1.67615e-08,-1.6761e-08,1.8323e-14
-0.0800249,0.79,0.0445149,0.01,-60.3877,312.05,-873.9,873.942,-178.886,-1.6465e-08,1.64654e-08,-3.37031e-09,892.063,-892.021,-0.0013536,1.68068e-08,-1.68064e-08,-2.55026e-14
-0.0700249,0.79,0.0433206,0.01,-61.0578,312.05,-880.194,880.245,-157.281,-1.65836e-08,1.65841e-08,-2.96327e-09,894.186,-894.136,0.00163396,1.68468e-08,-1.68463e-08,3.07848e-14
-0.0600249,0.79,0.042943,0.01,-61.6398,312.05,-885.719,885.76,-135.378,-1.66876e-08,1.66881e-08,-2.5506e-09,896.046,-896.005,-0.00193918,1.68819e-08,-1.68814e-08,-3.65353e-14
-0.0500249,0.79,0.0417272,0.01,-62.1333,312.05,-890.386,890.441,-113.223,-1.67756e-08,1.67762e-08,-2.13318e-09,897.611,-897.556,0.00203621,1.69113e-08,-1.69107e-08,3.83634e-14
-0.0400249,0.79,0.041896,0.01,-62.5377,312.05,-894.273,894.313,-90.8487,-1.68488e-08,1.68492e-08,-1.71164e-09,898.915,-898.875,-0.0020365,1.69359e-08,-1.69355e-08,-3.83689e-14
-0.0300249,0.79,0.0406645,0.01,-62.8527,312.05,-897.253,897.312,-68.3049,-1.6905e-08,1.69056e-08,-1.2869e-09,899.908,-899.849,0.00175626,1.69545e-08,-1.69539e-08,3.3089e-14
-0.0200249,0.79,0.0413702,0.01,-63.078,312.05,-899.452,899.49,-45.6274,-1.69464e-08,1.69468e-08,-8.59648e-10,900.647,-900.608,-0.00133295,1.69685e-08,-1.69682e-08,-2.51135e-14
-0.0100249,0.79,0.0401329,0.01,-63.2133,312.05,-900.71,900.771,-22.8646,-1.69702e-08,1.69708e-08,-4.30783e-10,901.061,-901,0.000699092,1.69762e-08,-1.69756e-08,1.31713e-14
-2.48653e-05,0.79,0.0413498,0.01,-63.2586,312.05,-901.189,901.227,-0.0567331,-1.69791e-08,1.69795e-08,-1.06888e-12,901.227,-901.189,2.0133e-06,1.69795e-08,-1.69791e-08,3.79317e-17
0.00997513,0.79,0.0401329,0.01,-63.2138,312.05,-900.714,900.775,22.7513,-1.69702e-08,1.69709e-08,4.28648e-10,901.063,-901.002,-0.000702866,1.69763e-08,-1.69757e-08,-1.32424e-14
0.0199751,0.79,0.0413582,0.01,-63.0789,312.05,-899.46,899.499,45.5144,-1.69465e-08,1.69469e-08,8.57518e-10,900.65,-900.611,0.00133522,1.69686e-08,-1.69682e-08,2.51563e-14
0.0299751,0.79,0.0406644,0.01,-62.854,312.05,-897.266,897.325,68.1925,-1.69053e-08,1.69059e-08,1.28479e-09,899.912,-899.854,-0.00175686,1.69546e-08,-1.6954e-08,-3.31003e-14
0.0399751,0.79,0.0418841,0.01,-62.5395,312.05,-894.29,894.33,90.737,-1.68491e-08,1.68495e-08,1.70954e-09,898.921,-898.881,0.00203472,1.6936e-08,-1.69356e-08,3.83352e-14
0.0499751,0.79,0.0417271,0.01,-62.1355,312.05,-890.407,890.462,113.112,-1.6776e-08,1.67766e-08,2.13109e-09,897.618,-897.563,-0.00203256,1.69114e-08,-1.69108e-08,-3.82946e-14
0.0599751,0.79,0.0429312,0.01,-61.6425,312.05,-885.744,885.786,135.269,-1.66881e-08,1.66885e-08,2.54854e-09,896.055,-896.014,0.00193365,1.6882e-08,-1.68816e-08,3.64312e-14
0.0699751,0.79,0.0433204,0.01,-61.0609,312.05,-880.224,880.274,157.173,-1.65841e-08,1.65847e-08,2.96123e-09,894.196,-894.146,-0.00162752,1.6847e-08,-1.68464e-08,-3.06634e-14
0.0799751,0.79,0.0445035,0.01,-60.3913,312.05,-873.934,873.975,178.779,-1.64656e-08,1.6466e-08,3.3683e-09,892.074,-892.032,0.00134664,1.6807e-08,-1.68066e-08,2.53715e-14
0.0899751,0.79,0.0454434,0.01,-59.6343,312.05,-866.841,866.887,200.055,-1.6332e-08,1.63325e-08,3.76915e-09,889.672,-889.626,-0.000965896,1.67617e-08,-1.67613e-08,-1.8198e-14
0.0999751,0.79,0.0466044,0.01,-58.7906,312.05,-859.005,859.046,220.959,-1.61843e-08,1.61847e-08,4.16299e-09,887.008,-886.967,0.000715215,1.67116e-08,-1.67112e-08,1.34751e-14
0.109975,0.79,0.0480952,0.01,-57.861,312.05,-850.424,850.466,241.459,-1.60227e-08,1.60231e-08,4.54923e-09,884.079,-884.037,-0.000418541,1.66564e-08,-1.6656e-08,-7.88556e-15
0.119975,0.79,0.0492366,0.01,-56.8464,312.05,-841.14,841.179,261.52,-1.58477e-08,1.58481e-08,4.9272e-09,880.895,-880.856,0.000292606,1.65964e-08,-1.6596e-08,5.51286e-15
0.129975,0.79,0.0512748,0.01,-55.7477,312.05,-831.171,831.209,281.113,-1.56599e-08,1.56603e-08,5.29634e-09,877.459,-877.421,-0.000112993,1.65317e-08,-1.65313e-08,-2.12886e-15
0.139975,0.79,0.0524019,0.01,-54.5658,312.05,-820.551,820.587,300.207,-1.54598e-08,1.54602e-08,5.65608e-09,873.778,-873.743,9.665e-05,1.64623e-08,-1.6462e-08,1.82094e-15
0.149975,0.79,0.0549808,0.01,-53.3019,312.05,-809.308,809.342,318.776,-1.5248e-08,1.52483e-08,6.00593e-09,869.859,-869.825,5.20401e-06,1.63885e-08,-1.63882e-08,9.80466e-17
0.159975,0.79,0.0561013,0.01,-51.9571,312.05,-797.475,797.507,336.795,-1.5025e-08,1.50254e-08,6.34541e-09,865.709,-865.677,3.59755e-05,1.63103e-08,-1.631e-08,6.77799e-16
0.169975,0.79,0.0589222,0.01,-50.5326,312.05,-785.085,785.115,354.241,-1.47916e-08,1.47919e-08,6.6741e-09,861.333,-861.303,3.31734e-05,1.62279e-08,-1.62276e-08,6.25007e-16
0.179975,0.79,0.0603346,0.01,-49.0295,312.05,-772.172,772.2,371.093,-1.45483e-08,1.45486e-08,6.99161e-09,856.741,-856.713,2.65585e-05,1.61414e-08,-1.61411e-08,5.00378e-16
0.189975,0.79,0.0630432,0.01,-47.4492,312.05,-758.769,758.795,387.335,-1.42958e-08,1.4296e-08,7.29761e-09,851.939,-851.913,3.36459e-05,1.60509e-08,-1.60506e-08,6.33908e-16
0.199975,0.79,0.0651011,0.01,-45.793,312.05,-744.912,744.936,402.949,-1.40347e-08,1.40349e-08,7.5918e-09,846.936,-846.912,2.75137e-05,1.59567e-08,-1.59564e-08,5.18374e-16
0.209975,0.79,0.0677085,0.01,-44.0624,312.05,-730.636,730.658,417.923,-1.37657e-08,1.37659e-08,7.87392e-09,841.739,-841.717,3.01974e-05,1.58587e-08,-1.58585e-08,5.68936e-16
0.219975,0.79,0.0703993,0.01,-42.2587,312.05,-715.977,715.997,432.246,-1.34895e-08,1.34897e-08,8.14377e-09,836.356,-836.336,2.75329e-05,1.57573e-08,-1.57571e-08,5.18735e-16
0.229975,0.79,0.0729185,0.01,-40.3834,312.05,-700.971,700.989,445.909,-1.32068e-08,1.3207e-08,8.40119e-09,830.796,-830.778,2.73392e-05,1.56526e-08,-1.56524e-08,5.15086e-16
0.239975,0.79,0.0762275,0.01,-38.438,312.05,-685.652,685.668,458.905,-1.29182e-08,1.29183e-08,8.64604e-09,825.068,-825.052,2.58871e-05,1.55447e-08,-1.55445e-08,4.87729e-16
0.249975,0.79,0.0786726,0.01,-36.424,312.05,-670.057,670.071,471.23,-1.26243e-08,1.26245e-08,8.87825e-09,819.179,-819.165,2.47683e-05,1.54338e-08,-1.54336e-08,4.66649e-16
0.259975,0.79,0.0822685,0.01,-34.3431,312.05,-654.219,654.231,482.882,-1.23259e-08,1.2326e-08,9.09777e-09,813.139,-813.127,2.34392e-05,1.532e-08,-1.53198e-08,4.41608e-16
0.269975,0.79,0.0849688,0.01,-32.1967,312.05,-638.174,638.184,493.859,-1.20236e-08,1.20237e-08,9.3046e-09,806.955,-806.945,2.208e-05,1.52035e-08,-1.52034e-08,4.15999e-16
0.279975,0.79,0.0884269,0.01,-29.9865,312.05,-621.954,621.962,504.165,-1.1718e-08,1.17181e-08,9.49875e-09,800.637,-800.629,2.06789e-05,1.50844e-08,-1.50843e-08,3.89602e-16
0.289975,0.79,0.0918044,0.01,-27.7141,312.05,-605.592,605.598,513.801,-1.14097e-08,1.14098e-08,9.68031e-09,794.193,-794.186,1.92501e-05,1.4963e-08,-1.4963e-08,3.62684e-16
0.299975,0.79,0.0951423,0.01,-25.3811,312.05,-589.121,589.125,522.774,-1.10994e-08,1.10994e-08,9.84936e-09,787.63,-787.626,1.7815e-05,1.48394e-08,-1.48393e-08,3.35644e-16
0.309975,0.79,0.0991764,0.01,-22.9892,312.05,-572.571,572.574,531.089,-1.07876e-08,1.07876e-08,1.0006e-08,780.959,-780.956,1.63853e-05,1.47137e-08,-1.47137e-08,3.08708e-16
0.319975,0.79,0.102411,0.01,-20.5401,312.05,-555.972,555.973,538.756,-1.04748e-08,1.04748e-08,1.01505e-08,774.186,-774.185,1.49745e-05,1.45861e-08,-1.45861e-08,2.82129e-16
0.329975,0.79,0.10649,0.01,-18.0354,312.05,-539.352,539.352,545.784,-1.01617e-08,1.01617e-08,1.02829e-08,767.321,-767.321,1.35941e-05,1.44568e-08,-1.44568e-08,2.56121e-16
0.339975,0.79,0.11023,0.01,-15.4767,312.05,-522.74,522.738,552.184,-9.84872e-09,9.8487e-09,1.04035e-08,760.37,-760.372,1.22543e-05,1.43258e-08,-1.43258e-08,2.30878e-16
0.349975,0.79,0.11417,0.01,-12.8658,312.05,-506.162,506.159,557.969,-9.53637e-09,9.53634e-09,1.05125e-08,753.342,-753.346,1.09645e-05,1.41934e-08,-1.41935e-08,2.06577e-16
0.359975,0.79,0.118594,0.01,-10.2043,312.05,-489.642,489.638,563.15,-9.22512e-09,9.22508e-09,1.06101e-08,746.245,-746.25,9.73231e-06,1.40597e-08,-1.40598e-08,1.83362e-16
0.369975,0.79,0.122414,0.01,-7.49374,312.05,-473.205,473.199,567.744,-8.91543e-09,8.91537e-09,1.06966e-08,739.087,-739.093,8.56218e-06,1.39248e-08,-1.39249e-08,1.61316e-16
0.379975,0.79,0.126908,0.01,-4.7359,312.05,-456.873,456.865,571.764,-8.60771e-09,8.60764e-09,1.07724e-08,731.873,-731.88,7.45877e-06,1.37889e-08,-1.3789e-08,1.40528e-16
0.389975,0.79,0.131214,0.01,-1.93238,312.05,-440.666,440.658,575.228,-8.30237e-09,8.30228e-09,1.08376e-08,724.613,-724.621,6.42664e-06,1.36522e-08,-1.36522e-08,1.21082e-16
0.399975,0.79,0.135568,0.01,0.915209,312.05,-424.605,424.596,578.15,-7.99977e-09,7.99967e-09,1.08927e-08,717.312,-717.321,5.46746e-06,1.35146e-08,-1.35147e-08,1.0301e-16
0.409975,0.79,0.1405,0.01,3.80526,312.05,-408.709,408.698,580.548,-7.70026e-09,7.70015e-09,1.09379e-08,709.977,-709.988,4.58114e-06,1.33764e-08,-1.33765e-08,8.63113e-17
0.419975,0.79,0.144797,0.01,6.73618,312.05,-392.993,392.982,582.441,-7.40417e-09,7.40405e-09,1.09735e-08,702.615,-702.627,3.76851e-06,1.32377e-08,-1.32378e-08,7.10009e-17
0.429975,0.79,0.149577,0.01,9.70641,312.05,-377.474,377.462,583.845,-7.11179e-09,7.11166e-09,1.1e-08,695.233,-695.245,3.02907e-06,1.30986e-08,-1.30988e-08,5.70695e-17
0.439975,0.79,0.154588,0.01,12.7144,312.05,-362.167,362.155,584.779,-6.82339e-09,6.82326e-09,1.10176e-08,687.836,-687.849,2.36155e-06,1.29593e-08,-1.29594e-08,4.44929e-17
0.449975,0.79,0.159234,0.01,15.7586,312.05,-347.085,347.072,585.261,-6.53923e-09,6.53909e-09,1.10267e-08,680.43,-680.443,1.76364e-06,1.28197e-08,-1.28199e-08,3.32281e-17
0.459975,0.79,0.164357,0.01,18.8375,312.05,-332.24,332.225,585.31,-6.25953e-09,6.25938e-09,1.10276e-08,673.02,-673.034,1.23172e-06,1.26802e-08,-1.26803e-08,2.32064e-17
0.469975,0.79,0.169462,0.01,21.9496,312.05,-317.642,317.627,584.943,-5.98449e-09,5.98434e-09,1.10207e-08,665.613,-665.628,7.63716e-07,1.25406e-08,-1.25407e-08,1.43889e-17
0.479975,0.79,0.174445,0.01,25.0935,312.05,-303.301,303.286,584.181,-5.7143e-09,5.71415e-09,1.10063e-08,658.213,-658.228,3.56464e-07,1.24012e-08,-1.24013e-08,6.716e-18
0.489975,0.79,0.179847,0.01,28.2677,312.05,-289.226,289.211,583.04,-5.44912e-09,5.44896e-09,1.09848e-08,650.825,-650.84,4.8957e-09,1.2262e-08,-1.22621e-08,9.22373e-20
0.499975,0.79,0.185113,0.01,31.4709,312.05,-275.425,275.409,581.539,-5.18909e-09,5.18893e-09,1.09565e-08,643.453,-643.469,-2.9403e-07,1.21231e-08,-1.21233e-08,-5.5397e-18
0.509975,0.79,0.190373,0.01,34.7015,312.05,-261.903,261.887,579.697,-4.93433e-09,4.93417e-09,1.09218e-08,636.103,-636.12,-5.43591e-07,1.19846e-08,-1.19848e-08,-1.02416e-17
0.519975,0.79,0.196003,0.01,37.9584,312.05,-248.666,248.65,577.531,-4.68495e-09,4.68478e-09,1.0881e-08,628.778,-628.795,-7.48454e-07,1.18466e-08,-1.18468e-08,-1.41013e-17
0.529975,0.79,0.201485,0.01,41.2402,312.05,-235.72,235.703,575.058,-4.44102e-09,4.44085e-09,1.08344e-08,621.483,-621.5,-9.12602e-07,1.17092e-08,-1.17093e-08,-1.71939e-17
0.539975,0.79,0.206975,0.01,44.5455,312.05,-223.066,223.049,572.297,-4.20262e-09,4.20245e-09,1.07824e-08,614.221,-614.238,-1.03935e-06,1.15724e-08,-1.15725e-08,-1.9582e-17
0.549975,0.79,0.212794,0.01,47.8731,312.05,-210.709,210.692,569.262,-3.9698e-09,3.96963e-09,1.07252e-08,606.996,-607.013,-1.13304e-06,1.14362e-08,-1.14364e-08,-2.13471e-17
0.559975,0.79,0.218537,0.01,51.2218,312.05,-198.898,198.395,566.44,-3.74517e-09,3.74006e-09,1.06721e-08,600.01,-600.513,-0.149913,1.13067e-08,-1.13118e-08,-2.82445e-12
0.569975,0.79,0.224219,0.01,54.5904,312.05,-188.742,186.74,564.101,-3.5473e-09,3.52699e-09,1.0628e-08,593.522,-595.523,0.291624,1.1191e-08,-1.12113e-08,5.49436e-12
0.579975,0.79,0.230195,0.01,57.9777,312.05,-177.836,174.868,561.081,-3.33763e-09,3.30752e-09,1.05711e-08,586.659,-589.627,0.169734,1.10659e-08,-1.1096e-08,3.19789e-12
0.589975,0.79,0.236237,0.01,61.3825,312.05,-167.213,162.671,560.321,-3.13064e-09,3.08456e-09,1.05568e-08,581.822,-586.364,-0.938981,1.09816e-08,-1.10277e-08,-1.76909e-11
0.599975,0.79,0.242081,0.01,64.8037,312.05,-160.375,153.416,558.802,-2.99131e-09,2.9207e-09,1.05282e-08,576.93,-583.889,1.15298,1.08999e-08,-1.09705e-08,2.17228e-11
-0.590025,0.8,0.244261,0.01,65.9613,320,-171.255,168.198,-552.013,-3.21326e-09,3.18225e-09,-1.04002e-08,575.987,-579.044,0.898079,1.08652e-08,-1.08962e-08,1.69203e-11
-0.580025,0.8,0.238215,0.01,62.6116,320,-186.744,177.141,-554.756,-3.47661e-09,3.37918e-09,-1.04519e-08,579.028,-588.631,-0.452503,1.0951e-08,-1.10484e-08,-8.52541e-12
-0.570025,0.8,0.232443,0.01,59.2797,320,-196.354,188.39,-556.759,-3.66479e-09,3.584e-09,-1.04897e-08,585.074,-593.038,-0.0330195,1.10578e-08,-1.11386e-08,-6.22106e-13
-0.560025,0.8,0.226827,0.01,55.9669,320,-203.857,201.03,-556.474,-3.82849e-09,3.79981e-09,-1.04843e-08,590.741,-593.568,0.231134,1.11422e-08,-1.11709e-08,4.35469e-12
-0.550025,0.8,0.220923,0.01,52.6742,320,-213.848,213.405,-557.617,-4.0271e-09,4.0226e-09,-1.05058e-08,596.915,-597.359,0.191564,1.12482e-08,-1.12527e-08,3.60919e-12
-0.540025,0.8,0.215321,0.01,49.4029,320,-225.769,225.746,-559.917,-4.25351e-09,4.25329e-09,-1.05492e-08,603.705,-603.728,-0.00347872,1.13743e-08,-1.13745e-08,-6.5541e-14
-0.530025,0.8,0.209993,0.01,46.1542,320,-238.133,238.117,-562.39,-4.48649e-09,4.48633e-09,-1.05958e-08,610.718,-610.734,7.50047e-07,1.15063e-08,-1.15065e-08,1.41313e-17
-0.520025,0.8,0.204257,0.01,42.9294,320,-250.782,250.767,-564.581,-4.72482e-09,4.72466e-09,-1.0637e-08,617.762,-617.778,5.76271e-07,1.16391e-08,-1.16392e-08,1.08573e-17
-0.510025,0.8,0.198858,0.01,39.7296,320,-263.705,263.689,-566.47,-4.96829e-09,4.96813e-09,-1.06726e-08,624.831,-624.847,3.62762e-07,1.17723e-08,-1.17724e-08,6.83464e-18
-0.500025,0.8,0.193779,0.01,36.5561,320,-276.895,276.88,-568.039,-5.2168e-09,5.21665e-09,-1.07022e-08,631.923,-631.938,1.06342e-07,1.19059e-08,-1.1906e-08,2.00355e-18
-0.490025,0.8,0.188243,0.01,33.4104,320,-290.348,290.333,-569.274,-5.47026e-09,5.47011e-09,-1.07254e-08,639.031,-639.046,-1.95963e-07,1.20398e-08,-1.20399e-08,-3.69206e-18
-0.480025,0.8,0.183086,0.01,30.2937,320,-304.057,304.042,-570.156,-5.72854e-09,5.7284e-09,-1.07421e-08,646.153,-646.168,-5.48533e-07,1.2174e-08,-1.21741e-08,-1.03347e-17
-0.470025,0.8,0.178209,0.01,27.2074,320,-318.013,317.999,-570.667,-5.99149e-09,5.99135e-09,-1.07517e-08,653.284,-653.298,-9.53977e-07,1.23083e-08,-1.23085e-08,-1.79735e-17
-0.460025,0.8,0.172915,0.01,24.1529,320,-332.209,332.196,-570.792,-6.25895e-09,6.25882e-09,-1.07541e-08,660.419,-660.432,-1.41541e-06,1.24427e-08,-1.24429e-08,-2.66672e-17
-0.450025,0.8,0.16805,0.01,21.1316,320,-346.635,346.622,-570.512,-6.53074e-09,6.53062e-09,-1.07488e-08,667.553,-667.565,-1.93684e-06,1.25771e-08,-1.25773e-08,-3.64911e-17
-0.440025,0.8,0.163319,0.01,18.145,320,-361.279,361.267,-569.81,-6.80666e-09,6.80654e-09,-1.07356e-08,674.681,-674.693,-2.51993e-06,1.27114e-08,-1.27115e-08,-4.74769e-17
-0.430025,0.8,0.158319,0.01,15.1945,320,-376.131,376.12,-568.669,-7.08647e-09,7.08636e-09,-1.07141e-08,681.797,-681.808,-3.16621e-06,1.28455e-08,-1.28456e-08,-5.96532e-17
-0.420025,0.8,0.153808,0.01,12.2817,320,-391.176,391.166,-567.072,-7.36994e-09,7.36984e-09,-1.0684e-08,688.896,-688.907,-3.87787e-06,1.29793e-08,-1.29794e-08,-7.30614e-17
-0.410025,0.8,0.149156,0.01,9.40791,320,-406.402,406.392,-565.001,-7.6568e-09,7.6567e-09,-1.06449e-08,695.973,-695.982,-4.65616e-06,1.31126e-08,-1.31127e-08,-8.77247e-17
-0.400025,0.8,0.144516,0.01,6.57481,320,-421.791,421.782,-562.441,-7.94675e-09,7.94666e-09,-1.05967e-08,703.02,-703.029,-5.50147e-06,1.32453e-08,-1.32454e-08,-1.03651e-16
-0.390025,0.8,0.140437,0.01,3.78388,320,-437.328,437.32,-559.374,-8.23948e-09,8.2394e-09,-1.05389e-08,710.033,-710.04,-6.41304e-06,1.33775e-08,-1.33775e-08,-1.20825e-16
-0.380025,0.8,0.135784,0.01,1.03669,320,-452.994,452.988,-555.785,-8.53465e-09,8.53459e-09,-1.04713e-08,717.003,-717.01,-7.38913e-06,1.35088e-08,-1.35089e-08,-1.39216e-16
-0.370025,0.8,0.131589,0.01,-1.6652,320,-468.772,468.766,-551.66,-8.83191e-09,8.83185e-09,-1.03936e-08,723.926,-723.931,-8.42812e-06,1.36392e-08,-1.36393e-08,-1.58791e-16
-0.360025,0.8,0.127614,0.01,-4.32021,320,-484.639,484.635,-546.982,-9.13086e-09,9.13082e-09,-1.03055e-08,730.794,-730.798,-9.52659e-06,1.37686e-08,-1.37686e-08,-1.79486e-16
-0.350025,0.8,0.123289,0.01,-6.92676,320,-500.574,500.572,-541.74,-9.4311e-09,9.43107e-09,-1.02067e-08,737.6,-737.602,-1.06793e-05,1.38968e-08,-1.38968e-08,-2.01204e-16
-0.340025,0.8,0.119645,0.01,-9.48325,320,-516.556,516.554,-535.918,-9.7322e-09,9.73219e-09,-1.0097e-08,744.336,-744.338,-1.18804e-05,1.40237e-08,-1.40237e-08,-2.23834e-16
-0.330025,0.8,0.115543,0.01,-11.9881,320,-532.559,532.559,-529.506,-1.00337e-08,1.00337e-08,-9.97621e-09,750.997,-750.996,-1.31231e-05,1.41492e-08,-1.41492e-08,-2.47247e-16
-0.320025,0.8,0.11179,0.01,-14.4397,320,-548.558,548.56,-522.493,-1.03352e-08,1.03352e-08,-9.84407e-09,757.573,-757.571,-1.43992e-05,1.42731e-08,-1.42731e-08,-2.7129e-16
-0.310025,0.8,0.108353,0.01,-16.8364,320,-564.527,564.53,-514.868,-1.0636e-08,1.06361e-08,-9.70041e-09,764.058,-764.055,-1.56996e-05,1.43953e-08,-1.43952e-08,-2.9579e-16
-0.300025,0.8,0.104477,0.01,-19.1767,320,-580.439,580.444,-506.623,-1.09358e-08,1.09359e-08,-9.54507e-09,770.444,-770.439,-1.7013e-05,1.45156e-08,-1.45155e-08,-3.20534e-16
-0.290025,0.8,0.101442,0.01,-21.4589,320,-596.266,596.272,-497.751,-1.1234e-08,1.12341e-08,-9.37791e-09,776.722,-776.716,-1.83263e-05,1.46339e-08,-1.46338e-08,-3.45278e-16
-0.280025,0.8,0.0977091,0.01,-23.6815,320,-611.977,611.985,-488.246,-1.153e-08,1.15301e-08,-9.19883e-09,782.886,-782.878,-1.96269e-05,1.475e-08,-1.47499e-08,-3.69782e-16
-0.270025,0.8,0.0945856,0.01,-25.8429,320,-627.543,627.553,-478.103,-1.18233e-08,1.18234e-08,-9.00774e-09,788.928,-788.918,-2.09002e-05,1.48638e-08,-1.48637e-08,-3.93772e-16
-0.260025,0.8,0.0914896,0.01,-27.9416,320,-642.933,642.945,-467.32,-1.21133e-08,1.21134e-08,-8.80458e-09,794.838,-794.826,-2.21327e-05,1.49752e-08,-1.4975e-08,-4.16993e-16
-0.250025,0.8,0.0882644,0.01,-29.9759,320,-658.114,658.128,-455.897,-1.23993e-08,1.23995e-08,-8.58936e-09,800.61,-800.596,-2.33045e-05,1.50839e-08,-1.50838e-08,-4.39071e-16
-0.240025,0.8,0.0858197,0.01,-31.9445,320,-673.055,673.071,-443.833,-1.26808e-08,1.2681e-08,-8.36207e-09,806.235,-806.219,-2.44013e-05,1.51899e-08,-1.51897e-08,-4.59735e-16
-0.230025,0.8,0.0824802,0.01,-33.8457,320,-687.723,687.741,-431.132,-1.29572e-08,1.29574e-08,-8.12278e-09,811.705,-811.687,-2.54141e-05,1.52929e-08,-1.52927e-08,-4.78816e-16
-0.220025,0.8,0.0802555,0.01,-35.6782,320,-702.085,702.105,-417.799,-1.32278e-08,1.3228e-08,-7.87158e-09,817.012,-816.993,-2.62718e-05,1.53929e-08,-1.53927e-08,-4.94976e-16
-0.210025,0.8,0.0772345,0.01,-37.4405,320,-716.107,716.129,-403.84,-1.3492e-08,1.34922e-08,-7.60858e-09,822.149,-822.128,-2.7145e-05,1.54897e-08,-1.54895e-08,-5.11427e-16
-0.200025,0.8,0.0749526,0.01,-39.1311,320,-729.756,729.78,-389.264,-1.37491e-08,1.37494e-08,-7.33397e-09,827.108,-827.084,-2.75124e-05,1.55831e-08,-1.55829e-08,-5.1835e-16
-0.190025,0.8,0.0725283,0.01,-40.7488,320,-742.999,743.024,-374.083,-1.39986e-08,1.39989e-08,-7.04793e-09,831.88,-831.855,-2.85108e-05,1.5673e-08,-1.56727e-08,-5.3716e-16
-0.180025,0.8,0.0701797,0.01,-42.2922,320,-755.802,755.829,-358.308,-1.42399e-08,1.42401e-08,-6.75073e-09,836.459,-836.432,-2.78122e-05,1.57593e-08,-1.5759e-08,-5.23998e-16
-0.170025,0.8,0.0683614,0.01,-43.76,320,-768.132,768.161,-341.956,-1.44722e-08,1.44725e-08,-6.44265e-09,840.837,-840.808,-2.95202e-05,1.58417e-08,-1.58414e-08,-5.56178e-16
-0.160025,0.8,0.065938,0.01,-45.151,320,-779.958,779.989,-325.044,-1.4695e-08,1.46953e-08,-6.12401e-09,845.008,-844.977,-2.71464e-05,1.59203e-08,-1.592e-08,-5.11455e-16
-0.150025,0.8,0.0647322,0.01,-46.464,320,-791.248,791.28,-307.59,-1.49077e-08,1.4908e-08,-5.79518e-09,848.963,-848.93,-2.94686e-05,1.59948e-08,-1.59945e-08,-5.55205e-16
-0.140025,0.8,0.0622286,0.01,-47.6979,320,-801.97,802.005,-289.618,-1.51097e-08,1.51101e-08,-5.45657e-09,852.697,-852.663,-2.6942e-05,1.60652e-08,-1.60648e-08,-5.07603e-16
-0.130025,0.8,0.0612743,0.01,-48.8516,320,-812.097,812.133,-271.151,-1.53005e-08,1.53009e-08,-5.10863e-09,856.203,-856.167,-2.54747e-05,1.61312e-08,-1.61308e-08,-4.79957e-16
-0.120025,0.8,0.0590519,0.01,-49.9241,320,-821.598,821.636,-252.213,-1.54795e-08,1.54799e-08,-4.75184e-09,859.475,-859.438,-3.14728e-05,1.61929e-08,-1.61925e-08,-5.92966e-16
-0.110025,0.8,0.0580952,0.01,-50.9144,320,-830.447,830.486,-232.834,-1.56463e-08,1.56467e-08,-4.38673e-09,862.508,-862.469,-1.18905e-05,1.625e-08,-1.62496e-08,-2.24025e-16
-0.100025,0.8,0.0564078,0.01,-51.8217,320,-838.619,838.659,-213.042,-1.58002e-08,1.58006e-08,-4.01384e-09,865.296,-865.256,-4.67648e-05,1.63025e-08,-1.63021e-08,-8.81077e-16
-0.0900249,0.8,0.0554435,0.01,-52.6451,320,-846.088,846.13,-192.87,-1.5941e-08,1.59414e-08,-3.63377e-09,867.834,-867.792,1.6046e-05,1.63503e-08,-1.63499e-08,3.02317e-16
-0.0800249,0.8,0.0542953,0.01,-53.384,320,-852.835,852.877,-172.349,-1.60681e-08,1.60685e-08,-3.24715e-09,870.118,-870.075,-7.41645e-05,1.63933e-08,-1.63929e-08,-1.3973e-15
-0.0700249,0.8,0.0533205,0.01,-54.0375,320,-858.836,858.88,-151.514,-1.61812e-08,1.61816e-08,-2.85462e-09,872.142,-872.098,5.37919e-05,1.64315e-08,-1.6431e-08,1.01347e-15
-0.0600249,0.8,0.0527128,0.01,-54.6052,320,-864.077,864.121,-130.403,-1.62799e-08,1.62803e-08,-2.45686e-09,873.905,-873.861,-0.000101992,1.64647e-08,-1.64642e-08,-1.92159e-15
-0.0500249,0.8,0.0517272,0.01,-55.0864,320,-868.537,868.583,-109.05,-1.63639e-08,1.63644e-08,-2.05457e-09,875.402,-875.356,8.22796e-05,1.64929e-08,-1.64924e-08,1.55019e-15
-0.0400249,0.8,0.0516581,0.01,-55.4809,320,-872.208,872.254,-87.4962,-1.64331e-08,1.64336e-08,-1.64848e-09,876.632,-876.586,-0.000106639,1.6516e-08,-1.65156e-08,-2.00914e-15
-0.0300249,0.8,0.0506645,0.01,-55.7881,320,-875.073,875.12,-65.7794,-1.64871e-08,1.64876e-08,-1.23932e-09,877.589,-877.542,7.73707e-05,1.65341e-08,-1.65336e-08,1.45771e-15
-0.0200249,0.8,0.0511288,0.01,-56.0078,320,-877.13,877.176,-43.9396,-1.65258e-08,1.65263e-08,-8.27848e-10,878.276,-878.23,-6.99438e-05,1.6547e-08,-1.65466e-08,-1.31778e-15
-0.0100249,0.8,0.0501329,0.01,-56.1397,320,-878.364,878.412,-22.0178,-1.65491e-08,1.65496e-08,-4.14828e-10,878.688,-878.64,3.18022e-05,1.65548e-08,-1.65543e-08,5.99173e-16
-2.48653e-05,0.8,0.0511123,0.01,-56.1839,320,-878.78,878.827,-0.0546294,-1.65569e-08,1.65574e-08,-1.02925e-12,878.827,-878.78,1.89924e-07,1.65574e-08,-1.65569e-08,3.57829e-18
0.00997513,0.8,0.0501329,0.01,-56.1402,320,-878.368,878.416,21.9086,-1.65492e-08,1.65497e-08,4.12771e-10,878.689,-878.641,-3.2163e-05,1.65548e-08,-1.65543e-08,-6.0597e-16
0.0199751,0.8,0.051119,0.01,-56.0086,320,-877.138,877.184,43.8308,-1.6526e-08,1.65265e-08,8.25797e-10,878.279,-878.232,7.01488e-05,1.65471e-08,-1.65466e-08,1.32164e-15
0.0299751,0.8,0.0506644,0.01,-55.7894,320,-875.086,875.133,65.6711,-1.64873e-08,1.64878e-08,1.23728e-09,877.593,-877.546,-7.74187e-05,1.65342e-08,-1.65337e-08,-1.45861e-15
0.0399751,0.8,0.0516485,0.01,-55.4826,320,-872.224,872.27,87.3886,-1.64334e-08,1.64339e-08,1.64645e-09,876.637,-876.591,0.000106455,1.65162e-08,-1.65157e-08,2.00568e-15
0.0499751,0.8,0.0517271,0.01,-55.0886,320,-868.557,868.603,108.944,-1.63643e-08,1.63648e-08,2.05256e-09,875.409,-875.363,-8.19349e-05,1.6493e-08,-1.64925e-08,-1.5437e-15
0.0599751,0.8,0.0527032,0.01,-54.6078,320,-864.101,864.145,130.297,-1.62804e-08,1.62808e-08,2.45487e-09,873.913,-873.869,0.000101483,1.64648e-08,-1.64644e-08,1.912e-15
0.0699751,0.8,0.0533203,0.01,-54.0405,320,-858.864,858.908,151.41,-1.61817e-08,1.61821e-08,2.85265e-09,872.152,-872.108,-5.32279e-05,1.64317e-08,-1.64312e-08,-1.00284e-15
0.0799751,0.8,0.0542859,0.01,-53.3874,320,-852.866,852.909,172.246,-1.60687e-08,1.60691e-08,3.24521e-09,870.128,-870.086,7.35686e-05,1.63935e-08,-1.63931e-08,1.38607e-15
0.0899751,0.8,0.0554432,0.01,-52.649,320,-846.124,846.165,192.768,-1.59416e-08,1.59421e-08,3.63187e-09,867.846,-867.804,-1.55109e-05,1.63505e-08,-1.63501e-08,-2.92234e-16
0.0999751,0.8,0.0563987,0.01,-51.826,320,-838.658,838.698,212.943,-1.5801e-08,1.58014e-08,4.01197e-09,865.309,-865.269,4.62937e-05,1.63028e-08,-1.63023e-08,8.722e-16
0.109975,0.8,0.0580947,0.01,-50.9191,320,-830.49,830.529,232.737,-1.56471e-08,1.56475e-08,4.38489e-09,862.523,-862.484,1.22511e-05,1.62503e-08,-1.62499e-08,2.30819e-16
0.119975,0.8,0.059043,0.01,-49.9292,320,-821.644,821.681,252.118,-1.54804e-08,1.54808e-08,4.75005e-09,859.491,-859.454,3.11978e-05,1.61931e-08,-1.61928e-08,5.87785e-16
0.129975,0.8,0.0612736,0.01,-48.8571,320,-812.146,812.182,271.058,-1.53014e-08,1.53018e-08,5.10688e-09,856.22,-856.184,2.56553e-05,1.61315e-08,-1.61312e-08,4.8336e-16
0.139975,0.8,0.0622199,0.01,-47.7038,320,-802.022,802.057,289.528,-1.51107e-08,1.51111e-08,5.45487e-09,852.715,-852.681,2.68205e-05,1.60655e-08,-1.60651e-08,5.05313e-16
0.149975,0.8,0.0647161,0.01,-46.4704,320,-791.302,791.335,307.502,-1.49087e-08,1.49091e-08,5.79352e-09,848.982,-848.95,2.95353e-05,1.59952e-08,-1.59948e-08,5.56463e-16
0.159975,0.8,0.0659295,0.01,-45.1577,320,-780.015,780.046,324.958,-1.46961e-08,1.46964e-08,6.1224e-09,845.028,-844.997,2.71082e-05,1.59207e-08,-1.59204e-08,5.10734e-16
0.169975,0.8,0.0683459,0.01,-43.7671,320,-768.192,768.221,341.873,-1.44733e-08,1.44736e-08,6.44109e-09,840.859,-840.83,2.95383e-05,1.58421e-08,-1.58418e-08,5.56519e-16
0.179975,0.8,0.0701713,0.01,-42.2997,320,-755.864,755.891,358.228,-1.4241e-08,1.42413e-08,6.74923e-09,836.481,-836.454,2.78048e-05,1.57597e-08,-1.57594e-08,5.23859e-16
0.189975,0.8,0.0725134,0.01,-40.7567,320,-743.063,743.089,374.006,-1.39999e-08,1.40001e-08,7.04648e-09,831.903,-831.878,2.85153e-05,1.56734e-08,-1.56732e-08,5.37246e-16
0.199975,0.8,0.0749444,0.01,-39.1393,320,-729.823,729.846,389.19,-1.37504e-08,1.37506e-08,7.33257e-09,827.132,-827.109,2.75148e-05,1.55835e-08,-1.55833e-08,5.18395e-16
0.209975,0.8,0.0772201,0.01,-37.449,320,-716.176,716.197,403.769,-1.34933e-08,1.34935e-08,7.60724e-09,822.174,-822.153,2.71489e-05,1.54901e-08,-1.54899e-08,5.11502e-16
0.219975,0.8,0.0802474,0.01,-35.6871,320,-702.156,702.175,417.731,-1.32291e-08,1.32293e-08,7.8703e-09,817.038,-817.019,2.62766e-05,1.53934e-08,-1.53932e-08,4.95066e-16
0.229975,0.8,0.0824663,0.01,-33.855,320,-687.796,687.813,431.067,-1.29585e-08,1.29587e-08,8.12156e-09,811.732,-811.714,2.54188e-05,1.52934e-08,-1.52932e-08,4.78905e-16
0.239975,0.8,0.0858005,0.01,-31.9541,320,-673.129,673.145,443.771,-1.26822e-08,1.26824e-08,8.36091e-09,806.262,-806.247,2.44064e-05,1.51904e-08,-1.51902e-08,4.59831e-16
0.249975,0.8,0.0882509,0.01,-29.9859,320,-658.189,658.203,455.838,-1.24007e-08,1.24009e-08,8.58826e-09,800.638,-800.624,2.33098e-05,1.50844e-08,-1.50843e-08,4.3917e-16
0.259975,0.8,0.0914711,0.01,-27.9518,320,-643.009,643.021,467.265,-1.21147e-08,1.21148e-08,8.80354e-09,794.867,-794.855,2.21387e-05,1.49757e-08,-1.49756e-08,4.17105e-16
0.269975,0.8,0.0945725,0.01,-25.8535,320,-627.62,627.63,478.051,-1.18248e-08,1.18249e-08,9.00675e-09,788.957,-788.947,2.09067e-05,1.48644e-08,-1.48643e-08,3.93894e-16
0.279975,0.8,0.0976913,0.01,-23.6924,320,-612.055,612.063,488.197,-1.15315e-08,1.15316e-08,9.19791e-09,782.917,-782.908,1.96334e-05,1.47506e-08,-1.47505e-08,3.69905e-16
0.289975,0.8,0.101429,0.01,-21.4701,320,-596.344,596.351,497.705,-1.12355e-08,1.12356e-08,9.37705e-09,776.753,-776.747,1.83325e-05,1.46345e-08,-1.46344e-08,3.45394e-16
0.299975,0.8,0.104459,0.01,-19.1882,320,-580.518,580.523,506.581,-1.09373e-08,1.09374e-08,9.54427e-09,770.475,-770.47,1.70191e-05,1.45162e-08,-1.45161e-08,3.20649e-16
0.309975,0.8,0.108332,0.01,-16.8482,320,-564.607,564.61,514.829,-1.06375e-08,1.06376e-08,9.69967e-09,764.09,-764.087,1.57064e-05,1.43959e-08,-1.43958e-08,2.95917e-16
0.319975,0.8,0.111773,0.01,-14.4517,320,-548.637,548.639,522.456,-1.03367e-08,1.03367e-08,9.84338e-09,757.605,-757.604,1.44063e-05,1.42737e-08,-1.42737e-08,2.71422e-16
0.329975,0.8,0.115522,0.01,-12.0004,320,-532.638,532.638,529.473,-1.00352e-08,1.00352e-08,9.97558e-09,751.029,-751.029,1.31296e-05,1.41498e-08,-1.41498e-08,2.4737e-16
0.339975,0.8,0.119629,0.01,-9.49584,320,-516.635,516.634,535.888,-9.7337e-09,9.73369e-09,1.00964e-08,744.37,-744.371,1.18862e-05,1.40244e-08,-1.40244e-08,2.23943e-16
0.349975,0.8,0.123269,0.01,-6.9396,320,-500.654,500.651,541.712,-9.43259e-09,9.43257e-09,1.02062e-08,737.633,-737.636,1.06847e-05,1.38975e-08,-1.38975e-08,2.01306e-16
0.359975,0.8,0.127591,0.01,-4.3333,320,-484.718,484.714,546.958,-9.13235e-09,9.13231e-09,1.0305e-08,730.828,-730.832,9.53218e-06,1.37692e-08,-1.37693e-08,1.79592e-16
0.369975,0.8,0.131569,0.01,-1.67852,320,-468.85,468.845,551.638,-8.83339e-09,8.83334e-09,1.03932e-08,723.96,-723.966,8.43374e-06,1.36399e-08,-1.36399e-08,1.58897e-16
0.379975,0.8,0.135761,0.01,1.02314,320,-453.073,453.066,555.766,-8.53612e-09,8.53606e-09,1.0471e-08,717.038,-717.044,7.39421e-06,1.35094e-08,-1.35095e-08,1.39311e-16
0.389975,0.8,0.140418,0.01,3.77011,320,-437.406,437.398,559.357,-8.24094e-09,8.24087e-09,1.05386e-08,710.067,-710.075,6.41802e-06,1.33781e-08,-1.33782e-08,1.20919e-16
0.399975,0.8,0.144495,0.01,6.56082,320,-421.868,421.859,562.427,-7.9482e-09,7.94811e-09,1.05964e-08,703.055,-703.064,5.50659e-06,1.3246e-08,-1.32461e-08,1.03747e-16
0.409975,0.8,0.149132,0.01,9.39372,320,-406.478,406.468,564.99,-7.65823e-09,7.65814e-09,1.06447e-08,696.008,-696.017,4.66056e-06,1.31132e-08,-1.31133e-08,8.78077e-17
0.419975,0.8,0.153787,0.01,12.2673,320,-391.252,391.241,567.063,-7.37136e-09,7.37126e-09,1.06838e-08,688.932,-688.942,3.88163e-06,1.29799e-08,-1.298e-08,7.31321e-17
0.429975,0.8,0.158296,0.01,15.1799,320,-376.205,376.194,568.662,-7.08788e-09,7.08776e-09,1.07139e-08,681.832,-681.844,3.16919e-06,1.28462e-08,-1.28463e-08,5.97094e-17
0.439975,0.8,0.163293,0.01,18.1302,320,-361.353,361.341,569.806,-6.80804e-09,6.80792e-09,1.07355e-08,674.716,-674.728,2.52219e-06,1.27121e-08,-1.27122e-08,4.75195e-17
0.449975,0.8,0.168027,0.01,21.1167,320,-346.707,346.694,570.51,-6.53211e-09,6.53198e-09,1.07487e-08,667.588,-667.601,1.93948e-06,1.25778e-08,-1.25779e-08,3.65409e-17
0.459975,0.8,0.17289,0.01,24.1378,320,-332.28,332.267,570.792,-6.2603e-09,6.26016e-09,1.0754e-08,660.454,-660.468,1.41807e-06,1.24434e-08,-1.24435e-08,2.67173e-17
0.469975,0.8,0.178182,0.01,27.1921,320,-318.083,318.069,570.669,-5.99281e-09,5.99267e-09,1.07517e-08,653.32,-653.333,9.56357e-07,1.2309e-08,-1.23091e-08,1.80183e-17
0.479975,0.8,0.183061,0.01,30.2782,320,-304.125,304.111,570.159,-5.72984e-09,5.72969e-09,1.07421e-08,646.189,-646.203,5.51129e-07,1.21746e-08,-1.21748e-08,1.03836e-17
0.489975,0.8,0.188216,0.01,33.3948,320,-290.416,290.401,569.279,-5.47154e-09,5.47139e-09,1.07255e-08,639.067,-639.081,1.97979e-07,1.20405e-08,-1.20406e-08,3.73003e-18
0.499975,0.8,0.19375,0.01,36.5404,320,-276.962,276.947,568.046,-5.21805e-09,5.2179e-09,1.07023e-08,631.958,-631.973,-1.05288e-07,1.19065e-08,-1.19067e-08,-1.98368e-18
0.509975,0.8,0.198832,0.01,39.7137,320,-263.77,263.754,566.478,-4.96951e-09,4.96935e-09,1.06728e-08,624.867,-624.882,-3.61524e-07,1.17729e-08,-1.17731e-08,-6.81132e-18
0.519975,0.8,0.204229,0.01,42.9134,320,-250.846,250.83,564.591,-4.72602e-09,4.72586e-09,1.06372e-08,617.797,-617.813,-5.75137e-07,1.16397e-08,-1.16399e-08,-1.08359e-17
0.529975,0.8,0.209964,0.01,46.1381,320,-238.195,238.179,562.402,-4.48767e-09,4.4875e-09,1.0596e-08,610.753,-610.769,-7.49496e-07,1.1507e-08,-1.15072e-08,-1.41209e-17
0.539975,0.8,0.215294,0.01,49.3867,320,-225.829,225.807,559.93,-4.25466e-09,4.25443e-09,1.05494e-08,603.74,-603.763,0.00347903,1.13749e-08,-1.13751e-08,6.5547e-14
0.549975,0.8,0.220894,0.01,52.6579,320,-213.908,213.464,557.631,-4.02822e-09,4.02372e-09,1.05061e-08,596.95,-597.394,-0.191578,1.12488e-08,-1.12533e-08,-3.60944e-12
0.559975,0.8,0.226797,0.01,55.9504,320,-203.915,201.088,556.49,-3.82959e-09,3.80091e-09,1.04846e-08,590.775,-593.602,-0.231149,1.11428e-08,-1.11715e-08,-4.35499e-12
0.569975,0.8,0.232415,0.01,59.2632,320,-196.411,188.447,556.776,-3.66587e-09,3.58507e-09,1.049e-08,585.109,-593.073,0.0329153,1.10584e-08,-1.11392e-08,6.20143e-13
0.579975,0.8,0.238186,0.01,62.5949,320,-186.801,177.196,554.774,-3.47768e-09,3.38024e-09,1.04523e-08,579.062,-588.667,0.452868,1.09516e-08,-1.10491e-08,8.5323e-12
0.589975,0.8,0.24423,0.01,65.9446,320,-171.311,168.254,552.032,-3.2143e-09,3.18329e-09,1.04006e-08,576.022,-579.079,-0.897278,1.08659e-08,-1.08969e-08,-1.69052e-11
-0.570025,0.81,0.240774,0.01,63.9331,328.05,-202.341,189.481,-549.059,-3.7563e-09,3.62584e-09,-1.03446e-08,576.534,-589.393,0.938764,1.09181e-08,-1.10486e-08,1.76869e-11
-0.560025,0.81,0.234869,0.01,60.675,328.05,-208.299,203.937,-547.918,-3.90551e-09,3.86125e-09,-1.03231e-08,583.223,-587.585,0.668325,1.10072e-08,-1.10515e-08,1.25916e-11
-0.550025,0.81,0.229172,0.01,57.4373,328.05,-219.234,216.142,-547.684,-4.11705e-09,4.08568e-09,-1.03187e-08,587.815,-590.907,-0.336559,1.10882e-08,-1.11196e-08,-6.34096e-12
-0.540025,0.81,0.223777,0.01,54.2213,328.05,-230.191,228.121,-549.506,-4.32793e-09,4.30693e-09,-1.0353e-08,594.338,-596.408,-0.205392,1.12067e-08,-1.12277e-08,-3.86971e-12
-0.530025,0.81,0.21815,0.01,51.0281,328.05,-240.566,240.096,-550.458,-4.53037e-09,4.5256e-09,-1.03709e-08,600.4,-600.871,0.169827,1.13139e-08,-1.13187e-08,3.19963e-12
-0.520025,0.81,0.212633,0.01,47.8589,328.05,-252.691,252.676,-551.944,-4.76078e-09,4.76063e-09,-1.0399e-08,607.028,-607.042,4.11876e-07,1.14368e-08,-1.1437e-08,7.75998e-18
-0.510025,0.81,0.207453,0.01,44.7151,328.05,-265.305,265.291,-553.571,-4.99844e-09,4.99829e-09,-1.04296e-08,613.852,-613.867,1.91796e-07,1.15654e-08,-1.15655e-08,3.61354e-18
-0.500025,0.81,0.202066,0.01,41.5977,328.05,-278.171,278.157,-554.883,-5.24085e-09,5.24071e-09,-1.04543e-08,620.695,-620.709,-6.91882e-08,1.16943e-08,-1.16945e-08,-1.30355e-18
-0.490025,0.81,0.196763,0.01,38.5082,328.05,-291.283,291.27,-555.867,-5.48789e-09,5.48775e-09,-1.04729e-08,627.552,-627.566,-3.73827e-07,1.18235e-08,-1.18236e-08,-7.04312e-18
-0.480025,0.81,0.191835,0.01,35.4477,328.05,-304.635,304.621,-556.505,-5.73943e-09,5.7393e-09,-1.04849e-08,634.419,-634.432,-7.25767e-07,1.19529e-08,-1.1953e-08,-1.36739e-17
-0.470025,0.81,0.186644,0.01,32.4178,328.05,-318.217,318.204,-556.781,-5.99533e-09,5.9952e-09,-1.04901e-08,641.292,-641.305,-1.12767e-06,1.20824e-08,-1.20825e-08,-2.12459e-17
-0.460025,0.81,0.181596,0.01,29.4197,328.05,-332.022,332.01,-556.68,-6.25543e-09,6.25531e-09,-1.04882e-08,648.166,-648.178,-1.58182e-06,1.22119e-08,-1.2212e-08,-2.98024e-17
-0.450025,0.81,0.17697,0.01,26.4548,328.05,-346.04,346.028,-556.184,-6.51953e-09,6.51942e-09,-1.04788e-08,655.036,-655.048,-2.09099e-06,1.23413e-08,-1.23414e-08,-3.93954e-17
-0.440025,0.81,0.171922,0.01,23.5244,328.05,-360.259,360.249,-555.277,-6.78745e-09,6.78734e-09,-1.04617e-08,661.898,-661.909,-2.65711e-06,1.24706e-08,-1.24707e-08,-5.00615e-17
-0.430025,0.81,0.16718,0.01,20.6302,328.05,-374.67,374.66,-553.944,-7.05895e-09,7.05885e-09,-1.04366e-08,668.745,-668.756,-3.28166e-06,1.25996e-08,-1.25997e-08,-6.18283e-17
-0.420025,0.81,0.162819,0.01,17.7733,328.05,-389.258,389.248,-552.168,-7.3338e-09,7.3337e-09,-1.04032e-08,675.574,-675.584,-3.96603e-06,1.27283e-08,-1.27283e-08,-7.47223e-17
-0.410025,0.81,0.157948,0.01,14.9555,328.05,-404.009,404,-549.933,-7.61172e-09,7.61164e-09,-1.03611e-08,682.378,-682.387,-4.71091e-06,1.28564e-08,-1.28565e-08,-8.87563e-17
-0.400025,0.81,0.153574,0.01,12.178,328.05,-418.908,418.901,-547.224,-7.89244e-09,7.89237e-09,-1.031e-08,689.152,-689.159,-5.51633e-06,1.29841e-08,-1.29841e-08,-1.03931e-16
-0.390025,0.81,0.149279,0.01,9.44236,328.05,-433.94,433.934,-544.026,-8.17565e-09,8.17559e-09,-1.02498e-08,695.889,-695.895,-6.38144e-06,1.3111e-08,-1.3111e-08,-1.2023e-16
-0.380025,0.81,0.144785,0.01,6.75016,328.05,-449.087,449.081,-540.325,-8.46103e-09,8.46097e-09,-1.018e-08,702.583,-702.589,-7.30411e-06,1.32371e-08,-1.32372e-08,-1.37614e-16
-0.370025,0.81,0.140858,0.01,4.10287,328.05,-464.329,464.325,-536.106,-8.74821e-09,8.74817e-09,-1.01005e-08,709.229,-709.234,-8.28208e-06,1.33623e-08,-1.33624e-08,-1.56039e-16
-0.360025,0.81,0.13655,0.01,1.50201,328.05,-479.648,479.645,-531.356,-9.03684e-09,9.03681e-09,-1.00111e-08,715.82,-715.823,-9.3121e-06,1.34865e-08,-1.34865e-08,-1.75445e-16
-0.350025,0.81,0.132516,0.01,-1.05089,328.05,-495.023,495.021,-526.062,-9.32651e-09,9.32649e-09,-9.91131e-09,722.348,-722.35,-1.03891e-05,1.36095e-08,-1.36095e-08,-1.95737e-16
-0.340025,0.81,0.128873,0.01,-3.55428,328.05,-510.432,510.431,-520.213,-9.61682e-09,9.61682e-09,-9.80111e-09,728.808,-728.808,-1.1507e-05,1.37312e-08,-1.37312e-08,-2.16798e-16
-0.330025,0.81,0.124721,0.01,-6.00663,328.05,-525.851,525.851,-513.797,-9.90734e-09,9.90734e-09,-9.68023e-09,735.192,-735.191,-1.26597e-05,1.38514e-08,-1.38514e-08,-2.38516e-16
-0.320025,0.81,0.121252,0.01,-8.4064,328.05,-541.256,541.259,-506.805,-1.01976e-08,1.01976e-08,-9.54849e-09,741.493,-741.491,-1.38396e-05,1.39702e-08,-1.39701e-08,-2.60746e-16
-0.310025,0.81,0.117474,0.01,-10.752,328.05,-556.623,556.627,-499.227,-1.04871e-08,1.04872e-08,-9.40573e-09,747.705,-747.701,-1.50376e-05,1.40872e-08,-1.40871e-08,-2.83317e-16
-0.300025,0.81,0.113908,0.01,-13.042,328.05,-571.926,571.931,-491.057,-1.07754e-08,1.07755e-08,-9.2518e-09,753.819,-753.814,-1.62433e-05,1.42024e-08,-1.42023e-08,-3.06032e-16
-0.290025,0.81,0.110779,0.01,-15.2748,328.05,-587.136,587.143,-482.288,-1.1062e-08,1.10621e-08,-9.08658e-09,759.829,-759.822,-1.74445e-05,1.43156e-08,-1.43155e-08,-3.28664e-16
-0.280025,0.81,0.107104,0.01,-17.4489,328.05,-602.227,602.235,-472.915,-1.13463e-08,1.13464e-08,-8.90999e-09,765.726,-765.718,-1.86294e-05,1.44267e-08,-1.44266e-08,-3.50988e-16
-0.270025,0.81,0.104263,0.01,-19.5627,328.05,-617.169,617.179,-462.934,-1.16279e-08,1.1628e-08,-8.72194e-09,771.505,-771.494,-1.97855e-05,1.45356e-08,-1.45354e-08,-3.72771e-16
-0.260025,0.81,0.100842,0.01,-21.6149,328.05,-631.933,631.945,-452.344,-1.1906e-08,1.19062e-08,-8.52242e-09,777.156,-777.144,-2.08986e-05,1.4642e-08,-1.46419e-08,-3.93742e-16
-0.250025,0.81,0.0979258,0.01,-23.6038,328.05,-646.49,646.504,-441.144,-1.21803e-08,1.21804e-08,-8.3114e-09,782.673,-782.659,-2.19532e-05,1.4746e-08,-1.47458e-08,-4.13612e-16
-0.240025,0.81,0.0951241,0.01,-25.5281,328.05,-660.809,660.824,-429.335,-1.24501e-08,1.24502e-08,-8.08892e-09,788.048,-788.032,-2.29353e-05,1.48472e-08,-1.48471e-08,-4.32115e-16
-0.230025,0.81,0.0921225,0.01,-27.3863,328.05,-674.858,674.875,-416.922,-1.27148e-08,1.2715e-08,-7.85505e-09,793.273,-793.256,-2.38279e-05,1.49456e-08,-1.49455e-08,-4.48932e-16
-0.220025,0.81,0.0899498,0.01,-29.177,328.05,-688.607,688.626,-403.908,-1.29738e-08,1.2974e-08,-7.60986e-09,798.341,-798.322,-2.46173e-05,1.50411e-08,-1.50409e-08,-4.63804e-16
-0.210025,0.81,0.0868544,0.01,-30.8989,328.05,-702.023,702.044,-390.301,-1.32266e-08,1.32268e-08,-7.3535e-09,803.245,-803.225,-2.52893e-05,1.51335e-08,-1.51333e-08,-4.76464e-16
-0.200025,0.81,0.0848317,0.01,-32.5506,328.05,-715.077,715.1,-376.11,-1.34726e-08,1.34728e-08,-7.08612e-09,807.978,-807.955,-2.58145e-05,1.52227e-08,-1.52224e-08,-4.86361e-16
-0.190025,0.81,0.0821225,0.01,-34.1308,328.05,-727.736,727.761,-361.345,-1.37111e-08,1.37113e-08,-6.80794e-09,812.532,-812.507,-2.62294e-05,1.53085e-08,-1.53082e-08,-4.94177e-16
-0.180025,0.81,0.0800558,0.01,-35.6382,328.05,-739.97,739.996,-346.019,-1.39416e-08,1.39418e-08,-6.51919e-09,816.899,-816.873,-2.63929e-05,1.53907e-08,-1.53905e-08,-4.97258e-16
-0.170025,0.81,0.077927,0.01,-37.0716,328.05,-751.747,751.775,-330.147,-1.41635e-08,1.41637e-08,-6.22015e-09,821.075,-821.047,-2.65683e-05,1.54694e-08,-1.54691e-08,-5.00562e-16
-0.160025,0.81,0.07581,0.01,-38.4298,328.05,-763.037,763.067,-313.745,-1.43762e-08,1.43765e-08,-5.91114e-09,825.051,-825.021,-2.62253e-05,1.55443e-08,-1.5544e-08,-4.94099e-16
-0.150025,0.81,0.0742672,0.01,-39.7117,328.05,-773.812,773.843,-296.833,-1.45792e-08,1.45795e-08,-5.59251e-09,828.821,-828.79,-2.62287e-05,1.56153e-08,-1.5615e-08,-4.94165e-16
-0.140025,0.81,0.0720955,0.01,-40.9163,328.05,-784.041,784.074,-279.431,-1.47719e-08,1.47723e-08,-5.26464e-09,832.38,-832.347,-2.52714e-05,1.56824e-08,-1.5682e-08,-4.76127e-16
-0.130025,0.81,0.0711411,0.01,-42.0424,328.05,-793.699,793.733,-261.562,-1.49539e-08,1.49542e-08,-4.92797e-09,835.72,-835.686,-2.50449e-05,1.57453e-08,-1.5745e-08,-4.7186e-16
-0.120025,0.81,0.0689128,0.01,-43.0892,328.05,-802.757,802.793,-243.25,-1.51246e-08,1.51249e-08,-4.58296e-09,838.838,-838.802,-2.37043e-05,1.5804e-08,-1.58037e-08,-4.46603e-16
-0.110025,0.81,0.0680947,0.01,-44.0557,328.05,-811.191,811.229,-224.521,-1.52835e-08,1.52839e-08,-4.23011e-09,841.726,-841.689,-2.26648e-05,1.58584e-08,-1.58581e-08,-4.27017e-16
-0.100025,0.81,0.0662622,0.01,-44.9411,328.05,-818.978,819.016,-205.404,-1.54302e-08,1.54306e-08,-3.86993e-09,844.381,-844.342,-2.19362e-05,1.59085e-08,-1.59081e-08,-4.13292e-16
-0.0900249,0.81,0.0654433,0.01,-45.7446,328.05,-826.093,826.133,-185.928,-1.55643e-08,1.55647e-08,-3.50299e-09,846.798,-846.758,-1.87072e-05,1.5954e-08,-1.59536e-08,-3.52455e-16
-0.0800249,0.81,0.0641434,0.01,-46.4655,328.05,-832.518,832.559,-166.125,-1.56853e-08,1.56857e-08,-3.12989e-09,848.972,-848.931,-2.02593e-05,1.59949e-08,-1.59945e-08,-3.81696e-16
-0.0700249,0.81,0.0633204,0.01,-47.1031,328.05,-838.233,838.275,-146.026,-1.5793e-08,1.57934e-08,-2.75122e-09,850.899,-850.857,-1.33029e-05,1.60313e-08,-1.60308e-08,-2.50634e-16
-0.0600249,0.81,0.0625554,0.01,-47.657,328.05,-843.222,843.265,-125.667,-1.5887e-08,1.58874e-08,-2.36763e-09,852.577,-852.534,-1.82438e-05,1.60629e-08,-1.60624e-08,-3.43724e-16
-0.0500249,0.81,0.0617272,0.01,-48.1265,328.05,-847.469,847.512,-105.081,-1.5967e-08,1.59674e-08,-1.97979e-09,854.002,-853.959,-7.56223e-06,1.60897e-08,-1.60893e-08,-1.42477e-16
-0.0400249,0.81,0.0614968,0.01,-48.5112,328.05,-850.962,851.006,-84.3059,-1.60328e-08,1.60332e-08,-1.58837e-09,855.172,-855.128,-1.46373e-05,1.61117e-08,-1.61113e-08,-2.75775e-16
-0.0300249,0.81,0.0606644,0.01,-48.8109,328.05,-853.69,853.734,-63.3774,-1.60842e-08,1.60847e-08,-1.19407e-09,856.083,-856.039,-3.1191e-06,1.61289e-08,-1.61285e-08,-5.87657e-17
-0.0200249,0.81,0.0609656,0.01,-49.0252,328.05,-855.645,855.69,-42.3336,-1.6121e-08,1.61215e-08,-7.97589e-10,856.736,-856.692,-8.38169e-06,1.61412e-08,-1.61408e-08,-1.57916e-16
-0.0100249,0.81,0.0601329,0.01,-49.154,328.05,-856.821,856.866,-21.2125,-1.61432e-08,1.61437e-08,-3.99656e-10,857.129,-857.084,-7.23005e-07,1.61486e-08,-1.61481e-08,-1.36218e-17
-2.48653e-05,0.81,0.0609518,0.01,-49.1971,328.05,-857.215,857.26,-0.0526308,-1.61506e-08,1.61511e-08,-9.91594e-13,857.26,-857.215,7.80507e-09,1.61511e-08,-1.61506e-08,1.47052e-19
0.00997513,0.81,0.0601329,0.01,-49.1544,328.05,-856.825,856.87,21.1073,-1.61433e-08,1.61437e-08,3.97674e-10,857.13,-857.085,6.85301e-07,1.61486e-08,-1.61482e-08,1.29115e-17
0.0199751,0.81,0.0609575,0.01,-49.0261,328.05,-855.653,855.698,42.2287,-1.61212e-08,1.61216e-08,7.95613e-10,856.739,-856.694,8.38571e-06,1.61413e-08,-1.61408e-08,1.57992e-16
0.0299751,0.81,0.0606644,0.01,-48.8122,328.05,-853.701,853.746,63.273,-1.60844e-08,1.60849e-08,1.1921e-09,856.087,-856.043,3.10501e-06,1.6129e-08,-1.61285e-08,5.85001e-17
0.0399751,0.81,0.0614886,0.01,-48.5129,328.05,-850.977,851.021,84.2021,-1.60331e-08,1.60335e-08,1.58642e-09,855.177,-855.133,1.46124e-05,1.61118e-08,-1.61114e-08,2.75306e-16
0.0499751,0.81,0.0617271,0.01,-48.1286,328.05,-847.488,847.531,104.978,-1.59674e-08,1.59678e-08,1.97785e-09,854.008,-853.965,7.57665e-06,1.60898e-08,-1.60894e-08,1.42748e-16
0.0599751,0.81,0.0625473,0.01,-47.6595,328.05,-843.245,843.287,125.565,-1.58874e-08,1.58878e-08,2.36572e-09,852.585,-852.542,1.81984e-05,1.6063e-08,-1.60626e-08,3.42869e-16
0.0699751,0.81,0.0633202,0.01,-47.1061,328.05,-838.26,838.302,145.926,-1.57935e-08,1.57939e-08,2.74932e-09,850.908,-850.866,1.33329e-05,1.60314e-08,-1.6031e-08,2.51199e-16
0.0799751,0.81,0.0641355,0.01,-46.4689,328.05,-832.549,832.589,166.025,-1.56859e-08,1.56863e-08,3.12802e-09,848.982,-848.941,2.02114e-05,1.59951e-08,-1.59947e-08,3.80794e-16
0.0899751,0.81,0.065443,0.01,-45.7484,328.05,-826.127,826.167,185.83,-1.55649e-08,1.55653e-08,3.50115e-09,846.809,-846.769,1.87346e-05,1.59542e-08,-1.59538e-08,3.52971e-16
0.0999751,0.81,0.0662544,0.01,-44.9453,328.05,-819.015,819.053,205.308,-1.54309e-08,1.54313e-08,3.86812e-09,844.394,-844.355,2.18999e-05,1.59087e-08,-1.59083e-08,4.12608e-16
0.109975,0.81,0.0680943,0.01,-44.0603,328.05,-811.232,811.269,224.427,-1.52842e-08,1.52846e-08,4.22833e-09,841.74,-841.703,2.26804e-05,1.58587e-08,-1.58583e-08,4.27312e-16
0.119975,0.81,0.0689052,0.01,-43.0942,328.05,-802.801,802.837,243.157,-1.51254e-08,1.51258e-08,4.58123e-09,838.852,-838.817,2.36846e-05,1.58043e-08,-1.58039e-08,4.46231e-16
0.129975,0.81,0.0711267,0.01,-42.0478,328.05,-793.745,793.78,261.472,-1.49548e-08,1.49551e-08,4.92628e-09,835.736,-835.702,2.50505e-05,1.57456e-08,-1.57453e-08,4.71967e-16
0.139975,0.81,0.072088,0.01,-40.9221,328.05,-784.091,784.124,279.343,-1.47729e-08,1.47732e-08,5.26299e-09,832.397,-832.364,2.52624e-05,1.56827e-08,-1.56824e-08,4.75958e-16
0.149975,0.81,0.0742532,0.01,-39.7179,328.05,-773.864,773.895,296.748,-1.45802e-08,1.45805e-08,5.5909e-09,828.839,-828.808,2.62299e-05,1.56157e-08,-1.56154e-08,4.94187e-16
0.159975,0.81,0.0758027,0.01,-38.4364,328.05,-763.092,763.122,313.662,-1.43772e-08,1.43775e-08,5.90958e-09,825.07,-825.04,2.62233e-05,1.55447e-08,-1.55444e-08,4.94063e-16
0.169975,0.81,0.0779135,0.01,-37.0785,328.05,-751.804,751.832,330.066,-1.41645e-08,1.41648e-08,6.21864e-09,821.095,-821.067,2.65683e-05,1.54698e-08,-1.54695e-08,5.00563e-16
0.179975,0.81,0.0800485,0.01,-35.6455,328.05,-740.029,740.056,345.941,-1.39427e-08,1.3943e-08,6.51773e-09,816.921,-816.894,2.6393e-05,1.53911e-08,-1.53909e-08,4.9726e-16
0.189975,0.81,0.0821094,0.01,-34.1384,328.05,-727.798,727.823,361.27,-1.37122e-08,1.37125e-08,6.80653e-09,812.554,-812.529,2.62306e-05,1.53089e-08,-1.53086e-08,4.942e-16
0.199975,0.81,0.0848244,0.01,-32.5586,328.05,-715.141,715.164,376.038,-1.34738e-08,1.3474e-08,7.08477e-09,808.001,-807.978,2.58168e-05,1.52231e-08,-1.52229e-08,4.86403e-16
0.209975,0.81,0.0868416,0.01,-30.9073,328.05,-702.089,702.11,390.232,-1.32279e-08,1.32281e-08,7.3522e-09,803.269,-803.249,2.5292e-05,1.5134e-08,-1.51338e-08,4.76516e-16
0.219975,0.81,0.0899319,0.01,-29.1858,328.05,-688.674,688.693,403.842,-1.29751e-08,1.29753e-08,7.60861e-09,798.366,-798.347,2.46209e-05,1.50416e-08,-1.50414e-08,4.63871e-16
0.229975,0.81,0.09211,0.01,-27.3954,328.05,-674.927,674.944,416.858,-1.27161e-08,1.27163e-08,7.85386e-09,793.299,-793.281,2.38321e-05,1.49461e-08,-1.4946e-08,4.49011e-16
0.239975,0.81,0.0951068,0.01,-25.5375,328.05,-660.879,660.895,429.275,-1.24514e-08,1.24516e-08,8.08779e-09,788.074,-788.059,2.29401e-05,1.48477e-08,-1.48475e-08,4.32205e-16
0.249975,0.81,0.0979136,0.01,-23.6135,328.05,-646.562,646.576,441.086,-1.21817e-08,1.21818e-08,8.31032e-09,782.7,-782.686,2.19586e-05,1.47465e-08,-1.47463e-08,4.13712e-16
0.259975,0.81,0.100826,0.01,-21.6249,328.05,-632.006,632.018,452.289,-1.19074e-08,1.19075e-08,8.52139e-09,777.184,-777.172,2.09043e-05,1.46425e-08,-1.46424e-08,3.9385e-16
0.269975,0.81,0.104251,0.01,-19.5731,328.05,-617.243,617.253,462.883,-1.16293e-08,1.16294e-08,8.72098e-09,771.533,-771.523,1.97915e-05,1.45361e-08,-1.4536e-08,3.72883e-16
0.279975,0.81,0.107088,0.01,-17.4595,328.05,-602.301,602.31,472.866,-1.13477e-08,1.13478e-08,8.90908e-09,765.755,-765.747,1.86355e-05,1.44272e-08,-1.44272e-08,3.51103e-16
0.289975,0.81,0.110759,0.01,-15.2858,328.05,-587.211,587.218,482.243,-1.10634e-08,1.10635e-08,9.08573e-09,759.858,-759.851,1.74502e-05,1.43161e-08,-1.43161e-08,3.28773e-16
0.299975,0.81,0.113893,0.01,-13.0533,328.05,-572.001,572.007,491.015,-1.07769e-08,1.07769e-08,9.25101e-09,753.849,-753.844,1.62488e-05,1.42029e-08,-1.42029e-08,3.06137e-16
0.309975,0.81,0.117454,0.01,-10.7636,328.05,-556.7,556.703,499.188,-1.04886e-08,1.04886e-08,9.40499e-09,747.735,-747.732,1.50436e-05,1.40877e-08,-1.40877e-08,2.8343e-16
0.319975,0.81,0.121237,0.01,-8.4182,328.05,-541.333,541.335,506.768,-1.0199e-08,1.01991e-08,9.54781e-09,741.524,-741.522,1.38457e-05,1.39707e-08,-1.39707e-08,2.60862e-16
0.329975,0.81,0.124702,0.01,-6.0187,328.05,-525.927,525.928,513.763,-9.90878e-09,9.90879e-09,9.6796e-09,735.223,-735.223,1.26656e-05,1.3852e-08,-1.3852e-08,2.38627e-16
0.339975,0.81,0.128851,0.01,-3.56661,328.05,-510.508,510.508,520.182,-9.61827e-09,9.61826e-09,9.80053e-09,728.84,-728.84,1.15126e-05,1.37318e-08,-1.37318e-08,2.16903e-16
0.349975,0.81,0.132498,0.01,-1.06346,328.05,-495.1,495.098,526.034,-9.32796e-09,9.32794e-09,9.91079e-09,722.38,-722.382,1.03942e-05,1.36101e-08,-1.36101e-08,1.95833e-16
0.359975,0.81,0.136528,0.01,1.48919,328.05,-479.725,479.722,531.331,-9.03828e-09,9.03825e-09,1.00106e-08,715.852,-715.855,9.31712e-06,1.34871e-08,-1.34871e-08,1.7554e-16
0.369975,0.81,0.14084,0.01,4.08982,328.05,-464.405,464.401,536.084,-8.74965e-09,8.7496e-09,1.01001e-08,709.262,-709.267,8.28681e-06,1.33629e-08,-1.3363e-08,1.56128e-16
0.379975,0.81,0.144764,0.01,6.73688,328.05,-449.162,449.157,540.305,-8.46245e-09,8.4624e-09,1.01797e-08,702.617,-702.622,7.30842e-06,1.32377e-08,-1.32378e-08,1.37695e-16
0.389975,0.81,0.149255,0.01,9.42887,328.05,-434.015,434.009,544.009,-8.17707e-09,8.177e-09,1.02494e-08,695.922,-695.929,6.38617e-06,1.31116e-08,-1.31117e-08,1.20319e-16
0.399975,0.81,0.153554,0.01,12.1643,328.05,-418.983,418.975,547.21,-7.89385e-09,7.89377e-09,1.03097e-08,689.185,-689.193,5.52122e-06,1.29847e-08,-1.29848e-08,1.04023e-16
0.409975,0.81,0.157925,0.01,14.9415,328.05,-404.082,404.074,549.921,-7.61311e-09,7.61302e-09,1.03608e-08,682.412,-682.42,4.71504e-06,1.28571e-08,-1.28572e-08,8.88341e-17
0.419975,0.81,0.162794,0.01,17.7592,328.05,-389.33,389.321,552.158,-7.33517e-09,7.33508e-09,1.0403e-08,675.608,-675.618,3.97005e-06,1.27289e-08,-1.2729e-08,7.4798e-17
0.429975,0.81,0.167158,0.01,20.6159,328.05,-374.742,374.732,553.936,-7.06031e-09,7.06021e-09,1.04365e-08,668.78,-668.79,3.28549e-06,1.26002e-08,-1.26003e-08,6.19005e-17
0.439975,0.81,0.171898,0.01,23.51,328.05,-360.331,360.32,555.272,-6.78879e-09,6.78868e-09,1.04616e-08,661.932,-661.943,2.66014e-06,1.24712e-08,-1.24713e-08,5.01186e-17
0.449975,0.81,0.176948,0.01,26.4401,328.05,-346.11,346.098,556.18,-6.52086e-09,6.52074e-09,1.04788e-08,655.07,-655.082,2.09352e-06,1.2342e-08,-1.23421e-08,3.94431e-17
0.459975,0.81,0.181572,0.01,29.4049,328.05,-332.091,332.079,556.678,-6.25673e-09,6.25661e-09,1.04881e-08,648.2,-648.212,1.58371e-06,1.22125e-08,-1.22126e-08,2.9838e-17
0.469975,0.81,0.186618,0.01,32.4028,328.05,-318.285,318.272,556.782,-5.99662e-09,5.99649e-09,1.04901e-08,641.326,-641.339,1.12958e-06,1.2083e-08,-1.20831e-08,2.1282e-17
0.479975,0.81,0.191812,0.01,35.4326,328.05,-304.702,304.688,556.507,-5.7407e-09,5.74056e-09,1.04849e-08,634.453,-634.467,7.28226e-07,1.19535e-08,-1.19537e-08,1.37202e-17
0.489975,0.81,0.196738,0.01,38.4929,328.05,-291.349,291.336,555.871,-5.48913e-09,5.48899e-09,1.04729e-08,627.586,-627.6,3.75837e-07,1.18241e-08,-1.18243e-08,7.08098e-18
0.499975,0.81,0.202038,0.01,41.5823,328.05,-278.236,278.222,554.889,-5.24207e-09,5.24192e-09,1.04544e-08,620.729,-620.743,7.04653e-08,1.1695e-08,-1.16951e-08,1.32761e-18
0.509975,0.81,0.207428,0.01,44.6995,328.05,-265.369,265.354,553.578,-4.99964e-09,4.99949e-09,1.04297e-08,613.886,-613.901,-1.90498e-07,1.1566e-08,-1.15662e-08,-3.58909e-18
0.519975,0.81,0.212607,0.01,47.8432,328.05,-252.753,252.738,551.953,-4.76195e-09,4.7618e-09,1.03991e-08,607.061,-607.076,-4.10885e-07,1.14375e-08,-1.14376e-08,-7.74131e-18
0.529975,0.81,0.218121,0.01,51.0123,328.05,-240.627,240.157,550.468,-4.53151e-09,4.52674e-09,1.03711e-08,600.434,-600.904,-0.16986,1.13146e-08,-1.13193e-08,-3.20025e-12
0.539975,0.81,0.223751,0.01,54.2054,328.05,-230.25,228.181,549.518,-4.32905e-09,4.30805e-09,1.03532e-08,594.372,-596.442,0.205303,1.12073e-08,-1.12283e-08,3.86803e-12
0.549975,0.81,0.229144,0.01,57.4213,328.05,-219.293,216.201,547.697,-4.11816e-09,4.08679e-09,1.03189e-08,587.848,-590.941,0.336769,1.10888e-08,-1.11202e-08,6.34493e-12
0.559975,0.81,0.23484,0.01,60.6588,328.05,-208.357,203.994,547.932,-3.90659e-09,3.86234e-09,1.03234e-08,583.257,-587.619,-0.668039,1.10079e-08,-1.10521e-08,-1.25862e-11
0.569975,0.81,0.240747,0.01,63.9169,328.05,-202.398,189.537,549.075,-3.75738e-09,3.62691e-09,1.03449e-08,576.567,-589.427,-0.938548,1.09188e-08,-1.10492e-08,-1.76828e-11
-0.560025,0.82,0.243056,0.01,65.3626,336.2,-212.016,208.919,-539.056,-3.98104e-09,3.94962e-09,-1.01561e-08,577.138,-580.235,0.0975347,1.08871e-08,-1.09185e-08,1.83761e-12
-0.550025,0.82,0.237555,0.01,62.1788,336.2,-227.658,217.559,-540.986,-4.2453e-09,4.14285e-09,-1.01925e-08,579.946,-590.045,-0.724371,1.09704e-08,-1.10729e-08,-1.36476e-11
-0.540025,0.82,0.232073,0.01,59.0168,336.2,-236.808,228.837,-541.68,-4.42695e-09,4.34608e-09,-1.02056e-08,585.611,-593.582,0.0622596,1.10679e-08,-1.11488e-08,1.17301e-12
-0.530025,0.82,0.226454,0.01,55.8779,336.2,-244.328,241.665,-540.089,-4.5917e-09,4.56468e-09,-1.01756e-08,590.905,-593.567,0.218702,1.11446e-08,-1.11716e-08,4.12048e-12
-0.520025,0.82,0.221145,0.01,52.7633,336.2,-254.541,254.112,-540.023,-4.79384e-09,4.78948e-09,-1.01743e-08,596.699,-597.129,0.185682,1.1244e-08,-1.12484e-08,3.49836e-12
-0.510025,0.82,0.21593,0.01,49.674,336.2,-266.663,266.642,-540.989,-5.024e-09,5.02379e-09,-1.01925e-08,603.125,-603.146,-0.00341154,1.13633e-08,-1.13635e-08,-6.42754e-14
-0.500025,0.82,0.210502,0.01,46.6115,336.2,-279.202,279.188,-542.057,-5.26026e-09,5.26013e-09,-1.02127e-08,609.727,-609.74,-2.32132e-07,1.14877e-08,-1.14878e-08,-4.37349e-18
-0.490025,0.82,0.205417,0.01,43.5768,336.2,-291.98,291.967,-542.806,-5.50101e-09,5.50088e-09,-1.02268e-08,616.343,-616.355,-5.37345e-07,1.16123e-08,-1.16124e-08,-1.01239e-17
-0.480025,0.82,0.200431,0.01,40.5714,336.2,-304.981,304.969,-543.216,-5.74597e-09,5.74584e-09,-1.02345e-08,622.965,-622.978,-8.8688e-07,1.17371e-08,-1.17372e-08,-1.67093e-17
-0.470025,0.82,0.195227,0.01,37.5964,336.2,-318.198,318.186,-543.273,-5.99498e-09,5.99486e-09,-1.02356e-08,629.591,-629.603,-1.28325e-06,1.18619e-08,-1.1862e-08,-2.41772e-17
-0.460025,0.82,0.190407,0.01,34.6533,336.2,-331.621,331.61,-542.962,-6.24789e-09,6.24778e-09,-1.02297e-08,636.215,-636.226,-1.72862e-06,1.19867e-08,-1.19868e-08,-3.25683e-17
-0.450025,0.82,0.185606,0.01,31.7433,336.2,-345.242,345.231,-542.266,-6.50451e-09,6.5044e-09,-1.02166e-08,642.833,-642.844,-2.22449e-06,1.21114e-08,-1.21115e-08,-4.19106e-17
-0.440025,0.82,0.180669,0.01,28.8679,336.2,-359.049,359.039,-541.171,-6.76465e-09,6.76455e-09,-1.0196e-08,649.44,-649.45,-2.7728e-06,1.22359e-08,-1.2236e-08,-5.22411e-17
-0.430025,0.82,0.176163,0.01,26.0283,336.2,-373.031,373.022,-539.661,-7.02808e-09,7.02798e-09,-1.01675e-08,656.031,-656.04,-3.37508e-06,1.236e-08,-1.23601e-08,-6.35885e-17
-0.420025,0.82,0.171494,0.01,23.2261,336.2,-387.175,387.166,-537.722,-7.29456e-09,7.29448e-09,-1.0131e-08,662.601,-662.61,-4.0323e-06,1.24838e-08,-1.24839e-08,-7.59708e-17
-0.410025,0.82,0.166876,0.01,20.4626,336.2,-401.467,401.46,-535.339,-7.56385e-09,7.56377e-09,-1.00861e-08,669.145,-669.153,-4.74422e-06,1.26071e-08,-1.26072e-08,-8.93839e-17
-0.400025,0.82,0.162742,0.01,17.7392,336.2,-415.893,415.887,-532.497,-7.83564e-09,7.83558e-09,-1.00326e-08,675.657,-675.664,-5.51032e-06,1.27298e-08,-1.27299e-08,-1.03818e-16
-0.390025,0.82,0.158144,0.01,15.0575,336.2,-430.437,430.432,-529.183,-8.10967e-09,8.10961e-09,-9.97011e-09,682.132,-682.138,-6.33004e-06,1.28518e-08,-1.28518e-08,-1.19262e-16
-0.380025,0.82,0.153909,0.01,12.4187,336.2,-445.082,445.078,-525.382,-8.38559e-09,8.38554e-09,-9.89851e-09,688.563,-688.568,-7.20109e-06,1.2973e-08,-1.2973e-08,-1.35673e-16
-0.370025,0.82,0.149971,0.01,9.8245,336.2,-459.81,459.807,-521.083,-8.66308e-09,8.66304e-09,-9.81751e-09,694.945,-694.949,-8.12056e-06,1.30932e-08,-1.30932e-08,-1.52996e-16
-0.360025,0.82,0.145624,0.01,7.27626,336.2,-474.602,474.6,-516.273,-8.94177e-09,8.94174e-09,-9.72688e-09,701.272,-701.274,-9.08499e-06,1.32124e-08,-1.32124e-08,-1.71166e-16
-0.350025,0.82,0.141848,0.01,4.77548,336.2,-489.438,489.437,-510.94,-9.22129e-09,9.22128e-09,-9.62641e-09,707.536,-707.538,-1.00902e-05,1.33304e-08,-1.33304e-08,-1.90106e-16
-0.340025,0.82,0.137889,0.01,2.32364,336.2,-504.297,504.297,-505.074,-9.50124e-09,9.50124e-09,-9.51588e-09,713.733,-713.733,-1.11306e-05,1.34471e-08,-1.34471e-08,-2.09708e-16
-0.330025,0.82,0.134016,0.01,-0.0777645,336.2,-519.156,519.158,-498.664,-9.78121e-09,9.78122e-09,-9.39511e-09,719.854,-719.853,-1.21998e-05,1.35625e-08,-1.35625e-08,-2.29852e-16
-0.320025,0.82,0.130709,0.01,-2.42726,336.2,-533.993,533.996,-491.702,-1.00608e-08,1.00608e-08,-9.26395e-09,725.894,-725.892,-1.32905e-05,1.36763e-08,-1.36762e-08,-2.50401e-16
-0.310025,0.82,0.126727,0.01,-4.72335,336.2,-548.784,548.788,-484.18,-1.03394e-08,1.03395e-08,-9.12222e-09,731.846,-731.842,-1.43934e-05,1.37884e-08,-1.37883e-08,-2.71181e-16
-0.300025,0.82,0.12343,0.01,-6.96456,336.2,-563.503,563.509,-476.091,-1.06168e-08,1.06168e-08,-8.96982e-09,737.703,-737.697,-1.54994e-05,1.38987e-08,-1.38987e-08,-2.92017e-16
-0.290025,0.82,0.119984,0.01,-9.14943,336.2,-578.126,578.133,-467.429,-1.08923e-08,1.08923e-08,-8.80664e-09,743.457,-743.45,-1.65981e-05,1.40071e-08,-1.40071e-08,-3.12718e-16
-0.280025,0.82,0.1166,0.01,-11.2765,336.2,-592.625,592.633,-458.191,-1.11654e-08,1.11655e-08,-8.63259e-09,749.103,-749.094,-1.7678e-05,1.41135e-08,-1.41134e-08,-3.33064e-16
-0.270025,0.82,0.113788,0.01,-13.3443,336.2,-606.973,606.983,-448.375,-1.14358e-08,1.14359e-08,-8.44764e-09,754.632,-754.622,-1.87271e-05,1.42177e-08,-1.42176e-08,-3.52829e-16
-0.260025,0.82,0.110309,0.01,-15.3514,336.2,-621.142,621.154,-437.977,-1.17027e-08,1.17028e-08,-8.25174e-09,760.038,-760.026,-1.97324e-05,1.43195e-08,-1.43194e-08,-3.7177e-16
-0.250025,0.82,0.107649,0.01,-17.2963,336.2,-635.104,635.118,-426.999,-1.19658e-08,1.19659e-08,-8.04491e-09,765.314,-765.3,-2.06808e-05,1.44189e-08,-1.44188e-08,-3.89638e-16
-0.240025,0.82,0.104557,0.01,-19.1778,336.2,-648.831,648.846,-415.443,-1.22244e-08,1.22246e-08,-7.82719e-09,770.452,-770.437,-2.1559e-05,1.45157e-08,-1.45155e-08,-4.06184e-16
-0.230025,0.82,0.101834,0.01,-20.9944,336.2,-662.293,662.31,-403.312,-1.24781e-08,1.24782e-08,-7.59863e-09,775.446,-775.429,-2.2353e-05,1.46098e-08,-1.46096e-08,-4.21144e-16
-0.220025,0.82,0.0993453,0.01,-22.7448,336.2,-675.46,675.478,-390.611,-1.27261e-08,1.27263e-08,-7.35933e-09,780.288,-780.27,-2.3049e-05,1.4701e-08,-1.47008e-08,-4.34256e-16
-0.210025,0.82,0.0965516,0.01,-24.4276,336.2,-688.303,688.323,-377.347,-1.29681e-08,1.29683e-08,-7.10943e-09,784.972,-784.952,-2.36321e-05,1.47892e-08,-1.4789e-08,-4.45243e-16
-0.200025,0.82,0.0946733,0.01,-26.0416,336.2,-700.793,700.815,-363.529,-1.32034e-08,1.32037e-08,-6.8491e-09,789.491,-789.469,-2.40901e-05,1.48744e-08,-1.48742e-08,-4.53872e-16
-0.190025,0.82,0.0918034,0.01,-27.5855,336.2,-712.899,712.923,-349.168,-1.34315e-08,1.34318e-08,-6.57852e-09,793.838,-793.815,-2.44119e-05,1.49563e-08,-1.4956e-08,-4.59935e-16
-0.180025,0.82,0.0899593,0.01,-29.0581,336.2,-724.594,724.619,-334.276,-1.36519e-08,1.36521e-08,-6.29795e-09,798.007,-797.982,-2.45824e-05,1.50348e-08,-1.50345e-08,-4.63147e-16
-0.170025,0.82,0.0875898,0.01,-30.4583,336.2,-735.848,735.875,-318.867,-1.38639e-08,1.38642e-08,-6.00764e-09,801.991,-801.964,-2.46016e-05,1.51099e-08,-1.51096e-08,-4.63509e-16
-0.160025,0.82,0.0857118,0.01,-31.7849,336.2,-746.632,746.661,-302.958,-1.40671e-08,1.40674e-08,-5.7079e-09,805.784,-805.755,-2.44339e-05,1.51813e-08,-1.5181e-08,-4.60349e-16
-0.150025,0.82,0.0839105,0.01,-33.0368,336.2,-756.92,756.95,-286.566,-1.42609e-08,1.42613e-08,-5.39907e-09,809.38,-809.35,-2.41269e-05,1.52491e-08,-1.52487e-08,-4.54565e-16
-0.140025,0.82,0.0819946,0.01,-34.213,336.2,-766.685,766.716,-269.711,-1.44449e-08,1.44452e-08,-5.08152e-09,812.773,-812.741,-2.3582e-05,1.5313e-08,-1.53127e-08,-4.44298e-16
-0.130025,0.82,0.0807644,0.01,-35.3126,336.2,-775.9,775.933,-252.416,-1.46185e-08,1.46189e-08,-4.75566e-09,815.958,-815.925,-2.29384e-05,1.5373e-08,-1.53726e-08,-4.32173e-16
-0.120025,0.82,0.0788087,0.01,-36.3346,336.2,-784.541,784.575,-234.703,-1.47814e-08,1.47817e-08,-4.42194e-09,818.929,-818.895,-2.20017e-05,1.54289e-08,-1.54286e-08,-4.14524e-16
-0.110025,0.82,0.0780944,0.01,-37.2781,336.2,-792.584,792.62,-216.597,-1.49329e-08,1.49333e-08,-4.08081e-09,821.682,-821.646,-2.09999e-05,1.54808e-08,-1.54804e-08,-3.9565e-16
-0.100025,0.82,0.0761546,0.01,-38.1424,336.2,-800.007,800.044,-198.125,-1.50728e-08,1.50731e-08,-3.73278e-09,824.212,-824.175,-1.97227e-05,1.55285e-08,-1.55281e-08,-3.71588e-16
-0.0900249,0.82,0.0754432,0.01,-38.9267,336.2,-806.79,806.828,-179.315,-1.52006e-08,1.52009e-08,-3.37839e-09,826.514,-826.476,-1.83008e-05,1.55718e-08,-1.55715e-08,-3.44798e-16
-0.0800249,0.82,0.0740323,0.01,-39.6303,336.2,-812.912,812.951,-160.196,-1.53159e-08,1.53163e-08,-3.01818e-09,828.585,-828.546,-1.68114e-05,1.56109e-08,-1.56105e-08,-3.16736e-16
-0.0700249,0.82,0.0733204,0.01,-40.2526,336.2,-818.357,818.397,-140.799,-1.54185e-08,1.54189e-08,-2.65274e-09,830.421,-830.381,-1.48939e-05,1.56454e-08,-1.5645e-08,-2.80609e-16
-0.0600249,0.82,0.0724411,0.01,-40.7931,336.2,-823.109,823.15,-121.157,-1.5508e-08,1.55084e-08,-2.28267e-09,832.019,-831.978,-1.33295e-05,1.56755e-08,-1.56751e-08,-2.51135e-16
-0.0500249,0.82,0.0717271,0.01,-41.2513,336.2,-827.155,827.196,-101.302,-1.55843e-08,1.55847e-08,-1.90859e-09,833.376,-833.335,-1.09303e-05,1.57011e-08,-1.57007e-08,-2.05934e-16
-0.0400249,0.82,0.0713802,0.01,-41.6267,336.2,-830.481,830.523,-81.2686,-1.56469e-08,1.56473e-08,-1.53115e-09,834.49,-834.448,-9.3072e-06,1.57221e-08,-1.57217e-08,-1.75353e-16
-0.0300249,0.82,0.0706644,0.01,-41.9192,336.2,-833.079,833.121,-61.091,-1.56959e-08,1.56963e-08,-1.15099e-09,835.358,-835.316,-6.63877e-06,1.57384e-08,-1.5738e-08,-1.25078e-16
-0.0200249,0.82,0.0708482,0.01,-42.1283,336.2,-834.94,834.983,-40.8048,-1.57309e-08,1.57314e-08,-7.68786e-10,835.98,-835.937,-4.80564e-06,1.57502e-08,-1.57497e-08,-9.0541e-17
-0.0100249,0.82,0.0701329,0.01,-42.2539,336.2,-836.06,836.103,-20.446,-1.5752e-08,1.57525e-08,-3.85214e-10,836.353,-836.31,-2.22467e-06,1.57572e-08,-1.57568e-08,-4.19141e-17
-2.48653e-05,0.82,0.0708363,0.01,-42.2959,336.2,-836.435,836.478,-0.0507286,-1.57591e-08,1.57595e-08,-9.55757e-13,836.478,-836.435,-5.21096e-09,1.57595e-08,-1.57591e-08,-9.81775e-20
0.00997513,0.82,0.0701329,0.01,-42.2543,336.2,-836.064,836.107,20.3446,-1.57521e-08,1.57526e-08,3.83305e-10,836.354,-836.312,2.21137e-06,1.57572e-08,-1.57568e-08,4.16635e-17
0.0199751,0.82,0.0708412,0.01,-42.1291,336.2,-834.948,834.991,40.7037,-1.57311e-08,1.57315e-08,7.66882e-10,835.982,-835.939,4.79586e-06,1.57502e-08,-1.57498e-08,9.03568e-17
0.0299751,0.82,0.0706644,0.01,-41.9204,336.2,-833.09,833.132,60.9903,-1.56961e-08,1.56965e-08,1.14909e-09,835.362,-835.319,6.62793e-06,1.57385e-08,-1.57381e-08,1.24874e-16
0.0399751,0.82,0.0713732,0.01,-41.6284,336.2,-830.496,830.538,81.1685,-1.56472e-08,1.56476e-08,1.52926e-09,834.495,-834.453,9.29566e-06,1.57222e-08,-1.57218e-08,1.75136e-16
0.0499751,0.82,0.0717271,0.01,-41.2533,336.2,-827.173,827.214,101.203,-1.55846e-08,1.5585e-08,1.90672e-09,833.382,-833.341,1.09218e-05,1.57012e-08,-1.57008e-08,2.05773e-16
0.0599751,0.82,0.0724342,0.01,-40.7956,336.2,-823.131,823.172,121.059,-1.55084e-08,1.55089e-08,2.28082e-09,832.026,-831.986,1.33174e-05,1.56757e-08,-1.56753e-08,2.50908e-16
0.0699751,0.82,0.0733202,0.01,-40.2555,336.2,-818.383,818.423,140.702,-1.5419e-08,1.54194e-08,2.65091e-09,830.43,-830.39,1.48873e-05,1.56456e-08,-1.56452e-08,2.80485e-16
0.0799751,0.82,0.0740254,0.01,-39.6336,336.2,-812.941,812.98,160.1,-1.53165e-08,1.53168e-08,3.01638e-09,828.595,-828.556,1.68009e-05,1.5611e-08,-1.56106e-08,3.16539e-16
0.0899751,0.82,0.0754429,0.01,-38.9304,336.2,-806.822,806.86,179.22,-1.52012e-08,1.52015e-08,3.37661e-09,826.525,-826.487,1.82955e-05,1.5572e-08,-1.55717e-08,3.44698e-16
0.0999751,0.82,0.0761478,0.01,-38.1465,336.2,-800.043,800.079,198.032,-1.50734e-08,1.50738e-08,3.73104e-09,824.224,-824.187,1.97141e-05,1.55287e-08,-1.55283e-08,3.71425e-16
0.109975,0.82,0.078094,0.01,-37.2826,336.2,-792.622,792.658,216.506,-1.49336e-08,1.4934e-08,4.0791e-09,821.695,-821.659,2.09948e-05,1.54811e-08,-1.54807e-08,3.95554e-16
0.119975,0.82,0.078802,0.01,-36.3395,336.2,-784.582,784.617,234.614,-1.47821e-08,1.47825e-08,4.42026e-09,818.943,-818.909,2.19961e-05,1.54292e-08,-1.54289e-08,4.14418e-16
0.129975,0.82,0.0807518,0.01,-35.3179,336.2,-775.944,775.977,252.329,-1.46194e-08,1.46197e-08,4.75402e-09,815.973,-815.94,2.29347e-05,1.53733e-08,-1.53729e-08,4.32103e-16
0.139975,0.82,0.081988,0.01,-34.2187,336.2,-766.732,766.764,269.626,-1.44458e-08,1.44461e-08,5.07992e-09,812.789,-812.758,2.3579e-05,1.53133e-08,-1.5313e-08,4.44241e-16
0.149975,0.82,0.0838981,0.01,-33.0428,336.2,-756.97,757,286.483,-1.42619e-08,1.42622e-08,5.39751e-09,809.397,-809.367,2.41258e-05,1.52494e-08,-1.52491e-08,4.54545e-16
0.159975,0.82,0.0857052,0.01,-31.7913,336.2,-746.685,746.713,302.877,-1.40681e-08,1.40684e-08,5.70638e-09,805.802,-805.774,2.44332e-05,1.51817e-08,-1.51814e-08,4.60336e-16
0.169975,0.82,0.0875777,0.01,-30.4651,336.2,-735.903,735.93,318.789,-1.38649e-08,1.38652e-08,6.00617e-09,802.01,-801.983,2.46011e-05,1.51102e-08,-1.51099e-08,4.63499e-16
0.179975,0.82,0.0899529,0.01,-29.0653,336.2,-724.651,724.676,334.2,-1.3653e-08,1.36532e-08,6.29653e-09,798.027,-798.002,2.45828e-05,1.50352e-08,-1.50349e-08,4.63155e-16
0.189975,0.82,0.0917916,0.01,-27.593,336.2,-712.958,712.982,349.095,-1.34327e-08,1.34329e-08,6.57715e-09,793.859,-793.836,2.44135e-05,1.49567e-08,-1.49564e-08,4.59965e-16
0.199975,0.82,0.0946567,0.01,-26.0494,336.2,-700.854,700.876,363.459,-1.32046e-08,1.32048e-08,6.84778e-09,789.513,-789.491,2.40922e-05,1.48748e-08,-1.48746e-08,4.53911e-16
0.209975,0.82,0.0965401,0.01,-24.4358,336.2,-688.366,688.386,377.279,-1.29693e-08,1.29695e-08,7.10816e-09,784.995,-784.975,2.36342e-05,1.47897e-08,-1.47895e-08,4.45281e-16
0.219975,0.82,0.0993291,0.01,-22.7533,336.2,-675.524,675.543,390.546,-1.27274e-08,1.27275e-08,7.35811e-09,780.312,-780.293,2.30516e-05,1.47014e-08,-1.47013e-08,4.34306e-16
0.229975,0.82,0.101823,0.01,-21.0033,336.2,-662.359,662.376,403.25,-1.24793e-08,1.24795e-08,7.59746e-09,775.47,-775.453,2.23564e-05,1.46102e-08,-1.46101e-08,4.21208e-16
0.239975,0.82,0.104541,0.01,-19.187,336.2,-648.899,648.914,415.384,-1.22257e-08,1.22258e-08,7.82608e-09,770.477,-770.462,2.15632e-05,1.45162e-08,-1.4516e-08,4.06264e-16
0.249975,0.82,0.107638,0.01,-17.3059,336.2,-635.173,635.187,426.943,-1.19671e-08,1.19672e-08,8.04386e-09,765.34,-765.326,2.06859e-05,1.44194e-08,-1.44192e-08,3.89735e-16
0.259975,0.82,0.110294,0.01,-15.3612,336.2,-621.212,621.224,437.924,-1.1704e-08,1.17042e-08,8.25074e-09,760.065,-760.053,1.97377e-05,1.432e-08,-1.43199e-08,3.71869e-16
0.269975,0.82,0.113769,0.01,-13.3544,336.2,-607.044,607.054,448.324,-1.14371e-08,1.14372e-08,8.44669e-09,754.659,-754.649,1.87321e-05,1.42182e-08,-1.42181e-08,3.52924e-16
0.279975,0.82,0.116585,0.01,-11.2869,336.2,-592.696,592.705,458.144,-1.11668e-08,1.11669e-08,8.6317e-09,749.131,-749.122,1.76833e-05,1.4114e-08,-1.41139e-08,3.33163e-16
0.289975,0.82,0.119966,0.01,-9.16015,336.2,-578.198,578.205,467.385,-1.08936e-08,1.08937e-08,8.8058e-09,743.486,-743.479,1.66035e-05,1.40077e-08,-1.40076e-08,3.1282e-16
0.299975,0.82,0.123415,0.01,-6.97557,336.2,-563.576,563.582,476.049,-1.06181e-08,1.06182e-08,8.96904e-09,737.732,-737.726,1.55049e-05,1.38993e-08,-1.38992e-08,2.92121e-16
0.309975,0.82,0.126709,0.01,-4.73463,336.2,-548.857,548.861,484.141,-1.03408e-08,1.03409e-08,9.12149e-09,731.876,-731.872,1.43988e-05,1.37889e-08,-1.37889e-08,2.71282e-16
0.319975,0.82,0.130688,0.01,-2.43881,336.2,-534.067,534.07,491.666,-1.00621e-08,1.00622e-08,9.26327e-09,725.924,-725.922,1.32957e-05,1.36768e-08,-1.36768e-08,2.50498e-16
0.329975,0.82,0.133999,0.01,-0.0895783,336.2,-519.23,519.231,498.631,-9.7826e-09,9.78261e-09,9.39449e-09,719.885,-719.883,1.22052e-05,1.3563e-08,-1.3563e-08,2.29953e-16
0.339975,0.82,0.137869,0.01,2.31157,336.2,-504.371,504.371,505.043,-9.50264e-09,9.50264e-09,9.5153e-09,713.763,-713.763,1.11362e-05,1.34477e-08,-1.34477e-08,2.09813e-16
0.349975,0.82,0.141831,0.01,4.76316,336.2,-489.512,489.511,510.912,-9.22268e-09,9.22267e-09,9.62588e-09,707.567,-707.569,1.00957e-05,1.3331e-08,-1.3331e-08,1.90209e-16
0.359975,0.82,0.145603,0.01,7.2637,336.2,-474.676,474.673,516.248,-8.94316e-09,8.94313e-09,9.72641e-09,701.303,-701.306,9.09008e-06,1.3213e-08,-1.3213e-08,1.71262e-16
0.369975,0.82,0.149948,0.01,9.81171,336.2,-459.884,459.88,521.061,-8.66446e-09,8.66442e-09,9.81708e-09,694.977,-694.981,8.12464e-06,1.30938e-08,-1.30938e-08,1.53073e-16
0.379975,0.82,0.153889,0.01,12.4057,336.2,-445.155,445.151,525.362,-8.38697e-09,8.38692e-09,9.89813e-09,688.595,-688.6,7.20465e-06,1.29736e-08,-1.29736e-08,1.3574e-16
0.389975,0.82,0.158122,0.01,15.0442,336.2,-430.51,430.504,529.165,-8.11103e-09,8.11097e-09,9.96977e-09,682.164,-682.17,6.33423e-06,1.28524e-08,-1.28525e-08,1.19341e-16
0.399975,0.82,0.162723,0.01,17.7258,336.2,-415.966,415.959,532.482,-7.837e-09,7.83693e-09,1.00323e-08,675.69,-675.697,5.51435e-06,1.27304e-08,-1.27305e-08,1.03894e-16
0.409975,0.82,0.166854,0.01,20.4489,336.2,-401.539,401.531,535.326,-7.56519e-09,7.56511e-09,1.00858e-08,669.178,-669.186,4.74727e-06,1.26077e-08,-1.26078e-08,8.94414e-17
0.419975,0.82,0.171469,0.01,23.2123,336.2,-387.246,387.237,537.711,-7.2959e-09,7.29581e-09,1.01308e-08,662.634,-662.643,4.03563e-06,1.24844e-08,-1.24845e-08,7.60335e-17
0.429975,0.82,0.176141,0.01,26.0143,336.2,-373.101,373.092,539.653,-7.0294e-09,7.0293e-09,1.01674e-08,656.064,-656.073,3.3789e-06,1.23607e-08,-1.23608e-08,6.36604e-17
0.439975,0.82,0.180646,0.01,28.8537,336.2,-359.118,359.108,541.165,-6.76595e-09,6.76585e-09,1.01959e-08,649.473,-649.483,2.77632e-06,1.22365e-08,-1.22366e-08,5.23075e-17
0.449975,0.82,0.185581,0.01,31.7289,336.2,-345.31,345.3,542.262,-6.5058e-09,6.50569e-09,1.02165e-08,642.866,-642.876,2.22735e-06,1.2112e-08,-1.21121e-08,4.19646e-17
0.459975,0.82,0.190384,0.01,34.6387,336.2,-331.689,331.677,542.959,-6.24916e-09,6.24904e-09,1.02297e-08,636.248,-636.259,1.7306e-06,1.19873e-08,-1.19874e-08,3.26055e-17
0.469975,0.82,0.195203,0.01,37.5817,336.2,-318.264,318.252,543.273,-5.99623e-09,5.99611e-09,1.02356e-08,629.624,-629.636,1.28509e-06,1.18625e-08,-1.18627e-08,2.42119e-17
0.479975,0.82,0.200404,0.01,40.5565,336.2,-305.046,305.034,543.217,-5.74719e-09,5.74707e-09,1.02345e-08,622.998,-623.011,8.88964e-07,1.17377e-08,-1.17378e-08,1.67486e-17
0.489975,0.82,0.205392,0.01,43.5618,336.2,-292.044,292.031,542.808,-5.50222e-09,5.50209e-09,1.02268e-08,616.376,-616.388,5.39241e-07,1.16129e-08,-1.16131e-08,1.01596e-17
0.499975,0.82,0.210475,0.01,46.5963,336.2,-279.265,279.251,542.061,-5.26145e-09,5.26131e-09,1.02127e-08,609.76,-609.773,2.33487e-07,1.14883e-08,-1.14884e-08,4.39902e-18
0.509975,0.82,0.215902,0.01,49.6587,336.2,-266.725,266.704,540.995,-5.02516e-09,5.02495e-09,1.01927e-08,603.158,-603.179,0.00341165,1.13639e-08,-1.13641e-08,6.42775e-14
0.519975,0.82,0.221119,0.01,52.7478,336.2,-254.602,254.172,540.03,-4.79498e-09,4.79062e-09,1.01745e-08,596.732,-597.162,-0.185687,1.12446e-08,-1.1249e-08,-3.49845e-12
0.529975,0.82,0.226427,0.01,55.8624,336.2,-244.387,241.725,540.098,-4.59282e-09,4.56581e-09,1.01758e-08,590.937,-593.6,-0.218696,1.11452e-08,-1.11722e-08,-4.12036e-12
0.539975,0.82,0.232044,0.01,59.0012,336.2,-236.867,228.895,541.691,-4.42806e-09,4.34718e-09,1.02058e-08,585.643,-593.615,-0.0623725,1.10685e-08,-1.11494e-08,-1.17513e-12
0.549975,0.82,0.237529,0.01,62.163,336.2,-227.717,217.617,540.998,-4.24641e-09,4.14394e-09,1.01927e-08,579.979,-590.079,0.724719,1.0971e-08,-1.10735e-08,1.36541e-11
0.559975,0.82,0.243028,0.01,65.3467,336.2,-212.074,208.976,539.069,-3.98213e-09,3.9507e-09,1.01564e-08,577.17,-580.268,-0.0966203,1.08877e-08,-1.09191e-08,-1.82038e-12
-0.540025,0.83,0.240312,0.01,63.7893,344.45,-241.85,229.429,-533.343,-4.50259e-09,4.37658e-09,-1.00485e-08,576.867,-589.289,0.65861,1.09225e-08,-1.10485e-08,1.24086e-11
-0.530025,0.83,0.234891,0.01,60.7035,344.45,-247.895,243.803,-531.038,-4.65269e-09,4.61118e-09,-1.00051e-08,583.14,-587.231,0.351987,1.10045e-08,-1.1046e-08,6.63164e-12
-0.520025,0.83,0.229776,0.01,57.6421,344.45,-258.962,255.796,-529.812,-4.86524e-09,4.83311e-09,-9.98197e-09,587.437,-590.603,-0.487534,1.10814e-08,-1.11135e-08,-9.18542e-12
-0.510025,0.83,0.22429,0.01,54.6063,344.45,-269.792,267.688,-530.403,-5.07389e-09,5.05254e-09,-9.99309e-09,593.547,-595.651,-0.108652,1.11919e-08,-1.12133e-08,-2.04707e-12
-0.500025,0.83,0.219069,0.01,51.5973,344.45,-280.216,279.787,-529.953,-5.27757e-09,5.27321e-09,-9.98462e-09,599.161,-599.59,0.18153,1.12904e-08,-1.12948e-08,3.42013e-12
-0.490025,0.83,0.214188,0.01,48.6163,344.45,-292.452,292.44,-530.082,-5.50992e-09,5.5098e-09,-9.98706e-09,605.396,-605.408,-6.86428e-07,1.14061e-08,-1.14062e-08,-1.29327e-17
-0.480025,0.83,0.208926,0.01,45.6645,344.45,-305.112,305.1,-530.281,-5.74843e-09,5.74832e-09,-9.9908e-09,611.785,-611.796,-1.03259e-06,1.15264e-08,-1.15265e-08,-1.94547e-17
-0.470025,0.83,0.20394,0.01,42.7432,344.45,-317.972,317.961,-530.134,-5.99073e-09,5.99061e-09,-9.98804e-09,618.173,-618.184,-1.42202e-06,1.16468e-08,-1.16469e-08,-2.67918e-17
-0.460025,0.83,0.19933,0.01,39.8537,344.45,-331.024,331.013,-529.628,-6.23663e-09,6.23653e-09,-9.9785e-09,624.558,-624.569,-1.8572e-06,1.17671e-08,-1.17672e-08,-3.49908e-17
-0.450025,0.83,0.194252,0.01,36.9973,344.45,-344.258,344.248,-528.748,-6.48598e-09,6.48588e-09,-9.96192e-09,630.935,-630.944,-2.33922e-06,1.18872e-08,-1.18873e-08,-4.40722e-17
-0.440025,0.83,0.18954,0.01,34.1754,344.45,-357.664,357.655,-527.479,-6.73855e-09,6.73846e-09,-9.93802e-09,637.298,-637.307,-2.86921e-06,1.20071e-08,-1.20072e-08,-5.40575e-17
-0.430025,0.83,0.185128,0.01,31.3892,344.45,-371.23,371.221,-525.808,-6.99415e-09,6.99406e-09,-9.90654e-09,643.644,-643.652,-3.44863e-06,1.21267e-08,-1.21267e-08,-6.49742e-17
-0.420025,0.83,0.180305,0.01,28.6401,344.45,-384.944,384.936,-523.721,-7.25253e-09,7.25245e-09,-9.86721e-09,649.967,-649.975,-4.07826e-06,1.22458e-08,-1.22459e-08,-7.68368e-17
-0.410025,0.83,0.175919,0.01,25.9296,344.45,-398.792,398.785,-521.203,-7.51345e-09,7.51338e-09,-9.81977e-09,656.263,-656.27,-4.75746e-06,1.23644e-08,-1.23645e-08,-8.96333e-17
-0.400025,0.83,0.171629,0.01,23.2589,344.45,-412.761,412.755,-518.242,-7.77662e-09,7.77656e-09,-9.76399e-09,662.525,-662.531,-5.48513e-06,1.24824e-08,-1.24824e-08,-1.03343e-16
-0.390025,0.83,0.167138,0.01,20.6295,344.45,-426.834,426.829,-514.825,-8.04177e-09,8.04172e-09,-9.6996e-09,668.75,-668.755,-6.26047e-06,1.25997e-08,-1.25997e-08,-1.17951e-16
-0.380025,0.83,0.163136,0.01,18.0428,344.45,-440.995,440.991,-510.939,-8.30858e-09,8.30854e-09,-9.62638e-09,674.93,-674.934,-7.08177e-06,1.27161e-08,-1.27161e-08,-1.33425e-16
-0.370025,0.83,0.158908,0.01,15.5002,344.45,-455.227,455.224,-506.572,-8.57673e-09,8.5767e-09,-9.54411e-09,681.061,-681.064,-7.94569e-06,1.28316e-08,-1.28316e-08,-1.49701e-16
-0.360025,0.83,0.154812,0.01,13.0031,344.45,-469.512,469.51,-501.713,-8.84587e-09,8.84585e-09,-9.45257e-09,687.136,-687.137,-8.84844e-06,1.2946e-08,-1.29461e-08,-1.6671e-16
-0.350025,0.83,0.151234,0.01,10.5529,344.45,-483.83,483.829,-496.352,-9.11563e-09,9.11563e-09,-9.35155e-09,693.149,-693.15,-9.78656e-06,1.30593e-08,-1.30593e-08,-1.84385e-16
-0.340025,0.83,0.147033,0.01,8.15114,344.45,-498.161,498.162,-490.478,-9.38565e-09,9.38565e-09,-9.24089e-09,699.095,-699.095,-1.07546e-05,1.31714e-08,-1.31713e-08,-2.02623e-16
-0.330025,0.83,0.143407,0.01,5.79919,344.45,-512.484,512.486,-484.083,-9.6555e-09,9.65552e-09,-9.12041e-09,704.967,-704.965,-1.17457e-05,1.3282e-08,-1.3282e-08,-2.21297e-16
-0.320025,0.83,0.139802,0.01,3.49849,344.45,-526.777,526.78,-477.159,-9.92479e-09,9.92482e-09,-8.98995e-09,710.759,-710.756,-1.2753e-05,1.33911e-08,-1.33911e-08,-2.40274e-16
-0.310025,0.83,0.136087,0.01,1.25047,344.45,-541.016,541.02,-469.699,-1.01931e-08,1.01931e-08,-8.8494e-09,716.464,-716.46,-1.37681e-05,1.34986e-08,-1.34985e-08,-2.59399e-16
-0.300025,0.83,0.133021,0.01,-0.943457,344.45,-555.178,555.184,-461.696,-1.04599e-08,1.046e-08,-8.69863e-09,722.076,-722.07,-1.47824e-05,1.36043e-08,-1.36042e-08,-2.78509e-16
-0.290025,0.83,0.129308,0.01,-3.08186,344.45,-569.239,569.246,-453.147,-1.07248e-08,1.07249e-08,-8.53756e-09,727.588,-727.581,-1.57873e-05,1.37082e-08,-1.37081e-08,-2.97442e-16
-0.280025,0.83,0.126174,0.01,-5.16334,344.45,-583.173,583.182,-444.048,-1.09874e-08,1.09874e-08,-8.36612e-09,732.995,-732.986,-1.67713e-05,1.381e-08,-1.38099e-08,-3.15981e-16
-0.270025,0.83,0.123072,0.01,-7.18651,344.45,-596.955,596.965,-434.396,-1.1247e-08,1.12471e-08,-8.18427e-09,738.288,-738.277,-1.77228e-05,1.39097e-08,-1.39096e-08,-3.33908e-16
-0.260025,0.83,0.119862,0.01,-9.14998,344.45,-610.558,610.569,-424.191,-1.15033e-08,1.15034e-08,-7.992e-09,743.461,-743.449,-1.86308e-05,1.40072e-08,-1.40071e-08,-3.51015e-16
-0.250025,0.83,0.117379,0.01,-11.0524,344.45,-623.955,623.968,-413.434,-1.17557e-08,1.17559e-08,-7.78933e-09,748.508,-748.495,-1.94836e-05,1.41023e-08,-1.41021e-08,-3.67082e-16
-0.240025,0.83,0.114087,0.01,-12.8924,344.45,-637.118,637.133,-402.126,-1.20037e-08,1.20039e-08,-7.57628e-09,753.423,-753.408,-2.02688e-05,1.41949e-08,-1.41947e-08,-3.81876e-16
-0.230025,0.83,0.111596,0.01,-14.6687,344.45,-650.022,650.038,-390.272,-1.22469e-08,1.2247e-08,-7.35294e-09,758.198,-758.181,-2.09738e-05,1.42848e-08,-1.42846e-08,-3.95158e-16
-0.220025,0.83,0.108849,0.01,-16.38,344.45,-662.637,662.655,-377.876,-1.24845e-08,1.24847e-08,-7.11941e-09,762.826,-762.808,-2.15865e-05,1.4372e-08,-1.43718e-08,-4.06702e-16
-0.210025,0.83,0.106305,0.01,-18.0251,344.45,-674.936,674.956,-364.947,-1.27163e-08,1.27165e-08,-6.87581e-09,767.303,-767.283,-2.2094e-05,1.44563e-08,-1.44561e-08,-4.16264e-16
-0.200025,0.83,0.104148,0.01,-19.6026,344.45,-686.891,686.912,-351.492,-1.29415e-08,1.29417e-08,-6.62231e-09,771.62,-771.598,-2.24846e-05,1.45377e-08,-1.45375e-08,-4.23623e-16
-0.190025,0.83,0.101546,0.01,-21.1115,344.45,-698.475,698.498,-337.522,-1.31598e-08,1.316e-08,-6.35911e-09,775.772,-775.749,-2.27483e-05,1.46159e-08,-1.46157e-08,-4.28592e-16
-0.180025,0.83,0.0998821,0.01,-22.5505,344.45,-709.659,709.684,-323.05,-1.33705e-08,1.33707e-08,-6.08644e-09,779.752,-779.728,-2.28752e-05,1.46909e-08,-1.46906e-08,-4.30983e-16
-0.170025,0.83,0.0973207,0.01,-23.9186,344.45,-720.418,720.444,-308.088,-1.35732e-08,1.35735e-08,-5.80455e-09,783.556,-783.53,-2.28556e-05,1.47625e-08,-1.47623e-08,-4.30614e-16
-0.160025,0.83,0.0956339,0.01,-25.2146,344.45,-730.725,730.752,-292.653,-1.37674e-08,1.37677e-08,-5.51375e-09,787.176,-787.148,-2.26813e-05,1.48307e-08,-1.48304e-08,-4.27328e-16
-0.150025,0.83,0.0936286,0.01,-26.4376,344.45,-740.553,740.582,-276.762,-1.39526e-08,1.39529e-08,-5.21435e-09,790.607,-790.578,-2.23491e-05,1.48954e-08,-1.48951e-08,-4.2107e-16
-0.140025,0.83,0.0919155,0.01,-27.5865,344.45,-749.878,749.908,-260.433,-1.41283e-08,1.41286e-08,-4.90671e-09,793.844,-793.814,-2.18496e-05,1.49564e-08,-1.4956e-08,-4.1166e-16
-0.130025,0.83,0.0904695,0.01,-28.6604,344.45,-758.675,758.707,-243.688,-1.4294e-08,1.42943e-08,-4.59123e-09,796.882,-796.851,-2.1189e-05,1.50136e-08,-1.50133e-08,-3.99214e-16
-0.120025,0.83,0.088728,0.01,-29.6584,344.45,-766.922,766.955,-226.549,-1.44494e-08,1.44497e-08,-4.26831e-09,799.716,-799.683,-2.03528e-05,1.5067e-08,-1.50666e-08,-3.83458e-16
-0.110025,0.83,0.087842,0.01,-30.5798,344.45,-774.597,774.631,-209.039,-1.4594e-08,1.45943e-08,-3.93842e-09,802.341,-802.307,-1.93611e-05,1.51164e-08,-1.51161e-08,-3.64775e-16
-0.100025,0.83,0.0860719,0.01,-31.4237,344.45,-781.678,781.713,-191.184,-1.47274e-08,1.47278e-08,-3.60201e-09,804.753,-804.718,-1.81966e-05,1.51619e-08,-1.51615e-08,-3.42835e-16
-0.0900249,0.83,0.085443,0.01,-32.1895,344.45,-788.146,788.182,-173.01,-1.48493e-08,1.48497e-08,-3.2596e-09,806.948,-806.911,-1.68857e-05,1.52032e-08,-1.52028e-08,-3.18137e-16
-0.0800249,0.83,0.0839474,0.01,-32.8764,344.45,-793.984,794.021,-154.545,-1.49593e-08,1.49597e-08,-2.91172e-09,808.922,-808.885,-1.54227e-05,1.52404e-08,-1.524e-08,-2.90573e-16
-0.0700249,0.83,0.0833203,0.01,-33.4839,344.45,-799.175,799.213,-135.818,-1.50571e-08,1.50575e-08,-2.5589e-09,810.672,-810.634,-1.38167e-05,1.52734e-08,-1.5273e-08,-2.60314e-16
-0.0600249,0.83,0.0823545,0.01,-34.0115,344.45,-803.704,803.743,-116.86,-1.51424e-08,1.51428e-08,-2.20172e-09,812.194,-812.156,-1.21043e-05,1.5302e-08,-1.53016e-08,-2.28053e-16
-0.0500249,0.83,0.0817271,0.01,-34.4588,344.45,-807.559,807.599,-97.702,-1.52151e-08,1.52155e-08,-1.84076e-09,813.487,-813.448,-1.02481e-05,1.53264e-08,-1.5326e-08,-1.93079e-16
-0.0400249,0.83,0.0812922,0.01,-34.8253,344.45,-810.729,810.769,-78.3753,-1.52748e-08,1.52752e-08,-1.47664e-09,814.548,-814.509,-8.34069e-06,1.53464e-08,-1.5346e-08,-1.57143e-16
-0.0300249,0.83,0.0806644,0.01,-35.1107,344.45,-813.204,813.245,-58.9131,-1.53214e-08,1.53218e-08,-1.10996e-09,815.376,-815.335,-6.30383e-06,1.5362e-08,-1.53616e-08,-1.18768e-16
-0.0200249,0.83,0.0807597,0.01,-35.3148,344.45,-814.978,815.019,-39.3488,-1.53548e-08,1.53552e-08,-7.41353e-10,815.968,-815.927,-4.25765e-06,1.53731e-08,-1.53727e-08,-8.02165e-17
-0.0100249,0.83,0.0801329,0.01,-35.4375,344.45,-816.045,816.086,-19.716,-1.53749e-08,1.53754e-08,-3.71461e-10,816.324,-816.283,-2.1303e-06,1.53798e-08,-1.53794e-08,-4.01361e-17
-2.48653e-05,0.83,0.0807492,0.01,-35.4785,344.45,-816.402,816.443,-0.0489171,-1.53817e-08,1.53821e-08,-9.21626e-13,816.443,-816.402,-5.08557e-09,1.53821e-08,-1.53817e-08,-9.58151e-20
0.00997513,0.83,0.0801329,0.01,-35.4379,344.45,-816.049,816.089,19.6182,-1.5375e-08,1.53754e-08,3.69619e-10,816.325,-816.284,2.11982e-06,1.53799e-08,-1.53794e-08,3.99387e-17
0.0199751,0.83,0.0807535,0.01,-35.3156,344.45,-814.985,815.026,39.2513,-1.5355e-08,1.53554e-08,7.39517e-10,815.97,-815.93,4.24702e-06,1.53732e-08,-1.53728e-08,8.00163e-17
0.0299751,0.83,0.0806644,0.01,-35.1119,344.45,-813.215,813.255,58.8161,-1.53216e-08,1.5322e-08,1.10813e-09,815.379,-815.339,6.29349e-06,1.5362e-08,-1.53616e-08,1.18573e-16
0.0399751,0.83,0.0812861,0.01,-34.8269,344.45,-810.743,810.783,78.2788,-1.5275e-08,1.52754e-08,1.47482e-09,814.553,-814.513,8.33112e-06,1.53465e-08,-1.53461e-08,1.56963e-16
0.0499751,0.83,0.081727,0.01,-34.4608,344.45,-807.577,807.616,97.6062,-1.52154e-08,1.52158e-08,1.83896e-09,813.493,-813.454,1.02388e-05,1.53265e-08,-1.53261e-08,1.92906e-16
0.0599751,0.83,0.0823483,0.01,-34.014,344.45,-803.725,803.764,116.766,-1.51428e-08,1.51432e-08,2.19993e-09,812.201,-812.163,1.20952e-05,1.53022e-08,-1.53018e-08,2.27881e-16
0.0699751,0.83,0.0833202,0.01,-33.4867,344.45,-799.199,799.237,135.725,-1.50575e-08,1.50579e-08,2.55713e-09,810.68,-810.642,1.38086e-05,1.52735e-08,-1.52731e-08,2.60162e-16
0.0799751,0.83,0.0839414,0.01,-32.8796,344.45,-794.011,794.049,154.452,-1.49598e-08,1.49602e-08,2.90997e-09,808.931,-808.894,1.54149e-05,1.52406e-08,-1.52402e-08,2.90426e-16
0.0899751,0.83,0.0854428,0.01,-32.1931,344.45,-788.177,788.213,172.919,-1.48499e-08,1.48502e-08,3.25789e-09,806.958,-806.922,1.68789e-05,1.52034e-08,-1.5203e-08,3.18008e-16
0.0999751,0.83,0.0860659,0.01,-31.4277,344.45,-781.712,781.747,191.094,-1.47281e-08,1.47284e-08,3.60032e-09,804.764,-804.729,1.81904e-05,1.51621e-08,-1.51617e-08,3.42718e-16
0.109975,0.83,0.0878305,0.01,-30.5842,344.45,-774.633,774.668,208.951,-1.45947e-08,1.4595e-08,3.93676e-09,802.354,-802.32,1.93556e-05,1.51167e-08,-1.51163e-08,3.64671e-16
0.119975,0.83,0.0887221,0.01,-29.6632,344.45,-766.962,766.995,226.463,-1.44502e-08,1.44505e-08,4.26669e-09,799.73,-799.697,2.03477e-05,1.50672e-08,-1.50669e-08,3.83363e-16
0.129975,0.83,0.0904582,0.01,-28.6655,344.45,-758.718,758.749,243.604,-1.42948e-08,1.42951e-08,4.58964e-09,796.897,-796.865,2.11847e-05,1.50139e-08,-1.50135e-08,3.99133e-16
0.139975,0.83,0.0919097,0.01,-27.592,344.45,-749.923,749.953,260.351,-1.41291e-08,1.41294e-08,4.90516e-09,793.86,-793.83,2.18467e-05,1.49567e-08,-1.49563e-08,4.11605e-16
0.149975,0.83,0.0936176,0.01,-26.4435,344.45,-740.6,740.629,276.681,-1.39535e-08,1.39538e-08,5.21284e-09,790.624,-790.595,2.23475e-05,1.48957e-08,-1.48954e-08,4.2104e-16
0.159975,0.83,0.0956281,0.01,-25.2209,344.45,-730.775,730.802,292.575,-1.37683e-08,1.37686e-08,5.51228e-09,787.193,-787.166,2.26803e-05,1.48311e-08,-1.48308e-08,4.2731e-16
0.169975,0.83,0.0973098,0.01,-23.9252,344.45,-720.47,720.497,308.012,-1.35742e-08,1.35745e-08,5.80313e-09,783.574,-783.548,2.28551e-05,1.47629e-08,-1.47626e-08,4.30603e-16
0.179975,0.83,0.0998763,0.01,-22.5575,344.45,-709.714,709.738,322.976,-1.33715e-08,1.33718e-08,6.08506e-09,779.772,-779.747,2.28756e-05,1.46912e-08,-1.4691e-08,4.3099e-16
0.189975,0.83,0.101535,0.01,-21.1188,344.45,-698.531,698.554,337.451,-1.31608e-08,1.31611e-08,6.35778e-09,775.792,-775.769,2.27499e-05,1.46163e-08,-1.4616e-08,4.28621e-16
0.199975,0.83,0.104133,0.01,-19.6103,344.45,-686.95,686.971,351.424,-1.29426e-08,1.29428e-08,6.62103e-09,771.641,-771.619,2.24865e-05,1.45381e-08,-1.45379e-08,4.23658e-16
0.209975,0.83,0.106294,0.01,-18.0331,344.45,-674.996,675.016,364.881,-1.27174e-08,1.27176e-08,6.87457e-09,767.324,-767.305,2.20957e-05,1.44568e-08,-1.44566e-08,4.16295e-16
0.219975,0.83,0.108834,0.01,-16.3884,344.45,-662.699,662.717,377.813,-1.24857e-08,1.24859e-08,7.11822e-09,762.849,-762.831,2.15889e-05,1.43724e-08,-1.43723e-08,4.06747e-16
0.229975,0.83,0.111586,0.01,-14.6774,344.45,-650.085,650.102,390.211,-1.22481e-08,1.22482e-08,7.35181e-09,758.221,-758.204,2.09769e-05,1.42853e-08,-1.42851e-08,3.95217e-16
0.239975,0.83,0.114072,0.01,-12.9014,344.45,-637.183,637.198,402.068,-1.2005e-08,1.20051e-08,7.5752e-09,753.447,-753.432,2.02725e-05,1.41953e-08,-1.41952e-08,3.81945e-16
0.249975,0.83,0.117361,0.01,-11.0617,344.45,-624.021,624.034,413.379,-1.1757e-08,1.17571e-08,7.78829e-09,748.533,-748.52,1.9488e-05,1.41027e-08,-1.41026e-08,3.67166e-16
0.259975,0.83,0.119848,0.01,-9.15959,344.45,-610.625,610.637,424.139,-1.15046e-08,1.15047e-08,7.99102e-09,743.487,-743.475,1.86354e-05,1.40077e-08,-1.40075e-08,3.51102e-16
0.269975,0.83,0.123054,0.01,-7.19642,344.45,-597.023,597.033,434.347,-1.12483e-08,1.12484e-08,8.18334e-09,738.314,-738.303,1.77273e-05,1.39102e-08,-1.39101e-08,3.33993e-16
0.279975,0.83,0.12616,0.01,-5.17355,344.45,-583.242,583.251,444.001,-1.09887e-08,1.09887e-08,8.36524e-09,733.021,-733.012,1.67757e-05,1.38105e-08,-1.38104e-08,3.16065e-16
0.289975,0.83,0.12929,0.01,-3.09236,344.45,-569.309,569.316,453.103,-1.07261e-08,1.07262e-08,8.53673e-09,727.616,-727.608,1.57922e-05,1.37087e-08,-1.37086e-08,2.97534e-16
0.299975,0.83,0.133007,0.01,-0.95423,344.45,-555.248,555.254,461.655,-1.04612e-08,1.04613e-08,8.69785e-09,722.104,-722.098,1.47877e-05,1.36048e-08,-1.36048e-08,2.78608e-16
0.309975,0.83,0.13607,0.01,1.23942,344.45,-541.086,541.091,469.66,-1.01944e-08,1.01944e-08,8.84867e-09,716.492,-716.488,1.37729e-05,1.34991e-08,-1.34991e-08,2.5949e-16
0.319975,0.83,0.139782,0.01,3.48718,344.45,-526.847,526.851,477.123,-9.92612e-09,9.92616e-09,8.98928e-09,710.787,-710.784,1.27577e-05,1.33916e-08,-1.33916e-08,2.40362e-16
0.329975,0.83,0.14339,0.01,5.78762,344.45,-512.555,512.557,484.05,-9.65684e-09,9.65686e-09,9.11978e-09,704.996,-704.994,1.17506e-05,1.32825e-08,-1.32825e-08,2.21388e-16
0.339975,0.83,0.147013,0.01,8.13932,344.45,-498.232,498.233,490.448,-9.38699e-09,9.38699e-09,9.24032e-09,699.124,-699.124,1.07596e-05,1.31719e-08,-1.31719e-08,2.02718e-16
0.349975,0.83,0.151212,0.01,10.5408,344.45,-483.901,483.901,496.324,-9.11698e-09,9.11697e-09,9.35103e-09,693.179,-693.18,9.79182e-06,1.30599e-08,-1.30599e-08,1.84484e-16
0.359975,0.83,0.154792,0.01,12.9908,344.45,-469.583,469.581,501.688,-8.84721e-09,8.84719e-09,9.45209e-09,687.166,-687.168,8.85355e-06,1.29466e-08,-1.29466e-08,1.66806e-16
0.369975,0.83,0.158887,0.01,15.4876,344.45,-455.298,455.295,506.549,-8.57807e-09,8.57804e-09,9.54368e-09,681.091,-681.094,7.94989e-06,1.28322e-08,-1.28322e-08,1.4978e-16
0.379975,0.83,0.163117,0.01,18.03,344.45,-441.066,441.061,510.918,-8.30991e-09,8.30987e-09,9.626e-09,674.961,-674.965,7.08564e-06,1.27167e-08,-1.27167e-08,1.33497e-16
0.389975,0.83,0.167116,0.01,20.6165,344.45,-426.904,426.899,514.807,-8.04309e-09,8.04304e-09,9.69926e-09,668.78,-668.786,6.26464e-06,1.26002e-08,-1.26003e-08,1.18029e-16
0.399975,0.83,0.171606,0.01,23.2457,344.45,-412.83,412.824,518.226,-7.77794e-09,7.77788e-09,9.76369e-09,662.556,-662.562,5.48863e-06,1.2483e-08,-1.2483e-08,1.03409e-16
0.409975,0.83,0.175898,0.01,25.9162,344.45,-398.861,398.854,521.19,-7.51475e-09,7.51468e-09,9.81952e-09,656.294,-656.301,4.76017e-06,1.2365e-08,-1.23651e-08,8.96844e-17
0.419975,0.83,0.180283,0.01,28.6266,344.45,-385.012,385.005,523.709,-7.25382e-09,7.25374e-09,9.86699e-09,649.999,-650.006,4.08122e-06,1.22464e-08,-1.22465e-08,7.68925e-17
0.429975,0.83,0.185103,0.01,31.3754,344.45,-371.298,371.289,525.799,-6.99543e-09,6.99534e-09,9.90636e-09,643.675,-643.684,3.45156e-06,1.21273e-08,-1.21273e-08,6.50294e-17
0.439975,0.83,0.189518,0.01,34.1614,344.45,-357.731,357.722,527.472,-6.73982e-09,6.73972e-09,9.93788e-09,637.33,-637.339,2.87173e-06,1.20077e-08,-1.20078e-08,5.41051e-17
0.449975,0.83,0.194227,0.01,36.9832,344.45,-344.324,344.314,528.743,-6.48722e-09,6.48712e-09,9.96182e-09,630.966,-630.976,2.34162e-06,1.18878e-08,-1.18879e-08,4.41174e-17
0.459975,0.83,0.199308,0.01,39.8394,344.45,-331.089,331.079,529.625,-6.23787e-09,6.23776e-09,9.97844e-09,624.59,-624.6,1.85954e-06,1.17677e-08,-1.17678e-08,3.50348e-17
0.469975,0.83,0.203916,0.01,42.7287,344.45,-318.036,318.025,530.133,-5.99194e-09,5.99183e-09,9.98801e-09,618.205,-618.216,1.42413e-06,1.16474e-08,-1.16475e-08,2.68315e-17
0.479975,0.83,0.208901,0.01,45.6499,344.45,-305.175,305.164,530.281,-5.74963e-09,5.74951e-09,9.9908e-09,611.816,-611.828,1.03435e-06,1.1527e-08,-1.15271e-08,1.94878e-17
0.489975,0.83,0.214164,0.01,48.6015,344.45,-292.515,292.503,530.084,-5.5111e-09,5.51098e-09,9.98709e-09,605.428,-605.44,6.88243e-07,1.14067e-08,-1.14068e-08,1.29669e-17
0.499975,0.83,0.219044,0.01,51.5824,344.45,-280.278,279.848,529.956,-5.27872e-09,5.27437e-09,9.98469e-09,599.193,-599.622,-0.181554,1.1291e-08,-1.12954e-08,-3.42059e-12
0.509975,0.83,0.224263,0.01,54.5913,344.45,-269.852,267.748,530.408,-5.07503e-09,5.05368e-09,9.99319e-09,593.579,-595.683,0.108544,1.11925e-08,-1.12139e-08,2.04503e-12
0.519975,0.83,0.229752,0.01,57.627,344.45,-259.022,255.856,529.819,-4.86636e-09,4.83424e-09,9.98209e-09,587.469,-590.635,0.48774,1.1082e-08,-1.11141e-08,9.18931e-12
0.529975,0.83,0.234864,0.01,60.6883,344.45,-247.953,243.862,531.045,-4.6538e-09,4.61229e-09,1.00052e-08,583.172,-587.263,-0.351633,1.10051e-08,-1.10466e-08,-6.62497e-12
0.539975,0.83,0.240284,0.01,63.7739,344.45,-241.909,229.487,533.352,-4.50369e-09,4.37767e-09,1.00487e-08,576.899,-589.321,-0.658321,1.09231e-08,-1.10491e-08,-1.24031e-11
-0.530025,0.84,0.243445,0.01,65.5048,352.8,-251.165,248.078,-521.745,-4.71868e-09,4.68736e-09,-9.82998e-09,576.841,-579.928,-0.71207,1.08814e-08,-1.09128e-08,-1.34158e-11
-0.520025,0.84,0.23812,0.01,62.4955,352.8,-266.709,256.277,-522.83,-4.97959e-09,4.87376e-09,-9.85041e-09,579.359,-589.791,-0.951815,1.09608e-08,-1.10667e-08,-1.79327e-11
-0.510025,0.84,0.23278,0.01,59.5119,352.8,-275.251,267.401,-522.205,-5.15176e-09,5.07212e-09,-9.83864e-09,584.56,-592.411,0.150699,1.10476e-08,-1.11272e-08,2.83925e-12
-0.500025,0.84,0.227753,0.01,56.5551,352.8,-282.664,280.208,-519.336,-5.31487e-09,5.28995e-09,-9.7846e-09,589.463,-591.919,0.187398,1.11165e-08,-1.11414e-08,3.53068e-12
-0.490025,0.84,0.222681,0.01,53.6265,352.8,-292.931,292.522,-518.068,-5.51721e-09,5.51306e-09,-9.7607e-09,594.845,-595.253,0.172738,1.1209e-08,-1.12131e-08,3.25448e-12
-0.480025,0.84,0.21755,0.01,50.7271,352.8,-305.052,305.034,-517.695,-5.74728e-09,5.74709e-09,-9.75368e-09,600.873,-600.891,-0.00318327,1.13209e-08,-1.13211e-08,-5.99747e-14
-0.470025,0.84,0.212765,0.01,47.8582,352.8,-317.554,317.544,-517.355,-5.98286e-09,5.98275e-09,-9.74727e-09,607.031,-607.042,-1.54462e-06,1.14369e-08,-1.1437e-08,-2.91015e-17
-0.460025,0.84,0.207909,0.01,45.0211,352.8,-330.244,330.234,-516.669,-6.22194e-09,6.22184e-09,-9.73434e-09,613.187,-613.197,-1.96824e-06,1.15528e-08,-1.15529e-08,-3.70828e-17
-0.450025,0.84,0.203022,0.01,42.2169,352.8,-343.102,343.093,-515.618,-6.4642e-09,6.46411e-09,-9.71455e-09,619.332,-619.341,-2.43559e-06,1.16686e-08,-1.16687e-08,-4.5888e-17
-0.440025,0.84,0.198519,0.01,39.4471,352.8,-356.118,356.11,-514.19,-6.70943e-09,6.70935e-09,-9.68765e-09,625.463,-625.471,-2.94716e-06,1.17841e-08,-1.17842e-08,-5.55262e-17
-0.430025,0.84,0.193836,0.01,36.713,352.8,-369.281,369.273,-512.372,-6.95743e-09,6.95735e-09,-9.65338e-09,631.574,-631.582,-3.50352e-06,1.18993e-08,-1.18993e-08,-6.60083e-17
-0.420025,0.84,0.189235,0.01,34.0157,352.8,-382.578,382.571,-510.15,-7.20796e-09,7.20789e-09,-9.61152e-09,637.661,-637.668,-4.10536e-06,1.20139e-08,-1.2014e-08,-7.73473e-17
-0.410025,0.84,0.185061,0.01,31.3567,352.8,-395.997,395.991,-507.511,-7.46078e-09,7.46072e-09,-9.56181e-09,643.719,-643.726,-4.75231e-06,1.21281e-08,-1.21281e-08,-8.95362e-17
-0.400025,0.84,0.180505,0.01,28.7373,352.8,-409.523,409.518,-504.444,-7.71562e-09,7.71557e-09,-9.50402e-09,649.744,-649.749,-5.44288e-06,1.22416e-08,-1.22416e-08,-1.02547e-16
-0.390025,0.84,0.176239,0.01,26.1589,352.8,-423.141,423.137,-500.936,-7.97221e-09,7.97216e-09,-9.43793e-09,655.729,-655.734,-6.17564e-06,1.23543e-08,-1.23544e-08,-1.16353e-16
-0.380025,0.84,0.172329,0.01,23.6227,352.8,-436.836,436.833,-496.976,-8.23024e-09,8.2302e-09,-9.36331e-09,661.67,-661.674,-6.94929e-06,1.24663e-08,-1.24663e-08,-1.30929e-16
-0.370025,0.84,0.167965,0.01,21.1303,352.8,-450.591,450.589,-492.553,-8.48939e-09,8.48937e-09,-9.27998e-09,667.561,-667.564,-7.76074e-06,1.25772e-08,-1.25773e-08,-1.46217e-16
-0.360025,0.84,0.164094,0.01,18.6829,352.8,-464.388,464.387,-487.656,-8.74934e-09,8.74932e-09,-9.18772e-09,673.397,-673.398,-8.60575e-06,1.26872e-08,-1.26872e-08,-1.62137e-16
-0.350025,0.84,0.16024,0.01,16.2819,352.8,-478.209,478.209,-482.276,-9.00973e-09,9.00973e-09,-9.08636e-09,679.171,-679.171,-9.48073e-06,1.2796e-08,-1.2796e-08,-1.78622e-16
-0.340025,0.84,0.156281,0.01,13.9288,352.8,-492.033,492.034,-476.404,-9.2702e-09,9.27021e-09,-8.97573e-09,684.879,-684.878,-1.03805e-05,1.29035e-08,-1.29035e-08,-1.95574e-16
-0.330025,0.84,0.152875,0.01,11.6249,352.8,-505.842,505.844,-470.032,-9.53036e-09,9.53038e-09,-8.85568e-09,690.513,-690.511,-1.12983e-05,1.30097e-08,-1.30096e-08,-2.12867e-16
-0.320025,0.84,0.149011,0.01,9.37156,352.8,-519.613,519.616,-463.153,-9.78982e-09,9.78986e-09,-8.72607e-09,696.069,-696.066,-1.22281e-05,1.31143e-08,-1.31143e-08,-2.30384e-16
-0.310025,0.84,0.145531,0.01,7.17018,352.8,-533.325,533.329,-455.76,-1.00482e-08,1.00482e-08,-8.58679e-09,701.54,-701.535,-1.31624e-05,1.32174e-08,-1.32174e-08,-2.47988e-16
-0.300025,0.84,0.142286,0.01,5.02213,352.8,-546.954,546.96,-447.849,-1.0305e-08,1.0305e-08,-8.43774e-09,706.92,-706.914,-1.40931e-05,1.33188e-08,-1.33187e-08,-2.65523e-16
-0.290025,0.84,0.138726,0.01,2.92878,352.8,-560.479,560.486,-439.416,-1.05598e-08,1.05599e-08,-8.27885e-09,712.202,-712.195,-1.50115e-05,1.34183e-08,-1.34182e-08,-2.82825e-16
-0.280025,0.84,0.135809,0.01,0.891471,352.8,-573.874,573.883,-430.457,-1.08122e-08,1.08123e-08,-8.11005e-09,717.381,-717.373,-1.59074e-05,1.35158e-08,-1.35158e-08,-2.99704e-16
-0.270025,0.84,0.132459,0.01,-1.08845,352.8,-587.116,587.126,-420.971,-1.10616e-08,1.10618e-08,-7.93133e-09,722.451,-722.44,-1.67705e-05,1.36113e-08,-1.36112e-08,-3.15965e-16
-0.260025,0.84,0.129483,0.01,-3.00966,352.8,-600.179,600.191,-410.958,-1.13078e-08,1.13079e-08,-7.74268e-09,727.404,-727.392,-1.75908e-05,1.37047e-08,-1.37045e-08,-3.31421e-16
-0.250025,0.84,0.126733,0.01,-4.87085,352.8,-613.038,613.051,-400.418,-1.155e-08,1.15502e-08,-7.54412e-09,732.235,-732.222,-1.83574e-05,1.37957e-08,-1.37955e-08,-3.45864e-16
-0.240025,0.84,0.12369,0.01,-6.67074,352.8,-625.666,625.681,-389.356,-1.1788e-08,1.17881e-08,-7.33568e-09,736.937,-736.922,-1.9059e-05,1.38843e-08,-1.38841e-08,-3.59083e-16
-0.230025,0.84,0.121397,0.01,-8.40806,352.8,-638.039,638.056,-377.773,-1.20211e-08,1.20213e-08,-7.11746e-09,741.505,-741.488,-1.96846e-05,1.39703e-08,-1.39701e-08,-3.70869e-16
-0.220025,0.84,0.118434,0.01,-10.0816,352.8,-650.13,650.148,-365.676,-1.22489e-08,1.22491e-08,-6.88956e-09,745.931,-745.913,-2.02232e-05,1.40537e-08,-1.40535e-08,-3.81017e-16
-0.210025,0.84,0.1161,0.01,-11.6901,352.8,-661.913,661.932,-353.073,-1.24709e-08,1.24711e-08,-6.65209e-09,750.211,-750.191,-2.06636e-05,1.41343e-08,-1.41341e-08,-3.89314e-16
-0.200025,0.84,0.113713,0.01,-13.2324,352.8,-673.361,673.382,-339.97,-1.26866e-08,1.26868e-08,-6.40524e-09,754.337,-754.316,-2.09952e-05,1.42121e-08,-1.42118e-08,-3.95562e-16
-0.190025,0.84,0.111334,0.01,-14.7074,352.8,-684.449,684.471,-326.38,-1.28955e-08,1.28957e-08,-6.14918e-09,758.305,-758.283,-2.12092e-05,1.42868e-08,-1.42866e-08,-3.99594e-16
-0.180025,0.84,0.109527,0.01,-16.1139,352.8,-695.151,695.174,-312.313,-1.30971e-08,1.30974e-08,-5.88415e-09,762.108,-762.084,-2.12968e-05,1.43584e-08,-1.43582e-08,-4.01245e-16
-0.170025,0.84,0.107101,0.01,-17.451,352.8,-705.441,705.466,-297.783,-1.3291e-08,1.32913e-08,-5.6104e-09,765.74,-765.715,-2.12499e-05,1.44269e-08,-1.44266e-08,-4.00361e-16
-0.160025,0.84,0.105571,0.01,-18.7175,352.8,-715.295,715.321,-282.804,-1.34767e-08,1.3477e-08,-5.3282e-09,769.197,-769.171,-2.10619e-05,1.4492e-08,-1.44917e-08,-3.96818e-16
-0.150025,0.84,0.103401,0.01,-19.9124,352.8,-724.689,724.716,-267.395,-1.36537e-08,1.3654e-08,-5.03787e-09,772.473,-772.446,-2.07275e-05,1.45537e-08,-1.45534e-08,-3.90519e-16
-0.140025,0.84,0.101852,0.01,-21.0349,352.8,-733.598,733.628,-251.572,-1.38215e-08,1.38218e-08,-4.73976e-09,775.564,-775.534,-2.02436e-05,1.46119e-08,-1.46116e-08,-3.81402e-16
-0.130025,0.84,0.100233,0.01,-22.0841,352.8,-742.002,742.032,-235.355,-1.39799e-08,1.39802e-08,-4.43422e-09,778.463,-778.433,-1.96085e-05,1.46666e-08,-1.46663e-08,-3.69435e-16
-0.120025,0.84,0.0986635,0.01,-23.059,352.8,-749.877,749.908,-218.766,-1.41282e-08,1.41286e-08,-4.12168e-09,781.167,-781.135,-1.88205e-05,1.47175e-08,-1.47172e-08,-3.54589e-16
-0.110025,0.84,0.0975964,0.01,-23.959,352.8,-757.203,757.236,-201.827,-1.42663e-08,1.42666e-08,-3.80253e-09,783.671,-783.639,-1.78831e-05,1.47647e-08,-1.47644e-08,-3.36929e-16
-0.100025,0.84,0.0960063,0.01,-24.7832,352.8,-763.961,763.995,-184.562,-1.43936e-08,1.4394e-08,-3.47725e-09,785.972,-785.938,-1.67988e-05,1.4808e-08,-1.48077e-08,-3.165e-16
-0.0900249,0.84,0.0954429,0.01,-25.531,352.8,-770.134,770.168,-166.996,-1.45099e-08,1.45103e-08,-3.1463e-09,788.066,-788.031,-1.55746e-05,1.48475e-08,-1.48471e-08,-2.93435e-16
-0.0800249,0.84,0.0938806,0.01,-26.2019,352.8,-775.703,775.738,-149.156,-1.46148e-08,1.46152e-08,-2.81018e-09,789.948,-789.913,-1.42158e-05,1.48829e-08,-1.48826e-08,-2.67835e-16
-0.0700249,0.84,0.0933203,0.01,-26.7951,352.8,-780.654,780.69,-131.069,-1.47081e-08,1.47085e-08,-2.46942e-09,791.617,-791.58,-1.27332e-05,1.49144e-08,-1.4914e-08,-2.39901e-16
-0.0600249,0.84,0.0922865,0.01,-27.3104,352.8,-784.974,785.011,-112.764,-1.47895e-08,1.47899e-08,-2.12454e-09,793.069,-793.032,-1.11389e-05,1.49417e-08,-1.49413e-08,-2.09863e-16
-0.0500249,0.84,0.0917271,0.01,-27.7471,352.8,-788.65,788.687,-94.2701,-1.48588e-08,1.48592e-08,-1.7761e-09,794.301,-794.264,-9.44288e-06,1.49649e-08,-1.49646e-08,-1.77909e-16
-0.0400249,0.84,0.0912234,0.01,-28.1049,352.8,-791.672,791.71,-75.6177,-1.49157e-08,1.49161e-08,-1.42468e-09,795.313,-795.275,-7.66301e-06,1.4984e-08,-1.49836e-08,-1.44375e-16
-0.0300249,0.84,0.0906644,0.01,-28.3836,352.8,-794.032,794.07,-56.8376,-1.49602e-08,1.49606e-08,-1.07085e-09,796.102,-796.063,-5.81035e-06,1.49989e-08,-1.49985e-08,-1.0947e-16
-0.0200249,0.84,0.0906906,0.01,-28.5829,352.8,-795.723,795.761,-37.9612,-1.4992e-08,1.49924e-08,-7.1521e-10,796.666,-796.628,-3.9068e-06,1.50095e-08,-1.50091e-08,-7.36064e-17
-0.0100249,0.84,0.0901329,0.01,-28.7026,352.8,-796.74,796.779,-19.0203,-1.50112e-08,1.50116e-08,-3.58354e-10,797.006,-796.967,-1.96401e-06,1.50159e-08,-1.50155e-08,-3.70031e-17
-2.48653e-05,0.84,0.0906813,0.01,-28.7427,352.8,-797.08,797.119,-0.0471907,-1.50176e-08,1.5018e-08,-8.89101e-13,797.119,-797.08,-4.37948e-09,1.5018e-08,-1.50176e-08,-8.2512e-20
0.00997513,0.84,0.0901329,0.01,-28.703,352.8,-796.743,796.782,18.926,-1.50113e-08,1.50117e-08,3.56577e-10,797.007,-796.968,1.95473e-06,1.50159e-08,-1.50155e-08,3.68283e-17
0.0199751,0.84,0.0906851,0.01,-28.5837,352.8,-795.729,795.768,37.8671,-1.49922e-08,1.49926e-08,7.13438e-10,796.669,-796.63,3.89678e-06,1.50095e-08,-1.50091e-08,7.34176e-17
0.0299751,0.84,0.0906644,0.01,-28.3848,352.8,-794.042,794.08,56.7439,-1.49604e-08,1.49608e-08,1.06909e-09,796.105,-796.067,5.80047e-06,1.49989e-08,-1.49985e-08,1.09284e-16
0.0399751,0.84,0.0912179,0.01,-28.1065,352.8,-791.685,791.723,75.5246,-1.4916e-08,1.49164e-08,1.42293e-09,795.318,-795.28,7.6539e-06,1.49841e-08,-1.49837e-08,1.44204e-16
0.0499751,0.84,0.091727,0.01,-27.749,352.8,-788.666,788.704,94.1777,-1.48591e-08,1.48595e-08,1.77436e-09,794.307,-794.269,9.43397e-06,1.4965e-08,-1.49647e-08,1.77741e-16
0.0599751,0.84,0.092281,0.01,-27.3127,352.8,-784.994,785.031,112.672,-1.47899e-08,1.47903e-08,2.12282e-09,793.075,-793.038,1.11306e-05,1.49418e-08,-1.49415e-08,2.09707e-16
0.0699751,0.84,0.0933202,0.01,-26.7979,352.8,-780.677,780.713,130.979,-1.47086e-08,1.47089e-08,2.46771e-09,791.624,-791.588,1.2726e-05,1.49145e-08,-1.49141e-08,2.39766e-16
0.0799751,0.84,0.0938752,0.01,-26.205,352.8,-775.729,775.765,149.067,-1.46153e-08,1.46157e-08,2.8085e-09,789.957,-789.921,1.4209e-05,1.48831e-08,-1.48827e-08,2.67706e-16
0.0899751,0.84,0.0954428,0.01,-25.5346,352.8,-770.163,770.197,166.908,-1.45105e-08,1.45108e-08,3.14464e-09,788.075,-788.041,1.55682e-05,1.48476e-08,-1.48473e-08,2.93313e-16
0.0999751,0.84,0.0960009,0.01,-24.7871,352.8,-763.994,764.027,184.475,-1.43942e-08,1.43946e-08,3.47562e-09,785.983,-785.949,1.67931e-05,1.48082e-08,-1.48079e-08,3.16391e-16
0.109975,0.84,0.0975861,0.01,-23.9632,352.8,-757.238,757.271,201.742,-1.42669e-08,1.42673e-08,3.80093e-09,783.683,-783.651,1.78781e-05,1.47649e-08,-1.47646e-08,3.36833e-16
0.119975,0.84,0.0986582,0.01,-23.0637,352.8,-749.915,749.946,218.682,-1.4129e-08,1.41293e-08,4.1201e-09,781.18,-781.148,1.88159e-05,1.47177e-08,-1.47174e-08,3.54503e-16
0.129975,0.84,0.100222,0.01,-22.0891,352.8,-742.042,742.072,235.273,-1.39806e-08,1.39809e-08,4.43269e-09,778.477,-778.447,1.96045e-05,1.46668e-08,-1.46665e-08,3.6936e-16
0.139975,0.84,0.101847,0.01,-21.0403,352.8,-733.641,733.671,251.492,-1.38224e-08,1.38227e-08,4.73825e-09,775.578,-775.549,2.02407e-05,1.46122e-08,-1.46119e-08,3.81347e-16
0.149975,0.84,0.103391,0.01,-19.9182,352.8,-724.734,724.762,267.317,-1.36545e-08,1.36548e-08,5.03641e-09,772.489,-772.461,2.07254e-05,1.4554e-08,-1.45537e-08,3.90479e-16
0.159975,0.84,0.105565,0.01,-18.7236,352.8,-715.343,715.369,282.729,-1.34776e-08,1.34779e-08,5.32677e-09,769.214,-769.188,2.10603e-05,1.44923e-08,-1.44921e-08,3.96789e-16
0.169975,0.84,0.107091,0.01,-17.4574,352.8,-705.491,705.516,297.709,-1.3292e-08,1.32922e-08,5.60901e-09,765.758,-765.733,2.12492e-05,1.44272e-08,-1.4427e-08,4.00347e-16
0.179975,0.84,0.109513,0.01,-16.1208,352.8,-695.203,695.226,312.242,-1.30981e-08,1.30984e-08,5.88281e-09,762.126,-762.102,2.12969e-05,1.43588e-08,-1.43586e-08,4.01247e-16
0.189975,0.84,0.111325,0.01,-14.7146,352.8,-684.503,684.525,326.311,-1.28965e-08,1.28968e-08,6.14789e-09,758.324,-758.302,2.12103e-05,1.42872e-08,-1.42869e-08,3.99615e-16
0.199975,0.84,0.113699,0.01,-13.2399,352.8,-673.417,673.438,339.904,-1.26877e-08,1.26879e-08,6.40399e-09,754.357,-754.337,2.09967e-05,1.42124e-08,-1.42122e-08,3.9559e-16
0.209975,0.84,0.116091,0.01,-11.6979,352.8,-661.971,661.99,353.009,-1.2472e-08,1.24722e-08,6.65089e-09,750.232,-750.212,2.06653e-05,1.41347e-08,-1.41345e-08,3.89346e-16
0.219975,0.84,0.11842,0.01,-10.0897,352.8,-650.19,650.207,365.615,-1.225e-08,1.22502e-08,6.8884e-09,745.953,-745.935,2.02256e-05,1.40541e-08,-1.40539e-08,3.81063e-16
0.229975,0.84,0.121388,0.01,-8.41654,352.8,-638.1,638.116,377.714,-1.20222e-08,1.20224e-08,7.11635e-09,741.527,-741.511,1.96877e-05,1.39707e-08,-1.39706e-08,3.70927e-16
0.239975,0.84,0.123677,0.01,-6.67953,352.8,-625.729,625.743,389.299,-1.17892e-08,1.17893e-08,7.33462e-09,736.96,-736.945,1.90626e-05,1.38847e-08,-1.38845e-08,3.5915e-16
0.249975,0.84,0.126717,0.01,-4.87995,352.8,-613.101,613.114,400.365,-1.15512e-08,1.15514e-08,7.5431e-09,732.258,-732.245,1.83612e-05,1.37961e-08,-1.3796e-08,3.45936e-16
0.259975,0.84,0.12947,0.01,-3.01906,352.8,-600.243,600.255,410.907,-1.1309e-08,1.13091e-08,7.74172e-09,727.428,-727.416,1.75947e-05,1.37051e-08,-1.3705e-08,3.31495e-16
0.269975,0.84,0.132443,0.01,-1.09815,352.8,-587.181,587.192,420.922,-1.10629e-08,1.1063e-08,7.93042e-09,722.476,-722.465,1.67748e-05,1.36118e-08,-1.36117e-08,3.16046e-16
0.279975,0.84,0.135796,0.01,0.881482,352.8,-573.94,573.949,430.411,-1.08134e-08,1.08135e-08,8.10919e-09,717.407,-717.398,1.59118e-05,1.35163e-08,-1.35162e-08,2.99787e-16
0.289975,0.84,0.138709,0.01,2.9185,352.8,-560.546,560.553,439.372,-1.0561e-08,1.05611e-08,8.27803e-09,712.228,-712.221,1.5016e-05,1.34188e-08,-1.34187e-08,2.82911e-16
0.299975,0.84,0.142267,0.01,5.01158,352.8,-547.022,547.028,447.809,-1.03062e-08,1.03063e-08,8.43697e-09,706.946,-706.94,1.40977e-05,1.33193e-08,-1.33192e-08,2.6561e-16
0.309975,0.84,0.145515,0.01,7.15936,352.8,-533.393,533.397,455.722,-1.00494e-08,1.00495e-08,8.58607e-09,701.567,-701.562,1.3167e-05,1.32179e-08,-1.32179e-08,2.48074e-16
0.319975,0.84,0.148992,0.01,9.36048,352.8,-519.681,519.685,463.117,-9.79111e-09,9.79114e-09,8.7254e-09,696.097,-696.093,1.22328e-05,1.31148e-08,-1.31148e-08,2.30473e-16
0.329975,0.84,0.152859,0.01,11.6136,352.8,-505.91,505.913,469.999,-9.53165e-09,9.53168e-09,8.85506e-09,690.541,-690.539,1.1303e-05,1.30102e-08,-1.30102e-08,2.12955e-16
0.339975,0.84,0.156263,0.01,13.9172,352.8,-492.102,492.103,476.374,-9.27149e-09,9.2715e-09,8.97515e-09,684.907,-684.906,1.03848e-05,1.2904e-08,-1.2904e-08,1.95656e-16
0.349975,0.84,0.160219,0.01,16.2701,352.8,-478.278,478.277,482.248,-9.01103e-09,9.01102e-09,9.08583e-09,679.2,-679.2,9.48499e-06,1.27965e-08,-1.27965e-08,1.78703e-16
0.359975,0.84,0.164077,0.01,18.6708,352.8,-464.457,464.456,487.63,-8.75063e-09,8.75062e-09,9.18724e-09,673.426,-673.427,8.61016e-06,1.26877e-08,-1.26877e-08,1.6222e-16
0.369975,0.84,0.167944,0.01,21.118,352.8,-450.66,450.657,492.529,-8.49068e-09,8.49066e-09,9.27954e-09,667.59,-667.593,7.76503e-06,1.25778e-08,-1.25778e-08,1.46298e-16
0.379975,0.84,0.172307,0.01,23.6102,352.8,-436.905,436.901,496.955,-8.23152e-09,8.23149e-09,9.36292e-09,661.7,-661.703,6.95361e-06,1.24668e-08,-1.24669e-08,1.3101e-16
0.389975,0.84,0.176219,0.01,26.1461,352.8,-423.209,423.205,500.918,-7.97349e-09,7.97344e-09,9.43758e-09,655.759,-655.763,6.17958e-06,1.23549e-08,-1.23549e-08,1.16427e-16
0.399975,0.84,0.180482,0.01,28.7244,352.8,-409.59,409.585,504.428,-7.7169e-09,7.71684e-09,9.50371e-09,649.774,-649.779,5.44585e-06,1.22421e-08,-1.22422e-08,1.02603e-16
0.409975,0.84,0.185041,0.01,31.3436,352.8,-396.064,396.058,507.497,-7.46204e-09,7.46198e-09,9.56154e-09,643.75,-643.756,4.7552e-06,1.21286e-08,-1.21287e-08,8.95908e-17
0.419975,0.84,0.189214,0.01,34.0024,352.8,-382.645,382.638,510.138,-7.20922e-09,7.20914e-09,9.61129e-09,637.691,-637.698,4.1087e-06,1.20145e-08,-1.20146e-08,7.74103e-17
0.429975,0.84,0.193813,0.01,36.6995,352.8,-369.347,369.339,512.362,-6.95867e-09,6.95859e-09,9.6532e-09,631.604,-631.612,3.50634e-06,1.18998e-08,-1.18999e-08,6.60615e-17
0.439975,0.84,0.198497,0.01,39.4335,352.8,-356.183,356.175,514.182,-6.71066e-09,6.71058e-09,9.68749e-09,625.493,-625.502,2.94916e-06,1.17847e-08,-1.17848e-08,5.55638e-17
0.449975,0.84,0.202999,0.01,42.2031,352.8,-343.166,343.157,515.612,-6.46541e-09,6.46532e-09,9.71443e-09,619.363,-619.372,2.43782e-06,1.16692e-08,-1.16693e-08,4.59299e-17
0.459975,0.84,0.207884,0.01,45.007,352.8,-330.307,330.298,516.664,-6.22314e-09,6.22304e-09,9.73425e-09,613.218,-613.227,1.97083e-06,1.15534e-08,-1.15535e-08,3.71316e-17
0.469975,0.84,0.212742,0.01,47.844,352.8,-317.617,317.606,517.352,-5.98404e-09,5.98393e-09,9.74722e-09,607.062,-607.072,1.54672e-06,1.14374e-08,-1.14375e-08,2.91411e-17
0.479975,0.84,0.217525,0.01,50.7127,352.8,-305.114,305.096,517.694,-5.74844e-09,5.74826e-09,9.75366e-09,600.904,-600.922,0.00318318,1.13215e-08,-1.13216e-08,5.9973e-14
0.489975,0.84,0.222654,0.01,53.612,352.8,-292.992,292.583,518.069,-5.51836e-09,5.51421e-09,9.76072e-09,594.875,-595.284,-0.172733,1.12096e-08,-1.12137e-08,-3.25439e-12
0.499975,0.84,0.227729,0.01,56.5405,352.8,-282.724,280.268,519.339,-5.316e-09,5.29108e-09,9.78464e-09,589.494,-591.95,-0.187365,1.11171e-08,-1.1142e-08,-3.53006e-12
0.509975,0.84,0.232754,0.01,59.4971,352.8,-275.311,267.46,522.209,-5.15288e-09,5.07323e-09,9.83871e-09,584.591,-592.442,-0.150808,1.10482e-08,-1.11278e-08,-2.8413e-12
0.519975,0.84,0.238093,0.01,62.4806,352.8,-266.768,256.335,522.835,-4.98071e-09,4.87487e-09,9.85052e-09,579.39,-589.824,0.952135,1.09614e-08,-1.10673e-08,1.79388e-11
0.529975,0.84,0.24342,0.01,65.4897,352.8,-251.224,248.137,521.751,-4.71978e-09,4.68846e-09,9.8301e-09,576.872,-579.959,0.71307,1.0882e-08,-1.09133e-08,1.34347e-11
-0.510025,0.85,0.241385,0.01,64.3905,361.25,-279.27,267.484,-513.365,-5.21037e-09,5.0908e-09,-9.6721e-09,575.724,-587.511,0.343714,1.08982e-08,-1.10178e-08,6.47577e-12
-0.500025,0.85,0.236481,0.01,61.4849,361.25,-285.302,281.546,-509.94,-5.35893e-09,5.32082e-09,-9.60756e-09,581.532,-585.288,0.0115277,1.09727e-08,-1.10108e-08,2.17189e-13
-0.490025,0.85,0.231224,0.01,58.6074,361.25,-296.323,293.134,-507.749,-5.56903e-09,5.53668e-09,-9.56628e-09,585.494,-588.683,-0.618737,1.10449e-08,-1.10773e-08,-1.16574e-11
-0.480025,0.85,0.226286,0.01,55.7592,361.25,-306.841,304.744,-507.113,-5.77194e-09,5.75067e-09,-9.5543e-09,591.128,-593.224,-0.00132673,1.11463e-08,-1.11676e-08,-2.49963e-14
-0.470025,0.85,0.221627,0.01,52.9414,361.25,-317.18,316.779,-505.284,-5.97411e-09,5.97004e-09,-9.51984e-09,596.279,-596.68,0.168081,1.1236e-08,-1.12401e-08,3.16673e-12
-0.460025,0.85,0.216588,0.01,50.1554,361.25,-329.306,329.289,-504.078,-6.20424e-09,6.20407e-09,-9.49711e-09,602.097,-602.114,-0.00299389,1.13439e-08,-1.13441e-08,-5.64067e-14
-0.450025,0.85,0.211901,0.01,47.4022,361.25,-341.788,341.78,-502.866,-6.43945e-09,6.43936e-09,-9.47428e-09,608.017,-608.026,-2.51543e-06,1.14554e-08,-1.14555e-08,-4.73921e-17
-0.440025,0.85,0.207449,0.01,44.6833,361.25,-354.426,354.418,-501.292,-6.67755e-09,6.67747e-09,-9.44463e-09,613.925,-613.933,-3.00842e-06,1.15667e-08,-1.15668e-08,-5.66804e-17
-0.430025,0.85,0.202664,0.01,41.9998,361.25,-367.197,367.19,-499.339,-6.91818e-09,6.91811e-09,-9.40784e-09,619.812,-619.819,-3.54208e-06,1.16776e-08,-1.16777e-08,-6.67348e-17
-0.420025,0.85,0.198268,0.01,39.353,361.25,-380.091,380.085,-496.995,-7.1611e-09,7.16104e-09,-9.36368e-09,625.673,-625.68,-4.11643e-06,1.17881e-08,-1.17881e-08,-7.7556e-17
-0.410025,0.85,0.193982,0.01,36.7442,361.25,-393.094,393.088,-494.248,-7.40609e-09,7.40604e-09,-9.31192e-09,631.505,-631.51,-4.73177e-06,1.18979e-08,-1.1898e-08,-8.91493e-17
-0.400025,0.85,0.189492,0.01,34.1748,361.25,-406.192,406.188,-491.087,-7.65288e-09,7.65283e-09,-9.25236e-09,637.302,-637.306,-5.38651e-06,1.20072e-08,-1.20072e-08,-1.01485e-16
-0.390025,0.85,0.185434,0.01,31.6459,361.25,-419.372,419.368,-487.5,-7.9012e-09,7.90116e-09,-9.18477e-09,643.059,-643.063,-6.07844e-06,1.21156e-08,-1.21157e-08,-1.14521e-16
-0.380025,0.85,0.181267,0.01,29.159,361.25,-432.618,432.615,-483.476,-8.15076e-09,8.15073e-09,-9.10897e-09,648.772,-648.774,-6.8064e-06,1.22232e-08,-1.22233e-08,-1.28237e-16
-0.370025,0.85,0.177123,0.01,26.7154,361.25,-445.913,445.911,-479.007,-8.40125e-09,8.40123e-09,-9.02477e-09,654.434,-654.436,-7.56798e-06,1.23299e-08,-1.23299e-08,-1.42585e-16
-0.360025,0.85,0.173457,0.01,24.3163,361.25,-459.241,459.24,-474.082,-8.65236e-09,8.65235e-09,-8.93198e-09,660.042,-660.042,-8.35834e-06,1.24356e-08,-1.24356e-08,-1.57476e-16
-0.350025,0.85,0.169358,0.01,21.9632,361.25,-472.583,472.584,-468.692,-8.90375e-09,8.90375e-09,-8.83043e-09,665.588,-665.588,-9.17339e-06,1.25401e-08,-1.25401e-08,-1.72832e-16
-0.340025,0.85,0.165617,0.01,19.6573,361.25,-485.922,485.923,-462.83,-9.15506e-09,9.15507e-09,-8.71999e-09,671.069,-671.067,-1.00089e-05,1.26433e-08,-1.26433e-08,-1.88573e-16
-0.330025,0.85,0.162139,0.01,17.4,361.25,-499.237,499.239,-456.488,-9.40592e-09,9.40595e-09,-8.6005e-09,676.478,-676.475,-1.08586e-05,1.27452e-08,-1.27452e-08,-2.04583e-16
-0.320025,0.85,0.158316,0.01,15.1927,361.25,-512.508,512.512,-449.66,-9.65597e-09,9.65601e-09,-8.47186e-09,681.809,-681.805,-1.1717e-05,1.28457e-08,-1.28456e-08,-2.20755e-16
-0.310025,0.85,0.155045,0.01,13.0366,361.25,-525.715,525.72,-442.341,-9.9048e-09,9.90485e-09,-8.33395e-09,687.057,-687.052,-1.25771e-05,1.29445e-08,-1.29445e-08,-2.3696e-16
-0.300025,0.85,0.151557,0.01,10.933,361.25,-538.836,538.842,-434.525,-1.0152e-08,1.01521e-08,-8.1867e-09,692.216,-692.21,-1.34308e-05,1.30417e-08,-1.30417e-08,-2.53044e-16
-0.290025,0.85,0.14822,0.01,8.88337,361.25,-551.848,551.855,-426.21,-1.03972e-08,1.03972e-08,-8.03004e-09,697.281,-697.273,-1.42698e-05,1.31371e-08,-1.31371e-08,-2.68851e-16
-0.280025,0.85,0.145341,0.01,6.8889,361.25,-564.729,564.738,-417.393,-1.06399e-08,1.06399e-08,-7.86392e-09,702.244,-702.235,-1.50852e-05,1.32306e-08,-1.32306e-08,-2.84215e-16
-0.270025,0.85,0.141931,0.01,4.9509,361.25,-577.456,577.466,-408.073,-1.08796e-08,1.08797e-08,-7.68834e-09,707.101,-707.091,-1.58684e-05,1.33221e-08,-1.3322e-08,-2.9897e-16
-0.260025,0.85,0.139157,0.01,3.07065,361.25,-590.004,590.016,-398.251,-1.11161e-08,1.11162e-08,-7.50328e-09,711.845,-711.834,-1.66095e-05,1.34115e-08,-1.34114e-08,-3.12932e-16
-0.250025,0.85,0.13618,0.01,1.2494,361.25,-602.35,602.363,-387.927,-1.13487e-08,1.13488e-08,-7.30877e-09,716.471,-716.458,-1.72983e-05,1.34987e-08,-1.34985e-08,-3.2591e-16
-0.240025,0.85,0.133353,0.01,-0.511622,361.25,-614.47,614.485,-377.105,-1.1577e-08,1.15772e-08,-7.10488e-09,720.972,-720.958,-1.79249e-05,1.35835e-08,-1.35833e-08,-3.37715e-16
-0.230025,0.85,0.130967,0.01,-2.2112,361.25,-626.339,626.355,-365.789,-1.18007e-08,1.18008e-08,-6.89167e-09,725.344,-725.328,-1.84794e-05,1.36658e-08,-1.36657e-08,-3.48162e-16
-0.220025,0.85,0.128082,0.01,-3.84814,361.25,-637.932,637.949,-353.984,-1.20191e-08,1.20193e-08,-6.66926e-09,729.579,-729.561,-1.8952e-05,1.37456e-08,-1.37454e-08,-3.57067e-16
-0.210025,0.85,0.125928,0.01,-5.42128,361.25,-649.224,649.243,-341.697,-1.22318e-08,1.2232e-08,-6.43777e-09,733.672,-733.653,-1.93331e-05,1.38227e-08,-1.38225e-08,-3.64247e-16
-0.200025,0.85,0.123346,0.01,-6.92951,361.25,-660.191,660.212,-328.937,-1.24385e-08,1.24387e-08,-6.19737e-09,737.618,-737.598,-1.96133e-05,1.38971e-08,-1.38969e-08,-3.69526e-16
-0.190025,0.85,0.121157,0.01,-8.37172,361.25,-670.809,670.831,-315.714,-1.26385e-08,1.26387e-08,-5.94824e-09,741.411,-741.39,-1.97843e-05,1.39685e-08,-1.39683e-08,-3.72747e-16
-0.180025,0.85,0.119145,0.01,-9.74686,361.25,-681.053,681.076,-302.039,-1.28315e-08,1.28318e-08,-5.6906e-09,745.046,-745.024,-1.98386e-05,1.4037e-08,-1.40368e-08,-3.7377e-16
-0.170025,0.85,0.116919,0.01,-11.0539,361.25,-690.9,690.924,-287.926,-1.30171e-08,1.30173e-08,-5.42469e-09,748.518,-748.494,-1.97692e-05,1.41024e-08,-1.41022e-08,-3.72463e-16
-0.160025,0.85,0.115477,0.01,-12.2918,361.25,-700.326,700.352,-273.388,-1.31947e-08,1.31949e-08,-5.15078e-09,751.821,-751.795,-1.95703e-05,1.41646e-08,-1.41644e-08,-3.68716e-16
-0.150025,0.85,0.113212,0.01,-13.4597,361.25,-709.309,709.335,-258.441,-1.33639e-08,1.33642e-08,-4.86919e-09,754.95,-754.923,-1.92375e-05,1.42236e-08,-1.42233e-08,-3.62445e-16
-0.140025,0.85,0.1118,0.01,-14.5567,361.25,-717.826,717.854,-243.104,-1.35244e-08,1.35247e-08,-4.58022e-09,757.901,-757.873,-1.87684e-05,1.42792e-08,-1.42789e-08,-3.53608e-16
-0.130025,0.85,0.110038,0.01,-15.5819,361.25,-725.856,725.885,-227.395,-1.36757e-08,1.3676e-08,-4.28424e-09,760.67,-760.641,-1.81613e-05,1.43313e-08,-1.4331e-08,-3.42169e-16
-0.120025,0.85,0.108611,0.01,-16.5345,361.25,-733.38,733.41,-211.333,-1.38174e-08,1.38177e-08,-3.98163e-09,763.252,-763.221,-1.74157e-05,1.438e-08,-1.43797e-08,-3.28122e-16
-0.110025,0.85,0.107396,0.01,-17.4138,361.25,-740.378,740.409,-194.941,-1.39493e-08,1.39496e-08,-3.6728e-09,765.642,-765.611,-1.65342e-05,1.4425e-08,-1.44247e-08,-3.11514e-16
-0.100025,0.85,0.105953,0.01,-18.2191,361.25,-746.831,746.864,-178.241,-1.40709e-08,1.40712e-08,-3.35816e-09,767.838,-767.806,-1.552e-05,1.44664e-08,-1.44661e-08,-2.92406e-16
-0.0900249,0.85,0.105285,0.01,-18.9496,361.25,-752.724,752.757,-161.257,-1.41819e-08,1.41822e-08,-3.03817e-09,769.836,-769.803,-1.43783e-05,1.4504e-08,-1.45037e-08,-2.70895e-16
-0.0800249,0.85,0.103827,0.01,-19.605,361.25,-758.04,758.074,-144.014,-1.42821e-08,1.42824e-08,-2.71331e-09,771.632,-771.598,-1.31161e-05,1.45379e-08,-1.45375e-08,-2.47115e-16
-0.0700249,0.85,0.10332,0.01,-20.1845,361.25,-762.765,762.8,-126.538,-1.43711e-08,1.43714e-08,-2.38405e-09,773.224,-773.19,-1.17423e-05,1.45678e-08,-1.45675e-08,-2.21231e-16
-0.0600249,0.85,0.102232,0.01,-20.6877,361.25,-766.887,766.922,-108.857,-1.44488e-08,1.44491e-08,-2.05092e-09,774.61,-774.574,-1.02667e-05,1.45939e-08,-1.45936e-08,-1.93431e-16
-0.0500249,0.85,0.101727,0.01,-21.1142,361.25,-770.394,770.43,-90.997,-1.45148e-08,1.45152e-08,-1.71444e-09,775.786,-775.75,-8.70054e-06,1.46161e-08,-1.46157e-08,-1.63923e-16
-0.0400249,0.85,0.101168,0.01,-21.4637,361.25,-773.277,773.314,-72.9878,-1.45692e-08,1.45695e-08,-1.37513e-09,776.751,-776.714,-7.05715e-06,1.46343e-08,-1.46339e-08,-1.32961e-16
-0.0300249,0.85,0.100664,0.01,-21.7359,361.25,-775.529,775.565,-54.8583,-1.46116e-08,1.46119e-08,-1.03356e-09,777.503,-777.466,-5.35046e-06,1.46484e-08,-1.46481e-08,-1.00806e-16
-0.0200249,0.85,0.100635,0.01,-21.9305,361.25,-777.141,777.178,-36.638,-1.4642e-08,1.46423e-08,-6.90282e-10,778.041,-778.004,-3.59575e-06,1.46586e-08,-1.46582e-08,-6.77461e-17
-0.0100249,0.85,0.100133,0.01,-22.0475,361.25,-778.111,778.149,-18.357,-1.46602e-08,1.46606e-08,-3.45857e-10,778.365,-778.328,-1.80832e-06,1.46647e-08,-1.46643e-08,-3.40698e-17
-2.48653e-05,0.85,0.100627,0.01,-22.0866,361.25,-778.436,778.473,-0.0455447,-1.46664e-08,1.46667e-08,-8.58089e-13,778.473,-778.436,-4.38631e-09,1.46667e-08,-1.46664e-08,-8.26407e-20
0.00997513,0.85,0.100133,0.01,-22.0478,361.25,-778.115,778.152,18.266,-1.46603e-08,1.46607e-08,3.44142e-10,778.366,-778.329,1.7996e-06,1.46647e-08,-1.46643e-08,3.39056e-17
0.0199751,0.85,0.10063,0.01,-21.9313,361.25,-777.148,777.185,36.5472,-1.46421e-08,1.46424e-08,6.88571e-10,778.044,-778.007,3.58706e-06,1.46586e-08,-1.46583e-08,6.75822e-17
0.0299751,0.85,0.100664,0.01,-21.7371,361.25,-775.538,775.575,54.7679,-1.46117e-08,1.46121e-08,1.03186e-09,777.506,-777.47,5.34183e-06,1.46485e-08,-1.46481e-08,1.00643e-16
0.0399751,0.85,0.101163,0.01,-21.4653,361.25,-773.29,773.327,72.898,-1.45694e-08,1.45698e-08,1.37344e-09,776.755,-776.719,7.04866e-06,1.46344e-08,-1.4634e-08,1.32801e-16
0.0499751,0.85,0.101727,0.01,-21.1161,361.25,-770.41,770.446,90.9078,-1.45151e-08,1.45155e-08,1.71276e-09,775.791,-775.755,8.69208e-06,1.46162e-08,-1.46158e-08,1.63764e-16
0.0599751,0.85,0.102227,0.01,-20.69,361.25,-766.906,766.941,108.768,-1.44491e-08,1.44495e-08,2.04926e-09,774.616,-774.581,1.02588e-05,1.45941e-08,-1.45937e-08,1.93282e-16
0.0699751,0.85,0.10332,0.01,-20.1871,361.25,-762.787,762.822,126.451,-1.43715e-08,1.43719e-08,2.38241e-09,773.232,-773.197,1.17356e-05,1.4568e-08,-1.45676e-08,2.21106e-16
0.0799751,0.85,0.103822,0.01,-19.608,361.25,-758.065,758.099,143.928,-1.42825e-08,1.42829e-08,2.71168e-09,771.641,-771.607,1.31101e-05,1.4538e-08,-1.45377e-08,2.47001e-16
0.0899751,0.85,0.105275,0.01,-18.9531,361.25,-752.752,752.785,161.172,-1.41824e-08,1.41828e-08,3.03657e-09,769.845,-769.812,1.43722e-05,1.45042e-08,-1.45039e-08,2.70781e-16
0.0999751,0.85,0.105948,0.01,-18.2229,361.25,-746.862,746.894,178.157,-1.40715e-08,1.40718e-08,3.35658e-09,767.849,-767.816,1.55144e-05,1.44666e-08,-1.44662e-08,2.923e-16
0.109975,0.85,0.107387,0.01,-17.418,361.25,-740.411,740.442,194.858,-1.39499e-08,1.39502e-08,3.67125e-09,765.654,-765.622,1.65295e-05,1.44252e-08,-1.44249e-08,3.11426e-16
0.119975,0.85,0.108606,0.01,-16.5391,361.25,-733.416,733.446,211.252,-1.38181e-08,1.38184e-08,3.98011e-09,763.264,-763.234,1.74117e-05,1.43802e-08,-1.43799e-08,3.28046e-16
0.129975,0.85,0.110029,0.01,-15.5868,361.25,-725.895,725.924,227.316,-1.36764e-08,1.36767e-08,4.28276e-09,760.683,-760.654,1.81577e-05,1.43316e-08,-1.43313e-08,3.42102e-16
0.139975,0.85,0.111795,0.01,-14.562,361.25,-717.867,717.895,243.027,-1.35251e-08,1.35254e-08,4.57877e-09,757.916,-757.888,1.87658e-05,1.42794e-08,-1.42792e-08,3.53558e-16
0.149975,0.85,0.113203,0.01,-13.4654,361.25,-709.352,709.379,258.366,-1.33647e-08,1.3365e-08,4.86777e-09,754.965,-754.939,1.92354e-05,1.42239e-08,-1.42236e-08,3.62407e-16
0.159975,0.85,0.115464,0.01,-12.2978,361.25,-700.372,700.397,273.314,-1.31955e-08,1.31958e-08,5.1494e-09,751.837,-751.811,1.95687e-05,1.41649e-08,-1.41647e-08,3.68686e-16
0.169975,0.85,0.11691,0.01,-11.0602,361.25,-690.948,690.972,287.854,-1.3018e-08,1.30182e-08,5.42334e-09,748.535,-748.51,1.97682e-05,1.41027e-08,-1.41025e-08,3.72445e-16
0.179975,0.85,0.119132,0.01,-9.75353,361.25,-681.103,681.126,301.97,-1.28325e-08,1.28327e-08,5.68929e-09,745.064,-745.041,1.98383e-05,1.40373e-08,-1.40371e-08,3.73765e-16
0.189975,0.85,0.121148,0.01,-8.37873,361.25,-670.861,670.883,315.647,-1.26395e-08,1.26397e-08,5.94698e-09,741.43,-741.408,1.97846e-05,1.39689e-08,-1.39687e-08,3.72754e-16
0.199975,0.85,0.123333,0.01,-6.93685,361.25,-660.245,660.265,328.873,-1.24395e-08,1.24397e-08,6.19615e-09,737.637,-737.617,1.96141e-05,1.38974e-08,-1.38972e-08,3.69541e-16
0.209975,0.85,0.125919,0.01,-5.42895,361.25,-649.28,649.298,341.635,-1.22329e-08,1.22331e-08,6.4366e-09,733.692,-733.673,1.93348e-05,1.38231e-08,-1.38229e-08,3.64278e-16
0.219975,0.85,0.12807,0.01,-3.85612,361.25,-637.989,638.006,353.924,-1.20202e-08,1.20203e-08,6.66813e-09,729.599,-729.582,1.89545e-05,1.3746e-08,-1.37458e-08,3.57114e-16
0.229975,0.85,0.130951,0.01,-2.21949,361.25,-626.397,626.413,365.731,-1.18018e-08,1.18019e-08,6.89059e-09,725.365,-725.349,1.84823e-05,1.36662e-08,-1.36661e-08,3.48218e-16
0.239975,0.85,0.13334,0.01,-0.520227,361.25,-614.53,614.544,377.05,-1.15782e-08,1.15783e-08,7.10384e-09,720.994,-720.98,1.79282e-05,1.35839e-08,-1.35837e-08,3.37778e-16
0.249975,0.85,0.136164,0.01,1.24049,361.25,-602.411,602.424,387.875,-1.13498e-08,1.135e-08,7.30778e-09,716.494,-716.481,1.73015e-05,1.34991e-08,-1.3499e-08,3.25971e-16
0.259975,0.85,0.139145,0.01,3.06144,361.25,-590.066,590.078,398.201,-1.11172e-08,1.11174e-08,7.50233e-09,711.869,-711.857,1.66126e-05,1.3412e-08,-1.34118e-08,3.12991e-16
0.269975,0.85,0.141915,0.01,4.94141,361.25,-577.518,577.529,408.026,-1.08808e-08,1.08809e-08,7.68744e-09,707.125,-707.115,1.58721e-05,1.33226e-08,-1.33225e-08,2.99039e-16
0.279975,0.85,0.145323,0.01,6.87912,361.25,-564.793,564.801,417.348,-1.06411e-08,1.06411e-08,7.86307e-09,702.269,-702.26,1.50895e-05,1.32311e-08,-1.3231e-08,2.84295e-16
0.289975,0.85,0.148204,0.01,8.87331,361.25,-551.912,551.92,426.167,-1.03984e-08,1.03985e-08,8.02924e-09,697.306,-697.298,1.42741e-05,1.31376e-08,-1.31375e-08,2.68933e-16
0.299975,0.85,0.151539,0.01,10.9227,361.25,-538.901,538.907,434.485,-1.01532e-08,1.01533e-08,8.18595e-09,692.242,-692.235,1.3435e-05,1.30422e-08,-1.30421e-08,2.53124e-16
0.309975,0.85,0.15503,0.01,13.026,361.25,-525.781,525.785,442.303,-9.90603e-09,9.90608e-09,8.33324e-09,687.083,-687.078,1.25815e-05,1.2945e-08,-1.2945e-08,2.37043e-16
0.319975,0.85,0.158299,0.01,15.1818,361.25,-512.574,512.578,449.625,-9.65721e-09,9.65725e-09,8.4712e-09,681.835,-681.832,1.17218e-05,1.28462e-08,-1.28461e-08,2.20846e-16
0.329975,0.85,0.162119,0.01,17.3889,361.25,-499.303,499.306,456.456,-9.40717e-09,9.40719e-09,8.59989e-09,676.504,-676.502,1.08633e-05,1.27457e-08,-1.27457e-08,2.04672e-16
0.339975,0.85,0.165599,0.01,19.6459,361.25,-485.988,485.99,462.8,-9.1563e-09,9.15632e-09,8.71942e-09,671.096,-671.095,1.0013e-05,1.26438e-08,-1.26438e-08,1.88651e-16
0.349975,0.85,0.169338,0.01,21.9516,361.25,-472.65,472.65,468.664,-8.905e-09,8.905e-09,8.82991e-09,665.616,-665.615,9.17722e-06,1.25406e-08,-1.25406e-08,1.72904e-16
0.359975,0.85,0.17344,0.01,24.3045,361.25,-459.307,459.306,474.056,-8.65361e-09,8.6536e-09,8.93149e-09,660.069,-660.07,8.36202e-06,1.24361e-08,-1.24361e-08,1.57545e-16
0.369975,0.85,0.177104,0.01,26.7033,361.25,-445.979,445.977,478.984,-8.4025e-09,8.40248e-09,9.02433e-09,654.462,-654.464,7.57194e-06,1.23305e-08,-1.23305e-08,1.4266e-16
0.379975,0.85,0.181246,0.01,29.1467,361.25,-432.684,432.681,483.455,-8.152e-09,8.15197e-09,9.10858e-09,648.8,-648.803,6.81085e-06,1.22238e-08,-1.22238e-08,1.2832e-16
0.389975,0.85,0.185415,0.01,31.6334,361.25,-419.438,419.434,487.481,-7.90244e-09,7.9024e-09,9.18442e-09,643.088,-643.091,6.08241e-06,1.21162e-08,-1.21162e-08,1.14596e-16
0.399975,0.85,0.189471,0.01,34.1621,361.25,-406.258,406.253,491.07,-7.65411e-09,7.65407e-09,9.25204e-09,637.33,-637.335,5.38932e-06,1.20077e-08,-1.20077e-08,1.01538e-16
0.409975,0.85,0.193959,0.01,36.7313,361.25,-393.159,393.153,494.233,-7.40732e-09,7.40726e-09,9.31165e-09,631.534,-631.539,4.73446e-06,1.18985e-08,-1.18985e-08,8.91999e-17
0.419975,0.85,0.198247,0.01,39.3399,361.25,-380.155,380.149,496.983,-7.16232e-09,7.16225e-09,9.36344e-09,625.702,-625.709,4.11943e-06,1.17886e-08,-1.17887e-08,7.76124e-17
0.429975,0.85,0.202641,0.01,41.9865,361.25,-367.261,367.254,499.329,-6.91938e-09,6.91931e-09,9.40764e-09,619.841,-619.848,3.54446e-06,1.16782e-08,-1.16783e-08,6.67797e-17
0.439975,0.85,0.207424,0.01,44.6699,361.25,-354.489,354.481,501.283,-6.67874e-09,6.67866e-09,9.44447e-09,613.954,-613.962,3.01047e-06,1.15673e-08,-1.15674e-08,5.6719e-17
0.449975,0.85,0.211879,0.01,47.3886,361.25,-341.85,341.842,502.859,-6.44062e-09,6.44054e-09,9.47415e-09,608.047,-608.055,2.51798e-06,1.1456e-08,-1.14561e-08,4.74402e-17
0.459975,0.85,0.216563,0.01,50.1416,361.25,-329.368,329.351,504.072,-6.2054e-09,6.20523e-09,9.49702e-09,602.127,-602.143,0.00299367,1.13445e-08,-1.13447e-08,5.64026e-14
0.469975,0.85,0.221601,0.01,52.9275,361.25,-317.241,316.84,505.28,-5.97526e-09,5.97119e-09,9.51978e-09,596.308,-596.71,-0.168071,1.12365e-08,-1.12406e-08,-3.16655e-12
0.479975,0.85,0.226263,0.01,55.7451,361.25,-306.901,304.804,507.111,-5.77308e-09,5.7518e-09,9.55427e-09,591.157,-593.254,0.00120615,1.11469e-08,-1.11681e-08,2.27246e-14
0.489975,0.85,0.231198,0.01,58.5932,361.25,-296.383,293.194,507.749,-5.57016e-09,5.5378e-09,9.56628e-09,585.524,-588.713,0.618934,1.10455e-08,-1.10778e-08,1.16611e-11
0.499975,0.85,0.236454,0.01,61.4705,361.25,-285.361,281.605,509.941,-5.36004e-09,5.32194e-09,9.60758e-09,581.562,-585.318,-0.0111128,1.09733e-08,-1.10114e-08,-2.09372e-13
0.509975,0.85,0.24136,0.01,64.376,361.25,-279.329,267.542,513.368,-5.21147e-09,5.0919e-09,9.67216e-09,575.754,-587.541,-0.343351,1.08988e-08,-1.10184e-08,-6.46894e-12
-0.500025,0.86,0.244951,0.01,66.3866,369.8,-288.076,285.05,-500.368,-5.41437e-09,5.38367e-09,-9.42722e-09,575.101,-578.128,-1.50461,1.08484e-08,-1.08791e-08,-2.83478e-11
-0.490025,0.86,0.239879,0.01,63.5591,369.8,-301.842,292.776,-500.765,-5.64746e-09,5.55548e-09,-9.4347e-09,577.839,-586.906,-0.474542,1.09262e-08,-1.10182e-08,-8.94065e-12
-0.480025,0.86,0.235124,0.01,60.7608,369.8,-309.18,303.308,-498.794,-5.79961e-09,5.74003e-09,-9.39757e-09,582.367,-588.239,1.16065,1.09977e-08,-1.10572e-08,2.18673e-11
-0.470025,0.86,0.230223,0.01,57.993,369.8,-319.837,316.362,-494.96,-6.01081e-09,5.97556e-09,-9.32533e-09,586.627,-590.101,-0.459492,1.10675e-08,-1.11027e-08,-8.6571e-12
-0.460025,0.86,0.225376,0.01,55.2568,369.8,-330.272,328.174,-493.493,-6.21339e-09,6.19211e-09,-9.2977e-09,592.182,-594.28,0.0609548,1.11662e-08,-1.11875e-08,1.14842e-12
-0.450025,0.86,0.220876,0.01,52.5534,369.8,-340.559,340.172,-490.812,-6.41464e-09,6.41072e-09,-9.24718e-09,597.088,-597.475,0.15579,1.12512e-08,-1.12551e-08,2.93518e-12
-0.440025,0.86,0.216183,0.01,49.884,369.8,-352.61,352.595,-488.778,-6.64331e-09,6.64315e-09,-9.20885e-09,602.68,-602.695,-0.0027503,1.13549e-08,-1.13551e-08,-5.18172e-14
-0.430025,0.86,0.211595,0.01,47.2499,369.8,-364.991,364.985,-486.698,-6.87662e-09,6.87656e-09,-9.16967e-09,608.348,-608.354,-3.56537e-06,1.14617e-08,-1.14617e-08,-6.71737e-17
-0.420025,0.86,0.207389,0.01,44.6523,369.8,-377.494,377.489,-484.244,-7.11218e-09,7.11213e-09,-9.12343e-09,613.994,-613.999,-4.11302e-06,1.1568e-08,-1.15681e-08,-7.74918e-17
-0.410025,0.86,0.202865,0.01,42.0924,369.8,-390.095,390.09,-481.4,-7.3496e-09,7.34955e-09,-9.06985e-09,619.609,-619.613,-4.69742e-06,1.16738e-08,-1.16739e-08,-8.85022e-17
-0.400025,0.86,0.198577,0.01,39.5716,369.8,-402.781,402.777,-478.155,-7.58861e-09,7.58857e-09,-9.00871e-09,625.188,-625.192,-5.31748e-06,1.17789e-08,-1.1779e-08,-1.00185e-16
-0.390025,0.86,0.194688,0.01,37.091,369.8,-415.537,415.534,-474.499,-7.82895e-09,7.82892e-09,-8.93984e-09,630.728,-630.731,-5.97042e-06,1.18833e-08,-1.18833e-08,-1.12486e-16
-0.380025,0.86,0.190311,0.01,34.652,369.8,-428.35,428.347,-470.423,-8.07035e-09,8.07032e-09,-8.86304e-09,636.222,-636.225,-6.65488e-06,1.19868e-08,-1.19868e-08,-1.25382e-16
-0.370025,0.86,0.186368,0.01,32.2558,369.8,-441.202,441.201,-465.917,-8.3125e-09,8.31249e-09,-8.77815e-09,641.667,-641.668,-7.3688e-06,1.20894e-08,-1.20894e-08,-1.38832e-16
-0.360025,0.86,0.182593,0.01,29.9038,369.8,-454.079,454.078,-460.972,-8.5551e-09,8.5551e-09,-8.68499e-09,647.057,-647.057,-8.10728e-06,1.21909e-08,-1.21909e-08,-1.52746e-16
-0.350025,0.86,0.17857,0.01,27.5971,369.8,-466.962,466.962,-455.581,-8.79783e-09,8.79784e-09,-8.58341e-09,652.387,-652.386,-8.86637e-06,1.22913e-08,-1.22913e-08,-1.67048e-16
-0.340025,0.86,0.175026,0.01,25.3372,369.8,-479.834,479.835,-449.736,-9.04035e-09,9.04037e-09,-8.47329e-09,657.651,-657.649,-9.64215e-06,1.23905e-08,-1.23905e-08,-1.81664e-16
-0.330025,0.86,0.171315,0.01,23.1252,369.8,-492.676,492.678,-443.431,-9.28231e-09,9.28233e-09,-8.35449e-09,662.845,-662.842,-1.04292e-05,1.24884e-08,-1.24883e-08,-1.96493e-16
-0.320025,0.86,0.167701,0.01,20.9625,369.8,-505.468,505.472,-436.659,-9.52333e-09,9.52337e-09,-8.22692e-09,667.963,-667.959,-1.12216e-05,1.25848e-08,-1.25847e-08,-2.11422e-16
-0.310025,0.86,0.164604,0.01,18.8504,369.8,-518.192,518.197,-429.417,-9.76305e-09,9.76311e-09,-8.09047e-09,672.999,-672.994,-1.20128e-05,1.26797e-08,-1.26796e-08,-2.26329e-16
-0.300025,0.86,0.160916,0.01,16.79,369.8,-530.825,530.832,-421.7,-1.00011e-08,1.00011e-08,-7.94508e-09,677.948,-677.942,-1.27955e-05,1.27729e-08,-1.27729e-08,-2.41075e-16
-0.290025,0.86,0.157776,0.01,14.7828,369.8,-543.348,543.355,-413.506,-1.0237e-08,1.02371e-08,-7.79069e-09,682.805,-682.798,-1.35619e-05,1.28644e-08,-1.28643e-08,-2.55515e-16
-0.280025,0.86,0.15467,0.01,12.8298,369.8,-555.738,555.747,-404.832,-1.04705e-08,1.04706e-08,-7.62727e-09,687.564,-687.555,-1.43044e-05,1.29541e-08,-1.2954e-08,-2.69503e-16
-0.270025,0.86,0.15147,0.01,10.9325,369.8,-567.973,567.984,-395.678,-1.0701e-08,1.07011e-08,-7.45481e-09,692.22,-692.209,-1.50146e-05,1.30418e-08,-1.30417e-08,-2.82884e-16
-0.260025,0.86,0.148874,0.01,9.09195,369.8,-580.032,580.043,-386.045,-1.09282e-08,1.09283e-08,-7.27332e-09,696.766,-696.754,-1.56837e-05,1.31274e-08,-1.31273e-08,-2.95489e-16
-0.250025,0.86,0.1457,0.01,7.3094,369.8,-591.89,591.903,-375.935,-1.11516e-08,1.11517e-08,-7.08283e-09,701.197,-701.184,-1.63022e-05,1.32109e-08,-1.32108e-08,-3.07144e-16
-0.240025,0.86,0.143061,0.01,5.58604,369.8,-603.525,603.539,-365.349,-1.13708e-08,1.1371e-08,-6.88339e-09,705.508,-705.494,-1.68616e-05,1.32921e-08,-1.3292e-08,-3.17682e-16
-0.230025,0.86,0.140466,0.01,3.92303,369.8,-614.914,614.93,-354.294,-1.15854e-08,1.15856e-08,-6.6751e-09,709.693,-709.677,-1.73528e-05,1.3371e-08,-1.33708e-08,-3.26936e-16
-0.220025,0.86,0.137781,0.01,2.32151,369.8,-626.034,626.051,-342.773,-1.17949e-08,1.17951e-08,-6.45805e-09,713.747,-713.73,-1.7767e-05,1.34473e-08,-1.34472e-08,-3.34741e-16
-0.210025,0.86,0.135769,0.01,0.782595,369.8,-636.861,636.879,-330.795,-1.19989e-08,1.19991e-08,-6.23237e-09,717.664,-717.646,-1.80959e-05,1.35211e-08,-1.35209e-08,-3.40937e-16
-0.200025,0.86,0.133034,0.01,-0.692639,369.8,-647.371,647.391,-318.368,-1.21969e-08,1.21971e-08,-5.99823e-09,721.439,-721.42,-1.83308e-05,1.35922e-08,-1.3592e-08,-3.45364e-16
-0.190025,0.86,0.131007,0.01,-2.10314,369.8,-657.543,657.564,-305.5,-1.23886e-08,1.23888e-08,-5.75581e-09,725.067,-725.047,-1.84644e-05,1.36606e-08,-1.36604e-08,-3.4788e-16
-0.180025,0.86,0.128821,0.01,-3.44788,369.8,-667.354,667.376,-292.205,-1.25734e-08,1.25737e-08,-5.50531e-09,728.543,-728.521,-1.84903e-05,1.37261e-08,-1.37259e-08,-3.48367e-16
-0.170025,0.86,0.126765,0.01,-4.7259,369.8,-676.78,676.803,-278.493,-1.2751e-08,1.27513e-08,-5.24698e-09,731.862,-731.839,-1.84025e-05,1.37886e-08,-1.37884e-08,-3.46715e-16
-0.160025,0.86,0.125141,0.01,-5.93623,369.8,-685.801,685.825,-264.38,-1.2921e-08,1.29212e-08,-4.98107e-09,735.02,-734.995,-1.81958e-05,1.38481e-08,-1.38478e-08,-3.4282e-16
-0.150025,0.86,0.123054,0.01,-7.07799,369.8,-694.394,694.42,-249.879,-1.30829e-08,1.30832e-08,-4.70787e-09,738.011,-737.985,-1.78667e-05,1.39044e-08,-1.39042e-08,-3.36618e-16
-0.140025,0.86,0.121756,0.01,-8.15031,369.8,-702.54,702.567,-235.009,-1.32364e-08,1.32366e-08,-4.42771e-09,740.831,-740.804,-1.7413e-05,1.39576e-08,-1.39573e-08,-3.28071e-16
-0.130025,0.86,0.119876,0.01,-9.15238,369.8,-710.218,710.246,-219.786,-1.3381e-08,1.33813e-08,-4.1409e-09,743.476,-743.448,-1.68334e-05,1.40074e-08,-1.40071e-08,-3.17151e-16
-0.120025,0.86,0.118567,0.01,-10.0834,369.8,-717.409,717.438,-204.231,-1.35165e-08,1.35168e-08,-3.84783e-09,745.942,-745.913,-1.61281e-05,1.40538e-08,-1.40536e-08,-3.03862e-16
-0.110025,0.86,0.117229,0.01,-10.9427,369.8,-724.097,724.127,-188.363,-1.36425e-08,1.36428e-08,-3.54886e-09,748.225,-748.195,-1.52993e-05,1.40969e-08,-1.40966e-08,-2.88248e-16
-0.100025,0.86,0.115909,0.01,-11.7297,369.8,-730.262,730.293,-172.204,-1.37587e-08,1.3759e-08,-3.24442e-09,750.322,-750.291,-1.43502e-05,1.41364e-08,-1.41361e-08,-2.70367e-16
-0.0900249,0.86,0.115114,0.01,-12.4435,369.8,-735.891,735.923,-155.777,-1.38648e-08,1.38651e-08,-2.93492e-09,752.23,-752.198,-1.32856e-05,1.41723e-08,-1.4172e-08,-2.50308e-16
-0.0800249,0.86,0.113782,0.01,-13.0838,369.8,-740.968,741.001,-139.105,-1.39604e-08,1.39607e-08,-2.62082e-09,753.945,-753.912,-1.21123e-05,1.42046e-08,-1.42043e-08,-2.28203e-16
-0.0700249,0.86,0.11332,0.01,-13.65,369.8,-745.48,745.513,-122.213,-1.40454e-08,1.40458e-08,-2.30257e-09,755.464,-755.431,-1.0838e-05,1.42332e-08,-1.42329e-08,-2.04195e-16
-0.0600249,0.86,0.112187,0.01,-14.1417,369.8,-749.415,749.449,-105.127,-1.41196e-08,1.41199e-08,-1.98066e-09,756.787,-756.753,-9.47151e-06,1.42582e-08,-1.42578e-08,-1.78449e-16
-0.0500249,0.86,0.111727,0.01,-14.5584,369.8,-752.763,752.798,-87.8735,-1.41826e-08,1.4183e-08,-1.65559e-09,757.909,-757.875,-8.02361e-06,1.42793e-08,-1.4279e-08,-1.51169e-16
-0.0400249,0.86,0.111123,0.01,-14.8999,369.8,-755.515,755.55,-70.4785,-1.42345e-08,1.42348e-08,-1.32785e-09,758.83,-758.795,-6.50607e-06,1.42966e-08,-1.42963e-08,-1.22578e-16
-0.0300249,0.86,0.110664,0.01,-15.1658,369.8,-757.664,757.699,-52.9699,-1.4275e-08,1.42753e-08,-9.97983e-10,759.548,-759.513,-4.93144e-06,1.43102e-08,-1.43098e-08,-9.29111e-17
-0.0200249,0.86,0.11059,0.01,-15.3559,369.8,-759.203,759.238,-35.3757,-1.4304e-08,1.43043e-08,-6.66498e-10,760.062,-760.027,-3.31351e-06,1.43199e-08,-1.43195e-08,-6.24285e-17
-0.0100249,0.86,0.110133,0.01,-15.4701,369.8,-760.129,760.164,-17.7242,-1.43214e-08,1.43218e-08,-3.33934e-10,760.371,-760.335,-1.66661e-06,1.43257e-08,-1.43253e-08,-3.13999e-17
-2.48653e-05,0.86,0.110582,0.01,-15.5083,369.8,-760.439,760.474,-0.0439743,-1.43273e-08,1.43276e-08,-8.28502e-13,760.474,-760.439,-4.57147e-09,1.43276e-08,-1.43273e-08,-8.61292e-20
0.00997513,0.86,0.110133,0.01,-15.4705,369.8,-760.132,760.167,17.6363,-1.43215e-08,1.43218e-08,3.32278e-10,760.372,-760.336,1.65811e-06,1.43257e-08,-1.43253e-08,3.12398e-17
0.0199751,0.86,0.110585,0.01,-15.3567,369.8,-759.209,759.244,35.288,-1.43041e-08,1.43045e-08,6.64846e-10,760.064,-760.029,3.30572e-06,1.43199e-08,-1.43195e-08,6.22816e-17
0.0299751,0.86,0.110664,0.01,-15.1669,369.8,-757.673,757.708,52.8826,-1.42751e-08,1.42755e-08,9.96338e-10,759.551,-759.516,4.92384e-06,1.43102e-08,-1.43099e-08,9.2768e-17
0.0399751,0.86,0.111118,0.01,-14.9014,369.8,-755.528,755.562,70.3916,-1.42347e-08,1.42351e-08,1.32622e-09,758.834,-758.8,6.49868e-06,1.42967e-08,-1.42964e-08,1.22439e-16
0.0499751,0.86,0.111727,0.01,-14.5603,369.8,-752.779,752.813,87.7873,-1.41829e-08,1.41833e-08,1.65396e-09,757.914,-757.88,8.01628e-06,1.42794e-08,-1.4279e-08,1.51031e-16
0.0599751,0.86,0.112182,0.01,-14.144,369.8,-749.433,749.467,105.042,-1.41199e-08,1.41203e-08,1.97905e-09,756.793,-756.759,9.46435e-06,1.42583e-08,-1.42579e-08,1.78314e-16
0.0699751,0.86,0.11332,0.01,-13.6527,369.8,-745.501,745.534,122.129,-1.40458e-08,1.40462e-08,2.30098e-09,755.471,-755.438,1.08313e-05,1.42334e-08,-1.4233e-08,2.04068e-16
0.0799751,0.86,0.113778,0.01,-13.0868,369.8,-740.992,741.024,139.021,-1.39609e-08,1.39612e-08,2.61924e-09,753.953,-753.92,1.21061e-05,1.42048e-08,-1.42044e-08,2.28086e-16
0.0899751,0.86,0.115105,0.01,-12.4469,369.8,-735.918,735.949,155.694,-1.38653e-08,1.38656e-08,2.93337e-09,752.239,-752.207,1.32798e-05,1.41725e-08,-1.41722e-08,2.502e-16
0.0999751,0.86,0.115905,0.01,-11.7334,369.8,-730.292,730.323,172.123,-1.37593e-08,1.37596e-08,3.24289e-09,750.332,-750.301,1.43452e-05,1.41366e-08,-1.41362e-08,2.70272e-16
0.109975,0.86,0.117221,0.01,-10.9468,369.8,-724.129,724.159,188.283,-1.36431e-08,1.36434e-08,3.54736e-09,748.236,-748.206,1.52955e-05,1.40971e-08,-1.40968e-08,2.88175e-16
0.119975,0.86,0.118563,0.01,-10.0879,369.8,-717.444,717.473,204.153,-1.35172e-08,1.35175e-08,3.84635e-09,745.953,-745.924,1.61248e-05,1.40541e-08,-1.40538e-08,3.038e-16
0.129975,0.86,0.119867,0.01,-9.15719,369.8,-710.255,710.283,219.71,-1.33817e-08,1.3382e-08,4.13946e-09,743.488,-743.46,1.68303e-05,1.40076e-08,-1.40073e-08,3.17093e-16
0.139975,0.86,0.121752,0.01,-8.15547,369.8,-702.579,702.606,234.934,-1.32371e-08,1.32374e-08,4.42629e-09,740.844,-740.817,1.74105e-05,1.39578e-08,-1.39575e-08,3.28024e-16
0.149975,0.86,0.123046,0.01,-7.0835,369.8,-694.436,694.461,249.806,-1.30837e-08,1.30839e-08,4.7065e-09,738.025,-737.999,1.78648e-05,1.39047e-08,-1.39044e-08,3.36583e-16
0.159975,0.86,0.125129,0.01,-5.94208,369.8,-685.844,685.869,264.309,-1.29218e-08,1.29221e-08,4.97973e-09,735.035,-735.01,1.81945e-05,1.38484e-08,-1.38481e-08,3.42795e-16
0.169975,0.86,0.126757,0.01,-4.73208,369.8,-676.826,676.849,278.424,-1.27519e-08,1.27521e-08,5.24567e-09,731.879,-731.855,1.84018e-05,1.37889e-08,-1.37887e-08,3.467e-16
0.179975,0.86,0.128809,0.01,-3.4544,369.8,-667.402,667.424,292.138,-1.25743e-08,1.25746e-08,5.50404e-09,728.56,-728.538,1.84902e-05,1.37264e-08,-1.37262e-08,3.48366e-16
0.189975,0.86,0.130999,0.01,-2.10999,369.8,-657.593,657.614,305.435,-1.23895e-08,1.23897e-08,5.75458e-09,725.085,-725.064,1.84646e-05,1.36609e-08,-1.36607e-08,3.47883e-16
0.199975,0.86,0.133022,0.01,-0.699814,369.8,-647.423,647.442,318.305,-1.21979e-08,1.21981e-08,5.99705e-09,721.458,-721.438,1.83312e-05,1.35926e-08,-1.35924e-08,3.45371e-16
0.209975,0.86,0.135754,0.01,0.7751,369.8,-636.914,636.932,330.734,-1.19999e-08,1.20001e-08,6.23123e-09,717.683,-717.665,1.8097e-05,1.35215e-08,-1.35213e-08,3.40958e-16
0.219975,0.86,0.137769,0.01,2.3137,369.8,-626.088,626.105,342.715,-1.17959e-08,1.17961e-08,6.45695e-09,713.766,-713.75,1.77688e-05,1.34477e-08,-1.34475e-08,3.34775e-16
0.229975,0.86,0.140451,0.01,3.91491,369.8,-614.97,614.986,354.237,-1.15865e-08,1.15866e-08,6.67404e-09,709.713,-709.698,1.73551e-05,1.33713e-08,-1.33712e-08,3.26981e-16
0.239975,0.86,0.14305,0.01,5.57762,369.8,-603.582,603.596,365.295,-1.13719e-08,1.1372e-08,6.88238e-09,705.529,-705.515,1.68646e-05,1.32925e-08,-1.32924e-08,3.17739e-16
0.249975,0.86,0.145685,0.01,7.30068,369.8,-591.948,591.961,375.883,-1.11527e-08,1.11528e-08,7.08186e-09,701.219,-701.206,1.63053e-05,1.32113e-08,-1.32112e-08,3.07201e-16
0.259975,0.86,0.148863,0.01,9.08294,369.8,-580.091,580.103,385.996,-1.09293e-08,1.09294e-08,7.27239e-09,696.788,-696.776,1.56864e-05,1.31278e-08,-1.31277e-08,2.9554e-16
0.269975,0.86,0.151456,0.01,10.9232,369.8,-568.034,568.044,395.632,-1.07021e-08,1.07022e-08,7.45393e-09,692.242,-692.232,1.50176e-05,1.30422e-08,-1.30421e-08,2.82941e-16
0.279975,0.86,0.154653,0.01,12.8203,369.8,-555.799,555.808,404.788,-1.04716e-08,1.04717e-08,7.62643e-09,687.588,-687.579,1.4308e-05,1.29545e-08,-1.29544e-08,2.69572e-16
0.289975,0.86,0.157762,0.01,14.7729,369.8,-543.41,543.417,413.464,-1.02382e-08,1.02383e-08,7.7899e-09,682.829,-682.822,1.35659e-05,1.28649e-08,-1.28648e-08,2.55589e-16
0.299975,0.86,0.160899,0.01,16.7799,369.8,-530.888,530.894,421.661,-1.00023e-08,1.00023e-08,7.94433e-09,677.973,-677.967,1.27992e-05,1.27734e-08,-1.27733e-08,2.41144e-16
0.309975,0.86,0.164585,0.01,18.84,369.8,-518.255,518.26,429.38,-9.76424e-09,9.76429e-09,8.08977e-09,673.024,-673.019,1.20167e-05,1.26801e-08,-1.26801e-08,2.26401e-16
0.319975,0.86,0.167685,0.01,20.9519,369.8,-505.532,505.536,436.625,-9.52453e-09,9.52457e-09,8.22626e-09,667.988,-667.984,1.12259e-05,1.25853e-08,-1.25852e-08,2.11502e-16
0.329975,0.86,0.171296,0.01,23.1143,369.8,-492.739,492.742,443.398,-9.28351e-09,9.28354e-09,8.35388e-09,662.871,-662.868,1.04335e-05,1.24889e-08,-1.24888e-08,1.96572e-16
0.339975,0.86,0.175009,0.01,25.3261,369.8,-479.898,479.899,449.706,-9.04156e-09,9.04157e-09,8.47272e-09,657.677,-657.675,9.6461e-06,1.2391e-08,-1.2391e-08,1.81738e-16
0.349975,0.86,0.178551,0.01,27.5858,369.8,-467.026,467.027,455.553,-8.79904e-09,8.79905e-09,8.58289e-09,652.413,-652.412,8.87018e-06,1.22918e-08,-1.22918e-08,1.67119e-16
0.359975,0.86,0.182572,0.01,29.8922,369.8,-454.143,454.142,460.947,-8.55631e-09,8.55631e-09,8.6845e-09,647.083,-647.084,8.11084e-06,1.21914e-08,-1.21914e-08,1.52813e-16
0.369975,0.86,0.18635,0.01,32.244,369.8,-441.266,441.265,465.893,-8.31371e-09,8.31369e-09,8.7777e-09,641.694,-641.695,7.37223e-06,1.20899e-08,-1.20899e-08,1.38897e-16
0.379975,0.86,0.19029,0.01,34.64,369.8,-428.413,428.411,470.402,-8.07155e-09,8.07153e-09,8.86264e-09,636.249,-636.252,6.65895e-06,1.19873e-08,-1.19873e-08,1.25459e-16
0.389975,0.86,0.194665,0.01,37.0788,369.8,-415.601,415.598,474.48,-7.83015e-09,7.83012e-09,8.93948e-09,630.755,-630.758,5.97445e-06,1.18838e-08,-1.18838e-08,1.12562e-16
0.399975,0.86,0.198557,0.01,39.5592,369.8,-402.844,402.84,478.138,-7.5898e-09,7.58976e-09,9.00839e-09,625.216,-625.22,5.32083e-06,1.17794e-08,-1.17795e-08,1.00248e-16
0.409975,0.86,0.202843,0.01,42.0798,369.8,-390.158,390.153,481.384,-7.35078e-09,7.35073e-09,9.06956e-09,619.636,-619.641,4.70059e-06,1.16743e-08,-1.16744e-08,8.85619e-17
0.419975,0.86,0.207369,0.01,44.6395,369.8,-377.557,377.551,484.23,-7.11336e-09,7.1133e-09,9.12318e-09,614.022,-614.027,4.11588e-06,1.15685e-08,-1.15686e-08,7.75455e-17
0.429975,0.86,0.211573,0.01,47.2369,369.8,-365.053,365.047,486.686,-6.87779e-09,6.87772e-09,9.16946e-09,608.376,-608.382,3.5676e-06,1.14622e-08,-1.14622e-08,6.72157e-17
0.439975,0.86,0.216159,0.01,49.8708,369.8,-352.671,352.656,488.768,-6.64446e-09,6.64431e-09,9.20868e-09,602.708,-602.723,0.00274995,1.13554e-08,-1.13556e-08,5.18107e-14
0.449975,0.86,0.220854,0.01,52.54,369.8,-340.619,340.233,490.804,-6.41579e-09,6.41187e-09,9.24704e-09,597.116,-597.503,-0.155774,1.12517e-08,-1.12556e-08,-2.93487e-12
0.459975,0.86,0.225353,0.01,55.2432,369.8,-330.332,328.234,493.488,-6.21452e-09,6.19324e-09,9.29759e-09,592.211,-594.309,-0.0610807,1.11667e-08,-1.1188e-08,-1.1508e-12
0.469975,0.86,0.230198,0.01,57.9793,369.8,-319.897,316.422,494.955,-6.01193e-09,5.97668e-09,9.32525e-09,586.655,-590.13,0.459663,1.1068e-08,-1.11033e-08,8.66031e-12
0.479975,0.86,0.235101,0.01,60.747,369.8,-309.24,303.367,498.792,-5.80072e-09,5.74114e-09,9.39752e-09,582.395,-588.268,-1.16061,1.09982e-08,-1.10578e-08,-2.18665e-11
0.489975,0.86,0.239855,0.01,63.5451,369.8,-301.902,292.834,500.764,-5.64858e-09,5.55659e-09,9.43468e-09,577.868,-586.936,0.47479,1.09268e-08,-1.10188e-08,8.94532e-12
0.499975,0.86,0.244925,0.01,66.3725,369.8,-288.135,285.109,500.368,-5.41548e-09,5.38477e-09,9.42723e-09,575.131,-578.157,1.50567,1.0849e-08,-1.08797e-08,2.83676e-11
-0.480025,0.87,0.243916,0.01,65.732,378.45,-311.533,303.132,-489.5,-5.83293e-09,5.7477e-09,-9.22247e-09,573.781,-582.182,1.02611,1.08469e-08,-1.09321e-08,1.93325e-11
-0.470025,0.87,0.238928,0.01,63.0129,378.45,-324.957,315.775,-487.803,-6.08246e-09,5.98931e-09,-9.19049e-09,579.006,-588.188,-0.571134,1.09487e-08,-1.10419e-08,-1.07605e-11
-0.460025,0.87,0.234262,0.01,60.3253,378.45,-332.02,326.141,-485.016,-6.22988e-09,6.17024e-09,-9.13799e-09,583.178,-589.057,1.09271,1.1013e-08,-1.10726e-08,2.05874e-11
-0.450025,0.87,0.229777,0.01,57.6704,378.45,-342.556,339.081,-480.483,-6.43884e-09,6.4036e-09,-9.05258e-09,587.348,-590.822,-0.527965,1.10811e-08,-1.11163e-08,-9.94718e-12
-0.440025,0.87,0.225022,0.01,55.0494,378.45,-352.743,350.657,-478.259,-6.63681e-09,6.61565e-09,-9.01067e-09,592.61,-594.696,0.122306,1.11742e-08,-1.11954e-08,2.30431e-12
-0.430025,0.87,0.220619,0.01,52.4635,378.45,-362.911,362.542,-474.739,-6.83585e-09,6.83211e-09,-8.94435e-09,597.266,-597.635,0.140813,1.12544e-08,-1.12582e-08,2.65299e-12
-0.420025,0.87,0.216336,0.01,49.9138,378.45,-374.811,374.797,-471.887,-7.06159e-09,7.06145e-09,-8.89063e-09,602.617,-602.63,-0.00245815,1.13537e-08,-1.13538e-08,-4.63129e-14
-0.410025,0.87,0.211848,0.01,47.4016,378.45,-387.011,387.007,-468.952,-7.2915e-09,7.29146e-09,-8.83532e-09,608.021,-608.025,-4.65099e-06,1.14555e-08,-1.14555e-08,-8.76273e-17
-0.400025,0.87,0.207745,0.01,44.9281,378.45,-399.298,399.295,-465.634,-7.523e-09,7.52296e-09,-8.77281e-09,613.393,-613.396,-5.2376e-06,1.15567e-08,-1.15567e-08,-9.86794e-17
-0.390025,0.87,0.203627,0.01,42.4946,378.45,-411.646,411.644,-461.92,-7.75564e-09,7.75562e-09,-8.70283e-09,618.724,-618.727,-5.8535e-06,1.16571e-08,-1.16572e-08,-1.10283e-16
-0.380025,0.87,0.199446,0.01,40.1022,378.45,-424.041,424.039,-457.8,-7.98917e-09,7.98915e-09,-8.62521e-09,624.011,-624.013,-6.49672e-06,1.17567e-08,-1.17568e-08,-1.22402e-16
-0.370025,0.87,0.195687,0.01,37.7522,378.45,-436.467,436.467,-453.266,-8.2233e-09,8.22329e-09,-8.53979e-09,629.248,-629.249,-7.16522e-06,1.18554e-08,-1.18554e-08,-1.34997e-16
-0.360025,0.87,0.191691,0.01,35.4459,378.45,-448.91,448.91,-448.309,-8.45772e-09,8.45772e-09,-8.44641e-09,634.43,-634.43,-7.85507e-06,1.1953e-08,-1.1953e-08,-1.47994e-16
-0.350025,0.87,0.187862,0.01,33.1844,378.45,-461.351,461.352,-442.924,-8.69213e-09,8.69214e-09,-8.34495e-09,639.553,-639.552,-8.56213e-06,1.20495e-08,-1.20495e-08,-1.61316e-16
-0.340025,0.87,0.184482,0.01,30.9691,378.45,-473.775,473.777,-437.103,-8.92621e-09,8.92623e-09,-8.23527e-09,644.612,-644.609,-9.28244e-06,1.21448e-08,-1.21448e-08,-1.74887e-16
-0.330025,0.87,0.180578,0.01,28.8011,378.45,-486.163,486.166,-430.839,-9.15961e-09,9.15964e-09,-8.11727e-09,649.601,-649.598,-1.00111e-05,1.22388e-08,-1.22388e-08,-1.88615e-16
-0.320025,0.87,0.177154,0.01,26.6818,378.45,-498.497,498.501,-424.129,-9.392e-09,9.39204e-09,-7.99085e-09,654.515,-654.511,-1.07421e-05,1.23314e-08,-1.23314e-08,-2.02387e-16
-0.310025,0.87,0.173836,0.01,24.6123,378.45,-510.758,510.763,-416.968,-9.623e-09,9.62305e-09,-7.85593e-09,659.35,-659.345,-1.14694e-05,1.24225e-08,-1.24225e-08,-2.1609e-16
-0.300025,0.87,0.170347,0.01,22.5939,378.45,-522.926,522.932,-409.353,-9.85225e-09,9.85232e-09,-7.71245e-09,664.1,-664.094,-1.21867e-05,1.2512e-08,-1.25119e-08,-2.29605e-16
-0.290025,0.87,0.167384,0.01,20.6278,378.45,-534.98,534.988,-401.281,-1.00794e-08,1.00795e-08,-7.56037e-09,668.76,-668.752,-1.28869e-05,1.25998e-08,-1.25997e-08,-2.42798e-16
-0.280025,0.87,0.164079,0.01,18.7152,378.45,-546.902,546.91,-392.751,-1.0304e-08,1.03041e-08,-7.39966e-09,673.324,-673.316,-1.35628e-05,1.26858e-08,-1.26857e-08,-2.55531e-16
-0.270025,0.87,0.161065,0.01,16.8573,378.45,-558.668,558.678,-383.763,-1.05257e-08,1.05258e-08,-7.23032e-09,677.788,-677.778,-1.42065e-05,1.27699e-08,-1.27698e-08,-2.67659e-16
-0.260025,0.87,0.158348,0.01,15.0552,378.45,-570.259,570.27,-374.318,-1.07441e-08,1.07442e-08,-7.05236e-09,682.146,-682.135,-1.48102e-05,1.2852e-08,-1.28519e-08,-2.79034e-16
-0.250025,0.87,0.155281,0.01,13.3102,378.45,-581.652,581.665,-364.417,-1.09587e-08,1.09588e-08,-6.86583e-09,686.393,-686.38,-1.53658e-05,1.2932e-08,-1.29319e-08,-2.89501e-16
-0.240025,0.87,0.152807,0.01,11.6233,378.45,-592.826,592.84,-354.064,-1.11692e-08,1.11694e-08,-6.67077e-09,690.523,-690.509,-1.58648e-05,1.30098e-08,-1.30097e-08,-2.98903e-16
-0.230025,0.87,0.150031,0.01,9.99576,378.45,-603.759,603.774,-343.263,-1.13752e-08,1.13754e-08,-6.46728e-09,694.532,-694.517,-1.62996e-05,1.30853e-08,-1.30852e-08,-3.07094e-16
-0.220025,0.87,0.14752,0.01,8.42855,378.45,-614.429,614.445,-332.021,-1.15763e-08,1.15764e-08,-6.25546e-09,698.414,-698.397,-1.6662e-05,1.31584e-08,-1.31583e-08,-3.13922e-16
-0.210025,0.87,0.145317,0.01,6.92278,378.45,-624.813,624.831,-320.343,-1.17719e-08,1.17721e-08,-6.03544e-09,702.164,-702.146,-1.69443e-05,1.32291e-08,-1.32289e-08,-3.19241e-16
-0.200025,0.87,0.142765,0.01,5.47949,378.45,-634.89,634.909,-308.238,-1.19618e-08,1.1962e-08,-5.80738e-09,705.777,-705.759,-1.71396e-05,1.32972e-08,-1.3297e-08,-3.2292e-16
-0.190025,0.87,0.140878,0.01,4.09969,378.45,-644.639,644.659,-295.716,-1.21455e-08,1.21457e-08,-5.57145e-09,709.249,-709.229,-1.7241e-05,1.33626e-08,-1.33624e-08,-3.2483e-16
-0.180025,0.87,0.138543,0.01,2.78435,378.45,-654.038,654.06,-282.787,-1.23226e-08,1.23228e-08,-5.32786e-09,712.575,-712.554,-1.72429e-05,1.34252e-08,-1.3425e-08,-3.24867e-16
-0.170025,0.87,0.136633,0.01,1.53441,378.45,-663.066,663.089,-269.463,-1.24926e-08,1.24929e-08,-5.07684e-09,715.75,-715.727,-1.71402e-05,1.3485e-08,-1.34848e-08,-3.22932e-16
-0.160025,0.87,0.134854,0.01,0.350778,378.45,-671.702,671.726,-255.759,-1.26554e-08,1.26556e-08,-4.81864e-09,718.769,-718.746,-1.69285e-05,1.35419e-08,-1.35417e-08,-3.18943e-16
-0.150025,0.87,0.13292,0.01,-0.765688,378.45,-679.927,679.952,-241.688,-1.28103e-08,1.28106e-08,-4.55354e-09,721.629,-721.604,-1.66046e-05,1.35958e-08,-1.35956e-08,-3.1284e-16
-0.140025,0.87,0.131697,0.01,-1.81416,378.45,-687.721,687.747,-227.266,-1.29572e-08,1.29574e-08,-4.28183e-09,724.325,-724.299,-1.61668e-05,1.36466e-08,-1.36463e-08,-3.04592e-16
-0.130025,0.87,0.129739,0.01,-2.79387,378.45,-695.066,695.093,-212.511,-1.30956e-08,1.30958e-08,-4.00384e-09,726.853,-726.827,-1.56142e-05,1.36942e-08,-1.3694e-08,-2.9418e-16
-0.120025,0.87,0.12853,0.01,-3.70407,378.45,-701.944,701.971,-197.441,-1.32251e-08,1.32254e-08,-3.71991e-09,729.21,-729.183,-1.49472e-05,1.37386e-08,-1.37383e-08,-2.81614e-16
-0.110025,0.87,0.127089,0.01,-4.54408,378.45,-708.337,708.366,-182.076,-1.33456e-08,1.33459e-08,-3.43042e-09,731.392,-731.363,-1.41681e-05,1.37797e-08,-1.37794e-08,-2.66936e-16
-0.100025,0.87,0.125872,0.01,-5.31326,378.45,-714.231,714.261,-166.435,-1.34567e-08,1.3457e-08,-3.13574e-09,733.396,-733.366,-1.32797e-05,1.38175e-08,-1.38172e-08,-2.50197e-16
-0.0900249,0.87,0.124971,0.01,-6.01102,378.45,-719.61,719.641,-150.541,-1.3558e-08,1.35583e-08,-2.83628e-09,735.218,-735.188,-1.22868e-05,1.38518e-08,-1.38515e-08,-2.31491e-16
-0.0800249,0.87,0.123745,0.01,-6.63682,378.45,-724.461,724.492,-134.416,-1.36494e-08,1.36497e-08,-2.53247e-09,736.856,-736.825,-1.11955e-05,1.38827e-08,-1.38824e-08,-2.10931e-16
-0.0700249,0.87,0.12332,0.01,-7.19018,378.45,-728.772,728.804,-118.083,-1.37306e-08,1.37309e-08,-2.22475e-09,738.308,-738.276,-1.00123e-05,1.391e-08,-1.39097e-08,-1.88637e-16
-0.0600249,0.87,0.122149,0.01,-7.67066,378.45,-732.531,732.563,-101.566,-1.38015e-08,1.38018e-08,-1.91357e-09,739.571,-739.539,-8.74569e-06,1.39338e-08,-1.39335e-08,-1.64774e-16
-0.0500249,0.87,0.121727,0.01,-8.0779,378.45,-735.729,735.762,-84.8911,-1.38617e-08,1.3862e-08,-1.5994e-09,740.643,-740.61,-7.40603e-06,1.3954e-08,-1.39537e-08,-1.39534e-16
-0.0400249,0.87,0.121085,0.01,-8.41156,378.45,-738.357,738.39,-68.0827,-1.39112e-08,1.39116e-08,-1.28272e-09,741.522,-741.489,-6.00378e-06,1.39706e-08,-1.39702e-08,-1.13115e-16
-0.0300249,0.87,0.120664,0.01,-8.67139,378.45,-740.409,740.442,-51.1671,-1.39499e-08,1.39502e-08,-9.64017e-10,742.208,-742.174,-4.54973e-06,1.39835e-08,-1.39831e-08,-8.57195e-17
-0.0200249,0.87,0.120552,0.01,-8.85719,378.45,-741.878,741.912,-34.1706,-1.39776e-08,1.39779e-08,-6.43794e-10,742.698,-742.665,-3.0565e-06,1.39927e-08,-1.39924e-08,-5.75862e-17
-0.0100249,0.87,0.120133,0.01,-8.9688,378.45,-742.762,742.796,-17.1201,-1.39942e-08,1.39946e-08,-3.22553e-10,742.993,-742.96,-1.53717e-06,1.39983e-08,-1.39979e-08,-2.89611e-17
-2.48653e-05,0.87,0.120545,0.01,-9.00613,378.45,-743.058,743.092,-0.0424753,-1.39998e-08,1.40001e-08,-8.0026e-13,743.092,-743.058,-4.17294e-09,1.40001e-08,-1.39998e-08,-7.86207e-20
0.00997513,0.87,0.120133,0.01,-8.96917,378.45,-742.765,742.799,17.0352,-1.39943e-08,1.39946e-08,3.20954e-10,742.994,-742.961,1.52905e-06,1.39983e-08,-1.3998e-08,2.88082e-17
0.0199751,0.87,0.120548,0.01,-8.85793,378.45,-741.884,741.918,34.0859,-1.39777e-08,1.3978e-08,6.42199e-10,742.7,-742.667,3.04902e-06,1.39928e-08,-1.39924e-08,5.74453e-17
0.0299751,0.87,0.120664,0.01,-8.6725,378.45,-740.417,740.451,51.0827,-1.395e-08,1.39504e-08,9.62428e-10,742.211,-742.177,4.54255e-06,1.39835e-08,-1.39832e-08,8.55842e-17
0.0399751,0.87,0.121081,0.01,-8.41304,378.45,-738.369,738.402,67.9988,-1.39114e-08,1.39118e-08,1.28114e-09,741.526,-741.493,5.997e-06,1.39706e-08,-1.39703e-08,1.12987e-16
0.0499751,0.87,0.121727,0.01,-8.07974,378.45,-735.743,735.776,84.8079,-1.3862e-08,1.38623e-08,1.59783e-09,740.648,-740.615,7.39984e-06,1.39541e-08,-1.39538e-08,1.39417e-16
0.0599751,0.87,0.122145,0.01,-7.67287,378.45,-732.548,732.581,101.484,-1.38018e-08,1.38021e-08,1.91201e-09,739.577,-739.544,8.73932e-06,1.39339e-08,-1.39336e-08,1.64654e-16
0.0699751,0.87,0.12332,0.01,-7.19275,378.45,-728.792,728.824,118.001,-1.3731e-08,1.37313e-08,2.22321e-09,738.315,-738.283,1.00054e-05,1.39101e-08,-1.39098e-08,1.88507e-16
0.0799751,0.87,0.123741,0.01,-6.63975,378.45,-724.484,724.515,134.335,-1.36498e-08,1.36502e-08,2.53095e-09,736.864,-736.833,1.1189e-05,1.38828e-08,-1.38825e-08,2.10807e-16
0.0899751,0.87,0.124963,0.01,-6.01431,378.45,-719.636,719.666,150.461,-1.35585e-08,1.35588e-08,2.83478e-09,735.227,-735.196,1.22814e-05,1.3852e-08,-1.38517e-08,2.31389e-16
0.0999751,0.87,0.125868,0.01,-5.31691,378.45,-714.259,714.289,166.357,-1.34572e-08,1.34575e-08,3.13426e-09,733.405,-733.376,1.32753e-05,1.38177e-08,-1.38174e-08,2.50114e-16
0.109975,0.87,0.127081,0.01,-4.54808,378.45,-708.368,708.396,181.999,-1.33462e-08,1.33465e-08,3.42896e-09,731.403,-731.374,1.41645e-05,1.37799e-08,-1.37796e-08,2.66867e-16
0.119975,0.87,0.128526,0.01,-3.70842,378.45,-701.977,702.004,197.366,-1.32258e-08,1.3226e-08,3.71848e-09,729.222,-729.194,1.49441e-05,1.37388e-08,-1.37386e-08,2.81556e-16
0.129975,0.87,0.129731,0.01,-2.79857,378.45,-695.101,695.128,212.437,-1.30962e-08,1.30965e-08,4.00244e-09,726.866,-726.839,1.56113e-05,1.36945e-08,-1.36942e-08,2.94127e-16
0.139975,0.87,0.131686,0.01,-1.81921,378.45,-687.759,687.785,227.194,-1.29579e-08,1.29582e-08,4.28046e-09,724.338,-724.312,1.61643e-05,1.36468e-08,-1.36466e-08,3.04545e-16
0.149975,0.87,0.132912,0.01,-0.771071,378.45,-679.967,679.992,241.617,-1.28111e-08,1.28113e-08,4.5522e-09,721.643,-721.618,1.66027e-05,1.35961e-08,-1.35958e-08,3.12805e-16
0.159975,0.87,0.134843,0.01,0.345059,378.45,-671.744,671.768,255.69,-1.26562e-08,1.26564e-08,4.81734e-09,718.784,-718.76,1.69273e-05,1.35422e-08,-1.3542e-08,3.18921e-16
0.169975,0.87,0.136626,0.01,1.52836,378.45,-663.11,663.132,269.396,-1.24935e-08,1.24937e-08,5.07558e-09,715.765,-715.743,1.71396e-05,1.34853e-08,-1.34851e-08,3.2292e-16
0.179975,0.87,0.138532,0.01,2.77797,378.45,-654.084,654.105,282.721,-1.23234e-08,1.23236e-08,5.32663e-09,712.591,-712.57,1.72428e-05,1.34255e-08,-1.34253e-08,3.24864e-16
0.189975,0.87,0.14087,0.01,4.09299,378.45,-644.687,644.707,295.652,-1.21464e-08,1.21466e-08,5.57026e-09,709.266,-709.246,1.72413e-05,1.33629e-08,-1.33627e-08,3.24837e-16
0.199975,0.87,0.142754,0.01,5.47247,378.45,-634.94,634.959,308.177,-1.19627e-08,1.19629e-08,5.80623e-09,705.795,-705.776,1.71403e-05,1.32975e-08,-1.32973e-08,3.22933e-16
0.209975,0.87,0.145303,0.01,6.91545,378.45,-624.864,624.882,320.284,-1.17729e-08,1.17731e-08,6.03433e-09,702.182,-702.165,1.69455e-05,1.32294e-08,-1.32293e-08,3.19264e-16
0.219975,0.87,0.147509,0.01,8.42091,378.45,-614.481,614.497,331.964,-1.15772e-08,1.15774e-08,6.25439e-09,698.433,-698.416,1.66632e-05,1.31588e-08,-1.31586e-08,3.13945e-16
0.229975,0.87,0.150017,0.01,9.98782,378.45,-603.813,603.828,343.209,-1.13762e-08,1.13764e-08,6.46625e-09,694.551,-694.536,1.63012e-05,1.30857e-08,-1.30855e-08,3.07124e-16
0.239975,0.87,0.152796,0.01,11.6151,378.45,-592.881,592.895,354.011,-1.11703e-08,1.11704e-08,6.66978e-09,690.543,-690.529,1.58671e-05,1.30102e-08,-1.301e-08,2.98946e-16
0.249975,0.87,0.155267,0.01,13.3017,378.45,-581.708,581.721,364.367,-1.09598e-08,1.09599e-08,6.86488e-09,686.414,-686.401,1.53683e-05,1.29324e-08,-1.29322e-08,2.89547e-16
0.259975,0.87,0.158331,0.01,15.0464,378.45,-570.316,570.327,374.27,-1.07451e-08,1.07453e-08,7.05146e-09,682.167,-682.156,1.48129e-05,1.28524e-08,-1.28523e-08,2.79083e-16
0.269975,0.87,0.161052,0.01,16.8482,378.45,-558.726,558.736,383.717,-1.05268e-08,1.05269e-08,7.22946e-09,677.81,-677.8,1.42095e-05,1.27703e-08,-1.27702e-08,2.67715e-16
0.279975,0.87,0.164062,0.01,18.7058,378.45,-546.961,546.969,392.708,-1.03051e-08,1.03052e-08,7.39884e-09,673.347,-673.338,1.35662e-05,1.26862e-08,-1.26861e-08,2.55596e-16
0.289975,0.87,0.167371,0.01,20.6182,378.45,-535.04,535.048,401.24,-1.00805e-08,1.00806e-08,7.55959e-09,668.783,-668.775,1.28905e-05,1.26002e-08,-1.26001e-08,2.42865e-16
0.299975,0.87,0.170331,0.01,22.584,378.45,-522.986,522.992,409.314,-9.85339e-09,9.85345e-09,7.71172e-09,664.124,-664.117,1.21901e-05,1.25124e-08,-1.25124e-08,2.29669e-16
0.309975,0.87,0.173817,0.01,24.6022,378.45,-510.819,510.824,416.932,-9.62414e-09,9.6242e-09,7.85524e-09,659.374,-659.369,1.14727e-05,1.2423e-08,-1.24229e-08,2.16153e-16
0.319975,0.87,0.177138,0.01,26.6714,378.45,-498.558,498.563,424.095,-9.39315e-09,9.39319e-09,7.9902e-09,654.539,-654.535,1.07455e-05,1.23319e-08,-1.23318e-08,2.02452e-16
0.329975,0.87,0.18056,0.01,28.7905,378.45,-486.225,486.228,430.807,-9.16077e-09,9.1608e-09,8.11666e-09,649.625,-649.622,1.00147e-05,1.22393e-08,-1.22393e-08,1.88682e-16
0.339975,0.87,0.184461,0.01,30.9582,378.45,-473.837,473.839,437.073,-8.92737e-09,8.92739e-09,8.2347e-09,644.636,-644.634,9.28595e-06,1.21453e-08,-1.21453e-08,1.74953e-16
0.349975,0.87,0.187844,0.01,33.1733,378.45,-461.413,461.414,442.896,-8.6933e-09,8.69331e-09,8.34442e-09,639.578,-639.577,8.56558e-06,1.205e-08,-1.205e-08,1.6138e-16
0.359975,0.87,0.191671,0.01,35.4345,378.45,-448.972,448.972,448.284,-8.45889e-09,8.45889e-09,8.44593e-09,634.456,-634.456,7.85837e-06,1.19535e-08,-1.19535e-08,1.48056e-16
0.369975,0.87,0.195669,0.01,37.7406,378.45,-436.529,436.528,453.242,-8.22446e-09,8.22445e-09,8.53934e-09,629.274,-629.274,7.16839e-06,1.18559e-08,-1.18559e-08,1.35057e-16
0.379975,0.87,0.199426,0.01,40.0904,378.45,-424.103,424.101,457.778,-7.99033e-09,7.99032e-09,8.62481e-09,624.037,-624.039,6.50002e-06,1.17572e-08,-1.17572e-08,1.22464e-16
0.389975,0.87,0.203605,0.01,42.4826,378.45,-411.708,411.705,461.9,-7.7568e-09,7.75677e-09,8.70247e-09,618.751,-618.753,5.85653e-06,1.16576e-08,-1.16577e-08,1.1034e-16
0.399975,0.87,0.207726,0.01,44.9159,378.45,-399.36,399.356,465.616,-7.52415e-09,7.52411e-09,8.77248e-09,613.419,-613.423,5.24039e-06,1.15572e-08,-1.15572e-08,9.8732e-17
0.409975,0.87,0.211827,0.01,47.3892,378.45,-387.072,387.068,468.936,-7.29265e-09,7.29261e-09,8.83503e-09,608.048,-608.052,4.65415e-06,1.1456e-08,-1.1456e-08,8.76868e-17
0.419975,0.87,0.216313,0.01,49.9012,378.45,-374.871,374.858,471.873,-7.06273e-09,7.06259e-09,8.89037e-09,602.644,-602.657,0.00245769,1.13542e-08,-1.13544e-08,4.63042e-14
0.429975,0.87,0.220598,0.01,52.4507,378.45,-362.971,362.602,474.727,-6.83699e-09,6.83324e-09,8.94413e-09,597.293,-597.663,-0.14079,1.1255e-08,-1.12587e-08,-2.65256e-12
0.439975,0.87,0.225,0.01,55.0365,378.45,-352.802,350.716,478.249,-6.63793e-09,6.61677e-09,9.01049e-09,592.638,-594.723,-0.122434,1.11747e-08,-1.11959e-08,-2.30673e-12
0.449975,0.87,0.229753,0.01,57.6573,378.45,-342.615,339.141,480.475,-6.43996e-09,6.40472e-09,9.05243e-09,587.375,-590.85,0.528131,1.10816e-08,-1.11168e-08,9.95029e-12
0.459975,0.87,0.234239,0.01,60.312,378.45,-332.079,326.2,485.01,-6.231e-09,6.17135e-09,9.13787e-09,583.205,-589.085,-1.09264,1.10135e-08,-1.10731e-08,-2.0586e-11
0.469975,0.87,0.238904,0.01,62.9995,378.45,-325.016,315.834,487.798,-6.08357e-09,5.99041e-09,9.19039e-09,579.034,-588.217,0.571374,1.09493e-08,-1.10424e-08,1.0765e-11
0.479975,0.87,0.24389,0.01,65.7184,378.45,-311.592,303.19,489.497,-5.83404e-09,5.7488e-09,9.2224e-09,573.809,-582.211,-1.02531,1.08474e-08,-1.09327e-08,-1.93173e-11
-0.460025,0.88,0.243234,0.01,65.3612,387.2,-334.024,325.622,-475.508,-6.25668e-09,6.17145e-09,-8.95885e-09,574.497,-582.899,0.573663,1.08604e-08,-1.09456e-08,1.08081e-11
-0.450025,0.88,0.238532,0.01,62.7537,387.2,-347.146,337.924,-473.263,-6.50033e-09,6.40677e-09,-8.91655e-09,579.604,-588.826,-0.669332,1.09602e-08,-1.10537e-08,-1.26106e-11
-0.440025,0.88,0.233955,0.01,60.1798,387.2,-353.885,348.036,-469.677,-6.64197e-09,6.58264e-09,-8.84898e-09,583.394,-589.242,1.01088,1.10169e-08,-1.10762e-08,1.90455e-11
-0.430025,0.88,0.229723,0.01,57.6408,387.2,-364.234,360.782,-464.471,-6.84738e-09,6.81235e-09,-8.7509e-09,587.464,-590.916,-0.590463,1.10832e-08,-1.11182e-08,-1.11247e-11
-0.420025,0.88,0.225226,0.01,55.1379,387.2,-374.108,372.048,-461.501,-7.03946e-09,7.01856e-09,-8.69495e-09,592.409,-594.47,0.181233,1.11703e-08,-1.11912e-08,3.41453e-12
-0.410025,0.88,0.220919,0.01,52.6721,387.2,-384.094,383.745,-457.164,-7.23504e-09,7.2315e-09,-8.61324e-09,596.812,-597.162,0.123324,1.12458e-08,-1.12494e-08,2.32349e-12
-0.400025,0.88,0.216987,0.01,50.2448,387.2,-395.766,395.754,-453.515,-7.45641e-09,7.45629e-09,-8.54448e-09,601.909,-601.921,-0.00212435,1.13404e-08,-1.13405e-08,-4.00241e-14
-0.390025,0.88,0.21266,0.01,47.857,387.2,-407.708,407.706,-449.746,-7.68145e-09,7.68143e-09,-8.47347e-09,607.038,-607.04,-5.72886e-06,1.1437e-08,-1.1437e-08,-1.07935e-16
-0.380025,0.88,0.20866,0.01,45.51,387.2,-419.701,419.699,-445.591,-7.9074e-09,7.90738e-09,-8.39519e-09,612.126,-612.127,-6.33292e-06,1.15328e-08,-1.15328e-08,-1.19316e-16
-0.370025,0.88,0.204948,0.01,43.2049,387.2,-431.717,431.716,-441.036,-8.13379e-09,8.13379e-09,-8.30938e-09,617.164,-617.165,-6.9587e-06,1.16277e-08,-1.16277e-08,-1.31106e-16
-0.360025,0.88,0.200874,0.01,40.943,387.2,-443.741,443.742,-436.076,-8.36035e-09,8.36035e-09,-8.21593e-09,622.149,-622.148,-7.60284e-06,1.17216e-08,-1.17216e-08,-1.43242e-16
-0.350025,0.88,0.197224,0.01,38.7255,387.2,-455.759,455.76,-430.703,-8.58677e-09,8.58678e-09,-8.11469e-09,627.075,-627.073,-8.26112e-06,1.18144e-08,-1.18144e-08,-1.55644e-16
-0.340025,0.88,0.193632,0.01,36.5536,387.2,-467.752,467.755,-424.911,-8.81274e-09,8.81276e-09,-8.00557e-09,631.937,-631.935,-8.92956e-06,1.1906e-08,-1.1906e-08,-1.68238e-16
-0.330025,0.88,0.189916,0.01,34.4285,387.2,-479.705,479.709,-418.695,-9.03794e-09,9.03797e-09,-7.88846e-09,636.731,-636.728,-9.60366e-06,1.19964e-08,-1.19963e-08,-1.80939e-16
-0.320025,0.88,0.186663,0.01,32.3513,387.2,-491.599,491.604,-412.051,-9.26204e-09,9.26208e-09,-7.76328e-09,641.452,-641.448,-1.02778e-05,1.20853e-08,-1.20853e-08,-1.9364e-16
-0.310025,0.88,0.183148,0.01,30.3232,387.2,-503.417,503.422,-404.974,-9.48469e-09,9.48475e-09,-7.62995e-09,646.095,-646.09,-1.09465e-05,1.21728e-08,-1.21727e-08,-2.06239e-16
-0.300025,0.88,0.17984,0.01,28.3456,387.2,-515.139,515.146,-397.463,-9.70555e-09,9.70561e-09,-7.48843e-09,650.656,-650.649,-1.16041e-05,1.22587e-08,-1.22586e-08,-2.18628e-16
-0.290025,0.88,0.176919,0.01,26.4194,387.2,-526.746,526.754,-389.515,-9.92424e-09,9.92432e-09,-7.33868e-09,655.128,-655.12,-1.22438e-05,1.2343e-08,-1.23429e-08,-2.3068e-16
-0.280025,0.88,0.173553,0.01,24.5459,387.2,-538.22,538.229,-381.129,-1.01404e-08,1.01405e-08,-7.18069e-09,659.508,-659.499,-1.28588e-05,1.24255e-08,-1.24254e-08,-2.42267e-16
-0.270025,0.88,0.170707,0.01,22.7262,387.2,-549.539,549.549,-372.305,-1.03537e-08,1.03538e-08,-7.01445e-09,663.79,-663.78,-1.34423e-05,1.25061e-08,-1.2506e-08,-2.5326e-16
-0.260025,0.88,0.167803,0.01,20.9615,387.2,-560.684,560.695,-363.046,-1.05637e-08,1.05638e-08,-6.83999e-09,667.969,-667.957,-1.39871e-05,1.25849e-08,-1.25848e-08,-2.63524e-16
-0.250025,0.88,0.164911,0.01,19.2529,387.2,-571.634,571.646,-353.352,-1.077e-08,1.07701e-08,-6.65735e-09,672.04,-672.028,-1.44857e-05,1.26616e-08,-1.26614e-08,-2.7292e-16
-0.240025,0.88,0.162584,0.01,17.6014,387.2,-582.368,582.382,-343.227,-1.09722e-08,1.09724e-08,-6.46659e-09,675.999,-675.985,-1.49305e-05,1.27362e-08,-1.2736e-08,-2.81299e-16
-0.230025,0.88,0.159649,0.01,16.0081,387.2,-592.867,592.882,-332.675,-1.117e-08,1.11702e-08,-6.2678e-09,679.84,-679.826,-1.53146e-05,1.28085e-08,-1.28084e-08,-2.88535e-16
-0.220025,0.88,0.157291,0.01,14.4741,387.2,-603.108,603.124,-321.703,-1.1363e-08,1.13631e-08,-6.06108e-09,683.559,-683.543,-1.56308e-05,1.28786e-08,-1.28784e-08,-2.94494e-16
-0.210025,0.88,0.154922,0.01,13.0005,387.2,-613.072,613.09,-310.317,-1.15507e-08,1.15509e-08,-5.84656e-09,687.151,-687.134,-1.58723e-05,1.29463e-08,-1.29461e-08,-2.99044e-16
-0.200025,0.88,0.15253,0.01,11.5881,387.2,-622.738,622.756,-298.526,-1.17328e-08,1.1733e-08,-5.6244e-09,690.612,-690.593,-1.6033e-05,1.30114e-08,-1.30113e-08,-3.02071e-16
-0.190025,0.88,0.150728,0.01,10.2381,387.2,-632.085,632.105,-286.337,-1.19089e-08,1.19091e-08,-5.39476e-09,693.936,-693.916,-1.61068e-05,1.30741e-08,-1.30739e-08,-3.03461e-16
-0.180025,0.88,0.148302,0.01,8.95118,387.2,-641.094,641.114,-273.763,-1.20787e-08,1.20789e-08,-5.15786e-09,697.119,-697.098,-1.60885e-05,1.3134e-08,-1.31338e-08,-3.03117e-16
-0.170025,0.88,0.14652,0.01,7.72841,387.2,-649.744,649.765,-260.814,-1.22416e-08,1.22419e-08,-4.9139e-09,700.157,-700.136,-1.59739e-05,1.31913e-08,-1.31911e-08,-3.00957e-16
-0.160025,0.88,0.144606,0.01,6.57061,387.2,-658.016,658.039,-247.504,-1.23975e-08,1.23977e-08,-4.66312e-09,703.046,-703.024,-1.57593e-05,1.32457e-08,-1.32455e-08,-2.96914e-16
-0.150025,0.88,0.142804,0.01,5.47862,387.2,-665.891,665.915,-233.847,-1.25459e-08,1.25461e-08,-4.40581e-09,705.782,-705.758,-1.54421e-05,1.32972e-08,-1.3297e-08,-2.90938e-16
-0.140025,0.88,0.141443,0.01,4.45321,387.2,-673.352,673.377,-219.857,-1.26865e-08,1.26867e-08,-4.14223e-09,708.361,-708.336,-1.50205e-05,1.33458e-08,-1.33456e-08,-2.82995e-16
-0.130025,0.88,0.139621,0.01,3.49513,387.2,-680.381,680.407,-205.552,-1.28189e-08,1.28192e-08,-3.87271e-09,710.779,-710.753,-1.44941e-05,1.33914e-08,-1.33911e-08,-2.73078e-16
-0.120025,0.88,0.138499,0.01,2.60509,387.2,-686.962,686.988,-190.948,-1.29429e-08,1.29431e-08,-3.59757e-09,713.032,-713.006,-1.38638e-05,1.34338e-08,-1.34336e-08,-2.61202e-16
-0.110025,0.88,0.136969,0.01,1.78374,387.2,-693.078,693.105,-176.064,-1.30581e-08,1.30584e-08,-3.31715e-09,715.118,-715.091,-1.31311e-05,1.34731e-08,-1.34728e-08,-2.47398e-16
-0.100025,0.88,0.13584,0.01,1.0317,387.2,-698.714,698.743,-160.92,-1.31643e-08,1.31646e-08,-3.03183e-09,717.034,-717.005,-1.22992e-05,1.35092e-08,-1.35089e-08,-2.31724e-16
-0.0900249,0.88,0.134848,0.01,0.349527,387.2,-703.858,703.887,-145.537,-1.32612e-08,1.32615e-08,-2.742e-09,718.775,-718.746,-1.13726e-05,1.3542e-08,-1.35417e-08,-2.14266e-16
-0.0800249,0.88,0.133713,0.01,-0.262263,387.2,-708.495,708.525,-129.935,-1.33486e-08,1.33489e-08,-2.44804e-09,720.341,-720.311,-1.03567e-05,1.35715e-08,-1.35712e-08,-1.95126e-16
-0.0700249,0.88,0.133259,0.01,-0.803207,387.2,-712.616,712.646,-114.136,-1.34262e-08,1.34265e-08,-2.15039e-09,721.728,-721.698,-9.25744e-06,1.35976e-08,-1.35973e-08,-1.74416e-16
-0.0600249,0.88,0.132117,0.01,-1.27289,387.2,-716.208,716.239,-98.1641,-1.34939e-08,1.34942e-08,-1.84947e-09,722.935,-722.904,-8.0828e-06,1.36204e-08,-1.36201e-08,-1.52285e-16
-0.0500249,0.88,0.131727,0.01,-1.67096,387.2,-719.264,719.295,-82.0421,-1.35515e-08,1.35518e-08,-1.54572e-09,723.959,-723.928,-6.8423e-06,1.36397e-08,-1.36394e-08,-1.28913e-16
-0.0400249,0.88,0.131053,0.01,-1.9971,387.2,-721.775,721.807,-65.7943,-1.35988e-08,1.35991e-08,-1.2396e-09,724.799,-724.768,-5.54506e-06,1.36555e-08,-1.36552e-08,-1.04472e-16
-0.0300249,0.88,0.130664,0.01,-2.25107,387.2,-723.735,723.767,-49.4451,-1.36357e-08,1.36361e-08,-9.31575e-10,725.454,-725.423,-4.20117e-06,1.36678e-08,-1.36675e-08,-7.91525e-17
-0.0200249,0.88,0.13052,0.01,-2.43267,387.2,-725.14,725.172,-33.0197,-1.36622e-08,1.36625e-08,-6.2211e-10,725.923,-725.891,-2.82182e-06,1.36767e-08,-1.36763e-08,-5.31648e-17
-0.0100249,0.88,0.130133,0.01,-2.54176,387.2,-725.984,726.016,-16.5432,-1.36781e-08,1.36784e-08,-3.11683e-10,726.205,-726.173,-1.41847e-06,1.3682e-08,-1.36817e-08,-2.67248e-17
-2.48653e-05,0.88,0.130513,0.01,-2.57825,387.2,-726.267,726.299,-0.0410437,-1.36834e-08,1.36838e-08,-7.73287e-13,726.299,-726.267,-3.39967e-09,1.36838e-08,-1.36834e-08,-6.40518e-20
0.00997513,0.88,0.130133,0.01,-2.54212,387.2,-725.987,726.019,16.4612,-1.36782e-08,1.36785e-08,3.10138e-10,726.206,-726.174,1.41152e-06,1.3682e-08,-1.36817e-08,2.65939e-17
0.0199751,0.88,0.130516,0.01,-2.43339,387.2,-725.145,725.177,32.9379,-1.36623e-08,1.36626e-08,6.20568e-10,725.925,-725.893,2.81474e-06,1.36767e-08,-1.36764e-08,5.30313e-17
0.0299751,0.88,0.130664,0.01,-2.25215,387.2,-723.744,723.776,49.3636,-1.36359e-08,1.36362e-08,9.30039e-10,725.457,-725.425,4.1944e-06,1.36679e-08,-1.36676e-08,7.90249e-17
0.0399751,0.88,0.131049,0.01,-1.99854,387.2,-721.786,721.818,65.7132,-1.3599e-08,1.35993e-08,1.23807e-09,724.803,-724.772,5.53851e-06,1.36556e-08,-1.36553e-08,1.04349e-16
0.0499751,0.88,0.131727,0.01,-1.67276,387.2,-719.278,719.309,81.9616,-1.35517e-08,1.35521e-08,1.5442e-09,723.964,-723.933,6.83626e-06,1.36398e-08,-1.36394e-08,1.28799e-16
0.0599751,0.88,0.132113,0.01,-1.27505,387.2,-716.225,716.256,98.0842,-1.34942e-08,1.34945e-08,1.84796e-09,722.94,-722.91,8.07713e-06,1.36205e-08,-1.36202e-08,1.52178e-16
0.0699751,0.88,0.133251,0.01,-0.805719,387.2,-712.635,712.665,114.057,-1.34266e-08,1.34269e-08,2.1489e-09,721.735,-721.704,9.25112e-06,1.35978e-08,-1.35975e-08,1.74297e-16
0.0799751,0.88,0.133709,0.01,-0.265129,387.2,-708.517,708.547,129.856,-1.3349e-08,1.33493e-08,2.44657e-09,720.348,-720.319,1.03505e-05,1.35717e-08,-1.35714e-08,1.95009e-16
0.0899751,0.88,0.134841,0.01,0.34631,387.2,-703.882,703.911,145.46,-1.32617e-08,1.3262e-08,2.74054e-09,718.784,-718.754,1.13675e-05,1.35422e-08,-1.35419e-08,2.1417e-16
0.0999751,0.88,0.135836,0.01,1.02813,387.2,-698.741,698.769,160.844,-1.31648e-08,1.31651e-08,3.0304e-09,717.043,-717.014,1.22948e-05,1.35094e-08,-1.35091e-08,2.31641e-16
0.109975,0.88,0.136961,0.01,1.77983,387.2,-693.107,693.134,175.99,-1.30587e-08,1.30589e-08,3.31575e-09,715.128,-715.101,1.31271e-05,1.34733e-08,-1.3473e-08,2.47323e-16
0.119975,0.88,0.138495,0.01,2.60083,387.2,-686.993,687.02,190.874,-1.29435e-08,1.29437e-08,3.59619e-09,713.043,-713.016,1.38605e-05,1.3434e-08,-1.34338e-08,2.6114e-16
0.129975,0.88,0.139613,0.01,3.49054,387.2,-680.415,680.441,205.48,-1.28195e-08,1.28198e-08,3.87136e-09,710.79,-710.764,1.44914e-05,1.33916e-08,-1.33913e-08,2.73026e-16
0.139975,0.88,0.141432,0.01,4.44828,387.2,-673.389,673.413,219.787,-1.26871e-08,1.26874e-08,4.14091e-09,708.373,-708.348,1.5018e-05,1.33461e-08,-1.33458e-08,2.82948e-16
0.149975,0.88,0.142797,0.01,5.47335,387.2,-665.93,665.953,233.778,-1.25466e-08,1.25468e-08,4.40451e-09,705.795,-705.772,1.54403e-05,1.32975e-08,-1.32972e-08,2.90905e-16
0.159975,0.88,0.144596,0.01,6.56502,387.2,-658.056,658.079,247.437,-1.23983e-08,1.23985e-08,4.66186e-09,703.06,-703.038,1.57584e-05,1.3246e-08,-1.32457e-08,2.96898e-16
0.169975,0.88,0.146513,0.01,7.72249,387.2,-649.786,649.807,260.749,-1.22424e-08,1.22427e-08,4.91266e-09,700.172,-700.15,1.59733e-05,1.31916e-08,-1.31913e-08,3.00946e-16
0.179975,0.88,0.148292,0.01,8.94494,387.2,-641.138,641.158,273.7,-1.20795e-08,1.20797e-08,5.15666e-09,697.134,-697.114,1.6088e-05,1.31343e-08,-1.31341e-08,3.03108e-16
0.189975,0.88,0.150714,0.01,10.2315,387.2,-632.131,632.15,286.276,-1.19098e-08,1.191e-08,5.3936e-09,693.952,-693.932,1.61068e-05,1.30744e-08,-1.30742e-08,3.03461e-16
0.199975,0.88,0.15252,0.01,11.5813,387.2,-622.785,622.804,298.466,-1.17337e-08,1.17339e-08,5.62327e-09,690.629,-690.61,1.60339e-05,1.30118e-08,-1.30116e-08,3.02088e-16
0.209975,0.88,0.154908,0.01,12.9933,387.2,-613.121,613.138,310.26,-1.15516e-08,1.15518e-08,5.84547e-09,687.169,-687.152,1.58738e-05,1.29466e-08,-1.29464e-08,2.99072e-16
0.219975,0.88,0.157281,0.01,14.4667,387.2,-603.159,603.175,321.648,-1.13639e-08,1.13641e-08,6.06003e-09,683.578,-683.562,1.56324e-05,1.28789e-08,-1.28788e-08,2.94524e-16
0.229975,0.88,0.159636,0.01,16.0003,387.2,-592.918,592.933,332.622,-1.1171e-08,1.11711e-08,6.26679e-09,679.859,-679.844,1.53163e-05,1.28089e-08,-1.28087e-08,2.88568e-16
0.239975,0.88,0.162573,0.01,17.5933,387.2,-582.421,582.435,343.175,-1.09732e-08,1.09734e-08,6.46562e-09,676.018,-676.005,1.49323e-05,1.27365e-08,-1.27364e-08,2.81334e-16
0.249975,0.88,0.164898,0.01,19.2445,387.2,-571.688,571.7,353.302,-1.0771e-08,1.07711e-08,6.65642e-09,672.06,-672.048,1.44875e-05,1.26619e-08,-1.26618e-08,2.72952e-16
0.259975,0.88,0.167787,0.01,20.9529,387.2,-560.739,560.75,362.999,-1.05647e-08,1.05648e-08,6.8391e-09,667.989,-667.978,1.39893e-05,1.25853e-08,-1.25851e-08,2.63567e-16
0.269975,0.88,0.170694,0.01,22.7173,387.2,-549.595,549.605,372.261,-1.03547e-08,1.03548e-08,7.0136e-09,663.811,-663.801,1.34453e-05,1.25065e-08,-1.25064e-08,2.53317e-16
0.279975,0.88,0.173537,0.01,24.5367,387.2,-538.276,538.285,381.086,-1.01415e-08,1.01416e-08,7.17988e-09,659.529,-659.52,1.2862e-05,1.24259e-08,-1.24258e-08,2.42328e-16
0.289975,0.88,0.176901,0.01,26.41,387.2,-526.804,526.812,389.474,-9.92532e-09,9.9254e-09,7.33792e-09,655.15,-655.142,1.22469e-05,1.23434e-08,-1.23433e-08,2.30739e-16
0.299975,0.88,0.179825,0.01,28.3359,387.2,-515.197,515.204,397.424,-9.70664e-09,9.70671e-09,7.48771e-09,650.678,-650.671,1.16072e-05,1.22591e-08,-1.22591e-08,2.18686e-16
0.309975,0.88,0.18313,0.01,30.3133,387.2,-503.476,503.481,404.938,-9.48579e-09,9.48585e-09,7.62927e-09,646.118,-646.113,1.09497e-05,1.21732e-08,-1.21732e-08,2.06298e-16
0.319975,0.88,0.186648,0.01,32.3411,387.2,-491.658,491.663,412.017,-9.26315e-09,9.26319e-09,7.76263e-09,641.475,-641.471,1.02811e-05,1.20858e-08,-1.20857e-08,1.93701e-16
0.329975,0.88,0.189899,0.01,34.418,387.2,-479.765,479.768,418.663,-9.03906e-09,9.03909e-09,7.88786e-09,636.755,-636.751,9.60693e-06,1.19968e-08,-1.19968e-08,1.81e-16
0.339975,0.88,0.193612,0.01,36.5429,387.2,-467.812,467.814,424.881,-8.81386e-09,8.81388e-09,8.00501e-09,631.961,-631.959,8.93292e-06,1.19065e-08,-1.19065e-08,1.68301e-16
0.349975,0.88,0.197207,0.01,38.7146,387.2,-455.819,455.82,430.675,-8.58789e-09,8.5879e-09,8.11417e-09,627.099,-627.098,8.26448e-06,1.18149e-08,-1.18149e-08,1.55708e-16
0.359975,0.88,0.200855,0.01,40.9319,387.2,-443.801,443.802,436.05,-8.36147e-09,8.36148e-09,8.21544e-09,622.174,-622.173,7.60598e-06,1.17221e-08,-1.17221e-08,1.43301e-16
0.369975,0.88,0.204927,0.01,43.1936,387.2,-431.776,431.776,441.013,-8.13492e-09,8.13491e-09,8.30894e-09,617.189,-617.19,6.96212e-06,1.16282e-08,-1.16282e-08,1.3117e-16
0.379975,0.88,0.208641,0.01,45.4984,387.2,-419.76,419.759,445.569,-7.90852e-09,7.90851e-09,8.39478e-09,612.151,-612.153,6.33642e-06,1.15333e-08,-1.15333e-08,1.19382e-16
0.389975,0.88,0.212639,0.01,47.8452,387.2,-407.768,407.766,449.726,-7.68257e-09,7.68255e-09,8.4731e-09,607.063,-607.066,5.73155e-06,1.14374e-08,-1.14375e-08,1.07986e-16
0.399975,0.88,0.216969,0.01,50.2328,387.2,-395.825,395.814,453.497,-7.45753e-09,7.45741e-09,8.54415e-09,601.935,-601.947,0.00212379,1.13409e-08,-1.1341e-08,4.00134e-14
0.409975,0.88,0.220898,0.01,52.66,387.2,-384.153,383.804,457.148,-7.23615e-09,7.23261e-09,8.61294e-09,596.838,-597.188,-0.123294,1.12463e-08,-1.12498e-08,-2.32294e-12
0.419975,0.88,0.225204,0.01,55.1255,387.2,-374.167,372.107,461.487,-7.04057e-09,7.01966e-09,8.69468e-09,592.435,-594.496,-0.18136,1.11708e-08,-1.11917e-08,-3.41693e-12
0.429975,0.88,0.229703,0.01,57.6283,387.2,-364.293,360.841,464.459,-6.84848e-09,6.81346e-09,8.75067e-09,587.49,-590.943,0.590622,1.10837e-08,-1.11187e-08,1.11277e-11
0.439975,0.88,0.233934,0.01,60.1671,387.2,-353.944,348.095,469.666,-6.64307e-09,6.58374e-09,8.84878e-09,583.42,-589.269,-1.01077,1.10174e-08,-1.10767e-08,-1.90435e-11
0.449975,0.88,0.238509,0.01,62.7408,387.2,-347.204,337.982,473.254,-6.50143e-09,6.40787e-09,8.91638e-09,579.631,-588.854,0.669562,1.09607e-08,-1.10542e-08,1.26149e-11
0.459975,0.88,0.243212,0.01,65.3481,387.2,-334.083,325.681,475.5,-6.25778e-09,6.17254e-09,8.9587e-09,574.524,-582.926,-0.572801,1.08609e-08,-1.09461e-08,-1.07919e-11
-0.440025,0.89,0.242972,0.01,65.2753,396.05,-355.528,347.178,-460.012,-6.66205e-09,6.57734e-09,-8.6669e-09,574.669,-583.019,0.113627,1.08634e-08,-1.09481e-08,2.1408e-12
-0.430025,0.89,0.238692,0.01,62.7822,396.05,-368.264,359.06,-457.232,-6.89829e-09,6.80491e-09,-8.61452e-09,579.616,-588.821,-0.758673,1.09603e-08,-1.10537e-08,-1.42938e-11
-0.420025,0.89,0.234205,0.01,60.3247,396.05,-374.638,368.856,-452.868,-7.03326e-09,6.97461e-09,-8.53229e-09,583.014,-588.796,0.915195,1.10095e-08,-1.10681e-08,1.72428e-11
-0.410025,0.89,0.230066,0.01,57.9042,396.05,-384.736,381.328,-447.022,-7.23383e-09,7.19925e-09,-8.42216e-09,586.974,-590.382,-0.646634,1.10737e-08,-1.11083e-08,-1.2183e-11
-0.400025,0.89,0.225987,0.01,55.5218,396.05,-394.236,392.213,-443.327,-7.41884e-09,7.39832e-09,-8.35255e-09,591.58,-593.603,0.236301,1.11545e-08,-1.1175e-08,4.45204e-12
-0.390025,0.89,0.221776,0.01,53.1786,396.05,-403.97,403.648,-438.208,-7.60962e-09,7.60636e-09,-8.25609e-09,595.731,-596.053,0.108748,1.12253e-08,-1.12286e-08,2.04887e-12
-0.380025,0.89,0.217944,0.01,50.8758,396.05,-415.463,415.378,-433.786,-7.8272e-09,7.82634e-09,-8.17278e-09,600.578,-600.663,-0.0578518,1.13156e-08,-1.13165e-08,-1.08996e-12
-0.370025,0.89,0.21403,0.01,48.6145,396.05,-426.969,426.96,-429.219,-8.04431e-09,8.04421e-09,-8.08673e-09,605.411,-605.42,-0.00161916,1.14063e-08,-1.14064e-08,-3.05059e-14
-0.360025,0.89,0.210132,0.01,46.3958,396.05,-438.58,438.581,-424.256,-8.26311e-09,8.26311e-09,-7.99322e-09,610.202,-610.201,-7.35185e-06,1.14966e-08,-1.14965e-08,-1.38513e-16
-0.350025,0.89,0.206646,0.01,44.2211,396.05,-450.19,450.191,-418.901,-8.48184e-09,8.48186e-09,-7.89233e-09,614.939,-614.938,-7.96437e-06,1.15858e-08,-1.15858e-08,-1.50053e-16
-0.340025,0.89,0.202862,0.01,42.0914,396.05,-461.77,461.773,-413.144,-8.70003e-09,8.70006e-09,-7.78387e-09,619.615,-619.612,-8.58423e-06,1.16739e-08,-1.16739e-08,-1.61732e-16
-0.330025,0.89,0.199319,0.01,40.0078,396.05,-473.306,473.309,-406.979,-8.91737e-09,8.9174e-09,-7.66773e-09,624.223,-624.219,-9.20787e-06,1.17607e-08,-1.17607e-08,-1.73482e-16
-0.320025,0.89,0.196133,0.01,37.9716,396.05,-484.778,484.783,-400.404,-9.13353e-09,9.13357e-09,-7.54385e-09,628.76,-628.755,-9.82975e-06,1.18462e-08,-1.18461e-08,-1.85198e-16
-0.310025,0.89,0.192529,0.01,35.9838,396.05,-496.171,496.177,-393.415,-9.34818e-09,9.34824e-09,-7.41217e-09,633.22,-633.215,-1.04445e-05,1.19302e-08,-1.19302e-08,-1.9678e-16
-0.300025,0.89,0.189385,0.01,34.0457,396.05,-507.467,507.474,-386.01,-9.561e-09,9.56107e-09,-7.27264e-09,637.6,-637.593,-1.10472e-05,1.20127e-08,-1.20127e-08,-2.08136e-16
-0.290025,0.89,0.186277,0.01,32.1583,396.05,-518.647,518.654,-378.186,-9.77164e-09,9.77172e-09,-7.12525e-09,641.894,-641.886,-1.16316e-05,1.20936e-08,-1.20935e-08,-2.19146e-16
-0.280025,0.89,0.183083,0.01,30.3228,396.05,-529.692,529.701,-369.944,-9.97974e-09,9.97983e-09,-6.96997e-09,646.098,-646.089,-1.21911e-05,1.21728e-08,-1.21727e-08,-2.29687e-16
-0.270025,0.89,0.180388,0.01,28.5402,396.05,-540.584,540.594,-361.284,-1.0185e-08,1.01851e-08,-6.80681e-09,650.207,-650.197,-1.27197e-05,1.22502e-08,-1.22501e-08,-2.39646e-16
-0.260025,0.89,0.177317,0.01,26.8117,396.05,-551.303,551.314,-352.208,-1.03869e-08,1.0387e-08,-6.6358e-09,654.216,-654.205,-1.3211e-05,1.23258e-08,-1.23257e-08,-2.48903e-16
-0.250025,0.89,0.174583,0.01,25.1383,396.05,-561.831,561.843,-342.717,-1.05853e-08,1.05854e-08,-6.45699e-09,658.121,-658.109,-1.36582e-05,1.23993e-08,-1.23992e-08,-2.57328e-16
-0.240025,0.89,0.172086,0.01,23.5212,396.05,-572.147,572.16,-332.816,-1.07796e-08,1.07798e-08,-6.27044e-09,661.917,-661.904,-1.40542e-05,1.24709e-08,-1.24707e-08,-2.64789e-16
-0.230025,0.89,0.169311,0.01,21.9612,396.05,-582.232,582.246,-322.508,-1.09696e-08,1.09698e-08,-6.07624e-09,665.6,-665.586,-1.43931e-05,1.25402e-08,-1.25401e-08,-2.71174e-16
-0.220025,0.89,0.16709,0.01,20.4594,396.05,-592.066,592.082,-311.8,-1.11549e-08,1.11551e-08,-5.87449e-09,669.164,-669.149,-1.46688e-05,1.26074e-08,-1.26072e-08,-2.76368e-16
-0.210025,0.89,0.164574,0.01,19.0169,396.05,-601.63,601.647,-300.698,-1.13351e-08,1.13353e-08,-5.66533e-09,672.606,-672.59,-1.48745e-05,1.26722e-08,-1.26721e-08,-2.80244e-16
-0.200025,0.89,0.162325,0.01,17.6345,396.05,-610.905,610.922,-289.21,-1.15099e-08,1.15101e-08,-5.44889e-09,675.921,-675.904,-1.50047e-05,1.27347e-08,-1.27345e-08,-2.82697e-16
-0.190025,0.89,0.160369,0.01,16.3132,396.05,-619.87,619.889,-277.346,-1.16788e-08,1.1679e-08,-5.22535e-09,679.105,-679.086,-1.50547e-05,1.27947e-08,-1.27945e-08,-2.8364e-16
-0.180025,0.89,0.158091,0.01,15.0539,396.05,-628.508,628.528,-265.114,-1.18415e-08,1.18417e-08,-4.9949e-09,682.154,-682.134,-1.50198e-05,1.28521e-08,-1.28519e-08,-2.82981e-16
-0.170025,0.89,0.15642,0.01,13.8574,396.05,-636.799,636.82,-252.527,-1.19978e-08,1.1998e-08,-4.75776e-09,685.063,-685.042,-1.48958e-05,1.29069e-08,-1.29067e-08,-2.80646e-16
-0.160025,0.89,0.15439,0.01,12.7246,396.05,-644.726,644.748,-239.597,-1.21471e-08,1.21473e-08,-4.51416e-09,687.828,-687.806,-1.46802e-05,1.2959e-08,-1.29588e-08,-2.76583e-16
-0.150025,0.89,0.152704,0.01,11.6563,396.05,-652.27,652.293,-226.338,-1.22893e-08,1.22895e-08,-4.26434e-09,690.447,-690.424,-1.43702e-05,1.30083e-08,-1.30081e-08,-2.70743e-16
-0.140025,0.89,0.151221,0.01,10.6532,396.05,-659.416,659.44,-212.764,-1.24239e-08,1.24241e-08,-4.00859e-09,692.914,-692.89,-1.39649e-05,1.30548e-08,-1.30546e-08,-2.63107e-16
-0.130025,0.89,0.149518,0.01,9.71609,396.05,-666.146,666.171,-198.89,-1.25507e-08,1.25509e-08,-3.74721e-09,695.228,-695.203,-1.34644e-05,1.30984e-08,-1.30981e-08,-2.53676e-16
-0.120025,0.89,0.148471,0.01,8.84555,396.05,-672.445,672.47,-184.734,-1.26694e-08,1.26696e-08,-3.4805e-09,697.383,-697.358,-1.28686e-05,1.3139e-08,-1.31387e-08,-2.42453e-16
-0.110025,0.89,0.146865,0.01,8.04226,396.05,-678.298,678.324,-170.313,-1.27796e-08,1.27799e-08,-3.2088e-09,699.379,-699.352,-1.21794e-05,1.31766e-08,-1.31763e-08,-2.29467e-16
-0.100025,0.89,0.145813,0.01,7.30679,396.05,-683.691,683.718,-155.646,-1.28812e-08,1.28815e-08,-2.93245e-09,701.211,-701.183,-1.14e-05,1.32111e-08,-1.32108e-08,-2.14782e-16
-0.0900249,0.89,0.144743,0.01,6.63968,396.05,-688.611,688.639,-140.751,-1.2974e-08,1.29742e-08,-2.65183e-09,702.876,-702.848,-1.05347e-05,1.32425e-08,-1.32422e-08,-1.98479e-16
-0.0800249,0.89,0.143686,0.01,6.04144,396.05,-693.047,693.075,-125.65,-1.30575e-08,1.30578e-08,-2.36732e-09,704.373,-704.345,-9.5881e-06,1.32707e-08,-1.32704e-08,-1.80645e-16
-0.0700249,0.89,0.143152,0.01,5.5125,396.05,-696.987,697.016,-110.363,-1.31318e-08,1.31321e-08,-2.0793e-09,705.7,-705.671,-8.56633e-06,1.32957e-08,-1.32954e-08,-1.61395e-16
-0.0600249,0.89,0.14209,0.01,5.05325,396.05,-700.423,700.452,-94.9118,-1.31965e-08,1.31968e-08,-1.78819e-09,706.853,-706.824,-7.47678e-06,1.33174e-08,-1.33171e-08,-1.40867e-16
-0.0500249,0.89,0.141727,0.01,4.66405,396.05,-703.344,703.374,-79.319,-1.32515e-08,1.32518e-08,-1.49442e-09,707.832,-707.803,-6.32716e-06,1.33358e-08,-1.33355e-08,-1.19207e-16
-0.0400249,0.89,0.141025,0.01,4.34517,396.05,-705.745,705.775,-63.6072,-1.32968e-08,1.32971e-08,-1.1984e-09,708.636,-708.605,-5.12588e-06,1.3351e-08,-1.33507e-08,-9.65746e-17
-0.0300249,0.89,0.140664,0.01,4.09687,396.05,-707.619,707.649,-47.7996,-1.33321e-08,1.33324e-08,-9.00572e-10,709.262,-709.231,-3.88278e-06,1.33628e-08,-1.33625e-08,-7.31539e-17
-0.0200249,0.89,0.140492,0.01,3.91933,396.05,-708.961,708.992,-31.9199,-1.33574e-08,1.33577e-08,-6.01389e-10,709.71,-709.679,-2.60774e-06,1.33712e-08,-1.33709e-08,-4.91313e-17
-0.0100249,0.89,0.140133,0.01,3.81268,396.05,-709.768,709.799,-15.9919,-1.33726e-08,1.33729e-08,-3.01296e-10,709.979,-709.948,-1.31061e-06,1.33763e-08,-1.3376e-08,-2.46927e-17
-2.48653e-05,0.89,0.140486,0.01,3.777,396.05,-710.038,710.069,-0.0396757,-1.33777e-08,1.3378e-08,-7.47513e-13,710.069,-710.038,-2.86777e-09,1.3378e-08,-1.33777e-08,-5.40304e-20
0.00997513,0.89,0.140133,0.01,3.81232,396.05,-709.771,709.802,15.9126,-1.33726e-08,1.33729e-08,2.99802e-10,709.98,-709.949,1.30437e-06,1.33763e-08,-1.3376e-08,2.45751e-17
0.0199751,0.89,0.140489,0.01,3.91862,396.05,-708.966,708.997,31.8408,-1.33575e-08,1.33578e-08,5.99898e-10,709.712,-709.681,2.6012e-06,1.33712e-08,-1.33709e-08,4.9008e-17
0.0299751,0.89,0.140664,0.01,4.09581,396.05,-707.627,707.657,47.7208,-1.33322e-08,1.33325e-08,8.99087e-10,709.264,-709.234,3.87667e-06,1.33628e-08,-1.33625e-08,7.30388e-17
0.0399751,0.89,0.141022,0.01,4.34376,396.05,-705.756,705.786,63.5288,-1.3297e-08,1.32973e-08,1.19692e-09,708.639,-708.609,5.11945e-06,1.3351e-08,-1.33507e-08,9.64534e-17
0.0499751,0.89,0.141727,0.01,4.66229,396.05,-703.357,703.387,79.2411,-1.32518e-08,1.32521e-08,1.49295e-09,707.837,-707.807,6.32079e-06,1.33359e-08,-1.33356e-08,1.19087e-16
0.0599751,0.89,0.142086,0.01,5.05114,396.05,-700.438,700.468,94.8346,-1.31968e-08,1.31971e-08,1.78674e-09,706.859,-706.829,7.47151e-06,1.33175e-08,-1.33172e-08,1.40767e-16
0.0699751,0.89,0.143145,0.01,5.51004,396.05,-697.006,697.035,110.286,-1.31321e-08,1.31324e-08,2.07786e-09,705.706,-705.677,8.56151e-06,1.32958e-08,-1.32955e-08,1.61304e-16
0.0799751,0.89,0.143682,0.01,6.03864,396.05,-693.068,693.096,125.574,-1.30579e-08,1.30582e-08,2.36589e-09,704.38,-704.352,9.58327e-06,1.32708e-08,-1.32705e-08,1.80554e-16
0.0899751,0.89,0.144736,0.01,6.63654,396.05,-688.634,688.662,140.676,-1.29744e-08,1.29747e-08,2.65043e-09,702.884,-702.856,1.05301e-05,1.32426e-08,-1.32423e-08,1.98394e-16
0.0999751,0.89,0.145809,0.01,7.3033,396.05,-683.716,683.744,155.572,-1.28817e-08,1.2882e-08,2.93107e-09,701.219,-701.192,1.13957e-05,1.32113e-08,-1.3211e-08,2.14702e-16
0.109975,0.89,0.146858,0.01,8.03843,396.05,-678.326,678.352,170.241,-1.27802e-08,1.27804e-08,3.20743e-09,699.388,-699.362,1.21753e-05,1.31768e-08,-1.31765e-08,2.29389e-16
0.119975,0.89,0.148468,0.01,8.84139,396.05,-672.475,672.5,184.663,-1.26699e-08,1.26702e-08,3.47916e-09,697.394,-697.368,1.2865e-05,1.31392e-08,-1.31389e-08,2.42384e-16
0.129975,0.89,0.149512,0.01,9.71159,396.05,-666.178,666.203,198.821,-1.25513e-08,1.25515e-08,3.7459e-09,695.239,-695.214,1.34615e-05,1.30986e-08,-1.30983e-08,2.53622e-16
0.139975,0.89,0.151211,0.01,10.6484,396.05,-659.45,659.474,212.696,-1.24245e-08,1.24248e-08,4.00731e-09,692.926,-692.902,1.39628e-05,1.3055e-08,-1.30548e-08,2.63068e-16
0.149975,0.89,0.152697,0.01,11.6512,396.05,-652.307,652.33,226.271,-1.22899e-08,1.22902e-08,4.26308e-09,690.459,-690.436,1.43688e-05,1.30086e-08,-1.30083e-08,2.70717e-16
0.159975,0.89,0.15438,0.01,12.7192,396.05,-644.764,644.786,239.532,-1.21478e-08,1.21481e-08,4.51293e-09,687.842,-687.82,1.46791e-05,1.29592e-08,-1.2959e-08,2.76564e-16
0.169975,0.89,0.156414,0.01,13.8516,396.05,-636.839,636.86,252.464,-1.19985e-08,1.19987e-08,4.75657e-09,685.077,-685.056,1.48949e-05,1.29072e-08,-1.29069e-08,2.80628e-16
0.179975,0.89,0.158081,0.01,15.0478,396.05,-628.55,628.57,265.052,-1.18423e-08,1.18425e-08,4.99374e-09,682.168,-682.149,1.50191e-05,1.28524e-08,-1.28522e-08,2.82969e-16
0.189975,0.89,0.160356,0.01,16.3068,396.05,-619.914,619.933,277.286,-1.16796e-08,1.16798e-08,5.22422e-09,679.121,-679.102,1.5055e-05,1.27949e-08,-1.27948e-08,2.83644e-16
0.199975,0.89,0.162315,0.01,17.6278,396.05,-610.95,610.968,289.152,-1.15107e-08,1.15109e-08,5.4478e-09,675.938,-675.92,1.50055e-05,1.2735e-08,-1.27348e-08,2.82711e-16
0.209975,0.89,0.164561,0.01,19.0099,396.05,-601.677,601.694,300.642,-1.1336e-08,1.13362e-08,5.66427e-09,672.623,-672.607,1.48755e-05,1.26725e-08,-1.26724e-08,2.80263e-16
0.219975,0.89,0.16708,0.01,20.4521,396.05,-592.114,592.13,311.746,-1.11558e-08,1.1156e-08,5.87347e-09,669.182,-669.166,1.46704e-05,1.26077e-08,-1.26075e-08,2.76398e-16
0.229975,0.89,0.169299,0.01,21.9536,396.05,-582.281,582.296,322.456,-1.09706e-08,1.09707e-08,6.07526e-09,665.618,-665.604,1.43953e-05,1.25406e-08,-1.25404e-08,2.71215e-16
0.239975,0.89,0.172071,0.01,23.5133,396.05,-572.198,572.211,332.766,-1.07806e-08,1.07807e-08,6.2695e-09,661.936,-661.923,1.40563e-05,1.24712e-08,-1.24711e-08,2.64828e-16
0.249975,0.89,0.174571,0.01,25.1302,396.05,-561.883,561.895,342.669,-1.05862e-08,1.05864e-08,6.45608e-09,658.141,-658.128,1.366e-05,1.23997e-08,-1.23996e-08,2.57362e-16
0.259975,0.89,0.177302,0.01,26.8033,396.05,-551.356,551.367,352.162,-1.03879e-08,1.0388e-08,6.63493e-09,654.236,-654.225,1.32133e-05,1.23261e-08,-1.2326e-08,2.48947e-16
0.269975,0.89,0.180376,0.01,28.5315,396.05,-540.638,540.648,361.24,-1.0186e-08,1.01861e-08,6.80598e-09,650.227,-650.217,1.27228e-05,1.22506e-08,-1.22505e-08,2.39706e-16
0.279975,0.89,0.183069,0.01,30.3138,396.05,-529.747,529.755,369.902,-9.98077e-09,9.98086e-09,6.96917e-09,646.119,-646.11,1.21942e-05,1.21732e-08,-1.21731e-08,2.29745e-16
0.289975,0.89,0.18626,0.01,32.149,396.05,-518.702,518.71,378.146,-9.77268e-09,9.77276e-09,7.12449e-09,641.915,-641.908,1.16342e-05,1.2094e-08,-1.20939e-08,2.19196e-16
0.299975,0.89,0.189371,0.01,34.0362,396.05,-507.523,507.53,385.972,-9.56205e-09,9.56212e-09,7.27193e-09,637.622,-637.615,1.10499e-05,1.20131e-08,-1.20131e-08,2.08187e-16
0.309975,0.89,0.192512,0.01,35.9741,396.05,-496.228,496.233,393.379,-9.34925e-09,9.3493e-09,7.4115e-09,633.242,-633.237,1.04474e-05,1.19306e-08,-1.19306e-08,1.96836e-16
0.319975,0.89,0.196114,0.01,37.9616,396.05,-484.835,484.84,400.371,-9.1346e-09,9.13464e-09,7.54321e-09,628.782,-628.778,9.83264e-06,1.18466e-08,-1.18466e-08,1.85253e-16
0.329975,0.89,0.199302,0.01,39.9975,396.05,-473.363,473.366,406.948,-8.91844e-09,8.91848e-09,7.66713e-09,624.246,-624.242,9.21066e-06,1.17611e-08,-1.17611e-08,1.73534e-16
0.339975,0.89,0.202843,0.01,42.0809,396.05,-461.828,461.831,413.114,-8.70112e-09,8.70114e-09,7.78331e-09,619.638,-619.635,8.58722e-06,1.16743e-08,-1.16743e-08,1.61788e-16
0.349975,0.89,0.20663,0.01,44.2104,396.05,-450.247,450.249,418.873,-8.48293e-09,8.48295e-09,7.89181e-09,614.963,-614.961,7.96723e-06,1.15862e-08,-1.15862e-08,1.50107e-16
0.359975,0.89,0.210114,0.01,46.3849,396.05,-438.638,438.639,424.23,-8.2642e-09,8.2642e-09,7.99274e-09,610.225,-610.225,7.35466e-06,1.1497e-08,-1.1497e-08,1.38566e-16
0.369975,0.89,0.214009,0.01,48.6033,396.05,-427.027,427.018,429.195,-8.0454e-09,8.0453e-09,8.08629e-09,605.435,-605.444,0.00161845,1.14068e-08,-1.14069e-08,3.04926e-14
0.379975,0.89,0.217926,0.01,50.8644,396.05,-415.521,415.436,433.764,-7.82829e-09,7.82743e-09,8.17237e-09,600.602,-600.687,0.0578697,1.13161e-08,-1.13169e-08,1.0903e-12
0.389975,0.89,0.221756,0.01,53.1671,396.05,-404.027,403.705,438.188,-7.61071e-09,7.60744e-09,8.25572e-09,595.756,-596.078,-0.108711,1.12258e-08,-1.12291e-08,-2.04819e-12
0.399975,0.89,0.225965,0.01,55.5101,396.05,-394.294,392.271,443.309,-7.41993e-09,7.39941e-09,8.35221e-09,591.605,-593.628,-0.236424,1.1155e-08,-1.11755e-08,-4.45436e-12
0.409975,0.89,0.230047,0.01,57.8923,396.05,-384.794,381.385,447.006,-7.23492e-09,7.20034e-09,8.42185e-09,586.999,-590.407,0.646785,1.10742e-08,-1.11088e-08,1.21858e-11
0.419975,0.89,0.234184,0.01,60.3126,396.05,-374.696,368.914,452.853,-7.03435e-09,6.97569e-09,8.53201e-09,583.039,-588.821,-0.91505,1.10099e-08,-1.10686e-08,-1.72401e-11
0.429975,0.89,0.238669,0.01,62.7698,396.05,-368.322,359.117,457.22,-6.89938e-09,6.806e-09,8.61428e-09,579.642,-588.847,0.758895,1.09608e-08,-1.10542e-08,1.4298e-11
0.439975,0.89,0.24295,0.01,65.2629,396.05,-355.586,347.235,460.001,-6.66314e-09,6.57842e-09,8.66668e-09,574.694,-583.045,-0.112714,1.08639e-08,-1.09486e-08,-2.12359e-12
-0.420025,0.9,0.243264,0.01,65.4747,405,-375.91,367.663,-443.107,-7.0465e-09,6.96284e-09,-8.34839e-09,574.296,-582.542,-0.348459,1.08559e-08,-1.09396e-08,-6.56517e-12
-0.410025,0.9,0.239282,0.01,63.0983,405,-388.183,379.052,-439.811,-7.27389e-09,7.18126e-09,-8.28629e-09,579.04,-588.171,-0.839676,1.09492e-08,-1.10418e-08,-1.582e-11
-0.400025,0.9,0.235011,0.01,60.7597,405,-393.245,388.567,-435.338,-7.38863e-09,7.34117e-09,-8.20202e-09,582.746,-587.424,1.53692,1.09996e-08,-1.10471e-08,2.89565e-11
-0.390025,0.9,0.230966,0.01,58.4599,405,-402.449,400.33,-428.643,-7.57316e-09,7.55167e-09,-8.07587e-09,586.178,-588.297,0.210106,1.10531e-08,-1.10746e-08,3.95851e-12
-0.380025,0.9,0.227288,0.01,56.2,405,-415.366,411.693,-424.241,-7.80977e-09,7.7725e-09,-7.99294e-09,590.605,-594.277,-0.530324,1.11433e-08,-1.11806e-08,-9.99161e-12
-0.370025,0.9,0.22319,0.01,53.9813,405,-424.26,422.276,-419.288,-7.98467e-09,7.96455e-09,-7.89962e-09,594.792,-596.775,0.316154,1.12148e-08,-1.1235e-08,5.95653e-12
-0.360025,0.9,0.219456,0.01,51.8048,405,-433.682,433.385,-413.03,-8.16953e-09,8.16652e-09,-7.78172e-09,598.638,-598.935,0.0732696,1.128e-08,-1.1283e-08,1.38044e-12
-0.350025,0.9,0.215958,0.01,49.6716,405,-444.662,444.655,-407.506,-8.37766e-09,8.37758e-09,-7.67766e-09,603.14,-603.147,-0.00121137,1.13635e-08,-1.13636e-08,-2.28229e-14
-0.340025,0.9,0.212162,0.01,47.5829,405,-455.834,455.837,-401.783,-8.58818e-09,8.58821e-09,-7.56983e-09,607.632,-607.63,-8.24779e-06,1.14481e-08,-1.14481e-08,-1.55393e-16
-0.330025,0.9,0.208777,0.01,45.5398,405,-466.968,466.972,-395.675,-8.79797e-09,8.79801e-09,-7.45474e-09,612.064,-612.06,-8.82431e-06,1.15316e-08,-1.15316e-08,-1.66255e-16
-0.320025,0.9,0.205408,0.01,43.5434,405,-478.037,478.042,-389.172,-9.00651e-09,9.00656e-09,-7.33223e-09,616.425,-616.42,-9.39775e-06,1.16138e-08,-1.16137e-08,-1.77059e-16
-0.310025,0.9,0.201969,0.01,41.5948,405,-489.023,489.029,-382.273,-9.21351e-09,9.21357e-09,-7.20224e-09,620.711,-620.706,-9.96279e-06,1.16945e-08,-1.16945e-08,-1.87705e-16
-0.300025,0.9,0.198975,0.01,39.695,405,-499.911,499.917,-374.974,-9.41864e-09,9.4187e-09,-7.06473e-09,624.919,-624.912,-1.05148e-05,1.17738e-08,-1.17737e-08,-1.98106e-16
-0.290025,0.9,0.195699,0.01,37.8453,405,-510.681,510.689,-367.276,-9.62156e-09,9.62164e-09,-6.9197e-09,629.044,-629.036,-1.10486e-05,1.18515e-08,-1.18514e-08,-2.08162e-16
-0.280025,0.9,0.192661,0.01,36.0467,405,-521.317,521.326,-359.178,-9.82196e-09,9.82205e-09,-6.76712e-09,633.08,-633.072,-1.15579e-05,1.19276e-08,-1.19275e-08,-2.17758e-16
-0.270025,0.9,0.189965,0.01,34.3001,405,-531.801,531.811,-350.68,-1.00195e-08,1.00196e-08,-6.60702e-09,637.025,-637.015,-1.20368e-05,1.20019e-08,-1.20018e-08,-2.26781e-16
-0.260025,0.9,0.186882,0.01,32.6068,405,-542.115,542.126,-341.785,-1.02138e-08,1.02139e-08,-6.43942e-09,640.873,-640.862,-1.24794e-05,1.20744e-08,-1.20743e-08,-2.35119e-16
-0.250025,0.9,0.18429,0.01,30.9676,405,-552.239,552.251,-332.494,-1.04046e-08,1.04047e-08,-6.26438e-09,644.62,-644.608,-1.28801e-05,1.2145e-08,-1.21448e-08,-2.42668e-16
-0.240025,0.9,0.181637,0.01,29.3837,405,-562.156,562.169,-322.811,-1.05914e-08,1.05915e-08,-6.08195e-09,648.261,-648.248,-1.32327e-05,1.22136e-08,-1.22134e-08,-2.49311e-16
-0.230025,0.9,0.179011,0.01,27.856,405,-571.847,571.861,-312.742,-1.0774e-08,1.07741e-08,-5.89224e-09,651.793,-651.779,-1.35315e-05,1.22801e-08,-1.228e-08,-2.54942e-16
-0.220025,0.9,0.176911,0.01,26.3855,405,-581.294,581.309,-302.291,-1.0952e-08,1.09521e-08,-5.69533e-09,655.211,-655.196,-1.37711e-05,1.23445e-08,-1.23443e-08,-2.59455e-16
-0.210025,0.9,0.174265,0.01,24.9731,405,-590.478,590.494,-291.465,-1.1125e-08,1.11252e-08,-5.49137e-09,658.51,-658.494,-1.39452e-05,1.24066e-08,-1.24065e-08,-2.62736e-16
-0.200025,0.9,0.172143,0.01,23.6198,405,-599.38,599.397,-280.272,-1.12927e-08,1.12929e-08,-5.28049e-09,661.687,-661.67,-1.40489e-05,1.24665e-08,-1.24663e-08,-2.64689e-16
-0.190025,0.9,0.170052,0.01,22.3264,405,-607.983,608.001,-268.721,-1.14548e-08,1.1455e-08,-5.06285e-09,664.738,-664.72,-1.40784e-05,1.2524e-08,-1.25238e-08,-2.65245e-16
-0.180025,0.9,0.167905,0.01,21.0937,405,-616.268,616.287,-256.821,-1.16109e-08,1.16111e-08,-4.83865e-09,667.659,-667.639,-1.40298e-05,1.2579e-08,-1.25788e-08,-2.64329e-16
-0.170025,0.9,0.166333,0.01,19.9228,405,-624.219,624.239,-244.583,-1.17607e-08,1.17609e-08,-4.60809e-09,670.445,-670.425,-1.38988e-05,1.26315e-08,-1.26313e-08,-2.61862e-16
-0.160025,0.9,0.1642,0.01,18.8142,405,-631.818,631.839,-232.02,-1.19039e-08,1.19041e-08,-4.3714e-09,673.094,-673.072,-1.36832e-05,1.26814e-08,-1.26812e-08,-2.57799e-16
-0.150025,0.9,0.162616,0.01,17.7688,405,-639.049,639.071,-219.145,-1.20401e-08,1.20404e-08,-4.12881e-09,675.601,-675.579,-1.33812e-05,1.27286e-08,-1.27284e-08,-2.52109e-16
-0.140025,0.9,0.161027,0.01,16.7873,405,-645.895,645.918,-205.97,-1.21691e-08,1.21694e-08,-3.8806e-09,677.963,-677.94,-1.29924e-05,1.27731e-08,-1.27729e-08,-2.44784e-16
-0.130025,0.9,0.159429,0.01,15.8704,405,-652.341,652.365,-192.512,-1.22906e-08,1.22908e-08,-3.62703e-09,680.178,-680.154,-1.25165e-05,1.28148e-08,-1.28146e-08,-2.35819e-16
-0.120025,0.9,0.158386,0.01,15.0188,405,-658.374,658.398,-178.786,-1.24042e-08,1.24045e-08,-3.36843e-09,682.241,-682.217,-1.19534e-05,1.28537e-08,-1.28535e-08,-2.25209e-16
-0.110025,0.9,0.156774,0.01,14.2329,405,-663.977,664.003,-164.808,-1.25098e-08,1.25101e-08,-3.10509e-09,684.151,-684.125,-1.13049e-05,1.28897e-08,-1.28894e-08,-2.12991e-16
-0.100025,0.9,0.155789,0.01,13.5135,405,-669.14,669.166,-150.598,-1.26071e-08,1.26074e-08,-2.83735e-09,685.903,-685.877,-1.05747e-05,1.29227e-08,-1.29224e-08,-1.99233e-16
-0.0900249,0.9,0.154651,0.01,12.861,405,-673.849,673.876,-136.172,-1.26958e-08,1.26961e-08,-2.56556e-09,687.497,-687.47,-9.76626e-06,1.29527e-08,-1.29525e-08,-1.84002e-16
-0.0800249,0.9,0.153662,0.01,12.2758,405,-678.094,678.121,-121.551,-1.27758e-08,1.27761e-08,-2.29009e-09,688.929,-688.902,-8.88395e-06,1.29797e-08,-1.29794e-08,-1.67379e-16
-0.0700249,0.9,0.153059,0.01,11.7585,405,-681.864,681.892,-106.754,-1.28468e-08,1.28471e-08,-2.0113e-09,690.198,-690.17,-7.93366e-06,1.30036e-08,-1.30033e-08,-1.49475e-16
-0.0600249,0.9,0.152066,0.01,11.3094,405,-685.151,685.179,-91.8015,-1.29088e-08,1.2909e-08,-1.72959e-09,691.302,-691.273,-6.92199e-06,1.30244e-08,-1.30241e-08,-1.30414e-16
-0.0500249,0.9,0.151727,0.01,10.9287,405,-687.945,687.974,-76.715,-1.29614e-08,1.29617e-08,-1.44535e-09,692.238,-692.209,-5.85568e-06,1.3042e-08,-1.30418e-08,-1.10324e-16
-0.0400249,0.9,0.151001,0.01,10.6169,405,-690.242,690.271,-61.5159,-1.30047e-08,1.3005e-08,-1.159e-09,693.006,-692.977,-4.74264e-06,1.30565e-08,-1.30562e-08,-8.93541e-17
-0.0300249,0.9,0.150664,0.01,10.374,405,-692.034,692.063,-46.2262,-1.30384e-08,1.30387e-08,-8.70929e-10,693.605,-693.576,-3.5917e-06,1.30678e-08,-1.30675e-08,-6.76696e-17
-0.0200249,0.9,0.150468,0.01,10.2004,405,-693.317,693.347,-30.8683,-1.30626e-08,1.30629e-08,-5.81578e-10,694.034,-694.004,-2.4119e-06,1.30759e-08,-1.30756e-08,-4.54417e-17
-0.0100249,0.9,0.150133,0.01,10.0961,405,-694.089,694.119,-15.4648,-1.30772e-08,1.30775e-08,-2.91366e-10,694.291,-694.262,-1.21244e-06,1.30807e-08,-1.30804e-08,-2.2843e-17
-2.48653e-05,0.9,0.150463,0.01,10.0612,405,-694.348,694.377,-0.0383678,-1.3082e-08,1.30823e-08,-7.22872e-13,694.377,-694.348,-2.88067e-09,1.30823e-08,-1.3082e-08,-5.42735e-20
0.00997513,0.9,0.150133,0.01,10.0958,405,-694.092,694.121,15.3881,-1.30772e-08,1.30775e-08,2.89921e-10,694.292,-694.262,1.20632e-06,1.30807e-08,-1.30804e-08,2.27278e-17
0.0199751,0.9,0.150465,0.01,10.1997,405,-693.322,693.352,30.7918,-1.30627e-08,1.3063e-08,5.80136e-10,694.035,-694.006,2.40586e-06,1.30759e-08,-1.30756e-08,4.53279e-17
0.0299751,0.9,0.150664,0.01,10.373,405,-692.041,692.071,46.15,-1.30386e-08,1.30389e-08,8.69493e-10,693.608,-693.578,3.58602e-06,1.30678e-08,-1.30675e-08,6.75626e-17
0.0399751,0.9,0.150998,0.01,10.6155,405,-690.252,690.281,61.4401,-1.30049e-08,1.30052e-08,1.15757e-09,693.01,-692.981,4.73655e-06,1.30566e-08,-1.30563e-08,8.92394e-17
0.0499751,0.9,0.151727,0.01,10.927,405,-687.958,687.987,76.6397,-1.29617e-08,1.29619e-08,1.44394e-09,692.242,-692.214,5.84953e-06,1.30421e-08,-1.30418e-08,1.10208e-16
0.0599751,0.9,0.152063,0.01,11.3073,405,-685.166,685.194,91.7268,-1.2909e-08,1.29093e-08,1.72819e-09,691.307,-691.278,6.91683e-06,1.30245e-08,-1.30242e-08,1.30317e-16
0.0699751,0.9,0.153052,0.01,11.7561,405,-681.882,681.91,106.68,-1.28472e-08,1.28475e-08,2.00991e-09,690.204,-690.176,7.92949e-06,1.30037e-08,-1.30034e-08,1.49396e-16
0.0799751,0.9,0.153659,0.01,12.2731,405,-678.114,678.141,121.478,-1.27762e-08,1.27765e-08,2.28871e-09,688.936,-688.909,8.8801e-06,1.29798e-08,-1.29796e-08,1.67306e-16
0.0899751,0.9,0.154644,0.01,12.8579,405,-673.872,673.898,136.1,-1.26962e-08,1.26965e-08,2.5642e-09,687.505,-687.478,9.7623e-06,1.29529e-08,-1.29526e-08,1.83927e-16
0.0999751,0.9,0.155786,0.01,13.5101,405,-669.165,669.191,150.527,-1.26076e-08,1.26078e-08,2.83601e-09,685.912,-685.886,1.0571e-05,1.29229e-08,-1.29226e-08,1.99163e-16
0.109975,0.9,0.156768,0.01,14.2292,405,-664.004,664.03,164.738,-1.25103e-08,1.25106e-08,3.10377e-09,684.16,-684.134,1.13014e-05,1.28899e-08,-1.28896e-08,2.12926e-16
0.119975,0.9,0.158376,0.01,15.0147,405,-658.402,658.427,178.717,-1.24048e-08,1.2405e-08,3.36713e-09,682.251,-682.226,1.19497e-05,1.28539e-08,-1.28536e-08,2.2514e-16
0.129975,0.9,0.159423,0.01,15.866,405,-652.372,652.396,192.444,-1.22912e-08,1.22914e-08,3.62576e-09,680.188,-680.165,1.25132e-05,1.2815e-08,-1.28148e-08,2.35755e-16
0.139975,0.9,0.161018,0.01,16.7826,405,-645.928,645.951,205.904,-1.21698e-08,1.217e-08,3.87935e-09,677.975,-677.952,1.29903e-05,1.27733e-08,-1.27731e-08,2.44745e-16
0.149975,0.9,0.162609,0.01,17.7638,405,-639.084,639.106,219.08,-1.20408e-08,1.2041e-08,4.12759e-09,675.613,-675.591,1.33801e-05,1.27288e-08,-1.27286e-08,2.52089e-16
0.159975,0.9,0.164191,0.01,18.8088,405,-631.855,631.876,231.957,-1.19046e-08,1.19048e-08,4.37021e-09,673.106,-673.085,1.36819e-05,1.26816e-08,-1.26814e-08,2.57775e-16
0.169975,0.9,0.166327,0.01,19.9171,405,-624.258,624.278,244.522,-1.17615e-08,1.17617e-08,4.60693e-09,670.459,-670.438,1.38973e-05,1.26317e-08,-1.26315e-08,2.61834e-16
0.179975,0.9,0.167896,0.01,21.0878,405,-616.309,616.328,256.761,-1.16117e-08,1.16119e-08,4.83752e-09,667.673,-667.654,1.40289e-05,1.25793e-08,-1.25791e-08,2.64312e-16
0.189975,0.9,0.17004,0.01,22.3201,405,-608.025,608.043,268.662,-1.14556e-08,1.14558e-08,5.06175e-09,664.753,-664.735,1.40786e-05,1.25243e-08,-1.25241e-08,2.65249e-16
0.199975,0.9,0.172133,0.01,23.6132,405,-599.423,599.441,280.215,-1.12936e-08,1.12937e-08,5.27942e-09,661.703,-661.686,1.40493e-05,1.24668e-08,-1.24666e-08,2.64696e-16
0.209975,0.9,0.174253,0.01,24.9662,405,-590.522,590.539,291.41,-1.11259e-08,1.1126e-08,5.49034e-09,658.526,-658.51,1.39455e-05,1.24069e-08,-1.24068e-08,2.62742e-16
0.219975,0.9,0.176902,0.01,26.3783,405,-581.34,581.355,302.238,-1.09529e-08,1.0953e-08,5.69434e-09,655.227,-655.212,1.37719e-05,1.23448e-08,-1.23446e-08,2.59471e-16
0.229975,0.9,0.178999,0.01,27.8486,405,-571.895,571.909,312.691,-1.07749e-08,1.0775e-08,5.89128e-09,651.81,-651.796,1.35331e-05,1.22804e-08,-1.22803e-08,2.54972e-16
0.239975,0.9,0.181623,0.01,29.376,405,-562.205,562.218,322.762,-1.05923e-08,1.05925e-08,6.08103e-09,648.279,-648.266,1.32347e-05,1.22139e-08,-1.22138e-08,2.49349e-16
0.249975,0.9,0.184278,0.01,30.9596,405,-552.289,552.301,332.447,-1.04055e-08,1.04056e-08,6.26349e-09,644.638,-644.626,1.28822e-05,1.21453e-08,-1.21452e-08,2.42707e-16
0.259975,0.9,0.186868,0.01,32.5985,405,-542.166,542.176,341.739,-1.02148e-08,1.02149e-08,6.43857e-09,640.892,-640.881,1.24819e-05,1.20747e-08,-1.20746e-08,2.35165e-16
0.269975,0.9,0.189949,0.01,34.2916,405,-531.853,531.863,350.637,-1.00205e-08,1.00206e-08,6.6062e-09,637.044,-637.035,1.20395e-05,1.20022e-08,-1.20021e-08,2.2683e-16
0.279975,0.9,0.192647,0.01,36.0378,405,-521.37,521.379,359.137,-9.82295e-09,9.82304e-09,6.76634e-09,633.1,-633.091,1.15606e-05,1.19279e-08,-1.19278e-08,2.17808e-16
0.289975,0.9,0.195683,0.01,37.8362,405,-510.734,510.742,367.237,-9.62257e-09,9.62265e-09,6.91896e-09,629.064,-629.056,1.10514e-05,1.18519e-08,-1.18518e-08,2.08215e-16
0.299975,0.9,0.198961,0.01,39.6857,405,-499.965,499.971,374.937,-9.41965e-09,9.41972e-09,7.06403e-09,624.94,-624.933,1.0518e-05,1.17742e-08,-1.17741e-08,1.98164e-16
0.309975,0.9,0.201953,0.01,41.5852,405,-489.078,489.084,382.237,-9.21453e-09,9.21459e-09,7.20157e-09,620.732,-620.727,9.96588e-06,1.16949e-08,-1.16949e-08,1.87763e-16
0.319975,0.9,0.205389,0.01,43.5336,405,-478.092,478.096,389.139,-9.00755e-09,9.00759e-09,7.3316e-09,616.446,-616.441,9.40068e-06,1.16142e-08,-1.16141e-08,1.77114e-16
0.329975,0.9,0.208761,0.01,45.5298,405,-467.023,467.027,395.643,-8.79901e-09,8.79905e-09,7.45415e-09,612.085,-612.082,8.82715e-06,1.1532e-08,-1.1532e-08,1.66309e-16
0.339975,0.9,0.212144,0.01,47.5726,405,-455.889,455.892,401.754,-8.58923e-09,8.58926e-09,7.56928e-09,607.655,-607.652,8.25039e-06,1.14486e-08,-1.14485e-08,1.55442e-16
0.349975,0.9,0.215938,0.01,49.6611,405,-444.718,444.71,407.479,-8.37871e-09,8.37863e-09,7.67714e-09,603.163,-603.17,0.00121059,1.1364e-08,-1.1364e-08,2.28082e-14
0.359975,0.9,0.219438,0.01,51.7941,405,-433.738,433.441,413.004,-8.17059e-09,8.16757e-09,7.78124e-09,598.661,-598.958,-0.0732256,1.12804e-08,-1.12834e-08,-1.37961e-12
0.369975,0.9,0.223171,0.01,53.9704,405,-424.316,422.332,419.264,-7.98573e-09,7.96561e-09,7.89917e-09,594.815,-596.798,-0.316269,1.12153e-08,-1.12354e-08,-5.9587e-12
0.379975,0.9,0.227271,0.01,56.1889,405,-415.422,411.749,424.219,-7.81083e-09,7.77356e-09,7.99253e-09,590.628,-594.301,0.530255,1.11437e-08,-1.1181e-08,9.99032e-12
0.389975,0.9,0.230946,0.01,58.4485,405,-402.506,400.387,428.622,-7.57422e-09,7.55273e-09,8.07549e-09,586.202,-588.321,-0.209741,1.10536e-08,-1.10751e-08,-3.95164e-12
0.399975,0.9,0.23499,0.01,60.7481,405,-393.302,388.623,435.319,-7.38969e-09,7.34223e-09,8.20167e-09,582.77,-587.448,-1.5368,1.10001e-08,-1.10475e-08,-2.89542e-11
0.409975,0.9,0.239263,0.01,63.0866,405,-388.24,379.109,439.794,-7.27496e-09,7.18233e-09,8.28598e-09,579.064,-588.196,0.839889,1.09496e-08,-1.10422e-08,1.5824e-11
0.419975,0.9,0.243244,0.01,65.4628,405,-375.967,367.719,443.091,-7.04757e-09,6.9639e-09,8.3481e-09,574.32,-582.567,0.349412,1.08564e-08,-1.094e-08,6.58313e-12
-0.400025,0.91,0.244112,0.01,65.9586,414.05,-387.883,387.804,-427.382,-7.3076e-09,7.3068e-09,-8.05212e-09,577.081,-577.16,3.19573,1.08729e-08,-1.08737e-08,6.02094e-11
-0.390025,0.91,0.24022,0.01,63.7011,414.05,-406.5,397.79,-421.115,-7.62082e-09,7.53246e-09,-7.93406e-09,577.932,-586.642,-0.810818,1.09264e-08,-1.10148e-08,-1.52763e-11
-0.380025,0.91,0.236373,0.01,61.4832,414.05,-419.115,406.837,-418.216,-7.84299e-09,7.71842e-09,-7.87942e-09,581.614,-593.892,0.30146,1.10113e-08,-1.11359e-08,5.67967e-12
-0.370025,0.91,0.23242,0.01,59.3059,414.05,-423.309,417.407,-410.787,-7.94973e-09,7.88985e-09,-7.73946e-09,584.795,-590.698,0.870623,1.10435e-08,-1.11034e-08,1.6403e-11
-0.360025,0.91,0.228836,0.01,57.1704,414.05,-432.677,429.415,-403.314,-8.13771e-09,8.10461e-09,-7.59867e-09,588.675,-591.938,-0.765701,1.11052e-08,-1.11383e-08,-1.44263e-11
-0.350025,0.91,0.225161,0.01,55.0777,414.05,-441.163,439.256,-397.922,-8.30348e-09,8.28412e-09,-7.49708e-09,592.448,-594.356,0.350587,1.11704e-08,-1.11897e-08,6.60527e-12
-0.340025,0.91,0.221523,0.01,53.0289,414.05,-450.191,449.924,-390.979,-8.4807e-09,8.47799e-09,-7.36627e-09,596.035,-596.301,0.05261,1.12308e-08,-1.12335e-08,9.91203e-13
-0.330025,0.91,0.218283,0.01,51.0251,414.05,-460.871,460.76,-384.77,-8.68259e-09,8.68147e-09,-7.24929e-09,600.277,-600.388,-0.0709485,1.131e-08,-1.13112e-08,-1.33671e-12
-0.320025,0.91,0.214748,0.01,49.0674,414.05,-471.39,471.386,-378.342,-8.88124e-09,8.8812e-09,-7.12819e-09,604.439,-604.443,-0.000619764,1.1388e-08,-1.1388e-08,-1.16767e-14
-0.310025,0.91,0.211461,0.01,47.1568,414.05,-481.975,481.98,-371.529,-9.08071e-09,9.08076e-09,-6.99982e-09,608.555,-608.55,-9.5014e-06,1.14655e-08,-1.14655e-08,-1.79012e-16
-0.300025,0.91,0.208511,0.01,45.2944,414.05,-492.471,492.478,-364.339,-9.27847e-09,9.27854e-09,-6.86436e-09,612.599,-612.593,-1.0007e-05,1.15417e-08,-1.15416e-08,-1.88538e-16
-0.290025,0.91,0.205175,0.01,43.4813,414.05,-502.85,502.858,-356.766,-9.47402e-09,9.4741e-09,-6.72169e-09,616.562,-616.555,-1.04943e-05,1.16164e-08,-1.16163e-08,-1.97719e-16
-0.280025,0.91,0.20228,0.01,41.7184,414.05,-513.095,513.104,-348.811,-9.66705e-09,9.66714e-09,-6.5718e-09,620.44,-620.431,-1.0958e-05,1.16894e-08,-1.16893e-08,-2.06456e-16
-0.270025,0.91,0.199425,0.01,40.0069,414.05,-523.189,523.199,-340.474,-9.85723e-09,9.85733e-09,-6.41473e-09,624.228,-624.218,-1.1392e-05,1.17608e-08,-1.17607e-08,-2.14631e-16
-0.260025,0.91,0.19649,0.01,38.3476,414.05,-533.115,533.126,-331.757,-1.00442e-08,1.00444e-08,-6.25049e-09,627.923,-627.912,-1.17906e-05,1.18304e-08,-1.18303e-08,-2.22142e-16
-0.250025,0.91,0.194027,0.01,36.7417,414.05,-542.855,542.867,-322.662,-1.02278e-08,1.02279e-08,-6.07915e-09,631.519,-631.507,-1.21492e-05,1.18981e-08,-1.1898e-08,-2.28899e-16
-0.240025,0.91,0.191235,0.01,35.1901,414.05,-552.392,552.404,-313.194,-1.04074e-08,1.04076e-08,-5.90076e-09,635.014,-635.001,-1.2463e-05,1.1964e-08,-1.19638e-08,-2.3481e-16
-0.230025,0.91,0.188742,0.01,33.6937,414.05,-561.707,561.721,-303.357,-1.0583e-08,1.05831e-08,-5.71543e-09,638.402,-638.388,-1.2726e-05,1.20278e-08,-1.20277e-08,-2.39765e-16
-0.220025,0.91,0.186513,0.01,32.2534,414.05,-570.785,570.799,-293.157,-1.0754e-08,1.07541e-08,-5.52324e-09,641.681,-641.666,-1.29329e-05,1.20896e-08,-1.20894e-08,-2.43664e-16
-0.210025,0.91,0.183989,0.01,30.8703,414.05,-579.606,579.622,-282.599,-1.09202e-08,1.09203e-08,-5.32433e-09,644.845,-644.829,-1.30791e-05,1.21492e-08,-1.2149e-08,-2.46417e-16
-0.200025,0.91,0.18198,0.01,29.5451,414.05,-588.155,588.171,-271.692,-1.10812e-08,1.10814e-08,-5.11884e-09,647.891,-647.875,-1.316e-05,1.22066e-08,-1.22064e-08,-2.47942e-16
-0.190025,0.91,0.179769,0.01,28.2787,414.05,-596.413,596.43,-260.444,-1.12368e-08,1.1237e-08,-4.90692e-09,650.816,-650.798,-1.3172e-05,1.22617e-08,-1.22615e-08,-2.48169e-16
-0.180025,0.91,0.17774,0.01,27.072,414.05,-604.363,604.382,-248.865,-1.13866e-08,1.13868e-08,-4.68877e-09,653.615,-653.596,-1.31118e-05,1.23144e-08,-1.23142e-08,-2.47033e-16
-0.170025,0.91,0.176082,0.01,25.9257,414.05,-611.991,612.01,-236.965,-1.15303e-08,1.15305e-08,-4.46456e-09,656.285,-656.266,-1.29757e-05,1.23647e-08,-1.23645e-08,-2.4447e-16
-0.160025,0.91,0.174032,0.01,24.8406,414.05,-619.279,619.299,-224.756,-1.16677e-08,1.16679e-08,-4.23453e-09,658.823,-658.802,-1.27617e-05,1.24125e-08,-1.24123e-08,-2.40437e-16
-0.150025,0.91,0.172537,0.01,23.8174,414.05,-626.211,626.233,-212.25,-1.17983e-08,1.17985e-08,-3.99891e-09,661.225,-661.203,-1.24686e-05,1.24578e-08,-1.24575e-08,-2.34915e-16
-0.140025,0.91,0.170855,0.01,22.8568,414.05,-632.774,632.796,-199.46,-1.19219e-08,1.19221e-08,-3.75795e-09,663.487,-663.465,-1.20958e-05,1.25004e-08,-1.25002e-08,-2.27892e-16
-0.130025,0.91,0.16935,0.01,21.9595,414.05,-638.951,638.974,-186.401,-1.20383e-08,1.20385e-08,-3.51191e-09,665.608,-665.585,-1.1643e-05,1.25403e-08,-1.25401e-08,-2.19361e-16
-0.120025,0.91,0.168211,0.01,21.1261,414.05,-644.731,644.754,-173.088,-1.21472e-08,1.21474e-08,-3.26108e-09,667.584,-667.56,-1.11107e-05,1.25776e-08,-1.25773e-08,-2.09332e-16
-0.110025,0.91,0.166694,0.01,20.3572,414.05,-650.099,650.123,-159.537,-1.22483e-08,1.22486e-08,-3.00578e-09,669.412,-669.388,-1.05009e-05,1.2612e-08,-1.26118e-08,-1.97843e-16
-0.100025,0.91,0.165768,0.01,19.6533,414.05,-655.043,655.068,-145.765,-1.23415e-08,1.23418e-08,-2.7463e-09,671.09,-671.065,-9.81672e-06,1.26436e-08,-1.26434e-08,-1.84953e-16
-0.0900249,0.91,0.16457,0.01,19.0149,414.05,-659.552,659.578,-131.789,-1.24265e-08,1.24267e-08,-2.48299e-09,672.616,-672.59,-9.06125e-06,1.26724e-08,-1.26721e-08,-1.70719e-16
-0.0800249,0.91,0.163641,0.01,18.4424,414.05,-663.616,663.642,-117.628,-1.2503e-08,1.25033e-08,-2.21618e-09,673.987,-673.96,-8.23855e-06,1.26982e-08,-1.26979e-08,-1.55219e-16
-0.0700249,0.91,0.162977,0.01,17.9363,414.05,-667.225,667.252,-103.3,-1.2571e-08,1.25713e-08,-1.94624e-09,675.201,-675.174,-7.35399e-06,1.27211e-08,-1.27208e-08,-1.38553e-16
-0.0600249,0.91,0.162045,0.01,17.4969,414.05,-670.371,670.398,-88.8254,-1.26303e-08,1.26306e-08,-1.67352e-09,676.257,-676.23,-6.41349e-06,1.2741e-08,-1.27407e-08,-1.20834e-16
-0.0500249,0.91,0.161727,0.01,17.1246,414.05,-673.045,673.073,-74.2236,-1.26807e-08,1.2681e-08,-1.39842e-09,677.153,-677.126,-5.42367e-06,1.27578e-08,-1.27576e-08,-1.02185e-16
-0.0400249,0.91,0.160981,0.01,16.8195,414.05,-675.243,675.27,-59.5152,-1.27221e-08,1.27224e-08,-1.1213e-09,677.888,-677.86,-4.39173e-06,1.27717e-08,-1.27714e-08,-8.27426e-17
-0.0300249,0.91,0.160664,0.01,16.582,414.05,-676.957,676.985,-44.7212,-1.27544e-08,1.27547e-08,-8.42572e-10,678.461,-678.433,-3.32509e-06,1.27825e-08,-1.27822e-08,-6.26467e-17
-0.0200249,0.91,0.160447,0.01,16.4122,414.05,-678.186,678.214,-29.8625,-1.27775e-08,1.27778e-08,-5.62627e-10,678.871,-678.843,-2.23247e-06,1.27902e-08,-1.27899e-08,-4.2061e-17
-0.0100249,0.91,0.160133,0.01,16.3102,414.05,-678.924,678.952,-14.9606,-1.27914e-08,1.27917e-08,-2.81867e-10,679.117,-679.089,-1.12231e-06,1.27948e-08,-1.27946e-08,-2.1145e-17
-2.48653e-05,0.91,0.160442,0.01,16.276,414.05,-679.171,679.2,-0.0371168,-1.27961e-08,1.27964e-08,-6.99302e-13,679.2,-679.171,-2.97196e-09,1.27964e-08,-1.27961e-08,-5.59935e-20
0.00997513,0.91,0.160133,0.01,16.3098,414.05,-678.927,678.955,14.8865,-1.27915e-08,1.27918e-08,2.8047e-10,679.118,-679.09,1.11647e-06,1.27949e-08,-1.27946e-08,2.1035e-17
0.0199751,0.91,0.160444,0.01,16.4115,414.05,-678.191,678.219,29.7885,-1.27776e-08,1.27779e-08,5.61232e-10,678.873,-678.844,2.22691e-06,1.27902e-08,-1.27899e-08,4.19562e-17
0.0299751,0.91,0.160664,0.01,16.581,414.05,-676.965,676.993,44.6474,-1.27545e-08,1.27548e-08,8.41183e-10,678.463,-678.435,3.31969e-06,1.27825e-08,-1.27822e-08,6.25449e-17
0.0399751,0.91,0.160977,0.01,16.8182,414.05,-675.252,675.28,59.4419,-1.27223e-08,1.27225e-08,1.11992e-09,677.891,-677.864,4.38637e-06,1.27717e-08,-1.27715e-08,8.26417e-17
0.0499751,0.91,0.161727,0.01,17.1229,414.05,-673.057,673.085,74.1507,-1.26809e-08,1.26812e-08,1.39704e-09,677.157,-677.13,5.41862e-06,1.27579e-08,-1.27576e-08,1.0209e-16
0.0599751,0.91,0.162042,0.01,17.4949,414.05,-670.385,670.412,88.7531,-1.26306e-08,1.26308e-08,1.67216e-09,676.262,-676.235,6.40872e-06,1.2741e-08,-1.27408e-08,1.20744e-16
0.0699751,0.91,0.162971,0.01,17.934,414.05,-667.242,667.269,103.229,-1.25713e-08,1.25716e-08,1.94489e-09,675.206,-675.18,7.34957e-06,1.27212e-08,-1.27209e-08,1.3847e-16
0.0799751,0.91,0.163638,0.01,18.4397,414.05,-663.635,663.661,117.557,-1.25034e-08,1.25037e-08,2.21484e-09,673.993,-673.967,8.23445e-06,1.26983e-08,-1.2698e-08,1.55142e-16
0.0899751,0.91,0.164564,0.01,19.0119,414.05,-659.574,659.599,131.719,-1.24269e-08,1.24271e-08,2.48167e-09,672.623,-672.597,9.05735e-06,1.26725e-08,-1.26722e-08,1.70646e-16
0.0999751,0.91,0.165765,0.01,19.65,414.05,-655.067,655.092,145.696,-1.23419e-08,1.23422e-08,2.745e-09,671.098,-671.073,9.81336e-06,1.26438e-08,-1.26435e-08,1.84889e-16
0.109975,0.91,0.166688,0.01,20.3535,414.05,-650.124,650.149,159.469,-1.22488e-08,1.22491e-08,3.0045e-09,669.421,-669.397,1.04982e-05,1.26122e-08,-1.26119e-08,1.97792e-16
0.119975,0.91,0.168202,0.01,21.1221,414.05,-644.759,644.782,173.022,-1.21477e-08,1.2148e-08,3.25983e-09,667.593,-667.57,1.11078e-05,1.25777e-08,-1.25775e-08,2.09278e-16
0.129975,0.91,0.169344,0.01,21.9552,414.05,-638.981,639.004,186.336,-1.20389e-08,1.20391e-08,3.51067e-09,665.618,-665.595,1.16401e-05,1.25405e-08,-1.25403e-08,2.19306e-16
0.139975,0.91,0.170846,0.01,22.8522,414.05,-632.805,632.827,199.396,-1.19225e-08,1.19227e-08,3.75673e-09,663.498,-663.476,1.20936e-05,1.25006e-08,-1.25004e-08,2.2785e-16
0.149975,0.91,0.172531,0.01,23.8124,414.05,-626.245,626.266,212.187,-1.17989e-08,1.17991e-08,3.99773e-09,661.236,-661.215,1.24671e-05,1.2458e-08,-1.24578e-08,2.34888e-16
0.159975,0.91,0.174023,0.01,24.8353,414.05,-619.314,619.334,224.695,-1.16683e-08,1.16685e-08,4.23338e-09,658.835,-658.815,1.27604e-05,1.24127e-08,-1.24125e-08,2.40414e-16
0.169975,0.91,0.176071,0.01,25.9201,414.05,-612.028,612.048,236.905,-1.1531e-08,1.15312e-08,4.46343e-09,656.298,-656.279,1.29745e-05,1.2365e-08,-1.23648e-08,2.44447e-16
0.179975,0.91,0.177731,0.01,27.0661,414.05,-604.402,604.421,248.807,-1.13874e-08,1.13876e-08,4.68767e-09,653.629,-653.61,1.3111e-05,1.23147e-08,-1.23145e-08,2.47018e-16
0.189975,0.91,0.179758,0.01,28.2726,414.05,-596.453,596.471,260.388,-1.12376e-08,1.12378e-08,4.90585e-09,650.83,-650.812,1.31718e-05,1.22619e-08,-1.22618e-08,2.48164e-16
0.199975,0.91,0.181972,0.01,29.5387,414.05,-588.196,588.213,271.637,-1.1082e-08,1.10822e-08,5.1178e-09,647.906,-647.889,1.31601e-05,1.22069e-08,-1.22067e-08,2.47944e-16
0.209975,0.91,0.183978,0.01,30.8636,414.05,-579.649,579.665,282.546,-1.0921e-08,1.09212e-08,5.32332e-09,644.86,-644.845,1.30795e-05,1.21495e-08,-1.21493e-08,2.46425e-16
0.219975,0.91,0.186499,0.01,32.2464,414.05,-570.829,570.844,293.105,-1.07548e-08,1.0755e-08,5.52227e-09,641.697,-641.682,1.29335e-05,1.20899e-08,-1.20897e-08,2.43674e-16
0.229975,0.91,0.188731,0.01,33.6864,414.05,-561.753,561.767,303.307,-1.05838e-08,1.0584e-08,5.71449e-09,638.419,-638.405,1.27266e-05,1.20281e-08,-1.2028e-08,2.39777e-16
0.239975,0.91,0.191221,0.01,35.1825,414.05,-552.439,552.451,313.146,-1.04083e-08,1.04084e-08,5.89986e-09,635.031,-635.018,1.24643e-05,1.19643e-08,-1.19642e-08,2.34835e-16
0.249975,0.91,0.194016,0.01,36.7339,414.05,-542.903,542.915,322.616,-1.02287e-08,1.02288e-08,6.07828e-09,631.537,-631.525,1.21512e-05,1.18985e-08,-1.18983e-08,2.28936e-16
0.259975,0.91,0.196477,0.01,38.3395,414.05,-533.164,533.175,331.712,-1.00452e-08,1.00453e-08,6.24966e-09,627.941,-627.93,1.17925e-05,1.18307e-08,-1.18306e-08,2.22177e-16
0.269975,0.91,0.19941,0.01,39.9985,414.05,-523.239,523.249,340.431,-9.85817e-09,9.85827e-09,6.41393e-09,624.247,-624.237,1.13936e-05,1.17611e-08,-1.1761e-08,2.14663e-16
0.279975,0.91,0.202267,0.01,41.7098,414.05,-513.146,513.155,348.771,-9.668e-09,9.66809e-09,6.57104e-09,620.459,-620.45,1.09596e-05,1.16898e-08,-1.16897e-08,2.06485e-16
0.289975,0.91,0.20516,0.01,43.4724,414.05,-502.901,502.909,356.728,-9.47499e-09,9.47507e-09,6.72096e-09,616.582,-616.574,1.04967e-05,1.16167e-08,-1.16166e-08,1.97763e-16
0.299975,0.91,0.208493,0.01,45.2853,414.05,-492.523,492.53,364.302,-9.27945e-09,9.27951e-09,6.86367e-09,612.619,-612.613,1.00099e-05,1.15421e-08,-1.1542e-08,1.88593e-16
0.309975,0.91,0.211446,0.01,47.1474,414.05,-482.027,482.033,371.494,-9.08169e-09,9.08175e-09,6.99917e-09,608.576,-608.57,9.50413e-06,1.14659e-08,-1.14658e-08,1.79063e-16
0.319975,0.91,0.21473,0.01,49.0578,414.05,-471.443,471.438,378.309,-8.88224e-09,8.88219e-09,7.12757e-09,604.46,-604.464,0.000618895,1.13884e-08,-1.13884e-08,1.16603e-14
0.329975,0.91,0.218268,0.01,51.0153,414.05,-460.924,460.813,384.739,-8.6836e-09,8.68247e-09,7.2487e-09,600.298,-600.409,0.0709601,1.13104e-08,-1.13116e-08,1.33693e-12
0.339975,0.91,0.221506,0.01,53.0188,414.05,-450.245,449.978,390.95,-8.48171e-09,8.47901e-09,7.36572e-09,596.056,-596.323,-0.0525599,1.12312e-08,-1.12339e-08,-9.90258e-13
0.349975,0.91,0.225142,0.01,55.0674,414.05,-441.217,439.309,397.894,-8.30449e-09,8.28514e-09,7.49656e-09,592.47,-594.378,-0.350689,1.11708e-08,-1.11901e-08,-6.60719e-12
0.359975,0.91,0.228819,0.01,57.1599,414.05,-432.732,429.469,403.288,-8.13873e-09,8.10563e-09,7.59818e-09,588.698,-591.96,0.765831,1.11056e-08,-1.11387e-08,1.44287e-11
0.369975,0.91,0.232401,0.01,59.2952,414.05,-423.364,417.461,410.763,-7.95076e-09,7.89087e-09,7.73901e-09,584.817,-590.72,-0.870404,1.1044e-08,-1.11038e-08,-1.63989e-11
0.379975,0.91,0.236352,0.01,61.4723,414.05,-419.171,406.891,418.194,-7.84403e-09,7.71946e-09,7.87901e-09,581.636,-593.916,-0.301569,1.10118e-08,-1.11363e-08,-5.68174e-12
0.389975,0.91,0.240201,0.01,63.69,414.05,-406.556,397.845,421.095,-7.62188e-09,7.5335e-09,7.93367e-09,577.955,-586.666,0.811408,1.09269e-08,-1.10153e-08,1.52874e-11
0.399975,0.91,0.244092,0.01,65.9473,414.05,-387.938,387.86,427.363,-7.30864e-09,7.30784e-09,8.05177e-09,577.104,-577.183,-3.19493,1.08733e-08,-1.08741e-08,-6.01943e-11
-0.370025,0.92,0.241711,0.01,64.5888,423.2,-423.675,415.737,-400.767,-7.94778e-09,7.86724e-09,-7.55067e-09,576.345,-584.284,-1.44281,1.08932e-08,-1.09737e-08,-2.71834e-11
-0.360025,0.92,0.238267,0.01,62.4932,423.2,-434.682,425.836,-396.255,-8.1512e-09,8.06146e-09,-7.46567e-09,580.504,-589.35,-1.01943,1.09755e-08,-1.10652e-08,-1.92067e-11
-0.350025,0.92,0.234429,0.01,60.4399,423.2,-438.717,434.334,-390.033,-8.24662e-09,8.20216e-09,-7.34846e-09,583.197,-587.579,1.23441,1.10068e-08,-1.10513e-08,2.32569e-11
-0.340025,0.92,0.230937,0.01,58.4299,423.2,-447.537,445.202,-381.856,-8.42171e-09,8.39802e-09,-7.19439e-09,586.251,-588.585,-0.223731,1.10555e-08,-1.10791e-08,-4.21521e-12
-0.330025,0.92,0.227687,0.01,56.4644,423.2,-459.197,455.392,-376.033,-8.63499e-09,8.5964e-09,-7.08468e-09,590.144,-593.949,-0.389227,1.11352e-08,-1.11738e-08,-7.33326e-12
-0.320025,0.92,0.224145,0.01,54.5443,423.2,-466.765,464.937,-369.232,-8.78617e-09,8.76764e-09,-6.95654e-09,593.518,-595.345,0.408901,1.11902e-08,-1.12087e-08,7.70393e-12
-0.310025,0.92,0.220998,0.01,52.6706,423.2,-475.272,475.041,-361.284,-8.9534e-09,8.95105e-09,-6.80679e-09,596.793,-597.024,0.0152405,1.12449e-08,-1.12473e-08,2.8714e-13
-0.300025,0.92,0.217889,0.01,50.8445,423.2,-485.349,485.224,-354.092,-9.14371e-09,9.14244e-09,-6.6713e-09,600.674,-600.799,-0.0750041,1.13176e-08,-1.13189e-08,-1.41312e-12
-0.290025,0.92,0.214699,0.01,49.0669,423.2,-495.165,495.164,-346.645,-9.32919e-09,9.32918e-09,-6.53099e-09,604.441,-604.443,-7.82235e-06,1.1388e-08,-1.13881e-08,-1.47378e-16
-0.280025,0.92,0.211934,0.01,47.3389,423.2,-505.024,505.033,-338.826,-9.51499e-09,9.51507e-09,-6.38368e-09,608.163,-608.154,-1.03893e-05,1.14581e-08,-1.1458e-08,-1.9574e-16
-0.270025,0.92,0.208935,0.01,45.6613,423.2,-514.746,514.755,-330.648,-9.69815e-09,9.69825e-09,-6.2296e-09,611.802,-611.793,-1.07822e-05,1.15267e-08,-1.15266e-08,-2.03143e-16
-0.260025,0.92,0.206136,0.01,44.0352,423.2,-524.301,524.312,-322.106,-9.87819e-09,9.87829e-09,-6.06867e-09,615.351,-615.34,-1.11414e-05,1.15935e-08,-1.15934e-08,-2.0991e-16
-0.250025,0.92,0.203707,0.01,42.4615,423.2,-533.674,533.686,-313.205,-1.00548e-08,1.00549e-08,-5.90096e-09,618.804,-618.793,-1.14626e-05,1.16586e-08,-1.16585e-08,-2.15962e-16
-0.240025,0.92,0.200871,0.01,40.9412,423.2,-542.848,542.86,-303.946,-1.02276e-08,1.02278e-08,-5.72653e-09,622.159,-622.147,-1.17411e-05,1.17218e-08,-1.17217e-08,-2.21209e-16
-0.230025,0.92,0.198499,0.01,39.4751,423.2,-551.806,551.819,-294.336,-1.03964e-08,1.03965e-08,-5.54546e-09,625.411,-625.398,-1.19718e-05,1.17831e-08,-1.17829e-08,-2.25557e-16
-0.220025,0.92,0.19614,0.01,38.0643,423.2,-560.532,560.546,-284.379,-1.05608e-08,1.05609e-08,-5.35787e-09,628.557,-628.543,-1.21497e-05,1.18423e-08,-1.18422e-08,-2.28907e-16
-0.210025,0.92,0.193741,0.01,36.7095,423.2,-569.008,569.023,-274.083,-1.07205e-08,1.07207e-08,-5.16388e-09,631.593,-631.578,-1.22712e-05,1.18995e-08,-1.18994e-08,-2.31197e-16
-0.200025,0.92,0.191835,0.01,35.4116,423.2,-577.22,577.236,-263.453,-1.08752e-08,1.08754e-08,-4.96361e-09,634.515,-634.499,-1.23328e-05,1.19546e-08,-1.19544e-08,-2.32357e-16
-0.190025,0.92,0.189516,0.01,34.1714,423.2,-585.15,585.167,-252.5,-1.10246e-08,1.10248e-08,-4.75724e-09,637.32,-637.303,-1.23301e-05,1.20074e-08,-1.20072e-08,-2.32306e-16
-0.180025,0.92,0.187592,0.01,32.9898,423.2,-592.782,592.8,-241.231,-1.11684e-08,1.11686e-08,-4.54493e-09,640.004,-639.986,-1.22602e-05,1.2058e-08,-1.20578e-08,-2.30989e-16
-0.170025,0.92,0.185823,0.01,31.8674,423.2,-600.102,600.121,-229.657,-1.13064e-08,1.13066e-08,-4.32687e-09,642.564,-642.545,-1.21205e-05,1.21062e-08,-1.2106e-08,-2.28357e-16
-0.160025,0.92,0.183881,0.01,30.805,423.2,-607.095,607.114,-217.789,-1.14381e-08,1.14383e-08,-4.10327e-09,644.997,-644.977,-1.19094e-05,1.2152e-08,-1.21518e-08,-2.2438e-16
-0.150025,0.92,0.182468,0.01,29.8033,423.2,-613.744,613.765,-205.639,-1.15634e-08,1.15636e-08,-3.87436e-09,647.298,-647.278,-1.16256e-05,1.21954e-08,-1.21952e-08,-2.19033e-16
-0.140025,0.92,0.180702,0.01,28.863,423.2,-620.037,620.059,-193.22,-1.1682e-08,1.16822e-08,-3.64037e-09,649.467,-649.446,-1.12683e-05,1.22362e-08,-1.2236e-08,-2.12301e-16
-0.130025,0.92,0.17928,0.01,27.9847,423.2,-625.96,625.982,-180.545,-1.17935e-08,1.17938e-08,-3.40157e-09,651.499,-651.477,-1.08377e-05,1.22745e-08,-1.22743e-08,-2.04188e-16
-0.120025,0.92,0.178055,0.01,27.169,423.2,-631.5,631.522,-167.629,-1.18979e-08,1.18981e-08,-3.15823e-09,653.392,-653.369,-1.03348e-05,1.23102e-08,-1.23099e-08,-1.94713e-16
-0.110025,0.92,0.176623,0.01,26.4165,423.2,-636.644,636.667,-154.488,-1.19948e-08,1.19951e-08,-2.91064e-09,655.143,-655.119,-9.76155e-06,1.23432e-08,-1.23429e-08,-1.83913e-16
-0.100025,0.92,0.17575,0.01,25.7276,423.2,-641.381,641.405,-141.136,-1.20841e-08,1.20843e-08,-2.65909e-09,656.75,-656.726,-9.12008e-06,1.23734e-08,-1.23732e-08,-1.71828e-16
-0.0900249,0.92,0.174498,0.01,25.1028,423.2,-645.701,645.726,-127.592,-1.21655e-08,1.21657e-08,-2.4039e-09,658.211,-658.186,-8.4135e-06,1.2401e-08,-1.24007e-08,-1.58515e-16
-0.0800249,0.92,0.173622,0.01,24.5426,423.2,-649.593,649.619,-113.872,-1.22388e-08,1.22391e-08,-2.14541e-09,659.523,-659.498,-7.64593e-06,1.24257e-08,-1.24254e-08,-1.44054e-16
-0.0700249,0.92,0.172905,0.01,24.0474,423.2,-653.05,653.075,-99.9937,-1.23039e-08,1.23042e-08,-1.88394e-09,660.686,-660.661,-6.82197e-06,1.24476e-08,-1.24473e-08,-1.2853e-16
-0.0600249,0.92,0.172026,0.01,23.6175,423.2,-656.062,656.088,-85.9764,-1.23607e-08,1.2361e-08,-1.61985e-09,661.697,-661.671,-5.94716e-06,1.24666e-08,-1.24664e-08,-1.12048e-16
-0.0500249,0.92,0.171727,0.01,23.2531,423.2,-658.623,658.649,-71.8388,-1.24089e-08,1.24092e-08,-1.35349e-09,662.555,-662.529,-5.02757e-06,1.24828e-08,-1.24825e-08,-9.47223e-17
-0.0400249,0.92,0.170962,0.01,22.9547,423.2,-660.726,660.753,-57.6004,-1.24486e-08,1.24489e-08,-1.08522e-09,663.259,-663.232,-4.06999e-06,1.24961e-08,-1.24958e-08,-7.66809e-17
-0.0300249,0.92,0.170664,0.01,22.7223,423.2,-662.368,662.395,-43.2807,-1.24795e-08,1.24798e-08,-8.15433e-10,663.807,-663.78,-3.08099e-06,1.25064e-08,-1.25061e-08,-5.80476e-17
-0.0200249,0.92,0.170429,0.01,22.5561,423.2,-663.544,663.571,-28.8999,-1.25017e-08,1.25019e-08,-5.4449e-10,664.2,-664.173,-2.0683e-06,1.25138e-08,-1.25135e-08,-3.89679e-17
-0.0100249,0.92,0.170133,0.01,22.4563,423.2,-664.251,664.278,-14.4782,-1.2515e-08,1.25153e-08,-2.72777e-10,664.436,-664.408,-1.03977e-06,1.25182e-08,-1.2518e-08,-1.959e-17
-2.48653e-05,0.92,0.170424,0.01,22.4229,423.2,-664.487,664.514,-0.0359196,-1.25194e-08,1.25197e-08,-6.76746e-13,664.514,-664.487,-2.74772e-09,1.25197e-08,-1.25194e-08,-5.17687e-20
0.00997513,0.92,0.170133,0.01,22.456,423.2,-664.253,664.28,14.4064,-1.2515e-08,1.25153e-08,2.71424e-10,664.436,-664.409,1.03438e-06,1.25182e-08,-1.2518e-08,1.94883e-17
0.0199751,0.92,0.170426,0.01,22.5555,423.2,-663.548,663.575,28.8282,-1.25018e-08,1.2502e-08,5.43141e-10,664.201,-664.174,2.06313e-06,1.25138e-08,-1.25135e-08,3.88706e-17
0.0299751,0.92,0.170664,0.01,22.7213,423.2,-662.375,662.402,43.2093,-1.24796e-08,1.24799e-08,8.14088e-10,663.81,-663.783,3.07595e-06,1.25064e-08,-1.25062e-08,5.79526e-17
0.0399751,0.92,0.170959,0.01,22.9534,423.2,-660.736,660.762,57.5293,-1.24488e-08,1.2449e-08,1.08389e-09,663.262,-663.235,4.06542e-06,1.24961e-08,-1.24959e-08,7.65949e-17
0.0499751,0.92,0.171727,0.01,23.2515,423.2,-658.634,658.661,71.7683,-1.24092e-08,1.24094e-08,1.35216e-09,662.559,-662.533,5.02352e-06,1.24829e-08,-1.24826e-08,9.4646e-17
0.0599751,0.92,0.172024,0.01,23.6155,423.2,-656.076,656.102,85.9064,-1.2361e-08,1.23612e-08,1.61853e-09,661.702,-661.676,5.94274e-06,1.24667e-08,-1.24665e-08,1.11965e-16
0.0699751,0.92,0.172899,0.01,24.0451,423.2,-653.066,653.091,99.9243,-1.23042e-08,1.23045e-08,1.88263e-09,660.692,-660.666,6.81746e-06,1.24477e-08,-1.24474e-08,1.28445e-16
0.0799751,0.92,0.17362,0.01,24.54,423.2,-649.612,649.637,113.803,-1.22392e-08,1.22394e-08,2.14411e-09,659.53,-659.505,7.64175e-06,1.24258e-08,-1.24256e-08,1.43975e-16
0.0899751,0.92,0.174493,0.01,25.0999,423.2,-645.721,645.746,127.524,-1.21659e-08,1.21661e-08,2.40263e-09,658.218,-658.193,8.40971e-06,1.24011e-08,-1.24008e-08,1.58444e-16
0.0999751,0.92,0.175747,0.01,25.7243,423.2,-641.404,641.428,141.069,-1.20845e-08,1.20848e-08,2.65783e-09,656.757,-656.733,9.11676e-06,1.23736e-08,-1.23733e-08,1.71765e-16
0.109975,0.92,0.176618,0.01,26.4129,423.2,-636.668,636.692,154.422,-1.19953e-08,1.19955e-08,2.9094e-09,655.151,-655.128,9.75855e-06,1.23433e-08,-1.23431e-08,1.83857e-16
0.119975,0.92,0.178047,0.01,27.1651,423.2,-631.526,631.549,167.564,-1.18984e-08,1.18986e-08,3.15701e-09,653.401,-653.378,1.03323e-05,1.23103e-08,-1.23101e-08,1.94666e-16
0.129975,0.92,0.179274,0.01,27.9805,423.2,-625.989,626.011,180.481,-1.17941e-08,1.17943e-08,3.40037e-09,651.508,-651.486,1.08356e-05,1.22747e-08,-1.22745e-08,2.0415e-16
0.139975,0.92,0.180694,0.01,28.8585,423.2,-620.068,620.089,193.157,-1.16825e-08,1.16827e-08,3.6392e-09,649.477,-649.456,1.12664e-05,1.22364e-08,-1.22362e-08,2.12265e-16
0.149975,0.92,0.182462,0.01,29.7985,423.2,-613.777,613.797,205.578,-1.1564e-08,1.15642e-08,3.8732e-09,647.31,-647.289,1.16238e-05,1.21956e-08,-1.21954e-08,2.18999e-16
0.159975,0.92,0.183873,0.01,30.7999,423.2,-607.129,607.148,217.729,-1.14387e-08,1.14389e-08,4.10214e-09,645.008,-644.989,1.19081e-05,1.21522e-08,-1.2152e-08,2.24355e-16
0.169975,0.92,0.185812,0.01,31.8619,423.2,-600.138,600.157,229.598,-1.1307e-08,1.13072e-08,4.32577e-09,642.577,-642.558,1.21197e-05,1.21064e-08,-1.21062e-08,2.28342e-16
0.179975,0.92,0.187584,0.01,32.984,423.2,-592.82,592.838,241.174,-1.11691e-08,1.11693e-08,4.54386e-09,640.017,-639.999,1.22594e-05,1.20582e-08,-1.2058e-08,2.30975e-16
0.189975,0.92,0.189505,0.01,34.1654,423.2,-585.188,585.205,252.444,-1.10254e-08,1.10255e-08,4.7562e-09,637.334,-637.317,1.23296e-05,1.20077e-08,-1.20075e-08,2.32298e-16
0.199975,0.92,0.191826,0.01,35.4053,423.2,-577.26,577.276,263.4,-1.0876e-08,1.08761e-08,4.9626e-09,634.53,-634.513,1.2333e-05,1.19548e-08,-1.19547e-08,2.3236e-16
0.209975,0.92,0.193731,0.01,36.7029,423.2,-569.05,569.065,274.031,-1.07213e-08,1.07214e-08,5.1629e-09,631.608,-631.593,1.22723e-05,1.18998e-08,-1.18996e-08,2.31216e-16
0.219975,0.92,0.196127,0.01,38.0574,423.2,-560.574,560.589,284.329,-1.05616e-08,1.05618e-08,5.35692e-09,628.573,-628.558,1.21506e-05,1.18426e-08,-1.18425e-08,2.28924e-16
0.229975,0.92,0.198489,0.01,39.468,423.2,-551.85,551.863,294.287,-1.03972e-08,1.03974e-08,5.54455e-09,625.427,-625.414,1.19724e-05,1.17834e-08,-1.17832e-08,2.25568e-16
0.239975,0.92,0.200858,0.01,40.9338,423.2,-542.893,542.906,303.899,-1.02285e-08,1.02286e-08,5.72564e-09,622.175,-622.163,1.17423e-05,1.17221e-08,-1.1722e-08,2.21231e-16
0.249975,0.92,0.203692,0.01,42.4538,423.2,-533.72,533.732,313.159,-1.00557e-08,1.00558e-08,5.90011e-09,618.821,-618.81,1.14641e-05,1.16589e-08,-1.16588e-08,2.15991e-16
0.259975,0.92,0.206123,0.01,44.0272,423.2,-524.348,524.359,322.063,-9.87907e-09,9.87918e-09,6.06785e-09,615.368,-615.357,1.11431e-05,1.15938e-08,-1.15937e-08,2.09942e-16
0.269975,0.92,0.20892,0.01,45.6531,423.2,-514.794,514.803,330.606,-9.69905e-09,9.69915e-09,6.22881e-09,611.82,-611.81,1.0784e-05,1.1527e-08,-1.15269e-08,2.03177e-16
0.279975,0.92,0.211921,0.01,47.3304,423.2,-505.073,505.081,338.786,-9.5159e-09,9.51599e-09,6.38293e-09,608.181,-608.173,1.03909e-05,1.14584e-08,-1.14584e-08,1.9577e-16
0.289975,0.92,0.214684,0.01,49.0582,423.2,-495.215,495.213,346.607,-9.33012e-09,9.33011e-09,6.53028e-09,604.46,-604.462,6.90321e-06,1.13884e-08,-1.13884e-08,1.3006e-16
0.299975,0.92,0.217872,0.01,50.8356,423.2,-485.399,485.274,354.056,-9.14465e-09,9.14338e-09,6.67062e-09,600.693,-600.818,0.0750116,1.13179e-08,-1.13192e-08,1.41326e-12
0.309975,0.92,0.220983,0.01,52.6614,423.2,-475.323,475.092,361.249,-8.95435e-09,8.95201e-09,6.80614e-09,596.812,-597.043,-0.0151834,1.12453e-08,-1.12476e-08,-2.86065e-13
0.319975,0.92,0.224128,0.01,54.5348,423.2,-466.816,464.989,369.199,-8.78713e-09,8.7686e-09,6.95592e-09,593.538,-595.365,-0.408985,1.11905e-08,-1.12091e-08,-7.70551e-12
0.329975,0.92,0.227669,0.01,56.4547,423.2,-459.248,455.444,376.002,-8.63597e-09,8.59737e-09,7.0841e-09,590.165,-593.969,0.389107,1.11356e-08,-1.11742e-08,7.33101e-12
0.339975,0.92,0.230921,0.01,58.42,423.2,-447.59,445.255,381.827,-8.42269e-09,8.39901e-09,7.19384e-09,586.271,-588.606,0.224106,1.10558e-08,-1.10795e-08,4.22228e-12
0.349975,0.92,0.234411,0.01,60.4297,423.2,-438.769,434.387,390.006,-8.24761e-09,8.20315e-09,7.34794e-09,583.218,-587.6,-1.23417,1.10072e-08,-1.10517e-08,-2.32524e-11
0.359975,0.92,0.238251,0.01,62.4829,423.2,-434.735,425.889,396.229,-8.1522e-09,8.06246e-09,7.46518e-09,580.525,-589.372,1.01963,1.09759e-08,-1.10656e-08,1.92105e-11
0.369975,0.92,0.241693,0.01,64.5783,423.2,-423.729,415.791,400.742,-7.94879e-09,7.86826e-09,7.55021e-09,576.367,-584.306,1.44383,1.08936e-08,-1.09741e-08,2.72026e-11
-0.350025,0.93,0.243756,0.01,65.7586,432.45,-432.589,432.789,-382.061,-8.1511e-09,8.15312e-09,-7.19826e-09,577.323,-577.124,1.95996,1.08762e-08,-1.08742e-08,3.69268e-11
-0.340025,0.93,0.240399,0.01,63.7865,432.45,-450.87,441.292,-374.704,-8.453e-09,8.35583e-09,-7.05964e-09,577.782,-587.36,-1.38967,1.09274e-08,-1.10246e-08,-2.61821e-11
-0.330025,0.93,0.236993,0.01,61.8581,432.45,-461.509,449.23,-370.273,-8.64171e-09,8.51714e-09,-6.97616e-09,580.771,-593.049,0.403942,1.09954e-08,-1.112e-08,7.6105e-12
-0.320025,0.93,0.233592,0.01,59.9747,432.45,-463.485,458.981,-361.645,-8.71275e-09,8.66705e-09,-6.8136e-09,583.855,-588.359,1.24191,1.10198e-08,-1.10654e-08,2.33983e-11
-0.310025,0.93,0.230574,0.01,58.137,432.45,-471.979,469.544,-352.526,-8.88178e-09,8.85706e-09,-6.6418e-09,586.907,-589.343,-0.464057,1.10683e-08,-1.1093e-08,-8.74311e-12
-0.300025,0.93,0.22732,0.01,56.3461,432.45,-482.766,478.927,-345.932,-9.07891e-09,9.03996e-09,-6.51756e-09,590.434,-594.273,-0.290396,1.11408e-08,-1.11798e-08,-5.47123e-12
-0.290025,0.93,0.224265,0.01,54.6031,432.45,-489.469,487.754,-338.121,-9.21443e-09,9.19703e-09,-6.3704e-09,593.337,-595.052,0.442997,1.11863e-08,-1.12037e-08,8.34632e-12
-0.280025,0.93,0.221584,0.01,52.9088,432.45,-497.347,497.154,-329.272,-9.36946e-09,9.36751e-09,-6.20367e-09,596.291,-596.484,-0.0246137,1.12353e-08,-1.12373e-08,-4.63737e-13
-0.270025,0.93,0.218489,0.01,51.2642,432.45,-506.692,506.554,-321.19,-9.54577e-09,9.54438e-09,-6.05141e-09,599.79,-599.927,-0.0760206,1.1301e-08,-1.13024e-08,-1.43227e-12
-0.260025,0.93,0.215814,0.01,49.6703,432.45,-515.682,515.683,-312.822,-9.71576e-09,9.71577e-09,-5.89374e-09,603.147,-603.146,0.000597435,1.13636e-08,-1.13636e-08,1.1256e-14
-0.250025,0.93,0.213249,0.01,48.1279,432.45,-524.693,524.704,-304.104,-9.88556e-09,9.88568e-09,-5.72949e-09,606.46,-606.449,-1.08171e-05,1.1426e-08,-1.14259e-08,-2.03801e-16
-0.240025,0.93,0.210542,0.01,46.638,432.45,-533.52,533.532,-295.051,-1.00519e-08,1.0052e-08,-5.55892e-09,609.682,-609.67,-1.10639e-05,1.14867e-08,-1.14866e-08,-2.08451e-16
-0.230025,0.93,0.20828,0.01,45.2014,432.45,-542.137,542.15,-285.662,-1.02142e-08,1.02144e-08,-5.38203e-09,612.805,-612.792,-1.12656e-05,1.15455e-08,-1.15454e-08,-2.1225e-16
-0.220025,0.93,0.205802,0.01,43.8191,432.45,-550.527,550.541,-275.942,-1.03723e-08,1.03725e-08,-5.19892e-09,615.825,-615.811,-1.14182e-05,1.16024e-08,-1.16023e-08,-2.15125e-16
-0.210025,0.93,0.203518,0.01,42.4918,432.45,-558.675,558.69,-265.899,-1.05258e-08,1.0526e-08,-5.0097e-09,618.739,-618.724,-1.15184e-05,1.16573e-08,-1.16572e-08,-2.17013e-16
-0.200025,0.93,0.201596,0.01,41.2204,432.45,-566.566,566.582,-255.539,-1.06745e-08,1.06747e-08,-4.81451e-09,621.543,-621.528,-1.15628e-05,1.17102e-08,-1.171e-08,-2.1785e-16
-0.190025,0.93,0.199288,0.01,40.0056,432.45,-574.184,574.201,-244.87,-1.0818e-08,1.08182e-08,-4.6135e-09,624.234,-624.218,-1.15474e-05,1.17609e-08,-1.17607e-08,-2.17561e-16
-0.180025,0.93,0.197459,0.01,38.8483,432.45,-581.514,581.532,-233.901,-1.09561e-08,1.09563e-08,-4.40684e-09,626.809,-626.792,-1.14697e-05,1.18094e-08,-1.18092e-08,-2.16095e-16
-0.170025,0.93,0.19559,0.01,37.7491,432.45,-588.542,588.56,-222.642,-1.10886e-08,1.10887e-08,-4.19471e-09,629.264,-629.246,-1.13279e-05,1.18556e-08,-1.18554e-08,-2.13424e-16
-0.160025,0.93,0.193747,0.01,36.7087,432.45,-595.253,595.272,-211.104,-1.1215e-08,1.12152e-08,-3.97732e-09,631.597,-631.578,-1.11206e-05,1.18996e-08,-1.18994e-08,-2.09519e-16
-0.150025,0.93,0.192406,0.01,35.7279,432.45,-601.634,601.654,-199.297,-1.13352e-08,1.13354e-08,-3.75488e-09,633.804,-633.784,-1.08462e-05,1.19411e-08,-1.19409e-08,-2.04349e-16
-0.140025,0.93,0.190566,0.01,34.8072,432.45,-607.671,607.692,-187.235,-1.1449e-08,1.14492e-08,-3.52761e-09,635.883,-635.862,-1.05041e-05,1.19803e-08,-1.19801e-08,-1.97904e-16
-0.130025,0.93,0.189217,0.01,33.9473,432.45,-613.352,613.373,-174.93,-1.1556e-08,1.15562e-08,-3.29578e-09,637.83,-637.809,-1.00952e-05,1.2017e-08,-1.20168e-08,-1.90199e-16
-0.120025,0.93,0.187916,0.01,33.1488,432.45,-618.664,618.686,-162.396,-1.16561e-08,1.16563e-08,-3.05963e-09,639.644,-639.623,-9.62021e-06,1.20512e-08,-1.2051e-08,-1.8125e-16
-0.110025,0.93,0.18656,0.01,32.4121,432.45,-623.596,623.618,-149.648,-1.1749e-08,1.17492e-08,-2.81945e-09,641.323,-641.3,-9.08056e-06,1.20828e-08,-1.20826e-08,-1.71083e-16
-0.100025,0.93,0.185733,0.01,31.7377,432.45,-628.137,628.16,-136.701,-1.18346e-08,1.18348e-08,-2.57552e-09,642.863,-642.839,-8.47866e-06,1.21118e-08,-1.21116e-08,-1.59743e-16
-0.0900249,0.93,0.184434,0.01,31.1262,432.45,-632.277,632.301,-123.57,-1.19126e-08,1.19128e-08,-2.32813e-09,644.262,-644.239,-7.81773e-06,1.21382e-08,-1.21379e-08,-1.47291e-16
-0.0800249,0.93,0.183606,0.01,30.5779,432.45,-636.007,636.031,-110.273,-1.19828e-08,1.19831e-08,-2.07761e-09,645.52,-645.496,-7.10123e-06,1.21619e-08,-1.21616e-08,-1.33791e-16
-0.0700249,0.93,0.18284,0.01,30.0932,432.45,-639.319,639.343,-96.8265,-1.20452e-08,1.20455e-08,-1.82427e-09,646.634,-646.609,-6.3334e-06,1.21828e-08,-1.21826e-08,-1.19325e-16
-0.0600249,0.93,0.18201,0.01,29.6724,432.45,-642.204,642.229,-83.2478,-1.20996e-08,1.20999e-08,-1.56844e-09,647.602,-647.577,-5.51932e-06,1.22011e-08,-1.22008e-08,-1.03987e-16
-0.0500249,0.93,0.181727,0.01,29.3158,432.45,-644.657,644.682,-69.5551,-1.21458e-08,1.21461e-08,-1.31046e-09,648.424,-648.399,-4.66448e-06,1.22166e-08,-1.22163e-08,-8.78815e-17
-0.0400249,0.93,0.180946,0.01,29.0237,432.45,-646.672,646.698,-55.7667,-1.21838e-08,1.21841e-08,-1.05068e-09,649.098,-649.072,-3.77497e-06,1.22293e-08,-1.2229e-08,-7.11226e-17
-0.0300249,0.93,0.180664,0.01,28.7963,432.45,-648.245,648.27,-41.9014,-1.22134e-08,1.22137e-08,-7.89447e-10,649.623,-649.597,-2.85727e-06,1.22392e-08,-1.22389e-08,-5.38326e-17
-0.0200249,0.93,0.180413,0.01,28.6337,432.45,-649.371,649.396,-27.9782,-1.22346e-08,1.22349e-08,-5.27125e-10,649.999,-649.973,-1.91774e-06,1.22462e-08,-1.2246e-08,-3.61313e-17
-0.0100249,0.93,0.180133,0.01,28.536,432.45,-650.048,650.074,-14.0162,-1.22474e-08,1.22477e-08,-2.64073e-10,650.225,-650.199,-9.63625e-07,1.22505e-08,-1.22502e-08,-1.81553e-17
-2.48653e-05,0.93,0.180408,0.01,28.5033,432.45,-650.274,650.3,-0.0347733,-1.22517e-08,1.22519e-08,-6.55149e-13,650.3,-650.274,-2.3745e-09,1.22519e-08,-1.22517e-08,-4.4737e-20
0.00997513,0.93,0.180133,0.01,28.5357,432.45,-650.05,650.076,13.9467,-1.22474e-08,1.22477e-08,2.62764e-10,650.226,-650.2,9.58995e-07,1.22505e-08,-1.22503e-08,1.8068e-17
0.0199751,0.93,0.18041,0.01,28.633,432.45,-649.375,649.401,27.9088,-1.22347e-08,1.2235e-08,5.25818e-10,650,-649.975,1.91298e-06,1.22463e-08,-1.2246e-08,3.60416e-17
0.0299751,0.93,0.180664,0.01,28.7953,432.45,-648.251,648.277,41.8323,-1.22135e-08,1.22138e-08,7.88145e-10,649.625,-649.6,2.85245e-06,1.22392e-08,-1.22389e-08,5.37419e-17
0.0399751,0.93,0.180943,0.01,29.0224,432.45,-646.681,646.707,55.6979,-1.2184e-08,1.21842e-08,1.04938e-09,649.101,-649.075,3.77081e-06,1.22293e-08,-1.22291e-08,7.10443e-17
0.0499751,0.93,0.181727,0.01,29.3142,432.45,-644.668,644.694,69.4867,-1.2146e-08,1.21463e-08,1.30917e-09,648.428,-648.402,4.66056e-06,1.22166e-08,-1.22164e-08,8.78077e-17
0.0599751,0.93,0.182007,0.01,29.6705,432.45,-642.217,642.242,83.18,-1.20999e-08,1.21001e-08,1.56716e-09,647.607,-647.582,5.51498e-06,1.22012e-08,-1.22009e-08,1.03905e-16
0.0699751,0.93,0.182835,0.01,30.0909,432.45,-639.334,639.358,96.7593,-1.20455e-08,1.20458e-08,1.823e-09,646.639,-646.614,6.32903e-06,1.21829e-08,-1.21827e-08,1.19243e-16
0.0799751,0.93,0.183603,0.01,30.5753,432.45,-636.025,636.049,110.207,-1.19832e-08,1.19834e-08,2.07636e-09,645.526,-645.502,7.09728e-06,1.2162e-08,-1.21617e-08,1.33717e-16
0.0899751,0.93,0.184429,0.01,31.1233,432.45,-632.297,632.32,123.504,-1.19129e-08,1.19132e-08,2.3269e-09,644.269,-644.245,7.81448e-06,1.21383e-08,-1.21381e-08,1.47229e-16
0.0999751,0.93,0.18573,0.01,31.7345,432.45,-628.158,628.181,136.636,-1.1835e-08,1.18352e-08,2.5743e-09,642.87,-642.847,8.47598e-06,1.21119e-08,-1.21117e-08,1.59692e-16
0.109975,0.93,0.186555,0.01,32.4086,432.45,-623.619,623.642,149.584,-1.17494e-08,1.17497e-08,2.81825e-09,641.331,-641.308,9.07768e-06,1.20829e-08,-1.20827e-08,1.71029e-16
0.119975,0.93,0.187908,0.01,33.1449,432.45,-618.689,618.711,162.333,-1.16566e-08,1.16568e-08,3.05845e-09,639.653,-639.631,9.61754e-06,1.20513e-08,-1.20511e-08,1.812e-16
0.129975,0.93,0.189212,0.01,33.9432,432.45,-613.379,613.4,174.868,-1.15565e-08,1.15567e-08,3.29462e-09,637.84,-637.818,1.00931e-05,1.20172e-08,-1.2017e-08,1.9016e-16
0.139975,0.93,0.190558,0.01,34.8028,432.45,-607.7,607.721,187.174,-1.14495e-08,1.14497e-08,3.52647e-09,635.893,-635.872,1.05023e-05,1.19805e-08,-1.19803e-08,1.97869e-16
0.149975,0.93,0.1924,0.01,35.7232,432.45,-601.665,601.685,199.238,-1.13358e-08,1.1336e-08,3.75376e-09,633.815,-633.795,1.08445e-05,1.19413e-08,-1.19411e-08,2.04316e-16
0.159975,0.93,0.193739,0.01,36.7037,432.45,-595.286,595.305,211.046,-1.12156e-08,1.12158e-08,3.97622e-09,631.608,-631.589,1.11193e-05,1.18998e-08,-1.18996e-08,2.09494e-16
0.169975,0.93,0.19558,0.01,37.7437,432.45,-588.576,588.594,222.586,-1.10892e-08,1.10894e-08,4.19364e-09,629.276,-629.258,1.1327e-05,1.18558e-08,-1.18557e-08,2.13408e-16
0.179975,0.93,0.197452,0.01,38.8427,432.45,-581.55,581.567,233.846,-1.09568e-08,1.0957e-08,4.40579e-09,626.822,-626.804,1.1469e-05,1.18096e-08,-1.18094e-08,2.16083e-16
0.189975,0.93,0.199278,0.01,39.9997,432.45,-574.221,574.238,244.816,-1.08187e-08,1.08189e-08,4.61248e-09,624.247,-624.231,1.15469e-05,1.17611e-08,-1.17609e-08,2.17551e-16
0.199975,0.93,0.201584,0.01,41.2142,432.45,-566.605,566.62,255.487,-1.06752e-08,1.06754e-08,4.81352e-09,621.557,-621.541,1.15629e-05,1.17104e-08,-1.17103e-08,2.17852e-16
0.209975,0.93,0.203508,0.01,42.4854,432.45,-558.715,558.73,265.849,-1.05266e-08,1.05267e-08,5.00874e-09,618.753,-618.738,1.15193e-05,1.16576e-08,-1.16575e-08,2.1703e-16
0.219975,0.93,0.20579,0.01,43.8124,432.45,-550.568,550.582,275.893,-1.03731e-08,1.03732e-08,5.19799e-09,615.84,-615.826,1.14192e-05,1.16027e-08,-1.16026e-08,2.15144e-16
0.229975,0.93,0.20827,0.01,45.1944,432.45,-542.179,542.192,285.614,-1.0215e-08,1.02152e-08,5.38114e-09,612.82,-612.807,1.12665e-05,1.15458e-08,-1.15457e-08,2.12268e-16
0.239975,0.93,0.210529,0.01,46.6307,432.45,-533.564,533.576,295.005,-1.00527e-08,1.00528e-08,5.55806e-09,609.698,-609.686,1.10649e-05,1.1487e-08,-1.14869e-08,2.0847e-16
0.249975,0.93,0.213234,0.01,48.1204,432.45,-524.737,524.748,304.059,-9.8864e-09,9.88651e-09,5.72866e-09,606.476,-606.465,1.08181e-05,1.14263e-08,-1.14262e-08,2.0382e-16
0.259975,0.93,0.215802,0.01,49.6625,432.45,-515.727,515.729,312.779,-9.71661e-09,9.71662e-09,5.89294e-09,603.164,-603.163,-0.000598362,1.1364e-08,-1.13639e-08,-1.12735e-14
0.269975,0.93,0.218475,0.01,51.2562,432.45,-506.738,506.601,321.149,-9.54664e-09,9.54525e-09,6.05064e-09,599.807,-599.945,0.0760235,1.13013e-08,-1.13027e-08,1.43233e-12
0.279975,0.93,0.221568,0.01,52.9005,432.45,-497.394,497.201,329.233,-9.37035e-09,9.36839e-09,6.20294e-09,596.309,-596.501,0.0246762,1.12356e-08,-1.12376e-08,4.64914e-13
0.289975,0.93,0.22425,0.01,54.5945,432.45,-489.517,487.802,338.084,-9.21532e-09,9.19793e-09,6.36969e-09,593.355,-595.07,-0.443056,1.11866e-08,-1.1204e-08,-8.34743e-12
0.299975,0.93,0.227304,0.01,56.3374,432.45,-482.815,478.976,345.896,-9.07982e-09,9.04087e-09,6.51689e-09,590.452,-594.292,0.290255,1.11412e-08,-1.11801e-08,5.46857e-12
0.309975,0.93,0.23056,0.01,58.128,432.45,-472.029,469.593,352.492,-8.88271e-09,8.85799e-09,6.64116e-09,586.926,-589.362,0.464427,1.10686e-08,-1.10933e-08,8.75007e-12
0.319975,0.93,0.233576,0.01,59.9654,432.45,-463.535,459.031,361.612,-8.71368e-09,8.66799e-09,6.81299e-09,583.874,-588.378,-1.24161,1.10201e-08,-1.10658e-08,-2.33926e-11
0.329975,0.93,0.236975,0.01,61.8487,432.45,-461.56,449.281,370.242,-8.64266e-09,8.51809e-09,6.97558e-09,580.79,-593.069,-0.404042,1.09958e-08,-1.11204e-08,-7.61239e-12
0.339975,0.93,0.240384,0.01,63.7768,432.45,-450.922,441.343,374.675,-8.45398e-09,8.3568e-09,7.05909e-09,577.802,-587.381,1.39019,1.09278e-08,-1.1025e-08,2.6192e-11
0.349975,0.93,0.243738,0.01,65.7487,432.45,-432.641,432.84,382.034,-8.15207e-09,8.1541e-09,7.19773e-09,577.343,-577.144,-1.95895,1.08766e-08,-1.08746e-08,-3.69078e-11
-0.320025,0.94,0.243083,0.01,65.3592,441.8,-456.983,457.306,-353.606,-8.61123e-09,8.61451e-09,-6.66215e-09,578.104,-577.781,1.2089,1.08904e-08,-1.08871e-08,2.27763e-11
-0.310025,0.94,0.24011,0.01,63.5565,441.8,-474.852,464.868,-345.676,-8.90308e-09,8.8018e-09,-6.51273e-09,578.324,-588.308,-1.6761,1.09394e-08,-1.10407e-08,-3.15787e-11
-0.300025,0.94,0.236798,0.01,61.8,441.8,-484.209,472.066,-340.393,-9.06999e-09,8.9468e-09,-6.4132e-09,580.855,-592.998,0.450571,1.09964e-08,-1.11196e-08,8.48901e-12
-0.290025,0.94,0.233866,0.01,60.0905,441.8,-485.395,481.169,-330.781,-9.12675e-09,9.08388e-09,-6.23211e-09,583.53,-587.755,0.978258,1.10124e-08,-1.10553e-08,1.84309e-11
-0.280025,0.94,0.231048,0.01,58.429,441.8,-493.457,490.95,-320.991,-9.28611e-09,9.26068e-09,-6.04766e-09,586.368,-588.875,-0.687532,1.10584e-08,-1.10838e-08,-1.29535e-11
-0.270025,0.94,0.228082,0.01,56.8165,441.8,-503.237,499.411,-313.709,-9.46464e-09,9.42583e-09,-5.91045e-09,589.474,-593.3,-0.184,1.11227e-08,-1.11615e-08,-3.46667e-12
-0.260025,0.94,0.22552,0.01,55.2538,441.8,-508.993,507.411,-304.991,-9.58285e-09,9.5668e-09,-5.7462e-09,591.905,-593.487,0.457918,1.11587e-08,-1.11748e-08,8.62745e-12
-0.250025,0.94,0.222831,0.01,53.7418,441.8,-516.145,515.993,-295.358,-9.72381e-09,9.72227e-09,-5.56471e-09,594.536,-594.688,-0.0657234,1.12021e-08,-1.12036e-08,-1.23827e-12
-0.240025,0.94,0.220241,0.01,52.2815,441.8,-524.646,524.499,-286.496,-9.884e-09,9.8825e-09,-5.39776e-09,597.635,-597.783,-0.0732411,1.12604e-08,-1.12619e-08,-1.37991e-12
-0.230025,0.94,0.21808,0.01,50.8735,441.8,-532.947,532.794,-277.323,-1.00404e-08,1.00388e-08,-5.22493e-09,600.639,-600.792,-0.0736244,1.1317e-08,-1.13186e-08,-1.38713e-12
-0.220025,0.94,0.215496,0.01,49.5188,441.8,-540.777,540.781,-267.835,-1.01886e-08,1.01886e-08,-5.04617e-09,603.474,-603.469,0.00134888,1.13698e-08,-1.13697e-08,2.54137e-14
-0.210025,0.94,0.213315,0.01,48.2183,441.8,-548.6,548.615,-258.033,-1.0336e-08,1.03362e-08,-4.86149e-09,606.267,-606.253,-1.08167e-05,1.14224e-08,-1.14222e-08,-2.03793e-16
-0.200025,0.94,0.211283,0.01,46.9725,441.8,-556.185,556.201,-247.934,-1.04789e-08,1.04791e-08,-4.67122e-09,608.959,-608.944,-1.08458e-05,1.14731e-08,-1.14729e-08,-2.04341e-16
-0.190025,0.94,0.209081,0.01,45.7824,441.8,-563.506,563.522,-237.541,-1.06169e-08,1.0617e-08,-4.47541e-09,611.542,-611.526,-1.08196e-05,1.15217e-08,-1.15216e-08,-2.03848e-16
-0.180025,0.94,0.207339,0.01,44.6486,441.8,-570.548,570.565,-226.862,-1.07495e-08,1.07497e-08,-4.27422e-09,614.013,-613.996,-1.07358e-05,1.15683e-08,-1.15681e-08,-2.02268e-16
-0.170025,0.94,0.20538,0.01,43.5719,441.8,-577.298,577.316,-215.907,-1.08767e-08,1.08769e-08,-4.06782e-09,616.369,-616.351,-1.05931e-05,1.16127e-08,-1.16125e-08,-1.99581e-16
-0.160025,0.94,0.203625,0.01,42.5529,441.8,-583.742,583.761,-204.687,-1.09981e-08,1.09983e-08,-3.85642e-09,618.606,-618.588,-1.03902e-05,1.16548e-08,-1.16546e-08,-1.95757e-16
-0.150025,0.94,0.202211,0.01,41.5923,441.8,-589.868,589.887,-193.211,-1.11135e-08,1.11137e-08,-3.64022e-09,620.723,-620.704,-1.01252e-05,1.16947e-08,-1.16945e-08,-1.90765e-16
-0.140025,0.94,0.200442,0.01,40.6907,441.8,-595.662,595.681,-181.493,-1.12227e-08,1.12229e-08,-3.41943e-09,622.717,-622.697,-9.79815e-06,1.17323e-08,-1.17321e-08,-1.84603e-16
-0.130025,0.94,0.199161,0.01,39.8486,441.8,-601.112,601.133,-169.544,-1.13254e-08,1.13256e-08,-3.1943e-09,624.585,-624.564,-9.4099e-06,1.17675e-08,-1.17672e-08,-1.77288e-16
-0.120025,0.94,0.197791,0.01,39.0666,441.8,-606.208,606.229,-157.377,-1.14214e-08,1.14216e-08,-2.96508e-09,626.324,-626.303,-8.96104e-06,1.18002e-08,-1.18e-08,-1.68831e-16
-0.110025,0.94,0.196503,0.01,38.3453,441.8,-610.939,610.96,-145.007,-1.15105e-08,1.15108e-08,-2.73202e-09,627.933,-627.912,-8.45298e-06,1.18305e-08,-1.18303e-08,-1.59259e-16
-0.100025,0.94,0.195672,0.01,37.685,441.8,-615.294,615.316,-132.448,-1.15926e-08,1.15928e-08,-2.4954e-09,629.409,-629.387,-7.88814e-06,1.18583e-08,-1.18581e-08,-1.48617e-16
-0.0900249,0.94,0.194377,0.01,37.0863,441.8,-619.263,619.286,-119.715,-1.16674e-08,1.16676e-08,-2.25551e-09,630.751,-630.729,-7.26955e-06,1.18836e-08,-1.18834e-08,-1.36963e-16
-0.0800249,0.94,0.193591,0.01,36.5495,441.8,-622.839,622.862,-106.824,-1.17348e-08,1.1735e-08,-2.01263e-09,631.957,-631.933,-6.60043e-06,1.19063e-08,-1.19061e-08,-1.24356e-16
-0.0700249,0.94,0.192783,0.01,36.075,441.8,-626.014,626.037,-93.7914,-1.17946e-08,1.17948e-08,-1.76708e-09,633.024,-633,-5.88437e-06,1.19264e-08,-1.19262e-08,-1.10865e-16
-0.0600249,0.94,0.191995,0.01,35.6631,441.8,-628.779,628.803,-80.6333,-1.18467e-08,1.18469e-08,-1.51918e-09,633.952,-633.928,-5.12626e-06,1.19439e-08,-1.19437e-08,-9.65818e-17
-0.0500249,0.94,0.191719,0.01,35.314,441.8,-631.13,631.154,-67.367,-1.1891e-08,1.18912e-08,-1.26923e-09,634.739,-634.715,-4.33115e-06,1.19588e-08,-1.19585e-08,-8.16013e-17
-0.0400249,0.94,0.190931,0.01,35.0281,441.8,-633.061,633.086,-54.01,-1.19273e-08,1.19276e-08,-1.01758e-09,635.385,-635.361,-3.50437e-06,1.19709e-08,-1.19707e-08,-6.60243e-17
-0.0300249,0.94,0.190664,0.01,34.8055,441.8,-634.568,634.592,-40.5801,-1.19557e-08,1.1956e-08,-7.64552e-10,635.889,-635.864,-2.6519e-06,1.19804e-08,-1.19802e-08,-4.99633e-17
-0.0200249,0.94,0.190398,0.01,34.6463,441.8,-635.647,635.671,-27.0952,-1.19761e-08,1.19763e-08,-5.1049e-10,636.249,-636.224,-1.77948e-06,1.19872e-08,-1.19869e-08,-3.35264e-17
-0.0100249,0.94,0.190133,0.01,34.5507,441.8,-636.296,636.32,-13.5737,-1.19883e-08,1.19885e-08,-2.55736e-10,636.465,-636.44,-8.93688e-07,1.19913e-08,-1.1991e-08,-1.68376e-17
-2.48653e-05,0.94,0.190393,0.01,34.5187,441.8,-636.513,636.537,-0.0336753,-1.19924e-08,1.19926e-08,-6.34462e-13,636.537,-636.513,-1.9878e-09,1.19926e-08,-1.19924e-08,-3.74512e-20
0.00997513,0.94,0.190133,0.01,34.5504,441.8,-636.298,636.322,13.5064,-1.19883e-08,1.19886e-08,2.54468e-10,636.466,-636.441,8.89635e-07,1.19913e-08,-1.1991e-08,1.67612e-17
0.0199751,0.94,0.190395,0.01,34.6457,441.8,-635.651,635.676,27.0281,-1.19761e-08,1.19764e-08,5.09225e-10,636.25,-636.225,1.7751e-06,1.19872e-08,-1.1987e-08,3.34439e-17
0.0299751,0.94,0.190664,0.01,34.8045,441.8,-634.574,634.599,40.5131,-1.19559e-08,1.19561e-08,7.63291e-10,635.891,-635.866,2.64741e-06,1.19804e-08,-1.19802e-08,4.98787e-17
0.0399751,0.94,0.190928,0.01,35.0269,441.8,-633.07,633.094,53.9434,-1.19275e-08,1.19278e-08,1.01632e-09,635.388,-635.364,3.50035e-06,1.1971e-08,-1.19707e-08,6.59487e-17
0.0499751,0.94,0.191714,0.01,35.3125,441.8,-631.141,631.165,67.3008,-1.18912e-08,1.18914e-08,1.26799e-09,634.743,-634.719,4.32724e-06,1.19588e-08,-1.19586e-08,8.15278e-17
0.0599751,0.94,0.191993,0.01,35.6612,441.8,-628.792,628.816,80.5675,-1.18469e-08,1.18472e-08,1.51794e-09,633.956,-633.932,5.12204e-06,1.1944e-08,-1.19438e-08,9.65021e-17
0.0699751,0.94,0.192777,0.01,36.0728,441.8,-626.028,626.052,93.7263,-1.17948e-08,1.17951e-08,1.76586e-09,633.029,-633.005,5.88021e-06,1.19265e-08,-1.19263e-08,1.10787e-16
0.0799751,0.94,0.193589,0.01,36.547,441.8,-622.856,622.879,106.76,-1.17351e-08,1.17353e-08,2.01142e-09,631.962,-631.939,6.59656e-06,1.19064e-08,-1.19062e-08,1.24283e-16
0.0899751,0.94,0.194372,0.01,37.0835,441.8,-619.282,619.305,119.652,-1.16677e-08,1.1668e-08,2.2543e-09,630.757,-630.735,7.26649e-06,1.18837e-08,-1.18835e-08,1.36905e-16
0.0999751,0.94,0.195664,0.01,37.6819,441.8,-615.314,615.336,132.385,-1.1593e-08,1.15932e-08,2.49421e-09,629.416,-629.394,7.88583e-06,1.18585e-08,-1.18583e-08,1.48574e-16
0.109975,0.94,0.196498,0.01,38.3419,441.8,-610.961,610.983,144.945,-1.1511e-08,1.15112e-08,2.73085e-09,627.941,-627.919,8.45083e-06,1.18307e-08,-1.18305e-08,1.59218e-16
0.119975,0.94,0.197784,0.01,39.0629,441.8,-606.233,606.254,157.316,-1.14219e-08,1.14221e-08,2.96393e-09,626.333,-626.312,8.95881e-06,1.18004e-08,-1.18002e-08,1.68789e-16
0.129975,0.94,0.199156,0.01,39.8446,441.8,-601.139,601.159,169.484,-1.13259e-08,1.13261e-08,3.19317e-09,624.594,-624.573,9.40756e-06,1.17676e-08,-1.17674e-08,1.77244e-16
0.139975,0.94,0.200435,0.01,40.6863,441.8,-595.69,595.709,181.434,-1.12232e-08,1.12234e-08,3.41832e-09,622.727,-622.707,9.79611e-06,1.17324e-08,-1.17322e-08,1.84564e-16
0.149975,0.94,0.202201,0.01,41.5877,441.8,-589.897,589.916,193.154,-1.11141e-08,1.11143e-08,3.63913e-09,620.734,-620.715,1.01238e-05,1.16949e-08,-1.16947e-08,1.90738e-16
0.159975,0.94,0.203617,0.01,42.548,441.8,-583.774,583.792,204.63,-1.09987e-08,1.09989e-08,3.85536e-09,618.617,-618.599,1.0389e-05,1.1655e-08,-1.16548e-08,1.95735e-16
0.169975,0.94,0.20537,0.01,43.5667,441.8,-577.331,577.349,215.852,-1.08773e-08,1.08775e-08,4.06678e-09,616.38,-616.362,1.05923e-05,1.16129e-08,-1.16127e-08,1.99566e-16
0.179975,0.94,0.207332,0.01,44.6431,441.8,-570.583,570.599,226.808,-1.07502e-08,1.07504e-08,4.2732e-09,614.025,-614.008,1.07355e-05,1.15685e-08,-1.15683e-08,2.02262e-16
0.189975,0.94,0.209072,0.01,45.7766,441.8,-563.542,563.558,237.488,-1.06175e-08,1.06177e-08,4.47442e-09,611.555,-611.539,1.08193e-05,1.1522e-08,-1.15218e-08,2.03843e-16
0.199975,0.94,0.211271,0.01,46.9665,441.8,-556.222,556.238,247.883,-1.04796e-08,1.04798e-08,4.67026e-09,608.972,-608.957,1.08458e-05,1.14733e-08,-1.14732e-08,2.04342e-16
0.209975,0.94,0.213305,0.01,48.2119,441.8,-548.639,548.653,257.983,-1.03367e-08,1.03369e-08,4.86055e-09,606.281,-606.266,1.08172e-05,1.14226e-08,-1.14225e-08,2.03801e-16
0.219975,0.94,0.215484,0.01,49.5122,441.8,-540.816,540.821,267.787,-1.01893e-08,1.01894e-08,5.04526e-09,603.488,-603.483,-0.00134977,1.137e-08,-1.137e-08,-2.54304e-14
0.229975,0.94,0.218071,0.01,50.8667,441.8,-532.987,532.835,277.277,-1.00411e-08,1.00396e-08,5.22405e-09,600.653,-600.806,0.0736215,1.13173e-08,-1.13189e-08,1.38707e-12
0.239975,0.94,0.22023,0.01,52.2743,441.8,-524.688,524.54,286.452,-9.88478e-09,9.88329e-09,5.39691e-09,597.651,-597.798,0.0732409,1.12607e-08,-1.12622e-08,1.3799e-12
0.249975,0.94,0.222817,0.01,53.7345,441.8,-516.188,516.036,295.314,-9.72462e-09,9.72308e-09,5.56389e-09,594.552,-594.704,0.0657894,1.12024e-08,-1.12039e-08,1.23951e-12
0.259975,0.94,0.225508,0.01,55.2462,441.8,-509.037,507.455,304.949,-9.58367e-09,9.56762e-09,5.74542e-09,591.921,-593.503,-0.457948,1.1159e-08,-1.11751e-08,-8.628e-12
0.269975,0.94,0.228068,0.01,56.8086,441.8,-503.282,499.456,313.669,-9.46548e-09,9.42667e-09,5.9097e-09,589.491,-593.317,0.183845,1.1123e-08,-1.11618e-08,3.46375e-12
0.279975,0.94,0.231032,0.01,58.4209,441.8,-493.503,490.996,320.952,-9.28698e-09,9.26155e-09,6.04693e-09,586.385,-588.892,0.687887,1.10587e-08,-1.10842e-08,1.29602e-11
0.289975,0.94,0.233853,0.01,60.0821,441.8,-485.441,481.216,330.744,-9.12763e-09,9.08476e-09,6.23141e-09,583.547,-587.772,-0.977881,1.10127e-08,-1.10556e-08,-1.84238e-11
0.299975,0.94,0.236782,0.01,61.7913,441.8,-484.256,472.113,340.357,-9.07088e-09,8.94769e-09,6.41253e-09,580.873,-593.016,-0.450648,1.09968e-08,-1.112e-08,-8.49048e-12
0.309975,0.94,0.240093,0.01,63.5477,441.8,-474.901,464.916,345.642,-8.904e-09,8.8027e-09,6.51209e-09,578.342,-588.327,1.67658,1.09397e-08,-1.1041e-08,3.15877e-11
0.319975,0.94,0.243068,0.01,65.3501,441.8,-457.032,457.355,353.574,-8.61216e-09,8.61544e-09,6.66153e-09,578.123,-577.799,-1.20779,1.08908e-08,-1.08875e-08,-2.27555e-11
-0.290025,0.95,0.2435,0.01,65.5299,451.25,-478.587,479.073,-322.921,-9.01897e-09,9.0239e-09,-6.08401e-09,577.785,-577.3,0.421209,1.08837e-08,-1.08788e-08,7.93582e-12
-0.280025,0.95,0.240555,0.01,63.9003,451.25,-495.835,485.569,-314.527,-9.29718e-09,9.19303e-09,-5.92587e-09,577.715,-587.981,-1.91555,1.09291e-08,-1.10333e-08,-3.60901e-11
-0.270025,0.95,0.237707,0.01,62.319,451.25,-503.796,491.938,-308.46,-9.44025e-09,9.31996e-09,-5.81156e-09,579.749,-591.607,0.476474,1.09744e-08,-1.10947e-08,8.97704e-12
-0.260025,0.95,0.23525,0.01,60.7866,451.25,-504.18,500.284,-297.988,-9.48211e-09,9.44258e-09,-5.61427e-09,582.033,-585.929,0.680396,1.09828e-08,-1.10223e-08,1.28191e-11
-0.250025,0.95,0.232448,0.01,59.3042,451.25,-510.932,509.246,-288.245,-9.61893e-09,9.60181e-09,-5.4307e-09,585.054,-586.741,-0.201054,1.10301e-08,-1.10472e-08,-3.78798e-12
-0.240025,0.95,0.229967,0.01,57.8725,451.25,-520.411,516.614,-279.771,-9.78833e-09,9.74982e-09,-5.27104e-09,587.276,-591.073,-0.0950618,1.10811e-08,-1.11197e-08,-1.79102e-12
-0.230025,0.95,0.227722,0.01,56.4923,451.25,-528.388,524.604,-270.802,-9.93869e-09,9.90029e-09,-5.10206e-09,590.165,-593.949,-0.035369,1.11355e-08,-1.11739e-08,-6.66372e-13
-0.220025,0.95,0.225216,0.01,55.1645,451.25,-532.861,531.466,-260.978,-1.00333e-08,1.00192e-08,-4.91697e-09,592.014,-593.409,0.450967,1.116e-08,-1.11741e-08,8.49648e-12
-0.210025,0.95,0.22313,0.01,53.8898,451.25,-539.006,538.908,-250.417,-1.01548e-08,1.01538e-08,-4.718e-09,594.243,-594.341,-0.120492,1.11963e-08,-1.11973e-08,-2.27014e-12
-0.200025,0.95,0.220997,0.01,52.669,451.25,-546.338,546.176,-240.628,-1.02926e-08,1.0291e-08,-4.53357e-09,596.827,-596.988,-0.0683188,1.12453e-08,-1.12469e-08,-1.28717e-12
-0.190025,0.95,0.218893,0.01,51.5028,451.25,-553.383,553.217,-230.502,-1.04253e-08,1.04237e-08,-4.34279e-09,599.31,-599.476,-0.0669844,1.12921e-08,-1.12938e-08,-1.26203e-12
-0.180025,0.95,0.21723,0.01,50.3919,451.25,-560.157,559.988,-220.104,-1.05529e-08,1.05512e-08,-4.14689e-09,601.686,-601.854,-0.0646661,1.13368e-08,-1.13386e-08,-1.21835e-12
-0.170025,0.95,0.215189,0.01,49.337,451.25,-566.372,566.38,-209.444,-1.06708e-08,1.06709e-08,-3.94604e-09,603.865,-603.857,0.00216137,1.13771e-08,-1.1377e-08,4.07215e-14
-0.160025,0.95,0.213515,0.01,48.3387,451.25,-572.55,572.568,-198.525,-1.07873e-08,1.07874e-08,-3.74033e-09,606.009,-605.991,-9.71314e-06,1.14175e-08,-1.14173e-08,-1.83001e-16
-0.150025,0.95,0.212016,0.01,47.3977,451.25,-578.433,578.451,-187.369,-1.08981e-08,1.08983e-08,-3.53014e-09,608.041,-608.022,-9.4578e-06,1.14558e-08,-1.14556e-08,-1.7819e-16
-0.140025,0.95,0.21033,0.01,46.5145,451.25,-583.996,584.015,-175.982,-1.10029e-08,1.10031e-08,-3.3156e-09,609.953,-609.934,-9.14529e-06,1.14918e-08,-1.14916e-08,-1.72303e-16
-0.130025,0.95,0.20911,0.01,45.6897,451.25,-589.228,589.248,-164.375,-1.11015e-08,1.11017e-08,-3.09692e-09,611.745,-611.726,-8.77659e-06,1.15256e-08,-1.15254e-08,-1.65356e-16
-0.120025,0.95,0.207678,0.01,44.9239,451.25,-594.119,594.139,-152.562,-1.11936e-08,1.11938e-08,-2.87436e-09,613.414,-613.394,-8.3526e-06,1.1557e-08,-1.15568e-08,-1.57368e-16
-0.110025,0.95,0.206452,0.01,44.2174,451.25,-598.658,598.678,-140.556,-1.12791e-08,1.12794e-08,-2.64815e-09,614.957,-614.936,-7.87467e-06,1.15861e-08,-1.15858e-08,-1.48363e-16
-0.100025,0.95,0.205557,0.01,43.5708,451.25,-602.836,602.857,-128.37,-1.13579e-08,1.13581e-08,-2.41856e-09,616.373,-616.352,-7.34436e-06,1.16127e-08,-1.16125e-08,-1.38372e-16
-0.0900249,0.95,0.204325,0.01,42.9845,451.25,-606.643,606.665,-116.019,-1.14296e-08,1.14298e-08,-2.18586e-09,617.659,-617.638,-6.76468e-06,1.1637e-08,-1.16367e-08,-1.2745e-16
-0.0800249,0.95,0.203578,0.01,42.4589,451.25,-610.073,610.095,-103.517,-1.14942e-08,1.14945e-08,-1.95033e-09,618.815,-618.793,-6.13923e-06,1.16587e-08,-1.16585e-08,-1.15667e-16
-0.0700249,0.95,0.202731,0.01,41.9942,451.25,-613.117,613.14,-90.8816,-1.15516e-08,1.15518e-08,-1.71226e-09,619.839,-619.816,-5.4712e-06,1.1678e-08,-1.16778e-08,-1.03081e-16
-0.0600249,0.95,0.201982,0.01,41.5909,451.25,-615.769,615.792,-78.1269,-1.16015e-08,1.16018e-08,-1.47196e-09,620.728,-620.706,-4.76479e-06,1.16948e-08,-1.16946e-08,-8.97714e-17
-0.0500249,0.95,0.201667,0.01,41.2491,451.25,-618.023,618.046,-65.2696,-1.1644e-08,1.16443e-08,-1.22972e-09,621.483,-621.46,-4.02464e-06,1.1709e-08,-1.17088e-08,-7.58265e-17
-0.0400249,0.95,0.200918,0.01,40.9692,451.25,-619.875,619.898,-52.3263,-1.16789e-08,1.16791e-08,-9.85857e-10,622.103,-622.079,-3.25562e-06,1.17207e-08,-1.17204e-08,-6.13378e-17
-0.0300249,0.95,0.200664,0.01,40.7512,451.25,-621.319,621.342,-39.3137,-1.17061e-08,1.17063e-08,-7.40693e-10,622.585,-622.561,-2.46316e-06,1.17298e-08,-1.17295e-08,-4.64074e-17
-0.0200249,0.95,0.200385,0.01,40.5954,451.25,-622.353,622.377,-26.2491,-1.17256e-08,1.17258e-08,-4.94548e-10,622.93,-622.906,-1.65265e-06,1.17363e-08,-1.1736e-08,-3.1137e-17
-0.0100249,0.95,0.200133,0.01,40.5018,451.25,-622.975,622.999,-13.1496,-1.17373e-08,1.17376e-08,-2.47746e-10,623.138,-623.114,-8.30049e-07,1.17402e-08,-1.17399e-08,-1.56386e-17
-2.48653e-05,0.95,0.20038,0.01,40.4705,451.25,-623.183,623.207,-0.032623,-1.17412e-08,1.17415e-08,-6.14636e-13,623.207,-623.183,-1.86392e-09,1.17415e-08,-1.17412e-08,-3.51172e-20
0.00997513,0.95,0.200133,0.01,40.5015,451.25,-622.977,623.001,13.0844,-1.17374e-08,1.17376e-08,2.46517e-10,623.138,-623.114,8.2621e-07,1.17402e-08,-1.17399e-08,1.55663e-17
0.0199751,0.95,0.200382,0.01,40.5948,451.25,-622.357,622.381,26.184,-1.17257e-08,1.17259e-08,4.93322e-10,622.932,-622.908,1.6486e-06,1.17363e-08,-1.1736e-08,3.10605e-17
0.0299751,0.95,0.200664,0.01,40.7503,451.25,-621.325,621.349,39.2489,-1.17062e-08,1.17065e-08,7.39472e-10,622.587,-622.563,2.45916e-06,1.17298e-08,-1.17296e-08,4.6332e-17
0.0399751,0.95,0.200915,0.01,40.968,451.25,-619.883,619.906,52.2617,-1.16791e-08,1.16793e-08,9.84641e-10,622.105,-622.082,3.25174e-06,1.17207e-08,-1.17205e-08,6.12647e-17
0.0499751,0.95,0.201662,0.01,41.2476,451.25,-618.034,618.057,65.2055,-1.16442e-08,1.16444e-08,1.22851e-09,621.487,-621.464,4.02069e-06,1.17091e-08,-1.17088e-08,7.57522e-17
0.0599751,0.95,0.20198,0.01,41.5891,451.25,-615.781,615.804,78.0632,-1.16018e-08,1.1602e-08,1.47076e-09,620.733,-620.71,4.76098e-06,1.16949e-08,-1.16946e-08,8.96997e-17
0.0699751,0.95,0.202726,0.01,41.9921,451.25,-613.131,613.154,90.8185,-1.15518e-08,1.15521e-08,1.71107e-09,619.843,-619.821,5.46773e-06,1.16781e-08,-1.16779e-08,1.03015e-16
0.0799751,0.95,0.203575,0.01,42.4564,451.25,-610.089,610.111,103.455,-1.14945e-08,1.14948e-08,1.94915e-09,618.821,-618.798,6.13598e-06,1.16588e-08,-1.16586e-08,1.15605e-16
0.0899751,0.95,0.20432,0.01,42.9818,451.25,-606.661,606.683,115.957,-1.14299e-08,1.14302e-08,2.18469e-09,617.666,-617.644,6.76161e-06,1.16371e-08,-1.16369e-08,1.27393e-16
0.0999751,0.95,0.20555,0.01,43.5678,451.25,-602.855,602.877,128.309,-1.13582e-08,1.13585e-08,2.41741e-09,616.38,-616.358,7.34152e-06,1.16129e-08,-1.16126e-08,1.38319e-16
0.109975,0.95,0.206447,0.01,44.2141,451.25,-598.679,598.7,140.495,-1.12796e-08,1.12798e-08,2.64701e-09,614.964,-614.944,7.87216e-06,1.15862e-08,-1.1586e-08,1.48316e-16
0.119975,0.95,0.207671,0.01,44.9202,451.25,-594.142,594.162,152.503,-1.11941e-08,1.11943e-08,2.87324e-09,613.422,-613.402,8.35045e-06,1.15571e-08,-1.15569e-08,1.57327e-16
0.129975,0.95,0.209105,0.01,45.6858,451.25,-589.253,589.273,164.317,-1.1102e-08,1.11022e-08,3.09583e-09,611.754,-611.734,8.77435e-06,1.15257e-08,-1.15255e-08,1.65314e-16
0.139975,0.95,0.210323,0.01,46.5103,451.25,-584.023,584.042,175.924,-1.10034e-08,1.10036e-08,3.31452e-09,609.963,-609.944,9.1435e-06,1.1492e-08,-1.14918e-08,1.72269e-16
0.149975,0.95,0.212007,0.01,47.3932,451.25,-578.461,578.48,187.313,-1.08986e-08,1.08988e-08,3.52908e-09,608.05,-608.032,9.45645e-06,1.14559e-08,-1.14558e-08,1.78165e-16
0.159975,0.95,0.213507,0.01,48.3339,451.25,-572.58,572.598,198.47,-1.07878e-08,1.0788e-08,3.73929e-09,606.019,-606.002,9.71183e-06,1.14177e-08,-1.14175e-08,1.82977e-16
0.169975,0.95,0.21518,0.01,49.3319,451.25,-566.403,566.412,209.39,-1.06714e-08,1.06715e-08,3.94503e-09,603.876,-603.868,-0.00216213,1.13773e-08,-1.13773e-08,-4.07357e-14
0.179975,0.95,0.217223,0.01,50.3865,451.25,-560.19,560.021,220.052,-1.05536e-08,1.05519e-08,4.14591e-09,601.697,-601.866,0.0646562,1.13371e-08,-1.13388e-08,1.21816e-12
0.189975,0.95,0.218884,0.01,51.4971,451.25,-553.417,553.252,230.451,-1.0426e-08,1.04243e-08,4.34183e-09,599.322,-599.488,0.0669771,1.12923e-08,-1.1294e-08,1.26189e-12
0.199975,0.95,0.220986,0.01,52.6631,451.25,-546.374,546.212,240.578,-1.02933e-08,1.02917e-08,4.53263e-09,596.839,-597.001,0.0683129,1.12455e-08,-1.12471e-08,1.28705e-12
0.209975,0.95,0.223121,0.01,53.8836,451.25,-539.043,538.945,250.368,-1.01554e-08,1.01545e-08,4.71709e-09,594.256,-594.354,0.12056,1.11966e-08,-1.11975e-08,2.27143e-12
0.219975,0.95,0.225204,0.01,55.158,451.25,-532.899,531.504,260.931,-1.00341e-08,1.00199e-08,4.91609e-09,592.027,-593.422,-0.450954,1.11602e-08,-1.11744e-08,-8.49624e-12
0.229975,0.95,0.227709,0.01,56.4856,451.25,-528.428,524.643,270.756,-9.93943e-09,9.90103e-09,5.1012e-09,590.179,-593.964,0.0352065,1.11358e-08,-1.11742e-08,6.63312e-13
0.239975,0.95,0.229956,0.01,57.8655,451.25,-520.452,516.654,279.727,-9.7891e-09,9.75058e-09,5.27021e-09,587.291,-591.088,0.0951476,1.10814e-08,-1.11199e-08,1.79264e-12
0.249975,0.95,0.232435,0.01,59.2969,451.25,-510.974,509.287,288.202,-9.61971e-09,9.6026e-09,5.4299e-09,585.069,-586.756,0.201417,1.10304e-08,-1.10475e-08,3.79481e-12
0.259975,0.95,0.235239,0.01,60.7791,451.25,-504.222,500.326,297.947,-9.4829e-09,9.44338e-09,5.61349e-09,582.048,-585.944,-0.679954,1.09831e-08,-1.10226e-08,-1.28107e-11
0.269975,0.95,0.237694,0.01,62.3112,451.25,-503.84,491.982,308.42,-9.44107e-09,9.32077e-09,5.81081e-09,579.765,-591.623,-0.476516,1.09747e-08,-1.1095e-08,-8.97785e-12
0.279975,0.95,0.24054,0.01,63.8923,451.25,-495.88,485.613,314.489,-9.29803e-09,9.19387e-09,5.92515e-09,577.731,-587.999,1.91597,1.09294e-08,-1.10336e-08,3.6098e-11
0.289975,0.95,0.243487,0.01,65.5216,451.25,-478.633,479.118,322.883,-9.01983e-09,9.02476e-09,6.08331e-09,577.803,-577.317,-0.420039,1.0884e-08,-1.08791e-08,-7.91377e-12
-0.260025,0.96,0.244863,0.01,66.2695,460.8,-497.097,497.81,-290.423,-9.36869e-09,9.37593e-09,-5.47174e-09,576.382,-575.669,-0.338649,1.08563e-08,-1.0849e-08,-6.38034e-12
-0.250025,0.96,0.242096,0.01,64.8158,460.8,-506.467,504.493,-283.484,-9.53355e-09,9.51353e-09,-5.34101e-09,578.558,-580.532,0.897464,1.0909e-08,-1.0929e-08,1.69087e-11
-0.240025,0.96,0.239715,0.01,63.412,460.8,-523.413,508.55,-274.834,-9.79679e-09,9.64601e-09,-5.17804e-09,577.18,-592.043,-0.342657,1.0939e-08,-1.10898e-08,-6.45585e-12
-0.230025,0.96,0.237363,0.01,62.0588,460.8,-527.897,516.133,-266.13,-9.89474e-09,9.77539e-09,-5.01404e-09,580.057,-591.821,0.654087,1.09798e-08,-1.10991e-08,1.23234e-11
-0.220025,0.96,0.234959,0.01,60.7571,460.8,-527.133,523.699,-254.477,-9.91656e-09,9.88172e-09,-4.7945e-09,582.082,-585.515,0.253519,1.09817e-08,-1.10165e-08,4.77644e-12
-0.210025,0.96,0.232961,0.01,59.5075,460.8,-533.193,531.409,-244.074,-1.00379e-08,1.00198e-08,-4.59849e-09,584.699,-586.482,-0.493993,1.10238e-08,-1.10419e-08,-9.30712e-12
-0.200025,0.96,0.230736,0.01,58.3109,460.8,-540.744,537.576,-235.371,-1.01742e-08,1.0142e-08,-4.43452e-09,586.712,-589.88,0.45487,1.10678e-08,-1.10999e-08,8.57001e-12
-0.190025,0.96,0.228722,0.01,57.1679,460.8,-548.37,544.265,-224.93,-1.03138e-08,1.02721e-08,-4.2378e-09,588.757,-592.862,-0.156247,1.11104e-08,-1.1152e-08,-2.94378e-12
-0.180025,0.96,0.227045,0.01,56.0792,460.8,-554.334,550.695,-214.913,-1.04282e-08,1.03912e-08,-4.04909e-09,591.021,-594.66,0.129522,1.1151e-08,-1.11879e-08,2.44028e-12
-0.170025,0.96,0.225015,0.01,55.0455,460.8,-557.116,555.983,-203.945,-1.04915e-08,1.048e-08,-3.84244e-09,592.173,-593.307,0.39536,1.11618e-08,-1.11733e-08,7.4488e-12
-0.160025,0.96,0.223414,0.01,54.0673,460.8,-561.881,561.852,-192.474,-1.0586e-08,1.05857e-08,-3.62631e-09,593.904,-593.934,-0.187308,1.11896e-08,-1.11899e-08,-3.52899e-12
-0.150025,0.96,0.22184,0.01,53.1453,460.8,-567.612,567.436,-181.761,-1.06934e-08,1.06916e-08,-3.42449e-09,595.832,-596.008,-0.0567689,1.12266e-08,-1.12284e-08,-1.06956e-12
-0.140025,0.96,0.220229,0.01,52.28,460.8,-572.961,572.782,-170.693,-1.07941e-08,1.07923e-08,-3.21596e-09,597.671,-597.85,-0.054191,1.12613e-08,-1.12631e-08,-1.02099e-12
-0.130025,0.96,0.219063,0.01,51.472,460.8,-577.99,577.809,-159.417,-1.08889e-08,1.0887e-08,-3.0035e-09,599.394,-599.575,-0.0513834,1.12937e-08,-1.12956e-08,-9.68092e-13
-0.120025,0.96,0.217575,0.01,50.7217,460.8,-582.691,582.507,-147.943,-1.09774e-08,1.09756e-08,-2.78734e-09,600.998,-601.182,-0.0483556,1.13239e-08,-1.13258e-08,-9.11047e-13
-0.110025,0.96,0.216405,0.01,50.0297,460.8,-587.053,586.866,-136.286,-1.10596e-08,1.10577e-08,-2.56772e-09,602.481,-602.668,-0.0451187,1.13519e-08,-1.13538e-08,-8.50063e-13
-0.100025,0.96,0.215453,0.01,49.3963,460.8,-591.063,590.877,-124.461,-1.11352e-08,1.11333e-08,-2.34491e-09,603.841,-604.027,-0.0393632,1.13775e-08,-1.13794e-08,-7.41625e-13
-0.0900249,0.96,0.214278,0.01,48.8221,460.8,-594.412,594.425,-112.476,-1.11991e-08,1.11993e-08,-2.11912e-09,604.973,-604.959,0.00302563,1.1398e-08,-1.13978e-08,5.70046e-14
-0.0800249,0.96,0.213566,0.01,48.3072,460.8,-597.693,597.714,-100.345,-1.1261e-08,1.12612e-08,-1.89057e-09,606.079,-606.057,-5.71436e-06,1.14188e-08,-1.14186e-08,-1.07662e-16
-0.0700249,0.96,0.212683,0.01,47.8521,460.8,-600.613,600.635,-88.0908,-1.1316e-08,1.13162e-08,-1.65968e-09,607.06,-607.039,-5.0909e-06,1.14373e-08,-1.14371e-08,-9.59154e-17
-0.0600249,0.96,0.21197,0.01,47.4571,460.8,-603.157,603.179,-75.7233,-1.13639e-08,1.13641e-08,-1.42667e-09,607.914,-607.892,-4.43212e-06,1.14534e-08,-1.14531e-08,-8.35038e-17
-0.0500249,0.96,0.21162,0.01,47.1224,460.8,-605.319,605.342,-63.2584,-1.14047e-08,1.14049e-08,-1.19182e-09,608.638,-608.616,-3.74253e-06,1.1467e-08,-1.14668e-08,-7.05114e-17
-0.0400249,0.96,0.210906,0.01,46.8483,460.8,-607.095,607.117,-50.7118,-1.14381e-08,1.14383e-08,-9.55439e-10,609.232,-609.209,-3.02663e-06,1.14782e-08,-1.1478e-08,-5.70235e-17
-0.0300249,0.96,0.210664,0.01,46.6348,460.8,-608.48,608.503,-38.0995,-1.14642e-08,1.14644e-08,-7.17817e-10,609.694,-609.672,-2.28931e-06,1.14869e-08,-1.14867e-08,-4.31319e-17
-0.0200249,0.96,0.210373,0.01,46.4822,460.8,-609.472,609.495,-25.4378,-1.14829e-08,1.14831e-08,-4.79263e-10,610.025,-610.003,-1.53601e-06,1.14931e-08,-1.14929e-08,-2.89393e-17
-0.0100249,0.96,0.210133,0.01,46.3905,460.8,-610.068,610.091,-12.743,-1.14941e-08,1.14944e-08,-2.40085e-10,610.224,-610.202,-7.71981e-07,1.14969e-08,-1.14966e-08,-1.45446e-17
-2.48653e-05,0.96,0.210369,0.01,46.3599,460.8,-610.268,610.291,-0.0316141,-1.14979e-08,1.14981e-08,-5.95628e-13,610.291,-610.268,-2.07591e-09,1.14981e-08,-1.14979e-08,-3.91114e-20
0.00997513,0.96,0.210133,0.01,46.3902,460.8,-610.07,610.093,12.6798,-1.14942e-08,1.14944e-08,2.38895e-10,610.225,-610.202,7.67894e-07,1.14969e-08,-1.14967e-08,1.44676e-17
0.0199751,0.96,0.21037,0.01,46.4816,460.8,-609.476,609.499,25.3747,-1.1483e-08,1.14832e-08,4.78074e-10,610.027,-610.004,1.53228e-06,1.14932e-08,-1.14929e-08,2.8869e-17
0.0299751,0.96,0.210664,0.01,46.6339,460.8,-608.486,608.509,38.0366,-1.14643e-08,1.14646e-08,7.16632e-10,609.696,-609.674,2.2859e-06,1.14869e-08,-1.14867e-08,4.30677e-17
0.0399751,0.96,0.210903,0.01,46.8471,460.8,-607.103,607.125,50.6492,-1.14383e-08,1.14385e-08,9.5426e-10,609.234,-609.212,3.02295e-06,1.14782e-08,-1.1478e-08,5.69542e-17
0.0499751,0.96,0.211615,0.01,47.1209,460.8,-605.329,605.351,63.1962,-1.14048e-08,1.14051e-08,1.19065e-09,608.641,-608.619,3.73879e-06,1.14671e-08,-1.14668e-08,7.04411e-17
0.0599751,0.96,0.211968,0.01,47.4553,460.8,-603.169,603.191,75.6615,-1.13641e-08,1.13644e-08,1.42551e-09,607.918,-607.896,4.42899e-06,1.14534e-08,-1.14532e-08,8.34448e-17
0.0699751,0.96,0.212679,0.01,47.85,460.8,-600.627,600.648,88.0296,-1.13163e-08,1.13165e-08,1.65853e-09,607.065,-607.043,5.08813e-06,1.14374e-08,-1.14371e-08,9.58633e-17
0.0799751,0.96,0.213563,0.01,48.3048,460.8,-597.708,597.729,100.285,-1.12613e-08,1.12615e-08,1.88942e-09,606.084,-606.063,5.71167e-06,1.14189e-08,-1.14187e-08,1.07611e-16
0.0899751,0.96,0.214274,0.01,48.8193,460.8,-594.429,594.442,112.416,-1.11994e-08,1.11996e-08,2.11799e-09,604.979,-604.965,-0.003026,1.13981e-08,-1.1398e-08,-5.70116e-14
0.0999751,0.96,0.215446,0.01,49.3933,460.8,-591.082,590.896,124.402,-1.11355e-08,1.11336e-08,2.3438e-09,603.847,-604.033,0.0393448,1.13776e-08,-1.13795e-08,7.41279e-13
0.109975,0.96,0.2164,0.01,50.0264,460.8,-587.074,586.887,136.228,-1.106e-08,1.10581e-08,2.56662e-09,602.488,-602.675,0.0451021,1.1352e-08,-1.13539e-08,8.49751e-13
0.119975,0.96,0.217568,0.01,50.7181,460.8,-582.714,582.529,147.886,-1.09779e-08,1.0976e-08,2.78626e-09,601.005,-601.19,0.04834,1.13241e-08,-1.1326e-08,9.10754e-13
0.129975,0.96,0.219058,0.01,51.4681,460.8,-578.015,577.833,159.36,-1.08893e-08,1.08875e-08,3.00243e-09,599.402,-599.584,0.0513688,1.12939e-08,-1.12957e-08,9.67819e-13
0.139975,0.96,0.220222,0.01,52.2758,460.8,-572.986,572.808,170.638,-1.07946e-08,1.07928e-08,3.21491e-09,597.68,-597.859,0.0541776,1.12614e-08,-1.12632e-08,1.02074e-12
0.149975,0.96,0.221831,0.01,53.1408,460.8,-567.639,567.464,181.707,-1.06939e-08,1.06921e-08,3.42346e-09,595.842,-596.017,0.0567567,1.12268e-08,-1.12285e-08,1.06933e-12
0.159975,0.96,0.223407,0.01,54.0626,460.8,-561.91,561.881,192.42,-1.05866e-08,1.05863e-08,3.62531e-09,593.914,-593.944,0.187375,1.11898e-08,-1.11901e-08,3.53026e-12
0.169975,0.96,0.225006,0.01,55.0405,460.8,-557.146,556.013,203.893,-1.0492e-08,1.04805e-08,3.84146e-09,592.184,-593.317,-0.395291,1.1162e-08,-1.11735e-08,-7.44752e-12
0.179975,0.96,0.227034,0.01,56.0739,460.8,-554.366,550.727,214.862,-1.04287e-08,1.03918e-08,4.04813e-09,591.032,-594.671,-0.129674,1.11512e-08,-1.11881e-08,-2.44312e-12
0.189975,0.96,0.228713,0.01,57.1624,460.8,-548.403,544.298,224.88,-1.03144e-08,1.02727e-08,4.23686e-09,588.769,-592.874,0.156302,1.11106e-08,-1.11522e-08,2.94482e-12
0.199975,0.96,0.230725,0.01,58.3051,460.8,-540.779,537.61,235.322,-1.01748e-08,1.01427e-08,4.4336e-09,586.724,-589.893,-0.454754,1.1068e-08,-1.11001e-08,-8.56783e-12
0.209975,0.96,0.232952,0.01,59.5014,460.8,-533.229,531.445,244.026,-1.00386e-08,1.00205e-08,4.59759e-09,584.712,-586.495,0.494341,1.10241e-08,-1.10422e-08,9.31366e-12
0.219975,0.96,0.234948,0.01,60.7507,460.8,-527.169,523.736,254.431,-9.91725e-09,9.88242e-09,4.79362e-09,582.095,-585.528,-0.253,1.09819e-08,-1.10168e-08,-4.76666e-12
0.229975,0.96,0.23735,0.01,62.0522,460.8,-527.935,516.171,266.085,-9.89546e-09,9.77611e-09,5.0132e-09,580.07,-591.834,-0.654064,1.098e-08,-1.10994e-08,-1.2323e-11
0.239975,0.96,0.239704,0.01,63.4051,460.8,-523.453,508.59,274.791,-9.79754e-09,9.64675e-09,5.17722e-09,577.195,-592.058,0.342797,1.09393e-08,-1.10901e-08,6.4585e-12
0.249975,0.96,0.242083,0.01,64.8087,460.8,-506.508,504.534,283.442,-9.53432e-09,9.51429e-09,5.34021e-09,578.573,-580.547,-0.896891,1.09092e-08,-1.09293e-08,-1.68979e-11
0.259975,0.96,0.244848,0.01,66.2622,460.8,-497.138,497.852,290.382,-9.36948e-09,9.37672e-09,5.47096e-09,576.397,-575.684,0.339852,1.08566e-08,-1.08493e-08,6.40301e-12
-0.220025,0.97,0.244724,0.01,66.2974,470.45,-519.823,520.738,-247.337,-9.79775e-09,9.80703e-09,-4.65997e-09,576.535,-575.621,-1.34968,1.08583e-08,-1.0849e-08,-2.54288e-11
-0.210025,0.97,0.242805,0.01,65.0723,470.45,-528.332,525.839,-239.928,-9.94325e-09,9.91795e-09,-4.52038e-09,577.877,-580.37,0.410752,1.08984e-08,-1.09237e-08,7.73881e-12
-0.200025,0.97,0.240496,0.01,63.8992,470.45,-537.091,530.009,-232.211,-1.00883e-08,1.00165e-08,-4.37498e-09,578.346,-585.429,2.19488,1.09272e-08,-1.0999e-08,4.13528e-11
-0.190025,0.97,0.238565,0.01,62.7787,470.45,-550.603,535.068,-220.853,-1.03061e-08,1.01485e-08,-4.161e-09,578.276,-593.811,-0.296295,1.09626e-08,-1.11202e-08,-5.58237e-12
-0.180025,0.97,0.236801,0.01,61.7116,470.45,-552.422,541.519,-210.866,-1.03606e-08,1.02499e-08,-3.97285e-09,580.757,-591.661,0.556596,1.09892e-08,-1.10998e-08,1.04866e-11
-0.170025,0.97,0.234855,0.01,60.6983,470.45,-550.384,547.597,-198.209,-1.03574e-08,1.03292e-08,-3.73437e-09,582.282,-585.069,-0.328707,1.09826e-08,-1.10109e-08,-6.19302e-12
-0.160025,0.97,0.233322,0.01,59.7397,470.45,-555.458,553.594,-187.219,-1.0457e-08,1.04381e-08,-3.52731e-09,584.346,-586.209,-0.819223,1.10175e-08,-1.10364e-08,-1.54346e-11
-0.150025,0.97,0.231678,0.01,58.8361,470.45,-561.473,558.005,-177.727,-1.05634e-08,1.05282e-08,-3.34849e-09,585.543,-589.011,0.324466,1.10471e-08,-1.10822e-08,6.11312e-12
-0.140025,0.97,0.230136,0.01,57.9882,470.45,-566.7,563.156,-166.896,-1.06615e-08,1.06256e-08,-3.14442e-09,587.294,-590.837,0.310603,1.10804e-08,-1.11163e-08,5.85195e-12
-0.130025,0.97,0.229021,0.01,57.1964,470.45,-571.616,568.01,-155.857,-1.07539e-08,1.07173e-08,-2.93643e-09,588.941,-592.547,0.288212,1.11117e-08,-1.11482e-08,5.43008e-12
-0.120025,0.97,0.227482,0.01,56.4613,470.45,-576.21,572.546,-144.628,-1.08402e-08,1.0803e-08,-2.72487e-09,590.474,-594.139,0.265846,1.11408e-08,-1.1178e-08,5.00869e-12
-0.110025,0.97,0.226363,0.01,55.7833,470.45,-581.054,576.671,-132.816,-1.09283e-08,1.08839e-08,-2.50234e-09,591.712,-596.095,-0.20771,1.11673e-08,-1.12117e-08,-3.91338e-12
-0.100025,0.97,0.225359,0.01,55.1628,470.45,-583.527,580.294,-121.635,-1.09799e-08,1.09471e-08,-2.29168e-09,592.871,-596.103,0.327195,1.11841e-08,-1.12169e-08,6.16455e-12
-0.0900249,0.97,0.224236,0.01,54.6001,470.45,-583.501,582.835,-109.393,-1.09906e-08,1.09838e-08,-2.06103e-09,593.006,-593.673,0.202706,1.11755e-08,-1.11822e-08,3.8191e-12
-0.0800249,0.97,0.223555,0.01,54.0958,470.45,-585.863,585.942,-97.0488,-1.10383e-08,1.10391e-08,-1.82846e-09,593.925,-593.846,-0.283519,1.11895e-08,-1.11887e-08,-5.34166e-12
-0.0700249,0.97,0.22264,0.01,53.65,470.45,-588.806,588.617,-85.4147,-1.10926e-08,1.10907e-08,-1.60926e-09,594.781,-594.97,-0.0291416,1.12068e-08,-1.12088e-08,-5.49044e-13
-0.0600249,0.97,0.221959,0.01,53.2631,470.45,-591.25,591.06,-73.4187,-1.11387e-08,1.11367e-08,-1.38325e-09,595.601,-595.792,-0.025224,1.12223e-08,-1.12242e-08,-4.75236e-13
-0.0500249,0.97,0.221576,0.01,52.9352,470.45,-593.327,593.135,-61.3302,-1.11778e-08,1.11758e-08,-1.1555e-09,596.297,-596.489,-0.0211953,1.12354e-08,-1.12374e-08,-3.99331e-13
-0.0400249,0.97,0.220895,0.01,52.6666,470.45,-595.033,594.84,-49.164,-1.12099e-08,1.1208e-08,-9.26279e-10,596.868,-597.061,-0.0170727,1.12462e-08,-1.12481e-08,-3.21659e-13
-0.0300249,0.97,0.220664,0.01,52.4576,470.45,-596.364,596.17,-36.9355,-1.1235e-08,1.1233e-08,-6.95887e-10,597.313,-597.506,-0.0128742,1.12546e-08,-1.12565e-08,-2.42558e-13
-0.0200249,0.97,0.220362,0.01,52.3081,470.45,-597.316,597.122,-24.6601,-1.12529e-08,1.1251e-08,-4.6461e-10,597.631,-597.825,-0.00861848,1.12606e-08,-1.12625e-08,-1.62377e-13
-0.0100249,0.97,0.220133,0.01,52.2183,470.45,-597.889,597.694,-12.3532,-1.12637e-08,1.12618e-08,-2.32742e-10,597.822,-598.017,-0.00432426,1.12642e-08,-1.12661e-08,-8.14716e-14
-2.48653e-05,0.97,0.220358,0.01,52.1882,470.45,-598.081,597.886,-0.0306471,-1.12673e-08,1.12654e-08,-5.77408e-13,597.886,-598.081,-1.07341e-05,1.12654e-08,-1.12673e-08,-2.02236e-16
0.00997513,0.97,0.220133,0.01,52.218,470.45,-597.891,597.696,12.292,-1.12638e-08,1.12618e-08,2.31588e-10,597.823,-598.017,0.00430284,1.12642e-08,-1.12661e-08,8.10681e-14
0.0199751,0.97,0.22036,0.01,52.3075,470.45,-597.32,597.126,24.599,-1.1253e-08,1.1251e-08,4.63459e-10,597.632,-597.826,0.0085972,1.12606e-08,-1.12626e-08,1.61976e-13
0.0299751,0.97,0.220664,0.01,52.4567,470.45,-596.369,596.175,36.8746,-1.12351e-08,1.12331e-08,6.94739e-10,597.315,-597.508,0.0128532,1.12546e-08,-1.12566e-08,2.42162e-13
0.0399751,0.97,0.220892,0.01,52.6655,470.45,-595.041,594.848,49.1034,-1.12101e-08,1.12081e-08,9.25136e-10,596.87,-597.063,0.017052,1.12462e-08,-1.12482e-08,3.21269e-13
0.0499751,0.97,0.221572,0.01,52.9337,470.45,-593.337,593.145,61.2698,-1.1178e-08,1.1176e-08,1.15436e-09,596.3,-596.492,0.021175,1.12355e-08,-1.12374e-08,3.98949e-13
0.0599751,0.97,0.221957,0.01,53.2613,470.45,-591.262,591.071,73.3588,-1.11389e-08,1.11369e-08,1.38212e-09,595.605,-595.796,0.0252043,1.12224e-08,-1.12243e-08,4.74863e-13
0.0699751,0.97,0.222636,0.01,53.6479,470.45,-588.819,588.63,85.3553,-1.10929e-08,1.1091e-08,1.60814e-09,594.785,-594.975,0.0291224,1.12069e-08,-1.12088e-08,5.48683e-13
0.0799751,0.97,0.223553,0.01,54.0934,470.45,-585.877,585.957,96.9899,-1.10386e-08,1.10394e-08,1.82735e-09,593.93,-593.851,0.283576,1.11896e-08,-1.11888e-08,5.34273e-12
0.0899751,0.97,0.224231,0.01,54.5975,470.45,-583.517,582.851,109.335,-1.09909e-08,1.09842e-08,2.05993e-09,593.012,-593.678,-0.202553,1.11756e-08,-1.11823e-08,-3.81621e-12
0.0999751,0.97,0.225352,0.01,55.1598,470.45,-583.545,580.312,121.578,-1.09803e-08,1.09475e-08,2.29059e-09,592.877,-596.109,-0.327286,1.11842e-08,-1.1217e-08,-6.16625e-12
0.109975,0.97,0.226358,0.01,55.78,470.45,-581.074,576.691,132.759,-1.09287e-08,1.08842e-08,2.50126e-09,591.719,-596.102,0.207727,1.11674e-08,-1.12119e-08,3.9137e-12
0.119975,0.97,0.227475,0.01,56.4578,470.45,-576.232,572.567,144.572,-1.08406e-08,1.08034e-08,2.72381e-09,590.482,-594.146,-0.265735,1.1141e-08,-1.11781e-08,-5.0066e-12
0.129975,0.97,0.229016,0.01,57.1926,470.45,-571.64,568.034,155.801,-1.07543e-08,1.07178e-08,2.93538e-09,588.949,-592.555,-0.288101,1.11118e-08,-1.11484e-08,-5.42799e-12
0.139975,0.97,0.230129,0.01,57.9841,470.45,-566.725,563.181,166.842,-1.0662e-08,1.06261e-08,3.14339e-09,587.302,-590.846,-0.310492,1.10805e-08,-1.11165e-08,-5.84985e-12
0.149975,0.97,0.231669,0.01,58.8317,470.45,-561.499,558.031,177.674,-1.05639e-08,1.05287e-08,3.34748e-09,585.552,-589.02,-0.324354,1.10472e-08,-1.10824e-08,-6.11102e-12
0.159975,0.97,0.233315,0.01,59.735,470.45,-555.486,553.622,187.166,-1.04576e-08,1.04387e-08,3.52632e-09,584.355,-586.219,0.819535,1.10177e-08,-1.10366e-08,1.54405e-11
0.169975,0.97,0.234847,0.01,60.6934,470.45,-550.413,547.627,198.157,-1.0358e-08,1.03297e-08,3.73339e-09,582.292,-585.078,0.329297,1.09828e-08,-1.10111e-08,6.20415e-12
0.179975,0.97,0.236791,0.01,61.7064,470.45,-552.453,541.55,210.816,-1.03611e-08,1.02505e-08,3.97189e-09,580.768,-591.671,-0.556465,1.09894e-08,-1.11e-08,-1.04841e-11
0.189975,0.97,0.238556,0.01,62.7733,470.45,-550.636,535.1,220.804,-1.03068e-08,1.01491e-08,4.16007e-09,578.287,-593.823,0.296419,1.09628e-08,-1.11204e-08,5.58471e-12
0.199975,0.97,0.240486,0.01,63.8935,470.45,-537.126,530.042,232.162,-1.0089e-08,1.00171e-08,4.37407e-09,578.357,-585.441,-2.19444,1.09274e-08,-1.09992e-08,-4.13444e-11
0.209975,0.97,0.242797,0.01,65.0663,470.45,-528.368,525.874,239.881,-9.94391e-09,9.91861e-09,4.51949e-09,577.889,-580.383,-0.41017,1.08986e-08,-1.09239e-08,-7.72785e-12
0.219975,0.97,0.244713,0.01,66.2912,470.45,-519.86,520.775,247.291,-9.79843e-09,9.80772e-09,4.6591e-09,576.548,-575.633,1.3509,1.08585e-08,-1.08492e-08,2.54517e-11
-0.170025,0.98,0.244709,0.01,66.2967,480.2,-542.954,544.099,-191.749,-1.02345e-08,1.02462e-08,-3.61265e-09,576.925,-575.78,-2.54437,1.08646e-08,-1.0853e-08,-4.79375e-11
-0.160025,0.98,0.243238,0.01,65.3569,480.2,-550.29,547.113,-183.897,-1.0354e-08,1.03217e-08,-3.46472e-09,577.109,-580.287,-0.197289,1.08869e-08,-1.09191e-08,-3.71703e-12
-0.150025,0.98,0.24153,0.01,64.4713,480.2,-557.437,549.691,-175.302,-1.04688e-08,1.03902e-08,-3.3028e-09,576.783,-584.529,1.66838,1.09006e-08,-1.09792e-08,3.14333e-11
-0.140025,0.98,0.240051,0.01,63.6402,480.2,-562.758,554.423,-164.723,-1.05664e-08,1.04819e-08,-3.10348e-09,578.202,-586.537,1.69981,1.09299e-08,-1.10145e-08,3.20254e-11
-0.130025,0.98,0.238882,0.01,62.8642,480.2,-567.603,559.123,-153.82,-1.06571e-08,1.05711e-08,-2.89805e-09,579.742,-588.223,1.59156,1.09596e-08,-1.10456e-08,2.99859e-11
-0.120025,0.98,0.237396,0.01,62.1438,480.2,-572.195,563.493,-142.708,-1.07427e-08,1.06544e-08,-2.68871e-09,581.149,-589.851,1.45338,1.0987e-08,-1.10753e-08,2.73826e-11
-0.110025,0.98,0.236324,0.01,61.4793,480.2,-581.779,566.543,-130.067,-1.08948e-08,1.07402e-08,-2.45054e-09,581.09,-596.327,-0.488568,1.10143e-08,-1.11689e-08,-9.2049e-12
-0.100025,0.98,0.235272,0.01,60.8713,480.2,-579.465,570.444,-118.775,-1.08782e-08,1.07867e-08,-2.23779e-09,582.584,-591.605,0.169213,1.10154e-08,-1.1107e-08,3.18808e-12
-0.0900249,0.98,0.234197,0.01,60.32,480.2,-575.512,573.878,-105.139,-1.08359e-08,1.08193e-08,-1.98088e-09,583.415,-585.049,-1.32258,1.0999e-08,-1.10156e-08,-2.49182e-11
-0.0800249,0.98,0.233545,0.01,59.8258,480.2,-578.795,576.894,-93.756,-1.08966e-08,1.08773e-08,-1.76642e-09,584.45,-586.35,-1.23226,1.10196e-08,-1.10389e-08,-2.32164e-11
-0.0700249,0.98,0.232601,0.01,59.389,480.2,-582.115,578.345,-83.4871,-1.0951e-08,1.09127e-08,-1.57295e-09,584.32,-588.091,0.140697,1.10253e-08,-1.10636e-08,2.65082e-12
-0.0600249,0.98,0.231949,0.01,59.0099,480.2,-584.502,580.691,-71.7647,-1.09958e-08,1.09571e-08,-1.35209e-09,585.095,-588.905,0.127127,1.10401e-08,-1.10787e-08,2.39515e-12
-0.0500249,0.98,0.231537,0.01,58.6887,480.2,-586.531,582.694,-59.9464,-1.10339e-08,1.0995e-08,-1.12942e-09,585.76,-589.596,0.105894,1.10527e-08,-1.10917e-08,1.99511e-12
-0.0400249,0.98,0.230885,0.01,58.4255,480.2,-588.197,584.339,-48.0534,-1.10652e-08,1.10261e-08,-9.05353e-10,586.305,-590.163,0.0846897,1.10631e-08,-1.11022e-08,1.5956e-12
-0.0300249,0.98,0.230664,0.01,58.2207,480.2,-589.497,585.622,-36.1003,-1.10896e-08,1.10503e-08,-6.80151e-10,586.73,-590.605,0.0635088,1.10712e-08,-1.11105e-08,1.19654e-12
-0.0200249,0.98,0.230352,0.01,58.0742,480.2,-590.428,586.541,-24.1021,-1.11071e-08,1.10677e-08,-4.54097e-10,587.034,-590.921,0.0423462,1.1077e-08,-1.11164e-08,7.97828e-13
-0.0100249,0.98,0.230133,0.01,57.9863,480.2,-590.988,587.093,-12.0736,-1.11176e-08,1.10781e-08,-2.27473e-10,587.217,-591.111,0.0211962,1.10804e-08,-1.11199e-08,3.99349e-13
-2.48653e-05,0.98,0.230348,0.01,57.9568,480.2,-591.175,587.278,-0.0299531,-1.11211e-08,1.10816e-08,-5.64335e-13,587.278,-591.175,5.25715e-05,1.10816e-08,-1.11211e-08,9.90477e-16
0.00997513,0.98,0.230133,0.01,57.986,480.2,-590.989,587.095,12.0137,-1.11177e-08,1.10781e-08,2.26345e-10,587.217,-591.112,-0.0210911,1.10804e-08,-1.112e-08,-3.97368e-13
0.0199751,0.98,0.23035,0.01,58.0737,480.2,-590.432,586.544,24.0423,-1.11072e-08,1.10677e-08,4.52971e-10,587.035,-590.923,-0.042241,1.1077e-08,-1.11164e-08,-7.95845e-13
0.0299751,0.98,0.230664,0.01,58.2198,480.2,-589.503,585.628,36.0407,-1.10897e-08,1.10504e-08,6.79029e-10,586.732,-590.607,-0.0634035,1.10712e-08,-1.11105e-08,-1.19456e-12
0.0399751,0.98,0.230883,0.01,58.4244,480.2,-588.205,584.346,47.9941,-1.10653e-08,1.10262e-08,9.04236e-10,586.308,-590.166,-0.0845843,1.10632e-08,-1.11023e-08,-1.59362e-12
0.0499751,0.98,0.231533,0.01,58.6872,480.2,-586.54,582.703,59.8874,-1.10341e-08,1.09952e-08,1.12831e-09,585.763,-589.6,-0.105789,1.10528e-08,-1.10917e-08,-1.99312e-12
0.0599751,0.98,0.231947,0.01,59.0081,480.2,-584.513,580.702,71.7062,-1.0996e-08,1.09573e-08,1.35099e-09,585.098,-588.909,-0.127021,1.10402e-08,-1.10788e-08,-2.39316e-12
0.0699751,0.98,0.232597,0.01,59.387,480.2,-582.128,578.357,83.429,-1.09512e-08,1.0913e-08,1.57185e-09,584.325,-588.095,-0.140592,1.10254e-08,-1.10637e-08,-2.64883e-12
0.0799751,0.98,0.233543,0.01,59.8235,480.2,-578.809,576.909,93.6983,-1.08968e-08,1.08776e-08,1.76533e-09,584.455,-586.355,1.23248,1.10197e-08,-1.1039e-08,2.32207e-11
0.0899751,0.98,0.234192,0.01,60.3174,480.2,-575.528,573.895,105.081,-1.08362e-08,1.08196e-08,1.9798e-09,583.421,-585.054,1.32322,1.09991e-08,-1.10157e-08,2.49302e-11
0.0999751,0.98,0.235266,0.01,60.8684,480.2,-579.482,570.462,118.718,-1.08786e-08,1.07871e-08,2.23672e-09,582.59,-591.61,-0.168882,1.10156e-08,-1.11071e-08,-3.18184e-12
0.109975,0.98,0.236319,0.01,61.4762,480.2,-581.798,566.562,130.011,-1.08952e-08,1.07406e-08,2.44948e-09,581.097,-596.333,0.488701,1.10144e-08,-1.1169e-08,9.20741e-12
0.119975,0.98,0.237389,0.01,62.1403,480.2,-572.217,563.514,142.653,-1.07431e-08,1.06548e-08,2.68766e-09,581.156,-589.859,-1.45283,1.09872e-08,-1.10754e-08,-2.73721e-11
0.129975,0.98,0.238874,0.01,62.8605,480.2,-567.627,559.145,153.765,-1.06575e-08,1.05715e-08,2.89702e-09,579.75,-588.231,-1.59102,1.09597e-08,-1.10457e-08,-2.99757e-11
0.139975,0.98,0.240045,0.01,63.6362,480.2,-562.783,554.448,164.669,-1.05669e-08,1.04824e-08,3.10247e-09,578.21,-586.545,-1.69928,1.09301e-08,-1.10146e-08,-3.20154e-11
0.149975,0.98,0.241521,0.01,64.467,480.2,-557.463,549.717,175.25,-1.04693e-08,1.03907e-08,3.3018e-09,576.792,-584.538,-1.66788,1.09008e-08,-1.09794e-08,-3.14238e-11
0.159975,0.98,0.243231,0.01,65.3524,480.2,-550.318,547.14,183.845,-1.03545e-08,1.03223e-08,3.46374e-09,577.118,-580.297,0.197861,1.08871e-08,-1.09193e-08,3.72782e-12
0.169975,0.98,0.2447,0.01,66.2919,480.2,-542.982,544.128,191.697,-1.02351e-08,1.02467e-08,3.61169e-09,576.935,-575.79,2.54555,1.08648e-08,-1.08532e-08,4.79595e-11
-0.0900249,0.99,0.244161,0.01,65.9827,490.05,-568.245,569.702,-100.057,-1.07124e-08,1.07272e-08,-1.88514e-09,578.417,-576.961,-4.21358,1.08914e-08,-1.08766e-08,-7.93863e-11
-0.0800249,0.99,0.243536,0.01,65.4984,490.05,-573.392,569.292,-91.8847,-1.07852e-08,1.07436e-08,-1.73116e-09,576.632,-580.733,-1.07552,1.08819e-08,-1.09235e-08,-2.02633e-11
-0.0700249,0.99,0.242565,0.01,65.0703,490.05,-577.77,569.23,-82.293,-1.08484e-08,1.07618e-08,-1.55045e-09,575.104,-583.644,0.747705,1.08724e-08,-1.09591e-08,1.40872e-11
-0.0600249,0.99,0.24194,0.01,64.6988,490.05,-580.257,571.298,-70.8186,-1.08934e-08,1.08025e-08,-1.33426e-09,575.636,-584.596,0.735458,1.08843e-08,-1.09752e-08,1.38565e-11
-0.0500249,0.99,0.241501,0.01,64.384,490.05,-582.257,573.236,-59.1549,-1.09308e-08,1.08393e-08,-1.11451e-09,576.256,-585.277,0.615015,1.08962e-08,-1.09877e-08,1.15872e-11
-0.0400249,0.99,0.240876,0.01,64.1262,490.05,-583.899,574.827,-47.4181,-1.09616e-08,1.08695e-08,-8.93384e-10,576.764,-585.836,0.493443,1.0906e-08,-1.09981e-08,9.29674e-12
-0.0300249,0.99,0.240664,0.01,63.9254,490.05,-585.18,576.069,-35.6226,-1.09855e-08,1.08931e-08,-6.7115e-10,577.16,-586.272,0.370961,1.09136e-08,-1.10061e-08,6.98912e-12
-0.0200249,0.99,0.240343,0.01,63.7819,490.05,-586.097,576.957,-23.7829,-1.10027e-08,1.09099e-08,-4.48083e-10,577.443,-586.583,0.247793,1.09191e-08,-1.10118e-08,4.66856e-12
-0.0100249,0.99,0.240133,0.01,63.6957,490.05,-586.648,577.492,-11.9136,-1.1013e-08,1.09201e-08,-2.2446e-10,577.614,-586.77,0.124166,1.09224e-08,-1.10153e-08,2.33935e-12
-2.48653e-05,0.99,0.240339,0.01,63.6669,490.05,-586.833,577.67,-0.0295563,-1.10164e-08,1.09235e-08,-5.56857e-13,577.67,-586.833,0.000308072,1.09235e-08,-1.10164e-08,5.80425e-15
0.00997513,0.99,0.240133,0.01,63.6954,490.05,-586.65,577.493,11.8546,-1.1013e-08,1.09201e-08,2.23347e-10,577.614,-586.771,-0.12355,1.09224e-08,-1.10153e-08,-2.32776e-12
0.0199751,0.99,0.240341,0.01,63.7813,490.05,-586.101,576.961,23.7239,-1.10027e-08,1.091e-08,4.46972e-10,577.445,-586.584,-0.247179,1.09191e-08,-1.10119e-08,-4.657e-12
0.0299751,0.99,0.240664,0.01,63.9246,490.05,-585.185,576.074,35.5638,-1.09856e-08,1.08932e-08,6.70043e-10,577.162,-586.274,-0.37035,1.09137e-08,-1.10061e-08,-6.9776e-12
0.0399751,0.99,0.240873,0.01,64.125,490.05,-583.906,574.834,47.3596,-1.09617e-08,1.08697e-08,8.92282e-10,576.766,-585.839,-0.492835,1.09061e-08,-1.09981e-08,-9.28531e-12
0.0499751,0.99,0.241497,0.01,64.3826,490.05,-582.266,573.245,59.0967,-1.0931e-08,1.08395e-08,1.11342e-09,576.259,-585.28,-0.614413,1.08963e-08,-1.09878e-08,-1.15759e-11
0.0599751,0.99,0.241938,0.01,64.6971,490.05,-580.268,571.308,70.7608,-1.08936e-08,1.08027e-08,1.33318e-09,575.639,-584.6,-0.734862,1.08843e-08,-1.09752e-08,-1.38452e-11
0.0699751,0.99,0.242561,0.01,65.0683,490.05,-577.783,569.242,82.2357,-1.08486e-08,1.0762e-08,1.54937e-09,575.108,-583.648,-0.747136,1.08725e-08,-1.09591e-08,-1.40765e-11
0.0799751,0.99,0.243533,0.01,65.4961,490.05,-573.407,569.306,91.8279,-1.07855e-08,1.07439e-08,1.73009e-09,576.637,-580.738,1.07603,1.0882e-08,-1.09236e-08,2.02731e-11
0.0899751,0.99,0.244157,0.01,65.9802,490.05,-568.261,569.718,100.001,-1.07127e-08,1.07275e-08,1.88407e-09,578.423,-576.967,4.21455,1.08915e-08,-1.08767e-08,7.94045e-11
