x,y,R,s,phi,phi_an,sigma_xx,sigma_yy,tau_xy,epsilon_xx,epsilon_yy,epsilon_xy,sigma_rr,sigma_tt,tau_rt,epsilon_rr,epsilon_tt,epsilon_rt
-0.300000,-1.300000,0.834588,0.040000,-146.209066,1295.000000,-629.622799,630.380785,307.710559,-0.000000,0.000000,0.000000,701.512197,-700.754211,-0.525560,0.000000,-0.000000,-0.000000
-0.260000,-1.300000,0.826323,0.040000,-154.115171,1183.000000,-654.729345,655.600686,273.467661,-0.000000,0.000000,0.000000,710.383247,-709.511906,-0.445143,0.000000,-0.000000,-0.000000
-0.220000,-1.300000,0.819205,0.040000,-160.972194,1087.000000,-676.972918,677.720788,236.330578,-0.000000,0.000000,0.000000,717.765608,-717.017739,-0.297904,0.000000,-0.000000,-0.000000
-0.180000,-1.300000,0.812799,0.040000,-166.744207,1007.000000,-696.355819,697.349511,196.895766,-0.000000,0.000000,0.000000,724.631888,-723.638196,-0.143622,0.000000,-0.000000,-0.000000
-0.140000,-1.300000,0.808323,0.040000,-171.400245,943.000000,-712.226110,713.270426,155.397232,-0.000000,0.000000,0.000000,730.014027,-728.969711,-0.079063,0.000000,-0.000000,-0.000000
-0.100000,-1.300000,0.804354,0.040000,-174.914845,895.000000,-724.386266,725.469898,112.196615,-0.000000,0.000000,0.000000,734.100814,-733.017183,-0.005301,0.000000,-0.000000,-0.000000
-0.060000,-1.300000,0.801853,0.040000,-177.268493,863.000000,-732.614517,733.725009,67.746132,-0.000000,0.000000,0.000000,736.848282,-735.737790,0.075228,0.000000,-0.000000,0.000000
-0.020000,-1.300000,0.801054,0.040000,-178.447989,847.000000,-736.758194,737.882291,22.532392,-0.000000,0.000000,0.000000,738.226486,-737.102389,0.159680,0.000000,-0.000000,0.000000
0.020000,-1.300000,0.800557,0.040000,-178.446681,847.000000,-736.739616,737.863652,-22.936641,-0.000000,0.000000,-0.000000,738.220292,-737.096256,0.244950,0.000000,-0.000000,0.000000
0.060000,-1.300000,0.802058,0.040000,-177.264601,863.000000,-732.559134,733.669444,-68.145807,-0.000000,0.000000,-0.000000,736.829767,-735.719457,0.327857,0.000000,-0.000000,0.000000
0.100000,-1.300000,0.804443,0.040000,-174.908456,895.000000,-724.295112,725.378447,-112.587272,-0.000000,0.000000,-0.000000,734.070185,-732.986850,0.405326,0.000000,-0.000000,0.000000
0.140000,-1.300000,0.807937,0.040000,-171.391507,943.000000,-712.100864,713.144777,-155.774675,-0.000000,0.000000,-0.000000,729.971618,-728.927705,0.474562,0.000000,-0.000000,0.000000
0.180000,-1.300000,0.813385,0.040000,-166.733320,1007.000000,-696.198742,697.191937,-197.256163,-0.000000,0.000000,-0.000000,724.578157,-723.584962,0.533208,0.000000,-0.000000,0.000000
0.220000,-1.300000,0.818931,0.040000,-160.959410,1087.000000,-676.786665,677.533736,-236.670516,-0.000000,0.000000,-0.000000,717.700802,-716.953731,0.680329,0.000000,-0.000000,0.000000
0.260000,-1.300000,0.826277,0.040000,-154.100789,1183.000000,-654.517336,655.388038,-273.784137,-0.000000,0.000000,-0.000000,710.308654,-709.437951,0.818939,0.000000,-0.000000,0.000000
0.300000,-1.300000,0.834963,0.040000,-146.193426,1295.000000,-629.388313,630.145582,-308.001357,-0.000000,0.000000,-0.000000,701.428170,-700.670901,0.889861,0.000000,-0.000000,0.000000
-0.420000,-1.260000,0.828773,0.040000,-151.850100,1675.800000,-565.707514,566.240040,425.036605,-0.000000,0.000000,0.000000,708.067247,-707.534721,-0.445018,0.000000,-0.000000,-0.000000
-0.380000,-1.260000,0.816461,0.040000,-163.279805,1515.800000,-599.779281,600.206964,398.745785,-0.000000,0.000000,0.000000,720.623217,-720.195533,-0.529158,0.000000,-0.000000,-0.000000
-0.340000,-1.260000,0.805949,0.040000,-173.748301,1371.800000,-632.328377,632.554766,368.673816,-0.000000,0.000000,0.000000,732.166810,-731.940421,-0.476702,0.000000,-0.000000,-0.000000
-0.300000,-1.260000,0.795709,0.040000,-183.203051,1243.800000,-663.240143,663.789883,335.286604,-0.000000,0.000000,0.000000,743.692106,-743.142367,-0.302735,0.000000,-0.000000,-0.000000
-0.260000,-1.260000,0.787036,0.040000,-191.594786,1131.800000,-691.704168,692.342095,298.440465,-0.000000,0.000000,0.000000,753.951970,-753.314043,-0.130469,0.000000,-0.000000,-0.000000
-0.220000,-1.260000,0.779922,0.040000,-198.878283,1035.800000,-716.921635,717.119437,258.947495,-0.000000,0.000000,0.000000,762.445172,-762.247370,-0.645354,0.000000,-0.000000,-0.000000
-0.180000,-1.260000,0.773191,0.040000,-205.013124,955.800000,-738.879447,739.667106,215.786173,-0.000000,0.000000,0.000000,770.516304,-769.728645,-0.158208,0.000000,-0.000000,-0.000000
-0.140000,-1.260000,0.768485,0.040000,-209.964400,891.800000,-756.822207,757.655584,170.467740,-0.000000,0.000000,0.000000,776.606090,-775.772714,-0.086818,0.000000,-0.000000,-0.000000
-0.100000,-1.260000,0.764515,0.040000,-213.703352,843.800000,-770.589611,771.458640,123.166194,-0.000000,0.000000,0.000000,781.234178,-780.365148,-0.005576,0.000000,-0.000000,-0.000000
-0.060000,-1.260000,0.761883,0.040000,-216.207913,811.800000,-779.914833,780.808294,74.405784,-0.000000,0.000000,0.000000,784.347479,-783.454018,0.082897,0.000000,-0.000000,0.000000
-0.020000,-1.260000,0.761083,0.040000,-217.463135,795.800000,-784.613797,785.519656,24.753413,-0.000000,0.000000,0.000000,785.909781,-785.003923,0.175532,0.000000,-0.000000,0.000000
0.020000,-1.260000,0.760561,0.040000,-217.461489,795.800000,-784.592726,785.498529,-25.197482,-0.000000,0.000000,-0.000000,785.902759,-784.996956,0.268982,0.000000,-0.000000,0.000000
0.060000,-1.260000,0.762140,0.040000,-216.203007,811.800000,-779.852040,780.745337,-74.844505,-0.000000,0.000000,-0.000000,784.326495,-783.433198,0.359813,0.000000,-0.000000,0.000000
0.100000,-1.260000,0.764526,0.040000,-213.695288,843.800000,-770.486346,771.355107,-123.594380,-0.000000,0.000000,-0.000000,781.199479,-780.330718,0.444712,0.000000,-0.000000,0.000000
0.140000,-1.260000,0.768201,0.040000,-209.953343,891.800000,-756.680494,757.513506,-170.880516,-0.000000,0.000000,-0.000000,776.558082,-775.725070,0.520674,0.000000,-0.000000,0.000000
0.180000,-1.260000,0.773752,0.040000,-204.999301,955.800000,-738.702001,739.489212,-216.179108,-0.000000,0.000000,-0.000000,770.455538,-769.668327,0.585174,0.000000,-0.000000,0.000000
0.220000,-1.260000,0.779473,0.040000,-198.861979,1035.800000,-716.711763,716.909093,-259.316680,-0.000000,0.000000,-0.000000,762.372368,-762.175038,1.063895,0.000000,-0.000000,0.000000
0.260000,-1.260000,0.787187,0.040000,-191.576336,1131.800000,-691.465445,692.102602,-298.782842,-0.000000,0.000000,-0.000000,753.867535,-753.230378,0.539528,0.000000,-0.000000,0.000000
0.300000,-1.260000,0.795866,0.040000,-183.182838,1243.800000,-662.976906,663.525840,-335.599566,-0.000000,0.000000,-0.000000,743.597386,-743.048452,0.700925,0.000000,-0.000000,0.000000
0.340000,-1.260000,0.805473,0.040000,-173.726748,1371.800000,-632.044860,632.270263,-368.955365,-0.000000,0.000000,-0.000000,732.062494,-731.837091,0.862904,0.000000,-0.000000,0.000000
0.380000,-1.260000,0.816927,0.040000,-163.257365,1515.800000,-599.480111,599.906955,-398.994659,-0.000000,0.000000,-0.000000,720.510761,-720.083918,0.902174,0.000000,-0.000000,0.000000
0.420000,-1.260000,0.828658,0.040000,-151.827254,1675.800000,-565.396617,565.927889,-425.252066,-0.000000,0.000000,-0.000000,707.946678,-707.415406,0.804301,0.000000,-0.000000,0.000000
-0.540000,-1.220000,0.835166,0.040000,-146.215321,2202.200000,-471.387527,471.297122,519.371209,-0.000000,0.000000,0.000000,701.317718,-701.408123,-0.304953,0.000000,-0.000000,-0.000000
-0.500000,-1.220000,0.818929,0.040000,-160.980329,1994.200000,-511.129122,511.268317,504.298981,-0.000000,0.000000,0.000000,718.151311,-718.012116,-0.495525,0.000000,-0.000000,-0.000000
-0.460000,-1.220000,0.804356,0.040000,-174.926344,1802.200000,-550.636633,550.512708,484.960916,-0.000000,0.000000,0.000000,733.640315,-733.764240,-0.725345,0.000000,-0.000000,-0.000000
-0.420000,-1.220000,0.791119,0.040000,-187.989479,1626.200000,-590.127361,590.403783,461.748053,-0.000000,0.000000,0.000000,749.554258,-749.277836,-0.546184,0.000000,-0.000000,-0.000000
-0.380000,-1.220000,0.778212,0.040000,-200.106715,1466.200000,-628.700960,628.926140,434.067070,-0.000000,0.000000,0.000000,764.194167,-763.968987,-0.214489,0.000000,-0.000000,-0.000000
-0.340000,-1.220000,0.767175,0.040000,-211.216720,1322.200000,-666.024333,665.568435,402.724709,-0.000000,0.000000,0.000000,777.892808,-778.348706,-0.321572,0.000000,-0.000000,-0.000000
-0.300000,-1.220000,0.756947,0.040000,-221.260726,1194.200000,-700.133116,700.645930,366.873993,-0.000000,0.000000,0.000000,790.915601,-790.402787,-0.222669,0.000000,-0.000000,-0.000000
-0.260000,-1.220000,0.747824,0.040000,-230.183439,1082.200000,-731.461684,732.552932,326.660495,-0.000000,0.000000,0.000000,802.132643,-801.041395,0.171083,0.000000,-0.000000,0.000000
-0.220000,-1.220000,0.740716,0.040000,-237.933950,986.200000,-759.989158,761.174366,283.324016,-0.000000,0.000000,0.000000,812.231118,-811.045911,0.191116,0.000000,-0.000000,0.000000
-0.180000,-1.220000,0.733625,0.040000,-244.466634,906.200000,-784.609076,785.886040,236.664044,-0.000000,0.000000,0.000000,820.774787,-819.497823,0.195870,0.000000,-0.000000,0.000000
-0.140000,-1.220000,0.728663,0.040000,-249.741998,842.200000,-804.931052,806.285370,187.151816,-0.000000,0.000000,0.000000,827.738433,-826.384114,0.203699,0.000000,-0.000000,0.000000
-0.100000,-1.220000,0.724694,0.040000,-253.727441,794.200000,-820.547599,821.962345,135.325748,-0.000000,0.000000,0.000000,833.037080,-831.622334,0.213980,0.000000,-0.000000,0.000000
-0.060000,-1.220000,0.721917,0.040000,-256.397909,762.200000,-831.136860,832.593067,81.794197,-0.000000,0.000000,0.000000,836.604623,-835.148417,0.225876,0.000000,-0.000000,0.000000
-0.020000,-1.220000,0.721116,0.040000,-257.736417,746.200000,-836.476285,837.953545,27.218537,-0.000000,0.000000,0.000000,838.395842,-836.918583,0.238383,0.000000,-0.000000,0.000000
0.020000,-1.220000,0.720564,0.040000,-257.734397,746.200000,-836.452337,837.929501,-27.706797,-0.000000,0.000000,-0.000000,838.387816,-836.910651,0.250401,0.000000,-0.000000,0.000000
0.060000,-1.220000,0.722232,0.040000,-256.391889,762.200000,-831.065525,832.521451,-82.276194,-0.000000,0.000000,-0.000000,836.580648,-835.124722,0.260809,0.000000,-0.000000,0.000000
0.100000,-1.220000,0.724618,0.040000,-253.717534,794.200000,-820.430388,821.844678,-135.795419,-0.000000,0.000000,-0.000000,832.997462,-831.583172,0.268546,0.000000,-0.000000,0.000000
0.140000,-1.220000,0.728495,0.040000,-249.728394,842.200000,-804.770410,806.124111,-187.603487,-0.000000,0.000000,-0.000000,827.683673,-826.329972,0.272690,0.000000,-0.000000,0.000000
0.180000,-1.220000,0.734045,0.040000,-244.449590,906.200000,-784.408274,785.684481,-237.092593,-0.000000,0.000000,-0.000000,820.705563,-819.429356,0.272518,0.000000,-0.000000,0.000000
0.220000,-1.220000,0.740073,0.040000,-237.913787,986.200000,-759.752159,760.936494,-283.725007,-0.000000,0.000000,-0.000000,812.148267,-810.963932,0.267553,0.000000,-0.000000,0.000000
0.260000,-1.220000,0.748193,0.040000,-230.160538,1082.200000,-731.193051,732.283209,-327.030425,-0.000000,0.000000,-0.000000,802.037133,-800.946976,0.276451,0.000000,-0.000000,0.000000
0.300000,-1.220000,0.756864,0.040000,-221.235518,1194.200000,-699.838049,700.349526,-367.209967,-0.000000,0.000000,-0.000000,790.808734,-790.297257,0.657480,0.000000,-0.000000,0.000000
0.340000,-1.220000,0.766960,0.040000,-211.189679,1322.200000,-665.706970,665.250263,-403.024405,-0.000000,0.000000,-0.000000,777.775444,-778.232151,0.742421,0.000000,-0.000000,0.000000
0.380000,-1.220000,0.778739,0.040000,-200.078350,1466.200000,-628.366491,628.590809,-434.330291,-0.000000,0.000000,-0.000000,764.067544,-763.843225,0.621330,0.000000,-0.000000,0.000000
0.420000,-1.220000,0.790684,0.040000,-187.960326,1626.200000,-589.781363,590.056913,-461.973823,-0.000000,0.000000,-0.000000,749.419780,-749.144230,0.937363,0.000000,-0.000000,0.000000
0.460000,-1.220000,0.804442,0.040000,-174.896957,1802.200000,-550.283689,550.158872,-485.149557,-0.000000,0.000000,-0.000000,733.498999,-733.623816,1.100346,0.000000,-0.000000,0.000000
0.500000,-1.220000,0.819208,0.040000,-160.951275,1994.200000,-510.773724,510.912106,-504.451342,-0.000000,0.000000,-0.000000,718.004363,-717.865982,0.853765,0.000000,-0.000000,0.000000
0.540000,-1.220000,0.834562,0.040000,-146.187170,2202.200000,-471.033276,470.941458,-519.488516,-0.000000,0.000000,-0.000000,701.165187,-701.257004,0.646574,0.000000,-0.000000,0.000000
-0.620000,-1.180000,0.833642,0.040000,-147.340968,2618.200000,-398.458176,397.982982,578.847488,-0.000000,0.000000,0.000000,702.360325,-702.835519,-0.451326,0.000000,-0.000000,-0.000000
-0.580000,-1.180000,0.815234,0.040000,-164.440432,2378.200000,-440.799696,440.713482,572.053749,-0.000000,0.000000,0.000000,722.114534,-722.200748,-0.451840,0.000000,-0.000000,-0.000000
-0.540000,-1.180000,0.798407,0.040000,-180.833550,2154.200000,-483.918996,483.529378,561.372493,-0.000000,0.000000,0.000000,740.836479,-741.226098,-0.891173,0.000000,-0.000000,-0.000000
-0.500000,-1.180000,0.782174,0.040000,-196.450748,1946.200000,-528.336040,528.257495,546.199677,-0.000000,0.000000,0.000000,759.849820,-759.928365,-0.358211,0.000000,-0.000000,-0.000000
-0.460000,-1.180000,0.766902,0.040000,-211.221492,1754.200000,-573.299507,572.531859,526.916838,-0.000000,0.000000,0.000000,777.995077,-778.762726,-0.140983,0.000000,-0.000000,-0.000000
-0.420000,-1.180000,0.753446,0.040000,-225.075036,1578.200000,-616.810078,616.854635,502.920072,-0.000000,0.000000,0.000000,795.893340,-795.848782,-0.093432,0.000000,-0.000000,-0.000000
-0.380000,-1.180000,0.740147,0.040000,-237.941282,1418.200000,-658.951219,659.684116,473.590300,-0.000000,0.000000,0.000000,812.146921,-811.414025,0.153169,0.000000,-0.000000,0.000000
-0.340000,-1.180000,0.728534,0.040000,-249.751715,1274.200000,-699.988360,700.992420,440.071329,-0.000000,0.000000,0.000000,827.756251,-826.752191,0.126270,0.000000,-0.000000,0.000000
-0.300000,-1.180000,0.718321,0.040000,-260.440428,1146.200000,-739.332862,740.103937,401.794993,-0.000000,0.000000,0.000000,842.182690,-841.411614,0.285232,0.000000,-0.000000,0.000000
-0.260000,-1.180000,0.708701,0.040000,-269.945176,1034.200000,-776.110413,776.319561,359.242134,-0.000000,0.000000,0.000000,855.420045,-855.210898,0.247628,0.000000,-0.000000,0.000000
-0.220000,-1.180000,0.701235,0.040000,-278.208466,938.200000,-808.444806,808.690582,312.084885,-0.000000,0.000000,0.000000,866.828505,-866.582729,0.254207,0.000000,-0.000000,0.000000
-0.180000,-1.180000,0.694109,0.040000,-285.178617,858.200000,-836.508116,836.787213,261.057178,-0.000000,0.000000,0.000000,876.569864,-876.290766,0.259802,0.000000,-0.000000,0.000000
-0.140000,-1.180000,0.688863,0.040000,-290.810779,794.200000,-859.723013,860.030749,206.679866,-0.000000,0.000000,0.000000,884.520731,-884.212994,0.264307,0.000000,-0.000000,0.000000
-0.100000,-1.180000,0.684893,0.040000,-295.067851,746.200000,-877.593417,877.923862,149.577334,-0.000000,0.000000,0.000000,890.577226,-890.246782,0.267636,0.000000,-0.000000,0.000000
-0.060000,-1.180000,0.681954,0.040000,-297.921276,714.200000,-889.726064,890.072253,90.461673,-0.000000,0.000000,0.000000,894.658284,-894.312095,0.269734,0.000000,-0.000000,0.000000
-0.020000,-1.180000,0.681152,0.040000,-299.351665,698.200000,-895.848309,896.202544,30.111740,-0.000000,0.000000,0.000000,896.708326,-896.354091,0.270576,0.000000,-0.000000,0.000000
0.020000,-1.180000,0.680569,0.040000,-299.349234,698.200000,-895.820842,896.175041,-30.651858,-0.000000,0.000000,-0.000000,896.699143,-896.344944,0.270164,0.000000,-0.000000,0.000000
0.060000,-1.180000,0.682333,0.040000,-297.914027,714.200000,-889.644291,889.990374,-90.994384,-0.000000,0.000000,-0.000000,894.630861,-894.284778,0.268529,0.000000,-0.000000,0.000000
0.100000,-1.180000,0.684721,0.040000,-295.055915,746.200000,-877.459192,877.789464,-150.095483,-0.000000,0.000000,-0.000000,890.531939,-890.201667,0.265726,0.000000,-0.000000,0.000000
0.140000,-1.180000,0.688822,0.040000,-290.794369,794.200000,-859.539325,859.846831,-207.176788,-0.000000,0.000000,-0.000000,884.458192,-884.150686,0.261828,0.000000,-0.000000,0.000000
0.180000,-1.180000,0.694372,0.040000,-285.158028,858.200000,-836.278957,836.557777,-261.526901,-0.000000,0.000000,-0.000000,876.490902,-876.212082,0.256922,0.000000,-0.000000,0.000000
0.220000,-1.180000,0.700741,0.040000,-278.184063,938.200000,-808.174989,808.420452,-312.522299,-0.000000,0.000000,-0.000000,866.734138,-866.488675,0.251106,0.000000,-0.000000,0.000000
0.260000,-1.180000,0.709312,0.040000,-269.917392,1034.200000,-775.805370,776.014181,-359.643103,-0.000000,0.000000,-0.000000,855.311446,-855.102635,0.244482,0.000000,-0.000000,0.000000
0.300000,-1.180000,0.717972,0.040000,-260.409749,1146.200000,-738.998503,739.769182,-402.156434,-0.000000,0.000000,-0.000000,842.061184,-841.290504,0.192107,0.000000,-0.000000,0.000000
0.340000,-1.180000,0.728607,0.040000,-249.718676,1274.200000,-699.631199,700.634476,-440.391189,-0.000000,0.000000,-0.000000,827.623321,-826.620044,0.334802,0.000000,-0.000000,0.000000
0.380000,-1.180000,0.740366,0.040000,-237.906455,1418.200000,-658.577395,659.308952,-473.867485,-0.000000,0.000000,-0.000000,812.003884,-811.272327,0.290462,0.000000,-0.000000,0.000000
0.420000,-1.180000,0.752919,0.040000,-225.039021,1578.200000,-616.424898,616.468145,-503.154483,-0.000000,0.000000,-0.000000,795.741724,-795.698477,0.518906,0.000000,-0.000000,0.000000
0.460000,-1.180000,0.767355,0.040000,-211.184907,1754.200000,-572.907677,572.139507,-527.109068,-0.000000,0.000000,-0.000000,777.836278,-778.604448,0.547865,0.000000,-0.000000,0.000000
0.500000,-1.180000,0.782072,0.040000,-196.414222,1946.200000,-527.943007,527.863704,-546.352063,-0.000000,0.000000,-0.000000,759.685280,-759.764583,0.746857,0.000000,-0.000000,0.000000
0.540000,-1.180000,0.798140,0.040000,-180.797712,2154.200000,-483.529621,483.139301,-561.486334,-0.000000,0.000000,-0.000000,740.667524,-741.057843,1.260523,0.000000,-0.000000,0.000000
0.580000,-1.180000,0.815855,0.040000,-164.405906,2378.200000,-440.417571,440.330638,-572.131468,-0.000000,0.000000,-0.000000,721.942077,-722.029010,0.802149,0.000000,-0.000000,0.000000
0.620000,-1.180000,0.833433,0.040000,-147.308367,2618.200000,-398.086605,397.610620,-578.891891,-0.000000,0.000000,-0.000000,702.185474,-702.661460,0.782832,0.000000,-0.000000,0.000000
-0.700000,-1.140000,0.838231,0.040000,-142.860837,3099.800000,-315.534280,314.963089,622.607387,-0.000000,0.000000,0.000000,697.583608,-698.154798,-0.517456,0.000000,-0.000000,-0.000000
-0.660000,-1.140000,0.817724,0.040000,-162.135463,2827.800000,-358.086900,357.467159,624.107580,-0.000000,0.000000,0.000000,719.074892,-719.694633,-0.487595,0.000000,-0.000000,-0.000000
-0.620000,-1.140000,0.798695,0.040000,-180.836205,2571.800000,-402.479694,401.745066,622.625463,-0.000000,0.000000,0.000000,740.818318,-741.552946,-0.831807,0.000000,-0.000000,-0.000000
-0.580000,-1.140000,0.779530,0.040000,-198.891623,2331.800000,-449.818942,449.005522,616.621841,-0.000000,0.000000,0.000000,762.609540,-763.422959,0.227738,0.000000,-0.000000,0.000000
-0.540000,-1.140000,0.761915,0.040000,-216.227535,2107.800000,-497.464098,496.612507,607.473789,-0.000000,0.000000,0.000000,784.476378,-785.327969,-0.238827,0.000000,-0.000000,-0.000000
-0.500000,-1.140000,0.745752,0.040000,-232.767584,1899.800000,-545.463994,545.740047,592.290877,-0.000000,0.000000,0.000000,805.426798,-805.150745,0.205085,0.000000,-0.000000,0.000000
-0.460000,-1.140000,0.729718,0.040000,-248.433944,1707.800000,-594.079722,594.837629,572.989134,-0.000000,0.000000,0.000000,826.028796,-825.270889,0.037111,0.000000,-0.000000,0.000000
-0.420000,-1.140000,0.715564,0.040000,-263.148155,1531.800000,-643.160161,643.815519,548.405930,-0.000000,0.000000,0.000000,845.801297,-845.145939,0.158818,0.000000,-0.000000,0.000000
-0.380000,-1.140000,0.702297,0.040000,-276.832092,1371.800000,-691.955220,692.047923,518.695604,-0.000000,0.000000,0.000000,864.864971,-864.772268,0.244459,0.000000,-0.000000,0.000000
-0.340000,-1.140000,0.690048,0.040000,-289.409042,1227.800000,-738.322798,738.460545,483.142580,-0.000000,0.000000,0.000000,882.479747,-882.342000,0.254670,0.000000,-0.000000,0.000000
-0.300000,-1.140000,0.679854,0.040000,-300.804886,1099.800000,-782.290765,782.474830,442.115276,-0.000000,0.000000,0.000000,898.751417,-898.567352,0.264246,0.000000,-0.000000,0.000000
-0.260000,-1.140000,0.669682,0.040000,-310.949343,987.800000,-823.055902,823.286040,395.781247,-0.000000,0.000000,0.000000,913.489674,-913.259536,0.273007,0.000000,-0.000000,0.000000
-0.220000,-1.140000,0.661775,0.040000,-319.777261,891.800000,-859.819579,860.093846,344.449968,-0.000000,0.000000,0.000000,926.512462,-926.238195,0.280777,0.000000,-0.000000,0.000000
-0.180000,-1.140000,0.654652,0.040000,-327.229884,811.800000,-891.817161,892.131824,288.576011,-0.000000,0.000000,0.000000,937.651079,-937.336416,0.287395,0.000000,-0.000000,0.000000
-0.140000,-1.140000,0.649087,0.040000,-333.256078,747.800000,-918.348927,918.698487,228.755160,-0.000000,0.000000,0.000000,946.755277,-946.405717,0.292724,0.000000,-0.000000,0.000000
-0.100000,-1.140000,0.645117,0.040000,-337.813444,699.800000,-938.810570,939.187910,165.712876,-0.000000,0.000000,0.000000,953.698105,-953.320765,0.296657,0.000000,-0.000000,0.000000
-0.060000,-1.140000,0.641995,0.040000,-340.869286,667.800000,-952.721129,953.117786,100.285159,-0.000000,0.000000,0.000000,958.380209,-957.983552,0.299122,0.000000,-0.000000,0.000000
-0.020000,-1.140000,0.641193,0.040000,-342.401376,651.800000,-959.746220,960.152765,33.392534,-0.000000,0.000000,0.000000,960.733334,-960.326789,0.300089,0.000000,-0.000000,0.000000
0.020000,-1.140000,0.640573,0.040000,-342.398489,651.800000,-959.714694,960.121195,-33.991451,-0.000000,0.000000,-0.000000,960.722791,-960.316291,0.299565,0.000000,-0.000000,0.000000
0.060000,-1.140000,0.642448,0.040000,-340.860676,667.800000,-952.627324,953.023849,-100.875278,-0.000000,0.000000,-0.000000,958.348737,-957.952211,0.297591,0.000000,-0.000000,0.000000
0.100000,-1.140000,0.644836,0.040000,-337.799261,699.800000,-938.656759,939.033888,-166.285724,-0.000000,0.000000,-0.000000,953.646165,-953.269037,0.294239,0.000000,-0.000000,0.000000
0.140000,-1.140000,0.649189,0.040000,-333.236568,747.800000,-918.138775,918.488053,-229.302880,-0.000000,0.000000,-0.000000,946.683622,-946.334343,0.289604,0.000000,-0.000000,0.000000
0.180000,-1.140000,0.654738,0.040000,-327.205383,811.800000,-891.555540,891.869866,-289.091626,-0.000000,0.000000,-0.000000,937.560722,-937.246397,0.283795,0.000000,-0.000000,0.000000
0.220000,-1.140000,0.661489,0.040000,-319.748186,891.800000,-859.512340,859.786228,-344.927582,-0.000000,0.000000,-0.000000,926.404644,-926.130756,0.276936,0.000000,-0.000000,0.000000
0.260000,-1.140000,0.670180,0.040000,-310.916186,987.800000,-822.709608,822.939342,-396.216181,-0.000000,0.000000,-0.000000,913.365822,-913.136088,0.269153,0.000000,-0.000000,0.000000
0.300000,-1.140000,0.679209,0.040000,-300.768199,1099.800000,-781.912419,782.096071,-442.504134,-0.000000,0.000000,-0.000000,898.613100,-898.429448,0.260576,0.000000,-0.000000,0.000000
0.340000,-1.140000,0.690440,0.040000,-289.369432,1227.800000,-737.919570,738.056908,-483.483256,-0.000000,0.000000,-0.000000,882.328629,-882.191291,0.251337,0.000000,-0.000000,0.000000
0.380000,-1.140000,0.702174,0.040000,-276.790202,1371.800000,-691.534196,691.626507,-518.987220,-0.000000,0.000000,-0.000000,864.702769,-864.610458,0.241565,0.000000,-0.000000,0.000000
0.420000,-1.140000,0.715398,0.040000,-263.104659,1531.800000,-642.728476,643.383218,-548.648859,-0.000000,0.000000,-0.000000,845.629861,-844.975119,0.306314,0.000000,-0.000000,0.000000
0.460000,-1.140000,0.730191,0.040000,-248.389531,1707.800000,-593.643934,594.400858,-573.184494,-0.000000,0.000000,-0.000000,825.849786,-825.092862,0.406327,0.000000,-0.000000,0.000000
0.500000,-1.140000,0.745232,0.040000,-232.722954,1899.800000,-545.029685,545.304441,-592.440673,-0.000000,0.000000,-0.000000,805.241738,-804.966982,0.216365,0.000000,-0.000000,0.000000
0.540000,-1.140000,0.762078,0.040000,-216.183384,2107.800000,-497.035833,496.183661,-607.580281,-0.000000,0.000000,-0.000000,784.287003,-785.139175,0.637885,0.000000,-0.000000,0.000000
0.580000,-1.140000,0.779744,0.040000,-198.848638,2331.800000,-449.400238,448.586233,-616.689183,-0.000000,0.000000,-0.000000,762.416995,-763.231000,0.150591,0.000000,-0.000000,0.000000
0.620000,-1.140000,0.798086,0.040000,-180.795057,2571.800000,-402.075253,401.340248,-622.656706,-0.000000,0.000000,-0.000000,740.624453,-741.359458,1.188445,0.000000,-0.000000,0.000000
0.660000,-1.140000,0.817974,0.040000,-162.096801,2827.800000,-357.699027,357.078604,-624.105993,-0.000000,0.000000,-0.000000,718.879874,-719.500296,0.823472,0.000000,-0.000000,0.000000
0.700000,-1.140000,0.838423,0.040000,-142.825282,3099.800000,-315.165340,314.593885,-622.577106,-0.000000,0.000000,-0.000000,697.389505,-697.960960,0.832904,0.000000,-0.000000,0.000000
-0.740000,-1.100000,0.826375,0.040000,-154.128447,3343.000000,-267.638888,266.949329,658.392966,-0.000000,0.000000,0.000000,710.237473,-710.927032,-0.548869,0.000000,-0.000000,-0.000000
-0.700000,-1.100000,0.804597,0.040000,-174.934010,3055.000000,-311.008025,310.102501,665.427923,-0.000000,0.000000,0.000000,733.875938,-734.781463,-0.501765,0.000000,-0.000000,-0.000000
-0.660000,-1.100000,0.783210,0.040000,-195.241156,2783.000000,-357.583660,356.157936,669.257334,-0.000000,0.000000,0.000000,757.747514,-759.173238,-0.058629,0.000000,-0.000000,-0.000000
-0.620000,-1.100000,0.763321,0.040000,-214.976304,2527.000000,-406.315832,405.241965,670.240455,-0.000000,0.000000,0.000000,782.967231,-784.041097,0.082726,0.000000,-0.000000,0.000000
-0.580000,-1.100000,0.744264,0.040000,-234.061955,2287.000000,-455.707884,456.038712,666.041517,-0.000000,0.000000,0.000000,807.278637,-806.947810,-0.103170,0.000000,-0.000000,-0.000000
-0.540000,-1.100000,0.725794,0.040000,-252.417135,2063.000000,-508.159363,508.619746,657.550809,-0.000000,0.000000,0.000000,831.393836,-830.933453,0.048034,0.000000,-0.000000,0.000000
-0.500000,-1.100000,0.709101,0.040000,-269.958000,1855.000000,-562.627363,562.583825,644.302236,-0.000000,0.000000,0.000000,855.343867,-855.387406,0.230142,0.000000,-0.000000,0.000000
-0.460000,-1.100000,0.692848,0.040000,-286.598596,1663.000000,-617.127183,617.122780,625.185343,-0.000000,0.000000,0.000000,878.462309,-878.466713,0.242990,0.000000,-0.000000,0.000000
-0.420000,-1.100000,0.677924,0.040000,-302.251782,1487.000000,-671.693239,671.733470,600.143744,-0.000000,0.000000,0.000000,900.781615,-900.741384,0.255745,0.000000,-0.000000,0.000000
-0.380000,-1.100000,0.664699,0.040000,-316.830321,1327.000000,-725.550185,725.639803,568.913409,-0.000000,0.000000,0.000000,922.080867,-921.991248,0.268227,0.000000,-0.000000,0.000000
-0.340000,-1.100000,0.651743,0.040000,-330.248116,1183.000000,-777.840713,777.983334,531.347516,-0.000000,0.000000,0.000000,942.131404,-941.988783,0.280230,0.000000,-0.000000,0.000000
-0.300000,-1.100000,0.641026,0.040000,-342.421583,1055.000000,-827.645281,827.843003,487.439410,-0.000000,0.000000,0.000000,960.701515,-960.503793,0.291534,0.000000,-0.000000,0.000000
-0.260000,-1.100000,0.630785,0.040000,-353.271118,943.000000,-874.008471,874.261528,437.341995,-0.000000,0.000000,0.000000,977.561911,-977.308854,0.301914,0.000000,-0.000000,0.000000
-0.220000,-1.100000,0.622384,0.040000,-362.722624,847.000000,-915.971279,916.277773,381.381479,-0.000000,0.000000,0.000000,992.491840,-992.185345,0.311145,0.000000,-0.000000,0.000000
-0.180000,-1.100000,0.615265,0.040000,-370.709042,767.000000,-952.607997,952.963748,320.063565,-0.000000,0.000000,0.000000,1005.285583,-1004.929831,0.319020,0.000000,-0.000000,0.000000
-0.140000,-1.100000,0.609341,0.040000,-377.171827,703.000000,-983.065653,983.464198,254.070506,-0.000000,0.000000,0.000000,1015.759034,-1015.360489,0.325363,0.000000,-0.000000,0.000000
-0.100000,-1.100000,0.605370,0.040000,-382.062312,655.000000,-1006.603422,1007.036185,184.248094,-0.000000,0.000000,0.000000,1023.756008,-1023.323245,0.330036,0.000000,-0.000000,0.000000
-0.060000,-1.100000,0.602043,0.040000,-385.342888,623.000000,-1022.629094,1023.085726,111.582488,-0.000000,0.000000,0.000000,1029.153882,-1028.697251,0.332947,0.000000,-0.000000,0.000000
-0.020000,-1.100000,0.601240,0.040000,-386.987951,607.000000,-1030.729647,1031.198520,37.167719,-0.000000,0.000000,0.000000,1031.868223,-1031.399350,0.334060,0.000000,-0.000000,0.000000
0.020000,-1.100000,0.600578,0.040000,-386.984558,607.000000,-1030.693284,1031.162102,-37.834284,-0.000000,0.000000,-0.000000,1031.856059,-1031.387242,0.333387,0.000000,-0.000000,0.000000
0.060000,-1.100000,0.602578,0.040000,-385.332768,623.000000,-1022.520961,1022.977430,-112.238543,-0.000000,0.000000,-0.000000,1029.117586,-1028.661117,0.330986,0.000000,-0.000000,0.000000
0.100000,-1.100000,0.604966,0.040000,-382.045636,655.000000,-1006.426331,1006.858833,-184.883540,-0.000000,0.000000,-0.000000,1023.696151,-1023.263649,0.326951,0.000000,-0.000000,0.000000
0.140000,-1.100000,0.609604,0.040000,-377.148879,703.000000,-982.824125,983.222325,-254.676036,-0.000000,0.000000,-0.000000,1015.676544,-1015.278345,0.321405,0.000000,-0.000000,0.000000
0.180000,-1.100000,0.615152,0.040000,-370.680208,767.000000,-952.308020,952.663358,-320.630992,-0.000000,0.000000,-0.000000,1005.181710,-1004.826372,0.314491,0.000000,-0.000000,0.000000
0.220000,-1.100000,0.622333,0.040000,-362.688384,847.000000,-915.620006,915.926040,-381.903984,-0.000000,0.000000,-0.000000,992.368109,-992.062074,0.306361,0.000000,-0.000000,0.000000
0.260000,-1.100000,0.631016,0.040000,-353.232033,943.000000,-873.613878,873.866448,-437.814287,-0.000000,0.000000,-0.000000,977.420066,-977.167496,0.297173,0.000000,-0.000000,0.000000
0.300000,-1.100000,0.640598,0.040000,-342.378283,1055.000000,-827.215813,827.413041,-487.857797,-0.000000,0.000000,-0.000000,960.543464,-960.346236,0.287085,0.000000,-0.000000,0.000000
0.340000,-1.100000,0.652387,0.040000,-330.201287,1183.000000,-777.384940,777.527078,-531.709888,-0.000000,0.000000,-0.000000,941.959159,-941.817022,0.276258,0.000000,-0.000000,0.000000
0.380000,-1.100000,0.664195,0.040000,-316.780693,1327.000000,-725.076493,725.165653,-569.219149,-0.000000,0.000000,-0.000000,921.896488,-921.807327,0.264846,0.000000,-0.000000,0.000000
0.420000,-1.100000,0.678160,0.040000,-302.200111,1487.000000,-671.209564,671.249376,-600.393571,-0.000000,0.000000,-0.000000,900.587159,-900.547347,0.253004,0.000000,-0.000000,0.000000
0.460000,-1.100000,0.692902,0.040000,-286.545656,1663.000000,-616.640811,616.636035,-625.381126,-0.000000,0.000000,-0.000000,878.259782,-878.264558,0.240878,0.000000,-0.000000,0.000000
0.500000,-1.100000,0.708735,0.040000,-269.904568,1855.000000,-562.144783,562.100922,-644.446775,-0.000000,0.000000,-0.000000,855.135187,-855.179048,0.228607,0.000000,-0.000000,0.000000
0.540000,-1.100000,0.726428,0.040000,-252.363983,2063.000000,-507.686720,508.146434,-657.647834,-0.000000,0.000000,-0.000000,831.180983,-830.721269,0.385507,0.000000,-0.000000,0.000000
0.580000,-1.100000,0.743997,0.040000,-234.009840,2287.000000,-455.249897,455.579730,-666.094900,-0.000000,0.000000,-0.000000,807.063179,-806.733346,0.511641,0.000000,-0.000000,0.000000
0.620000,-1.100000,0.763199,0.040000,-214.925960,2527.000000,-405.875722,404.801606,-670.253775,-0.000000,0.000000,-0.000000,782.750543,-783.824659,0.300790,0.000000,-0.000000,0.000000
0.660000,-1.100000,0.783741,0.040000,-195.193288,2783.000000,-357.163730,355.737947,-669.236236,-0.000000,0.000000,-0.000000,757.531241,-758.957024,0.419254,0.000000,-0.000000,0.000000
0.700000,-1.100000,0.804275,0.040000,-174.889291,3055.000000,-310.611244,309.705353,-665.376064,-0.000000,0.000000,-0.000000,733.660651,-734.566542,0.839404,0.000000,-0.000000,0.000000
0.740000,-1.100000,0.826237,0.040000,-154.087513,3343.000000,-267.266528,266.576839,-658.314886,-0.000000,0.000000,-0.000000,710.024726,-710.714415,0.864406,0.000000,-0.000000,0.000000
-0.780000,-1.060000,0.816580,0.040000,-163.291616,3603.800000,-214.619725,213.468234,688.206374,-0.000000,0.000000,0.000000,720.147995,-721.299486,-0.358429,0.000000,-0.000000,-0.000000
-0.740000,-1.060000,0.793164,0.040000,-185.604649,3299.800000,-258.389316,257.201130,701.166126,-0.000000,0.000000,0.000000,746.461596,-747.649782,0.333567,0.000000,-0.000000,0.000000
-0.700000,-1.060000,0.771112,0.040000,-207.504890,3011.800000,-304.619081,302.977772,711.738236,-0.000000,0.000000,0.000000,773.042896,-774.684205,-0.074666,0.000000,-0.000000,-0.000000
-0.660000,-1.060000,0.749242,0.040000,-228.918188,2739.800000,-353.099938,352.893056,718.682081,-0.000000,0.000000,0.000000,800.590221,-800.797103,-0.346699,0.000000,-0.000000,-0.000000
-0.620000,-1.060000,0.728426,0.040000,-249.765320,2483.800000,-405.593060,405.902839,721.473414,-0.000000,0.000000,0.000000,827.895964,-827.586185,0.001298,0.000000,-0.000000,0.000000
-0.580000,-1.060000,0.709257,0.040000,-269.962274,2243.800000,-461.457640,461.322515,720.277086,-0.000000,0.000000,0.000000,855.315297,-855.450422,0.221313,0.000000,-0.000000,0.000000
-0.540000,-1.060000,0.690100,0.040000,-289.420693,2019.800000,-519.041999,518.935985,713.707873,-0.000000,0.000000,0.000000,882.402911,-882.508925,0.235760,0.000000,-0.000000,0.000000
-0.500000,-1.060000,0.672522,0.040000,-308.048483,1811.800000,-578.457333,578.387800,701.446666,-0.000000,0.000000,0.000000,909.140699,-909.210232,0.250519,0.000000,-0.000000,0.000000
-0.460000,-1.060000,0.656345,0.040000,-325.750637,1619.800000,-639.068656,639.043046,682.952684,-0.000000,0.000000,0.000000,935.303548,-935.329157,0.265442,0.000000,-0.000000,0.000000
-0.420000,-1.060000,0.640571,0.040000,-342.430243,1443.800000,-700.112203,700.137645,657.756318,-0.000000,0.000000,0.000000,960.646993,-960.621551,0.280344,0.000000,-0.000000,0.000000
-0.380000,-1.060000,0.626956,0.040000,-357.989708,1283.800000,-760.701012,760.783863,625.490234,-0.000000,0.000000,0.000000,984.910454,-984.827602,0.295008,0.000000,-0.000000,0.000000
-0.340000,-1.060000,0.613656,0.040000,-372.332179,1139.800000,-819.838438,819.983777,585.921412,-0.000000,0.000000,0.000000,1007.821661,-1007.676322,0.309186,0.000000,-0.000000,0.000000
-0.300000,-1.060000,0.602261,0.040000,-385.363129,1011.800000,-876.440447,876.651547,538.981951,-0.000000,0.000000,0.000000,1029.102306,-1028.891206,0.322602,0.000000,-0.000000,0.000000
-0.260000,-1.060000,0.592036,0.040000,-396.992096,899.800000,-929.366898,929.644747,484.796015,-0.000000,0.000000,0.000000,1048.474814,-1048.196965,0.334971,0.000000,-0.000000,0.000000
-0.220000,-1.060000,0.583077,0.040000,-407.134498,803.800000,-977.461189,977.804091,423.700097,-0.000000,0.000000,0.000000,1065.670034,-1065.327132,0.346006,0.000000,-0.000000,0.000000
-0.180000,-1.060000,0.575963,0.040000,-415.713483,723.800000,-1019.596667,1019.999998,356.253809,-0.000000,0.000000,0.000000,1080.435571,-1080.032240,0.355439,0.000000,-0.000000,0.000000
-0.140000,-1.060000,0.569630,0.040000,-422.661725,659.800000,-1054.727200,1055.183365,283.238861,-0.000000,0.000000,0.000000,1092.544322,-1092.088158,0.363038,0.000000,-0.000000,0.000000
-0.100000,-1.060000,0.565659,0.040000,-427.923097,611.800000,-1081.938474,1082.437093,205.644700,-0.000000,0.000000,0.000000,1101.802761,-1101.304142,0.368624,0.000000,-0.000000,0.000000
-0.060000,-1.060000,0.562097,0.040000,-431.454124,579.800000,-1100.496013,1101.024350,124.640432,-0.000000,0.000000,0.000000,1108.058407,-1107.530070,0.372082,0.000000,-0.000000,0.000000
-0.020000,-1.060000,0.561293,0.040000,-433.225159,563.800000,-1109.885775,1110.429386,41.534028,-0.000000,0.000000,0.000000,1111.206002,-1110.662392,0.373364,0.000000,-0.000000,0.000000
0.020000,-1.060000,0.560584,0.040000,-433.221201,563.800000,-1109.843611,1110.387153,-42.278822,-0.000000,0.000000,-0.000000,1111.191895,-1110.648353,0.372492,0.000000,-0.000000,0.000000
0.060000,-1.060000,0.562726,0.040000,-431.442319,579.800000,-1100.370712,1100.898847,-125.372586,-0.000000,0.000000,-0.000000,1108.016326,-1107.488192,0.369546,0.000000,-0.000000,0.000000
0.100000,-1.060000,0.565115,0.040000,-427.903645,611.800000,-1081.733545,1082.231839,-206.352104,-0.000000,0.000000,-0.000000,1101.733420,-1101.235126,0.364654,0.000000,-0.000000,0.000000
0.140000,-1.060000,0.570077,0.040000,-422.634953,659.800000,-1054.448258,1054.903994,-283.910430,-0.000000,0.000000,-0.000000,1092.448878,-1091.993142,0.357978,0.000000,-0.000000,0.000000
0.180000,-1.060000,0.575624,0.040000,-415.679836,723.800000,-1019.251123,1019.653945,-356.879894,-0.000000,0.000000,-0.000000,1080.315575,-1079.912752,0.349701,0.000000,-0.000000,0.000000
0.220000,-1.060000,0.583291,0.040000,-407.094529,803.800000,-977.057846,977.400185,-424.272795,-0.000000,0.000000,-0.000000,1065.527371,-1065.185033,0.340014,0.000000,-0.000000,0.000000
0.260000,-1.060000,0.591965,0.040000,-396.946450,899.800000,-928.915504,929.192762,-485.309354,-0.000000,0.000000,-0.000000,1048.311631,-1048.034373,0.329113,0.000000,-0.000000,0.000000
0.300000,-1.060000,0.602168,0.040000,-385.312527,1011.800000,-875.951235,876.161742,-539.431961,-0.000000,0.000000,-0.000000,1028.920937,-1028.710430,0.317195,0.000000,-0.000000,0.000000
0.340000,-1.060000,0.613935,0.040000,-372.277402,1139.800000,-819.321692,819.466457,-586.306076,-0.000000,0.000000,-0.000000,1007.624550,-1007.479785,0.304451,0.000000,-0.000000,0.000000
0.380000,-1.060000,0.626468,0.040000,-357.931583,1283.800000,-760.166678,760.248994,-625.809344,-0.000000,0.000000,-0.000000,984.700086,-984.617770,0.291070,0.000000,-0.000000,0.000000
0.420000,-1.060000,0.641255,0.040000,-342.369623,1443.800000,-699.569576,699.594535,-658.011264,-0.000000,0.000000,-0.000000,960.425827,-960.400869,0.277237,0.000000,-0.000000,0.000000
0.460000,-1.060000,0.655933,0.040000,-325.688390,1619.800000,-638.526139,638.500107,-683.146190,-0.000000,0.000000,-0.000000,935.073961,-935.099994,0.263127,0.000000,-0.000000,0.000000
0.500000,-1.060000,0.672636,0.040000,-307.985477,1811.800000,-577.922280,577.852390,-701.582507,-0.000000,0.000000,-0.000000,908.904945,-908.974836,0.248910,0.000000,-0.000000,0.000000
0.540000,-1.060000,0.690306,0.040000,-289.357782,2019.800000,-518.520632,518.414327,-713.790593,-0.000000,0.000000,-0.000000,882.163081,-882.269386,0.234739,0.000000,-0.000000,0.000000
0.580000,-1.060000,0.708705,0.040000,-269.900294,2243.800000,-460.955031,460.819679,-720.311728,-0.000000,0.000000,-0.000000,855.073301,-855.208653,0.220754,0.000000,-0.000000,0.000000
0.620000,-1.060000,0.728837,0.040000,-249.705072,2483.800000,-405.113798,405.422941,-721.465536,-0.000000,0.000000,-0.000000,827.653695,-827.344553,0.412851,0.000000,-0.000000,0.000000
0.660000,-1.060000,0.749237,0.040000,-228.860442,2739.800000,-352.646936,352.439681,-718.636563,-0.000000,0.000000,-0.000000,800.349217,-800.556471,0.733298,0.000000,-0.000000,0.000000
0.700000,-1.060000,0.770691,0.040000,-207.450372,3011.800000,-304.193357,302.552011,-711.660570,-0.000000,0.000000,-0.000000,772.804276,-774.445622,0.435718,0.000000,-0.000000,0.000000
0.740000,-1.060000,0.793583,0.040000,-185.554041,3299.800000,-257.991830,256.803730,-701.061350,-0.000000,0.000000,-0.000000,746.226299,-747.414399,0.003411,0.000000,-0.000000,0.000000
0.780000,-1.060000,0.816641,0.040000,-163.245554,3603.800000,-214.251860,213.100350,-688.079071,-0.000000,0.000000,-0.000000,719.917017,-721.068527,0.671785,0.000000,-0.000000,0.000000
-0.860000,-1.020000,0.834570,0.040000,-146.223663,4218.200000,-119.096691,118.254086,691.804340,-0.000000,0.000000,0.000000,701.488299,-702.330904,0.061436,0.000000,-0.000000,0.000000
-0.820000,-1.020000,0.809278,0.040000,-170.253728,3882.200000,-156.945888,155.715894,711.945156,-0.000000,0.000000,0.000000,728.291837,-729.521830,-0.283456,0.000000,-0.000000,-0.000000
-0.780000,-1.020000,0.784995,0.040000,-194.032400,3562.200000,-199.169080,197.504635,730.769976,-0.000000,0.000000,0.000000,756.374660,-758.039105,-0.060057,0.000000,-0.000000,-0.000000
-0.740000,-1.020000,0.760606,0.040000,-217.492772,3258.200000,-244.532389,243.599660,747.888982,-0.000000,0.000000,0.000000,786.239520,-787.172248,-0.074068,0.000000,-0.000000,-0.000000
-0.700000,-1.020000,0.737582,0.040000,-240.561866,2970.200000,-293.225300,293.017339,761.433081,-0.000000,0.000000,0.000000,815.800628,-816.008589,-0.336856,0.000000,-0.000000,-0.000000
-0.660000,-1.020000,0.715897,0.040000,-263.160583,2698.200000,-347.000070,346.790131,771.746862,-0.000000,0.000000,0.000000,846.021136,-846.231075,0.208036,0.000000,-0.000000,0.000000
-0.620000,-1.020000,0.694082,0.040000,-285.203782,2442.200000,-403.862831,403.667478,777.993755,-0.000000,0.000000,0.000000,876.429866,-876.625219,0.223374,0.000000,-0.000000,0.000000
-0.580000,-1.020000,0.673937,0.040000,-306.600504,2202.200000,-464.110911,463.937690,779.409021,-0.000000,0.000000,0.000000,906.994927,-907.168148,0.239397,0.000000,-0.000000,0.000000
-0.540000,-1.020000,0.654904,0.040000,-327.254386,1978.200000,-527.357509,527.214844,775.263677,-0.000000,0.000000,0.000000,937.513019,-937.655684,0.256014,0.000000,-0.000000,0.000000
-0.500000,-1.020000,0.636354,0.040000,-347.064280,1770.200000,-593.069664,592.966630,764.835658,-0.000000,0.000000,0.000000,967.752199,-967.855232,0.273099,0.000000,-0.000000,0.000000
-0.460000,-1.020000,0.619834,0.040000,-365.925107,1578.200000,-660.557150,660.503128,747.439427,-0.000000,0.000000,0.000000,997.452652,-997.506673,0.290484,0.000000,-0.000000,0.000000
-0.420000,-1.020000,0.603557,0.040000,-383.728962,1402.200000,-728.967377,728.971587,722.461029,-0.000000,0.000000,0.000000,1026.328734,-1026.324524,0.307957,0.000000,-0.000000,0.000000
-0.380000,-1.020000,0.589087,0.040000,-400.366476,1242.200000,-797.288401,797.359321,689.397421,-0.000000,0.000000,0.000000,1054.072479,-1054.001559,0.325260,0.000000,-0.000000,0.000000
-0.340000,-1.020000,0.575827,0.040000,-415.728437,1098.200000,-864.361993,864.506690,647.898146,-0.000000,0.000000,0.000000,1080.358709,-1080.214012,0.342089,0.000000,-0.000000,0.000000
-0.300000,-1.020000,0.563668,0.040000,-429.707639,970.200000,-928.908236,929.131660,597.806619,-0.000000,0.000000,0.000000,1104.851812,-1104.628388,0.358101,0.000000,-0.000000,0.000000
-0.260000,-1.020000,0.553464,0.040000,-442.200928,858.200000,-989.562355,989.866649,539.197536,-0.000000,0.000000,0.000000,1127.214097,-1126.909803,0.372932,0.000000,-0.000000,0.000000
-0.220000,-1.020000,0.543870,0.040000,-453.111380,762.200000,-1044.923310,1045.307233,472.406478,-0.000000,0.000000,0.000000,1147.115526,-1146.731603,0.386212,0.000000,-0.000000,0.000000
-0.180000,-1.020000,0.536763,0.040000,-462.350538,682.200000,-1093.612344,1094.070881,398.047724,-0.000000,0.000000,0.000000,1164.244434,-1163.785897,0.397590,0.000000,-0.000000,0.000000
-0.140000,-1.020000,0.529962,0.040000,-469.840612,618.200000,-1134.338186,1134.862422,317.016734,-0.000000,0.000000,0.000000,1178.318693,-1177.794457,0.406760,0.000000,-0.000000,0.000000
-0.100000,-1.020000,0.525992,0.040000,-475.516541,570.200000,-1165.964317,1166.541636,230.474847,-0.000000,0.000000,0.000000,1189.096672,-1188.519353,0.413485,0.000000,-0.000000,0.000000
-0.060000,-1.020000,0.522159,0.040000,-479.327803,538.200000,-1187.572750,1188.187375,139.815326,-0.000000,0.000000,0.000000,1196.387241,-1195.772616,0.417614,0.000000,-0.000000,0.000000
-0.020000,-1.020000,0.521354,0.040000,-481.239881,522.200000,-1198.518494,1199.152337,46.611822,-0.000000,0.000000,0.000000,1200.058077,-1199.424234,0.419091,0.000000,-0.000000,0.000000
0.020000,-1.020000,0.520591,0.040000,-481.235292,522.200000,-1198.469324,1199.103081,-47.447576,-0.000000,0.000000,-0.000000,1200.041621,-1199.407864,0.417950,0.000000,-0.000000,0.000000
0.060000,-1.020000,0.522896,0.040000,-479.314113,538.200000,-1187.426742,1188.041113,-140.635770,-0.000000,0.000000,-0.000000,1196.338176,-1195.723805,0.414304,0.000000,-0.000000,0.000000
0.100000,-1.020000,0.525287,0.040000,-475.493983,570.200000,-1165.725877,1166.302790,-231.265365,-0.000000,0.000000,-0.000000,1189.015897,-1188.438985,0.408328,0.000000,-0.000000,0.000000
0.140000,-1.020000,0.530622,0.040000,-469.809568,618.200000,-1134.014351,1134.538053,-317.764043,-0.000000,0.000000,-0.000000,1178.207660,-1177.683958,0.400237,0.000000,-0.000000,0.000000
0.180000,-1.020000,0.536165,0.040000,-462.311524,682.200000,-1093.212353,1093.670260,-398.740403,-0.000000,0.000000,-0.000000,1164.105084,-1163.647177,0.390267,0.000000,-0.000000,0.000000
0.220000,-1.020000,0.544388,0.040000,-453.065036,762.200000,-1044.458072,1044.841303,-473.035350,-0.000000,0.000000,-0.000000,1146.950208,-1146.566976,0.378662,0.000000,-0.000000,0.000000
0.260000,-1.020000,0.553049,0.040000,-442.147997,858.200000,-989.043852,989.347427,-539.755884,-0.000000,0.000000,-0.000000,1127.025469,-1126.721894,0.365665,0.000000,-0.000000,0.000000
0.300000,-1.020000,0.563956,0.040000,-429.648950,970.200000,-928.348932,928.571641,-598.290245,-0.000000,0.000000,-0.000000,1104.642747,-1104.420038,0.351516,0.000000,-0.000000,0.000000
0.340000,-1.020000,0.575693,0.040000,-415.664882,1098.200000,-863.774272,863.918288,-648.305270,-0.000000,0.000000,-0.000000,1080.132194,-1079.988178,0.336448,0.000000,-0.000000,0.000000
0.380000,-1.020000,0.589040,0.040000,-400.298996,1242.200000,-796.684092,796.754385,-689.728468,-0.000000,0.000000,-0.000000,1053.831522,-1053.761230,0.320690,0.000000,-0.000000,0.000000
0.420000,-1.020000,0.603813,0.040000,-383.658523,1402.200000,-728.357369,728.361022,-722.718323,-0.000000,0.000000,-0.000000,1026.076288,-1026.072634,0.304465,0.000000,-0.000000,0.000000
0.460000,-1.020000,0.619340,0.040000,-365.852684,1578.200000,-659.951121,659.896622,-747.626833,-0.000000,0.000000,-0.000000,997.191540,-997.246039,0.287986,0.000000,-0.000000,0.000000
0.500000,-1.020000,0.637004,0.040000,-346.990841,1770.200000,-592.475915,592.372488,-764.958212,-0.000000,0.000000,-0.000000,967.485069,-967.588497,0.271455,0.000000,-0.000000,0.000000
0.540000,-1.020000,0.654564,0.040000,-327.180881,1978.200000,-526.782897,526.639921,-775.327220,-0.000000,0.000000,-0.000000,937.242302,-937.385278,0.255056,0.000000,-0.000000,0.000000
0.580000,-1.020000,0.673940,0.040000,-306.527852,2202.200000,-463.560859,463.387405,-779.419864,-0.000000,0.000000,-0.000000,906.722811,-906.896265,0.238954,0.000000,-0.000000,0.000000
0.620000,-1.020000,0.694443,0.040000,-285.132863,2442.200000,-403.341405,403.145891,-777.958396,-0.000000,0.000000,-0.000000,876.158288,-876.353802,0.223289,0.000000,-0.000000,0.000000
0.660000,-1.020000,0.715305,0.040000,-263.092231,2698.200000,-346.510101,346.300063,-771.671743,-0.000000,0.000000,-0.000000,845.751775,-845.961813,0.208176,0.000000,-0.000000,0.000000
0.700000,-1.020000,0.737747,0.040000,-240.496864,2970.200000,-292.769419,292.561420,-761.324397,-0.000000,0.000000,-0.000000,815.535236,-815.743235,0.723163,0.000000,-0.000000,0.000000
0.740000,-1.020000,0.760891,0.040000,-217.431852,3258.200000,-244.110374,243.177532,-747.752561,-0.000000,0.000000,-0.000000,785.978796,-786.911639,0.432966,0.000000,-0.000000,0.000000
0.780000,-1.020000,0.784456,0.040000,-193.976238,3562.200000,-198.780819,197.116968,-730.611410,-0.000000,0.000000,-0.000000,756.120280,-757.784131,0.392922,0.000000,-0.000000,0.000000
0.820000,-1.020000,0.809313,0.040000,-170.202946,3882.200000,-156.591337,155.361499,-711.768907,-0.000000,0.000000,-0.000000,728.043622,-729.273460,0.591783,0.000000,-0.000000,0.000000
0.860000,-1.020000,0.835056,0.040000,-146.178829,4218.200000,-118.774555,117.932156,-691.614628,-0.000000,0.000000,-0.000000,701.246999,-702.089398,0.223906,0.000000,-0.000000,0.000000
-0.900000,-0.980000,0.831384,0.040000,-149.601661,4530.200000,-60.426880,59.528354,703.136325,-0.000000,0.000000,0.000000,705.240474,-706.139000,0.027571,0.000000,-0.000000,0.000000
-0.860000,-0.980000,0.804476,0.040000,-174.939120,4178.200000,-95.834797,94.530925,728.354050,-0.000000,0.000000,0.000000,733.895101,-735.198973,-0.223731,0.000000,-0.000000,-0.000000
-0.820000,-0.980000,0.778206,0.040000,-200.123136,3842.200000,-135.831694,134.117016,752.624172,-0.000000,0.000000,0.000000,763.774082,-765.488759,0.107191,0.000000,-0.000000,0.000000
-0.780000,-0.980000,0.753146,0.040000,-225.090471,3522.200000,-179.543080,178.658236,776.100556,-0.000000,0.000000,0.000000,796.055513,-796.940358,0.396284,0.000000,-0.000000,0.000000
-0.740000,-0.980000,0.728790,0.040000,-249.771150,3218.200000,-226.646475,226.553443,796.485454,-0.000000,0.000000,0.000000,828.045637,-828.138669,-0.085288,0.000000,-0.000000,-0.000000
-0.700000,-0.980000,0.704727,0.040000,-274.088206,2930.200000,-279.591493,279.332961,814.460295,-0.000000,0.000000,0.000000,860.942546,-861.201078,0.206876,0.000000,-0.000000,0.000000
-0.660000,-0.980000,0.682163,0.040000,-297.957522,2658.200000,-336.650511,336.397015,828.916376,-0.000000,0.000000,0.000000,894.496386,-894.749881,0.223371,0.000000,-0.000000,0.000000
-0.620000,-0.980000,0.660376,0.040000,-321.287814,2402.200000,-398.106894,397.865858,839.078461,-0.000000,0.000000,0.000000,928.559062,-928.800097,0.240817,0.000000,-0.000000,0.000000
-0.580000,-0.980000,0.639169,0.040000,-343.980769,2162.200000,-463.741195,463.521416,844.102549,-0.000000,0.000000,0.000000,962.938933,-963.158712,0.259159,0.000000,-0.000000,0.000000
-0.540000,-0.980000,0.619821,0.040000,-365.931405,1938.200000,-533.181084,532.992637,843.108092,-0.000000,0.000000,0.000000,997.409049,-997.597496,0.278308,0.000000,-0.000000,0.000000
-0.500000,-0.980000,0.600673,0.040000,-387.028666,1730.200000,-605.879378,605.733384,835.204667,-0.000000,0.000000,0.000000,1031.706107,-1031.852101,0.298131,0.000000,-0.000000,0.000000
-0.460000,-0.980000,0.583143,0.040000,-407.156299,1538.200000,-681.096063,681.004312,819.526751,-0.000000,0.000000,0.000000,1065.530660,-1065.622411,0.318445,0.000000,-0.000000,0.000000
-0.420000,-0.980000,0.566949,0.040000,-426.194040,1362.200000,-757.887047,757.861435,795.276391,-0.000000,0.000000,0.000000,1098.548885,-1098.574497,0.339008,0.000000,-0.000000,0.000000
-0.380000,-0.980000,0.551520,0.040000,-444.019125,1202.200000,-835.102598,835.154398,761.772690,-0.000000,0.000000,0.000000,1130.396242,-1130.344442,0.359513,0.000000,-0.000000,0.000000
-0.340000,-0.980000,0.538313,0.040000,-460.508124,1058.200000,-911.398418,911.537411,718.505893,-0.000000,0.000000,0.000000,1160.683271,-1160.544278,0.379591,0.000000,-0.000000,0.000000
-0.300000,-0.980000,0.525286,0.040000,-475.539099,930.200000,-985.261821,985.495325,665.192655,-0.000000,0.000000,0.000000,1189.003644,-1188.770140,0.398814,0.000000,-0.000000,0.000000
-0.260000,-0.980000,0.515044,0.040000,-488.994010,818.200000,-1055.054497,1055.386409,601.827912,-0.000000,0.000000,0.000000,1214.944482,-1214.612569,0.416715,0.000000,-0.000000,0.000000
-0.220000,-0.980000,0.504788,0.040000,-500.761338,722.200000,-1119.071872,1119.501811,528.727922,-0.000000,0.000000,0.000000,1238.098672,-1237.668733,0.432812,0.000000,-0.000000,0.000000
-0.180000,-0.980000,0.497477,0.040000,-510.738805,642.200000,-1175.617098,1176.139789,446.558717,-0.000000,0.000000,0.000000,1258.078741,-1257.556051,0.446641,0.000000,-0.000000,0.000000
-0.140000,-0.980000,0.490349,0.040000,-518.836078,578.200000,-1223.085566,1223.690579,356.344653,-0.000000,0.000000,0.000000,1274.531559,-1273.926546,0.457793,0.000000,-0.000000,0.000000
-0.100000,-0.980000,0.486196,0.040000,-524.977332,530.200000,-1260.053772,1260.725713,259.453106,-0.000000,0.000000,0.000000,1287.152974,-1286.481033,0.465950,0.000000,-0.000000,0.000000
-0.060000,-0.980000,0.482231,0.040000,-529.103519,498.200000,-1285.364838,1286.084024,157.553546,-0.000000,0.000000,0.000000,1295.701328,-1294.982142,0.470913,0.000000,-0.000000,0.000000
-0.020000,-0.980000,0.481383,0.040000,-531.174214,482.200000,-1298.202342,1298.945932,52.552105,-0.000000,0.000000,0.000000,1300.008778,-1299.265189,0.472612,0.000000,-0.000000,0.000000
0.020000,-0.980000,0.480600,0.040000,-531.168913,482.200000,-1298.144650,1298.888130,-53.494247,-0.000000,0.000000,-0.000000,1299.989463,-1299.245984,0.471102,0.000000,-0.000000,0.000000
0.060000,-0.980000,0.482975,0.040000,-529.087709,498.200000,-1285.193668,1285.912531,-158.477002,-0.000000,0.000000,-0.000000,1295.643769,-1294.924906,0.466547,0.000000,-0.000000,0.000000
0.100000,-0.980000,0.485487,0.040000,-524.951285,530.200000,-1259.774713,1260.446140,-260.340108,-0.000000,0.000000,-0.000000,1287.058313,-1286.386886,0.459187,0.000000,-0.000000,0.000000
0.140000,-0.980000,0.491037,0.040000,-518.800241,578.200000,-1222.707508,1223.311849,-357.179188,-0.000000,0.000000,-0.000000,1274.401635,-1273.797294,0.449311,0.000000,-0.000000,0.000000
0.180000,-0.980000,0.496792,0.040000,-510.693782,642.200000,-1175.151654,1175.673558,-447.327204,-0.000000,0.000000,-0.000000,1257.916004,-1257.394100,0.437226,0.000000,-0.000000,0.000000
0.220000,-0.980000,0.505490,0.040000,-500.707872,722.200000,-1118.532654,1118.961737,-529.419691,-0.000000,0.000000,-0.000000,1237.906069,-1237.476986,0.423243,0.000000,-0.000000,0.000000
0.260000,-0.980000,0.514299,0.040000,-488.932962,818.200000,-1054.456330,1054.787361,-602.435452,-0.000000,0.000000,-0.000000,1214.725331,-1214.394299,0.407664,0.000000,-0.000000,0.000000
0.300000,-0.980000,0.526010,0.040000,-475.471425,930.200000,-984.619959,984.852599,-665.711638,-0.000000,0.000000,-0.000000,1188.761503,-1188.528863,0.390782,0.000000,-0.000000,0.000000
0.340000,-0.980000,0.537707,0.040000,-460.434851,1058.200000,-910.727832,910.866012,-718.935002,-0.000000,0.000000,-0.000000,1160.421809,-1160.283629,0.372882,0.000000,-0.000000,0.000000
0.380000,-0.980000,0.551974,0.040000,-443.941322,1202.200000,-834.417379,834.468445,-762.113291,-0.000000,0.000000,-0.000000,1130.119121,-1130.068055,0.354240,0.000000,-0.000000,0.000000
0.420000,-0.980000,0.566679,0.040000,-426.112805,1362.200000,-757.199953,757.173701,-795.532103,-0.000000,0.000000,-0.000000,1098.259657,-1098.285909,0.335128,0.000000,-0.000000,0.000000
0.460000,-0.980000,0.583195,0.040000,-407.072728,1538.200000,-680.418209,680.325923,-819.702961,-0.000000,0.000000,-0.000000,1065.232691,-1065.324977,0.315804,0.000000,-0.000000,0.000000
0.500000,-0.980000,0.600870,0.040000,-386.943844,1730.200000,-605.220079,605.073657,-835.308038,-0.000000,0.000000,-0.000000,1031.402509,-1031.548932,0.296513,0.000000,-0.000000,0.000000
0.540000,-0.980000,0.619343,0.040000,-365.846386,1938.200000,-532.547816,532.359042,-843.146096,-0.000000,0.000000,-0.000000,997.102643,-997.291417,0.277476,0.000000,-0.000000,0.000000
0.580000,-0.980000,0.639786,0.040000,-343.896566,2162.200000,-463.139653,462.919643,-844.083059,-0.000000,0.000000,-0.000000,962.632223,-962.852234,0.258887,0.000000,-0.000000,0.000000
0.620000,-0.980000,0.660119,0.040000,-321.205389,2402.200000,-397.541134,397.299951,-839.009401,-0.000000,0.000000,-0.000000,928.254227,-928.495410,0.240907,0.000000,-0.000000,0.000000
0.660000,-0.980000,0.682032,0.040000,-297.877781,2658.200000,-336.123125,335.869554,-828.805451,-0.000000,0.000000,-0.000000,894.195285,-894.448856,0.223665,0.000000,-0.000000,0.000000
0.700000,-0.980000,0.705271,0.040000,-274.011991,2930.200000,-279.103818,278.845270,-814.314791,-0.000000,0.000000,-0.000000,860.646732,-860.905280,0.207255,0.000000,-0.000000,0.000000
0.740000,-0.980000,0.728439,0.040000,-249.699242,3218.200000,-226.199538,226.106069,-796.312334,-0.000000,0.000000,-0.000000,827.756505,-827.849975,0.467974,0.000000,-0.000000,0.000000
0.780000,-0.980000,0.753020,0.040000,-225.023586,3522.200000,-179.135405,178.250935,-775.904983,-0.000000,0.000000,-0.000000,795.773684,-796.658154,-0.043067,0.000000,-0.000000,-0.000000
0.820000,-0.980000,0.778828,0.040000,-200.061928,3842.200000,-135.461927,133.748087,-752.412905,-0.000000,0.000000,-0.000000,763.501398,-765.215238,0.219102,0.000000,-0.000000,0.000000
0.860000,-0.980000,0.804332,0.040000,-174.884180,4178.200000,-95.502101,94.198615,-728.130854,-0.000000,0.000000,-0.000000,733.630802,-734.934288,0.524429,0.000000,-0.000000,0.000000
0.900000,-0.980000,0.830980,0.040000,-149.553524,4530.200000,-60.128874,59.230696,-702.905381,-0.000000,0.000000,-0.000000,704.985238,-705.883415,0.249564,0.000000,-0.000000,0.000000
-0.940000,-0.940000,0.829796,0.040000,-150.732464,4859.800000,-0.606506,-0.339655,706.944544,-0.000000,-0.000000,0.000000,706.471463,-707.417624,0.133426,0.000000,-0.000000,0.000000
-0.900000,-0.940000,0.801836,0.040000,-177.295739,4491.800000,-33.080835,31.230345,736.152937,-0.000000,0.000000,0.000000,735.929633,-737.780123,0.133681,0.000000,-0.000000,0.000000
-0.860000,-0.940000,0.774932,0.040000,-203.806952,4139.800000,-69.677610,67.717098,766.391935,-0.000000,0.000000,0.000000,768.484319,-770.444832,0.437065,0.000000,-0.000000,0.000000
-0.820000,-0.940000,0.747983,0.040000,-230.208102,3803.800000,-109.367572,108.887376,795.199044,-0.000000,0.000000,0.000000,802.411938,-802.892134,0.183082,0.000000,-0.000000,0.000000
-0.780000,-0.940000,0.721874,0.040000,-256.434030,3483.800000,-154.404526,154.365523,822.529088,-0.000000,0.000000,0.000000,836.872866,-836.911869,0.020238,0.000000,-0.000000,0.000000
-0.740000,-0.940000,0.697084,0.040000,-282.411956,3179.800000,-205.214353,204.915111,848.197757,-0.000000,0.000000,0.000000,872.484861,-872.784102,0.203752,0.000000,-0.000000,0.000000
-0.700000,-0.940000,0.672647,0.040000,-308.061084,2891.800000,-260.899446,260.594321,871.034214,-0.000000,0.000000,0.000000,909.072102,-909.377227,0.221194,0.000000,-0.000000,0.000000
-0.660000,-0.940000,0.648968,0.040000,-333.292311,2619.800000,-321.882060,321.577585,890.370430,-0.000000,0.000000,0.000000,946.562886,-946.867361,0.239851,0.000000,-0.000000,0.000000
-0.620000,-0.940000,0.626948,0.040000,-358.008064,2363.800000,-388.147513,387.851983,905.294858,-0.000000,0.000000,0.000000,984.790059,-985.085589,0.259711,0.000000,-0.000000,0.000000
-0.580000,-0.940000,0.605048,0.040000,-382.102333,2123.800000,-459.536639,459.260192,914.812751,-0.000000,0.000000,0.000000,1023.545905,-1023.822351,0.280733,0.000000,-0.000000,0.000000
-0.540000,-0.940000,0.584572,0.040000,-405.460924,1899.800000,-535.713933,535.468515,917.865400,-0.000000,0.000000,0.000000,1062.578924,-1062.824341,0.302837,0.000000,-0.000000,0.000000
-0.500000,-0.940000,0.565570,0.040000,-427.962001,1691.800000,-616.136417,615.935582,913.359236,-0.000000,0.000000,0.000000,1101.591618,-1101.792453,0.325889,0.000000,-0.000000,0.000000
-0.460000,-0.940000,0.546916,0.040000,-449.476957,1499.800000,-700.026051,699.884553,900.205895,-0.000000,0.000000,0.000000,1140.239715,-1140.381214,0.349693,0.000000,-0.000000,0.000000
-0.420000,-0.940000,0.530627,0.040000,-469.871657,1323.800000,-786.349298,786.282442,877.373579,-0.000000,0.000000,0.000000,1178.133327,-1178.200184,0.373978,0.000000,-0.000000,0.000000
-0.380000,-0.940000,0.514319,0.040000,-489.008098,1163.800000,-873.807991,873.830730,843.948880,-0.000000,0.000000,0.000000,1214.840505,-1214.817766,0.398384,0.000000,-0.000000,0.000000
-0.340000,-0.940000,0.500466,0.040000,-506.746482,1019.800000,-960.845855,960.971657,799.206707,-0.000000,0.000000,0.000000,1249.893617,-1249.767815,0.422464,0.000000,-0.000000,0.000000
-0.300000,-0.940000,0.487165,0.040000,-522.947706,891.800000,-1045.674671,1045.914213,742.684157,-0.000000,0.000000,0.000000,1282.798832,-1282.559290,0.445684,0.000000,-0.000000,0.000000
-0.260000,-0.940000,0.476103,0.040000,-537.476215,779.800000,-1126.322924,1126.682730,674.252389,-0.000000,0.000000,0.000000,1313.048778,-1312.688973,0.467444,0.000000,-0.000000,0.000000
-0.220000,-0.940000,0.465862,0.040000,-550.203154,683.800000,-1200.707826,1201.189011,594.178975,-0.000000,0.000000,0.000000,1340.138171,-1339.656986,0.487109,0.000000,-0.000000,0.000000
-0.180000,-0.940000,0.457929,0.040000,-561.009692,603.800000,-1266.728885,1267.326189,503.172464,-0.000000,0.000000,0.000000,1363.581841,-1362.984537,0.504058,0.000000,-0.000000,0.000000
-0.140000,-0.940000,0.450803,0.040000,-569.790370,539.800000,-1322.377973,1323.079270,402.401104,-0.000000,0.000000,0.000000,1382.934240,-1382.232943,0.517736,0.000000,-0.000000,0.000000
-0.100000,-0.940000,0.446283,0.040000,-576.456308,491.800000,-1365.857660,1366.644098,293.479398,-0.000000,0.000000,0.000000,1397.809171,-1397.022733,0.527712,0.000000,-0.000000,0.000000
-0.060000,-0.940000,0.442317,0.040000,-580.938066,459.800000,-1395.697008,1396.543849,178.419172,-0.000000,0.000000,0.000000,1407.898240,-1407.051399,0.533716,0.000000,-0.000000,0.000000
-0.020000,-0.940000,0.441392,0.040000,-583.187994,443.800000,-1410.852797,1411.730931,59.546023,-0.000000,0.000000,0.000000,1412.986471,-1412.108336,0.535663,0.000000,-0.000000,0.000000
0.020000,-0.940000,0.440609,0.040000,-583.181890,443.800000,-1410.784654,1411.662647,-60.613394,-0.000000,0.000000,-0.000000,1412.963648,-1412.085655,0.533643,0.000000,-0.000000,0.000000
0.060000,-0.940000,0.442985,0.040000,-580.919861,459.800000,-1395.495026,1396.341452,-179.463549,-0.000000,0.000000,-0.000000,1407.830268,-1406.983841,0.527892,0.000000,-0.000000,0.000000
0.100000,-0.940000,0.445722,0.040000,-576.426325,491.800000,-1365.528992,1366.314774,-294.479014,-0.000000,0.000000,-0.000000,1397.697514,-1396.911733,0.518748,0.000000,-0.000000,0.000000
0.140000,-0.940000,0.451273,0.040000,-569.749134,539.800000,-1321.933957,1322.634402,-403.336525,-0.000000,0.000000,-0.000000,1382.781251,-1382.080806,0.506600,0.000000,-0.000000,0.000000
0.180000,-0.940000,0.457529,0.040000,-560.957912,603.800000,-1266.184241,1266.780555,-504.027471,-0.000000,0.000000,-0.000000,1363.390638,-1362.794325,0.491855,0.000000,-0.000000,0.000000
0.220000,-0.940000,0.466219,0.040000,-550.141700,683.800000,-1200.079673,1200.559791,-594.941157,-0.000000,0.000000,-0.000000,1339.912487,-1339.432369,0.474907,0.000000,-0.000000,0.000000
0.260000,-0.940000,0.475756,0.040000,-537.406090,779.800000,-1125.629719,1125.988440,-674.913419,-0.000000,0.000000,-0.000000,1312.792784,-1312.434062,0.456131,0.000000,-0.000000,0.000000
0.300000,-0.940000,0.487535,0.040000,-522.870018,891.800000,-1044.935179,1045.173673,-743.239759,-0.000000,0.000000,-0.000000,1282.516963,-1282.278470,0.435884,0.000000,-0.000000,0.000000
0.340000,-0.940000,0.500036,0.040000,-506.662413,1019.800000,-960.078236,960.203069,-799.656360,-0.000000,0.000000,-0.000000,1249.590406,-1249.465572,0.414512,0.000000,-0.000000,0.000000
0.380000,-0.940000,0.514847,0.040000,-488.918874,1163.800000,-873.029056,873.050935,-844.295334,-0.000000,0.000000,-0.000000,1214.520426,-1214.498546,0.392352,0.000000,-0.000000,0.000000
0.420000,-0.940000,0.529962,0.040000,-469.778523,1323.800000,-785.573975,785.506387,-877.622239,-0.000000,0.000000,-0.000000,1177.800674,-1177.868262,0.369737,0.000000,-0.000000,0.000000
0.460000,-0.940000,0.547587,0.040000,-449.381153,1499.800000,-699.267053,699.124959,-900.364168,-0.000000,0.000000,-0.000000,1139.898501,-1140.040594,0.346982,0.000000,-0.000000,0.000000
0.500000,-0.940000,0.565134,0.040000,-427.864740,1691.800000,-615.404105,615.202809,-913.435881,-0.000000,0.000000,-0.000000,1101.245505,-1101.446800,0.324387,0.000000,-0.000000,0.000000
0.540000,-0.940000,0.584736,0.040000,-405.363377,1899.800000,-535.016334,534.770583,-917.869937,-0.000000,0.000000,-0.000000,1062.231181,-1062.476932,0.302215,0.000000,-0.000000,0.000000
0.580000,-0.940000,0.605189,0.040000,-382.005616,2123.800000,-458.879585,458.602918,-914.754956,-0.000000,0.000000,-0.000000,1023.199385,-1023.476052,0.280698,0.000000,-0.000000,0.000000
0.620000,-0.940000,0.626469,0.040000,-357.913227,2363.800000,-387.534861,387.239209,-905.184357,-0.000000,0.000000,-0.000000,984.447202,-984.742853,0.260018,0.000000,-0.000000,0.000000
0.660000,-0.940000,0.649517,0.040000,-333.200335,2619.800000,-321.315956,321.011441,-890.216394,-0.000000,0.000000,-0.000000,946.225728,-946.530243,0.240318,0.000000,-0.000000,0.000000
0.700000,-0.940000,0.672515,0.040000,-307.972875,2891.800000,-260.380611,260.075512,-870.845143,-0.000000,0.000000,-0.000000,908.742306,-909.047405,0.221694,0.000000,-0.000000,0.000000
0.740000,-0.940000,0.696773,0.040000,-282.328343,3179.800000,-204.742363,204.443198,-847.981351,-0.000000,0.000000,-0.000000,872.163742,-872.462907,0.204205,0.000000,-0.000000,0.000000
0.780000,-0.940000,0.722432,0.040000,-256.355769,3483.800000,-153.978739,153.939349,-822.292460,-0.000000,0.000000,-0.000000,836.561533,-836.600923,0.354787,0.000000,-0.000000,0.000000
0.820000,-0.940000,0.747933,0.040000,-230.135876,3803.800000,-108.985599,108.505433,-794.947619,-0.000000,0.000000,-0.000000,802.111011,-802.591177,0.161215,0.000000,-0.000000,0.000000
0.860000,-0.940000,0.774455,0.040000,-203.741373,4139.800000,-69.336029,67.376504,-766.131064,-0.000000,0.000000,-0.000000,768.194712,-770.154237,-0.120465,0.000000,-0.000000,-0.000000
0.900000,-0.940000,0.802096,0.040000,-177.237355,4491.800000,-32.777509,30.928021,-735.887231,-0.000000,0.000000,-0.000000,735.651519,-737.501006,0.157311,0.000000,-0.000000,0.000000
0.940000,-0.940000,0.830112,0.040000,-150.681759,4859.800000,-0.339374,-0.606225,-706.676846,-0.000000,-0.000000,-0.000000,706.204047,-707.149646,0.133426,0.000000,-0.000000,0.000000
-0.980000,-0.900000,0.831252,0.040000,-149.603801,5207.000000,59.264306,-60.163008,703.170211,0.000000,-0.000000,0.000000,705.251726,-706.150428,0.238313,0.000000,-0.000000,0.000000
-0.940000,-0.900000,0.802186,0.040000,-177.297037,4823.000000,30.946026,-32.796615,736.171492,0.000000,-0.000000,0.000000,735.935767,-737.786356,0.151126,0.000000,-0.000000,0.000000
-0.900000,-0.900000,0.773228,0.040000,-205.040770,4455.000000,-0.876924,-0.572737,771.267569,-0.000000,-0.000000,0.000000,770.542738,-771.992400,0.152093,0.000000,-0.000000,0.000000
-0.860000,-0.900000,0.745293,0.040000,-232.783651,4103.000000,-36.847105,36.577877,805.187401,-0.000000,0.000000,0.000000,805.889299,-806.158528,0.094052,0.000000,-0.000000,0.000000
-0.820000,-0.900000,0.718499,0.040000,-260.467016,3767.000000,-78.538690,78.230546,838.851757,-0.000000,0.000000,0.000000,842.351944,-842.660087,0.181931,0.000000,-0.000000,0.000000
-0.780000,-0.900000,0.691503,0.040000,-288.024252,3447.000000,-125.511005,125.182380,871.552465,-0.000000,0.000000,0.000000,880.355678,-880.684303,0.198660,0.000000,-0.000000,0.000000
-0.740000,-0.900000,0.665583,0.040000,-315.380170,3143.000000,-178.196131,177.850262,902.563148,-0.000000,0.000000,0.000000,919.779482,-920.125351,0.216800,0.000000,-0.000000,0.000000
-0.700000,-0.900000,0.641111,0.040000,-342.450449,2855.000000,-236.890959,236.532735,931.092507,-0.000000,0.000000,0.000000,960.531926,-960.890150,0.236404,0.000000,-0.000000,0.000000
-0.660000,-0.900000,0.616581,0.040000,-369.141159,2583.000000,-301.806730,301.442996,956.222175,-0.000000,0.000000,0.000000,1002.483750,-1002.847484,0.257510,0.000000,-0.000000,0.000000
-0.620000,-0.900000,0.593361,0.040000,-395.348426,2327.000000,-373.035055,372.674887,976.906853,-0.000000,0.000000,0.000000,1045.462183,-1045.822351,0.280133,0.000000,-0.000000,0.000000
-0.580000,-0.900000,0.571689,0.040000,-420.958291,2087.000000,-450.509239,450.164146,991.982077,-0.000000,0.000000,0.000000,1089.245410,-1089.590503,0.304253,0.000000,-0.000000,0.000000
-0.540000,-0.900000,0.549973,0.040000,-445.846818,1863.000000,-533.962220,533.646212,1000.182069,-0.000000,0.000000,0.000000,1133.557570,-1133.873578,0.329805,0.000000,-0.000000,0.000000
-0.500000,-0.900000,0.530388,0.040000,-469.880527,1655.000000,-622.883411,622.612873,1000.170112,-0.000000,0.000000,0.000000,1178.064788,-1178.335325,0.356665,0.000000,-0.000000,0.000000
-0.460000,-0.900000,0.511251,0.040000,-492.917213,1463.000000,-716.477885,716.271183,990.583510,-0.000000,0.000000,0.000000,1222.372831,-1222.579533,0.384633,0.000000,-0.000000,0.000000
-0.420000,-0.900000,0.493787,0.040000,-514.807222,1287.000000,-813.632536,813.509290,970.094415,-0.000000,0.000000,0.000000,1266.027092,-1266.150338,0.413412,0.000000,-0.000000,0.000000
-0.380000,-0.900000,0.477571,0.040000,-535.395234,1127.000000,-912.894920,912.874910,937.486293,-0.000000,0.000000,0.000000,1308.515586,-1308.535596,0.442588,0.000000,-0.000000,0.000000
-0.340000,-0.900000,0.462619,0.040000,-554.522585,983.000000,-1012.471125,1012.572831,891.743831,-0.000000,0.000000,0.000000,1349.275665,-1349.173960,0.471623,0.000000,-0.000000,0.000000
-0.300000,-0.900000,0.449370,0.040000,-572.030139,855.000000,-1110.248925,1110.487765,832.151444,-0.000000,0.000000,0.000000,1387.704962,-1387.466122,0.499852,0.000000,-0.000000,0.000000
-0.260000,-0.900000,0.437353,0.040000,-587.761659,743.000000,-1203.851278,1204.237695,758.392731,-0.000000,0.000000,0.000000,1423.176828,-1422.790411,0.526500,0.000000,-0.000000,0.000000
-0.220000,-0.900000,0.427134,0.040000,-601.567604,647.000000,-1290.722776,1291.260380,670.640653,-0.000000,0.000000,0.000000,1455.060140,-1454.522536,0.550726,0.000000,-0.000000,0.000000
-0.180000,-0.900000,0.418468,0.040000,-613.309210,567.000000,-1368.247821,1368.931884,569.626443,-0.000000,0.000000,0.000000,1482.742835,-1482.058772,0.571689,0.000000,-0.000000,0.000000
-0.140000,-0.900000,0.411346,0.040000,-622.862658,503.000000,-1433.894605,1434.711180,456.675108,-0.000000,0.000000,0.000000,1505.657966,-1504.841391,0.588625,0.000000,-0.000000,0.000000
-0.100000,-0.900000,0.406387,0.040000,-630.123113,455.000000,-1485.373911,1486.299840,333.697337,-0.000000,0.000000,0.000000,1523.310551,-1522.384622,0.600937,0.000000,-0.000000,0.000000
-0.060000,-0.900000,0.402420,0.040000,-635.008375,423.000000,-1520.797544,1521.801496,203.131785,-0.000000,0.000000,0.000000,1535.303064,-1534.299112,0.608255,0.000000,-0.000000,0.000000
-0.020000,-0.900000,0.401403,0.040000,-637.461883,407.000000,-1538.818793,1539.863306,67.837884,-0.000000,0.000000,0.000000,1541.357248,-1540.312735,0.610472,0.000000,-0.000000,0.000000
0.020000,-0.900000,0.400621,0.040000,-637.454865,407.000000,-1538.737723,1539.782052,-69.053686,-0.000000,0.000000,-0.000000,1541.330084,-1540.285755,0.607735,0.000000,-0.000000,0.000000
0.060000,-0.900000,0.402997,0.040000,-634.987450,423.000000,-1520.557505,1521.560921,-204.319039,-0.000000,0.000000,-0.000000,1535.222217,-1534.218801,0.600391,0.000000,-0.000000,0.000000
0.100000,-0.900000,0.406004,0.040000,-630.088665,455.000000,-1484.984160,1485.909243,-334.829151,-0.000000,0.000000,-0.000000,1523.177918,-1522.252835,0.588920,0.000000,-0.000000,0.000000
0.140000,-0.900000,0.411555,0.040000,-622.815309,503.000000,-1433.369744,1434.185228,-457.727733,-0.000000,0.000000,-0.000000,1505.476587,-1504.661102,0.573860,0.000000,-0.000000,0.000000
0.180000,-0.900000,0.418405,0.040000,-613.249799,567.000000,-1367.606679,1368.289487,-570.580423,-0.000000,0.000000,-0.000000,1482.516720,-1481.833913,0.555744,0.000000,-0.000000,0.000000
0.220000,-0.900000,0.427084,0.040000,-601.497154,647.000000,-1289.987055,1290.523322,-671.481568,-0.000000,0.000000,-0.000000,1454.794057,-1454.257790,0.535074,0.000000,-0.000000,0.000000
0.260000,-0.900000,0.437475,0.040000,-587.681345,743.000000,-1203.044114,1203.429190,-759.111477,-0.000000,0.000000,-0.000000,1422.876063,-1422.490987,0.512315,0.000000,-0.000000,0.000000
0.300000,-0.900000,0.449218,0.040000,-571.941251,855.000000,-1109.393520,1109.631085,-832.744101,-0.000000,0.000000,-0.000000,1387.375085,-1387.137520,0.487899,0.000000,-0.000000,0.000000
0.340000,-0.900000,0.462756,0.040000,-554.426489,983.000000,-1011.589573,1011.690121,-892.211178,-0.000000,0.000000,-0.000000,1348.922304,-1348.821755,0.462247,0.000000,-0.000000,0.000000
0.380000,-0.900000,0.477496,0.040000,-535.293339,1127.000000,-912.007288,911.986274,-937.833081,-0.000000,0.000000,-0.000000,1308.144235,-1308.165248,0.435772,0.000000,-0.000000,0.000000
0.420000,-0.900000,0.493755,0.040000,-514.700947,1287.000000,-812.756247,812.632170,-970.328509,-0.000000,0.000000,-0.000000,1265.642953,-1265.767030,0.408882,0.000000,-0.000000,0.000000
0.460000,-0.900000,0.511436,0.040000,-492.807959,1463.000000,-715.627384,715.420029,-990.714990,-0.000000,0.000000,-0.000000,1221.980697,-1222.188053,0.381970,0.000000,-0.000000,0.000000
0.500000,-0.900000,0.530007,0.040000,-469.769653,1655.000000,-622.070081,621.799060,-1000.210426,-0.000000,0.000000,-0.000000,1177.668964,-1177.939985,0.355401,0.000000,-0.000000,0.000000
0.540000,-0.900000,0.550591,0.040000,-445.735626,1863.000000,-533.194496,532.878160,-1000.143294,-0.000000,0.000000,-0.000000,1133.161834,-1133.478170,0.329496,0.000000,-0.000000,0.000000
0.580000,-0.900000,0.571104,0.040000,-420.848008,2087.000000,-449.792862,449.447577,-991.876300,-0.000000,0.000000,-0.000000,1088.852997,-1089.198282,0.304524,0.000000,-0.000000,0.000000
0.620000,-0.900000,0.593607,0.040000,-395.240198,2327.000000,-372.373412,372.013165,-976.745707,-0.000000,0.000000,-0.000000,1045.075799,-1045.436045,0.280696,0.000000,-0.000000,0.000000
0.660000,-0.900000,0.616708,0.040000,-369.036044,2583.000000,-301.201234,300.837512,-956.016505,-0.000000,0.000000,-0.000000,1002.105600,-1002.469321,0.258160,0.000000,-0.000000,0.000000
0.700000,-0.900000,0.640581,0.040000,-342.349416,2855.000000,-236.341432,235.983290,-930.852158,-0.000000,0.000000,-0.000000,960.163756,-960.521897,0.237012,0.000000,-0.000000,0.000000
0.740000,-0.900000,0.666004,0.040000,-315.284098,3143.000000,-177.701166,177.355432,-902.296858,-0.000000,0.000000,-0.000000,919.422626,-919.768360,0.217296,0.000000,-0.000000,0.000000
0.780000,-0.900000,0.691562,0.040000,-287.933934,3447.000000,-125.068293,124.739838,-871.267831,-0.000000,0.000000,-0.000000,880.011107,-880.339562,0.199018,0.000000,-0.000000,0.000000
0.820000,-0.900000,0.717938,0.040000,-260.383161,3767.000000,-78.145293,77.837342,-838.555265,-0.000000,0.000000,-0.000000,842.020320,-842.328271,0.182150,0.000000,-0.000000,0.000000
0.860000,-0.900000,0.745528,0.040000,-232.706887,4103.000000,-36.500375,36.231335,-804.884460,-0.000000,0.000000,-0.000000,805.571016,-805.840057,0.238463,0.000000,-0.000000,0.000000
0.900000,-0.900000,0.773553,0.040000,-204.971655,4455.000000,-0.572291,-0.876478,-770.962523,-0.000000,-0.000000,-0.000000,770.238138,-771.686907,0.152093,0.000000,-0.000000,0.000000
0.940000,-0.900000,0.801806,0.040000,-177.236058,4823.000000,31.212340,-33.061729,-735.868676,0.000000,-0.000000,-0.000000,735.645384,-737.494773,0.127497,0.000000,-0.000000,0.000000
0.980000,-0.900000,0.831024,0.040000,-149.551384,5207.000000,59.494744,-60.392746,-702.871494,0.000000,-0.000000,-0.000000,704.973986,-705.871987,0.016320,0.000000,-0.000000,0.000000
-1.020000,-0.860000,0.834655,0.040000,-146.227833,5571.800000,117.998530,-118.841404,691.870954,0.000000,-0.000000,0.000000,701.510657,-702.353531,0.201569,0.000000,-0.000000,0.000000
-0.980000,-0.860000,0.804244,0.040000,-174.942953,5171.800000,94.253031,-95.557279,728.409023,0.000000,-0.000000,0.000000,733.913351,-735.217599,0.506225,0.000000,-0.000000,0.000000
-0.940000,-0.860000,0.774704,0.040000,-203.810002,4787.800000,67.416428,-69.377135,766.432338,0.000000,-0.000000,0.000000,768.497801,-770.458508,-0.134093,0.000000,-0.000000,-0.000000
-0.900000,-0.860000,0.745670,0.040000,-232.785436,4419.800000,36.253371,-36.522623,805.209601,0.000000,-0.000000,0.000000,805.896722,-806.165974,0.231115,0.000000,-0.000000,0.000000
-0.860000,-0.860000,0.716661,0.040000,-261.818539,4067.800000,-0.332172,0.017235,844.337199,-0.000000,0.000000,0.000000,844.179730,-844.494667,0.174703,0.000000,-0.000000,0.000000
-0.820000,-0.860000,0.688754,0.040000,-290.850631,3731.800000,-42.459647,42.115598,883.509490,-0.000000,0.000000,0.000000,884.348877,-884.692926,0.191661,0.000000,-0.000000,0.000000
-0.780000,-0.860000,0.662089,0.040000,-319.814265,3411.800000,-90.572386,90.200376,922.096045,-0.000000,0.000000,0.000000,926.329387,-926.701396,0.210214,0.000000,-0.000000,0.000000
-0.740000,-0.860000,0.635039,0.040000,-348.632418,3107.800000,-145.154078,144.756745,959.388538,-0.000000,0.000000,0.000000,970.078812,-970.476145,0.230460,0.000000,-0.000000,0.000000
-0.700000,-0.860000,0.609342,0.040000,-377.217721,2819.800000,-206.641725,206.223603,994.529122,-0.000000,0.000000,0.000000,1015.518539,-1015.936660,0.252487,0.000000,-0.000000,0.000000
-0.660000,-0.860000,0.585137,0.040000,-405.471762,2547.800000,-275.392561,274.960526,1026.498769,-0.000000,0.000000,0.000000,1062.526556,-1062.958590,0.276367,0.000000,-0.000000,0.000000
-0.620000,-0.860000,0.560616,0.040000,-433.284520,2291.800000,-351.643379,351.207079,1054.111068,-0.000000,0.000000,0.000000,1110.929790,-1111.366090,0.302147,0.000000,-0.000000,0.000000
-0.580000,-0.860000,0.537955,0.040000,-460.533986,2051.800000,-435.462396,435.034627,1076.014400,-0.000000,0.000000,0.000000,1160.496307,-1160.924075,0.329841,0.000000,-0.000000,0.000000
-0.540000,-0.860000,0.516155,0.040000,-487.086064,1827.800000,-526.694717,526.291670,1090.705913,-0.000000,0.000000,0.000000,1210.927843,-1211.330890,0.359416,0.000000,-0.000000,0.000000
-0.500000,-0.860000,0.495234,0.040000,-512.794819,1619.800000,-624.903742,624.545017,1096.560992,-0.000000,0.000000,0.000000,1261.853286,-1262.212012,0.390769,0.000000,-0.000000,0.000000
-0.460000,-0.860000,0.476276,0.040000,-537.503186,1427.800000,-729.312456,729.020748,1091.881788,-0.000000,0.000000,0.000000,1312.823907,-1313.115615,0.423709,0.000000,-0.000000,0.000000
-0.420000,-0.860000,0.457479,0.040000,-561.044212,1251.800000,-838.750422,838.550761,1074.967561,-0.000000,0.000000,0.000000,1363.311282,-1363.510943,0.457923,0.000000,-0.000000,0.000000
-0.380000,-0.860000,0.441388,0.040000,-583.242936,1091.800000,-951.614121,951.532585,1044.207958,-0.000000,0.000000,0.000000,1412.708984,-1412.790520,0.492949,0.000000,-0.000000,0.000000
-0.340000,-0.860000,0.425166,0.040000,-603.918957,947.800000,-1065.849733,1065.911597,998.197662,-0.000000,0.000000,0.000000,1460.339080,-1460.277215,0.528147,0.000000,-0.000000,0.000000
-0.300000,-0.860000,0.411992,0.040000,-622.889714,819.800000,-1178.967989,1179.195370,935.867205,-0.000000,0.000000,0.000000,1505.464386,-1505.237005,0.562693,0.000000,-0.000000,0.000000
-0.260000,-0.860000,0.398851,0.040000,-639.974470,707.800000,-1288.099714,1288.508870,856.620420,-0.000000,0.000000,0.000000,1547.307075,-1546.897920,0.595586,0.000000,-0.000000,0.000000
-0.220000,-0.860000,0.388664,0.040000,-654.998889,611.800000,-1390.097707,1390.696308,760.464660,-0.000000,0.000000,0.000000,1585.073716,-1584.475115,0.625704,0.000000,-0.000000,0.000000
-0.180000,-0.860000,0.379120,0.040000,-667.800061,531.800000,-1481.685448,1482.470216,648.116567,-0.000000,0.000000,0.000000,1617.986078,-1617.201310,0.651892,0.000000,-0.000000,0.000000
-0.140000,-0.860000,0.372004,0.040000,-678.231728,467.800000,-1559.646052,1560.601235,521.064955,-0.000000,0.000000,0.000000,1645.316190,-1644.361008,0.673084,0.000000,-0.000000,0.000000
-0.100000,-0.860000,0.366514,0.040000,-686.169410,419.800000,-1621.037079,1622.134177,381.574393,-0.000000,0.000000,0.000000,1666.423242,-1665.326144,0.688435,0.000000,-0.000000,0.000000
-0.060000,-0.860000,0.362545,0.040000,-691.515097,387.800000,-1663.409648,1664.608660,232.618775,-0.000000,0.000000,0.000000,1680.789219,-1679.590208,0.697425,0.000000,-0.000000,0.000000
-0.020000,-0.860000,0.361416,0.040000,-694.201147,371.800000,-1685.005904,1686.258103,77.743235,-0.000000,0.000000,0.000000,1688.049808,-1686.797609,0.699921,0.000000,-0.000000,0.000000
0.020000,-0.860000,0.360635,0.040000,-694.193085,371.800000,-1684.908692,1686.160650,-79.136297,-0.000000,0.000000,-0.000000,1688.017218,-1686.765261,0.696160,0.000000,-0.000000,0.000000
0.060000,-0.860000,0.363012,0.040000,-691.491068,387.800000,-1663.122173,1664.320482,-233.976046,-0.000000,0.000000,-0.000000,1680.692299,-1679.493990,0.686664,0.000000,-0.000000,0.000000
0.100000,-0.860000,0.366347,0.040000,-686.129872,419.800000,-1620.571452,1621.667447,-382.862352,-0.000000,0.000000,-0.000000,1666.264480,-1665.168485,0.672128,0.000000,-0.000000,0.000000
0.140000,-0.860000,0.371897,0.040000,-678.177424,467.800000,-1559.021284,1559.975057,-522.254363,-0.000000,0.000000,-0.000000,1645.099559,-1644.145786,0.653296,0.000000,-0.000000,0.000000
0.180000,-0.860000,0.379464,0.040000,-667.731989,531.800000,-1480.925864,1481.709025,-649.183991,-0.000000,0.000000,-0.000000,1617.716788,-1616.933627,0.630878,0.000000,-0.000000,0.000000
0.220000,-0.860000,0.388126,0.040000,-654.918261,611.800000,-1389.231053,1389.827965,-761.393386,-0.000000,0.000000,-0.000000,1584.757915,-1584.161003,0.605510,0.000000,-0.000000,0.000000
0.260000,-0.860000,0.399531,0.040000,-639.882671,707.800000,-1287.155190,1287.562679,-857.400718,-0.000000,0.000000,-0.000000,1546.951521,-1546.544032,0.577759,0.000000,-0.000000,0.000000
0.300000,-0.860000,0.411222,0.040000,-622.788253,819.800000,-1177.974426,1178.200251,-936.496013,-0.000000,0.000000,-0.000000,1505.076121,-1504.850296,0.548148,0.000000,-0.000000,0.000000
0.340000,-0.860000,0.425969,0.040000,-603.809420,947.800000,-1064.834075,1064.894559,-998.677804,-0.000000,0.000000,-0.000000,1459.925137,-1459.864652,0.517186,0.000000,-0.000000,0.000000
0.380000,-0.860000,0.440609,0.040000,-583.126948,1091.800000,-950.600312,950.517611,-1044.547068,-0.000000,0.000000,-0.000000,1412.276135,-1412.358836,0.485382,0.000000,-0.000000,0.000000
0.420000,-0.860000,0.458179,0.040000,-560.923391,1251.800000,-837.758710,837.558115,-1075.176865,-0.000000,0.000000,-0.000000,1362.865844,-1363.066439,0.453246,0.000000,-0.000000,0.000000
0.460000,-0.860000,0.475708,0.040000,-537.379119,1427.800000,-728.359092,728.066679,-1091.974898,-0.000000,0.000000,-0.000000,1312.371605,-1312.664018,0.421269,0.000000,-0.000000,0.000000
0.500000,-0.860000,0.495619,0.040000,-512.669030,1619.800000,-624.001005,623.641790,-1096.552798,-0.000000,0.000000,-0.000000,1261.399174,-1261.758390,0.389903,0.000000,-0.000000,0.000000
0.540000,-0.860000,0.516000,0.040000,-486.959996,1827.800000,-525.851186,525.447838,-1090.611659,-0.000000,0.000000,-0.000000,1210.476264,-1210.879613,0.359539,0.000000,-0.000000,0.000000
0.580000,-0.860000,0.537834,0.040000,-460.408989,2051.800000,-434.683373,434.255462,-1075.848955,-0.000000,0.000000,-0.000000,1160.050902,-1160.478813,0.330490,0.000000,-0.000000,0.000000
0.620000,-0.860000,0.561053,0.040000,-433.161840,2291.800000,-350.931397,350.495083,-1053.888398,-0.000000,0.000000,-0.000000,1110.493525,-1110.929839,0.302989,0.000000,-0.000000,0.000000
0.660000,-0.860000,0.584463,0.040000,-405.352539,2547.800000,-274.747910,274.315962,-1026.231601,-0.000000,0.000000,-0.000000,1062.101778,-1062.533727,0.277189,0.000000,-0.000000,0.000000
0.700000,-0.860000,0.609601,0.040000,-377.102985,2819.800000,-206.062966,205.645003,-994.228754,-0.000000,0.000000,-0.000000,1015.107035,-1015.524998,0.253171,0.000000,-0.000000,0.000000
0.740000,-0.860000,0.635226,0.040000,-348.523096,3107.800000,-144.638497,144.241373,-959.064771,-0.000000,0.000000,-0.000000,969.681882,-970.079007,0.230956,0.000000,-0.000000,0.000000
0.780000,-0.860000,0.661430,0.040000,-319.711182,3411.800000,-90.116392,89.744622,-921.757211,-0.000000,0.000000,-0.000000,925.947911,-926.319681,0.210518,0.000000,-0.000000,0.000000
0.820000,-0.860000,0.688961,0.040000,-290.754517,3731.800000,-42.059096,41.715303,-883.162531,-0.000000,0.000000,-0.000000,883.983383,-884.327176,0.191796,0.000000,-0.000000,0.000000
0.860000,-0.860000,0.716996,0.040000,-261.730035,4067.800000,0.017365,-0.332042,-843.987790,0.000000,-0.000000,-0.000000,843.830452,-844.145128,0.174703,0.000000,-0.000000,0.000000
0.900000,-0.860000,0.745246,0.040000,-232.705102,4419.800000,36.555840,-36.824857,-804.862260,0.000000,-0.000000,-0.000000,805.563594,-805.832610,0.086704,0.000000,-0.000000,0.000000
0.940000,-0.860000,0.774531,0.040000,-203.738323,4787.800000,67.677173,-69.636504,-766.090661,0.000000,-0.000000,-0.000000,768.181230,-770.140561,0.423436,0.000000,-0.000000,0.000000
0.980000,-0.860000,0.804740,0.040000,-174.880347,5171.800000,94.476509,-95.779619,-728.075881,0.000000,-0.000000,-0.000000,733.612551,-734.915661,-0.241935,0.000000,-0.000000,-0.000000
1.020000,-0.860000,0.834801,0.040000,-146.174658,5571.800000,118.187712,-119.029841,-691.548014,0.000000,-0.000000,-0.000000,701.224641,-702.066770,0.039099,0.000000,-0.000000,0.000000
-1.020000,-0.820000,0.809739,0.040000,-170.259921,5538.200000,155.450317,-156.680840,712.034583,0.000000,-0.000000,0.000000,728.321907,-729.552431,0.561786,0.000000,-0.000000,0.000000
-0.980000,-0.820000,0.778355,0.040000,-200.129108,5138.200000,133.826667,-135.541535,752.703442,0.000000,-0.000000,0.000000,763.800817,-765.515686,0.192494,0.000000,-0.000000,0.000000
-0.940000,-0.820000,0.747794,0.040000,-230.213386,4754.200000,108.570910,-109.051391,795.264745,0.000000,-0.000000,0.000000,802.433954,-802.914434,0.139232,0.000000,-0.000000,0.000000
-0.900000,-0.820000,0.718160,0.040000,-260.471107,4386.200000,77.885621,-78.193823,838.900162,0.000000,-0.000000,0.000000,842.368096,-842.676299,0.165969,0.000000,-0.000000,0.000000
-0.860000,-0.820000,0.689162,0.040000,-290.852976,4034.200000,41.741891,-42.085974,883.536223,0.000000,-0.000000,0.000000,884.357778,-884.701862,0.182878,0.000000,-0.000000,0.000000
-0.820000,-0.820000,0.660094,0.040000,-321.301108,3698.200000,-0.392060,0.011015,928.730469,-0.000000,0.000000,0.000000,928.539946,-928.920991,0.201537,0.000000,-0.000000,0.000000
-0.780000,-0.820000,0.632221,0.040000,-351.748034,3378.200000,-49.157233,48.739271,973.908683,-0.000000,0.000000,0.000000,974.928961,-975.346923,0.222087,0.000000,-0.000000,0.000000
-0.740000,-0.820000,0.605598,0.040000,-382.115673,3074.200000,-105.192990,104.739731,1018.338825,-0.000000,0.000000,0.000000,1023.507633,-1023.960891,0.244664,0.000000,-0.000000,0.000000
-0.700000,-0.820000,0.578595,0.040000,-412.314314,2786.200000,-169.109438,168.624620,1061.108548,-0.000000,0.000000,0.000000,1074.219014,-1074.703833,0.269400,0.000000,-0.000000,0.000000
-0.660000,-0.820000,0.553169,0.040000,-442.241645,2514.200000,-241.450498,240.940580,1101.104851,-0.000000,0.000000,0.000000,1126.957130,-1127.467047,0.296410,0.000000,-0.000000,0.000000
-0.620000,-0.820000,0.528870,0.040000,-471.781880,2258.200000,-322.646442,322.121256,1136.998614,-0.000000,0.000000,0.000000,1181.556804,-1182.081990,0.325792,0.000000,-0.000000,0.000000
-0.580000,-0.820000,0.504786,0.040000,-500.805084,2018.200000,-412.955310,412.428681,1167.237716,-0.000000,0.000000,0.000000,1237.782905,-1238.309534,0.357606,0.000000,-0.000000,0.000000
-0.540000,-0.820000,0.482819,0.040000,-529.166761,1794.200000,-512.393627,511.883890,1190.053370,-0.000000,0.000000,0.000000,1295.319512,-1295.829250,0.391868,0.000000,-0.000000,0.000000
-0.500000,-0.820000,0.460872,0.040000,-556.707835,1586.200000,-620.658451,620.188719,1203.485024,-0.000000,0.000000,0.000000,1353.759759,-1354.229491,0.428519,0.000000,-0.000000,0.000000
-0.460000,-0.820000,0.440958,0.040000,-583.255145,1394.200000,-737.044975,736.643017,1205.429541,-0.000000,0.000000,0.000000,1412.597391,-1412.999349,0.467396,0.000000,-0.000000,0.000000
-0.420000,-0.820000,0.421839,0.040000,-608.622576,1218.200000,-860.366632,860.064168,1193.719784,-0.000000,0.000000,0.000000,1471.221324,-1471.523788,0.508194,0.000000,-0.000000,0.000000
-0.380000,-0.820000,0.404470,0.040000,-632.612963,1058.200000,-988.887687,988.718952,1166.236085,-0.000000,0.000000,0.000000,1528.914751,-1529.083487,0.550411,0.000000,-0.000000,0.000000
-0.340000,-0.820000,0.388222,0.040000,-655.020878,914.200000,-1120.281064,1120.280515,1121.050720,-0.000000,0.000000,0.000000,1584.860417,-1584.860966,0.593309,0.000000,-0.000000,0.000000
-0.300000,-0.820000,0.373978,0.040000,-675.636345,786.200000,-1251.625913,1251.825107,1056.600554,-0.000000,0.000000,0.000000,1638.153650,-1637.954456,0.635871,0.000000,-0.000000,0.000000
-0.260000,-0.820000,0.360674,0.040000,-694.249516,674.200000,-1379.459169,1379.882986,971.876500,-0.000000,0.000000,0.000000,1687.824350,-1687.400533,0.676811,0.000000,-0.000000,0.000000
-0.220000,-0.820000,0.350186,0.040000,-710.656198,578.200000,-1499.892077,1500.554686,866.611372,-0.000000,0.000000,0.000000,1732.868448,-1732.205840,0.714622,0.000000,-0.000000,0.000000
-0.180000,-0.820000,0.339923,0.040000,-724.664059,498.200000,-1608.795807,1609.696979,741.441493,-0.000000,0.000000,0.000000,1772.288299,-1771.387127,0.747702,0.000000,-0.000000,0.000000
-0.140000,-0.820000,0.332820,0.040000,-736.099216,434.200000,-1702.049937,1703.172433,598.014020,-0.000000,0.000000,0.000000,1805.140151,-1804.017654,0.774532,0.000000,-0.000000,0.000000
-0.100000,-0.820000,0.326671,0.040000,-744.812795,386.200000,-1775.835228,1777.143965,439.013501,-0.000000,0.000000,0.000000,1830.585381,-1829.276644,0.793891,0.000000,-0.000000,0.000000
-0.060000,-0.820000,0.322702,0.040000,-750.687023,354.200000,-1826.940150,1828.383633,268.088708,-0.000000,0.000000,0.000000,1847.940975,-1846.497492,0.805033,0.000000,-0.000000,0.000000
-0.020000,-0.820000,0.321433,0.040000,-753.640334,338.200000,-1853.042348,1854.556468,89.674315,-0.000000,0.000000,0.000000,1856.723945,-1855.209825,0.807789,0.000000,-0.000000,0.000000
0.020000,-0.820000,0.320652,0.040000,-753.631073,338.200000,-1852.924770,1854.438569,-91.280818,-0.000000,0.000000,-0.000000,1856.684505,-1855.170706,0.802543,0.000000,-0.000000,0.000000
0.060000,-0.820000,0.323030,0.040000,-750.659426,354.200000,-1826.592945,1828.035496,-269.649856,-0.000000,0.000000,-0.000000,1847.823785,-1846.381234,0.790095,0.000000,-0.000000,0.000000
0.100000,-0.820000,0.326774,0.040000,-744.767417,386.200000,-1775.274444,1776.581729,-440.487101,-0.000000,0.000000,-0.000000,1830.393750,-1829.086465,0.771468,0.000000,-0.000000,0.000000
0.140000,-0.820000,0.332321,0.040000,-736.036952,434.200000,-1701.300613,1702.421269,-599.363797,-0.000000,0.000000,-0.000000,1804.879331,-1803.758675,0.747708,0.000000,-0.000000,0.000000
0.180000,-0.820000,0.340769,0.040000,-724.586106,498.200000,-1607.889701,1608.788799,-742.639117,-0.000000,0.000000,-0.000000,1771.965138,-1771.066040,0.719762,0.000000,-0.000000,0.000000
0.220000,-0.820000,0.349403,0.040000,-710.564001,578.200000,-1498.864981,1499.525442,-867.637581,-0.000000,0.000000,-0.000000,1732.490956,-1731.830496,0.688427,0.000000,-0.000000,0.000000
0.260000,-0.820000,0.361199,0.040000,-694.144716,674.200000,-1378.348198,1378.769935,-972.721278,-0.000000,0.000000,-0.000000,1687.401242,-1686.979505,0.654383,0.000000,-0.000000,0.000000
0.300000,-0.820000,0.373645,0.040000,-675.520716,786.200000,-1250.467058,1250.664352,-1057.262505,-0.000000,0.000000,-0.000000,1637.693898,-1637.496603,0.618253,0.000000,-0.000000,0.000000
0.340000,-0.820000,0.388432,0.040000,-654.896272,914.200000,-1119.107243,1119.105052,-1121.535818,-0.000000,0.000000,-0.000000,1584.372857,-1584.375049,0.580654,0.000000,-0.000000,0.000000
0.380000,-0.820000,0.404315,0.040000,-632.481256,1058.200000,-987.727407,987.557328,-1166.556083,-0.000000,0.000000,-0.000000,1528.407763,-1528.577842,0.542223,0.000000,-0.000000,0.000000
0.420000,-0.820000,0.422006,0.040000,-608.485620,1218.200000,-859.243253,858.939755,-1193.890503,-0.000000,0.000000,-0.000000,1470.702591,-1471.006089,0.503607,0.000000,-0.000000,0.000000
0.460000,-0.820000,0.440715,0.040000,-583.114738,1394.200000,-735.976513,735.573816,-1205.469234,-0.000000,0.000000,-0.000000,1412.073749,-1412.476445,0.465428,0.000000,-0.000000,0.000000
0.500000,-0.820000,0.461251,0.040000,-556.565685,1586.200000,-619.657801,619.187597,-1203.412958,-0.000000,0.000000,-0.000000,1353.237116,-1353.707320,0.428252,0.000000,-0.000000,0.000000
0.540000,-0.820000,0.482247,0.040000,-529.024468,1794.200000,-511.469073,510.959091,-1189.888683,-0.000000,0.000000,-0.000000,1294.802831,-1295.312813,0.392551,0.000000,-0.000000,0.000000
0.580000,-0.820000,0.505541,0.040000,-500.664127,2018.200000,-412.111198,411.584508,-1166.998578,-0.000000,0.000000,-0.000000,1237.276233,-1237.802923,0.358688,0.000000,-0.000000,0.000000
0.620000,-0.820000,0.528440,0.040000,-471.643609,2258.200000,-321.883913,321.358808,-1136.701663,-0.000000,0.000000,-0.000000,1181.063340,-1181.588445,0.326911,0.000000,-0.000000,0.000000
0.660000,-0.820000,0.553232,0.040000,-442.107281,2514.200000,-240.768211,240.258478,-1100.764878,-0.000000,0.000000,-0.000000,1126.479307,-1126.989039,0.297364,0.000000,-0.000000,0.000000
0.700000,-0.820000,0.578935,0.040000,-412.184949,2786.200000,-168.504228,168.019666,-1060.738361,-0.000000,0.000000,-0.000000,1073.758595,-1074.243156,0.270098,0.000000,-0.000000,0.000000
0.740000,-0.820000,0.604932,0.040000,-381.992275,3074.200000,-104.660439,104.207482,-1017.949265,-0.000000,0.000000,-0.000000,1023.065805,-1023.518762,0.245093,0.000000,-0.000000,0.000000
0.780000,-0.820000,0.632393,0.040000,-351.631456,3378.200000,-48.692142,48.274504,-973.508726,-0.000000,0.000000,-0.000000,974.506433,-974.924072,0.222276,0.000000,-0.000000,0.000000
0.820000,-0.820000,0.660441,0.040000,-321.192095,3698.200000,0.011180,-0.391894,-928.327392,0.000000,-0.000000,-0.000000,928.137034,-928.517749,0.201537,0.000000,-0.000000,0.000000
0.860000,-0.820000,0.688687,0.040000,-290.752173,4034.200000,42.089011,-42.432769,-883.135798,0.000000,-0.000000,-0.000000,883.974482,-884.318240,0.182743,0.000000,-0.000000,0.000000
0.900000,-0.820000,0.718051,0.040000,-260.379070,4386.200000,78.182268,-78.490159,-838.506859,0.000000,-0.000000,-0.000000,842.004168,-842.312059,0.165750,0.000000,-0.000000,0.000000
0.940000,-0.820000,0.748402,0.040000,-230.130591,4754.200000,108.821899,-109.301780,-794.881917,0.000000,-0.000000,-0.000000,802.088996,-802.568877,0.161100,0.000000,-0.000000,0.000000
0.980000,-0.820000,0.778382,0.040000,-200.055957,5138.200000,134.038437,-135.752085,-752.333634,0.000000,-0.000000,-0.000000,763.474663,-765.188312,0.080584,0.000000,-0.000000,0.000000
1.020000,-0.820000,0.809136,0.040000,-170.196753,5538.200000,155.627076,-156.856384,-711.679480,0.000000,-0.000000,-0.000000,728.013551,-729.242860,-0.313453,0.000000,-0.000000,-0.000000
-1.060000,-0.780000,0.816451,0.040000,-163.299883,5922.200000,213.220353,-214.372463,688.326940,0.000000,-0.000000,0.000000,720.189151,-721.341261,0.630658,0.000000,-0.000000,0.000000
-1.020000,-0.780000,0.784564,0.040000,-194.041041,5506.200000,197.231231,-198.896045,730.885032,0.000000,-0.000000,0.000000,756.413927,-758.078740,0.353877,0.000000,-0.000000,0.000000
-0.980000,-0.780000,0.753450,0.040000,-225.099046,5106.200000,178.357272,-179.242293,776.206862,0.000000,-0.000000,0.000000,796.091511,-796.976533,-0.079228,0.000000,-0.000000,-0.000000
-0.940000,-0.780000,0.722097,0.040000,-256.442056,4722.200000,154.033926,-154.073360,822.624005,0.000000,-0.000000,0.000000,836.904816,-836.944250,0.322965,0.000000,-0.000000,0.000000
-0.900000,-0.780000,0.691363,0.040000,-288.031199,4354.200000,124.818700,-125.147426,871.631463,0.000000,-0.000000,0.000000,880.382140,-880.710866,0.172506,0.000000,-0.000000,0.000000
-0.860000,-0.780000,0.661620,0.040000,-319.819552,4002.200000,89.802983,-90.175072,922.154567,0.000000,-0.000000,0.000000,926.348917,-926.721006,0.190949,0.000000,-0.000000,0.000000
-0.820000,-0.780000,0.632665,0.040000,-351.751023,3666.200000,48.306806,-48.724815,973.941171,0.000000,-0.000000,0.000000,974.939776,-975.357785,0.211438,0.000000,-0.000000,0.000000
-0.780000,-0.780000,0.603527,0.040000,-383.759150,3346.200000,-0.466883,0.001437,1026.439290,-0.000000,0.000000,0.000000,1026.206567,-1026.672013,0.234160,0.000000,-0.000000,0.000000
-0.740000,-0.780000,0.575695,0.040000,-415.765822,3042.200000,-57.340475,56.827656,1078.915956,-0.000000,0.000000,0.000000,1080.168583,-1080.681402,0.259304,0.000000,-0.000000,0.000000
-0.700000,-0.780000,0.549041,0.040000,-447.679969,2754.200000,-123.133913,122.576046,1130.425139,-0.000000,0.000000,0.000000,1136.802532,-1137.360399,0.287055,0.000000,-0.000000,0.000000
-0.660000,-0.780000,0.522178,0.040000,-479.396255,2482.200000,-198.625150,198.027624,1179.775943,-0.000000,0.000000,0.000000,1196.030845,-1196.628371,0.317591,0.000000,-0.000000,0.000000
-0.620000,-0.780000,0.497085,0.040000,-510.793834,2226.200000,-284.496580,283.868770,1225.504193,-0.000000,0.000000,0.000000,1257.708430,-1258.336240,0.351072,0.000000,-0.000000,0.000000
-0.580000,-0.780000,0.472675,0.040000,-541.735265,1986.200000,-381.265668,380.621895,1265.851847,-0.000000,0.000000,0.000000,1321.608109,-1322.251881,0.387628,0.000000,-0.000000,0.000000
-0.540000,-0.780000,0.449141,0.040000,-572.065694,1762.200000,-489.198996,488.559440,1298.760235,-0.000000,0.000000,0.000000,1387.405286,-1388.044843,0.427345,0.000000,-0.000000,0.000000
-0.500000,-0.780000,0.427491,0.040000,-601.612436,1554.200000,-608.210836,607.602217,1321.884599,-0.000000,0.000000,0.000000,1454.662706,-1455.271325,0.470236,0.000000,-0.000000,0.000000
-0.460000,-0.780000,0.405943,0.040000,-630.185119,1362.200000,-737.750142,737.205976,1332.638535,-0.000000,0.000000,0.000000,1522.816583,-1523.360750,0.516200,0.000000,-0.000000,0.000000
-0.420000,-0.780000,0.387052,0.040000,-657.576578,1186.200000,-876.683782,876.243901,1328.277126,-0.000000,0.000000,0.000000,1591.165830,-1591.605710,0.564973,0.000000,-0.000000,0.000000
-0.380000,-0.780000,0.368045,0.040000,-683.564680,1026.200000,-1023.188453,1022.897535,1306.026137,-0.000000,0.000000,0.000000,1658.866554,-1659.157472,0.616046,0.000000,-0.000000,0.000000
-0.340000,-0.780000,0.351947,0.040000,-707.915243,882.200000,-1174.668714,1174.573553,1263.260933,-0.000000,0.000000,0.000000,1724.934317,-1725.029477,0.668594,0.000000,-0.000000,0.000000
-0.300000,-0.780000,0.336169,0.040000,-730.386195,754.200000,-1327.722512,1327.867951,1197.732154,-0.000000,0.000000,0.000000,1788.256706,-1788.111266,0.721392,0.000000,-0.000000,0.000000
-0.260000,-0.780000,0.322939,0.040000,-750.733017,642.200000,-1478.177147,1478.600821,1107.825749,-0.000000,0.000000,0.000000,1847.618474,-1847.194799,0.772791,0.000000,-0.000000,0.000000
-0.220000,-0.780000,0.311182,0.040000,-768.715401,546.200000,-1621.215735,1621.942123,992.833592,-0.000000,0.000000,0.000000,1901.740614,-1901.014225,0.820763,0.000000,-0.000000,0.000000
-0.180000,-0.780000,0.300939,0.040000,-784.104945,466.200000,-1751.605540,1752.640200,853.199748,-0.000000,0.000000,0.000000,1949.333283,-1948.298622,0.863057,0.000000,-0.000000,0.000000
-0.140000,-0.780000,0.293855,0.040000,-796.693491,402.200000,-1864.024630,1865.349760,690.699845,-0.000000,0.000000,0.000000,1989.160442,-1987.835311,0.897476,0.000000,-0.000000,0.000000
-0.100000,-0.780000,0.286873,0.040000,-806.301607,354.200000,-1953.463793,1955.036310,508.510550,-0.000000,0.000000,0.000000,2020.111738,-2018.539221,0.922211,0.000000,-0.000000,0.000000
-0.060000,-0.780000,0.282902,0.040000,-812.786565,322.200000,-2015.660410,2017.413459,311.135794,-0.000000,0.000000,0.000000,2041.274970,-2039.521921,0.936158,0.000000,-0.000000,0.000000
-0.020000,-0.780000,0.281454,0.040000,-816.049123,306.200000,-2047.505705,2049.353884,104.176461,-0.000000,0.000000,0.000000,2052.000996,-2050.152817,0.939096,0.000000,-0.000000,0.000000
0.020000,-0.780000,0.280675,0.040000,-816.038473,306.200000,-2047.362139,2049.209886,-106.042295,-0.000000,0.000000,-0.000000,2051.952807,-2050.105061,0.931655,0.000000,-0.000000,0.000000
0.060000,-0.780000,0.283054,0.040000,-812.754843,322.200000,-2015.237166,2016.988963,-312.943482,-0.000000,0.000000,-0.000000,2041.131930,-2039.380133,0.915090,0.000000,-0.000000,0.000000
0.100000,-0.780000,0.287319,0.040000,-806.249488,354.200000,-1952.782425,1954.353003,-510.206411,-0.000000,0.000000,-0.000000,2019.878303,-2018.307726,0.890933,0.000000,-0.000000,0.000000
0.140000,-0.780000,0.292861,0.040000,-796.622063,402.200000,-1863.118539,1864.441237,-692.238507,-0.000000,0.000000,-0.000000,1988.843654,-1987.520956,0.860677,0.000000,-0.000000,0.000000
0.180000,-0.780000,0.301562,0.040000,-784.015654,466.200000,-1750.516653,1751.548612,-854.546863,-0.000000,0.000000,-0.000000,1948.942252,-1947.910293,0.825577,0.000000,-0.000000,0.000000
0.220000,-0.780000,0.311003,0.040000,-768.609985,546.200000,-1619.990669,1620.714308,-993.967185,-0.000000,0.000000,-0.000000,1901.285892,-1900.562254,0.786616,0.000000,-0.000000,0.000000
0.260000,-0.780000,0.322756,0.040000,-750.613432,642.200000,-1476.863412,1477.284479,-1108.736193,-0.000000,0.000000,-0.000000,1847.111405,-1846.690339,0.744587,0.000000,-0.000000,0.000000
0.300000,-0.780000,0.336626,0.040000,-730.254539,754.200000,-1326.365222,1326.508340,-1198.420998,-0.000000,0.000000,-0.000000,1787.708807,-1787.565690,0.700217,0.000000,-0.000000,0.000000
0.340000,-0.780000,0.351303,0.040000,-707.773684,882.200000,-1173.308105,1173.210998,-1263.738941,-0.000000,0.000000,-0.000000,1724.356753,-1724.453860,0.654260,0.000000,-0.000000,0.000000
0.380000,-0.780000,0.368789,0.040000,-683.415392,1026.200000,-1021.858314,1021.565864,-1306.310928,-0.000000,0.000000,-0.000000,1658.269725,-1658.562175,0.607524,0.000000,-0.000000,0.000000
0.420000,-0.780000,0.386290,0.040000,-657.421687,1186.200000,-875.410759,874.969759,-1328.390766,-0.000000,0.000000,-0.000000,1590.559089,-1591.000090,0.560847,0.000000,-0.000000,0.000000
0.460000,-0.780000,0.406646,0.040000,-630.026660,1362.200000,-736.553775,736.008867,-1332.605355,-0.000000,0.000000,-0.000000,1522.208072,-1522.752980,0.515035,0.000000,-0.000000,0.000000
0.500000,-0.780000,0.426918,0.040000,-601.452322,1554.200000,-607.104104,606.495072,-1321.729383,-0.000000,0.000000,-0.000000,1454.059290,-1454.668322,0.470797,0.000000,-0.000000,0.000000
0.540000,-0.780000,0.449520,0.040000,-571.905696,1762.200000,-488.189199,487.549497,-1298.506854,-0.000000,0.000000,-0.000000,1386.812575,-1387.452277,0.428702,0.000000,-0.000000,0.000000
0.580000,-0.780000,0.472548,0.040000,-541.576997,1986.200000,-380.355447,379.711737,-1265.522325,-0.000000,0.000000,-0.000000,1321.030533,-1321.674243,0.389160,0.000000,-0.000000,0.000000
0.620000,-0.780000,0.496908,0.040000,-510.638753,2226.200000,-283.684957,283.057361,-1225.118152,-0.000000,0.000000,-0.000000,1257.149354,-1257.776949,0.352419,0.000000,-0.000000,0.000000
0.660000,-0.780000,0.522705,0.040000,-479.245661,2482.200000,-197.908486,197.311278,-1179.350359,-0.000000,0.000000,-0.000000,1195.492696,-1196.089903,0.318589,0.000000,-0.000000,0.000000
0.700000,-0.780000,0.548450,0.040000,-447.535008,2754.200000,-122.506748,121.949263,-1129.974314,-0.000000,0.000000,-0.000000,1136.286941,-1136.844426,0.287670,0.000000,-0.000000,0.000000
0.740000,-0.780000,0.575825,0.040000,-415.627498,3042.200000,-56.796216,56.283812,-1078.451655,-0.000000,0.000000,-0.000000,1079.676518,-1080.188921,0.259575,0.000000,-0.000000,0.000000
0.780000,-0.780000,0.603888,0.040000,-383.628334,3346.200000,0.001649,-0.466671,-1025.970965,0.000000,-0.000000,-0.000000,1025.738455,-1026.203476,0.234160,0.000000,-0.000000,0.000000
0.820000,-0.780000,0.632130,0.040000,-351.628467,3666.200000,48.706969,-49.124561,-973.476238,0.000000,-0.000000,-0.000000,974.495618,-974.913210,0.211249,0.000000,-0.000000,0.000000
0.860000,-0.780000,0.661586,0.040000,-319.705896,4002.200000,90.142015,-90.513706,-921.698689,0.000000,-0.000000,-0.000000,925.928381,-926.300071,0.190645,0.000000,-0.000000,0.000000
0.900000,-0.780000,0.691984,0.040000,-287.926986,4354.200000,125.103518,-125.431872,-871.188833,0.000000,-0.000000,-0.000000,879.984645,-880.312999,0.172148,0.000000,-0.000000,0.000000
0.940000,-0.780000,0.721986,0.040000,-256.347742,4722.200000,154.270946,-154.309905,-822.197542,0.000000,-0.000000,-0.000000,836.529583,-836.568542,-0.011584,0.000000,-0.000000,-0.000000
0.980000,-0.780000,0.752919,0.040000,-225.015011,5106.200000,178.551898,-179.436192,-775.798677,0.000000,-0.000000,-0.000000,795.737686,-796.621980,0.360123,0.000000,-0.000000,0.000000
1.020000,-0.780000,0.784671,0.040000,-193.967598,5506.200000,197.390372,-199.053854,-730.496353,0.000000,-0.000000,-0.000000,756.081013,-757.744496,-0.099102,0.000000,-0.000000,-0.000000
1.060000,-0.780000,0.817027,0.040000,-163.237287,5922.200000,213.348231,-214.499122,-687.958506,0.000000,-0.000000,-0.000000,719.875862,-721.026752,-0.399556,0.000000,-0.000000,-0.000000
-1.100000,-0.740000,0.826644,0.040000,-154.138403,6323.800000,266.723952,-267.413968,658.540755,0.000000,-0.000000,0.000000,710.289282,-710.979298,0.813114,0.000000,-0.000000,0.000000
-1.060000,-0.740000,0.793437,0.040000,-185.615592,5891.800000,256.949922,-258.138653,701.312561,0.000000,-0.000000,0.000000,746.512298,-747.701029,-0.047536,0.000000,-0.000000,-0.000000
-1.020000,-0.740000,0.760585,0.040000,-217.504298,5475.800000,243.320286,-244.253628,748.032314,0.000000,-0.000000,0.000000,786.288867,-787.222209,0.383838,0.000000,-0.000000,0.000000
-0.980000,-0.740000,0.728448,0.040000,-249.782811,5075.800000,226.242976,-226.336488,796.622802,0.000000,-0.000000,0.000000,828.092577,-828.186088,0.421263,0.000000,-0.000000,0.000000
-0.940000,-0.740000,0.697125,0.040000,-282.423255,4691.800000,204.570853,-204.870253,848.325532,0.000000,-0.000000,0.000000,872.528183,-872.827583,0.160806,0.000000,-0.000000,0.000000
-0.900000,-0.740000,0.665891,0.040000,-315.390556,4323.800000,177.469593,-177.815613,902.677454,0.000000,-0.000000,0.000000,919.817994,-920.164014,0.178710,0.000000,-0.000000,0.000000
-0.860000,-0.740000,0.634956,0.040000,-348.641282,3971.800000,144.337056,-144.734524,959.484395,0.000000,-0.000000,0.000000,970.110938,-970.508406,0.198765,0.000000,-0.000000,0.000000
-0.820000,-0.740000,0.605085,0.040000,-382.122343,3635.800000,104.278699,-104.732065,1018.410247,0.000000,-0.000000,0.000000,1023.531471,-1023.984837,0.221203,0.000000,-0.000000,0.000000
-0.780000,-0.740000,0.576183,0.040000,-415.769560,3315.800000,56.323450,-56.836332,1078.955834,0.000000,-0.000000,0.000000,1080.181857,-1080.694739,0.246270,0.000000,-0.000000,0.000000
-0.740000,-0.740000,0.546961,0.040000,-449.506114,3011.800000,-0.561505,-0.013062,1140.419674,-0.000000,0.000000,0.000000,1140.132391,-1140.706957,0.274222,0.000000,-0.000000,0.000000
-0.700000,-0.740000,0.519178,0.040000,-483.240897,2723.800000,-67.445109,66.808956,1201.854353,-0.000000,0.000000,0.000000,1203.409397,-1204.045550,0.305315,0.000000,-0.000000,0.000000
-0.660000,-0.740000,0.492488,0.040000,-516.866800,2451.800000,-145.392589,144.698245,1262.020237,-0.000000,0.000000,0.000000,1269.980792,-1270.675135,0.339806,0.000000,-0.000000,0.000000
-0.620000,-0.740000,0.465798,0.040000,-550.259021,2195.800000,-235.407691,234.663092,1319.339677,-0.000000,0.000000,0.000000,1339.739142,-1340.483741,0.377940,0.000000,-0.000000,0.000000
-0.580000,-0.740000,0.441125,0.040000,-583.273459,1955.800000,-338.353406,337.572433,1371.856732,-0.000000,0.000000,0.000000,1412.482351,-1413.263323,0.419941,0.000000,-0.000000,0.000000
-0.540000,-0.740000,0.416582,0.040000,-615.745347,1731.800000,-454.848432,454.052382,1417.209768,-0.000000,0.000000,0.000000,1487.892431,-1488.688482,0.465997,0.000000,-0.000000,0.000000
-0.500000,-0.740000,0.393759,0.040000,-647.488271,1523.800000,-585.138522,584.357432,1452.626885,-0.000000,0.000000,0.000000,1565.513282,-1566.294372,0.516226,0.000000,-0.000000,0.000000
-0.460000,-0.740000,0.371934,0.040000,-678.293789,1331.800000,-728.945246,728.218797,1474.956577,-0.000000,0.000000,0.000000,1644.728974,-1645.455422,0.570640,0.000000,-0.000000,0.000000
-0.420000,-0.740000,0.351534,0.040000,-707.931897,1155.800000,-885.299898,884.677473,1480.747634,-0.000000,0.000000,0.000000,1724.744767,-1725.367193,0.629068,0.000000,-0.000000,0.000000
-0.380000,-0.740000,0.332443,0.040000,-736.152584,995.800000,-1052.377227,1051.916650,1466.391937,-0.000000,0.000000,0.000000,1804.573860,-1805.034437,0.691054,0.000000,-0.000000,0.000000
-0.340000,-0.740000,0.315224,0.040000,-762.688775,851.800000,-1227.351830,1227.116324,1428.340253,-0.000000,0.000000,0.000000,1883.033539,-1883.269044,0.755727,0.000000,-0.000000,0.000000
-0.300000,-0.740000,0.298930,0.040000,-787.260851,723.800000,-1406.308003,1406.361039,1363.393000,-0.000000,0.000000,0.000000,1958.754825,-1958.701790,0.821660,0.000000,-0.000000,0.000000
-0.260000,-0.740000,0.285820,0.040000,-809.582920,611.800000,-1587.871592,1585.554731,1270.549384,-0.000000,0.000000,0.000000,2031.562181,-2033.879042,1.143564,0.000000,-0.000000,0.000000
-0.220000,-0.740000,0.272467,0.040000,-829.370815,515.800000,-1760.794349,1757.517213,1145.713200,-0.000000,0.000000,0.000000,2097.715097,-2100.992232,1.411230,0.000000,-0.000000,0.000000
-0.180000,-0.740000,0.262260,0.040000,-846.351630,435.800000,-1918.125924,1915.289527,990.148332,-0.000000,0.000000,0.000000,2155.932380,-2158.768778,0.838823,0.000000,-0.000000,0.000000
-0.140000,-0.740000,0.254269,0.040000,-860.274345,371.800000,-2055.759466,2052.626601,805.062884,-0.000000,0.000000,0.000000,2204.750478,-2207.883343,0.979537,0.000000,-0.000000,0.000000
-0.100000,-0.740000,0.247139,0.040000,-870.920876,323.800000,-2165.989151,2162.621689,594.719899,-0.000000,0.000000,0.000000,2242.844854,-2246.212316,1.068480,0.000000,-0.000000,0.000000
-0.060000,-0.740000,0.243168,0.040000,-878.116646,291.800000,-2243.018486,2239.488807,364.728994,-0.000000,0.000000,0.000000,2268.971587,-2272.501266,1.108039,0.000000,-0.000000,0.000000
-0.020000,-0.740000,0.241482,0.040000,-881.739702,275.800000,-2282.575939,2278.963551,122.264700,-0.000000,0.000000,0.000000,2282.238039,-2285.850427,1.108651,0.000000,-0.000000,0.000000
0.020000,-0.740000,0.240705,0.040000,-881.727431,275.800000,-2282.397428,2278.785412,-124.453842,-0.000000,0.000000,-0.000000,2282.178406,-2285.790421,1.086927,0.000000,-0.000000,0.000000
0.060000,-0.740000,0.243085,0.040000,-878.080117,291.800000,-2242.493276,2238.964698,-366.842299,-0.000000,0.000000,-0.000000,2268.794791,-2272.323370,1.062185,0.000000,-0.000000,0.000000
0.100000,-0.740000,0.248039,0.040000,-870.860920,323.800000,-2165.146983,2161.781303,-596.687999,-0.000000,0.000000,-0.000000,2242.557022,-2245.922702,1.052323,0.000000,-0.000000,0.000000
0.140000,-0.740000,0.253570,0.040000,-860.192296,371.800000,-2054.646036,2051.515555,-806.828340,-0.000000,0.000000,-0.000000,2204.361226,-2207.491708,1.070209,0.000000,-0.000000,0.000000
0.180000,-0.740000,0.262259,0.040000,-846.249250,435.800000,-1916.797882,1913.964362,-991.669322,-0.000000,0.000000,-0.000000,2155.454035,-2158.287555,1.121559,0.000000,-0.000000,0.000000
0.220000,-0.740000,0.273063,0.040000,-829.250211,515.800000,-1759.317904,1756.040854,-1146.963324,-0.000000,0.000000,-0.000000,2097.161482,-2100.438532,0.442425,0.000000,-0.000000,0.000000
0.260000,-0.740000,0.284742,0.040000,-809.446439,611.800000,-1586.307207,1583.988764,-1271.522763,-0.000000,0.000000,-0.000000,2030.949023,-2033.267466,0.594899,0.000000,-0.000000,0.000000
0.300000,-0.740000,0.299593,0.040000,-787.110988,723.800000,-1404.711785,1404.761987,-1364.097572,-0.000000,0.000000,-0.000000,1958.097436,-1958.047234,0.796536,0.000000,-0.000000,0.000000
0.340000,-0.740000,0.314878,0.040000,-762.528079,851.800000,-1225.770533,1225.532740,-1428.793147,-0.000000,0.000000,-0.000000,1882.345245,-1882.583038,0.739952,0.000000,-0.000000,0.000000
0.380000,-0.740000,0.332582,0.040000,-735.983583,995.800000,-1050.850590,1050.388298,-1466.619084,-0.000000,0.000000,-0.000000,1803.867601,-1804.329893,0.682716,0.000000,-0.000000,0.000000
0.420000,-0.740000,0.351499,0.040000,-707.757030,1155.800000,-883.857794,883.234198,-1480.779562,-0.000000,0.000000,-0.000000,1724.031917,-1724.655513,0.625943,0.000000,-0.000000,0.000000
0.460000,-0.740000,0.371961,0.040000,-678.115362,1331.800000,-727.608144,726.881005,-1474.825511,-0.000000,0.000000,-0.000000,1644.019182,-1644.746321,0.570687,0.000000,-0.000000,0.000000
0.500000,-0.740000,0.393655,0.040000,-647.308421,1523.800000,-583.918583,583.137199,-1452.364493,-0.000000,0.000000,-0.000000,1564.814455,-1565.595838,0.517846,0.000000,-0.000000,0.000000
0.540000,-0.740000,0.416838,0.040000,-615.566027,1731.800000,-453.750925,452.954890,-1416.845579,-0.000000,0.000000,-0.000000,1487.210814,-1488.006849,0.468094,0.000000,-0.000000,0.000000
0.580000,-0.740000,0.440648,0.040000,-583.096424,1955.800000,-337.378218,336.597487,-1371.417164,-0.000000,0.000000,-0.000000,1411.822676,-1412.603406,0.421869,0.000000,-0.000000,0.000000
0.620000,-0.740000,0.466555,0.040000,-550.085833,2195.800000,-234.550752,233.806548,-1318.847571,-0.000000,0.000000,-0.000000,1339.104816,-1339.849019,0.379393,0.000000,-0.000000,0.000000
0.660000,-0.740000,0.491987,0.040000,-516.698830,2451.800000,-144.647123,143.953270,-1261.494761,-0.000000,0.000000,-0.000000,1269.374091,-1270.067944,0.340705,0.000000,-0.000000,0.000000
0.700000,-0.740000,0.519258,0.040000,-483.079337,2723.800000,-66.802671,66.167057,-1201.311162,-0.000000,0.000000,-0.000000,1202.831665,-1203.467279,0.305710,0.000000,-0.000000,0.000000
0.740000,-0.740000,0.547338,0.040000,-449.351995,3011.800000,-0.012785,-0.561229,-1139.871225,0.000000,-0.000000,-0.000000,1139.584218,-1140.158232,0.274222,0.000000,-0.000000,0.000000
0.780000,-0.740000,0.575575,0.040000,-415.623759,3315.800000,56.788019,-57.300359,-1078.411777,0.000000,-0.000000,-0.000000,1079.663244,-1080.175584,0.245999,0.000000,-0.000000,0.000000
0.820000,-0.740000,0.605140,0.040000,-381.985605,3635.800000,104.668514,-105.121365,-1017.877842,0.000000,-0.000000,-0.000000,1023.041966,-1023.494817,0.220774,0.000000,-0.000000,0.000000
0.860000,-0.740000,0.635475,0.040000,-348.514232,3971.800000,144.661061,-145.058051,-958.968914,0.000000,-0.000000,-0.000000,969.649756,-970.046746,0.198269,0.000000,-0.000000,0.000000
0.900000,-0.740000,0.665620,0.040000,-315.273712,4323.800000,177.736101,-178.081684,-902.182553,0.000000,-0.000000,-0.000000,919.384113,-919.729696,0.178214,0.000000,-0.000000,0.000000
0.940000,-0.740000,0.696759,0.040000,-282.317044,4691.800000,204.787456,-205.086463,-847.853577,0.000000,-0.000000,-0.000000,872.120420,-872.419427,0.160352,0.000000,-0.000000,0.000000
0.980000,-0.740000,0.728763,0.040000,-249.687581,5075.800000,226.416536,-226.509525,-796.174986,0.000000,-0.000000,-0.000000,827.709566,-827.802555,-0.131999,0.000000,-0.000000,-0.000000
1.020000,-0.740000,0.760955,0.040000,-217.420327,5475.800000,243.456906,-244.389135,-747.609229,0.000000,-0.000000,-0.000000,785.929450,-786.861679,-0.123197,0.000000,-0.000000,-0.000000
1.060000,-0.740000,0.793213,0.040000,-185.543099,5891.800000,257.054938,-258.242494,-700.914915,0.000000,-0.000000,-0.000000,746.175597,-747.363152,0.282620,0.000000,-0.000000,0.000000
1.100000,-0.740000,0.826148,0.040000,-154.077557,6323.800000,266.802216,-267.491448,-658.167097,0.000000,-0.000000,-0.000000,709.972917,-710.662149,-0.600161,0.000000,-0.000000,-0.000000
-1.140000,-0.700000,0.838169,0.040000,-142.872011,6743.000000,314.763283,-315.334965,622.777405,0.000000,-0.000000,0.000000,697.644707,-698.216389,0.772343,0.000000,-0.000000,0.000000
-1.100000,-0.700000,0.804276,0.040000,-174.946786,6295.000000,309.877644,-310.783928,665.600816,0.000000,-0.000000,0.000000,733.937107,-734.843390,0.778339,0.000000,-0.000000,0.000000
-1.060000,-0.700000,0.770969,0.040000,-207.518909,5863.000000,302.725791,-304.367970,711.912757,0.000000,-0.000000,0.000000,773.104192,-774.746372,0.374537,0.000000,-0.000000,0.000000
-1.020000,-0.700000,0.737996,0.040000,-240.576723,5447.000000,292.734993,-292.943128,761.607159,0.000000,-0.000000,0.000000,815.861460,-816.069594,0.662835,0.000000,-0.000000,0.000000
-0.980000,-0.700000,0.704830,0.040000,-274.103449,5047.000000,279.016266,-279.275000,814.631386,0.000000,-0.000000,0.000000,861.001609,-861.260342,0.148094,0.000000,-0.000000,0.000000
-0.940000,-0.700000,0.672408,0.040000,-308.076206,4663.000000,260.240270,-260.545603,871.199091,0.000000,-0.000000,0.000000,909.128539,-909.433872,0.165155,0.000000,-0.000000,0.000000
-0.900000,-0.700000,0.640843,0.040000,-342.464883,4295.000000,236.137712,-236.496146,931.247077,0.000000,-0.000000,0.000000,960.584425,-960.942859,0.184411,0.000000,-0.000000,0.000000
-0.860000,-0.700000,0.609752,0.040000,-377.230834,3943.000000,205.783978,-206.202302,994.668280,0.000000,-0.000000,0.000000,1015.565478,-1015.983802,0.206134,0.000000,-0.000000,0.000000
-0.820000,-0.700000,0.578581,0.040000,-412.325403,3607.000000,168.136895,-168.621896,1061.225998,0.000000,-0.000000,0.000000,1074.258401,-1074.743402,0.230623,0.000000,-0.000000,0.000000
-0.780000,-0.700000,0.548557,0.040000,-447.688253,3287.000000,122.037074,-122.595088,1130.513217,0.000000,-0.000000,0.000000,1136.831934,-1137.389947,0.258198,0.000000,-0.000000,0.000000
-0.740000,-0.700000,0.519719,0.040000,-483.245513,2983.000000,66.216235,-66.852475,1201.903846,0.000000,-0.000000,0.000000,1203.425869,-1204.062109,0.289196,0.000000,-0.000000,0.000000
-0.700000,-0.700000,0.490395,0.040000,-518.907751,2695.000000,-0.682781,-0.034844,1274.495883,-0.000000,0.000000,0.000000,1274.137070,-1274.854696,0.323969,0.000000,-0.000000,0.000000
-0.660000,-0.700000,0.462673,0.040000,-554.567806,2423.000000,-80.069630,79.270771,1347.047580,-0.000000,0.000000,0.000000,1349.002065,-1349.800924,0.362875,0.000000,-0.000000,0.000000
-0.620000,-0.700000,0.435938,0.040000,-590.098536,2167.000000,-173.348188,172.473167,1417.909309,-0.000000,0.000000,0.000000,1427.975856,-1428.850877,0.406273,0.000000,-0.000000,0.000000
-0.580000,-0.700000,0.409470,0.040000,-625.350580,1927.000000,-281.830327,280.891089,1484.956290,-0.000000,0.000000,0.000000,1510.906848,-1511.846086,0.454512,0.000000,-0.000000,0.000000
-0.540000,-0.700000,0.385343,0.040000,-660.150270,1703.000000,-406.615889,405.633467,1545.530586,-0.000000,0.000000,0.000000,1597.508097,-1598.490520,0.507917,0.000000,-0.000000,0.000000
-0.500000,-0.700000,0.360637,0.040000,-694.297885,1495.000000,-548.434575,547.441358,1596.404879,-0.000000,0.000000,0.000000,1687.325725,-1688.318943,0.566764,0.000000,-0.000000,0.000000
-0.460000,-0.700000,0.338769,0.040000,-727.566500,1303.000000,-707.449073,706.490766,1633.785036,-0.000000,0.000000,0.000000,1779.706120,-1780.664428,0.631235,0.000000,-0.000000,0.000000
-0.420000,-0.700000,0.316737,0.040000,-759.701746,1127.000000,-883.025192,882.161898,1653.372561,-0.000000,0.000000,0.000000,1873.764634,-1874.627928,0.701334,0.000000,-0.000000,0.000000
-0.380000,-0.700000,0.297932,0.040000,-790.422847,967.000000,-1073.484526,1072.790207,1650.510140,-0.000000,0.000000,0.000000,1968.359758,-1969.054077,0.776757,0.000000,-0.000000,0.000000
-0.340000,-0.700000,0.278617,0.040000,-819.425326,823.000000,-1279.180622,1276.247681,1621.828621,-0.000000,0.000000,0.000000,2063.207575,-2066.140516,1.617075,0.000000,-0.000000,0.000000
-0.300000,-0.700000,0.262506,0.040000,-846.385756,695.000000,-1490.687887,1487.489716,1560.131703,-0.000000,0.000000,0.000000,2155.109252,-2158.307423,2.352785,0.000000,-0.000000,0.000000
-0.260000,-0.700000,0.247492,0.040000,-870.968841,583.000000,-1698.070883,1699.032670,1460.861669,-0.000000,0.000000,0.000000,2240.835840,-2239.874052,2.160828,0.000000,-0.000000,0.000000
-0.220000,-0.700000,0.234183,0.040000,-892.836946,487.000000,-1902.909881,1904.572129,1326.954791,-0.000000,0.000000,0.000000,2321.399667,-2319.737419,0.685352,0.000000,-0.000000,0.000000
-0.180000,-0.700000,0.224045,0.040000,-911.661915,407.000000,-2099.056245,2098.130617,1151.766096,-0.000000,0.000000,0.000000,2393.414311,-2394.339939,3.440618,0.000000,-0.000000,0.000000
-0.140000,-0.700000,0.214636,0.040000,-927.138676,343.000000,-2268.309847,2266.178721,940.108804,-0.000000,0.000000,0.000000,2453.355624,-2455.486750,4.224291,0.000000,-0.000000,0.000000
-0.100000,-0.700000,0.207508,0.040000,-938.999747,295.000000,-2404.530948,2402.243077,697.122270,-0.000000,0.000000,0.000000,2501.301833,-2503.589703,3.710984,0.000000,-0.000000,0.000000
-0.060000,-0.700000,0.203539,0.040000,-947.029420,263.000000,-2500.250652,2497.855196,428.645577,-0.000000,0.000000,0.000000,2534.348404,-2536.743860,2.891485,0.000000,-0.000000,0.000000
-0.020000,-0.700000,0.201522,0.040000,-951.076191,247.000000,-2549.572795,2547.122757,143.881212,-0.000000,0.000000,0.000000,2551.180660,-2553.630698,1.854601,0.000000,-0.000000,0.000000
0.020000,-0.700000,0.200747,0.040000,-951.062015,247.000000,-2549.349966,2546.900174,-146.456525,-0.000000,0.000000,-0.000000,2551.105481,-2553.555273,0.729226,0.000000,-0.000000,0.000000
0.060000,-0.700000,0.203129,0.040000,-946.987245,263.000000,-2499.596553,2497.201825,-431.121621,-0.000000,0.000000,-0.000000,2534.125937,-2536.520666,-0.340307,0.000000,-0.000000,-0.000000
0.100000,-0.700000,0.208667,0.040000,-938.930607,295.000000,-2403.486819,2401.200134,-699.409180,-0.000000,0.000000,-0.000000,2500.940965,-2503.227650,-1.223360,0.000000,-0.000000,-0.000000
0.140000,-0.700000,0.214541,0.040000,-927.044226,343.000000,-2266.938461,2264.808933,-942.133899,-0.000000,0.000000,-0.000000,2452.870149,-2454.999676,-1.827823,0.000000,-0.000000,-0.000000
0.180000,-0.700000,0.223205,0.040000,-911.544326,407.000000,-2097.435377,2096.510944,-1153.478031,-0.000000,0.000000,-0.000000,2392.821439,-2393.745873,-1.159436,0.000000,-0.000000,-0.000000
0.220000,-0.700000,0.235030,0.040000,-892.698789,487.000000,-1901.120162,1902.785719,-1328.330586,-0.000000,0.000000,-0.000000,2320.721781,-2319.056224,1.465976,0.000000,-0.000000,0.000000
0.260000,-0.700000,0.247356,0.040000,-870.812956,583.000000,-1696.188551,1697.155841,-1461.892786,-0.000000,0.000000,-0.000000,2240.087859,-2239.120569,-0.152738,0.000000,-0.000000,-0.000000
0.300000,-0.700000,0.262089,0.040000,-846.215124,695.000000,-1488.794050,1485.599351,-1560.830682,-0.000000,0.000000,-0.000000,2154.312248,-2157.506947,-0.500589,0.000000,-0.000000,-0.000000
0.340000,-0.700000,0.279432,0.040000,-819.242958,823.000000,-1277.334479,1274.402087,-1622.228205,-0.000000,0.000000,-0.000000,2062.380751,-2065.313142,0.080808,0.000000,-0.000000,0.000000
0.380000,-0.700000,0.296888,0.040000,-790.231684,967.000000,-1071.731605,1071.035421,-1650.648630,-0.000000,0.000000,-0.000000,1967.519520,-1968.215704,0.769448,0.000000,-0.000000,0.000000
0.420000,-0.700000,0.317571,0.040000,-759.504591,1127.000000,-881.393726,880.529279,-1653.290175,-0.000000,0.000000,-0.000000,1872.923344,-1873.787791,0.699933,0.000000,-0.000000,0.000000
0.460000,-0.700000,0.338025,0.040000,-727.365962,1303.000000,-705.959320,705.000458,-1633.524155,-0.000000,0.000000,-0.000000,1778.875125,-1779.833987,0.632948,0.000000,-0.000000,0.000000
0.500000,-0.700000,0.361395,0.040000,-694.096347,1495.000000,-547.096414,546.103112,-1596.005625,-0.000000,0.000000,-0.000000,1686.513999,-1687.507301,0.569616,0.000000,-0.000000,0.000000
0.540000,-0.700000,0.384477,0.040000,-659.949872,1703.000000,-405.431027,404.448865,-1545.029096,-0.000000,0.000000,-0.000000,1596.722431,-1597.704594,0.510713,0.000000,-0.000000,0.000000
0.580000,-0.700000,0.410170,0.040000,-625.153219,1927.000000,-280.794451,279.855707,-1484.383823,-0.000000,0.000000,-0.000000,1510.152115,-1511.090859,0.456668,0.000000,-0.000000,0.000000
0.620000,-0.700000,0.435552,0.040000,-589.905870,2167.000000,-172.452880,171.578495,-1417.291999,-0.000000,0.000000,-0.000000,1427.255296,-1428.129681,0.407615,0.000000,-0.000000,0.000000
0.660000,-0.700000,0.462691,0.040000,-554.381268,2423.000000,-79.303944,78.505794,-1346.406613,-0.000000,0.000000,-0.000000,1348.317579,-1349.115729,0.363462,0.000000,-0.000000,0.000000
0.700000,-0.700000,0.490793,0.040000,-518.728567,2695.000000,-0.034480,-0.682417,-1273.847938,0.000000,-0.000000,-0.000000,1273.489490,-1274.206386,0.323969,0.000000,-0.000000,0.000000
0.740000,-0.700000,0.519024,0.040000,-483.074721,2983.000000,66.759777,-67.395304,-1201.261669,0.000000,-0.000000,-0.000000,1202.815193,-1203.450720,0.288801,0.000000,-0.000000,0.000000
0.780000,-0.700000,0.548720,0.040000,-447.526725,3287.000000,122.488234,-123.045573,-1129.886236,0.000000,-0.000000,-0.000000,1136.257538,-1136.814877,0.257582,0.000000,-0.000000,0.000000
0.820000,-0.700000,0.578977,0.040000,-412.173861,3607.000000,168.507391,-168.991770,-1060.620910,0.000000,-0.000000,-0.000000,1073.719208,-1074.203587,0.229925,0.000000,-0.000000,0.000000
0.860000,-0.700000,0.609292,0.040000,-377.089872,3943.000000,206.084628,-206.502389,-994.089596,0.000000,-0.000000,-0.000000,1015.060096,-1015.477856,0.205450,0.000000,-0.000000,0.000000
0.900000,-0.700000,0.640671,0.040000,-342.334983,4295.000000,236.378313,-236.736244,-930.697587,0.000000,-0.000000,-0.000000,960.111256,-960.469188,0.183802,0.000000,-0.000000,0.000000
0.940000,-0.700000,0.672965,0.040000,-307.957754,4663.000000,260.429563,-260.734454,-870.680266,0.000000,-0.000000,-0.000000,908.685869,-908.990759,0.164656,0.000000,-0.000000,0.000000
0.980000,-0.700000,0.704961,0.040000,-273.996748,5047.000000,279.161965,-279.420312,-814.143700,0.000000,-0.000000,-0.000000,860.587669,-860.846016,0.147714,0.000000,-0.000000,0.000000
1.020000,-0.700000,0.737499,0.040000,-240.482007,5447.000000,292.843766,-293.051592,-761.150319,0.000000,-0.000000,-0.000000,815.474405,-815.682231,-0.397184,0.000000,-0.000000,-0.000000
1.060000,-0.700000,0.770739,0.040000,-207.436353,5863.000000,302.803992,-304.444467,-711.486048,0.000000,-0.000000,-0.000000,772.742979,-774.383455,-0.135847,0.000000,-0.000000,-0.000000
1.100000,-0.700000,0.804595,0.040000,-174.876514,6295.000000,309.930209,-310.835341,-665.203172,0.000000,-0.000000,-0.000000,733.599483,-734.504615,-0.562829,0.000000,-0.000000,-0.000000
1.140000,-0.700000,0.838607,0.040000,-142.814107,6743.000000,314.793691,-315.364655,-622.407089,0.000000,-0.000000,-0.000000,697.328406,-697.899369,-0.578017,0.000000,-0.000000,-0.000000
-1.140000,-0.660000,0.818076,0.040000,-162.149522,6715.800000,357.271791,-357.892375,624.301206,0.000000,-0.000000,0.000000,719.145318,-719.765902,0.753068,0.000000,-0.000000,0.000000
-1.100000,-0.660000,0.783314,0.040000,-195.257112,6267.800000,355.936943,-357.363417,669.456983,0.000000,-0.000000,0.000000,757.819480,-759.245953,0.347245,0.000000,-0.000000,0.000000
-1.060000,-0.660000,0.749075,0.040000,-228.935687,5835.800000,352.643530,-352.850841,718.886483,0.000000,-0.000000,0.000000,800.663424,-800.870735,0.660620,0.000000,-0.000000,0.000000
-1.020000,-0.660000,0.715434,0.040000,-263.179224,5419.800000,346.507447,-346.717614,771.954313,0.000000,-0.000000,0.000000,846.094473,-846.304640,0.134727,0.000000,-0.000000,0.000000
-0.980000,-0.660000,0.682479,0.040000,-297.976854,5019.800000,336.077717,-336.331460,829.124627,0.000000,-0.000000,0.000000,894.569250,-894.822993,0.150679,0.000000,-0.000000,0.000000
-0.940000,-0.660000,0.649217,0.040000,-333.311821,4635.800000,321.217372,-321.522111,890.576476,0.000000,-0.000000,0.000000,946.634271,-946.939010,0.168804,0.000000,-0.000000,0.000000
-0.900000,-0.660000,0.616465,0.040000,-369.160271,4267.800000,301.037277,-301.401288,956.422087,0.000000,-0.000000,0.000000,1002.552371,-1002.916382,0.189405,0.000000,-0.000000,0.000000
-0.860000,-0.660000,0.584617,0.040000,-405.489827,3915.800000,274.504497,-274.936814,1026.687492,0.000000,-0.000000,0.000000,1062.590786,-1063.023102,0.212823,0.000000,-0.000000,0.000000
-0.820000,-0.660000,0.553701,0.040000,-442.257931,3579.800000,240.429359,-240.939552,1101.275965,0.000000,-0.000000,0.000000,1127.014925,-1127.525118,0.239435,0.000000,-0.000000,0.000000
-0.780000,-0.660000,0.522248,0.040000,-479.409946,3259.800000,197.456455,-198.054232,1179.921408,0.000000,-0.000000,0.000000,1196.079660,-1196.677437,0.269653,0.000000,-0.000000,0.000000
-0.740000,-0.660000,0.492039,0.040000,-516.876981,2955.800000,144.062798,-144.757345,1262.130114,0.000000,-0.000000,0.000000,1270.017478,-1270.712025,0.303921,0.000000,-0.000000,0.000000
-0.700000,-0.660000,0.463280,0.040000,-554.573459,2667.800000,78.567564,-79.366546,1347.109768,0.000000,-0.000000,0.000000,1349.022758,-1349.821740,0.342710,0.000000,-0.000000,0.000000
-0.660000,-0.660000,0.433829,0.040000,-592.394431,2395.800000,-0.840574,-0.067545,1433.685463,-0.000000,0.000000,0.000000,1433.231403,-1434.139522,0.386514,0.000000,-0.000000,0.000000
-0.620000,-0.660000,0.406186,0.040000,-630.212677,2139.800000,-96.050842,95.033828,1520.204249,-0.000000,0.000000,0.000000,1522.695060,-1523.712073,0.435840,0.000000,-0.000000,0.000000
-0.580000,-0.660000,0.379394,0.040000,-667.875697,1899.800000,-208.943244,207.825097,1604.432580,-0.000000,0.000000,0.000000,1617.349337,-1618.467484,0.491203,0.000000,-0.000000,0.000000
-0.540000,-0.660000,0.353218,0.040000,-705.202709,1675.800000,-341.256685,340.055844,1683.455288,-0.000000,0.000000,0.000000,1716.975806,-1718.176647,0.553113,0.000000,-0.000000,0.000000
-0.500000,-0.660000,0.329047,0.040000,-741.981890,1467.800000,-494.402553,493.151705,1753.590633,-0.000000,0.000000,0.000000,1821.158201,-1822.409049,0.622059,0.000000,-0.000000,0.000000
-0.460000,-0.660000,0.304922,0.040000,-777.968131,1275.800000,-669.217016,667.966680,1810.343384,-0.000000,0.000000,0.000000,1929.234345,-1930.484681,0.698474,0.000000,-0.000000,0.000000
-0.420000,-0.660000,0.283316,0.040000,-812.881732,1099.800000,-865.652406,864.473803,1848.425938,-0.000000,0.000000,0.000000,2040.246804,-2041.425407,0.782651,0.000000,-0.000000,0.000000
-0.380000,-0.660000,0.262124,0.040000,-846.408507,939.800000,-1085.491747,1082.824732,1862.474718,-0.000000,0.000000,0.000000,2153.708214,-2156.375228,2.519198,0.000000,-0.000000,0.000000
-0.340000,-0.660000,0.243081,0.040000,-878.201880,795.800000,-1317.473744,1320.123740,1841.322290,-0.000000,0.000000,0.000000,2266.203519,-2263.553523,4.814482,0.000000,-0.000000,0.000000
-0.300000,-0.660000,0.226134,0.040000,-907.887552,667.800000,-1562.606647,1566.316823,1791.827964,-0.000000,0.000000,0.000000,2380.549626,-2376.839450,0.515797,0.000000,-0.000000,0.000000
-0.260000,-0.660000,0.209767,0.040000,-935.071271,555.800000,-1822.037864,1822.205613,1691.839203,-0.000000,0.000000,0.000000,2486.530644,-2486.362895,5.475664,0.000000,-0.000000,0.000000
-0.220000,-0.660000,0.196585,0.040000,-959.350034,459.800000,-2072.809484,2071.285208,1547.265191,-0.000000,0.000000,0.000000,2585.234853,-2586.759129,5.416255,0.000000,-0.000000,0.000000
-0.180000,-0.660000,0.185447,0.040000,-980.326682,379.800000,-2308.471820,2306.144345,1353.556433,-0.000000,0.000000,0.000000,2673.861107,-2676.188583,5.261638,0.000000,-0.000000,0.000000
-0.140000,-0.660000,0.175171,0.040000,-997.627374,315.800000,-2515.960177,2510.420231,1111.507502,-0.000000,0.000000,0.000000,2745.239059,-2750.779004,4.504457,0.000000,-0.000000,0.000000
-0.100000,-0.660000,0.168052,0.040000,-1010.920804,267.800000,-2686.594501,2681.058136,828.374070,-0.000000,0.000000,0.000000,2805.988232,-2811.524598,3.835435,0.000000,-0.000000,0.000000
-0.060000,-0.660000,0.164090,0.040000,-1019.937461,235.800000,-2807.193455,2801.209689,510.975800,-0.000000,0.000000,0.000000,2847.382349,-2853.366114,3.076546,0.000000,-0.000000,0.000000
-0.020000,-0.660000,0.161580,0.040000,-1024.486834,219.800000,-2869.584193,2863.366345,171.795236,-0.000000,0.000000,0.000000,2868.509038,-2874.726886,2.086377,0.000000,-0.000000,0.000000
0.020000,-0.660000,0.160809,0.040000,-1024.470396,219.800000,-2869.301957,2863.085164,-174.868918,-0.000000,0.000000,-0.000000,2868.414486,-2874.631280,0.998723,0.000000,-0.000000,0.000000
0.060000,-0.660000,0.163195,0.040000,-1019.888594,235.800000,-2806.367195,2800.386505,-513.916318,-0.000000,0.000000,-0.000000,2847.102941,-2853.083632,-0.035513,0.000000,-0.000000,-0.000000
0.100000,-0.660000,0.168737,0.040000,-1010.840812,267.800000,-2685.282533,2679.750994,-831.062421,-0.000000,0.000000,-0.000000,2805.536237,-2811.067776,-0.879817,0.000000,-0.000000,-0.000000
0.140000,-0.660000,0.175949,0.040000,-997.518331,315.800000,-2514.252273,2508.724689,-1113.853795,-0.000000,0.000000,-0.000000,2744.642600,-2750.170183,-1.669360,0.000000,-0.000000,-0.000000
0.180000,-0.660000,0.184556,0.040000,-980.191291,379.800000,-2306.470445,2304.149236,-1355.489723,-0.000000,0.000000,-0.000000,2673.124195,-2675.445404,-2.581542,0.000000,-0.000000,-0.000000
0.220000,-0.660000,0.196331,0.040000,-959.191463,459.800000,-2070.627725,2069.109508,-1548.764347,-0.000000,0.000000,-0.000000,2584.394393,-2585.912610,-2.909692,0.000000,-0.000000,-0.000000
0.260000,-0.660000,0.210930,0.040000,-934.892979,555.800000,-1819.779836,1819.951224,-1692.906484,-0.000000,0.000000,-0.000000,2485.610377,-2485.438989,-3.156327,0.000000,-0.000000,-0.000000
0.300000,-0.660000,0.225444,0.040000,-907.693124,667.800000,-1560.365787,1564.078523,-1792.494803,-0.000000,0.000000,-0.000000,2379.580719,-2375.867983,1.610027,0.000000,-0.000000,0.000000
0.340000,-0.660000,0.243173,0.040000,-877.994883,795.800000,-1315.314057,1317.962480,-1841.635886,-0.000000,0.000000,-0.000000,2265.203805,-2262.555382,-2.873315,0.000000,-0.000000,-0.000000
0.380000,-0.660000,0.262438,0.040000,-846.192373,939.800000,-1083.473766,1080.809412,-1862.479246,-0.000000,0.000000,-0.000000,2152.700962,-2155.365316,-0.772870,0.000000,-0.000000,-0.000000
0.420000,-0.660000,0.282767,0.040000,-812.659676,1099.800000,-863.811657,862.632037,-1848.186403,-0.000000,0.000000,-0.000000,2039.249478,-2040.429098,0.783862,0.000000,-0.000000,0.000000
0.460000,-0.660000,0.305560,0.040000,-777.743098,1275.800000,-667.565109,666.314486,-1809.912283,-0.000000,0.000000,-0.000000,1928.257959,-1929.508582,0.702266,0.000000,-0.000000,0.000000
0.500000,-0.660000,0.328444,0.040000,-741.756522,1467.800000,-492.944829,491.694231,-1753.018240,-0.000000,0.000000,-0.000000,1820.212717,-1821.463314,0.626160,0.000000,-0.000000,0.000000
0.540000,-0.660000,0.353683,0.040000,-704.979339,1675.800000,-339.989100,338.788875,-1682.785198,-0.000000,0.000000,-0.000000,1716.068347,-1717.268572,0.556378,0.000000,-0.000000,0.000000
0.580000,-0.660000,0.379156,0.040000,-667.656353,1899.800000,-207.855362,206.738053,-1603.701115,-0.000000,0.000000,-0.000000,1616.484619,-1617.601929,0.493253,0.000000,-0.000000,0.000000
0.620000,-0.660000,0.406124,0.040000,-629.999102,2139.800000,-95.128313,94.112247,-1519.440626,-0.000000,0.000000,-0.000000,1521.875829,-1522.891895,0.436735,0.000000,-0.000000,0.000000
0.660000,-0.660000,0.434254,0.040000,-592.188102,2395.800000,-0.067056,-0.840084,-1432.912422,0.000000,-0.000000,-0.000000,1432.458852,-1433.365992,0.386514,0.000000,-0.000000,0.000000
0.700000,-0.660000,0.462476,0.040000,-554.375615,2667.800000,79.209001,-80.007028,-1346.344425,0.000000,-0.000000,-0.000000,1348.296886,-1349.094913,0.342123,0.000000,-0.000000,0.000000
0.740000,-0.660000,0.492334,0.040000,-516.688649,2955.800000,144.588718,-145.282367,-1261.384883,0.000000,-0.000000,-0.000000,1269.337405,-1270.031054,0.303022,0.000000,-0.000000,0.000000
0.780000,-0.660000,0.522494,0.040000,-479.231970,3259.800000,197.882448,-198.479404,-1179.204894,0.000000,-0.000000,-0.000000,1195.443881,-1196.040837,0.268655,0.000000,-0.000000,0.000000
0.820000,-0.660000,0.553012,0.040000,-442.090994,3579.800000,240.769699,-241.279157,-1100.593763,0.000000,-0.000000,-0.000000,1126.421511,-1126.930968,0.238482,0.000000,-0.000000,0.000000
0.860000,-0.660000,0.584675,0.040000,-405.334474,3915.800000,274.771991,-275.203658,-1026.042878,0.000000,-0.000000,-0.000000,1062.037548,-1062.469215,0.212001,0.000000,-0.000000,0.000000
0.900000,-0.660000,0.617054,0.040000,-369.016932,4267.800000,301.243231,-301.606676,-955.816592,0.000000,-0.000000,-0.000000,1002.036979,-1002.400424,0.188755,0.000000,-0.000000,0.000000
0.940000,-0.660000,0.649068,0.040000,-333.180825,4635.800000,321.371654,-321.675905,-890.010348,0.000000,-0.000000,-0.000000,946.154343,-946.458594,0.168337,0.000000,-0.000000,0.000000
0.980000,-0.660000,0.681926,0.040000,-297.858449,5019.800000,336.188852,-336.442176,-828.597200,0.000000,-0.000000,-0.000000,894.122421,-894.375745,0.150386,0.000000,-0.000000,0.000000
1.020000,-0.660000,0.715512,0.040000,-263.073590,5419.800000,346.582747,-346.792556,-771.464292,0.000000,-0.000000,-0.000000,845.678438,-845.888248,0.134587,0.000000,-0.000000,0.000000
1.060000,-0.660000,0.749727,0.040000,-228.842943,5835.800000,352.689207,-352.896033,-718.432161,0.000000,-0.000000,-0.000000,800.276014,-800.482840,-0.419377,0.000000,-0.000000,-0.000000
1.100000,-0.660000,0.783430,0.040000,-195.177332,6267.800000,355.958940,-357.383974,-669.036587,0.000000,-0.000000,-0.000000,757.459275,-758.884309,-0.130638,0.000000,-0.000000,-0.000000
1.140000,-0.660000,0.817690,0.040000,-162.082742,6715.800000,357.273973,-357.893552,-623.912367,0.000000,-0.000000,-0.000000,718.809448,-719.429027,-0.557999,0.000000,-0.000000,-0.000000
-1.180000,-0.620000,0.833379,0.040000,-147.355691,7154.200000,397.818835,-398.294858,579.055995,0.000000,-0.000000,0.000000,702.438729,-702.914752,0.704449,0.000000,-0.000000,0.000000
-1.140000,-0.620000,0.798263,0.040000,-180.853460,6690.200000,401.557730,-402.293003,622.844030,0.000000,-0.000000,0.000000,740.899831,-741.635104,1.107576,0.000000,-0.000000,0.000000
-1.100000,-0.620000,0.763628,0.040000,-214.995793,6242.200000,405.028664,-406.103251,670.467800,0.000000,-0.000000,0.000000,783.051100,-784.125686,0.217166,0.000000,-0.000000,0.000000
-1.060000,-0.620000,0.728720,0.040000,-249.786698,5810.200000,405.658719,-405.349319,721.709408,0.000000,-0.000000,0.000000,827.981900,-827.672500,0.326997,0.000000,-0.000000,0.000000
-1.020000,-0.620000,0.694093,0.040000,-285.226659,5394.200000,403.388911,-403.584530,778.236830,0.000000,-0.000000,0.000000,876.517316,-876.712935,0.135708,0.000000,-0.000000,0.000000
-0.980000,-0.620000,0.660074,0.040000,-321.311744,4994.200000,397.548262,-397.789593,839.326849,0.000000,-0.000000,0.000000,928.647396,-928.888727,0.152427,0.000000,-0.000000,0.000000
-0.940000,-0.620000,0.626762,0.040000,-358.032538,4610.200000,387.490213,-387.786067,905.545966,0.000000,-0.000000,0.000000,984.878364,-985.174219,0.171554,0.000000,-0.000000,0.000000
-0.900000,-0.620000,0.593784,0.040000,-395.372865,4242.200000,372.263296,-372.623815,977.157124,0.000000,-0.000000,0.000000,1045.549251,-1045.909770,0.193456,0.000000,-0.000000,0.000000
-0.860000,-0.620000,0.560648,0.040000,-433.308264,3890.200000,350.739562,-351.176235,1054.355731,0.000000,-0.000000,0.000000,1111.014046,-1111.450719,0.218552,0.000000,-0.000000,0.000000
-0.820000,-0.620000,0.528463,0.040000,-471.804181,3554.200000,321.591343,-322.116914,1137.231387,0.000000,-0.000000,0.000000,1181.636215,-1182.161786,0.247314,0.000000,-0.000000,0.000000
-0.780000,-0.620000,0.497414,0.040000,-510.813844,3234.200000,283.269802,-283.897992,1225.716936,0.000000,-0.000000,0.000000,1257.780399,-1258.408589,0.280267,0.000000,-0.000000,0.000000
-0.740000,-0.620000,0.465972,0.040000,-550.275781,2930.200000,233.988493,-234.733445,1319.522002,0.000000,-0.000000,0.000000,1339.800377,-1340.545329,0.317989,0.000000,-0.000000,0.000000
-0.700000,-0.620000,0.435533,0.040000,-590.110966,2642.200000,171.716876,-172.592186,1418.048158,0.000000,-0.000000,0.000000,1428.022225,-1428.897535,0.361108,0.000000,-0.000000,0.000000
-0.660000,-0.620000,0.406753,0.040000,-630.219566,2370.200000,94.190906,-95.208098,1520.283474,0.000000,-0.000000,0.000000,1522.721416,-1523.738607,0.410294,0.000000,-0.000000,0.000000
-0.620000,-0.620000,0.377265,0.040000,-670.477325,2114.200000,-1.049373,-0.116865,1624.675629,-0.000000,0.000000,0.000000,1624.092510,-1625.258748,0.466254,0.000000,-0.000000,0.000000
-0.580000,-0.620000,0.349726,0.040000,-710.731631,1874.200000,-116.582272,115.267383,1728.985717,-0.000000,0.000000,0.000000,1732.210091,-1733.524979,0.529719,0.000000,-0.000000,0.000000
-0.540000,-0.620000,0.322858,0.040000,-750.797409,1650.200000,-254.970936,253.519607,1830.129918,-0.000000,0.000000,0.000000,1846.979889,-1848.431219,0.601446,0.000000,-0.000000,0.000000
-0.500000,-0.620000,0.297087,0.040000,-790.453031,1442.200000,-418.556054,416.997565,1924.024023,-0.000000,0.000000,0.000000,1968.079673,-1969.638162,0.682209,0.000000,-0.000000,0.000000
-0.460000,-0.620000,0.272746,0.040000,-829.436600,1250.200000,-610.997036,607.970363,2006.293155,-0.000000,0.000000,0.000000,2095.312836,-2098.339509,1.614170,0.000000,-0.000000,0.000000
-0.420000,-0.620000,0.249591,0.040000,-867.443073,1074.200000,-829.722868,829.228899,2067.736173,-0.000000,0.000000,0.000000,2227.655980,-2228.149949,3.391434,0.000000,-0.000000,0.000000
-0.380000,-0.620000,0.227716,0.040000,-904.122863,914.200000,-1070.064157,1075.106336,2104.262012,-0.000000,0.000000,0.000000,2364.375703,-2359.333523,0.717256,0.000000,-0.000000,0.000000
-0.340000,-0.620000,0.208557,0.040000,-939.082713,770.200000,-1344.373716,1351.664216,2107.475437,-0.000000,0.000000,0.000000,2505.363534,-2498.073035,3.670797,0.000000,-0.000000,0.000000
-0.300000,-0.620000,0.189203,0.040000,-971.889743,642.200000,-1639.433751,1640.098595,2062.888995,-0.000000,0.000000,0.000000,2635.538719,-2634.873875,5.646071,0.000000,-0.000000,0.000000
-0.260000,-0.620000,0.173066,0.040000,-1002.079548,530.200000,-1943.108511,1942.617906,1967.252615,-0.000000,0.000000,0.000000,2764.669095,-2765.159700,6.976704,0.000000,-0.000000,0.000000
0.260000,-0.620000,0.173112,0.040000,-1001.875242,530.200000,-1940.374147,1939.890306,-1968.339125,-0.000000,0.000000,-0.000000,2763.533353,-2764.017193,-4.267246,0.000000,-0.000000,-0.000000
0.300000,-0.620000,0.190157,0.040000,-971.667934,642.200000,-1636.764511,1637.433355,-2063.478594,-0.000000,0.000000,-0.000000,2634.347835,-2633.678990,-3.188670,0.000000,-0.000000,-0.000000
0.340000,-0.620000,0.207519,0.040000,-938.847641,770.200000,-1341.856862,1349.146641,-2107.638064,-0.000000,0.000000,-0.000000,2504.147047,-2496.857268,-1.460853,0.000000,-0.000000,-0.000000
0.380000,-0.620000,0.228153,0.040000,-903.878532,914.200000,-1067.751136,1072.795179,-2104.078523,-0.000000,0.000000,-0.000000,2363.163773,-2358.119730,1.259708,0.000000,-0.000000,0.000000
0.420000,-0.620000,0.249526,0.040000,-867.193168,1074.200000,-827.643976,827.151441,-2067.283206,-0.000000,0.000000,-0.000000,2226.465246,-2226.957782,-1.629493,0.000000,-0.000000,-0.000000
0.460000,-0.620000,0.272631,0.040000,-829.184427,1250.200000,-609.172775,606.150334,-2005.639047,-0.000000,0.000000,-0.000000,2094.160640,-2097.183082,-0.059938,0.000000,-0.000000,-0.000000
0.500000,-0.620000,0.297227,0.040000,-790.201501,1442.200000,-416.983312,415.425584,-1923.234806,-0.000000,0.000000,-0.000000,1966.975641,-1968.533369,0.687264,0.000000,-0.000000,0.000000
0.540000,-0.620000,0.322821,0.040000,-750.549040,1650.200000,-253.631482,252.181267,-1829.254944,-0.000000,0.000000,-0.000000,1845.929955,-1847.380169,0.604660,0.000000,-0.000000,0.000000
0.580000,-0.620000,0.349558,0.040000,-710.488567,1874.200000,-115.457055,114.143457,-1728.066148,-0.000000,0.000000,-0.000000,1731.218320,-1732.531919,0.531119,0.000000,-0.000000,0.000000
0.620000,-0.620000,0.377724,0.040000,-670.241368,2114.200000,-0.116196,-1.048703,-1623.743102,0.000000,-0.000000,-0.000000,1623.160653,-1624.325552,0.466254,0.000000,-0.000000,0.000000
0.660000,-0.620000,0.405935,0.040000,-629.992212,2370.200000,94.955168,-95.971057,-1519.361401,0.000000,-0.000000,-0.000000,1521.849473,-1522.865361,0.409399,0.000000,-0.000000,0.000000
0.700000,-0.620000,0.435994,0.040000,-589.893439,2642.200000,172.334787,-173.208882,-1417.153151,0.000000,-0.000000,-0.000000,1427.208928,-1428.083023,0.359766,0.000000,-0.000000,0.000000
0.740000,-0.620000,0.466033,0.040000,-550.069072,2930.200000,234.481147,-235.224998,-1318.665246,0.000000,-0.000000,-0.000000,1339.043581,-1339.787431,0.316535,0.000000,-0.000000,0.000000
0.780000,-0.620000,0.496799,0.040000,-510.618743,3234.200000,283.656330,-284.283545,-1224.905409,0.000000,-0.000000,-0.000000,1257.077385,-1257.704600,0.278920,0.000000,-0.000000,0.000000
0.820000,-0.620000,0.528802,0.040000,-471.621308,3554.200000,321.888720,-322.413441,-1136.468890,0.000000,-0.000000,-0.000000,1180.983929,-1181.508649,0.246195,0.000000,-0.000000,0.000000
0.860000,-0.620000,0.560958,0.040000,-433.138095,3890.200000,350.962600,-351.398541,-1053.643735,0.000000,-0.000000,-0.000000,1110.409270,-1110.845210,0.217710,0.000000,-0.000000,0.000000
0.900000,-0.620000,0.593302,0.040000,-395.215759,4242.200000,372.424756,-372.784652,-976.495436,0.000000,-0.000000,-0.000000,1044.988730,-1045.348625,0.192893,0.000000,-0.000000,0.000000
0.940000,-0.620000,0.626531,0.040000,-357.888754,4610.200000,387.600980,-387.896307,-904.933249,0.000000,-0.000000,-0.000000,984.358896,-984.654223,0.171247,0.000000,-0.000000,0.000000
0.980000,-0.620000,0.660512,0.040000,-321.181459,4994.200000,397.617547,-397.858434,-838.761012,0.000000,-0.000000,-0.000000,928.165892,-928.406780,0.152337,0.000000,-0.000000,0.000000
1.020000,-0.620000,0.694411,0.040000,-285.109986,5394.200000,403.424458,-403.619706,-777.715322,0.000000,-0.000000,-0.000000,876.070838,-876.266086,0.135793,0.000000,-0.000000,0.000000
1.060000,-0.620000,0.728465,0.040000,-249.683694,5810.200000,405.667061,-405.357540,-721.229542,0.000000,-0.000000,-0.000000,827.567759,-827.258238,-0.084555,0.000000,-0.000000,-0.000000
1.100000,-0.620000,0.763097,0.040000,-214.906472,6242.200000,405.014908,-406.088303,-670.026430,0.000000,-0.000000,-0.000000,782.666674,-783.740069,-0.000898,0.000000,-0.000000,-0.000000
1.140000,-0.620000,0.798230,0.040000,-180.777801,6690.200000,401.527584,-402.261944,-622.438140,0.000000,-0.000000,-0.000000,740.542940,-741.277300,-0.912676,0.000000,-0.000000,-0.000000
1.180000,-0.620000,0.833802,0.040000,-147.293644,7154.200000,397.774767,-398.249923,-578.683384,0.000000,-0.000000,-0.000000,702.107071,-702.582226,-0.529710,0.000000,-0.000000,-0.000000
-1.180000,-0.580000,0.815401,0.040000,-164.458291,7130.200000,440.560758,-440.647554,572.284318,0.000000,-0.000000,0.000000,722.203689,-722.290484,0.713369,0.000000,-0.000000,0.000000
-1.140000,-0.580000,0.779475,0.040000,-198.912375,6666.200000,448.829260,-449.643506,616.865151,0.000000,-0.000000,0.000000,762.702266,-763.516512,0.057653,0.000000,-0.000000,0.000000
-1.100000,-0.580000,0.743966,0.040000,-234.085317,6218.200000,455.835654,-455.505445,666.297790,0.000000,-0.000000,0.000000,807.375252,-807.045043,0.415241,0.000000,-0.000000,0.000000
-1.060000,-0.580000,0.708934,0.040000,-269.987922,5786.200000,461.088340,-461.223731,720.545769,0.000000,-0.000000,0.000000,855.415255,-855.550647,0.120663,0.000000,-0.000000,0.000000
-1.020000,-0.580000,0.674452,0.040000,-306.628061,5370.200000,463.667874,-463.841399,779.689527,0.000000,-0.000000,0.000000,907.097951,-907.271475,0.135780,0.000000,-0.000000,0.000000
-0.980000,-0.580000,0.639389,0.040000,-344.009804,4970.200000,463.210669,-463.430791,844.393634,0.000000,-0.000000,0.000000,963.044487,-963.264610,0.153163,0.000000,-0.000000,0.000000
-0.940000,-0.580000,0.604938,0.040000,-382.132348,4586.200000,458.902517,-459.179351,915.112437,0.000000,-0.000000,0.000000,1023.653222,-1023.930056,0.173189,0.000000,-0.000000,0.000000
-0.900000,-0.580000,0.571212,0.040000,-420.988714,4218.200000,449.752803,-450.098327,992.287427,0.000000,-0.000000,0.000000,1089.353426,-1089.698950,0.196297,0.000000,-0.000000,0.000000
-0.860000,-0.580000,0.538345,0.040000,-460.564158,3866.200000,434.562119,-434.990361,1076.321228,0.000000,-0.000000,0.000000,1160.603571,-1161.031813,0.222995,0.000000,-0.000000,0.000000
-0.820000,-0.580000,0.504998,0.040000,-500.834247,3530.200000,411.886784,-412.413922,1167.540223,0.000000,-0.000000,0.000000,1237.887481,-1238.414619,0.253865,0.000000,-0.000000,0.000000
-0.780000,-0.580000,0.472409,0.040000,-541.762552,3210.200000,380.001772,-380.646077,1266.142187,0.000000,-0.000000,0.000000,1321.707439,-1322.351744,0.289573,0.000000,-0.000000,0.000000
-0.740000,-0.580000,0.441041,0.040000,-583.297878,2906.200000,336.864847,-337.646356,1372.124490,0.000000,-0.000000,0.000000,1412.573099,-1413.354607,0.330864,0.000000,-0.000000,0.000000
-0.700000,-0.580000,0.409777,0.040000,-625.370997,2618.200000,280.086791,-281.026532,1485.187882,0.000000,-0.000000,0.000000,1510.984707,-1511.924449,0.378569,0.000000,-0.000000,0.000000
-0.660000,-0.580000,0.379046,0.040000,-667.890824,2346.200000,206.915428,-208.033994,1604.610592,0.000000,-0.000000,0.000000,1617.408800,-1618.527367,0.433591,0.000000,-0.000000,0.000000
-0.620000,-0.580000,0.350192,0.040000,-710.740013,2090.200000,114.245192,-115.560341,1729.088233,0.000000,-0.000000,0.000000,1732.244187,-1733.559336,0.496900,0.000000,-0.000000,0.000000
-0.580000,-0.580000,0.320702,0.040000,-753.769994,1850.200000,-1.331004,-0.191951,1856.537277,-0.000000,0.000000,0.000000,1855.775799,-1857.298754,0.569526,0.000000,-0.000000,0.000000
-0.540000,-0.580000,0.293308,0.040000,-796.795530,1626.200000,-143.404881,141.674792,1983.864981,-0.000000,0.000000,0.000000,1988.113951,-1989.844040,0.652552,0.000000,-0.000000,0.000000
-0.500000,-0.580000,0.266336,0.040000,-839.588992,1418.200000,-316.247267,314.437896,2106.200610,-0.000000,0.000000,0.000000,2128.771224,-2130.580594,1.573951,0.000000,-0.000000,0.000000
-0.460000,-0.580000,0.241161,0.040000,-881.874677,1226.200000,-517.032645,519.377056,2216.863806,-0.000000,0.000000,0.000000,2277.797191,-2275.452780,-0.274626,0.000000,-0.000000,-0.000000
-0.420000,-0.580000,0.216584,0.040000,-923.323731,1050.200000,-758.688474,766.383323,2315.385366,-0.000000,0.000000,0.000000,2441.564846,-2433.869997,2.039453,0.000000,-0.000000,0.000000
-0.380000,-0.580000,0.194972,0.040000,-963.550440,890.200000,-1039.995639,1041.714389,2379.253713,-0.000000,0.000000,0.000000,2597.821104,-2596.102355,4.143464,0.000000,-0.000000,0.000000
-0.340000,-0.580000,0.172748,0.040000,-1002.110980,746.200000,-1354.475261,1357.850936,2409.748121,-0.000000,0.000000,0.000000,2766.832685,-2763.457010,6.191020,0.000000,-0.000000,0.000000
0.340000,-0.580000,0.173769,0.040000,-1001.843810,746.200000,-1351.535696,1354.919510,-2409.695088,-0.000000,0.000000,-0.000000,2765.356503,-2761.972690,-3.655511,0.000000,-0.000000,-0.000000
0.380000,-0.580000,0.193803,0.040000,-963.274222,890.200000,-1037.355297,1039.076002,-2378.805895,-0.000000,0.000000,-0.000000,2596.357531,-2594.636825,-1.902509,0.000000,-0.000000,-0.000000
0.420000,-0.580000,0.217209,0.040000,-923.042666,1050.200000,-756.379549,764.068689,-2314.644883,-0.000000,0.000000,-0.000000,2440.137171,-2432.448031,-0.074122,0.000000,-0.000000,-0.000000
0.460000,-0.580000,0.240824,0.040000,-881.592456,1226.200000,-515.045673,517.386995,-2215.933575,-0.000000,0.000000,-0.000000,2276.437000,-2274.095679,1.999041,0.000000,-0.000000,0.000000
0.500000,-0.580000,0.266584,0.040000,-839.308787,1418.200000,-314.567648,312.762922,-2105.141608,-0.000000,0.000000,-0.000000,2127.478969,-2129.283695,-0.070993,0.000000,-0.000000,-0.000000
0.540000,-0.580000,0.292992,0.040000,-796.520023,1626.200000,-142.013120,140.284822,-1982.744118,-0.000000,0.000000,-0.000000,1986.897617,-1988.625916,0.654811,0.000000,-0.000000,0.000000
0.580000,-0.580000,0.321207,0.040000,-753.501413,1850.200000,-0.191017,-1.330069,-1855.398194,0.000000,-0.000000,-0.000000,1854.637650,-1856.158737,0.569526,0.000000,-0.000000,0.000000
0.620000,-0.580000,0.349402,0.040000,-710.480185,2090.200000,115.165648,-116.478986,-1727.963632,0.000000,-0.000000,-0.000000,1731.184224,-1732.497562,0.495500,0.000000,-0.000000,0.000000
0.660000,-0.580000,0.379723,0.040000,-667.641226,2346.200000,207.647722,-208.764612,-1603.523104,0.000000,-0.000000,-0.000000,1616.425156,-1617.542046,0.431541,0.000000,-0.000000,0.000000
0.700000,-0.580000,0.409601,0.040000,-625.132802,2618.200000,280.660006,-281.598246,-1484.152232,0.000000,-0.000000,-0.000000,1510.074256,-1511.012496,0.376413,0.000000,-0.000000,0.000000
0.740000,-0.580000,0.440676,0.040000,-583.072006,2906.200000,337.305073,-338.085268,-1371.149406,0.000000,-0.000000,-0.000000,1411.731928,-1412.512123,0.328936,0.000000,-0.000000,0.000000
0.780000,-0.580000,0.473093,0.040000,-541.549709,3210.200000,380.331861,-380.975038,-1265.231984,0.000000,-0.000000,-0.000000,1320.931204,-1321.574380,0.288041,0.000000,-0.000000,0.000000
0.820000,-0.580000,0.504967,0.040000,-500.634963,3530.200000,412.126405,-412.652586,-1166.696071,0.000000,-0.000000,-0.000000,1237.171658,-1237.697838,0.252784,0.000000,-0.000000,0.000000
0.860000,-0.580000,0.537704,0.040000,-460.378817,3866.200000,434.727971,-435.155408,-1075.542127,0.000000,-0.000000,-0.000000,1159.943637,-1160.371075,0.222346,0.000000,-0.000000,0.000000
0.900000,-0.580000,0.571367,0.040000,-420.817585,4218.200000,449.858919,-450.203773,-991.570949,0.000000,-0.000000,-0.000000,1088.744981,-1089.089835,0.196026,0.000000,-0.000000,0.000000
0.940000,-0.580000,0.605518,0.040000,-381.975600,4586.200000,458.960593,-459.236873,-914.455269,0.000000,-0.000000,-0.000000,1023.092067,-1023.368347,0.173225,0.000000,-0.000000,0.000000
0.980000,-0.580000,0.639302,0.040000,-343.867531,4970.200000,463.230391,-463.450057,-843.791974,0.000000,-0.000000,-0.000000,962.526669,-962.746335,0.153435,0.000000,-0.000000,0.000000
1.020000,-0.580000,0.673767,0.040000,-306.500295,5370.200000,463.657221,-463.830371,-779.139357,0.000000,-0.000000,-0.000000,906.619787,-906.792937,0.136223,0.000000,-0.000000,0.000000
1.060000,-0.580000,0.708813,0.040000,-269.874646,5786.200000,461.053854,-461.188940,-720.043045,0.000000,-0.000000,-0.000000,854.973342,-855.108427,0.121222,0.000000,-0.000000,0.000000
1.100000,-0.580000,0.744359,0.040000,-233.986478,6218.200000,455.782787,-455.452336,-665.838627,0.000000,-0.000000,-0.000000,806.966564,-806.636113,-0.199570,0.000000,-0.000000,-0.000000
1.140000,-0.580000,0.779909,0.040000,-198.827887,6666.200000,448.762495,-449.575673,-616.445873,0.000000,-0.000000,-0.000000,762.324269,-763.137447,0.134800,0.000000,-0.000000,0.000000
1.180000,-0.580000,0.815385,0.040000,-164.388048,7130.200000,440.483362,-440.569713,-571.900899,0.000000,-0.000000,-0.000000,721.852922,-721.939274,-0.540621,0.000000,-0.000000,-0.000000
-1.220000,-0.540000,0.834706,0.040000,-146.233046,7587.800000,471.177957,-471.269423,519.607402,0.000000,-0.000000,0.000000,701.412259,-701.503724,0.551576,0.000000,-0.000000,0.000000
-1.180000,-0.540000,0.798489,0.040000,-180.854788,7107.800000,483.390684,-483.780993,561.624867,0.000000,-0.000000,0.000000,740.936687,-741.326996,1.160844,0.000000,-0.000000,0.000000
-1.140000,-0.540000,0.762325,0.040000,-216.252064,6643.800000,496.451405,-497.303818,607.742004,0.000000,-0.000000,0.000000,784.581705,-785.434118,0.533072,0.000000,-0.000000,0.000000
-1.100000,-0.540000,0.725977,0.040000,-252.444695,6195.800000,508.431388,-507.971298,657.835892,0.000000,-0.000000,0.000000,831.504121,-831.044031,0.275231,0.000000,-0.000000,0.000000
-1.060000,-0.540000,0.690033,0.040000,-289.450983,5763.800000,518.716441,-518.822747,714.009990,0.000000,-0.000000,0.000000,882.518172,-882.624477,0.119333,0.000000,-0.000000,0.000000
-1.020000,-0.540000,0.654560,0.040000,-327.287054,5347.800000,526.959061,-527.102063,775.582833,0.000000,-0.000000,0.000000,937.633104,-937.776106,0.134804,0.000000,-0.000000,0.000000
-0.980000,-0.540000,0.619638,0.040000,-365.966042,4947.800000,532.694726,-532.883563,843.443811,0.000000,-0.000000,0.000000,997.533624,-997.722462,0.152708,0.000000,-0.000000,0.000000
-0.940000,-0.540000,0.585039,0.040000,-405.497052,4563.800000,535.121674,-535.367540,918.216553,0.000000,-0.000000,0.000000,1062.707438,-1062.953304,0.173481,0.000000,-0.000000,0.000000
-0.900000,-0.540000,0.550094,0.040000,-445.883882,4195.800000,533.242621,-533.559141,1000.546628,0.000000,-0.000000,0.000000,1133.689179,-1134.005699,0.197636,0.000000,-0.000000,0.000000
-0.860000,-0.540000,0.515883,0.040000,-487.123417,3843.800000,525.822409,-526.226036,1091.080630,0.000000,-0.000000,0.000000,1211.061318,-1211.464945,0.225780,0.000000,-0.000000,0.000000
-0.820000,-0.540000,0.482564,0.040000,-529.203651,3507.800000,511.338882,-511.849265,1190.433369,0.000000,-0.000000,0.000000,1295.453123,-1295.963506,0.258626,0.000000,-0.000000,0.000000
-0.780000,-0.540000,0.449577,0.040000,-572.101249,3187.800000,487.927457,-488.567721,1299.138486,0.000000,-0.000000,0.000000,1387.536642,-1388.176906,0.297004,0.000000,-0.000000,0.000000
-0.740000,-0.540000,0.416493,0.040000,-615.778555,2883.800000,453.321158,-454.117961,1417.576433,0.000000,-0.000000,0.000000,1488.018296,-1488.815099,0.341867,0.000000,-0.000000,0.000000
-0.700000,-0.540000,0.384725,0.040000,-660.179959,2595.800000,404.789969,-405.773161,1545.872220,0.000000,-0.000000,0.000000,1597.624142,-1598.607334,0.394301,0.000000,-0.000000,0.000000
-0.660000,-0.540000,0.353701,0.040000,-705.227528,2323.800000,339.086794,-340.288371,1683.753898,0.000000,-0.000000,0.000000,1717.076316,-1718.277893,0.455518,0.000000,-0.000000,0.000000
-0.620000,-0.540000,0.322588,0.040000,-750.815807,2067.800000,252.412366,-253.864319,1830.361900,0.000000,-0.000000,0.000000,1847.057406,-1848.509359,0.526850,0.000000,-0.000000,0.000000
-0.580000,-0.540000,0.293635,0.040000,-796.805734,1827.800000,140.418745,-142.149228,1984.000007,0.000000,-0.000000,0.000000,1988.158845,-1989.889329,0.609731,0.000000,-0.000000,0.000000
-0.540000,-0.540000,0.264142,0.040000,-843.017700,1603.800000,-1.414589,0.002324,2141.082344,-0.000000,0.000000,0.000000,2140.376211,-2141.788476,0.708457,0.000000,-0.000000,0.000000
-0.500000,-0.540000,0.236961,0.040000,-889.223834,1395.800000,-175.105713,178.701940,2297.135886,-0.000000,0.000000,0.000000,2305.735665,-2302.139437,-0.060537,0.000000,-0.000000,-0.000000
-0.460000,-0.540000,0.209840,0.040000,-935.139845,1203.800000,-392.715569,400.659628,2451.224064,-0.000000,0.000000,0.000000,2487.086344,-2479.142284,1.940529,0.000000,-0.000000,0.000000
-0.420000,-0.540000,0.185624,0.040000,-980.416943,1027.800000,-658.461500,664.041475,2586.903542,-0.000000,0.000000,0.000000,2672.866095,-2667.286119,4.129031,0.000000,-0.000000,0.000000
-0.380000,-0.540000,0.160709,0.040000,-1024.634773,867.800000,-969.398957,973.415644,2693.546886,-0.000000,0.000000,0.000000,2865.363382,-2861.346695,4.989574,0.000000,-0.000000,0.000000
0.380000,-0.540000,0.162066,0.040000,-1024.322458,867.800000,-966.405384,970.422770,-2692.730106,-0.000000,0.000000,-0.000000,2863.584353,-2859.566967,-2.447857,0.000000,-0.000000,-0.000000
0.420000,-0.540000,0.184523,0.040000,-980.101030,1027.800000,-655.906754,661.488068,-2585.792016,-0.000000,0.000000,-0.000000,2671.160742,-2665.579429,-1.927149,0.000000,-0.000000,-0.000000
0.460000,-0.540000,0.210526,0.040000,-934.824405,1203.800000,-390.583680,398.519226,-2449.928056,-0.000000,0.000000,-0.000000,2485.462953,-2477.527407,-0.037594,0.000000,-0.000000,-0.000000
0.500000,-0.540000,0.236429,0.040000,-888.912279,1395.800000,-173.353964,176.948952,-2295.752491,-0.000000,0.000000,-0.000000,2304.221138,-2300.626150,1.701470,0.000000,-0.000000,0.000000
0.540000,-0.540000,0.264712,0.040000,-842.712832,1603.800000,0.003259,-1.413655,-2139.671774,0.000000,-0.000000,-0.000000,2138.966576,-2140.376972,0.708457,0.000000,-0.000000,0.000000
0.580000,-0.540000,0.292883,0.040000,-796.509819,1827.800000,141.540869,-143.268773,-1982.609093,0.000000,-0.000000,-0.000000,1986.852723,-1988.580627,0.607472,0.000000,-0.000000,0.000000
0.620000,-0.540000,0.323556,0.040000,-750.530642,2067.800000,253.288509,-254.738100,-1829.022962,0.000000,-0.000000,-0.000000,1845.852438,-1847.302029,0.523636,0.000000,-0.000000,0.000000
0.660000,-0.540000,0.353212,0.040000,-704.954520,2323.800000,339.757925,-340.957414,-1682.486589,0.000000,-0.000000,-0.000000,1715.967836,-1717.167326,0.452253,0.000000,-0.000000,0.000000
0.700000,-0.540000,0.384683,0.040000,-659.920184,2595.800000,405.292362,-406.273755,-1544.687462,0.000000,-0.000000,-0.000000,1596.606386,-1597.587780,0.391505,0.000000,-0.000000,0.000000
0.740000,-0.540000,0.417105,0.040000,-615.532819,2883.800000,453.686114,-454.481396,-1416.478915,0.000000,-0.000000,-0.000000,1487.084949,-1487.880232,0.339770,0.000000,-0.000000,0.000000
0.780000,-0.540000,0.449122,0.040000,-571.870140,3187.800000,488.181480,-488.820475,-1298.128602,0.000000,-0.000000,-0.000000,1386.681218,-1387.320213,0.295647,0.000000,-0.000000,0.000000
0.820000,-0.540000,0.482332,0.040000,-528.987577,3507.800000,511.504099,-512.013435,-1189.508683,0.000000,-0.000000,-0.000000,1294.669220,-1295.178557,0.257943,0.000000,-0.000000,0.000000
0.860000,-0.540000,0.516506,0.040000,-486.922643,3843.800000,525.917098,-526.319868,-1090.236942,0.000000,-0.000000,-0.000000,1210.342789,-1210.745559,0.225657,0.000000,-0.000000,0.000000
0.900000,-0.540000,0.550229,0.040000,-445.698561,4195.800000,533.281751,-533.597574,-999.778736,0.000000,-0.000000,-0.000000,1133.030226,-1133.346049,0.197944,0.000000,-0.000000,0.000000
0.940000,-0.540000,0.584471,0.040000,-405.327249,4563.800000,535.117424,-535.362727,-917.518784,0.000000,-0.000000,-0.000000,1062.102667,-1062.347970,0.174102,0.000000,-0.000000,0.000000
0.980000,-0.540000,0.619404,0.040000,-365.811749,4947.800000,532.656953,-532.845337,-842.810377,0.000000,-0.000000,-0.000000,996.978068,-997.166452,0.153539,0.000000,-0.000000,0.000000
1.020000,-0.540000,0.654917,0.040000,-327.148213,5347.800000,526.895704,-527.038343,-775.008064,0.000000,-0.000000,-0.000000,937.122217,-937.264855,0.135762,0.000000,-0.000000,0.000000
1.060000,-0.540000,0.690507,0.040000,-289.327492,5763.800000,518.633870,-518.739885,-713.488477,0.000000,-0.000000,-0.000000,882.047820,-882.153834,0.120354,0.000000,-0.000000,0.000000
1.100000,-0.540000,0.725944,0.040000,-252.336423,6195.800000,508.334792,-507.874785,-657.362752,0.000000,-0.000000,-0.000000,831.070698,-830.610691,-0.062242,0.000000,-0.000000,-0.000000
1.140000,-0.540000,0.761833,0.040000,-216.158856,6643.800000,496.344763,-497.196113,-607.312066,0.000000,-0.000000,-0.000000,784.181677,-785.033026,-0.343639,0.000000,-0.000000,-0.000000
1.180000,-0.540000,0.798113,0.040000,-180.776474,7107.800000,483.277995,-483.667624,-561.233960,0.000000,-0.000000,-0.000000,740.567316,-740.956945,-0.990852,0.000000,-0.000000,-0.000000
1.220000,-0.540000,0.834733,0.040000,-146.169445,7587.800000,471.060623,-471.151380,-519.252323,0.000000,-0.000000,-0.000000,701.070646,-701.161403,-0.399951,0.000000,-0.000000,-0.000000
-1.220000,-0.500000,0.818910,0.040000,-161.001248,7567.000000,511.166252,-511.027570,504.553584,0.000000,-0.000000,0.000000,718.257208,-718.118526,0.748348,0.000000,-0.000000,0.000000
-1.180000,-0.500000,0.781961,0.040000,-196.475586,7087.000000,528.136353,-528.215474,546.472953,0.000000,-0.000000,0.000000,759.961808,-760.040929,0.635122,0.000000,-0.000000,0.000000
-1.140000,-0.500000,0.745327,0.040000,-232.796147,6623.000000,545.597010,-545.321764,592.583526,0.000000,-0.000000,0.000000,805.545078,-805.269832,0.098069,0.000000,-0.000000,0.000000
-1.100000,-0.500000,0.709057,0.040000,-269.990059,6175.000000,562.414591,-562.458392,644.615876,0.000000,-0.000000,0.000000,855.468850,-855.512651,0.103493,0.000000,-0.000000,0.000000
-1.060000,-0.500000,0.672980,0.040000,-308.083767,5743.000000,578.187948,-578.257791,701.782202,0.000000,-0.000000,0.000000,909.272470,-909.342313,0.116984,0.000000,-0.000000,0.000000
-1.020000,-0.500000,0.636558,0.040000,-347.102468,5327.000000,592.730750,-592.834149,765.193908,0.000000,-0.000000,0.000000,967.890825,-967.994224,0.132646,0.000000,-0.000000,0.000000
-0.980000,-0.500000,0.600591,0.040000,-387.069380,4927.000000,605.455095,-605.601519,835.586110,0.000000,-0.000000,0.000000,1031.851521,-1031.997945,0.150885,0.000000,-0.000000,0.000000
-0.940000,-0.500000,0.565166,0.040000,-428.004796,4543.000000,615.607378,-615.808717,913.763831,0.000000,-0.000000,0.000000,1101.743561,-1101.944901,0.172194,0.000000,-0.000000,0.000000
-0.900000,-0.500000,0.530392,0.040000,-469.924876,4175.000000,622.225946,-622.497073,1000.597056,0.000000,-0.000000,0.000000,1178.222734,-1178.493862,0.197163,0.000000,-0.000000,0.000000
-0.860000,-0.500000,0.495636,0.040000,-512.840103,3823.000000,624.089082,-624.448492,1097.008389,0.000000,-0.000000,0.000000,1262.016347,-1262.375757,0.226506,0.000000,-0.000000,0.000000
-0.820000,-0.500000,0.460856,0.040000,-556.753323,3487.000000,619.651844,-620.122364,1203.949439,0.000000,-0.000000,0.000000,1353.926549,-1354.397069,0.261077,0.000000,-0.000000,0.000000
-0.780000,-0.500000,0.426990,0.040000,-601.657268,3167.000000,606.970686,-607.580200,1322.360467,0.000000,-0.000000,0.000000,1454.831174,-1455.440688,0.301894,0.000000,-0.000000,0.000000
-0.740000,-0.500000,0.394275,0.040000,-647.531435,2863.000000,583.615688,-584.397776,1453.105742,0.000000,-0.000000,0.000000,1565.680487,-1566.462574,0.350160,0.000000,-0.000000,0.000000
-0.700000,-0.500000,0.360781,0.040000,-694.338193,2575.000000,546.572082,-547.566382,1596.874368,0.000000,-0.000000,0.000000,1687.487544,-1688.481844,0.407278,0.000000,-0.000000,0.000000
-0.660000,-0.500000,0.328497,0.040000,-742.017949,2303.000000,492.136141,-493.388118,1754.033256,0.000000,-0.000000,0.000000,1821.308960,-1822.560937,0.474864,0.000000,-0.000000,0.000000
-0.620000,-0.500000,0.297811,0.040000,-790.483214,2047.000000,415.816226,-417.375817,1924.415622,0.000000,-0.000000,0.000000,1968.211678,-1969.771269,0.554738,0.000000,-0.000000,0.000000
-0.580000,-0.500000,0.266176,0.040000,-839.611409,1807.000000,313.070598,-314.877806,2106.506745,0.000000,-0.000000,0.000000,2128.873482,-2130.680689,-0.175400,0.000000,-0.000000,-0.000000
-0.540000,-0.500000,0.237084,0.040000,-889.236296,1583.000000,177.131081,-173.532905,2297.316670,0.000000,-0.000000,0.000000,2305.796157,-2302.197981,1.641613,0.000000,-0.000000,0.000000
-0.500000,-0.500000,0.207586,0.040000,-939.138025,1375.000000,0.204803,1.987593,2497.846801,-0.000000,0.000000,0.000000,2498.942999,-2496.750604,0.891395,0.000000,-0.000000,0.000000
-0.460000,-0.500000,0.180753,0.040000,-989.031933,1183.000000,-224.433649,231.583310,2697.725956,-0.000000,0.000000,0.000000,2710.917693,-2703.768032,2.797279,0.000000,-0.000000,0.000000
0.460000,-0.500000,0.179868,0.040000,-988.679875,1183.000000,-222.187102,229.333900,-2695.988142,-0.000000,0.000000,-0.000000,2708.997465,-2701.850666,-0.701659,0.000000,-0.000000,-0.000000
0.500000,-0.500000,0.208258,0.040000,-938.792329,1375.000000,1.986742,0.203953,-2496.069465,0.000000,-0.000000,-0.000000,2497.164812,-2494.974117,0.891395,0.000000,-0.000000,0.000000
0.540000,-0.500000,0.236388,0.040000,-888.899817,1583.000000,178.519811,-174.926772,-2295.571707,0.000000,-0.000000,-0.000000,2304.160646,-2300.567607,-0.120394,0.000000,-0.000000,-0.000000
0.580000,-0.500000,0.267063,0.040000,-839.286370,1807.000000,314.130220,-315.937109,-2104.835474,0.000000,-0.000000,-0.000000,2127.376711,-2129.183600,1.469543,0.000000,-0.000000,0.000000
0.620000,-0.500000,0.296892,0.040000,-790.171317,2047.000000,416.606923,-418.163549,-1922.843207,0.000000,-0.000000,-0.000000,1966.843635,-1968.400261,0.549684,0.000000,-0.000000,0.000000
0.660000,-0.500000,0.328888,0.040000,-741.720463,2303.000000,492.709795,-493.959264,-1752.575617,0.000000,-0.000000,-0.000000,1820.061958,-1821.311426,0.470763,0.000000,-0.000000,0.000000
0.700000,-0.500000,0.360964,0.040000,-694.056039,2575.000000,546.972388,-547.964607,-1595.536136,0.000000,-0.000000,-0.000000,1686.352180,-1687.344400,0.404426,0.000000,-0.000000,0.000000
0.740000,-0.500000,0.393483,0.040000,-647.265257,2863.000000,583.878943,-584.659329,-1451.885635,0.000000,-0.000000,-0.000000,1564.647251,-1565.427637,0.348540,0.000000,-0.000000,0.000000
0.780000,-0.500000,0.427274,0.040000,-601.407490,3167.000000,607.126603,-607.734740,-1321.253514,0.000000,-0.000000,-0.000000,1453.890822,-1454.498959,0.301333,0.000000,-0.000000,0.000000
0.820000,-0.500000,0.461299,0.040000,-556.520197,3487.000000,619.724473,-620.193889,-1202.948544,0.000000,-0.000000,-0.000000,1353.070326,-1353.539742,0.261344,0.000000,-0.000000,0.000000
0.860000,-0.500000,0.495229,0.040000,-512.623746,3823.000000,624.097725,-624.456256,-1096.105401,0.000000,-0.000000,-0.000000,1261.236114,-1261.594645,0.227372,0.000000,-0.000000,0.000000
0.900000,-0.500000,0.530006,0.040000,-469.725304,4175.000000,622.185988,-622.456419,-999.783481,0.000000,-0.000000,-0.000000,1177.511018,-1177.781448,0.198428,0.000000,-0.000000,0.000000
0.940000,-0.500000,0.565474,0.040000,-427.821945,4543.000000,615.531014,-615.731804,-913.031286,0.000000,-0.000000,-0.000000,1101.093562,-1101.294352,0.173696,0.000000,-0.000000,0.000000
0.980000,-0.500000,0.601116,0.040000,-386.903130,4927.000000,605.351946,-605.497938,-834.926596,0.000000,-0.000000,-0.000000,1031.257095,-1031.403088,0.152503,0.000000,-0.000000,0.000000
1.020000,-0.500000,0.636503,0.040000,-346.952654,5327.000000,592.608369,-592.711431,-764.599962,0.000000,-0.000000,-0.000000,967.346443,-967.449505,0.134290,0.000000,-0.000000,0.000000
1.060000,-0.500000,0.672407,0.040000,-307.950193,5743.000000,578.052242,-578.121822,-701.246971,0.000000,-0.000000,-0.000000,908.773174,-908.842755,0.118594,0.000000,-0.000000,0.000000
1.100000,-0.500000,0.708750,0.040000,-269.872509,6175.000000,562.270156,-562.313754,-644.133135,0.000000,-0.000000,-0.000000,855.010204,-855.053802,0.105028,0.000000,-0.000000,0.000000
1.140000,-0.500000,0.745467,0.040000,-232.694391,6623.000000,545.447478,-545.171916,-592.148024,0.000000,-0.000000,-0.000000,805.123458,-804.847896,0.086789,0.000000,-0.000000,0.000000
1.180000,-0.500000,0.782506,0.040000,-196.389384,7087.000000,527.984846,-528.063573,-546.078787,0.000000,-0.000000,-0.000000,759.573292,-759.652019,-0.469945,0.000000,-0.000000,-0.000000
1.220000,-0.500000,0.819267,0.040000,-160.930356,7567.000000,511.014170,-510.875276,-504.196739,0.000000,-0.000000,-0.000000,717.898466,-717.759572,-0.600943,0.000000,-0.000000,-0.000000
-1.220000,-0.460000,0.804793,0.040000,-174.950619,7547.800000,550.429466,-550.554058,485.232340,0.000000,-0.000000,0.000000,733.756916,-733.881507,0.983940,0.000000,-0.000000,0.000000
-1.180000,-0.460000,0.767164,0.040000,-211.250123,7067.800000,572.431756,-573.200102,527.209422,0.000000,-0.000000,0.000000,778.119317,-778.887663,0.423886,0.000000,-0.000000,0.000000
-1.140000,-0.460000,0.729788,0.040000,-248.466770,6603.800000,594.716752,-593.959185,573.305120,0.000000,-0.000000,0.000000,826.161023,-825.403455,0.274159,0.000000,-0.000000,0.000000
-1.100000,-0.460000,0.692705,0.040000,-286.635424,6155.800000,616.977256,-616.981927,625.526513,0.000000,-0.000000,0.000000,878.602937,-878.607608,0.100115,0.000000,-0.000000,0.000000
-1.060000,-0.460000,0.655965,0.040000,-325.791233,5723.800000,638.868273,-638.894203,683.320801,0.000000,-0.000000,0.000000,935.452983,-935.478913,0.113531,0.000000,-0.000000,0.000000
-1.020000,-0.460000,0.619628,0.040000,-365.969191,5307.800000,660.293503,-660.347909,747.836263,0.000000,-0.000000,0.000000,997.611256,-997.665662,0.129189,0.000000,-0.000000,0.000000
-0.980000,-0.460000,0.583666,0.040000,-407.203534,4907.800000,680.753123,-680.845334,819.953917,0.000000,-0.000000,0.000000,1065.698702,-1065.790913,0.147533,0.000000,-0.000000,0.000000
-0.940000,-0.460000,0.547147,0.040000,-449.526941,4523.800000,699.583762,-699.725811,900.664680,0.000000,-0.000000,0.000000,1140.417317,-1140.559366,0.169106,0.000000,-0.000000,0.000000
-0.900000,-0.460000,0.511149,0.040000,-492.969465,4155.800000,715.911175,-716.118535,991.074665,0.000000,-0.000000,0.000000,1222.559898,-1222.767258,0.194577,0.000000,-0.000000,0.000000
-0.860000,-0.460000,0.475790,0.040000,-537.557128,3803.800000,728.590047,-728.882538,1092.405203,0.000000,-0.000000,0.000000,1313.020028,-1313.312518,0.224761,0.000000,-0.000000,0.000000
-0.820000,-0.460000,0.441225,0.040000,-583.310087,3467.800000,736.127977,-736.530861,1205.983807,0.000000,-0.000000,0.000000,1412.801703,-1413.204587,0.260661,0.000000,-0.000000,0.000000
-0.780000,-0.460000,0.406252,0.040000,-630.240235,3147.800000,736.590465,-737.135717,1333.220320,0.000000,-0.000000,0.000000,1523.027589,-1523.572841,0.303499,0.000000,-0.000000,0.000000
-0.740000,-0.460000,0.371716,0.040000,-678.348094,2843.800000,727.483901,-728.211608,1475.559777,0.000000,-0.000000,0.000000,1644.944289,-1645.671996,0.354760,0.000000,-0.000000,0.000000
-0.700000,-0.460000,0.338387,0.040000,-727.618814,2555.800000,705.614581,-706.574323,1634.399625,0.000000,-0.000000,0.000000,1779.922145,-1780.881887,0.416232,0.000000,-0.000000,0.000000
-0.660000,-0.460000,0.305384,0.040000,-778.017051,2283.800000,666.924297,-668.176225,1810.953881,0.000000,-0.000000,0.000000,1929.445814,-1930.697743,0.490035,0.000000,-0.000000,0.000000
-0.620000,-0.460000,0.272409,0.040000,-829.480456,2027.800000,606.733372,-609.759441,2006.875410,0.000000,-0.000000,0.000000,2095.511652,-2098.537721,-0.261207,0.000000,-0.000000,-0.000000
-0.580000,-0.460000,0.241565,0.040000,-881.911489,1787.800000,517.910631,-515.567141,2217.389210,0.000000,-0.000000,0.000000,2277.974474,-2275.630984,1.821722,0.000000,-0.000000,0.000000
-0.540000,-0.460000,0.209850,0.040000,-935.167274,1563.800000,398.942734,-390.999120,2451.639589,0.000000,-0.000000,0.000000,2487.223440,-2479.279826,-0.179629,0.000000,-0.000000,-0.000000
-0.500000,-0.460000,0.180543,0.040000,-989.047240,1355.800000,229.589447,-222.435507,2697.977830,0.000000,-0.000000,0.000000,2711.004788,-2703.850849,-0.787242,0.000000,-0.000000,-0.000000
0.500000,-0.460000,0.179939,0.040000,-988.664568,1355.800000,231.327763,-224.185243,-2695.736267,0.000000,-0.000000,-0.000000,2708.910369,-2701.767848,2.711696,0.000000,-0.000000,0.000000
0.540000,-0.460000,0.210496,0.040000,-934.796976,1563.800000,400.236120,-392.300129,-2449.512531,0.000000,-0.000000,-0.000000,2485.325856,-2477.389865,1.798493,0.000000,-0.000000,0.000000
0.580000,-0.460000,0.240689,0.040000,-881.555644,1787.800000,518.853419,-516.511176,-2215.408171,0.000000,-0.000000,-0.000000,2276.259718,-2273.917475,-0.451945,0.000000,-0.000000,-0.000000
0.620000,-0.460000,0.273411,0.040000,-829.140571,2027.800000,607.387325,-610.410370,-2005.056792,0.000000,-0.000000,-0.000000,2093.961825,-2096.984870,1.412901,0.000000,-0.000000,0.000000
0.660000,-0.460000,0.304981,0.040000,-777.694177,2283.800000,667.356869,-668.605900,-1809.301785,0.000000,-0.000000,-0.000000,1928.046489,-1929.295520,0.486243,0.000000,-0.000000,0.000000
0.700000,-0.460000,0.338153,0.040000,-727.313648,2555.800000,705.876642,-706.834070,-1632.909565,0.000000,-0.000000,-0.000000,1778.659101,-1779.616529,0.414519,0.000000,-0.000000,0.000000
0.740000,-0.460000,0.372614,0.040000,-678.061058,2843.800000,727.615901,-728.341781,-1474.222311,0.000000,-0.000000,-0.000000,1643.803867,-1644.529747,0.354714,0.000000,-0.000000,0.000000
0.780000,-0.460000,0.406074,0.040000,-629.971544,3147.800000,736.624378,-737.168200,-1332.023570,0.000000,-0.000000,-0.000000,1521.997067,-1522.540889,0.304664,0.000000,-0.000000,0.000000
0.820000,-0.460000,0.440626,0.040000,-583.059797,3467.800000,736.088856,-736.490627,-1204.914968,0.000000,-0.000000,-0.000000,1411.869436,-1412.271208,0.262629,0.000000,-0.000000,0.000000
0.860000,-0.460000,0.476031,0.040000,-537.325177,3803.800000,728.497380,-728.789010,-1091.451482,0.000000,-0.000000,-0.000000,1312.175484,-1312.467114,0.227201,0.000000,-0.000000,0.000000
0.900000,-0.460000,0.511744,0.040000,-492.755707,4155.800000,715.780037,-715.986735,-990.223835,0.000000,-0.000000,-0.000000,1221.793630,-1222.000328,0.197240,0.000000,-0.000000,0.000000
0.940000,-0.460000,0.547062,0.040000,-449.331168,4523.800000,699.425750,-699.567293,-899.905383,0.000000,-0.000000,-0.000000,1139.720899,-1139.862442,0.171817,0.000000,-0.000000,0.000000
0.980000,-0.460000,0.582986,0.040000,-407.025493,4907.800000,680.577112,-680.668938,-819.275796,0.000000,-0.000000,-0.000000,1065.064649,-1065.156475,0.150174,0.000000,-0.000000,0.000000
1.020000,-0.460000,0.619409,0.040000,-365.808600,5307.800000,660.106247,-660.160362,-747.229996,0.000000,-0.000000,-0.000000,997.032936,-997.087051,0.131687,0.000000,-0.000000,0.000000
1.060000,-0.460000,0.656249,0.040000,-325.647794,5723.800000,638.674880,-638.700592,-682.778074,0.000000,-0.000000,-0.000000,934.924526,-934.950238,0.115846,0.000000,-0.000000,0.000000
1.100000,-0.460000,0.693330,0.040000,-286.508828,6155.800000,616.781558,-616.786067,-625.039956,0.000000,-0.000000,-0.000000,878.119154,-878.123663,0.102227,0.000000,-0.000000,0.000000
1.140000,-0.460000,0.729980,0.040000,-248.356705,6603.800000,594.521735,-593.764472,-572.868508,0.000000,-0.000000,-0.000000,825.717560,-824.960297,-0.095057,0.000000,-0.000000,-0.000000
1.180000,-0.460000,0.766965,0.040000,-211.156275,7067.800000,572.239610,-573.007083,-526.816484,0.000000,-0.000000,-0.000000,777.712038,-778.479511,-0.264962,0.000000,-0.000000,-0.000000
1.220000,-0.460000,0.804239,0.040000,-174.872681,7547.800000,550.242114,-550.366264,-484.878133,0.000000,-0.000000,-0.000000,733.382398,-733.506549,-0.841752,0.000000,-0.000000,-0.000000
-1.260000,-0.420000,0.828557,0.040000,-151.872947,8026.200000,566.191842,-565.659918,425.300414,0.000000,-0.000000,0.000000,708.186914,-707.654990,0.684803,0.000000,-0.000000,0.000000
-1.220000,-0.420000,0.790740,0.040000,-188.017243,7530.200000,590.342733,-590.066772,462.034580,0.000000,-0.000000,0.000000,749.682474,-749.406513,0.809430,0.000000,-0.000000,0.000000
-1.180000,-0.420000,0.753148,0.040000,-225.107621,7050.200000,616.778594,-616.734894,503.230765,0.000000,-0.000000,0.000000,796.030605,-795.986905,0.382028,0.000000,-0.000000,0.000000
-1.140000,-0.420000,0.715818,0.040000,-263.185438,6586.200000,643.720675,-643.065429,548.743372,0.000000,-0.000000,0.000000,845.948035,-845.292790,0.159464,0.000000,-0.000000,0.000000
-1.100000,-0.420000,0.678321,0.040000,-302.293611,6138.200000,671.616308,-671.576340,600.510599,0.000000,-0.000000,0.000000,900.938733,-900.898765,0.095753,0.000000,-0.000000,0.000000
-1.060000,-0.420000,0.640756,0.040000,-342.476429,5706.200000,699.993521,-699.968400,658.155225,0.000000,-0.000000,0.000000,960.815159,-960.790038,0.108909,0.000000,-0.000000,0.000000
-1.020000,-0.420000,0.603505,0.040000,-383.779275,5290.200000,728.794893,-728.791073,722.894818,0.000000,-0.000000,0.000000,1026.508663,-1026.504844,0.124339,0.000000,-0.000000,0.000000
-0.980000,-0.420000,0.566628,0.040000,-426.248197,4890.200000,757.645342,-757.671431,795.747953,0.000000,-0.000000,0.000000,1098.741258,-1098.767346,0.142515,0.000000,-0.000000,0.000000
-0.940000,-0.420000,0.530205,0.040000,-469.929311,4506.200000,786.018633,-786.086070,877.885753,0.000000,-0.000000,0.000000,1178.338747,-1178.406184,0.164026,0.000000,-0.000000,0.000000
-0.900000,-0.420000,0.494334,0.040000,-514.867950,4138.200000,813.187626,-813.311579,970.649814,0.000000,-0.000000,0.000000,1266.246019,-1266.369972,0.189601,0.000000,-0.000000,0.000000
-0.860000,-0.420000,0.457748,0.040000,-561.107498,3786.200000,838.158886,-838.359408,1075.568303,0.000000,-0.000000,0.000000,1363.543946,-1363.744468,0.220153,0.000000,-0.000000,0.000000
-0.820000,-0.420000,0.421707,0.040000,-608.687793,3450.200000,859.587047,-859.890556,1194.367093,0.000000,-0.000000,0.000000,1471.467590,-1471.771098,0.256823,0.000000,-0.000000,0.000000
-0.780000,-0.420000,0.386445,0.040000,-657.642960,3130.200000,875.663286,-876.104430,1328.970741,0.000000,-0.000000,0.000000,1591.425015,-1591.866158,0.301040,0.000000,-0.000000,0.000000
-0.740000,-0.420000,0.352197,0.040000,-707.998513,2826.200000,883.971319,-884.595261,1481.484951,0.000000,-0.000000,0.000000,1725.015380,-1725.639322,0.354587,0.000000,-0.000000,0.000000
-0.700000,-0.420000,0.316900,0.040000,-759.767464,2538.200000,881.303765,-882.168860,1654.147403,0.000000,-0.000000,0.000000,1874.044014,-1874.909109,0.419679,0.000000,-0.000000,0.000000
-0.660000,-0.420000,0.282769,0.040000,-812.945176,2266.200000,863.432334,-864.613041,1849.226822,0.000000,-0.000000,0.000000,2040.530612,-2041.711318,0.499043,0.000000,-0.000000,0.000000
-0.620000,-0.420000,0.250381,0.040000,-867.502574,2010.200000,827.962629,-828.456110,2068.543143,0.000000,-0.000000,0.000000,2227.935888,-2228.429369,-1.915952,0.000000,-0.000000,-0.000000
-0.580000,-0.420000,0.216571,0.040000,-923.377267,1770.200000,764.859169,-757.162445,2316.168277,0.000000,-0.000000,0.000000,2441.833763,-2434.137039,-0.346219,0.000000,-0.000000,-0.000000
-0.540000,-0.420000,0.185068,0.040000,-980.462074,1546.200000,662.210245,-656.624113,2587.620341,0.000000,-0.000000,0.000000,2673.112395,-2667.526263,-2.174720,0.000000,-0.000000,-0.000000
0.540000,-0.420000,0.184709,0.040000,-980.055899,1546.200000,663.319298,-657.744141,-2585.075217,0.000000,-0.000000,-0.000000,2670.914443,-2665.339285,3.881460,0.000000,-0.000000,0.000000
0.580000,-0.420000,0.217250,0.040000,-922.989130,1770.200000,765.592843,-757.905578,-2313.861971,0.000000,-0.000000,-0.000000,2439.868254,-2432.180989,1.767356,0.000000,-0.000000,0.000000
0.620000,-0.420000,0.249262,0.040000,-867.133667,2010.200000,828.417711,-828.910734,-2066.476236,0.000000,-0.000000,-0.000000,2226.185339,-2226.678362,3.104975,0.000000,-0.000000,0.000000
0.660000,-0.420000,0.283312,0.040000,-812.596232,2266.200000,863.673506,-864.851022,-1847.385519,0.000000,-0.000000,-0.000000,2038.965671,-2040.143187,0.497831,0.000000,-0.000000,0.000000
0.700000,-0.420000,0.317082,0.040000,-759.438873,2538.200000,881.387412,-882.250058,-1652.515333,0.000000,-0.000000,-0.000000,1872.643964,-1873.506610,0.421080,0.000000,-0.000000,0.000000
0.740000,-0.420000,0.351278,0.040000,-707.690413,2826.200000,883.940352,-884.562431,-1480.042245,0.000000,-0.000000,-0.000000,1723.761303,-1724.383383,0.357712,0.000000,-0.000000,0.000000
0.780000,-0.420000,0.386588,0.040000,-657.355305,3130.200000,875.550374,-875.990111,-1327.697151,0.000000,-0.000000,-0.000000,1590.299905,-1590.739642,0.305165,0.000000,-0.000000,0.000000
0.820000,-0.420000,0.422402,0.040000,-608.420404,3450.200000,859.416876,-859.719329,-1193.243193,0.000000,-0.000000,-0.000000,1470.456326,-1470.758779,0.261410,0.000000,-0.000000,0.000000
0.860000,-0.420000,0.457623,0.040000,-560.860105,3786.200000,837.949991,-838.149725,-1074.576123,0.000000,-0.000000,-0.000000,1362.633180,-1362.832914,0.224830,0.000000,-0.000000,0.000000
0.900000,-0.420000,0.493572,0.040000,-514.640219,4138.200000,812.953835,-813.077205,-969.773110,0.000000,-0.000000,-0.000000,1265.424025,-1265.547395,0.194131,0.000000,-0.000000,0.000000
0.940000,-0.420000,0.530103,0.040000,-469.720869,4506.200000,785.770195,-785.837203,-877.110065,0.000000,-0.000000,-0.000000,1177.595254,-1177.662262,0.168267,0.000000,-0.000000,0.000000
0.980000,-0.420000,0.567101,0.040000,-426.058647,4890.200000,757.389793,-757.415569,-795.060541,0.000000,-0.000000,-0.000000,1098.067284,-1098.093060,0.146396,0.000000,-0.000000,0.000000
1.020000,-0.420000,0.603970,0.040000,-383.608209,5290.200000,728.537716,-728.533672,-722.284534,0.000000,-0.000000,-0.000000,1025.896358,-1025.892315,0.127831,0.000000,-0.000000,0.000000
1.060000,-0.420000,0.640737,0.040000,-342.323436,5706.200000,699.738658,-699.713379,-657.612358,0.000000,-0.000000,-0.000000,960.257662,-960.232382,0.112016,0.000000,-0.000000,0.000000
1.100000,-0.420000,0.677870,0.040000,-302.158283,6138.200000,671.366538,-671.326462,-600.026716,0.000000,-0.000000,-0.000000,900.430041,-900.389965,0.098494,0.000000,-0.000000,0.000000
1.140000,-0.420000,0.715313,0.040000,-263.067376,6586.200000,643.478063,-642.823207,-548.311417,0.000000,-0.000000,-0.000000,845.483123,-844.828267,0.011967,0.000000,-0.000000,0.000000
1.180000,-0.420000,0.753019,0.040000,-225.006436,7050.200000,616.544186,-616.500081,-502.843790,0.000000,-0.000000,-0.000000,795.604459,-795.560354,-0.230310,0.000000,-0.000000,-0.000000
1.220000,-0.420000,0.790950,0.040000,-187.932561,7530.200000,590.117963,-589.841953,-461.687295,0.000000,-0.000000,-0.000000,749.291564,-749.015554,-0.674117,0.000000,-0.000000,-0.000000
1.260000,-0.420000,0.829075,0.040000,-151.804407,8026.200000,565.976087,-565.444213,-424.988257,0.000000,-0.000000,-0.000000,707.827011,-707.295137,-0.564515,0.000000,-0.000000,-0.000000
-1.260000,-0.380000,0.816706,0.040000,-163.305788,8010.200000,600.181153,-599.753827,399.020471,0.000000,-0.000000,0.000000,720.753550,-720.326224,0.772214,0.000000,-0.000000,0.000000
-1.220000,-0.380000,0.778313,0.040000,-200.138065,7514.200000,628.889608,-628.664885,434.366352,0.000000,-0.000000,0.000000,764.334006,-764.109283,0.481452,0.000000,-0.000000,0.000000
-1.180000,-0.380000,0.740091,0.040000,-237.977941,7034.200000,659.635031,-658.902677,473.916374,0.000000,-0.000000,0.000000,812.297289,-811.564936,0.140113,0.000000,-0.000000,0.000000
-1.140000,-0.380000,0.702066,0.040000,-276.873982,6570.200000,691.983018,-691.890519,519.052021,0.000000,-0.000000,0.000000,865.026877,-864.934378,0.079556,0.000000,-0.000000,0.000000
-1.100000,-0.380000,0.664274,0.040000,-316.877337,6122.200000,725.555586,-725.466218,569.303239,0.000000,-0.000000,0.000000,922.255201,-922.165833,0.090385,0.000000,-0.000000,0.000000
-1.060000,-0.380000,0.626756,0.040000,-358.041715,5690.200000,760.675962,-760.593418,625.917088,0.000000,-0.000000,0.000000,985.098287,-985.015743,0.103081,0.000000,-0.000000,0.000000
-1.020000,-0.380000,0.589564,0.040000,-400.423300,5274.200000,797.222341,-797.151802,689.865254,0.000000,-0.000000,0.000000,1054.274939,-1054.204400,0.118036,0.000000,-0.000000,0.000000
-0.980000,-0.380000,0.551857,0.040000,-444.080548,4874.200000,834.981666,-834.930338,762.285782,0.000000,-0.000000,0.000000,1130.614502,-1130.563174,0.135741,0.000000,-0.000000,0.000000
-0.940000,-0.380000,0.514388,0.040000,-489.073842,4490.200000,873.613977,-873.591824,844.511787,0.000000,-0.000000,0.000000,1215.075751,-1215.053598,0.156810,0.000000,-0.000000,0.000000
-0.900000,-0.380000,0.477331,0.040000,-535.464951,4122.200000,912.603867,-912.624606,938.103752,0.000000,-0.000000,0.000000,1308.768970,-1308.789710,0.182020,0.000000,-0.000000,0.000000
-0.860000,-0.380000,0.440788,0.040000,-583.316192,3770.200000,951.194482,-951.276926,1044.884706,0.000000,-0.000000,0.000000,1412.981555,-1413.063999,0.212355,0.000000,-0.000000,0.000000
-0.820000,-0.380000,0.404900,0.040000,-632.689215,3434.200000,988.297899,-988.467764,1166.976558,0.000000,-0.000000,0.000000,1529.207337,-1529.377203,0.249072,0.000000,-0.000000,0.000000
-0.780000,-0.380000,0.368371,0.040000,-683.643253,3114.200000,1022.373761,-1022.666084,1306.833985,0.000000,-0.000000,0.000000,1659.179596,-1659.471919,0.293782,0.000000,-0.000000,0.000000
-0.740000,-0.380000,0.332266,0.040000,-736.232638,2810.200000,1051.265586,-1051.727905,1467.269261,0.000000,-0.000000,0.000000,1804.907165,-1805.369484,0.348550,0.000000,-0.000000,0.000000
-0.700000,-0.380000,0.297159,0.040000,-790.503336,2522.200000,1071.981427,-1072.677891,1651.456321,0.000000,-0.000000,0.000000,1968.712129,-1969.408593,0.416024,0.000000,-0.000000,0.000000
-0.660000,-0.380000,0.262827,0.040000,-846.488136,2250.200000,1081.820531,-1084.487912,1863.482955,0.000000,-0.000000,0.000000,2154.075896,-2156.743276,-1.144691,0.000000,-0.000000,-0.000000
-0.620000,-0.380000,0.227619,0.040000,-904.200020,1994.200000,1073.859591,-1068.811698,2105.322132,0.000000,-0.000000,0.000000,2364.756063,-2359.708170,0.877375,0.000000,-0.000000,0.000000
-0.580000,-0.380000,0.194276,0.040000,-963.623129,1754.200000,1040.170230,-1038.448621,2380.342446,0.000000,-0.000000,0.000000,2598.203483,-2596.481875,-2.291691,0.000000,-0.000000,-0.000000
-0.540000,-0.380000,0.161243,0.040000,-1024.700523,1530.200000,971.508341,-967.487469,2694.625583,0.000000,-0.000000,0.000000,2865.736195,-2861.715323,-2.828106,0.000000,-0.000000,-0.000000
0.540000,-0.380000,0.160984,0.040000,-1024.256707,1530.200000,972.330073,-968.316868,-2691.651405,0.000000,-0.000000,-0.000000,2863.211537,-2859.198332,4.609324,0.000000,-0.000000,0.000000
0.580000,-0.380000,0.194036,0.040000,-963.201533,1754.200000,1040.620161,-1038.902315,-2377.717162,0.000000,-0.000000,-0.000000,2595.975152,-2594.257305,3.754282,0.000000,-0.000000,0.000000
0.620000,-0.380000,0.228443,0.040000,-903.801375,1994.200000,1074.041924,-1069.003595,-2103.018404,0.000000,-0.000000,-0.000000,2362.783413,-2357.745083,0.334923,0.000000,-0.000000,0.000000
0.660000,-0.380000,0.261994,0.040000,-846.112745,2250.200000,1081.813613,-1084.477601,-1861.471009,0.000000,-0.000000,-0.000000,2152.333281,-2154.997268,2.147377,0.000000,-0.000000,0.000000
0.700000,-0.380000,0.297146,0.040000,-790.151195,2522.200000,1071.844200,-1072.538239,-1649.702449,0.000000,-0.000000,-0.000000,1967.167149,-1967.861188,0.423333,0.000000,-0.000000,0.000000
0.740000,-0.380000,0.333114,0.040000,-735.903530,2810.200000,1051.039362,-1051.499912,-1465.741760,0.000000,-0.000000,-0.000000,1803.534296,-1803.994847,0.356888,0.000000,-0.000000,0.000000
0.780000,-0.380000,0.368185,0.040000,-683.336819,3114.200000,1022.089639,-1022.380683,-1305.503079,0.000000,-0.000000,-0.000000,1657.956683,-1658.247727,0.302304,0.000000,-0.000000,0.000000
0.820000,-0.380000,0.404172,0.040000,-632.405004,3434.200000,987.978381,-988.147330,-1165.815609,0.000000,-0.000000,-0.000000,1528.115177,-1528.284126,0.257260,0.000000,-0.000000,0.000000
0.860000,-0.380000,0.440851,0.040000,-583.053692,3770.200000,950.855714,-950.937507,-1043.870319,0.000000,-0.000000,-0.000000,1412.003564,-1412.085357,0.219922,0.000000,-0.000000,0.000000
0.900000,-0.380000,0.478064,0.040000,-535.223622,4122.200000,912.257318,-912.277601,-937.215622,0.000000,-0.000000,-0.000000,1307.890850,-1307.911134,0.188835,0.000000,-0.000000,0.000000
0.940000,-0.380000,0.514638,0.040000,-488.853130,4490.200000,873.267689,-873.245222,-843.732427,0.000000,-0.000000,-0.000000,1214.285180,-1214.262714,0.162842,0.000000,-0.000000,0.000000
0.980000,-0.380000,0.551559,0.040000,-443.879899,4874.200000,834.641177,-834.589639,-761.600200,0.000000,-0.000000,-0.000000,1129.900861,-1129.849323,0.141014,0.000000,-0.000000,0.000000
1.020000,-0.380000,0.588881,0.040000,-400.242171,5274.200000,796.891366,-796.820692,-689.260635,0.000000,-0.000000,-0.000000,1053.629062,-1053.558388,0.122607,0.000000,-0.000000,0.000000
1.060000,-0.380000,0.626534,0.040000,-357.879576,5690.200000,760.356896,-760.274271,-625.382490,0.000000,-0.000000,-0.000000,984.512253,-984.429629,0.107019,0.000000,-0.000000,0.000000
1.100000,-0.380000,0.664462,0.040000,-316.733677,6122.200000,725.249871,-725.160460,-568.829320,0.000000,-0.000000,-0.000000,921.722153,-921.632743,0.093765,0.000000,-0.000000,0.000000
1.140000,-0.380000,0.702619,0.040000,-276.748312,6570.200000,691.691412,-691.598897,-518.630804,0.000000,-0.000000,-0.000000,864.540863,-864.448349,0.082450,0.000000,-0.000000,0.000000
1.180000,-0.380000,0.740533,0.040000,-237.869795,7034.200000,659.358038,-658.625937,-473.541411,0.000000,-0.000000,-0.000000,811.853516,-811.121416,0.002819,0.000000,-0.000000,0.000000
1.220000,-0.380000,0.778434,0.040000,-200.046999,7514.200000,628.627341,-628.402566,-434.031009,0.000000,-0.000000,-0.000000,763.927704,-763.702929,-0.354367,0.000000,-0.000000,-0.000000
1.260000,-0.380000,0.816535,0.040000,-163.231382,8010.200000,599.932766,-599.505564,-398.719973,0.000000,-0.000000,-0.000000,720.380428,-719.953227,-0.659118,0.000000,-0.000000,-0.000000
-1.260000,-0.340000,0.805714,0.040000,-173.777462,7995.800000,632.552629,-632.326761,368.956772,0.000000,-0.000000,0.000000,732.307270,-732.081402,0.722192,0.000000,-0.000000,0.000000
-1.220000,-0.340000,0.767341,0.040000,-211.251714,7499.800000,665.559051,-666.015644,403.033902,0.000000,-0.000000,0.000000,778.044644,-778.501236,0.590871,0.000000,-0.000000,0.000000
-1.180000,-0.340000,0.728997,0.040000,-249.792528,7019.800000,700.973261,-699.969238,440.410090,0.000000,-0.000000,0.000000,827.920279,-826.916257,0.170738,0.000000,-0.000000,0.000000
-1.140000,-0.340000,0.690362,0.040000,-289.455643,6555.800000,738.429077,-738.291509,483.514633,0.000000,-0.000000,0.000000,882.657203,-882.519635,0.073789,0.000000,-0.000000,0.000000
-1.100000,-0.340000,0.651891,0.040000,-330.300453,6107.800000,777.936400,-777.794003,531.756708,0.000000,-0.000000,0.000000,942.323532,-942.181135,0.084015,0.000000,-0.000000,0.000000
-1.060000,-0.340000,0.613616,0.040000,-372.390178,5675.800000,819.917450,-819.772392,586.372258,0.000000,-0.000000,0.000000,1008.029924,-1007.884867,0.096044,0.000000,-0.000000,0.000000
-1.020000,-0.340000,0.575576,0.040000,-415.791991,5259.800000,864.416043,-864.271699,648.395736,0.000000,-0.000000,0.000000,1080.584710,-1080.440366,0.110266,0.000000,-0.000000,0.000000
-0.980000,-0.340000,0.537820,0.040000,-460.577088,4859.800000,911.416243,-911.277697,719.055941,0.000000,-0.000000,0.000000,1160.928752,-1160.790206,0.127173,0.000000,-0.000000,0.000000
-0.940000,-0.340000,0.500413,0.040000,-506.820661,4475.800000,960.812146,-960.686908,799.815582,0.000000,-0.000000,0.000000,1250.160454,-1250.035216,0.147387,0.000000,-0.000000,0.000000
-0.900000,-0.340000,0.463167,0.040000,-554.601723,4107.800000,1012.365075,-1012.264086,892.418566,0.000000,-0.000000,0.000000,1349.565844,-1349.464855,0.171704,0.000000,-0.000000,0.000000
-0.860000,-0.340000,0.425409,0.040000,-604.002720,3755.800000,1065.643030,-1065.582077,998.945902,0.000000,-0.000000,0.000000,1460.654655,-1460.593702,0.201148,0.000000,-0.000000,0.000000
-0.820000,-0.340000,0.388101,0.040000,-655.108835,3419.800000,1119.935149,-1119.936861,1121.880585,0.000000,-0.000000,0.000000,1585.203436,-1585.205148,0.237047,0.000000,-0.000000,0.000000
-0.780000,-0.340000,0.351386,0.040000,-708.006840,3099.800000,1174.131008,-1174.227653,1264.180724,0.000000,-0.000000,0.000000,1725.306691,-1725.403337,0.281138,0.000000,-0.000000,0.000000
-0.740000,-0.340000,0.315470,0.040000,-762.783302,2795.800000,1226.550580,-1226.787982,1429.357917,0.000000,-0.000000,0.000000,1883.436838,-1883.674240,0.335703,0.000000,-0.000000,0.000000
-0.700000,-0.340000,0.279036,0.040000,-819.521875,2507.800000,1275.525315,-1278.460267,1622.950670,0.000000,-0.000000,0.000000,2063.642531,-2066.577483,-0.356403,0.000000,-0.000000,-0.000000
-0.660000,-0.340000,0.242825,0.040000,-878.299291,2235.800000,1319.198937,-1316.548017,1842.552101,0.000000,-0.000000,0.000000,2266.668159,-2264.017239,-3.347141,0.000000,-0.000000,-0.000000
-0.620000,-0.340000,0.208008,0.040000,-939.179508,1979.800000,1350.492668,-1343.196543,2108.811949,0.000000,-0.000000,0.000000,2505.861958,-2498.565832,-1.962068,0.000000,-0.000000,-0.000000
-0.580000,-0.340000,0.173387,0.040000,-1002.205275,1739.800000,1356.360287,-1352.975393,2411.184621,0.000000,-0.000000,0.000000,2767.360309,-2763.975415,-4.184583,0.000000,-0.000000,-0.000000
0.580000,-0.340000,0.172875,0.040000,-1001.749514,1739.800000,1356.410159,-1353.035566,-2408.258589,0.000000,-0.000000,-0.000000,2764.828879,-2761.454286,5.661948,0.000000,-0.000000,0.000000
0.620000,-0.340000,0.207703,0.040000,-938.750846,1979.800000,1350.318188,-1343.034035,-2106.301552,0.000000,-0.000000,-0.000000,2503.648623,-2496.364470,3.169583,0.000000,-0.000000,0.000000
0.660000,-0.340000,0.243939,0.040000,-877.897472,2235.800000,1318.887283,-1316.239783,-1840.406075,0.000000,-0.000000,-0.000000,2264.739165,-2262.091666,4.340656,0.000000,-0.000000,0.000000
0.700000,-0.340000,0.278749,0.040000,-819.146409,2507.800000,1275.124453,-1278.054834,-1621.106156,0.000000,-0.000000,-0.000000,2061.945795,-2064.876175,1.179864,0.000000,-0.000000,0.000000
0.740000,-0.340000,0.314796,0.040000,-762.433553,2795.800000,1226.098484,-1226.334381,-1427.775482,0.000000,-0.000000,-0.000000,1881.941946,-1882.177842,0.351478,0.000000,-0.000000,0.000000
0.780000,-0.340000,0.351698,0.040000,-707.682086,3099.800000,1173.653544,-1173.749166,-1262.819150,0.000000,-0.000000,-0.000000,1723.984378,-1724.080000,0.295471,0.000000,-0.000000,0.000000
0.820000,-0.340000,0.388794,0.040000,-654.808314,3419.800000,1119.450417,-1119.451446,-1120.705953,0.000000,-0.000000,-0.000000,1584.029838,-1584.030867,0.249701,0.000000,-0.000000,0.000000
0.860000,-0.340000,0.425353,0.040000,-603.725657,3755.800000,1065.163127,-1065.101730,-997.929564,0.000000,-0.000000,-0.000000,1459.609562,-1459.548165,0.212110,0.000000,-0.000000,0.000000
0.900000,-0.340000,0.462482,0.040000,-554.347352,4107.800000,1011.897878,-1011.796612,-891.536443,0.000000,-0.000000,-0.000000,1348.632126,-1348.530860,0.181080,0.000000,-0.000000,0.000000
0.940000,-0.340000,0.500054,0.040000,-506.588235,4475.800000,960.362580,-960.237182,-799.047485,0.000000,-0.000000,-0.000000,1249.323569,-1249.198171,0.155340,0.000000,-0.000000,0.000000
0.980000,-0.340000,0.537976,0.040000,-460.365887,4859.800000,910.987180,-910.848554,-718.384955,0.000000,-0.000000,-0.000000,1160.176328,-1160.037702,0.133882,0.000000,-0.000000,0.000000
1.020000,-0.340000,0.576179,0.040000,-415.601328,5259.800000,864.008936,-863.864566,-647.807680,0.000000,-0.000000,-0.000000,1079.906193,-1079.761824,0.115907,0.000000,-0.000000,0.000000
1.060000,-0.340000,0.614053,0.040000,-372.219403,5675.800000,819.532784,-819.387737,-585.855229,0.000000,-0.000000,-0.000000,1007.416287,-1007.271241,0.100778,0.000000,-0.000000,0.000000
1.100000,-0.340000,0.651945,0.040000,-330.148950,6107.800000,777.574012,-777.431650,-531.300697,0.000000,-0.000000,-0.000000,941.767031,-941.624669,0.087987,0.000000,-0.000000,0.000000
1.140000,-0.340000,0.690074,0.040000,-289.322832,6555.800000,738.088377,-737.950859,-483.111203,0.000000,-0.000000,-0.000000,882.151173,-882.013656,0.077122,0.000000,-0.000000,0.000000
1.180000,-0.340000,0.728404,0.040000,-249.677864,7019.800000,700.653636,-699.650321,-440.052428,0.000000,-0.000000,-0.000000,827.459293,-826.455978,-0.037794,0.000000,-0.000000,-0.000000
1.220000,-0.340000,0.766904,0.040000,-211.154685,7499.800000,665.259646,-665.715659,-402.715213,0.000000,-0.000000,-0.000000,777.623608,-778.079621,-0.473122,0.000000,-0.000000,-0.000000
1.260000,-0.340000,0.805551,0.040000,-173.697587,7995.800000,632.272400,-632.046475,-368.672409,0.000000,-0.000000,-0.000000,731.922035,-731.696110,-0.617414,0.000000,-0.000000,-0.000000
-1.300000,-0.300000,0.834617,0.040000,-146.235132,8495.000000,630.408584,-629.650719,307.973868,0.000000,-0.000000,0.000000,701.652562,-700.894697,0.750034,0.000000,-0.000000,0.000000
-1.260000,-0.300000,0.795627,0.040000,-183.235391,7983.000000,663.813815,-663.264329,335.575111,0.000000,-0.000000,0.000000,743.843471,-743.293985,0.549445,0.000000,-0.000000,0.000000
-1.220000,-0.300000,0.756742,0.040000,-221.299379,7487.000000,700.665628,-700.153402,367.190406,0.000000,-0.000000,0.000000,791.079759,-790.567533,0.493727,0.000000,-0.000000,0.000000
-1.180000,-0.300000,0.717979,0.040000,-260.485424,7007.000000,740.117214,-739.346018,402.142873,0.000000,-0.000000,0.000000,842.360511,-841.589315,0.014095,0.000000,-0.000000,0.000000
-1.140000,-0.300000,0.679360,0.040000,-300.856246,6543.000000,782.479909,-782.295991,442.498979,0.000000,-0.000000,0.000000,898.944698,-898.760780,0.067219,0.000000,-0.000000,0.000000
-1.100000,-0.300000,0.640911,0.040000,-342.479316,6095.000000,827.837245,-827.639710,487.863459,0.000000,-0.000000,0.000000,960.911828,-960.714292,0.076676,0.000000,-0.000000,0.000000
-1.060000,-0.300000,0.602663,0.040000,-385.427226,5663.000000,876.631678,-876.420816,539.451707,0.000000,-0.000000,0.000000,1029.331547,-1029.120686,0.087831,0.000000,-0.000000,0.000000
-1.020000,-0.300000,0.564083,0.040000,-429.778067,5247.000000,929.093487,-928.870370,598.328259,0.000000,-0.000000,0.000000,1105.102110,-1104.878993,0.101059,0.000000,-0.000000,0.000000
-0.980000,-0.300000,0.525502,0.040000,-475.615796,4847.000000,985.433470,-985.200361,665.773290,0.000000,-0.000000,0.000000,1189.277386,-1189.044277,0.116837,0.000000,-0.000000,0.000000
-0.940000,-0.300000,0.487150,0.040000,-523.030573,4463.000000,1045.821748,-1045.582716,743.331961,0.000000,-0.000000,0.000000,1283.098683,-1282.859651,0.135770,0.000000,-0.000000,0.000000
-0.900000,-0.300000,0.449085,0.040000,-572.119027,4095.000000,1110.355736,-1110.117557,832.875787,0.000000,-0.000000,0.000000,1388.033879,-1387.795700,0.158642,0.000000,-0.000000,0.000000
-0.860000,-0.300000,0.411389,0.040000,-622.984411,3743.000000,1179.012165,-1178.785646,936.678773,0.000000,-0.000000,0.000000,1505.825622,-1505.599102,0.186470,0.000000,-0.000000,0.000000
-0.820000,-0.300000,0.374170,0.040000,-675.736556,3407.000000,1251.575606,-1251.377537,1057.511423,0.000000,-0.000000,0.000000,1638.550734,-1638.352665,0.220592,0.000000,-0.000000,0.000000
-0.780000,-0.300000,0.336676,0.040000,-730.491521,3087.000000,1327.532394,-1327.388430,1198.755791,0.000000,-0.000000,0.000000,1788.693385,-1788.549421,0.262785,0.000000,-0.000000,0.000000
-0.740000,-0.300000,0.298998,0.040000,-787.370750,2783.000000,1405.913513,-1405.862418,1364.544092,0.000000,-0.000000,0.000000,1959.234941,-1959.183847,0.315433,0.000000,-0.000000,0.000000
-0.700000,-0.300000,0.262010,0.040000,-846.499511,2495.000000,1486.895875,-1490.094116,1561.424938,0.000000,-0.000000,0.000000,2155.636177,-2158.834417,-1.030902,0.000000,-0.000000,-0.000000
-0.660000,-0.300000,0.226051,0.040000,-908.004208,2223.000000,1565.533955,-1561.818889,1793.280238,0.000000,-0.000000,0.000000,2381.129880,-2377.414814,1.030797,0.000000,-0.000000,0.000000
-0.620000,-0.300000,0.189802,0.040000,-972.008041,1967.000000,1639.063545,-1638.395280,2064.510694,0.000000,-0.000000,0.000000,2636.168696,-2635.500432,-3.826714,0.000000,-0.000000,-0.000000
0.620000,-0.300000,0.189321,0.040000,-971.549636,1967.000000,1638.468406,-1637.802981,-2061.856895,0.000000,-0.000000,-0.000000,2633.717858,-2633.052434,5.008027,0.000000,-0.000000,0.000000
0.660000,-0.300000,0.225472,0.040000,-907.576467,2223.000000,1564.861391,-1561.153545,-1791.042529,0.000000,-0.000000,-0.000000,2379.000465,-2375.292619,-0.063433,0.000000,-0.000000,-0.000000
0.700000,-0.300000,0.262741,0.040000,-846.101369,2495.000000,1486.193192,-1489.387821,-1559.537447,0.000000,-0.000000,-0.000000,2153.785324,-2156.979953,1.822472,0.000000,-0.000000,0.000000
0.740000,-0.300000,0.299389,0.040000,-787.001088,2783.000000,1405.209513,-1405.157370,-1362.946480,0.000000,-0.000000,-0.000000,1957.617320,-1957.565177,0.340557,0.000000,-0.000000,0.000000
0.780000,-0.300000,0.336152,0.040000,-730.149214,3087.000000,1326.843897,-1326.699304,-1197.397361,0.000000,-0.000000,-0.000000,1787.272128,-1787.127535,0.283959,0.000000,-0.000000,0.000000
0.820000,-0.300000,0.373581,0.040000,-675.420505,3407.000000,1250.913853,-1250.715434,-1056.351636,0.000000,-0.000000,-0.000000,1637.296814,-1637.098394,0.238211,0.000000,-0.000000,0.000000
0.860000,-0.300000,0.411493,0.040000,-622.693556,3743.000000,1178.383456,-1178.156769,-935.684446,0.000000,-0.000000,-0.000000,1504.714885,-1504.488199,0.201015,0.000000,-0.000000,0.000000
0.900000,-0.300000,0.449768,0.040000,-571.852363,4095.000000,1109.763114,-1109.524887,-832.019757,0.000000,-0.000000,-0.000000,1387.046168,-1386.807941,0.170594,0.000000,-0.000000,0.000000
0.940000,-0.300000,0.487579,0.040000,-522.787151,4463.000000,1045.266139,-1045.027135,-742.591955,0.000000,-0.000000,-0.000000,1282.217112,-1281.978108,0.145570,0.000000,-0.000000,0.000000
0.980000,-0.300000,0.525456,0.040000,-475.394728,4847.000000,984.914454,-984.681419,-665.131004,0.000000,-0.000000,-0.000000,1188.487761,-1188.254726,0.124868,0.000000,-0.000000,0.000000
1.020000,-0.300000,0.563626,0.040000,-429.578522,5247.000000,928.609814,-928.386798,-597.768604,0.000000,-0.000000,-0.000000,1104.392449,-1104.169433,0.107645,0.000000,-0.000000,0.000000
1.060000,-0.300000,0.602033,0.040000,-385.248430,5663.000000,876.181612,-875.970866,-538.962204,0.000000,-0.000000,-0.000000,1028.691697,-1028.480951,0.093238,0.000000,-0.000000,0.000000
1.100000,-0.300000,0.640636,0.040000,-342.320549,6095.000000,827.418799,-827.221384,-487.433748,0.000000,-0.000000,-0.000000,960.333151,-960.135736,0.081125,0.000000,-0.000000,0.000000
1.140000,-0.300000,0.679400,0.040000,-300.716839,6543.000000,782.090991,-781.907194,-442.120430,0.000000,-0.000000,-0.000000,898.419818,-898.236020,0.070889,0.000000,-0.000000,0.000000
1.180000,-0.300000,0.718300,0.040000,-260.364753,7007.000000,739.755905,-738.985346,-401.808553,0.000000,-0.000000,-0.000000,841.883363,-841.112803,0.107220,0.000000,-0.000000,0.000000
1.220000,-0.300000,0.757314,0.040000,-221.196866,7487.000000,700.329828,-699.817763,-366.893555,0.000000,-0.000000,-0.000000,790.644576,-790.132511,-0.386422,0.000000,-0.000000,-0.000000
1.260000,-0.300000,0.796113,0.040000,-183.150499,7983.000000,663.501908,-662.952721,-335.311059,0.000000,-0.000000,-0.000000,743.446021,-742.896834,-0.454216,0.000000,-0.000000,-0.000000
1.300000,-0.300000,0.834874,0.040000,-146.167360,8495.000000,630.117782,-629.360392,-307.738047,0.000000,-0.000000,-0.000000,701.287805,-700.530415,-0.665386,0.000000,-0.000000,-0.000000
-1.300000,-0.260000,0.826729,0.040000,-154.143935,8483.800000,655.652547,-654.781221,273.732521,0.000000,-0.000000,0.000000,710.532987,-709.661661,0.669679,0.000000,-0.000000,0.000000
-1.260000,-0.260000,0.787444,0.040000,-191.630266,7971.800000,692.393131,-691.755383,298.731337,0.000000,-0.000000,0.000000,754.113969,-753.476222,0.377344,0.000000,-0.000000,0.000000
-1.220000,-0.260000,0.748134,0.040000,-230.225718,7475.800000,732.602994,-731.511909,326.980199,0.000000,-0.000000,0.000000,802.308695,-801.217610,0.100398,0.000000,-0.000000,0.000000
-1.180000,-0.260000,0.708901,0.040000,-269.994334,6995.800000,776.367400,-776.158332,359.595222,0.000000,-0.000000,0.000000,855.611845,-855.402776,0.052641,0.000000,-0.000000,0.000000
-1.140000,-0.260000,0.669759,0.040000,-311.005455,6531.800000,823.330206,-823.100173,396.171960,0.000000,-0.000000,0.000000,913.698875,-913.468842,0.059896,0.000000,-0.000000,0.000000
-1.100000,-0.260000,0.630724,0.040000,-353.334256,6083.800000,874.300187,-874.047267,437.775557,0.000000,-0.000000,0.000000,977.790583,-977.537664,0.068428,0.000000,-0.000000,0.000000
-1.060000,-0.260000,0.591818,0.040000,-397.062321,5651.800000,929.675480,-929.397813,485.278526,0.000000,-0.000000,0.000000,1048.725320,-1048.447652,0.078513,0.000000,-0.000000,0.000000
-1.020000,-0.260000,0.553068,0.040000,-442.278289,5235.800000,989.886271,-989.582217,539.736137,0.000000,-0.000000,0.000000,1127.489139,-1127.185084,0.090498,0.000000,-0.000000,0.000000
-0.980000,-0.260000,0.514510,0.040000,-489.078538,4835.800000,1055.390716,-1055.059120,602.430981,0.000000,-0.000000,0.000000,1215.247154,-1214.915559,0.104826,0.000000,-0.000000,0.000000
-0.940000,-0.260000,0.476190,0.040000,-537.567916,4451.800000,1126.666159,-1126.306773,674.929771,0.000000,-0.000000,0.000000,1313.382625,-1313.023239,0.122065,0.000000,-0.000000,0.000000
-0.900000,-0.260000,0.437927,0.040000,-587.860506,4083.800000,1204.192867,-1203.807010,759.156013,0.000000,-0.000000,0.000000,1423.545901,-1423.160043,0.142950,0.000000,-0.000000,0.000000
-0.860000,-0.260000,0.399177,0.040000,-640.080391,3731.800000,1288.425961,-1288.017552,857.483238,0.000000,-0.000000,0.000000,1547.716004,-1547.307595,0.168442,0.000000,-0.000000,0.000000
-0.820000,-0.260000,0.360701,0.040000,-694.362377,3395.800000,1379.748860,-1379.326045,972.854881,0.000000,-0.000000,0.000000,1688.278397,-1687.855583,0.199814,0.000000,-0.000000,0.000000
-0.780000,-0.260000,0.322596,0.040000,-750.852602,3075.800000,1478.397834,-1477.975512,1108.938474,0.000000,-0.000000,0.000000,1848.123583,-1847.701262,0.238775,0.000000,-0.000000,0.000000
-0.740000,-0.260000,0.285010,0.040000,-809.708902,2771.800000,1585.259313,-1587.578899,1271.818862,0.000000,-0.000000,0.000000,2032.125429,-2034.445016,0.030855,0.000000,-0.000000,0.000000
-0.700000,-0.260000,0.248181,0.040000,-871.100745,2483.800000,1698.609706,-1697.643267,1462.311760,0.000000,-0.000000,0.000000,2241.462611,-2240.496172,-0.784709,0.000000,-0.000000,-0.000000
-0.660000,-0.260000,0.210185,0.040000,-935.208418,2211.800000,1821.618313,-1821.447886,1693.495837,0.000000,-0.000000,0.000000,2487.231382,-2487.060955,-3.862662,0.000000,-0.000000,-0.000000
-0.620000,-0.260000,0.172705,0.040000,-1002.220991,1955.800000,1941.798177,-1942.284395,1969.152674,0.000000,-0.000000,0.000000,2765.450478,-2765.936696,-5.058724,0.000000,-0.000000,-0.000000
0.620000,-0.260000,0.174191,0.040000,-1001.733798,1955.800000,1940.710036,-1941.198264,-1966.439066,0.000000,-0.000000,-0.000000,2762.751969,-2763.240197,6.185225,0.000000,-0.000000,0.000000
0.660000,-0.260000,0.210016,0.040000,-934.755832,2211.800000,1820.538524,-1820.369814,-1691.249849,0.000000,-0.000000,-0.000000,2484.909638,-2484.740928,4.769329,0.000000,-0.000000,0.000000
0.700000,-0.260000,0.247125,0.040000,-870.681052,2483.800000,1697.578806,-1696.616166,-1460.442694,0.000000,-0.000000,-0.000000,2239.461088,-2238.498449,1.528857,0.000000,-0.000000,0.000000
0.740000,-0.260000,0.285018,0.040000,-809.320457,2771.800000,1584.284182,-1586.599899,-1270.253284,0.000000,-0.000000,-0.000000,2030.385775,-2032.701492,0.579520,0.000000,-0.000000,0.000000
0.780000,-0.260000,0.323418,0.040000,-750.493846,3075.800000,1477.487466,-1477.065047,-1107.623468,0.000000,-0.000000,-0.000000,1846.606296,-1846.183876,0.266979,0.000000,-0.000000,0.000000
0.820000,-0.260000,0.361117,0.040000,-694.031854,3395.800000,1378.904061,-1378.481321,-971.742897,0.000000,-0.000000,-0.000000,1686.947195,-1686.524456,0.222243,0.000000,-0.000000,0.000000
0.860000,-0.260000,0.398969,0.040000,-639.776749,3731.800000,1287.645588,-1287.237351,-856.537901,0.000000,-0.000000,-0.000000,1546.542593,-1546.134357,0.186268,0.000000,-0.000000,0.000000
0.900000,-0.260000,0.437203,0.040000,-587.582497,4083.800000,1203.474017,-1203.088382,-758.348195,0.000000,-0.000000,-0.000000,1422.506990,-1422.121355,0.157135,0.000000,-0.000000,0.000000
0.940000,-0.260000,0.475727,0.040000,-537.314389,4451.800000,1126.005011,-1125.645870,-674.236036,0.000000,-0.000000,-0.000000,1312.458938,-1312.099796,0.133379,0.000000,-0.000000,0.000000
0.980000,-0.260000,0.514477,0.040000,-488.848434,4835.800000,1054.783054,-1054.451706,-601.832383,0.000000,-0.000000,-0.000000,1214.422658,-1214.091310,0.113877,0.000000,-0.000000,0.000000
1.020000,-0.260000,0.553405,0.040000,-442.070636,5235.800000,989.327804,-989.023990,-539.217283,0.000000,-0.000000,-0.000000,1126.750426,-1126.446612,0.097765,0.000000,-0.000000,0.000000
1.060000,-0.260000,0.592475,0.040000,-396.876225,5651.800000,929.162028,-928.884588,-484.826843,0.000000,-0.000000,-0.000000,1048.061125,-1047.783686,0.084370,0.000000,-0.000000,0.000000
1.100000,-0.260000,0.631200,0.040000,-353.168895,6083.800000,873.827790,-873.575082,-437.380725,0.000000,-0.000000,-0.000000,977.191394,-976.938686,0.073169,0.000000,-0.000000,0.000000
1.140000,-0.260000,0.669950,0.040000,-310.860074,6531.800000,822.895176,-822.665337,-395.825468,0.000000,-0.000000,-0.000000,913.156620,-912.926781,0.063750,0.000000,-0.000000,0.000000
1.180000,-0.260000,0.708838,0.040000,-269.868235,6995.800000,775.966342,-775.757452,-359.290014,0.000000,-0.000000,-0.000000,855.119646,-854.910756,0.055787,0.000000,-0.000000,0.000000
1.220000,-0.260000,0.747844,0.040000,-230.118259,7475.800000,732.233147,-731.142827,-326.710721,0.000000,-0.000000,-0.000000,801.861081,-800.770761,-0.004970,0.000000,-0.000000,-0.000000
1.260000,-0.260000,0.786950,0.040000,-191.540856,7971.800000,692.051565,-691.414230,-298.491970,0.000000,-0.000000,-0.000000,753.705535,-753.068200,-0.292653,0.000000,-0.000000,-0.000000
1.300000,-0.260000,0.826141,0.040000,-154.072025,8483.800000,655.336177,-654.465461,-273.519278,0.000000,-0.000000,-0.000000,710.158914,-709.288197,-0.594403,0.000000,-0.000000,-0.000000
-1.300000,-0.220000,0.818909,0.040000,-161.003572,8474.200000,677.796892,-677.049172,236.594091,0.000000,-0.000000,0.000000,717.924176,-717.176456,0.521678,0.000000,-0.000000,0.000000
-1.260000,-0.220000,0.779535,0.040000,-198.916821,7962.200000,717.198331,-717.000701,259.237591,0.000000,-0.000000,0.000000,762.617700,-762.420070,0.891521,0.000000,-0.000000,0.000000
-1.220000,-0.220000,0.740229,0.040000,-237.979774,7466.200000,761.256014,-760.070776,283.643353,0.000000,-0.000000,0.000000,812.419168,-811.233930,0.079592,0.000000,-0.000000,0.000000
-1.180000,-0.220000,0.701001,0.040000,-278.261708,6986.200000,808.774284,-808.528545,312.438577,0.000000,-0.000000,0.000000,867.034037,-866.788299,0.045554,0.000000,-0.000000,0.000000
-1.140000,-0.220000,0.661866,0.040000,-319.838054,6522.200000,860.178912,-859.904700,344.842488,0.000000,-0.000000,0.000000,926.737476,-926.463264,0.051892,0.000000,-0.000000,0.000000
-1.100000,-0.220000,0.622841,0.040000,-362.791104,6074.200000,916.363235,-916.056819,381.818481,0.000000,-0.000000,0.000000,992.738803,-992.432386,0.059356,0.000000,-0.000000,0.000000
-1.060000,-0.220000,0.583519,0.040000,-407.210801,5642.200000,977.888573,-977.545781,424.188255,0.000000,-0.000000,0.000000,1065.941797,-1065.599005,0.068192,0.000000,-0.000000,0.000000
-1.020000,-0.220000,0.544179,0.040000,-453.195642,5226.200000,1045.388801,-1045.005030,472.953702,0.000000,-0.000000,0.000000,1147.415399,-1147.031628,0.078708,0.000000,-0.000000,0.000000
-0.980000,-0.220000,0.504943,0.040000,-500.853690,4826.200000,1119.577767,-1119.148040,529.343624,0.000000,-0.000000,0.000000,1238.430504,-1238.000777,0.091298,0.000000,-0.000000,0.000000
-0.940000,-0.220000,0.465836,0.040000,-550.303715,4442.200000,1201.255611,-1200.774721,594.874403,0.000000,-0.000000,0.000000,1340.506453,-1340.025563,0.106468,0.000000,-0.000000,0.000000
-0.900000,-0.220000,0.426895,0.040000,-601.676481,4074.200000,1291.312438,-1290.775241,671.429296,0.000000,-0.000000,0.000000,1455.470124,-1454.932927,0.124874,0.000000,-0.000000,0.000000
-0.860000,-0.220000,0.388169,0.040000,-655.116165,3722.200000,1390.726637,-1390.128601,761.362760,0.000000,-0.000000,0.000000,1585.531554,-1584.933519,0.147371,0.000000,-0.000000,0.000000
-0.820000,-0.220000,0.349730,0.040000,-710.781920,3386.200000,1500.553307,-1499.891486,867.638545,0.000000,-0.000000,0.000000,1733.381358,-1732.719537,0.175099,0.000000,-0.000000,0.000000
-0.780000,-0.220000,0.311685,0.040000,-768.849567,3066.200000,1621.895141,-1621.169853,994.013586,0.000000,-0.000000,0.000000,1902.317061,-1901.591773,0.209585,0.000000,-0.000000,0.000000
-0.740000,-0.220000,0.273007,0.040000,-829.513348,2762.200000,1757.405240,-1760.684597,1147.075979,0.000000,-0.000000,0.000000,2098.365627,-2101.644984,-0.209223,0.000000,-0.000000,-0.000000
-0.700000,-0.220000,0.234298,0.040000,-892.987663,2474.200000,1904.366742,-1902.700812,1328.534333,0.000000,-0.000000,0.000000,2322.135140,-2320.469209,0.728749,0.000000,-0.000000,0.000000
-0.660000,-0.220000,0.196108,0.040000,-959.508605,2202.200000,2070.953065,-2072.474436,1549.099625,0.000000,-0.000000,0.000000,2586.070090,-2587.591461,-3.748550,0.000000,-0.000000,-0.000000
0.660000,-0.220000,0.197251,0.040000,-959.032892,2202.200000,2069.441650,-2070.962773,-1546.929914,0.000000,-0.000000,-0.000000,2583.559156,-2585.080279,4.577396,0.000000,-0.000000,0.000000
0.700000,-0.220000,0.234687,0.040000,-892.548072,2474.200000,1902.991105,-1901.329231,-1326.751044,0.000000,-0.000000,-0.000000,2319.986308,-2318.324434,-0.051875,0.000000,-0.000000,-0.000000
0.740000,-0.220000,0.272485,0.040000,-829.107679,2762.200000,1756.152828,-1759.427656,-1145.600545,0.000000,-0.000000,-0.000000,2096.510952,-2099.785781,0.759582,0.000000,-0.000000,0.000000
0.780000,-0.220000,0.310835,0.040000,-768.475819,3066.200000,1620.761290,-1620.036551,-992.787190,0.000000,-0.000000,-0.000000,1900.709445,-1899.984706,0.243732,0.000000,-0.000000,0.000000
0.820000,-0.220000,0.349555,0.040000,-710.438278,3386.200000,1499.526821,-1498.865573,-866.610408,0.000000,-0.000000,-0.000000,1731.978047,-1731.316799,0.201295,0.000000,-0.000000,0.000000
0.860000,-0.220000,0.388534,0.040000,-654.800985,3722.200000,1389.797637,-1389.200159,-760.495286,0.000000,-0.000000,-0.000000,1584.300077,-1583.702600,0.167565,0.000000,-0.000000,0.000000
0.900000,-0.220000,0.427702,0.040000,-601.388276,4074.200000,1290.471264,-1289.934590,-670.692925,0.000000,-0.000000,-0.000000,1454.384073,-1453.847398,0.140526,0.000000,-0.000000,0.000000
0.940000,-0.220000,0.466296,0.040000,-550.041139,4442.200000,1200.493191,-1200.012779,-594.245730,0.000000,-0.000000,-0.000000,1339.544205,-1339.063792,0.118670,0.000000,-0.000000,0.000000
0.980000,-0.220000,0.505026,0.040000,-500.615521,4826.200000,1118.885781,-1118.456486,-528.803989,0.000000,-0.000000,-0.000000,1237.574237,-1237.144942,0.100867,0.000000,-0.000000,0.000000
1.020000,-0.220000,0.543940,0.040000,-452.980774,5226.200000,1044.759736,-1044.376351,-472.488126,0.000000,-0.000000,-0.000000,1146.650335,-1146.266950,0.086257,0.000000,-0.000000,0.000000
1.060000,-0.220000,0.583000,0.040000,-407.018226,5642.200000,977.315703,-976.973254,-423.784637,0.000000,-0.000000,-0.000000,1065.255608,-1064.913160,0.074184,0.000000,-0.000000,0.000000
1.100000,-0.220000,0.622181,0.040000,-362.619904,6074.200000,915.840578,-915.534465,-381.466982,0.000000,-0.000000,-0.000000,992.121146,-991.815034,0.064140,0.000000,-0.000000,0.000000
1.140000,-0.220000,0.661459,0.040000,-319.687393,6522.200000,859.701163,-859.427219,-344.535062,0.000000,-0.000000,-0.000000,926.179630,-925.905687,0.055733,0.000000,-0.000000,0.000000
1.180000,-0.220000,0.700819,0.040000,-278.130821,6986.200000,808.336750,-808.091250,-312.168607,0.000000,-0.000000,-0.000000,866.528606,-866.283105,0.048654,0.000000,-0.000000,0.000000
1.220000,-0.220000,0.740247,0.040000,-237.867962,7466.200000,760.854845,-759.670540,-283.405670,0.000000,-0.000000,-0.000000,811.960217,-810.775912,0.003155,0.000000,-0.000000,0.000000
1.260000,-0.220000,0.779734,0.040000,-198.823440,7962.200000,716.830199,-716.632696,-259.026584,0.000000,-0.000000,-0.000000,762.199841,-762.002338,-0.817729,0.000000,-0.000000,-0.000000
1.300000,-0.220000,0.819270,0.040000,-160.928032,8474.200000,677.457632,-676.710412,-236.407004,0.000000,-0.000000,-0.000000,717.542234,-716.795014,-0.456556,0.000000,-0.000000,-0.000000
-1.300000,-0.180000,0.812984,0.040000,-166.778077,8466.200000,697.450688,-696.456857,197.154891,0.000000,-0.000000,0.000000,724.799669,-723.805838,0.365526,0.000000,-0.000000,0.000000
-1.260000,-0.180000,0.773309,0.040000,-205.054594,7954.200000,739.774354,-738.986596,216.071746,0.000000,-0.000000,0.000000,770.699224,-769.911465,0.402343,0.000000,-0.000000,0.000000
-1.220000,-0.180000,0.733669,0.040000,-244.515874,7458.200000,785.999639,-784.722521,236.979015,0.000000,-0.000000,0.000000,820.974511,-819.697393,0.072895,0.000000,-0.000000,0.000000
-1.180000,-0.180000,0.694071,0.040000,-285.235809,6978.200000,836.907431,-836.628325,261.406687,0.000000,-0.000000,0.000000,876.788819,-876.509713,0.037970,0.000000,-0.000000,0.000000
-1.140000,-0.180000,0.654521,0.040000,-327.295221,6514.200000,892.258738,-891.944074,288.964712,0.000000,-0.000000,0.000000,937.891581,-937.576917,0.043292,0.000000,-0.000000,0.000000
-1.100000,-0.180000,0.615030,0.040000,-370.782727,6066.200000,953.097366,-952.741625,320.497368,0.000000,-0.000000,0.000000,1005.550501,-1005.194759,0.049566,0.000000,-0.000000,0.000000
-1.060000,-0.180000,0.575609,0.040000,-415.795729,5634.200000,1020.140129,-1019.736825,356.739748,0.000000,-0.000000,0.000000,1080.728256,-1080.324952,0.056998,0.000000,-0.000000,0.000000
-1.020000,-0.180000,0.536273,0.040000,-462.441570,5218.200000,1094.217043,-1093.758557,398.594212,0.000000,-0.000000,0.000000,1164.568819,-1164.110333,0.065852,0.000000,-0.000000,0.000000
-0.980000,-0.180000,0.497044,0.040000,-510.838857,4818.200000,1176.291072,-1175.768468,447.175874,0.000000,-0.000000,0.000000,1258.439460,-1257.916855,0.076459,0.000000,-0.000000,0.000000
-0.940000,-0.180000,0.457948,0.040000,-561.119005,4434.200000,1267.481055,-1266.883889,503.872530,0.000000,-0.000000,0.000000,1363.984374,-1363.387208,0.089245,0.000000,-0.000000,0.000000
-0.900000,-0.180000,0.419023,0.040000,-613.428032,4066.200000,1369.087885,-1368.404035,570.424308,0.000000,-0.000000,0.000000,1483.193699,-1482.509849,0.104761,0.000000,-0.000000,0.000000
-0.860000,-0.180000,0.379633,0.040000,-667.928642,3714.200000,1482.623575,-1481.839129,649.030459,0.000000,-0.000000,0.000000,1618.493055,-1617.708609,0.123723,0.000000,-0.000000,0.000000
-0.820000,-0.180000,0.340232,0.040000,-724.802643,3378.200000,1609.841979,-1608.941290,742.493858,0.000000,-0.000000,0.000000,1772.860721,-1771.960032,0.147075,0.000000,-0.000000,0.000000
-0.780000,-0.180000,0.300988,0.040000,-784.253763,3058.200000,1752.768279,-1751.734338,854.418398,0.000000,-0.000000,0.000000,1949.982388,-1948.948447,0.176077,0.000000,-0.000000,0.000000
-0.740000,-0.180000,0.261973,0.040000,-846.510887,2754.200000,1915.387479,-1918.223903,991.571038,0.000000,-0.000000,0.000000,2156.672851,-2159.509275,0.379936,0.000000,-0.000000,0.000000
-0.700000,-0.180000,0.223306,0.040000,-911.831766,2466.200000,2098.180180,-2099.105541,1153.428205,0.000000,-0.000000,0.000000,2394.259526,-2395.184887,-2.008527,0.000000,-0.000000,-0.000000
-0.660000,-0.180000,0.185207,0.040000,-980.507204,2194.200000,2306.119844,-2308.445038,1355.517312,0.000000,-0.000000,0.000000,2674.835680,-2677.160874,-3.559248,0.000000,-0.000000,-0.000000
0.660000,-0.180000,0.184636,0.040000,-980.010769,2194.200000,2304.173737,-2306.497228,-1353.528845,0.000000,-0.000000,-0.000000,2672.149622,-2674.473113,4.283932,0.000000,-0.000000,0.000000
0.700000,-0.180000,0.223743,0.040000,-911.374475,2466.200000,2096.461380,-2097.386080,-1151.815922,0.000000,-0.000000,-0.000000,2391.976224,-2392.900925,2.591528,0.000000,-0.000000,0.000000
0.740000,-0.180000,0.263118,0.040000,-846.089994,2754.200000,1913.866409,-1916.699903,-990.246616,0.000000,-0.000000,-0.000000,2154.713565,-2157.547058,0.097200,0.000000,-0.000000,0.000000
0.780000,-0.180000,0.301414,0.040000,-783.866835,3058.200000,1751.420533,-1750.387855,-853.328213,0.000000,-0.000000,-0.000000,1948.293146,-1947.260468,0.213557,0.000000,-0.000000,0.000000
0.820000,-0.180000,0.340103,0.040000,-724.447521,3378.200000,1608.643799,-1607.744218,-741.586751,0.000000,-0.000000,-0.000000,1771.392717,-1770.493136,0.175015,0.000000,-0.000000,0.000000
0.860000,-0.180000,0.379063,0.040000,-667.603408,3714.200000,1481.555666,-1480.772182,-648.270098,0.000000,-0.000000,-0.000000,1617.209812,-1616.426328,0.144737,0.000000,-0.000000,0.000000
0.900000,-0.180000,0.418220,0.040000,-613.130976,4066.200000,1368.133486,-1367.450465,-569.782558,0.000000,-0.000000,-0.000000,1482.065856,-1481.382836,0.120706,0.000000,-0.000000,0.000000
0.940000,-0.180000,0.457523,0.040000,-560.848598,4434.200000,1266.625688,-1266.029236,-503.327405,0.000000,-0.000000,-0.000000,1362.988105,-1362.391654,0.101448,0.000000,-0.000000,0.000000
0.980000,-0.180000,0.496937,0.040000,-510.593730,4818.200000,1175.522275,-1175.000284,-446.710047,0.000000,-0.000000,-0.000000,1257.555286,-1257.033296,0.085874,0.000000,-0.000000,0.000000
1.020000,-0.180000,0.536438,0.040000,-462.220492,5218.200000,1093.524097,-1093.066140,-398.193915,0.000000,-0.000000,-0.000000,1163.780699,-1163.322741,0.073174,0.000000,-0.000000,0.000000
1.060000,-0.180000,0.576007,0.040000,-415.597590,5634.200000,1019.513814,-1019.110965,-356.393956,0.000000,-0.000000,-0.000000,1080.022889,-1079.620040,0.062736,0.000000,-0.000000,0.000000
1.100000,-0.180000,0.615633,0.040000,-370.606523,6066.200000,952.529740,-952.174392,-320.197189,0.000000,-0.000000,-0.000000,1004.916792,-1004.561444,0.054095,0.000000,-0.000000,0.000000
1.140000,-0.180000,0.655131,0.040000,-327.140046,6514.200000,891.742951,-891.428627,-288.702926,0.000000,-0.000000,-0.000000,937.320220,-937.005896,0.046892,0.000000,-0.000000,0.000000
1.180000,-0.180000,0.694487,0.040000,-285.100835,6978.200000,836.437559,-836.158747,-261.177392,0.000000,-0.000000,-0.000000,876.271947,-875.993135,0.040850,0.000000,-0.000000,0.000000
1.220000,-0.180000,0.733913,0.040000,-244.400350,7458.200000,785.570882,-784.294829,-236.777622,0.000000,-0.000000,-0.000000,820.505839,-819.229786,-0.003753,0.000000,-0.000000,-0.000000
1.260000,-0.180000,0.773397,0.040000,-204.957832,7954.200000,739.381964,-738.594852,-215.893535,0.000000,-0.000000,-0.000000,770.272617,-769.485506,-0.341040,0.000000,-0.000000,-0.000000
1.300000,-0.180000,0.812933,0.040000,-166.699449,8466.200000,697.090760,-696.097703,-196.997038,0.000000,-0.000000,-0.000000,724.410376,-723.417320,-0.311304,0.000000,-0.000000,-0.000000
-1.300000,-0.140000,0.808223,0.040000,-171.436446,8459.800000,713.396071,-712.351534,155.648890,0.000000,-0.000000,0.000000,730.190376,-729.145839,0.298223,0.000000,-0.000000,0.000000
-1.260000,-0.140000,0.768548,0.040000,-210.008629,7947.800000,757.790640,-756.957089,170.745294,0.000000,-0.000000,0.000000,776.798781,-775.965230,0.327975,0.000000,-0.000000,0.000000
-1.220000,-0.140000,0.728909,0.040000,-249.794471,7451.800000,806.430694,-805.076095,187.458212,0.000000,-0.000000,0.000000,827.949389,-826.594790,0.061845,0.000000,-0.000000,0.000000
-1.180000,-0.140000,0.689312,0.040000,-290.871730,6971.800000,860.187338,-859.879545,207.020227,0.000000,-0.000000,0.000000,884.752616,-884.444822,0.029971,0.000000,-0.000000,0.000000
-1.140000,-0.140000,0.649560,0.040000,-333.325756,6507.800000,918.867232,-918.517612,229.134165,0.000000,-0.000000,0.000000,947.010715,-946.661095,0.034195,0.000000,-0.000000,0.000000
-1.100000,-0.140000,0.609748,0.040000,-377.250503,6059.800000,983.646146,-983.247538,254.494119,0.000000,-0.000000,0.000000,1016.041293,-1015.642684,0.039177,0.000000,-0.000000,0.000000
-1.060000,-0.140000,0.569962,0.040000,-422.749691,5627.800000,1055.379605,-1054.923376,283.714221,0.000000,-0.000000,0.000000,1092.857249,-1092.401020,0.045082,0.000000,-0.000000,0.000000
-1.020000,-0.140000,0.530208,0.040000,-469.938181,5211.800000,1135.074059,-1134.549761,317.552435,0.000000,-0.000000,0.000000,1178.666841,-1178.142543,0.052118,0.000000,-0.000000,0.000000
-0.980000,-0.140000,0.490493,0.040000,-518.943588,4811.800000,1223.918680,-1223.313612,356.951113,0.000000,-0.000000,0.000000,1274.920346,-1274.315278,0.060547,0.000000,-0.000000,0.000000
-0.940000,-0.140000,0.450830,0.040000,-569.908187,4427.800000,1323.324785,-1322.623446,403.091029,0.000000,-0.000000,0.000000,1383.370149,-1382.668811,0.070706,0.000000,-0.000000,0.000000
-0.900000,-0.140000,0.411232,0.040000,-622.991175,4059.800000,1434.974802,-1434.158211,457.464115,0.000000,-0.000000,0.000000,1506.148801,-1505.332211,0.083024,0.000000,-0.000000,0.000000
-0.860000,-0.140000,0.371719,0.040000,-678.371367,3707.800000,1560.883194,-1559.928040,521.972383,0.000000,-0.000000,0.000000,1645.871404,-1644.916251,0.098054,0.000000,-0.000000,0.000000
-0.820000,-0.140000,0.332324,0.040000,-736.250427,3371.800000,1703.472155,-1702.349763,599.064012,0.000000,-0.000000,0.000000,1805.771270,-1804.648878,0.116518,0.000000,-0.000000,0.000000
-0.780000,-0.140000,0.293092,0.040000,-796.856754,3051.800000,1865.665333,-1864.340429,691.922803,0.000000,-0.000000,0.000000,1989.881619,-1988.556715,0.139358,0.000000,-0.000000,0.000000
-0.740000,-0.140000,0.254100,0.040000,-860.450166,2747.800000,2052.953966,-2056.087368,806.500779,0.000000,-0.000000,0.000000,2205.580467,-2208.713869,0.239297,0.000000,-0.000000,0.000000
-0.700000,-0.140000,0.215477,0.040000,-927.327576,2459.800000,2266.510086,-2268.641600,941.802105,0.000000,-0.000000,0.000000,2454.312753,-2456.444268,-2.788766,0.000000,-0.000000,-0.000000
-0.660000,-0.140000,0.175921,0.040000,-997.829883,2187.800000,2510.747114,-2516.283687,1113.529537,0.000000,-0.000000,0.000000,2746.358833,-2751.895406,-2.788573,0.000000,-0.000000,-0.000000
0.660000,-0.140000,0.175180,0.040000,-997.315822,2187.800000,2508.397806,-2513.928763,-1111.831759,0.000000,-0.000000,-0.000000,2743.522825,-2749.053781,3.385244,0.000000,-0.000000,0.000000
0.700000,-0.140000,0.214260,0.040000,-926.855325,2459.800000,2264.477569,-2266.606708,-940.440598,0.000000,-0.000000,-0.000000,2451.913019,-2454.042158,3.263347,0.000000,-0.000000,0.000000
0.740000,-0.140000,0.253626,0.040000,-860.016475,2747.800000,2051.188190,-2054.318134,-805.390445,0.000000,-0.000000,-0.000000,2203.531237,-2206.661181,0.148625,0.000000,-0.000000,0.000000
0.780000,-0.140000,0.293165,0.040000,-796.458799,3051.800000,1864.125663,-1862.802739,-691.015549,0.000000,-0.000000,-0.000000,1988.122477,-1986.799553,0.176157,0.000000,-0.000000,0.000000
0.820000,-0.140000,0.332813,0.040000,-735.885740,3371.800000,1702.121547,-1701.000787,-598.313805,0.000000,-0.000000,-0.000000,1804.248211,-1803.127452,0.143342,0.000000,-0.000000,0.000000
0.860000,-0.140000,0.372537,0.040000,-678.037785,3707.800000,1559.693098,-1558.739296,-521.346935,0.000000,-0.000000,-0.000000,1644.544346,-1643.590543,0.117843,0.000000,-0.000000,0.000000
0.900000,-0.140000,0.411897,0.040000,-622.686792,4059.800000,1433.921606,-1433.106137,-456.938727,0.000000,-0.000000,-0.000000,1504.985752,-1504.170283,0.097790,0.000000,-0.000000,0.000000
0.940000,-0.140000,0.451193,0.040000,-569.631316,4427.800000,1322.388888,-1321.688485,-402.646600,0.000000,-0.000000,-0.000000,1382.345342,-1381.644938,0.081842,0.000000,-0.000000,0.000000
0.980000,-0.140000,0.490602,0.040000,-518.692730,4811.800000,1223.083748,-1222.479462,-356.572729,0.000000,-0.000000,-0.000000,1274.012848,-1273.408562,0.069030,0.000000,-0.000000,0.000000
1.020000,-0.140000,0.530100,0.040000,-469.711999,5211.800000,1134.326416,-1133.802776,-317.228341,0.000000,-0.000000,-0.000000,1177.859512,-1177.335872,0.058640,0.000000,-0.000000,0.000000
1.060000,-0.140000,0.569668,0.040000,-422.546988,5627.800000,1054.707754,-1054.252081,-283.435070,0.000000,-0.000000,-0.000000,1092.135952,-1091.680279,0.050142,0.000000,-0.000000,0.000000
1.100000,-0.140000,0.609293,0.040000,-377.070203,6059.800000,983.040377,-982.642240,-254.252423,0.000000,-0.000000,-0.000000,1015.394286,-1014.996149,0.043135,0.000000,-0.000000,0.000000
1.140000,-0.140000,0.648963,0.040000,-333.166889,6507.800000,918.319308,-917.970090,-228.923876,0.000000,-0.000000,-0.000000,946.428184,-946.078966,0.037316,0.000000,-0.000000,0.000000
1.180000,-0.140000,0.688672,0.040000,-290.733419,6971.800000,859.690242,-859.382793,-206.836427,0.000000,-0.000000,-0.000000,884.226307,-883.918858,0.032450,0.000000,-0.000000,0.000000
1.220000,-0.140000,0.728413,0.040000,-249.675920,7451.800000,805.978787,-804.625367,-187.297090,0.000000,-0.000000,-0.000000,827.472716,-826.119296,-0.007146,0.000000,-0.000000,-0.000000
1.260000,-0.140000,0.768180,0.040000,-209.909114,7947.800000,757.378450,-756.545612,-170.602962,0.000000,-0.000000,-0.000000,776.365392,-775.532554,-0.279517,0.000000,-0.000000,-0.000000
1.300000,-0.140000,0.807970,0.040000,-171.355306,8459.800000,713.019132,-711.975439,-155.523017,0.000000,-0.000000,-0.000000,729.795269,-728.751577,-0.255402,0.000000,-0.000000,-0.000000
-1.300000,-0.100000,0.804239,0.040000,-174.953175,8455.000000,725.619234,-724.535301,112.437751,0.000000,-0.000000,0.000000,734.285275,-733.201342,0.220784,0.000000,-0.000000,0.000000
-1.260000,-0.100000,0.764357,0.040000,-213.750124,7943.000000,771.620658,-770.751380,123.432147,0.000000,-0.000000,0.000000,781.436119,-780.566841,0.242663,0.000000,-0.000000,0.000000
-1.220000,-0.100000,0.724489,0.040000,-253.782915,7447.000000,822.138476,-820.723323,135.619366,0.000000,-0.000000,0.000000,833.258676,-831.843522,0.047071,0.000000,-0.000000,0.000000
-1.180000,-0.100000,0.684636,0.040000,-295.132310,6967.000000,878.115835,-877.785285,149.903563,0.000000,-0.000000,0.000000,890.821361,-890.490811,0.021644,0.000000,-0.000000,0.000000
-1.140000,-0.100000,0.644801,0.040000,-337.887194,6503.000000,939.397438,-939.019977,166.076257,0.000000,-0.000000,0.000000,953.967698,-953.590237,0.024707,0.000000,-0.000000,0.000000
-1.100000,-0.100000,0.604988,0.040000,-382.145689,6055.000000,1007.265368,-1006.832467,184.654426,0.000000,-0.000000,0.000000,1024.054708,-1023.621808,0.028319,0.000000,-0.000000,0.000000
-1.060000,-0.100000,0.565201,0.040000,-428.016467,5623.000000,1082.688330,-1082.189554,206.100945,0.000000,-0.000000,0.000000,1102.134891,-1101.636115,0.032601,0.000000,-0.000000,0.000000
-1.020000,-0.100000,0.525447,0.040000,-475.620308,5207.000000,1166.817667,-1166.240168,230.989425,0.000000,-0.000000,0.000000,1189.467385,-1188.889887,0.037704,0.000000,-0.000000,0.000000
-0.980000,-0.100000,0.485733,0.040000,-525.091936,4807.000000,1261.029663,-1260.357517,260.036261,0.000000,-0.000000,0.000000,1287.568446,-1286.896301,0.043816,0.000000,-0.000000,0.000000
-0.940000,-0.100000,0.446070,0.040000,-576.582237,4423.000000,1366.979530,-1366.192860,294.143699,0.000000,-0.000000,0.000000,1398.276858,-1397.490187,0.051176,0.000000,-0.000000,0.000000
-0.900000,-0.100000,0.406473,0.040000,-630.260904,4055.000000,1486.670800,-1485.744608,334.458323,0.000000,-0.000000,0.000000,1523.839512,-1522.913321,0.060088,0.000000,-0.000000,0.000000
-0.860000,-0.100000,0.366964,0.040000,-686.319656,3703.000000,1622.545224,-1621.447834,382.451451,0.000000,-0.000000,0.000000,1667.024571,-1665.927181,0.070939,0.000000,-0.000000,0.000000
-0.820000,-0.100000,0.327368,0.040000,-744.976155,3367.000000,1777.600185,-1776.291127,440.031040,0.000000,-0.000000,0.000000,1831.272778,-1829.963720,0.084223,0.000000,-0.000000,0.000000
-0.780000,-0.100000,0.287461,0.040000,-806.478811,3047.000000,1955.543260,-1953.970404,509.699626,0.000000,-0.000000,0.000000,2020.902260,-2019.329403,0.100567,0.000000,-0.000000,0.000000
-0.740000,-0.100000,0.247583,0.040000,-871.112736,2743.000000,2163.185820,-2166.554330,596.123846,0.000000,-0.000000,0.000000,2243.761371,-2247.129882,0.135238,0.000000,-0.000000,0.000000
-0.700000,-0.100000,0.207753,0.040000,-939.207164,2455.000000,2402.869833,-2405.158433,698.783903,0.000000,-0.000000,0.000000,2502.368761,-2504.657361,-2.291411,0.000000,-0.000000,-0.000000
-0.660000,-0.100000,0.168003,0.040000,-1011.144781,2183.000000,2681.752342,-2687.290133,830.369395,0.000000,-0.000000,0.000000,2807.242323,-2812.780114,-2.135522,0.000000,-0.000000,-0.000000
0.660000,-0.100000,0.168884,0.040000,-1010.616835,2183.000000,2679.056787,-2684.586901,-829.067096,0.000000,-0.000000,-0.000000,2804.282146,-2809.812260,2.579730,0.000000,-0.000000,0.000000
0.700000,-0.100000,0.207936,0.040000,-938.723190,2455.000000,2400.573378,-2402.859333,-697.747547,0.000000,-0.000000,-0.000000,2499.874037,-2502.159992,2.642934,0.000000,-0.000000,0.000000
0.740000,-0.100000,0.247292,0.040000,-870.669061,2743.000000,2161.217172,-2164.581804,-595.284052,0.000000,-0.000000,-0.000000,2241.640504,-2245.005136,0.151395,0.000000,-0.000000,0.000000
0.780000,-0.100000,0.286826,0.040000,-806.072284,3047.000000,1953.846052,-1952.275815,-509.017334,0.000000,-0.000000,-0.000000,2019.087782,-2017.517544,0.131845,0.000000,-0.000000,0.000000
0.820000,-0.100000,0.326473,0.040000,-744.604058,3367.000000,1776.125510,-1774.818546,-439.469562,0.000000,-0.000000,-0.000000,1829.706353,-1828.399389,0.106646,0.000000,-0.000000,0.000000
0.860000,-0.100000,0.366197,0.040000,-685.979626,3703.000000,1621.256400,-1620.160698,-381.985295,0.000000,-0.000000,-0.000000,1665.663150,-1664.567448,0.087246,0.000000,-0.000000,0.000000
0.900000,-0.100000,0.405975,0.040000,-629.950875,4055.000000,1485.538284,-1484.613463,-334.068165,0.000000,-0.000000,-0.000000,1522.648958,-1521.724137,0.072104,0.000000,-0.000000,0.000000
0.940000,-0.100000,0.445793,0.040000,-576.300396,4423.000000,1365.979342,-1365.193792,-293.814713,0.000000,-0.000000,-0.000000,1397.229828,-1396.444279,0.060140,0.000000,-0.000000,0.000000
0.980000,-0.100000,0.485641,0.040000,-524.836681,4807.000000,1260.142190,-1259.470967,-259.756953,0.000000,-0.000000,-0.000000,1286.642840,-1285.971618,0.050579,0.000000,-0.000000,0.000000
1.020000,-0.100000,0.525512,0.040000,-475.390217,5207.000000,1166.026759,-1165.450026,-230.750787,0.000000,-0.000000,-0.000000,1188.645184,-1188.068451,0.042861,0.000000,-0.000000,0.000000
1.060000,-0.100000,0.565402,0.040000,-427.810274,5623.000000,1081.980601,-1081.482464,-205.895858,0.000000,-0.000000,-0.000000,1101.401289,-1100.903152,0.036572,0.000000,-0.000000,0.000000
1.100000,-0.100000,0.605305,0.040000,-381.962260,6055.000000,1006.629650,-1006.197286,-184.477208,0.000000,-0.000000,-0.000000,1023.397450,-1022.965086,0.031404,0.000000,-0.000000,0.000000
1.140000,-0.100000,0.645221,0.040000,-337.725511,6503.000000,938.824360,-938.447352,-165.922343,0.000000,-0.000000,-0.000000,953.376572,-952.999564,0.027124,0.000000,-0.000000,0.000000
1.180000,-0.100000,0.685147,0.040000,-294.991456,6967.000000,877.597491,-877.267325,-149.769253,0.000000,-0.000000,-0.000000,890.287804,-889.957638,0.023554,0.000000,-0.000000,0.000000
1.220000,-0.100000,0.725081,0.040000,-253.662060,7447.000000,821.668547,-820.254664,-135.501801,0.000000,-0.000000,-0.000000,832.775867,-831.361984,-0.007495,0.000000,-0.000000,-0.000000
1.260000,-0.100000,0.764999,0.040000,-213.648515,7943.000000,771.193089,-770.324577,-123.328427,0.000000,-0.000000,-0.000000,780.997537,-780.129025,-0.207624,0.000000,-0.000000,-0.000000
1.300000,-0.100000,0.804790,0.040000,-174.870126,8455.000000,725.229110,-724.146077,-112.346135,0.000000,-0.000000,-0.000000,733.885724,-732.802691,-0.189843,0.000000,-0.000000,-0.000000
-1.300000,-0.060000,0.802232,0.040000,-177.308714,8451.800000,733.896788,-732.785918,67.973802,0.000000,-0.000000,0.000000,737.040302,-735.929432,0.135669,0.000000,-0.000000,0.000000
-1.260000,-0.060000,0.762245,0.040000,-216.256969,7939.800000,780.995856,-780.102076,74.656680,0.000000,-0.000000,0.000000,784.558034,-783.664254,0.149056,0.000000,-0.000000,0.000000
-1.220000,-0.060000,0.722260,0.040000,-256.456103,7443.800000,832.798394,-831.341661,82.070972,0.000000,-0.000000,0.000000,836.836119,-835.379386,0.029442,0.000000,-0.000000,0.000000
-1.180000,-0.060000,0.682277,0.040000,-297.988936,6963.800000,890.297774,-889.951432,90.768941,0.000000,-0.000000,0.000000,894.913809,-894.567467,0.013081,0.000000,-0.000000,0.000000
-1.140000,-0.060000,0.642296,0.040000,-340.946772,6499.800000,953.366002,-952.969166,100.627153,0.000000,-0.000000,0.000000,958.662954,-958.266118,0.014937,0.000000,-0.000000,0.000000
-1.100000,-0.060000,0.602317,0.040000,-385.430599,6051.800000,1023.359753,-1022.902912,111.964621,0.000000,-0.000000,0.000000,1029.467849,-1029.011007,0.017125,0.000000,-0.000000,0.000000
-1.060000,-0.060000,0.562341,0.040000,-431.552498,5619.800000,1101.327853,-1100.799268,125.069208,0.000000,-0.000000,0.000000,1108.408358,-1107.879773,0.019720,0.000000,-0.000000,0.000000
-1.020000,-0.060000,0.522369,0.040000,-479.437326,5203.800000,1188.524681,-1187.909761,140.298614,0.000000,-0.000000,0.000000,1196.778882,-1196.163963,0.022811,0.000000,-0.000000,0.000000
-0.980000,-0.060000,0.482402,0.040000,-529.224732,4803.800000,1286.460267,-1285.740730,158.100937,0.000000,-0.000000,0.000000,1296.141540,-1295.422003,0.026512,0.000000,-0.000000,0.000000
-0.940000,-0.060000,0.442441,0.040000,-581.071571,4419.800000,1396.965161,-1396.117899,179.042452,0.000000,-0.000000,0.000000,1408.395379,-1407.548117,0.030966,0.000000,-0.000000,0.000000
-0.900000,-0.060000,0.402487,0.040000,-635.154846,4051.800000,1522.275233,-1521.270773,203.845560,0.000000,-0.000000,0.000000,1535.867361,-1534.862901,0.036351,0.000000,-0.000000,0.000000
-0.860000,-0.060000,0.362544,0.040000,-691.675293,3699.800000,1665.143703,-1663.944076,233.441317,0.000000,-0.000000,0.000000,1681.433300,-1680.233672,0.042895,0.000000,-0.000000,0.000000
-0.820000,-0.060000,0.322614,0.040000,-750.861801,3363.800000,1828.990767,-1827.546531,269.043106,0.000000,-0.000000,0.000000,1848.680570,-1847.236334,0.050880,0.000000,-0.000000,0.000000
-0.780000,-0.060000,0.282705,0.040000,-812.976898,3043.800000,2018.105857,-2016.351883,312.251558,0.000000,-0.000000,0.000000,2042.129873,-2040.375899,0.060653,0.000000,-0.000000,0.000000
-0.740000,-0.060000,0.242825,0.040000,-878.323643,2739.800000,2240.283767,-2243.814981,366.047504,0.000000,-0.000000,0.000000,2269.968569,-2273.499783,0.065054,0.000000,-0.000000,0.000000
-0.700000,-0.060000,0.202993,0.040000,-947.254353,2451.800000,2498.772108,-2501.168614,430.208160,0.000000,-0.000000,0.000000,2535.517851,-2537.914357,-1.507823,0.000000,-0.000000,-0.000000
-0.660000,-0.060000,0.163243,0.040000,-1020.181797,2179.800000,2802.272532,-2808.259144,512.856098,0.000000,-0.000000,0.000000,2848.766814,-2854.753427,-1.418989,0.000000,-0.000000,-0.000000
0.660000,-0.060000,0.163947,0.040000,-1019.644258,2179.800000,2799.323662,-2805.301505,-512.036019,0.000000,-0.000000,-0.000000,2845.718476,-2851.696318,1.693070,0.000000,-0.000000,0.000000
0.700000,-0.060000,0.203947,0.040000,-946.762311,2451.800000,2496.284913,-2498.678592,-429.559038,0.000000,-0.000000,-0.000000,2532.956490,-2535.350169,1.723969,0.000000,-0.000000,0.000000
0.740000,-0.060000,0.243947,0.040000,-877.873120,2739.800000,2238.169737,-2241.696781,-365.523789,0.000000,-0.000000,-0.000000,2267.797809,-2271.324853,0.110908,0.000000,-0.000000,0.000000
0.780000,-0.060000,0.283645,0.040000,-812.564510,3043.800000,2016.296566,-2014.545693,-311.827718,0.000000,-0.000000,-0.000000,2040.277027,-2038.526155,0.081722,0.000000,-0.000000,0.000000
0.820000,-0.060000,0.323292,0.040000,-750.484647,3363.800000,1827.428362,-1825.986563,-268.695457,0.000000,-0.000000,-0.000000,1847.084190,-1845.642391,0.065818,0.000000,-0.000000,0.000000
0.860000,-0.060000,0.363016,0.040000,-691.330871,3699.800000,1663.785438,-1662.587745,-233.153504,0.000000,-0.000000,-0.000000,1680.048218,-1678.850526,0.053656,0.000000,-0.000000,0.000000
0.900000,-0.060000,0.402795,0.040000,-634.840980,4051.800000,1521.087184,-1520.084276,-203.605264,0.000000,-0.000000,-0.000000,1534.657920,-1533.655012,0.044216,0.000000,-0.000000,0.000000
0.940000,-0.060000,0.442614,0.040000,-580.786357,4419.800000,1395.920141,-1395.074135,-178.840269,0.000000,-0.000000,-0.000000,1407.333129,-1406.487123,0.036790,0.000000,-0.000000,0.000000
0.980000,-0.060000,0.482463,0.040000,-528.966496,4803.800000,1285.536288,-1284.817776,-157.929611,0.000000,-0.000000,-0.000000,1295.203557,-1294.485045,0.030879,0.000000,-0.000000,0.000000
1.020000,-0.060000,0.522335,0.040000,-479.204589,5203.800000,1187.703807,-1187.089731,-140.152482,0.000000,-0.000000,-0.000000,1195.946535,-1195.332458,0.026122,0.000000,-0.000000,0.000000
1.060000,-0.060000,0.562225,0.040000,-431.343945,5619.800000,1100.595344,-1100.067457,-124.943810,0.000000,-0.000000,-0.000000,1107.666375,-1107.138488,0.022256,0.000000,-0.000000,0.000000
1.100000,-0.060000,0.602130,0.040000,-385.245057,6051.800000,1022.703402,-1022.247143,-111.856409,0.000000,-0.000000,-0.000000,1028.803620,-1028.347360,0.019087,0.000000,-0.000000,0.000000
1.140000,-0.060000,0.642046,0.040000,-340.783190,6499.800000,952.775634,-952.379286,-100.533284,0.000000,-0.000000,-0.000000,958.065992,-957.669645,0.016468,0.000000,-0.000000,0.000000
1.180000,-0.060000,0.681972,0.040000,-297.846367,6963.800000,889.764853,-889.418924,-90.687116,0.000000,-0.000000,-0.000000,894.375336,-894.029406,0.014287,0.000000,-0.000000,0.000000
1.220000,-0.060000,0.721907,0.040000,-256.333696,7443.800000,832.316124,-830.860725,-81.999419,0.000000,-0.000000,-0.000000,836.349153,-834.893753,-0.005491,0.000000,-0.000000,-0.000000
1.260000,-0.060000,0.761848,0.040000,-216.153950,7939.800000,780.557774,-779.664797,-74.593609,0.000000,-0.000000,-0.000000,784.115940,-783.222962,-0.127860,0.000000,-0.000000,-0.000000
1.300000,-0.060000,0.801796,0.040000,-177.224381,8451.800000,733.497666,-732.387733,-67.918136,0.000000,-0.000000,-0.000000,736.637747,-735.527815,-0.116960,0.000000,-0.000000,-0.000000
-1.300000,-0.020000,0.800645,0.040000,-178.489824,8450.200000,738.074814,-736.950270,22.743853,0.000000,-0.000000,0.000000,738.425424,-737.300879,0.045765,0.000000,-0.000000,0.000000
-1.260000,-0.020000,0.760658,0.040000,-217.514176,7938.200000,785.730802,-784.824560,24.986030,0.000000,-0.000000,0.000000,786.128203,-785.221962,0.050272,0.000000,-0.000000,0.000000
-1.220000,-0.020000,0.720673,0.040000,-257.797002,7442.200000,838.185793,-836.707898,27.474678,0.000000,-0.000000,0.000000,838.636362,-837.158466,0.010018,0.000000,-0.000000,0.000000
-1.180000,-0.020000,0.680689,0.040000,-299.422165,6962.200000,896.458960,-896.104529,30.395541,0.000000,-0.000000,0.000000,896.974213,-896.619782,0.004376,0.000000,-0.000000,0.000000
-1.140000,-0.020000,0.640708,0.040000,-342.482203,6498.200000,960.436567,-960.029791,33.707766,0.000000,-0.000000,0.000000,961.028019,-960.621243,0.004998,0.000000,-0.000000,0.000000
-1.100000,-0.020000,0.600728,0.040000,-387.079559,6050.200000,1031.513748,-1031.044599,37.519197,0.000000,-0.000000,0.000000,1032.196019,-1031.726871,0.005731,0.000000,-0.000000,0.000000
-1.060000,-0.020000,0.560752,0.040000,-433.328051,5618.200000,1110.780852,-1110.236912,41.927524,0.000000,-0.000000,0.000000,1111.572062,-1111.028122,0.006600,0.000000,-0.000000,0.000000
-1.020000,-0.020000,0.520779,0.040000,-481.354623,5202.200000,1199.545812,-1198.911570,47.054305,0.000000,-0.000000,0.000000,1200.468595,-1199.834353,0.007635,0.000000,-0.000000,0.000000
-0.980000,-0.020000,0.480811,0.040000,-531.301434,4802.200000,1299.388377,-1298.644304,53.052049,0.000000,-0.000000,0.000000,1300.471253,-1299.727180,0.008874,0.000000,-0.000000,0.000000
-0.940000,-0.020000,0.440849,0.040000,-583.328401,4418.200000,1412.230815,-1411.352088,60.113814,0.000000,-0.000000,0.000000,1413.510053,-1412.631325,0.010364,0.000000,-0.000000,0.000000
-0.900000,-0.020000,0.400894,0.040000,-637.616278,4050.200000,1540.431003,-1539.385758,68.486364,0.000000,-0.000000,0.000000,1541.953193,-1540.907948,0.012165,0.000000,-0.000000,0.000000
-0.860000,-0.020000,0.360950,0.040000,-694.370439,3698.200000,1686.906440,-1685.653329,78.488430,0.000000,-0.000000,0.000000,1688.732086,-1687.478975,0.014350,0.000000,-0.000000,0.000000
-0.820000,-0.020000,0.321019,0.040000,-753.825562,3362.200000,1855.301447,-1853.786177,90.536432,0.000000,-0.000000,0.000000,1857.510067,-1855.994797,0.017011,0.000000,-0.000000,0.000000
-0.780000,-0.020000,0.281108,0.040000,-816.251481,3042.200000,2050.215673,-2048.366030,105.181263,0.000000,-0.000000,0.000000,2052.913148,-2051.063504,0.020259,0.000000,-0.000000,0.000000
-0.740000,-0.020000,0.241226,0.040000,-881.960571,2738.200000,2279.969464,-2283.583825,123.448271,0.000000,-0.000000,0.000000,2283.306412,-2286.920773,0.018805,0.000000,-0.000000,0.000000
-0.700000,-0.020000,0.201391,0.040000,-951.317180,2450.200000,2548.305131,-2550.756504,145.279425,0.000000,-0.000000,0.000000,2552.440937,-2554.892310,-0.526216,0.000000,-0.000000,-0.000000
-0.660000,-0.020000,0.161637,0.040000,-1024.749836,2178.200000,2864.767076,-2870.989069,173.472133,0.000000,-0.000000,0.000000,2870.008731,-2876.230725,-0.497497,0.000000,-0.000000,-0.000000
0.660000,-0.020000,0.160790,0.040000,-1024.207394,2178.200000,2861.684433,-2867.897082,-173.192021,0.000000,-0.000000,-0.000000,2866.914792,-2873.127441,0.590157,0.000000,-0.000000,0.000000
0.700000,-0.020000,0.200790,0.040000,-950.821025,2450.200000,2545.717801,-2548.166256,-145.058311,0.000000,-0.000000,-0.000000,2549.845205,-2552.293660,0.599159,0.000000,-0.000000,0.000000
0.740000,-0.020000,0.240790,0.040000,-881.506562,2738.200000,2277.779499,-2281.389541,-123.270270,0.000000,-0.000000,-0.000000,2281.110032,-2284.720075,0.040529,0.000000,-0.000000,0.000000
0.780000,-0.020000,0.280790,0.040000,-815.836115,3042.200000,2048.348097,-2046.501815,-105.037492,0.000000,-0.000000,-0.000000,2051.040656,-2049.194373,0.027699,0.000000,-0.000000,0.000000
0.820000,-0.020000,0.320790,0.040000,-753.445844,3362.200000,1853.693591,-1852.180942,-90.418701,0.000000,-0.000000,-0.000000,1855.898382,-1854.385733,0.022258,0.000000,-0.000000,0.000000
0.860000,-0.020000,0.360790,0.040000,-694.023793,3698.200000,1685.512313,-1684.261268,-78.391102,0.000000,-0.000000,-0.000000,1687.334940,-1686.083896,0.018112,0.000000,-0.000000,0.000000
0.900000,-0.020000,0.400790,0.040000,-637.300470,4050.200000,1539.214355,-1538.170758,-68.405206,0.000000,-0.000000,-0.000000,1540.734139,-1539.690542,0.014903,0.000000,-0.000000,0.000000
0.940000,-0.020000,0.440790,0.040000,-583.041483,4418.200000,1411.162764,-1410.285363,-60.045603,0.000000,-0.000000,-0.000000,1412.440066,-1411.562666,0.012385,0.000000,-0.000000,0.000000
0.980000,-0.020000,0.480790,0.040000,-531.041694,4802.200000,1298.445684,-1297.702689,-52.994304,0.000000,-0.000000,-0.000000,1299.526988,-1298.783993,0.010384,0.000000,-0.000000,0.000000
1.020000,-0.020000,0.520790,0.040000,-481.120551,5202.200000,1198.709607,-1198.076248,-47.005093,0.000000,-0.000000,-0.000000,1199.631103,-1198.997744,0.008776,0.000000,-0.000000,0.000000
1.060000,-0.020000,0.560790,0.040000,-433.118308,5618.200000,1110.035687,-1109.492475,-41.885326,0.000000,-0.000000,-0.000000,1110.825835,-1110.282623,0.007472,0.000000,-0.000000,0.000000
1.100000,-0.020000,0.600790,0.040000,-386.892951,6050.200000,1030.846874,-1030.378331,-37.482807,0.000000,-0.000000,-0.000000,1031.528263,-1031.059721,0.006404,0.000000,-0.000000,0.000000
1.140000,-0.020000,0.640790,0.040000,-342.317663,6498.200000,959.837393,-959.431123,-33.676219,0.000000,-0.000000,-0.000000,960.428107,-960.021837,0.005522,0.000000,-0.000000,0.000000
1.180000,-0.020000,0.680790,0.040000,-299.278733,6962.200000,895.918625,-895.564621,-30.368057,0.000000,-0.000000,-0.000000,896.433257,-896.079253,0.004788,0.000000,-0.000000,0.000000
1.220000,-0.020000,0.720790,0.040000,-257.673813,7442.200000,837.697253,-836.220724,-27.450656,0.000000,-0.000000,-0.000000,838.147297,-836.670768,-0.002000,0.000000,-0.000000,-0.000000
1.260000,-0.020000,0.760790,0.040000,-217.410448,7938.200000,785.287384,-784.381963,-24.964865,0.000000,-0.000000,-0.000000,785.684337,-784.778916,-0.043178,0.000000,-0.000000,-0.000000
1.300000,-0.020000,0.800790,0.040000,-178.404845,8450.200000,737.671128,-736.547541,-22.725180,0.000000,-0.000000,-0.000000,738.021354,-736.897767,-0.039505,0.000000,-0.000000,-0.000000
-1.300000,0.020000,0.800645,0.040000,-178.489824,8450.200000,738.074814,-736.950270,-22.743853,0.000000,-0.000000,-0.000000,738.425424,-737.300879,-0.045765,0.000000,-0.000000,-0.000000
-1.260000,0.020000,0.760658,0.040000,-217.514176,7938.200000,785.730802,-784.824560,-24.986030,0.000000,-0.000000,-0.000000,786.128203,-785.221962,-0.050272,0.000000,-0.000000,-0.000000
-1.220000,0.020000,0.720673,0.040000,-257.797002,7442.200000,838.185793,-836.707898,-27.474678,0.000000,-0.000000,-0.000000,838.636362,-837.158466,-0.010018,0.000000,-0.000000,-0.000000
-1.180000,0.020000,0.680689,0.040000,-299.422165,6962.200000,896.458960,-896.104529,-30.395541,0.000000,-0.000000,-0.000000,896.974213,-896.619782,-0.004376,0.000000,-0.000000,-0.000000
-1.140000,0.020000,0.640708,0.040000,-342.482203,6498.200000,960.436567,-960.029791,-33.707766,0.000000,-0.000000,-0.000000,961.028019,-960.621243,-0.004998,0.000000,-0.000000,-0.000000
-1.100000,0.020000,0.600728,0.040000,-387.079559,6050.200000,1031.513748,-1031.044599,-37.519197,0.000000,-0.000000,-0.000000,1032.196019,-1031.726871,-0.005731,0.000000,-0.000000,-0.000000
-1.060000,0.020000,0.560752,0.040000,-433.328051,5618.200000,1110.780852,-1110.236912,-41.927524,0.000000,-0.000000,-0.000000,1111.572062,-1111.028122,-0.006600,0.000000,-0.000000,-0.000000
-1.020000,0.020000,0.520779,0.040000,-481.354623,5202.200000,1199.545812,-1198.911570,-47.054305,0.000000,-0.000000,-0.000000,1200.468595,-1199.834353,-0.007635,0.000000,-0.000000,-0.000000
-0.980000,0.020000,0.480811,0.040000,-531.301434,4802.200000,1299.388377,-1298.644304,-53.052049,0.000000,-0.000000,-0.000000,1300.471253,-1299.727180,-0.008874,0.000000,-0.000000,-0.000000
-0.940000,0.020000,0.440849,0.040000,-583.328401,4418.200000,1412.230815,-1411.352088,-60.113814,0.000000,-0.000000,-0.000000,1413.510053,-1412.631325,-0.010364,0.000000,-0.000000,-0.000000
-0.900000,0.020000,0.400894,0.040000,-637.616278,4050.200000,1540.431003,-1539.385758,-68.486364,0.000000,-0.000000,-0.000000,1541.953193,-1540.907948,-0.012165,0.000000,-0.000000,-0.000000
-0.860000,0.020000,0.360950,0.040000,-694.370439,3698.200000,1686.906440,-1685.653329,-78.488430,0.000000,-0.000000,-0.000000,1688.732086,-1687.478975,-0.014350,0.000000,-0.000000,-0.000000
-0.820000,0.020000,0.321019,0.040000,-753.825562,3362.200000,1855.301447,-1853.786177,-90.536432,0.000000,-0.000000,-0.000000,1857.510067,-1855.994797,-0.017011,0.000000,-0.000000,-0.000000
-0.780000,0.020000,0.281108,0.040000,-816.251481,3042.200000,2050.215673,-2048.366030,-105.181263,0.000000,-0.000000,-0.000000,2052.913148,-2051.063504,-0.020259,0.000000,-0.000000,-0.000000
-0.740000,0.020000,0.241226,0.040000,-881.960571,2738.200000,2279.969464,-2283.583825,-123.448271,0.000000,-0.000000,-0.000000,2283.306412,-2286.920773,-0.018805,0.000000,-0.000000,-0.000000
-0.700000,0.020000,0.201391,0.040000,-951.317180,2450.200000,2548.305131,-2550.756504,-145.279425,0.000000,-0.000000,-0.000000,2552.440937,-2554.892310,0.526216,0.000000,-0.000000,0.000000
-0.660000,0.020000,0.161637,0.040000,-1024.749836,2178.200000,2864.767076,-2870.989069,-173.472133,0.000000,-0.000000,-0.000000,2870.008731,-2876.230725,0.497497,0.000000,-0.000000,0.000000
0.660000,0.020000,0.160790,0.040000,-1024.207394,2178.200000,2861.684433,-2867.897082,173.192021,0.000000,-0.000000,0.000000,2866.914792,-2873.127441,-0.590157,0.000000,-0.000000,-0.000000
0.700000,0.020000,0.200790,0.040000,-950.821025,2450.200000,2545.717801,-2548.166256,145.058311,0.000000,-0.000000,0.000000,2549.845205,-2552.293660,-0.599159,0.000000,-0.000000,-0.000000
0.740000,0.020000,0.240790,0.040000,-881.506562,2738.200000,2277.779499,-2281.389541,123.270270,0.000000,-0.000000,0.000000,2281.110032,-2284.720075,-0.040529,0.000000,-0.000000,-0.000000
0.780000,0.020000,0.280790,0.040000,-815.836115,3042.200000,2048.348097,-2046.501815,105.037492,0.000000,-0.000000,0.000000,2051.040656,-2049.194373,-0.027699,0.000000,-0.000000,-0.000000
0.820000,0.020000,0.320790,0.040000,-753.445844,3362.200000,1853.693591,-1852.180942,90.418701,0.000000,-0.000000,0.000000,1855.898382,-1854.385733,-0.022258,0.000000,-0.000000,-0.000000
0.860000,0.020000,0.360790,0.040000,-694.023793,3698.200000,1685.512313,-1684.261268,78.391102,0.000000,-0.000000,0.000000,1687.334940,-1686.083896,-0.018112,0.000000,-0.000000,-0.000000
0.900000,0.020000,0.400790,0.040000,-637.300470,4050.200000,1539.214355,-1538.170758,68.405206,0.000000,-0.000000,0.000000,1540.734139,-1539.690542,-0.014903,0.000000,-0.000000,-0.000000
0.940000,0.020000,0.440790,0.040000,-583.041483,4418.200000,1411.162764,-1410.285363,60.045603,0.000000,-0.000000,0.000000,1412.440066,-1411.562666,-0.012385,0.000000,-0.000000,-0.000000
0.980000,0.020000,0.480790,0.040000,-531.041694,4802.200000,1298.445684,-1297.702689,52.994304,0.000000,-0.000000,0.000000,1299.526988,-1298.783993,-0.010384,0.000000,-0.000000,-0.000000
1.020000,0.020000,0.520790,0.040000,-481.120551,5202.200000,1198.709607,-1198.076248,47.005093,0.000000,-0.000000,0.000000,1199.631103,-1198.997744,-0.008776,0.000000,-0.000000,-0.000000
1.060000,0.020000,0.560790,0.040000,-433.118308,5618.200000,1110.035687,-1109.492475,41.885326,0.000000,-0.000000,0.000000,1110.825835,-1110.282623,-0.007472,0.000000,-0.000000,-0.000000
1.100000,0.020000,0.600790,0.040000,-386.892951,6050.200000,1030.846874,-1030.378331,37.482807,0.000000,-0.000000,0.000000,1031.528263,-1031.059721,-0.006404,0.000000,-0.000000,-0.000000
1.140000,0.020000,0.640790,0.040000,-342.317663,6498.200000,959.837393,-959.431123,33.676219,0.000000,-0.000000,0.000000,960.428107,-960.021837,-0.005522,0.000000,-0.000000,-0.000000
1.180000,0.020000,0.680790,0.040000,-299.278733,6962.200000,895.918625,-895.564621,30.368057,0.000000,-0.000000,0.000000,896.433257,-896.079253,-0.004788,0.000000,-0.000000,-0.000000
1.220000,0.020000,0.720790,0.040000,-257.673813,7442.200000,837.697253,-836.220724,27.450656,0.000000,-0.000000,0.000000,838.147297,-836.670768,0.002000,0.000000,-0.000000,0.000000
1.260000,0.020000,0.760790,0.040000,-217.410448,7938.200000,785.287384,-784.381963,24.964865,0.000000,-0.000000,0.000000,785.684337,-784.778916,0.043178,0.000000,-0.000000,0.000000
1.300000,0.020000,0.800790,0.040000,-178.404845,8450.200000,737.671128,-736.547541,22.725180,0.000000,-0.000000,0.000000,738.021354,-736.897767,0.039505,0.000000,-0.000000,0.000000
-1.300000,0.060000,0.802232,0.040000,-177.308714,8451.800000,733.896788,-732.785918,-67.973802,0.000000,-0.000000,-0.000000,737.040302,-735.929432,-0.135669,0.000000,-0.000000,-0.000000
-1.260000,0.060000,0.762245,0.040000,-216.256969,7939.800000,780.995856,-780.102076,-74.656680,0.000000,-0.000000,-0.000000,784.558034,-783.664254,-0.149056,0.000000,-0.000000,-0.000000
-1.220000,0.060000,0.722260,0.040000,-256.456103,7443.800000,832.798394,-831.341661,-82.070972,0.000000,-0.000000,-0.000000,836.836119,-835.379386,-0.029442,0.000000,-0.000000,-0.000000
-1.180000,0.060000,0.682277,0.040000,-297.988936,6963.800000,890.297774,-889.951432,-90.768941,0.000000,-0.000000,-0.000000,894.913809,-894.567467,-0.013081,0.000000,-0.000000,-0.000000
-1.140000,0.060000,0.642296,0.040000,-340.946772,6499.800000,953.366002,-952.969166,-100.627153,0.000000,-0.000000,-0.000000,958.662954,-958.266118,-0.014937,0.000000,-0.000000,-0.000000
-1.100000,0.060000,0.602317,0.040000,-385.430599,6051.800000,1023.359753,-1022.902912,-111.964621,0.000000,-0.000000,-0.000000,1029.467849,-1029.011007,-0.017125,0.000000,-0.000000,-0.000000
-1.060000,0.060000,0.562341,0.040000,-431.552498,5619.800000,1101.327853,-1100.799268,-125.069208,0.000000,-0.000000,-0.000000,1108.408358,-1107.879773,-0.019720,0.000000,-0.000000,-0.000000
-1.020000,0.060000,0.522369,0.040000,-479.437326,5203.800000,1188.524681,-1187.909761,-140.298614,0.000000,-0.000000,-0.000000,1196.778882,-1196.163963,-0.022811,0.000000,-0.000000,-0.000000
-0.980000,0.060000,0.482402,0.040000,-529.224732,4803.800000,1286.460267,-1285.740730,-158.100937,0.000000,-0.000000,-0.000000,1296.141540,-1295.422003,-0.026512,0.000000,-0.000000,-0.000000
-0.940000,0.060000,0.442441,0.040000,-581.071571,4419.800000,1396.965161,-1396.117899,-179.042452,0.000000,-0.000000,-0.000000,1408.395379,-1407.548117,-0.030966,0.000000,-0.000000,-0.000000
-0.900000,0.060000,0.402487,0.040000,-635.154846,4051.800000,1522.275233,-1521.270773,-203.845560,0.000000,-0.000000,-0.000000,1535.867361,-1534.862901,-0.036351,0.000000,-0.000000,-0.000000
-0.860000,0.060000,0.362544,0.040000,-691.675293,3699.800000,1665.143703,-1663.944076,-233.441317,0.000000,-0.000000,-0.000000,1681.433300,-1680.233672,-0.042895,0.000000,-0.000000,-0.000000
-0.820000,0.060000,0.322614,0.040000,-750.861801,3363.800000,1828.990767,-1827.546531,-269.043106,0.000000,-0.000000,-0.000000,1848.680570,-1847.236334,-0.050880,0.000000,-0.000000,-0.000000
-0.780000,0.060000,0.282705,0.040000,-812.976898,3043.800000,2018.105857,-2016.351883,-312.251558,0.000000,-0.000000,-0.000000,2042.129873,-2040.375899,-0.060653,0.000000,-0.000000,-0.000000
-0.740000,0.060000,0.242825,0.040000,-878.323643,2739.800000,2240.283767,-2243.814981,-366.047504,0.000000,-0.000000,-0.000000,2269.968569,-2273.499783,-0.065054,0.000000,-0.000000,-0.000000
-0.700000,0.060000,0.202993,0.040000,-947.254353,2451.800000,2498.772108,-2501.168614,-430.208160,0.000000,-0.000000,-0.000000,2535.517851,-2537.914357,1.507823,0.000000,-0.000000,0.000000
-0.660000,0.060000,0.163243,0.040000,-1020.181797,2179.800000,2802.272532,-2808.259144,-512.856098,0.000000,-0.000000,-0.000000,2848.766814,-2854.753427,1.418989,0.000000,-0.000000,0.000000
0.660000,0.060000,0.163947,0.040000,-1019.644258,2179.800000,2799.323662,-2805.301505,512.036019,0.000000,-0.000000,0.000000,2845.718476,-2851.696318,-1.693070,0.000000,-0.000000,-0.000000
0.700000,0.060000,0.203947,0.040000,-946.762311,2451.800000,2496.284913,-2498.678592,429.559038,0.000000,-0.000000,0.000000,2532.956490,-2535.350169,-1.723969,0.000000,-0.000000,-0.000000
0.740000,0.060000,0.243947,0.040000,-877.873120,2739.800000,2238.169737,-2241.696781,365.523789,0.000000,-0.000000,0.000000,2267.797809,-2271.324853,-0.110908,0.000000,-0.000000,-0.000000
0.780000,0.060000,0.283645,0.040000,-812.564510,3043.800000,2016.296566,-2014.545693,311.827718,0.000000,-0.000000,0.000000,2040.277027,-2038.526155,-0.081722,0.000000,-0.000000,-0.000000
0.820000,0.060000,0.323292,0.040000,-750.484647,3363.800000,1827.428362,-1825.986563,268.695457,0.000000,-0.000000,0.000000,1847.084190,-1845.642391,-0.065818,0.000000,-0.000000,-0.000000
0.860000,0.060000,0.363016,0.040000,-691.330871,3699.800000,1663.785438,-1662.587745,233.153504,0.000000,-0.000000,0.000000,1680.048218,-1678.850526,-0.053656,0.000000,-0.000000,-0.000000
0.900000,0.060000,0.402795,0.040000,-634.840980,4051.800000,1521.087184,-1520.084276,203.605264,0.000000,-0.000000,0.000000,1534.657920,-1533.655012,-0.044216,0.000000,-0.000000,-0.000000
0.940000,0.060000,0.442614,0.040000,-580.786357,4419.800000,1395.920141,-1395.074135,178.840269,0.000000,-0.000000,0.000000,1407.333129,-1406.487123,-0.036790,0.000000,-0.000000,-0.000000
0.980000,0.060000,0.482463,0.040000,-528.966496,4803.800000,1285.536288,-1284.817776,157.929611,0.000000,-0.000000,0.000000,1295.203557,-1294.485045,-0.030879,0.000000,-0.000000,-0.000000
1.020000,0.060000,0.522335,0.040000,-479.204589,5203.800000,1187.703807,-1187.089731,140.152482,0.000000,-0.000000,0.000000,1195.946535,-1195.332458,-0.026122,0.000000,-0.000000,-0.000000
1.060000,0.060000,0.562225,0.040000,-431.343945,5619.800000,1100.595344,-1100.067457,124.943810,0.000000,-0.000000,0.000000,1107.666375,-1107.138488,-0.022256,0.000000,-0.000000,-0.000000
1.100000,0.060000,0.602130,0.040000,-385.245057,6051.800000,1022.703402,-1022.247143,111.856409,0.000000,-0.000000,0.000000,1028.803620,-1028.347360,-0.019087,0.000000,-0.000000,-0.000000
1.140000,0.060000,0.642046,0.040000,-340.783190,6499.800000,952.775634,-952.379286,100.533284,0.000000,-0.000000,0.000000,958.065992,-957.669645,-0.016468,0.000000,-0.000000,-0.000000
1.180000,0.060000,0.681972,0.040000,-297.846367,6963.800000,889.764853,-889.418924,90.687116,0.000000,-0.000000,0.000000,894.375336,-894.029406,-0.014287,0.000000,-0.000000,-0.000000
1.220000,0.060000,0.721907,0.040000,-256.333696,7443.800000,832.316124,-830.860725,81.999419,0.000000,-0.000000,0.000000,836.349153,-834.893753,0.005491,0.000000,-0.000000,0.000000
1.260000,0.060000,0.761848,0.040000,-216.153950,7939.800000,780.557774,-779.664797,74.593609,0.000000,-0.000000,0.000000,784.115940,-783.222962,0.127860,0.000000,-0.000000,0.000000
1.300000,0.060000,0.801796,0.040000,-177.224381,8451.800000,733.497666,-732.387733,67.918136,0.000000,-0.000000,0.000000,736.637747,-735.527815,0.116960,0.000000,-0.000000,0.000000
-1.300000,0.100000,0.804239,0.040000,-174.953175,8455.000000,725.619234,-724.535301,-112.437751,0.000000,-0.000000,-0.000000,734.285275,-733.201342,-0.220784,0.000000,-0.000000,-0.000000
-1.260000,0.100000,0.764357,0.040000,-213.750124,7943.000000,771.620658,-770.751380,-123.432147,0.000000,-0.000000,-0.000000,781.436119,-780.566841,-0.242663,0.000000,-0.000000,-0.000000
-1.220000,0.100000,0.724489,0.040000,-253.782915,7447.000000,822.138476,-820.723323,-135.619366,0.000000,-0.000000,-0.000000,833.258676,-831.843522,-0.047071,0.000000,-0.000000,-0.000000
-1.180000,0.100000,0.684636,0.040000,-295.132310,6967.000000,878.115835,-877.785285,-149.903563,0.000000,-0.000000,-0.000000,890.821361,-890.490811,-0.021644,0.000000,-0.000000,-0.000000
-1.140000,0.100000,0.644801,0.040000,-337.887194,6503.000000,939.397438,-939.019977,-166.076257,0.000000,-0.000000,-0.000000,953.967698,-953.590237,-0.024707,0.000000,-0.000000,-0.000000
-1.100000,0.100000,0.604988,0.040000,-382.145689,6055.000000,1007.265368,-1006.832467,-184.654426,0.000000,-0.000000,-0.000000,1024.054708,-1023.621808,-0.028319,0.000000,-0.000000,-0.000000
-1.060000,0.100000,0.565201,0.040000,-428.016467,5623.000000,1082.688330,-1082.189554,-206.100945,0.000000,-0.000000,-0.000000,1102.134891,-1101.636115,-0.032601,0.000000,-0.000000,-0.000000
-1.020000,0.100000,0.525447,0.040000,-475.620308,5207.000000,1166.817667,-1166.240168,-230.989425,0.000000,-0.000000,-0.000000,1189.467385,-1188.889887,-0.037704,0.000000,-0.000000,-0.000000
-0.980000,0.100000,0.485733,0.040000,-525.091936,4807.000000,1261.029663,-1260.357517,-260.036261,0.000000,-0.000000,-0.000000,1287.568446,-1286.896301,-0.043816,0.000000,-0.000000,-0.000000
-0.940000,0.100000,0.446070,0.040000,-576.582237,4423.000000,1366.979530,-1366.192860,-294.143699,0.000000,-0.000000,-0.000000,1398.276858,-1397.490187,-0.051176,0.000000,-0.000000,-0.000000
-0.900000,0.100000,0.406473,0.040000,-630.260904,4055.000000,1486.670800,-1485.744608,-334.458323,0.000000,-0.000000,-0.000000,1523.839512,-1522.913321,-0.060088,0.000000,-0.000000,-0.000000
-0.860000,0.100000,0.366964,0.040000,-686.319656,3703.000000,1622.545224,-1621.447834,-382.451451,0.000000,-0.000000,-0.000000,1667.024571,-1665.927181,-0.070939,0.000000,-0.000000,-0.000000
-0.820000,0.100000,0.327368,0.040000,-744.976155,3367.000000,1777.600185,-1776.291127,-440.031040,0.000000,-0.000000,-0.000000,1831.272778,-1829.963720,-0.084223,0.000000,-0.000000,-0.000000
-0.780000,0.100000,0.287461,0.040000,-806.478811,3047.000000,1955.543260,-1953.970404,-509.699626,0.000000,-0.000000,-0.000000,2020.902260,-2019.329403,-0.100567,0.000000,-0.000000,-0.000000
-0.740000,0.100000,0.247583,0.040000,-871.112736,2743.000000,2163.185820,-2166.554330,-596.123846,0.000000,-0.000000,-0.000000,2243.761371,-2247.129882,-0.135238,0.000000,-0.000000,-0.000000
-0.700000,0.100000,0.207753,0.040000,-939.207164,2455.000000,2402.869833,-2405.158433,-698.783903,0.000000,-0.000000,-0.000000,2502.368761,-2504.657361,2.291411,0.000000,-0.000000,0.000000
-0.660000,0.100000,0.168003,0.040000,-1011.144781,2183.000000,2681.752342,-2687.290133,-830.369395,0.000000,-0.000000,-0.000000,2807.242323,-2812.780114,2.135522,0.000000,-0.000000,0.000000
0.660000,0.100000,0.168884,0.040000,-1010.616835,2183.000000,2679.056787,-2684.586901,829.067096,0.000000,-0.000000,0.000000,2804.282146,-2809.812260,-2.579730,0.000000,-0.000000,-0.000000
0.700000,0.100000,0.207936,0.040000,-938.723190,2455.000000,2400.573378,-2402.859333,697.747547,0.000000,-0.000000,0.000000,2499.874037,-2502.159992,-2.642934,0.000000,-0.000000,-0.000000
0.740000,0.100000,0.247292,0.040000,-870.669061,2743.000000,2161.217172,-2164.581804,595.284052,0.000000,-0.000000,0.000000,2241.640504,-2245.005136,-0.151395,0.000000,-0.000000,-0.000000
0.780000,0.100000,0.286826,0.040000,-806.072284,3047.000000,1953.846052,-1952.275815,509.017334,0.000000,-0.000000,0.000000,2019.087782,-2017.517544,-0.131845,0.000000,-0.000000,-0.000000
0.820000,0.100000,0.326473,0.040000,-744.604058,3367.000000,1776.125510,-1774.818546,439.469562,0.000000,-0.000000,0.000000,1829.706353,-1828.399389,-0.106646,0.000000,-0.000000,-0.000000
0.860000,0.100000,0.366197,0.040000,-685.979626,3703.000000,1621.256400,-1620.160698,381.985295,0.000000,-0.000000,0.000000,1665.663150,-1664.567448,-0.087246,0.000000,-0.000000,-0.000000
0.900000,0.100000,0.405975,0.040000,-629.950875,4055.000000,1485.538284,-1484.613463,334.068165,0.000000,-0.000000,0.000000,1522.648958,-1521.724137,-0.072104,0.000000,-0.000000,-0.000000
0.940000,0.100000,0.445793,0.040000,-576.300396,4423.000000,1365.979342,-1365.193792,293.814713,0.000000,-0.000000,0.000000,1397.229828,-1396.444279,-0.060140,0.000000,-0.000000,-0.000000
0.980000,0.100000,0.485641,0.040000,-524.836681,4807.000000,1260.142190,-1259.470967,259.756953,0.000000,-0.000000,0.000000,1286.642840,-1285.971618,-0.050579,0.000000,-0.000000,-0.000000
1.020000,0.100000,0.525512,0.040000,-475.390217,5207.000000,1166.026759,-1165.450026,230.750787,0.000000,-0.000000,0.000000,1188.645184,-1188.068451,-0.042861,0.000000,-0.000000,-0.000000
1.060000,0.100000,0.565402,0.040000,-427.810274,5623.000000,1081.980601,-1081.482464,205.895858,0.000000,-0.000000,0.000000,1101.401289,-1100.903152,-0.036572,0.000000,-0.000000,-0.000000
1.100000,0.100000,0.605305,0.040000,-381.962260,6055.000000,1006.629650,-1006.197286,184.477208,0.000000,-0.000000,0.000000,1023.397450,-1022.965086,-0.031404,0.000000,-0.000000,-0.000000
1.140000,0.100000,0.645221,0.040000,-337.725511,6503.000000,938.824360,-938.447352,165.922343,0.000000,-0.000000,0.000000,953.376572,-952.999564,-0.027124,0.000000,-0.000000,-0.000000
1.180000,0.100000,0.685147,0.040000,-294.991456,6967.000000,877.597491,-877.267325,149.769253,0.000000,-0.000000,0.000000,890.287804,-889.957638,-0.023554,0.000000,-0.000000,-0.000000
1.220000,0.100000,0.725081,0.040000,-253.662060,7447.000000,821.668547,-820.254664,135.501801,0.000000,-0.000000,0.000000,832.775867,-831.361984,0.007495,0.000000,-0.000000,0.000000
1.260000,0.100000,0.764999,0.040000,-213.648515,7943.000000,771.193089,-770.324577,123.328427,0.000000,-0.000000,0.000000,780.997537,-780.129025,0.207624,0.000000,-0.000000,0.000000
1.300000,0.100000,0.804790,0.040000,-174.870126,8455.000000,725.229110,-724.146077,112.346135,0.000000,-0.000000,0.000000,733.885724,-732.802691,0.189843,0.000000,-0.000000,0.000000
-1.300000,0.140000,0.808223,0.040000,-171.436446,8459.800000,713.396071,-712.351534,-155.648890,0.000000,-0.000000,-0.000000,730.190376,-729.145839,-0.298223,0.000000,-0.000000,-0.000000
-1.260000,0.140000,0.768548,0.040000,-210.008629,7947.800000,757.790640,-756.957089,-170.745294,0.000000,-0.000000,-0.000000,776.798781,-775.965230,-0.327975,0.000000,-0.000000,-0.000000
-1.220000,0.140000,0.728909,0.040000,-249.794471,7451.800000,806.430694,-805.076095,-187.458212,0.000000,-0.000000,-0.000000,827.949389,-826.594790,-0.061845,0.000000,-0.000000,-0.000000
-1.180000,0.140000,0.689312,0.040000,-290.871730,6971.800000,860.187338,-859.879545,-207.020227,0.000000,-0.000000,-0.000000,884.752616,-884.444822,-0.029971,0.000000,-0.000000,-0.000000
-1.140000,0.140000,0.649560,0.040000,-333.325756,6507.800000,918.867232,-918.517612,-229.134165,0.000000,-0.000000,-0.000000,947.010715,-946.661095,-0.034195,0.000000,-0.000000,-0.000000
-1.100000,0.140000,0.609748,0.040000,-377.250503,6059.800000,983.646146,-983.247538,-254.494119,0.000000,-0.000000,-0.000000,1016.041293,-1015.642684,-0.039177,0.000000,-0.000000,-0.000000
-1.060000,0.140000,0.569962,0.040000,-422.749691,5627.800000,1055.379605,-1054.923376,-283.714221,0.000000,-0.000000,-0.000000,1092.857249,-1092.401020,-0.045082,0.000000,-0.000000,-0.000000
-1.020000,0.140000,0.530208,0.040000,-469.938181,5211.800000,1135.074059,-1134.549761,-317.552435,0.000000,-0.000000,-0.000000,1178.666841,-1178.142543,-0.052118,0.000000,-0.000000,-0.000000
-0.980000,0.140000,0.490493,0.040000,-518.943588,4811.800000,1223.918680,-1223.313612,-356.951113,0.000000,-0.000000,-0.000000,1274.920346,-1274.315278,-0.060547,0.000000,-0.000000,-0.000000
-0.940000,0.140000,0.450830,0.040000,-569.908187,4427.800000,1323.324785,-1322.623446,-403.091029,0.000000,-0.000000,-0.000000,1383.370149,-1382.668811,-0.070706,0.000000,-0.000000,-0.000000
-0.900000,0.140000,0.411232,0.040000,-622.991175,4059.800000,1434.974802,-1434.158211,-457.464115,0.000000,-0.000000,-0.000000,1506.148801,-1505.332211,-0.083024,0.000000,-0.000000,-0.000000
-0.860000,0.140000,0.371719,0.040000,-678.371367,3707.800000,1560.883194,-1559.928040,-521.972383,0.000000,-0.000000,-0.000000,1645.871404,-1644.916251,-0.098054,0.000000,-0.000000,-0.000000
-0.820000,0.140000,0.332324,0.040000,-736.250427,3371.800000,1703.472155,-1702.349763,-599.064012,0.000000,-0.000000,-0.000000,1805.771270,-1804.648878,-0.116518,0.000000,-0.000000,-0.000000
-0.780000,0.140000,0.293092,0.040000,-796.856754,3051.800000,1865.665333,-1864.340429,-691.922803,0.000000,-0.000000,-0.000000,1989.881619,-1988.556715,-0.139358,0.000000,-0.000000,-0.000000
-0.740000,0.140000,0.254100,0.040000,-860.450166,2747.800000,2052.953966,-2056.087368,-806.500779,0.000000,-0.000000,-0.000000,2205.580467,-2208.713869,-0.239297,0.000000,-0.000000,-0.000000
-0.700000,0.140000,0.215477,0.040000,-927.327576,2459.800000,2266.510086,-2268.641600,-941.802105,0.000000,-0.000000,-0.000000,2454.312753,-2456.444268,2.788766,0.000000,-0.000000,0.000000
-0.660000,0.140000,0.175921,0.040000,-997.829883,2187.800000,2510.747114,-2516.283687,-1113.529537,0.000000,-0.000000,-0.000000,2746.358833,-2751.895406,2.788573,0.000000,-0.000000,0.000000
0.660000,0.140000,0.175180,0.040000,-997.315822,2187.800000,2508.397806,-2513.928763,1111.831759,0.000000,-0.000000,0.000000,2743.522825,-2749.053781,-3.385244,0.000000,-0.000000,-0.000000
0.700000,0.140000,0.214260,0.040000,-926.855325,2459.800000,2264.477569,-2266.606708,940.440598,0.000000,-0.000000,0.000000,2451.913019,-2454.042158,-3.263347,0.000000,-0.000000,-0.000000
0.740000,0.140000,0.253626,0.040000,-860.016475,2747.800000,2051.188190,-2054.318134,805.390445,0.000000,-0.000000,0.000000,2203.531237,-2206.661181,-0.148625,0.000000,-0.000000,-0.000000
0.780000,0.140000,0.293165,0.040000,-796.458799,3051.800000,1864.125663,-1862.802739,691.015549,0.000000,-0.000000,0.000000,1988.122477,-1986.799553,-0.176157,0.000000,-0.000000,-0.000000
0.820000,0.140000,0.332813,0.040000,-735.885740,3371.800000,1702.121547,-1701.000787,598.313805,0.000000,-0.000000,0.000000,1804.248211,-1803.127452,-0.143342,0.000000,-0.000000,-0.000000
0.860000,0.140000,0.372537,0.040000,-678.037785,3707.800000,1559.693098,-1558.739296,521.346935,0.000000,-0.000000,0.000000,1644.544346,-1643.590543,-0.117843,0.000000,-0.000000,-0.000000
0.900000,0.140000,0.411897,0.040000,-622.686792,4059.800000,1433.921606,-1433.106137,456.938727,0.000000,-0.000000,0.000000,1504.985752,-1504.170283,-0.097790,0.000000,-0.000000,-0.000000
0.940000,0.140000,0.451193,0.040000,-569.631316,4427.800000,1322.388888,-1321.688485,402.646600,0.000000,-0.000000,0.000000,1382.345342,-1381.644938,-0.081842,0.000000,-0.000000,-0.000000
0.980000,0.140000,0.490602,0.040000,-518.692730,4811.800000,1223.083748,-1222.479462,356.572729,0.000000,-0.000000,0.000000,1274.012848,-1273.408562,-0.069030,0.000000,-0.000000,-0.000000
1.020000,0.140000,0.530100,0.040000,-469.711999,5211.800000,1134.326416,-1133.802776,317.228341,0.000000,-0.000000,0.000000,1177.859512,-1177.335872,-0.058640,0.000000,-0.000000,-0.000000
1.060000,0.140000,0.569668,0.040000,-422.546988,5627.800000,1054.707754,-1054.252081,283.435070,0.000000,-0.000000,0.000000,1092.135952,-1091.680279,-0.050142,0.000000,-0.000000,-0.000000
1.100000,0.140000,0.609293,0.040000,-377.070203,6059.800000,983.040377,-982.642240,254.252423,0.000000,-0.000000,0.000000,1015.394286,-1014.996149,-0.043135,0.000000,-0.000000,-0.000000
1.140000,0.140000,0.648963,0.040000,-333.166889,6507.800000,918.319308,-917.970090,228.923876,0.000000,-0.000000,0.000000,946.428184,-946.078966,-0.037316,0.000000,-0.000000,-0.000000
1.180000,0.140000,0.688672,0.040000,-290.733419,6971.800000,859.690242,-859.382793,206.836427,0.000000,-0.000000,0.000000,884.226307,-883.918858,-0.032450,0.000000,-0.000000,-0.000000
1.220000,0.140000,0.728413,0.040000,-249.675920,7451.800000,805.978787,-804.625367,187.297090,0.000000,-0.000000,0.000000,827.472716,-826.119296,0.007146,0.000000,-0.000000,0.000000
1.260000,0.140000,0.768180,0.040000,-209.909114,7947.800000,757.378450,-756.545612,170.602962,0.000000,-0.000000,0.000000,776.365392,-775.532554,0.279517,0.000000,-0.000000,0.000000
1.300000,0.140000,0.807970,0.040000,-171.355306,8459.800000,713.019132,-711.975439,155.523017,0.000000,-0.000000,0.000000,729.795269,-728.751577,0.255402,0.000000,-0.000000,0.000000
-1.300000,0.180000,0.812984,0.040000,-166.778077,8466.200000,697.450688,-696.456857,-197.154891,0.000000,-0.000000,-0.000000,724.799669,-723.805838,-0.365526,0.000000,-0.000000,-0.000000
-1.260000,0.180000,0.773309,0.040000,-205.054594,7954.200000,739.774354,-738.986596,-216.071746,0.000000,-0.000000,-0.000000,770.699224,-769.911465,-0.402343,0.000000,-0.000000,-0.000000
-1.220000,0.180000,0.733669,0.040000,-244.515874,7458.200000,785.999639,-784.722521,-236.979015,0.000000,-0.000000,-0.000000,820.974511,-819.697393,-0.072895,0.000000,-0.000000,-0.000000
-1.180000,0.180000,0.694071,0.040000,-285.235809,6978.200000,836.907431,-836.628325,-261.406687,0.000000,-0.000000,-0.000000,876.788819,-876.509713,-0.037970,0.000000,-0.000000,-0.000000
-1.140000,0.180000,0.654521,0.040000,-327.295221,6514.200000,892.258738,-891.944074,-288.964712,0.000000,-0.000000,-0.000000,937.891581,-937.576917,-0.043292,0.000000,-0.000000,-0.000000
-1.100000,0.180000,0.615030,0.040000,-370.782727,6066.200000,953.097366,-952.741625,-320.497368,0.000000,-0.000000,-0.000000,1005.550501,-1005.194759,-0.049566,0.000000,-0.000000,-0.000000
-1.060000,0.180000,0.575609,0.040000,-415.795729,5634.200000,1020.140129,-1019.736825,-356.739748,0.000000,-0.000000,-0.000000,1080.728256,-1080.324952,-0.056998,0.000000,-0.000000,-0.000000
-1.020000,0.180000,0.536273,0.040000,-462.441570,5218.200000,1094.217043,-1093.758557,-398.594212,0.000000,-0.000000,-0.000000,1164.568819,-1164.110333,-0.065852,0.000000,-0.000000,-0.000000
-0.980000,0.180000,0.497044,0.040000,-510.838857,4818.200000,1176.291072,-1175.768468,-447.175874,0.000000,-0.000000,-0.000000,1258.439460,-1257.916855,-0.076459,0.000000,-0.000000,-0.000000
-0.940000,0.180000,0.457948,0.040000,-561.119005,4434.200000,1267.481055,-1266.883889,-503.872530,0.000000,-0.000000,-0.000000,1363.984374,-1363.387208,-0.089245,0.000000,-0.000000,-0.000000
-0.900000,0.180000,0.419023,0.040000,-613.428032,4066.200000,1369.087885,-1368.404035,-570.424308,0.000000,-0.000000,-0.000000,1483.193699,-1482.509849,-0.104761,0.000000,-0.000000,-0.000000
-0.860000,0.180000,0.379633,0.040000,-667.928642,3714.200000,1482.623575,-1481.839129,-649.030459,0.000000,-0.000000,-0.000000,1618.493055,-1617.708609,-0.123723,0.000000,-0.000000,-0.000000
-0.820000,0.180000,0.340232,0.040000,-724.802643,3378.200000,1609.841979,-1608.941290,-742.493858,0.000000,-0.000000,-0.000000,1772.860721,-1771.960032,-0.147075,0.000000,-0.000000,-0.000000
-0.780000,0.180000,0.300988,0.040000,-784.253763,3058.200000,1752.768279,-1751.734338,-854.418398,0.000000,-0.000000,-0.000000,1949.982388,-1948.948447,-0.176077,0.000000,-0.000000,-0.000000
-0.740000,0.180000,0.261973,0.040000,-846.510887,2754.200000,1915.387479,-1918.223903,-991.571038,0.000000,-0.000000,-0.000000,2156.672851,-2159.509275,-0.379936,0.000000,-0.000000,-0.000000
-0.700000,0.180000,0.223306,0.040000,-911.831766,2466.200000,2098.180180,-2099.105541,-1153.428205,0.000000,-0.000000,-0.000000,2394.259526,-2395.184887,2.008527,0.000000,-0.000000,0.000000
-0.660000,0.180000,0.185207,0.040000,-980.507204,2194.200000,2306.119844,-2308.445038,-1355.517312,0.000000,-0.000000,-0.000000,2674.835680,-2677.160874,3.559248,0.000000,-0.000000,0.000000
0.660000,0.180000,0.184636,0.040000,-980.010769,2194.200000,2304.173737,-2306.497228,1353.528845,0.000000,-0.000000,0.000000,2672.149622,-2674.473113,-4.283932,0.000000,-0.000000,-0.000000
0.700000,0.180000,0.223743,0.040000,-911.374475,2466.200000,2096.461380,-2097.386080,1151.815922,0.000000,-0.000000,0.000000,2391.976224,-2392.900925,-2.591528,0.000000,-0.000000,-0.000000
0.740000,0.180000,0.263118,0.040000,-846.089994,2754.200000,1913.866409,-1916.699903,990.246616,0.000000,-0.000000,0.000000,2154.713565,-2157.547058,-0.097200,0.000000,-0.000000,-0.000000
0.780000,0.180000,0.301414,0.040000,-783.866835,3058.200000,1751.420533,-1750.387855,853.328213,0.000000,-0.000000,0.000000,1948.293146,-1947.260468,-0.213557,0.000000,-0.000000,-0.000000
0.820000,0.180000,0.340103,0.040000,-724.447521,3378.200000,1608.643799,-1607.744218,741.586751,0.000000,-0.000000,0.000000,1771.392717,-1770.493136,-0.175015,0.000000,-0.000000,-0.000000
0.860000,0.180000,0.379063,0.040000,-667.603408,3714.200000,1481.555666,-1480.772182,648.270098,0.000000,-0.000000,0.000000,1617.209812,-1616.426328,-0.144737,0.000000,-0.000000,-0.000000
0.900000,0.180000,0.418220,0.040000,-613.130976,4066.200000,1368.133486,-1367.450465,569.782558,0.000000,-0.000000,0.000000,1482.065856,-1481.382836,-0.120706,0.000000,-0.000000,-0.000000
0.940000,0.180000,0.457523,0.040000,-560.848598,4434.200000,1266.625688,-1266.029236,503.327405,0.000000,-0.000000,0.000000,1362.988105,-1362.391654,-0.101448,0.000000,-0.000000,-0.000000
0.980000,0.180000,0.496937,0.040000,-510.593730,4818.200000,1175.522275,-1175.000284,446.710047,0.000000,-0.000000,0.000000,1257.555286,-1257.033296,-0.085874,0.000000,-0.000000,-0.000000
1.020000,0.180000,0.536438,0.040000,-462.220492,5218.200000,1093.524097,-1093.066140,398.193915,0.000000,-0.000000,0.000000,1163.780699,-1163.322741,-0.073174,0.000000,-0.000000,-0.000000
1.060000,0.180000,0.576007,0.040000,-415.597590,5634.200000,1019.513814,-1019.110965,356.393956,0.000000,-0.000000,0.000000,1080.022889,-1079.620040,-0.062736,0.000000,-0.000000,-0.000000
1.100000,0.180000,0.615633,0.040000,-370.606523,6066.200000,952.529740,-952.174392,320.197189,0.000000,-0.000000,0.000000,1004.916792,-1004.561444,-0.054095,0.000000,-0.000000,-0.000000
1.140000,0.180000,0.655131,0.040000,-327.140046,6514.200000,891.742951,-891.428627,288.702926,0.000000,-0.000000,0.000000,937.320220,-937.005896,-0.046892,0.000000,-0.000000,-0.000000
1.180000,0.180000,0.694487,0.040000,-285.100835,6978.200000,836.437559,-836.158747,261.177392,0.000000,-0.000000,0.000000,876.271947,-875.993135,-0.040850,0.000000,-0.000000,-0.000000
1.220000,0.180000,0.733913,0.040000,-244.400350,7458.200000,785.570882,-784.294829,236.777622,0.000000,-0.000000,0.000000,820.505839,-819.229786,0.003753,0.000000,-0.000000,0.000000
1.260000,0.180000,0.773397,0.040000,-204.957832,7954.200000,739.381964,-738.594852,215.893535,0.000000,-0.000000,0.000000,770.272617,-769.485506,0.341040,0.000000,-0.000000,0.000000
1.300000,0.180000,0.812933,0.040000,-166.699449,8466.200000,697.090760,-696.097703,196.997038,0.000000,-0.000000,0.000000,724.410376,-723.417320,0.311304,0.000000,-0.000000,0.000000
-1.300000,0.220000,0.818909,0.040000,-161.003572,8474.200000,677.796892,-677.049172,-236.594091,0.000000,-0.000000,-0.000000,717.924176,-717.176456,-0.521678,0.000000,-0.000000,-0.000000
-1.260000,0.220000,0.779535,0.040000,-198.916821,7962.200000,717.198331,-717.000701,-259.237591,0.000000,-0.000000,-0.000000,762.617700,-762.420070,-0.891521,0.000000,-0.000000,-0.000000
-1.220000,0.220000,0.740229,0.040000,-237.979774,7466.200000,761.256014,-760.070776,-283.643353,0.000000,-0.000000,-0.000000,812.419168,-811.233930,-0.079592,0.000000,-0.000000,-0.000000
-1.180000,0.220000,0.701001,0.040000,-278.261708,6986.200000,808.774284,-808.528545,-312.438577,0.000000,-0.000000,-0.000000,867.034037,-866.788299,-0.045554,0.000000,-0.000000,-0.000000
-1.140000,0.220000,0.661866,0.040000,-319.838054,6522.200000,860.178912,-859.904700,-344.842488,0.000000,-0.000000,-0.000000,926.737476,-926.463264,-0.051892,0.000000,-0.000000,-0.000000
-1.100000,0.220000,0.622841,0.040000,-362.791104,6074.200000,916.363235,-916.056819,-381.818481,0.000000,-0.000000,-0.000000,992.738803,-992.432386,-0.059356,0.000000,-0.000000,-0.000000
-1.060000,0.220000,0.583519,0.040000,-407.210801,5642.200000,977.888573,-977.545781,-424.188255,0.000000,-0.000000,-0.000000,1065.941797,-1065.599005,-0.068192,0.000000,-0.000000,-0.000000
-1.020000,0.220000,0.544179,0.040000,-453.195642,5226.200000,1045.388801,-1045.005030,-472.953702,0.000000,-0.000000,-0.000000,1147.415399,-1147.031628,-0.078708,0.000000,-0.000000,-0.000000
-0.980000,0.220000,0.504943,0.040000,-500.853690,4826.200000,1119.577767,-1119.148040,-529.343624,0.000000,-0.000000,-0.000000,1238.430504,-1238.000777,-0.091298,0.000000,-0.000000,-0.000000
-0.940000,0.220000,0.465836,0.040000,-550.303715,4442.200000,1201.255611,-1200.774721,-594.874403,0.000000,-0.000000,-0.000000,1340.506453,-1340.025563,-0.106468,0.000000,-0.000000,-0.000000
-0.900000,0.220000,0.426895,0.040000,-601.676481,4074.200000,1291.312438,-1290.775241,-671.429296,0.000000,-0.000000,-0.000000,1455.470124,-1454.932927,-0.124874,0.000000,-0.000000,-0.000000
-0.860000,0.220000,0.388169,0.040000,-655.116165,3722.200000,1390.726637,-1390.128601,-761.362760,0.000000,-0.000000,-0.000000,1585.531554,-1584.933519,-0.147371,0.000000,-0.000000,-0.000000
-0.820000,0.220000,0.349730,0.040000,-710.781920,3386.200000,1500.553307,-1499.891486,-867.638545,0.000000,-0.000000,-0.000000,1733.381358,-1732.719537,-0.175099,0.000000,-0.000000,-0.000000
-0.780000,0.220000,0.311685,0.040000,-768.849567,3066.200000,1621.895141,-1621.169853,-994.013586,0.000000,-0.000000,-0.000000,1902.317061,-1901.591773,-0.209585,0.000000,-0.000000,-0.000000
-0.740000,0.220000,0.273007,0.040000,-829.513348,2762.200000,1757.405240,-1760.684597,-1147.075979,0.000000,-0.000000,-0.000000,2098.365627,-2101.644984,0.209223,0.000000,-0.000000,0.000000
-0.700000,0.220000,0.234298,0.040000,-892.987663,2474.200000,1904.366742,-1902.700812,-1328.534333,0.000000,-0.000000,-0.000000,2322.135140,-2320.469209,-0.728749,0.000000,-0.000000,-0.000000
-0.660000,0.220000,0.196108,0.040000,-959.508605,2202.200000,2070.953065,-2072.474436,-1549.099625,0.000000,-0.000000,-0.000000,2586.070090,-2587.591461,3.748550,0.000000,-0.000000,0.000000
0.660000,0.220000,0.197251,0.040000,-959.032892,2202.200000,2069.441650,-2070.962773,1546.929914,0.000000,-0.000000,0.000000,2583.559156,-2585.080279,-4.577396,0.000000,-0.000000,-0.000000
0.700000,0.220000,0.234687,0.040000,-892.548072,2474.200000,1902.991105,-1901.329231,1326.751044,0.000000,-0.000000,0.000000,2319.986308,-2318.324434,0.051875,0.000000,-0.000000,0.000000
0.740000,0.220000,0.272485,0.040000,-829.107679,2762.200000,1756.152828,-1759.427656,1145.600545,0.000000,-0.000000,0.000000,2096.510952,-2099.785781,-0.759582,0.000000,-0.000000,-0.000000
0.780000,0.220000,0.310835,0.040000,-768.475819,3066.200000,1620.761290,-1620.036551,992.787190,0.000000,-0.000000,0.000000,1900.709445,-1899.984706,-0.243732,0.000000,-0.000000,-0.000000
0.820000,0.220000,0.349555,0.040000,-710.438278,3386.200000,1499.526821,-1498.865573,866.610408,0.000000,-0.000000,0.000000,1731.978047,-1731.316799,-0.201295,0.000000,-0.000000,-0.000000
0.860000,0.220000,0.388534,0.040000,-654.800985,3722.200000,1389.797637,-1389.200159,760.495286,0.000000,-0.000000,0.000000,1584.300077,-1583.702600,-0.167565,0.000000,-0.000000,-0.000000
0.900000,0.220000,0.427702,0.040000,-601.388276,4074.200000,1290.471264,-1289.934590,670.692925,0.000000,-0.000000,0.000000,1454.384073,-1453.847398,-0.140526,0.000000,-0.000000,-0.000000
0.940000,0.220000,0.466296,0.040000,-550.041139,4442.200000,1200.493191,-1200.012779,594.245730,0.000000,-0.000000,0.000000,1339.544205,-1339.063792,-0.118670,0.000000,-0.000000,-0.000000
0.980000,0.220000,0.505026,0.040000,-500.615521,4826.200000,1118.885781,-1118.456486,528.803989,0.000000,-0.000000,0.000000,1237.574237,-1237.144942,-0.100867,0.000000,-0.000000,-0.000000
1.020000,0.220000,0.543940,0.040000,-452.980774,5226.200000,1044.759736,-1044.376351,472.488126,0.000000,-0.000000,0.000000,1146.650335,-1146.266950,-0.086257,0.000000,-0.000000,-0.000000
1.060000,0.220000,0.583000,0.040000,-407.018226,5642.200000,977.315703,-976.973254,423.784637,0.000000,-0.000000,0.000000,1065.255608,-1064.913160,-0.074184,0.000000,-0.000000,-0.000000
1.100000,0.220000,0.622181,0.040000,-362.619904,6074.200000,915.840578,-915.534465,381.466982,0.000000,-0.000000,0.000000,992.121146,-991.815034,-0.064140,0.000000,-0.000000,-0.000000
1.140000,0.220000,0.661459,0.040000,-319.687393,6522.200000,859.701163,-859.427219,344.535062,0.000000,-0.000000,0.000000,926.179630,-925.905687,-0.055733,0.000000,-0.000000,-0.000000
1.180000,0.220000,0.700819,0.040000,-278.130821,6986.200000,808.336750,-808.091250,312.168607,0.000000,-0.000000,0.000000,866.528606,-866.283105,-0.048654,0.000000,-0.000000,-0.000000
1.220000,0.220000,0.740247,0.040000,-237.867962,7466.200000,760.854845,-759.670540,283.405670,0.000000,-0.000000,0.000000,811.960217,-810.775912,-0.003155,0.000000,-0.000000,-0.000000
1.260000,0.220000,0.779734,0.040000,-198.823440,7962.200000,716.830199,-716.632696,259.026584,0.000000,-0.000000,0.000000,762.199841,-762.002338,0.817729,0.000000,-0.000000,0.000000
1.300000,0.220000,0.819270,0.040000,-160.928032,8474.200000,677.457632,-676.710412,236.407004,0.000000,-0.000000,0.000000,717.542234,-716.795014,0.456556,0.000000,-0.000000,0.000000
-1.300000,0.260000,0.826729,0.040000,-154.143935,8483.800000,655.652547,-654.781221,-273.732521,0.000000,-0.000000,-0.000000,710.532987,-709.661661,-0.669679,0.000000,-0.000000,-0.000000
-1.260000,0.260000,0.787444,0.040000,-191.630266,7971.800000,692.393131,-691.755383,-298.731337,0.000000,-0.000000,-0.000000,754.113969,-753.476222,-0.377344,0.000000,-0.000000,-0.000000
-1.220000,0.260000,0.748134,0.040000,-230.225718,7475.800000,732.602994,-731.511909,-326.980199,0.000000,-0.000000,-0.000000,802.308695,-801.217610,-0.100398,0.000000,-0.000000,-0.000000
-1.180000,0.260000,0.708901,0.040000,-269.994334,6995.800000,776.367400,-776.158332,-359.595222,0.000000,-0.000000,-0.000000,855.611845,-855.402776,-0.052641,0.000000,-0.000000,-0.000000
-1.140000,0.260000,0.669759,0.040000,-311.005455,6531.800000,823.330206,-823.100173,-396.171960,0.000000,-0.000000,-0.000000,913.698875,-913.468842,-0.059896,0.000000,-0.000000,-0.000000
-1.100000,0.260000,0.630724,0.040000,-353.334256,6083.800000,874.300187,-874.047267,-437.775557,0.000000,-0.000000,-0.000000,977.790583,-977.537664,-0.068428,0.000000,-0.000000,-0.000000
-1.060000,0.260000,0.591818,0.040000,-397.062321,5651.800000,929.675480,-929.397813,-485.278526,0.000000,-0.000000,-0.000000,1048.725320,-1048.447652,-0.078513,0.000000,-0.000000,-0.000000
-1.020000,0.260000,0.553068,0.040000,-442.278289,5235.800000,989.886271,-989.582217,-539.736137,0.000000,-0.000000,-0.000000,1127.489139,-1127.185084,-0.090498,0.000000,-0.000000,-0.000000
-0.980000,0.260000,0.514510,0.040000,-489.078538,4835.800000,1055.390716,-1055.059120,-602.430981,0.000000,-0.000000,-0.000000,1215.247154,-1214.915559,-0.104826,0.000000,-0.000000,-0.000000
-0.940000,0.260000,0.476190,0.040000,-537.567916,4451.800000,1126.666159,-1126.306773,-674.929771,0.000000,-0.000000,-0.000000,1313.382625,-1313.023239,-0.122065,0.000000,-0.000000,-0.000000
-0.900000,0.260000,0.437927,0.040000,-587.860506,4083.800000,1204.192867,-1203.807010,-759.156013,0.000000,-0.000000,-0.000000,1423.545901,-1423.160043,-0.142950,0.000000,-0.000000,-0.000000
-0.860000,0.260000,0.399177,0.040000,-640.080391,3731.800000,1288.425961,-1288.017552,-857.483238,0.000000,-0.000000,-0.000000,1547.716004,-1547.307595,-0.168442,0.000000,-0.000000,-0.000000
-0.820000,0.260000,0.360701,0.040000,-694.362377,3395.800000,1379.748860,-1379.326045,-972.854881,0.000000,-0.000000,-0.000000,1688.278397,-1687.855583,-0.199814,0.000000,-0.000000,-0.000000
-0.780000,0.260000,0.322596,0.040000,-750.852602,3075.800000,1478.397834,-1477.975512,-1108.938474,0.000000,-0.000000,-0.000000,1848.123583,-1847.701262,-0.238775,0.000000,-0.000000,-0.000000
-0.740000,0.260000,0.285010,0.040000,-809.708902,2771.800000,1585.259313,-1587.578899,-1271.818862,0.000000,-0.000000,-0.000000,2032.125429,-2034.445016,-0.030855,0.000000,-0.000000,-0.000000
-0.700000,0.260000,0.248181,0.040000,-871.100745,2483.800000,1698.609706,-1697.643267,-1462.311760,0.000000,-0.000000,-0.000000,2241.462611,-2240.496172,0.784709,0.000000,-0.000000,0.000000
-0.660000,0.260000,0.210185,0.040000,-935.208418,2211.800000,1821.618313,-1821.447886,-1693.495837,0.000000,-0.000000,-0.000000,2487.231382,-2487.060955,3.862662,0.000000,-0.000000,0.000000
-0.620000,0.260000,0.172705,0.040000,-1002.220991,1955.800000,1941.798177,-1942.284395,-1969.152674,0.000000,-0.000000,-0.000000,2765.450478,-2765.936696,5.058724,0.000000,-0.000000,0.000000
0.620000,0.260000,0.174191,0.040000,-1001.733798,1955.800000,1940.710036,-1941.198264,1966.439066,0.000000,-0.000000,0.000000,2762.751969,-2763.240197,-6.185225,0.000000,-0.000000,-0.000000
0.660000,0.260000,0.210016,0.040000,-934.755832,2211.800000,1820.538524,-1820.369814,1691.249849,0.000000,-0.000000,0.000000,2484.909638,-2484.740928,-4.769329,0.000000,-0.000000,-0.000000
0.700000,0.260000,0.247125,0.040000,-870.681052,2483.800000,1697.578806,-1696.616166,1460.442694,0.000000,-0.000000,0.000000,2239.461088,-2238.498449,-1.528857,0.000000,-0.000000,-0.000000
0.740000,0.260000,0.285018,0.040000,-809.320457,2771.800000,1584.284182,-1586.599899,1270.253284,0.000000,-0.000000,0.000000,2030.385775,-2032.701492,-0.579520,0.000000,-0.000000,-0.000000
0.780000,0.260000,0.323418,0.040000,-750.493846,3075.800000,1477.487466,-1477.065047,1107.623468,0.000000,-0.000000,0.000000,1846.606296,-1846.183876,-0.266979,0.000000,-0.000000,-0.000000
0.820000,0.260000,0.361117,0.040000,-694.031854,3395.800000,1378.904061,-1378.481321,971.742897,0.000000,-0.000000,0.000000,1686.947195,-1686.524456,-0.222243,0.000000,-0.000000,-0.000000
0.860000,0.260000,0.398969,0.040000,-639.776749,3731.800000,1287.645588,-1287.237351,856.537901,0.000000,-0.000000,0.000000,1546.542593,-1546.134357,-0.186268,0.000000,-0.000000,-0.000000
0.900000,0.260000,0.437203,0.040000,-587.582497,4083.800000,1203.474017,-1203.088382,758.348195,0.000000,-0.000000,0.000000,1422.506990,-1422.121355,-0.157135,0.000000,-0.000000,-0.000000
0.940000,0.260000,0.475727,0.040000,-537.314389,4451.800000,1126.005011,-1125.645870,674.236036,0.000000,-0.000000,0.000000,1312.458938,-1312.099796,-0.133379,0.000000,-0.000000,-0.000000
0.980000,0.260000,0.514477,0.040000,-488.848434,4835.800000,1054.783054,-1054.451706,601.832383,0.000000,-0.000000,0.000000,1214.422658,-1214.091310,-0.113877,0.000000,-0.000000,-0.000000
1.020000,0.260000,0.553405,0.040000,-442.070636,5235.800000,989.327804,-989.023990,539.217283,0.000000,-0.000000,0.000000,1126.750426,-1126.446612,-0.097765,0.000000,-0.000000,-0.000000
1.060000,0.260000,0.592475,0.040000,-396.876225,5651.800000,929.162028,-928.884588,484.826843,0.000000,-0.000000,0.000000,1048.061125,-1047.783686,-0.084370,0.000000,-0.000000,-0.000000
1.100000,0.260000,0.631200,0.040000,-353.168895,6083.800000,873.827790,-873.575082,437.380725,0.000000,-0.000000,0.000000,977.191394,-976.938686,-0.073169,0.000000,-0.000000,-0.000000
1.140000,0.260000,0.669950,0.040000,-310.860074,6531.800000,822.895176,-822.665337,395.825468,0.000000,-0.000000,0.000000,913.156620,-912.926781,-0.063750,0.000000,-0.000000,-0.000000
1.180000,0.260000,0.708838,0.040000,-269.868235,6995.800000,775.966342,-775.757452,359.290014,0.000000,-0.000000,0.000000,855.119646,-854.910756,-0.055787,0.000000,-0.000000,-0.000000
1.220000,0.260000,0.747844,0.040000,-230.118259,7475.800000,732.233147,-731.142827,326.710721,0.000000,-0.000000,0.000000,801.861081,-800.770761,0.004970,0.000000,-0.000000,0.000000
1.260000,0.260000,0.786950,0.040000,-191.540856,7971.800000,692.051565,-691.414230,298.491970,0.000000,-0.000000,0.000000,753.705535,-753.068200,0.292653,0.000000,-0.000000,0.000000
1.300000,0.260000,0.826141,0.040000,-154.072025,8483.800000,655.336177,-654.465461,273.519278,0.000000,-0.000000,0.000000,710.158914,-709.288197,0.594403,0.000000,-0.000000,0.000000
-1.300000,0.300000,0.834617,0.040000,-146.235132,8495.000000,630.408584,-629.650719,-307.973868,0.000000,-0.000000,-0.000000,701.652562,-700.894697,-0.750034,0.000000,-0.000000,-0.000000
-1.260000,0.300000,0.795627,0.040000,-183.235391,7983.000000,663.813815,-663.264329,-335.575111,0.000000,-0.000000,-0.000000,743.843471,-743.293985,-0.549445,0.000000,-0.000000,-0.000000
-1.220000,0.300000,0.756742,0.040000,-221.299379,7487.000000,700.665628,-700.153402,-367.190406,0.000000,-0.000000,-0.000000,791.079759,-790.567533,-0.493727,0.000000,-0.000000,-0.000000
-1.180000,0.300000,0.717979,0.040000,-260.485424,7007.000000,740.117214,-739.346018,-402.142873,0.000000,-0.000000,-0.000000,842.360511,-841.589315,-0.014095,0.000000,-0.000000,-0.000000
-1.140000,0.300000,0.679360,0.040000,-300.856246,6543.000000,782.479909,-782.295991,-442.498979,0.000000,-0.000000,-0.000000,898.944698,-898.760780,-0.067219,0.000000,-0.000000,-0.000000
-1.100000,0.300000,0.640911,0.040000,-342.479316,6095.000000,827.837245,-827.639710,-487.863459,0.000000,-0.000000,-0.000000,960.911828,-960.714292,-0.076676,0.000000,-0.000000,-0.000000
-1.060000,0.300000,0.602663,0.040000,-385.427226,5663.000000,876.631678,-876.420816,-539.451707,0.000000,-0.000000,-0.000000,1029.331547,-1029.120686,-0.087831,0.000000,-0.000000,-0.000000
-1.020000,0.300000,0.564083,0.040000,-429.778067,5247.000000,929.093487,-928.870370,-598.328259,0.000000,-0.000000,-0.000000,1105.102110,-1104.878993,-0.101059,0.000000,-0.000000,-0.000000
-0.980000,0.300000,0.525502,0.040000,-475.615796,4847.000000,985.433470,-985.200361,-665.773290,0.000000,-0.000000,-0.000000,1189.277386,-1189.044277,-0.116837,0.000000,-0.000000,-0.000000
-0.940000,0.300000,0.487150,0.040000,-523.030573,4463.000000,1045.821748,-1045.582716,-743.331961,0.000000,-0.000000,-0.000000,1283.098683,-1282.859651,-0.135770,0.000000,-0.000000,-0.000000
-0.900000,0.300000,0.449085,0.040000,-572.119027,4095.000000,1110.355736,-1110.117557,-832.875787,0.000000,-0.000000,-0.000000,1388.033879,-1387.795700,-0.158642,0.000000,-0.000000,-0.000000
-0.860000,0.300000,0.411389,0.040000,-622.984411,3743.000000,1179.012165,-1178.785646,-936.678773,0.000000,-0.000000,-0.000000,1505.825622,-1505.599102,-0.186470,0.000000,-0.000000,-0.000000
-0.820000,0.300000,0.374170,0.040000,-675.736556,3407.000000,1251.575606,-1251.377537,-1057.511423,0.000000,-0.000000,-0.000000,1638.550734,-1638.352665,-0.220592,0.000000,-0.000000,-0.000000
-0.780000,0.300000,0.336676,0.040000,-730.491521,3087.000000,1327.532394,-1327.388430,-1198.755791,0.000000,-0.000000,-0.000000,1788.693385,-1788.549421,-0.262785,0.000000,-0.000000,-0.000000
-0.740000,0.300000,0.298998,0.040000,-787.370750,2783.000000,1405.913513,-1405.862418,-1364.544092,0.000000,-0.000000,-0.000000,1959.234941,-1959.183847,-0.315433,0.000000,-0.000000,-0.000000
-0.700000,0.300000,0.262010,0.040000,-846.499511,2495.000000,1486.895875,-1490.094116,-1561.424938,0.000000,-0.000000,-0.000000,2155.636177,-2158.834417,1.030902,0.000000,-0.000000,0.000000
-0.660000,0.300000,0.226051,0.040000,-908.004208,2223.000000,1565.533955,-1561.818889,-1793.280238,0.000000,-0.000000,-0.000000,2381.129880,-2377.414814,-1.030797,0.000000,-0.000000,-0.000000
-0.620000,0.300000,0.189802,0.040000,-972.008041,1967.000000,1639.063545,-1638.395280,-2064.510694,0.000000,-0.000000,-0.000000,2636.168696,-2635.500432,3.826714,0.000000,-0.000000,0.000000
0.620000,0.300000,0.189321,0.040000,-971.549636,1967.000000,1638.468406,-1637.802981,2061.856895,0.000000,-0.000000,0.000000,2633.717858,-2633.052434,-5.008027,0.000000,-0.000000,-0.000000
0.660000,0.300000,0.225472,0.040000,-907.576467,2223.000000,1564.861391,-1561.153545,1791.042529,0.000000,-0.000000,0.000000,2379.000465,-2375.292619,0.063433,0.000000,-0.000000,0.000000
0.700000,0.300000,0.262741,0.040000,-846.101369,2495.000000,1486.193192,-1489.387821,1559.537447,0.000000,-0.000000,0.000000,2153.785324,-2156.979953,-1.822472,0.000000,-0.000000,-0.000000
0.740000,0.300000,0.299389,0.040000,-787.001088,2783.000000,1405.209513,-1405.157370,1362.946480,0.000000,-0.000000,0.000000,1957.617320,-1957.565177,-0.340557,0.000000,-0.000000,-0.000000
0.780000,0.300000,0.336152,0.040000,-730.149214,3087.000000,1326.843897,-1326.699304,1197.397361,0.000000,-0.000000,0.000000,1787.272128,-1787.127535,-0.283959,0.000000,-0.000000,-0.000000
0.820000,0.300000,0.373581,0.040000,-675.420505,3407.000000,1250.913853,-1250.715434,1056.351636,0.000000,-0.000000,0.000000,1637.296814,-1637.098394,-0.238211,0.000000,-0.000000,-0.000000
0.860000,0.300000,0.411493,0.040000,-622.693556,3743.000000,1178.383456,-1178.156769,935.684446,0.000000,-0.000000,0.000000,1504.714885,-1504.488199,-0.201015,0.000000,-0.000000,-0.000000
0.900000,0.300000,0.449768,0.040000,-571.852363,4095.000000,1109.763114,-1109.524887,832.019757,0.000000,-0.000000,0.000000,1387.046168,-1386.807941,-0.170594,0.000000,-0.000000,-0.000000
0.940000,0.300000,0.487579,0.040000,-522.787151,4463.000000,1045.266139,-1045.027135,742.591955,0.000000,-0.000000,0.000000,1282.217112,-1281.978108,-0.145570,0.000000,-0.000000,-0.000000
0.980000,0.300000,0.525456,0.040000,-475.394728,4847.000000,984.914454,-984.681419,665.131004,0.000000,-0.000000,0.000000,1188.487761,-1188.254726,-0.124868,0.000000,-0.000000,-0.000000
1.020000,0.300000,0.563626,0.040000,-429.578522,5247.000000,928.609814,-928.386798,597.768604,0.000000,-0.000000,0.000000,1104.392449,-1104.169433,-0.107645,0.000000,-0.000000,-0.000000
1.060000,0.300000,0.602033,0.040000,-385.248430,5663.000000,876.181612,-875.970866,538.962204,0.000000,-0.000000,0.000000,1028.691697,-1028.480951,-0.093238,0.000000,-0.000000,-0.000000
1.100000,0.300000,0.640636,0.040000,-342.320549,6095.000000,827.418799,-827.221384,487.433748,0.000000,-0.000000,0.000000,960.333151,-960.135736,-0.081125,0.000000,-0.000000,-0.000000
1.140000,0.300000,0.679400,0.040000,-300.716839,6543.000000,782.090991,-781.907194,442.120430,0.000000,-0.000000,0.000000,898.419818,-898.236020,-0.070889,0.000000,-0.000000,-0.000000
1.180000,0.300000,0.718300,0.040000,-260.364753,7007.000000,739.755905,-738.985346,401.808553,0.000000,-0.000000,0.000000,841.883363,-841.112803,-0.107220,0.000000,-0.000000,-0.000000
1.220000,0.300000,0.757314,0.040000,-221.196866,7487.000000,700.329828,-699.817763,366.893555,0.000000,-0.000000,0.000000,790.644576,-790.132511,0.386422,0.000000,-0.000000,0.000000
1.260000,0.300000,0.796113,0.040000,-183.150499,7983.000000,663.501908,-662.952721,335.311059,0.000000,-0.000000,0.000000,743.446021,-742.896834,0.454216,0.000000,-0.000000,0.000000
1.300000,0.300000,0.834874,0.040000,-146.167360,8495.000000,630.117782,-629.360392,307.738047,0.000000,-0.000000,0.000000,701.287805,-700.530415,0.665386,0.000000,-0.000000,0.000000
-1.260000,0.340000,0.805714,0.040000,-173.777462,7995.800000,632.552629,-632.326761,-368.956772,0.000000,-0.000000,-0.000000,732.307270,-732.081402,-0.722192,0.000000,-0.000000,-0.000000
-1.220000,0.340000,0.767341,0.040000,-211.251714,7499.800000,665.559051,-666.015644,-403.033902,0.000000,-0.000000,-0.000000,778.044644,-778.501236,-0.590871,0.000000,-0.000000,-0.000000
-1.180000,0.340000,0.728997,0.040000,-249.792528,7019.800000,700.973261,-699.969238,-440.410090,0.000000,-0.000000,-0.000000,827.920279,-826.916257,-0.170738,0.000000,-0.000000,-0.000000
-1.140000,0.340000,0.690362,0.040000,-289.455643,6555.800000,738.429077,-738.291509,-483.514633,0.000000,-0.000000,-0.000000,882.657203,-882.519635,-0.073789,0.000000,-0.000000,-0.000000
-1.100000,0.340000,0.651891,0.040000,-330.300453,6107.800000,777.936400,-777.794003,-531.756708,0.000000,-0.000000,-0.000000,942.323532,-942.181135,-0.084015,0.000000,-0.000000,-0.000000
-1.060000,0.340000,0.613616,0.040000,-372.390178,5675.800000,819.917450,-819.772392,-586.372258,0.000000,-0.000000,-0.000000,1008.029924,-1007.884867,-0.096044,0.000000,-0.000000,-0.000000
-1.020000,0.340000,0.575576,0.040000,-415.791991,5259.800000,864.416043,-864.271699,-648.395736,0.000000,-0.000000,-0.000000,1080.584710,-1080.440366,-0.110266,0.000000,-0.000000,-0.000000
-0.980000,0.340000,0.537820,0.040000,-460.577088,4859.800000,911.416243,-911.277697,-719.055941,0.000000,-0.000000,-0.000000,1160.928752,-1160.790206,-0.127173,0.000000,-0.000000,-0.000000
-0.940000,0.340000,0.500413,0.040000,-506.820661,4475.800000,960.812146,-960.686908,-799.815582,0.000000,-0.000000,-0.000000,1250.160454,-1250.035216,-0.147387,0.000000,-0.000000,-0.000000
-0.900000,0.340000,0.463167,0.040000,-554.601723,4107.800000,1012.365075,-1012.264086,-892.418566,0.000000,-0.000000,-0.000000,1349.565844,-1349.464855,-0.171704,0.000000,-0.000000,-0.000000
-0.860000,0.340000,0.425409,0.040000,-604.002720,3755.800000,1065.643030,-1065.582077,-998.945902,0.000000,-0.000000,-0.000000,1460.654655,-1460.593702,-0.201148,0.000000,-0.000000,-0.000000
-0.820000,0.340000,0.388101,0.040000,-655.108835,3419.800000,1119.935149,-1119.936861,-1121.880585,0.000000,-0.000000,-0.000000,1585.203436,-1585.205148,-0.237047,0.000000,-0.000000,-0.000000
-0.780000,0.340000,0.351386,0.040000,-708.006840,3099.800000,1174.131008,-1174.227653,-1264.180724,0.000000,-0.000000,-0.000000,1725.306691,-1725.403337,-0.281138,0.000000,-0.000000,-0.000000
-0.740000,0.340000,0.315470,0.040000,-762.783302,2795.800000,1226.550580,-1226.787982,-1429.357917,0.000000,-0.000000,-0.000000,1883.436838,-1883.674240,-0.335703,0.000000,-0.000000,-0.000000
-0.700000,0.340000,0.279036,0.040000,-819.521875,2507.800000,1275.525315,-1278.460267,-1622.950670,0.000000,-0.000000,-0.000000,2063.642531,-2066.577483,0.356403,0.000000,-0.000000,0.000000
-0.660000,0.340000,0.242825,0.040000,-878.299291,2235.800000,1319.198937,-1316.548017,-1842.552101,0.000000,-0.000000,-0.000000,2266.668159,-2264.017239,3.347141,0.000000,-0.000000,0.000000
-0.620000,0.340000,0.208008,0.040000,-939.179508,1979.800000,1350.492668,-1343.196543,-2108.811949,0.000000,-0.000000,-0.000000,2505.861958,-2498.565832,1.962068,0.000000,-0.000000,0.000000
-0.580000,0.340000,0.173387,0.040000,-1002.205275,1739.800000,1356.360287,-1352.975393,-2411.184621,0.000000,-0.000000,-0.000000,2767.360309,-2763.975415,4.184583,0.000000,-0.000000,0.000000
0.580000,0.340000,0.172875,0.040000,-1001.749514,1739.800000,1356.410159,-1353.035566,2408.258589,0.000000,-0.000000,0.000000,2764.828879,-2761.454286,-5.661948,0.000000,-0.000000,-0.000000
0.620000,0.340000,0.207703,0.040000,-938.750846,1979.800000,1350.318188,-1343.034035,2106.301552,0.000000,-0.000000,0.000000,2503.648623,-2496.364470,-3.169583,0.000000,-0.000000,-0.000000
0.660000,0.340000,0.243939,0.040000,-877.897472,2235.800000,1318.887283,-1316.239783,1840.406075,0.000000,-0.000000,0.000000,2264.739165,-2262.091666,-4.340656,0.000000,-0.000000,-0.000000
0.700000,0.340000,0.278749,0.040000,-819.146409,2507.800000,1275.124453,-1278.054834,1621.106156,0.000000,-0.000000,0.000000,2061.945795,-2064.876175,-1.179864,0.000000,-0.000000,-0.000000
0.740000,0.340000,0.314796,0.040000,-762.433553,2795.800000,1226.098484,-1226.334381,1427.775482,0.000000,-0.000000,0.000000,1881.941946,-1882.177842,-0.351478,0.000000,-0.000000,-0.000000
0.780000,0.340000,0.351698,0.040000,-707.682086,3099.800000,1173.653544,-1173.749166,1262.819150,0.000000,-0.000000,0.000000,1723.984378,-1724.080000,-0.295471,0.000000,-0.000000,-0.000000
0.820000,0.340000,0.388794,0.040000,-654.808314,3419.800000,1119.450417,-1119.451446,1120.705953,0.000000,-0.000000,0.000000,1584.029838,-1584.030867,-0.249701,0.000000,-0.000000,-0.000000
0.860000,0.340000,0.425353,0.040000,-603.725657,3755.800000,1065.163127,-1065.101730,997.929564,0.000000,-0.000000,0.000000,1459.609562,-1459.548165,-0.212110,0.000000,-0.000000,-0.000000
0.900000,0.340000,0.462482,0.040000,-554.347352,4107.800000,1011.897878,-1011.796612,891.536443,0.000000,-0.000000,0.000000,1348.632126,-1348.530860,-0.181080,0.000000,-0.000000,-0.000000
0.940000,0.340000,0.500054,0.040000,-506.588235,4475.800000,960.362580,-960.237182,799.047485,0.000000,-0.000000,0.000000,1249.323569,-1249.198171,-0.155340,0.000000,-0.000000,-0.000000
0.980000,0.340000,0.537976,0.040000,-460.365887,4859.800000,910.987180,-910.848554,718.384955,0.000000,-0.000000,0.000000,1160.176328,-1160.037702,-0.133882,0.000000,-0.000000,-0.000000
1.020000,0.340000,0.576179,0.040000,-415.601328,5259.800000,864.008936,-863.864566,647.807680,0.000000,-0.000000,0.000000,1079.906193,-1079.761824,-0.115907,0.000000,-0.000000,-0.000000
1.060000,0.340000,0.614053,0.040000,-372.219403,5675.800000,819.532784,-819.387737,585.855229,0.000000,-0.000000,0.000000,1007.416287,-1007.271241,-0.100778,0.000000,-0.000000,-0.000000
1.100000,0.340000,0.651945,0.040000,-330.148950,6107.800000,777.574012,-777.431650,531.300697,0.000000,-0.000000,0.000000,941.767031,-941.624669,-0.087987,0.000000,-0.000000,-0.000000
1.140000,0.340000,0.690074,0.040000,-289.322832,6555.800000,738.088377,-737.950859,483.111203,0.000000,-0.000000,0.000000,882.151173,-882.013656,-0.077122,0.000000,-0.000000,-0.000000
1.180000,0.340000,0.728404,0.040000,-249.677864,7019.800000,700.653636,-699.650321,440.052428,0.000000,-0.000000,0.000000,827.459293,-826.455978,0.037794,0.000000,-0.000000,0.000000
1.220000,0.340000,0.766904,0.040000,-211.154685,7499.800000,665.259646,-665.715659,402.715213,0.000000,-0.000000,0.000000,777.623608,-778.079621,0.473122,0.000000,-0.000000,0.000000
1.260000,0.340000,0.805551,0.040000,-173.697587,7995.800000,632.272400,-632.046475,368.672409,0.000000,-0.000000,0.000000,731.922035,-731.696110,0.617414,0.000000,-0.000000,0.000000
-1.260000,0.380000,0.816706,0.040000,-163.305788,8010.200000,600.181153,-599.753827,-399.020471,0.000000,-0.000000,-0.000000,720.753550,-720.326224,-0.772214,0.000000,-0.000000,-0.000000
-1.220000,0.380000,0.778313,0.040000,-200.138065,7514.200000,628.889608,-628.664885,-434.366352,0.000000,-0.000000,-0.000000,764.334006,-764.109283,-0.481452,0.000000,-0.000000,-0.000000
-1.180000,0.380000,0.740091,0.040000,-237.977941,7034.200000,659.635031,-658.902677,-473.916374,0.000000,-0.000000,-0.000000,812.297289,-811.564936,-0.140113,0.000000,-0.000000,-0.000000
-1.140000,0.380000,0.702066,0.040000,-276.873982,6570.200000,691.983018,-691.890519,-519.052021,0.000000,-0.000000,-0.000000,865.026877,-864.934378,-0.079556,0.000000,-0.000000,-0.000000
-1.100000,0.380000,0.664274,0.040000,-316.877337,6122.200000,725.555586,-725.466218,-569.303239,0.000000,-0.000000,-0.000000,922.255201,-922.165833,-0.090385,0.000000,-0.000000,-0.000000
-1.060000,0.380000,0.626756,0.040000,-358.041715,5690.200000,760.675962,-760.593418,-625.917088,0.000000,-0.000000,-0.000000,985.098287,-985.015743,-0.103081,0.000000,-0.000000,-0.000000
-1.020000,0.380000,0.589564,0.040000,-400.423300,5274.200000,797.222341,-797.151802,-689.865254,0.000000,-0.000000,-0.000000,1054.274939,-1054.204400,-0.118036,0.000000,-0.000000,-0.000000
-0.980000,0.380000,0.551857,0.040000,-444.080548,4874.200000,834.981666,-834.930338,-762.285782,0.000000,-0.000000,-0.000000,1130.614502,-1130.563174,-0.135741,0.000000,-0.000000,-0.000000
-0.940000,0.380000,0.514388,0.040000,-489.073842,4490.200000,873.613977,-873.591824,-844.511787,0.000000,-0.000000,-0.000000,1215.075751,-1215.053598,-0.156810,0.000000,-0.000000,-0.000000
-0.900000,0.380000,0.477331,0.040000,-535.464951,4122.200000,912.603867,-912.624606,-938.103752,0.000000,-0.000000,-0.000000,1308.768970,-1308.789710,-0.182020,0.000000,-0.000000,-0.000000
-0.860000,0.380000,0.440788,0.040000,-583.316192,3770.200000,951.194482,-951.276926,-1044.884706,0.000000,-0.000000,-0.000000,1412.981555,-1413.063999,-0.212355,0.000000,-0.000000,-0.000000
-0.820000,0.380000,0.404900,0.040000,-632.689215,3434.200000,988.297899,-988.467764,-1166.976558,0.000000,-0.000000,-0.000000,1529.207337,-1529.377203,-0.249072,0.000000,-0.000000,-0.000000
-0.780000,0.380000,0.368371,0.040000,-683.643253,3114.200000,1022.373761,-1022.666084,-1306.833985,0.000000,-0.000000,-0.000000,1659.179596,-1659.471919,-0.293782,0.000000,-0.000000,-0.000000
-0.740000,0.380000,0.332266,0.040000,-736.232638,2810.200000,1051.265586,-1051.727905,-1467.269261,0.000000,-0.000000,-0.000000,1804.907165,-1805.369484,-0.348550,0.000000,-0.000000,-0.000000
-0.700000,0.380000,0.297159,0.040000,-790.503336,2522.200000,1071.981427,-1072.677891,-1651.456321,0.000000,-0.000000,-0.000000,1968.712129,-1969.408593,-0.416024,0.000000,-0.000000,-0.000000
-0.660000,0.380000,0.262827,0.040000,-846.488136,2250.200000,1081.820531,-1084.487912,-1863.482955,0.000000,-0.000000,-0.000000,2154.075896,-2156.743276,1.144691,0.000000,-0.000000,0.000000
-0.620000,0.380000,0.227619,0.040000,-904.200020,1994.200000,1073.859591,-1068.811698,-2105.322132,0.000000,-0.000000,-0.000000,2364.756063,-2359.708170,-0.877375,0.000000,-0.000000,-0.000000
-0.580000,0.380000,0.194276,0.040000,-963.623129,1754.200000,1040.170230,-1038.448621,-2380.342446,0.000000,-0.000000,-0.000000,2598.203483,-2596.481875,2.291691,0.000000,-0.000000,0.000000
-0.540000,0.380000,0.161243,0.040000,-1024.700523,1530.200000,971.508341,-967.487469,-2694.625583,0.000000,-0.000000,-0.000000,2865.736195,-2861.715323,2.828106,0.000000,-0.000000,0.000000
0.540000,0.380000,0.160984,0.040000,-1024.256707,1530.200000,972.330073,-968.316868,2691.651405,0.000000,-0.000000,0.000000,2863.211537,-2859.198332,-4.609324,0.000000,-0.000000,-0.000000
0.580000,0.380000,0.194036,0.040000,-963.201533,1754.200000,1040.620161,-1038.902315,2377.717162,0.000000,-0.000000,0.000000,2595.975152,-2594.257305,-3.754282,0.000000,-0.000000,-0.000000
0.620000,0.380000,0.228443,0.040000,-903.801375,1994.200000,1074.041924,-1069.003595,2103.018404,0.000000,-0.000000,0.000000,2362.783413,-2357.745083,-0.334923,0.000000,-0.000000,-0.000000
0.660000,0.380000,0.261994,0.040000,-846.112745,2250.200000,1081.813613,-1084.477601,1861.471009,0.000000,-0.000000,0.000000,2152.333281,-2154.997268,-2.147377,0.000000,-0.000000,-0.000000
0.700000,0.380000,0.297146,0.040000,-790.151195,2522.200000,1071.844200,-1072.538239,1649.702449,0.000000,-0.000000,0.000000,1967.167149,-1967.861188,-0.423333,0.000000,-0.000000,-0.000000
0.740000,0.380000,0.333114,0.040000,-735.903530,2810.200000,1051.039362,-1051.499912,1465.741760,0.000000,-0.000000,0.000000,1803.534296,-1803.994847,-0.356888,0.000000,-0.000000,-0.000000
0.780000,0.380000,0.368185,0.040000,-683.336819,3114.200000,1022.089639,-1022.380683,1305.503079,0.000000,-0.000000,0.000000,1657.956683,-1658.247727,-0.302304,0.000000,-0.000000,-0.000000
0.820000,0.380000,0.404172,0.040000,-632.405004,3434.200000,987.978381,-988.147330,1165.815609,0.000000,-0.000000,0.000000,1528.115177,-1528.284126,-0.257260,0.000000,-0.000000,-0.000000
0.860000,0.380000,0.440851,0.040000,-583.053692,3770.200000,950.855714,-950.937507,1043.870319,0.000000,-0.000000,0.000000,1412.003564,-1412.085357,-0.219922,0.000000,-0.000000,-0.000000
0.900000,0.380000,0.478064,0.040000,-535.223622,4122.200000,912.257318,-912.277601,937.215622,0.000000,-0.000000,0.000000,1307.890850,-1307.911134,-0.188835,0.000000,-0.000000,-0.000000
0.940000,0.380000,0.514638,0.040000,-488.853130,4490.200000,873.267689,-873.245222,843.732427,0.000000,-0.000000,0.000000,1214.285180,-1214.262714,-0.162842,0.000000,-0.000000,-0.000000
0.980000,0.380000,0.551559,0.040000,-443.879899,4874.200000,834.641177,-834.589639,761.600200,0.000000,-0.000000,0.000000,1129.900861,-1129.849323,-0.141014,0.000000,-0.000000,-0.000000
1.020000,0.380000,0.588881,0.040000,-400.242171,5274.200000,796.891366,-796.820692,689.260635,0.000000,-0.000000,0.000000,1053.629062,-1053.558388,-0.122607,0.000000,-0.000000,-0.000000
1.060000,0.380000,0.626534,0.040000,-357.879576,5690.200000,760.356896,-760.274271,625.382490,0.000000,-0.000000,0.000000,984.512253,-984.429629,-0.107019,0.000000,-0.000000,-0.000000
1.100000,0.380000,0.664462,0.040000,-316.733677,6122.200000,725.249871,-725.160460,568.829320,0.000000,-0.000000,0.000000,921.722153,-921.632743,-0.093765,0.000000,-0.000000,-0.000000
1.140000,0.380000,0.702619,0.040000,-276.748312,6570.200000,691.691412,-691.598897,518.630804,0.000000,-0.000000,0.000000,864.540863,-864.448349,-0.082450,0.000000,-0.000000,-0.000000
1.180000,0.380000,0.740533,0.040000,-237.869795,7034.200000,659.358038,-658.625937,473.541411,0.000000,-0.000000,0.000000,811.853516,-811.121416,-0.002819,0.000000,-0.000000,-0.000000
1.220000,0.380000,0.778434,0.040000,-200.046999,7514.200000,628.627341,-628.402566,434.031009,0.000000,-0.000000,0.000000,763.927704,-763.702929,0.354367,0.000000,-0.000000,0.000000
1.260000,0.380000,0.816535,0.040000,-163.231382,8010.200000,599.932766,-599.505564,398.719973,0.000000,-0.000000,0.000000,720.380428,-719.953227,0.659118,0.000000,-0.000000,0.000000
-1.260000,0.420000,0.828557,0.040000,-151.872947,8026.200000,566.191842,-565.659918,-425.300414,0.000000,-0.000000,-0.000000,708.186914,-707.654990,-0.684803,0.000000,-0.000000,-0.000000
-1.220000,0.420000,0.790740,0.040000,-188.017243,7530.200000,590.342733,-590.066772,-462.034580,0.000000,-0.000000,-0.000000,749.682474,-749.406513,-0.809430,0.000000,-0.000000,-0.000000
-1.180000,0.420000,0.753148,0.040000,-225.107621,7050.200000,616.778594,-616.734894,-503.230765,0.000000,-0.000000,-0.000000,796.030605,-795.986905,-0.382028,0.000000,-0.000000,-0.000000
-1.140000,0.420000,0.715818,0.040000,-263.185438,6586.200000,643.720675,-643.065429,-548.743372,0.000000,-0.000000,-0.000000,845.948035,-845.292790,-0.159464,0.000000,-0.000000,-0.000000
-1.100000,0.420000,0.678321,0.040000,-302.293611,6138.200000,671.616308,-671.576340,-600.510599,0.000000,-0.000000,-0.000000,900.938733,-900.898765,-0.095753,0.000000,-0.000000,-0.000000
-1.060000,0.420000,0.640756,0.040000,-342.476429,5706.200000,699.993521,-699.968400,-658.155225,0.000000,-0.000000,-0.000000,960.815159,-960.790038,-0.108909,0.000000,-0.000000,-0.000000
-1.020000,0.420000,0.603505,0.040000,-383.779275,5290.200000,728.794893,-728.791073,-722.894818,0.000000,-0.000000,-0.000000,1026.508663,-1026.504844,-0.124339,0.000000,-0.000000,-0.000000
-0.980000,0.420000,0.566628,0.040000,-426.248197,4890.200000,757.645342,-757.671431,-795.747953,0.000000,-0.000000,-0.000000,1098.741258,-1098.767346,-0.142515,0.000000,-0.000000,-0.000000
-0.940000,0.420000,0.530205,0.040000,-469.929311,4506.200000,786.018633,-786.086070,-877.885753,0.000000,-0.000000,-0.000000,1178.338747,-1178.406184,-0.164026,0.000000,-0.000000,-0.000000
-0.900000,0.420000,0.494334,0.040000,-514.867950,4138.200000,813.187626,-813.311579,-970.649814,0.000000,-0.000000,-0.000000,1266.246019,-1266.369972,-0.189601,0.000000,-0.000000,-0.000000
-0.860000,0.420000,0.457748,0.040000,-561.107498,3786.200000,838.158886,-838.359408,-1075.568303,0.000000,-0.000000,-0.000000,1363.543946,-1363.744468,-0.220153,0.000000,-0.000000,-0.000000
-0.820000,0.420000,0.421707,0.040000,-608.687793,3450.200000,859.587047,-859.890556,-1194.367093,0.000000,-0.000000,-0.000000,1471.467590,-1471.771098,-0.256823,0.000000,-0.000000,-0.000000
-0.780000,0.420000,0.386445,0.040000,-657.642960,3130.200000,875.663286,-876.104430,-1328.970741,0.000000,-0.000000,-0.000000,1591.425015,-1591.866158,-0.301040,0.000000,-0.000000,-0.000000
-0.740000,0.420000,0.352197,0.040000,-707.998513,2826.200000,883.971319,-884.595261,-1481.484951,0.000000,-0.000000,-0.000000,1725.015380,-1725.639322,-0.354587,0.000000,-0.000000,-0.000000
-0.700000,0.420000,0.316900,0.040000,-759.767464,2538.200000,881.303765,-882.168860,-1654.147403,0.000000,-0.000000,-0.000000,1874.044014,-1874.909109,-0.419679,0.000000,-0.000000,-0.000000
-0.660000,0.420000,0.282769,0.040000,-812.945176,2266.200000,863.432334,-864.613041,-1849.226822,0.000000,-0.000000,-0.000000,2040.530612,-2041.711318,-0.499043,0.000000,-0.000000,-0.000000
-0.620000,0.420000,0.250381,0.040000,-867.502574,2010.200000,827.962629,-828.456110,-2068.543143,0.000000,-0.000000,-0.000000,2227.935888,-2228.429369,1.915952,0.000000,-0.000000,0.000000
-0.580000,0.420000,0.216571,0.040000,-923.377267,1770.200000,764.859169,-757.162445,-2316.168277,0.000000,-0.000000,-0.000000,2441.833763,-2434.137039,0.346219,0.000000,-0.000000,0.000000
-0.540000,0.420000,0.185068,0.040000,-980.462074,1546.200000,662.210245,-656.624113,-2587.620341,0.000000,-0.000000,-0.000000,2673.112395,-2667.526263,2.174720,0.000000,-0.000000,0.000000
0.540000,0.420000,0.184709,0.040000,-980.055899,1546.200000,663.319298,-657.744141,2585.075217,0.000000,-0.000000,0.000000,2670.914443,-2665.339285,-3.881460,0.000000,-0.000000,-0.000000
0.580000,0.420000,0.217250,0.040000,-922.989130,1770.200000,765.592843,-757.905578,2313.861971,0.000000,-0.000000,0.000000,2439.868254,-2432.180989,-1.767356,0.000000,-0.000000,-0.000000
0.620000,0.420000,0.249262,0.040000,-867.133667,2010.200000,828.417711,-828.910734,2066.476236,0.000000,-0.000000,0.000000,2226.185339,-2226.678362,-3.104975,0.000000,-0.000000,-0.000000
0.660000,0.420000,0.283312,0.040000,-812.596232,2266.200000,863.673506,-864.851022,1847.385519,0.000000,-0.000000,0.000000,2038.965671,-2040.143187,-0.497831,0.000000,-0.000000,-0.000000
0.700000,0.420000,0.317082,0.040000,-759.438873,2538.200000,881.387412,-882.250058,1652.515333,0.000000,-0.000000,0.000000,1872.643964,-1873.506610,-0.421080,0.000000,-0.000000,-0.000000
0.740000,0.420000,0.351278,0.040000,-707.690413,2826.200000,883.940352,-884.562431,1480.042245,0.000000,-0.000000,0.000000,1723.761303,-1724.383383,-0.357712,0.000000,-0.000000,-0.000000
0.780000,0.420000,0.386588,0.040000,-657.355305,3130.200000,875.550374,-875.990111,1327.697151,0.000000,-0.000000,0.000000,1590.299905,-1590.739642,-0.305165,0.000000,-0.000000,-0.000000
0.820000,0.420000,0.422402,0.040000,-608.420404,3450.200000,859.416876,-859.719329,1193.243193,0.000000,-0.000000,0.000000,1470.456326,-1470.758779,-0.261410,0.000000,-0.000000,-0.000000
0.860000,0.420000,0.457623,0.040000,-560.860105,3786.200000,837.949991,-838.149725,1074.576123,0.000000,-0.000000,0.000000,1362.633180,-1362.832914,-0.224830,0.000000,-0.000000,-0.000000
0.900000,0.420000,0.493572,0.040000,-514.640219,4138.200000,812.953835,-813.077205,969.773110,0.000000,-0.000000,0.000000,1265.424025,-1265.547395,-0.194131,0.000000,-0.000000,-0.000000
0.940000,0.420000,0.530103,0.040000,-469.720869,4506.200000,785.770195,-785.837203,877.110065,0.000000,-0.000000,0.000000,1177.595254,-1177.662262,-0.168267,0.000000,-0.000000,-0.000000
0.980000,0.420000,0.567101,0.040000,-426.058647,4890.200000,757.389793,-757.415569,795.060541,0.000000,-0.000000,0.000000,1098.067284,-1098.093060,-0.146396,0.000000,-0.000000,-0.000000
1.020000,0.420000,0.603970,0.040000,-383.608209,5290.200000,728.537716,-728.533672,722.284534,0.000000,-0.000000,0.000000,1025.896358,-1025.892315,-0.127831,0.000000,-0.000000,-0.000000
1.060000,0.420000,0.640737,0.040000,-342.323436,5706.200000,699.738658,-699.713379,657.612358,0.000000,-0.000000,0.000000,960.257662,-960.232382,-0.112016,0.000000,-0.000000,-0.000000
1.100000,0.420000,0.677870,0.040000,-302.158283,6138.200000,671.366538,-671.326462,600.026716,0.000000,-0.000000,0.000000,900.430041,-900.389965,-0.098494,0.000000,-0.000000,-0.000000
1.140000,0.420000,0.715313,0.040000,-263.067376,6586.200000,643.478063,-642.823207,548.311417,0.000000,-0.000000,0.000000,845.483123,-844.828267,-0.011967,0.000000,-0.000000,-0.000000
1.180000,0.420000,0.753019,0.040000,-225.006436,7050.200000,616.544186,-616.500081,502.843790,0.000000,-0.000000,0.000000,795.604459,-795.560354,0.230310,0.000000,-0.000000,0.000000
1.220000,0.420000,0.790950,0.040000,-187.932561,7530.200000,590.117963,-589.841953,461.687295,0.000000,-0.000000,0.000000,749.291564,-749.015554,0.674117,0.000000,-0.000000,0.000000
1.260000,0.420000,0.829075,0.040000,-151.804407,8026.200000,565.976087,-565.444213,424.988257,0.000000,-0.000000,0.000000,707.827011,-707.295137,0.564515,0.000000,-0.000000,0.000000
-1.220000,0.460000,0.804793,0.040000,-174.950619,7547.800000,550.429466,-550.554058,-485.232340,0.000000,-0.000000,-0.000000,733.756916,-733.881507,-0.983940,0.000000,-0.000000,-0.000000
-1.180000,0.460000,0.767164,0.040000,-211.250123,7067.800000,572.431756,-573.200102,-527.209422,0.000000,-0.000000,-0.000000,778.119317,-778.887663,-0.423886,0.000000,-0.000000,-0.000000
-1.140000,0.460000,0.729788,0.040000,-248.466770,6603.800000,594.716752,-593.959185,-573.305120,0.000000,-0.000000,-0.000000,826.161023,-825.403455,-0.274159,0.000000,-0.000000,-0.000000
-1.100000,0.460000,0.692705,0.040000,-286.635424,6155.800000,616.977256,-616.981927,-625.526513,0.000000,-0.000000,-0.000000,878.602937,-878.607608,-0.100115,0.000000,-0.000000,-0.000000
-1.060000,0.460000,0.655965,0.040000,-325.791233,5723.800000,638.868273,-638.894203,-683.320801,0.000000,-0.000000,-0.000000,935.452983,-935.478913,-0.113531,0.000000,-0.000000,-0.000000
-1.020000,0.460000,0.619628,0.040000,-365.969191,5307.800000,660.293503,-660.347909,-747.836263,0.000000,-0.000000,-0.000000,997.611256,-997.665662,-0.129189,0.000000,-0.000000,-0.000000
-0.980000,0.460000,0.583666,0.040000,-407.203534,4907.800000,680.753123,-680.845334,-819.953917,0.000000,-0.000000,-0.000000,1065.698702,-1065.790913,-0.147533,0.000000,-0.000000,-0.000000
-0.940000,0.460000,0.547147,0.040000,-449.526941,4523.800000,699.583762,-699.725811,-900.664680,0.000000,-0.000000,-0.000000,1140.417317,-1140.559366,-0.169106,0.000000,-0.000000,-0.000000
-0.900000,0.460000,0.511149,0.040000,-492.969465,4155.800000,715.911175,-716.118535,-991.074665,0.000000,-0.000000,-0.000000,1222.559898,-1222.767258,-0.194577,0.000000,-0.000000,-0.000000
-0.860000,0.460000,0.475790,0.040000,-537.557128,3803.800000,728.590047,-728.882538,-1092.405203,0.000000,-0.000000,-0.000000,1313.020028,-1313.312518,-0.224761,0.000000,-0.000000,-0.000000
-0.820000,0.460000,0.441225,0.040000,-583.310087,3467.800000,736.127977,-736.530861,-1205.983807,0.000000,-0.000000,-0.000000,1412.801703,-1413.204587,-0.260661,0.000000,-0.000000,-0.000000
-0.780000,0.460000,0.406252,0.040000,-630.240235,3147.800000,736.590465,-737.135717,-1333.220320,0.000000,-0.000000,-0.000000,1523.027589,-1523.572841,-0.303499,0.000000,-0.000000,-0.000000
-0.740000,0.460000,0.371716,0.040000,-678.348094,2843.800000,727.483901,-728.211608,-1475.559777,0.000000,-0.000000,-0.000000,1644.944289,-1645.671996,-0.354760,0.000000,-0.000000,-0.000000
-0.700000,0.460000,0.338387,0.040000,-727.618814,2555.800000,705.614581,-706.574323,-1634.399625,0.000000,-0.000000,-0.000000,1779.922145,-1780.881887,-0.416232,0.000000,-0.000000,-0.000000
-0.660000,0.460000,0.305384,0.040000,-778.017051,2283.800000,666.924297,-668.176225,-1810.953881,0.000000,-0.000000,-0.000000,1929.445814,-1930.697743,-0.490035,0.000000,-0.000000,-0.000000
-0.620000,0.460000,0.272409,0.040000,-829.480456,2027.800000,606.733372,-609.759441,-2006.875410,0.000000,-0.000000,-0.000000,2095.511652,-2098.537721,0.261207,0.000000,-0.000000,0.000000
-0.580000,0.460000,0.241565,0.040000,-881.911489,1787.800000,517.910631,-515.567141,-2217.389210,0.000000,-0.000000,-0.000000,2277.974474,-2275.630984,-1.821722,0.000000,-0.000000,-0.000000
-0.540000,0.460000,0.209850,0.040000,-935.167274,1563.800000,398.942734,-390.999120,-2451.639589,0.000000,-0.000000,-0.000000,2487.223440,-2479.279826,0.179629,0.000000,-0.000000,0.000000
-0.500000,0.460000,0.180543,0.040000,-989.047240,1355.800000,229.589447,-222.435507,-2697.977830,0.000000,-0.000000,-0.000000,2711.004788,-2703.850849,0.787242,0.000000,-0.000000,0.000000
0.500000,0.460000,0.179939,0.040000,-988.664568,1355.800000,231.327763,-224.185243,2695.736267,0.000000,-0.000000,0.000000,2708.910369,-2701.767848,-2.711696,0.000000,-0.000000,-0.000000
0.540000,0.460000,0.210496,0.040000,-934.796976,1563.800000,400.236120,-392.300129,2449.512531,0.000000,-0.000000,0.000000,2485.325856,-2477.389865,-1.798493,0.000000,-0.000000,-0.000000
0.580000,0.460000,0.240689,0.040000,-881.555644,1787.800000,518.853419,-516.511176,2215.408171,0.000000,-0.000000,0.000000,2276.259718,-2273.917475,0.451945,0.000000,-0.000000,0.000000
0.620000,0.460000,0.273411,0.040000,-829.140571,2027.800000,607.387325,-610.410370,2005.056792,0.000000,-0.000000,0.000000,2093.961825,-2096.984870,-1.412901,0.000000,-0.000000,-0.000000
0.660000,0.460000,0.304981,0.040000,-777.694177,2283.800000,667.356869,-668.605900,1809.301785,0.000000,-0.000000,0.000000,1928.046489,-1929.295520,-0.486243,0.000000,-0.000000,-0.000000
0.700000,0.460000,0.338153,0.040000,-727.313648,2555.800000,705.876642,-706.834070,1632.909565,0.000000,-0.000000,0.000000,1778.659101,-1779.616529,-0.414519,0.000000,-0.000000,-0.000000
0.740000,0.460000,0.372614,0.040000,-678.061058,2843.800000,727.615901,-728.341781,1474.222311,0.000000,-0.000000,0.000000,1643.803867,-1644.529747,-0.354714,0.000000,-0.000000,-0.000000
0.780000,0.460000,0.406074,0.040000,-629.971544,3147.800000,736.624378,-737.168200,1332.023570,0.000000,-0.000000,0.000000,1521.997067,-1522.540889,-0.304664,0.000000,-0.000000,-0.000000
0.820000,0.460000,0.440626,0.040000,-583.059797,3467.800000,736.088856,-736.490627,1204.914968,0.000000,-0.000000,0.000000,1411.869436,-1412.271208,-0.262629,0.000000,-0.000000,-0.000000
0.860000,0.460000,0.476031,0.040000,-537.325177,3803.800000,728.497380,-728.789010,1091.451482,0.000000,-0.000000,0.000000,1312.175484,-1312.467114,-0.227201,0.000000,-0.000000,-0.000000
0.900000,0.460000,0.511744,0.040000,-492.755707,4155.800000,715.780037,-715.986735,990.223835,0.000000,-0.000000,0.000000,1221.793630,-1222.000328,-0.197240,0.000000,-0.000000,-0.000000
0.940000,0.460000,0.547062,0.040000,-449.331168,4523.800000,699.425750,-699.567293,899.905383,0.000000,-0.000000,0.000000,1139.720899,-1139.862442,-0.171817,0.000000,-0.000000,-0.000000
0.980000,0.460000,0.582986,0.040000,-407.025493,4907.800000,680.577112,-680.668938,819.275796,0.000000,-0.000000,0.000000,1065.064649,-1065.156475,-0.150174,0.000000,-0.000000,-0.000000
1.020000,0.460000,0.619409,0.040000,-365.808600,5307.800000,660.106247,-660.160362,747.229996,0.000000,-0.000000,0.000000,997.032936,-997.087051,-0.131687,0.000000,-0.000000,-0.000000
1.060000,0.460000,0.656249,0.040000,-325.647794,5723.800000,638.674880,-638.700592,682.778074,0.000000,-0.000000,0.000000,934.924526,-934.950238,-0.115846,0.000000,-0.000000,-0.000000
1.100000,0.460000,0.693330,0.040000,-286.508828,6155.800000,616.781558,-616.786067,625.039956,0.000000,-0.000000,0.000000,878.119154,-878.123663,-0.102227,0.000000,-0.000000,-0.000000
1.140000,0.460000,0.729980,0.040000,-248.356705,6603.800000,594.521735,-593.764472,572.868508,0.000000,-0.000000,0.000000,825.717560,-824.960297,0.095057,0.000000,-0.000000,0.000000
1.180000,0.460000,0.766965,0.040000,-211.156275,7067.800000,572.239610,-573.007083,526.816484,0.000000,-0.000000,0.000000,777.712038,-778.479511,0.264962,0.000000,-0.000000,0.000000
1.220000,0.460000,0.804239,0.040000,-174.872681,7547.800000,550.242114,-550.366264,484.878133,0.000000,-0.000000,0.000000,733.382398,-733.506549,0.841752,0.000000,-0.000000,0.000000
-1.220000,0.500000,0.818910,0.040000,-161.001248,7567.000000,511.166252,-511.027570,-504.553584,0.000000,-0.000000,-0.000000,718.257208,-718.118526,-0.748348,0.000000,-0.000000,-0.000000
-1.180000,0.500000,0.781961,0.040000,-196.475586,7087.000000,528.136353,-528.215474,-546.472953,0.000000,-0.000000,-0.000000,759.961808,-760.040929,-0.635122,0.000000,-0.000000,-0.000000
-1.140000,0.500000,0.745327,0.040000,-232.796147,6623.000000,545.597010,-545.321764,-592.583526,0.000000,-0.000000,-0.000000,805.545078,-805.269832,-0.098069,0.000000,-0.000000,-0.000000
-1.100000,0.500000,0.709057,0.040000,-269.990059,6175.000000,562.414591,-562.458392,-644.615876,0.000000,-0.000000,-0.000000,855.468850,-855.512651,-0.103493,0.000000,-0.000000,-0.000000
-1.060000,0.500000,0.672980,0.040000,-308.083767,5743.000000,578.187948,-578.257791,-701.782202,0.000000,-0.000000,-0.000000,909.272470,-909.342313,-0.116984,0.000000,-0.000000,-0.000000
-1.020000,0.500000,0.636558,0.040000,-347.102468,5327.000000,592.730750,-592.834149,-765.193908,0.000000,-0.000000,-0.000000,967.890825,-967.994224,-0.132646,0.000000,-0.000000,-0.000000
-0.980000,0.500000,0.600591,0.040000,-387.069380,4927.000000,605.455095,-605.601519,-835.586110,0.000000,-0.000000,-0.000000,1031.851521,-1031.997945,-0.150885,0.000000,-0.000000,-0.000000
-0.940000,0.500000,0.565166,0.040000,-428.004796,4543.000000,615.607378,-615.808717,-913.763831,0.000000,-0.000000,-0.000000,1101.743561,-1101.944901,-0.172194,0.000000,-0.000000,-0.000000
-0.900000,0.500000,0.530392,0.040000,-469.924876,4175.000000,622.225946,-622.497073,-1000.597056,0.000000,-0.000000,-0.000000,1178.222734,-1178.493862,-0.197163,0.000000,-0.000000,-0.000000
-0.860000,0.500000,0.495636,0.040000,-512.840103,3823.000000,624.089082,-624.448492,-1097.008389,0.000000,-0.000000,-0.000000,1262.016347,-1262.375757,-0.226506,0.000000,-0.000000,-0.000000
-0.820000,0.500000,0.460856,0.040000,-556.753323,3487.000000,619.651844,-620.122364,-1203.949439,0.000000,-0.000000,-0.000000,1353.926549,-1354.397069,-0.261077,0.000000,-0.000000,-0.000000
-0.780000,0.500000,0.426990,0.040000,-601.657268,3167.000000,606.970686,-607.580200,-1322.360467,0.000000,-0.000000,-0.000000,1454.831174,-1455.440688,-0.301894,0.000000,-0.000000,-0.000000
-0.740000,0.500000,0.394275,0.040000,-647.531435,2863.000000,583.615688,-584.397776,-1453.105742,0.000000,-0.000000,-0.000000,1565.680487,-1566.462574,-0.350160,0.000000,-0.000000,-0.000000
-0.700000,0.500000,0.360781,0.040000,-694.338193,2575.000000,546.572082,-547.566382,-1596.874368,0.000000,-0.000000,-0.000000,1687.487544,-1688.481844,-0.407278,0.000000,-0.000000,-0.000000
-0.660000,0.500000,0.328497,0.040000,-742.017949,2303.000000,492.136141,-493.388118,-1754.033256,0.000000,-0.000000,-0.000000,1821.308960,-1822.560937,-0.474864,0.000000,-0.000000,-0.000000
-0.620000,0.500000,0.297811,0.040000,-790.483214,2047.000000,415.816226,-417.375817,-1924.415622,0.000000,-0.000000,-0.000000,1968.211678,-1969.771269,-0.554738,0.000000,-0.000000,-0.000000
-0.580000,0.500000,0.266176,0.040000,-839.611409,1807.000000,313.070598,-314.877806,-2106.506745,0.000000,-0.000000,-0.000000,2128.873482,-2130.680689,0.175400,0.000000,-0.000000,0.000000
-0.540000,0.500000,0.237084,0.040000,-889.236296,1583.000000,177.131081,-173.532905,-2297.316670,0.000000,-0.000000,-0.000000,2305.796157,-2302.197981,-1.641613,0.000000,-0.000000,-0.000000
-0.500000,0.500000,0.207586,0.040000,-939.138025,1375.000000,0.204803,1.987593,-2497.846801,-0.000000,0.000000,-0.000000,2498.942999,-2496.750604,-0.891395,0.000000,-0.000000,-0.000000
-0.460000,0.500000,0.180753,0.040000,-989.031933,1183.000000,-224.433649,231.583310,-2697.725956,-0.000000,0.000000,-0.000000,2710.917693,-2703.768032,-2.797279,0.000000,-0.000000,-0.000000
0.460000,0.500000,0.179868,0.040000,-988.679875,1183.000000,-222.187102,229.333900,2695.988142,-0.000000,0.000000,0.000000,2708.997465,-2701.850666,0.701659,0.000000,-0.000000,0.000000
0.500000,0.500000,0.208258,0.040000,-938.792329,1375.000000,1.986742,0.203953,2496.069465,0.000000,-0.000000,0.000000,2497.164812,-2494.974117,-0.891395,0.000000,-0.000000,-0.000000
0.540000,0.500000,0.236388,0.040000,-888.899817,1583.000000,178.519811,-174.926772,2295.571707,0.000000,-0.000000,0.000000,2304.160646,-2300.567607,0.120394,0.000000,-0.000000,0.000000
0.580000,0.500000,0.267063,0.040000,-839.286370,1807.000000,314.130220,-315.937109,2104.835474,0.000000,-0.000000,0.000000,2127.376711,-2129.183600,-1.469543,0.000000,-0.000000,-0.000000
0.620000,0.500000,0.296892,0.040000,-790.171317,2047.000000,416.606923,-418.163549,1922.843207,0.000000,-0.000000,0.000000,1966.843635,-1968.400261,-0.549684,0.000000,-0.000000,-0.000000
0.660000,0.500000,0.328888,0.040000,-741.720463,2303.000000,492.709795,-493.959264,1752.575617,0.000000,-0.000000,0.000000,1820.061958,-1821.311426,-0.470763,0.000000,-0.000000,-0.000000
0.700000,0.500000,0.360964,0.040000,-694.056039,2575.000000,546.972388,-547.964607,1595.536136,0.000000,-0.000000,0.000000,1686.352180,-1687.344400,-0.404426,0.000000,-0.000000,-0.000000
0.740000,0.500000,0.393483,0.040000,-647.265257,2863.000000,583.878943,-584.659329,1451.885635,0.000000,-0.000000,0.000000,1564.647251,-1565.427637,-0.348540,0.000000,-0.000000,-0.000000
0.780000,0.500000,0.427274,0.040000,-601.407490,3167.000000,607.126603,-607.734740,1321.253514,0.000000,-0.000000,0.000000,1453.890822,-1454.498959,-0.301333,0.000000,-0.000000,-0.000000
0.820000,0.500000,0.461299,0.040000,-556.520197,3487.000000,619.724473,-620.193889,1202.948544,0.000000,-0.000000,0.000000,1353.070326,-1353.539742,-0.261344,0.000000,-0.000000,-0.000000
0.860000,0.500000,0.495229,0.040000,-512.623746,3823.000000,624.097725,-624.456256,1096.105401,0.000000,-0.000000,0.000000,1261.236114,-1261.594645,-0.227372,0.000000,-0.000000,-0.000000
0.900000,0.500000,0.530006,0.040000,-469.725304,4175.000000,622.185988,-622.456419,999.783481,0.000000,-0.000000,0.000000,1177.511018,-1177.781448,-0.198428,0.000000,-0.000000,-0.000000
0.940000,0.500000,0.565474,0.040000,-427.821945,4543.000000,615.531014,-615.731804,913.031286,0.000000,-0.000000,0.000000,1101.093562,-1101.294352,-0.173696,0.000000,-0.000000,-0.000000
0.980000,0.500000,0.601116,0.040000,-386.903130,4927.000000,605.351946,-605.497938,834.926596,0.000000,-0.000000,0.000000,1031.257095,-1031.403088,-0.152503,0.000000,-0.000000,-0.000000
1.020000,0.500000,0.636503,0.040000,-346.952654,5327.000000,592.608369,-592.711431,764.599962,0.000000,-0.000000,0.000000,967.346443,-967.449505,-0.134290,0.000000,-0.000000,-0.000000
1.060000,0.500000,0.672407,0.040000,-307.950193,5743.000000,578.052242,-578.121822,701.246971,0.000000,-0.000000,0.000000,908.773174,-908.842755,-0.118594,0.000000,-0.000000,-0.000000
1.100000,0.500000,0.708750,0.040000,-269.872509,6175.000000,562.270156,-562.313754,644.133135,0.000000,-0.000000,0.000000,855.010204,-855.053802,-0.105028,0.000000,-0.000000,-0.000000
1.140000,0.500000,0.745467,0.040000,-232.694391,6623.000000,545.447478,-545.171916,592.148024,0.000000,-0.000000,0.000000,805.123458,-804.847896,-0.086789,0.000000,-0.000000,-0.000000
1.180000,0.500000,0.782506,0.040000,-196.389384,7087.000000,527.984846,-528.063573,546.078787,0.000000,-0.000000,0.000000,759.573292,-759.652019,0.469945,0.000000,-0.000000,0.000000
1.220000,0.500000,0.819267,0.040000,-160.930356,7567.000000,511.014170,-510.875276,504.196739,0.000000,-0.000000,0.000000,717.898466,-717.759572,0.600943,0.000000,-0.000000,0.000000
-1.220000,0.540000,0.834706,0.040000,-146.233046,7587.800000,471.177957,-471.269423,-519.607402,0.000000,-0.000000,-0.000000,701.412259,-701.503724,-0.551576,0.000000,-0.000000,-0.000000
-1.180000,0.540000,0.798489,0.040000,-180.854788,7107.800000,483.390684,-483.780993,-561.624867,0.000000,-0.000000,-0.000000,740.936687,-741.326996,-1.160844,0.000000,-0.000000,-0.000000
-1.140000,0.540000,0.762325,0.040000,-216.252064,6643.800000,496.451405,-497.303818,-607.742004,0.000000,-0.000000,-0.000000,784.581705,-785.434118,-0.533072,0.000000,-0.000000,-0.000000
-1.100000,0.540000,0.725977,0.040000,-252.444695,6195.800000,508.431388,-507.971298,-657.835892,0.000000,-0.000000,-0.000000,831.504121,-831.044031,-0.275231,0.000000,-0.000000,-0.000000
-1.060000,0.540000,0.690033,0.040000,-289.450983,5763.800000,518.716441,-518.822747,-714.009990,0.000000,-0.000000,-0.000000,882.518172,-882.624477,-0.119333,0.000000,-0.000000,-0.000000
-1.020000,0.540000,0.654560,0.040000,-327.287054,5347.800000,526.959061,-527.102063,-775.582833,0.000000,-0.000000,-0.000000,937.633104,-937.776106,-0.134804,0.000000,-0.000000,-0.000000
-0.980000,0.540000,0.619638,0.040000,-365.966042,4947.800000,532.694726,-532.883563,-843.443811,0.000000,-0.000000,-0.000000,997.533624,-997.722462,-0.152708,0.000000,-0.000000,-0.000000
-0.940000,0.540000,0.585039,0.040000,-405.497052,4563.800000,535.121674,-535.367540,-918.216553,0.000000,-0.000000,-0.000000,1062.707438,-1062.953304,-0.173481,0.000000,-0.000000,-0.000000
-0.900000,0.540000,0.550094,0.040000,-445.883882,4195.800000,533.242621,-533.559141,-1000.546628,0.000000,-0.000000,-0.000000,1133.689179,-1134.005699,-0.197636,0.000000,-0.000000,-0.000000
-0.860000,0.540000,0.515883,0.040000,-487.123417,3843.800000,525.822409,-526.226036,-1091.080630,0.000000,-0.000000,-0.000000,1211.061318,-1211.464945,-0.225780,0.000000,-0.000000,-0.000000
-0.820000,0.540000,0.482564,0.040000,-529.203651,3507.800000,511.338882,-511.849265,-1190.433369,0.000000,-0.000000,-0.000000,1295.453123,-1295.963506,-0.258626,0.000000,-0.000000,-0.000000
-0.780000,0.540000,0.449577,0.040000,-572.101249,3187.800000,487.927457,-488.567721,-1299.138486,0.000000,-0.000000,-0.000000,1387.536642,-1388.176906,-0.297004,0.000000,-0.000000,-0.000000
-0.740000,0.540000,0.416493,0.040000,-615.778555,2883.800000,453.321158,-454.117961,-1417.576433,0.000000,-0.000000,-0.000000,1488.018296,-1488.815099,-0.341867,0.000000,-0.000000,-0.000000
-0.700000,0.540000,0.384725,0.040000,-660.179959,2595.800000,404.789969,-405.773161,-1545.872220,0.000000,-0.000000,-0.000000,1597.624142,-1598.607334,-0.394301,0.000000,-0.000000,-0.000000
-0.660000,0.540000,0.353701,0.040000,-705.227528,2323.800000,339.086794,-340.288371,-1683.753898,0.000000,-0.000000,-0.000000,1717.076316,-1718.277893,-0.455518,0.000000,-0.000000,-0.000000
-0.620000,0.540000,0.322588,0.040000,-750.815807,2067.800000,252.412366,-253.864319,-1830.361900,0.000000,-0.000000,-0.000000,1847.057406,-1848.509359,-0.526850,0.000000,-0.000000,-0.000000
-0.580000,0.540000,0.293635,0.040000,-796.805734,1827.800000,140.418745,-142.149228,-1984.000007,0.000000,-0.000000,-0.000000,1988.158845,-1989.889329,-0.609731,0.000000,-0.000000,-0.000000
-0.540000,0.540000,0.264142,0.040000,-843.017700,1603.800000,-1.414589,0.002324,-2141.082344,-0.000000,0.000000,-0.000000,2140.376211,-2141.788476,-0.708457,0.000000,-0.000000,-0.000000
-0.500000,0.540000,0.236961,0.040000,-889.223834,1395.800000,-175.105713,178.701940,-2297.135886,-0.000000,0.000000,-0.000000,2305.735665,-2302.139437,0.060537,0.000000,-0.000000,0.000000
-0.460000,0.540000,0.209840,0.040000,-935.139845,1203.800000,-392.715569,400.659628,-2451.224064,-0.000000,0.000000,-0.000000,2487.086344,-2479.142284,-1.940529,0.000000,-0.000000,-0.000000
-0.420000,0.540000,0.185624,0.040000,-980.416943,1027.800000,-658.461500,664.041475,-2586.903542,-0.000000,0.000000,-0.000000,2672.866095,-2667.286119,-4.129031,0.000000,-0.000000,-0.000000
-0.380000,0.540000,0.160709,0.040000,-1024.634773,867.800000,-969.398957,973.415644,-2693.546886,-0.000000,0.000000,-0.000000,2865.363382,-2861.346695,-4.989574,0.000000,-0.000000,-0.000000
0.380000,0.540000,0.162066,0.040000,-1024.322458,867.800000,-966.405384,970.422770,2692.730106,-0.000000,0.000000,0.000000,2863.584353,-2859.566967,2.447857,0.000000,-0.000000,0.000000
0.420000,0.540000,0.184523,0.040000,-980.101030,1027.800000,-655.906754,661.488068,2585.792016,-0.000000,0.000000,0.000000,2671.160742,-2665.579429,1.927149,0.000000,-0.000000,0.000000
0.460000,0.540000,0.210526,0.040000,-934.824405,1203.800000,-390.583680,398.519226,2449.928056,-0.000000,0.000000,0.000000,2485.462953,-2477.527407,0.037594,0.000000,-0.000000,0.000000
0.500000,0.540000,0.236429,0.040000,-888.912279,1395.800000,-173.353964,176.948952,2295.752491,-0.000000,0.000000,0.000000,2304.221138,-2300.626150,-1.701470,0.000000,-0.000000,-0.000000
0.540000,0.540000,0.264712,0.040000,-842.712832,1603.800000,0.003259,-1.413655,2139.671774,0.000000,-0.000000,0.000000,2138.966576,-2140.376972,-0.708457,0.000000,-0.000000,-0.000000
0.580000,0.540000,0.292883,0.040000,-796.509819,1827.800000,141.540869,-143.268773,1982.609093,0.000000,-0.000000,0.000000,1986.852723,-1988.580627,-0.607472,0.000000,-0.000000,-0.000000
0.620000,0.540000,0.323556,0.040000,-750.530642,2067.800000,253.288509,-254.738100,1829.022962,0.000000,-0.000000,0.000000,1845.852438,-1847.302029,-0.523636,0.000000,-0.000000,-0.000000
0.660000,0.540000,0.353212,0.040000,-704.954520,2323.800000,339.757925,-340.957414,1682.486589,0.000000,-0.000000,0.000000,1715.967836,-1717.167326,-0.452253,0.000000,-0.000000,-0.000000
0.700000,0.540000,0.384683,0.040000,-659.920184,2595.800000,405.292362,-406.273755,1544.687462,0.000000,-0.000000,0.000000,1596.606386,-1597.587780,-0.391505,0.000000,-0.000000,-0.000000
0.740000,0.540000,0.417105,0.040000,-615.532819,2883.800000,453.686114,-454.481396,1416.478915,0.000000,-0.000000,0.000000,1487.084949,-1487.880232,-0.339770,0.000000,-0.000000,-0.000000
0.780000,0.540000,0.449122,0.040000,-571.870140,3187.800000,488.181480,-488.820475,1298.128602,0.000000,-0.000000,0.000000,1386.681218,-1387.320213,-0.295647,0.000000,-0.000000,-0.000000
0.820000,0.540000,0.482332,0.040000,-528.987577,3507.800000,511.504099,-512.013435,1189.508683,0.000000,-0.000000,0.000000,1294.669220,-1295.178557,-0.257943,0.000000,-0.000000,-0.000000
0.860000,0.540000,0.516506,0.040000,-486.922643,3843.800000,525.917098,-526.319868,1090.236942,0.000000,-0.000000,0.000000,1210.342789,-1210.745559,-0.225657,0.000000,-0.000000,-0.000000
0.900000,0.540000,0.550229,0.040000,-445.698561,4195.800000,533.281751,-533.597574,999.778736,0.000000,-0.000000,0.000000,1133.030226,-1133.346049,-0.197944,0.000000,-0.000000,-0.000000
0.940000,0.540000,0.584471,0.040000,-405.327249,4563.800000,535.117424,-535.362727,917.518784,0.000000,-0.000000,0.000000,1062.102667,-1062.347970,-0.174102,0.000000,-0.000000,-0.000000
0.980000,0.540000,0.619404,0.040000,-365.811749,4947.800000,532.656953,-532.845337,842.810377,0.000000,-0.000000,0.000000,996.978068,-997.166452,-0.153539,0.000000,-0.000000,-0.000000
1.020000,0.540000,0.654917,0.040000,-327.148213,5347.800000,526.895704,-527.038343,775.008064,0.000000,-0.000000,0.000000,937.122217,-937.264855,-0.135762,0.000000,-0.000000,-0.000000
1.060000,0.540000,0.690507,0.040000,-289.327492,5763.800000,518.633870,-518.739885,713.488477,0.000000,-0.000000,0.000000,882.047820,-882.153834,-0.120354,0.000000,-0.000000,-0.000000
1.100000,0.540000,0.725944,0.040000,-252.336423,6195.800000,508.334792,-507.874785,657.362752,0.000000,-0.000000,0.000000,831.070698,-830.610691,0.062242,0.000000,-0.000000,0.000000
1.140000,0.540000,0.761833,0.040000,-216.158856,6643.800000,496.344763,-497.196113,607.312066,0.000000,-0.000000,0.000000,784.181677,-785.033026,0.343639,0.000000,-0.000000,0.000000
1.180000,0.540000,0.798113,0.040000,-180.776474,7107.800000,483.277995,-483.667624,561.233960,0.000000,-0.000000,0.000000,740.567316,-740.956945,0.990852,0.000000,-0.000000,0.000000
1.220000,0.540000,0.834733,0.040000,-146.169445,7587.800000,471.060623,-471.151380,519.252323,0.000000,-0.000000,0.000000,701.070646,-701.161403,0.399951,0.000000,-0.000000,0.000000
-1.180000,0.580000,0.815401,0.040000,-164.458291,7130.200000,440.560758,-440.647554,-572.284318,0.000000,-0.000000,-0.000000,722.203689,-722.290484,-0.713369,0.000000,-0.000000,-0.000000
-1.140000,0.580000,0.779475,0.040000,-198.912375,6666.200000,448.829260,-449.643506,-616.865151,0.000000,-0.000000,-0.000000,762.702266,-763.516512,-0.057653,0.000000,-0.000000,-0.000000
-1.100000,0.580000,0.743966,0.040000,-234.085317,6218.200000,455.835654,-455.505445,-666.297790,0.000000,-0.000000,-0.000000,807.375252,-807.045043,-0.415241,0.000000,-0.000000,-0.000000
-1.060000,0.580000,0.708934,0.040000,-269.987922,5786.200000,461.088340,-461.223731,-720.545769,0.000000,-0.000000,-0.000000,855.415255,-855.550647,-0.120663,0.000000,-0.000000,-0.000000
-1.020000,0.580000,0.674452,0.040000,-306.628061,5370.200000,463.667874,-463.841399,-779.689527,0.000000,-0.000000,-0.000000,907.097951,-907.271475,-0.135780,0.000000,-0.000000,-0.000000
-0.980000,0.580000,0.639389,0.040000,-344.009804,4970.200000,463.210669,-463.430791,-844.393634,0.000000,-0.000000,-0.000000,963.044487,-963.264610,-0.153163,0.000000,-0.000000,-0.000000
-0.940000,0.580000,0.604938,0.040000,-382.132348,4586.200000,458.902517,-459.179351,-915.112437,0.000000,-0.000000,-0.000000,1023.653222,-1023.930056,-0.173189,0.000000,-0.000000,-0.000000
-0.900000,0.580000,0.571212,0.040000,-420.988714,4218.200000,449.752803,-450.098327,-992.287427,0.000000,-0.000000,-0.000000,1089.353426,-1089.698950,-0.196297,0.000000,-0.000000,-0.000000
-0.860000,0.580000,0.538345,0.040000,-460.564158,3866.200000,434.562119,-434.990361,-1076.321228,0.000000,-0.000000,-0.000000,1160.603571,-1161.031813,-0.222995,0.000000,-0.000000,-0.000000
-0.820000,0.580000,0.504998,0.040000,-500.834247,3530.200000,411.886784,-412.413922,-1167.540223,0.000000,-0.000000,-0.000000,1237.887481,-1238.414619,-0.253865,0.000000,-0.000000,-0.000000
-0.780000,0.580000,0.472409,0.040000,-541.762552,3210.200000,380.001772,-380.646077,-1266.142187,0.000000,-0.000000,-0.000000,1321.707439,-1322.351744,-0.289573,0.000000,-0.000000,-0.000000
-0.740000,0.580000,0.441041,0.040000,-583.297878,2906.200000,336.864847,-337.646356,-1372.124490,0.000000,-0.000000,-0.000000,1412.573099,-1413.354607,-0.330864,0.000000,-0.000000,-0.000000
-0.700000,0.580000,0.409777,0.040000,-625.370997,2618.200000,280.086791,-281.026532,-1485.187882,0.000000,-0.000000,-0.000000,1510.984707,-1511.924449,-0.378569,0.000000,-0.000000,-0.000000
-0.660000,0.580000,0.379046,0.040000,-667.890824,2346.200000,206.915428,-208.033994,-1604.610592,0.000000,-0.000000,-0.000000,1617.408800,-1618.527367,-0.433591,0.000000,-0.000000,-0.000000
-0.620000,0.580000,0.350192,0.040000,-710.740013,2090.200000,114.245192,-115.560341,-1729.088233,0.000000,-0.000000,-0.000000,1732.244187,-1733.559336,-0.496900,0.000000,-0.000000,-0.000000
-0.580000,0.580000,0.320702,0.040000,-753.769994,1850.200000,-1.331004,-0.191951,-1856.537277,-0.000000,0.000000,-0.000000,1855.775799,-1857.298754,-0.569526,0.000000,-0.000000,-0.000000
-0.540000,0.580000,0.293308,0.040000,-796.795530,1626.200000,-143.404881,141.674792,-1983.864981,-0.000000,0.000000,-0.000000,1988.113951,-1989.844040,-0.652552,0.000000,-0.000000,-0.000000
-0.500000,0.580000,0.266336,0.040000,-839.588992,1418.200000,-316.247267,314.437896,-2106.200610,-0.000000,0.000000,-0.000000,2128.771224,-2130.580594,-1.573951,0.000000,-0.000000,-0.000000
-0.460000,0.580000,0.241161,0.040000,-881.874677,1226.200000,-517.032645,519.377056,-2216.863806,-0.000000,0.000000,-0.000000,2277.797191,-2275.452780,0.274626,0.000000,-0.000000,0.000000
-0.420000,0.580000,0.216584,0.040000,-923.323731,1050.200000,-758.688474,766.383323,-2315.385366,-0.000000,0.000000,-0.000000,2441.564846,-2433.869997,-2.039453,0.000000,-0.000000,-0.000000
-0.380000,0.580000,0.194972,0.040000,-963.550440,890.200000,-1039.995639,1041.714389,-2379.253713,-0.000000,0.000000,-0.000000,2597.821104,-2596.102355,-4.143464,0.000000,-0.000000,-0.000000
-0.340000,0.580000,0.172748,0.040000,-1002.110980,746.200000,-1354.475261,1357.850936,-2409.748121,-0.000000,0.000000,-0.000000,2766.832685,-2763.457010,-6.191020,0.000000,-0.000000,-0.000000
0.340000,0.580000,0.173769,0.040000,-1001.843810,746.200000,-1351.535696,1354.919510,2409.695088,-0.000000,0.000000,0.000000,2765.356503,-2761.972690,3.655511,0.000000,-0.000000,0.000000
0.380000,0.580000,0.193803,0.040000,-963.274222,890.200000,-1037.355297,1039.076002,2378.805895,-0.000000,0.000000,0.000000,2596.357531,-2594.636825,1.902509,0.000000,-0.000000,0.000000
0.420000,0.580000,0.217209,0.040000,-923.042666,1050.200000,-756.379549,764.068689,2314.644883,-0.000000,0.000000,0.000000,2440.137171,-2432.448031,0.074122,0.000000,-0.000000,0.000000
0.460000,0.580000,0.240824,0.040000,-881.592456,1226.200000,-515.045673,517.386995,2215.933575,-0.000000,0.000000,0.000000,2276.437000,-2274.095679,-1.999041,0.000000,-0.000000,-0.000000
0.500000,0.580000,0.266584,0.040000,-839.308787,1418.200000,-314.567648,312.762922,2105.141608,-0.000000,0.000000,0.000000,2127.478969,-2129.283695,0.070993,0.000000,-0.000000,0.000000
0.540000,0.580000,0.292992,0.040000,-796.520023,1626.200000,-142.013120,140.284822,1982.744118,-0.000000,0.000000,0.000000,1986.897617,-1988.625916,-0.654811,0.000000,-0.000000,-0.000000
0.580000,0.580000,0.321207,0.040000,-753.501413,1850.200000,-0.191017,-1.330069,1855.398194,0.000000,-0.000000,0.000000,1854.637650,-1856.158737,-0.569526,0.000000,-0.000000,-0.000000
0.620000,0.580000,0.349402,0.040000,-710.480185,2090.200000,115.165648,-116.478986,1727.963632,0.000000,-0.000000,0.000000,1731.184224,-1732.497562,-0.495500,0.000000,-0.000000,-0.000000
0.660000,0.580000,0.379723,0.040000,-667.641226,2346.200000,207.647722,-208.764612,1603.523104,0.000000,-0.000000,0.000000,1616.425156,-1617.542046,-0.431541,0.000000,-0.000000,-0.000000
0.700000,0.580000,0.409601,0.040000,-625.132802,2618.200000,280.660006,-281.598246,1484.152232,0.000000,-0.000000,0.000000,1510.074256,-1511.012496,-0.376413,0.000000,-0.000000,-0.000000
0.740000,0.580000,0.440676,0.040000,-583.072006,2906.200000,337.305073,-338.085268,1371.149406,0.000000,-0.000000,0.000000,1411.731928,-1412.512123,-0.328936,0.000000,-0.000000,-0.000000
0.780000,0.580000,0.473093,0.040000,-541.549709,3210.200000,380.331861,-380.975038,1265.231984,0.000000,-0.000000,0.000000,1320.931204,-1321.574380,-0.288041,0.000000,-0.000000,-0.000000
0.820000,0.580000,0.504967,0.040000,-500.634963,3530.200000,412.126405,-412.652586,1166.696071,0.000000,-0.000000,0.000000,1237.171658,-1237.697838,-0.252784,0.000000,-0.000000,-0.000000
0.860000,0.580000,0.537704,0.040000,-460.378817,3866.200000,434.727971,-435.155408,1075.542127,0.000000,-0.000000,0.000000,1159.943637,-1160.371075,-0.222346,0.000000,-0.000000,-0.000000
0.900000,0.580000,0.571367,0.040000,-420.817585,4218.200000,449.858919,-450.203773,991.570949,0.000000,-0.000000,0.000000,1088.744981,-1089.089835,-0.196026,0.000000,-0.000000,-0.000000
0.940000,0.580000,0.605518,0.040000,-381.975600,4586.200000,458.960593,-459.236873,914.455269,0.000000,-0.000000,0.000000,1023.092067,-1023.368347,-0.173225,0.000000,-0.000000,-0.000000
0.980000,0.580000,0.639302,0.040000,-343.867531,4970.200000,463.230391,-463.450057,843.791974,0.000000,-0.000000,0.000000,962.526669,-962.746335,-0.153435,0.000000,-0.000000,-0.000000
1.020000,0.580000,0.673767,0.040000,-306.500295,5370.200000,463.657221,-463.830371,779.139357,0.000000,-0.000000,0.000000,906.619787,-906.792937,-0.136223,0.000000,-0.000000,-0.000000
1.060000,0.580000,0.708813,0.040000,-269.874646,5786.200000,461.053854,-461.188940,720.043045,0.000000,-0.000000,0.000000,854.973342,-855.108427,-0.121222,0.000000,-0.000000,-0.000000
1.100000,0.580000,0.744359,0.040000,-233.986478,6218.200000,455.782787,-455.452336,665.838627,0.000000,-0.000000,0.000000,806.966564,-806.636113,0.199570,0.000000,-0.000000,0.000000
1.140000,0.580000,0.779909,0.040000,-198.827887,6666.200000,448.762495,-449.575673,616.445873,0.000000,-0.000000,0.000000,762.324269,-763.137447,-0.134800,0.000000,-0.000000,-0.000000
1.180000,0.580000,0.815385,0.040000,-164.388048,7130.200000,440.483362,-440.569713,571.900899,0.000000,-0.000000,0.000000,721.852922,-721.939274,0.540621,0.000000,-0.000000,0.000000
-1.180000,0.620000,0.833379,0.040000,-147.355691,7154.200000,397.818835,-398.294858,-579.055995,0.000000,-0.000000,-0.000000,702.438729,-702.914752,-0.704449,0.000000,-0.000000,-0.000000
-1.140000,0.620000,0.798263,0.040000,-180.853460,6690.200000,401.557730,-402.293003,-622.844030,0.000000,-0.000000,-0.000000,740.899831,-741.635104,-1.107576,0.000000,-0.000000,-0.000000
-1.100000,0.620000,0.763628,0.040000,-214.995793,6242.200000,405.028664,-406.103251,-670.467800,0.000000,-0.000000,-0.000000,783.051100,-784.125686,-0.217166,0.000000,-0.000000,-0.000000
-1.060000,0.620000,0.728720,0.040000,-249.786698,5810.200000,405.658719,-405.349319,-721.709408,0.000000,-0.000000,-0.000000,827.981900,-827.672500,-0.326997,0.000000,-0.000000,-0.000000
-1.020000,0.620000,0.694093,0.040000,-285.226659,5394.200000,403.388911,-403.584530,-778.236830,0.000000,-0.000000,-0.000000,876.517316,-876.712935,-0.135708,0.000000,-0.000000,-0.000000
-0.980000,0.620000,0.660074,0.040000,-321.311744,4994.200000,397.548262,-397.789593,-839.326849,0.000000,-0.000000,-0.000000,928.647396,-928.888727,-0.152427,0.000000,-0.000000,-0.000000
-0.940000,0.620000,0.626762,0.040000,-358.032538,4610.200000,387.490213,-387.786067,-905.545966,0.000000,-0.000000,-0.000000,984.878364,-985.174219,-0.171554,0.000000,-0.000000,-0.000000
-0.900000,0.620000,0.593784,0.040000,-395.372865,4242.200000,372.263296,-372.623815,-977.157124,0.000000,-0.000000,-0.000000,1045.549251,-1045.909770,-0.193456,0.000000,-0.000000,-0.000000
-0.860000,0.620000,0.560648,0.040000,-433.308264,3890.200000,350.739562,-351.176235,-1054.355731,0.000000,-0.000000,-0.000000,1111.014046,-1111.450719,-0.218552,0.000000,-0.000000,-0.000000
-0.820000,0.620000,0.528463,0.040000,-471.804181,3554.200000,321.591343,-322.116914,-1137.231387,0.000000,-0.000000,-0.000000,1181.636215,-1182.161786,-0.247314,0.000000,-0.000000,-0.000000
-0.780000,0.620000,0.497414,0.040000,-510.813844,3234.200000,283.269802,-283.897992,-1225.716936,0.000000,-0.000000,-0.000000,1257.780399,-1258.408589,-0.280267,0.000000,-0.000000,-0.000000
-0.740000,0.620000,0.465972,0.040000,-550.275781,2930.200000,233.988493,-234.733445,-1319.522002,0.000000,-0.000000,-0.000000,1339.800377,-1340.545329,-0.317989,0.000000,-0.000000,-0.000000
-0.700000,0.620000,0.435533,0.040000,-590.110966,2642.200000,171.716876,-172.592186,-1418.048158,0.000000,-0.000000,-0.000000,1428.022225,-1428.897535,-0.361108,0.000000,-0.000000,-0.000000
-0.660000,0.620000,0.406753,0.040000,-630.219566,2370.200000,94.190906,-95.208098,-1520.283474,0.000000,-0.000000,-0.000000,1522.721416,-1523.738607,-0.410294,0.000000,-0.000000,-0.000000
-0.620000,0.620000,0.377265,0.040000,-670.477325,2114.200000,-1.049373,-0.116865,-1624.675629,-0.000000,0.000000,-0.000000,1624.092510,-1625.258748,-0.466254,0.000000,-0.000000,-0.000000
-0.580000,0.620000,0.349726,0.040000,-710.731631,1874.200000,-116.582272,115.267383,-1728.985717,-0.000000,0.000000,-0.000000,1732.210091,-1733.524979,-0.529719,0.000000,-0.000000,-0.000000
-0.540000,0.620000,0.322858,0.040000,-750.797409,1650.200000,-254.970936,253.519607,-1830.129918,-0.000000,0.000000,-0.000000,1846.979889,-1848.431219,-0.601446,0.000000,-0.000000,-0.000000
-0.500000,0.620000,0.297087,0.040000,-790.453031,1442.200000,-418.556054,416.997565,-1924.024023,-0.000000,0.000000,-0.000000,1968.079673,-1969.638162,-0.682209,0.000000,-0.000000,-0.000000
-0.460000,0.620000,0.272746,0.040000,-829.436600,1250.200000,-610.997036,607.970363,-2006.293155,-0.000000,0.000000,-0.000000,2095.312836,-2098.339509,-1.614170,0.000000,-0.000000,-0.000000
-0.420000,0.620000,0.249591,0.040000,-867.443073,1074.200000,-829.722868,829.228899,-2067.736173,-0.000000,0.000000,-0.000000,2227.655980,-2228.149949,-3.391434,0.000000,-0.000000,-0.000000
-0.380000,0.620000,0.227716,0.040000,-904.122863,914.200000,-1070.064157,1075.106336,-2104.262012,-0.000000,0.000000,-0.000000,2364.375703,-2359.333523,-0.717256,0.000000,-0.000000,-0.000000
-0.340000,0.620000,0.208557,0.040000,-939.082713,770.200000,-1344.373716,1351.664216,-2107.475437,-0.000000,0.000000,-0.000000,2505.363534,-2498.073035,-3.670797,0.000000,-0.000000,-0.000000
-0.300000,0.620000,0.189203,0.040000,-971.889743,642.200000,-1639.433751,1640.098595,-2062.888995,-0.000000,0.000000,-0.000000,2635.538719,-2634.873875,-5.646071,0.000000,-0.000000,-0.000000
-0.260000,0.620000,0.173066,0.040000,-1002.079548,530.200000,-1943.108511,1942.617906,-1967.252615,-0.000000,0.000000,-0.000000,2764.669095,-2765.159700,-6.976704,0.000000,-0.000000,-0.000000
0.260000,0.620000,0.173112,0.040000,-1001.875242,530.200000,-1940.374147,1939.890306,1968.339125,-0.000000,0.000000,0.000000,2763.533353,-2764.017193,4.267246,0.000000,-0.000000,0.000000
0.300000,0.620000,0.190157,0.040000,-971.667934,642.200000,-1636.764511,1637.433355,2063.478594,-0.000000,0.000000,0.000000,2634.347835,-2633.678990,3.188670,0.000000,-0.000000,0.000000
0.340000,0.620000,0.207519,0.040000,-938.847641,770.200000,-1341.856862,1349.146641,2107.638064,-0.000000,0.000000,0.000000,2504.147047,-2496.857268,1.460853,0.000000,-0.000000,0.000000
0.380000,0.620000,0.228153,0.040000,-903.878532,914.200000,-1067.751136,1072.795179,2104.078523,-0.000000,0.000000,0.000000,2363.163773,-2358.119730,-1.259708,0.000000,-0.000000,-0.000000
0.420000,0.620000,0.249526,0.040000,-867.193168,1074.200000,-827.643976,827.151441,2067.283206,-0.000000,0.000000,0.000000,2226.465246,-2226.957782,1.629493,0.000000,-0.000000,0.000000
0.460000,0.620000,0.272631,0.040000,-829.184427,1250.200000,-609.172775,606.150334,2005.639047,-0.000000,0.000000,0.000000,2094.160640,-2097.183082,0.059938,0.000000,-0.000000,0.000000
0.500000,0.620000,0.297227,0.040000,-790.201501,1442.200000,-416.983312,415.425584,1923.234806,-0.000000,0.000000,0.000000,1966.975641,-1968.533369,-0.687264,0.000000,-0.000000,-0.000000
0.540000,0.620000,0.322821,0.040000,-750.549040,1650.200000,-253.631482,252.181267,1829.254944,-0.000000,0.000000,0.000000,1845.929955,-1847.380169,-0.604660,0.000000,-0.000000,-0.000000
0.580000,0.620000,0.349558,0.040000,-710.488567,1874.200000,-115.457055,114.143457,1728.066148,-0.000000,0.000000,0.000000,1731.218320,-1732.531919,-0.531119,0.000000,-0.000000,-0.000000
0.620000,0.620000,0.377724,0.040000,-670.241368,2114.200000,-0.116196,-1.048703,1623.743102,0.000000,-0.000000,0.000000,1623.160653,-1624.325552,-0.466254,0.000000,-0.000000,-0.000000
0.660000,0.620000,0.405935,0.040000,-629.992212,2370.200000,94.955168,-95.971057,1519.361401,0.000000,-0.000000,0.000000,1521.849473,-1522.865361,-0.409399,0.000000,-0.000000,-0.000000
0.700000,0.620000,0.435994,0.040000,-589.893439,2642.200000,172.334787,-173.208882,1417.153151,0.000000,-0.000000,0.000000,1427.208928,-1428.083023,-0.359766,0.000000,-0.000000,-0.000000
0.740000,0.620000,0.466033,0.040000,-550.069072,2930.200000,234.481147,-235.224998,1318.665246,0.000000,-0.000000,0.000000,1339.043581,-1339.787431,-0.316535,0.000000,-0.000000,-0.000000
0.780000,0.620000,0.496799,0.040000,-510.618743,3234.200000,283.656330,-284.283545,1224.905409,0.000000,-0.000000,0.000000,1257.077385,-1257.704600,-0.278920,0.000000,-0.000000,-0.000000
0.820000,0.620000,0.528802,0.040000,-471.621308,3554.200000,321.888720,-322.413441,1136.468890,0.000000,-0.000000,0.000000,1180.983929,-1181.508649,-0.246195,0.000000,-0.000000,-0.000000
0.860000,0.620000,0.560958,0.040000,-433.138095,3890.200000,350.962600,-351.398541,1053.643735,0.000000,-0.000000,0.000000,1110.409270,-1110.845210,-0.217710,0.000000,-0.000000,-0.000000
0.900000,0.620000,0.593302,0.040000,-395.215759,4242.200000,372.424756,-372.784652,976.495436,0.000000,-0.000000,0.000000,1044.988730,-1045.348625,-0.192893,0.000000,-0.000000,-0.000000
0.940000,0.620000,0.626531,0.040000,-357.888754,4610.200000,387.600980,-387.896307,904.933249,0.000000,-0.000000,0.000000,984.358896,-984.654223,-0.171247,0.000000,-0.000000,-0.000000
0.980000,0.620000,0.660512,0.040000,-321.181459,4994.200000,397.617547,-397.858434,838.761012,0.000000,-0.000000,0.000000,928.165892,-928.406780,-0.152337,0.000000,-0.000000,-0.000000
1.020000,0.620000,0.694411,0.040000,-285.109986,5394.200000,403.424458,-403.619706,777.715322,0.000000,-0.000000,0.000000,876.070838,-876.266086,-0.135793,0.000000,-0.000000,-0.000000
1.060000,0.620000,0.728465,0.040000,-249.683694,5810.200000,405.667061,-405.357540,721.229542,0.000000,-0.000000,0.000000,827.567759,-827.258238,0.084555,0.000000,-0.000000,0.000000
1.100000,0.620000,0.763097,0.040000,-214.906472,6242.200000,405.014908,-406.088303,670.026430,0.000000,-0.000000,0.000000,782.666674,-783.740069,0.000898,0.000000,-0.000000,0.000000
1.140000,0.620000,0.798230,0.040000,-180.777801,6690.200000,401.527584,-402.261944,622.438140,0.000000,-0.000000,0.000000,740.542940,-741.277300,0.912676,0.000000,-0.000000,0.000000
1.180000,0.620000,0.833802,0.040000,-147.293644,7154.200000,397.774767,-398.249923,578.683384,0.000000,-0.000000,0.000000,702.107071,-702.582226,0.529710,0.000000,-0.000000,0.000000
-1.140000,0.660000,0.818076,0.040000,-162.149522,6715.800000,357.271791,-357.892375,-624.301206,0.000000,-0.000000,-0.000000,719.145318,-719.765902,-0.753068,0.000000,-0.000000,-0.000000
-1.100000,0.660000,0.783314,0.040000,-195.257112,6267.800000,355.936943,-357.363417,-669.456983,0.000000,-0.000000,-0.000000,757.819480,-759.245953,-0.347245,0.000000,-0.000000,-0.000000
-1.060000,0.660000,0.749075,0.040000,-228.935687,5835.800000,352.643530,-352.850841,-718.886483,0.000000,-0.000000,-0.000000,800.663424,-800.870735,-0.660620,0.000000,-0.000000,-0.000000
-1.020000,0.660000,0.715434,0.040000,-263.179224,5419.800000,346.507447,-346.717614,-771.954313,0.000000,-0.000000,-0.000000,846.094473,-846.304640,-0.134727,0.000000,-0.000000,-0.000000
-0.980000,0.660000,0.682479,0.040000,-297.976854,5019.800000,336.077717,-336.331460,-829.124627,0.000000,-0.000000,-0.000000,894.569250,-894.822993,-0.150679,0.000000,-0.000000,-0.000000
-0.940000,0.660000,0.649217,0.040000,-333.311821,4635.800000,321.217372,-321.522111,-890.576476,0.000000,-0.000000,-0.000000,946.634271,-946.939010,-0.168804,0.000000,-0.000000,-0.000000
-0.900000,0.660000,0.616465,0.040000,-369.160271,4267.800000,301.037277,-301.401288,-956.422087,0.000000,-0.000000,-0.000000,1002.552371,-1002.916382,-0.189405,0.000000,-0.000000,-0.000000
-0.860000,0.660000,0.584617,0.040000,-405.489827,3915.800000,274.504497,-274.936814,-1026.687492,0.000000,-0.000000,-0.000000,1062.590786,-1063.023102,-0.212823,0.000000,-0.000000,-0.000000
-0.820000,0.660000,0.553701,0.040000,-442.257931,3579.800000,240.429359,-240.939552,-1101.275965,0.000000,-0.000000,-0.000000,1127.014925,-1127.525118,-0.239435,0.000000,-0.000000,-0.000000
-0.780000,0.660000,0.522248,0.040000,-479.409946,3259.800000,197.456455,-198.054232,-1179.921408,0.000000,-0.000000,-0.000000,1196.079660,-1196.677437,-0.269653,0.000000,-0.000000,-0.000000
-0.740000,0.660000,0.492039,0.040000,-516.876981,2955.800000,144.062798,-144.757345,-1262.130114,0.000000,-0.000000,-0.000000,1270.017478,-1270.712025,-0.303921,0.000000,-0.000000,-0.000000
-0.700000,0.660000,0.463280,0.040000,-554.573459,2667.800000,78.567564,-79.366546,-1347.109768,0.000000,-0.000000,-0.000000,1349.022758,-1349.821740,-0.342710,0.000000,-0.000000,-0.000000
-0.660000,0.660000,0.433829,0.040000,-592.394431,2395.800000,-0.840574,-0.067545,-1433.685463,-0.000000,0.000000,-0.000000,1433.231403,-1434.139522,-0.386514,0.000000,-0.000000,-0.000000
-0.620000,0.660000,0.406186,0.040000,-630.212677,2139.800000,-96.050842,95.033828,-1520.204249,-0.000000,0.000000,-0.000000,1522.695060,-1523.712073,-0.435840,0.000000,-0.000000,-0.000000
-0.580000,0.660000,0.379394,0.040000,-667.875697,1899.800000,-208.943244,207.825097,-1604.432580,-0.000000,0.000000,-0.000000,1617.349337,-1618.467484,-0.491203,0.000000,-0.000000,-0.000000
-0.540000,0.660000,0.353218,0.040000,-705.202709,1675.800000,-341.256685,340.055844,-1683.455288,-0.000000,0.000000,-0.000000,1716.975806,-1718.176647,-0.553113,0.000000,-0.000000,-0.000000
-0.500000,0.660000,0.329047,0.040000,-741.981890,1467.800000,-494.402553,493.151705,-1753.590633,-0.000000,0.000000,-0.000000,1821.158201,-1822.409049,-0.622059,0.000000,-0.000000,-0.000000
-0.460000,0.660000,0.304922,0.040000,-777.968131,1275.800000,-669.217016,667.966680,-1810.343384,-0.000000,0.000000,-0.000000,1929.234345,-1930.484681,-0.698474,0.000000,-0.000000,-0.000000
-0.420000,0.660000,0.283316,0.040000,-812.881732,1099.800000,-865.652406,864.473803,-1848.425938,-0.000000,0.000000,-0.000000,2040.246804,-2041.425407,-0.782651,0.000000,-0.000000,-0.000000
-0.380000,0.660000,0.262124,0.040000,-846.408507,939.800000,-1085.491747,1082.824732,-1862.474718,-0.000000,0.000000,-0.000000,2153.708214,-2156.375228,-2.519198,0.000000,-0.000000,-0.000000
-0.340000,0.660000,0.243081,0.040000,-878.201880,795.800000,-1317.473744,1320.123740,-1841.322290,-0.000000,0.000000,-0.000000,2266.203519,-2263.553523,-4.814482,0.000000,-0.000000,-0.000000
-0.300000,0.660000,0.226134,0.040000,-907.887552,667.800000,-1562.606647,1566.316823,-1791.827964,-0.000000,0.000000,-0.000000,2380.549626,-2376.839450,-0.515797,0.000000,-0.000000,-0.000000
-0.260000,0.660000,0.209767,0.040000,-935.071271,555.800000,-1822.037864,1822.205613,-1691.839203,-0.000000,0.000000,-0.000000,2486.530644,-2486.362895,-5.475664,0.000000,-0.000000,-0.000000
-0.220000,0.660000,0.196585,0.040000,-959.350034,459.800000,-2072.809484,2071.285208,-1547.265191,-0.000000,0.000000,-0.000000,2585.234853,-2586.759129,-5.416255,0.000000,-0.000000,-0.000000
-0.180000,0.660000,0.185447,0.040000,-980.326682,379.800000,-2308.471820,2306.144345,-1353.556433,-0.000000,0.000000,-0.000000,2673.861107,-2676.188583,-5.261638,0.000000,-0.000000,-0.000000
-0.140000,0.660000,0.175171,0.040000,-997.627374,315.800000,-2515.960177,2510.420231,-1111.507502,-0.000000,0.000000,-0.000000,2745.239059,-2750.779004,-4.504457,0.000000,-0.000000,-0.000000
-0.100000,0.660000,0.168052,0.040000,-1010.920804,267.800000,-2686.594501,2681.058136,-828.374070,-0.000000,0.000000,-0.000000,2805.988232,-2811.524598,-3.835435,0.000000,-0.000000,-0.000000
-0.060000,0.660000,0.164090,0.040000,-1019.937461,235.800000,-2807.193455,2801.209689,-510.975800,-0.000000,0.000000,-0.000000,2847.382349,-2853.366114,-3.076546,0.000000,-0.000000,-0.000000
-0.020000,0.660000,0.161580,0.040000,-1024.486834,219.800000,-2869.584193,2863.366345,-171.795236,-0.000000,0.000000,-0.000000,2868.509038,-2874.726886,-2.086377,0.000000,-0.000000,-0.000000
0.020000,0.660000,0.160809,0.040000,-1024.470396,219.800000,-2869.301957,2863.085164,174.868918,-0.000000,0.000000,0.000000,2868.414486,-2874.631280,-0.998723,0.000000,-0.000000,-0.000000
0.060000,0.660000,0.163195,0.040000,-1019.888594,235.800000,-2806.367195,2800.386505,513.916318,-0.000000,0.000000,0.000000,2847.102941,-2853.083632,0.035513,0.000000,-0.000000,0.000000
0.100000,0.660000,0.168737,0.040000,-1010.840812,267.800000,-2685.282533,2679.750994,831.062421,-0.000000,0.000000,0.000000,2805.536237,-2811.067776,0.879817,0.000000,-0.000000,0.000000
0.140000,0.660000,0.175949,0.040000,-997.518331,315.800000,-2514.252273,2508.724689,1113.853795,-0.000000,0.000000,0.000000,2744.642600,-2750.170183,1.669360,0.000000,-0.000000,0.000000
0.180000,0.660000,0.184556,0.040000,-980.191291,379.800000,-2306.470445,2304.149236,1355.489723,-0.000000,0.000000,0.000000,2673.124195,-2675.445404,2.581542,0.000000,-0.000000,0.000000
0.220000,0.660000,0.196331,0.040000,-959.191463,459.800000,-2070.627725,2069.109508,1548.764347,-0.000000,0.000000,0.000000,2584.394393,-2585.912610,2.909692,0.000000,-0.000000,0.000000
0.260000,0.660000,0.210930,0.040000,-934.892979,555.800000,-1819.779836,1819.951224,1692.906484,-0.000000,0.000000,0.000000,2485.610377,-2485.438989,3.156327,0.000000,-0.000000,0.000000
0.300000,0.660000,0.225444,0.040000,-907.693124,667.800000,-1560.365787,1564.078523,1792.494803,-0.000000,0.000000,0.000000,2379.580719,-2375.867983,-1.610027,0.000000,-0.000000,-0.000000
0.340000,0.660000,0.243173,0.040000,-877.994883,795.800000,-1315.314057,1317.962480,1841.635886,-0.000000,0.000000,0.000000,2265.203805,-2262.555382,2.873315,0.000000,-0.000000,0.000000
0.380000,0.660000,0.262438,0.040000,-846.192373,939.800000,-1083.473766,1080.809412,1862.479246,-0.000000,0.000000,0.000000,2152.700962,-2155.365316,0.772870,0.000000,-0.000000,0.000000
0.420000,0.660000,0.282767,0.040000,-812.659676,1099.800000,-863.811657,862.632037,1848.186403,-0.000000,0.000000,0.000000,2039.249478,-2040.429098,-0.783862,0.000000,-0.000000,-0.000000
0.460000,0.660000,0.305560,0.040000,-777.743098,1275.800000,-667.565109,666.314486,1809.912283,-0.000000,0.000000,0.000000,1928.257959,-1929.508582,-0.702266,0.000000,-0.000000,-0.000000
0.500000,0.660000,0.328444,0.040000,-741.756522,1467.800000,-492.944829,491.694231,1753.018240,-0.000000,0.000000,0.000000,1820.212717,-1821.463314,-0.626160,0.000000,-0.000000,-0.000000
0.540000,0.660000,0.353683,0.040000,-704.979339,1675.800000,-339.989100,338.788875,1682.785198,-0.000000,0.000000,0.000000,1716.068347,-1717.268572,-0.556378,0.000000,-0.000000,-0.000000
0.580000,0.660000,0.379156,0.040000,-667.656353,1899.800000,-207.855362,206.738053,1603.701115,-0.000000,0.000000,0.000000,1616.484619,-1617.601929,-0.493253,0.000000,-0.000000,-0.000000
0.620000,0.660000,0.406124,0.040000,-629.999102,2139.800000,-95.128313,94.112247,1519.440626,-0.000000,0.000000,0.000000,1521.875829,-1522.891895,-0.436735,0.000000,-0.000000,-0.000000
0.660000,0.660000,0.434254,0.040000,-592.188102,2395.800000,-0.067056,-0.840084,1432.912422,0.000000,-0.000000,0.000000,1432.458852,-1433.365992,-0.386514,0.000000,-0.000000,-0.000000
0.700000,0.660000,0.462476,0.040000,-554.375615,2667.800000,79.209001,-80.007028,1346.344425,0.000000,-0.000000,0.000000,1348.296886,-1349.094913,-0.342123,0.000000,-0.000000,-0.000000
0.740000,0.660000,0.492334,0.040000,-516.688649,2955.800000,144.588718,-145.282367,1261.384883,0.000000,-0.000000,0.000000,1269.337405,-1270.031054,-0.303022,0.000000,-0.000000,-0.000000
0.780000,0.660000,0.522494,0.040000,-479.231970,3259.800000,197.882448,-198.479404,1179.204894,0.000000,-0.000000,0.000000,1195.443881,-1196.040837,-0.268655,0.000000,-0.000000,-0.000000
0.820000,0.660000,0.553012,0.040000,-442.090994,3579.800000,240.769699,-241.279157,1100.593763,0.000000,-0.000000,0.000000,1126.421511,-1126.930968,-0.238482,0.000000,-0.000000,-0.000000
0.860000,0.660000,0.584675,0.040000,-405.334474,3915.800000,274.771991,-275.203658,1026.042878,0.000000,-0.000000,0.000000,1062.037548,-1062.469215,-0.212001,0.000000,-0.000000,-0.000000
0.900000,0.660000,0.617054,0.040000,-369.016932,4267.800000,301.243231,-301.606676,955.816592,0.000000,-0.000000,0.000000,1002.036979,-1002.400424,-0.188755,0.000000,-0.000000,-0.000000
0.940000,0.660000,0.649068,0.040000,-333.180825,4635.800000,321.371654,-321.675905,890.010348,0.000000,-0.000000,0.000000,946.154343,-946.458594,-0.168337,0.000000,-0.000000,-0.000000
0.980000,0.660000,0.681926,0.040000,-297.858449,5019.800000,336.188852,-336.442176,828.597200,0.000000,-0.000000,0.000000,894.122421,-894.375745,-0.150386,0.000000,-0.000000,-0.000000
1.020000,0.660000,0.715512,0.040000,-263.073590,5419.800000,346.582747,-346.792556,771.464292,0.000000,-0.000000,0.000000,845.678438,-845.888248,-0.134587,0.000000,-0.000000,-0.000000
1.060000,0.660000,0.749727,0.040000,-228.842943,5835.800000,352.689207,-352.896033,718.432161,0.000000,-0.000000,0.000000,800.276014,-800.482840,0.419377,0.000000,-0.000000,0.000000
1.100000,0.660000,0.783430,0.040000,-195.177332,6267.800000,355.958940,-357.383974,669.036587,0.000000,-0.000000,0.000000,757.459275,-758.884309,0.130638,0.000000,-0.000000,0.000000
1.140000,0.660000,0.817690,0.040000,-162.082742,6715.800000,357.273973,-357.893552,623.912367,0.000000,-0.000000,0.000000,718.809448,-719.429027,0.557999,0.000000,-0.000000,0.000000
-1.140000,0.700000,0.838169,0.040000,-142.872011,6743.000000,314.763283,-315.334965,-622.777405,0.000000,-0.000000,-0.000000,697.644707,-698.216389,-0.772343,0.000000,-0.000000,-0.000000
-1.100000,0.700000,0.804276,0.040000,-174.946786,6295.000000,309.877644,-310.783928,-665.600816,0.000000,-0.000000,-0.000000,733.937107,-734.843390,-0.778339,0.000000,-0.000000,-0.000000
-1.060000,0.700000,0.770969,0.040000,-207.518909,5863.000000,302.725791,-304.367970,-711.912757,0.000000,-0.000000,-0.000000,773.104192,-774.746372,-0.374537,0.000000,-0.000000,-0.000000
-1.020000,0.700000,0.737996,0.040000,-240.576723,5447.000000,292.734993,-292.943128,-761.607159,0.000000,-0.000000,-0.000000,815.861460,-816.069594,-0.662835,0.000000,-0.000000,-0.000000
-0.980000,0.700000,0.704830,0.040000,-274.103449,5047.000000,279.016266,-279.275000,-814.631386,0.000000,-0.000000,-0.000000,861.001609,-861.260342,-0.148094,0.000000,-0.000000,-0.000000
-0.940000,0.700000,0.672408,0.040000,-308.076206,4663.000000,260.240270,-260.545603,-871.199091,0.000000,-0.000000,-0.000000,909.128539,-909.433872,-0.165155,0.000000,-0.000000,-0.000000
-0.900000,0.700000,0.640843,0.040000,-342.464883,4295.000000,236.137712,-236.496146,-931.247077,0.000000,-0.000000,-0.000000,960.584425,-960.942859,-0.184411,0.000000,-0.000000,-0.000000
-0.860000,0.700000,0.609752,0.040000,-377.230834,3943.000000,205.783978,-206.202302,-994.668280,0.000000,-0.000000,-0.000000,1015.565478,-1015.983802,-0.206134,0.000000,-0.000000,-0.000000
-0.820000,0.700000,0.578581,0.040000,-412.325403,3607.000000,168.136895,-168.621896,-1061.225998,0.000000,-0.000000,-0.000000,1074.258401,-1074.743402,-0.230623,0.000000,-0.000000,-0.000000
-0.780000,0.700000,0.548557,0.040000,-447.688253,3287.000000,122.037074,-122.595088,-1130.513217,0.000000,-0.000000,-0.000000,1136.831934,-1137.389947,-0.258198,0.000000,-0.000000,-0.000000
-0.740000,0.700000,0.519719,0.040000,-483.245513,2983.000000,66.216235,-66.852475,-1201.903846,0.000000,-0.000000,-0.000000,1203.425869,-1204.062109,-0.289196,0.000000,-0.000000,-0.000000
-0.700000,0.700000,0.490395,0.040000,-518.907751,2695.000000,-0.682781,-0.034844,-1274.495883,-0.000000,0.000000,-0.000000,1274.137070,-1274.854696,-0.323969,0.000000,-0.000000,-0.000000
-0.660000,0.700000,0.462673,0.040000,-554.567806,2423.000000,-80.069630,79.270771,-1347.047580,-0.000000,0.000000,-0.000000,1349.002065,-1349.800924,-0.362875,0.000000,-0.000000,-0.000000
-0.620000,0.700000,0.435938,0.040000,-590.098536,2167.000000,-173.348188,172.473167,-1417.909309,-0.000000,0.000000,-0.000000,1427.975856,-1428.850877,-0.406273,0.000000,-0.000000,-0.000000
-0.580000,0.700000,0.409470,0.040000,-625.350580,1927.000000,-281.830327,280.891089,-1484.956290,-0.000000,0.000000,-0.000000,1510.906848,-1511.846086,-0.454512,0.000000,-0.000000,-0.000000
-0.540000,0.700000,0.385343,0.040000,-660.150270,1703.000000,-406.615889,405.633467,-1545.530586,-0.000000,0.000000,-0.000000,1597.508097,-1598.490520,-0.507917,0.000000,-0.000000,-0.000000
-0.500000,0.700000,0.360637,0.040000,-694.297885,1495.000000,-548.434575,547.441358,-1596.404879,-0.000000,0.000000,-0.000000,1687.325725,-1688.318943,-0.566764,0.000000,-0.000000,-0.000000
-0.460000,0.700000,0.338769,0.040000,-727.566500,1303.000000,-707.449073,706.490766,-1633.785036,-0.000000,0.000000,-0.000000,1779.706120,-1780.664428,-0.631235,0.000000,-0.000000,-0.000000
-0.420000,0.700000,0.316737,0.040000,-759.701746,1127.000000,-883.025192,882.161898,-1653.372561,-0.000000,0.000000,-0.000000,1873.764634,-1874.627928,-0.701334,0.000000,-0.000000,-0.000000
-0.380000,0.700000,0.297932,0.040000,-790.422847,967.000000,-1073.484526,1072.790207,-1650.510140,-0.000000,0.000000,-0.000000,1968.359758,-1969.054077,-0.776757,0.000000,-0.000000,-0.000000
-0.340000,0.700000,0.278617,0.040000,-819.425326,823.000000,-1279.180622,1276.247681,-1621.828621,-0.000000,0.000000,-0.000000,2063.207575,-2066.140516,-1.617075,0.000000,-0.000000,-0.000000
-0.300000,0.700000,0.262506,0.040000,-846.385756,695.000000,-1490.687887,1487.489716,-1560.131703,-0.000000,0.000000,-0.000000,2155.109252,-2158.307423,-2.352785,0.000000,-0.000000,-0.000000
-0.260000,0.700000,0.247492,0.040000,-870.968841,583.000000,-1698.070883,1699.032670,-1460.861669,-0.000000,0.000000,-0.000000,2240.835840,-2239.874052,-2.160828,0.000000,-0.000000,-0.000000
-0.220000,0.700000,0.234183,0.040000,-892.836946,487.000000,-1902.909881,1904.572129,-1326.954791,-0.000000,0.000000,-0.000000,2321.399667,-2319.737419,-0.685352,0.000000,-0.000000,-0.000000
-0.180000,0.700000,0.224045,0.040000,-911.661915,407.000000,-2099.056245,2098.130617,-1151.766096,-0.000000,0.000000,-0.000000,2393.414311,-2394.339939,-3.440618,0.000000,-0.000000,-0.000000
-0.140000,0.700000,0.214636,0.040000,-927.138676,343.000000,-2268.309847,2266.178721,-940.108804,-0.000000,0.000000,-0.000000,2453.355624,-2455.486750,-4.224291,0.000000,-0.000000,-0.000000
-0.100000,0.700000,0.207508,0.040000,-938.999747,295.000000,-2404.530948,2402.243077,-697.122270,-0.000000,0.000000,-0.000000,2501.301833,-2503.589703,-3.710984,0.000000,-0.000000,-0.000000
-0.060000,0.700000,0.203539,0.040000,-947.029420,263.000000,-2500.250652,2497.855196,-428.645577,-0.000000,0.000000,-0.000000,2534.348404,-2536.743860,-2.891485,0.000000,-0.000000,-0.000000
-0.020000,0.700000,0.201522,0.040000,-951.076191,247.000000,-2549.572795,2547.122757,-143.881212,-0.000000,0.000000,-0.000000,2551.180660,-2553.630698,-1.854601,0.000000,-0.000000,-0.000000
0.020000,0.700000,0.200747,0.040000,-951.062015,247.000000,-2549.349966,2546.900174,146.456525,-0.000000,0.000000,0.000000,2551.105481,-2553.555273,-0.729226,0.000000,-0.000000,-0.000000
0.060000,0.700000,0.203129,0.040000,-946.987245,263.000000,-2499.596553,2497.201825,431.121621,-0.000000,0.000000,0.000000,2534.125937,-2536.520666,0.340307,0.000000,-0.000000,0.000000
0.100000,0.700000,0.208667,0.040000,-938.930607,295.000000,-2403.486819,2401.200134,699.409180,-0.000000,0.000000,0.000000,2500.940965,-2503.227650,1.223360,0.000000,-0.000000,0.000000
0.140000,0.700000,0.214541,0.040000,-927.044226,343.000000,-2266.938461,2264.808933,942.133899,-0.000000,0.000000,0.000000,2452.870149,-2454.999676,1.827823,0.000000,-0.000000,0.000000
0.180000,0.700000,0.223205,0.040000,-911.544326,407.000000,-2097.435377,2096.510944,1153.478031,-0.000000,0.000000,0.000000,2392.821439,-2393.745873,1.159436,0.000000,-0.000000,0.000000
0.220000,0.700000,0.235030,0.040000,-892.698789,487.000000,-1901.120162,1902.785719,1328.330586,-0.000000,0.000000,0.000000,2320.721781,-2319.056224,-1.465976,0.000000,-0.000000,-0.000000
0.260000,0.700000,0.247356,0.040000,-870.812956,583.000000,-1696.188551,1697.155841,1461.892786,-0.000000,0.000000,0.000000,2240.087859,-2239.120569,0.152738,0.000000,-0.000000,0.000000
0.300000,0.700000,0.262089,0.040000,-846.215124,695.000000,-1488.794050,1485.599351,1560.830682,-0.000000,0.000000,0.000000,2154.312248,-2157.506947,0.500589,0.000000,-0.000000,0.000000
0.340000,0.700000,0.279432,0.040000,-819.242958,823.000000,-1277.334479,1274.402087,1622.228205,-0.000000,0.000000,0.000000,2062.380751,-2065.313142,-0.080808,0.000000,-0.000000,-0.000000
0.380000,0.700000,0.296888,0.040000,-790.231684,967.000000,-1071.731605,1071.035421,1650.648630,-0.000000,0.000000,0.000000,1967.519520,-1968.215704,-0.769448,0.000000,-0.000000,-0.000000
0.420000,0.700000,0.317571,0.040000,-759.504591,1127.000000,-881.393726,880.529279,1653.290175,-0.000000,0.000000,0.000000,1872.923344,-1873.787791,-0.699933,0.000000,-0.000000,-0.000000
0.460000,0.700000,0.338025,0.040000,-727.365962,1303.000000,-705.959320,705.000458,1633.524155,-0.000000,0.000000,0.000000,1778.875125,-1779.833987,-0.632948,0.000000,-0.000000,-0.000000
0.500000,0.700000,0.361395,0.040000,-694.096347,1495.000000,-547.096414,546.103112,1596.005625,-0.000000,0.000000,0.000000,1686.513999,-1687.507301,-0.569616,0.000000,-0.000000,-0.000000
0.540000,0.700000,0.384477,0.040000,-659.949872,1703.000000,-405.431027,404.448865,1545.029096,-0.000000,0.000000,0.000000,1596.722431,-1597.704594,-0.510713,0.000000,-0.000000,-0.000000
0.580000,0.700000,0.410170,0.040000,-625.153219,1927.000000,-280.794451,279.855707,1484.383823,-0.000000,0.000000,0.000000,1510.152115,-1511.090859,-0.456668,0.000000,-0.000000,-0.000000
0.620000,0.700000,0.435552,0.040000,-589.905870,2167.000000,-172.452880,171.578495,1417.291999,-0.000000,0.000000,0.000000,1427.255296,-1428.129681,-0.407615,0.000000,-0.000000,-0.000000
0.660000,0.700000,0.462691,0.040000,-554.381268,2423.000000,-79.303944,78.505794,1346.406613,-0.000000,0.000000,0.000000,1348.317579,-1349.115729,-0.363462,0.000000,-0.000000,-0.000000
0.700000,0.700000,0.490793,0.040000,-518.728567,2695.000000,-0.034480,-0.682417,1273.847938,0.000000,-0.000000,0.000000,1273.489490,-1274.206386,-0.323969,0.000000,-0.000000,-0.000000
0.740000,0.700000,0.519024,0.040000,-483.074721,2983.000000,66.759777,-67.395304,1201.261669,0.000000,-0.000000,0.000000,1202.815193,-1203.450720,-0.288801,0.000000,-0.000000,-0.000000
0.780000,0.700000,0.548720,0.040000,-447.526725,3287.000000,122.488234,-123.045573,1129.886236,0.000000,-0.000000,0.000000,1136.257538,-1136.814877,-0.257582,0.000000,-0.000000,-0.000000
0.820000,0.700000,0.578977,0.040000,-412.173861,3607.000000,168.507391,-168.991770,1060.620910,0.000000,-0.000000,0.000000,1073.719208,-1074.203587,-0.229925,0.000000,-0.000000,-0.000000
0.860000,0.700000,0.609292,0.040000,-377.089872,3943.000000,206.084628,-206.502389,994.089596,0.000000,-0.000000,0.000000,1015.060096,-1015.477856,-0.205450,0.000000,-0.000000,-0.000000
0.900000,0.700000,0.640671,0.040000,-342.334983,4295.000000,236.378313,-236.736244,930.697587,0.000000,-0.000000,0.000000,960.111256,-960.469188,-0.183802,0.000000,-0.000000,-0.000000
0.940000,0.700000,0.672965,0.040000,-307.957754,4663.000000,260.429563,-260.734454,870.680266,0.000000,-0.000000,0.000000,908.685869,-908.990759,-0.164656,0.000000,-0.000000,-0.000000
0.980000,0.700000,0.704961,0.040000,-273.996748,5047.000000,279.161965,-279.420312,814.143700,0.000000,-0.000000,0.000000,860.587669,-860.846016,-0.147714,0.000000,-0.000000,-0.000000
1.020000,0.700000,0.737499,0.040000,-240.482007,5447.000000,292.843766,-293.051592,761.150319,0.000000,-0.000000,0.000000,815.474405,-815.682231,0.397184,0.000000,-0.000000,0.000000
1.060000,0.700000,0.770739,0.040000,-207.436353,5863.000000,302.803992,-304.444467,711.486048,0.000000,-0.000000,0.000000,772.742979,-774.383455,0.135847,0.000000,-0.000000,0.000000
1.100000,0.700000,0.804595,0.040000,-174.876514,6295.000000,309.930209,-310.835341,665.203172,0.000000,-0.000000,0.000000,733.599483,-734.504615,0.562829,0.000000,-0.000000,0.000000
1.140000,0.700000,0.838607,0.040000,-142.814107,6743.000000,314.793691,-315.364655,622.407089,0.000000,-0.000000,0.000000,697.328406,-697.899369,0.578017,0.000000,-0.000000,0.000000
-1.100000,0.740000,0.826644,0.040000,-154.138403,6323.800000,266.723952,-267.413968,-658.540755,0.000000,-0.000000,-0.000000,710.289282,-710.979298,-0.813114,0.000000,-0.000000,-0.000000
-1.060000,0.740000,0.793437,0.040000,-185.615592,5891.800000,256.949922,-258.138653,-701.312561,0.000000,-0.000000,-0.000000,746.512298,-747.701029,0.047536,0.000000,-0.000000,0.000000
-1.020000,0.740000,0.760585,0.040000,-217.504298,5475.800000,243.320286,-244.253628,-748.032314,0.000000,-0.000000,-0.000000,786.288867,-787.222209,-0.383838,0.000000,-0.000000,-0.000000
-0.980000,0.740000,0.728448,0.040000,-249.782811,5075.800000,226.242976,-226.336488,-796.622802,0.000000,-0.000000,-0.000000,828.092577,-828.186088,-0.421263,0.000000,-0.000000,-0.000000
-0.940000,0.740000,0.697125,0.040000,-282.423255,4691.800000,204.570853,-204.870253,-848.325532,0.000000,-0.000000,-0.000000,872.528183,-872.827583,-0.160806,0.000000,-0.000000,-0.000000
-0.900000,0.740000,0.665891,0.040000,-315.390556,4323.800000,177.469593,-177.815613,-902.677454,0.000000,-0.000000,-0.000000,919.817994,-920.164014,-0.178710,0.000000,-0.000000,-0.000000
-0.860000,0.740000,0.634956,0.040000,-348.641282,3971.800000,144.337056,-144.734524,-959.484395,0.000000,-0.000000,-0.000000,970.110938,-970.508406,-0.198765,0.000000,-0.000000,-0.000000
-0.820000,0.740000,0.605085,0.040000,-382.122343,3635.800000,104.278699,-104.732065,-1018.410247,0.000000,-0.000000,-0.000000,1023.531471,-1023.984837,-0.221203,0.000000,-0.000000,-0.000000
-0.780000,0.740000,0.576183,0.040000,-415.769560,3315.800000,56.323450,-56.836332,-1078.955834,0.000000,-0.000000,-0.000000,1080.181857,-1080.694739,-0.246270,0.000000,-0.000000,-0.000000
-0.740000,0.740000,0.546961,0.040000,-449.506114,3011.800000,-0.561505,-0.013062,-1140.419674,-0.000000,0.000000,-0.000000,1140.132391,-1140.706957,-0.274222,0.000000,-0.000000,-0.000000
-0.700000,0.740000,0.519178,0.040000,-483.240897,2723.800000,-67.445109,66.808956,-1201.854353,-0.000000,0.000000,-0.000000,1203.409397,-1204.045550,-0.305315,0.000000,-0.000000,-0.000000
-0.660000,0.740000,0.492488,0.040000,-516.866800,2451.800000,-145.392589,144.698245,-1262.020237,-0.000000,0.000000,-0.000000,1269.980792,-1270.675135,-0.339806,0.000000,-0.000000,-0.000000
-0.620000,0.740000,0.465798,0.040000,-550.259021,2195.800000,-235.407691,234.663092,-1319.339677,-0.000000,0.000000,-0.000000,1339.739142,-1340.483741,-0.377940,0.000000,-0.000000,-0.000000
-0.580000,0.740000,0.441125,0.040000,-583.273459,1955.800000,-338.353406,337.572433,-1371.856732,-0.000000,0.000000,-0.000000,1412.482351,-1413.263323,-0.419941,0.000000,-0.000000,-0.000000
-0.540000,0.740000,0.416582,0.040000,-615.745347,1731.800000,-454.848432,454.052382,-1417.209768,-0.000000,0.000000,-0.000000,1487.892431,-1488.688482,-0.465997,0.000000,-0.000000,-0.000000
-0.500000,0.740000,0.393759,0.040000,-647.488271,1523.800000,-585.138522,584.357432,-1452.626885,-0.000000,0.000000,-0.000000,1565.513282,-1566.294372,-0.516226,0.000000,-0.000000,-0.000000
-0.460000,0.740000,0.371934,0.040000,-678.293789,1331.800000,-728.945246,728.218797,-1474.956577,-0.000000,0.000000,-0.000000,1644.728974,-1645.455422,-0.570640,0.000000,-0.000000,-0.000000
-0.420000,0.740000,0.351534,0.040000,-707.931897,1155.800000,-885.299898,884.677473,-1480.747634,-0.000000,0.000000,-0.000000,1724.744767,-1725.367193,-0.629068,0.000000,-0.000000,-0.000000
-0.380000,0.740000,0.332443,0.040000,-736.152584,995.800000,-1052.377227,1051.916650,-1466.391937,-0.000000,0.000000,-0.000000,1804.573860,-1805.034437,-0.691054,0.000000,-0.000000,-0.000000
-0.340000,0.740000,0.315224,0.040000,-762.688775,851.800000,-1227.351830,1227.116324,-1428.340253,-0.000000,0.000000,-0.000000,1883.033539,-1883.269044,-0.755727,0.000000,-0.000000,-0.000000
-0.300000,0.740000,0.298930,0.040000,-787.260851,723.800000,-1406.308003,1406.361039,-1363.393000,-0.000000,0.000000,-0.000000,1958.754825,-1958.701790,-0.821660,0.000000,-0.000000,-0.000000
-0.260000,0.740000,0.285820,0.040000,-809.582920,611.800000,-1587.871592,1585.554731,-1270.549384,-0.000000,0.000000,-0.000000,2031.562181,-2033.879042,-1.143564,0.000000,-0.000000,-0.000000
-0.220000,0.740000,0.272467,0.040000,-829.370815,515.800000,-1760.794349,1757.517213,-1145.713200,-0.000000,0.000000,-0.000000,2097.715097,-2100.992232,-1.411230,0.000000,-0.000000,-0.000000
-0.180000,0.740000,0.262260,0.040000,-846.351630,435.800000,-1918.125924,1915.289527,-990.148332,-0.000000,0.000000,-0.000000,2155.932380,-2158.768778,-0.838823,0.000000,-0.000000,-0.000000
-0.140000,0.740000,0.254269,0.040000,-860.274345,371.800000,-2055.759466,2052.626601,-805.062884,-0.000000,0.000000,-0.000000,2204.750478,-2207.883343,-0.979537,0.000000,-0.000000,-0.000000
-0.100000,0.740000,0.247139,0.040000,-870.920876,323.800000,-2165.989151,2162.621689,-594.719899,-0.000000,0.000000,-0.000000,2242.844854,-2246.212316,-1.068480,0.000000,-0.000000,-0.000000
-0.060000,0.740000,0.243168,0.040000,-878.116646,291.800000,-2243.018486,2239.488807,-364.728994,-0.000000,0.000000,-0.000000,2268.971587,-2272.501266,-1.108039,0.000000,-0.000000,-0.000000
-0.020000,0.740000,0.241482,0.040000,-881.739702,275.800000,-2282.575939,2278.963551,-122.264700,-0.000000,0.000000,-0.000000,2282.238039,-2285.850427,-1.108651,0.000000,-0.000000,-0.000000
0.020000,0.740000,0.240705,0.040000,-881.727431,275.800000,-2282.397428,2278.785412,124.453842,-0.000000,0.000000,0.000000,2282.178406,-2285.790421,-1.086927,0.000000,-0.000000,-0.000000
0.060000,0.740000,0.243085,0.040000,-878.080117,291.800000,-2242.493276,2238.964698,366.842299,-0.000000,0.000000,0.000000,2268.794791,-2272.323370,-1.062185,0.000000,-0.000000,-0.000000
0.100000,0.740000,0.248039,0.040000,-870.860920,323.800000,-2165.146983,2161.781303,596.687999,-0.000000,0.000000,0.000000,2242.557022,-2245.922702,-1.052323,0.000000,-0.000000,-0.000000
0.140000,0.740000,0.253570,0.040000,-860.192296,371.800000,-2054.646036,2051.515555,806.828340,-0.000000,0.000000,0.000000,2204.361226,-2207.491708,-1.070209,0.000000,-0.000000,-0.000000
0.180000,0.740000,0.262259,0.040000,-846.249250,435.800000,-1916.797882,1913.964362,991.669322,-0.000000,0.000000,0.000000,2155.454035,-2158.287555,-1.121559,0.000000,-0.000000,-0.000000
0.220000,0.740000,0.273063,0.040000,-829.250211,515.800000,-1759.317904,1756.040854,1146.963324,-0.000000,0.000000,0.000000,2097.161482,-2100.438532,-0.442425,0.000000,-0.000000,-0.000000
0.260000,0.740000,0.284742,0.040000,-809.446439,611.800000,-1586.307207,1583.988764,1271.522763,-0.000000,0.000000,0.000000,2030.949023,-2033.267466,-0.594899,0.000000,-0.000000,-0.000000
0.300000,0.740000,0.299593,0.040000,-787.110988,723.800000,-1404.711785,1404.761987,1364.097572,-0.000000,0.000000,0.000000,1958.097436,-1958.047234,-0.796536,0.000000,-0.000000,-0.000000
0.340000,0.740000,0.314878,0.040000,-762.528079,851.800000,-1225.770533,1225.532740,1428.793147,-0.000000,0.000000,0.000000,1882.345245,-1882.583038,-0.739952,0.000000,-0.000000,-0.000000
0.380000,0.740000,0.332582,0.040000,-735.983583,995.800000,-1050.850590,1050.388298,1466.619084,-0.000000,0.000000,0.000000,1803.867601,-1804.329893,-0.682716,0.000000,-0.000000,-0.000000
0.420000,0.740000,0.351499,0.040000,-707.757030,1155.800000,-883.857794,883.234198,1480.779562,-0.000000,0.000000,0.000000,1724.031917,-1724.655513,-0.625943,0.000000,-0.000000,-0.000000
0.460000,0.740000,0.371961,0.040000,-678.115362,1331.800000,-727.608144,726.881005,1474.825511,-0.000000,0.000000,0.000000,1644.019182,-1644.746321,-0.570687,0.000000,-0.000000,-0.000000
0.500000,0.740000,0.393655,0.040000,-647.308421,1523.800000,-583.918583,583.137199,1452.364493,-0.000000,0.000000,0.000000,1564.814455,-1565.595838,-0.517846,0.000000,-0.000000,-0.000000
0.540000,0.740000,0.416838,0.040000,-615.566027,1731.800000,-453.750925,452.954890,1416.845579,-0.000000,0.000000,0.000000,1487.210814,-1488.006849,-0.468094,0.000000,-0.000000,-0.000000
0.580000,0.740000,0.440648,0.040000,-583.096424,1955.800000,-337.378218,336.597487,1371.417164,-0.000000,0.000000,0.000000,1411.822676,-1412.603406,-0.421869,0.000000,-0.000000,-0.000000
0.620000,0.740000,0.466555,0.040000,-550.085833,2195.800000,-234.550752,233.806548,1318.847571,-0.000000,0.000000,0.000000,1339.104816,-1339.849019,-0.379393,0.000000,-0.000000,-0.000000
0.660000,0.740000,0.491987,0.040000,-516.698830,2451.800000,-144.647123,143.953270,1261.494761,-0.000000,0.000000,0.000000,1269.374091,-1270.067944,-0.340705,0.000000,-0.000000,-0.000000
0.700000,0.740000,0.519258,0.040000,-483.079337,2723.800000,-66.802671,66.167057,1201.311162,-0.000000,0.000000,0.000000,1202.831665,-1203.467279,-0.305710,0.000000,-0.000000,-0.000000
0.740000,0.740000,0.547338,0.040000,-449.351995,3011.800000,-0.012785,-0.561229,1139.871225,0.000000,-0.000000,0.000000,1139.584218,-1140.158232,-0.274222,0.000000,-0.000000,-0.000000
0.780000,0.740000,0.575575,0.040000,-415.623759,3315.800000,56.788019,-57.300359,1078.411777,0.000000,-0.000000,0.000000,1079.663244,-1080.175584,-0.245999,0.000000,-0.000000,-0.000000
0.820000,0.740000,0.605140,0.040000,-381.985605,3635.800000,104.668514,-105.121365,1017.877842,0.000000,-0.000000,0.000000,1023.041966,-1023.494817,-0.220774,0.000000,-0.000000,-0.000000
0.860000,0.740000,0.635475,0.040000,-348.514232,3971.800000,144.661061,-145.058051,958.968914,0.000000,-0.000000,0.000000,969.649756,-970.046746,-0.198269,0.000000,-0.000000,-0.000000
0.900000,0.740000,0.665620,0.040000,-315.273712,4323.800000,177.736101,-178.081684,902.182553,0.000000,-0.000000,0.000000,919.384113,-919.729696,-0.178214,0.000000,-0.000000,-0.000000
0.940000,0.740000,0.696759,0.040000,-282.317044,4691.800000,204.787456,-205.086463,847.853577,0.000000,-0.000000,0.000000,872.120420,-872.419427,-0.160352,0.000000,-0.000000,-0.000000
0.980000,0.740000,0.728763,0.040000,-249.687581,5075.800000,226.416536,-226.509525,796.174986,0.000000,-0.000000,0.000000,827.709566,-827.802555,0.131999,0.000000,-0.000000,0.000000
1.020000,0.740000,0.760955,0.040000,-217.420327,5475.800000,243.456906,-244.389135,747.609229,0.000000,-0.000000,0.000000,785.929450,-786.861679,0.123197,0.000000,-0.000000,0.000000
1.060000,0.740000,0.793213,0.040000,-185.543099,5891.800000,257.054938,-258.242494,700.914915,0.000000,-0.000000,0.000000,746.175597,-747.363152,-0.282620,0.000000,-0.000000,-0.000000
1.100000,0.740000,0.826148,0.040000,-154.077557,6323.800000,266.802216,-267.491448,658.167097,0.000000,-0.000000,0.000000,709.972917,-710.662149,0.600161,0.000000,-0.000000,0.000000
-1.060000,0.780000,0.816451,0.040000,-163.299883,5922.200000,213.220353,-214.372463,-688.326940,0.000000,-0.000000,-0.000000,720.189151,-721.341261,-0.630658,0.000000,-0.000000,-0.000000
-1.020000,0.780000,0.784564,0.040000,-194.041041,5506.200000,197.231231,-198.896045,-730.885032,0.000000,-0.000000,-0.000000,756.413927,-758.078740,-0.353877,0.000000,-0.000000,-0.000000
-0.980000,0.780000,0.753450,0.040000,-225.099046,5106.200000,178.357272,-179.242293,-776.206862,0.000000,-0.000000,-0.000000,796.091511,-796.976533,0.079228,0.000000,-0.000000,0.000000
-0.940000,0.780000,0.722097,0.040000,-256.442056,4722.200000,154.033926,-154.073360,-822.624005,0.000000,-0.000000,-0.000000,836.904816,-836.944250,-0.322965,0.000000,-0.000000,-0.000000
-0.900000,0.780000,0.691363,0.040000,-288.031199,4354.200000,124.818700,-125.147426,-871.631463,0.000000,-0.000000,-0.000000,880.382140,-880.710866,-0.172506,0.000000,-0.000000,-0.000000
-0.860000,0.780000,0.661620,0.040000,-319.819552,4002.200000,89.802983,-90.175072,-922.154567,0.000000,-0.000000,-0.000000,926.348917,-926.721006,-0.190949,0.000000,-0.000000,-0.000000
-0.820000,0.780000,0.632665,0.040000,-351.751023,3666.200000,48.306806,-48.724815,-973.941171,0.000000,-0.000000,-0.000000,974.939776,-975.357785,-0.211438,0.000000,-0.000000,-0.000000
-0.780000,0.780000,0.603527,0.040000,-383.759150,3346.200000,-0.466883,0.001437,-1026.439290,-0.000000,0.000000,-0.000000,1026.206567,-1026.672013,-0.234160,0.000000,-0.000000,-0.000000
-0.740000,0.780000,0.575695,0.040000,-415.765822,3042.200000,-57.340475,56.827656,-1078.915956,-0.000000,0.000000,-0.000000,1080.168583,-1080.681402,-0.259304,0.000000,-0.000000,-0.000000
-0.700000,0.780000,0.549041,0.040000,-447.679969,2754.200000,-123.133913,122.576046,-1130.425139,-0.000000,0.000000,-0.000000,1136.802532,-1137.360399,-0.287055,0.000000,-0.000000,-0.000000
-0.660000,0.780000,0.522178,0.040000,-479.396255,2482.200000,-198.625150,198.027624,-1179.775943,-0.000000,0.000000,-0.000000,1196.030845,-1196.628371,-0.317591,0.000000,-0.000000,-0.000000
-0.620000,0.780000,0.497085,0.040000,-510.793834,2226.200000,-284.496580,283.868770,-1225.504193,-0.000000,0.000000,-0.000000,1257.708430,-1258.336240,-0.351072,0.000000,-0.000000,-0.000000
-0.580000,0.780000,0.472675,0.040000,-541.735265,1986.200000,-381.265668,380.621895,-1265.851847,-0.000000,0.000000,-0.000000,1321.608109,-1322.251881,-0.387628,0.000000,-0.000000,-0.000000
-0.540000,0.780000,0.449141,0.040000,-572.065694,1762.200000,-489.198996,488.559440,-1298.760235,-0.000000,0.000000,-0.000000,1387.405286,-1388.044843,-0.427345,0.000000,-0.000000,-0.000000
-0.500000,0.780000,0.427491,0.040000,-601.612436,1554.200000,-608.210836,607.602217,-1321.884599,-0.000000,0.000000,-0.000000,1454.662706,-1455.271325,-0.470236,0.000000,-0.000000,-0.000000
-0.460000,0.780000,0.405943,0.040000,-630.185119,1362.200000,-737.750142,737.205976,-1332.638535,-0.000000,0.000000,-0.000000,1522.816583,-1523.360750,-0.516200,0.000000,-0.000000,-0.000000
-0.420000,0.780000,0.387052,0.040000,-657.576578,1186.200000,-876.683782,876.243901,-1328.277126,-0.000000,0.000000,-0.000000,1591.165830,-1591.605710,-0.564973,0.000000,-0.000000,-0.000000
-0.380000,0.780000,0.368045,0.040000,-683.564680,1026.200000,-1023.188453,1022.897535,-1306.026137,-0.000000,0.000000,-0.000000,1658.866554,-1659.157472,-0.616046,0.000000,-0.000000,-0.000000
-0.340000,0.780000,0.351947,0.040000,-707.915243,882.200000,-1174.668714,1174.573553,-1263.260933,-0.000000,0.000000,-0.000000,1724.934317,-1725.029477,-0.668594,0.000000,-0.000000,-0.000000
-0.300000,0.780000,0.336169,0.040000,-730.386195,754.200000,-1327.722512,1327.867951,-1197.732154,-0.000000,0.000000,-0.000000,1788.256706,-1788.111266,-0.721392,0.000000,-0.000000,-0.000000
-0.260000,0.780000,0.322939,0.040000,-750.733017,642.200000,-1478.177147,1478.600821,-1107.825749,-0.000000,0.000000,-0.000000,1847.618474,-1847.194799,-0.772791,0.000000,-0.000000,-0.000000
-0.220000,0.780000,0.311182,0.040000,-768.715401,546.200000,-1621.215735,1621.942123,-992.833592,-0.000000,0.000000,-0.000000,1901.740614,-1901.014225,-0.820763,0.000000,-0.000000,-0.000000
-0.180000,0.780000,0.300939,0.040000,-784.104945,466.200000,-1751.605540,1752.640200,-853.199748,-0.000000,0.000000,-0.000000,1949.333283,-1948.298622,-0.863057,0.000000,-0.000000,-0.000000
-0.140000,0.780000,0.293855,0.040000,-796.693491,402.200000,-1864.024630,1865.349760,-690.699845,-0.000000,0.000000,-0.000000,1989.160442,-1987.835311,-0.897476,0.000000,-0.000000,-0.000000
-0.100000,0.780000,0.286873,0.040000,-806.301607,354.200000,-1953.463793,1955.036310,-508.510550,-0.000000,0.000000,-0.000000,2020.111738,-2018.539221,-0.922211,0.000000,-0.000000,-0.000000
-0.060000,0.780000,0.282902,0.040000,-812.786565,322.200000,-2015.660410,2017.413459,-311.135794,-0.000000,0.000000,-0.000000,2041.274970,-2039.521921,-0.936158,0.000000,-0.000000,-0.000000
-0.020000,0.780000,0.281454,0.040000,-816.049123,306.200000,-2047.505705,2049.353884,-104.176461,-0.000000,0.000000,-0.000000,2052.000996,-2050.152817,-0.939096,0.000000,-0.000000,-0.000000
0.020000,0.780000,0.280675,0.040000,-816.038473,306.200000,-2047.362139,2049.209886,106.042295,-0.000000,0.000000,0.000000,2051.952807,-2050.105061,-0.931655,0.000000,-0.000000,-0.000000
0.060000,0.780000,0.283054,0.040000,-812.754843,322.200000,-2015.237166,2016.988963,312.943482,-0.000000,0.000000,0.000000,2041.131930,-2039.380133,-0.915090,0.000000,-0.000000,-0.000000
0.100000,0.780000,0.287319,0.040000,-806.249488,354.200000,-1952.782425,1954.353003,510.206411,-0.000000,0.000000,0.000000,2019.878303,-2018.307726,-0.890933,0.000000,-0.000000,-0.000000
0.140000,0.780000,0.292861,0.040000,-796.622063,402.200000,-1863.118539,1864.441237,692.238507,-0.000000,0.000000,0.000000,1988.843654,-1987.520956,-0.860677,0.000000,-0.000000,-0.000000
0.180000,0.780000,0.301562,0.040000,-784.015654,466.200000,-1750.516653,1751.548612,854.546863,-0.000000,0.000000,0.000000,1948.942252,-1947.910293,-0.825577,0.000000,-0.000000,-0.000000
0.220000,0.780000,0.311003,0.040000,-768.609985,546.200000,-1619.990669,1620.714308,993.967185,-0.000000,0.000000,0.000000,1901.285892,-1900.562254,-0.786616,0.000000,-0.000000,-0.000000
0.260000,0.780000,0.322756,0.040000,-750.613432,642.200000,-1476.863412,1477.284479,1108.736193,-0.000000,0.000000,0.000000,1847.111405,-1846.690339,-0.744587,0.000000,-0.000000,-0.000000
0.300000,0.780000,0.336626,0.040000,-730.254539,754.200000,-1326.365222,1326.508340,1198.420998,-0.000000,0.000000,0.000000,1787.708807,-1787.565690,-0.700217,0.000000,-0.000000,-0.000000
0.340000,0.780000,0.351303,0.040000,-707.773684,882.200000,-1173.308105,1173.210998,1263.738941,-0.000000,0.000000,0.000000,1724.356753,-1724.453860,-0.654260,0.000000,-0.000000,-0.000000
0.380000,0.780000,0.368789,0.040000,-683.415392,1026.200000,-1021.858314,1021.565864,1306.310928,-0.000000,0.000000,0.000000,1658.269725,-1658.562175,-0.607524,0.000000,-0.000000,-0.000000
0.420000,0.780000,0.386290,0.040000,-657.421687,1186.200000,-875.410759,874.969759,1328.390766,-0.000000,0.000000,0.000000,1590.559089,-1591.000090,-0.560847,0.000000,-0.000000,-0.000000
0.460000,0.780000,0.406646,0.040000,-630.026660,1362.200000,-736.553775,736.008867,1332.605355,-0.000000,0.000000,0.000000,1522.208072,-1522.752980,-0.515035,0.000000,-0.000000,-0.000000
0.500000,0.780000,0.426918,0.040000,-601.452322,1554.200000,-607.104104,606.495072,1321.729383,-0.000000,0.000000,0.000000,1454.059290,-1454.668322,-0.470797,0.000000,-0.000000,-0.000000
0.540000,0.780000,0.449520,0.040000,-571.905696,1762.200000,-488.189199,487.549497,1298.506854,-0.000000,0.000000,0.000000,1386.812575,-1387.452277,-0.428702,0.000000,-0.000000,-0.000000
0.580000,0.780000,0.472548,0.040000,-541.576997,1986.200000,-380.355447,379.711737,1265.522325,-0.000000,0.000000,0.000000,1321.030533,-1321.674243,-0.389160,0.000000,-0.000000,-0.000000
0.620000,0.780000,0.496908,0.040000,-510.638753,2226.200000,-283.684957,283.057361,1225.118152,-0.000000,0.000000,0.000000,1257.149354,-1257.776949,-0.352419,0.000000,-0.000000,-0.000000
0.660000,0.780000,0.522705,0.040000,-479.245661,2482.200000,-197.908486,197.311278,1179.350359,-0.000000,0.000000,0.000000,1195.492696,-1196.089903,-0.318589,0.000000,-0.000000,-0.000000
0.700000,0.780000,0.548450,0.040000,-447.535008,2754.200000,-122.506748,121.949263,1129.974314,-0.000000,0.000000,0.000000,1136.286941,-1136.844426,-0.287670,0.000000,-0.000000,-0.000000
0.740000,0.780000,0.575825,0.040000,-415.627498,3042.200000,-56.796216,56.283812,1078.451655,-0.000000,0.000000,0.000000,1079.676518,-1080.188921,-0.259575,0.000000,-0.000000,-0.000000
0.780000,0.780000,0.603888,0.040000,-383.628334,3346.200000,0.001649,-0.466671,1025.970965,0.000000,-0.000000,0.000000,1025.738455,-1026.203476,-0.234160,0.000000,-0.000000,-0.000000
0.820000,0.780000,0.632130,0.040000,-351.628467,3666.200000,48.706969,-49.124561,973.476238,0.000000,-0.000000,0.000000,974.495618,-974.913210,-0.211249,0.000000,-0.000000,-0.000000
0.860000,0.780000,0.661586,0.040000,-319.705896,4002.200000,90.142015,-90.513706,921.698689,0.000000,-0.000000,0.000000,925.928381,-926.300071,-0.190645,0.000000,-0.000000,-0.000000
0.900000,0.780000,0.691984,0.040000,-287.926986,4354.200000,125.103518,-125.431872,871.188833,0.000000,-0.000000,0.000000,879.984645,-880.312999,-0.172148,0.000000,-0.000000,-0.000000
0.940000,0.780000,0.721986,0.040000,-256.347742,4722.200000,154.270946,-154.309905,822.197542,0.000000,-0.000000,0.000000,836.529583,-836.568542,0.011584,0.000000,-0.000000,0.000000
0.980000,0.780000,0.752919,0.040000,-225.015011,5106.200000,178.551898,-179.436192,775.798677,0.000000,-0.000000,0.000000,795.737686,-796.621980,-0.360123,0.000000,-0.000000,-0.000000
1.020000,0.780000,0.784671,0.040000,-193.967598,5506.200000,197.390372,-199.053854,730.496353,0.000000,-0.000000,0.000000,756.081013,-757.744496,0.099102,0.000000,-0.000000,0.000000
1.060000,0.780000,0.817027,0.040000,-163.237287,5922.200000,213.348231,-214.499122,687.958506,0.000000,-0.000000,0.000000,719.875862,-721.026752,0.399556,0.000000,-0.000000,0.000000
-1.020000,0.820000,0.809739,0.040000,-170.259921,5538.200000,155.450317,-156.680840,-712.034583,0.000000,-0.000000,-0.000000,728.321907,-729.552431,-0.561786,0.000000,-0.000000,-0.000000
-0.980000,0.820000,0.778355,0.040000,-200.129108,5138.200000,133.826667,-135.541535,-752.703442,0.000000,-0.000000,-0.000000,763.800817,-765.515686,-0.192494,0.000000,-0.000000,-0.000000
-0.940000,0.820000,0.747794,0.040000,-230.213386,4754.200000,108.570910,-109.051391,-795.264745,0.000000,-0.000000,-0.000000,802.433954,-802.914434,-0.139232,0.000000,-0.000000,-0.000000
-0.900000,0.820000,0.718160,0.040000,-260.471107,4386.200000,77.885621,-78.193823,-838.900162,0.000000,-0.000000,-0.000000,842.368096,-842.676299,-0.165969,0.000000,-0.000000,-0.000000
-0.860000,0.820000,0.689162,0.040000,-290.852976,4034.200000,41.741891,-42.085974,-883.536223,0.000000,-0.000000,-0.000000,884.357778,-884.701862,-0.182878,0.000000,-0.000000,-0.000000
-0.820000,0.820000,0.660094,0.040000,-321.301108,3698.200000,-0.392060,0.011015,-928.730469,-0.000000,0.000000,-0.000000,928.539946,-928.920991,-0.201537,0.000000,-0.000000,-0.000000
-0.780000,0.820000,0.632221,0.040000,-351.748034,3378.200000,-49.157233,48.739271,-973.908683,-0.000000,0.000000,-0.000000,974.928961,-975.346923,-0.222087,0.000000,-0.000000,-0.000000
-0.740000,0.820000,0.605598,0.040000,-382.115673,3074.200000,-105.192990,104.739731,-1018.338825,-0.000000,0.000000,-0.000000,1023.507633,-1023.960891,-0.244664,0.000000,-0.000000,-0.000000
-0.700000,0.820000,0.578595,0.040000,-412.314314,2786.200000,-169.109438,168.624620,-1061.108548,-0.000000,0.000000,-0.000000,1074.219014,-1074.703833,-0.269400,0.000000,-0.000000,-0.000000
-0.660000,0.820000,0.553169,0.040000,-442.241645,2514.200000,-241.450498,240.940580,-1101.104851,-0.000000,0.000000,-0.000000,1126.957130,-1127.467047,-0.296410,0.000000,-0.000000,-0.000000
-0.620000,0.820000,0.528870,0.040000,-471.781880,2258.200000,-322.646442,322.121256,-1136.998614,-0.000000,0.000000,-0.000000,1181.556804,-1182.081990,-0.325792,0.000000,-0.000000,-0.000000
-0.580000,0.820000,0.504786,0.040000,-500.805084,2018.200000,-412.955310,412.428681,-1167.237716,-0.000000,0.000000,-0.000000,1237.782905,-1238.309534,-0.357606,0.000000,-0.000000,-0.000000
-0.540000,0.820000,0.482819,0.040000,-529.166761,1794.200000,-512.393627,511.883890,-1190.053370,-0.000000,0.000000,-0.000000,1295.319512,-1295.829250,-0.391868,0.000000,-0.000000,-0.000000
-0.500000,0.820000,0.460872,0.040000,-556.707835,1586.200000,-620.658451,620.188719,-1203.485024,-0.000000,0.000000,-0.000000,1353.759759,-1354.229491,-0.428519,0.000000,-0.000000,-0.000000
-0.460000,0.820000,0.440958,0.040000,-583.255145,1394.200000,-737.044975,736.643017,-1205.429541,-0.000000,0.000000,-0.000000,1412.597391,-1412.999349,-0.467396,0.000000,-0.000000,-0.000000
-0.420000,0.820000,0.421839,0.040000,-608.622576,1218.200000,-860.366632,860.064168,-1193.719784,-0.000000,0.000000,-0.000000,1471.221324,-1471.523788,-0.508194,0.000000,-0.000000,-0.000000
-0.380000,0.820000,0.404470,0.040000,-632.612963,1058.200000,-988.887687,988.718952,-1166.236085,-0.000000,0.000000,-0.000000,1528.914751,-1529.083487,-0.550411,0.000000,-0.000000,-0.000000
-0.340000,0.820000,0.388222,0.040000,-655.020878,914.200000,-1120.281064,1120.280515,-1121.050720,-0.000000,0.000000,-0.000000,1584.860417,-1584.860966,-0.593309,0.000000,-0.000000,-0.000000
-0.300000,0.820000,0.373978,0.040000,-675.636345,786.200000,-1251.625913,1251.825107,-1056.600554,-0.000000,0.000000,-0.000000,1638.153650,-1637.954456,-0.635871,0.000000,-0.000000,-0.000000
-0.260000,0.820000,0.360674,0.040000,-694.249516,674.200000,-1379.459169,1379.882986,-971.876500,-0.000000,0.000000,-0.000000,1687.824350,-1687.400533,-0.676811,0.000000,-0.000000,-0.000000
-0.220000,0.820000,0.350186,0.040000,-710.656198,578.200000,-1499.892077,1500.554686,-866.611372,-0.000000,0.000000,-0.000000,1732.868448,-1732.205840,-0.714622,0.000000,-0.000000,-0.000000
-0.180000,0.820000,0.339923,0.040000,-724.664059,498.200000,-1608.795807,1609.696979,-741.441493,-0.000000,0.000000,-0.000000,1772.288299,-1771.387127,-0.747702,0.000000,-0.000000,-0.000000
-0.140000,0.820000,0.332820,0.040000,-736.099216,434.200000,-1702.049937,1703.172433,-598.014020,-0.000000,0.000000,-0.000000,1805.140151,-1804.017654,-0.774532,0.000000,-0.000000,-0.000000
-0.100000,0.820000,0.326671,0.040000,-744.812795,386.200000,-1775.835228,1777.143965,-439.013501,-0.000000,0.000000,-0.000000,1830.585381,-1829.276644,-0.793891,0.000000,-0.000000,-0.000000
-0.060000,0.820000,0.322702,0.040000,-750.687023,354.200000,-1826.940150,1828.383633,-268.088708,-0.000000,0.000000,-0.000000,1847.940975,-1846.497492,-0.805033,0.000000,-0.000000,-0.000000
-0.020000,0.820000,0.321433,0.040000,-753.640334,338.200000,-1853.042348,1854.556468,-89.674315,-0.000000,0.000000,-0.000000,1856.723945,-1855.209825,-0.807789,0.000000,-0.000000,-0.000000
0.020000,0.820000,0.320652,0.040000,-753.631073,338.200000,-1852.924770,1854.438569,91.280818,-0.000000,0.000000,0.000000,1856.684505,-1855.170706,-0.802543,0.000000,-0.000000,-0.000000
0.060000,0.820000,0.323030,0.040000,-750.659426,354.200000,-1826.592945,1828.035496,269.649856,-0.000000,0.000000,0.000000,1847.823785,-1846.381234,-0.790095,0.000000,-0.000000,-0.000000
0.100000,0.820000,0.326774,0.040000,-744.767417,386.200000,-1775.274444,1776.581729,440.487101,-0.000000,0.000000,0.000000,1830.393750,-1829.086465,-0.771468,0.000000,-0.000000,-0.000000
0.140000,0.820000,0.332321,0.040000,-736.036952,434.200000,-1701.300613,1702.421269,599.363797,-0.000000,0.000000,0.000000,1804.879331,-1803.758675,-0.747708,0.000000,-0.000000,-0.000000
0.180000,0.820000,0.340769,0.040000,-724.586106,498.200000,-1607.889701,1608.788799,742.639117,-0.000000,0.000000,0.000000,1771.965138,-1771.066040,-0.719762,0.000000,-0.000000,-0.000000
0.220000,0.820000,0.349403,0.040000,-710.564001,578.200000,-1498.864981,1499.525442,867.637581,-0.000000,0.000000,0.000000,1732.490956,-1731.830496,-0.688427,0.000000,-0.000000,-0.000000
0.260000,0.820000,0.361199,0.040000,-694.144716,674.200000,-1378.348198,1378.769935,972.721278,-0.000000,0.000000,0.000000,1687.401242,-1686.979505,-0.654383,0.000000,-0.000000,-0.000000
0.300000,0.820000,0.373645,0.040000,-675.520716,786.200000,-1250.467058,1250.664352,1057.262505,-0.000000,0.000000,0.000000,1637.693898,-1637.496603,-0.618253,0.000000,-0.000000,-0.000000
0.340000,0.820000,0.388432,0.040000,-654.896272,914.200000,-1119.107243,1119.105052,1121.535818,-0.000000,0.000000,0.000000,1584.372857,-1584.375049,-0.580654,0.000000,-0.000000,-0.000000
0.380000,0.820000,0.404315,0.040000,-632.481256,1058.200000,-987.727407,987.557328,1166.556083,-0.000000,0.000000,0.000000,1528.407763,-1528.577842,-0.542223,0.000000,-0.000000,-0.000000
0.420000,0.820000,0.422006,0.040000,-608.485620,1218.200000,-859.243253,858.939755,1193.890503,-0.000000,0.000000,0.000000,1470.702591,-1471.006089,-0.503607,0.000000,-0.000000,-0.000000
0.460000,0.820000,0.440715,0.040000,-583.114738,1394.200000,-735.976513,735.573816,1205.469234,-0.000000,0.000000,0.000000,1412.073749,-1412.476445,-0.465428,0.000000,-0.000000,-0.000000
0.500000,0.820000,0.461251,0.040000,-556.565685,1586.200000,-619.657801,619.187597,1203.412958,-0.000000,0.000000,0.000000,1353.237116,-1353.707320,-0.428252,0.000000,-0.000000,-0.000000
0.540000,0.820000,0.482247,0.040000,-529.024468,1794.200000,-511.469073,510.959091,1189.888683,-0.000000,0.000000,0.000000,1294.802831,-1295.312813,-0.392551,0.000000,-0.000000,-0.000000
0.580000,0.820000,0.505541,0.040000,-500.664127,2018.200000,-412.111198,411.584508,1166.998578,-0.000000,0.000000,0.000000,1237.276233,-1237.802923,-0.358688,0.000000,-0.000000,-0.000000
0.620000,0.820000,0.528440,0.040000,-471.643609,2258.200000,-321.883913,321.358808,1136.701663,-0.000000,0.000000,0.000000,1181.063340,-1181.588445,-0.326911,0.000000,-0.000000,-0.000000
0.660000,0.820000,0.553232,0.040000,-442.107281,2514.200000,-240.768211,240.258478,1100.764878,-0.000000,0.000000,0.000000,1126.479307,-1126.989039,-0.297364,0.000000,-0.000000,-0.000000
0.700000,0.820000,0.578935,0.040000,-412.184949,2786.200000,-168.504228,168.019666,1060.738361,-0.000000,0.000000,0.000000,1073.758595,-1074.243156,-0.270098,0.000000,-0.000000,-0.000000
0.740000,0.820000,0.604932,0.040000,-381.992275,3074.200000,-104.660439,104.207482,1017.949265,-0.000000,0.000000,0.000000,1023.065805,-1023.518762,-0.245093,0.000000,-0.000000,-0.000000
0.780000,0.820000,0.632393,0.040000,-351.631456,3378.200000,-48.692142,48.274504,973.508726,-0.000000,0.000000,0.000000,974.506433,-974.924072,-0.222276,0.000000,-0.000000,-0.000000
0.820000,0.820000,0.660441,0.040000,-321.192095,3698.200000,0.011180,-0.391894,928.327392,0.000000,-0.000000,0.000000,928.137035,-928.517749,-0.201537,0.000000,-0.000000,-0.000000
0.860000,0.820000,0.688687,0.040000,-290.752173,4034.200000,42.089011,-42.432769,883.135798,0.000000,-0.000000,0.000000,883.974482,-884.318240,-0.182743,0.000000,-0.000000,-0.000000
0.900000,0.820000,0.718051,0.040000,-260.379070,4386.200000,78.182268,-78.490159,838.506859,0.000000,-0.000000,0.000000,842.004168,-842.312059,-0.165750,0.000000,-0.000000,-0.000000
0.940000,0.820000,0.748402,0.040000,-230.130591,4754.200000,108.821899,-109.301780,794.881917,0.000000,-0.000000,0.000000,802.088996,-802.568877,-0.161100,0.000000,-0.000000,-0.000000
0.980000,0.820000,0.778382,0.040000,-200.055957,5138.200000,134.038437,-135.752085,752.333634,0.000000,-0.000000,0.000000,763.474663,-765.188312,-0.080584,0.000000,-0.000000,-0.000000
1.020000,0.820000,0.809136,0.040000,-170.196753,5538.200000,155.627076,-156.856384,711.679480,0.000000,-0.000000,0.000000,728.013551,-729.242860,0.313453,0.000000,-0.000000,0.000000
-1.020000,0.860000,0.834655,0.040000,-146.227833,5571.800000,117.998530,-118.841404,-691.870954,0.000000,-0.000000,-0.000000,701.510657,-702.353531,-0.201569,0.000000,-0.000000,-0.000000
-0.980000,0.860000,0.804244,0.040000,-174.942953,5171.800000,94.253031,-95.557279,-728.409023,0.000000,-0.000000,-0.000000,733.913351,-735.217599,-0.506225,0.000000,-0.000000,-0.000000
-0.940000,0.860000,0.774704,0.040000,-203.810002,4787.800000,67.416428,-69.377135,-766.432338,0.000000,-0.000000,-0.000000,768.497801,-770.458508,0.134093,0.000000,-0.000000,0.000000
-0.900000,0.860000,0.745670,0.040000,-232.785436,4419.800000,36.253371,-36.522623,-805.209601,0.000000,-0.000000,-0.000000,805.896722,-806.165974,-0.231115,0.000000,-0.000000,-0.000000
-0.860000,0.860000,0.716661,0.040000,-261.818539,4067.800000,-0.332172,0.017235,-844.337199,-0.000000,0.000000,-0.000000,844.179730,-844.494667,-0.174703,0.000000,-0.000000,-0.000000
-0.820000,0.860000,0.688754,0.040000,-290.850631,3731.800000,-42.459647,42.115598,-883.509490,-0.000000,0.000000,-0.000000,884.348877,-884.692926,-0.191661,0.000000,-0.000000,-0.000000
-0.780000,0.860000,0.662089,0.040000,-319.814265,3411.800000,-90.572386,90.200376,-922.096045,-0.000000,0.000000,-0.000000,926.329387,-926.701396,-0.210214,0.000000,-0.000000,-0.000000
-0.740000,0.860000,0.635039,0.040000,-348.632418,3107.800000,-145.154078,144.756745,-959.388538,-0.000000,0.000000,-0.000000,970.078812,-970.476145,-0.230460,0.000000,-0.000000,-0.000000
-0.700000,0.860000,0.609342,0.040000,-377.217721,2819.800000,-206.641725,206.223603,-994.529122,-0.000000,0.000000,-0.000000,1015.518539,-1015.936660,-0.252487,0.000000,-0.000000,-0.000000
-0.660000,0.860000,0.585137,0.040000,-405.471762,2547.800000,-275.392561,274.960526,-1026.498769,-0.000000,0.000000,-0.000000,1062.526556,-1062.958590,-0.276367,0.000000,-0.000000,-0.000000
-0.620000,0.860000,0.560616,0.040000,-433.284520,2291.800000,-351.643379,351.207079,-1054.111068,-0.000000,0.000000,-0.000000,1110.929790,-1111.366090,-0.302147,0.000000,-0.000000,-0.000000
-0.580000,0.860000,0.537955,0.040000,-460.533986,2051.800000,-435.462396,435.034627,-1076.014400,-0.000000,0.000000,-0.000000,1160.496307,-1160.924075,-0.329841,0.000000,-0.000000,-0.000000
-0.540000,0.860000,0.516155,0.040000,-487.086064,1827.800000,-526.694717,526.291670,-1090.705913,-0.000000,0.000000,-0.000000,1210.927843,-1211.330890,-0.359416,0.000000,-0.000000,-0.000000
-0.500000,0.860000,0.495234,0.040000,-512.794819,1619.800000,-624.903742,624.545017,-1096.560992,-0.000000,0.000000,-0.000000,1261.853286,-1262.212012,-0.390769,0.000000,-0.000000,-0.000000
-0.460000,0.860000,0.476276,0.040000,-537.503186,1427.800000,-729.312456,729.020748,-1091.881788,-0.000000,0.000000,-0.000000,1312.823907,-1313.115615,-0.423709,0.000000,-0.000000,-0.000000
-0.420000,0.860000,0.457479,0.040000,-561.044212,1251.800000,-838.750422,838.550761,-1074.967561,-0.000000,0.000000,-0.000000,1363.311282,-1363.510943,-0.457923,0.000000,-0.000000,-0.000000
-0.380000,0.860000,0.441388,0.040000,-583.242936,1091.800000,-951.614121,951.532585,-1044.207958,-0.000000,0.000000,-0.000000,1412.708984,-1412.790520,-0.492949,0.000000,-0.000000,-0.000000
-0.340000,0.860000,0.425166,0.040000,-603.918957,947.800000,-1065.849733,1065.911597,-998.197662,-0.000000,0.000000,-0.000000,1460.339080,-1460.277215,-0.528147,0.000000,-0.000000,-0.000000
-0.300000,0.860000,0.411992,0.040000,-622.889714,819.800000,-1178.967989,1179.195370,-935.867205,-0.000000,0.000000,-0.000000,1505.464386,-1505.237005,-0.562693,0.000000,-0.000000,-0.000000
-0.260000,0.860000,0.398851,0.040000,-639.974470,707.800000,-1288.099714,1288.508870,-856.620420,-0.000000,0.000000,-0.000000,1547.307075,-1546.897920,-0.595586,0.000000,-0.000000,-0.000000
-0.220000,0.860000,0.388664,0.040000,-654.998889,611.800000,-1390.097707,1390.696308,-760.464660,-0.000000,0.000000,-0.000000,1585.073716,-1584.475115,-0.625704,0.000000,-0.000000,-0.000000
-0.180000,0.860000,0.379120,0.040000,-667.800061,531.800000,-1481.685448,1482.470216,-648.116567,-0.000000,0.000000,-0.000000,1617.986078,-1617.201310,-0.651892,0.000000,-0.000000,-0.000000
-0.140000,0.860000,0.372004,0.040000,-678.231728,467.800000,-1559.646052,1560.601235,-521.064955,-0.000000,0.000000,-0.000000,1645.316190,-1644.361008,-0.673084,0.000000,-0.000000,-0.000000
-0.100000,0.860000,0.366514,0.040000,-686.169410,419.800000,-1621.037079,1622.134177,-381.574393,-0.000000,0.000000,-0.000000,1666.423242,-1665.326144,-0.688435,0.000000,-0.000000,-0.000000
-0.060000,0.860000,0.362545,0.040000,-691.515097,387.800000,-1663.409648,1664.608660,-232.618775,-0.000000,0.000000,-0.000000,1680.789219,-1679.590208,-0.697425,0.000000,-0.000000,-0.000000
-0.020000,0.860000,0.361416,0.040000,-694.201147,371.800000,-1685.005904,1686.258103,-77.743235,-0.000000,0.000000,-0.000000,1688.049808,-1686.797609,-0.699921,0.000000,-0.000000,-0.000000
0.020000,0.860000,0.360635,0.040000,-694.193085,371.800000,-1684.908692,1686.160650,79.136297,-0.000000,0.000000,0.000000,1688.017218,-1686.765261,-0.696160,0.000000,-0.000000,-0.000000
0.060000,0.860000,0.363012,0.040000,-691.491068,387.800000,-1663.122173,1664.320482,233.976046,-0.000000,0.000000,0.000000,1680.692299,-1679.493990,-0.686664,0.000000,-0.000000,-0.000000
0.100000,0.860000,0.366347,0.040000,-686.129872,419.800000,-1620.571452,1621.667447,382.862352,-0.000000,0.000000,0.000000,1666.264480,-1665.168485,-0.672128,0.000000,-0.000000,-0.000000
0.140000,0.860000,0.371897,0.040000,-678.177424,467.800000,-1559.021284,1559.975057,522.254363,-0.000000,0.000000,0.000000,1645.099559,-1644.145786,-0.653296,0.000000,-0.000000,-0.000000
0.180000,0.860000,0.379464,0.040000,-667.731989,531.800000,-1480.925864,1481.709025,649.183991,-0.000000,0.000000,0.000000,1617.716788,-1616.933627,-0.630878,0.000000,-0.000000,-0.000000
0.220000,0.860000,0.388126,0.040000,-654.918261,611.800000,-1389.231053,1389.827965,761.393386,-0.000000,0.000000,0.000000,1584.757915,-1584.161003,-0.605510,0.000000,-0.000000,-0.000000
0.260000,0.860000,0.399531,0.040000,-639.882671,707.800000,-1287.155190,1287.562679,857.400718,-0.000000,0.000000,0.000000,1546.951521,-1546.544032,-0.577759,0.000000,-0.000000,-0.000000
0.300000,0.860000,0.411222,0.040000,-622.788253,819.800000,-1177.974426,1178.200251,936.496013,-0.000000,0.000000,0.000000,1505.076121,-1504.850296,-0.548148,0.000000,-0.000000,-0.000000
0.340000,0.860000,0.425969,0.040000,-603.809420,947.800000,-1064.834075,1064.894559,998.677804,-0.000000,0.000000,0.000000,1459.925137,-1459.864652,-0.517186,0.000000,-0.000000,-0.000000
0.380000,0.860000,0.440609,0.040000,-583.126948,1091.800000,-950.600312,950.517611,1044.547068,-0.000000,0.000000,0.000000,1412.276135,-1412.358836,-0.485382,0.000000,-0.000000,-0.000000
0.420000,0.860000,0.458179,0.040000,-560.923391,1251.800000,-837.758710,837.558115,1075.176865,-0.000000,0.000000,0.000000,1362.865844,-1363.066439,-0.453246,0.000000,-0.000000,-0.000000
0.460000,0.860000,0.475708,0.040000,-537.379119,1427.800000,-728.359092,728.066679,1091.974898,-0.000000,0.000000,0.000000,1312.371605,-1312.664018,-0.421269,0.000000,-0.000000,-0.000000
0.500000,0.860000,0.495619,0.040000,-512.669030,1619.800000,-624.001005,623.641790,1096.552798,-0.000000,0.000000,0.000000,1261.399174,-1261.758390,-0.389903,0.000000,-0.000000,-0.000000
0.540000,0.860000,0.516000,0.040000,-486.959996,1827.800000,-525.851186,525.447838,1090.611659,-0.000000,0.000000,0.000000,1210.476264,-1210.879613,-0.359539,0.000000,-0.000000,-0.000000
0.580000,0.860000,0.537834,0.040000,-460.408989,2051.800000,-434.683373,434.255462,1075.848955,-0.000000,0.000000,0.000000,1160.050902,-1160.478813,-0.330490,0.000000,-0.000000,-0.000000
0.620000,0.860000,0.561053,0.040000,-433.161840,2291.800000,-350.931397,350.495083,1053.888398,-0.000000,0.000000,0.000000,1110.493525,-1110.929839,-0.302989,0.000000,-0.000000,-0.000000
0.660000,0.860000,0.584463,0.040000,-405.352539,2547.800000,-274.747910,274.315962,1026.231601,-0.000000,0.000000,0.000000,1062.101778,-1062.533727,-0.277189,0.000000,-0.000000,-0.000000
0.700000,0.860000,0.609601,0.040000,-377.102985,2819.800000,-206.062966,205.645003,994.228754,-0.000000,0.000000,0.000000,1015.107035,-1015.524998,-0.253171,0.000000,-0.000000,-0.000000
0.740000,0.860000,0.635226,0.040000,-348.523096,3107.800000,-144.638497,144.241373,959.064771,-0.000000,0.000000,0.000000,969.681882,-970.079007,-0.230956,0.000000,-0.000000,-0.000000
0.780000,0.860000,0.661430,0.040000,-319.711182,3411.800000,-90.116392,89.744622,921.757211,-0.000000,0.000000,0.000000,925.947911,-926.319681,-0.210518,0.000000,-0.000000,-0.000000
0.820000,0.860000,0.688961,0.040000,-290.754517,3731.800000,-42.059096,41.715303,883.162531,-0.000000,0.000000,0.000000,883.983383,-884.327176,-0.191796,0.000000,-0.000000,-0.000000
0.860000,0.860000,0.716996,0.040000,-261.730035,4067.800000,0.017365,-0.332042,843.987790,0.000000,-0.000000,0.000000,843.830452,-844.145128,-0.174703,0.000000,-0.000000,-0.000000
0.900000,0.860000,0.745246,0.040000,-232.705102,4419.800000,36.555840,-36.824857,804.862260,0.000000,-0.000000,0.000000,805.563594,-805.832610,-0.086704,0.000000,-0.000000,-0.000000
0.940000,0.860000,0.774531,0.040000,-203.738323,4787.800000,67.677173,-69.636504,766.090661,0.000000,-0.000000,0.000000,768.181230,-770.140561,-0.423436,0.000000,-0.000000,-0.000000
0.980000,0.860000,0.804740,0.040000,-174.880347,5171.800000,94.476509,-95.779619,728.075881,0.000000,-0.000000,0.000000,733.612551,-734.915661,0.241935,0.000000,-0.000000,0.000000
1.020000,0.860000,0.834801,0.040000,-146.174658,5571.800000,118.187712,-119.029841,691.548014,0.000000,-0.000000,0.000000,701.224641,-702.066770,-0.039099,0.000000,-0.000000,-0.000000
-0.980000,0.900000,0.831252,0.040000,-149.603801,5207.000000,59.264306,-60.163008,-703.170211,0.000000,-0.000000,-0.000000,705.251726,-706.150428,-0.238313,0.000000,-0.000000,-0.000000
-0.940000,0.900000,0.802186,0.040000,-177.297037,4823.000000,30.946026,-32.796615,-736.171492,0.000000,-0.000000,-0.000000,735.935767,-737.786356,-0.151126,0.000000,-0.000000,-0.000000
-0.900000,0.900000,0.773228,0.040000,-205.040770,4455.000000,-0.876924,-0.572737,-771.267569,-0.000000,-0.000000,-0.000000,770.542738,-771.992400,-0.152093,0.000000,-0.000000,-0.000000
-0.860000,0.900000,0.745293,0.040000,-232.783651,4103.000000,-36.847105,36.577877,-805.187401,-0.000000,0.000000,-0.000000,805.889299,-806.158528,-0.094052,0.000000,-0.000000,-0.000000
-0.820000,0.900000,0.718499,0.040000,-260.467016,3767.000000,-78.538690,78.230546,-838.851757,-0.000000,0.000000,-0.000000,842.351944,-842.660087,-0.181931,0.000000,-0.000000,-0.000000
-0.780000,0.900000,0.691503,0.040000,-288.024252,3447.000000,-125.511005,125.182380,-871.552465,-0.000000,0.000000,-0.000000,880.355678,-880.684303,-0.198660,0.000000,-0.000000,-0.000000
-0.740000,0.900000,0.665583,0.040000,-315.380170,3143.000000,-178.196131,177.850262,-902.563148,-0.000000,0.000000,-0.000000,919.779482,-920.125351,-0.216800,0.000000,-0.000000,-0.000000
-0.700000,0.900000,0.641111,0.040000,-342.450449,2855.000000,-236.890959,236.532735,-931.092507,-0.000000,0.000000,-0.000000,960.531926,-960.890150,-0.236404,0.000000,-0.000000,-0.000000
-0.660000,0.900000,0.616581,0.040000,-369.141159,2583.000000,-301.806730,301.442996,-956.222175,-0.000000,0.000000,-0.000000,1002.483750,-1002.847484,-0.257510,0.000000,-0.000000,-0.000000
-0.620000,0.900000,0.593361,0.040000,-395.348426,2327.000000,-373.035055,372.674887,-976.906853,-0.000000,0.000000,-0.000000,1045.462183,-1045.822351,-0.280133,0.000000,-0.000000,-0.000000
-0.580000,0.900000,0.571689,0.040000,-420.958291,2087.000000,-450.509239,450.164146,-991.982077,-0.000000,0.000000,-0.000000,1089.245410,-1089.590503,-0.304253,0.000000,-0.000000,-0.000000
-0.540000,0.900000,0.549973,0.040000,-445.846818,1863.000000,-533.962220,533.646212,-1000.182069,-0.000000,0.000000,-0.000000,1133.557570,-1133.873578,-0.329805,0.000000,-0.000000,-0.000000
-0.500000,0.900000,0.530388,0.040000,-469.880527,1655.000000,-622.883411,622.612873,-1000.170112,-0.000000,0.000000,-0.000000,1178.064788,-1178.335325,-0.356665,0.000000,-0.000000,-0.000000
-0.460000,0.900000,0.511251,0.040000,-492.917213,1463.000000,-716.477885,716.271183,-990.583510,-0.000000,0.000000,-0.000000,1222.372831,-1222.579533,-0.384633,0.000000,-0.000000,-0.000000
-0.420000,0.900000,0.493787,0.040000,-514.807222,1287.000000,-813.632536,813.509290,-970.094415,-0.000000,0.000000,-0.000000,1266.027092,-1266.150338,-0.413412,0.000000,-0.000000,-0.000000
-0.380000,0.900000,0.477571,0.040000,-535.395234,1127.000000,-912.894920,912.874910,-937.486293,-0.000000,0.000000,-0.000000,1308.515586,-1308.535596,-0.442588,0.000000,-0.000000,-0.000000
-0.340000,0.900000,0.462619,0.040000,-554.522585,983.000000,-1012.471125,1012.572831,-891.743831,-0.000000,0.000000,-0.000000,1349.275665,-1349.173960,-0.471623,0.000000,-0.000000,-0.000000
-0.300000,0.900000,0.449370,0.040000,-572.030139,855.000000,-1110.248925,1110.487765,-832.151444,-0.000000,0.000000,-0.000000,1387.704962,-1387.466122,-0.499852,0.000000,-0.000000,-0.000000
-0.260000,0.900000,0.437353,0.040000,-587.761659,743.000000,-1203.851278,1204.237695,-758.392731,-0.000000,0.000000,-0.000000,1423.176828,-1422.790411,-0.526500,0.000000,-0.000000,-0.000000
-0.220000,0.900000,0.427134,0.040000,-601.567604,647.000000,-1290.722776,1291.260380,-670.640653,-0.000000,0.000000,-0.000000,1455.060140,-1454.522536,-0.550726,0.000000,-0.000000,-0.000000
-0.180000,0.900000,0.418468,0.040000,-613.309210,567.000000,-1368.247821,1368.931884,-569.626443,-0.000000,0.000000,-0.000000,1482.742835,-1482.058772,-0.571689,0.000000,-0.000000,-0.000000
-0.140000,0.900000,0.411346,0.040000,-622.862658,503.000000,-1433.894605,1434.711180,-456.675108,-0.000000,0.000000,-0.000000,1505.657966,-1504.841391,-0.588625,0.000000,-0.000000,-0.000000
-0.100000,0.900000,0.406387,0.040000,-630.123113,455.000000,-1485.373911,1486.299840,-333.697337,-0.000000,0.000000,-0.000000,1523.310551,-1522.384622,-0.600937,0.000000,-0.000000,-0.000000
-0.060000,0.900000,0.402420,0.040000,-635.008375,423.000000,-1520.797544,1521.801496,-203.131785,-0.000000,0.000000,-0.000000,1535.303064,-1534.299112,-0.608255,0.000000,-0.000000,-0.000000
-0.020000,0.900000,0.401403,0.040000,-637.461883,407.000000,-1538.818793,1539.863306,-67.837884,-0.000000,0.000000,-0.000000,1541.357248,-1540.312735,-0.610472,0.000000,-0.000000,-0.000000
0.020000,0.900000,0.400621,0.040000,-637.454865,407.000000,-1538.737723,1539.782052,69.053686,-0.000000,0.000000,0.000000,1541.330084,-1540.285755,-0.607735,0.000000,-0.000000,-0.000000
0.060000,0.900000,0.402997,0.040000,-634.987450,423.000000,-1520.557505,1521.560921,204.319039,-0.000000,0.000000,0.000000,1535.222217,-1534.218801,-0.600391,0.000000,-0.000000,-0.000000
0.100000,0.900000,0.406004,0.040000,-630.088665,455.000000,-1484.984160,1485.909243,334.829151,-0.000000,0.000000,0.000000,1523.177918,-1522.252835,-0.588920,0.000000,-0.000000,-0.000000
0.140000,0.900000,0.411555,0.040000,-622.815309,503.000000,-1433.369744,1434.185228,457.727733,-0.000000,0.000000,0.000000,1505.476587,-1504.661102,-0.573860,0.000000,-0.000000,-0.000000
0.180000,0.900000,0.418405,0.040000,-613.249799,567.000000,-1367.606679,1368.289487,570.580423,-0.000000,0.000000,0.000000,1482.516720,-1481.833913,-0.555744,0.000000,-0.000000,-0.000000
0.220000,0.900000,0.427084,0.040000,-601.497154,647.000000,-1289.987055,1290.523322,671.481568,-0.000000,0.000000,0.000000,1454.794057,-1454.257790,-0.535074,0.000000,-0.000000,-0.000000
0.260000,0.900000,0.437475,0.040000,-587.681345,743.000000,-1203.044114,1203.429190,759.111477,-0.000000,0.000000,0.000000,1422.876063,-1422.490987,-0.512315,0.000000,-0.000000,-0.000000
0.300000,0.900000,0.449218,0.040000,-571.941251,855.000000,-1109.393520,1109.631085,832.744101,-0.000000,0.000000,0.000000,1387.375085,-1387.137520,-0.487899,0.000000,-0.000000,-0.000000
0.340000,0.900000,0.462756,0.040000,-554.426489,983.000000,-1011.589573,1011.690121,892.211178,-0.000000,0.000000,0.000000,1348.922304,-1348.821755,-0.462247,0.000000,-0.000000,-0.000000
0.380000,0.900000,0.477496,0.040000,-535.293339,1127.000000,-912.007288,911.986274,937.833081,-0.000000,0.000000,0.000000,1308.144235,-1308.165248,-0.435772,0.000000,-0.000000,-0.000000
0.420000,0.900000,0.493755,0.040000,-514.700947,1287.000000,-812.756247,812.632170,970.328509,-0.000000,0.000000,0.000000,1265.642953,-1265.767030,-0.408882,0.000000,-0.000000,-0.000000
0.460000,0.900000,0.511436,0.040000,-492.807959,1463.000000,-715.627384,715.420029,990.714990,-0.000000,0.000000,0.000000,1221.980697,-1222.188053,-0.381970,0.000000,-0.000000,-0.000000
0.500000,0.900000,0.530007,0.040000,-469.769653,1655.000000,-622.070081,621.799060,1000.210426,-0.000000,0.000000,0.000000,1177.668964,-1177.939985,-0.355401,0.000000,-0.000000,-0.000000
0.540000,0.900000,0.550591,0.040000,-445.735626,1863.000000,-533.194496,532.878160,1000.143294,-0.000000,0.000000,0.000000,1133.161834,-1133.478170,-0.329496,0.000000,-0.000000,-0.000000
0.580000,0.900000,0.571104,0.040000,-420.848008,2087.000000,-449.792862,449.447577,991.876300,-0.000000,0.000000,0.000000,1088.852997,-1089.198282,-0.304524,0.000000,-0.000000,-0.000000
0.620000,0.900000,0.593607,0.040000,-395.240198,2327.000000,-372.373412,372.013165,976.745707,-0.000000,0.000000,0.000000,1045.075799,-1045.436045,-0.280696,0.000000,-0.000000,-0.000000
0.660000,0.900000,0.616708,0.040000,-369.036044,2583.000000,-301.201234,300.837512,956.016505,-0.000000,0.000000,0.000000,1002.105600,-1002.469321,-0.258160,0.000000,-0.000000,-0.000000
0.700000,0.900000,0.640581,0.040000,-342.349416,2855.000000,-236.341432,235.983290,930.852158,-0.000000,0.000000,0.000000,960.163756,-960.521897,-0.237012,0.000000,-0.000000,-0.000000
0.740000,0.900000,0.666004,0.040000,-315.284098,3143.000000,-177.701166,177.355432,902.296858,-0.000000,0.000000,0.000000,919.422626,-919.768360,-0.217296,0.000000,-0.000000,-0.000000
0.780000,0.900000,0.691562,0.040000,-287.933934,3447.000000,-125.068293,124.739838,871.267831,-0.000000,0.000000,0.000000,880.011107,-880.339562,-0.199018,0.000000,-0.000000,-0.000000
0.820000,0.900000,0.717938,0.040000,-260.383161,3767.000000,-78.145293,77.837342,838.555265,-0.000000,0.000000,0.000000,842.020320,-842.328271,-0.182150,0.000000,-0.000000,-0.000000
0.860000,0.900000,0.745528,0.040000,-232.706887,4103.000000,-36.500375,36.231335,804.884460,-0.000000,0.000000,0.000000,805.571016,-805.840057,-0.238463,0.000000,-0.000000,-0.000000
0.900000,0.900000,0.773553,0.040000,-204.971655,4455.000000,-0.572291,-0.876478,770.962523,-0.000000,-0.000000,0.000000,770.238138,-771.686907,-0.152093,0.000000,-0.000000,-0.000000
0.940000,0.900000,0.801806,0.040000,-177.236058,4823.000000,31.212340,-33.061729,735.868676,0.000000,-0.000000,0.000000,735.645384,-737.494773,-0.127497,0.000000,-0.000000,-0.000000
0.980000,0.900000,0.831024,0.040000,-149.551384,5207.000000,59.494744,-60.392746,702.871494,0.000000,-0.000000,0.000000,704.973986,-705.871987,-0.016320,0.000000,-0.000000,-0.000000
-0.940000,0.940000,0.829796,0.040000,-150.732464,4859.800000,-0.606506,-0.339655,-706.944544,-0.000000,-0.000000,-0.000000,706.471463,-707.417624,-0.133426,0.000000,-0.000000,-0.000000
-0.900000,0.940000,0.801836,0.040000,-177.295739,4491.800000,-33.080835,31.230345,-736.152937,-0.000000,0.000000,-0.000000,735.929633,-737.780123,-0.133681,0.000000,-0.000000,-0.000000
-0.860000,0.940000,0.774932,0.040000,-203.806952,4139.800000,-69.677610,67.717098,-766.391935,-0.000000,0.000000,-0.000000,768.484319,-770.444832,-0.437065,0.000000,-0.000000,-0.000000
-0.820000,0.940000,0.747983,0.040000,-230.208102,3803.800000,-109.367572,108.887376,-795.199044,-0.000000,0.000000,-0.000000,802.411938,-802.892134,-0.183082,0.000000,-0.000000,-0.000000
-0.780000,0.940000,0.721874,0.040000,-256.434030,3483.800000,-154.404526,154.365523,-822.529088,-0.000000,0.000000,-0.000000,836.872866,-836.911869,-0.020238,0.000000,-0.000000,-0.000000
-0.740000,0.940000,0.697084,0.040000,-282.411956,3179.800000,-205.214353,204.915111,-848.197757,-0.000000,0.000000,-0.000000,872.484861,-872.784102,-0.203752,0.000000,-0.000000,-0.000000
-0.700000,0.940000,0.672647,0.040000,-308.061084,2891.800000,-260.899446,260.594321,-871.034214,-0.000000,0.000000,-0.000000,909.072102,-909.377227,-0.221194,0.000000,-0.000000,-0.000000
-0.660000,0.940000,0.648968,0.040000,-333.292311,2619.800000,-321.882060,321.577585,-890.370430,-0.000000,0.000000,-0.000000,946.562886,-946.867361,-0.239851,0.000000,-0.000000,-0.000000
-0.620000,0.940000,0.626948,0.040000,-358.008064,2363.800000,-388.147513,387.851983,-905.294858,-0.000000,0.000000,-0.000000,984.790059,-985.085589,-0.259711,0.000000,-0.000000,-0.000000
-0.580000,0.940000,0.605048,0.040000,-382.102333,2123.800000,-459.536639,459.260192,-914.812751,-0.000000,0.000000,-0.000000,1023.545905,-1023.822351,-0.280733,0.000000,-0.000000,-0.000000
-0.540000,0.940000,0.584572,0.040000,-405.460924,1899.800000,-535.713933,535.468515,-917.865400,-0.000000,0.000000,-0.000000,1062.578924,-1062.824341,-0.302837,0.000000,-0.000000,-0.000000
-0.500000,0.940000,0.565570,0.040000,-427.962001,1691.800000,-616.136417,615.935582,-913.359236,-0.000000,0.000000,-0.000000,1101.591618,-1101.792453,-0.325889,0.000000,-0.000000,-0.000000
-0.460000,0.940000,0.546916,0.040000,-449.476957,1499.800000,-700.026051,699.884553,-900.205895,-0.000000,0.000000,-0.000000,1140.239715,-1140.381214,-0.349693,0.000000,-0.000000,-0.000000
-0.420000,0.940000,0.530627,0.040000,-469.871657,1323.800000,-786.349298,786.282442,-877.373579,-0.000000,0.000000,-0.000000,1178.133327,-1178.200184,-0.373978,0.000000,-0.000000,-0.000000
-0.380000,0.940000,0.514319,0.040000,-489.008098,1163.800000,-873.807991,873.830730,-843.948880,-0.000000,0.000000,-0.000000,1214.840505,-1214.817766,-0.398384,0.000000,-0.000000,-0.000000
-0.340000,0.940000,0.500466,0.040000,-506.746482,1019.800000,-960.845855,960.971657,-799.206707,-0.000000,0.000000,-0.000000,1249.893617,-1249.767815,-0.422464,0.000000,-0.000000,-0.000000
-0.300000,0.940000,0.487165,0.040000,-522.947706,891.800000,-1045.674671,1045.914213,-742.684157,-0.000000,0.000000,-0.000000,1282.798832,-1282.559290,-0.445684,0.000000,-0.000000,-0.000000
-0.260000,0.940000,0.476103,0.040000,-537.476215,779.800000,-1126.322924,1126.682730,-674.252389,-0.000000,0.000000,-0.000000,1313.048778,-1312.688973,-0.467444,0.000000,-0.000000,-0.000000
-0.220000,0.940000,0.465862,0.040000,-550.203154,683.800000,-1200.707826,1201.189011,-594.178975,-0.000000,0.000000,-0.000000,1340.138171,-1339.656986,-0.487109,0.000000,-0.000000,-0.000000
-0.180000,0.940000,0.457929,0.040000,-561.009692,603.800000,-1266.728885,1267.326189,-503.172464,-0.000000,0.000000,-0.000000,1363.581841,-1362.984537,-0.504058,0.000000,-0.000000,-0.000000
-0.140000,0.940000,0.450803,0.040000,-569.790370,539.800000,-1322.377973,1323.079270,-402.401104,-0.000000,0.000000,-0.000000,1382.934240,-1382.232943,-0.517736,0.000000,-0.000000,-0.000000
-0.100000,0.940000,0.446283,0.040000,-576.456308,491.800000,-1365.857660,1366.644098,-293.479398,-0.000000,0.000000,-0.000000,1397.809171,-1397.022733,-0.527712,0.000000,-0.000000,-0.000000
-0.060000,0.940000,0.442317,0.040000,-580.938066,459.800000,-1395.697008,1396.543849,-178.419172,-0.000000,0.000000,-0.000000,1407.898240,-1407.051399,-0.533716,0.000000,-0.000000,-0.000000
-0.020000,0.940000,0.441392,0.040000,-583.187994,443.800000,-1410.852797,1411.730931,-59.546023,-0.000000,0.000000,-0.000000,1412.986471,-1412.108336,-0.535663,0.000000,-0.000000,-0.000000
0.020000,0.940000,0.440609,0.040000,-583.181890,443.800000,-1410.784654,1411.662647,60.613394,-0.000000,0.000000,0.000000,1412.963648,-1412.085655,-0.533643,0.000000,-0.000000,-0.000000
0.060000,0.940000,0.442985,0.040000,-580.919861,459.800000,-1395.495026,1396.341452,179.463549,-0.000000,0.000000,0.000000,1407.830268,-1406.983841,-0.527892,0.000000,-0.000000,-0.000000
0.100000,0.940000,0.445722,0.040000,-576.426325,491.800000,-1365.528992,1366.314774,294.479014,-0.000000,0.000000,0.000000,1397.697514,-1396.911733,-0.518748,0.000000,-0.000000,-0.000000
0.140000,0.940000,0.451273,0.040000,-569.749134,539.800000,-1321.933957,1322.634402,403.336525,-0.000000,0.000000,0.000000,1382.781251,-1382.080806,-0.506600,0.000000,-0.000000,-0.000000
0.180000,0.940000,0.457529,0.040000,-560.957912,603.800000,-1266.184241,1266.780555,504.027471,-0.000000,0.000000,0.000000,1363.390638,-1362.794325,-0.491855,0.000000,-0.000000,-0.000000
0.220000,0.940000,0.466219,0.040000,-550.141700,683.800000,-1200.079673,1200.559791,594.941157,-0.000000,0.000000,0.000000,1339.912487,-1339.432369,-0.474907,0.000000,-0.000000,-0.000000
0.260000,0.940000,0.475756,0.040000,-537.406090,779.800000,-1125.629719,1125.988440,674.913419,-0.000000,0.000000,0.000000,1312.792784,-1312.434062,-0.456131,0.000000,-0.000000,-0.000000
0.300000,0.940000,0.487535,0.040000,-522.870018,891.800000,-1044.935179,1045.173673,743.239759,-0.000000,0.000000,0.000000,1282.516963,-1282.278470,-0.435884,0.000000,-0.000000,-0.000000
0.340000,0.940000,0.500036,0.040000,-506.662413,1019.800000,-960.078236,960.203069,799.656360,-0.000000,0.000000,0.000000,1249.590406,-1249.465572,-0.414512,0.000000,-0.000000,-0.000000
0.380000,0.940000,0.514847,0.040000,-488.918874,1163.800000,-873.029056,873.050935,844.295334,-0.000000,0.000000,0.000000,1214.520426,-1214.498546,-0.392352,0.000000,-0.000000,-0.000000
0.420000,0.940000,0.529962,0.040000,-469.778523,1323.800000,-785.573975,785.506387,877.622239,-0.000000,0.000000,0.000000,1177.800674,-1177.868262,-0.369737,0.000000,-0.000000,-0.000000
0.460000,0.940000,0.547587,0.040000,-449.381153,1499.800000,-699.267053,699.124959,900.364168,-0.000000,0.000000,0.000000,1139.898501,-1140.040594,-0.346982,0.000000,-0.000000,-0.000000
0.500000,0.940000,0.565134,0.040000,-427.864740,1691.800000,-615.404105,615.202809,913.435881,-0.000000,0.000000,0.000000,1101.245505,-1101.446800,-0.324387,0.000000,-0.000000,-0.000000
0.540000,0.940000,0.584736,0.040000,-405.363377,1899.800000,-535.016334,534.770583,917.869937,-0.000000,0.000000,0.000000,1062.231181,-1062.476932,-0.302215,0.000000,-0.000000,-0.000000
0.580000,0.940000,0.605189,0.040000,-382.005616,2123.800000,-458.879585,458.602918,914.754956,-0.000000,0.000000,0.000000,1023.199385,-1023.476052,-0.280698,0.000000,-0.000000,-0.000000
0.620000,0.940000,0.626469,0.040000,-357.913227,2363.800000,-387.534861,387.239209,905.184357,-0.000000,0.000000,0.000000,984.447202,-984.742853,-0.260018,0.000000,-0.000000,-0.000000
0.660000,0.940000,0.649517,0.040000,-333.200335,2619.800000,-321.315956,321.011441,890.216394,-0.000000,0.000000,0.000000,946.225728,-946.530243,-0.240318,0.000000,-0.000000,-0.000000
0.700000,0.940000,0.672515,0.040000,-307.972875,2891.800000,-260.380611,260.075512,870.845143,-0.000000,0.000000,0.000000,908.742306,-909.047405,-0.221694,0.000000,-0.000000,-0.000000
0.740000,0.940000,0.696773,0.040000,-282.328343,3179.800000,-204.742363,204.443198,847.981351,-0.000000,0.000000,0.000000,872.163742,-872.462907,-0.204205,0.000000,-0.000000,-0.000000
0.780000,0.940000,0.722432,0.040000,-256.355769,3483.800000,-153.978739,153.939349,822.292460,-0.000000,0.000000,0.000000,836.561533,-836.600923,-0.354787,0.000000,-0.000000,-0.000000
0.820000,0.940000,0.747933,0.040000,-230.135876,3803.800000,-108.985599,108.505433,794.947619,-0.000000,0.000000,0.000000,802.111011,-802.591177,-0.161215,0.000000,-0.000000,-0.000000
0.860000,0.940000,0.774455,0.040000,-203.741373,4139.800000,-69.336029,67.376504,766.131064,-0.000000,0.000000,0.000000,768.194712,-770.154237,0.120465,0.000000,-0.000000,0.000000
0.900000,0.940000,0.802096,0.040000,-177.237355,4491.800000,-32.777509,30.928021,735.887231,-0.000000,0.000000,0.000000,735.651519,-737.501006,-0.157311,0.000000,-0.000000,-0.000000
0.940000,0.940000,0.830112,0.040000,-150.681759,4859.800000,-0.339374,-0.606225,706.676846,-0.000000,-0.000000,0.000000,706.204047,-707.149646,-0.133426,0.000000,-0.000000,-0.000000
-0.900000,0.980000,0.831384,0.040000,-149.601661,4530.200000,-60.426880,59.528354,-703.136325,-0.000000,0.000000,-0.000000,705.240474,-706.139000,-0.027571,0.000000,-0.000000,-0.000000
-0.860000,0.980000,0.804476,0.040000,-174.939120,4178.200000,-95.834797,94.530925,-728.354050,-0.000000,0.000000,-0.000000,733.895101,-735.198973,0.223731,0.000000,-0.000000,0.000000
-0.820000,0.980000,0.778206,0.040000,-200.123136,3842.200000,-135.831694,134.117016,-752.624172,-0.000000,0.000000,-0.000000,763.774082,-765.488759,-0.107191,0.000000,-0.000000,-0.000000
-0.780000,0.980000,0.753146,0.040000,-225.090471,3522.200000,-179.543080,178.658236,-776.100556,-0.000000,0.000000,-0.000000,796.055513,-796.940358,-0.396284,0.000000,-0.000000,-0.000000
-0.740000,0.980000,0.728790,0.040000,-249.771150,3218.200000,-226.646475,226.553443,-796.485454,-0.000000,0.000000,-0.000000,828.045637,-828.138669,0.085288,0.000000,-0.000000,0.000000
-0.700000,0.980000,0.704727,0.040000,-274.088206,2930.200000,-279.591493,279.332961,-814.460295,-0.000000,0.000000,-0.000000,860.942546,-861.201078,-0.206876,0.000000,-0.000000,-0.000000
-0.660000,0.980000,0.682163,0.040000,-297.957522,2658.200000,-336.650511,336.397015,-828.916376,-0.000000,0.000000,-0.000000,894.496386,-894.749881,-0.223371,0.000000,-0.000000,-0.000000
-0.620000,0.980000,0.660376,0.040000,-321.287814,2402.200000,-398.106894,397.865858,-839.078461,-0.000000,0.000000,-0.000000,928.559062,-928.800097,-0.240817,0.000000,-0.000000,-0.000000
-0.580000,0.980000,0.639169,0.040000,-343.980769,2162.200000,-463.741195,463.521416,-844.102549,-0.000000,0.000000,-0.000000,962.938933,-963.158712,-0.259159,0.000000,-0.000000,-0.000000
-0.540000,0.980000,0.619821,0.040000,-365.931405,1938.200000,-533.181084,532.992637,-843.108092,-0.000000,0.000000,-0.000000,997.409049,-997.597496,-0.278308,0.000000,-0.000000,-0.000000
-0.500000,0.980000,0.600673,0.040000,-387.028666,1730.200000,-605.879378,605.733384,-835.204667,-0.000000,0.000000,-0.000000,1031.706107,-1031.852101,-0.298131,0.000000,-0.000000,-0.000000
-0.460000,0.980000,0.583143,0.040000,-407.156299,1538.200000,-681.096063,681.004312,-819.526751,-0.000000,0.000000,-0.000000,1065.530660,-1065.622411,-0.318445,0.000000,-0.000000,-0.000000
-0.420000,0.980000,0.566949,0.040000,-426.194040,1362.200000,-757.887047,757.861435,-795.276391,-0.000000,0.000000,-0.000000,1098.548885,-1098.574497,-0.339008,0.000000,-0.000000,-0.000000
-0.380000,0.980000,0.551520,0.040000,-444.019125,1202.200000,-835.102598,835.154398,-761.772690,-0.000000,0.000000,-0.000000,1130.396242,-1130.344442,-0.359513,0.000000,-0.000000,-0.000000
-0.340000,0.980000,0.538313,0.040000,-460.508124,1058.200000,-911.398418,911.537411,-718.505893,-0.000000,0.000000,-0.000000,1160.683271,-1160.544278,-0.379591,0.000000,-0.000000,-0.000000
-0.300000,0.980000,0.525286,0.040000,-475.539099,930.200000,-985.261821,985.495325,-665.192655,-0.000000,0.000000,-0.000000,1189.003644,-1188.770140,-0.398814,0.000000,-0.000000,-0.000000
-0.260000,0.980000,0.515044,0.040000,-488.994010,818.200000,-1055.054497,1055.386409,-601.827912,-0.000000,0.000000,-0.000000,1214.944482,-1214.612569,-0.416715,0.000000,-0.000000,-0.000000
-0.220000,0.980000,0.504788,0.040000,-500.761338,722.200000,-1119.071872,1119.501811,-528.727922,-0.000000,0.000000,-0.000000,1238.098672,-1237.668733,-0.432812,0.000000,-0.000000,-0.000000
-0.180000,0.980000,0.497477,0.040000,-510.738805,642.200000,-1175.617098,1176.139789,-446.558717,-0.000000,0.000000,-0.000000,1258.078741,-1257.556051,-0.446641,0.000000,-0.000000,-0.000000
-0.140000,0.980000,0.490349,0.040000,-518.836078,578.200000,-1223.085566,1223.690579,-356.344653,-0.000000,0.000000,-0.000000,1274.531559,-1273.926546,-0.457793,0.000000,-0.000000,-0.000000
-0.100000,0.980000,0.486196,0.040000,-524.977332,530.200000,-1260.053772,1260.725713,-259.453106,-0.000000,0.000000,-0.000000,1287.152974,-1286.481033,-0.465950,0.000000,-0.000000,-0.000000
-0.060000,0.980000,0.482231,0.040000,-529.103519,498.200000,-1285.364838,1286.084024,-157.553546,-0.000000,0.000000,-0.000000,1295.701328,-1294.982142,-0.470913,0.000000,-0.000000,-0.000000
-0.020000,0.980000,0.481383,0.040000,-531.174214,482.200000,-1298.202342,1298.945932,-52.552105,-0.000000,0.000000,-0.000000,1300.008778,-1299.265189,-0.472612,0.000000,-0.000000,-0.000000
0.020000,0.980000,0.480600,0.040000,-531.168913,482.200000,-1298.144650,1298.888130,53.494247,-0.000000,0.000000,0.000000,1299.989463,-1299.245984,-0.471102,0.000000,-0.000000,-0.000000
0.060000,0.980000,0.482975,0.040000,-529.087709,498.200000,-1285.193668,1285.912531,158.477002,-0.000000,0.000000,0.000000,1295.643769,-1294.924906,-0.466547,0.000000,-0.000000,-0.000000
0.100000,0.980000,0.485487,0.040000,-524.951285,530.200000,-1259.774713,1260.446140,260.340108,-0.000000,0.000000,0.000000,1287.058313,-1286.386886,-0.459187,0.000000,-0.000000,-0.000000
0.140000,0.980000,0.491037,0.040000,-518.800241,578.200000,-1222.707508,1223.311849,357.179188,-0.000000,0.000000,0.000000,1274.401635,-1273.797294,-0.449311,0.000000,-0.000000,-0.000000
0.180000,0.980000,0.496792,0.040000,-510.693782,642.200000,-1175.151654,1175.673558,447.327204,-0.000000,0.000000,0.000000,1257.916004,-1257.394100,-0.437226,0.000000,-0.000000,-0.000000
0.220000,0.980000,0.505490,0.040000,-500.707872,722.200000,-1118.532654,1118.961737,529.419691,-0.000000,0.000000,0.000000,1237.906069,-1237.476986,-0.423243,0.000000,-0.000000,-0.000000
0.260000,0.980000,0.514299,0.040000,-488.932962,818.200000,-1054.456330,1054.787361,602.435452,-0.000000,0.000000,0.000000,1214.725331,-1214.394299,-0.407664,0.000000,-0.000000,-0.000000
0.300000,0.980000,0.526010,0.040000,-475.471425,930.200000,-984.619959,984.852599,665.711638,-0.000000,0.000000,0.000000,1188.761503,-1188.528863,-0.390782,0.000000,-0.000000,-0.000000
0.340000,0.980000,0.537707,0.040000,-460.434851,1058.200000,-910.727832,910.866012,718.935002,-0.000000,0.000000,0.000000,1160.421809,-1160.283629,-0.372882,0.000000,-0.000000,-0.000000
0.380000,0.980000,0.551974,0.040000,-443.941322,1202.200000,-834.417379,834.468445,762.113291,-0.000000,0.000000,0.000000,1130.119121,-1130.068055,-0.354240,0.000000,-0.000000,-0.000000
0.420000,0.980000,0.566679,0.040000,-426.112805,1362.200000,-757.199953,757.173701,795.532103,-0.000000,0.000000,0.000000,1098.259657,-1098.285909,-0.335128,0.000000,-0.000000,-0.000000
0.460000,0.980000,0.583195,0.040000,-407.072728,1538.200000,-680.418209,680.325923,819.702961,-0.000000,0.000000,0.000000,1065.232691,-1065.324977,-0.315804,0.000000,-0.000000,-0.000000
0.500000,0.980000,0.600870,0.040000,-386.943844,1730.200000,-605.220079,605.073657,835.308038,-0.000000,0.000000,0.000000,1031.402509,-1031.548932,-0.296513,0.000000,-0.000000,-0.000000
0.540000,0.980000,0.619343,0.040000,-365.846386,1938.200000,-532.547816,532.359042,843.146096,-0.000000,0.000000,0.000000,997.102643,-997.291417,-0.277476,0.000000,-0.000000,-0.000000
0.580000,0.980000,0.639786,0.040000,-343.896566,2162.200000,-463.139653,462.919643,844.083059,-0.000000,0.000000,0.000000,962.632223,-962.852234,-0.258887,0.000000,-0.000000,-0.000000
0.620000,0.980000,0.660119,0.040000,-321.205389,2402.200000,-397.541134,397.299951,839.009401,-0.000000,0.000000,0.000000,928.254227,-928.495410,-0.240907,0.000000,-0.000000,-0.000000
0.660000,0.980000,0.682032,0.040000,-297.877781,2658.200000,-336.123125,335.869554,828.805451,-0.000000,0.000000,0.000000,894.195285,-894.448856,-0.223665,0.000000,-0.000000,-0.000000
0.700000,0.980000,0.705271,0.040000,-274.011991,2930.200000,-279.103818,278.845270,814.314791,-0.000000,0.000000,0.000000,860.646732,-860.905280,-0.207255,0.000000,-0.000000,-0.000000
0.740000,0.980000,0.728439,0.040000,-249.699242,3218.200000,-226.199538,226.106069,796.312334,-0.000000,0.000000,0.000000,827.756505,-827.849975,-0.467974,0.000000,-0.000000,-0.000000
0.780000,0.980000,0.753020,0.040000,-225.023586,3522.200000,-179.135405,178.250935,775.904983,-0.000000,0.000000,0.000000,795.773684,-796.658154,0.043067,0.000000,-0.000000,0.000000
0.820000,0.980000,0.778828,0.040000,-200.061928,3842.200000,-135.461927,133.748087,752.412905,-0.000000,0.000000,0.000000,763.501398,-765.215238,-0.219102,0.000000,-0.000000,-0.000000
0.860000,0.980000,0.804332,0.040000,-174.884180,4178.200000,-95.502101,94.198615,728.130854,-0.000000,0.000000,0.000000,733.630802,-734.934288,-0.524429,0.000000,-0.000000,-0.000000
0.900000,0.980000,0.830980,0.040000,-149.553524,4530.200000,-60.128874,59.230696,702.905381,-0.000000,0.000000,0.000000,704.985238,-705.883415,-0.249564,0.000000,-0.000000,-0.000000
-0.860000,1.020000,0.834570,0.040000,-146.223663,4218.200000,-119.096691,118.254086,-691.804340,-0.000000,0.000000,-0.000000,701.488299,-702.330904,-0.061436,0.000000,-0.000000,-0.000000
-0.820000,1.020000,0.809278,0.040000,-170.253728,3882.200000,-156.945888,155.715894,-711.945156,-0.000000,0.000000,-0.000000,728.291837,-729.521830,0.283456,0.000000,-0.000000,0.000000
-0.780000,1.020000,0.784995,0.040000,-194.032400,3562.200000,-199.169080,197.504635,-730.769976,-0.000000,0.000000,-0.000000,756.374660,-758.039105,0.060057,0.000000,-0.000000,0.000000
-0.740000,1.020000,0.760606,0.040000,-217.492772,3258.200000,-244.532389,243.599660,-747.888982,-0.000000,0.000000,-0.000000,786.239520,-787.172248,0.074068,0.000000,-0.000000,0.000000
-0.700000,1.020000,0.737582,0.040000,-240.561866,2970.200000,-293.225300,293.017339,-761.433081,-0.000000,0.000000,-0.000000,815.800628,-816.008589,0.336856,0.000000,-0.000000,0.000000
-0.660000,1.020000,0.715897,0.040000,-263.160583,2698.200000,-347.000070,346.790131,-771.746862,-0.000000,0.000000,-0.000000,846.021136,-846.231075,-0.208036,0.000000,-0.000000,-0.000000
-0.620000,1.020000,0.694082,0.040000,-285.203782,2442.200000,-403.862831,403.667478,-777.993755,-0.000000,0.000000,-0.000000,876.429866,-876.625219,-0.223374,0.000000,-0.000000,-0.000000
-0.580000,1.020000,0.673937,0.040000,-306.600504,2202.200000,-464.110911,463.937690,-779.409021,-0.000000,0.000000,-0.000000,906.994927,-907.168148,-0.239397,0.000000,-0.000000,-0.000000
-0.540000,1.020000,0.654904,0.040000,-327.254386,1978.200000,-527.357509,527.214844,-775.263677,-0.000000,0.000000,-0.000000,937.513019,-937.655684,-0.256014,0.000000,-0.000000,-0.000000
-0.500000,1.020000,0.636354,0.040000,-347.064280,1770.200000,-593.069664,592.966630,-764.835658,-0.000000,0.000000,-0.000000,967.752199,-967.855232,-0.273099,0.000000,-0.000000,-0.000000
-0.460000,1.020000,0.619834,0.040000,-365.925107,1578.200000,-660.557150,660.503128,-747.439427,-0.000000,0.000000,-0.000000,997.452652,-997.506673,-0.290484,0.000000,-0.000000,-0.000000
-0.420000,1.020000,0.603557,0.040000,-383.728962,1402.200000,-728.967377,728.971587,-722.461029,-0.000000,0.000000,-0.000000,1026.328734,-1026.324524,-0.307957,0.000000,-0.000000,-0.000000
-0.380000,1.020000,0.589087,0.040000,-400.366476,1242.200000,-797.288401,797.359321,-689.397421,-0.000000,0.000000,-0.000000,1054.072479,-1054.001559,-0.325260,0.000000,-0.000000,-0.000000
-0.340000,1.020000,0.575827,0.040000,-415.728437,1098.200000,-864.361993,864.506690,-647.898146,-0.000000,0.000000,-0.000000,1080.358709,-1080.214012,-0.342089,0.000000,-0.000000,-0.000000
-0.300000,1.020000,0.563668,0.040000,-429.707639,970.200000,-928.908236,929.131660,-597.806619,-0.000000,0.000000,-0.000000,1104.851812,-1104.628388,-0.358101,0.000000,-0.000000,-0.000000
-0.260000,1.020000,0.553464,0.040000,-442.200928,858.200000,-989.562355,989.866649,-539.197536,-0.000000,0.000000,-0.000000,1127.214097,-1126.909803,-0.372932,0.000000,-0.000000,-0.000000
-0.220000,1.020000,0.543870,0.040000,-453.111380,762.200000,-1044.923310,1045.307233,-472.406478,-0.000000,0.000000,-0.000000,1147.115526,-1146.731603,-0.386212,0.000000,-0.000000,-0.000000
-0.180000,1.020000,0.536763,0.040000,-462.350538,682.200000,-1093.612344,1094.070881,-398.047724,-0.000000,0.000000,-0.000000,1164.244434,-1163.785897,-0.397590,0.000000,-0.000000,-0.000000
-0.140000,1.020000,0.529962,0.040000,-469.840612,618.200000,-1134.338186,1134.862422,-317.016734,-0.000000,0.000000,-0.000000,1178.318693,-1177.794457,-0.406760,0.000000,-0.000000,-0.000000
-0.100000,1.020000,0.525992,0.040000,-475.516541,570.200000,-1165.964317,1166.541636,-230.474847,-0.000000,0.000000,-0.000000,1189.096672,-1188.519353,-0.413485,0.000000,-0.000000,-0.000000
-0.060000,1.020000,0.522159,0.040000,-479.327803,538.200000,-1187.572750,1188.187375,-139.815326,-0.000000,0.000000,-0.000000,1196.387241,-1195.772616,-0.417614,0.000000,-0.000000,-0.000000
-0.020000,1.020000,0.521354,0.040000,-481.239881,522.200000,-1198.518494,1199.152337,-46.611822,-0.000000,0.000000,-0.000000,1200.058077,-1199.424234,-0.419091,0.000000,-0.000000,-0.000000
0.020000,1.020000,0.520591,0.040000,-481.235292,522.200000,-1198.469324,1199.103081,47.447576,-0.000000,0.000000,0.000000,1200.041621,-1199.407864,-0.417950,0.000000,-0.000000,-0.000000
0.060000,1.020000,0.522896,0.040000,-479.314113,538.200000,-1187.426742,1188.041113,140.635770,-0.000000,0.000000,0.000000,1196.338176,-1195.723805,-0.414304,0.000000,-0.000000,-0.000000
0.100000,1.020000,0.525287,0.040000,-475.493983,570.200000,-1165.725877,1166.302790,231.265365,-0.000000,0.000000,0.000000,1189.015897,-1188.438985,-0.408328,0.000000,-0.000000,-0.000000
0.140000,1.020000,0.530622,0.040000,-469.809568,618.200000,-1134.014351,1134.538053,317.764043,-0.000000,0.000000,0.000000,1178.207660,-1177.683958,-0.400237,0.000000,-0.000000,-0.000000
0.180000,1.020000,0.536165,0.040000,-462.311524,682.200000,-1093.212353,1093.670260,398.740403,-0.000000,0.000000,0.000000,1164.105084,-1163.647177,-0.390267,0.000000,-0.000000,-0.000000
0.220000,1.020000,0.544388,0.040000,-453.065036,762.200000,-1044.458072,1044.841303,473.035350,-0.000000,0.000000,0.000000,1146.950208,-1146.566976,-0.378662,0.000000,-0.000000,-0.000000
0.260000,1.020000,0.553049,0.040000,-442.147997,858.200000,-989.043852,989.347427,539.755884,-0.000000,0.000000,0.000000,1127.025469,-1126.721894,-0.365665,0.000000,-0.000000,-0.000000
0.300000,1.020000,0.563956,0.040000,-429.648950,970.200000,-928.348932,928.571641,598.290245,-0.000000,0.000000,0.000000,1104.642747,-1104.420038,-0.351516,0.000000,-0.000000,-0.000000
0.340000,1.020000,0.575693,0.040000,-415.664882,1098.200000,-863.774272,863.918288,648.305270,-0.000000,0.000000,0.000000,1080.132194,-1079.988178,-0.336448,0.000000,-0.000000,-0.000000
0.380000,1.020000,0.589040,0.040000,-400.298996,1242.200000,-796.684092,796.754385,689.728468,-0.000000,0.000000,0.000000,1053.831522,-1053.761230,-0.320690,0.000000,-0.000000,-0.000000
0.420000,1.020000,0.603813,0.040000,-383.658523,1402.200000,-728.357369,728.361022,722.718323,-0.000000,0.000000,0.000000,1026.076288,-1026.072634,-0.304465,0.000000,-0.000000,-0.000000
0.460000,1.020000,0.619340,0.040000,-365.852684,1578.200000,-659.951121,659.896622,747.626833,-0.000000,0.000000,0.000000,997.191540,-997.246039,-0.287986,0.000000,-0.000000,-0.000000
0.500000,1.020000,0.637004,0.040000,-346.990841,1770.200000,-592.475915,592.372488,764.958212,-0.000000,0.000000,0.000000,967.485069,-967.588497,-0.271455,0.000000,-0.000000,-0.000000
0.540000,1.020000,0.654564,0.040000,-327.180881,1978.200000,-526.782897,526.639921,775.327220,-0.000000,0.000000,0.000000,937.242302,-937.385278,-0.255056,0.000000,-0.000000,-0.000000
0.580000,1.020000,0.673940,0.040000,-306.527852,2202.200000,-463.560859,463.387405,779.419864,-0.000000,0.000000,0.000000,906.722811,-906.896265,-0.238954,0.000000,-0.000000,-0.000000
0.620000,1.020000,0.694443,0.040000,-285.132863,2442.200000,-403.341405,403.145891,777.958396,-0.000000,0.000000,0.000000,876.158288,-876.353802,-0.223289,0.000000,-0.000000,-0.000000
0.660000,1.020000,0.715305,0.040000,-263.092231,2698.200000,-346.510101,346.300063,771.671743,-0.000000,0.000000,0.000000,845.751775,-845.961813,-0.208176,0.000000,-0.000000,-0.000000
0.700000,1.020000,0.737747,0.040000,-240.496864,2970.200000,-292.769419,292.561420,761.324397,-0.000000,0.000000,0.000000,815.535236,-815.743235,-0.723163,0.000000,-0.000000,-0.000000
0.740000,1.020000,0.760891,0.040000,-217.431852,3258.200000,-244.110374,243.177532,747.752561,-0.000000,0.000000,0.000000,785.978796,-786.911639,-0.432966,0.000000,-0.000000,-0.000000
0.780000,1.020000,0.784456,0.040000,-193.976238,3562.200000,-198.780819,197.116968,730.611410,-0.000000,0.000000,0.000000,756.120280,-757.784131,-0.392922,0.000000,-0.000000,-0.000000
0.820000,1.020000,0.809313,0.040000,-170.202946,3882.200000,-156.591337,155.361499,711.768907,-0.000000,0.000000,0.000000,728.043622,-729.273460,-0.591783,0.000000,-0.000000,-0.000000
0.860000,1.020000,0.835056,0.040000,-146.178829,4218.200000,-118.774555,117.932156,691.614628,-0.000000,0.000000,0.000000,701.246999,-702.089398,-0.223906,0.000000,-0.000000,-0.000000
-0.780000,1.060000,0.816580,0.040000,-163.291616,3603.800000,-214.619725,213.468234,-688.206374,-0.000000,0.000000,-0.000000,720.147995,-721.299486,0.358429,0.000000,-0.000000,0.000000
-0.740000,1.060000,0.793164,0.040000,-185.604649,3299.800000,-258.389316,257.201130,-701.166126,-0.000000,0.000000,-0.000000,746.461596,-747.649782,-0.333567,0.000000,-0.000000,-0.000000
-0.700000,1.060000,0.771112,0.040000,-207.504890,3011.800000,-304.619081,302.977772,-711.738236,-0.000000,0.000000,-0.000000,773.042896,-774.684205,0.074666,0.000000,-0.000000,0.000000
-0.660000,1.060000,0.749242,0.040000,-228.918188,2739.800000,-353.099938,352.893056,-718.682081,-0.000000,0.000000,-0.000000,800.590221,-800.797103,0.346699,0.000000,-0.000000,0.000000
-0.620000,1.060000,0.728426,0.040000,-249.765320,2483.800000,-405.593060,405.902839,-721.473414,-0.000000,0.000000,-0.000000,827.895964,-827.586185,-0.001298,0.000000,-0.000000,-0.000000
-0.580000,1.060000,0.709257,0.040000,-269.962274,2243.800000,-461.457640,461.322515,-720.277086,-0.000000,0.000000,-0.000000,855.315297,-855.450422,-0.221313,0.000000,-0.000000,-0.000000
-0.540000,1.060000,0.690100,0.040000,-289.420693,2019.800000,-519.041999,518.935985,-713.707873,-0.000000,0.000000,-0.000000,882.402911,-882.508925,-0.235760,0.000000,-0.000000,-0.000000
-0.500000,1.060000,0.672522,0.040000,-308.048483,1811.800000,-578.457333,578.387800,-701.446666,-0.000000,0.000000,-0.000000,909.140699,-909.210232,-0.250519,0.000000,-0.000000,-0.000000
-0.460000,1.060000,0.656345,0.040000,-325.750637,1619.800000,-639.068656,639.043046,-682.952684,-0.000000,0.000000,-0.000000,935.303548,-935.329157,-0.265442,0.000000,-0.000000,-0.000000
-0.420000,1.060000,0.640571,0.040000,-342.430243,1443.800000,-700.112203,700.137645,-657.756318,-0.000000,0.000000,-0.000000,960.646993,-960.621551,-0.280344,0.000000,-0.000000,-0.000000
-0.380000,1.060000,0.626956,0.040000,-357.989708,1283.800000,-760.701012,760.783863,-625.490234,-0.000000,0.000000,-0.000000,984.910454,-984.827602,-0.295008,0.000000,-0.000000,-0.000000
-0.340000,1.060000,0.613656,0.040000,-372.332179,1139.800000,-819.838438,819.983777,-585.921412,-0.000000,0.000000,-0.000000,1007.821661,-1007.676322,-0.309186,0.000000,-0.000000,-0.000000
-0.300000,1.060000,0.602261,0.040000,-385.363129,1011.800000,-876.440447,876.651547,-538.981951,-0.000000,0.000000,-0.000000,1029.102306,-1028.891206,-0.322602,0.000000,-0.000000,-0.000000
-0.260000,1.060000,0.592036,0.040000,-396.992096,899.800000,-929.366898,929.644747,-484.796015,-0.000000,0.000000,-0.000000,1048.474814,-1048.196965,-0.334971,0.000000,-0.000000,-0.000000
-0.220000,1.060000,0.583077,0.040000,-407.134498,803.800000,-977.461189,977.804091,-423.700097,-0.000000,0.000000,-0.000000,1065.670034,-1065.327132,-0.346006,0.000000,-0.000000,-0.000000
-0.180000,1.060000,0.575963,0.040000,-415.713483,723.800000,-1019.596667,1019.999998,-356.253809,-0.000000,0.000000,-0.000000,1080.435571,-1080.032240,-0.355439,0.000000,-0.000000,-0.000000
-0.140000,1.060000,0.569630,0.040000,-422.661725,659.800000,-1054.727200,1055.183365,-283.238861,-0.000000,0.000000,-0.000000,1092.544322,-1092.088158,-0.363038,0.000000,-0.000000,-0.000000
-0.100000,1.060000,0.565659,0.040000,-427.923097,611.800000,-1081.938474,1082.437093,-205.644700,-0.000000,0.000000,-0.000000,1101.802761,-1101.304142,-0.368624,0.000000,-0.000000,-0.000000
-0.060000,1.060000,0.562097,0.040000,-431.454124,579.800000,-1100.496013,1101.024350,-124.640432,-0.000000,0.000000,-0.000000,1108.058407,-1107.530070,-0.372082,0.000000,-0.000000,-0.000000
-0.020000,1.060000,0.561293,0.040000,-433.225159,563.800000,-1109.885775,1110.429386,-41.534028,-0.000000,0.000000,-0.000000,1111.206002,-1110.662392,-0.373364,0.000000,-0.000000,-0.000000
0.020000,1.060000,0.560584,0.040000,-433.221201,563.800000,-1109.843611,1110.387153,42.278822,-0.000000,0.000000,0.000000,1111.191895,-1110.648353,-0.372492,0.000000,-0.000000,-0.000000
0.060000,1.060000,0.562726,0.040000,-431.442319,579.800000,-1100.370712,1100.898847,125.372586,-0.000000,0.000000,0.000000,1108.016326,-1107.488192,-0.369546,0.000000,-0.000000,-0.000000
0.100000,1.060000,0.565115,0.040000,-427.903645,611.800000,-1081.733545,1082.231839,206.352104,-0.000000,0.000000,0.000000,1101.733420,-1101.235126,-0.364654,0.000000,-0.000000,-0.000000
0.140000,1.060000,0.570077,0.040000,-422.634953,659.800000,-1054.448258,1054.903994,283.910430,-0.000000,0.000000,0.000000,1092.448878,-1091.993142,-0.357978,0.000000,-0.000000,-0.000000
0.180000,1.060000,0.575624,0.040000,-415.679836,723.800000,-1019.251123,1019.653945,356.879894,-0.000000,0.000000,0.000000,1080.315575,-1079.912752,-0.349701,0.000000,-0.000000,-0.000000
0.220000,1.060000,0.583291,0.040000,-407.094529,803.800000,-977.057846,977.400185,424.272795,-0.000000,0.000000,0.000000,1065.527371,-1065.185033,-0.340014,0.000000,-0.000000,-0.000000
0.260000,1.060000,0.591965,0.040000,-396.946450,899.800000,-928.915504,929.192762,485.309354,-0.000000,0.000000,0.000000,1048.311631,-1048.034373,-0.329113,0.000000,-0.000000,-0.000000
0.300000,1.060000,0.602168,0.040000,-385.312527,1011.800000,-875.951235,876.161742,539.431961,-0.000000,0.000000,0.000000,1028.920937,-1028.710430,-0.317195,0.000000,-0.000000,-0.000000
0.340000,1.060000,0.613935,0.040000,-372.277402,1139.800000,-819.321692,819.466457,586.306076,-0.000000,0.000000,0.000000,1007.624550,-1007.479785,-0.304451,0.000000,-0.000000,-0.000000
0.380000,1.060000,0.626468,0.040000,-357.931583,1283.800000,-760.166678,760.248994,625.809344,-0.000000,0.000000,0.000000,984.700086,-984.617770,-0.291070,0.000000,-0.000000,-0.000000
0.420000,1.060000,0.641255,0.040000,-342.369623,1443.800000,-699.569576,699.594535,658.011264,-0.000000,0.000000,0.000000,960.425827,-960.400869,-0.277237,0.000000,-0.000000,-0.000000
0.460000,1.060000,0.655933,0.040000,-325.688390,1619.800000,-638.526139,638.500107,683.146190,-0.000000,0.000000,0.000000,935.073961,-935.099994,-0.263127,0.000000,-0.000000,-0.000000
0.500000,1.060000,0.672636,0.040000,-307.985477,1811.800000,-577.922280,577.852390,701.582507,-0.000000,0.000000,0.000000,908.904945,-908.974836,-0.248910,0.000000,-0.000000,-0.000000
0.540000,1.060000,0.690306,0.040000,-289.357782,2019.800000,-518.520632,518.414327,713.790593,-0.000000,0.000000,0.000000,882.163081,-882.269386,-0.234739,0.000000,-0.000000,-0.000000
0.580000,1.060000,0.708705,0.040000,-269.900294,2243.800000,-460.955031,460.819679,720.311728,-0.000000,0.000000,0.000000,855.073301,-855.208653,-0.220754,0.000000,-0.000000,-0.000000
0.620000,1.060000,0.728837,0.040000,-249.705072,2483.800000,-405.113798,405.422941,721.465536,-0.000000,0.000000,0.000000,827.653695,-827.344553,-0.412851,0.000000,-0.000000,-0.000000
0.660000,1.060000,0.749237,0.040000,-228.860442,2739.800000,-352.646936,352.439681,718.636563,-0.000000,0.000000,0.000000,800.349217,-800.556471,-0.733298,0.000000,-0.000000,-0.000000
0.700000,1.060000,0.770691,0.040000,-207.450372,3011.800000,-304.193357,302.552011,711.660570,-0.000000,0.000000,0.000000,772.804276,-774.445622,-0.435718,0.000000,-0.000000,-0.000000
0.740000,1.060000,0.793583,0.040000,-185.554041,3299.800000,-257.991830,256.803730,701.061350,-0.000000,0.000000,0.000000,746.226299,-747.414399,-0.003411,0.000000,-0.000000,-0.000000
0.780000,1.060000,0.816641,0.040000,-163.245554,3603.800000,-214.251860,213.100350,688.079071,-0.000000,0.000000,0.000000,719.917017,-721.068527,-0.671785,0.000000,-0.000000,-0.000000
-0.740000,1.100000,0.826375,0.040000,-154.128447,3343.000000,-267.638888,266.949329,-658.392966,-0.000000,0.000000,-0.000000,710.237473,-710.927032,0.548869,0.000000,-0.000000,0.000000
-0.700000,1.100000,0.804597,0.040000,-174.934010,3055.000000,-311.008025,310.102501,-665.427923,-0.000000,0.000000,-0.000000,733.875938,-734.781463,0.501765,0.000000,-0.000000,0.000000
-0.660000,1.100000,0.783210,0.040000,-195.241156,2783.000000,-357.583660,356.157936,-669.257334,-0.000000,0.000000,-0.000000,757.747514,-759.173238,0.058629,0.000000,-0.000000,0.000000
-0.620000,1.100000,0.763321,0.040000,-214.976304,2527.000000,-406.315832,405.241965,-670.240455,-0.000000,0.000000,-0.000000,782.967231,-784.041097,-0.082726,0.000000,-0.000000,-0.000000
-0.580000,1.100000,0.744264,0.040000,-234.061955,2287.000000,-455.707884,456.038712,-666.041517,-0.000000,0.000000,-0.000000,807.278637,-806.947810,0.103170,0.000000,-0.000000,0.000000
-0.540000,1.100000,0.725794,0.040000,-252.417135,2063.000000,-508.159363,508.619746,-657.550809,-0.000000,0.000000,-0.000000,831.393836,-830.933453,-0.048034,0.000000,-0.000000,-0.000000
-0.500000,1.100000,0.709101,0.040000,-269.958000,1855.000000,-562.627363,562.583825,-644.302236,-0.000000,0.000000,-0.000000,855.343867,-855.387406,-0.230142,0.000000,-0.000000,-0.000000
-0.460000,1.100000,0.692848,0.040000,-286.598596,1663.000000,-617.127183,617.122780,-625.185343,-0.000000,0.000000,-0.000000,878.462309,-878.466713,-0.242990,0.000000,-0.000000,-0.000000
-0.420000,1.100000,0.677924,0.040000,-302.251782,1487.000000,-671.693239,671.733470,-600.143744,-0.000000,0.000000,-0.000000,900.781615,-900.741384,-0.255745,0.000000,-0.000000,-0.000000
-0.380000,1.100000,0.664699,0.040000,-316.830321,1327.000000,-725.550185,725.639803,-568.913409,-0.000000,0.000000,-0.000000,922.080867,-921.991248,-0.268227,0.000000,-0.000000,-0.000000
-0.340000,1.100000,0.651743,0.040000,-330.248116,1183.000000,-777.840713,777.983334,-531.347516,-0.000000,0.000000,-0.000000,942.131404,-941.988783,-0.280230,0.000000,-0.000000,-0.000000
-0.300000,1.100000,0.641026,0.040000,-342.421583,1055.000000,-827.645281,827.843003,-487.439410,-0.000000,0.000000,-0.000000,960.701515,-960.503793,-0.291534,0.000000,-0.000000,-0.000000
-0.260000,1.100000,0.630785,0.040000,-353.271118,943.000000,-874.008471,874.261528,-437.341995,-0.000000,0.000000,-0.000000,977.561911,-977.308854,-0.301914,0.000000,-0.000000,-0.000000
-0.220000,1.100000,0.622384,0.040000,-362.722624,847.000000,-915.971279,916.277773,-381.381479,-0.000000,0.000000,-0.000000,992.491840,-992.185345,-0.311145,0.000000,-0.000000,-0.000000
-0.180000,1.100000,0.615265,0.040000,-370.709042,767.000000,-952.607997,952.963748,-320.063565,-0.000000,0.000000,-0.000000,1005.285583,-1004.929831,-0.319020,0.000000,-0.000000,-0.000000
-0.140000,1.100000,0.609341,0.040000,-377.171827,703.000000,-983.065653,983.464198,-254.070506,-0.000000,0.000000,-0.000000,1015.759034,-1015.360489,-0.325363,0.000000,-0.000000,-0.000000
-0.100000,1.100000,0.605370,0.040000,-382.062312,655.000000,-1006.603422,1007.036185,-184.248094,-0.000000,0.000000,-0.000000,1023.756008,-1023.323245,-0.330036,0.000000,-0.000000,-0.000000
-0.060000,1.100000,0.602043,0.040000,-385.342888,623.000000,-1022.629094,1023.085726,-111.582488,-0.000000,0.000000,-0.000000,1029.153882,-1028.697251,-0.332947,0.000000,-0.000000,-0.000000
-0.020000,1.100000,0.601240,0.040000,-386.987951,607.000000,-1030.729647,1031.198520,-37.167719,-0.000000,0.000000,-0.000000,1031.868223,-1031.399350,-0.334060,0.000000,-0.000000,-0.000000
0.020000,1.100000,0.600578,0.040000,-386.984558,607.000000,-1030.693284,1031.162102,37.834284,-0.000000,0.000000,0.000000,1031.856059,-1031.387242,-0.333387,0.000000,-0.000000,-0.000000
0.060000,1.100000,0.602578,0.040000,-385.332768,623.000000,-1022.520961,1022.977430,112.238543,-0.000000,0.000000,0.000000,1029.117586,-1028.661117,-0.330986,0.000000,-0.000000,-0.000000
0.100000,1.100000,0.604966,0.040000,-382.045636,655.000000,-1006.426331,1006.858833,184.883540,-0.000000,0.000000,0.000000,1023.696151,-1023.263649,-0.326951,0.000000,-0.000000,-0.000000
0.140000,1.100000,0.609604,0.040000,-377.148879,703.000000,-982.824125,983.222325,254.676036,-0.000000,0.000000,0.000000,1015.676544,-1015.278345,-0.321405,0.000000,-0.000000,-0.000000
0.180000,1.100000,0.615152,0.040000,-370.680208,767.000000,-952.308020,952.663358,320.630992,-0.000000,0.000000,0.000000,1005.181710,-1004.826372,-0.314491,0.000000,-0.000000,-0.000000
0.220000,1.100000,0.622333,0.040000,-362.688384,847.000000,-915.620006,915.926040,381.903984,-0.000000,0.000000,0.000000,992.368109,-992.062074,-0.306361,0.000000,-0.000000,-0.000000
0.260000,1.100000,0.631016,0.040000,-353.232033,943.000000,-873.613878,873.866448,437.814287,-0.000000,0.000000,0.000000,977.420066,-977.167496,-0.297173,0.000000,-0.000000,-0.000000
0.300000,1.100000,0.640598,0.040000,-342.378283,1055.000000,-827.215813,827.413041,487.857797,-0.000000,0.000000,0.000000,960.543464,-960.346236,-0.287085,0.000000,-0.000000,-0.000000
0.340000,1.100000,0.652387,0.040000,-330.201287,1183.000000,-777.384940,777.527078,531.709888,-0.000000,0.000000,0.000000,941.959159,-941.817022,-0.276258,0.000000,-0.000000,-0.000000
0.380000,1.100000,0.664195,0.040000,-316.780693,1327.000000,-725.076493,725.165653,569.219149,-0.000000,0.000000,0.000000,921.896488,-921.807327,-0.264846,0.000000,-0.000000,-0.000000
0.420000,1.100000,0.678160,0.040000,-302.200111,1487.000000,-671.209564,671.249376,600.393571,-0.000000,0.000000,0.000000,900.587159,-900.547347,-0.253004,0.000000,-0.000000,-0.000000
0.460000,1.100000,0.692902,0.040000,-286.545656,1663.000000,-616.640811,616.636035,625.381126,-0.000000,0.000000,0.000000,878.259782,-878.264558,-0.240878,0.000000,-0.000000,-0.000000
0.500000,1.100000,0.708735,0.040000,-269.904568,1855.000000,-562.144783,562.100922,644.446775,-0.000000,0.000000,0.000000,855.135187,-855.179048,-0.228607,0.000000,-0.000000,-0.000000
0.540000,1.100000,0.726428,0.040000,-252.363983,2063.000000,-507.686720,508.146434,657.647834,-0.000000,0.000000,0.000000,831.180983,-830.721269,-0.385507,0.000000,-0.000000,-0.000000
0.580000,1.100000,0.743997,0.040000,-234.009840,2287.000000,-455.249897,455.579730,666.094900,-0.000000,0.000000,0.000000,807.063179,-806.733346,-0.511641,0.000000,-0.000000,-0.000000
0.620000,1.100000,0.763199,0.040000,-214.925960,2527.000000,-405.875722,404.801606,670.253775,-0.000000,0.000000,0.000000,782.750543,-783.824659,-0.300790,0.000000,-0.000000,-0.000000
0.660000,1.100000,0.783741,0.040000,-195.193288,2783.000000,-357.163730,355.737947,669.236236,-0.000000,0.000000,0.000000,757.531241,-758.957024,-0.419254,0.000000,-0.000000,-0.000000
0.700000,1.100000,0.804275,0.040000,-174.889291,3055.000000,-310.611244,309.705353,665.376064,-0.000000,0.000000,0.000000,733.660651,-734.566542,-0.839404,0.000000,-0.000000,-0.000000
0.740000,1.100000,0.826237,0.040000,-154.087513,3343.000000,-267.266528,266.576839,658.314886,-0.000000,0.000000,0.000000,710.024726,-710.714415,-0.864406,0.000000,-0.000000,-0.000000
-0.700000,1.140000,0.838231,0.040000,-142.860837,3099.800000,-315.534280,314.963089,-622.607387,-0.000000,0.000000,-0.000000,697.583608,-698.154798,0.517456,0.000000,-0.000000,0.000000
-0.660000,1.140000,0.817724,0.040000,-162.135463,2827.800000,-358.086900,357.467159,-624.107580,-0.000000,0.000000,-0.000000,719.074892,-719.694633,0.487595,0.000000,-0.000000,0.000000
-0.620000,1.140000,0.798695,0.040000,-180.836205,2571.800000,-402.479694,401.745066,-622.625463,-0.000000,0.000000,-0.000000,740.818318,-741.552946,0.831807,0.000000,-0.000000,0.000000
-0.580000,1.140000,0.779530,0.040000,-198.891623,2331.800000,-449.818942,449.005522,-616.621841,-0.000000,0.000000,-0.000000,762.609540,-763.422959,-0.227738,0.000000,-0.000000,-0.000000
-0.540000,1.140000,0.761915,0.040000,-216.227535,2107.800000,-497.464098,496.612507,-607.473789,-0.000000,0.000000,-0.000000,784.476378,-785.327969,0.238827,0.000000,-0.000000,0.000000
-0.500000,1.140000,0.745752,0.040000,-232.767584,1899.800000,-545.463994,545.740047,-592.290877,-0.000000,0.000000,-0.000000,805.426798,-805.150745,-0.205085,0.000000,-0.000000,-0.000000
-0.460000,1.140000,0.729718,0.040000,-248.433944,1707.800000,-594.079722,594.837629,-572.989134,-0.000000,0.000000,-0.000000,826.028796,-825.270889,-0.037111,0.000000,-0.000000,-0.000000
-0.420000,1.140000,0.715564,0.040000,-263.148155,1531.800000,-643.160161,643.815519,-548.405930,-0.000000,0.000000,-0.000000,845.801297,-845.145939,-0.158818,0.000000,-0.000000,-0.000000
-0.380000,1.140000,0.702297,0.040000,-276.832092,1371.800000,-691.955220,692.047923,-518.695604,-0.000000,0.000000,-0.000000,864.864971,-864.772268,-0.244459,0.000000,-0.000000,-0.000000
-0.340000,1.140000,0.690048,0.040000,-289.409042,1227.800000,-738.322798,738.460545,-483.142580,-0.000000,0.000000,-0.000000,882.479747,-882.342000,-0.254670,0.000000,-0.000000,-0.000000
-0.300000,1.140000,0.679854,0.040000,-300.804886,1099.800000,-782.290765,782.474830,-442.115276,-0.000000,0.000000,-0.000000,898.751417,-898.567352,-0.264246,0.000000,-0.000000,-0.000000
-0.260000,1.140000,0.669682,0.040000,-310.949343,987.800000,-823.055902,823.286040,-395.781247,-0.000000,0.000000,-0.000000,913.489674,-913.259536,-0.273007,0.000000,-0.000000,-0.000000
-0.220000,1.140000,0.661775,0.040000,-319.777261,891.800000,-859.819579,860.093846,-344.449968,-0.000000,0.000000,-0.000000,926.512462,-926.238195,-0.280777,0.000000,-0.000000,-0.000000
-0.180000,1.140000,0.654652,0.040000,-327.229884,811.800000,-891.817161,892.131824,-288.576011,-0.000000,0.000000,-0.000000,937.651079,-937.336416,-0.287395,0.000000,-0.000000,-0.000000
-0.140000,1.140000,0.649087,0.040000,-333.256078,747.800000,-918.348927,918.698487,-228.755160,-0.000000,0.000000,-0.000000,946.755277,-946.405717,-0.292724,0.000000,-0.000000,-0.000000
-0.100000,1.140000,0.645117,0.040000,-337.813444,699.800000,-938.810570,939.187910,-165.712876,-0.000000,0.000000,-0.000000,953.698105,-953.320765,-0.296657,0.000000,-0.000000,-0.000000
-0.060000,1.140000,0.641995,0.040000,-340.869286,667.800000,-952.721129,953.117786,-100.285159,-0.000000,0.000000,-0.000000,958.380209,-957.983552,-0.299122,0.000000,-0.000000,-0.000000
-0.020000,1.140000,0.641193,0.040000,-342.401376,651.800000,-959.746220,960.152765,-33.392534,-0.000000,0.000000,-0.000000,960.733334,-960.326789,-0.300089,0.000000,-0.000000,-0.000000
0.020000,1.140000,0.640573,0.040000,-342.398489,651.800000,-959.714694,960.121195,33.991451,-0.000000,0.000000,0.000000,960.722791,-960.316291,-0.299565,0.000000,-0.000000,-0.000000
0.060000,1.140000,0.642448,0.040000,-340.860676,667.800000,-952.627324,953.023849,100.875278,-0.000000,0.000000,0.000000,958.348737,-957.952211,-0.297591,0.000000,-0.000000,-0.000000
0.100000,1.140000,0.644836,0.040000,-337.799261,699.800000,-938.656759,939.033888,166.285724,-0.000000,0.000000,0.000000,953.646165,-953.269037,-0.294239,0.000000,-0.000000,-0.000000
0.140000,1.140000,0.649189,0.040000,-333.236568,747.800000,-918.138775,918.488053,229.302880,-0.000000,0.000000,0.000000,946.683622,-946.334343,-0.289604,0.000000,-0.000000,-0.000000
0.180000,1.140000,0.654738,0.040000,-327.205383,811.800000,-891.555540,891.869866,289.091626,-0.000000,0.000000,0.000000,937.560722,-937.246397,-0.283795,0.000000,-0.000000,-0.000000
0.220000,1.140000,0.661489,0.040000,-319.748186,891.800000,-859.512340,859.786228,344.927582,-0.000000,0.000000,0.000000,926.404644,-926.130756,-0.276936,0.000000,-0.000000,-0.000000
0.260000,1.140000,0.670180,0.040000,-310.916186,987.800000,-822.709608,822.939342,396.216181,-0.000000,0.000000,0.000000,913.365822,-913.136088,-0.269153,0.000000,-0.000000,-0.000000
0.300000,1.140000,0.679209,0.040000,-300.768199,1099.800000,-781.912419,782.096071,442.504134,-0.000000,0.000000,0.000000,898.613100,-898.429448,-0.260576,0.000000,-0.000000,-0.000000
0.340000,1.140000,0.690440,0.040000,-289.369432,1227.800000,-737.919570,738.056908,483.483256,-0.000000,0.000000,0.000000,882.328629,-882.191291,-0.251337,0.000000,-0.000000,-0.000000
0.380000,1.140000,0.702174,0.040000,-276.790202,1371.800000,-691.534196,691.626507,518.987220,-0.000000,0.000000,0.000000,864.702769,-864.610458,-0.241565,0.000000,-0.000000,-0.000000
0.420000,1.140000,0.715398,0.040000,-263.104659,1531.800000,-642.728476,643.383218,548.648859,-0.000000,0.000000,0.000000,845.629861,-844.975119,-0.306314,0.000000,-0.000000,-0.000000
0.460000,1.140000,0.730191,0.040000,-248.389531,1707.800000,-593.643934,594.400858,573.184494,-0.000000,0.000000,0.000000,825.849786,-825.092862,-0.406327,0.000000,-0.000000,-0.000000
0.500000,1.140000,0.745232,0.040000,-232.722954,1899.800000,-545.029685,545.304441,592.440673,-0.000000,0.000000,0.000000,805.241738,-804.966982,-0.216365,0.000000,-0.000000,-0.000000
0.540000,1.140000,0.762078,0.040000,-216.183384,2107.800000,-497.035833,496.183661,607.580281,-0.000000,0.000000,0.000000,784.287003,-785.139175,-0.637885,0.000000,-0.000000,-0.000000
0.580000,1.140000,0.779744,0.040000,-198.848638,2331.800000,-449.400238,448.586233,616.689183,-0.000000,0.000000,0.000000,762.416995,-763.231000,-0.150591,0.000000,-0.000000,-0.000000
0.620000,1.140000,0.798086,0.040000,-180.795057,2571.800000,-402.075253,401.340248,622.656706,-0.000000,0.000000,0.000000,740.624453,-741.359458,-1.188445,0.000000,-0.000000,-0.000000
0.660000,1.140000,0.817974,0.040000,-162.096801,2827.800000,-357.699027,357.078604,624.105993,-0.000000,0.000000,0.000000,718.879874,-719.500296,-0.823472,0.000000,-0.000000,-0.000000
0.700000,1.140000,0.838423,0.040000,-142.825282,3099.800000,-315.165340,314.593885,622.577106,-0.000000,0.000000,0.000000,697.389505,-697.960960,-0.832904,0.000000,-0.000000,-0.000000
-0.620000,1.180000,0.833642,0.040000,-147.340968,2618.200000,-398.458176,397.982982,-578.847488,-0.000000,0.000000,-0.000000,702.360325,-702.835519,0.451326,0.000000,-0.000000,0.000000
-0.580000,1.180000,0.815234,0.040000,-164.440432,2378.200000,-440.799696,440.713482,-572.053749,-0.000000,0.000000,-0.000000,722.114534,-722.200748,0.451840,0.000000,-0.000000,0.000000
-0.540000,1.180000,0.798407,0.040000,-180.833550,2154.200000,-483.918996,483.529378,-561.372493,-0.000000,0.000000,-0.000000,740.836479,-741.226098,0.891173,0.000000,-0.000000,0.000000
-0.500000,1.180000,0.782174,0.040000,-196.450748,1946.200000,-528.336040,528.257495,-546.199677,-0.000000,0.000000,-0.000000,759.849820,-759.928365,0.358211,0.000000,-0.000000,0.000000
-0.460000,1.180000,0.766902,0.040000,-211.221492,1754.200000,-573.299507,572.531859,-526.916838,-0.000000,0.000000,-0.000000,777.995077,-778.762726,0.140983,0.000000,-0.000000,0.000000
-0.420000,1.180000,0.753446,0.040000,-225.075036,1578.200000,-616.810078,616.854635,-502.920072,-0.000000,0.000000,-0.000000,795.893340,-795.848782,0.093432,0.000000,-0.000000,0.000000
-0.380000,1.180000,0.740147,0.040000,-237.941282,1418.200000,-658.951219,659.684116,-473.590300,-0.000000,0.000000,-0.000000,812.146921,-811.414025,-0.153169,0.000000,-0.000000,-0.000000
-0.340000,1.180000,0.728534,0.040000,-249.751715,1274.200000,-699.988360,700.992420,-440.071329,-0.000000,0.000000,-0.000000,827.756251,-826.752191,-0.126270,0.000000,-0.000000,-0.000000
-0.300000,1.180000,0.718321,0.040000,-260.440428,1146.200000,-739.332862,740.103937,-401.794993,-0.000000,0.000000,-0.000000,842.182690,-841.411614,-0.285232,0.000000,-0.000000,-0.000000
-0.260000,1.180000,0.708701,0.040000,-269.945176,1034.200000,-776.110413,776.319561,-359.242134,-0.000000,0.000000,-0.000000,855.420045,-855.210898,-0.247628,0.000000,-0.000000,-0.000000
-0.220000,1.180000,0.701235,0.040000,-278.208466,938.200000,-808.444806,808.690582,-312.084885,-0.000000,0.000000,-0.000000,866.828505,-866.582729,-0.254207,0.000000,-0.000000,-0.000000
-0.180000,1.180000,0.694109,0.040000,-285.178617,858.200000,-836.508116,836.787213,-261.057178,-0.000000,0.000000,-0.000000,876.569864,-876.290766,-0.259802,0.000000,-0.000000,-0.000000
-0.140000,1.180000,0.688863,0.040000,-290.810779,794.200000,-859.723013,860.030749,-206.679866,-0.000000,0.000000,-0.000000,884.520731,-884.212994,-0.264307,0.000000,-0.000000,-0.000000
-0.100000,1.180000,0.684893,0.040000,-295.067851,746.200000,-877.593417,877.923862,-149.577334,-0.000000,0.000000,-0.000000,890.577226,-890.246782,-0.267636,0.000000,-0.000000,-0.000000
-0.060000,1.180000,0.681954,0.040000,-297.921276,714.200000,-889.726064,890.072253,-90.461673,-0.000000,0.000000,-0.000000,894.658284,-894.312095,-0.269734,0.000000,-0.000000,-0.000000
-0.020000,1.180000,0.681152,0.040000,-299.351665,698.200000,-895.848309,896.202544,-30.111740,-0.000000,0.000000,-0.000000,896.708326,-896.354091,-0.270576,0.000000,-0.000000,-0.000000
0.020000,1.180000,0.680569,0.040000,-299.349234,698.200000,-895.820842,896.175041,30.651858,-0.000000,0.000000,0.000000,896.699143,-896.344944,-0.270164,0.000000,-0.000000,-0.000000
0.060000,1.180000,0.682333,0.040000,-297.914027,714.200000,-889.644291,889.990374,90.994384,-0.000000,0.000000,0.000000,894.630861,-894.284778,-0.268529,0.000000,-0.000000,-0.000000
0.100000,1.180000,0.684721,0.040000,-295.055915,746.200000,-877.459192,877.789464,150.095483,-0.000000,0.000000,0.000000,890.531939,-890.201667,-0.265726,0.000000,-0.000000,-0.000000
0.140000,1.180000,0.688822,0.040000,-290.794369,794.200000,-859.539325,859.846831,207.176788,-0.000000,0.000000,0.000000,884.458192,-884.150686,-0.261828,0.000000,-0.000000,-0.000000
0.180000,1.180000,0.694372,0.040000,-285.158028,858.200000,-836.278957,836.557777,261.526901,-0.000000,0.000000,0.000000,876.490902,-876.212082,-0.256922,0.000000,-0.000000,-0.000000
0.220000,1.180000,0.700741,0.040000,-278.184063,938.200000,-808.174989,808.420452,312.522299,-0.000000,0.000000,0.000000,866.734138,-866.488675,-0.251106,0.000000,-0.000000,-0.000000
0.260000,1.180000,0.709312,0.040000,-269.917392,1034.200000,-775.805370,776.014181,359.643103,-0.000000,0.000000,0.000000,855.311446,-855.102635,-0.244482,0.000000,-0.000000,-0.000000
0.300000,1.180000,0.717972,0.040000,-260.409749,1146.200000,-738.998503,739.769182,402.156434,-0.000000,0.000000,0.000000,842.061184,-841.290504,-0.192107,0.000000,-0.000000,-0.000000
0.340000,1.180000,0.728607,0.040000,-249.718676,1274.200000,-699.631199,700.634476,440.391189,-0.000000,0.000000,0.000000,827.623321,-826.620044,-0.334802,0.000000,-0.000000,-0.000000
0.380000,1.180000,0.740366,0.040000,-237.906455,1418.200000,-658.577395,659.308952,473.867485,-0.000000,0.000000,0.000000,812.003884,-811.272327,-0.290462,0.000000,-0.000000,-0.000000
0.420000,1.180000,0.752919,0.040000,-225.039021,1578.200000,-616.424898,616.468145,503.154483,-0.000000,0.000000,0.000000,795.741724,-795.698477,-0.518906,0.000000,-0.000000,-0.000000
0.460000,1.180000,0.767355,0.040000,-211.184907,1754.200000,-572.907677,572.139507,527.109068,-0.000000,0.000000,0.000000,777.836278,-778.604448,-0.547865,0.000000,-0.000000,-0.000000
0.500000,1.180000,0.782072,0.040000,-196.414222,1946.200000,-527.943007,527.863704,546.352063,-0.000000,0.000000,0.000000,759.685280,-759.764583,-0.746857,0.000000,-0.000000,-0.000000
0.540000,1.180000,0.798140,0.040000,-180.797712,2154.200000,-483.529621,483.139301,561.486334,-0.000000,0.000000,0.000000,740.667524,-741.057843,-1.260523,0.000000,-0.000000,-0.000000
0.580000,1.180000,0.815855,0.040000,-164.405906,2378.200000,-440.417571,440.330638,572.131468,-0.000000,0.000000,0.000000,721.942077,-722.029010,-0.802149,0.000000,-0.000000,-0.000000
0.620000,1.180000,0.833433,0.040000,-147.308367,2618.200000,-398.086605,397.610620,578.891891,-0.000000,0.000000,0.000000,702.185474,-702.661460,-0.782832,0.000000,-0.000000,-0.000000
-0.540000,1.220000,0.835166,0.040000,-146.215321,2202.200000,-471.387527,471.297122,-519.371209,-0.000000,0.000000,-0.000000,701.317718,-701.408123,0.304953,0.000000,-0.000000,0.000000
-0.500000,1.220000,0.818929,0.040000,-160.980329,1994.200000,-511.129122,511.268317,-504.298981,-0.000000,0.000000,-0.000000,718.151311,-718.012116,0.495525,0.000000,-0.000000,0.000000
-0.460000,1.220000,0.804356,0.040000,-174.926344,1802.200000,-550.636633,550.512708,-484.960916,-0.000000,0.000000,-0.000000,733.640315,-733.764240,0.725345,0.000000,-0.000000,0.000000
-0.420000,1.220000,0.791119,0.040000,-187.989479,1626.200000,-590.127361,590.403783,-461.748053,-0.000000,0.000000,-0.000000,749.554258,-749.277836,0.546184,0.000000,-0.000000,0.000000
-0.380000,1.220000,0.778212,0.040000,-200.106715,1466.200000,-628.700960,628.926140,-434.067070,-0.000000,0.000000,-0.000000,764.194167,-763.968987,0.214489,0.000000,-0.000000,0.000000
-0.340000,1.220000,0.767175,0.040000,-211.216720,1322.200000,-666.024333,665.568435,-402.724709,-0.000000,0.000000,-0.000000,777.892808,-778.348706,0.321572,0.000000,-0.000000,0.000000
-0.300000,1.220000,0.756947,0.040000,-221.260726,1194.200000,-700.133116,700.645930,-366.873993,-0.000000,0.000000,-0.000000,790.915601,-790.402787,0.222669,0.000000,-0.000000,0.000000
-0.260000,1.220000,0.747824,0.040000,-230.183439,1082.200000,-731.461684,732.552932,-326.660495,-0.000000,0.000000,-0.000000,802.132643,-801.041395,-0.171083,0.000000,-0.000000,-0.000000
-0.220000,1.220000,0.740716,0.040000,-237.933950,986.200000,-759.989158,761.174366,-283.324016,-0.000000,0.000000,-0.000000,812.231118,-811.045911,-0.191116,0.000000,-0.000000,-0.000000
-0.180000,1.220000,0.733625,0.040000,-244.466634,906.200000,-784.609076,785.886040,-236.664044,-0.000000,0.000000,-0.000000,820.774787,-819.497823,-0.195870,0.000000,-0.000000,-0.000000
-0.140000,1.220000,0.728663,0.040000,-249.741998,842.200000,-804.931052,806.285370,-187.151816,-0.000000,0.000000,-0.000000,827.738433,-826.384114,-0.203699,0.000000,-0.000000,-0.000000
-0.100000,1.220000,0.724694,0.040000,-253.727441,794.200000,-820.547599,821.962345,-135.325748,-0.000000,0.000000,-0.000000,833.037080,-831.622334,-0.213980,0.000000,-0.000000,-0.000000
-0.060000,1.220000,0.721917,0.040000,-256.397909,762.200000,-831.136860,832.593067,-81.794197,-0.000000,0.000000,-0.000000,836.604623,-835.148417,-0.225876,0.000000,-0.000000,-0.000000
-0.020000,1.220000,0.721116,0.040000,-257.736417,746.200000,-836.476285,837.953545,-27.218537,-0.000000,0.000000,-0.000000,838.395842,-836.918583,-0.238383,0.000000,-0.000000,-0.000000
0.020000,1.220000,0.720564,0.040000,-257.734397,746.200000,-836.452337,837.929501,27.706797,-0.000000,0.000000,0.000000,838.387816,-836.910651,-0.250401,0.000000,-0.000000,-0.000000
0.060000,1.220000,0.722232,0.040000,-256.391889,762.200000,-831.065525,832.521451,82.276194,-0.000000,0.000000,0.000000,836.580648,-835.124722,-0.260809,0.000000,-0.000000,-0.000000
0.100000,1.220000,0.724618,0.040000,-253.717534,794.200000,-820.430388,821.844678,135.795419,-0.000000,0.000000,0.000000,832.997462,-831.583172,-0.268546,0.000000,-0.000000,-0.000000
0.140000,1.220000,0.728495,0.040000,-249.728394,842.200000,-804.770410,806.124111,187.603487,-0.000000,0.000000,0.000000,827.683673,-826.329972,-0.272690,0.000000,-0.000000,-0.000000
0.180000,1.220000,0.734045,0.040000,-244.449590,906.200000,-784.408274,785.684481,237.092593,-0.000000,0.000000,0.000000,820.705563,-819.429356,-0.272518,0.000000,-0.000000,-0.000000
0.220000,1.220000,0.740073,0.040000,-237.913787,986.200000,-759.752159,760.936494,283.725007,-0.000000,0.000000,0.000000,812.148267,-810.963932,-0.267553,0.000000,-0.000000,-0.000000
0.260000,1.220000,0.748193,0.040000,-230.160538,1082.200000,-731.193051,732.283209,327.030425,-0.000000,0.000000,0.000000,802.037133,-800.946976,-0.276451,0.000000,-0.000000,-0.000000
0.300000,1.220000,0.756864,0.040000,-221.235518,1194.200000,-699.838049,700.349526,367.209967,-0.000000,0.000000,0.000000,790.808734,-790.297257,-0.657480,0.000000,-0.000000,-0.000000
0.340000,1.220000,0.766960,0.040000,-211.189679,1322.200000,-665.706970,665.250263,403.024405,-0.000000,0.000000,0.000000,777.775444,-778.232151,-0.742421,0.000000,-0.000000,-0.000000
0.380000,1.220000,0.778739,0.040000,-200.078350,1466.200000,-628.366491,628.590809,434.330291,-0.000000,0.000000,0.000000,764.067544,-763.843225,-0.621330,0.000000,-0.000000,-0.000000
0.420000,1.220000,0.790684,0.040000,-187.960326,1626.200000,-589.781363,590.056913,461.973823,-0.000000,0.000000,0.000000,749.419780,-749.144230,-0.937363,0.000000,-0.000000,-0.000000
0.460000,1.220000,0.804442,0.040000,-174.896957,1802.200000,-550.283689,550.158872,485.149557,-0.000000,0.000000,0.000000,733.498999,-733.623816,-1.100346,0.000000,-0.000000,-0.000000
0.500000,1.220000,0.819208,0.040000,-160.951275,1994.200000,-510.773724,510.912106,504.451342,-0.000000,0.000000,0.000000,718.004363,-717.865982,-0.853765,0.000000,-0.000000,-0.000000
0.540000,1.220000,0.834562,0.040000,-146.187170,2202.200000,-471.033276,470.941458,519.488516,-0.000000,0.000000,0.000000,701.165187,-701.257004,-0.646574,0.000000,-0.000000,-0.000000
-0.420000,1.260000,0.828773,0.040000,-151.850100,1675.800000,-565.707514,566.240040,-425.036605,-0.000000,0.000000,-0.000000,708.067247,-707.534721,0.445018,0.000000,-0.000000,0.000000
-0.380000,1.260000,0.816461,0.040000,-163.279805,1515.800000,-599.779281,600.206964,-398.745785,-0.000000,0.000000,-0.000000,720.623217,-720.195533,0.529158,0.000000,-0.000000,0.000000
-0.340000,1.260000,0.805949,0.040000,-173.748301,1371.800000,-632.328377,632.554766,-368.673816,-0.000000,0.000000,-0.000000,732.166810,-731.940421,0.476702,0.000000,-0.000000,0.000000
-0.300000,1.260000,0.795709,0.040000,-183.203051,1243.800000,-663.240143,663.789883,-335.286604,-0.000000,0.000000,-0.000000,743.692106,-743.142367,0.302735,0.000000,-0.000000,0.000000
-0.260000,1.260000,0.787036,0.040000,-191.594786,1131.800000,-691.704168,692.342095,-298.440465,-0.000000,0.000000,-0.000000,753.951970,-753.314043,0.130469,0.000000,-0.000000,0.000000
-0.220000,1.260000,0.779922,0.040000,-198.878283,1035.800000,-716.921635,717.119437,-258.947495,-0.000000,0.000000,-0.000000,762.445172,-762.247370,0.645354,0.000000,-0.000000,0.000000
-0.180000,1.260000,0.773191,0.040000,-205.013124,955.800000,-738.879447,739.667106,-215.786173,-0.000000,0.000000,-0.000000,770.516304,-769.728645,0.158208,0.000000,-0.000000,0.000000
-0.140000,1.260000,0.768485,0.040000,-209.964400,891.800000,-756.822207,757.655584,-170.467740,-0.000000,0.000000,-0.000000,776.606090,-775.772714,0.086818,0.000000,-0.000000,0.000000
-0.100000,1.260000,0.764515,0.040000,-213.703352,843.800000,-770.589611,771.458640,-123.166194,-0.000000,0.000000,-0.000000,781.234178,-780.365148,0.005576,0.000000,-0.000000,0.000000
-0.060000,1.260000,0.761883,0.040000,-216.207913,811.800000,-779.914833,780.808294,-74.405784,-0.000000,0.000000,-0.000000,784.347479,-783.454018,-0.082897,0.000000,-0.000000,-0.000000
-0.020000,1.260000,0.761083,0.040000,-217.463135,795.800000,-784.613797,785.519656,-24.753413,-0.000000,0.000000,-0.000000,785.909781,-785.003923,-0.175532,0.000000,-0.000000,-0.000000
0.020000,1.260000,0.760561,0.040000,-217.461489,795.800000,-784.592726,785.498529,25.197482,-0.000000,0.000000,0.000000,785.902759,-784.996956,-0.268982,0.000000,-0.000000,-0.000000
0.060000,1.260000,0.762140,0.040000,-216.203007,811.800000,-779.852040,780.745337,74.844505,-0.000000,0.000000,0.000000,784.326495,-783.433198,-0.359813,0.000000,-0.000000,-0.000000
0.100000,1.260000,0.764526,0.040000,-213.695288,843.800000,-770.486346,771.355107,123.594380,-0.000000,0.000000,0.000000,781.199479,-780.330718,-0.444712,0.000000,-0.000000,-0.000000
0.140000,1.260000,0.768201,0.040000,-209.953343,891.800000,-756.680494,757.513506,170.880516,-0.000000,0.000000,0.000000,776.558082,-775.725070,-0.520674,0.000000,-0.000000,-0.000000
0.180000,1.260000,0.773752,0.040000,-204.999301,955.800000,-738.702001,739.489212,216.179108,-0.000000,0.000000,0.000000,770.455538,-769.668327,-0.585174,0.000000,-0.000000,-0.000000
0.220000,1.260000,0.779473,0.040000,-198.861979,1035.800000,-716.711763,716.909093,259.316680,-0.000000,0.000000,0.000000,762.372368,-762.175038,-1.063895,0.000000,-0.000000,-0.000000
0.260000,1.260000,0.787187,0.040000,-191.576336,1131.800000,-691.465445,692.102602,298.782842,-0.000000,0.000000,0.000000,753.867535,-753.230378,-0.539528,0.000000,-0.000000,-0.000000
0.300000,1.260000,0.795866,0.040000,-183.182838,1243.800000,-662.976906,663.525840,335.599566,-0.000000,0.000000,0.000000,743.597386,-743.048452,-0.700925,0.000000,-0.000000,-0.000000
0.340000,1.260000,0.805473,0.040000,-173.726748,1371.800000,-632.044860,632.270263,368.955365,-0.000000,0.000000,0.000000,732.062494,-731.837091,-0.862904,0.000000,-0.000000,-0.000000
0.380000,1.260000,0.816927,0.040000,-163.257365,1515.800000,-599.480111,599.906955,398.994659,-0.000000,0.000000,0.000000,720.510761,-720.083918,-0.902174,0.000000,-0.000000,-0.000000
0.420000,1.260000,0.828658,0.040000,-151.827254,1675.800000,-565.396617,565.927889,425.252066,-0.000000,0.000000,0.000000,707.946678,-707.415406,-0.804301,0.000000,-0.000000,-0.000000
-0.300000,1.300000,0.834588,0.040000,-146.209066,1295.000000,-629.622799,630.380785,-307.710559,-0.000000,0.000000,-0.000000,701.512197,-700.754211,0.525560,0.000000,-0.000000,0.000000
-0.260000,1.300000,0.826323,0.040000,-154.115171,1183.000000,-654.729345,655.600686,-273.467661,-0.000000,0.000000,-0.000000,710.383247,-709.511906,0.445143,0.000000,-0.000000,0.000000
-0.220000,1.300000,0.819205,0.040000,-160.972194,1087.000000,-676.972918,677.720788,-236.330578,-0.000000,0.000000,-0.000000,717.765608,-717.017739,0.297904,0.000000,-0.000000,0.000000
-0.180000,1.300000,0.812799,0.040000,-166.744207,1007.000000,-696.355819,697.349511,-196.895766,-0.000000,0.000000,-0.000000,724.631888,-723.638196,0.143622,0.000000,-0.000000,0.000000
-0.140000,1.300000,0.808323,0.040000,-171.400245,943.000000,-712.226110,713.270426,-155.397232,-0.000000,0.000000,-0.000000,730.014027,-728.969711,0.079063,0.000000,-0.000000,0.000000
-0.100000,1.300000,0.804354,0.040000,-174.914845,895.000000,-724.386266,725.469898,-112.196615,-0.000000,0.000000,-0.000000,734.100814,-733.017183,0.005301,0.000000,-0.000000,0.000000
-0.060000,1.300000,0.801853,0.040000,-177.268493,863.000000,-732.614517,733.725009,-67.746132,-0.000000,0.000000,-0.000000,736.848282,-735.737790,-0.075228,0.000000,-0.000000,-0.000000
-0.020000,1.300000,0.801054,0.040000,-178.447989,847.000000,-736.758194,737.882291,-22.532392,-0.000000,0.000000,-0.000000,738.226486,-737.102389,-0.159680,0.000000,-0.000000,-0.000000
0.020000,1.300000,0.800557,0.040000,-178.446681,847.000000,-736.739616,737.863652,22.936641,-0.000000,0.000000,0.000000,738.220292,-737.096256,-0.244950,0.000000,-0.000000,-0.000000
0.060000,1.300000,0.802058,0.040000,-177.264601,863.000000,-732.559134,733.669444,68.145807,-0.000000,0.000000,0.000000,736.829767,-735.719457,-0.327857,0.000000,-0.000000,-0.000000
0.100000,1.300000,0.804443,0.040000,-174.908456,895.000000,-724.295112,725.378447,112.587272,-0.000000,0.000000,0.000000,734.070185,-732.986850,-0.405326,0.000000,-0.000000,-0.000000
0.140000,1.300000,0.807937,0.040000,-171.391507,943.000000,-712.100864,713.144777,155.774675,-0.000000,0.000000,0.000000,729.971618,-728.927705,-0.474562,0.000000,-0.000000,-0.000000
0.180000,1.300000,0.813385,0.040000,-166.733320,1007.000000,-696.198742,697.191937,197.256163,-0.000000,0.000000,0.000000,724.578157,-723.584962,-0.533208,0.000000,-0.000000,-0.000000
0.220000,1.300000,0.818931,0.040000,-160.959410,1087.000000,-676.786665,677.533736,236.670516,-0.000000,0.000000,0.000000,717.700802,-716.953731,-0.680329,0.000000,-0.000000,-0.000000
0.260000,1.300000,0.826277,0.040000,-154.100789,1183.000000,-654.517336,655.388038,273.784137,-0.000000,0.000000,0.000000,710.308654,-709.437951,-0.818939,0.000000,-0.000000,-0.000000
0.300000,1.300000,0.834963,0.040000,-146.193426,1295.000000,-629.388313,630.145582,308.001357,-0.000000,0.000000,0.000000,701.428170,-700.670901,-0.889861,0.000000,-0.000000,-0.000000
-0.170000,-1.490000,1.000307,0.020000,-0.179117,1254.550000,-537.184893,554.093408,116.740935,-0.000000,0.000000,0.000000,566.366870,-549.458355,9.167655,0.000000,-0.000000,0.000000
-0.130000,-1.490000,0.996337,0.020000,-3.522838,1194.550000,-560.104684,554.259267,98.130431,-0.000000,0.000000,0.000000,562.834581,-568.679999,-0.155864,0.000000,-0.000000,-0.000000
-0.150000,-1.490000,0.998492,0.020000,-1.963664,1222.550000,-554.946476,558.223269,108.678416,-0.000000,0.000000,0.000000,568.716863,-565.440070,4.442055,0.000000,-0.000000,0.000000
-0.090000,-1.490000,0.993111,0.020000,-5.985079,1150.550000,-570.350770,560.660093,69.134086,-0.000000,0.000000,0.000000,564.870027,-574.560704,-0.563702,0.000000,-0.000000,-0.000000
-0.110000,-1.490000,0.994524,0.020000,-4.866655,1170.550000,-569.114850,559.690549,83.983786,-0.000000,0.000000,0.000000,565.904750,-575.329051,-0.190392,0.000000,-0.000000,-0.000000
-0.050000,-1.490000,0.991490,0.020000,-7.556752,1122.550000,-576.089928,565.194349,38.646975,-0.000000,0.000000,0.000000,566.501461,-577.397041,-0.304982,0.000000,-0.000000,-0.000000
-0.070000,-1.490000,0.992099,0.020000,-6.883693,1134.550000,-575.303830,564.315438,54.029060,-0.000000,0.000000,0.000000,566.871091,-577.859483,-0.369836,0.000000,-0.000000,-0.000000
-0.010000,-1.490000,0.990695,0.020000,-8.231575,1110.550000,-578.632667,567.292239,7.630916,-0.000000,0.000000,0.000000,567.343049,-578.683477,0.060196,0.000000,-0.000000,0.000000
-0.030000,-1.490000,0.991284,0.020000,-8.006901,1114.550000,-578.353312,566.963972,23.203760,-0.000000,0.000000,0.000000,567.433865,-578.823204,-0.134220,0.000000,-0.000000,-0.000000
0.030000,-1.490000,0.990697,0.020000,-8.006822,1114.550000,-578.332227,566.944814,-23.480827,-0.000000,0.000000,-0.000000,567.425875,-578.813288,0.411872,0.000000,-0.000000,0.000000
0.010000,-1.490000,0.990494,0.020000,-8.231551,1110.550000,-578.630631,567.289302,-7.908624,-0.000000,0.000000,-0.000000,567.343840,-578.685169,0.217520,0.000000,-0.000000,0.000000
0.070000,-1.490000,0.992314,0.020000,-6.883537,1134.550000,-575.259101,564.273953,-54.303027,-0.000000,0.000000,-0.000000,566.855481,-577.840628,0.646638,0.000000,-0.000000,0.000000
0.050000,-1.490000,0.991304,0.020000,-7.556635,1122.550000,-576.065524,565.169817,-38.922873,-0.000000,0.000000,-0.000000,566.495480,-577.391187,0.581899,0.000000,-0.000000,0.000000
0.110000,-1.490000,0.994699,0.020000,-4.866481,1170.550000,-569.045723,559.626504,-84.252235,-0.000000,0.000000,-0.000000,565.880848,-575.300068,0.465709,0.000000,-0.000000,0.000000
0.090000,-1.490000,0.993684,0.020000,-5.984911,1150.550000,-570.305346,560.614951,-69.405777,-0.000000,0.000000,-0.000000,564.857917,-574.548312,0.838869,0.000000,-0.000000,0.000000
0.150000,-1.490000,0.997927,0.020000,-1.963563,1222.550000,-554.856244,558.127722,-108.944857,-0.000000,0.000000,-0.000000,568.676287,-565.404809,-4.162445,0.000000,-0.000000,-0.000000
0.130000,-1.490000,0.996113,0.020000,-3.522697,1194.550000,-560.040744,554.195332,-98.395639,-0.000000,0.000000,-0.000000,562.817540,-568.662952,0.428138,0.000000,-0.000000,0.000000
0.170000,-1.490000,1.000137,0.020000,-0.179116,1254.550000,-537.117705,553.997318,-117.016276,-0.000000,0.000000,-0.000000,566.334899,-549.455287,-8.881001,0.000000,-0.000000,-0.000000
-0.370000,-1.450000,0.997221,0.020000,-2.846764,1735.750000,-474.426296,501.908999,255.842115,-0.000000,0.000000,0.000000,564.809011,-537.326308,9.342066,0.000000,-0.000000,0.000000
-0.330000,-1.450000,0.987483,0.020000,-10.709605,1595.750000,-524.081478,510.809665,249.675932,-0.000000,0.000000,0.000000,567.895775,-581.167587,-1.156972,0.000000,-0.000000,-0.000000
-0.350000,-1.450000,0.992162,0.020000,-6.888765,1663.750000,-513.072951,520.364208,255.282945,-0.000000,0.000000,0.000000,579.922022,-572.630765,8.543428,0.000000,-0.000000,0.000000
-0.290000,-1.470000,0.998942,0.020000,-1.288282,1500.950000,-503.212166,527.767485,200.036393,-0.000000,0.000000,0.000000,565.115209,-540.559890,10.722069,0.000000,-0.000000,0.000000
-0.290000,-1.450000,0.979282,0.020000,-17.752894,1471.750000,-527.364789,529.365570,218.310849,-0.000000,0.000000,0.000000,572.687806,-570.687024,1.699670,0.000000,-0.000000,0.000000
-0.310000,-1.450000,0.983188,0.020000,-14.337698,1531.750000,-525.931305,521.826639,237.731520,-0.000000,0.000000,0.000000,573.237127,-577.341792,-2.736889,0.000000,-0.000000,-0.000000
-0.270000,-1.470000,0.995501,0.020000,-4.422700,1444.950000,-535.854261,541.392219,197.024657,-0.000000,0.000000,0.000000,576.250714,-570.712756,7.239522,0.000000,-0.000000,0.000000
-0.250000,-1.470000,0.991824,0.020000,-7.330190,1392.950000,-539.228239,533.135820,190.505483,-0.000000,0.000000,0.000000,565.967869,-572.060287,-2.546961,0.000000,-0.000000,-0.000000
-0.250000,-1.450000,0.972166,0.020000,-23.951615,1363.750000,-549.809302,545.798148,194.453080,-0.000000,0.000000,0.000000,579.286840,-583.297994,0.218669,0.000000,-0.000000,0.000000
-0.270000,-1.450000,0.975772,0.020000,-20.960163,1415.750000,-538.110147,540.476530,204.943546,-0.000000,0.000000,0.000000,578.098038,-575.731655,2.902116,0.000000,-0.000000,0.000000
-0.230000,-1.470000,0.988376,0.020000,-10.036088,1344.950000,-554.903600,543.333014,177.723052,-0.000000,0.000000,0.000000,571.375118,-582.945705,-1.502572,0.000000,-0.000000,-0.000000
-0.210000,-1.470000,0.985322,0.020000,-12.520344,1300.950000,-562.449623,546.410941,162.254853,-0.000000,0.000000,0.000000,569.665089,-585.703770,-0.524180,0.000000,-0.000000,-0.000000
-0.210000,-1.450000,0.965531,0.020000,-29.280635,1271.750000,-565.211926,559.863830,166.119174,-0.000000,0.000000,0.000000,583.878894,-589.226990,0.300876,0.000000,-0.000000,0.000000
-0.230000,-1.450000,0.968648,0.020000,-26.726564,1315.750000,-557.018729,552.871469,180.976590,-0.000000,0.000000,0.000000,581.635593,-585.782854,-0.362456,0.000000,-0.000000,-0.000000
-0.190000,-1.470000,0.982666,0.020000,-14.791323,1260.950000,-558.549224,554.111332,147.793390,-0.000000,0.000000,0.000000,573.405980,-577.843872,-1.486254,0.000000,-0.000000,-0.000000
-0.170000,-1.470000,0.980411,0.020000,-16.839737,1224.950000,-555.068955,558.524204,128.355846,-0.000000,0.000000,0.000000,573.123441,-569.668192,2.115383,0.000000,-0.000000,0.000000
-0.170000,-1.450000,0.960519,0.020000,-33.717279,1195.750000,-569.609693,569.955154,135.783648,-0.000000,0.000000,0.000000,585.910823,-585.565363,-0.308829,0.000000,-0.000000,-0.000000
-0.190000,-1.450000,0.962821,0.020000,-31.611886,1231.750000,-568.736819,565.591559,152.132526,-0.000000,0.000000,0.000000,585.640080,-588.785340,-0.869346,0.000000,-0.000000,-0.000000
-0.150000,-1.470000,0.978559,0.020000,-18.667816,1192.950000,-561.400586,564.862473,113.358335,-0.000000,0.000000,0.000000,576.152254,-572.690367,2.718485,0.000000,-0.000000,0.000000
-0.130000,-1.470000,0.976440,0.020000,-20.270703,1164.950000,-569.343256,566.879118,100.698280,-0.000000,0.000000,0.000000,575.734258,-578.198397,0.567079,0.000000,-0.000000,0.000000
-0.130000,-1.450000,0.956548,0.020000,-37.242190,1135.750000,-579.454278,579.861630,104.453478,-0.000000,0.000000,0.000000,589.197537,-588.790186,0.322202,0.000000,-0.000000,0.000000
-0.150000,-1.450000,0.958628,0.020000,-35.594806,1163.750000,-574.049518,575.351233,119.491378,-0.000000,0.000000,0.000000,587.641695,-586.339981,0.683575,0.000000,-0.000000,0.000000
-0.110000,-1.470000,0.974591,0.020000,-21.648579,1140.950000,-573.565853,570.719713,85.863039,-0.000000,0.000000,0.000000,577.126639,-579.972780,0.243202,0.000000,-0.000000,0.000000
-0.090000,-1.470000,0.973149,0.020000,-22.798644,1120.950000,-577.744257,573.632408,70.575878,-0.000000,0.000000,0.000000,577.942333,-582.054181,0.180444,0.000000,-0.000000,0.000000
-0.090000,-1.450000,0.953188,0.020000,-39.839729,1091.750000,-587.228002,587.225567,72.968825,-0.000000,0.000000,0.000000,591.741719,-591.744153,0.208606,0.000000,-0.000000,0.000000
-0.110000,-1.450000,0.954660,0.020000,-38.657722,1111.750000,-583.672698,583.899609,88.804747,-0.000000,0.000000,0.000000,590.615342,-590.388431,0.279174,0.000000,-0.000000,0.000000
-0.070000,-1.470000,0.972116,0.020000,-23.720518,1104.950000,-580.342147,576.228897,55.108224,-0.000000,0.000000,0.000000,578.848749,-582.961999,0.091342,0.000000,-0.000000,0.000000
-0.050000,-1.470000,0.971494,0.020000,-24.412590,1092.950000,-582.645867,578.064871,39.405357,-0.000000,0.000000,0.000000,579.401106,-583.982102,0.120050,0.000000,-0.000000,0.000000
-0.050000,-1.450000,0.951499,0.020000,-41.498236,1063.750000,-592.058022,591.943791,40.707289,-0.000000,0.000000,0.000000,593.341678,-593.455909,0.168563,0.000000,-0.000000,0.000000
-0.070000,-1.450000,0.952134,0.020000,-40.786937,1075.750000,-589.962844,589.932560,56.886591,-0.000000,0.000000,0.000000,592.668866,-592.699150,0.205975,0.000000,-0.000000,0.000000
-0.030000,-1.470000,0.971284,0.020000,-24.874491,1084.950000,-583.922042,579.368941,23.649913,-0.000000,0.000000,0.000000,579.849540,-584.402642,0.100527,0.000000,-0.000000,0.000000
-0.010000,-1.470000,0.970699,0.020000,-25.105471,1080.950000,-584.665024,579.987312,7.779921,-0.000000,0.000000,0.000000,580.039262,-584.716974,0.143237,0.000000,-0.000000,0.000000
-0.010000,-1.450000,0.950703,0.020000,-42.210212,1051.750000,-594.108951,593.971243,8.049902,-0.000000,0.000000,0.000000,594.025765,-594.163474,0.144130,0.000000,-0.000000,0.000000
-0.030000,-1.450000,0.951284,0.020000,-41.972846,1055.750000,-593.417132,593.301679,24.391404,-0.000000,0.000000,0.000000,593.802775,-593.918228,0.171766,0.000000,-0.000000,0.000000
0.010000,-1.470000,0.970494,0.020000,-25.105390,1080.950000,-584.659013,579.981560,-8.062638,-0.000000,0.000000,-0.000000,580.037357,-584.714810,0.139533,0.000000,-0.000000,0.000000
0.030000,-1.470000,0.970701,0.020000,-24.874250,1084.950000,-583.904652,579.351708,-23.931976,-0.000000,0.000000,-0.000000,579.843830,-584.396774,0.182007,0.000000,-0.000000,0.000000
0.030000,-1.450000,0.950706,0.020000,-41.972433,1055.750000,-593.399074,593.283553,-24.682268,-0.000000,0.000000,-0.000000,593.796695,-593.912216,0.119597,0.000000,-0.000000,0.000000
0.010000,-1.450000,0.950494,0.020000,-42.210074,1051.750000,-594.102869,593.965247,-8.341420,-0.000000,0.000000,-0.000000,594.023791,-594.161413,0.147443,0.000000,-0.000000,0.000000
0.050000,-1.470000,0.971321,0.020000,-24.412196,1092.950000,-582.616507,578.036203,-39.686203,-0.000000,0.000000,-0.000000,579.391588,-583.971892,0.162119,0.000000,-0.000000,0.000000
0.070000,-1.470000,0.972351,0.020000,-23.719982,1104.950000,-580.301645,576.188959,-55.387109,-0.000000,0.000000,-0.000000,578.835493,-582.948178,0.190102,0.000000,-0.000000,0.000000
0.070000,-1.450000,0.952390,0.020000,-40.786003,1075.750000,-589.920928,589.890582,-57.174165,-0.000000,0.000000,-0.000000,592.654784,-592.685130,0.084303,0.000000,-0.000000,0.000000
0.050000,-1.450000,0.951338,0.020000,-41.497557,1063.750000,-592.027880,591.913770,-40.996800,-0.000000,0.000000,-0.000000,593.331671,-593.445781,0.122333,0.000000,-0.000000,0.000000
0.090000,-1.470000,0.973701,0.020000,-22.797983,1120.950000,-577.691913,573.581218,-70.852385,-0.000000,0.000000,-0.000000,577.925261,-582.035956,0.100313,0.000000,-0.000000,0.000000
0.110000,-1.470000,0.974736,0.020000,-21.647812,1140.950000,-573.502877,570.657704,-86.136268,-0.000000,0.000000,-0.000000,577.105990,-579.951163,0.036285,0.000000,-0.000000,0.000000
0.110000,-1.450000,0.954775,0.020000,-38.656334,1111.750000,-583.607566,583.834404,-89.086477,-0.000000,0.000000,-0.000000,590.593384,-590.366546,0.009163,0.000000,-0.000000,0.000000
0.090000,-1.450000,0.953719,0.020000,-39.838558,1091.750000,-587.174234,587.171977,-73.253709,-0.000000,0.000000,-0.000000,591.723770,-591.726027,0.080729,0.000000,-0.000000,0.000000
0.130000,-1.470000,0.976180,0.020000,-20.269856,1164.950000,-569.268551,566.806090,-100.968106,-0.000000,0.000000,-0.000000,575.709731,-578.172192,-0.288477,0.000000,-0.000000,-0.000000
0.150000,-1.470000,0.978030,0.020000,-18.666916,1192.950000,-561.317606,564.776258,-113.626899,-0.000000,0.000000,-0.000000,576.122027,-572.663374,-2.438370,0.000000,-0.000000,-0.000000
0.150000,-1.450000,0.958138,0.020000,-35.593068,1163.750000,-573.962636,575.263317,-119.765736,-0.000000,0.000000,-0.000000,587.611793,-586.311112,-0.397136,0.000000,-0.000000,-0.000000
0.130000,-1.450000,0.956249,0.020000,-37.240612,1135.750000,-579.377644,579.785278,-104.731200,-0.000000,0.000000,-0.000000,589.171807,-588.764173,-0.035303,0.000000,-0.000000,-0.000000
0.170000,-1.470000,0.980286,0.020000,-16.838819,1224.950000,-554.984383,558.428872,-128.623926,-0.000000,0.000000,-0.000000,573.091670,-569.647181,-1.833849,0.000000,-0.000000,-0.000000
0.190000,-1.470000,0.982943,0.020000,-14.790422,1260.950000,-558.460647,554.005759,-148.053840,-0.000000,0.000000,-0.000000,573.369818,-577.824706,1.762827,0.000000,-0.000000,0.000000
0.190000,-1.450000,0.963152,0.020000,-31.609936,1231.750000,-568.631665,565.483471,-152.396257,-0.000000,0.000000,-0.000000,585.603541,-588.751735,1.151644,0.000000,-0.000000,0.000000
0.170000,-1.450000,0.960440,0.020000,-33.715415,1195.750000,-569.514938,569.857503,-136.054379,-0.000000,0.000000,-0.000000,585.878403,-585.535838,0.594470,0.000000,-0.000000,0.000000
0.210000,-1.470000,0.985836,0.020000,-12.519505,1300.950000,-562.341206,546.296169,-162.507672,-0.000000,0.000000,-0.000000,569.625570,-585.670607,0.798133,0.000000,-0.000000,0.000000
0.230000,-1.470000,0.988492,0.020000,-10.035351,1344.950000,-554.772382,543.208531,-177.971301,-0.000000,0.000000,-0.000000,571.332573,-582.896423,1.778009,0.000000,-0.000000,0.000000
0.230000,-1.450000,0.968701,0.020000,-26.724576,1315.750000,-556.887933,552.743095,-181.229003,-0.000000,0.000000,-0.000000,581.591691,-585.736529,0.642580,0.000000,-0.000000,0.000000
0.210000,-1.450000,0.965991,0.020000,-29.278643,1271.750000,-565.091689,559.744506,-166.377786,-0.000000,0.000000,-0.000000,583.837861,-589.185044,-0.018907,0.000000,-0.000000,-0.000000
0.250000,-1.470000,0.991544,0.020000,-7.329609,1392.950000,-539.095124,533.006061,-190.747283,-0.000000,0.000000,-0.000000,565.925432,-572.014495,2.818617,0.000000,-0.000000,0.000000
0.270000,-1.470000,0.994988,0.020000,-4.422317,1444.950000,-535.704676,541.239702,-197.264188,-0.000000,0.000000,-0.000000,576.193175,-570.658149,-6.961948,0.000000,-0.000000,-0.000000
0.270000,-1.450000,0.975329,0.020000,-20.958341,1415.750000,-537.962721,540.327525,-205.184635,-0.000000,0.000000,-0.000000,578.045742,-575.680938,-2.623838,0.000000,-0.000000,-0.000000
0.250000,-1.450000,0.971815,0.020000,-23.949683,1363.750000,-549.668712,545.660042,-194.698708,-0.000000,0.000000,-0.000000,579.239033,-583.247704,0.059442,0.000000,-0.000000,0.000000
0.290000,-1.470000,0.998822,0.020000,-1.288170,1500.950000,-503.078975,527.612480,-200.279387,-0.000000,0.000000,-0.000000,565.063283,-540.529778,-10.442555,0.000000,-0.000000,-0.000000
0.310000,-1.450000,0.983541,0.020000,-14.336275,1531.750000,-525.777705,521.662348,-237.957261,-0.000000,0.000000,-0.000000,573.179035,-577.294393,3.007889,0.000000,-0.000000,0.000000
0.290000,-1.450000,0.979239,0.020000,-17.751241,1471.750000,-527.216869,529.209028,-218.547663,-0.000000,0.000000,-0.000000,572.634056,-570.641897,-1.422522,0.000000,-0.000000,-0.000000
0.350000,-1.450000,0.992215,0.020000,-6.887996,1663.750000,-512.887461,520.178731,-255.495180,-0.000000,0.000000,-0.000000,579.853787,-572.562517,-8.269949,0.000000,-0.000000,-0.000000
0.330000,-1.450000,0.987926,0.020000,-10.708478,1595.750000,-523.910646,510.638372,-249.892222,-0.000000,0.000000,-0.000000,567.834930,-581.107204,1.425987,0.000000,-0.000000,0.000000
0.370000,-1.450000,0.996886,0.020000,-2.846433,1735.750000,-474.249957,501.718810,-256.053165,-0.000000,0.000000,-0.000000,564.742353,-537.273500,-9.069011,0.000000,-0.000000,-0.000000
-0.490000,-1.410000,0.993603,0.020000,-5.980473,2194.550000,-460.564004,415.121338,372.105185,-0.000000,0.000000,0.000000,551.519729,-596.962395,-20.388144,0.000000,-0.000000,-0.000000
-0.510000,-1.410000,1.000149,0.020000,-0.433444,2294.550000,-497.408207,429.046490,400.143425,-0.000000,0.000000,0.000000,577.839039,-646.200755,-11.224209,0.000000,-0.000000,-0.000000
-0.450000,-1.430000,0.999545,0.020000,-0.613478,2034.950000,-421.870311,468.648137,297.738398,-0.000000,0.000000,0.000000,558.912145,-512.134320,10.899438,0.000000,-0.000000,0.000000
-0.450000,-1.410000,0.980506,0.020000,-16.612088,2006.550000,-458.682326,465.715062,327.761783,-0.000000,0.000000,0.000000,570.133592,-563.100856,0.583723,0.000000,-0.000000,0.000000
-0.470000,-1.410000,0.986874,0.020000,-11.392480,2098.550000,-453.873355,449.501643,350.645571,-0.000000,0.000000,0.000000,569.551486,-573.923198,-9.503957,0.000000,-0.000000,-0.000000
-0.430000,-1.430000,0.993661,0.020000,-5.546825,1946.950000,-481.006460,497.048101,304.829914,-0.000000,0.000000,0.000000,584.068255,-568.026614,15.437308,0.000000,-0.000000,0.000000
-0.410000,-1.430000,0.988147,0.020000,-10.257463,1862.950000,-491.023994,479.925247,305.242128,-0.000000,0.000000,0.000000,567.910042,-579.008789,-1.631670,0.000000,-0.000000,-0.000000
-0.410000,-1.410000,0.968884,0.020000,-26.495417,1834.550000,-495.473553,491.528849,312.575394,-0.000000,0.000000,0.000000,582.190461,-586.135165,0.787900,0.000000,-0.000000,0.000000
-0.430000,-1.410000,0.974507,0.020000,-21.649842,1918.550000,-478.287326,482.120384,318.380039,-0.000000,0.000000,0.000000,578.065275,-574.232217,3.770045,0.000000,-0.000000,0.000000
-0.390000,-1.430000,0.983009,0.020000,-14.792544,1782.950000,-497.010829,491.738159,295.813376,-0.000000,0.000000,0.000000,573.468482,-578.741152,-3.864473,0.000000,-0.000000,-0.000000
-0.370000,-1.430000,0.977935,0.020000,-19.125327,1706.950000,-500.354799,502.193537,276.913107,-0.000000,0.000000,0.000000,573.593566,-571.754828,0.961645,0.000000,-0.000000,0.000000
-0.370000,-1.410000,0.958679,0.020000,-35.596046,1678.550000,-512.360606,511.865569,288.964180,-0.000000,0.000000,0.000000,587.766116,-588.261153,-0.278444,0.000000,-0.000000,-0.000000
-0.390000,-1.410000,0.963644,0.020000,-31.145949,1754.550000,-504.906201,500.862966,302.800267,-0.000000,0.000000,0.000000,584.986994,-589.030229,-1.340447,0.000000,-0.000000,-0.000000
-0.350000,-1.430000,0.972776,0.020000,-23.260711,1634.950000,-513.967358,515.660273,264.963586,-0.000000,0.000000,0.000000,579.838166,-578.145250,2.751053,0.000000,-0.000000,0.000000
-0.330000,-1.430000,0.968003,0.020000,-27.190408,1566.950000,-528.039713,523.410873,255.739723,-0.000000,0.000000,0.000000,582.313363,-586.942203,0.495602,0.000000,-0.000000,0.000000
-0.330000,-1.410000,0.948545,0.020000,-43.877583,1538.550000,-534.194210,533.921054,264.223573,-0.000000,0.000000,0.000000,595.708705,-595.981861,0.221790,0.000000,-0.000000,0.000000
-0.350000,-1.410000,0.953416,0.020000,-39.841435,1606.550000,-522.837053,523.290550,275.881423,-0.000000,0.000000,0.000000,591.585980,-591.132482,0.748408,0.000000,-0.000000,0.000000
-0.310000,-1.430000,0.963621,0.020000,-30.912223,1502.950000,-535.322086,531.798270,243.909324,-0.000000,0.000000,0.000000,584.904174,-588.427990,-1.063072,0.000000,-0.000000,-0.000000
-0.290000,-1.430000,0.959637,0.020000,-34.421383,1442.950000,-540.377723,540.126711,228.814710,-0.000000,0.000000,0.000000,586.584436,-586.835448,-0.269936,0.000000,-0.000000,-0.000000
-0.290000,-1.410000,0.940005,0.020000,-51.305396,1414.550000,-553.682567,553.754873,237.715764,-0.000000,0.000000,0.000000,602.624897,-602.552590,0.106338,0.000000,-0.000000,0.000000
-0.310000,-1.410000,0.944073,0.020000,-47.700278,1474.550000,-544.239816,544.054652,251.159370,-0.000000,0.000000,0.000000,599.221345,-599.406510,0.239892,0.000000,-0.000000,0.000000
-0.270000,-1.430000,0.956054,0.020000,-37.714604,1386.950000,-548.609105,549.347487,214.166390,-0.000000,0.000000,0.000000,589.643195,-588.904814,0.748380,0.000000,-0.000000,0.000000
-0.250000,-1.430000,0.952521,0.020000,-40.788124,1334.950000,-557.744784,557.612881,200.873063,-0.000000,0.000000,0.000000,592.686615,-592.818517,0.251307,0.000000,-0.000000,0.000000
-0.250000,-1.410000,0.932892,0.020000,-57.847445,1306.550000,-571.849239,571.897870,209.228003,-0.000000,0.000000,0.000000,608.970701,-608.922070,0.137235,0.000000,-0.000000,0.000000
-0.270000,-1.410000,0.936347,0.020000,-54.689030,1358.550000,-563.095648,563.106136,223.688425,-0.000000,0.000000,0.000000,605.908783,-605.898296,0.163488,0.000000,-0.000000,0.000000
-0.230000,-1.430000,0.948931,0.020000,-43.638724,1286.950000,-565.538300,565.421564,186.448884,-0.000000,0.000000,0.000000,595.366411,-595.483147,0.270055,0.000000,-0.000000,0.000000
-0.210000,-1.430000,0.945749,0.020000,-46.263206,1242.950000,-572.968400,572.724470,171.739911,-0.000000,0.000000,0.000000,597.914482,-598.158412,0.207925,0.000000,-0.000000,0.000000
-0.210000,-1.410000,0.925977,0.020000,-63.474758,1214.550000,-587.818799,587.859741,178.918855,-0.000000,0.000000,0.000000,614.485232,-614.444290,0.147702,0.000000,-0.000000,0.000000
-0.230000,-1.410000,0.929226,0.020000,-60.777124,1258.550000,-580.154710,580.178614,194.282655,-0.000000,0.000000,0.000000,611.844512,-611.820608,0.156935,0.000000,-0.000000,0.000000
-0.190000,-1.430000,0.942982,0.020000,-48.658694,1202.950000,-579.632416,579.433078,156.537330,-0.000000,0.000000,0.000000,600.201998,-600.401336,0.223886,0.000000,-0.000000,0.000000
-0.170000,-1.430000,0.940631,0.020000,-50.822482,1166.950000,-585.314841,585.383869,141.041644,-0.000000,0.000000,0.000000,602.136330,-602.067302,0.123880,0.000000,-0.000000,0.000000
-0.170000,-1.410000,0.920749,0.020000,-68.161837,1138.550000,-601.369896,601.410017,146.998059,-0.000000,0.000000,0.000000,619.114791,-619.074670,0.152577,0.000000,-0.000000,0.000000
-0.190000,-1.410000,0.923150,0.020000,-65.937274,1174.550000,-594.922831,594.955214,163.142318,-0.000000,0.000000,0.000000,616.917993,-616.885609,0.155382,0.000000,-0.000000,0.000000
-0.150000,-1.430000,0.938701,0.020000,-52.752139,1134.950000,-590.843430,590.901114,125.181713,-0.000000,0.000000,0.000000,604.015993,-603.958310,0.153192,0.000000,-0.000000,0.000000
-0.130000,-1.430000,0.936661,0.020000,-54.445459,1106.950000,-595.689162,595.744710,109.070542,-0.000000,0.000000,0.000000,605.647317,-605.591769,0.141865,0.000000,-0.000000,0.000000
-0.130000,-1.410000,0.916778,0.020000,-71.887035,1078.550000,-612.306103,612.347215,113.721336,-0.000000,0.000000,0.000000,622.817839,-622.776726,0.155340,0.000000,-0.000000,0.000000
-0.150000,-1.410000,0.918777,0.020000,-70.145864,1106.550000,-607.182024,607.219228,130.510919,-0.000000,0.000000,0.000000,621.086775,-621.049571,0.155974,0.000000,-0.000000,0.000000
-0.110000,-1.430000,0.934732,0.020000,-55.900508,1082.950000,-599.909713,599.953839,92.691539,-0.000000,0.000000,0.000000,607.072171,-607.028045,0.153222,0.000000,-0.000000,0.000000
-0.090000,-1.430000,0.933229,0.020000,-57.115605,1062.950000,-603.417376,603.465253,76.111010,-0.000000,0.000000,0.000000,608.246171,-608.198294,0.147534,0.000000,-0.000000,0.000000
-0.090000,-1.410000,0.913271,0.020000,-74.632879,1034.550000,-620.461421,620.503767,79.376246,-0.000000,0.000000,0.000000,625.560311,-625.517965,0.157056,0.000000,-0.000000,0.000000
-0.110000,-1.410000,0.914808,0.020000,-73.383297,1054.550000,-616.743093,616.783325,96.662878,-0.000000,0.000000,0.000000,624.312149,-624.271918,0.157035,0.000000,-0.000000,0.000000
-0.070000,-1.430000,0.932152,0.020000,-58.089344,1046.950000,-606.261124,606.303527,59.345250,-0.000000,0.000000,0.000000,609.201055,-609.158651,0.152899,0.000000,-0.000000,0.000000
-0.050000,-1.430000,0.931503,0.020000,-58.820593,1034.950000,-608.385037,608.430252,42.447611,-0.000000,0.000000,0.000000,609.909186,-609.863971,0.150089,0.000000,-0.000000,0.000000
-0.050000,-1.410000,0.911508,0.020000,-76.386337,1006.550000,-625.708773,625.752023,44.275451,-0.000000,0.000000,0.000000,627.316469,-627.273219,0.158068,0.000000,-0.000000,0.000000
-0.070000,-1.410000,0.912171,0.020000,-75.634291,1018.550000,-623.456162,623.498328,61.899765,-0.000000,0.000000,0.000000,626.563525,-626.521359,0.157950,0.000000,-0.000000,0.000000
-0.030000,-1.430000,0.931284,0.020000,-59.308501,1026.950000,-609.813745,609.856722,25.445774,-0.000000,0.000000,0.000000,610.387343,-610.344366,0.152850,0.000000,-0.000000,0.000000
-0.010000,-1.430000,0.930708,0.020000,-59.552498,1022.950000,-610.521224,610.565162,8.388422,-0.000000,0.000000,0.000000,610.622766,-610.578828,0.151046,0.000000,-0.000000,0.000000
-0.010000,-1.410000,0.910712,0.020000,-77.139026,994.550000,-627.965099,628.008687,8.749562,-0.000000,0.000000,0.000000,628.069617,-628.026029,0.158485,0.000000,-0.000000,0.000000
-0.030000,-1.410000,0.911284,0.020000,-76.888116,998.550000,-627.214658,627.257910,26.544351,-0.000000,0.000000,0.000000,627.819311,-627.776059,0.158500,0.000000,-0.000000,0.000000
0.010000,-1.430000,0.930494,0.020000,-59.552300,1022.950000,-610.514876,610.558797,-8.692336,-0.000000,0.000000,-0.000000,610.620652,-610.576731,0.152927,0.000000,-0.000000,0.000000
0.030000,-1.430000,0.930710,0.020000,-59.307911,1026.950000,-609.794614,609.837602,-25.748976,-0.000000,0.000000,-0.000000,610.380956,-610.337968,0.150887,0.000000,-0.000000,0.000000
0.030000,-1.410000,0.910715,0.020000,-76.887340,998.550000,-627.194448,627.237695,-26.860614,-0.000000,0.000000,-0.000000,627.812567,-627.769319,0.158337,0.000000,-0.000000,0.000000
0.010000,-1.410000,0.910494,0.020000,-77.138766,994.550000,-627.958355,628.001940,-9.066591,-0.000000,0.000000,-0.000000,628.067367,-628.023782,0.158607,0.000000,-0.000000,0.000000
0.050000,-1.430000,0.931356,0.020000,-58.819617,1034.950000,-608.353312,608.398503,-42.749391,-0.000000,0.000000,-0.000000,609.898593,-609.853402,0.153170,0.000000,-0.000000,0.000000
0.070000,-1.430000,0.932431,0.020000,-58.087996,1046.950000,-606.216804,606.259218,-59.644910,-0.000000,0.000000,-0.000000,609.186224,-609.143811,0.149656,0.000000,-0.000000,0.000000
0.070000,-1.410000,0.912473,0.020000,-75.632510,1018.550000,-623.409321,623.451477,-62.212228,-0.000000,0.000000,-0.000000,626.547852,-626.505696,0.157617,0.000000,-0.000000,0.000000
0.050000,-1.410000,0.911375,0.020000,-76.385052,1006.550000,-625.675182,625.718424,-44.590190,-0.000000,0.000000,-0.000000,627.305248,-627.262007,0.158259,0.000000,-0.000000,0.000000
0.090000,-1.430000,0.933737,0.020000,-57.113901,1062.950000,-603.360775,603.408616,-76.407858,-0.000000,0.000000,-0.000000,608.227199,-608.179358,0.154069,0.000000,-0.000000,0.000000
0.110000,-1.430000,0.934816,0.020000,-55.898473,1082.950000,-599.840881,599.885021,-92.984910,-0.000000,0.000000,-0.000000,607.049032,-607.004892,0.147224,0.000000,-0.000000,0.000000
0.110000,-1.410000,0.914859,0.020000,-73.380587,1054.550000,-616.670366,616.710582,-96.968596,-0.000000,0.000000,-0.000000,624.287699,-624.247482,0.156264,0.000000,-0.000000,0.000000
0.090000,-1.410000,0.913756,0.020000,-74.630621,1034.550000,-620.401521,620.443853,-79.685696,-0.000000,0.000000,-0.000000,625.540227,-625.497895,0.157499,0.000000,-0.000000,0.000000
0.130000,-1.430000,0.936322,0.020000,-54.443119,1106.950000,-595.608568,595.664063,-109.359773,-0.000000,0.000000,-0.000000,605.620148,-605.564653,0.157162,0.000000,-0.000000,0.000000
0.150000,-1.430000,0.938251,0.020000,-52.749526,1134.950000,-590.751118,590.808832,-125.466193,-0.000000,0.000000,-0.000000,603.984753,-603.927038,0.144249,0.000000,-0.000000,0.000000
0.150000,-1.410000,0.918368,0.020000,-70.142340,1106.550000,-607.084550,607.121735,-130.807106,-0.000000,0.000000,-0.000000,621.053778,-621.016593,0.154092,0.000000,-0.000000,0.000000
0.130000,-1.410000,0.916397,0.020000,-71.883900,1078.550000,-612.220842,612.261933,-114.022623,-0.000000,0.000000,-0.000000,622.789083,-622.747991,0.156460,0.000000,-0.000000,0.000000
0.170000,-1.430000,0.940601,0.020000,-50.819633,1166.950000,-585.211509,585.280444,-141.320750,-0.000000,0.000000,-0.000000,602.101223,-602.032288,0.171684,0.000000,-0.000000,0.000000
0.190000,-1.430000,0.943370,0.020000,-48.655651,1202.950000,-579.517994,579.318712,-156.810520,-0.000000,0.000000,-0.000000,600.162936,-600.362219,0.069697,0.000000,-0.000000,0.000000
0.190000,-1.410000,0.923598,0.020000,-65.933092,1174.550000,-594.802110,594.834472,-163.426409,-0.000000,0.000000,-0.000000,616.876755,-616.844393,0.150534,0.000000,-0.000000,0.000000
0.170000,-1.410000,0.920770,0.020000,-68.157962,1138.550000,-601.260601,601.300695,-147.288501,-0.000000,0.000000,-0.000000,619.077634,-619.037540,0.155523,0.000000,-0.000000,0.000000
0.210000,-1.430000,0.946152,0.020000,-46.260014,1242.950000,-572.843470,572.599670,-172.006594,-0.000000,0.000000,-0.000000,597.871627,-598.115427,0.083398,0.000000,-0.000000,0.000000
0.230000,-1.430000,0.948918,0.020000,-43.635435,1286.950000,-565.403451,565.286799,-186.708640,-0.000000,0.000000,-0.000000,595.319895,-595.436548,0.018871,0.000000,-0.000000,0.000000
0.230000,-1.410000,0.929145,0.020000,-60.772478,1258.550000,-580.012547,580.036433,-194.552359,-0.000000,0.000000,-0.000000,611.795408,-611.771522,0.143969,0.000000,-0.000000,0.000000
0.210000,-1.410000,0.926320,0.020000,-63.470318,1214.550000,-587.687137,587.728044,-179.196019,-0.000000,0.000000,-0.000000,614.440018,-614.399111,0.155804,0.000000,-0.000000,0.000000
0.250000,-1.430000,0.952097,0.020000,-40.784789,1334.950000,-557.600225,557.468579,-201.125238,-0.000000,0.000000,-0.000000,592.636437,-592.768083,0.034912,0.000000,-0.000000,0.000000
0.270000,-1.430000,0.955684,0.020000,-37.711283,1386.950000,-548.456212,549.193777,-214.411788,-0.000000,0.000000,-0.000000,589.589517,-588.851952,-0.463979,0.000000,-0.000000,-0.000000
0.270000,-1.410000,0.936054,0.020000,-54.684146,1358.550000,-562.934085,562.944577,-223.941765,-0.000000,0.000000,-0.000000,605.852246,-605.841754,0.131617,0.000000,-0.000000,0.000000
0.250000,-1.410000,0.932392,0.020000,-57.842650,1306.550000,-571.697168,571.745751,-209.489746,-0.000000,0.000000,-0.000000,608.917841,-608.869258,0.160843,0.000000,-0.000000,0.000000
0.290000,-1.430000,0.959674,0.020000,-34.418136,1442.950000,-540.218526,539.965195,-229.052750,-0.000000,0.000000,-0.000000,586.528324,-586.781654,0.551641,0.000000,-0.000000,0.000000
0.310000,-1.430000,0.964063,0.020000,-30.909115,1502.950000,-535.153582,531.628564,-244.137303,-0.000000,0.000000,-0.000000,584.844056,-588.369074,1.340613,0.000000,-0.000000,0.000000
0.310000,-1.410000,0.944607,0.020000,-47.695415,1474.550000,-544.060995,543.875949,-251.394707,-0.000000,0.000000,-0.000000,599.157838,-599.342884,0.048722,0.000000,-0.000000,0.000000
0.290000,-1.410000,0.940127,0.020000,-51.300489,1414.550000,-553.512302,553.584520,-237.960275,-0.000000,0.000000,-0.000000,602.564864,-602.492646,0.185538,0.000000,-0.000000,0.000000
0.330000,-1.430000,0.968359,0.020000,-27.187505,1566.950000,-527.858999,523.232275,-255.959836,-0.000000,0.000000,-0.000000,582.249385,-586.876110,-0.219022,0.000000,-0.000000,-0.000000
0.350000,-1.430000,0.972733,0.020000,-23.258086,1634.950000,-513.780513,515.473160,-265.177307,-0.000000,0.000000,-0.000000,579.770894,-578.078247,-2.475135,0.000000,-0.000000,-0.000000
0.350000,-1.410000,0.953273,0.020000,-39.836879,1606.550000,-522.643922,523.096772,-276.098312,-0.000000,0.000000,-0.000000,591.516084,-591.063233,-0.466228,0.000000,-0.000000,-0.000000
0.330000,-1.410000,0.948809,0.020000,-43.872836,1538.550000,-534.007590,533.734634,-264.449346,-0.000000,0.000000,-0.000000,595.641850,-595.914806,0.063307,0.000000,-0.000000,0.000000
0.370000,-1.430000,0.977498,0.020000,-19.123053,1706.950000,-500.167642,502.000144,-277.120025,-0.000000,0.000000,-0.000000,573.524408,-571.691907,-0.688407,0.000000,-0.000000,-0.000000
0.390000,-1.430000,0.982646,0.020000,-14.790697,1782.950000,-496.816788,491.539457,-296.008039,-0.000000,0.000000,-0.000000,573.395798,-578.673129,4.131879,0.000000,-0.000000,0.000000
0.390000,-1.410000,0.963387,0.020000,-31.142008,1754.550000,-504.700042,500.656934,-302.996297,-0.000000,0.000000,-0.000000,584.910991,-588.954098,1.614522,0.000000,-0.000000,0.000000
0.370000,-1.410000,0.958135,0.020000,-35.591757,1678.550000,-512.162469,511.665766,-289.171592,-0.000000,0.000000,-0.000000,587.693791,-588.190494,0.556829,0.000000,-0.000000,0.000000
0.410000,-1.430000,0.988173,0.020000,-10.256122,1862.950000,-490.815752,479.720779,-305.426612,-0.000000,0.000000,-0.000000,567.834677,-578.929649,1.897469,0.000000,-0.000000,0.000000
0.430000,-1.430000,0.994071,0.020000,-5.546066,1946.950000,-480.790371,496.831959,-305.008643,-0.000000,0.000000,-0.000000,583.986529,-567.944941,-15.169027,0.000000,-0.000000,-0.000000
0.430000,-1.410000,0.975037,0.020000,-21.646844,1918.550000,-478.068325,481.901579,-318.558976,-0.000000,0.000000,-0.000000,577.983576,-574.150322,-3.499405,0.000000,-0.000000,-0.000000
0.410000,-1.410000,0.969023,0.020000,-26.491905,1834.550000,-495.258181,491.316205,-312.762134,-0.000000,0.000000,-0.000000,582.111319,-586.053295,-0.515522,0.000000,-0.000000,-0.000000
0.450000,-1.430000,0.999940,0.020000,-0.613393,2034.950000,-421.664248,468.429221,-297.914229,-0.000000,0.000000,-0.000000,558.832214,-512.067240,-10.633608,0.000000,-0.000000,-0.000000
0.470000,-1.410000,0.986765,0.020000,-11.390771,2098.550000,-453.649426,449.276041,-350.802760,-0.000000,0.000000,-0.000000,569.465150,-573.838535,9.764568,0.000000,-0.000000,0.000000
0.450000,-1.410000,0.980782,0.020000,-16.609690,2006.550000,-458.465337,465.492108,-327.932275,-0.000000,0.000000,-0.000000,570.050072,-563.023301,-0.317323,0.000000,-0.000000,-0.000000
0.510000,-1.410000,0.999826,0.020000,-0.433379,2294.550000,-497.173570,428.808072,-400.284234,-0.000000,0.000000,-0.000000,577.745426,-646.110925,11.483746,0.000000,-0.000000,0.000000
0.490000,-1.410000,0.993116,0.020000,-5.979540,2194.550000,-460.329320,414.890088,-372.252094,-0.000000,0.000000,-0.000000,551.429790,-596.869022,20.647864,0.000000,-0.000000,0.000000
-0.610000,-1.370000,1.000615,0.020000,-0.179254,2798.950000,-363.448099,371.541980,418.383226,-0.000000,0.000000,0.000000,560.868754,-552.774873,-6.826087,0.000000,-0.000000,-0.000000
-0.570000,-1.370000,0.984344,0.020000,-13.429510,2562.950000,-419.585542,403.529157,409.586328,-0.000000,0.000000,0.000000,572.600808,-588.657193,3.221131,0.000000,-0.000000,0.000000
-0.590000,-1.370000,0.992352,0.020000,-6.882892,2678.950000,-397.500946,391.751733,409.630999,-0.000000,0.000000,0.000000,565.895830,-571.645043,5.262503,0.000000,-0.000000,0.000000
-0.550000,-1.390000,0.995254,0.020000,-4.201048,2478.550000,-448.018328,410.180208,390.665079,-0.000000,0.000000,0.000000,561.313229,-599.151349,8.710717,0.000000,-0.000000,0.000000
-0.530000,-1.390000,0.988079,0.020000,-10.259352,2370.550000,-469.633108,418.055704,385.992447,-0.000000,0.000000,0.000000,562.370880,-613.948284,7.505477,0.000000,-0.000000,0.000000
-0.530000,-1.370000,0.969369,0.020000,-26.032980,2342.950000,-441.241637,430.048869,391.470410,-0.000000,0.000000,0.000000,580.084937,-591.277705,3.641330,0.000000,-0.000000,0.000000
-0.550000,-1.370000,0.976680,0.020000,-19.813412,2450.950000,-428.609593,413.908711,402.470612,-0.000000,0.000000,0.000000,575.265701,-589.966584,0.545017,0.000000,-0.000000,0.000000
-0.510000,-1.390000,0.981261,0.020000,-16.157379,2266.550000,-467.545854,434.452222,383.909247,-0.000000,0.000000,0.000000,575.724382,-608.818015,-1.126642,0.000000,-0.000000,-0.000000
-0.490000,-1.390000,0.974805,0.020000,-21.879647,2166.550000,-460.279811,445.569833,371.024272,-0.000000,0.000000,0.000000,578.115070,-592.825048,-4.971400,0.000000,-0.000000,-0.000000
-0.490000,-1.370000,0.955834,0.020000,-37.951863,2138.950000,-459.030007,456.170847,376.501461,-0.000000,0.000000,0.000000,591.150128,-594.009287,-0.889589,0.000000,-0.000000,-0.000000
-0.510000,-1.370000,0.962418,0.020000,-32.080762,2238.950000,-451.552879,443.779079,385.869540,-0.000000,0.000000,0.000000,587.128752,-594.902552,0.792965,0.000000,-0.000000,0.000000
-0.470000,-1.390000,0.967999,0.020000,-27.423118,2070.550000,-464.096485,458.816356,357.113207,-0.000000,0.000000,0.000000,580.847322,-586.127451,-3.786883,0.000000,-0.000000,-0.000000
-0.450000,-1.390000,0.961506,0.020000,-32.782116,1978.550000,-473.227743,473.766956,342.769564,-0.000000,0.000000,0.000000,584.812725,-584.273512,-0.238477,0.000000,-0.000000,-0.000000
-0.450000,-1.370000,0.942547,0.020000,-49.141029,1950.950000,-483.526900,483.668634,356.002660,-0.000000,0.000000,0.000000,600.574560,-600.432827,0.089061,0.000000,-0.000000,0.000000
-0.470000,-1.370000,0.949170,0.020000,-43.640430,2042.950000,-470.189673,469.763699,365.551232,-0.000000,0.000000,0.000000,595.190897,-595.616871,-0.055708,0.000000,-0.000000,-0.000000
-0.430000,-1.390000,0.955388,0.020000,-37.951476,1890.550000,-486.490286,487.154264,331.870738,-0.000000,0.000000,0.000000,589.512035,-588.848058,0.993289,0.000000,-0.000000,0.000000
-0.410000,-1.390000,0.949652,0.020000,-42.926084,1806.550000,-500.161876,499.800968,322.772067,-0.000000,0.000000,0.000000,594.935645,-595.296553,0.242310,0.000000,-0.000000,0.000000
-0.410000,-1.370000,0.930452,0.020000,-59.556453,1778.950000,-510.296302,510.337201,335.333132,-0.000000,0.000000,0.000000,610.652481,-610.611582,0.133292,0.000000,-0.000000,0.000000
-0.430000,-1.370000,0.936305,0.020000,-54.448160,1862.950000,-497.203005,497.143704,345.986977,-0.000000,0.000000,0.000000,605.683402,-605.742703,0.174450,0.000000,-0.000000,0.000000
-0.390000,-1.390000,0.944304,0.020000,-47.700903,1726.550000,-512.014202,511.804745,311.573757,-0.000000,0.000000,0.000000,599.169396,-599.378853,0.197181,0.000000,-0.000000,0.000000
-0.370000,-1.390000,0.939352,0.020000,-52.271021,1650.550000,-523.679539,523.759050,299.955451,-0.000000,0.000000,0.000000,603.575306,-603.495795,0.105191,0.000000,-0.000000,0.000000
-0.370000,-1.370000,0.919938,0.020000,-69.155494,1622.950000,-535.851633,535.877169,312.047192,-0.000000,0.000000,0.000000,620.112828,-620.087292,0.147590,0.000000,-0.000000,0.000000
-0.390000,-1.370000,0.924993,0.020000,-64.460621,1698.950000,-523.269754,523.277447,324.013241,-0.000000,0.000000,0.000000,615.471001,-615.463308,0.153835,0.000000,-0.000000,0.000000
-0.350000,-1.390000,0.934082,0.020000,-56.631647,1578.550000,-535.416963,535.401708,287.694809,-0.000000,0.000000,0.000000,607.801086,-607.816341,0.165851,0.000000,-0.000000,0.000000
-0.330000,-1.390000,0.929110,0.020000,-60.778133,1510.550000,-546.575465,546.617209,274.882334,-0.000000,0.000000,0.000000,611.844241,-611.802496,0.138171,0.000000,-0.000000,0.000000
-0.330000,-1.370000,0.909700,0.020000,-77.897339,1482.950000,-559.910336,559.950460,286.187622,-0.000000,0.000000,0.000000,628.848641,-628.808517,0.155781,0.000000,-0.000000,0.000000
-0.350000,-1.370000,0.914778,0.020000,-73.636031,1550.950000,-548.099553,548.120747,299.436028,-0.000000,0.000000,0.000000,624.579766,-624.558572,0.153579,0.000000,-0.000000,0.000000
-0.310000,-1.390000,0.924544,0.020000,-64.705990,1446.550000,-557.411854,557.429475,261.475823,-0.000000,0.000000,0.000000,615.709533,-615.691911,0.155566,0.000000,-0.000000,0.000000
-0.290000,-1.390000,0.920390,0.020000,-68.410898,1386.550000,-567.726578,567.760061,247.518290,-0.000000,0.000000,0.000000,619.369435,-619.335951,0.149223,0.000000,-0.000000,0.000000
-0.290000,-1.370000,0.900792,0.020000,-85.743514,1358.950000,-581.805386,582.108314,257.876055,-0.000000,0.000000,0.000000,636.684128,-636.381200,0.052382,0.000000,-0.000000,0.000000
-0.310000,-1.370000,0.905036,0.020000,-81.934685,1418.950000,-570.919181,571.208670,272.330526,-0.000000,0.000000,0.000000,632.819953,-632.530464,0.048402,0.000000,-0.000000,0.000000
-0.270000,-1.390000,0.916654,0.020000,-71.888722,1330.550000,-577.570255,577.598553,233.016143,-0.000000,0.000000,0.000000,622.830528,-622.802231,0.155233,0.000000,-0.000000,0.000000
-0.250000,-1.390000,0.913279,0.020000,-75.135532,1278.550000,-586.860347,586.894545,217.999382,-0.000000,0.000000,0.000000,626.075278,-626.041080,0.154507,0.000000,-0.000000,0.000000
-0.250000,-1.370000,0.893588,0.020000,-92.658390,1250.950000,-601.971817,602.299799,227.260849,-0.000000,0.000000,0.000000,643.759377,-643.431395,0.062361,0.000000,-0.000000,0.000000
-0.270000,-1.370000,0.896974,0.020000,-89.319466,1302.950000,-592.169457,592.484894,242.844883,-0.000000,0.000000,0.000000,640.333567,-640.018130,0.057173,0.000000,-0.000000,0.000000
-0.230000,-1.390000,0.909534,0.020000,-78.147610,1230.550000,-595.589589,595.623423,202.489656,-0.000000,0.000000,0.000000,629.102878,-629.069044,0.157299,0.000000,-0.000000,0.000000
-0.210000,-1.390000,0.906214,0.020000,-80.921465,1186.550000,-603.710358,603.747252,186.517318,-0.000000,0.000000,0.000000,631.902261,-631.865367,0.157970,0.000000,-0.000000,0.000000
-0.210000,-1.370000,0.886462,0.020000,-98.609686,1158.950000,-619.750384,620.101066,194.544412,-0.000000,0.000000,0.000000,649.910231,-649.559549,0.075098,0.000000,-0.000000,0.000000
-0.230000,-1.370000,0.889855,0.020000,-95.756359,1202.950000,-611.177391,611.516977,211.150727,-0.000000,0.000000,0.000000,646.954150,-646.614564,0.068436,0.000000,-0.000000,0.000000
-0.190000,-1.390000,0.903325,0.020000,-83.453850,1146.550000,-611.201054,611.238819,170.111864,-0.000000,0.000000,0.000000,634.469693,-634.431928,0.159677,0.000000,-0.000000,0.000000
-0.170000,-1.390000,0.900871,0.020000,-85.741769,1110.550000,-618.027451,618.067227,153.307186,-0.000000,0.000000,0.000000,636.797385,-636.757609,0.160600,0.000000,-0.000000,0.000000
-0.170000,-1.370000,0.880999,0.020000,-103.568944,1082.950000,-634.869143,635.239522,159.976207,-0.000000,0.000000,0.000000,655.079367,-654.708988,0.090397,0.000000,-0.000000,0.000000
-0.190000,-1.370000,0.883508,0.020000,-101.214937,1118.950000,-627.658101,628.019011,177.474469,-0.000000,0.000000,0.000000,652.620822,-652.259912,0.082462,0.000000,-0.000000,0.000000
-0.150000,-1.390000,0.898856,0.020000,-87.782492,1078.550000,-624.166454,624.207312,136.138288,-0.000000,0.000000,0.000000,638.881034,-638.840175,0.161800,0.000000,-0.000000,0.000000
-0.130000,-1.390000,0.896900,0.020000,-89.573564,1050.550000,-629.591648,629.633951,118.643007,-0.000000,0.000000,0.000000,640.714849,-640.672546,0.162637,0.000000,-0.000000,0.000000
-0.130000,-1.370000,0.877028,0.020000,-107.511963,1022.950000,-647.088995,647.475548,123.848196,-0.000000,0.000000,0.000000,659.217330,-658.830777,0.107879,0.000000,-0.000000,0.000000
-0.150000,-1.370000,0.878938,0.020000,-105.668818,1050.950000,-641.354895,641.733818,142.087403,-0.000000,0.000000,0.000000,657.280005,-656.901082,0.098900,0.000000,-0.000000,0.000000
-0.110000,-1.390000,0.894886,0.020000,-91.112815,1026.550000,-634.282876,634.326131,100.860652,-0.000000,0.000000,0.000000,642.294971,-642.251715,0.163495,0.000000,-0.000000,0.000000
-0.090000,-1.390000,0.893316,0.020000,-92.398370,1006.550000,-638.220273,638.264538,82.832539,-0.000000,0.000000,0.000000,643.617169,-643.572904,0.164130,0.000000,-0.000000,0.000000
-0.090000,-1.370000,0.873362,0.020000,-110.419184,978.950000,-656.211469,656.610241,86.489442,-0.000000,0.000000,0.000000,662.283684,-661.884912,0.127028,0.000000,-0.000000,0.000000
-0.110000,-1.370000,0.874969,0.020000,-109.096080,998.950000,-652.048041,652.441215,105.300827,-0.000000,0.000000,0.000000,660.886609,-660.493435,0.117284,0.000000,-0.000000,0.000000
-0.070000,-1.390000,0.892191,0.020000,-93.428653,990.550000,-641.388524,641.433473,64.601272,-0.000000,0.000000,0.000000,644.678480,-644.633531,0.164692,0.000000,-0.000000,0.000000
-0.050000,-1.390000,0.891513,0.020000,-94.202398,978.550000,-643.774231,643.819784,46.210829,-0.000000,0.000000,0.000000,645.476105,-645.430553,0.165082,0.000000,-0.000000,0.000000
-0.050000,-1.370000,0.871518,0.020000,-112.276005,950.950000,-662.085367,662.492071,48.259105,-0.000000,0.000000,0.000000,664.247979,-663.841275,0.147221,0.000000,-0.000000,0.000000
-0.070000,-1.370000,0.872212,0.020000,-111.479606,962.950000,-659.561945,659.965232,67.459818,-0.000000,0.000000,0.000000,663.405082,-663.001795,0.137038,0.000000,-0.000000,0.000000
-0.030000,-1.390000,0.891284,0.020000,-94.718651,970.550000,-645.367890,645.413796,27.706065,-0.000000,0.000000,0.000000,646.008200,-645.962294,0.165362,0.000000,-0.000000,0.000000
-0.010000,-1.390000,0.890717,0.020000,-94.976774,966.550000,-646.162749,646.208855,9.132615,-0.000000,0.000000,0.000000,646.273367,-646.227260,0.165487,0.000000,-0.000000,0.000000
-0.010000,-1.370000,0.870722,0.020000,-113.073023,938.950000,-664.611962,665.022093,9.538103,-0.000000,0.000000,0.000000,665.090490,-664.680359,0.167754,0.000000,-0.000000,0.000000
-0.030000,-1.370000,0.871284,0.020000,-112.807369,942.950000,-663.771092,664.180081,28.935531,-0.000000,0.000000,0.000000,664.810257,-664.401269,0.157492,0.000000,-0.000000,0.000000
0.010000,-1.390000,0.890494,0.020000,-94.976449,966.550000,-646.155607,646.201712,-9.463523,-0.000000,0.000000,-0.000000,646.270985,-646.224880,0.165490,0.000000,-0.000000,0.000000
0.030000,-1.390000,0.890720,0.020000,-94.717680,970.550000,-645.346494,645.392395,-28.036151,-0.000000,0.000000,-0.000000,646.001060,-645.955159,0.165341,0.000000,-0.000000,0.000000
0.030000,-1.370000,0.870725,0.020000,-112.806195,942.950000,-663.748458,664.157416,-29.280246,-0.000000,0.000000,-0.000000,664.802704,-664.393746,0.187885,0.000000,-0.000000,0.000000
0.010000,-1.370000,0.870494,0.020000,-113.072631,938.950000,-664.604407,665.014528,-9.883701,-0.000000,0.000000,-0.000000,665.087970,-664.677849,0.177917,0.000000,-0.000000,0.000000
0.050000,-1.390000,0.891395,0.020000,-94.200790,978.550000,-643.738669,643.784212,-46.539278,-0.000000,0.000000,-0.000000,645.464225,-645.418681,0.165074,0.000000,-0.000000,0.000000
0.070000,-1.390000,0.892518,0.020000,-93.426421,990.550000,-641.338941,641.383878,-64.927278,-0.000000,0.000000,-0.000000,644.661889,-644.616952,0.164646,0.000000,-0.000000,0.000000
0.070000,-1.370000,0.872564,0.020000,-111.476903,962.950000,-659.509505,659.912722,-67.800146,-0.000000,0.000000,-0.000000,663.387532,-662.984316,0.206867,0.000000,-0.000000,0.000000
0.050000,-1.370000,0.871416,0.020000,-112.274059,950.950000,-662.047750,662.454403,-48.602060,-0.000000,0.000000,-0.000000,664.235412,-663.828759,0.197565,0.000000,-0.000000,0.000000
0.090000,-1.390000,0.893776,0.020000,-92.395534,1006.550000,-638.156874,638.201124,-83.155310,-0.000000,0.000000,-0.000000,643.595907,-643.551657,0.164122,0.000000,-0.000000,0.000000
0.110000,-1.390000,0.894904,0.020000,-91.109401,1026.550000,-634.205918,634.249156,-101.179417,-0.000000,0.000000,-0.000000,642.269092,-642.225854,0.163409,0.000000,-0.000000,0.000000
0.110000,-1.370000,0.874950,0.020000,-109.091931,998.950000,-651.966677,652.359743,-105.633376,-0.000000,0.000000,-0.000000,660.859240,-660.466174,0.223996,0.000000,-0.000000,0.000000
0.090000,-1.370000,0.873797,0.020000,-110.415744,978.950000,-656.144427,656.543109,-86.826294,-0.000000,0.000000,-0.000000,662.261196,-661.862514,0.215706,0.000000,-0.000000,0.000000
0.130000,-1.390000,0.896476,0.020000,-89.569602,1050.550000,-629.501444,629.543726,-118.957019,-0.000000,0.000000,-0.000000,640.684416,-640.642133,0.162658,0.000000,-0.000000,0.000000
0.150000,-1.390000,0.898491,0.020000,-87.778018,1078.550000,-624.063364,624.104199,-136.446829,-0.000000,0.000000,-0.000000,638.846119,-638.805284,0.161633,0.000000,-0.000000,0.000000
0.150000,-1.370000,0.878619,0.020000,-105.663353,1050.950000,-641.245957,641.624736,-142.408976,-0.000000,0.000000,-0.000000,657.243088,-656.864309,0.238642,0.000000,-0.000000,0.000000
0.130000,-1.370000,0.876558,0.020000,-107.507137,1022.950000,-646.993648,647.380074,-124.175641,-0.000000,0.000000,-0.000000,659.185147,-658.798721,0.231668,0.000000,-0.000000,0.000000
0.170000,-1.390000,0.900945,0.020000,-85.736825,1110.550000,-617.911885,617.951634,-153.609570,-0.000000,0.000000,-0.000000,636.758074,-636.718324,0.160726,0.000000,-0.000000,0.000000
0.190000,-1.390000,0.903836,0.020000,-83.448482,1146.550000,-611.073462,611.111199,-170.407441,-0.000000,0.000000,-0.000000,634.426077,-634.388341,0.159303,0.000000,-0.000000,0.000000
0.190000,-1.370000,0.884084,0.020000,-101.208330,1118.950000,-627.523359,627.884093,-177.782134,-0.000000,0.000000,-0.000000,652.574720,-652.213987,0.250284,0.000000,-0.000000,0.000000
0.170000,-1.370000,0.881129,0.020000,-103.562883,1082.950000,-634.747057,635.117276,-160.291172,-0.000000,0.000000,-0.000000,655.037808,-654.667589,0.244875,0.000000,-0.000000,0.000000
0.210000,-1.390000,0.906495,0.020000,-80.915724,1186.550000,-603.571235,603.608098,-186.805477,-0.000000,0.000000,-0.000000,631.854444,-631.817581,0.158432,0.000000,-0.000000,0.000000
0.230000,-1.390000,0.909382,0.020000,-78.141551,1230.550000,-595.439463,595.473265,-202.769829,-0.000000,0.000000,-0.000000,629.050970,-629.017169,0.156304,0.000000,-0.000000,0.000000
0.230000,-1.370000,0.889630,0.020000,-95.748827,1202.950000,-611.018978,611.358361,-211.441887,-0.000000,0.000000,-0.000000,646.899306,-646.559923,0.258525,0.000000,-0.000000,0.000000
0.210000,-1.370000,0.886678,0.020000,-98.602587,1158.950000,-619.603520,619.954012,-194.844127,-0.000000,0.000000,-0.000000,649.859698,-649.509206,0.254874,0.000000,-0.000000,0.000000
0.250000,-1.390000,0.912699,0.020000,-75.129216,1278.550000,-586.699781,586.733944,-218.271045,-0.000000,0.000000,-0.000000,626.019399,-625.985236,0.156084,0.000000,-0.000000,0.000000
0.270000,-1.390000,0.916440,0.020000,-71.882213,1330.550000,-577.399835,577.428098,-233.278816,-0.000000,0.000000,-0.000000,622.770803,-622.742540,0.152146,0.000000,-0.000000,0.000000
0.270000,-1.370000,0.896843,0.020000,-89.311262,1302.950000,-591.989798,592.305010,-243.117318,-0.000000,0.000000,-0.000000,640.270494,-639.955282,0.263099,0.000000,-0.000000,0.000000
0.250000,-1.370000,0.893020,0.020000,-92.650488,1250.950000,-601.802462,602.130230,-227.542899,-0.000000,0.000000,-0.000000,643.700351,-643.372583,0.261363,0.000000,-0.000000,0.000000
0.290000,-1.390000,0.920600,0.020000,-68.404263,1386.550000,-567.546924,567.580370,-247.771545,-0.000000,0.000000,-0.000000,619.305999,-619.272554,0.154748,0.000000,-0.000000,0.000000
0.310000,-1.390000,0.925131,0.020000,-64.699302,1446.550000,-557.223585,557.241174,-261.719278,-0.000000,0.000000,-0.000000,615.642520,-615.624931,0.144823,0.000000,-0.000000,0.000000
0.310000,-1.370000,0.905532,0.020000,-81.926096,1418.950000,-570.720905,571.010164,-272.582433,-0.000000,0.000000,-0.000000,632.749222,-632.459964,0.264375,0.000000,-0.000000,0.000000
0.290000,-1.370000,0.901094,0.020000,-85.735080,1358.950000,-581.616085,581.918779,-258.138422,-0.000000,0.000000,-0.000000,636.617151,-636.314457,0.264233,0.000000,-0.000000,0.000000
0.330000,-1.390000,0.929279,0.020000,-60.771468,1510.550000,-546.379257,546.420956,-275.115655,-0.000000,0.000000,-0.000000,611.773802,-611.732103,0.158454,0.000000,-0.000000,0.000000
0.350000,-1.390000,0.933836,0.020000,-56.625081,1578.550000,-535.213412,535.198140,-287.917716,-0.000000,0.000000,-0.000000,607.727353,-607.742626,0.126876,0.000000,-0.000000,0.000000
0.350000,-1.370000,0.914424,0.020000,-73.627375,1550.950000,-547.885153,547.906306,-299.666020,-0.000000,0.000000,-0.000000,624.501914,-624.480761,0.151075,0.000000,-0.000000,0.000000
0.330000,-1.370000,0.909769,0.020000,-77.888676,1482.950000,-559.703497,559.743581,-286.428717,-0.000000,0.000000,-0.000000,628.774228,-628.734145,0.153061,0.000000,-0.000000,0.000000
0.370000,-1.390000,0.938798,0.020000,-52.264637,1650.550000,-523.469440,523.548875,-300.167707,-0.000000,0.000000,-0.000000,603.498463,-603.419027,0.183445,0.000000,-0.000000,0.000000
0.390000,-1.390000,0.944158,0.020000,-47.694785,1726.550000,-511.797814,511.588508,-311.775171,-0.000000,0.000000,-0.000000,599.089506,-599.298813,0.087362,0.000000,-0.000000,0.000000
0.390000,-1.370000,0.924962,0.020000,-64.452240,1698.950000,-523.042380,523.050033,-324.220366,-0.000000,0.000000,-0.000000,615.386764,-615.379111,0.141997,0.000000,-0.000000,0.000000
0.370000,-1.370000,0.919490,0.020000,-69.146931,1622.950000,-535.630390,535.655885,-312.265843,-0.000000,0.000000,-0.000000,620.031702,-620.006207,0.152723,0.000000,-0.000000,0.000000
0.410000,-1.390000,0.949908,0.020000,-42.920319,1806.550000,-499.940068,499.579366,-322.962473,-0.000000,0.000000,-0.000000,594.852869,-595.213570,0.037938,0.000000,-0.000000,0.000000
0.430000,-1.390000,0.955936,0.020000,-37.946151,1890.550000,-486.264374,486.927727,-332.050962,-0.000000,0.000000,-0.000000,589.426783,-588.763430,-0.716806,0.000000,-0.000000,-0.000000
0.430000,-1.370000,0.936732,0.020000,-54.440418,1862.950000,-496.965488,496.906162,-346.170700,-0.000000,0.000000,-0.000000,605.593450,-605.652776,0.112055,0.000000,-0.000000,0.000000
0.410000,-1.370000,0.930831,0.020000,-59.548346,1778.950000,-510.063528,510.104382,-335.528599,-0.000000,0.000000,-0.000000,610.565312,-610.524458,0.157924,0.000000,-0.000000,0.000000
0.450000,-1.390000,0.961658,0.020000,-32.777323,1978.550000,-472.998929,473.536845,-342.938859,-0.000000,0.000000,-0.000000,584.725367,-584.187451,0.510130,0.000000,-0.000000,0.000000
0.470000,-1.390000,0.967760,0.020000,-27.418949,2070.550000,-463.861556,458.582131,-357.270316,-0.000000,0.000000,-0.000000,580.756579,-586.036004,4.054112,0.000000,-0.000000,0.000000
0.470000,-1.370000,0.948795,0.020000,-43.633708,2042.950000,-469.944582,469.518719,-365.711432,-0.000000,0.000000,-0.000000,595.095866,-595.521729,0.332592,0.000000,-0.000000,0.000000
0.450000,-1.370000,0.942571,0.020000,-49.133749,1950.950000,-483.285478,483.427129,-356.174615,-0.000000,0.000000,-0.000000,600.482048,-600.340397,0.192581,0.000000,-0.000000,0.000000
0.490000,-1.390000,0.974234,0.020000,-21.876194,2166.550000,-460.039815,445.330690,-371.172393,-0.000000,0.000000,-0.000000,578.021775,-592.730900,5.237012,0.000000,-0.000000,0.000000
0.510000,-1.390000,0.981073,0.020000,-16.154738,2266.550000,-467.304190,434.210314,-384.047933,-0.000000,0.000000,-0.000000,575.629545,-608.723420,1.388793,0.000000,-0.000000,0.000000
0.510000,-1.370000,0.962371,0.020000,-32.075449,2238.950000,-451.303284,443.528955,-386.006977,-0.000000,0.000000,-0.000000,587.029322,-594.803651,-0.525599,0.000000,-0.000000,-0.000000
0.490000,-1.370000,0.955398,0.020000,-37.945796,2138.950000,-458.782524,455.923117,-376.650294,-0.000000,0.000000,-0.000000,591.052952,-593.912359,1.161694,0.000000,-0.000000,0.000000
0.530000,-1.390000,0.988270,0.020000,-10.257615,2370.550000,-469.390576,417.806261,-386.121735,-0.000000,0.000000,-0.000000,562.269963,-613.854279,-7.245233,0.000000,-0.000000,-0.000000
0.550000,-1.390000,0.995817,0.020000,-4.200318,2478.550000,-447.775631,409.928539,-390.790182,-0.000000,0.000000,-0.000000,561.214083,-599.061175,-8.450352,0.000000,-0.000000,-0.000000
0.550000,-1.370000,0.977158,0.020000,-19.809909,2450.950000,-428.357070,413.653656,-402.588830,-0.000000,0.000000,-0.000000,575.162843,-589.866257,-0.284127,0.000000,-0.000000,-0.000000
0.530000,-1.370000,0.969707,0.020000,-26.028522,2342.950000,-440.989294,429.794967,-391.598005,-0.000000,0.000000,-0.000000,579.982809,-591.177135,-3.376604,0.000000,-0.000000,-0.000000
0.590000,-1.370000,0.992083,0.020000,-6.881603,2678.950000,-397.234594,391.504019,-409.720505,-0.000000,0.000000,-0.000000,565.793573,-571.524148,-5.014253,0.000000,-0.000000,-0.000000
0.570000,-1.370000,0.984446,0.020000,-13.427061,2562.950000,-419.328782,403.274366,-409.689118,-0.000000,0.000000,-0.000000,572.494414,-588.548830,-2.967248,0.000000,-0.000000,-0.000000
0.610000,-1.370000,1.000063,0.020000,-0.179211,2798.950000,-363.170760,371.286888,-418.456543,-0.000000,0.000000,-0.000000,560.756241,-552.640113,7.072988,0.000000,-0.000000,0.000000
-0.690000,-1.330000,0.998897,0.020000,-1.318659,3264.950000,-384.204414,311.558250,497.072996,-0.000000,0.000000,0.000000,570.389061,-643.035225,-1.832772,0.000000,-0.000000,-0.000000
-0.650000,-1.350000,0.998755,0.020000,-1.305017,3023.750000,-376.837460,337.558299,461.242214,-0.000000,0.000000,0.000000,563.682076,-602.961236,-8.399475,0.000000,-0.000000,-0.000000
-0.650000,-1.330000,0.980736,0.020000,-16.386289,2996.950000,-363.311489,344.546522,462.405380,-0.000000,0.000000,0.000000,572.906882,-591.671849,-4.855049,0.000000,-0.000000,-0.000000
-0.670000,-1.330000,0.989656,0.020000,-8.904197,3128.950000,-376.539725,313.075697,475.479669,-0.000000,0.000000,0.000000,555.582462,-619.046490,-5.914357,0.000000,-0.000000,-0.000000
-0.630000,-1.350000,0.990321,0.020000,-8.454172,2895.750000,-377.547982,352.464646,444.019770,-0.000000,0.000000,0.000000,562.222066,-587.305401,-5.460415,0.000000,-0.000000,-0.000000
-0.610000,-1.350000,0.982222,0.020000,-15.475280,2771.750000,-372.731478,375.974250,432.226663,-0.000000,0.000000,0.000000,573.406088,-570.163317,-4.712652,0.000000,-0.000000,-0.000000
-0.610000,-1.330000,0.963894,0.020000,-30.913701,2744.950000,-381.238683,379.395970,444.164443,-0.000000,0.000000,0.000000,583.818703,-585.661416,-1.544138,0.000000,-0.000000,-0.000000
-0.630000,-1.330000,0.972146,0.020000,-23.722416,2868.950000,-371.198780,364.623644,451.310473,-0.000000,0.000000,0.000000,578.982389,-585.557526,-1.224656,0.000000,-0.000000,-0.000000
-0.590000,-1.350000,0.974134,0.020000,-22.339817,2651.750000,-392.140523,392.415698,422.461388,-0.000000,0.000000,0.000000,576.639863,-576.364688,0.931521,0.000000,-0.000000,0.000000
-0.570000,-1.350000,0.965975,0.020000,-29.049845,2535.750000,-411.935830,407.701136,417.847913,-0.000000,0.000000,0.000000,583.154190,-587.388884,2.301207,0.000000,-0.000000,0.000000
-0.570000,-1.330000,0.947672,0.020000,-44.832872,2508.950000,-411.415688,411.473233,431.614050,-0.000000,0.000000,0.000000,596.331678,-596.274134,0.277678,0.000000,-0.000000,0.000000
-0.590000,-1.330000,0.955987,0.020000,-37.952461,2624.950000,-395.360511,396.101945,436.728274,-0.000000,0.000000,0.000000,589.721819,-588.980384,0.263136,0.000000,-0.000000,0.000000
-0.550000,-1.350000,0.958165,0.020000,-35.597080,2423.750000,-424.515715,421.053857,412.849770,-0.000000,0.000000,0.000000,589.193674,-592.655532,0.142944,0.000000,-0.000000,0.000000
-0.530000,-1.350000,0.950711,0.020000,-41.976287,2315.750000,-435.979641,435.076284,404.561951,-0.000000,0.000000,0.000000,593.984976,-594.888333,-0.205472,0.000000,-0.000000,-0.000000
-0.530000,-1.330000,0.932108,0.020000,-58.093775,2288.950000,-442.321757,442.331918,418.909593,-0.000000,0.000000,0.000000,609.216262,-609.206101,0.124354,0.000000,-0.000000,0.000000
-0.550000,-1.330000,0.939710,0.020000,-51.548701,2396.950000,-426.999019,426.958564,425.710374,-0.000000,0.000000,0.000000,602.922699,-602.963153,0.197103,0.000000,-0.000000,0.000000
-0.510000,-1.350000,0.943622,0.020000,-48.181363,2211.750000,-450.272430,450.029911,396.384201,-0.000000,0.000000,0.000000,599.675741,-599.918260,0.262886,0.000000,-0.000000,0.000000
-0.490000,-1.350000,0.936907,0.020000,-54.206477,2111.750000,-464.503692,464.565470,388.232840,-0.000000,0.000000,0.000000,605.437448,-605.375670,0.116166,0.000000,-0.000000,0.000000
-0.490000,-1.330000,0.918024,0.020000,-70.646939,2084.950000,-473.110966,473.117573,403.169521,-0.000000,0.000000,0.000000,621.600242,-621.593635,0.145135,0.000000,-0.000000,0.000000
-0.510000,-1.330000,0.924877,0.020000,-64.461910,2184.950000,-457.776883,457.780949,411.400981,-0.000000,0.000000,0.000000,615.479312,-615.475246,0.148387,0.000000,-0.000000,0.000000
-0.470000,-1.350000,0.930390,0.020000,-60.045759,2015.750000,-479.111398,479.102806,379.414049,-0.000000,0.000000,0.000000,611.141032,-611.149624,0.155316,0.000000,-0.000000,0.000000
-0.450000,-1.350000,0.923633,0.020000,-65.693413,1923.750000,-493.417847,493.435638,369.892260,-0.000000,0.000000,0.000000,616.685645,-616.667854,0.142238,0.000000,-0.000000,0.000000
-0.450000,-1.330000,0.904765,0.020000,-82.443179,1896.950000,-503.383348,503.409090,384.491000,-0.000000,0.000000,0.000000,633.448786,-633.423045,0.151452,0.000000,-0.000000,0.000000
-0.470000,-1.330000,0.911559,0.020000,-76.642725,1988.950000,-488.337903,488.347227,394.204118,-0.000000,0.000000,0.000000,627.599535,-627.590211,0.149714,0.000000,-0.000000,0.000000
-0.430000,-1.350000,0.917262,0.020000,-71.143700,1835.750000,-507.569923,507.582006,359.668758,-0.000000,0.000000,0.000000,622.095226,-622.083142,0.150512,0.000000,-0.000000,0.000000
-0.410000,-1.350000,0.911286,0.020000,-76.390966,1751.750000,-521.456985,521.474357,348.744053,-0.000000,0.000000,0.000000,627.343396,-627.326023,0.150877,0.000000,-0.000000,0.000000
-0.410000,-1.330000,0.892157,0.020000,-93.434075,1724.950000,-532.554918,532.783806,362.845811,-0.000000,0.000000,0.000000,644.624901,-644.396014,0.044208,0.000000,-0.000000,0.000000
-0.430000,-1.330000,0.898260,0.020000,-88.042277,1808.950000,-517.955841,518.172785,374.041969,-0.000000,0.000000,0.000000,639.090495,-638.873550,0.040681,0.000000,-0.000000,0.000000
-0.390000,-1.350000,0.905712,0.020000,-81.429655,1671.750000,-535.062024,535.080787,337.120311,-0.000000,0.000000,0.000000,632.426561,-632.407799,0.154169,0.000000,-0.000000,0.000000
-0.370000,-1.350000,0.900548,0.020000,-86.254326,1595.750000,-548.332456,548.354140,324.803522,-0.000000,0.000000,0.000000,637.331543,-637.309859,0.156241,0.000000,-0.000000,0.000000
-0.370000,-1.330000,0.881186,0.020000,-103.572509,1568.950000,-560.811709,561.059353,338.243331,-0.000000,0.000000,0.000000,655.148417,-654.900773,0.031291,0.000000,-0.000000,0.000000
-0.390000,-1.330000,0.886463,0.020000,-98.612728,1644.950000,-546.855097,547.100631,350.909293,-0.000000,0.000000,0.000000,649.985917,-649.740383,0.044087,0.000000,-0.000000,0.000000
-0.350000,-1.350000,0.895503,0.020000,-90.859673,1523.750000,-561.245983,561.235721,311.835435,-0.000000,0.000000,0.000000,642.048306,-642.058567,0.129751,0.000000,-0.000000,0.000000
-0.330000,-1.350000,0.890316,0.020000,-95.240537,1455.750000,-573.580250,573.515822,298.323181,-0.000000,0.000000,0.000000,646.461453,-646.525882,-0.090765,0.000000,-0.000000,-0.000000
-0.330000,-1.330000,0.870959,0.020000,-112.813238,1428.950000,-585.364301,585.832240,310.583654,-0.000000,0.000000,0.000000,663.096607,-662.628667,-0.815158,0.000000,-0.000000,-0.000000
-0.350000,-1.330000,0.876262,0.020000,-108.307824,1496.950000,-574.192908,574.571238,324.630838,-0.000000,0.000000,0.000000,659.961796,-659.583466,0.146715,0.000000,-0.000000,0.000000
-0.310000,-1.350000,0.885550,0.020000,-99.391929,1391.750000,-589.765886,586.951100,285.010123,-0.000000,0.000000,0.000000,652.348249,-655.163036,0.216086,0.000000,-0.000000,0.000000
-0.290000,-1.350000,0.881212,0.020000,-103.309043,1331.750000,-598.244794,597.097727,267.744120,-0.000000,0.000000,0.000000,654.328054,-655.475120,1.327084,0.000000,-0.000000,0.000000
-0.290000,-1.330000,0.861651,0.020000,-121.113489,1304.950000,-609.122382,609.477811,278.756290,-0.000000,0.000000,0.000000,670.216250,-669.860820,0.197246,0.000000,-0.000000,0.000000
-0.310000,-1.330000,0.866087,0.020000,-117.083484,1364.950000,-600.687100,600.298999,296.739230,-0.000000,0.000000,0.000000,669.616106,-670.004207,-0.653520,0.000000,-0.000000,-0.000000
-0.270000,-1.350000,0.877309,0.020000,-106.987276,1275.750000,-612.337337,609.109481,254.387770,-0.000000,0.000000,0.000000,659.972207,-663.200063,0.074139,0.000000,-0.000000,0.000000
-0.250000,-1.350000,0.873846,0.020000,-110.422242,1223.750000,-620.229141,617.963615,234.958977,-0.000000,0.000000,0.000000,661.045982,-663.311508,2.314194,0.000000,-0.000000,0.000000
-0.250000,-1.330000,0.854116,0.020000,-128.433552,1196.950000,-631.767214,632.048929,245.339435,-0.000000,0.000000,0.000000,678.004054,-677.722339,0.858172,0.000000,-0.000000,0.000000
-0.270000,-1.330000,0.857659,0.020000,-124.898391,1248.950000,-622.676904,624.446173,267.809033,-0.000000,0.000000,0.000000,679.514679,-677.745411,-3.454350,0.000000,-0.000000,-0.000000
-0.230000,-1.350000,0.870191,0.020000,-113.609792,1175.750000,-632.511937,629.155093,221.640128,-0.000000,0.000000,0.000000,666.958406,-670.315250,-0.248885,0.000000,-0.000000,-0.000000
-0.210000,-1.350000,0.866721,0.020000,-116.546027,1131.750000,-639.420230,636.905474,200.890310,-0.000000,0.000000,0.000000,667.773813,-670.288570,2.450986,0.000000,-0.000000,0.000000
-0.210000,-1.330000,0.846993,0.020000,-134.737363,1104.950000,-651.631236,652.083445,209.661825,-0.000000,0.000000,0.000000,684.969974,-684.517766,1.380472,0.000000,-0.000000,0.000000
-0.230000,-1.330000,0.850543,0.020000,-131.714585,1148.950000,-643.668174,645.422062,233.713389,-0.000000,0.000000,0.000000,686.476501,-684.722613,-3.688370,0.000000,-0.000000,-0.000000
-0.190000,-1.350000,0.863700,0.020000,-119.227313,1091.750000,-649.984449,646.528981,186.760538,-0.000000,0.000000,0.000000,672.895075,-676.350542,-0.577494,0.000000,-0.000000,-0.000000
-0.170000,-1.350000,0.861133,0.020000,-121.650299,1055.750000,-655.799760,653.052930,164.856312,-0.000000,0.000000,0.000000,673.493248,-676.240078,2.536140,0.000000,-0.000000,0.000000
-0.170000,-1.330000,0.841274,0.020000,-139.993064,1028.950000,-668.580328,669.203999,171.867039,-0.000000,0.000000,0.000000,690.928500,-690.304829,1.904766,0.000000,-0.000000,0.000000
-0.190000,-1.330000,0.843901,0.020000,-137.498040,1064.950000,-661.873587,663.593621,197.303689,-0.000000,0.000000,0.000000,692.329310,-690.609276,-3.846133,0.000000,-0.000000,-0.000000
-0.150000,-1.350000,0.859025,0.020000,-123.811925,1023.750000,-664.473224,660.952624,150.034132,-0.000000,0.000000,0.000000,677.723216,-681.243816,-0.901195,0.000000,-0.000000,-0.000000
-0.130000,-1.350000,0.857162,0.020000,-125.709441,995.750000,-669.100382,666.143493,127.169702,-0.000000,0.000000,0.000000,678.142484,-681.099373,2.564796,0.000000,-0.000000,0.000000
-0.130000,-1.330000,0.837303,0.020000,-144.173518,968.950000,-682.332730,683.125667,132.292760,-0.000000,0.000000,0.000000,695.820588,-695.027651,2.413955,0.000000,-0.000000,0.000000
-0.150000,-1.330000,0.839115,0.020000,-142.219196,996.950000,-676.993992,678.659692,158.882964,-0.000000,0.000000,0.000000,697.020803,-695.355103,-3.918889,0.000000,-0.000000,-0.000000
-0.110000,-1.350000,0.855055,0.020000,-127.340412,971.750000,-675.737517,672.187662,111.790277,-0.000000,0.000000,0.000000,681.395020,-684.944874,-1.209108,0.000000,-0.000000,-0.000000
-0.090000,-1.350000,0.853411,0.020000,-128.702734,951.750000,-679.098823,675.958387,88.183605,-0.000000,0.000000,0.000000,681.668347,-684.808783,2.534207,0.000000,-0.000000,0.000000
-0.090000,-1.330000,0.833462,0.020000,-147.256759,924.950000,-692.653221,693.609995,91.321589,-0.000000,0.000000,0.000000,699.594045,-698.637271,2.890632,0.000000,-0.000000,0.000000
-0.110000,-1.330000,0.835145,0.020000,-145.853450,944.950000,-688.773746,690.364742,118.804385,-0.000000,0.000000,0.000000,700.513303,-698.922307,-3.900945,0.000000,-0.000000,-0.000000
-0.070000,-1.350000,0.852233,0.020000,-129.794638,935.750000,-683.585668,680.043957,72.395913,-0.000000,0.000000,0.000000,683.875106,-687.416818,-1.490539,0.000000,-0.000000,-0.000000
-0.050000,-1.350000,0.851524,0.020000,-130.614702,923.750000,-685.623586,682.330069,48.283831,-0.000000,0.000000,0.000000,684.027840,-687.321357,2.444000,0.000000,-0.000000,0.000000
-0.050000,-1.330000,0.831530,0.020000,-149.226370,896.950000,-699.361383,700.473379,49.372411,-0.000000,0.000000,0.000000,702.204746,-701.092750,3.318045,0.000000,-0.000000,0.000000
-0.070000,-1.330000,0.832256,0.020000,-148.381569,908.950000,-697.008795,698.505401,77.463432,-0.000000,0.000000,0.000000,702.781910,-701.285304,-3.790237,0.000000,-0.000000,-0.000000
-0.030000,-1.350000,0.851284,0.020000,-131.161853,915.750000,-687.881843,684.386235,32.247200,-0.000000,0.000000,0.000000,685.141407,-688.637016,-1.735573,0.000000,-0.000000,-0.000000
-0.010000,-1.350000,0.850728,0.020000,-131.435376,911.750000,-688.561039,685.148144,7.879640,-0.000000,0.000000,0.000000,685.189502,-688.602398,2.296290,0.000000,-0.000000,0.000000
-0.010000,-1.330000,0.830733,0.020000,-150.071774,884.950000,-702.338122,703.593721,6.890054,-0.000000,0.000000,0.000000,703.617849,-702.362250,3.681043,0.000000,-0.000000,0.000000
-0.030000,-1.330000,0.831284,0.020000,-149.790025,888.950000,-701.553967,702.937764,35.288658,-0.000000,0.000000,0.000000,703.814695,-702.430898,-3.588613,0.000000,-0.000000,-0.000000
0.010000,-1.350000,0.850494,0.020000,-131.434913,911.750000,-688.550917,685.138927,-8.240192,-0.000000,0.000000,-0.000000,685.185628,-688.597617,-1.935634,0.000000,-0.000000,-0.000000
0.030000,-1.350000,0.850731,0.020000,-131.160467,915.750000,-687.859541,684.363356,-32.606606,-0.000000,0.000000,-0.000000,685.134516,-688.630702,2.095627,0.000000,-0.000000,0.000000
0.030000,-1.330000,0.830736,0.020000,-149.788418,888.950000,-701.530078,702.914955,-35.666343,-0.000000,0.000000,-0.000000,703.808939,-702.424062,3.966967,0.000000,-0.000000,0.000000
0.010000,-1.330000,0.830494,0.020000,-150.071237,884.950000,-702.328293,703.582674,-7.269120,-0.000000,0.000000,-0.000000,703.612503,-702.358122,-3.301864,0.000000,-0.000000,-0.000000
0.050000,-1.350000,0.851437,0.020000,-130.612403,923.750000,-685.581218,682.288919,-48.641746,-0.000000,0.000000,-0.000000,684.013280,-687.305579,-2.083976,0.000000,-0.000000,-0.000000
0.070000,-1.350000,0.852613,0.020000,-129.791442,935.750000,-683.531333,679.989382,-72.750417,-0.000000,0.000000,-0.000000,683.857489,-687.399440,1.848775,0.000000,-0.000000,0.000000
0.070000,-1.330000,0.832663,0.020000,-148.377859,908.950000,-696.951613,698.449144,-77.835660,-0.000000,0.000000,-0.000000,702.765039,-701.267509,4.166363,0.000000,-0.000000,0.000000
0.050000,-1.330000,0.831460,0.020000,-149.223703,896.950000,-699.318013,700.428674,-49.748745,-0.000000,0.000000,-0.000000,702.188422,-701.077760,-2.939467,0.000000,-0.000000,-0.000000
0.090000,-1.350000,0.853819,0.020000,-128.698663,951.750000,-679.024952,675.886021,-88.535166,-0.000000,0.000000,-0.000000,681.643295,-684.782226,-2.176050,0.000000,-0.000000,-0.000000
0.110000,-1.350000,0.854999,0.020000,-127.335495,971.750000,-675.652095,672.102338,-112.136254,-0.000000,0.000000,-0.000000,681.366831,-684.916588,1.564341,0.000000,-0.000000,0.000000
0.110000,-1.330000,0.835050,0.020000,-145.847731,944.950000,-688.684288,690.276037,-119.167228,-0.000000,0.000000,-0.000000,700.485420,-698.893671,4.273493,0.000000,-0.000000,0.000000
0.090000,-1.330000,0.833842,0.020000,-147.252029,924.950000,-692.577085,693.532434,-91.691150,-0.000000,0.000000,-0.000000,699.566972,-698.611623,-2.514087,0.000000,-0.000000,-0.000000
0.130000,-1.350000,0.856645,0.020000,-125.703712,995.750000,-668.996286,666.041156,-127.511358,-0.000000,0.000000,-0.000000,678.107239,-681.062370,-2.209722,0.000000,-0.000000,-0.000000
0.150000,-1.350000,0.858753,0.020000,-123.805425,1023.750000,-664.358184,660.838008,-150.368173,-0.000000,0.000000,-0.000000,677.684727,-681.204903,1.252294,0.000000,-0.000000,0.000000
0.150000,-1.330000,0.838893,0.020000,-142.211615,996.950000,-676.873823,678.540097,-159.232741,-0.000000,0.000000,-0.000000,696.982126,-695.315852,4.286581,0.000000,-0.000000,0.000000
0.130000,-1.330000,0.836735,0.020000,-144.166846,968.950000,-682.225170,683.016620,-132.651692,-0.000000,0.000000,-0.000000,695.783094,-694.991644,-2.040845,0.000000,-0.000000,-0.000000
0.170000,-1.350000,0.861321,0.020000,-121.643073,1055.750000,-655.667209,652.922354,-165.184765,-0.000000,0.000000,-0.000000,673.448210,-676.193064,-2.185325,0.000000,-0.000000,-0.000000
0.190000,-1.350000,0.864304,0.020000,-119.219415,1091.750000,-649.841728,646.386994,-187.079535,-0.000000,0.000000,-0.000000,672.846665,-676.301399,0.923391,0.000000,-0.000000,0.000000
0.190000,-1.330000,0.844444,0.020000,-137.488792,1064.950000,-661.724767,663.445192,-197.637059,-0.000000,0.000000,-0.000000,692.280169,-690.559744,4.207782,0.000000,-0.000000,0.000000
0.170000,-1.330000,0.841522,0.020000,-139.984622,1028.950000,-668.443208,669.065358,-172.211761,-0.000000,0.000000,-0.000000,690.881000,-690.258850,-1.536446,0.000000,-0.000000,-0.000000
0.210000,-1.350000,0.866870,0.020000,-116.537512,1131.750000,-639.261421,636.748814,-201.202587,-0.000000,0.000000,-0.000000,667.719464,-670.232071,-2.105551,0.000000,-0.000000,-0.000000
0.230000,-1.350000,0.869889,0.020000,-113.600723,1175.750000,-632.343874,628.988049,-221.941341,-0.000000,0.000000,-0.000000,666.900555,-670.256380,0.588587,0.000000,-0.000000,0.000000
0.230000,-1.330000,0.850160,0.020000,-131.703912,1148.950000,-643.493183,645.247282,-234.027421,-0.000000,0.000000,-0.000000,686.417336,-684.663238,4.042895,0.000000,-0.000000,0.000000
0.210000,-1.330000,0.847071,0.020000,-134.727370,1104.950000,-651.466871,651.917554,-209.989123,-0.000000,0.000000,-0.000000,684.912960,-684.462277,-1.018219,0.000000,-0.000000,-0.000000
0.250000,-1.350000,0.873355,0.020000,-110.412686,1223.750000,-620.046624,617.783378,-235.252496,-0.000000,0.000000,-0.000000,660.982879,-663.246126,-1.975189,0.000000,-0.000000,-0.000000
0.270000,-1.350000,0.877264,0.020000,-106.977305,1275.750000,-612.146595,608.920012,-254.668875,-0.000000,0.000000,-0.000000,659.905479,-663.132062,0.258460,0.000000,-0.000000,0.000000
0.270000,-1.330000,0.857705,0.020000,-124.886577,1248.950000,-622.478556,624.247849,-268.101261,-0.000000,0.000000,-0.000000,679.446009,-677.676716,3.800786,0.000000,-0.000000,0.000000
0.250000,-1.330000,0.853706,0.020000,-128.422271,1196.950000,-631.578293,631.858504,-245.646527,-0.000000,0.000000,-0.000000,677.938083,-677.657871,-0.503168,0.000000,-0.000000,-0.000000
0.290000,-1.350000,0.881609,0.020000,-103.298733,1331.750000,-598.041446,596.896582,-268.016552,-0.000000,0.000000,-0.000000,654.256632,-655.401497,-0.995628,0.000000,-0.000000,-0.000000
0.310000,-1.350000,0.885950,0.020000,-99.381360,1391.750000,-589.555301,586.741932,-285.269110,-0.000000,0.000000,-0.000000,652.273091,-655.086460,0.108517,0.000000,-0.000000,0.000000
0.310000,-1.330000,0.866388,0.020000,-117.070851,1364.950000,-600.466909,600.078620,-297.007871,-0.000000,0.000000,-0.000000,669.537207,-669.925496,0.991874,0.000000,-0.000000,0.000000
0.290000,-1.330000,0.862148,0.020000,-121.101224,1304.950000,-608.911722,609.265592,-279.040897,-0.000000,0.000000,-0.000000,670.141704,-669.787835,0.149549,0.000000,-0.000000,0.000000
0.330000,-1.350000,0.890280,0.020000,-95.229793,1455.750000,-573.362222,573.297839,-298.572236,-0.000000,0.000000,-0.000000,646.382949,-646.447332,0.412306,0.000000,-0.000000,0.000000
0.350000,-1.350000,0.895037,0.020000,-90.848841,1523.750000,-561.019665,561.010002,-312.072127,-0.000000,0.000000,-0.000000,641.966057,-641.975719,0.186940,0.000000,-0.000000,0.000000
0.350000,-1.330000,0.875678,0.020000,-108.294726,1496.950000,-573.954729,574.332854,-324.875650,-0.000000,0.000000,-0.000000,659.874781,-659.496656,0.183674,0.000000,-0.000000,0.000000
0.330000,-1.330000,0.870815,0.020000,-112.800326,1428.950000,-585.135649,585.601466,-310.843011,-0.000000,0.000000,-0.000000,663.013716,-662.547899,1.151815,0.000000,-0.000000,0.000000
0.370000,-1.350000,0.900213,0.020000,-86.243497,1595.750000,-548.099403,548.121043,-325.028751,-0.000000,0.000000,-0.000000,637.245848,-637.224209,0.156349,0.000000,-0.000000,0.000000
0.390000,-1.350000,0.905800,0.020000,-81.418921,1671.750000,-534.822688,534.841406,-337.333271,-0.000000,0.000000,-0.000000,632.337621,-632.318903,0.153626,0.000000,-0.000000,0.000000
0.390000,-1.330000,0.886676,0.020000,-98.599545,1644.950000,-546.603404,546.848643,-351.128210,-0.000000,0.000000,-0.000000,649.892031,-649.646792,0.276165,0.000000,-0.000000,0.000000
0.370000,-1.330000,0.880967,0.020000,-103.559318,1568.950000,-560.566452,560.813807,-338.475313,-0.000000,0.000000,-0.000000,655.057928,-654.810573,0.294095,0.000000,-0.000000,0.000000
0.410000,-1.350000,0.911793,0.020000,-76.380423,1751.750000,-521.212131,521.229460,-348.944615,-0.000000,0.000000,-0.000000,627.251392,-627.234063,0.151990,0.000000,-0.000000,0.000000
0.430000,-1.350000,0.917562,0.020000,-71.133447,1835.750000,-507.320313,507.332352,-359.856849,-0.000000,0.000000,-0.000000,622.000343,-621.988303,0.147307,0.000000,-0.000000,0.000000
0.430000,-1.330000,0.898428,0.020000,-88.029412,1808.950000,-517.693728,517.910386,-374.234452,-0.000000,0.000000,-0.000000,638.990417,-638.773759,0.268901,0.000000,-0.000000,0.000000
0.410000,-1.330000,0.892749,0.020000,-93.420999,1724.950000,-532.297615,532.526206,-363.051540,-0.000000,0.000000,-0.000000,644.527819,-644.299228,0.270767,0.000000,-0.000000,0.000000
0.450000,-1.350000,0.923522,0.020000,-65.683549,1923.750000,-493.164225,493.181976,-370.067859,-0.000000,0.000000,-0.000000,616.588071,-616.570320,0.150427,0.000000,-0.000000,0.000000
0.470000,-1.350000,0.929874,0.020000,-60.036385,2015.750000,-478.854496,478.845858,-379.577183,-0.000000,0.000000,-0.000000,611.040943,-611.049580,0.132104,0.000000,-0.000000,0.000000
0.470000,-1.330000,0.910999,0.020000,-76.630597,1988.950000,-488.068204,488.077484,-394.370131,-0.000000,0.000000,-0.000000,627.493986,-627.484706,0.148906,0.000000,-0.000000,0.000000
0.450000,-1.330000,0.904514,0.020000,-82.430629,1896.950000,-503.116872,503.142565,-384.670226,-0.000000,0.000000,-0.000000,633.345834,-633.320141,0.152769,0.000000,-0.000000,0.000000
0.490000,-1.350000,0.936610,0.020000,-54.197696,2111.750000,-464.244234,464.305975,-388.383585,-0.000000,0.000000,-0.000000,605.335054,-605.273313,0.165917,0.000000,-0.000000,0.000000
0.510000,-1.350000,0.943722,0.020000,-48.173279,2211.750000,-450.011051,449.768464,-396.522685,-0.000000,0.000000,-0.000000,599.571155,-599.813742,0.013851,0.000000,-0.000000,0.000000
0.510000,-1.330000,0.925130,0.020000,-64.450951,2184.950000,-457.502996,457.507016,-411.540912,-0.000000,0.000000,-0.000000,615.369164,-615.365143,0.138806,0.000000,-0.000000,0.000000
0.490000,-1.330000,0.917874,0.020000,-70.635341,2084.950000,-472.838804,472.845371,-403.322421,-0.000000,0.000000,-0.000000,621.492296,-621.485730,0.147805,0.000000,-0.000000,0.000000
0.530000,-1.350000,0.951202,0.020000,-41.969005,2315.750000,-435.717245,434.813431,-404.688913,-0.000000,0.000000,-0.000000,593.878643,-594.782457,0.477194,0.000000,-0.000000,0.000000
0.550000,-1.350000,0.958491,0.020000,-35.590705,2423.750000,-424.252956,420.790314,-412.964782,-0.000000,0.000000,-0.000000,589.085425,-592.548067,0.123219,0.000000,-0.000000,0.000000
0.550000,-1.330000,0.939879,0.020000,-51.539349,2396.950000,-426.723756,426.683226,-425.824972,-0.000000,0.000000,-0.000000,602.808708,-602.849237,0.078465,0.000000,-0.000000,0.000000
0.530000,-1.330000,0.932671,0.020000,-58.083565,2288.950000,-442.046834,442.056969,-419.036738,-0.000000,0.000000,-0.000000,609.104113,-609.093978,0.157037,0.000000,-0.000000,0.000000
0.570000,-1.350000,0.965920,0.020000,-29.044482,2535.750000,-411.670068,407.437639,-417.949765,-0.000000,0.000000,-0.000000,583.043764,-587.276193,-2.040520,0.000000,-0.000000,-0.000000
0.590000,-1.350000,0.973702,0.020000,-22.335571,2651.750000,-391.871387,392.151450,-422.551955,-0.000000,0.000000,-0.000000,576.527620,-576.247557,-0.674278,0.000000,-0.000000,-0.000000
0.590000,-1.330000,0.955387,0.020000,-37.945156,2624.950000,-395.085767,395.827473,-436.818354,-0.000000,0.000000,-0.000000,589.604434,-588.862728,0.000897,0.000000,-0.000000,0.000000
0.570000,-1.330000,0.947453,0.020000,-44.824488,2508.950000,-411.140508,411.198227,-431.716359,-0.000000,0.000000,-0.000000,596.216131,-596.158413,-0.007915,0.000000,-0.000000,-0.000000
0.610000,-1.350000,0.981831,0.020000,-15.472256,2771.750000,-372.460139,375.711642,-432.304396,-0.000000,0.000000,-0.000000,573.292350,-570.040846,4.964383,0.000000,-0.000000,0.000000
0.630000,-1.350000,0.990297,0.020000,-8.452476,2895.750000,-377.264191,352.209351,-444.084259,-0.000000,0.000000,-0.000000,562.112602,-587.167443,5.708422,0.000000,-0.000000,0.000000
0.630000,-1.330000,0.972294,0.020000,-23.717596,2868.950000,-370.920624,364.351606,-451.375804,-0.000000,0.000000,-0.000000,578.861729,-585.430748,1.478900,0.000000,-0.000000,0.000000
0.610000,-1.330000,0.963670,0.020000,-30.907584,2744.950000,-380.963645,379.123518,-444.241690,-0.000000,0.000000,-0.000000,583.699947,-585.540073,1.801998,0.000000,-0.000000,0.000000
0.650000,-1.350000,0.999092,0.020000,-1.304741,3023.750000,-376.545106,337.295925,-461.292156,-0.000000,0.000000,-0.000000,563.563140,-602.812322,8.647445,0.000000,-0.000000,0.000000
0.670000,-1.330000,0.989971,0.020000,-8.902296,3128.950000,-376.249908,312.812027,-475.520963,-0.000000,0.000000,-0.000000,555.464005,-618.901887,6.161322,0.000000,-0.000000,0.000000
0.650000,-1.330000,0.981250,0.020000,-16.382874,2996.950000,-363.029037,344.277657,-462.458436,-0.000000,0.000000,-0.000000,572.786171,-591.537551,5.105139,0.000000,-0.000000,0.000000
0.690000,-1.330000,0.998856,0.020000,-1.318368,3264.950000,-383.912059,311.286671,-497.104298,-0.000000,0.000000,-0.000000,570.262668,-642.888056,2.081319,0.000000,-0.000000,0.000000
-0.730000,-1.310000,1.000365,0.020000,-0.202326,3522.550000,-351.003942,287.881157,503.114257,-0.000000,0.000000,0.000000,564.357128,-627.479914,6.972446,0.000000,-0.000000,0.000000
-0.730000,-1.290000,0.982804,0.020000,-14.791229,3496.550000,-319.312161,289.828579,500.748210,-0.000000,0.000000,0.000000,571.347959,-600.831542,3.268757,0.000000,-0.000000,0.000000
-0.750000,-1.290000,0.992614,0.020000,-6.436258,3644.550000,-312.115932,270.657517,501.482696,-0.000000,0.000000,0.000000,559.240537,-600.698952,5.119902,0.000000,-0.000000,0.000000
-0.710000,-1.310000,0.991010,0.020000,-8.230104,3378.550000,-358.608455,288.883702,491.735337,-0.000000,0.000000,0.000000,553.871216,-623.595969,2.814713,0.000000,-0.000000,0.000000
-0.690000,-1.310000,0.981288,0.020000,-16.157841,3238.550000,-351.619435,316.614569,487.139568,-0.000000,0.000000,0.000000,573.208266,-608.213132,-0.016581,0.000000,-0.000000,-0.000000
-0.690000,-1.290000,0.963772,0.020000,-31.147367,3212.550000,-332.721340,323.674767,490.321381,-0.000000,0.000000,0.000000,585.500735,-594.547307,0.820659,0.000000,-0.000000,0.000000
-0.710000,-1.290000,0.973306,0.020000,-23.031585,3352.550000,-323.031774,307.273405,493.749744,-0.000000,0.000000,0.000000,577.872953,-593.631322,2.097044,0.000000,-0.000000,0.000000
-0.670000,-1.310000,0.971879,0.020000,-23.953452,3102.550000,-351.189617,335.439164,477.095449,-0.000000,0.000000,0.000000,579.903687,-595.654140,-0.887423,0.000000,-0.000000,-0.000000
-0.650000,-1.310000,0.962795,0.020000,-31.614184,2970.550000,-358.097082,351.354579,469.623155,-0.000000,0.000000,0.000000,585.164036,-591.906540,-1.592829,0.000000,-0.000000,-0.000000
-0.650000,-1.290000,0.944936,0.020000,-46.984331,2944.550000,-356.341138,355.944789,481.218289,-0.000000,0.000000,0.000000,598.474391,-598.870740,-0.109690,0.000000,-0.000000,-0.000000
-0.670000,-1.290000,0.954191,0.020000,-39.133898,3076.550000,-342.655132,340.085639,485.743445,-0.000000,0.000000,0.000000,592.415874,-594.985367,-0.086411,0.000000,-0.000000,-0.000000
-0.630000,-1.310000,0.954043,0.020000,-39.133636,2842.550000,-369.972809,369.199519,462.467524,-0.000000,0.000000,0.000000,591.618543,-592.391833,-0.022828,0.000000,-0.000000,-0.000000
-0.610000,-1.310000,0.945633,0.020000,-46.505413,2718.550000,-384.784788,384.793769,457.607172,-0.000000,0.000000,0.000000,597.890025,-597.881044,-0.025771,0.000000,-0.000000,-0.000000
-0.610000,-1.290000,0.927444,0.020000,-62.251166,2692.550000,-389.273467,389.249802,473.950204,-0.000000,0.000000,0.000000,613.301626,-613.325290,0.135692,0.000000,-0.000000,0.000000
-0.630000,-1.290000,0.936017,0.020000,-54.692286,2816.550000,-372.645173,372.691367,477.754069,-0.000000,0.000000,0.000000,605.936098,-605.889904,0.157714,0.000000,-0.000000,0.000000
-0.590000,-1.310000,0.937574,0.020000,-53.723197,2598.550000,-401.064780,401.095002,452.944984,-0.000000,0.000000,0.000000,605.014456,-604.984234,0.174672,0.000000,-0.000000,0.000000
-0.570000,-1.310000,0.929440,0.020000,-60.780557,2482.550000,-417.161872,417.146292,447.608234,-0.000000,0.000000,0.000000,611.850561,-611.866142,0.130000,0.000000,-0.000000,0.000000
-0.570000,-1.290000,0.911281,0.020000,-76.895108,2456.550000,-422.831389,422.839783,464.112183,-0.000000,0.000000,0.000000,627.849744,-627.841350,0.142272,0.000000,-0.000000,0.000000
-0.590000,-1.290000,0.919226,0.020000,-69.654338,2572.550000,-405.999412,405.996994,469.396616,-0.000000,0.000000,0.000000,620.617598,-620.620016,0.141397,0.000000,-0.000000,0.000000
-0.550000,-1.310000,0.921319,0.020000,-67.671052,2370.550000,-433.333257,433.336624,441.527643,-0.000000,0.000000,0.000000,618.650056,-618.646690,0.144741,0.000000,-0.000000,0.000000
-0.530000,-1.310000,0.913565,0.020000,-74.388212,2262.550000,-449.518265,449.518368,434.719957,-0.000000,0.000000,0.000000,625.338470,-625.338366,0.145745,0.000000,-0.000000,0.000000
-0.530000,-1.290000,0.895084,0.020000,-90.862458,2236.550000,-456.513111,456.643129,451.268039,-0.000000,0.000000,0.000000,642.020162,-641.890144,0.067336,0.000000,-0.000000,0.000000
-0.550000,-1.290000,0.902997,0.020000,-83.966736,2344.550000,-439.577225,439.698711,458.079250,-0.000000,0.000000,0.000000,634.976594,-634.855108,0.063852,0.000000,-0.000000,0.000000
-0.510000,-1.310000,0.906186,0.020000,-80.925567,2158.550000,-465.675655,465.679879,427.159280,-0.000000,0.000000,0.000000,631.920470,-631.916246,0.149135,0.000000,-0.000000,0.000000
-0.490000,-1.310000,0.899191,0.020000,-87.276652,2058.550000,-481.767976,481.774097,418.834623,-0.000000,0.000000,0.000000,638.380496,-638.374374,0.152210,0.000000,-0.000000,0.000000
-0.490000,-1.290000,0.880408,0.020000,-104.099077,2032.550000,-490.283636,490.435853,435.270848,-0.000000,0.000000,0.000000,655.753916,-655.601700,0.045742,0.000000,-0.000000,0.000000
-0.510000,-1.290000,0.887551,0.020000,-97.575496,2132.550000,-473.427269,473.574860,443.669369,-0.000000,0.000000,0.000000,648.954188,-648.806597,0.062835,0.000000,-0.000000,0.000000
-0.470000,-1.310000,0.892589,0.020000,-93.435032,1962.550000,-497.650881,497.859231,409.541547,-0.000000,0.000000,0.000000,644.684878,-644.476528,0.304107,0.000000,-0.000000,0.000000
-0.450000,-1.310000,0.885947,0.020000,-99.394315,1870.550000,-513.499858,513.449683,400.014423,-0.000000,0.000000,0.000000,650.872659,-650.922834,-0.039131,0.000000,-0.000000,-0.000000
-0.450000,-1.290000,0.867181,0.020000,-116.550892,1844.550000,-521.864971,521.575847,416.520034,-0.000000,0.000000,0.000000,667.446947,-667.736070,-1.643784,0.000000,-0.000000,-0.000000
-0.470000,-1.290000,0.873665,0.020000,-110.426446,1936.550000,-506.775719,507.093896,425.806096,-0.000000,0.000000,0.000000,662.196640,-661.878464,0.098562,0.000000,-0.000000,0.000000
-0.430000,-1.310000,0.879303,0.020000,-105.148171,1782.550000,-533.041106,530.634758,389.809233,-0.000000,0.000000,0.000000,658.191525,-660.597873,1.206058,0.000000,-0.000000,0.000000
-0.410000,-1.310000,0.873067,0.020000,-110.690349,1698.550000,-544.499738,544.113160,376.783906,-0.000000,0.000000,0.000000,661.799947,-662.186525,0.760270,0.000000,-0.000000,0.000000
-0.410000,-1.290000,0.854019,0.020000,-128.164472,1672.550000,-553.128195,552.926690,392.679631,-0.000000,0.000000,0.000000,678.157935,-678.359440,-1.340628,0.000000,-0.000000,-0.000000
-0.430000,-1.290000,0.860393,0.020000,-122.465760,1756.550000,-540.878202,540.406297,405.526954,-0.000000,0.000000,0.000000,675.594019,-676.065925,-0.036214,0.000000,-0.000000,-0.000000
-0.390000,-1.310000,0.867248,0.020000,-116.014697,1618.550000,-563.754895,560.867331,366.078362,-0.000000,0.000000,0.000000,669.530124,-672.417689,1.082826,0.000000,-0.000000,0.000000
-0.370000,-1.310000,0.861853,0.020000,-121.115181,1542.550000,-574.861216,573.051462,350.441228,-0.000000,0.000000,0.000000,671.577355,-673.387110,1.606307,0.000000,-0.000000,0.000000
-0.370000,-1.290000,0.842551,0.020000,-138.887639,1516.550000,-584.403283,583.830182,366.129151,-0.000000,0.000000,0.000000,689.091552,-689.664653,-0.863191,0.000000,-0.000000,-0.000000
-0.390000,-1.290000,0.848069,0.020000,-133.640552,1592.550000,-571.714011,573.560611,384.094113,-0.000000,0.000000,0.000000,690.441585,-688.594986,-2.512188,0.000000,-0.000000,-0.000000
-0.350000,-1.310000,0.856892,0.020000,-125.985907,1470.550000,-594.364171,593.974340,338.399120,-0.000000,0.000000,0.000000,683.575409,-683.965240,3.035119,0.000000,-0.000000,0.000000
-0.330000,-1.310000,0.851633,0.020000,-130.621138,1402.550000,-603.406858,601.962582,320.989121,-0.000000,0.000000,0.000000,682.106397,-683.550672,2.842462,0.000000,-0.000000,0.000000
-0.330000,-1.290000,0.832338,0.020000,-148.670125,1376.550000,-612.854915,612.710065,337.634222,-0.000000,0.000000,0.000000,699.567228,-699.712078,-1.898325,0.000000,-0.000000,-0.000000
-0.350000,-1.290000,0.837475,0.020000,-143.899515,1444.550000,-601.706050,604.131408,357.858327,-0.000000,0.000000,0.000000,702.324054,-699.898696,-4.051710,0.000000,-0.000000,-0.000000
0.330000,-1.310000,0.851375,0.020000,-130.605966,1402.550000,-603.159147,601.717185,-321.255009,-0.000000,0.000000,-0.000000,682.016390,-683.458351,-2.491501,0.000000,-0.000000,-0.000000
0.350000,-1.310000,0.856348,0.020000,-125.970447,1470.550000,-594.110732,593.722733,-338.649177,-0.000000,0.000000,-0.000000,683.482167,-683.870166,-2.692437,0.000000,-0.000000,-0.000000
0.350000,-1.290000,0.837049,0.020000,-143.881592,1444.550000,-601.444712,603.871608,-358.117071,-0.000000,0.000000,-0.000000,702.230763,-699.803867,4.406671,0.000000,-0.000000,0.000000
0.330000,-1.290000,0.831962,0.020000,-148.652596,1376.550000,-612.599489,612.453561,-337.913242,-0.000000,0.000000,-0.000000,699.476154,-699.622082,2.265984,0.000000,-0.000000,0.000000
0.370000,-1.310000,0.861756,0.020000,-121.099532,1542.550000,-574.598768,572.791566,-350.681284,-0.000000,0.000000,-0.000000,671.481636,-673.288838,-1.265090,0.000000,-0.000000,-0.000000
0.390000,-1.310000,0.867591,0.020000,-115.998963,1618.550000,-563.487488,560.602010,-366.301637,-0.000000,0.000000,-0.000000,669.430295,-672.315772,-0.750221,0.000000,-0.000000,-0.000000
0.390000,-1.290000,0.848549,0.020000,-133.622161,1592.550000,-571.436812,573.282887,-384.323229,-0.000000,0.000000,-0.000000,690.337269,-688.491193,2.856647,0.000000,-0.000000,0.000000
0.370000,-1.290000,0.842581,0.020000,-138.869427,1516.550000,-584.131640,583.556934,-366.378219,-0.000000,0.000000,-0.000000,688.991738,-689.566445,1.218801,0.000000,-0.000000,0.000000
0.410000,-1.310000,0.873530,0.020000,-110.674637,1698.550000,-544.225387,543.841066,-376.995658,-0.000000,0.000000,-0.000000,661.697326,-662.081647,-0.430535,0.000000,-0.000000,-0.000000
0.430000,-1.310000,0.879333,0.020000,-105.132589,1782.550000,-532.762885,530.358594,-390.004264,-0.000000,0.000000,-0.000000,658.084865,-660.489157,-0.884693,0.000000,-0.000000,-0.000000
0.430000,-1.290000,0.860279,0.020000,-122.447350,1756.550000,-540.588490,540.116532,-405.726915,-0.000000,0.000000,-0.000000,675.482179,-675.954136,0.370025,0.000000,-0.000000,0.000000
0.410000,-1.290000,0.854346,0.020000,-128.146015,1672.550000,-552.844275,552.641293,-392.898793,-0.000000,0.000000,-0.000000,678.051302,-678.254285,1.683919,0.000000,-0.000000,0.000000
0.450000,-1.310000,0.885551,0.020000,-99.378973,1870.550000,-513.219892,513.169775,-400.197075,-0.000000,0.000000,-0.000000,650.764085,-650.814202,0.355251,0.000000,-0.000000,0.000000
0.470000,-1.310000,0.892173,0.020000,-93.420042,1962.550000,-497.367347,497.576208,-409.709804,-0.000000,0.000000,-0.000000,644.573432,-644.364570,0.005861,0.000000,-0.000000,0.000000
0.470000,-1.290000,0.873399,0.020000,-110.408482,1936.550000,-506.478430,506.796317,-425.977560,-0.000000,0.000000,-0.000000,662.079074,-661.761187,0.224051,0.000000,-0.000000,0.000000
0.450000,-1.290000,0.866633,0.020000,-116.532646,1844.550000,-521.572523,521.281444,-416.707951,-0.000000,0.000000,-0.000000,667.333090,-667.624169,1.973435,0.000000,-0.000000,0.000000
0.490000,-1.310000,0.899192,0.020000,-87.262128,2058.550000,-481.482393,481.488471,-418.989537,-0.000000,0.000000,-0.000000,638.266644,-638.260567,0.152111,0.000000,-0.000000,0.000000
0.510000,-1.310000,0.906597,0.020000,-80.911623,2158.550000,-465.388524,465.392705,-427.300484,-0.000000,0.000000,-0.000000,631.804359,-631.800177,0.149057,0.000000,-0.000000,0.000000
0.510000,-1.290000,0.888128,0.020000,-97.558453,2132.550000,-473.126563,473.273839,-443.811628,-0.000000,0.000000,-0.000000,648.831782,-648.684507,0.246700,0.000000,-0.000000,0.000000
0.490000,-1.290000,0.880567,0.020000,-104.081513,2032.550000,-489.984276,490.136179,-435.427596,-0.000000,0.000000,-0.000000,655.633840,-655.481937,0.270327,0.000000,-0.000000,0.000000
0.530000,-1.310000,0.913971,0.020000,-74.374963,2262.550000,-449.230329,449.230392,-434.847671,-0.000000,0.000000,-0.000000,625.220307,-625.220243,0.146268,0.000000,-0.000000,0.000000
0.550000,-1.310000,0.921325,0.020000,-67.658613,2370.550000,-433.045232,433.048557,-441.642126,-0.000000,0.000000,-0.000000,618.530046,-618.526721,0.141055,0.000000,-0.000000,0.000000
0.550000,-1.290000,0.902832,0.020000,-83.951095,2344.550000,-439.276153,439.397347,-458.193330,-0.000000,0.000000,-0.000000,634.850210,-634.729016,0.232477,0.000000,-0.000000,0.000000
0.530000,-1.290000,0.895327,0.020000,-90.846055,2236.550000,-456.211850,456.341561,-451.396058,-0.000000,0.000000,-0.000000,641.895657,-641.765946,0.235609,0.000000,-0.000000,0.000000
0.570000,-1.310000,0.929051,0.020000,-60.769043,2482.550000,-416.874416,416.858809,-447.709782,-0.000000,0.000000,-0.000000,611.728903,-611.744511,0.149559,0.000000,-0.000000,0.000000
0.590000,-1.310000,0.937140,0.020000,-53.712723,2598.550000,-400.778573,400.808728,-453.033943,-0.000000,0.000000,-0.000000,604.891341,-604.861186,0.098638,0.000000,-0.000000,0.000000
0.590000,-1.290000,0.918966,0.020000,-69.640581,2572.550000,-405.700456,405.698002,-469.483855,-0.000000,0.000000,-0.000000,620.488043,-620.490497,0.141828,0.000000,-0.000000,0.000000
0.570000,-1.290000,0.910715,0.020000,-76.880348,2456.550000,-422.530857,422.539206,-464.212659,-0.000000,0.000000,-0.000000,627.721645,-627.713297,0.147599,0.000000,-0.000000,0.000000
0.610000,-1.310000,0.945583,0.020000,-46.496094,2718.550000,-384.500285,384.509403,-457.683786,-0.000000,0.000000,-0.000000,597.765663,-597.756545,0.292772,0.000000,-0.000000,0.000000
0.630000,-1.310000,0.954370,0.020000,-39.125585,2842.550000,-369.689682,368.917163,-462.531830,-0.000000,0.000000,-0.000000,591.492639,-592.265158,0.283843,0.000000,-0.000000,0.000000
0.630000,-1.290000,0.936531,0.020000,-54.680891,2816.550000,-372.351235,372.397381,-477.816088,-0.000000,0.000000,-0.000000,605.804244,-605.758098,0.112249,0.000000,-0.000000,0.000000
0.610000,-1.290000,0.927574,0.020000,-62.238531,2692.550000,-388.976709,388.953014,-474.024615,-0.000000,0.000000,-0.000000,613.170816,-613.194511,0.140901,0.000000,-0.000000,0.000000
0.650000,-1.310000,0.963296,0.020000,-31.607514,2970.550000,-357.814512,351.075266,-469.674995,-0.000000,0.000000,-0.000000,585.037010,-591.776255,1.847904,0.000000,-0.000000,0.000000
0.670000,-1.310000,0.972013,0.020000,-23.948275,3102.550000,-350.905935,335.161608,-477.136284,-0.000000,0.000000,-0.000000,579.775610,-595.519936,1.138853,0.000000,-0.000000,0.000000
0.670000,-1.290000,0.954136,0.020000,-39.125336,3076.550000,-342.367297,339.798640,-485.781503,-0.000000,0.000000,-0.000000,592.282130,-594.850788,0.343428,0.000000,-0.000000,0.000000
0.650000,-1.290000,0.945254,0.020000,-46.974295,2944.550000,-356.050326,355.654137,-481.268233,-0.000000,0.000000,-0.000000,598.341615,-598.737804,0.373069,0.000000,-0.000000,0.000000
0.690000,-1.310000,0.981060,0.020000,-16.154268,3238.550000,-351.333985,316.339317,-487.169981,-0.000000,0.000000,-0.000000,573.079867,-608.074535,0.264975,0.000000,-0.000000,0.000000
0.710000,-1.310000,0.990429,0.020000,-8.228241,3378.550000,-358.326654,288.606917,-491.759035,-0.000000,0.000000,-0.000000,553.741114,-623.460851,-2.567770,0.000000,-0.000000,-0.000000
0.710000,-1.290000,0.972890,0.020000,-23.026314,3352.550000,-322.749697,306.992496,-493.768538,-0.000000,0.000000,-0.000000,577.738815,-593.496016,-1.849170,0.000000,-0.000000,-0.000000
0.690000,-1.290000,0.963351,0.020000,-31.140394,3212.550000,-332.435695,323.390882,-490.348433,-0.000000,0.000000,-0.000000,585.366047,-594.410860,-0.568778,0.000000,-0.000000,-0.000000
0.730000,-1.310000,1.000110,0.020000,-0.202287,3522.550000,-350.734594,287.608357,-503.136442,-0.000000,0.000000,-0.000000,564.231656,-627.357894,-6.730247,0.000000,-0.000000,-0.000000
0.750000,-1.290000,0.992903,0.020000,-6.434720,3644.550000,-311.842751,270.384940,-501.476278,-0.000000,0.000000,-0.000000,559.100256,-600.558067,-4.885935,0.000000,-0.000000,-0.000000
0.730000,-1.290000,0.982744,0.020000,-14.787772,3496.550000,-319.036279,289.552222,-500.757603,-0.000000,0.000000,-0.000000,571.213604,-600.697662,-3.027215,0.000000,-0.000000,-0.000000
-0.810000,-1.250000,0.990438,0.020000,-8.679626,4061.750000,-251.384412,227.649055,520.312159,-0.000000,0.000000,0.000000,560.894463,-584.629821,6.044553,0.000000,-0.000000,0.000000
-0.790000,-1.270000,0.996200,0.020000,-3.535292,3926.950000,-277.439899,249.299389,524.878735,-0.000000,0.000000,0.000000,573.163349,-601.303859,4.236672,0.000000,-0.000000,0.000000
-0.770000,-1.270000,0.985614,0.020000,-12.293895,3770.950000,-285.986763,250.995943,517.104365,-0.000000,0.000000,0.000000,565.156642,-600.147462,-1.056788,0.000000,-0.000000,-0.000000
-0.770000,-1.250000,0.968611,0.020000,-26.728766,3745.750000,-268.046327,260.136506,523.275003,-0.000000,0.000000,0.000000,582.185675,-590.095496,0.467910,0.000000,-0.000000,0.000000
-0.790000,-1.250000,0.979381,0.020000,-17.755347,3901.750000,-258.901035,246.860551,525.046160,-0.000000,0.000000,0.000000,576.742725,-588.783209,3.080696,0.000000,-0.000000,0.000000
-0.750000,-1.270000,0.975323,0.020000,-20.961830,3618.950000,-290.976646,274.202573,511.031853,-0.000000,0.000000,0.000000,575.573525,-592.347598,0.710374,0.000000,-0.000000,0.000000
-0.730000,-1.270000,0.965337,0.020000,-29.515856,3470.950000,-300.597054,293.630505,506.828558,-0.000000,0.000000,0.000000,584.010618,-590.977167,1.646718,0.000000,-0.000000,0.000000
-0.730000,-1.250000,0.947971,0.020000,-44.357076,3445.750000,-293.486850,292.964580,519.451953,-0.000000,0.000000,0.000000,596.238345,-596.760615,0.147561,0.000000,-0.000000,0.000000
-0.750000,-1.250000,0.958138,0.020000,-35.598257,3593.750000,-279.486331,275.528241,521.556346,-0.000000,0.000000,0.000000,588.809394,-592.767485,-0.578911,0.000000,-0.000000,-0.000000
-0.710000,-1.270000,0.955666,0.020000,-37.953221,3326.950000,-311.158330,308.773437,504.571050,-0.000000,0.000000,0.000000,590.982142,-593.367035,-0.224802,0.000000,-0.000000,-0.000000
-0.690000,-1.270000,0.946318,0.020000,-46.266855,3186.950000,-325.721939,325.353553,501.664955,-0.000000,0.000000,0.000000,597.848028,-598.216414,0.117153,0.000000,-0.000000,0.000000
-0.690000,-1.250000,0.928596,0.020000,-61.516449,3161.750000,-326.593920,326.582317,518.280578,-0.000000,0.000000,0.000000,612.590749,-612.602352,0.149360,0.000000,-0.000000,0.000000
-0.710000,-1.250000,0.938120,0.020000,-52.998686,3301.750000,-309.527648,309.527003,518.949329,-0.000000,0.000000,0.000000,604.247612,-604.248256,0.075018,0.000000,-0.000000,0.000000
-0.670000,-1.270000,0.936595,0.020000,-54.450321,3050.950000,-342.013680,342.052422,499.833361,-0.000000,0.000000,0.000000,605.676023,-605.637282,0.128923,0.000000,-0.000000,0.000000
-0.650000,-1.270000,0.927165,0.020000,-62.496953,2918.950000,-358.965958,358.944561,497.602107,-0.000000,0.000000,0.000000,613.549988,-613.571384,0.142274,0.000000,-0.000000,0.000000
-0.650000,-1.250000,0.909486,0.020000,-78.153142,2893.750000,-361.422039,361.420213,514.944301,-0.000000,0.000000,0.000000,629.119778,-629.121605,0.137444,0.000000,-0.000000,0.000000
-0.670000,-1.250000,0.919098,0.020000,-69.903572,3025.750000,-343.865502,343.846653,516.962684,-0.000000,0.000000,0.000000,620.866892,-620.885742,0.133879,0.000000,-0.000000,0.000000
-0.630000,-1.270000,0.918073,0.020000,-70.399999,2790.950000,-376.062206,376.051957,494.646231,-0.000000,0.000000,0.000000,621.359344,-621.369594,0.137688,0.000000,-0.000000,0.000000
-0.610000,-1.270000,0.909331,0.020000,-78.152615,2666.950000,-393.377836,393.368215,490.978840,-0.000000,0.000000,0.000000,629.123585,-629.133206,0.143890,0.000000,-0.000000,0.000000
-0.610000,-1.250000,0.891299,0.020000,-94.211408,2641.750000,-397.219522,397.264099,508.749595,-0.000000,0.000000,0.000000,645.488940,-645.444363,0.092135,0.000000,-0.000000,0.000000
-0.630000,-1.250000,0.900216,0.020000,-86.258131,2765.750000,-379.173988,379.223480,512.220376,-0.000000,0.000000,0.000000,637.332665,-637.283173,0.098977,0.000000,-0.000000,0.000000
-0.590000,-1.270000,0.900948,0.020000,-85.747877,2546.950000,-410.648806,411.051864,486.172206,-0.000000,0.000000,0.000000,636.724309,-636.321251,0.402706,0.000000,-0.000000,0.000000
-0.570000,-1.270000,0.892934,0.020000,-93.178794,2430.950000,-428.434707,428.404225,481.507253,-0.000000,0.000000,0.000000,644.494240,-644.524722,0.043534,0.000000,-0.000000,0.000000
-0.570000,-1.250000,0.874563,0.020000,-109.633861,2405.750000,-432.588553,431.576865,500.590124,-0.000000,0.000000,0.000000,660.767065,-661.778753,-2.019963,0.000000,-0.000000,-0.000000
-0.590000,-1.250000,0.882744,0.020000,-102.005751,2521.750000,-415.131595,415.357330,504.259951,-0.000000,0.000000,0.000000,653.340284,-653.114549,0.058776,0.000000,-0.000000,0.000000
-0.550000,-1.270000,0.884748,0.020000,-100.438324,2318.950000,-449.392672,447.639926,475.404805,-0.000000,0.000000,0.000000,652.708399,-654.461144,1.883060,0.000000,-0.000000,0.000000
-0.530000,-1.270000,0.876670,0.020000,-107.519389,2210.950000,-462.717039,463.137501,467.955378,-0.000000,0.000000,0.000000,658.453263,-658.032801,-0.065410,0.000000,-0.000000,-0.000000
-0.530000,-1.250000,0.858327,0.020000,-124.361884,2185.750000,-468.200555,467.453360,487.179371,-0.000000,0.000000,0.000000,675.052080,-675.799275,-2.440253,0.000000,-0.000000,-0.000000
-0.550000,-1.250000,0.866576,0.020000,-117.088374,2293.750000,-453.355293,452.845998,493.544186,-0.000000,0.000000,0.000000,669.734666,-670.243961,0.615396,0.000000,-0.000000,0.000000
-0.510000,-1.270000,0.868978,0.020000,-114.414888,2106.950000,-485.262890,483.022767,461.027467,-0.000000,0.000000,0.000000,667.413520,-669.653643,1.858336,0.000000,-0.000000,0.000000
-0.490000,-1.270000,0.861681,0.020000,-121.117719,2006.950000,-498.615203,497.664881,450.893603,-0.000000,0.000000,0.000000,671.423829,-672.374151,0.538780,0.000000,-0.000000,0.000000
-0.490000,-1.250000,0.843012,0.020000,-138.336123,1981.750000,-505.178990,503.998752,470.482082,-0.000000,0.000000,0.000000,689.307181,-690.487420,-2.243503,0.000000,-0.000000,-0.000000
-0.510000,-1.250000,0.850469,0.020000,-131.446950,2081.750000,-489.966357,491.694631,481.881891,-0.000000,0.000000,0.000000,688.704062,-686.975787,-0.984360,0.000000,-0.000000,-0.000000
-0.470000,-1.270000,0.854790,0.020000,-127.620794,1910.950000,-522.166356,522.429781,442.028755,-0.000000,0.000000,0.000000,684.357276,-684.093851,4.479991,0.000000,-0.000000,0.000000
-0.450000,-1.270000,0.848314,0.020000,-133.917061,1818.950000,-533.653013,532.996868,429.716873,-0.000000,0.000000,0.000000,684.572160,-685.228305,1.937716,0.000000,-0.000000,0.000000
-0.450000,-1.250000,0.829344,0.020000,-151.497050,1793.750000,-540.653574,540.109916,451.801889,-0.000000,0.000000,0.000000,704.088680,-704.632338,-3.694677,0.000000,-0.000000,-0.000000
-0.470000,-1.250000,0.835967,0.020000,-145.021960,1885.750000,-526.913191,529.994174,465.416077,-0.000000,0.000000,0.000000,705.722027,-702.641044,-1.945235,0.000000,-0.000000,-0.000000
0.450000,-1.270000,0.847766,0.020000,-133.895793,1818.950000,-533.339011,532.685250,-429.907244,-0.000000,0.000000,-0.000000,684.450187,-685.103948,-1.592866,0.000000,-0.000000,-0.000000
0.470000,-1.270000,0.854681,0.020000,-127.599735,1910.950000,-521.850240,522.115321,-442.200563,-0.000000,0.000000,-0.000000,684.230622,-683.965541,-4.144324,0.000000,-0.000000,-0.000000
0.470000,-1.250000,0.836022,0.020000,-144.997682,1885.750000,-526.588258,529.669788,-465.589247,-0.000000,0.000000,-0.000000,705.592163,-702.510633,2.289409,0.000000,-0.000000,0.000000
0.450000,-1.250000,0.828951,0.020000,-151.472635,1793.750000,-540.330206,539.785683,-451.998268,-0.000000,0.000000,-0.000000,703.963918,-704.508440,4.052384,0.000000,-0.000000,0.000000
0.490000,-1.270000,0.862005,0.020000,-121.096994,2006.950000,-498.297461,497.349781,-451.053502,-0.000000,0.000000,-0.000000,671.298127,-672.245807,-0.207788,0.000000,-0.000000,-0.000000
0.510000,-1.270000,0.869472,0.020000,-114.394624,2106.950000,-484.944322,482.706769,-461.168919,-0.000000,0.000000,-0.000000,667.283474,-669.521027,-1.536731,0.000000,-0.000000,-0.000000
0.510000,-1.250000,0.850793,0.020000,-131.423339,2081.750000,-489.637411,491.364699,-482.022769,-0.000000,0.000000,-0.000000,688.566708,-686.839420,1.315488,0.000000,-0.000000,0.000000
0.490000,-1.250000,0.843508,0.020000,-138.312112,1981.750000,-504.850810,503.669425,-470.644725,-0.000000,0.000000,-0.000000,689.175960,-690.357345,2.586231,0.000000,-0.000000,0.000000
0.530000,-1.270000,0.876743,0.020000,-107.499711,2210.950000,-462.398486,462.820884,-468.084307,-0.000000,0.000000,-0.000000,658.322507,-657.900109,0.381845,0.000000,-0.000000,0.000000
0.550000,-1.270000,0.884406,0.020000,-100.419360,2318.950000,-449.074294,447.323904,-475.516470,-0.000000,0.000000,-0.000000,652.574010,-654.324400,-1.575315,0.000000,-0.000000,-0.000000
0.550000,-1.250000,0.866049,0.020000,-117.065961,2293.750000,-453.025433,452.516235,-493.655233,-0.000000,0.000000,-0.000000,669.593764,-670.102961,-0.297214,0.000000,-0.000000,-0.000000
0.530000,-1.250000,0.858222,0.020000,-124.338805,2185.750000,-467.871740,467.123414,-487.309614,-0.000000,0.000000,-0.000000,674.916134,-675.664460,2.767555,0.000000,-0.000000,0.000000
0.570000,-1.270000,0.892451,0.020000,-93.160669,2430.950000,-428.120546,428.090130,-481.606103,-0.000000,0.000000,-0.000000,644.359336,-644.389752,0.256865,0.000000,-0.000000,0.000000
0.590000,-1.270000,0.900869,0.020000,-85.730717,2546.950000,-410.336306,410.739710,-486.256962,-0.000000,0.000000,-0.000000,636.587809,-636.184405,-0.109359,0.000000,-0.000000,-0.000000
0.590000,-1.250000,0.882855,0.020000,-101.985064,2521.750000,-414.805697,415.031113,-504.342595,-0.000000,0.000000,-0.000000,653.196681,-652.971265,0.245472,0.000000,-0.000000,0.000000
0.570000,-1.250000,0.874264,0.020000,-109.612244,2405.750000,-432.262101,431.248958,-500.688385,-0.000000,0.000000,-0.000000,660.625988,-661.639131,2.331417,0.000000,-0.000000,0.000000
0.610000,-1.270000,0.909649,0.020000,-78.136546,2666.950000,-393.068174,393.058518,-491.050523,-0.000000,0.000000,-0.000000,628.985943,-628.995599,0.142640,0.000000,-0.000000,0.000000
0.630000,-1.270000,0.918586,0.020000,-70.385144,2790.950000,-375.755795,375.745515,-494.704945,-0.000000,0.000000,-0.000000,621.220678,-621.230959,0.141813,0.000000,-0.000000,0.000000
0.630000,-1.250000,0.900536,0.020000,-86.239691,2765.750000,-378.854946,378.904162,-512.275302,-0.000000,0.000000,-0.000000,637.186805,-637.137589,0.190259,0.000000,-0.000000,0.000000
0.610000,-1.250000,0.891812,0.020000,-94.191780,2641.750000,-396.896742,396.941036,-508.818070,-0.000000,0.000000,-0.000000,645.344075,-645.299781,0.204551,0.000000,-0.000000,0.000000
0.650000,-1.270000,0.927292,0.020000,-62.483433,2918.950000,-358.663348,358.641919,-497.648355,-0.000000,0.000000,-0.000000,613.410494,-613.431924,0.130247,0.000000,-0.000000,0.000000
0.670000,-1.270000,0.936344,0.020000,-54.438259,3050.950000,-341.715408,341.754126,-499.867648,-0.000000,0.000000,-0.000000,605.535914,-605.497196,0.136636,0.000000,-0.000000,0.000000
0.670000,-1.250000,0.918644,0.020000,-69.887891,3025.750000,-343.555282,343.536407,-516.992151,-0.000000,0.000000,-0.000000,620.719659,-620.738534,0.140783,0.000000,-0.000000,0.000000
0.650000,-1.250000,0.909415,0.020000,-78.136019,2893.750000,-361.106974,361.105109,-514.986218,-0.000000,0.000000,-0.000000,628.973119,-628.974984,0.144570,0.000000,-0.000000,0.000000
0.690000,-1.270000,0.945733,0.020000,-46.256370,3186.950000,-325.428296,325.059854,-501.687881,-0.000000,0.000000,-0.000000,597.707424,-598.075866,0.141703,0.000000,-0.000000,0.000000
0.710000,-1.270000,0.955448,0.020000,-37.944430,3326.950000,-310.870221,308.485203,-504.583339,-0.000000,0.000000,-0.000000,590.841615,-593.226633,0.476722,0.000000,-0.000000,0.000000
0.710000,-1.250000,0.938108,0.020000,-52.986259,3301.750000,-309.228506,309.227875,-518.955623,-0.000000,0.000000,-0.000000,604.099823,-604.100454,0.185131,0.000000,-0.000000,0.000000
0.690000,-1.250000,0.928211,0.020000,-61.502335,3161.750000,-326.289028,326.277392,-518.298186,-0.000000,0.000000,-0.000000,612.443142,-612.454778,0.118027,0.000000,-0.000000,0.000000
0.730000,-1.270000,0.965480,0.020000,-29.508874,3470.950000,-300.313826,293.346793,-506.830261,-0.000000,0.000000,-0.000000,583.869174,-590.836207,-1.400913,0.000000,-0.000000,-0.000000
0.750000,-1.270000,0.975818,0.020000,-20.956771,3618.950000,-290.694105,273.925348,-511.020874,-0.000000,0.000000,-0.000000,575.431426,-592.200184,-0.470581,0.000000,-0.000000,-0.000000
0.750000,-1.250000,0.958631,0.020000,-35.589564,3593.750000,-279.197471,275.241859,-521.540338,-0.000000,0.000000,-0.000000,588.661158,-592.616770,0.825161,0.000000,-0.000000,0.000000
0.730000,-1.250000,0.948323,0.020000,-44.346458,3445.750000,-293.193644,292.671419,-519.447472,-0.000000,0.000000,-0.000000,596.090406,-596.612631,0.105587,0.000000,-0.000000,0.000000
0.770000,-1.270000,0.985964,0.020000,-12.290870,3770.950000,-285.697404,250.726371,-517.081193,-0.000000,0.000000,-0.000000,565.016761,-599.987794,1.293865,0.000000,-0.000000,0.000000
0.790000,-1.270000,0.996208,0.020000,-3.534402,3926.950000,-277.149722,249.027049,-524.845359,-0.000000,0.000000,-0.000000,573.018007,-601.140681,-3.999134,0.000000,-0.000000,-0.000000
0.790000,-1.250000,0.979175,0.020000,-17.750846,3901.750000,-258.616183,246.583274,-525.011183,-0.000000,0.000000,-0.000000,576.594298,-588.627207,-2.841842,0.000000,-0.000000,-0.000000
0.770000,-1.250000,0.968751,0.020000,-26.722113,3745.750000,-267.759747,259.855028,-523.248854,-0.000000,0.000000,-0.000000,582.037103,-589.941821,-0.226006,0.000000,-0.000000,-0.000000
0.810000,-1.250000,0.989893,0.020000,-8.677385,4061.750000,-251.102550,227.378306,-520.269465,-0.000000,0.000000,-0.000000,560.748168,-584.472413,-5.809801,0.000000,-0.000000,-0.000000
-0.850000,-1.230000,0.995572,0.020000,-3.969267,4368.950000,-196.940364,204.253058,528.540395,-0.000000,0.000000,0.000000,568.982287,-561.669593,0.755745,0.000000,-0.000000,0.000000
-0.850000,-1.210000,0.979117,0.020000,-17.755928,4344.550000,-191.919908,196.787682,540.843735,-0.000000,0.000000,0.000000,577.138148,-572.270373,-0.596340,0.000000,-0.000000,-0.000000
-0.870000,-1.210000,0.990716,0.020000,-8.003988,4516.550000,-182.847037,180.384228,537.065620,-0.000000,0.000000,0.000000,565.709853,-568.172662,1.152970,0.000000,-0.000000,0.000000
-0.830000,-1.230000,0.984437,0.020000,-13.428930,4200.950000,-219.724051,213.580199,532.693411,-0.000000,0.000000,0.000000,571.991548,-578.135400,1.553701,0.000000,-0.000000,0.000000
-0.810000,-1.230000,0.973586,0.020000,-22.801585,4036.950000,-235.548706,227.324819,534.045399,-0.000000,0.000000,0.000000,577.923040,-586.146927,1.655507,0.000000,-0.000000,0.000000
-0.810000,-1.210000,0.956753,0.020000,-37.010688,4012.550000,-226.059596,224.587679,546.055803,-0.000000,0.000000,0.000000,589.981938,-591.453854,0.219935,0.000000,-0.000000,0.000000
-0.830000,-1.210000,0.967793,0.020000,-27.424605,4176.550000,-210.800393,209.733032,542.935413,-0.000000,0.000000,0.000000,581.695221,-582.762582,0.677281,0.000000,-0.000000,0.000000
-0.790000,-1.230000,0.962684,0.020000,-32.082210,3876.950000,-247.931002,243.624253,533.945209,-0.000000,0.000000,0.000000,585.640858,-589.947607,1.438343,0.000000,-0.000000,0.000000
-0.770000,-1.230000,0.951725,0.020000,-41.265871,3720.950000,-260.439680,259.283279,534.574060,-0.000000,0.000000,0.000000,593.810035,-594.966435,0.200152,0.000000,-0.000000,0.000000
-0.770000,-1.210000,0.934962,0.020000,-55.906615,3696.550000,-257.229277,257.255694,549.881509,-0.000000,0.000000,0.000000,607.090921,-607.064505,0.140436,0.000000,-0.000000,0.000000
-0.790000,-1.210000,0.946006,0.020000,-46.506790,3852.550000,-240.771255,240.479896,547.701175,-0.000000,0.000000,0.000000,598.082742,-598.374101,-0.019640,0.000000,-0.000000,-0.000000
-0.750000,-1.230000,0.941064,0.020000,-50.345766,3568.950000,-275.643138,275.491385,534.985821,-0.000000,0.000000,0.000000,601.710751,-601.862504,-0.013938,0.000000,-0.000000,-0.000000
-0.730000,-1.230000,0.930711,0.020000,-59.315393,3420.950000,-292.546032,292.551010,535.760349,-0.000000,0.000000,0.000000,610.431653,-610.426676,0.153237,0.000000,-0.000000,0.000000
-0.730000,-1.210000,0.913562,0.020000,-74.390712,3396.550000,-291.720939,291.707833,553.141390,-0.000000,0.000000,0.000000,625.343480,-625.356586,0.128879,0.000000,-0.000000,0.000000
-0.750000,-1.210000,0.924107,0.020000,-65.203524,3544.550000,-274.287186,274.255211,551.833530,-0.000000,0.000000,0.000000,616.218478,-616.250454,0.132791,0.000000,-0.000000,0.000000
-0.710000,-1.230000,0.920675,0.020000,-68.167990,3276.950000,-309.799266,309.772181,536.089529,-0.000000,0.000000,0.000000,619.146502,-619.173587,0.131199,0.000000,-0.000000,0.000000
-0.690000,-1.230000,0.910968,0.020000,-76.896661,3136.950000,-327.415968,327.397197,535.748931,-0.000000,0.000000,0.000000,627.861595,-627.880366,0.138482,0.000000,-0.000000,0.000000
-0.690000,-1.210000,0.893441,0.020000,-92.407824,3112.550000,-327.902428,327.871607,553.878747,-0.000000,0.000000,0.000000,643.639421,-643.670242,0.140986,0.000000,-0.000000,0.000000
-0.710000,-1.210000,0.903336,0.020000,-83.461196,3252.550000,-309.621793,309.598128,553.840590,-0.000000,0.000000,0.000000,634.494043,-634.517708,0.144735,0.000000,-0.000000,0.000000
-0.670000,-1.230000,0.901601,0.020000,-85.494358,3000.950000,-345.109092,345.635069,534.213604,-0.000000,0.000000,0.000000,636.396516,-635.870540,0.427663,0.000000,-0.000000,0.000000
-0.650000,-1.230000,0.891906,0.020000,-93.953895,2868.950000,-363.676078,363.661244,533.098807,-0.000000,0.000000,0.000000,645.321353,-645.336186,0.111217,0.000000,-0.000000,0.000000
-0.650000,-1.210000,0.874429,0.020000,-109.900101,2844.550000,-364.743893,363.261270,553.354624,-0.000000,0.000000,0.000000,661.599361,-663.081984,-2.013206,0.000000,-0.000000,-0.000000
-0.670000,-1.210000,0.883887,0.020000,-101.223282,2976.550000,-346.214135,346.367904,552.984764,-0.000000,0.000000,0.000000,652.541150,-652.387380,0.045022,0.000000,-0.000000,0.000000
-0.630000,-1.230000,0.882451,0.020000,-102.267960,2740.950000,-384.938427,383.707398,530.083767,-0.000000,0.000000,0.000000,654.127491,-655.358521,2.120727,0.000000,-0.000000,0.000000
-0.610000,-1.230000,0.873352,0.020000,-110.429122,2616.950000,-398.996711,399.593633,526.838212,-0.000000,0.000000,0.000000,661.353821,-660.756898,-0.973314,0.000000,-0.000000,-0.000000
-0.610000,-1.210000,0.855497,0.020000,-126.807257,2592.550000,-401.934542,400.414603,547.674184,-0.000000,0.000000,0.000000,678.119925,-679.639865,-3.183915,0.000000,-0.000000,-0.000000
-0.630000,-1.210000,0.864783,0.020000,-118.430674,2716.550000,-386.034685,385.516504,549.320576,-0.000000,0.000000,0.000000,670.989627,-671.507808,1.030926,0.000000,-0.000000,0.000000
-0.590000,-1.230000,0.864620,0.020000,-118.429848,2496.950000,-424.291369,425.166551,521.260637,-0.000000,0.000000,0.000000,672.808349,-671.933167,4.990447,0.000000,-0.000000,0.000000
-0.570000,-1.230000,0.856266,0.020000,-126.262515,2380.950000,-437.006411,437.190212,515.206079,-0.000000,0.000000,0.000000,675.733841,-675.550040,0.454038,0.000000,-0.000000,0.000000
-0.570000,-1.210000,0.838047,0.020000,-143.066917,2356.550000,-440.880752,440.002391,540.352390,-0.000000,0.000000,0.000000,696.661504,-697.539866,-4.485377,0.000000,-0.000000,-0.000000
-0.590000,-1.210000,0.846580,0.020000,-135.021993,2472.550000,-426.019046,429.414075,546.077160,-0.000000,0.000000,0.000000,695.340959,-691.945930,0.701686,0.000000,-0.000000,0.000000
0.570000,-1.230000,0.856157,0.020000,-126.237276,2380.950000,-436.659572,436.845417,-515.302363,-0.000000,0.000000,-0.000000,675.584781,-675.398935,-0.127947,0.000000,-0.000000,-0.000000
0.590000,-1.230000,0.864928,0.020000,-118.405503,2496.950000,-423.946297,424.822675,-521.338816,-0.000000,0.000000,-0.000000,672.654314,-671.777935,-4.672859,0.000000,-0.000000,-0.000000
0.590000,-1.210000,0.847093,0.020000,-134.993852,2472.550000,-425.665741,429.060265,-546.149384,-0.000000,0.000000,-0.000000,695.179881,-691.785357,-0.378647,0.000000,-0.000000,-0.000000
0.570000,-1.210000,0.838136,0.020000,-143.037918,2356.550000,-440.524518,439.645663,-540.446647,-0.000000,0.000000,-0.000000,696.506934,-697.385789,4.820261,0.000000,-0.000000,0.000000
0.610000,-1.230000,0.873877,0.020000,-110.405806,2616.950000,-398.657605,399.256175,-526.903878,-0.000000,0.000000,-0.000000,661.202192,-660.603622,1.282353,0.000000,-0.000000,0.000000
0.630000,-1.230000,0.882571,0.020000,-102.245809,2740.950000,-384.602338,383.373721,-530.132917,-0.000000,0.000000,-0.000000,653.972892,-655.201509,-1.820250,0.000000,-0.000000,-0.000000
0.630000,-1.210000,0.864695,0.020000,-118.404677,2716.550000,-385.687869,385.169888,-549.365226,-0.000000,0.000000,-0.000000,670.827480,-671.345462,-0.721278,0.000000,-0.000000,-0.000000
0.610000,-1.210000,0.855819,0.020000,-126.780118,2592.550000,-401.585391,400.064734,-547.736744,-0.000000,0.000000,-0.000000,677.962006,-679.482662,3.502106,0.000000,-0.000000,0.000000
0.650000,-1.230000,0.891628,0.020000,-93.933042,2868.950000,-363.348135,363.333369,-533.135648,-0.000000,0.000000,-0.000000,645.167082,-645.181847,0.180453,0.000000,-0.000000,0.000000
0.670000,-1.230000,0.901039,0.020000,-85.474933,3000.950000,-344.786362,345.312547,-534.237444,-0.000000,0.000000,-0.000000,636.241671,-635.715486,-0.143679,0.000000,-0.000000,-0.000000
0.670000,-1.210000,0.883537,0.020000,-101.199985,2976.550000,-345.879099,346.032552,-553.002928,-0.000000,0.000000,-0.000000,652.378504,-652.225052,0.248718,0.000000,-0.000000,0.000000
0.650000,-1.210000,0.873938,0.020000,-109.875387,2844.550000,-364.404576,362.920948,-553.386809,-0.000000,0.000000,-0.000000,661.438077,-662.921706,2.314309,0.000000,-0.000000,0.000000
0.690000,-1.230000,0.910792,0.020000,-76.878795,3136.950000,-327.099290,327.080495,-535.760687,-0.000000,0.000000,-0.000000,627.706535,-627.725331,0.137907,0.000000,-0.000000,0.000000
0.710000,-1.230000,0.920876,0.020000,-68.151808,3276.950000,-309.488941,309.461837,-536.089608,-0.000000,0.000000,-0.000000,618.991348,-619.018452,0.137572,0.000000,-0.000000,0.000000
0.710000,-1.210000,0.903757,0.020000,-83.441135,3252.550000,-309.300258,309.276356,-553.833797,-0.000000,0.000000,-0.000000,634.331106,-634.355008,0.132748,0.000000,-0.000000,0.000000
0.690000,-1.210000,0.893480,0.020000,-92.386080,3112.550000,-327.573896,327.542832,-553.884018,-0.000000,0.000000,-0.000000,643.476478,-643.507542,0.144549,0.000000,-0.000000,0.000000
0.730000,-1.230000,0.931280,0.020000,-59.301020,3420.950000,-292.242446,292.247394,-535.749400,-0.000000,0.000000,-0.000000,610.276594,-610.271646,0.108019,0.000000,-0.000000,0.000000
0.750000,-1.230000,0.941343,0.020000,-50.333323,3568.950000,-275.346524,275.194867,-534.964374,-0.000000,0.000000,-0.000000,601.555924,-601.707581,0.267759,0.000000,-0.000000,0.000000
0.750000,-1.210000,0.924164,0.020000,-65.187214,3544.550000,-273.980416,273.948424,-551.804661,-0.000000,0.000000,-0.000000,616.056135,-616.088127,0.129113,0.000000,-0.000000,0.000000
0.730000,-1.210000,0.913988,0.020000,-74.372464,3396.550000,-291.406480,291.393347,-553.123216,-0.000000,0.000000,-0.000000,625.180751,-625.193884,0.140837,0.000000,-0.000000,0.000000
0.770000,-1.230000,0.951647,0.020000,-41.255477,3720.950000,-260.149558,258.993889,-534.542442,-0.000000,0.000000,-0.000000,593.655369,-594.811038,0.046675,0.000000,-0.000000,0.000000
0.790000,-1.230000,0.962256,0.020000,-32.073981,3876.950000,-247.646317,243.340800,-533.904647,-0.000000,0.000000,-0.000000,585.486440,-589.791956,-1.196880,0.000000,-0.000000,-0.000000
0.790000,-1.210000,0.945457,0.020000,-46.494721,3852.550000,-240.480572,240.189146,-547.653027,-0.000000,0.000000,-0.000000,597.921684,-598.213109,0.266430,0.000000,-0.000000,0.000000
0.770000,-1.210000,0.934657,0.020000,-55.892365,3696.550000,-256.930500,256.956899,-549.842633,-0.000000,0.000000,-0.000000,606.929151,-606.902752,0.113764,0.000000,-0.000000,0.000000
0.810000,-1.230000,0.973160,0.020000,-22.795632,4036.950000,-235.267866,227.049600,-533.994666,-0.000000,0.000000,-0.000000,577.769417,-585.987682,-1.420130,0.000000,-0.000000,-0.000000
0.830000,-1.230000,0.984350,0.020000,-13.425365,4200.950000,-219.442382,213.313282,-532.632017,-0.000000,0.000000,-0.000000,571.839340,-577.968441,-1.322316,0.000000,-0.000000,-0.000000
0.830000,-1.210000,0.967935,0.020000,-27.417242,4176.550000,-210.521382,209.457217,-542.868887,-0.000000,0.000000,-0.000000,581.534871,-582.599036,-0.442427,0.000000,-0.000000,-0.000000
0.810000,-1.210000,0.956553,0.020000,-37.000915,4012.550000,-225.775688,224.305534,-545.997660,-0.000000,0.000000,-0.000000,589.821203,-591.291358,0.019575,0.000000,-0.000000,0.000000
0.850000,-1.230000,0.995816,0.020000,-3.968192,4368.950000,-196.663274,203.984635,-528.471299,-0.000000,0.000000,-0.000000,568.825546,-561.504184,-0.525040,0.000000,-0.000000,-0.000000
0.870000,-1.210000,0.991101,0.020000,-8.001772,4516.550000,-182.578717,180.121068,-536.987270,-0.000000,0.000000,-0.000000,565.553545,-568.011194,-0.926009,0.000000,-0.000000,-0.000000
0.850000,-1.210000,0.979593,0.020000,-17.751084,4344.550000,-191.647244,196.516417,-540.770467,-0.000000,0.000000,-0.000000,576.977683,-572.108511,0.827336,0.000000,-0.000000,0.000000
-0.930000,-1.170000,0.995207,0.020000,-4.420162,5008.950000,-118.720989,118.162350,556.586420,-0.000000,0.000000,0.000000,568.678496,-569.237135,-10.191957,0.000000,-0.000000,-0.000000
-0.910000,-1.190000,0.998959,0.020000,-1.505090,4848.550000,-116.356553,150.981663,526.469269,-0.000000,0.000000,0.000000,560.412358,-525.787248,-8.940101,0.000000,-0.000000,-0.000000
-0.890000,-1.190000,0.986646,0.020000,-11.618980,4668.550000,-153.585767,171.471449,542.262214,-0.000000,0.000000,0.000000,575.031816,-557.146133,2.670264,0.000000,-0.000000,0.000000
-0.890000,-1.170000,0.970864,0.020000,-25.108873,4644.950000,-152.237262,155.197385,555.553558,-0.000000,0.000000,0.000000,577.907638,-574.947514,-0.144190,0.000000,-0.000000,-0.000000
-0.910000,-1.170000,0.983082,0.020000,-14.793037,4824.950000,-126.988851,138.907948,551.883961,-0.000000,0.000000,0.000000,573.588225,-561.669128,-6.990680,0.000000,-0.000000,-0.000000
-0.870000,-1.190000,0.974589,0.020000,-21.651013,4492.550000,-177.997977,175.910748,551.493232,-0.000000,0.000000,0.000000,578.141936,-580.229165,1.314940,0.000000,-0.000000,0.000000
-0.850000,-1.190000,0.962796,0.020000,-31.615211,4320.550000,-190.466324,188.660004,554.099301,-0.000000,0.000000,0.000000,584.724772,-586.531093,-0.391375,0.000000,-0.000000,-0.000000
-0.850000,-1.170000,0.946617,0.020000,-45.551086,4296.950000,-184.574768,184.130547,568.265239,-0.000000,0.000000,0.000000,597.198334,-597.642555,-0.310421,0.000000,-0.000000,-0.000000
-0.870000,-1.170000,0.958609,0.020000,-35.363952,4468.950000,-170.420941,170.372899,563.131341,-0.000000,0.000000,0.000000,588.321871,-588.369914,1.062033,0.000000,-0.000000,0.000000
-0.830000,-1.190000,0.951278,0.020000,-41.503540,4152.550000,-204.830574,205.129142,556.683946,-0.000000,0.000000,0.000000,593.372476,-593.073908,0.045912,0.000000,-0.000000,0.000000
-0.810000,-1.190000,0.940044,0.020000,-51.309795,3988.550000,-221.038929,221.087278,560.554897,-0.000000,0.000000,0.000000,602.594240,-602.545891,0.069361,0.000000,-0.000000,0.000000
-0.810000,-1.170000,0.923466,0.020000,-65.697359,3964.950000,-217.222710,217.180095,577.216934,-0.000000,0.000000,0.000000,616.708636,-616.751251,0.120152,0.000000,-0.000000,0.000000
-0.830000,-1.170000,0.934899,0.020000,-55.664366,4128.950000,-200.692884,200.713642,572.707853,-0.000000,0.000000,0.000000,606.867903,-606.847144,0.177149,0.000000,-0.000000,0.000000
-0.790000,-1.190000,0.929104,0.020000,-61.027581,3828.550000,-237.771712,237.747642,564.064622,-0.000000,0.000000,0.000000,612.114211,-612.138281,0.145360,0.000000,-0.000000,0.000000
-0.770000,-1.190000,0.918328,0.020000,-70.650252,3672.550000,-254.848331,254.817534,566.995711,-0.000000,0.000000,0.000000,621.614671,-621.645468,0.127408,0.000000,-0.000000,0.000000
-0.770000,-1.170000,0.901495,0.020000,-85.495808,3648.950000,-251.929806,251.902456,584.613355,-0.000000,0.000000,0.000000,636.566639,-636.593990,0.123622,0.000000,-0.000000,0.000000
-0.790000,-1.170000,0.912327,0.020000,-75.643451,3804.950000,-234.310030,234.280380,581.171126,-0.000000,0.000000,0.000000,626.606355,-626.636005,0.131391,0.000000,-0.000000,0.000000
-0.750000,-1.190000,0.907275,0.020000,-80.170973,3520.550000,-272.111790,272.734552,568.733077,-0.000000,0.000000,0.000000,630.923411,-630.300648,0.406755,0.000000,-0.000000,0.000000
-0.730000,-1.190000,0.896531,0.020000,-89.582708,3372.550000,-290.549459,290.551924,571.170522,-0.000000,0.000000,0.000000,640.825263,-640.822798,0.176997,0.000000,-0.000000,0.000000
-0.730000,-1.170000,0.879625,0.020000,-104.890884,3348.950000,-288.520139,286.649504,591.581370,-0.000000,0.000000,0.000000,656.841634,-658.712269,-1.740263,0.000000,-0.000000,-0.000000
-0.750000,-1.170000,0.890573,0.020000,-95.247374,3496.950000,-269.833944,269.923215,587.271680,-0.000000,0.000000,0.000000,646.359167,-646.269896,0.031596,0.000000,-0.000000,0.000000
-0.710000,-1.190000,0.886109,0.020000,-98.878232,3228.550000,-311.062960,310.413635,571.365882,-0.000000,0.000000,0.000000,650.069773,-650.719098,2.083060,0.000000,-0.000000,0.000000
-0.690000,-1.190000,0.876019,0.020000,-108.050132,3088.550000,-325.284917,326.381341,572.471107,-0.000000,0.000000,0.000000,659.249825,-658.153401,-1.606424,0.000000,-0.000000,-0.000000
-0.690000,-1.170000,0.858709,0.020000,-123.823626,3064.950000,-325.648773,323.820482,593.937638,-0.000000,0.000000,0.000000,675.993598,-677.821888,-3.225471,0.000000,-0.000000,-0.000000
-0.710000,-1.170000,0.869000,0.020000,-114.418861,3204.950000,-309.256149,308.756013,590.729131,-0.000000,0.000000,0.000000,666.416155,-666.916291,1.345516,0.000000,-0.000000,0.000000
-0.670000,-1.190000,0.866273,0.020000,-117.090819,2952.550000,-350.735892,352.003774,569.955786,-0.000000,0.000000,0.000000,670.176246,-668.908364,4.843485,0.000000,-0.000000,0.000000
-0.650000,-1.190000,0.856884,0.020000,-125.992533,2820.550000,-363.866627,364.627019,568.459692,-0.000000,0.000000,0.000000,675.525843,-674.765451,-0.724309,0.000000,-0.000000,-0.000000
-0.650000,-1.170000,0.839180,0.020000,-142.231832,2796.950000,-365.429622,364.351958,594.843083,-0.000000,0.000000,0.000000,697.289109,-698.366773,-4.443788,0.000000,-0.000000,-0.000000
-0.670000,-1.170000,0.848765,0.020000,-133.097303,2928.950000,-350.314039,353.812222,594.900341,-0.000000,0.000000,0.000000,693.014816,-689.516633,2.561482,0.000000,-0.000000,0.000000
0.650000,-1.190000,0.856348,0.020000,-125.963821,2820.550000,-363.509095,364.271156,-568.486936,-0.000000,0.000000,-0.000000,675.356838,-674.594776,1.039158,0.000000,-0.000000,0.000000
0.670000,-1.190000,0.866142,0.020000,-117.063516,2952.550000,-350.382702,351.651379,-569.966455,-0.000000,0.000000,-0.000000,670.002805,-668.734128,-4.536310,0.000000,-0.000000,-0.000000
0.670000,-1.170000,0.848863,0.020000,-133.065854,2928.950000,-349.953567,353.450562,-594.900414,-0.000000,0.000000,-0.000000,692.831548,-689.334553,-2.250036,0.000000,-0.000000,-0.000000
0.650000,-1.170000,0.838867,0.020000,-142.198979,2796.950000,-365.063309,363.985449,-594.862844,-0.000000,0.000000,-0.000000,697.112213,-698.190073,4.765332,0.000000,-0.000000,0.000000
0.690000,-1.190000,0.876284,0.020000,-108.024378,3088.550000,-324.942390,326.040047,-572.470066,-0.000000,0.000000,-0.000000,659.079685,-657.982028,1.902644,0.000000,-0.000000,0.000000
0.710000,-1.190000,0.886692,0.020000,-98.854163,3228.550000,-310.726032,310.078973,-571.350438,-0.000000,0.000000,-0.000000,649.897829,-650.544888,-1.794891,0.000000,-0.000000,-0.000000
0.710000,-1.170000,0.869354,0.020000,-114.390650,3204.950000,-308.910134,308.410284,-590.705712,-0.000000,0.000000,-0.000000,666.235830,-666.735680,-1.049531,0.000000,-0.000000,-0.000000
0.690000,-1.170000,0.859208,0.020000,-123.793725,3064.950000,-325.297253,323.468727,-593.929327,-0.000000,0.000000,-0.000000,675.816049,-677.644575,3.529175,0.000000,-0.000000,0.000000
0.730000,-1.190000,0.896732,0.020000,-89.560458,3372.550000,-290.223894,290.226425,-571.144270,-0.000000,0.000000,-0.000000,640.654378,-640.651847,0.101297,0.000000,-0.000000,0.000000
0.750000,-1.190000,0.907101,0.020000,-80.150672,3520.550000,-271.794508,272.417329,-568.695941,-0.000000,0.000000,-0.000000,630.753069,-630.130248,-0.136566,0.000000,-0.000000,-0.000000
0.750000,-1.170000,0.890160,0.020000,-95.222956,3496.950000,-269.506412,269.595395,-587.225843,-0.000000,0.000000,-0.000000,646.180560,-646.091577,0.247014,0.000000,-0.000000,0.000000
0.730000,-1.170000,0.879591,0.020000,-104.864502,3348.950000,-288.185028,286.313916,-591.546841,-0.000000,0.000000,-0.000000,656.662968,-658.534080,2.026297,0.000000,-0.000000,0.000000
0.770000,-1.190000,0.917789,0.020000,-70.632027,3672.550000,-254.539753,254.508947,-566.948402,-0.000000,0.000000,-0.000000,621.445068,-621.475874,0.134695,0.000000,-0.000000,0.000000
0.790000,-1.190000,0.928785,0.020000,-61.011556,3828.550000,-237.472001,237.447912,-564.007803,-0.000000,0.000000,-0.000000,611.945487,-611.969577,0.108798,0.000000,-0.000000,0.000000
0.790000,-1.170000,0.912247,0.020000,-75.623350,3804.950000,-234.001080,233.971421,-581.104986,-0.000000,0.000000,-0.000000,626.429545,-626.459203,0.130462,0.000000,-0.000000,0.000000
0.770000,-1.170000,0.901050,0.020000,-85.473484,3648.950000,-251.611270,251.583909,-584.556903,-0.000000,0.000000,-0.000000,636.388785,-636.416146,0.146610,0.000000,-0.000000,0.000000
0.810000,-1.190000,0.940078,0.020000,-51.296089,3988.550000,-220.748265,220.796642,-560.489219,-0.000000,0.000000,-0.000000,602.426554,-602.378177,0.176947,0.000000,-0.000000,0.000000
0.830000,-1.190000,0.951657,0.020000,-41.492270,4152.550000,-204.548507,204.847295,-556.610008,-0.000000,0.000000,-0.000000,593.205794,-592.907006,0.193142,0.000000,-0.000000,0.000000
0.830000,-1.170000,0.935486,0.020000,-55.649076,4128.950000,-200.403498,200.424225,-572.624591,-0.000000,0.000000,-0.000000,606.693669,-606.672942,0.068481,0.000000,-0.000000,0.000000
0.810000,-1.170000,0.923742,0.020000,-65.679603,3964.950000,-216.923488,216.880872,-577.141852,-0.000000,0.000000,-0.000000,616.533033,-616.575649,0.133492,0.000000,-0.000000,0.000000
0.850000,-1.190000,0.963280,0.020000,-31.606489,4320.550000,-190.191887,188.386054,-554.018037,-0.000000,0.000000,-0.000000,584.559216,-586.365050,0.624391,0.000000,-0.000000,0.000000
0.870000,-1.190000,0.974739,0.020000,-21.644948,4492.550000,-177.729882,175.645075,-551.404019,-0.000000,0.000000,-0.000000,577.977177,-580.061983,-1.087696,0.000000,-0.000000,-0.000000
0.870000,-1.170000,0.958515,0.020000,-35.353936,4468.950000,-170.150069,170.102815,-563.033012,-0.000000,0.000000,-0.000000,588.150232,-588.197486,-0.831314,0.000000,-0.000000,-0.000000
0.850000,-1.170000,0.946859,0.020000,-45.538377,4296.950000,-184.295349,183.851014,-568.174549,-0.000000,0.000000,-0.000000,597.025648,-597.469983,0.548183,0.000000,-0.000000,0.000000
0.890000,-1.190000,0.986470,0.020000,-11.615678,4668.550000,-153.323419,171.210915,-542.166448,-0.000000,0.000000,-0.000000,574.866980,-556.979485,-2.446540,0.000000,-0.000000,-0.000000
0.910000,-1.190000,0.998465,0.020000,-1.504656,4848.550000,-116.107459,150.723759,-526.372195,-0.000000,0.000000,-0.000000,560.247852,-525.631551,9.159310,0.000000,-0.000000,0.000000
0.910000,-1.170000,0.982632,0.020000,-14.788726,4824.950000,-126.739508,138.650757,-551.776290,-0.000000,0.000000,-0.000000,573.417600,-561.506351,7.209651,0.000000,-0.000000,0.000000
0.890000,-1.170000,0.970442,0.020000,-25.101658,4644.950000,-151.974533,154.934705,-555.449883,-0.000000,0.000000,-0.000000,577.737629,-574.777457,0.369691,0.000000,-0.000000,0.000000
0.930000,-1.170000,0.995075,0.020000,-4.418860,5008.950000,-118.477670,117.914943,-556.474820,-0.000000,0.000000,-0.000000,568.512369,-569.075096,10.405814,0.000000,-0.000000,0.000000
-0.970000,-1.130000,0.989691,0.020000,-8.905932,5342.950000,-98.534804,86.385003,563.805583,-0.000000,0.000000,0.000000,565.230504,-577.380305,5.975257,0.000000,-0.000000,0.000000
-0.950000,-1.150000,0.992050,0.020000,-6.890345,5173.750000,-118.532725,103.171537,571.749284,-0.000000,0.000000,0.000000,574.714948,-590.076135,0.933576,0.000000,-0.000000,0.000000
-0.930000,-1.150000,0.979477,0.020000,-17.526188,4985.750000,-125.292236,111.368525,569.110307,-0.000000,0.000000,0.000000,574.310398,-588.234110,-3.344698,0.000000,-0.000000,-0.000000
-0.930000,-1.130000,0.963905,0.020000,-30.682031,4962.950000,-115.963090,110.660466,577.030577,-0.000000,0.000000,0.000000,585.399542,-590.702166,0.197076,0.000000,-0.000000,0.000000
-0.950000,-1.130000,0.976678,0.020000,-19.814938,5150.950000,-109.182061,96.704082,573.699177,-0.000000,0.000000,0.000000,576.615933,-589.093913,2.856659,0.000000,-0.000000,0.000000
-0.910000,-1.150000,0.967154,0.020000,-28.121596,4801.750000,-132.039841,130.225364,567.725226,-0.000000,0.000000,0.000000,581.758462,-583.572939,-2.893525,0.000000,-0.000000,-0.000000
-0.890000,-1.150000,0.955091,0.020000,-38.662635,4621.750000,-146.915390,147.788817,571.063201,-0.000000,0.000000,0.000000,590.204011,-589.330584,-0.596882,0.000000,-0.000000,-0.000000
-0.890000,-1.130000,0.939114,0.020000,-52.275507,4598.950000,-141.651768,141.615725,586.785810,-0.000000,0.000000,0.000000,603.619010,-603.655053,0.197369,0.000000,-0.000000,0.000000
-0.910000,-1.130000,0.951380,0.020000,-41.504069,4778.950000,-126.867826,125.542038,580.794284,-0.000000,0.000000,0.000000,593.684991,-595.010779,-0.526086,0.000000,-0.000000,-0.000000
-0.870000,-1.150000,0.942782,0.020000,-49.144423,4445.750000,-163.444341,163.584329,577.733283,-0.000000,0.000000,0.000000,600.497044,-600.357056,0.204982,0.000000,-0.000000,0.000000
-0.850000,-1.150000,0.930586,0.020000,-59.560803,4273.750000,-179.333036,179.271533,583.808446,-0.000000,0.000000,0.000000,610.691440,-610.752944,0.122689,0.000000,-0.000000,0.000000
-0.850000,-1.130000,0.914711,0.020000,-73.642214,4250.950000,-173.336643,173.302537,600.093389,-0.000000,0.000000,0.000000,624.604224,-624.638330,0.127617,0.000000,-0.000000,0.000000
-0.870000,-1.130000,0.927116,0.020000,-62.990295,4422.950000,-157.128452,157.084351,593.625387,-0.000000,0.000000,0.000000,614.041066,-614.085166,0.106896,0.000000,-0.000000,0.000000
-0.830000,-1.150000,0.918663,0.020000,-69.905445,4105.750000,-195.717560,195.685141,589.242870,-0.000000,0.000000,0.000000,620.875217,-620.907635,0.124091,0.000000,-0.000000,0.000000
-0.810000,-1.150000,0.907025,0.020000,-80.171785,3941.750000,-212.726245,212.692401,594.264698,-0.000000,0.000000,0.000000,631.169081,-631.202925,0.131140,0.000000,-0.000000,0.000000
-0.810000,-1.130000,0.890731,0.020000,-94.731274,3918.950000,-207.625950,207.593324,611.806815,-0.000000,0.000000,0.000000,646.055916,-646.088542,0.124434,0.000000,-0.000000,0.000000
-0.830000,-1.130000,0.902579,0.020000,-84.224785,4082.950000,-190.169729,190.132754,606.174461,-0.000000,0.000000,0.000000,635.280619,-635.317594,0.129777,0.000000,-0.000000,0.000000
-0.790000,-1.150000,0.895683,0.020000,-90.353022,3781.750000,-229.959068,230.650480,598.097998,-0.000000,0.000000,0.000000,641.252372,-640.560960,0.386383,0.000000,-0.000000,0.000000
-0.770000,-1.150000,0.884647,0.020000,-100.442117,3625.750000,-248.404289,248.084315,602.825165,-0.000000,0.000000,0.000000,651.778203,-652.098177,-0.094279,0.000000,-0.000000,-0.000000
-0.770000,-1.130000,0.867933,0.020000,-115.487802,3602.950000,-244.274926,241.772396,623.557176,-0.000000,0.000000,0.000000,667.987361,-670.489891,-1.927122,0.000000,-0.000000,-0.000000
-0.790000,-1.130000,0.879178,0.020000,-105.154694,3758.950000,-225.523233,225.565575,616.744057,-0.000000,0.000000,0.000000,656.712505,-656.670164,0.040220,0.000000,-0.000000,0.000000
-0.750000,-1.150000,0.873930,0.020000,-110.431798,3473.750000,-269.492136,271.226611,603.404693,-0.000000,0.000000,0.000000,662.058866,-660.324390,4.128569,0.000000,-0.000000,0.000000
-0.730000,-1.150000,0.862852,0.020000,-120.314559,3325.750000,-282.360597,284.144916,606.929231,-0.000000,0.000000,0.000000,670.661781,-668.877462,-1.967200,0.000000,-0.000000,-0.000000
-0.730000,-1.130000,0.846219,0.020000,-135.852849,3302.950000,-281.395130,280.238748,632.770007,-0.000000,0.000000,0.000000,691.692646,-692.849028,-4.138081,0.000000,-0.000000,-0.000000
-0.750000,-1.130000,0.857006,0.020000,-125.723102,3450.950000,-266.261572,268.471439,625.736304,-0.000000,0.000000,0.000000,681.560336,-679.350469,3.349034,0.000000,-0.000000,0.000000
0.730000,-1.150000,0.862574,0.020000,-120.283911,3325.750000,-282.011117,283.795836,-606.886468,-0.000000,0.000000,-0.000000,670.474641,-668.689922,2.265074,0.000000,-0.000000,0.000000
0.750000,-1.150000,0.873349,0.020000,-110.403131,3473.750000,-269.148993,270.883575,-603.348827,-0.000000,0.000000,-0.000000,661.869467,-660.134885,-3.837126,0.000000,-0.000000,-0.000000
0.750000,-1.130000,0.856675,0.020000,-125.690051,3450.950000,-265.911601,268.121281,-625.668459,-0.000000,0.000000,-0.000000,681.361763,-679.152083,-3.052800,0.000000,-0.000000,-0.000000
0.730000,-1.130000,0.845687,0.020000,-135.817794,3302.950000,-281.038159,279.881672,-632.715740,-0.000000,0.000000,-0.000000,691.496353,-692.652840,4.441232,0.000000,-0.000000,0.000000
0.770000,-1.150000,0.884445,0.020000,-100.415567,3625.750000,-248.075755,247.756039,-602.758630,-0.000000,0.000000,-0.000000,651.591720,-651.911436,0.372582,0.000000,-0.000000,0.000000
0.790000,-1.150000,0.895850,0.020000,-90.328720,3781.750000,-229.640760,230.332137,-598.021825,-0.000000,0.000000,-0.000000,641.067045,-640.375668,-0.116580,0.000000,-0.000000,-0.000000
0.790000,-1.130000,0.879603,0.020000,-105.126066,3758.950000,-225.195879,225.237948,-616.657173,-0.000000,0.000000,-0.000000,656.518308,-656.476239,0.237519,0.000000,-0.000000,0.000000
0.770000,-1.130000,0.867984,0.020000,-115.456894,3602.950000,-243.937979,241.435506,-623.480011,-0.000000,0.000000,-0.000000,667.792323,-670.294796,2.212460,0.000000,-0.000000,0.000000
0.810000,-1.150000,0.907553,0.020000,-80.149860,3941.750000,-212.418418,212.384571,-594.179465,-0.000000,0.000000,-0.000000,630.985149,-631.018996,0.129997,0.000000,-0.000000,0.000000
0.830000,-1.150000,0.919004,0.020000,-69.886019,4105.750000,-195.420287,195.387869,-589.149375,-0.000000,0.000000,-0.000000,620.692840,-620.725258,0.128597,0.000000,-0.000000,0.000000
0.830000,-1.130000,0.902664,0.020000,-84.201105,4082.950000,-189.864570,189.827596,-606.070022,-0.000000,0.000000,-0.000000,635.089685,-635.126658,0.130171,0.000000,-0.000000,0.000000
0.810000,-1.130000,0.891176,0.020000,-94.705057,3918.950000,-207.309476,207.276848,-611.710654,-0.000000,0.000000,-0.000000,645.863209,-645.895837,0.144393,0.000000,-0.000000,0.000000
0.850000,-1.150000,0.930578,0.020000,-59.543995,4273.750000,-179.046316,178.984813,-583.707438,-0.000000,0.000000,-0.000000,610.510755,-610.572258,0.121777,0.000000,-0.000000,0.000000
0.870000,-1.150000,0.942435,0.020000,-49.130348,4445.750000,-163.168243,163.308185,-577.625526,-0.000000,0.000000,-0.000000,600.318221,-600.178279,0.031418,0.000000,-0.000000,0.000000
0.870000,-1.130000,0.926509,0.020000,-62.972050,4422.950000,-156.845858,156.801772,-593.506708,-0.000000,0.000000,-0.000000,613.854087,-613.898173,0.135954,0.000000,-0.000000,0.000000
0.850000,-1.130000,0.914446,0.020000,-73.621193,4250.950000,-173.042799,173.008695,-599.981460,-0.000000,0.000000,-0.000000,624.415207,-624.449311,0.123668,0.000000,-0.000000,0.000000
0.890000,-1.150000,0.954564,0.020000,-38.651403,4621.750000,-146.649894,147.522761,-570.949725,-0.000000,0.000000,-0.000000,590.027219,-589.154352,0.825698,0.000000,-0.000000,0.000000
0.910000,-1.150000,0.966954,0.020000,-28.113314,4801.750000,-131.784332,129.969351,-567.606142,-0.000000,0.000000,-0.000000,581.583520,-583.398501,3.115060,0.000000,-0.000000,0.000000
0.910000,-1.130000,0.951438,0.020000,-41.491712,4778.950000,-126.607712,125.282045,-580.664155,-0.000000,0.000000,-0.000000,593.502470,-594.828136,0.752416,0.000000,-0.000000,0.000000
0.890000,-1.130000,0.938843,0.020000,-52.260153,4598.950000,-141.380312,141.344225,-586.661169,-0.000000,0.000000,-0.000000,603.434206,-603.470293,0.037346,0.000000,-0.000000,0.000000
0.930000,-1.150000,0.979596,0.020000,-17.520957,4985.750000,-125.044029,111.122011,-568.984312,-0.000000,0.000000,-0.000000,574.136290,-588.058309,3.560227,0.000000,-0.000000,0.000000
0.950000,-1.150000,0.992480,0.020000,-6.888262,5173.750000,-118.289082,102.931823,-571.612899,-0.000000,0.000000,-0.000000,574.537359,-589.894618,-0.721987,0.000000,-0.000000,-0.000000
0.950000,-1.130000,0.977180,0.020000,-19.808886,5150.950000,-108.935567,96.463129,-573.556292,-0.000000,0.000000,-0.000000,576.436073,-588.908511,-2.641105,0.000000,-0.000000,-0.000000
0.930000,-1.130000,0.964284,0.020000,-30.672776,4962.950000,-115.712070,110.410804,-576.894278,-0.000000,0.000000,-0.000000,585.218312,-590.519578,0.022371,0.000000,-0.000000,0.000000
0.970000,-1.130000,0.989884,0.020000,-8.903178,5342.950000,-98.293155,86.148540,-563.658849,-0.000000,0.000000,-0.000000,565.051840,-577.196455,-5.761191,0.000000,-0.000000,-0.000000
-1.010000,-1.090000,0.986694,0.020000,-11.619676,5694.550000,-30.987717,53.130057,561.331246,-0.000000,0.000000,0.000000,573.975359,-551.833019,-0.769130,0.000000,-0.000000,-0.000000
-1.030000,-1.090000,1.000188,0.020000,-0.168266,5898.550000,13.310877,24.328541,540.301955,0.000000,0.000000,0.000000,558.568368,-520.928950,-25.058638,0.000000,-0.000000,-0.000000
-0.990000,-1.110000,0.988137,0.020000,-10.485353,5516.550000,-68.832154,63.111813,568.170907,-0.000000,0.000000,0.000000,569.127425,-574.847766,0.820069,0.000000,-0.000000,0.000000
-0.970000,-1.110000,0.974693,0.020000,-21.651818,5320.550000,-82.062744,75.699769,574.848429,-0.000000,0.000000,0.000000,577.052672,-583.415647,1.135313,0.000000,-0.000000,0.000000
-0.970000,-1.090000,0.959876,0.020000,-34.425211,5298.550000,-69.403427,66.206430,585.407702,-0.000000,0.000000,0.000000,587.722547,-590.919544,-0.625872,0.000000,-0.000000,-0.000000
-0.990000,-1.090000,0.973425,0.020000,-23.032299,5494.550000,-58.784454,56.533464,577.682254,-0.000000,0.000000,0.000000,579.423765,-581.674754,1.974752,0.000000,-0.000000,0.000000
-0.950000,-1.110000,0.961477,0.020000,-32.784738,5128.550000,-94.113502,90.236944,580.882932,-0.000000,0.000000,0.000000,586.210815,-590.087373,1.376619,0.000000,-0.000000,0.000000
-0.930000,-1.110000,0.948498,0.020000,-43.881903,4940.550000,-105.411365,104.341656,587.321985,-0.000000,0.000000,0.000000,596.077270,-597.146979,0.411736,0.000000,-0.000000,0.000000
-0.930000,-1.090000,0.933266,0.020000,-57.123554,4918.550000,-95.855444,95.855807,600.675069,-0.000000,0.000000,0.000000,608.275473,-608.275109,0.097181,0.000000,-0.000000,0.000000
-0.950000,-1.090000,0.946454,0.020000,-45.790747,5106.550000,-81.864036,81.566857,592.064110,-0.000000,0.000000,0.000000,597.528012,-597.825191,0.066575,0.000000,-0.000000,0.000000
-0.910000,-1.110000,0.935768,0.020000,-54.937247,4756.550000,-119.012163,118.888840,594.490022,-0.000000,0.000000,0.000000,606.211877,-606.335200,0.063020,0.000000,-0.000000,0.000000
-0.890000,-1.110000,0.923294,0.020000,-65.944976,4576.550000,-134.242703,134.215782,602.183515,-0.000000,0.000000,0.000000,616.948823,-616.975744,0.123205,0.000000,-0.000000,0.000000
-0.890000,-1.090000,0.907640,0.020000,-79.668115,4554.550000,-126.257034,126.222215,617.917501,-0.000000,0.000000,0.000000,630.663545,-630.698365,0.118568,0.000000,-0.000000,0.000000
-0.910000,-1.090000,0.920325,0.020000,-68.417990,4734.550000,-110.742293,110.702812,609.448880,-0.000000,0.000000,0.000000,619.405320,-619.444801,0.123898,0.000000,-0.000000,0.000000
-0.870000,-1.110000,0.911090,0.020000,-76.898992,4400.550000,-150.153631,150.114051,609.679907,-0.000000,0.000000,0.000000,627.873309,-627.912889,0.124992,0.000000,-0.000000,0.000000
-0.850000,-1.110000,0.899001,0.020000,-87.792931,4228.550000,-166.727865,166.688945,616.810394,-0.000000,0.000000,0.000000,638.922430,-638.961350,0.129021,0.000000,-0.000000,0.000000
-0.850000,-1.090000,0.883082,0.020000,-102.010309,4206.550000,-159.665723,159.473288,633.909388,-0.000000,0.000000,0.000000,653.588310,-653.780745,0.279537,0.000000,-0.000000,0.000000
-0.870000,-1.090000,0.895221,0.020000,-90.867719,4378.550000,-142.711866,142.531537,626.087900,-0.000000,0.000000,0.000000,642.036719,-642.217048,0.271062,0.000000,-0.000000,0.000000
-0.830000,-1.110000,0.886654,0.020000,-98.620165,4060.550000,-183.585797,184.337067,622.782198,-0.000000,0.000000,0.000000,649.759460,-649.008190,0.349841,0.000000,-0.000000,0.000000
-0.810000,-1.110000,0.874590,0.020000,-109.373791,3896.550000,-201.840690,201.537577,629.834082,-0.000000,0.000000,0.000000,661.187596,-661.490709,-0.056684,0.000000,-0.000000,-0.000000
-0.810000,-1.090000,0.858612,0.020000,-124.097044,3874.550000,-195.681829,192.940717,650.539618,-0.000000,0.000000,0.000000,677.566900,-680.308011,-1.611664,0.000000,-0.000000,-0.000000
-0.830000,-1.090000,0.870897,0.020000,-113.089107,4038.550000,-176.973761,176.950844,641.152995,-0.000000,0.000000,0.000000,665.114706,-665.137623,0.070333,0.000000,-0.000000,0.000000
-0.790000,-1.110000,0.862821,0.020000,-120.046637,3736.550000,-222.173719,224.099476,632.514016,-0.000000,0.000000,0.000000,671.671925,-669.746168,3.646397,0.000000,-0.000000,0.000000
-0.770000,-1.110000,0.851360,0.020000,-130.631253,3580.550000,-235.078124,237.099287,638.865449,-0.000000,0.000000,0.000000,682.097978,-680.076815,-2.626171,0.000000,-0.000000,-0.000000
-0.770000,-1.090000,0.834937,0.020000,-145.870608,3558.550000,-232.598954,231.305853,665.063273,-0.000000,0.000000,0.000000,703.695550,-704.988651,-3.644220,0.000000,-0.000000,-0.000000
-0.790000,-1.090000,0.846621,0.020000,-135.026762,3714.550000,-217.319015,219.709441,654.732504,-0.000000,0.000000,0.000000,691.418336,-689.027910,3.893649,0.000000,-0.000000,0.000000
0.770000,-1.110000,0.851674,0.020000,-130.595852,3580.550000,-234.728835,236.750077,-638.778360,-0.000000,0.000000,-0.000000,681.894122,-679.872879,2.922795,0.000000,-0.000000,0.000000
0.790000,-1.110000,0.863377,0.020000,-120.013550,3736.550000,-221.832200,223.757775,-632.415549,-0.000000,0.000000,-0.000000,671.466904,-669.541330,-3.355886,0.000000,-0.000000,-0.000000
0.790000,-1.090000,0.846909,0.020000,-134.989083,3714.550000,-216.971812,219.361717,-654.619666,-0.000000,0.000000,-0.000000,691.202703,-688.812797,-3.598560,0.000000,-0.000000,-0.000000
0.770000,-1.090000,0.835525,0.020000,-145.830574,3558.550000,-232.242993,230.949994,-664.961592,-0.000000,0.000000,-0.000000,703.480823,-704.773822,3.945686,0.000000,-0.000000,0.000000
0.810000,-1.110000,0.874773,0.020000,-109.343155,3896.550000,-201.515680,201.212856,-629.726017,-0.000000,0.000000,-0.000000,660.985725,-661.288549,0.333100,0.000000,-0.000000,0.000000
0.830000,-1.110000,0.886474,0.020000,-98.592108,4060.550000,-183.272843,184.023978,-622.666159,-0.000000,0.000000,-0.000000,649.559576,-648.808441,-0.082407,0.000000,-0.000000,-0.000000
0.830000,-1.090000,0.870443,0.020000,-113.056548,4038.550000,-176.653360,176.630201,-641.024451,-0.000000,0.000000,-0.000000,664.905426,-664.928585,0.204459,0.000000,-0.000000,0.000000
0.810000,-1.090000,0.858524,0.020000,-124.061858,3874.550000,-195.349867,192.609215,-650.418718,-0.000000,0.000000,-0.000000,677.355674,-680.096326,1.894417,0.000000,-0.000000,0.000000
0.850000,-1.110000,0.898468,0.020000,-87.767579,4228.550000,-166.426948,166.388033,-616.686790,-0.000000,0.000000,-0.000000,638.724649,-638.763564,0.129261,0.000000,-0.000000,0.000000
0.870000,-1.110000,0.910743,0.020000,-76.876464,4400.550000,-149.864718,149.825146,-609.549665,-0.000000,0.000000,-0.000000,627.677818,-627.717390,0.124434,0.000000,-0.000000,0.000000
0.870000,-1.090000,0.895147,0.020000,-90.840794,4378.550000,-142.416943,142.236512,-625.945338,-0.000000,0.000000,-0.000000,641.832260,-642.012691,-0.015035,0.000000,-0.000000,-0.000000
0.850000,-1.090000,0.882655,0.020000,-101.980505,4206.550000,-159.358022,159.165485,-633.773322,-0.000000,0.000000,-0.000000,653.381297,-653.573835,-0.014221,0.000000,-0.000000,-0.000000
0.890000,-1.110000,0.923288,0.020000,-65.925390,4576.550000,-133.965662,133.938748,-602.047388,-0.000000,0.000000,-0.000000,616.755736,-616.782650,0.117619,0.000000,-0.000000,0.000000
0.910000,-1.110000,0.936093,0.020000,-54.920712,4756.550000,-118.746786,118.623518,-594.348671,-0.000000,0.000000,-0.000000,606.021264,-606.144531,0.169459,0.000000,-0.000000,0.000000
0.910000,-1.090000,0.920925,0.020000,-68.397170,4734.550000,-110.472216,110.432746,-609.295639,-0.000000,0.000000,-0.000000,619.206324,-619.245795,0.114471,0.000000,-0.000000,0.000000
0.890000,-1.090000,0.907907,0.020000,-79.644186,4554.550000,-125.974571,125.939754,-617.769229,-0.000000,0.000000,-0.000000,630.461783,-630.496600,0.128537,0.000000,-0.000000,0.000000
0.930000,-1.110000,0.949057,0.020000,-43.868526,4940.550000,-105.157103,104.087948,-587.175681,-0.000000,0.000000,-0.000000,595.889029,-596.958184,-0.187295,0.000000,-0.000000,-0.000000
0.950000,-1.110000,0.961716,0.020000,-32.774620,5128.550000,-93.868001,89.993196,-580.731914,-0.000000,0.000000,-0.000000,586.024713,-589.899518,-1.158247,0.000000,-0.000000,-0.000000
0.950000,-1.090000,0.946421,0.020000,-45.776466,5106.550000,-81.617807,81.320793,-591.902821,-0.000000,0.000000,-0.000000,597.334692,-597.631705,0.155231,0.000000,-0.000000,0.000000
0.930000,-1.090000,0.933555,0.020000,-57.105952,4918.550000,-95.597543,95.597924,-600.517553,-0.000000,0.000000,-0.000000,608.079331,-608.078949,0.132698,0.000000,-0.000000,0.000000
0.970000,-1.110000,0.974621,0.020000,-21.645056,5320.550000,-81.824562,75.464440,-574.693276,-0.000000,0.000000,-0.000000,576.868618,-583.228740,-0.921485,0.000000,-0.000000,-0.000000
0.990000,-1.110000,0.987762,0.020000,-10.482042,5516.550000,-68.600756,62.886447,-568.012565,-0.000000,0.000000,-0.000000,568.947114,-574.661423,-0.611211,0.000000,-0.000000,-0.000000
0.990000,-1.090000,0.972877,0.020000,-23.024950,5494.550000,-58.556212,56.308155,-577.513156,-0.000000,0.000000,-0.000000,579.235158,-581.483215,-1.765244,0.000000,-0.000000,-0.000000
0.970000,-1.090000,0.959532,0.020000,-34.414348,5298.550000,-69.167161,65.971537,-585.242588,-0.000000,0.000000,-0.000000,587.531883,-590.727507,0.840687,0.000000,-0.000000,0.000000
1.030000,-1.090000,1.000234,0.020000,-0.168214,5898.550000,13.505358,24.116242,-540.138370,0.000000,0.000000,-0.000000,558.384632,-520.763032,25.252450,0.000000,-0.000000,0.000000
1.010000,-1.090000,0.986448,0.020000,-11.615928,5694.550000,-30.771567,52.909308,-561.162154,-0.000000,0.000000,-0.000000,573.787838,-551.650097,0.974081,0.000000,-0.000000,0.000000
-1.050000,-1.070000,0.999528,0.020000,-0.638459,6084.950000,-0.843422,-9.010916,582.069390,0.000000,-0.000000,0.000000,576.961577,-586.815915,-15.064484,0.000000,-0.000000,-0.000000
-1.050000,-1.050000,0.985357,0.020000,-12.521017,6063.750000,-12.828902,-12.637697,583.722195,-0.000000,-0.000000,0.000000,570.988895,-596.455495,0.095603,0.000000,-0.000000,0.000000
-1.070000,-1.050000,0.999669,0.020000,-0.638467,6275.750000,-9.201751,-0.657621,582.085431,-0.000000,0.000000,0.000000,576.971545,-586.830918,15.253071,0.000000,-0.000000,0.000000
-1.030000,-1.070000,0.985620,0.020000,-12.296911,5876.950000,-5.569409,10.973880,570.112649,-0.000000,0.000000,0.000000,572.716344,-567.311873,-13.445056,0.000000,-0.000000,-0.000000
-1.010000,-1.070000,0.971924,0.020000,-23.954548,5672.950000,-28.747429,31.382157,574.076250,-0.000000,0.000000,0.000000,576.172095,-573.537367,-3.077447,0.000000,-0.000000,-0.000000
-1.010000,-1.050000,0.957344,0.020000,-36.305432,5651.750000,-21.217933,21.507578,587.885140,-0.000000,0.000000,0.000000,588.416127,-588.126483,-1.475234,0.000000,-0.000000,-0.000000
-1.030000,-1.050000,0.971245,0.020000,-24.416629,5855.750000,-9.676540,4.742717,582.523374,-0.000000,0.000000,0.000000,580.087391,-585.021214,-3.993042,0.000000,-0.000000,-0.000000
-0.990000,-1.070000,0.958450,0.020000,-35.599682,5472.950000,-46.855573,47.111938,586.108576,-0.000000,0.000000,0.000000,588.115266,-587.858901,1.387808,0.000000,-0.000000,0.000000
-0.970000,-1.070000,0.945207,0.020000,-47.226260,5276.950000,-58.821911,58.029417,596.594865,-0.000000,0.000000,0.000000,599.052625,-599.845119,-0.203931,0.000000,-0.000000,-0.000000
-0.970000,-1.050000,0.930208,0.020000,-60.050746,5255.750000,-48.490757,48.416214,609.297928,-0.000000,0.000000,0.000000,611.184203,-611.258747,0.116083,0.000000,-0.000000,0.000000
-0.990000,-1.050000,0.943662,0.020000,-48.185167,5451.750000,-35.373172,35.538506,598.402161,-0.000000,0.000000,0.000000,599.534260,-599.368926,0.224846,0.000000,-0.000000,0.000000
-0.950000,-1.070000,0.931618,0.020000,-58.829377,5084.950000,-72.363199,72.350326,605.655353,-0.000000,0.000000,0.000000,609.955765,-609.968638,0.141858,0.000000,-0.000000,0.000000
-0.930000,-1.070000,0.918217,0.020000,-70.403537,4896.950000,-86.710260,86.663979,615.328571,-0.000000,0.000000,0.000000,621.381634,-621.427915,0.115785,0.000000,-0.000000,0.000000
-0.930000,-1.050000,0.903361,0.020000,-83.718170,4875.750000,-76.798224,76.759416,630.130075,-0.000000,0.000000,0.000000,634.771021,-634.809830,0.116971,0.000000,-0.000000,0.000000
-0.950000,-1.050000,0.916978,0.020000,-71.896920,5063.750000,-62.267102,62.226577,619.769522,-0.000000,0.000000,0.000000,622.867300,-622.907826,0.113985,0.000000,-0.000000,0.000000
-0.910000,-1.070000,0.905061,0.020000,-81.942997,4712.950000,-101.372620,102.143484,623.970419,-0.000000,0.000000,0.000000,632.598785,-631.827920,0.248252,0.000000,-0.000000,0.000000
-0.890000,-1.070000,0.892159,0.020000,-93.441729,4532.950000,-117.697569,117.742547,633.884837,-0.000000,0.000000,0.000000,644.745616,-644.700638,0.296878,0.000000,-0.000000,0.000000
-0.890000,-1.050000,0.876860,0.020000,-107.262342,4511.750000,-109.135288,106.625236,652.544208,-0.000000,0.000000,0.000000,660.146408,-662.656461,-0.486389,0.000000,-0.000000,-0.000000
-0.910000,-1.050000,0.889984,0.020000,-95.508683,4691.750000,-92.048205,91.966987,640.150052,-0.000000,0.000000,0.000000,646.687679,-646.768897,0.087715,0.000000,-0.000000,0.000000
-0.870000,-1.070000,0.879522,0.020000,-104.893414,4356.950000,-134.476128,135.173839,641.095935,-0.000000,0.000000,0.000000,655.467431,-654.769719,1.194622,0.000000,-0.000000,0.000000
-0.850000,-1.070000,0.867162,0.020000,-116.291432,4184.950000,-147.577705,149.660521,651.678855,-0.000000,0.000000,0.000000,669.446972,-667.364157,-2.640560,0.000000,-0.000000,-0.000000
-0.850000,-1.050000,0.851415,0.020000,-130.633092,4163.750000,-142.213343,139.912942,672.224741,-0.000000,0.000000,0.000000,685.712900,-688.013300,-1.998735,0.000000,-0.000000,-0.000000
-0.870000,-1.050000,0.864000,0.020000,-118.972725,4335.750000,-126.489893,126.085712,658.716470,-0.000000,0.000000,0.000000,670.508922,-670.913102,1.653976,0.000000,-0.000000,0.000000
-0.830000,-1.070000,0.855092,0.020000,-127.628860,4016.950000,-170.617908,172.617596,656.257880,-0.000000,0.000000,0.000000,679.319695,-677.320006,3.039512,0.000000,-0.000000,0.000000
-0.810000,-1.070000,0.842806,0.020000,-138.898467,3852.950000,-183.239208,185.187622,665.130055,-0.000000,0.000000,0.000000,691.135204,-689.186789,-3.220454,0.000000,-0.000000,-0.000000
-0.810000,-1.050000,0.827122,0.020000,-153.775202,3831.750000,-179.444741,178.053253,691.318975,-0.000000,0.000000,0.000000,713.353573,-714.745061,-2.588847,0.000000,-0.000000,-0.000000
-0.830000,-1.050000,0.839118,0.020000,-142.236381,3995.750000,-165.443463,168.788910,678.748800,-0.000000,0.000000,0.000000,700.667037,-697.321590,5.890928,0.000000,-0.000000,0.000000
0.810000,-1.070000,0.842435,0.020000,-138.858598,3852.950000,-182.897477,184.846384,-664.998584,-0.000000,0.000000,-0.000000,690.916233,-688.967326,3.513439,0.000000,-0.000000,0.000000
0.830000,-1.070000,0.854579,0.020000,-127.591670,4016.950000,-170.285320,172.284749,-656.116669,-0.000000,0.000000,-0.000000,679.100054,-677.100625,-2.752359,0.000000,-0.000000,-0.000000
0.830000,-1.050000,0.838892,0.020000,-142.194430,3995.750000,-165.107194,168.450200,-678.589008,-0.000000,0.000000,-0.000000,700.432422,-697.089416,-5.599450,0.000000,-0.000000,-0.000000
0.810000,-1.050000,0.826518,0.020000,-153.730513,3831.750000,-179.097439,177.706460,-691.169485,-0.000000,0.000000,-0.000000,713.121140,-714.512119,2.886581,0.000000,-0.000000,0.000000
0.850000,-1.070000,0.867014,0.020000,-116.257053,4184.950000,-147.263870,149.346772,-651.530054,-0.000000,0.000000,-0.000000,669.231093,-667.148190,2.912561,0.000000,-0.000000,0.000000
0.870000,-1.070000,0.879728,0.020000,-104.861972,4356.950000,-134.172393,134.871602,-640.940167,-0.000000,0.000000,-0.000000,655.253873,-654.554664,-0.929788,0.000000,-0.000000,-0.000000
0.870000,-1.050000,0.864498,0.020000,-118.936646,4335.750000,-126.182398,125.778632,-658.546828,-0.000000,0.000000,-0.000000,670.285328,-670.689094,-1.383574,0.000000,-0.000000,-0.000000
0.850000,-1.050000,0.851556,0.020000,-130.594013,4163.750000,-141.894609,139.595071,-672.061094,-0.000000,0.000000,-0.000000,685.486994,-687.786532,2.275987,0.000000,-0.000000,0.000000
0.890000,-1.070000,0.892709,0.020000,-93.413345,4532.950000,-117.409897,117.454922,-633.723566,-0.000000,0.000000,-0.000000,644.534674,-644.489649,-0.043414,0.000000,-0.000000,-0.000000
0.910000,-1.070000,0.905401,0.020000,-81.917785,4712.950000,-101.098205,101.868801,-623.804813,-0.000000,0.000000,-0.000000,632.391109,-631.620513,-0.003856,0.000000,-0.000000,-0.000000
0.910000,-1.050000,0.890038,0.020000,-95.478968,4691.750000,-91.769811,91.688421,-639.970995,-0.000000,0.000000,-0.000000,646.470774,-646.552163,0.162489,0.000000,-0.000000,0.000000
0.890000,-1.050000,0.877256,0.020000,-107.229387,4511.750000,-108.843793,106.334481,-652.368547,-0.000000,0.000000,-0.000000,659.925795,-662.435108,0.744801,0.000000,-0.000000,0.000000
0.930000,-1.070000,0.918226,0.020000,-70.381606,4896.950000,-86.448545,86.402284,-615.158698,-0.000000,0.000000,-0.000000,621.176967,-621.223228,0.119701,0.000000,-0.000000,0.000000
0.950000,-1.070000,0.931305,0.020000,-58.810834,5084.950000,-72.114024,72.101150,-605.482190,-0.000000,0.000000,-0.000000,609.754319,-609.767193,0.085064,0.000000,-0.000000,0.000000
0.950000,-1.050000,0.916376,0.020000,-71.874015,5063.750000,-62.015103,61.974600,-619.583651,-0.000000,0.000000,-0.000000,622.657232,-622.697735,0.118205,0.000000,-0.000000,0.000000
0.930000,-1.050000,0.903081,0.020000,-83.691808,4875.750000,-76.533048,76.494259,-629.947171,-0.000000,0.000000,-0.000000,634.557442,-634.596232,0.124166,0.000000,-0.000000,0.000000
0.970000,-1.070000,0.944625,0.020000,-47.211204,5276.950000,-58.584924,57.792641,-596.418802,-0.000000,0.000000,-0.000000,598.854343,-599.646626,0.422457,0.000000,-0.000000,0.000000
0.990000,-1.070000,0.958178,0.020000,-35.588206,5472.950000,-46.628975,46.886049,-585.929961,-0.000000,0.000000,-0.000000,587.919997,-587.662923,-1.176098,0.000000,-0.000000,-0.000000
0.990000,-1.050000,0.943674,0.020000,-48.169476,5451.750000,-35.146466,35.311738,-598.212351,-0.000000,0.000000,-0.000000,599.331421,-599.166149,-0.009657,0.000000,-0.000000,-0.000000
0.970000,-1.050000,0.929910,0.020000,-60.031400,5255.750000,-48.251554,48.177039,-609.109732,-0.000000,0.000000,-0.000000,610.977695,-611.052211,0.107473,0.000000,-0.000000,0.000000
1.010000,-1.070000,0.971954,0.020000,-23.946744,5672.950000,-28.532613,31.165953,-573.897566,-0.000000,0.000000,-0.000000,575.980591,-573.347251,3.282298,0.000000,-0.000000,0.000000
1.030000,-1.070000,0.985943,0.020000,-12.292863,5876.950000,-5.373601,10.767416,-569.933819,-0.000000,0.000000,-0.000000,572.524655,-567.130841,13.639236,0.000000,-0.000000,0.000000
1.030000,-1.050000,0.971834,0.020000,-24.408514,5855.750000,-9.474511,4.541700,-582.330983,-0.000000,0.000000,-0.000000,579.891667,-584.824478,4.190828,0.000000,-0.000000,0.000000
1.010000,-1.050000,0.957659,0.020000,-36.293485,5651.750000,-21.003844,21.292596,-587.694714,-0.000000,0.000000,-0.000000,588.217071,-587.928319,1.682215,0.000000,-0.000000,0.000000
1.050000,-1.070000,1.000106,0.020000,-0.638253,6084.950000,-0.654790,-9.199611,-581.888136,0.000000,-0.000000,-0.000000,576.776765,-586.631166,15.249695,0.000000,-0.000000,0.000000
1.070000,-1.050000,0.999684,0.020000,-0.638244,6275.750000,-9.008775,-0.840591,-581.872095,-0.000000,0.000000,-0.000000,576.766797,-586.616163,-15.061107,0.000000,-0.000000,-0.000000
1.050000,-1.050000,0.985654,0.020000,-12.516815,6063.750000,-12.632596,-12.823801,-583.523096,-0.000000,-0.000000,-0.000000,570.794898,-596.251295,0.095603,0.000000,-0.000000,0.000000
-1.090000,-1.030000,1.000609,0.020000,-0.168270,6470.950000,24.128969,13.504911,540.321175,0.000000,0.000000,0.000000,558.573657,-520.939778,25.256213,0.000000,-0.000000,0.000000
-1.090000,-1.010000,0.986770,0.020000,-11.619825,6450.550000,52.933836,-30.790330,561.353146,0.000000,-0.000000,0.000000,573.982806,-551.839300,0.967029,0.000000,-0.000000,0.000000
-1.070000,-1.030000,0.985905,0.020000,-12.296989,6254.950000,10.774052,-5.379305,570.128153,0.000000,-0.000000,0.000000,572.719549,-567.324802,13.640471,0.000000,-0.000000,0.000000
-1.050000,-1.030000,0.971390,0.020000,-24.416708,6042.950000,4.544916,-9.480026,582.530809,0.000000,-0.000000,0.000000,580.090390,-585.025500,4.190305,0.000000,-0.000000,0.000000
-1.050000,-1.010000,0.957637,0.020000,-36.305668,6022.550000,21.303867,-21.015113,587.897732,0.000000,-0.000000,0.000000,588.420374,-588.131620,1.678835,0.000000,-0.000000,0.000000
-1.070000,-1.010000,0.972358,0.020000,-23.954780,6234.550000,31.182056,-28.548367,574.094066,0.000000,-0.000000,0.000000,576.177857,-573.544168,3.277723,0.000000,-0.000000,0.000000
-1.030000,-1.030000,0.957073,0.020000,-36.540922,5834.950000,-1.363886,-1.161290,590.763741,-0.000000,-0.000000,0.000000,589.501153,-592.026329,0.101298,0.000000,-0.000000,0.000000
-1.010000,-1.030000,0.942962,0.020000,-48.665259,5630.950000,-12.077321,11.947044,600.137649,-0.000000,0.000000,0.000000,600.192666,-600.322942,0.243600,0.000000,-0.000000,0.000000
-1.010000,-1.010000,0.928789,0.020000,-61.029812,5610.550000,-0.114031,0.101669,612.115218,-0.000000,0.000000,0.000000,612.109037,-612.121399,0.107850,0.000000,-0.000000,0.000000
-1.030000,-1.010000,0.943111,0.020000,-48.665419,5814.550000,11.737644,-11.868035,600.143926,0.000000,-0.000000,0.000000,600.194780,-600.325170,-0.034174,0.000000,-0.000000,-0.000000
-0.990000,-1.030000,0.929068,0.020000,-60.784799,5430.950000,-24.337756,24.291220,611.426847,-0.000000,0.000000,0.000000,611.886836,-611.933371,0.089994,0.000000,-0.000000,0.000000
-0.970000,-1.030000,0.915400,0.020000,-72.894584,5234.950000,-37.534713,37.495021,622.755439,-0.000000,0.000000,0.000000,623.864509,-623.904201,0.115673,0.000000,-0.000000,0.000000
-0.970000,-1.010000,0.900793,0.020000,-85.753403,5214.550000,-25.856843,25.816446,636.343444,-0.000000,0.000000,0.000000,636.847525,-636.887922,0.115207,0.000000,-0.000000,0.000000
-0.990000,-1.010000,0.914680,0.020000,-73.394140,5410.550000,-12.622715,12.577643,624.264031,-0.000000,0.000000,0.000000,624.368633,-624.413705,0.113627,0.000000,-0.000000,0.000000
-0.950000,-1.030000,0.901969,0.020000,-84.989338,5042.950000,-51.039476,51.832095,633.197280,-0.000000,0.000000,0.000000,635.679240,-634.886621,0.184059,0.000000,-0.000000,0.000000
-0.930000,-1.030000,0.888706,0.020000,-97.063492,4854.950000,-66.145425,65.934748,645.046794,-0.000000,0.000000,0.000000,648.313243,-648.523921,0.046955,0.000000,-0.000000,0.000000
-0.930000,-1.010000,0.873732,0.020000,-110.435238,4834.550000,-55.804037,52.886565,662.601494,-0.000000,0.000000,0.000000,663.367555,-666.285027,-0.393989,0.000000,-0.000000,-0.000000
-0.950000,-1.010000,0.887141,0.020000,-98.102305,5022.550000,-39.906411,39.778783,648.231286,-0.000000,0.000000,0.000000,649.390741,-649.518369,0.117520,0.000000,-0.000000,0.000000
-0.910000,-1.030000,0.875105,0.020000,-109.111170,4670.950000,-81.531770,83.644996,652.653840,-0.000000,0.000000,0.000000,658.913396,-656.800170,1.525870,0.000000,-0.000000,0.000000
-0.890000,-1.030000,0.861755,0.020000,-121.126178,4490.950000,-92.589924,94.951822,665.289832,-0.000000,0.000000,0.000000,673.036313,-670.674415,-3.729297,0.000000,-0.000000,-0.000000
-0.890000,-1.010000,0.846852,0.020000,-135.029147,4470.550000,-86.605881,85.175080,688.301652,-0.000000,0.000000,0.000000,692.923127,-694.353928,-1.389952,0.000000,-0.000000,-0.000000
-0.910000,-1.010000,0.860434,0.020000,-122.746273,4650.550000,-73.296252,75.779852,671.220659,-0.000000,0.000000,0.000000,676.574081,-674.090481,4.405086,0.000000,-0.000000,0.000000
0.890000,-1.030000,0.861855,0.020000,-121.088535,4490.950000,-92.294608,94.655767,-665.102310,-0.000000,0.000000,-0.000000,672.807512,-670.446352,3.994653,0.000000,-0.000000,0.000000
0.910000,-1.030000,0.874861,0.020000,-109.076841,4670.950000,-81.246065,83.358424,-652.461887,-0.000000,0.000000,-0.000000,658.687210,-656.574851,-1.265569,0.000000,-0.000000,-0.000000
0.910000,-1.010000,0.859883,0.020000,-122.707217,4650.550000,-73.009012,75.491376,-671.011629,-0.000000,0.000000,-0.000000,676.335660,-673.853296,-4.140501,0.000000,-0.000000,-0.000000
0.890000,-1.010000,0.846646,0.020000,-134.986698,4470.550000,-86.307498,84.877296,-688.095136,-0.000000,0.000000,-0.000000,692.681048,-694.111251,1.659684,0.000000,-0.000000,0.000000
0.930000,-1.030000,0.888128,0.020000,-97.032591,4854.950000,-65.877249,65.666869,-644.850070,-0.000000,0.000000,-0.000000,648.090411,-648.300790,0.199659,0.000000,-0.000000,0.000000
0.950000,-1.030000,0.901643,0.020000,-84.961971,5042.950000,-50.785229,51.577495,-632.998448,-0.000000,0.000000,-0.000000,635.460353,-634.668088,0.053493,0.000000,-0.000000,0.000000
0.950000,-1.010000,0.887116,0.020000,-98.070374,5022.550000,-39.650285,39.522529,-648.018286,-0.000000,0.000000,-0.000000,649.162406,-649.290161,0.125162,0.000000,-0.000000,0.000000
0.930000,-1.010000,0.873377,0.020000,-110.399690,4834.550000,-55.534071,52.617946,-662.389354,-0.000000,0.000000,-0.000000,663.134636,-666.050762,0.644901,0.000000,-0.000000,0.000000
0.970000,-1.030000,0.915395,0.020000,-72.870853,5234.950000,-37.293715,37.254047,-622.554338,-0.000000,0.000000,-0.000000,623.649335,-623.689003,0.112824,0.000000,-0.000000,0.000000
0.990000,-1.030000,0.929375,0.020000,-60.764802,5430.950000,-24.109746,24.063249,-611.224431,-0.000000,0.000000,-0.000000,611.675573,-611.722069,0.129805,0.000000,-0.000000,0.000000
0.990000,-1.010000,0.915288,0.020000,-73.369744,5410.550000,-12.393926,12.348883,-624.048588,-0.000000,0.000000,-0.000000,624.148672,-624.193715,0.110793,0.000000,-0.000000,0.000000
0.970000,-1.010000,0.901090,0.020000,-85.725191,5214.550000,-25.614496,25.574126,-636.128823,-0.000000,0.000000,-0.000000,636.623306,-636.663676,0.118261,0.000000,-0.000000,0.000000
1.010000,-1.030000,0.943562,0.020000,-48.649085,5630.950000,-11.861800,11.731467,-599.934586,-0.000000,0.000000,-0.000000,599.985387,-600.115720,-0.032073,0.000000,-0.000000,-0.000000
1.030000,-1.030000,0.957373,0.020000,-36.528658,5834.950000,-1.160799,-1.363395,-590.559517,-0.000000,-0.000000,-0.000000,589.297420,-591.821614,0.101298,0.000000,-0.000000,0.000000
1.030000,-1.010000,0.943116,0.020000,-48.648925,5814.550000,11.940867,-12.071086,-599.928309,0.000000,-0.000000,-0.000000,599.983273,-600.113492,0.241499,0.000000,-0.000000,0.000000
1.010000,-1.010000,0.929093,0.020000,-61.009324,5610.550000,0.101678,-0.114021,-611.899523,0.000000,-0.000000,-0.000000,611.893352,-611.905695,0.107850,0.000000,-0.000000,0.000000
1.050000,-1.030000,0.971400,0.020000,-24.408435,6042.950000,4.739500,-9.671025,-582.323548,0.000000,-0.000000,-0.000000,579.888668,-584.820192,-3.993564,0.000000,-0.000000,-0.000000
1.070000,-1.030000,0.985633,0.020000,-12.292786,6254.950000,10.967243,-5.563705,-569.918316,0.000000,-0.000000,-0.000000,572.521450,-567.117911,-13.443821,0.000000,-0.000000,-0.000000
1.070000,-1.010000,0.971790,0.020000,-23.946512,6234.550000,31.366053,-28.731675,-573.879749,0.000000,-0.000000,-0.000000,575.974828,-573.340450,-3.082022,0.000000,-0.000000,-0.000000
1.050000,-1.010000,0.957351,0.020000,-36.293249,6022.550000,21.496306,-21.206664,-587.682122,0.000000,-0.000000,-0.000000,588.212824,-587.923182,-1.478615,0.000000,-0.000000,-0.000000
1.090000,-1.030000,1.000063,0.020000,-0.168210,6470.950000,24.315815,13.311324,-540.119150,0.000000,0.000000,-0.000000,558.379343,-520.752204,-25.054875,0.000000,-0.000000,-0.000000
1.090000,-1.010000,0.986422,0.020000,-11.615779,6450.550000,53.105530,-30.968955,-561.140254,0.000000,-0.000000,-0.000000,573.780391,-551.643816,-0.776181,0.000000,-0.000000,-0.000000
-1.130000,-0.970000,0.989639,0.020000,-8.906158,6854.950000,86.191953,-98.342740,563.848619,0.000000,-0.000000,0.000000,565.243378,-577.394165,-5.778403,0.000000,-0.000000,-0.000000
-1.110000,-0.990000,0.987801,0.020000,-10.485555,6650.550000,62.917255,-68.636882,568.205439,0.000000,-0.000000,0.000000,569.139886,-574.859513,-0.622489,0.000000,-0.000000,-0.000000
-1.090000,-0.990000,0.973052,0.020000,-23.032670,6430.550000,56.336284,-58.586827,577.710793,0.000000,-0.000000,0.000000,579.433457,-581.684001,-1.775521,0.000000,-0.000000,-0.000000
-1.090000,-0.970000,0.959554,0.020000,-34.425883,6410.950000,66.005738,-69.203169,585.443386,0.000000,-0.000000,0.000000,587.734495,-590.931925,0.829135,0.000000,-0.000000,0.000000
-1.110000,-0.970000,0.974507,0.020000,-21.652306,6630.950000,75.502924,-81.866890,574.888623,0.000000,-0.000000,0.000000,577.065696,-583.429662,-0.935348,0.000000,-0.000000,-0.000000
-1.070000,-0.990000,0.958493,0.020000,-35.600146,6214.550000,46.910059,-46.653301,586.131913,0.000000,-0.000000,0.000000,588.123057,-587.866299,-1.184531,0.000000,-0.000000,-0.000000
-1.050000,-0.990000,0.944108,0.020000,-48.185642,6002.550000,35.330218,-35.164905,598.420610,0.000000,-0.000000,0.000000,599.540426,-599.375112,-0.015844,0.000000,-0.000000,-0.000000
-1.050000,-0.970000,0.930216,0.020000,-60.051543,5982.950000,48.202517,-48.277072,609.323429,0.000000,-0.000000,0.000000,611.192719,-611.267274,0.098955,0.000000,-0.000000,0.000000
-1.070000,-0.970000,0.944787,0.020000,-47.227036,6194.950000,57.822908,-58.615595,596.625585,0.000000,-0.000000,0.000000,599.062913,-599.855599,0.412359,0.000000,-0.000000,0.000000
-1.030000,-0.990000,0.929371,0.020000,-60.785203,5794.550000,24.076024,-24.122552,611.439632,0.000000,-0.000000,0.000000,611.891096,-611.937624,0.125544,0.000000,-0.000000,0.000000
-1.010000,-0.990000,0.914833,0.020000,-73.394386,5590.550000,12.355533,-12.400607,624.270697,0.000000,-0.000000,0.000000,624.370855,-624.415929,0.108571,0.000000,-0.000000,0.000000
-1.010000,-0.970000,0.901105,0.020000,-85.753985,5570.950000,25.587973,-25.628372,636.357306,0.000000,-0.000000,0.000000,636.852148,-636.892547,0.113639,0.000000,-0.000000,0.000000
-1.030000,-0.970000,0.915850,0.020000,-72.895318,5774.950000,37.273975,-37.313672,622.775381,0.000000,-0.000000,0.000000,623.871162,-623.910859,0.106169,0.000000,-0.000000,0.000000
-0.990000,-0.990000,0.900505,0.020000,-86.008495,5390.550000,0.286016,0.515061,636.314536,0.000000,0.000000,0.000000,636.715074,-635.913997,0.114522,0.000000,-0.000000,0.000000
-0.970000,-0.990000,0.886397,0.020000,-98.622531,5194.550000,-13.434611,13.263111,649.886755,-0.000000,0.000000,0.000000,649.938080,-650.109579,0.084467,0.000000,-0.000000,0.000000
-0.970000,-0.970000,0.872221,0.020000,-111.496987,5174.950000,-1.595284,-1.353254,666.017565,-0.000000,-0.000000,0.000000,664.543296,-667.491834,0.121015,0.000000,-0.000000,0.000000
-0.990000,-0.970000,0.886555,0.020000,-98.622869,5370.950000,13.027440,-13.198754,649.893861,0.000000,-0.000000,0.000000,649.940466,-650.111780,0.151392,0.000000,-0.000000,0.000000
-0.950000,-0.990000,0.872519,0.020000,-111.231187,5002.550000,-26.721598,28.880497,659.320531,-0.000000,0.000000,0.000000,660.985579,-658.826681,0.600498,0.000000,-0.000000,0.000000
-0.930000,-0.990000,0.858882,0.020000,-123.828826,4814.550000,-36.918412,39.360592,674.233472,-0.000000,0.000000,0.000000,676.520378,-674.078198,-4.033397,0.000000,-0.000000,-0.000000
-0.930000,-0.970000,0.844245,0.020000,-137.239343,4794.950000,-29.649606,28.185916,695.727132,-0.000000,0.000000,0.000000,695.595900,-697.059590,-0.388657,0.000000,-0.000000,-0.000000
-0.950000,-0.970000,0.858114,0.020000,-124.371028,4982.950000,-17.272287,19.761267,676.243896,-0.000000,0.000000,0.000000,677.727372,-675.238392,4.425873,0.000000,-0.000000,0.000000
0.930000,-0.990000,0.858838,0.020000,-123.788524,4814.550000,-36.647804,39.088953,-674.009004,-0.000000,0.000000,-0.000000,676.278903,-673.837755,4.289975,0.000000,-0.000000,0.000000
0.950000,-0.990000,0.872806,0.020000,-111.194589,5002.550000,-26.461048,28.618837,-659.094475,-0.000000,0.000000,-0.000000,660.748398,-658.590608,-0.348933,0.000000,-0.000000,-0.000000
0.950000,-0.970000,0.858724,0.020000,-124.329661,4982.950000,-17.011862,19.499363,-676.000194,-0.000000,0.000000,-0.000000,677.477542,-674.990042,-4.169842,0.000000,-0.000000,-0.000000
0.930000,-0.970000,0.844522,0.020000,-137.194178,4794.950000,-29.377433,27.914516,-695.482502,-0.000000,0.000000,-0.000000,695.340435,-696.803352,0.649908,0.000000,-0.000000,0.000000
0.970000,-0.990000,0.887006,0.020000,-98.589741,5194.550000,-13.191497,13.020290,-649.657938,-0.000000,0.000000,-0.000000,649.704498,-649.875706,0.153780,0.000000,-0.000000,0.000000
0.990000,-0.990000,0.900812,0.020000,-85.979610,5390.550000,0.514847,0.285802,-636.085936,0.000000,0.000000,-0.000000,636.486260,-635.685612,0.114522,0.000000,-0.000000,0.000000
0.990000,-0.970000,0.886547,0.020000,-98.589403,5370.950000,13.255961,-13.427353,-649.650832,0.000000,-0.000000,-0.000000,649.702112,-649.873505,0.082079,0.000000,-0.000000,0.000000
0.970000,-0.970000,0.872532,0.020000,-111.459522,5174.950000,-1.352430,-1.594460,-665.772760,-0.000000,-0.000000,-0.000000,664.299315,-667.246205,0.121015,0.000000,-0.000000,0.000000
1.010000,-0.990000,0.914831,0.020000,-73.369498,5590.550000,12.570993,-12.616034,-624.041922,0.000000,-0.000000,-0.000000,624.146450,-624.191491,0.111405,0.000000,-0.000000,0.000000
1.030000,-0.990000,0.929070,0.020000,-60.764398,5794.550000,24.278445,-24.324950,-611.211645,0.000000,-0.000000,-0.000000,611.671312,-611.717817,0.085733,0.000000,-0.000000,0.000000
1.030000,-0.970000,0.915245,0.020000,-72.870119,5774.950000,37.475094,-37.514756,-622.534395,0.000000,-0.000000,-0.000000,623.642682,-623.682345,0.109018,0.000000,-0.000000,0.000000
1.010000,-0.970000,0.900788,0.020000,-85.724609,5570.950000,25.802599,-25.842967,-636.114961,0.000000,-0.000000,-0.000000,636.618683,-636.659050,0.110584,0.000000,-0.000000,0.000000
1.050000,-0.990000,0.943517,0.020000,-48.169000,6002.550000,35.520026,-35.354733,-598.193902,0.000000,-0.000000,-0.000000,599.325255,-599.159963,0.218659,0.000000,-0.000000,0.000000
1.070000,-0.990000,0.958164,0.020000,-35.587743,6214.550000,47.087928,-46.831247,-585.906624,0.000000,-0.000000,-0.000000,587.912206,-587.655525,1.379375,0.000000,-0.000000,0.000000
1.070000,-0.970000,0.944765,0.020000,-47.210428,6194.950000,57.999150,-58.791241,-596.388082,0.000000,-0.000000,-0.000000,598.844055,-599.636145,-0.214029,0.000000,-0.000000,-0.000000
1.050000,-0.970000,0.929907,0.020000,-60.030602,5982.950000,48.390736,-48.465240,-609.084231,0.000000,-0.000000,-0.000000,610.969179,-611.043683,0.107566,0.000000,-0.000000,0.000000
1.090000,-0.990000,0.973002,0.020000,-23.024579,6430.550000,56.505335,-58.753838,-577.484618,0.000000,-0.000000,-0.000000,579.225466,-581.473968,1.964474,0.000000,-0.000000,0.000000
1.110000,-0.990000,0.988021,0.020000,-10.481840,6650.550000,63.081005,-68.796029,-567.978033,0.000000,-0.000000,-0.000000,568.934653,-574.649676,0.808792,0.000000,-0.000000,0.000000
1.110000,-0.970000,0.975033,0.020000,-21.644568,6630.950000,75.661285,-82.020416,-574.653082,0.000000,-0.000000,-0.000000,576.855594,-583.214725,1.121450,0.000000,-0.000000,0.000000
1.090000,-0.970000,0.959810,0.020000,-34.413677,6410.950000,66.172229,-69.367420,-585.206904,0.000000,-0.000000,-0.000000,587.519935,-590.715125,-0.637424,0.000000,-0.000000,-0.000000
1.130000,-0.970000,0.990040,0.020000,-8.902952,6854.950000,86.341590,-98.485219,-563.615813,0.000000,-0.000000,-0.000000,565.038966,-577.182595,5.958045,0.000000,-0.000000,0.000000
-1.170000,-0.930000,0.995454,0.020000,-4.420334,7276.950000,117.976055,-118.540006,556.657278,0.000000,-0.000000,0.000000,568.703437,-569.267388,10.386849,0.000000,-0.000000,0.000000
-1.150000,-0.950000,0.992280,0.020000,-6.890564,7063.750000,102.984205,-118.348418,571.803481,0.000000,-0.000000,0.000000,574.731582,-590.095795,-0.740867,0.000000,-0.000000,-0.000000
-1.130000,-0.950000,0.976780,0.020000,-19.815511,6835.750000,96.512243,-108.990575,573.749559,0.000000,-0.000000,0.000000,576.632464,-589.110796,-2.659191,0.000000,-0.000000,-0.000000
-1.130000,-0.930000,0.964165,0.020000,-30.683026,6816.950000,110.467517,-115.771146,577.088584,0.000000,-0.000000,0.000000,585.418944,-590.722573,0.002935,0.000000,-0.000000,0.000000
-1.150000,-0.930000,0.979864,0.020000,-17.526806,7044.950000,111.179625,-125.107573,569.173629,0.000000,-0.000000,0.000000,574.331126,-588.259075,3.540593,0.000000,-0.000000,0.000000
-1.110000,-0.950000,0.961446,0.020000,-32.785590,6611.750000,90.039421,-93.916219,580.929584,0.000000,-0.000000,0.000000,586.226307,-590.103106,-1.174380,0.000000,-0.000000,-0.000000
-1.090000,-0.950000,0.946286,0.020000,-45.791800,6391.750000,81.363128,-81.660380,592.106618,0.000000,-0.000000,0.000000,597.542258,-597.839510,0.141016,0.000000,-0.000000,0.000000
-1.090000,-0.930000,0.933259,0.020000,-57.125068,6372.950000,95.648107,-95.647739,600.725252,0.000000,-0.000000,0.000000,608.292334,-608.291966,0.115831,0.000000,-0.000000,0.000000
-1.110000,-0.930000,0.948627,0.020000,-43.883198,6592.950000,104.141879,-105.211539,587.375970,0.000000,-0.000000,0.000000,596.095458,-597.165118,-0.205568,0.000000,-0.000000,-0.000000
-1.070000,-0.950000,0.931310,0.020000,-58.830548,6175.750000,72.139143,-72.152035,605.693358,0.000000,-0.000000,0.000000,609.968492,-609.981384,0.072330,0.000000,-0.000000,0.000000
-1.050000,-0.950000,0.916524,0.020000,-71.898125,5963.750000,62.007645,-62.048176,619.802580,0.000000,-0.000000,0.000000,622.878352,-622.918884,0.107149,0.000000,-0.000000,0.000000
-1.050000,-0.930000,0.903068,0.020000,-83.719871,5944.950000,76.535380,-76.574197,630.171213,0.000000,-0.000000,0.000000,634.784798,-634.823616,0.110388,0.000000,-0.000000,0.000000
-1.070000,-0.930000,0.918069,0.020000,-70.405187,6156.950000,86.448185,-86.494476,615.374487,0.000000,-0.000000,0.000000,621.397034,-621.443325,0.104296,0.000000,-0.000000,0.000000
-1.030000,-0.950000,0.901940,0.020000,-84.990490,5755.750000,51.605318,-50.812631,633.224821,0.000000,-0.000000,0.000000,635.688427,-634.895740,0.044234,0.000000,-0.000000,0.000000
-1.010000,-0.950000,0.887567,0.020000,-98.103313,5551.750000,39.544096,-39.671926,648.253013,0.000000,-0.000000,0.000000,649.397977,-649.525807,0.117956,0.000000,-0.000000,0.000000
-1.010000,-0.930000,0.873665,0.020000,-110.436767,5532.950000,52.646847,-55.564593,662.631663,0.000000,-0.000000,0.000000,663.377759,-666.295504,0.635241,0.000000,-0.000000,0.000000
-1.030000,-0.930000,0.888263,0.020000,-97.065154,5736.950000,65.702575,-65.913090,645.082498,0.000000,-0.000000,0.000000,648.325205,-648.535719,0.187727,0.000000,-0.000000,0.000000
-0.990000,-0.950000,0.872841,0.020000,-111.231957,5351.750000,28.634728,-26.475728,659.335408,0.000000,-0.000000,0.000000,660.990362,-658.831362,-0.354274,0.000000,-0.000000,-0.000000
-0.970000,-0.950000,0.858278,0.020000,-124.371463,5155.750000,19.510294,-17.021406,676.250621,0.000000,-0.000000,0.000000,677.728822,-675.239934,-4.174861,0.000000,-0.000000,-0.000000
-0.970000,-0.930000,0.844578,0.020000,-137.240315,5136.950000,27.930198,-29.393962,695.743708,0.000000,-0.000000,0.000000,695.601663,-697.065427,0.644810,0.000000,-0.000000,0.000000
-0.990000,-0.930000,0.859284,0.020000,-123.830126,5332.950000,39.110730,-36.668229,674.257951,0.000000,-0.000000,0.000000,676.529358,-674.086857,4.284460,0.000000,-0.000000,0.000000
0.970000,-0.950000,0.858263,0.020000,-124.329225,5155.750000,19.750335,-17.262743,-675.993469,0.000000,-0.000000,-0.000000,677.476093,-674.988500,4.420854,0.000000,-0.000000,0.000000
0.990000,-0.950000,0.872507,0.020000,-111.193819,5351.750000,28.864606,-26.706918,-659.079597,0.000000,-0.000000,-0.000000,660.743614,-658.585927,0.595156,0.000000,-0.000000,0.000000
0.990000,-0.930000,0.858704,0.020000,-123.787224,5332.950000,39.338815,-36.897987,-673.984526,0.000000,-0.000000,-0.000000,676.269923,-673.829096,-4.038913,0.000000,-0.000000,-0.000000
0.970000,-0.930000,0.844227,0.020000,-137.193207,5136.950000,28.170234,-29.633077,-695.465927,0.000000,-0.000000,-0.000000,695.334671,-696.797515,-0.393756,0.000000,-0.000000,-0.000000
1.010000,-0.950000,0.886974,0.020000,-98.069366,5551.750000,39.757216,-39.884770,-647.996560,0.000000,-0.000000,-0.000000,649.155170,-649.282723,0.110314,0.000000,-0.000000,0.000000
1.030000,-0.950000,0.901652,0.020000,-84.960819,5755.750000,51.804272,-51.012074,-632.970908,0.000000,-0.000000,-0.000000,635.451167,-634.658969,0.174800,0.000000,-0.000000,0.000000
1.030000,-0.930000,0.888302,0.020000,-97.030929,5736.950000,65.899042,-66.109584,-644.814367,0.000000,-0.000000,-0.000000,648.078449,-648.288992,0.035023,0.000000,-0.000000,0.000000
1.010000,-0.930000,0.873399,0.020000,-110.398162,5532.950000,52.857664,-55.773515,-662.359186,0.000000,-0.000000,-0.000000,663.124433,-666.040284,-0.403649,0.000000,-0.000000,-0.000000
1.050000,-0.950000,0.916532,0.020000,-71.872810,5963.750000,62.193532,-62.234028,-619.550593,0.000000,-0.000000,-0.000000,622.646180,-622.686677,0.102929,0.000000,-0.000000,0.000000
1.070000,-0.950000,0.931603,0.020000,-58.809663,6175.750000,72.312333,-72.325188,-605.444185,0.000000,-0.000000,-0.000000,609.741592,-609.754447,0.129124,0.000000,-0.000000,0.000000
1.070000,-0.930000,0.918670,0.020000,-70.379956,6156.950000,86.618078,-86.664329,-615.112781,0.000000,-0.000000,-0.000000,621.161567,-621.207818,0.100380,0.000000,-0.000000,0.000000
1.050000,-0.930000,0.903401,0.020000,-83.690107,5944.950000,76.718294,-76.757074,-629.906033,0.000000,-0.000000,-0.000000,634.543666,-634.582446,0.103194,0.000000,-0.000000,0.000000
1.090000,-0.950000,0.946857,0.020000,-45.775414,6391.750000,81.524523,-81.821463,-591.860313,0.000000,-0.000000,-0.000000,597.320446,-597.617386,0.052360,0.000000,-0.000000,0.000000
1.110000,-0.950000,0.961807,0.020000,-32.773768,6611.750000,90.190719,-94.065284,-580.685261,0.000000,-0.000000,-0.000000,586.009220,-589.883785,1.360486,0.000000,-0.000000,0.000000
1.110000,-0.930000,0.948671,0.020000,-43.867232,6592.950000,104.287726,-105.356929,-587.121696,0.000000,-0.000000,-0.000000,595.870841,-596.940044,0.393463,0.000000,-0.000000,0.000000
1.090000,-0.930000,0.933577,0.020000,-57.104437,6372.950000,95.805625,-95.805247,-600.467370,0.000000,-0.000000,-0.000000,608.062470,-608.062092,0.080315,0.000000,-0.000000,0.000000
1.130000,-0.950000,0.976875,0.020000,-19.808313,6835.750000,96.654967,-109.127053,-573.505910,0.000000,-0.000000,-0.000000,576.419543,-588.891629,2.838573,0.000000,-0.000000,0.000000
1.150000,-0.950000,0.992117,0.020000,-6.888043,7063.750000,103.119155,-118.473388,-571.558702,0.000000,-0.000000,-0.000000,574.520725,-589.874958,0.914696,0.000000,-0.000000,0.000000
1.150000,-0.930000,0.979387,0.020000,-17.520338,7044.950000,111.310910,-125.228692,-568.920990,0.000000,-0.000000,-0.000000,574.115563,-588.033344,-3.364332,0.000000,-0.000000,-0.000000
1.130000,-0.930000,0.963944,0.020000,-30.671781,6816.950000,110.603753,-115.904014,-576.836271,0.000000,-0.000000,-0.000000,585.198910,-590.499171,0.177640,0.000000,-0.000000,0.000000
1.170000,-0.930000,0.994993,0.020000,-4.418689,7276.950000,118.101239,-118.658653,-556.403961,0.000000,-0.000000,-0.000000,568.487428,-569.044843,-10.210922,0.000000,-0.000000,-0.000000
-1.190000,-0.910000,0.998564,0.020000,-1.505157,7494.550000,150.799054,-116.171910,526.542683,0.000000,-0.000000,0.000000,560.436113,-525.808968,9.136548,0.000000,-0.000000,0.000000
-1.170000,-0.910000,0.982855,0.020000,-14.793652,7258.550000,138.721133,-126.806361,551.957304,0.000000,-0.000000,0.000000,573.611695,-561.696924,7.187705,0.000000,-0.000000,0.000000
-1.170000,-0.890000,0.970504,0.020000,-25.110008,7240.550000,155.013149,-152.052701,555.631791,0.000000,-0.000000,0.000000,577.933976,-574.973529,0.342780,0.000000,-0.000000,0.000000
-1.190000,-0.890000,0.986410,0.020000,-11.619537,7476.550000,171.294554,-153.403799,542.342131,0.000000,-0.000000,0.000000,575.060308,-557.169552,-2.475562,0.000000,-0.000000,-0.000000
-1.150000,-0.910000,0.967304,0.020000,-28.122688,7026.550000,130.036167,-131.852233,567.794771,0.000000,-0.000000,0.000000,581.782039,-583.598105,3.092869,0.000000,-0.000000,0.000000
-1.130000,-0.910000,0.951802,0.020000,-41.505563,6798.550000,125.346809,-126.673016,580.859854,0.000000,-0.000000,0.000000,593.707265,-595.033471,0.730602,0.000000,-0.000000,0.000000
-1.130000,-0.890000,0.939162,0.020000,-52.277578,6780.550000,141.417618,-141.453724,586.859231,0.000000,-0.000000,0.000000,603.643943,-603.680049,0.012396,0.000000,-0.000000,0.000000
-1.150000,-0.890000,0.954752,0.020000,-38.664275,7008.550000,147.598476,-146.725386,571.139406,0.000000,-0.000000,0.000000,590.229911,-589.356822,0.800089,0.000000,-0.000000,0.000000
-1.110000,-0.910000,0.936059,0.020000,-54.939064,6574.550000,118.685499,-118.808822,594.552027,0.000000,-0.000000,0.000000,606.232804,-606.356127,0.148531,0.000000,-0.000000,0.000000
-1.090000,-0.910000,0.920482,0.020000,-68.420049,6354.550000,110.491147,-110.530644,609.507295,0.000000,-0.000000,0.000000,619.424996,-619.464493,0.094788,0.000000,-0.000000,0.000000
-1.090000,-0.890000,0.907965,0.020000,-79.670804,6336.550000,126.006835,-126.041676,617.984601,0.000000,-0.000000,0.000000,630.686210,-630.721051,0.105869,0.000000,-0.000000,0.000000
-1.110000,-0.890000,0.923742,0.020000,-65.947397,6556.550000,134.009193,-134.036128,602.253969,0.000000,-0.000000,0.000000,616.972681,-616.999617,0.093752,0.000000,-0.000000,0.000000
-1.070000,-0.910000,0.905078,0.020000,-81.945213,6138.550000,101.923335,-101.152338,624.024612,0.000000,-0.000000,0.000000,632.616982,-631.845984,-0.022192,0.000000,-0.000000,-0.000000
-1.050000,-0.910000,0.889857,0.020000,-95.510968,5926.550000,91.738101,-91.819530,640.199893,0.000000,-0.000000,0.000000,646.704392,-646.785821,0.145827,0.000000,-0.000000,0.000000
-1.050000,-0.890000,0.876903,0.020000,-107.265304,5908.550000,106.392466,-108.903132,652.603519,0.000000,-0.000000,0.000000,660.166526,-662.677192,0.725428,0.000000,-0.000000,0.000000
-1.070000,-0.890000,0.892345,0.020000,-93.444600,6120.550000,117.518265,-117.473231,633.947973,0.000000,-0.000000,0.000000,644.766869,-644.721834,-0.064820,0.000000,-0.000000,-0.000000
-1.030000,-0.910000,0.874828,0.020000,-109.113433,5718.550000,83.404344,-81.290817,652.697972,0.000000,-0.000000,0.000000,658.927667,-656.814139,-1.281464,0.000000,-0.000000,-0.000000
-1.010000,-0.910000,0.860002,0.020000,-122.748418,5514.550000,75.533285,-73.049547,671.258355,0.000000,-0.000000,0.000000,676.586019,-674.102282,-4.155869,0.000000,-0.000000,-0.000000
-1.010000,-0.890000,0.846592,0.020000,-135.032009,5496.550000,84.924643,-86.355661,688.350792,0.000000,-0.000000,0.000000,692.940273,-694.371291,1.644474,0.000000,-0.000000,0.000000
-1.030000,-0.890000,0.861649,0.020000,-121.129139,5700.550000,94.708129,-92.345689,665.344677,0.000000,-0.000000,0.000000,673.055459,-670.693019,3.978637,0.000000,-0.000000,0.000000
1.010000,-0.910000,0.860075,0.020000,-122.705071,5514.550000,75.737943,-73.255717,-670.973934,0.000000,-0.000000,-0.000000,676.323721,-673.841496,4.389718,0.000000,-0.000000,0.000000
1.030000,-0.910000,0.875205,0.020000,-109.074578,5718.550000,83.599076,-81.487018,-652.417755,0.000000,-0.000000,-0.000000,658.672940,-656.560882,1.509975,0.000000,-0.000000,0.000000
1.030000,-0.890000,0.862172,0.020000,-121.085575,5700.550000,94.899460,-92.538843,-665.047465,0.000000,-0.000000,-0.000000,672.788366,-670.427748,-3.745314,0.000000,-0.000000,-0.000000
1.010000,-0.890000,0.847014,0.020000,-134.983836,5496.550000,85.127732,-86.557718,-688.045997,0.000000,-0.000000,-0.000000,692.663902,-694.093888,-1.405163,0.000000,-0.000000,-0.000000
1.050000,-0.910000,0.890420,0.020000,-95.476682,5926.550000,91.917307,-91.998486,-639.921154,0.000000,-0.000000,-0.000000,646.454061,-646.535240,0.071053,0.000000,-0.000000,0.000000
1.070000,-0.910000,0.905350,0.020000,-81.915568,6138.550000,102.088950,-101.318487,-623.750620,0.000000,-0.000000,-0.000000,632.372912,-631.602449,0.229916,0.000000,-0.000000,0.000000
1.070000,-0.890000,0.892280,0.020000,-93.410475,6120.550000,117.679204,-117.634235,-633.660429,0.000000,-0.000000,-0.000000,644.513421,-644.468452,0.275471,0.000000,-0.000000,0.000000
1.050000,-0.890000,0.877127,0.020000,-107.226425,5908.550000,106.567251,-109.075950,-652.309236,0.000000,-0.000000,-0.000000,659.905677,-662.414376,-0.505762,0.000000,-0.000000,-0.000000
1.090000,-0.910000,0.920473,0.020000,-68.395111,6354.550000,110.644411,-110.683866,-609.237223,0.000000,-0.000000,-0.000000,619.186648,-619.226102,0.104214,0.000000,-0.000000,0.000000
1.110000,-0.910000,0.935779,0.020000,-54.918895,6574.550000,118.826859,-118.950126,-594.286666,0.000000,-0.000000,-0.000000,606.000337,-606.123605,0.042093,0.000000,-0.000000,0.000000
1.110000,-0.890000,0.923139,0.020000,-65.922969,6556.550000,134.145337,-134.172237,-601.976934,0.000000,-0.000000,-0.000000,616.731878,-616.758778,0.099338,0.000000,-0.000000,0.000000
1.090000,-0.890000,0.907620,0.020000,-79.641498,6336.550000,126.155133,-126.189929,-617.702129,0.000000,-0.000000,-0.000000,630.439118,-630.473914,0.095901,0.000000,-0.000000,0.000000
1.130000,-0.910000,0.951259,0.020000,-41.490219,6798.550000,125.477274,-126.802522,-580.598585,0.000000,-0.000000,-0.000000,593.480196,-594.805444,-0.547900,0.000000,-0.000000,-0.000000
1.150000,-0.910000,0.966904,0.020000,-28.112222,7026.550000,130.158548,-131.971940,-567.536597,0.000000,-0.000000,-0.000000,581.559943,-583.373336,-2.915716,0.000000,-0.000000,-0.000000
1.150000,-0.890000,0.954677,0.020000,-38.649762,7008.550000,147.713102,-146.839898,-570.873519,0.000000,-0.000000,-0.000000,590.001318,-589.128114,-0.622491,0.000000,-0.000000,-0.000000
1.130000,-0.890000,0.938827,0.020000,-52.258082,6780.550000,141.542331,-141.578357,-586.587749,0.000000,-0.000000,-0.000000,603.409273,-603.445298,0.172419,0.000000,-0.000000,0.000000
1.170000,-0.910000,0.982708,0.020000,-14.788111,7258.550000,138.837572,-126.921998,-551.702947,0.000000,-0.000000,-0.000000,573.394129,-561.478555,-7.012626,0.000000,-0.000000,-0.000000
1.190000,-0.910000,0.998662,0.020000,-1.504590,7494.550000,150.906368,-116.292103,-526.298781,0.000000,-0.000000,-0.000000,560.224096,-525.609831,-8.962864,0.000000,-0.000000,-0.000000
1.190000,-0.890000,0.986829,0.020000,-11.615121,7476.550000,171.387810,-153.505388,-542.086531,0.000000,-0.000000,-0.000000,574.838488,-556.956066,2.641242,0.000000,-0.000000,0.000000
1.170000,-0.890000,0.970680,0.020000,-25.100524,7240.550000,155.118942,-152.159094,-555.371650,0.000000,-0.000000,-0.000000,577.711291,-574.751443,-0.171101,0.000000,-0.000000,-0.000000
-1.210000,-0.870000,0.990760,0.020000,-8.004423,7698.950000,180.210213,-182.671893,537.158087,0.000000,-0.000000,0.000000,565.742482,-568.204162,-0.958034,0.000000,-0.000000,-0.000000
-1.210000,-0.850000,0.979326,0.020000,-17.756954,7681.750000,196.614396,-191.744905,540.941510,0.000000,-0.000000,0.000000,577.171924,-572.302434,0.793324,0.000000,-0.000000,0.000000
-1.230000,-0.850000,0.995895,0.020000,-3.969503,7925.750000,204.085369,-196.763868,528.636403,0.000000,-0.000000,0.000000,569.015647,-561.694147,-0.560823,0.000000,-0.000000,-0.000000
-1.190000,-0.870000,0.974515,0.020000,-21.652128,7458.950000,175.732970,-177.820315,551.582113,0.000000,-0.000000,0.000000,578.172658,-580.260003,-1.118632,0.000000,-0.000000,-0.000000
-1.170000,-0.870000,0.958411,0.020000,-35.365679,7222.950000,170.189194,-170.236969,563.217262,0.000000,-0.000000,0.000000,588.351364,-588.399138,-0.861241,0.000000,-0.000000,-0.000000
-1.170000,-0.850000,0.946587,0.020000,-45.553479,7205.750000,183.945167,-184.389731,568.359922,0.000000,-0.000000,0.000000,597.230967,-597.675531,0.515826,0.000000,-0.000000,0.000000
-1.190000,-0.850000,0.962888,0.020000,-31.616956,7441.750000,188.481404,-190.288432,554.195846,0.000000,-0.000000,0.000000,584.757936,-586.564963,0.591298,0.000000,-0.000000,0.000000
-1.150000,-0.870000,0.942457,0.020000,-49.146688,6990.950000,163.392389,-163.252411,577.817457,0.000000,-0.000000,0.000000,600.525832,-600.385854,0.002612,0.000000,-0.000000,0.000000
-1.130000,-0.870000,0.926660,0.020000,-62.993021,6762.950000,156.883714,-156.927827,593.707341,0.000000,-0.000000,0.000000,614.068993,-614.113105,0.108020,0.000000,-0.000000,0.000000
-1.130000,-0.850000,0.914426,0.020000,-73.645676,6745.750000,173.099641,-173.133767,600.184346,0.000000,-0.000000,0.000000,624.635347,-624.669474,0.092535,0.000000,-0.000000,0.000000
-1.150000,-0.850000,0.930430,0.020000,-59.563769,6973.750000,179.077652,-179.139185,583.901305,0.000000,-0.000000,0.000000,610.723318,-610.784850,0.089890,0.000000,-0.000000,0.000000
-1.110000,-0.870000,0.911029,0.020000,-76.902099,6538.950000,149.904466,-149.944064,609.759240,0.000000,-0.000000,0.000000,627.900265,-627.939863,0.097469,0.000000,-0.000000,0.000000
-1.090000,-0.870000,0.895571,0.020000,-90.871124,6318.950000,142.312791,-142.493308,626.164164,0.000000,-0.000000,0.000000,642.062517,-642.243034,-0.040944,0.000000,-0.000000,-0.000000
-1.090000,-0.850000,0.882905,0.020000,-102.014517,6301.750000,159.251406,-159.444036,633.995294,0.000000,-0.000000,0.000000,653.617481,-653.810111,-0.043504,0.000000,-0.000000,-0.000000
-1.110000,-0.850000,0.898581,0.020000,-87.796809,6521.750000,166.476676,-166.515616,616.899050,0.000000,-0.000000,0.000000,638.952669,-638.991609,0.099012,0.000000,-0.000000,0.000000
-1.070000,-0.870000,0.879883,0.020000,-104.897028,6102.950000,134.944944,-134.245522,641.167672,0.000000,-0.000000,0.000000,655.491641,-654.792219,-0.955067,0.000000,-0.000000,-0.000000
-1.050000,-0.870000,0.864218,0.020000,-118.976457,5890.950000,125.847834,-126.251851,658.784439,0.000000,-0.000000,0.000000,670.531559,-670.935576,-1.407530,0.000000,-0.000000,-0.000000
-1.050000,-0.850000,0.851814,0.020000,-130.637689,5873.750000,139.672251,-141.973062,672.305056,0.000000,-0.000000,0.000000,685.741175,-688.041986,2.250674,0.000000,-0.000000,0.000000
-1.070000,-0.850000,0.867407,0.020000,-116.295881,6085.750000,149.428461,-147.344523,651.762177,0.000000,-0.000000,0.000000,669.476078,-667.392140,2.885999,0.000000,-0.000000,0.000000
1.050000,-0.870000,0.864093,0.020000,-118.932914,5890.950000,126.016509,-126.420440,-658.478859,0.000000,-0.000000,-0.000000,670.262690,-670.666621,1.630020,0.000000,-0.000000,0.000000
1.070000,-0.870000,0.879470,0.020000,-104.858358,6102.950000,135.100498,-134.403000,-640.868430,0.000000,-0.000000,-0.000000,655.229663,-654.532165,1.169342,0.000000,-0.000000,0.000000
1.070000,-0.850000,0.866933,0.020000,-116.252604,6085.750000,149.578833,-147.497053,-651.446732,0.000000,-0.000000,-0.000000,669.201987,-667.120207,-2.667121,0.000000,-0.000000,-0.000000
1.050000,-0.850000,0.851329,0.020000,-130.589415,5873.750000,139.835763,-142.134890,-671.980779,0.000000,-0.000000,-0.000000,685.458719,-687.757846,-2.024049,0.000000,-0.000000,-0.000000
1.090000,-0.870000,0.895030,0.020000,-90.837390,6318.950000,142.455259,-142.635501,-625.869075,0.000000,-0.000000,-0.000000,641.806462,-641.986705,0.245153,0.000000,-0.000000,0.000000
1.110000,-0.870000,0.910763,0.020000,-76.873357,6538.950000,150.034731,-150.074285,-609.470331,0.000000,-0.000000,-0.000000,627.650861,-627.690416,0.098027,0.000000,-0.000000,0.000000
1.110000,-0.850000,0.898663,0.020000,-87.763701,6521.750000,166.600303,-166.639197,-616.598135,0.000000,-0.000000,-0.000000,638.694410,-638.733304,0.098771,0.000000,-0.000000,0.000000
1.090000,-0.850000,0.882714,0.020000,-101.976298,6301.750000,159.387367,-159.579710,-633.687416,0.000000,-0.000000,-0.000000,653.352126,-653.544469,0.250254,0.000000,-0.000000,0.000000
1.130000,-0.870000,0.926661,0.020000,-62.969324,6762.950000,157.002409,-157.046483,-593.424754,0.000000,-0.000000,-0.000000,613.826160,-613.870234,0.078962,0.000000,-0.000000,0.000000
1.150000,-0.870000,0.942716,0.020000,-49.128083,6990.950000,163.500125,-163.360173,-577.541352,0.000000,-0.000000,-0.000000,600.289433,-600.149481,0.176176,0.000000,-0.000000,0.000000
1.150000,-0.850000,0.931030,0.020000,-59.541029,6973.750000,179.178694,-179.240168,-583.614579,0.000000,-0.000000,-0.000000,610.478877,-610.540351,0.090802,0.000000,-0.000000,0.000000
1.130000,-0.850000,0.914771,0.020000,-73.617730,6745.750000,173.211592,-173.245675,-599.890504,0.000000,-0.000000,-0.000000,624.384084,-624.418168,0.096484,0.000000,-0.000000,0.000000
1.170000,-0.870000,0.958918,0.020000,-35.352209,7222.950000,170.286520,-170.334042,-562.947091,0.000000,-0.000000,-0.000000,588.120739,-588.168262,1.032106,0.000000,-0.000000,0.000000
1.190000,-0.870000,0.974962,0.020000,-21.643833,7458.950000,175.822853,-177.907544,-551.315137,0.000000,-0.000000,-0.000000,577.946455,-580.031145,1.284004,0.000000,-0.000000,0.000000
1.190000,-0.850000,0.963004,0.020000,-31.604745,7441.750000,188.564653,-190.369780,-553.921492,0.000000,-0.000000,-0.000000,584.526053,-586.331180,-0.424468,0.000000,-0.000000,-0.000000
1.170000,-0.850000,0.946948,0.020000,-45.535985,7205.750000,184.036395,-184.480386,-568.079865,0.000000,-0.000000,-0.000000,596.993016,-597.437007,-0.342778,0.000000,-0.000000,-0.000000
1.210000,-0.870000,0.990968,0.020000,-8.001338,7698.950000,180.295084,-182.753861,-536.894804,0.000000,-0.000000,-0.000000,565.520916,-567.979694,1.120945,0.000000,-0.000000,0.000000
1.230000,-0.850000,0.995546,0.020000,-3.967956,7925.750000,204.152324,-196.839769,-528.375292,0.000000,-0.000000,-0.000000,568.792186,-561.479631,0.719962,0.000000,-0.000000,0.000000
1.210000,-0.850000,0.979206,0.020000,-17.750058,7681.750000,196.689703,-191.822246,-540.672691,0.000000,-0.000000,-0.000000,576.943907,-572.076450,-0.630352,0.000000,-0.000000,-0.000000
-1.250000,-0.810000,0.990017,0.020000,-8.680234,8140.550000,227.490212,-251.225547,520.426789,0.000000,-0.000000,0.000000,560.934203,-584.669538,-5.852729,0.000000,-0.000000,-0.000000
-1.230000,-0.830000,0.984753,0.020000,-13.429789,7908.950000,213.418200,-219.553398,532.797501,0.000000,-0.000000,0.000000,572.030156,-578.165354,-1.360507,0.000000,-0.000000,-0.000000
-1.210000,-0.830000,0.968171,0.020000,-27.426291,7664.950000,209.562119,-210.627712,543.039498,0.000000,-0.000000,0.000000,581.731353,-582.796946,-0.479530,0.000000,-0.000000,-0.000000
-1.210000,-0.810000,0.956904,0.020000,-37.013101,7648.550000,224.418180,-225.889459,546.168223,0.000000,-0.000000,0.000000,590.021476,-591.492756,-0.020089,0.000000,-0.000000,-0.000000
-1.230000,-0.810000,0.973396,0.020000,-22.803128,7892.550000,227.162048,-235.385163,534.158942,0.000000,-0.000000,0.000000,577.963285,-586.186400,-1.460767,0.000000,-0.000000,-0.000000
-1.190000,-0.830000,0.951540,0.020000,-41.505985,7424.950000,204.951189,-204.652444,556.787794,0.000000,-0.000000,0.000000,593.408512,-593.109768,0.157043,0.000000,-0.000000,0.000000
-1.170000,-0.830000,0.935041,0.020000,-55.667498,7188.950000,200.527293,-200.506565,572.810919,0.000000,-0.000000,0.000000,606.903589,-606.882861,0.032775,0.000000,-0.000000,0.000000
-1.170000,-0.810000,0.923784,0.020000,-65.701304,7172.550000,216.992931,-217.035570,577.329005,0.000000,-0.000000,0.000000,616.747646,-616.790284,0.094472,0.000000,-0.000000,0.000000
-1.190000,-0.810000,0.940480,0.020000,-51.313010,7408.550000,220.909133,-220.860756,560.667374,0.000000,-0.000000,0.000000,602.633551,-602.585175,0.137636,0.000000,-0.000000,0.000000
-1.150000,-0.830000,0.918681,0.020000,-69.909189,6956.950000,195.489748,-195.522187,589.344759,0.000000,-0.000000,0.000000,620.910362,-620.942801,0.093441,0.000000,-0.000000,0.000000
-1.130000,-0.830000,0.902468,0.020000,-84.229065,6728.950000,189.927944,-189.964941,606.274821,0.000000,-0.000000,0.000000,635.315115,-635.352112,0.095665,0.000000,-0.000000,0.000000
-1.130000,-0.810000,0.890799,0.020000,-94.736453,6712.550000,207.386995,-207.419644,611.916981,0.000000,-0.000000,0.000000,646.093973,-646.126622,0.106334,0.000000,-0.000000,0.000000
-1.150000,-0.810000,0.907221,0.020000,-80.176386,6940.550000,212.495858,-212.529726,594.375996,0.000000,-0.000000,0.000000,631.207672,-631.241540,0.091394,0.000000,-0.000000,0.000000
-1.110000,-0.830000,0.886410,0.020000,-98.624898,6504.950000,184.122590,-183.371080,622.880368,0.000000,-0.000000,0.000000,649.793062,-649.041552,-0.116242,0.000000,-0.000000,-0.000000
-1.090000,-0.830000,0.870515,0.020000,-113.094206,6284.950000,176.726152,-176.749300,641.249108,0.000000,-0.000000,0.000000,665.147514,-665.170662,0.171717,0.000000,-0.000000,0.000000
-1.090000,-0.810000,0.858412,0.020000,-124.103126,6268.550000,192.714317,-195.456390,650.647039,0.000000,-0.000000,0.000000,677.604101,-680.346175,1.858967,0.000000,-0.000000,0.000000
-1.110000,-0.810000,0.874527,0.020000,-109.379465,6488.550000,201.321253,-201.624273,629.942584,0.000000,-0.000000,0.000000,661.224969,-661.527988,0.295841,0.000000,-0.000000,0.000000
-1.070000,-0.830000,0.854792,0.020000,-127.634236,6068.950000,172.379992,-170.379515,656.350224,0.000000,-0.000000,0.000000,679.350350,-677.349873,-2.786027,0.000000,-0.000000,-0.000000
-1.050000,-0.830000,0.839252,0.020000,-142.241941,5856.950000,168.544157,-165.199208,678.835890,0.000000,-0.000000,0.000000,700.695073,-697.350124,-5.632924,0.000000,-0.000000,-0.000000
-1.050000,-0.810000,0.826691,0.020000,-153.781822,5840.550000,177.805975,-179.197743,691.421686,0.000000,-0.000000,0.000000,713.390047,-714.781815,2.853962,0.000000,-0.000000,0.000000
-1.070000,-0.810000,0.842463,0.020000,-138.904866,6052.550000,184.948860,-182.999026,665.235443,0.000000,-0.000000,0.000000,691.172352,-689.222518,3.479540,0.000000,-0.000000,0.000000
1.050000,-0.830000,0.838847,0.020000,-142.188870,5856.950000,168.694952,-165.351448,-678.501919,0.000000,-0.000000,-0.000000,700.404386,-697.060882,5.857455,0.000000,-0.000000,0.000000
1.070000,-0.830000,0.854679,0.020000,-127.586293,6068.950000,172.522353,-170.523713,-656.024325,0.000000,-0.000000,-0.000000,679.069398,-677.070758,3.005845,0.000000,-0.000000,0.000000
1.070000,-0.810000,0.842722,0.020000,-138.852200,6052.550000,185.085146,-183.137659,-664.893195,0.000000,-0.000000,-0.000000,690.879084,-688.931597,-3.254353,0.000000,-0.000000,-0.000000
1.050000,-0.810000,0.826662,0.020000,-153.723892,5840.550000,177.953738,-179.344438,-691.066774,0.000000,-0.000000,-0.000000,713.084666,-714.475365,-2.621466,0.000000,-0.000000,-0.000000
1.090000,-0.830000,0.870682,0.020000,-113.051448,6284.950000,176.854894,-176.877821,-640.928339,0.000000,-0.000000,-0.000000,664.872618,-664.895545,0.037592,0.000000,-0.000000,0.000000
1.110000,-0.830000,0.886848,0.020000,-98.587375,6504.950000,184.238455,-183.487561,-622.567989,0.000000,-0.000000,-0.000000,649.525974,-648.775079,0.316006,0.000000,-0.000000,0.000000
1.110000,-0.810000,0.874964,0.020000,-109.337481,6488.550000,201.429180,-201.732097,-629.617515,0.000000,-0.000000,-0.000000,660.948353,-661.251270,-0.093944,0.000000,-0.000000,-0.000000
1.090000,-0.810000,0.858948,0.020000,-124.055776,6268.550000,192.835616,-195.575305,-650.311298,0.000000,-0.000000,-0.000000,677.318472,-680.058162,-1.647114,0.000000,-0.000000,-0.000000
1.130000,-0.830000,0.902997,0.020000,-84.196825,6728.950000,190.032406,-190.069358,-605.969662,0.000000,-0.000000,-0.000000,635.055189,-635.092141,0.095271,0.000000,-0.000000,0.000000
1.150000,-0.830000,0.918950,0.020000,-69.882274,6956.950000,195.583262,-195.615660,-589.047486,0.000000,-0.000000,-0.000000,620.657695,-620.690093,0.088935,0.000000,-0.000000,0.000000
1.150000,-0.810000,0.907136,0.020000,-80.145258,6940.550000,212.581114,-212.614937,-594.068167,0.000000,-0.000000,-0.000000,630.946558,-630.980380,0.092537,0.000000,-0.000000,0.000000
1.130000,-0.810000,0.890971,0.020000,-94.699878,6712.550000,207.483176,-207.515781,-611.600489,0.000000,-0.000000,-0.000000,645.825152,-645.857757,0.086374,0.000000,-0.000000,0.000000
1.170000,-0.830000,0.935060,0.020000,-55.645944,7188.950000,200.610574,-200.589816,-572.521526,0.000000,-0.000000,-0.000000,606.657983,-606.637226,0.141443,0.000000,-0.000000,0.000000
1.190000,-0.830000,0.951317,0.020000,-41.489826,7424.950000,205.025248,-204.726636,-556.506159,0.000000,-0.000000,-0.000000,593.169758,-592.871146,0.009813,0.000000,-0.000000,0.000000
1.190000,-0.810000,0.939910,0.020000,-51.292874,7408.550000,220.974788,-220.926438,-560.376742,0.000000,-0.000000,-0.000000,602.387242,-602.338893,0.030049,0.000000,-0.000000,0.000000
1.170000,-0.810000,0.923452,0.020000,-65.675657,7172.550000,217.068035,-217.110628,-577.029781,0.000000,-0.000000,-0.000000,616.494024,-616.536616,0.081132,0.000000,-0.000000,0.000000
1.210000,-0.830000,0.967714,0.020000,-27.415557,7664.950000,209.628129,-210.694062,-542.764801,0.000000,-0.000000,-0.000000,581.498739,-582.564672,0.640178,0.000000,-0.000000,0.000000
1.230000,-0.830000,0.984245,0.020000,-13.424506,7908.950000,213.475280,-219.613035,-532.527926,0.000000,-0.000000,-0.000000,571.800732,-577.938487,1.515510,0.000000,-0.000000,0.000000
1.230000,-0.810000,0.973224,0.020000,-22.794089,7892.550000,227.212371,-235.431409,-533.881122,0.000000,-0.000000,-0.000000,577.729171,-585.948209,1.614870,0.000000,-0.000000,0.000000
1.210000,-0.810000,0.956503,0.020000,-36.998502,7648.550000,224.475033,-225.945825,-545.885239,0.000000,-0.000000,-0.000000,589.781665,-591.252457,0.180271,0.000000,-0.000000,0.000000
1.250000,-0.810000,0.990066,0.020000,-8.676777,8140.550000,227.537148,-251.261416,-520.154834,0.000000,-0.000000,-0.000000,560.708428,-584.432696,6.001624,0.000000,-0.000000,0.000000
-1.270000,-0.790000,0.996056,0.020000,-3.535559,8376.550000,249.148869,-277.283510,525.000100,0.000000,-0.000000,0.000000,573.207319,-601.341959,-4.045377,0.000000,-0.000000,-0.000000
-1.250000,-0.790000,0.979129,0.020000,-17.756658,8124.550000,246.704530,-258.743044,525.168033,0.000000,-0.000000,0.000000,576.786408,-588.824923,-2.886581,0.000000,-0.000000,-0.000000
-1.250000,-0.770000,0.968532,0.020000,-26.730840,8108.950000,259.983138,-267.891675,523.403282,0.000000,-0.000000,0.000000,582.231603,-590.140140,-0.272657,0.000000,-0.000000,-0.000000
-1.270000,-0.770000,0.985640,0.020000,-12.294877,8360.950000,250.849665,-285.836339,517.231955,0.000000,-0.000000,0.000000,565.203245,-600.189919,1.247326,0.000000,-0.000000,0.000000
-1.230000,-0.790000,0.962320,0.020000,-32.084502,7876.550000,243.461844,-247.769336,534.066827,0.000000,-0.000000,0.000000,585.683693,-589.991185,-1.240403,0.000000,-0.000000,-0.000000
-1.210000,-0.790000,0.945635,0.020000,-46.509998,7632.550000,240.310262,-240.601859,547.822587,0.000000,-0.000000,0.000000,598.125590,-598.417187,0.223674,0.000000,-0.000000,0.000000
-1.210000,-0.770000,0.934658,0.020000,-55.910686,7616.950000,257.086858,-257.060456,550.011462,0.000000,-0.000000,0.000000,607.137133,-607.110731,0.067542,0.000000,-0.000000,0.000000
-1.230000,-0.770000,0.951535,0.020000,-41.268975,7860.950000,259.122954,-260.279175,534.703129,0.000000,-0.000000,0.000000,593.856141,-595.012361,0.000533,0.000000,-0.000000,0.000000
-1.190000,-0.790000,0.929081,0.020000,-61.031638,7392.550000,237.569354,-237.593456,564.186072,0.000000,-0.000000,0.000000,612.156915,-612.181017,0.066077,0.000000,-0.000000,0.000000
-1.170000,-0.790000,0.912665,0.020000,-75.648286,7156.550000,234.092820,-234.122496,581.292533,0.000000,-0.000000,0.000000,626.648865,-626.678541,0.087939,0.000000,-0.000000,0.000000
-1.170000,-0.770000,0.901287,0.020000,-85.501606,7140.950000,251.714946,-251.742322,584.744408,0.000000,-0.000000,0.000000,636.612825,-636.640202,0.100422,0.000000,-0.000000,0.000000
-1.190000,-0.770000,0.917906,0.020000,-70.655223,7376.950000,254.639576,-254.670398,567.126348,0.000000,-0.000000,0.000000,621.660911,-621.691733,0.088442,0.000000,-0.000000,0.000000
-1.150000,-0.790000,0.896060,0.020000,-90.358559,6924.550000,230.453362,-229.761660,598.218756,0.000000,-0.000000,0.000000,641.294461,-640.602759,-0.158927,0.000000,-0.000000,-0.000000
-1.130000,-0.790000,0.879431,0.020000,-105.160855,6696.550000,225.358213,-225.316089,616.864476,0.000000,-0.000000,0.000000,656.754322,-656.712198,0.195781,0.000000,-0.000000,0.000000
-1.130000,-0.770000,0.868374,0.020000,-115.495027,6680.950000,241.564839,-244.068520,623.689039,0.000000,-0.000000,0.000000,668.033792,-670.537472,2.167995,0.000000,-0.000000,0.000000
-1.150000,-0.770000,0.884808,0.020000,-100.448668,6908.950000,247.886949,-248.206865,602.956213,0.000000,-0.000000,0.000000,651.824210,-652.144127,0.326710,0.000000,-0.000000,0.000000
-1.110000,-0.790000,0.862944,0.020000,-120.053338,6472.550000,223.879437,-221.952893,632.632044,0.000000,-0.000000,0.000000,671.711633,-669.785089,-3.399465,0.000000,-0.000000,-0.000000
-1.090000,-0.790000,0.846608,0.020000,-135.033916,6252.550000,219.482096,-217.090953,654.848967,0.000000,-0.000000,0.000000,691.458506,-689.067364,-3.641008,0.000000,-0.000000,-0.000000
-1.090000,-0.770000,0.835117,0.020000,-145.878926,6236.950000,231.077171,-232.370836,665.194397,0.000000,-0.000000,0.000000,703.742523,-705.036188,3.903308,0.000000,-0.000000,0.000000
-1.110000,-0.770000,0.851673,0.020000,-130.639069,6456.950000,236.879092,-234.856879,638.996235,0.000000,-0.000000,0.000000,682.143698,-680.121485,2.878717,0.000000,-0.000000,0.000000
1.090000,-0.790000,0.846948,0.020000,-134.981928,6252.550000,219.589062,-217.199874,-654.503204,0.000000,-0.000000,-0.000000,691.162532,-688.773344,3.851201,0.000000,-0.000000,0.000000
1.110000,-0.790000,0.863011,0.020000,-120.006849,6472.550000,223.977814,-222.053027,-632.297521,0.000000,-0.000000,-0.000000,671.427197,-669.502410,3.602818,0.000000,-0.000000,0.000000
1.110000,-0.770000,0.851360,0.020000,-130.588036,6456.950000,236.970272,-234.950079,-638.647574,0.000000,-0.000000,-0.000000,681.848402,-679.828209,-2.670249,0.000000,-0.000000,-0.000000
1.090000,-0.770000,0.835073,0.020000,-145.822255,6236.950000,231.178676,-232.471110,-664.830468,0.000000,-0.000000,-0.000000,703.433850,-704.726284,-3.686597,0.000000,-0.000000,-0.000000
1.130000,-0.790000,0.879236,0.020000,-105.119905,6696.550000,225.445310,-225.403024,-616.536754,0.000000,-0.000000,-0.000000,656.476491,-656.434205,-0.001518,0.000000,-0.000000,-0.000000
1.150000,-0.790000,0.895613,0.020000,-90.323183,6924.550000,230.529256,-229.838167,-597.901068,0.000000,-0.000000,-0.000000,641.024956,-640.333868,0.344035,0.000000,-0.000000,0.000000
1.150000,-0.770000,0.884392,0.020000,-100.409016,6908.950000,247.953405,-248.273179,-602.627582,0.000000,-0.000000,-0.000000,651.545713,-651.865487,-0.140151,0.000000,-0.000000,-0.000000
1.130000,-0.770000,0.867803,0.020000,-115.449669,6680.950000,241.643063,-244.144385,-623.348149,0.000000,-0.000000,-0.000000,667.745893,-670.247214,-1.971588,0.000000,-0.000000,-0.000000
1.170000,-0.790000,0.912134,0.020000,-75.618515,7156.550000,234.158981,-234.188614,-580.983579,0.000000,-0.000000,-0.000000,626.387034,-626.416667,0.088867,0.000000,-0.000000,0.000000
1.190000,-0.790000,0.928793,0.020000,-61.007499,7392.550000,237.626199,-237.650256,-563.886353,0.000000,-0.000000,-0.000000,611.902783,-611.926840,0.102639,0.000000,-0.000000,0.000000
1.190000,-0.770000,0.917977,0.020000,-70.627057,7376.950000,254.686905,-254.717685,-566.817765,0.000000,-0.000000,-0.000000,621.398829,-621.429609,0.081156,0.000000,-0.000000,0.000000
1.170000,-0.770000,0.901119,0.020000,-85.467685,7140.950000,251.771419,-251.798754,-584.425850,0.000000,-0.000000,-0.000000,636.342599,-636.369935,0.077434,0.000000,-0.000000,0.000000
1.210000,-0.790000,0.945581,0.020000,-46.491513,7632.550000,240.358780,-240.649967,-547.531614,0.000000,-0.000000,-0.000000,597.878836,-598.170023,-0.062396,0.000000,-0.000000,-0.000000
1.230000,-0.790000,0.962492,0.020000,-32.071690,7876.550000,243.503209,-247.807983,-533.783030,0.000000,-0.000000,-0.000000,585.443604,-589.748378,1.394819,0.000000,-0.000000,0.000000
1.230000,-0.770000,0.952059,0.020000,-41.252372,7860.950000,259.154214,-260.310063,-534.413373,0.000000,-0.000000,-0.000000,593.609263,-594.765112,0.154010,0.000000,-0.000000,0.000000
1.210000,-0.770000,0.934960,0.020000,-55.888294,7616.950000,257.125735,-257.099321,-549.712679,0.000000,-0.000000,-0.000000,606.882940,-606.856527,0.094214,0.000000,-0.000000,0.000000
1.250000,-0.790000,0.979519,0.020000,-17.749535,8124.550000,246.739295,-258.774174,-524.889309,0.000000,-0.000000,-0.000000,576.550614,-588.585493,3.035957,0.000000,-0.000000,0.000000
1.270000,-0.790000,0.996641,0.020000,-3.534136,8376.550000,249.177569,-277.306112,-524.723994,0.000000,-0.000000,-0.000000,572.974038,-601.102581,4.190430,0.000000,-0.000000,0.000000
1.270000,-0.770000,0.985885,0.020000,-12.289887,8360.950000,250.872649,-285.847828,-516.953602,0.000000,-0.000000,-0.000000,564.970158,-599.945337,-1.103328,0.000000,-0.000000,-0.000000
1.250000,-0.770000,0.968991,0.020000,-26.720039,8108.950000,260.008397,-267.914398,-523.120574,0.000000,-0.000000,-0.000000,581.991175,-589.897177,0.421259,0.000000,-0.000000,0.000000
-1.290000,-0.750000,0.992915,0.020000,-6.436809,8601.750000,270.516383,-311.987776,501.617459,0.000000,-0.000000,0.000000,559.284547,-600.755940,-4.936217,0.000000,-0.000000,-0.000000
-1.290000,-0.730000,0.983160,0.020000,-14.792555,8586.950000,289.692318,-319.185010,500.894469,0.000000,-0.000000,0.000000,571.400973,-600.893665,-3.080544,0.000000,-0.000000,-0.000000
-1.310000,-0.730000,1.000426,0.020000,-0.202350,8846.950000,287.747737,-350.891080,503.269368,0.000000,-0.000000,0.000000,564.413974,-627.557317,-6.786120,0.000000,-0.000000,-0.000000
-1.270000,-0.750000,0.975524,0.020000,-20.963584,8345.750000,274.058727,-290.834638,511.167333,0.000000,-0.000000,0.000000,575.622233,-592.398145,-0.519796,0.000000,-0.000000,-0.000000
-1.250000,-0.750000,0.958234,0.020000,-35.601155,8093.750000,275.377556,-279.335175,521.692365,0.000000,-0.000000,0.000000,588.858625,-592.816245,0.776085,0.000000,-0.000000,0.000000
-1.250000,-0.730000,0.948248,0.020000,-44.360858,8078.950000,292.815741,-293.338203,519.596400,0.000000,-0.000000,0.000000,596.290970,-596.813431,0.052964,0.000000,-0.000000,0.000000
-1.270000,-0.730000,0.965716,0.020000,-29.518438,8330.950000,293.489309,-300.458595,506.972285,0.000000,-0.000000,0.000000,584.063069,-591.032354,-1.453553,0.000000,-0.000000,-0.000000
-1.230000,-0.750000,0.941052,0.020000,-50.349748,7845.750000,275.332407,-275.484134,535.123380,0.000000,-0.000000,0.000000,601.760244,-601.911970,0.218272,0.000000,-0.000000,0.000000
-1.210000,-0.750000,0.923984,0.020000,-65.208526,7601.750000,274.087371,-274.119377,551.972485,0.000000,-0.000000,0.000000,616.268248,-616.300253,0.079329,0.000000,-0.000000,0.000000
-1.210000,-0.730000,0.913622,0.020000,-74.396712,7586.950000,291.541490,-291.554627,553.289542,0.000000,-0.000000,0.000000,625.396965,-625.410102,0.087342,0.000000,-0.000000,0.000000
-1.230000,-0.730000,0.930881,0.020000,-59.320315,7830.950000,292.393722,-292.388773,535.906674,0.000000,-0.000000,0.000000,610.484744,-610.479795,0.054912,0.000000,-0.000000,0.000000
-1.190000,-0.750000,0.907035,0.020000,-80.176928,7361.750000,272.557556,-271.934468,568.872828,0.000000,-0.000000,0.000000,630.973221,-630.350133,-0.186640,0.000000,-0.000000,-0.000000
-1.170000,-0.750000,0.890212,0.020000,-95.254211,7125.750000,269.736279,-269.647207,587.412700,0.000000,-0.000000,0.000000,646.409199,-646.320127,0.197055,0.000000,-0.000000,0.000000
-1.170000,-0.730000,0.879453,0.020000,-104.898835,7110.950000,286.463840,-288.335728,591.733595,0.000000,-0.000000,0.000000,656.896398,-658.768286,1.973380,0.000000,-0.000000,0.000000
-1.190000,-0.730000,0.896478,0.020000,-89.589718,7346.950000,290.376208,-290.373695,571.320201,0.000000,-0.000000,0.000000,640.879078,-640.876566,0.047492,0.000000,-0.000000,0.000000
-1.150000,-0.750000,0.873524,0.020000,-110.439442,6893.750000,271.027771,-269.292389,603.544855,0.000000,-0.000000,0.000000,662.107232,-660.371850,-3.889681,0.000000,-0.000000,-0.000000
-1.130000,-0.750000,0.856978,0.020000,-125.731475,6665.750000,268.265403,-266.054654,625.876990,0.000000,-0.000000,0.000000,681.610225,-679.399476,-3.104124,0.000000,-0.000000,-0.000000
-1.130000,-0.730000,0.845796,0.020000,-135.862453,6650.950000,280.032511,-281.189540,632.925276,0.000000,-0.000000,0.000000,691.749214,-692.906243,4.389620,0.000000,-0.000000,0.000000
-1.150000,-0.730000,0.862557,0.020000,-120.323376,6878.950000,283.947093,-282.161608,607.081812,0.000000,-0.000000,0.000000,670.716003,-668.930518,2.211677,0.000000,-0.000000,0.000000
1.130000,-0.750000,0.856684,0.020000,-125.681678,6665.750000,268.327318,-266.118520,-625.527773,0.000000,-0.000000,-0.000000,681.311874,-679.103076,3.297709,0.000000,-0.000000,0.000000
1.150000,-0.750000,0.873484,0.020000,-110.395486,6893.750000,271.082414,-269.348740,-603.208665,0.000000,-0.000000,-0.000000,661.821100,-660.087426,4.076014,0.000000,-0.000000,0.000000
1.150000,-0.730000,0.862903,0.020000,-120.275094,6878.950000,283.993659,-282.210106,-606.733887,0.000000,-0.000000,-0.000000,670.420419,-668.636865,-2.020597,0.000000,-0.000000,-0.000000
1.130000,-0.730000,0.845892,0.020000,-135.808189,6650.950000,280.087909,-281.243749,-632.560471,0.000000,-0.000000,-0.000000,691.439784,-692.595624,-4.189693,0.000000,-0.000000,-0.000000
1.170000,-0.750000,0.890417,0.020000,-95.216119,7125.750000,269.782332,-269.693149,-587.084824,0.000000,-0.000000,-0.000000,646.130528,-646.041346,-0.018363,0.000000,-0.000000,-0.000000
1.190000,-0.750000,0.907474,0.020000,-80.144717,7361.750000,272.594325,-271.971829,-568.556189,0.000000,-0.000000,-0.000000,630.703259,-630.080763,0.356681,0.000000,-0.000000,0.000000
1.190000,-0.730000,0.896892,0.020000,-89.553447,7346.950000,290.402141,-290.399657,-570.994591,0.000000,-0.000000,-0.000000,640.600563,-640.598079,0.123191,0.000000,-0.000000,0.000000
1.170000,-0.730000,0.880039,0.020000,-104.856551,7110.950000,286.499580,-288.369439,-591.394616,0.000000,-0.000000,-0.000000,656.608205,-658.478064,-1.793180,0.000000,-0.000000,-0.000000
1.210000,-0.750000,0.924535,0.020000,-65.182212,7601.750000,274.116263,-274.148225,-551.665706,0.000000,-0.000000,-0.000000,616.006366,-616.038327,0.083007,0.000000,-0.000000,0.000000
1.230000,-0.750000,0.941378,0.020000,-50.329342,7845.750000,275.353845,-275.505529,-534.826815,0.000000,-0.000000,-0.000000,601.506431,-601.658114,-0.063425,0.000000,-0.000000,-0.000000
1.230000,-0.730000,0.930844,0.020000,-59.296097,7830.950000,292.404682,-292.399705,-535.603076,0.000000,-0.000000,-0.000000,610.223504,-610.218527,0.100130,0.000000,-0.000000,0.000000
1.210000,-0.730000,0.913806,0.020000,-74.366464,7586.950000,291.559690,-291.572792,-552.975064,0.000000,-0.000000,-0.000000,625.127265,-625.140367,0.075384,0.000000,-0.000000,0.000000
1.250000,-0.750000,0.958342,0.020000,-35.586666,8093.750000,275.392544,-279.348627,-521.404319,0.000000,-0.000000,-0.000000,588.611927,-592.568010,-0.627986,0.000000,-0.000000,-0.000000
1.270000,-0.750000,0.975422,0.020000,-20.955017,8345.750000,274.069194,-290.836113,-510.885394,0.000000,-0.000000,-0.000000,575.382718,-592.149637,0.661160,0.000000,-0.000000,0.000000
1.270000,-0.730000,0.965259,0.020000,-29.506292,8330.950000,293.487989,-300.452285,-506.686533,0.000000,-0.000000,-0.000000,583.816724,-590.781020,1.594078,0.000000,-0.000000,0.000000
1.250000,-0.730000,0.947996,0.020000,-44.342676,8078.950000,292.820258,-293.342291,-519.303025,0.000000,-0.000000,-0.000000,596.037782,-596.559814,0.094937,0.000000,-0.000000,0.000000
1.290000,-0.750000,0.992610,0.020000,-6.434170,8601.750000,270.526073,-311.970907,-501.341515,0.000000,-0.000000,-0.000000,559.056245,-600.501079,5.069620,0.000000,-0.000000,0.000000
1.310000,-0.730000,1.000089,0.020000,-0.202262,8846.950000,287.741777,-350.847457,-502.981331,0.000000,-0.000000,-0.000000,564.174810,-627.280490,6.916573,0.000000,-0.000000,0.000000
1.290000,-0.730000,0.982625,0.020000,-14.786445,8586.950000,289.688483,-319.163431,-500.611344,0.000000,-0.000000,-0.000000,571.160591,-600.635539,3.215427,0.000000,-0.000000,0.000000
-1.330000,-0.690000,0.998728,0.020000,-1.318791,9082.550000,311.435260,-384.086917,497.231113,0.000000,-0.000000,0.000000,570.446341,-643.097998,2.022130,0.000000,-0.000000,0.000000
-1.310000,-0.710000,0.990571,0.020000,-8.230889,8832.550000,288.748779,-358.490414,491.888470,0.000000,-0.000000,0.000000,553.922031,-623.663666,-2.625145,0.000000,-0.000000,-0.000000
-1.290000,-0.710000,0.973130,0.020000,-23.033738,8572.550000,307.140498,-322.902867,493.900925,0.000000,-0.000000,0.000000,577.928642,-593.691011,-1.905565,0.000000,-0.000000,-0.000000
-1.290000,-0.690000,0.963411,0.020000,-31.150398,8558.550000,323.546164,-332.594245,490.477736,0.000000,-0.000000,0.000000,585.559068,-594.607149,-0.627525,0.000000,-0.000000,-0.000000
-1.310000,-0.690000,0.981025,0.020000,-16.159447,8818.550000,316.490274,-351.497936,487.296051,0.000000,-0.000000,0.000000,573.266396,-608.274058,0.206441,0.000000,-0.000000,0.000000
-1.270000,-0.710000,0.955790,0.020000,-37.956688,8316.550000,308.635228,-311.020948,504.722108,0.000000,-0.000000,0.000000,591.038237,-593.423957,0.421304,0.000000,-0.000000,0.000000
-1.250000,-0.710000,0.938555,0.020000,-53.003411,8064.550000,309.380586,-309.381225,519.102045,0.000000,-0.000000,0.000000,604.303794,-604.304433,0.128954,0.000000,-0.000000,0.000000
-1.250000,-0.690000,0.928474,0.020000,-61.522177,8050.550000,326.438650,-326.450287,518.441835,0.000000,-0.000000,0.000000,612.650630,-612.662267,0.058128,0.000000,-0.000000,0.000000
-1.270000,-0.690000,0.945893,0.020000,-46.271262,8302.550000,325.218068,-325.586605,501.823260,0.000000,-0.000000,0.000000,597.907077,-598.275614,0.082598,0.000000,-0.000000,0.000000
-1.230000,-0.710000,0.921032,0.020000,-68.173916,7816.550000,309.617039,-309.644153,536.244736,0.000000,-0.000000,0.000000,619.203300,-619.230414,0.080759,0.000000,-0.000000,0.000000
-1.210000,-0.710000,0.903585,0.020000,-83.468260,7572.550000,309.433867,-309.457735,553.998129,0.000000,-0.000000,0.000000,634.551400,-634.575268,0.075414,0.000000,-0.000000,0.000000
-1.210000,-0.690000,0.893882,0.020000,-92.416018,7558.550000,327.709880,-327.740909,554.045827,0.000000,-0.000000,0.000000,643.700809,-643.731839,0.083194,0.000000,-0.000000,0.000000
-1.230000,-0.690000,0.911162,0.020000,-76.903652,7802.550000,327.244715,-327.263516,535.913154,0.000000,-0.000000,0.000000,627.922251,-627.941052,0.077236,0.000000,-0.000000,0.000000
-1.190000,-0.710000,0.886246,0.020000,-98.886368,7332.550000,310.239482,-310.887292,571.524321,0.000000,-0.000000,0.000000,650.126885,-650.774695,-1.853885,0.000000,-0.000000,-0.000000
-1.170000,-0.710000,0.869021,0.020000,-114.428000,7096.550000,308.572251,-309.072390,590.889933,0.000000,-0.000000,0.000000,666.473944,-666.974083,-1.108270,0.000000,-0.000000,-0.000000
-1.170000,-0.690000,0.858929,0.020000,-123.834026,7082.550000,323.638748,-325.468070,594.111991,0.000000,-0.000000,0.000000,676.057970,-677.887292,3.468429,0.000000,-0.000000,0.000000
-1.190000,-0.690000,0.876352,0.020000,-108.059464,7318.550000,326.209074,-325.111177,572.641496,0.000000,-0.000000,0.000000,659.312495,-658.214598,1.841216,0.000000,-0.000000,0.000000
1.170000,-0.710000,0.869290,0.020000,-114.381512,7096.550000,308.594046,-309.093893,-590.544910,0.000000,-0.000000,-0.000000,666.178041,-666.677888,1.286776,0.000000,-0.000000,0.000000
1.190000,-0.710000,0.886280,0.020000,-98.846027,7332.550000,310.253126,-310.901700,-571.191999,0.000000,-0.000000,-0.000000,649.840717,-650.489291,2.024065,0.000000,-0.000000,0.000000
1.190000,-0.690000,0.875996,0.020000,-108.015046,7318.550000,326.212314,-325.116130,-572.299676,0.000000,-0.000000,-0.000000,659.017015,-657.920832,-1.667852,0.000000,-0.000000,-0.000000
1.170000,-0.690000,0.858803,0.020000,-123.783324,7082.550000,323.650461,-325.477955,-593.754975,0.000000,-0.000000,-0.000000,675.751677,-677.579171,-3.286217,0.000000,-0.000000,-0.000000
1.210000,-0.710000,0.903393,0.020000,-83.434072,7572.550000,309.440617,-309.464317,-553.676258,0.000000,-0.000000,-0.000000,634.273748,-634.297448,0.087400,0.000000,-0.000000,0.000000
1.230000,-0.710000,0.920623,0.020000,-68.145883,7816.550000,309.616980,-309.644055,-535.934401,0.000000,-0.000000,-0.000000,618.934550,-618.961624,0.074386,0.000000,-0.000000,0.000000
1.230000,-0.690000,0.910727,0.020000,-76.871803,7802.550000,327.232977,-327.251742,-535.596464,0.000000,-0.000000,-0.000000,627.645880,-627.664645,0.077811,0.000000,-0.000000,0.000000
1.210000,-0.690000,0.893307,0.020000,-92.377886,7558.550000,327.704560,-327.735415,-553.716938,0.000000,-0.000000,-0.000000,643.415090,-643.445945,0.079631,0.000000,-0.000000,0.000000
1.250000,-0.710000,0.937963,0.020000,-52.981533,8064.550000,309.374292,-309.374928,-518.802907,0.000000,-0.000000,-0.000000,604.043641,-604.044278,0.018841,0.000000,-0.000000,0.000000
1.270000,-0.710000,0.955406,0.020000,-37.940963,8316.550000,308.623413,-311.007604,-504.432281,0.000000,-0.000000,-0.000000,590.785520,-593.169711,-0.280220,0.000000,-0.000000,-0.000000
1.270000,-0.690000,0.945875,0.020000,-46.251963,8302.550000,325.195340,-325.563631,-501.529577,0.000000,-0.000000,-0.000000,597.648375,-598.016666,0.058048,0.000000,-0.000000,0.000000
1.250000,-0.690000,0.928252,0.020000,-61.496607,8050.550000,326.421059,-326.432661,-518.136928,0.000000,-0.000000,-0.000000,612.383261,-612.394863,0.089461,0.000000,-0.000000,0.000000
1.290000,-0.710000,0.972949,0.020000,-23.024161,8572.550000,307.125403,-322.878603,-493.617357,0.000000,-0.000000,-0.000000,577.683126,-593.436326,2.040649,0.000000,-0.000000,0.000000
1.310000,-0.710000,0.990584,0.020000,-8.227456,8832.550000,288.741840,-358.444695,-491.605903,0.000000,-0.000000,-0.000000,553.690299,-623.393154,2.757338,0.000000,-0.000000,0.000000
1.310000,-0.690000,0.981394,0.020000,-16.152662,8818.550000,316.463612,-351.455484,-487.013498,0.000000,-0.000000,-0.000000,573.021736,-608.013608,-0.075115,0.000000,-0.000000,-0.000000
1.290000,-0.690000,0.963590,0.020000,-31.137362,8558.550000,323.519485,-332.562790,-490.192078,0.000000,-0.000000,-0.000000,585.307713,-594.351018,0.761912,0.000000,-0.000000,0.000000
1.330000,-0.690000,0.999280,0.020000,-1.318236,9082.550000,311.409661,-384.029556,-496.946180,0.000000,-0.000000,-0.000000,570.205388,-642.825283,-1.891961,0.000000,-0.000000,-0.000000
-1.330000,-0.670000,0.989665,0.020000,-8.905134,9068.950000,312.961370,-376.424451,475.639095,0.000000,-0.000000,0.000000,555.642721,-619.105802,6.101497,0.000000,-0.000000,0.000000
-1.330000,-0.650000,0.980926,0.020000,-16.388075,9055.750000,344.438508,-363.199404,462.569451,0.000000,-0.000000,0.000000,572.970754,-591.731649,5.042682,0.000000,-0.000000,0.000000
-1.350000,-0.650000,0.999032,0.020000,-1.305157,9323.750000,337.453065,-376.722012,461.401949,0.000000,-0.000000,0.000000,563.743243,-603.012191,8.585344,0.000000,-0.000000,0.000000
-1.310000,-0.670000,0.971797,0.020000,-23.955925,8804.950000,335.320599,-351.071298,477.256279,0.000000,-0.000000,0.000000,579.964640,-595.715340,1.077593,0.000000,-0.000000,0.000000
-1.290000,-0.670000,0.954013,0.020000,-39.137859,8544.950000,339.961385,-342.531008,485.906443,0.000000,-0.000000,0.000000,592.477733,-595.047356,0.281749,0.000000,-0.000000,0.000000
-1.290000,-0.650000,0.944944,0.020000,-46.989272,8531.750000,355.824417,-356.220757,481.388636,0.000000,-0.000000,0.000000,598.539675,-598.936015,0.307798,0.000000,-0.000000,0.000000
-1.310000,-0.650000,0.962895,0.020000,-31.617570,8791.750000,351.241081,-357.983330,469.789824,0.000000,-0.000000,0.000000,585.228155,-591.970404,1.784126,0.000000,-0.000000,0.000000
-1.270000,-0.670000,0.936318,0.020000,-54.455722,8288.950000,341.920419,-341.881688,499.999650,0.000000,-0.000000,0.000000,605.738751,-605.700021,0.073906,0.000000,-0.000000,0.000000
-1.250000,-0.670000,0.918718,0.020000,-69.910360,8036.950000,343.706255,-343.725134,517.132534,0.000000,-0.000000,0.000000,620.930598,-620.949477,0.077062,0.000000,-0.000000,0.000000
-1.250000,-0.650000,0.909298,0.020000,-78.161045,8023.750000,361.283608,-361.285467,515.122804,0.000000,-0.000000,0.000000,629.187448,-629.189307,0.076888,0.000000,-0.000000,0.000000
-1.270000,-0.650000,0.927076,0.020000,-62.503401,8275.750000,358.816355,-358.837786,497.776543,0.000000,-0.000000,0.000000,613.616491,-613.637923,0.063724,0.000000,-0.000000,0.000000
-1.230000,-0.670000,0.901219,0.020000,-85.502476,7788.950000,345.485984,-344.959619,534.386544,0.000000,-0.000000,0.000000,636.461044,-635.934679,-0.208451,0.000000,-0.000000,-0.000000
-1.210000,-0.670000,0.883825,0.020000,-101.232670,7544.950000,346.209200,-346.055610,553.161518,0.000000,-0.000000,0.000000,652.606697,-652.453107,0.183215,0.000000,-0.000000,0.000000
-1.210000,-0.650000,0.874028,0.020000,-109.910748,7531.750000,363.106162,-364.590220,553.542381,0.000000,-0.000000,0.000000,661.669951,-663.154008,2.245595,0.000000,-0.000000,0.000000
-1.230000,-0.650000,0.891613,0.020000,-93.963199,7775.750000,363.515869,-363.530662,533.281261,0.000000,-0.000000,0.000000,645.390198,-645.404991,0.111701,0.000000,-0.000000,0.000000
-1.190000,-0.670000,0.866544,0.020000,-117.101415,7304.950000,351.834327,-350.565245,570.134233,0.000000,-0.000000,0.000000,670.241234,-668.972151,-4.605548,0.000000,-0.000000,-0.000000
-1.170000,-0.670000,0.849187,0.020000,-133.109038,7068.950000,353.636337,-350.137506,595.081756,0.000000,-0.000000,0.000000,693.082425,-689.583594,-2.317692,0.000000,-0.000000,-0.000000
-1.170000,-0.650000,0.839183,0.020000,-142.244973,7055.750000,364.177049,-365.255369,595.039898,0.000000,-0.000000,0.000000,697.363657,-698.441976,4.695996,0.000000,-0.000000,0.000000
-1.190000,-0.650000,0.856550,0.020000,-126.004460,7291.750000,364.460525,-363.698487,568.650364,0.000000,-0.000000,0.000000,675.596678,-674.834640,0.968131,0.000000,-0.000000,0.000000
1.170000,-0.670000,0.848657,0.020000,-133.054119,7068.950000,353.626448,-350.130100,-594.718999,0.000000,-0.000000,-0.000000,692.763940,-689.267592,2.493827,0.000000,-0.000000,0.000000
1.190000,-0.670000,0.866052,0.020000,-117.052920,7304.950000,351.820826,-350.553350,-569.788007,0.000000,-0.000000,-0.000000,669.937817,-668.670341,4.774246,0.000000,-0.000000,0.000000
1.190000,-0.650000,0.856460,0.020000,-125.951894,7291.750000,364.437650,-363.677235,-568.296264,0.000000,-0.000000,-0.000000,675.286003,-674.525587,-0.795336,0.000000,-0.000000,-0.000000
1.170000,-0.650000,0.838866,0.020000,-142.185838,7055.750000,364.160359,-365.237562,-594.666029,0.000000,-0.000000,-0.000000,697.037666,-698.114869,-4.513124,0.000000,-0.000000,-0.000000
1.210000,-0.670000,0.883557,0.020000,-101.190596,7544.950000,346.191256,-346.037624,-552.826174,0.000000,-0.000000,-0.000000,652.312957,-652.159325,-0.020481,0.000000,-0.000000,-0.000000
1.230000,-0.670000,0.901167,0.020000,-85.466816,7788.950000,345.461631,-344.935834,-534.064503,0.000000,-0.000000,-0.000000,636.177143,-635.651347,0.362891,0.000000,-0.000000,0.000000
1.230000,-0.650000,0.891952,0.020000,-93.923738,7775.750000,363.478745,-363.493550,-532.953195,0.000000,-0.000000,-0.000000,645.098236,-645.113042,0.042465,0.000000,-0.000000,0.000000
1.210000,-0.650000,0.874157,0.020000,-109.864740,7531.750000,363.076056,-364.558250,-553.199052,0.000000,-0.000000,-0.000000,661.367487,-662.849681,-2.081920,0.000000,-0.000000,-0.000000
1.250000,-0.670000,0.918873,0.020000,-69.881104,8036.950000,343.676805,-343.695650,-516.822301,0.000000,-0.000000,-0.000000,620.655953,-620.674798,0.070159,0.000000,-0.000000,0.000000
1.270000,-0.670000,0.936673,0.020000,-54.432858,8288.950000,341.886130,-341.847400,-499.701360,0.000000,-0.000000,-0.000000,605.473186,-605.434456,0.066193,0.000000,-0.000000,0.000000
1.270000,-0.650000,0.927557,0.020000,-62.476986,8275.750000,358.770125,-358.791520,-497.473919,0.000000,-0.000000,-0.000000,613.343990,-613.365385,0.075752,0.000000,-0.000000,0.000000
1.250000,-0.650000,0.909838,0.020000,-78.128116,8023.750000,361.241714,-361.243547,-514.807716,0.000000,-0.000000,-0.000000,628.905449,-628.907282,0.069762,0.000000,-0.000000,0.000000
1.290000,-0.670000,0.954559,0.020000,-39.121374,8544.950000,339.922893,-342.491421,-485.618504,0.000000,-0.000000,-0.000000,592.220272,-594.788800,-0.148090,0.000000,-0.000000,-0.000000
1.310000,-0.670000,0.972261,0.020000,-23.945803,8804.950000,335.280174,-351.024254,-476.975454,0.000000,-0.000000,-0.000000,579.714656,-595.458737,-0.948683,0.000000,-0.000000,-0.000000
1.310000,-0.650000,0.962994,0.020000,-31.604128,8791.750000,351.188765,-357.928264,-469.508326,0.000000,-0.000000,-0.000000,584.972892,-591.712391,-1.656607,0.000000,-0.000000,-0.000000
1.290000,-0.650000,0.945230,0.020000,-46.969354,8531.750000,355.774509,-356.170707,-481.097886,0.000000,-0.000000,-0.000000,598.276331,-598.672529,-0.174960,0.000000,-0.000000,-0.000000
1.330000,-0.670000,0.989944,0.020000,-8.901360,9068.950000,312.926354,-376.365182,-475.361537,0.000000,-0.000000,-0.000000,555.403746,-618.842575,-5.974182,0.000000,-0.000000,-0.000000
1.350000,-0.650000,0.998775,0.020000,-1.304602,9323.750000,337.401159,-376.660554,-461.132422,0.000000,-0.000000,-0.000000,563.501973,-602.761367,-8.461576,0.000000,-0.000000,-0.000000
1.330000,-0.650000,0.980844,0.020000,-16.381088,9055.750000,344.385670,-363.141122,-462.294365,0.000000,-0.000000,-0.000000,572.722299,-591.477751,-4.917505,0.000000,-0.000000,-0.000000
-1.370000,-0.610000,1.000231,0.020000,-0.179270,9570.550000,371.454653,-363.342562,418.546294,0.000000,-0.000000,0.000000,560.934525,-552.822435,7.006861,0.000000,-0.000000,0.000000
-1.350000,-0.630000,0.990731,0.020000,-8.455143,9310.950000,352.370616,-377.441299,444.185158,0.000000,-0.000000,0.000000,562.290686,-587.361369,5.643565,0.000000,-0.000000,0.000000
-1.330000,-0.630000,0.972520,0.020000,-23.725094,9042.950000,364.520863,-371.093853,451.479711,0.000000,-0.000000,0.000000,579.048622,-585.621612,1.412223,0.000000,-0.000000,0.000000
-1.330000,-0.610000,0.964008,0.020000,-30.917311,9030.550000,379.298798,-381.140468,444.339934,0.000000,-0.000000,0.000000,583.888487,-585.730157,1.732669,0.000000,-0.000000,0.000000
-1.350000,-0.610000,0.982083,0.020000,-15.477115,9298.550000,375.882748,-372.633581,432.397923,0.000000,-0.000000,0.000000,573.475226,-570.226060,4.896906,0.000000,-0.000000,0.000000
-1.310000,-0.630000,0.954330,0.020000,-39.137981,8778.950000,369.090706,-369.863697,462.640861,0.000000,-0.000000,0.000000,591.686069,-592.459060,0.216164,0.000000,-0.000000,0.000000
-1.290000,-0.630000,0.936215,0.020000,-54.698254,8518.950000,372.575385,-372.529217,477.932063,0.000000,-0.000000,0.000000,606.005156,-605.958988,0.043183,0.000000,-0.000000,0.000000
-1.290000,-0.610000,0.927834,0.020000,-62.258208,8506.550000,389.138605,-389.162301,474.135795,0.000000,-0.000000,0.000000,613.374508,-613.398204,0.068001,0.000000,-0.000000,0.000000
-1.310000,-0.610000,0.946010,0.020000,-46.510760,8766.550000,384.689901,-384.680821,457.787671,0.000000,-0.000000,0.000000,597.961336,-597.952255,0.221476,0.000000,-0.000000,0.000000
-1.270000,-0.630000,0.918177,0.020000,-70.407545,8262.950000,375.928086,-375.938365,494.828802,0.000000,-0.000000,0.000000,621.429755,-621.440034,0.071388,0.000000,-0.000000,0.000000
-1.250000,-0.630000,0.900223,0.020000,-86.267205,8010.950000,379.091293,-379.041990,512.407552,0.000000,-0.000000,0.000000,637.404447,-637.355144,0.118548,0.000000,-0.000000,0.000000
-1.250000,-0.610000,0.891504,0.020000,-94.221705,7998.550000,397.136814,-397.092431,508.945426,0.000000,-0.000000,0.000000,645.564950,-645.520567,0.128623,0.000000,-0.000000,0.000000
-1.270000,-0.610000,0.909631,0.020000,-78.161309,8250.550000,393.249201,-393.258854,491.169521,0.000000,-0.000000,0.000000,629.198022,-629.207674,0.068187,0.000000,-0.000000,0.000000
-1.230000,-0.630000,0.882356,0.020000,-102.278508,7762.950000,383.566319,-384.796065,530.274272,0.000000,-0.000000,0.000000,654.199912,-655.429658,-1.894400,0.000000,-0.000000,-0.000000
-1.210000,-0.630000,0.864583,0.020000,-118.442640,7518.950000,385.366410,-385.884671,549.516076,0.000000,-0.000000,0.000000,671.063700,-671.581960,-0.795885,0.000000,-0.000000,-0.000000
-1.210000,-0.610000,0.855501,0.020000,-126.820604,7506.550000,400.268595,-401.789749,547.882509,0.000000,-0.000000,0.000000,678.200329,-679.721483,3.424701,0.000000,-0.000000,0.000000
-1.230000,-0.610000,0.873459,0.020000,-110.440971,7750.550000,399.456596,-398.858175,527.039742,0.000000,-0.000000,0.000000,661.431615,-660.833193,1.204968,0.000000,-0.000000,0.000000
1.210000,-0.630000,0.865117,0.020000,-118.392711,7518.950000,385.319981,-385.837883,-549.169725,0.000000,-0.000000,-0.000000,670.753407,-671.271310,0.956319,0.000000,-0.000000,0.000000
1.230000,-0.630000,0.882855,0.020000,-102.235260,7762.950000,383.514799,-384.744700,-529.942412,0.000000,-0.000000,-0.000000,653.900471,-655.130371,2.046577,0.000000,-0.000000,0.000000
1.230000,-0.610000,0.873555,0.020000,-110.393957,7750.550000,399.393212,-398.796141,-526.702347,0.000000,-0.000000,-0.000000,661.124397,-660.527326,-1.050698,0.000000,-0.000000,-0.000000
1.210000,-0.610000,0.855804,0.020000,-126.766771,7506.550000,400.210742,-401.730184,-547.528419,0.000000,-0.000000,-0.000000,677.881602,-679.401044,-3.261320,0.000000,-0.000000,-0.000000
1.250000,-0.630000,0.900517,0.020000,-86.230618,8010.950000,379.036349,-378.986944,-512.088126,0.000000,-0.000000,-0.000000,637.115023,-637.065618,0.027266,0.000000,-0.000000,0.000000
1.270000,-0.630000,0.918274,0.020000,-70.377598,8262.950000,375.869386,-375.879637,-494.522375,0.000000,-0.000000,-0.000000,621.150268,-621.160519,0.067263,0.000000,-0.000000,0.000000
1.270000,-0.610000,0.909337,0.020000,-78.127852,8250.550000,393.177532,-393.187157,-490.859842,0.000000,-0.000000,-0.000000,628.911506,-628.921131,0.069437,0.000000,-0.000000,0.000000
1.250000,-0.610000,0.891401,0.020000,-94.181483,7998.550000,397.068320,-397.023833,-508.622239,0.000000,-0.000000,-0.000000,645.268064,-645.223577,0.016207,0.000000,-0.000000,0.000000
1.290000,-0.630000,0.936123,0.020000,-54.674922,8518.950000,372.513363,-372.467191,-477.638094,0.000000,-0.000000,-0.000000,605.735186,-605.689014,0.088648,0.000000,-0.000000,0.000000
1.310000,-0.630000,0.954056,0.020000,-39.121240,8778.950000,369.025975,-369.798793,-462.358493,0.000000,-0.000000,-0.000000,591.425113,-592.197931,-0.090508,0.000000,-0.000000,-0.000000
1.310000,-0.610000,0.945457,0.020000,-46.490747,8766.550000,384.613271,-384.604253,-457.503287,0.000000,-0.000000,-0.000000,597.694352,-597.685334,-0.097067,0.000000,-0.000000,-0.000000
1.290000,-0.610000,0.927357,0.020000,-62.231488,8506.550000,389.064211,-389.087875,-473.839024,0.000000,-0.000000,-0.000000,613.097934,-613.121598,0.062792,0.000000,-0.000000,0.000000
1.330000,-0.630000,0.972070,0.020000,-23.714918,9042.950000,364.454386,-371.025552,-451.206566,0.000000,-0.000000,-0.000000,578.795497,-585.366662,-1.291333,0.000000,-0.000000,-0.000000
1.350000,-0.630000,0.990161,0.020000,-8.451506,9310.950000,352.303381,-377.370875,-443.918871,0.000000,-0.000000,-0.000000,562.043981,-587.111475,-5.525272,0.000000,-0.000000,-0.000000
1.350000,-0.610000,0.981878,0.020000,-15.470421,9298.550000,375.803144,-372.558036,-432.133136,0.000000,-0.000000,-0.000000,573.223211,-569.978103,-4.780128,0.000000,-0.000000,-0.000000
1.330000,-0.610000,0.963632,0.020000,-30.903974,9030.550000,379.220690,-381.061861,-444.066200,0.000000,-0.000000,-0.000000,583.630162,-585.471332,-1.613468,0.000000,-0.000000,-0.000000
1.370000,-0.610000,1.000191,0.020000,-0.179196,9570.550000,371.374215,-363.276297,-418.293474,0.000000,-0.000000,-0.000000,560.690470,-552.592551,-6.892213,0.000000,-0.000000,-0.000000
-1.370000,-0.590000,0.992069,0.020000,-6.883748,9558.550000,391.676682,-397.415419,409.802384,0.000000,-0.000000,0.000000,565.970423,-571.709160,-5.086409,0.000000,-0.000000,-0.000000
-1.370000,-0.570000,0.984246,0.020000,-13.431228,9546.950000,403.453650,-419.514813,409.766685,0.000000,-0.000000,0.000000,572.674812,-588.735976,-3.042137,0.000000,-0.000000,-0.000000
-1.350000,-0.590000,0.973769,0.020000,-22.342552,9286.550000,392.329361,-392.050960,422.638223,0.000000,-0.000000,0.000000,576.711513,-576.433112,-0.746858,0.000000,-0.000000,-0.000000
-1.330000,-0.590000,0.955537,0.020000,-37.957042,9018.550000,396.009788,-395.268022,436.910241,0.000000,-0.000000,0.000000,589.794921,-589.053155,-0.072568,0.000000,-0.000000,-0.000000
-1.330000,-0.570000,0.947412,0.020000,-44.838461,9006.950000,411.386899,-411.329230,431.802660,0.000000,-0.000000,0.000000,596.408736,-596.351067,-0.085040,0.000000,-0.000000,-0.000000
-1.350000,-0.570000,0.965798,0.020000,-29.053515,9274.950000,407.621358,-411.856163,418.030850,0.000000,-0.000000,0.000000,583.229643,-587.464447,-2.116491,0.000000,-0.000000,-0.000000
-1.310000,-0.590000,0.937377,0.020000,-53.729588,8754.550000,400.996347,-400.966167,453.132586,0.000000,-0.000000,0.000000,605.089556,-605.059375,0.023520,0.000000,-0.000000,0.000000
-1.290000,-0.590000,0.919293,0.020000,-69.662499,8494.550000,405.891113,-405.893559,469.589723,0.000000,-0.000000,0.000000,620.694428,-620.696875,0.064984,0.000000,-0.000000,0.000000
-1.290000,-0.570000,0.910845,0.020000,-76.904429,8482.950000,422.739723,-422.731359,464.312699,0.000000,-0.000000,0.000000,627.930623,-627.922259,0.066706,0.000000,-0.000000,0.000000
-1.310000,-0.570000,0.929093,0.020000,-60.788031,8742.950000,417.053317,-417.068922,447.802741,0.000000,-0.000000,0.000000,611.929504,-611.945109,0.070602,0.000000,-0.000000,0.000000
-1.270000,-0.590000,0.901291,0.020000,-85.757765,8238.550000,410.938475,-410.534994,486.370494,0.000000,-0.000000,0.000000,636.802783,-636.399302,-0.188001,0.000000,-0.000000,-0.000000
-1.250000,-0.590000,0.883152,0.020000,-102.017322,7986.550000,415.235440,-415.009842,504.464348,0.000000,-0.000000,0.000000,653.420581,-653.194984,0.165188,0.000000,-0.000000,0.000000
-1.250000,-0.570000,0.874579,0.020000,-109.646754,7974.950000,431.460651,-432.473833,500.804388,0.000000,-0.000000,0.000000,660.852374,-661.865557,2.247638,0.000000,-0.000000,0.000000
-1.270000,-0.570000,0.892672,0.020000,-93.189923,8226.950000,428.296714,-428.327165,481.713854,0.000000,-0.000000,0.000000,644.577145,-644.607596,0.174124,0.000000,-0.000000,0.000000
-1.230000,-0.590000,0.864933,0.020000,-118.443053,7738.550000,425.035883,-424.159431,521.469051,0.000000,-0.000000,0.000000,672.889345,-672.012892,-4.757598,0.000000,-0.000000,-0.000000
-1.210000,-0.590000,0.846795,0.020000,-135.036778,7494.550000,429.277903,-425.881764,546.292006,0.000000,-0.000000,0.000000,695.426587,-692.030448,-0.461653,0.000000,-0.000000,-0.000000
-1.210000,-0.570000,0.838475,0.020000,-143.083198,7482.950000,439.868693,-440.747811,540.581025,0.000000,-0.000000,0.000000,696.752518,-697.631637,4.733763,0.000000,-0.000000,0.000000
-1.230000,-0.570000,0.856571,0.020000,-126.277127,7726.950000,437.064075,-436.878685,515.425195,0.000000,-0.000000,0.000000,675.819765,-675.634375,-0.215550,0.000000,-0.000000,-0.000000
1.210000,-0.590000,0.846680,0.020000,-134.979067,7494.550000,429.196438,-425.803023,-545.934538,0.000000,-0.000000,-0.000000,695.094253,-691.700838,0.618680,0.000000,-0.000000,0.000000
1.230000,-0.590000,0.864618,0.020000,-118.392298,7738.550000,424.953343,-424.078235,-521.130402,0.000000,-0.000000,-0.000000,672.573318,-671.698210,4.905709,0.000000,-0.000000,0.000000
1.230000,-0.570000,0.856055,0.020000,-126.222664,7726.950000,436.971554,-436.787298,-515.083247,0.000000,-0.000000,-0.000000,675.498857,-675.314601,0.366435,0.000000,-0.000000,0.000000
1.210000,-0.570000,0.837933,0.020000,-143.021638,7482.950000,439.779361,-440.657459,-540.218012,0.000000,-0.000000,-0.000000,696.415920,-697.294018,-4.571875,0.000000,-0.000000,-0.000000
1.250000,-0.590000,0.882645,0.020000,-101.973493,7986.550000,415.153003,-414.927450,-504.138197,0.000000,-0.000000,-0.000000,653.116384,-652.890831,-0.021508,0.000000,-0.000000,-0.000000
1.270000,-0.590000,0.900755,0.020000,-85.720828,8238.550000,410.853099,-410.450117,-486.058674,0.000000,-0.000000,-0.000000,636.509335,-636.106353,0.324064,0.000000,-0.000000,0.000000
1.270000,-0.570000,0.892539,0.020000,-93.149540,8226.950000,428.197640,-428.228088,-481.399502,0.000000,-0.000000,-0.000000,644.276431,-644.306878,-0.039207,0.000000,-0.000000,-0.000000
1.250000,-0.570000,0.874258,0.020000,-109.599351,7974.950000,431.365172,-432.376821,-500.474122,0.000000,-0.000000,-0.000000,660.540678,-661.552327,-2.103742,0.000000,-0.000000,-0.000000
1.290000,-0.590000,0.918943,0.020000,-69.632421,8494.550000,405.803884,-405.806309,-469.290748,0.000000,-0.000000,-0.000000,620.411213,-620.413638,0.064553,0.000000,-0.000000,0.000000
1.310000,-0.590000,0.937206,0.020000,-53.706332,8754.550000,400.907383,-400.877186,-452.846341,0.000000,-0.000000,-0.000000,604.816242,-604.786045,0.099554,0.000000,-0.000000,0.000000
1.310000,-0.570000,0.929312,0.020000,-60.761569,8742.950000,416.951784,-416.967367,-447.515275,0.000000,-0.000000,-0.000000,611.649961,-611.665544,0.051043,0.000000,-0.000000,0.000000
1.290000,-0.570000,0.910891,0.020000,-76.871027,8482.950000,422.639265,-422.630887,-464.012143,0.000000,-0.000000,-0.000000,627.640766,-627.632388,0.061378,0.000000,-0.000000,0.000000
1.330000,-0.590000,0.955538,0.020000,-37.940575,9018.550000,395.919631,-395.178256,-436.636387,0.000000,-0.000000,-0.000000,589.531332,-588.789957,0.189671,0.000000,-0.000000,0.000000
1.350000,-0.590000,0.973935,0.020000,-22.332836,9286.550000,392.237787,-391.960951,-422.375120,0.000000,-0.000000,-0.000000,576.455969,-576.179132,0.858941,0.000000,-0.000000,0.000000
1.350000,-0.570000,0.966341,0.020000,-29.040812,9274.950000,407.517417,-411.749736,-417.766828,0.000000,-0.000000,-0.000000,582.968311,-587.200630,2.225236,0.000000,-0.000000,0.000000
1.330000,-0.570000,0.947796,0.020000,-44.818899,9006.950000,411.284560,-411.226967,-431.527749,0.000000,-0.000000,-0.000000,596.139073,-596.081479,0.200554,0.000000,-0.000000,0.000000
1.370000,-0.590000,0.992395,0.020000,-6.880747,9558.550000,391.579071,-397.320121,-409.549120,0.000000,-0.000000,-0.000000,565.718980,-571.460031,5.190347,0.000000,-0.000000,0.000000
1.370000,-0.570000,0.984740,0.020000,-13.425343,9546.950000,403.349873,-419.399510,-409.508761,0.000000,-0.000000,-0.000000,572.420410,-588.470047,3.146242,0.000000,-0.000000,0.000000
-1.390000,-0.550000,0.995417,0.020000,-4.201611,9811.750000,410.110094,-447.965544,390.853241,0.000000,-0.000000,0.000000,561.388500,-599.243950,-8.531453,0.000000,-0.000000,-0.000000
-1.370000,-0.550000,0.976770,0.020000,-19.816024,9535.750000,413.837487,-428.544959,402.658718,0.000000,-0.000000,0.000000,575.343405,-590.050877,-0.362158,0.000000,-0.000000,-0.000000
-1.370000,-0.530000,0.969649,0.020000,-26.036513,9524.950000,429.984697,-441.181976,391.660883,0.000000,-0.000000,0.000000,580.165073,-591.362352,-3.458779,0.000000,-0.000000,-0.000000
-1.390000,-0.530000,0.988430,0.020000,-10.260758,9800.950000,417.990877,-469.587753,386.181461,0.000000,-0.000000,0.000000,562.445882,-614.042759,-7.327767,0.000000,-0.000000,-0.000000
-1.350000,-0.550000,0.958178,0.020000,-35.601717,9263.750000,420.979394,-424.443050,413.039832,0.000000,-0.000000,0.000000,589.272976,-592.736632,0.044414,0.000000,-0.000000,0.000000
-1.330000,-0.550000,0.939643,0.020000,-51.555332,8995.750000,426.878199,-426.918719,425.905323,0.000000,-0.000000,0.000000,603.003486,-603.044006,-0.002356,0.000000,-0.000000,-0.000000
-1.330000,-0.530000,0.932238,0.020000,-58.101481,8984.950000,442.258011,-442.247865,419.110633,0.000000,-0.000000,0.000000,609.300879,-609.290733,0.072412,0.000000,-0.000000,0.000000
-1.350000,-0.530000,0.950917,0.020000,-41.981920,9252.950000,435.007940,-435.911901,404.757075,0.000000,-0.000000,0.000000,594.067553,-594.971514,0.394771,0.000000,-0.000000,0.000000
-1.310000,-0.550000,0.921170,0.020000,-67.679646,8731.750000,433.249829,-433.246491,441.728908,0.000000,-0.000000,0.000000,618.732945,-618.729608,0.058152,0.000000,-0.000000,0.000000
-1.290000,-0.550000,0.902762,0.020000,-83.977258,8471.750000,439.605064,-439.483737,458.287026,0.000000,-0.000000,0.000000,635.061653,-634.940326,0.147519,0.000000,-0.000000,0.000000
-1.290000,-0.530000,0.895052,0.020000,-90.874219,8460.950000,456.556350,-456.426495,451.482886,0.000000,-0.000000,0.000000,642.109469,-641.979614,0.146404,0.000000,-0.000000,0.000000
-1.310000,-0.530000,0.913615,0.020000,-74.397962,8720.950000,449.438233,-449.438157,434.927792,0.000000,-0.000000,0.000000,625.425391,-625.425315,0.059333,0.000000,-0.000000,0.000000
-1.270000,-0.550000,0.884423,0.020000,-100.450737,8215.750000,447.539120,-449.290923,475.618080,0.000000,-0.000000,0.000000,652.795134,-654.546937,-1.663284,0.000000,-0.000000,-0.000000
-1.250000,-0.550000,0.866157,0.020000,-117.102637,7963.750000,452.737532,-453.246974,493.764694,0.000000,-0.000000,0.000000,669.823935,-670.333377,-0.386506,0.000000,-0.000000,-0.000000
-1.250000,-0.530000,0.858118,0.020000,-124.377559,7952.950000,467.350978,-468.099297,487.410907,0.000000,-0.000000,0.000000,675.147153,-675.895472,2.674412,0.000000,-0.000000,0.000000
-1.270000,-0.530000,0.876551,0.020000,-107.533126,8204.950000,463.042778,-462.620760,468.177833,0.000000,-0.000000,0.000000,658.545001,-658.122983,0.289759,0.000000,-0.000000,0.000000
1.250000,-0.550000,0.866252,0.020000,-117.051698,7963.750000,452.624701,-453.133752,-493.434725,0.000000,-0.000000,-0.000000,669.504495,-670.013545,0.526104,0.000000,-0.000000,0.000000
1.270000,-0.550000,0.884698,0.020000,-100.406947,8215.750000,447.424710,-449.176043,-475.303195,0.000000,-0.000000,-0.000000,652.487275,-654.238607,1.795092,0.000000,-0.000000,0.000000
1.270000,-0.530000,0.877099,0.020000,-107.485974,8204.950000,462.915607,-462.494766,-467.861852,0.000000,-0.000000,-0.000000,658.230768,-657.809926,-0.157495,0.000000,-0.000000,-0.000000
1.250000,-0.530000,0.858638,0.020000,-124.323129,7952.950000,467.225796,-467.972999,-487.078078,0.000000,-0.000000,-0.000000,674.821061,-675.568264,-2.533396,0.000000,-0.000000,-0.000000
1.290000,-0.550000,0.903210,0.020000,-83.940572,8471.750000,439.490993,-439.369641,-457.985553,0.000000,-0.000000,-0.000000,634.765151,-634.643799,-0.021107,0.000000,-0.000000,-0.000000
1.310000,-0.550000,0.921774,0.020000,-67.650019,8731.750000,433.135352,-433.131999,-441.440861,0.000000,-0.000000,-0.000000,618.447156,-618.443803,0.061838,0.000000,-0.000000,0.000000
1.310000,-0.530000,0.913820,0.020000,-74.365214,8720.950000,449.310528,-449.310436,-434.639836,0.000000,-0.000000,-0.000000,625.133386,-625.133294,0.058809,0.000000,-0.000000,0.000000
1.290000,-0.530000,0.895424,0.020000,-90.834295,8460.950000,456.428340,-456.298466,-451.181211,0.000000,-0.000000,-0.000000,641.806349,-641.676476,-0.021869,0.000000,-0.000000,-0.000000
1.330000,-0.550000,0.940079,0.020000,-51.532717,8995.750000,426.763592,-426.804056,-425.630024,0.000000,-0.000000,-0.000000,602.727921,-602.768385,0.116282,0.000000,-0.000000,0.000000
1.350000,-0.550000,0.958452,0.020000,-35.586068,9263.750000,420.864776,-424.325620,-412.774719,0.000000,-0.000000,-0.000000,589.006124,-592.466967,0.064140,0.000000,-0.000000,0.000000
1.350000,-0.530000,0.950806,0.020000,-41.963372,9252.950000,434.881775,-435.784985,-404.493789,0.000000,-0.000000,-0.000000,593.796066,-594.699276,-0.287895,0.000000,-0.000000,-0.000000
1.330000,-0.530000,0.932282,0.020000,-58.075859,8984.950000,442.130877,-442.120727,-418.835698,0.000000,-0.000000,-0.000000,609.019496,-609.009346,0.039729,0.000000,-0.000000,0.000000
1.370000,-0.550000,0.976889,0.020000,-19.807297,9535.750000,413.724879,-428.421703,-402.400725,0.000000,-0.000000,-0.000000,575.085139,-589.781964,0.466986,0.000000,-0.000000,0.000000
1.390000,-0.550000,0.995387,0.020000,-4.199755,9811.750000,409.998653,-447.828415,-390.602020,0.000000,-0.000000,-0.000000,561.138813,-598.968575,8.629617,0.000000,-0.000000,0.000000
1.390000,-0.530000,0.988026,0.020000,-10.256209,9800.950000,417.871089,-469.435931,-385.932721,0.000000,-0.000000,-0.000000,562.194961,-613.759804,7.422943,0.000000,-0.000000,0.000000
1.370000,-0.530000,0.969388,0.020000,-26.024989,9524.950000,429.859140,-441.048955,-391.407533,0.000000,-0.000000,-0.000000,579.902673,-591.092488,3.559155,0.000000,-0.000000,0.000000
-1.410000,-0.510000,1.000109,0.020000,-0.433509,10070.550000,428.993192,-497.374898,400.341427,0.000000,-0.000000,0.000000,577.922424,-646.304131,11.404098,0.000000,-0.000000,0.000000
-1.410000,-0.490000,0.993211,0.020000,-5.981347,10060.550000,415.070765,-460.524276,372.298890,0.000000,-0.000000,0.000000,551.599011,-597.052522,20.568103,0.000000,-0.000000,0.000000
-1.390000,-0.510000,0.981427,0.020000,-16.159659,9790.550000,434.398226,-467.501194,384.103023,0.000000,-0.000000,0.000000,575.807416,-608.910384,1.306338,0.000000,-0.000000,0.000000
-1.370000,-0.510000,0.962798,0.020000,-32.085241,9514.550000,443.722739,-451.499214,386.064346,0.000000,-0.000000,0.000000,587.213187,-594.989662,-0.609613,0.000000,-0.000000,-0.000000
-1.370000,-0.490000,0.955631,0.020000,-37.957311,9504.550000,456.121174,-458.981270,376.700350,0.000000,-0.000000,0.000000,591.237751,-594.097847,1.074569,0.000000,-0.000000,0.000000
-1.390000,-0.490000,0.974397,0.020000,-21.882818,9780.550000,445.522392,-460.235940,371.219709,0.000000,-0.000000,0.000000,578.200282,-592.913830,5.152264,0.000000,-0.000000,0.000000
-1.350000,-0.510000,0.944025,0.020000,-48.188020,9242.550000,449.968430,-450.211059,396.584137,0.000000,-0.000000,0.000000,599.761800,-600.004428,-0.072276,0.000000,-0.000000,-0.000000
-1.330000,-0.510000,0.925207,0.020000,-64.470720,8974.550000,457.713946,-457.709910,411.607902,0.000000,-0.000000,0.000000,615.567832,-615.563796,0.050272,0.000000,-0.000000,0.000000
-1.330000,-0.490000,0.918256,0.020000,-70.656879,8964.550000,473.057920,-473.051336,403.382062,0.000000,-0.000000,0.000000,621.692737,-621.686153,0.055298,0.000000,-0.000000,0.000000
-1.350000,-0.490000,0.936916,0.020000,-54.214182,9232.550000,464.511091,-464.449321,388.437957,0.000000,-0.000000,0.000000,605.527295,-605.465525,0.076074,0.000000,-0.000000,0.000000
-1.310000,-0.510000,0.906439,0.020000,-80.936503,8710.550000,465.606891,-465.602695,427.373458,0.000000,-0.000000,0.000000,632.011507,-632.007310,0.058006,0.000000,-0.000000,0.000000
-1.290000,-0.510000,0.887726,0.020000,-97.588530,8450.550000,473.495472,-473.348039,443.891063,0.000000,-0.000000,0.000000,649.047838,-648.900406,0.153158,0.000000,-0.000000,0.000000
-1.290000,-0.490000,0.880793,0.020000,-104.113415,8440.550000,490.364377,-490.212313,435.499121,0.000000,-0.000000,0.000000,655.851997,-655.699933,0.172368,0.000000,-0.000000,0.000000
-1.310000,-0.490000,0.899651,0.020000,-87.288804,8700.550000,481.708738,-481.702644,419.054882,0.000000,-0.000000,0.000000,638.475728,-638.469633,0.056865,0.000000,-0.000000,0.000000
-1.270000,-0.510000,0.869069,0.020000,-114.429987,8194.550000,482.936855,-485.176126,461.255840,0.000000,-0.000000,0.000000,667.509535,-669.748806,-1.633677,0.000000,-0.000000,-0.000000
-1.250000,-0.510000,0.850474,0.020000,-131.464079,7942.550000,491.602625,-489.874305,482.118692,0.000000,-0.000000,0.000000,688.803977,-687.075656,1.217953,0.000000,-0.000000,0.000000
-1.250000,-0.490000,0.843235,0.020000,-138.354743,7932.550000,503.912385,-505.093926,470.729252,0.000000,-0.000000,0.000000,689.411619,-690.593160,2.483079,0.000000,-0.000000,0.000000
-1.270000,-0.490000,0.861987,0.020000,-121.134214,8184.550000,497.585739,-498.534622,451.130573,0.000000,-0.000000,0.000000,671.524548,-672.473431,-0.309579,0.000000,-0.000000,-0.000000
1.250000,-0.510000,0.850777,0.020000,-131.406209,7942.550000,491.456705,-489.729463,-481.785967,0.000000,-0.000000,-0.000000,688.466793,-686.739550,-1.081895,0.000000,-0.000000,-0.000000
1.270000,-0.510000,0.869197,0.020000,-114.379525,8194.550000,482.792681,-485.031085,-460.940546,0.000000,-0.000000,-0.000000,667.187460,-669.425864,1.761390,0.000000,-0.000000,0.000000
1.270000,-0.490000,0.861687,0.020000,-121.080499,8184.550000,497.428923,-498.378042,-450.816531,0.000000,-0.000000,-0.000000,671.197408,-672.146527,0.436989,0.000000,-0.000000,0.000000
1.250000,-0.490000,0.843103,0.020000,-138.293491,7932.550000,503.755792,-504.935874,-470.397555,0.000000,-0.000000,-0.000000,689.071522,-690.251605,-2.346655,0.000000,-0.000000,-0.000000
1.290000,-0.510000,0.887686,0.020000,-97.545419,8450.550000,473.353227,-473.205793,-443.589934,0.000000,-0.000000,-0.000000,648.738132,-648.590698,-0.030708,0.000000,-0.000000,-0.000000
1.310000,-0.510000,0.906238,0.020000,-80.900686,8710.550000,465.465693,-465.461484,-427.086306,0.000000,-0.000000,-0.000000,631.713321,-631.709112,0.058084,0.000000,-0.000000,0.000000
1.310000,-0.490000,0.899038,0.020000,-87.249975,8700.550000,481.553830,-481.547725,-418.769278,0.000000,-0.000000,-0.000000,638.171413,-638.165308,0.056964,0.000000,-0.000000,0.000000
1.290000,-0.490000,0.880333,0.020000,-104.067174,8440.550000,490.207655,-490.055599,-435.199322,0.000000,-0.000000,-0.000000,655.535759,-655.383703,-0.052217,0.000000,-0.000000,-0.000000
1.330000,-0.510000,0.924851,0.020000,-64.442141,8974.550000,457.574018,-457.569969,-411.333991,0.000000,-0.000000,-0.000000,615.280643,-615.276594,0.059853,0.000000,-0.000000,0.000000
1.350000,-0.510000,0.943521,0.020000,-48.166622,9242.550000,449.829945,-450.072422,-396.322748,0.000000,-0.000000,-0.000000,599.485096,-599.727574,0.176759,0.000000,-0.000000,0.000000
1.350000,-0.490000,0.936607,0.020000,-54.189991,9232.550000,464.360354,-464.298606,-388.178468,0.000000,-0.000000,-0.000000,605.245207,-605.183458,0.026324,0.000000,-0.000000,0.000000
1.330000,-0.490000,0.917797,0.020000,-70.625400,8964.550000,472.905024,-472.898434,-403.109880,0.000000,-0.000000,-0.000000,621.399802,-621.393211,0.052628,0.000000,-0.000000,0.000000
1.370000,-0.510000,0.962244,0.020000,-32.070970,9514.550000,443.585295,-451.356949,-385.812171,0.000000,-0.000000,-0.000000,586.944888,-594.716542,0.708951,0.000000,-0.000000,0.000000
1.390000,-0.510000,0.981018,0.020000,-16.152459,9790.550000,434.264310,-467.348850,-383.854157,0.000000,-0.000000,-0.000000,575.546511,-608.631051,-1.209097,0.000000,-0.000000,-0.000000
1.390000,-0.490000,0.974370,0.020000,-21.873024,9780.550000,445.378131,-460.083686,-370.976955,0.000000,-0.000000,-0.000000,577.936563,-592.642118,-5.056148,0.000000,-0.000000,-0.000000
1.370000,-0.490000,0.955466,0.020000,-37.940348,9504.550000,455.972790,-458.831260,-376.451406,0.000000,-0.000000,-0.000000,590.965329,-593.823799,-0.976713,0.000000,-0.000000,-0.000000
1.410000,-0.510000,0.999839,0.020000,-0.433314,10070.550000,428.861370,-497.206879,-400.086232,0.000000,-0.000000,-0.000000,577.662041,-646.007549,-11.303857,0.000000,-0.000000,-0.000000
1.410000,-0.490000,0.993317,0.020000,-5.978666,10060.550000,414.940661,-460.369047,-372.058389,0.000000,-0.000000,-0.000000,551.350508,-596.778894,-20.467906,0.000000,-0.000000,-0.000000
-1.410000,-0.470000,0.986671,0.020000,-11.394191,10050.950000,449.464853,-453.840790,350.839883,0.000000,-0.000000,0.000000,569.638219,-574.014155,9.680214,0.000000,-0.000000,0.000000
-1.410000,-0.450000,0.980495,0.020000,-16.614644,10041.750000,465.685693,-458.655853,327.957576,0.000000,-0.000000,0.000000,570.222807,-563.192967,-0.407954,0.000000,-0.000000,-0.000000
-1.430000,-0.450000,0.999594,0.020000,-0.613574,10325.750000,468.621848,-421.840641,297.928827,0.000000,-0.000000,0.000000,558.999950,-512.218743,-10.727303,0.000000,-0.000000,-0.000000
-1.390000,-0.470000,0.967730,0.020000,-27.427199,9770.950000,458.777273,-464.058913,357.310081,0.000000,-0.000000,0.000000,580.935582,-586.217221,3.966619,0.000000,-0.000000,0.000000
-1.370000,-0.470000,0.948832,0.020000,-43.646867,9494.950000,469.721225,-470.147253,365.753812,0.000000,-0.000000,0.000000,595.281723,-595.707751,0.241682,0.000000,-0.000000,0.000000
-1.370000,-0.450000,0.942408,0.020000,-49.148471,9485.750000,483.633860,-483.492143,356.209401,0.000000,-0.000000,0.000000,600.669146,-600.527430,0.098028,0.000000,-0.000000,0.000000
-1.390000,-0.450000,0.961432,0.020000,-32.787122,9761.750000,473.735978,-473.197784,342.969633,0.000000,-0.000000,0.000000,584.904780,-584.366585,0.418443,0.000000,-0.000000,0.000000
-1.350000,-0.470000,0.929980,0.020000,-60.054535,9222.950000,479.055899,-479.064522,379.624077,0.000000,-0.000000,0.000000,611.234696,-611.243318,0.038424,0.000000,-0.000000,0.000000
-1.330000,-0.470000,0.911178,0.020000,-76.653820,8954.950000,488.295361,-488.286062,394.421985,0.000000,-0.000000,0.000000,627.696069,-627.686770,0.052360,0.000000,-0.000000,0.000000
-1.330000,-0.450000,0.904486,0.020000,-82.455450,8945.750000,503.365437,-503.339716,384.713861,0.000000,-0.000000,0.000000,633.549417,-633.523696,0.052125,0.000000,-0.000000,0.000000
-1.350000,-0.450000,0.923425,0.020000,-65.703277,9213.750000,493.396605,-493.378833,370.106880,0.000000,-0.000000,0.000000,616.783190,-616.765418,0.052873,0.000000,-0.000000,0.000000
-1.310000,-0.470000,0.892427,0.020000,-93.448427,8690.950000,497.802206,-497.593424,409.767140,0.000000,-0.000000,0.000000,644.784324,-644.575541,-0.093578,0.000000,-0.000000,-0.000000
-1.290000,-0.470000,0.873732,0.020000,-110.442118,8430.950000,507.030754,-506.712639,426.040547,0.000000,-0.000000,0.000000,662.299111,-661.980996,0.121538,0.000000,-0.000000,0.000000
-1.290000,-0.450000,0.866752,0.020000,-116.567922,8421.750000,521.520844,-521.811402,416.761800,0.000000,-0.000000,0.000000,667.554097,-667.844655,1.866859,0.000000,-0.000000,0.000000
-1.310000,-0.450000,0.885594,0.020000,-99.408976,8681.750000,513.401114,-513.451272,400.245865,0.000000,-0.000000,0.000000,650.976569,-651.026726,0.251569,0.000000,-0.000000,0.000000
-1.270000,-0.470000,0.855096,0.020000,-127.638717,8174.950000,522.361524,-522.096855,442.270211,0.000000,-0.000000,0.000000,684.462801,-684.198133,-4.251866,0.000000,-0.000000,-0.000000
-1.250000,-0.470000,0.836412,0.020000,-145.042106,7922.950000,529.922312,-526.839647,465.668373,0.000000,-0.000000,0.000000,705.834402,-702.751737,2.182931,0.000000,-0.000000,0.000000
-1.250000,-0.450000,0.829229,0.020000,-151.518752,7913.750000,540.042446,-540.586923,452.064244,0.000000,-0.000000,0.000000,704.203822,-704.748299,3.939576,0.000000,-0.000000,0.000000
-1.270000,-0.450000,0.847962,0.020000,-133.936439,8165.750000,532.934981,-533.589778,429.965803,0.000000,-0.000000,0.000000,684.680959,-685.335756,-1.704931,0.000000,-0.000000,-0.000000
1.250000,-0.470000,0.835837,0.020000,-144.977536,7922.950000,529.741650,-526.661802,-465.336951,0.000000,-0.000000,-0.000000,705.479788,-702.399940,-2.051713,0.000000,-0.000000,-0.000000
1.270000,-0.470000,0.854579,0.020000,-127.581813,8174.950000,522.183578,-521.919741,-441.959106,0.000000,-0.000000,-0.000000,684.125097,-683.861260,4.372448,0.000000,-0.000000,0.000000
1.270000,-0.450000,0.847883,0.020000,-133.876415,8165.750000,532.747136,-533.402246,-429.658314,0.000000,-0.000000,-0.000000,684.341387,-684.996497,1.825650,0.000000,-0.000000,0.000000
1.250000,-0.450000,0.828989,0.020000,-151.450933,7913.750000,539.853154,-540.396857,-451.735913,0.000000,-0.000000,-0.000000,703.848777,-704.392480,-3.807485,0.000000,-0.000000,-0.000000
1.290000,-0.470000,0.873377,0.020000,-110.392810,8430.950000,506.859458,-506.541510,-425.743108,0.000000,-0.000000,-0.000000,661.976604,-661.658655,-0.003951,0.000000,-0.000000,-0.000000
1.310000,-0.470000,0.892227,0.020000,-93.406647,8690.950000,497.633233,-497.424805,-409.484211,0.000000,-0.000000,-0.000000,644.473985,-644.265557,0.204668,0.000000,-0.000000,0.000000
1.310000,-0.450000,0.885816,0.020000,-99.364313,8681.750000,513.218343,-513.268478,-399.965633,0.000000,-0.000000,-0.000000,650.660176,-650.710310,-0.142813,0.000000,-0.000000,-0.000000
1.290000,-0.450000,0.866826,0.020000,-116.515616,8421.750000,521.336448,-521.626092,-416.466185,0.000000,-0.000000,-0.000000,667.225940,-667.515585,-1.750360,0.000000,-0.000000,-0.000000
1.330000,-0.470000,0.911126,0.020000,-76.619501,8954.950000,488.129350,-488.120045,-394.152264,0.000000,-0.000000,-0.000000,627.397452,-627.388147,0.053167,0.000000,-0.000000,0.000000
1.350000,-0.470000,0.930072,0.020000,-60.027610,9222.950000,478.892765,-478.901372,-379.367154,0.000000,-0.000000,-0.000000,610.947279,-610.955886,0.061635,0.000000,-0.000000,0.000000
1.350000,-0.450000,0.923923,0.020000,-65.673684,9213.750000,493.221009,-493.203239,-369.853238,0.000000,-0.000000,-0.000000,616.490527,-616.472757,0.044684,0.000000,-0.000000,0.000000
1.330000,-0.450000,0.904849,0.020000,-82.418358,8945.750000,503.186218,-503.160505,-384.447364,0.000000,-0.000000,-0.000000,633.245203,-633.219490,0.050808,0.000000,-0.000000,0.000000
1.370000,-0.470000,0.949060,0.020000,-43.627271,9494.950000,469.561193,-469.987002,-365.508852,0.000000,-0.000000,-0.000000,595.005040,-595.430850,-0.146619,0.000000,-0.000000,-0.000000
1.390000,-0.470000,0.968090,0.020000,-27.414868,9770.950000,458.621214,-463.899129,-357.073442,0.000000,-0.000000,-0.000000,580.668319,-585.946233,-3.874377,0.000000,-0.000000,-0.000000
1.390000,-0.450000,0.961880,0.020000,-32.772318,9761.750000,473.567823,-473.028889,-342.738790,0.000000,-0.000000,-0.000000,584.633312,-584.094378,-0.330164,0.000000,-0.000000,-0.000000
1.370000,-0.450000,0.942989,0.020000,-49.126307,9485.750000,483.461904,-483.320235,-355.967874,0.000000,-0.000000,-0.000000,600.387462,-600.245794,-0.005492,0.000000,-0.000000,-0.000000
1.410000,-0.470000,0.987157,0.020000,-11.389061,10050.950000,449.312831,-453.681991,-350.608447,0.000000,-0.000000,-0.000000,569.378417,-573.747577,-9.588311,0.000000,-0.000000,-0.000000
1.430000,-0.450000,0.999792,0.020000,-0.613296,10325.750000,468.455510,-421.693918,-297.723800,0.000000,-0.000000,-0.000000,558.744409,-511.982817,10.805743,0.000000,-0.000000,0.000000
1.410000,-0.450000,0.980815,0.020000,-16.607133,10041.750000,465.521477,-458.491810,-327.736483,0.000000,-0.000000,-0.000000,569.960857,-562.931190,0.493092,0.000000,-0.000000,0.000000
-1.430000,-0.430000,0.993901,0.020000,-5.547706,10316.950000,497.032091,-480.986735,305.022948,0.000000,-0.000000,0.000000,584.161672,-568.116316,-15.266433,0.000000,-0.000000,-0.000000
-1.410000,-0.430000,0.974690,0.020000,-21.653258,10032.950000,482.099563,-478.265693,318.577490,0.000000,-0.000000,0.000000,578.158251,-574.324381,-3.594351,0.000000,-0.000000,-0.000000
-1.410000,-0.410000,0.969264,0.020000,-26.499699,10024.550000,491.515829,-495.460356,312.775134,0.000000,-0.000000,0.000000,582.286589,-586.231116,-0.612276,0.000000,-0.000000,-0.000000
-1.430000,-0.410000,0.988580,0.020000,-10.259132,10308.550000,479.913357,-491.014810,305.437674,0.000000,-0.000000,0.000000,568.003367,-579.104819,1.803092,0.000000,-0.000000,0.000000
-1.390000,-0.430000,0.955512,0.020000,-37.957419,9752.950000,487.130686,-486.466987,332.073760,0.000000,-0.000000,0.000000,589.607192,-588.943493,-0.812497,0.000000,-0.000000,-0.000000
-1.370000,-0.430000,0.936367,0.020000,-54.456621,9476.950000,497.116796,-497.176125,346.197591,0.000000,-0.000000,0.000000,605.781672,-605.841001,0.013757,0.000000,-0.000000,0.000000
-1.370000,-0.410000,0.930717,0.020000,-59.565945,9468.550000,510.318524,-510.277640,335.547268,0.000000,-0.000000,0.000000,610.754508,-610.713623,0.055895,0.000000,-0.000000,0.000000
-1.390000,-0.410000,0.949975,0.020000,-42.932974,9744.550000,499.785463,-500.146348,322.978034,0.000000,-0.000000,0.000000,595.034404,-595.395289,-0.060893,0.000000,-0.000000,-0.000000
-1.350000,-0.430000,0.917260,0.020000,-71.154669,9204.950000,507.551226,-507.539164,359.887620,0.000000,-0.000000,0.000000,622.196694,-622.184633,0.045828,0.000000,-0.000000,0.000000
-1.330000,-0.430000,0.898191,0.020000,-88.055741,8936.950000,518.137804,-517.920960,374.269459,0.000000,-0.000000,0.000000,639.195303,-638.978459,0.164201,0.000000,-0.000000,0.000000
-1.330000,-0.410000,0.892299,0.020000,-93.448746,8928.550000,532.757848,-532.529060,363.077524,0.000000,-0.000000,0.000000,644.733903,-644.505115,0.161874,0.000000,-0.000000,0.000000
-1.350000,-0.410000,0.911491,0.020000,-76.403051,9196.550000,521.452191,-521.434838,348.966772,0.000000,-0.000000,0.000000,627.448829,-627.431475,0.046547,0.000000,-0.000000,0.000000
-1.310000,-0.430000,0.879163,0.020000,-105.164116,8672.950000,530.595700,-533.001674,390.044796,0.000000,-0.000000,0.000000,658.299705,-660.705678,-0.993061,0.000000,-0.000000,-0.000000
-1.290000,-0.430000,0.860180,0.020000,-122.484170,8412.950000,540.362205,-540.834337,405.772247,0.000000,-0.000000,0.000000,675.705899,-676.178031,0.258835,0.000000,-0.000000,0.000000
-1.290000,-0.410000,0.854026,0.020000,-128.184280,8404.550000,552.890656,-553.093211,392.932327,0.000000,-0.000000,0.000000,678.274308,-678.476863,1.567456,0.000000,-0.000000,0.000000
-1.310000,-0.410000,0.873143,0.020000,-110.707594,8664.550000,544.082277,-544.467524,377.025205,0.000000,-0.000000,0.000000,661.912259,-662.297507,-0.544041,0.000000,-0.000000,-0.000000
1.290000,-0.430000,0.860691,0.020000,-122.428940,8412.950000,540.160624,-540.632355,-405.481622,0.000000,-0.000000,-0.000000,675.370299,-675.842030,-0.147404,0.000000,-0.000000,-0.000000
1.310000,-0.430000,0.879752,0.020000,-105.116644,8672.950000,530.397652,-532.802317,-389.768701,0.000000,-0.000000,-0.000000,657.976686,-660.381352,1.097689,0.000000,-0.000000,0.000000
1.310000,-0.410000,0.873301,0.020000,-110.657391,8664.550000,543.871950,-544.257601,-376.754359,0.000000,-0.000000,-0.000000,661.585014,-661.970665,0.646765,0.000000,-0.000000,0.000000
1.290000,-0.410000,0.854324,0.020000,-128.126207,8404.550000,552.677327,-552.879259,-392.646097,0.000000,-0.000000,-0.000000,677.934929,-678.136862,-1.457091,0.000000,-0.000000,-0.000000
1.330000,-0.430000,0.898637,0.020000,-88.015948,8936.950000,517.945367,-517.728609,-374.006961,0.000000,-0.000000,-0.000000,638.885608,-638.668850,-0.064019,0.000000,-0.000000,-0.000000
1.350000,-0.430000,0.917570,0.020000,-71.122478,9204.950000,507.363133,-507.351072,-359.637988,0.000000,-0.000000,-0.000000,621.898874,-621.886813,0.049032,0.000000,-0.000000,0.000000
1.350000,-0.410000,0.911387,0.020000,-76.368338,9196.550000,521.251627,-521.234278,-348.721897,0.000000,-0.000000,-0.000000,627.145960,-627.128611,0.045435,0.000000,-0.000000,0.000000
1.330000,-0.410000,0.892323,0.020000,-93.406329,8928.550000,532.552164,-532.323473,-362.819827,0.000000,-0.000000,-0.000000,644.418818,-644.190127,-0.064685,0.000000,-0.000000,-0.000000
1.370000,-0.430000,0.936546,0.020000,-54.431957,9476.950000,496.933069,-496.992368,-345.960085,0.000000,-0.000000,-0.000000,605.495180,-605.554478,0.076153,0.000000,-0.000000,0.000000
1.390000,-0.430000,0.955565,0.020000,-37.940208,9752.950000,486.951305,-486.287673,-331.847941,0.000000,-0.000000,-0.000000,589.331626,-588.667995,0.897598,0.000000,-0.000000,0.000000
1.390000,-0.410000,0.949629,0.020000,-42.913429,9744.550000,499.594872,-499.955596,-322.756506,0.000000,-0.000000,-0.000000,594.754110,-595.114834,0.143480,0.000000,-0.000000,0.000000
1.370000,-0.410000,0.930489,0.020000,-59.538854,9468.550000,510.123058,-510.082189,-335.314463,0.000000,-0.000000,-0.000000,610.463285,-610.422417,0.031263,0.000000,-0.000000,0.000000
1.410000,-0.430000,0.974623,0.020000,-21.643429,10032.950000,481.922400,-478.089959,-318.361525,0.000000,-0.000000,-0.000000,577.890601,-574.058159,3.675100,0.000000,-0.000000,0.000000
1.430000,-0.430000,0.993718,0.020000,-5.545185,10316.950000,496.847969,-480.810096,-304.815609,0.000000,-0.000000,-0.000000,583.893112,-567.855238,15.339901,0.000000,-0.000000,0.000000
1.430000,-0.410000,0.988011,0.020000,-10.254452,10308.550000,479.732669,-490.824936,-305.231067,0.000000,-0.000000,-0.000000,567.741352,-578.833619,-1.726047,0.000000,-0.000000,-0.000000
1.410000,-0.410000,0.968804,0.020000,-26.487623,10024.550000,491.329225,-495.271377,-312.562394,0.000000,-0.000000,-0.000000,582.015191,-585.957343,0.691147,0.000000,-0.000000,0.000000
-1.450000,-0.370000,0.996905,0.020000,-2.847253,10580.950000,501.914008,-474.433076,256.037835,0.000000,-0.000000,0.000000,564.907078,-537.426146,-9.173101,0.000000,-0.000000,-0.000000
-1.430000,-0.390000,0.982911,0.020000,-14.795008,10300.550000,491.734311,-497.013223,296.011749,0.000000,-0.000000,0.000000,573.565446,-578.844358,4.035748,0.000000,-0.000000,0.000000
-1.410000,-0.390000,0.963708,0.020000,-31.151103,10016.550000,500.858055,-504.902851,303.002124,0.000000,-0.000000,0.000000,585.086399,-589.131195,1.515735,0.000000,-0.000000,0.000000
-1.410000,-0.370000,0.958257,0.020000,-35.602073,10008.950000,511.868685,-512.365155,289.168255,0.000000,-0.000000,0.000000,587.868942,-588.365411,0.454344,0.000000,-0.000000,0.000000
-1.430000,-0.370000,0.977567,0.020000,-19.128584,10292.950000,502.197038,-500.362406,277.112699,0.000000,-0.000000,0.000000,573.693174,-571.858543,-0.789794,0.000000,-0.000000,-0.000000
-1.390000,-0.390000,0.944537,0.020000,-47.708746,9736.550000,511.797347,-512.006781,311.782537,0.000000,-0.000000,0.000000,599.271686,-599.481121,-0.015019,0.000000,-0.000000,-0.000000
-1.370000,-0.390000,0.925402,0.020000,-64.471150,9460.550000,523.267305,-523.259631,324.230499,0.000000,-0.000000,0.000000,615.576800,-615.569125,0.036187,0.000000,-0.000000,0.000000
-1.370000,-0.370000,0.919724,0.020000,-69.167064,9452.950000,535.875855,-535.850333,312.267150,0.000000,-0.000000,0.000000,620.222424,-620.196902,0.043120,0.000000,-0.000000,0.000000
-1.390000,-0.370000,0.938975,0.020000,-52.279820,9728.950000,523.760095,-523.680607,300.166672,0.000000,-0.000000,0.000000,603.681219,-603.601732,0.077553,0.000000,-0.000000,0.000000
-1.350000,-0.390000,0.906128,0.020000,-81.442866,9188.550000,535.067578,-535.048834,337.346471,0.000000,-0.000000,0.000000,632.535990,-632.517247,0.044188,0.000000,-0.000000,0.000000
-1.330000,-0.390000,0.886819,0.020000,-98.628616,8920.550000,547.084070,-546.838626,351.144793,0.000000,-0.000000,0.000000,650.099149,-649.853705,0.163040,0.000000,-0.000000,0.000000
-1.330000,-0.370000,0.881322,0.020000,-103.589620,8912.950000,561.052538,-560.804976,338.482149,0.000000,-0.000000,0.000000,655.265906,-655.018344,0.176716,0.000000,-0.000000,0.000000
-1.350000,-0.370000,0.900505,0.020000,-86.268668,9180.950000,548.350208,-548.328541,325.032674,0.000000,-0.000000,0.000000,637.444993,-637.423326,0.042890,0.000000,-0.000000,0.000000
-1.310000,-0.390000,0.867542,0.020000,-116.033255,8656.550000,560.847710,-563.735107,366.322832,0.000000,-0.000000,0.000000,669.647423,-672.534819,-0.867387,0.000000,-0.000000,-0.000000
-1.290000,-0.390000,0.848299,0.020000,-133.661772,8396.550000,573.538157,-571.691127,384.349782,0.000000,-0.000000,0.000000,690.564573,-688.717542,2.737593,0.000000,-0.000000,0.000000
-1.290000,-0.370000,0.843008,0.020000,-138.910280,8388.950000,583.814843,-584.389207,366.390288,0.000000,-0.000000,0.000000,689.216861,-689.791225,1.092423,0.000000,-0.000000,0.000000
-1.310000,-0.370000,0.862175,0.020000,-121.135060,8648.950000,573.040299,-574.849149,350.690144,0.000000,-0.000000,0.000000,671.698129,-673.506980,-1.388095,0.000000,-0.000000,-0.000000
1.290000,-0.390000,0.848152,0.020000,-133.600941,8396.550000,573.305341,-571.459696,-384.067560,0.000000,-0.000000,-0.000000,690.214281,-688.368637,-2.631241,0.000000,-0.000000,-0.000000
1.310000,-0.390000,0.867264,0.020000,-115.980405,8656.550000,560.621631,-563.507276,-366.057168,0.000000,-0.000000,-0.000000,669.312995,-672.198641,0.965661,0.000000,-0.000000,0.000000
1.310000,-0.370000,0.861649,0.020000,-121.079653,8648.950000,572.802729,-574.610835,-350.432368,0.000000,-0.000000,-0.000000,671.360862,-673.168968,1.483302,0.000000,-0.000000,0.000000
1.290000,-0.370000,0.842409,0.020000,-138.846785,8388.950000,583.572273,-584.145716,-366.117083,0.000000,-0.000000,-0.000000,688.866429,-689.439872,-0.989569,0.000000,-0.000000,-0.000000
1.330000,-0.390000,0.886415,0.020000,-98.583657,8920.550000,546.865203,-546.619875,-350.892709,0.000000,-0.000000,-0.000000,649.778798,-649.533470,-0.069038,0.000000,-0.000000,-0.000000
1.350000,-0.390000,0.905603,0.020000,-81.405710,9188.550000,534.854615,-534.835878,-337.107112,0.000000,-0.000000,-0.000000,632.228192,-632.209455,0.044730,0.000000,-0.000000,0.000000
1.350000,-0.370000,0.900227,0.020000,-86.229155,9180.950000,548.124974,-548.103318,-324.799599,0.000000,-0.000000,-0.000000,637.132398,-637.110742,0.042782,0.000000,-0.000000,0.000000
1.330000,-0.370000,0.880922,0.020000,-103.542207,8912.950000,560.820622,-560.573186,-338.236495,0.000000,-0.000000,-0.000000,654.940439,-654.693002,-0.086089,0.000000,-0.000000,-0.000000
1.370000,-0.390000,0.924825,0.020000,-64.441711,9460.550000,523.060175,-523.052503,-324.003108,0.000000,-0.000000,-0.000000,615.280965,-615.273293,0.048025,0.000000,-0.000000,0.000000
1.390000,-0.390000,0.944080,0.020000,-47.686942,9736.550000,511.595906,-511.805235,-311.566391,0.000000,-0.000000,-0.000000,598.987216,-599.196545,0.094800,0.000000,-0.000000,0.000000
1.390000,-0.370000,0.938924,0.020000,-52.255838,9728.950000,523.547831,-523.468371,-299.956486,0.000000,-0.000000,-0.000000,603.392550,-603.313090,-0.000701,0.000000,-0.000000,-0.000000
1.370000,-0.370000,0.919562,0.020000,-69.135361,9452.950000,535.657199,-535.631690,-312.045885,0.000000,-0.000000,-0.000000,619.922106,-619.896597,0.037987,0.000000,-0.000000,0.000000
1.410000,-0.390000,0.963365,0.020000,-31.136854,10016.550000,500.661846,-504.703392,-302.794440,0.000000,-0.000000,-0.000000,584.811586,-588.853132,-1.439234,0.000000,-0.000000,-0.000000
1.430000,-0.390000,0.982679,0.020000,-14.788234,10300.550000,491.543305,-496.814394,-295.809667,0.000000,-0.000000,-0.000000,573.298834,-578.569923,-3.960604,0.000000,-0.000000,-0.000000
1.430000,-0.370000,0.977726,0.020000,-19.119796,10292.950000,501.996643,-500.160035,-276.920433,0.000000,-0.000000,-0.000000,573.424800,-571.588192,0.860258,0.000000,-0.000000,0.000000
1.410000,-0.370000,0.958313,0.020000,-35.585730,10008.950000,511.662650,-512.157921,-288.967517,0.000000,-0.000000,-0.000000,587.590966,-588.086236,-0.380929,0.000000,-0.000000,-0.000000
1.450000,-0.370000,0.997163,0.020000,-2.845943,10580.950000,501.713800,-474.243177,-255.857446,0.000000,-0.000000,-0.000000,564.644286,-537.173663,9.237976,0.000000,-0.000000,0.000000
-1.450000,-0.350000,0.992040,0.020000,-6.889970,10573.750000,520.377731,-513.085074,255.478072,0.000000,-0.000000,0.000000,580.023147,-572.730489,-8.375636,0.000000,-0.000000,-0.000000
-1.450000,-0.330000,0.987556,0.020000,-10.711519,10566.950000,510.830203,-524.107951,249.870690,0.000000,-0.000000,0.000000,567.998280,-581.276028,1.322375,0.000000,-0.000000,0.000000
-1.430000,-0.350000,0.972605,0.020000,-23.264760,10285.750000,515.672480,-513.979614,265.162782,0.000000,-0.000000,0.000000,579.940988,-578.248122,-2.580022,0.000000,-0.000000,-0.000000
-1.410000,-0.350000,0.953194,0.020000,-39.848335,10001.750000,523.301711,-522.848528,276.086467,0.000000,-0.000000,0.000000,591.691713,-591.238530,-0.572458,0.000000,-0.000000,-0.000000
-1.410000,-0.330000,0.948526,0.020000,-43.885350,9994.950000,533.940813,-534.213936,264.429614,0.000000,-0.000000,0.000000,595.817850,-596.090973,-0.045911,0.000000,-0.000000,-0.000000
-1.430000,-0.330000,0.968031,0.020000,-27.195244,10278.950000,523.431421,-528.060749,255.939095,0.000000,-0.000000,0.000000,582.419173,-587.048501,-0.325503,0.000000,-0.000000,-0.000000
-1.390000,-0.350000,0.933808,0.020000,-56.641401,9721.750000,535.411381,-535.426645,287.908030,0.000000,-0.000000,0.000000,607.910581,-607.925845,0.017362,0.000000,-0.000000,0.000000
-1.370000,-0.350000,0.914448,0.020000,-73.648644,9445.750000,548.128526,-548.107346,299.658234,0.000000,-0.000000,0.000000,624.693171,-624.671991,0.037664,0.000000,-0.000000,0.000000
-1.370000,-0.330000,0.909581,0.020000,-77.910991,9438.950000,559.967571,-559.927453,286.411596,0.000000,-0.000000,0.000000,628.965857,-628.925739,0.035835,0.000000,-0.000000,0.000000
-1.390000,-0.330000,0.929043,0.020000,-60.788839,9714.950000,546.635747,-546.594013,275.097115,0.000000,-0.000000,0.000000,611.957340,-611.915607,0.045355,0.000000,-0.000000,0.000000
-1.350000,-0.350000,0.895116,0.020000,-90.875147,9173.750000,561.241556,-561.251444,312.066724,0.000000,-0.000000,0.000000,642.165804,-642.175691,0.069660,0.000000,-0.000000,0.000000
-1.330000,-0.350000,0.875815,0.020000,-108.326163,8905.750000,574.574401,-574.196042,324.872343,0.000000,-0.000000,0.000000,660.083427,-659.705068,0.061956,0.000000,-0.000000,0.000000
-1.330000,-0.330000,0.870732,0.020000,-112.832802,8898.950000,585.844698,-585.377885,310.828645,0.000000,-0.000000,0.000000,663.222078,-662.755266,1.025646,0.000000,-0.000000,0.000000
-1.350000,-0.330000,0.890144,0.020000,-95.257142,9166.950000,573.531355,-573.595779,298.556870,0.000000,-0.000000,0.000000,646.583041,-646.647465,0.290936,0.000000,-0.000000,0.000000
-1.310000,-0.350000,0.856545,0.020000,-126.007111,8641.750000,593.977007,-594.365845,338.649526,0.000000,-0.000000,0.000000,683.702677,-684.091514,-2.819163,0.000000,-0.000000,-0.000000
-1.290000,-0.350000,0.837310,0.020000,-143.923584,8381.750000,604.133050,-601.705716,358.122238,0.000000,-0.000000,0.000000,702.458994,-700.031660,4.279100,0.000000,-0.000000,0.000000
-1.290000,-0.330000,0.831992,0.020000,-148.695622,8374.950000,612.717318,-612.862897,337.902554,0.000000,-0.000000,0.000000,699.702399,-699.847978,2.130036,0.000000,-0.000000,0.000000
-1.310000,-0.330000,0.851347,0.020000,-130.643666,8634.950000,601.972415,-603.415825,321.242401,0.000000,-0.000000,0.000000,682.235100,-683.678511,-2.623863,0.000000,-0.000000,-0.000000
1.290000,-0.350000,0.837105,0.020000,-143.857523,8381.750000,603.869966,-601.445046,-357.853160,0.000000,-0.000000,-0.000000,702.095822,-699.670902,-4.179281,0.000000,-0.000000,-0.000000
1.310000,-0.350000,0.856463,0.020000,-125.949243,8641.750000,593.720065,-594.109058,-338.398771,0.000000,-0.000000,-0.000000,683.354899,-683.743892,2.908393,0.000000,-0.000000,0.000000
1.310000,-0.330000,0.851716,0.020000,-130.583438,8634.950000,601.707352,-603.150179,-321.001728,0.000000,-0.000000,-0.000000,681.887686,-683.330513,2.710101,0.000000,-0.000000,0.000000
1.290000,-0.330000,0.832247,0.020000,-148.627099,8374.950000,612.446308,-612.591507,-337.644910,0.000000,-0.000000,-0.000000,699.340983,-699.486182,-2.034273,0.000000,-0.000000,-0.000000
1.330000,-0.350000,0.875851,0.020000,-108.276387,8905.750000,574.329691,-573.951595,-324.634146,0.000000,-0.000000,-0.000000,659.753151,-659.375055,0.024998,0.000000,-0.000000,0.000000
1.350000,-0.350000,0.895265,0.020000,-90.833366,9173.750000,561.004167,-561.014204,-311.840838,0.000000,-0.000000,-0.000000,641.848558,-641.858595,0.012471,0.000000,-0.000000,0.000000
1.350000,-0.330000,0.890725,0.020000,-95.213188,9166.950000,573.282306,-573.346693,-298.338548,0.000000,-0.000000,-0.000000,646.261361,-646.325749,-0.212134,0.000000,-0.000000,-0.000000
1.330000,-0.330000,0.871210,0.020000,-112.780763,8898.950000,585.589008,-585.122064,-310.598020,0.000000,-0.000000,-0.000000,662.888244,-662.421301,-0.941327,0.000000,-0.000000,-0.000000
1.370000,-0.350000,0.914705,0.020000,-73.614763,9445.750000,547.898527,-547.877360,-299.443814,0.000000,-0.000000,-0.000000,624.388510,-624.367342,0.040167,0.000000,-0.000000,0.000000
1.390000,-0.350000,0.934168,0.020000,-56.615327,9721.750000,535.188466,-535.203730,-287.704495,0.000000,-0.000000,-0.000000,607.617858,-607.633122,0.056337,0.000000,-0.000000,0.000000
1.390000,-0.330000,0.929482,0.020000,-60.760762,9714.950000,546.402419,-546.360708,-274.900874,0.000000,-0.000000,-0.000000,611.660703,-611.618992,0.025072,0.000000,-0.000000,0.000000
1.370000,-0.330000,0.910125,0.020000,-77.875024,9438.950000,559.726471,-559.686381,-286.204743,0.000000,-0.000000,-0.000000,628.657012,-628.616922,0.038556,0.000000,-0.000000,0.000000
1.410000,-0.350000,0.953654,0.020000,-39.829979,10001.750000,523.085611,-522.632447,-275.893268,0.000000,-0.000000,-0.000000,591.410350,-590.957186,0.642178,0.000000,-0.000000,0.000000
1.430000,-0.350000,0.973160,0.020000,-23.254036,10285.750000,515.460953,-513.768256,-264.978110,0.000000,-0.000000,-0.000000,579.668072,-577.975375,2.646166,0.000000,-0.000000,0.000000
1.430000,-0.330000,0.968274,0.020000,-27.182669,10278.950000,523.211727,-527.837963,-255.760464,0.000000,-0.000000,-0.000000,582.143575,-586.769811,0.389121,0.000000,-0.000000,0.000000
1.410000,-0.330000,0.948866,0.020000,-43.865068,9994.950000,533.714875,-533.987864,-264.243305,0.000000,-0.000000,-0.000000,595.532706,-595.805695,0.112573,0.000000,-0.000000,0.000000
1.450000,-0.350000,0.992581,0.020000,-6.886792,10573.750000,520.165208,-512.875339,-255.300053,0.000000,-0.000000,-0.000000,579.752662,-572.462793,8.437741,0.000000,-0.000000,0.000000
1.450000,-0.330000,0.987707,0.020000,-10.706563,10566.950000,510.617834,-523.884172,-249.697464,0.000000,-0.000000,-0.000000,567.732425,-580.998762,-1.260584,0.000000,-0.000000,-0.000000
-1.450000,-0.310000,0.983458,0.020000,-14.340314,10560.550000,521.855315,-525.969266,237.927556,0.000000,-0.000000,0.000000,573.343049,-577.457000,2.902165,0.000000,-0.000000,0.000000
-1.450000,-0.290000,0.979665,0.020000,-17.756199,10554.550000,529.401895,-527.406325,218.506791,0.000000,-0.000000,0.000000,572.796498,-570.800929,-1.533774,0.000000,-0.000000,-0.000000
-1.470000,-0.290000,0.999205,0.020000,-1.288526,10846.550000,527.803816,-503.255395,200.230446,0.000000,-0.000000,0.000000,565.222257,-540.673835,-10.557662,0.000000,-0.000000,-0.000000
-1.430000,-0.310000,0.963850,0.020000,-30.917839,10272.550000,531.827569,-535.353585,244.108997,0.000000,-0.000000,0.000000,585.013430,-588.539445,1.232231,0.000000,-0.000000,0.000000
-1.410000,-0.310000,0.944259,0.020000,-47.708905,9988.550000,544.083002,-544.268163,251.366346,0.000000,-0.000000,0.000000,599.333895,-599.519056,-0.063894,0.000000,-0.000000,-0.000000
-1.410000,-0.290000,0.940398,0.020000,-51.314871,9982.550000,553.791959,-553.719682,237.923208,0.000000,-0.000000,0.000000,602.740840,-602.668563,0.069626,0.000000,-0.000000,0.000000
-1.430000,-0.290000,0.960068,0.020000,-34.427767,10266.550000,540.164047,-540.416727,229.014991,0.000000,-0.000000,0.000000,586.696781,-586.949461,0.439524,0.000000,-0.000000,0.000000
-1.390000,-0.310000,0.924686,0.020000,-64.717640,9708.550000,557.457057,-557.439444,261.691690,0.000000,-0.000000,0.000000,615.826224,-615.808612,0.028124,0.000000,-0.000000,0.000000
-1.370000,-0.310000,0.905131,0.020000,-81.949369,9432.550000,571.235333,-570.945868,272.555771,0.000000,-0.000000,0.000000,632.940988,-632.651523,0.143416,0.000000,-0.000000,0.000000
-1.370000,-0.290000,0.901102,0.020000,-85.759220,9426.550000,582.144693,-581.841784,258.102043,0.000000,-0.000000,0.000000,636.808957,-636.506048,0.139478,0.000000,-0.000000,0.000000
-1.390000,-0.290000,0.920742,0.020000,-68.423481,9702.550000,567.796848,-567.763372,247.734755,0.000000,-0.000000,0.000000,619.489708,-619.456232,0.034472,0.000000,-0.000000,0.000000
-1.350000,-0.310000,0.885596,0.020000,-99.409657,9160.550000,586.977404,-589.792443,285.244704,0.000000,-0.000000,0.000000,652.474243,-655.289282,-0.016535,0.000000,-0.000000,-0.000000
-1.330000,-0.310000,0.866082,0.020000,-117.104267,8892.550000,600.323719,-600.712086,296.984427,0.000000,-0.000000,0.000000,669.746677,-670.135045,0.862459,0.000000,-0.000000,0.000000
-1.330000,-0.290000,0.861870,0.020000,-121.135483,8886.550000,609.511206,-609.156573,279.004039,0.000000,-0.000000,0.000000,670.349715,-669.995081,0.013946,0.000000,-0.000000,0.000000
-1.350000,-0.290000,0.881478,0.020000,-103.327885,9154.550000,597.132942,-598.279122,267.980086,0.000000,-0.000000,0.000000,654.457107,-655.603286,-1.126215,0.000000,-0.000000,-0.000000
1.330000,-0.310000,0.866404,0.020000,-117.050068,8892.550000,600.053900,-600.441922,-296.762674,0.000000,-0.000000,-0.000000,669.406636,-669.794658,-0.782935,0.000000,-0.000000,-0.000000
1.350000,-0.310000,0.885813,0.020000,-99.363631,9160.550000,586.715628,-589.528744,-285.034529,0.000000,-0.000000,-0.000000,652.147097,-654.960213,0.091034,0.000000,-0.000000,0.000000
1.350000,-0.290000,0.881256,0.020000,-103.279891,9154.550000,596.861367,-598.007119,-267.780586,0.000000,-0.000000,-0.000000,654.127579,-655.273330,1.196497,0.000000,-0.000000,0.000000
1.330000,-0.290000,0.861744,0.020000,-121.079230,8886.550000,609.232197,-608.877532,-278.793149,0.000000,-0.000000,-0.000000,670.008239,-669.653574,0.061643,0.000000,-0.000000,0.000000
1.370000,-0.310000,0.905248,0.020000,-81.911412,9432.550000,570.983501,-570.694218,-272.357189,0.000000,-0.000000,-0.000000,632.628188,-632.338905,-0.072557,0.000000,-0.000000,-0.000000
1.390000,-0.310000,0.924707,0.020000,-64.687652,9708.550000,557.213592,-557.195994,-261.503410,0.000000,-0.000000,-0.000000,615.525828,-615.508231,0.038867,0.000000,-0.000000,0.000000
1.390000,-0.290000,0.920343,0.020000,-68.391679,9702.550000,567.543583,-567.510130,-247.555080,0.000000,-0.000000,-0.000000,619.185726,-619.152273,0.028948,0.000000,-0.000000,0.000000
1.370000,-0.290000,0.900789,0.020000,-85.719374,9426.550000,581.882399,-581.579686,-257.912434,0.000000,-0.000000,-0.000000,636.492322,-636.189609,-0.072374,0.000000,-0.000000,-0.000000
1.410000,-0.310000,0.944189,0.020000,-47.686788,9988.550000,543.847599,-544.032649,-251.187731,0.000000,-0.000000,-0.000000,599.045288,-599.230337,0.127276,0.000000,-0.000000,0.000000
1.430000,-0.310000,0.963692,0.020000,-30.903499,10272.550000,531.599264,-535.122083,-243.937630,0.000000,-0.000000,-0.000000,584.734799,-588.257618,-1.171453,0.000000,-0.000000,-0.000000
1.430000,-0.290000,0.959505,0.020000,-34.411753,10266.550000,539.927859,-540.179522,-228.852469,0.000000,-0.000000,-0.000000,586.415979,-586.667642,-0.382053,0.000000,-0.000000,-0.000000
1.410000,-0.290000,0.939915,0.020000,-51.291013,9982.550000,553.547434,-553.475186,-237.752830,0.000000,-0.000000,-0.000000,602.448922,-602.376674,-0.009574,0.000000,-0.000000,-0.000000
1.450000,-0.310000,0.983215,0.020000,-14.333659,10560.550000,521.633672,-525.739744,-237.761224,0.000000,-0.000000,-0.000000,573.073113,-577.179185,-2.842613,0.000000,-0.000000,-0.000000
1.470000,-0.290000,0.998734,0.020000,-1.287925,10846.550000,527.576149,-503.035746,-200.085333,0.000000,-0.000000,-0.000000,564.956236,-540.415833,10.606962,0.000000,-0.000000,0.000000
1.450000,-0.290000,0.979112,0.020000,-17.747936,10554.550000,529.172703,-527.175333,-218.351721,0.000000,-0.000000,-0.000000,572.525363,-570.527993,1.588418,0.000000,-0.000000,0.000000
-1.470000,-0.270000,0.995177,0.020000,-4.423541,10840.950000,541.433993,-535.896961,197.214652,0.000000,-0.000000,0.000000,576.357247,-570.820215,-7.076937,0.000000,-0.000000,-0.000000
-1.450000,-0.270000,0.975556,0.020000,-20.964142,10548.950000,540.521191,-538.155488,205.136981,0.000000,-0.000000,0.000000,578.209307,-575.843603,-2.737843,0.000000,-0.000000,-0.000000
-1.450000,-0.250000,0.971841,0.020000,-23.956251,10543.750000,545.851381,-549.862614,194.645078,0.000000,-0.000000,0.000000,579.401292,-583.412525,-0.055595,0.000000,-0.000000,-0.000000
-1.470000,-0.250000,0.991535,0.020000,-7.331615,10835.750000,533.189525,-539.282707,190.693832,0.000000,-0.000000,0.000000,566.080796,-572.173978,2.706841,0.000000,-0.000000,0.000000
-1.430000,-0.270000,0.955950,0.020000,-37.721740,10260.950000,549.392876,-548.654809,214.365590,0.000000,-0.000000,0.000000,589.758081,-589.020015,-0.579501,0.000000,-0.000000,-0.000000
-1.410000,-0.270000,0.936361,0.020000,-54.699339,9976.950000,563.152031,-563.141531,223.895855,0.000000,-0.000000,0.000000,606.028063,-606.017563,0.012315,0.000000,-0.000000,0.000000
-1.410000,-0.250000,0.932490,0.020000,-57.858570,9971.750000,571.952688,-571.904066,209.434932,0.000000,-0.000000,0.000000,609.093320,-609.044698,0.038232,0.000000,-0.000000,0.000000
-1.430000,-0.250000,0.952159,0.020000,-40.795993,10255.750000,557.666919,-557.798728,201.071228,0.000000,-0.000000,0.000000,592.804684,-592.936492,-0.083215,0.000000,-0.000000,-0.000000
-1.390000,-0.270000,0.916790,0.020000,-71.902224,9696.950000,577.644669,-577.616377,233.232697,0.000000,-0.000000,0.000000,622.954361,-622.926069,0.028309,0.000000,-0.000000,0.000000
-1.370000,-0.270000,0.897238,0.020000,-89.336179,9420.950000,592.531131,-592.215700,243.071078,0.000000,-0.000000,0.000000,640.462170,-640.146739,0.134564,0.000000,-0.000000,0.000000
-1.370000,-0.250000,0.893198,0.020000,-92.676091,9415.750000,602.355998,-602.028009,227.486692,0.000000,-0.000000,0.000000,643.891723,-643.563734,0.129077,0.000000,-0.000000,0.000000
-1.390000,-0.250000,0.912836,0.020000,-75.149934,9691.750000,586.950082,-586.915888,218.215505,0.000000,-0.000000,0.000000,626.202641,-626.168446,0.028720,0.000000,-0.000000,0.000000
-1.350000,-0.270000,0.877706,0.020000,-107.007217,9148.950000,609.156506,-612.384885,254.623707,0.000000,-0.000000,0.000000,660.106340,-663.334718,0.125462,0.000000,-0.000000,0.000000
-1.330000,-0.270000,0.858105,0.020000,-124.921580,8880.950000,624.494000,-622.723994,268.057011,0.000000,-0.000000,0.000000,679.655447,-677.885441,3.664192,0.000000,-0.000000,0.000000
-1.330000,-0.250000,0.853971,0.020000,-128.457919,8875.750000,632.104505,-631.823559,245.587255,0.000000,-0.000000,0.000000,678.145797,-677.864850,-0.647586,0.000000,-0.000000,-0.000000
-1.350000,-0.250000,0.873575,0.020000,-110.443265,9143.750000,618.019641,-620.284712,235.194623,0.000000,-0.000000,0.000000,661.182691,-663.447761,-2.114155,0.000000,-0.000000,-0.000000
1.330000,-0.270000,0.857525,0.020000,-124.863388,8880.950000,624.200022,-622.431466,-267.853283,0.000000,-0.000000,-0.000000,679.305241,-677.536685,-3.590944,0.000000,-0.000000,-0.000000
1.350000,-0.270000,0.877131,0.020000,-106.957363,9148.950000,608.872987,-612.099047,-254.432937,0.000000,-0.000000,-0.000000,659.771346,-662.997406,-0.058858,0.000000,-0.000000,-0.000000
1.350000,-0.250000,0.873445,0.020000,-110.391664,9143.750000,617.727352,-619.991053,-235.016850,0.000000,-0.000000,-0.000000,660.846171,-663.109872,2.175228,0.000000,-0.000000,0.000000
1.330000,-0.250000,0.853755,0.020000,-128.397904,8875.750000,631.802928,-631.521947,-245.398706,0.000000,-0.000000,-0.000000,677.796340,-677.515359,0.713754,0.000000,-0.000000,0.000000
1.370000,-0.270000,0.896755,0.020000,-89.294549,9420.950000,592.258774,-591.943555,-242.891123,0.000000,-0.000000,-0.000000,640.141891,-639.826673,-0.071363,0.000000,-0.000000,-0.000000
1.390000,-0.270000,0.916394,0.020000,-71.868711,9696.950000,577.381982,-577.353714,-233.062262,0.000000,-0.000000,-0.000000,622.646970,-622.618702,0.031396,0.000000,-0.000000,0.000000
1.390000,-0.250000,0.912867,0.020000,-75.114814,9691.750000,586.678407,-586.644240,-218.054922,0.000000,-0.000000,-0.000000,625.892036,-625.857869,0.027143,0.000000,-0.000000,0.000000
1.370000,-0.250000,0.893150,0.020000,-92.632787,9415.750000,602.074031,-601.746269,-227.317055,0.000000,-0.000000,-0.000000,643.568005,-643.240244,-0.069925,0.000000,-0.000000,-0.000000
1.410000,-0.270000,0.936049,0.020000,-54.673837,9976.950000,562.898682,-562.888203,-223.734336,0.000000,-0.000000,-0.000000,605.732966,-605.722487,0.044186,0.000000,-0.000000,0.000000
1.430000,-0.270000,0.955718,0.020000,-37.704147,10260.950000,549.148388,-548.410508,-214.212587,0.000000,-0.000000,-0.000000,589.474631,-588.736751,0.632858,0.000000,-0.000000,0.000000
1.430000,-0.250000,0.952337,0.020000,-40.776920,10255.750000,557.414540,-557.546281,-200.927073,0.000000,-0.000000,-0.000000,592.518368,-592.650108,0.133180,0.000000,-0.000000,0.000000
1.410000,-0.250000,0.932596,0.020000,-57.831526,9971.750000,571.690932,-571.642341,-209.282816,0.000000,-0.000000,-0.000000,608.795222,-608.746631,0.014624,0.000000,-0.000000,0.000000
1.450000,-0.270000,0.975401,0.020000,-20.954361,10548.950000,540.282864,-537.917380,-204.991200,0.000000,-0.000000,-0.000000,577.934473,-575.568990,2.788110,0.000000,-0.000000,0.000000
1.470000,-0.270000,0.995096,0.020000,-4.421477,10840.950000,541.197928,-535.661976,-197.074194,0.000000,-0.000000,-0.000000,576.086642,-570.550690,7.124532,0.000000,-0.000000,0.000000
1.470000,-0.250000,0.991849,0.020000,-7.328184,10835.750000,532.952356,-539.040656,-190.558935,0.000000,-0.000000,-0.000000,565.812504,-571.900804,-2.658738,0.000000,-0.000000,-0.000000
1.450000,-0.250000,0.972088,0.020000,-23.945047,10543.750000,545.606808,-549.615400,-194.506710,0.000000,-0.000000,-0.000000,579.124580,-583.133173,0.103631,0.000000,-0.000000,0.000000
-1.470000,-0.230000,0.988285,0.020000,-10.038073,10830.950000,543.393132,-554.963949,177.910345,0.000000,-0.000000,0.000000,571.489566,-583.060383,1.662516,0.000000,-0.000000,0.000000
-1.450000,-0.230000,0.968525,0.020000,-26.731835,10538.950000,552.933053,-557.080480,181.167493,0.000000,-0.000000,0.000000,581.753227,-585.900653,0.524905,0.000000,-0.000000,0.000000
-1.450000,-0.210000,0.965611,0.020000,-29.286516,10534.550000,559.933180,-565.282749,166.308161,0.000000,-0.000000,0.000000,583.998980,-589.348549,-0.139538,0.000000,-0.000000,-0.000000
-1.470000,-0.210000,0.985431,0.020000,-12.522866,10826.550000,546.478031,-562.526617,162.439064,0.000000,-0.000000,0.000000,569.780876,-585.829462,0.680851,0.000000,-0.000000,0.000000
-1.430000,-0.230000,0.948774,0.020000,-43.647306,10250.950000,565.484096,-565.600835,186.646097,0.000000,-0.000000,0.000000,595.487628,-595.604368,-0.102397,0.000000,-0.000000,-0.000000
-1.410000,-0.230000,0.929034,0.020000,-60.789042,9966.950000,580.242383,-580.218475,194.488586,0.000000,-0.000000,0.000000,611.970417,-611.946509,0.018057,0.000000,-0.000000,0.000000
-1.410000,-0.210000,0.925996,0.020000,-63.487443,9962.550000,587.932482,-587.891541,179.123281,0.000000,-0.000000,0.000000,614.614387,-614.573446,0.026653,0.000000,-0.000000,0.000000
-1.430000,-0.210000,0.945800,0.020000,-46.272475,10246.550000,572.795477,-573.039416,171.935618,0.000000,-0.000000,0.000000,598.038757,-598.282697,-0.040897,0.000000,-0.000000,-0.000000
-1.390000,-0.230000,0.909305,0.020000,-78.162889,9686.950000,595.688438,-595.654606,202.704813,0.000000,-0.000000,0.000000,629.233733,-629.199901,0.025448,0.000000,-0.000000,0.000000
-1.370000,-0.230000,0.889588,0.020000,-95.775026,9410.950000,611.583206,-611.243600,211.375647,0.000000,-0.000000,0.000000,647.090199,-646.750593,0.122528,0.000000,-0.000000,0.000000
-1.370000,-0.210000,0.886416,0.020000,-98.629292,9406.550000,620.177351,-619.826636,194.767826,0.000000,-0.000000,0.000000,650.049934,-649.699219,0.115213,0.000000,-0.000000,0.000000
-1.390000,-0.210000,0.906201,0.020000,-80.937597,9682.550000,603.821763,-603.784868,186.730967,0.000000,-0.000000,0.000000,632.036562,-631.999667,0.024132,0.000000,-0.000000,0.000000
-1.350000,-0.230000,0.869885,0.020000,-113.631873,9138.950000,629.223325,-632.580910,221.875060,0.000000,-0.000000,0.000000,667.100561,-670.458146,0.447846,0.000000,-0.000000,0.000000
-1.330000,-0.230000,0.850195,0.020000,-131.740107,8870.950000,645.492253,-643.737523,233.960654,0.000000,-0.000000,0.000000,686.625678,-684.870948,3.897845,0.000000,-0.000000,0.000000
-1.330000,-0.210000,0.846875,0.020000,-134.764012,8866.550000,652.161468,-651.709949,209.907139,0.000000,-0.000000,0.000000,685.119769,-684.668249,-1.171238,0.000000,-0.000000,-0.000000
-1.350000,-0.210000,0.866640,0.020000,-116.569139,9134.550000,636.982805,-639.497314,201.123457,0.000000,-0.000000,0.000000,667.918317,-670.432826,-2.252308,0.000000,-0.000000,-0.000000
1.330000,-0.230000,0.850438,0.020000,-131.678391,8870.950000,645.177091,-643.423834,-233.780156,0.000000,-0.000000,-0.000000,686.268160,-684.514903,-3.833420,0.000000,-0.000000,-0.000000
1.350000,-0.230000,0.870204,0.020000,-113.578642,9138.950000,628.919817,-632.274900,-221.706410,0.000000,-0.000000,-0.000000,666.758401,-670.113484,-0.389625,0.000000,-0.000000,-0.000000
1.350000,-0.210000,0.867114,0.020000,-116.514400,9134.550000,636.671484,-639.184336,-200.969441,0.000000,-0.000000,-0.000000,667.574961,-670.087814,2.304228,0.000000,-0.000000,0.000000
1.330000,-0.210000,0.847425,0.020000,-134.700721,8866.550000,651.839530,-651.388159,-209.743809,0.000000,-0.000000,-0.000000,684.763166,-684.311794,1.227453,0.000000,-0.000000,0.000000
1.370000,-0.230000,0.889980,0.020000,-95.730160,9410.950000,611.292132,-610.952769,-211.216967,0.000000,-0.000000,-0.000000,646.763258,-646.423894,-0.067561,0.000000,-0.000000,-0.000000
1.390000,-0.230000,0.909766,0.020000,-78.126272,9686.950000,595.408250,-595.374447,-202.554672,0.000000,-0.000000,-0.000000,628.920115,-628.886312,0.026443,0.000000,-0.000000,0.000000
1.390000,-0.210000,0.906533,0.020000,-80.899593,9682.550000,603.533587,-603.496725,-186.591829,0.000000,-0.000000,-0.000000,631.720144,-631.683281,0.023669,0.000000,-0.000000,0.000000
1.370000,-0.210000,0.886817,0.020000,-98.582981,9406.550000,619.877727,-619.527268,-194.620713,0.000000,-0.000000,-0.000000,649.719995,-649.369537,-0.064563,0.000000,-0.000000,-0.000000
1.410000,-0.230000,0.929561,0.020000,-60.760560,9966.950000,579.972664,-579.948782,-194.346428,0.000000,-0.000000,-0.000000,611.669503,-611.645621,0.031023,0.000000,-0.000000,0.000000
1.430000,-0.230000,0.949364,0.020000,-43.626853,10250.950000,565.224268,-565.340916,-186.511428,0.000000,-0.000000,-0.000000,595.198678,-595.315327,0.148787,0.000000,-0.000000,0.000000
1.430000,-0.210000,0.946001,0.020000,-46.250745,10246.550000,572.528664,-572.772454,-171.810887,0.000000,-0.000000,-0.000000,597.747352,-597.991142,0.083630,0.000000,-0.000000,0.000000
1.410000,-0.210000,0.926261,0.020000,-63.457632,9962.550000,587.655304,-587.614395,-178.991593,0.000000,-0.000000,-0.000000,614.310863,-614.269955,0.018552,0.000000,-0.000000,0.000000
1.450000,-0.230000,0.969070,0.020000,-26.719305,10538.950000,552.681511,-556.826183,-181.038100,0.000000,-0.000000,-0.000000,581.474058,-585.618730,-0.480131,0.000000,-0.000000,-0.000000
1.470000,-0.230000,0.988764,0.020000,-10.033366,10830.950000,543.148413,-554.712033,-177.784008,0.000000,-0.000000,-0.000000,571.218125,-582.781745,-1.618065,0.000000,-0.000000,-0.000000
1.470000,-0.210000,0.985512,0.020000,-12.516983,10826.550000,546.229079,-562.264213,-162.323461,0.000000,-0.000000,-0.000000,569.509782,-585.544916,-0.641462,0.000000,-0.000000,-0.000000
1.450000,-0.210000,0.965751,0.020000,-29.272761,10534.550000,559.675156,-565.020866,-166.188799,0.000000,-0.000000,-0.000000,583.717774,-589.063484,0.180245,0.000000,-0.000000,0.000000
-1.490000,-0.170000,1.000497,0.020000,-0.179159,11114.950000,554.173770,-537.277047,116.921912,0.000000,-0.000000,0.000000,566.485781,-549.589058,-9.010760,0.000000,-0.000000,-0.000000
-1.470000,-0.190000,0.982974,0.020000,-14.794354,10822.550000,554.186288,-558.636341,147.976619,0.000000,-0.000000,0.000000,573.524860,-577.974913,1.642858,0.000000,-0.000000,0.000000
-1.450000,-0.190000,0.963105,0.020000,-31.618350,10530.550000,565.669467,-568.817686,152.319221,0.000000,-0.000000,0.000000,585.763409,-588.911628,1.029285,0.000000,-0.000000,0.000000
-1.450000,-0.170000,0.960851,0.020000,-33.724296,10526.950000,570.040561,-569.696771,135.968322,0.000000,-0.000000,0.000000,586.036607,-585.692817,0.468547,0.000000,-0.000000,0.000000
-1.470000,-0.170000,0.980670,0.020000,-16.843248,10818.950000,558.606684,-555.156949,128.536476,0.000000,-0.000000,0.000000,573.244898,-569.795163,-1.958975,0.000000,-0.000000,-0.000000
-1.430000,-0.190000,0.943240,0.020000,-48.668623,10242.550000,579.512540,-579.711920,156.731075,0.000000,-0.000000,0.000000,600.329293,-600.528673,-0.057618,0.000000,-0.000000,-0.000000
-1.410000,-0.190000,0.923382,0.020000,-65.950698,9958.550000,595.036897,-595.004508,163.344726,0.000000,-0.000000,0.000000,617.050339,-617.017951,0.018187,0.000000,-0.000000,0.000000
-1.410000,-0.170000,0.921195,0.020000,-68.175967,9954.950000,601.500586,-601.460461,147.197936,0.000000,-0.000000,0.000000,619.250272,-619.210146,0.020046,0.000000,-0.000000,0.000000
-1.430000,-0.170000,0.941040,0.020000,-50.833038,10238.950000,585.471718,-585.402717,141.232931,0.000000,-0.000000,0.000000,602.266577,-602.197577,0.041477,0.000000,-0.000000,0.000000
-1.390000,-0.190000,0.903530,0.020000,-83.470803,9678.550000,611.322806,-611.285038,170.323455,0.000000,-0.000000,0.000000,634.607384,-634.569615,0.021614,0.000000,-0.000000,0.000000
-1.370000,-0.190000,0.883684,0.020000,-101.235452,9402.550000,628.105337,-627.744381,177.695788,0.000000,-0.000000,0.000000,652.764121,-652.403164,0.107017,0.000000,-0.000000,0.000000
-1.370000,-0.170000,0.881399,0.020000,-103.590333,9398.950000,635.335833,-634.965393,160.194837,0.000000,-0.000000,0.000000,655.226194,-654.855754,0.098071,0.000000,-0.000000,0.000000
-1.390000,-0.170000,0.901295,0.020000,-85.759511,9674.950000,618.160632,-618.120851,153.516168,0.000000,-0.000000,0.000000,636.938402,-636.898620,0.019713,0.000000,-0.000000,0.000000
-1.350000,-0.190000,0.863846,0.020000,-119.251425,9130.550000,646.618551,-650.074977,186.991978,0.000000,-0.000000,0.000000,673.045027,-676.501453,0.775089,0.000000,-0.000000,0.000000
-1.330000,-0.190000,0.844015,0.020000,-137.525784,8862.550000,663.686321,-661.965357,197.547552,0.000000,-0.000000,0.000000,692.486601,-690.765638,4.054415,0.000000,-0.000000,0.000000
-1.330000,-0.170000,0.841622,0.020000,-140.021867,8858.950000,669.304489,-668.681412,172.107104,0.000000,-0.000000,0.000000,691.086133,-690.463056,-1.697770,0.000000,-0.000000,-0.000000
-1.350000,-0.170000,0.861508,0.020000,-121.675375,9126.950000,653.151543,-655.898350,165.084434,0.000000,-0.000000,0.000000,673.645339,-676.392145,-2.339586,0.000000,-0.000000,-0.000000
1.330000,-0.190000,0.844101,0.020000,-137.461048,8862.550000,663.352492,-661.632997,-197.393197,0.000000,-0.000000,-0.000000,692.122878,-690.403382,-3.999500,0.000000,-0.000000,-0.000000
1.350000,-0.190000,0.863866,0.020000,-119.195303,9130.550000,646.297424,-649.751200,-186.848095,0.000000,-0.000000,-0.000000,672.696713,-676.150488,-0.725796,0.000000,-0.000000,-0.000000
1.350000,-0.170000,0.861071,0.020000,-121.617997,9126.950000,652.823741,-655.568619,-164.956643,0.000000,-0.000000,-0.000000,673.296119,-676.040997,2.381879,0.000000,-0.000000,0.000000
1.330000,-0.170000,0.841240,0.020000,-139.955819,8858.950000,668.964868,-668.342125,-171.971695,0.000000,-0.000000,-0.000000,690.723366,-690.100623,1.743443,0.000000,-0.000000,0.000000
1.370000,-0.190000,0.883642,0.020000,-101.187815,9402.550000,627.797766,-627.437080,-177.560815,0.000000,-0.000000,-0.000000,652.431421,-652.070735,-0.060804,0.000000,-0.000000,-0.000000
1.390000,-0.190000,0.903427,0.020000,-83.431529,9678.550000,611.027211,-610.989478,-170.195850,0.000000,-0.000000,-0.000000,634.288387,-634.250653,0.021988,0.000000,-0.000000,0.000000
1.390000,-0.170000,0.900755,0.020000,-85.719083,9674.950000,617.858230,-617.818485,-153.400588,0.000000,-0.000000,-0.000000,636.617057,-636.577313,0.019586,0.000000,-0.000000,0.000000
1.370000,-0.170000,0.880909,0.020000,-103.541494,9398.950000,635.020965,-634.650807,-160.072542,0.000000,-0.000000,-0.000000,654.890981,-654.520822,-0.056407,0.000000,-0.000000,-0.000000
1.410000,-0.190000,0.923222,0.020000,-65.919668,9958.550000,594.752789,-594.720432,-163.224000,0.000000,-0.000000,-0.000000,616.744409,-616.712052,0.023035,0.000000,-0.000000,0.000000
1.430000,-0.190000,0.943025,0.020000,-48.645723,10242.550000,579.239250,-579.438491,-156.616775,0.000000,-0.000000,-0.000000,600.035641,-600.234882,0.096571,0.000000,-0.000000,0.000000
1.430000,-0.170000,0.940465,0.020000,-50.809077,10238.950000,585.192596,-585.123633,-141.129463,0.000000,-0.000000,-0.000000,601.970976,-601.902014,-0.006327,0.000000,-0.000000,-0.000000
1.410000,-0.170000,0.920607,0.020000,-68.143831,9954.950000,601.210126,-601.170037,-147.088624,0.000000,-0.000000,-0.000000,618.942153,-618.902064,0.017101,0.000000,-0.000000,0.000000
1.450000,-0.190000,0.962836,0.020000,-31.603471,10530.550000,565.405563,-568.550799,-152.209562,0.000000,-0.000000,-0.000000,585.480212,-588.625448,-0.991706,0.000000,-0.000000,-0.000000
1.470000,-0.190000,0.982656,0.020000,-14.787391,10822.550000,553.930803,-558.373530,-147.870610,0.000000,-0.000000,-0.000000,573.250938,-577.693665,-1.606223,0.000000,-0.000000,-0.000000
1.470000,-0.170000,0.980199,0.020000,-16.835308,10818.950000,558.346392,-554.896390,-128.443296,0.000000,-0.000000,-0.000000,572.970213,-569.520211,1.990257,0.000000,-0.000000,0.000000
1.450000,-0.170000,0.960329,0.020000,-33.708399,10526.950000,569.772096,-569.427861,-135.869704,0.000000,-0.000000,-0.000000,585.752618,-585.408383,-0.434752,0.000000,-0.000000,-0.000000
1.490000,-0.170000,1.000074,0.020000,-0.179074,11114.950000,553.916956,-537.025551,-116.835299,0.000000,-0.000000,-0.000000,566.215988,-549.324584,9.037897,0.000000,-0.000000,0.000000
-1.490000,-0.150000,0.998089,0.020000,-1.964077,11111.750000,558.304995,-555.031058,108.851214,0.000000,-0.000000,0.000000,568.831362,-565.557425,-4.289298,0.000000,-0.000000,-0.000000
-1.490000,-0.130000,0.996077,0.020000,-3.523601,11108.950000,554.357483,-560.205668,98.298456,0.000000,-0.000000,0.000000,562.960391,-568.808575,0.304102,0.000000,-0.000000,0.000000
-1.470000,-0.150000,0.978214,0.020000,-18.671774,10815.750000,564.952161,-561.491557,113.533762,0.000000,-0.000000,0.000000,576.275512,-572.814908,-2.564918,0.000000,-0.000000,-0.000000
-1.450000,-0.150000,0.958344,0.020000,-35.602341,10523.750000,575.444001,-574.142535,119.672091,0.000000,-0.000000,0.000000,587.769489,-586.468023,-0.525705,0.000000,-0.000000,-0.000000
-1.450000,-0.130000,0.956248,0.020000,-37.250205,10520.950000,579.962393,-579.554816,104.630464,0.000000,-0.000000,0.000000,589.328178,-588.920600,-0.165942,0.000000,-0.000000,-0.000000
-1.470000,-0.130000,0.976161,0.020000,-20.275072,10812.950000,566.976876,-569.441296,100.869670,0.000000,-0.000000,0.000000,575.860576,-578.324996,-0.415529,0.000000,-0.000000,-0.000000
-1.430000,-0.150000,0.938480,0.020000,-52.763287,10235.750000,590.997216,-590.939492,125.370070,0.000000,-0.000000,0.000000,604.149090,-604.091366,0.011127,0.000000,-0.000000,0.000000
-1.410000,-0.150000,0.918621,0.020000,-70.160665,9951.750000,607.318584,-607.281372,130.707753,0.000000,-0.000000,0.000000,621.225319,-621.188106,0.015552,0.000000,-0.000000,0.000000
-1.410000,-0.130000,0.916435,0.020000,-71.902465,9948.950000,612.455228,-612.414106,113.914616,0.000000,-0.000000,0.000000,622.959371,-622.918249,0.014934,0.000000,-0.000000,0.000000
-1.430000,-0.130000,0.936340,0.020000,-54.457161,10232.950000,595.849011,-595.793469,109.255491,0.000000,-0.000000,0.000000,605.783260,-605.727717,0.021243,0.000000,-0.000000,0.000000
-1.390000,-0.150000,0.898769,0.020000,-87.800984,9671.750000,624.310036,-624.269169,136.344110,0.000000,-0.000000,0.000000,639.025303,-638.984437,0.017368,0.000000,-0.000000,0.000000
-1.370000,-0.150000,0.878924,0.020000,-105.691044,9395.750000,641.840013,-641.461015,142.302753,0.000000,-0.000000,0.000000,657.430282,-657.051285,0.088377,0.000000,-0.000000,0.000000
-1.370000,-0.130000,0.876638,0.020000,-107.534982,9392.950000,647.591482,-647.204840,124.059676,0.000000,-0.000000,0.000000,659.370972,-658.984330,0.078029,0.000000,-0.000000,0.000000
-1.390000,-0.130000,0.896534,0.020000,-89.592766,9668.950000,629.745855,-629.703541,118.845120,0.000000,-0.000000,0.000000,640.862290,-640.819976,0.015222,0.000000,-0.000000,0.000000
-1.350000,-0.150000,0.859086,0.020000,-123.837926,9123.750000,661.063296,-664.585063,150.259543,0.000000,-0.000000,0.000000,677.880655,-681.402422,1.096686,0.000000,-0.000000,0.000000
-1.330000,-0.150000,0.839255,0.020000,-142.249017,8855.750000,678.774657,-677.107953,159.120667,0.000000,-0.000000,0.000000,697.185837,-695.519132,4.125127,0.000000,-0.000000,0.000000
-1.330000,-0.130000,0.836861,0.020000,-144.204311,8852.950000,683.248240,-682.455786,132.524816,0.000000,-0.000000,0.000000,695.985772,-695.193317,-2.210073,0.000000,-0.000000,-0.000000
-1.350000,-0.130000,0.856747,0.020000,-125.736323,9120.950000,666.262992,-669.220090,127.390257,0.000000,-0.000000,0.000000,678.301872,-681.258970,-2.371117,0.000000,-0.000000,-0.000000
1.330000,-0.150000,0.838847,0.020000,-142.181794,8855.750000,678.425132,-676.759863,-158.995037,0.000000,-0.000000,-0.000000,696.817092,-695.151823,-4.080343,0.000000,-0.000000,-0.000000
1.350000,-0.150000,0.858733,0.020000,-123.779424,9123.750000,660.727336,-664.246346,-150.142762,0.000000,-0.000000,-0.000000,677.527288,-681.046297,-1.056803,0.000000,-0.000000,-0.000000
1.350000,-0.130000,0.856855,0.020000,-125.676830,9120.950000,665.921657,-668.876578,-127.290803,0.000000,-0.000000,-0.000000,677.947851,-680.902772,2.403402,0.000000,-0.000000,0.000000
1.330000,-0.130000,0.836924,0.020000,-144.136054,8852.950000,682.894047,-682.102115,-132.419636,0.000000,-0.000000,-0.000000,695.617910,-694.825978,2.244727,0.000000,-0.000000,0.000000
1.370000,-0.150000,0.878624,0.020000,-105.641128,9395.750000,641.518541,-641.139837,-142.193626,0.000000,-0.000000,-0.000000,657.092810,-656.714106,-0.051365,0.000000,-0.000000,-0.000000
1.390000,-0.150000,0.898520,0.020000,-87.759526,9671.750000,624.001475,-623.960648,-136.241008,0.000000,-0.000000,-0.000000,638.701850,-638.661023,0.017535,0.000000,-0.000000,0.000000
1.390000,-0.130000,0.896725,0.020000,-89.550399,9668.950000,629.431822,-629.389550,-118.754906,0.000000,-0.000000,-0.000000,640.536975,-640.494702,0.015201,0.000000,-0.000000,0.000000
1.370000,-0.130000,0.876788,0.020000,-107.484118,9392.950000,647.264140,-646.877802,-123.964162,0.000000,-0.000000,-0.000000,659.031505,-658.645167,-0.045761,0.000000,-0.000000,-0.000000
1.410000,-0.150000,0.918420,0.020000,-70.127540,9951.750000,607.022379,-606.985202,-130.610272,0.000000,-0.000000,-0.000000,620.915234,-620.878058,0.017434,0.000000,-0.000000,0.000000
1.430000,-0.150000,0.938325,0.020000,-52.738378,10235.750000,590.712729,-590.655055,-125.277836,0.000000,-0.000000,-0.000000,603.851656,-603.793982,0.020071,0.000000,-0.000000,0.000000
1.430000,-0.130000,0.936606,0.020000,-54.431417,10232.950000,595.559762,-595.504261,-109.174824,0.000000,-0.000000,-0.000000,605.484206,-605.428704,0.005945,0.000000,-0.000000,0.000000
1.410000,-0.130000,0.916664,0.020000,-71.868470,9948.950000,612.153921,-612.112838,-113.829343,0.000000,-0.000000,-0.000000,622.647551,-622.606469,0.013814,0.000000,-0.000000,0.000000
1.450000,-0.150000,0.958233,0.020000,-35.585533,10523.750000,575.170549,-573.869619,-119.585023,0.000000,-0.000000,-0.000000,587.484000,-586.183069,0.555006,0.000000,-0.000000,0.000000
1.470000,-0.150000,0.978146,0.020000,-18.662959,10815.750000,564.686571,-561.226636,-113.451472,0.000000,-0.000000,-0.000000,575.998768,-572.538833,2.591936,0.000000,-0.000000,0.000000
1.470000,-0.130000,0.976497,0.020000,-20.265487,10812.950000,566.708333,-569.170512,-100.796715,0.000000,-0.000000,-0.000000,575.583414,-578.045593,0.440027,0.000000,-0.000000,0.000000
1.450000,-0.130000,0.956551,0.020000,-37.232597,10520.950000,579.684515,-579.277107,-104.554213,0.000000,-0.000000,-0.000000,589.041166,-588.633758,0.191563,0.000000,-0.000000,0.000000
1.490000,-0.150000,0.998061,0.020000,-1.963150,11111.750000,558.045996,-554.771662,-108.772059,0.000000,-0.000000,-0.000000,568.561787,-565.287453,4.315201,0.000000,-0.000000,0.000000
1.490000,-0.130000,0.996446,0.020000,-3.521934,11108.950000,554.097115,-559.939760,-98.227614,0.000000,-0.000000,-0.000000,562.691730,-568.534376,-0.279900,0.000000,-0.000000,-0.000000
-1.490000,-0.110000,0.994463,0.020000,-4.867720,11106.550000,559.790444,-569.215666,84.148337,0.000000,-0.000000,0.000000,566.027722,-575.452944,0.338422,0.000000,-0.000000,0.000000
-1.490000,-0.090000,0.993249,0.020000,-5.986413,11104.550000,560.770657,-570.464945,69.294960,0.000000,-0.000000,0.000000,564.999137,-574.693426,0.709881,0.000000,-0.000000,0.000000
-1.470000,-0.110000,0.974514,0.020000,-21.653319,10810.550000,570.824840,-573.671741,86.030804,0.000000,-0.000000,0.000000,577.255559,-580.102461,-0.093008,0.000000,-0.000000,-0.000000
-1.450000,-0.110000,0.954567,0.020000,-38.666178,10518.550000,584.007891,-583.780990,88.978136,0.000000,-0.000000,0.000000,590.748542,-590.521640,-0.124104,0.000000,-0.000000,-0.000000
-1.450000,-0.090000,0.953303,0.020000,-39.848582,10516.550000,587.341283,-587.343649,73.138056,0.000000,-0.000000,0.000000,591.877474,-591.879840,-0.054980,0.000000,-0.000000,-0.000000
-1.470000,-0.090000,0.973276,0.020000,-22.803714,10808.550000,573.744396,-577.857234,70.739810,0.000000,-0.000000,0.000000,578.073478,-582.186316,-0.031458,0.000000,-0.000000,-0.000000
-1.430000,-0.110000,0.934623,0.020000,-55.912722,10230.550000,600.066123,-600.021969,92.872617,0.000000,-0.000000,0.000000,607.210828,-607.166675,0.008556,0.000000,-0.000000,0.000000
-1.410000,-0.110000,0.914681,0.020000,-73.399315,9946.550000,616.899822,-616.859579,96.852104,0.000000,-0.000000,0.000000,624.456583,-624.416340,0.011836,0.000000,-0.000000,0.000000
-1.410000,-0.090000,0.913361,0.020000,-74.649436,9944.550000,620.628545,-620.586186,79.560925,0.000000,-0.000000,0.000000,625.707557,-625.665197,0.010260,0.000000,-0.000000,0.000000
-1.430000,-0.090000,0.933331,0.020000,-57.128286,10228.550000,603.585368,-603.537488,76.287758,0.000000,-0.000000,0.000000,608.387498,-608.339619,0.012759,0.000000,-0.000000,0.000000
-1.390000,-0.110000,0.894741,0.020000,-91.132683,9666.550000,634.447037,-634.403769,101.058517,0.000000,-0.000000,0.000000,642.445494,-642.402226,0.012892,0.000000,-0.000000,0.000000
-1.370000,-0.110000,0.874804,0.020000,-109.119846,9390.550000,652.566701,-652.173425,105.507855,0.000000,-0.000000,0.000000,661.043520,-660.650244,0.067078,0.000000,-0.000000,0.000000
-1.370000,-0.090000,0.873425,0.020000,-110.443647,9388.550000,656.745047,-656.346160,86.691448,0.000000,-0.000000,0.000000,662.443759,-662.044872,0.055614,0.000000,-0.000000,0.000000
-1.390000,-0.090000,0.893392,0.020000,-92.418854,9664.550000,638.394227,-638.349948,83.025627,0.000000,-0.000000,0.000000,643.770675,-643.726396,0.010623,0.000000,-0.000000,0.000000
-1.350000,-0.110000,0.854871,0.020000,-127.368127,9118.550000,672.318822,-675.870038,112.007130,0.000000,-0.000000,0.000000,681.559546,-685.110762,1.401757,0.000000,-0.000000,0.000000
-1.330000,-0.110000,0.834940,0.020000,-145.885165,8850.550000,690.501319,-688.909259,119.033178,0.000000,-0.000000,0.000000,700.685620,-699.093560,4.104278,0.000000,-0.000000,0.000000
-1.330000,-0.090000,0.833494,0.020000,-147.289342,8848.550000,693.753856,-692.797442,91.542926,0.000000,-0.000000,0.000000,699.766412,-698.809998,-2.690719,0.000000,-0.000000,-0.000000
-1.350000,-0.090000,0.853459,0.020000,-128.731229,9116.550000,676.097996,-679.238876,88.394104,0.000000,-0.000000,0.000000,681.834661,-684.975541,-2.344132,0.000000,-0.000000,-0.000000
1.330000,-0.110000,0.835476,0.020000,-145.816016,8850.550000,690.139460,-688.548775,-118.938435,0.000000,-0.000000,-0.000000,700.313103,-698.722418,-4.070160,0.000000,-0.000000,-0.000000
1.350000,-0.110000,0.855441,0.020000,-127.307781,9118.550000,671.971178,-675.519575,-111.919401,0.000000,-0.000000,-0.000000,681.202304,-684.750701,-1.371693,0.000000,-0.000000,-0.000000
1.350000,-0.090000,0.853676,0.020000,-128.670168,9116.550000,675.746412,-678.884898,-88.324667,0.000000,-0.000000,-0.000000,681.476981,-684.615468,2.366125,0.000000,-0.000000,0.000000
1.330000,-0.090000,0.833746,0.020000,-147.219446,8848.550000,693.388573,-692.432864,-91.469813,0.000000,-0.000000,-0.000000,699.394605,-698.438896,2.714000,0.000000,-0.000000,0.000000
1.370000,-0.110000,0.875406,0.020000,-109.068165,9390.550000,652.234257,-651.841294,-105.426348,0.000000,-0.000000,-0.000000,660.702329,-660.309365,-0.039634,0.000000,-0.000000,-0.000000
1.390000,-0.110000,0.895339,0.020000,-91.089533,9666.550000,634.128250,-634.085025,-100.981551,0.000000,-0.000000,-0.000000,642.118569,-642.075344,0.012978,0.000000,-0.000000,0.000000
1.390000,-0.090000,0.893547,0.020000,-92.375050,9664.550000,638.071434,-638.027199,-82.962221,0.000000,-0.000000,-0.000000,643.442401,-643.398165,0.010631,0.000000,-0.000000,0.000000
1.370000,-0.090000,0.873610,0.020000,-110.391281,9388.550000,656.408303,-656.009736,-86.624288,0.000000,-0.000000,-0.000000,662.101121,-661.702554,-0.033064,0.000000,-0.000000,-0.000000
1.410000,-0.110000,0.915240,0.020000,-73.364569,9946.550000,616.594084,-616.553880,-96.779370,0.000000,-0.000000,-0.000000,624.143264,-624.103061,0.012606,0.000000,-0.000000,0.000000
1.430000,-0.110000,0.935145,0.020000,-55.886259,10230.550000,599.772737,-599.728625,-92.803831,0.000000,-0.000000,-0.000000,606.910374,-606.866262,0.014554,0.000000,-0.000000,0.000000
1.430000,-0.090000,0.933429,0.020000,-57.101220,10228.550000,603.288501,-603.240663,-76.231110,0.000000,-0.000000,-0.000000,608.085872,-608.038034,0.006224,0.000000,-0.000000,0.000000
1.410000,-0.090000,0.913487,0.020000,-74.614063,9944.550000,620.319075,-620.276757,-79.501017,0.000000,-0.000000,-0.000000,625.392981,-625.350663,0.009818,0.000000,-0.000000,0.000000
1.450000,-0.110000,0.955053,0.020000,-38.647879,10518.550000,583.726122,-583.499275,-88.913088,0.000000,-0.000000,-0.000000,590.460184,-590.233337,0.145906,0.000000,-0.000000,0.000000
1.470000,-0.110000,0.974966,0.020000,-21.643072,10810.550000,570.552577,-573.396989,-85.968504,0.000000,-0.000000,-0.000000,576.977071,-579.821482,0.113908,0.000000,-0.000000,0.000000
1.470000,-0.090000,0.973321,0.020000,-22.792912,10808.550000,573.469231,-577.578936,-70.688453,0.000000,-0.000000,-0.000000,577.794116,-581.903821,0.048673,0.000000,-0.000000,0.000000
1.450000,-0.090000,0.953374,0.020000,-39.829705,10516.550000,587.056262,-587.058587,-73.084478,0.000000,-0.000000,-0.000000,591.588015,-591.590340,0.072897,0.000000,-0.000000,0.000000
1.490000,-0.110000,0.994882,0.020000,-4.865416,11106.550000,559.526608,-568.944908,-84.087683,0.000000,-0.000000,-0.000000,565.757876,-575.176176,-0.317679,0.000000,-0.000000,-0.000000
1.490000,-0.090000,0.993270,0.020000,-5.983577,11104.550000,560.504388,-570.191171,-69.244904,0.000000,-0.000000,-0.000000,564.728807,-574.415590,-0.692690,0.000000,-0.000000,-0.000000
-1.490000,-0.070000,0.992437,0.020000,-6.885247,11102.950000,564.429113,-575.419871,54.185627,0.000000,-0.000000,0.000000,566.998939,-577.989696,0.514945,0.000000,-0.000000,0.000000
-1.490000,-0.050000,0.991657,0.020000,-7.558486,11101.750000,565.317268,-576.216979,38.798973,0.000000,-0.000000,0.000000,566.634289,-577.534001,0.448259,0.000000,-0.000000,0.000000
-1.470000,-0.070000,0.972447,0.020000,-23.725873,10806.950000,576.347767,-580.462322,55.267750,0.000000,-0.000000,0.000000,578.982236,-583.096791,0.056105,0.000000,-0.000000,0.000000
-1.450000,-0.070000,0.952457,0.020000,-40.796140,10514.950000,590.055399,-590.085748,57.051321,0.000000,-0.000000,0.000000,592.807001,-592.837350,-0.053846,0.000000,-0.000000,-0.000000
-1.450000,-0.050000,0.951710,0.020000,-41.507741,10513.750000,592.073599,-592.187820,40.867064,0.000000,-0.000000,0.000000,593.482183,-593.596405,-0.018109,0.000000,-0.000000,-0.000000
-1.470000,-0.050000,0.971683,0.020000,-24.418184,10805.750000,578.190282,-582.772641,39.560183,0.000000,-0.000000,0.000000,579.536745,-584.119105,0.025850,0.000000,-0.000000,0.000000
-1.430000,-0.070000,0.932467,0.020000,-58.102444,10226.950000,606.431211,-606.388782,59.517224,0.000000,-0.000000,0.000000,609.344925,-609.302496,0.005784,0.000000,-0.000000,0.000000
-1.410000,-0.070000,0.912478,0.020000,-75.651339,9942.950000,623.631145,-623.588963,62.079419,0.000000,-0.000000,0.000000,626.713482,-626.671300,0.007667,0.000000,-0.000000,0.000000
-1.410000,-0.050000,0.911767,0.020000,-76.403823,9941.750000,625.892603,-625.849336,44.449618,0.000000,-0.000000,0.000000,627.469033,-627.425766,0.005704,0.000000,-0.000000,0.000000
-1.430000,-0.050000,0.931738,0.020000,-58.834062,10225.750000,608.565277,-608.520053,42.614381,0.000000,-0.000000,0.000000,610.055530,-610.010306,0.006843,0.000000,-0.000000,0.000000
-1.390000,-0.070000,0.892489,0.020000,-93.449703,9662.950000,641.571690,-641.526724,64.789069,0.000000,-0.000000,0.000000,644.834865,-644.789899,0.008270,0.000000,-0.000000,0.000000
-1.370000,-0.070000,0.872501,0.020000,-111.504712,9386.950000,660.109086,-659.705671,67.656248,0.000000,-0.000000,0.000000,663.568208,-663.164793,0.043714,0.000000,-0.000000,0.000000
-1.370000,-0.050000,0.871830,0.020000,-112.301696,9385.750000,662.644659,-662.237815,48.449425,0.000000,-0.000000,0.000000,664.414035,-664.007191,0.031474,0.000000,-0.000000,0.000000
-1.390000,-0.050000,0.891798,0.020000,-94.223957,9661.750000,643.966234,-643.920663,46.392837,0.000000,-0.000000,0.000000,645.635255,-645.589683,0.005934,0.000000,-0.000000,0.000000
-1.350000,-0.070000,0.852513,0.020000,-129.823858,9114.950000,680.194611,-683.737859,72.601755,0.000000,-0.000000,0.000000,684.046238,-687.589485,1.679616,0.000000,-0.000000,0.000000
-1.330000,-0.070000,0.832526,0.020000,-148.414962,8846.950000,698.662528,-697.164816,77.680640,0.000000,-0.000000,0.000000,702.960973,-701.463261,3.989809,0.000000,-0.000000,0.000000
-1.330000,-0.050000,0.831899,0.020000,-149.260511,8845.750000,700.637328,-699.525560,49.580451,0.000000,-0.000000,0.000000,702.383852,-701.272084,-3.122911,0.000000,-0.000000,-0.000000
-1.350000,-0.050000,0.851864,0.020000,-130.644586,9113.750000,682.488638,-685.782832,48.481900,0.000000,-0.000000,0.000000,684.200626,-687.494820,-2.258228,0.000000,-0.000000,-0.000000
1.330000,-0.070000,0.832302,0.020000,-148.344465,8846.950000,698.292017,-696.795592,-77.618452,0.000000,-0.000000,-0.000000,702.585977,-701.089552,-3.966791,0.000000,-0.000000,-0.000000
1.350000,-0.070000,0.852266,0.020000,-129.762223,9114.950000,679.838728,-683.379143,-72.544575,0.000000,-0.000000,-0.000000,683.686357,-687.226772,-1.659697,0.000000,-0.000000,-0.000000
1.350000,-0.050000,0.851324,0.020000,-130.582519,9113.750000,682.130349,-685.421971,-48.443677,0.000000,-0.000000,-0.000000,683.840494,-687.132116,2.269748,0.000000,-0.000000,0.000000
1.330000,-0.050000,0.831337,0.020000,-149.189562,8845.750000,700.264725,-699.153835,-49.540706,0.000000,-0.000000,-0.000000,702.009316,-700.898426,3.134601,0.000000,-0.000000,0.000000
1.370000,-0.070000,0.872232,0.020000,-111.451797,9386.950000,659.768868,-659.365779,-67.603716,0.000000,-0.000000,-0.000000,663.224406,-662.821317,-0.026115,0.000000,-0.000000,-0.000000
1.390000,-0.070000,0.892200,0.020000,-93.405372,9662.950000,641.245661,-641.200741,-64.739481,0.000000,-0.000000,-0.000000,644.505504,-644.460584,0.008316,0.000000,-0.000000,0.000000
1.390000,-0.050000,0.891300,0.020000,-94.179231,9661.750000,643.637762,-643.592237,-46.357270,0.000000,-0.000000,-0.000000,645.305076,-645.259551,0.005942,0.000000,-0.000000,0.000000
1.370000,-0.050000,0.871312,0.020000,-112.248368,9385.750000,662.301815,-661.895302,-48.411741,0.000000,-0.000000,-0.000000,664.069356,-663.662843,-0.018871,0.000000,-0.000000,-0.000000
1.410000,-0.070000,0.912169,0.020000,-75.615462,9942.950000,623.318660,-623.276521,-62.032574,0.000000,-0.000000,-0.000000,626.397894,-626.355755,0.008000,0.000000,-0.000000,0.000000
1.430000,-0.070000,0.932140,0.020000,-58.074895,10226.950000,606.131533,-606.089146,-59.472935,0.000000,-0.000000,-0.000000,609.042354,-608.999966,0.009026,0.000000,-0.000000,0.000000
1.430000,-0.050000,0.931278,0.020000,-58.806149,10225.750000,608.263478,-608.218296,-42.582621,0.000000,-0.000000,-0.000000,609.752249,-609.707067,0.003761,0.000000,-0.000000,0.000000
1.410000,-0.050000,0.911289,0.020000,-76.367566,9941.750000,625.577843,-625.534619,-44.416023,0.000000,-0.000000,-0.000000,627.152684,-627.109460,0.005513,0.000000,-0.000000,0.000000
1.450000,-0.070000,0.952111,0.020000,-40.776800,10514.950000,589.767743,-589.798024,-57.009434,0.000000,-0.000000,-0.000000,592.516648,-592.546929,0.067826,0.000000,-0.000000,0.000000
1.470000,-0.070000,0.972084,0.020000,-23.714626,10806.950000,576.070090,-580.181470,-55.227582,0.000000,-0.000000,-0.000000,578.702006,-582.813386,-0.042655,0.000000,-0.000000,-0.000000
1.470000,-0.050000,0.971258,0.020000,-24.406602,10805.750000,577.910792,-582.489733,-39.531377,0.000000,-0.000000,-0.000000,579.255949,-583.834889,-0.016218,0.000000,-0.000000,-0.000000
1.450000,-0.050000,0.951268,0.020000,-41.488052,10513.750000,591.783962,-591.898082,-40.837025,0.000000,-0.000000,-0.000000,593.191166,-593.305286,0.028122,0.000000,-0.000000,0.000000
1.490000,-0.070000,0.992058,0.020000,-6.881983,11102.950000,564.160278,-575.143060,-54.146460,0.000000,-0.000000,-0.000000,566.727633,-577.710415,-0.501528,0.000000,-0.000000,-0.000000
1.490000,-0.050000,0.991249,0.020000,-7.554901,11101.750000,565.046897,-575.938473,-38.770875,0.000000,-0.000000,-0.000000,566.362652,-577.254228,-0.438622,0.000000,-0.000000,-0.000000
-1.490000,-0.030000,0.990850,0.020000,-8.008761,11100.950000,567.090229,-578.482769,23.350748,0.000000,-0.000000,0.000000,567.565934,-578.958474,0.275942,0.000000,-0.000000,0.000000
-1.490000,-0.010000,0.990446,0.020000,-8.233517,11100.550000,567.426868,-578.771928,7.772590,0.000000,-0.000000,0.000000,567.479568,-578.824627,0.079627,0.000000,-0.000000,0.000000
-1.470000,-0.030000,0.970859,0.020000,-24.880273,10804.950000,579.500702,-584.055438,23.799611,0.000000,-0.000000,0.000000,579.987299,-584.542035,0.043637,0.000000,-0.000000,0.000000
-1.450000,-0.030000,0.950869,0.020000,-41.982601,10512.950000,593.438099,-593.553641,24.545870,0.000000,-0.000000,0.000000,593.945467,-594.061009,-0.023077,0.000000,-0.000000,-0.000000
-1.450000,-0.010000,0.950448,0.020000,-42.220162,10512.550000,594.114061,-594.251785,8.198677,0.000000,-0.000000,0.000000,594.170622,-594.308346,0.002661,0.000000,-0.000000,0.000000
-1.470000,-0.010000,0.970447,0.020000,-25.111389,10804.550000,580.125120,-584.804449,7.924171,0.000000,-0.000000,0.000000,580.179020,-584.858349,-0.000887,0.000000,-0.000000,-0.000000
-1.430000,-0.030000,0.930879,0.020000,-59.322283,10224.950000,609.998773,-609.955769,25.606928,0.000000,-0.000000,0.000000,610.536027,-610.493024,0.002205,0.000000,-0.000000,0.000000
-1.410000,-0.030000,0.910889,0.020000,-76.905983,9940.950000,627.405945,-627.362674,26.712588,0.000000,-0.000000,0.000000,627.974368,-627.931097,0.003289,0.000000,-0.000000,0.000000
-1.410000,-0.010000,0.910450,0.020000,-77.157214,9940.550000,628.163839,-628.120230,8.911450,0.000000,-0.000000,0.000000,628.227049,-628.183440,0.001185,0.000000,-0.000000,0.000000
-1.430000,-0.010000,0.930449,0.020000,-59.566538,10224.550000,610.713946,-610.669996,8.543567,0.000000,-0.000000,0.000000,610.773705,-610.729755,0.002003,0.000000,-0.000000,0.000000
-1.390000,-0.030000,0.890901,0.020000,-94.740661,9660.950000,645.568151,-645.522223,27.881808,0.000000,-0.000000,0.000000,646.169993,-646.124066,0.003558,0.000000,-0.000000,0.000000
-1.370000,-0.030000,0.870912,0.020000,-112.833584,9384.950000,664.341050,-663.931910,29.119225,0.000000,-0.000000,0.000000,664.979113,-664.569973,0.018984,0.000000,-0.000000,0.000000
-1.370000,-0.010000,0.870453,0.020000,-113.099698,9384.550000,665.191053,-664.780760,9.714686,0.000000,-0.000000,0.000000,665.262010,-664.851716,0.006345,0.000000,-0.000000,0.000000
-1.390000,-0.010000,0.890451,0.020000,-94.999173,9660.550000,646.370749,-646.324620,9.301640,0.000000,-0.000000,0.000000,646.437676,-646.391547,0.001192,0.000000,-0.000000,0.000000
-1.350000,-0.030000,0.850924,0.020000,-131.192338,9112.950000,684.555029,-688.052323,32.439724,0.000000,-0.000000,0.000000,685.318586,-688.815881,1.920370,0.000000,-0.000000,0.000000
-1.330000,-0.030000,0.830937,0.020000,-149.824847,8844.950000,703.113985,-701.729062,35.491761,0.000000,-0.000000,0.000000,703.999896,-702.614972,3.783589,0.000000,-0.000000,0.000000
-1.330000,-0.010000,0.830456,0.020000,-150.107206,8844.550000,703.776175,-702.520668,7.082419,0.000000,-0.000000,0.000000,703.803175,-702.547668,-3.491445,0.000000,-0.000000,-0.000000
-1.350000,-0.010000,0.850454,0.020000,-131.466394,9112.550000,685.324174,-688.737970,8.063089,0.000000,-0.000000,0.000000,685.368230,-688.782026,-2.115475,0.000000,-0.000000,-0.000000
1.330000,-0.030000,0.830852,0.020000,-149.753596,8844.950000,702.738734,-701.354983,-35.463241,0.000000,-0.000000,-0.000000,703.623739,-702.239988,-3.771992,0.000000,-0.000000,-0.000000
1.350000,-0.030000,0.850851,0.020000,-131.129983,9112.950000,684.194561,-687.689061,-32.414083,0.000000,-0.000000,-0.000000,684.957337,-688.451837,-1.910830,0.000000,-0.000000,-0.000000
1.350000,-0.010000,0.850847,0.020000,-131.403894,9112.550000,684.962897,-688.373986,-8.056743,0.000000,-0.000000,-0.000000,685.006899,-688.417988,2.116449,0.000000,-0.000000,0.000000
1.330000,-0.010000,0.830849,0.020000,-150.035805,8844.550000,703.400220,-702.145747,-7.076755,0.000000,-0.000000,-0.000000,703.427177,-702.172705,3.491462,0.000000,-0.000000,0.000000
1.370000,-0.030000,0.870849,0.020000,-112.779980,9384.950000,663.996447,-663.587641,-29.096551,0.000000,-0.000000,-0.000000,664.633848,-664.225041,-0.011409,0.000000,-0.000000,-0.000000
1.390000,-0.030000,0.890848,0.020000,-94.695670,9660.950000,645.238040,-645.192160,-27.860409,0.000000,-0.000000,-0.000000,645.839267,-645.793387,0.003579,0.000000,-0.000000,0.000000
1.390000,-0.010000,0.890845,0.020000,-94.954050,9660.550000,646.039818,-645.993736,-9.294497,0.000000,-0.000000,-0.000000,646.106676,-646.060594,0.001189,0.000000,-0.000000,0.000000
1.370000,-0.010000,0.870846,0.020000,-113.045956,9384.550000,664.845568,-664.435610,-9.707118,0.000000,-0.000000,-0.000000,664.916450,-664.506492,-0.003818,0.000000,-0.000000,-0.000000
1.410000,-0.030000,0.910847,0.020000,-76.869473,9940.950000,627.089660,-627.046432,-26.692377,0.000000,-0.000000,-0.000000,627.657509,-627.614282,0.003452,0.000000,-0.000000,0.000000
1.430000,-0.030000,0.930845,0.020000,-59.294128,10224.950000,609.695551,-609.652590,-25.587823,0.000000,-0.000000,-0.000000,610.232271,-610.189310,0.004167,0.000000,-0.000000,0.000000
1.430000,-0.010000,0.930843,0.020000,-59.538261,10224.550000,610.410012,-610.366104,-8.537190,0.000000,-0.000000,-0.000000,610.469712,-610.425804,0.000123,0.000000,-0.000000,0.000000
1.410000,-0.010000,0.910844,0.020000,-77.120578,9940.550000,627.846789,-627.803224,-8.904703,0.000000,-0.000000,-0.000000,627.909935,-627.866370,0.001064,0.000000,-0.000000,0.000000
1.450000,-0.030000,0.950844,0.020000,-41.962679,10512.950000,593.147132,-593.262565,-24.527803,0.000000,-0.000000,-0.000000,593.654002,-593.769435,0.029092,0.000000,-0.000000,0.000000
1.470000,-0.030000,0.970843,0.020000,-24.868468,10804.950000,579.219947,-583.771256,-23.782278,0.000000,-0.000000,-0.000000,579.706071,-584.257381,-0.037842,0.000000,-0.000000,-0.000000
1.470000,-0.010000,0.970840,0.020000,-25.099472,10804.550000,579.843752,-584.519587,-7.918388,0.000000,-0.000000,-0.000000,579.897599,-584.573435,0.002817,0.000000,-0.000000,0.000000
1.450000,-0.010000,0.950841,0.020000,-42.200124,10512.550000,593.822429,-593.960035,-8.192645,0.000000,-0.000000,-0.000000,593.878934,-594.016541,-0.000652,0.000000,-0.000000,-0.000000
1.490000,-0.030000,0.990842,0.020000,-8.004962,11100.950000,566.818557,-578.202770,-23.333839,0.000000,-0.000000,-0.000000,567.293805,-578.678018,-0.270150,0.000000,-0.000000,-0.000000
1.490000,-0.010000,0.990839,0.020000,-8.229610,11100.550000,567.154673,-578.491370,-7.766949,0.000000,-0.000000,-0.000000,567.207321,-578.544018,-0.077696,0.000000,-0.000000,-0.000000
-1.490000,0.010000,0.990446,0.020000,-8.233517,11100.550000,567.426868,-578.771928,-7.772590,0.000000,-0.000000,-0.000000,567.479568,-578.824627,-0.079627,0.000000,-0.000000,-0.000000
-1.490000,0.030000,0.990850,0.020000,-8.008761,11100.950000,567.090229,-578.482769,-23.350748,0.000000,-0.000000,-0.000000,567.565934,-578.958474,-0.275942,0.000000,-0.000000,-0.000000
-1.470000,0.010000,0.970447,0.020000,-25.111389,10804.550000,580.125120,-584.804449,-7.924171,0.000000,-0.000000,-0.000000,580.179020,-584.858349,0.000887,0.000000,-0.000000,0.000000
-1.450000,0.010000,0.950448,0.020000,-42.220162,10512.550000,594.114061,-594.251785,-8.198677,0.000000,-0.000000,-0.000000,594.170622,-594.308346,-0.002661,0.000000,-0.000000,-0.000000
-1.450000,0.030000,0.950869,0.020000,-41.982601,10512.950000,593.438099,-593.553641,-24.545870,0.000000,-0.000000,-0.000000,593.945467,-594.061009,0.023077,0.000000,-0.000000,0.000000
-1.470000,0.030000,0.970859,0.020000,-24.880273,10804.950000,579.500702,-584.055438,-23.799611,0.000000,-0.000000,-0.000000,579.987299,-584.542035,-0.043637,0.000000,-0.000000,-0.000000
-1.430000,0.010000,0.930449,0.020000,-59.566538,10224.550000,610.713946,-610.669996,-8.543567,0.000000,-0.000000,-0.000000,610.773705,-610.729755,-0.002003,0.000000,-0.000000,-0.000000
-1.410000,0.010000,0.910450,0.020000,-77.157214,9940.550000,628.163839,-628.120230,-8.911450,0.000000,-0.000000,-0.000000,628.227049,-628.183440,-0.001185,0.000000,-0.000000,-0.000000
-1.410000,0.030000,0.910889,0.020000,-76.905983,9940.950000,627.405945,-627.362674,-26.712588,0.000000,-0.000000,-0.000000,627.974368,-627.931097,-0.003289,0.000000,-0.000000,-0.000000
-1.430000,0.030000,0.930879,0.020000,-59.322283,10224.950000,609.998773,-609.955769,-25.606928,0.000000,-0.000000,-0.000000,610.536027,-610.493024,-0.002205,0.000000,-0.000000,-0.000000
-1.390000,0.010000,0.890451,0.020000,-94.999173,9660.550000,646.370749,-646.324620,-9.301640,0.000000,-0.000000,-0.000000,646.437676,-646.391547,-0.001192,0.000000,-0.000000,-0.000000
-1.370000,0.010000,0.870453,0.020000,-113.099698,9384.550000,665.191053,-664.780760,-9.714686,0.000000,-0.000000,-0.000000,665.262010,-664.851716,-0.006345,0.000000,-0.000000,-0.000000
-1.370000,0.030000,0.870912,0.020000,-112.833584,9384.950000,664.341050,-663.931910,-29.119225,0.000000,-0.000000,-0.000000,664.979113,-664.569973,-0.018984,0.000000,-0.000000,-0.000000
-1.390000,0.030000,0.890901,0.020000,-94.740661,9660.950000,645.568151,-645.522223,-27.881808,0.000000,-0.000000,-0.000000,646.169993,-646.124066,-0.003558,0.000000,-0.000000,-0.000000
-1.350000,0.010000,0.850454,0.020000,-131.466394,9112.550000,685.324174,-688.737970,-8.063089,0.000000,-0.000000,-0.000000,685.368230,-688.782026,2.115475,0.000000,-0.000000,0.000000
-1.330000,0.010000,0.830456,0.020000,-150.107206,8844.550000,703.776175,-702.520668,-7.082419,0.000000,-0.000000,-0.000000,703.803175,-702.547668,3.491445,0.000000,-0.000000,0.000000
-1.330000,0.030000,0.830937,0.020000,-149.824847,8844.950000,703.113985,-701.729062,-35.491761,0.000000,-0.000000,-0.000000,703.999896,-702.614972,-3.783589,0.000000,-0.000000,-0.000000
-1.350000,0.030000,0.850924,0.020000,-131.192338,9112.950000,684.555029,-688.052323,-32.439724,0.000000,-0.000000,-0.000000,685.318587,-688.815881,-1.920370,0.000000,-0.000000,-0.000000
1.330000,0.010000,0.830849,0.020000,-150.035805,8844.550000,703.400220,-702.145747,7.076755,0.000000,-0.000000,0.000000,703.427177,-702.172705,-3.491462,0.000000,-0.000000,-0.000000
1.350000,0.010000,0.850847,0.020000,-131.403894,9112.550000,684.962897,-688.373986,8.056743,0.000000,-0.000000,0.000000,685.006899,-688.417988,-2.116449,0.000000,-0.000000,-0.000000
1.350000,0.030000,0.850851,0.020000,-131.129983,9112.950000,684.194561,-687.689061,32.414083,0.000000,-0.000000,0.000000,684.957337,-688.451837,1.910830,0.000000,-0.000000,0.000000
1.330000,0.030000,0.830852,0.020000,-149.753596,8844.950000,702.738734,-701.354983,35.463241,0.000000,-0.000000,0.000000,703.623739,-702.239988,3.771992,0.000000,-0.000000,0.000000
1.370000,0.010000,0.870846,0.020000,-113.045956,9384.550000,664.845568,-664.435610,9.707118,0.000000,-0.000000,0.000000,664.916450,-664.506492,0.003818,0.000000,-0.000000,0.000000
1.390000,0.010000,0.890845,0.020000,-94.954050,9660.550000,646.039818,-645.993736,9.294497,0.000000,-0.000000,0.000000,646.106676,-646.060594,-0.001189,0.000000,-0.000000,-0.000000
1.390000,0.030000,0.890848,0.020000,-94.695670,9660.950000,645.238040,-645.192160,27.860409,0.000000,-0.000000,0.000000,645.839267,-645.793387,-0.003579,0.000000,-0.000000,-0.000000
1.370000,0.030000,0.870849,0.020000,-112.779980,9384.950000,663.996447,-663.587641,29.096551,0.000000,-0.000000,0.000000,664.633848,-664.225041,0.011409,0.000000,-0.000000,0.000000
1.410000,0.010000,0.910844,0.020000,-77.120578,9940.550000,627.846789,-627.803224,8.904703,0.000000,-0.000000,0.000000,627.909935,-627.866370,-0.001064,0.000000,-0.000000,-0.000000
1.430000,0.010000,0.930843,0.020000,-59.538261,10224.550000,610.410012,-610.366104,8.537190,0.000000,-0.000000,0.000000,610.469712,-610.425804,-0.000123,0.000000,-0.000000,-0.000000
1.430000,0.030000,0.930845,0.020000,-59.294128,10224.950000,609.695551,-609.652590,25.587823,0.000000,-0.000000,0.000000,610.232271,-610.189310,-0.004167,0.000000,-0.000000,-0.000000
1.410000,0.030000,0.910847,0.020000,-76.869473,9940.950000,627.089660,-627.046432,26.692377,0.000000,-0.000000,0.000000,627.657509,-627.614282,-0.003452,0.000000,-0.000000,-0.000000
1.450000,0.010000,0.950841,0.020000,-42.200124,10512.550000,593.822429,-593.960035,8.192645,0.000000,-0.000000,0.000000,593.878934,-594.016541,0.000652,0.000000,-0.000000,0.000000
1.470000,0.010000,0.970840,0.020000,-25.099472,10804.550000,579.843752,-584.519587,7.918388,0.000000,-0.000000,0.000000,579.897599,-584.573435,-0.002817,0.000000,-0.000000,-0.000000
1.470000,0.030000,0.970843,0.020000,-24.868468,10804.950000,579.219947,-583.771256,23.782278,0.000000,-0.000000,0.000000,579.706071,-584.257381,0.037842,0.000000,-0.000000,0.000000
1.450000,0.030000,0.950844,0.020000,-41.962679,10512.950000,593.147132,-593.262565,24.527803,0.000000,-0.000000,0.000000,593.654002,-593.769435,-0.029092,0.000000,-0.000000,-0.000000
1.490000,0.010000,0.990839,0.020000,-8.229610,11100.550000,567.154673,-578.491370,7.766949,0.000000,-0.000000,0.000000,567.207321,-578.544018,0.077696,0.000000,-0.000000,0.000000
1.490000,0.030000,0.990842,0.020000,-8.004962,11100.950000,566.818557,-578.202770,23.333839,0.000000,-0.000000,0.000000,567.293805,-578.678018,0.270150,0.000000,-0.000000,0.000000
-1.490000,0.050000,0.991657,0.020000,-7.558486,11101.750000,565.317268,-576.216979,-38.798973,0.000000,-0.000000,-0.000000,566.634289,-577.534001,-0.448259,0.000000,-0.000000,-0.000000
-1.490000,0.070000,0.992437,0.020000,-6.885247,11102.950000,564.429113,-575.419871,-54.185627,0.000000,-0.000000,-0.000000,566.998939,-577.989696,-0.514945,0.000000,-0.000000,-0.000000
-1.470000,0.050000,0.971683,0.020000,-24.418184,10805.750000,578.190282,-582.772641,-39.560183,0.000000,-0.000000,-0.000000,579.536745,-584.119105,-0.025850,0.000000,-0.000000,-0.000000
-1.450000,0.050000,0.951710,0.020000,-41.507741,10513.750000,592.073599,-592.187820,-40.867064,0.000000,-0.000000,-0.000000,593.482183,-593.596405,0.018109,0.000000,-0.000000,0.000000
-1.450000,0.070000,0.952457,0.020000,-40.796140,10514.950000,590.055399,-590.085748,-57.051321,0.000000,-0.000000,-0.000000,592.807001,-592.837350,0.053846,0.000000,-0.000000,0.000000
-1.470000,0.070000,0.972447,0.020000,-23.725873,10806.950000,576.347767,-580.462322,-55.267750,0.000000,-0.000000,-0.000000,578.982236,-583.096791,-0.056105,0.000000,-0.000000,-0.000000
-1.430000,0.050000,0.931738,0.020000,-58.834062,10225.750000,608.565277,-608.520053,-42.614381,0.000000,-0.000000,-0.000000,610.055530,-610.010306,-0.006843,0.000000,-0.000000,-0.000000
-1.410000,0.050000,0.911767,0.020000,-76.403823,9941.750000,625.892603,-625.849336,-44.449618,0.000000,-0.000000,-0.000000,627.469033,-627.425766,-0.005704,0.000000,-0.000000,-0.000000
-1.410000,0.070000,0.912478,0.020000,-75.651339,9942.950000,623.631145,-623.588963,-62.079419,0.000000,-0.000000,-0.000000,626.713482,-626.671300,-0.007667,0.000000,-0.000000,-0.000000
-1.430000,0.070000,0.932467,0.020000,-58.102444,10226.950000,606.431211,-606.388782,-59.517224,0.000000,-0.000000,-0.000000,609.344925,-609.302496,-0.005784,0.000000,-0.000000,-0.000000
-1.390000,0.050000,0.891798,0.020000,-94.223957,9661.750000,643.966234,-643.920663,-46.392837,0.000000,-0.000000,-0.000000,645.635255,-645.589683,-0.005934,0.000000,-0.000000,-0.000000
-1.370000,0.050000,0.871830,0.020000,-112.301696,9385.750000,662.644659,-662.237815,-48.449425,0.000000,-0.000000,-0.000000,664.414035,-664.007191,-0.031474,0.000000,-0.000000,-0.000000
-1.370000,0.070000,0.872501,0.020000,-111.504712,9386.950000,660.109086,-659.705671,-67.656248,0.000000,-0.000000,-0.000000,663.568208,-663.164793,-0.043714,0.000000,-0.000000,-0.000000
-1.390000,0.070000,0.892489,0.020000,-93.449703,9662.950000,641.571690,-641.526724,-64.789069,0.000000,-0.000000,-0.000000,644.834865,-644.789899,-0.008270,0.000000,-0.000000,-0.000000
-1.350000,0.050000,0.851864,0.020000,-130.644586,9113.750000,682.488638,-685.782832,-48.481900,0.000000,-0.000000,-0.000000,684.200626,-687.494820,2.258228,0.000000,-0.000000,0.000000
-1.330000,0.050000,0.831899,0.020000,-149.260511,8845.750000,700.637328,-699.525560,-49.580451,0.000000,-0.000000,-0.000000,702.383852,-701.272084,3.122911,0.000000,-0.000000,0.000000
-1.330000,0.070000,0.832526,0.020000,-148.414962,8846.950000,698.662528,-697.164816,-77.680640,0.000000,-0.000000,-0.000000,702.960973,-701.463261,-3.989809,0.000000,-0.000000,-0.000000
-1.350000,0.070000,0.852513,0.020000,-129.823858,9114.950000,680.194611,-683.737859,-72.601755,0.000000,-0.000000,-0.000000,684.046238,-687.589485,-1.679616,0.000000,-0.000000,-0.000000
1.330000,0.050000,0.831337,0.020000,-149.189562,8845.750000,700.264725,-699.153835,49.540706,0.000000,-0.000000,0.000000,702.009316,-700.898426,-3.134601,0.000000,-0.000000,-0.000000
1.350000,0.050000,0.851324,0.020000,-130.582519,9113.750000,682.130349,-685.421971,48.443677,0.000000,-0.000000,0.000000,683.840494,-687.132116,-2.269748,0.000000,-0.000000,-0.000000
1.350000,0.070000,0.852266,0.020000,-129.762223,9114.950000,679.838728,-683.379143,72.544575,0.000000,-0.000000,0.000000,683.686357,-687.226772,1.659697,0.000000,-0.000000,0.000000
1.330000,0.070000,0.832302,0.020000,-148.344465,8846.950000,698.292017,-696.795592,77.618452,0.000000,-0.000000,0.000000,702.585977,-701.089552,3.966791,0.000000,-0.000000,0.000000
1.370000,0.050000,0.871312,0.020000,-112.248368,9385.750000,662.301815,-661.895302,48.411741,0.000000,-0.000000,0.000000,664.069356,-663.662843,0.018871,0.000000,-0.000000,0.000000
1.390000,0.050000,0.891300,0.020000,-94.179231,9661.750000,643.637762,-643.592237,46.357270,0.000000,-0.000000,0.000000,645.305076,-645.259551,-0.005942,0.000000,-0.000000,-0.000000
1.390000,0.070000,0.892200,0.020000,-93.405372,9662.950000,641.245661,-641.200741,64.739481,0.000000,-0.000000,0.000000,644.505504,-644.460584,-0.008316,0.000000,-0.000000,-0.000000
1.370000,0.070000,0.872232,0.020000,-111.451797,9386.950000,659.768868,-659.365779,67.603716,0.000000,-0.000000,0.000000,663.224406,-662.821317,0.026115,0.000000,-0.000000,0.000000
1.410000,0.050000,0.911289,0.020000,-76.367566,9941.750000,625.577843,-625.534619,44.416023,0.000000,-0.000000,0.000000,627.152684,-627.109460,-0.005513,0.000000,-0.000000,-0.000000
1.430000,0.050000,0.931278,0.020000,-58.806149,10225.750000,608.263478,-608.218296,42.582621,0.000000,-0.000000,0.000000,609.752249,-609.707067,-0.003761,0.000000,-0.000000,-0.000000
1.430000,0.070000,0.932140,0.020000,-58.074895,10226.950000,606.131533,-606.089146,59.472935,0.000000,-0.000000,0.000000,609.042354,-608.999966,-0.009026,0.000000,-0.000000,-0.000000
1.410000,0.070000,0.912169,0.020000,-75.615462,9942.950000,623.318660,-623.276521,62.032574,0.000000,-0.000000,0.000000,626.397894,-626.355755,-0.008000,0.000000,-0.000000,-0.000000
1.450000,0.050000,0.951268,0.020000,-41.488052,10513.750000,591.783962,-591.898082,40.837025,0.000000,-0.000000,0.000000,593.191166,-593.305286,-0.028122,0.000000,-0.000000,-0.000000
1.470000,0.050000,0.971258,0.020000,-24.406602,10805.750000,577.910792,-582.489733,39.531377,0.000000,-0.000000,0.000000,579.255949,-583.834889,0.016218,0.000000,-0.000000,0.000000
1.470000,0.070000,0.972084,0.020000,-23.714626,10806.950000,576.070090,-580.181470,55.227582,0.000000,-0.000000,0.000000,578.702006,-582.813386,0.042655,0.000000,-0.000000,0.000000
1.450000,0.070000,0.952111,0.020000,-40.776800,10514.950000,589.767743,-589.798024,57.009434,0.000000,-0.000000,0.000000,592.516648,-592.546929,-0.067826,0.000000,-0.000000,-0.000000
1.490000,0.050000,0.991249,0.020000,-7.554901,11101.750000,565.046897,-575.938473,38.770875,0.000000,-0.000000,0.000000,566.362652,-577.254228,0.438622,0.000000,-0.000000,0.000000
1.490000,0.070000,0.992058,0.020000,-6.881983,11102.950000,564.160278,-575.143060,54.146460,0.000000,-0.000000,0.000000,566.727633,-577.710415,0.501528,0.000000,-0.000000,0.000000
-1.490000,0.090000,0.993249,0.020000,-5.986413,11104.550000,560.770657,-570.464945,-69.294960,0.000000,-0.000000,-0.000000,564.999137,-574.693426,-0.709881,0.000000,-0.000000,-0.000000
-1.490000,0.110000,0.994463,0.020000,-4.867720,11106.550000,559.790444,-569.215666,-84.148337,0.000000,-0.000000,-0.000000,566.027722,-575.452944,-0.338422,0.000000,-0.000000,-0.000000
-1.470000,0.090000,0.973276,0.020000,-22.803714,10808.550000,573.744396,-577.857234,-70.739810,0.000000,-0.000000,-0.000000,578.073478,-582.186316,0.031458,0.000000,-0.000000,0.000000
-1.450000,0.090000,0.953303,0.020000,-39.848582,10516.550000,587.341283,-587.343649,-73.138056,0.000000,-0.000000,-0.000000,591.877474,-591.879840,0.054980,0.000000,-0.000000,0.000000
-1.450000,0.110000,0.954567,0.020000,-38.666178,10518.550000,584.007891,-583.780990,-88.978136,0.000000,-0.000000,-0.000000,590.748542,-590.521640,0.124104,0.000000,-0.000000,0.000000
-1.470000,0.110000,0.974514,0.020000,-21.653319,10810.550000,570.824840,-573.671741,-86.030804,0.000000,-0.000000,-0.000000,577.255559,-580.102461,0.093008,0.000000,-0.000000,0.000000
-1.430000,0.090000,0.933331,0.020000,-57.128286,10228.550000,603.585368,-603.537488,-76.287758,0.000000,-0.000000,-0.000000,608.387498,-608.339619,-0.012759,0.000000,-0.000000,-0.000000
-1.410000,0.090000,0.913361,0.020000,-74.649436,9944.550000,620.628545,-620.586186,-79.560925,0.000000,-0.000000,-0.000000,625.707557,-625.665197,-0.010260,0.000000,-0.000000,-0.000000
-1.410000,0.110000,0.914681,0.020000,-73.399315,9946.550000,616.899822,-616.859579,-96.852104,0.000000,-0.000000,-0.000000,624.456583,-624.416340,-0.011836,0.000000,-0.000000,-0.000000
-1.430000,0.110000,0.934623,0.020000,-55.912722,10230.550000,600.066123,-600.021969,-92.872617,0.000000,-0.000000,-0.000000,607.210828,-607.166675,-0.008556,0.000000,-0.000000,-0.000000
-1.390000,0.090000,0.893392,0.020000,-92.418854,9664.550000,638.394227,-638.349948,-83.025627,0.000000,-0.000000,-0.000000,643.770675,-643.726396,-0.010623,0.000000,-0.000000,-0.000000
-1.370000,0.090000,0.873425,0.020000,-110.443647,9388.550000,656.745047,-656.346160,-86.691448,0.000000,-0.000000,-0.000000,662.443759,-662.044872,-0.055614,0.000000,-0.000000,-0.000000
-1.370000,0.110000,0.874804,0.020000,-109.119846,9390.550000,652.566701,-652.173425,-105.507855,0.000000,-0.000000,-0.000000,661.043520,-660.650244,-0.067078,0.000000,-0.000000,-0.000000
-1.390000,0.110000,0.894741,0.020000,-91.132683,9666.550000,634.447037,-634.403769,-101.058517,0.000000,-0.000000,-0.000000,642.445494,-642.402226,-0.012892,0.000000,-0.000000,-0.000000
-1.350000,0.090000,0.853459,0.020000,-128.731229,9116.550000,676.097996,-679.238876,-88.394104,0.000000,-0.000000,-0.000000,681.834661,-684.975541,2.344132,0.000000,-0.000000,0.000000
-1.330000,0.090000,0.833494,0.020000,-147.289342,8848.550000,693.753856,-692.797442,-91.542926,0.000000,-0.000000,-0.000000,699.766412,-698.809998,2.690719,0.000000,-0.000000,0.000000
-1.330000,0.110000,0.834940,0.020000,-145.885165,8850.550000,690.501319,-688.909259,-119.033178,0.000000,-0.000000,-0.000000,700.685620,-699.093560,-4.104278,0.000000,-0.000000,-0.000000
-1.350000,0.110000,0.854871,0.020000,-127.368127,9118.550000,672.318822,-675.870038,-112.007130,0.000000,-0.000000,-0.000000,681.559546,-685.110762,-1.401757,0.000000,-0.000000,-0.000000
1.330000,0.090000,0.833746,0.020000,-147.219446,8848.550000,693.388573,-692.432864,91.469813,0.000000,-0.000000,0.000000,699.394605,-698.438896,-2.714000,0.000000,-0.000000,-0.000000
1.350000,0.090000,0.853676,0.020000,-128.670168,9116.550000,675.746412,-678.884898,88.324667,0.000000,-0.000000,0.000000,681.476981,-684.615468,-2.366125,0.000000,-0.000000,-0.000000
1.350000,0.110000,0.855441,0.020000,-127.307781,9118.550000,671.971178,-675.519575,111.919401,0.000000,-0.000000,0.000000,681.202304,-684.750701,1.371693,0.000000,-0.000000,0.000000
1.330000,0.110000,0.835476,0.020000,-145.816016,8850.550000,690.139460,-688.548775,118.938435,0.000000,-0.000000,0.000000,700.313103,-698.722418,4.070160,0.000000,-0.000000,0.000000
1.370000,0.090000,0.873610,0.020000,-110.391281,9388.550000,656.408303,-656.009736,86.624288,0.000000,-0.000000,0.000000,662.101121,-661.702554,0.033064,0.000000,-0.000000,0.000000
1.390000,0.090000,0.893547,0.020000,-92.375050,9664.550000,638.071434,-638.027199,82.962221,0.000000,-0.000000,0.000000,643.442401,-643.398165,-0.010631,0.000000,-0.000000,-0.000000
1.390000,0.110000,0.895339,0.020000,-91.089533,9666.550000,634.128250,-634.085025,100.981551,0.000000,-0.000000,0.000000,642.118569,-642.075344,-0.012978,0.000000,-0.000000,-0.000000
1.370000,0.110000,0.875406,0.020000,-109.068165,9390.550000,652.234257,-651.841294,105.426348,0.000000,-0.000000,0.000000,660.702329,-660.309365,0.039634,0.000000,-0.000000,0.000000
1.410000,0.090000,0.913487,0.020000,-74.614063,9944.550000,620.319075,-620.276757,79.501017,0.000000,-0.000000,0.000000,625.392981,-625.350663,-0.009818,0.000000,-0.000000,-0.000000
1.430000,0.090000,0.933429,0.020000,-57.101220,10228.550000,603.288501,-603.240663,76.231110,0.000000,-0.000000,0.000000,608.085872,-608.038034,-0.006224,0.000000,-0.000000,-0.000000
1.430000,0.110000,0.935145,0.020000,-55.886259,10230.550000,599.772737,-599.728625,92.803831,0.000000,-0.000000,0.000000,606.910374,-606.866262,-0.014554,0.000000,-0.000000,-0.000000
1.410000,0.110000,0.915240,0.020000,-73.364569,9946.550000,616.594084,-616.553880,96.779370,0.000000,-0.000000,0.000000,624.143264,-624.103061,-0.012606,0.000000,-0.000000,-0.000000
1.450000,0.090000,0.953374,0.020000,-39.829705,10516.550000,587.056262,-587.058587,73.084478,0.000000,-0.000000,0.000000,591.588015,-591.590340,-0.072897,0.000000,-0.000000,-0.000000
1.470000,0.090000,0.973321,0.020000,-22.792912,10808.550000,573.469231,-577.578936,70.688453,0.000000,-0.000000,0.000000,577.794116,-581.903821,-0.048673,0.000000,-0.000000,-0.000000
1.470000,0.110000,0.974966,0.020000,-21.643072,10810.550000,570.552577,-573.396989,85.968504,0.000000,-0.000000,0.000000,576.977071,-579.821482,-0.113908,0.000000,-0.000000,-0.000000
1.450000,0.110000,0.955053,0.020000,-38.647879,10518.550000,583.726122,-583.499275,88.913088,0.000000,-0.000000,0.000000,590.460184,-590.233337,-0.145906,0.000000,-0.000000,-0.000000
1.490000,0.090000,0.993270,0.020000,-5.983577,11104.550000,560.504388,-570.191171,69.244904,0.000000,-0.000000,0.000000,564.728807,-574.415590,0.692690,0.000000,-0.000000,0.000000
1.490000,0.110000,0.994882,0.020000,-4.865416,11106.550000,559.526608,-568.944908,84.087683,0.000000,-0.000000,0.000000,565.757876,-575.176176,0.317679,0.000000,-0.000000,0.000000
-1.490000,0.130000,0.996077,0.020000,-3.523601,11108.950000,554.357483,-560.205668,-98.298456,0.000000,-0.000000,-0.000000,562.960391,-568.808575,-0.304102,0.000000,-0.000000,-0.000000
-1.490000,0.150000,0.998089,0.020000,-1.964077,11111.750000,558.304995,-555.031058,-108.851214,0.000000,-0.000000,-0.000000,568.831362,-565.557425,4.289298,0.000000,-0.000000,0.000000
-1.470000,0.130000,0.976161,0.020000,-20.275072,10812.950000,566.976876,-569.441296,-100.869670,0.000000,-0.000000,-0.000000,575.860576,-578.324996,0.415529,0.000000,-0.000000,0.000000
-1.450000,0.130000,0.956248,0.020000,-37.250205,10520.950000,579.962393,-579.554816,-104.630464,0.000000,-0.000000,-0.000000,589.328178,-588.920600,0.165942,0.000000,-0.000000,0.000000
-1.450000,0.150000,0.958344,0.020000,-35.602341,10523.750000,575.444001,-574.142535,-119.672091,0.000000,-0.000000,-0.000000,587.769489,-586.468023,0.525705,0.000000,-0.000000,0.000000
-1.470000,0.150000,0.978214,0.020000,-18.671774,10815.750000,564.952161,-561.491557,-113.533762,0.000000,-0.000000,-0.000000,576.275512,-572.814908,2.564918,0.000000,-0.000000,0.000000
-1.430000,0.130000,0.936340,0.020000,-54.457161,10232.950000,595.849011,-595.793469,-109.255491,0.000000,-0.000000,-0.000000,605.783260,-605.727717,-0.021243,0.000000,-0.000000,-0.000000
-1.410000,0.130000,0.916435,0.020000,-71.902465,9948.950000,612.455228,-612.414106,-113.914616,0.000000,-0.000000,-0.000000,622.959371,-622.918249,-0.014934,0.000000,-0.000000,-0.000000
-1.410000,0.150000,0.918621,0.020000,-70.160665,9951.750000,607.318584,-607.281372,-130.707753,0.000000,-0.000000,-0.000000,621.225319,-621.188106,-0.015552,0.000000,-0.000000,-0.000000
-1.430000,0.150000,0.938480,0.020000,-52.763287,10235.750000,590.997216,-590.939492,-125.370070,0.000000,-0.000000,-0.000000,604.149090,-604.091366,-0.011127,0.000000,-0.000000,-0.000000
-1.390000,0.130000,0.896534,0.020000,-89.592766,9668.950000,629.745855,-629.703541,-118.845120,0.000000,-0.000000,-0.000000,640.862290,-640.819976,-0.015222,0.000000,-0.000000,-0.000000
-1.370000,0.130000,0.876638,0.020000,-107.534982,9392.950000,647.591482,-647.204840,-124.059676,0.000000,-0.000000,-0.000000,659.370972,-658.984330,-0.078029,0.000000,-0.000000,-0.000000
-1.370000,0.150000,0.878924,0.020000,-105.691044,9395.750000,641.840013,-641.461015,-142.302753,0.000000,-0.000000,-0.000000,657.430282,-657.051285,-0.088377,0.000000,-0.000000,-0.000000
-1.390000,0.150000,0.898769,0.020000,-87.800984,9671.750000,624.310036,-624.269169,-136.344110,0.000000,-0.000000,-0.000000,639.025303,-638.984437,-0.017368,0.000000,-0.000000,-0.000000
-1.350000,0.130000,0.856747,0.020000,-125.736323,9120.950000,666.262992,-669.220090,-127.390257,0.000000,-0.000000,-0.000000,678.301872,-681.258970,2.371117,0.000000,-0.000000,0.000000
-1.330000,0.130000,0.836861,0.020000,-144.204311,8852.950000,683.248240,-682.455786,-132.524816,0.000000,-0.000000,-0.000000,695.985772,-695.193317,2.210073,0.000000,-0.000000,0.000000
-1.330000,0.150000,0.839255,0.020000,-142.249017,8855.750000,678.774657,-677.107953,-159.120667,0.000000,-0.000000,-0.000000,697.185837,-695.519132,-4.125127,0.000000,-0.000000,-0.000000
-1.350000,0.150000,0.859086,0.020000,-123.837926,9123.750000,661.063296,-664.585063,-150.259543,0.000000,-0.000000,-0.000000,677.880655,-681.402422,-1.096686,0.000000,-0.000000,-0.000000
1.330000,0.130000,0.836924,0.020000,-144.136054,8852.950000,682.894047,-682.102115,132.419636,0.000000,-0.000000,0.000000,695.617910,-694.825978,-2.244727,0.000000,-0.000000,-0.000000
1.350000,0.130000,0.856855,0.020000,-125.676830,9120.950000,665.921657,-668.876578,127.290803,0.000000,-0.000000,0.000000,677.947851,-680.902772,-2.403402,0.000000,-0.000000,-0.000000
1.350000,0.150000,0.858733,0.020000,-123.779424,9123.750000,660.727336,-664.246346,150.142762,0.000000,-0.000000,0.000000,677.527288,-681.046297,1.056803,0.000000,-0.000000,0.000000
1.330000,0.150000,0.838847,0.020000,-142.181794,8855.750000,678.425132,-676.759863,158.995037,0.000000,-0.000000,0.000000,696.817092,-695.151823,4.080343,0.000000,-0.000000,0.000000
1.370000,0.130000,0.876788,0.020000,-107.484118,9392.950000,647.264140,-646.877802,123.964162,0.000000,-0.000000,0.000000,659.031505,-658.645167,0.045761,0.000000,-0.000000,0.000000
1.390000,0.130000,0.896725,0.020000,-89.550399,9668.950000,629.431822,-629.389550,118.754906,0.000000,-0.000000,0.000000,640.536975,-640.494702,-0.015201,0.000000,-0.000000,-0.000000
1.390000,0.150000,0.898520,0.020000,-87.759526,9671.750000,624.001475,-623.960648,136.241008,0.000000,-0.000000,0.000000,638.701850,-638.661023,-0.017535,0.000000,-0.000000,-0.000000
1.370000,0.150000,0.878624,0.020000,-105.641128,9395.750000,641.518541,-641.139837,142.193626,0.000000,-0.000000,0.000000,657.092810,-656.714106,0.051365,0.000000,-0.000000,0.000000
1.410000,0.130000,0.916664,0.020000,-71.868470,9948.950000,612.153921,-612.112838,113.829343,0.000000,-0.000000,0.000000,622.647551,-622.606469,-0.013814,0.000000,-0.000000,-0.000000
1.430000,0.130000,0.936606,0.020000,-54.431417,10232.950000,595.559762,-595.504261,109.174824,0.000000,-0.000000,0.000000,605.484206,-605.428704,-0.005945,0.000000,-0.000000,-0.000000
1.430000,0.150000,0.938325,0.020000,-52.738378,10235.750000,590.712729,-590.655055,125.277836,0.000000,-0.000000,0.000000,603.851656,-603.793982,-0.020071,0.000000,-0.000000,-0.000000
1.410000,0.150000,0.918420,0.020000,-70.127540,9951.750000,607.022379,-606.985202,130.610272,0.000000,-0.000000,0.000000,620.915234,-620.878058,-0.017434,0.000000,-0.000000,-0.000000
1.450000,0.130000,0.956551,0.020000,-37.232597,10520.950000,579.684515,-579.277107,104.554213,0.000000,-0.000000,0.000000,589.041166,-588.633758,-0.191563,0.000000,-0.000000,-0.000000
1.470000,0.130000,0.976497,0.020000,-20.265487,10812.950000,566.708333,-569.170512,100.796715,0.000000,-0.000000,0.000000,575.583414,-578.045593,-0.440027,0.000000,-0.000000,-0.000000
1.470000,0.150000,0.978146,0.020000,-18.662959,10815.750000,564.686571,-561.226636,113.451472,0.000000,-0.000000,0.000000,575.998768,-572.538833,-2.591936,0.000000,-0.000000,-0.000000
1.450000,0.150000,0.958233,0.020000,-35.585533,10523.750000,575.170549,-573.869619,119.585023,0.000000,-0.000000,0.000000,587.484000,-586.183069,-0.555006,0.000000,-0.000000,-0.000000
1.490000,0.130000,0.996446,0.020000,-3.521934,11108.950000,554.097115,-559.939760,98.227614,0.000000,-0.000000,0.000000,562.691730,-568.534376,0.279900,0.000000,-0.000000,0.000000
1.490000,0.150000,0.998061,0.020000,-1.963150,11111.750000,558.045996,-554.771662,108.772059,0.000000,-0.000000,0.000000,568.561787,-565.287453,-4.315201,0.000000,-0.000000,-0.000000
-1.490000,0.170000,1.000497,0.020000,-0.179159,11114.950000,554.173770,-537.277047,-116.921912,0.000000,-0.000000,-0.000000,566.485781,-549.589058,9.010760,0.000000,-0.000000,0.000000
-1.470000,0.170000,0.980670,0.020000,-16.843248,10818.950000,558.606684,-555.156949,-128.536476,0.000000,-0.000000,-0.000000,573.244898,-569.795163,1.958975,0.000000,-0.000000,0.000000
-1.450000,0.170000,0.960851,0.020000,-33.724296,10526.950000,570.040561,-569.696771,-135.968322,0.000000,-0.000000,-0.000000,586.036607,-585.692817,-0.468547,0.000000,-0.000000,-0.000000
-1.450000,0.190000,0.963105,0.020000,-31.618350,10530.550000,565.669467,-568.817686,-152.319221,0.000000,-0.000000,-0.000000,585.763409,-588.911628,-1.029285,0.000000,-0.000000,-0.000000
-1.470000,0.190000,0.982974,0.020000,-14.794354,10822.550000,554.186288,-558.636341,-147.976619,0.000000,-0.000000,-0.000000,573.524860,-577.974913,-1.642858,0.000000,-0.000000,-0.000000
-1.430000,0.170000,0.941040,0.020000,-50.833038,10238.950000,585.471718,-585.402717,-141.232931,0.000000,-0.000000,-0.000000,602.266577,-602.197577,-0.041477,0.000000,-0.000000,-0.000000
-1.410000,0.170000,0.921195,0.020000,-68.175967,9954.950000,601.500586,-601.460461,-147.197936,0.000000,-0.000000,-0.000000,619.250272,-619.210146,-0.020046,0.000000,-0.000000,-0.000000
-1.410000,0.190000,0.923382,0.020000,-65.950698,9958.550000,595.036897,-595.004508,-163.344726,0.000000,-0.000000,-0.000000,617.050339,-617.017951,-0.018187,0.000000,-0.000000,-0.000000
-1.430000,0.190000,0.943240,0.020000,-48.668623,10242.550000,579.512540,-579.711920,-156.731075,0.000000,-0.000000,-0.000000,600.329293,-600.528673,0.057618,0.000000,-0.000000,0.000000
-1.390000,0.170000,0.901295,0.020000,-85.759511,9674.950000,618.160632,-618.120851,-153.516168,0.000000,-0.000000,-0.000000,636.938402,-636.898620,-0.019713,0.000000,-0.000000,-0.000000
-1.370000,0.170000,0.881399,0.020000,-103.590333,9398.950000,635.335833,-634.965393,-160.194837,0.000000,-0.000000,-0.000000,655.226194,-654.855754,-0.098071,0.000000,-0.000000,-0.000000
-1.370000,0.190000,0.883684,0.020000,-101.235452,9402.550000,628.105337,-627.744381,-177.695788,0.000000,-0.000000,-0.000000,652.764121,-652.403164,-0.107017,0.000000,-0.000000,-0.000000
-1.390000,0.190000,0.903530,0.020000,-83.470803,9678.550000,611.322806,-611.285038,-170.323455,0.000000,-0.000000,-0.000000,634.607384,-634.569615,-0.021614,0.000000,-0.000000,-0.000000
-1.350000,0.170000,0.861508,0.020000,-121.675375,9126.950000,653.151543,-655.898350,-165.084434,0.000000,-0.000000,-0.000000,673.645339,-676.392145,2.339586,0.000000,-0.000000,0.000000
-1.330000,0.170000,0.841622,0.020000,-140.021867,8858.950000,669.304489,-668.681412,-172.107104,0.000000,-0.000000,-0.000000,691.086133,-690.463056,1.697770,0.000000,-0.000000,0.000000
-1.330000,0.190000,0.844015,0.020000,-137.525784,8862.550000,663.686321,-661.965357,-197.547552,0.000000,-0.000000,-0.000000,692.486601,-690.765638,-4.054415,0.000000,-0.000000,-0.000000
-1.350000,0.190000,0.863846,0.020000,-119.251425,9130.550000,646.618551,-650.074977,-186.991978,0.000000,-0.000000,-0.000000,673.045027,-676.501453,-0.775089,0.000000,-0.000000,-0.000000
1.330000,0.170000,0.841240,0.020000,-139.955819,8858.950000,668.964868,-668.342125,171.971695,0.000000,-0.000000,0.000000,690.723366,-690.100623,-1.743443,0.000000,-0.000000,-0.000000
1.350000,0.170000,0.861071,0.020000,-121.617997,9126.950000,652.823741,-655.568619,164.956643,0.000000,-0.000000,0.000000,673.296119,-676.040997,-2.381879,0.000000,-0.000000,-0.000000
1.350000,0.190000,0.863866,0.020000,-119.195303,9130.550000,646.297424,-649.751200,186.848095,0.000000,-0.000000,0.000000,672.696713,-676.150488,0.725796,0.000000,-0.000000,0.000000
1.330000,0.190000,0.844101,0.020000,-137.461048,8862.550000,663.352492,-661.632997,197.393197,0.000000,-0.000000,0.000000,692.122878,-690.403382,3.999500,0.000000,-0.000000,0.000000
1.370000,0.170000,0.880909,0.020000,-103.541494,9398.950000,635.020965,-634.650807,160.072542,0.000000,-0.000000,0.000000,654.890981,-654.520822,0.056407,0.000000,-0.000000,0.000000
1.390000,0.170000,0.900755,0.020000,-85.719083,9674.950000,617.858230,-617.818485,153.400588,0.000000,-0.000000,0.000000,636.617057,-636.577313,-0.019586,0.000000,-0.000000,-0.000000
1.390000,0.190000,0.903427,0.020000,-83.431529,9678.550000,611.027211,-610.989478,170.195850,0.000000,-0.000000,0.000000,634.288387,-634.250653,-0.021988,0.000000,-0.000000,-0.000000
1.370000,0.190000,0.883642,0.020000,-101.187815,9402.550000,627.797766,-627.437080,177.560815,0.000000,-0.000000,0.000000,652.431421,-652.070735,0.060804,0.000000,-0.000000,0.000000
1.410000,0.170000,0.920607,0.020000,-68.143831,9954.950000,601.210126,-601.170037,147.088624,0.000000,-0.000000,0.000000,618.942153,-618.902064,-0.017101,0.000000,-0.000000,-0.000000
1.430000,0.170000,0.940465,0.020000,-50.809077,10238.950000,585.192596,-585.123633,141.129463,0.000000,-0.000000,0.000000,601.970976,-601.902014,0.006327,0.000000,-0.000000,0.000000
1.430000,0.190000,0.943025,0.020000,-48.645723,10242.550000,579.239250,-579.438491,156.616775,0.000000,-0.000000,0.000000,600.035641,-600.234882,-0.096571,0.000000,-0.000000,-0.000000
1.410000,0.190000,0.923222,0.020000,-65.919668,9958.550000,594.752789,-594.720432,163.224000,0.000000,-0.000000,0.000000,616.744409,-616.712052,-0.023035,0.000000,-0.000000,-0.000000
1.450000,0.170000,0.960329,0.020000,-33.708399,10526.950000,569.772096,-569.427861,135.869704,0.000000,-0.000000,0.000000,585.752618,-585.408383,0.434752,0.000000,-0.000000,0.000000
1.470000,0.170000,0.980199,0.020000,-16.835308,10818.950000,558.346392,-554.896390,128.443296,0.000000,-0.000000,0.000000,572.970213,-569.520211,-1.990257,0.000000,-0.000000,-0.000000
1.470000,0.190000,0.982656,0.020000,-14.787391,10822.550000,553.930803,-558.373530,147.870610,0.000000,-0.000000,0.000000,573.250938,-577.693665,1.606223,0.000000,-0.000000,0.000000
1.450000,0.190000,0.962836,0.020000,-31.603471,10530.550000,565.405563,-568.550799,152.209562,0.000000,-0.000000,0.000000,585.480212,-588.625448,0.991706,0.000000,-0.000000,0.000000
1.490000,0.170000,1.000074,0.020000,-0.179074,11114.950000,553.916956,-537.025551,116.835299,0.000000,-0.000000,0.000000,566.215988,-549.324584,-9.037897,0.000000,-0.000000,-0.000000
-1.470000,0.210000,0.985431,0.020000,-12.522866,10826.550000,546.478031,-562.526617,-162.439064,0.000000,-0.000000,-0.000000,569.780876,-585.829462,-0.680851,0.000000,-0.000000,-0.000000
-1.450000,0.210000,0.965611,0.020000,-29.286516,10534.550000,559.933180,-565.282749,-166.308161,0.000000,-0.000000,-0.000000,583.998980,-589.348549,0.139538,0.000000,-0.000000,0.000000
-1.450000,0.230000,0.968525,0.020000,-26.731835,10538.950000,552.933053,-557.080480,-181.167493,0.000000,-0.000000,-0.000000,581.753227,-585.900653,-0.524905,0.000000,-0.000000,-0.000000
-1.470000,0.230000,0.988285,0.020000,-10.038073,10830.950000,543.393132,-554.963949,-177.910345,0.000000,-0.000000,-0.000000,571.489566,-583.060383,-1.662516,0.000000,-0.000000,-0.000000
-1.430000,0.210000,0.945800,0.020000,-46.272475,10246.550000,572.795477,-573.039416,-171.935618,0.000000,-0.000000,-0.000000,598.038757,-598.282697,0.040897,0.000000,-0.000000,0.000000
-1.410000,0.210000,0.925996,0.020000,-63.487443,9962.550000,587.932482,-587.891541,-179.123281,0.000000,-0.000000,-0.000000,614.614387,-614.573446,-0.026653,0.000000,-0.000000,-0.000000
-1.410000,0.230000,0.929034,0.020000,-60.789042,9966.950000,580.242383,-580.218475,-194.488586,0.000000,-0.000000,-0.000000,611.970417,-611.946509,-0.018057,0.000000,-0.000000,-0.000000
-1.430000,0.230000,0.948774,0.020000,-43.647306,10250.950000,565.484096,-565.600835,-186.646097,0.000000,-0.000000,-0.000000,595.487628,-595.604368,0.102397,0.000000,-0.000000,0.000000
-1.390000,0.210000,0.906201,0.020000,-80.937597,9682.550000,603.821763,-603.784868,-186.730967,0.000000,-0.000000,-0.000000,632.036562,-631.999667,-0.024132,0.000000,-0.000000,-0.000000
-1.370000,0.210000,0.886416,0.020000,-98.629292,9406.550000,620.177351,-619.826636,-194.767826,0.000000,-0.000000,-0.000000,650.049934,-649.699219,-0.115213,0.000000,-0.000000,-0.000000
-1.370000,0.230000,0.889588,0.020000,-95.775026,9410.950000,611.583206,-611.243600,-211.375647,0.000000,-0.000000,-0.000000,647.090199,-646.750593,-0.122528,0.000000,-0.000000,-0.000000
-1.390000,0.230000,0.909305,0.020000,-78.162889,9686.950000,595.688438,-595.654606,-202.704813,0.000000,-0.000000,-0.000000,629.233733,-629.199901,-0.025448,0.000000,-0.000000,-0.000000
-1.350000,0.210000,0.866640,0.020000,-116.569139,9134.550000,636.982805,-639.497314,-201.123457,0.000000,-0.000000,-0.000000,667.918317,-670.432826,2.252308,0.000000,-0.000000,0.000000
-1.330000,0.210000,0.846875,0.020000,-134.764012,8866.550000,652.161468,-651.709949,-209.907139,0.000000,-0.000000,-0.000000,685.119769,-684.668249,1.171238,0.000000,-0.000000,0.000000
-1.330000,0.230000,0.850195,0.020000,-131.740107,8870.950000,645.492253,-643.737523,-233.960654,0.000000,-0.000000,-0.000000,686.625678,-684.870948,-3.897845,0.000000,-0.000000,-0.000000
-1.350000,0.230000,0.869885,0.020000,-113.631873,9138.950000,629.223325,-632.580910,-221.875060,0.000000,-0.000000,-0.000000,667.100561,-670.458146,-0.447846,0.000000,-0.000000,-0.000000
1.330000,0.210000,0.847425,0.020000,-134.700721,8866.550000,651.839531,-651.388159,209.743809,0.000000,-0.000000,0.000000,684.763166,-684.311794,-1.227453,0.000000,-0.000000,-0.000000
1.350000,0.210000,0.867114,0.020000,-116.514400,9134.550000,636.671484,-639.184336,200.969441,0.000000,-0.000000,0.000000,667.574961,-670.087814,-2.304228,0.000000,-0.000000,-0.000000
1.350000,0.230000,0.870204,0.020000,-113.578642,9138.950000,628.919817,-632.274900,221.706410,0.000000,-0.000000,0.000000,666.758401,-670.113484,0.389625,0.000000,-0.000000,0.000000
1.330000,0.230000,0.850438,0.020000,-131.678391,8870.950000,645.177091,-643.423834,233.780156,0.000000,-0.000000,0.000000,686.268160,-684.514903,3.833420,0.000000,-0.000000,0.000000
1.370000,0.210000,0.886817,0.020000,-98.582981,9406.550000,619.877727,-619.527268,194.620713,0.000000,-0.000000,0.000000,649.719995,-649.369537,0.064563,0.000000,-0.000000,0.000000
1.390000,0.210000,0.906533,0.020000,-80.899593,9682.550000,603.533587,-603.496725,186.591829,0.000000,-0.000000,0.000000,631.720144,-631.683281,-0.023669,0.000000,-0.000000,-0.000000
1.390000,0.230000,0.909766,0.020000,-78.126272,9686.950000,595.408250,-595.374447,202.554672,0.000000,-0.000000,0.000000,628.920115,-628.886312,-0.026443,0.000000,-0.000000,-0.000000
1.370000,0.230000,0.889980,0.020000,-95.730160,9410.950000,611.292132,-610.952769,211.216967,0.000000,-0.000000,0.000000,646.763258,-646.423894,0.067561,0.000000,-0.000000,0.000000
1.410000,0.210000,0.926261,0.020000,-63.457632,9962.550000,587.655304,-587.614395,178.991593,0.000000,-0.000000,0.000000,614.310863,-614.269955,-0.018552,0.000000,-0.000000,-0.000000
1.430000,0.210000,0.946001,0.020000,-46.250745,10246.550000,572.528664,-572.772454,171.810887,0.000000,-0.000000,0.000000,597.747352,-597.991142,-0.083630,0.000000,-0.000000,-0.000000
1.430000,0.230000,0.949364,0.020000,-43.626853,10250.950000,565.224268,-565.340916,186.511428,0.000000,-0.000000,0.000000,595.198678,-595.315327,-0.148787,0.000000,-0.000000,-0.000000
1.410000,0.230000,0.929561,0.020000,-60.760560,9966.950000,579.972664,-579.948782,194.346428,0.000000,-0.000000,0.000000,611.669503,-611.645621,-0.031023,0.000000,-0.000000,-0.000000
1.450000,0.210000,0.965751,0.020000,-29.272761,10534.550000,559.675156,-565.020866,166.188799,0.000000,-0.000000,0.000000,583.717774,-589.063484,-0.180245,0.000000,-0.000000,-0.000000
1.470000,0.210000,0.985512,0.020000,-12.516983,10826.550000,546.229079,-562.264213,162.323461,0.000000,-0.000000,0.000000,569.509782,-585.544916,0.641462,0.000000,-0.000000,0.000000
1.470000,0.230000,0.988764,0.020000,-10.033366,10830.950000,543.148413,-554.712033,177.784008,0.000000,-0.000000,0.000000,571.218125,-582.781745,1.618065,0.000000,-0.000000,0.000000
1.450000,0.230000,0.969070,0.020000,-26.719305,10538.950000,552.681511,-556.826183,181.038100,0.000000,-0.000000,0.000000,581.474058,-585.618730,0.480131,0.000000,-0.000000,0.000000
-1.470000,0.250000,0.991535,0.020000,-7.331615,10835.750000,533.189525,-539.282707,-190.693832,0.000000,-0.000000,-0.000000,566.080796,-572.173978,-2.706841,0.000000,-0.000000,-0.000000
-1.450000,0.250000,0.971841,0.020000,-23.956251,10543.750000,545.851381,-549.862614,-194.645078,0.000000,-0.000000,-0.000000,579.401292,-583.412525,0.055595,0.000000,-0.000000,0.000000
-1.450000,0.270000,0.975556,0.020000,-20.964142,10548.950000,540.521191,-538.155488,-205.136981,0.000000,-0.000000,-0.000000,578.209307,-575.843603,2.737843,0.000000,-0.000000,0.000000
-1.470000,0.270000,0.995177,0.020000,-4.423541,10840.950000,541.433993,-535.896961,-197.214652,0.000000,-0.000000,-0.000000,576.357247,-570.820215,7.076937,0.000000,-0.000000,0.000000
-1.430000,0.250000,0.952159,0.020000,-40.795993,10255.750000,557.666919,-557.798728,-201.071228,0.000000,-0.000000,-0.000000,592.804684,-592.936492,0.083215,0.000000,-0.000000,0.000000
-1.410000,0.250000,0.932490,0.020000,-57.858570,9971.750000,571.952688,-571.904066,-209.434932,0.000000,-0.000000,-0.000000,609.093320,-609.044698,-0.038232,0.000000,-0.000000,-0.000000
-1.410000,0.270000,0.936361,0.020000,-54.699339,9976.950000,563.152031,-563.141531,-223.895855,0.000000,-0.000000,-0.000000,606.028063,-606.017563,-0.012315,0.000000,-0.000000,-0.000000
-1.430000,0.270000,0.955950,0.020000,-37.721740,10260.950000,549.392876,-548.654809,-214.365590,0.000000,-0.000000,-0.000000,589.758081,-589.020015,0.579501,0.000000,-0.000000,0.000000
-1.390000,0.250000,0.912836,0.020000,-75.149934,9691.750000,586.950082,-586.915888,-218.215505,0.000000,-0.000000,-0.000000,626.202641,-626.168446,-0.028720,0.000000,-0.000000,-0.000000
-1.370000,0.250000,0.893198,0.020000,-92.676091,9415.750000,602.355998,-602.028009,-227.486692,0.000000,-0.000000,-0.000000,643.891723,-643.563734,-0.129077,0.000000,-0.000000,-0.000000
-1.370000,0.270000,0.897238,0.020000,-89.336179,9420.950000,592.531131,-592.215700,-243.071078,0.000000,-0.000000,-0.000000,640.462170,-640.146739,-0.134564,0.000000,-0.000000,-0.000000
-1.390000,0.270000,0.916790,0.020000,-71.902224,9696.950000,577.644669,-577.616377,-233.232697,0.000000,-0.000000,-0.000000,622.954361,-622.926069,-0.028309,0.000000,-0.000000,-0.000000
-1.350000,0.250000,0.873575,0.020000,-110.443265,9143.750000,618.019641,-620.284712,-235.194623,0.000000,-0.000000,-0.000000,661.182691,-663.447761,2.114155,0.000000,-0.000000,0.000000
-1.330000,0.250000,0.853971,0.020000,-128.457919,8875.750000,632.104505,-631.823559,-245.587255,0.000000,-0.000000,-0.000000,678.145797,-677.864850,0.647586,0.000000,-0.000000,0.000000
-1.330000,0.270000,0.858105,0.020000,-124.921580,8880.950000,624.494000,-622.723994,-268.057011,0.000000,-0.000000,-0.000000,679.655447,-677.885441,-3.664192,0.000000,-0.000000,-0.000000
-1.350000,0.270000,0.877706,0.020000,-107.007217,9148.950000,609.156506,-612.384885,-254.623707,0.000000,-0.000000,-0.000000,660.106340,-663.334718,-0.125462,0.000000,-0.000000,-0.000000
1.330000,0.250000,0.853755,0.020000,-128.397904,8875.750000,631.802928,-631.521947,245.398706,0.000000,-0.000000,0.000000,677.796340,-677.515359,-0.713754,0.000000,-0.000000,-0.000000
1.350000,0.250000,0.873445,0.020000,-110.391664,9143.750000,617.727352,-619.991053,235.016850,0.000000,-0.000000,0.000000,660.846171,-663.109872,-2.175228,0.000000,-0.000000,-0.000000
1.350000,0.270000,0.877131,0.020000,-106.957363,9148.950000,608.872987,-612.099047,254.432937,0.000000,-0.000000,0.000000,659.771346,-662.997406,0.058858,0.000000,-0.000000,0.000000
1.330000,0.270000,0.857525,0.020000,-124.863388,8880.950000,624.200022,-622.431466,267.853283,0.000000,-0.000000,0.000000,679.305241,-677.536685,3.590944,0.000000,-0.000000,0.000000
1.370000,0.250000,0.893150,0.020000,-92.632787,9415.750000,602.074031,-601.746269,227.317055,0.000000,-0.000000,0.000000,643.568005,-643.240244,0.069925,0.000000,-0.000000,0.000000
1.390000,0.250000,0.912867,0.020000,-75.114814,9691.750000,586.678407,-586.644240,218.054922,0.000000,-0.000000,0.000000,625.892036,-625.857869,-0.027143,0.000000,-0.000000,-0.000000
1.390000,0.270000,0.916394,0.020000,-71.868711,9696.950000,577.381982,-577.353714,233.062262,0.000000,-0.000000,0.000000,622.646970,-622.618702,-0.031396,0.000000,-0.000000,-0.000000
1.370000,0.270000,0.896755,0.020000,-89.294549,9420.950000,592.258774,-591.943555,242.891123,0.000000,-0.000000,0.000000,640.141891,-639.826673,0.071363,0.000000,-0.000000,0.000000
1.410000,0.250000,0.932596,0.020000,-57.831526,9971.750000,571.690932,-571.642341,209.282816,0.000000,-0.000000,0.000000,608.795222,-608.746631,-0.014624,0.000000,-0.000000,-0.000000
1.430000,0.250000,0.952337,0.020000,-40.776920,10255.750000,557.414540,-557.546281,200.927073,0.000000,-0.000000,0.000000,592.518368,-592.650108,-0.133180,0.000000,-0.000000,-0.000000
1.430000,0.270000,0.955718,0.020000,-37.704147,10260.950000,549.148388,-548.410508,214.212587,0.000000,-0.000000,0.000000,589.474631,-588.736751,-0.632858,0.000000,-0.000000,-0.000000
1.410000,0.270000,0.936049,0.020000,-54.673837,9976.950000,562.898682,-562.888203,223.734336,0.000000,-0.000000,0.000000,605.732966,-605.722487,-0.044186,0.000000,-0.000000,-0.000000
1.450000,0.250000,0.972088,0.020000,-23.945047,10543.750000,545.606808,-549.615400,194.506710,0.000000,-0.000000,0.000000,579.124580,-583.133173,-0.103631,0.000000,-0.000000,-0.000000
1.470000,0.250000,0.991849,0.020000,-7.328184,10835.750000,532.952356,-539.040656,190.558935,0.000000,-0.000000,0.000000,565.812504,-571.900804,2.658738,0.000000,-0.000000,0.000000
1.470000,0.270000,0.995096,0.020000,-4.421477,10840.950000,541.197928,-535.661976,197.074194,0.000000,-0.000000,0.000000,576.086642,-570.550690,-7.124532,0.000000,-0.000000,-0.000000
1.450000,0.270000,0.975401,0.020000,-20.954361,10548.950000,540.282864,-537.917380,204.991200,0.000000,-0.000000,0.000000,577.934473,-575.568990,-2.788110,0.000000,-0.000000,-0.000000
-1.470000,0.290000,0.999205,0.020000,-1.288526,10846.550000,527.803816,-503.255395,-200.230446,0.000000,-0.000000,-0.000000,565.222257,-540.673835,10.557662,0.000000,-0.000000,0.000000
-1.450000,0.290000,0.979665,0.020000,-17.756199,10554.550000,529.401895,-527.406325,-218.506791,0.000000,-0.000000,-0.000000,572.796498,-570.800929,1.533774,0.000000,-0.000000,0.000000
-1.450000,0.310000,0.983458,0.020000,-14.340314,10560.550000,521.855315,-525.969266,-237.927556,0.000000,-0.000000,-0.000000,573.343049,-577.457000,-2.902165,0.000000,-0.000000,-0.000000
-1.430000,0.290000,0.960068,0.020000,-34.427767,10266.550000,540.164047,-540.416727,-229.014991,0.000000,-0.000000,-0.000000,586.696781,-586.949461,-0.439524,0.000000,-0.000000,-0.000000
-1.410000,0.290000,0.940398,0.020000,-51.314871,9982.550000,553.791959,-553.719682,-237.923208,0.000000,-0.000000,-0.000000,602.740840,-602.668563,-0.069626,0.000000,-0.000000,-0.000000
-1.410000,0.310000,0.944259,0.020000,-47.708905,9988.550000,544.083002,-544.268163,-251.366346,0.000000,-0.000000,-0.000000,599.333895,-599.519056,0.063894,0.000000,-0.000000,0.000000
-1.430000,0.310000,0.963850,0.020000,-30.917839,10272.550000,531.827569,-535.353585,-244.108997,0.000000,-0.000000,-0.000000,585.013430,-588.539445,-1.232231,0.000000,-0.000000,-0.000000
-1.390000,0.290000,0.920742,0.020000,-68.423481,9702.550000,567.796848,-567.763372,-247.734755,0.000000,-0.000000,-0.000000,619.489708,-619.456232,-0.034472,0.000000,-0.000000,-0.000000
-1.370000,0.290000,0.901102,0.020000,-85.759220,9426.550000,582.144693,-581.841784,-258.102043,0.000000,-0.000000,-0.000000,636.808957,-636.506048,-0.139478,0.000000,-0.000000,-0.000000
-1.370000,0.310000,0.905131,0.020000,-81.949369,9432.550000,571.235333,-570.945868,-272.555771,0.000000,-0.000000,-0.000000,632.940988,-632.651523,-0.143416,0.000000,-0.000000,-0.000000
-1.390000,0.310000,0.924686,0.020000,-64.717640,9708.550000,557.457057,-557.439444,-261.691690,0.000000,-0.000000,-0.000000,615.826224,-615.808612,-0.028124,0.000000,-0.000000,-0.000000
-1.350000,0.290000,0.881478,0.020000,-103.327885,9154.550000,597.132942,-598.279122,-267.980086,0.000000,-0.000000,-0.000000,654.457107,-655.603286,1.126215,0.000000,-0.000000,0.000000
-1.330000,0.290000,0.861870,0.020000,-121.135483,8886.550000,609.511206,-609.156573,-279.004039,0.000000,-0.000000,-0.000000,670.349715,-669.995081,-0.013946,0.000000,-0.000000,-0.000000
-1.330000,0.310000,0.866082,0.020000,-117.104267,8892.550000,600.323719,-600.712086,-296.984427,0.000000,-0.000000,-0.000000,669.746677,-670.135045,-0.862459,0.000000,-0.000000,-0.000000
-1.350000,0.310000,0.885596,0.020000,-99.409657,9160.550000,586.977404,-589.792443,-285.244704,0.000000,-0.000000,-0.000000,652.474243,-655.289282,0.016535,0.000000,-0.000000,0.000000
1.330000,0.290000,0.861744,0.020000,-121.079230,8886.550000,609.232197,-608.877532,278.793149,0.000000,-0.000000,0.000000,670.008239,-669.653574,-0.061643,0.000000,-0.000000,-0.000000
1.350000,0.290000,0.881256,0.020000,-103.279891,9154.550000,596.861367,-598.007119,267.780586,0.000000,-0.000000,0.000000,654.127579,-655.273330,-1.196497,0.000000,-0.000000,-0.000000
1.350000,0.310000,0.885813,0.020000,-99.363631,9160.550000,586.715628,-589.528744,285.034529,0.000000,-0.000000,0.000000,652.147097,-654.960213,-0.091034,0.000000,-0.000000,-0.000000
1.330000,0.310000,0.866404,0.020000,-117.050068,8892.550000,600.053900,-600.441922,296.762674,0.000000,-0.000000,0.000000,669.406636,-669.794658,0.782935,0.000000,-0.000000,0.000000
1.370000,0.290000,0.900789,0.020000,-85.719374,9426.550000,581.882399,-581.579686,257.912434,0.000000,-0.000000,0.000000,636.492322,-636.189609,0.072374,0.000000,-0.000000,0.000000
1.390000,0.290000,0.920343,0.020000,-68.391679,9702.550000,567.543583,-567.510130,247.555080,0.000000,-0.000000,0.000000,619.185726,-619.152273,-0.028948,0.000000,-0.000000,-0.000000
1.390000,0.310000,0.924707,0.020000,-64.687652,9708.550000,557.213592,-557.195994,261.503410,0.000000,-0.000000,0.000000,615.525828,-615.508231,-0.038867,0.000000,-0.000000,-0.000000
1.370000,0.310000,0.905248,0.020000,-81.911412,9432.550000,570.983501,-570.694218,272.357189,0.000000,-0.000000,0.000000,632.628188,-632.338905,0.072557,0.000000,-0.000000,0.000000
1.410000,0.290000,0.939915,0.020000,-51.291013,9982.550000,553.547434,-553.475186,237.752830,0.000000,-0.000000,0.000000,602.448922,-602.376674,0.009574,0.000000,-0.000000,0.000000
1.430000,0.290000,0.959505,0.020000,-34.411753,10266.550000,539.927859,-540.179522,228.852469,0.000000,-0.000000,0.000000,586.415979,-586.667642,0.382053,0.000000,-0.000000,0.000000
1.430000,0.310000,0.963692,0.020000,-30.903499,10272.550000,531.599264,-535.122083,243.937630,0.000000,-0.000000,0.000000,584.734799,-588.257618,1.171453,0.000000,-0.000000,0.000000
1.410000,0.310000,0.944189,0.020000,-47.686788,9988.550000,543.847599,-544.032649,251.187731,0.000000,-0.000000,0.000000,599.045288,-599.230337,-0.127276,0.000000,-0.000000,-0.000000
1.450000,0.290000,0.979112,0.020000,-17.747936,10554.550000,529.172703,-527.175333,218.351721,0.000000,-0.000000,0.000000,572.525363,-570.527993,-1.588418,0.000000,-0.000000,-0.000000
1.470000,0.290000,0.998734,0.020000,-1.287925,10846.550000,527.576149,-503.035746,200.085333,0.000000,-0.000000,0.000000,564.956236,-540.415833,-10.606962,0.000000,-0.000000,-0.000000
1.450000,0.310000,0.983215,0.020000,-14.333659,10560.550000,521.633672,-525.739744,237.761224,0.000000,-0.000000,0.000000,573.073113,-577.179185,2.842613,0.000000,-0.000000,0.000000
-1.450000,0.330000,0.987556,0.020000,-10.711519,10566.950000,510.830203,-524.107951,-249.870690,0.000000,-0.000000,-0.000000,567.998280,-581.276028,-1.322375,0.000000,-0.000000,-0.000000
-1.450000,0.350000,0.992040,0.020000,-6.889970,10573.750000,520.377731,-513.085074,-255.478072,0.000000,-0.000000,-0.000000,580.023147,-572.730489,8.375636,0.000000,-0.000000,0.000000
-1.430000,0.330000,0.968031,0.020000,-27.195244,10278.950000,523.431421,-528.060749,-255.939095,0.000000,-0.000000,-0.000000,582.419173,-587.048501,0.325503,0.000000,-0.000000,0.000000
-1.410000,0.330000,0.948526,0.020000,-43.885350,9994.950000,533.940813,-534.213936,-264.429614,0.000000,-0.000000,-0.000000,595.817850,-596.090973,0.045911,0.000000,-0.000000,0.000000
-1.410000,0.350000,0.953194,0.020000,-39.848335,10001.750000,523.301711,-522.848528,-276.086467,0.000000,-0.000000,-0.000000,591.691713,-591.238530,0.572458,0.000000,-0.000000,0.000000
-1.430000,0.350000,0.972605,0.020000,-23.264760,10285.750000,515.672480,-513.979614,-265.162782,0.000000,-0.000000,-0.000000,579.940988,-578.248122,2.580022,0.000000,-0.000000,0.000000
-1.390000,0.330000,0.929043,0.020000,-60.788839,9714.950000,546.635747,-546.594013,-275.097115,0.000000,-0.000000,-0.000000,611.957340,-611.915607,-0.045355,0.000000,-0.000000,-0.000000
-1.370000,0.330000,0.909581,0.020000,-77.910991,9438.950000,559.967571,-559.927453,-286.411596,0.000000,-0.000000,-0.000000,628.965857,-628.925739,-0.035835,0.000000,-0.000000,-0.000000
-1.370000,0.350000,0.914448,0.020000,-73.648644,9445.750000,548.128526,-548.107346,-299.658234,0.000000,-0.000000,-0.000000,624.693171,-624.671991,-0.037664,0.000000,-0.000000,-0.000000
-1.390000,0.350000,0.933808,0.020000,-56.641401,9721.750000,535.411381,-535.426645,-287.908030,0.000000,-0.000000,-0.000000,607.910581,-607.925845,-0.017362,0.000000,-0.000000,-0.000000
-1.350000,0.330000,0.890144,0.020000,-95.257142,9166.950000,573.531355,-573.595779,-298.556870,0.000000,-0.000000,-0.000000,646.583041,-646.647465,-0.290936,0.000000,-0.000000,-0.000000
-1.330000,0.330000,0.870732,0.020000,-112.832802,8898.950000,585.844698,-585.377885,-310.828645,0.000000,-0.000000,-0.000000,663.222078,-662.755266,-1.025646,0.000000,-0.000000,-0.000000
-1.330000,0.350000,0.875815,0.020000,-108.326163,8905.750000,574.574401,-574.196042,-324.872343,0.000000,-0.000000,-0.000000,660.083427,-659.705068,-0.061956,0.000000,-0.000000,-0.000000
-1.350000,0.350000,0.895116,0.020000,-90.875147,9173.750000,561.241556,-561.251444,-312.066724,0.000000,-0.000000,-0.000000,642.165804,-642.175691,-0.069660,0.000000,-0.000000,-0.000000
-1.310000,0.330000,0.851347,0.020000,-130.643666,8634.950000,601.972415,-603.415825,-321.242401,0.000000,-0.000000,-0.000000,682.235100,-683.678511,2.623863,0.000000,-0.000000,0.000000
-1.290000,0.330000,0.831992,0.020000,-148.695622,8374.950000,612.717318,-612.862897,-337.902554,0.000000,-0.000000,-0.000000,699.702399,-699.847978,-2.130036,0.000000,-0.000000,-0.000000
-1.290000,0.350000,0.837310,0.020000,-143.923584,8381.750000,604.133050,-601.705716,-358.122238,0.000000,-0.000000,-0.000000,702.458994,-700.031660,-4.279100,0.000000,-0.000000,-0.000000
-1.310000,0.350000,0.856545,0.020000,-126.007111,8641.750000,593.977007,-594.365845,-338.649526,0.000000,-0.000000,-0.000000,683.702677,-684.091514,2.819163,0.000000,-0.000000,0.000000
1.290000,0.330000,0.832247,0.020000,-148.627099,8374.950000,612.446308,-612.591507,337.644910,0.000000,-0.000000,0.000000,699.340983,-699.486182,2.034273,0.000000,-0.000000,0.000000
1.310000,0.330000,0.851716,0.020000,-130.583438,8634.950000,601.707352,-603.150179,321.001728,0.000000,-0.000000,0.000000,681.887686,-683.330513,-2.710101,0.000000,-0.000000,-0.000000
1.310000,0.350000,0.856463,0.020000,-125.949243,8641.750000,593.720065,-594.109058,338.398771,0.000000,-0.000000,0.000000,683.354899,-683.743892,-2.908393,0.000000,-0.000000,-0.000000
1.290000,0.350000,0.837105,0.020000,-143.857523,8381.750000,603.869966,-601.445046,357.853160,0.000000,-0.000000,0.000000,702.095822,-699.670902,4.179281,0.000000,-0.000000,0.000000
1.330000,0.330000,0.871210,0.020000,-112.780763,8898.950000,585.589008,-585.122064,310.598020,0.000000,-0.000000,0.000000,662.888244,-662.421301,0.941327,0.000000,-0.000000,0.000000
1.350000,0.330000,0.890725,0.020000,-95.213188,9166.950000,573.282306,-573.346693,298.338548,0.000000,-0.000000,0.000000,646.261361,-646.325749,0.212134,0.000000,-0.000000,0.000000
1.350000,0.350000,0.895265,0.020000,-90.833366,9173.750000,561.004167,-561.014204,311.840838,0.000000,-0.000000,0.000000,641.848558,-641.858595,-0.012471,0.000000,-0.000000,-0.000000
1.330000,0.350000,0.875851,0.020000,-108.276387,8905.750000,574.329691,-573.951595,324.634146,0.000000,-0.000000,0.000000,659.753151,-659.375055,-0.024998,0.000000,-0.000000,-0.000000
1.370000,0.330000,0.910125,0.020000,-77.875024,9438.950000,559.726471,-559.686381,286.204743,0.000000,-0.000000,0.000000,628.657012,-628.616922,-0.038556,0.000000,-0.000000,-0.000000
1.390000,0.330000,0.929482,0.020000,-60.760762,9714.950000,546.402419,-546.360708,274.900874,0.000000,-0.000000,0.000000,611.660703,-611.618992,-0.025072,0.000000,-0.000000,-0.000000
1.390000,0.350000,0.934168,0.020000,-56.615327,9721.750000,535.188466,-535.203730,287.704495,0.000000,-0.000000,0.000000,607.617858,-607.633122,-0.056337,0.000000,-0.000000,-0.000000
1.370000,0.350000,0.914705,0.020000,-73.614763,9445.750000,547.898527,-547.877360,299.443814,0.000000,-0.000000,0.000000,624.388510,-624.367342,-0.040167,0.000000,-0.000000,-0.000000
1.410000,0.330000,0.948866,0.020000,-43.865068,9994.950000,533.714875,-533.987864,264.243305,0.000000,-0.000000,0.000000,595.532706,-595.805695,-0.112573,0.000000,-0.000000,-0.000000
1.430000,0.330000,0.968274,0.020000,-27.182669,10278.950000,523.211727,-527.837963,255.760464,0.000000,-0.000000,0.000000,582.143575,-586.769811,-0.389121,0.000000,-0.000000,-0.000000
1.430000,0.350000,0.973160,0.020000,-23.254036,10285.750000,515.460953,-513.768256,264.978110,0.000000,-0.000000,0.000000,579.668072,-577.975376,-2.646166,0.000000,-0.000000,-0.000000
1.410000,0.350000,0.953654,0.020000,-39.829979,10001.750000,523.085611,-522.632447,275.893268,0.000000,-0.000000,0.000000,591.410350,-590.957186,-0.642178,0.000000,-0.000000,-0.000000
1.450000,0.330000,0.987707,0.020000,-10.706563,10566.950000,510.617834,-523.884172,249.697464,0.000000,-0.000000,0.000000,567.732425,-580.998762,1.260584,0.000000,-0.000000,0.000000
1.450000,0.350000,0.992581,0.020000,-6.886792,10573.750000,520.165208,-512.875339,255.300053,0.000000,-0.000000,0.000000,579.752662,-572.462793,-8.437741,0.000000,-0.000000,-0.000000
-1.450000,0.370000,0.996905,0.020000,-2.847253,10580.950000,501.914008,-474.433076,-256.037835,0.000000,-0.000000,-0.000000,564.907078,-537.426146,9.173101,0.000000,-0.000000,0.000000
-1.430000,0.370000,0.977567,0.020000,-19.128584,10292.950000,502.197038,-500.362406,-277.112699,0.000000,-0.000000,-0.000000,573.693174,-571.858543,0.789794,0.000000,-0.000000,0.000000
-1.410000,0.370000,0.958257,0.020000,-35.602073,10008.950000,511.868685,-512.365155,-289.168255,0.000000,-0.000000,-0.000000,587.868942,-588.365411,-0.454344,0.000000,-0.000000,-0.000000
-1.410000,0.390000,0.963708,0.020000,-31.151103,10016.550000,500.858055,-504.902851,-303.002124,0.000000,-0.000000,-0.000000,585.086399,-589.131195,-1.515735,0.000000,-0.000000,-0.000000
-1.430000,0.390000,0.982911,0.020000,-14.795008,10300.550000,491.734311,-497.013223,-296.011749,0.000000,-0.000000,-0.000000,573.565446,-578.844358,-4.035748,0.000000,-0.000000,-0.000000
-1.390000,0.370000,0.938975,0.020000,-52.279820,9728.950000,523.760095,-523.680607,-300.166672,0.000000,-0.000000,-0.000000,603.681219,-603.601732,-0.077553,0.000000,-0.000000,-0.000000
-1.370000,0.370000,0.919724,0.020000,-69.167064,9452.950000,535.875855,-535.850333,-312.267150,0.000000,-0.000000,-0.000000,620.222424,-620.196902,-0.043120,0.000000,-0.000000,-0.000000
-1.370000,0.390000,0.925402,0.020000,-64.471150,9460.550000,523.267305,-523.259631,-324.230499,0.000000,-0.000000,-0.000000,615.576800,-615.569125,-0.036187,0.000000,-0.000000,-0.000000
-1.390000,0.390000,0.944537,0.020000,-47.708746,9736.550000,511.797347,-512.006781,-311.782537,0.000000,-0.000000,-0.000000,599.271686,-599.481121,0.015019,0.000000,-0.000000,0.000000
-1.350000,0.370000,0.900505,0.020000,-86.268668,9180.950000,548.350208,-548.328541,-325.032674,0.000000,-0.000000,-0.000000,637.444993,-637.423326,-0.042890,0.000000,-0.000000,-0.000000
-1.330000,0.370000,0.881322,0.020000,-103.589620,8912.950000,561.052538,-560.804976,-338.482149,0.000000,-0.000000,-0.000000,655.265906,-655.018344,-0.176716,0.000000,-0.000000,-0.000000
-1.330000,0.390000,0.886819,0.020000,-98.628616,8920.550000,547.084070,-546.838626,-351.144793,0.000000,-0.000000,-0.000000,650.099149,-649.853705,-0.163040,0.000000,-0.000000,-0.000000
-1.350000,0.390000,0.906128,0.020000,-81.442866,9188.550000,535.067578,-535.048834,-337.346471,0.000000,-0.000000,-0.000000,632.535990,-632.517247,-0.044188,0.000000,-0.000000,-0.000000
-1.310000,0.370000,0.862175,0.020000,-121.135060,8648.950000,573.040299,-574.849149,-350.690144,0.000000,-0.000000,-0.000000,671.698129,-673.506980,1.388095,0.000000,-0.000000,0.000000
-1.290000,0.370000,0.843008,0.020000,-138.910280,8388.950000,583.814843,-584.389207,-366.390288,0.000000,-0.000000,-0.000000,689.216861,-689.791225,-1.092423,0.000000,-0.000000,-0.000000
-1.290000,0.390000,0.848299,0.020000,-133.661772,8396.550000,573.538157,-571.691127,-384.349782,0.000000,-0.000000,-0.000000,690.564573,-688.717542,-2.737593,0.000000,-0.000000,-0.000000
-1.310000,0.390000,0.867542,0.020000,-116.033255,8656.550000,560.847710,-563.735107,-366.322832,0.000000,-0.000000,-0.000000,669.647423,-672.534819,0.867387,0.000000,-0.000000,0.000000
1.290000,0.370000,0.842409,0.020000,-138.846785,8388.950000,583.572273,-584.145716,366.117083,0.000000,-0.000000,0.000000,688.866429,-689.439872,0.989569,0.000000,-0.000000,0.000000
1.310000,0.370000,0.861649,0.020000,-121.079653,8648.950000,572.802729,-574.610835,350.432368,0.000000,-0.000000,0.000000,671.360862,-673.168968,-1.483302,0.000000,-0.000000,-0.000000
1.310000,0.390000,0.867264,0.020000,-115.980405,8656.550000,560.621631,-563.507276,366.057168,0.000000,-0.000000,0.000000,669.312995,-672.198641,-0.965661,0.000000,-0.000000,-0.000000
1.290000,0.390000,0.848152,0.020000,-133.600941,8396.550000,573.305341,-571.459696,384.067560,0.000000,-0.000000,0.000000,690.214281,-688.368637,2.631241,0.000000,-0.000000,0.000000
1.330000,0.370000,0.880922,0.020000,-103.542207,8912.950000,560.820622,-560.573186,338.236495,0.000000,-0.000000,0.000000,654.940439,-654.693002,0.086089,0.000000,-0.000000,0.000000
1.350000,0.370000,0.900227,0.020000,-86.229155,9180.950000,548.124974,-548.103318,324.799599,0.000000,-0.000000,0.000000,637.132398,-637.110742,-0.042782,0.000000,-0.000000,-0.000000
1.350000,0.390000,0.905603,0.020000,-81.405710,9188.550000,534.854615,-534.835878,337.107112,0.000000,-0.000000,0.000000,632.228192,-632.209455,-0.044730,0.000000,-0.000000,-0.000000
1.330000,0.390000,0.886415,0.020000,-98.583657,8920.550000,546.865203,-546.619875,350.892709,0.000000,-0.000000,0.000000,649.778798,-649.533470,0.069038,0.000000,-0.000000,0.000000
1.370000,0.370000,0.919562,0.020000,-69.135361,9452.950000,535.657199,-535.631690,312.045885,0.000000,-0.000000,0.000000,619.922106,-619.896597,-0.037987,0.000000,-0.000000,-0.000000
1.390000,0.370000,0.938924,0.020000,-52.255838,9728.950000,523.547831,-523.468371,299.956486,0.000000,-0.000000,0.000000,603.392550,-603.313090,0.000701,0.000000,-0.000000,0.000000
1.390000,0.390000,0.944080,0.020000,-47.686942,9736.550000,511.595906,-511.805235,311.566391,0.000000,-0.000000,0.000000,598.987216,-599.196545,-0.094800,0.000000,-0.000000,-0.000000
1.370000,0.390000,0.924825,0.020000,-64.441711,9460.550000,523.060175,-523.052503,324.003108,0.000000,-0.000000,0.000000,615.280965,-615.273293,-0.048025,0.000000,-0.000000,-0.000000
1.410000,0.370000,0.958313,0.020000,-35.585730,10008.950000,511.662650,-512.157921,288.967517,0.000000,-0.000000,0.000000,587.590966,-588.086236,0.380929,0.000000,-0.000000,0.000000
1.430000,0.370000,0.977726,0.020000,-19.119796,10292.950000,501.996643,-500.160035,276.920433,0.000000,-0.000000,0.000000,573.424800,-571.588192,-0.860258,0.000000,-0.000000,-0.000000
1.430000,0.390000,0.982679,0.020000,-14.788234,10300.550000,491.543305,-496.814394,295.809667,0.000000,-0.000000,0.000000,573.298834,-578.569923,3.960604,0.000000,-0.000000,0.000000
1.410000,0.390000,0.963365,0.020000,-31.136854,10016.550000,500.661846,-504.703392,302.794440,0.000000,-0.000000,0.000000,584.811586,-588.853132,1.439234,0.000000,-0.000000,0.000000
1.450000,0.370000,0.997163,0.020000,-2.845943,10580.950000,501.713800,-474.243177,255.857446,0.000000,-0.000000,0.000000,564.644286,-537.173663,-9.237976,0.000000,-0.000000,-0.000000
-1.430000,0.410000,0.988580,0.020000,-10.259132,10308.550000,479.913357,-491.014810,-305.437674,0.000000,-0.000000,-0.000000,568.003367,-579.104819,-1.803092,0.000000,-0.000000,-0.000000
-1.410000,0.410000,0.969264,0.020000,-26.499699,10024.550000,491.515829,-495.460356,-312.775134,0.000000,-0.000000,-0.000000,582.286589,-586.231116,0.612276,0.000000,-0.000000,0.000000
-1.410000,0.430000,0.974690,0.020000,-21.653258,10032.950000,482.099563,-478.265693,-318.577490,0.000000,-0.000000,-0.000000,578.158251,-574.324381,3.594351,0.000000,-0.000000,0.000000
-1.430000,0.430000,0.993901,0.020000,-5.547706,10316.950000,497.032091,-480.986735,-305.022948,0.000000,-0.000000,-0.000000,584.161672,-568.116316,15.266433,0.000000,-0.000000,0.000000
-1.390000,0.410000,0.949975,0.020000,-42.932974,9744.550000,499.785463,-500.146348,-322.978034,0.000000,-0.000000,-0.000000,595.034404,-595.395289,0.060893,0.000000,-0.000000,0.000000
-1.370000,0.410000,0.930717,0.020000,-59.565945,9468.550000,510.318524,-510.277640,-335.547268,0.000000,-0.000000,-0.000000,610.754508,-610.713623,-0.055895,0.000000,-0.000000,-0.000000
-1.370000,0.430000,0.936367,0.020000,-54.456621,9476.950000,497.116796,-497.176125,-346.197591,0.000000,-0.000000,-0.000000,605.781672,-605.841001,-0.013757,0.000000,-0.000000,-0.000000
-1.390000,0.430000,0.955512,0.020000,-37.957419,9752.950000,487.130686,-486.466987,-332.073760,0.000000,-0.000000,-0.000000,589.607192,-588.943493,0.812497,0.000000,-0.000000,0.000000
-1.350000,0.410000,0.911491,0.020000,-76.403051,9196.550000,521.452191,-521.434838,-348.966772,0.000000,-0.000000,-0.000000,627.448829,-627.431475,-0.046547,0.000000,-0.000000,-0.000000
-1.330000,0.410000,0.892299,0.020000,-93.448746,8928.550000,532.757848,-532.529060,-363.077524,0.000000,-0.000000,-0.000000,644.733903,-644.505115,-0.161874,0.000000,-0.000000,-0.000000
-1.330000,0.430000,0.898191,0.020000,-88.055741,8936.950000,518.137804,-517.920960,-374.269459,0.000000,-0.000000,-0.000000,639.195303,-638.978459,-0.164201,0.000000,-0.000000,-0.000000
-1.350000,0.430000,0.917260,0.020000,-71.154669,9204.950000,507.551226,-507.539164,-359.887620,0.000000,-0.000000,-0.000000,622.196694,-622.184633,-0.045828,0.000000,-0.000000,-0.000000
-1.310000,0.410000,0.873143,0.020000,-110.707594,8664.550000,544.082277,-544.467524,-377.025205,0.000000,-0.000000,-0.000000,661.912259,-662.297507,0.544041,0.000000,-0.000000,0.000000
-1.290000,0.410000,0.854026,0.020000,-128.184280,8404.550000,552.890656,-553.093211,-392.932327,0.000000,-0.000000,-0.000000,678.274308,-678.476863,-1.567456,0.000000,-0.000000,-0.000000
-1.290000,0.430000,0.860180,0.020000,-122.484170,8412.950000,540.362205,-540.834337,-405.772247,0.000000,-0.000000,-0.000000,675.705899,-676.178031,-0.258835,0.000000,-0.000000,-0.000000
-1.310000,0.430000,0.879163,0.020000,-105.164116,8672.950000,530.595700,-533.001674,-390.044796,0.000000,-0.000000,-0.000000,658.299705,-660.705678,0.993061,0.000000,-0.000000,0.000000
1.290000,0.410000,0.854324,0.020000,-128.126207,8404.550000,552.677327,-552.879259,392.646097,0.000000,-0.000000,0.000000,677.934929,-678.136862,1.457091,0.000000,-0.000000,0.000000
1.310000,0.410000,0.873301,0.020000,-110.657391,8664.550000,543.871950,-544.257601,376.754359,0.000000,-0.000000,0.000000,661.585014,-661.970665,-0.646765,0.000000,-0.000000,-0.000000
1.310000,0.430000,0.879752,0.020000,-105.116644,8672.950000,530.397652,-532.802317,389.768701,0.000000,-0.000000,0.000000,657.976686,-660.381352,-1.097689,0.000000,-0.000000,-0.000000
1.290000,0.430000,0.860691,0.020000,-122.428940,8412.950000,540.160624,-540.632355,405.481622,0.000000,-0.000000,0.000000,675.370299,-675.842030,0.147404,0.000000,-0.000000,0.000000
1.330000,0.410000,0.892323,0.020000,-93.406329,8928.550000,532.552164,-532.323473,362.819827,0.000000,-0.000000,0.000000,644.418818,-644.190127,0.064685,0.000000,-0.000000,0.000000
1.350000,0.410000,0.911387,0.020000,-76.368338,9196.550000,521.251627,-521.234278,348.721897,0.000000,-0.000000,0.000000,627.145960,-627.128611,-0.045435,0.000000,-0.000000,-0.000000
1.350000,0.430000,0.917570,0.020000,-71.122478,9204.950000,507.363133,-507.351072,359.637988,0.000000,-0.000000,0.000000,621.898874,-621.886813,-0.049032,0.000000,-0.000000,-0.000000
1.330000,0.430000,0.898637,0.020000,-88.015948,8936.950000,517.945367,-517.728609,374.006961,0.000000,-0.000000,0.000000,638.885608,-638.668850,0.064019,0.000000,-0.000000,0.000000
1.370000,0.410000,0.930489,0.020000,-59.538854,9468.550000,510.123058,-510.082189,335.314463,0.000000,-0.000000,0.000000,610.463285,-610.422417,-0.031263,0.000000,-0.000000,-0.000000
1.390000,0.410000,0.949629,0.020000,-42.913429,9744.550000,499.594872,-499.955596,322.756506,0.000000,-0.000000,0.000000,594.754110,-595.114834,-0.143480,0.000000,-0.000000,-0.000000
1.390000,0.430000,0.955565,0.020000,-37.940208,9752.950000,486.951305,-486.287673,331.847941,0.000000,-0.000000,0.000000,589.331626,-588.667995,-0.897598,0.000000,-0.000000,-0.000000
1.370000,0.430000,0.936546,0.020000,-54.431957,9476.950000,496.933069,-496.992368,345.960085,0.000000,-0.000000,0.000000,605.495180,-605.554478,-0.076153,0.000000,-0.000000,-0.000000
1.410000,0.410000,0.968804,0.020000,-26.487623,10024.550000,491.329225,-495.271377,312.562394,0.000000,-0.000000,0.000000,582.015191,-585.957343,-0.691147,0.000000,-0.000000,-0.000000
1.430000,0.410000,0.988011,0.020000,-10.254452,10308.550000,479.732669,-490.824936,305.231067,0.000000,-0.000000,0.000000,567.741352,-578.833619,1.726047,0.000000,-0.000000,0.000000
1.430000,0.430000,0.993718,0.020000,-5.545185,10316.950000,496.847969,-480.810096,304.815609,0.000000,-0.000000,0.000000,583.893112,-567.855238,-15.339901,0.000000,-0.000000,-0.000000
1.410000,0.430000,0.974623,0.020000,-21.643429,10032.950000,481.922400,-478.089959,318.361525,0.000000,-0.000000,0.000000,577.890601,-574.058159,-3.675100,0.000000,-0.000000,-0.000000
-1.430000,0.450000,0.999594,0.020000,-0.613574,10325.750000,468.621848,-421.840641,-297.928827,0.000000,-0.000000,-0.000000,558.999950,-512.218743,10.727303,0.000000,-0.000000,0.000000
-1.410000,0.450000,0.980495,0.020000,-16.614644,10041.750000,465.685693,-458.655853,-327.957576,0.000000,-0.000000,-0.000000,570.222807,-563.192967,0.407954,0.000000,-0.000000,0.000000
-1.410000,0.470000,0.986671,0.020000,-11.394191,10050.950000,449.464853,-453.840790,-350.839883,0.000000,-0.000000,-0.000000,569.638219,-574.014155,-9.680214,0.000000,-0.000000,-0.000000
-1.390000,0.450000,0.961432,0.020000,-32.787122,9761.750000,473.735978,-473.197784,-342.969633,0.000000,-0.000000,-0.000000,584.904780,-584.366586,-0.418443,0.000000,-0.000000,-0.000000
-1.370000,0.450000,0.942408,0.020000,-49.148471,9485.750000,483.633860,-483.492143,-356.209401,0.000000,-0.000000,-0.000000,600.669146,-600.527430,-0.098028,0.000000,-0.000000,-0.000000
-1.370000,0.470000,0.948832,0.020000,-43.646867,9494.950000,469.721225,-470.147253,-365.753812,0.000000,-0.000000,-0.000000,595.281723,-595.707751,-0.241682,0.000000,-0.000000,-0.000000
-1.390000,0.470000,0.967730,0.020000,-27.427199,9770.950000,458.777273,-464.058913,-357.310081,0.000000,-0.000000,-0.000000,580.935582,-586.217221,-3.966619,0.000000,-0.000000,-0.000000
-1.350000,0.450000,0.923425,0.020000,-65.703277,9213.750000,493.396605,-493.378833,-370.106880,0.000000,-0.000000,-0.000000,616.783190,-616.765418,-0.052873,0.000000,-0.000000,-0.000000
-1.330000,0.450000,0.904486,0.020000,-82.455450,8945.750000,503.365437,-503.339716,-384.713861,0.000000,-0.000000,-0.000000,633.549417,-633.523696,-0.052125,0.000000,-0.000000,-0.000000
-1.330000,0.470000,0.911178,0.020000,-76.653820,8954.950000,488.295361,-488.286062,-394.421985,0.000000,-0.000000,-0.000000,627.696069,-627.686770,-0.052360,0.000000,-0.000000,-0.000000
-1.350000,0.470000,0.929980,0.020000,-60.054535,9222.950000,479.055899,-479.064522,-379.624077,0.000000,-0.000000,-0.000000,611.234696,-611.243318,-0.038424,0.000000,-0.000000,-0.000000
-1.310000,0.450000,0.885594,0.020000,-99.408976,8681.750000,513.401114,-513.451272,-400.245865,0.000000,-0.000000,-0.000000,650.976569,-651.026726,-0.251569,0.000000,-0.000000,-0.000000
-1.290000,0.450000,0.866752,0.020000,-116.567922,8421.750000,521.520844,-521.811402,-416.761800,0.000000,-0.000000,-0.000000,667.554097,-667.844655,-1.866859,0.000000,-0.000000,-0.000000
-1.290000,0.470000,0.873732,0.020000,-110.442118,8430.950000,507.030754,-506.712639,-426.040547,0.000000,-0.000000,-0.000000,662.299111,-661.980996,-0.121538,0.000000,-0.000000,-0.000000
-1.310000,0.470000,0.892427,0.020000,-93.448427,8690.950000,497.802206,-497.593424,-409.767140,0.000000,-0.000000,-0.000000,644.784324,-644.575541,0.093578,0.000000,-0.000000,0.000000
-1.270000,0.450000,0.847962,0.020000,-133.936439,8165.750000,532.934981,-533.589778,-429.965803,0.000000,-0.000000,-0.000000,684.680959,-685.335756,1.704931,0.000000,-0.000000,0.000000
-1.250000,0.450000,0.829229,0.020000,-151.518752,7913.750000,540.042446,-540.586923,-452.064244,0.000000,-0.000000,-0.000000,704.203822,-704.748299,-3.939576,0.000000,-0.000000,-0.000000
-1.250000,0.470000,0.836412,0.020000,-145.042106,7922.950000,529.922312,-526.839647,-465.668373,0.000000,-0.000000,-0.000000,705.834402,-702.751737,-2.182931,0.000000,-0.000000,-0.000000
-1.270000,0.470000,0.855096,0.020000,-127.638717,8174.950000,522.361524,-522.096855,-442.270211,0.000000,-0.000000,-0.000000,684.462801,-684.198133,4.251866,0.000000,-0.000000,0.000000
1.250000,0.450000,0.828989,0.020000,-151.450933,7913.750000,539.853154,-540.396857,451.735913,0.000000,-0.000000,0.000000,703.848777,-704.392480,3.807485,0.000000,-0.000000,0.000000
1.270000,0.450000,0.847883,0.020000,-133.876415,8165.750000,532.747136,-533.402246,429.658314,0.000000,-0.000000,0.000000,684.341387,-684.996497,-1.825650,0.000000,-0.000000,-0.000000
1.270000,0.470000,0.854579,0.020000,-127.581813,8174.950000,522.183578,-521.919741,441.959106,0.000000,-0.000000,0.000000,684.125097,-683.861260,-4.372448,0.000000,-0.000000,-0.000000
1.250000,0.470000,0.835837,0.020000,-144.977536,7922.950000,529.741650,-526.661802,465.336951,0.000000,-0.000000,0.000000,705.479788,-702.399940,2.051713,0.000000,-0.000000,0.000000
1.290000,0.450000,0.866826,0.020000,-116.515616,8421.750000,521.336448,-521.626092,416.466185,0.000000,-0.000000,0.000000,667.225940,-667.515585,1.750360,0.000000,-0.000000,0.000000
1.310000,0.450000,0.885816,0.020000,-99.364313,8681.750000,513.218343,-513.268478,399.965633,0.000000,-0.000000,0.000000,650.660176,-650.710310,0.142813,0.000000,-0.000000,0.000000
1.310000,0.470000,0.892227,0.020000,-93.406647,8690.950000,497.633233,-497.424805,409.484211,0.000000,-0.000000,0.000000,644.473985,-644.265557,-0.204668,0.000000,-0.000000,-0.000000
1.290000,0.470000,0.873377,0.020000,-110.392810,8430.950000,506.859458,-506.541510,425.743108,0.000000,-0.000000,0.000000,661.976604,-661.658655,0.003951,0.000000,-0.000000,0.000000
1.330000,0.450000,0.904849,0.020000,-82.418358,8945.750000,503.186218,-503.160505,384.447364,0.000000,-0.000000,0.000000,633.245203,-633.219490,-0.050808,0.000000,-0.000000,-0.000000
1.350000,0.450000,0.923923,0.020000,-65.673684,9213.750000,493.221009,-493.203239,369.853238,0.000000,-0.000000,0.000000,616.490527,-616.472757,-0.044684,0.000000,-0.000000,-0.000000
1.350000,0.470000,0.930072,0.020000,-60.027610,9222.950000,478.892765,-478.901372,379.367154,0.000000,-0.000000,0.000000,610.947279,-610.955886,-0.061635,0.000000,-0.000000,-0.000000
1.330000,0.470000,0.911126,0.020000,-76.619501,8954.950000,488.129350,-488.120045,394.152264,0.000000,-0.000000,0.000000,627.397452,-627.388147,-0.053167,0.000000,-0.000000,-0.000000
1.370000,0.450000,0.942989,0.020000,-49.126307,9485.750000,483.461904,-483.320235,355.967874,0.000000,-0.000000,0.000000,600.387462,-600.245794,0.005492,0.000000,-0.000000,0.000000
1.390000,0.450000,0.961880,0.020000,-32.772318,9761.750000,473.567823,-473.028889,342.738790,0.000000,-0.000000,0.000000,584.633312,-584.094378,0.330164,0.000000,-0.000000,0.000000
1.390000,0.470000,0.968090,0.020000,-27.414868,9770.950000,458.621214,-463.899129,357.073442,0.000000,-0.000000,0.000000,580.668319,-585.946233,3.874377,0.000000,-0.000000,0.000000
1.370000,0.470000,0.949060,0.020000,-43.627271,9494.950000,469.561193,-469.987002,365.508852,0.000000,-0.000000,0.000000,595.005040,-595.430850,0.146619,0.000000,-0.000000,0.000000
1.410000,0.450000,0.980815,0.020000,-16.607133,10041.750000,465.521477,-458.491810,327.736483,0.000000,-0.000000,0.000000,569.960857,-562.931190,-0.493092,0.000000,-0.000000,-0.000000
1.430000,0.450000,0.999792,0.020000,-0.613296,10325.750000,468.455510,-421.693918,297.723800,0.000000,-0.000000,0.000000,558.744409,-511.982817,-10.805743,0.000000,-0.000000,-0.000000
1.410000,0.470000,0.987157,0.020000,-11.389061,10050.950000,449.312831,-453.681991,350.608447,0.000000,-0.000000,0.000000,569.378417,-573.747577,9.588311,0.000000,-0.000000,0.000000
-1.410000,0.490000,0.993211,0.020000,-5.981347,10060.550000,415.070765,-460.524276,-372.298890,0.000000,-0.000000,-0.000000,551.599011,-597.052522,-20.568103,0.000000,-0.000000,-0.000000
-1.410000,0.510000,1.000109,0.020000,-0.433509,10070.550000,428.993192,-497.374898,-400.341427,0.000000,-0.000000,-0.000000,577.922424,-646.304131,-11.404098,0.000000,-0.000000,-0.000000
-1.390000,0.490000,0.974397,0.020000,-21.882818,9780.550000,445.522392,-460.235940,-371.219709,0.000000,-0.000000,-0.000000,578.200282,-592.913830,-5.152264,0.000000,-0.000000,-0.000000
-1.370000,0.490000,0.955631,0.020000,-37.957311,9504.550000,456.121174,-458.981270,-376.700350,0.000000,-0.000000,-0.000000,591.237751,-594.097847,-1.074569,0.000000,-0.000000,-0.000000
-1.370000,0.510000,0.962798,0.020000,-32.085241,9514.550000,443.722739,-451.499214,-386.064346,0.000000,-0.000000,-0.000000,587.213187,-594.989662,0.609613,0.000000,-0.000000,0.000000
-1.390000,0.510000,0.981427,0.020000,-16.159659,9790.550000,434.398226,-467.501194,-384.103023,0.000000,-0.000000,-0.000000,575.807416,-608.910384,-1.306338,0.000000,-0.000000,-0.000000
-1.350000,0.490000,0.936916,0.020000,-54.214182,9232.550000,464.511091,-464.449321,-388.437957,0.000000,-0.000000,-0.000000,605.527295,-605.465525,-0.076074,0.000000,-0.000000,-0.000000
-1.330000,0.490000,0.918256,0.020000,-70.656879,8964.550000,473.057920,-473.051336,-403.382062,0.000000,-0.000000,-0.000000,621.692737,-621.686153,-0.055298,0.000000,-0.000000,-0.000000
-1.330000,0.510000,0.925207,0.020000,-64.470720,8974.550000,457.713946,-457.709910,-411.607902,0.000000,-0.000000,-0.000000,615.567832,-615.563796,-0.050272,0.000000,-0.000000,-0.000000
-1.350000,0.510000,0.944025,0.020000,-48.188020,9242.550000,449.968430,-450.211059,-396.584137,0.000000,-0.000000,-0.000000,599.761800,-600.004428,0.072276,0.000000,-0.000000,0.000000
-1.310000,0.490000,0.899651,0.020000,-87.288804,8700.550000,481.708738,-481.702644,-419.054882,0.000000,-0.000000,-0.000000,638.475728,-638.469633,-0.056865,0.000000,-0.000000,-0.000000
-1.290000,0.490000,0.880793,0.020000,-104.113415,8440.550000,490.364377,-490.212313,-435.499121,0.000000,-0.000000,-0.000000,655.851997,-655.699933,-0.172368,0.000000,-0.000000,-0.000000
-1.290000,0.510000,0.887726,0.020000,-97.588530,8450.550000,473.495472,-473.348039,-443.891063,0.000000,-0.000000,-0.000000,649.047838,-648.900406,-0.153158,0.000000,-0.000000,-0.000000
-1.310000,0.510000,0.906439,0.020000,-80.936503,8710.550000,465.606891,-465.602695,-427.373458,0.000000,-0.000000,-0.000000,632.011507,-632.007310,-0.058006,0.000000,-0.000000,-0.000000
-1.270000,0.490000,0.861987,0.020000,-121.134214,8184.550000,497.585739,-498.534622,-451.130573,0.000000,-0.000000,-0.000000,671.524548,-672.473431,0.309579,0.000000,-0.000000,0.000000
-1.250000,0.490000,0.843235,0.020000,-138.354743,7932.550000,503.912385,-505.093926,-470.729252,0.000000,-0.000000,-0.000000,689.411619,-690.593160,-2.483079,0.000000,-0.000000,-0.000000
-1.250000,0.510000,0.850474,0.020000,-131.464079,7942.550000,491.602625,-489.874305,-482.118692,0.000000,-0.000000,-0.000000,688.803977,-687.075656,-1.217953,0.000000,-0.000000,-0.000000
-1.270000,0.510000,0.869069,0.020000,-114.429987,8194.550000,482.936855,-485.176126,-461.255840,0.000000,-0.000000,-0.000000,667.509535,-669.748806,1.633677,0.000000,-0.000000,0.000000
1.250000,0.490000,0.843103,0.020000,-138.293491,7932.550000,503.755792,-504.935874,470.397555,0.000000,-0.000000,0.000000,689.071522,-690.251605,2.346655,0.000000,-0.000000,0.000000
1.270000,0.490000,0.861687,0.020000,-121.080499,8184.550000,497.428923,-498.378042,450.816531,0.000000,-0.000000,0.000000,671.197408,-672.146527,-0.436989,0.000000,-0.000000,-0.000000
1.270000,0.510000,0.869197,0.020000,-114.379525,8194.550000,482.792681,-485.031085,460.940546,0.000000,-0.000000,0.000000,667.187460,-669.425864,-1.761390,0.000000,-0.000000,-0.000000
1.250000,0.510000,0.850777,0.020000,-131.406209,7942.550000,491.456705,-489.729463,481.785967,0.000000,-0.000000,0.000000,688.466793,-686.739550,1.081895,0.000000,-0.000000,0.000000
1.290000,0.490000,0.880333,0.020000,-104.067174,8440.550000,490.207655,-490.055599,435.199322,0.000000,-0.000000,0.000000,655.535759,-655.383703,0.052217,0.000000,-0.000000,0.000000
1.310000,0.490000,0.899038,0.020000,-87.249975,8700.550000,481.553830,-481.547725,418.769278,0.000000,-0.000000,0.000000,638.171413,-638.165308,-0.056964,0.000000,-0.000000,-0.000000
1.310000,0.510000,0.906238,0.020000,-80.900686,8710.550000,465.465693,-465.461484,427.086306,0.000000,-0.000000,0.000000,631.713321,-631.709112,-0.058084,0.000000,-0.000000,-0.000000
1.290000,0.510000,0.887686,0.020000,-97.545419,8450.550000,473.353227,-473.205793,443.589934,0.000000,-0.000000,0.000000,648.738132,-648.590698,0.030708,0.000000,-0.000000,0.000000
1.330000,0.490000,0.917797,0.020000,-70.625400,8964.550000,472.905024,-472.898434,403.109880,0.000000,-0.000000,0.000000,621.399802,-621.393211,-0.052628,0.000000,-0.000000,-0.000000
1.350000,0.490000,0.936607,0.020000,-54.189991,9232.550000,464.360354,-464.298606,388.178468,0.000000,-0.000000,0.000000,605.245207,-605.183458,-0.026324,0.000000,-0.000000,-0.000000
1.350000,0.510000,0.943521,0.020000,-48.166622,9242.550000,449.829945,-450.072422,396.322748,0.000000,-0.000000,0.000000,599.485096,-599.727574,-0.176759,0.000000,-0.000000,-0.000000
1.330000,0.510000,0.924851,0.020000,-64.442141,8974.550000,457.574018,-457.569969,411.333991,0.000000,-0.000000,0.000000,615.280643,-615.276594,-0.059853,0.000000,-0.000000,-0.000000
1.370000,0.490000,0.955466,0.020000,-37.940348,9504.550000,455.972790,-458.831260,376.451406,0.000000,-0.000000,0.000000,590.965329,-593.823799,0.976713,0.000000,-0.000000,0.000000
1.390000,0.490000,0.974370,0.020000,-21.873024,9780.550000,445.378131,-460.083686,370.976955,0.000000,-0.000000,0.000000,577.936563,-592.642118,5.056148,0.000000,-0.000000,0.000000
1.390000,0.510000,0.981018,0.020000,-16.152459,9790.550000,434.264310,-467.348850,383.854157,0.000000,-0.000000,0.000000,575.546511,-608.631051,1.209097,0.000000,-0.000000,0.000000
1.370000,0.510000,0.962244,0.020000,-32.070970,9514.550000,443.585295,-451.356949,385.812171,0.000000,-0.000000,0.000000,586.944888,-594.716542,-0.708951,0.000000,-0.000000,-0.000000
1.410000,0.490000,0.993317,0.020000,-5.978666,10060.550000,414.940661,-460.369047,372.058389,0.000000,-0.000000,0.000000,551.350508,-596.778894,20.467906,0.000000,-0.000000,0.000000
1.410000,0.510000,0.999839,0.020000,-0.433314,10070.550000,428.861370,-497.206879,400.086232,0.000000,-0.000000,0.000000,577.662041,-646.007549,11.303857,0.000000,-0.000000,0.000000
-1.390000,0.530000,0.988430,0.020000,-10.260758,9800.950000,417.990877,-469.587753,-386.181461,0.000000,-0.000000,-0.000000,562.445882,-614.042759,7.327767,0.000000,-0.000000,0.000000
-1.370000,0.530000,0.969649,0.020000,-26.036513,9524.950000,429.984697,-441.181976,-391.660883,0.000000,-0.000000,-0.000000,580.165073,-591.362352,3.458779,0.000000,-0.000000,0.000000
-1.370000,0.550000,0.976770,0.020000,-19.816024,9535.750000,413.837487,-428.544959,-402.658718,0.000000,-0.000000,-0.000000,575.343405,-590.050877,0.362158,0.000000,-0.000000,0.000000
-1.390000,0.550000,0.995417,0.020000,-4.201611,9811.750000,410.110094,-447.965544,-390.853241,0.000000,-0.000000,-0.000000,561.388500,-599.243950,8.531453,0.000000,-0.000000,0.000000
-1.350000,0.530000,0.950917,0.020000,-41.981920,9252.950000,435.007940,-435.911901,-404.757075,0.000000,-0.000000,-0.000000,594.067553,-594.971514,-0.394771,0.000000,-0.000000,-0.000000
-1.330000,0.530000,0.932238,0.020000,-58.101481,8984.950000,442.258011,-442.247865,-419.110633,0.000000,-0.000000,-0.000000,609.300879,-609.290733,-0.072412,0.000000,-0.000000,-0.000000
-1.330000,0.550000,0.939643,0.020000,-51.555332,8995.750000,426.878199,-426.918719,-425.905323,0.000000,-0.000000,-0.000000,603.003486,-603.044006,0.002356,0.000000,-0.000000,0.000000
-1.350000,0.550000,0.958178,0.020000,-35.601717,9263.750000,420.979394,-424.443050,-413.039832,0.000000,-0.000000,-0.000000,589.272976,-592.736632,-0.044414,0.000000,-0.000000,-0.000000
-1.310000,0.530000,0.913615,0.020000,-74.397962,8720.950000,449.438233,-449.438157,-434.927792,0.000000,-0.000000,-0.000000,625.425391,-625.425315,-0.059333,0.000000,-0.000000,-0.000000
-1.290000,0.530000,0.895052,0.020000,-90.874219,8460.950000,456.556350,-456.426495,-451.482886,0.000000,-0.000000,-0.000000,642.109469,-641.979614,-0.146404,0.000000,-0.000000,-0.000000
-1.290000,0.550000,0.902762,0.020000,-83.977258,8471.750000,439.605064,-439.483737,-458.287026,0.000000,-0.000000,-0.000000,635.061653,-634.940326,-0.147519,0.000000,-0.000000,-0.000000
-1.310000,0.550000,0.921170,0.020000,-67.679646,8731.750000,433.249829,-433.246491,-441.728908,0.000000,-0.000000,-0.000000,618.732945,-618.729608,-0.058152,0.000000,-0.000000,-0.000000
-1.270000,0.530000,0.876551,0.020000,-107.533126,8204.950000,463.042778,-462.620760,-468.177833,0.000000,-0.000000,-0.000000,658.545001,-658.122983,-0.289759,0.000000,-0.000000,-0.000000
-1.250000,0.530000,0.858118,0.020000,-124.377559,7952.950000,467.350978,-468.099297,-487.410907,0.000000,-0.000000,-0.000000,675.147153,-675.895472,-2.674412,0.000000,-0.000000,-0.000000
-1.250000,0.550000,0.866157,0.020000,-117.102637,7963.750000,452.737532,-453.246974,-493.764694,0.000000,-0.000000,-0.000000,669.823935,-670.333377,0.386506,0.000000,-0.000000,0.000000
-1.270000,0.550000,0.884423,0.020000,-100.450737,8215.750000,447.539120,-449.290923,-475.618080,0.000000,-0.000000,-0.000000,652.795134,-654.546937,1.663284,0.000000,-0.000000,0.000000
1.250000,0.530000,0.858638,0.020000,-124.323129,7952.950000,467.225796,-467.972999,487.078078,0.000000,-0.000000,0.000000,674.821061,-675.568264,2.533396,0.000000,-0.000000,0.000000
1.270000,0.530000,0.877099,0.020000,-107.485974,8204.950000,462.915607,-462.494766,467.861852,0.000000,-0.000000,0.000000,658.230768,-657.809926,0.157495,0.000000,-0.000000,0.000000
1.270000,0.550000,0.884698,0.020000,-100.406947,8215.750000,447.424710,-449.176043,475.303195,0.000000,-0.000000,0.000000,652.487275,-654.238607,-1.795092,0.000000,-0.000000,-0.000000
1.250000,0.550000,0.866252,0.020000,-117.051698,7963.750000,452.624701,-453.133752,493.434725,0.000000,-0.000000,0.000000,669.504495,-670.013545,-0.526104,0.000000,-0.000000,-0.000000
1.290000,0.530000,0.895424,0.020000,-90.834295,8460.950000,456.428340,-456.298466,451.181211,0.000000,-0.000000,0.000000,641.806349,-641.676476,0.021869,0.000000,-0.000000,0.000000
1.310000,0.530000,0.913820,0.020000,-74.365214,8720.950000,449.310528,-449.310436,434.639836,0.000000,-0.000000,0.000000,625.133386,-625.133294,-0.058809,0.000000,-0.000000,-0.000000
1.310000,0.550000,0.921774,0.020000,-67.650019,8731.750000,433.135352,-433.131999,441.440861,0.000000,-0.000000,0.000000,618.447156,-618.443803,-0.061838,0.000000,-0.000000,-0.000000
1.290000,0.550000,0.903210,0.020000,-83.940572,8471.750000,439.490993,-439.369641,457.985553,0.000000,-0.000000,0.000000,634.765151,-634.643799,0.021107,0.000000,-0.000000,0.000000
1.330000,0.530000,0.932282,0.020000,-58.075859,8984.950000,442.130877,-442.120727,418.835698,0.000000,-0.000000,0.000000,609.019496,-609.009346,-0.039729,0.000000,-0.000000,-0.000000
1.350000,0.530000,0.950806,0.020000,-41.963372,9252.950000,434.881775,-435.784985,404.493789,0.000000,-0.000000,0.000000,593.796066,-594.699276,0.287895,0.000000,-0.000000,0.000000
1.350000,0.550000,0.958452,0.020000,-35.586068,9263.750000,420.864776,-424.325620,412.774719,0.000000,-0.000000,0.000000,589.006124,-592.466967,-0.064140,0.000000,-0.000000,-0.000000
1.330000,0.550000,0.940079,0.020000,-51.532717,8995.750000,426.763592,-426.804056,425.630024,0.000000,-0.000000,0.000000,602.727921,-602.768385,-0.116282,0.000000,-0.000000,-0.000000
1.370000,0.530000,0.969388,0.020000,-26.024989,9524.950000,429.859140,-441.048955,391.407533,0.000000,-0.000000,0.000000,579.902673,-591.092488,-3.559155,0.000000,-0.000000,-0.000000
1.390000,0.530000,0.988026,0.020000,-10.256209,9800.950000,417.871089,-469.435931,385.932721,0.000000,-0.000000,0.000000,562.194961,-613.759804,-7.422943,0.000000,-0.000000,-0.000000
1.390000,0.550000,0.995387,0.020000,-4.199755,9811.750000,409.998653,-447.828415,390.602020,0.000000,-0.000000,0.000000,561.138813,-598.968575,-8.629617,0.000000,-0.000000,-0.000000
1.370000,0.550000,0.976889,0.020000,-19.807297,9535.750000,413.724879,-428.421703,402.400725,0.000000,-0.000000,0.000000,575.085139,-589.781964,-0.466986,0.000000,-0.000000,-0.000000
-1.370000,0.570000,0.984246,0.020000,-13.431228,9546.950000,403.453650,-419.514813,-409.766685,0.000000,-0.000000,-0.000000,572.674812,-588.735976,3.042137,0.000000,-0.000000,0.000000
-1.370000,0.590000,0.992069,0.020000,-6.883748,9558.550000,391.676682,-397.415419,-409.802384,0.000000,-0.000000,-0.000000,565.970423,-571.709160,5.086409,0.000000,-0.000000,0.000000
-1.350000,0.570000,0.965798,0.020000,-29.053515,9274.950000,407.621358,-411.856163,-418.030850,0.000000,-0.000000,-0.000000,583.229643,-587.464447,2.116491,0.000000,-0.000000,0.000000
-1.330000,0.570000,0.947412,0.020000,-44.838461,9006.950000,411.386899,-411.329230,-431.802660,0.000000,-0.000000,-0.000000,596.408736,-596.351067,0.085040,0.000000,-0.000000,0.000000
-1.330000,0.590000,0.955537,0.020000,-37.957042,9018.550000,396.009788,-395.268022,-436.910241,0.000000,-0.000000,-0.000000,589.794921,-589.053155,0.072568,0.000000,-0.000000,0.000000
-1.350000,0.590000,0.973769,0.020000,-22.342552,9286.550000,392.329361,-392.050960,-422.638223,0.000000,-0.000000,-0.000000,576.711513,-576.433112,0.746858,0.000000,-0.000000,0.000000
-1.310000,0.570000,0.929093,0.020000,-60.788031,8742.950000,417.053317,-417.068922,-447.802741,0.000000,-0.000000,-0.000000,611.929504,-611.945109,-0.070602,0.000000,-0.000000,-0.000000
-1.290000,0.570000,0.910845,0.020000,-76.904429,8482.950000,422.739723,-422.731359,-464.312699,0.000000,-0.000000,-0.000000,627.930623,-627.922259,-0.066706,0.000000,-0.000000,-0.000000
-1.290000,0.590000,0.919293,0.020000,-69.662499,8494.550000,405.891113,-405.893559,-469.589723,0.000000,-0.000000,-0.000000,620.694428,-620.696875,-0.064984,0.000000,-0.000000,-0.000000
-1.310000,0.590000,0.937377,0.020000,-53.729588,8754.550000,400.996347,-400.966167,-453.132586,0.000000,-0.000000,-0.000000,605.089556,-605.059375,-0.023520,0.000000,-0.000000,-0.000000
-1.270000,0.570000,0.892672,0.020000,-93.189923,8226.950000,428.296714,-428.327165,-481.713854,0.000000,-0.000000,-0.000000,644.577145,-644.607596,-0.174124,0.000000,-0.000000,-0.000000
-1.250000,0.570000,0.874579,0.020000,-109.646754,7974.950000,431.460651,-432.473833,-500.804388,0.000000,-0.000000,-0.000000,660.852374,-661.865557,-2.247638,0.000000,-0.000000,-0.000000
-1.250000,0.590000,0.883152,0.020000,-102.017322,7986.550000,415.235440,-415.009842,-504.464348,0.000000,-0.000000,-0.000000,653.420581,-653.194984,-0.165188,0.000000,-0.000000,-0.000000
-1.270000,0.590000,0.901291,0.020000,-85.757765,8238.550000,410.938475,-410.534994,-486.370494,0.000000,-0.000000,-0.000000,636.802783,-636.399302,0.188001,0.000000,-0.000000,0.000000
-1.230000,0.570000,0.856571,0.020000,-126.277127,7726.950000,437.064075,-436.878685,-515.425195,0.000000,-0.000000,-0.000000,675.819765,-675.634375,0.215550,0.000000,-0.000000,0.000000
-1.210000,0.570000,0.838475,0.020000,-143.083198,7482.950000,439.868693,-440.747811,-540.581025,0.000000,-0.000000,-0.000000,696.752518,-697.631637,-4.733763,0.000000,-0.000000,-0.000000
-1.210000,0.590000,0.846795,0.020000,-135.036778,7494.550000,429.277903,-425.881764,-546.292006,0.000000,-0.000000,-0.000000,695.426587,-692.030448,0.461653,0.000000,-0.000000,0.000000
-1.230000,0.590000,0.864933,0.020000,-118.443053,7738.550000,425.035883,-424.159431,-521.469051,0.000000,-0.000000,-0.000000,672.889345,-672.012892,4.757598,0.000000,-0.000000,0.000000
1.210000,0.570000,0.837933,0.020000,-143.021638,7482.950000,439.779361,-440.657459,540.218012,0.000000,-0.000000,0.000000,696.415920,-697.294018,4.571875,0.000000,-0.000000,0.000000
1.230000,0.570000,0.856055,0.020000,-126.222664,7726.950000,436.971554,-436.787298,515.083247,0.000000,-0.000000,0.000000,675.498857,-675.314601,-0.366435,0.000000,-0.000000,-0.000000
1.230000,0.590000,0.864618,0.020000,-118.392298,7738.550000,424.953343,-424.078235,521.130402,0.000000,-0.000000,0.000000,672.573318,-671.698210,-4.905709,0.000000,-0.000000,-0.000000
1.210000,0.590000,0.846680,0.020000,-134.979067,7494.550000,429.196438,-425.803023,545.934538,0.000000,-0.000000,0.000000,695.094253,-691.700838,-0.618680,0.000000,-0.000000,-0.000000
1.250000,0.570000,0.874258,0.020000,-109.599351,7974.950000,431.365172,-432.376821,500.474122,0.000000,-0.000000,0.000000,660.540678,-661.552327,2.103742,0.000000,-0.000000,0.000000
1.270000,0.570000,0.892539,0.020000,-93.149540,8226.950000,428.197640,-428.228088,481.399502,0.000000,-0.000000,0.000000,644.276431,-644.306878,0.039207,0.000000,-0.000000,0.000000
1.270000,0.590000,0.900755,0.020000,-85.720828,8238.550000,410.853099,-410.450117,486.058674,0.000000,-0.000000,0.000000,636.509335,-636.106353,-0.324064,0.000000,-0.000000,-0.000000
1.250000,0.590000,0.882645,0.020000,-101.973493,7986.550000,415.153003,-414.927450,504.138197,0.000000,-0.000000,0.000000,653.116384,-652.890831,0.021508,0.000000,-0.000000,0.000000
1.290000,0.570000,0.910891,0.020000,-76.871027,8482.950000,422.639265,-422.630887,464.012143,0.000000,-0.000000,0.000000,627.640766,-627.632388,-0.061378,0.000000,-0.000000,-0.000000
1.310000,0.570000,0.929312,0.020000,-60.761569,8742.950000,416.951784,-416.967367,447.515275,0.000000,-0.000000,0.000000,611.649961,-611.665544,-0.051043,0.000000,-0.000000,-0.000000
1.310000,0.590000,0.937206,0.020000,-53.706332,8754.550000,400.907383,-400.877186,452.846341,0.000000,-0.000000,0.000000,604.816242,-604.786045,-0.099554,0.000000,-0.000000,-0.000000
1.290000,0.590000,0.918943,0.020000,-69.632421,8494.550000,405.803884,-405.806309,469.290748,0.000000,-0.000000,0.000000,620.411213,-620.413638,-0.064553,0.000000,-0.000000,-0.000000
1.330000,0.570000,0.947796,0.020000,-44.818899,9006.950000,411.284560,-411.226967,431.527749,0.000000,-0.000000,0.000000,596.139073,-596.081479,-0.200554,0.000000,-0.000000,-0.000000
1.350000,0.570000,0.966341,0.020000,-29.040812,9274.950000,407.517417,-411.749736,417.766828,0.000000,-0.000000,0.000000,582.968311,-587.200630,-2.225236,0.000000,-0.000000,-0.000000
1.350000,0.590000,0.973935,0.020000,-22.332836,9286.550000,392.237787,-391.960951,422.375120,0.000000,-0.000000,0.000000,576.455969,-576.179132,-0.858941,0.000000,-0.000000,-0.000000
1.330000,0.590000,0.955538,0.020000,-37.940575,9018.550000,395.919631,-395.178256,436.636387,0.000000,-0.000000,0.000000,589.531332,-588.789957,-0.189671,0.000000,-0.000000,-0.000000
1.370000,0.570000,0.984740,0.020000,-13.425343,9546.950000,403.349873,-419.399510,409.508761,0.000000,-0.000000,0.000000,572.420410,-588.470047,-3.146242,0.000000,-0.000000,-0.000000
1.370000,0.590000,0.992395,0.020000,-6.880747,9558.550000,391.579071,-397.320121,409.549120,0.000000,-0.000000,0.000000,565.718980,-571.460031,-5.190347,0.000000,-0.000000,-0.000000
-1.370000,0.610000,1.000231,0.020000,-0.179270,9570.550000,371.454653,-363.342562,-418.546294,0.000000,-0.000000,-0.000000,560.934525,-552.822435,-7.006861,0.000000,-0.000000,-0.000000
-1.350000,0.610000,0.982083,0.020000,-15.477115,9298.550000,375.882748,-372.633581,-432.397923,0.000000,-0.000000,-0.000000,573.475226,-570.226060,-4.896906,0.000000,-0.000000,-0.000000
-1.330000,0.610000,0.964008,0.020000,-30.917311,9030.550000,379.298798,-381.140468,-444.339934,0.000000,-0.000000,-0.000000,583.888487,-585.730157,-1.732669,0.000000,-0.000000,-0.000000
-1.330000,0.630000,0.972520,0.020000,-23.725094,9042.950000,364.520863,-371.093853,-451.479711,0.000000,-0.000000,-0.000000,579.048622,-585.621612,-1.412223,0.000000,-0.000000,-0.000000
-1.350000,0.630000,0.990731,0.020000,-8.455143,9310.950000,352.370616,-377.441299,-444.185158,0.000000,-0.000000,-0.000000,562.290686,-587.361369,-5.643565,0.000000,-0.000000,-0.000000
-1.310000,0.610000,0.946010,0.020000,-46.510760,8766.550000,384.689901,-384.680821,-457.787671,0.000000,-0.000000,-0.000000,597.961336,-597.952255,-0.221476,0.000000,-0.000000,-0.000000
-1.290000,0.610000,0.927834,0.020000,-62.258208,8506.550000,389.138605,-389.162301,-474.135795,0.000000,-0.000000,-0.000000,613.374508,-613.398204,-0.068001,0.000000,-0.000000,-0.000000
-1.290000,0.630000,0.936215,0.020000,-54.698254,8518.950000,372.575385,-372.529217,-477.932063,0.000000,-0.000000,-0.000000,606.005156,-605.958988,-0.043183,0.000000,-0.000000,-0.000000
-1.310000,0.630000,0.954330,0.020000,-39.137981,8778.950000,369.090706,-369.863697,-462.640861,0.000000,-0.000000,-0.000000,591.686069,-592.459060,-0.216164,0.000000,-0.000000,-0.000000
-1.270000,0.610000,0.909631,0.020000,-78.161309,8250.550000,393.249201,-393.258854,-491.169521,0.000000,-0.000000,-0.000000,629.198022,-629.207674,-0.068187,0.000000,-0.000000,-0.000000
-1.250000,0.610000,0.891504,0.020000,-94.221705,7998.550000,397.136814,-397.092431,-508.945426,0.000000,-0.000000,-0.000000,645.564950,-645.520567,-0.128623,0.000000,-0.000000,-0.000000
-1.250000,0.630000,0.900223,0.020000,-86.267205,8010.950000,379.091293,-379.041990,-512.407552,0.000000,-0.000000,-0.000000,637.404447,-637.355144,-0.118548,0.000000,-0.000000,-0.000000
-1.270000,0.630000,0.918177,0.020000,-70.407545,8262.950000,375.928086,-375.938365,-494.828802,0.000000,-0.000000,-0.000000,621.429755,-621.440034,-0.071388,0.000000,-0.000000,-0.000000
-1.230000,0.610000,0.873459,0.020000,-110.440971,7750.550000,399.456596,-398.858175,-527.039742,0.000000,-0.000000,-0.000000,661.431615,-660.833193,-1.204968,0.000000,-0.000000,-0.000000
-1.210000,0.610000,0.855501,0.020000,-126.820604,7506.550000,400.268595,-401.789749,-547.882509,0.000000,-0.000000,-0.000000,678.200329,-679.721483,-3.424701,0.000000,-0.000000,-0.000000
-1.210000,0.630000,0.864583,0.020000,-118.442640,7518.950000,385.366410,-385.884671,-549.516076,0.000000,-0.000000,-0.000000,671.063700,-671.581960,0.795885,0.000000,-0.000000,0.000000
-1.230000,0.630000,0.882356,0.020000,-102.278508,7762.950000,383.566319,-384.796065,-530.274272,0.000000,-0.000000,-0.000000,654.199912,-655.429658,1.894400,0.000000,-0.000000,0.000000
1.210000,0.610000,0.855804,0.020000,-126.766771,7506.550000,400.210742,-401.730184,547.528419,0.000000,-0.000000,0.000000,677.881602,-679.401044,3.261320,0.000000,-0.000000,0.000000
1.230000,0.610000,0.873555,0.020000,-110.393957,7750.550000,399.393212,-398.796141,526.702347,0.000000,-0.000000,0.000000,661.124397,-660.527326,1.050698,0.000000,-0.000000,0.000000
1.230000,0.630000,0.882855,0.020000,-102.235260,7762.950000,383.514799,-384.744700,529.942412,0.000000,-0.000000,0.000000,653.900471,-655.130371,-2.046577,0.000000,-0.000000,-0.000000
1.210000,0.630000,0.865117,0.020000,-118.392711,7518.950000,385.319981,-385.837883,549.169725,0.000000,-0.000000,0.000000,670.753407,-671.271310,-0.956319,0.000000,-0.000000,-0.000000
1.250000,0.610000,0.891401,0.020000,-94.181483,7998.550000,397.068320,-397.023833,508.622239,0.000000,-0.000000,0.000000,645.268064,-645.223577,-0.016207,0.000000,-0.000000,-0.000000
1.270000,0.610000,0.909337,0.020000,-78.127852,8250.550000,393.177532,-393.187157,490.859842,0.000000,-0.000000,0.000000,628.911506,-628.921131,-0.069437,0.000000,-0.000000,-0.000000
1.270000,0.630000,0.918274,0.020000,-70.377598,8262.950000,375.869386,-375.879637,494.522375,0.000000,-0.000000,0.000000,621.150268,-621.160519,-0.067263,0.000000,-0.000000,-0.000000
1.250000,0.630000,0.900517,0.020000,-86.230618,8010.950000,379.036349,-378.986944,512.088126,0.000000,-0.000000,0.000000,637.115023,-637.065618,-0.027266,0.000000,-0.000000,-0.000000
1.290000,0.610000,0.927357,0.020000,-62.231488,8506.550000,389.064211,-389.087875,473.839024,0.000000,-0.000000,0.000000,613.097934,-613.121598,-0.062792,0.000000,-0.000000,-0.000000
1.310000,0.610000,0.945457,0.020000,-46.490747,8766.550000,384.613271,-384.604253,457.503287,0.000000,-0.000000,0.000000,597.694352,-597.685334,0.097067,0.000000,-0.000000,0.000000
1.310000,0.630000,0.954056,0.020000,-39.121240,8778.950000,369.025975,-369.798793,462.358493,0.000000,-0.000000,0.000000,591.425113,-592.197931,0.090508,0.000000,-0.000000,0.000000
1.290000,0.630000,0.936123,0.020000,-54.674922,8518.950000,372.513363,-372.467191,477.638094,0.000000,-0.000000,0.000000,605.735186,-605.689014,-0.088648,0.000000,-0.000000,-0.000000
1.330000,0.610000,0.963632,0.020000,-30.903974,9030.550000,379.220690,-381.061861,444.066200,0.000000,-0.000000,0.000000,583.630162,-585.471332,1.613468,0.000000,-0.000000,0.000000
1.350000,0.610000,0.981878,0.020000,-15.470421,9298.550000,375.803144,-372.558036,432.133136,0.000000,-0.000000,0.000000,573.223211,-569.978103,4.780128,0.000000,-0.000000,0.000000
1.350000,0.630000,0.990161,0.020000,-8.451506,9310.950000,352.303381,-377.370875,443.918871,0.000000,-0.000000,0.000000,562.043981,-587.111475,5.525272,0.000000,-0.000000,0.000000
1.330000,0.630000,0.972070,0.020000,-23.714918,9042.950000,364.454386,-371.025552,451.206566,0.000000,-0.000000,0.000000,578.795497,-585.366662,1.291333,0.000000,-0.000000,0.000000
1.370000,0.610000,1.000191,0.020000,-0.179196,9570.550000,371.374215,-363.276297,418.293474,0.000000,-0.000000,0.000000,560.690470,-552.592551,6.892213,0.000000,-0.000000,0.000000
-1.350000,0.650000,0.999032,0.020000,-1.305157,9323.750000,337.453065,-376.722012,-461.401949,0.000000,-0.000000,-0.000000,563.743243,-603.012191,-8.585344,0.000000,-0.000000,-0.000000
-1.330000,0.650000,0.980926,0.020000,-16.388075,9055.750000,344.438508,-363.199404,-462.569451,0.000000,-0.000000,-0.000000,572.970754,-591.731649,-5.042682,0.000000,-0.000000,-0.000000
-1.330000,0.670000,0.989665,0.020000,-8.905134,9068.950000,312.961370,-376.424451,-475.639095,0.000000,-0.000000,-0.000000,555.642721,-619.105802,-6.101497,0.000000,-0.000000,-0.000000
-1.310000,0.650000,0.962895,0.020000,-31.617570,8791.750000,351.241081,-357.983330,-469.789824,0.000000,-0.000000,-0.000000,585.228155,-591.970404,-1.784126,0.000000,-0.000000,-0.000000
-1.290000,0.650000,0.944944,0.020000,-46.989272,8531.750000,355.824417,-356.220757,-481.388636,0.000000,-0.000000,-0.000000,598.539675,-598.936015,-0.307798,0.000000,-0.000000,-0.000000
-1.290000,0.670000,0.954013,0.020000,-39.137859,8544.950000,339.961385,-342.531008,-485.906443,0.000000,-0.000000,-0.000000,592.477733,-595.047356,-0.281749,0.000000,-0.000000,-0.000000
-1.310000,0.670000,0.971797,0.020000,-23.955925,8804.950000,335.320599,-351.071298,-477.256279,0.000000,-0.000000,-0.000000,579.964640,-595.715340,-1.077593,0.000000,-0.000000,-0.000000
-1.270000,0.650000,0.927076,0.020000,-62.503401,8275.750000,358.816355,-358.837786,-497.776543,0.000000,-0.000000,-0.000000,613.616491,-613.637923,-0.063724,0.000000,-0.000000,-0.000000
-1.250000,0.650000,0.909298,0.020000,-78.161045,8023.750000,361.283608,-361.285467,-515.122804,0.000000,-0.000000,-0.000000,629.187448,-629.189307,-0.076888,0.000000,-0.000000,-0.000000
-1.250000,0.670000,0.918718,0.020000,-69.910360,8036.950000,343.706255,-343.725134,-517.132534,0.000000,-0.000000,-0.000000,620.930598,-620.949477,-0.077062,0.000000,-0.000000,-0.000000
-1.270000,0.670000,0.936318,0.020000,-54.455722,8288.950000,341.920419,-341.881688,-499.999650,0.000000,-0.000000,-0.000000,605.738751,-605.700021,-0.073906,0.000000,-0.000000,-0.000000
-1.230000,0.650000,0.891613,0.020000,-93.963199,7775.750000,363.515869,-363.530662,-533.281261,0.000000,-0.000000,-0.000000,645.390198,-645.404991,-0.111701,0.000000,-0.000000,-0.000000
-1.210000,0.650000,0.874028,0.020000,-109.910748,7531.750000,363.106162,-364.590220,-553.542381,0.000000,-0.000000,-0.000000,661.669951,-663.154008,-2.245595,0.000000,-0.000000,-0.000000
-1.210000,0.670000,0.883825,0.020000,-101.232670,7544.950000,346.209200,-346.055610,-553.161518,0.000000,-0.000000,-0.000000,652.606697,-652.453107,-0.183215,0.000000,-0.000000,-0.000000
-1.230000,0.670000,0.901219,0.020000,-85.502476,7788.950000,345.485984,-344.959619,-534.386544,0.000000,-0.000000,-0.000000,636.461044,-635.934679,0.208451,0.000000,-0.000000,0.000000
-1.190000,0.650000,0.856550,0.020000,-126.004460,7291.750000,364.460525,-363.698487,-568.650364,0.000000,-0.000000,-0.000000,675.596678,-674.834640,-0.968131,0.000000,-0.000000,-0.000000
-1.170000,0.650000,0.839183,0.020000,-142.244973,7055.750000,364.177049,-365.255369,-595.039898,0.000000,-0.000000,-0.000000,697.363657,-698.441976,-4.695996,0.000000,-0.000000,-0.000000
-1.170000,0.670000,0.849187,0.020000,-133.109038,7068.950000,353.636337,-350.137506,-595.081756,0.000000,-0.000000,-0.000000,693.082425,-689.583594,2.317692,0.000000,-0.000000,0.000000
-1.190000,0.670000,0.866544,0.020000,-117.101415,7304.950000,351.834327,-350.565245,-570.134233,0.000000,-0.000000,-0.000000,670.241234,-668.972151,4.605548,0.000000,-0.000000,0.000000
1.170000,0.650000,0.838866,0.020000,-142.185838,7055.750000,364.160359,-365.237562,594.666029,0.000000,-0.000000,0.000000,697.037666,-698.114869,4.513124,0.000000,-0.000000,0.000000
1.190000,0.650000,0.856460,0.020000,-125.951894,7291.750000,364.437650,-363.677235,568.296264,0.000000,-0.000000,0.000000,675.286003,-674.525587,0.795336,0.000000,-0.000000,0.000000
1.190000,0.670000,0.866052,0.020000,-117.052920,7304.950000,351.820826,-350.553350,569.788007,0.000000,-0.000000,0.000000,669.937817,-668.670341,-4.774246,0.000000,-0.000000,-0.000000
1.170000,0.670000,0.848657,0.020000,-133.054119,7068.950000,353.626448,-350.130100,594.718999,0.000000,-0.000000,0.000000,692.763940,-689.267592,-2.493827,0.000000,-0.000000,-0.000000
1.210000,0.650000,0.874157,0.020000,-109.864740,7531.750000,363.076056,-364.558250,553.199052,0.000000,-0.000000,0.000000,661.367487,-662.849681,2.081920,0.000000,-0.000000,0.000000
1.230000,0.650000,0.891952,0.020000,-93.923738,7775.750000,363.478745,-363.493550,532.953195,0.000000,-0.000000,0.000000,645.098236,-645.113042,-0.042465,0.000000,-0.000000,-0.000000
1.230000,0.670000,0.901167,0.020000,-85.466816,7788.950000,345.461631,-344.935834,534.064503,0.000000,-0.000000,0.000000,636.177143,-635.651347,-0.362891,0.000000,-0.000000,-0.000000
1.210000,0.670000,0.883557,0.020000,-101.190596,7544.950000,346.191256,-346.037624,552.826174,0.000000,-0.000000,0.000000,652.312957,-652.159325,0.020481,0.000000,-0.000000,0.000000
1.250000,0.650000,0.909838,0.020000,-78.128116,8023.750000,361.241714,-361.243547,514.807716,0.000000,-0.000000,0.000000,628.905449,-628.907282,-0.069762,0.000000,-0.000000,-0.000000
1.270000,0.650000,0.927557,0.020000,-62.476986,8275.750000,358.770125,-358.791520,497.473919,0.000000,-0.000000,0.000000,613.343990,-613.365385,-0.075752,0.000000,-0.000000,-0.000000
1.270000,0.670000,0.936673,0.020000,-54.432858,8288.950000,341.886130,-341.847400,499.701360,0.000000,-0.000000,0.000000,605.473186,-605.434456,-0.066193,0.000000,-0.000000,-0.000000
1.250000,0.670000,0.918873,0.020000,-69.881104,8036.950000,343.676805,-343.695650,516.822301,0.000000,-0.000000,0.000000,620.655953,-620.674798,-0.070159,0.000000,-0.000000,-0.000000
1.290000,0.650000,0.945230,0.020000,-46.969354,8531.750000,355.774509,-356.170707,481.097886,0.000000,-0.000000,0.000000,598.276331,-598.672529,0.174960,0.000000,-0.000000,0.000000
1.310000,0.650000,0.962994,0.020000,-31.604128,8791.750000,351.188765,-357.928264,469.508326,0.000000,-0.000000,0.000000,584.972892,-591.712391,1.656607,0.000000,-0.000000,0.000000
1.310000,0.670000,0.972261,0.020000,-23.945803,8804.950000,335.280174,-351.024254,476.975454,0.000000,-0.000000,0.000000,579.714656,-595.458737,0.948683,0.000000,-0.000000,0.000000
1.290000,0.670000,0.954559,0.020000,-39.121374,8544.950000,339.922893,-342.491421,485.618504,0.000000,-0.000000,0.000000,592.220272,-594.788800,0.148090,0.000000,-0.000000,0.000000
1.330000,0.650000,0.980844,0.020000,-16.381088,9055.750000,344.385670,-363.141122,462.294365,0.000000,-0.000000,0.000000,572.722299,-591.477751,4.917505,0.000000,-0.000000,0.000000
1.350000,0.650000,0.998775,0.020000,-1.304602,9323.750000,337.401159,-376.660554,461.132422,0.000000,-0.000000,0.000000,563.501973,-602.761367,8.461576,0.000000,-0.000000,0.000000
1.330000,0.670000,0.989944,0.020000,-8.901360,9068.950000,312.926354,-376.365182,475.361537,0.000000,-0.000000,0.000000,555.403746,-618.842575,5.974182,0.000000,-0.000000,0.000000
-1.330000,0.690000,0.998728,0.020000,-1.318791,9082.550000,311.435260,-384.086917,-497.231113,0.000000,-0.000000,-0.000000,570.446341,-643.097998,-2.022130,0.000000,-0.000000,-0.000000
-1.310000,0.690000,0.981025,0.020000,-16.159447,8818.550000,316.490274,-351.497936,-487.296051,0.000000,-0.000000,-0.000000,573.266396,-608.274058,-0.206441,0.000000,-0.000000,-0.000000
-1.290000,0.690000,0.963411,0.020000,-31.150398,8558.550000,323.546164,-332.594245,-490.477736,0.000000,-0.000000,-0.000000,585.559068,-594.607149,0.627525,0.000000,-0.000000,0.000000
-1.290000,0.710000,0.973130,0.020000,-23.033738,8572.550000,307.140498,-322.902867,-493.900925,0.000000,-0.000000,-0.000000,577.928642,-593.691011,1.905565,0.000000,-0.000000,0.000000
-1.310000,0.710000,0.990571,0.020000,-8.230889,8832.550000,288.748779,-358.490414,-491.888470,0.000000,-0.000000,-0.000000,553.922031,-623.663666,2.625145,0.000000,-0.000000,0.000000
-1.270000,0.690000,0.945893,0.020000,-46.271262,8302.550000,325.218068,-325.586605,-501.823260,0.000000,-0.000000,-0.000000,597.907077,-598.275614,-0.082598,0.000000,-0.000000,-0.000000
-1.250000,0.690000,0.928474,0.020000,-61.522177,8050.550000,326.438650,-326.450287,-518.441835,0.000000,-0.000000,-0.000000,612.650630,-612.662267,-0.058128,0.000000,-0.000000,-0.000000
-1.250000,0.710000,0.938555,0.020000,-53.003411,8064.550000,309.380586,-309.381225,-519.102045,0.000000,-0.000000,-0.000000,604.303794,-604.304433,-0.128954,0.000000,-0.000000,-0.000000
-1.270000,0.710000,0.955790,0.020000,-37.956688,8316.550000,308.635228,-311.020948,-504.722108,0.000000,-0.000000,-0.000000,591.038237,-593.423957,-0.421304,0.000000,-0.000000,-0.000000
-1.230000,0.690000,0.911162,0.020000,-76.903652,7802.550000,327.244715,-327.263516,-535.913154,0.000000,-0.000000,-0.000000,627.922251,-627.941052,-0.077236,0.000000,-0.000000,-0.000000
-1.210000,0.690000,0.893882,0.020000,-92.416018,7558.550000,327.709880,-327.740909,-554.045827,0.000000,-0.000000,-0.000000,643.700809,-643.731839,-0.083194,0.000000,-0.000000,-0.000000
-1.210000,0.710000,0.903585,0.020000,-83.468260,7572.550000,309.433867,-309.457735,-553.998129,0.000000,-0.000000,-0.000000,634.551400,-634.575268,-0.075414,0.000000,-0.000000,-0.000000
-1.230000,0.710000,0.921032,0.020000,-68.173916,7816.550000,309.617039,-309.644153,-536.244736,0.000000,-0.000000,-0.000000,619.203300,-619.230414,-0.080759,0.000000,-0.000000,-0.000000
-1.190000,0.690000,0.876352,0.020000,-108.059464,7318.550000,326.209074,-325.111177,-572.641496,0.000000,-0.000000,-0.000000,659.312495,-658.214598,-1.841216,0.000000,-0.000000,-0.000000
-1.170000,0.690000,0.858929,0.020000,-123.834026,7082.550000,323.638748,-325.468070,-594.111991,0.000000,-0.000000,-0.000000,676.057970,-677.887292,-3.468429,0.000000,-0.000000,-0.000000
-1.170000,0.710000,0.869021,0.020000,-114.428000,7096.550000,308.572251,-309.072390,-590.889933,0.000000,-0.000000,-0.000000,666.473944,-666.974083,1.108270,0.000000,-0.000000,0.000000
-1.190000,0.710000,0.886246,0.020000,-98.886368,7332.550000,310.239482,-310.887292,-571.524321,0.000000,-0.000000,-0.000000,650.126885,-650.774695,1.853885,0.000000,-0.000000,0.000000
1.170000,0.690000,0.858803,0.020000,-123.783324,7082.550000,323.650461,-325.477955,593.754975,0.000000,-0.000000,0.000000,675.751677,-677.579171,3.286217,0.000000,-0.000000,0.000000
1.190000,0.690000,0.875996,0.020000,-108.015046,7318.550000,326.212314,-325.116130,572.299676,0.000000,-0.000000,0.000000,659.017015,-657.920832,1.667852,0.000000,-0.000000,0.000000
1.190000,0.710000,0.886280,0.020000,-98.846027,7332.550000,310.253126,-310.901700,571.191999,0.000000,-0.000000,0.000000,649.840717,-650.489291,-2.024065,0.000000,-0.000000,-0.000000
1.170000,0.710000,0.869290,0.020000,-114.381512,7096.550000,308.594046,-309.093893,590.544910,0.000000,-0.000000,0.000000,666.178041,-666.677888,-1.286776,0.000000,-0.000000,-0.000000
1.210000,0.690000,0.893307,0.020000,-92.377886,7558.550000,327.704560,-327.735415,553.716938,0.000000,-0.000000,0.000000,643.415090,-643.445945,-0.079631,0.000000,-0.000000,-0.000000
1.230000,0.690000,0.910727,0.020000,-76.871803,7802.550000,327.232977,-327.251742,535.596464,0.000000,-0.000000,0.000000,627.645880,-627.664645,-0.077811,0.000000,-0.000000,-0.000000
1.230000,0.710000,0.920623,0.020000,-68.145883,7816.550000,309.616980,-309.644055,535.934401,0.000000,-0.000000,0.000000,618.934550,-618.961624,-0.074386,0.000000,-0.000000,-0.000000
1.210000,0.710000,0.903393,0.020000,-83.434072,7572.550000,309.440617,-309.464317,553.676258,0.000000,-0.000000,0.000000,634.273748,-634.297448,-0.087400,0.000000,-0.000000,-0.000000
1.250000,0.690000,0.928252,0.020000,-61.496607,8050.550000,326.421059,-326.432661,518.136928,0.000000,-0.000000,0.000000,612.383261,-612.394863,-0.089461,0.000000,-0.000000,-0.000000
1.270000,0.690000,0.945875,0.020000,-46.251963,8302.550000,325.195340,-325.563631,501.529577,0.000000,-0.000000,0.000000,597.648375,-598.016666,-0.058048,0.000000,-0.000000,-0.000000
1.270000,0.710000,0.955406,0.020000,-37.940963,8316.550000,308.623413,-311.007604,504.432281,0.000000,-0.000000,0.000000,590.785520,-593.169711,0.280220,0.000000,-0.000000,0.000000
1.250000,0.710000,0.937963,0.020000,-52.981533,8064.550000,309.374292,-309.374928,518.802907,0.000000,-0.000000,0.000000,604.043641,-604.044278,-0.018841,0.000000,-0.000000,-0.000000
1.290000,0.690000,0.963590,0.020000,-31.137362,8558.550000,323.519485,-332.562790,490.192078,0.000000,-0.000000,0.000000,585.307713,-594.351018,-0.761912,0.000000,-0.000000,-0.000000
1.310000,0.690000,0.981394,0.020000,-16.152662,8818.550000,316.463612,-351.455484,487.013498,0.000000,-0.000000,0.000000,573.021736,-608.013608,0.075115,0.000000,-0.000000,0.000000
1.310000,0.710000,0.990584,0.020000,-8.227456,8832.550000,288.741840,-358.444695,491.605903,0.000000,-0.000000,0.000000,553.690299,-623.393154,-2.757338,0.000000,-0.000000,-0.000000
1.290000,0.710000,0.972949,0.020000,-23.024161,8572.550000,307.125403,-322.878603,493.617357,0.000000,-0.000000,0.000000,577.683126,-593.436326,-2.040649,0.000000,-0.000000,-0.000000
1.330000,0.690000,0.999280,0.020000,-1.318236,9082.550000,311.409661,-384.029556,496.946180,0.000000,-0.000000,0.000000,570.205388,-642.825283,1.891961,0.000000,-0.000000,0.000000
-1.310000,0.730000,1.000426,0.020000,-0.202350,8846.950000,287.747737,-350.891080,-503.269368,0.000000,-0.000000,-0.000000,564.413974,-627.557317,6.786120,0.000000,-0.000000,0.000000
-1.290000,0.730000,0.983160,0.020000,-14.792555,8586.950000,289.692318,-319.185010,-500.894469,0.000000,-0.000000,-0.000000,571.400973,-600.893665,3.080544,0.000000,-0.000000,0.000000
-1.290000,0.750000,0.992915,0.020000,-6.436809,8601.750000,270.516383,-311.987776,-501.617459,0.000000,-0.000000,-0.000000,559.284547,-600.755940,4.936217,0.000000,-0.000000,0.000000
-1.270000,0.730000,0.965716,0.020000,-29.518438,8330.950000,293.489309,-300.458595,-506.972285,0.000000,-0.000000,-0.000000,584.063069,-591.032354,1.453553,0.000000,-0.000000,0.000000
-1.250000,0.730000,0.948248,0.020000,-44.360858,8078.950000,292.815741,-293.338203,-519.596400,0.000000,-0.000000,-0.000000,596.290970,-596.813431,-0.052964,0.000000,-0.000000,-0.000000
-1.250000,0.750000,0.958234,0.020000,-35.601155,8093.750000,275.377556,-279.335175,-521.692365,0.000000,-0.000000,-0.000000,588.858625,-592.816245,-0.776085,0.000000,-0.000000,-0.000000
-1.270000,0.750000,0.975524,0.020000,-20.963584,8345.750000,274.058727,-290.834638,-511.167333,0.000000,-0.000000,-0.000000,575.622233,-592.398145,0.519796,0.000000,-0.000000,0.000000
-1.230000,0.730000,0.930881,0.020000,-59.320315,7830.950000,292.393722,-292.388773,-535.906674,0.000000,-0.000000,-0.000000,610.484744,-610.479795,-0.054912,0.000000,-0.000000,-0.000000
-1.210000,0.730000,0.913622,0.020000,-74.396712,7586.950000,291.541490,-291.554627,-553.289542,0.000000,-0.000000,-0.000000,625.396965,-625.410102,-0.087342,0.000000,-0.000000,-0.000000
-1.210000,0.750000,0.923984,0.020000,-65.208526,7601.750000,274.087371,-274.119377,-551.972485,0.000000,-0.000000,-0.000000,616.268248,-616.300253,-0.079329,0.000000,-0.000000,-0.000000
-1.230000,0.750000,0.941052,0.020000,-50.349748,7845.750000,275.332407,-275.484134,-535.123380,0.000000,-0.000000,-0.000000,601.760244,-601.911970,-0.218272,0.000000,-0.000000,-0.000000
-1.190000,0.730000,0.896478,0.020000,-89.589718,7346.950000,290.376208,-290.373695,-571.320201,0.000000,-0.000000,-0.000000,640.879078,-640.876566,-0.047492,0.000000,-0.000000,-0.000000
-1.170000,0.730000,0.879453,0.020000,-104.898835,7110.950000,286.463840,-288.335728,-591.733595,0.000000,-0.000000,-0.000000,656.896398,-658.768286,-1.973380,0.000000,-0.000000,-0.000000
-1.170000,0.750000,0.890212,0.020000,-95.254211,7125.750000,269.736279,-269.647207,-587.412700,0.000000,-0.000000,-0.000000,646.409199,-646.320127,-0.197055,0.000000,-0.000000,-0.000000
-1.190000,0.750000,0.907035,0.020000,-80.176928,7361.750000,272.557556,-271.934468,-568.872828,0.000000,-0.000000,-0.000000,630.973221,-630.350133,0.186640,0.000000,-0.000000,0.000000
-1.150000,0.730000,0.862557,0.020000,-120.323376,6878.950000,283.947093,-282.161608,-607.081812,0.000000,-0.000000,-0.000000,670.716003,-668.930518,-2.211677,0.000000,-0.000000,-0.000000
-1.130000,0.730000,0.845796,0.020000,-135.862453,6650.950000,280.032511,-281.189540,-632.925276,0.000000,-0.000000,-0.000000,691.749214,-692.906243,-4.389620,0.000000,-0.000000,-0.000000
-1.130000,0.750000,0.856978,0.020000,-125.731475,6665.750000,268.265403,-266.054654,-625.876990,0.000000,-0.000000,-0.000000,681.610225,-679.399476,3.104124,0.000000,-0.000000,0.000000
-1.150000,0.750000,0.873524,0.020000,-110.439442,6893.750000,271.027771,-269.292389,-603.544855,0.000000,-0.000000,-0.000000,662.107232,-660.371850,3.889681,0.000000,-0.000000,0.000000
1.130000,0.730000,0.845892,0.020000,-135.808189,6650.950000,280.087909,-281.243749,632.560471,0.000000,-0.000000,0.000000,691.439784,-692.595624,4.189693,0.000000,-0.000000,0.000000
1.150000,0.730000,0.862903,0.020000,-120.275094,6878.950000,283.993659,-282.210106,606.733887,0.000000,-0.000000,0.000000,670.420419,-668.636865,2.020597,0.000000,-0.000000,0.000000
1.150000,0.750000,0.873484,0.020000,-110.395486,6893.750000,271.082414,-269.348740,603.208665,0.000000,-0.000000,0.000000,661.821100,-660.087426,-4.076014,0.000000,-0.000000,-0.000000
1.130000,0.750000,0.856684,0.020000,-125.681678,6665.750000,268.327318,-266.118520,625.527773,0.000000,-0.000000,0.000000,681.311874,-679.103076,-3.297709,0.000000,-0.000000,-0.000000
1.170000,0.730000,0.880039,0.020000,-104.856551,7110.950000,286.499580,-288.369439,591.394616,0.000000,-0.000000,0.000000,656.608205,-658.478064,1.793180,0.000000,-0.000000,0.000000
1.190000,0.730000,0.896892,0.020000,-89.553447,7346.950000,290.402141,-290.399657,570.994591,0.000000,-0.000000,0.000000,640.600563,-640.598079,-0.123191,0.000000,-0.000000,-0.000000
1.190000,0.750000,0.907474,0.020000,-80.144717,7361.750000,272.594325,-271.971829,568.556189,0.000000,-0.000000,0.000000,630.703259,-630.080763,-0.356681,0.000000,-0.000000,-0.000000
1.170000,0.750000,0.890417,0.020000,-95.216119,7125.750000,269.782332,-269.693149,587.084824,0.000000,-0.000000,0.000000,646.130528,-646.041346,0.018363,0.000000,-0.000000,0.000000
1.210000,0.730000,0.913806,0.020000,-74.366464,7586.950000,291.559690,-291.572792,552.975064,0.000000,-0.000000,0.000000,625.127265,-625.140367,-0.075384,0.000000,-0.000000,-0.000000
1.230000,0.730000,0.930844,0.020000,-59.296097,7830.950000,292.404682,-292.399705,535.603076,0.000000,-0.000000,0.000000,610.223504,-610.218527,-0.100130,0.000000,-0.000000,-0.000000
1.230000,0.750000,0.941378,0.020000,-50.329342,7845.750000,275.353845,-275.505529,534.826815,0.000000,-0.000000,0.000000,601.506431,-601.658114,0.063425,0.000000,-0.000000,0.000000
1.210000,0.750000,0.924535,0.020000,-65.182212,7601.750000,274.116263,-274.148225,551.665706,0.000000,-0.000000,0.000000,616.006366,-616.038327,-0.083007,0.000000,-0.000000,-0.000000
1.250000,0.730000,0.947996,0.020000,-44.342676,8078.950000,292.820258,-293.342291,519.303025,0.000000,-0.000000,0.000000,596.037782,-596.559814,-0.094937,0.000000,-0.000000,-0.000000
1.270000,0.730000,0.965259,0.020000,-29.506292,8330.950000,293.487989,-300.452285,506.686533,0.000000,-0.000000,0.000000,583.816724,-590.781020,-1.594078,0.000000,-0.000000,-0.000000
1.270000,0.750000,0.975422,0.020000,-20.955017,8345.750000,274.069194,-290.836113,510.885394,0.000000,-0.000000,0.000000,575.382718,-592.149637,-0.661160,0.000000,-0.000000,-0.000000
1.250000,0.750000,0.958342,0.020000,-35.586666,8093.750000,275.392544,-279.348627,521.404319,0.000000,-0.000000,0.000000,588.611927,-592.568010,0.627986,0.000000,-0.000000,0.000000
1.290000,0.730000,0.982625,0.020000,-14.786445,8586.950000,289.688483,-319.163431,500.611344,0.000000,-0.000000,0.000000,571.160591,-600.635539,-3.215427,0.000000,-0.000000,-0.000000
1.310000,0.730000,1.000089,0.020000,-0.202262,8846.950000,287.741777,-350.847457,502.981331,0.000000,-0.000000,0.000000,564.174810,-627.280490,-6.916573,0.000000,-0.000000,-0.000000
1.290000,0.750000,0.992610,0.020000,-6.434170,8601.750000,270.526073,-311.970907,501.341515,0.000000,-0.000000,0.000000,559.056245,-600.501079,-5.069620,0.000000,-0.000000,-0.000000
-1.270000,0.770000,0.985640,0.020000,-12.294877,8360.950000,250.849665,-285.836339,-517.231955,0.000000,-0.000000,-0.000000,565.203245,-600.189919,-1.247326,0.000000,-0.000000,-0.000000
-1.250000,0.770000,0.968532,0.020000,-26.730840,8108.950000,259.983138,-267.891675,-523.403282,0.000000,-0.000000,-0.000000,582.231603,-590.140140,0.272657,0.000000,-0.000000,0.000000
-1.250000,0.790000,0.979129,0.020000,-17.756658,8124.550000,246.704530,-258.743044,-525.168033,0.000000,-0.000000,-0.000000,576.786408,-588.824923,2.886581,0.000000,-0.000000,0.000000
-1.270000,0.790000,0.996056,0.020000,-3.535559,8376.550000,249.148869,-277.283510,-525.000100,0.000000,-0.000000,-0.000000,573.207319,-601.341959,4.045377,0.000000,-0.000000,0.000000
-1.230000,0.770000,0.951535,0.020000,-41.268975,7860.950000,259.122954,-260.279175,-534.703129,0.000000,-0.000000,-0.000000,593.856141,-595.012361,-0.000533,0.000000,-0.000000,-0.000000
-1.210000,0.770000,0.934658,0.020000,-55.910686,7616.950000,257.086858,-257.060456,-550.011462,0.000000,-0.000000,-0.000000,607.137133,-607.110731,-0.067542,0.000000,-0.000000,-0.000000
-1.210000,0.790000,0.945635,0.020000,-46.509998,7632.550000,240.310262,-240.601859,-547.822587,0.000000,-0.000000,-0.000000,598.125590,-598.417187,-0.223674,0.000000,-0.000000,-0.000000
-1.230000,0.790000,0.962320,0.020000,-32.084502,7876.550000,243.461844,-247.769336,-534.066827,0.000000,-0.000000,-0.000000,585.683693,-589.991185,1.240403,0.000000,-0.000000,0.000000
-1.190000,0.770000,0.917906,0.020000,-70.655223,7376.950000,254.639576,-254.670398,-567.126348,0.000000,-0.000000,-0.000000,621.660911,-621.691733,-0.088442,0.000000,-0.000000,-0.000000
-1.170000,0.770000,0.901287,0.020000,-85.501606,7140.950000,251.714946,-251.742322,-584.744408,0.000000,-0.000000,-0.000000,636.612825,-636.640202,-0.100422,0.000000,-0.000000,-0.000000
-1.170000,0.790000,0.912665,0.020000,-75.648286,7156.550000,234.092820,-234.122496,-581.292533,0.000000,-0.000000,-0.000000,626.648865,-626.678541,-0.087939,0.000000,-0.000000,-0.000000
-1.190000,0.790000,0.929081,0.020000,-61.031638,7392.550000,237.569354,-237.593456,-564.186072,0.000000,-0.000000,-0.000000,612.156915,-612.181017,-0.066077,0.000000,-0.000000,-0.000000
-1.150000,0.770000,0.884808,0.020000,-100.448668,6908.950000,247.886949,-248.206865,-602.956213,0.000000,-0.000000,-0.000000,651.824210,-652.144127,-0.326710,0.000000,-0.000000,-0.000000
-1.130000,0.770000,0.868374,0.020000,-115.495027,6680.950000,241.564839,-244.068520,-623.689039,0.000000,-0.000000,-0.000000,668.033792,-670.537472,-2.167995,0.000000,-0.000000,-0.000000
-1.130000,0.790000,0.879431,0.020000,-105.160855,6696.550000,225.358213,-225.316089,-616.864476,0.000000,-0.000000,-0.000000,656.754322,-656.712198,-0.195781,0.000000,-0.000000,-0.000000
-1.150000,0.790000,0.896060,0.020000,-90.358559,6924.550000,230.453362,-229.761660,-598.218756,0.000000,-0.000000,-0.000000,641.294461,-640.602759,0.158927,0.000000,-0.000000,0.000000
-1.110000,0.770000,0.851673,0.020000,-130.639069,6456.950000,236.879092,-234.856879,-638.996235,0.000000,-0.000000,-0.000000,682.143698,-680.121485,-2.878717,0.000000,-0.000000,-0.000000
-1.090000,0.770000,0.835117,0.020000,-145.878926,6236.950000,231.077171,-232.370836,-665.194397,0.000000,-0.000000,-0.000000,703.742523,-705.036188,-3.903308,0.000000,-0.000000,-0.000000
-1.090000,0.790000,0.846608,0.020000,-135.033916,6252.550000,219.482096,-217.090953,-654.848967,0.000000,-0.000000,-0.000000,691.458506,-689.067364,3.641008,0.000000,-0.000000,0.000000
-1.110000,0.790000,0.862944,0.020000,-120.053338,6472.550000,223.879437,-221.952893,-632.632044,0.000000,-0.000000,-0.000000,671.711633,-669.785089,3.399465,0.000000,-0.000000,0.000000
1.090000,0.770000,0.835073,0.020000,-145.822255,6236.950000,231.178676,-232.471110,664.830468,0.000000,-0.000000,0.000000,703.433850,-704.726284,3.686597,0.000000,-0.000000,0.000000
1.110000,0.770000,0.851360,0.020000,-130.588036,6456.950000,236.970272,-234.950079,638.647574,0.000000,-0.000000,0.000000,681.848402,-679.828209,2.670249,0.000000,-0.000000,0.000000
1.110000,0.790000,0.863011,0.020000,-120.006849,6472.550000,223.977814,-222.053027,632.297521,0.000000,-0.000000,0.000000,671.427197,-669.502410,-3.602818,0.000000,-0.000000,-0.000000
1.090000,0.790000,0.846948,0.020000,-134.981928,6252.550000,219.589062,-217.199874,654.503204,0.000000,-0.000000,0.000000,691.162532,-688.773344,-3.851201,0.000000,-0.000000,-0.000000
1.130000,0.770000,0.867803,0.020000,-115.449669,6680.950000,241.643063,-244.144385,623.348149,0.000000,-0.000000,0.000000,667.745893,-670.247214,1.971588,0.000000,-0.000000,0.000000
1.150000,0.770000,0.884392,0.020000,-100.409016,6908.950000,247.953405,-248.273179,602.627582,0.000000,-0.000000,0.000000,651.545713,-651.865487,0.140151,0.000000,-0.000000,0.000000
1.150000,0.790000,0.895613,0.020000,-90.323183,6924.550000,230.529256,-229.838167,597.901068,0.000000,-0.000000,0.000000,641.024956,-640.333868,-0.344035,0.000000,-0.000000,-0.000000
1.130000,0.790000,0.879236,0.020000,-105.119905,6696.550000,225.445310,-225.403024,616.536754,0.000000,-0.000000,0.000000,656.476491,-656.434205,0.001518,0.000000,-0.000000,0.000000
1.170000,0.770000,0.901119,0.020000,-85.467685,7140.950000,251.771419,-251.798754,584.425850,0.000000,-0.000000,0.000000,636.342599,-636.369935,-0.077434,0.000000,-0.000000,-0.000000
1.190000,0.770000,0.917977,0.020000,-70.627057,7376.950000,254.686905,-254.717685,566.817765,0.000000,-0.000000,0.000000,621.398829,-621.429609,-0.081156,0.000000,-0.000000,-0.000000
1.190000,0.790000,0.928793,0.020000,-61.007499,7392.550000,237.626199,-237.650256,563.886353,0.000000,-0.000000,0.000000,611.902783,-611.926840,-0.102639,0.000000,-0.000000,-0.000000
1.170000,0.790000,0.912134,0.020000,-75.618515,7156.550000,234.158981,-234.188614,580.983579,0.000000,-0.000000,0.000000,626.387034,-626.416667,-0.088867,0.000000,-0.000000,-0.000000
1.210000,0.770000,0.934960,0.020000,-55.888294,7616.950000,257.125735,-257.099321,549.712679,0.000000,-0.000000,0.000000,606.882940,-606.856527,-0.094214,0.000000,-0.000000,-0.000000
1.230000,0.770000,0.952059,0.020000,-41.252372,7860.950000,259.154214,-260.310063,534.413373,0.000000,-0.000000,0.000000,593.609263,-594.765112,-0.154010,0.000000,-0.000000,-0.000000
1.230000,0.790000,0.962492,0.020000,-32.071690,7876.550000,243.503209,-247.807983,533.783030,0.000000,-0.000000,0.000000,585.443604,-589.748378,-1.394819,0.000000,-0.000000,-0.000000
1.210000,0.790000,0.945581,0.020000,-46.491513,7632.550000,240.358780,-240.649967,547.531614,0.000000,-0.000000,0.000000,597.878836,-598.170023,0.062396,0.000000,-0.000000,0.000000
1.250000,0.770000,0.968991,0.020000,-26.720039,8108.950000,260.008397,-267.914398,523.120574,0.000000,-0.000000,0.000000,581.991175,-589.897177,-0.421259,0.000000,-0.000000,-0.000000
1.270000,0.770000,0.985885,0.020000,-12.289887,8360.950000,250.872649,-285.847828,516.953602,0.000000,-0.000000,0.000000,564.970158,-599.945337,1.103328,0.000000,-0.000000,0.000000
1.270000,0.790000,0.996641,0.020000,-3.534136,8376.550000,249.177569,-277.306112,524.723994,0.000000,-0.000000,0.000000,572.974038,-601.102581,-4.190430,0.000000,-0.000000,-0.000000
1.250000,0.790000,0.979519,0.020000,-17.749535,8124.550000,246.739295,-258.774174,524.889309,0.000000,-0.000000,0.000000,576.550614,-588.585493,-3.035957,0.000000,-0.000000,-0.000000
-1.250000,0.810000,0.990017,0.020000,-8.680234,8140.550000,227.490212,-251.225547,-520.426789,0.000000,-0.000000,-0.000000,560.934203,-584.669538,5.852729,0.000000,-0.000000,0.000000
-1.230000,0.810000,0.973396,0.020000,-22.803128,7892.550000,227.162048,-235.385163,-534.158942,0.000000,-0.000000,-0.000000,577.963285,-586.186400,1.460767,0.000000,-0.000000,0.000000
-1.210000,0.810000,0.956904,0.020000,-37.013101,7648.550000,224.418180,-225.889459,-546.168223,0.000000,-0.000000,-0.000000,590.021476,-591.492756,0.020089,0.000000,-0.000000,0.000000
-1.210000,0.830000,0.968171,0.020000,-27.426291,7664.950000,209.562119,-210.627712,-543.039498,0.000000,-0.000000,-0.000000,581.731353,-582.796946,0.479530,0.000000,-0.000000,0.000000
-1.230000,0.830000,0.984753,0.020000,-13.429789,7908.950000,213.418200,-219.553398,-532.797501,0.000000,-0.000000,-0.000000,572.030156,-578.165354,1.360507,0.000000,-0.000000,0.000000
-1.190000,0.810000,0.940480,0.020000,-51.313010,7408.550000,220.909133,-220.860756,-560.667374,0.000000,-0.000000,-0.000000,602.633551,-602.585175,-0.137636,0.000000,-0.000000,-0.000000
-1.170000,0.810000,0.923784,0.020000,-65.701304,7172.550000,216.992931,-217.035570,-577.329005,0.000000,-0.000000,-0.000000,616.747646,-616.790284,-0.094472,0.000000,-0.000000,-0.000000
-1.170000,0.830000,0.935041,0.020000,-55.667498,7188.950000,200.527293,-200.506565,-572.810919,0.000000,-0.000000,-0.000000,606.903589,-606.882861,-0.032775,0.000000,-0.000000,-0.000000
-1.190000,0.830000,0.951540,0.020000,-41.505985,7424.950000,204.951189,-204.652444,-556.787794,0.000000,-0.000000,-0.000000,593.408512,-593.109768,-0.157043,0.000000,-0.000000,-0.000000
-1.150000,0.810000,0.907221,0.020000,-80.176386,6940.550000,212.495858,-212.529726,-594.375996,0.000000,-0.000000,-0.000000,631.207672,-631.241540,-0.091394,0.000000,-0.000000,-0.000000
-1.130000,0.810000,0.890799,0.020000,-94.736453,6712.550000,207.386995,-207.419644,-611.916981,0.000000,-0.000000,-0.000000,646.093973,-646.126622,-0.106334,0.000000,-0.000000,-0.000000
-1.130000,0.830000,0.902468,0.020000,-84.229065,6728.950000,189.927944,-189.964941,-606.274821,0.000000,-0.000000,-0.000000,635.315115,-635.352112,-0.095665,0.000000,-0.000000,-0.000000
-1.150000,0.830000,0.918681,0.020000,-69.909189,6956.950000,195.489748,-195.522187,-589.344759,0.000000,-0.000000,-0.000000,620.910362,-620.942801,-0.093441,0.000000,-0.000000,-0.000000
-1.110000,0.810000,0.874527,0.020000,-109.379465,6488.550000,201.321253,-201.624273,-629.942584,0.000000,-0.000000,-0.000000,661.224969,-661.527988,-0.295841,0.000000,-0.000000,-0.000000
-1.090000,0.810000,0.858412,0.020000,-124.103126,6268.550000,192.714317,-195.456390,-650.647039,0.000000,-0.000000,-0.000000,677.604101,-680.346175,-1.858967,0.000000,-0.000000,-0.000000
-1.090000,0.830000,0.870515,0.020000,-113.094206,6284.950000,176.726152,-176.749300,-641.249108,0.000000,-0.000000,-0.000000,665.147514,-665.170662,-0.171717,0.000000,-0.000000,-0.000000
-1.110000,0.830000,0.886410,0.020000,-98.624898,6504.950000,184.122590,-183.371080,-622.880368,0.000000,-0.000000,-0.000000,649.793062,-649.041552,0.116242,0.000000,-0.000000,0.000000
-1.070000,0.810000,0.842463,0.020000,-138.904866,6052.550000,184.948860,-182.999026,-665.235443,0.000000,-0.000000,-0.000000,691.172352,-689.222518,-3.479540,0.000000,-0.000000,-0.000000
-1.050000,0.810000,0.826691,0.020000,-153.781822,5840.550000,177.805975,-179.197743,-691.421686,0.000000,-0.000000,-0.000000,713.390047,-714.781815,-2.853962,0.000000,-0.000000,-0.000000
-1.050000,0.830000,0.839252,0.020000,-142.241941,5856.950000,168.544157,-165.199208,-678.835890,0.000000,-0.000000,-0.000000,700.695073,-697.350124,5.632924,0.000000,-0.000000,0.000000
-1.070000,0.830000,0.854792,0.020000,-127.634236,6068.950000,172.379992,-170.379515,-656.350224,0.000000,-0.000000,-0.000000,679.350350,-677.349873,2.786027,0.000000,-0.000000,0.000000
1.050000,0.810000,0.826662,0.020000,-153.723892,5840.550000,177.953738,-179.344438,691.066774,0.000000,-0.000000,0.000000,713.084666,-714.475365,2.621466,0.000000,-0.000000,0.000000
1.070000,0.810000,0.842722,0.020000,-138.852200,6052.550000,185.085146,-183.137659,664.893195,0.000000,-0.000000,0.000000,690.879084,-688.931597,3.254353,0.000000,-0.000000,0.000000
1.070000,0.830000,0.854679,0.020000,-127.586293,6068.950000,172.522353,-170.523713,656.024325,0.000000,-0.000000,0.000000,679.069398,-677.070758,-3.005845,0.000000,-0.000000,-0.000000
1.050000,0.830000,0.838847,0.020000,-142.188870,5856.950000,168.694952,-165.351448,678.501919,0.000000,-0.000000,0.000000,700.404386,-697.060882,-5.857455,0.000000,-0.000000,-0.000000
1.090000,0.810000,0.858948,0.020000,-124.055776,6268.550000,192.835616,-195.575305,650.311298,0.000000,-0.000000,0.000000,677.318472,-680.058162,1.647114,0.000000,-0.000000,0.000000
1.110000,0.810000,0.874964,0.020000,-109.337481,6488.550000,201.429180,-201.732097,629.617515,0.000000,-0.000000,0.000000,660.948353,-661.251270,0.093944,0.000000,-0.000000,0.000000
1.110000,0.830000,0.886848,0.020000,-98.587375,6504.950000,184.238455,-183.487561,622.567989,0.000000,-0.000000,0.000000,649.525974,-648.775079,-0.316006,0.000000,-0.000000,-0.000000
1.090000,0.830000,0.870682,0.020000,-113.051448,6284.950000,176.854894,-176.877821,640.928339,0.000000,-0.000000,0.000000,664.872618,-664.895545,-0.037592,0.000000,-0.000000,-0.000000
1.130000,0.810000,0.890971,0.020000,-94.699878,6712.550000,207.483176,-207.515781,611.600489,0.000000,-0.000000,0.000000,645.825152,-645.857757,-0.086374,0.000000,-0.000000,-0.000000
1.150000,0.810000,0.907136,0.020000,-80.145258,6940.550000,212.581114,-212.614937,594.068167,0.000000,-0.000000,0.000000,630.946558,-630.980380,-0.092537,0.000000,-0.000000,-0.000000
1.150000,0.830000,0.918950,0.020000,-69.882274,6956.950000,195.583262,-195.615660,589.047486,0.000000,-0.000000,0.000000,620.657695,-620.690093,-0.088935,0.000000,-0.000000,-0.000000
1.130000,0.830000,0.902997,0.020000,-84.196825,6728.950000,190.032406,-190.069358,605.969662,0.000000,-0.000000,0.000000,635.055189,-635.092141,-0.095271,0.000000,-0.000000,-0.000000
1.170000,0.810000,0.923452,0.020000,-65.675657,7172.550000,217.068035,-217.110628,577.029781,0.000000,-0.000000,0.000000,616.494024,-616.536616,-0.081132,0.000000,-0.000000,-0.000000
1.190000,0.810000,0.939910,0.020000,-51.292874,7408.550000,220.974788,-220.926438,560.376742,0.000000,-0.000000,0.000000,602.387242,-602.338893,-0.030049,0.000000,-0.000000,-0.000000
1.190000,0.830000,0.951317,0.020000,-41.489826,7424.950000,205.025248,-204.726636,556.506159,0.000000,-0.000000,0.000000,593.169758,-592.871146,-0.009813,0.000000,-0.000000,-0.000000
1.170000,0.830000,0.935060,0.020000,-55.645944,7188.950000,200.610574,-200.589816,572.521526,0.000000,-0.000000,0.000000,606.657983,-606.637226,-0.141443,0.000000,-0.000000,-0.000000
1.210000,0.810000,0.956503,0.020000,-36.998502,7648.550000,224.475033,-225.945825,545.885239,0.000000,-0.000000,0.000000,589.781665,-591.252457,-0.180271,0.000000,-0.000000,-0.000000
1.230000,0.810000,0.973224,0.020000,-22.794089,7892.550000,227.212371,-235.431409,533.881122,0.000000,-0.000000,0.000000,577.729171,-585.948209,-1.614870,0.000000,-0.000000,-0.000000
1.230000,0.830000,0.984245,0.020000,-13.424506,7908.950000,213.475280,-219.613035,532.527926,0.000000,-0.000000,0.000000,571.800732,-577.938487,-1.515510,0.000000,-0.000000,-0.000000
1.210000,0.830000,0.967714,0.020000,-27.415557,7664.950000,209.628129,-210.694062,542.764801,0.000000,-0.000000,0.000000,581.498739,-582.564672,-0.640178,0.000000,-0.000000,-0.000000
1.250000,0.810000,0.990066,0.020000,-8.676777,8140.550000,227.537148,-251.261416,520.154834,0.000000,-0.000000,0.000000,560.708428,-584.432696,-6.001624,0.000000,-0.000000,-0.000000
-1.230000,0.850000,0.995895,0.020000,-3.969503,7925.750000,204.085369,-196.763868,-528.636403,0.000000,-0.000000,-0.000000,569.015647,-561.694147,0.560823,0.000000,-0.000000,0.000000
-1.210000,0.850000,0.979326,0.020000,-17.756954,7681.750000,196.614396,-191.744905,-540.941510,0.000000,-0.000000,-0.000000,577.171924,-572.302434,-0.793324,0.000000,-0.000000,-0.000000
-1.210000,0.870000,0.990760,0.020000,-8.004423,7698.950000,180.210213,-182.671893,-537.158087,0.000000,-0.000000,-0.000000,565.742482,-568.204162,0.958034,0.000000,-0.000000,0.000000
-1.190000,0.850000,0.962888,0.020000,-31.616956,7441.750000,188.481404,-190.288432,-554.195846,0.000000,-0.000000,-0.000000,584.757936,-586.564963,-0.591298,0.000000,-0.000000,-0.000000
-1.170000,0.850000,0.946587,0.020000,-45.553479,7205.750000,183.945167,-184.389731,-568.359922,0.000000,-0.000000,-0.000000,597.230967,-597.675531,-0.515826,0.000000,-0.000000,-0.000000
-1.170000,0.870000,0.958411,0.020000,-35.365679,7222.950000,170.189194,-170.236969,-563.217262,0.000000,-0.000000,-0.000000,588.351364,-588.399138,0.861241,0.000000,-0.000000,0.000000
-1.190000,0.870000,0.974515,0.020000,-21.652128,7458.950000,175.732970,-177.820315,-551.582113,0.000000,-0.000000,-0.000000,578.172658,-580.260003,1.118632,0.000000,-0.000000,0.000000
-1.150000,0.850000,0.930430,0.020000,-59.563769,6973.750000,179.077652,-179.139185,-583.901305,0.000000,-0.000000,-0.000000,610.723318,-610.784850,-0.089890,0.000000,-0.000000,-0.000000
-1.130000,0.850000,0.914426,0.020000,-73.645676,6745.750000,173.099641,-173.133767,-600.184346,0.000000,-0.000000,-0.000000,624.635347,-624.669474,-0.092535,0.000000,-0.000000,-0.000000
-1.130000,0.870000,0.926660,0.020000,-62.993021,6762.950000,156.883714,-156.927827,-593.707341,0.000000,-0.000000,-0.000000,614.068993,-614.113105,-0.108020,0.000000,-0.000000,-0.000000
-1.150000,0.870000,0.942457,0.020000,-49.146688,6990.950000,163.392389,-163.252411,-577.817457,0.000000,-0.000000,-0.000000,600.525832,-600.385854,-0.002612,0.000000,-0.000000,-0.000000
-1.110000,0.850000,0.898581,0.020000,-87.796809,6521.750000,166.476676,-166.515616,-616.899050,0.000000,-0.000000,-0.000000,638.952669,-638.991609,-0.099012,0.000000,-0.000000,-0.000000
-1.090000,0.850000,0.882905,0.020000,-102.014517,6301.750000,159.251406,-159.444036,-633.995294,0.000000,-0.000000,-0.000000,653.617481,-653.810111,0.043504,0.000000,-0.000000,0.000000
-1.090000,0.870000,0.895571,0.020000,-90.871124,6318.950000,142.312791,-142.493308,-626.164164,0.000000,-0.000000,-0.000000,642.062517,-642.243034,0.040944,0.000000,-0.000000,0.000000
-1.110000,0.870000,0.911029,0.020000,-76.902099,6538.950000,149.904466,-149.944064,-609.759240,0.000000,-0.000000,-0.000000,627.900265,-627.939863,-0.097469,0.000000,-0.000000,-0.000000
-1.070000,0.850000,0.867407,0.020000,-116.295881,6085.750000,149.428461,-147.344523,-651.762177,0.000000,-0.000000,-0.000000,669.476078,-667.392140,-2.885999,0.000000,-0.000000,-0.000000
-1.050000,0.850000,0.851814,0.020000,-130.637689,5873.750000,139.672251,-141.973062,-672.305056,0.000000,-0.000000,-0.000000,685.741175,-688.041986,-2.250674,0.000000,-0.000000,-0.000000
-1.050000,0.870000,0.864218,0.020000,-118.976457,5890.950000,125.847834,-126.251851,-658.784439,0.000000,-0.000000,-0.000000,670.531559,-670.935576,1.407530,0.000000,-0.000000,0.000000
-1.070000,0.870000,0.879883,0.020000,-104.897028,6102.950000,134.944944,-134.245522,-641.167672,0.000000,-0.000000,-0.000000,655.491641,-654.792219,0.955067,0.000000,-0.000000,0.000000
1.050000,0.850000,0.851329,0.020000,-130.589415,5873.750000,139.835763,-142.134890,671.980779,0.000000,-0.000000,0.000000,685.458719,-687.757846,2.024049,0.000000,-0.000000,0.000000
1.070000,0.850000,0.866933,0.020000,-116.252604,6085.750000,149.578833,-147.497053,651.446732,0.000000,-0.000000,0.000000,669.201987,-667.120207,2.667121,0.000000,-0.000000,0.000000
1.070000,0.870000,0.879470,0.020000,-104.858358,6102.950000,135.100498,-134.403000,640.868430,0.000000,-0.000000,0.000000,655.229663,-654.532165,-1.169342,0.000000,-0.000000,-0.000000
1.050000,0.870000,0.864093,0.020000,-118.932914,5890.950000,126.016509,-126.420440,658.478859,0.000000,-0.000000,0.000000,670.262690,-670.666621,-1.630020,0.000000,-0.000000,-0.000000
1.090000,0.850000,0.882714,0.020000,-101.976298,6301.750000,159.387367,-159.579710,633.687416,0.000000,-0.000000,0.000000,653.352126,-653.544469,-0.250254,0.000000,-0.000000,-0.000000
1.110000,0.850000,0.898663,0.020000,-87.763701,6521.750000,166.600303,-166.639197,616.598135,0.000000,-0.000000,0.000000,638.694410,-638.733304,-0.098771,0.000000,-0.000000,-0.000000
1.110000,0.870000,0.910763,0.020000,-76.873357,6538.950000,150.034731,-150.074285,609.470331,0.000000,-0.000000,0.000000,627.650861,-627.690416,-0.098027,0.000000,-0.000000,-0.000000
1.090000,0.870000,0.895030,0.020000,-90.837390,6318.950000,142.455259,-142.635501,625.869075,0.000000,-0.000000,0.000000,641.806462,-641.986705,-0.245153,0.000000,-0.000000,-0.000000
1.130000,0.850000,0.914771,0.020000,-73.617730,6745.750000,173.211592,-173.245675,599.890504,0.000000,-0.000000,0.000000,624.384084,-624.418168,-0.096484,0.000000,-0.000000,-0.000000
1.150000,0.850000,0.931030,0.020000,-59.541029,6973.750000,179.178694,-179.240168,583.614579,0.000000,-0.000000,0.000000,610.478877,-610.540351,-0.090802,0.000000,-0.000000,-0.000000
1.150000,0.870000,0.942716,0.020000,-49.128083,6990.950000,163.500125,-163.360173,577.541352,0.000000,-0.000000,0.000000,600.289433,-600.149481,-0.176176,0.000000,-0.000000,-0.000000
1.130000,0.870000,0.926661,0.020000,-62.969324,6762.950000,157.002409,-157.046483,593.424754,0.000000,-0.000000,0.000000,613.826160,-613.870234,-0.078962,0.000000,-0.000000,-0.000000
1.170000,0.850000,0.946948,0.020000,-45.535985,7205.750000,184.036395,-184.480386,568.079865,0.000000,-0.000000,0.000000,596.993016,-597.437007,0.342778,0.000000,-0.000000,0.000000
1.190000,0.850000,0.963004,0.020000,-31.604745,7441.750000,188.564653,-190.369780,553.921492,0.000000,-0.000000,0.000000,584.526053,-586.331180,0.424468,0.000000,-0.000000,0.000000
1.190000,0.870000,0.974962,0.020000,-21.643833,7458.950000,175.822853,-177.907544,551.315137,0.000000,-0.000000,0.000000,577.946455,-580.031145,-1.284004,0.000000,-0.000000,-0.000000
1.170000,0.870000,0.958918,0.020000,-35.352209,7222.950000,170.286520,-170.334042,562.947091,0.000000,-0.000000,0.000000,588.120739,-588.168262,-1.032106,0.000000,-0.000000,-0.000000
1.210000,0.850000,0.979206,0.020000,-17.750058,7681.750000,196.689703,-191.822246,540.672691,0.000000,-0.000000,0.000000,576.943907,-572.076450,0.630352,0.000000,-0.000000,0.000000
1.230000,0.850000,0.995546,0.020000,-3.967956,7925.750000,204.152324,-196.839769,528.375292,0.000000,-0.000000,0.000000,568.792186,-561.479631,-0.719962,0.000000,-0.000000,-0.000000
1.210000,0.870000,0.990968,0.020000,-8.001338,7698.950000,180.295084,-182.753861,536.894804,0.000000,-0.000000,0.000000,565.520916,-567.979694,-1.120945,0.000000,-0.000000,-0.000000
-1.190000,0.890000,0.986410,0.020000,-11.619537,7476.550000,171.294554,-153.403799,-542.342131,0.000000,-0.000000,-0.000000,575.060308,-557.169552,2.475562,0.000000,-0.000000,0.000000
-1.170000,0.890000,0.970504,0.020000,-25.110008,7240.550000,155.013149,-152.052701,-555.631791,0.000000,-0.000000,-0.000000,577.933976,-574.973529,-0.342780,0.000000,-0.000000,-0.000000
-1.170000,0.910000,0.982855,0.020000,-14.793652,7258.550000,138.721133,-126.806361,-551.957304,0.000000,-0.000000,-0.000000,573.611695,-561.696924,-7.187705,0.000000,-0.000000,-0.000000
-1.190000,0.910000,0.998564,0.020000,-1.505157,7494.550000,150.799054,-116.171910,-526.542683,0.000000,-0.000000,-0.000000,560.436113,-525.808968,-9.136548,0.000000,-0.000000,-0.000000
-1.150000,0.890000,0.954752,0.020000,-38.664275,7008.550000,147.598476,-146.725386,-571.139406,0.000000,-0.000000,-0.000000,590.229911,-589.356822,-0.800089,0.000000,-0.000000,-0.000000
-1.130000,0.890000,0.939162,0.020000,-52.277578,6780.550000,141.417618,-141.453724,-586.859231,0.000000,-0.000000,-0.000000,603.643943,-603.680049,-0.012396,0.000000,-0.000000,-0.000000
-1.130000,0.910000,0.951802,0.020000,-41.505563,6798.550000,125.346809,-126.673016,-580.859854,0.000000,-0.000000,-0.000000,593.707265,-595.033471,-0.730602,0.000000,-0.000000,-0.000000
-1.150000,0.910000,0.967304,0.020000,-28.122688,7026.550000,130.036167,-131.852233,-567.794771,0.000000,-0.000000,-0.000000,581.782039,-583.598105,-3.092869,0.000000,-0.000000,-0.000000
-1.110000,0.890000,0.923742,0.020000,-65.947397,6556.550000,134.009193,-134.036128,-602.253969,0.000000,-0.000000,-0.000000,616.972681,-616.999617,-0.093752,0.000000,-0.000000,-0.000000
-1.090000,0.890000,0.907965,0.020000,-79.670804,6336.550000,126.006835,-126.041676,-617.984601,0.000000,-0.000000,-0.000000,630.686210,-630.721051,-0.105869,0.000000,-0.000000,-0.000000
-1.090000,0.910000,0.920482,0.020000,-68.420049,6354.550000,110.491147,-110.530644,-609.507295,0.000000,-0.000000,-0.000000,619.424996,-619.464493,-0.094788,0.000000,-0.000000,-0.000000
-1.110000,0.910000,0.936059,0.020000,-54.939064,6574.550000,118.685499,-118.808822,-594.552027,0.000000,-0.000000,-0.000000,606.232804,-606.356127,-0.148531,0.000000,-0.000000,-0.000000
-1.070000,0.890000,0.892345,0.020000,-93.444600,6120.550000,117.518265,-117.473231,-633.947973,0.000000,-0.000000,-0.000000,644.766869,-644.721834,0.064820,0.000000,-0.000000,0.000000
-1.050000,0.890000,0.876903,0.020000,-107.265304,5908.550000,106.392466,-108.903132,-652.603519,0.000000,-0.000000,-0.000000,660.166526,-662.677192,-0.725428,0.000000,-0.000000,-0.000000
-1.050000,0.910000,0.889857,0.020000,-95.510968,5926.550000,91.738101,-91.819530,-640.199893,0.000000,-0.000000,-0.000000,646.704392,-646.785821,-0.145827,0.000000,-0.000000,-0.000000
-1.070000,0.910000,0.905078,0.020000,-81.945213,6138.550000,101.923335,-101.152338,-624.024612,0.000000,-0.000000,-0.000000,632.616982,-631.845984,0.022192,0.000000,-0.000000,0.000000
-1.030000,0.890000,0.861649,0.020000,-121.129139,5700.550000,94.708129,-92.345689,-665.344677,0.000000,-0.000000,-0.000000,673.055459,-670.693019,-3.978637,0.000000,-0.000000,-0.000000
-1.010000,0.890000,0.846592,0.020000,-135.032009,5496.550000,84.924643,-86.355661,-688.350792,0.000000,-0.000000,-0.000000,692.940273,-694.371291,-1.644474,0.000000,-0.000000,-0.000000
-1.010000,0.910000,0.860002,0.020000,-122.748418,5514.550000,75.533285,-73.049547,-671.258355,0.000000,-0.000000,-0.000000,676.586019,-674.102282,4.155869,0.000000,-0.000000,0.000000
-1.030000,0.910000,0.874828,0.020000,-109.113433,5718.550000,83.404344,-81.290817,-652.697972,0.000000,-0.000000,-0.000000,658.927667,-656.814139,1.281464,0.000000,-0.000000,0.000000
1.010000,0.890000,0.847014,0.020000,-134.983836,5496.550000,85.127732,-86.557718,688.045997,0.000000,-0.000000,0.000000,692.663902,-694.093888,1.405163,0.000000,-0.000000,0.000000
1.030000,0.890000,0.862172,0.020000,-121.085575,5700.550000,94.899460,-92.538843,665.047465,0.000000,-0.000000,0.000000,672.788366,-670.427748,3.745314,0.000000,-0.000000,0.000000
1.030000,0.910000,0.875205,0.020000,-109.074578,5718.550000,83.599076,-81.487018,652.417755,0.000000,-0.000000,0.000000,658.672940,-656.560882,-1.509975,0.000000,-0.000000,-0.000000
1.010000,0.910000,0.860075,0.020000,-122.705071,5514.550000,75.737943,-73.255717,670.973934,0.000000,-0.000000,0.000000,676.323721,-673.841496,-4.389718,0.000000,-0.000000,-0.000000
1.050000,0.890000,0.877127,0.020000,-107.226425,5908.550000,106.567251,-109.075950,652.309236,0.000000,-0.000000,0.000000,659.905677,-662.414376,0.505762,0.000000,-0.000000,0.000000
1.070000,0.890000,0.892280,0.020000,-93.410475,6120.550000,117.679204,-117.634235,633.660429,0.000000,-0.000000,0.000000,644.513421,-644.468452,-0.275471,0.000000,-0.000000,-0.000000
1.070000,0.910000,0.905350,0.020000,-81.915568,6138.550000,102.088950,-101.318487,623.750620,0.000000,-0.000000,0.000000,632.372912,-631.602449,-0.229916,0.000000,-0.000000,-0.000000
1.050000,0.910000,0.890420,0.020000,-95.476682,5926.550000,91.917307,-91.998486,639.921154,0.000000,-0.000000,0.000000,646.454061,-646.535240,-0.071053,0.000000,-0.000000,-0.000000
1.090000,0.890000,0.907620,0.020000,-79.641498,6336.550000,126.155133,-126.189929,617.702129,0.000000,-0.000000,0.000000,630.439118,-630.473914,-0.095901,0.000000,-0.000000,-0.000000
1.110000,0.890000,0.923139,0.020000,-65.922969,6556.550000,134.145337,-134.172237,601.976934,0.000000,-0.000000,0.000000,616.731878,-616.758778,-0.099338,0.000000,-0.000000,-0.000000
1.110000,0.910000,0.935779,0.020000,-54.918895,6574.550000,118.826859,-118.950126,594.286666,0.000000,-0.000000,0.000000,606.000337,-606.123605,-0.042093,0.000000,-0.000000,-0.000000
1.090000,0.910000,0.920473,0.020000,-68.395111,6354.550000,110.644411,-110.683866,609.237223,0.000000,-0.000000,0.000000,619.186648,-619.226102,-0.104214,0.000000,-0.000000,-0.000000
1.130000,0.890000,0.938827,0.020000,-52.258082,6780.550000,141.542331,-141.578357,586.587749,0.000000,-0.000000,0.000000,603.409273,-603.445298,-0.172419,0.000000,-0.000000,-0.000000
1.150000,0.890000,0.954677,0.020000,-38.649762,7008.550000,147.713102,-146.839898,570.873519,0.000000,-0.000000,0.000000,590.001318,-589.128114,0.622491,0.000000,-0.000000,0.000000
1.150000,0.910000,0.966904,0.020000,-28.112222,7026.550000,130.158548,-131.971940,567.536597,0.000000,-0.000000,0.000000,581.559943,-583.373336,2.915716,0.000000,-0.000000,0.000000
1.130000,0.910000,0.951259,0.020000,-41.490219,6798.550000,125.477274,-126.802522,580.598585,0.000000,-0.000000,0.000000,593.480196,-594.805444,0.547900,0.000000,-0.000000,0.000000
1.170000,0.890000,0.970680,0.020000,-25.100524,7240.550000,155.118942,-152.159094,555.371650,0.000000,-0.000000,0.000000,577.711291,-574.751443,0.171101,0.000000,-0.000000,0.000000
1.190000,0.890000,0.986829,0.020000,-11.615121,7476.550000,171.387810,-153.505388,542.086531,0.000000,-0.000000,0.000000,574.838488,-556.956066,-2.641242,0.000000,-0.000000,-0.000000
1.190000,0.910000,0.998662,0.020000,-1.504590,7494.550000,150.906368,-116.292103,526.298781,0.000000,-0.000000,0.000000,560.224096,-525.609831,8.962864,0.000000,-0.000000,0.000000
1.170000,0.910000,0.982708,0.020000,-14.788111,7258.550000,138.837572,-126.921998,551.702947,0.000000,-0.000000,0.000000,573.394129,-561.478555,7.012626,0.000000,-0.000000,0.000000
-1.170000,0.930000,0.995454,0.020000,-4.420334,7276.950000,117.976055,-118.540006,-556.657278,0.000000,-0.000000,-0.000000,568.703437,-569.267388,-10.386849,0.000000,-0.000000,-0.000000
-1.150000,0.930000,0.979864,0.020000,-17.526806,7044.950000,111.179625,-125.107573,-569.173629,0.000000,-0.000000,-0.000000,574.331126,-588.259075,-3.540593,0.000000,-0.000000,-0.000000
-1.130000,0.930000,0.964165,0.020000,-30.683026,6816.950000,110.467517,-115.771146,-577.088584,0.000000,-0.000000,-0.000000,585.418944,-590.722573,-0.002935,0.000000,-0.000000,-0.000000
-1.130000,0.950000,0.976780,0.020000,-19.815511,6835.750000,96.512243,-108.990575,-573.749559,0.000000,-0.000000,-0.000000,576.632464,-589.110796,2.659191,0.000000,-0.000000,0.000000
-1.150000,0.950000,0.992280,0.020000,-6.890564,7063.750000,102.984205,-118.348418,-571.803481,0.000000,-0.000000,-0.000000,574.731582,-590.095795,0.740867,0.000000,-0.000000,0.000000
-1.110000,0.930000,0.948627,0.020000,-43.883198,6592.950000,104.141879,-105.211539,-587.375970,0.000000,-0.000000,-0.000000,596.095458,-597.165118,0.205568,0.000000,-0.000000,0.000000
-1.090000,0.930000,0.933259,0.020000,-57.125068,6372.950000,95.648107,-95.647739,-600.725252,0.000000,-0.000000,-0.000000,608.292334,-608.291966,-0.115831,0.000000,-0.000000,-0.000000
-1.090000,0.950000,0.946286,0.020000,-45.791800,6391.750000,81.363128,-81.660380,-592.106618,0.000000,-0.000000,-0.000000,597.542258,-597.839510,-0.141016,0.000000,-0.000000,-0.000000
-1.110000,0.950000,0.961446,0.020000,-32.785590,6611.750000,90.039421,-93.916219,-580.929584,0.000000,-0.000000,-0.000000,586.226307,-590.103106,1.174380,0.000000,-0.000000,0.000000
-1.070000,0.930000,0.918069,0.020000,-70.405187,6156.950000,86.448185,-86.494476,-615.374487,0.000000,-0.000000,-0.000000,621.397034,-621.443325,-0.104296,0.000000,-0.000000,-0.000000
-1.050000,0.930000,0.903068,0.020000,-83.719871,5944.950000,76.535380,-76.574197,-630.171213,0.000000,-0.000000,-0.000000,634.784798,-634.823616,-0.110388,0.000000,-0.000000,-0.000000
-1.050000,0.950000,0.916524,0.020000,-71.898125,5963.750000,62.007645,-62.048176,-619.802580,0.000000,-0.000000,-0.000000,622.878352,-622.918884,-0.107149,0.000000,-0.000000,-0.000000
-1.070000,0.950000,0.931310,0.020000,-58.830548,6175.750000,72.139143,-72.152035,-605.693358,0.000000,-0.000000,-0.000000,609.968492,-609.981384,-0.072330,0.000000,-0.000000,-0.000000
-1.030000,0.930000,0.888263,0.020000,-97.065154,5736.950000,65.702575,-65.913090,-645.082498,0.000000,-0.000000,-0.000000,648.325205,-648.535719,-0.187727,0.000000,-0.000000,-0.000000
-1.010000,0.930000,0.873665,0.020000,-110.436767,5532.950000,52.646847,-55.564593,-662.631663,0.000000,-0.000000,-0.000000,663.377759,-666.295504,-0.635241,0.000000,-0.000000,-0.000000
-1.010000,0.950000,0.887567,0.020000,-98.103313,5551.750000,39.544096,-39.671926,-648.253013,0.000000,-0.000000,-0.000000,649.397977,-649.525807,-0.117956,0.000000,-0.000000,-0.000000
-1.030000,0.950000,0.901940,0.020000,-84.990490,5755.750000,51.605318,-50.812631,-633.224821,0.000000,-0.000000,-0.000000,635.688427,-634.895740,-0.044234,0.000000,-0.000000,-0.000000
-0.990000,0.930000,0.859284,0.020000,-123.830126,5332.950000,39.110730,-36.668229,-674.257951,0.000000,-0.000000,-0.000000,676.529358,-674.086857,-4.284460,0.000000,-0.000000,-0.000000
-0.970000,0.930000,0.844578,0.020000,-137.240315,5136.950000,27.930198,-29.393962,-695.743708,0.000000,-0.000000,-0.000000,695.601663,-697.065427,-0.644810,0.000000,-0.000000,-0.000000
-0.970000,0.950000,0.858278,0.020000,-124.371463,5155.750000,19.510294,-17.021406,-676.250621,0.000000,-0.000000,-0.000000,677.728822,-675.239934,4.174861,0.000000,-0.000000,0.000000
-0.990000,0.950000,0.872841,0.020000,-111.231957,5351.750000,28.634728,-26.475728,-659.335408,0.000000,-0.000000,-0.000000,660.990362,-658.831362,0.354274,0.000000,-0.000000,0.000000
0.970000,0.930000,0.844227,0.020000,-137.193207,5136.950000,28.170234,-29.633077,695.465927,0.000000,-0.000000,0.000000,695.334671,-696.797515,0.393756,0.000000,-0.000000,0.000000
0.990000,0.930000,0.858704,0.020000,-123.787224,5332.950000,39.338815,-36.897987,673.984526,0.000000,-0.000000,0.000000,676.269923,-673.829096,4.038913,0.000000,-0.000000,0.000000
0.990000,0.950000,0.872507,0.020000,-111.193819,5351.750000,28.864606,-26.706918,659.079597,0.000000,-0.000000,0.000000,660.743614,-658.585927,-0.595156,0.000000,-0.000000,-0.000000
0.970000,0.950000,0.858263,0.020000,-124.329225,5155.750000,19.750335,-17.262743,675.993469,0.000000,-0.000000,0.000000,677.476093,-674.988500,-4.420854,0.000000,-0.000000,-0.000000
1.010000,0.930000,0.873399,0.020000,-110.398162,5532.950000,52.857664,-55.773515,662.359186,0.000000,-0.000000,0.000000,663.124433,-666.040284,0.403649,0.000000,-0.000000,0.000000
1.030000,0.930000,0.888302,0.020000,-97.030929,5736.950000,65.899042,-66.109584,644.814367,0.000000,-0.000000,0.000000,648.078449,-648.288992,-0.035023,0.000000,-0.000000,-0.000000
1.030000,0.950000,0.901652,0.020000,-84.960819,5755.750000,51.804272,-51.012074,632.970908,0.000000,-0.000000,0.000000,635.451167,-634.658969,-0.174800,0.000000,-0.000000,-0.000000
1.010000,0.950000,0.886974,0.020000,-98.069366,5551.750000,39.757216,-39.884770,647.996560,0.000000,-0.000000,0.000000,649.155170,-649.282723,-0.110314,0.000000,-0.000000,-0.000000
1.050000,0.930000,0.903401,0.020000,-83.690107,5944.950000,76.718294,-76.757074,629.906033,0.000000,-0.000000,0.000000,634.543666,-634.582446,-0.103194,0.000000,-0.000000,-0.000000
1.070000,0.930000,0.918670,0.020000,-70.379956,6156.950000,86.618078,-86.664329,615.112781,0.000000,-0.000000,0.000000,621.161567,-621.207818,-0.100380,0.000000,-0.000000,-0.000000
1.070000,0.950000,0.931603,0.020000,-58.809663,6175.750000,72.312333,-72.325188,605.444185,0.000000,-0.000000,0.000000,609.741592,-609.754447,-0.129124,0.000000,-0.000000,-0.000000
1.050000,0.950000,0.916532,0.020000,-71.872810,5963.750000,62.193532,-62.234028,619.550593,0.000000,-0.000000,0.000000,622.646180,-622.686677,-0.102929,0.000000,-0.000000,-0.000000
1.090000,0.930000,0.933577,0.020000,-57.104437,6372.950000,95.805625,-95.805247,600.467370,0.000000,-0.000000,0.000000,608.062470,-608.062092,-0.080315,0.000000,-0.000000,-0.000000
1.110000,0.930000,0.948671,0.020000,-43.867232,6592.950000,104.287726,-105.356929,587.121696,0.000000,-0.000000,0.000000,595.870841,-596.940044,-0.393463,0.000000,-0.000000,-0.000000
1.110000,0.950000,0.961807,0.020000,-32.773768,6611.750000,90.190719,-94.065284,580.685261,0.000000,-0.000000,0.000000,586.009220,-589.883785,-1.360486,0.000000,-0.000000,-0.000000
1.090000,0.950000,0.946857,0.020000,-45.775414,6391.750000,81.524523,-81.821463,591.860313,0.000000,-0.000000,0.000000,597.320446,-597.617386,-0.052360,0.000000,-0.000000,-0.000000
1.130000,0.930000,0.963944,0.020000,-30.671781,6816.950000,110.603753,-115.904014,576.836271,0.000000,-0.000000,0.000000,585.198910,-590.499171,-0.177640,0.000000,-0.000000,-0.000000
1.150000,0.930000,0.979387,0.020000,-17.520338,7044.950000,111.310910,-125.228692,568.920990,0.000000,-0.000000,0.000000,574.115563,-588.033344,3.364332,0.000000,-0.000000,0.000000
1.150000,0.950000,0.992117,0.020000,-6.888043,7063.750000,103.119155,-118.473388,571.558702,0.000000,-0.000000,0.000000,574.520725,-589.874958,-0.914696,0.000000,-0.000000,-0.000000
1.130000,0.950000,0.976875,0.020000,-19.808313,6835.750000,96.654967,-109.127053,573.505910,0.000000,-0.000000,0.000000,576.419543,-588.891629,-2.838573,0.000000,-0.000000,-0.000000
1.170000,0.930000,0.994993,0.020000,-4.418689,7276.950000,118.101239,-118.658653,556.403961,0.000000,-0.000000,0.000000,568.487428,-569.044843,10.210922,0.000000,-0.000000,0.000000
-1.130000,0.970000,0.989639,0.020000,-8.906158,6854.950000,86.191953,-98.342740,-563.848619,0.000000,-0.000000,-0.000000,565.243378,-577.394165,5.778403,0.000000,-0.000000,0.000000
-1.110000,0.970000,0.974507,0.020000,-21.652306,6630.950000,75.502924,-81.866890,-574.888623,0.000000,-0.000000,-0.000000,577.065696,-583.429662,0.935348,0.000000,-0.000000,0.000000
-1.090000,0.970000,0.959554,0.020000,-34.425883,6410.950000,66.005738,-69.203169,-585.443386,0.000000,-0.000000,-0.000000,587.734495,-590.931925,-0.829135,0.000000,-0.000000,-0.000000
-1.090000,0.990000,0.973052,0.020000,-23.032670,6430.550000,56.336284,-58.586827,-577.710793,0.000000,-0.000000,-0.000000,579.433457,-581.684001,1.775521,0.000000,-0.000000,0.000000
-1.110000,0.990000,0.987801,0.020000,-10.485555,6650.550000,62.917255,-68.636882,-568.205439,0.000000,-0.000000,-0.000000,569.139886,-574.859513,0.622489,0.000000,-0.000000,0.000000
-1.070000,0.970000,0.944787,0.020000,-47.227036,6194.950000,57.822908,-58.615595,-596.625585,0.000000,-0.000000,-0.000000,599.062913,-599.855599,-0.412359,0.000000,-0.000000,-0.000000
-1.050000,0.970000,0.930216,0.020000,-60.051543,5982.950000,48.202517,-48.277072,-609.323429,0.000000,-0.000000,-0.000000,611.192719,-611.267274,-0.098955,0.000000,-0.000000,-0.000000
-1.050000,0.990000,0.944108,0.020000,-48.185642,6002.550000,35.330218,-35.164905,-598.420610,0.000000,-0.000000,-0.000000,599.540426,-599.375112,0.015844,0.000000,-0.000000,0.000000
-1.070000,0.990000,0.958493,0.020000,-35.600146,6214.550000,46.910059,-46.653301,-586.131913,0.000000,-0.000000,-0.000000,588.123057,-587.866299,1.184531,0.000000,-0.000000,0.000000
-1.030000,0.970000,0.915850,0.020000,-72.895318,5774.950000,37.273975,-37.313672,-622.775381,0.000000,-0.000000,-0.000000,623.871162,-623.910859,-0.106169,0.000000,-0.000000,-0.000000
-1.010000,0.970000,0.901105,0.020000,-85.753985,5570.950000,25.587973,-25.628372,-636.357306,0.000000,-0.000000,-0.000000,636.852148,-636.892547,-0.113639,0.000000,-0.000000,-0.000000
-1.010000,0.990000,0.914833,0.020000,-73.394386,5590.550000,12.355533,-12.400607,-624.270697,0.000000,-0.000000,-0.000000,624.370855,-624.415929,-0.108571,0.000000,-0.000000,-0.000000
-1.030000,0.990000,0.929371,0.020000,-60.785203,5794.550000,24.076024,-24.122552,-611.439632,0.000000,-0.000000,-0.000000,611.891096,-611.937624,-0.125544,0.000000,-0.000000,-0.000000
-0.990000,0.970000,0.886555,0.020000,-98.622869,5370.950000,13.027440,-13.198754,-649.893861,0.000000,-0.000000,-0.000000,649.940466,-650.111780,-0.151392,0.000000,-0.000000,-0.000000
-0.970000,0.970000,0.872221,0.020000,-111.496987,5174.950000,-1.595284,-1.353254,-666.017565,-0.000000,-0.000000,-0.000000,664.543296,-667.491834,-0.121015,0.000000,-0.000000,-0.000000
-0.970000,0.990000,0.886397,0.020000,-98.622531,5194.550000,-13.434611,13.263111,-649.886755,-0.000000,0.000000,-0.000000,649.938080,-650.109579,-0.084467,0.000000,-0.000000,-0.000000
-0.990000,0.990000,0.900505,0.020000,-86.008495,5390.550000,0.286016,0.515061,-636.314536,0.000000,0.000000,-0.000000,636.715074,-635.913997,-0.114522,0.000000,-0.000000,-0.000000
-0.950000,0.970000,0.858114,0.020000,-124.371028,4982.950000,-17.272287,19.761267,-676.243896,-0.000000,0.000000,-0.000000,677.727372,-675.238392,-4.425873,0.000000,-0.000000,-0.000000
-0.930000,0.970000,0.844245,0.020000,-137.239343,4794.950000,-29.649606,28.185916,-695.727132,-0.000000,0.000000,-0.000000,695.595900,-697.059590,0.388657,0.000000,-0.000000,0.000000
-0.930000,0.990000,0.858882,0.020000,-123.828826,4814.550000,-36.918412,39.360592,-674.233472,-0.000000,0.000000,-0.000000,676.520378,-674.078198,4.033397,0.000000,-0.000000,0.000000
-0.950000,0.990000,0.872519,0.020000,-111.231187,5002.550000,-26.721598,28.880497,-659.320531,-0.000000,0.000000,-0.000000,660.985579,-658.826681,-0.600498,0.000000,-0.000000,-0.000000
0.930000,0.970000,0.844522,0.020000,-137.194178,4794.950000,-29.377433,27.914516,695.482502,-0.000000,0.000000,0.000000,695.340435,-696.803352,-0.649908,0.000000,-0.000000,-0.000000
0.950000,0.970000,0.858724,0.020000,-124.329661,4982.950000,-17.011862,19.499363,676.000194,-0.000000,0.000000,0.000000,677.477542,-674.990042,4.169842,0.000000,-0.000000,0.000000
0.950000,0.990000,0.872806,0.020000,-111.194589,5002.550000,-26.461048,28.618837,659.094475,-0.000000,0.000000,0.000000,660.748398,-658.590608,0.348933,0.000000,-0.000000,0.000000
0.930000,0.990000,0.858838,0.020000,-123.788524,4814.550000,-36.647804,39.088953,674.009004,-0.000000,0.000000,0.000000,676.278903,-673.837755,-4.289975,0.000000,-0.000000,-0.000000
0.970000,0.970000,0.872532,0.020000,-111.459522,5174.950000,-1.352430,-1.594460,665.772760,-0.000000,-0.000000,0.000000,664.299315,-667.246205,-0.121015,0.000000,-0.000000,-0.000000
0.990000,0.970000,0.886547,0.020000,-98.589403,5370.950000,13.255961,-13.427353,649.650832,0.000000,-0.000000,0.000000,649.702112,-649.873505,-0.082079,0.000000,-0.000000,-0.000000
0.990000,0.990000,0.900812,0.020000,-85.979610,5390.550000,0.514847,0.285802,636.085936,0.000000,0.000000,0.000000,636.486260,-635.685612,-0.114522,0.000000,-0.000000,-0.000000
0.970000,0.990000,0.887006,0.020000,-98.589741,5194.550000,-13.191497,13.020290,649.657938,-0.000000,0.000000,0.000000,649.704498,-649.875706,-0.153780,0.000000,-0.000000,-0.000000
1.010000,0.970000,0.900788,0.020000,-85.724609,5570.950000,25.802599,-25.842967,636.114961,0.000000,-0.000000,0.000000,636.618683,-636.659050,-0.110584,0.000000,-0.000000,-0.000000
1.030000,0.970000,0.915245,0.020000,-72.870119,5774.950000,37.475094,-37.514756,622.534395,0.000000,-0.000000,0.000000,623.642682,-623.682345,-0.109018,0.000000,-0.000000,-0.000000
1.030000,0.990000,0.929070,0.020000,-60.764398,5794.550000,24.278445,-24.324950,611.211645,0.000000,-0.000000,0.000000,611.671312,-611.717817,-0.085733,0.000000,-0.000000,-0.000000
1.010000,0.990000,0.914831,0.020000,-73.369498,5590.550000,12.570993,-12.616034,624.041922,0.000000,-0.000000,0.000000,624.146450,-624.191491,-0.111405,0.000000,-0.000000,-0.000000
1.050000,0.970000,0.929907,0.020000,-60.030602,5982.950000,48.390736,-48.465240,609.084231,0.000000,-0.000000,0.000000,610.969179,-611.043683,-0.107566,0.000000,-0.000000,-0.000000
1.070000,0.970000,0.944765,0.020000,-47.210428,6194.950000,57.999150,-58.791241,596.388082,0.000000,-0.000000,0.000000,598.844055,-599.636145,0.214029,0.000000,-0.000000,0.000000
1.070000,0.990000,0.958164,0.020000,-35.587743,6214.550000,47.087928,-46.831247,585.906624,0.000000,-0.000000,0.000000,587.912206,-587.655525,-1.379375,0.000000,-0.000000,-0.000000
1.050000,0.990000,0.943517,0.020000,-48.169000,6002.550000,35.520026,-35.354733,598.193902,0.000000,-0.000000,0.000000,599.325255,-599.159963,-0.218659,0.000000,-0.000000,-0.000000
1.090000,0.970000,0.959810,0.020000,-34.413677,6410.950000,66.172229,-69.367420,585.206904,0.000000,-0.000000,0.000000,587.519935,-590.715125,0.637424,0.000000,-0.000000,0.000000
1.110000,0.970000,0.975033,0.020000,-21.644568,6630.950000,75.661285,-82.020416,574.653082,0.000000,-0.000000,0.000000,576.855594,-583.214725,-1.121450,0.000000,-0.000000,-0.000000
1.110000,0.990000,0.988021,0.020000,-10.481840,6650.550000,63.081005,-68.796029,567.978033,0.000000,-0.000000,0.000000,568.934653,-574.649676,-0.808792,0.000000,-0.000000,-0.000000
1.090000,0.990000,0.973002,0.020000,-23.024579,6430.550000,56.505335,-58.753838,577.484618,0.000000,-0.000000,0.000000,579.225466,-581.473968,-1.964474,0.000000,-0.000000,-0.000000
1.130000,0.970000,0.990040,0.020000,-8.902952,6854.950000,86.341590,-98.485219,563.615813,0.000000,-0.000000,0.000000,565.038966,-577.182595,-5.958045,0.000000,-0.000000,-0.000000
-1.090000,1.010000,0.986770,0.020000,-11.619825,6450.550000,52.933836,-30.790330,-561.353146,0.000000,-0.000000,-0.000000,573.982806,-551.839300,-0.967029,0.000000,-0.000000,-0.000000
-1.090000,1.030000,1.000609,0.020000,-0.168270,6470.950000,24.128969,13.504911,-540.321175,0.000000,0.000000,-0.000000,558.573657,-520.939778,-25.256213,0.000000,-0.000000,-0.000000
-1.070000,1.010000,0.972358,0.020000,-23.954780,6234.550000,31.182056,-28.548367,-574.094066,0.000000,-0.000000,-0.000000,576.177857,-573.544168,-3.277723,0.000000,-0.000000,-0.000000
-1.050000,1.010000,0.957637,0.020000,-36.305668,6022.550000,21.303867,-21.015113,-587.897732,0.000000,-0.000000,-0.000000,588.420374,-588.131620,-1.678835,0.000000,-0.000000,-0.000000
-1.050000,1.030000,0.971390,0.020000,-24.416708,6042.950000,4.544916,-9.480026,-582.530809,0.000000,-0.000000,-0.000000,580.090390,-585.025500,-4.190305,0.000000,-0.000000,-0.000000
-1.070000,1.030000,0.985905,0.020000,-12.296989,6254.950000,10.774052,-5.379305,-570.128153,0.000000,-0.000000,-0.000000,572.719549,-567.324802,-13.640471,0.000000,-0.000000,-0.000000
-1.030000,1.010000,0.943111,0.020000,-48.665419,5814.550000,11.737644,-11.868035,-600.143926,0.000000,-0.000000,-0.000000,600.194780,-600.325170,0.034174,0.000000,-0.000000,0.000000
-1.010000,1.010000,0.928789,0.020000,-61.029812,5610.550000,-0.114031,0.101669,-612.115218,-0.000000,0.000000,-0.000000,612.109037,-612.121399,-0.107850,0.000000,-0.000000,-0.000000
-1.010000,1.030000,0.942962,0.020000,-48.665259,5630.950000,-12.077321,11.947044,-600.137649,-0.000000,0.000000,-0.000000,600.192666,-600.322942,-0.243600,0.000000,-0.000000,-0.000000
-1.030000,1.030000,0.957073,0.020000,-36.540922,5834.950000,-1.363886,-1.161290,-590.763741,-0.000000,-0.000000,-0.000000,589.501153,-592.026329,-0.101298,0.000000,-0.000000,-0.000000
-0.990000,1.010000,0.914680,0.020000,-73.394140,5410.550000,-12.622715,12.577643,-624.264031,-0.000000,0.000000,-0.000000,624.368633,-624.413705,-0.113627,0.000000,-0.000000,-0.000000
-0.970000,1.010000,0.900793,0.020000,-85.753403,5214.550000,-25.856843,25.816446,-636.343444,-0.000000,0.000000,-0.000000,636.847525,-636.887922,-0.115207,0.000000,-0.000000,-0.000000
-0.970000,1.030000,0.915400,0.020000,-72.894584,5234.950000,-37.534713,37.495021,-622.755439,-0.000000,0.000000,-0.000000,623.864509,-623.904201,-0.115673,0.000000,-0.000000,-0.000000
-0.990000,1.030000,0.929068,0.020000,-60.784799,5430.950000,-24.337756,24.291220,-611.426847,-0.000000,0.000000,-0.000000,611.886836,-611.933371,-0.089994,0.000000,-0.000000,-0.000000
-0.950000,1.010000,0.887141,0.020000,-98.102305,5022.550000,-39.906411,39.778783,-648.231286,-0.000000,0.000000,-0.000000,649.390741,-649.518369,-0.117520,0.000000,-0.000000,-0.000000
-0.930000,1.010000,0.873732,0.020000,-110.435238,4834.550000,-55.804037,52.886565,-662.601494,-0.000000,0.000000,-0.000000,663.367555,-666.285027,0.393989,0.000000,-0.000000,0.000000
-0.930000,1.030000,0.888706,0.020000,-97.063492,4854.950000,-66.145425,65.934748,-645.046794,-0.000000,0.000000,-0.000000,648.313243,-648.523921,-0.046955,0.000000,-0.000000,-0.000000
-0.950000,1.030000,0.901969,0.020000,-84.989338,5042.950000,-51.039476,51.832095,-633.197280,-0.000000,0.000000,-0.000000,635.679240,-634.886621,-0.184059,0.000000,-0.000000,-0.000000
-0.910000,1.010000,0.860434,0.020000,-122.746273,4650.550000,-73.296252,75.779852,-671.220659,-0.000000,0.000000,-0.000000,676.574081,-674.090481,-4.405086,0.000000,-0.000000,-0.000000
-0.890000,1.010000,0.846852,0.020000,-135.029147,4470.550000,-86.605881,85.175080,-688.301652,-0.000000,0.000000,-0.000000,692.923127,-694.353928,1.389952,0.000000,-0.000000,0.000000
-0.890000,1.030000,0.861755,0.020000,-121.126178,4490.950000,-92.589924,94.951822,-665.289832,-0.000000,0.000000,-0.000000,673.036313,-670.674415,3.729297,0.000000,-0.000000,0.000000
-0.910000,1.030000,0.875105,0.020000,-109.111170,4670.950000,-81.531770,83.644996,-652.653840,-0.000000,0.000000,-0.000000,658.913396,-656.800170,-1.525870,0.000000,-0.000000,-0.000000
0.890000,1.010000,0.846646,0.020000,-134.986698,4470.550000,-86.307498,84.877296,688.095136,-0.000000,0.000000,0.000000,692.681048,-694.111251,-1.659684,0.000000,-0.000000,-0.000000
0.910000,1.010000,0.859883,0.020000,-122.707217,4650.550000,-73.009012,75.491376,671.011629,-0.000000,0.000000,0.000000,676.335660,-673.853296,4.140501,0.000000,-0.000000,0.000000
0.910000,1.030000,0.874861,0.020000,-109.076841,4670.950000,-81.246065,83.358424,652.461887,-0.000000,0.000000,0.000000,658.687210,-656.574851,1.265569,0.000000,-0.000000,0.000000
0.890000,1.030000,0.861855,0.020000,-121.088535,4490.950000,-92.294608,94.655767,665.102310,-0.000000,0.000000,0.000000,672.807512,-670.446352,-3.994653,0.000000,-0.000000,-0.000000
0.930000,1.010000,0.873377,0.020000,-110.399690,4834.550000,-55.534071,52.617946,662.389354,-0.000000,0.000000,0.000000,663.134636,-666.050762,-0.644901,0.000000,-0.000000,-0.000000
0.950000,1.010000,0.887116,0.020000,-98.070374,5022.550000,-39.650285,39.522529,648.018286,-0.000000,0.000000,0.000000,649.162406,-649.290161,-0.125162,0.000000,-0.000000,-0.000000
0.950000,1.030000,0.901643,0.020000,-84.961971,5042.950000,-50.785229,51.577495,632.998448,-0.000000,0.000000,0.000000,635.460353,-634.668088,-0.053493,0.000000,-0.000000,-0.000000
0.930000,1.030000,0.888128,0.020000,-97.032591,4854.950000,-65.877249,65.666869,644.850070,-0.000000,0.000000,0.000000,648.090411,-648.300790,-0.199659,0.000000,-0.000000,-0.000000
0.970000,1.010000,0.901090,0.020000,-85.725191,5214.550000,-25.614496,25.574126,636.128823,-0.000000,0.000000,0.000000,636.623306,-636.663676,-0.118261,0.000000,-0.000000,-0.000000
0.990000,1.010000,0.915288,0.020000,-73.369744,5410.550000,-12.393926,12.348883,624.048588,-0.000000,0.000000,0.000000,624.148672,-624.193715,-0.110793,0.000000,-0.000000,-0.000000
0.990000,1.030000,0.929375,0.020000,-60.764802,5430.950000,-24.109746,24.063249,611.224431,-0.000000,0.000000,0.000000,611.675573,-611.722069,-0.129805,0.000000,-0.000000,-0.000000
0.970000,1.030000,0.915395,0.020000,-72.870853,5234.950000,-37.293715,37.254047,622.554338,-0.000000,0.000000,0.000000,623.649335,-623.689003,-0.112824,0.000000,-0.000000,-0.000000
1.010000,1.010000,0.929093,0.020000,-61.009324,5610.550000,0.101678,-0.114021,611.899523,0.000000,-0.000000,0.000000,611.893352,-611.905695,-0.107850,0.000000,-0.000000,-0.000000
1.030000,1.010000,0.943116,0.020000,-48.648925,5814.550000,11.940867,-12.071086,599.928309,0.000000,-0.000000,0.000000,599.983273,-600.113492,-0.241499,0.000000,-0.000000,-0.000000
1.030000,1.030000,0.957373,0.020000,-36.528658,5834.950000,-1.160799,-1.363395,590.559517,-0.000000,-0.000000,0.000000,589.297420,-591.821614,-0.101298,0.000000,-0.000000,-0.000000
1.010000,1.030000,0.943562,0.020000,-48.649085,5630.950000,-11.861800,11.731467,599.934586,-0.000000,0.000000,0.000000,599.985387,-600.115720,0.032073,0.000000,-0.000000,0.000000
1.050000,1.010000,0.957351,0.020000,-36.293249,6022.550000,21.496306,-21.206664,587.682122,0.000000,-0.000000,0.000000,588.212824,-587.923182,1.478615,0.000000,-0.000000,0.000000
1.070000,1.010000,0.971790,0.020000,-23.946512,6234.550000,31.366053,-28.731675,573.879749,0.000000,-0.000000,0.000000,575.974828,-573.340450,3.082022,0.000000,-0.000000,0.000000
1.070000,1.030000,0.985633,0.020000,-12.292786,6254.950000,10.967243,-5.563705,569.918316,0.000000,-0.000000,0.000000,572.521450,-567.117911,13.443821,0.000000,-0.000000,0.000000
1.050000,1.030000,0.971400,0.020000,-24.408435,6042.950000,4.739500,-9.671025,582.323548,0.000000,-0.000000,0.000000,579.888668,-584.820192,3.993564,0.000000,-0.000000,0.000000
1.090000,1.010000,0.986422,0.020000,-11.615779,6450.550000,53.105530,-30.968955,561.140254,0.000000,-0.000000,0.000000,573.780391,-551.643816,0.776181,0.000000,-0.000000,0.000000
1.090000,1.030000,1.000063,0.020000,-0.168210,6470.950000,24.315815,13.311324,540.119150,0.000000,0.000000,0.000000,558.379343,-520.752204,25.054875,0.000000,-0.000000,0.000000
-1.070000,1.050000,0.999669,0.020000,-0.638467,6275.750000,-9.201751,-0.657621,-582.085431,-0.000000,0.000000,-0.000000,576.971545,-586.830918,-15.253071,0.000000,-0.000000,-0.000000
-1.050000,1.050000,0.985357,0.020000,-12.521017,6063.750000,-12.828902,-12.637697,-583.722195,-0.000000,-0.000000,-0.000000,570.988895,-596.455495,-0.095603,0.000000,-0.000000,-0.000000
-1.050000,1.070000,0.999528,0.020000,-0.638459,6084.950000,-0.843422,-9.010916,-582.069390,0.000000,-0.000000,-0.000000,576.961577,-586.815915,15.064484,0.000000,-0.000000,0.000000
-1.030000,1.050000,0.971245,0.020000,-24.416629,5855.750000,-9.676540,4.742717,-582.523374,-0.000000,0.000000,-0.000000,580.087391,-585.021214,3.993042,0.000000,-0.000000,0.000000
-1.010000,1.050000,0.957344,0.020000,-36.305432,5651.750000,-21.217933,21.507578,-587.885140,-0.000000,0.000000,-0.000000,588.416127,-588.126483,1.475234,0.000000,-0.000000,0.000000
-1.010000,1.070000,0.971924,0.020000,-23.954548,5672.950000,-28.747429,31.382157,-574.076250,-0.000000,0.000000,-0.000000,576.172095,-573.537367,3.077447,0.000000,-0.000000,0.000000
-1.030000,1.070000,0.985620,0.020000,-12.296911,5876.950000,-5.569409,10.973880,-570.112649,-0.000000,0.000000,-0.000000,572.716344,-567.311873,13.445056,0.000000,-0.000000,0.000000
-0.990000,1.050000,0.943662,0.020000,-48.185167,5451.750000,-35.373172,35.538506,-598.402161,-0.000000,0.000000,-0.000000,599.534260,-599.368926,-0.224846,0.000000,-0.000000,-0.000000
-0.970000,1.050000,0.930208,0.020000,-60.050746,5255.750000,-48.490757,48.416214,-609.297928,-0.000000,0.000000,-0.000000,611.184203,-611.258747,-0.116083,0.000000,-0.000000,-0.000000
-0.970000,1.070000,0.945207,0.020000,-47.226260,5276.950000,-58.821911,58.029417,-596.594865,-0.000000,0.000000,-0.000000,599.052625,-599.845119,0.203931,0.000000,-0.000000,0.000000
-0.990000,1.070000,0.958450,0.020000,-35.599682,5472.950000,-46.855573,47.111938,-586.108576,-0.000000,0.000000,-0.000000,588.115266,-587.858901,-1.387808,0.000000,-0.000000,-0.000000
-0.950000,1.050000,0.916978,0.020000,-71.896920,5063.750000,-62.267102,62.226577,-619.769522,-0.000000,0.000000,-0.000000,622.867300,-622.907826,-0.113985,0.000000,-0.000000,-0.000000
-0.930000,1.050000,0.903361,0.020000,-83.718170,4875.750000,-76.798224,76.759416,-630.130075,-0.000000,0.000000,-0.000000,634.771021,-634.809830,-0.116971,0.000000,-0.000000,-0.000000
-0.930000,1.070000,0.918217,0.020000,-70.403537,4896.950000,-86.710260,86.663979,-615.328571,-0.000000,0.000000,-0.000000,621.381634,-621.427915,-0.115785,0.000000,-0.000000,-0.000000
-0.950000,1.070000,0.931618,0.020000,-58.829377,5084.950000,-72.363199,72.350326,-605.655353,-0.000000,0.000000,-0.000000,609.955765,-609.968638,-0.141858,0.000000,-0.000000,-0.000000
-0.910000,1.050000,0.889984,0.020000,-95.508683,4691.750000,-92.048205,91.966987,-640.150052,-0.000000,0.000000,-0.000000,646.687679,-646.768897,-0.087715,0.000000,-0.000000,-0.000000
-0.890000,1.050000,0.876860,0.020000,-107.262342,4511.750000,-109.135288,106.625236,-652.544208,-0.000000,0.000000,-0.000000,660.146408,-662.656461,0.486389,0.000000,-0.000000,0.000000
-0.890000,1.070000,0.892159,0.020000,-93.441729,4532.950000,-117.697569,117.742547,-633.884837,-0.000000,0.000000,-0.000000,644.745616,-644.700638,-0.296878,0.000000,-0.000000,-0.000000
-0.910000,1.070000,0.905061,0.020000,-81.942997,4712.950000,-101.372620,102.143484,-623.970419,-0.000000,0.000000,-0.000000,632.598785,-631.827920,-0.248252,0.000000,-0.000000,-0.000000
-0.870000,1.050000,0.864000,0.020000,-118.972725,4335.750000,-126.489893,126.085712,-658.716470,-0.000000,0.000000,-0.000000,670.508922,-670.913102,-1.653976,0.000000,-0.000000,-0.000000
-0.850000,1.050000,0.851415,0.020000,-130.633092,4163.750000,-142.213343,139.912942,-672.224741,-0.000000,0.000000,-0.000000,685.712900,-688.013300,1.998735,0.000000,-0.000000,0.000000
-0.850000,1.070000,0.867162,0.020000,-116.291432,4184.950000,-147.577705,149.660521,-651.678855,-0.000000,0.000000,-0.000000,669.446972,-667.364157,2.640560,0.000000,-0.000000,0.000000
-0.870000,1.070000,0.879522,0.020000,-104.893414,4356.950000,-134.476128,135.173839,-641.095935,-0.000000,0.000000,-0.000000,655.467431,-654.769719,-1.194622,0.000000,-0.000000,-0.000000
-0.830000,1.050000,0.839118,0.020000,-142.236381,3995.750000,-165.443463,168.788910,-678.748800,-0.000000,0.000000,-0.000000,700.667037,-697.321590,-5.890928,0.000000,-0.000000,-0.000000
-0.810000,1.050000,0.827122,0.020000,-153.775202,3831.750000,-179.444741,178.053253,-691.318975,-0.000000,0.000000,-0.000000,713.353573,-714.745061,2.588847,0.000000,-0.000000,0.000000
-0.810000,1.070000,0.842806,0.020000,-138.898467,3852.950000,-183.239208,185.187622,-665.130055,-0.000000,0.000000,-0.000000,691.135204,-689.186789,3.220454,0.000000,-0.000000,0.000000
-0.830000,1.070000,0.855092,0.020000,-127.628860,4016.950000,-170.617908,172.617596,-656.257880,-0.000000,0.000000,-0.000000,679.319695,-677.320006,-3.039512,0.000000,-0.000000,-0.000000
0.810000,1.050000,0.826518,0.020000,-153.730513,3831.750000,-179.097439,177.706460,691.169485,-0.000000,0.000000,0.000000,713.121140,-714.512119,-2.886581,0.000000,-0.000000,-0.000000
0.830000,1.050000,0.838892,0.020000,-142.194430,3995.750000,-165.107194,168.450200,678.589008,-0.000000,0.000000,0.000000,700.432422,-697.089416,5.599450,0.000000,-0.000000,0.000000
0.830000,1.070000,0.854579,0.020000,-127.591670,4016.950000,-170.285320,172.284749,656.116669,-0.000000,0.000000,0.000000,679.100054,-677.100625,2.752359,0.000000,-0.000000,0.000000
0.810000,1.070000,0.842435,0.020000,-138.858598,3852.950000,-182.897477,184.846384,664.998584,-0.000000,0.000000,0.000000,690.916233,-688.967326,-3.513439,0.000000,-0.000000,-0.000000
0.850000,1.050000,0.851556,0.020000,-130.594013,4163.750000,-141.894609,139.595071,672.061094,-0.000000,0.000000,0.000000,685.486994,-687.786532,-2.275987,0.000000,-0.000000,-0.000000
0.870000,1.050000,0.864498,0.020000,-118.936646,4335.750000,-126.182398,125.778632,658.546828,-0.000000,0.000000,0.000000,670.285328,-670.689094,1.383574,0.000000,-0.000000,0.000000
0.870000,1.070000,0.879728,0.020000,-104.861972,4356.950000,-134.172393,134.871602,640.940167,-0.000000,0.000000,0.000000,655.253873,-654.554664,0.929788,0.000000,-0.000000,0.000000
0.850000,1.070000,0.867014,0.020000,-116.257053,4184.950000,-147.263870,149.346772,651.530054,-0.000000,0.000000,0.000000,669.231093,-667.148190,-2.912561,0.000000,-0.000000,-0.000000
0.890000,1.050000,0.877256,0.020000,-107.229387,4511.750000,-108.843793,106.334481,652.368547,-0.000000,0.000000,0.000000,659.925795,-662.435108,-0.744801,0.000000,-0.000000,-0.000000
0.910000,1.050000,0.890038,0.020000,-95.478968,4691.750000,-91.769811,91.688421,639.970995,-0.000000,0.000000,0.000000,646.470774,-646.552163,-0.162489,0.000000,-0.000000,-0.000000
0.910000,1.070000,0.905401,0.020000,-81.917785,4712.950000,-101.098205,101.868801,623.804813,-0.000000,0.000000,0.000000,632.391109,-631.620513,0.003856,0.000000,-0.000000,0.000000
0.890000,1.070000,0.892709,0.020000,-93.413345,4532.950000,-117.409897,117.454922,633.723566,-0.000000,0.000000,0.000000,644.534674,-644.489649,0.043414,0.000000,-0.000000,0.000000
0.930000,1.050000,0.903081,0.020000,-83.691808,4875.750000,-76.533048,76.494259,629.947171,-0.000000,0.000000,0.000000,634.557442,-634.596232,-0.124166,0.000000,-0.000000,-0.000000
0.950000,1.050000,0.916376,0.020000,-71.874015,5063.750000,-62.015103,61.974600,619.583651,-0.000000,0.000000,0.000000,622.657232,-622.697735,-0.118205,0.000000,-0.000000,-0.000000
0.950000,1.070000,0.931305,0.020000,-58.810834,5084.950000,-72.114024,72.101150,605.482190,-0.000000,0.000000,0.000000,609.754319,-609.767193,-0.085064,0.000000,-0.000000,-0.000000
0.930000,1.070000,0.918226,0.020000,-70.381606,4896.950000,-86.448545,86.402284,615.158698,-0.000000,0.000000,0.000000,621.176967,-621.223228,-0.119701,0.000000,-0.000000,-0.000000
0.970000,1.050000,0.929910,0.020000,-60.031400,5255.750000,-48.251554,48.177039,609.109732,-0.000000,0.000000,0.000000,610.977695,-611.052211,-0.107473,0.000000,-0.000000,-0.000000
0.990000,1.050000,0.943674,0.020000,-48.169476,5451.750000,-35.146466,35.311738,598.212351,-0.000000,0.000000,0.000000,599.331421,-599.166149,0.009657,0.000000,-0.000000,0.000000
0.990000,1.070000,0.958178,0.020000,-35.588206,5472.950000,-46.628975,46.886049,585.929961,-0.000000,0.000000,0.000000,587.919997,-587.662923,1.176098,0.000000,-0.000000,0.000000
0.970000,1.070000,0.944625,0.020000,-47.211204,5276.950000,-58.584924,57.792641,596.418802,-0.000000,0.000000,0.000000,598.854343,-599.646626,-0.422457,0.000000,-0.000000,-0.000000
1.010000,1.050000,0.957659,0.020000,-36.293485,5651.750000,-21.003844,21.292596,587.694714,-0.000000,0.000000,0.000000,588.217071,-587.928319,-1.682215,0.000000,-0.000000,-0.000000
1.030000,1.050000,0.971834,0.020000,-24.408514,5855.750000,-9.474511,4.541700,582.330983,-0.000000,0.000000,0.000000,579.891667,-584.824478,-4.190828,0.000000,-0.000000,-0.000000
1.030000,1.070000,0.985943,0.020000,-12.292863,5876.950000,-5.373601,10.767416,569.933819,-0.000000,0.000000,0.000000,572.524655,-567.130841,-13.639236,0.000000,-0.000000,-0.000000
1.010000,1.070000,0.971954,0.020000,-23.946744,5672.950000,-28.532613,31.165953,573.897566,-0.000000,0.000000,0.000000,575.980591,-573.347251,-3.282298,0.000000,-0.000000,-0.000000
1.050000,1.050000,0.985654,0.020000,-12.516815,6063.750000,-12.632596,-12.823801,583.523096,-0.000000,-0.000000,0.000000,570.794898,-596.251295,-0.095603,0.000000,-0.000000,-0.000000
1.070000,1.050000,0.999684,0.020000,-0.638244,6275.750000,-9.008775,-0.840591,581.872095,-0.000000,0.000000,0.000000,576.766797,-586.616163,15.061107,0.000000,-0.000000,0.000000
1.050000,1.070000,1.000106,0.020000,-0.638253,6084.950000,-0.654790,-9.199611,581.888136,0.000000,-0.000000,0.000000,576.776765,-586.631166,-15.249695,0.000000,-0.000000,-0.000000
-1.030000,1.090000,1.000188,0.020000,-0.168266,5898.550000,13.310877,24.328541,-540.301955,0.000000,0.000000,-0.000000,558.568368,-520.928950,25.058638,0.000000,-0.000000,0.000000
-1.010000,1.090000,0.986694,0.020000,-11.619676,5694.550000,-30.987717,53.130057,-561.331246,-0.000000,0.000000,-0.000000,573.975359,-551.833019,0.769130,0.000000,-0.000000,0.000000
-0.990000,1.090000,0.973425,0.020000,-23.032299,5494.550000,-58.784454,56.533464,-577.682254,-0.000000,0.000000,-0.000000,579.423765,-581.674754,-1.974752,0.000000,-0.000000,-0.000000
-0.970000,1.090000,0.959876,0.020000,-34.425211,5298.550000,-69.403427,66.206430,-585.407702,-0.000000,0.000000,-0.000000,587.722547,-590.919544,0.625872,0.000000,-0.000000,0.000000
-0.970000,1.110000,0.974693,0.020000,-21.651818,5320.550000,-82.062744,75.699769,-574.848429,-0.000000,0.000000,-0.000000,577.052672,-583.415647,-1.135313,0.000000,-0.000000,-0.000000
-0.990000,1.110000,0.988137,0.020000,-10.485353,5516.550000,-68.832154,63.111813,-568.170907,-0.000000,0.000000,-0.000000,569.127425,-574.847766,-0.820069,0.000000,-0.000000,-0.000000
-0.950000,1.090000,0.946454,0.020000,-45.790747,5106.550000,-81.864036,81.566857,-592.064110,-0.000000,0.000000,-0.000000,597.528012,-597.825191,-0.066575,0.000000,-0.000000,-0.000000
-0.930000,1.090000,0.933266,0.020000,-57.123554,4918.550000,-95.855444,95.855807,-600.675069,-0.000000,0.000000,-0.000000,608.275473,-608.275109,-0.097181,0.000000,-0.000000,-0.000000
-0.930000,1.110000,0.948498,0.020000,-43.881903,4940.550000,-105.411365,104.341656,-587.321985,-0.000000,0.000000,-0.000000,596.077270,-597.146979,-0.411736,0.000000,-0.000000,-0.000000
-0.950000,1.110000,0.961477,0.020000,-32.784738,5128.550000,-94.113502,90.236944,-580.882932,-0.000000,0.000000,-0.000000,586.210815,-590.087373,-1.376619,0.000000,-0.000000,-0.000000
-0.910000,1.090000,0.920325,0.020000,-68.417990,4734.550000,-110.742293,110.702812,-609.448880,-0.000000,0.000000,-0.000000,619.405320,-619.444801,-0.123898,0.000000,-0.000000,-0.000000
-0.890000,1.090000,0.907640,0.020000,-79.668115,4554.550000,-126.257034,126.222215,-617.917501,-0.000000,0.000000,-0.000000,630.663545,-630.698365,-0.118568,0.000000,-0.000000,-0.000000
-0.890000,1.110000,0.923294,0.020000,-65.944976,4576.550000,-134.242703,134.215782,-602.183515,-0.000000,0.000000,-0.000000,616.948823,-616.975744,-0.123205,0.000000,-0.000000,-0.000000
-0.910000,1.110000,0.935768,0.020000,-54.937247,4756.550000,-119.012163,118.888840,-594.490022,-0.000000,0.000000,-0.000000,606.211877,-606.335200,-0.063020,0.000000,-0.000000,-0.000000
-0.870000,1.090000,0.895221,0.020000,-90.867719,4378.550000,-142.711866,142.531537,-626.087900,-0.000000,0.000000,-0.000000,642.036719,-642.217048,-0.271062,0.000000,-0.000000,-0.000000
-0.850000,1.090000,0.883082,0.020000,-102.010309,4206.550000,-159.665723,159.473288,-633.909388,-0.000000,0.000000,-0.000000,653.588310,-653.780745,-0.279537,0.000000,-0.000000,-0.000000
-0.850000,1.110000,0.899001,0.020000,-87.792931,4228.550000,-166.727865,166.688945,-616.810394,-0.000000,0.000000,-0.000000,638.922430,-638.961350,-0.129021,0.000000,-0.000000,-0.000000
-0.870000,1.110000,0.911090,0.020000,-76.898992,4400.550000,-150.153631,150.114051,-609.679907,-0.000000,0.000000,-0.000000,627.873309,-627.912889,-0.124992,0.000000,-0.000000,-0.000000
-0.830000,1.090000,0.870897,0.020000,-113.089107,4038.550000,-176.973761,176.950844,-641.152995,-0.000000,0.000000,-0.000000,665.114706,-665.137623,-0.070333,0.000000,-0.000000,-0.000000
-0.810000,1.090000,0.858612,0.020000,-124.097044,3874.550000,-195.681829,192.940717,-650.539618,-0.000000,0.000000,-0.000000,677.566900,-680.308011,1.611664,0.000000,-0.000000,0.000000
-0.810000,1.110000,0.874590,0.020000,-109.373791,3896.550000,-201.840690,201.537577,-629.834082,-0.000000,0.000000,-0.000000,661.187596,-661.490709,0.056684,0.000000,-0.000000,0.000000
-0.830000,1.110000,0.886654,0.020000,-98.620165,4060.550000,-183.585797,184.337067,-622.782198,-0.000000,0.000000,-0.000000,649.759460,-649.008190,-0.349841,0.000000,-0.000000,-0.000000
-0.790000,1.090000,0.846621,0.020000,-135.026762,3714.550000,-217.319015,219.709441,-654.732504,-0.000000,0.000000,-0.000000,691.418336,-689.027910,-3.893649,0.000000,-0.000000,-0.000000
-0.770000,1.090000,0.834937,0.020000,-145.870608,3558.550000,-232.598954,231.305853,-665.063273,-0.000000,0.000000,-0.000000,703.695550,-704.988651,3.644220,0.000000,-0.000000,0.000000
-0.770000,1.110000,0.851360,0.020000,-130.631253,3580.550000,-235.078124,237.099287,-638.865449,-0.000000,0.000000,-0.000000,682.097978,-680.076815,2.626171,0.000000,-0.000000,0.000000
-0.790000,1.110000,0.862821,0.020000,-120.046637,3736.550000,-222.173719,224.099476,-632.514016,-0.000000,0.000000,-0.000000,671.671925,-669.746168,-3.646397,0.000000,-0.000000,-0.000000
0.770000,1.090000,0.835525,0.020000,-145.830574,3558.550000,-232.242993,230.949994,664.961592,-0.000000,0.000000,0.000000,703.480823,-704.773822,-3.945686,0.000000,-0.000000,-0.000000
0.790000,1.090000,0.846909,0.020000,-134.989083,3714.550000,-216.971812,219.361717,654.619666,-0.000000,0.000000,0.000000,691.202703,-688.812797,3.598560,0.000000,-0.000000,0.000000
0.790000,1.110000,0.863377,0.020000,-120.013550,3736.550000,-221.832200,223.757775,632.415549,-0.000000,0.000000,0.000000,671.466904,-669.541330,3.355886,0.000000,-0.000000,0.000000
0.770000,1.110000,0.851674,0.020000,-130.595852,3580.550000,-234.728835,236.750077,638.778360,-0.000000,0.000000,0.000000,681.894122,-679.872879,-2.922795,0.000000,-0.000000,-0.000000
0.810000,1.090000,0.858524,0.020000,-124.061858,3874.550000,-195.349867,192.609215,650.418718,-0.000000,0.000000,0.000000,677.355674,-680.096326,-1.894417,0.000000,-0.000000,-0.000000
0.830000,1.090000,0.870443,0.020000,-113.056548,4038.550000,-176.653360,176.630201,641.024451,-0.000000,0.000000,0.000000,664.905426,-664.928585,-0.204459,0.000000,-0.000000,-0.000000
0.830000,1.110000,0.886474,0.020000,-98.592108,4060.550000,-183.272843,184.023978,622.666159,-0.000000,0.000000,0.000000,649.559576,-648.808441,0.082407,0.000000,-0.000000,0.000000
0.810000,1.110000,0.874773,0.020000,-109.343155,3896.550000,-201.515680,201.212856,629.726017,-0.000000,0.000000,0.000000,660.985725,-661.288549,-0.333100,0.000000,-0.000000,-0.000000
0.850000,1.090000,0.882655,0.020000,-101.980505,4206.550000,-159.358022,159.165485,633.773322,-0.000000,0.000000,0.000000,653.381297,-653.573835,0.014221,0.000000,-0.000000,0.000000
0.870000,1.090000,0.895147,0.020000,-90.840794,4378.550000,-142.416943,142.236512,625.945338,-0.000000,0.000000,0.000000,641.832260,-642.012691,0.015035,0.000000,-0.000000,0.000000
0.870000,1.110000,0.910743,0.020000,-76.876464,4400.550000,-149.864718,149.825146,609.549665,-0.000000,0.000000,0.000000,627.677818,-627.717390,-0.124434,0.000000,-0.000000,-0.000000
0.850000,1.110000,0.898468,0.020000,-87.767579,4228.550000,-166.426948,166.388033,616.686790,-0.000000,0.000000,0.000000,638.724649,-638.763564,-0.129261,0.000000,-0.000000,-0.000000
0.890000,1.090000,0.907907,0.020000,-79.644186,4554.550000,-125.974571,125.939754,617.769229,-0.000000,0.000000,0.000000,630.461783,-630.496600,-0.128537,0.000000,-0.000000,-0.000000
0.910000,1.090000,0.920925,0.020000,-68.397170,4734.550000,-110.472216,110.432746,609.295639,-0.000000,0.000000,0.000000,619.206324,-619.245795,-0.114471,0.000000,-0.000000,-0.000000
0.910000,1.110000,0.936093,0.020000,-54.920712,4756.550000,-118.746786,118.623518,594.348671,-0.000000,0.000000,0.000000,606.021264,-606.144531,-0.169459,0.000000,-0.000000,-0.000000
0.890000,1.110000,0.923288,0.020000,-65.925390,4576.550000,-133.965662,133.938748,602.047388,-0.000000,0.000000,0.000000,616.755736,-616.782650,-0.117619,0.000000,-0.000000,-0.000000
0.930000,1.090000,0.933555,0.020000,-57.105952,4918.550000,-95.597543,95.597924,600.517553,-0.000000,0.000000,0.000000,608.079331,-608.078949,-0.132698,0.000000,-0.000000,-0.000000
0.950000,1.090000,0.946421,0.020000,-45.776466,5106.550000,-81.617807,81.320793,591.902821,-0.000000,0.000000,0.000000,597.334692,-597.631705,-0.155231,0.000000,-0.000000,-0.000000
0.950000,1.110000,0.961716,0.020000,-32.774620,5128.550000,-93.868001,89.993196,580.731914,-0.000000,0.000000,0.000000,586.024713,-589.899518,1.158247,0.000000,-0.000000,0.000000
0.930000,1.110000,0.949057,0.020000,-43.868526,4940.550000,-105.157103,104.087948,587.175681,-0.000000,0.000000,0.000000,595.889029,-596.958184,0.187295,0.000000,-0.000000,0.000000
0.970000,1.090000,0.959532,0.020000,-34.414348,5298.550000,-69.167161,65.971537,585.242588,-0.000000,0.000000,0.000000,587.531883,-590.727507,-0.840687,0.000000,-0.000000,-0.000000
0.990000,1.090000,0.972877,0.020000,-23.024950,5494.550000,-58.556212,56.308155,577.513156,-0.000000,0.000000,0.000000,579.235158,-581.483215,1.765244,0.000000,-0.000000,0.000000
0.990000,1.110000,0.987762,0.020000,-10.482042,5516.550000,-68.600756,62.886447,568.012565,-0.000000,0.000000,0.000000,568.947114,-574.661423,0.611211,0.000000,-0.000000,0.000000
0.970000,1.110000,0.974621,0.020000,-21.645056,5320.550000,-81.824562,75.464440,574.693276,-0.000000,0.000000,0.000000,576.868618,-583.228740,0.921485,0.000000,-0.000000,0.000000
1.010000,1.090000,0.986448,0.020000,-11.615928,5694.550000,-30.771568,52.909308,561.162154,-0.000000,0.000000,0.000000,573.787838,-551.650097,-0.974081,0.000000,-0.000000,-0.000000
1.030000,1.090000,1.000234,0.020000,-0.168214,5898.550000,13.505358,24.116242,540.138370,0.000000,0.000000,0.000000,558.384632,-520.763032,-25.252450,0.000000,-0.000000,-0.000000
-0.970000,1.130000,0.989691,0.020000,-8.905932,5342.950000,-98.534804,86.385003,-563.805583,-0.000000,0.000000,-0.000000,565.230504,-577.380305,-5.975257,0.000000,-0.000000,-0.000000
-0.950000,1.130000,0.976678,0.020000,-19.814938,5150.950000,-109.182061,96.704082,-573.699177,-0.000000,0.000000,-0.000000,576.615933,-589.093913,-2.856659,0.000000,-0.000000,-0.000000
-0.930000,1.130000,0.963905,0.020000,-30.682031,4962.950000,-115.963090,110.660466,-577.030577,-0.000000,0.000000,-0.000000,585.399542,-590.702166,-0.197076,0.000000,-0.000000,-0.000000
-0.930000,1.150000,0.979477,0.020000,-17.526188,4985.750000,-125.292236,111.368525,-569.110307,-0.000000,0.000000,-0.000000,574.310398,-588.234110,3.344698,0.000000,-0.000000,0.000000
-0.950000,1.150000,0.992050,0.020000,-6.890345,5173.750000,-118.532725,103.171537,-571.749284,-0.000000,0.000000,-0.000000,574.714948,-590.076135,-0.933576,0.000000,-0.000000,-0.000000
-0.910000,1.130000,0.951380,0.020000,-41.504069,4778.950000,-126.867826,125.542038,-580.794284,-0.000000,0.000000,-0.000000,593.684991,-595.010779,0.526086,0.000000,-0.000000,0.000000
-0.890000,1.130000,0.939114,0.020000,-52.275507,4598.950000,-141.651768,141.615725,-586.785810,-0.000000,0.000000,-0.000000,603.619010,-603.655053,-0.197369,0.000000,-0.000000,-0.000000
-0.890000,1.150000,0.955091,0.020000,-38.662635,4621.750000,-146.915390,147.788817,-571.063201,-0.000000,0.000000,-0.000000,590.204011,-589.330584,0.596882,0.000000,-0.000000,0.000000
-0.910000,1.150000,0.967154,0.020000,-28.121596,4801.750000,-132.039841,130.225364,-567.725226,-0.000000,0.000000,-0.000000,581.758462,-583.572939,2.893525,0.000000,-0.000000,0.000000
-0.870000,1.130000,0.927116,0.020000,-62.990295,4422.950000,-157.128452,157.084351,-593.625387,-0.000000,0.000000,-0.000000,614.041066,-614.085166,-0.106896,0.000000,-0.000000,-0.000000
-0.850000,1.130000,0.914711,0.020000,-73.642214,4250.950000,-173.336643,173.302537,-600.093389,-0.000000,0.000000,-0.000000,624.604224,-624.638330,-0.127617,0.000000,-0.000000,-0.000000
-0.850000,1.150000,0.930586,0.020000,-59.560803,4273.750000,-179.333036,179.271533,-583.808446,-0.000000,0.000000,-0.000000,610.691440,-610.752944,-0.122689,0.000000,-0.000000,-0.000000
-0.870000,1.150000,0.942782,0.020000,-49.144423,4445.750000,-163.444341,163.584329,-577.733283,-0.000000,0.000000,-0.000000,600.497044,-600.357056,-0.204982,0.000000,-0.000000,-0.000000
-0.830000,1.130000,0.902579,0.020000,-84.224785,4082.950000,-190.169729,190.132754,-606.174461,-0.000000,0.000000,-0.000000,635.280619,-635.317594,-0.129777,0.000000,-0.000000,-0.000000
-0.810000,1.130000,0.890731,0.020000,-94.731274,3918.950000,-207.625950,207.593324,-611.806815,-0.000000,0.000000,-0.000000,646.055916,-646.088542,-0.124434,0.000000,-0.000000,-0.000000
-0.810000,1.150000,0.907025,0.020000,-80.171785,3941.750000,-212.726245,212.692401,-594.264698,-0.000000,0.000000,-0.000000,631.169081,-631.202925,-0.131140,0.000000,-0.000000,-0.000000
-0.830000,1.150000,0.918663,0.020000,-69.905445,4105.750000,-195.717560,195.685141,-589.242870,-0.000000,0.000000,-0.000000,620.875217,-620.907635,-0.124091,0.000000,-0.000000,-0.000000
-0.790000,1.130000,0.879178,0.020000,-105.154694,3758.950000,-225.523233,225.565575,-616.744057,-0.000000,0.000000,-0.000000,656.712505,-656.670164,-0.040220,0.000000,-0.000000,-0.000000
-0.770000,1.130000,0.867933,0.020000,-115.487802,3602.950000,-244.274926,241.772396,-623.557176,-0.000000,0.000000,-0.000000,667.987361,-670.489891,1.927122,0.000000,-0.000000,0.000000
-0.770000,1.150000,0.884647,0.020000,-100.442117,3625.750000,-248.404289,248.084315,-602.825165,-0.000000,0.000000,-0.000000,651.778203,-652.098177,0.094279,0.000000,-0.000000,0.000000
-0.790000,1.150000,0.895683,0.020000,-90.353022,3781.750000,-229.959068,230.650480,-598.097998,-0.000000,0.000000,-0.000000,641.252372,-640.560960,-0.386383,0.000000,-0.000000,-0.000000
-0.750000,1.130000,0.857006,0.020000,-125.723102,3450.950000,-266.261572,268.471439,-625.736304,-0.000000,0.000000,-0.000000,681.560336,-679.350469,-3.349034,0.000000,-0.000000,-0.000000
-0.730000,1.130000,0.846219,0.020000,-135.852849,3302.950000,-281.395130,280.238748,-632.770007,-0.000000,0.000000,-0.000000,691.692646,-692.849028,4.138081,0.000000,-0.000000,0.000000
-0.730000,1.150000,0.862852,0.020000,-120.314559,3325.750000,-282.360597,284.144916,-606.929231,-0.000000,0.000000,-0.000000,670.661781,-668.877462,1.967200,0.000000,-0.000000,0.000000
-0.750000,1.150000,0.873930,0.020000,-110.431798,3473.750000,-269.492136,271.226611,-603.404693,-0.000000,0.000000,-0.000000,662.058866,-660.324390,-4.128569,0.000000,-0.000000,-0.000000
0.730000,1.130000,0.845687,0.020000,-135.817794,3302.950000,-281.038159,279.881672,632.715740,-0.000000,0.000000,0.000000,691.496353,-692.652840,-4.441232,0.000000,-0.000000,-0.000000
0.750000,1.130000,0.856675,0.020000,-125.690051,3450.950000,-265.911601,268.121281,625.668459,-0.000000,0.000000,0.000000,681.361763,-679.152083,3.052800,0.000000,-0.000000,0.000000
0.750000,1.150000,0.873349,0.020000,-110.403131,3473.750000,-269.148993,270.883575,603.348827,-0.000000,0.000000,0.000000,661.869467,-660.134885,3.837126,0.000000,-0.000000,0.000000
0.730000,1.150000,0.862574,0.020000,-120.283911,3325.750000,-282.011117,283.795836,606.886468,-0.000000,0.000000,0.000000,670.474641,-668.689922,-2.265074,0.000000,-0.000000,-0.000000
0.770000,1.130000,0.867984,0.020000,-115.456894,3602.950000,-243.937979,241.435506,623.480011,-0.000000,0.000000,0.000000,667.792323,-670.294796,-2.212460,0.000000,-0.000000,-0.000000
0.790000,1.130000,0.879603,0.020000,-105.126066,3758.950000,-225.195879,225.237948,616.657173,-0.000000,0.000000,0.000000,656.518308,-656.476239,-0.237519,0.000000,-0.000000,-0.000000
0.790000,1.150000,0.895850,0.020000,-90.328720,3781.750000,-229.640760,230.332137,598.021825,-0.000000,0.000000,0.000000,641.067045,-640.375668,0.116580,0.000000,-0.000000,0.000000
0.770000,1.150000,0.884445,0.020000,-100.415567,3625.750000,-248.075755,247.756039,602.758630,-0.000000,0.000000,0.000000,651.591720,-651.911436,-0.372582,0.000000,-0.000000,-0.000000
0.810000,1.130000,0.891176,0.020000,-94.705057,3918.950000,-207.309476,207.276848,611.710654,-0.000000,0.000000,0.000000,645.863209,-645.895837,-0.144393,0.000000,-0.000000,-0.000000
0.830000,1.130000,0.902664,0.020000,-84.201105,4082.950000,-189.864570,189.827596,606.070022,-0.000000,0.000000,0.000000,635.089685,-635.126658,-0.130171,0.000000,-0.000000,-0.000000
0.830000,1.150000,0.919004,0.020000,-69.886019,4105.750000,-195.420287,195.387869,589.149375,-0.000000,0.000000,0.000000,620.692840,-620.725258,-0.128597,0.000000,-0.000000,-0.000000
0.810000,1.150000,0.907553,0.020000,-80.149860,3941.750000,-212.418418,212.384571,594.179465,-0.000000,0.000000,0.000000,630.985149,-631.018996,-0.129997,0.000000,-0.000000,-0.000000
0.850000,1.130000,0.914446,0.020000,-73.621193,4250.950000,-173.042799,173.008695,599.981460,-0.000000,0.000000,0.000000,624.415207,-624.449311,-0.123668,0.000000,-0.000000,-0.000000
0.870000,1.130000,0.926509,0.020000,-62.972050,4422.950000,-156.845858,156.801772,593.506708,-0.000000,0.000000,0.000000,613.854087,-613.898173,-0.135954,0.000000,-0.000000,-0.000000
0.870000,1.150000,0.942435,0.020000,-49.130348,4445.750000,-163.168243,163.308185,577.625526,-0.000000,0.000000,0.000000,600.318221,-600.178279,-0.031418,0.000000,-0.000000,-0.000000
0.850000,1.150000,0.930578,0.020000,-59.543995,4273.750000,-179.046316,178.984813,583.707438,-0.000000,0.000000,0.000000,610.510755,-610.572258,-0.121777,0.000000,-0.000000,-0.000000
0.890000,1.130000,0.938843,0.020000,-52.260153,4598.950000,-141.380312,141.344225,586.661169,-0.000000,0.000000,0.000000,603.434206,-603.470293,-0.037346,0.000000,-0.000000,-0.000000
0.910000,1.130000,0.951438,0.020000,-41.491712,4778.950000,-126.607712,125.282045,580.664155,-0.000000,0.000000,0.000000,593.502470,-594.828136,-0.752416,0.000000,-0.000000,-0.000000
0.910000,1.150000,0.966954,0.020000,-28.113314,4801.750000,-131.784332,129.969351,567.606142,-0.000000,0.000000,0.000000,581.583520,-583.398501,-3.115060,0.000000,-0.000000,-0.000000
0.890000,1.150000,0.954564,0.020000,-38.651403,4621.750000,-146.649894,147.522761,570.949725,-0.000000,0.000000,0.000000,590.027219,-589.154352,-0.825698,0.000000,-0.000000,-0.000000
0.930000,1.130000,0.964284,0.020000,-30.672776,4962.950000,-115.712070,110.410804,576.894278,-0.000000,0.000000,0.000000,585.218312,-590.519578,-0.022371,0.000000,-0.000000,-0.000000
0.950000,1.130000,0.977180,0.020000,-19.808886,5150.950000,-108.935567,96.463129,573.556292,-0.000000,0.000000,0.000000,576.436073,-588.908511,2.641105,0.000000,-0.000000,0.000000
0.950000,1.150000,0.992480,0.020000,-6.888262,5173.750000,-118.289082,102.931823,571.612899,-0.000000,0.000000,0.000000,574.537359,-589.894618,0.721987,0.000000,-0.000000,0.000000
0.930000,1.150000,0.979596,0.020000,-17.520957,4985.750000,-125.044029,111.122011,568.984312,-0.000000,0.000000,0.000000,574.136290,-588.058309,-3.560227,0.000000,-0.000000,-0.000000
0.970000,1.130000,0.989884,0.020000,-8.903178,5342.950000,-98.293155,86.148540,563.658849,-0.000000,0.000000,0.000000,565.051840,-577.196455,5.761191,0.000000,-0.000000,0.000000
-0.930000,1.170000,0.995207,0.020000,-4.420162,5008.950000,-118.720989,118.162350,-556.586420,-0.000000,0.000000,-0.000000,568.678496,-569.237135,10.191957,0.000000,-0.000000,0.000000
-0.910000,1.170000,0.983082,0.020000,-14.793037,4824.950000,-126.988851,138.907948,-551.883961,-0.000000,0.000000,-0.000000,573.588225,-561.669128,6.990680,0.000000,-0.000000,0.000000
-0.890000,1.170000,0.970864,0.020000,-25.108873,4644.950000,-152.237262,155.197385,-555.553558,-0.000000,0.000000,-0.000000,577.907638,-574.947514,0.144190,0.000000,-0.000000,0.000000
-0.890000,1.190000,0.986646,0.020000,-11.618980,4668.550000,-153.585767,171.471449,-542.262214,-0.000000,0.000000,-0.000000,575.031816,-557.146133,-2.670264,0.000000,-0.000000,-0.000000
-0.910000,1.190000,0.998959,0.020000,-1.505090,4848.550000,-116.356553,150.981663,-526.469269,-0.000000,0.000000,-0.000000,560.412358,-525.787248,8.940101,0.000000,-0.000000,0.000000
-0.870000,1.170000,0.958609,0.020000,-35.363952,4468.950000,-170.420941,170.372899,-563.131341,-0.000000,0.000000,-0.000000,588.321871,-588.369914,-1.062033,0.000000,-0.000000,-0.000000
-0.850000,1.170000,0.946617,0.020000,-45.551086,4296.950000,-184.574768,184.130547,-568.265239,-0.000000,0.000000,-0.000000,597.198334,-597.642555,0.310421,0.000000,-0.000000,0.000000
-0.850000,1.190000,0.962796,0.020000,-31.615211,4320.550000,-190.466324,188.660004,-554.099301,-0.000000,0.000000,-0.000000,584.724772,-586.531093,0.391375,0.000000,-0.000000,0.000000
-0.870000,1.190000,0.974589,0.020000,-21.651013,4492.550000,-177.997977,175.910748,-551.493232,-0.000000,0.000000,-0.000000,578.141936,-580.229165,-1.314940,0.000000,-0.000000,-0.000000
-0.830000,1.170000,0.934899,0.020000,-55.664366,4128.950000,-200.692884,200.713642,-572.707853,-0.000000,0.000000,-0.000000,606.867903,-606.847144,-0.177149,0.000000,-0.000000,-0.000000
-0.810000,1.170000,0.923466,0.020000,-65.697359,3964.950000,-217.222710,217.180095,-577.216934,-0.000000,0.000000,-0.000000,616.708636,-616.751251,-0.120152,0.000000,-0.000000,-0.000000
-0.810000,1.190000,0.940044,0.020000,-51.309795,3988.550000,-221.038929,221.087278,-560.554897,-0.000000,0.000000,-0.000000,602.594240,-602.545891,-0.069361,0.000000,-0.000000,-0.000000
-0.830000,1.190000,0.951278,0.020000,-41.503540,4152.550000,-204.830574,205.129142,-556.683946,-0.000000,0.000000,-0.000000,593.372476,-593.073908,-0.045912,0.000000,-0.000000,-0.000000
-0.790000,1.170000,0.912327,0.020000,-75.643451,3804.950000,-234.310030,234.280380,-581.171126,-0.000000,0.000000,-0.000000,626.606355,-626.636005,-0.131391,0.000000,-0.000000,-0.000000
-0.770000,1.170000,0.901495,0.020000,-85.495808,3648.950000,-251.929806,251.902456,-584.613355,-0.000000,0.000000,-0.000000,636.566639,-636.593990,-0.123622,0.000000,-0.000000,-0.000000
-0.770000,1.190000,0.918328,0.020000,-70.650252,3672.550000,-254.848331,254.817534,-566.995711,-0.000000,0.000000,-0.000000,621.614671,-621.645468,-0.127408,0.000000,-0.000000,-0.000000
-0.790000,1.190000,0.929104,0.020000,-61.027581,3828.550000,-237.771712,237.747642,-564.064622,-0.000000,0.000000,-0.000000,612.114211,-612.138281,-0.145360,0.000000,-0.000000,-0.000000
-0.750000,1.170000,0.890573,0.020000,-95.247374,3496.950000,-269.833944,269.923215,-587.271680,-0.000000,0.000000,-0.000000,646.359167,-646.269896,-0.031596,0.000000,-0.000000,-0.000000
-0.730000,1.170000,0.879625,0.020000,-104.890884,3348.950000,-288.520139,286.649504,-591.581370,-0.000000,0.000000,-0.000000,656.841634,-658.712269,1.740263,0.000000,-0.000000,0.000000
-0.730000,1.190000,0.896531,0.020000,-89.582708,3372.550000,-290.549459,290.551924,-571.170522,-0.000000,0.000000,-0.000000,640.825263,-640.822798,-0.176997,0.000000,-0.000000,-0.000000
-0.750000,1.190000,0.907275,0.020000,-80.170973,3520.550000,-272.111790,272.734552,-568.733077,-0.000000,0.000000,-0.000000,630.923411,-630.300648,-0.406755,0.000000,-0.000000,-0.000000
-0.710000,1.170000,0.869000,0.020000,-114.418861,3204.950000,-309.256149,308.756013,-590.729131,-0.000000,0.000000,-0.000000,666.416155,-666.916291,-1.345516,0.000000,-0.000000,-0.000000
-0.690000,1.170000,0.858709,0.020000,-123.823626,3064.950000,-325.648773,323.820482,-593.937638,-0.000000,0.000000,-0.000000,675.993598,-677.821888,3.225471,0.000000,-0.000000,0.000000
-0.690000,1.190000,0.876019,0.020000,-108.050132,3088.550000,-325.284917,326.381341,-572.471107,-0.000000,0.000000,-0.000000,659.249825,-658.153401,1.606424,0.000000,-0.000000,0.000000
-0.710000,1.190000,0.886109,0.020000,-98.878232,3228.550000,-311.062960,310.413635,-571.365882,-0.000000,0.000000,-0.000000,650.069773,-650.719098,-2.083060,0.000000,-0.000000,-0.000000
-0.670000,1.170000,0.848765,0.020000,-133.097303,2928.950000,-350.314039,353.812222,-594.900341,-0.000000,0.000000,-0.000000,693.014816,-689.516633,-2.561482,0.000000,-0.000000,-0.000000
-0.650000,1.170000,0.839180,0.020000,-142.231832,2796.950000,-365.429622,364.351958,-594.843083,-0.000000,0.000000,-0.000000,697.289109,-698.366773,4.443788,0.000000,-0.000000,0.000000
-0.650000,1.190000,0.856884,0.020000,-125.992533,2820.550000,-363.866627,364.627019,-568.459692,-0.000000,0.000000,-0.000000,675.525843,-674.765451,0.724309,0.000000,-0.000000,0.000000
-0.670000,1.190000,0.866273,0.020000,-117.090819,2952.550000,-350.735892,352.003774,-569.955786,-0.000000,0.000000,-0.000000,670.176246,-668.908364,-4.843485,0.000000,-0.000000,-0.000000
0.650000,1.170000,0.838867,0.020000,-142.198979,2796.950000,-365.063309,363.985449,594.862844,-0.000000,0.000000,0.000000,697.112213,-698.190073,-4.765332,0.000000,-0.000000,-0.000000
0.670000,1.170000,0.848863,0.020000,-133.065854,2928.950000,-349.953567,353.450562,594.900414,-0.000000,0.000000,0.000000,692.831548,-689.334553,2.250036,0.000000,-0.000000,0.000000
0.670000,1.190000,0.866142,0.020000,-117.063516,2952.550000,-350.382702,351.651379,569.966455,-0.000000,0.000000,0.000000,670.002805,-668.734128,4.536310,0.000000,-0.000000,0.000000
0.650000,1.190000,0.856348,0.020000,-125.963821,2820.550000,-363.509095,364.271156,568.486936,-0.000000,0.000000,0.000000,675.356838,-674.594776,-1.039158,0.000000,-0.000000,-0.000000
0.690000,1.170000,0.859208,0.020000,-123.793725,3064.950000,-325.297253,323.468727,593.929327,-0.000000,0.000000,0.000000,675.816049,-677.644575,-3.529175,0.000000,-0.000000,-0.000000
0.710000,1.170000,0.869354,0.020000,-114.390650,3204.950000,-308.910134,308.410284,590.705712,-0.000000,0.000000,0.000000,666.235830,-666.735680,1.049531,0.000000,-0.000000,0.000000
0.710000,1.190000,0.886692,0.020000,-98.854163,3228.550000,-310.726032,310.078973,571.350438,-0.000000,0.000000,0.000000,649.897829,-650.544888,1.794891,0.000000,-0.000000,0.000000
0.690000,1.190000,0.876284,0.020000,-108.024378,3088.550000,-324.942390,326.040047,572.470066,-0.000000,0.000000,0.000000,659.079685,-657.982028,-1.902644,0.000000,-0.000000,-0.000000
0.730000,1.170000,0.879591,0.020000,-104.864502,3348.950000,-288.185028,286.313916,591.546841,-0.000000,0.000000,0.000000,656.662968,-658.534080,-2.026297,0.000000,-0.000000,-0.000000
0.750000,1.170000,0.890160,0.020000,-95.222956,3496.950000,-269.506412,269.595395,587.225843,-0.000000,0.000000,0.000000,646.180560,-646.091577,-0.247014,0.000000,-0.000000,-0.000000
0.750000,1.190000,0.907101,0.020000,-80.150672,3520.550000,-271.794508,272.417329,568.695941,-0.000000,0.000000,0.000000,630.753069,-630.130248,0.136566,0.000000,-0.000000,0.000000
0.730000,1.190000,0.896732,0.020000,-89.560458,3372.550000,-290.223894,290.226425,571.144270,-0.000000,0.000000,0.000000,640.654378,-640.651847,-0.101297,0.000000,-0.000000,-0.000000
0.770000,1.170000,0.901050,0.020000,-85.473484,3648.950000,-251.611270,251.583909,584.556903,-0.000000,0.000000,0.000000,636.388785,-636.416146,-0.146610,0.000000,-0.000000,-0.000000
0.790000,1.170000,0.912247,0.020000,-75.623350,3804.950000,-234.001080,233.971421,581.104986,-0.000000,0.000000,0.000000,626.429545,-626.459203,-0.130462,0.000000,-0.000000,-0.000000
0.790000,1.190000,0.928785,0.020000,-61.011556,3828.550000,-237.472001,237.447912,564.007803,-0.000000,0.000000,0.000000,611.945487,-611.969577,-0.108798,0.000000,-0.000000,-0.000000
0.770000,1.190000,0.917789,0.020000,-70.632027,3672.550000,-254.539753,254.508947,566.948402,-0.000000,0.000000,0.000000,621.445068,-621.475874,-0.134695,0.000000,-0.000000,-0.000000
0.810000,1.170000,0.923742,0.020000,-65.679603,3964.950000,-216.923488,216.880872,577.141852,-0.000000,0.000000,0.000000,616.533033,-616.575649,-0.133492,0.000000,-0.000000,-0.000000
0.830000,1.170000,0.935486,0.020000,-55.649076,4128.950000,-200.403498,200.424225,572.624591,-0.000000,0.000000,0.000000,606.693669,-606.672942,-0.068481,0.000000,-0.000000,-0.000000
0.830000,1.190000,0.951657,0.020000,-41.492270,4152.550000,-204.548507,204.847295,556.610008,-0.000000,0.000000,0.000000,593.205794,-592.907006,-0.193142,0.000000,-0.000000,-0.000000
0.810000,1.190000,0.940078,0.020000,-51.296089,3988.550000,-220.748265,220.796642,560.489219,-0.000000,0.000000,0.000000,602.426554,-602.378177,-0.176947,0.000000,-0.000000,-0.000000
0.850000,1.170000,0.946859,0.020000,-45.538377,4296.950000,-184.295349,183.851014,568.174549,-0.000000,0.000000,0.000000,597.025648,-597.469983,-0.548183,0.000000,-0.000000,-0.000000
0.870000,1.170000,0.958515,0.020000,-35.353936,4468.950000,-170.150069,170.102815,563.033012,-0.000000,0.000000,0.000000,588.150232,-588.197486,0.831314,0.000000,-0.000000,0.000000
0.870000,1.190000,0.974739,0.020000,-21.644948,4492.550000,-177.729882,175.645075,551.404019,-0.000000,0.000000,0.000000,577.977177,-580.061983,1.087696,0.000000,-0.000000,0.000000
0.850000,1.190000,0.963280,0.020000,-31.606489,4320.550000,-190.191887,188.386054,554.018037,-0.000000,0.000000,0.000000,584.559216,-586.365050,-0.624391,0.000000,-0.000000,-0.000000
0.890000,1.170000,0.970442,0.020000,-25.101658,4644.950000,-151.974533,154.934705,555.449883,-0.000000,0.000000,0.000000,577.737629,-574.777457,-0.369691,0.000000,-0.000000,-0.000000
0.910000,1.170000,0.982632,0.020000,-14.788726,4824.950000,-126.739508,138.650757,551.776290,-0.000000,0.000000,0.000000,573.417600,-561.506351,-7.209651,0.000000,-0.000000,-0.000000
0.910000,1.190000,0.998465,0.020000,-1.504656,4848.550000,-116.107459,150.723759,526.372195,-0.000000,0.000000,0.000000,560.247852,-525.631551,-9.159310,0.000000,-0.000000,-0.000000
0.890000,1.190000,0.986470,0.020000,-11.615678,4668.550000,-153.323419,171.210915,542.166448,-0.000000,0.000000,0.000000,574.866980,-556.979485,2.446540,0.000000,-0.000000,0.000000
0.930000,1.170000,0.995075,0.020000,-4.418860,5008.950000,-118.477670,117.914943,556.474820,-0.000000,0.000000,0.000000,568.512369,-569.075096,-10.405814,0.000000,-0.000000,-0.000000
-0.870000,1.210000,0.990716,0.020000,-8.003988,4516.550000,-182.847037,180.384228,-537.065620,-0.000000,0.000000,-0.000000,565.709853,-568.172662,-1.152970,0.000000,-0.000000,-0.000000
-0.850000,1.210000,0.979117,0.020000,-17.755928,4344.550000,-191.919908,196.787682,-540.843735,-0.000000,0.000000,-0.000000,577.138148,-572.270373,0.596340,0.000000,-0.000000,0.000000
-0.850000,1.230000,0.995572,0.020000,-3.969267,4368.950000,-196.940363,204.253058,-528.540395,-0.000000,0.000000,-0.000000,568.982287,-561.669593,-0.755745,0.000000,-0.000000,-0.000000
-0.830000,1.210000,0.967793,0.020000,-27.424605,4176.550000,-210.800393,209.733032,-542.935413,-0.000000,0.000000,-0.000000,581.695221,-582.762582,-0.677281,0.000000,-0.000000,-0.000000
-0.810000,1.210000,0.956753,0.020000,-37.010688,4012.550000,-226.059596,224.587679,-546.055803,-0.000000,0.000000,-0.000000,589.981938,-591.453854,-0.219935,0.000000,-0.000000,-0.000000
-0.810000,1.230000,0.973586,0.020000,-22.801585,4036.950000,-235.548706,227.324819,-534.045399,-0.000000,0.000000,-0.000000,577.923040,-586.146927,-1.655507,0.000000,-0.000000,-0.000000
-0.830000,1.230000,0.984437,0.020000,-13.428930,4200.950000,-219.724051,213.580199,-532.693411,-0.000000,0.000000,-0.000000,571.991548,-578.135400,-1.553701,0.000000,-0.000000,-0.000000
-0.790000,1.210000,0.946006,0.020000,-46.506790,3852.550000,-240.771255,240.479896,-547.701175,-0.000000,0.000000,-0.000000,598.082742,-598.374101,0.019640,0.000000,-0.000000,0.000000
-0.770000,1.210000,0.934962,0.020000,-55.906615,3696.550000,-257.229277,257.255694,-549.881509,-0.000000,0.000000,-0.000000,607.090921,-607.064505,-0.140436,0.000000,-0.000000,-0.000000
-0.770000,1.230000,0.951725,0.020000,-41.265871,3720.950000,-260.439680,259.283279,-534.574060,-0.000000,0.000000,-0.000000,593.810035,-594.966435,-0.200152,0.000000,-0.000000,-0.000000
-0.790000,1.230000,0.962684,0.020000,-32.082210,3876.950000,-247.931002,243.624253,-533.945209,-0.000000,0.000000,-0.000000,585.640858,-589.947607,-1.438343,0.000000,-0.000000,-0.000000
-0.750000,1.210000,0.924107,0.020000,-65.203524,3544.550000,-274.287186,274.255211,-551.833530,-0.000000,0.000000,-0.000000,616.218478,-616.250454,-0.132791,0.000000,-0.000000,-0.000000
-0.730000,1.210000,0.913562,0.020000,-74.390712,3396.550000,-291.720939,291.707833,-553.141390,-0.000000,0.000000,-0.000000,625.343480,-625.356586,-0.128879,0.000000,-0.000000,-0.000000
-0.730000,1.230000,0.930711,0.020000,-59.315393,3420.950000,-292.546032,292.551010,-535.760349,-0.000000,0.000000,-0.000000,610.431653,-610.426676,-0.153237,0.000000,-0.000000,-0.000000
-0.750000,1.230000,0.941064,0.020000,-50.345766,3568.950000,-275.643138,275.491385,-534.985821,-0.000000,0.000000,-0.000000,601.710751,-601.862504,0.013938,0.000000,-0.000000,0.000000
-0.710000,1.210000,0.903336,0.020000,-83.461196,3252.550000,-309.621793,309.598128,-553.840590,-0.000000,0.000000,-0.000000,634.494043,-634.517708,-0.144735,0.000000,-0.000000,-0.000000
-0.690000,1.210000,0.893441,0.020000,-92.407824,3112.550000,-327.902428,327.871607,-553.878747,-0.000000,0.000000,-0.000000,643.639421,-643.670242,-0.140986,0.000000,-0.000000,-0.000000
-0.690000,1.230000,0.910968,0.020000,-76.896661,3136.950000,-327.415968,327.397197,-535.748931,-0.000000,0.000000,-0.000000,627.861595,-627.880366,-0.138482,0.000000,-0.000000,-0.000000
-0.710000,1.230000,0.920675,0.020000,-68.167990,3276.950000,-309.799266,309.772181,-536.089529,-0.000000,0.000000,-0.000000,619.146502,-619.173587,-0.131199,0.000000,-0.000000,-0.000000
-0.670000,1.210000,0.883887,0.020000,-101.223282,2976.550000,-346.214135,346.367904,-552.984764,-0.000000,0.000000,-0.000000,652.541150,-652.387380,-0.045022,0.000000,-0.000000,-0.000000
-0.650000,1.210000,0.874429,0.020000,-109.900101,2844.550000,-364.743893,363.261270,-553.354624,-0.000000,0.000000,-0.000000,661.599361,-663.081984,2.013206,0.000000,-0.000000,0.000000
-0.650000,1.230000,0.891906,0.020000,-93.953895,2868.950000,-363.676078,363.661244,-533.098807,-0.000000,0.000000,-0.000000,645.321353,-645.336186,-0.111217,0.000000,-0.000000,-0.000000
-0.670000,1.230000,0.901601,0.020000,-85.494358,3000.950000,-345.109092,345.635069,-534.213604,-0.000000,0.000000,-0.000000,636.396516,-635.870540,-0.427663,0.000000,-0.000000,-0.000000
-0.630000,1.210000,0.864783,0.020000,-118.430674,2716.550000,-386.034685,385.516504,-549.320576,-0.000000,0.000000,-0.000000,670.989627,-671.507808,-1.030926,0.000000,-0.000000,-0.000000
-0.610000,1.210000,0.855497,0.020000,-126.807257,2592.550000,-401.934542,400.414603,-547.674184,-0.000000,0.000000,-0.000000,678.119925,-679.639865,3.183915,0.000000,-0.000000,0.000000
-0.610000,1.230000,0.873352,0.020000,-110.429122,2616.950000,-398.996711,399.593633,-526.838212,-0.000000,0.000000,-0.000000,661.353821,-660.756898,0.973314,0.000000,-0.000000,0.000000
-0.630000,1.230000,0.882451,0.020000,-102.267960,2740.950000,-384.938427,383.707398,-530.083767,-0.000000,0.000000,-0.000000,654.127491,-655.358521,-2.120727,0.000000,-0.000000,-0.000000
-0.590000,1.210000,0.846580,0.020000,-135.021993,2472.550000,-426.019046,429.414075,-546.077160,-0.000000,0.000000,-0.000000,695.340959,-691.945930,-0.701686,0.000000,-0.000000,-0.000000
-0.570000,1.210000,0.838047,0.020000,-143.066917,2356.550000,-440.880752,440.002391,-540.352390,-0.000000,0.000000,-0.000000,696.661504,-697.539866,4.485377,0.000000,-0.000000,0.000000
-0.570000,1.230000,0.856266,0.020000,-126.262515,2380.950000,-437.006411,437.190212,-515.206079,-0.000000,0.000000,-0.000000,675.733841,-675.550040,-0.454038,0.000000,-0.000000,-0.000000
-0.590000,1.230000,0.864620,0.020000,-118.429848,2496.950000,-424.291369,425.166551,-521.260637,-0.000000,0.000000,-0.000000,672.808349,-671.933167,-4.990447,0.000000,-0.000000,-0.000000
0.570000,1.210000,0.838136,0.020000,-143.037918,2356.550000,-440.524518,439.645663,540.446647,-0.000000,0.000000,0.000000,696.506934,-697.385789,-4.820261,0.000000,-0.000000,-0.000000
0.590000,1.210000,0.847093,0.020000,-134.993852,2472.550000,-425.665741,429.060265,546.149384,-0.000000,0.000000,0.000000,695.179881,-691.785357,0.378647,0.000000,-0.000000,0.000000
0.590000,1.230000,0.864928,0.020000,-118.405503,2496.950000,-423.946297,424.822675,521.338816,-0.000000,0.000000,0.000000,672.654314,-671.777935,4.672859,0.000000,-0.000000,0.000000
0.570000,1.230000,0.856157,0.020000,-126.237276,2380.950000,-436.659572,436.845417,515.302363,-0.000000,0.000000,0.000000,675.584781,-675.398935,0.127947,0.000000,-0.000000,0.000000
0.610000,1.210000,0.855819,0.020000,-126.780118,2592.550000,-401.585391,400.064734,547.736744,-0.000000,0.000000,0.000000,677.962006,-679.482662,-3.502106,0.000000,-0.000000,-0.000000
0.630000,1.210000,0.864695,0.020000,-118.404677,2716.550000,-385.687869,385.169888,549.365226,-0.000000,0.000000,0.000000,670.827480,-671.345462,0.721278,0.000000,-0.000000,0.000000
0.630000,1.230000,0.882571,0.020000,-102.245809,2740.950000,-384.602338,383.373721,530.132917,-0.000000,0.000000,0.000000,653.972892,-655.201509,1.820250,0.000000,-0.000000,0.000000
0.610000,1.230000,0.873877,0.020000,-110.405806,2616.950000,-398.657605,399.256175,526.903878,-0.000000,0.000000,0.000000,661.202192,-660.603622,-1.282353,0.000000,-0.000000,-0.000000
0.650000,1.210000,0.873938,0.020000,-109.875387,2844.550000,-364.404576,362.920948,553.386809,-0.000000,0.000000,0.000000,661.438077,-662.921706,-2.314309,0.000000,-0.000000,-0.000000
0.670000,1.210000,0.883537,0.020000,-101.199985,2976.550000,-345.879099,346.032552,553.002928,-0.000000,0.000000,0.000000,652.378504,-652.225052,-0.248718,0.000000,-0.000000,-0.000000
0.670000,1.230000,0.901039,0.020000,-85.474933,3000.950000,-344.786362,345.312547,534.237444,-0.000000,0.000000,0.000000,636.241671,-635.715486,0.143679,0.000000,-0.000000,0.000000
0.650000,1.230000,0.891628,0.020000,-93.933042,2868.950000,-363.348135,363.333369,533.135648,-0.000000,0.000000,0.000000,645.167082,-645.181847,-0.180453,0.000000,-0.000000,-0.000000
0.690000,1.210000,0.893480,0.020000,-92.386080,3112.550000,-327.573896,327.542832,553.884018,-0.000000,0.000000,0.000000,643.476478,-643.507542,-0.144549,0.000000,-0.000000,-0.000000
0.710000,1.210000,0.903757,0.020000,-83.441135,3252.550000,-309.300258,309.276356,553.833797,-0.000000,0.000000,0.000000,634.331106,-634.355008,-0.132748,0.000000,-0.000000,-0.000000
0.710000,1.230000,0.920876,0.020000,-68.151808,3276.950000,-309.488941,309.461837,536.089608,-0.000000,0.000000,0.000000,618.991348,-619.018452,-0.137572,0.000000,-0.000000,-0.000000
0.690000,1.230000,0.910792,0.020000,-76.878795,3136.950000,-327.099290,327.080495,535.760687,-0.000000,0.000000,0.000000,627.706535,-627.725331,-0.137907,0.000000,-0.000000,-0.000000
0.730000,1.210000,0.913988,0.020000,-74.372464,3396.550000,-291.406480,291.393347,553.123216,-0.000000,0.000000,0.000000,625.180751,-625.193884,-0.140837,0.000000,-0.000000,-0.000000
0.750000,1.210000,0.924164,0.020000,-65.187214,3544.550000,-273.980416,273.948424,551.804661,-0.000000,0.000000,0.000000,616.056135,-616.088127,-0.129113,0.000000,-0.000000,-0.000000
0.750000,1.230000,0.941343,0.020000,-50.333323,3568.950000,-275.346524,275.194867,534.964374,-0.000000,0.000000,0.000000,601.555924,-601.707581,-0.267759,0.000000,-0.000000,-0.000000
0.730000,1.230000,0.931280,0.020000,-59.301020,3420.950000,-292.242446,292.247394,535.749400,-0.000000,0.000000,0.000000,610.276594,-610.271646,-0.108019,0.000000,-0.000000,-0.000000
0.770000,1.210000,0.934657,0.020000,-55.892365,3696.550000,-256.930500,256.956899,549.842633,-0.000000,0.000000,0.000000,606.929151,-606.902752,-0.113764,0.000000,-0.000000,-0.000000
0.790000,1.210000,0.945457,0.020000,-46.494721,3852.550000,-240.480572,240.189146,547.653027,-0.000000,0.000000,0.000000,597.921684,-598.213109,-0.266430,0.000000,-0.000000,-0.000000
0.790000,1.230000,0.962256,0.020000,-32.073981,3876.950000,-247.646317,243.340800,533.904647,-0.000000,0.000000,0.000000,585.486440,-589.791956,1.196880,0.000000,-0.000000,0.000000
0.770000,1.230000,0.951647,0.020000,-41.255477,3720.950000,-260.149558,258.993889,534.542442,-0.000000,0.000000,0.000000,593.655369,-594.811038,-0.046675,0.000000,-0.000000,-0.000000
0.810000,1.210000,0.956553,0.020000,-37.000915,4012.550000,-225.775688,224.305534,545.997660,-0.000000,0.000000,0.000000,589.821203,-591.291358,-0.019575,0.000000,-0.000000,-0.000000
0.830000,1.210000,0.967935,0.020000,-27.417242,4176.550000,-210.521382,209.457217,542.868887,-0.000000,0.000000,0.000000,581.534871,-582.599036,0.442427,0.000000,-0.000000,0.000000
0.830000,1.230000,0.984350,0.020000,-13.425365,4200.950000,-219.442382,213.313282,532.632017,-0.000000,0.000000,0.000000,571.839340,-577.968441,1.322316,0.000000,-0.000000,0.000000
0.810000,1.230000,0.973160,0.020000,-22.795632,4036.950000,-235.267866,227.049600,533.994666,-0.000000,0.000000,0.000000,577.769417,-585.987682,1.420130,0.000000,-0.000000,0.000000
0.850000,1.210000,0.979593,0.020000,-17.751084,4344.550000,-191.647244,196.516417,540.770467,-0.000000,0.000000,0.000000,576.977683,-572.108511,-0.827336,0.000000,-0.000000,-0.000000
0.870000,1.210000,0.991101,0.020000,-8.001772,4516.550000,-182.578717,180.121068,536.987270,-0.000000,0.000000,0.000000,565.553545,-568.011194,0.926009,0.000000,-0.000000,0.000000
0.850000,1.230000,0.995816,0.020000,-3.968192,4368.950000,-196.663274,203.984635,528.471299,-0.000000,0.000000,0.000000,568.825546,-561.504184,0.525040,0.000000,-0.000000,0.000000
-0.810000,1.250000,0.990438,0.020000,-8.679626,4061.750000,-251.384412,227.649055,-520.312159,-0.000000,0.000000,-0.000000,560.894463,-584.629821,-6.044553,0.000000,-0.000000,-0.000000
-0.790000,1.250000,0.979381,0.020000,-17.755347,3901.750000,-258.901035,246.860551,-525.046160,-0.000000,0.000000,-0.000000,576.742725,-588.783209,-3.080696,0.000000,-0.000000,-0.000000
-0.770000,1.250000,0.968611,0.020000,-26.728766,3745.750000,-268.046327,260.136506,-523.275003,-0.000000,0.000000,-0.000000,582.185675,-590.095496,-0.467910,0.000000,-0.000000,-0.000000
-0.770000,1.270000,0.985614,0.020000,-12.293895,3770.950000,-285.986763,250.995943,-517.104365,-0.000000,0.000000,-0.000000,565.156642,-600.147462,1.056788,0.000000,-0.000000,0.000000
-0.790000,1.270000,0.996200,0.020000,-3.535292,3926.950000,-277.439899,249.299389,-524.878735,-0.000000,0.000000,-0.000000,573.163349,-601.303859,-4.236672,0.000000,-0.000000,-0.000000
-0.750000,1.250000,0.958138,0.020000,-35.598257,3593.750000,-279.486331,275.528241,-521.556346,-0.000000,0.000000,-0.000000,588.809394,-592.767485,0.578911,0.000000,-0.000000,0.000000
-0.730000,1.250000,0.947971,0.020000,-44.357076,3445.750000,-293.486850,292.964580,-519.451953,-0.000000,0.000000,-0.000000,596.238345,-596.760615,-0.147561,0.000000,-0.000000,-0.000000
-0.730000,1.270000,0.965337,0.020000,-29.515856,3470.950000,-300.597054,293.630505,-506.828558,-0.000000,0.000000,-0.000000,584.010618,-590.977167,-1.646718,0.000000,-0.000000,-0.000000
-0.750000,1.270000,0.975323,0.020000,-20.961830,3618.950000,-290.976646,274.202573,-511.031853,-0.000000,0.000000,-0.000000,575.573525,-592.347598,-0.710374,0.000000,-0.000000,-0.000000
-0.710000,1.250000,0.938120,0.020000,-52.998686,3301.750000,-309.527648,309.527003,-518.949329,-0.000000,0.000000,-0.000000,604.247612,-604.248256,-0.075018,0.000000,-0.000000,-0.000000
-0.690000,1.250000,0.928596,0.020000,-61.516449,3161.750000,-326.593920,326.582317,-518.280578,-0.000000,0.000000,-0.000000,612.590749,-612.602352,-0.149360,0.000000,-0.000000,-0.000000
-0.690000,1.270000,0.946318,0.020000,-46.266855,3186.950000,-325.721939,325.353553,-501.664955,-0.000000,0.000000,-0.000000,597.848028,-598.216414,-0.117153,0.000000,-0.000000,-0.000000
-0.710000,1.270000,0.955666,0.020000,-37.953221,3326.950000,-311.158330,308.773437,-504.571050,-0.000000,0.000000,-0.000000,590.982142,-593.367035,0.224802,0.000000,-0.000000,0.000000
-0.670000,1.250000,0.919098,0.020000,-69.903572,3025.750000,-343.865502,343.846653,-516.962684,-0.000000,0.000000,-0.000000,620.866892,-620.885742,-0.133879,0.000000,-0.000000,-0.000000
-0.650000,1.250000,0.909486,0.020000,-78.153142,2893.750000,-361.422039,361.420213,-514.944301,-0.000000,0.000000,-0.000000,629.119778,-629.121605,-0.137444,0.000000,-0.000000,-0.000000
-0.650000,1.270000,0.927165,0.020000,-62.496953,2918.950000,-358.965958,358.944561,-497.602107,-0.000000,0.000000,-0.000000,613.549988,-613.571384,-0.142274,0.000000,-0.000000,-0.000000
-0.670000,1.270000,0.936595,0.020000,-54.450321,3050.950000,-342.013680,342.052422,-499.833361,-0.000000,0.000000,-0.000000,605.676023,-605.637282,-0.128923,0.000000,-0.000000,-0.000000
-0.630000,1.250000,0.900216,0.020000,-86.258131,2765.750000,-379.173988,379.223480,-512.220376,-0.000000,0.000000,-0.000000,637.332665,-637.283173,-0.098977,0.000000,-0.000000,-0.000000
-0.610000,1.250000,0.891299,0.020000,-94.211408,2641.750000,-397.219522,397.264099,-508.749595,-0.000000,0.000000,-0.000000,645.488940,-645.444363,-0.092135,0.000000,-0.000000,-0.000000
-0.610000,1.270000,0.909331,0.020000,-78.152615,2666.950000,-393.377836,393.368215,-490.978840,-0.000000,0.000000,-0.000000,629.123585,-629.133206,-0.143890,0.000000,-0.000000,-0.000000
-0.630000,1.270000,0.918073,0.020000,-70.399999,2790.950000,-376.062206,376.051957,-494.646231,-0.000000,0.000000,-0.000000,621.359344,-621.369594,-0.137688,0.000000,-0.000000,-0.000000
-0.590000,1.250000,0.882744,0.020000,-102.005751,2521.750000,-415.131595,415.357330,-504.259951,-0.000000,0.000000,-0.000000,653.340284,-653.114549,-0.058776,0.000000,-0.000000,-0.000000
-0.570000,1.250000,0.874563,0.020000,-109.633861,2405.750000,-432.588553,431.576865,-500.590124,-0.000000,0.000000,-0.000000,660.767065,-661.778753,2.019963,0.000000,-0.000000,0.000000
-0.570000,1.270000,0.892934,0.020000,-93.178794,2430.950000,-428.434707,428.404225,-481.507253,-0.000000,0.000000,-0.000000,644.494240,-644.524722,-0.043534,0.000000,-0.000000,-0.000000
-0.590000,1.270000,0.900948,0.020000,-85.747877,2546.950000,-410.648806,411.051864,-486.172206,-0.000000,0.000000,-0.000000,636.724309,-636.321251,-0.402706,0.000000,-0.000000,-0.000000
-0.550000,1.250000,0.866576,0.020000,-117.088374,2293.750000,-453.355293,452.845998,-493.544186,-0.000000,0.000000,-0.000000,669.734666,-670.243961,-0.615396,0.000000,-0.000000,-0.000000
-0.530000,1.250000,0.858327,0.020000,-124.361884,2185.750000,-468.200555,467.453360,-487.179371,-0.000000,0.000000,-0.000000,675.052080,-675.799275,2.440253,0.000000,-0.000000,0.000000
-0.530000,1.270000,0.876670,0.020000,-107.519389,2210.950000,-462.717039,463.137501,-467.955378,-0.000000,0.000000,-0.000000,658.453263,-658.032801,0.065410,0.000000,-0.000000,0.000000
-0.550000,1.270000,0.884748,0.020000,-100.438324,2318.950000,-449.392672,447.639926,-475.404805,-0.000000,0.000000,-0.000000,652.708399,-654.461144,-1.883060,0.000000,-0.000000,-0.000000
-0.510000,1.250000,0.850469,0.020000,-131.446950,2081.750000,-489.966357,491.694631,-481.881891,-0.000000,0.000000,-0.000000,688.704062,-686.975787,0.984360,0.000000,-0.000000,0.000000
-0.490000,1.250000,0.843012,0.020000,-138.336123,1981.750000,-505.178990,503.998752,-470.482082,-0.000000,0.000000,-0.000000,689.307181,-690.487420,2.243503,0.000000,-0.000000,0.000000
-0.490000,1.270000,0.861681,0.020000,-121.117719,2006.950000,-498.615203,497.664881,-450.893603,-0.000000,0.000000,-0.000000,671.423829,-672.374151,-0.538780,0.000000,-0.000000,-0.000000
-0.510000,1.270000,0.868978,0.020000,-114.414888,2106.950000,-485.262890,483.022767,-461.027467,-0.000000,0.000000,-0.000000,667.413520,-669.653643,-1.858336,0.000000,-0.000000,-0.000000
-0.470000,1.250000,0.835967,0.020000,-145.021960,1885.750000,-526.913191,529.994174,-465.416077,-0.000000,0.000000,-0.000000,705.722027,-702.641044,1.945235,0.000000,-0.000000,0.000000
-0.450000,1.250000,0.829344,0.020000,-151.497050,1793.750000,-540.653574,540.109916,-451.801889,-0.000000,0.000000,-0.000000,704.088680,-704.632338,3.694677,0.000000,-0.000000,0.000000
-0.450000,1.270000,0.848314,0.020000,-133.917061,1818.950000,-533.653013,532.996868,-429.716873,-0.000000,0.000000,-0.000000,684.572160,-685.228305,-1.937716,0.000000,-0.000000,-0.000000
-0.470000,1.270000,0.854790,0.020000,-127.620794,1910.950000,-522.166356,522.429781,-442.028755,-0.000000,0.000000,-0.000000,684.357276,-684.093851,-4.479991,0.000000,-0.000000,-0.000000
0.450000,1.250000,0.828951,0.020000,-151.472635,1793.750000,-540.330206,539.785683,451.998268,-0.000000,0.000000,0.000000,703.963918,-704.508440,-4.052384,0.000000,-0.000000,-0.000000
0.470000,1.250000,0.836022,0.020000,-144.997682,1885.750000,-526.588258,529.669788,465.589247,-0.000000,0.000000,0.000000,705.592163,-702.510633,-2.289409,0.000000,-0.000000,-0.000000
0.470000,1.270000,0.854681,0.020000,-127.599735,1910.950000,-521.850240,522.115321,442.200563,-0.000000,0.000000,0.000000,684.230622,-683.965541,4.144324,0.000000,-0.000000,0.000000
0.450000,1.270000,0.847766,0.020000,-133.895793,1818.950000,-533.339011,532.685250,429.907244,-0.000000,0.000000,0.000000,684.450187,-685.103948,1.592866,0.000000,-0.000000,0.000000
0.490000,1.250000,0.843508,0.020000,-138.312112,1981.750000,-504.850810,503.669425,470.644725,-0.000000,0.000000,0.000000,689.175960,-690.357345,-2.586231,0.000000,-0.000000,-0.000000
0.510000,1.250000,0.850793,0.020000,-131.423339,2081.750000,-489.637411,491.364699,482.022769,-0.000000,0.000000,0.000000,688.566708,-686.839420,-1.315488,0.000000,-0.000000,-0.000000
0.510000,1.270000,0.869472,0.020000,-114.394624,2106.950000,-484.944322,482.706769,461.168919,-0.000000,0.000000,0.000000,667.283474,-669.521027,1.536731,0.000000,-0.000000,0.000000
0.490000,1.270000,0.862005,0.020000,-121.096994,2006.950000,-498.297461,497.349781,451.053502,-0.000000,0.000000,0.000000,671.298127,-672.245807,0.207788,0.000000,-0.000000,0.000000
0.530000,1.250000,0.858222,0.020000,-124.338805,2185.750000,-467.871740,467.123414,487.309614,-0.000000,0.000000,0.000000,674.916134,-675.664460,-2.767555,0.000000,-0.000000,-0.000000
0.550000,1.250000,0.866049,0.020000,-117.065961,2293.750000,-453.025433,452.516235,493.655233,-0.000000,0.000000,0.000000,669.593764,-670.102961,0.297214,0.000000,-0.000000,0.000000
0.550000,1.270000,0.884406,0.020000,-100.419360,2318.950000,-449.074294,447.323904,475.516470,-0.000000,0.000000,0.000000,652.574010,-654.324400,1.575315,0.000000,-0.000000,0.000000
0.530000,1.270000,0.876743,0.020000,-107.499711,2210.950000,-462.398486,462.820884,468.084307,-0.000000,0.000000,0.000000,658.322507,-657.900109,-0.381845,0.000000,-0.000000,-0.000000
0.570000,1.250000,0.874264,0.020000,-109.612244,2405.750000,-432.262101,431.248958,500.688385,-0.000000,0.000000,0.000000,660.625988,-661.639131,-2.331417,0.000000,-0.000000,-0.000000
0.590000,1.250000,0.882855,0.020000,-101.985064,2521.750000,-414.805697,415.031113,504.342595,-0.000000,0.000000,0.000000,653.196681,-652.971265,-0.245472,0.000000,-0.000000,-0.000000
0.590000,1.270000,0.900869,0.020000,-85.730717,2546.950000,-410.336306,410.739710,486.256962,-0.000000,0.000000,0.000000,636.587809,-636.184405,0.109359,0.000000,-0.000000,0.000000
0.570000,1.270000,0.892451,0.020000,-93.160669,2430.950000,-428.120546,428.090130,481.606103,-0.000000,0.000000,0.000000,644.359336,-644.389752,-0.256865,0.000000,-0.000000,-0.000000
0.610000,1.250000,0.891812,0.020000,-94.191780,2641.750000,-396.896742,396.941036,508.818070,-0.000000,0.000000,0.000000,645.344075,-645.299781,-0.204551,0.000000,-0.000000,-0.000000
0.630000,1.250000,0.900536,0.020000,-86.239691,2765.750000,-378.854946,378.904162,512.275302,-0.000000,0.000000,0.000000,637.186805,-637.137589,-0.190259,0.000000,-0.000000,-0.000000
0.630000,1.270000,0.918586,0.020000,-70.385144,2790.950000,-375.755795,375.745515,494.704945,-0.000000,0.000000,0.000000,621.220678,-621.230959,-0.141813,0.000000,-0.000000,-0.000000
0.610000,1.270000,0.909649,0.020000,-78.136546,2666.950000,-393.068174,393.058518,491.050523,-0.000000,0.000000,0.000000,628.985943,-628.995599,-0.142640,0.000000,-0.000000,-0.000000
0.650000,1.250000,0.909415,0.020000,-78.136019,2893.750000,-361.106974,361.105109,514.986218,-0.000000,0.000000,0.000000,628.973119,-628.974984,-0.144570,0.000000,-0.000000,-0.000000
0.670000,1.250000,0.918644,0.020000,-69.887891,3025.750000,-343.555282,343.536407,516.992151,-0.000000,0.000000,0.000000,620.719659,-620.738534,-0.140783,0.000000,-0.000000,-0.000000
0.670000,1.270000,0.936344,0.020000,-54.438259,3050.950000,-341.715408,341.754126,499.867648,-0.000000,0.000000,0.000000,605.535914,-605.497196,-0.136636,0.000000,-0.000000,-0.000000
0.650000,1.270000,0.927292,0.020000,-62.483433,2918.950000,-358.663348,358.641919,497.648355,-0.000000,0.000000,0.000000,613.410494,-613.431924,-0.130247,0.000000,-0.000000,-0.000000
0.690000,1.250000,0.928211,0.020000,-61.502335,3161.750000,-326.289028,326.277392,518.298186,-0.000000,0.000000,0.000000,612.443142,-612.454778,-0.118027,0.000000,-0.000000,-0.000000
0.710000,1.250000,0.938108,0.020000,-52.986259,3301.750000,-309.228506,309.227875,518.955623,-0.000000,0.000000,0.000000,604.099823,-604.100454,-0.185131,0.000000,-0.000000,-0.000000
0.710000,1.270000,0.955448,0.020000,-37.944430,3326.950000,-310.870221,308.485203,504.583339,-0.000000,0.000000,0.000000,590.841615,-593.226633,-0.476722,0.000000,-0.000000,-0.000000
0.690000,1.270000,0.945733,0.020000,-46.256370,3186.950000,-325.428296,325.059854,501.687881,-0.000000,0.000000,0.000000,597.707424,-598.075866,-0.141703,0.000000,-0.000000,-0.000000
0.730000,1.250000,0.948323,0.020000,-44.346458,3445.750000,-293.193644,292.671419,519.447472,-0.000000,0.000000,0.000000,596.090406,-596.612631,-0.105587,0.000000,-0.000000,-0.000000
0.750000,1.250000,0.958631,0.020000,-35.589564,3593.750000,-279.197471,275.241859,521.540338,-0.000000,0.000000,0.000000,588.661158,-592.616770,-0.825161,0.000000,-0.000000,-0.000000
0.750000,1.270000,0.975818,0.020000,-20.956771,3618.950000,-290.694105,273.925348,511.020874,-0.000000,0.000000,0.000000,575.431426,-592.200184,0.470581,0.000000,-0.000000,0.000000
0.730000,1.270000,0.965480,0.020000,-29.508874,3470.950000,-300.313826,293.346793,506.830261,-0.000000,0.000000,0.000000,583.869174,-590.836207,1.400913,0.000000,-0.000000,0.000000
0.770000,1.250000,0.968751,0.020000,-26.722113,3745.750000,-267.759747,259.855028,523.248854,-0.000000,0.000000,0.000000,582.037103,-589.941821,0.226006,0.000000,-0.000000,0.000000
0.790000,1.250000,0.979175,0.020000,-17.750846,3901.750000,-258.616183,246.583274,525.011183,-0.000000,0.000000,0.000000,576.594298,-588.627207,2.841842,0.000000,-0.000000,0.000000
0.790000,1.270000,0.996208,0.020000,-3.534402,3926.950000,-277.149722,249.027049,524.845359,-0.000000,0.000000,0.000000,573.018007,-601.140681,3.999134,0.000000,-0.000000,0.000000
0.770000,1.270000,0.985964,0.020000,-12.290870,3770.950000,-285.697404,250.726371,517.081193,-0.000000,0.000000,0.000000,565.016761,-599.987794,-1.293865,0.000000,-0.000000,-0.000000
0.810000,1.250000,0.989893,0.020000,-8.677385,4061.750000,-251.102550,227.378306,520.269465,-0.000000,0.000000,0.000000,560.748168,-584.472413,5.809801,0.000000,-0.000000,0.000000
-0.750000,1.290000,0.992614,0.020000,-6.436258,3644.550000,-312.115932,270.657517,-501.482696,-0.000000,0.000000,-0.000000,559.240537,-600.698952,-5.119902,0.000000,-0.000000,-0.000000
-0.730000,1.290000,0.982804,0.020000,-14.791229,3496.550000,-319.312161,289.828579,-500.748210,-0.000000,0.000000,-0.000000,571.347959,-600.831542,-3.268757,0.000000,-0.000000,-0.000000
-0.730000,1.310000,1.000365,0.020000,-0.202326,3522.550000,-351.003942,287.881157,-503.114257,-0.000000,0.000000,-0.000000,564.357128,-627.479914,-6.972446,0.000000,-0.000000,-0.000000
-0.710000,1.290000,0.973306,0.020000,-23.031585,3352.550000,-323.031774,307.273405,-493.749744,-0.000000,0.000000,-0.000000,577.872953,-593.631322,-2.097044,0.000000,-0.000000,-0.000000
-0.690000,1.290000,0.963772,0.020000,-31.147367,3212.550000,-332.721340,323.674767,-490.321381,-0.000000,0.000000,-0.000000,585.500735,-594.547307,-0.820659,0.000000,-0.000000,-0.000000
-0.690000,1.310000,0.981288,0.020000,-16.157841,3238.550000,-351.619435,316.614569,-487.139568,-0.000000,0.000000,-0.000000,573.208266,-608.213132,0.016581,0.000000,-0.000000,0.000000
-0.710000,1.310000,0.991010,0.020000,-8.230104,3378.550000,-358.608455,288.883702,-491.735337,-0.000000,0.000000,-0.000000,553.871216,-623.595969,-2.814713,0.000000,-0.000000,-0.000000
-0.670000,1.290000,0.954191,0.020000,-39.133898,3076.550000,-342.655132,340.085639,-485.743445,-0.000000,0.000000,-0.000000,592.415874,-594.985367,0.086411,0.000000,-0.000000,0.000000
-0.650000,1.290000,0.944936,0.020000,-46.984331,2944.550000,-356.341138,355.944789,-481.218289,-0.000000,0.000000,-0.000000,598.474391,-598.870740,0.109690,0.000000,-0.000000,0.000000
-0.650000,1.310000,0.962795,0.020000,-31.614184,2970.550000,-358.097082,351.354579,-469.623155,-0.000000,0.000000,-0.000000,585.164036,-591.906540,1.592829,0.000000,-0.000000,0.000000
-0.670000,1.310000,0.971879,0.020000,-23.953452,3102.550000,-351.189617,335.439164,-477.095449,-0.000000,0.000000,-0.000000,579.903687,-595.654140,0.887423,0.000000,-0.000000,0.000000
-0.630000,1.290000,0.936017,0.020000,-54.692286,2816.550000,-372.645173,372.691367,-477.754069,-0.000000,0.000000,-0.000000,605.936098,-605.889904,-0.157714,0.000000,-0.000000,-0.000000
-0.610000,1.290000,0.927444,0.020000,-62.251166,2692.550000,-389.273467,389.249802,-473.950204,-0.000000,0.000000,-0.000000,613.301626,-613.325290,-0.135692,0.000000,-0.000000,-0.000000
-0.610000,1.310000,0.945633,0.020000,-46.505413,2718.550000,-384.784788,384.793769,-457.607172,-0.000000,0.000000,-0.000000,597.890025,-597.881044,0.025771,0.000000,-0.000000,0.000000
-0.630000,1.310000,0.954043,0.020000,-39.133636,2842.550000,-369.972809,369.199519,-462.467524,-0.000000,0.000000,-0.000000,591.618543,-592.391833,0.022828,0.000000,-0.000000,0.000000
-0.590000,1.290000,0.919226,0.020000,-69.654338,2572.550000,-405.999412,405.996994,-469.396616,-0.000000,0.000000,-0.000000,620.617598,-620.620016,-0.141397,0.000000,-0.000000,-0.000000
-0.570000,1.290000,0.911281,0.020000,-76.895108,2456.550000,-422.831389,422.839783,-464.112183,-0.000000,0.000000,-0.000000,627.849744,-627.841350,-0.142272,0.000000,-0.000000,-0.000000
-0.570000,1.310000,0.929440,0.020000,-60.780557,2482.550000,-417.161872,417.146292,-447.608234,-0.000000,0.000000,-0.000000,611.850561,-611.866142,-0.130000,0.000000,-0.000000,-0.000000
-0.590000,1.310000,0.937574,0.020000,-53.723197,2598.550000,-401.064780,401.095002,-452.944984,-0.000000,0.000000,-0.000000,605.014456,-604.984234,-0.174672,0.000000,-0.000000,-0.000000
-0.550000,1.290000,0.902997,0.020000,-83.966736,2344.550000,-439.577225,439.698711,-458.079250,-0.000000,0.000000,-0.000000,634.976594,-634.855108,-0.063852,0.000000,-0.000000,-0.000000
-0.530000,1.290000,0.895084,0.020000,-90.862458,2236.550000,-456.513111,456.643129,-451.268039,-0.000000,0.000000,-0.000000,642.020162,-641.890144,-0.067336,0.000000,-0.000000,-0.000000
-0.530000,1.310000,0.913565,0.020000,-74.388212,2262.550000,-449.518265,449.518368,-434.719957,-0.000000,0.000000,-0.000000,625.338470,-625.338366,-0.145745,0.000000,-0.000000,-0.000000
-0.550000,1.310000,0.921319,0.020000,-67.671052,2370.550000,-433.333257,433.336624,-441.527643,-0.000000,0.000000,-0.000000,618.650056,-618.646690,-0.144741,0.000000,-0.000000,-0.000000
-0.510000,1.290000,0.887551,0.020000,-97.575496,2132.550000,-473.427269,473.574860,-443.669369,-0.000000,0.000000,-0.000000,648.954188,-648.806597,-0.062835,0.000000,-0.000000,-0.000000
-0.490000,1.290000,0.880408,0.020000,-104.099077,2032.550000,-490.283636,490.435853,-435.270848,-0.000000,0.000000,-0.000000,655.753916,-655.601700,-0.045742,0.000000,-0.000000,-0.000000
-0.490000,1.310000,0.899191,0.020000,-87.276652,2058.550000,-481.767976,481.774097,-418.834623,-0.000000,0.000000,-0.000000,638.380496,-638.374374,-0.152210,0.000000,-0.000000,-0.000000
-0.510000,1.310000,0.906186,0.020000,-80.925567,2158.550000,-465.675655,465.679879,-427.159280,-0.000000,0.000000,-0.000000,631.920470,-631.916246,-0.149135,0.000000,-0.000000,-0.000000
-0.470000,1.290000,0.873665,0.020000,-110.426446,1936.550000,-506.775719,507.093896,-425.806096,-0.000000,0.000000,-0.000000,662.196640,-661.878464,-0.098562,0.000000,-0.000000,-0.000000
-0.450000,1.290000,0.867181,0.020000,-116.550892,1844.550000,-521.864971,521.575847,-416.520034,-0.000000,0.000000,-0.000000,667.446947,-667.736070,1.643784,0.000000,-0.000000,0.000000
-0.450000,1.310000,0.885947,0.020000,-99.394315,1870.550000,-513.499858,513.449683,-400.014423,-0.000000,0.000000,-0.000000,650.872659,-650.922834,0.039131,0.000000,-0.000000,0.000000
-0.470000,1.310000,0.892589,0.020000,-93.435032,1962.550000,-497.650881,497.859231,-409.541547,-0.000000,0.000000,-0.000000,644.684878,-644.476528,-0.304107,0.000000,-0.000000,-0.000000
-0.430000,1.290000,0.860393,0.020000,-122.465760,1756.550000,-540.878202,540.406297,-405.526954,-0.000000,0.000000,-0.000000,675.594019,-676.065925,0.036214,0.000000,-0.000000,0.000000
-0.410000,1.290000,0.854019,0.020000,-128.164472,1672.550000,-553.128195,552.926690,-392.679631,-0.000000,0.000000,-0.000000,678.157935,-678.359440,1.340628,0.000000,-0.000000,0.000000
-0.410000,1.310000,0.873067,0.020000,-110.690349,1698.550000,-544.499738,544.113160,-376.783906,-0.000000,0.000000,-0.000000,661.799947,-662.186525,-0.760270,0.000000,-0.000000,-0.000000
-0.430000,1.310000,0.879303,0.020000,-105.148171,1782.550000,-533.041106,530.634758,-389.809233,-0.000000,0.000000,-0.000000,658.191525,-660.597873,-1.206058,0.000000,-0.000000,-0.000000
-0.390000,1.290000,0.848069,0.020000,-133.640552,1592.550000,-571.714011,573.560611,-384.094113,-0.000000,0.000000,-0.000000,690.441585,-688.594986,2.512188,0.000000,-0.000000,0.000000
-0.370000,1.290000,0.842551,0.020000,-138.887639,1516.550000,-584.403283,583.830182,-366.129151,-0.000000,0.000000,-0.000000,689.091552,-689.664653,0.863191,0.000000,-0.000000,0.000000
-0.370000,1.310000,0.861853,0.020000,-121.115181,1542.550000,-574.861216,573.051462,-350.441228,-0.000000,0.000000,-0.000000,671.577355,-673.387110,-1.606307,0.000000,-0.000000,-0.000000
-0.390000,1.310000,0.867248,0.020000,-116.014697,1618.550000,-563.754895,560.867331,-366.078362,-0.000000,0.000000,-0.000000,669.530124,-672.417689,-1.082826,0.000000,-0.000000,-0.000000
-0.350000,1.290000,0.837475,0.020000,-143.899515,1444.550000,-601.706050,604.131408,-357.858327,-0.000000,0.000000,-0.000000,702.324054,-699.898696,4.051710,0.000000,-0.000000,0.000000
-0.330000,1.290000,0.832338,0.020000,-148.670125,1376.550000,-612.854915,612.710065,-337.634222,-0.000000,0.000000,-0.000000,699.567228,-699.712078,1.898325,0.000000,-0.000000,0.000000
-0.330000,1.310000,0.851633,0.020000,-130.621138,1402.550000,-603.406858,601.962582,-320.989121,-0.000000,0.000000,-0.000000,682.106397,-683.550672,-2.842462,0.000000,-0.000000,-0.000000
-0.350000,1.310000,0.856892,0.020000,-125.985907,1470.550000,-594.364171,593.974340,-338.399120,-0.000000,0.000000,-0.000000,683.575409,-683.965240,-3.035119,0.000000,-0.000000,-0.000000
0.330000,1.290000,0.831962,0.020000,-148.652596,1376.550000,-612.599489,612.453561,337.913242,-0.000000,0.000000,0.000000,699.476154,-699.622082,-2.265984,0.000000,-0.000000,-0.000000
0.350000,1.290000,0.837049,0.020000,-143.881592,1444.550000,-601.444712,603.871608,358.117071,-0.000000,0.000000,0.000000,702.230763,-699.803867,-4.406671,0.000000,-0.000000,-0.000000
0.350000,1.310000,0.856348,0.020000,-125.970447,1470.550000,-594.110732,593.722733,338.649177,-0.000000,0.000000,0.000000,683.482167,-683.870166,2.692437,0.000000,-0.000000,0.000000
0.330000,1.310000,0.851375,0.020000,-130.605966,1402.550000,-603.159147,601.717185,321.255009,-0.000000,0.000000,0.000000,682.016390,-683.458351,2.491501,0.000000,-0.000000,0.000000
0.370000,1.290000,0.842581,0.020000,-138.869427,1516.550000,-584.131640,583.556934,366.378219,-0.000000,0.000000,0.000000,688.991738,-689.566445,-1.218801,0.000000,-0.000000,-0.000000
0.390000,1.290000,0.848549,0.020000,-133.622161,1592.550000,-571.436812,573.282887,384.323229,-0.000000,0.000000,0.000000,690.337269,-688.491193,-2.856647,0.000000,-0.000000,-0.000000
0.390000,1.310000,0.867591,0.020000,-115.998963,1618.550000,-563.487488,560.602010,366.301637,-0.000000,0.000000,0.000000,669.430295,-672.315772,0.750221,0.000000,-0.000000,0.000000
0.370000,1.310000,0.861756,0.020000,-121.099532,1542.550000,-574.598768,572.791566,350.681284,-0.000000,0.000000,0.000000,671.481636,-673.288838,1.265090,0.000000,-0.000000,0.000000
0.410000,1.290000,0.854346,0.020000,-128.146015,1672.550000,-552.844275,552.641293,392.898793,-0.000000,0.000000,0.000000,678.051302,-678.254285,-1.683919,0.000000,-0.000000,-0.000000
0.430000,1.290000,0.860279,0.020000,-122.447350,1756.550000,-540.588490,540.116532,405.726915,-0.000000,0.000000,0.000000,675.482179,-675.954136,-0.370025,0.000000,-0.000000,-0.000000
0.430000,1.310000,0.879333,0.020000,-105.132589,1782.550000,-532.762885,530.358594,390.004264,-0.000000,0.000000,0.000000,658.084865,-660.489157,0.884693,0.000000,-0.000000,0.000000
0.410000,1.310000,0.873530,0.020000,-110.674637,1698.550000,-544.225387,543.841066,376.995658,-0.000000,0.000000,0.000000,661.697326,-662.081647,0.430535,0.000000,-0.000000,0.000000
0.450000,1.290000,0.866633,0.020000,-116.532646,1844.550000,-521.572523,521.281444,416.707951,-0.000000,0.000000,0.000000,667.333090,-667.624169,-1.973435,0.000000,-0.000000,-0.000000
0.470000,1.290000,0.873399,0.020000,-110.408482,1936.550000,-506.478430,506.796317,425.977560,-0.000000,0.000000,0.000000,662.079074,-661.761187,-0.224051,0.000000,-0.000000,-0.000000
0.470000,1.310000,0.892173,0.020000,-93.420042,1962.550000,-497.367347,497.576208,409.709804,-0.000000,0.000000,0.000000,644.573432,-644.364570,-0.005861,0.000000,-0.000000,-0.000000
0.450000,1.310000,0.885551,0.020000,-99.378973,1870.550000,-513.219892,513.169775,400.197075,-0.000000,0.000000,0.000000,650.764085,-650.814202,-0.355251,0.000000,-0.000000,-0.000000
0.490000,1.290000,0.880567,0.020000,-104.081513,2032.550000,-489.984276,490.136179,435.427596,-0.000000,0.000000,0.000000,655.633840,-655.481937,-0.270327,0.000000,-0.000000,-0.000000
0.510000,1.290000,0.888128,0.020000,-97.558453,2132.550000,-473.126563,473.273839,443.811628,-0.000000,0.000000,0.000000,648.831782,-648.684507,-0.246700,0.000000,-0.000000,-0.000000
0.510000,1.310000,0.906597,0.020000,-80.911623,2158.550000,-465.388524,465.392705,427.300484,-0.000000,0.000000,0.000000,631.804359,-631.800177,-0.149057,0.000000,-0.000000,-0.000000
0.490000,1.310000,0.899192,0.020000,-87.262128,2058.550000,-481.482393,481.488471,418.989537,-0.000000,0.000000,0.000000,638.266644,-638.260567,-0.152111,0.000000,-0.000000,-0.000000
0.530000,1.290000,0.895327,0.020000,-90.846055,2236.550000,-456.211850,456.341561,451.396058,-0.000000,0.000000,0.000000,641.895657,-641.765946,-0.235609,0.000000,-0.000000,-0.000000
0.550000,1.290000,0.902832,0.020000,-83.951095,2344.550000,-439.276153,439.397347,458.193330,-0.000000,0.000000,0.000000,634.850210,-634.729016,-0.232477,0.000000,-0.000000,-0.000000
0.550000,1.310000,0.921325,0.020000,-67.658613,2370.550000,-433.045232,433.048557,441.642126,-0.000000,0.000000,0.000000,618.530046,-618.526721,-0.141055,0.000000,-0.000000,-0.000000
0.530000,1.310000,0.913971,0.020000,-74.374963,2262.550000,-449.230329,449.230392,434.847671,-0.000000,0.000000,0.000000,625.220307,-625.220243,-0.146268,0.000000,-0.000000,-0.000000
0.570000,1.290000,0.910715,0.020000,-76.880348,2456.550000,-422.530857,422.539206,464.212659,-0.000000,0.000000,0.000000,627.721645,-627.713297,-0.147599,0.000000,-0.000000,-0.000000
0.590000,1.290000,0.918966,0.020000,-69.640581,2572.550000,-405.700456,405.698002,469.483855,-0.000000,0.000000,0.000000,620.488043,-620.490497,-0.141828,0.000000,-0.000000,-0.000000
0.590000,1.310000,0.937140,0.020000,-53.712723,2598.550000,-400.778573,400.808728,453.033943,-0.000000,0.000000,0.000000,604.891341,-604.861186,-0.098638,0.000000,-0.000000,-0.000000
0.570000,1.310000,0.929051,0.020000,-60.769043,2482.550000,-416.874416,416.858809,447.709782,-0.000000,0.000000,0.000000,611.728903,-611.744511,-0.149559,0.000000,-0.000000,-0.000000
0.610000,1.290000,0.927574,0.020000,-62.238531,2692.550000,-388.976709,388.953014,474.024615,-0.000000,0.000000,0.000000,613.170816,-613.194511,-0.140901,0.000000,-0.000000,-0.000000
0.630000,1.290000,0.936531,0.020000,-54.680891,2816.550000,-372.351235,372.397381,477.816088,-0.000000,0.000000,0.000000,605.804244,-605.758098,-0.112249,0.000000,-0.000000,-0.000000
0.630000,1.310000,0.954370,0.020000,-39.125585,2842.550000,-369.689682,368.917163,462.531830,-0.000000,0.000000,0.000000,591.492639,-592.265158,-0.283843,0.000000,-0.000000,-0.000000
0.610000,1.310000,0.945583,0.020000,-46.496094,2718.550000,-384.500285,384.509403,457.683786,-0.000000,0.000000,0.000000,597.765663,-597.756545,-0.292772,0.000000,-0.000000,-0.000000
0.650000,1.290000,0.945254,0.020000,-46.974295,2944.550000,-356.050326,355.654137,481.268233,-0.000000,0.000000,0.000000,598.341615,-598.737804,-0.373069,0.000000,-0.000000,-0.000000
0.670000,1.290000,0.954136,0.020000,-39.125336,3076.550000,-342.367297,339.798640,485.781503,-0.000000,0.000000,0.000000,592.282130,-594.850788,-0.343428,0.000000,-0.000000,-0.000000
0.670000,1.310000,0.972013,0.020000,-23.948275,3102.550000,-350.905935,335.161608,477.136284,-0.000000,0.000000,0.000000,579.775610,-595.519936,-1.138853,0.000000,-0.000000,-0.000000
0.650000,1.310000,0.963296,0.020000,-31.607514,2970.550000,-357.814512,351.075266,469.674995,-0.000000,0.000000,0.000000,585.037010,-591.776255,-1.847904,0.000000,-0.000000,-0.000000
0.690000,1.290000,0.963351,0.020000,-31.140394,3212.550000,-332.435695,323.390882,490.348433,-0.000000,0.000000,0.000000,585.366047,-594.410860,0.568778,0.000000,-0.000000,0.000000
0.710000,1.290000,0.972890,0.020000,-23.026314,3352.550000,-322.749697,306.992496,493.768538,-0.000000,0.000000,0.000000,577.738815,-593.496016,1.849170,0.000000,-0.000000,0.000000
0.710000,1.310000,0.990429,0.020000,-8.228241,3378.550000,-358.326654,288.606917,491.759035,-0.000000,0.000000,0.000000,553.741114,-623.460851,2.567770,0.000000,-0.000000,0.000000
0.690000,1.310000,0.981060,0.020000,-16.154268,3238.550000,-351.333985,316.339317,487.169981,-0.000000,0.000000,0.000000,573.079867,-608.074535,-0.264975,0.000000,-0.000000,-0.000000
0.730000,1.290000,0.982744,0.020000,-14.787772,3496.550000,-319.036279,289.552222,500.757603,-0.000000,0.000000,0.000000,571.213604,-600.697662,3.027215,0.000000,-0.000000,0.000000
0.750000,1.290000,0.992903,0.020000,-6.434720,3644.550000,-311.842751,270.384940,501.476278,-0.000000,0.000000,0.000000,559.100256,-600.558067,4.885935,0.000000,-0.000000,0.000000
0.730000,1.310000,1.000110,0.020000,-0.202287,3522.550000,-350.734594,287.608357,503.136442,-0.000000,0.000000,0.000000,564.231656,-627.357894,6.730247,0.000000,-0.000000,0.000000
-0.690000,1.330000,0.998897,0.020000,-1.318659,3264.950000,-384.204414,311.558250,-497.072996,-0.000000,0.000000,-0.000000,570.389061,-643.035225,1.832772,0.000000,-0.000000,0.000000
-0.670000,1.330000,0.989656,0.020000,-8.904197,3128.950000,-376.539725,313.075697,-475.479669,-0.000000,0.000000,-0.000000,555.582462,-619.046490,5.914357,0.000000,-0.000000,0.000000
-0.650000,1.330000,0.980736,0.020000,-16.386289,2996.950000,-363.311489,344.546522,-462.405380,-0.000000,0.000000,-0.000000,572.906882,-591.671849,4.855049,0.000000,-0.000000,0.000000
-0.650000,1.350000,0.998755,0.020000,-1.305017,3023.750000,-376.837460,337.558299,-461.242214,-0.000000,0.000000,-0.000000,563.682076,-602.961236,8.399475,0.000000,-0.000000,0.000000
-0.630000,1.330000,0.972146,0.020000,-23.722416,2868.950000,-371.198780,364.623644,-451.310473,-0.000000,0.000000,-0.000000,578.982389,-585.557526,1.224656,0.000000,-0.000000,0.000000
-0.610000,1.330000,0.963894,0.020000,-30.913701,2744.950000,-381.238683,379.395970,-444.164443,-0.000000,0.000000,-0.000000,583.818703,-585.661416,1.544138,0.000000,-0.000000,0.000000
-0.610000,1.350000,0.982222,0.020000,-15.475280,2771.750000,-372.731478,375.974250,-432.226663,-0.000000,0.000000,-0.000000,573.406088,-570.163317,4.712652,0.000000,-0.000000,0.000000
-0.630000,1.350000,0.990321,0.020000,-8.454172,2895.750000,-377.547982,352.464646,-444.019770,-0.000000,0.000000,-0.000000,562.222066,-587.305401,5.460415,0.000000,-0.000000,0.000000
-0.590000,1.330000,0.955987,0.020000,-37.952461,2624.950000,-395.360511,396.101945,-436.728274,-0.000000,0.000000,-0.000000,589.721819,-588.980384,-0.263136,0.000000,-0.000000,-0.000000
-0.570000,1.330000,0.947672,0.020000,-44.832872,2508.950000,-411.415688,411.473233,-431.614050,-0.000000,0.000000,-0.000000,596.331678,-596.274134,-0.277678,0.000000,-0.000000,-0.000000
-0.570000,1.350000,0.965975,0.020000,-29.049845,2535.750000,-411.935830,407.701136,-417.847913,-0.000000,0.000000,-0.000000,583.154190,-587.388884,-2.301207,0.000000,-0.000000,-0.000000
-0.590000,1.350000,0.974134,0.020000,-22.339817,2651.750000,-392.140523,392.415698,-422.461388,-0.000000,0.000000,-0.000000,576.639863,-576.364688,-0.931521,0.000000,-0.000000,-0.000000
-0.550000,1.330000,0.939710,0.020000,-51.548701,2396.950000,-426.999019,426.958564,-425.710374,-0.000000,0.000000,-0.000000,602.922699,-602.963153,-0.197103,0.000000,-0.000000,-0.000000
-0.530000,1.330000,0.932108,0.020000,-58.093775,2288.950000,-442.321757,442.331918,-418.909593,-0.000000,0.000000,-0.000000,609.216262,-609.206101,-0.124354,0.000000,-0.000000,-0.000000
-0.530000,1.350000,0.950711,0.020000,-41.976287,2315.750000,-435.979641,435.076284,-404.561951,-0.000000,0.000000,-0.000000,593.984976,-594.888333,0.205472,0.000000,-0.000000,0.000000
-0.550000,1.350000,0.958165,0.020000,-35.597080,2423.750000,-424.515715,421.053857,-412.849770,-0.000000,0.000000,-0.000000,589.193674,-592.655532,-0.142944,0.000000,-0.000000,-0.000000
-0.510000,1.330000,0.924877,0.020000,-64.461910,2184.950000,-457.776883,457.780949,-411.400981,-0.000000,0.000000,-0.000000,615.479312,-615.475246,-0.148387,0.000000,-0.000000,-0.000000
-0.490000,1.330000,0.918024,0.020000,-70.646939,2084.950000,-473.110966,473.117573,-403.169521,-0.000000,0.000000,-0.000000,621.600242,-621.593635,-0.145135,0.000000,-0.000000,-0.000000
-0.490000,1.350000,0.936907,0.020000,-54.206477,2111.750000,-464.503692,464.565470,-388.232840,-0.000000,0.000000,-0.000000,605.437448,-605.375670,-0.116166,0.000000,-0.000000,-0.000000
-0.510000,1.350000,0.943622,0.020000,-48.181363,2211.750000,-450.272430,450.029911,-396.384201,-0.000000,0.000000,-0.000000,599.675741,-599.918260,-0.262886,0.000000,-0.000000,-0.000000
-0.470000,1.330000,0.911559,0.020000,-76.642725,1988.950000,-488.337903,488.347227,-394.204118,-0.000000,0.000000,-0.000000,627.599535,-627.590211,-0.149714,0.000000,-0.000000,-0.000000
-0.450000,1.330000,0.904765,0.020000,-82.443179,1896.950000,-503.383348,503.409090,-384.491000,-0.000000,0.000000,-0.000000,633.448786,-633.423045,-0.151452,0.000000,-0.000000,-0.000000
-0.450000,1.350000,0.923633,0.020000,-65.693413,1923.750000,-493.417847,493.435638,-369.892260,-0.000000,0.000000,-0.000000,616.685645,-616.667854,-0.142238,0.000000,-0.000000,-0.000000
-0.470000,1.350000,0.930390,0.020000,-60.045759,2015.750000,-479.111398,479.102806,-379.414049,-0.000000,0.000000,-0.000000,611.141032,-611.149624,-0.155316,0.000000,-0.000000,-0.000000
-0.430000,1.330000,0.898260,0.020000,-88.042277,1808.950000,-517.955841,518.172785,-374.041969,-0.000000,0.000000,-0.000000,639.090495,-638.873550,-0.040681,0.000000,-0.000000,-0.000000
-0.410000,1.330000,0.892157,0.020000,-93.434075,1724.950000,-532.554918,532.783806,-362.845811,-0.000000,0.000000,-0.000000,644.624901,-644.396014,-0.044208,0.000000,-0.000000,-0.000000
-0.410000,1.350000,0.911286,0.020000,-76.390966,1751.750000,-521.456985,521.474357,-348.744053,-0.000000,0.000000,-0.000000,627.343396,-627.326023,-0.150877,0.000000,-0.000000,-0.000000
-0.430000,1.350000,0.917262,0.020000,-71.143700,1835.750000,-507.569923,507.582006,-359.668758,-0.000000,0.000000,-0.000000,622.095226,-622.083142,-0.150512,0.000000,-0.000000,-0.000000
-0.390000,1.330000,0.886463,0.020000,-98.612728,1644.950000,-546.855097,547.100631,-350.909293,-0.000000,0.000000,-0.000000,649.985917,-649.740383,-0.044087,0.000000,-0.000000,-0.000000
-0.370000,1.330000,0.881186,0.020000,-103.572509,1568.950000,-560.811709,561.059353,-338.243331,-0.000000,0.000000,-0.000000,655.148417,-654.900773,-0.031291,0.000000,-0.000000,-0.000000
-0.370000,1.350000,0.900548,0.020000,-86.254326,1595.750000,-548.332456,548.354140,-324.803522,-0.000000,0.000000,-0.000000,637.331543,-637.309859,-0.156241,0.000000,-0.000000,-0.000000
-0.390000,1.350000,0.905712,0.020000,-81.429655,1671.750000,-535.062024,535.080787,-337.120311,-0.000000,0.000000,-0.000000,632.426561,-632.407799,-0.154169,0.000000,-0.000000,-0.000000
-0.350000,1.330000,0.876262,0.020000,-108.307824,1496.950000,-574.192908,574.571238,-324.630838,-0.000000,0.000000,-0.000000,659.961796,-659.583466,-0.146715,0.000000,-0.000000,-0.000000
-0.330000,1.330000,0.870959,0.020000,-112.813238,1428.950000,-585.364301,585.832240,-310.583654,-0.000000,0.000000,-0.000000,663.096607,-662.628667,0.815158,0.000000,-0.000000,0.000000
-0.330000,1.350000,0.890316,0.020000,-95.240537,1455.750000,-573.580250,573.515822,-298.323181,-0.000000,0.000000,-0.000000,646.461453,-646.525882,0.090765,0.000000,-0.000000,0.000000
-0.350000,1.350000,0.895503,0.020000,-90.859673,1523.750000,-561.245983,561.235721,-311.835435,-0.000000,0.000000,-0.000000,642.048306,-642.058567,-0.129751,0.000000,-0.000000,-0.000000
-0.310000,1.330000,0.866087,0.020000,-117.083484,1364.950000,-600.687100,600.298999,-296.739230,-0.000000,0.000000,-0.000000,669.616106,-670.004207,0.653520,0.000000,-0.000000,0.000000
-0.290000,1.330000,0.861651,0.020000,-121.113489,1304.950000,-609.122382,609.477811,-278.756290,-0.000000,0.000000,-0.000000,670.216250,-669.860820,-0.197246,0.000000,-0.000000,-0.000000
-0.290000,1.350000,0.881212,0.020000,-103.309043,1331.750000,-598.244794,597.097727,-267.744120,-0.000000,0.000000,-0.000000,654.328054,-655.475120,-1.327084,0.000000,-0.000000,-0.000000
-0.310000,1.350000,0.885550,0.020000,-99.391929,1391.750000,-589.765886,586.951100,-285.010123,-0.000000,0.000000,-0.000000,652.348249,-655.163036,-0.216086,0.000000,-0.000000,-0.000000
-0.270000,1.330000,0.857659,0.020000,-124.898391,1248.950000,-622.676904,624.446173,-267.809033,-0.000000,0.000000,-0.000000,679.514679,-677.745411,3.454350,0.000000,-0.000000,0.000000
-0.250000,1.330000,0.854116,0.020000,-128.433552,1196.950000,-631.767214,632.048929,-245.339435,-0.000000,0.000000,-0.000000,678.004054,-677.722339,-0.858172,0.000000,-0.000000,-0.000000
-0.250000,1.350000,0.873846,0.020000,-110.422242,1223.750000,-620.229141,617.963615,-234.958977,-0.000000,0.000000,-0.000000,661.045982,-663.311508,-2.314194,0.000000,-0.000000,-0.000000
-0.270000,1.350000,0.877309,0.020000,-106.987276,1275.750000,-612.337337,609.109481,-254.387770,-0.000000,0.000000,-0.000000,659.972207,-663.200063,-0.074139,0.000000,-0.000000,-0.000000
-0.230000,1.330000,0.850543,0.020000,-131.714585,1148.950000,-643.668174,645.422062,-233.713389,-0.000000,0.000000,-0.000000,686.476501,-684.722613,3.688370,0.000000,-0.000000,0.000000
-0.210000,1.330000,0.846993,0.020000,-134.737363,1104.950000,-651.631236,652.083445,-209.661825,-0.000000,0.000000,-0.000000,684.969974,-684.517766,-1.380472,0.000000,-0.000000,-0.000000
-0.210000,1.350000,0.866721,0.020000,-116.546027,1131.750000,-639.420230,636.905474,-200.890310,-0.000000,0.000000,-0.000000,667.773813,-670.288570,-2.450986,0.000000,-0.000000,-0.000000
-0.230000,1.350000,0.870191,0.020000,-113.609792,1175.750000,-632.511937,629.155093,-221.640128,-0.000000,0.000000,-0.000000,666.958406,-670.315250,0.248885,0.000000,-0.000000,0.000000
-0.190000,1.330000,0.843901,0.020000,-137.498040,1064.950000,-661.873587,663.593621,-197.303689,-0.000000,0.000000,-0.000000,692.329310,-690.609276,3.846133,0.000000,-0.000000,0.000000
-0.170000,1.330000,0.841274,0.020000,-139.993064,1028.950000,-668.580328,669.203999,-171.867039,-0.000000,0.000000,-0.000000,690.928500,-690.304829,-1.904766,0.000000,-0.000000,-0.000000
-0.170000,1.350000,0.861133,0.020000,-121.650299,1055.750000,-655.799760,653.052930,-164.856312,-0.000000,0.000000,-0.000000,673.493248,-676.240078,-2.536140,0.000000,-0.000000,-0.000000
-0.190000,1.350000,0.863700,0.020000,-119.227313,1091.750000,-649.984449,646.528981,-186.760538,-0.000000,0.000000,-0.000000,672.895075,-676.350542,0.577494,0.000000,-0.000000,0.000000
-0.150000,1.330000,0.839115,0.020000,-142.219196,996.950000,-676.993992,678.659692,-158.882964,-0.000000,0.000000,-0.000000,697.020803,-695.355103,3.918889,0.000000,-0.000000,0.000000
-0.130000,1.330000,0.837303,0.020000,-144.173518,968.950000,-682.332730,683.125667,-132.292760,-0.000000,0.000000,-0.000000,695.820588,-695.027651,-2.413955,0.000000,-0.000000,-0.000000
-0.130000,1.350000,0.857162,0.020000,-125.709441,995.750000,-669.100382,666.143493,-127.169702,-0.000000,0.000000,-0.000000,678.142484,-681.099373,-2.564796,0.000000,-0.000000,-0.000000
-0.150000,1.350000,0.859025,0.020000,-123.811925,1023.750000,-664.473224,660.952624,-150.034132,-0.000000,0.000000,-0.000000,677.723216,-681.243816,0.901195,0.000000,-0.000000,0.000000
-0.110000,1.330000,0.835145,0.020000,-145.853450,944.950000,-688.773746,690.364742,-118.804385,-0.000000,0.000000,-0.000000,700.513303,-698.922307,3.900945,0.000000,-0.000000,0.000000
-0.090000,1.330000,0.833462,0.020000,-147.256759,924.950000,-692.653221,693.609995,-91.321589,-0.000000,0.000000,-0.000000,699.594045,-698.637271,-2.890632,0.000000,-0.000000,-0.000000
-0.090000,1.350000,0.853411,0.020000,-128.702734,951.750000,-679.098823,675.958387,-88.183605,-0.000000,0.000000,-0.000000,681.668347,-684.808783,-2.534207,0.000000,-0.000000,-0.000000
-0.110000,1.350000,0.855055,0.020000,-127.340412,971.750000,-675.737517,672.187662,-111.790277,-0.000000,0.000000,-0.000000,681.395020,-684.944874,1.209108,0.000000,-0.000000,0.000000
-0.070000,1.330000,0.832256,0.020000,-148.381569,908.950000,-697.008795,698.505401,-77.463432,-0.000000,0.000000,-0.000000,702.781910,-701.285304,3.790237,0.000000,-0.000000,0.000000
-0.050000,1.330000,0.831530,0.020000,-149.226370,896.950000,-699.361383,700.473379,-49.372411,-0.000000,0.000000,-0.000000,702.204746,-701.092750,-3.318045,0.000000,-0.000000,-0.000000
-0.050000,1.350000,0.851524,0.020000,-130.614702,923.750000,-685.623586,682.330069,-48.283831,-0.000000,0.000000,-0.000000,684.027840,-687.321357,-2.444000,0.000000,-0.000000,-0.000000
-0.070000,1.350000,0.852233,0.020000,-129.794638,935.750000,-683.585668,680.043957,-72.395913,-0.000000,0.000000,-0.000000,683.875106,-687.416818,1.490539,0.000000,-0.000000,0.000000
-0.030000,1.330000,0.831284,0.020000,-149.790025,888.950000,-701.553967,702.937764,-35.288658,-0.000000,0.000000,-0.000000,703.814695,-702.430898,3.588613,0.000000,-0.000000,0.000000
-0.010000,1.330000,0.830733,0.020000,-150.071774,884.950000,-702.338122,703.593721,-6.890054,-0.000000,0.000000,-0.000000,703.617849,-702.362250,-3.681043,0.000000,-0.000000,-0.000000
-0.010000,1.350000,0.850728,0.020000,-131.435376,911.750000,-688.561039,685.148144,-7.879640,-0.000000,0.000000,-0.000000,685.189502,-688.602398,-2.296290,0.000000,-0.000000,-0.000000
-0.030000,1.350000,0.851284,0.020000,-131.161853,915.750000,-687.881843,684.386235,-32.247200,-0.000000,0.000000,-0.000000,685.141407,-688.637016,1.735573,0.000000,-0.000000,0.000000
0.010000,1.330000,0.830494,0.020000,-150.071237,884.950000,-702.328293,703.582674,7.269120,-0.000000,0.000000,0.000000,703.612503,-702.358122,3.301864,0.000000,-0.000000,0.000000
0.030000,1.330000,0.830736,0.020000,-149.788418,888.950000,-701.530078,702.914955,35.666343,-0.000000,0.000000,0.000000,703.808939,-702.424062,-3.966967,0.000000,-0.000000,-0.000000
0.030000,1.350000,0.850731,0.020000,-131.160467,915.750000,-687.859541,684.363356,32.606606,-0.000000,0.000000,0.000000,685.134516,-688.630702,-2.095627,0.000000,-0.000000,-0.000000
0.010000,1.350000,0.850494,0.020000,-131.434913,911.750000,-688.550917,685.138927,8.240192,-0.000000,0.000000,0.000000,685.185628,-688.597617,1.935634,0.000000,-0.000000,0.000000
0.050000,1.330000,0.831460,0.020000,-149.223703,896.950000,-699.318013,700.428674,49.748745,-0.000000,0.000000,0.000000,702.188422,-701.077760,2.939467,0.000000,-0.000000,0.000000
0.070000,1.330000,0.832663,0.020000,-148.377859,908.950000,-696.951613,698.449144,77.835660,-0.000000,0.000000,0.000000,702.765039,-701.267509,-4.166363,0.000000,-0.000000,-0.000000
0.070000,1.350000,0.852613,0.020000,-129.791442,935.750000,-683.531333,679.989382,72.750417,-0.000000,0.000000,0.000000,683.857489,-687.399440,-1.848775,0.000000,-0.000000,-0.000000
0.050000,1.350000,0.851437,0.020000,-130.612403,923.750000,-685.581218,682.288919,48.641746,-0.000000,0.000000,0.000000,684.013280,-687.305579,2.083976,0.000000,-0.000000,0.000000
0.090000,1.330000,0.833842,0.020000,-147.252029,924.950000,-692.577085,693.532434,91.691150,-0.000000,0.000000,0.000000,699.566972,-698.611623,2.514087,0.000000,-0.000000,0.000000
0.110000,1.330000,0.835050,0.020000,-145.847731,944.950000,-688.684288,690.276037,119.167228,-0.000000,0.000000,0.000000,700.485420,-698.893671,-4.273493,0.000000,-0.000000,-0.000000
0.110000,1.350000,0.854999,0.020000,-127.335495,971.750000,-675.652095,672.102338,112.136254,-0.000000,0.000000,0.000000,681.366831,-684.916588,-1.564341,0.000000,-0.000000,-0.000000
0.090000,1.350000,0.853819,0.020000,-128.698663,951.750000,-679.024952,675.886021,88.535166,-0.000000,0.000000,0.000000,681.643295,-684.782226,2.176050,0.000000,-0.000000,0.000000
0.130000,1.330000,0.836735,0.020000,-144.166846,968.950000,-682.225170,683.016620,132.651692,-0.000000,0.000000,0.000000,695.783094,-694.991644,2.040845,0.000000,-0.000000,0.000000
0.150000,1.330000,0.838893,0.020000,-142.211615,996.950000,-676.873823,678.540097,159.232741,-0.000000,0.000000,0.000000,696.982126,-695.315852,-4.286581,0.000000,-0.000000,-0.000000
0.150000,1.350000,0.858753,0.020000,-123.805425,1023.750000,-664.358184,660.838008,150.368173,-0.000000,0.000000,0.000000,677.684727,-681.204903,-1.252294,0.000000,-0.000000,-0.000000
0.130000,1.350000,0.856645,0.020000,-125.703712,995.750000,-668.996286,666.041156,127.511358,-0.000000,0.000000,0.000000,678.107239,-681.062370,2.209722,0.000000,-0.000000,0.000000
0.170000,1.330000,0.841522,0.020000,-139.984622,1028.950000,-668.443208,669.065358,172.211761,-0.000000,0.000000,0.000000,690.881000,-690.258850,1.536446,0.000000,-0.000000,0.000000
0.190000,1.330000,0.844444,0.020000,-137.488792,1064.950000,-661.724767,663.445192,197.637059,-0.000000,0.000000,0.000000,692.280169,-690.559744,-4.207782,0.000000,-0.000000,-0.000000
0.190000,1.350000,0.864304,0.020000,-119.219415,1091.750000,-649.841728,646.386994,187.079535,-0.000000,0.000000,0.000000,672.846665,-676.301399,-0.923391,0.000000,-0.000000,-0.000000
0.170000,1.350000,0.861321,0.020000,-121.643073,1055.750000,-655.667209,652.922354,165.184765,-0.000000,0.000000,0.000000,673.448210,-676.193064,2.185325,0.000000,-0.000000,0.000000
0.210000,1.330000,0.847071,0.020000,-134.727370,1104.950000,-651.466871,651.917554,209.989123,-0.000000,0.000000,0.000000,684.912960,-684.462277,1.018219,0.000000,-0.000000,0.000000
0.230000,1.330000,0.850160,0.020000,-131.703912,1148.950000,-643.493183,645.247282,234.027421,-0.000000,0.000000,0.000000,686.417336,-684.663238,-4.042895,0.000000,-0.000000,-0.000000
0.230000,1.350000,0.869889,0.020000,-113.600723,1175.750000,-632.343874,628.988049,221.941341,-0.000000,0.000000,0.000000,666.900555,-670.256380,-0.588587,0.000000,-0.000000,-0.000000
0.210000,1.350000,0.866870,0.020000,-116.537512,1131.750000,-639.261421,636.748814,201.202587,-0.000000,0.000000,0.000000,667.719464,-670.232071,2.105551,0.000000,-0.000000,0.000000
0.250000,1.330000,0.853706,0.020000,-128.422271,1196.950000,-631.578293,631.858504,245.646527,-0.000000,0.000000,0.000000,677.938083,-677.657871,0.503168,0.000000,-0.000000,0.000000
0.270000,1.330000,0.857705,0.020000,-124.886577,1248.950000,-622.478556,624.247849,268.101261,-0.000000,0.000000,0.000000,679.446009,-677.676716,-3.800786,0.000000,-0.000000,-0.000000
0.270000,1.350000,0.877264,0.020000,-106.977305,1275.750000,-612.146595,608.920012,254.668875,-0.000000,0.000000,0.000000,659.905479,-663.132062,-0.258460,0.000000,-0.000000,-0.000000
0.250000,1.350000,0.873355,0.020000,-110.412686,1223.750000,-620.046624,617.783378,235.252496,-0.000000,0.000000,0.000000,660.982879,-663.246126,1.975189,0.000000,-0.000000,0.000000
0.290000,1.330000,0.862148,0.020000,-121.101224,1304.950000,-608.911722,609.265592,279.040897,-0.000000,0.000000,0.000000,670.141704,-669.787835,-0.149549,0.000000,-0.000000,-0.000000
0.310000,1.330000,0.866388,0.020000,-117.070851,1364.950000,-600.466909,600.078620,297.007871,-0.000000,0.000000,0.000000,669.537207,-669.925496,-0.991874,0.000000,-0.000000,-0.000000
0.310000,1.350000,0.885950,0.020000,-99.381360,1391.750000,-589.555301,586.741932,285.269110,-0.000000,0.000000,0.000000,652.273091,-655.086460,-0.108517,0.000000,-0.000000,-0.000000
0.290000,1.350000,0.881609,0.020000,-103.298733,1331.750000,-598.041446,596.896582,268.016552,-0.000000,0.000000,0.000000,654.256632,-655.401497,0.995628,0.000000,-0.000000,0.000000
0.330000,1.330000,0.870815,0.020000,-112.800326,1428.950000,-585.135649,585.601466,310.843011,-0.000000,0.000000,0.000000,663.013716,-662.547899,-1.151815,0.000000,-0.000000,-0.000000
0.350000,1.330000,0.875678,0.020000,-108.294726,1496.950000,-573.954729,574.332854,324.875650,-0.000000,0.000000,0.000000,659.874781,-659.496656,-0.183674,0.000000,-0.000000,-0.000000
0.350000,1.350000,0.895037,0.020000,-90.848841,1523.750000,-561.019665,561.010002,312.072127,-0.000000,0.000000,0.000000,641.966057,-641.975719,-0.186940,0.000000,-0.000000,-0.000000
0.330000,1.350000,0.890280,0.020000,-95.229793,1455.750000,-573.362222,573.297839,298.572236,-0.000000,0.000000,0.000000,646.382949,-646.447332,-0.412306,0.000000,-0.000000,-0.000000
0.370000,1.330000,0.880967,0.020000,-103.559318,1568.950000,-560.566452,560.813807,338.475313,-0.000000,0.000000,0.000000,655.057928,-654.810573,-0.294095,0.000000,-0.000000,-0.000000
0.390000,1.330000,0.886676,0.020000,-98.599545,1644.950000,-546.603404,546.848643,351.128210,-0.000000,0.000000,0.000000,649.892031,-649.646792,-0.276165,0.000000,-0.000000,-0.000000
0.390000,1.350000,0.905800,0.020000,-81.418921,1671.750000,-534.822688,534.841406,337.333271,-0.000000,0.000000,0.000000,632.337621,-632.318903,-0.153626,0.000000,-0.000000,-0.000000
0.370000,1.350000,0.900213,0.020000,-86.243497,1595.750000,-548.099403,548.121043,325.028751,-0.000000,0.000000,0.000000,637.245848,-637.224209,-0.156349,0.000000,-0.000000,-0.000000
0.410000,1.330000,0.892749,0.020000,-93.420999,1724.950000,-532.297615,532.526206,363.051540,-0.000000,0.000000,0.000000,644.527819,-644.299228,-0.270767,0.000000,-0.000000,-0.000000
0.430000,1.330000,0.898428,0.020000,-88.029412,1808.950000,-517.693728,517.910386,374.234452,-0.000000,0.000000,0.000000,638.990417,-638.773759,-0.268901,0.000000,-0.000000,-0.000000
0.430000,1.350000,0.917562,0.020000,-71.133447,1835.750000,-507.320313,507.332352,359.856849,-0.000000,0.000000,0.000000,622.000343,-621.988303,-0.147307,0.000000,-0.000000,-0.000000
0.410000,1.350000,0.911793,0.020000,-76.380423,1751.750000,-521.212131,521.229460,348.944615,-0.000000,0.000000,0.000000,627.251392,-627.234063,-0.151990,0.000000,-0.000000,-0.000000
0.450000,1.330000,0.904514,0.020000,-82.430629,1896.950000,-503.116872,503.142565,384.670226,-0.000000,0.000000,0.000000,633.345834,-633.320141,-0.152769,0.000000,-0.000000,-0.000000
0.470000,1.330000,0.910999,0.020000,-76.630597,1988.950000,-488.068204,488.077484,394.370131,-0.000000,0.000000,0.000000,627.493986,-627.484706,-0.148906,0.000000,-0.000000,-0.000000
0.470000,1.350000,0.929874,0.020000,-60.036385,2015.750000,-478.854496,478.845858,379.577183,-0.000000,0.000000,0.000000,611.040943,-611.049580,-0.132104,0.000000,-0.000000,-0.000000
0.450000,1.350000,0.923522,0.020000,-65.683549,1923.750000,-493.164225,493.181976,370.067859,-0.000000,0.000000,0.000000,616.588071,-616.570320,-0.150427,0.000000,-0.000000,-0.000000
0.490000,1.330000,0.917874,0.020000,-70.635341,2084.950000,-472.838804,472.845371,403.322421,-0.000000,0.000000,0.000000,621.492296,-621.485730,-0.147805,0.000000,-0.000000,-0.000000
0.510000,1.330000,0.925130,0.020000,-64.450951,2184.950000,-457.502996,457.507016,411.540912,-0.000000,0.000000,0.000000,615.369164,-615.365143,-0.138806,0.000000,-0.000000,-0.000000
0.510000,1.350000,0.943722,0.020000,-48.173279,2211.750000,-450.011051,449.768464,396.522685,-0.000000,0.000000,0.000000,599.571155,-599.813742,-0.013851,0.000000,-0.000000,-0.000000
0.490000,1.350000,0.936610,0.020000,-54.197696,2111.750000,-464.244234,464.305975,388.383585,-0.000000,0.000000,0.000000,605.335054,-605.273313,-0.165917,0.000000,-0.000000,-0.000000
0.530000,1.330000,0.932671,0.020000,-58.083565,2288.950000,-442.046834,442.056969,419.036738,-0.000000,0.000000,0.000000,609.104113,-609.093978,-0.157037,0.000000,-0.000000,-0.000000
0.550000,1.330000,0.939879,0.020000,-51.539349,2396.950000,-426.723756,426.683226,425.824972,-0.000000,0.000000,0.000000,602.808708,-602.849237,-0.078465,0.000000,-0.000000,-0.000000
0.550000,1.350000,0.958491,0.020000,-35.590705,2423.750000,-424.252956,420.790314,412.964782,-0.000000,0.000000,0.000000,589.085425,-592.548067,-0.123219,0.000000,-0.000000,-0.000000
0.530000,1.350000,0.951202,0.020000,-41.969005,2315.750000,-435.717245,434.813431,404.688913,-0.000000,0.000000,0.000000,593.878643,-594.782457,-0.477194,0.000000,-0.000000,-0.000000
0.570000,1.330000,0.947453,0.020000,-44.824488,2508.950000,-411.140508,411.198227,431.716359,-0.000000,0.000000,0.000000,596.216131,-596.158413,0.007915,0.000000,-0.000000,0.000000
0.590000,1.330000,0.955387,0.020000,-37.945156,2624.950000,-395.085767,395.827473,436.818354,-0.000000,0.000000,0.000000,589.604434,-588.862728,-0.000897,0.000000,-0.000000,-0.000000
0.590000,1.350000,0.973702,0.020000,-22.335571,2651.750000,-391.871387,392.151450,422.551955,-0.000000,0.000000,0.000000,576.527620,-576.247557,0.674278,0.000000,-0.000000,0.000000
0.570000,1.350000,0.965920,0.020000,-29.044482,2535.750000,-411.670068,407.437639,417.949765,-0.000000,0.000000,0.000000,583.043764,-587.276193,2.040520,0.000000,-0.000000,0.000000
0.610000,1.330000,0.963670,0.020000,-30.907584,2744.950000,-380.963645,379.123518,444.241690,-0.000000,0.000000,0.000000,583.699947,-585.540073,-1.801998,0.000000,-0.000000,-0.000000
0.630000,1.330000,0.972294,0.020000,-23.717596,2868.950000,-370.920624,364.351606,451.375804,-0.000000,0.000000,0.000000,578.861729,-585.430748,-1.478900,0.000000,-0.000000,-0.000000
0.630000,1.350000,0.990297,0.020000,-8.452476,2895.750000,-377.264191,352.209351,444.084259,-0.000000,0.000000,0.000000,562.112602,-587.167443,-5.708422,0.000000,-0.000000,-0.000000
0.610000,1.350000,0.981831,0.020000,-15.472256,2771.750000,-372.460139,375.711642,432.304396,-0.000000,0.000000,0.000000,573.292350,-570.040846,-4.964383,0.000000,-0.000000,-0.000000
0.650000,1.330000,0.981250,0.020000,-16.382874,2996.950000,-363.029037,344.277657,462.458436,-0.000000,0.000000,0.000000,572.786171,-591.537551,-5.105139,0.000000,-0.000000,-0.000000
0.670000,1.330000,0.989971,0.020000,-8.902296,3128.950000,-376.249908,312.812027,475.520963,-0.000000,0.000000,0.000000,555.464005,-618.901887,-6.161322,0.000000,-0.000000,-0.000000
0.650000,1.350000,0.999092,0.020000,-1.304741,3023.750000,-376.545106,337.295925,461.292156,-0.000000,0.000000,0.000000,563.563140,-602.812322,-8.647445,0.000000,-0.000000,-0.000000
0.690000,1.330000,0.998856,0.020000,-1.318368,3264.950000,-383.912059,311.286671,497.104298,-0.000000,0.000000,0.000000,570.262668,-642.888056,-2.081319,0.000000,-0.000000,-0.000000
-0.610000,1.370000,1.000615,0.020000,-0.179254,2798.950000,-363.448099,371.541980,-418.383226,-0.000000,0.000000,-0.000000,560.868754,-552.774873,6.826087,0.000000,-0.000000,0.000000
-0.590000,1.370000,0.992352,0.020000,-6.882892,2678.950000,-397.500946,391.751733,-409.630999,-0.000000,0.000000,-0.000000,565.895830,-571.645043,-5.262503,0.000000,-0.000000,-0.000000
-0.570000,1.370000,0.984344,0.020000,-13.429510,2562.950000,-419.585542,403.529157,-409.586328,-0.000000,0.000000,-0.000000,572.600808,-588.657193,-3.221131,0.000000,-0.000000,-0.000000
-0.550000,1.370000,0.976680,0.020000,-19.813412,2450.950000,-428.609593,413.908711,-402.470612,-0.000000,0.000000,-0.000000,575.265701,-589.966584,-0.545017,0.000000,-0.000000,-0.000000
-0.530000,1.370000,0.969369,0.020000,-26.032980,2342.950000,-441.241637,430.048869,-391.470410,-0.000000,0.000000,-0.000000,580.084937,-591.277705,-3.641330,0.000000,-0.000000,-0.000000
-0.530000,1.390000,0.988079,0.020000,-10.259352,2370.550000,-469.633108,418.055704,-385.992447,-0.000000,0.000000,-0.000000,562.370880,-613.948284,-7.505477,0.000000,-0.000000,-0.000000
-0.550000,1.390000,0.995254,0.020000,-4.201048,2478.550000,-448.018329,410.180208,-390.665079,-0.000000,0.000000,-0.000000,561.313229,-599.151349,-8.710717,0.000000,-0.000000,-0.000000
-0.510000,1.370000,0.962418,0.020000,-32.080762,2238.950000,-451.552879,443.779079,-385.869540,-0.000000,0.000000,-0.000000,587.128752,-594.902552,-0.792965,0.000000,-0.000000,-0.000000
-0.490000,1.370000,0.955834,0.020000,-37.951863,2138.950000,-459.030007,456.170847,-376.501461,-0.000000,0.000000,-0.000000,591.150128,-594.009287,0.889589,0.000000,-0.000000,0.000000
-0.490000,1.390000,0.974805,0.020000,-21.879647,2166.550000,-460.279811,445.569833,-371.024272,-0.000000,0.000000,-0.000000,578.115070,-592.825048,4.971400,0.000000,-0.000000,0.000000
-0.510000,1.390000,0.981261,0.020000,-16.157379,2266.550000,-467.545854,434.452222,-383.909247,-0.000000,0.000000,-0.000000,575.724382,-608.818015,1.126642,0.000000,-0.000000,0.000000
-0.470000,1.370000,0.949170,0.020000,-43.640430,2042.950000,-470.189673,469.763699,-365.551232,-0.000000,0.000000,-0.000000,595.190897,-595.616871,0.055708,0.000000,-0.000000,0.000000
-0.450000,1.370000,0.942547,0.020000,-49.141029,1950.950000,-483.526900,483.668634,-356.002660,-0.000000,0.000000,-0.000000,600.574560,-600.432827,-0.089061,0.000000,-0.000000,-0.000000
-0.450000,1.390000,0.961506,0.020000,-32.782116,1978.550000,-473.227743,473.766956,-342.769564,-0.000000,0.000000,-0.000000,584.812725,-584.273512,0.238477,0.000000,-0.000000,0.000000
-0.470000,1.390000,0.967999,0.020000,-27.423118,2070.550000,-464.096485,458.816356,-357.113207,-0.000000,0.000000,-0.000000,580.847322,-586.127451,3.786883,0.000000,-0.000000,0.000000
-0.430000,1.370000,0.936305,0.020000,-54.448160,1862.950000,-497.203005,497.143704,-345.986977,-0.000000,0.000000,-0.000000,605.683402,-605.742703,-0.174450,0.000000,-0.000000,-0.000000
-0.410000,1.370000,0.930452,0.020000,-59.556453,1778.950000,-510.296302,510.337201,-335.333132,-0.000000,0.000000,-0.000000,610.652481,-610.611582,-0.133292,0.000000,-0.000000,-0.000000
-0.410000,1.390000,0.949652,0.020000,-42.926084,1806.550000,-500.161876,499.800968,-322.772067,-0.000000,0.000000,-0.000000,594.935645,-595.296553,-0.242310,0.000000,-0.000000,-0.000000
-0.430000,1.390000,0.955388,0.020000,-37.951476,1890.550000,-486.490286,487.154264,-331.870738,-0.000000,0.000000,-0.000000,589.512035,-588.848058,-0.993289,0.000000,-0.000000,-0.000000
-0.390000,1.370000,0.924993,0.020000,-64.460621,1698.950000,-523.269754,523.277447,-324.013241,-0.000000,0.000000,-0.000000,615.471001,-615.463308,-0.153835,0.000000,-0.000000,-0.000000
-0.370000,1.370000,0.919938,0.020000,-69.155494,1622.950000,-535.851633,535.877169,-312.047192,-0.000000,0.000000,-0.000000,620.112828,-620.087292,-0.147590,0.000000,-0.000000,-0.000000
-0.370000,1.390000,0.939352,0.020000,-52.271021,1650.550000,-523.679539,523.759050,-299.955451,-0.000000,0.000000,-0.000000,603.575306,-603.495795,-0.105191,0.000000,-0.000000,-0.000000
-0.390000,1.390000,0.944304,0.020000,-47.700903,1726.550000,-512.014202,511.804745,-311.573757,-0.000000,0.000000,-0.000000,599.169396,-599.378853,-0.197181,0.000000,-0.000000,-0.000000
-0.350000,1.370000,0.914778,0.020000,-73.636031,1550.950000,-548.099553,548.120747,-299.436028,-0.000000,0.000000,-0.000000,624.579766,-624.558572,-0.153579,0.000000,-0.000000,-0.000000
-0.330000,1.370000,0.909700,0.020000,-77.897339,1482.950000,-559.910336,559.950460,-286.187622,-0.000000,0.000000,-0.000000,628.848641,-628.808517,-0.155781,0.000000,-0.000000,-0.000000
-0.330000,1.390000,0.929110,0.020000,-60.778133,1510.550000,-546.575465,546.617209,-274.882334,-0.000000,0.000000,-0.000000,611.844241,-611.802496,-0.138171,0.000000,-0.000000,-0.000000
-0.350000,1.390000,0.934082,0.020000,-56.631647,1578.550000,-535.416963,535.401708,-287.694809,-0.000000,0.000000,-0.000000,607.801086,-607.816341,-0.165851,0.000000,-0.000000,-0.000000
-0.310000,1.370000,0.905036,0.020000,-81.934685,1418.950000,-570.919181,571.208670,-272.330526,-0.000000,0.000000,-0.000000,632.819953,-632.530464,-0.048402,0.000000,-0.000000,-0.000000
-0.290000,1.370000,0.900792,0.020000,-85.743514,1358.950000,-581.805386,582.108314,-257.876055,-0.000000,0.000000,-0.000000,636.684128,-636.381200,-0.052382,0.000000,-0.000000,-0.000000
-0.290000,1.390000,0.920390,0.020000,-68.410898,1386.550000,-567.726578,567.760061,-247.518290,-0.000000,0.000000,-0.000000,619.369435,-619.335951,-0.149223,0.000000,-0.000000,-0.000000
-0.310000,1.390000,0.924544,0.020000,-64.705990,1446.550000,-557.411854,557.429475,-261.475823,-0.000000,0.000000,-0.000000,615.709533,-615.691911,-0.155566,0.000000,-0.000000,-0.000000
-0.270000,1.370000,0.896974,0.020000,-89.319466,1302.950000,-592.169457,592.484894,-242.844883,-0.000000,0.000000,-0.000000,640.333567,-640.018130,-0.057173,0.000000,-0.000000,-0.000000
-0.250000,1.370000,0.893588,0.020000,-92.658390,1250.950000,-601.971817,602.299799,-227.260849,-0.000000,0.000000,-0.000000,643.759377,-643.431395,-0.062361,0.000000,-0.000000,-0.000000
-0.250000,1.390000,0.913279,0.020000,-75.135532,1278.550000,-586.860347,586.894545,-217.999382,-0.000000,0.000000,-0.000000,626.075278,-626.041080,-0.154507,0.000000,-0.000000,-0.000000
-0.270000,1.390000,0.916654,0.020000,-71.888722,1330.550000,-577.570255,577.598553,-233.016143,-0.000000,0.000000,-0.000000,622.830528,-622.802231,-0.155233,0.000000,-0.000000,-0.000000
-0.230000,1.370000,0.889855,0.020000,-95.756359,1202.950000,-611.177391,611.516977,-211.150727,-0.000000,0.000000,-0.000000,646.954150,-646.614564,-0.068436,0.000000,-0.000000,-0.000000
-0.210000,1.370000,0.886462,0.020000,-98.609686,1158.950000,-619.750384,620.101066,-194.544412,-0.000000,0.000000,-0.000000,649.910231,-649.559549,-0.075098,0.000000,-0.000000,-0.000000
-0.210000,1.390000,0.906214,0.020000,-80.921465,1186.550000,-603.710358,603.747252,-186.517318,-0.000000,0.000000,-0.000000,631.902261,-631.865367,-0.157970,0.000000,-0.000000,-0.000000
-0.230000,1.390000,0.909534,0.020000,-78.147610,1230.550000,-595.589589,595.623423,-202.489656,-0.000000,0.000000,-0.000000,629.102878,-629.069044,-0.157299,0.000000,-0.000000,-0.000000
-0.190000,1.370000,0.883508,0.020000,-101.214937,1118.950000,-627.658101,628.019011,-177.474469,-0.000000,0.000000,-0.000000,652.620822,-652.259912,-0.082462,0.000000,-0.000000,-0.000000
-0.170000,1.370000,0.880999,0.020000,-103.568944,1082.950000,-634.869143,635.239522,-159.976207,-0.000000,0.000000,-0.000000,655.079367,-654.708988,-0.090397,0.000000,-0.000000,-0.000000
-0.170000,1.390000,0.900871,0.020000,-85.741769,1110.550000,-618.027451,618.067227,-153.307186,-0.000000,0.000000,-0.000000,636.797385,-636.757609,-0.160600,0.000000,-0.000000,-0.000000
-0.190000,1.390000,0.903325,0.020000,-83.453850,1146.550000,-611.201054,611.238819,-170.111864,-0.000000,0.000000,-0.000000,634.469693,-634.431928,-0.159677,0.000000,-0.000000,-0.000000
-0.150000,1.370000,0.878938,0.020000,-105.668818,1050.950000,-641.354895,641.733818,-142.087403,-0.000000,0.000000,-0.000000,657.280005,-656.901082,-0.098900,0.000000,-0.000000,-0.000000
-0.130000,1.370000,0.877028,0.020000,-107.511963,1022.950000,-647.088995,647.475548,-123.848196,-0.000000,0.000000,-0.000000,659.217330,-658.830777,-0.107879,0.000000,-0.000000,-0.000000
-0.130000,1.390000,0.896900,0.020000,-89.573564,1050.550000,-629.591648,629.633951,-118.643007,-0.000000,0.000000,-0.000000,640.714849,-640.672546,-0.162637,0.000000,-0.000000,-0.000000
-0.150000,1.390000,0.898856,0.020000,-87.782492,1078.550000,-624.166454,624.207312,-136.138288,-0.000000,0.000000,-0.000000,638.881034,-638.840175,-0.161800,0.000000,-0.000000,-0.000000
-0.110000,1.370000,0.874969,0.020000,-109.096080,998.950000,-652.048041,652.441215,-105.300827,-0.000000,0.000000,-0.000000,660.886609,-660.493435,-0.117284,0.000000,-0.000000,-0.000000
-0.090000,1.370000,0.873362,0.020000,-110.419184,978.950000,-656.211469,656.610241,-86.489442,-0.000000,0.000000,-0.000000,662.283684,-661.884912,-0.127028,0.000000,-0.000000,-0.000000
-0.090000,1.390000,0.893316,0.020000,-92.398370,1006.550000,-638.220273,638.264538,-82.832539,-0.000000,0.000000,-0.000000,643.617169,-643.572904,-0.164130,0.000000,-0.000000,-0.000000
-0.110000,1.390000,0.894886,0.020000,-91.112815,1026.550000,-634.282876,634.326131,-100.860652,-0.000000,0.000000,-0.000000,642.294971,-642.251715,-0.163495,0.000000,-0.000000,-0.000000
-0.070000,1.370000,0.872212,0.020000,-111.479606,962.950000,-659.561945,659.965232,-67.459818,-0.000000,0.000000,-0.000000,663.405082,-663.001795,-0.137038,0.000000,-0.000000,-0.000000
-0.050000,1.370000,0.871518,0.020000,-112.276005,950.950000,-662.085367,662.492071,-48.259105,-0.000000,0.000000,-0.000000,664.247979,-663.841275,-0.147221,0.000000,-0.000000,-0.000000
-0.050000,1.390000,0.891513,0.020000,-94.202398,978.550000,-643.774231,643.819784,-46.210829,-0.000000,0.000000,-0.000000,645.476105,-645.430553,-0.165082,0.000000,-0.000000,-0.000000
-0.070000,1.390000,0.892191,0.020000,-93.428653,990.550000,-641.388524,641.433473,-64.601272,-0.000000,0.000000,-0.000000,644.678480,-644.633531,-0.164692,0.000000,-0.000000,-0.000000
-0.030000,1.370000,0.871284,0.020000,-112.807369,942.950000,-663.771092,664.180081,-28.935531,-0.000000,0.000000,-0.000000,664.810257,-664.401269,-0.157492,0.000000,-0.000000,-0.000000
-0.010000,1.370000,0.870722,0.020000,-113.073023,938.950000,-664.611962,665.022093,-9.538103,-0.000000,0.000000,-0.000000,665.090490,-664.680359,-0.167754,0.000000,-0.000000,-0.000000
-0.010000,1.390000,0.890717,0.020000,-94.976774,966.550000,-646.162749,646.208855,-9.132615,-0.000000,0.000000,-0.000000,646.273367,-646.227260,-0.165487,0.000000,-0.000000,-0.000000
-0.030000,1.390000,0.891284,0.020000,-94.718651,970.550000,-645.367890,645.413796,-27.706065,-0.000000,0.000000,-0.000000,646.008200,-645.962294,-0.165362,0.000000,-0.000000,-0.000000
0.010000,1.370000,0.870494,0.020000,-113.072631,938.950000,-664.604407,665.014528,9.883701,-0.000000,0.000000,0.000000,665.087970,-664.677849,-0.177917,0.000000,-0.000000,-0.000000
0.030000,1.370000,0.870725,0.020000,-112.806195,942.950000,-663.748458,664.157416,29.280246,-0.000000,0.000000,0.000000,664.802704,-664.393746,-0.187885,0.000000,-0.000000,-0.000000
0.030000,1.390000,0.890720,0.020000,-94.717680,970.550000,-645.346494,645.392395,28.036151,-0.000000,0.000000,0.000000,646.001060,-645.955159,-0.165341,0.000000,-0.000000,-0.000000
0.010000,1.390000,0.890494,0.020000,-94.976449,966.550000,-646.155607,646.201712,9.463523,-0.000000,0.000000,0.000000,646.270985,-646.224880,-0.165490,0.000000,-0.000000,-0.000000
0.050000,1.370000,0.871416,0.020000,-112.274059,950.950000,-662.047750,662.454403,48.602060,-0.000000,0.000000,0.000000,664.235412,-663.828759,-0.197565,0.000000,-0.000000,-0.000000
0.070000,1.370000,0.872564,0.020000,-111.476903,962.950000,-659.509505,659.912722,67.800146,-0.000000,0.000000,0.000000,663.387532,-662.984316,-0.206867,0.000000,-0.000000,-0.000000
0.070000,1.390000,0.892518,0.020000,-93.426421,990.550000,-641.338941,641.383878,64.927278,-0.000000,0.000000,0.000000,644.661889,-644.616952,-0.164646,0.000000,-0.000000,-0.000000
0.050000,1.390000,0.891395,0.020000,-94.200790,978.550000,-643.738669,643.784212,46.539278,-0.000000,0.000000,0.000000,645.464225,-645.418681,-0.165074,0.000000,-0.000000,-0.000000
0.090000,1.370000,0.873797,0.020000,-110.415744,978.950000,-656.144427,656.543109,86.826294,-0.000000,0.000000,0.000000,662.261196,-661.862514,-0.215706,0.000000,-0.000000,-0.000000
0.110000,1.370000,0.874950,0.020000,-109.091931,998.950000,-651.966677,652.359743,105.633376,-0.000000,0.000000,0.000000,660.859240,-660.466174,-0.223996,0.000000,-0.000000,-0.000000
0.110000,1.390000,0.894904,0.020000,-91.109401,1026.550000,-634.205918,634.249156,101.179417,-0.000000,0.000000,0.000000,642.269092,-642.225854,-0.163409,0.000000,-0.000000,-0.000000
0.090000,1.390000,0.893776,0.020000,-92.395534,1006.550000,-638.156874,638.201124,83.155310,-0.000000,0.000000,0.000000,643.595907,-643.551657,-0.164122,0.000000,-0.000000,-0.000000
0.130000,1.370000,0.876558,0.020000,-107.507137,1022.950000,-646.993648,647.380074,124.175641,-0.000000,0.000000,0.000000,659.185147,-658.798721,-0.231668,0.000000,-0.000000,-0.000000
0.150000,1.370000,0.878619,0.020000,-105.663353,1050.950000,-641.245957,641.624736,142.408976,-0.000000,0.000000,0.000000,657.243088,-656.864309,-0.238642,0.000000,-0.000000,-0.000000
0.150000,1.390000,0.898491,0.020000,-87.778018,1078.550000,-624.063364,624.104199,136.446829,-0.000000,0.000000,0.000000,638.846119,-638.805284,-0.161633,0.000000,-0.000000,-0.000000
0.130000,1.390000,0.896476,0.020000,-89.569602,1050.550000,-629.501444,629.543726,118.957019,-0.000000,0.000000,0.000000,640.684416,-640.642133,-0.162658,0.000000,-0.000000,-0.000000
0.170000,1.370000,0.881129,0.020000,-103.562883,1082.950000,-634.747057,635.117276,160.291172,-0.000000,0.000000,0.000000,655.037808,-654.667589,-0.244875,0.000000,-0.000000,-0.000000
0.190000,1.370000,0.884084,0.020000,-101.208330,1118.950000,-627.523359,627.884093,177.782134,-0.000000,0.000000,0.000000,652.574720,-652.213987,-0.250284,0.000000,-0.000000,-0.000000
0.190000,1.390000,0.903836,0.020000,-83.448482,1146.550000,-611.073462,611.111199,170.407441,-0.000000,0.000000,0.000000,634.426077,-634.388341,-0.159303,0.000000,-0.000000,-0.000000
0.170000,1.390000,0.900945,0.020000,-85.736825,1110.550000,-617.911885,617.951634,153.609570,-0.000000,0.000000,0.000000,636.758074,-636.718324,-0.160726,0.000000,-0.000000,-0.000000
0.210000,1.370000,0.886678,0.020000,-98.602587,1158.950000,-619.603520,619.954012,194.844127,-0.000000,0.000000,0.000000,649.859698,-649.509206,-0.254874,0.000000,-0.000000,-0.000000
0.230000,1.370000,0.889630,0.020000,-95.748827,1202.950000,-611.018978,611.358361,211.441887,-0.000000,0.000000,0.000000,646.899306,-646.559923,-0.258525,0.000000,-0.000000,-0.000000
0.230000,1.390000,0.909382,0.020000,-78.141551,1230.550000,-595.439463,595.473265,202.769829,-0.000000,0.000000,0.000000,629.050970,-629.017169,-0.156304,0.000000,-0.000000,-0.000000
0.210000,1.390000,0.906495,0.020000,-80.915724,1186.550000,-603.571235,603.608098,186.805477,-0.000000,0.000000,0.000000,631.854444,-631.817581,-0.158432,0.000000,-0.000000,-0.000000
0.250000,1.370000,0.893020,0.020000,-92.650488,1250.950000,-601.802462,602.130230,227.542899,-0.000000,0.000000,0.000000,643.700351,-643.372583,-0.261363,0.000000,-0.000000,-0.000000
0.270000,1.370000,0.896843,0.020000,-89.311262,1302.950000,-591.989798,592.305010,243.117318,-0.000000,0.000000,0.000000,640.270494,-639.955282,-0.263099,0.000000,-0.000000,-0.000000
0.270000,1.390000,0.916440,0.020000,-71.882213,1330.550000,-577.399835,577.428098,233.278816,-0.000000,0.000000,0.000000,622.770803,-622.742540,-0.152146,0.000000,-0.000000,-0.000000
0.250000,1.390000,0.912699,0.020000,-75.129216,1278.550000,-586.699781,586.733944,218.271045,-0.000000,0.000000,0.000000,626.019399,-625.985236,-0.156084,0.000000,-0.000000,-0.000000
0.290000,1.370000,0.901094,0.020000,-85.735080,1358.950000,-581.616085,581.918779,258.138422,-0.000000,0.000000,0.000000,636.617151,-636.314457,-0.264233,0.000000,-0.000000,-0.000000
0.310000,1.370000,0.905532,0.020000,-81.926096,1418.950000,-570.720905,571.010164,272.582433,-0.000000,0.000000,0.000000,632.749222,-632.459964,-0.264375,0.000000,-0.000000,-0.000000
0.310000,1.390000,0.925131,0.020000,-64.699302,1446.550000,-557.223585,557.241174,261.719278,-0.000000,0.000000,0.000000,615.642520,-615.624931,-0.144823,0.000000,-0.000000,-0.000000
0.290000,1.390000,0.920600,0.020000,-68.404263,1386.550000,-567.546924,567.580370,247.771545,-0.000000,0.000000,0.000000,619.305999,-619.272554,-0.154748,0.000000,-0.000000,-0.000000
0.330000,1.370000,0.909769,0.020000,-77.888676,1482.950000,-559.703497,559.743581,286.428717,-0.000000,0.000000,0.000000,628.774228,-628.734145,-0.153061,0.000000,-0.000000,-0.000000
0.350000,1.370000,0.914424,0.020000,-73.627375,1550.950000,-547.885153,547.906306,299.666020,-0.000000,0.000000,0.000000,624.501914,-624.480761,-0.151075,0.000000,-0.000000,-0.000000
0.350000,1.390000,0.933836,0.020000,-56.625081,1578.550000,-535.213412,535.198140,287.917716,-0.000000,0.000000,0.000000,607.727353,-607.742626,-0.126876,0.000000,-0.000000,-0.000000
0.330000,1.390000,0.929279,0.020000,-60.771468,1510.550000,-546.379257,546.420956,275.115655,-0.000000,0.000000,0.000000,611.773802,-611.732103,-0.158454,0.000000,-0.000000,-0.000000
0.370000,1.370000,0.919490,0.020000,-69.146931,1622.950000,-535.630390,535.655885,312.265843,-0.000000,0.000000,0.000000,620.031702,-620.006207,-0.152723,0.000000,-0.000000,-0.000000
0.390000,1.370000,0.924962,0.020000,-64.452240,1698.950000,-523.042380,523.050033,324.220366,-0.000000,0.000000,0.000000,615.386764,-615.379111,-0.141997,0.000000,-0.000000,-0.000000
0.390000,1.390000,0.944158,0.020000,-47.694785,1726.550000,-511.797814,511.588508,311.775171,-0.000000,0.000000,0.000000,599.089506,-599.298813,-0.087362,0.000000,-0.000000,-0.000000
0.370000,1.390000,0.938798,0.020000,-52.264637,1650.550000,-523.469440,523.548875,300.167707,-0.000000,0.000000,0.000000,603.498463,-603.419027,-0.183445,0.000000,-0.000000,-0.000000
0.410000,1.370000,0.930831,0.020000,-59.548346,1778.950000,-510.063528,510.104382,335.528599,-0.000000,0.000000,0.000000,610.565312,-610.524458,-0.157924,0.000000,-0.000000,-0.000000
0.430000,1.370000,0.936732,0.020000,-54.440418,1862.950000,-496.965488,496.906162,346.170700,-0.000000,0.000000,0.000000,605.593450,-605.652776,-0.112055,0.000000,-0.000000,-0.000000
0.430000,1.390000,0.955936,0.020000,-37.946151,1890.550000,-486.264374,486.927727,332.050962,-0.000000,0.000000,0.000000,589.426783,-588.763430,0.716806,0.000000,-0.000000,0.000000
0.410000,1.390000,0.949908,0.020000,-42.920319,1806.550000,-499.940068,499.579366,322.962473,-0.000000,0.000000,0.000000,594.852869,-595.213570,-0.037938,0.000000,-0.000000,-0.000000
0.450000,1.370000,0.942571,0.020000,-49.133749,1950.950000,-483.285478,483.427129,356.174615,-0.000000,0.000000,0.000000,600.482048,-600.340397,-0.192581,0.000000,-0.000000,-0.000000
0.470000,1.370000,0.948795,0.020000,-43.633708,2042.950000,-469.944582,469.518719,365.711432,-0.000000,0.000000,0.000000,595.095866,-595.521729,-0.332592,0.000000,-0.000000,-0.000000
0.470000,1.390000,0.967760,0.020000,-27.418949,2070.550000,-463.861556,458.582131,357.270316,-0.000000,0.000000,0.000000,580.756579,-586.036004,-4.054112,0.000000,-0.000000,-0.000000
0.450000,1.390000,0.961658,0.020000,-32.777323,1978.550000,-472.998929,473.536845,342.938859,-0.000000,0.000000,0.000000,584.725367,-584.187451,-0.510130,0.000000,-0.000000,-0.000000
0.490000,1.370000,0.955398,0.020000,-37.945796,2138.950000,-458.782524,455.923117,376.650294,-0.000000,0.000000,0.000000,591.052952,-593.912359,-1.161694,0.000000,-0.000000,-0.000000
0.510000,1.370000,0.962371,0.020000,-32.075449,2238.950000,-451.303284,443.528955,386.006977,-0.000000,0.000000,0.000000,587.029322,-594.803651,0.525599,0.000000,-0.000000,0.000000
0.510000,1.390000,0.981073,0.020000,-16.154738,2266.550000,-467.304190,434.210314,384.047933,-0.000000,0.000000,0.000000,575.629545,-608.723420,-1.388793,0.000000,-0.000000,-0.000000
0.490000,1.390000,0.974234,0.020000,-21.876194,2166.550000,-460.039815,445.330690,371.172393,-0.000000,0.000000,0.000000,578.021775,-592.730900,-5.237012,0.000000,-0.000000,-0.000000
0.530000,1.370000,0.969707,0.020000,-26.028522,2342.950000,-440.989294,429.794967,391.598005,-0.000000,0.000000,0.000000,579.982809,-591.177135,3.376604,0.000000,-0.000000,0.000000
0.550000,1.370000,0.977158,0.020000,-19.809909,2450.950000,-428.357070,413.653656,402.588830,-0.000000,0.000000,0.000000,575.162843,-589.866257,0.284127,0.000000,-0.000000,0.000000
0.550000,1.390000,0.995817,0.020000,-4.200318,2478.550000,-447.775631,409.928539,390.790182,-0.000000,0.000000,0.000000,561.214083,-599.061175,8.450352,0.000000,-0.000000,0.000000
0.530000,1.390000,0.988270,0.020000,-10.257615,2370.550000,-469.390576,417.806261,386.121735,-0.000000,0.000000,0.000000,562.269963,-613.854279,7.245233,0.000000,-0.000000,0.000000
0.570000,1.370000,0.984446,0.020000,-13.427061,2562.950000,-419.328782,403.274366,409.689118,-0.000000,0.000000,0.000000,572.494414,-588.548830,2.967248,0.000000,-0.000000,0.000000
0.590000,1.370000,0.992083,0.020000,-6.881603,2678.950000,-397.234594,391.504019,409.720505,-0.000000,0.000000,0.000000,565.793573,-571.524148,5.014253,0.000000,-0.000000,0.000000
0.610000,1.370000,1.000063,0.020000,-0.179211,2798.950000,-363.170760,371.286888,418.456543,-0.000000,0.000000,0.000000,560.756241,-552.640113,-7.072988,0.000000,-0.000000,-0.000000
-0.510000,1.410000,1.000149,0.020000,-0.433444,2294.550000,-497.408207,429.046490,-400.143425,-0.000000,0.000000,-0.000000,577.839039,-646.200755,11.224209,0.000000,-0.000000,0.000000
-0.490000,1.410000,0.993603,0.020000,-5.980473,2194.550000,-460.564004,415.121338,-372.105185,-0.000000,0.000000,-0.000000,551.519729,-596.962395,20.388144,0.000000,-0.000000,0.000000
-0.470000,1.410000,0.986874,0.020000,-11.392480,2098.550000,-453.873355,449.501643,-350.645571,-0.000000,0.000000,-0.000000,569.551486,-573.923198,9.503957,0.000000,-0.000000,0.000000
-0.450000,1.410000,0.980506,0.020000,-16.612088,2006.550000,-458.682326,465.715062,-327.761783,-0.000000,0.000000,-0.000000,570.133592,-563.100856,-0.583723,0.000000,-0.000000,-0.000000
-0.450000,1.430000,0.999545,0.020000,-0.613478,2034.950000,-421.870311,468.648137,-297.738398,-0.000000,0.000000,-0.000000,558.912145,-512.134320,-10.899438,0.000000,-0.000000,-0.000000
-0.430000,1.410000,0.974507,0.020000,-21.649842,1918.550000,-478.287326,482.120384,-318.380039,-0.000000,0.000000,-0.000000,578.065275,-574.232217,-3.770045,0.000000,-0.000000,-0.000000
-0.410000,1.410000,0.968884,0.020000,-26.495417,1834.550000,-495.473553,491.528849,-312.575394,-0.000000,0.000000,-0.000000,582.190461,-586.135165,-0.787900,0.000000,-0.000000,-0.000000
-0.410000,1.430000,0.988147,0.020000,-10.257463,1862.950000,-491.023994,479.925247,-305.242128,-0.000000,0.000000,-0.000000,567.910042,-579.008789,1.631670,0.000000,-0.000000,0.000000
-0.430000,1.430000,0.993661,0.020000,-5.546825,1946.950000,-481.006460,497.048101,-304.829914,-0.000000,0.000000,-0.000000,584.068255,-568.026614,-15.437308,0.000000,-0.000000,-0.000000
-0.390000,1.410000,0.963644,0.020000,-31.145949,1754.550000,-504.906201,500.862966,-302.800267,-0.000000,0.000000,-0.000000,584.986994,-589.030229,1.340447,0.000000,-0.000000,0.000000
-0.370000,1.410000,0.958679,0.020000,-35.596046,1678.550000,-512.360606,511.865569,-288.964180,-0.000000,0.000000,-0.000000,587.766116,-588.261153,0.278444,0.000000,-0.000000,0.000000
-0.370000,1.430000,0.977935,0.020000,-19.125327,1706.950000,-500.354799,502.193537,-276.913107,-0.000000,0.000000,-0.000000,573.593566,-571.754828,-0.961645,0.000000,-0.000000,-0.000000
-0.390000,1.430000,0.983009,0.020000,-14.792544,1782.950000,-497.010829,491.738159,-295.813376,-0.000000,0.000000,-0.000000,573.468482,-578.741152,3.864473,0.000000,-0.000000,0.000000
-0.350000,1.410000,0.953416,0.020000,-39.841435,1606.550000,-522.837053,523.290550,-275.881423,-0.000000,0.000000,-0.000000,591.585980,-591.132482,-0.748408,0.000000,-0.000000,-0.000000
-0.330000,1.410000,0.948545,0.020000,-43.877583,1538.550000,-534.194210,533.921054,-264.223573,-0.000000,0.000000,-0.000000,595.708705,-595.981861,-0.221790,0.000000,-0.000000,-0.000000
-0.330000,1.430000,0.968003,0.020000,-27.190408,1566.950000,-528.039713,523.410873,-255.739723,-0.000000,0.000000,-0.000000,582.313363,-586.942203,-0.495602,0.000000,-0.000000,-0.000000
-0.350000,1.430000,0.972776,0.020000,-23.260711,1634.950000,-513.967358,515.660273,-264.963586,-0.000000,0.000000,-0.000000,579.838166,-578.145250,-2.751053,0.000000,-0.000000,-0.000000
-0.310000,1.410000,0.944073,0.020000,-47.700278,1474.550000,-544.239816,544.054652,-251.159370,-0.000000,0.000000,-0.000000,599.221345,-599.406510,-0.239892,0.000000,-0.000000,-0.000000
-0.290000,1.410000,0.940005,0.020000,-51.305396,1414.550000,-553.682567,553.754873,-237.715764,-0.000000,0.000000,-0.000000,602.624897,-602.552590,-0.106338,0.000000,-0.000000,-0.000000
-0.290000,1.430000,0.959637,0.020000,-34.421383,1442.950000,-540.377723,540.126711,-228.814710,-0.000000,0.000000,-0.000000,586.584436,-586.835448,0.269936,0.000000,-0.000000,0.000000
-0.310000,1.430000,0.963621,0.020000,-30.912223,1502.950000,-535.322086,531.798270,-243.909324,-0.000000,0.000000,-0.000000,584.904174,-588.427990,1.063072,0.000000,-0.000000,0.000000
-0.270000,1.410000,0.936347,0.020000,-54.689030,1358.550000,-563.095648,563.106136,-223.688425,-0.000000,0.000000,-0.000000,605.908783,-605.898296,-0.163488,0.000000,-0.000000,-0.000000
-0.250000,1.410000,0.932892,0.020000,-57.847445,1306.550000,-571.849239,571.897870,-209.228003,-0.000000,0.000000,-0.000000,608.970701,-608.922070,-0.137235,0.000000,-0.000000,-0.000000
-0.250000,1.430000,0.952521,0.020000,-40.788124,1334.950000,-557.744784,557.612881,-200.873063,-0.000000,0.000000,-0.000000,592.686615,-592.818517,-0.251307,0.000000,-0.000000,-0.000000
-0.270000,1.430000,0.956054,0.020000,-37.714604,1386.950000,-548.609105,549.347487,-214.166390,-0.000000,0.000000,-0.000000,589.643195,-588.904814,-0.748380,0.000000,-0.000000,-0.000000
-0.230000,1.410000,0.929226,0.020000,-60.777124,1258.550000,-580.154710,580.178614,-194.282655,-0.000000,0.000000,-0.000000,611.844512,-611.820608,-0.156935,0.000000,-0.000000,-0.000000
-0.210000,1.410000,0.925977,0.020000,-63.474758,1214.550000,-587.818799,587.859741,-178.918855,-0.000000,0.000000,-0.000000,614.485232,-614.444290,-0.147702,0.000000,-0.000000,-0.000000
-0.210000,1.430000,0.945749,0.020000,-46.263206,1242.950000,-572.968400,572.724470,-171.739911,-0.000000,0.000000,-0.000000,597.914482,-598.158412,-0.207925,0.000000,-0.000000,-0.000000
-0.230000,1.430000,0.948931,0.020000,-43.638724,1286.950000,-565.538300,565.421564,-186.448884,-0.000000,0.000000,-0.000000,595.366411,-595.483147,-0.270055,0.000000,-0.000000,-0.000000
-0.190000,1.410000,0.923150,0.020000,-65.937274,1174.550000,-594.922831,594.955214,-163.142318,-0.000000,0.000000,-0.000000,616.917993,-616.885609,-0.155382,0.000000,-0.000000,-0.000000
-0.170000,1.410000,0.920749,0.020000,-68.161837,1138.550000,-601.369896,601.410017,-146.998059,-0.000000,0.000000,-0.000000,619.114791,-619.074670,-0.152577,0.000000,-0.000000,-0.000000
-0.170000,1.430000,0.940631,0.020000,-50.822482,1166.950000,-585.314841,585.383869,-141.041644,-0.000000,0.000000,-0.000000,602.136330,-602.067302,-0.123880,0.000000,-0.000000,-0.000000
-0.190000,1.430000,0.942982,0.020000,-48.658694,1202.950000,-579.632416,579.433078,-156.537330,-0.000000,0.000000,-0.000000,600.201998,-600.401336,-0.223886,0.000000,-0.000000,-0.000000
-0.150000,1.410000,0.918777,0.020000,-70.145864,1106.550000,-607.182024,607.219228,-130.510919,-0.000000,0.000000,-0.000000,621.086775,-621.049571,-0.155974,0.000000,-0.000000,-0.000000
-0.130000,1.410000,0.916778,0.020000,-71.887035,1078.550000,-612.306103,612.347215,-113.721336,-0.000000,0.000000,-0.000000,622.817839,-622.776726,-0.155340,0.000000,-0.000000,-0.000000
-0.130000,1.430000,0.936661,0.020000,-54.445459,1106.950000,-595.689162,595.744710,-109.070542,-0.000000,0.000000,-0.000000,605.647317,-605.591769,-0.141865,0.000000,-0.000000,-0.000000
-0.150000,1.430000,0.938701,0.020000,-52.752139,1134.950000,-590.843430,590.901114,-125.181713,-0.000000,0.000000,-0.000000,604.015993,-603.958310,-0.153192,0.000000,-0.000000,-0.000000
-0.110000,1.410000,0.914808,0.020000,-73.383297,1054.550000,-616.743093,616.783325,-96.662878,-0.000000,0.000000,-0.000000,624.312149,-624.271918,-0.157035,0.000000,-0.000000,-0.000000
-0.090000,1.410000,0.913271,0.020000,-74.632879,1034.550000,-620.461421,620.503767,-79.376246,-0.000000,0.000000,-0.000000,625.560311,-625.517965,-0.157056,0.000000,-0.000000,-0.000000
-0.090000,1.430000,0.933229,0.020000,-57.115605,1062.950000,-603.417376,603.465253,-76.111010,-0.000000,0.000000,-0.000000,608.246171,-608.198294,-0.147534,0.000000,-0.000000,-0.000000
-0.110000,1.430000,0.934732,0.020000,-55.900508,1082.950000,-599.909713,599.953839,-92.691539,-0.000000,0.000000,-0.000000,607.072171,-607.028045,-0.153222,0.000000,-0.000000,-0.000000
-0.070000,1.410000,0.912171,0.020000,-75.634291,1018.550000,-623.456162,623.498328,-61.899765,-0.000000,0.000000,-0.000000,626.563525,-626.521359,-0.157950,0.000000,-0.000000,-0.000000
-0.050000,1.410000,0.911508,0.020000,-76.386337,1006.550000,-625.708773,625.752023,-44.275451,-0.000000,0.000000,-0.000000,627.316469,-627.273219,-0.158068,0.000000,-0.000000,-0.000000
-0.050000,1.430000,0.931503,0.020000,-58.820593,1034.950000,-608.385037,608.430252,-42.447611,-0.000000,0.000000,-0.000000,609.909186,-609.863971,-0.150089,0.000000,-0.000000,-0.000000
-0.070000,1.430000,0.932152,0.020000,-58.089344,1046.950000,-606.261124,606.303527,-59.345250,-0.000000,0.000000,-0.000000,609.201055,-609.158651,-0.152899,0.000000,-0.000000,-0.000000
-0.030000,1.410000,0.911284,0.020000,-76.888116,998.550000,-627.214658,627.257910,-26.544351,-0.000000,0.000000,-0.000000,627.819311,-627.776059,-0.158500,0.000000,-0.000000,-0.000000
-0.010000,1.410000,0.910712,0.020000,-77.139026,994.550000,-627.965099,628.008687,-8.749562,-0.000000,0.000000,-0.000000,628.069617,-628.026029,-0.158485,0.000000,-0.000000,-0.000000
-0.010000,1.430000,0.930708,0.020000,-59.552498,1022.950000,-610.521224,610.565162,-8.388422,-0.000000,0.000000,-0.000000,610.622766,-610.578828,-0.151046,0.000000,-0.000000,-0.000000
-0.030000,1.430000,0.931284,0.020000,-59.308501,1026.950000,-609.813745,609.856722,-25.445774,-0.000000,0.000000,-0.000000,610.387343,-610.344366,-0.152850,0.000000,-0.000000,-0.000000
0.010000,1.410000,0.910494,0.020000,-77.138766,994.550000,-627.958355,628.001940,9.066591,-0.000000,0.000000,0.000000,628.067367,-628.023782,-0.158607,0.000000,-0.000000,-0.000000
0.030000,1.410000,0.910715,0.020000,-76.887340,998.550000,-627.194448,627.237695,26.860614,-0.000000,0.000000,0.000000,627.812567,-627.769319,-0.158337,0.000000,-0.000000,-0.000000
0.030000,1.430000,0.930710,0.020000,-59.307911,1026.950000,-609.794614,609.837602,25.748976,-0.000000,0.000000,0.000000,610.380956,-610.337968,-0.150887,0.000000,-0.000000,-0.000000
0.010000,1.430000,0.930494,0.020000,-59.552300,1022.950000,-610.514876,610.558797,8.692336,-0.000000,0.000000,0.000000,610.620652,-610.576731,-0.152927,0.000000,-0.000000,-0.000000
0.050000,1.410000,0.911375,0.020000,-76.385052,1006.550000,-625.675182,625.718424,44.590190,-0.000000,0.000000,0.000000,627.305248,-627.262007,-0.158259,0.000000,-0.000000,-0.000000
0.070000,1.410000,0.912473,0.020000,-75.632510,1018.550000,-623.409321,623.451477,62.212228,-0.000000,0.000000,0.000000,626.547852,-626.505696,-0.157617,0.000000,-0.000000,-0.000000
0.070000,1.430000,0.932431,0.020000,-58.087996,1046.950000,-606.216804,606.259218,59.644910,-0.000000,0.000000,0.000000,609.186224,-609.143811,-0.149656,0.000000,-0.000000,-0.000000
0.050000,1.430000,0.931356,0.020000,-58.819617,1034.950000,-608.353312,608.398503,42.749391,-0.000000,0.000000,0.000000,609.898593,-609.853402,-0.153170,0.000000,-0.000000,-0.000000
0.090000,1.410000,0.913756,0.020000,-74.630621,1034.550000,-620.401521,620.443853,79.685696,-0.000000,0.000000,0.000000,625.540227,-625.497895,-0.157499,0.000000,-0.000000,-0.000000
0.110000,1.410000,0.914859,0.020000,-73.380587,1054.550000,-616.670366,616.710582,96.968596,-0.000000,0.000000,0.000000,624.287699,-624.247482,-0.156264,0.000000,-0.000000,-0.000000
0.110000,1.430000,0.934816,0.020000,-55.898473,1082.950000,-599.840881,599.885021,92.984910,-0.000000,0.000000,0.000000,607.049032,-607.004892,-0.147224,0.000000,-0.000000,-0.000000
0.090000,1.430000,0.933737,0.020000,-57.113901,1062.950000,-603.360775,603.408616,76.407858,-0.000000,0.000000,0.000000,608.227199,-608.179358,-0.154069,0.000000,-0.000000,-0.000000
0.130000,1.410000,0.916397,0.020000,-71.883900,1078.550000,-612.220842,612.261933,114.022623,-0.000000,0.000000,0.000000,622.789083,-622.747991,-0.156460,0.000000,-0.000000,-0.000000
0.150000,1.410000,0.918368,0.020000,-70.142340,1106.550000,-607.084550,607.121735,130.807106,-0.000000,0.000000,0.000000,621.053778,-621.016593,-0.154092,0.000000,-0.000000,-0.000000
0.150000,1.430000,0.938251,0.020000,-52.749526,1134.950000,-590.751118,590.808832,125.466193,-0.000000,0.000000,0.000000,603.984753,-603.927038,-0.144249,0.000000,-0.000000,-0.000000
0.130000,1.430000,0.936322,0.020000,-54.443119,1106.950000,-595.608568,595.664063,109.359773,-0.000000,0.000000,0.000000,605.620148,-605.564653,-0.157162,0.000000,-0.000000,-0.000000
0.170000,1.410000,0.920770,0.020000,-68.157962,1138.550000,-601.260601,601.300695,147.288501,-0.000000,0.000000,0.000000,619.077634,-619.037540,-0.155523,0.000000,-0.000000,-0.000000
0.190000,1.410000,0.923598,0.020000,-65.933092,1174.550000,-594.802110,594.834472,163.426409,-0.000000,0.000000,0.000000,616.876755,-616.844393,-0.150534,0.000000,-0.000000,-0.000000
0.190000,1.430000,0.943370,0.020000,-48.655651,1202.950000,-579.517994,579.318712,156.810520,-0.000000,0.000000,0.000000,600.162936,-600.362219,-0.069697,0.000000,-0.000000,-0.000000
0.170000,1.430000,0.940601,0.020000,-50.819633,1166.950000,-585.211509,585.280444,141.320750,-0.000000,0.000000,0.000000,602.101223,-602.032288,-0.171684,0.000000,-0.000000,-0.000000
0.210000,1.410000,0.926320,0.020000,-63.470318,1214.550000,-587.687137,587.728044,179.196019,-0.000000,0.000000,0.000000,614.440018,-614.399111,-0.155804,0.000000,-0.000000,-0.000000
0.230000,1.410000,0.929145,0.020000,-60.772478,1258.550000,-580.012547,580.036433,194.552359,-0.000000,0.000000,0.000000,611.795408,-611.771522,-0.143969,0.000000,-0.000000,-0.000000
0.230000,1.430000,0.948918,0.020000,-43.635435,1286.950000,-565.403451,565.286799,186.708640,-0.000000,0.000000,0.000000,595.319895,-595.436548,-0.018871,0.000000,-0.000000,-0.000000
0.210000,1.430000,0.946152,0.020000,-46.260014,1242.950000,-572.843470,572.599670,172.006594,-0.000000,0.000000,0.000000,597.871627,-598.115427,-0.083398,0.000000,-0.000000,-0.000000
0.250000,1.410000,0.932392,0.020000,-57.842650,1306.550000,-571.697168,571.745751,209.489746,-0.000000,0.000000,0.000000,608.917841,-608.869258,-0.160843,0.000000,-0.000000,-0.000000
0.270000,1.410000,0.936054,0.020000,-54.684146,1358.550000,-562.934085,562.944577,223.941765,-0.000000,0.000000,0.000000,605.852246,-605.841754,-0.131617,0.000000,-0.000000,-0.000000
0.270000,1.430000,0.955684,0.020000,-37.711283,1386.950000,-548.456212,549.193777,214.411788,-0.000000,0.000000,0.000000,589.589517,-588.851952,0.463979,0.000000,-0.000000,0.000000
0.250000,1.430000,0.952097,0.020000,-40.784789,1334.950000,-557.600225,557.468579,201.125238,-0.000000,0.000000,0.000000,592.636437,-592.768083,-0.034912,0.000000,-0.000000,-0.000000
0.290000,1.410000,0.940127,0.020000,-51.300489,1414.550000,-553.512302,553.584520,237.960275,-0.000000,0.000000,0.000000,602.564864,-602.492646,-0.185538,0.000000,-0.000000,-0.000000
0.310000,1.410000,0.944607,0.020000,-47.695415,1474.550000,-544.060995,543.875949,251.394707,-0.000000,0.000000,0.000000,599.157838,-599.342884,-0.048722,0.000000,-0.000000,-0.000000
0.310000,1.430000,0.964063,0.020000,-30.909115,1502.950000,-535.153582,531.628564,244.137303,-0.000000,0.000000,0.000000,584.844056,-588.369074,-1.340613,0.000000,-0.000000,-0.000000
0.290000,1.430000,0.959674,0.020000,-34.418136,1442.950000,-540.218526,539.965195,229.052750,-0.000000,0.000000,0.000000,586.528324,-586.781654,-0.551641,0.000000,-0.000000,-0.000000
0.330000,1.410000,0.948809,0.020000,-43.872836,1538.550000,-534.007590,533.734634,264.449346,-0.000000,0.000000,0.000000,595.641850,-595.914806,-0.063307,0.000000,-0.000000,-0.000000
0.350000,1.410000,0.953273,0.020000,-39.836879,1606.550000,-522.643922,523.096772,276.098312,-0.000000,0.000000,0.000000,591.516084,-591.063233,0.466228,0.000000,-0.000000,0.000000
0.350000,1.430000,0.972733,0.020000,-23.258086,1634.950000,-513.780513,515.473160,265.177307,-0.000000,0.000000,0.000000,579.770894,-578.078247,2.475135,0.000000,-0.000000,0.000000
0.330000,1.430000,0.968359,0.020000,-27.187505,1566.950000,-527.858999,523.232275,255.959836,-0.000000,0.000000,0.000000,582.249385,-586.876110,0.219022,0.000000,-0.000000,0.000000
0.370000,1.410000,0.958135,0.020000,-35.591757,1678.550000,-512.162469,511.665766,289.171592,-0.000000,0.000000,0.000000,587.693791,-588.190494,-0.556829,0.000000,-0.000000,-0.000000
0.390000,1.410000,0.963387,0.020000,-31.142008,1754.550000,-504.700042,500.656934,302.996297,-0.000000,0.000000,0.000000,584.910991,-588.954098,-1.614522,0.000000,-0.000000,-0.000000
0.390000,1.430000,0.982646,0.020000,-14.790697,1782.950000,-496.816788,491.539457,296.008039,-0.000000,0.000000,0.000000,573.395798,-578.673129,-4.131879,0.000000,-0.000000,-0.000000
0.370000,1.430000,0.977498,0.020000,-19.123053,1706.950000,-500.167642,502.000144,277.120025,-0.000000,0.000000,0.000000,573.524408,-571.691907,0.688407,0.000000,-0.000000,0.000000
0.410000,1.410000,0.969023,0.020000,-26.491905,1834.550000,-495.258181,491.316205,312.762134,-0.000000,0.000000,0.000000,582.111319,-586.053295,0.515522,0.000000,-0.000000,0.000000
0.430000,1.410000,0.975037,0.020000,-21.646844,1918.550000,-478.068325,481.901579,318.558976,-0.000000,0.000000,0.000000,577.983576,-574.150322,3.499405,0.000000,-0.000000,0.000000
0.430000,1.430000,0.994071,0.020000,-5.546066,1946.950000,-480.790371,496.831959,305.008643,-0.000000,0.000000,0.000000,583.986529,-567.944941,15.169027,0.000000,-0.000000,0.000000
0.410000,1.430000,0.988173,0.020000,-10.256122,1862.950000,-490.815752,479.720779,305.426612,-0.000000,0.000000,0.000000,567.834677,-578.929649,-1.897469,0.000000,-0.000000,-0.000000
0.450000,1.410000,0.980782,0.020000,-16.609690,2006.550000,-458.465337,465.492108,327.932275,-0.000000,0.000000,0.000000,570.050072,-563.023301,0.317323,0.000000,-0.000000,0.000000
0.470000,1.410000,0.986765,0.020000,-11.390771,2098.550000,-453.649426,449.276041,350.802760,-0.000000,0.000000,0.000000,569.465150,-573.838535,-9.764568,0.000000,-0.000000,-0.000000
0.450000,1.430000,0.999940,0.020000,-0.613393,2034.950000,-421.664248,468.429221,297.914229,-0.000000,0.000000,0.000000,558.832214,-512.067240,10.633608,0.000000,-0.000000,0.000000
0.490000,1.410000,0.993116,0.020000,-5.979540,2194.550000,-460.329320,414.890088,372.252094,-0.000000,0.000000,0.000000,551.429790,-596.869022,-20.647864,0.000000,-0.000000,-0.000000
0.510000,1.410000,0.999826,0.020000,-0.433379,2294.550000,-497.173570,428.808072,400.284234,-0.000000,0.000000,0.000000,577.745426,-646.110925,-11.483746,0.000000,-0.000000,-0.000000
-0.370000,1.450000,0.997221,0.020000,-2.846764,1735.750000,-474.426296,501.908999,-255.842115,-0.000000,0.000000,-0.000000,564.809011,-537.326308,-9.342066,0.000000,-0.000000,-0.000000
-0.350000,1.450000,0.992162,0.020000,-6.888765,1663.750000,-513.072951,520.364208,-255.282945,-0.000000,0.000000,-0.000000,579.922022,-572.630765,-8.543428,0.000000,-0.000000,-0.000000
-0.330000,1.450000,0.987483,0.020000,-10.709605,1595.750000,-524.081478,510.809665,-249.675932,-0.000000,0.000000,-0.000000,567.895775,-581.167587,1.156972,0.000000,-0.000000,0.000000
-0.310000,1.450000,0.983188,0.020000,-14.337698,1531.750000,-525.931305,521.826639,-237.731520,-0.000000,0.000000,-0.000000,573.237127,-577.341792,2.736889,0.000000,-0.000000,0.000000
-0.290000,1.450000,0.979282,0.020000,-17.752894,1471.750000,-527.364789,529.365570,-218.310849,-0.000000,0.000000,-0.000000,572.687806,-570.687024,-1.699670,0.000000,-0.000000,-0.000000
-0.290000,1.470000,0.998942,0.020000,-1.288282,1500.950000,-503.212166,527.767485,-200.036393,-0.000000,0.000000,-0.000000,565.115209,-540.559890,-10.722069,0.000000,-0.000000,-0.000000
-0.270000,1.450000,0.975772,0.020000,-20.960163,1415.750000,-538.110147,540.476530,-204.943546,-0.000000,0.000000,-0.000000,578.098038,-575.731655,-2.902116,0.000000,-0.000000,-0.000000
-0.250000,1.450000,0.972166,0.020000,-23.951615,1363.750000,-549.809302,545.798148,-194.453080,-0.000000,0.000000,-0.000000,579.286840,-583.297994,-0.218669,0.000000,-0.000000,-0.000000
-0.250000,1.470000,0.991824,0.020000,-7.330190,1392.950000,-539.228239,533.135820,-190.505483,-0.000000,0.000000,-0.000000,565.967869,-572.060287,2.546961,0.000000,-0.000000,0.000000
-0.270000,1.470000,0.995501,0.020000,-4.422700,1444.950000,-535.854261,541.392219,-197.024657,-0.000000,0.000000,-0.000000,576.250714,-570.712756,-7.239522,0.000000,-0.000000,-0.000000
-0.230000,1.450000,0.968648,0.020000,-26.726564,1315.750000,-557.018729,552.871469,-180.976590,-0.000000,0.000000,-0.000000,581.635593,-585.782854,0.362456,0.000000,-0.000000,0.000000
-0.210000,1.450000,0.965531,0.020000,-29.280635,1271.750000,-565.211926,559.863830,-166.119174,-0.000000,0.000000,-0.000000,583.878894,-589.226990,-0.300876,0.000000,-0.000000,-0.000000
-0.210000,1.470000,0.985322,0.020000,-12.520344,1300.950000,-562.449623,546.410941,-162.254853,-0.000000,0.000000,-0.000000,569.665089,-585.703770,0.524180,0.000000,-0.000000,0.000000
-0.230000,1.470000,0.988376,0.020000,-10.036088,1344.950000,-554.903600,543.333014,-177.723052,-0.000000,0.000000,-0.000000,571.375118,-582.945705,1.502572,0.000000,-0.000000,0.000000
-0.190000,1.450000,0.962821,0.020000,-31.611886,1231.750000,-568.736819,565.591559,-152.132526,-0.000000,0.000000,-0.000000,585.640080,-588.785340,0.869346,0.000000,-0.000000,0.000000
-0.170000,1.450000,0.960519,0.020000,-33.717279,1195.750000,-569.609693,569.955154,-135.783648,-0.000000,0.000000,-0.000000,585.910823,-585.565363,0.308829,0.000000,-0.000000,0.000000
-0.170000,1.470000,0.980411,0.020000,-16.839737,1224.950000,-555.068955,558.524204,-128.355846,-0.000000,0.000000,-0.000000,573.123441,-569.668192,-2.115383,0.000000,-0.000000,-0.000000
-0.190000,1.470000,0.982666,0.020000,-14.791323,1260.950000,-558.549224,554.111332,-147.793390,-0.000000,0.000000,-0.000000,573.405980,-577.843872,1.486254,0.000000,-0.000000,0.000000
-0.150000,1.450000,0.958628,0.020000,-35.594806,1163.750000,-574.049518,575.351233,-119.491378,-0.000000,0.000000,-0.000000,587.641695,-586.339981,-0.683575,0.000000,-0.000000,-0.000000
-0.130000,1.450000,0.956548,0.020000,-37.242190,1135.750000,-579.454278,579.861630,-104.453478,-0.000000,0.000000,-0.000000,589.197537,-588.790186,-0.322202,0.000000,-0.000000,-0.000000
-0.130000,1.470000,0.976440,0.020000,-20.270703,1164.950000,-569.343256,566.879118,-100.698280,-0.000000,0.000000,-0.000000,575.734258,-578.198397,-0.567079,0.000000,-0.000000,-0.000000
-0.150000,1.470000,0.978559,0.020000,-18.667816,1192.950000,-561.400586,564.862473,-113.358335,-0.000000,0.000000,-0.000000,576.152254,-572.690367,-2.718485,0.000000,-0.000000,-0.000000
-0.110000,1.450000,0.954660,0.020000,-38.657722,1111.750000,-583.672698,583.899609,-88.804747,-0.000000,0.000000,-0.000000,590.615342,-590.388431,-0.279174,0.000000,-0.000000,-0.000000
-0.090000,1.450000,0.953188,0.020000,-39.839729,1091.750000,-587.228002,587.225567,-72.968825,-0.000000,0.000000,-0.000000,591.741719,-591.744153,-0.208606,0.000000,-0.000000,-0.000000
-0.090000,1.470000,0.973149,0.020000,-22.798644,1120.950000,-577.744257,573.632408,-70.575878,-0.000000,0.000000,-0.000000,577.942333,-582.054181,-0.180444,0.000000,-0.000000,-0.000000
-0.110000,1.470000,0.974591,0.020000,-21.648579,1140.950000,-573.565853,570.719713,-85.863039,-0.000000,0.000000,-0.000000,577.126639,-579.972780,-0.243202,0.000000,-0.000000,-0.000000
-0.070000,1.450000,0.952134,0.020000,-40.786937,1075.750000,-589.962844,589.932560,-56.886591,-0.000000,0.000000,-0.000000,592.668866,-592.699150,-0.205975,0.000000,-0.000000,-0.000000
-0.050000,1.450000,0.951499,0.020000,-41.498236,1063.750000,-592.058022,591.943791,-40.707289,-0.000000,0.000000,-0.000000,593.341678,-593.455909,-0.168563,0.000000,-0.000000,-0.000000
-0.050000,1.470000,0.971494,0.020000,-24.412590,1092.950000,-582.645867,578.064871,-39.405357,-0.000000,0.000000,-0.000000,579.401106,-583.982102,-0.120050,0.000000,-0.000000,-0.000000
-0.070000,1.470000,0.972116,0.020000,-23.720518,1104.950000,-580.342147,576.228897,-55.108224,-0.000000,0.000000,-0.000000,578.848749,-582.961999,-0.091342,0.000000,-0.000000,-0.000000
-0.030000,1.450000,0.951284,0.020000,-41.972846,1055.750000,-593.417132,593.301679,-24.391404,-0.000000,0.000000,-0.000000,593.802775,-593.918228,-0.171766,0.000000,-0.000000,-0.000000
-0.010000,1.450000,0.950703,0.020000,-42.210212,1051.750000,-594.108951,593.971243,-8.049902,-0.000000,0.000000,-0.000000,594.025765,-594.163474,-0.144130,0.000000,-0.000000,-0.000000
-0.010000,1.470000,0.970699,0.020000,-25.105471,1080.950000,-584.665024,579.987312,-7.779921,-0.000000,0.000000,-0.000000,580.039262,-584.716974,-0.143237,0.000000,-0.000000,-0.000000
-0.030000,1.470000,0.971284,0.020000,-24.874491,1084.950000,-583.922042,579.368941,-23.649913,-0.000000,0.000000,-0.000000,579.849540,-584.402642,-0.100527,0.000000,-0.000000,-0.000000
0.010000,1.450000,0.950494,0.020000,-42.210074,1051.750000,-594.102869,593.965247,8.341420,-0.000000,0.000000,0.000000,594.023791,-594.161413,-0.147443,0.000000,-0.000000,-0.000000
0.030000,1.450000,0.950706,0.020000,-41.972433,1055.750000,-593.399074,593.283553,24.682268,-0.000000,0.000000,0.000000,593.796695,-593.912216,-0.119597,0.000000,-0.000000,-0.000000
0.030000,1.470000,0.970701,0.020000,-24.874250,1084.950000,-583.904652,579.351708,23.931976,-0.000000,0.000000,0.000000,579.843830,-584.396774,-0.182007,0.000000,-0.000000,-0.000000
0.010000,1.470000,0.970494,0.020000,-25.105390,1080.950000,-584.659013,579.981560,8.062638,-0.000000,0.000000,0.000000,580.037357,-584.714810,-0.139533,0.000000,-0.000000,-0.000000
0.050000,1.450000,0.951338,0.020000,-41.497557,1063.750000,-592.027880,591.913770,40.996800,-0.000000,0.000000,0.000000,593.331671,-593.445781,-0.122333,0.000000,-0.000000,-0.000000
0.070000,1.450000,0.952390,0.020000,-40.786003,1075.750000,-589.920928,589.890582,57.174165,-0.000000,0.000000,0.000000,592.654784,-592.685130,-0.084303,0.000000,-0.000000,-0.000000
0.070000,1.470000,0.972351,0.020000,-23.719982,1104.950000,-580.301645,576.188959,55.387109,-0.000000,0.000000,0.000000,578.835493,-582.948178,-0.190102,0.000000,-0.000000,-0.000000
0.050000,1.470000,0.971321,0.020000,-24.412196,1092.950000,-582.616507,578.036203,39.686203,-0.000000,0.000000,0.000000,579.391588,-583.971892,-0.162119,0.000000,-0.000000,-0.000000
0.090000,1.450000,0.953719,0.020000,-39.838558,1091.750000,-587.174234,587.171977,73.253709,-0.000000,0.000000,0.000000,591.723770,-591.726027,-0.080729,0.000000,-0.000000,-0.000000
0.110000,1.450000,0.954775,0.020000,-38.656334,1111.750000,-583.607566,583.834404,89.086477,-0.000000,0.000000,0.000000,590.593384,-590.366546,-0.009163,0.000000,-0.000000,-0.000000
0.110000,1.470000,0.974736,0.020000,-21.647812,1140.950000,-573.502877,570.657704,86.136268,-0.000000,0.000000,0.000000,577.105990,-579.951163,-0.036285,0.000000,-0.000000,-0.000000
0.090000,1.470000,0.973701,0.020000,-22.797983,1120.950000,-577.691913,573.581218,70.852385,-0.000000,0.000000,0.000000,577.925261,-582.035956,-0.100313,0.000000,-0.000000,-0.000000
0.130000,1.450000,0.956249,0.020000,-37.240612,1135.750000,-579.377644,579.785278,104.731200,-0.000000,0.000000,0.000000,589.171807,-588.764173,0.035303,0.000000,-0.000000,0.000000
0.150000,1.450000,0.958138,0.020000,-35.593068,1163.750000,-573.962636,575.263317,119.765736,-0.000000,0.000000,0.000000,587.611793,-586.311112,0.397136,0.000000,-0.000000,0.000000
0.150000,1.470000,0.978030,0.020000,-18.666916,1192.950000,-561.317606,564.776258,113.626899,-0.000000,0.000000,0.000000,576.122027,-572.663374,2.438370,0.000000,-0.000000,0.000000
0.130000,1.470000,0.976180,0.020000,-20.269856,1164.950000,-569.268551,566.806090,100.968106,-0.000000,0.000000,0.000000,575.709731,-578.172192,0.288477,0.000000,-0.000000,0.000000
0.170000,1.450000,0.960440,0.020000,-33.715415,1195.750000,-569.514938,569.857503,136.054379,-0.000000,0.000000,0.000000,585.878403,-585.535838,-0.594470,0.000000,-0.000000,-0.000000
0.190000,1.450000,0.963152,0.020000,-31.609936,1231.750000,-568.631665,565.483471,152.396257,-0.000000,0.000000,0.000000,585.603541,-588.751735,-1.151644,0.000000,-0.000000,-0.000000
0.190000,1.470000,0.982943,0.020000,-14.790422,1260.950000,-558.460647,554.005759,148.053840,-0.000000,0.000000,0.000000,573.369818,-577.824706,-1.762827,0.000000,-0.000000,-0.000000
0.170000,1.470000,0.980286,0.020000,-16.838819,1224.950000,-554.984383,558.428872,128.623926,-0.000000,0.000000,0.000000,573.091670,-569.647181,1.833849,0.000000,-0.000000,0.000000
0.210000,1.450000,0.965991,0.020000,-29.278643,1271.750000,-565.091689,559.744506,166.377786,-0.000000,0.000000,0.000000,583.837861,-589.185044,0.018907,0.000000,-0.000000,0.000000
0.230000,1.450000,0.968701,0.020000,-26.724576,1315.750000,-556.887933,552.743095,181.229003,-0.000000,0.000000,0.000000,581.591691,-585.736529,-0.642580,0.000000,-0.000000,-0.000000
0.230000,1.470000,0.988492,0.020000,-10.035351,1344.950000,-554.772382,543.208531,177.971301,-0.000000,0.000000,0.000000,571.332573,-582.896423,-1.778009,0.000000,-0.000000,-0.000000
0.210000,1.470000,0.985836,0.020000,-12.519505,1300.950000,-562.341206,546.296169,162.507672,-0.000000,0.000000,0.000000,569.625570,-585.670607,-0.798133,0.000000,-0.000000,-0.000000
0.250000,1.450000,0.971815,0.020000,-23.949683,1363.750000,-549.668712,545.660042,194.698708,-0.000000,0.000000,0.000000,579.239033,-583.247704,-0.059442,0.000000,-0.000000,-0.000000
0.270000,1.450000,0.975329,0.020000,-20.958341,1415.750000,-537.962721,540.327525,205.184635,-0.000000,0.000000,0.000000,578.045742,-575.680938,2.623838,0.000000,-0.000000,0.000000
0.270000,1.470000,0.994988,0.020000,-4.422317,1444.950000,-535.704676,541.239702,197.264188,-0.000000,0.000000,0.000000,576.193175,-570.658149,6.961948,0.000000,-0.000000,0.000000
0.250000,1.470000,0.991544,0.020000,-7.329609,1392.950000,-539.095124,533.006061,190.747283,-0.000000,0.000000,0.000000,565.925432,-572.014495,-2.818617,0.000000,-0.000000,-0.000000
0.290000,1.450000,0.979239,0.020000,-17.751241,1471.750000,-527.216869,529.209028,218.547663,-0.000000,0.000000,0.000000,572.634056,-570.641897,1.422522,0.000000,-0.000000,0.000000
0.310000,1.450000,0.983541,0.020000,-14.336275,1531.750000,-525.777705,521.662348,237.957261,-0.000000,0.000000,0.000000,573.179035,-577.294393,-3.007889,0.000000,-0.000000,-0.000000
0.290000,1.470000,0.998822,0.020000,-1.288170,1500.950000,-503.078975,527.612480,200.279387,-0.000000,0.000000,0.000000,565.063283,-540.529778,10.442555,0.000000,-0.000000,0.000000
0.330000,1.450000,0.987926,0.020000,-10.708478,1595.750000,-523.910646,510.638372,249.892222,-0.000000,0.000000,0.000000,567.834930,-581.107204,-1.425987,0.000000,-0.000000,-0.000000
0.350000,1.450000,0.992215,0.020000,-6.887996,1663.750000,-512.887461,520.178731,255.495180,-0.000000,0.000000,0.000000,579.853787,-572.562517,8.269949,0.000000,-0.000000,0.000000
0.370000,1.450000,0.996886,0.020000,-2.846433,1735.750000,-474.249957,501.718810,256.053165,-0.000000,0.000000,0.000000,564.742353,-537.273500,9.069011,0.000000,-0.000000,0.000000
-0.170000,1.490000,1.000307,0.020000,-0.179117,1254.550000,-537.184893,554.093408,-116.740935,-0.000000,0.000000,-0.000000,566.366870,-549.458355,-9.167655,0.000000,-0.000000,-0.000000
-0.150000,1.490000,0.998492,0.020000,-1.963664,1222.550000,-554.946476,558.223269,-108.678416,-0.000000,0.000000,-0.000000,568.716863,-565.440070,-4.442055,0.000000,-0.000000,-0.000000
-0.130000,1.490000,0.996337,0.020000,-3.522838,1194.550000,-560.104684,554.259267,-98.130431,-0.000000,0.000000,-0.000000,562.834581,-568.679999,0.155864,0.000000,-0.000000,0.000000
-0.110000,1.490000,0.994524,0.020000,-4.866655,1170.550000,-569.114850,559.690549,-83.983786,-0.000000,0.000000,-0.000000,565.904750,-575.329051,0.190392,0.000000,-0.000000,0.000000
-0.090000,1.490000,0.993111,0.020000,-5.985079,1150.550000,-570.350770,560.660093,-69.134086,-0.000000,0.000000,-0.000000,564.870027,-574.560704,0.563702,0.000000,-0.000000,0.000000
-0.070000,1.490000,0.992099,0.020000,-6.883693,1134.550000,-575.303830,564.315438,-54.029060,-0.000000,0.000000,-0.000000,566.871091,-577.859483,0.369836,0.000000,-0.000000,0.000000
-0.050000,1.490000,0.991490,0.020000,-7.556752,1122.550000,-576.089928,565.194349,-38.646975,-0.000000,0.000000,-0.000000,566.501461,-577.397041,0.304982,0.000000,-0.000000,0.000000
-0.030000,1.490000,0.991284,0.020000,-8.006901,1114.550000,-578.353312,566.963972,-23.203760,-0.000000,0.000000,-0.000000,567.433865,-578.823204,0.134220,0.000000,-0.000000,0.000000
-0.010000,1.490000,0.990695,0.020000,-8.231575,1110.550000,-578.632667,567.292239,-7.630916,-0.000000,0.000000,-0.000000,567.343049,-578.683477,-0.060196,0.000000,-0.000000,-0.000000
0.010000,1.490000,0.990494,0.020000,-8.231551,1110.550000,-578.630631,567.289302,7.908624,-0.000000,0.000000,0.000000,567.343840,-578.685169,-0.217520,0.000000,-0.000000,-0.000000
0.030000,1.490000,0.990697,0.020000,-8.006822,1114.550000,-578.332227,566.944814,23.480827,-0.000000,0.000000,0.000000,567.425875,-578.813288,-0.411872,0.000000,-0.000000,-0.000000
0.050000,1.490000,0.991304,0.020000,-7.556635,1122.550000,-576.065524,565.169817,38.922873,-0.000000,0.000000,0.000000,566.495480,-577.391187,-0.581899,0.000000,-0.000000,-0.000000
0.070000,1.490000,0.992314,0.020000,-6.883537,1134.550000,-575.259101,564.273953,54.303027,-0.000000,0.000000,0.000000,566.855481,-577.840628,-0.646638,0.000000,-0.000000,-0.000000
0.090000,1.490000,0.993684,0.020000,-5.984911,1150.550000,-570.305346,560.614951,69.405777,-0.000000,0.000000,0.000000,564.857917,-574.548312,-0.838869,0.000000,-0.000000,-0.000000
0.110000,1.490000,0.994699,0.020000,-4.866481,1170.550000,-569.045723,559.626504,84.252235,-0.000000,0.000000,0.000000,565.880848,-575.300068,-0.465709,0.000000,-0.000000,-0.000000
0.130000,1.490000,0.996113,0.020000,-3.522697,1194.550000,-560.040744,554.195332,98.395639,-0.000000,0.000000,0.000000,562.817540,-568.662952,-0.428138,0.000000,-0.000000,-0.000000
0.150000,1.490000,0.997927,0.020000,-1.963563,1222.550000,-554.856244,558.127722,108.944857,-0.000000,0.000000,0.000000,568.676287,-565.404809,4.162445,0.000000,-0.000000,0.000000
0.170000,1.490000,1.000137,0.020000,-0.179116,1254.550000,-537.117705,553.997318,117.016276,-0.000000,0.000000,0.000000,566.334899,-549.455287,8.881001,0.000000,-0.000000,0.000000
-0.230000,-0.630000,0.171819,0.020000,-1005.114563,462.950000,-2157.869784,2162.264876,1778.949825,-0.000000,0.000000,0.000000,2800.336321,-2795.941229,31.188912,0.000000,-0.000000,0.000000
-0.210000,-0.630000,0.165030,0.020000,-1017.444565,418.950000,-2270.927060,2246.520310,1661.825454,-0.000000,0.000000,0.000000,2791.870846,-2816.277596,25.773848,0.000000,-0.000000,0.000000
-0.210000,-0.610000,0.146754,0.020000,-1053.587096,406.550000,-2320.807466,2319.524645,1855.993999,-0.000000,0.000000,0.000000,2970.334392,-2971.617212,-34.453360,0.000000,-0.000000,-0.000000
-0.230000,-0.610000,0.152632,0.020000,-1040.530005,450.550000,-2216.779513,2222.687486,1968.254234,-0.000000,0.000000,0.000000,2969.615331,-2963.707358,-12.728310,0.000000,-0.000000,-0.000000
-0.190000,-0.630000,0.158452,0.020000,-1028.868139,378.950000,-2431.964394,2438.636315,1601.151606,-0.000000,0.000000,0.000000,2917.821093,-2911.149172,12.275764,0.000000,-0.000000,0.000000
-0.170000,-0.630000,0.154206,0.020000,-1039.330264,342.950000,-2546.070183,2531.786078,1444.463035,-0.000000,0.000000,0.000000,2913.782170,-2928.066276,28.830457,0.000000,-0.000000,0.000000
-0.170000,-0.610000,0.134467,0.020000,-1076.801427,330.550000,-2628.428193,2656.373396,1603.818256,-0.000000,0.000000,0.000000,3105.004669,-3077.059466,-5.976311,0.000000,-0.000000,-0.000000
-0.190000,-0.610000,0.139316,0.020000,-1065.698011,366.550000,-2516.671524,2532.818851,1754.200903,-0.000000,0.000000,0.000000,3082.395448,-3066.248121,-10.229223,0.000000,-0.000000,-0.000000
-0.150000,-0.630000,0.148253,0.020000,-1048.778416,310.950000,-2687.797433,2689.472962,1353.124384,-0.000000,0.000000,0.000000,3010.769874,-3009.094344,3.677356,0.000000,-0.000000,0.000000
-0.130000,-0.630000,0.143927,0.020000,-1057.163342,282.950000,-2787.817307,2773.941319,1160.985919,-0.000000,0.000000,0.000000,3006.362230,-3020.238218,34.638430,0.000000,-0.000000,0.000000
-0.130000,-0.610000,0.124190,0.020000,-1095.754221,270.550000,-2891.538915,2923.538526,1298.006482,-0.000000,0.000000,0.000000,3200.116982,-3168.117371,0.215267,0.000000,-0.000000,0.000000
-0.150000,-0.610000,0.129178,0.020000,-1086.838589,298.550000,-2793.716054,2812.749154,1486.404718,-0.000000,0.000000,0.000000,3182.406012,-3163.372912,-16.866505,0.000000,-0.000000,-0.000000
-0.110000,-0.630000,0.141215,0.020000,-1064.439840,258.950000,-2904.065129,2903.253517,1051.392748,-0.000000,0.000000,0.000000,3087.738796,-3088.550408,-5.204761,0.000000,-0.000000,-0.000000
-0.090000,-0.630000,0.136800,0.020000,-1070.567513,238.950000,-2981.374226,2968.572136,828.343713,-0.000000,0.000000,0.000000,3081.509449,-3094.311539,37.782527,0.000000,-0.000000,0.000000
-0.090000,-0.610000,0.117069,0.020000,-1110.022633,226.550000,-3103.576728,3138.477494,933.791367,-0.000000,0.000000,0.000000,3275.167796,-3240.267030,7.334874,0.000000,-0.000000,0.000000
-0.110000,-0.610000,0.122199,0.020000,-1103.497435,246.550000,-3027.682223,3052.493750,1155.090458,-0.000000,0.000000,0.000000,3264.474515,-3239.662989,-20.439243,0.000000,-0.000000,-0.000000
-0.070000,-0.630000,0.135228,0.020000,-1075.511478,222.950000,-3064.053282,3060.529617,704.074264,-0.000000,0.000000,0.000000,3140.392469,-3143.916134,-14.691403,0.000000,-0.000000,-0.000000
-0.050000,-0.630000,0.132831,0.020000,-1079.243006,210.950000,-3112.945270,3101.851737,458.329422,-0.000000,0.000000,0.000000,3135.246232,-3146.339765,37.558792,0.000000,-0.000000,0.000000
-0.050000,-0.610000,0.113105,0.020000,-1119.268016,198.550000,-3248.831509,3285.094720,524.568688,-0.000000,0.000000,0.000000,3326.909655,-3290.646443,14.426490,0.000000,-0.000000,0.000000
-0.070000,-0.610000,0.115229,0.020000,-1115.290350,210.550000,-3200.708956,3230.562424,770.199267,-0.000000,0.000000,0.000000,3321.442497,-3291.589029,-21.755658,0.000000,-0.000000,-0.000000
-0.030000,-0.630000,0.131284,0.020000,-1081.740060,202.950000,-3155.865512,3149.584440,324.532030,-0.000000,0.000000,0.000000,3166.156601,-3172.437673,-23.483358,0.000000,-0.000000,-0.000000
-0.010000,-0.630000,0.132008,0.020000,-1082.987726,198.950000,-3172.511505,3163.655442,66.778589,-0.000000,0.000000,0.000000,3164.178852,-3173.034915,33.803798,0.000000,-0.000000,0.000000
-0.010000,-0.610000,0.112278,0.020000,-1123.261194,186.550000,-3315.758119,3351.609286,88.915719,-0.000000,0.000000,0.000000,3352.732432,-3316.881265,20.403799,0.000000,-0.000000,0.000000
-0.030000,-0.610000,0.111284,0.020000,-1121.930614,190.550000,-3299.350738,3333.015192,347.476652,-0.000000,0.000000,0.000000,3351.107729,-3317.443275,-20.404924,0.000000,-0.000000,-0.000000
0.010000,-0.630000,0.130494,0.020000,-1082.978506,198.950000,-3172.316934,3163.439140,-70.305390,-0.000000,0.000000,-0.000000,3164.074587,-3172.952380,-30.272253,0.000000,-0.000000,-0.000000
0.030000,-0.630000,0.132028,0.020000,-1081.712467,202.950000,-3155.374393,3149.117409,-328.004056,-0.000000,0.000000,-0.000000,3166.021660,-3172.278643,26.985197,0.000000,-0.000000,0.000000
0.030000,-0.610000,0.112301,0.020000,-1121.900792,190.550000,-3298.831225,3332.467585,-351.348234,-0.000000,0.000000,-0.000000,3350.942588,-3317.306229,24.310177,0.000000,-0.000000,0.000000
0.010000,-0.610000,0.110494,0.020000,-1123.251228,186.550000,-3315.526752,3351.390624,-92.846882,-0.000000,0.000000,-0.000000,3352.642747,-3316.778875,-16.467372,0.000000,-0.000000,-0.000000
0.050000,-0.630000,0.132863,0.020000,-1079.197241,210.950000,-3112.080586,3100.969341,-461.743082,-0.000000,0.000000,-0.000000,3134.913230,-3146.024475,-34.050078,0.000000,-0.000000,-0.000000
0.070000,-0.630000,0.134421,0.020000,-1075.447873,222.950000,-3062.915574,3059.416517,-707.330053,-0.000000,0.000000,-0.000000,3140.021503,-3143.520560,18.114822,0.000000,-0.000000,0.000000
0.070000,-0.610000,0.114693,0.020000,-1115.221650,210.550000,-3199.481235,3229.294153,-773.818207,-0.000000,0.000000,-0.000000,3321.026449,-3291.213531,25.563227,0.000000,-0.000000,0.000000
0.050000,-0.610000,0.112863,0.020000,-1119.218567,198.550000,-3247.869906,3284.129285,-528.358094,-0.000000,0.000000,-0.000000,3326.574148,-3290.314770,-10.530763,0.000000,-0.000000,-0.000000
0.090000,-0.630000,0.138378,0.020000,-1070.486521,238.950000,-2979.906912,2967.092368,-831.489560,-0.000000,0.000000,-0.000000,3080.969459,-3093.784003,-34.349922,0.000000,-0.000000,-0.000000
0.110000,-0.630000,0.139969,0.020000,-1064.342030,258.950000,-2902.368294,2901.580047,-1054.295466,-0.000000,0.000000,-0.000000,3087.148694,-3087.936941,8.506785,0.000000,-0.000000,0.000000
0.110000,-0.610000,0.120234,0.020000,-1103.391909,246.550000,-3025.845706,3050.608204,-1158.294362,-0.000000,0.000000,-0.000000,3263.825307,-3239.062810,24.091392,0.000000,-0.000000,0.000000
0.090000,-0.610000,0.118378,0.020000,-1109.935198,226.550000,-3101.963317,3136.844804,-937.255272,-0.000000,0.000000,-0.000000,3274.604623,-3239.723136,-3.549834,0.000000,-0.000000,-0.000000
0.130000,-0.630000,0.144340,0.020000,-1057.049387,282.950000,-2785.856096,2771.973544,-1163.739401,-0.000000,0.000000,-0.000000,3005.644866,-3019.527418,-31.332226,0.000000,-0.000000,-0.000000
0.150000,-0.630000,0.148674,0.020000,-1048.649081,310.950000,-2685.663500,2687.359721,-1355.574994,-0.000000,0.000000,-0.000000,3009.988837,-3008.292616,-0.532706,0.000000,-0.000000,-0.000000
0.150000,-0.610000,0.128935,0.020000,-1086.699264,298.550000,-2791.409192,2810.389183,-1489.078248,-0.000000,0.000000,-0.000000,3181.552021,-3162.572030,20.317294,0.000000,-0.000000,0.000000
0.130000,-0.610000,0.125296,0.020000,-1095.631364,270.550000,-2889.397456,2921.365410,-1301.000832,-0.000000,0.000000,-0.000000,3199.352144,-3167.384190,3.398458,0.000000,-0.000000,0.000000
0.170000,-0.630000,0.152956,0.020000,-1039.186393,342.950000,-2543.749051,2529.464224,-1446.740393,-0.000000,0.000000,-0.000000,2912.921078,-2927.205905,-25.694404,0.000000,-0.000000,-0.000000
0.190000,-0.630000,0.159648,0.020000,-1028.710639,378.950000,-2429.533801,2436.224686,-1603.095397,-0.000000,0.000000,-0.000000,2916.887865,-2910.196980,-9.317486,0.000000,-0.000000,-0.000000
0.190000,-0.610000,0.140783,0.020000,-1065.528662,366.550000,-2514.051509,2530.147654,-1756.283615,-0.000000,0.000000,-0.000000,3081.374876,-3065.278732,13.445888,0.000000,-0.000000,0.000000
0.170000,-0.610000,0.133850,0.020000,-1076.646580,330.550000,-2625.910035,2653.815294,-1606.250863,-0.000000,0.000000,-0.000000,3104.070573,-3076.165315,9.371021,0.000000,-0.000000,0.000000
0.210000,-0.630000,0.164740,0.020000,-1017.274397,418.950000,-2268.368122,2243.943395,-1663.593950,-0.000000,0.000000,-0.000000,2790.868613,-2815.293341,-22.818295,0.000000,-0.000000,-0.000000
0.230000,-0.630000,0.171208,0.020000,-1004.932724,462.950000,-2155.270850,2159.672630,-1780.371097,-0.000000,0.000000,-0.000000,2799.270305,-2794.868524,-28.429642,0.000000,-0.000000,-0.000000
0.230000,-0.610000,0.152858,0.020000,-1040.334904,450.550000,-2214.012540,2219.879419,-1969.748017,-0.000000,0.000000,-0.000000,2968.487440,-2962.620561,15.690648,0.000000,-0.000000,0.000000
0.210000,-0.610000,0.145577,0.020000,-1053.404316,406.550000,-2318.084282,2316.775223,-1857.833496,-0.000000,0.000000,-0.000000,2969.297177,-2970.606237,37.587420,0.000000,-0.000000,0.000000
-0.310000,-0.590000,0.167576,0.020000,-1012.969946,654.550000,-1621.212285,1627.772217,2293.200130,-0.000000,0.000000,0.000000,2813.330968,-2806.771036,36.814121,0.000000,-0.000000,0.000000
-0.290000,-0.590000,0.157815,0.020000,-1030.064446,594.550000,-1754.342262,1723.187935,2258.857509,-0.000000,0.000000,0.000000,2834.989762,-2866.144090,-3.084141,0.000000,-0.000000,-0.000000
-0.290000,-0.570000,0.140129,0.020000,-1064.519866,582.950000,-1764.589045,1756.207448,2487.951210,-0.000000,0.000000,0.000000,3043.292253,-3051.673849,-41.836164,0.000000,-0.000000,-0.000000
-0.310000,-0.570000,0.150861,0.020000,-1046.469457,642.950000,-1640.381298,1635.956203,2517.680759,-0.000000,0.000000,0.000000,3001.496219,-3005.921313,6.849118,0.000000,-0.000000,0.000000
-0.270000,-0.590000,0.150098,0.020000,-1046.452293,538.550000,-1965.579195,1977.105071,2239.009829,-0.000000,0.000000,0.000000,2988.807798,-2977.281923,28.252016,0.000000,-0.000000,0.000000
-0.250000,-0.590000,0.141775,0.020000,-1062.063907,486.550000,-2109.912339,2114.860910,2183.183080,-0.000000,0.000000,0.000000,3040.313127,-3035.364557,-0.884154,0.000000,-0.000000,-0.000000
-0.250000,-0.570000,0.124399,0.020000,-1098.384795,474.950000,-2152.926950,2169.827958,2371.220849,-0.000000,0.000000,0.000000,3216.874319,-3199.973311,-16.044854,0.000000,-0.000000,-0.000000
-0.270000,-0.570000,0.131377,0.020000,-1081.850434,526.950000,-2006.344435,2003.117594,2434.830055,-0.000000,0.000000,0.000000,3152.315455,-3155.542296,8.745682,0.000000,-0.000000,0.000000
-0.230000,-0.590000,0.133685,0.020000,-1076.828752,438.550000,-2310.496103,2316.688878,2098.779674,-0.000000,0.000000,0.000000,3126.740544,-3120.547769,20.821053,0.000000,-0.000000,0.000000
-0.210000,-0.590000,0.128230,0.020000,-1090.676085,394.550000,-2474.749012,2472.395419,2012.518708,-0.000000,0.000000,0.000000,3187.676057,-3190.029651,2.920724,0.000000,-0.000000,0.000000
-0.210000,-0.570000,0.108711,0.020000,-1128.752945,382.950000,-2578.136583,2575.549463,2197.169530,-0.000000,0.000000,0.000000,3385.101850,-3387.688970,-0.186949,0.000000,-0.000000,-0.000000
-0.230000,-0.570000,0.115094,0.020000,-1114.045118,426.950000,-2382.313519,2382.165198,2292.132821,-0.000000,0.000000,0.000000,3305.818722,-3305.967043,3.078434,0.000000,-0.000000,0.000000
-0.190000,-0.590000,0.120461,0.020000,-1103.535809,354.550000,-2643.971498,2642.327985,1895.499696,-0.000000,0.000000,0.000000,3251.738762,-3253.382274,3.118862,0.000000,-0.000000,0.000000
-0.170000,-0.590000,0.114819,0.020000,-1115.339421,318.550000,-2809.283425,2807.341000,1761.200900,-0.000000,0.000000,0.000000,3313.909845,-3315.852270,3.109025,0.000000,-0.000000,0.000000
-0.170000,-0.570000,0.095316,0.020000,-1155.000034,306.950000,-2954.099410,2954.648516,1931.890277,-0.000000,0.000000,0.000000,3530.220932,-3529.671826,2.029825,0.000000,-0.000000,0.000000
-0.190000,-0.570000,0.102043,0.020000,-1142.430151,342.950000,-2768.662837,2769.034709,2074.198155,-0.000000,0.000000,0.000000,3459.783847,-3459.411976,1.950739,0.000000,-0.000000,0.000000
-0.150000,-0.590000,0.110431,0.020000,-1126.021026,286.550000,-2965.454590,2963.365676,1607.860233,-0.000000,0.000000,0.000000,3371.333310,-3373.422225,3.187538,0.000000,-0.000000,0.000000
-0.130000,-0.590000,0.104553,0.020000,-1135.518400,258.550000,-3109.715294,3107.493119,1436.254570,-0.000000,0.000000,0.000000,3423.248267,-3425.470442,3.211977,0.000000,-0.000000,0.000000
-0.130000,-0.570000,0.085084,0.020000,-1176.525253,246.950000,-3292.942273,3293.840874,1582.250370,-0.000000,0.000000,0.000000,3654.206204,-3653.307602,2.187002,0.000000,-0.000000,0.000000
-0.150000,-0.570000,0.092213,0.020000,-1166.388488,274.950000,-3129.911456,3130.657734,1767.683386,-0.000000,0.000000,0.000000,3595.283676,-3594.537397,2.104807,0.000000,-0.000000,0.000000
-0.110000,-0.590000,0.102310,0.020000,-1143.774072,234.550000,-3239.382227,3237.045517,1247.542619,-0.000000,0.000000,0.000000,3469.045118,-3471.381828,3.181123,0.000000,-0.000000,0.000000
-0.090000,-0.590000,0.097448,0.020000,-1150.736389,214.550000,-3351.914813,3349.473439,1043.353629,-0.000000,0.000000,0.000000,3508.156512,-3510.597886,3.097929,0.000000,-0.000000,0.000000
-0.090000,-0.570000,0.078019,0.020000,-1192.789612,202.950000,-3567.926040,3569.100271,1153.246168,-0.000000,0.000000,0.000000,3750.821423,-3749.647192,2.345537,0.000000,-0.000000,0.000000
-0.110000,-0.570000,0.082313,0.020000,-1185.345204,222.950000,-3439.828842,3440.973185,1376.858764,-0.000000,0.000000,0.000000,3706.256225,-3705.111882,2.210284,0.000000,-0.000000,0.000000
-0.070000,-0.590000,0.095229,0.020000,-1156.360534,198.550000,-3444.967252,3442.454381,825.780386,-0.000000,0.000000,0.000000,3540.077877,-3542.590747,2.953782,0.000000,-0.000000,0.000000
-0.050000,-0.590000,0.093496,0.020000,-1160.609442,186.550000,-3516.606961,3514.018338,597.308588,-0.000000,0.000000,0.000000,3564.402375,-3566.990998,2.776949,0.000000,-0.000000,0.000000
-0.050000,-0.570000,0.074095,0.020000,-1203.356160,174.950000,-3755.912445,3757.225721,661.664042,-0.000000,0.000000,0.000000,3815.051026,-3813.737751,2.455561,0.000000,-0.000000,0.000000
-0.070000,-0.570000,0.075230,0.020000,-1198.807382,186.950000,-3673.592839,3675.118976,913.964045,-0.000000,0.000000,0.000000,3787.082721,-3785.556584,2.259269,0.000000,-0.000000,0.000000
-0.030000,-0.590000,0.091284,0.020000,-1163.454596,178.550000,-3565.153675,3562.543235,360.806824,-0.000000,0.000000,0.000000,3580.759952,-3583.370392,2.544717,0.000000,-0.000000,0.000000
-0.010000,-0.590000,0.092663,0.020000,-1164.876648,174.550000,-3589.661613,3587.007541,119.373490,-0.000000,0.000000,0.000000,3588.991862,-3591.645933,2.298603,0.000000,-0.000000,0.000000
-0.010000,-0.570000,0.073258,0.020000,-1207.926593,162.950000,-3839.603800,3840.944273,132.359138,-0.000000,0.000000,0.000000,3843.223778,-3841.883305,2.427311,0.000000,-0.000000,0.000000
-0.030000,-0.570000,0.071284,0.020000,-1206.403281,166.950000,-3810.642310,3812.446365,399.994952,-0.000000,0.000000,0.000000,3833.376529,-3831.572475,2.321829,0.000000,-0.000000,0.000000
0.010000,-0.590000,0.090494,0.020000,-1164.865858,174.550000,-3589.389927,3586.760481,-123.696477,-0.000000,0.000000,-0.000000,3588.891450,-3591.520896,2.030691,0.000000,-0.000000,0.000000
0.030000,-0.590000,0.092692,0.020000,-1163.422316,178.550000,-3564.541221,3561.909573,-365.064258,-0.000000,0.000000,-0.000000,3580.561347,-3583.192995,1.753958,0.000000,-0.000000,0.000000
0.030000,-0.570000,0.073295,0.020000,-1206.368289,166.950000,-3810.805657,3812.139407,-404.649027,-0.000000,0.000000,-0.000000,3833.558517,-3832.224768,2.314071,0.000000,-0.000000,0.000000
0.010000,-0.570000,0.070494,0.020000,-1207.914880,162.950000,-3838.306415,3840.173218,-137.175954,-0.000000,0.000000,-0.000000,3842.622320,-3840.755516,2.422818,0.000000,-0.000000,0.000000
0.050000,-0.590000,0.092863,0.020000,-1160.555932,186.550000,-3515.497740,3512.927210,-601.459497,-0.000000,0.000000,-0.000000,3564.025465,-3566.595994,1.499904,0.000000,-0.000000,0.000000
0.070000,-0.590000,0.095079,0.020000,-1156.286223,198.550000,-3443.512334,3440.988821,-829.751458,-0.000000,0.000000,-0.000000,3539.582064,-3542.105577,1.248732,0.000000,-0.000000,0.000000
0.070000,-0.570000,0.075668,0.020000,-1198.726872,186.950000,-3672.375127,3673.634269,-918.268626,-0.000000,0.000000,-0.000000,3786.679722,-3785.420580,2.244347,0.000000,-0.000000,0.000000
0.050000,-0.570000,0.072863,0.020000,-1203.298153,174.950000,-3753.985583,3755.669274,-666.331396,-0.000000,0.000000,-0.000000,3814.333759,-3812.650068,2.443734,0.000000,-0.000000,0.000000
0.090000,-0.590000,0.098379,0.020000,-1150.641864,214.550000,-3350.066394,3347.633744,-1047.114299,-0.000000,0.000000,-0.000000,3507.521918,-3509.954568,1.041505,0.000000,-0.000000,0.000000
0.110000,-0.590000,0.100605,0.020000,-1143.660066,234.550000,-3237.220042,3234.881762,-1251.041254,-0.000000,0.000000,-0.000000,3468.287434,-3470.625714,0.861895,0.000000,-0.000000,0.000000
0.110000,-0.570000,0.081157,0.020000,-1185.221852,222.950000,-3437.501634,3438.548557,-1380.650822,-0.000000,0.000000,-0.000000,3705.413263,-3704.366339,2.193561,0.000000,-0.000000,0.000000
0.090000,-0.570000,0.078381,0.020000,-1192.687264,202.950000,-3565.567018,3566.906160,-1157.425414,-0.000000,0.000000,-0.000000,3750.025723,-3748.686582,2.331823,0.000000,-0.000000,0.000000
0.130000,-0.590000,0.106603,0.020000,-1135.385776,258.550000,-3107.267162,3105.048476,-1439.462295,-0.000000,0.000000,-0.000000,3422.378289,-3424.596975,0.726856,0.000000,-0.000000,0.000000
0.150000,-0.590000,0.109291,0.020000,-1125.870759,286.550000,-2962.770597,2960.684009,-1610.752301,-0.000000,0.000000,-0.000000,3370.358668,-3372.445256,0.634691,0.000000,-0.000000,0.000000
0.150000,-0.570000,0.089804,0.020000,-1166.226205,274.950000,-3126.901791,3127.626000,-1770.793956,-0.000000,0.000000,-0.000000,3594.174334,-3593.450125,2.089713,0.000000,-0.000000,0.000000
0.130000,-0.570000,0.087023,0.020000,-1176.381885,246.950000,-3290.118706,3291.060166,-1585.739847,-0.000000,0.000000,-0.000000,3653.215586,-3652.274125,2.172377,0.000000,-0.000000,0.000000
0.170000,-0.590000,0.115049,0.020000,-1115.172579,318.550000,-2806.413018,2804.473112,-1763.759328,-0.000000,0.000000,-0.000000,3312.843170,-3314.783076,0.583816,0.000000,-0.000000,0.000000
0.190000,-0.590000,0.121133,0.020000,-1103.353536,354.550000,-2640.961363,2639.320800,-1897.717832,-0.000000,0.000000,-0.000000,3250.591367,-3252.231930,0.438140,0.000000,-0.000000,0.000000
0.190000,-0.570000,0.101620,0.020000,-1142.233752,342.950000,-2765.294902,2765.662976,-2076.533123,-0.000000,0.000000,-0.000000,3458.487061,-3458.118988,1.939135,0.000000,-0.000000,0.000000
0.170000,-0.570000,0.096729,0.020000,-1154.820049,306.950000,-2950.869813,2951.421304,-1934.613173,-0.000000,0.000000,-0.000000,3529.012654,-3528.461164,2.016648,0.000000,-0.000000,0.000000
0.210000,-0.590000,0.126673,0.020000,-1090.479581,394.550000,-2471.648455,2469.296247,-2014.395141,-0.000000,0.000000,-0.000000,3186.459568,-3188.811777,0.492286,0.000000,-0.000000,0.000000
0.230000,-0.590000,0.134978,0.020000,-1076.619254,438.550000,-2307.309195,2313.532442,-2100.292944,-0.000000,0.000000,-0.000000,3125.445117,-3119.221870,-17.560432,0.000000,-0.000000,-0.000000
0.230000,-0.570000,0.116584,0.020000,-1113.819965,426.950000,-2378.816400,2378.663367,-2293.698576,-0.000000,0.000000,-0.000000,3304.383555,-3304.536588,0.477542,0.000000,-0.000000,0.000000
0.210000,-0.570000,0.108164,0.020000,-1128.541477,382.950000,-2574.686935,2572.083500,-2199.123461,-0.000000,0.000000,-0.000000,3383.730059,-3386.333495,3.917200,0.000000,-0.000000,0.000000
0.250000,-0.590000,0.141494,0.020000,-1061.842671,486.550000,-2106.748093,2111.691242,-2184.423118,-0.000000,0.000000,-0.000000,3038.998503,-3034.055354,4.022018,0.000000,-0.000000,0.000000
0.270000,-0.590000,0.149387,0.020000,-1046.220577,538.550000,-1962.408371,1973.945637,-2239.878608,-0.000000,0.000000,-0.000000,2987.401972,-2975.864707,-25.288837,0.000000,-0.000000,-0.000000
0.270000,-0.570000,0.131847,0.020000,-1081.602094,526.950000,-2002.950088,1999.682896,-2435.665945,-0.000000,0.000000,-0.000000,3150.779008,-3154.046200,-5.574153,0.000000,-0.000000,-0.000000
0.250000,-0.570000,0.122833,0.020000,-1098.147351,474.950000,-2149.499658,2166.348088,-2372.453345,-0.000000,0.000000,-0.000000,3215.415510,-3198.567080,19.420377,0.000000,-0.000000,0.000000
0.290000,-0.590000,0.159413,0.020000,-1029.823501,594.550000,-1751.226640,1720.082240,-2259.541914,-0.000000,0.000000,-0.000000,2833.636535,-2864.780935,5.965100,0.000000,-0.000000,0.000000
0.310000,-0.590000,0.167055,0.020000,-1012.720996,654.550000,-1618.172427,1624.733556,-2293.534857,-0.000000,0.000000,-0.000000,2811.883006,-2805.321877,-34.121387,0.000000,-0.000000,-0.000000
0.310000,-0.570000,0.149242,0.020000,-1046.203413,642.950000,-1637.173047,1632.714446,-2517.892881,-0.000000,0.000000,-0.000000,2999.904841,-3004.363442,-4.026672,0.000000,-0.000000,-0.000000
0.290000,-0.570000,0.140723,0.020000,-1064.262004,582.950000,-1761.311826,1752.912859,-2488.504194,-0.000000,0.000000,-0.000000,3041.795966,-3050.194932,44.817773,0.000000,-0.000000,0.000000
-0.350000,-0.550000,0.153267,0.020000,-1040.580901,763.750000,-1267.233523,1275.003205,2631.284383,-0.000000,0.000000,0.000000,2925.874942,-2918.105260,37.057368,0.000000,-0.000000,0.000000
-0.330000,-0.550000,0.141814,0.020000,-1060.883695,695.750000,-1410.321995,1389.832117,2673.604480,-0.000000,0.000000,0.000000,3007.677628,-3028.167507,-22.804706,0.000000,-0.000000,-0.000000
-0.330000,-0.530000,0.125236,0.020000,-1094.565666,684.950000,-1390.490350,1375.356543,2900.649079,-0.000000,0.000000,0.000000,3205.644694,-3220.778501,-38.904618,0.000000,-0.000000,-0.000000
-0.350000,-0.530000,0.136783,0.020000,-1073.156682,752.950000,-1256.811132,1240.088551,2867.830026,-0.000000,0.000000,0.000000,3119.351636,-3136.074217,22.088783,0.000000,-0.000000,0.000000
-0.310000,-0.550000,0.132408,0.020000,-1080.614154,631.750000,-1633.148513,1651.458492,2664.533563,-0.000000,0.000000,0.000000,3139.053103,-3120.743124,25.252802,0.000000,-0.000000,0.000000
-0.290000,-0.550000,0.123153,0.020000,-1099.694763,571.750000,-1830.854094,1828.716420,2667.035910,-0.000000,0.000000,0.000000,3233.306629,-3235.444304,3.157926,0.000000,-0.000000,0.000000
-0.290000,-0.530000,0.106421,0.020000,-1135.600015,560.950000,-1850.046680,1843.087169,2887.247092,-0.000000,0.000000,0.000000,3423.764427,-3430.723938,-1.576863,0.000000,-0.000000,-0.000000
-0.310000,-0.530000,0.114476,0.020000,-1115.408121,620.950000,-1627.931231,1630.093759,2886.846602,-0.000000,0.000000,0.000000,3315.827425,-3313.664897,4.785819,0.000000,-0.000000,0.000000
-0.270000,-0.550000,0.113096,0.020000,-1118.044534,515.750000,-2037.768776,2036.723814,2631.287458,-0.000000,0.000000,0.000000,3327.245565,-3328.290526,2.446854,0.000000,-0.000000,0.000000
-0.250000,-0.550000,0.105899,0.020000,-1135.579612,463.750000,-2253.434521,2251.964712,2577.009011,-0.000000,0.000000,0.000000,3422.074372,-3423.544181,2.767759,0.000000,-0.000000,0.000000
-0.250000,-0.530000,0.086863,0.020000,-1173.674882,452.950000,-2314.911327,2314.618218,2805.525653,-0.000000,0.000000,0.000000,3637.037268,-3637.330376,1.997269,0.000000,-0.000000,0.000000
-0.270000,-0.530000,0.095505,0.020000,-1155.052971,504.950000,-2077.207151,2076.785597,2854.662789,-0.000000,0.000000,0.000000,3530.088082,-3530.509636,1.883839,0.000000,-0.000000,0.000000
-0.230000,-0.550000,0.097065,0.020000,-1152.214034,415.750000,-2469.693878,2469.516655,2500.441247,-0.000000,0.000000,0.000000,3514.332069,-3514.509293,1.969604,0.000000,-0.000000,0.000000
-0.210000,-0.550000,0.089403,0.020000,-1167.860658,371.750000,-2687.747833,2687.901350,2400.079738,-0.000000,0.000000,0.000000,3603.516729,-3603.363213,2.039459,0.000000,-0.000000,0.000000
-0.210000,-0.530000,0.070484,0.020000,-1208.043587,360.950000,-2801.666315,2801.554501,2630.527789,-0.000000,0.000000,0.000000,3842.949726,-3843.061539,2.244604,0.000000,-0.000000,0.000000
-0.230000,-0.530000,0.079978,0.020000,-1191.370730,404.950000,-2557.321824,2557.285326,2731.403796,-0.000000,0.000000,0.000000,3741.687745,-3741.724243,2.128658,0.000000,-0.000000,0.000000
-0.190000,-0.550000,0.084349,0.020000,-1182.432250,331.750000,-2903.119737,2903.511008,2275.038569,-0.000000,0.000000,0.000000,3688.696156,-3688.304885,2.134194,0.000000,-0.000000,0.000000
-0.170000,-0.550000,0.076073,0.020000,-1195.842713,295.750000,-3112.370272,3112.848259,2124.653982,-0.000000,0.000000,0.000000,3768.857550,-3768.379562,2.270981,0.000000,-0.000000,0.000000
-0.170000,-0.530000,0.057350,0.020000,-1237.930729,284.950000,-3274.601465,3278.283573,2342.645191,-0.000000,0.000000,0.000000,4029.627297,-4025.945190,0.220639,0.000000,-0.000000,0.000000
-0.190000,-0.530000,0.065874,0.020000,-1223.595900,320.950000,-3043.193070,3044.278954,2501.290944,-0.000000,0.000000,0.000000,3940.185124,-3939.099241,2.184258,0.000000,-0.000000,0.000000
-0.150000,-0.550000,0.072522,0.020000,-1208.008497,263.750000,-3311.186207,3312.191515,1948.983512,-0.000000,0.000000,0.000000,3843.133917,-3842.128609,2.194703,0.000000,-0.000000,0.000000
-0.130000,-0.550000,0.065935,0.020000,-1218.849986,235.750000,-3497.611370,3498.062385,1748.267327,-0.000000,0.000000,0.000000,3910.633898,-3910.182883,2.772464,0.000000,-0.000000,0.000000
-0.130000,-0.530000,0.047492,0.020000,-1262.574276,224.950000,-3708.679237,3719.349783,1930.269672,-0.000000,0.000000,0.000000,4191.000120,-4180.329574,7.387529,0.000000,-0.000000,0.000000
-0.150000,-0.530000,0.052549,0.020000,-1250.953711,252.950000,-3504.281329,3506.931464,2157.205450,-0.000000,0.000000,0.000000,4117.489732,-4114.839598,-0.100432,0.000000,-0.000000,-0.000000
-0.110000,-0.550000,0.062318,0.020000,-1228.293151,211.750000,-3662.955228,3665.250439,1524.665153,-0.000000,0.000000,0.000000,3969.806049,-3967.510838,1.887102,0.000000,-0.000000,0.000000
-0.090000,-0.550000,0.058974,0.020000,-1236.270944,191.750000,-3803.214445,3809.903794,1278.578845,-0.000000,0.000000,0.000000,4018.896222,-4012.206872,1.402901,0.000000,-0.000000,0.000000
-0.090000,-0.530000,0.040852,0.020000,-1281.278196,180.950000,-3915.715054,4038.953210,1396.282414,-0.000000,0.000000,0.000000,4276.920439,-4153.682284,-5.080161,0.000000,-0.000000,-0.000000
-0.110000,-0.530000,0.042328,0.020000,-1272.707729,200.950000,-3845.399027,3897.962854,1660.287820,-0.000000,0.000000,0.000000,4238.901015,-4186.337187,17.585774,0.000000,-0.000000,0.000000
-0.070000,-0.550000,0.055231,0.020000,-1242.724821,175.750000,-3925.326784,3931.260994,1015.779835,-0.000000,0.000000,0.000000,4060.466483,-4054.532273,0.593854,0.000000,-0.000000,0.000000
-0.050000,-0.550000,0.055125,0.020000,-1247.606330,163.750000,-4018.427144,4026.357512,735.086784,-0.000000,0.000000,0.000000,4092.973287,-4085.042919,2.313256,0.000000,-0.000000,0.000000
-0.050000,-0.530000,0.037247,0.020000,-1293.469704,152.950000,-4177.087567,4284.508308,796.205477,-0.000000,0.000000,0.000000,4358.766955,-4251.346214,9.063817,0.000000,-0.000000,0.000000
-0.070000,-0.530000,0.035233,0.020000,-1288.215864,164.950000,-4053.929849,4180.448169,1114.123550,-0.000000,0.000000,0.000000,4328.522049,-4202.003730,-7.007262,0.000000,-0.000000,-0.000000
-0.030000,-0.550000,0.051284,0.020000,-1250.877558,155.750000,-4083.053283,4088.563971,445.707610,-0.000000,0.000000,0.000000,4112.802255,-4107.291567,1.339056,0.000000,-0.000000,0.000000
-0.010000,-0.550000,0.054286,0.020000,-1252.513519,151.750000,-4114.857147,4123.340609,147.163832,-0.000000,0.000000,0.000000,4125.967781,-4117.484319,2.669348,0.000000,-0.000000,0.000000
-0.010000,-0.530000,0.036431,0.020000,-1298.752851,140.950000,-4281.902207,4395.874808,159.630897,-0.000000,0.000000,0.000000,4398.808295,-4284.835694,4.156093,0.000000,-0.000000,0.000000
-0.030000,-0.530000,0.031285,0.020000,-1296.988043,144.950000,-4250.344342,4353.423115,482.044117,-0.000000,0.000000,0.000000,4380.341541,-4277.262767,6.485272,0.000000,-0.000000,0.000000
0.010000,-0.550000,0.050494,0.020000,-1252.500598,151.750000,-4115.016900,4120.319450,-152.932210,-0.000000,0.000000,-0.000000,4123.157258,-4117.854708,3.147225,0.000000,-0.000000,0.000000
0.030000,-0.550000,0.054335,0.020000,-1250.839708,155.750000,-4081.622993,4089.925738,-449.800729,-0.000000,0.000000,-0.000000,4114.609424,-4106.306678,2.733507,0.000000,-0.000000,0.000000
0.030000,-0.530000,0.036504,0.020000,-1296.950036,144.950000,-4245.687951,4357.419045,-487.609802,-0.000000,0.000000,-0.000000,4384.967645,-4273.236551,-0.917873,0.000000,-0.000000,-0.000000
0.010000,-0.530000,0.030494,0.020000,-1298.735118,140.950000,-4285.417071,4388.862108,-165.460453,-0.000000,0.000000,-0.000000,4392.016744,-4288.571708,1.735287,0.000000,-0.000000,0.000000
0.050000,-0.550000,0.052864,0.020000,-1247.543224,163.750000,-4017.765535,4023.509641,-741.630494,-0.000000,0.000000,-0.000000,4091.334196,-4085.590090,4.439609,0.000000,-0.000000,0.000000
0.070000,-0.550000,0.056666,0.020000,-1242.637496,175.750000,-3922.622711,3929.989064,-1019.267439,-0.000000,0.000000,-0.000000,4060.131534,-4052.765180,3.280535,0.000000,-0.000000,0.000000
0.070000,-0.530000,0.038686,0.020000,-1288.122454,164.950000,-4062.533428,4176.312011,-1110.317586,-0.000000,0.000000,-0.000000,4323.321186,-4209.542603,2.751883,0.000000,-0.000000,0.000000
0.050000,-0.530000,0.032865,0.020000,-1293.398619,152.950000,-4179.092586,4280.524094,-801.589357,-0.000000,0.000000,-0.000000,4355.807066,-4254.375558,-3.589856,0.000000,-0.000000,-0.000000
0.090000,-0.550000,0.058383,0.020000,-1236.159913,191.750000,-3801.684399,3807.433819,-1284.068844,-0.000000,0.000000,-0.000000,4018.280432,-4012.531013,4.438236,0.000000,-0.000000,0.000000
0.110000,-0.550000,0.062060,0.020000,-1228.159466,211.750000,-3663.602568,3663.669879,-1528.267738,-0.000000,0.000000,-0.000000,3969.646992,-3969.579681,1.617826,0.000000,-0.000000,0.000000
0.110000,-0.530000,0.043778,0.020000,-1272.562923,200.950000,-3905.918953,3913.336767,-1688.139694,-0.000000,0.000000,-0.000000,4262.224460,-4254.806646,-7.135354,0.000000,-0.000000,-0.000000
0.090000,-0.530000,0.038389,0.020000,-1281.156706,180.950000,-3982.619936,4051.652712,-1385.564024,-0.000000,0.000000,-0.000000,4283.850634,-4214.817858,-18.176262,0.000000,-0.000000,-0.000000
0.130000,-0.550000,0.067032,0.020000,-1218.694772,235.750000,-3493.081838,3494.507814,-1752.386329,-0.000000,0.000000,-0.000000,3909.351208,-3907.925231,2.720337,0.000000,-0.000000,0.000000
0.150000,-0.550000,0.070605,0.020000,-1207.832977,263.750000,-3308.292133,3308.843045,-1952.206971,-0.000000,0.000000,-0.000000,3841.854149,-3841.303237,2.167076,0.000000,-0.000000,0.000000
0.150000,-0.530000,0.052013,0.020000,-1250.763558,252.950000,-3496.233502,3499.903601,-2158.566674,-0.000000,0.000000,-0.000000,4112.293240,-4108.623140,5.210049,0.000000,-0.000000,0.000000
0.130000,-0.530000,0.047049,0.020000,-1262.405868,224.950000,-3722.607173,3711.407923,-1957.510875,-0.000000,0.000000,-0.000000,4195.323784,-4206.523034,15.376867,0.000000,-0.000000,0.000000
0.170000,-0.550000,0.078785,0.020000,-1195.648298,295.750000,-3108.535770,3109.194988,-2127.577570,-0.000000,0.000000,-0.000000,3767.506958,-3766.847739,2.255273,0.000000,-0.000000,0.000000
0.190000,-0.550000,0.082340,0.020000,-1182.220372,331.750000,-2899.387482,2899.710451,-2277.490969,-0.000000,0.000000,-0.000000,3687.212451,-3686.889482,2.120083,0.000000,-0.000000,0.000000
0.190000,-0.530000,0.063508,0.020000,-1223.367000,320.950000,-3040.020430,3039.755417,-2503.813682,-0.000000,0.000000,-0.000000,3938.140804,-3938.405816,2.208712,0.000000,-0.000000,0.000000
0.170000,-0.530000,0.058825,0.020000,-1237.720458,284.950000,-3275.170672,3276.901728,-2346.480069,-0.000000,0.000000,-0.000000,4030.551876,-4028.820821,3.135101,0.000000,-0.000000,0.000000
0.210000,-0.550000,0.090293,0.020000,-1167.632843,371.750000,-2683.863139,2684.030364,-2402.069611,-0.000000,0.000000,-0.000000,3601.958744,-3601.791519,2.028528,0.000000,-0.000000,0.000000
0.230000,-0.550000,0.097258,0.020000,-1151.971825,415.750000,-2465.806476,2465.624321,-2502.011724,-0.000000,0.000000,-0.000000,3512.715703,-3512.897858,1.902450,0.000000,-0.000000,0.000000
0.230000,-0.530000,0.078271,0.020000,-1191.109904,404.950000,-2553.057383,2552.885460,-2732.991397,-0.000000,0.000000,-0.000000,3739.820530,-3739.992452,2.119851,0.000000,-0.000000,0.000000
0.210000,-0.530000,0.073526,0.020000,-1207.797886,360.950000,-2797.086494,2797.380219,-2632.553797,-0.000000,0.000000,-0.000000,3841.350967,-3841.057242,2.229520,0.000000,-0.000000,0.000000
0.250000,-0.550000,0.104666,0.020000,-1135.324565,463.750000,-2249.563136,2248.096275,-2578.164110,-0.000000,0.000000,-0.000000,3420.401528,-3421.868388,0.907445,0.000000,-0.000000,0.000000
0.270000,-0.550000,0.115113,0.020000,-1117.778192,515.750000,-2033.974081,2032.933557,-2632.062017,-0.000000,0.000000,-0.000000,3325.541048,-3326.581573,1.027317,0.000000,-0.000000,0.000000
0.270000,-0.530000,0.096249,0.020000,-1154.767112,504.950000,-2073.043358,2072.615374,-2855.331189,-0.000000,0.000000,-0.000000,3528.175760,-3528.603744,1.879940,0.000000,-0.000000,0.000000
0.250000,-0.530000,0.087306,0.020000,-1173.400686,452.950000,-2310.607332,2310.343456,-2806.590942,-0.000000,0.000000,-0.000000,3635.145947,-3635.409822,1.990339,0.000000,-0.000000,0.000000
0.290000,-0.550000,0.122346,0.020000,-1099.418640,571.750000,-1827.171178,1825.036620,-2667.459408,-0.000000,0.000000,-0.000000,3231.577942,-3233.712500,0.118962,0.000000,-0.000000,0.000000
0.310000,-0.550000,0.132055,0.020000,-1080.329718,631.750000,-1629.571403,1647.892443,-2664.632803,-0.000000,0.000000,-0.000000,3137.294124,-3118.973084,-22.145949,0.000000,-0.000000,-0.000000
0.310000,-0.530000,0.115777,0.020000,-1115.103879,620.950000,-1624.087161,1626.243877,-2886.784548,-0.000000,0.000000,-0.000000,3313.884699,-3311.727982,-1.463143,0.000000,-0.000000,-0.000000
0.290000,-0.530000,0.104566,0.020000,-1135.304161,560.950000,-1846.026602,1839.059043,-2887.528600,-0.000000,0.000000,-0.000000,3421.827780,-3428.795338,5.117712,0.000000,-0.000000,0.000000
0.330000,-0.550000,0.143273,0.020000,-1060.592357,695.750000,-1406.948787,1386.459871,-2673.469747,-0.000000,0.000000,-0.000000,3005.972062,-3026.460978,25.717238,0.000000,-0.000000,0.000000
0.350000,-0.550000,0.152420,0.020000,-1040.284008,763.750000,-1263.984523,1271.754473,-2630.865946,-0.000000,0.000000,-0.000000,2924.120031,-2916.350081,-34.291498,0.000000,-0.000000,-0.000000
0.350000,-0.530000,0.135591,0.020000,-1072.840188,752.950000,-1253.406411,1236.674379,-2867.175480,-0.000000,0.000000,-0.000000,3117.406174,-3134.138207,-19.210189,0.000000,-0.000000,-0.000000
0.330000,-0.530000,0.125220,0.020000,-1094.254572,684.950000,-1386.943960,1371.806932,-2900.290595,-0.000000,0.000000,-0.000000,3203.755824,-3218.892852,41.930352,0.000000,-0.000000,0.000000
-0.430000,-0.510000,0.167499,0.020000,-1011.894321,1054.550000,-478.286847,486.216617,2732.510759,-0.000000,0.000000,0.000000,2778.671737,-2770.741968,13.552361,0.000000,-0.000000,0.000000
-0.410000,-0.510000,0.155138,0.020000,-1035.921434,970.550000,-593.434043,563.246409,2843.917983,-0.000000,0.000000,0.000000,2886.666579,-2916.854212,-46.190033,0.000000,-0.000000,-0.000000
-0.410000,-0.490000,0.139301,0.020000,-1065.796055,960.550000,-536.191854,519.474262,3040.999233,-0.000000,0.000000,0.000000,3078.063232,-3094.780824,-16.826609,0.000000,-0.000000,-0.000000
-0.430000,-0.490000,0.152948,0.020000,-1040.614832,1044.550000,-428.238401,409.128771,2929.745873,-0.000000,0.000000,0.000000,2949.753996,-2968.863626,34.614802,0.000000,-0.000000,0.000000
-0.390000,-0.510000,0.143912,0.020000,-1059.696868,890.550000,-803.230418,820.945009,2900.913796,-0.000000,0.000000,0.000000,3021.203198,-3003.488607,23.653087,0.000000,-0.000000,0.000000
-0.370000,-0.510000,0.130627,0.020000,-1083.153692,814.550000,-964.777566,967.931556,2999.372976,-0.000000,0.000000,0.000000,3152.756448,-3149.602459,-12.142417,0.000000,-0.000000,-0.000000
-0.370000,-0.490000,0.115628,0.020000,-1115.437564,804.550000,-898.896324,895.011676,3201.976602,-0.000000,0.000000,0.000000,3323.262898,-3327.147546,-13.815557,0.000000,-0.000000,-0.000000
-0.390000,-0.490000,0.127344,0.020000,-1090.760301,880.550000,-752.628973,731.855155,3102.373368,-0.000000,0.000000,0.000000,3179.425439,-3200.199257,27.220960,0.000000,-0.000000,0.000000
-0.350000,-0.510000,0.119231,0.020000,-1106.218899,742.550000,-1174.964277,1195.049246,3025.095855,-0.000000,0.000000,0.000000,3258.908535,-3238.823566,17.758035,0.000000,-0.000000,0.000000
-0.330000,-0.510000,0.109804,0.020000,-1128.813364,674.550000,-1392.213335,1390.160623,3089.271389,-0.000000,0.000000,0.000000,3387.039283,-3389.091995,3.186187,0.000000,-0.000000,0.000000
-0.330000,-0.490000,0.092062,0.020000,-1163.615998,664.550000,-1351.976739,1342.317852,3324.247949,-0.000000,0.000000,0.000000,3582.011565,-3591.670452,-1.357867,0.000000,-0.000000,-0.000000
-0.350000,-0.490000,0.102580,0.020000,-1139.750845,732.550000,-1119.046175,1116.721085,3258.751347,-0.000000,0.000000,0.000000,3443.996933,-3446.322023,0.565159,0.000000,-0.000000,0.000000
-0.310000,-0.510000,0.097353,0.020000,-1150.851919,610.550000,-1616.689908,1615.861689,3112.070840,-0.000000,0.000000,0.000000,3506.340608,-3507.168828,1.928102,0.000000,-0.000000,0.000000
-0.290000,-0.510000,0.087740,0.020000,-1172.243580,550.550000,-1857.552473,1856.841346,3117.631251,-0.000000,0.000000,0.000000,3628.528748,-3629.239876,1.905130,0.000000,-0.000000,0.000000
-0.290000,-0.490000,0.069793,0.020000,-1209.629614,540.550000,-1856.025329,1854.975497,3376.545530,-0.000000,0.000000,0.000000,3852.258255,-3853.308087,1.826387,0.000000,-0.000000,0.000000
-0.310000,-0.490000,0.081550,0.020000,-1186.941705,600.550000,-1593.570155,1592.665094,3356.404496,-0.000000,0.000000,0.000000,3714.849742,-3715.754802,1.983602,0.000000,-0.000000,0.000000
-0.270000,-0.510000,0.079068,0.020000,-1192.891963,494.550000,-2110.567904,2110.079357,3100.879366,-0.000000,0.000000,0.000000,3750.610865,-3751.099412,2.097629,0.000000,-0.000000,0.000000
-0.250000,-0.510000,0.068379,0.020000,-1212.695887,442.550000,-2373.449854,2372.759998,3059.207041,-0.000000,0.000000,0.000000,3871.395086,-3872.084942,1.991459,0.000000,-0.000000,0.000000
-0.250000,-0.490000,0.051052,0.020000,-1252.665926,432.550000,-2416.261034,2426.252660,3330.204628,-0.000000,0.000000,0.000000,4122.363130,-4112.371503,5.828108,0.000000,-0.000000,0.000000
-0.270000,-0.490000,0.062384,0.020000,-1231.574761,484.550000,-2134.537366,2134.278613,3372.138432,-0.000000,0.000000,0.000000,3990.735943,-3990.994696,3.012167,0.000000,-0.000000,0.000000
-0.230000,-0.510000,0.062447,0.020000,-1231.550312,394.550000,-2643.474473,2644.012044,2989.285871,-0.000000,0.000000,0.000000,3990.907982,-3990.370411,2.690530,0.000000,-0.000000,0.000000
-0.210000,-0.510000,0.052373,0.020000,-1249.347175,350.550000,-2906.939142,2918.129288,2879.767400,-0.000000,0.000000,0.000000,4101.431916,-4090.241770,6.032447,0.000000,-0.000000,0.000000
-0.210000,-0.490000,0.036303,0.020000,-1291.818347,340.550000,-2888.908217,3011.814706,3119.108095,-0.000000,0.000000,0.000000,4354.849770,-4231.943280,-14.640386,0.000000,-0.000000,-0.000000
-0.230000,-0.490000,0.042781,0.020000,-1272.787019,384.550000,-2659.826227,2727.151377,3227.873305,-0.000000,0.000000,0.000000,4237.702666,-4170.377516,9.742298,0.000000,-0.000000,0.000000
-0.190000,-0.510000,0.045982,0.020000,-1265.977359,310.550000,-3122.975573,3185.937471,2713.450018,-0.000000,0.000000,0.000000,4192.402199,-4129.440301,11.886799,0.000000,-0.000000,0.000000
-0.170000,-0.510000,0.039887,0.020000,-1281.331566,274.550000,-3310.203708,3423.201468,2548.214587,-0.000000,0.000000,0.000000,4278.789703,-4165.791943,-18.550116,0.000000,-0.000000,-0.000000
-0.170000,-0.490000,0.026323,0.020000,-1326.126361,264.550000,-3180.726632,3624.574168,2689.287346,-0.000000,0.000000,0.000000,4559.005687,-4115.158152,-4.074092,0.000000,-0.000000,-0.000000
-0.190000,-0.490000,0.026255,0.020000,-1309.632068,300.550000,-3122.201206,3334.086300,2911.630646,-0.000000,0.000000,0.000000,4453.107470,-4241.222377,25.733943,0.000000,-0.000000,0.000000
-0.150000,-0.510000,0.032609,0.020000,-1295.301384,242.550000,-3595.225699,3698.049272,2339.144983,-0.000000,0.000000,0.000000,4383.790587,-4280.967014,7.624513,0.000000,-0.000000,0.000000
-0.130000,-0.510000,0.031042,0.020000,-1307.789295,214.550000,-3835.503723,3924.365698,2085.977810,-0.000000,0.000000,0.000000,4449.487952,-4360.625977,25.882814,0.000000,-0.000000,0.000000
-0.130000,-0.490000,0.020919,0.020000,-1354.656829,204.550000,-4038.053527,4225.094299,2166.897703,-0.000000,0.000000,0.000000,4755.894179,-4568.853407,166.190464,0.000000,-0.000000,0.000000
-0.150000,-0.490000,0.012854,0.020000,-1341.110998,232.550000,-3409.827586,3881.762018,2483.760484,-0.000000,0.000000,0.000000,4647.382829,-4175.448398,-17.267499,0.000000,-0.000000,-0.000000
-0.110000,-0.510000,0.022355,0.020000,-1318.682040,190.550000,-3937.154232,4114.533143,1787.645808,-0.000000,0.000000,0.000000,4493.476723,-4316.097811,30.725574,0.000000,-0.000000,0.000000
-0.090000,-0.510000,0.025687,0.020000,-1327.929177,170.550000,-3845.286484,4312.124916,1486.602963,-0.000000,0.000000,0.000000,4574.597398,-4107.758966,-0.741102,0.000000,-0.000000,-0.000000
-0.110000,-0.490000,0.002798,0.020000,-1366.221696,180.550000,-3944.146869,4235.981820,1843.702929,-0.000000,0.000000,0.000000,4631.586969,-4339.752018,81.461810,0.000000,-0.000000,0.000000
-0.070000,-0.510000,0.015242,0.020000,-1335.378919,154.550000,-3908.608743,4446.080566,1209.649926,-0.000000,0.000000,0.000000,4617.518404,-4080.046581,-39.397180,0.000000,-0.000000,-0.000000
-0.050000,-0.510000,0.023152,0.020000,-1341.092455,142.550000,-4331.673158,4576.576517,834.248993,-0.000000,0.000000,0.000000,4653.789291,-4408.885932,46.678698,0.000000,-0.000000,0.000000
-0.030000,-0.510000,0.011286,0.020000,-1344.829946,134.550000,-4305.250958,4578.498391,505.098373,-0.000000,0.000000,0.000000,4607.083202,-4333.835770,19.156577,0.000000,-0.000000,0.000000
-0.010000,-0.510000,0.022527,0.020000,-1346.808945,130.550000,-4464.188149,4717.720228,167.209860,-0.000000,0.000000,0.000000,4720.746168,-4467.214090,12.886891,0.000000,-0.000000,0.000000
0.010000,-0.510000,0.010494,0.020000,-1346.712050,130.550000,-4335.204706,4612.704598,-173.429254,-0.000000,0.000000,-0.000000,4616.064273,-4338.564381,-2.085824,0.000000,-0.000000,-0.000000
0.030000,-0.510000,0.022645,0.020000,-1344.857021,134.550000,-4418.879404,4668.261902,-510.621936,-0.000000,0.000000,-0.000000,4696.792952,-4447.410454,-25.594085,0.000000,-0.000000,-0.000000
0.050000,-0.510000,0.012869,0.020000,-1340.961457,142.550000,-4240.182932,4506.183016,-839.845932,-0.000000,0.000000,-0.000000,4586.023944,-4320.023860,-25.468467,0.000000,-0.000000,-0.000000
0.070000,-0.510000,0.024127,0.020000,-1335.313997,154.550000,-4111.771536,4461.066145,-1179.273413,-0.000000,0.000000,-0.000000,4620.285832,-4270.991223,-19.244264,0.000000,-0.000000,-0.000000
0.090000,-0.510000,0.018405,0.020000,-1327.774584,170.550000,-4172.893047,4287.284263,-1499.686838,-0.000000,0.000000,-0.000000,4545.091182,-4430.699966,-38.780967,0.000000,-0.000000,-0.000000
0.110000,-0.510000,0.027957,0.020000,-1318.536217,190.550000,-4177.447101,4122.388545,-1908.263925,-0.000000,0.000000,-0.000000,4540.019703,-4595.078258,28.025986,0.000000,-0.000000,0.000000
0.110000,-0.490000,0.019038,0.020000,-1366.339672,180.550000,-4662.560488,4174.925128,-2302.407981,-0.000000,0.000000,-0.000000,4735.059959,-5222.695319,192.738085,0.000000,-0.000000,0.000000
0.130000,-0.510000,0.027090,0.020000,-1307.601131,214.550000,-3867.628901,3866.404675,-2194.674901,-0.000000,0.000000,-0.000000,4445.136533,-4446.360758,75.734693,0.000000,-0.000000,0.000000
0.150000,-0.510000,0.035008,0.020000,-1295.096875,242.550000,-3538.020219,3661.750701,-2363.601703,-0.000000,0.000000,-0.000000,4368.177505,-4244.447023,38.249432,0.000000,-0.000000,0.000000
0.150000,-0.490000,0.023364,0.020000,-1340.943294,232.550000,-3358.144289,3893.182599,-2511.150945,-0.000000,0.000000,-0.000000,4677.586003,-4142.547693,51.233508,0.000000,-0.000000,0.000000
0.130000,-0.490000,0.007359,0.020000,-1354.323430,204.550000,-3731.163501,3863.005701,-2431.712163,-0.000000,0.000000,-0.000000,4569.070565,-4437.228365,229.609247,0.000000,-0.000000,0.000000
0.170000,-0.510000,0.038907,0.020000,-1281.103330,274.550000,-3369.429689,3445.058477,-2544.996738,-0.000000,0.000000,-0.000000,4290.607703,-4214.978915,-8.349059,0.000000,-0.000000,-0.000000
0.190000,-0.510000,0.045679,0.020000,-1265.729732,310.550000,-3170.551581,3186.045850,-2744.866603,-0.000000,0.000000,-0.000000,4207.254427,-4191.760158,-3.727792,0.000000,-0.000000,-0.000000
0.190000,-0.490000,0.030659,0.020000,-1309.370109,300.550000,-3209.285692,3330.937482,-2955.832421,-0.000000,0.000000,-0.000000,4468.786650,-4347.134859,-21.379304,0.000000,-0.000000,-0.000000
0.170000,-0.490000,0.019160,0.020000,-1325.858291,264.550000,-3378.015592,3611.537147,-2700.229293,-0.000000,0.000000,-0.000000,4532.950255,-4299.428701,-44.391511,0.000000,-0.000000,-0.000000
0.210000,-0.510000,0.053830,0.020000,-1249.081914,350.550000,-2911.631614,2913.671965,-2892.016135,-0.000000,0.000000,-0.000000,4105.565352,-4103.525001,2.582090,0.000000,-0.000000,0.000000
0.230000,-0.510000,0.059947,0.020000,-1231.269088,394.550000,-2637.948907,2637.312832,-2990.937836,-0.000000,0.000000,-0.000000,3987.513056,-3988.149132,2.984401,0.000000,-0.000000,0.000000
0.230000,-0.490000,0.043137,0.020000,-1272.483633,384.550000,-2665.712826,2714.019327,-3240.236065,-0.000000,0.000000,-0.000000,4235.389218,-4187.082718,0.943269,0.000000,-0.000000,0.000000
0.210000,-0.490000,0.034131,0.020000,-1291.530054,340.550000,-2911.482614,3020.502147,-3121.697830,-0.000000,0.000000,-0.000000,4360.561561,-4251.542028,5.107469,0.000000,-0.000000,0.000000
0.250000,-0.510000,0.071341,0.020000,-1212.400843,442.550000,-2368.758440,2368.586857,-3060.001856,-0.000000,0.000000,-0.000000,3869.567614,-3869.739197,1.998888,0.000000,-0.000000,0.000000
0.270000,-0.510000,0.077650,0.020000,-1192.584913,494.550000,-2105.992835,2105.336532,-3101.485209,-0.000000,0.000000,-0.000000,3748.408952,-3749.065255,2.096028,0.000000,-0.000000,0.000000
0.270000,-0.490000,0.059959,0.020000,-1231.244638,484.550000,-2127.558371,2127.181423,-3372.255673,-0.000000,0.000000,-0.000000,3987.016311,-3987.393260,3.000235,0.000000,-0.000000,0.000000
0.250000,-0.490000,0.052201,0.020000,-1252.348187,432.550000,-2414.650372,2424.049514,-3333.913465,-0.000000,0.000000,-0.000000,4123.950559,-4114.551416,-2.107418,0.000000,-0.000000,-0.000000
0.290000,-0.510000,0.087748,0.020000,-1171.926384,550.550000,-1853.135149,1852.460021,-3117.684198,-0.000000,0.000000,-0.000000,3626.342740,-3627.017868,1.902653,0.000000,-0.000000,0.000000
0.310000,-0.510000,0.098632,0.020000,-1150.526334,610.550000,-1612.524662,1611.690345,-3111.795271,-0.000000,0.000000,-0.000000,3504.173788,-3505.008105,1.645233,0.000000,-0.000000,0.000000
0.310000,-0.490000,0.080506,0.020000,-1186.593106,600.550000,-1589.020675,1587.996659,-3355.946544,-0.000000,0.000000,-0.000000,3712.402353,-3713.426369,1.985036,0.000000,-0.000000,0.000000
0.290000,-0.490000,0.072562,0.020000,-1209.289329,540.550000,-1851.502835,1850.783432,-3376.208773,-0.000000,0.000000,-0.000000,3850.031607,-3850.751010,1.831246,0.000000,-0.000000,0.000000
0.330000,-0.510000,0.107857,0.020000,-1128.481058,674.550000,-1388.280499,1386.231986,-3088.667377,-0.000000,0.000000,-0.000000,3384.879762,-3386.928275,0.151914,0.000000,-0.000000,0.000000
0.350000,-0.510000,0.119740,0.020000,-1105.881440,742.550000,-1171.269897,1191.356643,-3024.229261,-0.000000,0.000000,-0.000000,3256.772469,-3236.685722,-14.623343,0.000000,-0.000000,-0.000000
0.350000,-0.490000,0.104432,0.020000,-1139.390959,732.550000,-1115.145795,1112.817320,-3257.594306,-0.000000,0.000000,-0.000000,3441.635206,-3443.963681,2.750734,0.000000,-0.000000,0.000000
0.330000,-0.490000,0.091575,0.020000,-1163.260913,664.550000,-1347.749270,1338.117920,-3323.330690,-0.000000,0.000000,-0.000000,3579.591296,-3589.222646,4.917656,0.000000,-0.000000,0.000000
0.370000,-0.510000,0.131453,0.020000,-1082.812541,814.550000,-961.401569,964.546952,-2998.291146,-0.000000,0.000000,-0.000000,3150.674725,-3147.529342,15.020109,0.000000,-0.000000,0.000000
0.390000,-0.510000,0.142436,0.020000,-1059.353378,890.550000,-800.070414,817.772571,-2899.638919,-0.000000,0.000000,-0.000000,3019.137064,-3001.434906,-20.931505,0.000000,-0.000000,-0.000000
0.390000,-0.490000,0.126973,0.020000,-1090.395365,880.550000,-749.350998,728.572314,-3100.797011,-0.000000,0.000000,-0.000000,3177.150799,-3197.929483,-24.377888,0.000000,-0.000000,-0.000000
0.370000,-0.490000,0.114517,0.020000,-1115.074436,804.550000,-895.380148,891.455250,-3200.598627,-0.000000,0.000000,-0.000000,3320.949405,-3324.874302,16.839578,0.000000,-0.000000,0.000000
0.410000,-0.510000,0.155229,0.020000,-1035.576848,970.550000,-590.594596,560.454656,-2842.565080,-0.000000,0.000000,-0.000000,2884.764178,-2914.904117,48.649203,0.000000,-0.000000,0.000000
0.430000,-0.510000,0.168706,0.020000,-1011.549778,1054.550000,-475.655380,483.577801,-2731.017939,-0.000000,0.000000,-0.000000,2776.751402,-2768.828982,-11.207388,0.000000,-0.000000,-0.000000
0.430000,-0.490000,0.152569,0.020000,-1040.250077,1044.550000,-425.543087,406.432119,-2927.912823,-0.000000,0.000000,-0.000000,2947.585644,-2966.696612,-32.179736,0.000000,-0.000000,-0.000000
0.410000,-0.490000,0.141028,0.020000,-1065.430618,960.550000,-533.300787,516.590388,-3039.281888,-0.000000,0.000000,-0.000000,3075.867105,-3092.577505,19.365896,0.000000,-0.000000,0.000000
-0.470000,-0.470000,0.165175,0.020000,-1016.417912,1214.950000,3.361742,5.546407,2791.467820,0.000000,0.000000,0.000000,2795.921894,-2787.013746,1.092333,0.000000,-0.000000,0.000000
-0.450000,-0.470000,0.151237,0.020000,-1042.979101,1122.950000,-103.864848,81.527727,2957.016675,-0.000000,0.000000,0.000000,2947.082892,-2969.420014,-35.896498,0.000000,-0.000000,-0.000000
-0.450000,-0.450000,0.136906,0.020000,-1070.729497,1113.750000,-10.239620,-7.857799,3115.376033,-0.000000,-0.000000,0.000000,3106.327324,-3124.424742,1.190911,0.000000,-0.000000,0.000000
-0.470000,-0.450000,0.152163,0.020000,-1042.987623,1205.750000,79.251268,-101.584990,2957.187799,0.000000,-0.000000,0.000000,2947.156551,-2969.490273,38.179941,0.000000,-0.000000,0.000000
-0.430000,-0.470000,0.138789,0.020000,-1069.487983,1034.950000,-265.120425,290.099952,3044.640912,-0.000000,0.000000,0.000000,3069.753991,-3044.774464,6.414404,0.000000,-0.000000,0.000000
-0.410000,-0.470000,0.124668,0.020000,-1095.886529,950.950000,-438.124628,437.306660,3182.987362,-0.000000,0.000000,0.000000,3212.533728,-3213.351697,1.629503,0.000000,-0.000000,0.000000
-0.410000,-0.450000,0.111008,0.020000,-1126.151259,941.750000,-319.576874,309.073241,3364.964549,-0.000000,0.000000,0.000000,3374.361515,-3384.865148,0.623761,0.000000,-0.000000,0.000000
-0.430000,-0.450000,0.123017,0.020000,-1098.470275,1025.750000,-148.548465,148.348031,3222.366328,-0.000000,0.000000,0.000000,3225.683103,-3225.883538,1.899392,0.000000,-0.000000,0.000000
-0.390000,-0.470000,0.111147,0.020000,-1122.109547,870.950000,-617.230909,617.751075,3291.312848,-0.000000,0.000000,0.000000,3348.996464,-3348.476298,-0.188006,0.000000,-0.000000,-0.000000
-0.370000,-0.470000,0.099827,0.020000,-1148.084222,794.950000,-819.759915,819.876928,3393.278941,-0.000000,0.000000,0.000000,3490.967291,-3490.850278,0.272264,0.000000,-0.000000,0.000000
-0.370000,-0.450000,0.083082,0.020000,-1181.058665,785.750000,-713.733798,712.357519,3610.769337,-0.000000,0.000000,0.000000,3679.812699,-3681.188978,1.702227,0.000000,-0.000000,0.000000
-0.390000,-0.450000,0.096389,0.020000,-1153.705798,861.750000,-502.932568,501.622917,3486.773438,-0.000000,0.000000,0.000000,3522.109627,-3523.419278,1.596465,0.000000,-0.000000,0.000000
-0.350000,-0.470000,0.087345,0.020000,-1173.729721,722.950000,-1044.782125,1043.481178,3484.553577,-0.000000,0.000000,0.000000,3636.975274,-3638.276220,1.861506,0.000000,-0.000000,0.000000
-0.330000,-0.470000,0.074712,0.020000,-1198.956900,654.950000,-1288.551900,1287.305258,3561.790209,-0.000000,0.000000,0.000000,3786.870080,-3788.116723,1.803947,0.000000,-0.000000,0.000000
-0.330000,-0.450000,0.059063,0.020000,-1234.812312,645.750000,-1208.110998,1208.315319,3823.565847,-0.000000,0.000000,0.000000,4010.018050,-4009.813730,3.062122,0.000000,-0.000000,0.000000
-0.350000,-0.450000,0.072899,0.020000,-1208.125504,713.750000,-948.863781,947.173910,3725.165611,-0.000000,0.000000,0.000000,3843.058681,-3844.748552,1.885192,0.000000,-0.000000,0.000000
-0.310000,-0.470000,0.065837,0.020000,-1223.668174,590.950000,-1554.319995,1552.943741,3621.698187,-0.000000,0.000000,0.000000,3940.182879,-3941.559133,2.335623,0.000000,-0.000000,0.000000
-0.290000,-0.470000,0.053329,0.020000,-1247.757417,530.950000,-1833.884249,1841.799399,3650.840855,-0.000000,0.000000,0.000000,4091.288652,-4083.373502,5.116892,0.000000,-0.000000,0.000000
-0.290000,-0.450000,0.040209,0.020000,-1286.621024,521.750000,-1713.012709,1807.094634,3902.938517,-0.000000,0.000000,0.000000,4328.469112,-4234.387186,-9.539121,0.000000,-0.000000,-0.000000
-0.310000,-0.450000,0.047340,0.020000,-1261.015132,581.750000,-1476.177583,1497.282401,3885.515459,-0.000000,0.000000,0.000000,4170.789798,-4149.684980,4.617625,0.000000,-0.000000,0.000000
-0.270000,-0.470000,0.043181,0.020000,-1271.110411,474.950000,-2092.165649,2149.565040,3623.292770,-0.000000,0.000000,0.000000,4227.065169,-4169.665778,6.903657,0.000000,-0.000000,0.000000
-0.250000,-0.470000,0.036563,0.020000,-1293.606618,422.950000,-2352.493843,2461.370252,3582.686130,-0.000000,0.000000,0.000000,4370.561270,-4261.684861,-6.592985,0.000000,-0.000000,-0.000000
-0.250000,-0.450000,0.021402,0.020000,-1335.545079,413.750000,-2124.304999,2527.558429,3772.272678,-0.000000,0.000000,0.000000,4633.293856,-4230.040426,-18.051092,0.000000,-0.000000,-0.000000
-0.270000,-0.450000,0.025247,0.020000,-1311.499081,465.750000,-1922.559196,2169.138630,3842.679880,-0.000000,0.000000,0.000000,4476.642040,-4230.062607,-3.159138,0.000000,-0.000000,-0.000000
-0.230000,-0.470000,0.023682,0.020000,-1315.108528,374.950000,-2620.875916,2817.694664,3437.109149,-0.000000,0.000000,0.000000,4480.962065,-4284.143317,38.258374,0.000000,-0.000000,0.000000
-0.210000,-0.470000,0.024181,0.020000,-1335.521187,330.950000,-2714.458307,3156.769814,3292.234067,-0.000000,0.000000,0.000000,4632.112624,-4189.801117,-9.723651,0.000000,-0.000000,-0.000000
-0.230000,-0.450000,0.009561,0.020000,-1358.523202,365.750000,-2512.607348,2865.658437,3665.048790,-0.000000,0.000000,0.000000,4722.176994,-4369.125905,32.729874,0.000000,-0.000000,0.000000
-0.190000,-0.470000,0.008019,0.020000,-1354.574021,290.950000,-3006.461535,3403.996031,3137.334454,-0.000000,0.000000,0.000000,4683.803095,-4286.268599,-28.504072,0.000000,-0.000000,-0.000000
0.170000,-0.470000,0.004523,0.020000,-1371.951367,254.950000,-3329.322800,3702.933798,-2771.639649,-0.000000,0.000000,-0.000000,4662.404575,-4288.793577,-118.985147,0.000000,-0.000000,-0.000000
0.190000,-0.470000,0.018336,0.020000,-1354.398748,290.950000,-3093.464423,3599.354847,-3121.354206,-0.000000,0.000000,-0.000000,4828.394091,-4322.503666,-81.099236,0.000000,-0.000000,-0.000000
0.210000,-0.470000,0.015236,0.020000,-1335.171697,330.950000,-2799.497462,3139.996046,-3270.228074,-0.000000,0.000000,-0.000000,4587.586077,-4247.087493,-30.383720,0.000000,-0.000000,-0.000000
0.230000,-0.470000,0.030464,0.020000,-1314.791310,374.950000,-2644.785572,2812.961283,-3468.258878,-0.000000,0.000000,-0.000000,4497.120380,-4328.944669,-26.716375,0.000000,-0.000000,-0.000000
0.230000,-0.450000,0.013635,0.020000,-1358.226651,365.750000,-2637.310414,2808.280735,-3787.260635,-0.000000,0.000000,-0.000000,4749.906340,-4578.936020,11.572072,0.000000,-0.000000,0.000000
0.250000,-0.470000,0.033023,0.020000,-1293.261693,422.950000,-2353.194010,2446.401529,-3601.546465,-0.000000,0.000000,-0.000000,4374.378586,-4281.171067,23.050403,0.000000,-0.000000,0.000000
0.270000,-0.470000,0.044280,0.020000,-1270.755512,474.950000,-2073.734569,2135.082462,-3623.578107,-0.000000,0.000000,-0.000000,4220.995879,-4159.647986,7.456360,0.000000,-0.000000,0.000000
0.270000,-0.450000,0.031268,0.020000,-1311.124963,465.750000,-1961.632113,2172.114811,-3826.852079,-0.000000,0.000000,-0.000000,4454.521872,-4244.039173,-22.840311,0.000000,-0.000000,-0.000000
0.250000,-0.450000,0.016003,0.020000,-1335.147321,413.750000,-2177.573447,2439.255158,-3801.346910,-0.000000,0.000000,-0.000000,4577.939184,-4316.257473,48.284337,0.000000,-0.000000,0.000000
0.290000,-0.470000,0.054124,0.020000,-1247.392136,530.950000,-1827.939732,1840.535466,-3645.281886,-0.000000,0.000000,-0.000000,4087.043918,-4074.448184,-4.388877,0.000000,-0.000000,-0.000000
0.310000,-0.470000,0.063515,0.020000,-1223.294725,590.950000,-1548.313421,1547.556989,-3619.991038,-0.000000,0.000000,-0.000000,3936.680781,-3937.437214,2.228905,0.000000,-0.000000,0.000000
0.310000,-0.450000,0.048858,0.020000,-1260.615107,581.750000,-1504.958246,1497.079858,-3909.584958,-0.000000,0.000000,-0.000000,4183.879394,-4191.757782,-9.392084,0.000000,-0.000000,-0.000000
0.290000,-0.450000,0.035810,0.020000,-1286.226870,521.750000,-1786.175644,1826.516863,-3912.679534,-0.000000,0.000000,-0.000000,4329.594039,-4289.252820,-28.594261,0.000000,-0.000000,-0.000000
0.330000,-0.470000,0.077064,0.020000,-1198.577354,654.950000,-1284.238507,1283.049575,-3560.557618,-0.000000,0.000000,-0.000000,3784.284569,-3785.473501,1.807373,0.000000,-0.000000,0.000000
0.350000,-0.470000,0.086835,0.020000,-1173.345846,722.950000,-1040.610421,1039.265511,-3483.082194,-0.000000,0.000000,-0.000000,3634.341923,-3635.686833,1.734703,0.000000,-0.000000,0.000000
0.350000,-0.450000,0.070531,0.020000,-1207.715969,713.750000,-944.072075,942.900793,-3722.608868,-0.000000,0.000000,-0.000000,3839.724230,-3840.895512,1.878408,0.000000,-0.000000,0.000000
0.330000,-0.450000,0.059720,0.020000,-1234.406498,645.750000,-1204.360593,1199.907732,-3826.766978,-0.000000,0.000000,-0.000000,4008.915349,-4013.368210,3.697954,0.000000,-0.000000,0.000000
0.370000,-0.470000,0.098734,0.020000,-1147.697685,794.950000,-815.975635,816.107015,-3391.535384,-0.000000,0.000000,-0.000000,3488.392906,-3488.261526,2.989937,0.000000,-0.000000,0.000000
0.390000,-0.470000,0.112945,0.020000,-1121.721860,870.950000,-613.816628,614.339186,-3289.418985,-0.000000,0.000000,-0.000000,3346.506749,-3345.984190,3.193205,0.000000,-0.000000,0.000000
0.390000,-0.450000,0.096599,0.020000,-1153.293996,861.750000,-499.384371,498.065924,-3484.507446,-0.000000,0.000000,-0.000000,3519.357305,-3520.675752,1.597993,0.000000,-0.000000,0.000000
0.370000,-0.450000,0.084751,0.020000,-1180.647212,785.750000,-709.855388,708.463974,-3608.672350,-0.000000,0.000000,-0.000000,3676.996596,-3678.388010,1.705163,0.000000,-0.000000,0.000000
0.410000,-0.470000,0.124517,0.020000,-1095.499056,950.950000,-435.053178,434.239873,-3180.972462,-0.000000,0.000000,-0.000000,3210.123228,-3210.936533,1.137725,0.000000,-0.000000,0.000000
0.430000,-0.470000,0.137452,0.020000,-1069.101950,1034.950000,-262.365410,287.321534,-3042.574138,-0.000000,0.000000,-0.000000,3067.438219,-3042.482095,-3.841948,0.000000,-0.000000,-0.000000
0.430000,-0.450000,0.123728,0.020000,-1098.061872,1025.750000,-145.765516,145.561980,-3219.943697,-0.000000,0.000000,-0.000000,3223.134919,-3223.338455,0.772170,0.000000,-0.000000,0.000000
0.410000,-0.450000,0.109179,0.020000,-1125.740526,941.750000,-316.423980,305.933470,-3362.580609,-0.000000,0.000000,-0.000000,3371.702378,-3382.192888,2.287705,0.000000,-0.000000,0.000000
0.450000,-0.470000,0.151927,0.020000,-1042.595602,1122.950000,-101.465327,79.157491,-2954.900370,-0.000000,0.000000,-0.000000,2944.879588,-2967.187424,38.187153,0.000000,-0.000000,0.000000
0.470000,-0.470000,0.165968,0.020000,-1016.037918,1214.950000,5.541729,3.357064,-2789.367288,0.000000,0.000000,-0.000000,2793.816685,-2784.917891,1.092333,0.000000,-0.000000,0.000000
0.470000,-0.450000,0.151158,0.020000,-1042.587080,1205.750000,81.433950,-103.745186,-2954.729246,0.000000,-0.000000,-0.000000,2944.805929,-2967.117165,-35.903710,0.000000,-0.000000,-0.000000
0.450000,-0.450000,0.137821,0.020000,-1070.324536,1113.750000,-7.847476,-10.229299,-3112.901489,-0.000000,-0.000000,-0.000000,3103.863101,-3121.939876,1.190911,0.000000,-0.000000,0.000000
-0.510000,-0.430000,0.167712,0.020000,-1011.926372,1392.950000,484.126318,-476.195749,2733.030477,0.000000,-0.000000,0.000000,2778.831076,-2770.900507,-11.403905,0.000000,-0.000000,-0.000000
-0.490000,-0.430000,0.152337,0.020000,-1040.640280,1292.950000,406.902586,-426.033889,2930.158626,0.000000,-0.000000,0.000000,2949.864682,-2968.995985,-32.364609,0.000000,-0.000000,-0.000000
-0.490000,-0.410000,0.139716,0.020000,-1065.831707,1284.550000,517.195039,-533.923516,3041.640363,0.000000,-0.000000,0.000000,3078.287809,-3095.016286,19.177825,0.000000,-0.000000,0.000000
-0.510000,-0.410000,0.156337,0.020000,-1035.963456,1384.550000,561.098357,-591.274928,2844.680145,0.000000,-0.000000,0.000000,2886.953769,-2917.130340,48.457075,0.000000,-0.000000,0.000000
-0.470000,-0.430000,0.138152,0.020000,-1069.505938,1196.950000,287.663804,-262.679363,3044.959586,0.000000,-0.000000,0.000000,3069.857528,-3044.873087,-3.957144,0.000000,-0.000000,-0.000000
-0.450000,-0.430000,0.124153,0.020000,-1098.479772,1104.950000,145.739783,-145.944183,3222.546202,0.000000,-0.000000,0.000000,3225.742402,-3225.946802,0.712353,0.000000,-0.000000,0.000000
-0.450000,-0.410000,0.109906,0.020000,-1126.171294,1096.550000,306.314528,-316.819356,3365.352162,0.000000,-0.000000,0.000000,3374.490842,-3384.995670,2.158426,0.000000,-0.000000,0.000000
-0.470000,-0.410000,0.124097,0.020000,-1095.914881,1188.550000,434.765629,-435.580475,3183.511400,0.000000,-0.000000,0.000000,3212.709366,-3213.524212,0.960689,0.000000,-0.000000,0.000000
-0.430000,-0.430000,0.108645,0.020000,-1127.511033,1016.950000,-2.059886,0.737270,3378.083101,-0.000000,0.000000,0.000000,3377.421793,-3378.744409,1.398578,0.000000,-0.000000,0.000000
-0.410000,-0.430000,0.094835,0.020000,-1156.541003,932.950000,-170.630833,169.256680,3534.728254,-0.000000,0.000000,0.000000,3538.123795,-3539.497948,1.526158,0.000000,-0.000000,0.000000
-0.410000,-0.410000,0.080401,0.020000,-1186.997928,924.550000,-2.388705,0.922658,3715.655710,-0.000000,0.000000,0.000000,3714.922687,-3716.388733,1.655682,0.000000,-0.000000,0.000000
-0.430000,-0.410000,0.096305,0.020000,-1156.551619,1008.550000,166.265725,-167.652003,3534.957377,0.000000,-0.000000,0.000000,3538.204538,-3539.590816,1.466256,0.000000,-0.000000,0.000000
-0.390000,-0.430000,0.083567,0.020000,-1185.502196,852.950000,-363.246628,361.689153,3689.147368,-0.000000,0.000000,0.000000,3706.132164,-3707.689640,1.684560,0.000000,-0.000000,0.000000
-0.370000,-0.430000,0.068115,0.020000,-1214.317536,776.950000,-581.689754,580.545801,3837.697498,-0.000000,0.000000,0.000000,3880.873011,-3882.016965,2.182091,0.000000,-0.000000,0.000000
-0.370000,-0.410000,0.056363,0.020000,-1247.807907,768.550000,-413.736755,430.812331,4056.948908,-0.000000,0.000000,0.000000,4087.400950,-4070.325374,5.053411,0.000000,-0.000000,0.000000
-0.390000,-0.410000,0.066739,0.020000,-1217.442706,844.550000,-197.003589,195.496078,3896.231502,-0.000000,0.000000,0.000000,3900.416862,-3901.924373,1.314780,0.000000,-0.000000,0.000000
-0.350000,-0.430000,0.055240,0.020000,-1242.899593,704.950000,-817.314465,830.806587,3964.031525,-0.000000,0.000000,0.000000,4055.525716,-4042.033593,2.233738,0.000000,-0.000000,0.000000
-0.330000,-0.430000,0.046850,0.020000,-1271.150312,636.950000,-1045.646888,1117.982519,4048.531303,-0.000000,0.000000,0.000000,4226.743381,-4154.407750,-2.278306,0.000000,-0.000000,-0.000000
-0.330000,-0.410000,0.028289,0.020000,-1307.927033,628.550000,-783.659015,1072.243959,4199.242861,-0.000000,0.000000,0.000000,4444.833433,-4156.248489,9.055939,0.000000,-0.000000,0.000000
-0.350000,-0.410000,0.039857,0.020000,-1278.003178,696.550000,-621.069716,714.202438,4164.898993,-0.000000,0.000000,0.000000,4264.633175,-4171.500453,5.822987,0.000000,-0.000000,0.000000
-0.310000,-0.430000,0.030784,0.020000,-1298.956963,572.950000,-1296.386589,1432.029641,4109.725963,-0.000000,0.000000,0.000000,4398.051499,-4262.408447,-4.433388,0.000000,-0.000000,-0.000000
-0.290000,-0.430000,0.022368,0.020000,-1326.206025,512.950000,-1505.506999,1767.194584,4094.797539,-0.000000,0.000000,0.000000,4540.459652,-4278.772066,-17.285147,0.000000,-0.000000,-0.000000
-0.290000,-0.410000,0.002619,0.020000,-1366.362000,504.550000,-1258.658301,1657.662538,4221.090481,-0.000000,0.000000,0.000000,4665.246733,-4266.242495,-31.011311,0.000000,-0.000000,-0.000000
-0.310000,-0.410000,0.021311,0.020000,-1337.480622,564.550000,-953.175977,1477.782371,4238.137378,-0.000000,0.000000,0.000000,4671.269973,-4146.663578,14.492486,0.000000,-0.000000,0.000000
-0.270000,-0.430000,0.014500,0.020000,-1352.762661,456.950000,-1668.349665,2193.374440,4093.258128,-0.000000,0.000000,0.000000,4788.156636,-4263.131860,-39.172776,0.000000,-0.000000,-0.000000
0.270000,-0.430000,0.011428,0.020000,-1352.315551,456.950000,-1997.446847,2150.961280,-4063.701824,-0.000000,0.000000,-0.000000,4638.054418,-4484.539986,-102.775715,0.000000,-0.000000,-0.000000
0.290000,-0.430000,0.020864,0.020000,-1325.778739,512.950000,-1823.806264,1737.316941,-4216.194251,-0.000000,0.000000,-0.000000,4532.961493,-4619.450816,-70.928190,0.000000,-0.000000,-0.000000
0.310000,-0.430000,0.034536,0.020000,-1298.530960,572.950000,-1396.216498,1394.809505,-4205.013246,-0.000000,0.000000,-0.000000,4429.823500,-4431.230492,4.844876,0.000000,-0.000000,0.000000
0.310000,-0.410000,0.015068,0.020000,-1336.986106,564.550000,-1250.895345,1179.983257,-4440.971836,-0.000000,0.000000,-0.000000,4568.657016,-4639.569103,40.822490,0.000000,-0.000000,0.000000
0.290000,-0.410000,0.019704,0.020000,-1366.206779,504.550000,-1935.697224,1555.339240,-4668.766700,-0.000000,0.000000,-0.000000,4793.390606,-5173.748590,-90.832009,0.000000,-0.000000,-0.000000
0.330000,-0.430000,0.042437,0.020000,-1270.715595,636.950000,-1061.017235,1081.149211,-4079.620658,-0.000000,0.000000,-0.000000,4227.896715,-4207.764739,20.686696,0.000000,-0.000000,0.000000
0.350000,-0.430000,0.056648,0.020000,-1242.462724,704.950000,-819.717528,830.186317,-3964.702647,-0.000000,0.000000,-0.000000,4054.852146,-4044.383357,-2.970343,0.000000,-0.000000,-0.000000
0.350000,-0.410000,0.042254,0.020000,-1277.537679,696.550000,-631.258151,703.561212,-4180.628521,-0.000000,0.000000,-0.000000,4269.717486,-4197.414426,-3.131170,0.000000,-0.000000,-0.000000
0.330000,-0.410000,0.028900,0.020000,-1307.463609,628.550000,-837.717747,975.038243,-4268.723990,-0.000000,0.000000,-0.000000,4432.466345,-4295.145849,26.868501,0.000000,-0.000000,0.000000
0.370000,-0.430000,0.068981,0.020000,-1213.879587,776.950000,-577.492226,575.419315,-3836.150272,-0.000000,0.000000,-0.000000,3878.183226,-3880.256137,2.196976,0.000000,-0.000000,0.000000
0.390000,-0.430000,0.080914,0.020000,-1185.064860,852.950000,-359.510620,358.092807,-3686.265723,-0.000000,0.000000,-0.000000,3702.977205,-3704.395018,1.683742,0.000000,-0.000000,0.000000
0.390000,-0.410000,0.067548,0.020000,-1216.978393,844.550000,-194.333848,192.607144,-3893.337908,-0.000000,0.000000,-0.000000,3897.278406,-3899.005110,1.316496,0.000000,-0.000000,0.000000
0.370000,-0.410000,0.052669,0.020000,-1247.341648,768.550000,-410.747753,419.038276,-4060.255174,-0.000000,0.000000,-0.000000,4085.542252,-4077.251728,2.627609,0.000000,-0.000000,0.000000
0.410000,-0.430000,0.095581,0.020000,-1156.105753,932.950000,-167.444229,166.066681,-3531.960263,-0.000000,0.000000,-0.000000,3535.205504,-3536.583052,1.526796,0.000000,-0.000000,0.000000
0.430000,-0.430000,0.109745,0.020000,-1127.079149,1016.950000,0.737471,-2.059751,-3375.290189,0.000000,-0.000000,-0.000000,3374.629049,-3375.951329,1.398611,0.000000,-0.000000,0.000000
0.430000,-0.410000,0.094590,0.020000,-1156.095137,1008.550000,169.057673,-170.422664,-3531.730558,0.000000,-0.000000,-0.000000,3535.124387,-3536.489378,1.465467,0.000000,-0.000000,0.000000
0.410000,-0.410000,0.081813,0.020000,-1186.536883,924.550000,0.867841,-2.446819,-3712.573290,0.000000,-0.000000,-0.000000,3711.783801,-3713.362779,1.657330,0.000000,-0.000000,0.000000
0.450000,-0.430000,0.122874,0.020000,-1098.052374,1104.950000,148.170229,-148.369790,-3219.763810,0.000000,-0.000000,-0.000000,3223.075611,-3223.275172,1.839573,0.000000,-0.000000,0.000000
0.470000,-0.430000,0.137666,0.020000,-1069.083995,1196.950000,289.757681,-264.806471,-3042.255465,0.000000,-0.000000,-0.000000,3067.334683,-3042.383473,6.299207,0.000000,-0.000000,0.000000
0.470000,-0.410000,0.125917,0.020000,-1095.470705,1188.550000,436.780908,-437.597340,-3180.448430,0.000000,-0.000000,-0.000000,3209.947596,-3210.764028,1.452471,0.000000,-0.000000,0.000000
0.450000,-0.410000,0.109550,0.020000,-1125.720491,1096.550000,308.692110,-319.181477,-3362.193059,0.000000,-0.000000,-0.000000,3371.573084,-3382.062450,0.494430,0.000000,-0.000000,0.000000
0.490000,-0.430000,0.153642,0.020000,-1040.224629,1292.950000,408.658304,-427.747599,-2927.500070,0.000000,-0.000000,-0.000000,2947.474958,-2966.564253,34.429929,0.000000,-0.000000,0.000000
0.510000,-0.430000,0.168073,0.020000,-1011.517728,1392.950000,485.668099,-477.746478,-2730.498221,0.000000,-0.000000,-0.000000,2776.592064,-2768.670443,13.355844,0.000000,-0.000000,0.000000
0.510000,-0.410000,0.154766,0.020000,-1035.534826,1384.550000,562.602708,-592.753711,-2841.802918,0.000000,-0.000000,-0.000000,2884.476988,-2914.627990,-46.382161,0.000000,-0.000000,-0.000000
0.490000,-0.410000,0.139791,0.020000,-1065.394965,1284.550000,518.869612,-535.569125,-3038.640756,0.000000,-0.000000,-0.000000,3075.642528,-3092.342041,-17.014679,0.000000,-0.000000,-0.000000
-0.510000,-0.390000,0.142732,0.020000,-1059.749713,1376.550000,818.726159,-801.004722,2901.805590,0.000000,-0.000000,0.000000,3021.485006,-3003.763569,-21.274790,0.000000,-0.000000,-0.000000
-0.490000,-0.390000,0.128242,0.020000,-1090.807087,1276.550000,729.442914,-750.243649,3103.211197,0.000000,-0.000000,0.000000,3179.690219,-3200.490954,-24.695351,0.000000,-0.000000,-0.000000
-0.490000,-0.370000,0.114546,0.020000,-1115.496449,1268.950000,892.535477,-896.459098,3203.097479,0.000000,-0.000000,0.000000,3323.648974,-3327.572596,16.485261,0.000000,-0.000000,0.000000
-0.510000,-0.370000,0.130565,0.020000,-1083.218234,1368.950000,965.682463,-962.532951,3000.535487,0.000000,-0.000000,0.000000,3153.162066,-3150.012554,14.639102,0.000000,-0.000000,0.000000
-0.470000,-0.390000,0.111867,0.020000,-1122.149310,1180.550000,615.094261,-614.572119,3292.072391,0.000000,-0.000000,0.000000,3349.253731,-3348.731589,2.940303,0.000000,-0.000000,0.000000
-0.450000,-0.390000,0.095883,0.020000,-1153.737475,1088.550000,498.705201,-500.014833,3487.403036,0.000000,-0.000000,0.000000,3522.318141,-3523.627772,1.381125,0.000000,-0.000000,0.000000
-0.450000,-0.370000,0.084307,0.020000,-1181.103148,1080.950000,709.301302,-710.737235,3611.758240,0.000000,-0.000000,0.000000,3680.168180,-3681.604112,1.458233,0.000000,-0.000000,0.000000
-0.470000,-0.370000,0.099972,0.020000,-1148.136456,1172.950000,817.128327,-817.002553,3394.295591,0.000000,-0.000000,0.000000,3491.313595,-3491.187821,2.642453,0.000000,-0.000000,0.000000
-0.430000,-0.390000,0.081688,0.020000,-1185.524622,1000.550000,358.600773,-360.067074,3689.507281,0.000000,-0.000000,0.000000,3706.230929,-3707.697230,1.469558,0.000000,-0.000000,0.000000
-0.410000,-0.390000,0.068812,0.020000,-1217.454626,916.550000,191.924073,-194.346726,3897.570102,0.000000,-0.000000,0.000000,3901.140594,-3903.563247,1.862651,0.000000,-0.000000,0.000000
-0.410000,-0.370000,0.053539,0.020000,-1247.833019,908.950000,425.758279,-416.400888,4063.535454,0.000000,-0.000000,0.000000,4089.971612,-4080.614222,-3.190949,0.000000,-0.000000,-0.000000
-0.430000,-0.370000,0.067728,0.020000,-1214.353041,992.950000,576.567543,-577.866371,3838.591331,0.000000,-0.000000,0.000000,3881.097558,-3882.396386,1.808416,0.000000,-0.000000,0.000000
-0.390000,-0.390000,0.052200,0.020000,-1249.460883,836.550000,-1.136006,9.483756,4095.896201,-0.000000,0.000000,0.000000,4100.070076,-4091.722326,5.309881,0.000000,-0.000000,0.000000
-0.370000,-0.390000,0.038918,0.020000,-1281.465278,760.550000,-198.997396,277.663966,4242.978630,-0.000000,0.000000,0.000000,4288.974319,-4210.307750,14.840690,0.000000,-0.000000,0.000000
-0.370000,-0.370000,0.024194,0.020000,-1315.209721,752.950000,69.212727,108.553883,4405.797953,0.000000,0.000000,0.000000,4494.681258,-4316.914648,19.670578,0.000000,-0.000000,0.000000
-0.390000,-0.370000,0.042374,0.020000,-1281.479463,828.950000,258.108385,-188.213845,4257.517655,0.000000,-0.000000,0.000000,4298.309360,-4228.414820,1.072562,0.000000,-0.000000,0.000000
-0.350000,-0.390000,0.030425,0.020000,-1313.381544,688.550000,-352.361055,603.569182,4327.175610,-0.000000,0.000000,0.000000,4479.088073,-4227.879946,8.740274,0.000000,-0.000000,0.000000
-0.330000,-0.390000,0.011722,0.020000,-1345.059113,620.550000,-521.947608,1048.394263,4339.499497,-0.000000,0.000000,0.000000,4672.826985,-4146.380331,56.079006,0.000000,-0.000000,0.000000
-0.350000,-0.370000,0.013234,0.020000,-1348.937191,680.950000,-151.295062,414.383570,4513.619022,-0.000000,0.000000,0.000000,4653.904366,-4390.815857,31.839895,0.000000,-0.000000,0.000000
0.330000,-0.390000,0.020308,0.020000,-1344.625511,620.550000,-592.057671,898.586104,-4479.662745,-0.000000,0.000000,-0.000000,4694.502132,-4387.973699,6.419834,0.000000,-0.000000,0.000000
0.350000,-0.390000,0.024517,0.020000,-1312.875019,688.550000,-362.842972,538.662466,-4364.934073,-0.000000,0.000000,-0.000000,4475.998904,-4300.179410,22.383672,0.000000,-0.000000,0.000000
0.350000,-0.370000,0.014721,0.020000,-1348.421279,680.950000,-65.995085,332.688803,-4533.350083,-0.000000,0.000000,-0.000000,4670.772439,-4404.078721,52.624046,0.000000,-0.000000,0.000000
0.370000,-0.390000,0.039871,0.020000,-1280.969672,760.550000,-169.190421,249.685919,-4241.774570,-0.000000,0.000000,-0.000000,4287.166784,-4206.671285,13.948504,0.000000,-0.000000,0.000000
0.390000,-0.390000,0.054247,0.020000,-1248.968207,836.550000,13.223984,3.759519,-4085.688219,0.000000,-0.000000,-0.000000,4094.179971,-4077.196468,4.732232,0.000000,-0.000000,0.000000
0.390000,-0.370000,0.038026,0.020000,-1280.955457,828.950000,268.252113,-179.395876,-4229.131738,0.000000,-0.000000,-0.000000,4279.478445,-4190.622208,1.082361,0.000000,-0.000000,0.000000
0.370000,-0.370000,0.028144,0.020000,-1314.689863,752.950000,144.475102,108.543916,-4361.765123,0.000000,0.000000,-0.000000,4488.274632,-4235.255614,17.965593,0.000000,-0.000000,0.000000
0.410000,-0.390000,0.066307,0.020000,-1216.966472,916.550000,196.051434,-197.102400,-3892.225801,0.000000,-0.000000,-0.000000,3896.660781,-3897.711747,1.841616,0.000000,-0.000000,0.000000
0.430000,-0.390000,0.081551,0.020000,-1185.042434,1000.550000,361.178803,-362.688848,-3685.907566,0.000000,-0.000000,-0.000000,3702.879479,-3704.389524,1.468359,0.000000,-0.000000,0.000000
0.430000,-0.370000,0.070117,0.020000,-1213.844081,992.950000,579.463550,-581.277184,-3835.156372,0.000000,-0.000000,-0.000000,3877.913988,-3879.727622,1.822079,0.000000,-0.000000,0.000000
0.410000,-0.370000,0.053851,0.020000,-1247.316540,908.950000,424.666160,-409.133853,-4054.116318,0.000000,-0.000000,-0.000000,4083.261796,-4067.729489,-0.003171,0.000000,-0.000000,-0.000000
0.450000,-0.390000,0.098099,0.020000,-1153.262319,1088.550000,500.983954,-502.302491,-3483.877997,0.000000,-0.000000,-0.000000,3519.148953,-3520.467490,1.379921,0.000000,-0.000000,0.000000
0.470000,-0.390000,0.111510,0.020000,-1121.682097,1180.550000,616.996033,-616.475402,-3288.659378,0.000000,-0.000000,-0.000000,3346.249446,-3345.728814,-0.440888,0.000000,-0.000000,-0.000000
0.470000,-0.370000,0.098685,0.020000,-1147.645451,1172.950000,818.855295,-818.732851,-3390.518903,0.000000,-0.000000,-0.000000,3488.046624,-3487.924179,-0.075487,0.000000,-0.000000,-0.000000
0.450000,-0.370000,0.083232,0.020000,-1180.602729,1080.950000,711.520161,-712.851046,-3607.681848,0.000000,-0.000000,-0.000000,3676.639893,-3677.970778,1.455147,0.000000,-0.000000,0.000000
0.490000,-0.390000,0.126672,0.020000,-1090.348578,1276.550000,730.984549,-751.736318,-3099.959182,0.000000,-0.000000,-0.000000,3176.886016,-3197.637785,26.903492,0.000000,-0.000000,0.000000
0.510000,-0.390000,0.143028,0.020000,-1059.300534,1376.550000,819.991421,-802.296109,-2898.747126,0.000000,-0.000000,-0.000000,3018.855257,-3001.159946,23.309802,0.000000,-0.000000,0.000000
0.510000,-0.370000,0.131638,0.020000,-1082.747999,1368.950000,966.796049,-963.646187,-2997.128633,0.000000,-0.000000,-0.000000,3150.269107,-3147.119244,-12.523420,0.000000,-0.000000,-0.000000
0.490000,-0.370000,0.115542,0.020000,-1115.015551,1268.950000,893.931449,-897.817391,-3199.477782,0.000000,-0.000000,-0.000000,3320.563353,-3324.449295,-14.169874,0.000000,-0.000000,-0.000000
-0.550000,-0.350000,0.152422,0.020000,-1040.665728,1573.750000,1273.178040,-1265.401054,2632.635470,0.000000,-0.000000,0.000000,2926.327963,-2918.550976,-34.828449,0.000000,-0.000000,-0.000000
-0.530000,-0.350000,0.136377,0.020000,-1073.238066,1465.750000,1238.093151,-1254.840062,2869.219537,0.000000,-0.000000,0.000000,3119.838639,-3136.585549,-19.719227,0.000000,-0.000000,-0.000000
-0.530000,-0.330000,0.124735,0.020000,-1094.659937,1458.950000,1373.386792,-1388.537930,2902.314213,0.000000,-0.000000,0.000000,3206.264959,-3221.416097,41.399207,0.000000,-0.000000,0.000000
-0.550000,-0.330000,0.142101,0.020000,-1060.980807,1566.950000,1388.019647,-1408.528881,2675.225529,0.000000,-0.000000,0.000000,3008.249915,-3028.759149,25.158251,0.000000,-0.000000,0.000000
-0.510000,-0.350000,0.120506,0.020000,-1106.296032,1361.750000,1192.774733,-1172.668220,3026.469760,0.000000,-0.000000,0.000000,3259.379392,-3239.272879,-15.131543,0.000000,-0.000000,-0.000000
-0.490000,-0.350000,0.102934,0.020000,-1139.822823,1261.750000,1114.180530,-1116.512621,3260.127124,0.000000,-0.000000,0.000000,3444.472015,-3446.804107,2.280955,0.000000,-0.000000,0.000000
-0.490000,-0.330000,0.093227,0.020000,-1163.702080,1254.950000,1339.780862,-1349.433623,3325.908203,0.000000,-0.000000,0.000000,3582.598213,-3592.250974,4.335743,0.000000,-0.000000,0.000000
-0.510000,-0.330000,0.108282,0.020000,-1128.903993,1354.950000,1387.896263,-1389.946594,3090.929517,0.000000,-0.000000,0.000000,3387.624687,-3389.675018,-0.440135,0.000000,-0.000000,-0.000000
-0.470000,-0.350000,0.086423,0.020000,-1173.795528,1165.750000,1040.615719,-1041.921571,3485.867946,0.000000,-0.000000,0.000000,3637.411689,-3638.717541,1.258071,0.000000,-0.000000,0.000000
-0.450000,-0.350000,0.071712,0.020000,-1208.184004,1073.750000,944.410886,-945.646969,3725.902507,0.000000,-0.000000,0.000000,3843.263817,-3844.499899,1.194118,0.000000,-0.000000,0.000000
-0.450000,-0.330000,0.058457,0.020000,-1234.886077,1066.950000,1202.614122,-1203.210282,3825.913612,0.000000,-0.000000,0.000000,4010.263657,-4010.859817,2.699390,0.000000,-0.000000,0.000000
-0.470000,-0.330000,0.075787,0.020000,-1199.037416,1158.950000,1284.441419,-1285.823187,3563.609308,0.000000,-0.000000,0.000000,3787.563892,-3788.945660,1.443912,0.000000,-0.000000,0.000000
-0.430000,-0.350000,0.057456,0.020000,-1242.949604,985.750000,831.013218,-815.460897,3963.868263,0.000000,-0.000000,0.000000,4056.228795,-4040.676473,-1.460555,0.000000,-0.000000,-0.000000
-0.410000,-0.350000,0.039756,0.020000,-1278.043096,901.750000,717.077235,-636.125431,4171.818230,0.000000,-0.000000,0.000000,4266.783035,-4185.831231,-13.591436,0.000000,-0.000000,-0.000000
-0.410000,-0.330000,0.033086,0.020000,-1307.987127,894.950000,1048.399988,-799.032552,4215.205354,0.000000,-0.000000,0.000000,4439.913219,-4190.545784,-1.507097,0.000000,-0.000000,-0.000000
-0.430000,-0.330000,0.043484,0.020000,-1271.215708,978.950000,1102.867566,-1043.339391,4057.257965,0.000000,-0.000000,0.000000,4226.515873,-4166.987698,12.950436,0.000000,-0.000000,0.000000
-0.390000,-0.350000,0.025688,0.020000,-1313.403847,821.750000,574.585558,-389.083694,4364.072635,0.000000,-0.000000,0.000000,4483.334087,-4297.832222,-8.609989,0.000000,-0.000000,-0.000000
-0.370000,-0.350000,0.021357,0.020000,-1349.009388,745.750000,359.781475,-125.234738,4605.397598,0.000000,-0.000000,0.000000,4729.031635,-4494.484899,13.524001,0.000000,-0.000000,0.000000
-0.390000,-0.330000,0.013192,0.020000,-1345.116778,814.950000,996.914816,-591.466747,4382.974427,0.000000,-0.000000,0.000000,4656.695909,-4251.247840,-57.778589,0.000000,-0.000000,-0.000000
0.370000,-0.350000,0.009764,0.020000,-1348.357311,745.750000,385.559734,-89.592148,-4454.415520,0.000000,-0.000000,-0.000000,4608.719002,-4312.751416,-10.067135,0.000000,-0.000000,-0.000000
0.390000,-0.350000,0.027373,0.020000,-1312.852852,821.750000,568.886694,-329.008047,-4330.235900,0.000000,-0.000000,-0.000000,4473.337877,-4233.459230,-20.438276,0.000000,-0.000000,-0.000000
0.390000,-0.330000,0.017396,0.020000,-1344.563910,814.950000,1004.622355,-516.834192,-4414.602734,0.000000,-0.000000,-0.000000,4723.519389,-4235.731225,19.542603,0.000000,-0.000000,0.000000
0.410000,-0.350000,0.042539,0.020000,-1277.497766,901.750000,703.542192,-618.262059,-4172.683308,0.000000,-0.000000,-0.000000,4267.338092,-4182.057959,-2.049032,0.000000,-0.000000,-0.000000
0.430000,-0.350000,0.054961,0.020000,-1242.412710,985.750000,829.952830,-821.177698,-3964.504127,0.000000,-0.000000,-0.000000,4053.935434,-4045.160302,3.611213,0.000000,-0.000000,0.000000
0.430000,-0.330000,0.043875,0.020000,-1270.650212,978.950000,1109.767571,-1059.456213,-4057.639584,0.000000,-0.000000,-0.000000,4225.253084,-4174.941726,-1.932449,0.000000,-0.000000,-0.000000
0.410000,-0.330000,0.026717,0.020000,-1307.403415,894.950000,1035.726280,-816.586520,-4231.526937,0.000000,-0.000000,-0.000000,4441.265361,-4222.125600,0.402625,0.000000,-0.000000,0.000000
0.450000,-0.350000,0.070936,0.020000,-1207.657470,1073.750000,945.654120,-947.287313,-3721.881821,0.000000,-0.000000,-0.000000,3839.523192,-3841.156384,1.193015,0.000000,-0.000000,0.000000
0.470000,-0.350000,0.088561,0.020000,-1173.280040,1165.750000,1042.132152,-1043.472105,-3481.768164,0.000000,-0.000000,-0.000000,3633.906189,-3635.246142,1.385885,0.000000,-0.000000,0.000000
0.470000,-0.330000,0.075146,0.020000,-1198.496838,1158.950000,1285.907533,-1286.969358,-3558.744364,0.000000,-0.000000,-0.000000,3783.591609,-3784.653434,1.436741,0.000000,-0.000000,0.000000
0.450000,-0.330000,0.061481,0.020000,-1234.332734,1066.950000,1207.032149,-1207.794127,-3821.651384,0.000000,-0.000000,-0.000000,4007.468500,-4008.230477,2.874542,0.000000,-0.000000,0.000000
0.490000,-0.350000,0.103382,0.020000,-1139.318981,1261.750000,1115.358012,-1117.679331,-3256.218358,0.000000,-0.000000,-0.000000,3441.160059,-3443.481378,0.095492,0.000000,-0.000000,0.000000
0.510000,-0.350000,0.118974,0.020000,-1105.804306,1361.750000,1193.631142,-1173.565940,-3022.855351,0.000000,-0.000000,-0.000000,3256.301601,-3236.236399,17.249825,0.000000,-0.000000,0.000000
0.510000,-0.330000,0.108540,0.020000,-1128.390430,1354.950000,1388.496333,-1390.547277,-3087.009318,0.000000,-0.000000,-0.000000,3384.294402,-3386.345346,2.594121,0.000000,-0.000000,0.000000
0.490000,-0.330000,0.091181,0.020000,-1163.174831,1254.950000,1340.654066,-1350.292024,-3321.670772,0.000000,-0.000000,-0.000000,3579.004491,-3588.642449,-1.940466,0.000000,-0.000000,-0.000000
0.530000,-0.350000,0.135727,0.020000,-1072.758804,1465.750000,1238.669777,-1255.377481,-2865.785971,0.000000,-0.000000,-0.000000,3116.919172,-3133.626876,21.579744,0.000000,-0.000000,0.000000
0.550000,-0.350000,0.153260,0.020000,-1040.199181,1573.750000,1273.579638,-1265.816992,-2629.514859,0.000000,-0.000000,-0.000000,2923.667011,-2915.904365,36.520416,0.000000,-0.000000,0.000000
0.550000,-0.330000,0.142420,0.020000,-1060.495244,1566.950000,1388.272341,-1408.741902,-2671.848698,0.000000,-0.000000,-0.000000,3005.399775,-3025.869336,-23.363692,0.000000,-0.000000,-0.000000
0.530000,-0.330000,0.126681,0.020000,-1094.160300,1458.950000,1373.776689,-1388.896382,-2898.625460,0.000000,-0.000000,-0.000000,3203.135562,-3218.255255,-39.435759,0.000000,-0.000000,-0.000000
-0.590000,-0.310000,0.166922,0.020000,-1013.082374,1788.550000,1626.444625,-1619.878166,2294.832723,0.000000,-0.000000,0.000000,2813.923665,-2807.357207,-34.791968,0.000000,-0.000000,-0.000000
-0.570000,-0.310000,0.149715,0.020000,-1046.581023,1672.550000,1634.481192,-1638.935902,2519.425714,0.000000,-0.000000,0.000000,3002.152605,-3006.607314,-4.675052,0.000000,-0.000000,-0.000000
-0.570000,-0.290000,0.139976,0.020000,-1064.644351,1666.550000,1754.805317,-1763.207564,2489.928467,0.000000,-0.000000,0.000000,3044.060739,-3052.462986,44.125295,0.000000,-0.000000,0.000000
-0.590000,-0.290000,0.158245,0.020000,-1030.189073,1782.550000,1721.897482,-1753.072909,2260.722305,0.000000,-0.000000,0.000000,2835.673889,-2866.849316,5.236591,0.000000,-0.000000,0.000000
-0.550000,-0.310000,0.133289,0.020000,-1080.724259,1560.550000,1649.746556,-1631.410584,2666.330904,0.000000,-0.000000,0.000000,3139.710523,-3121.374551,-22.846447,0.000000,-0.000000,-0.000000
-0.530000,-0.310000,0.115407,0.020000,-1115.516078,1452.550000,1628.137438,-1625.978218,2888.736856,0.000000,-0.000000,0.000000,3316.515200,-3314.355980,-2.155521,0.000000,-0.000000,-0.000000
-0.530000,-0.290000,0.105339,0.020000,-1135.722438,1446.550000,1841.208395,-1848.179334,2889.404994,0.000000,-0.000000,0.000000,3424.566168,-3431.537107,4.317832,0.000000,-0.000000,0.000000
-0.550000,-0.290000,0.122249,0.020000,-1099.818542,1554.550000,1827.089456,-1829.226802,2669.086005,0.000000,-0.000000,0.000000,3234.079208,-3236.216555,-0.657164,0.000000,-0.000000,-0.000000
-0.510000,-0.310000,0.097391,0.020000,-1150.956946,1348.550000,1613.628064,-1614.465318,3114.022108,0.000000,-0.000000,0.000000,3507.041923,-3507.879177,0.949080,0.000000,-0.000000,0.000000
-0.490000,-0.310000,0.080320,0.020000,-1187.042908,1248.550000,1590.036886,-1590.977024,3358.401614,0.000000,-0.000000,0.000000,3715.518663,-3716.458802,1.230873,0.000000,-0.000000,0.000000
-0.490000,-0.290000,0.070791,0.020000,-1209.746966,1242.550000,1852.707790,-1853.823821,3378.993696,0.000000,-0.000000,0.000000,3853.296007,-3854.412038,1.310533,0.000000,-0.000000,0.000000
-0.510000,-0.290000,0.089695,0.020000,-1172.363896,1342.550000,1854.713870,-1855.399192,3119.857116,0.000000,-0.000000,0.000000,3629.360083,-3630.045405,1.072430,0.000000,-0.000000,0.000000
-0.470000,-0.310000,0.064943,0.020000,-1223.764534,1152.550000,1550.614924,-1551.125167,3622.821457,0.000000,-0.000000,0.000000,3940.561138,-3941.071381,0.645384,0.000000,-0.000000,0.000000
-0.450000,-0.310000,0.049919,0.020000,-1261.105738,1060.550000,1500.842032,-1481.658850,3892.232331,0.000000,-0.000000,0.000000,4177.715728,-4158.532546,-6.447934,0.000000,-0.000000,-0.000000
-0.450000,-0.290000,0.036659,0.020000,-1286.728170,1054.550000,1819.680942,-1727.000690,3894.855665,0.000000,-0.000000,0.000000,4325.896585,-4233.216333,-5.900357,0.000000,-0.000000,-0.000000
-0.470000,-0.290000,0.052703,0.020000,-1247.870746,1146.550000,1839.319633,-1825.652233,3647.200192,0.000000,-0.000000,0.000000,4088.508612,-4074.841212,-1.962882,0.000000,-0.000000,-0.000000
-0.430000,-0.310000,0.031072,0.020000,-1299.040384,972.550000,1427.487785,-1322.758127,4140.515057,0.000000,-0.000000,0.000000,4415.255336,-4310.525679,3.807676,0.000000,-0.000000,0.000000
-0.410000,-0.310000,0.015463,0.020000,-1337.523872,888.550000,1357.793355,-1066.417992,4305.526240,0.000000,-0.000000,0.000000,4618.573293,-4327.197930,7.118195,0.000000,-0.000000,0.000000
-0.410000,-0.290000,0.010664,0.020000,-1366.559536,882.550000,1662.288099,-1525.163911,4389.319317,0.000000,-0.000000,0.000000,4738.082784,-4600.958595,-40.782004,0.000000,-0.000000,-0.000000
-0.430000,-0.290000,0.026648,0.020000,-1326.315844,966.550000,1808.090499,-1577.726879,4115.370727,0.000000,-0.000000,0.000000,4565.065286,-4334.701666,-27.442594,0.000000,-0.000000,-0.000000
0.410000,-0.310000,0.020447,0.020000,-1336.943536,888.550000,1385.252110,-1057.352754,-4299.018697,0.000000,-0.000000,-0.000000,4633.080367,-4305.181011,3.503907,0.000000,-0.000000,0.000000
0.430000,-0.310000,0.033752,0.020000,-1298.447538,972.550000,1410.870961,-1329.124688,-4136.813064,0.000000,-0.000000,-0.000000,4398.631748,-4316.885475,-7.500285,0.000000,-0.000000,-0.000000
0.430000,-0.290000,0.019115,0.020000,-1325.669069,966.550000,1699.987780,-1637.514535,-4156.290398,0.000000,-0.000000,-0.000000,4510.005923,-4447.532679,-10.288228,0.000000,-0.000000,-0.000000
0.410000,-0.290000,0.009919,0.020000,-1365.903309,882.550000,1569.095289,-1446.297252,-4347.058168,0.000000,-0.000000,-0.000000,4662.417730,-4539.619693,-26.259766,0.000000,-0.000000,-0.000000
0.450000,-0.310000,0.046970,0.020000,-1260.524491,1060.550000,1490.102520,-1484.536054,-3893.983043,0.000000,-0.000000,-0.000000,4171.142379,-4165.575913,2.150989,0.000000,-0.000000,0.000000
0.470000,-0.310000,0.063821,0.020000,-1223.198365,1152.550000,1549.657558,-1551.730591,-3619.312632,0.000000,-0.000000,-0.000000,3936.485002,-3938.558035,0.574249,0.000000,-0.000000,0.000000
0.470000,-0.290000,0.055932,0.020000,-1247.278810,1146.550000,1842.721410,-1837.044603,-3650.570211,0.000000,-0.000000,-0.000000,4090.843108,-4085.166301,7.062632,0.000000,-0.000000,0.000000
0.450000,-0.290000,0.037847,0.020000,-1286.119759,1054.550000,1804.285998,-1744.237651,-3919.130439,0.000000,-0.000000,-0.000000,4332.067594,-4272.019248,-3.289280,0.000000,-0.000000,-0.000000
0.490000,-0.310000,0.082099,0.020000,-1186.491903,1248.550000,1590.628808,-1591.614843,-3353.947624,0.000000,-0.000000,-0.000000,3711.734320,-3712.720355,1.232459,0.000000,-0.000000,0.000000
0.510000,-0.310000,0.098519,0.020000,-1150.421307,1348.550000,1613.924231,-1614.749237,-3109.843757,0.000000,-0.000000,-0.000000,3503.472451,-3504.297456,1.232171,0.000000,-0.000000,0.000000
0.510000,-0.290000,0.087081,0.020000,-1171.806068,1342.550000,1854.586190,-1855.288028,-3115.458783,0.000000,-0.000000,-0.000000,3625.510903,-3626.212741,1.073942,0.000000,-0.000000,0.000000
0.490000,-0.290000,0.070397,0.020000,-1209.171977,1242.550000,1853.050401,-1853.697439,-3373.748264,0.000000,-0.000000,-0.000000,3848.984279,-3849.631317,1.308263,0.000000,-0.000000,0.000000
0.530000,-0.310000,0.114600,0.020000,-1114.995922,1452.550000,1628.200185,-1626.040156,-2884.894278,0.000000,-0.000000,-0.000000,3313.196904,-3311.036875,4.093436,0.000000,-0.000000,0.000000
0.550000,-0.310000,0.131760,0.020000,-1080.219614,1560.550000,1649.604376,-1631.309330,-2662.835463,0.000000,-0.000000,-0.000000,3136.636703,-3118.341657,24.552302,0.000000,-0.000000,0.000000
0.550000,-0.290000,0.123441,0.020000,-1099.294861,1554.550000,1826.663592,-1828.798474,-2665.409315,0.000000,-0.000000,-0.000000,3230.805371,-3232.940253,2.381803,0.000000,-0.000000,0.000000
0.530000,-0.290000,0.104931,0.020000,-1135.181738,1446.550000,1840.937785,-1847.893991,-2885.370783,0.000000,-0.000000,-0.000000,3421.026076,-3427.982283,-2.376784,0.000000,-0.000000,-0.000000
0.570000,-0.310000,0.149626,0.020000,-1046.091847,1672.550000,1634.189458,-1638.618444,-2516.147927,0.000000,-0.000000,-0.000000,2999.248455,-3003.677441,6.200738,0.000000,-0.000000,0.000000
0.590000,-0.310000,0.167974,0.020000,-1012.608568,1788.550000,1626.061148,-1619.506546,-2291.902265,0.000000,-0.000000,-0.000000,2811.290309,-2804.735707,36.143540,0.000000,-0.000000,0.000000
0.590000,-0.290000,0.158206,0.020000,-1029.698874,1782.550000,1721.372692,-1752.495993,-2257.677117,0.000000,-0.000000,-0.000000,2832.952408,-2864.075709,-3.812649,0.000000,-0.000000,-0.000000
0.570000,-0.290000,0.141179,0.020000,-1064.137518,1666.550000,1754.314992,-1762.693307,-2486.526936,0.000000,-0.000000,-0.000000,3041.027479,-3049.405794,-42.528642,0.000000,-0.000000,-0.000000
-0.590000,-0.270000,0.150315,0.020000,-1046.589605,1776.950000,1976.004948,-1964.460423,2240.992624,0.000000,-0.000000,0.000000,2989.592417,-2978.047892,-26.116302,0.000000,-0.000000,-0.000000
-0.570000,-0.270000,0.132559,0.020000,-1081.988401,1660.950000,2001.840319,-2005.099682,2436.968978,0.000000,-0.000000,0.000000,3153.155365,-3156.414728,-6.414991,0.000000,-0.000000,-0.000000
-0.570000,-0.250000,0.123120,0.020000,-1098.536759,1655.750000,2168.674404,-2151.795728,2373.588678,0.000000,-0.000000,0.000000,3217.831322,-3200.952646,18.489094,0.000000,-0.000000,0.000000
-0.590000,-0.250000,0.141187,0.020000,-1062.214348,1771.750000,2113.879046,-2108.929866,2185.382899,0.000000,-0.000000,0.000000,3041.210751,-3036.261571,3.119925,0.000000,-0.000000,0.000000
-0.550000,-0.270000,0.113681,0.020000,-1118.182637,1548.950000,2035.215063,-2036.258331,2633.568456,0.000000,-0.000000,0.000000,3328.127746,-3329.171013,0.142564,0.000000,-0.000000,0.000000
-0.530000,-0.270000,0.095263,0.020000,-1155.190607,1440.950000,2075.024935,-2075.456464,2857.085302,0.000000,-0.000000,0.000000,3531.010575,-3531.442104,0.960584,0.000000,-0.000000,0.000000
-0.530000,-0.250000,0.088621,0.020000,-1173.828433,1435.750000,2313.041253,-2313.307959,2808.199370,0.000000,-0.000000,0.000000,3638.102427,-3638.369134,0.930320,0.000000,-0.000000,0.000000
-0.550000,-0.250000,0.105751,0.020000,-1135.732640,1543.750000,2250.609027,-2252.076538,2579.516893,0.000000,-0.000000,0.000000,3423.072856,-3424.540367,-0.096468,0.000000,-0.000000,-0.000000
-0.510000,-0.270000,0.077632,0.020000,-1193.028424,1336.950000,2107.914115,-2108.479398,3103.456493,0.000000,-0.000000,0.000000,3751.508203,-3752.073485,1.110117,0.000000,-0.000000,0.000000
-0.490000,-0.270000,0.061468,0.020000,-1231.709226,1236.950000,2131.597116,-2131.087018,3374.220219,0.000000,-0.000000,0.000000,3991.242473,-3990.732375,0.691724,0.000000,-0.000000,0.000000
-0.490000,-0.250000,0.050566,0.020000,-1252.818433,1231.750000,2425.360710,-2409.845864,3328.805713,0.000000,-0.000000,0.000000,4121.847785,-4106.332939,-3.691046,0.000000,-0.000000,-0.000000
-0.510000,-0.250000,0.069321,0.020000,-1212.849327,1331.750000,2371.237697,-2371.794187,3062.063986,0.000000,-0.000000,0.000000,3872.746760,-3873.303250,1.014503,0.000000,-0.000000,0.000000
-0.470000,-0.270000,0.046235,0.020000,-1271.242364,1140.950000,2146.435406,-2070.551582,3618.165945,0.000000,-0.000000,0.000000,4225.646315,-4149.762492,1.201195,0.000000,-0.000000,0.000000
-0.450000,-0.270000,0.026531,0.020000,-1311.629437,1048.950000,2186.599831,-1895.404245,3810.668097,0.000000,-0.000000,0.000000,4468.423544,-4177.227958,-7.628576,0.000000,-0.000000,-0.000000
-0.450000,-0.250000,0.021451,0.020000,-1335.693059,1043.750000,2558.027154,-2045.095003,3746.174131,0.000000,-0.000000,0.000000,4653.099021,-4140.166870,24.955229,0.000000,-0.000000,0.000000
-0.470000,-0.250000,0.033295,0.020000,-1293.755487,1135.750000,2461.182587,-2325.582400,3576.528658,0.000000,-0.000000,0.000000,4371.244065,-4235.643879,14.386921,0.000000,-0.000000,0.000000
-0.430000,-0.270000,0.008375,0.020000,-1352.819625,960.950000,2203.285257,-1747.514465,4001.252261,0.000000,-0.000000,0.000000,4690.009365,-4234.238574,-40.913865,0.000000,-0.000000,-0.000000
0.430000,-0.270000,0.019789,0.020000,-1352.275790,960.950000,2131.444403,-1807.892952,-4184.033473,0.000000,-0.000000,-0.000000,4786.040521,-4462.489070,-43.656641,0.000000,-0.000000,-0.000000
0.450000,-0.270000,0.027897,0.020000,-1310.994467,1048.950000,2141.050692,-1972.380238,-3872.879315,0.000000,-0.000000,-0.000000,4469.447783,-4300.777329,-7.782503,0.000000,-0.000000,-0.000000
0.470000,-0.270000,0.042492,0.020000,-1270.623541,1140.950000,2135.708021,-2101.051361,-3633.143778,0.000000,-0.000000,-0.000000,4222.951493,-4188.294833,-0.205969,0.000000,-0.000000,-0.000000
0.470000,-0.250000,0.035815,0.020000,-1293.112891,1135.750000,2443.760076,-2395.188257,-3617.229799,0.000000,-0.000000,-0.000000,4376.063294,-4327.491474,-15.500250,0.000000,-0.000000,-0.000000
0.450000,-0.250000,0.015981,0.020000,-1334.999070,1043.750000,2384.414049,-2283.225048,-3849.681256,0.000000,-0.000000,-0.000000,4552.153064,-4450.964064,-52.248972,0.000000,-0.000000,-0.000000
0.490000,-0.270000,0.060274,0.020000,-1231.110174,1236.950000,2129.558551,-2131.606348,-3370.924338,0.000000,-0.000000,-0.000000,3986.771518,-3988.819315,0.426731,0.000000,-0.000000,0.000000
0.510000,-0.270000,0.079122,0.020000,-1192.448451,1336.950000,2107.507394,-2108.080373,-3098.904250,0.000000,-0.000000,-0.000000,3747.513046,-3748.086026,1.115795,0.000000,-0.000000,0.000000
0.510000,-0.250000,0.069068,0.020000,-1212.247402,1331.750000,2370.125825,-2370.371880,-3057.084631,0.000000,-0.000000,-0.000000,3868.189912,-3868.435967,1.033894,0.000000,-0.000000,0.000000
0.490000,-0.250000,0.053600,0.020000,-1252.195684,1231.750000,2425.491090,-2425.174100,-3338.084332,0.000000,-0.000000,-0.000000,4126.297723,-4125.980732,4.503332,0.000000,-0.000000,0.000000
0.530000,-0.270000,0.096965,0.020000,-1154.629476,1440.950000,2074.376306,-2074.793998,-2852.908491,0.000000,-0.000000,-0.000000,3527.253341,-3527.671033,0.964681,0.000000,-0.000000,0.000000
0.550000,-0.270000,0.113577,0.020000,-1117.640089,1548.950000,2034.442302,-2035.484514,-2629.781000,0.000000,-0.000000,-0.000000,3324.658850,-3325.701062,1.562106,0.000000,-0.000000,0.000000
0.550000,-0.250000,0.104716,0.020000,-1135.171537,1543.750000,2249.451927,-2250.921154,-2575.656283,0.000000,-0.000000,-0.000000,3419.403051,-3420.872278,1.763810,0.000000,-0.000000,0.000000
0.530000,-0.250000,0.086417,0.020000,-1173.247135,1435.750000,2311.919324,-2312.210758,-2803.917574,0.000000,-0.000000,-0.000000,3634.080148,-3634.371582,0.936627,0.000000,-0.000000,0.000000
0.570000,-0.270000,0.131138,0.020000,-1081.464127,1660.950000,2000.960168,-2004.194841,-2433.527021,0.000000,-0.000000,-0.000000,3149.939095,-3153.173767,7.904843,0.000000,-0.000000,0.000000
0.590000,-0.270000,0.149314,0.020000,-1046.083265,1776.950000,1975.045759,-1963.527143,-2237.895813,0.000000,-0.000000,-0.000000,2986.617354,-2975.098738,27.424551,0.000000,-0.000000,0.000000
0.590000,-0.250000,0.142690,0.020000,-1061.692230,1771.750000,2112.673106,-2107.730566,-2182.223299,0.000000,-0.000000,-0.000000,3038.100879,-3033.158339,-1.786246,0.000000,-0.000000,-0.000000
0.570000,-0.250000,0.123543,0.020000,-1097.995387,1655.750000,2167.501645,-2150.630880,-2370.085521,0.000000,-0.000000,-0.000000,3214.458513,-3197.587748,-16.976138,0.000000,-0.000000,-0.000000
-0.630000,-0.230000,0.172061,0.020000,-1005.272684,2010.950000,2161.726833,-2157.323448,1780.922775,0.000000,-0.000000,0.000000,2801.196954,-2796.793569,-29.330705,0.000000,-0.000000,-0.000000
-0.610000,-0.230000,0.153780,0.020000,-1040.691176,1886.950000,2222.054470,-2216.169364,1970.440271,0.000000,-0.000000,0.000000,2970.580350,-2964.695245,14.780543,0.000000,-0.000000,0.000000
-0.610000,-0.210000,0.145730,0.020000,-1053.761172,1882.550000,2319.016644,-2320.318237,1858.317129,0.000000,-0.000000,0.000000,2971.362103,-2972.663696,36.591110,0.000000,-0.000000,0.000000
-0.630000,-0.210000,0.164487,0.020000,-1017.614733,2006.550000,2246.065057,-2270.504673,1663.933760,0.000000,-0.000000,0.000000,2792.768340,-2817.207956,-23.823911,0.000000,-0.000000,-0.000000
-0.590000,-0.230000,0.134436,0.020000,-1076.992708,1766.950000,2315.898732,-2309.679114,2101.095565,0.000000,-0.000000,0.000000,3127.729825,-3121.510207,-18.572326,0.000000,-0.000000,-0.000000
-0.570000,-0.230000,0.115316,0.020000,-1114.211536,1650.950000,2381.194364,-2381.346571,2294.663481,0.000000,-0.000000,0.000000,3306.875542,-3307.027749,-0.584039,0.000000,-0.000000,-0.000000
-0.570000,-0.210000,0.109545,0.020000,-1128.934202,1646.550000,2574.785450,-2577.385152,2199.880042,0.000000,-0.000000,0.000000,3386.277478,-3388.877180,2.741178,0.000000,-0.000000,0.000000
-0.590000,-0.210000,0.127353,0.020000,-1090.853874,1762.550000,2471.786074,-2474.140614,2015.006048,0.000000,-0.000000,0.000000,3188.775191,-3191.129731,-0.608052,0.000000,-0.000000,-0.000000
-0.550000,-0.230000,0.096554,0.020000,-1152.382527,1538.950000,2468.350349,-2468.535225,2503.173156,0.000000,-0.000000,0.000000,3515.456600,-3515.641476,0.776575,0.000000,-0.000000,0.000000
-0.530000,-0.230000,0.078405,0.020000,-1191.540829,1430.950000,2555.818341,-2555.936443,2734.353674,0.000000,-0.000000,0.000000,3742.827321,-3742.945423,0.927889,0.000000,-0.000000,0.000000
-0.530000,-0.210000,0.071321,0.020000,-1208.230804,1426.550000,2800.563944,-2800.494397,2633.754422,0.000000,-0.000000,0.000000,3844.462594,-3844.393048,0.846935,0.000000,-0.000000,0.000000
-0.550000,-0.210000,0.090895,0.020000,-1168.045081,1534.550000,2686.971070,-2686.801176,2403.013035,0.000000,-0.000000,0.000000,3604.780230,-3604.610336,0.772862,0.000000,-0.000000,0.000000
-0.510000,-0.230000,0.061417,0.020000,-1231.721450,1326.950000,2641.519165,-2640.478165,2991.954497,0.000000,-0.000000,0.000000,3991.343019,-3990.302019,1.133179,0.000000,-0.000000,0.000000
-0.490000,-0.230000,0.046213,0.020000,-1272.958950,1226.950000,2721.107109,-2645.749055,3228.956937,0.000000,-0.000000,0.000000,4236.124865,-4160.766811,-1.310413,0.000000,-0.000000,-0.000000
-0.490000,-0.210000,0.033706,0.020000,-1292.007955,1222.550000,3003.881008,-2882.997160,3129.926791,0.000000,-0.000000,0.000000,4356.898624,-4236.014776,27.114312,0.000000,-0.000000,0.000000
-0.510000,-0.210000,0.052071,0.020000,-1249.536687,1322.550000,2917.189193,-2905.908046,2884.177801,0.000000,-0.000000,0.000000,4103.883133,-4092.601987,-2.206802,0.000000,-0.000000,-0.000000
-0.470000,-0.230000,0.026215,0.020000,-1315.285777,1130.950000,2822.175053,-2563.609039,3428.004640,0.000000,-0.000000,0.000000,4488.451987,-4229.885974,-23.003948,0.000000,-0.000000,-0.000000
-0.450000,-0.230000,0.006233,0.020000,-1358.657170,1038.950000,2860.331908,-2406.224980,3636.687582,0.000000,-0.000000,0.000000,4717.001720,-4262.894792,-4.072732,0.000000,-0.000000,-0.000000
-0.470000,-0.210000,0.018996,0.020000,-1335.697466,1126.550000,3117.387605,-2699.178593,3305.609115,0.000000,-0.000000,0.000000,4611.790133,-4193.581121,39.006067,0.000000,-0.000000,0.000000
0.450000,-0.230000,0.018536,0.020000,-1358.122338,1038.950000,2820.257367,-2813.110566,-3850.861150,0.000000,-0.000000,-0.000000,4774.537298,-4767.390497,27.269981,0.000000,-0.000000,0.000000
0.470000,-0.230000,0.025320,0.020000,-1314.613747,1130.950000,2812.620222,-2734.904708,-3485.193199,0.000000,-0.000000,-0.000000,4492.805397,-4415.089883,51.771321,0.000000,-0.000000,0.000000
0.470000,-0.210000,0.017515,0.020000,-1334.993814,1126.550000,3168.246296,-2851.970024,-3260.623191,0.000000,-0.000000,-0.000000,4595.248100,-4278.971828,66.857248,0.000000,-0.000000,0.000000
0.490000,-0.230000,0.041697,0.020000,-1272.311684,1226.950000,2724.101359,-2687.765486,-3238.756401,0.000000,-0.000000,-0.000000,4238.531177,-4202.195304,12.362441,0.000000,-0.000000,0.000000
0.510000,-0.230000,0.060300,0.020000,-1231.097949,1326.950000,2640.081908,-2640.933098,-2987.805238,0.000000,-0.000000,-0.000000,3986.961828,-3987.813018,1.245416,0.000000,-0.000000,0.000000
0.510000,-0.210000,0.054702,0.020000,-1248.892405,1322.550000,2914.187871,-2910.868969,-2886.852351,0.000000,-0.000000,-0.000000,4102.480991,-4099.162088,0.997632,0.000000,-0.000000,0.000000
0.490000,-0.210000,0.037474,0.020000,-1291.340516,1222.550000,3027.737259,-2921.372840,-3108.603373,0.000000,-0.000000,-0.000000,4355.657100,-4249.292681,10.123744,0.000000,-0.000000,0.000000
0.530000,-0.230000,0.079584,0.020000,-1190.939806,1430.950000,2554.354588,-2554.440639,-2730.041294,0.000000,-0.000000,-0.000000,3738.682928,-3738.768979,0.936858,0.000000,-0.000000,0.000000
0.550000,-0.230000,0.098772,0.020000,-1151.803333,1538.950000,2466.790782,-2466.965042,-2499.279754,0.000000,-0.000000,-0.000000,3511.591274,-3511.765534,0.843796,0.000000,-0.000000,0.000000
0.550000,-0.210000,0.089200,0.020000,-1167.448421,1534.550000,2684.960266,-2684.810234,-2399.136310,0.000000,-0.000000,-0.000000,3600.694855,-3600.544824,0.783815,0.000000,-0.000000,0.000000
0.530000,-0.210000,0.071235,0.020000,-1207.610669,1426.550000,2798.361700,-2798.215193,-2629.306552,0.000000,-0.000000,-0.000000,3839.822000,-3839.675493,0.859128,0.000000,-0.000000,0.000000
0.570000,-0.230000,0.115923,0.020000,-1113.653547,1650.950000,2379.634204,-2379.783343,-2291.167904,0.000000,-0.000000,-0.000000,3303.326730,-3303.475869,2.016863,0.000000,-0.000000,0.000000
0.590000,-0.230000,0.133866,0.020000,-1076.455299,1766.950000,2314.322587,-2308.126185,-2097.977052,0.000000,-0.000000,-0.000000,3124.455834,-3118.259432,19.809158,0.000000,-0.000000,0.000000
0.590000,-0.210000,0.126968,0.020000,-1090.301792,1762.550000,2469.905591,-2472.256853,-2011.907804,0.000000,-0.000000,-0.000000,3185.360436,-3187.711698,1.820384,0.000000,-0.000000,0.000000
0.570000,-0.210000,0.107883,0.020000,-1128.360220,1646.550000,2572.847489,-2575.438386,-2196.412969,0.000000,-0.000000,-0.000000,3382.554420,-3385.145317,-1.362987,0.000000,-0.000000,-0.000000
0.610000,-0.230000,0.152323,0.020000,-1040.173733,1886.950000,2220.512435,-2214.622689,-1967.561981,0.000000,-0.000000,-0.000000,2967.522421,-2961.632674,-13.638415,0.000000,-0.000000,-0.000000
0.630000,-0.230000,0.171127,0.020000,-1004.774603,2010.950000,2160.210674,-2155.817186,-1778.398147,0.000000,-0.000000,-0.000000,2798.409672,-2794.016184,30.287848,0.000000,-0.000000,0.000000
0.630000,-0.210000,0.165786,0.020000,-1017.104229,2006.550000,2244.398648,-2268.790509,-1661.485644,0.000000,-0.000000,-0.000000,2789.971119,-2814.362980,24.768232,0.000000,-0.000000,0.000000
0.610000,-0.210000,0.146298,0.020000,-1053.230240,1882.550000,2317.283224,-2318.573511,-1855.510367,0.000000,-0.000000,-0.000000,2968.269466,-2969.559753,-35.449670,0.000000,-0.000000,-0.000000
-0.630000,-0.190000,0.159081,0.020000,-1029.050507,2002.550000,2438.453483,-2431.763374,1603.323770,0.000000,-0.000000,0.000000,2918.871224,-2912.181115,-10.359680,0.000000,-0.000000,-0.000000
-0.610000,-0.190000,0.139600,0.020000,-1065.885186,1878.550000,2532.548263,-2516.420262,1756.596116,0.000000,-0.000000,0.000000,3083.531154,-3067.403152,12.348954,0.000000,-0.000000,0.000000
-0.610000,-0.170000,0.134938,0.020000,-1077.001816,1874.950000,2656.284621,-2628.340856,1606.308841,0.000000,-0.000000,0.000000,3106.216734,-3078.272969,8.153447,0.000000,-0.000000,0.000000
-0.630000,-0.170000,0.153592,0.020000,-1039.524914,1998.950000,2531.741119,-2546.037399,1446.717570,0.000000,-0.000000,0.000000,2914.876638,-2929.172919,-26.862409,0.000000,-0.000000,-0.000000
-0.590000,-0.190000,0.120290,0.020000,-1103.727675,1758.550000,2641.933882,-2643.576946,1898.110201,0.000000,-0.000000,0.000000,3252.942123,-3254.585187,-0.768821,0.000000,-0.000000,-0.000000
-0.570000,-0.190000,0.101247,0.020000,-1142.626550,1642.550000,2768.514627,-2768.146960,2077.050052,0.000000,-0.000000,0.000000,3461.078500,-3460.710832,0.641566,0.000000,-0.000000,0.000000
-0.570000,-0.170000,0.096447,0.020000,-1155.211782,1638.950000,2954.397725,-2953.842576,1934.867646,0.000000,-0.000000,0.000000,3531.642511,-3531.087361,0.600164,0.000000,-0.000000,0.000000
-0.590000,-0.170000,0.116278,0.020000,-1115.545520,1754.950000,2807.187354,-2809.129354,1763.912188,0.000000,-0.000000,0.000000,3315.222453,-3317.164453,-0.731553,0.000000,-0.000000,-0.000000
-0.550000,-0.190000,0.082658,0.020000,-1182.632972,1530.550000,2902.825184,-2902.484633,2278.148230,0.000000,-0.000000,0.000000,3690.070593,-3689.730043,0.720061,0.000000,-0.000000,0.000000
-0.530000,-0.190000,0.064914,0.020000,-1223.800672,1422.550000,3043.082862,-3042.102506,2504.438316,0.000000,-0.000000,0.000000,3941.249061,-3940.268705,0.972660,0.000000,-0.000000,0.000000
-0.530000,-0.170000,0.057138,0.020000,-1238.153410,1418.950000,3278.611750,-3274.535194,2346.294845,0.000000,-0.000000,0.000000,4032.053920,-4027.977365,2.671921,0.000000,-0.000000,0.000000
-0.550000,-0.170000,0.076703,0.020000,-1196.060010,1526.950000,3112.475248,-3111.889537,2127.970239,0.000000,-0.000000,0.000000,3770.430264,-3769.844553,0.707755,0.000000,-0.000000,0.000000
-0.510000,-0.190000,0.048941,0.020000,-1266.186058,1318.550000,3184.024039,-3124.708884,2720.049806,0.000000,-0.000000,0.000000,4194.828879,-4135.513725,-6.836812,0.000000,-0.000000,-0.000000
-0.490000,-0.190000,0.029587,0.020000,-1309.849105,1218.550000,3336.759040,-3124.989880,2926.536287,0.000000,-0.000000,0.000000,4465.115016,-4253.345856,-16.565612,0.000000,-0.000000,-0.000000
-0.490000,-0.170000,0.020678,0.020000,-1326.345221,1214.950000,3618.585684,-3208.711855,2684.512178,0.000000,-0.000000,0.000000,4547.696577,-4137.822747,-6.486665,0.000000,-0.000000,-0.000000
-0.510000,-0.170000,0.038029,0.020000,-1281.558658,1314.950000,3429.135124,-3314.884088,2547.215603,0.000000,-0.000000,0.000000,4283.062565,-4168.811528,14.566719,0.000000,-0.000000,0.000000
-0.470000,-0.190000,0.010007,0.020000,-1354.809528,1122.550000,3390.087919,-3041.838330,3190.502670,0.000000,-0.000000,0.000000,4703.828150,-4355.578560,59.275795,0.000000,-0.000000,0.000000
0.470000,-0.190000,0.015123,0.020000,-1354.151850,1122.550000,3545.355050,-3112.819171,-3103.040501,0.000000,-0.000000,-0.000000,4766.533821,-4333.997942,82.229857,0.000000,-0.000000,0.000000
0.470000,-0.170000,0.005421,0.020000,-1371.724281,1118.950000,3677.895814,-3373.290380,-2810.930494,0.000000,-0.000000,-0.000000,4660.311394,-4355.705960,94.840361,0.000000,-0.000000,0.000000
0.490000,-0.190000,0.026662,0.020000,-1309.152874,1218.550000,3324.611408,-3212.825266,-2948.529005,0.000000,-0.000000,-0.000000,4457.901186,-4346.115045,25.834313,0.000000,-0.000000,0.000000
0.510000,-0.190000,0.044643,0.020000,-1265.521021,1318.550000,3187.868939,-3168.409405,-2739.599679,0.000000,-0.000000,-0.000000,4205.670322,-4186.210788,7.606494,0.000000,-0.000000,0.000000
0.510000,-0.170000,0.042352,0.020000,-1280.876275,1314.950000,3443.444334,-3365.634339,-2543.831223,0.000000,-0.000000,-0.000000,4288.835201,-4211.025206,7.658623,0.000000,-0.000000,0.000000
0.490000,-0.170000,0.022617,0.020000,-1325.639299,1214.950000,3628.270855,-3347.158188,-2702.756502,0.000000,-0.000000,-0.000000,4552.766520,-4271.653853,38.033703,0.000000,-0.000000,0.000000
0.530000,-0.190000,0.063837,0.020000,-1223.162228,1422.550000,3040.951236,-3040.842643,-2500.526129,0.000000,-0.000000,-0.000000,3937.018124,-3936.909530,0.971127,0.000000,-0.000000,0.000000
0.550000,-0.190000,0.083410,0.020000,-1182.019649,1530.550000,2900.396597,-2900.021422,-2274.382143,0.000000,-0.000000,-0.000000,3685.838941,-3685.463765,0.733254,0.000000,-0.000000,0.000000
0.550000,-0.170000,0.076930,0.020000,-1195.431001,1526.950000,3109.565353,-3109.010858,-2124.258610,0.000000,-0.000000,-0.000000,3765.930795,-3765.376301,0.723356,0.000000,-0.000000,0.000000
0.530000,-0.170000,0.059440,0.020000,-1237.497779,1418.950000,3276.840626,-3274.429341,-2341.854832,0.000000,-0.000000,-0.000000,4027.875289,-4025.464004,0.393823,0.000000,-0.000000,0.000000
0.570000,-0.190000,0.103148,0.020000,-1142.037353,1642.550000,2766.183107,-2765.810704,-2073.681234,0.000000,-0.000000,-0.000000,3457.192466,-3456.820063,0.653156,0.000000,-0.000000,0.000000
0.590000,-0.190000,0.121643,0.020000,-1103.161670,1758.550000,2639.714908,-2641.355914,-1895.107323,0.000000,-0.000000,-0.000000,3249.388009,-3251.029015,1.911906,0.000000,-0.000000,0.000000
0.590000,-0.170000,0.114405,0.020000,-1114.966479,1754.950000,2804.626749,-2806.567097,-1761.048039,0.000000,-0.000000,-0.000000,3311.530554,-3313.470902,1.793657,0.000000,-0.000000,0.000000
0.570000,-0.170000,0.095412,0.020000,-1154.608301,1638.950000,2951.672075,-2951.126957,-1931.635706,0.000000,-0.000000,-0.000000,3527.590977,-3527.045860,0.613503,0.000000,-0.000000,0.000000
0.610000,-0.190000,0.139936,0.020000,-1065.341487,1878.550000,2530.418242,-2514.302773,-1753.888400,0.000000,-0.000000,-0.000000,3080.239170,-3064.123700,-11.326156,0.000000,-0.000000,-0.000000
0.630000,-0.190000,0.158642,0.020000,-1028.528271,2002.550000,2436.407518,-2429.734821,-1600.923233,0.000000,-0.000000,-0.000000,2915.837734,-2909.165037,11.233570,0.000000,-0.000000,0.000000
0.630000,-0.170000,0.153162,0.020000,-1038.991743,1998.950000,2529.509183,-2543.781835,-1444.485858,0.000000,-0.000000,-0.000000,2911.826610,-2926.099262,27.662453,0.000000,-0.000000,0.000000
0.610000,-0.170000,0.133692,0.020000,-1076.446191,1874.950000,2653.904067,-2625.997372,-1603.760280,0.000000,-0.000000,-0.000000,3102.858507,-3074.951812,-7.193887,0.000000,-0.000000,-0.000000
-0.630000,-0.150000,0.148032,0.020000,-1048.985352,1995.750000,2689.692158,-2688.002068,1355.409880,0.000000,-0.000000,0.000000,3011.996276,-3010.306187,-1.732583,0.000000,-0.000000,-0.000000
-0.610000,-0.150000,0.128575,0.020000,-1087.052223,1871.750000,2812.921877,-2793.905229,1488.944056,0.000000,-0.000000,0.000000,3183.735745,-3164.719097,19.032341,0.000000,-0.000000,0.000000
-0.610000,-0.130000,0.125119,0.020000,-1095.981034,1868.950000,2923.923524,-2891.915434,1300.578805,0.000000,-0.000000,0.000000,3201.517664,-3169.509573,1.978309,0.000000,-0.000000,0.000000
-0.630000,-0.130000,0.145040,0.020000,-1057.382486,1992.950000,2774.322166,-2788.213345,1163.294715,0.000000,-0.000000,0.000000,3007.625270,-3021.516448,-32.671983,0.000000,-0.000000,-0.000000
-0.590000,-0.150000,0.109314,0.020000,-1126.241419,1751.750000,2963.471797,-2965.561602,1610.644476,0.000000,-0.000000,0.000000,3372.756257,-3374.846061,-0.792267,0.000000,-0.000000,-0.000000
-0.570000,-0.150000,0.090375,0.020000,-1166.615683,1635.750000,3130.700554,-3129.972812,1770.747417,0.000000,-0.000000,0.000000,3596.827950,-3596.100209,0.536690,0.000000,-0.000000,0.000000
-0.570000,-0.130000,0.085386,0.020000,-1176.767879,1632.950000,3294.180568,-3293.248562,1585.390761,0.000000,-0.000000,0.000000,3655.875590,-3654.943584,0.502796,0.000000,-0.000000,0.000000
-0.590000,-0.130000,0.105227,0.020000,-1135.753043,1748.950000,3107.875520,-3110.096115,1439.080093,0.000000,-0.000000,0.000000,3424.782823,-3427.003418,-0.808487,0.000000,-0.000000,-0.000000
-0.550000,-0.150000,0.072011,0.020000,-1208.242509,1523.750000,3312.185704,-3311.363136,1952.253941,0.000000,-0.000000,0.000000,3844.776631,-3843.954064,0.579459,0.000000,-0.000000,0.000000
-0.530000,-0.150000,0.054805,0.020000,-1251.194594,1415.750000,3505.962031,-3499.715906,2157.683665,0.000000,-0.000000,0.000000,4117.181375,-4110.935251,1.958019,0.000000,-0.000000,0.000000
-0.530000,-0.130000,0.046117,0.020000,-1262.833053,1412.950000,3716.159313,-3706.887703,1938.893419,0.000000,-0.000000,0.000000,4192.082814,-4182.811203,1.410085,0.000000,-0.000000,0.000000
-0.550000,-0.130000,0.065641,0.020000,-1219.100731,1520.950000,3498.104091,-3497.154072,1751.958382,0.000000,-0.000000,0.000000,3912.350133,-3911.400113,0.621025,0.000000,-0.000000,0.000000
-0.510000,-0.150000,0.036016,0.020000,-1295.551064,1311.750000,3696.266723,-3581.273684,2338.297829,0.000000,-0.000000,0.000000,4382.802140,-4267.809100,-4.077414,0.000000,-0.000000,-0.000000
-0.490000,-0.150000,0.016690,0.020000,-1341.393778,1211.750000,3918.189834,-3435.338107,2486.151770,0.000000,-0.000000,0.000000,4679.842277,-4196.990550,1.912877,0.000000,-0.000000,0.000000
-0.490000,-0.130000,0.012760,0.020000,-1354.858910,1208.950000,4070.693173,-3960.676085,2220.724124,0.000000,-0.000000,0.000000,4643.417348,-4533.400260,-61.994541,0.000000,-0.000000,-0.000000
-0.510000,-0.130000,0.027291,0.020000,-1308.051860,1308.950000,3901.894932,-3837.263594,2108.392624,0.000000,-0.000000,0.000000,4439.010755,-4374.379416,-1.245935,0.000000,-0.000000,-0.000000
0.490000,-0.150000,0.015949,0.020000,-1340.655932,1211.750000,3890.403996,-3376.420315,-2477.821934,0.000000,-0.000000,-0.000000,4654.822417,-4140.838736,-19.278241,0.000000,-0.000000,-0.000000
0.510000,-0.150000,0.032241,0.020000,-1294.847118,1311.750000,3675.768088,-3537.430050,-2346.444227,0.000000,-0.000000,-0.000000,4371.836766,-4233.498729,-20.189281,0.000000,-0.000000,-0.000000
0.510000,-0.130000,0.030510,0.020000,-1307.338707,1308.950000,3899.448261,-3805.054366,-2139.422975,0.000000,-0.000000,-0.000000,4453.532709,-4359.138814,-34.292936,0.000000,-0.000000,-0.000000
0.490000,-0.130000,0.012073,0.020000,-1354.099684,1208.950000,4077.278788,-3664.428523,-2325.576633,0.000000,-0.000000,-0.000000,4721.028241,-4308.177976,-100.863614,0.000000,-0.000000,-0.000000
0.530000,-0.150000,0.051231,0.020000,-1250.522670,1415.750000,3501.482074,-3495.417941,-2153.585331,0.000000,-0.000000,-0.000000,4111.204610,-4105.140477,-0.767628,0.000000,-0.000000,-0.000000
0.550000,-0.150000,0.070779,0.020000,-1207.598965,1523.750000,3308.827240,-3308.042919,-1948.931626,0.000000,-0.000000,-0.000000,3840.193824,-3839.409503,0.587486,0.000000,-0.000000,0.000000
0.550000,-0.130000,0.067892,0.020000,-1218.444028,1520.950000,3494.356579,-3493.159455,-1748.641808,0.000000,-0.000000,-0.000000,3907.527392,-3906.330267,0.611446,0.000000,-0.000000,0.000000
0.530000,-0.130000,0.050160,0.020000,-1262.147102,1412.950000,3711.929754,-3705.266731,-1939.567815,0.000000,-0.000000,-0.000000,4188.497331,-4181.834308,-3.361536,0.000000,-0.000000,-0.000000
0.570000,-0.150000,0.090525,0.020000,-1165.999010,1635.750000,3127.583050,-3126.839814,-1767.730274,0.000000,-0.000000,-0.000000,3592.630150,-3591.886913,0.551295,0.000000,-0.000000,0.000000
0.590000,-0.150000,0.110363,0.020000,-1125.650366,1751.750000,2960.577892,-2962.663547,-1607.968074,0.000000,-0.000000,-0.000000,3368.935735,-3371.021390,1.760557,0.000000,-0.000000,0.000000
0.590000,-0.130000,0.105016,0.020000,-1135.151133,1748.950000,3104.666105,-3106.886454,-1436.636729,0.000000,-0.000000,-0.000000,3420.843738,-3423.064086,1.676703,0.000000,-0.000000,0.000000
0.570000,-0.130000,0.086133,0.020000,-1176.139258,1632.950000,3290.721052,-3289.813845,-1582.598843,0.000000,-0.000000,-0.000000,3651.546414,-3650.639208,0.518409,0.000000,-0.000000,0.000000
0.610000,-0.150000,0.130250,0.020000,-1086.485630,1871.750000,2810.216461,-2791.220017,-1486.538909,0.000000,-0.000000,-0.000000,3180.222289,-3161.225845,-18.151457,0.000000,-0.000000,-0.000000
0.630000,-0.150000,0.149332,0.020000,-1048.442146,1995.750000,2687.140526,-2685.458865,-1353.289497,0.000000,-0.000000,-0.000000,3008.762435,-3007.080774,2.477479,0.000000,-0.000000,0.000000
0.630000,-0.130000,0.143692,0.020000,-1056.830244,1992.950000,2771.592697,-2785.460058,-1161.430605,0.000000,-0.000000,-0.000000,3004.381826,-3018.249187,33.298673,0.000000,-0.000000,0.000000
0.610000,-0.130000,0.124250,0.020000,-1095.404551,1868.950000,2920.980412,-2889.020941,-1298.428506,0.000000,-0.000000,-0.000000,3197.951461,-3165.991990,-1.204879,0.000000,-0.000000,-0.000000
-0.630000,-0.110000,0.140143,0.020000,-1064.671027,1990.550000,2903.918953,-2904.717057,1053.697108,0.000000,-0.000000,0.000000,3089.146150,-3089.944254,7.149564,0.000000,-0.000000,0.000000
-0.610000,-0.110000,0.120715,0.020000,-1103.737268,1866.550000,3053.163513,-3028.359397,1157.662148,0.000000,-0.000000,0.000000,3266.000142,-3241.196026,22.613706,0.000000,-0.000000,0.000000
-0.610000,-0.090000,0.117207,0.020000,-1110.275224,1864.550000,3139.369755,-3104.449766,936.321588,0.000000,-0.000000,0.000000,3276.753164,-3241.833175,-5.167369,0.000000,-0.000000,-0.000000
-0.630000,-0.090000,0.137134,0.020000,-1070.810490,1988.550000,2969.406097,-2982.225507,830.601228,0.000000,-0.000000,0.000000,3082.941809,-3095.761219,-35.851245,0.000000,-0.000000,-0.000000
-0.590000,-0.110000,0.101508,0.020000,-1144.022811,1746.550000,3237.716886,-3240.057897,1250.370758,0.000000,-0.000000,0.000000,3470.690371,-3473.031383,-0.785698,0.000000,-0.000000,-0.000000
-0.570000,-0.110000,0.082679,0.020000,-1185.603118,1630.550000,3441.693001,-3440.608387,1379.971530,0.000000,-0.000000,0.000000,3708.080487,-3706.995873,0.399992,0.000000,-0.000000,0.000000
-0.570000,-0.090000,0.077468,0.020000,-1193.062540,1628.550000,3570.030020,-3568.757424,1156.394876,0.000000,-0.000000,0.000000,3752.678476,-3751.405881,0.378682,0.000000,-0.000000,0.000000
-0.590000,-0.090000,0.097311,0.020000,-1150.998957,1744.550000,3350.431243,-3352.867458,1046.152478,0.000000,-0.000000,0.000000,3509.905341,-3512.341555,-0.711169,0.000000,-0.000000,-0.000000
-0.550000,-0.110000,0.064558,0.020000,-1228.560532,1518.550000,3666.326593,-3664.306280,1527.738660,0.000000,-0.000000,0.000000,3971.970967,-3969.950654,0.483211,0.000000,-0.000000,0.000000
-0.530000,-0.110000,0.045276,0.020000,-1272.985302,1410.550000,3902.897411,-3856.686846,1672.907957,0.000000,-0.000000,0.000000,4248.187849,-4201.977284,-9.235847,0.000000,-0.000000,-0.000000
-0.530000,-0.090000,0.038277,0.020000,-1281.572197,1408.550000,4044.432603,-3934.956328,1396.329939,0.000000,-0.000000,0.000000,4281.722658,-4172.246383,1.044828,0.000000,-0.000000,0.000000
-0.550000,-0.090000,0.057734,0.020000,-1236.554598,1516.550000,3810.741510,-3804.493675,1282.462523,0.000000,-0.000000,0.000000,4020.916606,-4014.668771,1.940841,0.000000,-0.000000,0.000000
-0.510000,-0.110000,0.025845,0.020000,-1318.978226,1306.550000,4125.782935,-3974.216052,1827.968458,0.000000,-0.000000,0.000000,4519.199809,-4367.632927,-3.944767,0.000000,-0.000000,-0.000000
-0.490000,-0.110000,0.009272,0.020000,-1366.596563,1206.550000,4205.314938,-4148.225820,1999.978282,0.000000,-0.000000,0.000000,4659.398268,-4602.309149,22.756548,0.000000,-0.000000,0.000000
-0.510000,-0.090000,0.019925,0.020000,-1328.219887,1304.550000,4299.399117,-3938.894455,1494.999330,0.000000,-0.000000,0.000000,4562.302773,-4201.798111,-5.211946,0.000000,-0.000000,-0.000000
0.490000,-0.110000,0.011317,0.020000,-1365.870125,1206.550000,4200.067981,-4238.104082,-2054.033869,0.000000,-0.000000,-0.000000,4673.196328,-4711.232429,-53.537858,0.000000,-0.000000,-0.000000
0.510000,-0.110000,0.023187,0.020000,-1318.239661,1306.550000,4112.283494,-4024.494172,-1841.323948,0.000000,-0.000000,-0.000000,4509.570552,-4421.781230,-0.643321,0.000000,-0.000000,-0.000000
0.510000,-0.090000,0.022024,0.020000,-1327.483593,1304.550000,4306.099252,-3971.074861,-1494.447547,0.000000,-0.000000,-0.000000,4567.639798,-4232.615407,12.384451,0.000000,-0.000000,0.000000
0.530000,-0.110000,0.041799,0.020000,-1272.285331,1410.550000,3900.643109,-3863.538821,-1672.546591,0.000000,-0.000000,-0.000000,4245.599870,-4208.495582,10.482194,0.000000,-0.000000,0.000000
0.550000,-0.110000,0.061292,0.020000,-1227.892084,1518.550000,3662.132079,-3660.794497,-1525.103627,0.000000,-0.000000,-0.000000,3967.059375,-3965.721793,0.467147,0.000000,-0.000000,0.000000
0.550000,-0.090000,0.060862,0.020000,-1235.876260,1516.550000,3806.572986,-3799.896068,-1279.940389,0.000000,-0.000000,-0.000000,4016.172790,-4009.495873,-0.947303,0.000000,-0.000000,-0.000000
0.530000,-0.090000,0.041166,0.020000,-1280.862736,1408.550000,4042.871425,-3938.564049,-1391.147772,0.000000,-0.000000,-0.000000,4278.393467,-4174.086091,4.184637,0.000000,-0.000000,0.000000
0.570000,-0.110000,0.081033,0.020000,-1184.963937,1630.550000,3437.826634,-3436.717464,-1377.538790,0.000000,-0.000000,-0.000000,3703.587407,-3702.478238,0.414782,0.000000,-0.000000,0.000000
0.590000,-0.110000,0.100875,0.020000,-1143.411326,1746.550000,3234.210295,-3236.544152,-1248.213190,0.000000,-0.000000,-0.000000,3466.642120,-3468.975977,1.533403,0.000000,-0.000000,0.000000
0.590000,-0.090000,0.098785,0.020000,-1150.379296,1744.550000,3346.676149,-3349.114129,-1044.315363,0.000000,-0.000000,-0.000000,3505.773258,-3508.211238,1.345425,0.000000,-0.000000,0.000000
0.570000,-0.090000,0.080004,0.020000,-1192.414335,1628.550000,3565.975879,-3564.730024,-1154.275083,0.000000,-0.000000,-0.000000,3748.167788,-3746.921933,0.392993,0.000000,-0.000000,0.000000
0.610000,-0.110000,0.120770,0.020000,-1103.152076,1866.550000,3049.938437,-3025.168522,-1155.722677,0.000000,-0.000000,-0.000000,3262.299679,-3237.529764,-21.916936,0.000000,-0.000000,-0.000000
0.630000,-0.110000,0.140695,0.020000,-1064.110843,1990.550000,2900.914611,-2901.716366,-1051.991106,0.000000,-0.000000,-0.000000,3085.741340,-3086.543095,-6.561983,0.000000,-0.000000,-0.000000
0.630000,-0.090000,0.137383,0.020000,-1070.243544,1988.550000,2966.258409,-2979.055633,-829.232043,0.000000,-0.000000,-0.000000,3079.537100,-3092.334324,36.281204,0.000000,-0.000000,0.000000
0.610000,-0.090000,0.117968,0.020000,-1109.682608,1864.550000,3135.952556,-3101.090302,-934.725041,0.000000,-0.000000,-0.000000,3273.019264,-3238.157010,5.717353,0.000000,-0.000000,0.000000
-0.630000,-0.070000,0.135410,0.020000,-1075.765902,1986.950000,3061.648103,-3065.160485,706.287911,0.000000,-0.000000,0.000000,3141.969734,-3145.482117,16.606775,0.000000,-0.000000,0.000000
-0.610000,-0.070000,0.116003,0.020000,-1115.555335,1862.950000,3231.741792,-3201.885122,772.672784,0.000000,-0.000000,0.000000,3323.151563,-3293.294893,23.898082,0.000000,-0.000000,0.000000
-0.610000,-0.050000,0.112448,0.020000,-1119.544930,1861.750000,3286.487743,-3250.195113,526.921652,0.000000,-0.000000,0.000000,3328.667438,-3292.374808,-12.329377,0.000000,-0.000000,-0.000000
-0.630000,-0.050000,0.132376,0.020000,-1079.508444,1985.750000,3103.132182,-3114.243958,460.422763,0.000000,-0.000000,0.000000,3136.840729,-3147.952505,-35.695069,0.000000,-0.000000,-0.000000
-0.590000,-0.070000,0.096839,0.020000,-1156.636546,1742.950000,3443.716355,-3446.238993,828.500393,0.000000,-0.000000,0.000000,3541.941146,-3544.463784,-0.605725,0.000000,-0.000000,-0.000000
-0.570000,-0.070000,0.077245,0.020000,-1199.094926,1626.950000,3676.608584,-3675.211595,916.950654,0.000000,-0.000000,0.000000,3789.248800,-3787.851811,0.262535,0.000000,-0.000000,0.000000
-0.570000,-0.050000,0.072709,0.020000,-1203.657764,1625.750000,3758.683614,-3757.160736,664.606795,0.000000,-0.000000,0.000000,3817.000585,-3815.477707,0.206679,0.000000,-0.000000,0.000000
-0.590000,-0.050000,0.092550,0.020000,-1160.898397,1741.750000,3515.542711,-3518.121612,599.921053,0.000000,-0.000000,0.000000,3566.344711,-3568.923612,-0.457449,0.000000,-0.000000,-0.000000
-0.550000,-0.070000,0.057434,0.020000,-1243.024506,1514.950000,3933.208632,-3925.782125,1018.257074,0.000000,-0.000000,0.000000,4062.996335,-4055.569829,1.503452,0.000000,-0.000000,0.000000
-0.530000,-0.070000,0.037823,0.020000,-1288.529499,1406.950000,4182.759080,-4055.077907,1114.605657,0.000000,-0.000000,0.000000,4330.898822,-4203.217649,7.023825,0.000000,-0.000000,0.000000
-0.530000,-0.050000,0.033595,0.020000,-1293.796872,1405.750000,4284.713331,-4178.254293,798.635211,0.000000,-0.000000,0.000000,4359.414273,-4252.955235,-6.805220,0.000000,-0.000000,-0.000000
-0.550000,-0.050000,0.052987,0.020000,-1247.921160,1513.750000,4027.089102,-4019.578263,738.677652,0.000000,-0.000000,0.000000,4094.336979,-4086.826140,1.048993,0.000000,-0.000000,0.000000
-0.510000,-0.070000,0.019038,0.020000,-1335.727000,1302.950000,4470.970854,-3972.657667,1205.378405,0.000000,-0.000000,0.000000,4639.613263,-4141.300076,23.302002,0.000000,-0.000000,0.000000
-0.510000,-0.050000,0.015799,0.020000,-1341.402648,1301.750000,4539.927077,-4278.245524,836.050800,0.000000,-0.000000,0.000000,4618.347334,-4356.665780,-36.164186,0.000000,-0.000000,-0.000000
0.510000,-0.070000,0.017480,0.020000,-1334.963748,1302.950000,4447.756173,-3985.753293,-1195.067576,0.000000,-0.000000,-0.000000,4613.807601,-4151.804721,-14.735688,0.000000,-0.000000,-0.000000
0.510000,-0.050000,0.016853,0.020000,-1340.647666,1301.750000,4543.906344,-4284.198144,-834.334635,0.000000,-0.000000,-0.000000,4621.898747,-4362.190548,38.812119,0.000000,-0.000000,0.000000
0.530000,-0.070000,0.035544,0.020000,-1287.808780,1406.950000,4175.215055,-4053.590934,-1111.228581,0.000000,-0.000000,-0.000000,4322.632869,-4201.008748,-4.934871,0.000000,-0.000000,-0.000000
0.550000,-0.070000,0.054966,0.020000,-1242.337808,1514.950000,3927.899699,-3921.037306,-1016.315528,0.000000,-0.000000,-0.000000,4057.361327,-4050.498934,-0.882975,0.000000,-0.000000,-0.000000
0.550000,-0.050000,0.054770,0.020000,-1247.228397,1513.750000,4022.473878,-4014.432072,-737.399865,0.000000,-0.000000,-0.000000,4089.571346,-4081.529539,-0.672281,0.000000,-0.000000,-0.000000
0.530000,-0.050000,0.035240,0.020000,-1293.071482,1405.750000,4281.118932,-4171.101613,-797.025621,0.000000,-0.000000,-0.000000,4355.613663,-4245.596343,7.381480,0.000000,-0.000000,0.000000
0.570000,-0.070000,0.074694,0.020000,-1198.439328,1626.950000,3672.131964,-3670.723116,-915.280825,0.000000,-0.000000,-0.000000,3784.501339,-3783.092491,0.273056,0.000000,-0.000000,0.000000
0.590000,-0.070000,0.094536,0.020000,-1156.010211,1742.950000,3439.726531,-3442.240071,-827.031506,0.000000,-0.000000,-0.000000,3537.718503,-3540.232043,1.099172,0.000000,-0.000000,0.000000
0.590000,-0.050000,0.094422,0.020000,-1160.266977,1741.750000,3511.403150,-3513.983505,-598.847036,0.000000,-0.000000,-0.000000,3562.083437,-3564.663792,0.819654,0.000000,-0.000000,0.000000
0.570000,-0.050000,0.074549,0.020000,-1202.996549,1625.750000,3754.194445,-3752.679428,-663.386335,0.000000,-0.000000,-0.000000,3812.367433,-3810.852416,0.214267,0.000000,-0.000000,0.000000
0.610000,-0.070000,0.114433,0.020000,-1114.956665,1862.950000,3228.114765,-3198.305037,-771.344696,0.000000,-0.000000,-0.000000,3319.317364,-3289.507636,-23.420814,0.000000,-0.000000,-0.000000
0.630000,-0.070000,0.134360,0.020000,-1075.193449,1986.950000,3058.298029,-3061.808368,-705.116406,0.000000,-0.000000,-0.000000,3138.444236,-3141.954574,-16.199450,0.000000,-0.000000,-0.000000
0.630000,-0.050000,0.134218,0.020000,-1078.931804,1985.750000,3099.688899,-3110.781902,-459.649741,0.000000,-0.000000,-0.000000,3133.318735,-3144.411739,35.913801,0.000000,-0.000000,0.000000
0.610000,-0.050000,0.114339,0.020000,-1118.941653,1861.750000,3282.736289,-3246.506339,-526.005127,0.000000,-0.000000,-0.000000,3324.816391,-3288.586441,12.627883,0.000000,-0.000000,0.000000
-0.630000,-0.030000,0.132330,0.020000,-1082.015994,1984.950000,3151.126336,-3157.399419,326.542450,0.000000,-0.000000,0.000000,3167.882574,-3174.155657,25.338546,0.000000,-0.000000,0.000000
-0.610000,-0.030000,0.112393,0.020000,-1122.218895,1860.950000,3334.673481,-3300.994659,349.717346,0.000000,-0.000000,0.000000,3352.977914,-3319.299092,22.472793,0.000000,-0.000000,0.000000
-0.610000,-0.010000,0.110847,0.020000,-1123.560184,1860.550000,3353.453504,-3317.564796,90.961282,0.000000,-0.000000,0.000000,3354.642718,-3318.754011,-18.419170,0.000000,-0.000000,-0.000000
-0.630000,-0.010000,0.130778,0.020000,-1083.273556,1984.550000,3165.338867,-3174.212747,68.600373,0.000000,-0.000000,0.000000,3165.919244,-3174.793123,-32.036642,0.000000,-0.000000,-0.000000
-0.590000,-0.030000,0.092484,0.020000,-1163.755881,1740.950000,3564.363976,-3566.988521,363.264402,0.000000,-0.000000,0.000000,3582.820545,-3585.445090,-0.285212,0.000000,-0.000000,-0.000000
-0.570000,-0.030000,0.072624,0.020000,-1206.718300,1624.950000,3814.671845,-3813.064810,402.713814,0.000000,-0.000000,0.000000,3835.874575,-3834.267540,0.138057,0.000000,-0.000000,0.000000
-0.570000,-0.010000,0.071102,0.020000,-1208.254204,1624.550000,3842.920386,-3841.271378,134.867507,0.000000,-0.000000,0.000000,3845.286756,-3843.637749,0.015610,0.000000,-0.000000,0.000000
-0.590000,-0.010000,0.090947,0.020000,-1165.189541,1740.550000,3589.045617,-3591.688529,121.642524,0.000000,-0.000000,0.000000,3591.105664,-3593.748576,-0.099750,0.000000,-0.000000,-0.000000
-0.550000,-0.030000,0.052871,0.020000,-1251.207213,1512.950000,4091.738786,-4083.242109,448.005723,0.000000,-0.000000,0.000000,4116.217053,-4107.720376,0.762496,0.000000,-0.000000,0.000000
-0.530000,-0.030000,0.033412,0.020000,-1297.335070,1404.950000,4359.274009,-4244.934856,484.321260,0.000000,-0.000000,0.000000,4386.447991,-4272.108837,-4.247580,0.000000,-0.000000,-0.000000
-0.530000,-0.010000,0.031998,0.020000,-1299.110641,1404.550000,4395.231642,-4280.330921,162.372852,0.000000,-0.000000,0.000000,4398.269350,-4283.368629,-1.374323,0.000000,-0.000000,-0.000000
-0.550000,-0.010000,0.051378,0.020000,-1252.856654,1512.550000,4124.050801,-4115.535455,149.941020,0.000000,-0.000000,0.000000,4126.778470,-4118.263124,0.080767,0.000000,-0.000000,0.000000
-0.510000,-0.030000,0.015406,0.020000,-1345.226485,1300.950000,4629.103828,-4361.225807,506.655087,0.000000,-0.000000,0.000000,4657.503633,-4389.625612,-23.858409,0.000000,-0.000000,-0.000000
-0.510000,-0.010000,0.014424,0.020000,-1347.140664,1300.550000,4665.872429,-4392.256214,169.860472,0.000000,-0.000000,0.000000,4669.049846,-4395.433631,-7.812196,0.000000,-0.000000,-0.000000
0.510000,-0.030000,0.014805,0.020000,-1344.453677,1300.950000,4616.030880,-4347.800032,-505.675342,0.000000,-0.000000,-0.000000,4644.407193,-4376.176345,23.278024,0.000000,-0.000000,0.000000
0.510000,-0.010000,0.014618,0.020000,-1346.371986,1300.550000,4661.826762,-4389.072318,-169.402565,0.000000,-0.000000,-0.000000,4664.989008,-4392.234563,8.128049,0.000000,-0.000000,0.000000
0.530000,-0.030000,0.032416,0.020000,-1296.602967,1404.950000,4352.074317,-4240.765398,-483.425103,0.000000,-0.000000,-0.000000,4379.183482,-4267.874562,4.496532,0.000000,-0.000000,0.000000
0.550000,-0.030000,0.051792,0.020000,-1250.510050,1512.950000,4086.154998,-4078.082860,-446.904162,0.000000,-0.000000,-0.000000,4110.545319,-4102.473180,-0.251716,0.000000,-0.000000,-0.000000
0.550000,-0.010000,0.051739,0.020000,-1252.157464,1512.550000,4118.845042,-4110.192264,-149.928270,0.000000,-0.000000,-0.000000,4121.575733,-4112.922955,-0.259760,0.000000,-0.000000,-0.000000
0.530000,-0.010000,0.032331,0.020000,-1298.377320,1404.550000,4389.894014,-4274.170162,-161.939829,0.000000,-0.000000,-0.000000,4392.919479,-4277.195627,1.590164,0.000000,-0.000000,0.000000
0.570000,-0.030000,0.071512,0.020000,-1206.053270,1624.950000,3809.876780,-3808.276023,-401.926401,0.000000,-0.000000,-0.000000,3831.023328,-3829.422571,0.141985,0.000000,-0.000000,0.000000
0.590000,-0.030000,0.091355,0.020000,-1163.121031,1740.950000,3560.088480,-3562.705749,-362.606572,0.000000,-0.000000,-0.000000,3578.500393,-3581.117663,0.505605,0.000000,-0.000000,0.000000
0.590000,-0.010000,0.091324,0.020000,-1164.552965,1740.550000,3584.722409,-3587.362852,-121.427600,0.000000,-0.000000,-0.000000,3586.777656,-3589.418099,0.168002,0.000000,-0.000000,0.000000
0.570000,-0.010000,0.071474,0.020000,-1207.587269,1624.550000,3838.153866,-3836.506918,-134.668325,0.000000,-0.000000,-0.000000,3840.516183,-3838.869234,0.016291,0.000000,-0.000000,0.000000
0.610000,-0.030000,0.111253,0.020000,-1121.612512,1860.950000,3330.809273,-3297.187274,-349.107529,0.000000,-0.000000,-0.000000,3349.072379,-3315.450380,-22.242301,0.000000,-0.000000,-0.000000
0.630000,-0.030000,0.131183,0.020000,-1081.436534,1984.950000,3147.575511,-3153.840482,-325.993636,0.000000,-0.000000,-0.000000,3164.295685,-3170.560656,-25.130009,0.000000,-0.000000,-0.000000
0.630000,-0.010000,0.131162,0.020000,-1082.692677,1984.550000,3161.755716,-3170.615693,-68.483606,0.000000,-0.000000,-0.000000,3162.334196,-3171.194173,32.039408,0.000000,-0.000000,0.000000
0.610000,-0.010000,0.111228,0.020000,-1122.952239,1860.550000,3349.546414,-3313.720084,-90.801333,0.000000,-0.000000,-0.000000,3350.732469,-3314.906139,18.451987,0.000000,-0.000000,0.000000
-0.630000,0.010000,0.130778,0.020000,-1083.273556,1984.550000,3165.338867,-3174.212747,-68.600373,0.000000,-0.000000,-0.000000,3165.919244,-3174.793123,32.036642,0.000000,-0.000000,0.000000
-0.610000,0.010000,0.110847,0.020000,-1123.560184,1860.550000,3353.453504,-3317.564796,-90.961282,0.000000,-0.000000,-0.000000,3354.642718,-3318.754011,18.419170,0.000000,-0.000000,0.000000
-0.610000,0.030000,0.112393,0.020000,-1122.218895,1860.950000,3334.673481,-3300.994659,-349.717346,0.000000,-0.000000,-0.000000,3352.977914,-3319.299092,-22.472793,0.000000,-0.000000,-0.000000
-0.630000,0.030000,0.132330,0.020000,-1082.015994,1984.950000,3151.126336,-3157.399419,-326.542450,0.000000,-0.000000,-0.000000,3167.882574,-3174.155657,-25.338546,0.000000,-0.000000,-0.000000
-0.590000,0.010000,0.090947,0.020000,-1165.189541,1740.550000,3589.045617,-3591.688529,-121.642524,0.000000,-0.000000,-0.000000,3591.105664,-3593.748576,0.099750,0.000000,-0.000000,0.000000
-0.570000,0.010000,0.071102,0.020000,-1208.254204,1624.550000,3842.920386,-3841.271378,-134.867507,0.000000,-0.000000,-0.000000,3845.286756,-3843.637749,-0.015610,0.000000,-0.000000,-0.000000
-0.570000,0.030000,0.072624,0.020000,-1206.718300,1624.950000,3814.671845,-3813.064810,-402.713814,0.000000,-0.000000,-0.000000,3835.874575,-3834.267540,-0.138057,0.000000,-0.000000,-0.000000
-0.590000,0.030000,0.092484,0.020000,-1163.755881,1740.950000,3564.363976,-3566.988521,-363.264402,0.000000,-0.000000,-0.000000,3582.820545,-3585.445090,0.285212,0.000000,-0.000000,0.000000
-0.550000,0.010000,0.051378,0.020000,-1252.856654,1512.550000,4124.050801,-4115.535455,-149.941020,0.000000,-0.000000,-0.000000,4126.778470,-4118.263124,-0.080767,0.000000,-0.000000,-0.000000
-0.530000,0.010000,0.031998,0.020000,-1299.110641,1404.550000,4395.231642,-4280.330921,-162.372852,0.000000,-0.000000,-0.000000,4398.269350,-4283.368629,1.374323,0.000000,-0.000000,0.000000
-0.530000,0.030000,0.033412,0.020000,-1297.335070,1404.950000,4359.274009,-4244.934856,-484.321260,0.000000,-0.000000,-0.000000,4386.447991,-4272.108837,4.247580,0.000000,-0.000000,0.000000
-0.550000,0.030000,0.052871,0.020000,-1251.207213,1512.950000,4091.738786,-4083.242109,-448.005723,0.000000,-0.000000,-0.000000,4116.217053,-4107.720376,-0.762496,0.000000,-0.000000,-0.000000
-0.510000,0.010000,0.014424,0.020000,-1347.140664,1300.550000,4665.872429,-4392.256214,-169.860472,0.000000,-0.000000,-0.000000,4669.049846,-4395.433631,7.812196,0.000000,-0.000000,0.000000
-0.510000,0.030000,0.015406,0.020000,-1345.226485,1300.950000,4629.103828,-4361.225807,-506.655087,0.000000,-0.000000,-0.000000,4657.503633,-4389.625612,23.858409,0.000000,-0.000000,0.000000
0.510000,0.010000,0.014618,0.020000,-1346.371986,1300.550000,4661.826762,-4389.072318,169.402565,0.000000,-0.000000,0.000000,4664.989008,-4392.234563,-8.128049,0.000000,-0.000000,-0.000000
0.510000,0.030000,0.014805,0.020000,-1344.453677,1300.950000,4616.030880,-4347.800032,505.675342,0.000000,-0.000000,0.000000,4644.407193,-4376.176345,-23.278024,0.000000,-0.000000,-0.000000
0.530000,0.010000,0.032331,0.020000,-1298.377320,1404.550000,4389.894014,-4274.170162,161.939829,0.000000,-0.000000,0.000000,4392.919479,-4277.195627,-1.590164,0.000000,-0.000000,-0.000000
0.550000,0.010000,0.051739,0.020000,-1252.157464,1512.550000,4118.845042,-4110.192264,149.928270,0.000000,-0.000000,0.000000,4121.575733,-4112.922955,0.259760,0.000000,-0.000000,0.000000
0.550000,0.030000,0.051792,0.020000,-1250.510050,1512.950000,4086.154998,-4078.082860,446.904162,0.000000,-0.000000,0.000000,4110.545319,-4102.473180,0.251716,0.000000,-0.000000,0.000000
0.530000,0.030000,0.032416,0.020000,-1296.602967,1404.950000,4352.074317,-4240.765398,483.425103,0.000000,-0.000000,0.000000,4379.183482,-4267.874562,-4.496532,0.000000,-0.000000,-0.000000
0.570000,0.010000,0.071474,0.020000,-1207.587269,1624.550000,3838.153866,-3836.506918,134.668325,0.000000,-0.000000,0.000000,3840.516183,-3838.869234,-0.016291,0.000000,-0.000000,-0.000000
0.590000,0.010000,0.091324,0.020000,-1164.552965,1740.550000,3584.722409,-3587.362852,121.427600,0.000000,-0.000000,0.000000,3586.777656,-3589.418099,-0.168002,0.000000,-0.000000,-0.000000
0.590000,0.030000,0.091355,0.020000,-1163.121031,1740.950000,3560.088480,-3562.705749,362.606572,0.000000,-0.000000,0.000000,3578.500393,-3581.117663,-0.505605,0.000000,-0.000000,-0.000000
0.570000,0.030000,0.071512,0.020000,-1206.053270,1624.950000,3809.876780,-3808.276023,401.926401,0.000000,-0.000000,0.000000,3831.023328,-3829.422571,-0.141985,0.000000,-0.000000,-0.000000
0.610000,0.010000,0.111228,0.020000,-1122.952239,1860.550000,3349.546414,-3313.720084,90.801333,0.000000,-0.000000,0.000000,3350.732469,-3314.906139,-18.451987,0.000000,-0.000000,-0.000000
0.630000,0.010000,0.131162,0.020000,-1082.692677,1984.550000,3161.755716,-3170.615693,68.483606,0.000000,-0.000000,0.000000,3162.334196,-3171.194173,-32.039408,0.000000,-0.000000,-0.000000
0.630000,0.030000,0.131183,0.020000,-1081.436534,1984.950000,3147.575511,-3153.840482,325.993636,0.000000,-0.000000,0.000000,3164.295685,-3170.560656,25.130009,0.000000,-0.000000,0.000000
0.610000,0.030000,0.111253,0.020000,-1121.612512,1860.950000,3330.809273,-3297.187274,349.107529,0.000000,-0.000000,0.000000,3349.072379,-3315.450380,22.242301,0.000000,-0.000000,0.000000
-0.630000,0.050000,0.132376,0.020000,-1079.508444,1985.750000,3103.132182,-3114.243958,-460.422763,0.000000,-0.000000,-0.000000,3136.840729,-3147.952505,35.695069,0.000000,-0.000000,0.000000
-0.610000,0.050000,0.112448,0.020000,-1119.544930,1861.750000,3286.487743,-3250.195113,-526.921652,0.000000,-0.000000,-0.000000,3328.667438,-3292.374808,12.329377,0.000000,-0.000000,0.000000
-0.610000,0.070000,0.116003,0.020000,-1115.555335,1862.950000,3231.741792,-3201.885122,-772.672784,0.000000,-0.000000,-0.000000,3323.151563,-3293.294893,-23.898082,0.000000,-0.000000,-0.000000
-0.630000,0.070000,0.135410,0.020000,-1075.765902,1986.950000,3061.648103,-3065.160485,-706.287911,0.000000,-0.000000,-0.000000,3141.969734,-3145.482117,-16.606775,0.000000,-0.000000,-0.000000
-0.590000,0.050000,0.092550,0.020000,-1160.898397,1741.750000,3515.542711,-3518.121612,-599.921053,0.000000,-0.000000,-0.000000,3566.344711,-3568.923612,0.457449,0.000000,-0.000000,0.000000
-0.570000,0.050000,0.072709,0.020000,-1203.657764,1625.750000,3758.683614,-3757.160736,-664.606795,0.000000,-0.000000,-0.000000,3817.000585,-3815.477707,-0.206679,0.000000,-0.000000,-0.000000
-0.570000,0.070000,0.077245,0.020000,-1199.094926,1626.950000,3676.608584,-3675.211595,-916.950654,0.000000,-0.000000,-0.000000,3789.248800,-3787.851811,-0.262535,0.000000,-0.000000,-0.000000
-0.590000,0.070000,0.096839,0.020000,-1156.636546,1742.950000,3443.716355,-3446.238993,-828.500393,0.000000,-0.000000,-0.000000,3541.941146,-3544.463784,0.605725,0.000000,-0.000000,0.000000
-0.550000,0.050000,0.052987,0.020000,-1247.921160,1513.750000,4027.089102,-4019.578263,-738.677652,0.000000,-0.000000,-0.000000,4094.336979,-4086.826140,-1.048993,0.000000,-0.000000,-0.000000
-0.530000,0.050000,0.033595,0.020000,-1293.796872,1405.750000,4284.713331,-4178.254293,-798.635211,0.000000,-0.000000,-0.000000,4359.414273,-4252.955235,6.805220,0.000000,-0.000000,0.000000
-0.530000,0.070000,0.037823,0.020000,-1288.529499,1406.950000,4182.759080,-4055.077907,-1114.605657,0.000000,-0.000000,-0.000000,4330.898822,-4203.217649,-7.023825,0.000000,-0.000000,-0.000000
-0.550000,0.070000,0.057434,0.020000,-1243.024506,1514.950000,3933.208632,-3925.782125,-1018.257074,0.000000,-0.000000,-0.000000,4062.996335,-4055.569829,-1.503452,0.000000,-0.000000,-0.000000
-0.510000,0.050000,0.015799,0.020000,-1341.402648,1301.750000,4539.927077,-4278.245524,-836.050800,0.000000,-0.000000,-0.000000,4618.347334,-4356.665780,36.164186,0.000000,-0.000000,0.000000
-0.510000,0.070000,0.019038,0.020000,-1335.727000,1302.950000,4470.970854,-3972.657667,-1205.378405,0.000000,-0.000000,-0.000000,4639.613263,-4141.300076,-23.302002,0.000000,-0.000000,-0.000000
0.510000,0.050000,0.016853,0.020000,-1340.647666,1301.750000,4543.906344,-4284.198144,834.334635,0.000000,-0.000000,0.000000,4621.898747,-4362.190548,-38.812119,0.000000,-0.000000,-0.000000
0.510000,0.070000,0.017480,0.020000,-1334.963748,1302.950000,4447.756173,-3985.753293,1195.067576,0.000000,-0.000000,0.000000,4613.807601,-4151.804721,14.735688,0.000000,-0.000000,0.000000
0.530000,0.050000,0.035240,0.020000,-1293.071482,1405.750000,4281.118932,-4171.101613,797.025621,0.000000,-0.000000,0.000000,4355.613663,-4245.596343,-7.381480,0.000000,-0.000000,-0.000000
0.550000,0.050000,0.054770,0.020000,-1247.228397,1513.750000,4022.473878,-4014.432072,737.399865,0.000000,-0.000000,0.000000,4089.571346,-4081.529539,0.672281,0.000000,-0.000000,0.000000
0.550000,0.070000,0.054966,0.020000,-1242.337808,1514.950000,3927.899699,-3921.037306,1016.315528,0.000000,-0.000000,0.000000,4057.361327,-4050.498934,0.882975,0.000000,-0.000000,0.000000
0.530000,0.070000,0.035544,0.020000,-1287.808780,1406.950000,4175.215055,-4053.590934,1111.228581,0.000000,-0.000000,0.000000,4322.632869,-4201.008748,4.934871,0.000000,-0.000000,0.000000
0.570000,0.050000,0.074549,0.020000,-1202.996549,1625.750000,3754.194445,-3752.679428,663.386335,0.000000,-0.000000,0.000000,3812.367433,-3810.852416,-0.214267,0.000000,-0.000000,-0.000000
0.590000,0.050000,0.094422,0.020000,-1160.266977,1741.750000,3511.403150,-3513.983505,598.847036,0.000000,-0.000000,0.000000,3562.083437,-3564.663792,-0.819654,0.000000,-0.000000,-0.000000
0.590000,0.070000,0.094536,0.020000,-1156.010211,1742.950000,3439.726531,-3442.240071,827.031506,0.000000,-0.000000,0.000000,3537.718503,-3540.232043,-1.099172,0.000000,-0.000000,-0.000000
0.570000,0.070000,0.074694,0.020000,-1198.439328,1626.950000,3672.131964,-3670.723116,915.280825,0.000000,-0.000000,0.000000,3784.501339,-3783.092491,-0.273056,0.000000,-0.000000,-0.000000
0.610000,0.050000,0.114339,0.020000,-1118.941653,1861.750000,3282.736289,-3246.506339,526.005127,0.000000,-0.000000,0.000000,3324.816391,-3288.586441,-12.627883,0.000000,-0.000000,-0.000000
0.630000,0.050000,0.134218,0.020000,-1078.931804,1985.750000,3099.688899,-3110.781902,459.649741,0.000000,-0.000000,0.000000,3133.318735,-3144.411739,-35.913801,0.000000,-0.000000,-0.000000
0.630000,0.070000,0.134360,0.020000,-1075.193449,1986.950000,3058.298029,-3061.808368,705.116406,0.000000,-0.000000,0.000000,3138.444236,-3141.954574,16.199450,0.000000,-0.000000,0.000000
0.610000,0.070000,0.114433,0.020000,-1114.956665,1862.950000,3228.114765,-3198.305037,771.344696,0.000000,-0.000000,0.000000,3319.317364,-3289.507636,23.420814,0.000000,-0.000000,0.000000
-0.630000,0.090000,0.137134,0.020000,-1070.810490,1988.550000,2969.406097,-2982.225507,-830.601228,0.000000,-0.000000,-0.000000,3082.941809,-3095.761219,35.851245,0.000000,-0.000000,0.000000
-0.610000,0.090000,0.117207,0.020000,-1110.275224,1864.550000,3139.369755,-3104.449766,-936.321588,0.000000,-0.000000,-0.000000,3276.753164,-3241.833175,5.167369,0.000000,-0.000000,0.000000
-0.610000,0.110000,0.120715,0.020000,-1103.737268,1866.550000,3053.163513,-3028.359397,-1157.662148,0.000000,-0.000000,-0.000000,3266.000142,-3241.196026,-22.613706,0.000000,-0.000000,-0.000000
-0.630000,0.110000,0.140143,0.020000,-1064.671027,1990.550000,2903.918953,-2904.717057,-1053.697108,0.000000,-0.000000,-0.000000,3089.146150,-3089.944254,-7.149564,0.000000,-0.000000,-0.000000
-0.590000,0.090000,0.097311,0.020000,-1150.998957,1744.550000,3350.431243,-3352.867458,-1046.152478,0.000000,-0.000000,-0.000000,3509.905341,-3512.341555,0.711169,0.000000,-0.000000,0.000000
-0.570000,0.090000,0.077468,0.020000,-1193.062540,1628.550000,3570.030020,-3568.757424,-1156.394876,0.000000,-0.000000,-0.000000,3752.678476,-3751.405881,-0.378682,0.000000,-0.000000,-0.000000
-0.570000,0.110000,0.082679,0.020000,-1185.603118,1630.550000,3441.693001,-3440.608387,-1379.971530,0.000000,-0.000000,-0.000000,3708.080487,-3706.995873,-0.399992,0.000000,-0.000000,-0.000000
-0.590000,0.110000,0.101508,0.020000,-1144.022811,1746.550000,3237.716886,-3240.057897,-1250.370758,0.000000,-0.000000,-0.000000,3470.690371,-3473.031383,0.785698,0.000000,-0.000000,0.000000
-0.550000,0.090000,0.057734,0.020000,-1236.554598,1516.550000,3810.741510,-3804.493675,-1282.462523,0.000000,-0.000000,-0.000000,4020.916606,-4014.668771,-1.940841,0.000000,-0.000000,-0.000000
-0.530000,0.090000,0.038277,0.020000,-1281.572197,1408.550000,4044.432603,-3934.956328,-1396.329939,0.000000,-0.000000,-0.000000,4281.722658,-4172.246383,-1.044828,0.000000,-0.000000,-0.000000
-0.530000,0.110000,0.045276,0.020000,-1272.985302,1410.550000,3902.897411,-3856.686846,-1672.907957,0.000000,-0.000000,-0.000000,4248.187849,-4201.977284,9.235847,0.000000,-0.000000,0.000000
-0.550000,0.110000,0.064558,0.020000,-1228.560532,1518.550000,3666.326593,-3664.306280,-1527.738660,0.000000,-0.000000,-0.000000,3971.970967,-3969.950654,-0.483211,0.000000,-0.000000,-0.000000
-0.510000,0.090000,0.019925,0.020000,-1328.219887,1304.550000,4299.399117,-3938.894455,-1494.999330,0.000000,-0.000000,-0.000000,4562.302773,-4201.798111,5.211946,0.000000,-0.000000,0.000000
-0.490000,0.110000,0.009272,0.020000,-1366.596563,1206.550000,4205.314938,-4148.225820,-1999.978282,0.000000,-0.000000,-0.000000,4659.398268,-4602.309149,-22.756548,0.000000,-0.000000,-0.000000
-0.510000,0.110000,0.025845,0.020000,-1318.978226,1306.550000,4125.782935,-3974.216052,-1827.968458,0.000000,-0.000000,-0.000000,4519.199809,-4367.632927,3.944767,0.000000,-0.000000,0.000000
0.510000,0.090000,0.022024,0.020000,-1327.483593,1304.550000,4306.099252,-3971.074861,1494.447547,0.000000,-0.000000,0.000000,4567.639798,-4232.615407,-12.384451,0.000000,-0.000000,-0.000000
0.510000,0.110000,0.023187,0.020000,-1318.239661,1306.550000,4112.283494,-4024.494172,1841.323948,0.000000,-0.000000,0.000000,4509.570552,-4421.781230,0.643321,0.000000,-0.000000,0.000000
0.490000,0.110000,0.011317,0.020000,-1365.870125,1206.550000,4200.067981,-4238.104082,2054.033869,0.000000,-0.000000,0.000000,4673.196328,-4711.232429,53.537858,0.000000,-0.000000,0.000000
0.530000,0.090000,0.041166,0.020000,-1280.862736,1408.550000,4042.871425,-3938.564049,1391.147772,0.000000,-0.000000,0.000000,4278.393467,-4174.086091,-4.184637,0.000000,-0.000000,-0.000000
0.550000,0.090000,0.060862,0.020000,-1235.876260,1516.550000,3806.572986,-3799.896068,1279.940389,0.000000,-0.000000,0.000000,4016.172790,-4009.495873,0.947303,0.000000,-0.000000,0.000000
0.550000,0.110000,0.061292,0.020000,-1227.892084,1518.550000,3662.132079,-3660.794497,1525.103627,0.000000,-0.000000,0.000000,3967.059375,-3965.721793,-0.467147,0.000000,-0.000000,-0.000000
0.530000,0.110000,0.041799,0.020000,-1272.285331,1410.550000,3900.643109,-3863.538821,1672.546591,0.000000,-0.000000,0.000000,4245.599870,-4208.495582,-10.482194,0.000000,-0.000000,-0.000000
0.570000,0.090000,0.080004,0.020000,-1192.414335,1628.550000,3565.975879,-3564.730024,1154.275083,0.000000,-0.000000,0.000000,3748.167788,-3746.921933,-0.392993,0.000000,-0.000000,-0.000000
0.590000,0.090000,0.098785,0.020000,-1150.379296,1744.550000,3346.676149,-3349.114129,1044.315363,0.000000,-0.000000,0.000000,3505.773258,-3508.211238,-1.345425,0.000000,-0.000000,-0.000000
0.590000,0.110000,0.100875,0.020000,-1143.411326,1746.550000,3234.210295,-3236.544152,1248.213190,0.000000,-0.000000,0.000000,3466.642120,-3468.975977,-1.533403,0.000000,-0.000000,-0.000000
0.570000,0.110000,0.081033,0.020000,-1184.963937,1630.550000,3437.826634,-3436.717464,1377.538790,0.000000,-0.000000,0.000000,3703.587407,-3702.478238,-0.414782,0.000000,-0.000000,-0.000000
0.610000,0.090000,0.117968,0.020000,-1109.682608,1864.550000,3135.952556,-3101.090302,934.725041,0.000000,-0.000000,0.000000,3273.019264,-3238.157010,-5.717353,0.000000,-0.000000,-0.000000
0.630000,0.090000,0.137383,0.020000,-1070.243544,1988.550000,2966.258409,-2979.055633,829.232043,0.000000,-0.000000,0.000000,3079.537100,-3092.334324,-36.281204,0.000000,-0.000000,-0.000000
0.630000,0.110000,0.140695,0.020000,-1064.110843,1990.550000,2900.914611,-2901.716366,1051.991106,0.000000,-0.000000,0.000000,3085.741340,-3086.543095,6.561983,0.000000,-0.000000,0.000000
0.610000,0.110000,0.120770,0.020000,-1103.152076,1866.550000,3049.938437,-3025.168522,1155.722677,0.000000,-0.000000,0.000000,3262.299679,-3237.529764,21.916936,0.000000,-0.000000,0.000000
-0.630000,0.130000,0.145040,0.020000,-1057.382486,1992.950000,2774.322166,-2788.213345,-1163.294715,0.000000,-0.000000,-0.000000,3007.625270,-3021.516448,32.671983,0.000000,-0.000000,0.000000
-0.610000,0.130000,0.125119,0.020000,-1095.981034,1868.950000,2923.923524,-2891.915434,-1300.578805,0.000000,-0.000000,-0.000000,3201.517664,-3169.509573,-1.978309,0.000000,-0.000000,-0.000000
-0.610000,0.150000,0.128575,0.020000,-1087.052223,1871.750000,2812.921877,-2793.905229,-1488.944056,0.000000,-0.000000,-0.000000,3183.735745,-3164.719097,-19.032341,0.000000,-0.000000,-0.000000
-0.630000,0.150000,0.148032,0.020000,-1048.985352,1995.750000,2689.692158,-2688.002068,-1355.409880,0.000000,-0.000000,-0.000000,3011.996276,-3010.306187,1.732583,0.000000,-0.000000,0.000000
-0.590000,0.130000,0.105227,0.020000,-1135.753043,1748.950000,3107.875520,-3110.096115,-1439.080093,0.000000,-0.000000,-0.000000,3424.782823,-3427.003418,0.808487,0.000000,-0.000000,0.000000
-0.570000,0.130000,0.085386,0.020000,-1176.767879,1632.950000,3294.180568,-3293.248562,-1585.390761,0.000000,-0.000000,-0.000000,3655.875590,-3654.943584,-0.502796,0.000000,-0.000000,-0.000000
-0.570000,0.150000,0.090375,0.020000,-1166.615683,1635.750000,3130.700554,-3129.972812,-1770.747417,0.000000,-0.000000,-0.000000,3596.827950,-3596.100209,-0.536690,0.000000,-0.000000,-0.000000
-0.590000,0.150000,0.109314,0.020000,-1126.241419,1751.750000,2963.471797,-2965.561602,-1610.644476,0.000000,-0.000000,-0.000000,3372.756257,-3374.846061,0.792267,0.000000,-0.000000,0.000000
-0.550000,0.130000,0.065641,0.020000,-1219.100731,1520.950000,3498.104091,-3497.154072,-1751.958382,0.000000,-0.000000,-0.000000,3912.350133,-3911.400113,-0.621025,0.000000,-0.000000,-0.000000
-0.530000,0.130000,0.046117,0.020000,-1262.833053,1412.950000,3716.159313,-3706.887703,-1938.893419,0.000000,-0.000000,-0.000000,4192.082814,-4182.811203,-1.410085,0.000000,-0.000000,-0.000000
-0.530000,0.150000,0.054805,0.020000,-1251.194594,1415.750000,3505.962031,-3499.715906,-2157.683665,0.000000,-0.000000,-0.000000,4117.181375,-4110.935251,-1.958019,0.000000,-0.000000,-0.000000
-0.550000,0.150000,0.072011,0.020000,-1208.242509,1523.750000,3312.185704,-3311.363136,-1952.253941,0.000000,-0.000000,-0.000000,3844.776631,-3843.954064,-0.579459,0.000000,-0.000000,-0.000000
-0.510000,0.130000,0.027291,0.020000,-1308.051860,1308.950000,3901.894932,-3837.263594,-2108.392624,0.000000,-0.000000,-0.000000,4439.010755,-4374.379416,1.245935,0.000000,-0.000000,0.000000
-0.490000,0.130000,0.012760,0.020000,-1354.858910,1208.950000,4070.693173,-3960.676085,-2220.724124,0.000000,-0.000000,-0.000000,4643.417348,-4533.400260,61.994541,0.000000,-0.000000,0.000000
-0.490000,0.150000,0.016690,0.020000,-1341.393778,1211.750000,3918.189834,-3435.338107,-2486.151770,0.000000,-0.000000,-0.000000,4679.842277,-4196.990550,-1.912877,0.000000,-0.000000,-0.000000
-0.510000,0.150000,0.036016,0.020000,-1295.551064,1311.750000,3696.266723,-3581.273684,-2338.297829,0.000000,-0.000000,-0.000000,4382.802140,-4267.809100,4.077414,0.000000,-0.000000,0.000000
0.490000,0.130000,0.012073,0.020000,-1354.099684,1208.950000,4077.278788,-3664.428523,2325.576633,0.000000,-0.000000,0.000000,4721.028241,-4308.177976,100.863614,0.000000,-0.000000,0.000000
0.510000,0.130000,0.030510,0.020000,-1307.338707,1308.950000,3899.448261,-3805.054366,2139.422975,0.000000,-0.000000,0.000000,4453.532709,-4359.138814,34.292936,0.000000,-0.000000,0.000000
0.510000,0.150000,0.032241,0.020000,-1294.847118,1311.750000,3675.768088,-3537.430050,2346.444227,0.000000,-0.000000,0.000000,4371.836766,-4233.498729,20.189281,0.000000,-0.000000,0.000000
0.490000,0.150000,0.015949,0.020000,-1340.655932,1211.750000,3890.403996,-3376.420315,2477.821934,0.000000,-0.000000,0.000000,4654.822417,-4140.838736,19.278241,0.000000,-0.000000,0.000000
0.530000,0.130000,0.050160,0.020000,-1262.147102,1412.950000,3711.929754,-3705.266731,1939.567815,0.000000,-0.000000,0.000000,4188.497331,-4181.834308,3.361536,0.000000,-0.000000,0.000000
0.550000,0.130000,0.067892,0.020000,-1218.444028,1520.950000,3494.356579,-3493.159455,1748.641808,0.000000,-0.000000,0.000000,3907.527392,-3906.330267,-0.611446,0.000000,-0.000000,-0.000000
0.550000,0.150000,0.070779,0.020000,-1207.598965,1523.750000,3308.827240,-3308.042919,1948.931626,0.000000,-0.000000,0.000000,3840.193824,-3839.409503,-0.587486,0.000000,-0.000000,-0.000000
0.530000,0.150000,0.051231,0.020000,-1250.522670,1415.750000,3501.482074,-3495.417941,2153.585331,0.000000,-0.000000,0.000000,4111.204610,-4105.140477,0.767628,0.000000,-0.000000,0.000000
0.570000,0.130000,0.086133,0.020000,-1176.139258,1632.950000,3290.721052,-3289.813845,1582.598843,0.000000,-0.000000,0.000000,3651.546414,-3650.639208,-0.518409,0.000000,-0.000000,-0.000000
0.590000,0.130000,0.105016,0.020000,-1135.151133,1748.950000,3104.666105,-3106.886454,1436.636729,0.000000,-0.000000,0.000000,3420.843738,-3423.064086,-1.676703,0.000000,-0.000000,-0.000000
0.590000,0.150000,0.110363,0.020000,-1125.650366,1751.750000,2960.577892,-2962.663547,1607.968074,0.000000,-0.000000,0.000000,3368.935735,-3371.021390,-1.760557,0.000000,-0.000000,-0.000000
0.570000,0.150000,0.090525,0.020000,-1165.999010,1635.750000,3127.583050,-3126.839814,1767.730274,0.000000,-0.000000,0.000000,3592.630150,-3591.886913,-0.551295,0.000000,-0.000000,-0.000000
0.610000,0.130000,0.124250,0.020000,-1095.404551,1868.950000,2920.980412,-2889.020941,1298.428506,0.000000,-0.000000,0.000000,3197.951461,-3165.991990,1.204879,0.000000,-0.000000,0.000000
0.630000,0.130000,0.143692,0.020000,-1056.830244,1992.950000,2771.592697,-2785.460058,1161.430605,0.000000,-0.000000,0.000000,3004.381826,-3018.249187,-33.298673,0.000000,-0.000000,-0.000000
0.630000,0.150000,0.149332,0.020000,-1048.442146,1995.750000,2687.140526,-2685.458865,1353.289497,0.000000,-0.000000,0.000000,3008.762435,-3007.080774,-2.477479,0.000000,-0.000000,-0.000000
0.610000,0.150000,0.130250,0.020000,-1086.485630,1871.750000,2810.216461,-2791.220017,1486.538909,0.000000,-0.000000,0.000000,3180.222289,-3161.225845,18.151457,0.000000,-0.000000,0.000000
-0.630000,0.170000,0.153592,0.020000,-1039.524914,1998.950000,2531.741119,-2546.037399,-1446.717570,0.000000,-0.000000,-0.000000,2914.876638,-2929.172919,26.862409,0.000000,-0.000000,0.000000
-0.610000,0.170000,0.134938,0.020000,-1077.001816,1874.950000,2656.284621,-2628.340856,-1606.308841,0.000000,-0.000000,-0.000000,3106.216734,-3078.272969,-8.153447,0.000000,-0.000000,-0.000000
-0.610000,0.190000,0.139600,0.020000,-1065.885186,1878.550000,2532.548263,-2516.420262,-1756.596116,0.000000,-0.000000,-0.000000,3083.531154,-3067.403152,-12.348954,0.000000,-0.000000,-0.000000
-0.630000,0.190000,0.159081,0.020000,-1029.050507,2002.550000,2438.453483,-2431.763374,-1603.323770,0.000000,-0.000000,-0.000000,2918.871224,-2912.181115,10.359680,0.000000,-0.000000,0.000000
-0.590000,0.170000,0.116278,0.020000,-1115.545520,1754.950000,2807.187354,-2809.129354,-1763.912188,0.000000,-0.000000,-0.000000,3315.222453,-3317.164453,0.731553,0.000000,-0.000000,0.000000
-0.570000,0.170000,0.096447,0.020000,-1155.211782,1638.950000,2954.397725,-2953.842576,-1934.867646,0.000000,-0.000000,-0.000000,3531.642511,-3531.087361,-0.600164,0.000000,-0.000000,-0.000000
-0.570000,0.190000,0.101247,0.020000,-1142.626550,1642.550000,2768.514627,-2768.146960,-2077.050052,0.000000,-0.000000,-0.000000,3461.078500,-3460.710832,-0.641566,0.000000,-0.000000,-0.000000
-0.590000,0.190000,0.120290,0.020000,-1103.727675,1758.550000,2641.933882,-2643.576946,-1898.110201,0.000000,-0.000000,-0.000000,3252.942123,-3254.585187,0.768821,0.000000,-0.000000,0.000000
-0.550000,0.170000,0.076703,0.020000,-1196.060010,1526.950000,3112.475248,-3111.889537,-2127.970239,0.000000,-0.000000,-0.000000,3770.430264,-3769.844553,-0.707755,0.000000,-0.000000,-0.000000
-0.530000,0.170000,0.057138,0.020000,-1238.153410,1418.950000,3278.611750,-3274.535194,-2346.294845,0.000000,-0.000000,-0.000000,4032.053920,-4027.977365,-2.671921,0.000000,-0.000000,-0.000000
-0.530000,0.190000,0.064914,0.020000,-1223.800672,1422.550000,3043.082862,-3042.102506,-2504.438316,0.000000,-0.000000,-0.000000,3941.249061,-3940.268705,-0.972660,0.000000,-0.000000,-0.000000
-0.550000,0.190000,0.082658,0.020000,-1182.632972,1530.550000,2902.825184,-2902.484633,-2278.148230,0.000000,-0.000000,-0.000000,3690.070593,-3689.730043,-0.720061,0.000000,-0.000000,-0.000000
-0.510000,0.170000,0.038029,0.020000,-1281.558658,1314.950000,3429.135124,-3314.884088,-2547.215603,0.000000,-0.000000,-0.000000,4283.062565,-4168.811528,-14.566719,0.000000,-0.000000,-0.000000
-0.490000,0.170000,0.020678,0.020000,-1326.345221,1214.950000,3618.585684,-3208.711855,-2684.512178,0.000000,-0.000000,-0.000000,4547.696577,-4137.822747,6.486665,0.000000,-0.000000,0.000000
-0.490000,0.190000,0.029587,0.020000,-1309.849105,1218.550000,3336.759040,-3124.989880,-2926.536287,0.000000,-0.000000,-0.000000,4465.115016,-4253.345856,16.565612,0.000000,-0.000000,0.000000
-0.510000,0.190000,0.048941,0.020000,-1266.186058,1318.550000,3184.024039,-3124.708884,-2720.049806,0.000000,-0.000000,-0.000000,4194.828879,-4135.513725,6.836812,0.000000,-0.000000,0.000000
-0.470000,0.190000,0.010007,0.020000,-1354.809528,1122.550000,3390.087919,-3041.838330,-3190.502670,0.000000,-0.000000,-0.000000,4703.828150,-4355.578560,-59.275795,0.000000,-0.000000,-0.000000
0.470000,0.170000,0.005421,0.020000,-1371.724281,1118.950000,3677.895814,-3373.290380,2810.930494,0.000000,-0.000000,0.000000,4660.311394,-4355.705960,-94.840361,0.000000,-0.000000,-0.000000
0.470000,0.190000,0.015123,0.020000,-1354.151850,1122.550000,3545.355050,-3112.819171,3103.040501,0.000000,-0.000000,0.000000,4766.533821,-4333.997942,-82.229857,0.000000,-0.000000,-0.000000
0.490000,0.170000,0.022617,0.020000,-1325.639299,1214.950000,3628.270855,-3347.158188,2702.756502,0.000000,-0.000000,0.000000,4552.766520,-4271.653853,-38.033703,0.000000,-0.000000,-0.000000
0.510000,0.170000,0.042352,0.020000,-1280.876275,1314.950000,3443.444334,-3365.634339,2543.831223,0.000000,-0.000000,0.000000,4288.835201,-4211.025206,-7.658623,0.000000,-0.000000,-0.000000
0.510000,0.190000,0.044643,0.020000,-1265.521021,1318.550000,3187.868939,-3168.409405,2739.599679,0.000000,-0.000000,0.000000,4205.670322,-4186.210788,-7.606494,0.000000,-0.000000,-0.000000
0.490000,0.190000,0.026662,0.020000,-1309.152874,1218.550000,3324.611408,-3212.825266,2948.529005,0.000000,-0.000000,0.000000,4457.901186,-4346.115045,-25.834313,0.000000,-0.000000,-0.000000
0.530000,0.170000,0.059440,0.020000,-1237.497779,1418.950000,3276.840626,-3274.429341,2341.854832,0.000000,-0.000000,0.000000,4027.875289,-4025.464004,-0.393823,0.000000,-0.000000,-0.000000
0.550000,0.170000,0.076930,0.020000,-1195.431001,1526.950000,3109.565353,-3109.010858,2124.258610,0.000000,-0.000000,0.000000,3765.930795,-3765.376301,-0.723356,0.000000,-0.000000,-0.000000
0.550000,0.190000,0.083410,0.020000,-1182.019649,1530.550000,2900.396597,-2900.021422,2274.382143,0.000000,-0.000000,0.000000,3685.838941,-3685.463765,-0.733254,0.000000,-0.000000,-0.000000
0.530000,0.190000,0.063837,0.020000,-1223.162228,1422.550000,3040.951236,-3040.842643,2500.526129,0.000000,-0.000000,0.000000,3937.018124,-3936.909530,-0.971127,0.000000,-0.000000,-0.000000
0.570000,0.170000,0.095412,0.020000,-1154.608301,1638.950000,2951.672075,-2951.126957,1931.635706,0.000000,-0.000000,0.000000,3527.590977,-3527.045860,-0.613503,0.000000,-0.000000,-0.000000
0.590000,0.170000,0.114405,0.020000,-1114.966479,1754.950000,2804.626749,-2806.567097,1761.048039,0.000000,-0.000000,0.000000,3311.530554,-3313.470902,-1.793657,0.000000,-0.000000,-0.000000
0.590000,0.190000,0.121643,0.020000,-1103.161670,1758.550000,2639.714908,-2641.355914,1895.107323,0.000000,-0.000000,0.000000,3249.388009,-3251.029015,-1.911906,0.000000,-0.000000,-0.000000
0.570000,0.190000,0.103148,0.020000,-1142.037353,1642.550000,2766.183107,-2765.810704,2073.681234,0.000000,-0.000000,0.000000,3457.192466,-3456.820063,-0.653156,0.000000,-0.000000,-0.000000
0.610000,0.170000,0.133692,0.020000,-1076.446191,1874.950000,2653.904067,-2625.997372,1603.760280,0.000000,-0.000000,0.000000,3102.858507,-3074.951812,7.193887,0.000000,-0.000000,0.000000
0.630000,0.170000,0.153162,0.020000,-1038.991743,1998.950000,2529.509183,-2543.781835,1444.485858,0.000000,-0.000000,0.000000,2911.826610,-2926.099262,-27.662453,0.000000,-0.000000,-0.000000
0.630000,0.190000,0.158642,0.020000,-1028.528271,2002.550000,2436.407518,-2429.734821,1600.923233,0.000000,-0.000000,0.000000,2915.837734,-2909.165037,-11.233570,0.000000,-0.000000,-0.000000
0.610000,0.190000,0.139936,0.020000,-1065.341487,1878.550000,2530.418242,-2514.302773,1753.888400,0.000000,-0.000000,0.000000,3080.239170,-3064.123700,11.326156,0.000000,-0.000000,0.000000
-0.630000,0.210000,0.164487,0.020000,-1017.614733,2006.550000,2246.065057,-2270.504673,-1663.933760,0.000000,-0.000000,-0.000000,2792.768340,-2817.207956,23.823911,0.000000,-0.000000,0.000000
-0.610000,0.210000,0.145730,0.020000,-1053.761172,1882.550000,2319.016644,-2320.318237,-1858.317129,0.000000,-0.000000,-0.000000,2971.362103,-2972.663696,-36.591110,0.000000,-0.000000,-0.000000
-0.610000,0.230000,0.153780,0.020000,-1040.691176,1886.950000,2222.054470,-2216.169364,-1970.440271,0.000000,-0.000000,-0.000000,2970.580350,-2964.695245,-14.780543,0.000000,-0.000000,-0.000000
-0.630000,0.230000,0.172061,0.020000,-1005.272684,2010.950000,2161.726833,-2157.323448,-1780.922775,0.000000,-0.000000,-0.000000,2801.196954,-2796.793569,29.330705,0.000000,-0.000000,0.000000
-0.590000,0.210000,0.127353,0.020000,-1090.853874,1762.550000,2471.786074,-2474.140614,-2015.006048,0.000000,-0.000000,-0.000000,3188.775191,-3191.129731,0.608052,0.000000,-0.000000,0.000000
-0.570000,0.210000,0.109545,0.020000,-1128.934202,1646.550000,2574.785450,-2577.385152,-2199.880042,0.000000,-0.000000,-0.000000,3386.277478,-3388.877180,-2.741178,0.000000,-0.000000,-0.000000
-0.570000,0.230000,0.115316,0.020000,-1114.211536,1650.950000,2381.194364,-2381.346571,-2294.663481,0.000000,-0.000000,-0.000000,3306.875542,-3307.027749,0.584039,0.000000,-0.000000,0.000000
-0.590000,0.230000,0.134436,0.020000,-1076.992708,1766.950000,2315.898732,-2309.679114,-2101.095565,0.000000,-0.000000,-0.000000,3127.729825,-3121.510207,18.572326,0.000000,-0.000000,0.000000
-0.550000,0.210000,0.090895,0.020000,-1168.045081,1534.550000,2686.971070,-2686.801176,-2403.013035,0.000000,-0.000000,-0.000000,3604.780230,-3604.610336,-0.772862,0.000000,-0.000000,-0.000000
-0.530000,0.210000,0.071321,0.020000,-1208.230804,1426.550000,2800.563944,-2800.494397,-2633.754422,0.000000,-0.000000,-0.000000,3844.462594,-3844.393048,-0.846935,0.000000,-0.000000,-0.000000
-0.530000,0.230000,0.078405,0.020000,-1191.540829,1430.950000,2555.818341,-2555.936443,-2734.353674,0.000000,-0.000000,-0.000000,3742.827321,-3742.945423,-0.927889,0.000000,-0.000000,-0.000000
-0.550000,0.230000,0.096554,0.020000,-1152.382527,1538.950000,2468.350349,-2468.535225,-2503.173156,0.000000,-0.000000,-0.000000,3515.456600,-3515.641476,-0.776575,0.000000,-0.000000,-0.000000
-0.510000,0.210000,0.052071,0.020000,-1249.536687,1322.550000,2917.189193,-2905.908046,-2884.177801,0.000000,-0.000000,-0.000000,4103.883133,-4092.601987,2.206802,0.000000,-0.000000,0.000000
-0.490000,0.210000,0.033706,0.020000,-1292.007955,1222.550000,3003.881008,-2882.997160,-3129.926791,0.000000,-0.000000,-0.000000,4356.898624,-4236.014776,-27.114312,0.000000,-0.000000,-0.000000
-0.490000,0.230000,0.046213,0.020000,-1272.958950,1226.950000,2721.107109,-2645.749055,-3228.956937,0.000000,-0.000000,-0.000000,4236.124865,-4160.766811,1.310413,0.000000,-0.000000,0.000000
-0.510000,0.230000,0.061417,0.020000,-1231.721450,1326.950000,2641.519165,-2640.478165,-2991.954497,0.000000,-0.000000,-0.000000,3991.343019,-3990.302019,-1.133179,0.000000,-0.000000,-0.000000
-0.470000,0.210000,0.018996,0.020000,-1335.697466,1126.550000,3117.387605,-2699.178593,-3305.609115,0.000000,-0.000000,-0.000000,4611.790133,-4193.581121,-39.006067,0.000000,-0.000000,-0.000000
-0.450000,0.230000,0.006233,0.020000,-1358.657170,1038.950000,2860.331908,-2406.224980,-3636.687582,0.000000,-0.000000,-0.000000,4717.001720,-4262.894792,4.072732,0.000000,-0.000000,0.000000
-0.470000,0.230000,0.026215,0.020000,-1315.285777,1130.950000,2822.175053,-2563.609039,-3428.004640,0.000000,-0.000000,-0.000000,4488.451987,-4229.885974,23.003948,0.000000,-0.000000,0.000000
0.470000,0.210000,0.017515,0.020000,-1334.993814,1126.550000,3168.246296,-2851.970024,3260.623191,0.000000,-0.000000,0.000000,4595.248100,-4278.971828,-66.857248,0.000000,-0.000000,-0.000000
0.470000,0.230000,0.025320,0.020000,-1314.613747,1130.950000,2812.620222,-2734.904708,3485.193199,0.000000,-0.000000,0.000000,4492.805397,-4415.089883,-51.771321,0.000000,-0.000000,-0.000000
0.450000,0.230000,0.018536,0.020000,-1358.122338,1038.950000,2820.257367,-2813.110566,3850.861150,0.000000,-0.000000,0.000000,4774.537298,-4767.390497,-27.269981,0.000000,-0.000000,-0.000000
0.490000,0.210000,0.037474,0.020000,-1291.340516,1222.550000,3027.737259,-2921.372840,3108.603373,0.000000,-0.000000,0.000000,4355.657100,-4249.292681,-10.123744,0.000000,-0.000000,-0.000000
0.510000,0.210000,0.054702,0.020000,-1248.892405,1322.550000,2914.187871,-2910.868969,2886.852351,0.000000,-0.000000,0.000000,4102.480991,-4099.162088,-0.997632,0.000000,-0.000000,-0.000000
0.510000,0.230000,0.060300,0.020000,-1231.097949,1326.950000,2640.081908,-2640.933098,2987.805238,0.000000,-0.000000,0.000000,3986.961828,-3987.813018,-1.245416,0.000000,-0.000000,-0.000000
0.490000,0.230000,0.041697,0.020000,-1272.311684,1226.950000,2724.101359,-2687.765486,3238.756401,0.000000,-0.000000,0.000000,4238.531177,-4202.195304,-12.362441,0.000000,-0.000000,-0.000000
0.530000,0.210000,0.071235,0.020000,-1207.610669,1426.550000,2798.361700,-2798.215193,2629.306552,0.000000,-0.000000,0.000000,3839.822000,-3839.675493,-0.859128,0.000000,-0.000000,-0.000000
0.550000,0.210000,0.089200,0.020000,-1167.448421,1534.550000,2684.960266,-2684.810234,2399.136310,0.000000,-0.000000,0.000000,3600.694855,-3600.544824,-0.783815,0.000000,-0.000000,-0.000000
0.550000,0.230000,0.098772,0.020000,-1151.803333,1538.950000,2466.790782,-2466.965042,2499.279754,0.000000,-0.000000,0.000000,3511.591274,-3511.765534,-0.843796,0.000000,-0.000000,-0.000000
0.530000,0.230000,0.079584,0.020000,-1190.939806,1430.950000,2554.354588,-2554.440639,2730.041294,0.000000,-0.000000,0.000000,3738.682928,-3738.768979,-0.936858,0.000000,-0.000000,-0.000000
0.570000,0.210000,0.107883,0.020000,-1128.360220,1646.550000,2572.847489,-2575.438386,2196.412969,0.000000,-0.000000,0.000000,3382.554420,-3385.145317,1.362987,0.000000,-0.000000,0.000000
0.590000,0.210000,0.126968,0.020000,-1090.301792,1762.550000,2469.905591,-2472.256853,2011.907804,0.000000,-0.000000,0.000000,3185.360436,-3187.711698,-1.820384,0.000000,-0.000000,-0.000000
0.590000,0.230000,0.133866,0.020000,-1076.455299,1766.950000,2314.322587,-2308.126185,2097.977052,0.000000,-0.000000,0.000000,3124.455834,-3118.259432,-19.809158,0.000000,-0.000000,-0.000000
0.570000,0.230000,0.115923,0.020000,-1113.653547,1650.950000,2379.634204,-2379.783343,2291.167904,0.000000,-0.000000,0.000000,3303.326730,-3303.475869,-2.016863,0.000000,-0.000000,-0.000000
0.610000,0.210000,0.146298,0.020000,-1053.230240,1882.550000,2317.283224,-2318.573511,1855.510367,0.000000,-0.000000,0.000000,2968.269466,-2969.559753,35.449670,0.000000,-0.000000,0.000000
0.630000,0.210000,0.165786,0.020000,-1017.104229,2006.550000,2244.398648,-2268.790509,1661.485644,0.000000,-0.000000,0.000000,2789.971119,-2814.362980,-24.768232,0.000000,-0.000000,-0.000000
0.630000,0.230000,0.171127,0.020000,-1004.774603,2010.950000,2160.210674,-2155.817186,1778.398147,0.000000,-0.000000,0.000000,2798.409672,-2794.016184,-30.287848,0.000000,-0.000000,-0.000000
0.610000,0.230000,0.152323,0.020000,-1040.173733,1886.950000,2220.512435,-2214.622689,1967.561981,0.000000,-0.000000,0.000000,2967.522421,-2961.632674,13.638415,0.000000,-0.000000,0.000000
-0.590000,0.250000,0.141187,0.020000,-1062.214348,1771.750000,2113.879046,-2108.929866,-2185.382899,0.000000,-0.000000,-0.000000,3041.210751,-3036.261571,-3.119925,0.000000,-0.000000,-0.000000
-0.570000,0.250000,0.123120,0.020000,-1098.536759,1655.750000,2168.674404,-2151.795728,-2373.588678,0.000000,-0.000000,-0.000000,3217.831322,-3200.952646,-18.489094,0.000000,-0.000000,-0.000000
-0.570000,0.270000,0.132559,0.020000,-1081.988401,1660.950000,2001.840319,-2005.099682,-2436.968978,0.000000,-0.000000,-0.000000,3153.155365,-3156.414728,6.414991,0.000000,-0.000000,0.000000
-0.590000,0.270000,0.150315,0.020000,-1046.589605,1776.950000,1976.004948,-1964.460423,-2240.992624,0.000000,-0.000000,-0.000000,2989.592417,-2978.047892,26.116302,0.000000,-0.000000,0.000000
-0.550000,0.250000,0.105751,0.020000,-1135.732640,1543.750000,2250.609027,-2252.076538,-2579.516893,0.000000,-0.000000,-0.000000,3423.072856,-3424.540367,0.096468,0.000000,-0.000000,0.000000
-0.530000,0.250000,0.088621,0.020000,-1173.828433,1435.750000,2313.041253,-2313.307959,-2808.199370,0.000000,-0.000000,-0.000000,3638.102427,-3638.369134,-0.930320,0.000000,-0.000000,-0.000000
-0.530000,0.270000,0.095263,0.020000,-1155.190607,1440.950000,2075.024935,-2075.456464,-2857.085302,0.000000,-0.000000,-0.000000,3531.010575,-3531.442104,-0.960584,0.000000,-0.000000,-0.000000
-0.550000,0.270000,0.113681,0.020000,-1118.182637,1548.950000,2035.215063,-2036.258331,-2633.568456,0.000000,-0.000000,-0.000000,3328.127746,-3329.171013,-0.142564,0.000000,-0.000000,-0.000000
-0.510000,0.250000,0.069321,0.020000,-1212.849327,1331.750000,2371.237697,-2371.794187,-3062.063986,0.000000,-0.000000,-0.000000,3872.746760,-3873.303250,-1.014503,0.000000,-0.000000,-0.000000
-0.490000,0.250000,0.050566,0.020000,-1252.818433,1231.750000,2425.360710,-2409.845864,-3328.805713,0.000000,-0.000000,-0.000000,4121.847785,-4106.332939,3.691046,0.000000,-0.000000,0.000000
-0.490000,0.270000,0.061468,0.020000,-1231.709226,1236.950000,2131.597116,-2131.087018,-3374.220219,0.000000,-0.000000,-0.000000,3991.242473,-3990.732375,-0.691724,0.000000,-0.000000,-0.000000
-0.510000,0.270000,0.077632,0.020000,-1193.028424,1336.950000,2107.914115,-2108.479398,-3103.456493,0.000000,-0.000000,-0.000000,3751.508203,-3752.073485,-1.110117,0.000000,-0.000000,-0.000000
-0.470000,0.250000,0.033295,0.020000,-1293.755487,1135.750000,2461.182587,-2325.582400,-3576.528658,0.000000,-0.000000,-0.000000,4371.244065,-4235.643879,-14.386921,0.000000,-0.000000,-0.000000
-0.450000,0.250000,0.021451,0.020000,-1335.693059,1043.750000,2558.027154,-2045.095003,-3746.174131,0.000000,-0.000000,-0.000000,4653.099021,-4140.166870,-24.955229,0.000000,-0.000000,-0.000000
-0.450000,0.270000,0.026531,0.020000,-1311.629437,1048.950000,2186.599831,-1895.404245,-3810.668097,0.000000,-0.000000,-0.000000,4468.423544,-4177.227958,7.628576,0.000000,-0.000000,0.000000
-0.470000,0.270000,0.046235,0.020000,-1271.242364,1140.950000,2146.435406,-2070.551582,-3618.165945,0.000000,-0.000000,-0.000000,4225.646315,-4149.762492,-1.201195,0.000000,-0.000000,-0.000000
-0.430000,0.270000,0.008375,0.020000,-1352.819625,960.950000,2203.285257,-1747.514465,-4001.252261,0.000000,-0.000000,-0.000000,4690.009365,-4234.238574,40.913865,0.000000,-0.000000,0.000000
0.430000,0.270000,0.019789,0.020000,-1352.275790,960.950000,2131.444403,-1807.892952,4184.033473,0.000000,-0.000000,0.000000,4786.040521,-4462.489070,43.656641,0.000000,-0.000000,0.000000
0.450000,0.250000,0.015981,0.020000,-1334.999070,1043.750000,2384.414049,-2283.225048,3849.681256,0.000000,-0.000000,0.000000,4552.153064,-4450.964064,52.248972,0.000000,-0.000000,0.000000
0.470000,0.250000,0.035815,0.020000,-1293.112891,1135.750000,2443.760076,-2395.188257,3617.229799,0.000000,-0.000000,0.000000,4376.063294,-4327.491474,15.500250,0.000000,-0.000000,0.000000
0.470000,0.270000,0.042492,0.020000,-1270.623541,1140.950000,2135.708021,-2101.051361,3633.143778,0.000000,-0.000000,0.000000,4222.951493,-4188.294833,0.205969,0.000000,-0.000000,0.000000
0.450000,0.270000,0.027897,0.020000,-1310.994467,1048.950000,2141.050692,-1972.380238,3872.879315,0.000000,-0.000000,0.000000,4469.447783,-4300.777329,7.782503,0.000000,-0.000000,0.000000
0.490000,0.250000,0.053600,0.020000,-1252.195684,1231.750000,2425.491090,-2425.174100,3338.084332,0.000000,-0.000000,0.000000,4126.297723,-4125.980732,-4.503332,0.000000,-0.000000,-0.000000
0.510000,0.250000,0.069068,0.020000,-1212.247402,1331.750000,2370.125825,-2370.371880,3057.084631,0.000000,-0.000000,0.000000,3868.189912,-3868.435967,-1.033894,0.000000,-0.000000,-0.000000
0.510000,0.270000,0.079122,0.020000,-1192.448451,1336.950000,2107.507393,-2108.080373,3098.904250,0.000000,-0.000000,0.000000,3747.513046,-3748.086026,-1.115795,0.000000,-0.000000,-0.000000
0.490000,0.270000,0.060274,0.020000,-1231.110174,1236.950000,2129.558551,-2131.606348,3370.924338,0.000000,-0.000000,0.000000,3986.771518,-3988.819315,-0.426731,0.000000,-0.000000,-0.000000
0.530000,0.250000,0.086417,0.020000,-1173.247135,1435.750000,2311.919324,-2312.210758,2803.917574,0.000000,-0.000000,0.000000,3634.080148,-3634.371582,-0.936627,0.000000,-0.000000,-0.000000
0.550000,0.250000,0.104716,0.020000,-1135.171537,1543.750000,2249.451927,-2250.921154,2575.656283,0.000000,-0.000000,0.000000,3419.403051,-3420.872278,-1.763810,0.000000,-0.000000,-0.000000
0.550000,0.270000,0.113577,0.020000,-1117.640089,1548.950000,2034.442302,-2035.484514,2629.781000,0.000000,-0.000000,0.000000,3324.658850,-3325.701062,-1.562106,0.000000,-0.000000,-0.000000
0.530000,0.270000,0.096965,0.020000,-1154.629476,1440.950000,2074.376306,-2074.793998,2852.908491,0.000000,-0.000000,0.000000,3527.253341,-3527.671033,-0.964681,0.000000,-0.000000,-0.000000
0.570000,0.250000,0.123543,0.020000,-1097.995387,1655.750000,2167.501645,-2150.630880,2370.085521,0.000000,-0.000000,0.000000,3214.458513,-3197.587748,16.976138,0.000000,-0.000000,0.000000
0.590000,0.250000,0.142690,0.020000,-1061.692230,1771.750000,2112.673106,-2107.730566,2182.223299,0.000000,-0.000000,0.000000,3038.100879,-3033.158339,1.786246,0.000000,-0.000000,0.000000
0.590000,0.270000,0.149314,0.020000,-1046.083265,1776.950000,1975.045759,-1963.527143,2237.895813,0.000000,-0.000000,0.000000,2986.617354,-2975.098738,-27.424551,0.000000,-0.000000,-0.000000
0.570000,0.270000,0.131138,0.020000,-1081.464127,1660.950000,2000.960168,-2004.194841,2433.527021,0.000000,-0.000000,0.000000,3149.939095,-3153.173767,-7.904843,0.000000,-0.000000,-0.000000
-0.590000,0.290000,0.158245,0.020000,-1030.189073,1782.550000,1721.897482,-1753.072909,-2260.722305,0.000000,-0.000000,-0.000000,2835.673889,-2866.849316,-5.236591,0.000000,-0.000000,-0.000000
-0.570000,0.290000,0.139976,0.020000,-1064.644351,1666.550000,1754.805317,-1763.207564,-2489.928467,0.000000,-0.000000,-0.000000,3044.060739,-3052.462986,-44.125295,0.000000,-0.000000,-0.000000
-0.570000,0.310000,0.149715,0.020000,-1046.581023,1672.550000,1634.481192,-1638.935902,-2519.425714,0.000000,-0.000000,-0.000000,3002.152605,-3006.607314,4.675052,0.000000,-0.000000,0.000000
-0.590000,0.310000,0.166922,0.020000,-1013.082374,1788.550000,1626.444625,-1619.878166,-2294.832723,0.000000,-0.000000,-0.000000,2813.923665,-2807.357207,34.791968,0.000000,-0.000000,0.000000
-0.550000,0.290000,0.122249,0.020000,-1099.818542,1554.550000,1827.089456,-1829.226802,-2669.086005,0.000000,-0.000000,-0.000000,3234.079208,-3236.216555,0.657164,0.000000,-0.000000,0.000000
-0.530000,0.290000,0.105339,0.020000,-1135.722438,1446.550000,1841.208395,-1848.179334,-2889.404994,0.000000,-0.000000,-0.000000,3424.566168,-3431.537107,-4.317832,0.000000,-0.000000,-0.000000
-0.530000,0.310000,0.115407,0.020000,-1115.516078,1452.550000,1628.137438,-1625.978218,-2888.736856,0.000000,-0.000000,-0.000000,3316.515200,-3314.355980,2.155521,0.000000,-0.000000,0.000000
-0.550000,0.310000,0.133289,0.020000,-1080.724259,1560.550000,1649.746556,-1631.410584,-2666.330904,0.000000,-0.000000,-0.000000,3139.710523,-3121.374551,22.846447,0.000000,-0.000000,0.000000
-0.510000,0.290000,0.089695,0.020000,-1172.363896,1342.550000,1854.713870,-1855.399192,-3119.857116,0.000000,-0.000000,-0.000000,3629.360083,-3630.045405,-1.072430,0.000000,-0.000000,-0.000000
-0.490000,0.290000,0.070791,0.020000,-1209.746966,1242.550000,1852.707790,-1853.823821,-3378.993696,0.000000,-0.000000,-0.000000,3853.296007,-3854.412038,-1.310533,0.000000,-0.000000,-0.000000
-0.490000,0.310000,0.080320,0.020000,-1187.042908,1248.550000,1590.036886,-1590.977024,-3358.401614,0.000000,-0.000000,-0.000000,3715.518663,-3716.458802,-1.230873,0.000000,-0.000000,-0.000000
-0.510000,0.310000,0.097391,0.020000,-1150.956946,1348.550000,1613.628064,-1614.465318,-3114.022108,0.000000,-0.000000,-0.000000,3507.041923,-3507.879177,-0.949080,0.000000,-0.000000,-0.000000
-0.470000,0.290000,0.052703,0.020000,-1247.870746,1146.550000,1839.319633,-1825.652233,-3647.200192,0.000000,-0.000000,-0.000000,4088.508612,-4074.841212,1.962882,0.000000,-0.000000,0.000000
-0.450000,0.290000,0.036659,0.020000,-1286.728170,1054.550000,1819.680942,-1727.000690,-3894.855665,0.000000,-0.000000,-0.000000,4325.896585,-4233.216333,5.900357,0.000000,-0.000000,0.000000
-0.450000,0.310000,0.049919,0.020000,-1261.105738,1060.550000,1500.842032,-1481.658850,-3892.232331,0.000000,-0.000000,-0.000000,4177.715728,-4158.532546,6.447934,0.000000,-0.000000,0.000000
-0.470000,0.310000,0.064943,0.020000,-1223.764534,1152.550000,1550.614924,-1551.125167,-3622.821457,0.000000,-0.000000,-0.000000,3940.561138,-3941.071381,-0.645384,0.000000,-0.000000,-0.000000
-0.430000,0.290000,0.026648,0.020000,-1326.315844,966.550000,1808.090499,-1577.726879,-4115.370727,0.000000,-0.000000,-0.000000,4565.065286,-4334.701666,27.442594,0.000000,-0.000000,0.000000
-0.410000,0.290000,0.010664,0.020000,-1366.559536,882.550000,1662.288099,-1525.163911,-4389.319317,0.000000,-0.000000,-0.000000,4738.082784,-4600.958595,40.782004,0.000000,-0.000000,0.000000
-0.410000,0.310000,0.015463,0.020000,-1337.523872,888.550000,1357.793355,-1066.417992,-4305.526240,0.000000,-0.000000,-0.000000,4618.573293,-4327.197930,-7.118195,0.000000,-0.000000,-0.000000
-0.430000,0.310000,0.031072,0.020000,-1299.040384,972.550000,1427.487785,-1322.758127,-4140.515057,0.000000,-0.000000,-0.000000,4415.255336,-4310.525679,-3.807676,0.000000,-0.000000,-0.000000
0.410000,0.290000,0.009919,0.020000,-1365.903309,882.550000,1569.095289,-1446.297252,4347.058168,0.000000,-0.000000,0.000000,4662.417730,-4539.619693,26.259766,0.000000,-0.000000,0.000000
0.430000,0.290000,0.019115,0.020000,-1325.669069,966.550000,1699.987780,-1637.514535,4156.290398,0.000000,-0.000000,0.000000,4510.005923,-4447.532679,10.288228,0.000000,-0.000000,0.000000
0.430000,0.310000,0.033752,0.020000,-1298.447538,972.550000,1410.870961,-1329.124688,4136.813064,0.000000,-0.000000,0.000000,4398.631748,-4316.885475,7.500285,0.000000,-0.000000,0.000000
0.410000,0.310000,0.020447,0.020000,-1336.943536,888.550000,1385.252110,-1057.352754,4299.018697,0.000000,-0.000000,0.000000,4633.080367,-4305.181011,-3.503907,0.000000,-0.000000,-0.000000
0.450000,0.290000,0.037847,0.020000,-1286.119759,1054.550000,1804.285998,-1744.237651,3919.130439,0.000000,-0.000000,0.000000,4332.067594,-4272.019248,3.289280,0.000000,-0.000000,0.000000
0.470000,0.290000,0.055932,0.020000,-1247.278810,1146.550000,1842.721410,-1837.044603,3650.570211,0.000000,-0.000000,0.000000,4090.843108,-4085.166301,-7.062632,0.000000,-0.000000,-0.000000
0.470000,0.310000,0.063821,0.020000,-1223.198365,1152.550000,1549.657558,-1551.730591,3619.312632,0.000000,-0.000000,0.000000,3936.485002,-3938.558035,-0.574249,0.000000,-0.000000,-0.000000
0.450000,0.310000,0.046970,0.020000,-1260.524491,1060.550000,1490.102520,-1484.536054,3893.983043,0.000000,-0.000000,0.000000,4171.142379,-4165.575913,-2.150989,0.000000,-0.000000,-0.000000
0.490000,0.290000,0.070397,0.020000,-1209.171977,1242.550000,1853.050401,-1853.697439,3373.748264,0.000000,-0.000000,0.000000,3848.984279,-3849.631317,-1.308263,0.000000,-0.000000,-0.000000
0.510000,0.290000,0.087081,0.020000,-1171.806068,1342.550000,1854.586190,-1855.288028,3115.458783,0.000000,-0.000000,0.000000,3625.510903,-3626.212741,-1.073942,0.000000,-0.000000,-0.000000
0.510000,0.310000,0.098519,0.020000,-1150.421307,1348.550000,1613.924231,-1614.749237,3109.843757,0.000000,-0.000000,0.000000,3503.472451,-3504.297456,-1.232171,0.000000,-0.000000,-0.000000
0.490000,0.310000,0.082099,0.020000,-1186.491903,1248.550000,1590.628808,-1591.614843,3353.947624,0.000000,-0.000000,0.000000,3711.734320,-3712.720355,-1.232459,0.000000,-0.000000,-0.000000
0.530000,0.290000,0.104931,0.020000,-1135.181738,1446.550000,1840.937785,-1847.893991,2885.370783,0.000000,-0.000000,0.000000,3421.026076,-3427.982283,2.376784,0.000000,-0.000000,0.000000
0.550000,0.290000,0.123441,0.020000,-1099.294861,1554.550000,1826.663592,-1828.798474,2665.409315,0.000000,-0.000000,0.000000,3230.805371,-3232.940253,-2.381803,0.000000,-0.000000,-0.000000
0.550000,0.310000,0.131760,0.020000,-1080.219614,1560.550000,1649.604376,-1631.309330,2662.835463,0.000000,-0.000000,0.000000,3136.636703,-3118.341657,-24.552302,0.000000,-0.000000,-0.000000
0.530000,0.310000,0.114600,0.020000,-1114.995922,1452.550000,1628.200185,-1626.040156,2884.894278,0.000000,-0.000000,0.000000,3313.196904,-3311.036875,-4.093436,0.000000,-0.000000,-0.000000
0.570000,0.290000,0.141179,0.020000,-1064.137518,1666.550000,1754.314992,-1762.693307,2486.526936,0.000000,-0.000000,0.000000,3041.027479,-3049.405794,42.528642,0.000000,-0.000000,0.000000
0.590000,0.290000,0.158206,0.020000,-1029.698874,1782.550000,1721.372692,-1752.495993,2257.677117,0.000000,-0.000000,0.000000,2832.952408,-2864.075709,3.812649,0.000000,-0.000000,0.000000
0.590000,0.310000,0.167974,0.020000,-1012.608568,1788.550000,1626.061148,-1619.506546,2291.902265,0.000000,-0.000000,0.000000,2811.290309,-2804.735707,-36.143540,0.000000,-0.000000,-0.000000
0.570000,0.310000,0.149626,0.020000,-1046.091847,1672.550000,1634.189458,-1638.618444,2516.147927,0.000000,-0.000000,0.000000,2999.248455,-3003.677441,-6.200738,0.000000,-0.000000,-0.000000
-0.550000,0.330000,0.142101,0.020000,-1060.980807,1566.950000,1388.019647,-1408.528881,-2675.225529,0.000000,-0.000000,-0.000000,3008.249915,-3028.759149,-25.158251,0.000000,-0.000000,-0.000000
-0.530000,0.330000,0.124735,0.020000,-1094.659937,1458.950000,1373.386792,-1388.537930,-2902.314213,0.000000,-0.000000,-0.000000,3206.264959,-3221.416097,-41.399207,0.000000,-0.000000,-0.000000
-0.530000,0.350000,0.136377,0.020000,-1073.238066,1465.750000,1238.093151,-1254.840062,-2869.219537,0.000000,-0.000000,-0.000000,3119.838639,-3136.585549,19.719227,0.000000,-0.000000,0.000000
-0.550000,0.350000,0.152422,0.020000,-1040.665728,1573.750000,1273.178040,-1265.401054,-2632.635470,0.000000,-0.000000,-0.000000,2926.327963,-2918.550976,34.828449,0.000000,-0.000000,0.000000
-0.510000,0.330000,0.108282,0.020000,-1128.903993,1354.950000,1387.896263,-1389.946594,-3090.929517,0.000000,-0.000000,-0.000000,3387.624687,-3389.675018,0.440135,0.000000,-0.000000,0.000000
-0.490000,0.330000,0.093227,0.020000,-1163.702080,1254.950000,1339.780862,-1349.433623,-3325.908203,0.000000,-0.000000,-0.000000,3582.598213,-3592.250974,-4.335743,0.000000,-0.000000,-0.000000
-0.490000,0.350000,0.102934,0.020000,-1139.822823,1261.750000,1114.180530,-1116.512621,-3260.127124,0.000000,-0.000000,-0.000000,3444.472015,-3446.804107,-2.280955,0.000000,-0.000000,-0.000000
-0.510000,0.350000,0.120506,0.020000,-1106.296032,1361.750000,1192.774733,-1172.668220,-3026.469760,0.000000,-0.000000,-0.000000,3259.379392,-3239.272879,15.131543,0.000000,-0.000000,0.000000
-0.470000,0.330000,0.075787,0.020000,-1199.037416,1158.950000,1284.441419,-1285.823187,-3563.609308,0.000000,-0.000000,-0.000000,3787.563892,-3788.945660,-1.443912,0.000000,-0.000000,-0.000000
-0.450000,0.330000,0.058457,0.020000,-1234.886077,1066.950000,1202.614122,-1203.210282,-3825.913612,0.000000,-0.000000,-0.000000,4010.263657,-4010.859817,-2.699390,0.000000,-0.000000,-0.000000
-0.450000,0.350000,0.071712,0.020000,-1208.184004,1073.750000,944.410886,-945.646969,-3725.902507,0.000000,-0.000000,-0.000000,3843.263817,-3844.499899,-1.194118,0.000000,-0.000000,-0.000000
-0.470000,0.350000,0.086423,0.020000,-1173.795528,1165.750000,1040.615719,-1041.921571,-3485.867946,0.000000,-0.000000,-0.000000,3637.411689,-3638.717541,-1.258071,0.000000,-0.000000,-0.000000
-0.430000,0.330000,0.043484,0.020000,-1271.215708,978.950000,1102.867566,-1043.339391,-4057.257965,0.000000,-0.000000,-0.000000,4226.515873,-4166.987698,-12.950436,0.000000,-0.000000,-0.000000
-0.410000,0.330000,0.033086,0.020000,-1307.987127,894.950000,1048.399988,-799.032552,-4215.205354,0.000000,-0.000000,-0.000000,4439.913219,-4190.545784,1.507097,0.000000,-0.000000,0.000000
-0.410000,0.350000,0.039756,0.020000,-1278.043096,901.750000,717.077235,-636.125431,-4171.818230,0.000000,-0.000000,-0.000000,4266.783035,-4185.831231,13.591436,0.000000,-0.000000,0.000000
-0.430000,0.350000,0.057456,0.020000,-1242.949604,985.750000,831.013218,-815.460897,-3963.868263,0.000000,-0.000000,-0.000000,4056.228795,-4040.676473,1.460555,0.000000,-0.000000,0.000000
-0.390000,0.330000,0.013192,0.020000,-1345.116778,814.950000,996.914816,-591.466747,-4382.974427,0.000000,-0.000000,-0.000000,4656.695909,-4251.247840,57.778589,0.000000,-0.000000,0.000000
-0.370000,0.350000,0.021357,0.020000,-1349.009388,745.750000,359.781475,-125.234738,-4605.397598,0.000000,-0.000000,-0.000000,4729.031635,-4494.484899,-13.524001,0.000000,-0.000000,-0.000000
-0.390000,0.350000,0.025688,0.020000,-1313.403847,821.750000,574.585558,-389.083694,-4364.072635,0.000000,-0.000000,-0.000000,4483.334087,-4297.832222,8.609989,0.000000,-0.000000,0.000000
0.390000,0.330000,0.017396,0.020000,-1344.563910,814.950000,1004.622355,-516.834192,4414.602734,0.000000,-0.000000,0.000000,4723.519389,-4235.731225,-19.542603,0.000000,-0.000000,-0.000000
0.390000,0.350000,0.027373,0.020000,-1312.852852,821.750000,568.886694,-329.008047,4330.235900,0.000000,-0.000000,0.000000,4473.337877,-4233.459230,20.438276,0.000000,-0.000000,0.000000
0.370000,0.350000,0.009764,0.020000,-1348.357311,745.750000,385.559734,-89.592148,4454.415520,0.000000,-0.000000,0.000000,4608.719002,-4312.751416,10.067135,0.000000,-0.000000,0.000000
0.410000,0.330000,0.026717,0.020000,-1307.403415,894.950000,1035.726280,-816.586520,4231.526937,0.000000,-0.000000,0.000000,4441.265361,-4222.125600,-0.402625,0.000000,-0.000000,-0.000000
0.430000,0.330000,0.043875,0.020000,-1270.650212,978.950000,1109.767571,-1059.456213,4057.639584,0.000000,-0.000000,0.000000,4225.253084,-4174.941726,1.932449,0.000000,-0.000000,0.000000
0.430000,0.350000,0.054961,0.020000,-1242.412710,985.750000,829.952830,-821.177698,3964.504127,0.000000,-0.000000,0.000000,4053.935434,-4045.160302,-3.611213,0.000000,-0.000000,-0.000000
0.410000,0.350000,0.042539,0.020000,-1277.497766,901.750000,703.542192,-618.262059,4172.683308,0.000000,-0.000000,0.000000,4267.338092,-4182.057959,2.049032,0.000000,-0.000000,0.000000
0.450000,0.330000,0.061481,0.020000,-1234.332734,1066.950000,1207.032149,-1207.794127,3821.651384,0.000000,-0.000000,0.000000,4007.468500,-4008.230477,-2.874542,0.000000,-0.000000,-0.000000
0.470000,0.330000,0.075146,0.020000,-1198.496838,1158.950000,1285.907533,-1286.969358,3558.744364,0.000000,-0.000000,0.000000,3783.591609,-3784.653434,-1.436741,0.000000,-0.000000,-0.000000
0.470000,0.350000,0.088561,0.020000,-1173.280040,1165.750000,1042.132152,-1043.472105,3481.768164,0.000000,-0.000000,0.000000,3633.906189,-3635.246142,-1.385885,0.000000,-0.000000,-0.000000
0.450000,0.350000,0.070936,0.020000,-1207.657470,1073.750000,945.654120,-947.287313,3721.881821,0.000000,-0.000000,0.000000,3839.523192,-3841.156384,-1.193015,0.000000,-0.000000,-0.000000
0.490000,0.330000,0.091181,0.020000,-1163.174831,1254.950000,1340.654066,-1350.292024,3321.670772,0.000000,-0.000000,0.000000,3579.004491,-3588.642449,1.940466,0.000000,-0.000000,0.000000
0.510000,0.330000,0.108540,0.020000,-1128.390430,1354.950000,1388.496333,-1390.547277,3087.009318,0.000000,-0.000000,0.000000,3384.294402,-3386.345346,-2.594121,0.000000,-0.000000,-0.000000
0.510000,0.350000,0.118974,0.020000,-1105.804306,1361.750000,1193.631142,-1173.565940,3022.855351,0.000000,-0.000000,0.000000,3256.301601,-3236.236399,-17.249825,0.000000,-0.000000,-0.000000
0.490000,0.350000,0.103382,0.020000,-1139.318981,1261.750000,1115.358012,-1117.679331,3256.218358,0.000000,-0.000000,0.000000,3441.160059,-3443.481378,-0.095492,0.000000,-0.000000,-0.000000
0.530000,0.330000,0.126681,0.020000,-1094.160300,1458.950000,1373.776689,-1388.896382,2898.625460,0.000000,-0.000000,0.000000,3203.135562,-3218.255255,39.435759,0.000000,-0.000000,0.000000
0.550000,0.330000,0.142420,0.020000,-1060.495244,1566.950000,1388.272341,-1408.741902,2671.848698,0.000000,-0.000000,0.000000,3005.399775,-3025.869336,23.363692,0.000000,-0.000000,0.000000
0.550000,0.350000,0.153260,0.020000,-1040.199181,1573.750000,1273.579638,-1265.816992,2629.514859,0.000000,-0.000000,0.000000,2923.667011,-2915.904365,-36.520416,0.000000,-0.000000,-0.000000
0.530000,0.350000,0.135727,0.020000,-1072.758804,1465.750000,1238.669777,-1255.377481,2865.785971,0.000000,-0.000000,0.000000,3116.919172,-3133.626876,-21.579744,0.000000,-0.000000,-0.000000
-0.510000,0.370000,0.130565,0.020000,-1083.218234,1368.950000,965.682463,-962.532951,-3000.535487,0.000000,-0.000000,-0.000000,3153.162066,-3150.012554,-14.639102,0.000000,-0.000000,-0.000000
-0.490000,0.370000,0.114546,0.020000,-1115.496449,1268.950000,892.535477,-896.459098,-3203.097479,0.000000,-0.000000,-0.000000,3323.648974,-3327.572596,-16.485261,0.000000,-0.000000,-0.000000
-0.490000,0.390000,0.128242,0.020000,-1090.807087,1276.550000,729.442914,-750.243649,-3103.211197,0.000000,-0.000000,-0.000000,3179.690219,-3200.490954,24.695351,0.000000,-0.000000,0.000000
-0.510000,0.390000,0.142732,0.020000,-1059.749713,1376.550000,818.726159,-801.004722,-2901.805590,0.000000,-0.000000,-0.000000,3021.485006,-3003.763569,21.274790,0.000000,-0.000000,0.000000
-0.470000,0.370000,0.099972,0.020000,-1148.136456,1172.950000,817.128327,-817.002553,-3394.295591,0.000000,-0.000000,-0.000000,3491.313595,-3491.187821,-2.642453,0.000000,-0.000000,-0.000000
-0.450000,0.370000,0.084307,0.020000,-1181.103148,1080.950000,709.301302,-710.737235,-3611.758240,0.000000,-0.000000,-0.000000,3680.168180,-3681.604112,-1.458233,0.000000,-0.000000,-0.000000
-0.450000,0.390000,0.095883,0.020000,-1153.737475,1088.550000,498.705201,-500.014833,-3487.403036,0.000000,-0.000000,-0.000000,3522.318141,-3523.627772,-1.381125,0.000000,-0.000000,-0.000000
-0.470000,0.390000,0.111867,0.020000,-1122.149310,1180.550000,615.094261,-614.572119,-3292.072391,0.000000,-0.000000,-0.000000,3349.253731,-3348.731589,-2.940303,0.000000,-0.000000,-0.000000
-0.430000,0.370000,0.067728,0.020000,-1214.353041,992.950000,576.567543,-577.866371,-3838.591331,0.000000,-0.000000,-0.000000,3881.097558,-3882.396386,-1.808416,0.000000,-0.000000,-0.000000
-0.410000,0.370000,0.053539,0.020000,-1247.833019,908.950000,425.758279,-416.400888,-4063.535454,0.000000,-0.000000,-0.000000,4089.971612,-4080.614222,3.190949,0.000000,-0.000000,0.000000
-0.410000,0.390000,0.068812,0.020000,-1217.454626,916.550000,191.924073,-194.346726,-3897.570102,0.000000,-0.000000,-0.000000,3901.140594,-3903.563247,-1.862651,0.000000,-0.000000,-0.000000
-0.430000,0.390000,0.081688,0.020000,-1185.524622,1000.550000,358.600773,-360.067074,-3689.507281,0.000000,-0.000000,-0.000000,3706.230929,-3707.697230,-1.469558,0.000000,-0.000000,-0.000000
-0.390000,0.370000,0.042374,0.020000,-1281.479463,828.950000,258.108385,-188.213845,-4257.517655,0.000000,-0.000000,-0.000000,4298.309360,-4228.414820,-1.072562,0.000000,-0.000000,-0.000000
-0.370000,0.370000,0.024194,0.020000,-1315.209721,752.950000,69.212727,108.553883,-4405.797953,0.000000,0.000000,-0.000000,4494.681258,-4316.914648,-19.670578,0.000000,-0.000000,-0.000000
-0.370000,0.390000,0.038918,0.020000,-1281.465278,760.550000,-198.997396,277.663966,-4242.978630,-0.000000,0.000000,-0.000000,4288.974319,-4210.307750,-14.840690,0.000000,-0.000000,-0.000000
-0.390000,0.390000,0.052200,0.020000,-1249.460883,836.550000,-1.136006,9.483756,-4095.896201,-0.000000,0.000000,-0.000000,4100.070076,-4091.722326,-5.309881,0.000000,-0.000000,-0.000000
-0.350000,0.370000,0.013234,0.020000,-1348.937191,680.950000,-151.295062,414.383570,-4513.619022,-0.000000,0.000000,-0.000000,4653.904366,-4390.815857,-31.839895,0.000000,-0.000000,-0.000000
-0.330000,0.390000,0.011722,0.020000,-1345.059113,620.550000,-521.947608,1048.394263,-4339.499497,-0.000000,0.000000,-0.000000,4672.826985,-4146.380331,-56.079006,0.000000,-0.000000,-0.000000
-0.350000,0.390000,0.030425,0.020000,-1313.381544,688.550000,-352.361055,603.569182,-4327.175610,-0.000000,0.000000,-0.000000,4479.088073,-4227.879946,-8.740274,0.000000,-0.000000,-0.000000
0.350000,0.370000,0.014721,0.020000,-1348.421279,680.950000,-65.995085,332.688803,4533.350083,-0.000000,0.000000,0.000000,4670.772439,-4404.078721,-52.624046,0.000000,-0.000000,-0.000000
0.350000,0.390000,0.024517,0.020000,-1312.875019,688.550000,-362.842972,538.662466,4364.934073,-0.000000,0.000000,0.000000,4475.998904,-4300.179410,-22.383672,0.000000,-0.000000,-0.000000
0.330000,0.390000,0.020308,0.020000,-1344.625511,620.550000,-592.057671,898.586104,4479.662745,-0.000000,0.000000,0.000000,4694.502132,-4387.973699,-6.419834,0.000000,-0.000000,-0.000000
0.370000,0.370000,0.028144,0.020000,-1314.689863,752.950000,144.475102,108.543916,4361.765123,0.000000,0.000000,0.000000,4488.274632,-4235.255614,-17.965593,0.000000,-0.000000,-0.000000
0.390000,0.370000,0.038026,0.020000,-1280.955457,828.950000,268.252113,-179.395876,4229.131738,0.000000,-0.000000,0.000000,4279.478445,-4190.622208,-1.082361,0.000000,-0.000000,-0.000000
0.390000,0.390000,0.054247,0.020000,-1248.968207,836.550000,13.223984,3.759519,4085.688219,0.000000,-0.000000,0.000000,4094.179971,-4077.196468,-4.732232,0.000000,-0.000000,-0.000000
0.370000,0.390000,0.039871,0.020000,-1280.969672,760.550000,-169.190421,249.685919,4241.774570,-0.000000,0.000000,0.000000,4287.166784,-4206.671285,-13.948504,0.000000,-0.000000,-0.000000
0.410000,0.370000,0.053851,0.020000,-1247.316540,908.950000,424.666160,-409.133853,4054.116318,0.000000,-0.000000,0.000000,4083.261796,-4067.729489,0.003171,0.000000,-0.000000,0.000000
0.430000,0.370000,0.070117,0.020000,-1213.844081,992.950000,579.463550,-581.277184,3835.156372,0.000000,-0.000000,0.000000,3877.913988,-3879.727622,-1.822079,0.000000,-0.000000,-0.000000
0.430000,0.390000,0.081551,0.020000,-1185.042434,1000.550000,361.178803,-362.688848,3685.907566,0.000000,-0.000000,0.000000,3702.879479,-3704.389524,-1.468359,0.000000,-0.000000,-0.000000
0.410000,0.390000,0.066307,0.020000,-1216.966472,916.550000,196.051434,-197.102400,3892.225801,0.000000,-0.000000,0.000000,3896.660781,-3897.711747,-1.841616,0.000000,-0.000000,-0.000000
0.450000,0.370000,0.083232,0.020000,-1180.602729,1080.950000,711.520161,-712.851046,3607.681848,0.000000,-0.000000,0.000000,3676.639893,-3677.970778,-1.455147,0.000000,-0.000000,-0.000000
0.470000,0.370000,0.098685,0.020000,-1147.645451,1172.950000,818.855295,-818.732851,3390.518903,0.000000,-0.000000,0.000000,3488.046624,-3487.924179,0.075487,0.000000,-0.000000,0.000000
0.470000,0.390000,0.111510,0.020000,-1121.682097,1180.550000,616.996033,-616.475402,3288.659378,0.000000,-0.000000,0.000000,3346.249446,-3345.728814,0.440888,0.000000,-0.000000,0.000000
0.450000,0.390000,0.098099,0.020000,-1153.262319,1088.550000,500.983954,-502.302491,3483.877997,0.000000,-0.000000,0.000000,3519.148953,-3520.467490,-1.379921,0.000000,-0.000000,-0.000000
0.490000,0.370000,0.115542,0.020000,-1115.015551,1268.950000,893.931449,-897.817391,3199.477782,0.000000,-0.000000,0.000000,3320.563353,-3324.449295,14.169874,0.000000,-0.000000,0.000000
0.510000,0.370000,0.131638,0.020000,-1082.747999,1368.950000,966.796049,-963.646187,2997.128633,0.000000,-0.000000,0.000000,3150.269107,-3147.119244,12.523420,0.000000,-0.000000,0.000000
0.510000,0.390000,0.143028,0.020000,-1059.300534,1376.550000,819.991421,-802.296109,2898.747126,0.000000,-0.000000,0.000000,3018.855257,-3001.159946,-23.309802,0.000000,-0.000000,-0.000000
0.490000,0.390000,0.126672,0.020000,-1090.348578,1276.550000,730.984549,-751.736318,3099.959182,0.000000,-0.000000,0.000000,3176.886016,-3197.637785,-26.903492,0.000000,-0.000000,-0.000000
-0.510000,0.410000,0.156337,0.020000,-1035.963456,1384.550000,561.098357,-591.274928,-2844.680145,0.000000,-0.000000,-0.000000,2886.953769,-2917.130340,-48.457075,0.000000,-0.000000,-0.000000
-0.490000,0.410000,0.139716,0.020000,-1065.831707,1284.550000,517.195039,-533.923516,-3041.640363,0.000000,-0.000000,-0.000000,3078.287809,-3095.016286,-19.177825,0.000000,-0.000000,-0.000000
-0.490000,0.430000,0.152337,0.020000,-1040.640280,1292.950000,406.902586,-426.033889,-2930.158626,0.000000,-0.000000,-0.000000,2949.864682,-2968.995985,32.364609,0.000000,-0.000000,0.000000
-0.510000,0.430000,0.167712,0.020000,-1011.926372,1392.950000,484.126318,-476.195749,-2733.030477,0.000000,-0.000000,-0.000000,2778.831076,-2770.900507,11.403905,0.000000,-0.000000,0.000000
-0.470000,0.410000,0.124097,0.020000,-1095.914881,1188.550000,434.765629,-435.580475,-3183.511400,0.000000,-0.000000,-0.000000,3212.709366,-3213.524212,-0.960689,0.000000,-0.000000,-0.000000
-0.450000,0.410000,0.109906,0.020000,-1126.171294,1096.550000,306.314528,-316.819356,-3365.352162,0.000000,-0.000000,-0.000000,3374.490842,-3384.995670,-2.158426,0.000000,-0.000000,-0.000000
-0.450000,0.430000,0.124153,0.020000,-1098.479772,1104.950000,145.739783,-145.944183,-3222.546202,0.000000,-0.000000,-0.000000,3225.742402,-3225.946802,-0.712353,0.000000,-0.000000,-0.000000
-0.470000,0.430000,0.138152,0.020000,-1069.505938,1196.950000,287.663804,-262.679363,-3044.959586,0.000000,-0.000000,-0.000000,3069.857528,-3044.873087,3.957144,0.000000,-0.000000,0.000000
-0.430000,0.410000,0.096305,0.020000,-1156.551619,1008.550000,166.265725,-167.652003,-3534.957377,0.000000,-0.000000,-0.000000,3538.204538,-3539.590816,-1.466256,0.000000,-0.000000,-0.000000
-0.410000,0.410000,0.080401,0.020000,-1186.997928,924.550000,-2.388705,0.922658,-3715.655710,-0.000000,0.000000,-0.000000,3714.922687,-3716.388733,-1.655682,0.000000,-0.000000,-0.000000
-0.410000,0.430000,0.094835,0.020000,-1156.541003,932.950000,-170.630833,169.256680,-3534.728254,-0.000000,0.000000,-0.000000,3538.123795,-3539.497948,-1.526158,0.000000,-0.000000,-0.000000
-0.430000,0.430000,0.108645,0.020000,-1127.511033,1016.950000,-2.059886,0.737270,-3378.083101,-0.000000,0.000000,-0.000000,3377.421793,-3378.744409,-1.398578,0.000000,-0.000000,-0.000000
-0.390000,0.410000,0.066739,0.020000,-1217.442706,844.550000,-197.003589,195.496078,-3896.231502,-0.000000,0.000000,-0.000000,3900.416862,-3901.924373,-1.314780,0.000000,-0.000000,-0.000000
-0.370000,0.410000,0.056363,0.020000,-1247.807907,768.550000,-413.736755,430.812331,-4056.948908,-0.000000,0.000000,-0.000000,4087.400950,-4070.325374,-5.053411,0.000000,-0.000000,-0.000000
-0.370000,0.430000,0.068115,0.020000,-1214.317536,776.950000,-581.689754,580.545801,-3837.697498,-0.000000,0.000000,-0.000000,3880.873011,-3882.016965,-2.182091,0.000000,-0.000000,-0.000000
-0.390000,0.430000,0.083567,0.020000,-1185.502196,852.950000,-363.246628,361.689153,-3689.147368,-0.000000,0.000000,-0.000000,3706.132164,-3707.689640,-1.684560,0.000000,-0.000000,-0.000000
-0.350000,0.410000,0.039857,0.020000,-1278.003178,696.550000,-621.069716,714.202438,-4164.898993,-0.000000,0.000000,-0.000000,4264.633175,-4171.500453,-5.822987,0.000000,-0.000000,-0.000000
-0.330000,0.410000,0.028289,0.020000,-1307.927033,628.550000,-783.659015,1072.243959,-4199.242861,-0.000000,0.000000,-0.000000,4444.833433,-4156.248489,-9.055939,0.000000,-0.000000,-0.000000
-0.330000,0.430000,0.046850,0.020000,-1271.150312,636.950000,-1045.646888,1117.982519,-4048.531303,-0.000000,0.000000,-0.000000,4226.743381,-4154.407750,2.278306,0.000000,-0.000000,0.000000
-0.350000,0.430000,0.055240,0.020000,-1242.899593,704.950000,-817.314465,830.806587,-3964.031525,-0.000000,0.000000,-0.000000,4055.525716,-4042.033593,-2.233738,0.000000,-0.000000,-0.000000
-0.310000,0.410000,0.021311,0.020000,-1337.480622,564.550000,-953.175977,1477.782371,-4238.137378,-0.000000,0.000000,-0.000000,4671.269973,-4146.663578,-14.492486,0.000000,-0.000000,-0.000000
-0.290000,0.410000,0.002619,0.020000,-1366.362000,504.550000,-1258.658301,1657.662538,-4221.090481,-0.000000,0.000000,-0.000000,4665.246733,-4266.242495,31.011311,0.000000,-0.000000,0.000000
-0.290000,0.430000,0.022368,0.020000,-1326.206025,512.950000,-1505.506999,1767.194584,-4094.797539,-0.000000,0.000000,-0.000000,4540.459652,-4278.772066,17.285147,0.000000,-0.000000,0.000000
-0.310000,0.430000,0.030784,0.020000,-1298.956963,572.950000,-1296.386589,1432.029641,-4109.725963,-0.000000,0.000000,-0.000000,4398.051499,-4262.408447,4.433388,0.000000,-0.000000,0.000000
-0.270000,0.430000,0.014500,0.020000,-1352.762661,456.950000,-1668.349665,2193.374440,-4093.258128,-0.000000,0.000000,-0.000000,4788.156636,-4263.131860,39.172776,0.000000,-0.000000,0.000000
0.270000,0.430000,0.011428,0.020000,-1352.315551,456.950000,-1997.446847,2150.961280,4063.701824,-0.000000,0.000000,0.000000,4638.054418,-4484.539986,102.775715,0.000000,-0.000000,0.000000
0.290000,0.410000,0.019704,0.020000,-1366.206779,504.550000,-1935.697224,1555.339240,4668.766700,-0.000000,0.000000,0.000000,4793.390606,-5173.748590,90.832009,0.000000,-0.000000,0.000000
0.310000,0.410000,0.015068,0.020000,-1336.986106,564.550000,-1250.895345,1179.983257,4440.971836,-0.000000,0.000000,0.000000,4568.657016,-4639.569103,-40.822490,0.000000,-0.000000,-0.000000
0.310000,0.430000,0.034536,0.020000,-1298.530960,572.950000,-1396.216498,1394.809505,4205.013246,-0.000000,0.000000,0.000000,4429.823500,-4431.230492,-4.844876,0.000000,-0.000000,-0.000000
0.290000,0.430000,0.020864,0.020000,-1325.778739,512.950000,-1823.806264,1737.316941,4216.194251,-0.000000,0.000000,0.000000,4532.961493,-4619.450816,70.928190,0.000000,-0.000000,0.000000
0.330000,0.410000,0.028900,0.020000,-1307.463609,628.550000,-837.717747,975.038243,4268.723990,-0.000000,0.000000,0.000000,4432.466345,-4295.145849,-26.868501,0.000000,-0.000000,-0.000000
0.350000,0.410000,0.042254,0.020000,-1277.537679,696.550000,-631.258151,703.561212,4180.628521,-0.000000,0.000000,0.000000,4269.717486,-4197.414426,3.131170,0.000000,-0.000000,0.000000
0.350000,0.430000,0.056648,0.020000,-1242.462724,704.950000,-819.717528,830.186317,3964.702647,-0.000000,0.000000,0.000000,4054.852146,-4044.383357,2.970343,0.000000,-0.000000,0.000000
0.330000,0.430000,0.042437,0.020000,-1270.715595,636.950000,-1061.017235,1081.149211,4079.620658,-0.000000,0.000000,0.000000,4227.896715,-4207.764739,-20.686696,0.000000,-0.000000,-0.000000
0.370000,0.410000,0.052669,0.020000,-1247.341648,768.550000,-410.747753,419.038276,4060.255174,-0.000000,0.000000,0.000000,4085.542252,-4077.251728,-2.627609,0.000000,-0.000000,-0.000000
0.390000,0.410000,0.067548,0.020000,-1216.978393,844.550000,-194.333848,192.607144,3893.337908,-0.000000,0.000000,0.000000,3897.278406,-3899.005110,-1.316496,0.000000,-0.000000,-0.000000
0.390000,0.430000,0.080914,0.020000,-1185.064860,852.950000,-359.510620,358.092807,3686.265723,-0.000000,0.000000,0.000000,3702.977205,-3704.395018,-1.683742,0.000000,-0.000000,-0.000000
0.370000,0.430000,0.068981,0.020000,-1213.879587,776.950000,-577.492226,575.419315,3836.150272,-0.000000,0.000000,0.000000,3878.183226,-3880.256137,-2.196976,0.000000,-0.000000,-0.000000
0.410000,0.410000,0.081813,0.020000,-1186.536883,924.550000,0.867841,-2.446819,3712.573290,0.000000,-0.000000,0.000000,3711.783801,-3713.362779,-1.657330,0.000000,-0.000000,-0.000000
0.430000,0.410000,0.094590,0.020000,-1156.095137,1008.550000,169.057673,-170.422664,3531.730558,0.000000,-0.000000,0.000000,3535.124387,-3536.489378,-1.465467,0.000000,-0.000000,-0.000000
0.430000,0.430000,0.109745,0.020000,-1127.079149,1016.950000,0.737471,-2.059751,3375.290189,0.000000,-0.000000,0.000000,3374.629049,-3375.951329,-1.398611,0.000000,-0.000000,-0.000000
0.410000,0.430000,0.095581,0.020000,-1156.105753,932.950000,-167.444229,166.066681,3531.960263,-0.000000,0.000000,0.000000,3535.205504,-3536.583052,-1.526796,0.000000,-0.000000,-0.000000
0.450000,0.410000,0.109550,0.020000,-1125.720491,1096.550000,308.692110,-319.181477,3362.193059,0.000000,-0.000000,0.000000,3371.573084,-3382.062450,-0.494430,0.000000,-0.000000,-0.000000
0.470000,0.410000,0.125917,0.020000,-1095.470705,1188.550000,436.780908,-437.597340,3180.448430,0.000000,-0.000000,0.000000,3209.947596,-3210.764028,-1.452471,0.000000,-0.000000,-0.000000
0.470000,0.430000,0.137666,0.020000,-1069.083995,1196.950000,289.757681,-264.806471,3042.255465,0.000000,-0.000000,0.000000,3067.334683,-3042.383473,-6.299207,0.000000,-0.000000,-0.000000
0.450000,0.430000,0.122874,0.020000,-1098.052374,1104.950000,148.170229,-148.369790,3219.763810,0.000000,-0.000000,0.000000,3223.075611,-3223.275172,-1.839573,0.000000,-0.000000,-0.000000
0.490000,0.410000,0.139791,0.020000,-1065.394965,1284.550000,518.869612,-535.569125,3038.640756,0.000000,-0.000000,0.000000,3075.642528,-3092.342041,17.014679,0.000000,-0.000000,0.000000
0.510000,0.410000,0.154766,0.020000,-1035.534826,1384.550000,562.602708,-592.753711,2841.802918,0.000000,-0.000000,0.000000,2884.476988,-2914.627990,46.382161,0.000000,-0.000000,0.000000
0.510000,0.430000,0.168073,0.020000,-1011.517728,1392.950000,485.668099,-477.746478,2730.498221,0.000000,-0.000000,0.000000,2776.592064,-2768.670443,-13.355844,0.000000,-0.000000,-0.000000
0.490000,0.430000,0.153642,0.020000,-1040.224629,1292.950000,408.658304,-427.747599,2927.500070,0.000000,-0.000000,0.000000,2947.474958,-2966.564253,-34.429929,0.000000,-0.000000,-0.000000
-0.470000,0.450000,0.152163,0.020000,-1042.987623,1205.750000,79.251268,-101.584990,-2957.187799,0.000000,-0.000000,-0.000000,2947.156551,-2969.490273,-38.179941,0.000000,-0.000000,-0.000000
-0.450000,0.450000,0.136906,0.020000,-1070.729497,1113.750000,-10.239620,-7.857799,-3115.376033,-0.000000,-0.000000,-0.000000,3106.327324,-3124.424742,-1.190911,0.000000,-0.000000,-0.000000
-0.450000,0.470000,0.151237,0.020000,-1042.979101,1122.950000,-103.864848,81.527727,-2957.016675,-0.000000,0.000000,-0.000000,2947.082892,-2969.420014,35.896498,0.000000,-0.000000,0.000000
-0.470000,0.470000,0.165175,0.020000,-1016.417912,1214.950000,3.361742,5.546407,-2791.467820,0.000000,0.000000,-0.000000,2795.921894,-2787.013746,-1.092333,0.000000,-0.000000,-0.000000
-0.430000,0.450000,0.123017,0.020000,-1098.470275,1025.750000,-148.548465,148.348031,-3222.366328,-0.000000,0.000000,-0.000000,3225.683103,-3225.883538,-1.899392,0.000000,-0.000000,-0.000000
-0.410000,0.450000,0.111008,0.020000,-1126.151259,941.750000,-319.576874,309.073241,-3364.964549,-0.000000,0.000000,-0.000000,3374.361515,-3384.865148,-0.623761,0.000000,-0.000000,-0.000000
-0.410000,0.470000,0.124668,0.020000,-1095.886529,950.950000,-438.124628,437.306660,-3182.987362,-0.000000,0.000000,-0.000000,3212.533728,-3213.351697,-1.629503,0.000000,-0.000000,-0.000000
-0.430000,0.470000,0.138789,0.020000,-1069.487983,1034.950000,-265.120425,290.099952,-3044.640912,-0.000000,0.000000,-0.000000,3069.753991,-3044.774464,-6.414404,0.000000,-0.000000,-0.000000
-0.390000,0.450000,0.096389,0.020000,-1153.705798,861.750000,-502.932568,501.622917,-3486.773438,-0.000000,0.000000,-0.000000,3522.109627,-3523.419278,-1.596465,0.000000,-0.000000,-0.000000
-0.370000,0.450000,0.083082,0.020000,-1181.058665,785.750000,-713.733798,712.357519,-3610.769337,-0.000000,0.000000,-0.000000,3679.812699,-3681.188978,-1.702227,0.000000,-0.000000,-0.000000
-0.370000,0.470000,0.099827,0.020000,-1148.084222,794.950000,-819.759915,819.876928,-3393.278941,-0.000000,0.000000,-0.000000,3490.967291,-3490.850278,-0.272264,0.000000,-0.000000,-0.000000
-0.390000,0.470000,0.111147,0.020000,-1122.109547,870.950000,-617.230909,617.751075,-3291.312848,-0.000000,0.000000,-0.000000,3348.996464,-3348.476298,0.188006,0.000000,-0.000000,0.000000
-0.350000,0.450000,0.072899,0.020000,-1208.125504,713.750000,-948.863781,947.173910,-3725.165611,-0.000000,0.000000,-0.000000,3843.058681,-3844.748552,-1.885192,0.000000,-0.000000,-0.000000
-0.330000,0.450000,0.059063,0.020000,-1234.812312,645.750000,-1208.110998,1208.315319,-3823.565847,-0.000000,0.000000,-0.000000,4010.018050,-4009.813730,-3.062122,0.000000,-0.000000,-0.000000
-0.330000,0.470000,0.074712,0.020000,-1198.956900,654.950000,-1288.551900,1287.305258,-3561.790209,-0.000000,0.000000,-0.000000,3786.870080,-3788.116723,-1.803947,0.000000,-0.000000,-0.000000
-0.350000,0.470000,0.087345,0.020000,-1173.729721,722.950000,-1044.782125,1043.481178,-3484.553577,-0.000000,0.000000,-0.000000,3636.975274,-3638.276220,-1.861506,0.000000,-0.000000,-0.000000
-0.310000,0.450000,0.047340,0.020000,-1261.015132,581.750000,-1476.177583,1497.282401,-3885.515459,-0.000000,0.000000,-0.000000,4170.789798,-4149.684980,-4.617625,0.000000,-0.000000,-0.000000
-0.290000,0.450000,0.040209,0.020000,-1286.621024,521.750000,-1713.012709,1807.094634,-3902.938517,-0.000000,0.000000,-0.000000,4328.469112,-4234.387186,9.539121,0.000000,-0.000000,0.000000
-0.290000,0.470000,0.053329,0.020000,-1247.757417,530.950000,-1833.884249,1841.799399,-3650.840855,-0.000000,0.000000,-0.000000,4091.288652,-4083.373502,-5.116892,0.000000,-0.000000,-0.000000
-0.310000,0.470000,0.065837,0.020000,-1223.668174,590.950000,-1554.319995,1552.943741,-3621.698187,-0.000000,0.000000,-0.000000,3940.182879,-3941.559133,-2.335623,0.000000,-0.000000,-0.000000
-0.270000,0.450000,0.025247,0.020000,-1311.499081,465.750000,-1922.559196,2169.138630,-3842.679880,-0.000000,0.000000,-0.000000,4476.642040,-4230.062607,3.159138,0.000000,-0.000000,0.000000
-0.250000,0.450000,0.021402,0.020000,-1335.545079,413.750000,-2124.304999,2527.558429,-3772.272678,-0.000000,0.000000,-0.000000,4633.293856,-4230.040426,18.051092,0.000000,-0.000000,0.000000
-0.250000,0.470000,0.036563,0.020000,-1293.606618,422.950000,-2352.493843,2461.370252,-3582.686130,-0.000000,0.000000,-0.000000,4370.561270,-4261.684861,6.592985,0.000000,-0.000000,0.000000
-0.270000,0.470000,0.043181,0.020000,-1271.110411,474.950000,-2092.165649,2149.565040,-3623.292770,-0.000000,0.000000,-0.000000,4227.065169,-4169.665778,-6.903657,0.000000,-0.000000,-0.000000
-0.230000,0.450000,0.009561,0.020000,-1358.523202,365.750000,-2512.607348,2865.658437,-3665.048790,-0.000000,0.000000,-0.000000,4722.176994,-4369.125905,-32.729874,0.000000,-0.000000,-0.000000
-0.210000,0.470000,0.024181,0.020000,-1335.521187,330.950000,-2714.458307,3156.769814,-3292.234067,-0.000000,0.000000,-0.000000,4632.112624,-4189.801117,9.723651,0.000000,-0.000000,0.000000
-0.230000,0.470000,0.023682,0.020000,-1315.108528,374.950000,-2620.875916,2817.694664,-3437.109149,-0.000000,0.000000,-0.000000,4480.962065,-4284.143317,-38.258374,0.000000,-0.000000,-0.000000
-0.190000,0.470000,0.008019,0.020000,-1354.574021,290.950000,-3006.461535,3403.996031,-3137.334454,-0.000000,0.000000,-0.000000,4683.803095,-4286.268599,28.504072,0.000000,-0.000000,0.000000
0.190000,0.470000,0.018336,0.020000,-1354.398748,290.950000,-3093.464423,3599.354847,3121.354206,-0.000000,0.000000,0.000000,4828.394091,-4322.503666,81.099236,0.000000,-0.000000,0.000000
0.170000,0.470000,0.004523,0.020000,-1371.951367,254.950000,-3329.322800,3702.933798,2771.639649,-0.000000,0.000000,0.000000,4662.404575,-4288.793577,118.985147,0.000000,-0.000000,0.000000
0.230000,0.450000,0.013635,0.020000,-1358.226651,365.750000,-2637.310414,2808.280735,3787.260635,-0.000000,0.000000,0.000000,4749.906340,-4578.936020,-11.572072,0.000000,-0.000000,-0.000000
0.230000,0.470000,0.030464,0.020000,-1314.791310,374.950000,-2644.785572,2812.961283,3468.258878,-0.000000,0.000000,0.000000,4497.120380,-4328.944669,26.716375,0.000000,-0.000000,0.000000
0.210000,0.470000,0.015236,0.020000,-1335.171697,330.950000,-2799.497462,3139.996046,3270.228074,-0.000000,0.000000,0.000000,4587.586077,-4247.087493,30.383720,0.000000,-0.000000,0.000000
0.250000,0.450000,0.016003,0.020000,-1335.147321,413.750000,-2177.573447,2439.255158,3801.346910,-0.000000,0.000000,0.000000,4577.939184,-4316.257473,-48.284337,0.000000,-0.000000,-0.000000
0.270000,0.450000,0.031268,0.020000,-1311.124963,465.750000,-1961.632113,2172.114811,3826.852079,-0.000000,0.000000,0.000000,4454.521872,-4244.039173,22.840311,0.000000,-0.000000,0.000000
0.270000,0.470000,0.044280,0.020000,-1270.755512,474.950000,-2073.734569,2135.082462,3623.578107,-0.000000,0.000000,0.000000,4220.995879,-4159.647986,-7.456360,0.000000,-0.000000,-0.000000
0.250000,0.470000,0.033023,0.020000,-1293.261693,422.950000,-2353.194010,2446.401529,3601.546465,-0.000000,0.000000,0.000000,4374.378586,-4281.171067,-23.050403,0.000000,-0.000000,-0.000000
0.290000,0.450000,0.035810,0.020000,-1286.226870,521.750000,-1786.175644,1826.516863,3912.679534,-0.000000,0.000000,0.000000,4329.594039,-4289.252820,28.594261,0.000000,-0.000000,0.000000
0.310000,0.450000,0.048858,0.020000,-1260.615107,581.750000,-1504.958246,1497.079858,3909.584958,-0.000000,0.000000,0.000000,4183.879394,-4191.757782,9.392084,0.000000,-0.000000,0.000000
0.310000,0.470000,0.063515,0.020000,-1223.294725,590.950000,-1548.313421,1547.556989,3619.991038,-0.000000,0.000000,0.000000,3936.680781,-3937.437214,-2.228905,0.000000,-0.000000,-0.000000
0.290000,0.470000,0.054124,0.020000,-1247.392136,530.950000,-1827.939732,1840.535466,3645.281886,-0.000000,0.000000,0.000000,4087.043918,-4074.448184,4.388877,0.000000,-0.000000,0.000000
0.330000,0.450000,0.059720,0.020000,-1234.406498,645.750000,-1204.360593,1199.907732,3826.766978,-0.000000,0.000000,0.000000,4008.915349,-4013.368210,-3.697954,0.000000,-0.000000,-0.000000
0.350000,0.450000,0.070531,0.020000,-1207.715969,713.750000,-944.072075,942.900793,3722.608868,-0.000000,0.000000,0.000000,3839.724230,-3840.895512,-1.878408,0.000000,-0.000000,-0.000000
0.350000,0.470000,0.086835,0.020000,-1173.345846,722.950000,-1040.610421,1039.265511,3483.082194,-0.000000,0.000000,0.000000,3634.341923,-3635.686833,-1.734703,0.000000,-0.000000,-0.000000
0.330000,0.470000,0.077064,0.020000,-1198.577354,654.950000,-1284.238507,1283.049575,3560.557618,-0.000000,0.000000,0.000000,3784.284569,-3785.473501,-1.807373,0.000000,-0.000000,-0.000000
0.370000,0.450000,0.084751,0.020000,-1180.647212,785.750000,-709.855388,708.463974,3608.672350,-0.000000,0.000000,0.000000,3676.996596,-3678.388010,-1.705163,0.000000,-0.000000,-0.000000
0.390000,0.450000,0.096599,0.020000,-1153.293996,861.750000,-499.384371,498.065924,3484.507446,-0.000000,0.000000,0.000000,3519.357305,-3520.675752,-1.597993,0.000000,-0.000000,-0.000000
0.390000,0.470000,0.112945,0.020000,-1121.721860,870.950000,-613.816628,614.339186,3289.418985,-0.000000,0.000000,0.000000,3346.506749,-3345.984190,-3.193205,0.000000,-0.000000,-0.000000
0.370000,0.470000,0.098734,0.020000,-1147.697685,794.950000,-815.975635,816.107015,3391.535384,-0.000000,0.000000,0.000000,3488.392906,-3488.261526,-2.989937,0.000000,-0.000000,-0.000000
0.410000,0.450000,0.109179,0.020000,-1125.740526,941.750000,-316.423980,305.933470,3362.580609,-0.000000,0.000000,0.000000,3371.702378,-3382.192888,-2.287705,0.000000,-0.000000,-0.000000
0.430000,0.450000,0.123728,0.020000,-1098.061872,1025.750000,-145.765516,145.561980,3219.943697,-0.000000,0.000000,0.000000,3223.134919,-3223.338455,-0.772170,0.000000,-0.000000,-0.000000
0.430000,0.470000,0.137452,0.020000,-1069.101950,1034.950000,-262.365410,287.321534,3042.574138,-0.000000,0.000000,0.000000,3067.438219,-3042.482095,3.841948,0.000000,-0.000000,0.000000
0.410000,0.470000,0.124517,0.020000,-1095.499056,950.950000,-435.053178,434.239873,3180.972462,-0.000000,0.000000,0.000000,3210.123228,-3210.936533,-1.137725,0.000000,-0.000000,-0.000000
0.450000,0.450000,0.137821,0.020000,-1070.324536,1113.750000,-7.847476,-10.229299,3112.901489,-0.000000,-0.000000,0.000000,3103.863101,-3121.939876,-1.190911,0.000000,-0.000000,-0.000000
0.470000,0.450000,0.151158,0.020000,-1042.587080,1205.750000,81.433950,-103.745186,2954.729246,0.000000,-0.000000,0.000000,2944.805929,-2967.117165,35.903710,0.000000,-0.000000,0.000000
0.470000,0.470000,0.165968,0.020000,-1016.037918,1214.950000,5.541729,3.357064,2789.367288,0.000000,0.000000,0.000000,2793.816685,-2784.917891,-1.092333,0.000000,-0.000000,-0.000000
0.450000,0.470000,0.151927,0.020000,-1042.595602,1122.950000,-101.465327,79.157491,2954.900370,-0.000000,0.000000,0.000000,2944.879588,-2967.187424,-38.187153,0.000000,-0.000000,-0.000000
-0.430000,0.490000,0.152948,0.020000,-1040.614832,1044.550000,-428.238401,409.128771,-2929.745873,-0.000000,0.000000,-0.000000,2949.753996,-2968.863626,-34.614802,0.000000,-0.000000,-0.000000
-0.410000,0.490000,0.139301,0.020000,-1065.796055,960.550000,-536.191854,519.474262,-3040.999233,-0.000000,0.000000,-0.000000,3078.063232,-3094.780824,16.826609,0.000000,-0.000000,0.000000
-0.410000,0.510000,0.155138,0.020000,-1035.921434,970.550000,-593.434043,563.246409,-2843.917983,-0.000000,0.000000,-0.000000,2886.666579,-2916.854212,46.190033,0.000000,-0.000000,0.000000
-0.430000,0.510000,0.167499,0.020000,-1011.894321,1054.550000,-478.286847,486.216617,-2732.510759,-0.000000,0.000000,-0.000000,2778.671737,-2770.741968,-13.552361,0.000000,-0.000000,-0.000000
-0.390000,0.490000,0.127344,0.020000,-1090.760301,880.550000,-752.628973,731.855155,-3102.373368,-0.000000,0.000000,-0.000000,3179.425439,-3200.199257,-27.220960,0.000000,-0.000000,-0.000000
-0.370000,0.490000,0.115628,0.020000,-1115.437564,804.550000,-898.896324,895.011676,-3201.976602,-0.000000,0.000000,-0.000000,3323.262898,-3327.147546,13.815557,0.000000,-0.000000,0.000000
-0.370000,0.510000,0.130627,0.020000,-1083.153692,814.550000,-964.777566,967.931556,-2999.372976,-0.000000,0.000000,-0.000000,3152.756448,-3149.602459,12.142417,0.000000,-0.000000,0.000000
-0.390000,0.510000,0.143912,0.020000,-1059.696868,890.550000,-803.230418,820.945009,-2900.913796,-0.000000,0.000000,-0.000000,3021.203198,-3003.488607,-23.653087,0.000000,-0.000000,-0.000000
-0.350000,0.490000,0.102580,0.020000,-1139.750845,732.550000,-1119.046175,1116.721085,-3258.751347,-0.000000,0.000000,-0.000000,3443.996933,-3446.322023,-0.565159,0.000000,-0.000000,-0.000000
-0.330000,0.490000,0.092062,0.020000,-1163.615998,664.550000,-1351.976739,1342.317852,-3324.247949,-0.000000,0.000000,-0.000000,3582.011565,-3591.670452,1.357867,0.000000,-0.000000,0.000000
-0.330000,0.510000,0.109804,0.020000,-1128.813364,674.550000,-1392.213335,1390.160623,-3089.271389,-0.000000,0.000000,-0.000000,3387.039283,-3389.091995,-3.186187,0.000000,-0.000000,-0.000000
-0.350000,0.510000,0.119231,0.020000,-1106.218899,742.550000,-1174.964277,1195.049246,-3025.095855,-0.000000,0.000000,-0.000000,3258.908535,-3238.823566,-17.758035,0.000000,-0.000000,-0.000000
-0.310000,0.490000,0.081550,0.020000,-1186.941705,600.550000,-1593.570155,1592.665094,-3356.404496,-0.000000,0.000000,-0.000000,3714.849742,-3715.754802,-1.983602,0.000000,-0.000000,-0.000000
-0.290000,0.490000,0.069793,0.020000,-1209.629614,540.550000,-1856.025329,1854.975497,-3376.545530,-0.000000,0.000000,-0.000000,3852.258255,-3853.308087,-1.826387,0.000000,-0.000000,-0.000000
-0.290000,0.510000,0.087740,0.020000,-1172.243580,550.550000,-1857.552473,1856.841346,-3117.631251,-0.000000,0.000000,-0.000000,3628.528748,-3629.239876,-1.905130,0.000000,-0.000000,-0.000000
-0.310000,0.510000,0.097353,0.020000,-1150.851919,610.550000,-1616.689908,1615.861689,-3112.070840,-0.000000,0.000000,-0.000000,3506.340608,-3507.168828,-1.928102,0.000000,-0.000000,-0.000000
-0.270000,0.490000,0.062384,0.020000,-1231.574761,484.550000,-2134.537366,2134.278613,-3372.138432,-0.000000,0.000000,-0.000000,3990.735943,-3990.994696,-3.012167,0.000000,-0.000000,-0.000000
-0.250000,0.490000,0.051052,0.020000,-1252.665926,432.550000,-2416.261034,2426.252660,-3330.204628,-0.000000,0.000000,-0.000000,4122.363130,-4112.371503,-5.828108,0.000000,-0.000000,-0.000000
-0.250000,0.510000,0.068379,0.020000,-1212.695887,442.550000,-2373.449854,2372.759998,-3059.207041,-0.000000,0.000000,-0.000000,3871.395086,-3872.084942,-1.991459,0.000000,-0.000000,-0.000000
-0.270000,0.510000,0.079068,0.020000,-1192.891963,494.550000,-2110.567904,2110.079357,-3100.879366,-0.000000,0.000000,-0.000000,3750.610865,-3751.099412,-2.097629,0.000000,-0.000000,-0.000000
-0.230000,0.490000,0.042781,0.020000,-1272.787019,384.550000,-2659.826227,2727.151377,-3227.873305,-0.000000,0.000000,-0.000000,4237.702666,-4170.377516,-9.742298,0.000000,-0.000000,-0.000000
-0.210000,0.490000,0.036303,0.020000,-1291.818347,340.550000,-2888.908217,3011.814706,-3119.108095,-0.000000,0.000000,-0.000000,4354.849770,-4231.943280,14.640386,0.000000,-0.000000,0.000000
-0.210000,0.510000,0.052373,0.020000,-1249.347175,350.550000,-2906.939142,2918.129288,-2879.767400,-0.000000,0.000000,-0.000000,4101.431916,-4090.241770,-6.032447,0.000000,-0.000000,-0.000000
-0.230000,0.510000,0.062447,0.020000,-1231.550312,394.550000,-2643.474473,2644.012044,-2989.285871,-0.000000,0.000000,-0.000000,3990.907982,-3990.370411,-2.690530,0.000000,-0.000000,-0.000000
-0.190000,0.490000,0.026255,0.020000,-1309.632068,300.550000,-3122.201206,3334.086300,-2911.630646,-0.000000,0.000000,-0.000000,4453.107470,-4241.222377,-25.733943,0.000000,-0.000000,-0.000000
-0.170000,0.490000,0.026323,0.020000,-1326.126361,264.550000,-3180.726632,3624.574168,-2689.287346,-0.000000,0.000000,-0.000000,4559.005687,-4115.158152,4.074092,0.000000,-0.000000,0.000000
-0.170000,0.510000,0.039887,0.020000,-1281.331566,274.550000,-3310.203708,3423.201468,-2548.214587,-0.000000,0.000000,-0.000000,4278.789703,-4165.791943,18.550116,0.000000,-0.000000,0.000000
-0.190000,0.510000,0.045982,0.020000,-1265.977359,310.550000,-3122.975573,3185.937471,-2713.450018,-0.000000,0.000000,-0.000000,4192.402199,-4129.440301,-11.886799,0.000000,-0.000000,-0.000000
-0.150000,0.490000,0.012854,0.020000,-1341.110998,232.550000,-3409.827586,3881.762018,-2483.760484,-0.000000,0.000000,-0.000000,4647.382829,-4175.448398,17.267499,0.000000,-0.000000,0.000000
-0.130000,0.490000,0.020919,0.020000,-1354.656829,204.550000,-4038.053527,4225.094299,-2166.897703,-0.000000,0.000000,-0.000000,4755.894179,-4568.853407,-166.190464,0.000000,-0.000000,-0.000000
-0.130000,0.510000,0.031042,0.020000,-1307.789295,214.550000,-3835.503723,3924.365698,-2085.977810,-0.000000,0.000000,-0.000000,4449.487952,-4360.625977,-25.882814,0.000000,-0.000000,-0.000000
-0.150000,0.510000,0.032609,0.020000,-1295.301384,242.550000,-3595.225699,3698.049272,-2339.144983,-0.000000,0.000000,-0.000000,4383.790587,-4280.967014,-7.624513,0.000000,-0.000000,-0.000000
-0.110000,0.490000,0.002798,0.020000,-1366.221696,180.550000,-3944.146869,4235.981820,-1843.702929,-0.000000,0.000000,-0.000000,4631.586969,-4339.752018,-81.461810,0.000000,-0.000000,-0.000000
-0.090000,0.510000,0.025687,0.020000,-1327.929177,170.550000,-3845.286484,4312.124916,-1486.602963,-0.000000,0.000000,-0.000000,4574.597398,-4107.758966,0.741102,0.000000,-0.000000,0.000000
-0.110000,0.510000,0.022355,0.020000,-1318.682040,190.550000,-3937.154232,4114.533143,-1787.645808,-0.000000,0.000000,-0.000000,4493.476723,-4316.097811,-30.725574,0.000000,-0.000000,-0.000000
-0.050000,0.510000,0.023152,0.020000,-1341.092455,142.550000,-4331.673158,4576.576517,-834.248993,-0.000000,0.000000,-0.000000,4653.789291,-4408.885932,-46.678698,0.000000,-0.000000,-0.000000
-0.070000,0.510000,0.015242,0.020000,-1335.378919,154.550000,-3908.608743,4446.080566,-1209.649926,-0.000000,0.000000,-0.000000,4617.518404,-4080.046581,39.397180,0.000000,-0.000000,0.000000
-0.010000,0.510000,0.022527,0.020000,-1346.808945,130.550000,-4464.188149,4717.720228,-167.209860,-0.000000,0.000000,-0.000000,4720.746168,-4467.214090,-12.886891,0.000000,-0.000000,-0.000000
-0.030000,0.510000,0.011286,0.020000,-1344.829946,134.550000,-4305.250958,4578.498391,-505.098373,-0.000000,0.000000,-0.000000,4607.083202,-4333.835770,-19.156577,0.000000,-0.000000,-0.000000
0.030000,0.510000,0.022645,0.020000,-1344.857021,134.550000,-4418.879404,4668.261902,510.621936,-0.000000,0.000000,0.000000,4696.792952,-4447.410454,25.594085,0.000000,-0.000000,0.000000
0.010000,0.510000,0.010494,0.020000,-1346.712050,130.550000,-4335.204706,4612.704598,173.429254,-0.000000,0.000000,0.000000,4616.064273,-4338.564381,2.085824,0.000000,-0.000000,0.000000
0.070000,0.510000,0.024127,0.020000,-1335.313997,154.550000,-4111.771536,4461.066145,1179.273413,-0.000000,0.000000,0.000000,4620.285832,-4270.991223,19.244264,0.000000,-0.000000,0.000000
0.050000,0.510000,0.012869,0.020000,-1340.961457,142.550000,-4240.182932,4506.183016,839.845932,-0.000000,0.000000,0.000000,4586.023944,-4320.023860,25.468467,0.000000,-0.000000,0.000000
0.110000,0.490000,0.019038,0.020000,-1366.339672,180.550000,-4662.560488,4174.925128,2302.407981,-0.000000,0.000000,0.000000,4735.059959,-5222.695319,-192.738085,0.000000,-0.000000,-0.000000
0.110000,0.510000,0.027957,0.020000,-1318.536217,190.550000,-4177.447101,4122.388545,1908.263925,-0.000000,0.000000,0.000000,4540.019703,-4595.078258,-28.025986,0.000000,-0.000000,-0.000000
0.090000,0.510000,0.018405,0.020000,-1327.774584,170.550000,-4172.893047,4287.284263,1499.686838,-0.000000,0.000000,0.000000,4545.091182,-4430.699966,38.780967,0.000000,-0.000000,0.000000
0.130000,0.490000,0.007359,0.020000,-1354.323430,204.550000,-3731.163501,3863.005701,2431.712163,-0.000000,0.000000,0.000000,4569.070565,-4437.228365,-229.609247,0.000000,-0.000000,-0.000000
0.150000,0.490000,0.023364,0.020000,-1340.943294,232.550000,-3358.144289,3893.182599,2511.150945,-0.000000,0.000000,0.000000,4677.586003,-4142.547693,-51.233508,0.000000,-0.000000,-0.000000
0.150000,0.510000,0.035008,0.020000,-1295.096875,242.550000,-3538.020219,3661.750701,2363.601703,-0.000000,0.000000,0.000000,4368.177505,-4244.447023,-38.249432,0.000000,-0.000000,-0.000000
0.130000,0.510000,0.027090,0.020000,-1307.601131,214.550000,-3867.628901,3866.404675,2194.674901,-0.000000,0.000000,0.000000,4445.136533,-4446.360758,-75.734693,0.000000,-0.000000,-0.000000
0.170000,0.490000,0.019160,0.020000,-1325.858291,264.550000,-3378.015592,3611.537147,2700.229293,-0.000000,0.000000,0.000000,4532.950255,-4299.428701,44.391511,0.000000,-0.000000,0.000000
0.190000,0.490000,0.030659,0.020000,-1309.370109,300.550000,-3209.285692,3330.937482,2955.832421,-0.000000,0.000000,0.000000,4468.786650,-4347.134859,21.379304,0.000000,-0.000000,0.000000
0.190000,0.510000,0.045679,0.020000,-1265.729732,310.550000,-3170.551581,3186.045850,2744.866603,-0.000000,0.000000,0.000000,4207.254427,-4191.760158,3.727792,0.000000,-0.000000,0.000000
0.170000,0.510000,0.038907,0.020000,-1281.103330,274.550000,-3369.429689,3445.058477,2544.996738,-0.000000,0.000000,0.000000,4290.607703,-4214.978915,8.349059,0.000000,-0.000000,0.000000
0.210000,0.490000,0.034131,0.020000,-1291.530054,340.550000,-2911.482614,3020.502147,3121.697830,-0.000000,0.000000,0.000000,4360.561561,-4251.542028,-5.107469,0.000000,-0.000000,-0.000000
0.230000,0.490000,0.043137,0.020000,-1272.483633,384.550000,-2665.712826,2714.019327,3240.236065,-0.000000,0.000000,0.000000,4235.389218,-4187.082718,-0.943269,0.000000,-0.000000,-0.000000
0.230000,0.510000,0.059947,0.020000,-1231.269088,394.550000,-2637.948907,2637.312832,2990.937836,-0.000000,0.000000,0.000000,3987.513056,-3988.149132,-2.984401,0.000000,-0.000000,-0.000000
0.210000,0.510000,0.053830,0.020000,-1249.081914,350.550000,-2911.631614,2913.671965,2892.016135,-0.000000,0.000000,0.000000,4105.565352,-4103.525001,-2.582090,0.000000,-0.000000,-0.000000
0.250000,0.490000,0.052201,0.020000,-1252.348187,432.550000,-2414.650372,2424.049514,3333.913465,-0.000000,0.000000,0.000000,4123.950559,-4114.551416,2.107418,0.000000,-0.000000,0.000000
0.270000,0.490000,0.059959,0.020000,-1231.244638,484.550000,-2127.558371,2127.181423,3372.255673,-0.000000,0.000000,0.000000,3987.016311,-3987.393260,-3.000235,0.000000,-0.000000,-0.000000
0.270000,0.510000,0.077650,0.020000,-1192.584913,494.550000,-2105.992835,2105.336532,3101.485209,-0.000000,0.000000,0.000000,3748.408952,-3749.065255,-2.096028,0.000000,-0.000000,-0.000000
0.250000,0.510000,0.071341,0.020000,-1212.400843,442.550000,-2368.758440,2368.586857,3060.001856,-0.000000,0.000000,0.000000,3869.567614,-3869.739197,-1.998888,0.000000,-0.000000,-0.000000
0.290000,0.490000,0.072562,0.020000,-1209.289329,540.550000,-1851.502835,1850.783432,3376.208773,-0.000000,0.000000,0.000000,3850.031607,-3850.751010,-1.831246,0.000000,-0.000000,-0.000000
0.310000,0.490000,0.080506,0.020000,-1186.593106,600.550000,-1589.020675,1587.996659,3355.946544,-0.000000,0.000000,0.000000,3712.402353,-3713.426369,-1.985036,0.000000,-0.000000,-0.000000
0.310000,0.510000,0.098632,0.020000,-1150.526334,610.550000,-1612.524662,1611.690345,3111.795271,-0.000000,0.000000,0.000000,3504.173788,-3505.008105,-1.645233,0.000000,-0.000000,-0.000000
0.290000,0.510000,0.087748,0.020000,-1171.926384,550.550000,-1853.135149,1852.460021,3117.684198,-0.000000,0.000000,0.000000,3626.342740,-3627.017868,-1.902653,0.000000,-0.000000,-0.000000
0.330000,0.490000,0.091575,0.020000,-1163.260913,664.550000,-1347.749270,1338.117920,3323.330690,-0.000000,0.000000,0.000000,3579.591296,-3589.222646,-4.917656,0.000000,-0.000000,-0.000000
0.350000,0.490000,0.104432,0.020000,-1139.390959,732.550000,-1115.145795,1112.817320,3257.594306,-0.000000,0.000000,0.000000,3441.635206,-3443.963681,-2.750734,0.000000,-0.000000,-0.000000
0.350000,0.510000,0.119740,0.020000,-1105.881440,742.550000,-1171.269897,1191.356643,3024.229261,-0.000000,0.000000,0.000000,3256.772469,-3236.685722,14.623343,0.000000,-0.000000,0.000000
0.330000,0.510000,0.107857,0.020000,-1128.481058,674.550000,-1388.280499,1386.231986,3088.667377,-0.000000,0.000000,0.000000,3384.879762,-3386.928275,-0.151914,0.000000,-0.000000,-0.000000
0.370000,0.490000,0.114517,0.020000,-1115.074436,804.550000,-895.380148,891.455250,3200.598627,-0.000000,0.000000,0.000000,3320.949405,-3324.874302,-16.839578,0.000000,-0.000000,-0.000000
0.390000,0.490000,0.126973,0.020000,-1090.395365,880.550000,-749.350998,728.572314,3100.797011,-0.000000,0.000000,0.000000,3177.150799,-3197.929483,24.377888,0.000000,-0.000000,0.000000
0.390000,0.510000,0.142436,0.020000,-1059.353378,890.550000,-800.070414,817.772571,2899.638919,-0.000000,0.000000,0.000000,3019.137064,-3001.434906,20.931505,0.000000,-0.000000,0.000000
0.370000,0.510000,0.131453,0.020000,-1082.812541,814.550000,-961.401569,964.546952,2998.291146,-0.000000,0.000000,0.000000,3150.674725,-3147.529342,-15.020109,0.000000,-0.000000,-0.000000
0.410000,0.490000,0.141028,0.020000,-1065.430618,960.550000,-533.300787,516.590388,3039.281888,-0.000000,0.000000,0.000000,3075.867105,-3092.577505,-19.365896,0.000000,-0.000000,-0.000000
0.430000,0.490000,0.152569,0.020000,-1040.250077,1044.550000,-425.543087,406.432119,2927.912823,-0.000000,0.000000,0.000000,2947.585644,-2966.696612,32.179736,0.000000,-0.000000,0.000000
0.430000,0.510000,0.168706,0.020000,-1011.549778,1054.550000,-475.655380,483.577801,2731.017939,-0.000000,0.000000,0.000000,2776.751402,-2768.828982,11.207388,0.000000,-0.000000,0.000000
0.410000,0.510000,0.155229,0.020000,-1035.576848,970.550000,-590.594596,560.454656,2842.565080,-0.000000,0.000000,0.000000,2884.764178,-2914.904117,-48.649203,0.000000,-0.000000,-0.000000
-0.350000,0.530000,0.136783,0.020000,-1073.156682,752.950000,-1256.811132,1240.088551,-2867.830026,-0.000000,0.000000,-0.000000,3119.351636,-3136.074217,-22.088783,0.000000,-0.000000,-0.000000
-0.330000,0.530000,0.125236,0.020000,-1094.565666,684.950000,-1390.490350,1375.356543,-2900.649079,-0.000000,0.000000,-0.000000,3205.644694,-3220.778501,38.904618,0.000000,-0.000000,0.000000
-0.330000,0.550000,0.141814,0.020000,-1060.883695,695.750000,-1410.321995,1389.832117,-2673.604480,-0.000000,0.000000,-0.000000,3007.677628,-3028.167507,22.804706,0.000000,-0.000000,0.000000
-0.350000,0.550000,0.153267,0.020000,-1040.580901,763.750000,-1267.233523,1275.003205,-2631.284383,-0.000000,0.000000,-0.000000,2925.874942,-2918.105260,-37.057368,0.000000,-0.000000,-0.000000
-0.310000,0.530000,0.114476,0.020000,-1115.408121,620.950000,-1627.931231,1630.093759,-2886.846602,-0.000000,0.000000,-0.000000,3315.827425,-3313.664897,-4.785819,0.000000,-0.000000,-0.000000
-0.290000,0.530000,0.106421,0.020000,-1135.600015,560.950000,-1850.046680,1843.087169,-2887.247092,-0.000000,0.000000,-0.000000,3423.764427,-3430.723938,1.576863,0.000000,-0.000000,0.000000
-0.290000,0.550000,0.123153,0.020000,-1099.694763,571.750000,-1830.854094,1828.716420,-2667.035910,-0.000000,0.000000,-0.000000,3233.306629,-3235.444304,-3.157926,0.000000,-0.000000,-0.000000
-0.310000,0.550000,0.132408,0.020000,-1080.614154,631.750000,-1633.148513,1651.458492,-2664.533563,-0.000000,0.000000,-0.000000,3139.053103,-3120.743124,-25.252802,0.000000,-0.000000,-0.000000
-0.270000,0.530000,0.095505,0.020000,-1155.052971,504.950000,-2077.207151,2076.785597,-2854.662789,-0.000000,0.000000,-0.000000,3530.088082,-3530.509636,-1.883839,0.000000,-0.000000,-0.000000
-0.250000,0.530000,0.086863,0.020000,-1173.674882,452.950000,-2314.911327,2314.618218,-2805.525653,-0.000000,0.000000,-0.000000,3637.037268,-3637.330376,-1.997269,0.000000,-0.000000,-0.000000
-0.250000,0.550000,0.105899,0.020000,-1135.579612,463.750000,-2253.434521,2251.964712,-2577.009011,-0.000000,0.000000,-0.000000,3422.074372,-3423.544181,-2.767759,0.000000,-0.000000,-0.000000
-0.270000,0.550000,0.113096,0.020000,-1118.044534,515.750000,-2037.768776,2036.723814,-2631.287458,-0.000000,0.000000,-0.000000,3327.245565,-3328.290526,-2.446854,0.000000,-0.000000,-0.000000
-0.230000,0.530000,0.079978,0.020000,-1191.370730,404.950000,-2557.321824,2557.285326,-2731.403796,-0.000000,0.000000,-0.000000,3741.687745,-3741.724243,-2.128658,0.000000,-0.000000,-0.000000
-0.210000,0.530000,0.070484,0.020000,-1208.043587,360.950000,-2801.666315,2801.554501,-2630.527789,-0.000000,0.000000,-0.000000,3842.949726,-3843.061539,-2.244604,0.000000,-0.000000,-0.000000
-0.210000,0.550000,0.089403,0.020000,-1167.860658,371.750000,-2687.747833,2687.901350,-2400.079738,-0.000000,0.000000,-0.000000,3603.516729,-3603.363213,-2.039459,0.000000,-0.000000,-0.000000
-0.230000,0.550000,0.097065,0.020000,-1152.214034,415.750000,-2469.693878,2469.516655,-2500.441247,-0.000000,0.000000,-0.000000,3514.332069,-3514.509293,-1.969604,0.000000,-0.000000,-0.000000
-0.190000,0.530000,0.065874,0.020000,-1223.595900,320.950000,-3043.193070,3044.278954,-2501.290944,-0.000000,0.000000,-0.000000,3940.185124,-3939.099241,-2.184258,0.000000,-0.000000,-0.000000
-0.170000,0.530000,0.057350,0.020000,-1237.930729,284.950000,-3274.601465,3278.283573,-2342.645191,-0.000000,0.000000,-0.000000,4029.627297,-4025.945190,-0.220639,0.000000,-0.000000,-0.000000
-0.170000,0.550000,0.076073,0.020000,-1195.842713,295.750000,-3112.370272,3112.848259,-2124.653982,-0.000000,0.000000,-0.000000,3768.857550,-3768.379562,-2.270981,0.000000,-0.000000,-0.000000
-0.190000,0.550000,0.084349,0.020000,-1182.432250,331.750000,-2903.119737,2903.511008,-2275.038569,-0.000000,0.000000,-0.000000,3688.696156,-3688.304885,-2.134194,0.000000,-0.000000,-0.000000
-0.150000,0.530000,0.052549,0.020000,-1250.953711,252.950000,-3504.281329,3506.931464,-2157.205450,-0.000000,0.000000,-0.000000,4117.489732,-4114.839598,0.100432,0.000000,-0.000000,0.000000
-0.130000,0.530000,0.047492,0.020000,-1262.574276,224.950000,-3708.679237,3719.349783,-1930.269672,-0.000000,0.000000,-0.000000,4191.000120,-4180.329574,-7.387529,0.000000,-0.000000,-0.000000
-0.130000,0.550000,0.065935,0.020000,-1218.849986,235.750000,-3497.611370,3498.062385,-1748.267327,-0.000000,0.000000,-0.000000,3910.633898,-3910.182883,-2.772464,0.000000,-0.000000,-0.000000
-0.150000,0.550000,0.072522,0.020000,-1208.008497,263.750000,-3311.186207,3312.191515,-1948.983512,-0.000000,0.000000,-0.000000,3843.133917,-3842.128609,-2.194703,0.000000,-0.000000,-0.000000
-0.110000,0.530000,0.042328,0.020000,-1272.707729,200.950000,-3845.399027,3897.962854,-1660.287820,-0.000000,0.000000,-0.000000,4238.901015,-4186.337187,-17.585774,0.000000,-0.000000,-0.000000
-0.090000,0.530000,0.040852,0.020000,-1281.278196,180.950000,-3915.715054,4038.953210,-1396.282414,-0.000000,0.000000,-0.000000,4276.920439,-4153.682284,5.080161,0.000000,-0.000000,0.000000
-0.090000,0.550000,0.058974,0.020000,-1236.270944,191.750000,-3803.214445,3809.903794,-1278.578845,-0.000000,0.000000,-0.000000,4018.896222,-4012.206872,-1.402901,0.000000,-0.000000,-0.000000
-0.110000,0.550000,0.062318,0.020000,-1228.293151,211.750000,-3662.955228,3665.250439,-1524.665153,-0.000000,0.000000,-0.000000,3969.806049,-3967.510838,-1.887102,0.000000,-0.000000,-0.000000
-0.070000,0.530000,0.035233,0.020000,-1288.215864,164.950000,-4053.929849,4180.448169,-1114.123550,-0.000000,0.000000,-0.000000,4328.522049,-4202.003730,7.007262,0.000000,-0.000000,0.000000
-0.050000,0.530000,0.037247,0.020000,-1293.469704,152.950000,-4177.087567,4284.508308,-796.205477,-0.000000,0.000000,-0.000000,4358.766955,-4251.346214,-9.063817,0.000000,-0.000000,-0.000000
-0.050000,0.550000,0.055125,0.020000,-1247.606330,163.750000,-4018.427144,4026.357512,-735.086784,-0.000000,0.000000,-0.000000,4092.973287,-4085.042919,-2.313256,0.000000,-0.000000,-0.000000
-0.070000,0.550000,0.055231,0.020000,-1242.724821,175.750000,-3925.326784,3931.260994,-1015.779835,-0.000000,0.000000,-0.000000,4060.466483,-4054.532273,-0.593854,0.000000,-0.000000,-0.000000
-0.030000,0.530000,0.031285,0.020000,-1296.988043,144.950000,-4250.344342,4353.423115,-482.044117,-0.000000,0.000000,-0.000000,4380.341541,-4277.262767,-6.485272,0.000000,-0.000000,-0.000000
-0.010000,0.530000,0.036431,0.020000,-1298.752851,140.950000,-4281.902207,4395.874808,-159.630897,-0.000000,0.000000,-0.000000,4398.808295,-4284.835694,-4.156093,0.000000,-0.000000,-0.000000
-0.010000,0.550000,0.054286,0.020000,-1252.513519,151.750000,-4114.857147,4123.340609,-147.163832,-0.000000,0.000000,-0.000000,4125.967781,-4117.484319,-2.669348,0.000000,-0.000000,-0.000000
-0.030000,0.550000,0.051284,0.020000,-1250.877558,155.750000,-4083.053283,4088.563971,-445.707610,-0.000000,0.000000,-0.000000,4112.802255,-4107.291567,-1.339056,0.000000,-0.000000,-0.000000
0.010000,0.530000,0.030494,0.020000,-1298.735118,140.950000,-4285.417071,4388.862108,165.460453,-0.000000,0.000000,0.000000,4392.016744,-4288.571708,-1.735287,0.000000,-0.000000,-0.000000
0.030000,0.530000,0.036504,0.020000,-1296.950036,144.950000,-4245.687951,4357.419045,487.609802,-0.000000,0.000000,0.000000,4384.967645,-4273.236551,0.917873,0.000000,-0.000000,0.000000
0.030000,0.550000,0.054335,0.020000,-1250.839708,155.750000,-4081.622993,4089.925738,449.800729,-0.000000,0.000000,0.000000,4114.609424,-4106.306678,-2.733507,0.000000,-0.000000,-0.000000
0.010000,0.550000,0.050494,0.020000,-1252.500598,151.750000,-4115.016900,4120.319450,152.932210,-0.000000,0.000000,0.000000,4123.157258,-4117.854708,-3.147225,0.000000,-0.000000,-0.000000
0.050000,0.530000,0.032865,0.020000,-1293.398619,152.950000,-4179.092586,4280.524094,801.589357,-0.000000,0.000000,0.000000,4355.807066,-4254.375558,3.589856,0.000000,-0.000000,0.000000
0.070000,0.530000,0.038686,0.020000,-1288.122454,164.950000,-4062.533428,4176.312011,1110.317586,-0.000000,0.000000,0.000000,4323.321186,-4209.542603,-2.751883,0.000000,-0.000000,-0.000000
0.070000,0.550000,0.056666,0.020000,-1242.637496,175.750000,-3922.622711,3929.989064,1019.267439,-0.000000,0.000000,0.000000,4060.131534,-4052.765180,-3.280535,0.000000,-0.000000,-0.000000
0.050000,0.550000,0.052864,0.020000,-1247.543224,163.750000,-4017.765535,4023.509641,741.630494,-0.000000,0.000000,0.000000,4091.334196,-4085.590090,-4.439609,0.000000,-0.000000,-0.000000
0.090000,0.530000,0.038389,0.020000,-1281.156706,180.950000,-3982.619936,4051.652712,1385.564024,-0.000000,0.000000,0.000000,4283.850634,-4214.817858,18.176262,0.000000,-0.000000,0.000000
0.110000,0.530000,0.043778,0.020000,-1272.562923,200.950000,-3905.918953,3913.336767,1688.139694,-0.000000,0.000000,0.000000,4262.224460,-4254.806646,7.135354,0.000000,-0.000000,0.000000
0.110000,0.550000,0.062060,0.020000,-1228.159466,211.750000,-3663.602568,3663.669879,1528.267738,-0.000000,0.000000,0.000000,3969.646992,-3969.579681,-1.617826,0.000000,-0.000000,-0.000000
0.090000,0.550000,0.058383,0.020000,-1236.159913,191.750000,-3801.684399,3807.433819,1284.068844,-0.000000,0.000000,0.000000,4018.280432,-4012.531013,-4.438236,0.000000,-0.000000,-0.000000
0.130000,0.530000,0.047049,0.020000,-1262.405868,224.950000,-3722.607173,3711.407923,1957.510875,-0.000000,0.000000,0.000000,4195.323784,-4206.523034,-15.376867,0.000000,-0.000000,-0.000000
0.150000,0.530000,0.052013,0.020000,-1250.763558,252.950000,-3496.233502,3499.903601,2158.566674,-0.000000,0.000000,0.000000,4112.293240,-4108.623140,-5.210049,0.000000,-0.000000,-0.000000
0.150000,0.550000,0.070605,0.020000,-1207.832977,263.750000,-3308.292133,3308.843045,1952.206971,-0.000000,0.000000,0.000000,3841.854149,-3841.303237,-2.167076,0.000000,-0.000000,-0.000000
0.130000,0.550000,0.067032,0.020000,-1218.694772,235.750000,-3493.081838,3494.507814,1752.386329,-0.000000,0.000000,0.000000,3909.351208,-3907.925231,-2.720337,0.000000,-0.000000,-0.000000
0.170000,0.530000,0.058825,0.020000,-1237.720458,284.950000,-3275.170672,3276.901728,2346.480069,-0.000000,0.000000,0.000000,4030.551876,-4028.820821,-3.135101,0.000000,-0.000000,-0.000000
0.190000,0.530000,0.063508,0.020000,-1223.367000,320.950000,-3040.020430,3039.755417,2503.813682,-0.000000,0.000000,0.000000,3938.140804,-3938.405816,-2.208712,0.000000,-0.000000,-0.000000
0.190000,0.550000,0.082340,0.020000,-1182.220372,331.750000,-2899.387482,2899.710451,2277.490969,-0.000000,0.000000,0.000000,3687.212451,-3686.889482,-2.120083,0.000000,-0.000000,-0.000000
0.170000,0.550000,0.078785,0.020000,-1195.648298,295.750000,-3108.535770,3109.194988,2127.577570,-0.000000,0.000000,0.000000,3767.506958,-3766.847739,-2.255273,0.000000,-0.000000,-0.000000
0.210000,0.530000,0.073526,0.020000,-1207.797886,360.950000,-2797.086494,2797.380219,2632.553797,-0.000000,0.000000,0.000000,3841.350967,-3841.057242,-2.229520,0.000000,-0.000000,-0.000000
0.230000,0.530000,0.078271,0.020000,-1191.109904,404.950000,-2553.057383,2552.885460,2732.991397,-0.000000,0.000000,0.000000,3739.820530,-3739.992452,-2.119851,0.000000,-0.000000,-0.000000
0.230000,0.550000,0.097258,0.020000,-1151.971825,415.750000,-2465.806476,2465.624321,2502.011724,-0.000000,0.000000,0.000000,3512.715703,-3512.897858,-1.902450,0.000000,-0.000000,-0.000000
0.210000,0.550000,0.090293,0.020000,-1167.632843,371.750000,-2683.863139,2684.030364,2402.069611,-0.000000,0.000000,0.000000,3601.958744,-3601.791519,-2.028528,0.000000,-0.000000,-0.000000
0.250000,0.530000,0.087306,0.020000,-1173.400686,452.950000,-2310.607332,2310.343456,2806.590942,-0.000000,0.000000,0.000000,3635.145947,-3635.409822,-1.990339,0.000000,-0.000000,-0.000000
0.270000,0.530000,0.096249,0.020000,-1154.767112,504.950000,-2073.043358,2072.615374,2855.331189,-0.000000,0.000000,0.000000,3528.175760,-3528.603744,-1.879940,0.000000,-0.000000,-0.000000
0.270000,0.550000,0.115113,0.020000,-1117.778192,515.750000,-2033.974081,2032.933557,2632.062017,-0.000000,0.000000,0.000000,3325.541048,-3326.581573,-1.027317,0.000000,-0.000000,-0.000000
0.250000,0.550000,0.104666,0.020000,-1135.324565,463.750000,-2249.563136,2248.096275,2578.164110,-0.000000,0.000000,0.000000,3420.401528,-3421.868388,-0.907445,0.000000,-0.000000,-0.000000
0.290000,0.530000,0.104566,0.020000,-1135.304161,560.950000,-1846.026602,1839.059043,2887.528600,-0.000000,0.000000,0.000000,3421.827780,-3428.795338,-5.117712,0.000000,-0.000000,-0.000000
0.310000,0.530000,0.115777,0.020000,-1115.103879,620.950000,-1624.087161,1626.243877,2886.784548,-0.000000,0.000000,0.000000,3313.884699,-3311.727982,1.463143,0.000000,-0.000000,0.000000
0.310000,0.550000,0.132055,0.020000,-1080.329718,631.750000,-1629.571403,1647.892443,2664.632803,-0.000000,0.000000,0.000000,3137.294124,-3118.973084,22.145949,0.000000,-0.000000,0.000000
0.290000,0.550000,0.122346,0.020000,-1099.418640,571.750000,-1827.171178,1825.036620,2667.459408,-0.000000,0.000000,0.000000,3231.577942,-3233.712500,-0.118962,0.000000,-0.000000,-0.000000
0.330000,0.530000,0.125220,0.020000,-1094.254572,684.950000,-1386.943960,1371.806932,2900.290595,-0.000000,0.000000,0.000000,3203.755824,-3218.892852,-41.930352,0.000000,-0.000000,-0.000000
0.350000,0.530000,0.135591,0.020000,-1072.840188,752.950000,-1253.406411,1236.674379,2867.175480,-0.000000,0.000000,0.000000,3117.406174,-3134.138207,19.210189,0.000000,-0.000000,0.000000
0.350000,0.550000,0.152420,0.020000,-1040.284008,763.750000,-1263.984523,1271.754473,2630.865946,-0.000000,0.000000,0.000000,2924.120031,-2916.350081,34.291498,0.000000,-0.000000,0.000000
0.330000,0.550000,0.143273,0.020000,-1060.592357,695.750000,-1406.948787,1386.459871,2673.469747,-0.000000,0.000000,0.000000,3005.972062,-3026.460978,-25.717238,0.000000,-0.000000,-0.000000
-0.310000,0.570000,0.150861,0.020000,-1046.469457,642.950000,-1640.381298,1635.956203,-2517.680759,-0.000000,0.000000,-0.000000,3001.496219,-3005.921313,-6.849118,0.000000,-0.000000,-0.000000
-0.290000,0.570000,0.140129,0.020000,-1064.519866,582.950000,-1764.589045,1756.207448,-2487.951210,-0.000000,0.000000,-0.000000,3043.292253,-3051.673849,41.836164,0.000000,-0.000000,0.000000
-0.290000,0.590000,0.157815,0.020000,-1030.064446,594.550000,-1754.342262,1723.187935,-2258.857509,-0.000000,0.000000,-0.000000,2834.989762,-2866.144090,3.084141,0.000000,-0.000000,0.000000
-0.310000,0.590000,0.167576,0.020000,-1012.969946,654.550000,-1621.212285,1627.772217,-2293.200130,-0.000000,0.000000,-0.000000,2813.330968,-2806.771036,-36.814121,0.000000,-0.000000,-0.000000
-0.270000,0.570000,0.131377,0.020000,-1081.850434,526.950000,-2006.344435,2003.117594,-2434.830055,-0.000000,0.000000,-0.000000,3152.315455,-3155.542296,-8.745682,0.000000,-0.000000,-0.000000
-0.250000,0.570000,0.124399,0.020000,-1098.384795,474.950000,-2152.926950,2169.827958,-2371.220849,-0.000000,0.000000,-0.000000,3216.874319,-3199.973311,16.044854,0.000000,-0.000000,0.000000
-0.250000,0.590000,0.141775,0.020000,-1062.063907,486.550000,-2109.912339,2114.860910,-2183.183080,-0.000000,0.000000,-0.000000,3040.313127,-3035.364557,0.884154,0.000000,-0.000000,0.000000
-0.270000,0.590000,0.150098,0.020000,-1046.452293,538.550000,-1965.579195,1977.105071,-2239.009829,-0.000000,0.000000,-0.000000,2988.807798,-2977.281923,-28.252016,0.000000,-0.000000,-0.000000
-0.230000,0.570000,0.115094,0.020000,-1114.045118,426.950000,-2382.313519,2382.165198,-2292.132821,-0.000000,0.000000,-0.000000,3305.818722,-3305.967043,-3.078434,0.000000,-0.000000,-0.000000
-0.210000,0.570000,0.108711,0.020000,-1128.752945,382.950000,-2578.136583,2575.549463,-2197.169530,-0.000000,0.000000,-0.000000,3385.101850,-3387.688970,0.186949,0.000000,-0.000000,0.000000
-0.210000,0.590000,0.128230,0.020000,-1090.676085,394.550000,-2474.749012,2472.395419,-2012.518708,-0.000000,0.000000,-0.000000,3187.676057,-3190.029651,-2.920724,0.000000,-0.000000,-0.000000
-0.230000,0.590000,0.133685,0.020000,-1076.828752,438.550000,-2310.496103,2316.688878,-2098.779674,-0.000000,0.000000,-0.000000,3126.740544,-3120.547769,-20.821053,0.000000,-0.000000,-0.000000
-0.190000,0.570000,0.102043,0.020000,-1142.430151,342.950000,-2768.662837,2769.034709,-2074.198155,-0.000000,0.000000,-0.000000,3459.783847,-3459.411976,-1.950739,0.000000,-0.000000,-0.000000
-0.170000,0.570000,0.095316,0.020000,-1155.000034,306.950000,-2954.099410,2954.648516,-1931.890277,-0.000000,0.000000,-0.000000,3530.220932,-3529.671826,-2.029825,0.000000,-0.000000,-0.000000
-0.170000,0.590000,0.114819,0.020000,-1115.339421,318.550000,-2809.283425,2807.341000,-1761.200900,-0.000000,0.000000,-0.000000,3313.909845,-3315.852270,-3.109025,0.000000,-0.000000,-0.000000
-0.190000,0.590000,0.120461,0.020000,-1103.535809,354.550000,-2643.971498,2642.327985,-1895.499696,-0.000000,0.000000,-0.000000,3251.738762,-3253.382274,-3.118862,0.000000,-0.000000,-0.000000
-0.150000,0.570000,0.092213,0.020000,-1166.388488,274.950000,-3129.911456,3130.657734,-1767.683386,-0.000000,0.000000,-0.000000,3595.283676,-3594.537397,-2.104807,0.000000,-0.000000,-0.000000
-0.130000,0.570000,0.085084,0.020000,-1176.525253,246.950000,-3292.942273,3293.840874,-1582.250370,-0.000000,0.000000,-0.000000,3654.206204,-3653.307602,-2.187002,0.000000,-0.000000,-0.000000
-0.130000,0.590000,0.104553,0.020000,-1135.518400,258.550000,-3109.715294,3107.493119,-1436.254570,-0.000000,0.000000,-0.000000,3423.248267,-3425.470442,-3.211977,0.000000,-0.000000,-0.000000
-0.150000,0.590000,0.110431,0.020000,-1126.021026,286.550000,-2965.454590,2963.365676,-1607.860233,-0.000000,0.000000,-0.000000,3371.333310,-3373.422225,-3.187538,0.000000,-0.000000,-0.000000
-0.110000,0.570000,0.082313,0.020000,-1185.345204,222.950000,-3439.828842,3440.973185,-1376.858764,-0.000000,0.000000,-0.000000,3706.256225,-3705.111882,-2.210284,0.000000,-0.000000,-0.000000
-0.090000,0.570000,0.078019,0.020000,-1192.789612,202.950000,-3567.926040,3569.100271,-1153.246168,-0.000000,0.000000,-0.000000,3750.821423,-3749.647192,-2.345537,0.000000,-0.000000,-0.000000
-0.090000,0.590000,0.097448,0.020000,-1150.736389,214.550000,-3351.914813,3349.473439,-1043.353629,-0.000000,0.000000,-0.000000,3508.156512,-3510.597886,-3.097929,0.000000,-0.000000,-0.000000
-0.110000,0.590000,0.102310,0.020000,-1143.774072,234.550000,-3239.382227,3237.045517,-1247.542619,-0.000000,0.000000,-0.000000,3469.045118,-3471.381828,-3.181123,0.000000,-0.000000,-0.000000
-0.070000,0.570000,0.075230,0.020000,-1198.807382,186.950000,-3673.592839,3675.118976,-913.964045,-0.000000,0.000000,-0.000000,3787.082721,-3785.556584,-2.259269,0.000000,-0.000000,-0.000000
-0.050000,0.570000,0.074095,0.020000,-1203.356160,174.950000,-3755.912445,3757.225721,-661.664042,-0.000000,0.000000,-0.000000,3815.051026,-3813.737751,-2.455561,0.000000,-0.000000,-0.000000
-0.050000,0.590000,0.093496,0.020000,-1160.609442,186.550000,-3516.606961,3514.018338,-597.308588,-0.000000,0.000000,-0.000000,3564.402375,-3566.990998,-2.776949,0.000000,-0.000000,-0.000000
-0.070000,0.590000,0.095229,0.020000,-1156.360534,198.550000,-3444.967252,3442.454381,-825.780386,-0.000000,0.000000,-0.000000,3540.077877,-3542.590747,-2.953782,0.000000,-0.000000,-0.000000
-0.030000,0.570000,0.071284,0.020000,-1206.403281,166.950000,-3810.642310,3812.446365,-399.994952,-0.000000,0.000000,-0.000000,3833.376529,-3831.572475,-2.321829,0.000000,-0.000000,-0.000000
-0.010000,0.570000,0.073258,0.020000,-1207.926593,162.950000,-3839.603800,3840.944273,-132.359138,-0.000000,0.000000,-0.000000,3843.223778,-3841.883305,-2.427311,0.000000,-0.000000,-0.000000
-0.010000,0.590000,0.092663,0.020000,-1164.876648,174.550000,-3589.661613,3587.007541,-119.373490,-0.000000,0.000000,-0.000000,3588.991862,-3591.645933,-2.298603,0.000000,-0.000000,-0.000000
-0.030000,0.590000,0.091284,0.020000,-1163.454596,178.550000,-3565.153675,3562.543235,-360.806824,-0.000000,0.000000,-0.000000,3580.759952,-3583.370392,-2.544717,0.000000,-0.000000,-0.000000
0.010000,0.570000,0.070494,0.020000,-1207.914880,162.950000,-3838.306415,3840.173218,137.175954,-0.000000,0.000000,0.000000,3842.622320,-3840.755516,-2.422818,0.000000,-0.000000,-0.000000
0.030000,0.570000,0.073295,0.020000,-1206.368289,166.950000,-3810.805657,3812.139407,404.649027,-0.000000,0.000000,0.000000,3833.558517,-3832.224768,-2.314071,0.000000,-0.000000,-0.000000
0.030000,0.590000,0.092692,0.020000,-1163.422316,178.550000,-3564.541221,3561.909573,365.064258,-0.000000,0.000000,0.000000,3580.561347,-3583.192995,-1.753958,0.000000,-0.000000,-0.000000
0.010000,0.590000,0.090494,0.020000,-1164.865858,174.550000,-3589.389927,3586.760481,123.696477,-0.000000,0.000000,0.000000,3588.891450,-3591.520896,-2.030691,0.000000,-0.000000,-0.000000
0.050000,0.570000,0.072863,0.020000,-1203.298153,174.950000,-3753.985583,3755.669274,666.331396,-0.000000,0.000000,0.000000,3814.333759,-3812.650068,-2.443734,0.000000,-0.000000,-0.000000
0.070000,0.570000,0.075668,0.020000,-1198.726872,186.950000,-3672.375127,3673.634269,918.268626,-0.000000,0.000000,0.000000,3786.679722,-3785.420580,-2.244347,0.000000,-0.000000,-0.000000
0.070000,0.590000,0.095079,0.020000,-1156.286223,198.550000,-3443.512334,3440.988821,829.751458,-0.000000,0.000000,0.000000,3539.582064,-3542.105577,-1.248732,0.000000,-0.000000,-0.000000
0.050000,0.590000,0.092863,0.020000,-1160.555932,186.550000,-3515.497740,3512.927210,601.459497,-0.000000,0.000000,0.000000,3564.025465,-3566.595994,-1.499904,0.000000,-0.000000,-0.000000
0.090000,0.570000,0.078381,0.020000,-1192.687264,202.950000,-3565.567018,3566.906160,1157.425414,-0.000000,0.000000,0.000000,3750.025723,-3748.686582,-2.331823,0.000000,-0.000000,-0.000000
0.110000,0.570000,0.081157,0.020000,-1185.221852,222.950000,-3437.501634,3438.548557,1380.650822,-0.000000,0.000000,0.000000,3705.413263,-3704.366339,-2.193561,0.000000,-0.000000,-0.000000
0.110000,0.590000,0.100605,0.020000,-1143.660066,234.550000,-3237.220042,3234.881762,1251.041254,-0.000000,0.000000,0.000000,3468.287434,-3470.625714,-0.861895,0.000000,-0.000000,-0.000000
0.090000,0.590000,0.098379,0.020000,-1150.641864,214.550000,-3350.066394,3347.633744,1047.114299,-0.000000,0.000000,0.000000,3507.521918,-3509.954568,-1.041505,0.000000,-0.000000,-0.000000
0.130000,0.570000,0.087023,0.020000,-1176.381885,246.950000,-3290.118706,3291.060166,1585.739847,-0.000000,0.000000,0.000000,3653.215586,-3652.274125,-2.172377,0.000000,-0.000000,-0.000000
0.150000,0.570000,0.089804,0.020000,-1166.226205,274.950000,-3126.901791,3127.626000,1770.793956,-0.000000,0.000000,0.000000,3594.174334,-3593.450125,-2.089713,0.000000,-0.000000,-0.000000
0.150000,0.590000,0.109291,0.020000,-1125.870759,286.550000,-2962.770597,2960.684009,1610.752301,-0.000000,0.000000,0.000000,3370.358668,-3372.445256,-0.634691,0.000000,-0.000000,-0.000000
0.130000,0.590000,0.106603,0.020000,-1135.385776,258.550000,-3107.267162,3105.048476,1439.462295,-0.000000,0.000000,0.000000,3422.378289,-3424.596975,-0.726856,0.000000,-0.000000,-0.000000
0.170000,0.570000,0.096729,0.020000,-1154.820049,306.950000,-2950.869813,2951.421304,1934.613173,-0.000000,0.000000,0.000000,3529.012654,-3528.461164,-2.016648,0.000000,-0.000000,-0.000000
0.190000,0.570000,0.101620,0.020000,-1142.233752,342.950000,-2765.294902,2765.662976,2076.533123,-0.000000,0.000000,0.000000,3458.487061,-3458.118988,-1.939135,0.000000,-0.000000,-0.000000
0.190000,0.590000,0.121133,0.020000,-1103.353536,354.550000,-2640.961363,2639.320800,1897.717832,-0.000000,0.000000,0.000000,3250.591367,-3252.231930,-0.438140,0.000000,-0.000000,-0.000000
0.170000,0.590000,0.115049,0.020000,-1115.172579,318.550000,-2806.413018,2804.473112,1763.759328,-0.000000,0.000000,0.000000,3312.843170,-3314.783076,-0.583816,0.000000,-0.000000,-0.000000
0.210000,0.570000,0.108164,0.020000,-1128.541477,382.950000,-2574.686935,2572.083500,2199.123461,-0.000000,0.000000,0.000000,3383.730059,-3386.333495,-3.917200,0.000000,-0.000000,-0.000000
0.230000,0.570000,0.116584,0.020000,-1113.819965,426.950000,-2378.816400,2378.663367,2293.698576,-0.000000,0.000000,0.000000,3304.383555,-3304.536588,-0.477542,0.000000,-0.000000,-0.000000
0.230000,0.590000,0.134978,0.020000,-1076.619254,438.550000,-2307.309195,2313.532442,2100.292944,-0.000000,0.000000,0.000000,3125.445117,-3119.221870,17.560432,0.000000,-0.000000,0.000000
0.210000,0.590000,0.126673,0.020000,-1090.479581,394.550000,-2471.648455,2469.296247,2014.395141,-0.000000,0.000000,0.000000,3186.459568,-3188.811777,-0.492286,0.000000,-0.000000,-0.000000
0.250000,0.570000,0.122833,0.020000,-1098.147351,474.950000,-2149.499658,2166.348088,2372.453345,-0.000000,0.000000,0.000000,3215.415510,-3198.567080,-19.420377,0.000000,-0.000000,-0.000000
0.270000,0.570000,0.131847,0.020000,-1081.602094,526.950000,-2002.950088,1999.682896,2435.665945,-0.000000,0.000000,0.000000,3150.779008,-3154.046200,5.574153,0.000000,-0.000000,0.000000
0.270000,0.590000,0.149387,0.020000,-1046.220577,538.550000,-1962.408371,1973.945637,2239.878608,-0.000000,0.000000,0.000000,2987.401972,-2975.864707,25.288837,0.000000,-0.000000,0.000000
0.250000,0.590000,0.141494,0.020000,-1061.842671,486.550000,-2106.748093,2111.691242,2184.423118,-0.000000,0.000000,0.000000,3038.998503,-3034.055354,-4.022018,0.000000,-0.000000,-0.000000
0.290000,0.570000,0.140723,0.020000,-1064.262004,582.950000,-1761.311826,1752.912859,2488.504194,-0.000000,0.000000,0.000000,3041.795966,-3050.194932,-44.817773,0.000000,-0.000000,-0.000000
0.310000,0.570000,0.149242,0.020000,-1046.203413,642.950000,-1637.173047,1632.714446,2517.892881,-0.000000,0.000000,0.000000,2999.904841,-3004.363442,4.026672,0.000000,-0.000000,0.000000
0.310000,0.590000,0.167055,0.020000,-1012.720996,654.550000,-1618.172427,1624.733556,2293.534857,-0.000000,0.000000,0.000000,2811.883006,-2805.321877,34.121387,0.000000,-0.000000,0.000000
0.290000,0.590000,0.159413,0.020000,-1029.823501,594.550000,-1751.226640,1720.082240,2259.541914,-0.000000,0.000000,0.000000,2833.636535,-2864.780935,-5.965100,0.000000,-0.000000,-0.000000
-0.230000,0.610000,0.152632,0.020000,-1040.530005,450.550000,-2216.779513,2222.687486,-1968.254234,-0.000000,0.000000,-0.000000,2969.615331,-2963.707358,12.728310,0.000000,-0.000000,0.000000
-0.210000,0.610000,0.146754,0.020000,-1053.587096,406.550000,-2320.807466,2319.524645,-1855.993999,-0.000000,0.000000,-0.000000,2970.334392,-2971.617212,34.453360,0.000000,-0.000000,0.000000
-0.210000,0.630000,0.165030,0.020000,-1017.444565,418.950000,-2270.927060,2246.520310,-1661.825454,-0.000000,0.000000,-0.000000,2791.870846,-2816.277596,-25.773848,0.000000,-0.000000,-0.000000
-0.230000,0.630000,0.171819,0.020000,-1005.114563,462.950000,-2157.869784,2162.264876,-1778.949825,-0.000000,0.000000,-0.000000,2800.336321,-2795.941229,-31.188912,0.000000,-0.000000,-0.000000
-0.190000,0.610000,0.139316,0.020000,-1065.698011,366.550000,-2516.671524,2532.818851,-1754.200903,-0.000000,0.000000,-0.000000,3082.395448,-3066.248121,10.229223,0.000000,-0.000000,0.000000
-0.170000,0.610000,0.134467,0.020000,-1076.801427,330.550000,-2628.428193,2656.373396,-1603.818256,-0.000000,0.000000,-0.000000,3105.004669,-3077.059466,5.976311,0.000000,-0.000000,0.000000
-0.170000,0.630000,0.154206,0.020000,-1039.330264,342.950000,-2546.070183,2531.786078,-1444.463035,-0.000000,0.000000,-0.000000,2913.782170,-2928.066276,-28.830457,0.000000,-0.000000,-0.000000
-0.190000,0.630000,0.158452,0.020000,-1028.868139,378.950000,-2431.964394,2438.636315,-1601.151606,-0.000000,0.000000,-0.000000,2917.821093,-2911.149172,-12.275764,0.000000,-0.000000,-0.000000
-0.150000,0.610000,0.129178,0.020000,-1086.838589,298.550000,-2793.716054,2812.749154,-1486.404718,-0.000000,0.000000,-0.000000,3182.406012,-3163.372912,16.866505,0.000000,-0.000000,0.000000
-0.130000,0.610000,0.124190,0.020000,-1095.754221,270.550000,-2891.538915,2923.538526,-1298.006482,-0.000000,0.000000,-0.000000,3200.116982,-3168.117371,-0.215267,0.000000,-0.000000,-0.000000
-0.130000,0.630000,0.143927,0.020000,-1057.163342,282.950000,-2787.817307,2773.941319,-1160.985919,-0.000000,0.000000,-0.000000,3006.362230,-3020.238218,-34.638430,0.000000,-0.000000,-0.000000
-0.150000,0.630000,0.148253,0.020000,-1048.778416,310.950000,-2687.797433,2689.472962,-1353.124384,-0.000000,0.000000,-0.000000,3010.769874,-3009.094344,-3.677356,0.000000,-0.000000,-0.000000
-0.110000,0.610000,0.122199,0.020000,-1103.497435,246.550000,-3027.682223,3052.493750,-1155.090458,-0.000000,0.000000,-0.000000,3264.474515,-3239.662989,20.439243,0.000000,-0.000000,0.000000
-0.090000,0.610000,0.117069,0.020000,-1110.022633,226.550000,-3103.576728,3138.477494,-933.791367,-0.000000,0.000000,-0.000000,3275.167796,-3240.267030,-7.334874,0.000000,-0.000000,-0.000000
-0.090000,0.630000,0.136800,0.020000,-1070.567513,238.950000,-2981.374226,2968.572136,-828.343713,-0.000000,0.000000,-0.000000,3081.509449,-3094.311539,-37.782527,0.000000,-0.000000,-0.000000
-0.110000,0.630000,0.141215,0.020000,-1064.439840,258.950000,-2904.065129,2903.253517,-1051.392748,-0.000000,0.000000,-0.000000,3087.738796,-3088.550408,5.204761,0.000000,-0.000000,0.000000
-0.070000,0.610000,0.115229,0.020000,-1115.290350,210.550000,-3200.708956,3230.562424,-770.199267,-0.000000,0.000000,-0.000000,3321.442497,-3291.589029,21.755658,0.000000,-0.000000,0.000000
-0.050000,0.610000,0.113105,0.020000,-1119.268016,198.550000,-3248.831509,3285.094720,-524.568688,-0.000000,0.000000,-0.000000,3326.909655,-3290.646443,-14.426490,0.000000,-0.000000,-0.000000
-0.050000,0.630000,0.132831,0.020000,-1079.243006,210.950000,-3112.945270,3101.851737,-458.329422,-0.000000,0.000000,-0.000000,3135.246232,-3146.339765,-37.558792,0.000000,-0.000000,-0.000000
-0.070000,0.630000,0.135228,0.020000,-1075.511478,222.950000,-3064.053282,3060.529617,-704.074264,-0.000000,0.000000,-0.000000,3140.392469,-3143.916134,14.691403,0.000000,-0.000000,0.000000
-0.030000,0.610000,0.111284,0.020000,-1121.930614,190.550000,-3299.350738,3333.015192,-347.476652,-0.000000,0.000000,-0.000000,3351.107729,-3317.443275,20.404924,0.000000,-0.000000,0.000000
-0.010000,0.610000,0.112278,0.020000,-1123.261194,186.550000,-3315.758119,3351.609286,-88.915719,-0.000000,0.000000,-0.000000,3352.732432,-3316.881265,-20.403799,0.000000,-0.000000,-0.000000
-0.010000,0.630000,0.132008,0.020000,-1082.987726,198.950000,-3172.511505,3163.655442,-66.778589,-0.000000,0.000000,-0.000000,3164.178852,-3173.034915,-33.803798,0.000000,-0.000000,-0.000000
-0.030000,0.630000,0.131284,0.020000,-1081.740060,202.950000,-3155.865512,3149.584440,-324.532030,-0.000000,0.000000,-0.000000,3166.156601,-3172.437673,23.483358,0.000000,-0.000000,0.000000
0.010000,0.610000,0.110494,0.020000,-1123.251228,186.550000,-3315.526752,3351.390624,92.846882,-0.000000,0.000000,0.000000,3352.642747,-3316.778875,16.467372,0.000000,-0.000000,0.000000
0.030000,0.610000,0.112301,0.020000,-1121.900792,190.550000,-3298.831225,3332.467585,351.348234,-0.000000,0.000000,0.000000,3350.942588,-3317.306229,-24.310177,0.000000,-0.000000,-0.000000
0.030000,0.630000,0.132028,0.020000,-1081.712467,202.950000,-3155.374393,3149.117409,328.004056,-0.000000,0.000000,0.000000,3166.021660,-3172.278643,-26.985197,0.000000,-0.000000,-0.000000
0.010000,0.630000,0.130494,0.020000,-1082.978506,198.950000,-3172.316934,3163.439140,70.305390,-0.000000,0.000000,0.000000,3164.074587,-3172.952380,30.272253,0.000000,-0.000000,0.000000
0.050000,0.610000,0.112863,0.020000,-1119.218567,198.550000,-3247.869906,3284.129285,528.358094,-0.000000,0.000000,0.000000,3326.574148,-3290.314770,10.530763,0.000000,-0.000000,0.000000
0.070000,0.610000,0.114693,0.020000,-1115.221650,210.550000,-3199.481235,3229.294153,773.818207,-0.000000,0.000000,0.000000,3321.026449,-3291.213531,-25.563227,0.000000,-0.000000,-0.000000
0.070000,0.630000,0.134421,0.020000,-1075.447873,222.950000,-3062.915574,3059.416517,707.330053,-0.000000,0.000000,0.000000,3140.021503,-3143.520560,-18.114822,0.000000,-0.000000,-0.000000
0.050000,0.630000,0.132863,0.020000,-1079.197241,210.950000,-3112.080586,3100.969341,461.743082,-0.000000,0.000000,0.000000,3134.913230,-3146.024475,34.050078,0.000000,-0.000000,0.000000
0.090000,0.610000,0.118378,0.020000,-1109.935198,226.550000,-3101.963317,3136.844804,937.255272,-0.000000,0.000000,0.000000,3274.604623,-3239.723136,3.549834,0.000000,-0.000000,0.000000
0.110000,0.610000,0.120234,0.020000,-1103.391909,246.550000,-3025.845706,3050.608204,1158.294362,-0.000000,0.000000,0.000000,3263.825307,-3239.062810,-24.091392,0.000000,-0.000000,-0.000000
0.110000,0.630000,0.139969,0.020000,-1064.342030,258.950000,-2902.368294,2901.580047,1054.295466,-0.000000,0.000000,0.000000,3087.148694,-3087.936941,-8.506785,0.000000,-0.000000,-0.000000
0.090000,0.630000,0.138378,0.020000,-1070.486521,238.950000,-2979.906912,2967.092368,831.489560,-0.000000,0.000000,0.000000,3080.969459,-3093.784003,34.349922,0.000000,-0.000000,0.000000
0.130000,0.610000,0.125296,0.020000,-1095.631364,270.550000,-2889.397456,2921.365410,1301.000832,-0.000000,0.000000,0.000000,3199.352144,-3167.384190,-3.398458,0.000000,-0.000000,-0.000000
0.150000,0.610000,0.128935,0.020000,-1086.699264,298.550000,-2791.409192,2810.389183,1489.078248,-0.000000,0.000000,0.000000,3181.552021,-3162.572030,-20.317294,0.000000,-0.000000,-0.000000
0.150000,0.630000,0.148674,0.020000,-1048.649081,310.950000,-2685.663500,2687.359721,1355.574994,-0.000000,0.000000,0.000000,3009.988837,-3008.292616,0.532706,0.000000,-0.000000,0.000000
0.130000,0.630000,0.144340,0.020000,-1057.049387,282.950000,-2785.856096,2771.973544,1163.739401,-0.000000,0.000000,0.000000,3005.644866,-3019.527418,31.332226,0.000000,-0.000000,0.000000
0.170000,0.610000,0.133850,0.020000,-1076.646580,330.550000,-2625.910035,2653.815294,1606.250863,-0.000000,0.000000,0.000000,3104.070573,-3076.165315,-9.371021,0.000000,-0.000000,-0.000000
0.190000,0.610000,0.140783,0.020000,-1065.528662,366.550000,-2514.051509,2530.147654,1756.283615,-0.000000,0.000000,0.000000,3081.374876,-3065.278732,-13.445888,0.000000,-0.000000,-0.000000
0.190000,0.630000,0.159648,0.020000,-1028.710639,378.950000,-2429.533801,2436.224686,1603.095397,-0.000000,0.000000,0.000000,2916.887865,-2910.196980,9.317486,0.000000,-0.000000,0.000000
0.170000,0.630000,0.152956,0.020000,-1039.186393,342.950000,-2543.749051,2529.464224,1446.740393,-0.000000,0.000000,0.000000,2912.921078,-2927.205905,25.694404,0.000000,-0.000000,0.000000
0.210000,0.610000,0.145577,0.020000,-1053.404316,406.550000,-2318.084282,2316.775223,1857.833496,-0.000000,0.000000,0.000000,2969.297177,-2970.606237,-37.587420,0.000000,-0.000000,-0.000000
0.230000,0.610000,0.152858,0.020000,-1040.334904,450.550000,-2214.012540,2219.879419,1969.748017,-0.000000,0.000000,0.000000,2968.487440,-2962.620561,-15.690648,0.000000,-0.000000,-0.000000
0.230000,0.630000,0.171208,0.020000,-1004.932724,462.950000,-2155.270850,2159.672630,1780.371097,-0.000000,0.000000,0.000000,2799.270305,-2794.868524,28.429642,0.000000,-0.000000,0.000000
0.210000,0.630000,0.164740,0.020000,-1017.274397,418.950000,-2268.368122,2243.943395,1663.593950,-0.000000,0.000000,0.000000,2790.868613,-2815.293341,22.818295,0.000000,-0.000000,0.000000
