x,y,R,s,phi,sigma_xx,sigma_yy,tau_xy,epsilon_xx,epsilon_yy,epsilon_xy
-2.120000,-1.680000,0.320052,0.080000,12075804.958733,1439061102.231755,-1288131607.275284,1145601555.642545,0.026260,-0.025122,0.021584
-2.040000,-1.680000,0.320026,0.080000,4863472.749349,-1254434421.875895,977977148.141730,-7090035307.821213,-0.022072,0.019988,-0.133580
-1.960000,-1.680000,0.320301,0.080000,17461879.316042,-15790861396.935564,15507128768.469572,15107502987.520708,-0.295905,0.293767,0.284634
-1.880000,-1.680000,0.320061,0.080000,73451985.391309,51324592767.001770,-50809100628.303474,17608367548.043049,0.964071,-0.960187,0.331752
-1.800000,-1.680000,0.320020,0.080000,-124126172.850377,1971561841.721075,-2251392528.444685,-106255852986.659821,0.038727,-0.040836,-2.001922
-1.720000,-1.680000,0.320281,0.080000,-233870421.141354,-185410501445.548767,184205380529.280029,24009207993.902344,-3.486430,3.477348,0.452347
-1.640000,-1.680000,0.320070,0.080000,558423140.898413,46031813606.425102,-45678556177.681664,284704852787.711792,0.865269,-0.862607,5.364004
-1.560000,-1.680000,0.320015,0.080000,959839832.172971,420875767062.739929,-417800417277.267456,-26290690180.162266,7.912161,-7.888984,-0.495332
-1.480000,-1.680000,0.320261,0.080000,-840207846.795180,74353376271.969223,-73709595940.959442,-555593167672.095703,1.397222,-1.392370,-10.467697
-1.400000,-1.680000,0.320081,0.080000,-2855686386.059121,-669544442489.201660,664608307413.781128,-290602544299.656555,-12.586706,12.549506,-5.475120
-1.320000,-1.680000,0.320011,0.080000,-1128937167.270713,-633719480165.189209,628886103505.719482,630720292274.615112,-11.912323,11.875898,11.883136
-1.240000,-1.680000,0.320242,0.080000,3991825072.782717,377914582098.660767,-375299717063.548035,988194750834.876343,7.105350,-7.085644,18.618162
-1.160000,-1.680000,0.320092,0.080000,6820750147.126392,1233899824211.764404,-1224840621858.205811,161583705181.933563,23.196184,-23.127912,3.044331
-1.080000,-1.680000,0.320007,0.080000,2600032962.366033,884392407096.816650,-877717866249.551514,-1079147564727.329712,16.624740,-16.574439,-20.331766
-1.000000,-1.680000,0.320224,0.080000,-6590876241.711602,-463984291647.322449,460884413872.081482,-1468990522213.528076,-8.724212,8.700851,-27.676633
-0.920000,-1.680000,0.320104,0.080000,-12968607679.888140,-1617171640543.819336,1605599500382.823242,-545347565718.604797,-30.403043,30.315833,-10.274664
-0.840000,-1.680000,0.320004,0.080000,-9877581577.145010,-1548917836427.156250,1537647883058.713135,982263690949.694458,-29.118810,29.033877,18.506417
-0.760000,-1.680000,0.320206,0.080000,2242356515.127125,-245716692595.784058,243660064857.788025,1914661062956.606934,-4.617821,4.602321,36.073324
-0.680000,-1.680000,0.320116,0.080000,15723419535.527353,1365937733586.270020,-1356492365453.371338,1528363727728.252197,25.681672,-25.610489,28.795259
-0.600000,-1.680000,0.320002,0.080000,21067874545.284874,2163640120751.059082,-2148410739842.635742,55351175527.769554,40.678155,-40.563383,1.042848
-0.520000,-1.680000,0.320190,0.080000,13569113312.613741,1601288667868.733398,-1589881085065.706055,-1551495850121.348145,30.104729,-30.018759,-29.231081
-0.440000,-1.680000,0.320129,0.080000,-3421348947.804217,12082760307.096495,-11761565085.733738,-2281129002830.476074,0.225831,-0.223410,-42.977793
-0.360000,-1.680000,0.320001,0.080000,-20437415366.028069,-1656063123013.443115,1644693590185.937012,-1681820474281.553711,-31.136927,31.051243,-31.686473
-0.280000,-1.680000,0.320173,0.080000,-27529005081.790459,-2430824934019.676270,2413973098695.007812,-89421421607.108231,-45.702901,45.575902,-1.684751
-0.200000,-1.680000,0.320143,0.080000,-20072961398.907116,-1864334545501.778076,1851342245170.425537,1602682725773.227783,-35.051709,34.953796,30.195472
-0.120000,-1.680000,0.320000,0.080000,-1467163059.618146,-257785092201.865387,255903802734.139252,2456408821456.745117,-4.846187,4.832009,46.280166
-0.040000,-1.680000,0.320158,0.080000,18661542811.950394,1521647522211.978516,-1511190897126.825439,1995829197249.182861,28.609619,-28.530815,37.602579
0.040000,-1.680000,0.320158,0.080000,29652015507.141865,2511219279959.055664,-2493887278075.267578,454524374881.578735,47.214864,-47.084246,8.563503
0.120000,-1.680000,0.320000,0.080000,25582394144.409279,2164487210824.757324,-2149548525761.738037,-1348432917953.276855,40.695758,-40.583176,-25.405258
0.200000,-1.680000,0.320143,0.080000,8542349795.400951,649403718369.599976,-644976941943.520874,-2437240254975.021973,12.210122,-12.176760,-45.919019
0.280000,-1.680000,0.320173,0.080000,-12386537442.579191,-1221176914010.063965,1212615073874.873779,-2202214527613.494141,-22.959288,22.894764,-41.490998
0.360000,-1.680000,0.320001,0.080000,-26013553583.672272,-2408740782821.562500,2391952332862.425293,-752083097956.561401,-45.287181,45.160660,-14.169682
0.440000,-1.680000,0.320129,0.080000,-25252946027.304276,-2223450588268.315430,2208032561397.987305,1105274483532.656250,-41.803953,41.687759,20.824012
0.520000,-1.680000,0.320190,0.080000,-11222094929.747351,-753005119706.429932,747958492736.836792,2284654635872.129883,-14.158529,14.120496,43.044218
0.600000,-1.680000,0.320002,0.080000,7321592382.420446,1124381353893.607910,-1116224725054.870850,2060390054618.811279,21.137894,-21.076424,38.818943
0.680000,-1.680000,0.320116,0.080000,19236908050.925907,2223391034487.636230,-2207576894610.410156,563461460352.189087,41.800592,-41.681413,10.615941
0.760000,-1.680000,0.320206,0.080000,18023857806.323677,1814855885691.097656,-1802110658853.053711,-1215825139326.096436,34.120899,-34.024848,-22.906850
0.840000,-1.680000,0.320004,0.080000,6082147882.920794,195769749871.468201,-194694880167.913361,-2034948439707.568359,3.682340,-3.674240,-38.339608
0.920000,-1.680000,0.320104,0.080000,-7103707786.937630,-1415435644143.569824,1404990891312.293701,-1309912319484.937744,-26.608593,26.529878,-24.679507
1.000000,-1.680000,0.320224,0.080000,-12127602228.184351,-1756784204939.542236,1744067890581.730713,335018894932.915649,-33.026958,32.931125,6.311950
1.080000,-1.680000,0.320007,0.080000,-6965098937.444308,-614399668771.922241,610168851273.866577,1472647516242.995361,-11.551733,11.519848,27.745533
1.160000,-1.680000,0.320092,0.080000,1870332308.899652,867796715133.278809,-861189748970.677979,1125013891825.323730,16.312449,-16.262658,21.195914
1.240000,-1.680000,0.320242,0.080000,5921133443.784348,1224320006397.036133,-1215278571307.481934,-207370287822.953949,23.015795,-22.947657,-3.906976
1.320000,-1.680000,0.320011,0.080000,3063239818.263135,252050973842.773621,-250358778610.766937,-995419508121.663940,4.739222,-4.726469,-18.754281
1.400000,-1.680000,0.320081,0.080000,-1398290136.646645,-704397147907.026123,699069511373.105957,-460860342232.610107,-13.241138,13.200988,-8.682876
1.480000,-1.680000,0.320261,0.080000,-2144374282.843833,-493142523954.643616,489567177206.537903,426918576090.574646,-9.270883,9.243938,8.043393
1.560000,-1.680000,0.320015,0.080000,-109598564.557654,253458490954.826019,-251587472887.384399,404337306139.410461,4.764730,-4.750629,7.617949
1.640000,-1.680000,0.320070,0.080000,779749569.221398,293192660962.962463,-291131342613.361755,-154374939488.327423,5.512269,-5.496734,-2.908513
1.720000,-1.680000,0.320281,0.080000,93360066.938894,-108551192289.650864,108037867494.972229,-176129390306.690491,-2.042266,2.038397,-3.318380
1.800000,-1.680000,0.320020,0.080000,-190094635.028950,-87695375852.468567,86887385507.192429,79353748287.567749,-1.647665,1.641576,1.495071
1.880000,-1.680000,0.320061,0.080000,15051750.533733,50907831951.099243,-50767664756.380066,25998038371.998867,0.958341,-0.957284,0.489818
1.960000,-1.680000,0.320301,0.080000,25313734.761753,-54680510.554692,534820800.017248,-22813202147.850437,-0.003744,0.007362,-0.429814
2.040000,-1.680000,0.320026,0.080000,-1108755.025633,-6069401099.509670,5479619726.356116,4788689845.288579,-0.111017,0.106573,0.090222
2.120000,-1.680000,0.320052,0.080000,4657173.505767,2020112758.929526,-1687271240.478142,-98407137.776424,0.036179,-0.033670,-0.001854
-2.120000,-1.600000,0.380012,0.080000,10667802.070281,-70679455.454879,117930854.220195,-517149804.212189,-0.001599,0.001955,-0.009743
-2.040000,-1.600000,0.400021,0.080000,10895290.767358,-853444611.923029,914595997.255848,-59326944.503738,-0.016425,0.016886,-0.001118
-1.960000,-1.600000,0.400241,0.080000,15044782.590589,758091006.321945,-808714681.946105,2684340824.336036,0.014569,-0.014951,0.050575
-1.880000,-1.600000,0.400048,0.080000,9992699.097392,7600842000.213742,-7818037396.877626,-4044374641.877595,0.144432,-0.146069,-0.076198
-1.800000,-1.600000,0.400016,0.080000,-24859726.564266,-11794194057.036703,12106684726.524357,-14183352344.377399,-0.223976,0.226331,-0.267223
-1.720000,-1.600000,0.400225,0.080000,15883955.597663,-29955427310.063271,30695552352.214577,23300310522.778152,-0.568561,0.574139,0.438991
-1.640000,-1.600000,0.400056,0.080000,185989515.055318,37954889788.862663,-38402675725.953751,51118748951.716896,0.717623,-0.720998,0.963107
-1.560000,-1.600000,0.400012,0.080000,119711534.332888,96550279341.458237,-98404935007.627274,-44266080673.579964,1.829546,-1.843523,-0.833999
-1.480000,-1.600000,0.400209,0.080000,-432046050.772208,-27679579080.002945,27200550433.327415,-146387187357.288788,-0.518792,0.515182,-2.758019
-1.400000,-1.600000,0.400065,0.080000,-762762145.934346,-214896676179.880127,217597812262.063141,-29383051171.725349,-4.064045,4.084402,-0.553594
-1.320000,-1.600000,0.400009,0.080000,98607989.748176,-152546993182.063904,155636527541.849915,234467541765.501709,-2.891536,2.914820,4.417504
-1.240000,-1.600000,0.400194,0.080000,1735530626.236938,188156252111.185913,-188880669568.946289,296187084363.409851,3.549067,-3.554527,5.580336
-1.160000,-1.600000,0.400073,0.080000,2236007095.070482,443448762833.770813,-448052786666.859924,-13992627581.731915,8.380855,-8.415551,-0.263629
-1.080000,-1.600000,0.400006,0.080000,214148787.665841,272539384577.893555,-276619627759.530212,-435707244763.233337,5.157862,-5.188612,-8.208977
-1.000000,-1.600000,0.400179,0.080000,-3299362554.192920,-245322639461.448914,245882459519.338409,-536598405966.924072,-4.625185,4.629404,-10.109825
-0.920000,-1.600000,0.400083,0.080000,-5318373258.219677,-670483483737.542358,675508985376.286865,-151598197895.135010,-12.660703,12.698576,-2.856198
-0.840000,-1.600000,0.400004,0.080000,-3414263110.999485,-607907084587.735352,613394514273.838745,454321687838.889832,-11.484338,11.525692,8.559684
-0.760000,-1.600000,0.400165,0.080000,2008167728.279385,-46742393620.133835,48471336493.786598,812099742751.739502,-0.890426,0.903456,15.300430
-0.680000,-1.600000,0.400093,0.080000,7643218956.868796,636655007317.993164,-639919410068.049927,623135395677.627075,12.013400,-12.038002,11.740232
-0.600000,-1.600000,0.400002,0.080000,9477337790.771639,965767280893.787476,-971738155319.786499,-24049827461.714188,18.229364,-18.274362,-0.453113
-0.520000,-1.600000,0.400152,0.080000,5587725298.136774,696376538330.718384,-701146887968.550781,-726020589705.522827,13.147101,-13.183051,-13.678649
-0.440000,-1.600000,0.400104,0.080000,-2410362458.274014,-31620493936.870533,30966425375.781479,-1038032400745.442505,-0.592052,0.587122,-19.557132
-0.360000,-1.600000,0.400001,0.080000,-10183743107.014992,-793813192430.966064,797568474655.617676,-752202015585.921265,-14.977126,15.005427,-14.171922
-0.280000,-1.600000,0.400139,0.080000,-13197606561.226133,-1143043032805.580566,1148947720490.853271,-14863508563.802397,-21.568968,21.613467,-0.280037
-0.200000,-1.600000,0.400115,0.080000,-9378746535.165516,-867800906724.900757,872484189241.996094,766506234237.744995,-16.376343,16.411637,14.441422
-0.120000,-1.600000,0.400000,0.080000,-380855831.861599,-106391787036.794586,107254896371.203705,1157035004977.352051,-2.009361,2.015866,21.799210
-0.040000,-1.600000,0.400126,0.080000,9238926906.587286,733391172712.594360,-736825249309.033203,934345672344.067993,13.836925,-13.862805,17.603614
0.040000,-1.600000,0.400126,0.080000,14457710508.450354,1196998410217.874023,-1202871782106.486328,208859288546.740326,22.585341,-22.629604,3.935030
0.120000,-1.600000,0.400000,0.080000,12505854915.220053,1028761898185.614380,-1033856822204.626709,-634193616394.089966,19.411268,-19.449664,-11.948575
0.200000,-1.600000,0.400115,0.080000,4394066017.476925,313309321984.616882,-314740275310.233276,-1139735409721.654297,5.911017,-5.921801,-21.473276
0.280000,-1.600000,0.400139,0.080000,-5597992192.097741,-562695370247.066772,565877419446.617920,-1030147613988.955444,-10.619492,10.643473,-19.408578
0.360000,-1.600000,0.400001,0.080000,-12237407024.681229,-1115494231253.434814,1121618775367.930176,-365169573400.010620,-21.051175,21.097331,-6.880006
0.440000,-1.600000,0.400104,0.080000,-12225320415.278591,-1034971939628.077881,1040481306654.449951,478534691282.961060,-19.530611,19.572131,9.015871
0.520000,-1.600000,0.400152,0.080000,-6036800238.269368,-374188283282.383301,375611608663.896240,1012513050081.891968,-7.057969,7.068696,19.076333
0.600000,-1.600000,0.400002,0.080000,2407802377.726794,463082607515.077271,-466870764219.065857,925955042464.859375,8.746156,-8.774705,17.445530
0.680000,-1.600000,0.400093,0.080000,8147425111.961583,956168770408.268677,-962842449138.272217,291347408778.228210,18.052495,-18.102789,5.489154
0.760000,-1.600000,0.400165,0.080000,8256986367.798955,803639521057.623901,-808583172720.941406,-460952618863.335632,15.168977,-15.206233,-8.684615
0.840000,-1.600000,0.400004,0.080000,3609397237.111803,145315256195.247437,-144820688294.518005,-820372708787.924927,2.735028,-2.731301,-15.456297
0.920000,-1.600000,0.400083,0.080000,-1959426515.505083,-515849912189.077271,521414491316.220215,-565482386071.869019,-9.750363,9.792299,-10.654016
1.000000,-1.600000,0.400179,0.080000,-4588573963.224695,-687775696292.317993,693721164850.432617,51486316761.776550,-12.991698,13.036504,0.970032
1.080000,-1.600000,0.400006,0.080000,-3236867825.862048,-297085851848.016602,298238029683.543579,498543971882.217285,-5.603782,5.612465,9.392857
1.160000,-1.600000,0.400073,0.080000,-98626798.155039,239391051349.315582,-243621922364.645813,429836666095.758362,4.534180,-4.566065,8.098372
1.240000,-1.600000,0.400194,0.080000,1769559177.618238,413679763143.434875,-418436720244.522461,9525949133.410061,7.820854,-7.856703,0.179474
1.320000,-1.600000,0.400009,0.080000,1315933568.094488,146080063313.368530,-146444006231.480316,-277522875003.236206,2.754290,-2.757033,-5.228692
1.400000,-1.600000,0.400065,0.080000,-37763467.725195,-162797930604.288727,166040681248.616180,-178943517403.855408,-3.085536,3.109974,-3.371400
1.480000,-1.600000,0.400209,0.080000,-573201820.173056,-162236745697.808167,164302925497.726715,63742106958.042221,-3.068313,3.083884,1.200938
1.560000,-1.600000,0.400012,0.080000,-204055183.125204,20625482483.343002,-21605937262.591446,111106710837.710999,0.394138,-0.401527,2.093315
1.640000,-1.600000,0.400056,0.080000,126579913.960214,73784549198.966217,-75208842355.761978,-430549394.944196,1.398194,-1.408928,-0.008112
1.720000,-1.600000,0.400225,0.080000,76246364.274685,549130668.234112,-461739033.356080,-38901054315.400513,0.009852,-0.009193,-0.732918
1.800000,-1.600000,0.400016,0.080000,-16107395.749013,-20796045565.812534,21366124475.347572,342018981.767395,-0.395032,0.399328,0.006444
1.880000,-1.600000,0.400048,0.080000,-6578114.420720,2018035218.376259,-2007449921.794410,7951688001.772453,0.037961,-0.037881,0.149814
1.960000,-1.600000,0.400241,0.080000,6674802.807570,2741681383.974697,-2815271095.401037,-1252315026.095935,0.052071,-0.052625,-0.023594
2.040000,-1.600000,0.400021,0.080000,4676245.603445,-813333524.895157,797385161.690853,-445609874.069736,-0.015234,0.015113,-0.008396
2.120000,-1.600000,0.380012,0.080000,4810994.400494,-63257128.224560,69386825.607547,-381690173.817981,-0.001226,0.001273,-0.007191
-2.120000,-1.520000,0.380207,0.080000,10815632.017733,1827156714.804679,-1928337370.079892,172759276.694815,0.034997,-0.035759,0.003255
-2.040000,-1.520000,0.460171,0.080000,11617514.579837,22125404.060638,-1452577.984969,402415265.119973,0.000300,-0.000144,0.007582
-1.960000,-1.520000,0.480201,0.080000,11304654.847699,471377255.845551,-514019750.884202,42474790.452801,0.009122,-0.009443,0.000800
-1.880000,-1.520000,0.480040,0.080000,8442678.931941,62776492.834216,-197448103.294108,-1599812545.957799,0.001944,-0.002959,-0.030141
-1.800000,-1.520000,0.480013,0.080000,7237202.251060,-3932594412.022893,4152235303.456929,-339514793.726586,-0.075334,0.076989,-0.006397
-1.720000,-1.520000,0.480187,0.080000,27322021.919703,-1644808683.475350,2146488760.132836,8346863246.178458,-0.033825,0.037606,0.157260
-1.640000,-1.520000,0.480047,0.080000,49499061.140591,15001738086.804552,-15382657644.686441,6170285226.443652,0.284794,-0.287665,0.116252
-1.560000,-1.520000,0.480010,0.080000,-14521507.337039,16901468237.058926,-18273733169.969837,-22272453496.591038,0.326190,-0.336531,-0.419626
-1.480000,-1.520000,0.480174,0.080000,-160011395.367840,-24745849694.022240,24502506744.317314,-37179419156.619225,-0.464851,0.463017,-0.700482
-1.400000,-1.520000,0.480054,0.080000,-150120067.275260,-65049563432.775543,67191413328.588242,12420230528.541826,-1.237678,1.253819,0.234004
-1.320000,-1.520000,0.480007,0.080000,223335621.954102,-24347664230.088196,26662643424.413353,89759221604.624954,-0.471809,0.489255,1.691116
-1.240000,-1.520000,0.480162,0.080000,708186091.148885,89061679020.114044,-89750974894.246216,87232854182.000107,1.681870,-1.687064,1.643518
-1.160000,-1.520000,0.480061,0.080000,657926140.846930,155414733189.116180,-159090300258.363678,-37577703666.385574,2.948879,-2.976579,-0.707986
-1.080000,-1.520000,0.480005,0.080000,-285445194.042049,70035207069.493454,-73249681223.501511,-185227493199.024200,1.337673,-1.361898,-3.489793
-1.000000,-1.520000,0.480149,0.080000,-1604462696.783297,-129102532682.320282,129588164791.083435,-200547775318.367371,-2.435111,2.438771,-3.778436
-0.920000,-1.520000,0.480069,0.080000,-2136435001.725716,-278239374914.508057,282312167080.553589,-28272524282.495937,-5.265211,5.295905,-0.532671
-0.840000,-1.520000,0.480003,0.080000,-1025233432.762422,-230243390434.393738,234719912451.549774,222116694014.578461,-4.363221,4.396957,4.184807
-0.760000,-1.520000,0.480138,0.080000,1425234447.794278,14903760634.933264,-13450876163.175600,358817047267.695190,0.272584,-0.261634,6.760321
-0.680000,-1.520000,0.480077,0.080000,3756113998.863574,301718842329.581970,-304352579786.399292,258192753256.697021,5.699444,-5.719293,4.864501
-0.600000,-1.520000,0.480001,0.080000,4271572098.645531,430343156493.000244,-435246812033.176697,-39754145137.562569,8.135631,-8.172586,-0.748991
-0.520000,-1.520000,0.480126,0.080000,2220227464.537910,296380147669.586914,-300352945118.336121,-355888332889.120483,5.606429,-5.636369,-6.705143
-0.440000,-1.520000,0.480086,0.080000,-1586588185.129081,-38367407009.672791,37764831614.361145,-489429767346.028992,-0.719458,0.714917,-9.221141
-0.360000,-1.520000,0.480001,0.080000,-5143494410.494766,-383972379905.411133,387030317478.729309,-345016494595.677917,-7.251546,7.274592,-6.500311
-0.280000,-1.520000,0.480116,0.080000,-6384517951.858521,-537383098414.948792,542257576426.234863,9100046391.500807,-10.152160,10.188896,0.171450
-0.200000,-1.520000,0.480096,0.080000,-4396982754.680937,-401508723964.579773,405401830363.886597,380871232934.399475,-7.586662,7.616001,7.175835
-0.120000,-1.520000,0.480000,0.080000,-2620857.472590,-40813300778.915565,41549356524.353172,563770337211.779053,-0.773107,0.778654,10.621760
-0.040000,-1.520000,0.480105,0.080000,4629389314.914825,354084446142.780396,-356915084659.998352,452100939078.411621,6.687155,-6.708488,8.517844
0.040000,-1.520000,0.480105,0.080000,7126635031.519345,570577564057.120850,-575430209613.654785,99870104671.824951,10.777440,-10.814011,1.881611
0.120000,-1.520000,0.480000,0.080000,6189695291.141088,490105600788.280762,-494299644098.959351,-307141146745.236145,9.257579,-9.289186,-5.786717
0.200000,-1.520000,0.480096,0.080000,2303012741.779168,154233984607.900635,-155377020084.486542,-551067244560.387085,2.912318,-2.920932,-10.382426
0.280000,-1.520000,0.480116,0.080000,-2516150752.967994,-255395063541.955688,258065600820.554871,-501120303722.918091,-4.826885,4.847011,-9.441397
0.360000,-1.520000,0.480001,0.080000,-5808630012.950827,-515192627398.370789,520256977399.515381,-188140676664.145599,-9.735152,9.773318,-3.544679
0.440000,-1.520000,0.480086,0.080000,-6013379397.947341,-485276128353.953186,489773764700.346619,209108900196.411774,-9.168305,9.202200,3.939733
0.520000,-1.520000,0.480126,0.080000,-3303235239.865012,-192643431591.566711,193735802340.257355,463997992374.157654,-3.635688,3.643921,8.741991
0.600000,-1.520000,0.480001,0.080000,578490729.273334,180937162674.711975,-184110870725.613434,436252230035.586060,3.426899,-3.450817,8.219245
0.680000,-1.520000,0.480077,0.080000,3403131346.133286,407968274383.520203,-413439020755.765015,160610927265.789886,7.717280,-7.758509,3.026003
0.760000,-1.520000,0.480138,0.080000,3809627178.246929,360804703722.166565,-364798611694.773315,-172519405225.431519,6.820344,-6.850443,-3.250366
0.840000,-1.520000,0.480003,0.080000,2060928992.891649,98358872345.866821,-97924543472.014771,-343652642513.419189,1.850683,-1.847410,-6.474615
0.920000,-1.520000,0.480069,0.080000,-303480859.916933,-175920995911.639526,180415512205.455536,-259159620047.358643,-3.339857,3.373729,-4.882717
1.000000,-1.520000,0.480149,0.080000,-1663483963.358544,-267785054445.949493,272567513613.945557,-18619151905.954441,-5.072257,5.108299,-0.350796
1.080000,-1.520000,0.480005,0.080000,-1457343299.165425,-144222533535.181091,145213530288.487518,170695100453.136047,-2.722837,2.730306,3.215995
1.160000,-1.520000,0.480061,0.080000,-380661388.794570,49498468856.271362,-52760694213.451721,172962437298.990112,0.951019,-0.975603,3.258713
1.240000,-1.520000,0.480162,0.080000,446750515.475280,134991666459.066284,-138758024535.744446,36699101830.417313,2.564609,-2.592994,0.691432
1.320000,-1.520000,0.480007,0.080000,508170433.332015,72066369839.427368,-72508259716.836411,-75434914547.833160,1.360270,-1.363600,-1.421238
1.400000,-1.520000,0.480054,0.080000,135243708.319127,-26389148084.431320,28795280330.651287,-68801005773.741867,-0.510787,0.528920,-1.296251
1.480000,-1.520000,0.480174,0.080000,-115058782.188302,-49130999014.139259,50785361376.588493,-504150865.023691,-0.935007,0.947475,-0.009498
1.560000,-1.520000,0.480010,0.080000,-91261450.654689,-9805558697.487457,9167004309.855101,28993797816.267242,-0.181133,0.176321,0.546260
1.640000,-1.520000,0.480047,0.080000,3035035.790862,14645743955.024656,-15690898074.989140,9332976977.757925,0.281842,-0.289718,0.175839
1.720000,-1.520000,0.480187,0.080000,23980796.993927,6001333915.068007,-5972708941.146786,-6681209566.503872,0.112907,-0.112691,-0.125878
1.800000,-1.520000,0.480013,0.080000,7028186.618879,-2764312091.254756,3136125323.660390,-2976714498.852754,-0.054183,0.056985,-0.056083
1.880000,-1.520000,0.480040,0.080000,1620407.759405,-1175614759.508603,1193809498.284105,1041537669.663486,-0.022252,0.022389,0.019623
1.960000,-1.520000,0.480201,0.080000,3716824.933993,436473492.880151,-500876887.693977,338756325.488345,0.008587,-0.009073,0.006382
2.040000,-1.520000,0.460171,0.080000,4074168.721135,249321926.431170,-229543318.204158,152515574.526147,0.004586,-0.004437,0.002873
2.120000,-1.520000,0.380207,0.080000,3533276.864393,-1746314758.778683,1879684858.953601,1451017662.110841,-0.033655,0.034661,0.027338
-2.120000,-1.440000,0.380079,0.080000,18890487.679194,-3171155664.261115,3264079127.054471,5190116856.936996,-0.060272,0.060972,0.097785
-2.040000,-1.440000,0.460065,0.080000,11321965.994085,-1044345974.857914,994611354.623841,-79861677.669599,-0.019395,0.019020,-0.001505
-1.960000,-1.440000,0.540056,0.080000,10588932.488103,-65322654.272564,3313915.677760,-311413159.436987,-0.000880,0.000413,-0.005867
-1.880000,-1.440000,0.560035,0.080000,10537759.278856,-239349214.268215,253315048.962996,-207950413.916871,-0.004588,0.004694,-0.003918
-1.800000,-1.440000,0.560012,0.080000,12222760.201893,-549455511.144463,707355519.052730,736352067.056034,-0.011245,0.012435,0.013873
-1.720000,-1.440000,0.560161,0.080000,16841614.452017,1087050413.368670,-1052017577.816335,1771900717.949840,0.020283,-0.020019,0.033384
-1.640000,-1.440000,0.560040,0.080000,13577796.866647,3973972956.639692,-4399278593.673514,-1261746244.981503,0.077276,-0.080481,-0.023772
-1.560000,-1.440000,0.560009,0.080000,-13081196.128107,667425769.422392,-1166890494.927044,-7925248818.534633,0.015398,-0.019162,-0.149316
-1.480000,-1.440000,0.560149,0.080000,-40053447.544374,-11488900210.023872,11939467186.762278,-6306797152.362758,-0.219004,0.222400,-0.118824
-1.400000,-1.440000,0.560046,0.080000,4660510.763571,-16983828489.202110,18507563842.311710,12109512144.035166,-0.328598,0.340081,0.228150
-1.320000,-1.440000,0.560006,0.080000,148274763.440154,2873652590.622922,-1936535548.644614,31058810193.523533,0.048845,-0.041782,0.585166
-1.240000,-1.440000,0.560138,0.080000,266743120.633234,38567194604.098953,-39984525394.508430,19665203407.628277,0.734639,-0.745321,0.370504
-1.160000,-1.440000,0.560052,0.080000,146766923.255970,50661074303.091728,-53856540820.660309,-28390594867.411320,0.972545,-0.996627,-0.534895
-1.080000,-1.440000,0.560004,0.080000,-277452752.539652,9732814272.418276,-11788929996.902016,-75093509428.543839,0.194993,-0.210489,-1.414805
-1.000000,-1.440000,0.560128,0.080000,-750948496.843237,-64839815525.030174,66437907433.456856,-67942326361.112213,-1.230652,1.242696,-1.280073
-0.920000,-1.440000,0.560059,0.080000,-819111632.000046,-112336682233.404160,117094699220.241806,7686038336.719313,-2.143381,2.179239,0.144809
-0.840000,-1.440000,0.560003,0.080000,-197368223.593245,-80837863028.975418,85368785302.909317,106230700851.341278,-1.548642,1.582788,2.001448
-0.760000,-1.440000,0.560118,0.080000,914170777.751084,25286752956.896496,-24620045513.886093,152393050054.397308,0.472649,-0.467624,2.871173
-0.680000,-1.440000,0.560066,0.080000,1859863391.930462,141740674788.011505,-145990112825.339111,98919383616.904892,2.694495,-2.726520,1.863699
-0.600000,-1.440000,0.560001,0.080000,1924133613.692588,187238684193.230408,-194026100384.270874,-34685211707.033890,3.566049,-3.617201,-0.653489
-0.520000,-1.440000,0.560108,0.080000,830997276.651896,120123158412.731293,-125222844070.382919,-170979291817.939209,2.292014,-2.330447,-3.221349
-0.440000,-1.440000,0.560074,0.080000,-1000287346.518268,-31265644851.792538,31183593663.478043,-223331972501.706543,-0.588599,0.587981,-4.207704
-0.360000,-1.440000,0.560000,0.080000,-2631051248.731692,-183547509315.620209,188844088208.450195,-151005128401.787476,-3.488079,3.527995,-2.845024
-0.280000,-1.440000,0.560099,0.080000,-3118966991.896106,-247518895186.393585,255376553156.917236,14220439315.340897,-4.707812,4.767029,0.267921
-0.200000,-1.440000,0.560082,0.080000,-2069925325.489675,-180825897680.966675,186890617878.488892,184849277569.471863,-3.441144,3.486849,3.482668
-0.120000,-1.440000,0.560000,0.080000,100039081.262190,-13416978928.415798,14264188026.298252,266768865004.183167,-0.257572,0.263957,5.026080
-0.040000,-1.440000,0.560090,0.080000,2350804483.854505,167917554204.682526,-172875227940.117371,212104431317.410583,3.191686,-3.229048,3.996170
0.040000,-1.440000,0.560090,0.080000,3556623399.092826,266682108858.090759,-274852392548.713043,46516456214.521400,5.070625,-5.132199,0.876397
0.120000,-1.440000,0.560000,0.080000,3104669292.470743,229494887321.957672,-236492007326.751465,-143797714370.788483,4.363366,-4.416098,-2.709232
0.200000,-1.440000,0.560082,0.080000,1225941891.497245,75864281194.164337,-77894109985.671783,-258464010292.377625,1.440800,-1.456097,-4.869612
0.280000,-1.440000,0.560099,0.080000,-1126072244.765320,-111665235921.399475,115683794709.848907,-237839000201.761749,-2.126551,2.156836,-4.481025
0.360000,-1.440000,0.560000,0.080000,-2787474827.172171,-232580081997.647705,240337421265.198730,-96408032873.411697,-4.425789,4.484251,-1.816383
0.440000,-1.440000,0.560074,0.080000,-3006933507.615644,-224671303270.824768,231707594876.215271,84850342591.854218,-4.272708,4.325735,1.598630
0.520000,-1.440000,0.560108,0.080000,-1830861379.596541,-99696642664.841507,101987126477.443039,204645579759.225311,-1.891289,1.908550,3.855641
0.600000,-1.440000,0.560001,0.080000,-30644510.924780,63800783904.351051,-67366576958.375046,200850408370.018036,1.222198,-1.249071,3.784138
0.680000,-1.440000,0.560066,0.080000,1382645706.154562,168694705140.575989,-175538110428.532257,87558824833.488266,3.216986,-3.268560,1.649659
0.760000,-1.440000,0.560118,0.080000,1757641903.163993,160309165863.073669,-165812590185.850433,-55428010878.912277,3.051424,-3.092899,-1.044296
0.840000,-1.440000,0.560003,0.080000,1140084986.761723,60289255288.438133,-60988669600.394760,-136738436712.493713,1.139838,-1.145109,-2.576231
0.920000,-1.440000,0.560059,0.080000,140955024.986771,-52136049250.538506,56042898710.555664,-115799070304.647812,-1.004356,1.033799,-2.181722
1.000000,-1.440000,0.560128,0.080000,-548477729.822488,-100421853246.483948,105342289186.608917,-27663808659.701679,-1.919817,1.956899,-0.521202
1.080000,-1.440000,0.560004,0.080000,-625516953.862371,-67068983438.454170,69106466084.075226,50625547027.845337,-1.275135,1.290490,0.953815
1.160000,-1.440000,0.560052,0.080000,-285652881.661288,593664680.135159,-2308590429.444645,65510511286.233849,0.020878,-0.033802,1.234256
1.240000,-1.440000,0.560138,0.080000,61693027.889966,40050760184.328888,-42987355852.211601,26689340952.006229,0.771178,-0.793309,0.502843
1.320000,-1.440000,0.560006,0.080000,171407991.313850,30614494305.735756,-31826048341.785442,-14681184285.456779,0.583643,-0.592773,-0.276602
1.400000,-1.440000,0.560046,0.080000,92064769.807179,1312732422.051299,-417700365.858222,-23045503122.789921,0.019674,-0.012929,-0.434191
1.480000,-1.440000,0.560149,0.080000,-2563561.137628,-12384469629.224619,13580478593.294567,-7206421697.796741,-0.240091,0.249104,-0.135773
1.560000,-1.440000,0.560009,0.080000,-25439844.930099,-6440838636.275794,6635179999.533640,5136376541.748171,-0.122448,0.123912,0.096772
1.640000,-1.440000,0.560040,0.080000,-6937257.946934,1392984414.314724,-1820102370.290565,4362528464.089272,0.028659,-0.031878,0.082193
1.720000,-1.440000,0.560161,0.080000,5714325.987721,2041096483.095790,-2266746134.302447,-9745228.703123,0.039731,-0.041431,-0.000184
1.800000,-1.440000,0.560012,0.080000,5753499.822475,168446905.284419,-85227695.893428,-923859523.472929,0.002703,-0.002076,-0.017406
1.880000,-1.440000,0.560035,0.080000,4036576.408283,-323795566.655914,392514681.882464,-145539891.255772,-0.006489,0.007007,-0.002742
1.960000,-1.440000,0.540056,0.080000,4327756.845042,-124628044.155687,121087800.911143,-112012405.732961,-0.002328,0.002301,-0.002110
2.040000,-1.440000,0.460065,0.080000,5093792.313082,982805622.845220,-962171448.242938,-724827477.151729,0.018400,-0.018244,-0.013656
2.120000,-1.440000,0.380079,0.080000,-2131635.792239,7079128192.796286,-7247186620.746165,2760052826.042174,0.134325,-0.135591,0.052001
-2.120000,-1.360000,0.380004,0.080000,3410581.962660,-10147518464.149218,10205533096.587320,-11522047681.422195,-0.191513,0.191950,-0.217082
-2.040000,-1.360000,0.460003,0.080000,6307127.903078,452934931.738560,-435634572.991169,-2559018952.596714,0.008436,-0.008305,-0.048213
-1.960000,-1.360000,0.540003,0.080000,10337763.721376,536611065.229142,-523422634.049282,-242003816.235698,0.010036,-0.009936,-0.004559
-1.880000,-1.360000,0.620003,0.080000,11297306.497848,51915543.158871,-8178449.306881,148189137.250706,0.000731,-0.000401,0.002792
-1.800000,-1.360000,0.640010,0.080000,11804079.402916,49233161.445505,-13344385.700040,305880831.971834,0.000725,-0.000454,0.005763
-1.720000,-1.360000,0.640141,0.080000,11802122.232284,562127097.897504,-595481592.327104,122307776.476798,0.010779,-0.011031,0.002304
-1.640000,-1.360000,0.640035,0.080000,8229856.085081,711221861.729588,-847634070.638114,-1098173899.207232,0.014171,-0.015199,-0.020690
-1.560000,-1.360000,0.640008,0.080000,851252.130299,-1202534791.075500,1134199077.837236,-2219297797.944596,-0.022270,0.021755,-0.041813
-1.480000,-1.360000,0.640131,0.080000,1832567.372318,-4378752362.687829,4633494337.753739,90038718.094461,-0.083938,0.085858,0.001696
-1.400000,-1.360000,0.640040,0.080000,29521576.118280,-3575393701.597902,4059137082.838024,6441294771.829135,-0.070097,0.073742,0.121358
-1.320000,-1.360000,0.640005,0.080000,77006586.013991,5190191781.189308,-5054323484.907469,10132385285.506323,0.097018,-0.095994,0.190900
-1.240000,-1.360000,0.640121,0.080000,90119207.734071,16262886807.256065,-16951874113.689247,2178835159.704349,0.310296,-0.315489,0.041051
-1.160000,-1.360000,0.640046,0.080000,3218600.346044,15940721378.636665,-17110230510.203350,-16534653901.470121,0.306943,-0.315756,-0.311522
-1.080000,-1.360000,0.640004,0.080000,-178438504.505168,-3698903804.905314,3128222977.488702,-30634829002.132050,-0.066464,0.062163,-0.577178
-1.000000,-1.360000,0.640112,0.080000,-332747800.604358,-32602841553.892422,33475925787.854408,-21867055308.193176,-0.619191,0.625771,-0.411988
-0.920000,-1.360000,0.640052,0.080000,-283615311.597685,-46824509557.891747,48838611523.549614,12402856404.117083,-0.893585,0.908764,0.233677
-0.840000,-1.360000,0.640002,0.080000,52948069.447067,-27633233941.906708,29398517863.493984,51950788260.099068,-0.530604,0.543907,0.978783
-0.760000,-1.360000,0.640103,0.080000,555614774.260755,20602806665.251244,-20540387066.087402,66164408399.205406,0.387816,-0.387346,1.246576
-0.680000,-1.360000,0.640058,0.080000,926013313.059298,69539351587.833649,-71559206517.017014,37120821561.659744,1.321578,-1.336800,0.699378
-0.600000,-1.360000,0.640001,0.080000,863545435.970836,84731938976.527725,-87770588376.031296,-24785653908.309254,1.613574,-1.636474,-0.466976
-0.520000,-1.360000,0.640095,0.080000,277105495.587245,49482093208.180069,-51681914104.090324,-84745104209.767303,0.944705,-0.961283,-1.596647
-0.440000,-1.360000,0.640065,0.080000,-612787696.047995,-22109129998.161102,22214013912.935982,-104591973744.096481,-0.417142,0.417932,-1.970573
-0.360000,-1.360000,0.640000,0.080000,-1361826020.526501,-91708804087.008270,94257625489.613113,-67057640044.167580,-1.742253,1.761462,-1.263405
-0.280000,-1.360000,0.640087,0.080000,-1539248155.979580,-118769593563.528397,122456222125.745300,12245941265.474779,-2.258525,2.286309,0.230721
-0.200000,-1.360000,0.640072,0.080000,-978677693.575592,-84487724668.316376,87296197695.620392,92389927850.298935,-1.607672,1.628837,1.740680
-0.120000,-1.360000,0.640000,0.080000,105765334.243385,-3551429403.571167,3895435376.989872,129674892878.559891,-0.068855,0.071448,2.443150
-0.040000,-1.360000,0.640079,0.080000,1210875727.255108,83019899074.686844,-85401243148.529022,102155401804.311600,1.577603,-1.595549,1.924667
0.040000,-1.360000,0.640079,0.080000,1798941102.679591,129903404118.376724,-133782683077.981979,22349124065.697746,2.469382,-2.498617,0.421070
0.120000,-1.360000,0.640000,0.080000,1578894916.947897,112197280836.675262,-115514890175.953659,-68957582175.081741,2.132614,-2.157616,-1.299201
0.200000,-1.360000,0.640072,0.080000,660700955.073990,39239023823.663239,-40227282310.246498,-124551021124.520950,0.744872,-0.752320,-2.346613
0.280000,-1.360000,0.640087,0.080000,-502669249.026595,-50250808281.496437,52083548698.182922,-116454578704.135132,-0.957113,0.970925,-2.194072
0.360000,-1.360000,0.640000,0.080000,-1355414769.402533,-109362704778.999649,112941869886.057770,-51242635692.187531,-2.080687,2.107660,-0.965441
0.440000,-1.360000,0.640065,0.080000,-1529735076.090445,-109001629177.540024,112287163329.264267,33863122932.947617,-2.072224,2.096985,0.638001
0.520000,-1.360000,0.640095,0.080000,-1026217472.019220,-53921988691.235802,55096658897.054466,92416338028.125824,-1.022561,1.031414,1.741177
0.600000,-1.360000,0.640001,0.080000,-184697598.944970,20932425530.462540,-22372196502.149204,95620237410.451828,0.402517,-0.413367,1.801541
0.680000,-1.360000,0.640058,0.080000,531520513.615072,72160918881.343781,-75108299977.084656,48529601510.240181,1.376213,-1.398425,0.914326
0.760000,-1.360000,0.640103,0.080000,803716446.368729,74582256164.607208,-77069383309.442657,-14888796511.715010,1.419231,-1.437974,-0.280514
0.840000,-1.360000,0.640002,0.080000,613640086.399863,35575222819.249687,-36120433380.117096,-55089824421.435738,0.673339,-0.677448,-1.037924
0.920000,-1.360000,0.640052,0.080000,199140524.409665,-12821537331.284243,14214042612.961489,-53038345400.720978,-0.249436,0.259930,-0.999273
1.000000,-1.360000,0.640112,0.080000,-141872280.102831,-38408797403.719040,40380376978.260429,-20482865219.297573,-0.734788,0.749646,-0.385909
1.080000,-1.360000,0.640004,0.080000,-249147730.583476,-31340670788.227402,32365861166.003105,12934743459.311193,-0.596271,0.603997,0.243698
1.160000,-1.360000,0.640046,0.080000,-161983045.381344,-7129442602.494766,6748799870.669996,24618253263.821198,-0.132171,0.129303,0.463822
1.240000,-1.360000,0.640121,0.080000,-26566680.363995,10888629514.759027,-11897569776.047693,14606488968.858437,0.210851,-0.218454,0.275195
1.320000,-1.360000,0.640005,0.080000,45525177.482364,12229116591.521814,-12822885825.812477,-592978524.902439,0.233760,-0.238235,-0.011172
1.400000,-1.360000,0.640040,0.080000,42781951.721817,3860272861.819020,-3741885786.161322,-6964794044.093859,0.072061,-0.071168,-0.131221
1.480000,-1.360000,0.640131,0.080000,14207537.396013,-2376986266.619178,2747795388.813077,-4155877905.064536,-0.046880,0.049674,-0.078299
1.560000,-1.360000,0.640008,0.080000,-1489671.557695,-2577998653.529343,2736256311.944127,125179027.292161,-0.049465,0.050658,0.002358
1.640000,-1.360000,0.640035,0.080000,-1340797.023399,-490122657.825786,422695048.106753,1265156341.762658,-0.008853,0.008345,0.023836
1.720000,-1.360000,0.640141,0.080000,2513868.651653,427676983.548381,-507895788.467973,450514478.683935,0.008511,-0.009116,0.008488
1.800000,-1.360000,0.640010,0.080000,3970191.205208,250192150.167730,-258184287.995512,-76408372.850774,0.004759,-0.004819,-0.001440
1.880000,-1.360000,0.620003,0.080000,3809897.823903,-49255081.591996,37712682.859038,69104302.380615,-0.000863,0.000776,0.001302
1.960000,-1.360000,0.540003,0.080000,4098847.869543,-723146534.131982,662554320.711960,212513589.002873,-0.013282,0.012825,0.004004
2.040000,-1.360000,0.460003,0.080000,9213143.554523,-2673033848.124640,2571238057.713045,-1896644445.959475,-0.049786,0.049019,-0.035734
2.120000,-1.360000,0.380004,0.080000,29093458.613796,107507785.412487,-2276843.768995,-19090203276.687523,0.001431,-0.000638,-0.359670
-2.120000,-1.280000,0.380169,0.080000,-45723260.019766,28722039113.347324,-28987968478.821033,-16525222520.857731,0.542643,-0.544647,-0.311345
-2.040000,-1.280000,0.460140,0.080000,7607886.985908,6698639147.874930,-6511654920.230185,1418093901.556831,0.125149,-0.123740,0.026718
-1.960000,-1.280000,0.540119,0.080000,13190245.102390,831032940.861735,-707663042.049023,1280165961.948344,0.014960,-0.014030,0.024119
-1.880000,-1.280000,0.620104,0.080000,12020869.209520,-110010228.240564,139987896.120113,378218954.309771,-0.002242,0.002468,0.007126
-1.800000,-1.280000,0.700092,0.080000,11207818.528887,-31646367.042165,29004009.104745,67421568.336004,-0.000581,0.000561,0.001270
-1.720000,-1.280000,0.720125,0.080000,10556853.351300,121659403.216718,-146050250.292027,-141871714.692526,0.002430,-0.002614,-0.002673
-1.640000,-1.280000,0.720031,0.080000,9224197.137656,-55688691.865033,20007321.555410,-456898649.526670,-0.000848,0.000579,-0.008608
-1.560000,-1.280000,0.720007,0.080000,8459378.393118,-778284075.336101,791377353.076456,-371309380.945216,-0.014737,0.014836,-0.006996
-1.480000,-1.280000,0.720116,0.080000,12669986.727301,-1325098930.924975,1438131051.277766,879151297.230772,-0.025605,0.026456,0.016564
-1.400000,-1.280000,0.720036,0.080000,24734002.529894,-80967992.698061,219086832.645387,2770094004.851887,-0.002306,0.003347,0.052190
-1.320000,-1.280000,0.720005,0.080000,36428068.295389,3411516687.061458,-3444958760.807541,2742997674.176632,0.064464,-0.064716,0.051680
-1.240000,-1.280000,0.720108,0.080000,26383489.055123,6357689198.815975,-6674310619.012285,-1565837538.861181,0.121572,-0.123958,-0.029501
-1.160000,-1.280000,0.720041,0.080000,-22475622.437247,4086879403.552690,-4504285131.491591,-8566308366.146634,0.079358,-0.082504,-0.161394
-1.080000,-1.280000,0.720003,0.080000,-94907601.024898,-5042410063.615194,4929071282.705131,-12022382682.231218,-0.094361,0.093507,-0.226509
-1.000000,-1.280000,0.720100,0.080000,-134296009.490510,-15957283797.521172,16419469561.456079,-5757004657.025901,-0.303257,0.306740,-0.108465
-0.920000,-1.280000,0.720046,0.080000,-74310833.817039,-19132330314.819775,19991231937.758530,9764952089.832590,-0.365319,0.371792,0.183977
-0.840000,-1.280000,0.720002,0.080000,102916165.381802,-8074248469.015234,8746232773.288691,25364666741.630348,-0.155922,0.160986,0.477885
-0.760000,-1.280000,0.720092,0.080000,327723285.438459,14015289536.779409,-14109254301.537226,28539192059.148373,0.264587,-0.265295,0.537695
-0.680000,-1.280000,0.720052,0.080000,463371710.289774,34386633008.254593,-35364353103.870918,12795973096.377182,0.653390,-0.660759,0.241084
-0.600000,-1.280000,0.720001,0.080000,384829413.396606,38419710395.279129,-39789741975.066689,-16178666371.137125,0.731593,-0.741918,-0.304815
-0.520000,-1.280000,0.720084,0.080000,68652467.872998,19701583743.015923,-20640541108.530102,-42494325607.854004,0.376496,-0.383573,-0.800618
-0.440000,-1.280000,0.720058,0.080000,-367961948.602787,-14518928770.845852,14650972090.014816,-49322389740.331581,-0.274291,0.275286,-0.929262
-0.360000,-1.280000,0.720000,0.080000,-712447028.709451,-46414157844.212868,47658089314.980728,-29561192082.874462,-0.881501,0.890875,-0.556950
-0.280000,-1.280000,0.720077,0.080000,-767353591.424583,-57529610608.985161,59271018536.618782,8910717997.447739,-1.093734,1.106858,0.167883
-0.200000,-1.280000,0.720064,0.080000,-464525918.741712,-39649932599.002571,40952665152.183662,46780784370.381042,-0.754391,0.764209,0.881377
-0.120000,-1.280000,0.720000,0.080000,84242645.422867,-120718374.565096,252108798.606564,63711215524.022392,-0.003017,0.004007,1.200356
-0.040000,-1.280000,0.720070,0.080000,632994601.917966,41548554611.686302,-42701060975.204956,49686300132.210472,0.789313,-0.797999,0.936119
0.040000,-1.280000,0.720070,0.080000,922749221.685559,63995052595.114693,-65848854591.976311,10872813555.359035,1.216182,-1.230153,0.204850
0.120000,-1.280000,0.720000,0.080000,814058256.251752,55553627068.305252,-57140466817.531029,-33353119483.606106,1.055632,-1.067590,-0.628392
0.200000,-1.280000,0.720064,0.080000,359350049.292336,20662440876.845478,-21155435569.950623,-60678222023.559868,0.392079,-0.395794,-1.143213
0.280000,-1.280000,0.720077,0.080000,-224631784.278550,-22487238468.444714,23317874357.703484,-57838020903.875496,-0.428368,0.434627,-1.089702
0.360000,-1.280000,0.720000,0.080000,-669676871.251735,-51869534246.596443,53529655030.999466,-27683851763.671940,-0.986635,0.999146,-0.521580
0.440000,-1.280000,0.720058,0.080000,-792729627.755357,-53649170925.391670,55204895347.514694,12696450648.911390,-1.019575,1.031299,0.239208
0.520000,-1.280000,0.720084,0.080000,-581784281.698584,-29494356302.206203,30114810401.471203,41839307240.800552,-0.559198,0.563874,0.788277
0.600000,-1.280000,0.720001,0.080000,-185810215.599428,5108840845.693723,-5667739106.466302,46088708799.693184,0.099413,-0.103625,0.868338
0.680000,-1.280000,0.720052,0.080000,180840204.012404,30567309800.912209,-31841019150.738651,26854194017.213158,0.583105,-0.592704,0.505949
0.760000,-1.280000,0.720092,0.080000,359551725.681878,34932021394.379974,-36077083442.381531,-1487030820.617731,0.664612,-0.673241,-0.028017
0.840000,-1.280000,0.720002,0.080000,321609281.383131,20220004425.753830,-20583640002.770374,-21576545583.743023,0.383012,-0.385752,-0.406515
0.920000,-1.280000,0.720046,0.080000,156421466.177255,-680373768.316219,1147990240.272250,-24163297444.255501,-0.015462,0.018986,-0.455251
1.000000,-1.280000,0.720100,0.080000,-7302404.457097,-13961576972.190065,14753067889.452944,-12678884987.306654,-0.267518,0.273483,-0.238878
1.080000,-1.280000,0.720003,0.080000,-86501384.184421,-14161412542.888102,14665940175.167959,1487104174.535491,-0.269661,0.273463,0.028018
1.160000,-1.280000,0.720041,0.080000,-78077946.164546,-5957502678.861393,5933416098.980343,8597203971.149517,-0.112107,0.111925,0.161976
1.240000,-1.280000,0.720108,0.080000,-31265407.406666,1908036067.207484,-2238938869.187602,7004677718.104662,0.037819,-0.040313,0.131972
1.320000,-1.280000,0.720005,0.080000,5416773.280603,4346187799.484802,-4611095320.714704,1790012698.087023,0.083382,-0.085378,0.033725
1.400000,-1.280000,0.720036,0.080000,15834026.574367,2459952118.586537,-2493332168.542706,-1577514279.464758,0.046536,-0.046787,-0.029721
1.480000,-1.280000,0.720116,0.080000,10587694.508229,63417308.812178,35563926.799707,-1717289672.674895,0.000635,0.000111,-0.032355
1.560000,-1.280000,0.720007,0.080000,4297935.086594,-737199928.323836,811432795.698807,-519455569.518377,-0.014309,0.014868,-0.009787
1.640000,-1.280000,0.720031,0.080000,2346452.781858,-401893643.389333,406895449.920959,184975855.378203,-0.007600,0.007638,0.003485
1.720000,-1.280000,0.720125,0.080000,2988945.453392,-4578498.214013,-11702058.004575,166335653.260432,0.000006,-0.000128,0.003134
1.800000,-1.280000,0.700092,0.080000,3741345.474353,176212180.763713,-170259505.247181,-13683266.211400,0.003286,-0.003241,-0.000258
1.880000,-1.280000,0.620104,0.080000,3346631.887234,392268755.049021,-366945087.584924,146906016.269834,0.007247,-0.007057,0.002768
1.960000,-1.280000,0.540119,0.080000,566496.009358,307487821.117986,-388351983.592205,1624907753.349614,0.006250,-0.006860,0.030614
2.040000,-1.280000,0.460140,0.080000,-2426465.747086,-4793734323.017713,4656649249.690993,6080483479.068961,-0.089542,0.088509,0.114560
2.120000,-1.280000,0.380169,0.080000,35627922.632927,-39895812577.243469,40184631062.342247,8989001724.613535,-0.753293,0.755469,0.169358
-2.120000,-1.200000,0.380106,0.080000,64390619.404811,26306002077.221848,-26450979052.053955,55091910164.648735,0.496440,-0.497532,1.037964
-2.040000,-1.200000,0.460087,0.080000,40231352.842718,-2030948216.160934,2047301767.512836,12464729016.489594,-0.038357,0.038480,0.234843
-1.960000,-1.200000,0.540074,0.080000,18605803.954384,-2452510842.518261,2448261434.259465,2046156112.161429,-0.046183,0.046151,0.038551
-1.880000,-1.200000,0.620065,0.080000,11614506.825951,-858457639.549289,775509160.745383,-89687949.238386,-0.015705,0.015080,-0.001690
-1.800000,-1.200000,0.700057,0.080000,10385662.237559,-158752551.171076,126171291.533363,-212841106.780101,-0.002807,0.002561,-0.004010
-1.720000,-1.200000,0.780051,0.080000,10349518.320251,6560696.910473,-21972154.899035,-159360155.411017,0.000211,-0.000327,-0.003002
-1.640000,-1.200000,0.800028,0.080000,10363234.438261,-98978002.857391,93310381.670142,-126750332.103779,-0.001833,0.001790,-0.002388
-1.560000,-1.200000,0.800006,0.080000,11054027.757813,-303312342.314331,320594914.147890,79410114.587537,-0.005812,0.005943,0.001496
-1.480000,-1.200000,0.800105,0.080000,13605747.890603,-241649410.096095,284876480.508696,582502783.760536,-0.004797,0.005123,0.010975
-1.400000,-1.200000,0.800032,0.080000,17456234.079069,504872051.799718,-474402909.773777,984647553.956472,0.009340,-0.009110,0.018551
-1.320000,-1.200000,0.800004,0.080000,17871421.816822,1736721451.735376,-1782755741.727344,393105775.349247,0.032981,-0.033328,0.007406
-1.240000,-1.200000,0.800097,0.080000,7413652.435098,2207751329.164122,-2345935422.212583,-1657452534.482996,0.042376,-0.043418,-0.031227
-1.160000,-1.200000,0.800037,0.080000,-16353075.165927,409669513.060509,-550221097.856777,-4081953268.522862,0.008513,-0.009572,-0.076906
-1.080000,-1.200000,0.800003,0.080000,-41871658.440623,-3680730814.037635,3689522275.493325,-4384848614.659011,-0.069397,0.069463,-0.082613
-1.000000,-1.200000,0.800090,0.080000,-43852038.504113,-7580490678.299463,7818218150.813156,-602043808.178812,-0.144165,0.145956,-0.011343
-0.920000,-1.200000,0.800041,0.080000,1267372.380400,-7509794244.293765,7875880271.766485,6364866431.945616,-0.143558,0.146317,0.119918
-0.840000,-1.200000,0.800002,0.080000,92236340.835602,-1381226248.982176,1626534098.877023,12306497857.714214,-0.027410,0.029258,0.231862
-0.760000,-1.200000,0.800083,0.080000,190548259.107251,8757245203.921423,-8861565287.183922,12121641983.681053,0.165581,-0.166367,0.228379
-0.680000,-1.200000,0.800046,0.080000,233426325.358674,17086763071.434702,-17566135158.076977,3634253270.235745,0.324634,-0.328247,0.068471
-0.600000,-1.200000,0.800001,0.080000,169828656.387898,17404553126.895359,-18025938566.865177,-10030780883.794399,0.331424,-0.336107,-0.188986
-0.520000,-1.200000,0.800076,0.080000,-1418158.901722,7401233162.908717,-7796541310.281783,-21522306207.650726,0.141678,-0.144657,-0.405493
-0.440000,-1.200000,0.800052,0.080000,-217651560.467404,-9121758104.253061,9229883180.069738,-23413030121.922176,-0.172470,0.173285,-0.441115
-0.360000,-1.200000,0.800000,0.080000,-376151716.020698,-23778348556.289955,24393615690.041679,-12893725299.297516,-0.451475,0.456112,-0.242925
-0.280000,-1.200000,0.800069,0.080000,-386164077.649308,-28148076652.246056,28977225620.059258,5977866915.605642,-0.535013,0.541261,0.112626
-0.200000,-1.200000,0.800057,0.080000,-221006629.849581,-18702312959.917885,19308546012.537865,24001184631.408585,-0.355789,0.360358,0.452196
-0.120000,-1.200000,0.800000,0.080000,60206253.127340,822718000.308053,-777584654.455968,31672284461.048092,0.015245,-0.014905,0.596724
-0.040000,-1.200000,0.800063,0.080000,335881853.357206,21074479777.938248,-21637452928.654751,24432421795.119671,0.400237,-0.404480,0.460321
0.040000,-1.200000,0.800063,0.080000,480058072.504249,31928159097.181969,-32821438092.646580,5351964211.116765,0.606594,-0.613326,0.100834
0.120000,-1.200000,0.800000,0.080000,425254315.850294,27885847036.741146,-28652701788.292732,-16308462091.156586,0.529720,-0.535499,-0.307261
0.200000,-1.200000,0.800057,0.080000,196584438.135085,11049772030.336266,-11301050052.646854,-29932739378.097984,0.209604,-0.211498,-0.563950
0.280000,-1.200000,0.800069,0.080000,-101293954.227290,-10000756958.951815,10375395934.771896,-29156135042.327755,-0.190538,0.193361,-0.549318
0.360000,-1.200000,0.800000,0.080000,-337416034.099893,-24842067880.949242,25617283200.297039,-15154355066.365194,-0.472421,0.478263,-0.285517
0.440000,-1.200000,0.800052,0.080000,-419205915.993254,-26785442035.698463,27532402289.028397,4220551825.748345,-0.508875,0.514504,0.079518
0.520000,-1.200000,0.800076,0.080000,-334058478.362352,-16265344316.565443,16599000320.413006,18959638663.586391,-0.308334,0.310849,0.357211
0.600000,-1.200000,0.800001,0.080000,-146816528.377905,-126054190.935449,-77942297.284957,22452196745.883595,-0.001222,-0.000315,0.423012
0.680000,-1.200000,0.800046,0.080000,42466886.278966,12694170196.491241,-13245234719.569979,14818608701.796469,0.242280,-0.246433,0.279191
0.760000,-1.200000,0.800083,0.080000,153833314.166577,16390425230.214827,-16924801249.872131,2103517061.828008,0.311825,-0.315853,0.039631
0.840000,-1.200000,0.800002,0.080000,163519025.137299,11183637875.631475,-11406540203.515070,-7980526906.085841,0.211966,-0.213646,-0.150358
0.920000,-1.200000,0.800041,0.080000,102954818.869307,2205617570.130339,-2067147976.314789,-10843836709.528141,0.040772,-0.039729,-0.204304
1.000000,-1.200000,0.800090,0.080000,27410859.521212,-4544642912.526046,4859054026.153015,-7172830776.898587,-0.087401,0.089770,-0.135140
1.080000,-1.200000,0.800003,0.080000,-20960322.331099,-6112878328.038273,6355115417.909472,-1293579168.241631,-0.116539,0.118365,-0.024372
1.160000,-1.200000,0.800037,0.080000,-31653355.988997,-3656896786.127794,3702921812.717880,2563153392.689302,-0.069158,0.069505,0.048291
1.240000,-1.200000,0.800097,0.080000,-19177473.921452,-408371112.229378,310904930.034834,3015617123.478767,-0.007143,0.006409,0.056816
1.320000,-1.200000,0.800004,0.080000,-3471117.188086,1260317727.886962,-1369602420.624609,1456789107.014996,0.024363,-0.025186,0.027447
1.400000,-1.200000,0.800032,0.080000,4814668.911838,1150586326.291089,-1190942108.762962,-40890839.542304,0.021906,-0.022210,-0.000770
1.480000,-1.200000,0.800105,0.080000,5942434.361510,386596069.448923,-368924517.000680,-529728888.072311,0.007184,-0.007051,-0.009980
1.560000,-1.200000,0.800006,0.080000,4472102.794612,-101155721.419720,127453135.614676,-320701086.714592,-0.002054,0.002253,-0.006042
1.640000,-1.200000,0.800028,0.080000,3504067.138988,-182517437.554471,190965685.987159,-48939521.518560,-0.003486,0.003550,-0.000922
1.720000,-1.200000,0.780051,0.080000,3664140.157736,-121591246.312194,120862389.906938,-14126433.480945,-0.002287,0.002281,-0.000266
1.800000,-1.200000,0.700057,0.080000,4583874.585083,2804985.157277,18766779.499521,-248966904.961730,-0.000069,0.000232,-0.004691
1.880000,-1.200000,0.620065,0.080000,5287445.551452,692281400.874106,-571688713.101423,-729524740.340052,0.012361,-0.011453,-0.013745
1.960000,-1.200000,0.540074,0.080000,758237.519728,3819212229.763988,-3624062646.088143,-309237540.508381,0.070853,-0.069382,-0.005826
2.040000,-1.200000,0.460087,0.080000,-29623853.977238,13158985732.678610,-12892216483.148237,8520037680.129806,0.246415,-0.244405,0.160522
2.120000,-1.200000,0.380106,0.080000,-143653900.242809,25903817375.179092,-26171869608.919052,70591930188.716614,0.489558,-0.491578,1.329993
-2.120000,-1.120000,0.380000,0.080000,264364266.643290,-91907334098.252289,92599661590.205688,45977334846.658943,-1.735501,1.740718,0.866240
-2.040000,-1.120000,0.460000,0.080000,49477879.530312,-25029503891.114933,24539436114.456467,-1348019877.359200,-0.468800,0.465107,-0.025397
-1.960000,-1.120000,0.540000,0.080000,8942558.716577,-5285262517.479094,4926910382.827151,-3703982187.469322,-0.097552,0.094851,-0.069785
-1.880000,-1.120000,0.620000,0.080000,6474884.365408,-554964079.476270,402820577.294894,-1668940211.098944,-0.009596,0.008449,-0.031444
-1.800000,-1.120000,0.700000,0.080000,8897335.057303,192488866.894948,-217581239.620252,-498621064.754277,0.003768,-0.003958,-0.009394
-1.720000,-1.120000,0.780000,0.080000,10368095.331861,142011823.017165,-141851110.933894,-98540478.429923,0.002675,-0.002673,-0.001857
-1.640000,-1.120000,0.860000,0.080000,10963568.272899,2492114.438019,2919598.508880,23393769.350754,0.000016,0.000024,0.000441
-1.560000,-1.120000,0.880006,0.080000,11521884.128609,-64623748.855656,76048078.215794,133216442.530142,-0.001282,0.001368,0.002510
-1.480000,-1.120000,0.880095,0.080000,12433004.986727,49137611.877917,-34785222.716798,272179489.550659,0.000845,-0.000736,0.005128
-1.400000,-1.120000,0.880029,0.080000,12945182.846622,389773350.463529,-388586597.306505,252949447.238962,0.007337,-0.007328,0.004766
-1.320000,-1.120000,0.880004,0.080000,10947241.701537,742843676.213857,-773194645.335479,-198918030.921762,0.014167,-0.014396,-0.003748
-1.240000,-1.120000,0.880088,0.080000,4365628.218437,595334555.549177,-652319823.196384,-1077755710.323548,0.011539,-0.011968,-0.020306
-1.160000,-1.120000,0.880033,0.080000,-5686801.079058,-483650619.381676,441977703.609056,-1791216387.040056,-0.008877,0.008563,-0.033748
-1.080000,-1.120000,0.880003,0.080000,-12384111.964148,-2232638118.028459,2262107552.157136,-1371045700.988658,-0.042231,0.042453,-0.025831
-1.000000,-1.120000,0.880081,0.080000,-4956271.277249,-3471729532.518669,3590901849.113223,723631965.451958,-0.066083,0.066981,0.013634
-0.920000,-1.120000,0.880038,0.080000,23980879.605211,-2724437141.575030,2879014154.993385,3794349189.224631,-0.052204,0.053369,0.071488
-0.840000,-1.120000,0.880002,0.080000,69421562.917269,575789727.103711,-493181500.920637,5907317489.783479,0.010381,-0.009759,0.111297
-0.760000,-1.120000,0.880075,0.080000,110671560.866233,5214826601.122314,-5293325645.645716,4999765610.617416,0.098694,-0.099286,0.094198
-0.680000,-1.120000,0.880042,0.080000,119010994.602118,8512100742.357256,-8749188109.325428,452252667.458050,0.161713,-0.163500,0.008521
-0.600000,-1.120000,0.880001,0.080000,74295361.697970,7846630364.689214,-8129682903.330298,-6026142064.794469,0.149435,-0.151568,-0.113536
-0.520000,-1.120000,0.880069,0.080000,-18936215.655959,2479452438.075694,-2642585856.762684,-10997038347.537260,0.047636,-0.048866,-0.207191
-0.440000,-1.120000,0.880047,0.080000,-127053077.618893,-5573353430.621501,5649467105.387925,-11181941152.790644,-0.105435,0.106009,-0.210674
-0.360000,-1.120000,0.880000,0.080000,-199954998.727809,-12323853268.475100,12632044970.219587,-5532468285.307641,-0.233930,0.236253,-0.104235
-0.280000,-1.120000,0.880063,0.080000,-195833502.330004,-13917314083.107407,14315640618.637770,3829947148.555038,-0.264462,0.267464,0.072158
-0.200000,-1.120000,0.880052,0.080000,-105032265.340253,-8868805259.320251,9152180415.667015,12477126908.896200,-0.168695,0.170831,0.235076
-0.120000,-1.120000,0.880000,0.080000,40827968.927853,893420711.198026,-881304338.415549,15943001457.559948,0.016764,-0.016673,0.300375
-0.040000,-1.120000,0.880057,0.080000,180896877.827449,10844261502.034689,-11122238953.412971,12155674554.926653,0.205883,-0.207978,0.229020
0.040000,-1.120000,0.880057,0.080000,253230108.626723,16150203749.138107,-16584954065.820009,2661067539.151799,0.306736,-0.310013,0.050136
0.120000,-1.120000,0.880000,0.080000,224810857.679907,14199814329.959938,-14574724173.652534,-8079782283.536906,0.269652,-0.272477,-0.152228
0.200000,-1.120000,0.880052,0.080000,107763049.598818,5988534939.899532,-6119018576.435157,-14973158800.525848,0.113565,-0.114548,-0.282103
0.280000,-1.120000,0.880063,0.080000,-46827964.625825,-4413560118.920918,4581826980.445887,-14925560722.521851,-0.084105,0.085373,-0.281206
0.360000,-1.120000,0.880000,0.080000,-174182656.497106,-12027087331.411289,12391947093.077604,-8389963778.653558,-0.228660,0.231409,-0.158072
0.440000,-1.120000,0.880047,0.080000,-226755632.342013,-13565957088.232729,13929518961.845951,1015939177.159014,-0.257645,0.260385,0.019141
0.520000,-1.120000,0.880069,0.080000,-194690283.758016,-9033177811.439173,9214533332.727459,8578023688.518058,-0.171215,0.172582,0.161615
0.600000,-1.120000,0.880001,0.080000,-105900107.032536,-1446021638.200661,1379747686.802551,11037813923.469873,-0.026869,0.026370,0.207959
0.680000,-1.120000,0.880042,0.080000,-7452457.866473,5076385842.323553,-5314225078.157498,8159044135.833693,0.096986,-0.098779,0.153721
0.760000,-1.120000,0.880075,0.080000,59940703.879835,7663319054.398101,-7914992236.020849,2457709218.970326,0.145804,-0.147701,0.046305
0.840000,-1.120000,0.880002,0.080000,79801674.383361,6057481807.148853,-6187271178.018753,-2606533264.514854,0.114860,-0.115838,-0.049109
0.920000,-1.120000,0.880038,0.080000,61667187.084937,2262882941.240519,-2234466311.243557,-4731885672.141586,0.042473,-0.042259,-0.089151
1.000000,-1.120000,0.880081,0.080000,28866799.598514,-1096179110.314179,1217679014.828612,-3824438523.341866,-0.021339,0.022255,-0.072055
1.080000,-1.120000,0.880003,0.080000,2343903.331069,-2460745345.956877,2573998761.035964,-1482151072.472078,-0.047002,0.047856,-0.027925
1.160000,-1.120000,0.880033,0.080000,-9105560.294490,-1948272835.795190,1991263976.356051,461006432.295342,-0.036950,0.037274,0.008686
1.240000,-1.120000,0.880088,0.080000,-8329187.702201,-709806598.504196,688328012.988852,1136646861.639681,-0.013252,0.013090,0.021415
1.320000,-1.120000,0.880004,0.080000,-2869530.548143,191576195.240844,-232703530.659302,815864223.294728,0.003842,-0.004152,0.015371
1.400000,-1.120000,0.880029,0.080000,1608655.204343,427926537.542977,-452324652.085038,243397680.996552,0.008200,-0.008384,0.004586
1.480000,-1.120000,0.880095,0.080000,3483355.311529,266330834.596908,-268427377.986695,-79900231.804152,0.005030,-0.005045,-0.001505
1.560000,-1.120000,0.880006,0.080000,3659707.205025,61901763.556386,-56096444.866604,-102418156.455744,0.001133,-0.001090,-0.001930
1.640000,-1.120000,0.860000,0.080000,3408753.197282,-63870538.788518,63085352.738107,3195628.137225,-0.001199,0.001193,0.000060
1.720000,-1.120000,0.780000,0.080000,3575469.746762,-213764182.664304,199685124.933620,62950776.139677,-0.003948,0.003842,0.001186
1.800000,-1.120000,0.700000,0.080000,5173209.745595,-549966737.687067,526673451.299031,-181527681.718330,-0.010230,0.010054,-0.003420
1.880000,-1.120000,0.620000,0.080000,10287727.436208,-909705358.225450,935983553.621429,-1587850235.698252,-0.017288,0.017486,-0.029916
1.960000,-1.120000,0.540000,0.080000,20374446.775992,1139552266.252081,-807417254.931751,-6995774771.999578,0.019593,-0.017089,-0.131804
2.040000,-1.120000,0.460000,0.080000,17900700.326283,19591333688.635418,-19106100760.552246,-20871790067.627316,0.366369,-0.362713,-0.393237
2.120000,-1.120000,0.380000,0.080000,-136246294.782068,116824052336.941849,-117655992698.239212,-43490313541.931427,2.205735,-2.212005,-0.819383
-2.120000,-1.040000,0.380136,0.080000,-44453139.648633,-86661130288.979858,87301978383.627701,-130229502356.664673,-1.636368,1.641198,-2.453599
-2.040000,-1.040000,0.460112,0.080000,-69321458.763151,-7031625931.593430,6671121500.594878,-38163806649.237579,-0.130442,0.127725,-0.719028
-1.960000,-1.040000,0.540095,0.080000,-25357303.810531,3579292952.300355,-3810249411.620242,-10250770991.165438,0.068741,-0.070482,-0.193130
-1.880000,-1.040000,0.620083,0.080000,-212237.495015,2518867391.552449,-2446576760.349639,-1837379473.019337,0.047048,-0.046504,-0.034617
-1.800000,-1.040000,0.700074,0.080000,9000480.787890,1039761247.083029,-981167411.788746,-37976277.598975,0.019259,-0.018817,-0.000715
-1.720000,-1.040000,0.780066,0.080000,11313860.000042,303563698.902390,-275788926.617997,199262297.064196,0.005562,-0.005353,0.003754
-1.640000,-1.040000,0.860060,0.080000,11526581.375604,35005819.873640,-22994717.151356,150610180.083854,0.000592,-0.000501,0.002838
-1.560000,-1.040000,0.940055,0.080000,11440070.558600,-11155171.991327,17960937.633746,115232466.463543,-0.000249,0.000300,0.002171
-1.480000,-1.040000,0.960087,0.080000,11382526.880372,65063447.300358,-61644118.530371,96882481.259968,0.001207,-0.001181,0.001825
-1.400000,-1.040000,0.960027,0.080000,10886310.329067,198154414.533779,-202736222.635266,943974.422335,0.003759,-0.003794,0.000018
-1.320000,-1.040000,0.960004,0.080000,9145483.957204,254054062.037261,-270418044.872307,-249623087.218288,0.004879,-0.005002,-0.004703
-1.240000,-1.040000,0.960081,0.080000,5872746.049042,41180580.511884,-63010697.903175,-580219735.907838,0.000899,-0.001064,-0.010932
-1.160000,-1.040000,0.960031,0.080000,2466764.371312,-525979022.708785,517383392.314197,-703468639.423463,-0.009861,0.009796,-0.013254
-1.080000,-1.040000,0.960002,0.080000,2482423.943109,-1224740952.555382,1249046280.939584,-264102763.550441,-0.023212,0.023395,-0.004976
-1.000000,-1.040000,0.960075,0.080000,10195766.819903,-1510670707.498955,1568980219.452043,831278514.512754,-0.028791,0.029231,0.015662
-0.920000,-1.040000,0.960035,0.080000,27229956.102004,-826508126.252901,890434300.475079,2144058941.035488,-0.015933,0.016415,0.040395
-0.840000,-1.040000,0.960001,0.080000,49168448.830102,910440972.916775,-887311734.293696,2790341978.401592,0.017023,-0.016848,0.052572
-0.760000,-1.040000,0.960069,0.080000,65137306.460535,3013962077.327907,-3065432883.812181,1952881084.739839,0.057076,-0.057464,0.036793
-0.680000,-1.040000,0.960039,0.080000,62122436.191627,4243312323.140059,-4361240545.033468,-469597146.066886,0.080613,-0.081502,-0.008847
-0.600000,-1.040000,0.960001,0.080000,32657263.412165,3501504103.767719,-3630727471.852502,-3549489451.242100,0.066701,-0.067675,-0.066874
-0.520000,-1.040000,0.960063,0.080000,-18440785.122376,613472944.813255,-678702283.504227,-5664476243.899899,0.011927,-0.012418,-0.106722
-0.440000,-1.040000,0.960043,0.080000,-73071712.648306,-3345069495.568144,3394711599.673653,-5369607673.543571,-0.063304,0.063678,-0.101167
-0.360000,-1.040000,0.960000,0.080000,-106590737.739835,-6458201177.091655,6614435337.866351,-2312370694.248883,-0.122559,0.123737,-0.043566
-0.280000,-1.040000,0.960058,0.080000,-99714350.380890,-6954912776.348245,7148124605.536908,2385711219.481821,-0.132127,0.133583,0.044948
-0.200000,-1.040000,0.960048,0.080000,-49486111.096761,-4227387369.446847,4360561650.535108,6570606999.626685,-0.080399,0.081403,0.123794
-0.120000,-1.040000,0.960000,0.080000,26997850.428333,716509308.066482,-715833600.739029,8129300488.892609,0.013496,-0.013491,0.153161
-0.040000,-1.040000,0.960053,0.080000,98891688.451525,5664521322.770736,-5803442720.216081,6120835893.102193,0.107508,-0.108555,0.115320
0.040000,-1.040000,0.960053,0.080000,135365945.327967,8288820200.214355,-8502833374.444068,1332763322.846525,0.157376,-0.158989,0.025110
0.120000,-1.040000,0.960000,0.080000,120075922.148167,7337544545.355489,-7523167243.665195,-4065410634.075387,0.139293,-0.140692,-0.076595
0.200000,-1.040000,0.960048,0.080000,58939565.393882,3283224275.080335,-3352081002.519002,-7605197321.304605,0.062247,-0.062766,-0.143286
0.280000,-1.040000,0.960058,0.080000,-22796285.827967,-1928311028.747450,2003561850.197328,-7762663489.449883,-0.036756,0.037323,-0.146253
0.360000,-1.040000,0.960000,0.080000,-92642997.613654,-5893032092.386384,6066268196.604548,-4693592826.724493,-0.112007,0.113313,-0.088430
0.440000,-1.040000,0.960043,0.080000,-125814702.871920,-6971443120.487295,7150761982.761047,-71440642.399603,-0.132360,0.133711,-0.001346
0.520000,-1.040000,0.960063,0.080000,-115445704.520886,-5052502099.564750,5151747785.195974,3859898851.521558,-0.095753,0.096501,0.072723
0.600000,-1.040000,0.960001,0.080000,-73335367.106903,-1461912309.529615,1446011757.080877,5468857006.643868,-0.027453,0.027334,0.103036
0.680000,-1.040000,0.960039,0.080000,-21770922.723797,1883988260.316953,-1985845861.193641,4488056672.685266,0.036071,-0.036839,0.084558
0.760000,-1.040000,0.960069,0.080000,18349882.761953,3546393168.269129,-3665554200.488689,1947839728.009028,0.067490,-0.068388,0.036698
0.840000,-1.040000,0.960001,0.080000,36489287.895568,3223965826.684580,-3297040514.679090,-589563696.651258,0.061154,-0.061705,-0.011108
0.920000,-1.040000,0.960035,0.080000,34430668.147767,1671643851.540681,-1675412757.275946,-1964122416.486039,0.031516,-0.031544,-0.037005
1.000000,-1.040000,0.960075,0.080000,21690954.354142,37903898.765347,6481255.404107,-1940564515.210731,0.000463,-0.000129,-0.036561
1.080000,-1.040000,0.960002,0.080000,8439100.771745,-872146293.537444,923475742.737229,-1076289937.460629,-0.016722,0.017109,-0.020278
1.160000,-1.040000,0.960031,0.080000,462788.694340,-933757466.965985,961779274.889011,-156866504.877305,-0.017751,0.017962,-0.002955
1.240000,-1.040000,0.960081,0.080000,-1700047.386081,-525301813.297064,525606563.608372,332851698.441725,-0.009899,0.009901,0.006271
1.320000,-1.040000,0.960004,0.080000,-498302.842814,-102227528.662034,88962958.756799,367660596.980464,-0.001851,0.001751,0.006927
1.400000,-1.040000,0.960027,0.080000,1437080.316724,109935976.788516,-121240445.875870,189765595.738587,0.002135,-0.002220,0.003575
1.480000,-1.040000,0.960087,0.080000,2733324.367347,138712040.991041,-142145294.967537,33048615.814062,0.002633,-0.002659,0.000623
1.560000,-1.040000,0.940055,0.080000,3161023.174562,105732560.907920,-104825016.124162,-2659179.502307,0.001987,-0.001980,-0.000050
1.640000,-1.040000,0.860060,0.080000,2912190.500511,67599598.955722,-71500128.185950,98216231.672797,0.001296,-0.001325,0.001850
1.720000,-1.040000,0.780066,0.080000,2272440.445980,-91641852.155248,64402929.332326,361694369.563709,-0.001573,0.001367,0.006815
1.800000,-1.040000,0.700074,0.080000,2426019.851438,-850411805.558926,751264031.986866,780840308.193543,-0.015462,0.014715,0.014711
1.880000,-1.040000,0.620083,0.080000,8696593.503486,-3575460575.800498,3279876198.243689,726523083.175097,-0.065693,0.063465,0.013688
1.960000,-1.040000,0.540095,0.080000,39629979.191094,-11729104024.708290,11454261178.567398,-4578349158.238357,-0.219430,0.217358,-0.086259
2.040000,-1.040000,0.460112,0.080000,147806652.490988,-30180752373.972965,29858255851.439613,-34132350673.677311,-0.566800,0.564370,-0.643073
2.120000,-1.040000,0.380136,0.080000,447313046.358533,-51708095182.527016,52098532295.030930,-180133160498.331451,-0.976417,0.979360,-3.393813
-2.120000,-0.960000,0.380136,0.080000,-748705766.580770,159811945889.151123,-160994895043.086700,-157520388844.518890,3.017636,-3.026551,-2.967775
-2.040000,-0.960000,0.460112,0.080000,-198092893.393732,57443898072.693573,-56721299200.875031,-23640333349.426609,1.078192,-1.072746,-0.445398
-1.960000,-0.960000,0.540095,0.080000,-32599809.624989,18334044444.386192,-17754809167.751060,194577535.280474,0.342150,-0.337785,0.003666
-1.880000,-0.960000,0.620083,0.080000,8781658.767106,4983845508.085129,-4544415793.502303,2683025986.568182,0.091415,-0.088103,0.050550
-1.800000,-0.960000,0.700074,0.080000,15137692.748874,1030059806.774993,-893527240.097250,1552390992.221914,0.018635,-0.017606,0.029248
-1.720000,-0.960000,0.780066,0.080000,13883532.159663,25516514.149833,11349900.090866,655755618.237113,0.000272,0.000005,0.012355
-1.640000,-0.960000,0.860060,0.080000,12171726.771131,-127107703.772901,134861937.896823,226146270.136531,-0.002439,0.002497,0.004261
-1.560000,-0.960000,0.940055,0.080000,11202402.040703,-74655544.708324,75347100.398278,64763177.592852,-0.001410,0.001416,0.001220
-1.480000,-0.960000,1.020050,0.080000,10699419.104627,9295892.415622,-10922578.323388,569458.687072,0.000184,-0.000197,0.000011
-1.400000,-0.960000,1.040025,0.080000,10144253.006030,68987560.580415,-73711492.604925,-69433381.408833,0.001326,-0.001362,-0.001308
-1.320000,-0.960000,1.040003,0.080000,9174136.761019,49872320.369656,-57931139.180072,-178212810.935661,0.000985,-0.001046,-0.003358
-1.240000,-0.960000,1.040075,0.080000,7931800.873774,-101606740.926203,94168713.696417,-272190668.103145,-0.001872,0.001816,-0.005128
-1.160000,-0.960000,1.040028,0.080000,7384371.036958,-372472143.333276,373483410.341446,-223236727.625275,-0.007023,0.007031,-0.004206
-1.080000,-0.960000,1.040002,0.080000,9216328.261074,-621181132.169646,636928672.681098,86931823.413473,-0.011792,0.011911,0.001638
-1.000000,-0.960000,1.040069,0.080000,14931501.418603,-604434381.918868,632266608.360207,633396969.080387,-0.011545,0.011755,0.011934
-0.920000,-0.960000,1.040032,0.080000,24349154.481554,-125613682.652893,151064590.531489,1166434065.290896,-0.002510,0.002702,0.021976
-0.840000,-0.960000,1.040001,0.080000,34417420.406732,770451468.814225,-767367616.934256,1286698188.784355,0.014498,-0.014475,0.024242
-0.760000,-0.960000,1.040064,0.080000,39534622.992945,1708269172.411941,-1739756323.878077,682870179.927947,0.032363,-0.032600,0.012866
-0.680000,-0.960000,1.040036,0.080000,33906312.472361,2113167863.172928,-2172031119.313620,-601097989.401035,0.040146,-0.040590,-0.011325
-0.600000,-0.960000,1.040001,0.080000,15106368.165074,1534178287.379415,-1593148351.026401,-2065640325.351984,0.029238,-0.029683,-0.038918
-0.520000,-0.960000,1.040058,0.080000,-13158063.945725,-23876640.486535,-831032.338791,-2940273249.336735,-0.000310,0.000124,-0.055396
-0.440000,-0.960000,1.040040,0.080000,-41120582.795105,-1985103058.896059,2016078925.732234,-2590876013.047102,-0.037576,0.037809,-0.048814
-0.360000,-0.960000,1.040000,0.080000,-56563581.866977,-3420231623.210825,3500340505.951480,-924899766.115402,-0.064892,0.065496,-0.017426
-0.280000,-0.960000,1.040053,0.080000,-50597434.395859,-3512719771.509306,3607395143.444133,1459577780.802548,-0.066717,0.067430,0.027499
-0.200000,-0.960000,1.040044,0.080000,-22717964.529517,-2024052613.318586,2087012897.891473,3503280643.734310,-0.038490,0.038965,0.066004
-0.120000,-0.960000,1.040000,0.080000,17737479.172302,512970117.294302,-515462640.436933,4198671314.027623,0.009679,-0.009698,0.079105
-0.040000,-0.960000,1.040049,0.080000,54924663.177145,3004509974.614832,-3074854650.018160,3118659922.300592,0.057004,-0.057534,0.058757
0.040000,-0.960000,1.040049,0.080000,73304933.866700,4318123240.293694,-4424809117.339947,669373562.061847,0.081959,-0.082763,0.012611
0.120000,-0.960000,1.040000,0.080000,64689314.502239,3847432502.070141,-3940582347.853275,-2082521670.301355,0.073014,-0.073716,-0.039236
0.200000,-0.960000,1.040044,0.080000,32009035.866779,1817884172.996070,-1854734960.796743,-3927214477.280752,0.034458,-0.034736,-0.073991
0.280000,-0.960000,1.040053,0.080000,-12084693.723045,-831537515.647302,865010286.217164,-4103504210.463162,-0.015856,0.016108,-0.077312
0.360000,-0.960000,1.040000,0.080000,-51057703.620301,-2926579671.056605,3009616128.779089,-2652582172.795815,-0.055608,0.056234,-0.049976
0.440000,-0.960000,1.040040,0.080000,-71799172.503088,-3637119779.639624,3726720125.910484,-352424742.423046,-0.069032,0.069707,-0.006640
0.520000,-0.960000,1.040058,0.080000,-69800746.342670,-2848640324.764548,2903230157.952479,1717109024.818170,-0.053979,0.054390,0.032351
0.600000,-0.960000,1.040001,0.080000,-49898008.166716,-1140497974.104122,1141079365.229239,2727710875.372107,-0.021491,0.021495,0.051392
0.680000,-0.960000,1.040036,0.080000,-22698458.623704,588065644.278203,-630994594.839222,2470078381.419218,0.011322,-0.011646,0.046538
0.760000,-0.960000,1.040064,0.080000,996044.214672,1608488199.357458,-1665008167.838395,1354742163.884288,0.030624,-0.031050,0.025524
0.840000,-0.960000,1.040001,0.080000,14735293.574037,1687771865.107728,-1727971158.327862,89552668.776517,0.032026,-0.032329,0.001687
0.920000,-0.960000,1.040032,0.080000,17912519.263394,1091355531.418227,-1101389972.791326,-740000065.237221,0.020618,-0.020694,-0.013942
1.000000,-0.960000,1.040069,0.080000,14163142.858204,318397400.717687,-304007030.139179,-933597501.626670,0.005917,-0.005809,-0.017590
1.080000,-0.960000,1.040002,0.080000,8288458.712009,-223286870.012185,245600269.481452,-663055593.840701,-0.004333,0.004501,-0.012492
1.160000,-0.960000,1.040028,0.080000,3709667.053378,-397551427.778726,413366906.137340,-257234195.147962,-0.007579,0.007699,-0.004846
1.240000,-0.960000,1.040075,0.080000,1582444.036571,-307597565.342038,312138868.474572,30539338.021124,-0.005821,0.005855,0.000575
1.320000,-0.960000,1.040003,0.080000,1398311.044047,-137482264.945769,134576014.467961,125295423.430678,-0.002574,0.002552,0.002361
1.400000,-0.960000,1.040025,0.080000,2111381.783836,-9825175.417167,6003111.282099,86892232.514489,-0.000164,0.000135,0.001637
1.480000,-0.960000,1.020050,0.080000,2908602.815432,59533568.201677,-59789704.978102,9691552.547415,0.001123,-0.001125,0.000183
1.560000,-0.960000,0.940055,0.080000,3325077.235991,127647397.564889,-122883037.058173,-34410891.339654,0.002378,-0.002342,-0.000648
1.640000,-0.960000,0.860060,0.080000,2899176.392774,268998122.676096,-260668820.891786,36046512.793331,0.005021,-0.004958,0.000679
1.720000,-0.960000,0.780066,0.080000,722105.427034,499201580.166292,-498563430.715296,443814559.541479,0.009402,-0.009397,0.008362
1.800000,-0.960000,0.700074,0.080000,-4567226.822330,502083902.652199,-565022439.309755,1827430220.517880,0.009815,-0.010290,0.034430
1.880000,-0.960000,0.620083,0.080000,-12358664.703883,-1516310670.675494,1157690739.788459,5740264889.091395,-0.026541,0.023839,0.108150
1.960000,-0.960000,0.540095,0.080000,-7046979.194504,-13569980564.560049,12689906167.834927,15271562544.057140,-0.250692,0.244060,0.287725
2.040000,-0.960000,0.460112,0.080000,96928458.880803,-65927833789.127426,64742021149.841805,30537074651.823818,-1.235416,1.226480,0.575336
2.120000,-0.960000,0.380136,0.080000,668863107.114438,-264617522365.308411,266591660412.697388,27738012868.349972,-4.996706,5.011583,0.522600
-2.120000,-0.880000,0.380000,0.080000,-522645822.794635,265098072832.834259,-267109052082.598572,148340166129.621979,5.005968,-5.021123,2.794815
-2.040000,-0.880000,0.460000,0.080000,-6679432.056067,62855453722.391624,-61614276643.077927,63237116696.723274,1.177218,-1.167864,1.191424
-1.960000,-0.880000,0.540000,0.080000,59632491.007377,10881655360.565208,-9966232464.675823,25080819092.891487,0.199843,-0.192944,0.472537
-1.880000,-0.880000,0.620000,0.080000,44203914.066712,-105986480.273811,439694437.814802,8491932204.395331,-0.003883,0.006398,0.159993
-1.800000,-0.880000,0.700000,0.080000,26149725.229656,-1351531730.994657,1393948619.214887,2589112093.726275,-0.025703,0.026023,0.048780
-1.720000,-0.880000,0.780000,0.080000,16145820.433960,-901711796.493839,889289671.641074,612868680.691601,-0.016919,0.016825,0.011547
-1.640000,-0.880000,0.860000,0.080000,11901028.123307,-429953651.803641,415761385.851643,45351680.075067,-0.008020,0.007913,0.000854
-1.560000,-0.880000,0.940000,0.080000,10474618.298966,-155490685.095942,146946827.475801,-71664933.052313,-0.002881,0.002817,-0.001350
-1.480000,-0.880000,1.020000,0.080000,10092337.883896,-24965463.861657,20014068.236584,-79076709.903860,-0.000442,0.000405,-0.001490
-1.400000,-0.880000,1.100000,0.080000,9900009.116115,16779450.619157,-20727611.055135,-85820949.407111,0.000338,-0.000368,-0.001617
-1.320000,-0.880000,1.120003,0.080000,9624226.118326,-10914322.809345,7205740.372813,-106774915.500010,-0.000185,0.000157,-0.002012
-1.240000,-0.880000,1.120069,0.080000,9440535.368758,-100839506.751705,98972140.133976,-106895159.842698,-0.001889,0.001875,-0.002014
-1.160000,-0.880000,1.120026,0.080000,9913711.411459,-220147744.576057,223033976.478437,-29462619.117034,-0.004164,0.004186,-0.000555
-1.080000,-0.880000,1.120002,0.080000,11779310.862486,-289094894.055978,298297422.407906,159282820.181099,-0.005499,0.005568,0.003001
-1.000000,-0.880000,1.120064,0.080000,15440837.348993,-203631464.757651,216562570.393202,418678102.500862,-0.003910,0.004007,0.007888
-0.920000,-0.880000,1.120030,0.080000,20328516.000567,95968887.557035,-86514430.349164,615039097.388467,0.001755,-0.001683,0.011588
-0.840000,-0.880000,1.120001,0.080000,24545049.717032,549307582.191154,-551830411.755083,571426643.580421,0.010364,-0.010383,0.010766
-0.760000,-0.880000,1.120059,0.080000,25260438.350453,955590166.837027,-974084917.960301,177880855.903755,0.018108,-0.018248,0.003351
-0.680000,-0.880000,1.120033,0.080000,19970298.664239,1049513035.099843,-1078947338.994306,-499760071.654851,0.019940,-0.020162,-0.009416
-0.600000,-0.880000,1.120001,0.080000,8139539.918629,651478432.404815,-678285343.939094,-1194309213.982819,0.012426,-0.012628,-0.022501
-0.520000,-0.880000,1.120054,0.080000,-7699733.264563,-191328100.153452,182904206.511138,-1538213025.795660,-0.003557,0.003494,-0.028981
-0.440000,-0.880000,1.120037,0.080000,-22263599.089646,-1169915773.761064,1188724270.842164,-1255557943.614420,-0.022148,0.022290,-0.023655
-0.360000,-0.880000,1.120000,0.080000,-29452484.313559,-1829572842.731226,1871099317.190241,-341638987.431624,-0.034705,0.035018,-0.006437
-0.280000,-0.880000,1.120050,0.080000,-25181041.125440,-1792685679.516702,1839565080.126316,882267136.075147,-0.034040,0.034394,0.016622
-0.200000,-0.880000,1.120041,0.080000,-9717637.186022,-972244722.520735,1002194392.316647,1889460798.773932,-0.018487,0.018713,0.035599
-0.120000,-0.880000,1.120000,0.080000,11788372.332691,347130407.287233,-349903890.455940,2195409213.634793,0.006556,-0.006577,0.041363
-0.040000,-0.880000,1.120045,0.080000,31089292.048254,1618047511.893561,-1654168966.484530,1606477494.561867,0.030689,-0.030961,0.030267
0.040000,-0.880000,1.120045,0.080000,40251359.804615,2283417587.772182,-2337325849.423220,334751092.860994,0.043326,-0.043732,0.006307
0.120000,-0.880000,1.120000,0.080000,35122958.757006,2046183253.428673,-2093589915.599928,-1088939003.995290,0.038819,-0.039176,-0.020516
0.200000,-0.880000,1.120041,0.080000,17183381.288842,1014718967.428552,-1034689744.465929,-2064303251.312230,0.019231,-0.019381,-0.038893
0.280000,-0.880000,1.120050,0.080000,-7130657.375039,-352963016.366186,367739607.349369,-2205731361.909995,-0.006734,0.006845,-0.041557
0.360000,-0.880000,1.120000,0.080000,-29274524.738623,-1476083457.530613,1516288218.278144,-1514713695.602453,-0.028038,0.028341,-0.028538
0.440000,-0.880000,1.120037,0.080000,-42212792.312662,-1928338001.586720,1973684711.145529,-354997901.896081,-0.036587,0.036929,-0.006688
0.520000,-0.880000,1.120054,0.080000,-43081716.439173,-1621252248.316791,1651422762.349318,747865103.502908,-0.030716,0.030943,0.014090
0.600000,-0.880000,1.120001,0.080000,-33755327.423223,-805737636.222678,810381483.884196,1368117507.827483,-0.015207,0.015242,0.025776
0.680000,-0.880000,1.120033,0.080000,-19299588.483720,93024023.301078,-110584717.448136,1362203878.009944,0.001852,-0.001984,0.025665
0.760000,-0.880000,1.120059,0.080000,-5333486.811646,703092965.512075,-729848837.487781,885961604.458806,0.013398,-0.013600,0.016692
0.840000,-0.880000,1.120001,0.080000,4293217.651389,867874050.940938,-889615067.331696,260063331.034578,0.016474,-0.016638,0.004900
0.920000,-0.880000,1.120030,0.080000,8495269.687854,667551805.442508,-676368005.301375,-220090394.286435,0.012627,-0.012693,-0.004147
1.000000,-0.880000,1.120064,0.080000,8476987.337659,315535805.313978,-312198687.654337,-417179915.757339,0.005926,-0.005901,-0.007860
1.080000,-0.880000,1.120002,0.080000,6418778.020754,14461465.549524,-5384590.667537,-368124091.340612,0.000221,-0.000153,-0.006936
1.160000,-0.880000,1.120026,0.080000,4213872.889090,-138188131.197760,146265561.728680,-205156546.861828,-0.002649,0.002710,-0.003865
1.240000,-0.880000,1.120069,0.080000,2845760.620735,-156526368.322293,160294755.711316,-54694646.481093,-0.002970,0.002999,-0.001030
1.320000,-0.880000,1.120003,0.080000,2457430.846649,-110054803.967834,110101446.998148,20265288.918096,-0.002074,0.002074,0.000382
1.400000,-0.880000,1.100000,0.080000,2772785.051836,-58835063.428154,57933537.451025,16371691.061886,-0.001103,0.001097,0.000308
1.480000,-0.880000,1.020000,0.080000,3468127.632483,-15671978.511873,17361480.726029,-47736618.431078,-0.000305,0.000318,-0.000899
1.560000,-0.880000,0.940000,0.080000,4249267.435489,70110652.193942,-60733629.965326,-160727632.779943,0.001268,-0.001197,-0.003028
1.640000,-0.880000,0.860000,0.080000,4516884.254333,344215173.877281,-316757888.770849,-300937090.726080,0.006330,-0.006123,-0.005670
1.720000,-0.880000,0.780000,0.080000,2402718.918072,1139140109.413572,-1071586882.636124,-304110570.004240,0.021080,-0.020571,-0.005730
1.800000,-0.880000,0.700000,0.080000,-7414870.754784,3141183800.240188,-2996155155.393120,612168056.762249,0.058362,-0.057269,0.011534
1.880000,-0.880000,0.620000,0.080000,-38118036.486311,7448806118.437203,-7205699001.161045,5444703365.441257,0.138966,-0.137134,0.102581
1.960000,-0.880000,0.540000,0.080000,-117317856.063696,14392009822.894924,-14569017461.162226,26158044463.153118,0.272154,-0.273488,0.492833
2.040000,-0.880000,0.460000,0.080000,-285504679.248202,14287296033.610443,-14608270914.395592,95800419659.400345,0.270995,-0.273414,1.804935
2.120000,-0.880000,0.380000,0.080000,-522023289.726715,-49621913398.271187,50041079740.145912,347073421960.389893,-0.937275,0.940434,6.539064
-2.120000,-0.800000,0.380106,0.080000,1112544383.562346,-69082002009.815720,69537836229.569534,382980907730.500671,-1.304121,1.307557,7.215582
-2.040000,-0.800000,0.460087,0.080000,494052869.099068,-51260751822.126228,51174600389.317612,105616807228.476242,-0.965295,0.964646,1.989882
-1.960000,-0.800000,0.540074,0.080000,198150760.549857,-26618893000.513729,26483151830.479301,28288092739.520267,-0.500748,0.499725,0.532964
-1.880000,-0.800000,0.620065,0.080000,74234712.781290,-11703991756.800518,11240497185.153927,5424139712.185400,-0.217890,0.214397,0.102194
-1.800000,-0.800000,0.700057,0.080000,27824766.526136,-4679664353.304910,4455569825.962366,249366696.301111,-0.086901,0.085212,0.004698
-1.720000,-0.800000,0.780051,0.080000,12744277.964216,-1679359040.300418,1582022677.809194,-608394837.293429,-0.031090,0.030356,-0.011463
-1.640000,-0.800000,0.860047,0.080000,9040442.220878,-508624986.890046,469525883.855022,-497187002.015801,-0.009362,0.009067,-0.009367
-1.560000,-0.800000,0.940043,0.080000,8852805.889394,-96699417.068658,82031917.308181,-285176237.403063,-0.001739,0.001628,-0.005373
-1.480000,-0.800000,1.020039,0.080000,9384751.636669,22310099.264949,-27693396.785589,-145998008.856548,0.000451,-0.000491,-0.002751
-1.400000,-0.800000,1.100036,0.080000,9811601.346815,31603866.784704,-33910177.068331,-79920692.794198,0.000608,-0.000626,-0.001506
-1.320000,-0.800000,1.180034,0.080000,10052015.890114,-4753462.738624,3626905.992147,-51883609.966127,-0.000083,0.000075,-0.000978
-1.240000,-0.800000,1.200065,0.080000,10330271.545626,-61523290.228425,61827340.583433,-22611151.719992,-0.001161,0.001163,-0.000426
-1.160000,-0.800000,1.200024,0.080000,11000796.332207,-112613082.282776,115263976.329445,39669207.013033,-0.002137,0.002157,0.000747
-1.080000,-0.800000,1.200002,0.080000,12376536.679236,-118455243.792907,123571478.651647,143335511.768396,-0.002261,0.002299,0.002701
-1.000000,-0.800000,1.200060,0.080000,14480098.876834,-38643144.751339,44469856.682896,257786927.414342,-0.000761,0.000805,0.004857
-0.920000,-0.800000,1.200028,0.080000,16796231.329872,137387786.058892,-134343527.410728,314692965.666975,0.002571,-0.002548,0.005929
-0.840000,-0.800000,1.200001,0.080000,18214725.647682,362045484.405910,-365306499.072237,237912036.021535,0.006840,-0.006864,0.004482
-0.760000,-0.800000,1.200055,0.080000,17335375.422727,529723093.956092,-540310362.804220,-5494138.238831,0.010040,-0.010120,-0.000104
-0.680000,-0.800000,1.200031,0.080000,13128972.650899,518845999.931720,-533571586.491453,-361868176.179763,0.009859,-0.009970,-0.006818
-0.600000,-0.800000,1.200001,0.080000,5690109.932771,261885223.017683,-273968959.568537,-689185437.858936,0.005002,-0.005093,-0.012985
-0.520000,-0.800000,1.200051,0.080000,-3352308.558347,-195341022.610552,193138934.760380,-811722395.449639,-0.003668,0.003651,-0.015293
-0.440000,-0.800000,1.200035,0.080000,-11131180.198712,-686723295.756605,697949020.119128,-611256752.511613,-0.013002,0.013086,-0.011516
-0.360000,-0.800000,1.200000,0.080000,-14582190.278594,-987936377.650011,1009689261.088235,-106566112.930221,-0.018736,0.018900,-0.002008
-0.280000,-0.800000,1.200046,0.080000,-11840788.144649,-923991179.434630,947450302.524505,528611296.560772,-0.017541,0.017718,0.009959
-0.200000,-0.800000,1.200038,0.080000,-3326540.720306,-467628772.454872,481960754.360569,1029460143.642906,-0.008891,0.008999,0.019396
-0.120000,-0.800000,1.200000,0.080000,8094530.079496,227593896.953817,-229828290.814498,1160848233.947294,0.004301,-0.004317,0.021871
-0.040000,-0.800000,1.200042,0.080000,18072364.798260,884278706.774660,-903099822.006191,835211254.954422,0.016767,-0.016909,0.015736
0.040000,-0.800000,1.200042,0.080000,22503695.528312,1225070141.918443,-1252701317.598153,164743619.289212,0.023237,-0.023445,0.003104
0.120000,-0.800000,1.200000,0.080000,19260321.885173,1102691940.458186,-1127169475.877596,-582903586.448360,0.020914,-0.021098,-0.010982
0.200000,-0.800000,1.200038,0.080000,9106540.632674,569762499.468810,-580709635.624076,-1105920226.621380,0.010797,-0.010879,-0.020836
0.280000,-0.800000,1.200046,0.080000,-4628093.115216,-147618266.744149,154067374.112139,-1206174831.650794,-0.002818,0.002866,-0.022725
0.360000,-0.800000,1.200000,0.080000,-17456721.986346,-758383588.190490,778058252.755226,-874351575.073039,-0.014400,0.014548,-0.016473
0.440000,-0.800000,1.200035,0.080000,-25549764.790802,-1040588165.107253,1063832416.812997,-281580005.928181,-0.019737,0.019912,-0.005305
0.520000,-0.800000,1.200051,0.080000,-27122441.639789,-933199488.569339,949960975.530350,313414996.511580,-0.017677,0.017803,0.005905
0.600000,-0.800000,1.200001,0.080000,-22823038.183764,-543232409.277165,547850793.299716,689267831.266096,-0.010261,0.010296,0.012986
0.680000,-0.800000,1.200031,0.080000,-15074443.988766,-73009883.786822,66220345.821937,753760482.134194,-0.001337,0.001286,0.014201
0.760000,-0.800000,1.200055,0.080000,-6817733.650978,286307324.584716,-298888265.995982,560720987.341498,0.005465,-0.005560,0.010564
0.840000,-0.800000,1.200001,0.080000,-318015.357387,436427192.663098,-448022701.738839,254778044.044718,0.008288,-0.008375,0.004800
0.920000,-0.800000,1.200028,0.080000,3457805.363061,391959977.349191,-398176290.640158,-15211435.989564,0.007420,-0.007467,-0.000287
1.000000,-0.800000,1.200060,0.080000,4761995.660276,241397317.384508,-241690859.247542,-163353550.390027,0.004550,-0.004552,-0.003078
1.080000,-0.800000,1.200002,0.080000,4522830.942669,83290756.274692,-80033671.458751,-184638612.997231,0.001551,-0.001526,-0.003479
1.160000,-0.800000,1.200024,0.080000,3731247.337002,-22485770.131194,26172332.584782,-128041443.716883,-0.000444,0.000472,-0.002412
1.240000,-0.800000,1.200065,0.080000,3061893.977872,-67701069.128915,69744121.600887,-53484967.604784,-0.001287,0.001302,-0.001008
1.320000,-0.800000,1.180034,0.080000,2813940.602305,-78732601.803110,78665528.458276,-2545914.867785,-0.001483,0.001482,-0.000048
1.400000,-0.800000,1.100036,0.080000,3070103.079966,-89597388.168779,88192747.886893,3610024.488260,-0.001680,0.001670,0.000068
1.480000,-0.800000,1.020039,0.080000,3906503.607464,-119412295.355851,118576093.621525,-57126309.383054,-0.002245,0.002239,-0.001076
1.560000,-0.800000,0.940043,0.080000,5506542.188208,-147272054.375146,151991124.371413,-243458761.297524,-0.002801,0.002837,-0.004587
1.640000,-0.800000,0.860047,0.080000,8003242.308926,-42713013.804071,68474253.788075,-696279993.166066,-0.000950,0.001144,-0.013118
1.720000,-0.800000,0.780051,0.080000,10565635.771812,661686013.613695,-566849696.145867,-1682178851.069486,0.011931,-0.011216,-0.031693
1.800000,-0.800000,0.700057,0.080000,8166841.578010,3464672025.722790,-3157052169.215913,-3533747197.538174,0.063538,-0.061219,-0.066578
1.880000,-0.800000,0.620065,0.080000,-18715731.896933,12939598522.265285,-11999154079.607220,-5971734136.838838,0.238474,-0.231387,-0.112511
1.960000,-0.800000,0.540074,0.080000,-135445453.015502,43407845112.425278,-42124236123.828346,-3790913285.283016,0.810574,-0.800900,-0.071423
2.040000,-0.800000,0.460087,0.080000,-546692812.449265,135328931106.317474,-133699821421.590408,26353994757.696903,2.540468,-2.528190,0.496525
2.120000,-0.800000,0.380106,0.080000,-1875669558.014576,403240070386.234253,-406230611546.926208,195502123185.642395,7.614180,-7.636717,3.683373
-2.120000,-0.720000,0.380169,0.080000,2260423926.492131,-475869876801.668152,479410821152.619446,104218636571.493683,-8.985678,9.012364,1.963540
-2.040000,-0.720000,0.460140,0.080000,672261742.165617,-161321542729.660034,159395577134.250092,-1567074202.666588,-3.028505,3.013991,-0.029525
-1.960000,-0.720000,0.540119,0.080000,176554520.267607,-52233333954.522537,50718660882.672943,-14085787840.281227,-0.975545,0.964130,-0.265384
-1.880000,-0.720000,0.620104,0.080000,34818957.779714,-15748719078.539360,14624288344.475348,-10024586816.409578,-0.290360,0.281886,-0.188869
-1.800000,-0.720000,0.700092,0.080000,2253140.986179,-4268362183.149539,3896570188.489866,-5302776784.754375,-0.078317,0.075515,-0.099907
-1.720000,-0.720000,0.780082,0.080000,-216475.756273,-813139395.280535,696289724.724719,-2474864108.854380,-0.014660,0.013779,-0.046628
-1.640000,-0.720000,0.860075,0.080000,3405604.376891,77480924.288276,-110514437.727096,-1052366825.229834,0.001646,-0.001895,-0.019827
-1.560000,-0.720000,0.940068,0.080000,6793302.047328,212263870.375745,-219452885.889222,-405273348.977417,0.004040,-0.004094,-0.007636
-1.480000,-0.720000,1.020063,0.080000,8886647.638333,161554849.416754,-161856398.739898,-136176843.714871,0.003045,-0.003048,-0.002566
-1.400000,-0.720000,1.100058,0.080000,9954439.005400,86585058.657050,-85662057.782889,-35564072.478907,0.001626,-0.001619,-0.000670
-1.320000,-0.720000,1.180055,0.080000,10464359.330045,22655122.866193,-21679470.260458,765502.789866,0.000421,-0.000414,0.000014
-1.240000,-0.720000,1.260051,0.080000,10823802.770427,-24903636.158171,26205878.089190,24822027.507495,-0.000477,0.000486,0.000468
-1.160000,-0.720000,1.280023,0.080000,11334880.715998,-49602815.502431,51692487.709233,60427457.616457,-0.000946,0.000962,0.001138
-1.080000,-0.720000,1.280002,0.080000,12150966.866033,-38468692.093356,41262069.838834,109408532.948299,-0.000741,0.000762,0.002061
-1.000000,-0.720000,1.280056,0.080000,13196613.367431,19577013.902378,-17055192.990924,152428833.632270,0.000355,-0.000336,0.002872
-0.920000,-0.720000,1.280026,0.080000,14101899.773217,119191957.038123,-118561339.195242,155409907.185026,0.002242,-0.002237,0.002928
-0.840000,-0.720000,1.280001,0.080000,14240519.094224,228181489.079626,-230826826.874977,86715860.088565,0.004314,-0.004334,0.001634
-0.760000,-0.720000,1.280052,0.080000,12934495.126695,291694075.968679,-297656954.651462,-59409604.388291,0.005529,-0.005574,-0.001119
-0.680000,-0.720000,1.280029,0.080000,9797233.103961,254745659.206755,-262110589.071363,-246239194.278582,0.004841,-0.004897,-0.004639
-0.600000,-0.720000,1.280001,0.080000,5073676.413176,94748772.363879,-100116872.687579,-398737641.364235,0.001815,-0.001856,-0.007512
-0.520000,-0.720000,1.280047,0.080000,-224079.593292,-154055855.119393,154011339.944226,-432939888.687810,-0.002902,0.002902,-0.008157
-0.440000,-0.720000,1.280032,0.080000,-4535548.844832,-402165898.986272,408793255.728779,-299533281.377675,-0.007614,0.007664,-0.005643
-0.360000,-0.720000,1.280000,0.080000,-6312827.375521,-538067107.261992,549576403.021503,-18934561.014335,-0.010203,0.010289,-0.000357
-0.280000,-0.720000,1.280043,0.080000,-4715452.261443,-480617524.592243,492479868.063443,314292250.332605,-0.009122,0.009212,0.005921
-0.200000,-0.720000,1.280036,0.080000,-113254.886680,-224581339.540053,231475852.735193,565516261.495118,-0.004270,0.004322,0.010655
-0.120000,-0.720000,1.280000,0.080000,5884904.043167,146399299.027580,-148000391.876104,619564410.315294,0.002767,-0.002779,0.011673
-0.040000,-0.720000,1.280040,0.080000,10955697.983112,489923643.379002,-499878814.163971,437051154.469688,0.009287,-0.009362,0.008234
0.040000,-0.720000,1.280040,0.080000,12950684.599020,666158790.702293,-680531826.949931,78117296.998712,0.012632,-0.012740,0.001472
0.120000,-0.720000,1.280000,0.080000,10768462.623023,601181020.384865,-614005454.465068,-320400106.312164,0.011399,-0.011496,-0.006037
0.200000,-0.720000,1.280036,0.080000,4815596.412814,320857993.528730,-326922404.964051,-604642589.370516,0.006079,-0.006125,-0.011392
0.280000,-0.720000,1.280043,0.080000,-3154406.851257,-61726752.514222,64492140.414615,-671357489.809571,-0.001179,0.001199,-0.012649
0.360000,-0.720000,1.280000,0.080000,-10745974.668619,-398677809.159441,408414584.467708,-510499141.368381,-0.007566,0.007640,-0.009618
0.440000,-0.720000,1.280032,0.080000,-15844421.714226,-572888117.574981,584957190.193337,-203104341.418497,-0.010862,0.010953,-0.003827
0.520000,-0.720000,1.280047,0.080000,-17348752.038205,-544613273.612538,553981972.307631,121961796.804990,-0.010314,0.010384,0.002298
0.600000,-0.720000,1.280001,0.080000,-15423682.210340,-358309969.931973,361873399.720879,348335555.354124,-0.006771,0.006798,0.006563
0.680000,-0.720000,1.280029,0.080000,-11226719.384091,-110723140.387692,108392940.555185,418904432.815284,-0.002073,0.002055,0.007892
0.760000,-0.720000,1.280052,0.080000,-6307116.589812,99352888.331927,-105185199.893147,348427881.961735,0.001905,-0.001949,0.006565
0.840000,-0.720000,1.280001,0.080000,-1988452.636897,212596057.571401,-218692780.151786,201480627.698785,0.004040,-0.004086,0.003796
0.920000,-0.720000,1.280026,0.080000,1006012.961897,223606320.518299,-227571832.605770,52960413.377572,0.004235,-0.004265,0.000998
1.000000,-0.720000,1.280056,0.080000,2593026.148875,167210280.084746,-168350020.413904,-45829054.317356,0.003157,-0.003165,-0.000863
1.080000,-0.720000,1.280002,0.080000,3116686.621157,90271217.811424,-89386809.588359,-80378030.869394,0.001696,-0.001689,-0.001514
1.160000,-0.720000,1.280023,0.080000,3057463.743483,26646583.357609,-25195977.998076,-64971508.856873,0.000494,-0.000483,-0.001224
1.240000,-0.720000,1.260051,0.080000,2819375.462716,-14097278.038788,14784905.490328,-24580657.903411,-0.000269,0.000275,-0.000463
1.320000,-0.720000,1.180055,0.080000,2667953.634629,-45009017.703753,43991972.641572,19623467.809852,-0.000842,0.000835,0.000370
1.400000,-0.720000,1.100058,0.080000,2811441.046734,-95685531.001882,92118648.001014,51907540.018430,-0.001783,0.001756,0.000978
1.480000,-0.720000,1.020063,0.080000,3589498.203179,-210453372.035665,203134352.751946,45604171.820779,-0.003924,0.003869,0.000859
1.560000,-0.720000,0.940068,0.080000,5758014.610935,-451595158.753345,439239336.415147,-82079198.076111,-0.008438,0.008345,-0.001546
1.640000,-0.720000,0.860075,0.080000,10883836.998197,-888316723.572353,873129649.954444,-580824520.857573,-0.016651,0.016536,-0.010943
1.720000,-0.720000,0.780082,0.080000,21750659.262889,-1490899304.727325,1494374508.318790,-2147286853.463961,-0.028109,0.028135,-0.040456
1.800000,-0.720000,0.700092,0.080000,41996675.955447,-1637409514.397844,1759587363.959779,-6641249785.830259,-0.031540,0.032461,-0.125125
1.880000,-0.720000,0.620104,0.080000,71467824.171014,1797449400.675016,-1167843801.008252,-18909508022.878441,0.030306,-0.025561,-0.356266
1.960000,-0.720000,0.540119,0.080000,83809766.987961,21891309847.422081,-20479815242.217632,-52980411152.305130,0.404467,-0.393830,-0.998182
2.040000,-0.720000,0.460140,0.080000,-62162701.784252,105079407282.475830,-103192811387.536819,-137007740438.802582,1.969094,-1.954876,-2.581305
2.120000,-0.720000,0.380169,0.080000,-947107734.863934,403180968809.035583,-406253852045.793213,-366333264174.586731,7.613532,-7.636690,-6.901931
-2.120000,-0.640000,0.380004,0.080000,707222794.084792,-358920448644.229797,361671197152.807983,-457075805577.477539,-6.777817,6.798547,-8.611573
-2.040000,-0.640000,0.460003,0.080000,-40343865.379469,-93482701038.725082,91724204483.038803,-170868412098.035675,-1.751329,1.738077,-3.219260
-1.960000,-0.640000,0.540003,0.080000,-131387318.907502,-17954499505.407269,16630394474.124996,-66430306254.014618,-0.330789,0.320810,-1.251585
-1.880000,-0.640000,0.620003,0.080000,-91025654.351448,65256295.154752,-656622574.361915,-24087827529.853024,0.004572,-0.009029,-0.453829
-1.800000,-0.640000,0.700002,0.080000,-45896067.634946,2694651662.747160,-2801885259.003080,-8702825705.313953,0.051375,-0.052183,-0.163966
-1.720000,-0.640000,0.780002,0.080000,-16889738.685371,2113698050.194060,-2108473269.053400,-2952271336.739226,0.039794,-0.039754,-0.055623
-1.640000,-0.640000,0.860002,0.080000,-1309050.850858,1249083122.190498,-1228376675.700109,-878037475.010571,0.023416,-0.023260,-0.016543
-1.560000,-0.640000,0.940002,0.080000,6186644.633794,650981693.199238,-635301546.756888,-178662838.865050,0.012176,-0.012058,-0.003366
-1.480000,-0.640000,1.020002,0.080000,9428185.391288,308314008.075770,-299080788.142732,25601545.892274,0.005757,-0.005687,0.000482
-1.400000,-0.640000,1.100001,0.080000,10640917.195443,126990880.042028,-122081688.565521,65210514.911120,0.002365,-0.002328,0.001229
-1.320000,-0.640000,1.180001,0.080000,11010316.549713,34493541.600038,-31870796.698853,61487521.228467,0.000635,-0.000615,0.001158
-1.240000,-0.640000,1.260001,0.080000,11142354.060493,-9691925.285123,11410226.984183,57185205.682911,-0.000192,0.000205,0.001077
-1.160000,-0.640000,1.340001,0.080000,11325633.034005,-22548657.964928,24094477.570811,64099086.204907,-0.000434,0.000445,0.001208
-1.080000,-0.640000,1.360002,0.080000,11643751.609091,-8237710.335822,9722101.536916,78632898.525264,-0.000164,0.000175,0.001481
-1.000000,-0.640000,1.360053,0.080000,12005633.088404,31310364.953925,-30315397.890152,87293433.966535,0.000584,-0.000577,0.001645
-0.920000,-0.640000,1.360024,0.080000,12161141.607352,87268511.967722,-87459405.980011,72297538.367400,0.001645,-0.001647,0.001362
-0.840000,-0.640000,1.360001,0.080000,11759233.757268,139437390.172263,-141303945.983629,20660781.894211,0.002638,-0.002652,0.000389
-0.760000,-0.640000,1.360049,0.080000,10476047.063559,159749003.966068,-163081304.598153,-65449379.623081,0.003029,-0.003054,-0.001233
-0.680000,-0.640000,1.360027,0.080000,8190373.133529,123954225.008265,-127638924.548944,-162991103.185011,0.002356,-0.002384,-0.003071
-0.600000,-0.640000,1.360001,0.080000,5133439.339942,26612423.067841,-28943518.958407,-232598708.396738,0.000515,-0.000532,-0.004382
-0.520000,-0.640000,1.360045,0.080000,1920157.046567,-109188868.041620,109734730.509327,-234318020.836768,-0.002060,0.002064,-0.004415
-0.440000,-0.640000,1.360030,0.080000,-597566.107532,-235069662.774399,238954996.770369,-148545467.770220,-0.004451,0.004480,-0.002799
-0.360000,-0.640000,1.360000,0.080000,-1634108.744332,-295187546.279252,301334463.994679,8596853.796744,-0.005596,0.005643,0.000162
-0.280000,-0.640000,1.360041,0.080000,-818286.956735,-251964659.913973,258023501.394721,185302491.963930,-0.004781,0.004827,0.003491
-0.200000,-0.640000,1.360034,0.080000,1573785.846201,-107234679.348595,110564476.155448,312369567.495864,-0.002039,0.002064,0.005885
-0.120000,-0.640000,1.360000,0.080000,4632192.770793,93019819.748997,-94103788.016131,332854379.592438,0.001759,-0.001767,0.006271
-0.040000,-0.640000,1.360037,0.080000,7101771.833262,274740744.796603,-280086924.320472,229224044.898331,0.005206,-0.005247,0.004319
0.040000,-0.640000,1.360037,0.080000,7845072.621053,366513411.220507,-374102694.062856,34155016.897760,0.006948,-0.007005,0.000644
0.120000,-0.640000,1.360000,0.080000,6288203.991783,330768292.745345,-337585792.419179,-181374620.847641,0.006270,-0.006322,-0.003417
0.200000,-0.640000,1.360034,0.080000,2655302.814336,180414316.565146,-183807046.142000,-337798549.369990,0.003418,-0.003444,-0.006364
0.280000,-0.640000,1.360041,0.080000,-2111911.498140,-27193256.060969,28346210.439039,-380549431.782708,-0.000519,0.000528,-0.007170
0.360000,-0.640000,1.360000,0.080000,-6712015.883230,-215831145.061685,220707420.526794,-301664606.574264,-0.004094,0.004131,-0.005684
0.440000,-0.640000,1.360030,0.080000,-9960051.344408,-322890818.513508,329240243.743077,-139781797.863314,-0.006119,0.006167,-0.002634
0.520000,-0.640000,1.360045,0.080000,-11179654.275844,-323314676.213279,328588655.122552,40136375.308017,-0.006121,0.006161,0.000756
0.600000,-0.640000,1.360001,0.080000,-10361645.500662,-234720073.831245,237210459.569786,176248782.428041,-0.004436,0.004455,0.003321
0.680000,-0.640000,1.360027,0.080000,-8056335.933485,-103497120.196043,102929676.070967,233910864.840247,-0.001947,0.001942,0.004407
0.760000,-0.640000,1.360049,0.080000,-5085239.817285,19081872.017920,-21711936.938842,214124486.819145,0.000374,-0.000394,0.004034
0.840000,-0.640000,1.360001,0.080000,-2220537.304436,98124746.072434,-101267981.942182,145164844.539092,0.001866,-0.001890,0.002735
0.920000,-0.640000,1.360024,0.080000,34938.763134,124535283.044233,-126896114.523045,64616697.431600,0.002360,-0.002377,0.001217
1.000000,-0.640000,1.360053,0.080000,1507474.195538,110951212.602849,-111973650.392843,2364054.532039,0.002096,-0.002104,0.000045
1.080000,-0.640000,1.360002,0.080000,2276047.379202,79486247.675474,-79371435.704999,-27722880.114796,0.001497,-0.001496,-0.000522
1.160000,-0.640000,1.340001,0.080000,2535346.813672,49007937.171250,-48420918.855257,-25866504.800360,0.000920,-0.000916,-0.000487
1.240000,-0.640000,1.260001,0.080000,2477822.740013,27072360.474084,-26858016.369717,1897326.564129,0.000509,-0.000507,0.000036
1.320000,-0.640000,1.180001,0.080000,2246519.113501,6245002.792510,-7463136.605789,52577861.673569,0.000125,-0.000134,0.000991
1.400000,-0.640000,1.100001,0.080000,1984266.478010,-40844942.173742,36310328.253677,130970271.920049,-0.000744,0.000710,0.002468
1.480000,-0.640000,1.020002,0.080000,2014539.984492,-178120796.603141,166011602.464026,245909037.599479,-0.003287,0.003196,0.004633
1.560000,-0.640000,0.940002,0.080000,3266370.949644,-551848952.920288,522180776.294353,386271014.652855,-0.010229,0.010006,0.007278
1.640000,-0.640000,0.860002,0.080000,8247923.378337,-1499208698.977315,1429162476.511998,434941905.937830,-0.027850,0.027322,0.008195
1.720000,-0.640000,0.780002,0.080000,23287144.632230,-3788178802.405722,3627433243.553524,-115820915.973316,-0.070463,0.069252,-0.002182
1.800000,-0.640000,0.700002,0.080000,63620327.307774,-9121384303.607208,8763986626.859783,-3074266728.773789,-0.169832,0.167139,-0.057921
1.880000,-0.640000,0.620003,0.080000,164628803.738521,-21124598632.320724,20363071304.337093,-14406929212.328968,-0.393695,0.387956,-0.271435
1.960000,-0.640000,0.540003,0.080000,405635427.673570,-47542774960.440536,47128190412.579185,-55786184404.723915,-0.893390,0.890266,-1.051044
2.040000,-0.640000,0.460003,0.080000,957261123.102856,-101206604233.131149,100756149960.137772,-182639593298.760406,-1.904245,1.900850,-3.441036
2.120000,-0.640000,0.380004,0.080000,2167149949.634649,-201689148938.022003,203096044170.544098,-606546002162.614136,-3.807893,3.818495,-11.427678
-2.120000,-0.560000,0.380079,0.080000,-2802708361.866274,280903321136.491394,-282884484583.437561,-614906907537.393921,5.303579,-5.318510,-11.585203
-2.040000,-0.560000,0.460065,0.080000,-1227366782.634039,132601683365.379028,-131895180962.892014,-193010681958.973694,2.494299,-2.488975,-3.636433
-1.960000,-0.560000,0.540056,0.080000,-519563414.882109,60555105883.275673,-59944992941.874664,-61313307952.023720,1.137445,-1.132847,-1.155178
-1.880000,-0.560000,0.620049,0.080000,-208545018.566105,26800922014.671928,-25838809598.496002,-16636946401.086754,0.499507,-0.492256,-0.313450
-1.800000,-0.560000,0.700043,0.080000,-75289076.758601,11738821666.437408,-11297359230.458691,-3820920157.165134,0.218671,-0.215344,-0.071988
-1.720000,-0.560000,0.780039,0.080000,-20042787.893470,5026321210.748388,-4828024419.820042,-279525173.075843,0.093578,-0.092084,-0.005266
-1.640000,-0.560000,0.860035,0.080000,1732074.073858,2089140688.797256,-2001599899.524031,466505050.329773,0.038866,-0.038206,0.008789
-1.560000,-0.560000,0.940032,0.080000,9557837.993613,828200383.190451,-790174286.482476,464174522.491043,0.015389,-0.015102,0.008745
-1.480000,-0.560000,1.020030,0.080000,11830476.870784,299164944.815201,-282934953.554010,322178072.229032,0.005545,-0.005422,0.006070
-1.400000,-0.560000,1.100027,0.080000,12080065.294979,84212051.406082,-77397196.414374,198207984.536356,0.001548,-0.001497,0.003734
-1.320000,-0.560000,1.180026,0.080000,11744931.111865,1954786.320567,944230.298216,118400049.730687,0.000020,0.000001,0.002231
-1.240000,-0.560000,1.260024,0.080000,11377773.939586,-23672348.911535,25076880.174315,75998177.840986,-0.000454,0.000465,0.001432
-1.160000,-0.560000,1.340022,0.080000,11152806.689493,-22318011.153282,23217693.492549,58467316.731047,-0.000426,0.000432,0.001102
-1.080000,-0.560000,1.420021,0.080000,11064936.216008,-4520196.951674,5167807.172995,52889920.345877,-0.000089,0.000094,0.000996
-1.000000,-0.560000,1.440050,0.080000,11001997.410029,24499769.545677,-24250423.456115,46558409.784889,0.000460,-0.000458,0.000877
-0.920000,-0.560000,1.440023,0.080000,10780729.347847,57566715.764517,-57997453.068251,28480415.746316,0.001087,-0.001090,0.000537
-0.840000,-0.560000,1.440001,0.080000,10193593.268193,83073496.561491,-84329865.636375,-7130636.425463,0.001572,-0.001582,-0.000134
-0.760000,-0.560000,1.440046,0.080000,9082288.658311,87195122.237145,-89063132.670767,-56987510.541255,0.001653,-0.001667,-0.001074
-0.680000,-0.560000,1.440026,0.080000,7424102.507367,59857371.229167,-61708052.204105,-107406842.501031,0.001138,-0.001152,-0.002024
-0.600000,-0.560000,1.440000,0.080000,5393902.994943,1602888.048726,-2582269.875360,-137898416.400952,0.000036,-0.000043,-0.002598
-0.520000,-0.560000,1.440042,0.080000,3359311.853725,-72746444.036384,73329209.191053,-129608933.648159,-0.001374,0.001378,-0.002442
-0.440000,-0.560000,1.440029,0.080000,1786812.836653,-136910428.692677,139177265.434603,-75435630.022746,-0.002592,0.002609,-0.001421
-0.360000,-0.560000,1.440000,0.080000,1076963.724696,-162713833.214682,166025004.442458,13310847.824985,-0.003084,0.003109,0.000251
-0.280000,-0.560000,1.440039,0.080000,1388642.177146,-132813551.921095,135937323.347411,108063299.521385,-0.002520,0.002543,0.002036
-0.200000,-0.560000,1.440032,0.080000,2531604.310674,-50543087.762613,52154451.839505,172869012.786093,-0.000961,0.000974,0.003257
-0.120000,-0.560000,1.440000,0.080000,3988383.454555,58595868.140588,-59307289.847149,179320553.616942,0.001108,-0.001113,0.003379
-0.040000,-0.560000,1.440035,0.080000,5074417.316446,155589898.621582,-158504268.770362,119763789.047181,0.002948,-0.002970,0.002256
0.040000,-0.560000,1.440035,0.080000,5182154.759178,203490393.563360,-207557782.054829,12202971.766338,0.003857,-0.003888,0.000230
0.120000,-0.560000,1.440000,0.080000,4011946.859637,182967619.301847,-186643750.177845,-105988643.012819,0.003468,-0.003496,-0.001997
0.200000,-0.560000,1.440032,0.080000,1692791.009061,100575974.316828,-102491551.911847,-193055955.415926,0.001906,-0.001920,-0.003637
0.280000,-0.560000,1.440039,0.080000,-1258567.193433,-14165017.643250,14623556.440152,-219760716.355596,-0.000269,0.000273,-0.004140
0.360000,-0.560000,1.440000,0.080000,-4122024.100382,-121399612.593605,123872485.697830,-180488821.219262,-0.002301,0.002320,-0.003401
0.440000,-0.560000,1.440029,0.080000,-6223355.265952,-187221380.331091,190606611.993417,-93800711.444353,-0.003546,0.003572,-0.001767
0.520000,-0.560000,1.440042,0.080000,-7146766.456909,-196126533.730385,199119169.109134,7134199.936801,-0.003712,0.003735,0.000134
0.600000,-0.560000,1.440000,0.080000,-6832905.651619,-154479323.676215,156136765.033024,89067284.633406,-0.002920,0.002932,0.001678
0.680000,-0.560000,1.440026,0.080000,-5540311.741722,-84525172.517849,84591695.975380,131195117.978305,-0.001593,0.001593,0.002472
0.760000,-0.560000,1.440046,0.080000,-3707166.504989,-12941027.439240,11816273.238188,130502558.978386,-0.000237,0.000229,0.002459
0.840000,-0.560000,1.440001,0.080000,-1784488.079892,40148399.711734,-41718868.138006,98877154.347332,0.000765,-0.000777,0.001863
0.920000,-0.560000,1.440023,0.080000,-109395.689671,67035474.085551,-68345312.687895,54994471.064379,0.001270,-0.001280,0.001036
1.000000,-0.560000,1.440050,0.080000,1144467.479466,71872730.454131,-72517935.571331,15857214.439682,0.001358,-0.001363,0.000299
1.080000,-0.560000,1.420021,0.080000,1942179.892021,65679995.561296,-65613481.112639,-7987014.976274,0.001237,-0.001237,-0.000150
1.160000,-0.560000,1.340022,0.080000,2319164.615152,60342572.622190,-59773861.729995,-12039475.463156,0.001134,-0.001129,-0.000227
1.240000,-0.560000,1.260024,0.080000,2306702.158236,64106344.570324,-63398761.689152,6966532.828820,0.001204,-0.001198,0.000131
1.320000,-0.560000,1.180026,0.080000,1880227.295904,78409438.838767,-78181979.432036,58937836.373066,0.001476,-0.001474,0.001110
1.400000,-0.560000,1.100027,0.080000,952104.876504,92039837.660020,-93792577.240922,171508672.758154,0.001744,-0.001757,0.003231
1.480000,-0.560000,1.020030,0.080000,-550085.653348,62179131.895575,-70176670.746938,407501811.942389,0.001217,-0.001277,0.007678
1.560000,-0.560000,0.940032,0.080000,-2389515.825763,-143425232.620004,116992293.943989,895074481.449839,-0.002553,0.002354,0.016864
1.640000,-0.560000,0.860035,0.080000,-3116681.620621,-911192639.123372,832110806.068367,1876592403.279742,-0.016720,0.016124,0.035356
1.720000,-0.560000,0.780039,0.080000,2562458.552796,-3340324826.639073,3113465161.388193,3764659419.635170,-0.061651,0.059942,0.070928
1.800000,-0.560000,0.700043,0.080000,31263507.087978,-10519184982.073235,9879772060.062822,7105539747.831696,-0.194573,0.189755,0.133872
1.880000,-0.560000,0.620049,0.080000,131933304.726772,-31114365401.121059,29318514427.440014,12004221207.599554,-0.576062,0.562528,0.226166
1.960000,-0.560000,0.540056,0.080000,444879434.044025,-90939030085.205231,88736212453.699600,14820738596.279982,-1.700893,1.684292,0.279231
2.040000,-0.560000,0.460065,0.080000,1369111848.342864,-260074894535.349335,257271999615.893097,-1448038347.094539,-4.884119,4.862996,-0.027282
2.120000,-0.560000,0.380079,0.080000,4044710297.056339,-730112258036.457031,735509539586.521851,-109531131597.310287,-13.786245,13.826920,-2.063630
-2.120000,-0.480000,0.380207,0.080000,-4616913673.709991,771362021710.241577,-777040408032.777466,-73438905554.226776,14.565003,-14.607797,-1.383632
-2.040000,-0.480000,0.460171,0.080000,-1626697662.926823,285373248854.000366,-282479235768.210083,10530543992.405378,5.360240,-5.338430,0.198402
-1.960000,-0.480000,0.540146,0.080000,-549423330.974928,103728165790.020706,-101439001515.157562,19863715408.217400,1.941360,-1.924108,0.374244
-1.880000,-0.480000,0.620127,0.080000,-166430939.920565,37068937016.241905,-35074029918.827553,14478847889.149466,0.687125,-0.672091,0.272790
-1.800000,-0.480000,0.700112,0.080000,-35011858.749328,13225397802.324051,-12491096391.344872,8500507741.846689,0.245024,-0.239490,0.160154
-1.720000,-0.480000,0.780101,0.080000,6518400.224211,4540984450.492180,-4270410953.894697,4585264678.182091,0.084025,-0.081986,0.086389
-1.640000,-0.480000,0.860091,0.080000,17059109.428044,1427651473.156526,-1328702285.794257,2364811212.944200,0.026339,-0.025593,0.044554
-1.560000,-0.480000,0.940084,0.080000,17757986.823067,352693804.071874,-317266115.099065,1186523941.511853,0.006445,-0.006178,0.022355
-1.480000,-0.480000,1.020077,0.080000,15946069.564348,11348120.336230,776441.640965,583750291.932495,0.000145,-0.000054,0.010998
-1.400000,-0.480000,1.100071,0.080000,13973634.018101,-75506306.074523,79298365.605202,283154118.603510,-0.001444,0.001473,0.005335
-1.320000,-0.480000,1.180067,0.080000,12456125.677039,-80254624.236538,81252548.409792,137416878.503768,-0.001518,0.001525,0.002589
-1.240000,-0.480000,1.260062,0.080000,11444260.111997,-61774067.381682,61975800.923050,69965791.527318,-0.001165,0.001167,0.001318
-1.160000,-0.480000,1.340059,0.080000,10825859.212260,-37801496.374961,37851167.671981,40872023.270798,-0.000712,0.000713,0.000770
-1.080000,-0.480000,1.420055,0.080000,10448892.717396,-12476349.577391,12475174.550837,28118575.481642,-0.000235,0.000235,0.000530
-1.000000,-0.480000,1.500052,0.080000,10151749.450890,12767754.545008,-12934920.168623,18419717.111071,0.000241,-0.000243,0.000347
-0.920000,-0.480000,1.520022,0.080000,9773906.164505,34939820.691361,-35423764.948646,3782009.881628,0.000661,-0.000665,0.000071
-0.840000,-0.480000,1.520001,0.080000,9175360.780874,48687281.786224,-49535584.254602,-18793914.209209,0.000922,-0.000928,-0.000354
-0.760000,-0.480000,1.520043,0.080000,8270303.217265,47962976.039847,-49028583.461494,-46676327.328046,0.000910,-0.000918,-0.000879
-0.680000,-0.480000,1.520024,0.080000,7064664.695592,29253638.860802,-30194426.015741,-71965541.250575,0.000556,-0.000564,-0.001356
-0.600000,-0.480000,1.520000,0.080000,5677436.898445,-5193429.538632,4800132.922643,-84037101.337406,-0.000096,0.000093,-0.001583
-0.520000,-0.480000,1.520040,0.080000,4325803.894266,-46071594.410209,46532491.815387,-74088738.267052,-0.000871,0.000874,-0.001396
-0.440000,-0.480000,1.520027,0.080000,3266270.371040,-78999970.993670,80317219.430505,-40042322.567365,-0.001496,0.001506,-0.000754
-0.360000,-0.480000,1.520000,0.080000,2704446.604333,-89641989.898694,91438954.813342,10629849.033339,-0.001699,0.001713,0.000200
-0.280000,-0.480000,1.520037,0.080000,2705564.988939,-70036930.047355,71661217.442818,62077063.397244,-0.001329,0.001341,0.001170
-0.200000,-0.480000,1.520030,0.080000,3145186.433059,-23184795.066588,23964273.494715,95432315.920043,-0.000441,0.000447,0.001798
-0.120000,-0.480000,1.520000,0.080000,3728520.785034,36659662.355551,-37117736.093539,96412057.737868,0.000693,-0.000697,0.001816
-0.040000,-0.480000,1.520033,0.080000,4079983.090826,88690032.526786,-90301322.780322,61801031.306183,0.001680,-0.001692,0.001164
0.040000,-0.480000,1.520033,0.080000,3873493.669968,113544910.516872,-115756112.781514,1670185.613987,0.002152,-0.002168,0.000031
0.120000,-0.480000,1.520000,0.080000,2953578.038272,101158243.413546,-103167503.256835,-63990222.536446,0.001917,-0.001932,-0.001206
0.200000,-0.480000,1.520030,0.080000,1398298.602354,54919026.947630,-56009867.975000,-112935256.375030,0.001041,-0.001049,-0.002128
0.280000,-0.480000,1.520037,0.080000,-501922.589049,-9754251.364907,9921066.762233,-129284636.397562,-0.000185,0.000186,-0.002436
0.360000,-0.480000,1.520000,0.080000,-2340718.943385,-71723698.760377,72993717.458525,-109311727.978423,-0.001358,0.001368,-0.002059
0.440000,-0.480000,1.520027,0.080000,-3728100.614743,-112400282.697205,114228672.093309,-62013652.391967,-0.002128,0.002142,-0.001168
0.520000,-0.480000,1.520040,0.080000,-4407084.076920,-122299689.321929,124011087.509229,-4569409.872868,-0.002314,0.002327,-0.000086
0.600000,-0.480000,1.520000,0.080000,-4313611.461291,-103263582.671241,104335983.636134,44906598.042409,-0.001952,0.001960,0.000846
0.680000,-0.480000,1.520024,0.080000,-3565686.561670,-65930078.778414,66173012.236747,73938708.729142,-0.001244,0.001245,0.001393
0.760000,-0.480000,1.520043,0.080000,-2397280.552312,-24203131.480774,23767852.429282,78948969.269112,-0.000454,0.000450,0.001487
0.840000,-0.480000,1.520001,0.080000,-1071394.686553,10481925.920829,-11232363.704025,64451248.021320,0.000202,-0.000207,0.001214
0.920000,-0.480000,1.520022,0.080000,191858.588103,32752669.602212,-33422848.482796,39393960.420636,0.000621,-0.000626,0.000742
1.000000,-0.480000,1.500052,0.080000,1249445.823138,43912803.485995,-44206594.506361,12923511.372895,0.000829,-0.000831,0.000243
1.080000,-0.480000,1.420055,0.080000,2027658.746898,50356480.018258,-50106014.514926,-8324929.828548,0.000947,-0.000945,-0.000157
1.160000,-0.480000,1.340059,0.080000,2481948.258617,61488701.363152,-60584367.878335,-20237552.001424,0.001153,-0.001147,-0.000381
1.240000,-0.480000,1.260062,0.080000,2537070.480313,88794993.558238,-87062643.833576,-18134148.812317,0.001663,-0.001650,-0.000342
1.320000,-0.480000,1.180067,0.080000,2013213.130804,146886794.123072,-143981090.235641,10218355.505861,0.002751,-0.002729,0.000193
1.400000,-0.480000,1.100071,0.080000,531606.403151,255995735.465475,-251431602.162758,98942699.719305,0.004797,-0.004763,0.001864
1.480000,-0.480000,1.020077,0.080000,-2615203.040600,442662465.604031,-436342428.800376,336046122.972742,0.008304,-0.008257,0.006331
1.560000,-0.480000,0.940084,0.080000,-8628850.717050,727190575.790129,-721628960.444297,939609860.600985,0.013669,-0.013627,0.017703
1.640000,-0.480000,0.860091,0.080000,-19312829.063477,1059531715.328728,-1067686107.056661,2444297850.246522,0.020008,-0.020070,0.046052
1.720000,-0.480000,0.780101,0.080000,-36668727.340055,1078874256.859919,-1149910817.391347,6164410456.221863,0.020728,-0.021263,0.116141
1.800000,-0.480000,0.700112,0.080000,-60305346.174940,-698084880.818590,396895966.704597,15360205188.853136,-0.011450,0.009180,0.289395
1.880000,-0.480000,0.620127,0.080000,-77039598.393003,-9488172986.187862,8416140978.373595,38233212656.020966,-0.172703,0.164624,0.720336
1.960000,-0.480000,0.540146,0.080000,-24671412.472050,-43251743809.898582,41506840870.546799,98532619138.177994,-0.805025,0.791875,1.856412
2.040000,-0.480000,0.460171,0.080000,326377351.727772,-156204860023.723114,153939774457.464691,244892301878.793121,-2.930187,2.913117,4.613913
2.120000,-0.480000,0.380207,0.080000,1746543844.168697,-503424969869.952820,507227876332.753845,646576849948.692505,-9.506313,9.534973,12.181883
-2.120000,-0.400000,0.380012,0.080000,-1983812675.466619,518948238056.197632,-522851447576.554626,680874071000.207520,9.799347,-9.828763,12.828062
-2.040000,-0.400000,0.460010,0.080000,-415948002.296158,168406935799.852386,-166130491373.462341,266857580368.320648,3.160017,-3.142862,5.027752
-1.960000,-0.400000,0.540008,0.080000,6240637.566533,49773796808.579659,-48003953853.438316,110602202245.517899,0.927764,-0.914426,2.083810
-1.880000,-0.400000,0.620007,0.080000,87689840.154898,12424335361.417694,-11242978133.387262,44344425178.465294,0.227404,-0.218501,0.835475
-1.800000,-0.400000,0.700006,0.080000,80638904.863560,1888773975.064570,-1533081975.367820,18462109691.381451,0.033575,-0.030895,0.347837
-1.720000,-0.400000,0.780006,0.080000,58731751.785222,-661645073.380817,757299850.243676,7747316250.821532,-0.013006,0.013727,0.145964
-1.640000,-0.400000,0.860005,0.080000,40277229.671181,-956981870.294008,975585059.975435,3260813951.454073,-0.018135,0.018275,0.061436
-1.560000,-0.400000,0.940005,0.080000,27769445.075091,-739359543.780766,738000205.887823,1366535530.014292,-0.013922,0.013912,0.025746
-1.480000,-0.400000,1.020004,0.080000,19981596.366511,-487440815.732411,482733119.964534,563545389.803126,-0.009157,0.009122,0.010618
-1.400000,-0.400000,1.100004,0.080000,15336110.001261,-301240231.098792,297308074.069864,224403393.896120,-0.005653,0.005624,0.004228
-1.320000,-0.400000,1.180004,0.080000,12641019.057301,-179883136.528996,177291801.550902,83836480.645318,-0.003374,0.003355,0.001580
-1.240000,-0.400000,1.260004,0.080000,11112752.777539,-103488182.990494,101957006.615723,28307698.594151,-0.001941,0.001930,0.000533
-1.160000,-0.400000,1.340003,0.080000,10256239.325717,-54341741.520461,53486493.731204,8237864.070204,-0.001019,0.001013,0.000155
-1.080000,-0.400000,1.420003,0.080000,9752861.593803,-20698246.906893,20191170.494377,1088642.673525,-0.000387,0.000383,0.000021
-1.000000,-0.400000,1.500003,0.080000,9385147.097823,3644763.253200,-4054029.807397,-3973073.799104,0.000071,-0.000074,-0.000075
-0.920000,-0.400000,1.580003,0.080000,8996656.168153,20574159.306650,-21046986.004178,-12008265.508718,0.000390,-0.000394,-0.000226
-0.840000,-0.400000,1.600001,0.080000,8479379.504760,29192734.630580,-29779077.811379,-24204915.079001,0.000553,-0.000558,-0.000456
-0.760000,-0.400000,1.600041,0.080000,7778810.972277,27732319.112237,-28357648.005423,-38440384.056611,0.000526,-0.000531,-0.000724
-0.680000,-0.400000,1.600023,0.080000,6904515.121840,15663585.409967,-16152620.951698,-50031191.491918,0.000298,-0.000302,-0.000943
-0.600000,-0.400000,1.600000,0.080000,5932907.963025,-4616063.743699,4467427.987822,-53376622.115320,-0.000086,0.000085,-0.001006
-0.520000,-0.400000,1.600038,0.080000,4991737.290423,-27314290.289843,27636791.824419,-44378822.360078,-0.000516,0.000519,-0.000836
-0.440000,-0.400000,1.600026,0.080000,4223448.211018,-44489106.747017,45251251.664172,-22799423.594371,-0.000843,0.000848,-0.000430
-0.360000,-0.400000,1.600000,0.080000,3735324.702369,-48773204.863348,49754359.620565,6601079.013267,-0.000924,0.000932,0.000124
-0.280000,-0.400000,1.600035,0.080000,3553471.933692,-36535246.369908,37386464.953027,34978615.863936,-0.000693,0.000700,0.000659
-0.200000,-0.400000,1.600029,0.080000,3600345.298371,-10011881.559681,10388386.225907,52344367.728952,-0.000191,0.000194,0.000986
-0.120000,-0.400000,1.600000,0.080000,3709040.693416,22781789.263119,-23071978.400333,51478138.316280,0.000431,-0.000433,0.000970
-0.040000,-0.400000,1.600032,0.080000,3673675.456323,50626431.013704,-51527694.352404,31142010.188877,0.000959,-0.000966,0.000587
0.040000,-0.400000,1.600032,0.080000,3319707.455551,63252880.713404,-64470164.399990,-2928309.122616,0.001199,-0.001208,-0.000055
0.120000,-0.400000,1.600000,0.080000,2568221.730007,55354219.559831,-56465801.169143,-39854279.298722,0.001049,-0.001058,-0.000751
0.200000,-0.400000,1.600029,0.080000,1469135.034748,28707783.053395,-29333867.245489,-67594526.504953,0.000544,-0.000549,-0.001274
0.280000,-0.400000,1.600035,0.080000,190072.465253,-8525568.875691,8574303.324555,-77406072.710276,-0.000161,0.000161,-0.001458
0.360000,-0.400000,1.600000,0.080000,-1034719.503784,-44990715.042355,45650101.977854,-66903766.384755,-0.000851,0.000856,-0.001261
0.440000,-0.400000,1.600026,0.080000,-1975525.618240,-70387866.026592,71386050.746566,-40505753.537330,-0.001332,0.001339,-0.000763
0.520000,-0.400000,1.600038,0.080000,-2471835.615404,-78963379.270264,79947093.973687,-7262357.123714,-0.001493,0.001501,-0.000137
0.600000,-0.400000,1.600000,0.080000,-2468680.569798,-70892460.299136,71571055.600268,22796437.069919,-0.001339,0.001345,0.000429
0.680000,-0.400000,1.600023,0.080000,-2015888.512571,-51249089.433640,51492690.144831,42137564.179355,-0.000967,0.000969,0.000794
0.760000,-0.400000,1.600041,0.080000,-1236576.052155,-27321143.076832,27179405.904296,47657228.096089,-0.000514,0.000513,0.000898
0.840000,-0.400000,1.600001,0.080000,-281583.126796,-5591625.268827,5242253.537800,40569878.660055,-0.000103,0.000101,0.000764
0.920000,-0.400000,1.580003,0.080000,711248.622454,10441980.456089,-10773245.516516,24708292.440803,0.000199,-0.000201,0.000466
1.000000,-0.400000,1.500003,0.080000,1639164.983965,21134782.573717,-21231932.200893,4262643.726482,0.000399,-0.000399,0.000080
1.080000,-0.400000,1.420003,0.080000,2432266.614220,30630039.641747,-30282925.454268,-18000867.682910,0.000575,-0.000573,-0.000339
1.160000,-0.400000,1.340003,0.080000,3026986.023924,46930933.043239,-45844671.011619,-41366976.822185,0.000878,-0.000870,-0.000779
1.240000,-0.400000,1.260004,0.080000,3314271.585297,83654259.989449,-81240188.182395,-66256594.977897,0.001562,-0.001544,-0.001248
1.320000,-0.400000,1.180004,0.080000,3050493.746381,165662772.010758,-160625784.141905,-90952441.375409,0.003093,-0.003055,-0.001714
1.400000,-0.400000,1.100004,0.080000,1693691.509978,342450065.372999,-331951078.461888,-102968101.416053,0.006393,-0.006313,-0.001940
1.480000,-0.400000,1.020004,0.080000,-1923303.650097,717395611.112286,-695275291.046549,-55706002.093368,0.013391,-0.013224,-0.001050
1.560000,-0.400000,0.940005,0.080000,-10276279.134462,1510788259.427820,-1463717880.245019,196291401.983022,0.028198,-0.027843,0.003698
1.640000,-0.400000,0.860005,0.080000,-28606581.949445,3196107560.360279,-3095198694.191055,1077960337.561970,0.059646,-0.058886,0.020309
1.720000,-0.400000,0.780006,0.080000,-68053776.575357,6796321571.378396,-6578809408.901455,3798322779.975163,0.126817,-0.125178,0.071563
1.800000,-0.400000,0.700006,0.080000,-152426598.158354,14531765886.021029,-14060795515.314157,11765746551.817644,0.271125,-0.267576,0.221673
1.880000,-0.400000,0.620007,0.080000,-332908792.430048,31252779742.168407,-30227246212.054157,34583700901.344360,0.583024,-0.575295,0.651577
1.960000,-0.400000,0.540008,0.080000,-720230070.354604,68374829193.235420,-67674236076.993492,102955457860.685013,1.284262,-1.278982,1.939741
2.040000,-0.400000,0.460010,0.080000,-1556109279.377134,149870450621.665894,-149018980035.986816,285999323978.762573,2.818834,-2.812417,5.388393
2.120000,-0.400000,0.380012,0.080000,-3377214760.149651,330514250735.336975,-332844434526.050720,828905711960.898926,6.240251,-6.257811,15.617064
-2.120000,-0.320000,0.380057,0.080000,3586205546.195020,-321491806354.918518,323741321663.249695,872809356973.679077,-6.069807,6.086760,16.444234
-2.040000,-0.320000,0.460047,0.080000,1711821403.067438,-151084717380.577576,150298283888.782928,312873843409.901306,-2.842079,2.836152,5.894725
-1.960000,-0.320000,0.540040,0.080000,827338785.081740,-70782334438.986160,70130985544.345673,117368895772.965958,-1.329899,1.324990,2.211298
-1.880000,-0.320000,0.620035,0.080000,406213157.798617,-33113689163.064457,32079950366.416138,41636155583.146149,-0.618038,0.610248,0.784449
-1.800000,-0.320000,0.700031,0.080000,203804993.851587,-15766541995.165594,15282935106.524046,15186202146.116144,-0.294317,0.290673,0.286117
-1.720000,-0.320000,0.780028,0.080000,105468357.774936,-7578869209.381248,7351801190.015842,5448514415.207116,-0.141507,0.139796,0.102653
-1.640000,-0.320000,0.860025,0.080000,57120654.534602,-3685392858.075550,3578221216.339463,1875269698.850771,-0.068829,0.068022,0.035331
-1.560000,-0.320000,0.940023,0.080000,33059187.247710,-1816184512.057994,1765222000.145180,582934518.980487,-0.033930,0.033546,0.010983
-1.480000,-0.320000,1.020021,0.080000,20953567.377582,-908039644.306852,883575686.305930,132632031.447172,-0.016970,0.016785,0.002499
-1.400000,-0.320000,1.100020,0.080000,14818602.694853,-460285319.544285,448420578.638630,-10590457.866320,-0.008605,0.008516,-0.000200
-1.320000,-0.320000,1.180018,0.080000,11706502.529531,-235274380.503337,229467242.267863,-45354621.973646,-0.004400,0.004356,-0.000855
-1.240000,-0.320000,1.260017,0.080000,10137779.638237,-119027698.512844,116164693.237389,-44829145.392971,-0.002226,0.002205,-0.000845
-1.160000,-0.320000,1.340016,0.080000,9349347.496214,-56313929.334597,54882191.612643,-35598364.374512,-0.001053,0.001042,-0.000671
-1.080000,-0.320000,1.420015,0.080000,8930567.034886,-20345615.671281,19584641.678897,-27167747.114027,-0.000379,0.000373,-0.000512
-1.000000,-0.320000,1.500014,0.080000,8646888.223484,1458928.430024,-1944482.957854,-22779171.299346,0.000030,-0.000034,-0.000429
-0.920000,-0.320000,1.580014,0.080000,8356948.041088,14366138.344602,-14774829.321985,-23076343.917720,0.000273,-0.000276,-0.000435
-0.840000,-0.320000,1.660013,0.080000,7977597.283924,19994244.163215,-20396725.624892,-27121226.224038,0.000379,-0.000382,-0.000511
-0.760000,-0.320000,1.680039,0.080000,7472736.363245,18633208.862222,-19006039.110402,-32670730.637494,0.000353,-0.000356,-0.000616
-0.680000,-0.320000,1.680022,0.080000,6850876.467926,10901836.636028,-11161583.964185,-36592650.094976,0.000207,-0.000209,-0.000689
-0.600000,-0.320000,1.680000,0.080000,6160810.216843,-1216265.487426,1165236.972773,-35738069.362435,-0.000023,0.000022,-0.000673
-0.520000,-0.320000,1.680036,0.080000,5478838.168099,-14161595.019273,14371885.792171,-28145447.977402,-0.000268,0.000270,-0.000530
-0.440000,-0.320000,1.680025,0.080000,4886242.728071,-23521608.263261,23959878.542168,-14120052.299233,-0.000446,0.000449,-0.000266
-0.360000,-0.320000,1.680000,0.080000,4441561.114158,-25471225.813658,26009274.825088,3373901.532552,-0.000483,0.000487,0.000064
-0.280000,-0.320000,1.680033,0.080000,4156672.622699,-18357471.348083,18807309.458037,19373579.117120,-0.000348,0.000352,0.000365
-0.200000,-0.320000,1.680027,0.080000,3986577.839793,-3691733.094320,3874557.426921,28552193.065191,-0.000071,0.000072,0.000538
-0.120000,-0.320000,1.680000,0.080000,3839016.593287,14015082.985561,-14194305.603211,27261751.733645,0.000265,-0.000266,0.000514
-0.040000,-0.320000,1.680030,0.080000,3602835.643660,28665012.213998,-29171579.643096,15139482.134787,0.000543,-0.000547,0.000285
0.040000,-0.320000,1.680030,0.080000,3186237.790599,34752018.633670,-35427520.167711,-4462802.036167,0.000659,-0.000664,-0.000084
0.120000,-0.320000,1.680000,0.080000,2551278.661443,29436998.998034,-30057449.996751,-25496423.250171,0.000558,-0.000563,-0.000480
0.200000,-0.320000,1.680027,0.080000,1731643.743311,13647386.302494,-14009234.788848,-41321385.673575,0.000259,-0.000262,-0.000779
0.280000,-0.320000,1.680033,0.080000,826835.413079,-8264692.159907,8268028.576900,-47054140.089590,-0.000156,0.000156,-0.000887
0.360000,-0.320000,1.680000,0.080000,-25099.085810,-30147745.263712,30491329.161060,-41207479.521415,-0.000570,0.000573,-0.000776
0.440000,-0.320000,1.680025,0.080000,-686148.545784,-46258061.535780,46805252.958759,-25999943.963212,-0.000875,0.000879,-0.000490
0.520000,-0.320000,1.680036,0.080000,-1054428.020482,-53138936.197536,53702973.933263,-6306815.121999,-0.001004,0.001009,-0.000119
0.600000,-0.320000,1.680000,0.080000,-1086001.740341,-50471121.795492,50888598.384406,12204132.934825,-0.000953,0.000956,0.000230
0.680000,-0.320000,1.680022,0.080000,-797066.965380,-40691373.723887,40876111.001216,24924754.355852,-0.000768,0.000769,0.000470
0.760000,-0.320000,1.680039,0.080000,-248822.419517,-27702036.728127,27661277.422718,29424340.746345,-0.000522,0.000521,0.000554
0.840000,-0.320000,1.660013,0.080000,476945.652127,-15297835.785811,15113045.746603,25506721.633826,-0.000287,0.000286,0.000481
0.920000,-0.320000,1.580014,0.080000,1301702.008128,-5898314.691654,5690007.943813,14335286.885730,-0.000110,0.000108,0.000270
1.000000,-0.320000,1.500014,0.080000,2165405.494515,153363.222067,-249575.065133,-2963686.824917,0.000003,-0.000004,-0.000056
1.080000,-0.320000,1.420015,0.080000,3028594.379536,4932818.776437,-4751086.497508,-26820131.497277,0.000092,-0.000091,-0.000505
1.160000,-0.320000,1.340016,0.080000,3858871.678534,13628281.441946,-12885425.747502,-60738927.941164,0.000253,-0.000247,-0.001144
1.240000,-0.320000,1.260017,0.080000,4596878.704813,36935971.690185,-35008524.533085,-113115342.022550,0.000685,-0.000670,-0.002131
1.320000,-0.320000,1.180018,0.080000,5085511.312155,97798621.427535,-93201738.408612,-200073514.627721,0.001817,-0.001782,-0.003770
1.400000,-0.320000,1.100020,0.080000,4917206.698788,248404862.975418,-237550465.690132,-350355687.247321,0.004619,-0.004537,-0.006601
1.480000,-0.320000,1.020021,0.080000,3085510.341414,611893892.419604,-586037604.607627,-613081523.114248,0.011382,-0.011187,-0.011551
1.560000,-0.320000,0.940023,0.080000,-2838628.912435,1485309308.031845,-1422860215.610298,-1066946072.295624,0.027631,-0.027160,-0.020102
1.640000,-0.320000,0.860025,0.080000,-18697352.430347,3598036680.505728,-3444797465.015384,-1819621792.456895,0.066923,-0.065768,-0.034283
1.720000,-0.320000,0.780028,0.080000,-58642754.614385,8772932295.176704,-8390363339.217948,-2950764815.740839,0.163125,-0.160242,-0.055594
1.800000,-0.320000,0.700031,0.080000,-157400009.159373,21650464919.267941,-20677649635.206707,-4235488551.700272,0.402409,-0.395077,-0.079799
1.880000,-0.320000,0.620035,0.080000,-401553626.390404,54272444929.429146,-51750787061.392006,-4122925986.407492,1.008271,-0.989268,-0.077678
1.960000,-0.320000,0.540040,0.080000,-1010916797.569421,140282419088.376740,-137610720392.101807,4439718478.320926,2.627901,-2.607767,0.083647
2.040000,-0.320000,0.460047,0.080000,-2554316410.082755,364828228940.857727,-361451251284.944946,41230049448.768448,6.854488,-6.829038,0.776798
2.120000,-0.320000,0.380057,0.080000,-6532836670.541931,946110483211.391235,-953016572401.335693,178057242103.641418,17.864304,-17.916350,3.354702
-2.120000,-0.240000,0.380248,0.080000,7226116404.595016,-973693722468.907349,980768341766.955566,239478196540.140930,-18.384941,18.438257,4.511908
-2.040000,-0.240000,0.460205,0.080000,2942690740.438194,-385900673315.024353,382522198124.526062,66079294524.525993,-7.251497,7.226036,1.244972
-1.960000,-0.240000,0.540175,0.080000,1227456559.142280,-152619204430.188812,149933127934.852356,15245338254.414785,-2.860252,2.840009,0.287231
-1.880000,-0.240000,0.620152,0.080000,525654255.232118,-60856154294.457321,58180409041.473846,464392161.566765,-1.131441,1.111276,0.008749
-1.800000,-0.240000,0.700135,0.080000,232066071.339108,-25108160251.907158,24051315693.559082,-2227487304.880575,-0.467079,0.459114,-0.041967
-1.720000,-0.240000,0.780121,0.080000,106516490.866035,-10594090526.404068,10168283413.719162,-2075656486.038514,-0.197192,0.193983,-0.039107
-1.640000,-0.240000,0.860110,0.080000,51706720.313848,-4572075487.253574,4396917363.738189,-1445741794.191666,-0.085151,0.083830,-0.027239
-1.560000,-0.240000,0.940100,0.080000,27357431.148278,-2017073600.541867,1943468791.734169,-914634800.075349,-0.037587,0.037032,-0.017232
-1.480000,-0.240000,1.020092,0.080000,16417527.269854,-908075862.571356,876476303.351243,-557613143.070946,-0.016930,0.016692,-0.010506
-1.400000,-0.240000,1.100086,0.080000,11502436.215516,-415334751.627822,401484839.003190,-336217892.503525,-0.007747,0.007642,-0.006335
-1.320000,-0.240000,1.180080,0.080000,9338250.359815,-190825562.137916,184639580.663008,-203228529.141779,-0.003560,0.003514,-0.003829
-1.240000,-0.240000,1.260075,0.080000,8436518.674204,-85372240.638684,82561825.732234,-124265028.875911,-0.001593,0.001571,-0.002341
-1.160000,-0.240000,1.340070,0.080000,8099771.938099,-33724548.092732,32418334.017642,-77760101.026264,-0.000628,0.000618,-0.001465
-1.080000,-0.240000,1.420066,0.080000,7987464.327427,-6968956.192324,6324381.278405,-51012057.535599,-0.000128,0.000123,-0.000961
-1.000000,-0.240000,1.500063,0.080000,7923969.702570,7594301.953080,-7967389.354335,-36652202.469100,0.000145,-0.000148,-0.000691
-0.920000,-0.240000,1.580060,0.080000,7814268.117137,15231164.601190,-15509739.231569,-30172817.308652,0.000289,-0.000291,-0.000568
-0.840000,-0.240000,1.660057,0.080000,7608831.573422,17855764.300089,-18103142.242610,-28369828.219692,0.000338,-0.000340,-0.000535
-0.760000,-0.240000,1.740054,0.080000,7290635.532702,16155380.835521,-16367309.509883,-28514882.172032,0.000306,-0.000307,-0.000537
-0.680000,-0.240000,1.760021,0.080000,6870330.932127,10817223.759139,-10953137.273135,-28131345.910646,0.000205,-0.000206,-0.000530
-0.600000,-0.240000,1.760000,0.080000,6381617.543312,3174876.249647,-3188724.497984,-25235481.932339,0.000060,-0.000060,-0.000475
-0.520000,-0.240000,1.760034,0.080000,5872671.010193,-4687164.086170,4816771.352985,-18819647.617553,-0.000089,0.000090,-0.000355
-0.440000,-0.240000,1.760024,0.080000,5392947.203483,-10343859.481229,10592590.717890,-9272095.464677,-0.000196,0.000198,-0.000175
-0.360000,-0.240000,1.760000,0.080000,4977934.614405,-11794719.470269,12090001.339548,1567443.072277,-0.000224,0.000226,0.000030
-0.280000,-0.240000,1.760032,0.080000,4636639.703812,-8269383.494868,8510117.752125,10882051.916196,-0.000157,0.000159,0.000205
-0.200000,-0.240000,1.760026,0.080000,4346827.346655,-700613.890523,793170.211906,15811856.865814,-0.000014,0.000014,0.000298
-0.120000,-0.240000,1.760000,0.080000,4060945.715287,8406782.016775,-8510734.972361,14539924.680569,0.000159,-0.000160,0.000274
-0.040000,-0.240000,1.760029,0.080000,3721885.495017,15740305.561727,-16021011.822073,7099325.714944,0.000298,-0.000300,0.000134
0.040000,-0.240000,1.760029,0.080000,3283771.662703,18324386.300880,-18697560.743015,-4460105.877419,0.000347,-0.000350,-0.000084
0.120000,-0.240000,1.760000,0.080000,2730620.227708,14603769.769699,-14950385.735293,-16661427.286752,0.000277,-0.000280,-0.000314
0.200000,-0.240000,1.760026,0.080000,2086083.569169,5026626.117850,-5236949.800186,-25746722.423165,0.000096,-0.000097,-0.000485
0.280000,-0.240000,1.760032,0.080000,1410637.928238,-8111085.119965,8097657.131071,-28940087.630684,-0.000153,0.000153,-0.000545
0.360000,-0.240000,1.760000,0.080000,787183.933085,-21489999.934057,21665600.664736,-25339017.610500,-0.000406,0.000407,-0.000477
0.440000,-0.240000,1.760024,0.080000,300213.253126,-31917698.481767,32213860.883066,-16110843.752391,-0.000603,0.000605,-0.000304
0.520000,-0.240000,1.760034,0.080000,15740.418403,-37349386.890985,37666673.530607,-3969882.412803,-0.000705,0.000708,-0.000075
0.600000,-0.240000,1.760000,0.080000,-31598.262750,-37413587.793516,37658738.102492,7797024.513569,-0.000706,0.000708,0.000147
0.680000,-0.240000,1.760021,0.080000,159040.774345,-33315025.884869,33429863.387751,16332809.806553,-0.000628,0.000629,0.000308
0.760000,-0.240000,1.740054,0.080000,562208.360576,-27250412.035528,27222502.487923,19849651.009799,-0.000513,0.000513,0.000374
0.840000,-0.240000,1.660057,0.080000,1139947.459601,-21640907.544356,21495432.465896,17693090.218251,-0.000407,0.000406,0.000333
0.920000,-0.240000,1.580060,0.080000,1857062.705382,-18494646.000857,18275411.360553,9828227.367458,-0.000347,0.000346,0.000185
1.000000,-0.240000,1.500063,0.080000,2693858.377236,-19079009.123974,18830919.289384,-4139022.165656,-0.000358,0.000356,-0.000078
1.080000,-0.240000,1.420066,0.080000,3654234.959697,-23869392.198868,23635903.418802,-26365410.699498,-0.000448,0.000447,-0.000497
1.160000,-0.240000,1.340070,0.080000,4768717.377871,-32494739.084187,32347529.308761,-62884435.992263,-0.000611,0.000610,-0.001185
1.240000,-0.240000,1.260075,0.080000,6091848.622104,-43056641.563767,43193726.773770,-127408377.559425,-0.000812,0.000813,-0.002400
1.320000,-0.240000,1.180080,0.080000,7689113.642322,-49445133.685009,50455990.222610,-249191401.156032,-0.000937,0.000945,-0.004695
1.400000,-0.240000,1.100086,0.080000,9595029.368239,-33225229.555751,36798075.789219,-490366893.835858,-0.000646,0.000673,-0.009239
1.480000,-0.240000,1.020092,0.080000,11687316.314686,59034458.507899,-48203624.474314,-985260804.746656,0.001051,-0.000969,-0.018563
1.560000,-0.240000,0.940100,0.080000,13323442.712979,377874335.668739,-346878852.726116,-2031363583.583401,0.006944,-0.006711,-0.038272
1.640000,-0.240000,0.860110,0.080000,12318351.650935,1340870268.566678,-1254308299.850308,-4304332908.864999,0.024774,-0.024121,-0.081096
1.720000,-0.240000,0.780121,0.080000,2110441.434201,4099284896.778175,-3859789984.091172,-9377882856.202658,0.075879,-0.074074,-0.176685
1.800000,-0.240000,0.700135,0.080000,-36052323.111594,11825890336.731621,-11164492464.148333,-21011685663.029514,0.219068,-0.214084,-0.395872
1.880000,-0.240000,0.620152,0.080000,-154653656.331328,33284222918.637714,-31454776530.618500,-48423406761.120682,0.616754,-0.602967,-0.912325
1.960000,-0.240000,0.540175,0.080000,-499427235.567530,94056728974.458130,-91911668217.675644,-117803143616.369202,1.759959,-1.743793,-2.219480
2.040000,-0.240000,0.460205,0.080000,-1474206244.105465,260950548060.610962,-258230267493.351074,-281348273059.777039,4.901084,-4.880583,-5.300765
2.120000,-0.240000,0.380248,0.080000,-4197909089.769585,706190299402.345215,-711394268545.208984,-717318241632.631470,13.334448,-13.373667,-13.514692
-2.120000,-0.160000,0.380023,0.080000,5185288356.064944,-792486846225.247803,798294493080.199097,-688609867024.733398,-14.963737,15.007505,-12.973809
-2.040000,-0.160000,0.460019,0.080000,1961970011.438660,-300890550417.339417,297949213736.089478,-276615114498.170959,-5.652327,5.630161,-5.211589
-1.960000,-0.160000,0.540016,0.080000,749661960.977069,-112661933741.377518,110336725266.207352,-117930730908.974762,-2.109474,2.091950,-2.221883
-1.880000,-0.160000,0.620014,0.080000,289246483.343227,-42051868676.247581,39953449649.300392,-49279083210.204353,-0.780421,0.764607,-0.928446
-1.800000,-0.160000,0.700012,0.080000,112898473.026926,-16090346023.585720,15305031402.559160,-21699897769.047916,-0.298713,0.292794,-0.408839
-1.720000,-0.160000,0.780011,0.080000,45098257.123916,-6222629957.940956,5925093736.724989,-9841644573.933172,-0.115556,0.113314,-0.185422
-1.640000,-0.160000,0.860010,0.080000,19223141.842396,-2424358752.235231,2310104354.735142,-4604380232.926595,-0.045031,0.044169,-0.086749
-1.560000,-0.160000,0.940009,0.080000,9666069.112363,-944478963.468327,900007344.107212,-2225358287.472054,-0.017543,0.017208,-0.041927
-1.480000,-0.160000,1.020009,0.080000,6464110.351332,-362022958.602752,344501427.476388,-1112543988.588835,-0.006722,0.006590,-0.020961
-1.400000,-0.160000,1.100008,0.080000,5700744.785989,-131287134.877458,124325373.349172,-576009100.189749,-0.002434,0.002382,-0.010852
-1.320000,-0.160000,1.180007,0.080000,5825727.254307,-39692632.483992,36923928.340238,-309270063.756898,-0.000732,0.000711,-0.005827
-1.240000,-0.160000,1.260007,0.080000,6223822.662100,-3304354.988435,2214672.128462,-172695104.042435,-0.000056,0.000048,-0.003254
-1.160000,-0.160000,1.340007,0.080000,6650578.191033,11329534.364300,-11752341.878142,-101021946.486844,0.000216,-0.000219,-0.001903
-1.080000,-0.160000,1.420006,0.080000,7007751.181198,17474837.958443,-17647948.524590,-62919875.350235,0.000330,-0.000332,-0.001185
-1.000000,-0.160000,1.500006,0.080000,7254281.377857,20144461.800569,-20242562.214448,-42842192.547225,0.000380,-0.000381,-0.000807
-0.920000,-0.160000,1.580006,0.080000,7372539.396142,20925618.791231,-21017466.108999,-32655324.100949,0.000395,-0.000395,-0.000615
-0.840000,-0.160000,1.660005,0.080000,7357449.710725,20057136.957330,-20158510.921251,-27698921.294360,0.000378,-0.000379,-0.000522
-0.760000,-0.160000,1.740005,0.080000,7214611.599604,17438155.772948,-17534923.679240,-24962552.429584,0.000329,-0.000330,-0.000470
-0.680000,-0.160000,1.820005,0.080000,6960752.251360,13177036.927820,-13240460.271924,-22346787.966983,0.000249,-0.000249,-0.000421
-0.600000,-0.160000,1.840000,0.080000,6622940.397769,7853202.846929,-7855071.048941,-18496330.777976,0.000148,-0.000148,-0.000348
-0.520000,-0.160000,1.840033,0.080000,6234878.905706,2512649.722845,-2439938.723798,-12883466.915690,0.000047,-0.000046,-0.000243
-0.440000,-0.160000,1.840023,0.080000,5830300.362528,-1586729.440804,1721952.693910,-5893071.851484,-0.000031,0.000032,-0.000111
-0.360000,-0.160000,1.840000,0.080000,5435066.420781,-3396348.624372,3556394.336988,1273854.774255,-0.000065,0.000066,0.000024
-0.280000,-0.160000,1.840030,0.080000,5060610.184937,-2505867.261028,2637946.247114,6957253.839373,-0.000048,0.000049,0.000131
-0.200000,-0.160000,1.840025,0.080000,4701400.461801,605663.617295,-550899.534058,9600704.028819,0.000011,-0.000011,0.000181
-0.120000,-0.160000,1.840000,0.080000,4337987.062548,4630212.802599,-4679245.644260,8345624.060988,0.000088,-0.000088,0.000157
-0.040000,-0.160000,1.840028,0.080000,3945235.149238,7816746.337448,-7961203.593445,3432619.667838,0.000148,-0.000149,0.000065
0.040000,-0.160000,1.840028,0.080000,3503322.916539,8557555.605893,-8755328.251555,-3765179.004125,0.000162,-0.000164,-0.000071
0.120000,-0.160000,1.840000,0.080000,3007828.686000,5955091.328334,-6144739.278299,-11117351.263407,0.000113,-0.000115,-0.000209
0.200000,-0.160000,1.840025,0.080000,2475359.359110,146659.387603,-269485.362087,-16397156.544591,0.000003,-0.000004,-0.000309
0.280000,-0.160000,1.840030,0.080000,1942688.167361,-7741541.238640,7720697.860451,-17987006.011614,-0.000146,0.000146,-0.000339
0.360000,-0.160000,1.840000,0.080000,1459688.198200,-15989796.904971,16071255.634288,-15368863.457680,-0.000302,0.000302,-0.000290
0.440000,-0.160000,1.840023,0.080000,1078535.212549,-22870964.899759,23022204.376517,-9230513.645935,-0.000432,0.000433,-0.000174
0.520000,-0.160000,1.840033,0.080000,842850.944045,-27204452.886036,27373364.615171,-1176185.732628,-0.000514,0.000515,-0.000022
0.600000,-0.160000,1.840000,0.080000,780264.949372,-28689267.154225,28822052.043771,6816396.560095,-0.000541,0.000542,0.000128
0.680000,-0.160000,1.820005,0.080000,900498.835754,-27937789.432889,27993563.068915,12965418.529660,-0.000527,0.000527,0.000244
0.760000,-0.160000,1.740005,0.080000,1199209.014321,-26265120.167485,26221350.538770,16064224.083050,-0.000495,0.000494,0.000303
0.840000,-0.160000,1.660005,0.080000,1666295.114401,-25388412.601174,25235157.134815,15538152.422413,-0.000477,0.000476,0.000293
0.920000,-0.160000,1.580006,0.080000,2296817.609646,-27226986.969928,26951081.160314,11146342.331896,-0.000511,0.000509,0.000210
1.000000,-0.160000,1.500006,0.080000,3103306.986275,-33978645.165175,33539342.356916,2339368.578914,-0.000638,0.000634,0.000044
1.080000,-0.160000,1.420006,0.080000,4130007.063118,-48629390.730451,47923091.297146,-12798202.436073,-0.000912,0.000907,-0.000241
1.160000,-0.160000,1.340007,0.080000,5472386.448449,-76106715.739185,74909230.948206,-39382539.096476,-0.001427,0.001418,-0.000742
1.240000,-0.160000,1.260007,0.080000,7309447.491795,-125508260.976371,123365751.388146,-89384869.021906,-0.002353,0.002336,-0.001684
1.320000,-0.160000,1.180007,0.080000,9963433.130839,-214382094.954874,210388397.297468,-189694354.697683,-0.004017,0.003986,-0.003574
1.400000,-0.160000,1.100008,0.080000,14015070.151950,-377212589.274882,369541219.763146,-400863323.113702,-0.007064,0.007006,-0.007552
1.480000,-0.160000,1.020009,0.080000,20530270.171406,-682772198.936914,667680010.225591,-861963406.456014,-0.012779,0.012665,-0.016240
1.560000,-0.160000,0.940009,0.080000,31512828.037612,-1270425707.236197,1240106468.373455,-1900358811.754016,-0.023764,0.023536,-0.035804
1.640000,-0.160000,0.860010,0.080000,50823118.846228,-2427514401.550696,2365402869.573805,-4306085113.840178,-0.045385,0.044917,-0.081129
1.720000,-0.160000,0.780011,0.080000,86075238.801973,-4757476899.552161,4627748472.229127,-10031667064.720089,-0.088900,0.087923,-0.189002
1.800000,-0.160000,0.700012,0.080000,152628498.394225,-9553965929.683392,9277281644.398331,-24010642441.211060,-0.178438,0.176353,-0.452374
1.880000,-0.160000,0.620014,0.080000,282165155.898277,-19662018885.715485,19056709434.931580,-58961238979.219345,-0.367023,0.362461,-1.110864
1.960000,-0.160000,0.540016,0.080000,541620712.757405,-41968873978.053192,41534525513.822365,-152509730801.926117,-0.788263,0.784990,-2.873372
2.040000,-0.160000,0.460019,0.080000,1076505353.762649,-91669476720.513794,91126332969.118301,-382436237903.001587,-1.724036,1.719943,-7.205320
2.120000,-0.160000,0.380023,0.080000,2215158816.394277,-205216237047.253265,206660185282.220581,-1013964474583.731567,-3.874554,3.885436,-19.103679
-2.120000,-0.080000,0.380038,0.080000,-1449961561.656492,113650668434.801880,-114434764861.137421,-1073089266224.468994,2.145676,-2.151585,-20.217624
-2.040000,-0.080000,0.460031,0.080000,-725725716.307461,56214456172.804619,-55965000847.853973,-410955386858.747925,1.057703,-1.055823,-7.742638
-1.960000,-0.080000,0.540027,0.080000,-368218777.559337,27447604970.584843,-27238995025.080364,-166579937127.131104,0.515950,-0.514378,-3.138463
-1.880000,-0.080000,0.620023,0.080000,-189846000.258915,13346988764.202530,-12966160071.811073,-65721253944.596275,0.249312,-0.246442,-1.238227
-1.800000,-0.080000,0.700021,0.080000,-99354654.854437,6616597480.905246,-6432786983.395305,-27382724796.675079,0.123622,-0.122236,-0.515906
-1.720000,-0.080000,0.780019,0.080000,-52399999.224223,3331065574.279547,-3242264289.192012,-11760692036.503473,0.062257,-0.061588,-0.221578
-1.640000,-0.080000,0.860017,0.080000,-27339942.655368,1711213489.920600,-1668030583.110412,-5221498513.298796,0.031996,-0.031671,-0.098376
-1.560000,-0.080000,0.940015,0.080000,-13511576.451704,900912767.031275,-879670025.154130,-2402313154.289449,0.016854,-0.016694,-0.045261
-1.480000,-0.080000,1.020014,0.080000,-5586543.303089,488116566.244554,-477498728.609767,-1147844260.445610,0.009136,-0.009056,-0.021626
-1.400000,-0.080000,1.100013,0.080000,-854000.331366,273423644.984431,-268009445.508192,-570812391.459960,0.005121,-0.005080,-0.010754
-1.320000,-0.080000,1.180012,0.080000,2093800.389381,159360201.918880,-156533894.862343,-296276401.164405,0.002986,-0.002965,-0.005582
-1.240000,-0.080000,1.260011,0.080000,4003588.221372,97588134.152255,-96075235.301292,-161333127.093929,0.001830,-0.001819,-0.003040
-1.160000,-0.080000,1.340011,0.080000,5279162.962409,63665365.448943,-62838352.816243,-93102644.440181,0.001195,-0.001189,-0.001754
-1.080000,-0.080000,1.420010,0.080000,6142028.266774,44888515.221758,-44435088.055778,-57928873.268561,0.000843,-0.000840,-0.001091
-1.000000,-0.080000,1.500010,0.080000,6714737.612643,34383468.154185,-34145351.387707,-39667012.851107,0.000646,-0.000645,-0.000747
-0.920000,-0.080000,1.580009,0.080000,7065885.707166,28223974.209154,-28116613.012739,-30154453.977961,0.000531,-0.000530,-0.000568
-0.840000,-0.080000,1.660009,0.080000,7235713.914087,24051203.732178,-24023073.675793,-24944689.468404,0.000453,-0.000453,-0.000470
-0.760000,-0.080000,1.740008,0.080000,7251422.123828,20449016.267956,-20461910.053047,-21406950.042498,0.000385,-0.000385,-0.000403
-0.680000,-0.080000,1.820008,0.080000,7136320.518970,16684673.373601,-16706397.477184,-17935094.760787,0.000314,-0.000315,-0.000338
-0.600000,-0.080000,1.900008,0.080000,6914559.503805,12588619.556963,-12593328.348860,-13677250.973243,0.000237,-0.000237,-0.000258
-0.520000,-0.080000,1.920032,0.080000,6612255.108071,8436784.053718,-8409047.654362,-8468790.015766,0.000159,-0.000159,-0.000160
-0.440000,-0.080000,1.920022,0.080000,6255786.570263,4769060.738320,-4707814.162827,-2773450.034611,0.000090,-0.000089,-0.000052
-0.360000,-0.080000,1.920000,0.080000,5868427.667038,2144391.289666,-2063488.566875,2479909.704952,0.000040,-0.000039,0.000047
-0.280000,-0.080000,1.920029,0.080000,5466859.197626,888635.279680,-812373.637855,6194326.000187,0.000016,-0.000016,0.000117
-0.200000,-0.080000,1.920024,0.080000,5059146.248390,919004.812857,-873379.709930,7482227.516818,0.000017,-0.000017,0.000141
-0.120000,-0.080000,1.920000,0.080000,4645278.325869,1716068.729487,-1718733.455754,6010238.219355,0.000032,-0.000032,0.000113
-0.040000,-0.080000,1.920026,0.080000,4220443.784747,2464506.974156,-2517394.736114,2185504.750308,0.000047,-0.000047,0.000041
0.040000,-0.080000,1.920026,0.080000,3780153.691496,2317583.819640,-2405344.587994,-2898489.021137,0.000044,-0.000045,-0.000055
0.120000,-0.080000,1.920000,0.080000,3325557.365237,687647.277745,-782738.149652,-7753634.252820,0.000013,-0.000014,-0.000146
0.200000,-0.080000,1.920024,0.080000,2867130.302132,-2548978.943015,2476492.080026,-10932331.000127,-0.000048,0.000047,-0.000206
0.280000,-0.080000,1.920029,0.080000,2425451.433373,-7011787.775178,6983607.237934,-11454705.434167,-0.000132,0.000132,-0.000216
0.360000,-0.080000,1.920000,0.080000,2028817.318464,-11954514.888201,11976763.488982,-9079150.384349,-0.000225,0.000226,-0.000171
0.440000,-0.080000,1.920022,0.080000,1708559.576602,-16527543.517041,16589190.292087,-4329070.404050,-0.000312,0.000312,-0.000082
0.520000,-0.080000,1.920032,0.080000,1493710.369248,-20067736.222038,20144679.270214,1717668.636354,-0.000379,0.000379,0.000032
0.600000,-0.080000,1.900008,0.080000,1406837.032009,-22321027.083826,22383290.102343,7784709.514804,-0.000421,0.000421,0.000147
0.680000,-0.080000,1.820008,0.080000,1462451.968159,-23545828.803917,23564063.021203,12763716.397902,-0.000444,0.000444,0.000240
0.760000,-0.080000,1.740008,0.080000,1668664.138091,-24509727.956176,24457342.582849,15968528.181618,-0.000461,0.000461,0.000301
0.840000,-0.080000,1.660009,0.080000,2032077.923459,-26455186.663644,26303295.715196,17207746.386853,-0.000498,0.000496,0.000324
0.920000,-0.080000,1.580009,0.080000,2565764.448595,-31160705.736212,30863282.107962,16670541.131886,-0.000585,0.000583,0.000314
1.000000,-0.080000,1.500010,0.080000,3300758.914916,-41275350.856926,40739543.686349,14658771.645362,-0.000775,0.000771,0.000276
1.080000,-0.080000,1.420010,0.080000,4303321.705286,-61206117.412036,60234592.111726,11180055.706370,-0.001148,0.001140,0.000211
1.160000,-0.080000,1.340011,0.080000,5703828.581625,-99097184.159740,97269452.095530,5309177.008446,-0.001857,0.001843,0.000100
1.240000,-0.080000,1.260011,0.080000,7750367.310510,-171087953.449871,167501059.859032,-6037330.145993,-0.003203,0.003176,-0.000114
1.320000,-0.080000,1.180012,0.080000,10915244.212082,-310603279.192561,303280841.244209,-30874651.867251,-0.005811,0.005755,-0.000582
1.400000,-0.080000,1.100013,0.080000,16116119.608564,-589214154.426859,573718330.344665,-88906026.150761,-0.011014,0.010897,-0.001675
1.480000,-0.080000,1.020014,0.080000,25190759.384232,-1164906034.291399,1130993251.760984,-228449002.559151,-0.021756,0.021500,-0.004304
1.560000,-0.080000,0.940015,0.080000,41947877.123596,-2396938727.284811,2320308685.219316,-569521905.189615,-0.044727,0.044149,-0.010730
1.640000,-0.080000,0.860017,0.080000,74563445.140568,-5126349273.281491,4947826816.358939,-1415064537.025096,-0.095574,0.094229,-0.026661
1.720000,-0.080000,0.780019,0.080000,141206116.552571,-11377603012.018751,10949512770.823257,-3541782206.917954,-0.211941,0.208715,-0.066729
1.800000,-0.080000,0.700021,0.080000,283614595.825788,-26152492265.759399,25097948584.866707,-8969136959.946901,-0.486768,0.478820,-0.168984
1.880000,-0.080000,0.620023,0.080000,600727387.561266,-62106096784.697556,59443946893.764374,-23009037984.995510,-1.155068,1.135005,-0.433504
1.960000,-0.080000,0.540027,0.080000,1333962854.629483,-153801691883.065948,151138540661.824158,-61534140790.700783,-2.882660,2.862590,-1.159339
2.040000,-0.080000,0.460031,0.080000,3087982937.872827,-386283220409.493164,382925541395.013855,-157445274662.428741,-7.258822,7.233517,-2.966360
2.120000,-0.080000,0.380038,0.080000,7412087364.529899,-971431894362.069946,978479298558.029175,-421611967560.039490,-18.342173,18.395284,-7.943414
-2.120000,0.000000,0.380293,0.080000,-7395692507.803556,964453024031.732544,-971446789367.347534,-540581628224.221069,18.210384,-18.263091,-10.184871
-2.040000,0.000000,0.460242,0.080000,-3076819496.067348,385590130924.708191,-382262647326.467407,-204785586640.837463,7.245934,-7.220857,-3.858279
-1.960000,0.000000,0.540206,0.080000,-1321735896.800813,153976296927.242554,-151331120708.903595,-82354676453.951996,2.886052,-2.866117,-1.551610
-1.880000,0.000000,0.620180,0.080000,-588230129.253279,62216102348.420105,-59547616601.901733,-32311036429.990063,1.157105,-1.136994,-0.608759
-1.800000,0.000000,0.700159,0.080000,-271537265.195641,26170009037.617744,-25110880196.096577,-13437340379.218874,0.487072,-0.479090,-0.253167
-1.720000,0.000000,0.780143,0.080000,-129679515.236541,11360185764.835331,-10930273047.215931,-5780371383.042232,0.211603,-0.208363,-0.108906
-1.640000,0.000000,0.860130,0.080000,-63486479.142681,5104936824.825583,-4925944487.064417,-2579930407.611235,0.095168,-0.093819,-0.048607
-1.560000,0.000000,0.940118,0.080000,-31186759.098886,2381181897.126039,-2304552206.752662,-1198005126.357515,0.044430,-0.043852,-0.022571
-1.480000,0.000000,1.020109,0.080000,-14644925.376287,1155679032.478999,-1121873158.853218,-580317497.977029,0.021583,-0.021328,-0.010934
-1.400000,0.000000,1.100101,0.080000,-5725986.408732,585000590.039228,-569603758.669396,-294214156.060947,0.010935,-0.010819,-0.005543
-1.320000,0.000000,1.180094,0.080000,-653280.684328,309775156.434105,-302522869.761598,-156987156.125603,0.005795,-0.005741,-0.002958
-1.240000,0.000000,1.260088,0.080000,2389146.564992,172430367.883328,-168891944.344267,-89093775.656892,0.003229,-0.003202,-0.001679
-1.160000,0.000000,1.340083,0.080000,4304941.224445,101750255.517397,-99961106.789066,-54749006.218597,0.001907,-0.001893,-0.001032
-1.080000,0.000000,1.420078,0.080000,5557962.010311,64483478.173157,-63549435.681375,-37227274.558559,0.001210,-0.001203,-0.000701
-1.000000,0.000000,1.500074,0.080000,6392292.822445,44518727.199158,-44022627.623771,-28303189.697266,0.000836,-0.000832,-0.000533
-0.920000,0.000000,1.580070,0.080000,6938538.451240,33683282.055237,-33425160.412826,-23625451.097992,0.000633,-0.000631,-0.000445
-0.840000,0.000000,1.660067,0.080000,7267568.586149,27585123.103732,-27464598.103508,-20675879.817557,0.000519,-0.000518,-0.000390
-0.760000,0.000000,1.740064,0.080000,7419282.833279,23716161.402356,-23677535.295333,-17906040.807995,0.000447,-0.000446,-0.000337
-0.680000,0.000000,1.820061,0.080000,7418956.669882,20600381.930798,-20607040.773462,-14424081.246057,0.000388,-0.000388,-0.000272
-0.600000,0.000000,1.900059,0.080000,7286814.408731,17425868.621132,-17449603.219607,-9916831.613512,0.000328,-0.000329,-0.000187
-0.520000,0.000000,1.980056,0.080000,7043281.534163,13880331.664549,-13898777.009211,-4622663.127523,0.000262,-0.000262,-0.000087
-0.440000,0.000000,2.000021,0.080000,6711021.137935,10040757.179731,-10038865.353434,757575.755234,0.000189,-0.000189,0.000014
-0.360000,0.000000,2.000000,0.080000,6314486.422224,6243742.535547,-6216138.886606,5260641.938517,0.000117,-0.000117,0.000099
-0.280000,0.000000,2.000028,0.080000,5877825.142944,2919191.509366,-2870958.652723,7954912.884253,0.000055,-0.000054,0.000150
-0.200000,0.000000,2.000023,0.080000,5422191.269756,412612.750344,-357147.845873,8254201.021738,0.000007,-0.000007,0.000156
-0.120000,0.000000,2.000000,0.080000,4963583.776460,-1155485.911221,1201408.924330,6149077.391174,-0.000022,0.000022,0.000116
-0.040000,0.000000,2.000025,0.080000,4512095.760896,-1946636.489769,1969061.313518,2267715.695207,-0.000037,0.000037,0.000043
0.040000,0.000000,2.000025,0.080000,4072931.444442,-2357117.516761,2350074.522759,-2267632.524094,-0.000044,0.000044,-0.000043
0.120000,0.000000,2.000000,0.080000,3648894.538765,-2883742.961383,2851380.926977,-6149006.073191,-0.000054,0.000054,-0.000116
0.200000,0.000000,2.000023,0.080000,3243507.249867,-3953806.031853,3908656.473366,-8254150.334914,-0.000074,0.000074,-0.000156
0.280000,0.000000,2.000028,0.080000,2863694.758462,-5784141.682475,5742243.193148,-7954886.468106,-0.000109,0.000108,-0.000150
0.360000,0.000000,2.000000,0.080000,2521152.013146,-8322111.400518,8296938.506496,-5260637.831606,-0.000157,0.000156,-0.000099
0.440000,0.000000,2.000021,0.080000,2232022.322183,-11288791.363116,11286260.378201,-757587.480857,-0.000213,0.000213,-0.000014
0.520000,0.000000,1.980056,0.080000,2015157.723698,-14306625.465096,14322766.251463,4622644.554204,-0.000270,0.000270,0.000087
0.600000,0.000000,1.900059,0.080000,1889762.205000,-17067240.431803,17088760.702634,9916815.667303,-0.000322,0.000322,0.000187
0.680000,0.000000,1.820061,0.080000,1873474.605766,-19491476.922101,19497980.421945,14424076.704696,-0.000367,0.000367,0.000272
0.760000,0.000000,1.740064,0.080000,1981905.816366,-21854934.822212,21820459.735070,17906055.948698,-0.000412,0.000411,0.000337
0.840000,0.000000,1.660067,0.080000,2230438.509508,-24892736.979894,24783603.937799,20675924.295887,-0.000468,0.000468,0.000390
0.920000,0.000000,1.580070,0.080000,2638983.454586,-29950745.389335,29715848.175582,23625539.886060,-0.000563,0.000561,0.000445
1.000000,0.000000,1.500074,0.080000,3240708.698826,-39322239.914483,38869422.452287,28303350.180269,-0.000738,0.000735,0.000533
1.080000,0.000000,1.420078,0.080000,4096987.116267,-57031477.965375,56176616.901596,37227559.732333,-0.001070,0.001063,0.000701
1.160000,0.000000,1.340083,0.080000,5323758.061721,-90586903.979461,88944560.664663,54749520.992202,-0.001697,0.001685,0.001032
1.240000,0.000000,1.260088,0.080000,7140915.759313,-154837774.445869,151579177.023128,89094732.316299,-0.002899,0.002874,0.001679
1.320000,0.000000,1.180094,0.080000,9970305.202068,-280532004.441452,273831175.190447,156988996.017872,-0.005248,0.005197,0.002958
1.400000,0.000000,1.100101,0.080000,14639224.518041,-533729902.846475,519458407.336670,294217825.096931,-0.009975,0.009868,0.005543
1.480000,0.000000,1.020109,0.080000,22818850.686603,-1061016489.323941,1029587853.611369,580325088.786826,-0.019813,0.019576,0.010934
1.560000,0.000000,0.940118,0.080000,37999772.425145,-2197583470.656841,2126146298.111330,1198021418.330039,-0.041000,0.040462,0.022571
1.640000,0.000000,0.860130,0.080000,67728818.434959,-4732009732.638360,4564724645.623501,2579966665.952789,-0.088208,0.086948,0.048608
1.720000,0.000000,0.780143,0.080000,128885445.297088,-10569554163.150917,10166828195.942211,5780454996.170459,-0.196860,0.193825,0.108907
1.800000,0.000000,0.700159,0.080000,260461748.010461,-24426861423.748600,23432586790.231354,13437540000.837324,-0.454596,0.447103,0.253171
1.880000,0.000000,0.620180,0.080000,555272382.864948,-58234961132.687889,55724907859.741951,32311529498.193489,-1.082993,1.064077,0.608768
1.960000,0.000000,0.540206,0.080000,1240323535.315663,-144487145593.420105,141988487595.085175,82355976021.402740,-2.708099,2.689268,1.551634
2.040000,0.000000,0.460242,0.080000,2884186122.404523,-362630182624.529358,359486188779.172302,204788953568.600311,-6.814392,6.790699,3.858343
2.120000,0.000000,0.380293,0.080000,6939644056.829259,-908789466065.389648,915382191206.277588,540591090774.926392,-17.159384,17.209068,10.185050
-2.120000,0.080000,0.380038,0.080000,-7704551249.549136,1005076945328.621582,-1012365361606.132080,464937390069.943665,18.977428,-19.032355,8.759690
-2.040000,0.080000,0.460031,0.080000,-3214243355.877339,400461425479.457703,-396997545462.897034,174449487725.164307,7.525347,-7.499242,3.286729
-1.960000,0.080000,0.540027,0.080000,-1387827063.026201,159822665488.266266,-157074664187.800537,68576185911.001640,2.995619,-2.974910,1.292015
-1.880000,0.080000,0.620023,0.080000,-621934346.126199,64713567272.688858,-61954506512.487473,25847558331.099739,1.203646,-1.182854,0.486983
-1.800000,0.080000,0.700021,0.080000,-289516443.118097,27333708299.282307,-26238459440.768101,10174283662.157516,0.508792,-0.500538,0.191689
-1.720000,0.080000,0.780019,0.080000,-139639476.247295,11932885032.570892,-11487235064.628620,4068684351.038521,0.222304,-0.218945,0.076656
-1.640000,0.080000,0.860017,0.080000,-69200543.173202,5398030093.932783,-5211711623.777448,1653004957.468785,0.100649,-0.099245,0.031144
-1.560000,0.080000,0.940015,0.080000,-34579590.548141,2535675562.697480,-2455477227.393624,680789223.773254,0.047320,-0.046716,0.012826
-1.480000,0.080000,1.020014,0.080000,-16728652.518837,1239048223.800168,-1203449315.188426,282443361.214442,0.023143,-0.022875,0.005321
-1.400000,0.080000,1.100013,0.080000,-7045782.155809,630777935.698477,-614458676.107107,116141746.844608,0.011792,-0.011669,0.002188
-1.320000,0.080000,1.180012,0.080000,-1508051.031111,335092136.306751,-327353820.276988,45173191.935938,0.006270,-0.006211,0.000851
-1.240000,0.080000,1.260011,0.080000,1834263.421772,186268773.896435,-182464691.215508,13858504.838511,0.003488,-0.003459,0.000261
-1.160000,0.080000,1.340011,0.080000,3959687.990786,108995322.089390,-107050547.411644,-844737.773522,0.002043,-0.002028,-0.000016
-1.080000,0.080000,1.420010,0.080000,5374986.065596,67975619.453295,-66939445.086056,-8510149.095476,0.001275,-0.001267,-0.000160
-1.000000,0.080000,1.500010,0.080000,6348605.198298,46098709.742050,-45526918.317801,-12969150.678004,0.000865,-0.000861,-0.000244
-0.920000,0.080000,1.580009,0.080000,7023559.225525,34693086.442194,-34376248.006102,-15515940.267310,0.000652,-0.000649,-0.000292
-0.840000,0.080000,1.660009,0.080000,7474475.604803,29049625.705931,-28888486.549396,-16330778.070732,0.000546,-0.000545,-0.000308
-0.760000,0.080000,1.740008,0.080000,7738456.140075,26335726.677328,-26280582.357296,-15212603.461683,0.000496,-0.000495,-0.000287
-0.680000,0.080000,1.820008,0.080000,7833530.358478,24656940.429656,-24676422.316326,-12032309.151435,0.000465,-0.000465,-0.000227
-0.600000,0.080000,1.900008,0.080000,7770902.708827,22699832.458992,-22765290.446626,-7023836.477619,0.000428,-0.000429,-0.000132
-0.520000,0.080000,1.920032,0.080000,7563380.963552,19662421.904591,-19742560.464512,-909252.593410,0.000371,-0.000372,-0.000017
-0.440000,0.080000,1.920022,0.080000,7230496.050061,15285883.818766,-15348892.052085,5170339.935770,0.000288,-0.000289,0.000097
-0.360000,0.080000,1.920000,0.080000,6800156.946768,9855522.760835,-9875774.513389,9910106.400111,0.000186,-0.000186,0.000187
-0.280000,0.080000,1.920029,0.080000,6306862.568617,4091815.233807,-4057344.779517,12211633.697643,0.000077,-0.000077,0.000230
-0.200000,0.080000,1.920024,0.080000,5787173.001598,-1082371.038804,1165550.991860,11542925.817336,-0.000021,0.000021,0.000217
-0.120000,0.080000,1.920000,0.080000,5273911.149683,-4845710.171415,4955099.583712,8151416.520569,-0.000092,0.000093,0.000154
-0.040000,0.080000,1.920026,0.080000,4791005.232790,-6756276.522168,6860363.970449,3036747.645317,-0.000128,0.000129,0.000057
0.040000,0.080000,1.920026,0.080000,4350714.586864,-6903212.564835,6972427.207670,-2323584.636363,-0.000130,0.000131,-0.000044
0.120000,0.080000,1.920000,0.080000,3954188.612239,-5874166.859575,5891130.667936,-6407868.711170,-0.000111,0.000111,-0.000121
0.200000,0.080000,1.920024,0.080000,3595154.676717,-4550403.269710,4515471.953493,-8092717.246120,-0.000086,0.000085,-0.000152
0.280000,0.080000,1.920029,0.080000,3265451.929943,-3808657.713655,3738686.633896,-6951203.594186,-0.000071,0.000071,-0.000131
0.360000,0.080000,1.920000,0.080000,2960543.543401,-4243423.776750,4164518.335059,-3310864.345446,-0.000080,0.000079,-0.000062
0.440000,0.080000,1.920022,0.080000,2683266.077037,-6010743.946679,5948136.065841,1932147.707276,-0.000113,0.000112,0.000036
0.520000,0.080000,1.920032,0.080000,2444833.470340,-8842102.325183,8811170.345201,7660327.139496,-0.000166,0.000166,0.000144
0.600000,0.080000,1.900008,0.080000,2263177.733270,-12209799.518540,12211313.196985,12916337.291596,-0.000230,0.000230,0.000243
0.680000,0.080000,1.820008,0.080000,2159659.461486,-15573530.626623,15594007.023909,17203670.459652,-0.000294,0.000294,0.000324
0.760000,0.080000,1.740008,0.080000,2155695.766661,-18622970.177636,18638623.180692,20651046.579813,-0.000351,0.000351,0.000389
0.840000,0.080000,1.660009,0.080000,2270836.880056,-21456695.783300,21437814.752689,24067796.247939,-0.000404,0.000404,0.000453
0.920000,0.080000,1.580009,0.080000,2523434.440024,-24691487.719121,24603543.107889,29000005.330363,-0.000465,0.000464,0.000546
1.000000,0.080000,1.500010,0.080000,2934621.492311,-29559933.507924,29357804.564957,37977663.842494,-0.000556,0.000554,0.000716
1.080000,0.080000,1.420010,0.080000,3536271.866599,-38118700.721503,37729929.783555,55259440.435674,-0.000716,0.000713,0.001041
1.160000,0.080000,1.340011,0.080000,4384341.296658,-53766643.243202,53056688.011677,88639040.626304,-0.001009,0.001004,0.001670
1.240000,0.080000,1.260011,0.080000,5581021.685073,-82406176.363820,81110498.111076,153513465.182768,-0.001545,0.001535,0.002892
1.320000,0.080000,1.180012,0.080000,7313355.965101,-134869049.783551,132458690.080020,281980689.353257,-0.002527,0.002509,0.005313
1.400000,0.080000,1.100013,0.080000,9924269.804751,-231855069.392029,227264462.398475,543582140.755768,-0.004342,0.004308,0.010241
1.480000,0.080000,1.020014,0.080000,14048519.290427,-413964013.240715,405032668.096980,1093860853.445772,-0.007749,0.007682,0.020609
1.560000,0.080000,0.940015,0.080000,20879600.419642,-762152760.626119,744479192.359781,2291068536.616654,-0.014260,0.014126,0.043165
1.640000,0.080000,0.860017,0.080000,32702295.908577,-1439479113.708052,1404094396.238406,4983606795.460121,-0.026921,0.026654,0.093894
1.720000,0.080000,0.780019,0.080000,53965446.743838,-2775655675.777042,2704419647.451030,11233897971.094263,-0.051892,0.051355,0.211653
1.800000,0.080000,0.700021,0.080000,93450113.143523,-5435066210.967055,5291975331.897510,26177825951.227207,-0.101591,0.100513,0.493205
1.880000,0.080000,0.620023,0.080000,168632724.385186,-10738716247.385443,10454837177.178366,62883320219.073929,-0.200719,0.198580,1.184758
1.960000,0.080000,0.540027,0.080000,314339212.150022,-21424496099.026627,21300781553.328835,159539361211.710358,-0.402951,0.402018,3.005814
2.040000,0.080000,0.460031,0.080000,599426608.398667,-42030440909.500618,41887244392.548920,393954769313.851013,-0.791069,0.789989,7.422336
2.120000,0.080000,0.380038,0.080000,1157396551.279124,-79989541242.758835,80532507990.204788,1029773184263.867188,-1.510118,1.514210,19.401524
-2.120000,0.160000,0.380023,0.080000,-2145784814.228968,191135703746.769287,-192474326661.016571,1065388591563.143433,3.608674,-3.618762,20.072539
-2.040000,0.160000,0.460019,0.080000,-1054059149.893127,86721153633.973312,-86237192810.193008,402984948228.245728,1.631141,-1.627494,7.592470
-1.960000,0.160000,0.540016,0.080000,-532790927.693891,40372109477.715881,-39984796792.125313,161212111735.040466,0.758445,-0.755526,3.037330
-1.880000,0.160000,0.620014,0.080000,-276146302.734879,19216645196.740124,-18647831827.541573,62570599375.018822,0.358838,-0.354551,1.178866
-1.800000,0.160000,0.700012,0.080000,-146305672.988235,9468689888.443516,-9204136970.799294,25590266591.703236,0.176900,-0.174907,0.482135
-1.720000,0.160000,0.780011,0.080000,-78813282.733795,4773799324.530927,-4647818768.767920,10744920426.615597,0.089229,-0.088280,0.202441
-1.640000,0.160000,0.860010,0.080000,-42698093.447173,2463292640.971188,-2402159882.060531,4639044832.376863,0.046064,-0.045604,0.087402
-1.560000,0.160000,0.940009,0.080000,-22745789.046185,1302722737.735552,-1272534220.289930,2061331982.408612,0.024373,-0.024146,0.038837
-1.480000,0.160000,1.020009,0.080000,-11326448.500974,707317295.936227,-692138287.226666,942677676.677871,0.013240,-0.013126,0.017761
-1.400000,0.160000,1.100008,0.080000,-4531861.029185,394876849.100211,-387092318.247096,442883982.059970,0.007396,-0.007337,0.008344
-1.320000,0.160000,1.180007,0.080000,-314509.059896,226950780.430241,-222865539.609561,212426310.852897,0.004253,-0.004222,0.004002
-1.240000,0.160000,1.260007,0.080000,2424211.882064,134535284.827240,-132327899.228678,102171603.192732,0.002522,-0.002506,0.001925
-1.160000,0.160000,1.340007,0.080000,4287842.392981,82722804.277418,-81481779.981084,46870630.417093,0.001552,-0.001542,0.000883
-1.080000,0.160000,1.420006,0.080000,5614181.568581,53602040.107113,-52867481.966115,17380907.319220,0.001006,-0.001000,0.000327
-1.000000,0.160000,1.500006,0.080000,6592842.465795,37808414.861893,-37351616.624134,622064.193618,0.000710,-0.000706,0.000012
-0.920000,0.160000,1.580006,0.080000,7326674.092009,30224526.094890,-29938961.504629,-9081290.657036,0.000568,-0.000566,-0.000171
-0.840000,0.160000,1.660005,0.080000,7865294.687233,27725935.891886,-27569014.843145,-13934642.113709,0.000521,-0.000520,-0.000263
-0.760000,0.160000,1.740005,0.080000,8225495.574287,28009463.879485,-27966688.741149,-14646312.939805,0.000527,-0.000527,-0.000276
-0.680000,0.160000,1.820005,0.080000,8406162.018807,29074474.513723,-29134599.323048,-11555672.503363,0.000548,-0.000549,-0.000218
-0.600000,0.160000,1.840000,0.080000,8401103.069265,29145728.937387,-29284639.038218,-5312315.700473,0.000550,-0.000551,-0.000100
-0.520000,0.160000,1.840033,0.080000,8210339.320757,26877718.549384,-27052587.647894,2808371.244858,0.000507,-0.000509,0.000053
-0.440000,0.160000,1.840023,0.080000,7848603.838556,21661156.703832,-21816054.316131,10957542.972520,0.000409,-0.000410,0.000206
-0.360000,0.160000,1.840000,0.080000,7349164.006674,13836599.825887,-13917472.741375,17096524.525309,0.000261,-0.000262,0.000322
-0.280000,0.160000,1.840030,0.080000,6761653.705623,4657288.035825,-4630324.925768,19575631.578746,0.000088,-0.000087,0.000369
-0.200000,0.160000,1.840025,0.080000,6144174.168534,-4055166.788386,4189882.973720,17687196.820433,-0.000077,0.000078,0.000333
-0.120000,0.160000,1.840000,0.080000,5551839.013931,-10482714.652543,10689033.195483,11961320.849207,-0.000199,0.000200,0.000225
-0.040000,0.160000,1.840028,0.080000,5025355.080154,-13417782.222625,13634933.021265,4059074.869669,-0.000254,0.000256,0.000076
0.040000,0.160000,1.840028,0.080000,4583441.657027,-12677002.361152,12840838.249251,-3726296.156161,-0.000240,0.000241,-0.000070
0.120000,0.160000,1.840000,0.080000,4221677.251402,-9157916.250688,9223620.955279,-9189412.169747,-0.000173,0.000173,-0.000173
0.200000,0.160000,1.840025,0.080000,3918127.989487,-4514280.424237,4471408.174301,-10890627.634631,-0.000085,0.000084,-0.000205
0.280000,0.160000,1.840030,0.080000,3643725.611725,-578497.165359,452539.375704,-8545836.549167,-0.000010,0.000009,-0.000161
0.360000,0.160000,1.840000,0.080000,3373779.410891,1243063.328084,-1402522.314395,-3001537.326533,0.000024,-0.000026,-0.000057
0.440000,0.160000,1.840023,0.080000,3096832.577566,376871.692558,-515752.843572,4165979.377124,0.000008,-0.000009,0.000078
0.520000,0.160000,1.840033,0.080000,2818305.825951,-2839390.599304,2760721.942640,11251204.140991,-0.000053,0.000052,0.000212
0.600000,0.160000,1.840000,0.080000,2558422.709084,-7396709.037206,7392451.551742,16992183.140918,-0.000139,0.000139,0.000320
0.680000,0.160000,1.820005,0.080000,2345904.110540,-12040288.813108,12099360.716816,20937002.773211,-0.000227,0.000228,0.000394
0.760000,0.160000,1.740005,0.080000,2210088.513483,-15693721.911774,15789495.644375,23544639.127136,-0.000296,0.000297,0.000444
0.840000,0.160000,1.660005,0.080000,2174135.053405,-17719490.021917,17824530.850413,26095450.773201,-0.000334,0.000335,0.000492
0.920000,0.160000,1.580006,0.080000,2250945.906521,-17927898.814187,18029407.726797,30590359.776264,-0.000338,0.000339,0.000576
1.000000,0.160000,1.500006,0.080000,2441859.138238,-16314402.104721,16430003.455513,39880906.491771,-0.000308,0.000309,0.000751
1.080000,0.160000,1.420006,0.080000,2736424.086105,-12501687.182470,12703067.182108,58337399.681409,-0.000237,0.000238,0.001099
1.160000,0.160000,1.340007,0.080000,3109629.579102,-4712532.276627,5178900.772290,93534205.784218,-0.000091,0.000095,0.001762
1.240000,0.160000,1.260007,0.080000,3509801.946639,12333109.720967,-11178506.429218,159908898.639570,0.000226,-0.000217,0.003013
1.320000,0.160000,1.180007,0.080000,3823136.987745,52264710.984538,-49404368.923008,286538880.540995,0.000969,-0.000947,0.005399
1.400000,0.160000,1.100008,0.080000,3782357.100237,148958266.703360,-141883135.760874,533989485.078965,0.002766,-0.002713,0.010061
1.480000,0.160000,1.020009,0.080000,2739511.302155,386582430.354072,-368973609.258185,1031830838.645991,0.007184,-0.007051,0.019440
1.560000,0.160000,0.940009,0.080000,-899418.088715,976807041.007742,-932465051.766914,2064385298.429550,0.018153,-0.017819,0.038894
1.640000,0.160000,0.860010,0.080000,-11098898.497043,2460206199.381104,-2346927971.161145,4271416049.625989,0.045711,-0.044858,0.080476
1.720000,0.160000,0.780011,0.080000,-37837938.029636,6239111500.191555,-5945316771.713280,9128369986.526114,0.115888,-0.113674,0.171984
1.800000,0.160000,0.700012,0.080000,-106579202.136853,16005446943.032827,-15232247661.056932,20120197767.472683,0.297182,-0.291355,0.379076
1.880000,0.160000,0.620014,0.080000,-283235626.972423,41607413938.539856,-39545449749.253502,45669475745.936325,0.772253,-0.756714,0.860439
1.960000,0.160000,0.540016,0.080000,-740850786.794358,111067498730.668991,-108789283164.706680,109227537056.441940,2.079699,-2.062530,2.057910
2.040000,0.160000,0.460019,0.080000,-1939568519.911237,295948193761.469482,-293065985690.171692,256063913760.371368,5.559545,-5.537824,4.824393
2.120000,0.160000,0.380023,0.080000,-5116024915.897610,778421532871.849976,-784123964669.857422,637177563074.603394,14.698144,-14.741119,12.004795
-2.120000,0.240000,0.380248,0.080000,4548089096.942508,-754143319130.329224,759696720679.744751,736030852314.673218,-14.239886,14.281738,13.867248
-2.040000,0.240000,0.460205,0.080000,1617847045.363488,-279829900334.882874,276939809518.971802,289776189363.754517,-5.255822,5.234042,5.459551
-1.960000,0.240000,0.540175,0.080000,562224574.724072,-101412580911.079391,99132239341.282715,121832100218.264236,-1.897783,1.880598,2.295387
-1.880000,0.240000,0.620152,0.080000,185508048.030792,-36146266291.441017,34184516287.622349,50325346473.250511,-0.669928,0.655144,0.948159
-1.800000,0.240000,0.700135,0.080000,54207523.904487,-12965541898.384600,12252573056.293751,21947724532.831123,-0.240249,0.234875,0.413508
-1.720000,0.240000,0.780121,0.080000,10998937.375497,-4556122873.751287,4296246105.602411,9849233217.248644,-0.084371,0.082413,0.185565
-1.640000,0.240000,0.860110,0.080000,-1189647.930712,-1523664918.585375,1428933560.392929,4547465972.421637,-0.028171,0.027457,0.085677
-1.560000,0.240000,0.940100,0.080000,-2949169.122980,-449592334.986092,415278903.668502,2160041505.467400,-0.008277,0.008018,0.040696
-1.480000,0.240000,1.020092,0.080000,-1585710.071541,-85519929.799786,73326772.337423,1055257225.076746,-0.001542,0.001450,0.019882
-1.400000,0.240000,1.100086,0.080000,412719.830461,25062064.646347,-29197841.574923,529563011.950901,0.000496,-0.000527,0.009977
-1.320000,0.240000,1.180080,0.080000,2280852.635005,48523445.257225,-49766437.518726,271814837.695567,0.000921,-0.000931,0.005121
-1.240000,0.240000,1.260075,0.080000,3847809.926627,44813804.153744,-45044913.963268,140881743.462685,0.000846,-0.000847,0.002654
-1.160000,0.240000,1.340070,0.080000,5130027.142868,35078435.090674,-34967505.415052,71176281.813300,0.000660,-0.000659,0.001341
-1.080000,0.240000,1.420066,0.080000,6187308.831752,26557501.416460,-26336634.379328,31660697.121145,0.000499,-0.000497,0.000597
-1.000000,0.240000,1.500063,0.080000,7073369.613176,21612879.693730,-21368614.803909,7688687.847632,0.000406,-0.000404,0.000145
-0.920000,0.240000,1.580060,0.080000,7819661.233307,20790362.711662,-20572969.932274,-7267388.585397,0.000390,-0.000389,-0.000137
-0.840000,0.240000,1.660057,0.080000,8431593.346669,23658455.598122,-23516148.561073,-15629775.063812,0.000445,-0.000444,-0.000294
-0.760000,0.240000,1.740054,0.080000,8891257.173247,28931299.337083,-28909387.881403,-17943763.847231,0.000545,-0.000545,-0.000338
-0.680000,0.240000,1.760021,0.080000,9165628.392796,34554421.563072,-34678282.334952,-14346537.868906,0.000652,-0.000653,-0.000270
-0.600000,0.240000,1.760000,0.080000,9219593.378208,38056345.758620,-38312522.835916,-5583470.161257,0.000718,-0.000720,-0.000105
-0.520000,0.240000,1.760034,0.080000,9031533.264048,37207374.606342,-37535577.885048,6459967.790839,0.000703,-0.000705,0.000122
-0.440000,0.240000,1.760024,0.080000,8607313.308104,30805804.311679,-31109949.012223,18820408.779743,0.000582,-0.000584,0.000355
-0.360000,0.240000,1.760000,0.080000,7987759.288841,19274101.921842,-19451888.936426,28107421.754649,0.000364,-0.000365,0.000530
-0.280000,0.240000,1.760032,0.080000,7245916.429501,4756482.043358,-4737372.709916,31525488.311455,0.000090,-0.000089,0.000594
-0.200000,0.240000,1.760026,0.080000,6473516.773129,-9420326.098496,9644751.535231,27869162.568555,-0.000179,0.000180,0.000525
-0.120000,0.240000,1.760000,0.080000,5760060.542528,-19793573.718211,20161383.418121,18059607.106330,-0.000375,0.000378,0.000340
-0.040000,0.240000,1.760029,0.080000,5171076.423152,-23946711.138562,24345133.479028,4948615.949828,-0.000453,0.000456,0.000093
0.040000,0.240000,1.760029,0.080000,4732960.568337,-21362684.934072,21668640.033444,-7587535.915271,-0.000404,0.000407,-0.000143
0.120000,0.240000,1.760000,0.080000,4429729.330814,-13596733.723775,13721882.884701,-15937865.196443,-0.000257,0.000258,-0.000300
0.200000,0.240000,1.760026,0.080000,4212764.500694,-3693285.437489,3614833.974616,-17934159.672743,-0.000069,0.000069,-0.000338
0.280000,0.240000,1.760032,0.080000,4019904.645392,4914581.875298,-5149632.100407,-13467427.984192,0.000094,-0.000096,-0.000254
0.360000,0.240000,1.760000,0.080000,3796998.339817,9578669.369979,-9876135.995845,-4335915.738460,0.000182,-0.000184,-0.000082
0.440000,0.240000,1.760024,0.080000,3514569.795105,9231885.836131,-9488599.215550,6562408.001566,0.000175,-0.000177,0.000124
0.520000,0.240000,1.760034,0.080000,3174594.322297,4545148.136933,-4685672.905986,16329429.165878,0.000086,-0.000087,0.000308
0.600000,0.240000,1.760000,0.080000,2806370.463450,-2532060.162143,2534880.427553,23021817.528886,-0.000048,0.000048,0.000434
0.680000,0.240000,1.760021,0.080000,2454332.002773,-9577728.155043,9704617.533979,26145003.890190,-0.000181,0.000182,0.000493
0.760000,0.240000,1.740054,0.080000,2162824.010870,-14474365.897958,14680296.486342,26608965.396287,-0.000274,0.000275,0.000501
0.840000,0.240000,1.660057,0.080000,1962702.667436,-15838059.962857,16082271.086452,26306512.867276,-0.000300,0.000302,0.000496
0.920000,0.240000,1.580060,0.080000,1862447.672956,-12935240.603611,13211976.181175,27611990.063465,-0.000245,0.000247,0.000520
1.000000,0.240000,1.500063,0.080000,1843247.211655,-5060122.146450,5429389.773632,33102535.900348,-0.000097,0.000100,0.000624
1.080000,0.240000,1.420066,0.080000,1854063.448441,9657570.908178,-9025608.439796,45716717.372914,0.000178,-0.000174,0.000861
1.160000,0.240000,1.340070,0.080000,1798948.333182,36309116.866461,-35039165.669832,69468063.492996,0.000677,-0.000667,0.001309
1.240000,0.240000,1.260075,0.080000,1503101.695193,87130961.817505,-84414538.581584,110791135.696967,0.001626,-0.001606,0.002087
1.320000,0.240000,1.180080,0.080000,631653.621659,189906729.792587,-183952819.536889,180603759.574615,0.003544,-0.003499,0.003403
1.400000,0.240000,1.100086,0.080000,-1494792.124010,407176942.369718,-393889831.796820,297018505.836984,0.007596,-0.007496,0.005596
1.480000,0.240000,1.020092,0.080000,-6316104.052519,881600649.232683,-851363153.385558,487608772.427106,0.016439,-0.016211,0.009187
1.560000,0.240000,0.940100,0.080000,-16983485.834501,1945375622.823783,-1875088231.831710,785937469.704450,0.036255,-0.035725,0.014808
1.640000,0.240000,0.860110,0.080000,-40578621.681627,4389320526.551016,-4222330706.488431,1202560853.160897,0.081753,-0.080495,0.022657
1.720000,0.240000,0.780121,0.080000,-93408254.931922,10137332067.428806,-9731904600.519899,1604186289.516990,0.188702,-0.185646,0.030224
1.800000,0.240000,0.700135,0.080000,-213913074.085363,23968668491.529484,-22963390506.651234,1291143388.562583,0.445902,-0.438326,0.024326
1.880000,0.240000,0.620152,0.080000,-494804177.263239,57994428811.412224,-55450978906.787354,-2367122330.893741,1.078273,-1.059105,-0.044598
1.960000,0.240000,0.540175,0.080000,-1164667724.002574,145263966515.675720,-142713169836.477142,-19276443850.154850,2.722440,-2.703216,-0.363179
2.040000,0.240000,0.460205,0.080000,-2799066578.662205,367022370251.504761,-363813704796.161743,-74512815855.073776,6.896778,-6.872597,-1.403865
2.120000,0.240000,0.380248,0.080000,-6875967709.192548,925741845479.029907,-932467040906.049438,-258206128301.191559,17.479525,-17.530208,-4.864753
-2.120000,0.320000,0.380057,0.080000,6884038923.417826,-986885400814.499756,994084917813.511475,-204006510057.450073,-18.634186,18.688443,-3.843601
-2.040000,0.320000,0.460047,0.080000,2711143312.947530,-381754376532.043640,378247075963.249634,-49856796712.987312,-7.172650,7.146218,-0.939331
-1.960000,0.320000,0.540040,0.080000,1085514877.571987,-147343137601.794586,144567112938.009766,-7288095171.376879,-2.760340,2.739419,-0.137312
-1.880000,0.320000,0.620035,0.080000,440587997.236043,-57251755626.523056,54613445761.486946,3340846366.631151,-1.063744,1.043861,0.062943
-1.800000,0.320000,0.700031,0.080000,180740995.591260,-22948785675.332527,21927319586.671177,4074167641.140770,-0.426595,0.418897,0.076760
-1.720000,0.320000,0.780028,0.080000,74931321.899168,-9349250583.839890,8945947800.683033,2964985627.339327,-0.173866,0.170826,0.055862
-1.640000,0.320000,0.860025,0.080000,31762155.309767,-3857791383.702429,3695533894.492962,1868909317.087175,-0.071766,0.070543,0.035211
-1.560000,0.320000,0.940023,0.080000,14402645.267966,-1603590419.307158,1537142111.059737,1112107794.096334,-0.029837,0.029336,0.020953
-1.480000,0.320000,1.020021,0.080000,7761395.182237,-665846701.737174,638184116.633379,646641614.977463,-0.012389,0.012180,0.012183
-1.400000,0.320000,1.100020,0.080000,5569864.442733,-272669465.993316,260985261.835938,373543863.724220,-0.005071,0.004983,0.007038
-1.320000,0.320000,1.180018,0.080000,5202492.862723,-108204488.058977,103220770.163435,215678755.235577,-0.002010,0.001973,0.004064
-1.240000,0.320000,1.260017,0.080000,5561196.113948,-40828157.616792,38718537.712428,123563574.604921,-0.000757,0.000741,0.002328
-1.160000,0.320000,1.340016,0.080000,6195375.545450,-14453063.777976,13624236.482071,67780785.258644,-0.000268,0.000261,0.001277
-1.080000,0.320000,1.420015,0.080000,6927665.049204,-4313387.997937,4091373.803834,31645356.219743,-0.000080,0.000078,0.000596
-1.000000,0.320000,1.500014,0.080000,7689164.789865,1148881.553342,-1071667.306309,6380452.015107,0.000021,-0.000021,0.000120
-0.920000,0.320000,1.580014,0.080000,8442969.087796,7522631.421041,-7324601.016894,-11752157.518617,0.000141,-0.000139,-0.000221
-0.840000,0.320000,1.660013,0.080000,9147497.542079,17049484.385172,-16873254.772377,-23316256.406035,0.000320,-0.000319,-0.000439
-0.760000,0.320000,1.680039,0.080000,9741881.373015,29423669.463085,-29393720.442026,-27266913.493425,0.000554,-0.000554,-0.000514
-0.680000,0.320000,1.680022,0.080000,10147789.735528,42191567.425732,-42391036.367819,-22510426.262293,0.000796,-0.000798,-0.000424
-0.600000,0.320000,1.680000,0.080000,10284876.445636,51494493.058512,-51930074.209681,-9332176.669324,0.000973,-0.000976,-0.000176
-0.520000,0.320000,1.680036,0.080000,10095014.228868,53375084.043682,-53957938.176180,9712059.209504,0.001009,-0.001013,0.000183
-0.440000,0.320000,1.680025,0.080000,9567047.975082,45386686.959162,-45949192.014179,29856383.209729,0.000858,-0.000863,0.000563
-0.360000,0.320000,1.680000,0.080000,8751980.287675,27910027.355141,-28260770.758649,45265854.783509,0.000528,-0.000530,0.000853
-0.280000,0.320000,1.680033,0.080000,7760391.542657,4541827.129963,-4540538.870994,50926124.469284,0.000086,-0.000086,0.000959
-0.200000,0.320000,1.680027,0.080000,6739726.993488,-18773153.992991,19152673.130547,44547515.090730,-0.000356,0.000359,0.000839
-0.120000,0.320000,1.680000,0.080000,5836934.047943,-35661528.897950,36310856.206159,27641657.630237,-0.000676,0.000680,0.000521
-0.040000,0.320000,1.680030,0.080000,5158479.840835,-41580891.310637,42291742.449555,5215725.841739,-0.000787,0.000793,0.000098
0.040000,0.320000,1.680030,0.080000,4741878.772162,-35493981.463230,36035900.282129,-15891961.575836,-0.000672,0.000676,-0.000299
0.120000,0.320000,1.680000,0.080000,4549187.076644,-20239872.621152,20447976.189241,-29406645.554495,-0.000383,0.000384,-0.000554
0.200000,0.320000,1.680027,0.080000,4484779.668158,-1434379.422134,1269231.445462,-31778153.804696,-0.000026,0.000025,-0.000599
0.280000,0.320000,1.680033,0.080000,4430539.087434,14634272.562959,-15079481.270903,-23245578.677881,0.000278,-0.000282,-0.000438
0.360000,0.320000,1.680000,0.080000,4285304.933020,23233265.209557,-23778471.386503,-7432434.377592,0.000441,-0.000445,-0.000140
0.440000,0.320000,1.680025,0.080000,3994643.176660,22650122.171423,-23103706.395251,10263385.635027,0.000429,-0.000433,0.000193
0.520000,0.320000,1.680036,0.080000,3561736.861365,14397758.123249,-14626867.459640,24739980.142127,0.000273,-0.000274,0.000466
0.600000,0.320000,1.680000,0.080000,3038055.570475,2239743.025487,-2206821.766161,32865942.957908,0.000042,-0.000042,0.000619
0.680000,0.320000,1.680022,0.080000,2499838.981043,-9401490.503266,9646504.168584,34178221.454598,-0.000179,0.000180,0.000644
0.760000,0.320000,1.680039,0.080000,2020315.902120,-16911410.977976,17273430.326052,30513258.328296,-0.000321,0.000323,0.000575
0.840000,0.320000,1.660013,0.080000,1646838.801842,-18242427.987920,18636349.884760,24930738.646408,-0.000346,0.000349,0.000470
0.920000,0.320000,1.580014,0.080000,1387714.448212,-12741636.659549,13140053.420652,20493173.003940,-0.000242,0.000245,0.000386
1.000000,0.320000,1.500014,0.080000,1207670.759408,-156444.428288,623004.569388,19362293.803356,-0.000006,0.000009,0.000365
1.080000,0.320000,1.420015,0.080000,1025676.846887,20965395.918278,-20244699.460602,22342260.777216,0.000391,-0.000385,0.000421
1.160000,0.320000,1.340016,0.080000,704877.672300,55489682.756466,-54143910.830305,28555947.129197,0.001038,-0.001028,0.000538
1.240000,0.320000,1.260017,0.080000,20263.153671,115136332.686530,-112455493.281516,34379743.322442,0.002154,-0.002134,0.000648
1.320000,0.320000,1.180018,0.080000,-1418545.638269,224869724.147971,-219449416.344321,29746933.581471,0.004206,-0.004165,0.000560
1.400000,0.320000,1.100020,0.080000,-4331601.849519,436022345.344653,-424987423.648128,-12602900.879612,0.008153,-0.008069,-0.000237
1.480000,0.320000,1.020021,0.080000,-10106765.458833,854088511.152879,-831430927.847689,-166203256.155062,0.015963,-0.015793,-0.003131
1.560000,0.320000,0.940023,0.080000,-21495317.901917,1697903300.187637,-1650940297.113560,-628120541.388418,0.031724,-0.031370,-0.011834
1.640000,0.320000,0.860025,0.080000,-44056039.166641,3425629753.782209,-3327477348.511143,-1924611155.420249,0.063986,-0.063246,-0.036261
1.720000,0.320000,0.780028,0.080000,-89179957.472618,7002513253.288682,-6796182043.579575,-5462856943.906621,0.130765,-0.129210,-0.102923
1.800000,0.320000,0.700031,0.080000,-180463890.528911,14468090031.922234,-14033142940.616646,-15025160439.947531,0.270129,-0.266851,-0.283083
1.880000,0.320000,0.620035,0.080000,-367177479.752064,30133961231.414974,-29216901215.487061,-40854726058.911377,0.562558,-0.555647,-0.769727
1.960000,0.320000,0.540040,0.080000,-752735340.320440,63720324441.620827,-63173336648.855576,-114522087132.934586,1.197436,-1.193314,-2.157663
2.040000,0.320000,0.460047,0.080000,-1554976367.818802,134154738100.799545,-133498672826.523712,-304250724063.260498,2.523845,-2.518901,-5.732260
2.120000,0.320000,0.380057,0.080000,-3234946611.065010,280706090553.830505,-282662096531.976074,-846868662810.811401,5.299721,-5.314462,-15.955497
-2.120000,0.400000,0.380012,0.080000,3489854037.900508,-331921089368.762878,334254872049.094482,-873163162802.515747,-6.266777,6.284365,-16.450900
-2.040000,0.400000,0.460010,0.080000,1628107323.383069,-152134496085.231842,151302633147.956268,-302417548195.924744,-2.861600,2.855331,-5.697722
-1.960000,0.400000,0.540008,0.080000,765550220.293689,-70100679196.935440,69414253005.844269,-109345787073.184219,-1.316858,1.311685,-2.060138
-1.880000,0.400000,0.620007,0.080000,362517566.813326,-32325206940.557877,31286022896.903957,-36947355145.725281,-0.603152,0.595320,-0.696110
-1.800000,0.400000,0.700006,0.080000,173252592.893424,-15146228365.008148,14664264527.402687,-12660545573.094627,-0.282640,0.279007,-0.238532
-1.720000,0.400000,0.780006,0.080000,84091964.561123,-7133631970.207703,6909175436.269746,-4128990766.565412,-0.133133,0.131442,-0.077793
-1.640000,0.400000,0.860005,0.080000,42057491.398309,-3377096015.714797,3272202988.190429,-1192911606.455937,-0.063034,0.062243,-0.022475
-1.560000,0.400000,0.940005,0.080000,22322842.986320,-1606644770.075372,1557391416.355156,-230302086.106521,-0.029992,0.029621,-0.004339
-1.480000,0.400000,1.020004,0.080000,13192683.753793,-767681841.589835,744392117.395522,50651623.638555,-0.014332,0.014156,0.000954
-1.400000,0.400000,1.100004,0.080000,9127724.155875,-368522658.769031,357403479.576451,107120712.128747,-0.006880,0.006797,0.002018
-1.320000,0.400000,1.180004,0.080000,7493756.672561,-178893209.882451,173528545.366657,97087885.548170,-0.003340,0.003300,0.001829
-1.240000,0.400000,1.260004,0.080000,7039571.409588,-90061218.520612,87474598.368862,71955939.591433,-0.001682,0.001663,0.001356
-1.160000,0.400000,1.340003,0.080000,7178551.981687,-49686056.233295,48509882.655008,46000909.883953,-0.000929,0.000921,0.000867
-1.080000,0.400000,1.420003,0.080000,7643171.928428,-31387951.655897,30995157.932276,21572821.345999,-0.000589,0.000586,0.000406
-1.000000,0.400000,1.500003,0.080000,8311316.621844,-20739540.276408,20814138.554501,-1537119.243103,-0.000391,0.000392,-0.000029
-0.920000,0.400000,1.580003,0.080000,9111891.593765,-9314568.396165,9633757.875758,-22535259.024743,-0.000177,0.000180,-0.000425
-0.840000,0.400000,1.600001,0.080000,9970244.613150,7223148.919657,-6883859.937223,-38610202.752830,0.000134,-0.000132,-0.000727
-0.760000,0.400000,1.600041,0.080000,10780381.011319,29269978.754010,-29142185.676024,-45541867.575562,0.000551,-0.000550,-0.000858
-0.680000,0.400000,1.600023,0.080000,11402450.284577,53266991.410489,-53531586.671844,-39502446.386965,0.001005,-0.001007,-0.000744
-0.600000,0.400000,1.600000,0.080000,11685211.979516,72614631.585479,-73321160.405973,-19347779.151383,0.001372,-0.001377,-0.000365
-0.520000,0.400000,1.600038,0.080000,11507483.203945,79910431.910382,-80925269.945374,11662854.634935,0.001511,-0.001519,0.000220
-0.440000,0.400000,1.600026,0.080000,10824415.333839,70029647.828049,-71055385.437288,45762930.016347,0.001325,-0.001333,0.000862
-0.360000,0.400000,1.600000,0.080000,9699309.191300,42860828.214828,-43536217.574396,72652114.277153,0.000811,-0.000816,0.001369
-0.280000,0.400000,1.600035,0.080000,8303944.080730,4356043.348941,-4402603.948079,83040738.800552,0.000082,-0.000083,0.001565
-0.200000,0.400000,1.600029,0.080000,6880979.636526,-34875129.044073,35524327.994812,72376753.262295,-0.000661,0.000666,0.001364
-0.120000,0.400000,1.600000,0.080000,5677322.571557,-63121877.008732,64274952.622644,43071100.845433,-0.001196,0.001204,0.000811
-0.040000,0.400000,1.600032,0.080000,4870729.602030,-71911714.398111,73181228.141873,4063620.154837,-0.001362,0.001372,0.000077
0.040000,0.400000,1.600032,0.080000,4516756.551696,-59285435.447761,60238932.237732,-32276622.134828,-0.001122,0.001130,-0.000608
0.120000,0.400000,1.600000,0.080000,4536489.531762,-30549901.923025,30881593.821123,-54694446.345163,-0.000577,0.000580,-0.001030
0.200000,0.400000,1.600029,0.080000,4749749.130530,3843942.941258,-4197322.338097,-57126383.045554,0.000074,-0.000077,-0.001076
0.280000,0.400000,1.600035,0.080000,4940521.933649,32365167.680459,-33214204.157309,-40613382.473919,0.000615,-0.000621,-0.000765
0.360000,0.400000,1.600000,0.080000,4929243.360932,46642943.882375,-47640097.656357,-12349751.558529,0.000884,-0.000892,-0.000233
0.440000,0.400000,1.600026,0.080000,4625423.308999,44130751.876798,-44920451.358591,17541836.877334,0.000836,-0.000842,0.000330
0.520000,0.400000,1.600038,0.080000,4043896.415984,28261416.898193,-28615046.686224,39977958.762007,0.000534,-0.000537,0.000753
0.600000,0.400000,1.600000,0.080000,3283613.433992,6338437.955662,-6217741.178758,49927718.843083,0.000119,-0.000118,0.000941
0.680000,0.400000,1.600023,0.080000,2482039.240827,-13645443.084066,14113480.263449,47395958.972902,-0.000260,0.000263,0.000893
0.760000,0.400000,1.600041,0.080000,1764987.665424,-25783270.275131,26394653.780976,36324997.647146,-0.000489,0.000494,0.000684
0.840000,0.400000,1.600001,0.080000,1209275.391476,-27561047.788062,28137309.010998,22245236.646946,-0.000523,0.000527,0.000419
0.920000,0.400000,1.580003,0.080000,826476.140349,-19446622.103881,19907374.890380,9835186.349758,-0.000369,0.000372,0.000185
1.000000,0.400000,1.500003,0.080000,565324.472203,-3249407.486179,3636123.851681,1247397.422474,-0.000063,0.000066,0.000024
1.080000,0.400000,1.420003,0.080000,322564.052916,19940452.988618,-19479057.007166,-4660930.773269,0.000373,-0.000370,-0.000088
1.160000,0.400000,1.340003,0.080000,-50717.824081,51586717.892681,-50821387.247131,-12872443.353690,0.000968,-0.000962,-0.000243
1.240000,0.400000,1.260004,0.080000,-758930.491840,97081189.761931,-95722578.459788,-34008250.317591,0.001821,-0.001811,-0.000641
1.320000,0.400000,1.180004,0.080000,-2096793.214125,166652192.253808,-164388578.350003,-89974175.592935,0.003127,-0.003110,-0.001695
1.400000,0.400000,1.100004,0.080000,-4514719.228903,275165768.430517,-271853918.138195,-228560216.016780,0.005166,-0.005141,-0.004306
1.480000,0.400000,1.020004,0.080000,-8712228.718304,437149060.136873,-433611060.528762,-558498882.458154,0.008216,-0.008189,-0.010522
1.560000,0.400000,0.940005,0.080000,-15722843.855860,643487996.781865,-644312377.363993,-1332539402.549865,0.012128,-0.012135,-0.025106
1.640000,0.400000,0.860005,0.080000,-26826131.630492,775953917.876416,-798543170.342302,-3145888889.403958,0.014747,-0.014917,-0.059270
1.720000,0.400000,0.780006,0.080000,-42692957.947190,324232388.906566,-426836428.965204,-7416692726.595270,0.006689,-0.007462,-0.139735
1.800000,0.400000,0.700006,0.080000,-59811198.164500,-2503500473.301060,2136802315.407700,-17567376219.051682,-0.045095,0.042331,-0.330980
1.880000,0.400000,0.620007,0.080000,-58076468.895020,-13497445825.833538,12302404856.468672,-41980830778.921593,-0.247545,0.238539,-0.790943
1.960000,0.400000,0.540008,0.080000,39091600.708786,-51501448146.030502,49745736978.582443,-104211757117.528229,-0.960394,0.947162,-1.963410
2.040000,0.400000,0.460010,0.080000,487977621.004444,-170675694045.070007,168418813095.789764,-250438482919.379700,-3.202873,3.185864,-4.718406
2.120000,0.400000,0.380012,0.080000,2096534420.837488,-520367184913.747314,524274082646.959412,-636612990650.940186,-9.826102,9.855545,-11.994158
-2.120000,0.480000,0.380207,0.080000,-1884425590.558584,536597920074.683960,-540648699927.387085,-669417214067.174438,10.132712,-10.163239,-12.612208
-2.040000,0.480000,0.460171,0.080000,-354428811.560585,167552516382.185547,-165149646642.607605,-254696566663.232819,3.143205,-3.125097,-4.798631
-1.960000,0.480000,0.540146,0.080000,29740676.866352,46896783837.362701,-45043690294.063660,-102950165394.868103,0.873089,-0.859123,-1.939641
-1.880000,0.480000,0.620127,0.080000,90521579.647677,10548668900.800081,-9396192167.371994,-40153731850.884315,0.192229,-0.183544,-0.756520
-1.800000,0.480000,0.700112,0.080000,74817215.906000,952789845.674277,-625140441.994877,-16212851722.477369,0.016099,-0.013630,-0.305460
-1.720000,0.480000,0.780101,0.080000,50382749.039457,-1059219419.796334,1138487230.156513,-6540401945.705716,-0.020404,0.021002,-0.123225
-1.640000,0.480000,0.860091,0.080000,32040514.080221,-1093783790.672046,1104188163.779229,-2607444787.758744,-0.020666,0.020745,-0.049126
-1.560000,0.480000,0.940084,0.080000,20571401.995406,-763279627.644234,758122096.125523,-1008072980.565326,-0.014351,0.014313,-0.018993
-1.480000,0.480000,1.020077,0.080000,13999673.541712,-469242457.911170,462833308.167030,-362805364.428762,-0.008805,0.008756,-0.006835
-1.400000,0.480000,1.100071,0.080000,10464960.412322,-273235672.260425,268503010.360629,-107715412.158033,-0.005121,0.005086,-0.002029
-1.320000,0.480000,1.180067,0.080000,8706664.898131,-157315180.815610,154269624.441985,-11568679.403397,-0.002947,0.002924,-0.000218
-1.240000,0.480000,1.260062,0.080000,7973673.097311,-94752204.586000,92924559.142128,19547875.077725,-0.001775,0.001761,0.000368
-1.160000,0.480000,1.340059,0.080000,7858361.367194,-64629329.421435,63666914.805427,22400776.070793,-0.001212,0.001205,0.000422
-1.080000,0.480000,1.420055,0.080000,8162673.499545,-51708051.626520,51426225.200269,10410278.326807,-0.000973,0.000970,0.000196
-1.000000,0.480000,1.500052,0.080000,8799754.604722,-44039897.337575,44319568.349130,-11186644.864929,-0.000831,0.000833,-0.000211
-0.920000,0.480000,1.520022,0.080000,9717113.768458,-31918659.605060,32583219.821146,-37971732.291125,-0.000605,0.000610,-0.000715
-0.840000,0.480000,1.520001,0.080000,10834839.232555,-8800891.588245,9545611.280900,-63096929.756096,-0.000170,0.000176,-0.001189
-0.760000,0.480000,1.520043,0.080000,12004476.168266,26617889.045405,-26196367.008932,-77250948.117250,0.000499,-0.000496,-0.001455
-0.680000,0.480000,1.520024,0.080000,13001263.745967,68830619.109333,-69100845.483293,-71391584.799552,0.001298,-0.001300,-0.001345
-0.600000,0.480000,1.520000,0.080000,13559172.228609,106174871.131126,-107288881.847490,-41033548.778749,0.002007,-0.002015,-0.000773
-0.520000,0.480000,1.520040,0.080000,13444246.903647,124507767.449551,-126269665.915596,10053357.602160,0.002356,-0.002369,0.000189
-0.440000,0.480000,1.520027,0.080000,12543037.254233,113045348.210763,-114921964.209217,69042022.252787,0.002140,-0.002155,0.001301
-0.360000,0.480000,1.520000,0.080000,10929590.246488,69989432.263728,-71291369.361661,117373056.560703,0.001326,-0.001336,0.002211
-0.280000,0.480000,1.520037,0.080000,8876018.848091,5104639.226851,-5274760.751096,137448623.486150,0.000097,-0.000098,0.002590
-0.200000,0.480000,1.520030,0.080000,6790799.136862,-62532919.225529,63654920.216296,120016592.016438,-0.001184,0.001193,0.002261
-0.120000,0.480000,1.520000,0.080000,5099062.117267,-111200782.466437,113272148.639310,68817783.861722,-0.002107,0.002122,0.001297
-0.040000,0.480000,1.520033,0.080000,4106587.408905,-124956557.111781,127248150.030552,44558.735221,-0.002367,0.002384,0.000001
0.040000,0.480000,1.520033,0.080000,3900089.968136,-100101985.449019,101793672.942435,-63514623.802384,-0.001896,0.001908,-0.001197
0.120000,0.480000,1.520000,0.080000,4324097.231753,-46703010.073537,47223206.932557,-101238809.361892,-0.000883,0.000887,-0.001907
0.200000,0.480000,1.520030,0.080000,5043880.123212,15569873.348793,-16318172.156271,-102513389.229866,0.000298,-0.000303,-0.001931
0.280000,0.480000,1.520037,0.080000,5668497.513311,65386398.025226,-67013976.992068,-70241332.797082,0.001241,-0.001253,-0.001323
0.360000,0.480000,1.520000,0.080000,5884394.168076,87907158.773373,-89736037.446972,-18691818.658276,0.001667,-0.001680,-0.000352
0.440000,0.480000,1.520027,0.080000,5548642.549826,79644907.222733,-81010387.379104,33013222.057774,0.001508,-0.001519,0.000622
0.520000,0.480000,1.520040,0.080000,4711342.884042,48279895.104004,-48791303.408782,68604203.365257,0.000913,-0.000916,0.001293
0.600000,0.480000,1.520000,0.080000,3568114.129884,8105115.630742,-7753439.330538,80163724.603767,0.000151,-0.000148,0.001510
0.680000,0.480000,1.520024,0.080000,2370906.577417,-26352703.188314,27266190.934311,69418335.432348,-0.000502,0.000509,0.001308
0.760000,0.480000,1.520043,0.080000,1336887.823650,-45547936.010138,46599784.997397,44978369.045558,-0.000864,0.000872,0.000847
0.840000,0.480000,1.520001,0.080000,588078.727024,-47006104.242385,47848690.638987,17439680.703540,-0.000890,0.000897,0.000329
0.920000,0.480000,1.520022,0.080000,135059.762627,-34105775.848404,34584104.061219,-5204227.904612,-0.000645,0.000649,-0.000098
1.000000,0.480000,1.500052,0.080000,-102557.081555,-12894881.419195,13047927.544997,-20156705.168172,-0.000244,0.000245,-0.000380
1.080000,0.480000,1.420055,0.080000,-258569.948638,11124680.289216,-11154870.105737,-30204212.670416,0.000210,-0.000210,-0.000569
1.160000,0.480000,1.340059,0.080000,-485559.831401,34660628.930465,-34768392.873886,-43035748.628119,0.000654,-0.000654,-0.000811
1.240000,0.480000,1.260062,0.080000,-933525.938622,55816256.436832,-56113311.714229,-71380311.392607,0.001053,-0.001056,-0.001345
1.320000,0.480000,1.180067,0.080000,-1736252.201369,69824783.152272,-70962616.452155,-136067747.444400,0.001322,-0.001331,-0.002564
1.400000,0.480000,1.100071,0.080000,-2977057.224662,58262983.426941,-62223695.135569,-274383039.574939,0.001120,-0.001150,-0.005170
1.480000,0.480000,1.020077,0.080000,-4561552.073244,-37935778.882826,25721833.832546,-556992754.157688,-0.000646,0.000554,-0.010494
1.560000,0.480000,0.940084,0.080000,-5815300.709352,-388799925.785063,353775732.214198,-1118060706.213554,-0.007127,0.006863,-0.021065
1.640000,0.480000,0.860091,0.080000,-4331088.646379,-1461941134.983774,1365240659.008755,-2201655577.239922,-0.026997,0.026268,-0.041480
1.720000,0.480000,0.780101,0.080000,7196406.943822,-4521411535.352190,4259066594.603210,-4209234379.482713,-0.083703,0.081726,-0.079304
1.800000,0.480000,0.700112,0.080000,49525505.195376,-12970869085.154631,12263022623.160240,-7647727262.968436,-0.240378,0.235043,-0.144088
1.880000,0.480000,0.620127,0.080000,179916852.052071,-36008813035.168510,34094339887.839500,-12557908134.094456,-0.667606,0.653178,-0.236598
1.960000,0.480000,0.540146,0.080000,554501127.955979,-100083894862.589218,97902917274.533920,-15444857081.563074,-1.873311,1.856875,-0.290990
2.040000,0.480000,0.460171,0.080000,1598664341.369769,-274027113903.554413,271270881256.052765,-722520402.768263,-5.147251,5.126479,-0.013613
2.120000,0.480000,0.380207,0.080000,4479069575.932522,-738192032436.893311,743622562819.871704,96290454993.765274,-13.938660,13.979586,1.814168
-2.120000,0.560000,0.380079,0.080000,-4243876697.040586,762673523836.135986,-768309154351.234863,123926163428.870651,14.401065,-14.443536,2.334841
-2.040000,0.560000,0.460065,0.080000,-1434491079.090826,272610367831.452972,-269692347449.144989,4628178368.275034,5.119644,-5.097653,0.087198
-1.960000,0.560000,0.540056,0.080000,-460138951.341162,95703071485.750046,-93408026207.564835,-14485103010.448019,1.790129,-1.772833,-0.272908
-1.880000,0.560000,0.620049,0.080000,-128814087.808590,32892948861.885807,-31008507572.740711,-12289780819.620714,0.609071,-0.594869,-0.231547
-1.800000,0.560000,0.700043,0.080000,-21772545.412862,11177348175.476061,-10503612863.554070,-7386467659.087055,0.206780,-0.201702,-0.139165
-1.720000,0.560000,0.780039,0.080000,8848102.837879,3571776167.034571,-3331626211.890946,-3949226363.449378,0.065937,-0.064127,-0.074406
-1.640000,0.560000,0.860035,0.080000,14872984.026769,983754157.401452,-899584994.106023,-1981798241.653080,0.018059,-0.017424,-0.037338
-1.560000,0.560000,0.940032,0.080000,13991707.656187,159734544.114185,-131407781.805540,-950387039.765981,0.002849,-0.002636,-0.017906
-1.480000,0.560000,1.020030,0.080000,11880509.497895,-63663863.223748,72326269.913508,-434662908.338156,-0.001248,0.001314,-0.008189
-1.400000,0.560000,1.100027,0.080000,10111320.549871,-97597111.596076,99554182.250141,-183729752.742482,-0.001850,0.001865,-0.003462
-1.320000,0.560000,1.180026,0.080000,8950254.161101,-83645795.259549,83459743.821975,-63605265.736509,-0.001575,0.001573,-0.001198
-1.240000,0.560000,1.260024,0.080000,8323991.796713,-67978714.860735,67263025.262860,-8042387.012988,-0.001277,0.001271,-0.000152
-1.160000,0.560000,1.340022,0.080000,8136534.809454,-62870548.404105,62286514.804711,12465415.894379,-0.001181,0.001177,0.000235
-1.080000,0.560000,1.420021,0.080000,8354783.405590,-67087457.947542,67013238.643935,8819773.896590,-0.001264,0.001263,0.000166
-1.000000,0.560000,1.440050,0.080000,9002810.983881,-72283798.023741,72931918.477234,-15155065.180652,-0.001366,0.001370,-0.000286
-0.920000,0.560000,1.440023,0.080000,10109603.671517,-66405794.967264,67725157.181462,-54575962.214826,-0.001259,0.001269,-0.001028
-0.840000,0.560000,1.440001,0.080000,11633540.853662,-38328020.493981,39905394.947712,-98550857.681409,-0.000731,0.000743,-0.001857
-0.760000,0.560000,1.440046,0.080000,13393374.908420,16053076.631616,-14935977.873817,-129747972.714942,0.000296,-0.000288,-0.002445
-0.680000,0.560000,1.440026,0.080000,15043807.094817,88780631.317260,-88879680.301474,-129241344.304289,0.001673,-0.001674,-0.002435
-0.600000,0.560000,1.440000,0.080000,16126650.144008,159309399.875106,-161027617.562318,-85083292.372337,0.003011,-0.003024,-0.001603
-0.520000,0.560000,1.440042,0.080000,16200213.516452,200488406.798195,-203562580.778455,-517551.258080,0.003795,-0.003818,-0.000010
-0.440000,0.560000,1.440029,0.080000,15009078.624395,189727819.080327,-193196800.732832,103115515.212303,0.003594,-0.003620,0.001943
-0.360000,0.560000,1.440000,0.080000,12624484.829684,120633817.136067,-123167673.199897,191821662.543824,0.002287,-0.002306,0.003614
-0.280000,0.560000,1.440039,0.080000,9483031.506698,9101982.757530,-9575690.047640,231686469.092329,0.000174,-0.000178,0.004365
-0.200000,0.560000,1.440032,0.080000,6286170.188784,-110182258.788257,112140595.146817,203660007.865459,-0.002087,0.002102,0.003837
-0.120000,0.560000,1.440000,0.080000,3782733.586512,-196382114.192601,200154249.700383,113326887.394783,-0.003721,0.003750,0.002135
-0.040000,0.560000,1.440035,0.080000,2513520.327199,-219077991.867998,223273207.467798,-9577848.564179,-0.004151,0.004183,-0.000180
0.040000,0.560000,1.440035,0.080000,2621244.734654,-171178058.186158,174220268.456761,-122386940.621607,-0.003242,0.003265,-0.002306
0.120000,0.560000,1.440000,0.080000,3806261.399592,-72011829.056754,72819288.243848,-186657474.153413,-0.001361,0.001367,-0.003517
0.200000,0.560000,1.440032,0.080000,5447307.923610,40934982.535920,-42503550.365540,-183472759.524882,0.000780,-0.000792,-0.003457
0.280000,0.560000,1.440039,0.080000,6835771.228802,127748970.320811,-130887884.238429,-119989720.676226,0.002425,-0.002448,-0.002261
0.360000,0.560000,1.440000,0.080000,7425453.896658,161947203.386599,-165319352.047113,-24644937.356834,0.003070,-0.003096,-0.000464
0.440000,0.560000,1.440029,0.080000,6998880.520336,139416842.203385,-141767442.250732,66119527.787530,0.002640,-0.002658,0.001246
0.520000,0.560000,1.440042,0.080000,5694118.552573,77108881.967156,-77773208.134028,122991358.597397,0.001457,-0.001462,0.002317
0.600000,0.560000,1.440000,0.080000,3899834.711581,3227969.791738,-2309384.224274,133914037.093535,0.000056,-0.000049,0.002523
0.680000,0.560000,1.440026,0.080000,2079391.043871,-55601248.831365,57419394.183778,105453132.520739,-0.001058,0.001072,0.001987
0.760000,0.560000,1.440046,0.080000,603918.740172,-84082700.152170,85943055.523870,56233207.377683,-0.001595,0.001609,0.001059
0.840000,0.560000,1.440001,0.080000,-344543.091349,-81253033.625924,82516315.059420,6804610.384560,-0.001538,0.001548,0.000128
0.920000,0.560000,1.440023,0.080000,-780526.128207,-56937140.533448,57377407.770553,-28898805.203597,-0.001075,0.001079,-0.000544
1.000000,0.560000,1.440050,0.080000,-854725.246048,-24911026.386722,24664597.622285,-47260620.594667,-0.000468,0.000466,-0.000890
1.080000,0.560000,1.420021,0.080000,-767979.553884,3112489.315232,-3767808.633320,-53722881.358936,0.000062,-0.000067,-0.001012
1.160000,0.560000,1.340022,0.080000,-697112.639323,19789656.243598,-20704672.669841,-58893533.794392,0.000378,-0.000385,-0.001110
1.240000,0.560000,1.260024,0.080000,-747081.600280,19799261.282229,-21211920.102372,-74922585.078471,0.000381,-0.000392,-0.001412
1.320000,0.560000,1.180026,0.080000,-914442.791231,-7192572.071647,4334927.376878,-113732667.791684,-0.000119,0.000098,-0.002143
1.400000,0.560000,1.100027,0.080000,-1016615.156937,-89772106.306037,83161521.829896,-185986179.657658,-0.001654,0.001604,-0.003504
1.480000,0.560000,1.020030,0.080000,-499992.309111,-300654849.664429,285089634.290421,-295013940.092333,-0.005577,0.005459,-0.005558
1.560000,0.560000,0.940032,0.080000,2044484.171621,-811900093.801949,775767721.000443,-408852573.682927,-0.015092,0.014820,-0.007703
1.640000,0.560000,0.860035,0.080000,10024486.396808,-2016593128.716466,1934139721.861486,-361273155.850876,-0.037528,0.036906,-0.006807
1.720000,0.560000,0.780039,0.080000,31453823.253074,-4794885466.793870,4609879828.558311,464160673.400574,-0.089293,0.087898,0.008745
1.800000,0.560000,0.700043,0.080000,84780820.065950,-11080652562.046619,10673516537.353928,4102023174.162843,-0.206465,0.203396,0.077284
1.880000,0.560000,0.620049,0.080000,211665253.363916,-25022214499.990376,24148707410.244976,16922945467.618578,-0.466496,0.459913,0.318838
1.960000,0.560000,0.540056,0.080000,504304237.046305,-55790462873.434860,55272603621.756897,60978793928.632263,-1.048198,1.044295,1.148876
2.040000,0.560000,0.460065,0.080000,1161983029.843674,-120063942020.249634,119472599089.102554,189833269203.063995,-2.258732,2.254275,3.576569
2.120000,0.560000,0.380079,0.080000,2603516940.266757,-248334399681.875824,250077159475.337402,600518898093.617676,-4.688614,4.701748,11.314124
-2.120000,0.640000,0.380004,0.080000,-2238643429.126226,204262420353.535309,-205682870215.272095,636810606226.713501,3.856451,-3.867156,11.997881
-2.040000,0.640000,0.460003,0.080000,-988544912.904027,103999313374.655029,-103560816929.864746,192479374959.336639,1.956929,-1.953624,3.626423
-1.960000,0.640000,0.540003,0.080000,-414049173.895137,49331449804.899284,-48922969315.916458,59057166724.981117,0.927124,-0.924046,1.112671
-1.880000,0.640000,0.620003,0.080000,-161605662.256198,22076652508.769672,-21292895410.844959,15357860532.506968,0.411507,-0.405600,0.289351
-1.800000,0.640000,0.700002,0.080000,-55369123.320760,9586516426.192131,-9215382267.266756,3320134779.866042,0.178518,-0.175721,0.062553
-1.720000,0.640000,0.780002,0.080000,-12865350.127375,4000943989.291961,-3832893485.910689,151597645.495542,0.074430,-0.073164,0.002856
-1.640000,0.640000,0.860002,0.080000,2937691.361433,1590477215.931996,-1516832835.088819,-450591789.249088,0.029549,-0.028994,-0.008489
-1.560000,0.640000,0.940002,0.080000,8076137.796205,587784569.728124,-556431429.912164,-406886921.132613,0.010897,-0.010661,-0.007666
-1.480000,0.640000,1.020002,0.080000,9244009.878835,190230718.398971,-177366371.957230,-260783775.453454,0.003511,-0.003414,-0.004913
-1.400000,0.640000,1.100001,0.080000,9107887.471636,43436209.650388,-38580548.961159,-139659111.949900,0.000791,-0.000754,-0.002631
-1.320000,0.640000,1.180001,0.080000,8660529.239653,-7005088.171539,8348853.390240,-56851850.525787,-0.000140,0.000150,-0.001071
-1.240000,0.640000,1.260001,0.080000,8248136.322610,-28718041.665571,28546766.156576,-3512426.051636,-0.000540,0.000539,-0.000066
-1.160000,0.640000,1.340001,0.080000,8019753.473823,-50656110.322370,50083884.516231,25582004.388269,-0.000951,0.000947,0.000482
-1.080000,0.640000,1.360002,0.080000,8118634.510151,-80816246.311898,80714991.170430,27815118.618713,-0.001522,0.001521,0.000524
-1.000000,0.640000,1.360053,0.080000,8735212.464692,-111701866.095001,112748468.712383,-2547233.349583,-0.002110,0.002118,-0.000048
-0.920000,0.640000,1.360024,0.080000,10060410.263287,-124286826.887146,126681935.005953,-65393349.172661,-0.002355,0.002373,-0.001232
-0.840000,0.640000,1.360001,0.080000,12166754.315621,-96301520.931781,99476985.099250,-146398712.377238,-0.001832,0.001856,-0.002758
-0.760000,0.640000,1.360049,0.080000,14870465.516272,-15155498.686691,17795270.839690,-215116273.784961,-0.000300,0.000320,-0.004053
-0.680000,0.640000,1.360027,0.080000,17655386.211601,109665337.888763,-109131539.886092,-233431913.873352,0.002063,-0.002059,-0.004398
-0.600000,0.640000,1.360001,0.080000,19735248.055821,242533199.941066,-245110950.077710,-172811259.535869,0.004584,-0.004603,-0.003256
-0.520000,0.640000,1.360045,0.080000,20278330.791068,331272332.108005,-336678243.033463,-32490645.805631,0.006272,-0.006313,-0.000612
-0.440000,0.640000,1.360030,0.080000,18733664.871361,328749843.710127,-335245006.198986,152061808.403574,0.006231,-0.006279,0.002865
-0.360000,0.640000,1.360000,0.080000,15123942.574363,217127897.693311,-222118883.467350,317738116.762092,0.004119,-0.004157,0.005986
-0.280000,0.640000,1.360041,0.080000,10154539.163288,21999455.986849,-23192614.889206,398232326.202857,0.000421,-0.000430,0.007503
-0.200000,0.640000,1.360034,0.080000,5051505.739283,-192761530.813439,196213295.507313,353962439.757470,-0.003651,0.003677,0.006669
-0.120000,0.640000,1.360000,0.080000,1161451.685940,-349253469.185105,356223422.885920,192744494.748731,-0.006620,0.006672,0.003631
-0.040000,0.640000,1.360037,0.080000,-535181.048979,-388544250.426592,396342457.414947,-30056404.397995,-0.007364,0.007423,-0.000566
0.040000,0.640000,1.360037,0.080000,208097.928527,-296772636.901585,302327766.836210,-233319167.620461,-0.005623,0.005665,-0.004396
0.120000,0.640000,1.360000,0.080000,2817404.056665,-111507716.055213,112744203.957843,-344222020.483102,-0.002108,0.002117,-0.006485
0.200000,0.640000,1.360034,0.080000,6132943.829835,94884175.250644,-98154864.045631,-328533165.064975,0.001806,-0.001831,-0.006190
0.280000,0.640000,1.360041,0.080000,8860836.334157,246768221.054192,-252867219.997475,-202986874.979518,0.004684,-0.004730,-0.003824
0.360000,0.640000,1.360000,0.080000,10045974.343808,296483103.647563,-302744727.370731,-24672793.028927,0.005621,-0.005668,-0.000465
0.440000,0.640000,1.360030,0.080000,9371143.363694,240929016.010376,-244960119.718188,136263142.371492,0.004562,-0.004592,0.002567
0.520000,0.640000,1.360045,0.080000,7178506.114734,117147839.646676,-117825681.007592,226670859.555328,0.002211,-0.002216,0.004271
0.600000,0.640000,1.360001,0.080000,4240164.638710,-18797774.661280,21041469.062736,229160848.993311,-0.000367,0.000384,0.004318
0.680000,0.640000,1.360027,0.080000,1408683.824204,-117784901.673324,121435941.097298,162512618.912556,-0.002240,0.002267,0.003062
0.760000,0.640000,1.360049,0.080000,-690816.422252,-155822183.169172,159164198.432686,66441918.232760,-0.002955,0.002980,0.001252
0.840000,0.640000,1.360001,0.080000,-1813016.449877,-137614260.504702,139513061.793077,-19426316.945712,-0.002603,0.002618,-0.000366
0.920000,0.640000,1.360024,0.080000,-2065796.422097,-87020413.241799,87245598.360378,-71520636.260342,-0.001641,0.001642,-0.001347
1.000000,0.640000,1.360053,0.080000,-1762952.204402,-32061398.340704,31090601.187246,-87110305.886558,-0.000599,0.000591,-0.001641
1.080000,0.640000,1.360002,0.080000,-1249075.028557,6907394.806205,-8378233.276026,-78725319.894009,0.000138,-0.000150,-0.001483
1.160000,0.640000,1.340001,0.080000,-770535.534719,20900164.057035,-22431200.433996,-63814715.047575,0.000402,-0.000414,-0.001202
1.240000,0.640000,1.260001,0.080000,-416393.158329,8045767.011350,-9721010.130697,-55569997.292196,0.000161,-0.000174,-0.001047
1.320000,0.640000,1.180001,0.080000,-103258.621125,-35254417.257993,32757298.272325,-57212902.103912,-0.000650,0.000631,-0.001078
1.400000,0.640000,1.100001,0.080000,451259.139811,-124400763.998148,119812632.121379,-56519908.180010,-0.002318,0.002283,-0.001065
1.480000,0.640000,1.020002,0.080000,1830406.910328,-296205232.522639,287727241.133075,-10722528.610508,-0.005533,0.005469,-0.000202
1.560000,0.640000,0.940002,0.080000,5155933.336191,-615045472.336869,601050566.263926,199288451.208592,-0.011509,0.011403,0.003755
1.640000,0.640000,0.860002,0.080000,12494755.658056,-1157806241.946368,1140698828.320638,893708252.251592,-0.021717,0.021588,0.016838
1.720000,0.640000,0.780002,0.080000,27311584.173414,-1900898220.963641,1902980966.153239,2916536967.578528,-0.035826,0.035841,0.054949
1.800000,0.640000,0.700002,0.080000,54147043.103863,-2229404527.713547,2350381962.670876,8457035987.373734,-0.042687,0.043599,0.159335
1.880000,0.640000,0.620003,0.080000,94047498.560954,887146653.898510,-273530021.649039,23137015638.633724,0.013246,-0.008622,0.435915
1.960000,0.640000,0.540003,0.080000,122968822.948714,19744204315.590908,-18426178598.913357,63159393392.140564,0.364543,-0.354610,1.189960
2.040000,0.640000,0.460003,0.080000,9044951.856567,96278353181.154083,-94531783436.399155,161028175349.067291,1.804068,-1.790906,3.033864
2.120000,0.640000,0.380004,0.080000,-778761579.889696,361501948752.487000,-364266315232.041931,426808007576.163208,6.826531,-6.847364,8.041310
-2.120000,0.720000,0.380169,0.080000,1023131801.857883,-425123656646.325989,428363014532.190613,379428919926.184692,-8.027886,8.052298,7.148661
-2.040000,0.720000,0.460140,0.080000,83258703.738112,-111340782982.106308,109353736778.490555,142680477264.515656,-2.086494,2.071519,2.688183
-1.960000,0.720000,0.540119,0.080000,-74250720.278287,-23416568598.407894,21928338066.903934,55430908381.657898,-0.432770,0.421554,1.044350
-1.880000,0.720000,0.620104,0.080000,-62710245.881676,-2036198820.189615,1365540122.292828,19875504150.764061,-0.034572,0.029518,0.374466
-1.800000,0.720000,0.700092,0.080000,-32174351.576113,1679493097.462590,-1811676707.070516,7009107410.043226,0.032390,-0.033386,0.132056
-1.720000,0.720000,0.780082,0.080000,-11045112.205732,1561433289.564522,-1566454388.436929,2275712964.440184,0.029447,-0.029485,0.042876
-1.640000,0.720000,0.860075,0.080000,271032.233655,937108159.647180,-921555879.563449,618810043.636646,0.017568,-0.017451,0.011659
-1.560000,0.720000,0.940068,0.080000,5534042.005055,478416338.468563,-465509340.070622,88935566.113825,0.008941,-0.008843,0.001676
-1.480000,0.720000,1.020063,0.080000,7665359.308378,223254876.267244,-215548317.229914,-47561659.650252,0.004163,-0.004105,-0.000896
-1.400000,0.720000,1.100058,0.080000,8322057.922651,100936539.117857,-97149861.496873,-55012117.646482,0.001880,-0.001852,-0.001036
-1.320000,0.720000,1.180055,0.080000,8309244.954594,46580957.543532,-45456466.954360,-21709814.174929,0.000871,-0.000863,-0.000409
-1.240000,0.720000,1.260051,0.080000,7990787.140041,13950436.451293,-14593321.053330,23735656.295364,0.000266,-0.000271,0.000447
-1.160000,0.720000,1.280023,0.080000,7586310.823701,-27657412.678960,26226421.280010,64915512.839443,-0.000513,0.000502,0.001223
-1.080000,0.720000,1.280002,0.080000,7367037.136569,-91749748.574629,90888599.970117,80387991.690930,-0.001724,0.001717,0.001515
-1.000000,0.720000,1.280056,0.080000,7739962.787535,-168720861.499795,169906484.407476,45101625.417877,-0.003186,0.003194,0.000850
-0.920000,0.720000,1.280026,0.080000,9185631.999655,-224350129.343385,228387331.213032,-55046360.912868,-0.004250,0.004280,-0.001037
-0.840000,0.720000,1.280001,0.080000,12043085.886960,-211359354.236532,217535477.002327,-204976584.245840,-0.004017,0.004064,-0.003862
-0.760000,0.720000,1.280052,0.080000,16216350.635663,-94814017.426495,100696177.983454,-352439828.651475,-0.001820,0.001864,-0.006640
-0.680000,0.720000,1.280029,0.080000,20961210.414676,119368430.089010,-117060963.607865,-421475103.142046,0.002236,-0.002219,-0.007941
-0.600000,0.720000,1.280001,0.080000,24928240.019822,370632126.782221,-374318224.760669,-346798608.028519,0.007004,-0.007032,-0.006534
-0.520000,0.720000,1.280047,0.080000,26545252.709327,558500634.842207,-568083728.571707,-113793794.203817,0.010577,-0.010649,-0.002144
-0.440000,0.720000,1.280032,0.080000,24645272.844680,584697084.173515,-597021462.062274,219174186.919441,0.011086,-0.011179,0.004129
-0.360000,0.720000,1.280000,0.080000,19077129.649803,404095847.358322,-414047666.873495,533566135.329895,0.007670,-0.007745,0.010053
-0.280000,0.720000,1.280043,0.080000,10982478.462902,57139858.345460,-59997361.254320,698066350.650433,0.001093,-0.001114,0.013152
-0.200000,0.720000,1.280036,0.080000,2539298.184077,-336978168.279716,343123585.824588,629808746.281388,-0.006384,0.006430,0.011866
-0.120000,0.720000,1.280000,0.080000,-3784064.294844,-627439098.674979,640511454.885882,338413460.427373,-0.011895,0.011994,0.006376
-0.040000,0.720000,1.280040,0.080000,-6170220.298314,-698345923.545620,713068908.567405,-71571282.245623,-0.013240,0.013351,-0.001348
0.040000,0.720000,1.280040,0.080000,-4175271.345233,-522112800.069553,532417973.728732,-443590799.494910,-0.009895,0.009973,-0.008358
0.120000,0.720000,1.280000,0.080000,1099393.923630,-172662546.266940,174511694.990609,-637573890.204619,-0.003264,0.003277,-0.012012
0.200000,0.720000,1.280036,0.080000,7468018.700242,208455083.784373,-215268446.250768,-590682327.775961,0.003966,-0.004017,-0.011129
0.280000,0.720000,1.280043,0.080000,12543400.717168,476026056.371008,-487980428.597631,-341004347.706801,0.009036,-0.009126,-0.006425
0.360000,0.720000,1.280000,0.080000,14643895.585362,543483529.285928,-555207873.459126,-4137188.723198,0.010306,-0.010394,-0.000078
0.440000,0.720000,1.280032,0.080000,13336359.959715,413976151.743666,-420858890.376369,283459287.793479,0.007838,-0.007890,0.005341
0.520000,0.720000,1.280047,0.080000,9420579.235058,167946137.769028,-168116115.525819,424769748.713172,0.003165,-0.003166,0.008003
0.600000,0.720000,1.280001,0.080000,4430901.243390,-82423690.050129,87669053.932229,397200752.763114,-0.001583,0.001622,0.007483
0.680000,0.720000,1.280029,0.080000,-62719.665920,-246098587.274189,253440768.597447,248811308.398649,-0.004678,0.004733,0.004688
0.760000,0.720000,1.280052,0.080000,-3025247.431416,-287154834.855218,293167590.290811,63423239.913022,-0.005444,0.005489,0.001195
0.840000,0.720000,1.280001,0.080000,-4185883.490283,-226945379.303288,229670158.994714,-83218791.771154,-0.004291,0.004312,-0.001568
0.920000,0.720000,1.280026,0.080000,-3910260.203476,-119936635.465310,119377736.836811,-153323646.592470,-0.002257,0.002252,-0.002889
1.000000,0.720000,1.280056,0.080000,-2863632.176387,-21088249.275179,18612318.259929,-151701633.731888,-0.000383,0.000365,-0.002858
1.080000,0.720000,1.280002,0.080000,-1667249.063263,36989852.542695,-39759979.281445,-109418846.719582,0.000713,-0.000733,-0.002062
1.160000,0.720000,1.280023,0.080000,-691108.285804,48591889.591235,-50661959.485651,-60371611.470611,0.000927,-0.000943,-0.001137
1.240000,0.720000,1.260051,0.080000,-13637.803014,24756729.684628,-26014232.103240,-23976792.520878,0.000474,-0.000483,-0.000452
1.320000,0.720000,1.180055,0.080000,512846.551419,-21083246.396237,20215053.856234,1321603.777351,-0.000392,0.000386,0.000025
1.400000,0.720000,1.100058,0.080000,1179072.483146,-81333807.388581,80630650.899441,38670205.176266,-0.001528,0.001523,0.000729
1.480000,0.720000,1.020063,0.080000,2368225.721956,-148751808.316991,149441027.745717,138137158.043505,-0.002806,0.002812,0.002603
1.560000,0.720000,0.940068,0.080000,4498763.033566,-185437314.073166,193177827.578614,398421557.966998,-0.003537,0.003596,0.007506
1.640000,0.720000,0.860075,0.080000,7749229.394316,-28674083.482952,62073565.549481,1014386930.118021,-0.000729,0.000981,0.019112
1.720000,0.720000,0.780082,0.080000,10921839.899047,883713157.684011,-768407668.675608,2346438323.101566,0.015998,-0.015129,0.044208
1.800000,0.720000,0.700092,0.080000,7568587.712970,4310541149.251925,-3948751337.424611,4934887036.878022,0.079168,-0.076442,0.092976
1.880000,0.720000,0.620104,0.080000,-26063019.409817,15510182015.199209,-14426797862.523108,9058429548.707703,0.286097,-0.277933,0.170666
1.960000,0.720000,0.540119,0.080000,-166999549.170281,50708503492.234337,-49270567012.814056,11634651564.758423,0.947250,-0.936414,0.219204
2.040000,0.720000,0.460140,0.080000,-651174981.310373,155060844542.825378,-153235331348.423553,-4107772786.906354,2.911118,-2.897361,-0.077393
2.120000,0.720000,0.380169,0.080000,-2184418360.418019,453927529463.566711,-457301998209.018555,-117321331849.027985,8.571331,-8.596762,-2.210402
-2.120000,0.800000,0.380106,0.080000,1978160663.080651,-420037143490.923096,423151615582.460449,-207447237860.549255,-7.931347,7.954818,-3.908426
-2.040000,0.800000,0.460087,0.080000,587315897.550955,-141464445865.869202,139770437259.436279,-28502789047.625004,-2.655697,2.642931,-0.537009
-1.960000,0.800000,0.540074,0.080000,155353803.144088,-45538039171.515709,44201897065.814575,3704710229.268116,-0.850411,0.840341,0.069799
-1.880000,0.800000,0.620065,0.080000,32219499.382891,-13623413635.324259,12637908391.500744,6206225598.853024,-0.251103,0.243676,0.116929
-1.800000,0.800000,0.700057,0.080000,3629371.081685,-3661501666.260576,3337904049.594980,3704933350.221395,-0.067156,0.064717,0.069803
-1.720000,0.800000,0.780051,0.080000,897204.113281,-702993851.533904,602816096.780313,1772315341.046653,-0.012679,0.011924,0.033391
-1.640000,0.800000,0.860047,0.080000,3429582.313679,43996058.433620,-71357401.969532,736431904.826247,0.000984,-0.001190,0.013875
-1.560000,0.800000,0.940043,0.080000,5900208.176302,155927129.709894,-161014088.024231,258768781.797015,0.002967,-0.003005,0.004875
-1.480000,0.800000,1.020039,0.080000,7421897.885239,126391863.342844,-125567817.893498,61755944.530787,0.002377,-0.002370,0.001164
-1.400000,0.800000,1.100036,0.080000,8135661.532893,93783879.200696,-92323443.295327,-2783043.651087,0.001759,-0.001748,-0.000052
-1.320000,0.800000,1.180034,0.080000,8242152.446233,80813966.612383,-80707259.603837,2600254.443072,0.001522,-0.001521,0.000049
-1.240000,0.800000,1.200065,0.080000,7830988.944698,68304598.571691,-70337958.104670,53913649.846126,0.001298,-0.001314,0.001016
-1.160000,0.800000,1.200024,0.080000,6994501.513192,21799586.263735,-25490658.051257,128961224.144580,0.000432,-0.000459,0.002430
-1.080000,0.800000,1.200002,0.080000,6040194.808150,-85296283.570353,82052010.193706,185412036.115508,-0.001589,0.001564,0.003493
-1.000000,0.800000,1.200060,0.080000,5651060.732852,-244454954.474388,244811773.229602,162771726.491809,-0.004608,0.004610,0.003067
-0.920000,0.800000,1.200028,0.080000,6824471.197891,-394961720.306437,401305463.841454,11937943.686876,-0.007477,0.007525,0.000225
-0.840000,0.800000,1.200001,0.080000,10487963.183101,-437209478.316344,448971145.380185,-261403680.355759,-0.008304,0.008392,-0.004925
-0.760000,0.800000,1.200055,0.080000,16879368.902214,-282090464.442867,294808295.941227,-569768214.193931,-0.005387,0.005482,-0.010735
-0.680000,0.800000,1.200031,0.080000,24999963.663641,84476858.870806,-77668126.355807,-762196094.387532,0.001553,-0.001502,-0.014360
-0.600000,0.800000,1.200001,0.080000,32538943.097437,562196506.548085,-566979691.695057,-692353233.775709,0.010619,-0.010655,-0.013044
-0.520000,0.800000,1.200051,0.080000,36508352.781013,956810011.520341,-973921292.306740,-306163369.806878,0.018124,-0.018253,-0.005768
-0.440000,0.800000,1.200035,0.080000,34456673.647084,1062902028.346549,-1086597481.507494,302290787.732775,0.020160,-0.020338,0.005695
-0.360000,0.800000,1.200000,0.080000,25744525.022588,771785284.200064,-791864118.357271,907874100.073128,0.014654,-0.014806,0.017105
-0.280000,0.800000,1.200046,0.080000,12213441.043197,145318452.802749,-151966117.517122,1247342076.549462,0.002775,-0.002826,0.023501
-0.200000,0.800000,1.200038,0.080000,-2207741.523500,-591068159.494911,602124026.579897,1146004770.069076,-0.011199,0.011282,0.021591
-0.120000,0.800000,1.200000,0.080000,-12912371.010078,-1141125167.217411,1166014836.836254,612124740.820723,-0.021640,0.021828,0.011533
-0.040000,0.800000,1.200042,0.080000,-16463095.168099,-1273645477.812422,1301876242.091861,-154035835.160864,-0.024156,0.024369,-0.002902
0.040000,0.800000,1.200042,0.080000,-12031831.605795,-932858027.984303,952278845.439318,-845907071.720580,-0.017685,0.017832,-0.015937
0.120000,0.800000,1.200000,0.080000,-1746755.886123,-266037186.237309,268683992.374464,-1190062487.262508,-0.005027,0.005047,-0.022421
0.200000,0.800000,1.200038,0.080000,10225116.359747,446311609.444276,-460534567.863143,-1069545329.888010,0.008489,-0.008596,-0.020151
0.280000,0.800000,1.200046,0.080000,19425937.674846,921683308.981797,-945340829.553641,-569785525.726683,0.017499,-0.017677,-0.010735
0.360000,0.800000,1.200000,0.080000,22869870.593124,1001336150.397296,-1023493237.485496,73034187.289363,0.018991,-0.019158,0.001376
0.440000,0.800000,1.200035,0.080000,20038054.528682,709040829.006097,-720717933.011085,590538499.305714,0.013425,-0.013513,0.011126
0.520000,0.800000,1.200051,0.080000,12738250.955414,218957859.291516,-217105770.136947,804467786.109704,0.004115,-0.004101,0.015157
0.600000,0.800000,1.200001,0.080000,4025852.840586,-242915581.338997,254834392.980224,692272231.395258,-0.004644,0.004734,0.013043
0.680000,0.800000,1.200031,0.080000,-3203403.260005,-507376332.134733,522121109.848173,370307467.719764,-0.009643,0.009754,0.006977
0.760000,0.800000,1.200055,0.080000,-7273715.820231,-525506480.092822,536230720.227218,14544861.067139,-0.009961,0.010042,0.000274
0.840000,0.800000,1.200001,0.080000,-8044777.750611,-362829628.853701,366256896.427981,-231284579.019168,-0.006855,0.006881,-0.004358
0.920000,0.800000,1.200028,0.080000,-6513967.647661,-140391429.528385,137474655.112248,-311419415.271777,-0.002629,0.002607,-0.005867
1.000000,0.800000,1.200060,0.080000,-4067056.465215,35584471.874934,-41347905.409201,-257205974.794652,0.000703,-0.000746,-0.004846
1.080000,0.800000,1.200002,0.080000,-1813519.386626,116449588.916752,-121553039.950520,-144109792.868724,0.002223,-0.002261,-0.002715
1.160000,0.800000,1.200024,0.080000,-275049.435278,111927239.426650,-114582668.228158,-40589316.036683,0.002124,-0.002144,-0.000765
1.240000,0.800000,1.200065,0.080000,562613.891653,62127223.109490,-62421585.132871,22182713.914073,0.001172,-0.001174,0.000418
1.320000,0.800000,1.180034,0.080000,1004081.577287,6835234.219133,-5669023.409779,51829910.797896,0.000122,-0.000113,0.000977
1.400000,0.800000,1.100036,0.080000,1394166.854751,-27416596.562108,29778749.608552,79094558.884383,-0.000530,0.000548,0.001490
1.480000,0.800000,1.020039,0.080000,1943647.337547,-15328542.807693,20699768.807148,141369122.082734,-0.000319,0.000360,0.002663
1.560000,0.800000,0.940043,0.080000,2553922.621394,105359150.798225,-91059400.337579,269865783.260145,0.001904,-0.001796,0.005084
1.640000,0.800000,0.860047,0.080000,2392310.653409,509917540.732008,-472418373.271592,457029790.002782,0.009395,-0.009113,0.008611
1.720000,0.800000,0.780051,0.080000,-1281621.152327,1638067275.041115,-1546072418.415391,518237243.231634,0.030342,-0.029649,0.009764
1.800000,0.800000,0.700057,0.080000,-16028948.982886,4482851311.789299,-4274736084.647203,-420619441.545636,0.083283,-0.081715,-0.007925
1.880000,0.800000,0.620065,0.080000,-60731643.122871,11020149282.218611,-10601723276.283205,-5658818453.311819,0.205261,-0.202108,-0.106615
1.960000,0.800000,0.540074,0.080000,-178243166.966447,24488423458.035091,-24405232556.162392,-28202384004.328312,0.460906,-0.460279,-0.531349
2.040000,0.800000,0.460087,0.080000,-453428614.924167,45123945717.847099,-45102716163.329193,-103469143726.336288,0.850041,-0.849881,-1.949419
2.120000,0.800000,0.380106,0.080000,-1010041108.806149,52280001979.709587,-52611870676.422462,-371038066778.673950,0.986861,-0.989362,-6.990572
-2.120000,0.880000,0.380000,0.080000,554100536.461295,54018578616.375854,-54473057526.918510,-362338969486.538940,1.020310,-1.023735,-6.826676
-2.040000,0.880000,0.460000,0.080000,311141584.661454,-14376578790.734455,14723903496.197714,-100328483191.200287,-0.272826,0.275444,-1.890247
-1.960000,0.880000,0.540000,0.080000,135698689.170642,-14948196254.359949,15142095169.138571,-27480267255.545906,-0.282729,0.284190,-0.517744
-1.880000,0.880000,0.620000,0.080000,52558972.620917,-7793245883.329064,7542727388.749456,-5743473191.964725,-0.145413,0.143525,-0.108210
-1.800000,0.880000,0.700000,0.080000,20126183.151697,-3299227573.651766,3148030820.409626,-651705995.238827,-0.061305,0.060165,-0.012279
-1.720000,0.880000,0.780000,0.080000,9620319.082719,-1199359618.102851,1128535346.840994,319074272.293007,-0.022196,0.021663,0.006012
-1.640000,0.880000,0.860000,0.080000,7222364.498835,-362491730.304538,333583415.549122,318082279.920249,-0.006666,0.006448,0.005993
-1.560000,0.880000,0.940000,0.080000,7332301.302282,-73115585.347155,63179056.225768,171108855.847558,-0.001321,0.001246,0.003224
-1.480000,0.880000,1.020000,0.080000,7978706.112466,17110290.273309,-18978399.217795,52659975.176772,0.000333,-0.000347,0.000992
-1.400000,0.880000,1.100000,0.080000,8531371.834156,61021589.313932,-60162606.125018,-14330068.640158,0.001145,-0.001138,-0.000270
-1.320000,0.880000,1.120003,0.080000,8690395.994952,111974300.258736,-112040557.623853,-19090394.048817,0.002110,-0.002111,-0.000360
-1.240000,0.880000,1.120069,0.080000,8133597.468351,157735147.842951,-161546214.376156,56312559.181209,0.002993,-0.003022,0.001061
-1.160000,0.880000,1.120026,0.080000,6589537.410386,137948725.892499,-146088511.475666,207709431.079556,0.002645,-0.002706,0.003913
-1.080000,0.880000,1.120002,0.080000,4210583.313035,-17159842.631077,8048400.594773,370940510.414652,-0.000272,0.000203,0.006989
-1.000000,0.880000,1.120064,0.080000,1995797.663375,-321202268.123192,317928381.277514,418221275.951310,-0.006033,0.006008,0.007880
-0.920000,0.880000,1.120030,0.080000,1856828.292302,-675045940.033071,684069846.278310,216458164.354032,-0.012769,0.012837,0.004078
-0.840000,0.880000,1.120001,0.080000,5984919.074961,-873656678.273263,895722438.122775,-270647950.954616,-0.016585,0.016751,-0.005099
-0.760000,0.880000,1.120059,0.080000,15572734.109007,-701716552.971670,728792482.708112,-903138170.433986,-0.013374,0.013578,-0.017016
-0.680000,0.880000,1.120033,0.080000,29489226.757533,-79186864.173337,96882936.965123,-1381497602.591640,-0.001592,0.001725,-0.026028
-0.600000,0.880000,1.120001,0.080000,43805993.113896,834185080.330558,-839031177.750218,-1381190290.070774,0.015744,-0.015780,-0.026022
-0.520000,0.880000,1.120054,0.080000,52812562.428822,1660775366.920799,-1691518061.039383,-744998368.777794,0.031464,-0.031695,-0.014036
-0.440000,0.880000,1.120037,0.080000,51374303.304276,1969216276.180140,-2015368329.468544,380854824.150712,0.037362,-0.037710,0.007176
-0.360000,0.880000,1.120000,0.080000,37609908.192488,1504735251.298850,-1545703997.490858,1564023144.086474,0.028582,-0.028890,0.029467
-0.280000,0.880000,1.120050,0.080000,14461119.777384,356562272.257009,-371754372.938309,2270528359.825254,0.006804,-0.006918,0.042778
-0.200000,0.880000,1.120041,0.080000,-10878388.506842,-1043097560.224359,1063207439.674713,2129654653.639647,-0.019766,0.019918,0.040124
-0.120000,0.880000,1.120000,0.080000,-29662651.960738,-2104123305.187531,2152229540.614585,1137488073.423588,-0.039915,0.040277,0.021431
-0.040000,0.880000,1.120045,0.080000,-35269122.121356,-2359080360.871888,2414038007.049292,-316809486.541404,-0.044757,0.045171,-0.005969
0.040000,0.880000,1.120045,0.080000,-26107178.017037,-1693718319.219716,1730889401.500947,-1624395991.127103,-0.032121,0.032401,-0.030605
0.120000,0.880000,1.120000,0.080000,-6328386.539641,-405090514.401887,408564160.043970,-2243945678.737439,-0.007652,0.007678,-0.042277
0.200000,0.880000,1.120041,0.080000,16022236.417340,943843866.255958,-973653830.499966,-1954814961.779451,0.017951,-0.018176,-0.036830
0.280000,0.880000,1.120050,0.080000,32511176.286656,1796270525.970906,-1843565137.072572,-947079220.266245,0.034110,-0.034467,-0.017844
0.360000,0.880000,1.120000,0.080000,37787697.264805,1858223105.494684,-1900513687.435158,292310741.984818,0.035249,-0.035568,0.005507
0.440000,0.880000,1.120037,0.080000,31425106.863238,1210803416.673725,-1230417669.248381,1229687511.249691,0.022923,-0.023071,0.023168
0.520000,0.880000,1.120054,0.080000,17430685.849072,230864667.158788,-223013384.061736,1535342719.002187,0.004305,-0.004246,0.028927
0.600000,0.880000,1.120001,0.080000,1911258.694644,-623020629.228879,649625071.499770,1207387103.851803,-0.011888,0.012089,0.022748
0.680000,0.880000,1.120033,0.080000,-9780566.135106,-1035672304.063814,1065242038.606308,519062432.365545,-0.019680,0.019903,0.009779
0.760000,0.880000,1.120059,0.080000,-15021158.657400,-954216165.427266,973031189.505595,-160697426.172771,-0.018084,0.018226,-0.003028
0.840000,0.880000,1.120001,0.080000,-14266928.325192,-555095069.196825,557942849.812666,-560839506.736686,-0.010474,0.010496,-0.010567
0.920000,0.880000,1.120030,0.080000,-9976451.220905,-103466887.775078,94220225.075489,-611408051.767995,-0.001897,0.001827,-0.011519
1.000000,0.880000,1.120064,0.080000,-4968079.183218,197963618.878996,-210831526.673953,-419722014.193751,0.003802,-0.003899,-0.007908
1.080000,0.880000,1.120002,0.080000,-1149960.933944,286397106.857062,-295634284.119878,-162101119.002714,0.005448,-0.005518,-0.003054
1.160000,0.880000,1.120026,0.080000,889699.626652,219909576.456205,-222858221.293253,26909236.707812,0.004160,-0.004182,0.000507
1.240000,0.880000,1.120069,0.080000,1538828.017700,102049224.147888,-100224544.319657,105277721.600276,0.001912,-0.001899,0.001983
1.320000,0.880000,1.120003,0.080000,1523604.609910,12834327.309628,-9145332.364094,105600718.492701,0.000221,-0.000193,0.001990
1.400000,0.880000,1.100000,0.080000,1404146.833371,-14592417.728070,18498068.988418,83779673.731308,-0.000297,0.000326,0.001578
1.480000,0.880000,1.020000,0.080000,1354486.676159,26404795.828157,-21631990.132581,74152843.488195,0.000471,-0.000435,0.001397
1.560000,0.880000,0.940000,0.080000,1106926.435531,152487413.078333,-144503105.855513,61281275.970584,0.002828,-0.002768,0.001155
1.640000,0.880000,0.860000,0.080000,-161828.388237,411678149.023665,-398937167.147753,-62503855.049879,0.007684,-0.007588,-0.001178
1.720000,0.880000,0.780000,0.080000,-4122861.180309,841486861.958865,-832336729.517719,-627849281.454827,0.015802,-0.015733,-0.011829
1.800000,0.880000,0.700000,0.080000,-13438479.525464,1193455604.022843,-1242043640.791777,-2549608888.900052,0.022760,-0.023126,-0.048036
1.880000,0.880000,0.620000,0.080000,-29762803.835674,-238575407.751585,-102552853.466786,-8193215472.169387,-0.002567,-0.000004,-0.154365
1.960000,0.880000,0.540000,0.080000,-41250400.493119,-11438236872.305613,10539695115.018965,-23758593092.884918,-0.210424,0.203653,-0.447626
2.040000,0.880000,0.460000,0.080000,32321322.686730,-62945861527.212753,61731021864.558434,-58708612069.404007,-1.179070,1.169915,-1.106104
2.120000,0.880000,0.380000,0.080000,554739224.506735,-260704211663.111481,262679902393.451630,-133071936001.537323,-4.922985,4.937875,-2.507152
-2.120000,0.960000,0.380136,0.080000,-687994429.695793,276468134838.809814,-278530946196.743347,-27702781526.093773,5.220479,-5.236025,-0.521936
-2.040000,0.960000,0.460112,0.080000,-88963932.122369,69060438825.816757,-67820002214.839241,-31680582397.517960,1.294128,-1.284779,-0.596881
-1.960000,0.960000,0.540095,0.080000,20118439.263100,14258675034.550131,-13337483893.768904,-15946917647.735630,0.263435,-0.256493,-0.300449
-1.880000,0.960000,0.620083,0.080000,25598929.171435,1603599842.795372,-1226216145.912457,-6016204748.556520,0.028080,-0.025236,-0.113349
-1.800000,0.960000,0.700074,0.080000,17251971.375103,-524719018.065478,591367279.638516,-1919247102.325990,-0.010263,0.010765,-0.036160
-1.720000,0.960000,0.780066,0.080000,11514532.545262,-524661937.340019,524194512.351485,-466370586.708592,-0.009882,0.009879,-0.008787
-1.640000,0.960000,0.860060,0.080000,9047069.612881,-282587608.731013,273888261.965070,-37320273.480983,-0.005275,0.005209,-0.000703
-1.560000,0.960000,0.940055,0.080000,8418908.705053,-132881494.253054,127843795.051668,37439445.593203,-0.002475,0.002437,0.000705
-1.480000,0.960000,1.020050,0.080000,8668056.725568,-60624654.549144,60757818.214051,-7234718.161546,-0.001143,0.001144,-0.000136
-1.400000,0.960000,1.040025,0.080000,9305673.301970,10704820.597933,-6920458.577424,-85638208.914836,0.000180,-0.000152,-0.001613
-1.320000,0.960000,1.040003,0.080000,9853764.287649,139546377.946047,-136674942.223048,-124323740.675188,0.002613,-0.002591,-0.002342
-1.240000,0.960000,1.040075,0.080000,9491659.171854,310153457.759736,-314793203.149898,-28294092.810424,0.005870,-0.005905,-0.000533
-1.160000,0.960000,1.040028,0.080000,7170684.128858,398908506.466648,-414894962.916522,262039123.358976,0.007606,-0.007727,0.004937
-1.080000,0.960000,1.040002,0.080000,2390461.790196,220619281.111895,-243092884.148036,670028586.832471,0.004284,-0.004453,0.012624
-1.000000,0.960000,1.040069,0.080000,-3667627.717171,-327661485.361097,313278021.804086,939419306.955808,-0.006092,0.005984,0.017699
-0.920000,0.960000,1.040032,0.080000,-7541152.273486,-1106951479.806303,1117297139.835063,738657662.709621,-0.020914,0.020992,0.013917
-0.840000,0.960000,1.040001,0.080000,-4390108.480521,-1704362286.728264,1745172814.083915,-104173664.387048,-0.032342,0.032649,-0.001963
-0.760000,0.960000,1.040064,0.080000,9425490.557644,-1615798413.203040,1673017081.562593,-1384547795.453365,-0.030766,0.031197,-0.026086
-0.680000,0.960000,1.040036,0.080000,33238950.995780,-574478020.533377,617828745.648074,-2509001371.253477,-0.011069,0.011395,-0.047271
-0.600000,0.960000,1.040001,0.080000,60467975.167912,1181854417.813246,-1182634055.558301,-2761215607.007603,0.022271,-0.022277,-0.052023
-0.520000,0.960000,1.040058,0.080000,80136699.784896,2914199400.707263,-2969725955.389168,-1726391028.168916,0.055219,-0.055638,-0.032526
-0.440000,0.960000,1.040040,0.080000,81487153.630204,3710966695.664228,-3802019962.249048,382621346.001501,0.070431,-0.071118,0.007209
-0.360000,0.960000,1.040000,0.080000,59633803.554835,2984232895.366389,-3068724447.604031,2725892536.088162,0.056702,-0.057339,0.051357
-0.280000,0.960000,1.040053,0.080000,19188651.965258,848585092.590447,-882914496.851671,4207671275.754628,0.016182,-0.016441,0.079275
-0.200000,0.960000,1.040044,0.080000,-26481195.248684,-1855730257.826202,1892741624.946247,4036257981.796017,-0.035172,0.035451,0.076045
-0.120000,0.960000,1.040000,0.080000,-60496347.508149,-3937348309.825865,4031709753.218375,2165100297.168732,-0.074715,0.075426,0.040792
-0.040000,0.960000,1.040049,0.080000,-69878650.062075,-4439636868.190055,4548196472.151945,-638596962.295466,-0.084259,0.085077,-0.012032
0.040000,0.960000,1.040049,0.080000,-51498614.088247,-3126040167.677619,3198259099.672525,-3149390716.643333,-0.059305,0.059849,-0.059336
0.120000,0.960000,1.040000,0.080000,-13545113.505105,-602926813.637094,606632205.591433,-4281226361.484579,-0.011380,0.011408,-0.080661
0.200000,0.960000,1.040044,0.080000,28245091.229091,1986162464.237372,-2048960903.123302,-3612332508.215784,0.037775,-0.038249,-0.068058
0.280000,0.960000,1.040053,0.080000,57700840.513595,3529741209.882635,-3625272651.031713,-1563777620.302998,0.067042,-0.067762,-0.029462
0.360000,0.960000,1.040000,0.080000,65139455.379747,3477886106.768156,-3559450446.548755,851551339.403453,0.065986,-0.066601,0.016044
0.440000,0.960000,1.040040,0.080000,50808657.357903,2058972704.147908,-2091402441.805475,2560654937.732018,0.038976,-0.039220,0.048244
0.520000,0.960000,1.040058,0.080000,23494290.955596,89464171.847026,-65694129.830513,2949552746.055289,0.001551,-0.001372,0.055571
0.600000,0.960000,1.040001,0.080000,-4536124.116077,-1492802802.338508,1551574244.390869,2099159738.770858,-0.028457,0.028900,0.039549
0.680000,0.960000,1.040036,0.080000,-23365659.220079,-2099576945.188991,2158862212.309230,640040398.928780,-0.039892,0.040339,0.012059
0.760000,0.960000,1.040064,0.080000,-29113066.059861,-1715588031.109642,1747774425.409625,-653051674.097752,-0.032505,0.032747,-0.012304
0.840000,0.960000,1.040001,0.080000,-24072299.830229,-787053529.231596,784581352.655592,-1272074932.811817,-0.014815,0.014796,-0.023967
0.920000,0.960000,1.040032,0.080000,-13977866.825259,110010429.276851,-135150002.389118,-1165096798.367471,0.002215,-0.002404,-0.021951
1.000000,0.960000,1.040069,0.080000,-4436034.320712,595169313.545516,-622994787.098387,-639225224.436365,0.011371,-0.011580,-0.012043
1.080000,0.960000,1.040002,0.080000,1462582.747938,618516398.916636,-634424360.004233,-93908368.786933,0.011743,-0.011863,-0.001769
1.160000,0.960000,1.040028,0.080000,3495992.221294,373832370.328998,-375014730.539199,218431696.979637,0.007050,-0.007059,0.004115
1.240000,0.960000,1.040075,0.080000,3142316.481784,104164175.856988,-96824579.479373,269946971.897898,0.001921,-0.001866,0.005086
1.320000,0.960000,1.040003,0.080000,2077944.818740,-47808112.996227,55832181.381826,177242435.169794,-0.000946,0.001007,0.003339
1.400000,0.960000,1.040025,0.080000,1272799.447117,-68108260.856451,72794530.792535,68179598.963362,-0.001310,0.001345,0.001285
1.480000,0.960000,1.020050,0.080000,877230.932099,-10387177.026333,11890869.261599,-3027159.567791,-0.000204,0.000216,-0.000057
1.560000,0.960000,0.940055,0.080000,541568.968124,69420924.679455,-70385926.581367,-67793756.658607,0.001313,-0.001321,-0.001277
1.640000,0.960000,0.860060,0.080000,-225497.059706,113515298.818468,-121639856.039027,-224875949.379174,0.002185,-0.002246,-0.004237
1.720000,0.960000,0.780066,0.080000,-1646891.405439,-50987323.938145,14290988.493489,-633203429.529426,-0.000753,0.000477,-0.011930
1.800000,0.960000,0.700074,0.080000,-2452855.688182,-1052723937.686223,919899822.038758,-1460570010.323160,-0.019083,0.018082,-0.027518
1.880000,0.960000,0.620083,0.080000,4458979.629049,-4896621818.138945,4475954297.126636,-2407038307.927345,-0.089878,0.086707,-0.045350
1.960000,0.960000,0.540095,0.080000,45672344.485297,-17645455052.238655,17107340267.351704,481004830.871481,-0.329409,0.325354,0.009062
2.040000,0.960000,0.460112,0.080000,206059811.563572,-54311278020.445641,53643309012.993614,24784616911.119473,-1.019480,1.014447,0.466957
2.120000,0.960000,0.380136,0.080000,729577738.660679,-147960275367.951111,149054539800.699646,157487578796.846588,-2.793842,2.802089,2.967157
-2.120000,1.040000,0.380136,0.080000,-453415691.503584,53314976819.518631,-53717592248.023872,188169135524.955109,1.006761,-1.009795,3.545216
-2.040000,1.040000,0.460112,0.080000,-141466629.080451,31423943955.209923,-31090870549.106815,35744996083.438217,0.590163,-0.587653,0.673456
-1.960000,1.040000,0.540095,0.080000,-28561853.343506,12258400725.471302,-11973716626.718185,4812787041.479088,0.229346,-0.227201,0.090676
-1.880000,1.040000,0.620083,0.080000,3648607.435197,3745070551.751963,-3436164635.253572,-757027030.908169,0.068813,-0.066485,-0.014263
-1.800000,1.040000,0.700074,0.080000,10035320.780270,891501022.535623,-787570415.817378,-818605715.357495,0.016209,-0.015426,-0.015423
-1.720000,1.040000,0.780066,0.080000,10010872.211056,95505203.190209,-66843066.947963,-379870739.846060,0.001637,-0.001421,-0.007157
-1.640000,1.040000,0.860060,0.080000,9158073.016901,-70956664.203867,75159949.934568,-103841525.800339,-0.001361,0.001392,-0.001956
-1.560000,1.040000,0.940055,0.080000,8715083.332405,-108760046.303545,107868495.292253,2060842.538658,-0.002044,0.002037,0.000039
-1.480000,1.040000,0.960087,0.080000,8967636.306406,-140319532.003006,143760873.892180,-32787418.757278,-0.002663,0.002689,-0.000618
-1.400000,1.040000,0.960027,0.080000,10098919.181178,-109808557.133547,121166370.845295,-190324680.447442,-0.002133,0.002219,-0.003586
-1.320000,1.040000,0.960004,0.080000,11868212.371545,104924633.044362,-91635908.527912,-368584110.284810,0.001902,-0.001802,-0.006944
-1.240000,1.040000,0.960081,0.080000,12886450.100686,530851929.289096,-531294586.910483,-331520564.575252,0.010004,-0.010007,-0.006246
-1.160000,1.040000,0.960031,0.080000,10505368.738450,939775532.549629,-968162709.936385,164063671.665576,0.017866,-0.018080,0.003091
-1.080000,1.040000,0.960002,0.080000,2274437.543829,872558389.532198,-924346668.018037,1090747103.786139,0.016732,-0.017123,0.020550
-1.000000,1.040000,0.960075,0.080000,-11231938.543555,-50593050.835393,5998143.115164,1957628785.143336,-0.000701,0.000365,0.036883
-0.920000,1.040000,0.960035,0.080000,-24143684.401822,-1700664846.463434,1704839450.763417,1971971804.394292,-0.032065,0.032097,0.037153
-0.840000,1.040000,0.960001,0.080000,-26190994.830211,-3262265042.038244,3336459550.785537,573525594.055254,-0.061882,0.062441,0.010806
-0.760000,1.040000,0.960069,0.080000,-7801848.700694,-3575111028.267966,3695745334.295071,-1996212757.890238,-0.068039,0.068948,-0.037610
-0.680000,1.040000,0.960039,0.080000,32743672.149520,-1878574399.731010,1981520820.036933,-4561875474.403434,-0.035975,0.036751,-0.085948
-0.600000,1.040000,0.960001,0.080000,84691658.662165,1519364992.921713,-1503518460.512786,-5543003331.840276,0.028536,-0.028417,-0.104433
-0.520000,1.040000,0.960063,0.080000,126818169.022635,5160666375.143750,-5261444031.293689,-3898055141.517053,0.097800,-0.098559,-0.073442
-0.440000,1.040000,0.960043,0.080000,136520280.260337,7104283582.981397,-7286254002.129819,101548424.890593,0.134877,-0.136249,0.001913
-0.360000,1.040000,0.960000,0.080000,101847409.056945,6005910770.541921,-6181942395.852671,4803529239.740431,0.114150,-0.115476,0.090501
-0.280000,1.040000,0.960058,0.080000,29793862.214880,1974362742.288123,-2051366955.332356,7933670810.743369,0.037633,-0.038214,0.149475
-0.200000,1.040000,0.960048,0.080000,-54433055.972173,-3333253145.400694,3402251156.772516,7791311900.575431,-0.063190,0.063710,0.146793
-0.120000,1.040000,0.960000,0.080000,-117741155.757392,-7481073524.770437,7668835714.621354,4209085695.269561,-0.142009,0.143424,0.079302
-0.040000,1.040000,0.960053,0.080000,-134297172.017275,-8489753697.954356,8707175642.043715,-1278770892.792912,-0.161181,0.162819,-0.024093
0.040000,1.040000,0.960053,0.080000,-97823373.837121,-5865489711.398292,6007821051.814963,-6174735264.418450,-0.111314,0.112386,-0.116336
0.120000,1.040000,0.960000,0.080000,-24664243.912785,-860123472.585470,861590046.416499,-8272930414.390532,-0.016214,0.016225,-0.155867
0.200000,1.040000,0.960048,0.080000,53991287.806495,4177269381.649621,-4310299672.994864,-6756744136.642364,0.079454,-0.080457,-0.127301
0.280000,1.040000,0.960058,0.080000,106710975.264999,7000916475.633675,-7195880625.147619,-2556790349.095869,0.133003,-0.134473,-0.048171
0.360000,1.040000,0.960000,0.080000,115794879.773814,6571090909.308927,-6730121585.787444,2202356170.590948,0.124702,-0.125901,0.041494
0.440000,1.040000,0.960043,0.080000,83777638.039106,3477963752.749845,-3530259612.698146,5339455632.032511,0.065822,-0.066217,0.100598
0.520000,1.040000,0.960063,0.080000,29813884.044117,-505248554.170371,568943989.066112,5702636936.594047,-0.009879,0.010359,0.107441
0.600000,1.040000,0.960001,0.080000,-21300424.133779,-3444017163.213065,3573185911.827824,3623674152.705205,-0.065617,0.066591,0.068272
0.680000,1.040000,0.960039,0.080000,-51149441.466432,-4237900238.063932,4356918059.144770,543458540.202782,-0.080517,0.081414,0.010239
0.760000,1.040000,0.960069,0.080000,-54589322.964827,-3042705039.469754,3095650453.513074,-1904485142.853858,-0.057626,0.058025,-0.035882
0.840000,1.040000,0.960001,0.080000,-38870349.618768,-948766599.626236,926758095.826255,-2774305964.898890,-0.017751,0.017585,-0.052270
0.920000,1.040000,0.960035,0.080000,-16943145.901271,797474617.104894,-860995029.462519,-2151924388.999708,0.015384,-0.015863,-0.040544
1.000000,1.040000,0.960075,0.080000,263175.603053,1497984126.425441,-1556503912.657441,-848357642.264352,0.028554,-0.028995,-0.015984
1.080000,1.040000,0.960002,0.080000,8231127.913254,1225162217.095368,-1249926909.219435,249640112.828198,0.023223,-0.023409,0.004703
1.160000,1.040000,0.960031,0.080000,8501438.031322,532004085.402496,-523774011.278739,696274005.985509,0.009977,-0.009915,0.013118
1.240000,1.040000,0.960081,0.080000,5313689.287119,-35628729.153251,57321062.445096,578893319.880054,-0.000794,0.000957,0.010907
1.320000,1.040000,0.960004,0.080000,2224433.919915,-251358518.345614,267746842.848047,250549258.327316,-0.004828,0.004952,0.004720
1.400000,1.040000,0.960027,0.080000,649682.139734,-198028866.331876,202664095.076131,-384876.141477,-0.003757,0.003792,-0.000007
1.480000,1.040000,0.960087,0.080000,318422.988006,-66671939.316938,63260654.430576,-97144905.261813,-0.001237,0.001211,-0.001830
1.560000,1.040000,0.940055,0.080000,436028.068982,8126824.735205,-14916695.142488,-114635301.101953,0.000191,-0.000243,-0.002160
1.640000,1.040000,0.860060,0.080000,543683.240979,-38365151.355643,26656699.761607,-144985004.063421,-0.000657,0.000568,-0.002732
1.720000,1.040000,0.780066,0.080000,969477.667924,-299705332.202373,273353754.464821,-181082335.516013,-0.005498,0.005299,-0.003412
1.800000,1.040000,0.700074,0.080000,3460940.055096,-998678075.110151,944867640.801143,75757384.608876,-0.018512,0.018106,0.001427
1.880000,1.040000,0.620083,0.080000,12557606.613747,-2349247600.894360,2290281712.990104,1867932130.212500,-0.043928,0.043484,0.035193
1.960000,1.040000,0.540095,0.080000,36425595.878283,-3049889678.665009,3290694403.339579,10016451786.858763,-0.058823,0.060638,0.188716
2.040000,1.040000,0.460112,0.080000,75660882.326576,8275313368.865301,-7904222558.018961,36551343658.778221,0.153814,-0.151018,0.688649
2.120000,1.040000,0.380136,0.080000,38345685.906617,88269797467.158173,-88922834909.576721,122193375291.989502,1.666745,-1.671667,2.302194
-2.120000,1.120000,0.380000,0.080000,155833146.341045,-121945678922.289124,122814665295.042450,45073471144.140495,-2.302439,2.308988,0.849210
-2.040000,1.120000,0.460000,0.080000,-5496731.675988,-20490678633.116566,19982536592.273205,21762544575.770386,-0.383184,0.379355,0.410019
-1.960000,1.120000,0.540000,0.080000,-8281624.194277,-1197058394.682834,849185796.225566,7311610710.099227,-0.020587,0.017965,0.137755
-1.880000,1.120000,0.620000,0.080000,2096338.210656,952215111.483895,-980249472.595004,1662127406.388846,0.018099,-0.018310,0.031315
-1.800000,1.120000,0.700000,0.080000,7270701.025136,576087042.341354,-551818834.909714,190271313.431324,0.010717,-0.010534,0.003585
-1.720000,1.120000,0.780000,0.080000,8761814.350899,222912700.038982,-208123285.271532,-66165075.054120,0.004116,-0.004005,-0.001247
-1.640000,1.120000,0.860000,0.080000,8760226.916929,65503668.086029,-64444311.788925,-5497983.937003,0.001228,-0.001220,-0.000104
-1.560000,1.120000,0.880006,0.080000,8328913.160626,-63011056.326956,57278782.543049,102119469.088741,-0.001155,0.001112,0.001924
-1.480000,1.120000,0.880095,0.080000,8331506.306849,-268592809.086230,270785969.754457,79604016.430688,-0.005073,0.005089,0.001500
-1.400000,1.120000,0.880029,0.080000,10046374.887045,-429592957.851407,454218847.081571,-246166755.625192,-0.008233,0.008419,-0.004638
-1.320000,1.120000,0.880004,0.080000,14374091.824130,-188946482.268418,230312486.046735,-821464463.592171,-0.003794,0.004105,-0.015477
-1.240000,1.120000,0.880088,0.080000,19665003.871328,720491957.883757,-699098964.688208,-1140416832.589285,0.013454,-0.013292,-0.021486
-1.160000,1.120000,0.880033,0.080000,20204643.836546,1965392401.320242,-2009073189.946237,-453556110.675714,0.037276,-0.037605,-0.008545
-1.080000,1.120000,0.880003,0.080000,8412894.947610,2472773785.062492,-2587160607.145159,1508465437.001447,0.047235,-0.048097,0.028420
-1.000000,1.120000,0.880081,0.080000,-18522506.240550,1084452869.739698,-1206800804.926343,3865301833.276931,0.021123,-0.022045,0.072825
-0.920000,1.120000,0.880038,0.080000,-51655202.827908,-2312025015.096551,2283972308.705390,4765257415.723131,-0.043401,0.043190,0.089780
-0.840000,1.120000,0.880002,0.080000,-69809581.274431,-6137407811.506932,6269199835.913953,2599241141.882933,-0.116377,0.117370,0.048971
-0.760000,1.120000,0.880075,0.080000,-49468930.472914,-7740233868.433854,7994958150.904253,-2530937545.310794,-0.147270,0.149190,-0.047684
-0.680000,1.120000,0.880042,0.080000,18877877.160884,-5099380504.613315,5339816094.355027,-8294097948.804992,-0.097434,0.099246,-0.156266
-0.600000,1.120000,0.880001,0.080000,118410759.747891,1519845611.333803,-1453095953.148534,-11191667453.962736,0.028257,-0.027754,-0.210858
-0.520000,1.120000,0.880069,0.080000,207810846.843443,9211038290.653126,-9394892617.781603,-8680366283.576885,0.174580,-0.175966,-0.163543
-0.440000,1.120000,0.880047,0.080000,239362797.472896,13805365206.529976,-14173826653.727619,-999261569.454160,0.262184,-0.264961,-0.018827
-0.360000,1.120000,0.880000,0.080000,184773598.482132,12245639610.772902,-12615920205.066174,8555809000.002864,0.232808,-0.235598,0.161196
-0.280000,1.120000,0.880063,0.080000,54036439.256133,4520450835.207771,-4692295806.659928,15212164765.868452,0.086139,-0.087434,0.286606
-0.200000,1.120000,0.880052,0.080000,-104599717.946949,-6053004578.811614,6183491434.569549,15297824482.380451,-0.114780,0.115763,0.288220
-0.120000,1.120000,0.880000,0.080000,-225280108.886700,-14435240590.076883,14813999629.816479,8335168066.484451,-0.274109,0.276964,0.157039
-0.040000,1.120000,0.880057,0.080000,-255848302.043848,-16491741395.809452,16932800776.858959,-2564328940.815602,-0.313207,0.316531,-0.048313
0.040000,1.120000,0.880057,0.080000,-183515992.538987,-11185874128.082970,11470163282.698544,-12252219651.987661,-0.212355,0.214498,-0.230839
0.120000,1.120000,0.880000,0.080000,-41299520.114873,-1129028105.005136,1120767148.330316,-16198298924.374346,-0.021225,0.021163,-0.305185
0.200000,1.120000,0.880052,0.080000,108193039.987341,8804151616.186029,-9087517675.166899,-12801850401.249626,0.167477,-0.169612,-0.241194
0.280000,1.120000,0.880063,0.080000,203040305.108779,14024115654.956125,-14426018260.392374,-4116710115.983887,0.266494,-0.269523,-0.077561
0.360000,1.120000,0.880000,0.080000,210545712.350481,12542445455.618547,-12856060609.388317,5366460565.117075,0.238080,-0.240443,0.101107
0.440000,1.120000,0.880047,0.080000,139661218.422682,5812887417.032981,-5893905774.117817,11165183998.652214,0.109976,-0.110587,0.210359
0.520000,1.120000,0.880069,0.080000,32058183.791170,-2301464723.164645,2462095194.995944,11099409739.177958,-0.044269,0.045479,0.209119
0.600000,1.120000,0.880001,0.080000,-61783663.953247,-7772746684.899189,8056274093.236215,6180091382.016087,-0.148046,0.150182,0.116437
0.680000,1.120000,0.880042,0.080000,-107585267.575404,-8535117605.849711,8774803614.913380,-317106865.756009,-0.162161,0.163968,-0.005974
0.760000,1.120000,0.880075,0.080000,-100200088.981714,-5291808046.993686,5373361422.129336,-4926499556.070765,-0.100162,0.100776,-0.092818
0.840000,1.120000,0.880002,0.080000,-59429973.731725,-655773396.834977,575169668.238307,-5900045234.523572,-0.011900,0.011292,-0.111160
0.920000,1.120000,0.880038,0.080000,-13969243.562609,2675277104.368015,-2829490530.799073,-3827765187.647084,0.051275,-0.052438,-0.072117
1.000000,1.120000,0.880081,0.080000,15300489.488587,3460019750.780708,-3580041655.719052,-764527083.442026,0.065867,-0.066772,-0.014404
1.080000,1.120000,0.880003,0.080000,23141012.448307,2244691892.375198,-2275295979.793607,1344726343.121178,0.042464,-0.042695,0.025335
1.160000,1.120000,0.880033,0.080000,16786009.415351,500783897.694537,-459800808.666052,1783778239.386960,0.009203,-0.008895,0.033607
1.240000,1.120000,0.880088,0.080000,6970248.293736,-584650062.825495,641550275.178454,1081538134.617695,-0.011337,0.011766,0.020377
1.320000,1.120000,0.880004,0.080000,557317.573996,-740220673.557189,770810810.740796,204522466.975084,-0.014119,0.014350,0.003853
1.400000,1.120000,0.880029,0.080000,-1290177.021690,-391444304.565146,390485425.288673,-250182409.284994,-0.007370,0.007362,-0.004714
1.480000,1.120000,0.880095,0.080000,-618161.234571,-51400427.022448,37144502.341111,-271886182.005675,-0.000888,0.000780,-0.005122
1.560000,1.120000,0.880006,0.080000,466731.102217,63514932.578081,-74866345.788833,-132918737.109998,0.001261,-0.001346,-0.002504
1.640000,1.120000,0.860000,0.080000,1205416.994292,-859007.008705,-4278511.525446,-21090219.786149,0.000013,-0.000052,-0.000397
1.720000,1.120000,0.780000,0.080000,1969203.999257,-132862970.478197,133412876.625778,101758560.858515,-0.002506,0.002510,0.001917
1.800000,1.120000,0.700000,0.080000,3546597.044382,-166362532.212661,192430666.813004,489885265.070642,-0.003282,0.003478,0.009230
1.880000,1.120000,0.620000,0.080000,5909164.776712,597501274.147855,-447111631.233506,1594672188.543527,0.010407,-0.009274,0.030045
1.960000,1.120000,0.540000,0.080000,3150021.506540,5227843495.852812,-4885227459.285501,3388119232.798290,0.096559,-0.093977,0.063834
2.040000,1.120000,0.460000,0.080000,-37074943.351950,24130353942.662262,-23663193903.617451,457039916.033240,0.451989,-0.448469,0.008611
2.120000,1.120000,0.380000,0.080000,-244780420.869149,86785881434.920822,-87441166145.807251,-47561605465.612106,1.638800,-1.643738,-0.896088
-2.120000,1.200000,0.380106,0.080000,163297045.991111,-26894112454.394627,27172552281.584862,-73605224138.610413,-0.508274,0.510373,-1.386765
-2.040000,1.200000,0.460087,0.080000,44238852.289141,-13719240112.369020,13441402388.735781,-8894743027.437605,-0.256908,0.254814,-0.167582
-1.960000,1.200000,0.540074,0.080000,12351102.905041,-3987284598.098210,3783863580.267840,324251223.076660,-0.073973,0.072440,0.006109
-1.880000,1.200000,0.620065,0.080000,7447134.707199,-722143702.547073,596039110.157750,764007057.742563,-0.012893,0.011942,0.014394
-1.800000,1.200000,0.700057,0.080000,8002251.348573,-2012615.722170,-20718640.373802,262142734.370262,0.000091,-0.000262,0.004939
-1.720000,1.200000,0.780051,0.080000,8778006.575422,125453291.523267,-124824206.940787,17092201.361280,0.002360,-0.002355,0.000322
-1.640000,1.200000,0.800028,0.080000,8770971.403291,184854465.515469,-193327107.856385,49952208.962051,0.003531,-0.003595,0.000941
-1.560000,1.200000,0.800006,0.080000,7621183.746738,100993320.103654,-127397495.519828,322980604.892573,0.002052,-0.002251,0.006085
-1.480000,1.200000,0.800105,0.080000,5970793.310387,-390889193.336695,373271175.933375,531777813.561874,-0.007265,0.007132,0.010019
-1.400000,1.200000,0.800032,0.080000,6945853.527884,-1158050406.440887,1198925384.697828,36875196.578355,-0.022049,0.022357,0.000695
-1.320000,1.200000,0.800004,0.080000,15123852.531613,-1262558243.670977,1372680522.138040,-1471662044.560712,-0.024410,0.025240,-0.027727
-1.240000,1.200000,0.800097,0.080000,30731744.391657,424844501.483415,-327055185.639817,-3035021521.096869,0.007452,-0.006715,-0.057182
-1.160000,1.200000,0.800037,0.080000,43001495.986544,3697020459.400907,-3744189642.889973,-2565058397.995616,0.069921,-0.070276,-0.048327
-1.080000,1.200000,0.800003,0.080000,31852088.345536,6157399528.957428,-6402241007.460103,1334839381.542434,0.117393,-0.119238,0.025149
-1.000000,1.200000,0.800090,0.080000,-17244841.002330,4550459882.967734,-4867416520.391663,7260616555.089504,0.087525,-0.089913,0.136794
-0.920000,1.200000,0.800041,0.080000,-93536323.861372,-2280089038.365769,2141414292.510824,10939385020.814896,-0.042174,0.041129,0.206104
-0.840000,1.200000,0.800002,0.080000,-154369988.917411,-11340709936.849302,11567104589.965563,8011288909.535197,-0.214945,0.216651,0.150937
-0.760000,1.200000,0.800083,0.080000,-143969334.526500,-16571021489.234970,17111668045.960651,-2203828763.245454,-0.315263,0.319338,-0.041521
-0.680000,1.200000,0.800046,0.080000,-30769789.900387,-12793587790.714142,13350602852.979748,-15059940840.784090,-0.244187,0.248385,-0.283738
-0.600000,1.200000,0.800001,0.080000,160947275.666661,206376678.603953,-406650.508264,-22761512697.358509,0.002724,-0.001172,-0.428840
-0.520000,1.200000,0.800076,0.080000,350096982.941800,16557084290.925484,-16894801335.837431,-19199985726.114384,0.313854,-0.316399,-0.361739
-0.440000,1.200000,0.800052,0.080000,435309443.495578,27219492616.688103,-27975629581.359741,-4251355292.235188,0.517105,-0.522803,-0.080098
-0.360000,1.200000,0.800000,0.080000,350861718.502088,25264248723.652344,-26050075934.448555,15405231337.084763,0.480435,-0.486357,0.290243
-0.280000,1.200000,0.800069,0.080000,109443441.944978,10233448015.319708,-10615382251.272148,29646350566.596470,0.194963,-0.197841,0.558554
-0.200000,1.200000,0.800057,0.080000,-195176695.145010,-11128274154.248272,11379120750.304960,30510972026.837639,-0.211081,0.212971,0.574844
-0.120000,1.200000,0.800000,0.080000,-430083374.065031,-28282184391.584980,29056088870.709747,16771550186.358145,-0.537227,0.543059,0.315986
-0.040000,1.200000,0.800063,0.080000,-488629648.813148,-32523735777.597641,33428874358.947460,-5175240423.093700,-0.617882,0.624703,-0.097505
0.040000,1.200000,0.800063,0.080000,-344455327.956508,-21670220639.251579,22245059398.737183,-24608734392.178017,-0.411529,0.415861,-0.463643
0.120000,1.200000,0.800000,0.080000,-65039991.958313,-1219447962.581763,1181378421.014366,-32135196106.658619,-0.022760,0.022473,-0.605446
0.200000,1.200000,0.800057,0.080000,222409337.403711,18623423374.299149,-19230074883.312046,-24579561735.143074,0.354305,-0.358877,-0.463093
0.280000,1.200000,0.800069,0.080000,394310576.606623,28380600796.668850,-29217041139.659924,-6468437994.710053,0.539435,-0.545738,-0.121869
0.360000,1.200000,0.800000,0.080000,389597503.399024,24200648123.436729,-24826533889.392921,12642506280.977123,0.459492,-0.464209,0.238192
0.440000,1.200000,0.800052,0.080000,233757563.880892,9556102020.384039,-9673415739.056007,23443692497.801281,0.180706,-0.181590,0.441693
0.520000,1.200000,0.800076,0.080000,17459707.174057,-7109222740.431547,7500460901.177245,21762755015.813770,-0.136153,0.139102,0.410023
0.600000,1.200000,0.800001,0.080000,-155695974.646158,-17324131827.490612,17947490014.010082,10340330247.555653,-0.329920,0.334618,0.194818
0.680000,1.200000,0.800046,0.080000,-221729031.780017,-17186267756.798019,17671596723.229034,-3392724365.837186,-0.326542,0.330200,-0.063921
0.760000,1.200000,0.800083,0.080000,-180685300.955935,-8938010352.506437,9048608746.835657,-12021276676.212412,-0.169022,0.169856,-0.226488
0.840000,1.200000,0.800002,0.080000,-83088511.175631,1224032203.990782,-1465844124.695060,-12337337164.933277,0.024428,-0.026251,-0.232443
0.920000,1.200000,0.800041,0.080000,8150490.316910,7435307937.981971,-7801601052.531833,-6460528942.045177,0.142156,-0.144916,-0.121720
1.000000,1.200000,0.800090,0.080000,54018106.582074,7586368500.986932,-7826645889.066949,514194887.098109,0.144290,-0.146100,0.009688
1.080000,1.200000,0.800003,0.080000,52763793.560689,3725316250.320759,-3736714869.373225,4343597012.361068,0.070252,-0.070337,0.081836
1.160000,1.200000,0.800037,0.080000,27701509.023592,-369523859.351182,508931620.624121,4083899965.056856,-0.007750,0.008801,0.076943
1.240000,1.200000,0.800097,0.080000,4140692.911498,-2191292657.853551,2329801745.619832,1676885851.967737,-0.042068,0.043112,0.031594
1.320000,1.200000,0.800004,0.080000,-6218748.184110,-1738982834.803801,1785855898.355713,-378230716.099221,-0.033028,0.033382,-0.007126
1.400000,1.200000,0.800032,0.080000,-5695782.975254,-512344155.079712,482394096.255348,-980642472.598519,-0.009484,0.009258,-0.018476
1.480000,1.200000,0.800105,0.080000,-1692548.316168,237358858.056103,-280532984.373307,-584558953.271420,0.004716,-0.005041,-0.011013
1.560000,1.200000,0.800006,0.080000,1039260.985967,303153836.095243,-320543431.729161,-81690084.951470,0.005810,-0.005941,-0.001539
1.640000,1.200000,0.800028,0.080000,1911812.722822,101316556.320542,-95673202.971682,125739951.983597,0.001877,-0.001834,0.002369
1.720000,1.200000,0.780051,0.080000,2092632.801677,-2697428.577823,18009365.613593,156396311.192804,-0.000137,0.000253,0.002947
1.800000,1.200000,0.700057,0.080000,2200454.859985,159549412.779310,-128127400.242849,199664854.315942,0.002828,-0.002592,0.003762
1.880000,1.200000,0.620065,0.080000,1120022.134869,828604890.341518,-751168465.072230,55195107.300864,0.015174,-0.014590,0.001040
1.960000,1.200000,0.540074,0.080000,-5496613.689293,2284439555.706045,-2288463804.329415,-2061218099.296583,0.043063,-0.043093,-0.038835
2.040000,1.200000,0.460087,0.080000,-25616581.244374,1470592442.657960,-1498017790.108957,-12090159545.709244,0.027862,-0.028069,-0.227786
2.120000,1.200000,0.380106,0.080000,-44746999.746158,-27296897701.541004,27452267824.766953,-52078822140.084579,-0.515168,0.516338,-0.981195
-2.120000,1.280000,0.380169,0.080000,-23418610.373873,41554551731.442619,-41855783231.196953,-9338726931.351612,0.784614,-0.786885,-0.175947
-2.040000,1.280000,0.460140,0.080000,16022058.176705,4995417708.490490,-4852074040.705837,-6338418817.281771,0.093306,-0.092226,-0.119419
-1.960000,1.280000,0.540119,0.080000,12698611.179506,-322398713.418619,406982109.929886,-1694527506.339949,-0.006552,0.007190,-0.031926
-1.880000,1.280000,0.620104,0.080000,9609128.093357,-408944263.937446,382613584.209547,-152763092.638919,-0.007556,0.007357,-0.002878
-1.800000,1.280000,0.700092,0.080000,9006196.353138,-181187326.406314,174623949.364461,16643754.063648,-0.003377,0.003327,0.000314
-1.720000,1.280000,0.720125,0.080000,9584188.716062,5052406.031944,11095249.170418,-165142895.516819,0.000004,0.000118,-0.003111
-1.640000,1.280000,0.720031,0.080000,10049951.887343,405336270.982269,-410545840.900933,-183835464.479025,0.007666,-0.007705,-0.003464
-1.560000,1.280000,0.720007,0.080000,7900568.084970,740291837.966572,-815101894.137913,525673290.972607,0.014370,-0.014934,0.009904
-1.480000,1.280000,0.720116,0.080000,1396284.360953,-69600250.728016,-29778467.289637,1728388130.488585,-0.000750,0.000001,0.032564
-1.400000,1.280000,0.720036,0.080000,-4022075.493344,-2481820596.487415,2516099667.916914,1579059795.565058,-0.046953,0.047211,0.029750
-1.320000,1.280000,0.720005,0.080000,6358597.200496,-4369347490.384027,4636626597.830873,-1819313498.265956,-0.083832,0.085846,-0.034277
-1.240000,1.280000,0.720108,0.080000,43138282.254277,-1893924211.666246,2226727174.290042,-7063811899.939650,-0.037564,0.040072,-0.133086
-1.160000,1.280000,0.720041,0.080000,89945766.010581,6039608115.026541,-6017008294.739707,-8639099897.589655,0.113662,-0.113492,-0.162766
-1.080000,1.280000,0.720003,0.080000,97846760.162735,14286143741.761608,-14796402443.637314,-1438297527.341583,0.272043,-0.275889,-0.027098
-1.000000,1.280000,0.720100,0.080000,17361384.315276,14033717839.620705,-14832056238.897976,12853606852.481155,0.268916,-0.274932,0.242169
-0.920000,1.280000,0.720046,0.080000,-148068942.311099,587295695.150273,-1057304907.138017,24400927126.985756,0.013722,-0.017264,0.459728
-0.840000,1.280000,0.720002,0.080000,-314352637.585290,-20515973364.529427,20885524527.823505,21721058168.928638,-0.388622,0.391407,0.409237
-0.760000,1.280000,0.720092,0.080000,-351532149.537833,-35330475521.418320,36488427427.306854,1374729108.786395,-0.672192,0.680918,0.025901
-0.680000,1.280000,0.720052,0.080000,-169585109.172922,-30852953574.392250,32140025746.516865,-27278155652.581894,-0.588562,0.598262,-0.513936
-0.600000,1.280000,0.720001,0.080000,202048631.327193,-5060053169.143302,5624734622.743840,-46701401733.459145,-0.098526,0.102782,-0.879881
-0.520000,1.280000,0.720084,0.080000,602659129.886019,29971816344.735069,-30598852694.359581,-42371407426.520576,0.568231,-0.572956,-0.798302
-0.440000,1.280000,0.720058,0.080000,815224797.990466,54443182545.542564,-56016350691.347107,-12855323840.705166,1.034633,-1.046489,-0.242202
-0.360000,1.280000,0.720000,0.080000,688815389.325777,52687346992.317375,-54368436496.668755,28063015320.946133,1.002162,-1.014831,0.528723
-0.280000,1.280000,0.720077,0.080000,235305318.495727,22978162777.752827,-23823670303.512905,58693456396.396866,0.437701,-0.444073,1.105819
-0.200000,1.280000,0.720064,0.080000,-360194413.123503,-20746458972.485912,21237906300.329094,61728293729.280556,-0.393653,0.397357,1.162997
-0.120000,1.280000,0.720000,0.080000,-825873658.567374,-56237517106.328598,57837487586.384499,34208224378.794540,-1.068591,1.080648,0.644503
-0.040000,1.280000,0.720070,0.080000,-941237494.321895,-65058215130.299736,66934615027.834129,-10544281740.708813,-1.236340,1.250481,-0.198660
0.040000,1.280000,0.720070,0.080000,-651486879.596017,-42612083017.868011,43787201218.027321,-50013940324.273743,-0.809478,0.818334,-0.942292
0.120000,1.280000,0.720000,0.080000,-96067806.005974,-564037988.666612,445810597.699929,-64565960904.239594,-0.009959,0.009068,-1.216460
0.200000,1.280000,0.720064,0.080000,463671392.156063,39565083412.929184,-40869334300.801575,-47831212628.272400,0.752801,-0.762630,-0.901168
0.280000,1.280000,0.720077,0.080000,778021702.217992,58020220597.085838,-59776492801.343140,-9766957753.325392,1.103061,-1.116297,-0.184015
0.360000,1.280000,0.720000,0.080000,731586830.521282,47232296348.698639,-48497213646.833748,29181295660.776665,0.897033,-0.906566,0.549793
0.440000,1.280000,0.720058,0.080000,390463128.974582,15313624258.485464,-15463139320.461187,49481018631.990517,0.289363,-0.290489,0.932251
0.520000,1.280000,0.720084,0.080000,-47771090.308027,-19223545357.911510,20155900960.653606,43026729975.829445,-0.367453,0.374479,0.810649
0.600000,1.280000,0.720001,0.080000,-368587533.010916,-38370774017.506073,39746589352.999275,16791921224.701067,-0.730704,0.741072,0.316370
0.680000,1.280000,0.720052,0.080000,-452117171.270633,-34672551037.442993,35663650972.668839,-12371592892.256744,-0.658853,0.666322,-0.233088
0.760000,1.280000,0.720092,0.080000,-319706634.228888,-14414161285.381268,14521034628.111492,-28426840713.601280,-0.272175,0.272981,-0.535578
0.840000,1.280000,0.720002,0.080000,-95662257.209135,7778029014.918655,-8444090971.808638,-25509425295.647705,0.150307,-0.155327,-0.480612
0.920000,1.280000,0.720046,0.080000,82662374.506357,19039282422.051090,-19900584095.735008,-10002865438.057045,0.363579,-0.370070,-0.188460
1.000000,1.280000,0.720100,0.080000,144355612.402936,16029615459.216816,-16498660722.677271,5582169837.003668,0.304658,-0.308193,0.105171
1.080000,1.280000,0.720003,0.080000,106254059.565593,5167294307.049761,-5059692431.174355,11973647599.511515,0.096747,-0.095936,0.225590
1.160000,1.280000,0.720041,0.080000,34344039.019652,-4004755092.801657,4420676997.966865,8608328803.098795,-0.077803,0.080937,0.162186
1.240000,1.280000,0.720108,0.080000,-14510644.927911,-6343643824.308418,6662171229.260021,1625029721.164801,-0.121318,0.123719,0.030617
1.320000,1.280000,0.720005,0.080000,-24652967.552752,-3434731792.982936,3470547893.505314,-2713716544.285646,-0.064915,0.065185,-0.051128
1.400000,1.280000,0.720036,0.080000,-12922218.086084,59093589.240398,-196314874.098265,-2771677174.249157,0.001889,-0.002923,-0.052220
1.480000,1.280000,0.720116,0.080000,-686021.606589,1318933645.215648,-1432365214.968731,-890263323.094099,0.025491,-0.026345,-0.016773
1.560000,1.280000,0.720007,0.080000,3739161.997822,781386643.831175,-795057451.944330,365097517.066622,0.014799,-0.014902,0.006879
1.640000,1.280000,0.720031,0.080000,3172227.399426,59131413.506524,-23657214.273631,455764747.099493,0.000914,-0.000646,0.008587
1.720000,1.280000,0.720125,0.080000,2016279.320809,-121187230.581067,145445487.912491,140679772.953188,-0.002420,0.002603,0.002650
1.800000,1.280000,0.700092,0.080000,1539710.773222,26671117.097457,-24639678.710514,-70385040.637563,0.000491,-0.000476,-0.001326
1.880000,1.280000,0.620104,0.080000,934869.592848,93331630.213084,-124317208.955037,-372369011.501957,0.001934,-0.002167,-0.007016
1.960000,1.280000,0.540119,0.080000,74857.569528,-845967099.022463,726315133.751749,-1210555756.641510,-0.015262,0.014360,-0.022808
2.040000,1.280000,0.460140,0.080000,5987875.739414,-6497039975.345660,6316312656.369980,-1160133897.731998,-0.121386,0.120024,-0.021858
2.120000,1.280000,0.380169,0.080000,57933454.036464,-27063470462.039116,27316988482.263306,16875215441.379599,-0.511324,0.513235,0.317939
-2.120000,1.360000,0.380004,0.080000,-16513781.078960,-107918962.828819,-1193162.180641,19867082678.463539,-0.001417,0.000594,0.374307
-2.040000,1.360000,0.460003,0.080000,4012620.409523,2785765404.041021,-2679734967.074418,1973268868.244701,0.051886,-0.051087,0.037178
-1.960000,1.360000,0.540003,0.080000,9149093.202486,752483896.541324,-689198185.429766,-222377617.483563,0.013820,-0.013343,-0.004190
-1.880000,1.360000,0.620003,0.080000,9264079.378788,50749877.718023,-38013375.602415,-75239218.684078,0.000884,-0.000788,-0.001418
-1.800000,1.360000,0.640010,0.080000,8912601.823310,-253014918.053178,261244840.176084,75671318.321184,-0.004813,0.004875,0.001426
-1.720000,1.360000,0.640141,0.080000,10194261.667479,-429348186.073371,510050645.846913,-453647473.235358,-0.008545,0.009154,-0.008547
-1.640000,1.360000,0.640035,0.080000,13882469.922538,496758975.174271,-429298145.517711,-1270460860.142946,0.008978,-0.008470,-0.023936
-1.560000,1.360000,0.640008,0.080000,13820577.244858,2594614562.280009,-2754492784.365795,-116943177.021902,0.049788,-0.050993,-0.002203
-1.480000,1.360000,0.640131,0.080000,-2185746.370355,2379238480.764102,-2752317169.283821,4191374610.991961,0.046935,-0.049747,0.078968
-1.400000,1.360000,0.640040,0.080000,-31068537.356431,-3909570435.146360,3792014089.535843,6998941278.972988,-0.072994,0.072108,0.131864
-1.320000,1.360000,0.640005,0.080000,-33806612.928367,-12317664549.420673,12917486276.485910,553559611.142483,-0.235462,0.239983,0.010429
-1.240000,1.360000,0.640121,0.080000,38821108.588479,-10917371126.657000,11933312514.769800,-14755558656.278795,-0.211432,0.219088,-0.278003
-1.160000,1.360000,0.640046,0.080000,174912663.778285,7275481170.048823,-6895407301.592875,-24786007109.631191,0.134926,-0.132062,-0.466983
-1.080000,1.360000,0.640004,0.080000,261819041.423943,31650390645.832851,-32687852755.330666,-12925620781.300856,0.602176,-0.609994,-0.243526
-1.000000,1.360000,0.640112,0.080000,152376919.577307,38677537910.470528,-40666641770.387749,20807876433.322231,0.739950,-0.754940,0.392032
-0.920000,1.360000,0.640052,0.080000,-192415606.312441,12759895425.350813,-14161503193.936485,53589871908.173592,0.248326,-0.258889,1.009664
-0.840000,1.360000,0.640002,0.080000,-610244529.266479,-36114384865.388123,36669270749.719376,55533717940.934868,-0.683552,0.687734,1.046287
-0.760000,1.360000,0.640103,0.080000,-800257749.350617,-75433862998.876312,77947681070.450546,14832496858.919954,-1.435426,1.454371,0.279453
-0.680000,1.360000,0.640058,0.080000,-522709278.241813,-72879191603.394089,75856297353.688416,-49264632782.299370,-1.389913,1.412349,-0.928174
-0.600000,1.360000,0.640001,0.080000,203279558.173656,-21024115953.058880,22478820044.613102,-96828132291.400116,-0.404329,0.415292,-1.824298
-0.520000,1.360000,0.640095,0.080000,1055067607.889432,54701835532.063919,-55887203451.689018,-93560492699.948563,1.037314,-1.046247,-1.762734
-0.440000,1.360000,0.640065,0.080000,1563927030.218348,110470623281.191208,-113789856774.363235,-34332946464.644188,2.100091,-2.125106,-0.646853
-0.360000,1.360000,0.640000,0.080000,1385749341.115393,110955979205.578888,-114576942954.697510,51812993562.976067,2.110941,-2.138230,0.976187
-0.280000,1.360000,0.640087,0.080000,519199943.625023,51269853618.399193,-53132896105.438866,117977084797.376419,0.976484,-0.990524,2.222757
-0.200000,1.360000,0.640072,0.080000,-664314777.001786,-39299555375.636566,40283675498.593658,126492499036.519943,-0.745989,0.753405,2.383192
-0.120000,1.360000,0.640000,0.080000,-1602241370.055898,-113405037254.995651,116747489847.686722,70562284673.968399,-2.155509,2.180698,1.329434
-0.040000,1.360000,0.640079,0.080000,-1834439468.096868,-131841539963.610474,135764370900.483780,-21728970896.006920,-2.506144,2.535707,-0.409386
0.040000,1.360000,0.640079,0.080000,-1246382729.354245,-84958863933.380432,87383792657.428146,-102773584930.547775,-1.614380,1.632655,-1.936314
0.120000,1.360000,0.640000,0.080000,-129132591.646817,2341729290.800476,-2660816909.260041,-131278849601.106277,0.045923,-0.048328,-2.473370
0.200000,1.360000,0.640072,0.080000,975042883.470434,84425379810.474045,-87237925376.171860,-94332281373.761765,1.606520,-1.627716,-1.777275
0.280000,1.360000,0.640087,0.080000,1555768887.249494,119788045645.790207,-123504962543.099594,-13770286138.299503,2.277885,-2.305896,-0.259440
0.360000,1.360000,0.640000,0.080000,1392165368.665684,93302936124.047745,-95893599204.899750,66485694280.610428,1.772524,-1.792048,1.252629
0.440000,1.360000,0.640065,0.080000,646993939.412915,23579722928.266010,-23718372293.204159,105061391937.041946,0.445039,-0.446084,1.979418
0.520000,1.360000,0.640095,0.080000,-248241389.555317,-48701000421.280685,50890080571.225250,85890102324.833603,-0.929928,0.946426,1.618219
0.600000,1.360000,0.640001,0.080000,-844957541.574805,-84823449215.434677,87877038046.268280,25994894572.200760,-1.615382,1.638395,0.489759
0.680000,1.360000,0.640058,0.080000,-917205369.311770,-70258412025.955307,72308036412.979340,-36384901269.981720,-1.335294,1.350740,-0.685513
0.760000,1.360000,0.640103,0.080000,-552163826.131904,-21455434170.708149,21419750864.975319,-66108159323.655052,-0.404031,0.403762,-1.245516
0.840000,1.360000,0.640002,0.080000,-49558465.687412,27093573106.485821,-28849169701.959236,-52395400343.860909,0.520382,-0.533612,-0.987160
0.920000,1.360000,0.640052,0.080000,290339192.054749,46763094592.783607,-48786323092.075417,-12955072103.826893,0.892479,-0.907727,-0.244081
1.000000,1.360000,0.640112,0.080000,343255019.947624,32872136608.880291,-33762777630.375610,21541878799.552071,0.624364,-0.631076,0.405861
1.080000,1.360000,0.640004,0.080000,191112664.772074,4008969125.287697,-3450571502.952384,30626004495.583614,0.072375,-0.068167,0.577012
1.160000,1.360000,0.640046,0.080000,9711992.667588,-15794736835.116861,16963690250.189777,16702752951.983328,-0.304189,0.312999,0.314690
1.240000,1.360000,0.640121,0.080000,-77865421.931827,-16291864458.466599,16987870179.607897,-2029676613.423076,-0.310882,0.316127,-0.038240
1.320000,1.360000,0.640005,0.080000,-65288882.383391,-5278867674.355240,5149055599.829669,-10093086272.559776,-0.098723,0.097745,-0.190160
1.400000,1.360000,0.640040,0.080000,-17808436.805167,3526131749.497447,-4009051754.823033,-6475553391.550044,0.069164,-0.072803,-0.122003
1.480000,1.360000,0.640131,0.080000,10189363.061559,4381073471.172100,-4638090724.451601,-125542521.598903,0.083995,-0.085932,-0.002365
1.560000,1.360000,0.640008,0.080000,11479795.280346,1219167370.500570,-1152451379.113810,2211097975.165991,0.022593,-0.022090,0.041658
1.640000,1.360000,0.640035,0.080000,4311840.040133,-704598978.158234,841046967.572428,1103493540.249878,-0.014046,0.015075,0.020790
1.720000,1.360000,0.640141,0.080000,905986.673810,-563806192.589719,597644726.746020,-119179168.931452,-0.010814,0.011069,-0.002245
1.800000,1.360000,0.640010,0.080000,1078699.821266,-52056348.286621,16404591.872671,-305148574.989419,-0.000779,0.000511,-0.005749
1.880000,1.360000,0.620003,0.080000,1776669.936378,-50422731.341517,7879330.069845,-142054621.402395,-0.000710,0.000389,-0.002676
1.960000,1.360000,0.540003,0.080000,2910202.805020,-507280411.813200,496785871.431477,251876781.581383,-0.009498,0.009419,0.004746
2.040000,1.360000,0.460003,0.080000,6918724.635796,-340198046.281309,327132967.953505,2482435167.913240,-0.006336,0.006237,0.046771
2.120000,1.360000,0.380004,0.080000,9169179.455975,10147222929.405563,-10209120609.844267,10745289927.668749,0.191529,-0.191996,0.202447
-2.120000,1.440000,0.380079,0.080000,16125976.462935,-7363536551.616426,7538230599.980406,-2863885677.596573,-0.139721,0.141037,-0.053957
-2.040000,1.440000,0.460065,0.080000,8428625.072052,-1020676484.767218,998780954.829124,756750337.293353,-0.019106,0.018941,0.014258
-1.960000,1.440000,0.540056,0.080000,9033807.637811,128508188.753281,-125575419.079030,120664426.924009,0.002405,-0.002382,0.002273
-1.880000,1.440000,0.560035,0.080000,9153922.333316,327378814.929940,-396307507.045419,147319454.725064,0.006558,-0.007077,0.002776
-1.800000,1.440000,0.560012,0.080000,7244496.225757,-171184792.755039,87926530.741887,928588277.127399,-0.002755,0.002127,0.017495
-1.720000,1.440000,0.560161,0.080000,7111737.128138,-2053371114.263749,2280997498.947338,4299221.425619,-0.039973,0.041689,0.000081
-1.640000,1.440000,0.560040,0.080000,19663289.732193,-1390011402.348665,1819190418.275361,-4392623463.139108,-0.028614,0.031849,-0.082760
-1.560000,1.440000,0.560009,0.080000,38028776.779037,6496596139.752151,-6694390232.513252,-5148821060.876162,0.123518,-0.125008,-0.097007
-1.480000,1.440000,0.560149,0.080000,14671094.943552,12445319008.501158,-13650101363.369883,7292864541.517635,0.241287,-0.250366,0.137402
-1.400000,1.440000,0.560046,0.080000,-80770336.538395,-1392345762.814564,494882240.859392,23200053452.895329,-0.021160,0.014396,0.437102
-1.320000,1.440000,0.560006,0.080000,-160391817.350737,-30880384685.614063,32106311412.267151,14687366174.430429,-0.588734,0.597972,0.276718
-1.240000,1.440000,0.560138,0.080000,-49339055.320680,-40266024313.679466,43224996245.912590,-27022007659.380352,-0.775360,0.797659,-0.509110
-1.160000,1.440000,0.560052,0.080000,300579372.961790,-387386057.145586,2108071586.596946,-66030832207.978302,-0.017024,0.029992,-1.244059
-1.080000,1.440000,0.560004,0.080000,641655068.199566,67788391760.732941,-69851784909.187531,-50829331866.899269,1.288835,-1.304385,-0.957654
-1.000000,1.440000,0.560128,0.080000,561380617.212878,101220196988.645828,-106184566052.330826,28224194675.905857,1.935107,-1.972519,0.531760
-0.920000,1.440000,0.560059,0.080000,-136127740.096243,52285965222.028267,-56220671532.957542,117033514779.364746,1.007338,-1.036990,2.204979
-0.840000,1.440000,0.560003,0.080000,-1144122844.866180,-61241987203.247681,61956598708.057648,137925700094.435547,-1.157874,1.163259,2.598600
-0.760000,1.440000,0.560118,0.080000,-1764539791.368335,-162103028877.376007,167662520305.423370,55638455583.888870,-3.085538,3.127436,1.048261
-0.680000,1.440000,0.560066,0.080000,-1381261769.795362,-170393755858.946411,177303089906.653473,-88820475674.982742,-3.249370,3.301440,-1.673429
-0.600000,1.440000,0.560001,0.080000,50787627.583438,-64311016852.037201,67912910279.511803,-203237332426.876862,-1.232015,1.259160,-3.829109
-0.520000,1.440000,0.560108,0.080000,1872813499.196097,100969433249.311859,-103277604285.025818,-207070780862.967957,1.915369,-1.932764,-3.901334
-0.440000,1.440000,0.560074,0.080000,3062656352.486630,227425521006.093048,-234528068447.743500,-86035088374.338257,4.324973,-4.378500,-1.620951
-0.360000,1.440000,0.560000,0.080000,2839739428.046108,235706674048.802551,-243547984676.450653,97259257038.500290,4.485171,-4.544265,1.832421
-0.280000,1.440000,0.560099,0.080000,1155371405.746832,113761976753.691055,-117842175968.566910,240602093859.804047,2.166404,-2.197153,4.533083
-0.200000,1.440000,0.560082,0.080000,-1232658878.091764,-75825283678.990143,77845352950.133423,262112345005.758453,-1.440010,1.455234,4.938349
-0.120000,1.440000,0.560000,0.080000,-3147594312.419354,-231674362015.644836,238719159705.223846,146851338378.396942,-4.404698,4.457789,2.766764
-0.040000,1.440000,0.560090,0.080000,-3622093540.601926,-270281012353.350403,278535984348.936707,-45330660755.746841,-5.138909,5.201121,-0.854056
0.040000,1.440000,0.560090,0.080000,-2416293631.065411,-171518367477.129913,176560807122.827423,-213285796670.333954,-3.260006,3.298007,-4.018428
0.120000,1.440000,0.560000,0.080000,-143009378.995143,11233074977.024258,-12032429548.406425,-269820918210.325500,0.216156,-0.222180,-5.083583
0.200000,1.440000,0.560082,0.080000,2063164060.042829,180860878336.693695,-186935207090.018402,-188499761032.402191,3.441857,-3.487635,-3.551445
0.280000,1.440000,0.560099,0.080000,3148247678.688356,249614518893.459015,-257533792582.059479,-16987778828.260538,4.747643,-4.807325,-0.320060
0.360000,1.440000,0.560000,0.080000,2683330178.149703,186676306915.706299,-192056964800.828766,150150420327.725372,3.547502,-3.588052,2.828921
0.440000,1.440000,0.560074,0.080000,1056043861.465089,34023615689.619263,-34007976710.012260,224516097642.686066,0.640936,-0.640818,4.230013
0.520000,1.440000,0.560108,0.080000,-789015212.505660,-118847661848.614136,123929564196.440094,173406736688.489197,-2.267883,2.306181,3.267083
0.600000,1.440000,0.560001,0.080000,-1903981028.140579,-187748837145.188263,194572378451.572693,37075354937.760498,-3.575865,3.627289,0.698521
0.680000,1.440000,0.560066,0.080000,-1858491121.004425,-143441879749.251404,147757363041.427399,-97655837231.537842,-2.726920,2.759443,-1.839893
0.760000,1.440000,0.560118,0.080000,-921088374.678253,-27083105979.970795,26472576964.868954,-152603981603.964783,-0.506811,0.502210,-2.875147
0.840000,1.440000,0.560003,0.080000,193317850.890965,79884171619.476105,-84399876947.488647,-107419977297.938019,1.530588,-1.564619,-2.023855
0.920000,1.440000,0.560059,0.080000,823939613.176435,112487514623.875885,-117273462485.089447,-8922139920.678844,2.146381,-2.182449,-0.168098
1.000000,1.440000,0.560128,0.080000,763859909.077692,65639709800.318558,-67281822975.624878,67381826315.180733,1.245972,-1.258347,1.269513
1.080000,1.440000,0.560004,0.080000,293597837.352762,-9012668584.924202,11042853532.924994,75298330724.298416,-0.181279,0.196579,1.418664
1.160000,1.440000,0.560052,0.080000,-131839618.801990,-50455210572.665939,53656486473.541130,28911831338.270679,-0.968700,0.992825,0.544716
1.240000,1.440000,0.560138,0.080000,-254392153.274700,-38783217932.030800,40222974968.368950,-19332506200.326942,-0.738836,0.749686,-0.364236
1.320000,1.440000,0.560006,0.080000,-137260895.537848,-3139783561.697073,2217039328.190258,-31065491842.542496,-0.053940,0.046986,-0.585292
1.400000,1.440000,0.560046,0.080000,6633883.696311,16904474917.509922,-18430671596.091255,-12264345550.311045,0.327116,-0.338618,-0.231067
1.480000,1.440000,0.560149,0.080000,52161785.147800,11549963568.972429,-12009318462.564770,6220451616.796276,0.220204,-0.223666,0.117197
1.560000,1.440000,0.560009,0.080000,25670456.095865,-611691844.829286,1107713302.642478,7937834633.044826,-0.014328,0.018066,0.149553
1.640000,1.440000,0.560040,0.080000,-851857.151154,-3971069906.931196,4398445650.396965,1291850012.079813,-0.077233,0.080454,0.024339
1.720000,1.440000,0.560161,0.080000,-4015642.550675,-1099333876.963771,1066276007.911467,-1766488874.042757,-0.020525,0.020276,-0.033282
1.800000,1.440000,0.560012,0.080000,775227.407397,546728085.307230,-704670287.658484,-741088189.337649,0.011193,-0.012384,-0.013963
1.880000,1.440000,0.560035,0.080000,2652749.428845,242935295.627007,-257110103.565335,206176267.736228,0.004657,-0.004764,0.003884
1.960000,1.440000,0.540056,0.080000,2772639.506796,69205197.661554,-7803036.285975,302766313.759087,0.000957,-0.000494,0.005704
2.040000,1.440000,0.460065,0.080000,2200437.035235,1006495122.049267,-958021264.355183,47939824.769632,0.018689,-0.018324,0.000903
2.120000,1.440000,0.380079,0.080000,-4896320.437393,2886819417.109692,-2973107029.309396,-5086345182.293976,0.054877,-0.055527,-0.095830
-2.120000,1.520000,0.380207,0.080000,10391222.598783,1811861991.188837,-1949962669.654374,-1510367090.342278,0.034917,-0.035958,-0.028456
-2.040000,1.520000,0.460171,0.080000,9634752.001843,-257221011.890144,236734165.010343,-161288184.837496,-0.004730,0.004576,-0.003039
-1.960000,1.520000,0.480201,0.080000,9795232.612698,-440419799.617835,504842304.043305,-339750937.437651,-0.008662,0.009147,-0.006401
-1.880000,1.520000,0.480040,0.080000,11712582.954996,1184902537.299423,-1203796338.440450,-1043888115.770845,0.022431,-0.022573,-0.019667
-1.800000,1.520000,0.480013,0.080000,6073040.299583,2773998531.090127,-3148089061.651322,3001210127.581247,0.054378,-0.057197,0.056545
-1.720000,1.520000,0.480187,0.080000,-11136693.796212,-6053896278.255280,6026686299.179955,6707619050.183294,-0.113905,0.113700,0.126375
-1.640000,1.520000,0.480047,0.080000,9857240.012428,-14713332374.002945,15765903470.770317,-9428787508.017412,-0.283157,0.291089,-0.177644
-1.560000,1.520000,0.480010,0.080000,104499735.630968,9946376844.236961,-9307028939.604778,-29154984859.070183,0.183782,-0.178964,-0.549297
-1.480000,1.520000,0.480174,0.080000,127767192.588740,49458207646.660255,-51127611096.101784,644028899.632147,0.941257,-0.953838,0.012134
-1.400000,1.520000,0.480054,0.080000,-124825724.571789,26377302235.864079,-28797483981.968346,69354850506.683777,0.510643,-0.528882,1.306686
-1.320000,1.520000,0.480007,0.080000,-499744401.839221,-72803390335.378418,73256402090.727646,75773447915.114182,-1.374219,1.377633,1.427616
-1.240000,1.520000,0.480162,0.080000,-435985859.742500,-135900718751.884750,139698825394.587952,-37364773154.752724,-2.581916,2.610539,-0.703974
-1.160000,1.520000,0.480061,0.080000,398811744.162776,-49392085628.263924,52674163769.643028,-174464674273.118561,-0.949126,0.973861,-3.287016
-1.080000,1.520000,0.480005,0.080000,1481888993.116615,145885131072.016022,-146892351688.262207,-171700865333.650116,2.754253,-2.761844,-3.234944
-1.000000,1.520000,0.480149,0.080000,1684478730.507549,270047327918.623657,-274872146244.802277,19485476703.620628,5.115119,-5.151480,0.367118
-0.920000,1.520000,0.480069,0.080000,307745132.536343,176884029393.510590,-181413450331.108612,261933598335.389008,3.358199,-3.392333,4.934981
-0.840000,1.520000,0.480003,0.080000,-2078689447.023024,-100027599763.260071,99592860932.250122,346708650345.504883,-1.882121,1.878844,6.532192
-0.760000,1.520000,0.480138,0.080000,-3839090620.931604,-364696552763.973083,368725015585.127075,173609080458.027618,-6.893864,6.924223,3.270896
-0.680000,1.520000,0.480077,0.080000,-3420906129.316704,-412007538477.740234,417524833090.136292,-162788534008.902924,-7.793646,7.835225,-3.067030
-0.600000,1.520000,0.480001,0.080000,-560522079.364120,-182609364332.818451,185813406660.127350,-441084640041.226379,-3.458576,3.482722,-8.310290
-0.520000,1.520000,0.480126,0.080000,3366661140.865952,194768735021.840485,-195862834268.040253,-469197911365.455811,3.675740,-3.683985,-8.839961
-0.440000,1.520000,0.480086,0.080000,6109112285.508400,490664898917.140747,-495193071556.175110,-211939397766.424713,9.270005,-9.304131,-3.993061
-0.360000,1.520000,0.480001,0.080000,5903914166.300493,521559000012.685486,-526665120970.944641,189409069179.539764,9.855335,-9.893816,3.568577
-0.280000,1.520000,0.480116,0.080000,2572429089.892435,259819316081.939514,-262521740269.286774,506302972994.158325,4.910421,-4.930787,9.539042
-0.200000,1.520000,0.480096,0.080000,-2312457811.386315,-153898763059.122925,155034228001.204742,558122762625.836670,-2.905960,2.914517,10.515356
-0.120000,1.520000,0.480000,0.080000,-6266758188.203626,-494222729136.162903,498435772779.925598,313105414272.322815,-9.335256,9.367006,5.899088
-0.040000,1.520000,0.480105,0.080000,-7246194561.828069,-577551309385.012573,582439860594.408936,-97545546423.626877,-10.909032,10.945874,-1.837815
0.040000,1.520000,0.480105,0.080000,-4748991477.308158,-361062843874.521790,363929457127.832703,-454415128422.878601,-6.818836,6.840439,-8.561444
0.120000,1.520000,0.480000,0.080000,-74542470.383322,36685535327.341698,-37402442140.231010,-569731207799.852661,0.695229,-0.700632,-10.734066
0.200000,1.520000,0.480096,0.080000,4387442439.326570,401834601851.877869,-405735163758.791016,-387932170669.032776,7.592844,-7.622239,-7.308867
0.280000,1.520000,0.480116,0.080000,6440761839.846927,541805213043.048767,-546711571898.848267,-14292830152.553026,10.235656,-10.272631,-0.269285
0.360000,1.520000,0.480001,0.080000,5238817986.446481,390344585057.477234,-393444394998.119019,343740200642.750916,7.371839,-7.395200,6.476265
0.440000,1.520000,0.480086,0.080000,1682400203.781284,43765372557.197540,-43193465000.223106,492259487723.096741,0.821332,-0.817022,9.274454
0.520000,1.520000,0.480126,0.080000,-2156737082.519154,-294248711895.358337,298219713705.329041,361094227084.086182,-5.566261,5.596187,6.803225
0.600000,1.520000,0.480001,0.080000,-4253590268.070242,-432015913290.652466,436949940117.437927,44594435050.328865,-8.167318,8.204502,0.840185
0.680000,1.520000,0.480077,0.080000,-3773924147.870444,-305764079702.966858,308444480626.104309,-256010961225.582581,-5.775923,5.796123,-4.823395
0.760000,1.520000,0.480138,0.080000,-1454746991.905351,-18801980516.968292,17383758763.359940,-359908748782.441345,-0.346224,0.335536,-6.780889
0.840000,1.520000,0.480003,0.080000,1007447510.217794,228572844303.445038,-233049774249.085083,-225178425237.208008,4.331749,-4.365488,-4.242492
0.920000,1.520000,0.480069,0.080000,2140708605.429638,279205711544.034119,-283313512176.439697,25494461068.981304,5.283615,-5.314573,0.480330
1.000000,1.520000,0.480149,0.080000,1625483046.072512,131369264368.401566,-131897354682.315567,199681994001.711395,2.478058,-2.482038,3.762125
1.080000,1.520000,0.480005,0.080000,310006945.969119,-68371100128.762398,71569349014.364365,186236713322.683990,-1.306228,1.330331,3.508808
1.160000,1.520000,0.480061,0.080000,-639778496.792058,-155310288606.816833,159005793231.292511,39082388310.178978,-2.947024,2.974874,0.736335
1.240000,1.520000,0.480162,0.080000,-697432372.740872,-89973188899.391205,90694302299.738342,-86567787809.755981,-1.699223,1.704657,-1.630987
1.320000,1.520000,0.480007,0.080000,-214914831.525327,23610408755.857212,-25914293443.535801,-90099706058.343094,0.457856,-0.475218,-1.697531
1.400000,1.520000,0.480054,0.080000,160540385.013868,65039022884.546089,-67194987580.220711,-12974641940.818829,1.237559,-1.253807,-0.244450
1.480000,1.520000,0.480174,0.080000,172722797.343046,25073628651.106609,-24845330269.029369,37040309671.698853,0.471111,-0.469391,0.697861
1.560000,1.520000,0.480010,0.080000,27759973.478071,-16761049842.294065,18134143132.061901,22434063037.510296,-0.323549,0.333897,0.422671
1.640000,1.520000,0.480047,0.080000,-36607536.437004,-15069583619.029720,15457926754.791449,-6074666668.068649,-0.286115,0.289041,-0.114450
1.720000,1.520000,0.480187,0.080000,-14478088.591215,1592330643.227239,-2092608683.165987,-8373402893.164170,0.032828,-0.036598,-0.157760
1.800000,1.520000,0.480013,0.080000,5864117.402935,3942335615.649638,-4164255773.329432,315053046.850962,0.075530,-0.077203,0.005936
1.880000,1.520000,0.480040,0.080000,4890338.961925,-53500051.616066,187475669.022223,1602182175.147006,-0.001765,0.002775,0.030186
1.960000,1.520000,0.480201,0.080000,2207394.942873,-475327289.618625,517989117.488188,-41483382.513619,-0.009197,0.009518,-0.000782
2.040000,1.520000,0.460171,0.080000,2091389.423724,-30024147.525903,8642372.117267,-393651631.469773,-0.000445,0.000284,-0.007417
2.120000,1.520000,0.380207,0.080000,3108854.393010,-1761644160.130379,1858094682.887497,-113435527.017499,-0.033736,0.034462,-0.002137
-2.120000,1.600000,0.380012,0.080000,9195943.892276,66747380.147491,-71920665.724448,400808915.992116,0.001287,-0.001326,0.007551
-2.040000,1.600000,0.400021,0.080000,9156328.951275,819913356.576207,-803377521.030580,448638404.443357,0.015354,-0.015230,0.008453
-1.960000,1.600000,0.400241,0.080000,6962361.782483,-2760443394.330373,2834546625.002543,1254914707.330792,-0.052427,0.052986,0.023643
-1.880000,1.600000,0.400048,0.080000,20109846.810675,-2012404618.257595,2001039453.967451,-8000811831.664238,-0.037851,0.037765,-0.150740
-1.800000,1.600000,0.400016,0.080000,29421084.821494,20923922780.447796,-21497621279.921154,-302334824.404314,0.397461,-0.401785,-0.005696
-1.720000,1.600000,0.400225,0.080000,-63720984.079006,-646289532.260952,560582883.282254,39138554094.248039,-0.011692,0.011046,0.737393
-1.640000,1.600000,0.400056,0.080000,-114102164.874451,-74259990780.969864,75694669090.770157,268848692.442867,-1.407210,1.418022,0.005065
-1.560000,1.600000,0.400012,0.080000,218802353.239784,-20473439603.605755,21456060751.807877,-111876784565.404892,-0.391285,0.398691,-2.107823
-1.480000,1.600000,0.400209,0.080000,588891091.578095,163511172113.623871,-165596633161.291199,-63778093991.299400,3.092433,-3.108149,-1.201616
-1.400000,1.600000,0.400065,0.080000,47503395.390772,163458260293.840393,-166720600250.096863,180589142822.384521,3.098088,-3.122673,3.402404
-1.320000,1.600000,0.400009,0.080000,-1315037333.472959,-147894168224.747772,148270678655.399353,279157267003.405273,-2.788540,2.791377,5.259485
-1.240000,1.600000,0.400194,0.080000,-1766809904.539570,-416767410547.481934,421564498266.282898,-10625556186.184505,-7.879254,7.915406,-0.200192
-1.160000,1.600000,0.400073,0.080000,120337362.686945,-240133204840.786743,244390064140.083740,-433762423065.965027,-4.548309,4.580390,-8.172336
-1.080000,1.600000,0.400006,0.080000,3280828134.691287,300750173499.286743,-301921668190.754822,-501884253208.029846,5.672929,-5.681758,-9.455790
-1.000000,1.600000,0.400179,0.080000,4632982216.885426,693709882824.078369,-699707305214.590576,-50413704688.027924,13.103795,-13.148993,-0.949823
-0.920000,1.600000,0.400083,0.080000,1969932537.536506,519204009254.506531,-524810964924.737915,571473104504.767822,9.813796,-9.856051,10.766885
-0.840000,1.600000,0.400004,0.080000,-3651642010.621835,-148105371130.876984,147611091503.356049,827641316117.135376,-2.787597,2.783872,15.593242
-0.760000,1.600000,0.400165,0.080000,-8334706015.633524,-811918051026.664795,816904255114.038330,464288483724.361877,-15.325190,15.362767,8.747464
-0.680000,1.600000,0.400093,0.080000,-8211197496.487814,-965328899581.324585,972058574403.829102,-295037301289.325867,-18.225393,18.276110,-5.558674
-0.600000,1.600000,0.400002,0.080000,-2403304308.697025,-467503337395.228271,471326711309.854492,-935530986676.736572,-8.829644,8.858458,-17.625946
-0.520000,1.600000,0.400152,0.080000,6135434309.720336,377722418293.031799,-379149723433.419922,-1023234988500.551636,7.124577,-7.135333,-19.278340
-0.440000,1.600000,0.400104,0.080000,12396326656.948362,1045443221792.866943,-1050990915868.482910,-484744518117.439209,19.728113,-19.769922,-9.132868
-0.360000,1.600000,0.400001,0.080000,12417466387.524687,1128222859582.563965,-1134398348715.830811,367029412517.998901,21.291278,-21.337818,6.915047
-0.280000,1.600000,0.400139,0.080000,5710315876.116040,571737702242.824829,-574957859207.248047,1039762325559.525513,10.790071,-10.814338,19.589725
-0.200000,1.600000,0.400115,0.080000,-4403947997.353481,-312287306493.303650,313710043597.882874,1153117301393.110840,-5.891715,5.902438,21.725398
-0.120000,1.600000,0.400000,0.080000,-12643919608.564606,-1036502486806.748413,1041621446017.889404,645574975037.656860,-19.557241,19.595819,12.163007
-0.040000,1.600000,0.400126,0.080000,-14676926709.642616,-1210360766719.558838,1216278584485.135254,-204413922487.450531,-22.837347,22.881945,-3.851277
0.040000,1.600000,0.400126,0.080000,-9458240603.009893,-746764835713.579712,750243443382.962036,-938767379392.562866,-14.089144,14.115360,-17.686922
0.120000,1.600000,0.400000,0.080000,242564410.618902,98626035515.406677,-99464926659.962784,-1168409371754.270508,1.862913,-1.869235,-22.013510
0.200000,1.600000,0.400115,0.080000,9368656186.418894,868801706463.999878,-873493063243.936890,-779901167299.362183,16.395244,-16.430599,-14.693790
0.280000,1.600000,0.400139,0.080000,13309865908.637800,1152081396622.752441,-1158024186680.136230,5225656151.951953,21.739471,-21.784257,0.098454
0.360000,1.600000,0.400001,0.080000,10363906328.655180,806556592005.430054,-810362943587.354736,750324736568.734741,15.217508,-15.246193,14.136553
0.440000,1.600000,0.400104,0.080000,2581554855.275875,42113758305.167015,-41498176884.973152,1044241833775.380493,0.789968,-0.785329,19.674122
0.520000,1.600000,0.400152,0.080000,-5488951581.335328,-692828920609.834229,697595207688.916626,736757370432.755737,-13.080238,13.116158,13.880936
0.600000,1.600000,0.400002,0.080000,-9472827014.213413,-970190693971.732422,976196830340.814331,33644066186.028412,-18.312903,18.358166,0.633874
0.680000,1.600000,0.400093,0.080000,-7707090823.482535,-645830635739.859009,649151177938.140503,-619436317283.222168,-12.186592,12.211616,-11.670539
0.760000,1.600000,0.400165,0.080000,-2086008894.775441,38447690616.213593,-40133947536.580894,-815441842998.191406,0.733908,-0.746616,-15.363397
0.840000,1.600000,0.400004,0.080000,3371968119.407242,605113683944.536865,-610600823195.196167,-461605698633.180603,11.431707,-11.473059,-8.696919
0.920000,1.600000,0.400083,0.080000,5328920437.843719,673848311224.190796,-678916320832.829346,145597791562.928040,12.724338,-12.762532,2.743147
1.000000,1.600000,0.400179,0.080000,3343843883.220929,251269053151.676666,-251880953276.535645,535529128039.015991,4.737513,-4.742125,10.089679
1.080000,1.600000,0.400006,0.080000,-170153586.149974,-268872364393.557800,272933291506.350037,439057743357.999939,-5.088664,5.119268,8.272102
1.160000,1.600000,0.400073,0.080000,-2214316730.065399,-444198097855.024780,448828223503.777710,17924658419.254105,-8.395120,8.430014,0.337711
1.240000,1.600000,0.400194,0.080000,-1732817408.867663,-191251663775.953674,192016297854.551575,-295090837677.446350,-3.607614,3.613377,-5.559682
1.320000,1.600000,0.400009,0.080000,-97720877.446176,150733860360.585571,-153810867210.840912,-236108766580.849243,2.857305,-2.880494,-4.448426
1.400000,1.600000,0.400065,0.080000,772516540.237459,215562680420.552002,-218283491746.410065,27736975197.871288,4.076704,-4.097209,0.522581
1.480000,1.600000,0.400209,0.080000,447744071.487478,28954819746.536900,-28495074303.671467,146426915824.867371,0.542927,-0.539462,2.758768
1.560000,1.600000,0.400012,0.080000,-104967656.133622,-96400782714.077423,98257651776.287186,45036859986.852646,-1.826742,1.840736,0.848521
1.640000,1.600000,0.400056,0.080000,-173514799.962309,-38430740131.140480,38888922101.907768,-50958433362.815147,-0.726647,0.730100,-0.960086
1.720000,1.600000,0.400225,0.080000,-3358009.383259,29859066626.847778,-30597527837.053043,-23537963959.606510,0.566736,-0.572301,-0.443469
1.800000,1.600000,0.400016,0.080000,38173915.526515,11922067126.925785,-12238179576.830181,14143994195.521784,0.226405,-0.228788,0.266481
1.880000,1.600000,0.400048,0.080000,3538962.193913,-7595331398.093158,7811751175.960895,4093470898.079392,-0.144324,0.145955,0.077123
1.960000,1.600000,0.400241,0.080000,-1407654.865731,-776835517.453861,827974909.492194,-2686960829.754789,-0.014925,0.015310,-0.050624
2.040000,1.600000,0.400021,0.080000,2937282.557648,860024605.561150,-920591016.369956,56297479.069100,0.016546,-0.017002,0.001061
2.120000,1.600000,0.380012,0.080000,3339153.616815,74167081.104118,-120460935.857222,498047995.784171,0.001659,-0.002008,0.009384
-2.120000,1.680000,0.320052,0.080000,9509418.697013,-2033915408.863934,1698513650.520486,96322089.533915,-0.036424,0.033897,0.001815
-2.040000,1.680000,0.320026,0.080000,15108496.749662,6112555849.524247,-5518835221.341578,-4807039945.212081,0.111808,-0.107334,-0.090567
-1.960000,1.680000,0.320301,0.080000,-11674595.950932,14211048.554105,-498861805.182297,22949335268.713837,0.003007,-0.006660,0.432379
-1.880000,1.680000,0.320061,0.080000,-1380209.950625,-51162091536.935577,51022302117.733330,-26248002694.056843,-0.963133,0.962080,-0.494528
-1.800000,1.680000,0.320020,0.080000,204604657.085400,88392637956.724335,-87579015918.023041,-79671349593.184326,1.660770,-1.654638,-1.501054
-1.720000,1.680000,0.320281,0.080000,-81604820.018843,108859715019.500381,-108345992891.437134,177466329942.865295,2.048076,-2.044205,3.343569
-1.640000,1.680000,0.320070,0.080000,-771219927.160894,-295429811270.273865,293352830589.541626,154740861035.134338,-5.554329,5.538677,2.915408
-1.560000,1.680000,0.320015,0.080000,126479291.206080,-254204340421.101624,252327754345.843628,-407587118149.978760,-4.778750,4.764608,-7.679178
-1.480000,1.680000,0.320261,0.080000,2171954914.076966,497515804869.272705,-493908366361.840881,-428697937589.760193,9.353096,-9.325910,-8.076918
-1.400000,1.680000,0.320081,0.080000,1412494147.771800,708228670851.669189,-702871571894.860596,465727874150.108826,13.313159,-13.272787,8.774583
-1.320000,1.680000,0.320011,0.080000,-3081892878.955503,-256264137982.308502,254541802874.212585,1002025247258.108765,-4.818430,4.805450,18.878737
-1.240000,1.680000,0.320242,0.080000,-5947659315.567684,-1233940442945.643555,1224827224791.128174,206119111622.300171,-23.196644,23.127964,3.883404
-1.160000,1.680000,0.320092,0.080000,-1850735526.539853,-871910877425.829468,865271218842.141968,-1135597133609.561279,-16.389778,16.339740,-21.395308
-1.080000,1.680000,0.320007,0.080000,7052656326.501101,622481249091.950928,-618193604578.054688,-1483095705343.684570,11.703673,-11.671360,-27.942383
-1.000000,1.680000,0.320224,0.080000,12235209619.061445,1771934518567.326172,-1759107958743.424316,-334412236455.369080,33.311776,-33.215112,-6.300520
-0.920000,1.680000,0.320104,0.080000,7143288637.178881,1425228054183.726807,-1414709441410.872070,1323464764845.705322,26.792670,-26.713399,24.934843
-0.840000,1.680000,0.320004,0.080000,-6166873435.005725,-200404624803.491394,199301017914.625397,2052611175413.043213,-3.769502,3.761184,38.672384
-0.760000,1.680000,0.320206,0.080000,-18204347260.939926,-1832630769810.398926,1819762201214.712646,1225038668904.543213,-34.455091,34.358110,23.080439
-0.680000,1.680000,0.320116,0.080000,-19407193475.678497,-2243857309443.389648,2227898434662.985352,-570004231925.351196,-42.185370,42.065100,-10.739210
-0.600000,1.680000,0.320002,0.080000,-7359958380.706812,-1135053808760.934082,1126818856666.427490,-2080204807152.661865,-21.338526,21.276466,-39.192264
-0.520000,1.680000,0.320190,0.080000,11378823092.604631,759075184796.039551,-753991400042.494507,-2307402574010.305664,14.272682,-14.234370,-43.472802
-0.440000,1.680000,0.320129,0.080000,25567667741.884304,2244087774091.627930,-2228531466001.916016,-1118917351725.164551,42.191988,-42.074752,-21.081052
-0.360000,1.680000,0.320001,0.080000,26361667434.816536,2434249669431.166016,-2417288148923.090332,754916326436.979004,45.766805,-45.638980,14.223061
-0.280000,1.680000,0.320173,0.080000,12614099083.286135,1239493675683.551270,-1230806344122.672852,2220810683393.428711,23.303677,-23.238207,41.841361
-0.200000,1.680000,0.320143,0.080000,-8545887856.819205,-646910181985.349365,642502394687.063232,2463493976025.498535,-12.163249,12.130031,46.413655
-0.120000,1.680000,0.320000,0.080000,-25831914520.101486,-2179229005276.392578,2164193115620.684570,1370816994820.545654,-40.972952,40.859638,25.826987
-0.040000,1.680000,0.320158,0.080000,-30058050082.177155,-2536988723490.940918,2519485119841.398926,-445774605769.024658,-47.699405,47.567494,-8.398652
0.040000,1.680000,0.320158,0.080000,-19067805557.063694,-1547445495065.238770,1536817078481.206787,-2004521681662.477783,-29.094697,29.014598,-37.766351
0.120000,1.680000,0.320000,0.080000,1217122213.756239,242983462687.244446,-241199814338.576782,-2478779218212.910156,4.567868,-4.554426,-46.701637
0.200000,1.680000,0.320143,0.080000,20068961714.311432,1866780840868.303711,-1853769877801.147217,-1628968880452.023926,35.097693,-34.999639,-30.690718
0.280000,1.680000,0.320173,0.080000,27756446561.146542,2449133921677.003906,-2432156653208.883301,70770785716.759537,46.047144,-45.919200,1.333363
0.360000,1.680000,0.320001,0.080000,20785796246.091679,1681608712007.488037,-1670065833959.500488,1678946274820.207031,31.617241,-31.530251,31.632321
0.440000,1.680000,0.320129,0.080000,3736510312.511127,8607298534.127293,-8789848043.728189,2294774657973.666016,0.163198,-0.164574,43.234885
0.520000,1.680000,0.320190,0.080000,-13412081768.012186,-1595190039930.549316,1583819824848.007812,1574281779638.474609,-29.990039,29.904350,29.660381
0.600000,1.680000,0.320002,0.080000,-21106246735.424652,-2174321030566.105225,2159013261937.996094,-35493678057.220413,-40.878947,40.763584,-0.668721
0.680000,1.680000,0.320116,0.080000,-15893971902.032095,-1386441931352.639893,1376851544843.062256,-1521798603365.885254,-26.067163,25.994888,-28.671568
0.760000,1.680000,0.320206,0.080000,-2423148823.755969,227899428871.994751,-225966446228.118805,-1923891931651.447998,4.282832,-4.268264,-36.247239
0.840000,1.680000,0.320004,0.080000,9792759602.191708,1544276651608.835205,-1533035461951.539551,-999971037872.153687,29.031530,-28.946814,-18.840034
0.920000,1.680000,0.320104,0.080000,13008335647.031498,1626997989746.427734,-1615351766349.004395,531771085438.332581,30.587759,-30.499990,10.018876
1.000000,1.680000,0.320224,0.080000,6698686492.726432,479166820203.953369,-475956437355.503601,1468398656212.514404,9.009635,-8.985441,27.665482
1.080000,1.680000,0.320007,0.080000,-2512404670.794088,-876306835155.732910,869689142088.598022,1089625544700.829224,-16.472724,16.422852,20.529177
1.160000,1.680000,0.320092,0.080000,-6801240644.582888,-1238036852869.628906,1228944771527.978271,-150982624886.823883,-23.273942,23.205422,-2.844600
1.240000,1.680000,0.320242,0.080000,-4018466151.866729,-387560602831.899170,384873783038.755127,-986957546607.522095,-7.286680,7.266432,-18.594852
1.320000,1.680000,0.320011,0.080000,1110279379.071868,629514049350.742310,-624710745433.079224,-637352537698.403931,11.833261,-11.797062,-12.008091
1.400000,1.680000,0.320081,0.080000,2869958179.216673,673399610716.609497,-668433874283.382568,285739146654.104309,12.659172,-12.621749,5.383491
1.480000,1.680000,0.320261,0.080000,867806761.754410,-69982736208.425629,69371076441.221008,557390357149.585205,-1.315058,1.310449,10.501557
1.560000,1.680000,0.320015,0.080000,-942984929.787951,-421634026663.194092,418552974164.228149,29538361287.297634,-7.926415,7.903195,0.556520
1.640000,1.680000,0.320070,0.080000,-549900474.823456,-48266909143.848129,47898033719.321648,-285078396420.260315,-0.907292,0.904512,-5.371042
1.720000,1.680000,0.320281,0.080000,245633081.296040,185723236398.103302,-184517713651.346405,-25344015838.600437,3.492320,-3.483235,-0.477496
1.800000,1.680000,0.320020,0.080000,138636412.059804,-1276105498.141374,1561595861.829977,106574985587.019730,-0.025656,0.027808,2.007935
1.880000,1.680000,0.320061,0.080000,-59781319.926537,-51578995224.062569,51063821545.182510,-17359339669.367458,-0.968866,0.964984,-0.327060
1.960000,1.680000,0.320301,0.080000,-3822660.238992,15750616248.864895,-15471330206.280769,-15243455815.285543,0.295172,-0.293067,-0.287196
2.040000,1.680000,0.320026,0.080000,9136291.921091,1297544491.416159,-1017182517.819563,7108347003.684899,0.022862,-0.020749,0.133925
2.120000,1.680000,0.320052,0.080000,2090786.852171,-1452874363.997159,1299384813.399963,-1143497552.080745,-0.026505,0.025349,-0.021544
-2.500000,-1.980000,0.005075,0.040000,-11282602.205268,-403551559791.817566,-33586891066.446640,-81362752208.168701,-5.132363,1.837986,-1.532921
-2.420000,-1.980000,0.020652,0.040000,-8649859.802937,-142095778257.159241,-172289133139.970795,-113454201782.211395,-0.900209,-1.469069,-2.137543
-2.460000,-1.980000,0.020594,0.040000,11570845.423296,-101421929672.021545,6544849222.702353,-20758158887.465855,-1.374586,0.659571,-0.391096
-2.340000,-1.980000,0.020538,0.040000,-2314024920.617125,1431316626688.209961,4640909452544.358398,2597004028411.281250,-7.354443,53.116147,48.929061
-2.380000,-1.980000,0.024839,0.040000,399559661.616073,119183544245.923386,-243992942622.404572,-217582637479.572083,2.950931,-3.891524,-4.099383
-2.260000,-1.980000,0.024698,0.040000,54972172087.784782,19473741883504.179688,-21588912538821.691406,-8073632480135.454102,378.851899,-394.792315,-152.111916
-2.300000,-1.980000,0.020713,0.040000,-2524521549.250965,-4499481862403.083008,-4805449138369.012695,-775250501542.936279,-32.179758,-37.944359,-14.606169
-2.180000,-1.980000,0.020777,0.040000,37788741033.334785,5364370304933.859375,-25281974887713.140625,6592300006110.524414,213.645611,-363.749298,124.202754
-2.220000,-1.980000,0.020485,0.040000,-112050157927.627289,-36427056859145.007812,48852046800939.601562,2876304786027.992188,-756.535072,850.172678,54.191250
-2.100000,-1.980000,0.020435,0.040000,-183658057790.940002,-50457919165796.585938,87333382841541.578125,-1369253151567.884766,-1159.082982,1436.985027,-25.797523
-2.140000,-1.980000,0.024558,0.040000,94484894128.239014,27879338455322.351562,-48905777027052.351562,-13355686012291.484375,644.107986,-802.568103,-251.628867
-2.020000,-1.980000,0.024420,0.040000,208970734916.725891,46781472648536.742188,-105386526264783.421875,2109743023060.280029,1212.636020,-1654.297293,39.748782
-2.060000,-1.980000,0.020843,0.040000,-9925592933.673857,-3583939539270.222656,13132360536831.009766,28669703497513.062500,-121.492835,193.451949,540.153834
-1.940000,-1.980000,0.020912,0.040000,-222349403453.310242,-45366093137908.671875,99239374084110.984375,-17248422256528.236328,-1159.224647,1565.226185,-324.970274
-1.980000,-1.980000,0.020387,0.040000,19551087520.872971,4153399212355.834473,-20913498408534.859375,-39643725665063.984375,172.983444,-299.291438,-746.910773
-1.860000,-1.980000,0.020342,0.040000,134225753225.747070,24068336368574.570312,-47711429700273.593750,45299822839653.609375,587.096285,-765.276119,853.474923
-1.900000,-1.980000,0.024283,0.040000,-141348280314.896759,-28835120677574.843750,69392709273102.625000,36618356077634.976562,-772.508934,1078.160326,689.911057
-1.780000,-1.980000,0.024148,0.040000,117568552693.812531,22505379041868.328125,-48427402739788.859375,-45194396175026.375000,570.530174,-765.884555,-851.488624
-1.820000,-1.980000,0.020983,0.040000,261647075811.555756,47733338901555.789062,-101342154054558.718750,347014805378.401550,1202.330123,-1606.338585,6.537960
-1.700000,-1.980000,0.021057,0.040000,-284371086644.990967,-45377126344932.593750,89092829538614.921875,-10222551680119.363281,-1102.020123,1431.471799,-192.598800
-1.740000,-1.980000,0.020299,0.040000,-141193985510.446167,-21707332761248.902344,42469611930144.445312,-47658561598362.304688,-526.330746,682.800096,-897.914929
-1.620000,-1.980000,0.020260,0.040000,10907510651.239088,-749062946858.205322,1211400737078.235352,51139667458374.804688,-16.725994,20.210279,963.500981
-1.660000,-1.980000,0.024015,0.040000,-211340161816.562744,-34236114404365.976562,65599631412245.625000,32988208472188.906250,-822.300295,1058.663032,621.516971
-1.540000,-1.980000,0.023883,0.040000,314818577470.720337,42866218703586.882812,-76530651586315.062500,2058302349939.426514,997.901640,-1251.604612,38.779609
-1.580000,-1.980000,0.021133,0.040000,227755010359.556976,30458291541605.882812,-56287438176760.500000,36420415424393.062500,719.842698,-914.497137,686.181740
-1.460000,-1.980000,0.021211,0.040000,33612662953.412422,6770914312735.923828,-10345641672265.953125,-46969065625724.843750,147.772932,-174.712906,-884.924425
-1.500000,-1.980000,0.020223,0.040000,232094951185.101166,31898192781868.667969,-55268985328450.609375,-31065765402842.171875,733.076228,-909.203940,-585.297029
-1.380000,-1.980000,0.020189,0.040000,-323671626711.375610,-36844778406162.078125,61409515376343.304688,-17503787971354.589844,-833.021150,1018.146704,-329.781513
-1.420000,-1.980000,0.023753,0.040000,-184460512458.635834,-20423770330721.253906,35254257992594.703125,-40593812214442.023438,-468.620168,580.386162,-764.810955
-1.300000,-1.980000,0.023625,0.040000,-217288376092.027679,-24663966595552.148438,38697462096673.625000,32795093314589.398438,-544.003186,649.762862,617.878570
-1.340000,-1.980000,0.021292,0.040000,-333399253286.079346,-37758380239922.398438,61135483591554.218750,10755740618192.146484,-843.521226,1019.696498,202.644388
-1.220000,-1.980000,0.021376,0.040000,175872411101.928436,15703113514806.537109,-25495369972064.800781,37144081416042.312500,351.203298,-425.000014,699.816027
-1.260000,-1.980000,0.020158,0.040000,-24770769379.174931,-4271386376248.589844,5758968336191.740234,41935262350375.601562,-88.883467,100.094230,790.084653
-1.140000,-1.980000,0.020129,0.040000,377884288535.270691,34963410374054.785156,-53367642078721.625000,664242094936.211304,762.754838,-901.453396,12.514706
-1.180000,-1.980000,0.023498,0.040000,324742106429.016174,30277201666709.871094,-47105624978860.117188,21541898619917.558594,665.557207,-792.380107,405.861858
-1.060000,-1.980000,0.023373,0.040000,185856723064.562683,17150567946622.552734,-24821884405824.734375,-32440686526366.597656,366.486257,-424.299077,-611.201340
-1.100000,-1.980000,0.021462,0.040000,325759057630.227905,29966625713106.097656,-44672734024056.304688,-19089068828204.773438,647.710082,-758.538724,-359.649123
-0.980000,-1.980000,0.021550,0.040000,-186285244019.325134,-13760455158634.056641,20883275280272.613281,-32595974371977.644531,-299.514370,353.193594,-614.127053
-1.020000,-1.980000,0.020103,0.040000,-358277805.811347,1215737606653.888916,-993084854630.284180,-36881615984392.187500,21.646729,-19.968766,-694.871026
-0.900000,-1.980000,0.020081,0.040000,-404535985093.595703,-30739660090988.367188,44526576931235.273438,-5979033802970.370117,-657.079068,760.980470,-112.648463
-0.940000,-1.980000,0.023250,0.040000,-332103319317.498291,-25454257288439.417969,37360594545701.218750,-21341755939607.691406,-546.869652,636.598571,-402.091054
-0.820000,-1.980000,0.023129,0.040000,-298627009632.696716,-22159275190967.398438,31058859307572.812500,22634904899210.203125,-467.795588,534.864917,426.454730
-0.860000,-1.980000,0.021640,0.040000,-391683646352.460388,-29453609972993.328125,41958037963575.257812,9807675671615.087891,-625.600288,719.836557,184.782295
-0.740000,-1.980000,0.021732,0.040000,30709295573.531376,1019232769477.495605,-1965530306077.188965,32482748157212.101562,24.551574,-31.683092,611.993806
-0.780000,-1.980000,0.020061,0.040000,-147831974901.640350,-11237858464335.298828,15393236522092.652344,30467388113867.273438,-235.214688,266.530580,574.023254
-0.660000,-1.980000,0.020043,0.040000,344585956882.471313,22239452988189.925781,-31275184333848.835938,19718663779710.921875,470.075712,-538.171078,371.511057
-0.700000,-1.980000,0.023010,0.040000,206305708182.820953,13248437447989.068359,-18921975549249.562500,28577354272880.082031,281.676066,-324.433165,538.413921
-0.580000,-1.980000,0.022892,0.040000,432659592809.195190,27440413743190.289062,-37717141356648.804688,-4502974780900.426758,575.079154,-652.526956,-84.838655
-0.620000,-1.980000,0.021827,0.040000,423678433910.738220,27076041682377.042969,-37567915085092.226562,7967923491457.173828,569.430215,-648.499406,150.120298
-0.500000,-1.980000,0.021924,0.040000,250927973613.053497,16012187905818.853516,-21649780170263.468750,-24579142641348.289062,333.543555,-376.029757,-463.085296
-0.540000,-1.980000,0.020029,0.040000,371341798906.269470,23423914142362.539062,-32057564334803.867188,-15907057334984.970703,490.119014,-555.184204,-299.698182
-0.420000,-1.980000,0.020018,0.040000,-84863002372.478592,-4522301626175.503906,6398657522962.510742,-29061044979303.039062,-95.808274,109.948927,-547.526934
-0.460000,-1.980000,0.022777,0.040000,89354415722.538544,5805684835141.646484,-7637297921092.123047,-29107177611235.402344,119.735064,-133.538525,-548.396100
-0.340000,-1.980000,0.022663,0.040000,-374382838559.139526,-21497763262987.632812,29161128189028.597656,-17233391578400.939453,-448.344994,506.097889,-324.687088
-0.380000,-1.980000,0.022024,0.040000,-246663147620.162079,-13846730596912.027344,18932768637762.898438,-24897212445807.566406,-289.627603,327.957165,-469.077916
-0.260000,-1.980000,0.022125,0.040000,-456164127546.580139,-26051435065421.542969,35077783027265.210938,3887099064410.589844,-541.842627,609.867279,73.235200
-0.300000,-1.980000,0.020009,0.040000,-447234116769.761902,-25590758611119.898438,34673599768553.390625,-7085326552441.924805,-533.482525,601.932922,-133.491660
-0.180000,-1.980000,0.020003,0.040000,-288451722281.823669,-16544169366358.451172,22258769343451.007812,22201145428097.757812,-344.001655,387.068205,418.282450
-0.220000,-1.980000,0.022551,0.040000,-400150673561.002380,-22744531126273.277344,30537024430745.601562,14036182972525.722656,-472.564679,531.290716,264.449824
-0.100000,-1.980000,0.022442,0.040000,37915456798.813477,1865195244717.490723,-2492430853584.156738,28713100065900.894531,38.686604,-43.413597,540.971451
-0.140000,-1.980000,0.022228,0.040000,-136034420646.620483,-8183393437384.896484,10981225248032.265625,27398484591004.289062,-169.993708,191.078818,516.203333
-0.020000,-1.980000,0.022334,0.040000,346741698336.116089,18828703389252.167969,-25160223315348.214844,19908328911492.613281,390.530539,-438.246341,375.084458
-0.060000,-1.980000,0.020000,0.040000,205953431050.689606,11082898734116.191406,-14855137749013.371094,26008724701194.531250,230.129588,-258.558056,490.019451
0.060000,-1.980000,0.020000,0.040000,476925970319.887573,26494410100151.531250,-35622893260909.968750,537269361097.068909,550.765820,-619.560186,10.122466
0.020000,-1.980000,0.022334,0.040000,442182142006.606750,24435810225824.765625,-32699923655386.320312,11095207795375.275391,507.095037,-569.375312,209.040147
0.140000,-1.980000,0.022228,0.040000,353257336710.884766,19820182006564.406250,-26734650102547.222656,-19561757534303.925781,412.505495,-464.614530,-368.554852
0.100000,-1.980000,0.022442,0.040000,446327817062.530212,25012360641706.312500,-33604313644465.000000,-10211945790690.271484,519.810587,-584.561537,-192.398979
0.220000,-1.980000,0.022551,0.040000,39222612159.758728,2662993167059.075684,-3873266406456.906250,-29873925559823.113281,57.013010,-66.133910,-562.842076
0.180000,-1.980000,0.020003,0.040000,211699663466.174225,12179841856571.091797,-16639971201289.011719,-26417482704014.636719,254.684708,-288.297277,-497.720689
0.300000,-1.980000,0.020009,0.040000,-302824030248.660400,-17219445757233.304688,23039643595859.750000,-23971798937152.761719,-357.321111,401.183471,-451.642589
0.260000,-1.980000,0.022125,0.040000,-142068854418.479492,-8037897339890.370117,10538594834476.765625,-29069088016837.550781,-165.573023,184.418859,-547.678470
0.380000,-1.980000,0.022024,0.040000,-480926782266.387085,-28242834760600.644531,38250400385774.671875,-4323510843152.104980,-588.675881,664.095216,-81.457451
0.340000,-1.980000,0.022663,0.040000,-421647033627.418457,-24283523499090.929688,32640500151894.550781,-15400598134529.478516,-504.750746,567.730859,-290.156197
0.460000,-1.980000,0.022777,0.040000,-386481691058.069031,-23439644324563.351562,32267831307026.082031,19535139241422.386719,-491.514935,558.046200,368.053348
0.420000,-1.980000,0.020018,0.040000,-469183495154.069214,-27966380690850.859375,38270277781500.414062,7968808033461.118164,-585.142243,662.794801,150.136963
0.540000,-1.980000,0.020029,0.040000,-61179619018.826561,-3812868621969.859375,5845269806738.000000,33059349672451.136719,-83.324140,98.640787,622.857313
0.500000,-1.980000,0.021924,0.040000,-242576011923.834045,-14679745240893.849609,20567537637999.304688,28349612182246.929688,-309.853737,354.225506,534.123128
0.620000,-1.980000,0.021827,0.040000,307309471168.003845,20221541559119.691406,-27494372764011.679688,26798401723131.085938,422.092872,-476.902615,504.897424
0.580000,-1.980000,0.022892,0.040000,132240534650.709717,8350395470146.891602,-10894542954262.990234,32753003071996.609375,171.706256,-190.879541,617.085565
0.700000,-1.980000,0.023010,0.040000,479781384108.392822,32453863833899.250000,-45358289233723.414062,1336232189495.263428,684.387665,-781.638407,25.175389
0.660000,-1.980000,0.020043,0.040000,430249340861.391785,28574923465257.750000,-39571712858313.757812,15716940370820.527344,600.523889,-683.398244,296.116268
0.780000,-1.980000,0.020061,0.040000,326256523084.843872,22903700691583.957031,-33174039188451.437500,-27825106608940.902344,489.568738,-566.968390,-524.241139
0.740000,-1.980000,0.021732,0.040000,443812533631.666626,30515301234590.980469,-43281880938997.398438,-14025281332462.750000,647.084894,-743.296799,-264.244431
0.860000,-1.980000,0.021640,0.040000,-68781230765.661270,-6059263343057.330078,7686853473565.723633,-39118559054372.195312,-123.359456,135.625353,-737.016330
0.820000,-1.980000,0.023129,0.040000,144629353502.005402,10145851691895.197266,-15344372631117.050781,-37092934202529.390625,220.536672,-259.713931,-698.852384
0.940000,-1.980000,0.023250,0.040000,-410386240041.760559,-32952573504831.285156,47495183463693.695312,-18926908515729.894531,-703.042948,812.639429,-356.593929
0.900000,-1.980000,0.020081,0.040000,-267181288060.980377,-21187689148996.621094,29868322770967.515625,-32816192188139.121094,-448.252797,513.672065,-618.276085
1.020000,-1.980000,0.020103,0.040000,-407696195135.537354,-34129438832296.503906,51368874598439.539062,21392854026959.246094,-740.458702,870.379087,403.053772
0.980000,-1.980000,0.021550,0.040000,-463234024103.495422,-38023704856395.085938,55939685754669.687500,416622579185.984314,-817.652882,952.671869,7.849411
1.100000,-1.980000,0.021462,0.040000,-27099774566.640980,-872656124422.952515,2757924356753.869141,46356131871919.585938,-27.097211,41.305030,873.376398
1.060000,-1.980000,0.023373,0.040000,-250995621643.291107,-21098098252372.660156,32682875506665.015625,38528686856249.148438,-462.979578,550.285145,725.902796
1.180000,-1.980000,0.023498,0.040000,376863584843.960999,37425351783383.687500,-57261543657883.414062,24146205498502.722656,817.232930,-966.723071,454.928509
1.140000,-1.980000,0.020129,0.040000,202763077636.219543,20231898687685.789062,-29847874195832.863281,41595246620906.578125,435.531866,-508.000087,783.678560
1.260000,-1.980000,0.020158,0.040000,359108163924.746155,36799461634210.234375,-59611543270453.460938,-31017685443331.394531,822.261043,-994.178180,-584.391175
1.220000,-1.980000,0.021376,0.040000,438252070424.486328,44289074893800.890625,-69654193359613.078125,-2544193058496.955566,977.799907,-1168.957321,-47.934072
1.340000,-1.980000,0.021292,0.040000,-105632670195.357422,-14362548428430.923828,21842848477052.507812,-52633044059230.140625,-312.878695,369.251971,-991.637062
1.300000,-1.980000,0.023625,0.040000,156201468205.246582,15303789369080.371094,-26199269264718.101562,-50855677602601.226562,349.915411,-432.026274,-958.150448
1.420000,-1.980000,0.023753,0.040000,-409778404749.158142,-50362157692087.148438,85604574616659.609375,2767856358750.430176,-1148.048516,1413.643542,52.148018
1.380000,-1.980000,0.020189,0.040000,-324367020364.259033,-39680054731861.554688,65451956796191.367188,-32898475526321.246094,-893.262507,1087.485537,-619.826350
1.500000,-1.980000,0.020223,0.040000,-66774045028.329193,-6472737733661.625000,12657602993192.707031,60726460777211.656250,-156.908065,203.518644,1144.121725
1.460000,-1.980000,0.021211,0.040000,-312254361643.085632,-38196437536093.023438,67352036152028.000000,40172443696745.976562,-884.435540,1104.158892,756.872128
1.580000,-1.980000,0.021133,0.040000,375698223505.394775,55151217026650.718750,-101588149188800.562500,8615035096288.734375,1301.550517,-1651.510006,162.312255
1.540000,-1.980000,0.023883,0.040000,214636514014.524384,32062310831489.523438,-56949720536867.437500,49997985839056.250000,744.740491,-932.297781,941.991038
1.660000,-1.980000,0.024015,0.040000,34077054924.422005,2378319267121.904297,-4704797370220.103516,-66547312691608.789062,57.958573,-75.491451,-1253.789949
1.620000,-1.980000,0.020260,0.040000,306815536519.747559,44795321517417.164062,-84950893172613.562500,-41781487082569.085938,1070.936100,-1373.557800,-787.187438
1.740000,-1.980000,0.020299,0.040000,-344280042630.908264,-58278916086286.289062,118566710434257.484375,18860587222775.382812,-1438.765662,1893.108460,355.344397
1.700000,-1.980000,0.021057,0.040000,-261925968990.915283,-45351478844810.398438,90031283333323.093750,-41971831149701.531250,-1106.986178,1443.703545,-790.773630
1.820000,-1.980000,0.020983,0.040000,213019809676.694916,41829221497279.921875,-91768040751026.484375,46537819671804.265625,1070.349673,-1446.700195,876.799501
1.780000,-1.980000,0.024148,0.040000,-123826052897.914169,-19245925192411.843750,38099525700334.671875,64597433831377.531250,-469.168217,611.253322,1217.053101
1.900000,-1.980000,0.024283,0.040000,33512908183.235191,4904575513173.334961,-3071778153949.192871,-61244837906762.507812,82.045756,-68.233371,-1153.888250
1.860000,-1.980000,0.020342,0.040000,310504851188.090698,59372317676249.304688,-128037576415200.218750,-22177602422060.484375,1506.716868,-2024.194180,-417.838886
1.980000,-1.980000,0.020387,0.040000,-152389648129.174652,-34110019756729.226562,61688052001285.664062,43832558504232.328125,-798.528381,1006.362826,825.830812
1.940000,-1.980000,0.020912,0.040000,-275468451590.530518,-58698850269766.703125,133557216907558.921875,-17020264444244.544922,-1529.032874,2093.182884,-320.671649
2.060000,-1.980000,0.020843,0.040000,122389529807.166397,29715709876764.972656,-53201549412996.367188,-27723368328220.871094,692.607250,-869.601983,-522.324331
2.020000,-1.980000,0.024420,0.040000,213582196345.771942,48789471771335.617188,-116343296554335.937500,23304829551894.355469,1301.047898,-1810.149186,439.076499
2.140000,-1.980000,0.024558,0.040000,36031117909.197487,12513207800289.224609,-19636699908135.746094,14333828841288.115234,276.019305,-329.703594,270.057645
2.100000,-1.980000,0.020435,0.040000,-222623324399.486725,-62519945768946.945312,109703622338994.046875,-11344462750020.791016,-1444.602368,1800.189495,-213.736255
2.220000,-1.980000,0.020485,0.040000,-157809839076.188629,-54775573682520.726562,63379003059124.265625,-5299241195691.523438,-1080.631641,1145.469080,-99.840776
2.180000,-1.980000,0.020777,0.040000,108503194250.680237,28576332726060.609375,-56546628297083.765625,-3334874697241.008301,696.487650,-907.278283,-62.830973
2.300000,-1.980000,0.020713,0.040000,-4300936112.342833,-6759580359784.714844,-6853757697323.819336,2130154122019.166992,-50.409458,-52.183814,40.133339
2.260000,-1.980000,0.024698,0.040000,66714573026.822777,25597111525091.382812,-22778666701397.003906,8566348930897.939453,466.334080,-445.093626,161.394980
2.380000,-1.980000,0.024839,0.040000,320784070.104743,56213599066.871086,-270729504636.201599,250408808197.272675,2.271578,-3.888220,4.717847
2.340000,-1.980000,0.020538,0.040000,-1858580931.355119,1979551966395.457275,5096876129316.582031,-3005871674833.112793,-2.701296,56.030899,-56.632365
2.460000,-1.980000,0.020594,0.040000,5586486.456827,139089486577.171875,30418230930.395035,-67834745580.615128,1.662439,-0.384990,-1.278046
2.420000,-1.980000,0.020652,0.040000,-10518706.944271,-88247746690.846741,-144353593582.714661,82027745445.914124,-0.347935,-1.405002,1.545450
2.500000,-1.980000,0.005075,0.040000,5320333.408884,-8615452582.335110,37901226908.405495,-48864261352.101227,-0.327848,0.548553,-0.920631
-2.500000,-1.940000,0.014627,0.040000,63524970.678665,390880107980.597839,184837054385.432648,-126309673023.003525,4.110354,0.228384,-2.379747
-2.500000,-1.900000,0.004478,0.040000,-602045719.941170,7968085620503.489258,4541974250560.233398,5508425472493.507812,79.414318,14.864394,103.781929
-2.460000,-1.940000,0.042590,0.040000,10556581.525392,-194722113109.206268,-91799886127.874908,-222073657221.527222,-2.049205,-0.110091,-4.183996
-2.420000,-1.940000,0.060221,0.040000,11862705.978805,-26862661605.776749,-101296323188.286896,-118323177885.578094,0.218269,-1.184105,-2.229277
-2.420000,-1.900000,0.080125,0.040000,10480214.905437,486170562550.484680,204971640033.969910,695439163172.279541,5.253279,-0.044671,13.102477
-2.460000,-1.900000,0.040250,0.040000,28362643.949519,3663129199802.391602,985532486353.720093,3595311339680.709473,42.740433,-7.707041,67.737750
-2.380000,-1.940000,0.061782,0.040000,-1329347.067191,-181880509986.831635,-133020134139.299149,-215853599665.568665,-1.646861,-0.726303,-4.066807
-2.340000,-1.940000,0.060182,0.040000,152028998.833101,-5160515337.102413,1843846202540.882324,1659010042347.604736,-10.489798,24.346560,31.256711
-2.340000,-1.900000,0.100109,0.040000,6911642.985535,-32762231122.386936,341946768149.741150,348098496370.449890,-2.364824,4.694911,6.558377
-2.380000,-1.900000,0.101079,0.040000,11800414.555425,-56798495086.678757,-37094581804.707329,-80837691028.345993,-0.539417,-0.168183,-1.523029
-2.300000,-1.940000,0.060242,0.040000,-910665810.186474,3938317228403.989258,-2942549277504.485352,-464916627416.415466,68.571926,-61.067588,-8.759299
-2.260000,-1.940000,0.061725,0.040000,3582381077.733766,-3049509701846.397461,-2935692297282.057617,-4940357666618.585938,-23.625128,-21.480742,-93.079202
-2.260000,-1.900000,0.101044,0.040000,90124859.301174,-692244834141.109253,-462694808208.817810,-2307555797717.833496,-6.514374,-2.189519,-43.475689
-2.300000,-1.900000,0.100145,0.040000,20249084.019649,1306672727720.169922,-743788990733.639160,491175127036.990479,21.436955,-17.194933,9.254024
-2.220000,-1.940000,0.060163,0.040000,-8067530703.876993,-6044740005228.556641,11491854531623.636719,2250896744837.881348,-144.674445,185.725163,42.408200
-2.180000,-1.940000,0.060263,0.040000,8101009439.343651,108321243419.009155,-9968759354478.808594,3942140369987.962891,57.773746,-132.084294,74.272210
-2.180000,-1.900000,0.100158,0.040000,1481996237.964091,1185534116730.989746,-2925156705110.730469,2983926417156.128906,32.168799,-45.278999,56.218904
-2.220000,-1.900000,0.100098,0.040000,-591517204.360134,-2948196165849.748047,3050805623744.578125,643752718556.271973,-56.125691,56.898980,12.128674
-2.140000,-1.940000,0.061669,0.040000,8276228359.382679,-3096715677379.126465,-12261504409686.472656,-9284486114843.818359,28.463412,-144.206520,-174.925101
-2.100000,-1.940000,0.060146,0.040000,-29244006527.621605,-8932299452466.183594,29464505905376.773438,-506433285424.880676,-284.341302,439.076770,-9.541497
-2.100000,-1.900000,0.100088,0.040000,-4654934801.893458,-6795031113191.900391,9157180602870.095703,-612792106030.180786,-141.373605,159.175311,-11.545359
-2.140000,-1.900000,0.101010,0.040000,-170178527.104272,39291192178.296104,-2288715543502.119141,-5480011802919.526367,13.454406,-30.406590,-103.246599
-2.060000,-1.940000,0.060286,0.040000,4407959969.743073,-87712248859.118515,3587562826973.104492,19858430855970.929688,-21.434314,47.809999,374.144349
-2.020000,-1.940000,0.061614,0.040000,45763621480.311356,13859158922488.259766,-42204970417580.125000,893887306141.491577,421.330045,-634.950653,16.841355
-2.020000,-1.900000,0.100977,0.040000,9648104552.912935,10677246437203.386719,-14177687612415.564453,-276957010674.882202,220.950615,-247.330751,-5.218031
-2.060000,-1.900000,0.100172,0.040000,2997302606.734639,293349497617.758789,-127428205742.489212,11020361970045.595703,4.589059,-3.338637,207.630008
-1.980000,-1.940000,0.060130,0.040000,-383124068.656779,1339315147870.527832,-8370168422507.290039,-28357682120595.320312,64.973079,-117.959220,-534.275170
-1.940000,-1.940000,0.060310,0.040000,-62178771809.301559,-20473961268543.238281,44340318090127.726562,-12013943221532.626953,-520.638099,700.500498,-226.349655
-1.940000,-1.900000,0.100186,0.040000,-17681081246.483421,-14444762919181.892578,17160513835113.470703,-5741388990432.133789,-287.497604,307.964132,-108.171097
-1.980000,-1.900000,0.100078,0.040000,-3021235932.968386,935979787870.028442,-1826103238263.133789,-15418637736999.585938,22.665534,-29.373711,-290.496073
-1.900000,-1.940000,0.061560,0.040000,-37593210398.129715,-15038850233945.626953,32148122962507.230469,26845996729299.664062,-380.045242,508.984688,505.794141
-1.860000,-1.940000,0.060115,0.040000,47494449042.609146,12712255937220.277344,-22844879502905.214844,33060989440344.316406,296.777622,-373.139423,622.888207
-1.860000,-1.900000,0.100069,0.040000,18419379423.814678,9068374444988.681641,-10140103251935.357422,17940926163559.648438,176.911029,-184.987826,338.017449
-1.900000,-1.900000,0.100944,0.040000,-8173147971.284595,-10220418381750.230469,12211364212101.607422,15102630685257.287109,-203.811779,218.816009,284.542317
-1.820000,-1.940000,0.060335,0.040000,89347111618.348282,28392509278594.273438,-50529262557364.781250,-29551506926.685272,660.052114,-826.879820,-0.556768
-1.780000,-1.940000,0.061507,0.040000,38049891553.943916,14779092050906.234375,-25270527544511.195312,-33893314549180.683594,337.746080,-416.811971,-638.569694
-1.780000,-1.900000,0.100912,0.040000,10070238447.896339,10010071832089.904297,-11196277446798.564453,-19627769710765.183594,195.300197,-204.239717,-369.798560
-1.820000,-1.900000,0.100201,0.040000,30276793775.218315,19658870103571.714844,-22095994374030.617188,-625386310400.740234,384.159559,-402.526293,-11.782641
-1.740000,-1.940000,0.060100,0.040000,-58974920100.047676,-13427393101303.425781,21971143173088.500000,-35879568872557.875000,-301.270631,365.658313,-675.991877
-1.700000,-1.940000,0.060360,0.040000,-115895659793.552673,-30593008581854.078125,48364002213921.367188,-7667210594504.214844,-676.834763,810.761092,-144.454692
-1.700000,-1.900000,0.100217,0.040000,-47393530670.034950,-21705043516182.500000,23634362470310.578125,-4202915572148.389648,-419.840449,434.380244,-79.185366
-1.740000,-1.900000,0.100060,0.040000,-26493097365.332039,-9687161555963.919922,10587635717549.548828,-20687208100366.347656,-187.601376,194.387558,-389.758993
-1.660000,-1.940000,0.061455,0.040000,-85854341084.602097,-24271502832286.320312,37001789499219.687500,25390648228810.156250,-529.242978,625.181370,478.374532
-1.620000,-1.940000,0.060087,0.040000,10099597724.046736,-1293907015062.002930,1422319551506.308105,39602520695182.234375,-25.103768,26.071515,746.134448
-1.620000,-1.900000,0.100052,0.040000,9192999765.664419,-718868670171.880249,743570701876.978271,24284457632624.109375,-13.683523,13.869683,457.533260
-1.660000,-1.900000,0.100880,0.040000,-33074030208.439182,-17191705303638.031250,18596293643717.011719,15518848959090.033203,-331.840672,342.425975,292.384111
-1.580000,-1.940000,0.060387,0.040000,108252230403.729401,21860603054639.929688,-32431431584950.531250,28400098321184.378906,471.614596,-551.278811,535.074316
-1.540000,-1.940000,0.061404,0.040000,148743485098.709503,31746515179112.882812,-45423270481829.703125,1593132968022.418945,675.426149,-778.497349,30.015549
-1.540000,-1.900000,0.100848,0.040000,70045740699.303329,23267670776658.160156,-24744984031234.667969,865035332914.104736,446.726437,-457.859813,16.297767
-1.580000,-1.900000,0.100233,0.040000,52654511202.780563,16057174792686.009766,-17203268898956.441406,17568467573736.505859,309.004405,-317.641636,331.000114
-1.500000,-1.940000,0.060075,0.040000,109206218623.994141,24521903589980.253906,-33809629100061.960938,-24580711970612.968750,514.502719,-584.497172,-463.114863
-1.460000,-1.940000,0.060415,0.040000,10705125086.088448,5523095287771.412109,-6764689584442.229492,-37354891214687.726562,111.076024,-120.432966,-703.787805
-1.460000,-1.900000,0.100249,0.040000,422911939.377876,3898439817915.220215,-3998842396894.937012,-24234387467233.765625,74.016359,-74.773016,-456.589909
-1.500000,-1.900000,0.100045,0.040000,49715007797.606354,17942498267998.289062,-18906851348744.085938,-15828398665837.679688,343.497760,-350.765349,-298.216207
-1.420000,-1.940000,0.061353,0.040000,-99148368817.983063,-15335030314540.820312,21351514411404.933594,-32479588295276.222656,-322.927075,368.268695,-611.934272
-1.380000,-1.940000,0.060063,0.040000,-171603495748.837708,-28718297329485.390625,38460657649560.039062,-14153625723665.414062,-596.134885,669.555571,-266.662514
-1.380000,-1.900000,0.100038,0.040000,-91835211570.549316,-21580088889910.238281,22569668591991.535156,-9418073871499.916016,-412.174661,419.632364,-177.441971
-1.420000,-1.900000,0.100818,0.040000,-55051186417.810966,-11552285905526.371094,12193353255523.339844,-21301094129260.214844,-221.275188,226.106420,-401.324962
-1.340000,-1.940000,0.060443,0.040000,-177379365031.741791,-29944962588156.472656,39261756881588.851562,8579979665623.240234,-616.840596,687.054118,161.651791
-1.300000,-1.940000,0.061304,0.040000,-115340464924.741150,-20020075918965.960938,25712888149451.222656,26596281244139.636719,-409.366601,452.268954,501.089357
-1.300000,-1.900000,0.100788,0.040000,-59339826846.296761,-15286231733829.201172,15870970952317.781250,18011605235886.871094,-291.306515,295.713246,339.349084
-1.340000,-1.900000,0.100266,0.040000,-93847152002.250214,-22647029105885.335938,23592050431222.800781,5688745156127.465820,-432.024582,439.146482,107.179257
-1.260000,-1.940000,0.060053,0.040000,-8989127653.700874,-3874151461638.380371,4491072924688.078125,34299735831731.148438,-76.478207,81.127470,646.226907
-1.220000,-1.940000,0.060473,0.040000,104933190435.085022,12584898436360.210938,-16594970784265.851562,30575072058709.015625,259.772408,-289.993244,576.052082
-1.220000,-1.900000,0.100284,0.040000,63937847642.508598,9755433225075.162109,-10176812675349.882812,21232891864812.824219,186.179727,-189.355340,400.039992
-1.260000,-1.900000,0.100032,0.040000,-117847142.537612,-2984315639119.373047,3041389261919.266113,23541253314583.949219,-56.548827,56.978947,443.530860
-1.180000,-1.940000,0.061255,0.040000,190045031911.801453,24500019298334.054688,-31298689587005.113281,17847430911240.878906,500.021833,-551.258189,336.255945
-1.140000,-1.940000,0.060043,0.040000,221347312446.814087,28778043281778.539062,-36083186812741.507812,659039656829.905151,583.484960,-638.538216,12.416689
-1.140000,-1.900000,0.100026,0.040000,129748180149.080383,22411294950469.195312,-23124059739630.324219,569824484206.782471,426.270459,-431.642020,10.735824
-1.180000,-1.900000,0.100758,0.040000,112198419861.418488,19022452462717.039062,-19716053993619.835938,12544223633527.376953,362.314388,-367.541530,236.340445
-1.100000,-1.940000,0.060503,0.040000,190984209216.160004,24830531757166.167969,-30691907067704.039062,-15740905258209.019531,500.951125,-545.123809,-296.567780
-1.060000,-1.940000,0.061207,0.040000,108320427626.085205,14541583737969.720703,-17683932417778.628906,-26998759176736.164062,291.732969,-315.414437,-508.672274
-1.060000,-1.900000,0.100729,0.040000,61315944656.128670,11523949615919.609375,-11833372066312.210938,-19240259903060.359375,218.866801,-221.198680,-362.497650
-1.100000,-1.900000,0.100303,0.040000,111203037818.271729,19456324896445.605469,-20025427873854.988281,-11046190522497.517578,369.785109,-374.074001,-208.116633
-1.020000,-1.940000,0.060035,0.040000,-4471308220.085997,1320347563591.622314,-1259473557965.824951,-30911178737195.453125,24.532043,-24.073282,-582.384527
-0.980000,-1.940000,0.060534,0.040000,-119304117238.128052,-11484081638865.666016,14405475351753.472656,-27453780468618.609375,-232.878981,254.895281,-517.245139
-0.980000,-1.900000,0.100321,0.040000,-77497322552.619629,-9121008615048.072266,9419081673355.708984,-19972644035255.359375,-173.529851,175.776198,-376.296192
-1.020000,-1.900000,0.100021,0.040000,-7188772572.476367,1108377960386.964111,-1097232284544.805298,-22276073138419.429688,20.819486,-20.735490,-419.694132
-0.940000,-1.940000,0.061160,0.040000,-209398950070.969177,-21247222443015.144531,26055523728364.582031,-18060256424230.496094,-427.487343,463.723817,-340.265701
-0.900000,-1.940000,0.060027,0.040000,-255132964057.113159,-25991287223786.906250,31469506565037.890625,-5161921056722.085938,-520.654767,561.939898,-97.253585
-0.900000,-1.900000,0.100016,0.040000,-161323247602.685577,-20772631966360.289062,21290224428522.136719,-3908503947161.149902,-394.293951,398.194648,-73.638480
-0.940000,-1.900000,0.100700,0.040000,-133058787019.061203,-16927697108556.169922,17402437551824.921875,-13262440451507.814453,-321.610942,325.188696,-249.872066
-0.860000,-1.940000,0.060566,0.040000,-247528438146.428864,-25007382930009.890625,30028953397666.742188,8183786112878.763672,-499.536381,537.380101,154.187275
-0.820000,-1.940000,0.061114,0.040000,-189075298482.981445,-19041789104882.156250,22686673081785.710938,19154227976116.644531,-379.359864,406.828554,360.876759
-0.820000,-1.900000,0.100672,0.040000,-118585147079.037491,-15425831230342.228516,15776928381521.013672,14110636230449.173828,-292.616065,295.262015,265.852567
-0.860000,-1.900000,0.100341,0.040000,-156148767826.723267,-20104270614717.015625,20582086051984.121094,5893416894146.227539,-381.476809,385.077737,111.035391
-0.780000,-1.940000,0.060020,0.040000,-92186540818.506729,-9803419239182.558594,11477024950955.396484,25939745035308.523438,-194.161612,206.774293,488.719834
-0.740000,-1.940000,0.060600,0.040000,24029428143.690407,876165955003.476685,-1308820325957.481445,27734108324310.867188,18.952912,-22.213496,522.526679
-0.740000,-1.900000,0.100361,0.040000,19191286241.206440,695411526349.815186,-747850996183.056030,20752637185862.039062,13.398353,-13.793549,390.991715
-0.780000,-1.900000,0.100012,0.040000,-56127331384.811256,-7982412066234.551758,8134018286293.361328,19290797283332.992188,-151.250176,152.392715,363.449804
-0.700000,-1.940000,0.061069,0.040000,137836418176.703888,11156865438208.421875,-13427303639973.000000,24468794547216.394531,223.034724,-240.145273,461.006274
-0.660000,-1.940000,0.060014,0.040000,228928518826.602661,19065878163333.148438,-22653924891487.226562,16978318594245.648438,379.492461,-406.532814,319.881365
-0.660000,-1.900000,0.100009,0.040000,152989974064.844574,15490559210741.875000,-15822446408368.697266,12884753429387.986328,293.727000,-296.228179,242.756224
-0.700000,-1.900000,0.100645,0.040000,93349441498.045395,9017235894032.300781,-9236103317179.330078,18415055341587.285156,171.127028,-172.776464,346.950318
-0.620000,-1.940000,0.060634,0.040000,281812651675.384033,23366244158125.605469,-27621952899399.003906,6937087894806.127930,464.287592,-496.359599,130.698757
-0.580000,-1.940000,0.061025,0.040000,288054314924.770386,23741384572797.843750,-27931248356158.179688,-3813001165787.105469,470.983287,-502.559072,-71.839152
-0.580000,-1.900000,0.100618,0.040000,191631607384.413818,19479807955460.218750,-19876342885072.394531,-2819376450536.618652,369.252159,-372.240538,-53.118687
-0.620000,-1.900000,0.100381,0.040000,187706536352.518097,19104291532055.460938,-19506604614706.921875,5358771174806.383789,362.209871,-365.241796,100.962355
-0.540000,-1.940000,0.060010,0.040000,247173881916.995636,20379764683069.597656,-23828550480412.855469,-13663187006043.416016,403.459718,-429.450568,-257.422364
-0.500000,-1.940000,0.060669,0.040000,166234475491.732544,13839945380957.216797,-16087695060251.326172,-21153993998455.273438,273.457266,-290.396829,-398.553510
-0.500000,-1.900000,0.100403,0.040000,109738975303.529907,11388465930619.669922,-11591517436087.519531,-16096006503709.515625,215.712983,-217.243226,-303.258094
-0.540000,-1.900000,0.100006,0.040000,164152189843.551880,16734374208114.261719,-17046467643655.765625,-10345054092756.353516,317.049318,-319.401326,-194.906816
-0.460000,-1.940000,0.060982,0.040000,58322289430.464302,5227542823308.560547,-6013167964192.681641,-25120871656410.886719,102.930427,-108.851080,-473.291785
-0.420000,-1.940000,0.060006,0.040000,-59742822144.305473,-3851271021946.941406,4588761311735.347656,-25161524528455.285156,-76.728602,82.286500,-474.057709
-0.420000,-1.900000,0.100004,0.040000,-42790722017.659317,-3140004337645.696289,3208523018075.260742,-19322458893024.289062,-59.546782,60.063154,-364.046327
-0.460000,-1.900000,0.100592,0.040000,37005556907.169273,4367134262116.887695,-4441014787970.010742,-19208693816507.886719,82.696927,-83.253708,-361.902927
-0.380000,-1.940000,0.060705,0.040000,-170078297031.022400,-12132798023256.988281,14233407413008.427734,-21578775762509.937500,-240.461958,256.292637,-406.556645
-0.340000,-1.940000,0.060939,0.040000,-256365449058.194031,-18642342367525.753906,21740803981198.562500,-14940229951475.947266,-368.745581,392.096306,-281.482593
-0.340000,-1.900000,0.100566,0.040000,-176092631378.749786,-15408492223268.224609,15696485451395.277344,-11520548634242.708984,-291.932714,294.103098,-217.053815
-0.380000,-1.900000,0.100424,0.040000,-117540857143.117233,-10037631652110.824219,10238052537362.718750,-16618000415504.257812,-190.247613,191.758031,-313.092761
-0.300000,-1.940000,0.060003,0.040000,-306110757848.359009,-22352576477137.441406,25974428407099.226562,-6172559136796.226562,-441.606836,468.901952,-116.294592
-0.260000,-1.940000,0.060741,0.040000,-312275915670.249695,-22740195213039.074219,26401957850938.394531,3336762318921.610840,-449.135380,476.731272,62.866536
-0.260000,-1.900000,0.100447,0.040000,-213828329101.679657,-18856749445282.769531,19194378295390.105469,2540705752278.284668,-357.180428,359.724877,47.868369
-0.300000,-1.900000,0.100002,0.040000,-209830153922.047943,-18484150602185.886719,18809088942798.105469,-4789651958344.511719,-350.088721,352.537531,-90.239820
-0.220000,-1.940000,0.060898,0.040000,-274086400917.192047,-19946701931395.160156,23141066620671.542969,12186288870399.699219,-393.862532,417.936005,229.596747
-0.180000,-1.940000,0.060001,0.040000,-196973583332.426056,-14506627875540.103516,16790358807069.851562,19304216233020.496094,-286.221323,303.432049,363.702625
-0.180000,-1.900000,0.100001,0.040000,-134356797268.431458,-12027615526488.666016,12231142078626.818359,14951084805193.083984,-227.757617,229.291440,281.687105
-0.220000,-1.900000,0.100541,0.040000,-187452684436.781982,-16575355784242.949219,16872572315007.041016,9423445232962.111328,-313.969231,316.209124,177.543171
-0.140000,-1.940000,0.060779,0.040000,-91710288649.202316,-7032589574210.698242,8130167771158.399414,23801588162362.304688,-138.701767,146.973371,448.435719
-0.100000,-1.940000,0.060857,0.040000,27125242299.065605,1513051846131.563232,-1728255045800.758545,24951831724014.343750,29.723140,-31.344961,470.106975
-0.100000,-1.900000,0.100517,0.040000,19869598061.466045,1243502095359.211914,-1259978949349.287109,19331450470611.714844,23.521430,-23.645604,364.215734
-0.140000,-1.900000,0.100469,0.040000,-61907249889.948608,-5807061877930.233398,5904354468010.199219,18430572403149.753906,-109.958327,110.691546,347.242668
-0.060000,-1.940000,0.060000,0.040000,143145073892.889679,9728045983686.937500,-11232816026962.996094,22629569897984.609375,191.787248,-203.127544,426.354215
-0.020000,-1.940000,0.060818,0.040000,240350325460.706085,16593142486132.164062,-19199915487178.578125,17300780967512.185547,327.358358,-347.003604,325.956743
-0.020000,-1.900000,0.100493,0.040000,166455054877.278320,13839987388324.943359,-14082487200726.125000,13396539629403.361328,262.124037,-263.951572,252.398573
-0.060000,-1.900000,0.100000,0.040000,99671762461.077194,8092826327594.766602,-8226531990419.766602,17544327387067.535156,153.229267,-154.236904,330.545299
0.020000,-1.940000,0.060818,0.040000,305263473839.518494,21357282401296.121094,-24705509469843.734375,9600483570652.673828,421.308343,-446.541359,180.878676
0.060000,-1.940000,0.060000,0.040000,328726708703.665588,23227637316504.097656,-26870992229064.472656,428326168052.945190,458.215028,-485.672195,8.069913
0.060000,-1.900000,0.100000,0.040000,226783232547.683044,19281138580183.445312,-19605716435563.320312,275218821335.046875,365.102399,-367.548493,5.185282
0.020000,-1.900000,0.100493,0.040000,210922561625.184174,17764231879123.277344,-18071209625114.093750,7384564353716.305664,336.423518,-338.736974,139.129473
0.100000,-1.940000,0.060857,0.040000,307154116714.867249,21824796023672.531250,-25309120611432.925781,-8903770311842.839844,430.885818,-457.144496,-167.752194
0.140000,-1.940000,0.060779,0.040000,243086344632.011078,17390278695168.781250,-20230068404044.812500,-17049022115784.605469,343.693917,-365.095231,-321.213460
0.140000,-1.900000,0.100469,0.040000,167278098563.118011,14439166870116.556641,-14704952445194.869141,-13271163093553.326172,273.544541,-275.547562,-250.036406
0.100000,-1.900000,0.100517,0.040000,211623146420.336853,18120588761928.972656,-18441876957369.574219,-6947545271491.466797,343.218374,-345.639676,-130.895780
0.180000,-1.940000,0.060001,0.040000,144950751626.355103,10591933433858.101562,-12366453618626.802734,-22997113517585.671875,209.588063,-222.961258,-433.278950
0.220000,-1.940000,0.060898,0.040000,26047809092.546005,2116823388524.398926,-2566262941115.358887,-25930942767861.925781,42.422490,-45.809571,-488.553994
0.220000,-1.900000,0.100541,0.040000,17980192119.148228,1668419714841.675049,-1709310998526.433350,-20046582277153.894531,31.665119,-31.973285,-377.689231
0.180000,-1.900000,0.100001,0.040000,99650370739.210175,8728887550713.113281,-8889204297614.263672,-17845468385910.250000,165.363440,-166.571624,-336.218970
0.260000,-1.940000,0.060741,0.040000,-97138787697.035706,-6968786780575.222656,7943967994957.589844,-25188769041841.699219,-136.807877,144.157068,-474.571011
0.300000,-1.940000,0.060003,0.040000,-207119738112.349152,-15140509122281.609375,17469811993847.601562,-20752096571882.265625,-298.421594,315.975760,-390.981530
0.300000,-1.900000,0.100002,0.040000,-141358976530.899261,-12579813906940.265625,12786331154704.257812,-15938010328482.998047,-238.178258,239.734620,-300.281354
0.260000,-1.900000,0.100447,0.040000,-66352403287.405884,-5809519478828.778320,5892712832316.576172,-19408934743320.058594,-109.924938,110.551903,-365.675582
0.340000,-1.940000,0.060939,0.040000,-287829712621.290100,-21282932222428.558594,24709687803092.332031,-13267262082517.960938,-420.351400,446.176224,-249.962909
0.380000,-1.940000,0.060705,0.040000,-326969707826.319031,-24586382714798.601562,28641153376377.390625,-3621307600509.401367,-486.139972,516.697664,-68.227535
0.380000,-1.900000,0.100424,0.040000,-222402809482.039856,-20321294567641.921875,20696307443912.062500,-2627219931201.636230,-384.984608,387.810792,-49.498347
0.340000,-1.900000,0.100566,0.040000,-196122250462.805389,-17667488486399.167969,17986830883910.652344,-10109859695478.609375,-334.670704,337.077342,-190.475617
0.420000,-1.940000,0.060006,0.040000,-317952457626.030212,-24312574095268.488281,28418038842926.558594,6996355942333.670898,-481.267791,512.207525,131.815402
0.460000,-1.940000,0.060982,0.040000,-261185703202.287231,-20184579172914.238281,23752036144559.042969,16939095703373.984375,-400.453060,427.338243,319.142383
0.460000,-1.900000,0.100592,0.040000,-177314199097.834900,-16562336157150.078125,16898279097601.480469,13062858679278.724609,-313.942822,316.474566,246.111830
0.420000,-1.900000,0.100004,0.040000,-215949850724.375366,-20001433490008.378906,20372954688688.578125,5504915622124.750977,-378.938504,381.738374,103.715802
0.500000,-1.940000,0.060669,0.040000,-164403305566.590027,-12727434379614.542969,15152990088421.775391,24513839972768.832031,-253.501905,271.781455,461.854956
0.540000,-1.940000,0.060010,0.040000,-41920762506.759270,-3099798543637.595215,3892758955898.896484,28505330753879.414062,-62.883952,68.859885,537.056956
0.540000,-1.900000,0.100006,0.040000,-29873950149.480137,-2429173361516.815430,2506234513804.623047,21715951397434.433594,-46.202597,46.783348,409.141113
0.500000,-1.900000,0.100403,0.040000,-112000153867.946075,-10413661999722.828125,10649080561730.771484,18789737693284.593750,-197.530056,199.304225,354.009551
0.580000,-1.940000,0.061025,0.040000,87191977309.762970,7501630842274.594727,-8583539070224.680664,28105050661179.464844,147.450207,-155.603719,529.515447
0.620000,-1.940000,0.060634,0.040000,201855175827.226807,17455322365353.746094,-20357242471189.507812,22884981514693.421875,345.270550,-367.140092,431.166318
0.620000,-1.900000,0.100381,0.040000,132042811863.738922,14313119608911.115234,-14576346699919.607422,17155269469585.595703,271.155276,-273.139017,323.215222
0.580000,-1.900000,0.100618,0.040000,56153569284.389877,6274557011315.814453,-6374574755050.576172,21254026347184.523438,118.781609,-119.535366,400.438178
0.660000,-1.940000,0.060014,0.040000,282346705372.608032,24722780825457.218750,-29111903816447.574219,13341695313395.091797,490.599609,-523.677058,251.365274
0.700000,-1.940000,0.061069,0.040000,313810652576.648010,27840496631759.585938,-33090645639704.140625,995243362389.233521,554.205851,-593.772192,18.750962
0.700000,-1.900000,0.100645,0.040000,205294922906.354370,22651488147158.500000,-23154465663700.718750,552297579407.034546,429.610084,-433.400640,10.405607
0.660000,-1.900000,0.100009,0.040000,184902978153.400940,20170843453551.363281,-20572019567556.472656,9877789128874.923828,382.297901,-385.321257,186.103273
0.740000,-1.940000,0.060600,0.040000,289312874954.506775,26081317064813.031250,-31255033476765.453125,-12140130582278.451172,520.629878,-559.620205,-228.727098
0.780000,-1.940000,0.060020,0.040000,211849080089.071960,19339037824643.203125,-23406611600132.312500,-23809337218825.167969,387.349318,-418.003497,-448.581716
0.780000,-1.900000,0.100012,0.040000,138997042536.107178,15501420700410.511719,-15885484833449.642578,-17851884191122.953125,294.226550,-297.120946,-336.339847
0.740000,-1.900000,0.100361,0.040000,189162946199.531189,21108523374394.503906,-21605568431861.015625,-9284659286727.048828,400.506202,-404.252049,-174.928363
0.820000,-1.940000,0.061114,0.040000,94741224961.334671,8254514027070.216797,-10318468403856.201172,-31512856604491.390625,167.185659,-182.740097,-593.720487
0.860000,-1.940000,0.060566,0.040000,-39953818160.676254,-5244124953166.796875,5836024883871.130859,-33080226827456.417969,-102.147876,106.608571,-623.250650
0.860000,-1.900000,0.100341,0.040000,-21703952051.169468,-4276208986368.661621,4315667359023.883789,-24298165449302.585938,-80.789282,81.086649,-457.791523
0.820000,-1.900000,0.100672,0.040000,63889433690.399323,6515557143578.676758,-6720888277512.235352,-23358080805154.695312,123.917441,-125.464864,-440.079783
0.900000,-1.940000,0.060027,0.040000,-165052107747.587646,-18211762705140.960938,21687456472187.429688,-27619639328699.503906,-362.765393,388.959027,-520.370016
0.940000,-1.940000,0.061160,0.040000,-253497083303.144592,-27886675552699.738281,33810307318820.835938,-15756579429352.177734,-558.882531,603.524393,-296.863091
0.940000,-1.900000,0.100700,0.040000,-155618032475.399780,-22296132002039.675781,22876579244400.468750,-11255048987260.494141,-423.352841,427.727226,-212.051648
0.900000,-1.900000,0.100016,0.040000,-100457992642.253006,-14646493696600.074219,14968939687360.060547,-20090793320220.843750,-277.770953,280.200981,-378.522193
0.980000,-1.940000,0.060534,0.040000,-284449700311.640869,-31831489912496.910156,39031505345470.867188,580696428365.409302,-640.419462,694.680448,10.940657
1.020000,-1.940000,0.060035,0.040000,-248948714006.540924,-28266050694065.195312,35097148843157.492188,18065000966592.160156,-571.159336,622.640076,340.355091
1.020000,-1.900000,0.100021,0.040000,-153284332465.012268,-22218619439291.871094,22879294602963.542969,13169023878949.980469,-422.345922,427.324923,248.112044
0.980000,-1.900000,0.100321,0.040000,-174794151370.794891,-25238842757340.171875,25940411464134.765625,684616214457.283813,-479.479817,484.767002,12.898566
1.060000,-1.940000,0.061207,0.040000,-153625760353.750854,-17053149820200.261719,21709527015492.113281,32171374401810.933594,-347.609882,382.701420,606.127344
1.100000,-1.940000,0.060503,0.040000,-21050405972.550671,-497095484007.949219,1347676706203.088867,38478499827614.070312,-14.173200,20.583377,724.957243
1.100000,-1.900000,0.100303,0.040000,-17252847594.458786,-362925057558.459778,471322025196.986328,27220199752826.238281,-7.450397,8.267302,512.844343
1.060000,-1.900000,0.100729,0.040000,-96007376543.324799,-13316929508538.615234,13789706152239.775391,23024853060885.125000,-253.570888,257.133842,433.801579
1.140000,-1.940000,0.060043,0.040000,114231009222.075119,17059169104048.185547,-20905630270764.617188,34317599903772.578125,343.145503,-372.133326,646.563476
1.180000,-1.940000,0.061255,0.040000,213929208484.492523,30713326705912.800781,-38762264373510.187500,19694751569680.406250,624.150875,-684.809536,371.060537
1.180000,-1.900000,0.100758,0.040000,120064296694.907043,23840708708898.324219,-24656713453130.144531,13517276648888.511719,453.784974,-459.934574,254.673328
1.140000,-1.900000,0.100026,0.040000,62158387618.699905,13337878920638.429688,-13707364361467.146484,23991161495421.843750,253.381767,-256.166295,452.007390
1.220000,-1.940000,0.060473,0.040000,247102938237.781952,35775884401642.187500,-45935089835926.726562,-2318202205330.940918,731.459998,-808.022126,-43.676273
1.260000,-1.940000,0.060053,0.040000,201251213693.233612,29179027477135.089844,-38210584893365.632812,-25440822504540.796875,600.797726,-668.861637,-479.319844
1.260000,-1.900000,0.100032,0.040000,114471429789.096237,22234535656463.367188,-23140122260113.605469,-17493278240302.384766,424.030074,-430.854785,-329.583503
1.220000,-1.900000,0.100284,0.040000,139455995763.895508,27510858181576.535156,-28534247285151.425781,-1823565234395.775146,524.104890,-531.817387,-34.357026
1.300000,-1.940000,0.061304,0.040000,89492551212.283142,11525244678016.333984,-15919487740210.699219,-41268438018900.289062,241.979317,-275.095352,-777.521296
1.340000,-1.940000,0.060443,0.040000,-50067423100.015976,-11693907695149.281250,14518459916525.882812,-42416535633633.250000,-236.284860,257.571341,-799.152121
1.340000,-1.900000,0.100266,0.040000,-21250378821.965225,-8716730851312.786133,8974311907173.289062,-28293692255323.562500,-165.684155,167.625346,-533.069564
1.300000,-1.900000,0.100788,0.040000,53680990635.644753,8754155187236.772461,-9219630861759.001953,-27887612236452.109375,167.564308,-171.072241,-525.418781
1.380000,-1.940000,0.060063,0.040000,-164996811548.409851,-31396538419468.945312,41634719044748.531250,-26329904412601.863281,-649.396962,726.554265,-496.070663
1.420000,-1.940000,0.061353,0.040000,-207881624902.985138,-38670425644781.867188,52947773927943.976562,2306213030260.784180,-809.271292,916.868700,43.450390
1.420000,-1.900000,0.100818,0.040000,-105330851411.768875,-28853827735176.675781,30368950786407.542969,1527909351131.343262,-552.186580,563.604899,28.786698
1.380000,-1.900000,0.100038,0.040000,-82224272305.028122,-23479086393526.925781,24520152599760.156250,-17357166372967.779297,-448.243886,456.089602,-327.019077
1.460000,-1.940000,0.060415,0.040000,-158323987784.277863,-28650849602653.390625,40486881443545.671875,31955021270910.789062,-606.697926,695.897007,602.051125
1.500000,-1.940000,0.060075,0.040000,-37558288775.233131,-3963837580700.261719,6443108235359.892578,47863838542818.289062,-88.694267,107.378625,901.782465
1.500000,-1.900000,0.100045,0.040000,-23637209886.804779,-3020904044631.598145,3275937249008.637695,30424351995936.660156,-58.357075,60.279065,573.212429
1.460000,-1.900000,0.100249,0.040000,-81737720976.203125,-21306673089134.679688,22568332390279.949219,20609086093828.402344,-408.561190,418.069348,388.287129
1.540000,-1.940000,0.061404,0.040000,94862191029.657013,24271189437590.675781,-34306797593357.605469,39055977435024.703125,514.006282,-589.636952,735.837256
1.580000,-1.940000,0.060387,0.040000,167057836500.885803,39894455388644.781250,-58482671664076.335938,6664775469685.792969,856.698498,-996.783606,125.568233
1.580000,-1.900000,0.100233,0.040000,73811935125.490982,28702663334662.542969,-30674294930126.828125,4274003509793.544922,551.918821,-566.777494,80.524704
1.540000,-1.900000,0.100848,0.040000,39301298916.816536,17540404926205.716797,-18622452430287.109375,24513729948996.109375,336.587318,-344.741879,461.852883
1.620000,-1.940000,0.060087,0.040000,135847486533.666092,30988956623689.109375,-47120728456813.507812,-32110639294002.218750,675.029487,-796.602261,-604.983059
1.660000,-1.940000,0.061455,0.040000,20612549129.054546,543489523816.351868,-1748057249813.469727,-50786174726538.070312,17.048084,-26.125986,-956.840973
1.660000,-1.900000,0.100880,0.040000,14063241905.706934,783117495941.825928,-922368226221.247559,-30268383657156.519531,15.541457,-16.590883,-570.273895
1.620000,-1.900000,0.100052,0.040000,61940767710.347343,22295383157038.035156,-24000473487218.617188,-19251852673876.078125,429.695411,-442.545367,-362.716065
1.700000,-1.940000,0.060360,0.040000,-98336114699.272583,-30804263766368.058594,48509251222798.226562,-31946401688170.871094,-680.441855,813.870746,-601.888727
1.740000,-1.940000,0.060100,0.040000,-130500472025.596558,-37143015562610.851562,61678044558746.726562,13825333963957.224609,-838.472196,1023.373864,260.477307
1.740000,-1.900000,0.100060,0.040000,-50051563610.300629,-26030447336098.949219,28683246461988.066406,7329761066088.374023,-505.422800,525.414909,138.096948
1.700000,-1.900000,0.100217,0.040000,-35154790533.329071,-21285249391285.968750,23167906675642.289062,-19120684722149.679688,-411.667544,425.855686,-360.244785
1.780000,-1.940000,0.061507,0.040000,-50641130073.663292,-10576678592454.324219,18962200267161.718750,47887283416943.351562,-246.667183,309.862419,902.224180
1.820000,-1.940000,0.060335,0.040000,64815936669.182899,24987334376523.132812,-44956786981132.156250,34611780937410.234375,583.646684,-734.141110,652.106018
1.820000,-1.900000,0.100201,0.040000,17798244037.217632,16671448762987.017578,-18815577445239.777344,19872781881003.390625,326.218748,-342.377398,374.414731
1.780000,-1.900000,0.100912,0.040000,-22729568530.014812,-7969642346852.962891,8928996053891.957031,26861489805241.339844,-155.575116,162.805028,506.086040
1.860000,-1.940000,0.060115,0.040000,97833270487.408936,31705664646869.898438,-60627176649912.859375,-15618717161385.468750,760.822518,-978.781739,-294.265686
1.900000,-1.940000,0.061560,0.040000,16752225134.066813,1574723814530.361328,-1682811576902.913818,-44143025336096.343750,30.279640,-31.094215,-831.680187
1.900000,-1.900000,0.100944,0.040000,9059250926.427471,1687501990003.141846,-1716942211881.320801,-23762726083003.742188,31.959917,-32.181785,-447.703535
1.860000,-1.900000,0.100069,0.040000,31414740995.665104,21974353587386.242188,-25152129849993.707031,-7595426926273.859375,431.970904,-455.919363,-143.102246
1.940000,-1.940000,0.060310,0.040000,-68628261812.242882,-25599224729751.503906,57987713844052.015625,-12696509065480.837891,-665.369607,909.456772,-239.209591
1.980000,-1.940000,0.060130,0.040000,-40928388028.057793,-13199362824705.496094,26175506916936.878906,30750834609204.886719,-322.027071,419.818301,579.363551
1.980000,-1.900000,0.100078,0.040000,-12422287180.600189,-9203605312950.978516,10550915148736.068359,16059676952709.460938,-181.016489,191.170128,302.573624
1.940000,-1.900000,0.100186,0.040000,-16220272201.878454,-17536344484768.089844,21131939661123.429688,-7760537425284.297852,-350.717825,377.815064,-146.213024
2.020000,-1.940000,0.061614,0.040000,40678153939.483574,12172455860191.771484,-44858304423861.554688,16837668647675.662109,414.082225,-660.410360,317.231438
2.060000,-1.940000,0.060286,0.040000,28193517631.116375,7308808431506.383789,-20671882270334.394531,-18836795222339.339844,213.232605,-313.939828,-354.896142
2.060000,-1.900000,0.100172,0.040000,7006729599.177362,5954158362292.792969,-7802958825253.700195,-10522589828501.660156,122.629537,-136.562526,-198.251692
2.020000,-1.900000,0.100977,0.040000,6379132816.151932,9732435138455.402344,-13771027924915.265625,9785435392884.816406,206.191549,-236.627321,184.363276
2.100000,-1.940000,0.060146,0.040000,-30629527747.657627,-6883771971830.746094,34744063273972.542969,-8235697315981.119141,-287.165466,497.127082,-155.165312
2.140000,-1.940000,0.061669,0.040000,-1402404179.284969,-5320343189935.969727,-2127913523722.300781,9712602661616.964844,-58.139508,2.007718,182.991065
2.140000,-1.900000,0.101010,0.040000,-1642510798.021309,-1982908228688.166992,856920552346.713257,6495991919196.672852,-30.994862,22.509158,122.388254
2.100000,-1.900000,0.100088,0.040000,-3594854723.445861,-6335650497923.260742,9707916369177.507812,-4319733041552.152832,-138.427961,163.842139,-81.386275
2.180000,-1.940000,0.060263,0.040000,13501991449.650284,-500876775943.185364,-16622431967259.835938,-1509933120531.542480,87.347110,-216.392335,-28.448015
2.220000,-1.940000,0.060163,0.040000,-9158070741.011017,-6067460802700.448242,12009469122102.388672,-3754998297433.851562,-147.899743,192.680096,-70.746345
2.220000,-1.900000,0.100098,0.040000,-446654072.388438,-2935483037768.490723,3116237163674.101074,-1593445866663.579346,-56.327856,57.690061,-30.021444
2.180000,-1.900000,0.100158,0.040000,1670239607.571423,1584096564063.148193,-4419214786078.443359,-1991220817282.617432,45.869879,-67.235987,-37.515755
2.260000,-1.940000,0.061725,0.040000,3500670895.359210,-4842764707926.157227,-1275397094899.670166,5114263329471.104492,-56.659580,10.551694,96.355686
2.300000,-1.940000,0.060242,0.040000,-825214136.035491,4188940582596.551758,-4264270578094.624512,1340537343253.204346,79.347847,-79.915551,25.256501
2.300000,-1.900000,0.100145,0.040000,22789213.343445,1454405247757.242676,-947607047484.832397,-412471101736.385498,24.537326,-20.717978,-7.771195
2.260000,-1.900000,0.101044,0.040000,20178889.760370,-1397701487172.151855,-75805594773.974670,2752727140038.198730,-18.004988,6.900297,51.862975
2.340000,-1.940000,0.060182,0.040000,124498297.649825,71937739196.646667,2169977973893.576660,-1950464499995.573486,-11.316349,28.211945,-36.747882
2.380000,-1.940000,0.061782,0.040000,-4986221.663190,-174095392237.800110,-175986704302.660706,244611986965.338776,-1.301333,-1.336967,4.608632
2.380000,-1.900000,0.101079,0.040000,5544532.563381,-62382965376.362282,-33808244998.459282,89730709195.674973,-0.631642,-0.093277,1.690579
2.340000,-1.900000,0.100109,0.040000,649407.493857,-23316872566.265411,377117705594.360107,-391158588767.299744,-2.439047,5.105372,-7.369655
2.420000,-1.940000,0.060221,0.040000,5686495.979607,-26231716298.449501,-52842365497.839935,70352363495.753906,-0.047280,-0.548640,1.325479
2.460000,-1.940000,0.042590,0.040000,6077764.919382,-322261227671.238037,24777274653.368950,219565266513.191467,-4.390157,2.148249,4.136737
2.460000,-1.900000,0.040250,0.040000,-16330477.259702,-5325150437875.587891,-2842048247418.839844,5933675911733.602539,-54.166494,-7.383409,111.793894
2.420000,-1.900000,0.080125,0.040000,6045050.066809,-622834606171.187500,-781696744513.378540,1313718782776.106934,-3.795910,-6.788964,24.751223
2.500000,-1.940000,0.014627,0.040000,-59698500.366953,-2173473861319.402832,-1058924185240.131714,762360350888.241577,-22.679432,-1.680670,14.363311
2.500000,-1.900000,0.004478,0.040000,785379060.379208,-12155347660361.763672,-7038744095716.797852,9192641474180.029297,-120.525452,-24.125674,173.194694
-2.500000,-1.860000,0.005672,0.040000,-5010336301.741481,-20495730460673.652344,-15723858480960.888672,-9005462830667.636719,-181.432028,-91.527193,-169.668140
-2.500000,-1.820000,0.014030,0.040000,117362742771.472046,-107933341493362.640625,2248521349077.582520,-66783901628039.718750,-1436.177740,639.712429,-1258.247422
-2.460000,-1.860000,0.040400,0.040000,-223302609.491574,-9249547797322.935547,6562416320400.091797,-4244267459311.884766,-159.078708,138.827862,-79.964459
-2.420000,-1.860000,0.080201,0.040000,20463041.685538,-1605548334619.354492,2524466217566.995117,406569077886.608887,-35.443345,42.368523,7.659997
-2.420000,-1.820000,0.081221,0.040000,-61941792.171069,-2817504879748.219238,-6740009694436.250000,-11187972876049.048828,0.937309,-72.964955,-210.787895
-2.460000,-1.820000,0.042389,0.040000,1562721870.367042,-25274406242478.335938,-21937458456906.515625,-37959182843355.742188,-209.334795,-146.464765,-715.173010
-2.380000,-1.860000,0.120134,0.040000,10861988.081068,-4737287925.367649,11283926528.926874,7924844938.481046,-0.126256,0.175593,0.149309
-2.340000,-1.860000,0.140078,0.040000,10966682.112358,-16529665629.645569,16306454931.446705,6493623745.663394,-0.310167,0.308485,0.122344
-2.340000,-1.820000,0.160614,0.040000,11830283.038890,-6527357661.082407,9760859265.243755,1484986345.754715,-0.141256,0.165624,0.027978
-2.380000,-1.820000,0.120817,0.040000,10160075.344573,-121266316105.202011,325785205552.399780,-53166737875.926743,-3.440704,4.982006,-1.001692
-2.300000,-1.860000,0.140104,0.040000,15291494.632433,42225946843.846680,-41257651629.459587,15913745951.062445,0.790088,-0.782791,0.299824
-2.260000,-1.860000,0.140748,0.040000,-7115797.972642,99418006759.700012,-20648425821.274078,-104922063950.182846,1.427874,-0.834248,-1.976793
-2.260000,-1.820000,0.180582,0.040000,9412311.086570,475011080.160855,9093080953.372253,-121963993.170450,-0.045131,0.117238,-0.002298
-2.300000,-1.820000,0.180081,0.040000,10831834.593386,-2698333335.830570,-1199234908.627807,-3223048711.398216,-0.028808,-0.000565,-0.060724
-2.220000,-1.860000,0.140070,0.040000,11115384.209515,-411877763977.812805,294900075749.994202,214028085268.335022,-7.098838,6.217267,4.032413
-2.180000,-1.860000,0.140113,0.040000,202438736.693013,511898167687.802490,-594400298928.259766,72919178514.775955,10.110775,-10.732530,1.373840
-2.180000,-1.820000,0.180088,0.040000,17465021.459942,71668609545.007568,-85330759439.287079,-46532313029.832718,1.427499,-1.530460,-0.876696
-2.220000,-1.820000,0.180055,0.040000,21413053.337612,-7501239032.295353,-45300876.337689,32065704350.096951,-0.098673,0.041801,0.604136
-2.140000,-1.860000,0.140724,0.040000,-292461196.783235,66046611729.521713,-18707463811.209476,-935597690884.654663,0.976787,-0.620029,-17.627203
-2.100000,-1.860000,0.140063,0.040000,-589658507.085048,-1686776332006.800293,1790574571861.960693,443600726874.545227,-32.366530,33.148777,8.357695
-2.100000,-1.820000,0.180049,0.040000,-2838954.437477,-251349165232.870697,274164530886.642456,216646838961.714508,-4.864520,5.036462,4.081752
-2.140000,-1.820000,0.180563,0.040000,-74011266.095905,-85363324054.479431,102655933839.968933,-124048557102.824600,-1.706035,1.836356,-2.337147
-2.060000,-1.860000,0.140123,0.040000,1178450827.410440,678510309496.494507,-682052471919.047729,2155849657196.964600,12.803548,-12.830243,40.617457
-2.020000,-1.860000,0.140699,0.040000,1813620028.769937,3098666599786.374512,-3388817179026.788574,-772358350249.908325,60.020657,-62.207299,-14.551679
-2.020000,-1.820000,0.180545,0.040000,227510548.037893,665426318789.989502,-725096137668.490356,-415626023608.594543,12.874282,-13.323967,-7.830635
-2.060000,-1.820000,0.180096,0.040000,361114514.014111,323494458615.068481,-338466902122.029541,376159454044.783875,6.179450,-6.292286,7.087062
-1.980000,-1.860000,0.140056,0.040000,-1838160049.654181,-295250047367.480164,204824730150.009766,-3992686511211.476562,-5.051582,4.370116,-75.224528
-1.940000,-1.860000,0.140133,0.040000,-4921141785.004610,-4824639476979.050781,5179007814990.090820,-965564220349.470215,-92.901956,95.572558,-18.191790
-1.940000,-1.820000,0.180104,0.040000,-1249072671.536587,-1443041509774.896240,1532625727908.064453,39742184195.878662,-27.694084,28.369212,0.748766
-1.980000,-1.820000,0.180043,0.040000,-796564649.085214,-352538056496.283813,346015104695.035339,-1007203718029.044312,-6.605152,6.555994,-18.976302
-1.900000,-1.860000,0.140676,0.040000,-954396029.712431,-3000364250877.588867,3307757769369.466309,4963668861308.313477,-58.266043,60.582632,93.518399
-1.860000,-1.860000,0.140049,0.040000,7342070088.328708,3744635317452.001465,-3910748035185.689453,5550541201658.755859,71.489998,-72.741862,104.575414
-1.860000,-1.820000,0.180038,0.040000,2887558526.966079,1538709547563.606445,-1588006107430.189209,1630603924003.558838,29.268813,-29.640323,30.721523
-1.900000,-1.820000,0.180526,0.040000,378654821.292468,-650062135304.268188,724150880340.522339,1701179978224.275391,-12.666310,13.224660,32.051217
-1.820000,-1.860000,0.140144,0.040000,9976429061.417036,7397700884582.114258,-7850128789043.137695,-762805070649.351074,141.934174,-145.343776,-14.371690
-1.780000,-1.860000,0.140653,0.040000,1495979009.775357,3535246226830.305664,-3792570076441.086914,-7471749573035.728516,68.060527,-69.999780,-140.772093
-1.780000,-1.820000,0.180508,0.040000,-580892580.106633,1017101714518.217896,-1095323046473.229492,-2935869036825.159668,19.604906,-20.194401,-55.313475
-1.820000,-1.820000,0.180112,0.040000,3077448503.261084,2600814150387.700684,-2731108341488.801758,-626849500738.277832,49.737292,-50.719219,-11.810208
-1.740000,-1.860000,0.140043,0.040000,-12274782323.585894,-4407962126988.726562,4575277267544.870117,-7844460182122.500000,-83.994256,85.255182,-147.794177
-1.700000,-1.860000,0.140155,0.040000,-19282496738.746662,-9442804281684.531250,9866125086215.044922,-1343507987762.925049,-180.300590,183.490833,-25.312469
-1.700000,-1.820000,0.180120,0.040000,-7687900545.841665,-3973347657875.510254,4107729957547.485840,-215181680931.455231,-75.619725,76.632462,-4.054148
-1.740000,-1.820000,0.180034,0.040000,-5700821532.097039,-2050678675134.702881,2100129830337.058350,-2898888297836.118164,-38.915482,39.288157,-54.616736
-1.660000,-1.860000,0.140630,0.040000,-11827347040.061033,-7493648894777.508789,7832120933138.816406,6855599147663.156250,-143.097792,145.648596,129.163462
-1.620000,-1.860000,0.140037,0.040000,7124345406.715466,-28107031376.860241,60205976002.548592,10767251681371.130859,-0.710982,0.952887,202.861264
-1.620000,-1.820000,0.180029,0.040000,4927879311.955879,289226587652.613953,-272744945385.442596,4785521815620.887695,5.356039,-5.231830,90.162005
-1.660000,-1.820000,0.180490,0.040000,-3665825908.879610,-3035190562652.017578,3149319725608.395508,3172466739400.493652,-57.829828,58.689931,59.771112
-1.580000,-1.860000,0.140166,0.040000,26091981955.061535,7900517782452.161133,-8163844916569.075195,7896471677760.912109,150.338706,-152.323200,148.774104
-1.540000,-1.860000,0.140607,0.040000,32810970352.572369,11501753039248.404297,-11873890319855.566406,198669916116.304535,218.803080,-221.607592,3.743056
-1.540000,-1.820000,0.180473,0.040000,15180268679.839508,5537220341694.580078,-5665102117743.428711,-171225261439.203552,105.047251,-106.010998,-3.225983
-1.580000,-1.820000,0.180129,0.040000,13035629504.894014,3882912413957.144043,-3967165815488.985352,3429377193934.800781,73.632536,-74.267489,64.611454
-1.500000,-1.860000,0.140032,0.040000,21678103028.324310,8950625580553.445312,-9224990735016.691406,-7864013781824.033203,170.185734,-172.253414,-148.162578
-1.460000,-1.860000,0.140178,0.040000,-3370644903.680068,1840986922986.777100,-1895673949008.003174,-12164238895075.226562,34.994361,-35.406496,-229.181313
-1.460000,-1.820000,0.180139,0.040000,-4051878824.857667,713095962858.538452,-739463324861.425415,-6145875295071.216797,13.584174,-13.782885,-115.791853
-1.500000,-1.820000,0.180025,0.040000,8836324041.025846,4271846986132.047852,-4371733762399.191406,-4031076547676.010254,81.048651,-81.801421,-75.947819
-1.420000,-1.860000,0.140585,0.040000,-31275387450.099335,-6250075812789.994141,6407074768359.419922,-10877836813622.980469,-118.642437,119.825617,-204.944752
-1.380000,-1.860000,0.140027,0.040000,-49417936238.564789,-11720867034165.453125,11999585894247.175781,-4889357931079.603516,-222.403297,224.503787,-92.118338
-1.380000,-1.820000,0.180021,0.040000,-26647421008.005024,-6317302740353.232422,6414589269243.819336,-2406913580289.446777,-119.571526,120.304700,-45.347647
-1.420000,-1.820000,0.180456,0.040000,-18010182596.903419,-3432513307788.089355,3483153748456.907227,-5500886313836.253906,-64.956769,65.338407,-103.639887
-1.340000,-1.860000,0.140190,0.040000,-49229072373.326904,-12505404799799.416016,12783801877602.929688,3079296882482.757812,-237.182625,239.280690,58.015738
-1.300000,-1.860000,0.140564,0.040000,-29449985942.916706,-8597892250951.485352,8776941111230.409180,9877908553233.230469,-163.001290,164.350643,186.105523
-1.300000,-1.820000,0.180439,0.040000,-13880336620.053196,-4663664983658.613281,4729887398569.989258,5521599644210.941406,-88.240452,88.739520,104.030138
-1.340000,-1.820000,0.180148,0.040000,-25505003188.470989,-6768377137367.337891,6868604239357.152344,1818400599484.965820,-128.086650,128.841985,34.259721
-1.260000,-1.860000,0.140023,0.040000,3824558205.398382,-1693577597881.881348,1723302973079.069336,13166746139951.550781,-32.075997,32.300014,248.069130
-1.220000,-1.860000,0.140203,0.040000,39769401968.844650,5706297138499.895508,-5819512223572.368164,12081524310659.859375,108.149857,-109.003073,227.622922
-1.220000,-1.820000,0.180158,0.040000,25092588389.399456,3385588744847.364258,-3421572933528.018555,6824084789326.694336,63.989844,-64.261029,128.569713
-1.260000,-1.820000,0.180018,0.040000,4968901146.168436,-829105993324.500366,843046902317.537842,7381075982971.401367,-15.699634,15.804696,139.063750
-1.180000,-1.860000,0.140542,0.040000,66745544940.833351,11254999351485.949219,-11455584396096.382812,7255973062378.426758,213.184454,-214.696109,136.706739
-1.140000,-1.860000,0.140018,0.040000,76013677766.445465,13422006887865.765625,-13643729447240.498047,371576689754.076904,254.131605,-255.802558,7.000720
-1.140000,-1.820000,0.180014,0.040000,44456239454.006264,7954118125876.340820,-8030986827230.609375,131340219393.340317,150.294672,-150.873972,2.474526
-1.180000,-1.820000,0.180422,0.040000,39937833186.183739,6625985191124.569336,-6694375308891.027344,4109660537389.190430,125.223955,-125.739359,77.428387
-1.100000,-1.860000,0.140216,0.040000,64141073537.200424,11825678621946.052734,-12006517102761.384766,-6503124491887.237305,223.824771,-225.187612,-122.522635
-1.060000,-1.860000,0.140522,0.040000,33622557987.060059,7134759418714.344727,-7235752612850.552734,-11540222346458.781250,134.993835,-135.754943,-217.424479
-1.060000,-1.820000,0.180406,0.040000,17660484156.502319,4286977652307.432129,-4322185436809.940430,-6984923564640.282227,80.968145,-81.233479,-131.600009
-1.100000,-1.820000,0.180168,0.040000,36570965345.397728,7065505814598.414062,-7128823738257.317383,-3932701264207.208984,133.476109,-133.953288,-74.094372
-1.020000,-1.860000,0.140015,0.040000,-8165349505.199040,744902746804.119141,-748142580704.344971,-13586896189604.644531,14.052712,-14.077128,-255.985001
-0.980000,-1.860000,0.140230,0.040000,-51143390098.457527,-5695819187841.947266,5782536982079.229492,-12344053176525.763672,-107.802679,108.456205,-232.569118
-0.980000,-1.820000,0.180179,0.040000,-34176856225.352497,-3585804377081.396484,3612920510769.122070,-7590735387558.642578,-67.711898,67.916252,-143.013855
-1.020000,-1.820000,0.180012,0.040000,-7942811576.432698,406135541094.830933,-408276548718.812927,-8285733465880.160156,7.663930,-7.680066,-156.108022
-0.940000,-1.860000,0.140501,0.040000,-85130666378.133820,-10712326875120.451172,10856252974007.398438,-8306063708287.949219,-202.639944,203.724604,-156.491055
-0.900000,-1.860000,0.140012,0.040000,-102195161950.907547,-13279050191154.253906,13445382348025.748047,-2534387130296.061035,-251.125142,252.378660,-47.749323
-0.900000,-1.820000,0.180009,0.040000,-64838296951.267258,-8431793807869.299805,8485313914232.437500,-1565188551704.563232,-159.162388,159.565728,-29.489060
-0.940000,-1.820000,0.180390,0.040000,-54797190889.040268,-6755571118361.239258,6802104273452.408203,-5144824409243.857422,-127.541890,127.892574,-96.931474
-0.860000,-1.860000,0.140244,0.040000,-98265405513.223175,-13002637248851.326172,13155782134453.527344,3648679495123.357910,-245.842825,246.996960,68.743237
-0.820000,-1.860000,0.140481,0.040000,-73763419044.035507,-10102333414327.033203,10215049157365.136719,8965551211419.962891,-190.970907,191.820359,168.916182
-0.820000,-1.820000,0.180374,0.040000,-45458564265.664825,-6510692388389.346680,6545473685527.858398,5750629433359.104492,-122.861809,123.123929,108.345192
-0.860000,-1.820000,0.180190,0.040000,-61668421498.042374,-8318228354318.410156,8366876835140.788086,2337669361117.303223,-156.995214,157.361840,44.043046
-0.780000,-1.860000,0.140009,0.040000,-33262606310.319019,-5296652129117.207031,5349349190975.682617,12427155173688.275391,-100.089850,100.486987,234.134808
-0.740000,-1.860000,0.140258,0.040000,15634908106.308315,407758328305.182617,-420843933537.597290,13482344520086.916016,7.756365,-7.854982,254.015187
-0.740000,-1.820000,0.180201,0.040000,12771876059.857370,279359499264.568970,-282920300778.643677,8757365244660.842773,5.283421,-5.310256,164.993838
-0.780000,-1.820000,0.180007,0.040000,-19037032494.342152,-3433164123444.117188,3449139209731.037109,8019722288508.127930,-64.773096,64.893488,151.096217
-0.700000,-1.860000,0.140462,0.040000,63892190280.201530,5935108593277.327148,-6001807520441.754883,12063600986264.597656,112.197880,-112.700539,227.285236
-0.660000,-1.860000,0.140006,0.040000,102757079396.353455,10308295851061.761719,-10415704157069.066406,8543079510234.443359,194.821360,-195.630814,160.956570
-0.660000,-1.820000,0.180005,0.040000,69356098087.555618,6842470819480.790039,-6874150949820.653320,5616979419477.445312,129.095178,-129.333927,105.827148
-0.700000,-1.820000,0.180359,0.040000,44142267260.228302,3919972416069.769043,-3940231714255.174805,7885295498412.982422,73.969062,-74.121741,148.563538
-0.620000,-1.860000,0.140273,0.040000,125292837862.937729,12835583542620.386719,-12963897403757.990234,3621674877970.040039,242.555087,-243.522090,68.234454
-0.580000,-1.860000,0.140442,0.040000,127482453283.752502,13180738800688.505859,-13306859261466.939453,-1820316145205.973633,249.045615,-249.996088,-34.295811
-0.580000,-1.820000,0.180344,0.040000,84818331937.212250,8840488262144.443359,-8875781260583.541016,-1214106495124.620117,166.759406,-167.025382,-22.874470
-0.620000,-1.820000,0.180212,0.040000,83819164561.619492,8566185758009.150391,-8602858514697.696289,2392755670193.911133,161.599186,-161.875561,45.080904
-0.540000,-1.860000,0.140004,0.040000,108770587502.629761,11376878936625.060547,-11480651525777.640625,-6879796478089.587891,214.933535,-215.715589,-129.619354
-0.500000,-1.860000,0.140288,0.040000,72012687295.499451,7791536051039.875000,-7858015690447.302734,-10771651614556.087891,147.172811,-147.673816,-202.944161
-0.500000,-1.820000,0.180224,0.040000,46962154481.482033,5269515248792.902344,-5287636718379.196289,-7233729589837.559570,99.383148,-99.519715,-136.287659
-0.540000,-1.820000,0.180003,0.040000,71917860610.792603,7665074908711.975586,-7693634864709.353516,-4601230760229.874023,144.575881,-144.791115,-86.689855
-0.460000,-1.860000,0.140424,0.040000,22893700465.505974,3036137446938.693359,-3061026190625.399414,-12935720574595.576172,57.343265,-57.530832,-243.716475
-0.420000,-1.860000,0.140003,0.040000,-31050876998.757534,-2120461412913.399902,2141957296053.276611,-13100836107545.757812,-40.072221,40.234219,-246.827347
-0.420000,-1.820000,0.180002,0.040000,-22771882198.966778,-1450597205029.543945,1456769988478.745117,-8862186321523.222656,-27.364982,27.411501,-166.968728
-0.460000,-1.820000,0.180330,0.040000,13716494641.042082,2060643483671.514404,-2066554600885.023682,-8720520847342.482422,38.857128,-38.901676,-164.299668
-0.380000,-1.860000,0.140303,0.040000,-81636444405.575165,-6904187203145.676758,6967688733917.720703,-11301834879374.650391,-130.437811,130.916373,-212.933121
-0.340000,-1.860000,0.140405,0.040000,-121265087451.506134,-10632630094801.837891,10723893865984.197266,-7852946128926.790039,-200.840754,201.528538,-147.954058
-0.340000,-1.820000,0.180315,0.040000,-83736826448.024399,-7298791200677.669922,7322642442725.664062,-5338473553960.628906,-137.648269,137.828017,-100.579937
-0.380000,-1.820000,0.180236,0.040000,-56977408638.622871,-4730281508713.250000,4746778464578.509766,-7667257258054.295898,-89.214489,89.338814,-144.455572
-0.300000,-1.860000,0.140001,0.040000,-144021224654.320831,-12784632044822.904297,12891932054000.125000,-3288618754904.584961,-241.476357,242.284995,-61.959484
-0.260000,-1.860000,0.140319,0.040000,-146485438681.369110,-13088525124852.802734,13196889972362.414062,1720471593689.589600,-247.207898,248.024560,32.414682
-0.260000,-1.820000,0.180248,0.040000,-100424343669.331116,-9019606759797.888672,9046944365215.882812,1189427902891.156494,-170.089137,170.295160,22.409511
-0.300000,-1.820000,0.180001,0.040000,-99004938750.423279,-8794864437859.168945,8822393272781.070312,-2233978683160.550293,-165.855942,166.063406,-42.089453
-0.220000,-1.860000,0.140387,0.040000,-128171479483.434906,-11531928206520.388672,11627157804393.765625,6463710059787.642578,-217.806467,218.524139,121.780045
-0.180000,-1.860000,0.140000,0.040000,-91546368848.852646,-8359666954505.452148,8427353092633.979492,10285311822480.664062,-157.883545,158.393644,193.781237
-0.180000,-1.820000,0.180000,0.040000,-62323886379.855759,-5767099965351.099609,5783959643315.289062,7069921156151.159180,-108.750800,108.877859,133.201413
-0.220000,-1.820000,0.180301,0.040000,-87639586415.219482,-7956540509330.050781,7980099291187.468750,4442440074165.664062,-150.038994,150.216538,83.698146
-0.140000,-1.860000,0.140336,0.040000,-41648479058.475716,-4022764516657.554688,4054100245510.700195,12667470718704.048828,-75.968331,76.204484,238.662492
-0.100000,-1.860000,0.140370,0.040000,14633007290.618624,882764145615.054077,-887689302231.910400,13292718465586.693359,16.659626,-16.696743,250.442522
-0.100000,-1.820000,0.180288,0.040000,10825285350.586054,634261852782.448364,-635608377331.180298,9139944864335.703125,11.957472,-11.967620,172.201860
-0.140000,-1.820000,0.180261,0.040000,-27925338704.080662,-2763840196880.714844,2772027386587.005859,8710120685819.885742,-52.118627,52.180328,164.103723
-0.060000,-1.860000,0.140000,0.040000,69515164752.042755,5673355758406.622070,-5717521268593.744141,12081100114096.781250,107.138943,-107.471784,227.614930
-0.020000,-1.860000,0.140352,0.040000,115387383551.597809,9702017744855.605469,-9779715467273.792969,9197282051419.740234,183.230800,-183.816348,173.282126
-0.020000,-1.820000,0.180274,0.040000,80085967624.062271,6751660255463.823242,-6770082445129.927734,6308397832591.441406,127.309319,-127.448153,118.853872
-0.060000,-1.820000,0.180000,0.040000,48574704923.026161,3958426810534.064941,-3969008848490.168457,8301634481005.158203,74.638867,-74.718616,156.407606
0.020000,-1.860000,0.140352,0.040000,145848791233.191376,12421943540362.902344,-12520229996479.791016,5027210974532.899414,234.592150,-235.332859,94.715569
0.060000,-1.860000,0.140000,0.040000,156584720766.285675,13446248415020.312500,-13553723809429.082031,129621435064.481491,253.942585,-254.752544,2.442143
0.060000,-1.820000,0.180000,0.040000,108237806705.589996,9323208572525.107422,-9349638276751.437500,52223300619.386536,175.804040,-176.003220,0.983917
0.020000,-1.820000,0.180274,0.040000,100958795197.196014,8628089538320.755859,-8652022499311.500000,3428832079104.151855,162.693482,-162.873846,64.601184
0.100000,-1.860000,0.140370,0.040000,145970342935.029266,12618520596899.503906,-12721092249962.968750,-4833871378645.265625,238.319996,-239.093000,-91.072939
0.140000,-1.860000,0.140336,0.040000,115322067236.582565,10024090042064.978516,-10109133371413.888672,-9182342386385.007812,189.340347,-189.981253,-173.000654
0.140000,-1.820000,0.180261,0.040000,79670804853.440643,6911993951603.561523,-6933258804991.798828,-6339502575730.222656,130.346166,-130.506423,-119.439904
0.100000,-1.820000,0.180288,0.040000,100829318501.424973,8729321978749.820312,-8754865296363.820312,-3361198940263.130859,164.609862,-164.802362,-63.326937
0.180000,-1.860000,0.140000,0.040000,68758619366.020523,5996712038962.809570,-6049320188916.494141,-12303587670638.121094,113.278882,-113.675349,-231.806724
0.220000,-1.860000,0.140387,0.040000,12680894543.699751,1062529090126.036987,-1074835991853.973389,-13736323504224.925781,20.088225,-20.180972,-258.800298
0.220000,-1.820000,0.180301,0.040000,9121486865.005150,684326794373.145264,-688750577519.502319,-9412308975310.296875,12.918118,-12.951456,-177.333358
0.180000,-1.820000,0.180000,0.040000,47627135918.218803,4105089825561.555664,-4119062567714.568848,-8461097162328.216797,77.421248,-77.526550,-159.411976
0.260000,-1.860000,0.140319,0.040000,-45072777754.566635,-4110993452272.035645,4138313442032.096191,-13236428356492.554688,-77.607917,77.813807,-249.381984
0.300000,-1.860000,0.140001,0.040000,-96296236977.652496,-8780121345128.570312,8849178545138.988281,-10820663052812.562500,-165.812899,166.333330,-203.867565
0.300000,-1.820000,0.180001,0.040000,-65498286532.465958,-6075778927152.023438,6092595390848.928711,-7346811831880.619141,-114.566247,114.692980,-138.418194
0.260000,-1.820000,0.180248,0.040000,-30457246708.114788,-2878447740083.860840,2884733849758.127441,-9033408136468.226562,-54.267154,54.314528,-170.194646
0.340000,-1.860000,0.140405,0.040000,-133576055173.458755,-12261169892133.310547,12363618642119.357422,-6777888331827.021484,-231.586607,232.358684,-127.699345
0.380000,-1.860000,0.140303,0.040000,-151388525028.414612,-14003864442382.917969,14124460046587.484375,-1644187795557.098633,-264.522552,265.431388,-30.977451
0.380000,-1.820000,0.180236,0.040000,-103159076486.625732,-9578987418384.384766,9610499980020.705078,-1059261093799.276367,-180.651790,180.889276,-19.957093
0.340000,-1.820000,0.180315,0.040000,-90968491983.272156,-8433403140613.640625,8459105168621.648438,-4562648892750.679688,-159.035476,159.229173,-85.962950
0.420000,-1.860000,0.140003,0.040000,-146976774757.769562,-13676627575462.498047,13799020781499.744141,3855483832465.137207,-258.367380,259.289763,72.639550
0.460000,-1.860000,0.140424,0.040000,-120868844427.286362,-11243185287491.208984,11349113474570.978516,8898339999014.615234,-212.426853,213.225153,167.649884
0.460000,-1.820000,0.180330,0.040000,-82746012442.276779,-7595566432643.806641,7625132351277.492188,6036928631370.692383,-143.271987,143.494802,113.739235
0.420000,-1.820000,0.180002,0.040000,-100271165314.521927,-9301946677699.656250,9334999114593.394531,2660925974243.920898,-175.440886,175.689977,50.133388
0.500000,-1.860000,0.140288,0.040000,-76933524498.902634,-6984611418074.625977,7058502249339.673828,12678768184226.699219,-132.011772,132.568630,238.875343
0.540000,-1.860000,0.140004,0.040000,-21927266213.774654,-1500906655983.109131,1524126232621.184814,14533837817572.572266,-28.409193,28.584181,273.825930
0.540000,-1.820000,0.180003,0.040000,-16456082008.559633,-953160485763.686401,961045545383.702393,9706694120904.718750,-18.002664,18.062087,182.879744
0.500000,-1.820000,0.180224,0.040000,-53273834773.020416,-4673231186345.389648,4694178888664.305664,8529556327228.263672,-88.164785,88.322651,160.701786
0.580000,-1.860000,0.140442,0.040000,35443712353.896614,4384481330570.170898,-4418567762991.750000,14061498341210.076172,82.798832,-83.055716,264.926780
0.620000,-1.860000,0.140273,0.040000,85845269287.509399,9710545267653.806641,-9797378682932.833984,11212967032804.498047,183.443100,-184.097496,211.258799
0.620000,-1.820000,0.180212,0.040000,55457746849.289009,6506074066579.111328,-6530631594846.149414,7369995336249.613281,122.717010,-122.902082,138.854985
0.580000,-1.820000,0.180344,0.040000,21854340339.752392,2990279741576.118652,-2998347752572.791504,9321434586583.029297,56.384206,-56.445008,175.621231
0.660000,-1.860000,0.140006,0.040000,120846445313.405472,13514676528903.908203,-13647817308572.707031,6342144127725.383789,255.376875,-256.380255,119.489672
0.700000,-1.860000,0.140462,0.040000,134425390003.164749,15035636348555.898438,-15194606893017.705078,192141013094.583344,284.178634,-285.376673,3.620048
0.700000,-1.820000,0.180359,0.040000,88112393801.648193,9892520346832.623047,-9939785695910.966797,76786015970.752716,186.647970,-187.004173,1.446693
0.660000,-1.820000,0.180005,0.040000,78831647240.566467,8969126052770.761719,-9007782043632.449219,4116801338045.948242,169.202025,-169.493345,77.562924
0.740000,-1.860000,0.140258,0.040000,124184349897.216034,13849074935036.921875,-14006050319702.050781,-6189539836854.053711,261.811852,-262.994855,-116.614519
0.780000,-1.860000,0.140009,0.040000,92017100916.958740,10004287194518.269531,-10126139752159.753906,-11606238622951.636719,189.175302,-190.093611,-218.668264
0.780000,-1.820000,0.180007,0.040000,61429205423.379539,6457992458476.496094,-6496347420559.541992,-7487001173611.155273,121.889111,-122.178162,-141.059442
0.740000,-1.820000,0.180201,0.040000,81858001669.910919,9031427724424.580078,-9079124652760.738281,-4049754920152.061035,170.426925,-170.786380,-76.299730
0.820000,-1.860000,0.140481,0.040000,44029412419.580177,4070619379011.852051,-4130071738072.771484,-14925398648455.808594,77.028864,-77.476911,-281.203163
0.860000,-1.860000,0.140244,0.040000,-10377648544.212486,-2890628015335.851074,2910062472553.536133,-15318924868830.900391,-54.570954,54.717417,-288.617425
0.860000,-1.820000,0.180190,0.040000,-3737095794.113074,-1865786249041.240479,1872545383273.703857,-9678556399200.216797,-35.190698,35.241637,-182.349613
0.820000,-1.820000,0.180374,0.040000,30871966217.445549,2586676448245.978516,-2606079818911.490723,-9526134613769.755859,48.844155,-48.990383,-179.477899
0.900000,-1.860000,0.140012,0.040000,-60197888317.331024,-9461197873246.236328,9570475797232.416016,-12487826428028.880859,-178.872111,179.695654,-235.277889
0.940000,-1.860000,0.140501,0.040000,-95043195747.812744,-14167440121084.876953,14350449483174.742188,-6815181841287.877930,-267.957186,269.336387,-128.401977
0.940000,-1.820000,0.180390,0.040000,-57711238377.009033,-8867665705189.826172,8927599463420.201172,-4218325930653.524902,-167.410719,167.862393,-79.475706
0.900000,-1.820000,0.180009,0.040000,-35418007823.316544,-5991814419561.106445,6027215358652.204102,-7809585717181.850586,-113.089349,113.356139,-147.137122
0.980000,-1.860000,0.140230,0.040000,-107490570211.437119,-15776820287436.521484,15996575520796.056641,607469160302.329102,-298.486535,300.142661,11.445071
1.020000,-1.860000,0.140015,0.040000,-95024293473.931015,-13653208540264.628906,13858433175979.865234,8122524151496.922852,-258.394329,259.940950,153.033064
1.020000,-1.820000,0.180012,0.040000,-59259510522.546288,-8362591741241.903320,8431473752196.307617,4908850587192.271484,-157.945409,158.464520,92.485591
0.980000,-1.820000,0.180179,0.040000,-66123072384.985123,-9765942198294.935547,9839050620743.755859,368425248265.197327,-184.409234,184.960196,6.941345
1.060000,-1.860000,0.140522,0.040000,-61024678944.256966,-8033978311729.972656,8168767188263.946289,13831372813596.091797,-152.126659,153.142459,260.591082
1.100000,-1.860000,0.140216,0.040000,-14375484992.414391,-128591484207.967300,147561236134.886322,16065298818405.306641,-2.529958,2.672919,302.679543
1.100000,-1.820000,0.180168,0.040000,-11766234364.886200,-125971247366.683670,129235716045.559891,9488435522920.865234,-2.391823,2.416424,178.767626
1.060000,-1.820000,0.180406,0.040000,-39325761262.064316,-4882416094654.670898,4927065759359.095703,8263902672265.776367,-92.239917,92.576408,155.696717
1.140000,-1.860000,0.140018,0.040000,32461483957.355522,8022492075158.443359,-8148082302929.477539,13910586356416.156250,151.858259,-152.804736,262.083511
1.180000,-1.860000,0.140542,0.040000,66647506403.285751,14046465520264.810547,-14295227168339.478516,7637844480800.052734,266.049597,-267.924323,143.901418
1.180000,-1.820000,0.180422,0.040000,36489331868.642166,8098308985775.702148,-8186656124347.112305,4451376198694.872070,153.076189,-153.741994,83.866508
1.140000,-1.820000,0.180014,0.040000,15993286333.244064,4663493820240.600586,-4709478664987.448242,8130976531522.977539,88.122841,-88.469394,153.192311
1.220000,-1.860000,0.140203,0.040000,78725220998.932678,15887271955476.679688,-16192233014809.742188,-1140130724838.829834,301.049107,-303.347364,-21.480724
1.260000,-1.860000,0.140023,0.040000,65838931368.316437,12589983910212.722656,-12850867243448.111328,-9733079211745.175781,238.677153,-240.643231,-183.376855
1.260000,-1.820000,0.180018,0.040000,38184594200.738678,7124593832776.770508,-7214539734577.992188,-5292503940595.399414,134.739868,-135.417721,-99.713842
1.220000,-1.820000,0.180158,0.040000,44381667043.955978,9060868328296.332031,-9168050123316.000000,-540293964617.866882,171.317822,-172.125569,-10.179452
1.300000,-1.860000,0.140564,0.040000,33205306151.224247,4886463519076.147461,-4999525878858.980469,-15116051340672.037109,92.702854,-93.554918,-284.795170
1.340000,-1.860000,0.140190,0.040000,-7073042784.040971,-4712833716391.659180,4813368300214.544922,-15024873494325.554688,-89.360758,90.118410,-283.077327
1.340000,-1.820000,0.180148,0.040000,-749584068.720250,-2368751472432.386719,2411503473248.225586,-8052105641382.625000,-44.870293,45.192482,-151.706338
1.300000,-1.820000,0.180439,0.040000,20916290701.204052,2825992896083.980957,-2861125995238.885254,-8169058577322.945312,53.441923,-53.706694,-153.909799
1.380000,-1.860000,0.140027,0.040000,-39971451400.199677,-12540312016277.048828,12850767412339.519531,-9062875196706.500000,-238.021496,240.361160,-170.749823
1.420000,-1.860000,0.140585,0.040000,-53266108033.308723,-15169118978987.367188,15575743814759.056641,696670236038.806763,-288.093310,291.157729,13.125671
1.420000,-1.820000,0.180456,0.040000,-26773676016.380089,-7815157533623.566406,7957773059561.049805,125368657857.814835,-148.048186,149.122970,2.362018
1.380000,-1.820000,0.180021,0.040000,-18768017455.674076,-6489065878701.713867,6602983431156.112305,-4883048301269.110352,-122.901645,123.760154,-91.999461
1.460000,-1.860000,0.140178,0.040000,-42891678476.400337,-11035695776141.521484,11351569361818.273438,10116402350501.515625,-209.704278,212.084775,190.598885
1.500000,-1.860000,0.140032,0.040000,-15326562577.419170,-1695538042633.741699,1734093841783.605713,14607819330134.300781,-32.162844,32.453409,275.219784
1.500000,-1.820000,0.180025,0.040000,-9872694001.538748,-1109248343920.002930,1115135859032.041504,7004189919937.883789,-20.932159,20.976529,131.962998
1.460000,-1.820000,0.180139,0.040000,-22726101283.660496,-5708243099126.471680,5812786899700.167969,4821134626051.251953,-108.137509,108.925375,90.832971
1.540000,-1.860000,0.140607,0.040000,14877546926.093124,8326457560500.522461,-8624265730946.622070,11525586492955.833984,158.558551,-160.802902,217.148731
1.580000,-1.860000,0.140166,0.040000,32189075578.219658,13456964665823.625000,-13952388430522.093750,2178633176272.723389,256.337237,-260.070865,41.046712
1.580000,-1.820000,0.180129,0.040000,13707028922.958281,6108253295379.969727,-6277119449377.647461,1325855907320.810791,116.037494,-117.310108,24.979894
1.540000,-1.820000,0.180473,0.040000,4721841943.461552,3688261476013.609375,-3796496795333.028809,5573014668293.666016,70.100749,-70.916436,104.998827
1.620000,-1.860000,0.140037,0.040000,28715336339.692081,10374883840624.240234,-10762909357068.833984,-8073188468170.544922,197.662014,-200.586264,-152.103551
1.660000,-1.860000,0.140630,0.040000,9247258918.026663,806885555626.222656,-793084772437.935425,-12562884631499.964844,15.124187,-15.020181,-236.692029
1.660000,-1.820000,0.180490,0.040000,5710459246.906091,734926897308.266357,-723530031421.826904,-5240247099142.404297,13.782032,-13.696142,-98.729293
1.620000,-1.820000,0.180029,0.040000,13380543207.585716,4807866312718.272461,-4932289858045.048828,-3224756909852.782715,91.286252,-92.223937,-60.756290
1.700000,-1.860000,0.140155,0.040000,-11508116988.993044,-8627105567003.606445,9074628321170.714844,-7984630695682.779297,-165.069147,168.441782,-150.435071
1.740000,-1.860000,0.140043,0.040000,-19141446875.184078,-10684475668510.531250,11224511930096.318359,2199299967321.846680,-204.354094,208.423933,41.436086
1.740000,-1.820000,0.180034,0.040000,-7160718071.761473,-4228944343352.833496,4393448098859.150879,414893561443.808472,-80.605567,81.845305,7.816835
1.700000,-1.820000,0.180120,0.040000,-3134827852.612172,-3229276936538.614746,3375318450241.176270,-3513376423894.966309,-61.666902,62.767504,-66.194049
1.780000,-1.860000,0.140653,0.040000,-10531726875.094217,-3753136354220.858887,3884598827996.639160,9408036395010.312500,-71.454313,72.445045,177.252860
1.820000,-1.860000,0.140144,0.040000,3838006697.136582,5557216572488.243164,-5983665500544.431641,7199413665430.426758,107.111545,-110.325363,135.641127
1.820000,-1.820000,0.180112,0.040000,225465132.429969,1580035147797.937988,-1700524629370.917725,2736019953326.229980,30.449806,-31.357842,51.548202
1.780000,-1.820000,0.180508,0.040000,-4835122777.620720,-1787127384771.789062,1824116026645.161621,3246841289120.715332,-33.879582,34.158337,61.172372
1.860000,-1.860000,0.140049,0.040000,9986621305.085178,7876059785023.008789,-8388724920816.611328,-1613740120257.934326,151.287205,-155.150768,-30.403799
1.900000,-1.860000,0.140676,0.040000,4422467228.149267,1375503144823.720703,-1347239523014.720459,-6849753466294.330078,25.755526,-25.542525,-129.053326
1.900000,-1.820000,0.180526,0.040000,1938022582.640866,813600940553.938721,-815952299138.106567,-1952664008170.001465,15.342004,-15.359724,-36.789322
1.860000,-1.820000,0.180038,0.040000,3020437223.100183,2639449607765.624023,-2779333287174.306152,-87601303613.974136,50.519408,-51.573603,-1.650459
1.940000,-1.860000,0.140133,0.040000,-3317261055.705711,-5105046226902.508789,5575146135238.631836,-2876062557240.114746,-98.839117,102.381899,-54.186686
1.980000,-1.860000,0.140056,0.040000,-3779990779.334148,-3252983306027.984375,3416729851714.568359,3436180355374.110352,-62.213615,63.447647,64.739630
1.980000,-1.820000,0.180043,0.040000,-1068902251.363144,-1053359036526.870483,1106570883234.177002,618044073227.651733,-20.146658,20.547674,11.644309
1.940000,-1.820000,0.180104,0.040000,-411144296.285958,-1223199913894.323242,1331329387219.511475,-1120027589935.911621,-23.656962,24.471851,-21.101969
2.020000,-1.860000,0.140699,0.040000,499740246.959753,2383481007375.877930,-2676367976968.240234,2795836230115.740723,46.561612,-48.768876,52.675175
2.060000,-1.860000,0.140123,0.040000,1666000716.863358,2121659356755.383301,-2254823188057.594238,-1549156830292.012207,40.725957,-41.729511,-29.187013
2.060000,-1.820000,0.180096,0.040000,334808331.953763,547481423988.801941,-587925939284.603149,-120839165408.776123,10.543467,-10.848266,-2.276680
2.020000,-1.820000,0.180545,0.040000,-190377678.830578,317100245073.007263,-363555862189.362122,799098375791.958618,6.236928,-6.587028,15.055477
2.100000,-1.860000,0.140063,0.040000,-161513631.052667,-1437638572062.639404,1511374956624.266846,-1284650766805.393311,-27.502715,28.058409,-24.203565
2.140000,-1.860000,0.140724,0.040000,-444922257.569661,-478562972434.535645,581829510239.881714,810913145454.548950,-9.600084,10.378325,15.278074
2.140000,-1.820000,0.180563,0.040000,-70467746.302103,-150021334946.998932,176707147920.183990,48609594836.477684,-2.977322,3.178432,0.915833
2.100000,-1.820000,0.180049,0.040000,94534199.019005,-115831342354.352890,123837722691.629745,-320202413784.674805,-2.227583,2.287921,-6.032799
2.180000,-1.860000,0.140113,0.040000,137614097.878864,680248376699.308716,-700356374523.157471,170420602152.746429,12.929928,-13.081466,3.210823
2.220000,-1.860000,0.140070,0.040000,32669360.409998,-472030025490.987000,250319504011.358246,-252534763913.482605,-7.640173,5.969311,-4.757901
2.220000,-1.820000,0.180055,0.040000,14634101.868713,-2415053894.606838,-13071121812.872402,-22565792555.578949,0.042030,-0.158737,-0.425153
2.180000,-1.820000,0.180088,0.040000,-4948061.404662,57377545741.440804,-62004578833.509163,73513542024.816956,1.107179,-1.142049,1.385038
2.260000,-1.860000,0.140748,0.040000,-14057510.918904,117372040797.850800,-2209019956.459701,87043143173.178345,1.560436,-0.692541,1.639943
2.300000,-1.860000,0.140104,0.040000,7839471.425749,34290257078.616875,-39562159083.758987,-8710600713.143703,0.675846,-0.715576,-0.164113
2.300000,-1.820000,0.180081,0.040000,4649630.532528,-2515209028.439856,208370016.843097,1792743726.200427,-0.034349,0.016964,0.033776
2.260000,-1.820000,0.180582,0.040000,4189076.354327,2949122692.149344,8082173594.834127,-4301464557.705808,-0.006788,0.089922,-0.081042
2.340000,-1.860000,0.140078,0.040000,4992558.907697,-18161611240.634106,17061854086.822620,-3903457895.531261,-0.335959,0.327671,-0.073543
2.380000,-1.860000,0.120134,0.040000,5565789.287177,21036965788.215725,-70074382922.014145,22827990618.138317,0.673517,-1.043074,0.430093
2.380000,-1.820000,0.120817,0.040000,5134955.590146,204466232105.964111,-477379002033.533203,-93953479604.100815,5.394813,-7.451547,-1.770138
2.340000,-1.820000,0.160614,0.040000,4422458.126596,12692099757.423777,-14770232232.329992,-529201151.206272,0.250872,-0.266534,-0.009970
2.420000,-1.860000,0.080201,0.040000,-7037806.620506,2659003604419.350098,-4288715903281.209961,373396385802.157532,59.308587,-71.590476,7.035004
2.460000,-1.860000,0.040400,0.040000,306104721.178430,14582322381274.556641,-11376091503388.939453,-7061587766607.500000,256.617233,-232.454333,-133.044407
2.460000,-1.820000,0.042389,0.040000,-1984506051.755020,-20193395252504.117188,7086103854713.042969,4161984559536.207520,-306.370582,207.590995,78.414202
2.420000,-1.820000,0.081221,0.040000,110399309.285475,-2187847677540.486084,3616791460190.481934,-4800224914794.038086,-49.296957,60.065809,-90.439020
2.500000,-1.860000,0.005672,0.040000,-6546278640.483178,26938273651183.242188,12885093314646.128906,-10403191183012.113281,282.444096,17.674032,-196.002153
2.500000,-1.820000,0.014030,0.040000,-168328900732.381531,3412688162287.471191,-98019525399866.796875,8946473011512.132812,599.031321,-1312.010384,168.556738
-2.500000,-1.780000,0.003881,0.040000,-328209458134.703003,66211888030086.257812,-152823751428276.281250,-71642916506724.343750,1737.015669,-2389.742756,-1349.794079
-2.500000,-1.740000,0.006269,0.040000,-587910333440.415405,211641508324990.312500,-217210693391274.937500,50064287550807.656250,4018.926710,-4060.897380,943.240200
-2.460000,-1.780000,0.040188,0.040000,-5066926340.888453,8312720547921.817383,-105702430894650.531250,-42268033520848.406250,707.080054,-1441.031495,-796.354255
-2.420000,-1.780000,0.080094,0.040000,326702704.104884,7488703076450.518555,-35196456977448.734375,-16606801096748.232422,297.700551,-506.512609,-312.881760
-2.420000,-1.740000,0.080245,0.040000,-538093396.099454,17058698919029.376953,-45260568679964.179688,8982220814021.564453,480.797649,-693.333479,169.230247
-2.460000,-1.740000,0.040488,0.040000,10947515303.633183,38589256985668.929688,-144350507688584.812500,28806281907081.812500,1324.824954,-2121.866264,542.727050
-2.380000,-1.780000,0.120063,0.040000,36129039.132363,321140883085.266418,-1171826819711.535156,-48309234145.855263,10.858705,-17.269672,-0.910174
-2.340000,-1.780000,0.160047,0.040000,8874878.939121,5319457995.427748,-24346551381.403625,-17364934307.058071,0.207766,-0.351159,-0.327165
-2.340000,-1.740000,0.160123,0.040000,5281444.298889,42175080955.571747,2744457446.157683,26945962757.932995,0.540710,-0.202186,0.507678
-2.380000,-1.740000,0.120164,0.040000,-115772606.787032,1072500556673.994751,-2385115790333.443359,-68542341600.062523,27.625662,-37.517835,-1.291377
-2.300000,-1.780000,0.200038,0.040000,10737888.730322,1703210917.293006,-1092461995.761880,-970719106.938289,0.028637,-0.024035,-0.018289
-2.260000,-1.780000,0.220477,0.040000,11623854.819640,315788328.809465,843769656.853395,2104692021.666946,-0.000604,0.009343,0.039654
-2.260000,-1.740000,0.240082,0.040000,11585669.163768,-833871643.995405,684922767.878716,885162119.436367,-0.014869,0.013746,0.016677
-2.300000,-1.740000,0.200098,0.040000,13112384.193908,2039193686.620250,32959251.760152,8192274933.924598,0.026707,-0.011091,0.154347
-2.220000,-1.780000,0.220045,0.040000,12483774.836870,3241227852.589533,-5127438488.986839,1385935651.582124,0.071728,-0.085943,0.026112
-2.180000,-1.780000,0.220072,0.040000,6103866.865862,3965325788.660517,-5117212435.018060,-15308382361.852644,0.081220,-0.089901,-0.288419
-2.180000,-1.740000,0.260061,0.040000,9715234.168973,-2048164318.785704,1754532136.597342,-1966297180.146069,-0.036929,0.034716,-0.037046
-2.220000,-1.740000,0.260038,0.040000,10839650.287394,287885327.025819,-780457709.439915,-1071837931.309652,0.008208,-0.011920,-0.020194
-2.140000,-1.780000,0.220461,0.040000,-1365306.940819,-26637712482.803474,34828281497.551109,-6834006040.087086,-0.548164,0.609890,-0.128757
-2.100000,-1.780000,0.220040,0.040000,37951569.356048,-20515027277.076500,23981541703.515514,69945944026.199265,-0.406108,0.432233,1.317822
-2.100000,-1.740000,0.260034,0.040000,22304576.994954,6159206810.984923,-4417606588.394891,12884113994.826334,0.106199,-0.093074,0.242744
-2.140000,-1.740000,0.260390,0.040000,12029112.665434,-5801495611.929158,7568205982.631871,4128975786.639927,-0.119289,0.132604,0.077792
-2.060000,-1.780000,0.220078,0.040000,90647571.590052,101280546941.879684,-119549911625.580582,51640373025.791702,2.011446,-2.149128,0.972935
-2.020000,-1.780000,0.220446,0.040000,-21958539.687986,106678005609.148438,-132085454128.142975,-182078836498.177490,2.153483,-2.344959,-3.430471
-2.020000,-1.740000,0.260377,0.040000,-25347333.703419,9434699744.154108,-17340192143.887306,-52702070998.163345,0.222438,-0.282016,-0.992938
-2.060000,-1.740000,0.260066,0.040000,20411303.995254,33595584333.141125,-37583600302.343353,-3308415323.638761,0.655501,-0.685556,-0.062332
-1.980000,-1.780000,0.220035,0.040000,-279034810.759814,-187076847854.960144,202891586735.872589,-256036310926.922424,-3.614024,3.733207,-4.823873
-1.940000,-1.780000,0.220085,0.040000,-240779753.790259,-366283396952.268982,436484514843.410767,162971564578.791656,-7.297780,7.826832,3.070479
-1.940000,-1.740000,0.260072,0.040000,-245916.444471,-120224929227.946732,136036144604.741714,95106323450.221619,-2.354475,2.473632,1.791858
-1.980000,-1.740000,0.260030,0.040000,-73626426.846170,-88209195284.679733,95806991614.669037,-42610719556.327843,-1.704856,1.762115,-0.802811
-1.900000,-1.780000,0.220431,0.040000,390153999.889498,-12644998174.665888,56669554548.666367,609268201782.022583,-0.487074,0.818853,11.478966
-1.860000,-1.780000,0.220031,0.040000,1084551627.496359,540521976203.996399,-628712191177.371826,432565301349.083557,10.682214,-11.346836,8.149781
-1.860000,-1.740000,0.260027,0.040000,375652140.145862,277723705657.818604,-281499077042.282349,52711315649.430489,5.253815,-5.282267,0.993112
-1.900000,-1.740000,0.260365,0.040000,223940593.575664,46490095656.167770,-51300909467.671120,179239018439.663422,0.903092,-0.939347,3.376967
-1.820000,-1.780000,0.220092,0.040000,815938193.166420,762432862137.398926,-903729088098.734619,-370975307979.769714,15.163308,-16.228149,-6.989390
-1.780000,-1.780000,0.220416,0.040000,-757064995.272393,227630142332.248749,-262350250758.337738,-1238719859936.808838,4.484928,-4.746587,-23.338200
-1.780000,-1.740000,0.260352,0.040000,-521555572.080772,-3955440139.365224,-31676297015.826218,-437912921571.972961,0.126874,-0.395403,-8.250533
-1.820000,-1.740000,0.260077,0.040000,135618313.742794,305594052979.849365,-319536544683.647888,-183356337004.643982,5.836375,-5.941448,-3.454540
-1.740000,-1.780000,0.220027,0.040000,-2593741202.264741,-950716780522.581909,1031074655292.533203,-1122427218265.906006,-18.366252,18.971848,-21.147179
-1.700000,-1.780000,0.220099,0.040000,-2928926977.567101,-1483236829196.454346,1687717219007.517578,186925813343.576935,-29.100800,30.641812,3.521791
-1.700000,-1.740000,0.260083,0.040000,-1016107379.463514,-742795653695.742798,774193919910.698486,225373569023.694702,-14.172169,14.408794,4.246169
-1.740000,-1.740000,0.260023,0.040000,-1130662362.527790,-513708259739.009338,545507442271.994080,-347958676236.014343,-9.858296,10.097942,-6.555743
-1.660000,-1.780000,0.220401,0.040000,-757145977.732161,-949637187105.188232,1136947409207.945557,1517222017193.911621,-18.950425,20.362038,28.585342
-1.620000,-1.780000,0.220024,0.040000,3145194542.110520,217521403287.063385,-260694058269.958862,2210562829444.798828,4.342249,-4.667608,41.648285
-1.620000,-1.740000,0.260020,0.040000,1887626215.231509,269413379568.189789,-221307395124.577820,871314580300.177246,4.804001,-4.441463,16.416072
-1.660000,-1.740000,0.260340,0.040000,135525379.381136,-424065503818.098511,420963944250.056458,653861312769.101318,-7.972109,7.948735,12.319126
-1.580000,-1.780000,0.220106,0.040000,6494072231.555924,1847240299569.908447,-2009073646074.149902,1569149129658.169678,35.717788,-36.937402,29.563679
-1.540000,-1.780000,0.220387,0.040000,6858984950.639868,2394913107405.123535,-2670786736269.097168,-390967671530.549438,46.680837,-48.759885,-7.366058
-1.540000,-1.740000,0.260327,0.040000,2971683189.931450,1347870681040.796143,-1385047058245.158691,-368129849965.046265,25.604792,-25.884962,-6.935780
-1.580000,-1.740000,0.260090,0.040000,3189057875.110165,1063908698998.700073,-1112888296101.262939,591942553197.109375,20.321498,-20.690619,11.152541
-1.500000,-1.780000,0.220020,0.040000,3176831242.795839,1672185011772.230957,-1925575593518.315186,-2112893769900.292725,32.937143,-34.846753,-39.808143
-1.460000,-1.780000,0.220113,0.040000,-3504830470.567294,277959628884.684204,-274008647884.544037,-3247277392560.185059,5.214589,-5.184813,-61.180589
-1.460000,-1.740000,0.260096,0.040000,-2639835941.440787,-4761946598.779112,-67738971294.083443,-1520524583267.220215,0.320070,-0.866454,-28.647565
-1.500000,-1.740000,0.260017,0.040000,828819608.811011,910183168748.835571,-899048234182.531372,-1016651660923.053345,17.085442,-17.001527,-19.154307
-1.420000,-1.780000,0.220373,0.040000,-10420408190.740774,-1917853098359.932373,2027866004394.500488,-2911374337401.941895,-36.755276,37.584359,-54.851980
-1.380000,-1.780000,0.220017,0.040000,-14331508664.074627,-3061415372586.432617,3381940068395.223633,-1035292247422.838623,-59.490502,61.906050,-19.505506
-1.380000,-1.740000,0.260015,0.040000,-7641591675.994249,-1948688035612.114014,1949999253638.885498,-303345590642.784546,-36.721823,36.731705,-5.715207
-1.420000,-1.740000,0.260316,0.040000,-6010518272.150748,-1211644150984.056396,1276834596010.550049,-1345812769972.873291,-23.196546,23.687836,-25.355893
-1.340000,-1.780000,0.220121,0.040000,-12966711559.481003,-3265330804140.835938,3605639775804.279297,1035899769406.239380,-63.444211,66.008858,19.516952
-1.300000,-1.780000,0.220359,0.040000,-6007530468.702725,-2363194466681.789551,2546420942195.970215,3323533732899.350098,-45.559582,46.940419,62.617302
-1.300000,-1.740000,0.260304,0.040000,-2186133000.994933,-1377550792840.270752,1457726536536.408691,1832488489513.556885,-26.407023,27.011246,34.525145
-1.340000,-1.740000,0.260103,0.040000,-6400802520.139324,-2026030269026.807861,2036594219548.055420,583576706733.298096,-38.231294,38.310906,10.994923
-1.260000,-1.780000,0.220014,0.040000,4738708931.558968,-94185987177.606110,207740363389.134155,4258421088490.077637,-2.416348,3.272120,80.231122
-1.220000,-1.780000,0.220129,0.040000,15964453082.831400,1743559591996.161133,-1947615591170.213867,3883524547014.618164,34.003033,-35.540847,73.167854
-1.220000,-1.740000,0.260109,0.040000,10189098665.696976,1290509918722.999023,-1222764686736.932861,1966997500413.057861,23.931047,-23.420503,37.059373
-1.260000,-1.740000,0.260012,0.040000,3963950199.444898,-19107576969.018803,-50563999542.327675,2226461256569.002441,0.033798,-0.558859,41.947821
-1.180000,-1.780000,0.220346,0.040000,23981324852.673241,3717989563964.285156,-3978190567830.944824,2470718398316.216309,71.519780,-73.480715,46.549767
-1.140000,-1.780000,0.220012,0.040000,25907087955.972767,4315267947191.630371,-4677001017006.956055,-185566546896.019592,83.346728,-86.072832,-3.496181
-1.140000,-1.740000,0.260010,0.040000,15004071066.311615,2903562786011.973145,-2920726797958.941406,-305311128085.730530,54.801820,-54.931172,-5.752239
-1.180000,-1.740000,0.260292,0.040000,14411855873.667616,2478223082060.265137,-2539599367430.849609,1302976758134.898926,47.038069,-47.500615,24.548837
-1.100000,-1.780000,0.220138,0.040000,20539144010.413151,3748558653322.300781,-4102004538243.230957,-2356902315415.681152,72.622756,-75.286406,-44.405406
-1.060000,-1.780000,0.220332,0.040000,8688489812.008841,2468656973613.638672,-2608690573615.161621,-4457856439002.435547,47.302423,-48.357748,-83.988600
-1.060000,-1.740000,0.260281,0.040000,3802779075.007174,1567899633181.195312,-1654950565695.329346,-2622632364530.180176,30.032165,-30.688201,-49.411914
-1.100000,-1.740000,0.260117,0.040000,11298332748.675131,2534109321182.682617,-2510316155102.138672,-1334028842961.573975,47.609606,-47.430295,-25.133877
-1.020000,-1.780000,0.220009,0.040000,-7061996823.874356,-67811426862.185265,-30155250802.079960,-5178713434863.364258,-0.723882,-0.014418,-97.569963
-0.980000,-1.780000,0.220146,0.040000,-23049223524.881142,-1957812742943.294922,2169912509911.151855,-4702432444763.519531,-38.085152,39.683585,-88.596553
-0.980000,-1.740000,0.260124,0.040000,-15639070658.552826,-1495790923533.146484,1414473488884.239014,-2649123269904.750488,-27.721948,27.109121,-49.911018
-1.020000,-1.740000,0.260008,0.040000,-5918296996.679040,-49967565423.676971,137259585120.747986,-2967321161153.951660,-1.434808,2.092660,-55.906051
-0.940000,-1.780000,0.220319,0.040000,-35448957603.464806,-4095511456776.638184,4335859552048.488281,-3355265542488.371582,-78.520299,80.331618,-63.215148
-0.900000,-1.780000,0.220007,0.040000,-41177255155.269882,-4915857695957.607422,5288157115678.569336,-786158474195.013062,-94.721910,97.527645,-14.811681
-0.900000,-1.740000,0.260006,0.040000,-26155165940.833172,-3514918168493.630859,3504638987034.195801,-293330957436.119141,-66.164996,66.087530,-5.526525
-0.940000,-1.740000,0.260270,0.040000,-23018820210.448765,-2876816051850.166504,2942549980216.755859,-1973182776509.982666,-54.572422,55.067808,-37.175907
-0.860000,-1.780000,0.220155,0.040000,-38569056489.360870,-4854884954856.056641,5226545897247.097656,1417489794020.877686,-93.569539,96.370462,26.706329
-0.820000,-1.780000,0.220306,0.040000,-27707471438.606827,-3978825762133.565430,4208984084061.128418,3930649965564.683105,-76.264279,77.998805,74.055724
-0.820000,-1.740000,0.260259,0.040000,-16656886750.080330,-2780906113520.068359,2848821143778.416504,2501406735452.200195,-52.777751,53.289574,47.127953
-0.860000,-1.740000,0.260131,0.040000,-24014936243.577168,-3471865499941.101074,3455772649653.918945,830189309590.549194,-65.320999,65.199720,15.641248
-0.780000,-1.780000,0.220006,0.040000,-10368905696.048630,-1829692262226.940918,2045234350842.091797,5242532219379.990234,-35.690744,37.315119,98.772346
-0.740000,-1.780000,0.220164,0.040000,10368160390.253906,19928281726.710403,-98256676929.315216,5813194701018.859375,0.818186,-1.408487,109.523958
-0.740000,-1.740000,0.260139,0.040000,8332611917.316171,132051622849.962418,-34165077987.746895,3568582219134.024414,1.934657,-1.196962,67.234158
-0.780000,-1.740000,0.260005,0.040000,-5215443214.977367,-1347885569286.292236,1262655272236.674805,3182965606781.638672,-24.913209,24.270894,59.968917
-0.700000,-1.780000,0.220294,0.040000,30743725150.608120,2626433154372.757324,-2715075173423.425781,5323370091200.979492,49.984543,-50.652570,100.295379
-0.660000,-1.780000,0.220004,0.040000,47029773566.858284,4112348054361.029785,-4434177339554.482422,3623455079844.777344,79.298056,-81.723437,68.267994
-0.660000,-1.740000,0.260003,0.040000,32028239654.365494,3094687327569.849609,-3031720574431.901367,2143572427900.939697,57.949804,-57.475272,40.386147
-0.700000,-1.740000,0.260249,0.040000,21556238885.267670,1889918274340.245117,-1978465586523.027100,3312334767266.372559,36.107641,-36.774954,62.406307
-0.620000,-1.780000,0.220174,0.040000,56200215160.726585,5380309934414.969727,-5703416234340.002930,1743500841129.682861,103.194411,-105.629415,32.848567
-0.580000,-1.780000,0.220282,0.040000,56444185546.467300,5532953929053.176758,-5878788189940.791016,-1017212204204.041992,106.198775,-108.805062,-19.164868
-0.580000,-1.740000,0.260238,0.040000,37570094972.690308,4088275069674.293945,-4099363600933.213379,-783484793630.784912,77.088147,-77.171712,-14.761308
-0.620000,-1.740000,0.260147,0.040000,37764783676.067360,3959823149871.106934,-3987791888712.111816,1140569597711.415527,74.763448,-74.974227,21.488992
-0.540000,-1.780000,0.220003,0.040000,47448446122.863693,4685389774929.518555,-5030134999162.402344,-3020787882545.095703,90.224019,-92.822099,-56.913395
-0.500000,-1.780000,0.220183,0.040000,30419871624.301559,3456616101359.009277,-3609649364103.196289,-5068699484365.160156,65.989622,-67.142916,-95.497237
-0.500000,-1.740000,0.260155,0.040000,19556226066.148613,2499070611785.037598,-2576855903212.482910,-3311525946279.065430,47.523595,-48.109803,-62.391069
-0.540000,-1.740000,0.260002,0.040000,31233623335.579739,3508324346771.132324,-3457203854998.101074,-1866832525346.104492,65.809923,-65.424667,-35.172207
-0.460000,-1.780000,0.220270,0.040000,7862723262.792328,1077660851687.449829,-1234111372448.261475,-5962478254526.517578,21.188041,-22.367088,-112.336547
-0.420000,-1.780000,0.220002,0.040000,-16838587522.487215,-749277075021.324341,875413933812.184204,-6086276544054.339844,-14.829762,15.780359,-114.668978
-0.420000,-1.740000,0.260001,0.040000,-12528256531.673738,-659366316370.971680,560501145836.966675,-3890967237575.791016,-11.864041,11.118970,-73.308078
-0.460000,-1.740000,0.260228,0.040000,4211275846.409421,854832579683.627808,-758216805639.647217,-3801185640664.488770,15.559452,-14.831333,-71.616541
-0.380000,-1.780000,0.220193,0.040000,-39956153083.095650,-3213237473955.763672,3331928009501.980957,-5379340044291.166992,-61.210116,62.104596,-101.349885
-0.340000,-1.780000,0.220258,0.040000,-57988461849.869072,-4562898478738.393555,4889108652021.274414,-3556162434097.391602,-87.811449,90.269845,-67.000162
-0.340000,-1.740000,0.260218,0.040000,-40276846235.246933,-3499437922172.972656,3435356273983.739746,-2198070948233.214600,-65.569238,65.086304,-41.412931
-0.380000,-1.740000,0.260163,0.040000,-28147865558.062878,-2373496139922.437500,2455885436003.568848,-3503934562722.778320,-45.183722,45.804627,-66.016158
-0.300000,-1.780000,0.220001,0.040000,-68179198645.248917,-5699979108469.116211,6021362665188.868164,-1692796618806.300781,-109.207426,111.629448,-31.893270
-0.260000,-1.780000,0.220203,0.040000,-68913493322.776474,-5822112509120.837891,6161911310869.849609,1012240824589.014648,-111.612577,114.173379,19.071204
-0.260000,-1.740000,0.260172,0.040000,-47346516143.184570,-4397172969535.765625,4403255883852.691406,782093418858.427368,-82.879670,82.925512,14.735093
-0.300000,-1.740000,0.260001,0.040000,-47042980221.438728,-4294267776341.436523,4313908148245.570801,-1167567521082.088379,-81.017505,81.165520,-21.997649
-0.220000,-1.780000,0.220247,0.040000,-59941213891.096733,-5017461246978.956055,5361173851659.622070,2975394716183.317383,-96.474602,99.064900,56.058161
-0.180000,-1.780000,0.220000,0.040000,-42402791704.246590,-3861329368643.294434,4027838400110.471680,5061072128464.929688,-73.690822,74.945672,95.353533
-0.180000,-1.740000,0.260000,0.040000,-28836794141.506321,-2861375523714.082031,2934606678326.252930,3381307293127.946777,-54.323889,54.875776,63.705790
-0.220000,-1.740000,0.260209,0.040000,-41017323443.708298,-3832259966938.366699,3778266027528.370605,1873266581128.375488,-71.896816,71.489905,35.293428
-0.140000,-1.780000,0.220214,0.040000,-18660250960.475594,-1570091829760.668945,1749067873718.351318,6053059350563.916992,-30.593044,31.941849,114.043147
-0.100000,-1.780000,0.220235,0.040000,8038687608.352322,230153722996.595306,-326567759893.518738,6391869434533.486328,4.881178,-5.607777,120.426526
-0.100000,-1.740000,0.260199,0.040000,5988264442.318318,264402577314.270142,-162930421300.849304,4174546351439.932617,4.407960,-3.643242,78.650873
-0.140000,-1.740000,0.260181,0.040000,-12425032350.731989,-1249927017925.444092,1152566916016.077637,3933193105339.201660,-22.999053,22.265325,74.103638
-0.060000,-1.780000,0.220000,0.040000,34015035054.075718,2769569464546.785156,-2851917481243.446289,5881396442450.810547,52.645740,-53.266333,110.808918
-0.020000,-1.780000,0.220224,0.040000,55669238659.942345,4248126892576.929688,-4556773815599.218750,4287296074753.950684,81.781699,-84.107734,80.775143
-0.020000,-1.740000,0.260190,0.040000,38766329582.437325,3293578410052.245117,-3218090375245.209961,2722233773289.208496,61.626255,-61.057360,51.288462
-0.060000,-1.740000,0.260000,0.040000,23876087547.434406,2050947422640.207031,-2138458702520.580078,3886410567042.498535,39.135667,-39.795173,73.222228
0.020000,-1.780000,0.220224,0.040000,69979920167.526978,5673854933831.917969,-5975697281044.813477,2539358069785.390137,108.604782,-110.879536,47.842978
0.060000,-1.780000,0.220000,0.040000,74924679345.263702,6034815073482.302734,-6392556192865.987305,-152584621604.664917,115.721429,-118.417449,-2.874783
0.060000,-1.740000,0.260000,0.040000,51952649997.794029,4592112813574.360352,-4583864487904.586914,-215755901160.229523,86.471447,-86.409285,-4.064966
0.020000,-1.740000,0.260190,0.040000,48586210225.556122,4293269851134.149902,-4323551571751.530273,1742462828439.655029,81.058850,-81.287060,32.829010
0.100000,-1.780000,0.220235,0.040000,69767094212.218094,5564708737376.864258,-5927253871441.244141,-2218009463129.877441,106.891507,-109.623731,-41.788584
0.140000,-1.780000,0.220214,0.040000,55170777585.814468,4593058394413.342773,-4807789552241.134766,-4577694202441.250977,87.749581,-89.367844,-86.246413
0.140000,-1.740000,0.260181,0.040000,38303857379.049515,3432094480399.364258,-3497086466338.424805,-3075225393809.725098,65.029996,-65.519790,-57.939029
0.100000,-1.740000,0.260199,0.040000,48369428291.543999,4254761505138.023438,-4210943110277.205566,-1368771324901.972900,79.914504,-79.584279,-25.788445
0.180000,-1.780000,0.220000,0.040000,33122906317.462849,2440366797511.772949,-2668050395673.502930,-5850684841871.429688,47.264832,-48.980709,-110.230294
0.220000,-1.780000,0.220247,0.040000,6673757829.682290,629928010654.792725,-580486186168.969116,-6583831510933.298828,11.588755,-11.216150,-124.043202
0.220000,-1.740000,0.260209,0.040000,4951077241.107135,393478195219.585327,-497535878383.158447,-4296888058640.843750,8.001509,-8.785712,-80.955862
0.180000,-1.740000,0.260000,0.040000,23131061924.719955,1914634179084.539795,-1819219531030.161865,-3779216196965.118652,35.533518,-34.814451,-71.202624
0.260000,-1.780000,0.220203,0.040000,-20477149138.469013,-2071919875513.589355,2109136323574.839600,-6340367114767.278320,-39.246525,39.526997,-119.456192
0.300000,-1.780000,0.220001,0.040000,-44496443234.267792,-3746102329138.514160,4041262939097.639160,-4985063546284.064453,-72.247039,74.471437,-93.921487
0.300000,-1.740000,0.260001,0.040000,-30201284463.200809,-2894648357180.343262,2809510000538.003418,-3164018770631.369141,-54.055636,53.414014,-59.611948
0.260000,-1.740000,0.260172,0.040000,-13699062364.453058,-1498994826859.876221,1595229232232.810791,-4153242539078.895996,-28.785865,29.511110,-78.249497
0.340000,-1.780000,0.220258,0.040000,-61966101290.204216,-5501753575945.066406,5793049048401.331055,-3301207257785.404785,-105.302679,107.497950,-62.196658
0.380000,-1.780000,0.220193,0.040000,-70390612411.937714,-6082551573073.455078,6465110393424.018555,-541119969837.366943,-116.761087,119.644139,-10.195014
0.380000,-1.740000,0.260163,0.040000,-48110028110.236115,-4585791200788.755859,4570020529131.788086,-246668551781.262451,-86.309826,86.190975,-4.647379
0.340000,-1.740000,0.260218,0.040000,-42232800611.283531,-4112381576441.683105,4156511905731.981934,-2227181089650.940918,-77.729085,78.061662,-41.961383
0.420000,-1.780000,0.220002,0.040000,-68587503683.703102,-5839853363889.334961,6227144387274.909180,1680466908446.025879,-112.215259,115.133974,31.660971
0.460000,-1.780000,0.220270,0.040000,-56897957510.796646,-4933178356833.890625,5181981680559.641602,4295816618032.204102,-94.350220,96.225259,80.935675
0.460000,-1.740000,0.260228,0.040000,-39300038084.544456,-3644562075756.716797,3710101456949.829102,2821786841559.283691,-69.036102,69.530022,53.164100
0.420000,-1.740000,0.260001,0.040000,-47049012306.564850,-4405673140251.487305,4371494154271.232910,972316758096.740356,-82.812250,82.554670,18.319011
0.500000,-1.780000,0.220183,0.040000,-37175346942.257812,-2739700158153.117676,2994298144495.243652,5758007155956.143555,-53.056571,54.975281,108.484193
0.540000,-1.780000,0.220003,0.040000,-12538865294.173727,-814994482246.577026,770824315649.684204,6630559879724.315430,-15.105311,14.772434,124.923592
0.540000,-1.740000,0.260002,0.040000,-9643812627.989023,-535405456022.105835,643648090449.106079,4206550963895.195801,-10.699155,11.514897,79.253859
0.500000,-1.740000,0.260155,0.040000,-26129607378.235031,-2121743701274.721436,2026529744379.718994,3609566977311.585938,-39.436715,38.719161,68.006334
0.580000,-1.780000,0.220282,0.040000,13085944896.961315,2073136442370.766357,-2118648042401.090332,6377378073202.670898,39.316332,-39.659318,120.153500
0.620000,-1.780000,0.220174,0.040000,35582346063.977097,3854176594754.772949,-4179736852000.956055,4850510644357.214844,74.455045,-76.908542,91.386432
0.620000,-1.740000,0.260147,0.040000,22654001311.048603,2889828508629.416016,-2809221251340.575195,2982372930664.375000,53.990438,-53.382963,56.189635
0.580000,-1.740000,0.260238,0.040000,7528936277.994618,1443584556586.374756,-1545191309487.045898,4058771574760.885254,27.772269,-28.538001,76.469609
0.660000,-1.780000,0.220004,0.040000,51324446767.216949,5601094916045.470703,-5934241322402.225586,2933569818335.299316,107.410877,-109.921545,55.270156
0.700000,-1.780000,0.220294,0.040000,57815899786.677734,6039692227809.804688,-6444564460000.185547,-123377669634.891159,116.079711,-119.130922,-2.324507
0.700000,-1.740000,0.260249,0.040000,37971435981.014740,4410065236928.563477,-4414378327369.448242,-145665629312.241669,83.112564,-83.145068,-2.744425
0.660000,-1.740000,0.260003,0.040000,33343463903.394913,4067848081337.163574,-4113165342967.417969,1954436324517.161133,76.896757,-77.238278,36.822713
0.740000,-1.780000,0.220164,0.040000,54169039266.369179,5383048570432.786133,-5789100960195.507812,-2501571459536.787109,103.714834,-106.774939,-47.131056
0.780000,-1.780000,0.220006,0.040000,41321903940.627274,4080723825190.321777,-4281747071790.614746,-5030023378650.839844,78.019421,-79.534379,-94.768556
0.780000,-1.740000,0.260005,0.040000,27981741755.738209,2909653267016.984863,-2997965879124.128418,-3092657165941.920410,55.318713,-55.984257,-58.267454
0.740000,-1.740000,0.260139,0.040000,35975732185.373497,3958175504957.450684,-3915797947954.560547,-1393124050331.359131,74.334796,-74.015429,-26.247265
0.820000,-1.780000,0.220306,0.040000,21925652882.224968,1354761151216.290039,-1537758472036.096680,-6166648902130.575195,26.558818,-27.937928,-116.183240
0.860000,-1.780000,0.220155,0.040000,-110517394.470637,-825133770177.017578,992302611707.645752,-6235847290352.744141,-16.490866,17.750689,-117.486978
0.860000,-1.740000,0.260131,0.040000,1666039478.603452,-623293781031.292358,519339932569.946655,-3710847915392.112793,-11.155651,10.372231,-69.914526
0.820000,-1.740000,0.260259,0.040000,15709969852.259480,1093859531036.189087,-989554403863.508545,-3672833122522.880859,20.019397,-19.233329,-69.198305
0.900000,-1.780000,0.220007,0.040000,-20362127105.777641,-3631295214797.292480,3828699185732.371582,-5157341079377.944336,-69.531469,71.019151,-97.167296
0.940000,-1.780000,0.220319,0.040000,-34795401899.839256,-4992762714390.011719,5413360671672.913086,-2561510864297.395020,-96.443837,99.613560,-48.260350
0.940000,-1.740000,0.260270,0.040000,-20788206642.521801,-3511596539977.539062,3480338107942.327148,-1472877760304.249756,-65.983836,65.748266,-27.749871
0.900000,-1.740000,0.260006,0.040000,-11344090902.616188,-2460849369659.928223,2553754346500.112793,-3158273954441.383301,-46.888944,47.589097,-59.503712
0.980000,-1.780000,0.220146,0.040000,-40655662382.344421,-5558894146990.497070,5988982433275.041992,-19357094404.403866,-107.163722,110.404967,-0.364699
1.020000,-1.780000,0.220009,0.040000,-37131016816.531425,-4877626618562.048828,5197445837680.708984,3148995359909.220703,-93.704987,96.115219,59.328898
1.020000,-1.740000,0.260008,0.040000,-23340283784.280544,-3355586689238.685547,3425569865268.091797,1798636875558.302979,-63.616756,64.144165,33.887361
0.980000,-1.740000,0.260124,0.040000,-24954074630.444374,-3876528512042.253418,3886025334506.851562,-209757176560.411438,-73.089722,73.161292,-3.951947
1.060000,-1.780000,0.220332,0.040000,-25603257946.786751,-2601170989320.147949,2880057604429.789551,4951205063183.450195,-50.583885,52.685639,93.283574
1.100000,-1.780000,0.220138,0.040000,-9370271301.461430,-413771728965.313110,327122203051.499329,5763181950178.158203,-7.305941,6.652930,108.581689
1.100000,-1.740000,0.260117,0.040000,-7259675570.123902,-286873413874.374207,386478713157.528625,3190593048198.582520,-5.967848,6.718497,60.112623
1.060000,-1.740000,0.260281,0.040000,-16782892402.584536,-1917828197077.637207,1834073701041.396240,2674165783032.818848,-35.659600,35.028407,50.382834
1.140000,-1.780000,0.220012,0.040000,7154268631.114413,2593679399197.626465,-2747690875783.940430,5024761957668.113281,49.736923,-50.897589,94.669428
1.180000,-1.780000,0.220346,0.040000,19608511018.607552,4120460629856.241211,-4534775125304.414062,2582015910666.360840,79.973645,-83.096015,48.646677
1.180000,-1.740000,0.260292,0.040000,10258504297.745153,2701266577865.262207,-2681310869233.252930,1414388012934.848145,50.780635,-50.630244,26.647890
1.140000,-1.740000,0.260010,0.040000,2609344078.225556,1581383291871.470703,-1684757110486.505127,2851278354795.909668,30.378465,-31.157514,53.719737
1.220000,-1.780000,0.220129,0.040000,24922242471.007301,4708215382921.430664,-5133738931534.666016,-811591443.864107,91.110640,-94.317484,-0.015291
1.260000,-1.780000,0.220014,0.040000,22253853027.727291,3873137551125.795410,-4152817620617.172852,-3042334255019.503906,74.552957,-76.660691,-57.319341
1.260000,-1.740000,0.260012,0.040000,12981437978.585829,2505662775196.145020,-2583923702033.704590,-1526181317652.322266,47.650484,-48.240276,-28.754141
1.220000,-1.740000,0.260109,0.040000,13888865180.236910,3079069427948.227051,-3101423172917.789062,238787991534.609833,58.137800,-58.306263,4.498904
1.300000,-1.780000,0.220359,0.040000,13277511777.527010,1389433003141.234619,-1579362053795.314209,-4487073454701.321289,27.251235,-28.682585,-84.539065
1.340000,-1.780000,0.220121,0.040000,1635980075.822692,-775045462308.027466,970061438177.954102,-4443102922442.876953,-15.704570,17.174256,-83.710635
1.340000,-1.740000,0.260103,0.040000,2198596331.368509,-421362221447.973877,356049862400.546997,-2218425445500.671387,-7.569552,7.077343,-41.796421
1.300000,-1.740000,0.260304,0.040000,8427811037.289406,1063986565212.361206,-982857596820.434204,-2182758360446.407715,19.587569,-18.976162,-41.124433
1.380000,-1.780000,0.220017,0.040000,-8347497244.373875,-3088508912330.540039,3370891034169.864258,-2920085244232.272461,-59.785371,61.913468,-55.016099
1.420000,-1.780000,0.220373,0.040000,-13289372403.834341,-3649618829774.902832,4029867145735.761719,8627232007.997782,-70.910164,73.775804,0.162542
1.420000,-1.740000,0.260316,0.040000,-6450136816.396130,-2176096126272.082275,2215306757293.622559,-87852626244.045639,-41.220538,41.516038,-1.655194
1.380000,-1.740000,0.260015,0.040000,-3372547107.338192,-1765038958020.642334,1850270529918.270020,-1604295620153.002441,-33.736101,34.378426,-30.225860
1.460000,-1.780000,0.220113,0.040000,-12067016710.540367,-2619803984034.256348,2932421586286.504395,2209686998004.780273,-51.125595,53.481554,41.631784
1.500000,-1.780000,0.220020,0.040000,-6222863813.029799,-895216892951.722168,879293818454.906250,3502979656248.201172,-16.776405,16.656405,65.998167
1.500000,-1.740000,0.260017,0.040000,-3816726140.540161,-599516479583.870117,663262841941.226074,1538004853159.387451,-11.655544,12.135951,28.976903
1.460000,-1.740000,0.260096,0.040000,-6368788144.152116,-1665748856629.931152,1644615877882.286377,813934477707.166016,-31.264227,31.104964,15.334997
1.540000,-1.780000,0.220387,0.040000,840076479.207536,1493762132182.926270,-1644646659138.067627,2923961866776.906250,28.996170,-30.133271,55.089137
1.580000,-1.780000,0.220106,0.040000,5590653370.254918,2425523409707.046387,-2749135688104.875000,756296789511.693359,47.527380,-49.966197,14.249070
1.580000,-1.740000,0.260090,0.040000,2103921205.769443,1284040834676.424805,-1310523270376.607422,421187247331.741699,24.341757,-24.541335,7.935412
1.540000,-1.740000,0.260327,0.040000,-419400999.004053,668762322327.841431,-753001726657.421875,1371406938505.791992,13.076006,-13.710853,25.838102
1.620000,-1.780000,0.220024,0.040000,6184290278.056291,1972194115434.072510,-2235811550328.465820,-1176503728705.057129,38.647292,-40.633974,-22.166012
1.660000,-1.780000,0.220401,0.040000,3321888339.385929,651106930923.171997,-638660639203.864746,-2293107491120.680176,12.196883,-12.103085,-43.203474
1.660000,-1.740000,0.260340,0.040000,1829747663.162327,428627324659.419495,-469233104033.651367,-858865005304.321045,8.305098,-8.611113,-16.181515
1.620000,-1.740000,0.260020,0.040000,2791194810.638244,1137184488454.821289,-1140535095992.925537,-280125542210.091675,21.444153,-21.469404,-5.277728
1.700000,-1.780000,0.220099,0.040000,-439366491.685207,-1069155518204.891479,1213882131559.955078,-1715667109739.008057,-20.961530,22.052223,-32.324163
1.740000,-1.780000,0.220027,0.040000,-2539496856.685146,-1486985530819.044434,1704005159195.177734,-3086150718.292333,-29.242302,30.877812,-0.058145
1.740000,-1.740000,0.260023,0.040000,-802878699.374366,-694649900903.070557,725489366661.953735,-99866594359.494293,-13.261917,13.494330,-1.881545
1.700000,-1.740000,0.260083,0.040000,260744170.368657,-400534821294.402466,462141121067.481873,-732380896412.618164,-7.894518,8.358797,-13.798481
1.780000,-1.780000,0.220416,0.040000,-2143831072.759466,-715397810552.017944,826068566311.944702,1104927647267.022705,-14.104040,14.938080,20.817477
1.820000,-1.780000,0.220092,0.040000,-422585919.194641,243178750900.399017,-346907101141.600281,1088054602654.567383,5.167919,-5.949640,20.499579
1.820000,-1.740000,0.260077,0.040000,-359646308.041466,27714892806.883930,-23072372635.493835,369779070964.631165,0.495924,-0.460937,6.966852
1.780000,-1.740000,0.260352,0.040000,-897863336.918657,-432577830049.016785,421962806084.414734,270437825381.897003,-8.090019,8.010022,5.095205
1.860000,-1.780000,0.220031,0.040000,806315005.808716,767190528250.837036,-900422544060.839600,214137303558.621094,15.207365,-16.211432,4.034471
1.900000,-1.780000,0.220431,0.040000,765386180.114904,402460922851.171326,-433871315178.570496,-574967643569.933594,7.760134,-7.996850,-10.832724
1.900000,-1.740000,0.260365,0.040000,268300864.473506,199768822441.800018,-215376373718.759338,-123623881145.713577,3.851977,-3.969599,-2.329146
1.860000,-1.740000,0.260027,0.040000,151740384.280745,299668159939.249207,-326395343502.599609,164025271592.327057,5.796989,-5.998411,3.090331
1.940000,-1.780000,0.220085,0.040000,97020879.990211,-228717808247.117950,278351292915.565613,-457354315242.278564,-4.589713,4.963763,-8.616820
1.980000,-1.780000,0.220035,0.040000,-253929372.600498,-293578769085.453735,345607391932.908081,79366702997.405487,-5.825269,6.217369,1.495315
1.980000,-1.740000,0.260030,0.040000,-35427875.958282,-101431240642.750168,110917988195.654419,-14899006410.465729,-1.964644,2.036138,-0.280706
1.940000,-1.740000,0.260072,0.040000,107513244.105043,-28926285378.523922,47225498887.761795,-141448995338.268707,-0.648418,0.786325,-2.664981
2.020000,-1.780000,0.220446,0.040000,-128180949.517445,-772616440.182622,-2661714541.235527,226880063283.906952,0.004855,-0.030737,4.274552
2.060000,-1.780000,0.220078,0.040000,43151889.715622,105457154853.413864,-132587008464.896957,30535534024.709846,2.140217,-2.344673,0.575307
2.060000,-1.740000,0.260066,0.040000,-2539964.611453,22917693845.455990,-26200311170.053612,20304822912.641834,0.450337,-0.475075,0.382555
2.020000,-1.740000,0.260377,0.040000,-45055241.421646,-32293980646.636528,28166812080.073952,40428416073.094826,-0.585110,0.554007,0.761695
2.100000,-1.780000,0.220040,0.040000,44177634.533920,13127586634.726982,-18623038136.956146,-66179983290.942421,0.278393,-0.319808,-1.246869
2.140000,-1.780000,0.220461,0.040000,1277750.842662,-24270764620.791641,33595860606.062767,-13179947643.850538,-0.509982,0.580258,-0.248318
2.140000,-1.740000,0.260390,0.040000,7413283.307057,-2164110492.463388,3687724991.227751,-6825634767.896126,-0.049385,0.060867,-0.128599
2.100000,-1.740000,0.260034,0.040000,13191478.519613,14297710115.746166,-14420432925.276375,-5060060987.706636,0.270071,-0.270996,-0.095334
2.180000,-1.780000,0.220072,0.040000,-1262259.494644,-1953180431.072234,2889807194.384899,13722908723.331913,-0.042093,0.049152,0.258548
2.220000,-1.780000,0.220045,0.040000,5062661.808406,2900418886.825708,-5259126950.991777,1587200893.662555,0.067977,-0.085753,0.029904
2.220000,-1.740000,0.260038,0.040000,4500218.408859,288230563.317934,-493885142.447858,673185082.896643,0.006593,-0.008143,0.012683
2.180000,-1.740000,0.260061,0.040000,3912526.282788,-2708194311.690119,2982618833.596509,302639850.696546,-0.052575,0.054643,0.005702
2.260000,-1.780000,0.220477,0.040000,5108542.115459,390800292.305608,21054655.242150,-1128391294.458569,0.005035,-0.001931,-0.021260
2.300000,-1.780000,0.200038,0.040000,5214632.057948,-3503696602.881951,1965191457.929110,104891351.361258,-0.057316,0.045721,0.001976
2.300000,-1.740000,0.200098,0.040000,2090323.105712,996136032.516370,-1756264493.909925,10187938342.436192,0.023064,-0.028793,0.191947
2.260000,-1.740000,0.240082,0.040000,4621357.138523,1941281788.231168,-1457754360.143388,106713576.181458,0.033842,-0.030198,0.002011
2.340000,-1.780000,0.160047,0.040000,8751304.492674,-16411251223.299015,38687225225.064148,-22368711213.669125,-0.435105,0.602982,-0.421439
2.380000,-1.780000,0.120063,0.040000,-21200058.067882,-521491994291.073059,1659394920667.980957,-4332870041.002667,-16.256837,24.832337,-0.081634
2.380000,-1.740000,0.120164,0.040000,179816576.508262,647230922321.698975,-3115694283355.620117,170493193910.519287,26.146390,-44.749302,3.212191
2.340000,-1.740000,0.160123,0.040000,6833779.310553,-47806878380.344620,-12086348236.372147,59695197401.888535,-0.562182,0.110813,1.124692
2.420000,-1.780000,0.080094,0.040000,-513592495.747264,-5497092908324.975586,-11467129950231.562500,20046805432511.039062,-7.683679,-120.162638,377.693436
2.460000,-1.780000,0.040188,0.040000,6085508973.741020,-36858507326164.320312,-34617308883158.894531,55411369731965.789062,-290.441901,-248.216424,1043.982328
2.460000,-1.740000,0.040488,0.040000,-10782330961.865551,9438422721554.107422,-163119891295680.406250,66347834925384.921875,1046.459743,-2204.638927,1250.031673
2.420000,-1.740000,0.080245,0.040000,1286239565.128972,12814229567184.689453,-52454950247298.375000,22538681133466.148438,465.483761,-764.225424,424.641818
2.500000,-1.780000,0.003881,0.040000,504224185518.143677,-262396840999890.125000,134245519188953.015625,99017976312762.343750,-4219.375040,3253.596963,1865.556075
2.500000,-1.740000,0.006269,0.040000,-1000053294499.864136,243981364443582.062500,-440764943027381.437500,113357826001183.421875,5709.005354,-7192.012033,2135.727157
-2.500000,-1.700000,0.013433,0.040000,-67328608508.770775,-8446316705832.801758,-48256390940613.101562,128432267120704.140625,161.360062,-588.684815,2419.738366
-2.500000,-1.660000,0.003284,0.040000,537418100808.551025,-240407184508273.000000,166635176440316.218750,36444632408904.039062,-4112.438503,3556.475544,686.638002
-2.460000,-1.700000,0.042195,0.040000,-27584460947.617611,2478709968874.225586,-8463172793734.820312,75517595731908.203125,80.525557,-125.625857,1422.795282
-2.420000,-1.700000,0.081120,0.040000,-907605219.013601,1181772846154.147461,-6238477645389.200195,28783584811831.082031,50.846660,-88.955160,542.299424
-2.420000,-1.660000,0.080067,0.040000,5779431801.444246,-19638430979617.019531,26009299729074.050781,2879634425938.813477,-406.008682,454.021027,54.253982
-2.460000,-1.660000,0.040135,0.040000,52819326201.020729,-68806211035275.507812,57577643950511.328125,18118823563745.476562,-1232.883090,1148.262004,341.369140
-2.380000,-1.700000,0.120749,0.040000,198339220.935065,33146936446.972752,239883838594.862061,932107640025.676514,-0.918710,2.976333,17.561448
-2.340000,-1.700000,0.160563,0.040000,60544678.871668,-71373978209.848389,17316903118.503960,85988246840.688980,-1.039187,0.631800,1.620068
-2.340000,-1.660000,0.160034,0.040000,-17343545.247635,-210189907477.826355,216982043331.090179,-257373944189.464478,-3.998490,4.049677,-4.849074
-2.380000,-1.660000,0.120045,0.040000,461902784.660885,-2397183230622.182617,2769397503544.546387,-895669839359.827148,-47.268142,50.073235,-16.874939
-2.300000,-1.700000,0.200451,0.040000,15106217.507674,-22452317720.670975,14979494119.110806,-3732046978.412839,-0.380777,0.324460,-0.070314
-2.260000,-1.700000,0.240376,0.040000,10035721.027160,-2514153978.037041,1500085118.019777,-3887929828.162373,-0.041636,0.033994,-0.073251
-2.260000,-1.660000,0.240022,0.040000,6707229.294567,8781691461.934237,-7621838034.380874,-4880507519.248739,0.158896,-0.150156,-0.091952
-2.300000,-1.660000,0.200027,0.040000,-10775862.145783,4334818259.613794,-1979669349.932534,-49370180491.337296,0.068359,-0.050610,-0.930163
-2.220000,-1.700000,0.280322,0.040000,10633628.733506,324867552.836008,-403764572.103822,-1168076409.437667,0.006567,-0.007161,-0.022007
-2.180000,-1.700000,0.300053,0.040000,11153266.527065,-396058591.428115,535605436.465151,151051879.361396,-0.008251,0.009302,0.002846
-2.180000,-1.660000,0.320017,0.040000,11643290.815673,234197508.473783,-18254891.103137,789942409.601681,0.003192,-0.001564,0.014883
-2.220000,-1.660000,0.280019,0.040000,11237466.439308,2318013462.423725,-1703412338.980901,1048807137.493583,0.040199,-0.035567,0.019760
2.180000,-1.700000,0.300053,0.040000,4778065.772128,-759519589.465192,826077485.866870,-487907255.075826,-0.014686,0.015188,-0.009192
2.220000,-1.700000,0.280322,0.040000,5057407.632305,-1054319479.044284,876010924.809073,-592592477.665320,-0.018856,0.017512,-0.011165
2.220000,-1.660000,0.280019,0.040000,3947801.071699,-2452538068.498478,1727087355.447495,2619992600.345204,-0.042107,0.036640,0.049362
2.180000,-1.660000,0.320017,0.040000,4276386.938211,14989729.319248,-152529480.943449,578665871.224409,0.001060,-0.002096,0.010902
2.260000,-1.700000,0.240376,0.040000,6740889.950834,1268920112.437234,-396206072.391786,-5497766283.823479,0.018974,-0.012397,-0.103581
2.300000,-1.700000,0.200451,0.040000,3792195.770545,29025715869.143288,-18681157259.739227,-16640028548.525259,0.488392,-0.410433,-0.313508
2.300000,-1.660000,0.200027,0.040000,36721841.119945,-37885750304.969551,26873384437.482151,-52397695984.083092,-0.651546,0.568554,-0.987203
2.260000,-1.660000,0.240022,0.040000,8360980.925240,-14388155249.717691,11757199940.835661,-88718201.127629,-0.256211,0.236383,-0.001672
2.340000,-1.700000,0.160563,0.040000,-58422384.573980,158777534553.784943,-66461350140.368523,54419373248.441437,2.469674,-1.773957,1.025293
2.380000,-1.700000,0.120749,0.040000,-397586235.273642,1026430668949.450562,-2170259839145.615479,1062201804288.209106,25.803670,-34.423832,20.012498
2.380000,-1.660000,0.120045,0.040000,-208874408.728318,2894357148080.870117,-3610824990244.802246,-2239559277487.619629,58.580967,-63.980435,-42.194595
2.340000,-1.660000,0.160034,0.040000,111088895.752880,124926909081.644638,-181584373299.476440,-409357193396.794250,2.673933,-3.100917,-7.712527
2.420000,-1.700000,0.081120,0.040000,-219382375.748791,16999351850701.429688,-75610178026862.828125,-1268872137927.247803,651.556226,-1093.261003,-23.906287
2.460000,-1.700000,0.042195,0.040000,30752177698.579235,16685618599667.673828,-239189768749413.562500,-4351057889695.804199,1571.998880,-3248.841751,-81.976453
2.460000,-1.660000,0.040135,0.040000,-82554655671.941696,35126796764767.476562,-119646864529462.343750,-66335219038045.578125,1139.531337,-1776.494166,-1249.793982
2.420000,-1.660000,0.080067,0.040000,-6979399062.391263,20782375171869.089844,-47876517542507.117188,-24253929039215.332031,544.692801,-748.880540,-456.958083
2.500000,-1.700000,0.013433,0.040000,-244440351692.131653,23940975925060.238281,-125436318322174.515625,-9566197723078.085938,1024.731192,-1789.623627,-180.232711
2.500000,-1.660000,0.003284,0.040000,-880338312405.784546,197644582564656.437500,-399764284518930.375000,-106602217220393.531250,4866.154219,-6389.375161,-2008.447571
-2.500000,-1.620000,0.006866,0.040000,9044163429.629498,46841585793230.781250,44186793007505.625000,-39885292941767.328125,368.014403,317.996568,-751.462041
-2.500000,-1.580000,0.012836,0.040000,-179913769372.412231,97703195108969.390625,-42349909911324.078125,-30087572652389.851562,1527.918441,-1110.763248,-566.867311
-2.460000,-1.620000,0.040585,0.040000,-29210445132.152622,24779213184320.687500,55411897006549.335938,-26102341537532.558594,13.600640,590.738161,-491.783246
-2.420000,-1.620000,0.080294,0.040000,-6840367644.035223,4669485262489.303711,14144928182358.173828,-15366091324113.748047,-18.366528,160.156310,-289.506068
-2.420000,-1.580000,0.081023,0.040000,-7821685363.718988,12697303499142.908203,3247164409583.864258,6054032592783.763672,149.103653,-28.942446,114.061484
-2.460000,-1.580000,0.042009,0.040000,-60093380302.415863,42812342247836.007812,33762254826361.324219,-11736212921007.253906,373.796407,203.287513,-221.117055
-2.380000,-1.620000,0.120196,0.040000,-1499284386.329173,2130426193777.944824,-1626101482735.332764,-2081354555644.416260,37.287934,-33.487226,-39.213926
-2.340000,-1.620000,0.160147,0.040000,-256035865.744265,559202134983.193115,-507886448665.270386,-148177519257.080292,10.245647,-9.858920,-2.791750
-2.340000,-1.580000,0.160514,0.040000,214396599.455732,318567629839.650391,-280976260210.340576,842705121046.260498,5.789526,-5.506229,15.877053
-2.380000,-1.580000,0.120685,0.040000,-435694883.662309,3015052983591.761230,-2226643868816.537598,3495161793571.439453,52.349121,-46.407487,65.850874
-2.300000,-1.620000,0.200118,0.040000,-13950507.169206,113518827181.365112,-99681566661.983429,32522337652.190746,2.060550,-1.956269,0.612740
-2.260000,-1.620000,0.240098,0.040000,16709242.238294,16034440711.288435,-13355818817.165438,19622795792.101109,0.286958,-0.266771,0.369705
-2.260000,-1.580000,0.240343,0.040000,42142008.150719,-32726522938.512932,31166376422.210175,30141530317.603321,-0.607768,0.596011,0.567884
-2.300000,-1.580000,0.200411,0.040000,118290406.617572,-32480599220.262054,33742568182.501625,182832342458.478607,-0.619086,0.628597,3.444667
-2.220000,-1.620000,0.280084,0.040000,14760181.903484,-692455841.899468,1226708593.624334,6108746343.996040,-0.016066,0.020092,0.115092
-2.180000,-1.620000,0.320074,0.040000,12037513.808895,-1463080874.395797,1398197019.272441,985566038.370190,-0.027199,0.026710,0.018569
-2.180000,-1.580000,0.320257,0.040000,10421681.102324,-3607515050.092609,3077170135.663665,-2297858710.468517,-0.064970,0.060973,-0.043293
-2.220000,-1.580000,0.280294,0.040000,16031173.247585,-11970381851.801876,9722292169.847340,607248214.902616,-0.212822,0.195880,0.011441
2.180000,-1.620000,0.320074,0.040000,4190303.426709,2349736530.113362,-2085810630.135686,240084869.030172,0.042779,-0.040790,0.004523
2.220000,-1.620000,0.280084,0.040000,328263.062351,4466646175.115720,-4201324018.174026,6384604478.502822,0.082655,-0.080655,0.120290
2.220000,-1.580000,0.280294,0.040000,4178119.303764,15248003847.385069,-11970177578.947407,-8141192206.812587,0.268754,-0.244052,-0.153385
2.180000,-1.580000,0.320257,0.040000,7066633.922315,2921665886.777414,-2058506885.135313,-4054160084.071990,0.050167,-0.043662,-0.076383
2.260000,-1.620000,0.240098,0.040000,-8966974.558962,-7016259099.826055,5025503402.564301,31157006721.693195,-0.120938,0.105935,0.587016
2.300000,-1.620000,0.200118,0.040000,2701706.656410,-128813137680.739197,113519557240.086121,105759299642.524643,-2.340472,2.225216,1.992567
2.300000,-1.580000,0.200411,0.040000,-163194526.366570,186323647066.436981,-171088481091.100098,185720045671.286407,3.424334,-3.309518,3.499073
2.260000,-1.580000,0.240343,0.040000,-26068179.591533,63235567011.323494,-57796061401.075500,11226828921.456623,1.160650,-1.119656,0.211520
2.340000,-1.620000,0.160147,0.040000,277086697.904354,-906648504245.289551,839563387250.412109,152864844410.615387,-16.702607,16.197038,2.880062
2.380000,-1.620000,0.120196,0.040000,2296981263.483307,-5041112270486.076172,4494415374686.485352,-1319684172339.486572,-91.887452,87.767417,-24.863615
2.380000,-1.580000,0.120685,0.040000,-1311692789.705497,-732427578670.042114,-638311353663.505493,6606482117923.032227,-6.051705,-4.278501,124.469953
2.340000,-1.580000,0.160514,0.040000,-593990199.943224,284913692946.397278,-271504443756.743591,1214429345426.626709,5.292148,-5.191093,22.880553
2.420000,-1.620000,0.080294,0.040000,14389072541.066189,-21783837097466.300781,-15020179621103.830078,-12845313469523.734375,-202.397416,-74.966188,-242.013152
2.460000,-1.620000,0.040585,0.040000,87591816995.366791,-98262514899067.234375,-81273967382697.968750,-21022821387849.109375,-836.551323,-516.477239,-396.082142
2.460000,-1.580000,0.042009,0.040000,41137023123.853905,-58146786742416.632812,-107257761921938.968750,56743288969712.546875,-160.623895,-1085.903138,1069.076459
2.420000,-1.580000,0.081023,0.040000,1539371764.326020,-6130482289492.208008,-27888503715900.234375,33496960049722.218750,76.779385,-333.154352,631.102146
2.500000,-1.620000,0.006866,0.040000,436364381724.828491,-317098151286912.312500,47045179686094.437500,-34990178535453.609375,-4447.926634,2412.744819,-659.235248
2.500000,-1.580000,0.012836,0.040000,-170003618209.280396,-83690942114432.687500,-146075290559923.718750,80544991356148.734375,-278.107160,-1453.464449,1517.514330
-2.500000,-1.540000,0.002687,0.040000,388011536280.311462,-208217465362391.250000,78194527177796.015625,-62595167538780.125000,-3188.025494,2208.142481,-1179.329243
-2.500000,-1.500000,0.007463,0.040000,-450758552679.638306,72943589526031.265625,-237241488335943.750000,-82809652259547.750000,2302.939810,-3541.126874,-1560.181854
-2.460000,-1.540000,0.040090,0.040000,70940903265.270432,-62985671295500.656250,-30897188339284.574219,-29639790732645.386719,-656.044311,-51.478690,-558.430840
-2.420000,-1.540000,0.080045,0.040000,16962491410.529438,-18723828889144.085938,-1606414085823.592529,-4729279012215.019531,-237.857722,84.644296,-89.102358
-2.420000,-1.500000,0.080347,0.040000,13932143273.291136,-8168209855783.541016,-29391292696014.968750,-26696244889268.789062,58.399032,-341.456152,-502.972730
-2.460000,-1.500000,0.040690,0.040000,75721686866.095825,-40566670009021.859375,-125895522497440.953125,-54578658176205.984375,176.573682,-1431.071365,-1028.293560
-2.380000,-1.540000,0.120030,0.040000,4135269545.478920,-5374091467374.116211,5163021992496.395508,3301536474498.250000,-100.057997,98.467329,62.202861
-2.340000,-1.540000,0.160023,0.040000,931058894.780954,-1367700329657.887207,1270769077889.493896,373979693916.238647,-25.220395,24.489898,7.045994
-2.340000,-1.500000,0.160174,0.040000,-154093833.292156,-935893350064.085449,818304611722.379028,-1654148007273.001465,-16.968141,16.081965,-31.165107
-2.380000,-1.500000,0.120232,0.040000,1739315370.555125,-4518898004179.501953,2111497331415.678955,-5687888675883.885742,-71.531611,53.388881,-107.163120
-2.300000,-1.540000,0.200018,0.040000,168922808.278942,-339944783692.363098,310680709467.753296,-39026562388.752655,-6.239351,6.018810,-0.735283
-2.260000,-1.540000,0.240015,0.040000,16737404.048785,-74151660926.744324,66936043416.001511,-46977149741.994080,-1.356276,1.301898,-0.885077
-2.260000,-1.500000,0.240116,0.040000,-99019064.990277,37420892559.919067,-39872311546.178719,-124916392315.315582,0.718887,-0.737362,-2.353497
-2.300000,-1.500000,0.200139,0.040000,-220615172.375238,-76002580543.306564,54841382063.232956,-474292692085.251831,-1.312326,1.152850,-8.935949
-2.220000,-1.540000,0.280013,0.040000,128121.399922,-9537473084.183817,5978681933.292173,-21354370716.689342,-0.159577,0.132757,-0.402329
-2.180000,-1.540000,0.320011,0.040000,5026827.644019,1491277504.347765,-1589674841.983455,-6039192955.900199,0.028653,-0.029394,-0.113782
-2.180000,-1.500000,0.320087,0.040000,2621608.895098,13142036479.745449,-12924412732.725998,-935011638.264472,0.246374,-0.244733,-0.017616
-2.220000,-1.500000,0.280099,0.040000,-26091406.653176,26477811373.360340,-22904707453.986305,-27638750172.122837,0.478662,-0.451734,-0.520730
2.180000,-1.540000,0.320011,0.040000,11850837.640847,-7147775970.458912,6691738873.165506,-5810076646.150372,-0.132091,0.128654,-0.109465
2.220000,-1.540000,0.280013,0.040000,27084472.137007,-4821692623.844195,6691425085.961783,-31041119359.736893,-0.101412,0.115502,-0.584833
2.220000,-1.500000,0.280099,0.040000,38995550.961100,-51866562863.247208,43309442835.200615,-5922045914.817319,-0.928830,0.864341,-0.111575
2.180000,-1.500000,0.320087,0.040000,6747504.034640,-17879717761.366314,16184884205.333139,7794129717.334176,-0.327285,0.314512,0.146846
2.260000,-1.540000,0.240015,0.040000,42962913.430285,52526073578.319138,-44695943360.880386,-102235294964.767914,0.945364,-0.886355,-1.926172
2.300000,-1.540000,0.200018,0.040000,-49868498.686318,394494605488.662354,-353389861980.531860,-283320466260.173279,7.200176,-6.890401,-5.337922
2.300000,-1.500000,0.200139,0.040000,526243236.155112,-324008442427.542664,316822884295.044556,-584156839154.217041,-6.063893,6.009741,-11.005853
2.260000,-1.500000,0.240116,0.040000,161104742.330662,-148537417259.156433,142714843007.138641,-105873827178.133484,-2.765621,2.721741,-1.994724
2.340000,-1.540000,0.160023,0.040000,-894651090.830946,2110203482005.278809,-1934823065418.460449,-531994414247.050598,38.766176,-37.444469,-10.023083
2.380000,-1.540000,0.120030,0.040000,-5688519107.584414,10416039480043.390625,-9904417539613.177734,319145633826.193115,193.352446,-189.496744,6.012889
2.380000,-1.500000,0.120232,0.040000,2690562233.343897,1692811763889.705811,-1809610384485.046631,-11292141214965.412109,32.553721,-33.433943,-212.750487
2.340000,-1.500000,0.160174,0.040000,1396236453.992917,-370863532793.474854,412909790880.567627,-2640796574948.654785,-7.224937,7.541807,-49.754138
2.420000,-1.540000,0.080045,0.040000,-29874842073.624962,49937059915530.195312,-62588150309933.812500,3276636354530.483887,1012.349321,-1107.690872,61.733728
2.460000,-1.540000,0.040090,0.040000,-151324958479.007874,137980124078549.671875,-129344759955868.937500,1084641800413.465210,2550.816946,-2485.738840,20.435280
2.460000,-1.500000,0.040690,0.040000,-26063152085.335606,39755823157201.554688,-64198710160664.804688,-110408805459137.500000,887.178203,-1071.385468,-2080.165900
2.420000,-1.500000,0.080347,0.040000,802582780.763943,15863848799661.382812,-24821444465109.523438,-54366734821035.984375,349.513996,-417.020514,-1024.300801
2.500000,-1.540000,0.002687,0.040000,-850680005464.930054,349136943343712.750000,-254226512809656.375000,-3437168351455.023438,6041.492151,-5326.225139,-64.758244
2.500000,-1.500000,0.007463,0.040000,-387986562903.359070,140456272015325.125000,-149324716590881.906250,-164846178421636.250000,2696.403580,-2763.238235,-3105.797564
-2.500000,-1.460000,0.012239,0.040000,-425828306311.931458,122444718804601.187500,-144498581940537.250000,2211198788251.430176,2431.581755,-2597.784781,41.660267
-2.500000,-1.420000,0.002090,0.040000,-463191237679.812866,151582632064896.187500,-134810876117860.546875,100205983890219.609375,2761.107781,-2634.711939,1887.938827
-2.460000,-1.460000,0.041830,0.040000,-74199065593.314911,54319016197823.164062,-129689668523846.437500,-9025434267164.988281,1449.409789,-2017.420503,-170.044414
-2.420000,-1.460000,0.080931,0.040000,-22910281032.838943,25780467565930.886719,-51591772165965.281250,-10932761220012.119141,631.608937,-826.128913,-205.979559
-2.420000,-1.420000,0.080027,0.040000,-33074364797.085072,34445654760673.117188,-35254061920847.476562,22652374111197.542969,653.545362,-659.637706,426.783860
-2.460000,-1.420000,0.040055,0.040000,-125521310877.008804,73480074711963.703125,-60390952161505.640625,61265124807961.398438,1310.425208,-1211.782545,1154.270467
-2.380000,-1.460000,0.120623,0.040000,-7345099548.307217,6234793770344.183594,-6346692409246.864258,-6981419144961.333008,118.099600,-118.942894,-131.533984
-2.340000,-1.460000,0.160467,0.040000,-2286758638.415298,1987543020287.006592,-1880411445524.116211,-1522330080761.497070,36.840936,-36.033568,-28.681581
-2.340000,-1.420000,0.160014,0.040000,-1622624821.016180,2796633665220.728516,-2567479707747.944336,1663174252685.889404,51.394981,-49.668024,31.335167
-2.380000,-1.420000,0.120018,0.040000,-8072972055.994795,10505345192341.685547,-9692790978159.300781,4049203299932.091797,193.334096,-187.210499,76.289338
-2.300000,-1.460000,0.200374,0.040000,-645545840.451198,664622210261.764282,-625622225632.781738,-255868081245.535004,12.301433,-12.007520,-4.820703
-2.260000,-1.460000,0.240312,0.040000,-143310719.949892,214411838370.996460,-202492939997.879761,-4048416938.631410,3.972276,-3.882452,-0.076275
-2.260000,-1.420000,0.240009,0.040000,108383833.366054,140161078117.488068,-124806763607.647507,265841290019.491943,2.553931,-2.438217,5.008604
-2.300000,-1.420000,0.200011,0.040000,-136417208.427215,691031326450.361572,-627459935957.962036,680672921830.010010,12.660114,-12.181025,12.824272
-2.220000,-1.460000,0.280267,0.040000,-8254698.876633,60752674763.455811,-49697078968.190231,22263409147.386868,1.082127,-0.998810,0.419456
-2.180000,-1.460000,0.320234,0.040000,18373765.743521,15900046586.545980,-14571293705.940350,13488616558.882360,0.292056,-0.282042,0.254133
-2.180000,-1.420000,0.320007,0.040000,52703483.526889,-7930905410.204983,11108251602.062746,28453411298.811409,-0.167382,0.191327,0.536079
-2.220000,-1.420000,0.280008,0.040000,93495113.512239,13758884879.884762,-9686577510.019665,102775762071.017532,0.236208,-0.205518,1.936355
2.180000,-1.460000,0.320234,0.040000,-19270894.826309,-1970932584.923197,1477187786.812514,24136409461.996410,-0.034343,0.030622,0.454744
2.220000,-1.460000,0.280267,0.040000,-24199254.335252,-44405590215.077316,31855275264.609200,73413802826.819504,-0.765690,0.671108,1.383159
2.220000,-1.420000,0.280008,0.040000,-143491920.242909,66780128150.812744,-58636046619.330391,108887666422.815933,1.212145,-1.150769,2.051507
2.180000,-1.420000,0.320007,0.040000,-44930803.662552,38020318429.310707,-38980921396.612434,16650366105.027166,0.721754,-0.728994,0.313703
2.260000,-1.460000,0.240312,0.040000,61127447.136922,-247807108085.606537,227753740093.075623,161087327964.405182,-4.555484,4.404358,3.034979
2.300000,-1.460000,0.200374,0.040000,590000270.033908,-1010712969165.124023,930108162194.723145,247607158587.360748,-18.586826,17.979369,4.665062
2.300000,-1.420000,0.200011,0.040000,-681604131.835185,-140676084459.281006,96804362413.156052,1299252037759.754395,-2.402448,2.071821,24.478662
2.260000,-1.420000,0.240009,0.040000,-355227997.358991,85051269318.320450,-92175660686.590317,386950239358.882690,1.642684,-1.696375,7.290367
2.340000,-1.460000,0.160467,0.040000,2917190463.520316,-3845018643720.075684,3558820315625.541016,-108348897586.119690,-70.824738,68.667881,-2.041356
2.380000,-1.460000,0.120623,0.040000,12085196097.489260,-14565480748924.207031,13599352574195.958984,-3247660400445.410645,-268.961377,261.680411,-61.187805
2.380000,-1.420000,0.120018,0.040000,2307660991.237922,-8080121917230.564453,7170625156270.497070,13949614479121.478516,-147.093547,140.239369,262.818824
2.340000,-1.420000,0.160014,0.040000,-675891223.127401,-1581932446990.936035,1377760009865.924805,4231087615430.205566,-28.650506,27.111815,79.716143
2.420000,-1.460000,0.080931,0.040000,47237539198.105202,-53366009372194.601562,37902198638780.492188,-24737074542354.796875,-918.042406,801.503542,-466.060825
2.460000,-1.460000,0.041830,0.040000,184641602745.141327,-150562384012344.750000,44872579624505.484375,-58314612092228.335938,-2239.305442,1442.802568,-1098.681097
2.460000,-1.420000,0.040055,0.040000,96927144537.111740,-90393728338821.296875,52930403570910.929688,71503896973678.765625,-1491.321017,1208.988715,1347.174871
2.420000,-1.420000,0.080027,0.040000,19941101371.835564,-33030251208613.945312,31380070450450.898438,44129336479613.390625,-612.981972,600.545827,831.422281
2.500000,-1.460000,0.012239,0.040000,807402401745.724365,-387142690480041.500000,175992965468964.093750,-91131573002738.640625,-6100.537752,4509.264462,-1716.971665
2.500000,-1.420000,0.002090,0.040000,347657679901.274292,-182491920374443.031250,66393905473065.898438,92932186121181.609375,-2782.047401,1907.105840,1750.896260
-2.500000,-1.380000,0.008060,0.040000,118668179425.755341,-37831475092753.593750,36390971070672.562500,114708871577465.312500,-704.624943,693.768970,2161.181638
-2.500000,-1.340000,0.011642,0.040000,510837535954.474915,-189538121517919.500000,111604695153237.500000,38118836018279.171875,-3130.514807,2543.190435,718.180968
-2.460000,-1.380000,0.040804,0.040000,7895541949.472281,-2589394572206.875000,20363181322282.429688,79690884951613.609375,-149.246229,283.193607,1501.422470
-2.420000,-1.380000,0.080405,0.040000,8088720528.426664,-1202661586872.849121,6254513785699.030273,41198620970097.851562,-51.212789,89.284718,776.205902
-2.420000,-1.340000,0.080843,0.040000,51516731740.559547,-38559184238903.367188,39598297735307.234375,15590194663663.687500,-732.350634,740.181635,293.728305
-2.460000,-1.340000,0.041660,0.040000,151278154617.317444,-88040195700342.000000,68257340068100.984375,28860827066356.316406,-1546.912184,1397.823997,543.754713
-2.380000,-1.380000,0.120270,0.040000,5234039424.840026,-462652231744.217590,858770815351.542358,11945344755597.796875,-10.955567,13.940809,225.057220
-2.340000,-1.380000,0.160203,0.040000,2746062581.481229,-656959402103.683228,681918425079.687378,3681451181646.095703,-12.518569,12.706666,69.360674
-2.340000,-1.340000,0.160423,0.040000,5996769555.964610,-4479893088929.291016,4231526617023.792969,1193381184448.130371,-82.999972,81.128225,22.483993
-2.380000,-1.340000,0.120563,0.040000,17711787300.569016,-12950199682746.654297,12333934421522.710938,5160742700326.917969,-240.506031,235.861713,97.231384
-2.300000,-1.380000,0.200162,0.040000,1264607470.503089,-464991245933.766724,462602837205.996155,1113487153199.962891,-8.747205,8.729205,20.978743
-2.260000,-1.380000,0.240135,0.040000,525294833.117352,-254141978083.573395,250600071557.496521,316098910449.568604,-4.768163,4.741470,5.955487
-2.260000,-1.340000,0.240282,0.040000,553959836.510731,-555958982823.664429,529999877019.658386,-81267061952.650803,-10.327864,10.132230,-1.531119
-2.300000,-1.340000,0.200339,0.040000,1928672021.066125,-1581880347092.604980,1495158533379.702148,131463683345.764709,-29.313376,28.659820,2.476852
-2.220000,-1.380000,0.280116,0.040000,197557458.850390,-122767264031.954407,111156291088.700928,86785554204.003387,-2.247379,2.159876,1.635090
-2.180000,-1.380000,0.320101,0.040000,67122529.308997,-57555571648.777435,54174348383.299896,13053578362.913336,-1.065269,1.039787,0.245937
-2.180000,-1.340000,0.320212,0.040000,6126178.466111,-66292612192.171074,59537398282.005676,-54659214232.595581,-1.210810,1.159901,-1.029811
-2.220000,-1.340000,0.280242,0.040000,121537241.608927,-185330054929.471039,158638219300.690735,-93702294832.535263,-3.340859,3.139703,-1.765406
2.180000,-1.380000,0.320101,0.040000,-13810541.292084,66484625766.081551,-62386385055.979866,-23701454410.825375,1.229445,-1.198560,-0.446549
2.220000,-1.380000,0.280116,0.040000,-147494694.167346,190630943857.641144,-162320008035.060944,-13039768687.765347,3.431579,-3.218221,-0.245677
2.220000,-1.340000,0.280242,0.040000,120137664.745693,118970878173.844681,-99315619805.678284,-252849747550.277985,2.130385,-1.982259,-4.763836
2.180000,-1.340000,0.320212,0.040000,101375997.177358,21935371168.358616,-12409419540.585756,-90304466256.344116,0.359433,-0.287643,-1.701388
2.260000,-1.380000,0.240135,0.040000,-609611062.807148,563755059219.592285,-538636526842.619385,106751114364.417877,10.479498,-10.290199,2.011253
2.300000,-1.380000,0.200162,0.040000,-2025297519.571982,1576529161240.270752,-1493957833480.386719,755903556913.517090,29.236016,-28.613739,14.241661
2.300000,-1.340000,0.200339,0.040000,-1118758657.267131,1787678749776.144287,-1657510823058.327148,-1275344333142.966309,32.945172,-31.964197,-24.028227
2.260000,-1.340000,0.240282,0.040000,-64740762.489901,496527319174.461731,-461156905751.741882,-558429733162.515869,9.154943,-8.888383,-10.521140
2.340000,-1.380000,0.160203,0.040000,-6123630276.750560,4431876803022.782227,-4196178301176.959473,3357895927184.758789,82.166919,-80.390641,63.264706
2.380000,-1.380000,0.120270,0.040000,-17810288088.808727,12789775649014.673828,-11719408645691.724609,12888845671347.960938,234.916887,-226.850353,242.833324
2.380000,-1.340000,0.120563,0.040000,-19833914068.353870,19251682987823.367188,-17658282976012.511719,-6798319127283.698242,353.706694,-341.698462,-128.084273
2.340000,-1.340000,0.160423,0.040000,-5285669188.481197,5988081197063.978516,-5574437584596.139648,-2884349762589.864746,110.480935,-107.363621,-54.342822
2.420000,-1.380000,0.080405,0.040000,-51959257246.181114,36557444347958.515625,-22488475015644.062500,42890030305763.828125,609.243183,-503.216168,808.073035
2.460000,-1.380000,0.040804,0.040000,-158283512667.079956,96112322138614.906250,-12177251800512.056641,79974274050239.171875,1336.396251,-703.842098,1506.761685
2.460000,-1.340000,0.041660,0.040000,-222630614225.116730,137921596667600.515625,-40365973108342.179688,-22310621926154.070312,2047.121485,-1311.919684,-420.345051
2.420000,-1.340000,0.080843,0.040000,-67931981211.802238,56574338141559.640625,-40464565342182.039062,-15454976647436.029297,974.838090,-853.431106,-291.180719
2.500000,-1.380000,0.008060,0.040000,-382623954735.044312,185509257820400.500000,-39315883120169.218750,108252453939808.046875,2668.791580,-1567.044409,2039.538987
2.500000,-1.340000,0.011642,0.040000,-599337802782.721313,267752322437778.312500,-90538833960587.687500,-26304856099120.406250,4042.967517,-2707.445575,-495.598738
-2.500000,-1.300000,0.001493,0.040000,387880101547.327576,-144067242197296.375000,77875152402992.890625,-68410724877573.664062,-2340.181157,1841.342219,-1288.897715
-2.500000,-1.260000,0.008657,0.040000,-40695766367.147736,10229226303426.306641,4469188674547.829102,-106926745832883.953125,109.646556,1.124108,-2014.561878
-2.460000,-1.300000,0.040028,0.040000,131016909605.213760,-76186044711470.328125,53783919531283.781250,-48864618824498.695312,-1308.768541,1139.940931,-920.637746
-2.420000,-1.300000,0.080014,0.040000,41499467605.406219,-34455239414728.007812,33564951940532.148438,-25953668441259.035156,-644.124625,637.415212,-488.982159
-2.420000,-1.260000,0.080467,0.040000,-18410645990.308205,3440342512858.900391,-3225075587096.823242,-43731059024298.734375,63.601321,-61.979020,-823.918503
-2.460000,-1.260000,0.040926,0.040000,-33127676031.801907,7628173850262.514648,-3277423552927.110352,-78786738210724.437500,119.128020,-86.339757,-1484.387821
-2.380000,-1.300000,0.120009,0.040000,12029071089.556540,-11877210725851.835938,11132741744383.185547,-9081035468987.179688,-219.565667,213.955176,-171.091973
-2.340000,-1.300000,0.160007,0.040000,2886962329.207427,-3832516007014.902344,3577037787352.837402,-3628126889499.933105,-70.762816,68.837473,-68.356014
-2.340000,-1.260000,0.160234,0.040000,-5550145633.555411,1267448021311.428955,-1261411291429.464355,-5685815154095.393555,23.845335,-23.799841,-107.124054
-2.380000,-1.260000,0.120312,0.040000,-10331509767.347277,1962900736604.796631,-1883186280933.412354,-15502490643606.291016,36.531628,-35.930881,-292.075911
-2.300000,-1.300000,0.200006,0.040000,341011212.072632,-1152843918522.730469,1067130168926.263306,-1503184555032.288818,-21.235779,20.589820,-28.320868
-2.260000,-1.300000,0.240005,0.040000,-202298793.854438,-301203314568.526550,276813118257.097961,-627824328148.784546,-5.536987,5.353177,-11.828574
-2.260000,-1.260000,0.240156,0.040000,-1348749304.968048,447102351243.415466,-443090528869.542480,-731107465802.101196,8.400992,-8.370758,-13.774488
-2.300000,-1.260000,0.200187,0.040000,-2819614658.708339,778594013153.990967,-770440943624.509277,-2066669037260.446045,14.623080,-14.561637,-38.937243
-2.220000,-1.300000,0.280004,0.040000,-214406915.550897,-38302273163.385063,18297032090.113846,-266067032719.827972,-0.608564,0.457800,-5.012857
-2.180000,-1.300000,0.320003,0.040000,-131562077.157911,17735930702.810917,-15934556984.948992,-93920852817.787766,0.323974,-0.310398,-1.769523
-2.180000,-1.260000,0.320117,0.040000,-243389790.057203,122357265922.852493,-124814705584.835709,-54777891709.475899,2.319172,-2.337692,-1.032047
-2.220000,-1.260000,0.280134,0.040000,-601493291.438409,226567501926.836029,-199338541183.492432,-247792466517.202850,4.114760,-3.909556,-4.668554
2.180000,-1.300000,0.320003,0.040000,222360132.755631,-117408144291.083939,110454218549.502655,-84037903518.360123,-2.172733,2.120326,-1.583323
2.220000,-1.300000,0.280004,0.040000,526936027.438089,-201343749580.666901,191738667621.546326,-307288828924.145020,-3.739143,3.666757,-5.789500
2.220000,-1.260000,0.280134,0.040000,635977379.830927,-448300950990.863220,389822941453.241089,2616349261.010569,-8.115722,7.675018,0.049294
2.180000,-1.260000,0.320117,0.040000,186810950.158678,-194912812087.108643,186154840220.661133,56201527726.091087,-3.622769,3.556767,1.058869
2.260000,-1.300000,0.240005,0.040000,1138111447.234954,-304247757186.667969,308326891910.466003,-867715064161.124023,-5.755260,5.786001,-16.348255
2.300000,-1.300000,0.200006,0.040000,2227077777.353707,-330718729234.349060,354066124053.992981,-2527078727013.362305,-6.362896,6.538847,-47.611628
2.300000,-1.260000,0.200187,0.040000,4972667344.224824,-2841086891500.782227,2714034093649.893555,-1237981907400.943848,-52.809600,51.852100,-23.324297
2.260000,-1.260000,0.240156,0.040000,1848535872.109362,-1145040521482.139893,1105353560203.155518,-278075894117.134094,-21.348910,21.049819,-5.239111
2.340000,-1.300000,0.160007,0.040000,3800327020.180961,164965071972.674988,-69581721119.040329,-7255539456722.680664,2.568914,-1.850083,-136.698569
2.380000,-1.300000,0.120009,0.040000,4955336702.762334,2436503123687.458984,-2073495906479.284180,-20920605819203.027344,43.853351,-41.117645,-394.156342
2.380000,-1.260000,0.120312,0.040000,32911696187.145256,-18698048683664.429688,17507891110131.072266,-13283695832334.927734,-345.555099,336.585796,-250.272530
2.340000,-1.260000,0.160234,0.040000,12872481443.339964,-7191979811858.194336,6851903096342.146484,-4286140364407.667480,-133.578896,131.015999,-80.753369
2.420000,-1.300000,0.080014,0.040000,1771386490.283807,8767417329189.331055,-6032144462001.474609,-54972718481516.351562,149.722987,-129.109337,-1035.717884
2.460000,-1.300000,0.040028,0.040000,-16760333734.909796,21718660339207.234375,-6175805554699.493164,-90018824549360.578125,321.341233,-204.206675,-1696.006839
2.460000,-1.260000,0.040926,0.040000,224723002292.000305,-105972961316512.984375,41294002886163.085938,-57991028874418.789062,-1631.015303,1143.579674,-1092.584602
2.420000,-1.260000,0.080467,0.040000,84889115154.451706,-47627353716156.453125,37493311394168.406250,-34803175595889.453125,-840.047584,763.675092,-655.712004
2.500000,-1.300000,0.001493,0.040000,-37599334430.042137,32407326955614.394531,-5517707444.698811,-114332858464489.515625,427.432166,-183.244618,-2154.097333
2.500000,-1.260000,0.008657,0.040000,521557276146.120239,-189106266907738.843750,72125974959216.921875,-73666065237093.578125,-2901.678741,2020.088135,-1387.911374
-2.500000,-1.220000,0.011045,0.040000,-518617632850.624817,199716193890463.343750,-80021064483185.343750,-33396055891920.984375,3086.231182,-2184.180932,-629.201053
-2.500000,-1.180000,0.000896,0.040000,-468790081313.085144,180656807316857.906250,-60249569130211.468750,79221909274932.359375,2723.116328,-1815.699460,1492.586696
-2.460000,-1.220000,0.041497,0.040000,-181958970869.305542,92939239585565.468750,-51616607675460.585938,-28101990937447.562500,1517.466450,-1206.049513,-529.457800
-2.420000,-1.220000,0.080759,0.040000,-72941634587.256256,40171626362798.875000,-35691738514968.796875,-19553448623618.769531,731.535623,-697.774150,-368.398307
-2.420000,-1.180000,0.080005,0.040000,-71196699934.500275,39512210668328.671875,-27465344693808.308594,26586613957034.992188,676.341973,-585.553998,500.907219
-2.460000,-1.180000,0.040010,0.040000,-184185490607.964661,88156208749984.078125,-23976384003440.574219,52752344014854.460938,1298.158547,-814.484505,993.884742
-2.380000,-1.220000,0.120507,0.040000,-29595951270.007690,15368533190951.513672,-14787802673533.492188,-7632769069677.030273,286.269685,-281.893165,-143.805794
-2.340000,-1.220000,0.160381,0.040000,-11990858095.969517,6188736305770.062500,-5920833451707.119141,-2510182257860.986328,115.085146,-113.066168,-47.293289
-2.340000,-1.180000,0.160003,0.040000,-9375092131.962873,6427185498557.059570,-6125433665553.696289,3525962975182.607910,119.386347,-117.112275,66.431186
-2.380000,-1.180000,0.120003,0.040000,-26593464435.746204,16325649178684.380859,-15563602500548.611328,7594434969919.700195,303.277474,-297.534514,143.083557
-2.300000,-1.220000,0.200305,0.040000,-4762431850.579635,2553784556186.391602,-2447525078596.941895,-694825843472.807373,47.514184,-46.713388,-13.090922
-2.260000,-1.220000,0.240254,0.040000,-1805650624.777227,1066770427505.505981,-1032530203214.975342,-113236678705.890198,19.905042,-19.646999,-2.133445
-2.260000,-1.180000,0.240002,0.040000,-700615063.642763,924083828181.589844,-884891904619.137939,859879291090.280151,17.188755,-16.893396,16.200624
-2.300000,-1.180000,0.200002,0.040000,-2953759822.279174,2475853887402.745117,-2354985410929.715820,1723524671662.145020,45.963353,-45.052460,32.472204
-2.220000,-1.220000,0.280218,0.040000,-622945310.970226,435042747068.880676,-381587624763.800781,18247114213.075558,7.894320,-7.491470,0.343786
-2.180000,-1.220000,0.320191,0.040000,-172342404.142227,190284372047.747498,-183161609734.358948,41483750749.709663,3.544809,-3.491130,0.781578
-2.180000,-1.180000,0.320001,0.040000,155540270.400435,122225339049.199127,-105155947711.254974,209553424118.734924,2.206317,-2.077678,3.948108
-2.220000,-1.180000,0.280001,0.040000,-1110744.242609,329207460250.096863,-288809418179.029541,459447277676.942871,5.974123,-5.669674,8.656253
2.180000,-1.220000,0.320191,0.040000,-105607151.840622,-106216453898.024261,104890870686.978958,181542698022.023193,-1.993687,1.983697,3.420370
2.220000,-1.220000,0.280218,0.040000,80728498.776510,-347780002621.101990,284158237651.785583,427190481242.638855,-6.192776,5.713307,8.048516
2.220000,-1.180000,0.280001,0.040000,-986981170.233805,103126109830.101547,-91539223016.546448,690394555943.311157,1.877465,-1.790143,13.007434
2.180000,-1.180000,0.320001,0.040000,-541261607.371195,95579019806.553391,-111539882645.497131,241325522941.043304,1.890978,-2.011262,4.546713
2.260000,-1.220000,0.240254,0.040000,893591639.546663,-1106249740034.042725,1054610107060.525757,877217569149.445312,-20.550510,20.161342,16.527288
2.300000,-1.220000,0.200305,0.040000,3577487407.589081,-3108536806054.112793,2941948718370.031250,1784278893103.366211,-57.625051,56.369604,33.616849
2.300000,-1.180000,0.200002,0.040000,-2268763200.905039,-483609750558.440979,425023090005.333923,3919621581529.724121,-8.780346,8.338823,73.847943
2.260000,-1.180000,0.240002,0.040000,-1626186399.371016,23154214354.704792,-41577580815.558052,1617437174941.757812,0.540371,-0.679214,30.473454
2.340000,-1.220000,0.160381,0.040000,11528198578.353664,-8507216046636.451172,8063191902269.622070,3711522466477.455566,-157.771180,154.424911,69.927235
2.380000,-1.220000,0.120507,0.040000,33867723467.673290,-22787522705918.464844,21394059755589.171875,8245931971780.201172,-421.454043,410.952583,155.358139
2.380000,-1.180000,0.120003,0.040000,1855836483.659904,-6648516261191.929688,6259808717661.175781,23618785199951.628906,-123.064858,120.135468,444.991605
2.340000,-1.180000,0.160003,0.040000,-2039181441.374690,-2137145397844.214844,1982795563972.346680,9556615354361.109375,-39.392646,38.229430,180.052173
2.420000,-1.220000,0.080759,0.040000,94887703204.890640,-56913529735600.156250,45837515470041.921875,18094160034803.402344,-1009.680335,926.208923,340.904464
2.460000,-1.220000,0.041497,0.040000,258605670646.521942,-120742658900725.390625,52699172402859.453125,26926156746036.890625,-1890.268070,1377.476578,507.304402
2.460000,-1.180000,0.040010,0.040000,60856308031.369949,-36623239823748.000000,23445116852658.710938,85973329039270.031250,-615.518026,516.204636,1619.787359
2.420000,-1.180000,0.080005,0.040000,16946094536.556437,-17427327399349.164062,16122520294361.984375,53981879583351.804688,-320.965954,311.132625,1017.049905
2.500000,-1.220000,0.011045,0.040000,602390855588.651855,-209826254487379.406250,86820848449339.718750,32791480832497.746094,-3258.000326,2331.003063,617.810508
2.500000,-1.180000,0.000896,0.040000,154553572105.306396,-60138865147256.515625,22156056382186.593750,107251482725556.218750,-918.365642,632.118387,2020.680109
-2.500000,-1.140000,0.009254,0.040000,214316625243.652191,-65150885594744.140625,107371434840863.765625,102076576767600.671875,-1466.118340,1784.302190,1923.181881
-2.500000,-1.100000,0.010448,0.040000,413878637345.903198,-170070164738060.593750,48137503105521.039062,-8195111407357.442383,-2515.035886,1596.123074,-154.400650
-2.460000,-1.140000,0.041056,0.040000,-38900595963.465881,8930589631051.558594,51625403537402.562500,77402263751308.406250,-174.015519,630.379526,1458.303520
-2.420000,-1.140000,0.080533,0.040000,-9739216157.715080,4431679226278.372070,10819849169925.765625,44619354409264.109375,-2.708885,117.647940,840.654503
-2.420000,-1.100000,0.080679,0.040000,68991943723.046005,-30771036620902.464844,35830877692496.968750,23027116884600.617188,-608.343270,646.475406,433.844231
-2.460000,-1.100000,0.041342,0.040000,145864051822.444244,-77984488852643.750000,68508678627370.609375,11122575632526.279297,-1415.714051,1344.302148,209.555773
-2.380000,-1.140000,0.120356,0.040000,216548989.280498,4131991931228.018555,-3162776835135.197266,17815673975807.691406,72.370951,-65.066721,335.657626
-2.340000,-1.140000,0.160267,0.040000,2585566996.310056,1470147835511.853760,-1367730761268.052734,7642733632625.163086,27.119558,-26.347720,143.993532
-2.340000,-1.100000,0.160341,0.040000,16586930986.871794,-5209219427985.156250,5047564065901.177734,6632497922977.576172,-97.231010,96.012737,124.960106
-2.380000,-1.100000,0.120454,0.040000,33579625772.767796,-11209712613966.003906,11059877524356.783203,15690186795546.341797,-210.350590,209.221398,295.612215
-2.300000,-1.140000,0.200214,0.040000,2439565819.210105,312620059851.131348,-271576201176.882263,3312605995995.182617,5.657956,-5.348640,62.411417
-2.260000,-1.140000,0.240178,0.040000,1725438568.245720,-53151803447.278481,66873389364.441887,1440291907968.383545,-1.078968,1.182377,27.135934
-2.260000,-1.100000,0.240227,0.040000,4020889564.696836,-1279355999966.943848,1255672281545.560547,1084466645555.276611,-23.969944,23.791458,20.431980
-2.300000,-1.100000,0.200273,0.040000,8207394966.611334,-2545204503888.585449,2473801255219.629883,2731965135357.003418,-47.549545,47.011433,51.471807
-2.220000,-1.140000,0.280153,0.040000,1071925851.304858,-149465969365.673462,160676552997.791443,650411110889.252563,-2.879390,2.963875,12.254122
-2.180000,-1.140000,0.320134,0.040000,613938971.327752,-133219084524.464005,123163304068.850540,250583684653.615295,-2.453088,2.377305,4.721142
-2.180000,-1.100000,0.320171,0.040000,894599459.214838,-336118337867.248657,338136513849.169434,96929480526.334045,-6.344071,6.359281,1.826208
-2.220000,-1.100000,0.280195,0.040000,1928693179.676337,-623904977780.310059,554055433627.439453,400514876893.195496,-11.359930,10.833527,7.545932
2.180000,-1.140000,0.320134,0.040000,-795640609.768232,379513895098.340576,-362756641605.592957,134606731390.124313,7.055547,-6.929260,2.536069
2.220000,-1.140000,0.280153,0.040000,-1834373899.477030,724567831601.687866,-660531391583.853394,457811216802.961609,13.289333,-12.806739,8.625429
2.220000,-1.100000,0.280195,0.040000,-1607771998.624960,932543812182.143188,-827251496030.655396,-312377035780.850037,16.974536,-16.181028,-5.885364
2.180000,-1.100000,0.320171,0.040000,-534824181.111185,441378688060.098633,-421052273933.705688,-215671137912.389862,8.200942,-8.047757,-4.063369
2.260000,-1.140000,0.240178,0.040000,-4047160159.125904,1489654939405.052979,-1456633541120.770508,1179789787847.540283,27.879320,-27.630463,22.227924
2.300000,-1.140000,0.200214,0.040000,-8709455892.908487,3132182858488.453613,-3030524653817.073730,3165063675625.225098,58.437551,-57.671431,59.631634
2.300000,-1.100000,0.200273,0.040000,-10458975756.287464,4972501689212.372070,-4783639091110.697266,-210109521715.900330,92.617330,-91.194018,-3.958585
2.260000,-1.100000,0.240227,0.040000,-4235591046.184070,2171446471708.980225,-2108514108554.820312,-318071487648.986511,40.555606,-40.081333,-5.992651
2.340000,-1.140000,0.160267,0.040000,-18559361093.008545,6812218623433.859375,-6566561184815.527344,8137874199425.789062,126.957649,-125.106318,153.322268
2.380000,-1.140000,0.120356,0.040000,-39743758977.715225,15360124149803.531250,-14452410120749.353516,20336501964957.812500,284.263086,-277.422342,383.151486
2.380000,-1.100000,0.120454,0.040000,-58535752748.943405,26570937828918.347656,-25505878996373.535156,1824940924458.775635,494.591974,-486.565444,34.382945
2.340000,-1.100000,0.160341,0.040000,-24956134436.773804,11460631184443.832031,-11017830025516.738281,340220757821.565491,213.422146,-210.085094,6.409956
2.420000,-1.140000,0.080533,0.040000,-86877834104.357880,33843998643626.812500,-27075208912548.015625,48634938407916.929688,599.382177,-548.371008,916.310434
2.460000,-1.140000,0.041056,0.040000,-196797035102.311981,67794813209927.117188,-26871025500360.640625,79807242069841.515625,1045.985217,-737.574063,1503.614706
2.460000,-1.100000,0.041342,0.040000,-317666570380.762817,116406288104529.640625,-69043534676231.148438,19007282533208.656250,1925.459430,-1568.522738,358.108222
2.420000,-1.100000,0.080679,0.040000,-136398312048.252365,59958057189281.140625,-52993755685091.085938,8209219288332.832031,1090.281112,-1037.796521,154.666450
2.500000,-1.140000,0.009254,0.040000,-346530664603.516296,94665355987435.421875,-29236665053249.207031,102923179174131.812500,1413.735845,-920.650058,1939.132361
2.500000,-1.100000,0.010448,0.040000,-738738451933.276733,209792669119763.031250,-114946245519666.500000,29110206422037.113281,3416.527024,-2701.742382,548.453164
-2.500000,-1.060000,0.000299,0.040000,550017963771.572510,-182578635117996.000000,58344248238158.203125,-108938067520676.265625,-2737.692968,1801.433820,-2052.456345
-2.500000,-1.020000,0.009851,0.040000,-497143408581.147766,238417444492236.875000,-272645256961064.312500,-28952616789070.734375,4685.384416,-4943.333148,-545.484084
-2.460000,-1.060000,0.040001,0.040000,244920700546.933990,-81819581921454.421875,-24886919226374.925781,-60171015322842.750000,-938.404653,134.239717,-1133.656810
-2.420000,-1.060000,0.080001,0.040000,111111722405.162399,-39472927554453.992188,13294286031736.025391,-18544654044424.839844,-595.726603,398.438290,-349.392033
-2.420000,-1.020000,0.080604,0.040000,87563996923.277206,-14417977169363.074219,-20528029316071.968750,-23922314143424.531250,-74.122142,-189.239066,-450.710266
-2.460000,-1.020000,0.041195,0.040000,197759750946.281860,-8455732147326.271484,-122194739802589.265625,-28455053638631.601562,579.148294,-1563.760546,-536.109706
-2.380000,-1.060000,0.120000,0.040000,50427727479.853134,-19903781856714.121094,19154887548837.054688,3037181981349.101074,-370.765908,365.122067,57.222269
-2.340000,-1.060000,0.160000,0.040000,22761270920.959644,-9074677009134.912109,8765726747296.206055,993605433767.649292,-169.225935,166.897614,18.720102
-2.340000,-1.020000,0.160303,0.040000,15375641572.931231,-7624329042736.130859,7360179502431.579102,-5815855426469.641602,-142.153760,140.163068,-109.574088
-2.380000,-1.020000,0.120404,0.040000,37560523432.323021,-15691374217125.064453,13012998666700.242188,-11817686724678.238281,-280.495942,260.311083,-222.652069
-2.300000,-1.060000,0.200000,0.040000,10126625347.198711,-4162512033251.368164,4023449275140.567871,144412760674.971741,-77.638133,76.590124,2.720820
-2.260000,-1.060000,0.240000,0.040000,4382232553.148708,-1922771567078.622314,1875285468988.293945,-130466450595.073975,-35.957731,35.599865,-2.458064
-2.260000,-1.020000,0.240202,0.040000,1877447190.867797,-1469869060980.679932,1426676190188.614014,-1544985144683.799805,-27.449052,27.123540,-29.108416
-2.300000,-1.020000,0.200242,0.040000,5817859498.800149,-3385920681930.707520,3263302065351.125000,-2962214793116.189941,-63.099647,62.175564,-55.809844
-2.220000,-1.060000,0.280000,0.040000,1805601183.604939,-868300928329.270020,771212899348.435303,-141026917972.453705,-15.810534,15.078857,-2.657029
-2.180000,-1.060000,0.320000,0.040000,680545901.634076,-423286127611.898621,413928476859.261475,-110038007686.409348,-7.922065,7.851544,-2.073180
-2.180000,-1.020000,0.320152,0.040000,-125950638.812800,-283611551277.200562,256057933940.045288,-433433161188.804138,-5.187668,4.980018,-8.166132
-2.220000,-1.020000,0.280173,0.040000,369950659.269979,-625140561596.147095,562501433552.693604,-869417236379.517456,-11.423963,10.951900,-16.380325
2.180000,-1.060000,0.320000,0.040000,312634392.197293,172594115035.277344,-178858774863.950836,-434969810315.223755,3.287182,-3.334394,-8.195083
2.220000,-1.060000,0.280000,0.040000,3051777.388852,506056248495.253906,-415080552008.710144,-973329049234.075073,9.020183,-8.334569,-18.338084
2.220000,-1.020000,0.280173,0.040000,2395724883.137520,-280703862458.588867,244929602874.200073,-1246004201640.582275,-5.086421,4.816818,-23.475441
2.180000,-1.020000,0.320152,0.040000,1415392686.693857,-201566700920.948608,227790294227.721497,-504568196269.571655,-3.945854,4.143481,-9.506357
2.260000,-1.060000,0.240000,0.040000,-1219356591.534493,1439738989562.806885,-1388923018609.890625,-1946431472857.053223,26.838296,-26.455336,-36.671897
2.300000,-1.060000,0.200000,0.040000,-4840478340.816627,3555968232339.590820,-3408880457776.008301,-3987064838390.297363,66.165137,-65.056650,-75.118613
2.300000,-1.020000,0.200242,0.040000,6012772809.914509,-379103052623.716492,392861362161.934875,-5675672328235.250000,-7.220286,7.323971,-106.932957
2.260000,-1.020000,0.240202,0.040000,3890429859.303648,-397923371614.707397,404478386734.434143,-2621085548621.961426,-7.534157,7.583557,-49.382771
2.340000,-1.060000,0.160000,0.040000,-14392953895.139669,8482309574705.387695,-8152028727586.643555,-8375798061056.122070,157.944825,-155.455752,-157.804891
2.380000,-1.060000,0.120000,0.040000,-38054613593.949135,19652221840260.093750,-18951948540385.523438,-18182743753260.355469,366.301186,-361.023764,-342.573433
2.380000,-1.020000,0.120404,0.040000,11631256248.646675,566218899960.075928,-874498352122.361816,-26840483328568.074219,12.410341,-14.733607,-505.690266
2.340000,-1.020000,0.160303,0.040000,8722938268.658134,-139069274527.483337,162686218676.281311,-12315693225877.833984,-2.753633,2.931616,-232.034800
2.420000,-1.060000,0.080001,0.040000,-94303657551.252945,45017173302775.500000,-45203204389286.375000,-37473309828327.562500,849.201122,-850.603095,-706.018881
2.460000,-1.060000,0.040001,0.040000,-223775649205.524292,88434740945420.031250,-69339721092823.523438,-57676851369987.117188,1558.233413,-1414.328915,-1086.665316
2.460000,-1.020000,0.041195,0.040000,15573237747.238482,6002432654786.562500,-18450211816500.460938,-100135492722609.156250,183.446324,-277.255674,-1886.610732
2.420000,-1.020000,0.080604,0.040000,13938107431.545322,3265491594808.702637,-6180725621049.782227,-60882058079800.320312,78.001164,-99.971044,-1147.053268
2.500000,-1.060000,0.000299,0.040000,-516607345407.440369,150360636419158.156250,-74116091020831.968750,-70726569586534.281250,2401.934125,-1827.337551,-1332.529572
2.500000,-1.020000,0.009851,0.040000,-119678091492.595627,47310746933668.906250,-51401120192809.312500,-131022726234580.437500,914.481400,-945.307401,-2468.544117
-2.500000,-0.980000,0.009851,0.040000,-15622917009.959055,74702643264973.609375,16324928506619.058594,130427371515543.156250,892.937438,-206.932550,2457.327289
-2.500000,-0.940000,0.000299,0.040000,309376835032.750488,-130577738183187.984375,206794856210999.531250,100191075669620.234375,-2890.952691,3465.342566,1887.657947
-2.460000,-0.980000,0.041195,0.040000,33728421808.827778,19245826888536.292969,-23275087014435.230469,56711564847723.671875,385.376615,-415.742053,1068.478758
-2.420000,-0.980000,0.080604,0.040000,9252808967.574244,-1976548924738.329834,-4091691056256.697266,-351432972379.737122,-2.940580,-42.791084,-6.621201
-2.420000,-0.940000,0.080001,0.040000,-82880640674.755859,2310555998789.604980,44897491095641.507812,-4612366708771.995117,-223.295878,579.066668,-86.899663
-2.460000,-0.940000,0.040001,0.040000,-157268646508.272095,-5959905810401.439453,170774921174203.656250,40415783887229.945312,-1043.851211,2285.935385,761.456798
-2.380000,-0.980000,0.120404,0.040000,-496560144.531685,-4021987936591.141113,3623158498964.231445,-20287261185304.660156,-73.522331,70.516660,-382.223761
-2.340000,-0.980000,0.160303,0.040000,-3392694251.436631,-1651690638194.732178,1575252392795.763916,-9824332848538.693359,-30.686767,30.110711,-185.096126
-2.340000,-0.940000,0.160000,0.040000,-24570640050.827663,5612642447796.443359,-5474428997896.338867,-8837527531587.490234,104.964231,-103.922622,-166.504142
-2.380000,-0.940000,0.120000,0.040000,-44776523570.283813,10095271019466.439453,-8309844787455.407227,-18273869352412.675781,180.109219,-166.653833,-344.290292
-2.300000,-0.980000,0.200242,0.040000,-3529057774.060389,-507758628263.837830,470452274429.564758,-4772758254020.751953,-9.355605,9.074456,-89.921532
-2.260000,-0.980000,0.240202,0.040000,-2794178998.183100,-48519408164.298782,34006919529.483124,-2329836378386.291504,-0.832107,0.722737,-43.895468
-2.260000,-0.940000,0.240000,0.040000,-7490940065.931888,1655109627646.362305,-1633295433995.558838,-1970722160097.848877,31.059927,-30.895530,-37.129548
-2.300000,-0.940000,0.200000,0.040000,-13574156257.143005,3002822842012.288574,-2936594940633.920898,-4206286844775.056641,56.200591,-55.701483,-79.248883
-2.220000,-0.980000,0.280173,0.040000,-1956625484.309671,139273527555.228607,-166077373395.283142,-1178776296720.506592,2.775494,-2.977494,-22.208829
-2.180000,-0.980000,0.320152,0.040000,-1270960962.807485,161955641061.738739,-143837565675.959564,-524866018060.501221,2.948932,-2.812390,-9.888780
-2.180000,-0.940000,0.320000,0.040000,-2210644246.709841,519084522024.997070,-532229879759.102112,-338942654609.380005,9.854153,-9.953220,-6.385876
-2.220000,-0.940000,0.280000,0.040000,-4100385886.229892,884135817357.710938,-791933944293.192017,-907208104169.674316,16.136490,-15.441636,-17.092327
2.180000,-0.980000,0.320152,0.040000,2152352900.587676,-691444454418.262695,665095187385.250610,-321824866880.700378,-12.878284,12.679710,-6.063367
2.220000,-0.980000,0.280173,0.040000,4270879384.266901,-1217306585402.131348,1121974360590.391846,-841065443901.714111,-22.395927,21.677482,-15.846161
2.220000,-0.940000,0.280000,0.040000,4322247610.796556,-1563406067265.438477,1407946519533.545410,272673898371.727539,-28.576792,27.405213,5.137334
2.180000,-0.940000,0.320000,0.040000,1934137652.807498,-831242977898.236572,810277867681.285767,244800754982.538818,-15.542601,15.384603,4.612188
2.260000,-0.980000,0.240202,0.040000,8349843217.631372,-2318001365975.292480,2276715483525.423828,-1812942877454.442139,-43.439135,43.127995,-34.156895
2.300000,-0.980000,0.200242,0.040000,16219396953.131784,-4535077193265.366211,4411481767835.028320,-4132715279394.626465,-84.744901,83.813457,-77.862752
2.300000,-0.940000,0.200000,0.040000,19554588566.215759,-6558467623113.583008,6369486106411.977539,-118930883733.006760,-122.497176,121.072967,-2.240727
2.260000,-0.940000,0.240000,0.040000,9297512107.030270,-3221842941640.627930,3155986536114.301270,150795293039.367767,-60.329157,59.832848,2.841071
2.340000,-0.980000,0.160303,0.040000,31549804157.013065,-9127846583988.082031,8857911668311.833984,-9157828552366.681641,-170.448202,168.413910,-172.538799
2.380000,-0.980000,0.120404,0.040000,61934842059.149986,-19036097646316.996094,18627587590384.105469,-19838370038850.519531,-356.342145,353.263519,-373.766392
2.380000,-0.940000,0.120000,0.040000,83847377746.740707,-27786885206401.363281,26999491271919.160156,-2176748992707.774902,-519.070538,513.136555,-41.011213
2.340000,-0.940000,0.160000,0.040000,40612243660.391678,-13461012266890.244141,13066924854947.560547,-810133444236.288818,-251.385824,248.415890,-15.263384
2.420000,-0.980000,0.080604,0.040000,123619349998.372910,-40967262370425.148438,38447185975186.773438,-45970093593643.562500,-757.603062,738.611182,-866.103213
2.460000,-0.980000,0.041195,0.040000,252452509812.546814,-77101529222665.937500,55477933044048.148438,-77915254561743.015625,-1330.417181,1167.456746,-1467.968564
2.460000,-0.940000,0.040001,0.040000,356710980523.303833,-109808145360840.390625,89088345146742.843750,-6366861653674.679688,-1951.737201,1795.587982,-119.955364
2.420000,-0.940000,0.080001,0.040000,172849774357.244019,-58566747931910.265625,59270290694571.773438,-4106673093089.498047,-1107.408029,1112.710090,-77.372102
2.500000,-0.980000,0.009851,0.040000,622939185482.427124,-162280130830250.906250,106010575396342.875000,-104159549046527.484375,-2739.406427,2315.346009,-1962.426286
2.500000,-0.940000,0.000299,0.040000,746232154737.427734,-182943377837153.250000,95245334496375.328125,-7780811162588.174805,-2951.074700,2290.161909,-146.594993
-2.500000,-0.900000,0.010448,0.040000,516767585016.118713,-135168414345873.906250,409498840839030.625000,-42002572520938.953125,-4097.214565,6164.632272,-791.352816
-2.500000,-0.860000,0.009254,0.040000,-510437946791.283936,265648906238276.031250,48831024821738.773438,-56122491417737.687500,3227.484130,-857.490447,-1057.380273
-2.460000,-0.900000,0.041342,0.040000,-279130274026.555725,49651577678410.742188,215989302963123.250000,-32251967747233.058594,-565.983949,2567.915223,-607.645769
-2.420000,-0.900000,0.080679,0.040000,-142002306915.002930,18358665397978.941406,47038086093039.710938,-23133737712205.792969,-23.745914,516.590998,-435.853029
-2.420000,-0.860000,0.080533,0.040000,-138680646604.254761,35345961307079.976562,22395922010246.273438,-748726237069.303345,339.571235,95.584987,-14.106436
-2.460000,-0.860000,0.041056,0.040000,-275741799572.079163,98572803373500.593750,133730537326772.500000,-26292049485140.183594,544.149877,1206.541966,-495.357454
-2.380000,-0.900000,0.120454,0.040000,-72601676196.728348,19376863306850.925781,-16347515649835.677734,-7290364203640.583984,347.948938,-325.119071,-137.354688
-2.340000,-0.900000,0.160341,0.040000,-37198691202.973473,10491309469112.632812,-10219452111501.115234,-3361971174844.601562,196.125767,-194.076987,-63.341486
-2.340000,-0.860000,0.160267,0.040000,-33882602985.483372,10701236346372.052734,-10427322612616.056641,3978506464700.158691,200.069288,-198.005011,74.957368
-2.380000,-0.860000,0.120356,0.040000,-69029174516.602829,20948358496507.214844,-20191656991372.898438,7218178628090.490234,390.402210,-384.699532,135.994670
-2.300000,-0.900000,0.200273,0.040000,-19020901453.251289,5369859188119.400391,-5234713986694.125977,-1437353642554.696533,100.407396,-99.388910,-27.080576
-2.260000,-0.900000,0.240227,0.040000,-9652940466.292475,2780754057581.288086,-2733621392234.273438,-539726889818.109253,52.124616,-51.769414,-10.168767
-2.260000,-0.860000,0.240178,0.040000,-7593997096.472069,2732604608919.643066,-2682198196103.880859,1358844938949.449707,51.198949,-50.819075,25.601426
-2.300000,-0.860000,0.200214,0.040000,-16294664703.658258,5414364297785.931641,-5273979296862.952148,2288713533910.461914,101.216282,-100.158308,43.120690
-2.220000,-0.900000,0.280195,0.040000,-4826207281.989427,1436084570021.968750,-1307622057186.661621,-214112592675.897186,26.330573,-25.362450,-4.034005
-2.180000,-0.900000,0.320171,0.040000,-2352233134.302032,800829732579.643311,-783720301228.367554,-43786927830.232605,14.991391,-14.862450,-0.824971
-2.180000,-0.860000,0.320134,0.040000,-1357308140.612081,740164830535.956665,-710376663547.185547,530503515961.142456,13.776767,-13.552276,9.994994
-2.220000,-0.860000,0.280153,0.040000,-3362368499.115241,1366922416226.219727,-1244711161767.414307,893980450916.655029,25.062851,-24.141839,16.843110
2.180000,-0.900000,0.320171,0.040000,554666779.622899,-540666959356.506165,547985952872.945374,621637614947.735718,-10.227847,10.283005,11.712013
2.220000,-0.900000,0.280195,0.040000,1996116888.729958,-1140131122182.739014,992953169112.014160,1251350935818.524414,-20.648856,19.539689,23.576177
2.220000,-0.860000,0.280153,0.040000,-2108299930.583030,-201350178251.534393,198064038820.119232,1935652343970.084473,-3.774980,3.750215,36.468812
2.180000,-0.860000,0.320134,0.040000,-1625407135.519942,-56992642703.968208,13198666428.879946,926831302001.263306,-0.826243,0.496202,17.462039
2.260000,-0.900000,0.240227,0.040000,5394226637.975586,-2551600322370.081543,2495145719320.688965,2306639000931.763184,-47.754538,47.329083,43.458416
2.300000,-0.900000,0.200273,0.040000,12981746682.249704,-5336102757864.674805,5179697060662.651367,4302665508559.988770,-99.651237,98.472528,81.064712
2.300000,-0.860000,0.200214,0.040000,-1645495184.938149,-1433836716688.364258,1381796450052.926270,6955289653325.269531,-26.720174,26.327987,131.041689
2.260000,-0.860000,0.240178,0.040000,-2334772160.631016,-549099048843.341370,528279477498.765320,3589514335572.656250,-10.227669,10.070767,67.628531
2.340000,-0.900000,0.160341,0.040000,29357451331.922100,-11030021696641.076172,10717909169700.189453,8243741848704.881836,-206.047889,203.695736,155.316875
2.380000,-0.900000,0.120454,0.040000,63878313518.152008,-22575911352346.746094,22142414168205.117188,16307455547741.904297,-422.893056,419.626121,307.241916
2.380000,-0.860000,0.120356,0.040000,9831961523.643465,-6579595309359.418945,6175696762330.155273,26731391919821.949219,-121.680485,118.636612,503.634920
2.340000,-0.860000,0.160267,0.040000,1418473383.405242,-3254818494613.269043,3161009329424.235840,13580521193448.105469,-60.792442,60.085474,255.864892
2.420000,-0.900000,0.080679,0.040000,135332281445.218964,-45531648134582.640625,44052480084247.695312,36651652321852.328125,-849.482131,838.334778,690.538377
2.460000,-0.900000,0.041342,0.040000,280833492918.148193,-78980344979315.562500,63240210362073.265625,61997790056432.968750,-1399.069507,1280.448202,1168.074305
2.460000,-0.860000,0.041056,0.040000,69189822667.034103,-12986396707531.769531,5700332427017.438477,83991737203074.343750,-203.489140,148.579670,1582.453020
2.420000,-0.860000,0.080533,0.040000,29212619713.070530,-10447856820883.640625,8938256805336.027344,54309913075715.695312,-188.311157,176.934462,1023.230246
2.500000,-0.900000,0.010448,0.040000,655028034380.760864,-151126863077138.687500,107633291766949.250000,82908357522738.078125,-2601.484481,2273.706842,1562.041519
2.500000,-0.860000,0.009254,0.040000,29486819473.053093,18892993294215.761719,-18474534079352.167969,106833242419864.937500,353.589742,-350.436136,2012.800220
-2.500000,-0.820000,0.000896,0.040000,310531881570.371887,-39647081568215.054688,262417643645982.625000,-2698131796273.120117,-2006.111960,3684.962573,-50.834367
-2.500000,-0.780000,0.011045,0.040000,39049775540.289650,-51473021782976.296875,-37917643245457.234375,-54676717749926.601562,-464.529985,-209.138795,-1030.141059
-2.460000,-0.820000,0.040010,0.040000,-150532449679.902771,50021607606846.835938,97695750869478.453125,16733059520891.166016,107.511885,1005.720382,315.260542
-2.420000,-0.820000,0.080005,0.040000,-72690149038.654251,14949184503762.855469,17099719291013.359375,27498136298751.875000,100.505324,141.022646,518.080829
-2.420000,-0.780000,0.080759,0.040000,29500432897.358212,-8793885181380.126953,19485586084574.207031,21513547039769.753906,-226.113248,306.688385,405.327698
-2.460000,-0.780000,0.041497,0.040000,42606452929.099083,-35422737788700.031250,50103283977709.554688,-9584463998653.384766,-750.361915,860.997915,-180.576858
-2.380000,-0.820000,0.120003,0.040000,-33436336752.265980,11543978168691.330078,-9869756070743.248047,18662310931988.625000,208.032246,-195.414920,351.608757
-2.340000,-0.820000,0.160003,0.040000,-14291451376.258127,6213683818383.930664,-6053598704182.389648,9901080744803.808594,116.164576,-114.958138,186.542101
-2.340000,-0.780000,0.160381,0.040000,14747257878.156048,-1016604644368.787598,1007245615024.900879,11948881176447.912109,-19.100522,19.029990,225.123848
-2.380000,-0.780000,0.120507,0.040000,20907950108.333099,-1464853094165.514893,1427612685259.152100,22448926191680.941406,-27.388192,27.107540,422.950783
-2.300000,-0.820000,0.200002,0.040000,-5339760471.468013,3050001122815.182129,-2964836918469.511719,5320967821623.392578,56.982426,-56.340609,100.250118
-2.260000,-0.820000,0.240002,0.040000,-1402602805.058007,1448863806867.686035,-1416940518883.495850,2893292585910.965332,27.116998,-26.876417,54.511310
-2.260000,-0.780000,0.240254,0.040000,6960088455.618831,-595494128693.871216,596604822024.818481,3382139679674.094727,-11.225732,11.234103,63.721472
-2.300000,-0.780000,0.200305,0.040000,10232112197.258856,-773457569681.575806,770863289511.625488,6355831160210.011719,-14.557726,14.538175,119.747544
-2.220000,-0.820000,0.280001,0.040000,156452836.410692,596629521597.654785,-497132607617.470764,1607642181647.926270,10.678472,-9.928640,30.288911
-2.180000,-0.820000,0.320001,0.040000,644233960.468551,241805100721.416534,-261432430829.559967,809718165344.979004,4.666685,-4.814601,15.255560
-2.180000,-0.780000,0.320191,0.040000,3037411962.700229,-276632847889.813477,313787894710.538818,889530564436.406738,-5.421930,5.701939,16.759272
-2.220000,-0.780000,0.280218,0.040000,4641401920.901119,-390477345803.835144,340903390063.426819,1845036648468.666992,-7.076619,6.703018,34.761560
2.180000,-0.820000,0.320001,0.040000,-3769122706.735616,748033289344.918823,-709833855467.654663,836961499644.187866,13.877471,-13.589591,15.768840
2.220000,-0.820000,0.280001,0.040000,-6408648617.558796,1158874330574.175049,-1102450062475.305908,1787713420609.072754,21.514944,-21.089718,33.681557
2.220000,-0.780000,0.280218,0.040000,-8989470317.819132,2011143439056.154297,-1821919036355.392822,723395112050.002686,36.821579,-35.395540,13.629183
2.180000,-0.780000,0.320191,0.040000,-4892003404.329832,1171228080917.229736,-1173256012547.281006,230401151423.516205,22.078078,-22.093361,4.340891
2.260000,-0.820000,0.240002,0.040000,-10854836454.108467,1912446691991.906250,-1890175700924.370605,3356218466250.265137,35.905725,-35.737885,63.233102
2.300000,-0.820000,0.200002,0.040000,-18406989738.103741,3355108007744.812012,-3285755819559.462891,6601972983284.960938,62.820189,-62.297535,124.384998
2.300000,-0.780000,0.200305,0.040000,-30015867007.718441,6948571837956.707031,-6793951112369.471680,3399377374547.672363,130.041178,-128.875921,64.046240
2.260000,-0.780000,0.240254,0.040000,-16434148482.979668,3769256776361.385742,-3715597600708.488770,1650108597939.775879,70.711692,-70.307304,31.089003
2.340000,-0.820000,0.160003,0.040000,-31440798382.883636,6115781404807.712891,-5971563656477.851562,12906670173779.730469,114.409723,-113.322865,243.169148
2.380000,-0.820000,0.120003,0.040000,-54497262768.167076,11616666194737.869141,-11297144272381.886719,25065902102641.707031,217.058732,-214.650741,472.256127
2.380000,-0.780000,0.120507,0.040000,-101195435249.131363,24541332298016.527344,-23813838880371.078125,12997587088384.855469,458.261008,-452.778449,244.882076
2.340000,-0.780000,0.160381,0.040000,-54962820009.904800,13003039673986.416016,-12702858907959.085938,6754574450396.321289,243.288132,-241.025900,127.260098
2.420000,-0.820000,0.080005,0.040000,-96662326104.696930,23204678318180.042969,-22626715342671.371094,44789132839945.890625,433.922844,-429.567181,843.853227
2.460000,-0.820000,0.040010,0.040000,-176866148879.717255,43187477006328.054688,-31795037585511.808594,65231891251723.476562,749.285054,-663.428989,1229.006647
2.460000,-0.780000,0.041497,0.040000,-351497764043.016418,73399242403793.296875,-47473662519053.046875,31841948176059.574219,1236.348391,-1040.967209,599.920763
2.420000,-0.780000,0.080759,0.040000,-187754215272.418457,44819898684864.656250,-40594237696209.945312,23260133627966.660156,820.548703,-788.703142,438.234402
2.500000,-0.820000,0.000896,0.040000,-329574701590.508301,70611371116397.140625,-33320655990688.363281,77481630277842.203125,1119.585559,-838.554082,1459.798831
2.500000,-0.780000,0.011045,0.040000,-603539213165.456909,98940045719253.687500,-57639509861392.328125,37485091714270.617188,1630.650007,-1319.399591,706.240858
-2.500000,-0.740000,0.008657,0.040000,470946106791.579895,-224138129870368.718750,-16280930158294.066406,-164594624164170.218750,-2864.001963,1052.148177,-3101.058136
-2.500000,-0.700000,0.001493,0.040000,-604754262701.535767,191850161188964.531250,-470510239866314.562500,-108658434146391.656250,5189.603482,-7289.650451,-2047.187890
-2.460000,-0.740000,0.040926,0.040000,226716448750.963440,-74135226628995.187500,-89594180515947.953125,-79585506694795.359375,-471.323563,-762.579216,-1499.437083
-2.420000,-0.740000,0.080467,0.040000,127724808191.770493,-25122333570049.597656,-15019754893141.375000,-6308561004036.492188,-246.429263,-56.090824,-118.856946
-2.420000,-0.700000,0.080014,0.040000,184604423052.043457,-11814480698452.496094,-70202034717231.304688,-17421574779615.150391,240.979944,-859.075422,-328.232568
-2.460000,-0.700000,0.040028,0.040000,333127179729.989014,-29254842134846.640625,-286892617257971.750000,-56743942559926.500000,1235.742238,-3618.302801,-1069.088773
-2.380000,-0.740000,0.120312,0.040000,72995968127.084549,-14674213447910.013672,14388538038174.472656,17532591936798.181641,-274.856001,272.703085,330.324196
-2.340000,-0.740000,0.160234,0.040000,42189230340.514076,-8082025129245.426758,7918843604246.125977,9380129417774.230469,-151.347708,150.117934,176.727076
-2.340000,-0.700000,0.160007,0.040000,57205712109.365601,-12341581990995.544922,12093661237654.566406,3246418677599.443848,-231.121268,229.252880,61.164410
-2.380000,-0.700000,0.120009,0.040000,102644351328.279099,-20877338057857.832031,17585238203725.869141,6197389903381.495117,-374.733631,349.923603,116.762418
-2.300000,-0.740000,0.200187,0.040000,24575058264.518059,-4549125934665.514648,4463067339466.221680,4942222308883.754883,-85.221752,84.573194,93.114333
-2.260000,-0.740000,0.240156,0.040000,14376930301.073259,-2612991556688.565430,2584034438639.170410,2570679365571.129395,-49.066605,48.848377,48.433089
-2.260000,-0.700000,0.240005,0.040000,17771351714.922680,-3829423259388.998535,3782195768613.738281,709478993018.842651,-71.881616,71.525699,13.366996
-2.300000,-0.700000,0.200006,0.040000,31906160213.400063,-6844407451943.909180,6709436754213.743164,1583768333892.710205,-128.189726,127.172556,29.839114
-2.220000,-0.740000,0.280134,0.040000,8418807318.999316,-1545000279035.466553,1450062958875.187988,1410920942307.344482,-28.572099,27.856629,26.582568
-2.180000,-0.740000,0.320117,0.040000,4918482394.763384,-977374808512.512207,944061535202.997681,677076300883.613647,-18.226016,17.974959,12.756510
-2.180000,-0.700000,0.320003,0.040000,5427507379.558266,-1261269683730.178711,1255267486875.431152,-20101373143.822098,-23.729127,23.683893,-0.378722
-2.220000,-0.700000,0.280004,0.040000,9858191445.338814,-2112518220404.866455,1929855239628.452393,214637118652.321625,-38.768625,37.392034,4.043888
2.180000,-0.740000,0.320117,0.040000,-4281369366.017972,1267067574068.709961,-1258612817651.578369,-304555155381.897705,23.824500,-23.760783,-5.737996
2.220000,-0.740000,0.280134,0.040000,-8422648235.007730,2232199515682.951660,-2024830084362.035889,-517031234130.162842,40.883845,-39.321061,-9.741168
2.220000,-0.700000,0.280004,0.040000,-4397521196.478011,1652363768764.446289,-1529529233571.274170,-1961795453470.657715,30.437209,-29.511500,-36.961364
2.180000,-0.700000,0.320003,0.040000,-1823781516.467751,943082628567.303833,-894163596641.885986,-1089117927862.375122,17.491725,-17.123059,-20.519613
2.260000,-0.740000,0.240156,0.040000,-16254739736.338940,4236006809517.206543,-4174039085696.308594,-866418977410.326294,79.458572,-78.991568,-16.323836
2.300000,-0.740000,0.200187,0.040000,-30985940722.339100,7885242914891.107422,-7711409942772.870117,-1320382861286.870117,147.580013,-146.269968,-24.876779
2.300000,-0.700000,0.200006,0.040000,-19877542848.550732,5836993683996.393555,-5709908127030.179688,-5709221543313.985352,109.254035,-108.296289,-107.565044
2.260000,-0.700000,0.240005,0.040000,-9611055374.540218,3101518747353.231934,-3054962333421.519043,-3225790517123.215820,58.171266,-57.820406,-60.775763
2.340000,-0.740000,0.160234,0.040000,-58609167790.698593,14736095615312.380859,-14411143080447.921875,-2151402609068.993652,275.799896,-273.350978,-40.533672
2.380000,-0.740000,0.120312,0.040000,-110324608352.803711,27508537066700.480469,-26857612108917.089844,-3875169877984.954102,514.597644,-509.692123,-73.010447
2.380000,-0.700000,0.120009,0.040000,-77271782739.547028,20094610015854.453125,-19739143805980.125000,-18817038656893.832031,376.584945,-373.906069,-354.523917
2.340000,-0.700000,0.160007,0.040000,-39682903116.378769,10891491240409.400391,-10663361562400.548828,-10277215807488.300781,203.912580,-202.193342,-193.628704
2.420000,-0.740000,0.080467,0.040000,-207047283211.787811,49907085599163.398438,-46638869849037.726562,-5197372937968.090820,921.805901,-897.175869,-97.921519
2.460000,-0.740000,0.040926,0.040000,-387705734871.033752,80670523450644.390625,-58263451474370.625000,-3577927477874.272949,1393.230760,-1224.365869,-67.410228
2.460000,-0.700000,0.040028,0.040000,-277396181547.242432,62878427169540.687500,-57556708525091.656250,-44684364367289.617188,1154.586740,-1114.481034,-841.879329
2.420000,-0.700000,0.080014,0.040000,-147601317626.633759,37397218302108.539062,-38923513258282.460938,-31911209568729.050781,713.212157,-724.714670,-601.225688
2.500000,-0.740000,0.008657,0.040000,-705886861171.472656,119311746579983.859375,-78210204509314.218750,-894371795804.005859,2015.589408,-1705.838656,-16.850483
2.500000,-0.700000,0.001493,0.040000,-529552901070.656921,98109526876874.281250,-60394642312821.085938,-51584084295270.070312,1635.269275,-1351.041159,-971.874052
-2.500000,-0.660000,0.011642,0.040000,-619561428711.589233,191667121904165.406250,-475171709639728.375000,81936351584986.453125,5213.536923,-7350.093236,1543.728363
-2.500000,-0.620000,0.008060,0.040000,317742843656.253357,-190646000939429.156250,-75340329784501.250000,152900881811383.062500,-2088.480177,83.945511,2880.741252
-2.460000,-0.660000,0.041660,0.040000,325052335902.819275,-26608590637641.562500,-299421482873546.562500,41175293876774.742188,1341.457403,-3798.495639,775.766406
-2.420000,-0.660000,0.080843,0.040000,178873009813.158600,-10480045077434.398438,-74693718049598.421875,11960855254619.007812,283.966797,-925.856027,225.349447
-2.420000,-0.620000,0.080405,0.040000,111481573206.673019,-21910288430617.511719,-25430326561875.695312,4206247005969.749023,-145.225147,-211.544706,79.248132
-2.460000,-0.620000,0.040804,0.040000,206585885910.356171,-69412421109840.453125,-121617566559846.343750,73297310526025.765625,-228.035540,-1211.610744,1380.963822
-2.380000,-0.660000,0.120563,0.040000,97908928402.998016,-20762796476570.406250,17485743800090.695312,-7155441926893.031250,-372.660650,347.964022,-134.812674
-2.340000,-0.660000,0.160423,0.040000,53243273249.159615,-12340884795820.193359,12098504273965.857422,-4194095487592.819824,-231.139447,229.312811,-79.019190
-2.340000,-0.620000,0.160203,0.040000,30285527663.991165,-8175664184685.591797,8017420063391.626953,-10386030545429.916016,-153.139829,151.947265,-195.678836
-2.380000,-0.620000,0.120270,0.040000,58890202378.581726,-14618870753634.812500,14098531626381.375000,-18168331981097.031250,-272.486952,268.565556,-342.301907
-2.300000,-0.660000,0.200339,0.040000,28704146464.815979,-6819911570131.708008,6684702763541.371094,-2526736477852.030762,-127.726864,126.707899,-47.605180
-2.260000,-0.660000,0.240282,0.040000,15289759437.313749,-3771317959846.555176,3723005137983.947266,-1565637034833.992432,-70.780744,70.416648,-29.497509
-2.260000,-0.620000,0.240135,0.040000,7029197334.769369,-2416843560334.978027,2383495961231.441895,-3479505911353.872559,-45.346247,45.094932,-65.555908
-2.300000,-0.620000,0.200162,0.040000,15008790010.773190,-4471973617560.970703,4381246435192.471191,-5980853506851.333008,-83.741770,83.058029,-112.682747
-2.220000,-0.660000,0.280242,0.040000,8005435380.030447,-2027748153746.010986,1837991828847.458008,-939150510746.763184,-37.131415,35.701367,-17.694140
-2.180000,-0.660000,0.320212,0.040000,4086561098.472374,-1167639901383.071045,1170230359230.466797,-533264205446.262939,-22.013654,22.033177,-10.047007
-2.180000,-0.620000,0.320101,0.040000,1014909990.042543,-765925091237.710693,717456284833.955566,-1206470445870.470703,-14.156519,13.791246,-22.730603
-2.220000,-0.620000,0.280116,0.040000,2981990724.529732,-1318011473290.963379,1230499682759.449707,-2144994511069.853027,-24.337468,23.677959,-40.412940
2.180000,-0.660000,0.320212,0.040000,1894345685.868577,33092300602.767319,-74461858096.877441,-1355838270293.271484,0.857306,-1.169077,-25.544779
2.220000,-0.660000,0.280242,0.040000,2090323866.300191,242653563436.342468,-161472482787.239716,-2608607502768.294922,4.112884,-3.501085,-49.147678
2.220000,-0.620000,0.280116,0.040000,9046596203.063395,-1118764776900.568848,998108988002.306030,-2451709755289.079102,-20.396209,19.486919,-46.191633
2.180000,-0.620000,0.320101,0.040000,5750331453.701740,-700984344267.868530,744262596424.236938,-1229273594825.540527,-13.451568,13.777723,-23.160227
2.260000,-0.660000,0.240282,0.040000,1759737276.628180,764415795975.658203,-748799222625.595215,-4548801999937.151367,14.313769,-14.196079,-85.702067
2.300000,-0.660000,0.200339,0.040000,177027078.700590,1607176525447.725342,-1568828093415.050537,-8156382825876.257812,30.063385,-29.774383,-153.670981
2.300000,-0.620000,0.200162,0.040000,22684730666.802685,-3280143319219.502930,3222516737179.397949,-7839610281367.577148,-61.474086,61.039799,-147.702802
2.260000,-0.620000,0.240135,0.040000,14278334054.476858,-1959911087423.495117,1941424297981.453613,-4357021590343.284180,-36.821371,36.682050,-82.088813
2.340000,-0.660000,0.160423,0.040000,-4035786502.372544,3130151061024.112305,-3069357981965.069336,-14703623606628.281250,58.630248,-58.172097,-277.024793
2.380000,-0.660000,0.120563,0.040000,-13348177720.748432,5856120164724.859375,-6047426920495.448242,-26636620543198.390625,111.413998,-112.855730,-501.849373
2.380000,-0.620000,0.120270,0.040000,59438468465.116493,-10237296913354.035156,10184919179027.740234,-25170235663411.937500,-192.580560,192.185830,-474.221831
2.340000,-0.620000,0.160203,0.040000,36431817020.422691,-5675118528880.851562,5563638992929.905273,-14069454309143.621094,-106.292421,105.452286,-265.076675
2.420000,-0.660000,0.080843,0.040000,-31916110944.730457,11978205682055.003906,-14506791346550.416016,-50358406481398.109375,239.968345,-259.024353,-948.781571
2.460000,-0.660000,0.041660,0.040000,-66197592619.962257,20116350453999.085938,-28336584071310.789062,-75654128359443.531250,425.465894,-487.415481,-1425.367636
2.460000,-0.620000,0.040804,0.040000,169315490268.454468,-35960735411328.179688,23835121185044.609375,-71919702649610.046875,-608.985022,517.603581,-1355.008890
2.420000,-0.620000,0.080405,0.040000,99031416836.428421,-19678110973941.789062,17691377989036.777344,-47481539623785.000000,-359.517658,344.545178,-894.579732
2.500000,-0.660000,0.011642,0.040000,-250008889647.071991,64315885710499.640625,-60581591170932.773438,-95034621478201.937500,1190.641689,-1162.499180,-1790.507361
2.500000,-0.620000,0.008060,0.040000,377297166414.307739,-85484088730784.984375,54510429643398.085938,-91178947177945.562500,-1435.501280,1202.076603,-1717.864222
-2.500000,-0.580000,0.002090,0.040000,-61563014996.480270,-46563539837748.320312,-78668847876232.171875,59960129557305.117188,-169.448849,-774.331464,1129.683600
-2.500000,-0.540000,0.012239,0.040000,206381150256.112427,-21603600674870.343750,237207351819885.187500,31004609444797.671875,-1625.654258,3250.494122,584.144816
-2.460000,-0.580000,0.040055,0.040000,17386486419.142254,-37637544475185.015625,15531330559993.148438,12766194769161.076172,-584.164991,417.567437,240.522510
-2.420000,-0.580000,0.080027,0.040000,3667777182.825619,-8407417376078.179688,9324955942774.662109,-20153190579509.777344,-163.586705,170.501488,-379.697794
-2.420000,-0.540000,0.080931,0.040000,-111143663069.253433,12435431442107.601562,12322708588360.240234,-26012000881061.660156,94.353424,92.229660,-490.081176
-2.460000,-0.540000,0.041830,0.040000,-183034290384.682556,46701420108989.203125,75082798768159.843750,-2260711133014.588379,191.536243,726.257870,-42.593108
-2.380000,-0.580000,0.120018,0.040000,-2854979410.191064,-2422007655676.462891,2186931818195.469971,-23328614273140.570312,-44.303339,42.531753,-439.524617
-2.340000,-0.580000,0.160014,0.040000,-5263794905.555585,-1291776543278.899414,1261834013663.002686,-13344169912997.859375,-24.168579,23.942925,-251.411897
-2.340000,-0.540000,0.160467,0.040000,-42787390615.337219,6107008787382.639648,-6007400574166.480469,-12214918224889.771484,114.496583,-113.745912,-230.136140
-2.380000,-0.540000,0.120623,0.040000,-68528308925.255013,9747552818393.525391,-8416284548645.328125,-21292838470943.402344,176.124986,-166.092240,-401.169420
-2.300000,-0.580000,0.200011,0.040000,-5560989378.382676,-565151735787.651123,545906414009.930054,-7640554161296.769531,-10.539008,10.393971,-143.952470
-2.260000,-0.580000,0.240009,0.040000,-4924629601.413009,-178190538724.950043,169690128051.805756,-4386876518165.908691,-3.309167,3.245106,-82.651297
-2.260000,-0.540000,0.240312,0.040000,-17126282274.057570,2255076160302.307617,-2237294434935.322266,-3973735662321.978027,42.386437,-42.252430,-74.867483
-2.300000,-0.540000,0.200374,0.040000,-26975606086.814632,3671771677397.897949,-3616383137273.428223,-6978915929415.814453,68.865241,-68.447820,-131.486822
-2.220000,-0.580000,0.280008,0.040000,-3988056516.046389,79746301503.627213,-132775274906.828293,-2591123811158.706055,1.802196,-2.201834,-48.818275
-2.180000,-0.580000,0.320007,0.040000,-3057672052.719826,160816716842.136444,-118194421918.953064,-1389821300523.881348,2.788972,-2.467760,-26.185039
-2.180000,-0.540000,0.320234,0.040000,-6984615429.840171,848684645331.533691,-888695541806.154297,-1165912731504.748535,16.215859,-16.517391,-21.966472
-2.220000,-0.540000,0.280267,0.040000,-10923273459.284130,1328582778349.350098,-1199186948823.296143,-2277833336785.363770,24.299902,-23.324745,-42.915701
2.180000,-0.580000,0.320007,0.040000,8448463816.270815,-1542600514309.719727,1502635411917.146973,-825002595657.325562,-28.837598,28.536412,-15.543527
2.220000,-0.580000,0.280008,0.040000,14146786773.496325,-2443208739091.348145,2281003458349.386230,-1590431637869.547119,-45.114657,43.892240,-29.964654
2.220000,-0.540000,0.280267,0.040000,15514294305.078543,-2916777797203.522461,2683786894208.165527,104456698243.936157,-53.636879,51.881006,1.968025
2.180000,-0.540000,0.320234,0.040000,8950675101.935333,-1791464833714.549561,1778314779575.283203,183085276886.547729,-33.677910,33.578808,3.449433
2.260000,-0.580000,0.240009,0.040000,23766449163.895889,-4154087951975.931641,4109886566521.247070,-2706838922865.151367,-78.015591,77.682479,-50.998414
2.300000,-0.580000,0.200011,0.040000,40122855360.786797,-7176231867371.983398,7047360977683.643555,-4921937785542.906250,-134.475968,133.504767,-92.732161
2.300000,-0.540000,0.200374,0.040000,46478129237.716499,-8856586559103.892578,8700852735401.867188,-396730022769.568115,-165.982990,164.809344,-7.474624
2.260000,-0.540000,0.240312,0.040000,26853460958.913872,-5109316906963.723633,5054970724605.323242,-129198092736.166077,-95.955318,95.545753,-2.434167
2.340000,-0.580000,0.160014,0.040000,68164825352.506531,-12563695724037.394531,12330537776574.316406,-8820275072763.621094,-235.389461,233.632329,-166.179096
2.380000,-0.580000,0.120018,0.040000,116677179374.279388,-22199933681521.515625,21765363052440.085938,-15566271887973.117188,-415.803351,412.528326,-293.277586
2.380000,-0.540000,0.120623,0.040000,139697868755.951385,-26970803581425.007812,26470306542493.980469,-1418254635377.153564,-505.316678,501.544817,-26.720740
2.340000,-0.540000,0.160467,0.040000,80517897499.068268,-15444613972754.341797,15171342521091.576172,-833323056037.996094,-289.440903,287.381466,-15.700289
2.420000,-0.580000,0.080027,0.040000,201390453905.181030,-39919067684952.343750,39190133520939.984375,-25646949686693.839844,-747.978314,742.484897,-483.203400
2.460000,-0.580000,0.040055,0.040000,350673090786.824219,-67683869423104.484375,52776682472447.414062,-36529928240185.031250,-1190.945324,1078.601306,-688.245025
2.460000,-0.540000,0.041830,0.040000,422673657836.444580,-71017985543494.000000,53938804430175.320312,1298084776728.923340,-1241.485516,1112.772846,24.456670
2.420000,-0.540000,0.080931,0.040000,242798972742.465546,-46084658753265.765625,43601967940904.398438,-890229753412.522339,-854.229086,835.518953,-16.772445
2.500000,-0.580000,0.002090,0.040000,608273973757.851929,-102848736783101.312500,52909403571418.000000,-43283380040052.984375,-1655.464027,1279.109632,-815.483972
2.500000,-0.540000,0.012239,0.040000,728889003105.646362,-103243056856026.437500,72089356797286.609375,3287223007332.687500,-1769.072911,1534.291404,61.933187
-2.500000,-0.500000,0.007463,0.040000,-604475761708.432495,311094035656336.437500,70562445845202.968750,122109199689150.765625,3704.003168,-827.751423,2300.608110
-2.500000,-0.460000,0.002687,0.040000,672547380034.484619,-198311081078798.750000,553937509674023.437500,95074084155802.609375,-5746.358153,8426.441383,1791.250861
-2.460000,-0.500000,0.040690,0.040000,-334576845266.693298,102524309348879.515625,155890141096412.281250,59752728649881.687500,471.014007,1476.457214,1125.776047
-2.420000,-0.500000,0.080347,0.040000,-198252199914.502167,31463827328490.828125,31896216269173.675781,5369433651267.917969,234.674761,242.821220,101.163243
-2.420000,-0.460000,0.080045,0.040000,-231868993509.103455,10945491221571.560547,80372359219823.921875,23710845503090.402344,-309.924972,998.117468,446.726075
-2.460000,-0.460000,0.040090,0.040000,-393768453606.312378,36041679903473.726562,322417035221537.187500,54233069031718.265625,-1347.024855,4048.452853,1021.782460
-2.380000,-0.500000,0.120232,0.040000,-118181796802.451401,20119781833324.199219,-19699578413785.468750,-12903745412701.650391,376.693291,-373.526540,-243.114044
-2.340000,-0.500000,0.160174,0.040000,-70848251833.122437,11793246649477.601562,-11600205715706.519531,-7420532212616.176758,221.100503,-219.645701,-139.807129
-2.340000,-0.460000,0.160023,0.040000,-80637979462.781586,14158133477356.173828,-13930342228850.380859,-418925770288.667603,265.459927,-263.743239,-7.892804
-2.380000,-0.460000,0.120030,0.040000,-136671170242.829971,22438984631637.738281,-18909616193248.539062,-869887164332.556030,402.814874,-376.216735,-16.389178
-2.300000,-0.500000,0.200139,0.040000,-42687070514.620964,6955417036535.774414,-6844318992014.064453,-4194648233340.583008,130.416144,-129.578883,-79.029604
-2.260000,-0.500000,0.240116,0.040000,-25828971905.448906,4144008973412.796875,-4106365067512.603027,-2337139873248.069824,77.862761,-77.579068,-44.033070
-2.260000,-0.460000,0.240015,0.040000,-28122808871.451233,4922451402435.329102,-4876496616531.458984,64449124928.893021,92.482094,-92.135768,1.214259
-2.300000,-0.460000,0.200018,0.040000,-47614059911.616859,8327400941027.152344,-8193928654158.121094,-101750537885.731995,156.138653,-155.132775,-1.917039
-2.220000,-0.500000,0.280099,0.040000,-15679842894.615580,2495146976247.848145,-2333192462381.763672,-1399270122597.563232,46.094620,-44.874094,-26.363060
-2.180000,-0.500000,0.320087,0.040000,-9539130282.001099,1604873981507.965576,-1570614034638.228760,-741142594880.050659,30.043113,-29.784922,-13.963556
-2.180000,-0.460000,0.320011,0.040000,-9786533396.918671,1807129585926.282471,-1794591172155.719482,254186149981.261169,33.976500,-33.882007,4.789014
-2.220000,-0.460000,0.280013,0.040000,-16602828016.011988,2880661846465.898926,-2661059026722.468262,226084656476.041962,53.032106,-51.377128,4.259566
2.180000,-0.500000,0.320087,0.040000,6827861241.698076,-1517249060458.847900,1531014550217.489990,835294098142.160645,-28.663657,28.767397,15.737425
2.220000,-0.500000,0.280099,0.040000,12342623754.058643,-2536225511885.811035,2307621871725.371582,1517952788319.751709,-46.491851,44.769041,28.599111
2.220000,-0.460000,0.280013,0.040000,5170477843.951538,-1524420377146.531982,1441578608432.970947,2855944511885.683594,-28.252728,27.628413,53.807650
2.180000,-0.460000,0.320011,0.040000,2420618008.516113,-945658068601.349854,887207648753.428711,1624493544691.119873,-17.486374,17.045878,30.606400
2.260000,-0.500000,0.240116,0.040000,22069207835.567223,-4532883350074.219727,4485379513571.791992,2574669168659.302246,-85.133650,84.775650,48.508260
2.300000,-0.500000,0.200139,0.040000,39145117373.103836,-7858920540532.862305,7724358510191.874023,4305179845994.929199,-147.306051,146.291960,81.112084
2.300000,-0.460000,0.200018,0.040000,19654534110.066250,-4546628132053.867188,4470643892888.851562,7785795421689.536133,-85.231634,84.658999,146.688899
2.260000,-0.460000,0.240015,0.040000,10300559926.814240,-2605149641720.004883,2577747419063.261719,4596674894441.246094,-48.927647,48.721138,86.604020
2.340000,-0.500000,0.160174,0.040000,69005601192.096817,-13627369253176.105469,13397560247253.556641,7334649295761.067383,-255.448616,253.716722,138.189045
2.380000,-0.500000,0.120232,0.040000,121028463105.734161,-23487368821274.808594,23015665814958.625000,12730147867553.244141,-439.849497,436.294634,239.843366
2.380000,-0.460000,0.120030,0.040000,65912144948.366661,-13424016653667.906250,13289910780540.207031,22780009398606.468750,-252.158266,251.147613,429.188583
2.340000,-0.460000,0.160023,0.040000,36401047014.713806,-7857389653590.881836,7732803116128.178711,13279469428162.482422,-147.333591,146.394678,250.192902
2.420000,-0.500000,0.080347,0.040000,211308610178.442993,-39029505290921.695312,37739815367031.218750,20838160887724.062500,-728.048954,718.329551,392.603031
2.460000,-0.500000,0.040690,0.040000,367266154107.072266,-57366254057033.921875,46653805218041.984375,26332689788122.273438,-1020.264858,939.533360,496.123141
2.460000,-0.460000,0.040090,0.040000,204845432746.391815,-36349000406243.914062,40335617629757.484375,48497167384759.804688,-707.369293,737.413365,913.714748
2.420000,-0.460000,0.080045,0.040000,117155469847.189972,-23397479365262.792969,25929535562118.160156,35948197470438.578125,-455.133697,474.215860,677.284880
2.500000,-0.500000,0.007463,0.040000,598117877878.692871,-69592654031481.531250,52680000077308.578125,29119395295709.019531,-1215.572684,1088.115002,548.626288
2.500000,-0.460000,0.002687,0.040000,377941624157.047424,-55964153660662.421875,43708449861623.031250,54790768055830.062500,-985.125729,892.763903,1032.289833
-2.500000,-0.420000,0.012836,0.040000,636297058120.251221,-204225917691820.875000,494773153832655.312500,-92647796271100.671875,-5489.958190,7679.589535,-1745.538191
-2.500000,-0.380000,0.006866,0.040000,-293767060186.909302,184500331981165.343750,83725131530115.328125,-169089600340622.812500,1960.036244,61.373047,-3185.746093
-2.460000,-0.420000,0.042009,0.040000,-344626531552.010254,17284924336115.113281,320086450201664.687500,-43912868292281.968750,-1581.223687,4123.732597,-827.343895
-2.420000,-0.420000,0.081023,0.040000,-201867557976.126526,5802304849555.604492,83176202022047.234375,-9556226875094.882812,-393.603208,1064.165869,-180.044854
-2.420000,-0.380000,0.080294,0.040000,-115736001203.433487,18200601526305.906250,28177687068909.410156,-4922969398098.765625,80.771731,268.745806,-92.751597
-2.460000,-0.380000,0.040585,0.040000,-200986275407.963501,64166464229722.710938,123721148310647.703125,-81555313790680.625000,146.959922,1269.004694,-1536.549390
-2.380000,-0.420000,0.120685,0.040000,-117805362921.411957,19864817327472.078125,-16641411223375.523438,11222177594212.730469,356.045422,-331.753087,211.432331
-2.340000,-0.420000,0.160514,0.040000,-68480422632.920357,12602780809249.917969,-12403429262730.746094,6790798592352.046875,236.316927,-234.814567,127.942582
-2.340000,-0.380000,0.160147,0.040000,-36775974073.231438,7616146191858.872070,-7496308261701.984375,12247828924955.048828,142.815265,-141.912138,230.756197
-2.380000,-0.380000,0.120196,0.040000,-65753164387.564507,12839701083112.353516,-12414633666914.296875,20381305482966.160156,239.504857,-236.301450,383.995611
-2.300000,-0.420000,0.200411,0.040000,-39630695165.009933,7402470641609.032227,-7283916117102.729492,4142036217695.837402,138.796747,-137.903293,78.038364
-2.260000,-0.420000,0.240343,0.040000,-22809918403.329224,4350794866812.492676,-4309501909006.583496,2560096186400.445801,81.738103,-81.426909,48.233696
-2.260000,-0.380000,0.240098,0.040000,-10777329011.998346,2567299841799.109375,-2541505266721.698242,4462108222393.038086,48.223622,-48.029228,84.068706
-2.300000,-0.380000,0.200118,0.040000,-20170656781.203091,4437010063142.455078,-4364510322168.562012,7373021466889.331055,83.186061,-82.639686,138.911999
-2.220000,-0.420000,0.280294,0.040000,-13035806269.897713,2482225292247.090820,-2264541776690.374512,1555133522135.640381,45.536178,-43.895665,29.299617
-2.180000,-0.420000,0.320257,0.040000,-7378782279.172526,1510592467017.515381,-1526829383060.681152,881866722294.105347,28.552212,-28.674577,16.614880
-2.180000,-0.380000,0.320074,0.040000,-2685377663.224880,954597277192.950439,-897949367579.810913,1649851401018.185303,17.664982,-17.238070,31.084157
-2.220000,-0.380000,0.280084,0.040000,-5544531715.497922,1519169658688.973877,-1438075135658.449463,2833359865786.794922,28.163677,-27.552530,53.382142
2.180000,-0.420000,0.320257,0.040000,-3234750485.477353,226556686177.612091,-170381861979.981079,1802875268999.129883,3.950949,-3.527603,33.967215
2.220000,-0.420000,0.280294,0.040000,-4256904651.003829,210063484712.791382,-256110933287.647003,3254701657554.206055,4.217986,-4.565010,61.320466
2.220000,-0.380000,0.280084,0.040000,-13477873663.424768,1654723876808.570312,-1493140633064.574951,2768826751867.313477,30.262661,-29.044932,52.166301
2.180000,-0.380000,0.320074,0.040000,-8685478908.154152,1041618611604.059204,-1087792513724.763672,1488505013145.248779,19.885681,-20.233659,28.044297
2.260000,-0.420000,0.240343,0.040000,-5480267582.895654,108092084338.964142,-109070833156.289825,5358389365154.763672,2.042050,-2.049426,100.955162
2.300000,-0.420000,0.200411,0.040000,-6875337769.856366,73274629659.765701,-72900790375.586945,9079255970065.292969,1.378423,-1.375606,171.058446
2.300000,-0.380000,0.200118,0.040000,-33289144182.685909,4687254247355.701172,-4614760653566.418945,7881682978608.283203,87.900841,-87.354512,148.495476
2.260000,-0.380000,0.240098,0.040000,-21084178750.026367,2842472308029.439941,-2818454224954.774414,4657919361335.331055,53.418072,-53.237066,87.757901
2.340000,-0.420000,0.160514,0.040000,-8389282871.061914,58141220876.979210,-51251099739.488342,15412320070194.634766,1.056470,-1.004545,290.377045
2.380000,-0.420000,0.120685,0.040000,-10009206536.052591,43834515345.856277,262196672704.292389,26190926927859.097656,-0.903874,3.210196,493.452246
2.380000,-0.380000,0.120196,0.040000,-85698622630.309464,13406392955663.294922,-13297662272901.248047,22394480497228.640625,251.969650,-251.150231,421.924995
2.340000,-0.380000,0.160147,0.040000,-53107760401.685074,7857402312855.489258,-7730113373964.541016,13305830825536.677734,147.318555,-146.359276,250.689566
2.420000,-0.420000,0.081023,0.040000,-11985180975.866507,-1655491178340.843262,5359432860218.250000,45993994809582.632812,-52.125736,80.039499,866.553525
2.460000,-0.420000,0.042009,0.040000,-15436109236.235537,-3711765867345.462891,18052658377361.082031,65984718182955.875000,-150.989039,259.065331,1243.190343
2.460000,-0.380000,0.040585,0.040000,-231604755036.236450,39912646437480.484375,-24208193219189.085938,59754991425875.054688,663.213096,-544.860695,1125.818679
2.420000,-0.380000,0.080294,0.040000,-139990046197.942932,23432826812646.253906,-20501174920207.808594,40198662292461.851562,424.917835,-402.824227,757.366101
2.500000,-0.420000,0.012836,0.040000,101124115284.019104,-38618951403565.960938,45230015637372.382812,81059789711732.812500,-764.970317,814.792830,1527.213429
2.500000,-0.380000,0.006866,0.040000,-444750079119.974182,83070549741775.906250,-49919355027931.960938,75382734430153.062500,1377.720996,-1127.885905,1420.254417
-2.500000,-0.340000,0.003284,0.040000,40261098714.959801,55867784385755.093750,60321018048414.992188,-68438942870812.335938,395.862127,479.763631,-1289.429358
-2.500000,-0.300000,0.013433,0.040000,-220803871280.346130,24773362072482.222656,-259699256655364.312500,-34251598180572.765625,1794.586516,-3565.042533,-645.319966
-2.460000,-0.340000,0.040135,0.040000,-1091936625.277233,35938599721753.007812,-26169320185730.875000,-17533436837008.941406,621.886386,-548.262830,-330.340114
-2.420000,-0.340000,0.080067,0.040000,4223954231.259719,7180002855954.410156,-11359188823024.978516,18795247627967.496094,158.896902,-190.392217,354.113361
-2.420000,-0.300000,0.081120,0.040000,127254820555.041840,-11914325314876.861328,-16386585382954.849609,25890147583790.496094,-64.511127,-148.771099,487.785389
-2.460000,-0.300000,0.042195,0.040000,203574698969.559326,-47256787080230.945312,-88692139327114.062500,359957524428.215027,-121.938288,-902.604345,6.781808
-2.380000,-0.340000,0.120045,0.040000,6396666369.962493,1080057635976.120117,-992944768776.338867,24194388046284.378906,19.856535,-19.200032,455.836297
-2.340000,-0.340000,0.160034,0.040000,6743161325.838916,566720550254.128296,-554005664054.359375,14536212194563.464844,10.605477,-10.509655,273.870665
-2.340000,-0.300000,0.160563,0.040000,51129528882.668968,-6702735133206.124023,6608912448123.329102,13105734839920.343750,-125.753113,125.046044,246.919642
-2.380000,-0.300000,0.120749,0.040000,80301362792.183853,-10293726511872.648438,8897959843693.326172,21810122314976.480469,-186.050659,175.531838,410.915348
-2.300000,-0.340000,0.200027,0.040000,6163997517.229054,223509788557.974762,-214683039873.528748,8729955520986.172852,4.161164,-4.094643,164.477423
-2.260000,-0.340000,0.240022,0.040000,5213864274.339878,34782814329.000099,-30634455934.021198,5251680254550.890625,0.631881,-0.600618,98.944700
-2.260000,-0.300000,0.240376,0.040000,21242476869.889381,-2592985471980.601074,2575134221031.127930,4708100904393.726562,-48.752451,48.617920,88.703350
-2.300000,-0.300000,0.200451,0.040000,32828958531.786610,-4141893394096.322754,4086244216039.182129,7859723480593.612305,-77.721134,77.301749,148.081747
-2.220000,-0.340000,0.280019,0.040000,4200765633.763201,-139331938604.972046,191345052023.191711,3244881138495.705566,-2.919082,3.311065,61.135442
-2.180000,-0.340000,0.320017,0.040000,3275104925.539345,-189494535664.364532,134854995109.591034,1834333051166.479248,-3.261355,2.849578,34.559898
-2.180000,-0.300000,0.320282,0.040000,9082225289.214624,-994857103404.828369,1043680777839.872437,1559222566248.312012,-19.019644,19.387591,29.376657
-2.220000,-0.300000,0.280322,0.040000,13843892960.300743,-1548775644013.255127,1399945891793.324707,2843565773197.457031,-28.338619,27.217004,53.574428
2.180000,-0.340000,0.320017,0.040000,-12459687014.078667,1920640622768.199707,-1881308363469.649902,977511075841.157104,35.963670,-35.667253,18.416875
2.220000,-0.340000,0.280019,0.040000,-19998141647.952415,2955278372321.345703,-2766714365887.788086,1713478014135.195557,54.613361,-53.192299,32.282919
2.220000,-0.300000,0.280322,0.040000,-21969531626.043690,3366256492078.252930,-3118775742449.973633,-136145196109.537933,62.023420,-60.158347,-2.565054
2.180000,-0.300000,0.320282,0.040000,-13467031903.293953,2151514628234.366699,-2140786920405.452881,-175599201828.340485,40.475148,-40.394301,-3.308391
2.260000,-0.340000,0.240022,0.040000,-32284090472.427876,4856977978236.226562,-4815819476060.646484,2699612825826.561035,91.275646,-90.965466,50.862271
2.300000,-0.340000,0.200027,0.040000,-52427936416.066360,8053971824178.736328,-7932046615012.850586,4577092065033.843750,151.052356,-150.133499,86.235068
2.300000,-0.300000,0.200451,0.040000,-59058151437.777679,9321990263805.687500,-9184164016989.171875,82800952617.283646,174.852683,-173.813992,1.560018
2.260000,-0.300000,0.240376,0.040000,-35961599597.367500,5628558549879.770508,-5581825911826.781250,13972160914.980604,105.781165,-105.428977,0.263244
2.340000,-0.340000,0.160034,0.040000,-85648835247.901047,13466554980951.513672,-13259529637596.142578,7689484725328.850586,252.547559,-250.987368,144.874350
2.380000,-0.340000,0.120045,0.040000,-140739976942.219879,22601438055100.355469,-22228955539883.000000,12783537471742.498047,423.718859,-420.911745,240.849257
2.380000,-0.300000,0.120749,0.040000,-160689628419.979340,25824799791243.425781,-25429467086941.929688,140194101498.154022,484.319710,-481.340391,2.641338
2.340000,-0.300000,0.160563,0.040000,-97284836315.033859,15512504765421.894531,-15282760091747.044922,153600870570.071014,290.966026,-289.234617,2.893929
2.420000,-0.340000,0.080067,0.040000,-232562592308.672638,38314425005077.679688,-37245785236284.273438,20288522539221.667969,715.825841,-707.772323,382.247526
2.460000,-0.340000,0.040135,0.040000,-386285637085.913208,62272113598196.007812,-47919964733174.921875,28873911939080.886719,1092.121879,-983.960757,544.001239
2.460000,-0.300000,0.042195,0.040000,-441135510560.706055,62557475625229.031250,-49244296928339.937500,-2396758934287.062012,1103.370705,-1003.039503,-45.156328
2.420000,-0.300000,0.081120,0.040000,-266019629890.497589,42150725563055.632812,-40233787103945.976562,-714675590961.431152,783.309235,-768.862743,-13.464902
2.500000,-0.340000,0.003284,0.040000,-633249160314.334717,90930372166604.578125,-46635363871020.906250,34523802174992.230469,1462.817835,-1129.000381,650.448447
2.500000,-0.300000,0.013433,0.040000,-728042651852.681274,88583794764245.937500,-64563051905506.554688,-3521224855118.712891,1533.200630,-1352.174742,-66.341918
-2.500000,-0.260000,0.006269,0.040000,623074128458.708862,-325903233656932.687500,-89741514420350.859375,-130823175680231.875000,-3790.909449,658.514246,-2464.784469
-2.500000,-0.220000,0.003881,0.040000,-709408992892.071289,215114521931011.718750,-595222328888670.500000,-101037998150133.234375,6201.317728,-9065.898302,-1903.614458
-2.460000,-0.260000,0.040488,0.040000,361455405617.098389,-105501934978746.312500,-172645850743344.343750,-64391688202310.921875,-415.577957,-1680.608254,-1213.176734
-2.420000,-0.260000,0.080245,0.040000,222181670486.134796,-30490349222420.671875,-37573576276606.695312,-6057322987045.167969,-189.746711,-323.198815,-114.123477
-2.420000,-0.220000,0.080094,0.040000,265097759734.106598,-8416881915594.264648,-90038262135513.484375,-23613100290361.652344,397.906662,-1139.887458,-444.884498
-2.460000,-0.220000,0.040188,0.040000,433449723892.520569,-32199744282400.121094,-352232060845885.625000,-56255947123397.617188,1566.213571,-4463.380799,-1059.894656
-2.380000,-0.260000,0.120164,0.040000,137168246517.081238,-20280078476578.894531,19889275999795.675781,13885156073213.189453,-379.879552,376.934373,261.604390
-2.340000,-0.260000,0.160123,0.040000,85082200667.478439,-12357226608557.873047,12183025388464.574219,8355233695001.236328,-231.832697,230.519877,157.417446
-2.340000,-0.220000,0.160047,0.040000,99803355597.409317,-15010878089552.919922,14800125948651.277344,1486306135727.092285,-281.622437,280.034160,28.002869
-2.380000,-0.220000,0.120063,0.040000,162454891977.523987,-22900285087503.257812,19225274992855.242188,2534769497001.062988,-410.682850,382.987122,47.756527
-2.300000,-0.260000,0.200098,0.040000,53039390779.675819,-7548864837533.030273,7443785615879.020508,4981968464176.972656,-141.631064,140.839162,93.863174
-2.260000,-0.260000,0.240082,0.040000,33238630579.717098,-4644580752468.147461,4609795742592.987305,2954827852779.260254,-87.309983,87.047835,55.670670
-2.260000,-0.220000,0.240031,0.040000,38024306814.945107,-5598892848529.026367,5556089966557.051758,418389131347.009460,-105.244458,104.921885,7.882694
-2.300000,-0.220000,0.200038,0.040000,61497343314.430237,-9145917956875.386719,9017812792728.964844,811464063206.791138,-171.590324,170.624893,15.288453
-2.220000,-0.260000,0.280070,0.040000,20944148279.176670,-2885692807873.289551,2711389016052.419434,1877981040781.165039,-53.382930,52.069336,35.382251
-2.180000,-0.260000,0.320061,0.040000,13271880903.001797,-1907659464849.119141,1867818827617.962402,1079507746097.495605,-35.716224,35.415976,20.338552
-2.180000,-0.220000,0.320024,0.040000,14711043022.082939,-2190085179391.573975,2185188101495.692139,-50196276306.921951,-41.234795,41.197890,-0.945727
-2.220000,-0.220000,0.280027,0.040000,23601359110.953930,-3389564500588.531250,3142742666388.986328,99604198513.641357,-62.466280,60.606174,1.876601
2.180000,-0.260000,0.320061,0.040000,-11293952105.283165,1846650124519.867188,-1865771254033.115479,-889432273754.024536,34.900035,-35.044136,-16.757420
2.220000,-0.260000,0.280070,0.040000,-18681676584.411823,2934703430120.630371,-2693355380935.175781,-1609316344309.800293,53.927373,-52.108518,-30.320453
2.220000,-0.220000,0.280027,0.040000,-10746596706.786434,1909539985685.989258,-1813624802387.669678,-3038604869971.041504,35.434711,-34.711872,-57.249077
2.180000,-0.220000,0.320024,0.040000,-6318932916.394619,1255535580986.786377,-1197403082603.504395,-1783795338111.740967,23.326443,-22.888343,-33.607738
2.260000,-0.260000,0.240082,0.040000,-30919290020.490078,4973689355309.294922,-4933430095718.968750,-2698698708189.381348,93.479638,-93.176235,-50.845048
2.300000,-0.260000,0.200098,0.040000,-51200285839.366386,8216815167312.362305,-8098250338286.525391,-4422714363348.333008,154.139412,-153.245880,-83.326502
2.300000,-0.220000,0.200038,0.040000,-30562985095.389313,5069455549164.919922,-4998444836892.155273,-7809600948101.800781,95.110116,-94.574963,-147.137409
2.260000,-0.220000,0.240031,0.040000,-18168627513.205505,3075449234275.968750,-3051271993702.286621,-4754048113482.384766,57.806592,-57.624387,-89.569022
2.340000,-0.260000,0.160123,0.040000,-84812667396.145996,13602948271759.900391,-13408426296796.937500,-7322079289225.658203,255.187959,-253.721996,-137.952218
2.380000,-0.260000,0.120164,0.040000,-140492169933.650574,22442083262823.691406,-22065970164471.121094,-12233151431115.791016,420.696002,-417.861526,-230.479665
2.380000,-0.220000,0.120063,0.040000,-85319450633.135300,13692487292451.812500,-13592524596111.873047,-21304401449923.273438,257.409392,-256.656050,-401.387274
2.340000,-0.220000,0.160047,0.040000,-51178620317.946060,8342895232387.882812,-8228926726144.509766,-12881111402877.755859,156.540813,-155.681920,-242.687606
2.420000,-0.260000,0.080245,0.040000,-232623205656.757263,35939649778754.328125,-35548621827309.609375,-18868352483088.898438,674.913678,-671.966801,-355.490699
2.460000,-0.260000,0.040488,0.040000,-384782173196.588562,50809292262961.328125,-44764773292783.328125,-22473712026642.765625,923.111848,-877.558952,-423.417763
2.460000,-0.220000,0.040188,0.040000,-233792181945.218689,35028765967415.812500,-42138559434046.484375,-42036045200336.992188,700.148047,-753.729099,-791.983460
2.420000,-0.220000,0.080094,0.040000,-141581266028.768341,23245614634606.347656,-26478356749459.601562,-32161289317480.589844,456.232876,-480.595570,-605.937335
2.500000,-0.260000,0.006269,0.040000,-608399533514.288208,60087408151021.726562,-50405789672563.609375,-23652271379422.949219,1077.359411,-1004.396490,-445.622504
2.500000,-0.220000,0.003881,0.040000,-415709565163.243103,53946760357467.695312,-46445537331741.343750,-46412380262381.070312,973.990022,-917.459065,-874.436150
-2.500000,-0.180000,0.014030,0.040000,-700262454287.965332,219324725337627.187500,-564999288228414.000000,93584968653594.078125,6086.017717,-8691.101379,1763.195062
-2.500000,-0.140000,0.005672,0.040000,413648781677.593750,-250548208161478.187500,-105614960624668.890625,153981997447698.531250,-2707.377316,23.249087,2901.110097
-2.460000,-0.180000,0.042389,0.040000,401855214551.303223,-21704144499173.773438,-353502719684780.125000,46509375727328.289062,1711.815785,-4539.461718,876.263601
-2.420000,-0.180000,0.081221,0.040000,244949870172.545685,-5363474504343.363281,-92469965984020.343750,13700843209048.236328,451.920651,-1189.216145,258.131829
-2.420000,-0.140000,0.080201,0.040000,165902282267.079834,-22371816451191.945312,-37673677630404.390625,4124825809969.631836,-82.110416,-370.406351,77.714109
-2.460000,-0.140000,0.040400,0.040000,273810880751.715637,-83390735351554.656250,-160802329033894.875000,74221957620744.500000,-190.908128,-1649.387429,1398.384709
-2.380000,-0.180000,0.120817,0.040000,149361821387.132782,-21365331495854.824219,17838578456342.195312,-9311683636995.468750,-382.601410,356.022981,-175.437518
-2.340000,-0.180000,0.160614,0.040000,91160415358.917068,-14033843483570.849609,13837254963192.996094,-5817011282233.542969,-263.294594,261.813058,-109.595865
-2.340000,-0.140000,0.160100,0.040000,60672637929.285088,-9670272162835.970703,9533852121230.902344,-11797931418512.365234,-181.422464,180.394371,-222.279867
-2.380000,-0.140000,0.120134,0.040000,100375134184.889633,-15830586084554.544922,15374892832508.662109,-19127824496999.953125,-295.681761,292.247551,-360.379302
-2.300000,-0.180000,0.200491,0.040000,55718910082.425102,-8536234207352.714844,8416191191138.638672,-3631507457905.395508,-160.149097,159.244425,-68.419706
-2.260000,-0.180000,0.240410,0.040000,34122183092.526482,-5208789962039.736328,5168452592447.714844,-2283682757291.495605,-97.908629,97.604637,-43.025907
-2.260000,-0.140000,0.240067,0.040000,22140086870.643070,-3555021230087.887207,3526751099995.047852,-4495512231974.015625,-66.818873,66.605823,-84.698057
-2.300000,-0.140000,0.200080,0.040000,36654602256.686691,-5858554052526.110352,5775081433308.528320,-7271859367184.827148,-109.906753,109.277684,-137.006046
-2.220000,-0.180000,0.280351,0.040000,20945882225.065430,-3110961474629.021973,2864680599468.557617,-1380622435670.343262,-57.220295,55.364266,-26.011727
-2.180000,-0.180000,0.320307,0.040000,12893126633.078842,-1979925436934.038330,1995341506128.224609,-775923702624.419434,-37.390077,37.506256,-14.618852
-2.180000,-0.140000,0.320050,0.040000,8080306425.717005,-1445562223014.978760,1389251250840.597656,-1747327645566.531006,-26.916951,26.492578,-32.920666
-2.220000,-0.140000,0.280057,0.040000,13373842511.685572,-2199028903183.914062,2080633297364.953125,-2923974110179.754395,-40.761787,39.869530,-55.089367
2.180000,-0.180000,0.320307,0.040000,376380359.612678,31983743926.136494,-92633469343.352692,-2023752531860.113770,0.945395,-1.402465,-38.128671
2.220000,-0.180000,0.280351,0.040000,57849357.757819,151486297825.203552,-83568293665.551620,-3531745853157.831543,2.470205,-1.958359,-66.540139
2.220000,-0.140000,0.280057,0.040000,11232959565.613054,-1349068237732.237793,1204921872539.087158,-3210193314364.510742,-24.602487,23.516167,-60.481903
2.180000,-0.140000,0.320050,0.040000,7271818985.680855,-836111701161.935181,889403388103.238403,-1818449683463.834473,-16.054043,16.455662,-34.260646
2.260000,-0.180000,0.240410,0.040000,-649592525.095358,419509158311.348572,-416562965939.136292,-5651538901342.021484,7.887143,-7.864940,-106.478269
2.300000,-0.180000,0.200491,0.040000,-2034683040.434001,698470838037.632690,-690397692901.994019,-9267771569640.080078,13.113965,-13.053124,-174.610189
2.300000,-0.140000,0.200080,0.040000,27586100960.072266,-3812206880237.843750,3757478011086.314941,-8482120915495.852539,-71.514851,71.102401,-159.808075
2.260000,-0.140000,0.240067,0.040000,17520135337.013710,-2337477900645.567383,2319324465242.090332,-5187071532072.776367,-43.936832,43.800024,-97.727435
2.340000,-0.180000,0.160614,0.040000,-4549429829.356979,1117809765816.371094,-1107823293314.914307,-15223538303806.984375,21.003739,-20.928478,-286.820287
2.380000,-0.180000,0.120817,0.040000,-8867325794.862095,1856448464903.047119,-2129377294248.909912,-25029981543755.507812,36.519206,-38.576061,-471.579362
2.380000,-0.140000,0.120134,0.040000,70281830071.941895,-10465430956072.693359,10402670858151.021484,-22681275077886.234375,-196.820055,196.347080,-427.328371
2.340000,-0.140000,0.160100,0.040000,43837137518.432274,-6280936805184.603516,6188737366754.981445,-13873645014422.513672,-117.815363,117.120527,-261.387515
2.420000,-0.180000,0.081221,0.040000,-15926407057.664808,4923390715395.433594,-9137080033175.574219,-42567055858296.984375,116.576040,-148.331380,-801.988009
2.460000,-0.180000,0.042389,0.040000,-26903907275.219948,8362046581258.021484,-24110852995027.242188,-59969484344305.820312,246.560798,-365.247455,-1129.859850
2.460000,-0.140000,0.040400,0.040000,185177824484.571838,-31072438561534.492188,13936877169357.539062,-57245691651414.664062,-488.569582,359.432018,-1078.542017
2.420000,-0.140000,0.080201,0.040000,113630275609.493103,-17783118935925.820312,14210846054195.781250,-39377267168483.140625,-314.853162,287.931685,-741.890541
2.500000,-0.180000,0.014030,0.040000,-168495549417.123901,44360880394235.851562,-52383427291281.585938,-73023137036727.750000,881.129533,-941.589307,-1375.798234
2.500000,-0.140000,0.005672,0.040000,350697912238.877930,-67992574087992.570312,35056310947917.917969,-71418934634987.890625,-1094.858024,846.642708,-1345.574131
-2.500000,-0.100000,0.004478,0.040000,-174074017200.927979,-17452336679793.542969,-170740074343702.812500,53382102578598.617188,734.884096,-2153.145744,1005.749759
-2.500000,-0.060000,0.014627,0.040000,90313526317.155869,10012355658620.099609,157445504770840.906250,50932958068272.320312,-757.862365,2019.863632,959.606456
-2.460000,-0.100000,0.040250,0.040000,79136825675.196838,-41391046946848.203125,-38107424888987.742188,8839541435354.445312,-330.492131,-268.626788,166.542085
-2.420000,-0.100000,0.080125,0.040000,46128147412.853661,-7878056907436.687500,-5644458006688.352539,-23191789636022.816406,-71.995553,-29.913255,-436.946761
-2.420000,-0.060000,0.081326,0.040000,-86557152813.768555,11369413911603.919922,-153239163709.070007,-23358677519445.468750,150.810579,-66.282885,-440.091026
-2.460000,-0.060000,0.042590,0.040000,-136953364771.472488,44564888128679.984375,26409961586733.804688,9535256990602.707031,438.466133,96.416792,179.649769
-2.380000,-0.100000,0.120084,0.040000,26595658858.338070,-4608944851177.713867,3862535980648.399414,-24475646102614.976562,-82.616360,76.991250,-461.135361
-2.340000,-0.100000,0.160063,0.040000,15135195132.819334,-2956835476669.379395,2912002050659.246582,-15032626742260.205078,-55.455088,55.117213,-283.223402
-2.340000,-0.060000,0.160667,0.040000,-34994077163.030380,4529598792350.607422,-4472655934869.589844,-14747471015443.500000,85.018416,-84.589282,-277.850903
-2.380000,-0.060000,0.120888,0.040000,-54916066816.537018,6872638912361.822266,-6115341692326.556641,-24061223696061.890625,125.204126,-119.496958,-453.327403
-2.300000,-0.100000,0.200050,0.040000,8475345085.141426,-1742881117712.638916,1715579916940.146484,-9232635653928.214844,-32.682579,32.476831,-173.948208
-2.260000,-0.100000,0.240042,0.040000,4646569698.107633,-1022054325642.885986,1012461357864.951782,-5679478196401.636719,-19.201875,19.129580,-107.004662
-2.260000,-0.060000,0.240445,0.040000,-14425462473.128326,1795350476120.073486,-1784030922563.378418,-5541747102603.200195,33.761464,-33.676157,-104.409728
-2.300000,-0.060000,0.200534,0.040000,-22407919606.007809,2842947205099.122559,-2807563189324.360352,-9035445696036.271484,53.362777,-53.096115,-170.233035
-2.220000,-0.100000,0.280036,0.040000,2472963111.043079,-500025074541.584412,405244937599.684509,-3567183029064.429199,-8.885048,8.170763,-67.207796
-2.180000,-0.100000,0.320031,0.040000,1258113857.684240,-249818758981.249176,309294593393.699768,-2057951304944.453857,-5.042898,5.491122,-38.772996
-2.180000,-0.060000,0.320334,0.040000,-6086490472.571733,645849855545.267334,-704834483993.352173,-1974431836505.892334,12.501577,-12.946099,-37.199440
-2.220000,-0.060000,0.280382,0.040000,-9340812608.146460,1041342011951.573975,-918930015634.293701,-3455133325085.205078,18.927593,-18.005068,-65.096715
2.180000,-0.100000,0.320031,0.040000,12778684642.333866,-1861457987163.215332,1815501306827.632812,-1361141483209.379395,-34.811192,34.464852,-25.644695
2.220000,-0.100000,0.280036,0.040000,20172899651.998837,-2814728688289.577148,2648815868220.605957,-2280539026434.593262,-52.093352,50.842995,-42.966677
2.220000,-0.060000,0.280382,0.040000,24793249476.635052,-3429547457402.408203,3177312146904.490234,-515438105687.375977,-63.188984,61.288081,-9.711153
2.180000,-0.060000,0.320334,0.040000,15622162621.884802,-2220072915366.955566,2221810399746.648926,-238045927770.047211,-41.837281,41.850375,-4.484923
2.260000,-0.100000,0.240042,0.040000,32062986856.514572,-4531419833872.970703,4497182585689.423828,-3489384182441.581543,-85.181062,84.923042,-65.742021
2.300000,-0.100000,0.200050,0.040000,51276959365.851860,-7380572807992.958984,7277715099495.642578,-5682129603880.112305,-138.472901,137.697741,-107.054616
2.300000,-0.060000,0.200534,0.040000,63477723204.995712,-9177164716939.958984,9051371597239.214844,-1565514743544.505859,-172.192099,171.244093,-29.495205
2.260000,-0.060000,0.240445,0.040000,39572484978.644829,-5647334564812.367188,5605515582687.800781,-977731475717.059326,-106.162689,105.847531,-18.421028
2.340000,-0.100000,0.160063,0.040000,82460091141.838776,-12091547980328.195312,11921963167499.417969,-9242477939309.078125,-226.853251,225.575220,-174.133642
2.380000,-0.100000,0.120084,0.040000,133253823852.952728,-19821665794108.742188,19496096146561.757812,-14997465239461.087891,-371.611498,369.157930,-282.560939
2.380000,-0.060000,0.120888,0.040000,165336375203.563599,-24437069367266.925781,24038162452408.632812,-3932431319558.576172,-458.153862,455.147607,-74.089286
2.340000,-0.060000,0.160667,0.040000,102262166046.921448,-14981222226963.308594,14775605104828.925781,-2490830615196.978516,-281.092728,279.543149,-46.928693
2.420000,-0.100000,0.080125,0.040000,216237415099.669586,-32506382846296.507812,30445807347793.695312,-23365159265947.195312,-600.792366,585.263391,-440.213146
2.460000,-0.100000,0.040250,0.040000,352112505791.016724,-52235152393390.867188,36039269888559.945312,-32950288375585.859375,-892.598608,770.542682,-620.802535
2.460000,-0.060000,0.042590,0.040000,435615733912.655823,-56420680075822.046875,41603425088854.710938,-8358326331578.980469,-979.248618,867.582349,-157.475713
2.420000,-0.060000,0.081326,0.040000,268084917435.390839,-38743433019679.257812,36236236576603.015625,-6264958164721.883789,-715.777628,696.882814,-118.035444
2.500000,-0.100000,0.004478,0.040000,553667649160.554443,-73770826695958.312500,32999950270266.171875,-39204182289285.968750,-1159.441057,852.182278,-738.629521
2.500000,-0.060000,0.014627,0.040000,682211042598.230103,-74132480876337.765625,49425974029701.382812,-9852715259898.560547,-1257.053442,1070.859477,-185.630867
-2.500000,-0.020000,0.005075,0.040000,-557282580791.762695,167332123477594.593750,4038788077213.077637,80309351184152.546875,2184.016015,-892.525087,1513.074732
-2.500000,0.020000,0.005075,0.040000,698619394011.674561,-327351985274240.250000,522550794621018.687500,-29178459666207.136719,-7270.798790,8741.862281,-549.739095
-2.460000,-0.020000,0.040321,0.040000,-324080849452.082886,47607720415708.453125,129753055016808.140625,33281343777564.593750,-105.516897,1442.148828,627.039810
-2.420000,-0.020000,0.080161,0.040000,-201169145074.720459,21636765367041.710938,27431163618657.601562,-2300319297580.375488,130.308734,239.478557,-43.339349
-2.420000,0.020000,0.080161,0.040000,-270689380814.729797,12248906007120.515625,43975120118633.796875,-13111132243526.126953,-87.011484,510.728782,-247.021332
-2.460000,0.020000,0.040321,0.040000,-438226308142.161499,13781320439781.732422,212101921067335.281250,-23388255542322.921875,-1017.083299,2719.391786,-440.648293
-2.380000,-0.020000,0.120107,0.040000,-125135236840.653259,17857284292140.847656,-17546236539051.642578,-17942017471081.171875,334.683492,-332.339364,-338.038010
-2.340000,-0.020000,0.160080,0.040000,-78052526729.694077,11034665102950.183594,-10888651490310.697266,-10986276958127.109375,207.074193,-205.973801,-206.987827
-2.340000,0.020000,0.160080,0.040000,-103908381469.209976,15022587647090.861328,-14820271607289.119141,-4597984594513.853516,281.890735,-280.366034,-86.628695
-2.380000,0.020000,0.120107,0.040000,-167501359454.099518,22722152355629.929688,-19207398441304.875000,-7627355373124.135742,408.232522,-381.744522,-143.703797
-2.300000,-0.020000,0.200064,0.040000,-48852196907.996140,6818811141836.558594,-6728617750203.842773,-6707612210821.219727,127.960566,-127.280848,-126.375303
-2.260000,-0.020000,0.240054,0.040000,-30702164872.391220,4232034070801.495117,-4202369504092.510742,-4100114756236.652344,79.566306,-79.342747,-77.248539
-2.260000,0.020000,0.240054,0.040000,-40401763315.074265,5707282322259.186523,-5666067166518.917969,-1680506096353.226807,107.295552,-106.984945,-31.661709
-2.300000,0.020000,0.200064,0.040000,-64666015630.033661,9240332173787.154297,-9115840745539.175781,-2775678366140.319824,173.389568,-172.451371,-52.295390
-2.220000,-0.020000,0.280046,0.040000,-19388114047.627838,2666211473319.989258,-2519479185056.225098,-2653016437775.711914,49.403613,-48.297805,-49.984368
-2.180000,-0.020000,0.320040,0.040000,-12310394440.855480,1782259482556.964111,-1731146542456.228516,-1572705856442.989746,33.289903,-32.904704,-29.630690
-2.180000,0.020000,0.320040,0.040000,-16000923584.916958,2244873863460.390625,-2254319676608.577148,-473689835712.611694,42.348114,-42.419300,-8.924591
-2.220000,0.020000,0.280046,0.040000,-25358563760.041687,3467182088120.881348,-3207105106918.937988,-938950714495.766113,63.853720,-61.893720,-17.690376
2.180000,-0.020000,0.320040,0.040000,15143743537.583778,-2131363834686.757568,2141847430545.543701,503821721149.202454,-40.215385,40.294392,9.492293
2.220000,-0.020000,0.280046,0.040000,24023925031.277523,-3296568257393.103027,3047499730677.567871,985191796947.382690,-60.701478,58.824440,18.561585
2.220000,0.020000,0.280046,0.040000,18053367740.275394,-2495579775455.026855,2359858585284.873047,2606845686478.827148,-46.251050,45.228224,49.114484
2.180000,0.020000,0.320040,0.040000,11453150551.242878,-1668739739571.195557,1618663442360.093262,1542611596672.036621,-31.156984,30.779598,29.063697
2.260000,-0.020000,0.240054,0.040000,38313835806.029251,-5434842780695.682617,5395397109970.746094,1744833378518.915771,-102.172635,101.875363,32.873672
2.300000,-0.020000,0.200064,0.040000,61384975046.190826,-8806488826761.523438,8687465302937.483398,2878764634453.363281,-165.246613,164.349624,54.237595
2.300000,0.020000,0.200064,0.040000,45570839095.844780,-6384905368814.776367,6300180775513.254883,6604738760399.849609,-119.816440,119.177936,124.437107
2.260000,0.020000,0.240054,0.040000,28614053727.135075,-3959559057215.714844,3931664402494.118652,4035908149715.778809,-74.442723,74.232502,76.038849
2.340000,-0.020000,0.160080,0.040000,98731591037.495590,-14328707898487.333984,14135140184566.433594,4763148615705.727539,-268.867085,267.408314,89.740481
2.380000,-0.020000,0.120107,0.040000,159305040530.052551,-23303735934095.730469,22962968022299.515625,7891885440434.831055,-437.129815,434.561709,148.687697
2.380000,0.020000,0.120107,0.040000,116937959773.274887,-16792572091617.109375,16635552287821.675781,17741245931127.835938,-315.494290,314.310952,334.255358
2.340000,0.020000,0.160080,0.040000,72875184280.041611,-10340678865732.890625,10203412163227.599609,10821487219323.009766,-194.048529,193.014055,203.883093
2.420000,-0.020000,0.080161,0.040000,257675519381.958954,-37948376673872.992188,35694515190958.039062,12406934046321.080078,-702.230199,685.244576,233.753830
2.460000,-0.020000,0.040321,0.040000,417519471707.280029,-60374454803901.742188,42661887484939.476562,18219091006950.863281,-1037.375217,903.889203,343.258236
2.460000,0.020000,0.040321,0.040000,303370214585.814819,-44561399412227.343750,24454826031561.917969,46947576678597.890625,-725.916748,574.388949,884.519561
2.420000,0.020000,0.080161,0.040000,188153613671.062927,-27327027521503.402344,23377019677047.792969,31622692664626.468750,-492.530909,462.762734,595.789862
2.500000,-0.020000,0.005075,0.040000,665066358444.349121,-88140157281532.859375,43127927196613.765625,22104418787172.261719,-1406.194706,1066.972103,416.460064
2.500000,0.020000,0.005075,0.040000,523699490986.904785,-82587220866161.000000,43731748869514.585938,59504316684917.476562,-1336.373233,1043.549386,1121.095822
-2.500000,0.060000,0.014627,0.040000,-704149136909.051270,230411348188056.593750,46808930708101.742188,-85476360218560.531250,2774.186143,-684.989838,-1610.424178
-2.500000,0.100000,0.004478,0.040000,-565361000408.066406,238152787260947.062500,68733304899667.460938,28752198644778.660156,2752.363007,-439.598255,541.708090
-2.460000,0.060000,0.042590,0.040000,-451890268308.189514,89491988972770.906250,109994690111457.828125,-46381600571839.421875,558.547548,944.830323,-873.856243
-2.420000,0.060000,0.081326,0.040000,-278324662556.168152,36868182164322.812500,12752278541518.101562,-19386355097154.136719,414.154451,-40.203153,-365.250168
-2.420000,0.100000,0.080125,0.040000,-221527907453.913300,35166572731919.066406,-2037200020293.197266,31402512246877.445312,475.305640,-225.635006,591.641535
-2.460000,0.100000,0.040250,0.040000,-360466965701.308594,101167934220766.718750,55003862401063.164062,28622987243281.847656,1023.352374,153.594499,539.273673
-2.380000,0.060000,0.120888,0.040000,-171798599604.403809,25260724332890.804688,-24716693951727.027344,4595682768674.015625,472.851736,-468.751797,86.585328
-2.340000,0.060000,0.160667,0.040000,-106355323805.845078,15524189483045.312500,-15311689805650.677734,2950166821402.041992,291.283644,-289.682197,55.582853
-2.340000,0.100000,0.160063,0.040000,-84622210502.596481,12364959019969.431641,-12191865482803.111328,9896052983280.183594,231.984641,-230.680168,186.447375
-2.380000,0.100000,0.120084,0.040000,-136624916080.878815,20237535847708.164062,-19839800016926.945312,16081883329151.505859,379.038835,-376.041406,302.992005
-2.300000,0.060000,0.200534,0.040000,-66081252694.439339,9516687506870.425781,-9386610081905.365234,1852069270880.066162,178.564689,-177.584396,34.894059
-2.260000,0.060000,0.240445,0.040000,-41236277775.993752,5860753135148.255859,-5817550742545.025391,1156512085242.216797,110.175799,-109.850216,21.789358
-2.260000,0.100000,0.240042,0.040000,-32970514570.393318,4639724729638.666992,-4604798484542.137695,3743437324952.623047,87.217694,-86.954482,70.528529
-2.300000,0.100000,0.200050,0.040000,-52673027341.628021,7551918867427.085938,-7446903902283.988281,6089477891582.063477,141.688967,-140.897549,114.729294
-2.220000,0.060000,0.280382,0.040000,-25861841850.656635,3559962329922.192871,-3297190482399.078125,625729136729.225220,65.586522,-63.606212,11.789100
-2.180000,0.060000,0.320334,0.040000,-16312010089.414793,2304965215371.672852,-2308426877932.418457,300490209180.998657,43.446447,-43.472535,5.661410
-2.180000,0.100000,0.320031,0.040000,-13169554969.544809,1912011949970.519775,-1863147029256.799316,1458995700550.910889,35.747221,-35.378963,27.488325
-2.220000,0.100000,0.280036,0.040000,-20766707281.555710,2886754650835.879395,-2718463408099.087891,2444990082244.746582,53.436920,-52.168638,46.065031
2.180000,0.060000,0.320334,0.040000,5396468748.971466,-560924354765.507568,618185997428.235352,1912016549828.904053,-10.891793,11.323330,36.023500
2.220000,0.060000,0.280382,0.040000,8271928041.259822,-910873249380.857300,799001452131.923340,3344893094928.206055,-16.529061,15.685969,63.019725
2.220000,0.100000,0.280036,0.040000,-3067166069.188097,572118750227.907349,-474954542678.355408,3402742433881.203613,10.229860,-9.497608,64.109640
2.180000,0.100000,0.320031,0.040000,-1649222597.591611,300413773195.131287,-356981192395.486023,1960103144506.509277,5.979699,-6.406004,36.929480
2.260000,0.060000,0.240445,0.040000,12761173256.414154,-1581836935590.703125,1571902061143.850586,5363048573293.720703,-29.746571,29.671700,101.042944
2.300000,0.060000,0.200534,0.040000,19803535155.399731,-2503254325439.309570,2472158118916.359863,8749036288083.424805,-46.987001,46.752653,164.836916
2.300000,0.100000,0.200050,0.040000,-9872543569.320353,1914449484642.283691,-1884985890974.967529,8825311335952.841797,35.902805,-35.680760,166.273982
2.260000,0.100000,0.240042,0.040000,-5554761047.647964,1130481185990.859863,-1120197559287.992676,5425442313234.175781,21.240796,-21.163296,102.218478
2.340000,0.060000,0.160667,0.040000,30899429101.269558,-3986332294837.129883,3936278208952.517578,14288402765265.683594,-74.821897,74.444678,269.201791
2.380000,0.060000,0.120888,0.040000,48451234218.862556,-6216057644329.856445,5856448058471.349609,23344064165018.628906,-115.081554,112.371452,439.815702
2.380000,0.100000,0.120084,0.040000,-29970240897.019417,5462658113414.413086,-5478247480012.460938,23437128331119.761719,103.007759,-103.125245,441.569084
2.340000,0.100000,0.160063,0.040000,-17299276265.030197,3230669637230.926758,-3182315828950.123047,14379094278789.037109,60.594385,-60.229979,270.910472
2.420000,0.060000,0.081326,0.040000,76312963705.314331,-7548839785157.650391,2699385068419.028320,39397195185656.250000,-114.814556,78.267941,742.265996
2.460000,0.060000,0.042590,0.040000,120672517321.641022,-9481564620646.716797,-10138392934224.326172,55213837675424.789062,-67.742762,-80.117788,1040.260710
2.460000,0.100000,0.040250,0.040000,-87503623653.119095,14414223680090.958984,-26972956315288.406250,46126234204127.921875,342.556471,-437.201992,869.044992
2.420000,0.100000,0.080125,0.040000,-51425065231.551720,10051611157435.775391,-13896127222967.759766,35105947948559.167969,211.108055,-240.081219,661.416411
2.500000,0.060000,0.014627,0.040000,68375497570.257736,18500445695731.566406,-33695108779726.308594,67129466633038.523438,434.442000,-548.952505,1264.758067
2.500000,0.100000,0.004478,0.040000,-185796226875.742310,25191035237329.902344,-32400467572598.453125,51377531589328.421875,515.362673,-569.694627,967.982479
-2.500000,0.140000,0.005672,0.040000,350643944884.765381,-149340405761842.781250,245016220109774.312500,67927706127757.609375,-3354.436161,4075.471283,1279.797362
-2.500000,0.180000,0.014030,0.040000,190446881404.268372,-104700834867494.312500,20062151928195.566406,-69097897771482.125000,-1494.231869,856.375128,-1301.844451
-2.460000,0.140000,0.040400,0.040000,-183831321301.164703,3552622027180.189941,114033526264238.984375,59607034514811.031250,-597.683901,1483.840381,1123.031085
-2.420000,0.140000,0.080201,0.040000,-112870546953.166611,3575367063440.218750,26498490212989.980469,41244905677402.718750,-102.620683,329.264245,777.077933
-2.420000,0.180000,0.081221,0.040000,22511476395.955978,-13147984745845.052734,29514724126554.500000,19719953845343.421875,-340.223312,463.566855,371.535362
-2.460000,0.180000,0.042389,0.040000,37606900773.009995,-44533162166393.375000,79352353649707.500000,-20438768764313.328125,-1035.834717,1298.240218,-385.078252
-2.380000,0.140000,0.120134,0.040000,-69878046762.594040,9527182216129.054688,-7883348857872.748047,23813841212627.683594,170.206404,-157.818095,448.666574
-2.340000,0.140000,0.160100,0.040000,-43641641435.698509,6224316160829.450195,-6132805983533.611328,14578156800187.181641,116.752493,-116.062851,274.660925
-2.340000,0.180000,0.160614,0.040000,7014092593.925720,-1492522448308.502441,1477701585167.613037,15822882931339.601562,-28.036218,27.924525,298.112287
-2.380000,0.180000,0.120817,0.040000,12902838359.710712,-2486979092357.997559,2825382028024.286621,25959680425439.597656,-48.768840,51.319123,489.095428
-2.300000,0.140000,0.200080,0.040000,-27507243185.739994,3778195061335.065430,-3723939082464.149414,8920728793982.240234,70.876721,-70.467835,168.071702
-2.260000,0.140000,0.240067,0.040000,-17502772318.733330,2317667378150.076660,-2299685351955.603516,5460580907960.597656,43.564559,-43.429043,102.880510
-2.260000,0.180000,0.240410,0.040000,1561235293.076793,-562034520732.436646,558073056959.333984,5884267002380.283203,-10.566665,10.536811,110.863001
-2.300000,0.180000,0.200491,0.040000,3535516084.990913,-929670121424.903076,918550633750.584595,9640606083407.175781,-17.452675,17.368876,181.634607
-2.220000,0.140000,0.280057,0.040000,-11245032474.544758,1333999212120.906494,-1188510358472.212402,3385610181530.642090,24.310990,-23.214552,63.786858
-2.180000,0.140000,0.320050,0.040000,-7295443624.618275,824697252724.275269,-881066304321.873047,1921972556621.914551,15.856382,-16.281192,36.211077
-2.180000,0.180000,0.320307,0.040000,-41618631.521620,-83372933564.313202,146334843090.745148,2108992968745.808105,-1.926666,2.401162,39.734650
-2.220000,0.180000,0.280351,0.040000,494853746.877853,-234570963380.141968,158482424617.707947,3678313972199.554688,-3.989387,3.415966,69.301568
2.180000,0.140000,0.320050,0.040000,-8104173046.722330,1434185481858.360352,-1380952082335.459961,1643795907569.936768,26.720001,-26.318822,30.970068
2.220000,0.140000,0.280057,0.040000,-13386308604.363993,2184020231052.091797,-2064277100181.359131,2748534733811.411133,40.471398,-39.568986,51.783988
2.220000,0.180000,0.280351,0.040000,-20393475063.767624,3027915110270.945312,-2789803184451.622559,1234003840419.779785,55.701826,-53.907359,23.249348
2.180000,0.180000,0.320307,0.040000,-12558553807.528503,1928562917447.635010,-1941665898678.784424,690656583541.731689,36.409304,-36.508051,13.012370
2.260000,0.140000,0.240067,0.040000,-22123368090.526928,3535316074902.994629,-3507216190539.158691,4221954114171.971680,66.448579,-66.236812,79.544063
2.300000,0.140000,0.200080,0.040000,-36576810948.568604,5824727382921.979492,-5741723988880.401367,6833148278868.168945,109.272091,-108.646558,128.740475
2.300000,0.180000,0.200491,0.040000,-54218795861.141457,8305113126503.227539,-8188116203083.741211,3258502737605.051270,155.811859,-154.930143,61.392081
2.260000,0.180000,0.240410,0.040000,-33211003103.395775,5066320281123.140625,-5026998121887.761719,2050865951392.458008,95.230155,-94.933815,38.639503
2.340000,0.140000,0.160100,0.040000,-60478933913.367935,9613999342156.992188,-9478261164080.052734,11093191742112.986328,180.366105,-179.343151,209.002163
2.380000,0.140000,0.120134,0.040000,-99974446235.377869,15793886425228.107422,-15500032678198.601562,18049308731220.621094,295.905064,-293.690514,340.059440
2.380000,0.180000,0.120817,0.040000,-145327924062.451904,22493431170694.207031,-22259196735784.687500,8418450760626.918945,422.465349,-420.700104,158.608493
2.340000,0.180000,0.160614,0.040000,-88696851739.631287,13659221682273.648438,-13467467519041.929688,5217322118273.464844,256.263827,-254.818723,98.297373
2.420000,0.140000,0.080201,0.040000,-165148258294.505066,24998711255836.523438,-26075191290172.558594,28527200683185.500000,477.074664,-485.187268,537.468998
2.460000,0.140000,0.040400,0.040000,-272476952176.751404,33303918039139.589844,-34704744726796.988281,36420071938258.703125,635.382839,-645.939793,686.175268
2.460000,0.180000,0.042389,0.040000,-391152606648.135925,54721396869706.671875,-48907024280817.539062,20637257241137.464844,998.118995,-954.300534,388.817890
2.420000,0.180000,0.081221,0.040000,-238366846800.972534,36939416697832.546875,-36719850343642.929688,14401464380900.513672,694.718998,-693.064295,271.331938
2.500000,0.140000,0.005672,0.040000,-413642031348.356384,29751876222083.246094,-33371202959133.585938,41111267564867.000000,580.999660,-608.275745,774.560114
2.500000,0.180000,0.014030,0.040000,-678276678736.805176,87271152646278.609375,-70466690332767.328125,25006882767225.617188,1549.257364,-1422.615040,471.144168
-2.500000,0.220000,0.003881,0.040000,445178641689.798828,-88569076976969.828125,29734805461685.312500,-120692088239436.984375,-1336.151220,892.762507,-2273.908909
-2.500000,0.260000,0.006269,0.040000,-641725181268.952393,336220859276362.625000,-459657176466285.125000,19248595394875.636719,7032.279431,-7962.524141,362.654696
-2.460000,0.220000,0.040188,0.040000,251440255171.995117,-24853626419536.074219,-76345090747834.281250,-53467094585209.437500,103.736020,-866.393019,-1007.351057
-2.420000,0.220000,0.080094,0.040000,152477684922.500366,-17373262064101.746094,-12915680201563.738281,-712552611979.699707,-156.123959,-72.140533,-13.424904
-2.420000,0.260000,0.080245,0.040000,245346803037.578369,-11962017712624.966797,-36755001064763.171875,18858373729501.078125,49.985714,-417.128465,355.302693
-2.460000,0.260000,0.040488,0.040000,405378001831.409546,-2967891406638.793945,-186421579426591.656250,22125385484881.214844,1014.545432,-2441.828400,416.855089
-2.380000,0.220000,0.120063,0.040000,92043266259.457703,-14642451815420.464844,14417421514044.445312,21818636614349.914062,-274.600370,272.904490,411.075762
-2.340000,0.220000,0.160047,0.040000,55327895982.961823,-8952370784169.675781,8830383859165.416016,13240570569514.083984,-167.978364,167.059042,249.460025
-2.340000,0.260000,0.160123,0.040000,89696259813.011703,-14308963410963.050781,14104952150205.769531,7359140326286.313477,-268.436059,266.898582,138.650470
-2.380000,0.260000,0.120164,0.040000,148365813419.438202,-22034884980186.859375,18739578027170.535156,12292281512192.544922,-396.524359,371.690162,231.593710
-2.300000,0.220000,0.200038,0.040000,33125320440.339157,-5445327097887.546875,5369325593810.634766,8033616381436.712891,-102.163546,101.590781,151.357990
-2.260000,0.220000,0.240031,0.040000,19753164775.240749,-3307734088689.620605,3281902927357.044434,4894777708241.602539,-62.173626,61.978956,92.220450
-2.260000,0.260000,0.240082,0.040000,32815859592.429111,-5242264557096.878906,5200074176023.702148,2717015244330.422852,-98.528836,98.210879,51.190142
-2.300000,0.260000,0.200098,0.040000,54238202710.088135,-8651343716505.779297,8526937694284.694336,4447951292984.422852,-162.293166,161.355614,83.801981
-2.220000,0.220000,0.280027,0.040000,11728590268.888620,-2053568803282.223877,1948777413937.511963,3134195237970.673828,-38.098128,37.308395,59.050055
-2.180000,0.220000,0.320024,0.040000,6929421595.098154,-1350410083521.925537,1290380567583.333496,1843754670603.969482,-25.103212,24.650815,34.737407
-2.180000,0.260000,0.320061,0.040000,12043397415.304293,-1953584210260.597656,1972473927255.542480,893876063721.847290,-36.913427,37.055784,16.841143
-2.220000,0.260000,0.280070,0.040000,19870811810.150116,-3098982751038.836914,2845940798599.594727,1618209349431.564209,-56.956394,55.049412,30.488002
2.180000,0.220000,0.320024,0.040000,-14100652454.295380,2095216378110.455078,-2092217500935.574219,-9793867934.244238,39.458141,-39.435541,-0.184522
2.220000,0.220000,0.280027,0.040000,-22619505946.015392,3245541376770.426270,-3007595175275.297363,-195250498669.009369,59.802968,-58.009750,-3.678633
2.220000,0.260000,0.280070,0.040000,-19754985619.775612,2721396994940.187500,-2558789586718.752441,-1886920772589.944092,50.353612,-49.128165,-35.550681
2.180000,0.260000,0.320061,0.040000,-12522431051.609379,1800717882713.353027,-1761108045965.883789,-1083979379705.794800,33.702687,-33.404178,-20.422800
2.260000,0.220000,0.240031,0.040000,-36439963027.177162,5366608412656.558594,-5325460334398.982422,-559210878627.188965,100.877437,-100.567336,-10.535857
2.300000,0.220000,0.200038,0.040000,-58935253514.394569,8770020041183.902344,-8646908567904.241211,-1035635962573.788452,164.536414,-163.608618,-19.511982
2.300000,0.260000,0.200098,0.040000,-50001279519.649620,7114254350844.607422,-7015019352341.617188,-5007304394023.003906,133.475783,-132.727925,-94.340518
2.260000,0.260000,0.240082,0.040000,-31341981407.933548,4375967547802.844238,-4343114611143.377930,-2973214508490.506836,82.260075,-82.012488,-56.017085
2.340000,0.220000,0.160047,0.040000,-95654330372.527695,14401291339090.498047,-14198565783705.048828,-1846029757453.376953,270.182837,-268.655051,-34.780271
2.380000,0.220000,0.120063,0.040000,-155731141481.902893,23671970420213.707031,-23342347590430.613281,-3188653152797.755371,444.130560,-441.646446,-60.076074
2.380000,0.260000,0.120164,0.040000,-129293612921.963867,19186980230137.222656,-18978266727524.515625,-13995096738392.345703,360.314145,-358.741232,-263.675736
2.340000,0.260000,0.160123,0.040000,-80198163358.070389,11651033063329.425781,-11486329777489.324219,-8392416437737.244141,218.581286,-217.340043,-158.117991
2.420000,0.220000,0.080094,0.040000,-254200644715.183899,39379863573807.023438,-39358397809672.351562,-5905860237067.636719,741.818130,-741.656359,-111.269831
2.460000,0.220000,0.040188,0.040000,-415798676023.558472,62256662249872.929688,-52369161477589.625000,-10025585589525.015625,1117.065734,-1042.551235,-188.887844
2.460000,0.260000,0.040488,0.040000,-340856192680.409790,49373615136234.539062,-33742565832505.425781,-40366982287131.554688,841.878122,-724.078910,-760.537347
2.420000,0.260000,0.080245,0.040000,-209455955600.391022,31553708360123.425781,-28752987174418.824219,-25959923880861.570312,578.659994,-557.553110,-489.100015
2.500000,0.220000,0.003881,0.040000,-679931224557.935669,90488836586431.562500,-52221919045344.546875,-13591471245920.601562,1488.570866,-1200.182501,-256.071197
2.500000,0.260000,0.006269,0.040000,-589785533357.367676,85695728490373.687500,-55277312169711.648438,-52489526118202.460938,1442.627024,-1213.386785,-988.933101
-2.500000,0.300000,0.013433,0.040000,756139193021.589111,-254054469844882.250000,-35530635727113.531250,75830482078808.765625,-3149.748111,967.367605,1428.690242
-2.500000,0.340000,0.003284,0.040000,652863855164.976074,-261269063477744.281250,-57151403669168.789062,-50886761763844.968750,-3122.692758,723.002281,-958.736091
-2.460000,0.300000,0.042195,0.040000,459959106788.576050,-101663716560855.125000,-92970885995081.984375,44424045209924.125000,-815.294732,-651.516765,836.974765
-2.420000,0.300000,0.081120,0.040000,277664463987.033386,-41769285668090.335938,-5233440011183.397461,22841371494884.871094,-521.289976,167.066536,430.344680
-2.420000,0.340000,0.080067,0.040000,240469423763.133057,-40225246402396.867188,2791513615445.955566,-33567729341821.683594,-546.284993,264.175703,-632.435480
-2.460000,0.340000,0.040135,0.040000,398981601428.483948,-109851134976099.312500,-61583729135641.859375,-39859699501917.789062,-1100.679398,-191.293491,-750.979846
-2.380000,0.300000,0.120749,0.040000,167924798081.929169,-26827646662626.796875,26297408802649.597656,-556399711845.793701,-502.451419,498.455423,-10.482893
-2.340000,0.300000,0.160563,0.040000,101802548647.354645,-16151499345166.783203,15912946636505.513672,-448408992106.445801,-302.955269,301.157481,-8.448285
-2.340000,0.340000,0.160034,0.040000,88805565787.160126,-13886865566778.609375,13673871638461.742188,-8247210023596.892578,-260.432719,258.827547,-155.382218
-2.380000,0.340000,0.120045,0.040000,145711951888.048706,-23263516398433.796875,22797710044239.039062,-13747900963328.220703,-435.665317,432.154892,-259.018424
-2.300000,0.300000,0.200451,0.040000,61894513126.922089,-9714524062825.054688,9571352436769.351562,-260780690831.253601,-182.218034,181.139059,-4.913259
-2.260000,0.300000,0.240376,0.040000,37752992377.773529,-5871399631156.157227,5822907721020.629883,-120249705800.988937,-110.346488,109.981042,-2.265574
-2.260000,0.340000,0.240022,0.040000,33593077330.651463,-5017942078302.330078,4975636609783.762695,-2903289351331.609375,-94.301820,93.982996,-54.699654
-2.300000,0.340000,0.200027,0.040000,54451257518.164314,-8312433448167.385742,8186967705585.273438,-4914673364442.280273,-155.901911,154.956372,-92.595295
-2.220000,0.300000,0.280322,0.040000,23108314532.334278,-3513860006636.100586,3255064440589.096191,76252360745.912201,-64.740402,62.790059,1.436639
-2.180000,0.300000,0.320282,0.040000,14196159010.050455,-2247374493386.502441,2237480715641.507324,145909296780.657257,-42.285917,42.211355,2.749016
-2.180000,0.340000,0.320017,0.040000,13022971855.043974,-1991112811243.353516,1949338418517.895264,-1051474105408.233154,-37.277603,36.962782,-19.810382
-2.220000,0.340000,0.280019,0.040000,20852831134.156494,-3058601856321.392090,2865007511485.809082,-1842185919909.170654,-56.531603,55.072631,-34.707851
2.180000,0.300000,0.320282,0.040000,-8353003471.806889,898975755383.049683,-946966161414.744141,-1529554250054.394043,17.208474,-17.570141,-28.817689
2.220000,0.300000,0.280322,0.040000,-12704941405.049999,1401138701661.646973,-1263625855674.649658,-2783705436285.214355,25.621019,-24.584690,-52.446624
2.220000,0.340000,0.280019,0.040000,-3345817505.508737,35968849042.364899,-93015030149.455002,-3116185779707.026855,1.000109,-1.430022,-58.710747
2.180000,0.340000,0.320017,0.040000,-2711665358.580823,118996124284.089951,-66798535075.652603,-1760378005830.008301,1.946926,-1.553553,-33.166542
2.260000,0.300000,0.240376,0.040000,-19450788098.602352,2350089490656.636230,-2333997821656.204102,-4601864830135.382812,44.186095,-44.064825,-86.701801
2.300000,0.300000,0.200451,0.040000,-29992084891.857632,3749270683223.937988,-3698967599621.785645,-7681788263154.276367,70.354111,-69.975016,-144.729344
2.300000,0.340000,0.200027,0.040000,-4139985846.041097,-482049209066.599731,469682879200.218262,-8392392557708.819336,-9.012190,8.918994,-158.117541
2.260000,0.340000,0.240022,0.040000,-3904450411.933458,-195806652248.600433,190511539603.740356,-5048021272463.972656,-3.659182,3.619277,-95.107647
2.340000,0.300000,0.160563,0.040000,-46610944565.282967,6063595523247.255859,-5978580037611.197266,-12810937993047.607422,113.761132,-113.120436,-241.365498
2.380000,0.300000,0.120749,0.040000,-73064722911.687103,9785498160965.373047,-9401802443126.218750,-21331370996051.507812,182.195743,-179.304123,-401.895396
2.380000,0.340000,0.120045,0.040000,-1423135804.988530,-1853214980083.704590,1896493277688.753418,-23299861903136.011719,-35.160261,35.486416,-438.982905
2.340000,0.340000,0.160034,0.040000,-3585354653.641230,-987096831416.711792,968416537355.776611,-13978487727047.976562,-18.491892,18.351113,-263.362812
2.420000,0.300000,0.081120,0.040000,-115607407330.766907,13994728327314.689453,-10015514787831.773438,-36449350637462.031250,241.177588,-211.189312,-686.726896
2.460000,0.300000,0.042195,0.040000,-184744960191.095306,19210596264408.800781,-1936589916110.606201,-51266520997985.000000,264.303082,-134.122165,-965.890975
2.460000,0.340000,0.040135,0.040000,13787662802.583193,-4894035143300.847656,14997253476146.728516,-48240071559452.210938,-149.311606,225.451802,-908.870913
2.420000,0.340000,0.080067,0.040000,3684701390.064783,-3823292807299.244629,6629779330494.530273,-35905445273228.125000,-87.895803,109.046136,-676.479404
2.500000,0.300000,0.013433,0.040000,-192713959278.383820,-913490466690.391357,15433952168451.371094,-62480490213676.062500,-99.282865,208.712431,-1177.168656
2.500000,0.340000,0.003284,0.040000,59849368081.919952,-10070935908068.148438,18838750064428.437500,-54643856241472.984375,-239.299481,305.375762,-1029.521929
-2.500000,0.380000,0.006866,0.040000,-453207627186.682495,197827029415308.000000,-310780639920413.000000,-72581526791908.828125,4365.609367,-5216.853968,-1367.478041
-2.500000,0.420000,0.012836,0.040000,-116831717504.751633,82451465346065.000000,-22675045954284.210938,79344087942634.578125,1215.566687,-765.077729,1494.888613
-2.460000,0.380000,0.040585,0.040000,235215249835.053711,-4927255790539.524414,-140391288912747.390625,-62353125360100.539062,728.533332,-1823.687582,-1174.769029
-2.420000,0.380000,0.080294,0.040000,142384921079.717194,-5526142405268.725586,-31592718615310.558594,-42156066360056.429688,105.686531,-385.422875,-794.244729
-2.420000,0.420000,0.081023,0.040000,8438958792.265269,10335411485445.320312,-32524391932634.140625,-18924866894544.023438,320.141120,-487.362422,-356.555463
-2.460000,0.420000,0.042009,0.040000,9188227690.322771,37338073321230.492188,-94219825950602.718750,24892759611304.226562,1024.976505,-1453.650583,468.994022
-2.380000,0.380000,0.120196,0.040000,87334988431.444489,-12473733590549.175781,10317300796827.105469,-23530300575508.703125,-222.823839,206.572461,-443.324504
-2.340000,0.380000,0.160147,0.040000,54249508527.688591,-7956272285333.085938,7827493095647.455078,-13991783478193.800781,-149.172900,148.202390,-263.613312
-2.340000,0.420000,0.160514,0.040000,7362477833.986353,190055536827.644958,-193294754529.877258,-16055719139700.373047,3.599065,-3.623477,-302.499056
-2.380000,0.420000,0.120685,0.040000,8059810161.566347,404813620584.089661,-797416010833.769775,-27216400268763.468750,9.845980,-12.804723,-512.772759
-2.300000,0.380000,0.200118,0.040000,34096859517.168556,-4750675781736.314453,4677401589619.952148,-8295934439461.717773,-89.091327,88.539116,-156.300214
-2.260000,0.380000,0.240098,0.040000,21660585780.747234,-2885002210892.200684,2860773622250.074219,-4908254205519.993164,-54.218170,54.035578,-92.474355
-2.260000,0.420000,0.240343,0.040000,5257548960.542290,-24825738741.721893,26642383640.094250,-5593022600313.646484,-0.477999,0.491690,-105.375788
-2.300000,0.420000,0.200411,0.040000,6368392116.235511,71767596184.773605,-69833766052.997543,-9466871477261.621094,1.341213,-1.326639,-178.361347
-2.220000,0.380000,0.280084,0.040000,13891518584.971590,-1680024220628.608154,1514746668922.378906,-2923408159867.309570,-30.718453,29.472883,-55.078704
-2.180000,0.380000,0.320074,0.040000,8983548997.307575,-1058207289874.677368,1107165904288.245117,-1575603570001.153564,-20.213961,20.582925,-29.685285
-2.180000,0.420000,0.320257,0.040000,3235165792.989790,-204222789752.176270,145784371343.635559,-1884888366314.039307,-3.517372,3.076966,-35.512390
-2.220000,0.420000,0.280294,0.040000,4183471150.980646,-167591725779.799774,219575776770.632202,-3399360590126.134277,-3.451348,3.843112,-64.045924
2.180000,0.380000,0.320074,0.040000,2983622839.834872,-971213299296.739258,917350160390.958984,-1562751992934.034668,-17.993778,17.587853,-29.443153
2.220000,0.380000,0.280084,0.040000,5958462268.501073,-1544511142885.005127,1459719536795.662598,-2678775311981.348633,-28.620228,27.981219,-50.469680
2.220000,0.420000,0.280294,0.040000,12962620327.609514,-2439790025258.500488,2228040768509.310059,-1410450026365.144287,-44.770215,43.174423,-26.573696
2.180000,0.420000,0.320257,0.040000,7379352015.514563,-1488282279152.760742,1502255034219.985596,-799838761297.053223,-28.119077,28.224379,-15.069426
2.260000,0.380000,0.240098,0.040000,11354199028.061737,-2609892738167.736816,2583887692029.547852,-4211768839722.149902,-49.024907,48.828927,-79.352167
2.300000,0.380000,0.200118,0.040000,20979113142.120434,-4500518193249.397461,4427238489585.651367,-6958774454543.970703,-84.378182,83.825929,-131.107345
2.300000,0.420000,0.200411,0.040000,39124400291.307030,-7257535816272.674805,7141286556057.794922,-3754383635617.549316,-136.079121,135.203040,-70.734764
2.260000,0.420000,0.240343,0.040000,22587599136.861496,-4267589841764.648926,4227134056060.175293,-2325429587576.325684,-80.175203,79.870319,-43.812442
2.340000,0.380000,0.160147,0.040000,37918877824.136551,-7715105208368.258789,7593783432122.476562,-11561925050718.322266,-144.671323,143.757014,-217.833371
2.380000,0.380000,0.120196,0.040000,67391231477.964340,-13044677856836.128906,12743593870462.513672,-19307546851208.695312,-244.067514,241.798475,-363.765375
2.380000,0.420000,0.120685,0.040000,115857796857.594040,-21024132591378.292969,20794547602640.722656,-10219672776842.283203,-394.809192,393.078986,-192.544560
2.340000,0.420000,0.160514,0.040000,67454695538.268723,-12354782291031.527344,12159075659775.351562,-6147401892062.205078,-231.665093,230.190202,-115.820615
2.420000,0.380000,0.080294,0.040000,118133053858.987549,-20820668841642.882812,21351318801248.187500,-32057153474122.515625,-395.272797,399.271898,-603.975355
2.460000,0.380000,0.040585,0.040000,204598996944.304626,-27724462729379.941406,27348811859553.832031,-43062925520782.718750,-520.221706,517.390714,-811.330481
2.460000,0.420000,0.042009,0.040000,338384097854.298462,-54403963826421.664062,48113094037503.640625,-27541156560005.636719,-989.445127,942.035673,-518.891355
2.420000,0.420000,0.081023,0.040000,198324531237.410645,-35705366184613.460938,35438223308967.335938,-18433794222395.484375,-671.199860,669.186609,-347.303369
2.500000,0.380000,0.006866,0.040000,302246870111.735168,-19402371487559.351562,22011754899125.453125,-50497732208288.890625,-380.300615,399.965534,-951.406549
2.500000,0.420000,0.012836,0.040000,620618061300.182251,-91259045618246.687500,72178675660902.859375,-34439299231600.468750,-1611.527754,1467.733661,-648.856362
-2.500000,0.460000,0.002687,0.040000,-403222146786.957031,72009704947602.734375,-38472368676588.109375,121385387217693.562500,1167.145729,-914.400586,2286.971064
-2.500000,0.500000,0.007463,0.040000,629277410156.187622,-320497092136785.875000,446295649160874.500000,-25003269080800.527344,-6749.386334,7697.433430,-471.076084
-2.460000,0.460000,0.040090,0.040000,-219237785886.293396,19622082338521.914062,72813017764714.546875,51973582344747.226562,-152.767855,849.380204,979.212421
-2.420000,0.460000,0.080045,0.040000,-125576295450.900238,16831625366536.558594,11974279661850.378906,-2538921157979.106445,154.301594,62.786385,-47.834746
-2.420000,0.500000,0.080347,0.040000,-222267986576.987671,15622859122731.437500,33067774626018.675781,-21063635948885.781250,19.135793,347.808114,-396.851112
-2.460000,0.500000,0.040690,0.040000,-385918496012.569031,10638367122852.158203,179921226064748.500000,-26336187265861.015625,-876.642958,2312.744240,-496.189035
-2.380000,0.460000,0.120030,0.040000,-70799020459.521454,14285668621404.164062,-14028016591934.576172,-23444499855548.207031,267.693984,-265.752259,-441.707968
-2.340000,0.460000,0.160023,0.040000,-39210606709.925484,8389726320778.371094,-8256965542039.038086,-13714934479297.353516,157.316920,-156.316404,-258.397316
-2.340000,0.500000,0.160174,0.040000,-72771512345.581726,14303055143641.826172,-14062465576860.607422,-7446454833619.293945,268.117996,-266.304858,-140.295526
-2.380000,0.500000,0.120232,0.040000,-127458487752.001495,23110281331981.230469,-19771799271585.468750,-12915846924703.099609,416.541416,-391.381841,-243.342044
-2.300000,0.460000,0.200018,0.040000,-21251223290.430004,4860385987929.936523,-4779462208949.558594,-8048602386289.936523,91.115094,-90.505234,-151.640335
-2.260000,0.460000,0.240015,0.040000,-11194079424.203840,2789617559238.610840,-2760486854473.220703,-4757189097509.562500,52.393360,-52.173824,-89.628200
-2.260000,0.500000,0.240116,0.040000,-23348575613.478554,4767453467484.130859,-4717752454022.583008,-2622086619506.063965,89.540668,-89.166110,-49.401632
-2.300000,0.500000,0.200139,0.040000,-41344841202.906807,8256356796936.845703,-8115437543587.864258,-4376359915179.825195,154.758048,-153.696048,-82.453158
-2.220000,0.460000,0.280013,0.040000,-5659556725.713953,1633372271600.425781,-1543497279093.447021,-2961062762331.799805,30.265691,-29.588373,-55.788139
-2.180000,0.460000,0.320011,0.040000,-2679298278.135950,1014179073404.749023,-953494459995.027954,-1687998789846.068359,18.764722,-18.307388,-31.802876
-2.180000,0.500000,0.320087,0.040000,-7249727271.948267,1601737877464.338623,-1615419779082.867432,-852398579214.886475,30.255003,-30.358113,-16.059683
-2.220000,0.500000,0.280099,0.040000,-13081502138.381109,2672450136544.532715,-2432968402537.129395,-1546620535782.613037,48.996917,-47.192128,-29.139227
2.180000,0.460000,0.320011,0.040000,9527952959.853119,-1738619924913.551270,1728316298996.045654,-190659737866.186249,-32.698369,32.620719,-3.592140
2.220000,0.460000,0.280013,0.040000,16113902675.682833,-2771729607127.270508,2559157706806.488770,-120927261981.770691,-51.019499,49.417508,-2.278340
2.220000,0.500000,0.280099,0.040000,14940992357.545914,-2358920255730.270020,2207844771198.542480,1427983400135.516113,-43.589520,42.450980,26.904035
2.180000,0.500000,0.320087,0.040000,9117291032.795416,-1520384746383.111572,1486207589809.978516,758271052692.263428,-28.451755,28.194188,14.286266
2.260000,0.460000,0.240015,0.040000,27229530804.640400,-4738023718334.020508,4693796398765.790039,96130447832.293304,-89.017133,88.683826,1.811153
2.300000,0.460000,0.200018,0.040000,46017766660.841652,-8013731028130.699219,7885194543822.298828,364666560695.279907,-150.256828,149.288147,6.870529
2.300000,0.500000,0.200139,0.040000,40487359419.909187,-6557980874748.026367,6453239025851.884766,4265983609137.636230,-122.964142,122.174783,80.373604
2.260000,0.500000,0.240116,0.040000,24549627756.597866,-3909434357643.227539,3873987403321.967285,2384638034050.474121,-73.455657,73.188521,44.927963
2.340000,0.460000,0.160023,0.040000,77829118306.352341,-13626017418901.244141,13406388744465.923828,854568941044.399780,-255.480688,253.825515,16.100574
2.380000,0.460000,0.120030,0.040000,131785673347.354523,-23207614725325.179688,22846027318079.773438,1665962300711.841797,-435.201160,432.476154,31.387696
2.380000,0.500000,0.120232,0.040000,111751824456.493927,-19024238249602.250000,18780806934534.136719,13138572227963.097656,-357.051761,355.217206,247.538317
2.340000,0.500000,0.160174,0.040000,67082344903.147278,-11117591361453.443359,10935327354843.468750,7532663456568.956055,-208.431678,207.058095,141.919746
2.420000,0.460000,0.080045,0.040000,223451316639.428009,-40109335617945.960938,40415749106606.882812,3391622229335.719727,-757.415037,759.724240,63.900129
2.460000,0.460000,0.040090,0.040000,379384375452.359680,-65084011116180.921875,55445630899775.523438,6126197953121.517578,-1171.742698,1099.105630,115.421121
2.460000,0.500000,0.040690,0.040000,315926471738.291809,-52176159081588.640625,37522316063938.585938,39971516742517.882812,-900.203015,789.768256,753.086547
2.420000,0.500000,0.080347,0.040000,187293201005.566895,-32632368979402.523438,30263326915938.191406,25298347672725.750000,-601.422511,583.568861,476.635536
2.500000,0.460000,0.002687,0.040000,647279789286.837402,-97068877169504.562500,56217464213270.953125,8592261350449.640625,-1597.934627,1290.068906,161.883185
2.500000,0.500000,0.007463,0.040000,573354610697.601318,-91755087392254.640625,61233967465667.687500,52210217021226.289062,-1556.208360,1326.194123,983.670755
-2.500000,0.540000,0.012239,0.040000,-757258492668.199097,256583417157199.281250,19421629647476.023438,-81350061595914.656250,3274.151798,-1194.113764,-1532.682320
-2.500000,0.580000,0.002090,0.040000,-628110511784.370972,262310319190364.812500,43325680505869.390625,47845800120585.562500,3214.570653,-911.226887,901.442611
-2.460000,0.540000,0.041830,0.040000,-440471248980.968628,106119590641020.359375,83504037249672.875000,-46579290389980.453125,927.568883,501.478747,-877.580833
-2.420000,0.540000,0.080931,0.040000,-253275199075.778900,45500433213016.531250,357716061271.538940,-21683346550543.691406,598.056304,-252.458657,-408.526819
-2.420000,0.580000,0.080027,0.040000,-208492966367.712219,42397458817290.476562,-9601772121853.101562,36093124438811.992188,613.425778,-366.269878,680.015388
-2.460000,0.580000,0.040055,0.040000,-362628778054.341003,113814037628933.921875,42170706696165.562500,40725764524389.554688,1262.669545,-87.132342,767.297013
-2.380000,0.540000,0.120623,0.040000,-145890551842.689545,28016869389594.605469,-27380922020107.031250,1773697809330.429688,524.259576,-519.466929,33.417495
-2.340000,0.540000,0.160467,0.040000,-84192454430.678741,16078141938259.169922,-15794365373179.201172,1075856783217.403442,301.317560,-299.178954,20.269765
-2.340000,0.580000,0.160014,0.040000,-70766909308.569580,12974420341609.019531,-12734194071374.935547,9347543023850.126953,243.087800,-241.277399,176.113129
-2.380000,0.580000,0.120018,0.040000,-120952335253.504745,22885315312368.277344,-22367788859477.003906,16524718819369.076172,428.247458,-424.347258,311.335282
-2.300000,0.540000,0.200374,0.040000,-48664682476.859802,9228302446291.486328,-9066523966790.140625,532712282909.141846,172.952168,-171.732968,10.036608
-2.260000,0.540000,0.240312,0.040000,-28156240817.595612,5329414821821.735352,-5273006339846.244141,203176846656.288239,100.090434,-99.665327,3.827970
-2.260000,0.580000,0.240009,0.040000,-24752497631.075527,4299427717213.351074,-4253930343426.319336,2876475200908.992676,80.746552,-80.403673,54.194460
-2.300000,0.580000,0.200011,0.040000,-41720215972.185188,7418239076714.391602,-7285446388830.538086,5222124862587.291992,139.013357,-138.012601,98.387860
-2.220000,0.540000,0.280267,0.040000,-16289737766.524141,3045115730374.876465,-2801722868239.289062,-68517630466.814491,55.996047,-54.161782,-1.290912
-2.180000,0.540000,0.320234,0.040000,-9410248014.868710,1871961527395.893555,-1859120418233.472900,-169582045524.492157,35.196260,-35.099487,-3.195024
-2.180000,0.580000,0.320007,0.040000,-8825132753.037975,1602432671135.157959,-1560375050025.760742,878381333912.741089,29.953043,-29.636087,16.549214
-2.220000,0.580000,0.280008,0.040000,-14756787774.596224,2533481985479.530762,-2366468500926.842285,1691070749758.598877,46.788280,-45.529628,31.860753
2.180000,0.540000,0.320234,0.040000,6524998737.017606,-768171395375.494507,807874187139.967041,1152429476734.173096,-14.697201,14.996411,21.712439
2.220000,0.540000,0.280267,0.040000,10147737490.173222,-1200216583602.578369,1081224686363.119507,2241930743878.732422,-21.940213,21.043463,42.239275
2.220000,0.580000,0.280008,0.040000,3377884617.704807,10566905722.572794,47273993606.867630,2490496000496.008301,-0.127840,0.563743,46.922388
2.180000,0.580000,0.320007,0.040000,2680911050.026339,-100961683595.949417,60432003793.544022,1336449117237.401855,-1.673096,1.367655,25.179476
2.260000,0.540000,0.240312,0.040000,15823316117.342182,-2034925145563.061279,2019206704302.904541,3899819564955.865723,-38.250326,38.131868,73.474861
2.300000,0.540000,0.200374,0.040000,24788685660.150043,-3299949104178.391602,3250608625506.280273,6843054651139.038086,-61.894073,61.522232,128.927117
2.300000,0.580000,0.200011,0.040000,3963041346.169184,807311380342.669067,-784139684514.411133,7340390373211.075195,15.079244,-14.904617,138.297210
2.260000,0.580000,0.240009,0.040000,3938265119.649943,323607393880.515930,-313809617148.297546,4217258472229.553223,6.041572,-5.967734,79.455594
2.340000,0.540000,0.160467,0.040000,39112108510.540611,-5473246812412.217773,5384153335257.192383,11972638951014.029297,-102.615571,101.944142,225.571458
2.380000,0.540000,0.120623,0.040000,62334149816.610291,-9160339797603.318359,8774855232050.150391,20879093922926.386719,-170.407286,167.502185,393.374233
2.380000,0.580000,0.120018,0.040000,-1422357548.285159,3267818892522.159180,-3260303416636.080078,22431480953564.039062,61.525124,-61.468485,422.622105
2.340000,0.580000,0.160014,0.040000,2660599664.442836,1702827234847.583252,-1665803973462.630127,12816914781224.242188,31.872990,-31.593974,241.478105
2.420000,0.540000,0.080931,0.040000,100664233374.259247,-13854370247934.091797,10527985263302.259766,37137763475486.289062,-242.223061,217.154652,699.696993
2.460000,0.540000,0.041830,0.040000,165229059816.028534,-19743968564685.449219,4601091732095.551758,53293624540355.812500,-286.397640,172.277409,1004.082781
2.460000,0.580000,0.040055,0.040000,-29352687867.891605,9372811753779.537109,-14914449158413.277344,50093667449647.101562,207.911505,-249.674570,943.793735
2.420000,0.580000,0.080027,0.040000,-10774856556.371016,6251308396836.623047,-8067922632137.874023,36314844883152.890625,128.046094,-141.736520,684.192730
2.500000,0.540000,0.012239,0.040000,178013441689.777832,-1973550941252.656494,-10914154333821.771484,65428845059911.164062,35.660708,-132.785443,1232.717371
2.500000,0.580000,0.002090,0.040000,-81433036001.434509,15712040134778.779297,-17258815808640.306641,57607845110000.164062,304.766590,-316.423450,1085.365198
-2.500000,0.620000,0.008060,0.040000,385235767387.612732,-154069842369691.062500,250863858433787.843750,88347676455146.812500,-3449.861759,4179.323909,1664.521440
-2.500000,0.660000,0.011642,0.040000,267927711236.868896,-135910186933383.890625,21400985494810.203125,-64251330712359.640625,-1913.400789,1050.432894,-1210.532318
-2.460000,0.620000,0.040804,0.040000,-172027551538.959869,6227314243192.107422,115917210603300.500000,74814167173758.750000,-573.055887,1493.565349,1409.542280
-2.420000,0.620000,0.080405,0.040000,-100845527616.728714,4450447661390.153320,26559110782638.164062,49587663624781.351562,-91.422403,325.117626,934.260329
-2.420000,0.660000,0.080843,0.040000,35703671059.553436,-21100779103877.441406,36457691438858.828125,24975345083658.257812,-484.350850,600.084102,470.549980
-2.460000,0.660000,0.041660,0.040000,73389745800.327377,-61759219345601.851562,87754873212743.437500,-14411973460584.734375,-1310.511452,1506.420727,-271.529935
-2.380000,0.620000,0.120270,0.040000,-60702184986.478455,9418435411780.250000,-7627853000241.625000,26321905133288.933594,167.328100,-153.833856,495.919952
-2.340000,0.620000,0.160203,0.040000,-37326162463.557663,5741505675651.723633,-5628907316070.933594,14724147239783.144531,107.536870,-106.688302,277.411470
-2.340000,0.660000,0.160423,0.040000,4951912816.944766,-3427377958628.658203,3360844752884.529297,15282290283007.974609,-64.197730,63.696321,287.927208
-2.380000,0.660000,0.120563,0.040000,15263412150.614569,-6421079425387.594727,6682255477817.065430,27624070614793.417969,-122.453071,124.421355,520.453504
-2.300000,0.620000,0.200162,0.040000,-23317838237.003155,3324977909071.233887,-3266895815362.859863,8211939328101.780273,62.316221,-61.878501,154.717697
-2.260000,0.620000,0.240135,0.040000,-14722721563.793753,1992326476113.990479,-1973773479829.155762,4568944630173.125000,37.431721,-37.291901,86.081565
-2.260000,0.660000,0.240282,0.040000,-1611367353.629107,-848542010401.572754,831650297802.256592,4737396907986.536133,-15.891548,15.764249,89.255304
-2.300000,0.660000,0.200339,0.040000,224433148.706880,-1767380200147.029785,1725657004754.277588,8485261171051.075195,-33.062641,32.748205,159.867239
-2.220000,0.620000,0.280116,0.040000,-9354361607.580753,1139282656365.147705,-1015725279504.530151,2575321283485.192871,20.766378,-19.835221,48.520546
-2.180000,0.620000,0.320101,0.040000,-5959914733.310481,715383034648.351074,-761037074205.855469,1294155625339.720459,13.736276,-14.080335,24.382642
-2.180000,0.660000,0.320212,0.040000,-1908819907.372963,-51423989809.464218,94347628409.896301,1414887086719.374756,-1.211470,1.534952,26.657293
-2.220000,0.660000,0.280242,0.040000,-2057974488.750465,-281638186461.178345,194646708067.837372,2718974060117.278320,-4.814536,4.158948,51.227048
2.180000,0.620000,0.320101,0.040000,-1224600058.360770,780345852987.602051,-734252848297.763062,1141585517762.775635,14.441643,-14.094275,21.508133
2.220000,0.620000,0.280116,0.040000,-3289943552.819162,1338566185956.164551,-1248149527703.036865,2021372368291.384277,24.708312,-24.026911,38.083827
2.220000,0.660000,0.280242,0.040000,-7973232207.699992,1988786660884.628418,-1804839620000.822021,828754710351.285645,36.430193,-35.043925,15.614219
2.180000,0.660000,0.320212,0.040000,-4101124119.396339,1149323602494.484619,-1150359371407.853760,474201209927.227051,21.659777,-21.667583,8.934226
2.260000,0.620000,0.240135,0.040000,-7473913908.995106,2449325485733.288086,-2415910913165.100098,3267555896272.612793,45.957847,-45.706027,61.562647
2.300000,0.620000,0.200162,0.040000,-15642476151.341423,4516924221474.994141,-4425739761202.704102,5608459181143.728516,84.586080,-83.898893,105.666622
2.300000,0.660000,0.200339,0.040000,-28303075883.765522,6659756890503.950195,-6527923074534.678711,2197757392123.983887,124.728533,-123.735003,41.407023
2.260000,0.660000,0.240282,0.040000,-15141629278.837675,3687227009416.279785,-3640189223553.126465,1376988810326.283203,69.203629,-68.849141,25.943267
2.340000,0.620000,0.160203,0.040000,-31180889192.850567,8242245493200.744141,-8082882088843.951172,9731166286810.115234,154.387934,-153.186934,183.340814
2.380000,0.620000,0.120270,0.040000,-60155685043.400536,14773563851490.804688,-14379946674189.103516,17074046777990.767578,276.117715,-273.151324,321.684939
2.380000,0.660000,0.120563,0.040000,-95994572834.431732,21756716911781.128906,-21390199200797.515625,6190471698755.303711,407.837537,-405.075375,116.632075
2.340000,0.660000,0.160423,0.040000,-52327762350.359932,12043693036088.902344,-11807056603491.671875,3615247667055.582520,225.572648,-223.789301,68.113362
2.420000,0.620000,0.080405,0.040000,-113298681877.085403,24877709111794.816406,-24021830078007.921875,29798557443082.148438,463.872884,-457.422782,561.422097
2.460000,0.620000,0.040804,0.040000,-209303121719.612671,36119204774187.773438,-29006100537625.054688,41196804165683.421875,640.302254,-586.696251,776.171673
2.460000,0.660000,0.041660,0.040000,-317857774818.090332,61645029788159.039062,-49285381493943.554688,20855541231084.683594,1091.569216,-998.424040,392.930487
2.420000,0.660000,0.080843,0.040000,-175086195387.552460,38775769328949.585938,-37334204846635.945312,12614510494308.226562,722.410000,-711.546035,237.664690
2.500000,0.620000,0.008060,0.040000,-325709743344.170898,33767989440789.347656,-25618666405518.882812,49040412080551.320312,590.147106,-528.731918,923.949793
2.500000,0.660000,0.011642,0.040000,-601631647230.210449,100860179690317.046875,-72984362234721.218750,27586723465900.964844,1742.705287,-1532.626663,519.749862
-2.500000,0.700000,0.001493,0.040000,556699880740.374390,-141407146059031.343750,39296445717459.070312,-138099364464876.781250,-2087.045170,1317.515255,-2601.872084
-2.500000,0.740000,0.008657,0.040000,-737168606406.200195,340423258709246.437500,-503918872364239.937500,-1788829682189.590820,7337.877183,-8570.018040,-33.702588
-2.460000,0.700000,0.040028,0.040000,291983523818.328308,-52553164532193.078125,-79119245763953.984375,-63769573105591.179688,-245.896723,-746.417094,-1201.455725
-2.420000,0.700000,0.080014,0.040000,155527232877.999573,-30774149264623.296875,-6514129467693.382812,-5650894712956.209961,-369.042976,88.029861,-106.466132
-2.420000,0.740000,0.080467,0.040000,216273461163.049103,-22357526688382.531250,-36476133737724.140625,4886680545152.626953,-88.690683,-354.693425,92.067894
-2.460000,0.740000,0.040926,0.040000,404614769207.215027,-25918836589226.910156,-207320379704380.875000,2872659928494.976562,829.982707,-2587.727526,54.122578
-2.380000,0.700000,0.120009,0.040000,81536419511.048645,-21073548202178.277344,20567981652296.902344,19302106681628.128906,-394.180315,390.370248,363.662880
-2.340000,0.700000,0.160007,0.040000,41951697319.087349,-11453676294218.623047,11214270254780.380859,10592837618152.417969,-214.440737,212.636517,199.575202
-2.340000,0.740000,0.160234,0.040000,61366019753.436325,-15369559210484.417969,15031359781007.556641,2099423177882.976562,-287.659843,285.111094,39.554350
-2.380000,0.740000,0.120312,0.040000,115366179272.314560,-26886086950315.171875,22875465593459.652344,3767141000037.133301,-483.880735,453.655762,70.975120
-2.300000,0.700000,0.200006,0.040000,21067681199.729702,-6144276297964.830078,6010892171955.490234,5891543693626.761719,-115.007817,114.002603,111.000099
-2.260000,0.700000,0.240005,0.040000,10224095396.037762,-3268936520236.481445,3220106099461.135742,3333744548552.680176,-61.312661,60.944664,62.809680
-2.260000,0.740000,0.240156,0.040000,17076401785.715410,-4426532170401.753906,4362043267079.057617,864124514765.137451,-83.033930,82.547926,16.280607
-2.300000,0.740000,0.200187,0.040000,32492593715.071259,-8231414587659.848633,8050429162339.980469,1301331703350.661621,-154.061662,152.697713,24.517844
-2.220000,0.700000,0.280004,0.040000,4705811413.674891,-1743271558759.219971,1613385794552.479980,2031868605292.273682,-32.110110,31.131261,38.281582
-2.180000,0.700000,0.320003,0.040000,1974022264.711678,-996078950037.128906,945300576821.355469,1130877203653.267578,-18.479697,18.097019,21.306382
-2.180000,0.740000,0.320117,0.040000,4523042443.530509,-1327986087742.669922,1318821036138.549805,307658960493.308472,-24.968225,24.899155,5.796473
-2.220000,0.740000,0.280134,0.040000,8869164548.447260,-2336093174519.787598,2119883457424.583740,518016056286.806641,-42.791295,41.161888,9.759723
2.180000,0.700000,0.320003,0.040000,-5277315952.347630,1208275519493.999023,-1204133385734.187012,-21674546066.993599,22.741199,-22.709983,-0.408361
2.220000,0.700000,0.280004,0.040000,-9549971244.604193,2021612221586.523438,-1846000112621.222168,-284743572987.798157,37.095756,-35.772302,-5.364734
2.220000,0.740000,0.280134,0.040000,-7972280139.443699,1441092437123.419434,-1354997417806.859131,-1411931617837.679443,26.664393,-26.015561,-26.601610
2.180000,0.740000,0.320117,0.040000,-4676813937.968225,916449841991.083496,-883846601433.447632,-680193555956.977783,17.082167,-16.836462,-12.815241
2.260000,0.700000,0.240005,0.040000,-17158406578.558990,3662005723288.355957,-3617052449360.005859,-817491576253.518799,68.740227,-68.401449,-15.402015
2.300000,0.700000,0.200006,0.040000,-30716141791.809093,6537119829778.314453,-6408447970378.354492,-1766192177413.778564,122.435852,-121.466151,-33.276085
2.300000,0.740000,0.200187,0.040000,-23068263310.762417,4202896318745.397949,-4123991057141.069824,-4923255462618.119141,78.739017,-78.144368,-92.756987
2.260000,0.740000,0.240156,0.040000,-13555217224.671749,2422434888045.439941,-2395999502651.184570,-2568430681389.423828,45.490660,-45.291437,-48.390723
2.340000,0.700000,0.160007,0.040000,-54937055292.598679,11779390102375.205078,-11542743980644.693359,-3562193095291.649902,220.592973,-218.809553,-67.113783
2.380000,0.700000,0.120009,0.040000,-98379865713.272400,21356545756001.402344,-20929755425709.738281,-6823320507051.868164,399.957409,-396.741019,-128.555314
2.380000,0.740000,0.120312,0.040000,-67953774283.692917,13544188332715.189453,-13384070214863.160156,-17491738081250.453125,254.275344,-253.068657,-329.554486
2.340000,0.740000,0.160234,0.040000,-39432053305.241241,7448482815499.407227,-7298547419949.555664,-9328317448406.326172,139.486273,-138.356325,-175.750908
2.420000,0.700000,0.080014,0.040000,-176678800946.832306,39457400141440.679688,-39541444356934.195312,-12029244720065.673828,743.875325,-744.508702,-226.637944
2.460000,0.700000,0.040028,0.040000,-318540915889.213623,67603915328805.000000,-55527994255530.773438,-17869115861555.214844,1205.441749,-1114.434808,-336.664502
2.460000,0.740000,0.040926,0.040000,-209809191992.920013,43906642052932.718750,-32133960517517.546875,-55061527511096.820312,760.685346,-671.963688,-1037.391098
2.420000,0.740000,0.080467,0.040000,-118497859341.448288,25417605162852.628906,-23755267937592.949219,-34968863328524.703125,469.486597,-456.958838,-658.833657
2.500000,0.700000,0.001493,0.040000,-577591657970.258057,104813137968830.453125,-57059726114646.531250,-21730852966471.355469,1704.829692,-1344.948907,-409.421867
2.500000,0.740000,0.008657,0.040000,-439740627025.376648,90153897312157.515625,-60604562602102.414062,-71213271177406.828125,1531.533710,-1308.843071,-1341.699312
-2.500000,0.780000,0.011045,0.040000,624351875992.042236,-197488509187001.125000,-603294272396.516846,110206282331665.484375,-2601.148675,1108.282910,2076.350247
-2.500000,0.820000,0.000896,0.040000,337500659906.057556,-188059923138654.968750,-38468270948329.882812,13127167837290.263672,-2262.781223,555.612224,247.323452
-2.460000,0.780000,0.041497,0.040000,364668579709.150208,-83861070172141.828125,-100398771975224.203125,52721202946778.125000,-538.522504,-850.102393,993.298027
-2.420000,0.780000,0.080759,0.040000,194994533428.238312,-40258847176313.921875,-7920318341968.760742,9161849663034.035156,-486.182997,123.093633,172.614559
-2.420000,0.820000,0.080005,0.040000,99378047254.279190,-29036609732569.699219,20236930062787.335938,-35207411510231.906250,-497.329240,431.012814,-663.328043
-2.460000,0.820000,0.040010,0.040000,181459402411.241852,-88959622588585.140625,18939031924041.613281,-14897816146440.644531,-1280.282304,752.590897,-280.683493
-2.380000,0.780000,0.120507,0.040000,105228823567.911911,-25377284233169.855469,24489847891856.621094,-13672371665613.832031,-473.106802,466.418876,-257.595408
-2.340000,0.780000,0.160381,0.040000,57235187616.416962,-13480252141886.285156,13169746586367.886719,-7150367769898.640625,-252.220734,249.880692,-134.717074
-2.340000,0.820000,0.160003,0.040000,32497106834.930923,-6259410904367.292969,6112298550924.397461,-13490803744689.253906,-117.099425,115.990753,-254.174563
-2.380000,0.820000,0.120003,0.040000,56171234934.503860,-11876331652566.574219,11555935289835.574219,-26178716842040.433594,-221.946037,219.531456,-493.222201
-2.300000,0.780000,0.200305,0.040000,31307301493.594875,-7210750203223.617188,7050767231210.198242,-3603806089310.429688,-134.950462,133.744794,-67.897796
-2.260000,0.780000,0.240254,0.040000,17172716109.883167,-3916081189554.578125,3860594236457.322266,-1753401743564.342041,-73.467618,73.049455,-33.035105
-2.260000,0.820000,0.240002,0.040000,11285027215.181742,-1966593347068.522217,1943961132006.432373,-3514860750569.884277,-36.923837,36.753276,-66.222014
-2.300000,0.820000,0.200002,0.040000,19080336450.019840,-3441099039354.675293,3370418773175.282715,-6906757786520.938477,-64.432804,63.900141,-130.127321
-2.220000,0.780000,0.280218,0.040000,9413771879.700590,-2091733229506.762207,1894943426556.337402,-773247520973.320557,-38.297176,36.814123,-14.568432
-2.180000,0.780000,0.320191,0.040000,5136790693.248871,-1219472170610.266846,1222092784940.680176,-249891935005.019928,-22.990375,23.010124,-4.708109
-2.180000,0.820000,0.320001,0.040000,3944108249.386432,-774197985721.597046,734366582676.176025,-878222402246.374878,-14.361205,14.061026,-16.546219
-2.220000,0.820000,0.280001,0.040000,6683161228.726330,-1195983802484.390381,1138681056744.843750,-1873695010592.547119,-22.209143,21.777296,-35.301500
2.180000,0.780000,0.320191,0.040000,-2792594545.575980,228375069116.726440,-264937877889.520874,-870047765898.748047,4.509378,-4.784924,-16.392204
2.220000,0.780000,0.280218,0.040000,-4217031219.811950,309862481023.472107,-267856223109.419617,-1795196297762.153809,5.600562,-5.283993,-33.822539
2.220000,0.820000,0.280001,0.040000,118149286.361216,-633762493055.147705,533385163516.860535,-1521653771772.210693,-11.373103,10.616636,-28.668839
2.180000,0.820000,0.320001,0.040000,-469202446.647482,-267983298065.358856,285978354247.118896,-768455472732.883545,-5.150672,5.286287,-14.478147
2.260000,0.780000,0.240254,0.040000,-6221371567.521661,448619134822.418884,-451558614510.195557,-3278863151206.892090,8.468859,-8.491012,-61.775683
2.300000,0.780000,0.200305,0.040000,-8940365307.265730,511175502983.343201,-513946568314.752930,-6151432292016.200195,9.646505,-9.667389,-115.896550
2.300000,0.820000,0.200002,0.040000,6013434425.667970,-3136084596729.248047,3049589104663.433594,-5016135068208.057617,-58.596764,57.944914,-94.506893
2.260000,0.820000,0.240002,0.040000,1832964925.376994,-1503055475044.580078,1470770132806.060303,-2734632797185.535645,-28.135954,27.892644,-51.522067
2.340000,0.780000,0.160381,0.040000,-12474243004.525776,539167808083.830261,-540140685059.858948,-11553167345551.615234,10.163733,-10.171065,-217.668370
2.380000,0.780000,0.120507,0.040000,-16873204407.319757,472288910250.228210,-231031208653.119385,-21730193939556.335938,7.534566,-5.716392,-409.409451
2.380000,0.820000,0.120003,0.040000,35111632875.254501,-12556695585680.869141,12287060448971.517578,-17541321724444.648438,-235.051399,233.019366,-330.488670
2.340000,0.820000,0.160003,0.040000,15348397868.983141,-6357532174512.070312,6194540887717.371094,-9316819702248.187500,-118.858337,117.629996,-175.534284
2.420000,0.780000,0.080759,0.040000,-22257122345.020271,-941878551751.375610,3152457510047.413574,-42289141198209.140625,-30.240115,46.899550,-796.751936
2.460000,0.780000,0.041497,0.040000,-29428052718.454422,-3064541410706.836426,11795633449621.585938,-64262326920212.250000,-107.087387,172.886922,-1210.739493
2.460000,0.820000,0.040010,0.040000,155133921041.051880,-43187953844232.054688,38489151788585.828125,-43937183696865.062500,-787.127641,751.716379,-827.802012
2.420000,0.820000,0.080005,0.040000,75408961245.195953,-24721292920893.000000,25616163128648.363281,-30706509033650.507812,-470.821452,477.565401,-578.528431
2.500000,0.780000,0.011045,0.040000,59855027764.213165,-33312813354074.539062,34694528567386.988281,-81094318049871.125000,-635.442410,645.855336,-1527.863963
2.500000,0.820000,0.000896,0.040000,318483045153.874329,-68902005445035.039062,40551513762574.679688,-51523349700006.750000,-1137.911816,924.255937,-970.729777
-2.500000,0.860000,0.009254,0.040000,36495172215.227509,-42172938244280.093750,46948249076366.500000,-103940761376745.875000,-821.553492,857.541342,-1958.304200
-2.500000,0.900000,0.010448,0.040000,-683853620228.831665,268365613065873.406250,-42715222496048.281250,-16825226573179.441406,3780.748473,-2080.194805,-316.997022
-2.460000,0.860000,0.041056,0.040000,-74766754383.887268,11324063758265.794922,6834004618187.775391,-86873531951757.796875,110.719365,26.124048,-1636.747703
-2.420000,0.860000,0.080533,0.040000,-31778670942.146835,9815427843231.861328,-5473162121668.588867,-56352379374341.351562,160.385110,-127.660788,-1061.711495
-2.420000,0.900000,0.080679,0.040000,-141744992310.923767,51692628829619.000000,-38839111532486.835938,-30769247109306.453125,901.268779,-804.401692,-579.710453
-2.460000,0.900000,0.041342,0.040000,-293924121358.251587,122672919840216.812500,-40178266799742.765625,-25209441368448.628906,1844.954799,-1223.255964,-474.960490
-2.380000,0.860000,0.120356,0.040000,-10908981568.969608,6970176051627.661133,-6379896794660.050781,-27764840807316.367188,127.985796,-123.537315,-523.105696
-2.340000,0.860000,0.160267,0.040000,-1798998494.062285,3494816066013.207520,-3394473876929.493164,-14116077987830.554688,65.277209,-64.521007,-265.955093
-2.340000,0.900000,0.160341,0.040000,-30810936480.053383,11541988730941.640625,-11215961555529.826172,-8506439941262.907227,215.614996,-213.157980,-160.266260
-2.380000,0.900000,0.120454,0.040000,-66967254955.847359,23604821799887.820312,-23142783475725.285156,-16813063919193.816406,442.117006,-438.634978,-316.767871
-2.300000,0.860000,0.200214,0.040000,1567315996.777036,1547037903266.997070,-1491499517878.447998,-7236180187378.556641,28.833178,-28.414628,-136.333830
-2.260000,0.860000,0.240178,0.040000,2372319767.162559,599367228450.215454,-577208468177.934448,-3738443305819.037598,11.167181,-11.000187,-70.434439
-2.260000,0.900000,0.240227,0.040000,-5674833544.889630,2675360386142.791504,-2616380400453.917480,-2387738556871.347656,50.071975,-49.627489,-44.986379
-2.300000,0.900000,0.200273,0.040000,-13641116086.275137,5588672599739.918945,-5425244968674.137695,-4446266772119.260742,104.370110,-103.138482,-83.770244
-2.220000,0.860000,0.280153,0.040000,2178676875.511121,223398865380.192780,-218636261041.332031,-2018754049524.288818,4.182045,-4.146153,-38.034497
-2.180000,0.860000,0.320134,0.040000,1695344166.905646,66729658813.355713,-20944270320.425442,-968282769148.385498,0.998438,-0.653389,-18.243009
-2.180000,0.900000,0.320171,0.040000,-580993819.712680,569216884721.644775,-576657730921.869751,-645503960180.232666,10.766433,-10.822509,-12.161669
-2.220000,0.900000,0.280195,0.040000,-2100791966.793499,1197691576671.125244,-1043688669428.781860,-1297062890193.110352,21.694752,-20.534151,-24.437417
2.180000,0.860000,0.320134,0.040000,1427287795.774863,-730435629578.383667,702639193225.018921,-489046007273.534912,-13.604720,13.395240,-9.213910
2.220000,0.860000,0.280153,0.040000,3432819636.223381,-1344885493978.622314,1224149654144.576416,-810862727129.627441,-24.656002,23.746109,-15.277124
2.220000,0.900000,0.280195,0.040000,4721571541.611949,-1378524681009.106689,1256887838753.826904,259841194228.769379,-25.284692,24.368008,4.895559
2.180000,0.900000,0.320171,0.040000,2325932953.392419,-772282171673.580200,755050693831.112671,67661333584.563492,-14.452849,14.322988,1.274779
2.260000,0.860000,0.240178,0.040000,7631670312.176152,-2682354181933.409180,2633287112712.372070,-1209880291096.447266,-50.259772,49.889991,-22.794846
2.300000,0.860000,0.200214,0.040000,16216690627.029255,-5301183480941.431641,5164297402922.551758,-2007738514683.397461,-99.103666,98.072061,-37.826958
2.300000,0.900000,0.200273,0.040000,18361580203.908978,-5117250197691.703125,4989129941684.376953,1581007821935.003418,-95.687802,94.722258,29.787104
2.260000,0.900000,0.240227,0.040000,9372384871.637875,-2656985717310.554199,2612379190283.858398,620856446010.784424,-49.807027,49.470862,11.697295
2.340000,0.860000,0.160267,0.040000,33502393547.365627,-10461245020875.410156,10193868897900.816406,-3442728663469.837891,-195.584664,193.569656,-64.863004
2.380000,0.860000,0.120356,0.040000,67952585455.255577,-20517923591114.910156,19930535293788.394531,-6205462383782.288086,-383.249554,378.822860,-116.914509
2.380000,0.900000,0.120454,0.040000,69512354480.415817,-19615255313848.984375,19001534716927.347656,7760208498769.396484,-366.093926,361.468785,146.206827
2.340000,0.900000,0.160341,0.040000,35745180843.700127,-9979186244672.011719,9721254791203.771484,3624754815028.145996,-186.555780,184.611949,68.292482
2.420000,0.860000,0.080533,0.040000,136115043486.111450,-38716805238757.054688,35682993400625.164062,-10158397044041.892578,-712.299423,689.435914,-191.390089
2.460000,0.860000,0.041056,0.040000,270165443882.010071,-64463507581296.101562,44231741496873.453125,-12118022385237.970703,-1100.176393,947.705112,-228.310567
2.460000,0.900000,0.041342,0.040000,266031155686.048340,-63568184043399.031250,41178474514913.484375,19640777764128.359375,-1071.110906,902.376864,370.043639
2.420000,0.900000,0.080679,0.040000,135587702668.519745,-37441439324598.242188,33960873976839.183594,14459679337517.824219,-685.745661,659.515314,272.428741
2.500000,0.860000,0.009254,0.040000,503467562035.090637,-94008098528817.703125,58114577130007.515625,-12588742378140.816406,-1568.290648,1297.788748,-237.179204
2.500000,0.900000,0.010448,0.040000,487920357801.718750,-92587263390432.109375,54138199154139.289062,22641661129070.464844,-1527.076918,1237.315854,426.582021
-2.500000,0.940000,0.000299,0.040000,-776008029566.026489,279435902760447.375000,-43061619458504.484375,129406981243721.015625,3928.705842,-2147.334432,2438.102545
-2.500000,0.980000,0.009851,0.040000,645368333706.108276,-331328763819687.187500,345158339701376.500000,41236587405570.773438,-6320.593153,6424.816044,776.921212
-2.460000,0.940000,0.040001,0.040000,-371191021417.504395,125132004627451.968750,40181426717022.773438,78264938325115.578125,1423.179243,-177.338891,1474.556809
-2.420000,0.940000,0.080001,0.040000,-179999261996.855469,55975452936372.398438,-17411357553725.705078,33291844294729.378906,836.639009,-546.011044,627.237646
-2.420000,0.980000,0.080604,0.040000,-128095225573.633942,12703253466843.871094,30810318637623.277344,40777717142728.281250,-6.609618,334.537987,768.275830
-2.460000,0.980000,0.041195,0.040000,-261313889311.250031,-4479652502409.133789,161945159686112.718750,45333995623924.945312,-974.421682,2161.118258,854.118758
-2.380000,0.940000,0.120000,0.040000,-87387322319.887619,28855012324178.386719,-27921921565322.351562,2509971206550.379395,538.371168,-531.339180,47.289313
-2.340000,0.940000,0.160000,0.040000,-42362538261.203941,14006518119373.218750,-13597204023621.957031,927989001293.139771,261.577407,-258.492721,17.483851
-2.340000,0.980000,0.160303,0.040000,-32771265871.072041,9445427927989.490234,-9166793921624.898438,9583498628080.941406,176.382450,-174.282599,180.558670
-2.380000,0.980000,0.120404,0.040000,-64255074444.263641,18117591701283.320312,-14778600035031.076172,20746928111485.644531,322.473369,-297.309954,390.884153
-2.300000,0.940000,0.200000,0.040000,-20412749903.532047,6830002184533.480469,-6633636974189.950195,164059739580.661285,127.571310,-126.091456,3.090981
-2.260000,0.940000,0.240000,0.040000,-9709972276.730139,3358497793880.541992,-3290073709421.932129,-138099538577.371582,62.889301,-62.373641,-2.601875
-2.260000,0.980000,0.240202,0.040000,-8687615271.923971,2405054221712.993652,-2362441037836.791016,1901376310457.677490,45.071759,-44.750616,35.823032
-2.300000,0.980000,0.200242,0.040000,-16864778152.015821,4698703163667.751953,-4571083035802.132812,4328836080121.495605,87.804960,-86.843185,81.557781
-2.220000,0.940000,0.280000,0.040000,-4512635253.073334,1631212850182.481689,-1469057589392.902344,-274991914349.874573,29.816466,-28.594426,-5.181007
-2.180000,0.940000,0.320000,0.040000,-2014906937.741785,868078989949.608276,-846465041623.172119,-251504434235.122040,16.232946,-16.070058,-4.738489
-2.180000,0.980000,0.320152,0.040000,-2235314065.164985,719749678294.328003,-692268250653.692017,338438457624.452332,13.405171,-13.198065,6.376377
-2.220000,0.980000,0.280173,0.040000,-4443003079.742488,1265243756723.744629,-1166570653599.157959,882992696395.699829,23.280208,-22.536585,16.636094
2.180000,0.940000,0.320000,0.040000,2129882801.892340,-482245082279.414490,496039632680.163391,345652968077.384338,-9.163746,9.267705,6.512302
2.220000,0.940000,0.280000,0.040000,3910001771.691292,-816321511808.331787,730816108155.090942,909537484680.377808,-14.896679,14.252291,17.136213
2.220000,0.980000,0.280173,0.040000,1784480330.106676,-91326694872.676620,121472356796.006058,1136853111431.038086,-1.891036,2.118221,21.418972
2.180000,0.980000,0.320152,0.040000,1187992607.030313,-133645165122.668030,116659273076.489426,508255231386.310242,-2.421945,2.293936,9.575823
2.260000,0.940000,0.240000,0.040000,7078466964.111542,-1518437654054.192871,1499191539124.263428,1958041366804.831543,-28.499463,28.354420,36.890634
2.300000,0.940000,0.200000,0.040000,12715937446.568169,-2731252045375.538086,2672408741122.834473,4161167830696.341309,-51.125779,50.682322,78.398814
2.300000,0.980000,0.200242,0.040000,2883568731.825371,671402873390.286865,-630072904966.608521,4576640895641.622070,12.416015,-12.104543,86.226568
2.260000,0.980000,0.240202,0.040000,2456355372.794270,135588976100.987976,-119749213068.354141,2241407817750.911621,2.465046,-2.345674,42.229423
2.340000,0.940000,0.160000,0.040000,22820184242.701363,-5067066685584.863281,4944080573345.564453,8719619553257.598633,-94.771335,93.844483,164.282687
2.380000,0.940000,0.120000,0.040000,41236201614.186836,-9768939270616.044922,9506013561953.255859,18060829693111.722656,-182.566377,180.584908,340.276501
2.380000,0.980000,0.120404,0.040000,-1823861551.309553,4677538826285.193359,-4301918356370.824707,19462389282585.917969,86.004471,-83.173708,366.682697
2.340000,0.980000,0.160303,0.040000,2171043910.758667,1969238796555.168701,-1884109101223.980225,9398662130339.234375,36.620433,-35.978876,177.076243
2.420000,0.940000,0.080001,0.040000,75730377842.136353,-19968373290116.390625,20048774567995.285156,34134472568051.367188,-376.670171,377.276093,643.113251
2.460000,0.940000,0.040001,0.040000,142787098325.377319,-37466303259603.656250,29575783842384.945312,50879016496547.554688,-661.288285,601.823501,958.590166
2.460000,0.980000,0.041195,0.040000,-42583902467.984268,12530102757429.230469,-2325890630585.179199,66243137980124.476562,178.398418,-101.497109,1248.059121
2.420000,0.980000,0.080604,0.040000,-13728106797.113007,8384324832233.572266,-6254422103361.163086,41685243041286.968750,145.926960,-129.875519,785.374144
2.500000,0.940000,0.000299,0.040000,279590688747.204285,-62839518357196.343750,31982719588245.679688,61107458217062.445312,-1009.524962,776.980971,1151.299937
2.500000,0.980000,0.009851,0.040000,-6770123685.499490,-10018113361415.505859,16570660429155.195312,85351045185658.906250,-225.783199,275.164713,1608.063170
-2.500000,1.020000,0.009851,0.040000,128360417152.647018,-161745447324312.468750,-15668198894643.167969,-188571282005658.718750,-2044.605210,707.574833,-3552.792270
-2.500000,1.060000,0.000299,0.040000,-539773161464.318298,181980088694548.156250,-352418444371083.062500,-154034214025645.125000,4391.957594,-5676.420565,-2902.093887
-2.460000,1.020000,0.041195,0.040000,-14440287340.459385,-52640903478706.367188,19291507725869.613281,-82196414500476.703125,-803.288553,551.959774,-1548.628099
-2.420000,1.020000,0.080604,0.040000,-13731069618.137316,-9812794811631.455078,8330407609293.954102,-578213999208.507935,-176.500033,165.328419,-10.893887
-2.420000,1.060000,0.080001,0.040000,98638925044.671600,-14767811012991.861328,-62713140937072.312500,-4650754285797.811523,159.701695,-743.616115,-87.622907
-2.460000,1.060000,0.040001,0.040000,233887596791.071014,-20746902322519.285156,-262368381438992.718750,-70948662323726.125000,1209.333154,-3342.955583,-1336.713928
-2.380000,1.020000,0.120404,0.040000,-11769203789.457365,-743958029943.946411,1077880054845.231079,27791098859255.937500,-15.903986,18.420500,523.600413
-2.340000,1.020000,0.160303,0.040000,-8934556095.362402,78424656497.082779,-105363587424.624527,12816761932558.994141,1.629830,-1.832848,241.475225
-2.340000,1.060000,0.160000,0.040000,15104194905.674107,-8865560319536.179688,8520866178729.395508,8675459388164.694336,-165.084025,162.486330,163.450684
-2.380000,1.060000,0.120000,0.040000,39852304026.273994,-19175109567510.578125,15864675798387.587891,18734901721669.593750,-342.559033,317.610836,352.976409
-2.300000,1.020000,0.200242,0.040000,-6196114235.069218,365273962302.544861,-380656122200.340332,5911340836309.448242,6.968916,-7.084839,111.373088
-2.260000,1.020000,0.240202,0.040000,-4020843648.268661,401463703359.146240,-408656179364.982422,2732442357149.119141,7.604462,-7.658666,51.480798
-2.260000,1.060000,0.240000,0.040000,1304119766.485591,-1507996498804.892578,1454937834740.017090,2021257284196.446533,-28.111631,27.711769,38.081659
-2.300000,1.060000,0.200000,0.040000,5101987654.902840,-3719936807425.877441,3566378229168.573730,4134773801633.578125,-69.217826,68.060573,77.901535
-2.220000,1.020000,0.280173,0.040000,-2477804124.294877,286924038231.765747,-250302316842.175507,1300465987086.888184,5.198823,-4.922833,24.501533
-2.180000,1.020000,0.320152,0.040000,-1461440772.027223,207510022621.158813,-234972108956.199463,527417551134.646729,4.064830,-4.271790,9.936852
-2.180000,1.060000,0.320000,0.040000,-309668160.759799,-181989198250.856934,188431448148.651062,452788152192.060120,-3.465195,3.513745,8.530791
-2.220000,1.060000,0.280000,0.040000,18389853.523537,-531358471353.613220,436223666398.261353,1011858382052.504028,-9.473383,8.756425,19.063999
2.180000,1.020000,0.320152,0.040000,79887968.578380,289560253726.549316,-263245109222.614166,410584074394.908386,5.306745,-5.108428,7.735642
2.220000,1.020000,0.280173,0.040000,-452061179.155342,631370064271.210938,-567882621379.878662,814954156011.234497,11.536536,-11.058080,15.354209
2.220000,1.060000,0.280000,0.040000,-1784186075.662447,843004889060.833862,-750075584180.211304,102490738427.712021,15.357448,-14.657111,1.930985
2.180000,1.060000,0.320000,0.040000,-677593808.654290,413894801965.578918,-404359403054.969482,92216887987.410309,7.744122,-7.672261,1.737420
2.260000,1.020000,0.240202,0.040000,-2007924380.910519,1473426581985.358643,-1430870996165.990479,1433624973410.035645,27.519679,-27.198971,27.010326
2.300000,1.020000,0.200242,0.040000,-6001324367.389750,3372122318637.230469,-3251127019417.672363,2726546966804.750488,62.848853,-61.937004,51.369725
2.300000,1.060000,0.200000,0.040000,-9865207852.086031,3998575883224.418945,-3865982115170.138672,-292150787130.663940,74.586045,-73.586787,-5.504290
2.260000,1.060000,0.240000,0.040000,-4297518184.978713,1854526282502.922119,-1809282542914.556152,55626781011.810547,34.684625,-34.343657,1.048041
2.340000,1.020000,0.160303,0.040000,-15587493215.295759,7563742156149.995117,-7302913446862.700195,5314837418812.629883,141.031038,-139.065372,100.134618
2.380000,1.020000,0.120404,0.040000,-37698911131.354019,16724334202610.390625,-16288640427985.126953,10744461793883.542969,312.633535,-309.350045,202.431889
2.380000,1.060000,0.120000,0.040000,-48630546287.677010,19057853472876.351562,-18428247707123.515625,-3720820528822.067383,355.502366,-350.757511,-70.102416
2.340000,1.060000,0.160000,0.040000,-22050222383.251156,8691543448880.917969,-8396997813189.496094,-1293328837125.209229,162.088894,-159.869130,-24.367065
2.420000,1.020000,0.080604,0.040000,-87357829362.092392,36075509489635.507812,-34073717378953.007812,25656034719805.464844,668.369035,-653.283065,483.374567
2.460000,1.020000,0.041195,0.040000,-196628923898.749359,65961851642983.664062,-48719671876121.007812,45081163526054.703125,1145.303725,-1015.362660,849.355255
2.460000,1.060000,0.040001,0.040000,-234816464714.299255,84295421980860.921875,-67412343477572.523438,-12708847049246.894531,1492.748521,-1365.513727,-239.442046
2.420000,1.060000,0.080001,0.040000,-106778252545.231659,42907628713058.460938,-43570497185679.617188,-8080073415820.033203,812.151247,-817.146777,-152.233267
2.500000,1.020000,0.009851,0.040000,-488487694457.395752,127644915334101.312500,-85139790190544.984375,61609615072478.406250,2164.657842,-1844.329363,1160.760864
2.500000,1.060000,0.000299,0.040000,-526885318923.598450,145754353853751.343750,-73924479213061.031250,-15475211440564.582031,2340.101578,-1798.774987,-291.561955
-2.500000,1.100000,0.010448,0.040000,-768553064241.672485,227663102511573.531250,-515379113751683.625000,94970297101688.093750,5915.525763,-8083.820340,1789.295453
-2.500000,1.140000,0.009254,0.040000,357457712305.378052,-166478626471476.562500,-13368604135291.318359,214243137596476.937500,-2120.026007,764.655573,4036.464911
-2.460000,1.100000,0.041342,0.040000,330332372980.801941,-57543804142289.953125,-313185256908607.625000,52197496943650.976562,1011.266499,-3805.166669,983.431102
-2.420000,1.100000,0.080679,0.040000,141936350393.137695,-25981092016813.656250,-69159357673301.734375,17769651876698.898438,48.251533,-765.252023,334.790543
-2.420000,1.140000,0.080533,0.040000,90048927408.716400,-29540036321372.328125,-12612400098047.626953,7076669799683.929688,-318.298507,0.627972,133.328561
-2.460000,1.140000,0.041056,0.040000,203725430062.892029,-72995583979878.718750,-93387786481672.437500,100675412687800.468750,-434.851372,-819.052289,1896.783138
-2.380000,1.100000,0.120454,0.040000,60966010386.536140,-25725365901953.746094,21047332812699.812500,-1955324643245.440918,-458.239750,422.985008,-36.839450
-2.340000,1.100000,0.160341,0.040000,26021564995.203533,-11919841712125.992188,11459977044480.013672,-400893498888.582642,-221.977493,218.511846,-7.553066
-2.340000,1.140000,0.160267,0.040000,19297331432.486145,-7053332957255.861328,6799680677557.155273,-8488372187093.436523,-131.455195,129.543613,-159.925853
-2.380000,1.140000,0.120356,0.040000,41255288085.738754,-15848931867393.640625,14800938769565.615234,-21103361606927.808594,-292.679625,284.781706,-397.599567
-2.300000,1.100000,0.200273,0.040000,10923010904.564327,-5175699164559.487305,4979465625210.383789,199309111916.343323,-96.404027,94.925165,3.755099
-2.260000,1.100000,0.240227,0.040000,4435714970.384909,-2262127121006.803711,2196724608309.274658,323275029981.148743,-42.250120,41.757231,6.090689
-2.260000,1.140000,0.240178,0.040000,4228279683.120986,-1546659364798.093750,1512533277201.808105,-1232895964713.666260,-28.947072,28.689890,-23.228475
-2.300000,1.140000,0.200214,0.040000,9073850811.491367,-3247469871250.005859,3142431621495.531738,-3304016186307.868164,-60.590521,59.798928,-62.249580
-2.220000,1.100000,0.280195,0.040000,1693840686.224177,-972281905654.044556,862540082544.858276,322108787281.447449,-17.698075,16.871035,6.068716
-2.180000,1.100000,0.320171,0.040000,573149620.061733,-460551025156.766907,439462842416.214783,223682158613.054016,-8.557854,8.398929,4.214302
-2.180000,1.140000,0.320134,0.040000,843518257.632050,-395098194436.957825,377653559930.842834,-141051609807.834778,-7.345279,7.213812,-2.657494
-2.220000,1.140000,0.280153,0.040000,1925654422.059859,-753425701560.708984,687020445599.879639,-478899909538.394592,-13.819643,13.319198,-9.022752
2.180000,1.100000,0.320171,0.040000,-856282524.974862,316946316996.499512,-319726464325.623840,-104943844183.560883,5.987166,-6.008118,-1.977203
2.220000,1.100000,0.280195,0.040000,-1842637150.974661,584166518339.548584,-518766507744.898193,-410254619243.511169,10.636384,-10.143514,-7.729435
2.220000,1.140000,0.280153,0.040000,-980644064.778483,120603448420.042191,-134183579796.976257,-629326643561.382446,2.348996,-2.451339,-11.856879
2.180000,1.140000,0.320134,0.040000,-566063158.026137,117633110904.378326,-108264731207.702484,-244140932830.690247,2.163324,-2.092722,-4.599757
2.260000,1.100000,0.240227,0.040000,-3820782118.796265,1188672910202.670654,-1167459469381.858154,-1089687529661.065308,22.275385,-22.115515,-20.530345
2.300000,1.100000,0.200273,0.040000,-7743375891.210320,2341998337882.985352,-2277966350204.743164,-2721208822668.175293,43.762686,-43.280127,-51.269152
2.300000,1.140000,0.200214,0.040000,-2075123493.948045,-427947824109.680054,383521691700.717163,-3173667382303.045898,-7.811681,7.476875,-59.793733
2.260000,1.140000,0.240178,0.040000,-1544306469.324645,-3866400997.769382,-10960454994.689285,-1387193470066.451660,0.010959,-0.122697,-26.135529
2.340000,1.100000,0.160341,0.040000,-15521500967.520458,4749980841562.900391,-4605390454040.390625,-6571959397384.789062,88.675143,-87.585476,-123.819525
2.380000,1.100000,0.120454,0.040000,-31149301555.502811,10149077556123.376953,-9999984624684.142578,-15526530667389.826172,190.371806,-189.248207,-292.528839
2.380000,1.140000,0.120356,0.040000,1295479335.915622,-5176036339514.305664,5144468844961.588867,-16952127069621.009766,-97.341100,97.103200,-319.387901
2.340000,1.140000,0.160267,0.040000,-1847443407.341432,-1711396726037.191162,1600977563836.938232,-7292257327878.262695,-31.619598,30.787454,-137.390355
2.420000,1.100000,0.080679,0.040000,-63453552045.284668,23318608247929.671875,-22752827243217.363281,-38784396037320.882812,436.138205,-431.874348,-730.720505
2.460000,1.100000,0.041342,0.040000,-133196599661.185989,45852033260899.898438,-36105852353021.179688,-67402247276523.781250,808.791778,-735.342299,-1269.897412
2.460000,1.140000,0.041056,0.040000,45836676664.780617,-28143670096797.007812,27097987418539.460938,-74044272100837.953125,-524.332679,516.452172,-1395.037011
2.420000,1.140000,0.080533,0.040000,12912107298.524469,-14167416564448.445312,14788079358215.017578,-42546401596012.179688,-270.430435,275.107894,-801.598871
2.500000,1.100000,0.010448,0.040000,-384080157655.985596,109722049202755.656250,-75917037617059.781250,-90911679866296.578125,1876.155209,-1621.392803,-1712.828751
2.500000,1.140000,0.009254,0.040000,225275392088.011688,-77066060688835.765625,60829316358516.343750,-99863663379628.812500,-1360.196357,1237.832486,-1881.489310
-2.500000,1.180000,0.000896,0.040000,163206798203.683777,-84178253552851.640625,78318755842938.062500,105647707124363.156250,-1552.848196,1508.689662,1990.464047
-2.500000,1.220000,0.011045,0.040000,627257612503.494019,-172196595736565.312500,411051549968442.062500,-69917878128479.460938,-4594.333429,6394.399751,-1317.293356
-2.460000,1.180000,0.040010,0.040000,-64195619986.355743,-13023201385702.486328,140797178331332.812500,33525071040376.863281,-967.565403,1930.499722,631.631773
-2.420000,1.180000,0.080005,0.040000,-17961197707.440159,1522432314366.683105,38964809346010.250000,-17359302089456.830078,-200.157424,505.278665,-327.059315
-2.420000,1.220000,0.080759,0.040000,-98756108784.282104,32389378137423.089844,35499351553667.937500,-26520301140476.523438,226.515754,285.109456,-499.657848
-2.460000,1.220000,0.041497,0.040000,-269042058030.679657,75566609924278.796875,205359562763713.750000,-48912962011647.507812,-164.124847,2281.249627,-921.548560
-2.380000,1.180000,0.120003,0.040000,-2046761357.071359,6562870072965.469727,-5304578756221.543945,-24461340406599.703125,116.536195,-107.053420,-460.865834
-2.340000,1.180000,0.160003,0.040000,2089220552.728735,2254437474481.084961,-2092476551988.368408,-9930566787336.558594,41.559478,-40.338903,-187.097635
-2.340000,1.220000,0.160381,0.040000,-12001630259.383955,8854588348493.730469,-8392927421128.188477,-3835484797536.016113,164.216190,-160.737006,-72.262757
-2.380000,1.220000,0.120507,0.040000,-35260534356.770554,22177144020641.468750,-17863054452854.367188,-8519261664043.771484,393.446265,-360.934286,-160.507828
-2.300000,1.180000,0.200002,0.040000,2359721880.535236,515360204943.685730,-453849952796.202698,-4076164339131.057617,9.362018,-8.898463,-76.797299
-2.260000,1.180000,0.240002,0.040000,1702322773.441193,-19431172666.376942,38784205148.410217,-1683441556294.828613,-0.475481,0.621330,-31.717015
-2.260000,1.220000,0.240254,0.040000,-919735720.591324,1153067941323.867676,-1099330333585.489868,-910267657429.395020,21.420734,-21.015755,-17.149970
-2.300000,1.220000,0.200305,0.040000,-3718161823.753520,3237587313945.351074,-3064299290057.095215,-1848002955455.685547,60.018568,-58.712629,-34.817447
-2.220000,1.180000,0.280001,0.040000,1040621599.587494,-105677218927.602539,93854148406.011642,-719244947876.323730,-1.924194,1.835093,-13.550992
-2.180000,1.180000,0.320001,0.040000,577480059.095529,-98877365859.454468,115548041848.847992,-251690103663.427185,-1.957132,2.082767,-4.741987
-2.180000,1.220000,0.320191,0.040000,123464370.777120,111020789609.100647,-109615991414.688232,-188869660767.184784,2.083756,-2.073169,-3.558414
-2.220000,1.220000,0.280218,0.040000,-71344510.572050,362917486191.780212,-296624545829.631470,-443866643648.289734,6.462877,-5.963278,-8.362705
2.180000,1.180000,0.320001,0.040000,-119319287.146799,-125526018817.089920,109166375725.203308,-199189535325.752380,-2.272515,2.149225,-3.752846
2.220000,1.180000,0.280001,0.040000,54759479.216138,-331763383443.104309,291128580787.359863,-430596600257.017029,-6.020939,5.714706,-8.112690
2.220000,1.220000,0.280218,0.040000,632337348.372695,-419907328589.721680,369123352440.911255,-1568100401.182259,-7.624258,7.241538,-0.029544
2.180000,1.220000,0.320191,0.040000,190203322.615790,-185481509471.172791,178437912863.487549,-34156015712.048096,-3.454768,3.401685,-0.643519
2.260000,1.180000,0.240002,0.040000,776773655.067394,-920371879499.141724,882109264114.919922,-793870337862.687256,-17.124073,16.835717,-14.956977
2.300000,1.180000,0.200002,0.040000,3044772950.083813,-2444128036649.696289,2326181847189.358398,-1566961261826.736084,-45.382137,44.493267,-29.522459
2.300000,1.220000,0.200305,0.040000,4621782001.033888,-2424728498921.540527,2325170195625.337891,758572117752.869019,-45.120570,44.370275,14.291938
2.260000,1.220000,0.240254,0.040000,1779521970.028515,-1019953687991.425781,987811679735.983643,146294673952.349243,-19.034847,18.792617,2.756276
2.340000,1.180000,0.160003,0.040000,9425258228.641733,-6309942262684.893555,6015797144057.986328,-3151930172216.790527,-117.220411,115.003665,-59.384192
2.380000,1.180000,0.120003,0.040000,26402812682.174911,-15991701288609.816406,15286916000640.566406,-6664239159544.738281,-297.309354,291.997928,-125.558129
2.380000,1.220000,0.120507,0.040000,28203090615.301617,-14447187392226.736328,13912437365000.251953,7893504128971.828125,-269.170885,265.140885,148.718194
2.340000,1.220000,0.160381,0.040000,11517448890.407242,-5841324459840.313477,5591063607224.408203,2634202823371.399414,-108.639421,106.753397,49.629908
2.420000,1.180000,0.080005,0.040000,70181977946.517776,-40588919776482.390625,40889982768664.789062,-14304212108583.162109,-766.420439,768.689319,-269.499648
2.460000,1.180000,0.040010,0.040000,180844656856.834869,-85771492029880.453125,65247759794609.757812,-22340263352679.105469,-1499.980929,1345.309323,-420.903512
2.460000,1.220000,0.041497,0.040000,171521241303.557068,-75509815929825.531250,47170429583431.585938,47660988083168.914062,-1262.469566,1048.897379,897.960645
2.420000,1.220000,0.080759,0.040000,69072846273.711472,-36098242955886.531250,32605041037433.089844,24771610845676.144531,-660.367639,634.042059,466.711509
2.500000,1.180000,0.000896,0.040000,460114630058.408264,-154529504468026.093750,73216086968381.140625,-27994439943090.976562,-2451.827869,1839.031100,-527.431477
2.500000,1.220000,0.011045,0.040000,493717172928.008606,-161633023120209.781250,94735156327257.187500,67410153515366.507812,-2667.141478,2162.983642,1270.046371
-2.500000,1.260000,0.008657,0.040000,-540062763319.832886,201029043093901.250000,-71150737582136.968750,-147778137581701.531250,3053.408940,-2074.615913,-2784.225781
-2.500000,1.300000,0.001493,0.040000,-40955935058.355522,13533575578729.150391,-18314166336469.015625,-77428393126941.984375,282.001140,-318.028780,-1458.795813
-2.460000,1.260000,0.040926,0.040000,-233071440518.373322,89602976930394.671875,63852405170816.812500,-68009608335198.773438,820.815522,335.659822,-1281.340447
-2.420000,1.260000,0.080467,0.040000,-88099779473.670441,41537214267624.734375,-2276343784393.398926,-4458397137880.458008,560.675928,-264.796904,-83.998787
-2.420000,1.300000,0.080014,0.040000,-1658665524.591802,1633800660704.510742,-36161718725158.179688,20476389441453.300781,225.939549,-486.149946,385.787047
-2.460000,1.300000,0.040028,0.040000,17978329361.555099,10356377384316.949219,-117573872044927.609375,-19346604620342.054688,801.132080,-1609.147982,-364.501246
-2.380000,1.260000,0.120312,0.040000,-34175471115.544857,19354808729492.562500,-18015831939448.425781,13779329428230.343750,357.087687,-346.996847,259.610554
-2.340000,1.260000,0.160234,0.040000,-13368761060.915560,7464017644153.308594,-7111640995222.518555,4471566027945.515625,138.634725,-135.979133,84.246896
-2.340000,1.300000,0.160007,0.040000,-3923646641.331636,-186824999708.431061,86715325560.069641,7539472743443.949219,-2.954054,2.199604,142.048037
-2.380000,1.300000,0.120009,0.040000,-5087183362.791604,-2444520972902.901367,1767905389815.591553,21662146597634.953125,-42.231843,37.132711,408.127400
-2.300000,1.260000,0.200187,0.040000,-5159505638.837895,2951133924528.691406,-2819392551711.004883,1293180557295.524414,54.856449,-53.863615,24.364271
-2.260000,1.260000,0.240156,0.040000,-1910437321.036498,1190427919637.485107,-1149254770663.512451,291352825622.100342,22.195634,-21.885344,5.489256
-2.260000,1.300000,0.240005,0.040000,-1169456555.389130,314993255879.990601,-319331530444.184998,902818716651.853760,5.959176,-5.991870,17.009628
-2.300000,1.300000,0.200006,0.040000,-2298935044.119972,339058484095.032349,-363658473887.139160,2627621509973.092285,6.527102,-6.712493,49.505913
-2.220000,1.260000,0.280134,0.040000,-648527384.851056,466425791617.874329,-405608699620.383728,-1963857517.216075,8.443984,-7.985652,-0.037000
-2.180000,1.260000,0.320117,0.040000,-180847673.774048,202923285311.402679,-193836572906.713013,-58305118812.422920,3.771833,-3.703353,-1.098502
-2.180000,1.300000,0.320003,0.040000,-217651602.694638,122091919497.134232,-114867545853.755463,87529892630.428711,2.259449,-2.205005,1.649114
-2.220000,1.300000,0.280004,0.040000,-534409396.112534,209098250692.815247,-199186671855.728973,319891083642.333069,3.883510,-3.808814,6.026933
2.180000,1.260000,0.320117,0.040000,249355853.384234,-114347017864.110825,117133285940.107971,56882379692.043556,-2.170113,2.191111,1.071697
2.220000,1.260000,0.280134,0.040000,588947842.093100,-208442218323.316681,183552485652.465088,247142113842.172821,-3.786491,3.598916,4.656301
2.220000,1.300000,0.280004,0.040000,206934880.000532,46057535422.107933,-25745672443.616539,253465541422.106934,0.752944,-0.599870,4.775438
2.180000,1.300000,0.320003,0.040000,136271892.137012,-13051957022.686275,11521037659.835711,90429448318.223099,-0.237253,0.225716,1.703743
2.260000,1.260000,0.240156,0.040000,1286853337.976465,-401711327911.854858,399186039997.507690,717834007600.489258,-7.554201,7.535170,13.524409
2.300000,1.260000,0.200187,0.040000,2632776266.951407,-668531716592.146362,665068645577.425049,2011473708043.617188,-12.575951,12.549853,37.897331
2.300000,1.300000,0.200006,0.040000,-412872696.340815,1161186869229.295898,-1076726244979.180298,1402633933673.218994,21.400048,-20.763533,26.426436
2.260000,1.300000,0.240005,0.040000,170953770.200189,311950735492.227234,-287819698249.747620,592720347391.760742,5.740940,-5.559083,11.167195
2.340000,1.260000,0.160234,0.040000,5053833598.314231,-995357784207.737183,1001626998329.667725,5500382801725.194336,-18.788552,18.835799,103.630401
2.380000,1.260000,0.120312,0.040000,9067580332.607777,-1172961382126.652100,953055301508.587646,14937494201747.914062,-20.856325,19.199062,281.431050
2.380000,1.300000,0.120009,0.040000,-12160951854.263874,11735862304399.357422,-11015596595979.714844,8270401670773.686523,217.039382,-211.611293,155.819162
2.340000,1.300000,0.160007,0.040000,-3010295465.444824,3810661499405.250977,-3559915014698.310059,3344150694188.956055,70.377809,-68.488125,63.005738
2.420000,1.260000,0.080467,0.040000,15199482981.885900,-79440075051.931885,-2821307119552.095703,42230139542295.585938,14.898831,-36.759534,795.640310
2.460000,1.260000,0.040926,0.040000,24778725502.706589,-540887714445.287598,-12970040297244.724609,76264811258914.734375,66.175477,-167.996963,1436.873256
2.460000,1.300000,0.040028,0.040000,-129802043249.435745,81704616050765.062500,-58191275081516.679688,32901267445926.683594,1406.460839,-1229.258849,619.878952
2.420000,1.300000,0.080014,0.040000,-41386966508.403870,35094735302497.464844,-35076218245659.574219,20422558601421.812500,661.100496,-660.960947,384.772843
2.500000,1.260000,0.008657,0.040000,-59206959378.861931,25195396114817.636719,-37188489039382.007812,104128881250806.281250,542.482916,-632.865645,1961.848487
2.500000,1.300000,0.001493,0.040000,-384581188908.596497,155916113596045.281250,-68847217143324.070312,42042443787791.742188,2445.421421,-1789.250028,792.104013
-2.500000,1.340000,0.011642,0.040000,-623265313770.181274,180050138513621.062500,-360229088348259.750000,78653248802200.984375,4410.651746,-5768.522093,1481.872804
-2.500000,1.380000,0.008060,0.040000,395942542119.966553,-97250891602457.015625,99681930397990.031250,185628923232116.937500,-1846.003829,1864.324701,3497.356525
-2.460000,1.340000,0.041660,0.040000,231364684829.849030,-72153754256988.468750,-182720497786447.531250,51668657673225.234375,81.175040,-2001.966505,973.467463
-2.420000,1.340000,0.080843,0.040000,70634845925.309906,-30917642357820.128906,-30020960486850.214844,22628013807608.386719,-238.070724,-221.176718,426.324898
-2.420000,1.380000,0.080405,0.040000,53918324551.298950,-30335853995731.359375,11265982359962.556641,11718582890122.398438,-463.758844,320.043870,220.784895
-2.460000,1.380000,0.040804,0.040000,164097103583.396576,-54146570164825.218750,-18181452311221.566406,87648548426386.406250,-611.342209,66.261460,1651.349463
-2.380000,1.340000,0.120563,0.040000,20642641385.039951,-18495363119522.968750,14014490468585.906250,7030866445520.180664,-323.136692,289.367796,132.465600
-2.340000,1.340000,0.160423,0.040000,5514448811.594220,-6225868411640.402344,5796111736960.703125,2987380812234.208008,-114.869911,111.631165,56.283986
-2.340000,1.380000,0.160203,0.040000,6375932122.106028,-4598354547437.559570,4354155249169.427246,-3493367630949.072754,-85.255408,83.415066,-65.817071
-2.380000,1.380000,0.120270,0.040000,18505117648.115292,-13243131197934.630859,12086921090120.751953,-13299917528397.615234,-242.973168,234.259701,-250.578156
-2.300000,1.340000,0.200339,0.040000,1179099224.186970,-1859673887571.763428,1724368107835.077637,1323095578380.658447,-34.272562,33.252867,24.927888
-2.260000,1.340000,0.240282,0.040000,81739359.587099,-516843869356.834045,480059313541.321228,580046024108.565430,-9.529725,9.252508,10.928403
-2.260000,1.380000,0.240135,0.040000,647906173.603659,-585807167102.304443,559738640496.141479,-111377526300.773590,-10.889603,10.693144,-2.098417
-2.300000,1.380000,0.200162,0.040000,2119231110.433167,-1637072731771.061523,1551442003075.412109,-787008567685.220093,-30.359400,29.714066,-14.827698
-2.220000,1.340000,0.280242,0.040000,-111010595.893247,-123920520555.625153,103447117365.531006,262878045413.702118,-2.219015,2.064723,4.952775
-2.180000,1.340000,0.320212,0.040000,-91647250.699167,-22876561260.288399,12962845894.032482,93954569817.702774,-0.374974,0.300262,1.770159
-2.180000,1.380000,0.320101,0.040000,28257933.389060,-69148930558.356995,64887470596.141151,24642953082.775864,-1.278719,1.246604,0.464288
-2.220000,1.380000,0.280116,0.040000,167363027.925196,-198200812689.326141,168778575151.057007,13459809717.350702,-3.567919,3.346186,0.253591
2.180000,1.340000,0.320212,0.040000,3602602.299340,65351817720.790581,-58984355683.195900,51009464865.837517,1.195276,-1.147289,0.961048
2.220000,1.340000,0.280242,0.040000,-112410921.964157,180380974920.257599,-154507262121.342743,83674405548.230209,3.252239,-3.057249,1.576474
2.220000,1.380000,0.280116,0.040000,-177690976.018472,115198198703.526962,-104698453473.952499,-87205490485.977158,2.111054,-2.031926,-1.643002
2.180000,1.380000,0.320101,0.040000,-52675807.952180,54891711007.747055,-51673700874.833984,-13995045090.218710,1.016003,-0.991751,-0.263675
2.260000,1.340000,0.240282,0.040000,-536963579.747809,535642228743.606812,-511097400543.424683,59651102958.665611,9.953078,-9.768103,1.123861
2.300000,1.340000,0.200339,0.040000,-1868334517.628095,1509877901228.830566,-1428294574151.745850,-179214395199.193970,27.985852,-27.371021,-3.376503
2.300000,1.380000,0.200162,0.040000,-1170683456.682013,404451542367.673157,-405122433166.489502,-1082375088811.351929,7.623894,-7.628950,-20.392574
2.260000,1.380000,0.240135,0.040000,-487004087.755633,232091483253.252472,-229499550564.654022,-311471479038.916260,4.358088,-4.338555,-5.868303
2.340000,1.340000,0.160423,0.040000,-5767979058.905649,4242056192469.090820,-4009803932809.671875,-1296409253452.166992,78.610068,-76.859761,-24.425102
2.380000,1.340000,0.120563,0.040000,-16902938731.657934,12186953671063.013672,-11609524240878.625000,-5401359814246.978516,226.345541,-221.993898,-101.764750
2.380000,1.380000,0.120270,0.040000,-4539269999.814060,-293467265373.127747,395192207514.689270,-11431810181471.416016,-6.104060,6.870683,-215.381931
2.340000,1.380000,0.160203,0.040000,-2493782362.221564,490495289593.103516,-523954757206.037964,-3545937684126.964355,9.430334,-9.682493,-66.807522
2.420000,1.340000,0.080843,0.040000,-48813034950.923706,35124185427411.144531,-30203894270156.566406,-21963074891054.730469,633.949674,-596.869219,-413.797063
2.460000,1.340000,0.041660,0.040000,-142538232252.411346,81826519502879.796875,-43510769191201.429688,-45703429728315.382812,1325.091779,-1036.335400,-861.079111
2.460000,1.380000,0.040804,0.040000,-2083346788.652752,-10289227152867.589844,23173422967178.757812,-76416098284995.015625,-266.678720,363.777007,-1439.723591
2.420000,1.380000,0.080405,0.040000,-6129902699.050586,-4877626415035.474609,8233232070990.609375,-39481564102151.546875,-110.863776,136.152398,-743.855556
2.500000,1.340000,0.011642,0.040000,-486853475303.039612,188701816155153.437500,-101781875198456.953125,-67015011396902.140625,3063.964986,-2408.916156,-1262.601664
2.500000,1.380000,0.008060,0.040000,131976375009.951965,-47802801269697.445312,56356974017047.859375,-108328480433909.531250,-948.982160,1013.448389,-2040.971370
-2.500000,1.420000,0.002090,0.040000,361817985133.779785,-32539147554760.292969,222010572437618.625000,138546959297976.156250,-1683.981848,3111.882442,2610.305030
-2.500000,1.460000,0.012239,0.040000,837878685019.072144,-225166607490129.062500,421649357506003.625000,-78460201553776.421875,-5352.824090,6833.563656,-1478.235681
-2.460000,1.420000,0.040055,0.040000,-100825602478.016083,38569602467932.078125,229773202451091.093750,62754793808532.601562,-790.046532,2812.340134,1182.336695
-2.420000,1.420000,0.080027,0.040000,-20743418175.853333,8873101265513.884766,61604264487444.601562,470006273051.135193,-231.175956,762.309727,8.855191
-2.420000,1.460000,0.080931,0.040000,-49012063831.856316,12753856255739.023438,75576933461547.937500,-2473881677737.462402,-258.970940,924.652254,-46.609365
-2.460000,1.460000,0.041830,0.040000,-191545022944.535583,40739607007730.453125,306828074364302.750000,-39249026707371.351562,-1196.955168,3816.305811,-739.474416
-2.380000,1.420000,0.120018,0.040000,-2393919835.118937,7481252715688.654297,-4749182215832.806641,-14386368739083.123047,125.509001,-104.919484,-271.047527
-2.340000,1.420000,0.160014,0.040000,714353782.219321,1647310529233.679443,-1434951048504.586426,-4392506463806.181152,29.835993,-28.235602,-82.757368
-2.340000,1.460000,0.160467,0.040000,-3015128550.906959,3991661474847.552734,-3694673671513.465820,115017548462.628555,73.526589,-71.288421,2.166997
-2.380000,1.460000,0.120623,0.040000,-12533035926.791035,13063730117736.005859,-8207075298228.205078,3345813571983.803711,218.677591,-182.076714,63.037067
-2.300000,1.420000,0.200011,0.040000,722310184.692668,147185174671.212555,-101514348303.815353,-1349557955843.683105,2.514915,-2.170729,-25.426454
-2.260000,1.420000,0.240009,0.040000,383432183.301215,-88165172776.213425,95594005279.044662,-402113749027.132568,-1.703072,1.759057,-7.576056
-2.260000,1.460000,0.240312,0.040000,-49100048.728704,257435612459.229004,-236605176255.790009,-167291283070.463715,4.732499,-4.575516,-3.151865
-2.300000,1.460000,0.200374,0.040000,-598355487.237100,1049684538672.733643,-965996199977.889526,-256708733933.428741,19.303644,-18.672949,-4.836541
-2.220000,1.420000,0.280008,0.040000,163289554.215757,-69384143482.390778,60930365408.994995,-113190031751.429184,-1.259455,1.195746,-2.132566
-2.180000,1.420000,0.320007,0.040000,60722778.155210,-39529119579.556496,40530755924.679543,-17304660993.070511,-0.750413,0.757962,-0.326030
-2.180000,1.460000,0.320234,0.040000,34146409.415687,2035584913.872422,-1521816067.183078,-25086300811.086792,0.035448,-0.031576,-0.472640
-2.220000,1.460000,0.280267,0.040000,39402983.149730,46129598130.207214,-33088179763.102509,-76284771585.840973,0.795396,-0.697113,-1.437249
2.180000,1.420000,0.320007,0.040000,-36912252.836935,6422418090.731027,-9558735077.972305,-27799290038.813202,0.138729,-0.162365,-0.523755
2.220000,1.420000,0.280008,0.040000,-73699189.208064,-16362175785.462265,11980274397.453707,-98473959372.210281,-0.283506,0.250483,-1.855306
2.220000,1.460000,0.280267,0.040000,23457914.046830,-59028768751.807770,48464231185.129967,-19393321480.174778,-1.052424,0.972807,-0.365381
2.180000,1.460000,0.320234,0.040000,-3498609.372461,-15835371081.073196,14526651456.487637,-12539007491.321251,-0.290950,0.281088,-0.236242
2.260000,1.420000,0.240009,0.040000,-80183640.859984,-143272506255.598297,128222769210.889816,-250679214762.448059,-2.614273,2.500855,-4.722942
2.300000,1.420000,0.200011,0.040000,177112492.535030,-684511825395.239502,622740284409.739624,-630371088008.516846,-12.547456,12.081931,-11.876557
2.300000,1.460000,0.200374,0.040000,637191612.848874,-625653965702.666870,589737462085.963745,264959750728.812225,-11.584677,11.314002,4.991995
2.260000,1.460000,0.240312,0.040000,155337706.037133,-204784041297.138367,193642189050.801697,10249702947.660439,-3.795274,3.711307,0.193110
2.340000,1.420000,0.160014,0.040000,1661050381.791576,-2731204545705.034180,2510239976578.975098,-1501771272471.817627,-50.208547,48.543307,-28.294241
2.380000,1.420000,0.120018,0.040000,7986554709.967853,-10185157231361.195312,9429387909579.308594,-3513287269438.458496,-187.622527,181.926874,-66.192369
2.380000,1.460000,0.120623,0.040000,6897313209.671078,-5659210358299.134766,5725277160226.884766,6892294804216.583008,-106.996225,107.494120,129.854830
2.340000,1.460000,0.160467,0.040000,2188829294.705622,-1840919263990.259277,1744578203153.216553,1515619431061.181641,-34.139450,33.413401,28.555149
2.420000,1.420000,0.080027,0.040000,32271262868.798298,-37142821140524.070312,38785236977947.070312,-9597439139904.585938,-709.075502,721.453129,-180.821317
2.460000,1.420000,0.040055,0.040000,121618135104.138504,-95932264909263.593750,69637529137282.093750,-15100046710379.183594,-1658.797064,1460.633838,-284.493634
2.460000,1.460000,0.041830,0.040000,67298731837.486839,-47678529284009.429688,39296558346103.960938,66034249238091.609375,-850.914774,787.746297,1244.123536
2.420000,1.460000,0.080931,0.040000,21136118381.933567,-19382855347136.140625,20326953754558.933594,31906507587715.562500,-370.520440,377.635384,601.137099
2.500000,1.420000,0.002090,0.040000,448972285581.849609,-201805702574121.312500,96039796864972.750000,-20239865815852.367188,-3204.329132,2407.252741,-381.330805
2.500000,1.460000,0.012239,0.040000,395408215981.628235,-150700749392162.437500,111110082267785.531250,97303502922622.718750,-2615.516145,2317.151697,1833.254403
-2.500000,1.500000,0.007463,0.040000,403184965149.328308,-121713142058024.656250,170288337002472.968750,-232405471741226.031250,-2567.701604,2933.775537,-4378.653815
-2.500000,1.540000,0.002687,0.040000,-882199652081.182983,296919893275378.687500,-373304337478370.500000,-136094900265822.750000,6025.881080,-6601.531964,-2564.106817
-2.460000,1.500000,0.040690,0.040000,27193652668.927158,-30570314243889.332031,62816356989316.976562,-117448339861630.578125,-758.222684,1001.236339,-2212.794809
-2.420000,1.500000,0.080347,0.040000,-796313214.221536,-14876496760880.550781,24095643962420.910156,-28549487356313.441406,-332.390046,401.867677,-537.888892
-2.420000,1.540000,0.080045,0.040000,31009326603.921677,-9186366131629.669922,-42788272588032.921875,-22621278897693.398438,120.693234,-512.386163,-426.198008
-2.460000,1.540000,0.040090,0.040000,156966659531.042114,-24671201250356.464844,-198689106719628.062500,-77118855747843.750000,797.651572,-2480.946647,-1452.963949
-2.380000,1.500000,0.120232,0.040000,-2775389281.929766,-1762870545190.418945,1874939047416.068604,11539493769358.611328,-33.846934,34.691508,217.410752
-2.340000,1.500000,0.160174,0.040000,-1434896391.812340,383500636755.252319,-427314966767.566528,2741373514312.552246,7.473021,-7.803215,51.649066
-2.340000,1.540000,0.160023,0.040000,942921230.883539,-2189875105477.263916,2007842392699.408203,551663354426.603882,-40.229636,38.857795,10.393657
-2.380000,1.540000,0.120030,0.040000,5917606598.004898,-8658720460211.208008,4104987604758.292480,-353433003549.815491,-137.396823,103.078836,-6.658883
-2.300000,1.500000,0.200139,0.040000,-532023359.083681,336228660158.046021,-328805722977.099915,606570464064.945923,6.292787,-6.236846,11.428139
-2.260000,1.500000,0.240116,0.040000,-152937390.683263,154251641504.652008,-148211735287.786224,109939858841.487381,2.872052,-2.826534,2.071331
-2.260000,1.540000,0.240015,0.040000,-30238628.953650,-54498723688.522148,46366480679.043724,106153046325.608871,-0.980823,0.919536,1.999985
-2.300000,1.540000,0.200018,0.040000,66128141.571458,-409451226363.859253,366773372611.173828,294089209060.037231,-7.473076,7.151446,5.540811
-2.220000,1.500000,0.280099,0.040000,-26210084.702182,53876918430.565109,-44988962494.518867,6132347711.332467,0.964836,-0.897854,0.115537
-2.180000,1.500000,0.320087,0.040000,7177737.385294,18572676342.209000,-16811247806.170988,-8107015859.133534,0.339964,-0.326690,-0.152741
-2.180000,1.540000,0.320011,0.040000,1932153.631868,7430271130.181412,-6956700660.099607,6030439995.395540,0.137314,-0.133745,0.113617
-2.220000,1.540000,0.280013,0.040000,-13803013.491042,5025164513.428127,-6965255015.331588,32231791398.980133,0.105643,-0.120264,0.607266
2.180000,1.500000,0.320087,0.040000,11303684.348639,-12449320373.881119,12298270307.822174,1247752570.371568,-0.233699,0.232560,0.023508
2.220000,1.500000,0.280099,0.040000,38877389.660959,-24468183847.462933,21225805889.030338,27428196725.948574,-0.442668,0.418233,0.516763
2.220000,1.540000,0.280013,0.040000,13153894.087310,9740598753.698727,-6252195036.656985,20164142947.162407,0.163801,-0.137512,0.379904
2.180000,1.540000,0.320011,0.040000,8756340.281866,-1208950618.018222,1324868658.406754,5818911178.662519,-0.023433,0.024306,0.109632
2.260000,1.500000,0.240116,0.040000,107188690.398894,-31709310052.739353,34377895897.239105,120850166705.235855,-0.612505,0.632616,2.276887
2.300000,1.500000,0.200139,0.040000,214843792.017159,88212646620.689590,-66814983511.037369,451879971775.049194,1.541034,-1.379776,8.513681
2.300000,1.540000,0.200018,0.040000,-152659920.255637,324988051085.284729,-297296904774.766174,28265260657.917377,5.966448,-5.757761,0.532534
2.260000,1.540000,0.240015,0.040000,-4011650.319154,72178419554.867859,-65264922808.788757,43061151984.108269,1.320807,-1.268705,0.811297
2.340000,1.500000,0.160174,0.040000,115467593.841290,948489177393.966431,-832674112558.215088,1553581010361.600830,17.215479,-16.342670,29.270367
2.380000,1.500000,0.120232,0.040000,-1824007874.384852,5538039600178.487305,-5166983374210.620117,5262131660045.507812,102.242602,-99.446236,99.141611
2.380000,1.540000,0.120030,0.040000,-3906192436.524272,5010435242937.920898,-4898963379569.484375,-3332097474732.425781,93.769446,-92.929368,-62.778648
2.340000,1.540000,0.160023,0.040000,-882784312.297423,1288035542758.072510,-1197753347294.872559,-393616326640.524963,23.757046,-23.076658,-7.415960
2.420000,1.500000,0.080347,0.040000,-13925351812.037413,25658000388516.515625,-21690175441046.601562,24657086753084.273438,460.984765,-431.082316,464.553808
2.460000,1.500000,0.040690,0.040000,-74589849784.158234,74442175399380.671875,-35632257072306.882812,50455786626975.515625,1183.173331,-890.692788,950.616270
2.460000,1.540000,0.040090,0.040000,-65299114433.000916,52183829054120.265625,-56026099600312.703125,-22301192163010.707031,1004.890772,-1033.847014,-420.167389
2.420000,1.540000,0.080045,0.040000,-15828118774.181797,20518004929167.257812,-26680082887661.789062,-15609236910800.673828,421.400244,-467.839092,-294.087072
2.500000,1.500000,0.007463,0.040000,-435559616013.140930,204418102606582.562500,-116038581073774.984375,77165715973320.625000,3351.819130,-2685.770562,1453.846823
2.500000,1.540000,0.002687,0.040000,-356465522487.629089,134630000022726.000000,-106706579408423.078125,-27669490185972.863281,2378.679217,-2168.241845,-521.309235
-2.500000,1.580000,0.012836,0.040000,-175641273377.622620,-68436973271914.750000,-154759423034162.968750,-21810633619931.195312,-27.847401,-1654.212397,-410.924981
-2.500000,1.620000,0.006866,0.040000,-451969069097.011047,-7656426592739.291016,-258794457414111.937500,-35432979733015.859375,1361.775220,-3369.810868,-667.577879
-2.460000,1.580000,0.042009,0.040000,-42701507980.260246,6017781929288.363281,-158606908563036.468750,-19038830929864.828125,975.838781,-2125.785822,-358.702612
-2.420000,1.580000,0.081023,0.040000,-1586349292.983080,14230093563339.019531,-58019499111334.046875,-7123610729617.379883,515.608548,-845.615662,-134.212956
-2.420000,1.620000,0.080294,0.040000,-14905859688.968706,23486183729123.289062,-66716132747421.515625,-11531304916399.970703,686.836507,-1012.627427,-217.256469
-2.460000,1.620000,0.040585,0.040000,-90784508881.495361,16973480272813.410156,-170022767483335.031250,-20455805637013.085938,1184.851397,-2338.266315,-385.399237
-2.380000,1.580000,0.120685,0.040000,1375676214.456391,1239777564472.979980,-771093440880.301270,-6761495083305.508789,20.709044,-17.176932,-127.390487
-2.340000,1.580000,0.160514,0.040000,631125476.313983,-295493743430.351501,281614999494.498535,-1260022564776.553467,-5.488828,5.384235,-23.739556
-2.340000,1.620000,0.160147,0.040000,-272501998.191686,940368389247.818115,-870712179460.069214,-158674987111.540497,17.323377,-16.798431,-2.989529
-2.380000,1.620000,0.120196,0.040000,-2367276987.688599,5291369183174.902344,-4918397050314.702148,1292546032104.005127,97.584360,-94.773555,24.352317
-2.300000,1.580000,0.200411,0.040000,183936555.256181,-193382122759.499207,177575811856.165466,-192683393781.375580,-3.554091,3.434971,-3.630267
-2.260000,1.580000,0.240343,0.040000,41524720.459546,-65637020738.575951,59990773074.372711,-11621886359.269609,-1.204726,1.162175,-0.218963
-2.260000,1.620000,0.240098,0.040000,23884491.852523,7257965528.327829,-5191724682.116693,-32329847265.986671,0.125066,-0.109494,-0.609113
-2.300000,1.620000,0.200118,0.040000,11924160.061389,133589136680.645935,-117714195927.863068,-109759498373.904831,2.427169,-2.307532,-2.067933
-2.220000,1.580000,0.280294,0.040000,10049680.138117,-15823168372.726715,12420636479.555780,8463545571.612455,-0.278886,0.253244,0.159458
-2.180000,1.580000,0.320257,0.040000,6964632.641755,-3027782277.154074,2131399202.628001,4211334967.267695,-0.051979,0.045223,0.079344
-2.180000,1.620000,0.320074,0.040000,10024677.181959,-2438304464.917554,2164394302.993329,-247472752.936950,-0.044391,0.042327,-0.004663
-2.220000,1.620000,0.280084,0.040000,14130335.908534,-4640942744.827169,4364350302.573277,-6621359914.034083,-0.085875,0.083790,-0.124750
2.180000,1.580000,0.320257,0.040000,3609670.321056,3501425850.741342,-3004291548.983747,2140780737.374472,0.063159,-0.059412,0.040334
2.220000,1.580000,0.280294,0.040000,-1803278.343286,11395440211.464043,-9272014044.122841,-929285427.199383,0.202695,-0.186692,-0.017508
2.220000,1.620000,0.280084,0.040000,-301706.456918,518356734.892468,-1063847506.526789,-5872061883.801041,0.012849,-0.016960,-0.110633
2.180000,1.620000,0.320074,0.040000,2177459.641224,1374576739.503841,-1319670139.754668,-978165626.128422,0.025587,-0.025174,-0.018429
2.260000,1.580000,0.240343,0.040000,-26685779.383545,30326329070.230095,-28972827481.196365,-29745794163.733128,0.563715,-0.553515,-0.560428
2.300000,1.580000,0.200411,0.040000,-97551437.305306,25428302496.709248,-27261002674.397289,-175868149431.738525,0.489443,-0.503254,-3.313458
2.300000,1.620000,0.200118,0.040000,28574634.946509,-108742563894.512283,95486785426.518799,-28525607216.566879,-1.973849,1.873950,-0.537439
2.260000,1.620000,0.240098,0.040000,-1792290.106381,-15792246975.844971,13189150175.694347,-18450548309.160828,-0.282822,0.263204,-0.347619
2.340000,1.580000,0.160514,0.040000,-177278585.916833,-329117491582.841003,291057175774.648926,-797116337215.310791,-5.985641,5.698809,-15.018134
2.380000,1.580000,0.120685,0.040000,499590588.113494,-2985351613385.648926,2248950006814.651855,-3249597851009.208984,-52.083485,46.533792,-61.224307
2.380000,1.620000,0.120196,0.040000,1429004833.627653,-1966069962762.375732,1523578729965.788086,2031930681027.205566,-34.540860,31.206144,38.282752
2.340000,1.620000,0.160147,0.040000,260617928.338743,-525490560090.348206,476746568562.410339,153970098748.951843,-9.625037,9.257691,2.900886
2.420000,1.580000,0.081023,0.040000,7774238177.438379,-15599997486297.974609,-4886592574209.858398,-11277587416944.890625,-178.119226,23.727533,-212.476285
2.460000,1.580000,0.042009,0.040000,58525793507.017677,-68171342504993.210938,-40777486338375.843750,-17158574486089.966797,-668.589884,-152.473753,-323.277490
2.460000,1.620000,0.040585,0.040000,26020026959.149227,-22157848873562.855469,-49103073151539.937500,25335976198952.449219,-14.687593,-522.351239,477.344479
2.420000,1.620000,0.080294,0.040000,6323821103.083433,-4236020420989.000977,-12549567611317.546875,14882968054390.023438,15.065982,-141.566066,280.403746
2.500000,1.580000,0.012836,0.040000,185508249915.713806,-166985618320612.406250,2089579460079.281250,-21758315127003.039062,-2214.084763,971.389978,-409.939271
2.500000,1.620000,0.006866,0.040000,-6542341705.272888,-51677781818958.656250,-45203503903358.953125,39253315728504.132812,-426.049492,-304.070343,739.555224
-2.500000,1.660000,0.003284,0.040000,-912641175177.766602,298084287126041.500000,-356196323717594.312500,87954523003628.937500,5944.540109,-6382.485892,1657.114202
-2.500000,1.700000,0.013433,0.040000,-253115752502.457458,89831810750135.875000,-99405302294021.640625,251865257164160.562500,1746.594430,-1818.742482,4745.287454
-2.460000,1.660000,0.040135,0.040000,85599794257.737518,21029816061595.000000,-264447375343795.968750,51749421185162.921875,1772.052304,-3606.503476,974.989095
-2.420000,1.660000,0.080067,0.040000,7250598572.941241,15969618486989.917969,-74198750833076.703125,16050750868116.619141,629.998053,-1068.826297,302.405451
-2.420000,1.700000,0.081120,0.040000,243197863.938578,3405293032078.572754,-9175792736036.572266,49569646147824.132812,96.773563,-140.261387,933.920869
-2.460000,1.700000,0.042195,0.040000,-31860947269.084145,22070400368680.488281,-15538983176699.574219,143359042380656.437500,378.902432,-329.680157,2700.967465
-2.380000,1.660000,0.120045,0.040000,231164721.906731,-775150720214.084229,-2656957337832.023926,2296143095015.721680,4.794583,-30.659745,43.260667
-2.340000,1.660000,0.160034,0.040000,-100434706.559602,-129411450240.874298,188125284805.141937,424535852639.408691,-2.770048,3.212529,7.998502
-2.340000,1.700000,0.160563,0.040000,75460273.728212,-164665579156.847107,68952181018.650406,-56356090732.684105,-2.561406,1.840088,-1.061781
-2.380000,1.700000,0.120749,0.040000,427263442.996670,-397200209310.470764,273699901514.115906,-1006576557899.618774,-6.785437,5.854710,-18.964486
-2.300000,1.660000,0.200027,0.040000,-23341613.256857,39327109547.263062,-27906181511.725014,54322089377.065346,0.676392,-0.590322,1.023460
-2.260000,1.660000,0.240022,0.040000,5977107.664997,14925815484.133425,-12196188830.084282,81505118.478930,0.265783,-0.245212,0.001536
-2.260000,1.700000,0.240376,0.040000,7723080.182397,-1310203675.392688,404611062.528682,5703859696.608986,-0.019566,0.012742,0.107464
-2.300000,1.700000,0.200451,0.040000,10870935.564373,-30088608441.406563,19361646940.613495,17270755791.126339,-0.506256,0.425415,0.325391
-2.220000,1.660000,0.280019,0.040000,10451732.230633,2540561857.233743,-1788543356.273893,-2720333940.547822,0.043615,-0.037948,-0.051253
-2.180000,1.660000,0.320017,0.040000,10012940.948402,-15921480.434967,160057787.351696,-604140475.400114,-0.001115,0.002201,-0.011382
-2.180000,1.700000,0.300053,0.040000,9567834.019067,772607615.678772,-837123355.342100,487732846.161019,0.014921,-0.015407,0.009189
-2.220000,1.700000,0.280322,0.040000,9369819.729582,1089861250.648728,-906141169.693963,618661390.521411,0.019495,-0.018111,0.011656
2.180000,1.660000,0.320017,0.040000,2646012.388019,-235116833.896404,25767997.820944,-764487827.084695,-0.003246,0.001669,-0.014403
2.220000,1.660000,0.280019,0.040000,3162002.969622,-2230007915.976767,1641969953.746043,-948574068.222324,-0.038691,0.034259,-0.017872
2.220000,1.700000,0.280322,0.040000,3793602.107747,-289367546.989918,373663833.829033,1142002271.309261,-0.005928,0.006564,0.021516
2.180000,1.700000,0.300053,0.040000,3192617.810717,409142347.135152,-546650790.715328,-150905207.452803,0.008486,-0.009522,-0.002843
2.260000,1.660000,0.240022,0.040000,7630809.669294,-8244385544.700233,7183152486.332751,4887409914.165318,-0.149331,0.141333,0.092082
2.300000,1.660000,0.200027,0.040000,24156759.517922,-2895707823.479446,948805180.399366,47445462327.573135,-0.043553,0.028880,0.893900
2.300000,1.700000,0.200451,0.040000,-442733.927811,21389603125.039524,-14299215199.978174,3102306753.053263,0.362916,-0.309482,0.058449
2.260000,1.700000,0.240376,0.040000,4428341.051998,2472739134.654300,-1491569273.069483,3681963065.183128,0.041042,-0.033648,0.069370
2.340000,1.660000,0.160034,0.040000,28003333.309613,205694457370.633209,-210431783697.835876,242199970568.713959,3.902179,-3.937881,4.563188
2.380000,1.660000,0.120045,0.040000,-439582820.111904,2290038712975.218262,-2634546881870.782227,813819286650.270386,45.092877,-47.689170,15.332827
2.380000,1.700000,0.120749,0.040000,-168675637.243469,-36081170751.960983,-300992406108.059509,-832021319586.031738,1.225408,-3.765673,-15.675764
2.340000,1.700000,0.160563,0.040000,-43506934.420067,65491686857.601143,-14831704462.987932,-84046923484.893326,0.947562,-0.565777,-1.583493
2.420000,1.660000,0.080067,0.040000,-5508117536.116962,14778550242864.789062,-27900000890085.441406,4549063448673.023438,352.601175,-451.487470,85.706993
2.460000,1.660000,0.040135,0.040000,-49773931582.373352,31457648740755.988281,-68035399978556.718750,19602331414473.722656,799.424150,-1075.082565,369.319288
2.460000,1.700000,0.042195,0.040000,26474534110.861839,-10645958464222.832031,-102557344915546.359375,-7966214094396.831055,439.268729,-1292.395074,-150.088092
2.420000,1.700000,0.081120,0.040000,931278624.795502,2947779168398.599121,-30959597441217.593750,-2128396432498.248291,213.865537,-424.969095,-40.100223
2.500000,1.660000,0.003284,0.040000,-505106587513.171082,137887008940260.046875,-211516709730563.187500,30679841656387.628906,3014.039057,-3568.929556,578.026002
2.500000,1.700000,0.013433,0.040000,75972481148.260666,-71856153614610.359375,3010116209716.838379,-11398526524993.802734,-964.681813,445.842111,-214.754848
-2.500000,1.740000,0.006269,0.040000,1036391973135.990479,-394016418436455.250000,368531516248048.937500,122799886893506.390625,-7279.452639,7087.392507,2313.621057
-2.500000,1.780000,0.003881,0.040000,522521179059.308044,-129600075735647.437500,231113073564648.750000,-102839606615078.203125,-3015.509676,3780.535166,-1937.557806
-2.460000,1.740000,0.040488,0.040000,11188291736.522879,-72885567562511.875000,193143027574573.937500,68826644324390.171875,-2052.922424,2959.210528,1296.733879
-2.420000,1.740000,0.080245,0.040000,-1318123759.925532,-22853027053183.664062,64806483337948.085938,21613849787011.062500,-667.692509,983.863484,407.217460
-2.420000,1.780000,0.080094,0.040000,547490302.342682,-15660764411018.648438,58483165580960.742188,-25258242665461.011719,-537.097539,859.817084,-475.879934
-2.460000,1.780000,0.040188,0.040000,-6290717797.317327,-21156296225932.937500,183124279248474.250000,-60353653375945.476562,-1314.068094,2534.696372,-1137.097817
-2.380000,1.740000,0.120164,0.040000,-171257566.429311,-686309207875.975342,3292669371250.756836,-96328122816.906723,-27.662064,47.304199,-1.814878
-2.340000,1.740000,0.160123,0.040000,7915416.710912,49541015773.156929,12538784264.906195,-61902390458.373344,0.582496,-0.114648,-1.166277
-2.340000,1.780000,0.160047,0.040000,5990656.620641,17019429519.241819,-40103525701.840126,23182382902.177822,0.451131,-0.625098,0.436770
-2.380000,1.780000,0.120063,0.040000,37114041.187248,-715140598395.533813,1868905754442.374512,-13543533258.594378,-19.994945,28.689987,-0.255168
-2.300000,1.740000,0.200098,0.040000,12720416.339327,-1039654038.438635,1827664179.801465,-10560817710.615414,-0.024042,0.029980,-0.198972
-2.260000,1.740000,0.240082,0.040000,9996561.999163,-2005524706.006265,1502794491.301547,-110161940.769190,-0.034944,0.031155,-0.002076
-2.260000,1.780000,0.220477,0.040000,9577779.738415,-388112022.447995,-16441298.591281,1118909206.616797,-0.005026,0.001977,0.021081
-2.300000,1.780000,0.200038,0.040000,9556064.922882,3620678296.863384,-2023815774.559086,-109097113.859482,0.059190,-0.047156,-0.002055
-2.220000,1.740000,0.260038,0.040000,10011433.845848,-295185482.678444,497879654.148839,-665431235.567870,-0.006707,0.008235,-0.012537
-2.180000,1.740000,0.260061,0.040000,10506874.108908,2725837154.389975,-3003690666.990976,-298675818.429437,0.052927,-0.055021,-0.005627
-2.180000,1.780000,0.220072,0.040000,15786566.877920,1977164482.243020,-2924241901.026814,-13791987196.135511,0.042604,-0.049741,-0.259849
-2.220000,1.780000,0.220045,0.040000,9525438.948737,-2917919985.166474,5290434816.147164,-1603258689.638979,-0.068385,0.086265,-0.030206
-2.140000,1.740000,0.260390,0.040000,6888513.690007,2168082610.574752,-3699054738.793176,6868187938.090994,0.049501,-0.061039,0.129401
-2.100000,1.740000,0.260034,0.040000,992433.422388,-14392100124.901600,14520160668.080225,5068478314.854995,-0.271879,0.272844,0.095493
-2.100000,1.780000,0.220040,0.040000,-30122341.297992,-13278249178.882236,18825005355.721401,66521103691.691139,-0.281521,0.323323,1.253296
-2.140000,1.780000,0.220461,0.040000,13112252.642361,24395224303.595028,-33772618238.610100,13298527166.937193,0.512623,-0.583293,0.250552
-2.060000,1.740000,0.260066,0.040000,16741017.352058,-23011448374.041477,26309488232.034153,-20451795298.995316,-0.452190,0.477045,-0.385324
-2.020000,1.740000,0.260377,0.040000,59371625.658358,32565967612.554409,-28427236301.724979,-40606620579.684135,0.590169,-0.558978,-0.765052
-2.020000,1.780000,0.220446,0.040000,143213357.311383,1048038146.538287,2347825002.140850,-228176176805.491608,0.000552,0.025040,-4.298971
-2.060000,1.780000,0.220078,0.040000,-29060872.351000,-106021385978.361969,133315861966.797958,-30899099634.428223,-2.151777,2.357475,-0.582157
-1.980000,1.740000,0.260030,0.040000,49452624.367321,101988135119.679779,-111529188393.641434,15124092476.371990,1.975443,-2.047347,0.284947
-1.940000,1.740000,0.260072,0.040000,-94496384.666057,28833487050.515953,-47233460504.661255,142296340222.296082,0.647239,-0.785906,2.680946
-1.940000,1.780000,0.220085,0.040000,-84482327.577859,229535099263.191376,-279370951563.950134,460495641457.549927,4.606255,-4.981830,8.676005
-1.980000,1.780000,0.220035,0.040000,269184771.029033,295376818276.349854,-347770718947.255188,-79319940609.927536,5.861210,-6.256063,-1.494434
-1.900000,1.740000,0.260365,0.040000,-256031949.864141,-201203124875.801422,216920636683.307404,124104421754.340485,-3.879622,3.998072,2.338199
-1.860000,1.740000,0.260027,0.040000,-138251156.183912,-301252187309.105225,328180873515.416504,-165459668258.869934,-5.827971,6.030912,-3.117356
-1.860000,1.780000,0.220031,0.040000,-795932720.918155,-771745810394.445312,905788735817.474365,-217022214376.361481,-15.297772,16.307951,-4.088824
-1.900000,1.780000,0.220431,0.040000,-756472202.222756,-405651926128.776428,437429743816.883911,577831139816.263062,-7.822331,8.061816,10.886674
-1.820000,1.740000,0.260077,0.040000,376368150.616075,-27067600492.274239,22349518081.438335,-372179640383.075073,-0.483302,0.447745,-7.012080
-1.780000,1.740000,0.260352,0.040000,916845693.191519,436005653887.561279,-425409175428.592468,-271319071443.327972,8.154706,-8.074849,-5.111809
-1.780000,1.780000,0.220416,0.040000,2172066555.722159,721748602226.806763,-833402507076.059692,-1110180559767.538330,14.229249,-15.070699,-20.916445
-1.820000,1.780000,0.220092,0.040000,441783488.801223,-242956646764.890411,347112488026.862061,-1095635049998.360840,-5.166151,5.951094,-20.642399
-1.740000,1.740000,0.260023,0.040000,819228177.007003,698694430861.005127,-729689869692.137573,101688443886.258377,13.339000,-13.572589,1.915869
-1.700000,1.740000,0.260083,0.040000,-252640391.934754,401538799104.097473,-463551406108.399841,737600842078.352173,7.915730,-8.383071,13.896827
-1.700000,1.780000,0.220099,0.040000,447429302.955034,1073381543578.297241,-1218677768420.449219,1728933411481.867188,21.044370,-22.139356,32.574108
-1.740000,1.780000,0.220027,0.040000,2565451668.704077,1496124224382.954834,-1714654294024.100830,6379220548.799001,29.423018,-31.069911,0.120188
-1.660000,1.740000,0.260340,0.040000,-1830851072.437639,-433381348407.337830,474304883349.327026,863834796071.876587,-8.396463,8.704872,16.275148
-1.620000,1.740000,0.260020,0.040000,-2794765031.230889,-1145623178917.846436,1149145635526.232422,279736223095.614807,-21.604114,21.630660,5.270393
-1.620000,1.780000,0.220024,0.040000,-6211485754.490442,-1987582710543.185791,2253215524397.973633,1179424443865.956299,-38.948613,40.950484,22.221040
-1.660000,1.780000,0.220401,0.040000,-3337680530.708639,-659218166059.949829,647223209216.807373,2307141649782.607910,-12.352255,12.261858,43.467886
-1.580000,1.740000,0.260090,0.040000,-2097908447.848758,-1291284415768.449219,1317837348811.109863,-426465589479.902832,-24.478629,24.678738,-8.034859
-1.540000,1.740000,0.260327,0.040000,445352822.694443,-670098099418.526733,754923323567.694458,-1381582355478.466064,-13.104484,13.743746,-26.029812
-1.540000,1.780000,0.220387,0.040000,-812201199.504773,-1498752836184.764893,1650055828530.456787,-2946828118518.574219,-29.092563,30.232818,-55.519950
-1.580000,1.780000,0.220106,0.040000,-5602793422.046950,-2439765728910.238281,2765542400009.620117,-767232027303.366089,-47.807947,50.263076,-14.455096
-1.500000,1.740000,0.260017,0.040000,3863837752.824124,607327442299.636108,-671561734810.773560,-1547599106308.863525,11.805464,-12.289549,-29.157664
-1.460000,1.740000,0.260096,0.040000,6425897816.923464,1679651987081.135986,-1658556017604.117432,-815993812433.645386,31.526379,-31.367395,-15.373796
-1.460000,1.780000,0.220113,0.040000,12169067568.823483,2642444698645.375488,-2957635433196.123047,-2218197526346.767090,51.566703,-53.942053,-41.792127
-1.500000,1.780000,0.220020,0.040000,6297448495.134189,907733218367.232788,-892429336813.241821,-3525517788315.000000,17.015720,-16.900386,-66.422799
-1.420000,1.740000,0.260316,0.040000,6496890269.387833,2190639135029.968994,-2229978966554.456543,92782774494.483353,41.495267,-41.791741,1.748081
-1.380000,1.740000,0.260015,0.040000,3387773845.852801,1773971661438.205566,-1859917252346.727051,1618833454294.963379,33.908434,-34.556140,30.499761
-1.380000,1.780000,0.220017,0.040000,8383665394.275071,3105265621784.682129,-3389074277152.929688,2947728975226.651367,60.109140,-62.247988,55.536923
-1.420000,1.780000,0.220373,0.040000,13379713695.056969,3674343918447.962891,-4057429503725.248047,102422547.326982,71.392036,-74.279058,0.001930
-1.340000,1.740000,0.260103,0.040000,-2227134762.761675,418773349590.950928,-352887329866.028442,2235542962881.913086,7.517533,-7.021001,42.118925
-1.300000,1.740000,0.260304,0.040000,-8496614923.940760,-1077251492370.903198,995648340028.824341,2195985258933.561523,-19.834807,19.219827,41.373635
-1.300000,1.780000,0.220359,0.040000,-13400211272.839172,-1408150479558.136230,1600174718143.984863,4515546235093.780273,-27.615726,29.062865,85.075509
-1.340000,1.780000,0.220121,0.040000,-1680533698.175870,771909957168.828735,-967598149298.843750,4477563525809.859375,15.649295,-17.124046,84.359893
-1.260000,1.740000,0.260012,0.040000,-13070266853.595161,-2527361976548.965820,2606079514132.637207,1532754848992.060791,-48.061890,48.655124,28.877990
-1.220000,1.740000,0.260109,0.040000,-13965956599.418339,-3102120957084.186035,3124834203421.471191,-246566231602.017273,-58.574136,58.745309,-4.645451
-1.220000,1.780000,0.220129,0.040000,-25078488761.869480,-4743861950805.749023,5172444524661.087891,-9915710453.003048,-91.799532,95.029430,-0.186818
-1.260000,1.780000,0.220014,0.040000,-22420989373.305504,-3906556088252.680664,4188889512293.774414,3056212688224.510742,-75.197579,77.325309,57.580819
-1.180000,1.740000,0.260292,0.040000,-10290134096.039949,-2717979224369.436035,2697687094509.753418,-1430476028630.037598,-51.093610,50.940683,-26.950998
-1.140000,1.740000,0.260010,0.040000,-2570499283.380920,-1587442866018.999023,1691671983381.364990,-2875661853429.376953,-30.497465,31.282960,-54.179136
-1.140000,1.780000,0.220012,0.040000,-7123806486.198071,-2604986160941.377930,2759441744980.968750,-5067978124131.781250,-49.952459,51.116472,-95.483646
-1.180000,1.780000,0.220346,0.040000,-19694099116.367222,-4146130061820.451660,4563312321819.731445,-2610959203547.364258,-80.473481,83.617463,-49.191985
-1.100000,1.740000,0.260117,0.040000,7376862290.274181,296034163298.611511,-396429979742.320801,-3215439524747.640625,6.144910,-6.901516,-60.580745
-1.060000,1.740000,0.260281,0.040000,16965372177.987518,1938873469751.020996,-1854559520393.817383,-2691574530177.756348,36.052943,-35.417534,-50.710824
-1.060000,1.780000,0.220332,0.040000,25879999373.485535,2629988586766.060059,-2911556026954.436523,-4984216515563.527344,51.141978,-53.263935,-93.905529
-1.100000,1.780000,0.220138,0.040000,9533245385.169502,426764995291.389099,-340168948659.994629,-5807692833522.902344,7.551044,-6.898436,-109.420300
-1.020000,1.740000,0.260008,0.040000,23555893403.120407,3385643234778.445801,-3456024216440.824707,-1807737539847.789307,64.185287,-64.715694,-34.058823
-0.980000,1.740000,0.260124,0.040000,25158249736.230850,3908260926549.084961,-3917968119536.274902,217527152532.930603,73.688768,-73.761924,4.098338
-0.980000,1.780000,0.220146,0.040000,40987172307.052444,5604196334521.080078,-6037570487222.155273,29251411043.012142,108.035814,-111.301822,0.551114
-1.020000,1.780000,0.220009,0.040000,37470817915.318329,4920687708672.444336,-5243433903975.999023,-3165235988034.144043,94.532827,-96.965117,-59.634881
-0.940000,1.740000,0.260270,0.040000,20933761829.294777,3537652598036.448730,-3505984808772.260742,1490390448229.568848,66.472434,-66.233778,28.079820
-0.900000,1.740000,0.260006,0.040000,11391660144.167669,2476783432365.896484,-2570508859961.048340,3187747848017.766602,47.193788,-47.900125,60.059017
-0.900000,1.780000,0.220007,0.040000,20461580725.467506,3655196000945.160156,-3853734860897.136719,5204694934593.076172,69.988188,-71.484423,98.059470
-0.940000,1.780000,0.220319,0.040000,35042714250.112625,5029501975380.036133,-5453305396695.557617,2590696927364.161133,97.154144,-100.348024,48.810232
-0.860000,1.740000,0.260131,0.040000,-1739226718.792680,623306698595.175781,-518474106771.343323,3743531587430.757324,11.150927,-10.360885,70.530305
-0.820000,1.740000,0.260259,0.040000,-15904720150.058649,-1107868468297.488770,1002703359335.659302,3703142594330.957031,-20.278473,19.485924,69.769353
-0.820000,1.780000,0.220306,0.040000,-22200566493.751534,-1372233629331.112549,1557030281746.677734,6216824169394.254883,-26.898180,28.290850,117.128571
-0.860000,1.780000,0.220155,0.040000,24491171.983634,825154819025.615479,-993297596722.590088,6289428860836.962891,16.496767,-17.763930,118.496486
-0.780000,1.740000,0.260005,0.040000,-28275828937.154789,-2938005973668.814941,3026975014923.184082,3117297341622.701660,-55.856604,56.527096,58.731689
-0.740000,1.740000,0.260139,0.040000,-36327118694.944832,-3994477705890.367188,3951748083012.551270,1402718987305.268066,-75.016760,74.694740,26.428039
-0.740000,1.780000,0.220164,0.040000,-54694905327.241974,-5431463615251.794922,5840898167385.724609,2519340808762.232422,-104.646118,107.731712,47.465841
-0.780000,1.780000,0.220006,0.040000,-41753539296.804649,-4119404157717.323242,4322294350901.059570,5069482458365.508789,-78.758733,80.287761,95.511988
-0.700000,1.740000,0.260249,0.040000,-38324991771.981148,-4449409302629.890625,4453680535704.744141,144689216318.122284,-83.853592,83.885781,2.726029
-0.660000,1.740000,0.260003,0.040000,-33639845591.682957,-4104043920801.007812,4149714955993.658203,-1973200007881.536133,-77.580707,77.924895,-37.176232
-0.660000,1.780000,0.220004,0.040000,-51785455946.150787,-5650033822168.664062,5985931294284.596680,-2960575368887.539062,-108.348464,110.879865,-55.778956
-0.700000,1.780000,0.220294,0.040000,-58353656460.342545,-6092513346714.263672,6500755049762.756836,121540764073.670502,-117.093936,120.170541,2.289898
-0.620000,1.740000,0.260147,0.040000,-22839108978.939159,-2916080157536.808105,2834763590347.708984,-3009896742018.971680,-54.481025,53.868205,-56.708199
-0.580000,1.740000,0.260238,0.040000,-7562411689.104432,-1457808787587.983398,1560265224662.275879,-4096063194687.419922,-28.045064,28.817200,-77.172205
-0.580000,1.780000,0.220282,0.040000,-13171630321.467787,-2093245478725.326416,2139293255825.616943,-6433824495619.371094,-39.698228,40.045255,-121.216983
-0.620000,1.780000,0.220174,0.040000,-35885857270.755493,-3888743919995.066895,4217074979183.813965,-4893436101129.993164,-75.121974,77.596353,-92.195173
-0.540000,1.740000,0.260002,0.040000,9782300255.540987,538014086623.887146,-647191331341.302734,-4245781325135.007324,10.753586,-11.576371,-79.992981
-0.500000,1.740000,0.260155,0.040000,26437102257.608860,2138247243612.450684,-2042136356864.830566,-3645271674870.350586,39.742582,-39.018268,-68.679032
-0.500000,1.780000,0.220183,0.040000,37583758177.881798,2760044383826.387695,-3016500283298.252930,-5812878049112.615234,53.450370,-55.383081,-109.517992
-0.540000,1.780000,0.220003,0.040000,12701829145.372936,818879591508.631348,-774057288629.137451,-6690379373559.795898,15.174823,-14.837031,-126.050626
-0.460000,1.740000,0.260228,0.040000,39750373534.826820,3675494234608.225586,-3741659510806.825195,-2851794171308.664062,69.622420,-70.121057,-53.729455
-0.420000,1.740000,0.260001,0.040000,47596045113.875824,4445054447035.769531,-4410370192065.916016,-987702510434.607544,83.551361,-83.289973,-18.608888
-0.420000,1.780000,0.220002,0.040000,69347507501.058411,5890385842635.425781,-6280863345100.875000,-1705261039163.120361,113.185331,-116.128060,-32.128107
-0.460000,1.780000,0.220270,0.040000,57514963881.248520,4973839303470.176758,-5224342004763.055664,-4340493365006.638672,95.125901,-97.013747,-81.777411
-0.380000,1.740000,0.260163,0.040000,48693457354.389702,4629940424949.850586,-4614162828535.510742,241477448699.932770,87.141584,-87.022680,4.549575
-0.340000,1.740000,0.260218,0.040000,42785715806.555542,4155539881634.181641,-4199786364708.597656,2240176845798.797363,78.542869,-78.876321,42.206230
-0.340000,1.780000,0.220258,0.040000,62745339694.530945,5557662665449.890625,-5851869246158.481445,3318751048725.526367,106.372493,-108.589702,62.527194
-0.380000,1.780000,0.220193,0.040000,71207800216.902267,6139689522003.739258,-6525356821628.212891,534250791107.883423,117.855168,-120.761647,10.065595
-0.300000,1.740000,0.260001,0.040000,30658431352.913448,2930871863358.056641,-2845110201268.288574,3186645989969.655273,54.734585,-54.088265,60.038258
-0.260000,1.740000,0.260172,0.040000,14004783979.155201,1525544951703.526123,-1622452642856.437256,4188910156600.924805,29.289890,-30.020209,78.921496
-0.260000,1.780000,0.220203,0.040000,20916317097.877522,2106813291884.664062,-2145316287712.278076,6391926740859.086914,39.911209,-40.201377,120.427605
-0.300000,1.780000,0.220001,0.040000,45145093481.324112,3792278113397.860352,-4090429330681.399902,5019337227211.928711,73.133921,-75.380857,94.567223
-0.220000,1.740000,0.260209,0.040000,-4836170301.904819,-382036677107.656616,487022918862.624146,4337175824259.777832,-7.791193,8.582394,81.714907
-0.180000,1.740000,0.260000,0.040000,-23225431973.691998,-1916905001994.379639,1820563172055.360107,3821572584727.144043,-35.571061,34.845006,72.000643
-0.180000,1.780000,0.220000,0.040000,-33240557437.643219,-2442286336184.747070,2670826549674.165039,5912801023468.011719,-47.305839,49.028171,111.400599
-0.220000,1.780000,0.220247,0.040000,-6499871074.942306,-615995886128.939941,565035764032.236572,6643297753007.914062,-11.317684,10.933637,125.163581
-0.140000,1.740000,0.260181,0.040000,-38602860238.296616,-3450696993207.191406,3516490711483.386719,3115250492691.747070,-65.385009,65.880846,58.693125
-0.100000,1.740000,0.260199,0.040000,-48845791001.352516,-4284984965229.934570,4240387463664.929688,1399180046512.266357,-80.479528,80.143431,26.361363
-0.100000,1.780000,0.220235,0.040000,-70417424714.780991,-5602526005470.919922,5967641981715.748047,2263347947196.597656,-107.618537,110.370135,42.642787
-0.140000,1.780000,0.220214,0.040000,-55573738807.370773,-4617506710081.909180,4832814054173.765625,4635742595386.920898,-88.213458,89.836064,87.340078
-0.060000,1.740000,0.260000,0.040000,-52559492328.691795,-4632741161055.650391,4624814638693.899414,238020277344.143951,-87.238727,87.178991,4.484440
-0.020000,1.740000,0.260190,0.040000,-49262232739.161354,-4338432938017.995117,4368418926301.382812,-1737199130444.191650,-81.908078,82.134059,-32.729839
-0.020000,1.780000,0.220224,0.040000,-70908799264.898193,-5731194079157.666016,6036195830447.625977,-2530339371856.572754,-109.702942,112.001506,-47.673061
-0.060000,1.780000,0.220000,0.040000,-75757026013.226105,-6086941790147.852539,6447065096842.300781,183948873555.974365,-116.716992,119.430964,3.465703
0.020000,1.740000,0.260190,0.040000,-39442579213.923340,-3338777240037.812012,3262997496214.215332,-2727374882502.481934,-62.476178,61.905085,-51.385324
0.060000,1.740000,0.260000,0.040000,-24483562361.352100,-2091661946659.293701,2179493404688.171631,-3908589629632.483887,-39.904562,40.566481,-73.640094
0.060000,1.780000,0.220000,0.040000,-34848376654.916046,-2821824797282.544434,2906568874260.270996,-5912617627323.229492,-53.643803,54.282454,-111.397144
0.020000,1.780000,0.220224,0.040000,-56598478448.188400,-4305526098356.001465,4617334598311.457031,-4296100213445.140137,-82.881004,85.230865,-80.941019
0.100000,1.740000,0.260199,0.040000,-6465534686.539094,-294742882465.743713,192493058693.253387,-4204905839046.569336,-4.975193,4.204615,-79.222864
0.140000,1.740000,0.260181,0.040000,12125020004.016628,1231207574716.084961,-1133045337983.583496,-3973229293670.622559,22.641834,-21.902061,-74.857943
0.140000,1.780000,0.220214,0.040000,18255755319.424755,1545484975581.116943,-1723875438562.673828,-6111136122108.532227,30.126127,-31.470519,-115.137347
0.100000,1.780000,0.220235,0.040000,-8690422779.323366,-268138906653.721069,367136115918.339050,-6437146434121.391602,-5.611442,6.357508,-121.279570
0.180000,1.740000,0.260000,0.040000,28741488277.337811,2859006909212.465820,-2933167100489.500000,-3423703845268.896973,54.284514,-54.843402,-64.504565
0.220000,1.740000,0.260209,0.040000,41131517811.148842,3843629590558.299805,-3788705582765.879395,-1913630989391.517578,72.105770,-71.691850,-36.053917
0.220000,1.780000,0.220247,0.040000,60114048286.794853,5031300380395.573242,-5376528369482.966797,-3034977182062.765137,96.743904,-99.345623,-57.180730
0.180000,1.780000,0.220000,0.040000,42283740663.417679,3859285830636.719238,-4024930639103.368164,-5123263380909.101562,73.647436,-74.895773,-96.525252
0.260000,1.740000,0.260172,0.040000,47651855235.466568,4423689508770.757812,-4430447933209.357422,-817851137928.858521,83.383075,-83.434008,-15.408790
0.300000,1.740000,0.260001,0.040000,47500128067.139679,4330495060794.097168,-4349509025800.170410,1144841280512.059082,81.696508,-81.839801,21.569473
0.300000,1.780000,0.220001,0.040000,68827871516.066635,5746150659412.130859,-6070525034618.991211,1658365404122.226807,110.094230,-112.538790,31.244566
0.260000,1.780000,0.220203,0.040000,69352106075.188004,5856962394800.622070,-6198042880836.426758,-1063937402514.477417,112.276413,-114.846875,-20.045197
0.340000,1.740000,0.260218,0.040000,40830136354.533897,3542650260938.474609,-3478687127962.014648,2184982260101.378662,66.384054,-65.902013,41.166332
0.380000,1.740000,0.260163,0.040000,28731964934.084667,2417737184044.368164,-2500118244697.575195,3509070765667.842773,46.017202,-46.638045,66.112927
0.380000,1.780000,0.220193,0.040000,40774401000.155678,3270506023140.220703,-3392317147575.856445,5386105312325.229492,62.306727,-63.224724,101.477346
0.340000,1.780000,0.220258,0.040000,58768298252.850357,4618880173102.561523,-4948002696872.719727,3538460158554.992676,88.882638,-91.362981,66.666641
0.420000,1.740000,0.260001,0.040000,13076116026.875515,698859212117.792358,-599489783359.273071,3906333782651.121094,12.605259,-11.856388,73.597593
0.460000,1.740000,0.260228,0.040000,-3760122684.314115,-823800259994.990112,726556956517.989014,3831231930747.662109,-14.971238,14.238390,72.182631
0.460000,1.780000,0.220270,0.040000,-7244461790.552768,-1036856789725.258057,1191598793532.150879,6007233481861.497070,-20.409612,21.575783,113.179761
0.420000,1.780000,0.220002,0.040000,17599887344.661457,799975036365.621826,-929312337991.561279,6111049021682.085938,15.803030,-16.777746,115.135706
0.500000,1.740000,0.260155,0.040000,-19248071142.349598,-2482502248756.945801,2561187028537.970703,3347292847972.088867,-47.216522,47.809508,63.064938
0.540000,1.740000,0.260002,0.040000,-31094734138.953171,-3505685528349.946777,3453629042653.045898,1906141262279.412354,-65.754915,65.362606,35.912806
0.540000,1.780000,0.220003,0.040000,-47284916358.665352,-4681473313751.117188,5026873245032.181641,3080732020382.663574,-90.153932,92.756946,58.042777
0.500000,1.780000,0.220183,0.040000,-30010480832.457607,-3436194654170.894531,3587364805157.258301,5123688983502.980469,-65.594339,66.733593,96.533271
0.580000,1.740000,0.260238,0.040000,-37603471986.793251,-4102504884286.078125,4114445233883.747070,820853508525.358276,-77.361059,77.451044,15.465356
0.620000,1.740000,0.260147,0.040000,-37950090902.439606,-3986105043519.562500,4013362464430.986816,-1112978326566.851807,-75.254593,75.460012,-20.969157
0.620000,1.780000,0.220174,0.040000,-56504059845.546921,-5414912674331.450195,5740792217814.977539,-1700476416241.063721,-103.862022,106.317926,-32.037961
0.580000,1.780000,0.220282,0.040000,-56529763981.788383,-5553077108588.052734,5899448222137.563477,1073770227107.164917,-106.580942,109.191275,20.230454
0.660000,1.740000,0.260003,0.040000,-32325070788.203934,-3130942504677.637207,3068330404767.481445,-2124750942605.963867,-58.634877,58.163018,-40.031539
0.700000,1.740000,0.260249,0.040000,-21910405379.128479,-1929344918399.845947,2017848980846.969482,-3311332100417.830566,-36.850217,37.517204,-62.387416
0.700000,1.780000,0.220294,0.040000,-31282449280.965176,-2679361444702.907715,2771380221383.645996,-5321470979209.846680,-51.000829,51.694304,-100.259598
0.660000,1.780000,0.220004,0.040000,-47491492056.414345,-4161360008904.823242,4485941477074.666992,-3596356819813.759766,-80.237026,82.683147,-67.757447
0.740000,1.740000,0.260139,0.040000,-8684645000.022434,-168450884429.945343,70212936491.459015,-3578179793207.791504,-2.618454,1.878110,-67.414982
0.780000,1.740000,0.260005,0.040000,4920817965.159442,1319445811379.622803,-1233556265008.002441,-3207664991689.783203,24.373661,-23.726378,-60.434268
0.780000,1.780000,0.220006,0.040000,9936397876.788809,1790872497321.446045,-2004535401159.392090,-5282085838313.847656,34.948736,-36.558949,-99.517559
0.740000,1.780000,0.220164,0.040000,-10895066426.731468,-68486669036.039749,150208519517.157440,-5830955904289.282227,-1.752235,2.368109,-109.858590
0.820000,1.740000,0.260259,0.040000,16461833025.757467,2766856042832.721680,-2835633251701.560059,-2531803258485.073242,52.517913,-53.036234,-47.700641
0.860000,1.740000,0.260131,0.040000,23941743299.968578,3471894704298.214844,-3454920072833.296875,-862967950509.712646,65.316565,-65.188641,-16.258816
0.860000,1.780000,0.220155,0.040000,38483072122.860985,4854929120531.919922,-5227570211237.156250,-1471261331384.777344,93.575911,-96.384221,-27.719416
0.820000,1.780000,0.220306,0.040000,27432081896.953884,3961287977707.717773,-4189636435699.663086,-3980994112610.692871,75.923627,-77.644514,-75.004237
0.900000,1.740000,0.260006,0.040000,26203000446.101494,3530925888424.946289,-3521470770363.740723,263784106380.383301,66.471249,-66.399993,4.969845
0.940000,1.740000,0.260270,0.040000,23164806955.628082,2902965194981.819824,-2968290824357.727051,1955656131422.871338,55.062779,-55.555088,36.845695
0.940000,1.780000,0.220319,0.040000,35697035183.408607,4132400982318.320801,-4375969508045.954102,3326068460676.023438,79.233522,-81.069111,62.665058
0.900000,1.780000,0.220007,0.040000,41277215142.954643,4939885891346.252930,-5313331897277.306641,738672919924.650146,95.181096,-97.995471,13.917026
0.980000,1.740000,0.260124,0.040000,15843706860.248728,1527602444554.376221,-1446494342803.932617,2641373165814.592773,28.322479,-27.711229,49.765002
1.020000,1.740000,0.260008,0.040000,6134278432.585256,80073965257.882172,-167764983745.312683,2976473808377.059082,2.004285,-2.665145,56.078492
1.020000,1.780000,0.220009,0.040000,7402383501.944876,110933380838.534409,-15893413283.285536,5195053146683.256836,1.552867,-0.836624,97.877813
0.980000,1.780000,0.220146,0.040000,23381504935.210808,2003224886088.725830,-2218620075701.086426,4692603236745.123047,38.959369,-40.582637,88.411365
1.060000,1.740000,0.260281,0.040000,-3620090900.420145,-1546838274792.091797,1634450920447.011230,2640098379687.616699,-29.638532,30.298801,49.740984
1.100000,1.740000,0.260117,0.040000,-11181128362.701088,-2524956956185.552246,2500371520608.460449,1358931371468.787109,-47.432692,47.247410,25.603055
1.100000,1.780000,0.220138,0.040000,-20376174806.424538,-3735574335097.382812,4088968090422.738281,2401500232551.061035,-72.377829,75.041086,45.245657
1.060000,1.780000,0.220332,0.040000,-8411445111.959259,-2439827256683.057129,2577179927820.846680,4490960647601.926758,-46.744101,47.779223,84.612302
1.140000,1.740000,0.260010,0.040000,-14965384933.473488,-2909660031524.078125,2927680400088.394043,329744854044.546570,-54.921536,55.057342,6.212584
1.180000,1.740000,0.260292,0.040000,-14443765433.886890,-2494997865289.881348,2556036717190.987793,-1286865217769.152832,-47.352208,47.812211,-24.245287
1.180000,1.780000,0.220346,0.040000,-24067417425.090782,-3743744628293.479492,4006820562176.225586,-2441712352627.922852,-72.021270,74.003871,-46.003276
1.140000,1.780000,0.220012,0.040000,-25876918193.546932,-4326622288565.254395,4688799256066.285156,228870172762.579926,-83.563159,86.292609,4.312047
1.220000,1.740000,0.260109,0.040000,-10266497693.931862,-1313637012682.802490,1246252450779.505127,-1959224179337.632080,-24.368814,23.860988,-36.912919
1.260000,1.740000,0.260012,0.040000,-4053004143.499308,-2650449711.186141,72782437853.493546,-2233091544694.672852,-0.446334,0.974865,-42.072739
1.260000,1.780000,0.220014,0.040000,-4906260399.976164,60655645683.919807,-171544546437.367828,-4272410690076.912109,1.769551,-2.605235,-80.494694
1.220000,1.780000,0.220129,0.040000,-16121264689.478512,-1779331503271.289551,1986459367239.657715,-3872794429309.280273,-34.694360,36.255323,-72.965692
1.300000,1.740000,0.260304,0.040000,2117268850.279351,1364282858598.758057,-1444935525240.657715,-1845790723784.043701,26.159743,-26.767560,-34.775767
1.340000,1.740000,0.260103,0.040000,6372375290.177264,2023495085279.979492,-2033484503357.898682,-600748250047.170532,38.180282,-38.255565,-11.318445
1.340000,1.780000,0.220121,0.040000,12922425086.100327,3262291211127.172852,-3603287635787.156738,-1070496461434.974243,63.390829,-65.960657,-20.168774
1.300000,1.780000,0.220359,0.040000,5884745279.866999,2344470835787.954102,-2525595977434.397461,-3352182199859.811035,45.194940,-46.559942,-63.157056
1.380000,1.740000,0.260015,0.040000,7657022543.877303,1957703413551.864990,-1959731470340.133789,288794470783.107849,36.895730,-36.911014,5.441055
1.420000,1.740000,0.260316,0.040000,6057451516.679420,1226246234934.985840,-1291569682516.407715,1340930358107.515137,23.472409,-23.964702,25.263905
1.420000,1.780000,0.220373,0.040000,10511110157.048302,1942689006012.572021,-2055549456297.160400,2902773215335.193848,37.239294,-38.089836,54.689930
1.380000,1.780000,0.220017,0.040000,14368123189.912268,3078329775818.308594,-3400301666252.406738,1007633139368.166870,59.817359,-62.243813,18.984392
1.460000,1.740000,0.260096,0.040000,2697018060.224602,18665428322.529198,53802221520.786438,1522643951193.507324,-0.057932,0.604065,28.687495
1.500000,1.740000,0.260017,0.040000,-781747742.522726,-902413445497.234131,890791302884.658813,1026278581596.994751,-16.936302,16.848715,19.335683
1.500000,1.780000,0.220020,0.040000,-3102389003.655013,-1659758815437.985596,1912545697277.742676,2135501939108.197021,-32.699614,34.604674,40.234095
1.460000,1.780000,0.220113,0.040000,3606981152.497855,-255338393569.851074,248815931291.407532,3255942937975.069336,-4.773857,4.724702,61.343852
1.540000,1.740000,0.260327,0.040000,-2945825220.203381,-1349255031510.482666,1387018348836.658203,378307434343.161255,-25.634192,25.918785,7.127531
1.580000,1.740000,0.260090,0.040000,-3183123933.586023,-1071178378153.812622,1120230168482.277588,-586692474000.366699,-20.458871,20.828537,-11.053626
1.580000,1.780000,0.220106,0.040000,-6506371526.226817,-1861523776235.541504,2025522847274.344238,-1558293342206.031494,-35.999138,37.235073,-29.359150
1.540000,1.780000,0.220387,0.040000,-6831337964.392084,-2399993000249.916504,2676297139148.634766,413810444677.624878,-46.778978,48.861271,7.796429
1.620000,1.740000,0.260020,0.040000,-1891222931.972885,-277846538749.925720,229910162200.872223,-870954538953.495972,-4.963845,4.602585,-16.409288
1.660000,1.740000,0.260340,0.040000,-136608422.219174,419334352759.817383,-415915769624.872864,-658842163268.306763,7.881180,-7.855417,-12.412968
1.660000,1.780000,0.220401,0.040000,741429282.233347,941574825172.328369,-1128441498492.887451,-1531279340601.396973,18.796018,-20.204289,-28.850190
1.620000,1.780000,0.220024,0.040000,-3172416264.208747,-232888331338.723389,278073431236.050232,-2213554677402.656738,-4.643145,4.983671,-41.704653
1.700000,1.740000,0.260083,0.040000,1024246333.602042,743820940725.485107,-775625792571.192261,-230588820777.778442,14.193784,-14.433473,-4.344427
1.740000,1.740000,0.260023,0.040000,1147031658.138105,517757629560.054016,-549713465895.880920,346152439947.501221,9.935474,-10.176300,6.521713
1.740000,1.780000,0.220027,0.040000,2619732423.668639,959861536956.913452,-1041728396738.571533,1119184809278.219238,18.547074,-19.164041,21.086091
1.700000,1.780000,0.220099,0.040000,2937082201.332497,1487504785707.230957,-1692561311206.004395,-200166203602.919342,29.184468,-30.729821,-3.771247
1.780000,1.740000,0.260352,0.040000,540535526.845202,7372244808.045178,28242360042.941162,438804039585.602417,-0.062403,0.330802,8.267322
1.820000,1.740000,0.260077,0.040000,-118907086.137820,-304957161843.246582,318824979209.854980,185752861443.934967,-5.823953,5.928464,3.499692
1.820000,1.780000,0.220092,0.040000,-796776140.243267,-762236244853.145752,903963269296.773071,378533270315.221375,-15.162039,16.230126,7.131786
1.780000,1.780000,0.220416,0.040000,785275314.391555,-221311506156.095795,255054199311.365265,1243996465694.724365,-4.360357,4.614649,23.437615
1.860000,1.740000,0.260027,0.040000,-362167710.892597,-279307322161.500549,283283377161.329163,-51283518808.264481,-5.284785,5.314750,-0.966211
1.900000,1.740000,0.260365,0.040000,-211670198.669082,-47919442720.264343,52839698109.066284,-179720221618.985229,-0.930640,0.967720,-3.386033
1.900000,1.780000,0.220431,0.040000,-381227929.154386,9470813080.387506,-53131173478.973175,-612127660077.821655,0.425212,-0.754246,-11.532840
1.860000,1.780000,0.220031,0.040000,-1074175444.889155,-545068151328.745911,634067327445.486084,-429706460417.937195,-10.772439,11.443157,-8.095919
1.940000,1.740000,0.260072,0.040000,13264279.619926,120133080340.476868,-136044829129.406021,-95951501214.526581,2.353313,-2.473227,-1.807782
1.980000,1.740000,0.260030,0.040000,87650943.062203,88764483325.389999,-96416353969.757217,42386006493.097031,1.715624,-1.773290,0.798577
1.980000,1.780000,0.220035,0.040000,294286539.215221,188867381337.352844,-205045813103.652008,255987886953.645111,3.649814,-3.771739,4.822960
1.940000,1.780000,0.220085,0.040000,253322225.647866,367098552362.861511,-437501607155.994629,-166099360961.611145,7.314280,-7.844854,-3.129408
2.020000,1.740000,0.260377,0.040000,39663590.703993,-9162698392.900326,17079710363.151688,52879579750.560997,-0.217379,0.277043,0.996282
2.060000,1.740000,0.260066,0.040000,-6210011.573794,-33688852720.143929,37692170501.062866,3455489196.540491,-0.657345,0.687515,0.065103
2.060000,1.780000,0.220078,0.040000,-76555140.251178,-101842843055.063629,120276107934.095154,-51274780762.565826,-2.022966,2.161884,-0.966047
2.020000,1.780000,0.220446,0.040000,36990860.262621,-106399879540.364365,131768703386.753693,183369712121.304932,-2.148024,2.339210,3.454792
2.100000,1.740000,0.260034,0.040000,-8120669.531130,-6253811235.856930,4517573455.085331,-12892280881.171448,-0.108012,0.094927,-0.242898
2.140000,1.740000,0.260390,0.040000,2272594.687655,5805383943.566953,-7579406374.785067,-4171636961.888723,0.119404,-0.132773,-0.078596
2.140000,1.780000,0.220461,0.040000,15754977.130734,26762340297.404999,-35004964545.070175,6714413649.865456,0.550807,-0.612925,0.126503
2.100000,1.780000,0.220040,0.040000,-23896756.331035,20362626901.315926,-23777574875.991558,-70285873510.642288,0.402946,-0.428681,-1.324227
2.180000,1.740000,0.260061,0.040000,4704165.086009,2065856635.560889,-1775678983.836215,1962281738.481779,0.037282,-0.035095,0.036971
2.220000,1.740000,0.260038,0.040000,3672020.731892,-294834048.822661,784445729.049477,1064128557.903429,-0.008322,0.012012,0.020049
2.220000,1.780000,0.220045,0.040000,2104347.716813,-3258745347.620118,5158850268.424715,-1369685045.488761,-0.072136,0.086456,-0.025806
2.180000,1.780000,0.220072,0.040000,8420601.904145,-3941135455.558177,5082303245.929344,15377495401.216526,-0.080703,0.089303,0.289721
2.260000,1.740000,0.240082,0.040000,3032264.463309,769681369.097143,-639906052.992714,-881647721.021882,0.013768,-0.012790,-0.016611
2.300000,1.740000,0.200098,0.040000,1698257.899287,-2082336850.975701,38232053.149767,-7819435159.846101,-0.027679,0.012274,-0.147323
2.300000,1.780000,0.200038,0.040000,4032779.089818,-1586278872.075921,1033805521.210380,974783613.423965,-0.026764,0.022600,0.018365
2.260000,1.780000,0.220477,0.040000,3062442.369035,-313126438.692781,-839128805.458561,-2095272181.672769,0.000613,-0.009297,-0.039476
2.340000,1.740000,0.160123,0.040000,9466946.278908,-40440483456.927368,-2291544689.141623,-24741061443.801258,-0.520393,0.198355,-0.466136
2.380000,1.740000,0.120164,0.040000,124330999.174829,328466882491.628174,-1586244364044.731934,74834646257.192795,13.297684,-22.776586,1.409928
2.380000,1.780000,0.120063,0.040000,-20213471.662468,-267672111076.730865,971845787470.180664,-12912597686.744387,-9.023210,14.330026,-0.243281
2.340000,1.780000,0.160047,0.040000,5867221.761781,-4712042988.519470,22930153994.800579,16551170574.793762,-0.191750,0.329045,0.311834
2.420000,1.740000,0.080245,0.040000,506259071.847821,6124502434900.937500,-20696009881701.839844,-8166650832688.074219,197.749871,-307.564130,-153.864436
2.460000,1.740000,0.040488,0.040000,-10540830349.246391,7376196438260.471680,-63525559799886.523438,-26397902685155.324219,456.337784,-879.492406,-497.351790
2.460000,1.780000,0.040188,0.040000,4861415314.328175,-15428856502515.210938,-13145813802185.498047,-22476279877418.480469,-129.179595,-86.165747,-423.466143
2.420000,1.780000,0.080094,0.040000,-292810529.744282,-2643016266706.773438,-4431775432438.820312,-9169974546832.142578,-9.808006,-43.509265,-172.767636
2.500000,1.740000,0.006269,0.040000,-551572679911.823242,147018515421626.062500,-236009357986183.093750,-45884046924754.234375,3272.905778,-3943.561403,-864.482044
2.500000,1.780000,0.003881,0.040000,309906818476.360352,-138553383510077.968750,96770689126475.578125,-40458441223353.140625,-2374.263011,2059.378937,-762.260487
-2.500000,1.820000,0.014030,0.040000,-174462452986.490234,175063000078832.343750,5803890933907.041992,-111276597037193.562500,2275.997284,-912.942453,-2096.515596
-2.500000,1.860000,0.005672,0.040000,6802616166.550324,33843710308296.164062,25252832212110.718750,-16058572947828.531250,303.611186,141.754062,-302.552824
-2.460000,1.820000,0.042389,0.040000,2072095019.422610,41887260730838.039062,35868332554532.687500,-63841475876759.164062,349.692139,236.292043,-1202.810415
-2.420000,1.820000,0.081221,0.040000,-99041544.079168,5128752806783.013672,11680124081649.109375,-18629552319849.718750,1.621981,125.053613,-350.991565
-2.420000,1.860000,0.080201,0.040000,22702740.134088,2198555505181.482910,-3585887414780.761719,514675754748.265076,49.263501,-59.718756,9.696790
-2.460000,1.860000,0.040400,0.040000,-301757190.341901,14607974922667.410156,-8816803765401.101562,-7432087168490.493164,242.490009,-198.846401,-140.024831
-2.380000,1.820000,0.120817,0.040000,9917481.544617,180039687137.671570,-593135782219.583618,43150609023.672592,5.726943,-8.840131,0.812982
-2.340000,1.820000,0.160614,0.040000,10554498.120935,-13128186088.552202,15287641589.378614,547191844.317523,-0.259548,0.275822,0.010309
-2.340000,1.860000,0.140078,0.040000,10036978.720074,18324724054.021919,-17196054969.965321,3870453889.112215,0.338869,-0.330363,0.072922
-2.380000,1.860000,0.120134,0.040000,9545990.392126,-11564124774.909037,31283040516.251629,-5390656785.061626,-0.329330,0.477936,-0.101563
-2.300000,1.820000,0.180081,0.040000,10206374.908103,2514603233.462147,-217235503.481306,-1779480043.626213,0.034391,-0.017078,-0.033526
-2.260000,1.820000,0.180582,0.040000,10570719.655442,-2966042322.033970,-8127990807.220037,4337953520.552453,0.006823,-0.090431,0.081730
-2.260000,1.860000,0.140748,0.040000,28998933.420617,-118021851693.885544,2155176219.174750,-87455772323.907532,-1.568702,0.695503,-1.647717
-2.300000,1.860000,0.140104,0.040000,7079896.078201,-34434285162.373322,39768325425.928558,8728179327.261646,-0.678911,0.719109,0.164444
-2.220000,1.820000,0.180055,0.040000,-26483.027701,2413072201.205554,13175823383.248425,22664544496.359257,-0.042647,0.160129,0.427013
-2.180000,1.820000,0.180088,0.040000,19601446.349609,-57651750206.946556,62280361525.374023,-73974541862.759399,-1.112354,1.147236,-1.393723
-2.180000,1.860000,0.140113,0.040000,-123549705.468270,-684302942010.558960,704365618467.095337,-171954386013.529449,-13.006062,13.157259,-3.239720
-2.220000,1.860000,0.140070,0.040000,-18160898.783334,474657239753.095154,-251520050674.475281,253993018440.905670,7.681607,-5.999994,4.785376
-2.140000,1.820000,0.180563,0.040000,85312633.611092,150983519617.011871,-177833865954.359741,-48682731378.229546,2.996380,-3.198730,-0.917211
-2.100000,1.820000,0.180049,0.040000,-80894680.083461,116109195587.100250,-124119858057.361374,322155697902.810730,2.232842,-2.293212,6.069600
-2.100000,1.860000,0.140063,0.040000,175763151.245320,1444621640739.470459,-1518668834874.999756,1293584514644.231689,27.636037,-28.194074,24.371882
-2.140000,1.860000,0.140724,0.040000,462229777.606137,482500040585.825012,-586454755943.170532,-814911719137.908813,9.678151,-10.461577,-15.353409
-2.060000,1.820000,0.180096,0.040000,-322234676.723607,-550929713787.936523,591651965680.041992,120832858925.686676,-10.610004,10.916897,2.276561
-2.020000,1.820000,0.180545,0.040000,206587079.905209,-317870612936.289978,364535273346.570679,-804263021938.359619,-6.252623,6.604299,-15.152782
-2.020000,1.860000,0.140699,0.040000,-484802104.455274,-2394147107269.317383,2688582383586.503418,-2815735195354.633301,-46.771319,48.990251,-53.050083
-2.060000,1.860000,0.140123,0.040000,-1661668246.581868,-2136546748431.648682,2270738200795.898438,1555773401219.471924,-41.012253,42.023551,29.311673
-1.980000,1.820000,0.180043,0.040000,1089223912.244070,1060674787006.820190,-1114323087939.132568,-620250634138.983154,20.286957,-20.691263,-11.685882
-1.940000,1.820000,0.180104,0.040000,425064147.331682,1228969384611.590088,-1337712546203.939209,1128709161132.450684,23.769131,-24.588645,21.265535
-1.940000,1.860000,0.140133,0.040000,3344327784.200003,5132433399935.927734,-5605302561039.332031,2901265821510.398926,99.370759,-102.934411,54.661530
-1.980000,1.860000,0.140056,0.040000,3818848753.423851,3277735712414.890137,-3443011828696.731934,-3452700922855.979980,62.688610,-63.934169,-65.050887
-1.900000,1.820000,0.180526,0.040000,-1938247492.878958,-821766165197.795776,824337668424.243286,1963445706248.491211,-15.497086,15.516465,36.992455
-1.860000,1.820000,0.180038,0.040000,-3022448590.642007,-2656097671299.770020,2796958786079.827637,83803685513.767502,-50.838591,51.900153,1.578910
-1.860000,1.860000,0.140049,0.040000,-10031353397.259384,-7928290240408.270508,8444574583240.525391,1611312765506.380615,-152.291713,156.182552,30.358067
-1.900000,1.860000,0.140676,0.040000,-4445737245.233865,-1394460888406.115967,1366804789566.695312,6890480725747.583984,-26.116134,25.907712,129.820651
-1.820000,1.820000,0.180112,0.040000,-204983858.630567,-1585307101534.760254,1706396962956.184082,-2756010078275.050293,-30.552526,31.465087,-51.924828
-1.780000,1.820000,0.180508,0.040000,4885308915.611008,1804292396660.614014,-1841798274962.968506,-3264409599884.610840,34.205904,-34.488557,-61.503369
-1.780000,1.860000,0.140653,0.040000,10633266687.400925,3793143421546.521973,-3926384522175.692871,-9462168192962.523438,72.218123,-73.222259,-178.272734
-1.820000,1.860000,0.140144,0.040000,-3826842438.986620,-5580860253159.632812,6009474004000.218750,-7254639026825.386719,-107.569242,110.799375,-136.681605
-1.740000,1.820000,0.180034,0.040000,7214608271.111521,4256948565309.402832,-4422635445706.076172,-409852112340.703369,81.139870,-82.388525,-7.721851
-1.700000,1.820000,0.180120,0.040000,3150530444.618412,3243688201297.852539,-3390524208629.015625,3542313822164.158691,61.942909,-63.049499,66.739246
-1.700000,1.860000,0.140155,0.040000,11557274170.010210,8669315954024.047852,-9119240104428.410156,8052890983074.865234,165.877988,-169.268721,151.721134
-1.740000,1.860000,0.140043,0.040000,19272326667.584057,10757676198621.078125,-11301582347902.191406,-2194497290978.949951,205.755108,-209.854111,-41.345601
-1.660000,1.820000,0.180490,0.040000,-5754200393.737717,-749823874023.689209,738660789954.297974,5273299052357.292969,-14.064021,13.979893,99.352011
-1.620000,1.820000,0.180029,0.040000,-13460722550.379618,-4846080089002.863281,4971558142276.128906,3236768890356.339355,-92.012182,92.957814,60.982602
-1.620000,1.860000,0.140037,0.040000,-28913389763.442200,-10459135018815.085938,10850389770687.468750,8107184174104.782227,-199.267607,202.216193,152.744050
-1.660000,1.860000,0.140630,0.040000,-9343696009.513674,-835280858119.315063,822332813807.556274,12644499599335.109375,-15.663991,15.566412,238.229703
-1.580000,1.820000,0.180129,0.040000,-13765398550.696152,-6146554077583.276367,6316550972632.318359,-1346890916872.310303,-116.765494,118.046630,-25.376206
-1.540000,1.820000,0.180473,0.040000,-4700151905.105244,-3701991417122.351562,3810746430696.959961,-5618215170580.748047,-70.362367,71.181970,-105.850431
-1.540000,1.860000,0.140607,0.040000,-14885773865.338076,-8360856186174.787109,8660040973205.852539,-11620416043793.126953,-159.214422,161.469148,-218.935375
-1.580000,1.860000,0.140166,0.040000,-32358901796.456585,-13543401413616.248047,14042088461409.724609,-2219498208961.267578,-257.984200,261.742421,-41.816633
-1.500000,1.820000,0.180025,0.040000,9995095531.608974,1131140736205.794434,-1137356283776.667236,-7049887335236.754883,21.346479,-21.393320,-132.823964
-1.460000,1.820000,0.180139,0.040000,22915293333.851883,5757632135009.416016,-5863101001579.848633,-4842756759626.925781,109.073256,-109.868093,-91.240345
-1.460000,1.860000,0.140178,0.040000,43250325617.989632,11132096607469.396484,-11450698176337.480469,-10164272766212.974609,211.535945,-213.937000,-191.500791
-1.500000,1.860000,0.140032,0.040000,15533021460.007803,1735672763824.511963,-1775315006720.305908,-14704777051268.324219,32.925146,-33.223899,-277.046524
-1.420000,1.820000,0.180456,0.040000,26953527063.785904,7869981365510.562500,-8013619002031.130859,-110145910763.979797,149.086876,-150.169363,-2.075213
-1.380000,1.820000,0.180021,0.040000,18854029355.459236,6524754830786.126953,-6639335557268.470703,4930832475947.127930,123.577794,-124.441301,92.899742
-1.380000,1.860000,0.140027,0.040000,40166723686.210861,12610698359929.746094,-12922910657042.917969,9151941866525.556641,239.357546,-241.710450,172.427890
-1.420000,1.860000,0.140585,0.040000,53626787289.858482,15276411600508.759766,-15685916946870.021484,-670878339737.648315,290.131046,-293.217173,-12.639737
-1.340000,1.820000,0.180148,0.040000,686778639.922725,2369138870172.208984,-2411976321435.477051,8114332715711.605469,44.878074,-45.200907,152.878732
-1.300000,1.820000,0.180439,0.040000,-21128299174.936337,-2862889696606.647949,2898467646757.153320,8222237285308.589844,-54.139594,54.407718,154.911717
-1.300000,1.860000,0.140564,0.040000,-33567277869.203293,-4950637910181.038086,5065052072564.628906,15214918056562.628906,-93.919577,94.781829,286.657876
-1.340000,1.860000,0.140190,0.040000,6992872079.059479,4716934840165.880859,-4817544429784.324219,15141000909362.738281,89.438450,-90.196667,285.265235
-1.260000,1.820000,0.180018,0.040000,-38488406914.511230,-7187068110689.600586,7277766239344.288086,5316985431577.074219,-135.921171,136.604693,100.175088
-1.220000,1.820000,0.180158,0.040000,-44680145666.071159,-9128797081061.009766,9236755518528.435547,526722340465.750916,-172.602029,173.415629,9.923754
-1.220000,1.860000,0.140203,0.040000,-79277424588.643433,-16005909302350.867188,16313058305592.613281,1118805572432.592529,-303.296670,305.611416,21.078946
-1.260000,1.860000,0.140023,0.040000,-66382093321.586411,-12699602199578.396484,12962653173119.175781,9779513098265.332031,-240.754677,242.737091,184.251696
-1.180000,1.820000,0.180422,0.040000,-36676812088.227341,-8150375941935.705078,8239285158944.421875,-4499942632203.825195,-154.060338,154.730378,-84.781528
-1.140000,1.820000,0.180014,0.040000,-15988748258.891922,-4683782868536.083984,4729981820868.641602,-8201042812309.412109,-88.506309,88.854475,-154.512401
-1.140000,1.860000,0.140018,0.040000,-32516107666.637344,-8058501490928.808594,8184653667239.845703,-14029161483860.261719,-152.539874,153.490586,-264.317535
-1.180000,1.860000,0.140542,0.040000,-67022226808.708611,-14137051297246.642578,14387383786826.757812,-7720079665730.306641,-267.765165,269.651728,-145.450776
-1.100000,1.820000,0.180168,0.040000,11994325533.141571,143813434762.677094,-147223051488.449310,-9560866138000.466797,2.728800,-2.754496,-180.132261
-1.060000,1.820000,0.180406,0.040000,39749456426.810272,4934304448756.407227,-4979369450884.729492,-8319675404642.097656,93.219872,-93.559492,-156.747508
-1.060000,1.860000,0.140522,0.040000,61679897436.878426,8117720799255.734375,-8253783922125.980469,-13924347575201.888672,153.711618,-154.737021,-262.342780
-1.100000,1.860000,0.140216,0.040000,14697785037.752718,156527211967.448792,-176009244692.445709,-16186946603901.755859,3.059179,-3.206000,-304.971458
-1.020000,1.820000,0.180012,0.040000,59797653471.643105,8436046489492.094727,-8505471506907.402344,-4933942969122.081055,159.332409,-159.855612,-92.958346
-0.980000,1.820000,0.180179,0.040000,66660730971.132339,9843909158530.439453,-9917541806524.767578,-356742590443.802551,185.881140,-186.436052,-6.721237
-0.980000,1.860000,0.140230,0.040000,108361121256.060196,15901009515033.435547,-16122370493169.779297,-589653443222.279297,300.835408,-302.503636,-11.109413
-1.020000,1.860000,0.140015,0.040000,95880349106.617752,13771241340390.044922,-13978112913705.572266,-8164475341221.048828,260.627444,-262.186476,-153.823448
-0.940000,1.820000,0.180390,0.040000,58126342233.562691,8932891255058.431641,-8993219208704.798828,4264314782305.733398,168.641834,-169.096479,80.342163
-0.900000,1.820000,0.180009,0.040000,35608362026.727699,6030627328666.414062,-6066232986142.301758,7880267762852.806641,113.821764,-114.090097,148.468813
-0.900000,1.860000,0.140012,0.040000,60542050714.154869,9522084016623.488281,-9632000886748.189453,12598196682679.404297,180.022852,-180.851211,237.357329
-0.940000,1.860000,0.140501,0.040000,95731970524.830566,14270326285652.384766,-14454566381302.804688,6887434609975.867188,269.902577,-271.291053,129.763261
-0.860000,1.820000,0.180190,0.040000,3641857915.019579,1870473869524.345947,-1877239154374.043457,9759861951129.939453,35.279051,-35.330035,183.881457
-0.820000,1.820000,0.180374,0.040000,-31260123771.772999,-2616974425073.266602,2636543239013.974121,9602619949489.142578,-49.415922,49.563397,180.918927
-0.820000,1.860000,0.140481,0.040000,-44579931054.229027,-4116247383671.334961,4176240777463.065430,15043041068164.150391,-77.891580,78.343704,283.419614
-0.860000,1.860000,0.140244,0.040000,10280742776.429550,2898519862900.736328,-2917955773149.117676,15444920173287.644531,54.719650,-54.866123,290.991250
-0.780000,1.820000,0.180007,0.040000,-62062688477.981827,-6517686757501.167969,6556325961596.307617,7544785915641.721680,-123.015392,123.306586,142.148140
-0.740000,1.820000,0.180201,0.040000,-82643015902.937729,-9110003777773.769531,9158036942638.103516,4078876731572.002930,-171.909244,172.271233,76.848402
-0.740000,1.860000,0.140258,0.040000,-125355596420.840500,-13966465583999.929688,14124624479442.019531,6233721624231.814453,-264.030250,265.222172,117.446929
-0.780000,1.860000,0.140009,0.040000,-92949073381.675156,-10094078144485.937500,10216890265208.757812,11694443622694.353516,-190.872439,191.797980,220.330097
-0.700000,1.820000,0.180359,0.040000,-88925418813.321274,-9976773063935.820312,10024362789565.466797,-80996592011.577927,-188.237174,188.595821,-1.526023
-0.660000,1.820000,0.180005,0.040000,-79540174732.056747,-9045544404369.773438,9084463145082.236328,-4153421655143.833984,-170.643276,170.936577,-78.252872
-0.660000,1.860000,0.140006,0.040000,-121925875416.079254,-13627225308454.933594,13761351655208.931641,-6396381203837.314453,-257.502930,258.513737,-120.511530
-0.700000,1.860000,0.140462,0.040000,-135649828824.711563,-15160601413381.080078,15320746063129.839844,-198233917653.524750,-286.539685,287.746572,-3.734842
-0.620000,1.820000,0.180212,0.040000,-55941534171.480209,-6562968016325.625000,6587694567418.622070,-7433112781049.042969,-123.789881,123.976226,-140.044154
-0.580000,1.820000,0.180344,0.040000,-22023821685.440945,-3019410948179.358398,3027542315781.258301,-9401430711429.654297,-56.933413,56.994692,-177.128405
-0.580000,1.860000,0.140442,0.040000,-35743904568.551384,-4426670205022.056641,4461055589375.337891,-14178551811698.544922,-83.595385,83.854521,-267.132136
-0.620000,1.860000,0.140273,0.040000,-86601106726.337418,-9793735232562.781250,9881227228588.841797,-11305947680930.529297,-185.014169,185.673529,-213.010608
-0.540000,1.820000,0.180003,0.040000,16646797527.220060,955640948867.731812,-963561453120.192383,-9791958487265.330078,18.049598,-18.109288,-184.486174
-0.500000,1.820000,0.180224,0.040000,53820858213.808975,4706618820253.494141,-4727679167165.185547,-8608285032113.030273,88.794464,-88.953179,-162.185080
-0.500000,1.860000,0.140288,0.040000,77673052716.895645,7032563812329.967773,-7106896091344.300781,-12792412845109.412109,132.917718,-133.477903,-241.016474
-0.540000,1.860000,0.140004,0.040000,22149822550.903248,1504612077472.540039,-1527929554433.600098,-14657729056709.742188,28.479558,-28.655284,-276.160113
-0.460000,1.820000,0.180330,0.040000,83596744798.255936,7655073421106.458008,-7684803888354.644531,-6098704612214.772461,144.394063,-144.618118,-114.903130
-0.420000,1.820000,0.180002,0.040000,101331810476.773773,9379618519926.960938,-9412861965263.316406,-2697918342876.214844,176.905348,-177.155878,-50.830346
-0.420000,1.860000,0.140003,0.040000,148463204014.273956,13786907535625.183594,-13910116418614.164062,-3908317801620.080078,260.449728,-261.378259,-73.634973
-0.460000,1.860000,0.140424,0.040000,122049238170.043808,11328094129331.998047,-11434694364334.011719,-8987003706439.218750,214.030383,-214.833748,-169.320360
-0.380000,1.820000,0.180236,0.040000,104307167458.910004,9664854841098.773438,-9696562611641.609375,1051519001584.312866,182.270686,-182.509643,19.811228
-0.340000,1.820000,0.180315,0.040000,92068605521.298111,8516766511156.793945,-8542641711804.194336,4584880716936.872070,160.607069,-160.802071,86.381811
-0.340000,1.860000,0.140405,0.040000,135131257467.913513,12378604130603.330078,-12481880161192.566406,6809605995345.215820,233.803812,-234.582124,128.296925
-0.380000,1.860000,0.140303,0.040000,153005814947.716919,14125274025324.433594,-14246761959005.193359,1633234453307.194824,266.815022,-267.730583,30.771084
-0.300000,1.820000,0.180001,0.040000,66418920897.947311,6146535461202.354492,-6163483675133.594727,7396043441122.541016,115.900086,-116.027811,139.345746
-0.260000,1.820000,0.180248,0.040000,31086750922.526775,2928340345181.625000,-2934706692833.940918,9103522609996.876953,55.207613,-55.255592,171.515643
-0.260000,1.860000,0.140319,0.040000,45972861827.163101,4180560978116.323730,-4208305096437.059082,13335317942540.617188,78.921007,-79.130093,251.245121
-0.300000,1.860000,0.140001,0.040000,97602717557.057404,8879286315190.617188,-8949004779969.328125,10890485706550.052734,167.684962,-168.210377,205.183064
-0.220000,1.820000,0.180301,0.040000,-8861867357.985081,-660875376510.473877,665271366446.954224,9494981277594.601562,-12.476122,12.509251,178.890952
-0.180000,1.820000,0.180000,0.040000,-47774429649.990448,-4110555049529.157715,4124549577649.142578,8546807407306.728516,-77.524340,77.629806,161.026806
-0.180000,1.860000,0.140000,0.040000,-68944385617.585403,-6004467580275.496094,6057148225846.310547,12423699565201.607422,-113.425410,113.822424,234.069702
-0.220000,1.860000,0.140387,0.040000,-12297852683.131443,-1030010464835.476074,1042120472684.901001,13852469574245.939453,-19.474442,19.565706,260.988557
-0.140000,1.820000,0.180261,0.040000,-80216397861.678375,-6945576559476.600586,6966907719619.247070,6418573045738.520508,-130.979256,131.140013,120.929637
-0.100000,1.820000,0.180288,0.040000,-101720206766.783752,-8787119611286.449219,8812763252989.322266,3424859002972.110352,-165.699370,165.892626,64.526329
-0.100000,1.860000,0.140370,0.040000,-147194770233.533691,-12698743099837.064453,12801829986132.480469,4922682033897.084961,-239.834347,240.611233,92.746183
-0.140000,1.860000,0.140336,0.040000,-116064345524.537186,-10070857909917.814453,10156239216081.552734,9292880937256.296875,-190.223391,190.866845,175.083264
-0.060000,1.820000,0.180000,0.040000,-109382743294.353470,-9398752653971.667969,9425305865158.140625,-10930645076.177498,-177.228032,177.428143,-0.205940
-0.020000,1.820000,0.180274,0.040000,-102238501033.869354,-8713071393296.707031,8737141228419.378906,-3414409825528.108887,-164.295363,164.476759,-64.329460
-0.020000,1.860000,0.140352,0.040000,-147616002906.765991,-12539630230106.240234,12638663078496.060547,-5007022886576.504883,-236.813654,237.559988,-94.335214
-0.060000,1.860000,0.140000,0.040000,-158163750649.765503,-13550884237471.066406,13659020074568.277344,-72030512656.291885,-255.917717,256.732654,-1.357097
0.020000,1.820000,0.180274,0.040000,-81366261992.015305,-6836751511157.652344,6855313787830.774414,-6322461482450.755859,-128.913279,129.053169,-119.118840
0.060000,1.820000,0.180000,0.040000,-49721238995.888954,-4034239405302.439941,4044950270045.453125,-8342704717183.258789,-76.067949,76.148668,-157.181393
0.060000,1.860000,0.140000,0.040000,-71096845248.540894,-5778535308528.065430,5823379222998.923828,-12138355492314.720703,-109.124421,109.462375,-228.693654
0.020000,1.860000,0.140352,0.040000,-117155597567.732315,-9819930280660.279297,9898388438926.587891,-9216803916701.771484,-185.456638,186.047917,-173.649929
0.100000,1.820000,0.180288,0.040000,-11718367996.518188,-692355962740.056396,693805714506.130981,-9203554953575.716797,-13.052582,13.063508,-173.400311
0.140000,1.820000,0.180261,0.040000,27377416839.804230,2730015893016.942383,-2738136952192.220215,-8789256904144.517578,51.480984,-51.542186,-165.594695
0.140000,1.860000,0.140336,0.040000,40902693519.838783,3975690647468.905273,-4006693228522.207031,-12778178982368.273438,75.079549,-75.313191,-240.748300
0.100000,1.860000,0.140370,0.040000,-15860903696.260227,-963485313044.854004,968932110684.489868,-13381563601365.390625,-18.183408,18.224456,-252.116416
0.180000,1.820000,0.180000,0.040000,62174513908.171974,5761454404594.466797,-5778293827805.265625,-7155756574398.479492,108.644320,-108.771226,-134.818602
0.220000,1.820000,0.180301,0.040000,87897663696.972961,7979868983122.746094,-8003457359905.093750,-4525271200632.403320,150.478683,-150.656451,-85.258733
0.220000,1.860000,0.140387,0.040000,128552296455.423508,11564298122786.558594,-11659731921268.794922,-6580083316254.571289,218.417489,-219.136700,-123.972584
0.180000,1.860000,0.140000,0.040000,91357559486.311569,8351694075818.082031,-8419306170456.279297,-10405615197396.199219,157.732913,-158.242454,-196.047823
0.260000,1.820000,0.180248,0.040000,101053037430.690292,9069425589034.792969,-9096843027648.884766,-1259722105587.839600,171.028204,-171.234828,-23.733895
0.300000,1.820000,0.180001,0.040000,99925613900.493271,8865591611790.671875,-8893248419658.875000,2184526323958.984375,167.189207,-167.397635,41.157742
0.300000,1.860000,0.140001,0.040000,145327703798.047943,12883673838084.816406,-12991612475841.423828,3218537974686.712402,243.345972,-244.159422,60.639121
0.260000,1.860000,0.140319,0.040000,147384341544.699890,13158017684324.544922,-13266812026200.568359,-1819557561882.997803,248.519606,-249.339505,-34.281519
0.340000,1.820000,0.180315,0.040000,84837872260.870422,7382234340537.812500,-7406256661925.177734,5315977790306.952148,139.221353,-139.402391,100.156103
0.380000,1.820000,0.180236,0.040000,58127187600.797455,4816397951399.342773,-4833092781156.145508,7674799020426.025391,90.838092,-90.963908,144.597663
0.380000,1.860000,0.140303,0.040000,83256461708.385422,7026072404789.190430,-7090470051042.015625,11312334389809.730469,132.739264,-133.224579,213.130938
0.340000,1.860000,0.140405,0.040000,122821671607.760880,10750046990290.312500,-10842133464197.748047,7820725766216.810547,203.057606,-203.751591,147.347007
0.420000,1.820000,0.180002,0.040000,23834587423.353695,1528591079764.697266,-1534961765153.465088,8899164479387.697266,28.835550,-28.883561,167.665418
0.460000,1.820000,0.180330,0.040000,-12863825583.783701,-2000894804163.795898,2006639035946.656738,8782453898079.741211,-37.730485,37.773775,165.466523
0.460000,1.860000,0.140424,0.040000,-21710294377.305775,-2950833259300.874512,2975047975205.334473,13024770497255.794922,-55.732275,55.914763,245.394227
0.420000,1.860000,0.140003,0.040000,32540672356.509163,2231374433294.170410,-2253721704130.408203,13153683923693.441406,42.166699,-42.335113,247.823030
0.500000,1.820000,0.180224,0.040000,-46413695746.821877,-5236027525015.266602,5254039001057.905273,7312670324538.156250,-98.751598,98.887337,137.774948
0.540000,1.820000,0.180003,0.040000,-71726375539.150726,-7662591938429.462891,7691120138013.354492,4686674444109.417969,-144.528921,144.743916,88.299663
0.540000,1.860000,0.140004,0.040000,-108547065636.634583,-11373266250808.742188,11476949408773.449219,7003928444966.242188,-214.864965,215.646345,131.958072
0.500000,1.860000,0.140288,0.040000,-71271118322.876724,-7743531017520.017578,7809580752335.325195,10885697865141.404297,-146.265938,146.763704,205.092858
0.580000,1.820000,0.180344,0.040000,-84987719455.014465,-8869653545284.417969,8905011265589.382812,1294237025055.200684,-167.309263,167.575727,24.384176
0.620000,1.820000,0.180212,0.040000,-84303482301.098450,-8623123565744.876953,8659963659700.348633,-2329517543684.922363,-162.672874,162.950509,-43.889461
0.620000,1.860000,0.140273,0.040000,-126049468133.735794,-12918795347359.890625,13047765522561.572266,-3528590299473.570801,-244.126555,245.098505,-66.480687
0.580000,1.860000,0.140442,0.040000,-127782623747.021423,-13223008313230.130859,13349432789632.669922,1937490777989.711426,-249.843715,250.796479,36.503449
0.660000,1.820000,0.180005,0.040000,-70065708744.826309,-6918964023150.115234,6950903695978.333008,-5580222051204.272461,-130.537822,130.778527,-105.134618
0.700000,1.820000,0.180359,0.040000,-44956803522.026474,-4004384036376.779785,4024965985793.667969,-7880950987176.082031,-75.561249,75.716360,-148.481685
0.700000,1.860000,0.140462,0.040000,-65118932410.548409,-6060243699102.185547,6128111720664.922852,-12057208933820.113281,-114.562106,115.073575,-227.164806
0.660000,1.860000,0.140006,0.040000,-103838074987.202103,-10420859644930.261719,10529241216211.960938,-8488642035460.372070,-196.947628,197.764417,-159.930937
0.740000,1.820000,0.180201,0.040000,-13558575194.330019,-358195245652.580261,362094753806.064819,-8786439337236.824219,-6.770647,6.800034,-165.541611
0.780000,1.820000,0.180007,0.040000,18402095512.891563,3373183695232.143555,-3388867972401.530762,-8077633360418.146484,63.641387,-63.759587,-152.187295
0.780000,1.860000,0.140009,0.040000,32328117946.087761,5206286091220.121094,-5258003441807.678711,-12515510054403.732422,98.381764,-98.771518,-235.799465
0.740000,1.860000,0.140258,0.040000,-16808909241.964951,-525588631880.519043,539864170658.225586,-13526328771729.802734,-9.983082,10.090666,-254.843875
0.820000,1.820000,0.180374,0.040000,45069623872.909142,6480223811604.744141,-6514833993343.525391,-5827420716271.944336,122.286796,-122.547626,-109.791985
0.860000,1.820000,0.180190,0.040000,61573330019.978363,8322981312976.278320,-8371636900365.880859,-2419337208589.538574,157.084803,-157.451482,-45.581716
0.860000,1.860000,0.140244,0.040000,98168857049.943619,13010644107533.121094,-13163786674343.123047,-3775439697956.091797,245.993666,-247.147784,-71.131473
0.820000,1.860000,0.140481,0.040000,73211516836.779358,10056304853136.962891,-10168459501040.304688,-9083771075214.218750,190.100531,-190.945754,-171.143513
0.900000,1.820000,0.180009,0.040000,65029624640.500725,8470888159644.825195,-8524621224999.426758,1494281754739.639160,159.900152,-160.305097,28.153135
0.940000,1.820000,0.180390,0.040000,55213666767.214455,6821118322785.583008,-6868052713883.666992,5098850943029.578125,128.779105,-129.132813,96.065308
0.940000,1.860000,0.140501,0.040000,85821962612.870941,10815900134926.359375,-10961078544918.210938,8233968625302.193359,204.598402,-205.692500,155.132742
0.900000,1.860000,0.140012,0.040000,102541245709.198608,13340554034522.376953,-13507561676281.320312,2423565512018.879883,252.287728,-253.546336,45.661379
0.980000,1.820000,0.180179,0.040000,34715794124.287277,3663958434679.098633,-3691598787308.576660,7579223709896.400391,69.187329,-69.395633,142.796968
1.020000,1.820000,0.180012,0.040000,8481843800.614180,-332636951032.132507,334240105564.466553,8310997828731.947266,-6.276134,6.288216,156.584017
1.020000,1.860000,0.140015,0.040000,9022648336.896044,-626963852826.697144,628577661991.168823,13629148395460.019531,-11.821484,11.833646,256.781057
0.980000,1.860000,0.140230,0.040000,52016025822.234138,5820250173038.816406,-5908571641071.098633,12326705449972.669922,110.156096,-110.821707,232.242277
1.060000,1.820000,0.180406,0.040000,-17236369900.522594,-4235095262698.083008,4269890867601.675293,7040813226408.003906,-79.988321,80.250548,132.653003
1.100000,1.820000,0.180168,0.040000,-36342920200.248337,-7047670544339.909180,7110841951813.495117,4005236470053.617188,-133.139254,133.615329,75.460977
1.100000,1.860000,0.140216,0.040000,-63818866248.882957,-11797701339925.437500,11978026062601.289062,6624844825001.459961,-223.294759,224.653728,124.815917
1.060000,1.860000,0.140522,0.040000,-32966823218.418407,-7051095400538.254883,7150821333154.751953,11633275231967.900391,-133.410393,134.161951,219.177649
1.140000,1.820000,0.180014,0.040000,-44452197863.961212,-7974445276848.404297,8051523045016.958008,-61138078507.445358,-150.678829,151.259705,-1.151877
1.180000,1.820000,0.180422,0.040000,-40126194938.748131,-6678184993909.950195,6747134923118.327148,-4060944873099.284180,-126.210594,126.730216,-76.510556
1.180000,1.860000,0.140542,0.040000,-67121725846.281174,-11345687929435.386719,11547832492160.580078,-7173382580184.768555,-214.901894,216.425302,-135.150686
1.140000,1.860000,0.140018,0.040000,-76069048538.077560,-13457985795210.099609,13680249034307.332031,-252804528717.002411,-254.812525,256.487552,-4.762984
1.220000,1.820000,0.180158,0.040000,-25392117494.168182,-3453782488114.866699,3490548781555.674805,-6810462940504.312500,-65.279074,65.556153,-128.313070
1.260000,1.820000,0.180018,0.040000,-5273522997.770658,766347732081.149048,-779526215759.635376,-7405740255638.131836,14.512923,-14.612239,-139.528440
1.260000,1.860000,0.140023,0.040000,-4369417880.527918,1583211953203.933350,-1610744619266.230469,-13213471085360.582031,29.984250,-30.191743,-248.949455
1.220000,1.860000,0.140203,0.040000,-40323582347.266281,-5825429381819.812500,5940851062190.615234,-12059916188236.166016,-110.406850,111.276695,-227.215812
1.300000,1.820000,0.180439,0.040000,13668184456.352819,4626702136740.516602,-4692473503248.127930,-5575155130514.658203,87.541502,-88.037170,-105.039155
1.340000,1.820000,0.180148,0.040000,25442814390.924335,6769019492452.552734,-6869339683147.573242,-1880946265690.449707,128.099278,-128.855315,-35.438118
1.340000,1.860000,0.140190,0.040000,49150302536.940407,12510080855293.457031,-12788575594096.773438,-3196222996674.656738,237.271276,-239.370077,-60.218694
1.300000,1.860000,0.140564,0.040000,29087685153.785110,8533482517811.064453,-8711150722127.324219,-9977656801540.923828,161.779969,-163.118918,-187.984838
1.380000,1.820000,0.180021,0.040000,26734421785.928680,6353405332201.988281,-6451370423481.191406,2359119850884.334961,120.255555,-120.993843,44.447186
1.420000,1.820000,0.180456,0.040000,18190770625.000519,3487594848252.806641,-3539265149753.188965,5485969514850.522461,66.000358,-66.389758,103.358846
1.420000,1.860000,0.140585,0.040000,31637623026.762589,6357989820318.754883,-6517894435757.564453,10852858362618.496094,120.692023,-121.897101,204.474143
1.380000,1.860000,0.140027,0.040000,49615456904.348877,11792253612308.111328,-12072787345972.373047,4800264545785.153320,223.758520,-225.872687,90.439767
1.460000,1.820000,0.180139,0.040000,4241167384.541695,-663788319820.257690,689237483447.420288,6167851883964.227539,-12.650000,12.841791,116.205905
1.500000,1.820000,0.180025,0.040000,-8714352134.706055,-4250239818584.870605,4349810910199.811035,4076900426018.333008,-80.639775,81.390166,76.811167
1.500000,1.860000,0.140032,0.040000,-21472866594.059235,-8911265040151.863281,9184604142126.609375,7961142604842.697266,-169.438359,171.498306,149.992542
1.460000,1.860000,0.140178,0.040000,3729229145.862928,-1744911858787.779785,1796892447843.342041,12213006829258.679688,-33.168954,33.560692,230.100129
1.540000,1.820000,0.180473,0.040000,-15159111864.319569,-5551166949517.091797,5679572976993.625977,216312602253.725677,-105.312977,106.280674,4.075455
1.580000,1.820000,0.180129,0.040000,-13094301569.631969,-3921260194858.149414,4006642661951.251465,-3408522679578.426270,-74.361412,75.004874,-64.218543
1.580000,1.860000,0.140166,0.040000,-26262316212.579376,-7986910747856.320312,8253484567245.379883,-7855993048543.108398,-151.984750,153.993712,-148.011463
1.540000,1.860000,0.140607,0.040000,-32820394752.683372,-11536580951135.621094,11910093437377.744141,-104271042053.713364,-219.467031,222.281907,-1.964527
1.620000,1.820000,0.180029,0.040000,-5008046284.876104,-327376979434.913086,311945995892.871094,-4797671799392.288086,-6.080753,5.964462,-90.390918
1.660000,1.820000,0.180490,0.040000,3622311896.065384,3020429262541.745117,-3134328706685.721680,-3205568398119.798828,57.550418,-58.408790,-60.394767
1.660000,1.860000,0.140630,0.040000,11731517726.332344,7465542501941.289062,-7803168561618.469727,-6937361674391.019531,142.563470,-145.107898,-130.703916
1.620000,1.860000,0.140037,0.040000,-7322240091.010667,-56034208285.436203,27153385951.310131,-10801481501695.500000,-0.892478,0.674825,-203.506173
1.700000,1.820000,0.180120,0.040000,7703837220.994938,3987885044091.739258,-4123066050333.425781,186322800920.846344,75.898133,-76.916888,3.510430
1.740000,1.820000,0.180034,0.040000,5754768432.826082,2078676321076.096680,-2129310761472.684814,2893987588455.403320,39.449662,-39.831254,54.524404
1.740000,1.860000,0.140043,0.040000,12405728801.031778,4481110140813.430664,-4652313687410.473633,7840086444568.547852,85.394385,-86.684615,147.711774
1.700000,1.860000,0.140155,0.040000,19332252122.946579,9485400132171.947266,-9911127580135.091797,1275447231011.386475,181.116723,-184.325104,24.030165
1.780000,1.820000,0.180508,0.040000,630965022.542592,-1000056119193.177612,1077769247646.246826,2953487701573.967285,-19.280885,19.866549,55.645420
1.820000,1.820000,0.180112,0.040000,-3057075949.714751,-2606168856271.921875,2737066004543.573242,646754374535.812622,-49.841586,50.828057,12.185227
1.820000,1.860000,0.140144,0.040000,-9965594298.779676,-7421682149348.983398,7876249798418.794922,817693300148.727417,-142.398090,145.823817,15.405816
1.780000,1.860000,0.140653,0.040000,-1394865089.486974,-3495610314492.300293,3751203868160.000000,7526029152765.245117,-67.303984,69.230196,141.794752
1.860000,1.820000,0.180038,0.040000,-2889557322.730761,-1555300322912.871826,1605569459330.044189,-1626888883080.185547,-29.586890,29.965729,-30.651530
1.900000,1.820000,0.180526,0.040000,-378820866.049491,641972142284.545044,-715845845407.892578,-1711927559075.042725,12.512674,-13.069404,-32.253708
1.900000,1.860000,0.140676,0.040000,931377762.694169,2981689858006.888672,-3288515739168.896484,-5004181787798.555664,57.910999,-60.223310,-94.281686
1.860000,1.860000,0.140049,0.040000,-7386657556.959610,-3796529312840.464355,3966278372119.638184,-5548419799659.027344,-72.488264,73.767533,-104.535446
1.940000,1.820000,0.180104,0.040000,1262993042.440336,1448782882299.459961,-1538976794855.818115,-48367692557.590660,27.805701,-28.485423,-0.911275
1.980000,1.820000,0.180043,0.040000,816862161.557745,359809410648.847229,-353721837508.465332,1009387635470.005249,6.744610,-6.698732,19.017448
1.980000,1.860000,0.140056,0.040000,1876890088.493139,319732580929.011047,-230868048172.773010,4009018359896.186035,5.521669,-4.851966,75.532230
1.940000,1.860000,0.140133,0.040000,4948138708.677338,4851846331752.579102,-5208945154968.375000,940613710175.062134,93.429982,-96.121162,17.721708
2.020000,1.820000,0.180545,0.040000,-211294711.813101,-666165184503.317139,726044849070.303711,420767965365.075684,-12.889389,13.340656,7.927512
2.060000,1.820000,0.180096,0.040000,-348533772.089746,-326937925245.462585,342184918782.848267,-376134895404.386475,-6.245879,6.360784,-7.086599
2.060000,1.860000,0.140123,0.040000,-1174094679.273089,-693430680916.677856,697980253552.405640,-2162317273605.148438,-13.090351,13.124638,-40.739311
2.020000,1.860000,0.140699,0.040000,-1798604129.137977,-3109070071657.920410,3400778268700.462402,792160362084.892822,-60.225468,62.423849,14.924760
2.100000,1.820000,0.180049,0.040000,16473133.062999,251611521377.699249,-274430139363.145416,-218598942543.612457,4.869482,-5.041448,-4.118531
2.140000,1.820000,0.180563,0.040000,88856029.904823,86333708125.112518,-103788769943.655762,124114865525.459000,1.725236,-1.856782,2.338396
2.140000,1.860000,0.140724,0.040000,309783820.991463,-62006663195.990929,13996025485.295160,939562176645.702393,-0.896877,0.535058,17.701896
2.100000,1.860000,0.140063,0.040000,603864394.498165,1693637358180.324951,-1797748513504.050049,-452572122277.630798,32.497564,-33.282170,-8.526721
2.180000,1.820000,0.180088,0.040000,-2810427.509863,-71945023384.487366,85605808404.522720,46996025820.927795,-1.432699,1.535650,0.885432
2.220000,1.820000,0.180055,0.040000,-6805776.078788,7500353609.854558,150908254.971008,-32164208204.177338,0.098065,-0.040403,-0.605992
2.220000,1.860000,0.140070,0.040000,3389484.601437,414570923077.580261,-296118570690.890320,-215498350684.420624,7.141243,-6.248559,-4.060114
2.180000,1.860000,0.140113,0.040000,-188371516.558007,-516033762017.576843,598446567599.967285,-71355337258.469589,-10.188187,10.809269,-1.344376
2.260000,1.820000,0.180582,0.040000,5347459.878693,-492696660.983504,-9138880249.358049,85050981.336990,0.045157,-0.117742,0.001602
2.300000,1.820000,0.180081,0.040000,4024195.322843,2697979908.874736,1190242685.339876,3209874986.531467,0.028855,0.000448,0.060476
2.300000,1.860000,0.140104,0.040000,-372245.280441,-42371439420.252975,41465670016.255325,-15932093024.557953,-0.793183,0.786357,-0.300170
2.260000,1.860000,0.140748,0.040000,22058271.959701,-100085718978.590195,20597407945.781982,105338974409.227356,-1.436391,0.837349,1.984647
2.340000,1.820000,0.160614,0.040000,3146692.999519,6091295612.483352,-9243145071.497236,-1502725656.285491,0.132578,-0.156331,-0.028312
2.380000,1.820000,0.120817,0.040000,4892001.154826,114107362726.560837,-309592045168.563599,50271893097.435173,3.254762,-4.727980,0.947152
2.380000,1.860000,0.120134,0.040000,4249812.518370,16148569310.000374,-43623703670.683907,-7176922177.392199,0.459543,-0.666602,-0.135217
2.340000,1.860000,0.140078,0.040000,4062844.485208,16693821381.037031,-16441622032.285278,-6460954851.379198,0.313096,-0.311195,-0.121728
2.420000,1.820000,0.081221,0.040000,73298582.217431,-1082229956685.765625,2006354223385.480957,3343696521257.699707,-25.613151,32.577566,62.997181
2.460000,1.820000,0.042389,0.040000,-1475042546.759246,-10211615253338.507812,3972850542654.695312,-408247334539.840271,-157.130168,110.113390,-7.691616
2.460000,1.860000,0.040400,0.040000,227634831.785967,8972717341255.865234,-7948767275249.824219,3898355329154.534180,163.263652,-155.546927,73.447274
2.420000,1.860000,0.080201,0.040000,-4797729.956057,1710389818562.289062,-2946543215706.582031,-392807308825.503906,39.211690,-48.527628,-7.400717
2.500000,1.820000,0.014030,0.040000,-111225349072.370911,10678758499062.919922,-59396546629085.929688,-1088688907115.943726,476.555412,-843.703960,-20.511530
2.500000,1.860000,0.005672,0.040000,-4753691177.710121,16620745438296.572266,7490558588358.501953,5745480405151.328125,176.863196,4.845183,108.248182
-2.500000,1.900000,0.004478,0.040000,799171436.123936,-11505311538648.548828,-6805363569411.127930,8288277294025.170898,-113.271619,-24.721875,156.155949
-2.500000,1.940000,0.014627,0.040000,-77840069.995091,-710821532726.606323,-304620816267.496948,-159769215464.422028,-7.652833,0.000224,-3.010145
-2.460000,1.900000,0.040250,0.040000,32524003.624808,-5286951612769.490234,-1674714068507.876465,5359410815209.389648,-60.260688,7.795961,100.974407
-2.420000,1.900000,0.080125,0.040000,9229066.463279,-592716189337.519897,-362780138048.369446,979252305728.477661,-5.766485,-1.434357,18.449681
-2.420000,1.940000,0.060221,0.040000,9694237.361133,8301079490.908575,102392163857.828842,-114537351746.514465,-0.469260,1.303470,-2.157950
-2.460000,1.940000,0.042590,0.040000,9376601.308171,235105749140.997650,136550446341.327515,-303823201110.583313,2.328863,0.472024,-5.724205
-2.380000,1.900000,0.101079,0.040000,9659830.654959,60832459349.506607,39453846531.017891,-90324706960.449966,0.579283,0.176498,-1.701770
-2.340000,1.900000,0.100109,0.040000,14485648.135645,23403655981.489914,-379146227464.032410,393245044279.008789,2.451657,-5.132616,7.408965
-2.340000,1.940000,0.060182,0.040000,-109846469.739879,-72556139637.841354,-2182071728529.081299,1961228218006.374512,11.376549,-28.367948,36.950677
-2.380000,1.940000,0.061782,0.040000,20312129.499580,175035110282.961578,176739732681.666168,-246037491219.959473,1.309470,1.341586,-4.635489
-2.300000,1.900000,0.100145,0.040000,-7920761.395768,-1462256394401.338135,953057312550.431641,414359625820.248413,-24.671676,20.834234,7.806776
-2.260000,1.900000,0.101044,0.040000,-5142091.046324,1406994218906.535156,75109569967.692307,-2768217268877.431152,18.131478,-6.962001,-52.154818
-2.260000,1.940000,0.061725,0.040000,-3503709729.001903,4873137425138.484375,1277535741029.057861,-5141278020670.090820,57.048060,-10.695160,-96.864658
-2.300000,1.940000,0.060242,0.040000,844271604.348960,-4210985945315.411621,4289965613891.996094,-1349983923259.266846,-79.783823,80.379032,-25.434480
-2.220000,1.900000,0.100098,0.040000,463459368.582570,2950744121420.977051,-3132767092221.663086,1604413985904.926270,56.622555,-57.994323,30.228090
-2.180000,1.900000,0.100158,0.040000,-1664956448.759028,-1593606296765.274658,4446546464475.552734,1999034148157.618408,-46.149780,67.650199,37.662962
-2.180000,1.940000,0.060263,0.040000,-13573184806.040367,505050564384.123413,16727804847759.212891,1511290488819.355469,-87.887650,217.758445,28.473589
-2.220000,1.940000,0.060163,0.040000,9224311900.524742,6098853194003.085938,-12073922179370.736328,3778947869119.362793,148.678059,-193.707564,71.197569
-2.140000,1.900000,0.101010,0.040000,1669647466.759980,1998672903220.722656,-869634606381.022461,-6533007456129.762695,31.274635,-22.765941,-123.085648
-2.100000,1.900000,0.100088,0.040000,3625766280.211123,6367908037313.379883,-9760643671082.298828,4355335787829.077148,139.151411,-164.719853,82.057051
-2.100000,1.940000,0.060146,0.040000,30809773565.818142,6914717125688.183594,-34941175484032.484375,8301895127050.903320,288.687696,-499.901585,156.412517
-2.140000,1.940000,0.061669,0.040000,1449754029.952468,5354289847983.939453,2112585429703.898926,-9765115388735.339844,58.673847,-2.401743,-183.980435
-2.060000,1.900000,0.100172,0.040000,-7039491931.789748,-6000236887406.533203,7863966009281.375000,10576775342506.896484,-123.582062,137.627557,199.272579
-2.020000,1.900000,0.100977,0.040000,-6389989557.180583,-9781195409229.722656,13842386297382.380859,-9861643241625.634766,-207.237949,237.844025,-185.799076
-2.020000,1.940000,0.061614,0.040000,-40864535746.034172,-12232220469158.529297,45101207124866.539062,-16972495267221.029297,-416.243354,663.951659,-319.771650
-2.060000,1.940000,0.060286,0.040000,-28389064673.373943,-7366687329743.788086,20843874678969.480469,18933430715757.359375,-214.968067,316.535276,356.716811
-1.980000,1.900000,0.100078,0.040000,12525875015.097467,9278509434140.269531,-10638716581797.798828,-16145645011077.023438,182.500624,-192.751460,-304.193312
-1.940000,1.900000,0.100186,0.040000,16315127954.604893,17636377328866.847656,-21253229993687.105469,7836999766047.780273,352.722653,-379.980094,147.653619
-1.940000,1.940000,0.060310,0.040000,69018775842.007584,25746877456271.628906,-58328523414016.031250,12828794060128.638672,669.243226,-914.786065,241.701917
-1.980000,1.940000,0.060130,0.040000,41262879769.969841,13306973417737.660156,-26403600676307.875000,-30918624906152.480469,324.735508,-423.434728,-582.524817
-1.900000,1.900000,0.100944,0.040000,-9138436266.782539,-1728436626981.360840,1763374355622.095947,23910353275254.667969,-32.762222,33.025521,450.484917
-1.860000,1.900000,0.100069,0.040000,-31598843118.346592,-22124282773654.175781,25324488605719.238281,7606772236791.742188,-434.922433,459.039926,143.315999
-1.860000,1.940000,0.060115,0.040000,-98465668395.343521,-31923138269656.367188,61047770526636.632812,15652692423274.511719,-766.067918,985.557900,294.905799
-1.900000,1.940000,0.061560,0.040000,-16971084486.536139,-1627908211515.505859,1782366386941.450195,44420672813291.476562,-31.543759,32.707792,836.911227
-1.820000,1.900000,0.100201,0.040000,-17841562773.020432,-16749947847412.642578,18904503373452.265625,-20029691551613.292969,-327.756650,343.993880,-377.371000
-1.780000,1.900000,0.100912,0.040000,22952806815.314587,8061676280248.893555,-9031945286311.703125,-27021561577915.511719,157.370784,-164.682956,-509.101885
-1.780000,1.940000,0.061507,0.040000,51166206561.993538,10703159854647.042969,-19184799586720.988281,-48176188002372.562500,249.593439,-313.513043,-907.667310
-1.820000,1.940000,0.060335,0.040000,-65070179611.699287,-25108091978652.367188,45176401689430.687500,-34888198479485.148438,-586.480585,737.720020,-657.313884
-1.740000,1.900000,0.100060,0.040000,50389652434.844109,26212218006434.675781,-28883865367137.226562,-7329890520161.871094,508.953998,-529.088152,-138.099387
-1.700000,1.900000,0.100217,0.040000,35312784319.107849,21394548947555.187500,-23286872257892.433594,19287075449271.062500,413.781445,-428.042433,363.379682
-1.700000,1.940000,0.060360,0.040000,98805880661.898911,30965065668943.578125,-48762264227385.960938,32226123592312.632812,683.992649,-818.116465,607.158850
-1.740000,1.940000,0.060100,0.040000,131392575551.131454,37403630997967.765625,-62112455741832.898438,-13834710805094.619141,844.364666,-1030.576099,-260.653972
-1.660000,1.900000,0.100880,0.040000,-14260849557.493984,-839165160432.938477,983668383210.445801,30468167996904.542969,-16.627115,17.716125,574.037948
-1.620000,1.900000,0.100052,0.040000,-62402153177.213112,-22478034349926.031250,24196890407735.914062,19337498199179.847656,-433.214471,446.168169,364.329676
-1.620000,1.940000,0.060087,0.040000,-136904594796.590744,-31243624046955.320312,47505483901649.523438,32256535696868.476562,-680.562849,803.115996,607.731832
-1.660000,1.940000,0.061455,0.040000,-21016792166.683720,-617725200079.521484,1869092803852.081787,51123472988197.804688,-18.711248,28.141845,963.195868
-1.580000,1.900000,0.100233,0.040000,-74242083370.650757,-28889414892636.917969,30873702659361.289062,-4359274824304.793457,-555.508864,570.462916,-82.131265
-1.540000,1.900000,0.100848,0.040000,-39398811474.640694,-17616443328498.593750,18703209186010.054688,-24715995552039.761719,-338.046594,346.236714,-465.663684
-1.540000,1.940000,0.061404,0.040000,-95183971518.463791,-24377951431889.578125,34457417642891.988281,-39378395257525.304688,-516.265633,592.226828,-741.911795
-1.580000,1.940000,0.060387,0.040000,-168083593840.396393,-40155436688035.820312,58863663765171.851562,-6800002410646.259766,-862.293859,1003.283396,-128.115987
-1.500000,1.900000,0.100045,0.040000,23995555510.570618,3097352292153.484863,-3357088635788.250977,-30628043257510.945312,59.823988,-61.781421,-577.050090
-1.460000,1.900000,0.100249,0.040000,82428901317.014114,21493049633122.250000,-22765436741307.414062,-20708694028116.082031,412.133268,-421.722272,-390.163801
-1.460000,1.940000,0.060415,0.040000,159676985061.767914,28901742653353.367188,-40838911869620.601562,-32110399657160.386719,611.996543,-701.957818,-604.978544
-1.500000,1.940000,0.060075,0.040000,38204494211.279037,4066650622278.926270,-6591605234940.511719,-48185160188348.195312,90.889538,-109.918181,-907.836351
-1.420000,1.900000,0.100818,0.040000,106053216361.683929,29058280779369.160156,-30583911622427.734375,-1479470224252.047119,556.097986,-567.595494,-27.874077
-1.380000,1.900000,0.100038,0.040000,82646953962.962051,23611651935763.582031,-24658342922609.023438,17526430778250.531250,450.773290,-458.661396,330.208116
-1.380000,1.940000,0.060063,0.040000,165874812346.064148,31574199813901.531250,-41867976019613.359375,26585368326251.335938,653.058442,-730.634726,500.883751
-1.420000,1.940000,0.061353,0.040000,209322668658.003540,38944625115748.046875,-53321292920980.195312,-2232800442582.896484,814.998741,-923.344643,-42.067255
-1.340000,1.900000,0.100266,0.040000,21159600900.093437,8726306480197.598633,-8983487665261.837891,28510918352921.265625,165.862306,-167.800483,537.162230
-1.300000,1.900000,0.100788,0.040000,-54299968784.502495,-8866973981791.638672,9337704958257.115234,28069314152103.156250,-169.719583,173.267121,528.842151
-1.300000,1.940000,0.061304,0.040000,-90564071442.677353,-11672558767476.125000,16116638896009.164062,41536385327436.187500,-245.036488,278.528106,782.569579
-1.340000,1.940000,0.060443,0.040000,49980060397.553696,11708150397192.900391,-14530887077577.566406,42740565639164.710938,236.542939,-257.815738,805.257034
-1.260000,1.900000,0.100032,0.040000,-115436219064.082901,-22425678590815.351562,23338540613194.289062,17577318106253.214844,-427.672440,434.551980,331.166863
-1.220000,1.900000,0.100284,0.040000,-140458669028.785004,-27714752536650.203125,28745338482429.828125,1786670279174.377686,-527.987055,535.753790,33.661904
-1.220000,1.940000,0.060473,0.040000,-248902522276.604004,-36040422060712.125000,46271671044909.039062,2263966627487.574707,-736.851243,813.956308,42.654444
-1.260000,1.940000,0.060053,0.040000,-202963997059.501862,-29428586768495.417969,38533102888357.437500,25563098585489.617188,-605.911943,674.525688,481.623597
-1.180000,1.900000,0.100758,0.040000,-120776156397.704285,-23994089326888.835938,24815279608771.167969,-13659398558428.574219,-456.704063,462.892743,-257.350987
-1.140000,1.900000,0.100026,0.040000,-62331522909.914848,-13398097608527.605469,13769103874524.634766,-24192920430840.687500,-254.524918,257.320907,-455.808646
-1.140000,1.940000,0.060043,0.040000,-114623249131.351135,-17136130691093.025391,20998539975022.601562,-34603771657812.328125,-344.685645,373.793657,-651.955118
-1.180000,1.940000,0.061255,0.040000,-215238329838.382690,-30910515517870.386719,39010556843234.500000,-19898688705304.367188,-628.154874,689.198663,-374.902831
-1.100000,1.900000,0.100303,0.040000,17715699607.795574,408517341071.736389,-518947911818.649048,-27423957778620.277344,8.320876,-9.153107,-516.683262
-1.060000,1.900000,0.100729,0.040000,97032139111.327744,13452513804619.435547,-13929589138190.214844,-23178290861451.062500,256.149671,-259.745022,-436.692437
-1.060000,1.940000,0.061207,0.040000,155249018642.451874,17225151239904.837891,-21924418064109.019531,-32384476222324.191406,351.092908,-386.507673,-610.142306
-1.100000,1.940000,0.060503,0.040000,21732832235.175259,554710432686.566162,-1424149478418.507080,-38764539284374.390625,15.365287,-21.917581,-730.346392
-1.020000,1.900000,0.100021,0.040000,154652364654.489594,22407545404492.984375,-23073480908088.593750,-13236640078048.212891,425.935129,-430.953773,-249.385972
-0.980000,1.900000,0.100321,0.040000,176201375285.205170,25434552403297.828125,-26141273193485.425781,-654554062680.166626,483.196221,-488.522233,-12.332178
-0.980000,1.940000,0.060534,0.040000,286721278971.066895,32076710266045.714844,-39329902902179.937500,-537302472172.600830,645.340123,-700.001864,-10.123090
-1.020000,1.940000,0.060035,0.040000,251145698427.065948,28504792663264.398438,-35390765953090.890625,-18156912162376.085938,575.967537,-627.861828,-342.086751
-0.940000,1.900000,0.100700,0.040000,156748933347.707428,22455546592443.738281,-23039715645441.808594,11370684378131.019531,426.377341,-430.779774,214.230285
-0.900000,1.900000,0.100016,0.040000,101055370712.168625,14739525921134.166016,-15063754468847.054688,20263792191694.097656,279.533809,-281.977271,381.781592
-0.900000,1.940000,0.060027,0.040000,166056479919.074829,18326808579502.496094,-21822330543378.609375,27853874223583.964844,365.044996,-391.388060,524.783138
-0.940000,1.940000,0.061160,0.040000,255335520265.534546,28084796251052.531250,-34047111714154.023438,15915405267882.716797,562.833886,-607.767278,299.855462
-0.860000,1.900000,0.100341,0.040000,21618025750.570969,4287820341353.375488,-4327197984165.173828,24493567825884.246094,81.007590,-81.304349,461.473017
-0.820000,1.900000,0.100672,0.040000,-64677038321.332016,-6585228716289.434570,6792362967276.556641,23538762346960.121094,-125.240285,126.801297,443.483928
-0.820000,1.940000,0.061114,0.040000,-95882388175.783905,-8341029490639.714844,10423600406874.652344,31753791766369.957031,-168.920884,184.615621,598.259845
-0.860000,1.940000,0.060566,0.040000,39897105286.367455,5258330414384.165039,-5850653590321.000000,33342630419870.632812,102.417907,-106.881792,628.194486
-0.780000,1.900000,0.100012,0.040000,-140374209151.396271,-15636744766997.314453,16023864453876.533203,17985224270393.296875,-296.793404,299.710828,338.852051
-0.740000,1.900000,0.100361,0.040000,-190911966063.548340,-21283089324286.375000,21783854585008.527344,9349962452196.205078,-403.816153,407.590036,176.158713
-0.740000,1.940000,0.060600,0.040000,-291929394998.294617,-26294754000715.734375,31507670333850.117188,12224595757686.900391,-524.872718,564.158465,230.318471
-0.780000,1.940000,0.060020,0.040000,-213896472140.285461,-19505877948137.695312,23606144981381.238281,23985235309591.136719,-390.677471,421.578034,451.895738
-0.700000,1.900000,0.100645,0.040000,-207134397652.916779,-22835352263920.484375,23342011794832.304688,-562477183968.986694,-433.095002,436.913306,-10.597396
-0.660000,1.900000,0.100009,0.040000,-186536486531.455231,-20335177157989.984375,20739323505466.019531,-9959181997678.875000,-385.410832,388.456572,-187.636762
-0.660000,1.940000,0.060014,0.040000,-284805467387.930542,-24922253089336.605469,29344396730790.359375,-13449334935199.117188,-494.544421,527.870721,-253.393267
-0.700000,1.940000,0.061069,0.040000,-316569566610.397095,-28064184700593.757812,33353177737846.277344,-1010016586247.591919,-558.639817,598.498895,-19.029298
-0.620000,1.900000,0.100381,0.040000,-133205880131.195206,-14433304205839.585938,14698529936391.025391,-17293338267293.787109,-273.430920,275.429723,-325.816518
-0.580000,1.900000,0.100618,0.040000,-56652891726.754074,-6334205669726.822266,6435031648611.576172,-21425913853499.902344,-119.909993,120.669841,-403.676638
-0.580000,1.940000,0.061025,0.040000,-87988163258.395279,-7572671516632.294922,8663880878412.153320,-28328488383541.292969,-148.841226,157.064833,-533.725143
-0.620000,1.940000,0.060634,0.040000,-203623216895.675751,-17600596117128.890625,20525017293560.312500,-23065942665572.785156,-348.134771,370.173887,-434.575731
-0.540000,1.900000,0.100006,0.040000,30134589591.072495,2435725695466.910156,-2513148280338.288574,-21895674107534.050781,46.328090,-46.911565,-412.527193
-0.500000,1.900000,0.100403,0.040000,113010295798.769577,10482773672508.271484,-10719628774272.386719,-18953249364910.472656,198.840279,-200.625274,-357.090205
-0.500000,1.940000,0.060669,0.040000,165798860025.229980,12810633767252.054688,-15250905088281.447266,-24723300961188.382812,255.152605,-273.543055,-465.801322
-0.540000,1.940000,0.060010,0.040000,42230900117.006439,3108586251117.863770,-3905063864782.227051,-28737022961844.152344,63.069397,-69.071837,-541.422172
-0.460000,1.900000,0.100592,0.040000,178962218233.883301,16683306359380.216797,-17021323140453.781250,-13189566990689.783203,316.233693,-318.781066,-248.499088
-0.420000,1.900000,0.100004,0.040000,218041076480.721954,20157451384403.789062,-20531419086945.222656,-5579628298056.744141,381.891800,-384.710107,-105.123432
-0.420000,1.940000,0.060006,0.040000,320904899387.293396,24499530426551.398438,-28632774251758.144531,-7090957336247.817383,484.947169,-516.096253,-133.597747
-0.460000,1.940000,0.060982,0.040000,263500531041.860443,20329968753732.140625,-23920227562974.750000,-17100619842886.781250,403.321164,-430.378187,-322.185591
-0.380000,1.900000,0.100424,0.040000,224686337648.918488,20492133103469.132812,-20869837580763.050781,2612360874355.868164,388.218519,-391.064987,49.218393
-0.340000,1.900000,0.100566,0.040000,198323054073.461273,17831887272098.441406,-18153984902533.480469,10155714259161.689453,337.783645,-340.211048,191.339544
-0.340000,1.940000,0.060939,0.040000,290946985747.538330,21478340150406.347656,-24934646591526.917969,13326545095814.636719,424.200025,-450.247552,251.079835
-0.380000,1.940000,0.060705,0.040000,330200160971.888794,24790313632637.750000,-28875125260941.601562,3603355474211.639648,490.151946,-520.936033,67.889306
-0.300000,1.900000,0.100002,0.040000,143212031095.202637,12717820311905.919922,-12926298514055.380859,16037656491348.966797,240.789462,-242.360602,302.158745
-0.260000,1.900000,0.100447,0.040000,67635688472.552742,5905540087990.756836,-5989968508393.194336,19548692193541.492188,111.741003,-112.377275,368.308694
-0.260000,1.940000,0.060741,0.040000,98962037321.760513,7082525469602.083984,-8072020193172.870117,25366243150807.503906,139.031682,-146.488744,477.914726
-0.300000,1.940000,0.060003,0.040000,209745476173.674225,15304443477921.906250,-17656352837476.902344,20879369667820.472656,301.637988,-319.362522,393.379429
-0.220000,1.900000,0.100541,0.040000,-17421074005.420959,-1624036662938.409424,1664223633382.950195,20209707860326.753906,-30.824936,31.127794,380.762612
-0.180000,1.900000,0.100001,0.040000,-99887243751.627029,-8740100580747.531250,8900617137130.312500,18013574055975.835938,-165.575829,166.785519,339.386178
-0.180000,1.940000,0.060001,0.040000,-145257224161.032898,-10605586114797.914062,12382313758138.667969,23208908744454.832031,-209.857764,223.247596,437.269295
-0.220000,1.940000,0.060898,0.040000,-25239436556.201885,-2065044697741.673584,2507185437328.235352,26136960331382.785156,-41.405696,44.737771,492.435485
-0.140000,1.900000,0.100469,0.040000,-168292954754.082062,-14504116796984.699219,14771041095533.423828,13425544408384.335938,-274.774671,276.786275,252.945040
-0.100000,1.900000,0.100517,0.040000,-213311090792.874603,-18231469864966.925781,18554407209114.316406,7071199361302.197266,-345.316759,347.750490,133.225495
-0.100000,1.940000,0.060857,0.040000,-309487437876.353638,-21956133356052.304688,25458789915122.914062,9059063940454.390625,-433.463905,459.860737,170.678016
-0.140000,1.940000,0.060779,0.040000,-244481035901.907837,-17467021344663.208984,20318728405500.699219,17243196065058.216797,-345.207152,366.698278,324.871810
-0.060000,1.900000,0.100000,0.040000,-228965830654.720734,-19425346414824.746094,19751861611714.171875,-195160806683.956635,-367.830308,370.291002,-3.676943
-0.020000,1.900000,0.100493,0.040000,-213367920857.235260,-17926194340735.312500,18235559957901.218750,-7356320110513.343750,-339.488482,341.819933,-138.597335
-0.020000,1.940000,0.060818,0.040000,-308652780518.356812,-21548391759050.312500,24922887764361.886719,-9564974196412.396484,-425.057431,450.488415,-180.209659
-0.060000,1.940000,0.060000,0.040000,-331748791911.736145,-23398292862305.355469,27064249226339.777344,-327950405260.150391,-461.558025,489.185522,-6.178776
0.020000,1.900000,0.100493,0.040000,-168902227601.461823,-14002481079178.824219,14247381480566.601562,-13423421370106.119141,-265.199081,267.044707,-252.905040
0.060000,1.900000,0.100000,0.040000,-101859005785.327423,-8238197110114.329102,8373961020759.424805,-17623870955872.082031,-155.979771,157.002919,-332.043946
0.060000,1.940000,0.060000,0.040000,-146176117771.706909,-9900272874634.087891,11428754542672.123047,-22729322989241.199219,-195.166124,206.685117,-428.233622
0.020000,1.940000,0.060818,0.040000,-243743053528.454285,-16785066311363.382812,19418361689498.695312,-17334113974700.261719,-331.124223,350.969348,-326.584756
0.100000,1.900000,0.100517,0.040000,-21563107481.261036,-1355273969987.709229,1373390216308.238770,-19455543101536.738281,-25.636543,25.773072,-366.553711
0.140000,1.900000,0.100469,0.040000,60887251601.134491,5741808746435.421875,-5838087722999.239258,-18585378800600.910156,108.723191,-109.448772,-350.159311
0.140000,1.940000,0.060779,0.040000,90308786115.662079,6955403503919.308594,-8042004326354.603516,-23996498188967.171875,137.185491,-145.374367,-452.107937
0.100000,1.940000,0.060857,0.040000,-29467652834.304008,-1645629725104.309326,1879356020937.366699,-25107994745244.945312,-32.325680,34.087095,-473.049176
0.180000,1.900000,0.100001,0.040000,134115556651.096024,12016174666104.066406,-12219468045008.380859,-15119368577684.748047,227.540746,-229.072812,-284.857669
0.220000,1.900000,0.100541,0.040000,188008664893.353271,16619579934326.210938,-16917455409964.699219,-9586969303531.568359,314.806164,-317.051023,-180.624059
0.220000,1.940000,0.060898,0.040000,274890279788.477234,19998376787108.839844,-23199648651754.167969,-12392853016910.982422,394.875157,-419.000684,-233.488535
0.180000,1.940000,0.060001,0.040000,196660869589.609741,14492849725932.884766,-16774113156319.798828,-19516240687685.464844,285.947788,-303.139918,-367.697288
0.260000,1.900000,0.100447,0.040000,215109983806.899139,18952817581632.925781,-19291806399041.027344,-2680653310722.160156,358.998094,-361.552792,-50.505062
0.300000,1.900000,0.100002,0.040000,211682900836.697327,18621776263642.164062,-18948589884648.351562,4690049246618.772461,352.692267,-355.155211,88.363247
0.300000,1.940000,0.060003,0.040000,308735064049.338257,22516048501513.718750,-26159817518445.703125,6045496539281.328125,444.810623,-472.270911,113.900659
0.260000,1.940000,0.060741,0.040000,314097672730.815186,22853922665793.292969,-26531105978818.531250,-3514231685351.980957,451.365231,-479.077337,-66.210162
0.340000,1.900000,0.100566,0.040000,178295183799.968201,15572568376688.441406,-15863030701074.201172,11473622257175.101562,295.037959,-297.226951,216.169695
0.380000,1.900000,0.100424,0.040000,119828954592.832840,10209309451059.773438,-10412642669219.236328,16631608413726.162109,193.498583,-195.030949,313.349144
0.380000,1.940000,0.060705,0.040000,173317318676.280121,12337621268294.458984,-14469665418775.767578,21594664302387.406250,244.498621,-260.566200,406.855994
0.340000,1.940000,0.060939,0.040000,259483298666.544861,18837432998694.417969,-21963476636183.851562,14879364664734.771484,372.577100,-396.135690,280.335856
0.420000,1.900000,0.100004,0.040000,44887748677.412354,3297394819929.814941,-3368538844898.713379,19397373203326.636719,62.526948,-63.063106,365.457756
0.460000,1.900000,0.100592,0.040000,-35352814776.335510,-4245557997050.424316,4317367517269.153809,19336413303949.324219,-80.394654,80.935827,364.309236
0.460000,1.940000,0.060982,0.040000,-56000075786.392532,-5081352644543.404297,5844276146325.664062,25284209079386.605469,-100.047806,105.797374,476.369157
0.420000,1.940000,0.060006,0.040000,62706146816.645325,4040022001188.776367,-4806900877033.643555,25256384325028.640625,80.450889,-86.230266,475.844922
0.500000,1.900000,0.100403,0.040000,-108726148776.468384,-11319508489211.240234,11521228600695.453125,16260312515251.517578,-214.406259,215.926469,306.353714
0.540000,1.900000,0.100006,0.040000,-163890559392.199341,-16728181019501.443359,17039933283868.216797,10524999730100.210938,-316.930706,319.280143,198.297096
0.540000,1.940000,0.060010,0.040000,-246863270951.549042,-20371609775534.867188,23817124019129.609375,13895070485463.681641,-403.287584,429.253778,261.791183
0.500000,1.940000,0.060669,0.040000,-164836213427.767090,-13756978217995.857422,15990792326562.271484,21364656325760.398438,-271.815351,288.649892,402.522510
0.580000,1.900000,0.100618,0.040000,-192131123018.409698,-19539606064439.703125,19936969461030.746094,2991234484175.951660,-370.383473,373.378095,56.356592
0.620000,1.900000,0.100381,0.040000,-188870692399.395752,-19224388049454.234375,19628731155995.992188,-5220722415821.775391,-364.484033,367.531256,-98.361437
0.620000,1.940000,0.060634,0.040000,-283582064084.836243,-23511248700803.785156,27789587378171.394531,-6756332030461.003906,-467.147469,499.390022,-127.293212
0.580000,1.940000,0.061025,0.040000,-288851203943.643921,-23812591811578.531250,28011848693236.750000,4036156111048.942383,-472.377964,504.024538,76.043521
0.660000,1.900000,0.100009,0.040000,-154625510943.416656,-15654693160869.851562,15989492263300.601562,-12803109368282.802734,-296.835837,299.358961,-241.218003
0.700000,1.900000,0.100645,0.040000,-95192263999.216202,-9201181114840.521484,9423678360855.851562,-18404198011313.117188,-174.613179,176.289970,-346.745760
0.700000,1.940000,0.061069,0.040000,-140599700842.901642,-11380567162563.099609,13689456250767.660156,-24452936386402.902344,-227.466725,244.867049,-460.707497
0.660000,1.940000,0.060014,0.040000,-231389224219.843994,-19265034223997.617188,22885596482718.914062,-16870357285062.802734,-383.428460,410.713857,-317.847311
0.740000,1.900000,0.100361,0.040000,-20944857699.156326,-870692076445.331909,926893032072.950562,-20817301047059.171875,-16.722001,17.145544,-392.210020
0.780000,1.900000,0.100012,0.040000,54745606238.043289,7845907893757.162109,-7994389825811.823242,-19424208205414.074219,148.660699,-149.779693,-365.963343
0.780000,1.940000,0.060020,0.040000,90130535396.153351,9634925000068.419922,-11275149657736.701172,-26115585356544.046875,190.798407,-203.159521,-492.032768
0.740000,1.940000,0.060600,0.040000,-26653598382.411175,-1090473947698.459961,1562635962777.808105,-27817390269843.941406,-23.213903,26.772226,-524.095759
0.820000,1.900000,0.100672,0.040000,117794848447.643082,15355248463056.091797,-15704405405991.667969,-14292431910909.142578,291.275278,-293.906606,-269.277703
0.860000,1.900000,0.100341,0.040000,156063575401.219757,20116030322293.609375,-20593730930195.234375,-6090523369467.518555,381.697720,-385.297782,-114.748991
0.860000,1.940000,0.060566,0.040000,247472924968.740234,25021836518850.574219,-30043477912296.816406,-8448994544946.943359,499.809096,-537.653350,-159.183955
0.820000,1.940000,0.061114,0.040000,187928260746.813171,18954054079088.886719,-22579304495404.136719,-19396856191878.378906,377.595913,-404.916640,-365.448015
0.900000,1.900000,0.100016,0.040000,161924601752.704956,20867049225467.589844,-21386592250780.925781,3734452043805.592285,396.083852,-399.999248,70.359241
0.940000,1.900000,0.100700,0.040000,134194548514.688431,17088572969079.835938,-17567269768697.261719,13147444142103.691406,324.664299,-328.271869,247.705469
0.940000,1.940000,0.061160,0.040000,211247679178.274780,21447241403674.785156,-26296032648368.894531,17902650312307.667969,431.484673,-468.026288,337.296310
0.900000,1.940000,0.060027,0.040000,256146072941.655396,26108161101201.488281,-31607666008851.097656,4926023055608.433594,522.977048,-564.422593,92.809130
0.980000,1.900000,0.100321,0.040000,78907801740.079651,9316966401678.449219,-9620085135298.636719,19943967381660.078125,177.250328,-179.534701,375.755907
1.020000,1.900000,0.100021,0.040000,8558172681.813759,-920048412242.495605,903799112210.987915,22344135638523.941406,-17.242402,17.119943,420.976469
1.020000,1.940000,0.060035,0.040000,6668377919.484528,-1082526863621.893066,968191332371.549316,31003744602965.277344,-19.749189,18.887530,584.128522
0.980000,1.940000,0.060534,0.040000,121580110031.498260,11729652622257.498047,-14703525686041.517578,27412760103909.093750,237.802303,-260.214100,516.472292
1.060000,1.900000,0.100729,0.040000,-60290707722.676201,-11388606897915.794922,11693711185746.160156,19393431965459.167969,-216.292459,218.591795,365.383501
1.100000,1.900000,0.100303,0.040000,-110740244563.255493,-19410592936748.304688,19977574047676.476562,11249915830683.806641,-368.911499,373.184400,211.954936
1.100000,1.940000,0.060503,0.040000,-190301294945.493011,-24772774773112.144531,30614757889169.832031,16026639656209.509766,-499.753342,543.779882,301.951182
1.060000,1.940000,0.061207,0.040000,-106697056993.736221,-14370015538443.611328,17469290365184.638672,27211207379552.164062,-288.257064,311.613917,512.674922
1.140000,1.900000,0.100026,0.040000,-129922220085.638657,-22471267082362.937500,23185558958920.617188,-367876287505.942749,-427.409001,432.792070,-6.931003
1.180000,1.900000,0.100758,0.040000,-112912427361.405792,-19175686325889.488281,19874294239847.328125,-12401386753184.048828,-365.229700,370.494571,-233.649316
1.180000,1.940000,0.061255,0.040000,-191356189956.743225,-24696997026372.605469,31545350394123.078125,-17642140140503.773438,-504.013825,555.624604,-332.388148
1.140000,1.940000,0.060043,0.040000,-221740381325.334564,-28854541941308.585938,36175711480002.890625,-372762602815.288879,-585.016821,640.190852,-7.023064
1.220000,1.900000,0.100284,0.040000,-64944259274.737129,-9960288889323.058594,10388787149962.242188,-21194737136948.183594,-190.079563,193.308826,-399.321134
1.260000,1.900000,0.100032,0.040000,-850843261.018252,2791234756140.360840,-2840778851559.466309,-23625624633174.398438,52.868513,-53.241889,-445.120464
1.260000,1.940000,0.060053,0.040000,7266206652.312726,3621778466326.116211,-4163347580746.377930,-34422306467834.804688,71.297449,-75.378839,-648.536209
1.220000,1.940000,0.060473,0.040000,-106739571918.711151,-12850861748941.531250,16932696370238.923828,-30518565387946.015625,-265.188924,295.950577,-574.987464
1.300000,1.900000,0.100788,0.040000,58719874897.310959,15172572259426.138672,-15752028655366.884766,-18195590682042.812500,289.135245,-293.502163,-342.815477
1.340000,1.900000,0.100266,0.040000,93759550604.118927,22657888292203.328125,-23602616261847.289062,-5908011032237.213867,432.227517,-439.347206,-111.310353
1.340000,1.940000,0.060443,0.040000,177299213742.403381,29961040019546.308594,-39277024819470.039062,-8907720519155.261719,617.138929,-687.346351,-167.826618
1.300000,1.940000,0.061304,0.040000,114265966366.886337,19871350195189.261719,-25513672486095.054688,-26868018621059.222656,406.279144,-448.800993,-506.209046
1.380000,1.900000,0.100038,0.040000,92263188211.114014,21715033856008.136719,-22710498484298.101562,9248659307097.937500,414.750365,-422.252418,174.250103
1.420000,1.900000,0.100818,0.040000,55777023551.140839,11758145894576.251953,-12410006392248.679688,21254858819995.761719,225.214714,-230.127286,400.453862
1.420000,1.940000,0.061353,0.040000,100597944957.490204,15611035651463.111328,-21728894729102.851562,32409975231667.386719,328.700165,-374.805770,610.622722
1.380000,1.940000,0.060063,0.040000,172494371640.793396,28899270910863.347656,-38699524507534.890625,13898017433059.183594,599.871755,-673.728739,261.846705
1.460000,1.900000,0.100249,0.040000,267446321.912220,-3713008596324.092285,3802930003121.155273,24336370096509.914062,-70.463486,71.141154,458.511321
1.500000,1.900000,0.100045,0.040000,-49360138356.399536,-17868013558005.914062,18828097779239.246094,16032109338210.095703,-342.070297,349.305714,302.054234
1.500000,1.940000,0.060075,0.040000,-108570313185.332458,-24421497013576.726562,33667007102965.414062,24901855788024.320312,-512.372392,582.048700,469.165399
1.460000,1.940000,0.060415,0.040000,-9355854538.958349,-5273534959994.277344,6415685884610.130859,37514242418142.796875,-105.812091,114.419606,706.790075
1.540000,1.900000,0.100848,0.040000,-70145788074.801102,-23344427932857.992188,24826379144851.175781,-664248934422.012085,-448.198801,459.367129,-12.514835
1.580000,1.900000,0.100233,0.040000,-53085205869.958984,-16243719494202.781250,17402002033040.228516,-17483774148316.326172,-312.587906,321.316992,-329.404440
1.580000,1.940000,0.060387,0.040000,-109276685003.329437,-22121846115763.863281,32809825994145.089844,-28265676866488.992188,-477.198726,557.745821,-532.541738
1.540000,1.940000,0.061404,0.040000,-149070072059.531586,-31854364900870.601562,45574304447940.882812,-1273213352460.878906,-677.702185,781.098831,-23.988078
1.620000,1.900000,0.100052,0.040000,-9653919309.202072,536232176189.495117,-547054108280.586670,-24370324785977.515625,10.164093,-10.245649,-459.151047
1.660000,1.900000,0.100880,0.040000,32877887345.261433,17136264360416.046875,-18535513604825.996094,-15719454929116.980469,330.765955,-341.311021,-296.163644
1.660000,1.940000,0.061455,0.040000,85453127353.657349,24198242752851.410156,-36881408934048.007812,-25729256545284.269531,527.596382,-623.179664,-484.754109
1.620000,1.940000,0.060087,0.040000,-11156598421.803259,1039290370910.545410,-1036341274116.361572,-39748908047975.421875,19.564164,-19.541939,-748.892470
1.700000,1.900000,0.100217,0.040000,47553168170.526077,21815468853346.125000,-23754666426824.890625,4037010764242.880859,421.976762,-436.591004,76.059623
1.740000,1.900000,0.100060,0.040000,26831213515.268497,9868963830804.703125,-10788239991373.320312,20688840711107.261719,191.132908,-198.060787,389.789753
1.740000,1.940000,0.060100,0.040000,59866569501.772743,13688175401047.058594,-22405901045374.664062,35892086033952.781250,307.167261,-372.866063,676.227708
1.700000,1.940000,0.060360,0.040000,116370822368.302612,30755458234942.917969,-48620611735255.296875,7388048266743.187500,680.427617,-815.063556,139.195112
1.780000,1.900000,0.100912,0.040000,-9848473533.347057,-9919656777601.451172,11094780337034.791016,19788556226667.761719,-193.534087,202.390091,372.827871
1.820000,1.900000,0.100201,0.040000,-30321187127.351166,-19738364359333.363281,22186189383725.851562,780754300420.171509,-385.717760,404.165137,14.709864
1.820000,1.940000,0.060335,0.040000,-89605791850.231400,-28514860356128.007812,50752452281101.796875,302802463821.372681,-662.927236,830.514886,5.704974
1.780000,1.940000,0.061507,0.040000,-37529312850.675491,-14655649751804.054688,25051744306866.902344,34183428751911.878906,-334.881472,413.228851,644.035614
1.860000,1.900000,0.100069,0.040000,-18602672295.537598,-9217055017680.310547,10311010022079.212891,-17953732304106.042969,-179.837884,188.082182,-338.258725
1.900000,1.900000,0.100944,0.040000,8095028753.792560,10180806746504.988281,-12166388606581.644531,-15248875888931.279297,203.035155,-217.998960,-287.297662
1.900000,1.940000,0.061560,0.040000,37378887968.455765,14987722032351.222656,-32053355814365.882812,-27120813690723.742188,378.835302,-507.445875,-510.971852
1.860000,1.940000,0.060115,0.040000,-48122719122.190987,-12927440178855.830078,23261383420445.429688,-33097648072869.992188,-301.969712,379.848704,-623.578877
1.940000,1.900000,0.100186,0.040000,17775354026.742218,14543538970973.611328,-17280495603139.912109,5666355502375.255859,289.478460,-310.104800,106.757423
1.980000,1.900000,0.100078,0.040000,3124163211.630780,-862162894281.265869,1739466472011.105469,15503317272054.691406,-21.202321,27.813884,292.091485
1.980000,1.940000,0.060130,0.040000,713581388.187893,-1233651216565.112793,8145418868794.221680,28523265545146.203125,-62.309217,114.397901,537.394858
1.940000,1.940000,0.060310,0.040000,62565968233.348335,20619384587681.207031,-44676555031957.093750,11884377483449.925781,524.456470,-705.756885,223.908561
2.020000,1.900000,0.100977,0.040000,-9658282386.008402,-10725483984603.126953,14247554873412.058594,352611728341.061768,-221.981693,248.524836,6.643409
2.060000,1.900000,0.100172,0.040000,-3030090354.356759,-339561696949.621582,188698597106.570648,-11073414521371.671875,-5.544835,4.407895,-208.629549
2.060000,1.940000,0.060286,0.040000,-4605003113.122848,29871842970.662117,-3414479625439.798340,-19953644582822.468750,19.693195,-45.200384,-375.938231
2.020000,1.940000,0.061614,0.040000,-45944424047.503120,-13919389800222.582031,42442295001516.281250,-760043278991.939331,-423.465794,638.421021,-14.319656
2.100000,1.900000,0.100088,0.040000,4685540917.154985,6826614501695.172852,-9209198073355.222656,576669289735.103394,142.084151,-160.039854,10.864784
2.140000,1.900000,0.101010,0.040000,197535676.925101,-23573253718.622498,2275439104158.511230,5516941147688.727539,-13.172071,30.142654,103.942369
2.140000,1.940000,0.061669,0.040000,-8226392649.017048,3129705086547.982910,12243915636538.773438,9336252414218.748047,-27.928920,143.788091,175.900408
2.100000,1.940000,0.060146,0.040000,29422255550.226475,8961962953828.621094,-29659385315799.574219,440125380143.347595,285.834008,-441.814582,8.292217
2.180000,1.900000,0.100158,0.040000,-1476777759.328714,-1195073250796.411133,2952814383029.582031,-2991709136639.595703,-32.450931,45.697676,-56.365534
2.220000,1.900000,0.100098,0.040000,608323184.355590,2963653086982.125000,-3067526665355.364258,-655018858509.939209,56.424054,-57.206869,-12.340935
2.220000,1.940000,0.060163,0.040000,8134484323.553625,6076671116741.851562,-11556838497895.964844,-2275192966292.471680,145.462866,-186.762678,-42.865954
2.180000,1.940000,0.060263,0.040000,-8173753125.026883,-103875917574.845398,10075379277013.765625,-3943641693990.936523,-58.317754,133.465315,-74.300496
2.260000,1.900000,0.101044,0.040000,-75082465.481996,701813918365.240845,461924847500.409546,2323360720281.129883,6.644927,2.125278,43.773463
2.300000,1.900000,0.100145,0.040000,-5382528.801541,-1314669680170.537598,749356129700.382446,-493076813428.266174,-21.573888,17.313554,-9.289853
2.300000,1.940000,0.060242,0.040000,929779758.436836,-3960744432675.807617,2968892235182.888672,474694643934.459900,-69.016600,61.541772,8.943522
2.260000,1.940000,0.061725,0.040000,-3585665636.141194,3080670266725.000000,2937460374406.931641,4967722086477.214844,24.026093,21.327935,93.594764
2.340000,1.900000,0.100109,0.040000,8223727.050039,32848102220.117077,-344012926166.340393,-350226902649.567200,2.377635,-4.722645,-6.598478
2.380000,1.900000,0.101079,0.040000,3403918.990848,57541881177.137817,35997920711.200752,80911677597.268768,0.555419,0.149518,1.524423
2.380000,1.940000,0.061782,0.040000,16655911.135712,182622043610.047394,134164135936.054108,217175033626.860260,1.650175,0.737200,4.091704
2.340000,1.940000,0.060182,0.040000,-137385110.544519,4518756054.778994,-1856182613459.770020,-1669996389309.040527,10.551062,-24.505630,-31.463700
2.420000,1.900000,0.080125,0.040000,4793853.000450,-420625021857.434570,-518717054391.107422,-874068557882.771606,-2.615494,-4.463605,-16.467958
2.460000,1.900000,0.040250,0.040000,-12167817.582674,-3532976604900.021484,-1908029933611.891846,-3950789821580.395508,-35.809812,-5.194875,-74.435171
2.460000,1.940000,0.042590,0.040000,4897729.425646,-234690828045.961700,-7961716983.768069,-180122245286.266205,-3.050197,1.221511,-3.393608
2.420000,1.940000,0.060221,0.040000,3517996.627882,-21133112835.671253,65976334712.938026,36262374040.603622,-0.651622,0.989571,0.683204
2.500000,1.900000,0.004478,0.040000,588207376.748625,-8211864151209.097656,-4714897904090.807617,-6166697701688.480469,-81.651974,-15.767103,-116.184160
2.500000,1.940000,0.014627,0.040000,-45379381.053298,-1478327304198.822021,-721249274918.760498,-522587518131.907288,-15.420154,-1.156365,-9.845852
-2.500000,1.980000,0.005075,0.040000,10367498.058605,543904328487.910034,30680555221.672691,-107600430825.472885,6.999819,-2.669614,-2.027254
-2.460000,1.980000,0.020594,0.040000,9969058.476436,131411415822.521835,-9595408561.395039,-38898462817.491005,1.787342,-0.869308,-0.732870
-2.420000,1.980000,0.020652,0.040000,26002597.872408,135957373710.416183,148575567387.811218,-102680003508.482056,0.953286,1.191020,-1.934551
-2.380000,1.980000,0.024839,0.040000,-306169680.905319,-55930559412.325584,272144599968.627380,-251778838690.525848,-2.275844,3.905283,-4.743659
-2.340000,1.980000,0.020538,0.040000,1879144391.930249,-1992440431059.861816,-5123433077680.511719,3022308641689.854980,2.681422,-56.308295,56.942047
-2.300000,1.980000,0.020713,0.040000,4348287554.794266,6802785199320.056641,6893302513407.293945,-2145056883266.695068,50.755747,52.461146,-40.414115
-2.260000,1.980000,0.024698,0.040000,-67080630793.414619,-25747750397416.156250,22901221526384.605469,-8612103037291.953125,-469.013467,447.561366,-162.257014
-2.220000,1.980000,0.020485,0.040000,158771948490.663116,55110868375120.523438,-63749267579437.335938,5333830955711.644531,1087.146443,-1152.247423,100.492467
-2.180000,1.980000,0.020777,0.040000,-109244691098.413666,-28787276789866.976562,56926345984281.789062,3343518217514.354004,-701.415896,913.478446,62.993821
-2.140000,1.980000,0.024558,0.040000,-36054008836.556450,-12539351018784.894531,19663661845826.050781,-14412189598142.474609,-276.516486,330.206945,-271.534007
-2.100000,1.980000,0.020435,0.040000,223915604269.103424,62881656906765.343750,-110340972088740.609375,11437477840211.238281,1452.975172,-1810.639577,215.488713
-2.060000,1.980000,0.020843,0.040000,-123367208320.905441,-29960357905402.523438,53655653218973.273438,27867020131755.894531,-698.400441,876.973681,525.030814
-2.020000,1.980000,0.024420,0.040000,-214702016096.965027,-49050689054364.320312,116983544870776.875000,-23493833531111.230469,-1308.111732,1820.069486,-442.637443
-1.980000,1.980000,0.020387,0.040000,153652615933.190857,34388822414710.140625,-62228525048508.070312,-44073863326070.546875,805.260191,-1015.066645,-830.377135
-1.940000,1.980000,0.020912,0.040000,277071016146.326843,59043137585148.445312,-134351151245289.500000,17200702280205.572266,1538.060930,-2105.599584,324.071202
-1.900000,1.980000,0.024283,0.040000,-34140415186.783051,-5020009988639.516602,3281239199159.665527,61631966388821.507812,-84.752063,71.648284,1161.181975
-1.860000,1.980000,0.020342,0.040000,-312598796274.564941,-59781486840109.320312,128929705046130.390625,22230440824733.648438,-1517.155623,2038.272630,418.834392
-1.820000,1.980000,0.020983,0.040000,-213978552478.521118,-42030119878700.554688,92221446180367.453125,-46910699642120.265625,-1075.561929,1453.815403,-883.824776
-1.780000,1.980000,0.024148,0.040000,125156860429.742432,19461905141984.585938,-38538969490864.257812,-64988907830438.593750,474.500461,-618.269641,-1224.428698
-1.740000,1.980000,0.020299,0.040000,346662550182.046204,58687917412511.898438,-119402957948163.375000,-18877234637738.148438,1448.886354,-1906.448979,-355.658044
-1.700000,1.980000,0.021057,0.040000,263233436212.927094,45588007168107.468750,-90503923961845.703125,42339785832613.843750,1112.777056,-1451.273820,797.706110
-1.660000,1.980000,0.024015,0.040000,-34956256228.635735,-2497472254765.835938,4933041235497.268555,66990191316949.578125,-60.820085,79.175097,1262.134039
-1.620000,1.980000,0.020260,0.040000,-309249409577.850952,-45158354364038.140625,85638781296968.890625,41972648578894.648438,-1079.611988,1384.681872,790.789031
-1.580000,1.980000,0.021133,0.040000,-378071464884.547607,-55511139887662.156250,102249674868403.968750,-8788564878904.148438,-1310.036384,1662.268822,-165.581657
-1.540000,1.980000,0.023883,0.040000,-215459219153.753662,-32201624047771.406250,57198430789559.867188,-50410451108268.210938,-747.983564,936.365296,-949.762122
-1.500000,1.980000,0.020223,0.040000,68008481810.830849,6614857433103.968750,-12914945894254.910156,-61134532292203.531250,160.236944,-207.715872,-1151.810029
-1.460000,1.980000,0.021211,0.040000,314944983022.268799,38531440786389.625000,-67936245851228.578125,-40367938416360.375000,892.155754,-1113.757183,-760.555361
-1.420000,1.980000,0.023753,0.040000,412632863813.915466,50716383517762.320312,-86204469082611.234375,-2675406170860.833984,1156.110898,-1423.557340,-50.406203
-1.380000,1.980000,0.020189,0.040000,326123231765.910278,39901689492683.804688,-65814088400827.921875,33216569568412.011719,898.232347,-1093.514193,625.819427
-1.340000,1.980000,0.021292,0.040000,105573441703.187286,14378852581839.066406,-21856990595067.910156,53033946843318.593750,313.173655,-369.530637,999.190303
-1.300000,1.980000,0.023625,0.040000,-158099582594.191132,-15494861806213.904297,26512762499633.656250,51185081341068.500000,-354.207270,437.240724,964.356605
-1.260000,1.980000,0.020158,0.040000,-362157793181.688965,-37108834621133.015625,60105277740610.085938,31166513333479.914062,-829.131853,1002.438380,587.195179
-1.220000,1.980000,0.021376,0.040000,-441459174185.539307,-44614727659407.367188,70160438329324.398438,2477041329123.244141,-984.956132,1177.474531,46.668895
-1.180000,1.980000,0.023498,0.040000,-379212634734.410461,-37665902779816.242188,57627154425826.054688,-24394226083624.628906,-822.471910,972.904531,-459.601361
-1.140000,1.980000,0.020129,0.040000,-203530206103.876678,-20320896822454.886719,29976367575693.558594,-41940655736685.781250,-437.431876,510.197743,-790.186268
-1.100000,1.980000,0.021462,0.040000,28137141665.153122,944148000432.269287,-2874208554910.014160,-46699387603923.265625,28.697334,-43.242717,-879.843535
-1.060000,1.980000,0.023373,0.040000,253603244121.334412,21306634364609.292969,-32998232411955.574219,-38783037039556.179688,467.512289,-555.622883,-730.694901
-1.020000,1.980000,0.020103,0.040000,411247242967.690735,34415548206542.035156,-51793514073183.992188,-21501099428612.542969,746.632165,-877.596545,-405.093178
-0.980000,1.980000,0.021550,0.040000,466899021647.602722,38316187350033.531250,-56363711240757.453125,-363263574969.611389,823.906926,-959.917251,-6.844096
-0.940000,1.980000,0.023250,0.040000,413338210422.597656,33182673689676.550781,-47820631691344.156250,19115880942089.257812,707.917093,-818.232139,360.154279
-0.900000,1.980000,0.020081,0.040000,268824463427.876984,21320207391453.476562,-30050534570077.394531,33092250607290.554688,451.030394,-516.824164,623.477185
-0.860000,1.980000,0.021640,0.040000,68784424038.968277,6076511710035.636719,-7705971545165.558594,39426680530014.304688,123.694994,-135.974981,742.821517
-0.820000,1.980000,0.023129,0.040000,-146313644274.651245,-10249438758634.929688,15494711733273.298828,37374903374023.984375,-222.752563,262.282156,704.164846
-0.780000,1.980000,0.020061,0.040000,-329327637460.732605,-23100002504949.484375,33452576886703.128906,28029474030509.859375,-493.731989,571.751390,528.091540
-0.740000,1.980000,0.021732,0.040000,-447732145068.891418,-30762271303792.210938,43625474763699.734375,14122197824244.818359,-652.284088,749.224172,266.070394
-0.700000,1.980000,0.023010,0.040000,-483911689104.005554,-32711820896285.554688,45711493892496.093750,-1354377542065.098633,-689.786082,787.754632,-25.517258
-0.660000,1.980000,0.020043,0.040000,-433934383812.350647,-28803686560315.761719,39883066509571.234375,-15842389135378.626953,-605.300735,688.797511,-298.479795
-0.620000,1.980000,0.021827,0.040000,-309976103219.601257,-20389066639774.207031,27718178395516.359375,-27008482392746.054688,-425.567250,480.801135,-508.855465
-0.580000,1.980000,0.022892,0.040000,-133463735542.060272,-8428463670601.654297,10995035314553.279297,-33011168469721.703125,-173.303851,192.646130,-621.949551
-0.540000,1.980000,0.020029,0.040000,61563108620.003380,3824189151875.902344,-5866022073998.948242,-33325582950350.371094,83.590735,-98.978462,-627.873302
-0.500000,1.980000,0.021924,0.040000,244522618404.436890,14775135741180.568359,-20697980455108.472656,-28589556945618.605469,311.849071,-356.485002,-538.643827
-0.460000,1.980000,0.022777,0.040000,389753214202.536133,23605583855256.183594,-32490705083719.410156,-19719771587626.226562,494.963135,-561.923469,-371.531928
-0.420000,1.980000,0.020018,0.040000,473368880667.606384,28179839492488.347656,-38553220841151.898438,-8076390763778.355469,589.556668,-667.732875,-152.163884
-0.380000,1.980000,0.022024,0.040000,485499725775.558716,28472175107874.859375,-38554515448495.304688,4303689133534.271484,593.419426,-669.402280,81.083998
-0.340000,1.980000,0.022663,0.040000,426068265542.961792,24507207283049.957031,-32935093879523.839844,15468922893052.634766,509.365873,-572.880381,291.443475
-0.300000,1.980000,0.020009,0.040000,306538103085.093994,17403020943382.597656,-23279906971004.589844,24117566290549.730469,361.100185,-405.389761,454.388930
-0.260000,1.980000,0.022125,0.040000,144650411562.941376,8165288399475.097656,-10702162769969.820312,29271592469751.144531,168.177622,-187.296096,551.493771
-0.220000,1.980000,0.022551,0.040000,-38067576322.529121,-2604962075289.676270,3799022308686.623047,30108265269736.281250,-55.828032,64.826747,567.257172
-0.180000,1.980000,0.020003,0.040000,-212103560016.291565,-12195628134300.722656,16661407735684.417969,26657997819878.496094,-255.014067,288.669218,502.252133
-0.140000,1.980000,0.022228,0.040000,-355179729478.520386,-19906605043759.832031,26849101598462.800781,19782162802325.031250,-414.292177,466.612441,372.707415
-0.100000,1.980000,0.022442,0.040000,-449564888723.944519,-25161518892136.230469,33798779050507.511719,10388053658674.988281,-522.876899,587.969294,195.716953
-0.060000,1.980000,0.020000,0.040000,-481114635056.849243,-26684970460093.222656,35870441481280.398438,-423609391098.578857,-554.678193,623.902032,-7.981046
-0.020000,1.980000,0.022334,0.040000,-446884761299.551514,-24651292226998.664062,32978977516054.519531,-11054921779878.462891,-511.514162,574.273529,-208.281135
0.020000,1.980000,0.022334,0.040000,-351449417298.815796,-19044229002896.738281,25440521811555.843750,-19945816834555.882812,-394.957274,443.161220,-375.790752
0.060000,1.980000,0.020000,0.040000,-210162803302.534271,-11276771249839.029297,15108307830904.750000,-26121657067627.558594,-234.117419,262.992767,-492.147162
0.100000,1.980000,0.022442,0.040000,-41168371532.007805,-2015945394668.815674,2689240342234.281738,-28890483075497.492188,-41.787160,46.861267,-544.313449
0.140000,1.980000,0.022228,0.040000,134106183903.175400,8097663523728.687500,-10869079546231.742188,-27619872147450.933594,168.229200,-189.115234,-520.374403
0.180000,1.980000,0.020003,0.040000,288039364459.439941,16528074681675.849609,-22236839564954.433594,-22441857026572.261719,343.665440,-386.688016,-422.817596
0.220000,1.980000,0.022551,0.040000,401296298227.246277,22801247819245.882812,-30609387272046.031250,-14271212790864.537109,473.721689,-532.565639,-268.877922
0.260000,1.980000,0.022125,0.040000,458748507901.031799,26180241887621.871094,-35244748720343.546875,-4089523417921.260742,544.485103,-612.797329,-77.048992
0.300000,1.980000,0.020009,0.040000,450947328112.474609,25774992039806.937500,-34912817154087.796875,6940076794609.770508,537.264369,-606.129138,130.755070
0.340000,1.980000,0.022663,0.040000,378790512308.766663,21716430023048.640625,-29447749005075.988281,17163064772691.031250,452.848890,-511.113903,323.362090
0.380000,1.980000,0.022024,0.040000,251259891669.143402,14080944567393.445312,-19243406210549.179688,24914267868241.898438,294.472290,-333.377798,469.399250
0.420000,1.980000,0.020018,0.040000,89067839322.177429,4737171878028.192383,-6687101028910.407227,29169012904080.839844,100.272403,-114.967521,549.561113
0.460000,1.980000,0.022777,0.040000,-86070453476.879410,-5638386261177.275391,7413329592280.472656,29294220300574.773438,-116.262754,129.639139,551.920093
0.500000,1.980000,0.021924,0.040000,-248981867239.983917,-15918076633524.093750,21522041284462.660156,24820597877480.117188,-331.580374,373.813152,467.634453
0.540000,1.980000,0.020029,0.040000,-370960088814.844177,-23413209855959.414062,32038481983644.261719,16173409507329.412109,-489.869985,554.872035,304.716411
0.580000,1.980000,0.022892,0.040000,-433883780799.923523,-27518522293657.941406,37817786217674.492188,4760653459952.355469,-576.678144,654.295785,89.693471
0.620000,1.980000,0.021827,0.040000,-426346392514.411011,-27243460801355.781250,37791484855436.164062,-7758190938619.196289,-572.901861,652.394216,-146.168815
0.660000,1.980000,0.020043,0.040000,-348271456181.140259,-22467572594999.894531,31584887796766.773438,-19592864849245.250000,-474.834744,543.544945,-369.140932
0.700000,1.980000,0.023010,0.040000,-210439495467.378845,-13505787796644.234375,19273724585241.003906,-28557809009904.722656,-287.058253,330.526763,-538.045677
0.740000,1.980000,0.021732,0.040000,-34642451272.156006,-1267694470622.735107,2311084578963.378906,-32578057148610.738281,-29.781521,37.644751,-613.789483
0.780000,1.980000,0.020061,0.040000,144744404262.116302,11039806496310.257812,-15110900572099.347656,-30671577904579.015625,231.006886,-261.687595,-577.870308
0.820000,1.980000,0.023129,0.040000,296928331944.229065,22053297363877.812500,-30904037085649.218750,-22918987998111.253906,465.522827,-532.224054,-431.807020
0.860000,1.980000,0.021640,0.040000,391689250155.561340,29471332535463.378906,-41976917286458.109375,-10119417462618.798828,625.940730,-720.185716,-190.655691
0.900000,1.980000,0.020081,0.040000,406196499484.403381,30874014610670.148438,-44714069208885.468750,5700799808891.732422,659.910729,-764.212590,107.406373
0.940000,1.980000,0.023250,0.040000,335082531662.816040,25689232486372.402344,-37694448371578.140625,21154470038844.121094,551.855600,-642.329691,398.562479
0.980000,1.980000,0.021550,0.040000,189952278111.996216,14051673657530.898438,-21305126847993.300781,32545828182792.429688,305.739457,-360.403162,613.182270
1.020000,1.980000,0.020103,0.040000,3902440683.170288,-931613757243.196411,573824350823.924438,36990615624686.242188,-15.529855,12.833471,696.924642
1.060000,1.980000,0.023373,0.040000,-183249551806.300079,-16942409111013.574219,24506606432184.363281,32694016508255.167969,-361.958968,418.964513,615.974224
1.100000,1.980000,0.021462,0.040000,-324716804444.397583,-29893588488554.457031,44554174856000.195312,19431869034094.511719,-646.076721,756.562299,366.107677
1.140000,1.980000,0.020129,0.040000,-378656195645.376221,-35053886058739.996094,53497110346590.359375,-318813733870.913086,-764.679846,903.672261,-6.006636
1.180000,1.980000,0.023498,0.040000,-327087215430.324280,-30515850406248.226562,47466387402482.640625,-21292154829907.781250,-670.743695,798.486872,-401.156540
1.220000,1.980000,0.021376,0.040000,-179087640548.377228,-16028658566445.531250,26001636873228.531250,-37073694802725.171875,-358.358227,433.516904,-698.489902
1.260000,1.980000,0.020158,0.040000,21685943863.447933,3954296646980.946289,-5252359467022.476562,-42084316813222.078125,81.838118,-91.620620,-792.892925
1.300000,1.980000,0.023625,0.040000,215384194813.403564,24472487312064.312500,-38380953613530.953125,-33129561445427.578125,539.688918,-644.506346,-624.180143
1.340000,1.980000,0.021292,0.040000,333356817948.414368,37776982958042.828125,-61154818448290.125000,-11161585846725.259766,843.875851,-1020.056640,-210.290748
1.380000,1.980000,0.020189,0.040000,325457289723.785706,37070484233487.921875,-61781429588642.570312,17185484165460.419922,838.099974,-1024.327388,323.784484
1.420000,1.980000,0.023753,0.040000,187340785167.843201,20783163543465.113281,-35863108163748.304688,40506414606253.054688,476.801319,-590.447278,763.164333
1.460000,1.980000,0.021211,0.040000,-30938768456.995060,-6439856498883.688477,9768931739499.958984,47169811086146.085938,-140.147142,165.235825,888.706586
1.500000,1.980000,0.020223,0.040000,-230887899614.923553,-31760455079637.757812,55022954788159.585938,31473461951591.359375,-729.869080,905.180672,592.978269
1.540000,1.980000,0.023883,0.040000,-315651217787.736023,-43007459105331.539062,76779724291891.562500,-1649195790781.681641,-1001.172178,1255.687799,-31.071805
1.580000,1.980000,0.021133,0.040000,-230114184640.454620,-30813973293976.144531,56940922304548.656250,-36247739325983.203125,-728.227180,925.125926,-682.928422
1.620000,1.980000,0.020260,0.040000,-13351990283.037043,382239477568.393066,-517725315695.135498,-51331414173363.054688,7.967403,-8.988456,-967.113600
1.660000,1.980000,0.024015,0.040000,210465061149.986542,34117023931178.144531,-65371496342936.195312,-33433082094396.878906,819.440222,-1054.981174,-629.898648
1.700000,1.980000,0.021057,0.040000,285705812623.250671,45620879180456.484375,-89576440761332.218750,9855324492876.074219,1107.968289,-1439.227594,185.680027
1.740000,1.980000,0.020299,0.040000,143566441416.446716,22111694701366.433594,-43303875698366.539062,47679697521078.054688,536.379039,-696.088229,898.313142
1.780000,1.980000,0.024148,0.040000,-116243215267.707016,-22287713653461.652344,47992496145386.203125,45587643166745.320312,-565.201347,758.918548,858.897625
1.820000,1.980000,0.020983,0.040000,-262643753994.950226,-47946108527213.265625,101810468157745.078125,21215136853.088039,-1207.783208,1613.717512,0.399705
1.860000,1.980000,0.020342,0.040000,-136282377018.967072,-24466088859264.613281,48587961339217.960938,-45356596516616.093750,-597.296316,779.084340,-854.544572
1.900000,1.980000,0.024283,0.040000,140734097041.127960,28720589263617.511719,-69192483254091.593750,-37001223942837.117188,769.866735,-1074.872313,-697.124509
1.940000,1.980000,0.020912,0.040000,223941004584.087006,45709803584642.765625,-100024511963650.109375,17072108500721.525391,1168.195376,-1577.523613,321.648421
1.980000,1.980000,0.020387,0.040000,-18328319666.740952,-3888354098714.028809,20388079194533.046875,39881783745690.429688,-166.518161,290.863915,751.395926
2.020000,1.980000,0.024420,0.040000,-210044006079.499603,-47028723078498.953125,106005424904837.000000,-1922239435027.864258,-1219.394981,1663.857082,-36.216105
2.060000,1.980000,0.020843,0.040000,8928609995.911644,3331840541778.528320,-12671491326510.457031,-28811221071223.992188,115.563138,-185.948912,-542.820107
2.100000,1.980000,0.020435,0.040000,184933401263.630432,50814441429989.023438,-87963276311828.015625,1275996238627.781982,1167.345210,-1447.307443,24.040509
2.140000,1.980000,0.024558,0.040000,-94481510916.001617,-27896757580318.109375,48921715639540.156250,13432950968308.886719,-644.427804,802.876764,253.084583
2.180000,1.980000,0.020777,0.040000,-38558983800.546570,-5586001418019.441406,25672001911208.488281,-6601311545419.537109,-218.773073,370.145830,-124.372536
2.220000,1.980000,0.020485,0.040000,113035760571.559280,36771500037588.656250,-49230000239760.039062,-2911506642505.966309,763.213987,-857.104134,-54.854473
2.260000,1.980000,0.024698,0.040000,-55345983676.413391,-19627834107571.015625,21713291195904.398438,8120034655178.379883,-381.587139,397.303627,152.986160
2.300000,1.980000,0.020713,0.040000,2572449454.877747,4543703517097.670898,4846089481069.872070,790676679986.640869,32.533265,38.230392,14.896807
2.340000,1.980000,0.020538,0.040000,2334707144.681472,-1444454258815.725342,-4667989673582.345703,-2613775208731.860352,7.334241,-53.399035,-49.245040
2.380000,1.980000,0.024839,0.040000,-384966352.420203,-118976563536.993820,245341987831.490479,219046030205.973389,-2.955827,3.908146,4.126954
2.420000,1.980000,0.020652,0.040000,24134784.100726,140501378892.227051,170784878487.078064,114820534635.476135,0.887683,1.458242,2.163285
2.460000,1.980000,0.020594,0.040000,3984680.662896,83544661462.078201,-14231469298.533257,20536962412.300751,1.182260,-0.659899,0.386928
2.500000,1.980000,0.005075,0.040000,4413145.084039,1108028909.162446,12520040245.180143,37758825430.443024,-0.056152,0.158857,0.711398
