x,y,R,s,phi,sigma_xx,sigma_yy,tau_xy,epsilon_xx,epsilon_yy,epsilon_xy
-2.500000,-2.000000,4.348425,0.040000,-52547517235.740334,11927910273804.326172,-29256727278764.343750,24001762679316.414062,322.674232,-453.268215,452.207123
-2.460000,-2.000000,4.319336,0.040000,157589.690492,33935103848789.730469,-13458473821063.757812,7548188051343.087891,523.619555,-369.302923,142.212239
-2.420000,-2.000000,4.290423,0.040000,-69953363838.696106,7174401114468.205078,13823037408937.548828,1304804695624.922119,16.488702,141.752864,24.583277
-2.380000,-2.000000,4.261689,0.040000,1359451.749338,35093726225777.140625,-10263644269195.060547,-62868561463.810532,520.842205,-333.716949,-1.184480
-2.340000,-2.000000,4.233138,0.040000,-69687541010.394363,6470716809498.475586,10339914481021.150391,-27885559156.813980,26.895444,99.793371,-0.525380
-2.300000,-2.000000,4.204773,0.040000,3809575.986836,34888076634628.273438,-10308146932962.062500,-40958583741.751755,518.381551,-333.141501,-0.771683
-2.260000,-2.000000,4.176599,0.040000,-69265433764.071396,6452455653772.814453,10278604414610.248047,-44447489631.279724,27.001144,99.088005,-0.837416
-2.220000,-2.000000,4.148224,0.040000,7570649.038055,34658152741995.390625,-10233611584405.951172,-59688572020.260323,514.927935,-330.858929,-1.124567
-2.180000,-2.000000,4.119949,0.040000,-68681048139.574425,6419117477055.473633,10193742973396.273438,-61668984384.282249,27.041118,98.157251,-1.161879
-2.140000,-2.000000,4.091728,0.040000,12746925.437480,34345493867328.964844,-10134459490025.919922,-79281472592.592346,510.244038,-327.784069,-1.493709
-2.100000,-2.000000,4.063351,0.040000,-67926209740.305954,6370192168922.092773,10084143897023.935547,-79776725038.730591,27.015344,96.988348,-1.503040
-2.060000,-2.000000,4.035171,0.040000,19478076.601913,33945748113088.656250,-10009331692136.128906,-99995478204.884140,504.264785,-323.874400,-1.883973
-2.020000,-2.000000,4.006808,0.040000,-66990533542.818413,6304960678786.840820,9948290849066.914062,-99008656633.529526,26.922910,95.565362,-1.865380
-1.980000,-2.000000,3.978524,0.040000,27938692.031617,33453464725404.359375,-9856551687413.761719,-122094303488.656372,496.908812,-319.077004,-2.300327
-1.940000,-2.000000,3.950321,0.040000,-65861448115.115349,6222488761400.220703,9784341346368.001953,-119604585951.641632,26.761908,93.869275,-2.253420
-1.900000,-2.000000,3.921930,0.040000,38336580.256098,32862112664226.808594,-9674133329266.156250,-145838690509.133026,488.078761,-313.328772,-2.747685
-1.860000,-2.000000,3.893743,0.040000,-64524275651.615913,6121629965752.611328,9590134294811.656250,-141798872182.671509,26.529433,91.878066,-2.671573
-1.820000,-2.000000,3.865393,0.040000,50908814.007212,32164135990618.085938,-9459800833649.019531,-171477118703.165802,477.662117,-306.556983,-3.230728
-1.780000,-2.000000,3.837098,0.040000,-62962402481.123550,6001035855355.370117,9363209057857.025391,-165810607763.175232,26.221610,89.566902,-3.123968
-1.740000,-2.000000,3.808915,0.040000,65914301.764061,31351061429890.375000,-9211025507471.189453,-199232339431.624054,465.532838,-298.680394,-3.753653
-1.700000,-2.000000,3.780509,0.040000,-61157582713.366806,5859175712940.531250,9100842644285.490234,-191829250685.032867,25.833642,86.908526,-3.614174
-1.660000,-2.000000,3.752315,0.040000,83621439.286662,30413679610784.273438,-8925085551144.103516,-229282215374.002930,451.554084,-289.611057,-4.319810
-1.620000,-2.000000,3.724338,0.040000,-59090424312.117752,5694369476660.319336,8800112684901.937500,-219994528998.380463,25.359888,83.873891,-4.144824
-1.580000,-2.000000,3.696581,0.040000,104289322.526488,29342324116050.062500,-8599155813545.376953,-261733969442.548645,435.582402,-279.257075,-4.931220
-1.540000,-2.000000,3.669050,0.040000,-56741109004.377678,5504838081572.914062,8457994707972.510742,-250370007170.240875,24.793981,80.433164,-4.717116
-1.500000,-2.000000,3.641751,0.040000,128141260.548651,28127271836170.191406,-8230433798558.767578,-296591782773.864807,417.473718,-267.526533,-5.587961
-1.460000,-2.000000,3.614688,0.040000,-54090390695.168282,5288775104960.095703,8071501993708.665039,-282910680107.058167,24.128979,76.557167,-5.330201
-1.420000,-2.000000,3.587867,0.040000,155330139.644180,26759282177509.097656,-7816305945769.496094,-333719128925.900208,397.091393,-254.332731,-6.287462
-1.380000,-2.000000,3.561294,0.040000,-51120896078.784103,5044442368610.487305,7637874062767.135742,-317426618720.105713,23.357560,72.219317,-5.980502
-1.340000,-2.000000,3.534973,0.040000,185896785.121422,25230279011536.121094,-7354553587411.278320,-372799464488.041931,374.316374,-239.600762,-7.023758
-1.300000,-2.000000,3.508911,0.040000,-47818710685.824287,4770289632915.394531,7154814574860.465820,-353547123248.659729,22.472259,67.398091,-6.661033
-1.260000,-2.000000,3.483113,0.040000,219724957.302984,23534155991719.378906,-6843590634249.002930,-413301834123.673584,349.059164,-223.275193,-7.786846
-1.220000,-2.000000,3.457585,0.040000,-44175171021.118690,4465094598824.731445,6620770209620.694336,-390692828005.358521,21.465735,62.079913,-7.360879
-1.180000,-2.000000,3.432334,0.040000,256499811.000864,21667653063183.210938,-6282715253106.512695,-454461067295.577209,321.272801,-205.328342,-8.562310
-1.140000,-2.000000,3.407365,0.040000,-40188702284.644585,4128114354317.003906,6035228909904.911133,-428066007319.381226,20.331084,56.262228,-8.065012
-1.100000,-2.000000,3.382685,0.040000,295679838.474132,19631213278204.285156,-5672346963851.097656,-495284407251.010681,290.965499,-185.768245,-9.331445
-1.060000,-2.000000,3.358299,0.040000,-35866455035.615746,3759233900463.817871,5399000275165.252930,-464670590959.150208,19.062214,49.956363,-8.754663
-1.020000,-2.000000,3.334216,0.040000,336494194.269004,17429692833627.044922,-5014211421708.713867,-534595923895.278320,258.211057,-164.645110,-10.072097
-0.980000,-2.000000,3.310440,0.040000,-31225428422.179680,3359092669304.877930,4714426833563.895508,-499371333039.792847,17.654317,43.189598,-9.408445
-0.940000,-2.000000,3.286980,0.040000,377976181.154352,15072776393245.046875,-4311431371749.198242,-571125192420.467407,223.154851,-142.054860,-10.760330
-0.900000,-2.000000,3.263841,0.040000,-26292755671.986134,2929167410798.583008,3985468534485.270996,-530994778179.239014,16.104487,36.005813,-10.004249
-0.860000,-2.000000,3.241030,0.040000,419038206.990516,12574958381037.021484,-3568487476708.290527,-603636791086.943359,186.013366,-118.138513,-11.372867
-0.820000,-2.000000,3.218555,0.040000,-21104899577.340755,2471790717837.436523,3217610706537.376465,-558463320450.099121,14.412484,28.464165,-10.521773
-0.780000,-2.000000,3.196423,0.040000,458583740.609543,9954998633245.115234,-2791028755301.692383,-631083814902.317993,147.065942,-93.076603,-11.889985
-0.740000,-2.000000,3.174640,0.040000,-15705671568.365095,1990089544709.757080,2417571635563.750488,-580940595072.738281,12.581573,20.635584,-10.945258
-0.700000,-2.000000,3.153214,0.040000,495639964.764126,7234846040596.740234,-1985537696720.974121,-652756239325.394287,106.638690,-67.078685,-12.298306
-0.660000,-2.000000,3.132152,0.040000,-10143222377.618710,1487837525820.682617,1592826946637.443604,-597956940262.458740,10.619270,12.597332,-11.265855
-0.620000,-2.000000,3.111462,0.040000,529485218.397161,4438130213600.126953,-1158884369455.095215,-668389510633.382812,65.082078,-40.368921,-12.592846
-0.580000,-2.000000,3.091152,0.040000,-4466393648.138850,969228142643.901367,751013260957.190674,-609483188302.944214,8.537716,4.426422,-11.483017
-0.540000,-2.000000,3.071228,0.040000,559742510.514860,1588420237297.020020,-317829080699.588379,-678204501334.107788,22.745156,-13.169686,-12.777766
-0.500000,-2.000000,3.051698,0.040000,1279010515.558960,438591076350.902405,-100692518099.035767,-615931884275.677246,6.353449,-3.806967,-11.604514
-0.460000,-2.000000,3.032570,0.040000,586416695.126243,-1292489765472.883057,531453365504.693298,-682866508282.799072,-20.049746,14.314400,-12.865601
-0.420000,-2.000000,3.013851,0.040000,7053436746.678424,-99911914446.816727,-956112762900.603516,-618084064595.931396,4.086437,-12.044884,-11.645062
-0.380000,-2.000000,2.995550,0.040000,609866647.628365,-4186006957676.063965,1383757447589.441895,-683372380810.779785,-63.027996,41.909594,-12.875132
-0.340000,-2.000000,2.977674,0.040000,12825796364.860849,-642567028237.906128,-1810441390626.692871,-616959448593.323120,1.758495,-20.244935,-11.623874
-0.300000,-2.000000,2.960230,0.040000,630719817.833491,-7077675141071.956055,2235086471480.061035,-680892610555.907349,-105.976349,69.481478,-12.828412
-0.260000,-2.000000,2.943226,0.040000,18574414361.347237,-1186321171834.695557,-2660402868806.950195,-613660459455.134888,-0.608625,-28.381179,-11.561719
-0.220000,-2.000000,2.926671,0.040000,649748862.762715,-9957515401594.421875,3082723440039.572754,-676602793250.870972,-148.747843,96.937816,-12.747589
-0.180000,-2.000000,2.910571,0.040000,24286697898.892250,-1728895973328.405029,-3504197742956.624512,-609221970133.845093,-2.995047,-36.442761,-11.478095
-0.140000,-2.000000,2.894934,0.040000,667734921.685555,-12819777142871.878906,3925138188154.238281,-671535040450.330688,-191.257987,124.225925,-12.652109
-0.100000,-2.000000,2.879768,0.040000,29957716779.539890,-2268790481824.646484,-4341271086540.334961,-604490588606.393066,-5.384110,-44.430846,-11.388953
-0.060000,-2.000000,2.865080,0.040000,685339458.238909,-15662193838255.568359,4761759241902.981445,-666468480273.497314,-233.473659,151.325457,-12.556653
-0.020000,-2.000000,2.850878,0.040000,35588010388.340614,-2805180157500.126465,-5171959646623.336914,-600044841895.864990,-7.763039,-52.354536,-11.305193
0.020000,-2.000000,2.837168,0.040000,702999465.660214,-18484890602846.203125,5592652447429.664062,-661864923936.198608,-275.396883,178.237986,-12.469919
0.060000,-2.000000,2.823959,0.040000,41180968284.667015,-3337735671791.524902,-5997075809074.302734,-596156375195.155396,-10.122897,-60.226407,-11.231932
0.100000,-2.000000,2.811257,0.040000,720853226.903495,-21289106131838.312500,6418152132240.523438,-657846059254.703857,-317.045883,204.974925,-12.394201
0.140000,-2.000000,2.799068,0.040000,46740102038.540482,-3866393752547.523926,-6817477924127.251953,-592785748109.942017,-12.457999,-68.058135,-11.168427
0.180000,-2.000000,2.787401,0.040000,738698800.177442,-24075880926140.074219,7238487506031.625977,-654204380732.542236,-358.435678,231.545177,-12.325590
0.220000,-2.000000,2.776261,0.040000,52266472526.732658,-4391113990477.658691,-7633664897854.975586,-589605240393.005737,-14.764992,-75.856530,-11.108505
0.260000,-2.000000,2.765655,0.040000,755986001.739048,-26844842472576.593750,8053441214768.450195,-650440902945.069092,-399.560126,257.943769,-12.254684
0.300000,-2.000000,2.755588,0.040000,57756490843.080017,-4911652284729.189453,-8445424441197.100586,-586043664870.704590,-17.041856,-83.620172,-11.041402
0.340000,-2.000000,2.746067,0.040000,771843826.338184,-29593198027002.363281,8862071386732.738281,-645826091291.705566,-440.377073,284.142496,-12.167738
0.380000,-2.000000,2.737098,0.040000,63200284474.989525,-5427375847592.598633,-9251561436642.132812,-581351714975.512085,-19.287001,-91.336874,-10.953003
0.420000,-2.000000,2.728686,0.040000,785146461.915744,-32315030504936.332031,9662523894010.294922,-639483247886.976196,-480.798001,310.083459,-12.048235
0.460000,-2.000000,2.720836,0.040000,68580804132.081474,-5937138015151.115234,-10049733772276.873047,-574687920155.121582,-21.498542,-98.982231,-10.827454
0.500000,-2.000000,2.713552,0.040000,794619450.356411,-35000977801863.562500,10451956479660.134766,-630493138963.121826,-520.683374,335.676257,-11.878856
0.540000,-2.000000,2.706841,0.040000,73873815910.912140,-6439224172992.360352,-10836422607944.171875,-565222882105.393066,-23.673756,-106.519524,-10.649127
0.580000,-2.000000,2.700705,0.040000,798981344.016042,-37638350911323.929688,11226588407844.511719,-618013878102.924683,-559.844475,360.799309,-11.643740
0.620000,-2.000000,2.695149,0.040000,79048852022.206192,-6931373027655.508789,-11607056278785.507812,-552253156306.965820,-25.808660,-113.901243,-10.404770
0.660000,-2.000000,2.690176,0.040000,797106082.013263,-40211703304039.046875,11981876567975.187500,-601402385700.368896,-598.051911,385.305391,-11.330770
0.700000,-2.000000,2.685790,0.040000,84071070212.772903,-7410870270835.011719,-12356288225356.541016,-535308476200.498352,-27.897674,-121.072216,-10.085522
0.740000,-2.000000,2.681993,0.040000,788180855.001596,-42703802935179.226562,12712801864281.171875,-580316903543.484131,-635.050049,409.030911,-10.933507
0.780000,-2.000000,2.678789,0.040000,88903814462.313980,-7874704481534.899414,-13078401349983.945312,-514231316260.433350,-29.933399,-127.974065,-9.688416
0.820000,-2.000000,2.676178,0.040000,771828758.435306,-45096889762800.171875,13414231356529.339844,-554778612942.262085,-670.575651,431.807790,-10.452351
0.860000,-2.000000,2.674163,0.040000,93511522014.940613,-8319768057752.642578,-13767782203757.994141,-489209954093.382874,-31.906578,-134.550323,-9.216999
0.900000,-2.000000,2.672746,0.040000,748169320.383247,-47374045088936.710938,14081307030658.888672,-525177044467.459229,-704.378127,453.476333,-9.894640
0.940000,-2.000000,2.671926,0.040000,97862538552.701035,-8743079599058.985352,-14419389731859.152344,-460756065669.637451,-33.806383,-140.751357,-8.680911
0.980000,-2.000000,2.671706,0.040000,717803388.605575,-49520474349319.523438,14709806278735.060547,-492217317954.963318,-736.238494,473.897228,-9.273660
1.020000,-2.000000,2.671706,0.040000,101931421375.752884,-9141999807045.626953,-15029143567754.515625,-429632147911.326416,-35.621070,-146.538271,-8.094519
1.060000,-2.000000,2.671926,0.040000,681727457.016312,-51524523349193.687500,15296424857022.027344,-456822178752.646729,-765.984376,492.961025,-8.606795
1.100000,-2.000000,2.672746,0.040000,105700429161.129929,-9514412623186.154297,-15594176994803.830078,-396746808802.044373,-37.338934,-151.885219,-7.474940
1.140000,-2.000000,2.674163,0.040000,641199202.885468,-53378305770415.734375,15838949228465.957031,-420012182870.343201,-793.499253,510.593957,-7.913273
1.180000,-2.000000,2.676178,0.040000,109160077105.102982,-9858848513676.851562,-16112932273674.802734,-363042103175.842224,-38.949399,-156.779963,-6.839924
1.220000,-2.000000,2.678789,0.040000,597584790.056031,-55077899738726.578125,16336307217850.593750,-382789563520.491516,-818.725342,526.759717,-7.211977
1.260000,-2.000000,2.681993,0.040000,112308819756.623962,-10174537192059.160156,-16585109417984.705078,-329395066775.490784,-40.444002,-161.222899,-6.205994
1.300000,-2.000000,2.685790,0.040000,552217376.666661,-56623149834426.937500,16788507566256.699219,-346045724350.895264,-841.660642,541.457541,-6.519702
1.340000,-2.000000,2.690176,0.040000,115152059889.279007,-10461390005029.462891,-17011503666409.783203,-296547659482.438660,-41.817079,-165.225018,-5.587130
1.380000,-2.000000,2.695149,0.040000,506287556.224391,-58017168175814.000000,17196494838395.566406,-310502518661.525330,-862.351537,554.717477,-5.850047
1.420000,-2.000000,2.700705,0.040000,117700745497.022629,-10719923895098.373047,-17393777326231.148438,-265069586220.284302,-43.066052,-168.805320,-4.994065
1.460000,-2.000000,2.706841,0.040000,460774756.940715,-59265654392355.250000,17561953467224.082031,-276687748290.074219,-880.882715,566.593955,-5.212958
1.500000,-2.000000,2.713552,0.040000,119969812060.784103,-10951146199133.472656,-17734209586030.652344,-235350508301.458069,-44.191323,-171.988170,-4.434140
1.540000,-2.000000,2.720836,0.040000,416418232.352444,-60376151064947.453125,17887093860143.281250,-244938544729.664795,-897.366146,577.158758,-4.614784
1.580000,-2.000000,2.728686,0.040000,121976675795.656128,-11156421424055.185547,-18035457943558.902344,-207613710526.243286,-45.195868,-174.800904,-3.911563
1.620000,-2.000000,2.737098,0.040000,373719612.123589,-61357327823033.085938,18174446949811.886719,-215423327723.160095,-911.930473,586.494269,-4.058700
1.660000,-2.000000,2.746067,0.040000,123739912715.616959,-11337338439579.550781,-18300352220159.214844,-181942245836.140961,-46.084647,-177.271863,-3.427897
1.700000,-2.000000,2.755588,0.040000,332966392.029671,-62218355281629.164062,18426684553709.617188,-188173176927.238892,-924.711743,594.687558,-3.545292
1.740000,-2.000000,2.765655,0.040000,125278189838.579666,-11495591225877.980469,-18531730533352.601562,-158309822788.180359,-46.863958,-179.428902,-2.982649
1.780000,-2.000000,2.776261,0.040000,294266239.767023,-62968398894112.265625,18646474097793.640625,-163115377890.766174,-935.845911,601.825609,-3.073188
1.820000,-2.000000,2.787401,0.040000,126609461139.271927,-11632880443940.894531,-18732317974722.066406,-136610948605.668625,-47.540829,-181.298348,-2.573829
1.860000,-2.000000,2.799068,0.040000,257584171.103340,-63616238203296.296875,18836369268761.707031,-140104393259.243469,-945.463200,607.991724,-2.639648
1.900000,-2.000000,2.811257,0.040000,127750405773.978363,-11750838076689.900391,-18904643445901.375000,-116687136706.012726,-48.122488,-182.904329,-2.198453
1.940000,-2.000000,2.823959,0.040000,222777307.795634,-64170000757491.007812,18998733534726.753906,-118947772385.266220,-953.684156,613.263012,-2.241045
1.980000,-2.000000,2.837168,0.040000,128716067855.474075,-11850973862035.216797,-19050987607688.644531,-98347829429.053131,-48.615957,-184.268390,-1.852930
2.020000,-2.000000,2.850878,0.040000,189624313.363328,-64636991435892.273438,19135691034674.066406,-99426200231.526947,-960.617126,617.708775,-1.873247
2.060000,-2.000000,2.865080,0.040000,129519651329.917404,-11934640243734.759766,-19173354347910.484375,-81385936916.541611,-49.027745,-185.409315,-1.533358
2.100000,-2.000000,2.879768,0.040000,157848389.441711,-65023595218284.242188,19249098554824.277344,-81307971772.073166,-966.356813,621.389592,-1.531889
2.140000,-2.000000,2.894934,0.040000,130172425654.528992,-12003011829071.367188,-19273458758951.203125,-65588647112.578362,-49.363650,-186.343085,-1.235728
2.180000,-2.000000,2.910571,0.040000,127133865.254818,-65335232504553.125000,19340532607423.023438,-64358844648.122444,-970.983613,624.356889,-1.212558
2.220000,-2.000000,2.926671,0.040000,130683704151.476135,-12057075647829.460938,-19352725672500.117188,-50744730331.223320,-49.628635,-187.082911,-0.956060
2.260000,-2.000000,2.943226,0.040000,97137022.469518,-65576349700862.523438,19411286658308.976562,-48349036205.884155,-974.563479,626.652859,-0.910924
2.300000,-2.000000,2.960230,0.040000,131060864356.521622,-12097630977717.380859,-19412293224269.832031,-36650990711.243896,-49.826809,-187.639286,-0.690526
2.340000,-2.000000,2.977674,0.040000,67492008.166261,-65750432457711.070312,19462379585197.957031,-33059805684.257690,-977.148139,628.310639,-0.622866
2.380000,-2.000000,2.995550,0.040000,131309388791.076721,-12116823236827.207031,-19464480042514.445312,-8704175955.795481,-49.784955,-188.219069,-0.163992
2.420000,-2.000000,3.013851,0.040000,37831499.528149,-67644592491397.015625,23378315554210.238281,-4135913233179.352051,-1024.262641,690.661713,-77.923003
2.460000,-2.000000,3.032570,0.040000,131433463554.413361,-7640537341266.699219,-56882115335780.804688,17254360566423.046875,220.741101,-706.998774,325.082156
2.500000,-2.000000,3.051698,0.040000,1653378336.605360,-15488111751875.724609,-126903265148086.984375,42334880131514.960938,513.015822,-1586.110257,797.613684
-2.500000,-1.960000,4.321159,0.040000,-35045171174.520081,-1634204113955.085938,-1851517376903.290771,10974029121889.658203,-11.087449,-15.181757,206.757070
-2.460000,-1.960000,4.291886,0.040000,-70073807600.939575,12451627886767.560547,15043776744533.839844,4062611727552.878418,79.187079,128.024666,76.541960
-2.420000,-1.960000,4.262786,0.040000,-70015468840.778656,12252774173138.017578,6352258517239.167969,1075846188817.294678,125.690488,14.521353,20.269566
-2.380000,-1.960000,4.233865,0.040000,-69921514091.600388,14604929894424.029297,1707324630894.761719,-17538858797.006027,182.965646,-60.032714,-0.330442
-2.340000,-1.960000,4.205125,0.040000,-69785923211.706009,14221591826883.501953,1008189881213.148804,-14649995430.176367,181.861660,-67.086493,-0.276014
-2.300000,-1.960000,4.176570,0.040000,-69614943349.563553,14622532303925.277344,1560652172814.675537,-22909243943.592846,184.026812,-62.066581,-0.431623
-2.260000,-1.960000,4.148205,0.040000,-69400294609.759583,14149930124787.773438,1004389788953.698853,-23427402905.794323,180.938035,-66.731566,-0.441386
-2.220000,-1.960000,4.120032,0.040000,-69149967059.388046,14531798574137.730469,1551892902574.856934,-33350105164.646763,182.879688,-61.669259,-0.628335
-2.180000,-1.960000,4.091655,0.040000,-68852940725.355942,14045127628489.648438,998627812762.781982,-32560368267.296909,179.588425,-66.215195,-0.613456
-2.140000,-1.960000,4.063381,0.040000,-68519891265.555351,14406365727724.134766,1539827248629.723877,-44280267704.721924,181.293626,-61.119418,-0.834266
-2.100000,-1.960000,4.035161,0.040000,-68136067532.406456,13905695145362.927734,990814809817.987671,-42170874626.989311,177.793693,-65.530140,-0.794524
-2.060000,-1.960000,4.006783,0.040000,-67715830640.708641,14244476588274.765625,1524276438377.438721,-55846383843.580521,179.246462,-60.409483,-1.052178
-2.020000,-1.960000,3.978604,0.040000,-67239653647.873688,13729699215242.574219,980818189520.308350,-52388937349.995285,175.529090,-64.667219,-0.987038
-1.980000,-1.960000,3.950240,0.040000,-66726666159.515053,14043913664583.726562,1505004591241.955811,-68199910729.298943,176.710285,-59.530031,-1.284926
-1.940000,-1.960000,3.921956,0.040000,-66151445677.253662,13514759041764.162109,968463473632.145508,-63347836295.817841,172.764203,-63.615279,-1.193510
-1.900000,-1.960000,3.893754,0.040000,-65539069972.313118,13802004933443.466797,1481718618566.062500,-81492882672.180588,173.651511,-58.469826,-1.535373
-1.860000,-1.960000,3.865362,0.040000,-64857016368.985870,13258061060486.154297,953531206502.425049,-75180610204.373611,169.463165,-62.361310,-1.416446
-1.820000,-1.960000,3.837176,0.040000,-64137601051.066162,13515646584635.152344,1454065806895.065918,-95873084449.691254,170.031199,-57.215975,-1.806304
-1.780000,-1.960000,3.808825,0.040000,-63339908862.191231,12956391862080.992188,935752545510.195435,-88015259525.203400,165.585117,-60.890696,-1.658259
-1.740000,-1.960000,3.780530,0.040000,-62504905035.669922,13181347501357.500000,1421631865690.895264,-111476871486.712067,165.805649,-55.754211,-2.100289
-1.700000,-1.960000,3.752348,0.040000,-61581907289.393822,12606196494328.468750,914805096297.153809,-101967420299.518127,161.084997,-59.187594,-1.921125
-1.660000,-1.960000,3.723941,0.040000,-60622063523.379509,12795303997762.828125,1383940995062.022705,-128418582604.904999,160.927386,-54.069308,-2.419481
-1.620000,-1.960000,3.695748,0.040000,-59563483210.016373,12203671177238.070312,890310418198.595093,-117129611377.099380,155.914778,-57.235497,-2.206790
-1.580000,-1.960000,3.667775,0.040000,-58469145102.314461,12353514546132.269531,1340459844265.081299,-146775761035.035583,155.346651,-52.145684,-2.765340
-1.540000,-1.960000,3.640027,0.040000,-57264471712.138542,11744899848786.130859,861835236067.048950,-133556381296.956024,150.025263,-55.017984,-2.516280
-1.500000,-1.960000,3.612508,0.040000,-56026011352.644730,11851943887451.617188,1290607861030.841553,-166569796006.548065,149.013505,-49.968188,-3.138272
-1.460000,-1.960000,3.585225,0.040000,-54665027132.967873,11226042525860.126953,828899203943.714478,-151245142355.939087,143.368522,-52.519686,-2.849546
-1.420000,-1.960000,3.558182,0.040000,-53273421266.097916,11286743355661.873047,1233777145059.297607,-187742389684.020142,141.880629,-47.523083,-3.537175
-1.380000,-1.960000,3.531385,0.040000,-51746890832.625031,10643579387476.029297,790992781392.875366,-170113402667.502228,135.901015,-49.727428,-3.205035
-1.340000,-1.960000,3.504839,0.040000,-50194451238.575470,10654528550695.095703,1169365173325.218262,-210129625454.857239,133.906791,-44.799186,-3.958964
-1.300000,-1.960000,3.478551,0.040000,-48494966446.539276,9994606990406.066406,747608957626.629150,-189974644350.411591,127.587317,-46.631487,-3.579232
-1.260000,-1.960000,3.452526,0.040000,-46776199640.560471,9952706033938.126953,1096823149863.259521,-233437414403.005585,125.060891,-41.789077,-4.398096
-1.220000,-1.960000,3.426771,0.040000,-44899137546.747574,9277171897805.751953,698291542190.627808,-210517220322.060822,118.404242,-43.226837,-3.966266
-1.180000,-1.960000,3.401291,0.040000,-43011673160.196335,9179827696174.822266,1015720621418.710938,-257224484908.993774,115.326263,-38.490247,-4.846258
-1.140000,-1.960000,3.376092,0.040000,-40956180272.900230,8490613175591.262695,642699832486.553223,-231292955768.969391,108.345001,-39.514236,-4.357693
-1.100000,-1.960000,3.351182,0.040000,-38901662599.464691,8335936508549.474609,925822903622.171265,-280901128544.076111,104.704801,-34.906035,-5.292340
-1.060000,-1.960000,3.326566,0.040000,-36671530878.137589,7635871243817.624023,580684321233.127441,-251723704245.851379,97.422840,-35.500972,-4.742621
-1.020000,-1.960000,3.302251,0.040000,-34456326346.060562,7422853929228.623047,827171913513.265869,-303752349365.733765,93.220290,-31.046182,-5.722870
-0.980000,-1.960000,3.278243,0.040000,-32060589799.136120,6715710593665.818359,512361351082.886169,-271133500418.354431,85.673561,-31.201135,-5.108312
-0.940000,-1.960000,3.254551,0.040000,-29696140790.909149,6444352114183.430664,720154525488.019531,-324991371482.954651,80.920292,-26.926909,-6.123026
-0.900000,-1.960000,3.231179,0.040000,-27149215001.542057,5734802693002.441406,438168384792.629211,-288809800854.427490,73.156301,-26.635360,-5.441344
-0.860000,-1.960000,3.208137,0.040000,-24651885643.068699,5406158123286.433594,605538284316.943604,-343842740464.780640,67.875999,-22.570461,-6.478197
-0.820000,-1.960000,3.185429,0.040000,-21973113329.195580,4699626700183.508789,358879268677.324646,-304089339653.217529,59.952136,-21.830062,-5.729219
-0.780000,-1.960000,3.163065,0.040000,-19363437521.006828,4315755343776.649414,484455624404.416809,-359644380385.727966,54.179705,-18.004202,-6.775909
-0.740000,-1.960000,3.141051,0.040000,-16575996753.813564,3618169998986.613770,275563831888.333435,-316454240059.906555,46.160359,-16.816278,-5.962181
-0.700000,-1.960000,3.119394,0.040000,-13877348845.568392,3181978257320.491699,358326867636.451721,-371948241696.379944,39.939895,-13.259334,-7.007720
-0.660000,-1.960000,3.098103,0.040000,-11006611810.847868,2499444452507.437988,189489180209.441040,-325616331477.620911,31.892662,-11.628235,-6.134800
-0.620000,-1.960000,3.077184,0.040000,-8243450951.421125,2014434767076.919922,228728012910.359070,-380594436292.403931,25.274373,-8.369378,-7.170620
-0.580000,-1.960000,3.056646,0.040000,-5315014228.534596,1352870312818.806152,101977571626.151123,-331566712606.022400,17.265808,-6.301737,-6.246909
-0.540000,-1.960000,3.036495,0.040000,-2510963942.872862,822826500853.621216,97226353277.697006,-385737756056.125183,10.302230,-3.368498,-7.267523
-0.500000,-1.960000,3.016741,0.040000,451338787.977619,187608846066.211792,14250634352.354965,-334575558100.286255,2.393715,-0.872455,-6.303597
-0.460000,-1.960000,2.997389,0.040000,3275263743.060478,-383738004137.348328,-34782115021.166557,-387817995695.083496,-4.864298,1.710233,-7.306716
-0.420000,-1.960000,2.978450,0.040000,6251042645.200121,-988061141948.506226,-72705195645.002579,-335141493353.459045,-12.620009,4.625828,-6.314260
-0.380000,-1.960000,2.959930,0.040000,9077779342.355734,-1597336928787.817383,-166199917773.156311,-387481667220.520203,-20.126937,6.836514,-7.300379
-0.340000,-1.960000,2.941837,0.040000,12051208323.265896,-2167233062138.405029,-158224376039.361420,-333904384286.290161,-27.688037,10.162851,-6.290952
-0.300000,-1.960000,2.924179,0.040000,14868373909.396650,-2811651219383.118164,-296297832870.089844,-385475505104.854004,-35.406470,11.984246,-7.262582
-0.260000,-1.960000,2.906965,0.040000,17828620180.386318,-3344662751572.100586,-241987387741.577026,-331543860783.996460,-42.743015,15.713188,-6.246479
-0.220000,-1.960000,2.890202,0.040000,20628571545.780788,-4022151751130.186523,-424721935030.604736,-382536631152.641052,-50.645167,17.132496,-7.207212
-0.180000,-1.960000,2.873897,0.040000,23569543206.704933,-4516829515123.631836,-323990701271.517456,-328685624094.870850,-57.738529,21.256985,-6.192628
-0.140000,-1.960000,2.858060,0.040000,26348835369.628067,-5226047243111.769531,-551447882223.614990,-379299983795.144287,-65.806352,22.265809,-7.146232
-0.100000,-1.960000,2.842697,0.040000,29268364581.391308,-5681776946796.481445,-404478494086.680420,-325830422698.333130,-72.647397,26.779965,-6.138834
-0.060000,-1.960000,2.827817,0.040000,32026755441.758961,-6422020365092.165039,-676700645337.519653,-376234219278.982361,-80.871381,27.373773,-7.088471
-0.020000,-1.960000,2.813426,0.040000,34925393880.250473,-6838773877766.773438,-483856116644.553833,-323310981847.288086,-87.457686,32.272648,-6.091366
0.020000,-1.960000,2.799533,0.040000,37664573617.409332,-7609805819961.344727,-800858436316.819214,-373607628409.615967,-95.834616,32.449900,-7.038984
0.060000,-1.960000,2.786146,0.040000,40544187289.769333,-7987854436765.596680,-562601415727.067871,-321274383061.525696,-102.167145,37.728927,-6.052996
0.100000,-1.960000,2.773270,0.040000,43266401997.667793,-8789676170763.598633,-924354866889.819824,-371479238289.668396,-110.697202,37.490011,-6.998884
0.140000,-1.960000,2.760914,0.040000,46128731440.545937,-9129301855613.029297,-641182937399.373901,-319683650195.565002,-116.776860,43.144221,-6.023025
0.180000,-1.960000,2.749085,0.040000,48835442866.375504,-9961901222433.566406,-1047587067030.749634,-369708382892.327026,-125.460452,42.490395,-6.965520
0.220000,-1.960000,2.737789,0.040000,51680764083.981537,-10263137135345.396484,-719987610086.891968,-318332637267.258484,-131.284922,48.513547,-5.997571
0.260000,-1.960000,2.727033,0.040000,54371459840.725227,-11126240069368.367188,-1170832783522.186279,-367977804471.267761,-140.119619,47.446026,-6.932915
0.300000,-1.960000,2.716823,0.040000,57197457433.545807,-11388665980805.457031,-799257326229.180664,-316871260739.595764,-145.680807,53.829791,-5.970038
0.340000,-1.960000,2.707166,0.040000,59868709410.499901,-12281516257217.064453,-1294178118627.019043,-365828802640.490845,-154.658700,52.349120,-6.892427
0.380000,-1.960000,2.698068,0.040000,62669661323.882729,-12504128886365.941406,-879034729197.056274,-314841524864.405090,-159.941069,59.082444,-5.931797
0.420000,-1.960000,2.689534,0.040000,65314523102.750069,-13425318002055.509766,-1417459626736.746338,-362709714741.585449,-169.046813,57.188199,-6.833661
0.460000,-1.960000,2.681569,0.040000,68080889417.099831,-13606490425907.769531,-959122518900.070801,-311726464352.358032,-174.026790,64.256953,-5.873107
0.500000,-1.960000,2.674179,0.040000,70688715060.134796,-14553856162599.933594,-1540228362521.214600,-358039040948.176086,-183.236522,61.947769,-6.745663
0.540000,-1.960000,2.667368,0.040000,73407206411.075821,-14691392906878.617188,-1039065168129.757080,-307012523117.101807,-187.883074,69.334695,-5.784294
0.580000,-1.960000,2.661141,0.040000,75963947585.988998,-15662000107978.873047,-1661746271106.452881,-351280897967.174194,-197.164334,66.608564,-6.618336
0.620000,-1.960000,2.655502,0.040000,78618107448.973099,-15753284410683.527344,-1118163670357.255859,-300260909320.741150,-201.440652,74.293507,-5.657090
0.660000,-1.960000,2.650455,0.040000,81107092862.824921,-16743493753639.414062,-1781023913113.034912,-342024184459.837585,-210.753333,71.148273,-6.443934
0.700000,-1.960000,2.646003,0.040000,83678357288.122116,-16785711280657.384766,-1195530061203.466553,-291177055916.893066,-214.619428,79.108624,-5.485945
0.740000,-1.960000,2.642149,0.040000,86081480584.191422,-17791331287820.144531,-1896901350773.339844,-330050891507.148010,-223.917680,75.542594,-6.218350
0.780000,-1.960000,2.638896,0.040000,88550590879.879181,-17781742447031.257812,-1270178813999.072266,-279663016151.192993,-227.333564,83.753867,-5.269013
0.820000,-1.960000,2.636246,0.040000,90849749702.998047,-18798247973435.414062,-2008162636867.536377,-315377240106.716187,-236.568438,79.766503,-5.941890
0.860000,-1.960000,2.634201,0.040000,93198314949.916061,-18734472057989.378906,-1341140237556.596436,-265838770339.347015,-239.497462,88.202993,-5.008557
0.900000,-1.960000,2.632762,0.040000,95376884113.514130,-19757261532307.542969,-2113663392782.885986,-298256114338.317078,-248.619989,83.795628,-5.619318
0.940000,-1.960000,2.631930,0.040000,97588851866.971680,-19637533091724.320312,-1407572418282.202393,-250025798740.749664,-251.031911,92.431116,-4.710631
0.980000,-1.960000,2.631706,0.040000,99632962837.357834,-20662189879107.199219,-2212445858106.465820,-279139473887.491089,-259.996216,87.607657,-5.259150
1.020000,-1.960000,2.631706,0.040000,101695776340.292908,-20485552399073.800781,-1468847720580.855713,-232697091476.004669,-261.869595,96.416145,-4.384148
1.060000,-1.960000,2.631930,0.040000,103595221127.573502,-21508075256196.136719,-2303819384534.920898,-258610728268.921753,-270.635637,91.183677,-4.872376
1.100000,-1.960000,2.632762,0.040000,105500515431.525085,-21274488765035.015625,-1524597942014.684082,-214407105124.624298,-271.959298,100.140094,-4.039554
1.140000,-1.960000,2.634201,0.040000,107249180438.710953,-22291463204911.906250,-2387395021827.227051,-237304413280.317719,-280.494891,94.509292,-4.470953
1.180000,-1.960000,2.636246,0.040000,108992972606.902451,-22001818114193.511719,-1574714993089.110352,-195719035090.532166,-281.268343,103.590122,-3.687460
1.220000,-1.960000,2.638896,0.040000,110588807165.165329,-23010512953695.140625,-2463075660787.394043,-215831241648.245667,-289.550250,97.575380,-4.066386
1.260000,-1.960000,2.642149,0.040000,112171233710.290192,-22666558333312.710938,-1619315674832.613525,-177144327024.360657,-289.783116,106.759137,-3.337502
1.300000,-1.960000,2.646003,0.040000,113615838837.280273,-23664946188005.308594,-2531013011612.666992,-194721561830.824341,-297.797188,100.378365,-3.668667
1.340000,-1.960000,2.650455,0.040000,115040560423.576523,-23269152930248.144531,-1658685583431.460938,-159102861729.326874,-297.507852,109.645881,-2.997590
1.380000,-1.960000,2.655502,0.040000,116338527834.400574,-24255865916965.960938,-2591546830165.920410,-174392667336.439453,-305.248329,102.920001,-3.285659
1.420000,-1.960000,2.661141,0.040000,117611946828.467667,-23811251471693.257812,-1693217528313.525879,-141905142385.084106,-304.462087,112.254495,-2.673575
1.460000,-1.960000,2.667368,0.040000,118770084509.797256,-24785491045197.550781,-2645140643813.430176,-155138593698.196899,-311.930319,105.206718,-2.922901
1.500000,-1.960000,2.674179,0.040000,119900510488.806015,-24295432336091.800781,-1723355972351.949219,-125752667923.211182,-310.677313,114.593691,-2.369253
1.540000,-1.960000,2.681569,0.040000,120927069260.230606,-25256854262341.652344,-2692324000433.715820,-137136910555.039749,-317.880160,107.248671,-2.583739
1.580000,-1.960000,2.689534,0.040000,121923935051.096832,-24724910557994.023438,-1749553659515.160400,-110750371691.783691,-316.193372,116.675671,-2.086601
1.620000,-1.960000,2.698068,0.040000,122827914958.933014,-25673503592226.511719,-2733646385078.697266,-120465755126.283585,-323.141539,109.058669,-2.269645
1.660000,-1.960000,2.707166,0.040000,123701106111.841934,-25103263892465.554688,-1772241936621.624268,-96925055273.861282,-321.055011,118.514967,-1.826124
1.700000,-1.960000,2.716823,0.040000,124491684848.464569,-26039235773868.679688,-2769643997156.282715,-105125111550.124176,-327.761498,110.651100,-1.980618
1.740000,-1.960000,2.727033,0.040000,125251009560.618835,-25434197916711.941406,-1791813271146.638428,-84245111755.931824,-325.308883,120.127349,-1.587227
1.780000,-1.960000,2.737789,0.040000,125937105160.498810,-26357876751140.781250,-2800818117935.389160,-91058028042.348267,-331.787663,112.040977,-1.715586
1.820000,-1.960000,2.749085,0.040000,126591905044.938812,-25721359429033.449219,-1808613117470.835449,-72638562227.344498,-329.001130,121.528873,-1.368553
1.860000,-1.960000,2.760914,0.040000,127181864788.776596,-26633113732470.015625,-2827622686056.076172,-78169245904.487457,-335.266096,113.243155,-1.472754
1.900000,-1.960000,2.773270,0.040000,127740750551.177643,-25968198536504.050781,-1822938112364.460205,-62007943064.037209,-332.175577,122.735127,-1.168266
1.940000,-1.960000,2.786146,0.040000,128242146843.239044,-26868375756215.222656,-2850458511433.223633,-66340149318.712486,-338.239755,114.271729,-1.249887
1.980000,-1.960000,2.799533,0.040000,128712835287.991486,-26177874188340.996094,-1835038035524.965576,-52241656261.449844,-334.872474,123.760671,-0.984263
2.020000,-1.960000,2.813426,0.040000,129132345146.928711,-27066755453447.503906,-2869671862111.166504,-55439908517.351418,-340.747470,115.139612,-1.044520
2.060000,-1.960000,2.827817,0.040000,129521572420.636749,-26353195150870.828125,-1845119629021.903320,-43222039277.146851,-337.127695,124.618656,-0.814328
2.100000,-1.960000,2.842697,0.040000,129864917694.661591,-27230963079869.523438,-2885555629654.716309,-45333243689.885231,-342.823329,115.858261,-0.854105
2.140000,-1.960000,2.858060,0.040000,130178405845.890259,-26496587794660.648438,-1853350963828.825928,-34830748790.719879,-338.972290,125.320578,-0.656231
2.180000,-1.960000,2.873897,0.040000,130450334311.666687,-27363304100780.089844,-2898351677325.810059,-35885542871.728439,-344.496371,116.437516,-0.676104
2.220000,-1.960000,2.890202,0.040000,130692792376.627502,-26610082952481.523438,-1859865326186.750000,-26952291521.267490,-340.432290,125.876158,-0.507797
2.260000,-1.960000,2.906965,0.040000,130897084475.789215,-27465673376723.171875,-2908252829571.983887,-26966413186.889690,-345.790495,116.885544,-0.508063
2.300000,-1.960000,2.924179,0.040000,131072231339.901062,-26695317198830.863281,-1864762525742.892090,-19477045905.526730,-341.528714,126.293331,-0.366959
2.340000,-1.960000,2.941837,0.040000,131211725931.428192,-27539564192629.996094,-2915401523389.116699,-18453743495.505844,-346.724592,117.208908,-0.347679
2.380000,-1.960000,2.959930,0.040000,131322338579.556107,-26725922710001.128906,-1919015731241.329834,-15254156582.028036,-341.625703,125.750805,-0.287397
2.420000,-1.960000,2.978450,0.040000,131398980840.823654,-27200214189466.656250,-3868771786481.151367,146456598926.370148,-336.860492,102.717409,2.759327
2.460000,-1.960000,2.997389,0.040000,131446570381.415741,-25927784150709.039062,-19441697243287.976562,-461807124363.522522,-232.058285,-109.856647,-8.700714
-2.500000,-1.920000,4.294094,0.040000,-28632400.595191,-12119599197563.876953,28388950714748.117188,281596221990.373535,-320.297479,442.907085,5.305436
-2.460000,-1.920000,4.264634,0.040000,-70131812519.790558,3654540312947.760742,15096896948750.347656,-1205240396778.045654,-37.132726,178.447906,-22.707428
-2.420000,-1.920000,4.235347,0.040000,-70073831042.300720,3345241037582.854492,4892077570395.658203,-678233309911.554321,16.467523,45.610820,-12.778309
-2.380000,-1.920000,4.206237,0.040000,-69978844907.733200,4432141247227.709961,-656457332917.243896,-3589670910.003295,62.163288,-33.708859,-0.067631
-2.340000,-1.920000,4.177307,0.040000,-69845475524.905243,4727470891410.407227,-532257698354.338501,-5730745168.352073,65.356218,-33.740118,-0.107971
-2.300000,-1.920000,4.148561,0.040000,-69673613420.776016,4502346587641.421875,-900527012653.198120,-3490645347.080466,64.468709,-37.324562,-0.065766
-2.260000,-1.920000,4.120003,0.040000,-69462116667.246841,4702836014899.390625,-528798103091.499634,-8932895717.425282,65.011769,-33.555251,-0.168301
-2.220000,-1.920000,4.091636,0.040000,-69210758728.336563,4473725920363.708008,-893651937140.444824,-5285944325.941282,64.052389,-37.072121,-0.099590
-2.180000,-1.920000,4.063465,0.040000,-68918029553.777115,4666943000943.338867,-523730449309.214722,-12274951063.274969,64.509754,-33.285543,-0.231267
-2.140000,-1.920000,4.035087,0.040000,-68583561469.956352,4434133082480.377930,-884265989004.369873,-7174422927.436707,63.477172,-36.724550,-0.135170
-2.100000,-1.920000,4.006813,0.040000,-68205415441.993492,4619283176875.859375,-516983065937.346436,-15810138729.297678,63.843059,-32.927174,-0.297872
-2.060000,-1.920000,3.978594,0.040000,-67783117837.672585,4383020130906.495605,-872248433030.170410,-9189252574.450048,62.735148,-36.277158,-0.173131
-2.020000,-1.920000,3.950214,0.040000,-67314251045.903648,4559208798094.019531,-508479865764.378235,-19593250048.130730,63.002712,-32.475480,-0.369148
-1.980000,-1.920000,3.922037,0.040000,-66798281913.392967,4319702631619.048828,-857458168532.677979,-11367557115.564196,61.816494,-35.724217,-0.214171
-1.940000,-1.920000,3.893671,0.040000,-66232268551.781776,4485929433356.689453,-498135989831.910828,-23683420774.247238,61.977809,-31.924873,-0.446209
-1.900000,-1.920000,3.865387,0.040000,-65615676091.017891,4243362421915.374512,-839735236522.087402,-13751490394.851654,60.709515,-35.058991,-0.259086
-1.860000,-1.920000,3.837187,0.040000,-64944998239.273369,4398519255697.074219,-485861822095.783813,-28144003112.847897,60.755632,-31.268939,-0.530249
-1.820000,-1.920000,3.808793,0.040000,-64219771517.065201,4153058144777.916504,-818907032138.615723,-16388506618.757940,59.400821,-34.273885,-0.308769
-1.780000,-1.920000,3.780609,0.040000,-63435895036.491806,4295932164463.773926,-471570171044.896118,-33041639369.994987,59.321893,-30.500614,-0.622524
-1.740000,-1.920000,3.752257,0.040000,-62593070597.476814,4047743929649.867188,-794797794798.440674,-19331066700.044525,57.875625,-33.360668,-0.364209
-1.700000,-1.920000,3.723962,0.040000,-61686588591.558693,4177026522043.816895,-455186018324.403320,-38444106142.134827,57.661111,-29.612458,-0.724309
-1.660000,-1.920000,3.695781,0.040000,-60716437111.129478,3926298445611.503906,-767241341623.485229,-22635215089.060757,56.118199,-32.310812,-0.426461
-1.620000,-1.920000,3.667372,0.040000,-59677307304.831024,4040602081257.002930,-436658548630.488831,-44416201042.844307,55.757170,-28.597016,-0.836827
-1.580000,-1.920000,3.639181,0.040000,-58569628176.746620,3787566769014.854980,-736096873145.389526,-26357258108.105286,54.112515,-31.115930,-0.496586
-1.540000,-1.920000,3.611213,0.040000,-57387532969.233398,3885451457512.496582,-415974692822.205444,-51012830565.957458,53.594072,-27.447290,-0.961111
-1.500000,-1.920000,3.583473,0.040000,-56132085201.399902,3630416899481.608398,-701266981097.789307,-30547648050.815510,51.843094,-29.768341,-0.575535
-1.460000,-1.920000,3.555967,0.040000,-54796941051.948708,3710427415067.405762,-393172510262.708801,-58268503954.146225,51.156902,-26.157300,-1.097812
-1.420000,-1.920000,3.528700,0.040000,-53384033416.477577,3453811250176.975586,-662715878841.764038,-35241247085.256973,49.296050,-28.261708,-0.663966
-1.380000,-1.920000,3.501677,0.040000,-51886666590.747803,3514525133739.632812,-368351557143.032837,-66182836606.757965,48.432971,-24.722677,-1.246923
-1.340000,-1.920000,3.474904,0.040000,-50307915323.495544,3256890912396.168945,-620484522091.473633,-40443635690.984314,46.460285,-26.591716,-0.761982
-1.300000,-1.920000,3.448388,0.040000,-48640900488.740837,3296975475196.044922,-341676239768.279724,-74702655331.706100,45.413064,-23.141244,-1.407441
-1.260000,-1.920000,3.422134,0.040000,-46890135882.407471,3039067086451.520508,-574698095703.484131,-46114282269.176682,43.328744,-24.756687,-0.868820
-1.220000,-1.920000,3.396148,0.040000,-45048760244.144218,3057341434588.393066,-313367627989.385193,-83703038324.019409,42.092668,-21.413445,-1.577014
-1.180000,-1.920000,3.370437,0.040000,-43123023167.222908,2800110384507.965820,-525561033174.776489,-52149301754.822174,39.899554,-22.758023,-0.982523
-1.140000,-1.920000,3.345006,0.040000,-41106292669.350067,2795606354467.719238,-283680155122.423279,-92971976113.933517,38.473001,-19.542542,-1.751646
-1.100000,-1.920000,3.319862,0.040000,-39006811884.354706,2540225888128.113281,-473336223307.291504,-58368894658.020973,36.176908,-20.600349,-1.099704
-1.060000,-1.920000,3.295012,0.040000,-36818364269.079742,2512240485234.831055,-252862858201.177917,-102205588135.726151,34.561672,-17.534478,-1.925613
-1.020000,-1.920000,3.270462,0.040000,-34551355999.771446,2260101302800.836426,-418308993687.186218,-64516412352.189583,32.171488,-18.291314,-1.215527
-0.980000,-1.920000,3.246220,0.040000,-32200102811.655739,2208233481811.887695,-221110414115.495087,-111021564041.364868,30.372834,-15.397414,-2.091711
-0.940000,-1.920000,3.222292,0.040000,-29777203504.056881,1960918296907.170654,-360742469315.033386,-70275777494.959976,27.900365,-15.841069,-1.324036
-0.900000,-1.920000,3.198685,0.040000,-27277510352.073696,1885084930608.781250,-188515818065.981934,-118996023365.635437,25.926789,-13.141051,-2.241954
-0.860000,-1.920000,3.175406,0.040000,-24715663902.555534,1644322849879.003174,-300836935409.796875,-75310231772.874237,23.386380,-13.261558,-1.418888
-0.820000,-1.920000,3.152463,0.040000,-22086916047.247768,1544751863216.010254,-155041017678.353271,-125722440260.379990,21.249133,-10.775950,-2.368684
-0.780000,-1.920000,3.129863,0.040000,-19407604145.693741,1312357201095.420898,-238708409518.661377,-79318022933.906876,18.657121,-10.565855,-1.494398
-0.740000,-1.920000,3.107614,0.040000,-16673101446.545004,1189558825495.596436,-120520421911.445267,-130882037900.383850,16.369587,-8.313066,-2.465893
-0.700000,-1.920000,3.085723,0.040000,-13900928308.628061,967361022168.129639,-174397611996.501099,-82092136029.905548,13.743675,-7.767719,-1.546663
-0.660000,-1.920000,3.064197,0.040000,-11086195354.265070,822079886035.061035,-84703113898.305054,-134307172186.228180,11.320680,-5.763638,-2.530425
-0.620000,-1.920000,3.043046,0.040000,-8246988419.317286,611851107242.376343,-107909794235.252365,-83566052710.694702,8.679266,-4.881447,-1.574433
-0.580000,-1.920000,3.022275,0.040000,-5377732657.127155,445002508167.924438,-47325312353.101418,-136017691692.820969,6.136365,-3.139377,-2.562652
-0.540000,-1.920000,3.001894,0.040000,-2496450616.745179,248388199080.116272,-39272801243.918900,-83829786182.488159,3.497821,-1.921879,-1.579402
-0.500000,-1.920000,2.981910,0.040000,403498299.758090,60982629007.194862,-8191833566.387712,-136217555947.942154,0.850565,-0.452722,-2.566418
-0.460000,-1.920000,2.962331,0.040000,3304698406.882402,-120560539585.657883,31407679431.396206,-83110284584.051071,-1.767523,1.095646,-1.565846
-0.420000,-1.920000,2.943166,0.040000,6215120676.628148,-327498571785.247070,32758878467.193424,-135252510934.728851,-4.504343,2.283116,-2.548236
-0.380000,-1.920000,2.924423,0.040000,9118339294.304298,-492752405882.587524,103915433249.618164,-81723136148.989777,-7.085967,4.155601,-1.539711
-0.340000,-1.920000,2.906109,0.040000,12023759305.544823,-718262286430.060303,75424586644.601913,-133542711962.597092,-9.899047,5.054473,-2.516022
-0.300000,-1.920000,2.888233,0.040000,14916129608.598909,-866278415232.279175,177922995270.797028,-80011741182.171448,-12.430483,7.242877,-1.507468
-0.260000,-1.920000,2.870803,0.040000,17806223149.929852,-1109527035696.500732,119548150229.187363,-131510483417.119827,-15.308600,7.847889,-2.477734
-0.220000,-1.920000,2.853827,0.040000,20679953455.765484,-1239634133073.890625,253018825519.625397,-78291564823.039215,-17.778904,10.343543,-1.475058
-0.180000,-1.920000,2.837314,0.040000,23549248405.285603,-1499954837118.487549,164755799944.731384,-129520894962.082092,-20.713242,10.650872,-2.440249
-0.140000,-1.920000,2.821271,0.040000,26401015963.175533,-1611738599988.720215,328748734286.114685,-76811393026.675827,-23.114408,13.445499,-1.447171
-0.100000,-1.920000,2.805707,0.040000,29248021454.539814,-1888638962519.587646,210607872353.514771,-127844413937.526276,-26.098529,13.452498,-2.408663
-0.060000,-1.920000,2.790629,0.040000,32077888099.520962,-1981896305823.325928,404655869762.641052,-75734837442.313080,-28.425238,16.538788,-1.426888
-0.020000,-1.920000,2.776046,0.040000,34903843633.276276,-2275034014980.529297,256646041756.887756,-126641622851.661499,-31.454680,16.243640,-2.386002
0.020000,-1.920000,2.761965,0.040000,37713891425.747589,-2349707806490.795410,480308245394.546387,-75138124029.219330,-33.703686,19.615457,-1.415646
0.060000,-1.920000,2.748394,0.040000,40521330190.445267,-2658839636595.571777,302427732967.503723,-125963827896.764038,-36.775230,19.016764,-2.373232
0.100000,-1.920000,2.735341,0.040000,43314198623.548904,-2714943829928.173828,555310579767.299683,-75016877891.563904,-38.944493,22.668996,-1.413361
0.140000,-1.920000,2.722813,0.040000,46105489875.754295,-3039856845547.912109,347546570981.409485,-125761727984.594360,-42.055259,21.765385,-2.369424
0.180000,-1.920000,2.710818,0.040000,48882960462.000702,-3077403285740.979492,629304378450.108887,-75295270155.598495,-44.142981,25.693540,-1.418607
0.220000,-1.920000,2.699362,0.040000,51658959424.303482,-3417839436791.725098,391643932605.464294,-125896434534.230835,-47.289493,24.483382,-2.371962
0.260000,-1.920000,2.688452,0.040000,54420701179.592461,-3436776945116.379395,701964225082.138794,-75834208839.636154,-49.293233,28.683050,-1.428760
0.300000,-1.920000,2.678095,0.040000,57179609687.696182,-3792362221093.921875,434418995421.493042,-126151284163.072144,-52.470624,27.164385,-2.376763
0.340000,-1.920000,2.668298,0.040000,59922182288.607506,-3792536220083.727051,772998195297.866577,-76439474651.635880,-54.386627,31.630688,-1.440164
0.380000,-1.920000,2.659066,0.040000,62658714619.753273,-4162723862181.601074,475642721741.924133,-126247070546.651993,-57.588107,29.801408,-2.378568
0.420000,-1.920000,2.650406,0.040000,65374923091.192375,-4143861216060.030273,842156435375.584473,-76874021437.300766,-59.410938,34.528525,-1.448351
0.460000,-1.920000,2.642324,0.040000,68079870749.477142,-4527895504225.042969,515175893427.819519,-125865578800.205948,-62.627587,32.386802,-2.371380
0.500000,-1.920000,2.634824,0.040000,70758562655.325516,-4489614953076.388672,909245736325.995728,-76879414051.105042,-64.350079,37.367586,-1.448453
0.540000,-1.920000,2.627911,0.040000,73418841703.165009,-4886518353226.927734,552984912057.721802,-124685101332.470291,-67.570954,34.912441,-2.349140
0.580000,-1.920000,2.621590,0.040000,76045215680.066650,-4828362758123.618164,974142078898.996582,-76208569162.213699,-69.184428,40.138127,-1.435814
0.620000,-1.920000,2.615866,0.040000,78644442238.558945,-5236945646376.245117,589144934376.761719,-122426660795.323792,-72.396914,37.370010,-2.306589
0.660000,-1.920000,2.610742,0.040000,81200881086.260956,-5158429356247.164062,1036790898084.322266,-74666164629.319611,-73.891582,42.829959,-1.406754
0.700000,-1.920000,2.606223,0.040000,83720447431.549103,-5577319147537.024414,623821136603.081787,-118902765878.782043,-77.081894,39.751184,-2.240197
0.740000,-1.920000,2.602310,0.040000,86187801496.753708,-5477982986559.662109,1097188401105.474487,-72146928292.549667,-78.447362,45.432678,-1.359290
0.780000,-1.920000,2.599007,0.040000,88608328776.613297,-5905668727096.730469,657226282482.000488,-114055407930.042068,-81.601113,42.047634,-2.148870
0.820000,-1.920000,2.596316,0.040000,90967478248.227646,-5785136218204.389648,1155345809080.224365,-68659307234.385345,-82.826939,47.935765,-1.293581
0.860000,-1.920000,2.594239,0.040000,93270432905.437027,-6220024922698.080078,689563320137.048950,-107970413623.335403,-85.929745,44.250903,-2.034225
0.900000,-1.920000,2.592778,0.040000,95503886544.105988,-6078055140218.642578,1211247555854.782715,-64325294428.174652,-87.006039,50.328649,-1.211926
0.940000,-1.920000,2.591933,0.040000,97673102264.874283,-6518536055635.742188,720969731318.590210,-100862174375.549103,-90.044145,46.352341,-1.900302
0.980000,-1.920000,2.591706,0.040000,99766376577.559586,-6355069490197.818359,1264818815972.984375,-59355491527.463806,-90.962211,52.600902,-1.118292
1.020000,-1.920000,2.591706,0.040000,101789244285.628204,-6799581240718.944336,751480940537.321167,-93033088122.893250,-93.923138,48.343251,-1.752797
1.060000,-1.920000,2.591933,0.040000,103731820717.124420,-6614774867922.393555,1315914450617.140137,-54007520987.592110,-94.676113,54.742672,-1.017533
1.100000,-1.920000,2.592778,0.040000,105599990922.887604,-7061868645190.229492,781022755451.349609,-84820404623.456635,-97.549266,50.215355,-1.598066
1.140000,-1.920000,2.594239,0.040000,107385750627.672821,-6856115993233.722656,1364332498469.010010,-48540908576.073425,-98.132684,56.745331,-0.914539
1.180000,-1.920000,2.596316,0.040000,109095305522.495239,-7304507142685.164062,809431751946.120239,-76545560289.694290,-100.909853,51.961459,-1.442163
1.220000,-1.920000,2.599007,0.040000,110722455056.040649,-7078439936939.108398,1409845858498.945312,-43180536472.610573,-101.322032,58.602193,-0.813546
1.260000,-1.920000,2.602310,0.040000,112273613434.971741,-7527041642835.845703,836493523466.335083,-68477333743.270905,-103.997687,53.576164,-1.290153
1.300000,-1.920000,2.606223,0.040000,113744204484.683060,-7281512071677.701172,1452240481075.795410,-38095357989.321121,-104.239852,60.309109,-0.717739
1.340000,-1.920000,2.610742,0.040000,115140691781.627686,-7729448209049.176758,861985376883.546997,-60813291349.810493,-106.811191,55.056398,-1.145758
1.380000,-1.920000,2.615866,0.040000,116459884017.368362,-7465494225796.302734,1491348670987.809082,-33392760465.564854,-106.887329,61.864783,-0.629139
1.420000,-1.920000,2.621590,0.040000,117708122726.777100,-7912092507268.873047,885712266423.279053,-53677726722.346413,-109.354086,56.401656,-1.011319
1.460000,-1.920000,2.627911,0.040000,118883340872.828430,-7630891465458.627930,1527070325427.314697,-29124604453.638660,-109.270560,63.270749,-0.548724
1.500000,-1.920000,2.634824,0.040000,119991601225.136597,-8075661245454.180664,907529900548.227783,-47130804311.387390,-111.634614,57.613914,-0.887972
1.540000,-1.920000,2.642324,0.040000,121031708956.927765,-7778478523209.325195,1559380171602.060791,-25299482328.562778,-111.399619,64.531052,-0.476657
1.580000,-1.920000,2.650406,0.040000,122009322483.064682,-8221079167340.608398,927354125294.947876,-41183042312.938416,-113.664495,58.697292,-0.775912
1.620000,-1.920000,2.659066,0.040000,122923894107.647400,-7909218078221.162109,1588323086871.496826,-21896464680.762241,-113.287456,65.651726,-0.412542
1.660000,-1.920000,2.668298,0.040000,123780590070.594391,-8349423670616.703125,945159142182.859985,-35810540626.030777,-115.457791,59.657537,-0.674691
1.700000,-1.920000,2.678095,0.040000,124579320249.355560,-8024181386037.142578,1614001537854.006104,-18877306414.969334,-114.948778,66.640176,-0.355659
1.740000,-1.920000,2.688452,0.040000,125324707978.120499,-8461846305583.592773,960968514478.017334,-30968223762.259922,-117.029824,60.501470,-0.583459
1.780000,-1.920000,2.699362,0.040000,126016967934.507767,-8124478479793.856445,1636559340378.503418,-16195771857.912132,-116.399037,67.504574,-0.305138
1.820000,-1.920000,2.710818,0.040000,126660161818.988647,-8559506725146.245117,974842772122.218262,-26599995112.102371,-118.396229,61.236443,-0.501159
1.860000,-1.920000,2.722813,0.040000,127254689893.905045,-8211201641693.273438,1656165064761.490723,-13803928436.663960,-117.653592,68.253317,-0.260074
1.900000,-1.920000,2.735341,0.040000,127804058489.047775,-8643521250231.950195,986866499053.255493,-22645768842.774750,-119.572207,61.869881,-0.426659
1.940000,-1.920000,2.748394,0.040000,128308762370.379089,-8285382936399.308594,1672997197819.431152,-11655886904.672640,-118.727063,68.894591,-0.219604
1.980000,-1.920000,2.761965,0.040000,128771776550.763748,-8714925691238.376953,997136685471.123169,-19045882273.069637,-120.571966,62.408919,-0.358835
2.020000,-1.920000,2.776046,0.040000,129193621325.774750,-8347964650369.020508,1687232078060.757568,-9709674161.290808,-119.632875,69.436049,-0.182936
2.060000,-1.920000,2.790629,0.040000,129576775860.702637,-8774650560454.684570,1005753201538.643433,-15743558469.543531,-121.408344,62.860132,-0.296618
2.100000,-1.920000,2.805707,0.040000,129921733443.238159,-8399780473113.663086,1699034848763.887695,-7927896520.491644,-120.382954,69.884581,-0.149366
2.140000,-1.920000,2.821271,0.040000,130230519208.124939,-8823506197714.357422,1012811648646.108398,-12686058430.655411,-122.092568,63.229363,-0.239013
2.180000,-1.920000,2.837314,0.040000,130503558555.445053,-8441545037650.237305,1708553306945.545654,-6277728586.575035,-120.987562,70.246175,-0.118276
2.220000,-1.920000,2.853827,0.040000,130742467240.055161,-8862175502059.871094,1018398702729.636719,-9825035137.166084,-122.634133,63.521613,-0.185109
2.260000,-1.920000,2.870803,0.040000,130947570166.029007,-8473850102764.208008,1715914837284.148682,-4730512566.330678,-121.455223,70.525856,-0.089126
2.300000,-1.920000,2.888233,0.040000,131120119915.916290,-8891213522810.410156,1022591180480.118408,-7115938308.230741,-123.040795,63.741033,-0.134068
2.340000,-1.920000,2.906109,0.040000,131260316381.312881,-8497169600352.037109,1721230413921.440186,-3259147076.973284,-121.792814,70.727766,-0.061404
2.380000,-1.920000,2.924423,0.040000,131369102861.382141,-8920754894410.296875,1052640139777.044312,-5445500778.659582,-123.600241,64.304303,-0.102596
2.420000,-1.920000,2.943166,0.040000,131446576882.192230,-8738401915478.978516,2512296394163.603027,-462574505749.013184,-129.445527,82.524152,-8.715172
2.460000,-1.920000,2.962331,0.040000,131493868449.341553,-9575778757220.503906,-13492226540297.148438,-782803868240.594238,-50.028845,-123.816992,-14.748479
-2.500000,-1.880000,4.267231,0.040000,-70242021150.453690,15984004290107.269531,10021992702306.699219,-1417603217096.895752,154.157489,41.829735,-26.708466
-2.460000,-1.880000,4.237585,0.040000,-70225170485.765930,4212659087932.814941,12110076075645.371094,-837582701601.845947,-12.889999,135.901916,-15.780544
-2.420000,-1.880000,4.208110,0.040000,-70169136835.512558,-64484124075.672188,3980209170813.393066,-553838695325.725342,-23.347277,52.857089,-10.434642
-2.380000,-1.880000,4.178810,0.040000,-70075017438.965042,216060405172.940308,-48500054113.752724,-1038668988.487976,3.123623,-1.860849,-0.019569
-2.340000,-1.880000,4.149689,0.040000,-69942948097.731110,-7146852549.746723,19790618454.031696,1008149582.720484,-0.206116,0.301402,0.018994
-2.300000,-1.880000,4.120750,0.040000,-69772497300.516922,217398586464.160126,-59919939869.571144,1287441995.202505,3.205819,-2.019023,0.024256
-2.260000,-1.880000,4.091997,0.040000,-69563005614.354691,-7986689547.610303,20641340957.134785,1518076597.905909,-0.222000,0.317369,0.028601
-2.220000,-1.880000,4.063435,0.040000,-69313735968.099579,214760146373.560577,-58316585613.294075,1815042048.664914,3.161959,-1.982964,0.034196
-2.180000,-1.880000,4.035068,0.040000,-69023751880.712616,-9204548667.051067,21842265375.999668,2039057904.959377,-0.244850,0.340090,0.038417
-2.140000,-1.880000,4.006898,0.040000,-68692047289.352104,211206665045.772522,-56167600647.998482,2349004954.009609,3.102948,-1.934538,0.044257
-2.100000,-1.880000,3.978519,0.040000,-68317400040.662766,-10810592715.967567,23402363982.580853,2562263822.242760,-0.274849,0.369743,0.048275
-2.060000,-1.880000,3.950245,0.040000,-67898529418.687782,206699864484.269531,-53454371799.689789,2882179449.984947,3.028175,-1.873282,0.054302
-2.020000,-1.880000,3.922027,0.040000,-67433920379.288345,-12810727366.107681,25326583587.123245,3079211817.383254,-0.312103,0.406426,0.058014
-1.980000,-1.880000,3.893646,0.040000,-66922017060.116104,201200606648.632141,-50162315036.441978,3403639387.718831,2.937041,-1.798782,0.064127
-1.940000,-1.880000,3.865470,0.040000,-66361010011.632263,-15203588354.889744,27612137013.560635,3575388358.697529,-0.356580,0.450093,0.067362
-1.900000,-1.880000,3.837103,0.040000,-65749074816.890236,194671854268.718353,-46283826589.574432,3894888538.362957,2.829016,-1.710729,0.073382
-1.860000,-1.880000,3.808819,0.040000,-65084114529.529671,-17976525347.817909,30244454822.007496,4027456269.860454,-0.408029,0.500483,0.075880
-1.820000,-1.880000,3.780620,0.040000,-64364053607.282944,187084255896.118683,-41823663820.009407,4327415815.375618,2.703738,-1.609020,0.081531
-1.780000,-1.880000,3.752224,0.040000,-63586527583.028389,-21099301825.492458,33190863754.674736,4400986781.923537,-0.465867,0.556992,0.082917
-1.740000,-1.880000,3.724042,0.040000,-62749243536.613617,178424157530.056763,-36806526497.447876,4660592849.872167,2.561167,-1.493904,0.087808
-1.700000,-1.880000,3.695689,0.040000,-61849608773.564400,-24515885584.271751,36392363369.558411,4648662415.057871,-0.529021,0.618525,0.087583
-1.660000,-1.880000,3.667394,0.040000,-60885169978.849617,168703821889.128510,-31286527383.080715,4840336850.838465,2.401771,-1.366163,0.091195
-1.620000,-1.880000,3.639215,0.040000,-59853172380.837570,-28134794987.423019,39753968626.035385,4709676344.399187,-0.595749,0.683314,0.088733
-1.580000,-1.880000,3.610804,0.040000,-58751090383.775955,157973330138.961548,-25357919306.178093,4799508198.295782,2.226744,-1.227323,0.090426
-1.540000,-1.880000,3.582614,0.040000,-57576108302.620941,-31819018599.818665,43134643354.935593,4511515886.906659,-0.663447,0.748724,0.085000
-1.500000,-1.880000,3.554651,0.040000,-56325755386.285057,146332869505.952667,-19165671953.268059,4461424628.535677,2.038225,-1.079863,0.084056
-1.460000,-1.880000,3.526920,0.040000,-54997298613.961250,-35377493079.482239,46338821638.740044,3975656667.350644,-0.728488,0.811095,0.074904
-1.420000,-1.880000,3.499426,0.040000,-53588494233.238228,133942927390.832047,-12913327027.207874,3748087630.505025,1.839482,-0.927375,0.070616
-1.380000,-1.880000,3.472176,0.040000,-52096882166.140144,-38561401117.605682,49112797733.656250,3028701094.406684,-0.786157,0.865675,0.057062
-1.340000,-1.880000,3.445174,0.040000,-50520664087.904510,121028486225.028595,-6864182960.993310,2594423520.800945,1.634970,-0.774602,0.048880
-1.300000,-1.880000,3.418427,0.040000,-48857887587.601776,-41069826985.048775,51150549961.519341,1619790032.435092,-0.830757,0.906728,0.030518
-1.260000,-1.880000,3.391941,0.040000,-47107457082.451408,107872106832.992859,-1330742972.008166,968622919.069330,1.430183,-0.627262,0.018249
-1.220000,-1.880000,3.365722,0.040000,-45268194069.930321,-42569908139.214172,52114174327.738251,-256704151.253162,-0.855988,0.927915,-0.004836
-1.180000,-1.880000,3.339776,0.040000,-43339981792.065712,94790678896.026749,3352614313.192582,-1103795659.142762,1.231188,-0.491558,-0.020796
-1.140000,-1.880000,3.314110,0.040000,-41322686135.023674,-42735489726.497009,51672974988.497299,-2537249741.168342,-0.855678,0.923033,-0.047803
-1.100000,-1.880000,3.288730,0.040000,-39217428491.956657,82092789562.538910,6876433913.140121,-3518071163.549468,1.043806,-0.373314,-0.066283
-1.060000,-1.880000,3.263643,0.040000,-37025351107.627106,-41304300358.557793,49561253457.094162,-5071684859.143794,-0.824867,0.887093,-0.095553
-1.020000,-1.880000,3.238856,0.040000,-34749006369.381279,70019052810.817947,9019557016.128731,-6079658402.820502,0.872460,-0.276806,-0.114544
-0.980000,-1.880000,3.214375,0.040000,-32390952200.129093,-38146459895.167892,45647578498.617638,-7622357000.385053,-0.761099,0.817629,-0.143610
-0.940000,-1.880000,3.190208,0.040000,-29955241988.302536,58675987903.524231,9717753352.321531,-8515195439.442660,0.718916,-0.203485,-0.160431
-0.900000,-1.880000,3.166362,0.040000,-27445841632.727394,-33328262215.201542,39999359348.304291,-9888710084.466774,-0.665630,0.715905,-0.186309
-0.860000,-1.880000,3.142844,0.040000,-24868204385.567844,47982401407.212868,9117864889.944313,-10511069687.990091,0.581276,-0.150955,-0.198035
-0.820000,-1.880000,3.119662,0.040000,-22227512102.553005,-27148750504.128235,32920017629.321136,-11559148338.876162,-0.544118,0.587612,-0.217781
-0.780000,-1.880000,3.096822,0.040000,-19530324089.603870,37650720173.215584,7594352153.034115,-11775956233.969751,0.453628,-0.112651,-0.221866
-0.740000,-1.880000,3.074334,0.040000,-16782659802.650543,-20128026160.222256,24937432411.817490,-12380358478.623405,-0.406407,0.442652,-0.233253
-0.700000,-1.880000,3.052204,0.040000,-13991718862.456175,27219507474.249565,5711756240.861625,-12111464597.377523,0.326698,-0.078520,-0.228187
-0.660000,-1.880000,3.030441,0.040000,-11163837332.474827,-12938646836.234667,16734830306.367128,-12223199355.175562,-0.265228,0.293837,-0.230292
-0.620000,-1.880000,3.009051,0.040000,-8306283861.569348,16136928158.456379,4133703247.727579,-11467018782.290306,0.189456,-0.036692,-0.216045
-0.580000,-1.880000,2.988045,0.040000,-5425131941.790122,-6291840642.765049,9035878104.137304,-11121028039.328897,-0.134052,0.154731,-0.209527
-0.540000,-1.880000,2.967428,0.040000,-2527140691.819254,3874585136.210183,3500118593.741178,-9957699051.910629,0.031316,0.024261,-0.187609
-0.500000,-1.880000,2.947211,0.040000,382412589.536128,-809077167.589631,2474793227.864570,-9264993864.868677,-0.024658,0.037212,-0.174558
-0.460000,-1.880000,2.927400,0.040000,3297761279.294730,-9962277385.167824,4308202611.844972,-7837603534.382852,-0.155737,0.113127,-0.147665
-0.420000,-1.880000,2.908005,0.040000,6214819278.902495,3083828794.225077,-2510950998.620353,-6958030676.172740,0.054863,-0.050546,-0.131093
-0.380000,-1.880000,2.889033,0.040000,9129121844.684259,-25560680035.554436,6831187501.930642,-5439356194.194084,-0.375716,0.234566,-0.102481
-0.340000,-1.880000,2.870493,0.040000,12037973504.627632,5212525916.672395,-5737434583.985416,-4545577345.219459,0.101174,-0.105130,-0.085641
-0.300000,-1.880000,2.852394,0.040000,14938312926.204500,-42878763533.872681,11092801714.874573,-3102594890.913330,-0.628201,0.388655,-0.058455
-0.260000,-1.880000,2.834744,0.040000,17828828672.121445,5652511375.124496,-7273139649.494481,-2347623064.526031,0.115657,-0.127870,-0.044231
-0.220000,-1.880000,2.817551,0.040000,20707767626.918644,-61673798553.274719,16894042896.603825,-1114676176.470087,-0.908867,0.571397,-0.021001
-0.180000,-1.880000,2.800824,0.040000,23575019413.449368,4682477042.349672,-7392280547.069443,-611392944.266978,0.103537,-0.123959,-0.011519
-0.140000,-1.880000,2.784571,0.040000,26429890816.074966,-81560533493.285461,23873196271.915123,322789862.620742,-1.210589,0.775844,0.006082
-0.100000,-1.880000,2.768800,0.040000,29273165728.507828,2715401330.252419,-6505558464.056128,508189596.320861,0.072582,-0.101146,0.009575
-0.060000,-1.880000,2.753520,0.040000,32104866471.005173,-102077070649.388641,31575629754.960339,1100764801.613868,-1.524705,0.993390,0.020739
-0.020000,-1.880000,2.738740,0.040000,34926297566.722351,229241730.851854,-5090356532.856981,944888732.703700,0.031795,-0.068429,0.017802
0.020000,-1.880000,2.724466,0.040000,37737810655.932922,-122741125327.481552,39515408930.070198,1191625482.069000,-1.842108,1.214899,0.022451
0.060000,-1.880000,2.710708,0.040000,40540838951.365227,-2289411683.642213,-3633846792.643944,705491872.081607,-0.009655,-0.034984,0.013292
0.100000,-1.880000,2.697472,0.040000,43335677942.033920,-143089671712.343597,47220964316.492699,631959710.468677,-2.154026,1.431537,0.011906
0.140000,-1.880000,2.684767,0.040000,46123515026.740707,-4385778898.349455,-2592006250.719939,-146535737.924066,-0.043191,-0.009395,-0.002761
0.180000,-1.880000,2.672601,0.040000,48904235248.865723,-162704426012.866699,54266622553.444466,-491030962.745606,-2.452536,1.635324,-0.009251
0.220000,-1.880000,2.660980,0.040000,51678448733.447365,-5666387924.549919,-2359594991.029153,-1500947831.796467,-0.061394,0.000908,-0.028279
0.260000,-1.880000,2.649913,0.040000,54445330175.325775,-181231116450.142609,60297451357.228302,-2045435746.696110,-2.730961,1.819577,-0.038537
0.300000,-1.880000,2.639405,0.040000,57204645734.942337,-5825691168.237307,-3243021911.805963,-3203338003.801699,-0.058501,-0.009842,-0.060353
0.340000,-1.880000,2.629463,0.040000,59954636628.333931,-198400787139.347168,65055257736.392578,-3855219357.961024,-2.984294,1.979371,-0.072635
0.380000,-1.880000,2.620095,0.040000,62694046492.228500,-4675645034.341176,-5430241665.249521,-5055717981.718766,-0.030972,-0.045189,-0.095253
0.420000,-1.880000,2.611306,0.040000,65420061866.492760,-214056695162.044739,68408918500.190346,-5702958400.369454,-3.209726,2.112090,-0.107447
0.460000,-1.880000,2.603102,0.040000,68130339393.785683,-2177508935.131554,-8958446677.718679,-6823853524.416323,0.021917,-0.105840,-0.128565
0.500000,-1.880000,2.595488,0.040000,70821017320.434555,-228182424942.332794,70384274724.687317,-7343707737.645052,-3.407187,2.217983,-0.138360
0.540000,-1.880000,2.588470,0.040000,73488737811.400650,1533131127.193073,-13688629627.243774,-8259173645.301329,0.097590,-0.189197,-0.155608
0.580000,-1.880000,2.582053,0.040000,76128742136.729279,-240919201625.887573,71181196514.735199,-8535288723.546291,-3.579669,2.300484,-0.160810
0.620000,-1.880000,2.576241,0.040000,78736876259.498917,6142648610.903894,-19301691153.875668,-9136769326.223436,0.190108,-0.289278,-0.172142
0.660000,-1.880000,2.571039,0.040000,81307777675.191147,-252557706934.696075,71162882603.270950,-9081884449.634495,-3.733059,2.366025,-0.171108
0.700000,-1.880000,2.566449,0.040000,83836843361.977448,11189840899.426554,-25329107818.039497,-9301415569.904211,0.290741,-0.397297,-0.175244
0.740000,-1.880000,2.562476,0.040000,86318509701.957260,-263495426065.475128,70808501403.735413,-8878380602.709003,-3.875307,2.423173,-0.167274
0.780000,-1.880000,2.559121,0.040000,88748153715.756134,16133026642.030964,-31220669715.572044,-8705764245.178917,0.389234,-0.502938,-0.164022
0.820000,-1.880000,2.556388,0.040000,91120461926.330750,-274163723451.597229,70633909808.475983,-7938220820.801896,-4.015018,2.481170,-0.149561
0.860000,-1.880000,2.554279,0.040000,93431231973.499695,20440997178.955193,-36436398095.835762,-7424420824.237491,0.475529,-0.596074,-0.139880
0.900000,-1.880000,2.552795,0.040000,95675824366.707916,-284943079000.406982,71099861152.045471,-6391799720.111485,-4.159814,2.548242,-0.120425
0.940000,-1.880000,2.551937,0.040000,97850834237.942291,23683236819.872196,-40537801501.627136,-5636244943.269791,0.541471,-0.668491,-0.106190
0.980000,-1.880000,2.551706,0.040000,99952622538.782120,-296091811653.638062,72534218169.360779,-4454265227.199519,-4.314955,2.630173,-0.083921
1.020000,-1.880000,2.551706,0.040000,101978836364.752640,25593716144.763645,-43252492360.633759,-3580546367.152041,0.582011,-0.715092,-0.067460
1.060000,-1.880000,2.551937,0.040000,103927021758.364090,-307708726014.725952,75089651806.607605,-2374373281.371999,-4.482607,2.729536,-0.044735
1.100000,-1.880000,2.552795,0.040000,105795982860.827301,26093004515.490055,-44496737560.211334,-1503147623.949496,0.595628,-0.734323,-0.028320
1.140000,-1.880000,2.554279,0.040000,107584484146.986542,-319736371813.192383,78744125198.325836,-382445528.482303,-4.661889,2.845715,-0.007205
1.180000,-1.880000,2.556388,0.040000,109292449994.723755,25269273871.239174,-44356508019.970238,389890062.138309,0.583972,-0.727818,0.007346
1.220000,-1.880000,2.559121,0.040000,110919767287.733322,-331996941135.774231,83336266116.446838,1347134460.864983,-4.849541,2.975577,0.025381
1.260000,-1.880000,2.562476,0.040000,112467335196.736359,23331553271.438049,-43040500307.521729,1959314278.057043,0.550978,-0.699510,0.036915
1.300000,-1.880000,2.566449,0.040000,113935978588.759415,-344244325867.776733,88618798361.443680,2711986902.015977,-5.040923,3.114469,0.051095
1.340000,-1.880000,2.571039,0.040000,115327362058.229675,20553334430.133308,-40823375648.808212,3138324619.339959,0.501807,-0.654566,0.059128
1.380000,-1.880000,2.576241,0.040000,116643021070.463303,-356215631943.355347,94312744580.692032,3678339158.174813,-5.230988,3.257227,0.069302
1.420000,-1.880000,2.582053,0.040000,117885155240.612213,17221739077.156269,-37994537949.285713,3921982580.989701,0.441879,-0.598428,0.073892
1.460000,-1.880000,2.588470,0.040000,119055779106.125961,-367670930775.434570,100150555157.585510,4265362049.238823,-5.415062,3.398966,0.080362
1.500000,-1.880000,2.595488,0.040000,120157408652.695480,13600742285.242352,-34821003210.925407,4348480567.322579,0.376186,-0.536107,0.081928
1.540000,-1.880000,2.603102,0.040000,121192328565.353882,-378417024053.855774,105903400421.395035,4525238679.952072,-5.589302,3.535576,0.085258
1.580000,-1.880000,2.611306,0.040000,122163184269.353226,9910341221.600847,-31526269071.975555,4479460990.732896,0.308894,-0.471796,0.084396
1.620000,-1.880000,2.620095,0.040000,123072358453.159836,-388316418336.758179,111393430863.749359,4524885845.093385,-5.750890,3.663934,0.085251
1.660000,-1.880000,2.629463,0.040000,123922479207.473434,6319228957.766076,-28282744678.549606,4383841827.690110,0.243200,-0.408722,0.082594
1.700000,-1.880000,2.639405,0.040000,124715895937.421906,-397285476836.120178,116494737546.229858,4332319597.377951,-5.898011,3.781906,0.081623
1.740000,-1.880000,2.649913,0.040000,125455112872.169281,2946770457.557877,-25213533178.491936,4126824520.018301,0.181374,-0.349182,0.077752
1.780000,-1.880000,2.660980,0.040000,126142353128.461899,-405286241442.864746,121127405638.363251,4008252521.837344,-6.029713,3.888226,0.075518
1.820000,-1.880000,2.672601,0.040000,126779925957.498352,-129857898.826417,-22399422961.631130,3763844117.119773,0.124893,-0.294679,0.070913
1.860000,-1.880000,2.684767,0.040000,127369867398.533295,-412315651005.020142,125248386839.834122,3602110932.912924,-6.145712,3.982306,0.067866
1.900000,-1.880000,2.697472,0.040000,127914249028.326004,-2866553020.366097,-19887894769.216896,3338302524.118344,0.074605,-0.246087,0.062896
1.940000,-1.880000,2.710708,0.040000,128414884007.811737,-418394677401.288025,128841774616.694977,3151151195.672587,-6.246195,4.064057,0.059370
1.980000,-1.880000,2.724466,0.040000,128873584680.819687,-5243244357.089209,-17702088852.753365,2881739510.731265,0.030905,-0.203827,0.054294
2.020000,-1.880000,2.738740,0.040000,129291923568.305878,-423558782857.709595,131909978871.336517,2681403791.374997,-6.331643,4.133710,0.050519
2.060000,-1.880000,2.753520,0.040000,129671446836.869019,-7256027034.312291,-15848626976.936804,2415303403.719268,-0.006116,-0.168006,0.045506
2.100000,-1.880000,2.768800,0.040000,130013480714.779434,-427850295030.300415,134466496951.199112,2209476006.366581,-6.402691,4.191683,0.041628
2.140000,-1.880000,2.784571,0.040000,130319307575.267166,-8910942003.651896,-14323810911.333263,1951738122.073724,-0.036560,-0.138542,0.036772
2.180000,-1.880000,2.800824,0.040000,130590009208.307938,-431312861652.269409,136530534818.647797,1744634582.660189,-6.460023,4.238475,0.032870
2.220000,-1.880000,2.817551,0.040000,130826612054.793564,-10219622038.409615,-13117975963.826984,1497558089.662949,-0.060635,-0.115242,0.028215
2.260000,-1.880000,2.834744,0.040000,131029959736.532578,-433988103517.744934,138123671937.839172,1291231733.632435,-6.504310,4.274607,0.024328
2.300000,-1.880000,2.852394,0.040000,131200833893.189865,-11196994771.177887,-12217841977.737329,1056253162.621495,-0.078613,-0.097846,0.019900
2.340000,-1.880000,2.870493,0.040000,131339849121.860611,-435913263803.475647,139266898152.720154,853990780.412456,-6.536162,4.300566,0.016090
2.380000,-1.880000,2.889033,0.040000,131447553192.669525,-11924839285.412451,-11402540850.887690,636010507.704384,-0.092820,-0.082980,0.011983
2.420000,-1.880000,2.908005,0.040000,131524305063.490311,-468152184351.855591,244368169158.040558,-28099711114.809010,-7.555392,5.868904,-0.529415
2.460000,-1.880000,2.927400,0.040000,131569998652.461945,-31456906622.354603,-110499201080.095093,-21827738175.767742,0.209694,-1.279508,-0.411247
-2.500000,-1.840000,4.240575,0.040000,-35337064062.744797,-8609798346.732855,20861081423373.617188,2844130144735.248047,-118.024010,275.173071,53.585061
-2.460000,-1.840000,4.210741,0.040000,-70358587027.407349,1246547546028.731445,14583796727870.453125,1689897905552.940674,-65.990181,185.291326,31.838656
-2.420000,-1.840000,4.181077,0.040000,-70302109172.459000,-769406648675.883667,4699423831321.965820,1123074248315.506104,-36.709208,66.326729,21.159370
-2.380000,-1.840000,4.151587,0.040000,-70209119736.809784,-67903588998.341904,153483316375.658783,4701563720.291990,-1.763054,2.408003,0.088580
-2.340000,-1.840000,4.122273,0.040000,-70078739189.319244,-23691321564.428741,23686763114.906372,1376172703.395006,-0.446332,0.446298,0.025928
-2.300000,-1.840000,4.093141,0.040000,-69910442450.659607,-24087579477.080200,24081185119.883846,1718012351.457456,-0.453788,0.453740,0.032368
-2.260000,-1.840000,4.064193,0.040000,-69703601959.439713,-24556716593.694645,24553563473.199772,2064725116.634472,-0.462645,0.462621,0.038901
-2.220000,-1.840000,4.035434,0.040000,-69457458254.221512,-25126136226.997627,25119173727.491711,2415930543.006603,-0.473352,0.473299,0.045518
-2.180000,-1.840000,4.006868,0.040000,-69171110384.313736,-25766937055.438828,25764360480.339119,2769223047.785993,-0.485449,0.485430,0.052174
-2.140000,-1.840000,3.978499,0.040000,-68843520817.207901,-26515324543.272854,26507501832.444221,3125124292.064178,-0.499520,0.499461,0.058879
-2.100000,-1.840000,3.950332,0.040000,-68473506194.202667,-27331651724.866573,27329904308.453922,3480720613.718670,-0.514934,0.514921,0.065579
-2.060000,-1.840000,3.921951,0.040000,-68059743627.458527,-28263904704.138767,28255069796.513401,3836473933.116113,-0.532458,0.532392,0.072281
-2.020000,-1.840000,3.893677,0.040000,-67600760754.661530,-29258008744.640354,29257418146.932125,4188150722.145078,-0.551235,0.551230,0.078907
-1.980000,-1.840000,3.865460,0.040000,-67094944529.913246,-30376607067.587246,30366643812.890564,4535597163.536615,-0.572257,0.572181,0.085453
-1.940000,-1.840000,3.837077,0.040000,-66540530956.044441,-31547225205.596291,31548203496.194416,4872735517.385320,-0.594374,0.594381,0.091805
-1.900000,-1.840000,3.808903,0.040000,-65935617557.553268,-32850145369.367962,32838994997.080441,5198391411.638335,-0.618853,0.618769,0.097941
-1.860000,-1.840000,3.780535,0.040000,-65278153408.814651,-34189993865.536736,34193068180.614506,5504178207.432698,-0.644177,0.644200,0.103702
-1.820000,-1.840000,3.752251,0.040000,-64565956872.277893,-35667722758.495338,35655412737.657692,5787534428.176916,-0.671931,0.671838,0.109041
-1.780000,-1.840000,3.724053,0.040000,-63796706928.765518,-37159972782.597580,37165817016.189598,6037343408.698939,-0.700148,0.700193,0.113747
-1.740000,-1.840000,3.695656,0.040000,-62967968219.091949,-38791447298.972359,38778122085.968987,6249370238.787268,-0.730778,0.730678,0.117742
-1.700000,-1.840000,3.667475,0.040000,-62077185092.123352,-40405130336.321388,40414592892.339828,6409488091.710696,-0.761310,0.761381,0.120758
-1.660000,-1.840000,3.639121,0.040000,-61121716432.450325,-42152628447.975006,42138576850.057838,6511715270.943693,-0.794101,0.793995,0.122684
-1.620000,-1.840000,3.610825,0.040000,-60098834204.577988,-43837107272.544655,43851225613.438782,6538959369.413963,-0.825996,0.826103,0.123198
-1.580000,-1.840000,3.582648,0.040000,-59005770879.935303,-45640371671.754799,45626039774.003983,6483845300.696517,-0.859810,0.859702,0.122159
-1.540000,-1.840000,3.554235,0.040000,-57839724434.060318,-47319369170.121773,47339354990.293335,6326947548.363848,-0.891637,0.891788,0.119203
-1.500000,-1.840000,3.526047,0.040000,-56597921210.132217,-49089718457.274895,49075689688.987404,6060556885.637821,-0.924799,0.924694,0.114184
-1.460000,-1.840000,3.498089,0.040000,-55277629084.321007,-50655998045.960106,50683169573.845093,5664443748.832130,-0.954542,0.954747,0.106721
-1.420000,-1.840000,3.470367,0.040000,-53876238022.684685,-52271909270.425529,52258826541.092079,5132613784.748064,-0.984759,0.984661,0.096701
-1.380000,-1.840000,3.442887,0.040000,-52391282134.701767,-53584539400.129204,53620173250.360123,4446717021.192786,-1.009765,1.010034,0.083779
-1.340000,-1.840000,3.415654,0.040000,-50820538620.073090,-54891098881.812401,54879502934.096306,3605665050.479943,-1.034115,1.034027,0.067933
-1.300000,-1.840000,3.388674,0.040000,-49162057313.253502,-55778147849.420563,55823229097.997581,2596850848.358176,-1.051147,1.051487,0.048926
-1.260000,-1.840000,3.361953,0.040000,-47414275834.235832,-56593581173.428215,56583652965.788918,1428225371.431117,-1.066200,1.066125,0.026909
-1.220000,-1.840000,3.335498,0.040000,-45576051754.635590,-56863644217.405373,56918519607.470726,97509107.057296,-1.071654,1.072068,0.001837
-1.180000,-1.840000,3.309316,0.040000,-43646787493.472321,-56996253938.243736,56987486190.359100,-1374033262.638653,-1.073793,1.073727,-0.025888
-1.140000,-1.840000,3.283411,0.040000,-41626455614.149742,-56461659006.697891,56525651001.124481,-2974206463.409029,-1.064132,1.064614,-0.056036
-1.100000,-1.840000,3.257792,0.040000,-39515721902.145729,-55739055947.864372,55729941171.787834,-4665540888.581430,-1.050105,1.050036,-0.087901
-1.060000,-1.840000,3.232465,0.040000,-37315949538.746803,-54251051419.754372,54322162061.167519,-6419486066.152411,-1.022523,1.023059,-0.120947
-1.020000,-1.840000,3.207437,0.040000,-35029304361.871063,-52559828702.895164,52547717992.191048,-8182854199.344745,-0.990189,0.990098,-0.154170
-0.980000,-1.840000,3.182715,0.040000,-32658720732.818687,-50051151157.860893,50126039069.755859,-9913109975.710426,-0.943416,0.943980,-0.186769
-0.940000,-1.840000,3.158305,0.040000,-30207971582.924820,-47379348097.757355,47360657970.117218,-11546871914.326071,-0.892549,0.892408,-0.217550
-0.900000,-1.840000,3.134216,0.040000,-27681580222.483307,-43903377377.253204,43977769549.797546,-13035325879.665194,-0.827586,0.828146,-0.245593
-0.860000,-1.840000,3.110455,0.040000,-25084841823.081383,-40372290619.646332,40343155701.820274,-14315585195.570644,-0.760473,0.760253,-0.269714
-0.820000,-1.840000,3.087030,0.040000,-22423673043.779400,-36123605563.216133,36193162085.340515,-15344613507.396107,-0.680983,0.681507,-0.289101
-0.780000,-1.840000,3.063947,0.040000,-19704581961.499355,-31993568096.324688,31950840477.044796,-16073557072.399694,-0.602536,0.602214,-0.302835
-0.740000,-1.840000,3.041216,0.040000,-16934460647.116791,-27296202540.108398,27357616972.815815,-16478101174.985191,-0.514623,0.515086,-0.310457
-0.700000,-1.840000,3.018843,0.040000,-14120515067.162468,-22936419090.197609,22878683674.838814,-16535369155.485786,-0.431809,0.431374,-0.311536
-0.660000,-1.840000,2.996837,0.040000,-11270020765.056097,-18195600390.131897,18247523580.651688,-16248768560.560616,-0.343109,0.343500,-0.306136
-0.620000,-1.840000,2.975207,0.040000,-8390237723.483171,-14020854805.951780,13949025877.535599,-15627053755.973326,-0.263755,0.263214,-0.294423
-0.580000,-1.840000,2.953959,0.040000,-5488160094.388628,-9648566310.360586,9691948343.559519,-14702598439.739996,-0.182030,0.182357,-0.277005
-0.540000,-1.840000,2.933103,0.040000,-2570447522.200577,-6039963739.067992,5957169453.956037,-13512732733.152147,-0.113328,0.112704,-0.254588
-0.500000,-1.840000,2.912647,0.040000,356798536.385160,-2376646484.824113,2414343687.826287,-12111680115.317356,-0.044990,0.045275,-0.228191
-0.460000,-1.840000,2.892600,0.040000,3288059120.594030,388843911.610847,-478050123.431596,-10554879412.510462,0.007830,-0.008503,-0.198860
-0.420000,-1.840000,2.872970,0.040000,6218570714.689198,3132184545.701452,-3096339455.686227,-8905913175.646257,0.058810,-0.058539,-0.167793
-0.380000,-1.840000,2.853765,0.040000,9144289300.371738,4922684653.679097,-5013435796.090117,-7224705824.196503,0.093259,-0.093943,-0.136118
-0.340000,-1.840000,2.834995,0.040000,12062002932.237495,6687098065.627011,-6649343614.336452,-5571171984.144100,0.125775,-0.125491,-0.104964
-0.300000,-1.840000,2.816668,0.040000,14969234675.845886,7519723274.565734,-7607828965.923727,-3997778763.882695,0.142174,-0.142838,-0.075320
-0.260000,-1.840000,2.798792,0.040000,17864299636.540829,8385622898.376593,-8343044484.464097,-2551350468.601230,0.157749,-0.157428,-0.048069
-0.220000,-1.840000,2.781377,0.040000,20746158109.823307,8400070381.229653,-8482584961.114522,-1269757101.714650,0.158729,-0.159350,-0.023923
-0.180000,-1.840000,2.764431,0.040000,23614431450.137138,8551107050.887753,-8501962273.860769,-182685104.550480,0.160830,-0.160460,-0.003442
-0.140000,-1.840000,2.747963,0.040000,26469222785.830463,7967899357.638981,-8043214157.858448,688414792.127041,0.150546,-0.151113,0.012970
-0.100000,-1.840000,2.731981,0.040000,29311109136.701889,7647346924.009826,-7590993086.235198,1330355598.371678,0.143762,-0.143337,0.025065
-0.060000,-1.840000,2.716494,0.040000,32140946962.359234,6725753785.510978,-6793353985.437824,1736137626.198873,0.127099,-0.127609,0.032710
-0.020000,-1.840000,2.701511,0.040000,34959855789.597069,6198111157.501993,-6134720279.272505,1905874176.491648,0.116418,-0.115940,0.035908
0.020000,-1.840000,2.687039,0.040000,37769021998.100288,5203190836.474569,-5263290833.373182,1843590672.096137,0.098371,-0.098824,0.034734
0.060000,-1.840000,2.673088,0.040000,40569684708.724045,4726861540.147399,-4657123840.823742,1559247479.490698,0.088663,-0.088137,0.029377
0.100000,-1.840000,2.659665,0.040000,43362946489.188194,3907918249.226221,-3961160528.592310,1065026137.229835,0.073928,-0.074330,0.020066
0.140000,-1.840000,2.646779,0.040000,46149768085.969017,3718169049.276237,-3643124825.463237,378607233.748214,0.069628,-0.069063,0.007133
0.180000,-1.840000,2.634437,0.040000,48930791428.390953,3295309222.186165,-3342630332.965840,-480951218.671630,0.062353,-0.062710,-0.009061
0.220000,-1.840000,2.622648,0.040000,51706347662.409485,3592486482.052608,-3513535411.839353,-1488622912.093243,0.067238,-0.066643,-0.028047
0.260000,-1.840000,2.611417,0.040000,54476297004.480743,3745316733.017513,-3787987734.877365,-2618339741.681305,0.070805,-0.071127,-0.049331
0.300000,-1.840000,2.600754,0.040000,57240054852.491547,4682313334.268729,-4601354442.617366,-3837125625.457233,0.087760,-0.087150,-0.072294
0.340000,-1.840000,2.590664,0.040000,59996454409.371628,5535509910.815856,-5575264723.260014,-5111613504.499792,0.104517,-0.104817,-0.096306
0.380000,-1.840000,2.581155,0.040000,62743797478.679436,7200775341.969402,-7120346101.639679,-6400952362.821039,0.135212,-0.134606,-0.120598
0.420000,-1.840000,2.572233,0.040000,65479747806.170738,8805028301.898157,-8844123621.260265,-7665850277.418494,0.166113,-0.166407,-0.144429
0.460000,-1.840000,2.563904,0.040000,68201414502.880318,11202372479.580095,-11125612807.895168,-8860140581.274363,0.210625,-0.210047,-0.166930
0.500000,-1.840000,2.556173,0.040000,70905284404.933197,13514905138.685047,-13555948151.711138,-9943098730.744139,0.254861,-0.255170,-0.187334
0.540000,-1.840000,2.549048,0.040000,73587344532.569031,16547140149.505083,-16477447335.767443,-10869189789.789114,0.311364,-0.310839,-0.204782
0.580000,-1.840000,2.542531,0.040000,76243058321.104996,19421111991.833778,-19466581841.607388,-11603899010.782454,0.366162,-0.366505,-0.218624
0.620000,-1.840000,2.536628,0.040000,78867527650.536835,22888100538.011223,-22828483017.709293,-12110744219.421907,0.430888,-0.430439,-0.228173
0.660000,-1.840000,2.531344,0.040000,81455510044.740173,26081315199.395275,-26132880405.322308,-12370246838.521015,0.491679,-0.492067,-0.233063
0.700000,-1.840000,2.526683,0.040000,84001611363.529404,29701043694.571629,-29653375135.558395,-12363075373.846689,0.559315,-0.558956,-0.232928
0.740000,-1.840000,2.522646,0.040000,86500331103.742737,32909163371.008247,-32967069139.510151,-12091408592.251663,0.620355,-0.620791,-0.227809
0.780000,-1.840000,2.519239,0.040000,88946267196.429138,36362262727.112457,-36326759968.525261,-11557368058.558485,0.684885,-0.684618,-0.217748
0.820000,-1.840000,2.516463,0.040000,91334168568.399048,39271502049.209908,-39334337334.061272,-10786111966.826809,0.740253,-0.740727,-0.203217
0.860000,-1.840000,2.514320,0.040000,93659128126.572815,42258772592.979485,-42233960326.531540,-9799525229.776634,0.796040,-0.795853,-0.184629
0.900000,-1.840000,2.512812,0.040000,95916619795.852249,44603253211.929619,-44668248648.636482,-8640817376.680122,0.840719,-0.841208,-0.162798
0.940000,-1.840000,2.511941,0.040000,98102657644.600906,46898661581.222641,-46881855520.866699,-7344410662.235085,0.883503,-0.883376,-0.138373
0.980000,-1.840000,2.511706,0.040000,100213800002.260895,48504473762.039459,-48568217515.379196,-5962210658.175307,0.914213,-0.914693,-0.112332
1.020000,-1.840000,2.511706,0.040000,102247261208.517136,49987482120.382233,-49975570166.124481,-4531279200.298306,0.941726,-0.941636,-0.085372
1.060000,-1.840000,2.511941,0.040000,104200875783.100006,50791176598.866020,-50850443227.253792,-3101965386.143962,0.957270,-0.957717,-0.058443
1.100000,-1.840000,2.512812,0.040000,106073160735.084152,51451269628.592766,-51441462722.781395,-1705017920.813063,0.969316,-0.969242,-0.032124
1.140000,-1.840000,2.514320,0.040000,107863243653.473236,51491313173.125458,-51543696133.969696,-381391889.365927,0.970422,-0.970817,-0.007186
1.180000,-1.840000,2.516463,0.040000,109570883372.645111,51408547047.821434,-51398852328.725281,849933836.861179,0.968512,-0.968439,0.016013
1.220000,-1.840000,2.519239,0.040000,111196373383.228424,50797811720.519661,-50842000646.896278,1961155521.059631,0.957310,-0.957643,0.036949
1.260000,-1.840000,2.522646,0.040000,112740534046.603775,50110238240.963852,-50099585641.464020,2946379100.117263,0.944046,-0.943965,0.055511
1.300000,-1.840000,2.526683,0.040000,114204605333.514938,49001530170.622009,-49037254815.908829,3790832673.908685,0.923419,-0.923688,0.071421
1.340000,-1.840000,2.531344,0.040000,115590224390.779724,47871225499.283562,-47859329616.302567,4499807032.435658,0.901854,-0.901765,0.084779
1.380000,-1.840000,2.536628,0.040000,116899320069.384430,46426120454.754875,-46453891640.813934,5068921589.711196,0.874852,-0.875061,0.095501
1.420000,-1.840000,2.542531,0.040000,118134086967.305038,45011948787.820312,-44999046719.855515,5511120906.188386,0.847978,-0.847881,0.103833
1.460000,-1.840000,2.549048,0.040000,119296890432.644409,43378572003.714539,-43399363596.488281,5828830118.041134,0.817395,-0.817552,0.109819
1.500000,-1.840000,2.556173,0.040000,120390244234.948120,41818924235.855240,-41805509527.729599,6038912218.637037,0.787817,-0.787716,0.113777
1.540000,-1.840000,2.563904,0.040000,121416730573.659943,40119772949.073601,-40134744130.429596,6147245670.625714,0.755964,-0.756077,0.115818
1.580000,-1.840000,2.572233,0.040000,122378984798.313110,38524718926.839630,-38511337922.728447,6171552272.612731,0.725752,-0.725652,0.116276
1.620000,-1.840000,2.581155,0.040000,123279631564.246872,36852765942.328812,-36863066276.538239,6118642182.858050,0.694386,-0.694463,0.115279
1.660000,-1.840000,2.590664,0.040000,124121277285.420029,35303149218.594810,-35290277028.392036,6005036062.155816,0.665059,-0.664962,0.113138
1.700000,-1.840000,2.600754,0.040000,124906461358.826569,33723425820.843998,-33730084204.837387,5836908192.754517,0.635407,-0.635457,0.109971
1.740000,-1.840000,2.611417,0.040000,125637655418.108856,32274085048.992805,-32262069373.909836,5628464850.554370,0.607995,-0.607904,0.106044
1.780000,-1.840000,2.622648,0.040000,126317227406.492706,30828119493.690670,-30831998022.893093,5384482793.669026,0.580842,-0.580871,0.101447
1.820000,-1.840000,2.634437,0.040000,126947445991.801346,29512933519.392685,-29501984462.878429,5116458926.543337,0.555979,-0.555896,0.096397
1.860000,-1.840000,2.646779,0.040000,127530454909.499878,28224126067.733551,-28225915620.615120,4827572980.123653,0.531769,-0.531782,0.090954
1.900000,-1.840000,2.659665,0.040000,128068280789.420547,27061351612.425976,-27051556829.170803,4526675984.164852,0.509796,-0.509722,0.085285
1.940000,-1.840000,2.673088,0.040000,128562815303.143250,25940127050.901257,-25940365234.789314,4215480999.029841,0.488728,-0.488730,0.079422
1.980000,-1.840000,2.687039,0.040000,129015824865.298264,24937189362.524376,-24928539612.408501,3900498665.278109,0.469782,-0.469717,0.073488
2.020000,-1.840000,2.701511,0.040000,129428938459.916443,23985363707.356613,-23984462042.943695,3582260960.063295,0.451893,-0.451886,0.067492
2.060000,-1.840000,2.716494,0.040000,129803658023.177353,23142748681.373127,-23135164985.842545,3265337281.875257,0.435980,-0.435923,0.061521
2.100000,-1.840000,2.731981,0.040000,130141350236.426453,22356927991.251099,-22355200961.851635,2949413021.743098,0.421208,-0.421195,0.055569
2.140000,-1.840000,2.747963,0.040000,130443256763.231461,21671108183.565907,-21664466517.165718,2637532772.384288,0.408259,-0.408209,0.049693
2.180000,-1.840000,2.764431,0.040000,130710488701.370300,21045138242.382469,-21042830364.830200,2328887388.416545,0.396490,-0.396472,0.043878
2.220000,-1.840000,2.781377,0.040000,130944036182.283844,20510612712.989967,-20504761995.654373,2025447047.606514,0.386399,-0.386355,0.038161
2.260000,-1.840000,2.798792,0.040000,131144764516.119888,20037253419.467979,-20034547989.065643,1726372582.016164,0.377498,-0.377478,0.032526
2.300000,-1.840000,2.816668,0.040000,131313422865.108414,19648065221.721447,-19642742122.935074,1433232699.932505,0.370151,-0.370111,0.027003
2.340000,-1.840000,2.834995,0.040000,131450641192.166031,19320181644.569424,-19316380612.746120,1145943788.347811,0.363982,-0.363953,0.021590
2.380000,-1.840000,2.853765,0.040000,131556938879.482239,19072568396.073486,-19075104361.027382,866468562.250257,0.359353,-0.359372,0.016325
2.420000,-1.840000,2.872970,0.040000,131632749339.893845,18900613403.247238,-18962141902.071400,664929808.085691,0.356446,-0.356910,0.012528
2.460000,-1.840000,2.892600,0.040000,131678792993.472778,18649042117.567028,-18653890096.680199,553454219.562449,0.351386,-0.351423,0.010427
-2.500000,-1.800000,4.214131,0.040000,-0.000254,-16209137767333.744141,31839983110920.777344,-1472215077852.397949,-393.737808,511.535483,-27.737386
-2.460000,-1.800000,4.184108,0.040000,-70526213935.427170,-1454712488359.799805,16913169461060.541016,-827808819325.812012,-114.781514,231.280030,-15.596398
-2.420000,-1.800000,4.154254,0.040000,-70471944876.832184,-1459165908154.487549,5410727248730.535156,-555208970446.965576,-49.826444,79.606326,-10.460459
-2.380000,-1.800000,4.124572,0.040000,-70380623563.562988,-109495595182.708542,272201316550.393951,-526511430.255694,-2.982602,4.208790,-0.009920
-2.340000,-1.800000,4.095065,0.040000,-70252423227.017883,-23314257218.136658,23310158236.335793,1719680089.504716,-0.439231,0.439200,0.032400
-2.300000,-1.800000,4.065737,0.040000,-70086911113.455582,-23697416987.321404,23692404295.682629,2147799548.066156,-0.446445,0.446407,0.040466
-2.260000,-1.800000,4.036593,0.040000,-69883475777.159958,-24167608857.940323,24162704808.922485,2581331199.852346,-0.455304,0.455267,0.048634
-2.220000,-1.800000,4.007636,0.040000,-69641364326.611084,-24726156594.234604,24720948920.223736,3019678292.640382,-0.465826,0.465786,0.056892
-2.180000,-1.800000,3.978871,0.040000,-69359683630.358673,-25372266516.104469,25367244272.752972,3462006237.178265,-0.478000,0.477962,0.065226
-2.140000,-1.800000,3.950301,0.040000,-69037399074.705994,-26109307388.523716,26103906653.347572,3907420083.040170,-0.491884,0.491843,0.073618
-2.100000,-1.800000,3.921931,0.040000,-68673332086.799561,-26936375337.643791,26931237168.889610,4354560451.813396,-0.507468,0.507429,0.082042
-2.060000,-1.800000,3.893765,0.040000,-68266158325.672958,-27857321843.371178,27851741395.936054,4801760174.127550,-0.524817,0.524774,0.090468
-2.020000,-1.800000,3.865382,0.040000,-67814405223.812141,-28870310391.840424,28865118903.279099,5246552846.477255,-0.543904,0.543865,0.098848
-1.980000,-1.800000,3.837109,0.040000,-67316450765.076134,-29979284514.325947,29973597781.565083,5685922429.698493,-0.564795,0.564752,0.107126
-1.940000,-1.800000,3.808893,0.040000,-66770521896.375656,-31180771499.085777,31175657760.963036,6115732893.856525,-0.587435,0.587396,0.115224
-1.900000,-1.800000,3.780509,0.040000,-66174694799.260269,-32478325511.281548,32472684699.442410,6531066253.970058,-0.611879,0.611836,0.123049
-1.860000,-1.800000,3.752336,0.040000,-65526895177.843483,-33865920460.963360,33861111050.714733,6925560665.915566,-0.638026,0.637990,0.130482
-1.820000,-1.800000,3.723967,0.040000,-64824901251.569077,-35345992693.227081,35340660954.498497,7291847774.893388,-0.665909,0.665869,0.137383
-1.780000,-1.800000,3.695683,0.040000,-64066347337.558388,-36908735908.988792,36904588785.530434,7620809289.776598,-0.695359,0.695327,0.143580
-1.740000,-1.800000,3.667486,0.040000,-63248731267.695724,-38554428524.888947,38549818330.490189,7902148867.010555,-0.726362,0.726327,0.148881
-1.700000,-1.800000,3.639087,0.040000,-62369423200.223030,-40267904844.310989,40264948679.135590,8123602559.677920,-0.758654,0.758632,0.153053
-1.660000,-1.800000,3.610908,0.040000,-61425679708.157738,-42045915456.445183,42042627148.790810,8271706523.613772,-0.792151,0.792126,0.155844
-1.620000,-1.800000,3.582553,0.040000,-60414660298.570419,-43866023974.626350,43864992473.436172,8331025903.468977,-0.826455,0.826448,0.156961
-1.580000,-1.800000,3.554257,0.040000,-59333450931.652885,-45719821554.750504,45718670107.668106,8285207079.043353,-0.861381,0.861373,0.156098
-1.540000,-1.800000,3.526082,0.040000,-58179091155.656860,-47575502685.182449,47577347362.491470,8116318879.631909,-0.896360,0.896374,0.152916
-1.500000,-1.800000,3.497667,0.040000,-56948610099.069130,-49417837602.288818,49419845853.304955,7806297994.243543,-0.931072,0.931087,0.147075
-1.460000,-1.800000,3.469480,0.040000,-55639067179.298782,-51203726925.013809,51209580859.774292,7336511902.150602,-0.964741,0.964785,0.138224
-1.420000,-1.800000,3.441528,0.040000,-54247603322.066277,-52909921461.487373,52916246846.732071,6689697889.224706,-0.996889,0.996937,0.126038
-1.380000,-1.800000,3.413815,0.040000,-52771497451.832199,-54480948664.501663,54492003712.867722,5849832353.271295,-1.026515,1.026598,0.110214
-1.340000,-1.800000,3.386348,0.040000,-51208234340.138062,-55885634181.592979,55897389255.895348,4804595598.316334,-1.052984,1.053073,0.090521
-1.300000,-1.800000,3.359133,0.040000,-49555576994.828217,-57056916459.702232,57074176013.846230,3545532577.334280,-1.075083,1.075213,0.066800
-1.260000,-1.800000,3.332175,0.040000,-47811649576.370888,-57958214747.615356,57976151378.288033,2070914544.625595,-1.092068,1.092203,0.039017
-1.220000,-1.800000,3.305482,0.040000,-45975021889.657646,-58514749965.344658,58538643214.888489,385978195.107717,-1.102587,1.102767,0.007272
-1.180000,-1.800000,3.279060,0.040000,-44044800915.389015,-58690631024.599258,58714700068.932716,-1494202370.388147,-1.105902,1.106083,-0.028152
-1.140000,-1.800000,3.252915,0.040000,-42020717843.948624,-58411296181.139328,58441202631.005280,-3544880754.862517,-1.100672,1.100897,-0.066788
-1.100000,-1.800000,3.227054,0.040000,-39903215354.701401,-57651754712.119743,57680636437.174034,-5729424846.040684,-1.086356,1.086573,-0.107946
-1.060000,-1.800000,3.201483,0.040000,-37693521006.193611,-56349581773.656517,56383414648.033058,-8000587076.892419,-1.061850,1.062105,-0.150736
-1.020000,-1.800000,3.176211,0.040000,-35393711150.164055,-54504024789.668442,54534831164.045113,-10299747049.902241,-1.027062,1.027294,-0.194053
-0.980000,-1.800000,3.151244,0.040000,-33006749443.773224,-52078664737.729782,52112757089.075874,-12559937012.762054,-0.981385,0.981642,-0.236636
-0.940000,-1.800000,3.126589,0.040000,-30536505322.474316,-49110227183.018059,49138638905.089836,-14707079959.075060,-0.925426,0.925640,-0.277090
-0.900000,-1.800000,3.102253,0.040000,-27987736490.235508,-45599807769.921112,45629347882.284485,-16664904335.853106,-0.859294,0.859516,-0.313976
-0.860000,-1.800000,3.078246,0.040000,-25366043796.105251,-41629598067.222427,41650619796.945152,-18357967451.347382,-0.784445,0.784603,-0.345875
-0.820000,-1.800000,3.054573,0.040000,-22677784845.536110,-37241867810.838005,37261955158.199692,-19717665313.798626,-0.701772,0.701923,-0.371492
-0.780000,-1.800000,3.031244,0.040000,-19929959770.300465,-32561870801.824886,32571120359.704769,-20685840263.578850,-0.613537,0.613607,-0.389733
-0.740000,-1.800000,3.008265,0.040000,-17130059548.585304,-27664856913.665676,27671915438.172802,-21220209508.889137,-0.521262,0.521315,-0.399801
-0.700000,-1.800000,2.985645,0.040000,-14285896129.663807,-22704286263.809334,22699381573.557018,-21296738648.350895,-0.427734,0.427697,-0.401243
-0.660000,-1.800000,2.963393,0.040000,-11405408756.477171,-17768771386.277817,17761752743.896980,-20912644272.053310,-0.334734,0.334681,-0.394006
-0.620000,-1.800000,2.941516,0.040000,-8496470144.287551,-13015911661.807686,12997332877.266363,-20086047271.269066,-0.245122,0.244982,-0.378433
-0.580000,-1.800000,2.920024,0.040000,-5566688664.087297,-8522436350.651596,8503232240.371447,-18855577800.855373,-0.160459,0.160314,-0.355250
-0.540000,-1.800000,2.898924,0.040000,-2623231262.695314,-4424612359.598265,4395600766.040782,-17277072377.342957,-0.083198,0.082980,-0.325510
-0.500000,-1.800000,2.878225,0.040000,327338436.782362,-765138894.089319,737985677.848179,-15420292513.744759,-0.014262,0.014058,-0.290527
-0.460000,-1.800000,2.857936,0.040000,3279184695.731929,2359356297.179245,-2393815684.731960,-13363842308.805233,0.044646,-0.044906,-0.251783
-0.420000,-1.800000,2.838066,0.040000,6227296961.380787,4952083021.402585,-4981906061.852800,-11190673699.755194,0.093469,-0.093693,-0.210839
-0.380000,-1.800000,2.818624,0.040000,9167542468.512489,6962221931.760300,-6996832552.281872,-8983083834.452433,0.131368,-0.131629,-0.169247
-0.340000,-1.800000,2.799618,0.040000,12096689515.653479,8438305426.627213,-8465872402.902140,-6818852263.127460,0.159138,-0.159346,-0.128471
-0.300000,-1.800000,2.781058,0.040000,15012388548.728600,9369885810.655434,-9400265337.296837,-4767825285.594382,0.176706,-0.176935,-0.089829
-0.260000,-1.800000,2.762952,0.040000,17913130398.366947,9840707473.853941,-9862399426.853329,-2889799239.426756,0.185527,-0.185691,-0.054445
-0.220000,-1.800000,2.745309,0.040000,20798171540.037464,9868277544.344398,-9891589622.219097,-1233230885.085549,0.186056,-0.186232,-0.023235
-0.180000,-1.800000,2.728139,0.040000,23667447349.558346,9557447986.164894,-9571257179.406553,165035658.989641,0.180146,-0.180250,0.003109
-0.140000,-1.800000,2.711450,0.040000,26521463714.957680,8939912141.545698,-8954875671.076155,1279313749.126963,0.168518,-0.168630,0.024103
-0.100000,-1.800000,2.695252,0.040000,29361187490.135395,8128601803.874664,-8133906643.764647,2094133371.762472,0.153178,-0.153218,0.039455
-0.060000,-1.800000,2.679553,0.040000,32187925035.523464,7158351456.681375,-7164851660.667716,2602896337.525358,0.134904,-0.134953,0.049040
-0.020000,-1.800000,2.664362,0.040000,35003207683.946083,6141031035.611232,-6138122071.445512,2806587447.499712,0.115684,-0.115662,0.052878
0.020000,-1.800000,2.649687,0.040000,37808671683.270897,5107825919.541771,-5106421670.118583,2712397052.991111,0.096226,-0.096216,0.051103
0.060000,-1.800000,2.635539,0.040000,40605949682.952103,4164584599.187577,-4154216115.292430,2332791535.235207,0.078405,-0.078326,0.043951
0.100000,-1.800000,2.621924,0.040000,43396559936.224777,3335615400.403572,-3327175505.455432,1684660664.856941,0.062797,-0.062734,0.031740
0.140000,-1.800000,2.608851,0.040000,46181809120.128159,2718467619.016250,-2701612862.305898,789095103.478114,0.051122,-0.050995,0.014867
0.180000,-1.800000,2.596329,0.040000,48962694392.895424,2328920485.386491,-2314508501.820012,-328801456.537036,0.043797,-0.043688,-0.006195
0.220000,-1.800000,2.584365,0.040000,51739820344.683784,2254348186.411645,-2232218488.737385,-1639496361.197142,0.042348,-0.042181,-0.030889
0.260000,-1.800000,2.572968,0.040000,54513316846.138489,2499666840.983016,-2480676256.556774,-3108839795.818640,0.046988,-0.046845,-0.058572
0.300000,-1.800000,2.562145,0.040000,57282774024.240578,3138562843.365141,-3112833289.878054,-4697464874.578481,0.058987,-0.058793,-0.088503
0.340000,-1.800000,2.551902,0.040000,60047181396.829918,4160565824.650144,-4138989856.526533,-6360851413.664339,0.078266,-0.078103,-0.119842
0.380000,-1.800000,2.542248,0.040000,62804888274.066216,5619742749.209585,-5592813738.119519,-8049223133.171844,0.105727,-0.105524,-0.151652
0.420000,-1.800000,2.533189,0.040000,65553573450.993095,7483707106.614091,-7462328003.692579,-9708585826.958183,0.140877,-0.140715,-0.182915
0.460000,-1.800000,2.524731,0.040000,68290241649.677765,9779793480.428255,-9754846187.948923,-11281708804.853914,0.184116,-0.183928,-0.212554
0.500000,-1.800000,2.516880,0.040000,71011234829.832077,12447484917.305094,-12429740664.630419,-12710564644.406693,0.234418,-0.234284,-0.239474
0.540000,-1.800000,2.509643,0.040000,73712274803.392075,15482338733.100737,-15462976529.226124,-13938474125.580969,0.291587,-0.291441,-0.262609
0.580000,-1.800000,2.503024,0.040000,76388523840.263535,18793665563.479115,-18783059869.119659,-14913689203.892078,0.354024,-0.353944,-0.280983
0.620000,-1.800000,2.497028,0.040000,79034676971.014832,22346252387.186600,-22335705792.097702,-15591998619.491413,0.420957,-0.420877,-0.293762
0.660000,-1.800000,2.491660,0.040000,81645069871.559921,26024837330.214970,-26024009075.154793,-15940424157.481749,0.490318,-0.490312,-0.300327
0.700000,-1.800000,2.486923,0.040000,84213812245.389404,29772838752.273781,-29772994871.989307,-15938980592.679924,0.560938,-0.560940,-0.300300
0.740000,-1.800000,2.482823,0.040000,86734927596.350586,33464277434.410709,-33474113437.939980,-15583130029.723433,0.630542,-0.630616,-0.293595
0.780000,-1.800000,2.479361,0.040000,89202505983.678162,37037606566.027725,-37048320397.184891,-14883466964.748688,0.697871,-0.697951,-0.280413
0.820000,-1.800000,2.476540,0.040000,91610849173.054520,40374759044.241920,-40394009216.906059,-13866046556.845036,0.760793,-0.760938,-0.261244
0.860000,-1.800000,2.474362,0.040000,93954613471.457596,43427474278.409401,-43446543905.444435,-12569614061.140192,0.818307,-0.818450,-0.236819
0.900000,-1.800000,2.472830,0.040000,96228930844.508377,46102758473.625893,-46128387252.294907,-11043974444.062141,0.868748,-0.868941,-0.208075
0.940000,-1.800000,2.471945,0.040000,98429514834.893539,48379345551.334152,-48403193073.938805,-9345501093.439589,0.911630,-0.911809,-0.176075
0.980000,-1.800000,2.471706,0.040000,100552735506.266800,50199293707.824669,-50227408535.362167,-7534659858.430882,0.945943,-0.946155,-0.141957
1.020000,-1.800000,2.471706,0.040000,102595672795.242599,51573292030.897133,-51598020923.774994,-5671191748.388315,0.971810,-0.971997,-0.106849
1.060000,-1.800000,2.471945,0.040000,104556137121.928436,52478976425.919205,-52505894297.061996,-3812153291.716525,0.988886,-0.989089,-0.071823
1.100000,-1.800000,2.472830,0.040000,106432669473.208023,52955058895.411629,-52977416597.759926,-2008031315.314291,0.997830,-0.997999,-0.037832
1.140000,-1.800000,2.474362,0.040000,108224513764.600143,53007566572.334610,-53030590128.848022,-302183097.368686,0.998823,-0.998997,-0.005693
1.180000,-1.800000,2.476540,0.040000,109931575145.879608,52693604033.895851,-52711522526.646431,1271541814.628014,0.992879,-0.993014,0.023957
1.220000,-1.800000,2.479361,0.040000,111554359389.572723,52036725436.547379,-52054434984.097961,2687839596.864641,0.980502,-0.980636,0.050640
1.260000,-1.800000,2.482823,0.040000,113093906702.479492,51101358333.563904,-51114016996.382195,3930960702.005414,0.962851,-0.962946,0.074062
1.300000,-1.800000,2.486923,0.040000,114551715834.212204,49918008682.600883,-49930133843.465034,4992672782.312988,0.940553,-0.940644,0.094065
1.340000,-1.800000,2.491660,0.040000,115929670165.570145,48549195098.197762,-48556755022.458260,5872425331.344954,0.914738,-0.914795,0.110640
1.380000,-1.800000,2.497028,0.040000,117229961410.851044,47024506461.710007,-47031573836.174934,6574869493.275793,0.886009,-0.886062,0.123874
1.420000,-1.800000,2.503024,0.040000,118455020391.944855,45398635516.101784,-45401852374.534515,7109731076.086632,0.855355,-0.855379,0.133951
1.460000,-1.800000,2.509643,0.040000,119607450000.860489,43695753201.571732,-43698700547.673668,7489405940.265302,0.823270,-0.823292,0.141105
1.500000,-1.800000,2.516880,0.040000,120689967651.713394,41960079816.690376,-41959951070.982994,7728914144.139558,0.790552,-0.790551,0.145617
1.540000,-1.800000,2.524731,0.040000,121705351999.029282,40208721974.188263,-40208592661.423828,7843861476.382532,0.757555,-0.757554,0.147783
1.580000,-1.800000,2.533189,0.040000,122656399466.666718,38475206909.319313,-38472724781.868507,7850632564.409322,0.724881,-0.724862,0.147910
1.620000,-1.800000,2.542248,0.040000,123545885365.877914,36769818001.976700,-36767570516.578331,7764805146.871799,0.692752,-0.692735,0.146293
1.660000,-1.800000,2.551902,0.040000,124376533859.896729,35116586343.806450,-35112602453.010345,7601584699.644190,0.661594,-0.661564,0.143218
1.700000,-1.800000,2.562145,0.040000,125150991864.837921,33520178197.765289,-33516596571.266994,7374632937.912908,0.631519,-0.631492,0.138942
1.740000,-1.800000,2.572968,0.040000,125871810253.465744,31996921821.292740,-31992097135.695755,7096670451.506665,0.602813,-0.602777,0.133705
1.780000,-1.800000,2.584365,0.040000,126541427960.909576,30547373534.779114,-30543046649.123764,6778630133.430583,0.575506,-0.575473,0.127713
1.820000,-1.800000,2.596329,0.040000,127162161748.302536,29182017199.521889,-29176824305.501583,6430337580.844877,0.549777,-0.549738,0.121151
1.860000,-1.800000,2.608851,0.040000,127736197816.475174,27898721895.672596,-27894060791.266773,6059896793.599588,0.525602,-0.525567,0.114172
1.900000,-1.800000,2.621924,0.040000,128265587592.775497,26703774185.808044,-26698524955.997574,5674372680.430446,0.503085,-0.503045,0.106908
1.940000,-1.800000,2.635539,0.040000,128752244475.730103,25593520961.166626,-25588791866.388065,5279334682.423889,0.482170,-0.482134,0.099466
1.980000,-1.800000,2.649687,0.040000,129197943534.038620,24571385212.721226,-24566266375.567024,4879490554.378282,0.462910,-0.462872,0.091932
2.020000,-1.800000,2.664362,0.040000,129604321487.007492,23633057211.943481,-23628417083.771900,4478337164.901692,0.445234,-0.445199,0.084374
2.060000,-1.800000,2.679553,0.040000,129972878700.571411,22780113795.405510,-22775220950.742882,4078718786.654155,0.429163,-0.429126,0.076845
2.100000,-1.800000,2.695252,0.040000,130304980995.036011,22008180578.741642,-22003708556.914612,3682556258.660382,0.414622,-0.414588,0.069381
2.140000,-1.800000,2.711450,0.040000,130601862778.285507,21317735027.046021,-21313100488.150021,3291323625.478569,0.401612,-0.401577,0.062010
2.180000,-1.800000,2.728139,0.040000,130864629686.846588,20704717795.510963,-20700438466.784153,2905847025.196788,0.390065,-0.390032,0.054748
2.220000,-1.800000,2.745309,0.040000,131094262051.892029,20169069862.069016,-20164678663.895187,2526711697.275120,0.379972,-0.379939,0.047605
2.260000,-1.800000,2.762952,0.040000,131291617654.955673,19707348385.519161,-19703238867.477936,2154134538.321213,0.371275,-0.371244,0.040585
2.300000,-1.800000,2.781058,0.040000,131457434856.639877,19319614304.757652,-19315443974.669712,1788295737.283949,0.363969,-0.363938,0.033693
2.340000,-1.800000,2.799618,0.040000,131592334551.331909,19004298062.927124,-19000895065.383614,1429192216.740877,0.358033,-0.358007,0.026927
2.380000,-1.800000,2.818624,0.040000,131696819966.555893,18764816395.753525,-18756183004.655167,1076963257.999156,0.353491,-0.353426,0.020291
2.420000,-1.800000,2.838066,0.040000,131771246934.842728,18612933928.761345,-18620717691.125912,819587585.425973,0.350722,-0.350781,0.015442
2.460000,-1.800000,2.857936,0.040000,131815476142.519730,18661291676.077969,-18795414264.611935,671295139.763104,0.352348,-0.353358,0.012648
-2.500000,-1.760000,4.187902,0.040000,-70867469185.234467,13302326632944.605469,8281225751122.357422,-3342680461024.690918,128.629554,34.029102,-62.978038
-2.460000,-1.760000,4.157690,0.040000,-70732765530.299515,2893734338357.819824,11822238742552.427734,-1976382447223.358643,-28.657607,139.560592,-37.236191
-2.420000,-1.760000,4.127644,0.040000,-70678459732.308167,-200606477385.947632,3879861255762.144531,-786964227637.034180,-24.575330,52.303047,-14.826862
-2.380000,-1.760000,4.097769,0.040000,-70588951215.668961,-25520000801.104935,34738113539.562691,-271209784.982432,-0.532914,0.602384,-0.005110
-2.340000,-1.760000,4.068068,0.040000,-70463393593.106430,-22843461634.052856,22837611795.528805,2057196214.687557,-0.430351,0.430307,0.038759
-2.300000,-1.760000,4.038544,0.040000,-70301279866.812592,-23222707677.449299,23217635383.629601,2572228260.578481,-0.437501,0.437462,0.048462
-2.260000,-1.760000,4.009202,0.040000,-70102002261.448074,-23687977192.544151,23682932985.626202,3092996687.877997,-0.446267,0.446229,0.058274
-2.220000,-1.760000,3.980046,0.040000,-69864816201.198486,-24241098059.472260,24235965845.958275,3619548458.093554,-0.456687,0.456649,0.068194
-2.180000,-1.760000,3.951080,0.040000,-69588836607.437134,-24883397289.254501,24878182215.471230,4151501479.453764,-0.468788,0.468749,0.078217
-2.140000,-1.760000,3.922307,0.040000,-69273035615.054703,-25616667213.841831,25611329308.650951,4688084694.232295,-0.482603,0.482562,0.088326
-2.100000,-1.760000,3.893733,0.040000,-68916239873.708038,-26442635171.465549,26437205525.211193,5228047095.740861,-0.498164,0.498123,0.098499
-2.060000,-1.760000,3.865362,0.040000,-68517127621.488968,-27363321615.058727,27357767796.635815,5769546899.153603,-0.515509,0.515468,0.108702
-2.020000,-1.760000,3.837198,0.040000,-68074225654.986923,-28380387039.030651,28374762170.524826,6309992306.293012,-0.534671,0.534629,0.118884
-1.980000,-1.760000,3.808814,0.040000,-67585906470.713776,-29495588893.415329,29489868153.263496,6845902834.773326,-0.555682,0.555639,0.128981
-1.940000,-1.760000,3.780541,0.040000,-67050385703.141312,-30709977845.353325,30704243089.323959,7372725585.567565,-0.578561,0.578518,0.138906
-1.900000,-1.760000,3.752326,0.040000,-66465720197.143021,-32024434071.088478,32018673306.766628,7884683006.699907,-0.603326,0.603283,0.148552
-1.860000,-1.760000,3.723940,0.040000,-65829806910.214249,-33438647885.500492,33432982517.836517,8374571739.359004,-0.629971,0.629929,0.157782
-1.820000,-1.760000,3.695770,0.040000,-65140383109.091110,-34951731867.576591,34946171169.407646,8833608572.030516,-0.658479,0.658438,0.166430
-1.780000,-1.760000,3.667399,0.040000,-64395028173.839790,-36560929716.608070,36555648548.294022,9251232420.908970,-0.688799,0.688759,0.174299
-1.740000,-1.760000,3.639115,0.040000,-63591167647.631401,-38262309893.669685,38257349637.865814,9614981911.668419,-0.720856,0.720819,0.181152
-1.700000,-1.760000,3.610919,0.040000,-62726079998.379425,-40049152274.500160,40044757177.028786,9910348311.822155,-0.754524,0.754491,0.186717
-1.660000,-1.760000,3.582519,0.040000,-61796906938.445145,-41912742439.657578,41908997557.650955,10120750271.477640,-0.789639,0.789611,0.190681
-1.620000,-1.760000,3.554341,0.040000,-60800667938.122612,-43840402780.924934,43837636949.681046,10227522111.374294,-0.825963,0.825942,0.192692
-1.580000,-1.760000,3.525985,0.040000,-59734279991.223274,-45816437442.888916,45814787594.685051,10210091048.374662,-0.863199,0.863186,0.192364
-1.540000,-1.760000,3.497689,0.040000,-58594583407.127144,-47819816320.964668,47819704424.654076,10046226196.934450,-0.900952,0.900952,0.189277
-1.500000,-1.760000,3.469515,0.040000,-57378374834.751488,-49825381584.852730,49826993354.818703,9712561358.976023,-0.938748,0.938760,0.182990
-1.460000,-1.760000,3.441098,0.040000,-56082448304.348572,-51801271871.239532,51805113911.781876,9185258950.367235,-0.975988,0.976017,0.173056
-1.420000,-1.760000,3.412913,0.040000,-54703645447.618446,-53710601194.789482,53716881079.089821,8441032215.356189,-1.011974,1.012022,0.159034
-1.380000,-1.760000,3.384966,0.040000,-53238915406.841400,-55508830173.625031,55518098949.603226,7458360506.636399,-1.045871,1.045941,0.140520
-1.340000,-1.760000,3.357263,0.040000,-51685385166.596390,-57146259059.797615,57158679996.470100,6219104375.698887,-1.076739,1.076832,0.117172
-1.300000,-1.760000,3.329810,0.040000,-50040440046.291786,-58565689480.043861,58581771263.434540,4710292304.360098,-1.103502,1.103624,0.088745
-1.260000,-1.760000,3.302614,0.040000,-48301814064.479897,-59706187982.406319,59725932879.729240,2926235968.661203,-1.125011,1.125160,0.055132
-1.220000,-1.760000,3.275680,0.040000,-46467688457.607262,-60501460430.064415,60525196666.558067,870645650.868709,-1.140017,1.140196,0.016403
-1.180000,-1.760000,3.249015,0.040000,-44536796329.351547,-60885333484.756943,60912741958.732689,-1441186261.469038,-1.147270,1.147476,-0.027153
-1.140000,-1.760000,3.222626,0.040000,-42508529584.417366,-60791149130.613525,60822210568.537079,-3980581522.073476,-1.145516,1.145750,-0.074996
-1.100000,-1.760000,3.196520,0.040000,-40383043872.436905,-60159126554.126389,60193038887.796867,-6704076372.287354,-1.133624,1.133880,-0.126309
-1.060000,-1.760000,3.170703,0.040000,-38161355340.791451,-58936632142.683372,58972896517.169037,-9552950528.039696,-1.110605,1.110879,-0.179983
-1.020000,-1.760000,3.145184,0.040000,-35845422892.929802,-57086924701.030891,57124177759.398132,-12453723366.766348,-1.075761,1.076042,-0.234635
-0.980000,-1.760000,3.119968,0.040000,-33438208207.178532,-54589361802.358727,54626626158.580666,-15320078065.679514,-1.028706,1.028987,-0.288639
-0.940000,-1.760000,3.095064,0.040000,-30943706685.676426,-51448137454.877159,51483593600.203468,-18056095960.329639,-0.969513,0.969780,-0.340187
-0.900000,-1.760000,3.070479,0.040000,-28366942256.771713,-47690670331.659836,47723080877.698372,-20560991114.265198,-0.898703,0.898947,-0.387381
-0.860000,-1.760000,3.046221,0.040000,-25713921484.144390,-43374325595.050835,43401751543.889610,-22734892056.296062,-0.817352,0.817559,-0.428339
-0.820000,-1.760000,3.022297,0.040000,-22991543738.836765,-38581045372.596840,38602417272.734085,-24485455193.287964,-0.727010,0.727171,-0.461320
-0.780000,-1.760000,2.998717,0.040000,-20207468283.951134,-33420394128.165924,33434143798.162663,-25734507428.972637,-0.629737,0.629841,-0.484853
-0.740000,-1.760000,2.975487,0.040000,-17369941443.320045,-28019497793.442482,28025211781.671982,-26424208201.852249,-0.527936,0.527979,-0.497847
-0.700000,-1.760000,2.952616,0.040000,-14487591625.963198,-22522321087.393520,22519238168.281113,-26521848985.424477,-0.424316,0.424293,-0.499687
-0.660000,-1.760000,2.930113,0.040000,-11569201863.878237,-17075973006.603920,17064647039.558699,-26022859752.626900,-0.321657,0.321572,-0.490286
-0.620000,-1.760000,2.907986,0.040000,-8623472938.641994,-11828191480.239317,11808823113.466352,-24951493501.411251,-0.222741,0.222595,-0.470101
-0.580000,-1.760000,2.886244,0.040000,-5658790024.524559,-6912878481.120707,6886949532.311803,-23359222922.707088,-0.130096,0.129901,-0.440101
-0.540000,-1.760000,2.864895,0.040000,-2683006760.857401,-2448936404.165326,2417395891.537947,-21320935908.486080,-0.045961,0.045723,-0.401699
-0.500000,-1.760000,2.843949,0.040000,296742120.798774,1471792923.693619,-1506906639.648698,-18929498041.563976,0.027928,-0.028193,-0.356643
-0.460000,-1.760000,2.823413,0.040000,3274189819.096123,4781817226.595919,-4819269034.144423,-16289246591.966753,0.090304,-0.090586,-0.306899
-0.420000,-1.760000,2.803299,0.040000,6244042901.345846,7445903577.168253,-7483604356.639545,-13509208600.217058,0.140498,-0.140782,-0.254521
-0.380000,-1.760000,2.783614,0.040000,9202040178.246941,9453911825.953266,-9490814866.516258,-10696670203.054333,0.178326,-0.178604,-0.201531
-0.340000,-1.760000,2.764367,0.040000,12144966682.803747,10824912918.865419,-10859284652.750685,-7951695012.898800,0.204142,-0.204401,-0.149815
-0.300000,-1.760000,2.745568,0.040000,15070625956.424892,11596878433.111877,-11628153892.502550,-5362926379.204920,0.218669,-0.218904,-0.101041
-0.260000,-1.760000,2.727227,0.040000,17977777207.263931,11828798890.211288,-11855777724.984148,-3004858797.396635,0.223014,-0.223217,-0.056613
-0.220000,-1.760000,2.709351,0.040000,20866043826.563358,11589336962.760452,-11611992163.780212,-936539836.200700,0.218478,-0.218649,-0.017645
-0.180000,-1.760000,2.691952,0.040000,23735801435.403252,10958923761.503679,-10976548428.627007,798464495.270451,0.206572,-0.206705,0.015044
-0.140000,-1.760000,2.675038,0.040000,26588052036.034595,10019126628.810387,-10032113532.334896,2171112242.794531,0.188840,-0.188937,0.040905
-0.100000,-1.760000,2.658617,0.040000,29424291300.848263,8855999015.750057,-8863972170.274086,3165261156.425881,0.166897,-0.166957,0.059635
-0.060000,-1.760000,2.642701,0.040000,32246373588.474033,7551004625.246485,-7554591526.518185,3775693897.050377,0.142286,-0.142313,0.071136
-0.020000,-1.760000,2.627297,0.040000,35056379263.832352,6185960482.430498,-6184936538.057033,4006103171.103699,0.116541,-0.116534,0.075477
0.020000,-1.760000,2.612414,0.040000,37856486352.553322,4835478346.084367,-4830546837.933393,3867267847.772980,0.091075,-0.091038,0.072862
0.060000,-1.760000,2.598062,0.040000,40648848727.349571,3573111295.584211,-3564077182.790315,3375619704.436692,0.067268,-0.067200,0.063599
0.100000,-1.760000,2.584250,0.040000,43435480894.429298,2464711961.250455,-2452275074.858933,2552295107.607579,0.046366,-0.046273,0.048087
0.140000,-1.760000,2.570986,0.040000,46218150167.607468,1575017142.293166,-1558982113.304547,1422736843.238545,0.029584,-0.029463,0.026805
0.180000,-1.760000,2.558278,0.040000,48998275539.368988,961104155.488537,-942184298.698217,16797200.458083,0.018001,-0.017858,0.000316
0.220000,-1.760000,2.546136,0.040000,51776833945.029373,678574185.980365,-656636283.419516,-1630729891.652507,0.012661,-0.012495,-0.030724
0.260000,-1.760000,2.534567,0.040000,54554273791.794548,774359628.602243,-750226257.762858,-3479339222.425645,0.014453,-0.014271,-0.065553
0.300000,-1.760000,2.523579,0.040000,57330437561.733734,1291894132.880227,-1265612898.762001,-5481997963.701840,0.024191,-0.023993,-0.103284
0.340000,-1.760000,2.513179,0.040000,60104494875.830467,2262929429.493186,-2235550734.664269,-7584574444.032137,0.042480,-0.042274,-0.142898
0.380000,-1.760000,2.503376,0.040000,62874889502.330513,3711643155.594231,-3683496840.724049,-9725743086.150112,0.069770,-0.069558,-0.183239
0.420000,-1.760000,2.494175,0.040000,65639303259.726707,5645831975.992226,-5618251117.521043,-11837653775.592144,0.106215,-0.106007,-0.223028
0.460000,-1.760000,2.485585,0.040000,68394641412.335907,8060687042.596880,-8034276535.882105,-13847497409.271793,0.151719,-0.151520,-0.260895
0.500000,-1.760000,2.477610,0.040000,71137042872.213242,10930519429.711744,-10906801481.407015,-15680096835.973581,0.205803,-0.205625,-0.295422
0.540000,-1.760000,2.470257,0.040000,73861919117.589096,14213589134.237320,-14193265381.436136,-17261389103.855137,0.267677,-0.267524,-0.325215
0.580000,-1.760000,2.463532,0.040000,76564023258.731079,17845922563.390842,-17830438814.635422,-18522640817.984432,0.336140,-0.336023,-0.348977
0.620000,-1.760000,2.457440,0.040000,79237550047.130569,21748566727.254364,-21738400859.327057,-19404932191.765911,0.409698,-0.409622,-0.365600
0.660000,-1.760000,2.451985,0.040000,81876264151.731018,25824559331.621815,-25820730803.983925,-19863511706.471573,0.486528,-0.486499,-0.374240
0.700000,-1.760000,2.447172,0.040000,84473652764.609558,29968970018.181576,-29971410174.243725,-19871385557.541920,0.564647,-0.564665,-0.374388
0.740000,-1.760000,2.443005,0.040000,87023095127.649521,34068688546.070477,-34077730566.205814,-19421772275.537174,0.641925,-0.641993,-0.365917
0.780000,-1.760000,2.439486,0.040000,89518040909.127579,38014028821.438400,-38028912169.584991,-18528939895.620392,0.716290,-0.716403,-0.349096
0.820000,-1.760000,2.436619,0.040000,91952187174.168747,41699512153.674614,-41719866311.081245,-17227408589.570927,0.785758,-0.785911,-0.324574
0.860000,-1.760000,2.434406,0.040000,94319644702.259064,45034701260.813950,-45059200125.889740,-15569436804.381371,0.848618,-0.848803,-0.293337
0.900000,-1.760000,2.432849,0.040000,96615084187.225464,47943651714.760048,-47971463506.074135,-13621240027.858423,0.903443,-0.903653,-0.256632
0.940000,-1.760000,2.431949,0.040000,98833855648.625458,50372856594.109787,-50402423652.073906,-11458215617.312910,0.949221,-0.949444,-0.215879
0.980000,-1.760000,2.431706,0.040000,100972075688.428589,52287911126.076706,-52318311634.792595,-9159890599.646259,0.985306,-0.985535,-0.172578
1.020000,-1.760000,2.431706,0.040000,103026680862.319336,53677817561.595757,-53707631645.826065,-6804927784.916133,1.011490,-1.011714,-0.128209
1.060000,-1.760000,2.431949,0.040000,104995447048.664917,54548978238.559868,-54577513851.916771,-4466841575.347174,1.027896,-1.028111,-0.084158
1.100000,-1.760000,2.432849,0.040000,106876977890.519745,54926626115.449112,-54952848046.026192,-2210533854.734757,1.034998,-1.035195,-0.041648
1.140000,-1.760000,2.434406,0.040000,108670666202.746292,54847448805.159157,-54871050555.332260,-90027690.951759,1.033491,-1.033669,-0.001696
1.180000,-1.760000,2.436619,0.040000,110376634189.457275,54359664008.436104,-54380062126.848221,1852799520.218446,1.024283,-1.024437,0.034908
1.220000,-1.760000,2.439486,0.040000,111995657945.271439,53515820308.835014,-53533082141.482277,3588366841.520977,1.008367,-1.008497,0.067607
1.260000,-1.760000,2.443005,0.040000,113529082408.853317,52372870389.820068,-52386791334.849174,5098824941.214725,0.986814,-0.986919,0.096065
1.300000,-1.760000,2.447172,0.040000,114978731667.448715,50986195724.923256,-50997105157.292244,6376779861.932881,0.960671,-0.960753,0.120142
1.340000,-1.760000,2.451985,0.040000,116346819427.397995,49410383380.051598,-49418321751.518402,7423746353.526190,0.930965,-0.931025,0.139868
1.380000,-1.760000,2.457440,0.040000,117635862856.791931,47694819096.159416,-47700242788.054245,8248323477.678642,0.898629,-0.898670,0.155403
1.420000,-1.760000,2.463532,0.040000,118848602686.701721,45885252987.148064,-45888318565.157906,8864465608.185678,0.864522,-0.864545,0.167012
1.460000,-1.760000,2.470257,0.040000,119987930966.725571,44020795121.162476,-44021976954.798103,9289770388.588369,0.829384,-0.829393,0.175025
1.500000,-1.760000,2.477610,0.040000,121056827661.171280,42136009009.063065,-42135487906.173058,9544057583.196039,0.793864,-0.793860,0.179816
1.540000,-1.760000,2.485585,0.040000,122058306117.610260,40258930841.351257,-40257132504.421089,9648093253.901480,0.758491,-0.758478,0.181776
1.580000,-1.760000,2.494175,0.040000,122995367457.127747,38413349245.259285,-38410428156.395668,9622650943.492214,0.723713,-0.723691,0.181296
1.620000,-1.760000,2.503376,0.040000,123870963138.377823,36617472752.261307,-36613776911.674858,9487728636.244698,0.689874,-0.689846,0.178754
1.660000,-1.760000,2.513179,0.040000,124687965163.034546,34886124038.536385,-34881762540.073761,9262061441.068808,0.657250,-0.657217,0.174503
1.700000,-1.760000,2.523579,0.040000,125449142874.130386,33229778441.072662,-33225017673.102859,8962744229.211931,0.626041,-0.626006,0.168863
1.740000,-1.760000,2.534567,0.040000,126157145630.507156,31656513512.673965,-31651416901.120827,8605077019.389332,0.596398,-0.596360,0.162125
1.780000,-1.760000,2.546136,0.040000,126814490309.779373,30171249687.318718,-30166011253.686378,8202462574.164071,0.568414,-0.568375,0.154539
1.820000,-1.760000,2.558278,0.040000,127423552963.084900,28777392629.135811,-28772038446.288738,7766455627.224326,0.542152,-0.542112,0.146325
1.860000,-1.760000,2.570986,0.040000,127986563721.834976,27476188687.233498,-27470854435.256672,7306816943.436811,0.517637,-0.517597,0.137665
1.900000,-1.760000,2.584250,0.040000,128505604414.857544,26268060332.987606,-26262745277.494728,6831663601.707693,0.494875,-0.494835,0.128713
1.940000,-1.760000,2.598062,0.040000,128982608188.651016,25152038321.564137,-25146833891.718918,6347593689.242918,0.473850,-0.473810,0.119592
1.980000,-1.760000,2.612414,0.040000,129419360742.381088,24126823029.823425,-24121711238.905018,5859869553.151205,0.454534,-0.454496,0.110403
2.020000,-1.760000,2.627297,0.040000,129817502652.847961,23190279893.181934,-23185319951.858124,5372560660.005349,0.436890,-0.436853,0.101222
2.060000,-1.760000,2.642701,0.040000,130178532535.400070,22340272015.783642,-22335435970.305195,4888722123.696239,0.420876,-0.420840,0.092106
2.100000,-1.760000,2.658617,0.040000,130503810665.404190,21574215924.263313,-21569539974.710041,4410529772.921926,0.406444,-0.406409,0.083097
2.140000,-1.760000,2.675038,0.040000,130794562907.570236,20889734350.808289,-20885185014.230667,3939438623.368264,0.393549,-0.393515,0.074221
2.180000,-1.760000,2.691952,0.040000,131051884685.236435,20284276444.327690,-20279872540.877811,3476301884.777669,0.382143,-0.382109,0.065496
2.220000,-1.760000,2.709351,0.040000,131276744896.393265,19755645919.486740,-19751348518.793503,3021504908.932445,0.372184,-0.372151,0.056927
2.260000,-1.760000,2.727227,0.040000,131469989561.165024,19301702437.829155,-19297509810.075115,2575057603.206720,0.363632,-0.363600,0.048516
2.300000,-1.760000,2.745568,0.040000,131632345108.784485,18920789322.704697,-18916601150.371269,2136669155.997549,0.356455,-0.356423,0.040256
2.340000,-1.760000,2.764367,0.040000,131764421159.724365,18610940499.007992,-18606140824.856178,1705714114.938009,0.350614,-0.350578,0.032137
2.380000,-1.760000,2.783614,0.040000,131866714305.267029,18371871007.064850,-18375154052.506290,1281270396.607784,0.346155,-0.346180,0.024140
2.420000,-1.760000,2.803299,0.040000,131939638068.818634,18212509641.968700,-18272264049.735218,971291987.700062,0.343472,-0.343922,0.018300
2.460000,-1.760000,2.823413,0.040000,131983881987.739014,17964484026.979332,-17982125063.320442,791539716.231460,0.338561,-0.338694,0.014913
-2.500000,-1.720000,4.161891,0.040000,-35493833778.985489,417617900296.381104,21396836724473.210938,1492938956900.189697,-115.430928,279.829716,28.127835
-2.460000,-1.720000,4.131489,0.040000,-70972292560.853531,2103987846880.661133,11606370612108.888672,884981802037.563354,-37.852980,141.177420,16.673570
-2.420000,-1.720000,4.101252,0.040000,-70920519903.195587,-513598599875.787476,3664096201625.276367,575668184979.009277,-27.483656,51.226536,10.845922
-2.380000,-1.720000,4.071183,0.040000,-70833335866.803619,-66044596143.621483,149512675973.069824,3648799750.524905,-1.716095,2.345129,0.068746
-2.340000,-1.720000,4.041286,0.040000,-70710898984.007706,-22290090604.968052,22285969592.650078,2389496811.505918,-0.419935,0.419904,0.045020
-2.300000,-1.720000,4.011566,0.040000,-70552789447.089630,-22661590634.426380,22656696338.093624,2990819388.774726,-0.426930,0.426893,0.056349
-2.260000,-1.720000,3.982025,0.040000,-70358413782.278107,-23120383035.542919,23115344015.984543,3598809813.847122,-0.435573,0.435535,0.067804
-2.220000,-1.720000,3.952669,0.040000,-70127037830.818924,-23667071083.580315,23661922688.631035,4213959981.320498,-0.445872,0.445833,0.079393
-2.180000,-1.720000,3.923500,0.040000,-69857786736.063034,-24303401119.090031,24298128121.495800,4836282050.741126,-0.457860,0.457821,0.091118
-2.140000,-1.720000,3.894524,0.040000,-69549642178.265182,-25031542823.241661,25026128357.784573,5465278486.201931,-0.471578,0.471537,0.102969
-2.100000,-1.720000,3.865744,0.040000,-69201438919.684006,-25853927183.439247,25848362773.549911,6099864482.062090,-0.487072,0.487030,0.114925
-2.060000,-1.720000,3.837166,0.040000,-68811860914.347580,-26773174044.171600,26767453428.985920,6738248152.044394,-0.504390,0.504347,0.126953
-2.020000,-1.720000,3.808794,0.040000,-68379437134.687469,-27791964737.713268,27786092095.037022,7377779298.163795,-0.523584,0.523539,0.139002
-1.980000,-1.720000,3.780631,0.040000,-67902537280.940010,-28912955400.587212,28906938633.356075,8014776821.153696,-0.544703,0.544657,0.151003
-1.940000,-1.720000,3.752246,0.040000,-67379367555.039543,-30138605848.591267,30132467372.783375,8644335333.547333,-0.567794,0.567748,0.162864
-1.900000,-1.720000,3.723973,0.040000,-66807966727.306099,-31471041374.373779,31464810830.225105,9260116585.171446,-0.592897,0.592850,0.174466
-1.860000,-1.720000,3.695759,0.040000,-66186202768.695259,-32911799284.470825,32905527227.100079,9854125252.600960,-0.620042,0.619995,0.185657
-1.820000,-1.720000,3.667372,0.040000,-65511770399.192513,-34461602753.638031,34455352483.193214,10416478338.228306,-0.649241,0.649194,0.196252
-1.780000,-1.720000,3.639203,0.040000,-64782189976.248177,-36119985700.762360,36113850221.506500,10935172416.365175,-0.680487,0.680441,0.206025
-1.740000,-1.720000,3.610831,0.040000,-63994808257.160156,-37884941628.790092,37879034189.456673,11395866146.849659,-0.713741,0.713696,0.214705
-1.700000,-1.720000,3.582547,0.040000,-63146801671.530533,-39752388311.271576,39746862774.028152,11781691042.538822,-0.748927,0.748885,0.221974
-1.660000,-1.720000,3.554353,0.040000,-62235182880.452728,-41715659838.115929,41710699055.044151,12073120174.514147,-0.785919,0.785882,0.227465
-1.620000,-1.720000,3.525950,0.040000,-61256811523.225288,-43764785569.887665,43760624635.527122,12247920419.157291,-0.824530,0.824499,0.230758
-1.580000,-1.720000,3.497775,0.040000,-60208410209.178795,-45885818720.444496,45882729331.240517,12281233525.504747,-0.864498,0.864475,0.231386
-1.540000,-1.720000,3.469417,0.040000,-59086586932.013214,-48059945869.403702,48058260671.211159,12145826079.318609,-0.905468,0.905455,0.228834
-1.500000,-1.720000,3.441121,0.040000,-57887865215.875710,-50262709453.109825,50262798942.266792,11812568503.160488,-0.946979,0.946980,0.222556
-1.460000,-1.720000,3.412949,0.040000,-56608723356.226685,-52463055522.905045,52465349862.466827,11251192650.719740,-0.988447,0.988465,0.211979
-1.420000,-1.720000,3.384530,0.040000,-55245644140.446831,-54622630601.050087,54627583674.421936,10431391794.985352,-1.029150,1.029187,0.196533
-1.380000,-1.720000,3.356346,0.040000,-53795176308.820816,-56695031966.739449,56703135217.091972,9324302516.410110,-1.068213,1.068274,0.175675
-1.340000,-1.720000,3.328405,0.040000,-52254008790.404152,-58625546368.294197,58637273412.117363,7904405982.569550,-1.104606,1.104694,0.148924
-1.300000,-1.720000,3.300712,0.040000,-50619058285.463730,-60351074541.420555,60366881503.868179,6151836614.200086,-1.137139,1.137258,0.115904
-1.260000,-1.720000,3.273274,0.040000,-48887570122.472717,-61800885838.363121,61821131878.355568,4055056545.244497,-1.164479,1.164632,0.076400
-1.220000,-1.720000,3.246096,0.040000,-47057231358.097870,-62897861078.696709,62922794316.911018,1613771857.057477,-1.185173,1.185361,0.030404
-1.180000,-1.720000,3.219187,0.040000,-45126293914.219627,-63560926410.585320,63590584001.553963,-1158091537.833126,-1.197692,1.197916,-0.021819
-1.140000,-1.720000,3.192551,0.040000,-43093704064.996758,-63708205126.876762,63742395888.208458,-4229638088.333408,-1.200493,1.200750,-0.079689
-1.100000,-1.720000,3.166197,0.040000,-40959232998.471085,-63261530511.854248,63299733880.627487,-7550823135.728532,-1.192100,1.192388,-0.142262
-1.060000,-1.720000,3.140131,0.040000,-38723601484.520103,-62151566116.421364,62192940062.090538,-11051263673.013052,-1.171205,1.171517,-0.208212
-1.020000,-1.720000,3.114361,0.040000,-36388590221.801483,-60323964941.908447,60367279927.405396,-14640450395.264904,-1.136783,1.137110,-0.275835
-0.980000,-1.720000,3.088894,0.040000,-33957126318.199203,-57745404119.836716,57789116207.265106,-18209738412.440292,-1.088204,1.088533,-0.343082
-0.940000,-1.720000,3.063737,0.040000,-31433336017.753601,-54409652473.194847,54451909779.559792,-21636340161.173668,-1.025348,1.025667,-0.407641
-0.900000,-1.720000,3.038899,0.040000,-28822554327.457085,-50342147528.139481,50380954611.904503,-24789347340.946701,-0.948695,0.948987,-0.467046
-0.860000,-1.720000,3.014386,0.040000,-26131283976.686096,-45603155630.070076,45636458943.468170,-27537508793.123421,-0.859378,0.859629,-0.518823
-0.820000,-1.720000,2.990208,0.040000,-23367099035.249454,-40287980855.340019,40313903003.243568,-29758202538.328312,-0.759195,0.759391,-0.560662
-0.780000,-1.720000,2.966372,0.040000,-20538492560.034836,-34524674319.909340,34541627864.628090,-31346747690.699142,-0.650561,0.650688,-0.590591
-0.740000,-1.720000,2.942887,0.040000,-17654672290.991341,-28468215552.629429,28475129394.097935,-32225038970.627178,-0.536397,0.536449,-0.607138
-0.700000,-1.720000,2.919761,0.040000,-14725313321.975840,-22292432560.752895,22288802175.088287,-32348443521.663811,-0.419982,0.419954,-0.609463
-0.660000,-1.720000,2.897003,0.040000,-11760280977.853781,-16179401675.630262,16165415923.895695,-31710064485.601116,-0.304750,0.304645,-0.597436
-0.620000,-1.720000,2.874621,0.040000,-8769340390.563953,-10308374102.547207,10284831246.412519,-30341781432.842003,-0.194083,0.193905,-0.571657
-0.580000,-1.720000,2.852625,0.040000,-5761870769.522321,-4844409177.522536,4812707501.803636,-28311920651.675259,-0.091092,0.090853,-0.533413
-0.540000,-1.720000,2.831022,0.040000,-2746602058.965307,71070012.458654,-109142287.144479,-25719861428.045368,0.001554,-0.001841,-0.484577
-0.500000,-1.720000,2.809823,0.040000,268610592.827290,4327909711.923902,-4370271410.976845,-22688295155.513206,0.081780,-0.082099,-0.427461
-0.460000,-1.720000,2.789037,0.040000,3276962793.938864,7851384043.006577,-7895916490.038180,-19354114530.592346,0.148176,-0.148512,-0.364643
-0.420000,-1.720000,2.768673,0.040000,6272820252.272299,10603798592.255188,-10648436738.468819,-15859007619.638826,0.200034,-0.200370,-0.298793
-0.380000,-1.720000,2.748739,0.040000,9251779326.555307,12582677540.790689,-12625620396.041962,-12340745204.089771,0.237308,-0.237631,-0.232507
-0.340000,-1.720000,2.729247,0.040000,12210671223.158129,13817184527.726694,-13856910446.936275,-8925934632.208618,0.260548,-0.260848,-0.168170
-0.300000,-1.720000,2.710205,0.040000,15147515917.249170,14362399812.623808,-14397789070.570953,-5724715202.913169,0.270796,-0.271063,-0.107857
-0.260000,-1.720000,2.691622,0.040000,18061434468.077164,14293349229.007330,-14323611450.562252,-2827562115.789577,0.269466,-0.269694,-0.053273
-0.220000,-1.720000,2.673509,0.040000,20952529638.109818,13698388083.902767,-13723109672.232895,-304095166.836201,0.258225,-0.258412,-0.005729
-0.180000,-1.720000,2.655875,0.040000,23821744931.269447,12673637486.602880,-12692652021.267179,1796410176.888388,0.238886,-0.239029,0.033845
-0.140000,-1.720000,2.638729,0.040000,26670711336.780975,11317760520.396542,-11331159877.133726,3443230034.701262,0.213309,-0.213410,0.064872
-0.100000,-1.720000,2.622081,0.040000,29501589697.116863,9728422189.739571,-9736410690.120668,4621586035.633105,0.183334,-0.183394,0.087073
-0.060000,-1.720000,2.605941,0.040000,32316914778.254890,7999379867.166142,-8002286158.945530,5329682848.909654,0.150729,-0.150751,0.100414
-0.020000,-1.720000,2.590319,0.040000,35119445285.083885,6219245727.131337,-6217391845.068019,5575794003.573123,0.117164,-0.117150,0.105051
0.020000,-1.720000,2.575223,0.040000,37912022235.628494,4470634526.828301,-4464371480.268342,5375717432.783635,0.084194,-0.084147,0.101282
0.060000,-1.720000,2.560662,0.040000,40697436661.253807,2830569041.161254,-2820175831.195119,4750830551.600066,0.053271,-0.053192,0.089508
0.100000,-1.720000,2.546647,0.040000,43478306424.144302,1370764254.095336,-1356515462.468327,3726882744.256045,0.025745,-0.025638,0.070217
0.140000,-1.720000,2.533186,0.040000,46256961307.427673,158606358.924239,-140705238.862048,2333580158.998570,0.002887,-0.002752,0.043966
0.180000,-1.720000,2.520288,0.040000,49035335250.930595,-742566564.782353,763887995.211201,604929751.842526,-0.014111,0.014272,0.011397
0.220000,-1.720000,2.507962,0.040000,51814864895.404480,-1273062060.783826,1297579766.933885,-1419782070.897261,-0.024124,0.024309,-0.026750
0.260000,-1.720000,2.496216,0.040000,54596394222.546875,-1377634295.991299,1405010220.954509,-3694597814.971051,-0.026110,0.026316,-0.069608
0.300000,-1.720000,2.485058,0.040000,57380086176.680977,-1006553046.776368,1036359368.609098,-6165387064.899452,-0.019133,0.019357,-0.116159
0.340000,-1.720000,2.474497,0.040000,60165343389.897125,-118070638.173100,149670547.385485,-8768598979.918816,-0.002403,0.002641,-0.165205
0.380000,-1.720000,2.464539,0.040000,62950741545.128525,1318877122.817481,-1286287795.647165,-11430657905.365227,0.024664,-0.024419,-0.215360
0.420000,-1.720000,2.455193,0.040000,65733980081.194221,3320897057.019579,-3288372277.962089,-14068376894.272995,0.062384,-0.062139,-0.265056
0.460000,-1.720000,2.446466,0.040000,68511855844.090370,5886743406.668431,-5855494088.066657,-16590685371.897528,0.110733,-0.110498,-0.312578
0.500000,-1.720000,2.438363,0.040000,71280265468.711975,8993759475.410225,-8965170292.857475,-18901826969.375149,0.169286,-0.169071,-0.356121
0.540000,-1.720000,2.430892,0.040000,74034241739.082886,12595792696.024729,-12571262989.732838,-20905971886.921387,0.237173,-0.236989,-0.393881
0.580000,-1.720000,2.424058,0.040000,76768027602.388214,16622114875.149094,-16603014283.244061,-22512948610.434956,0.313062,-0.312918,-0.424157
0.620000,-1.720000,2.417866,0.040000,79475189140.124207,20978818376.319466,-20966290688.381168,-23644555220.066242,0.395182,-0.395088,-0.445477
0.660000,-1.720000,2.412322,0.040000,82148765623.316925,25551890495.874107,-25546799276.416302,-24240735062.166904,0.481384,-0.481345,-0.456710
0.700000,-1.720000,2.407429,0.040000,84781451366.049759,30212877380.615349,-30215640919.846752,-24264815788.645023,0.569244,-0.569265,-0.457163
0.740000,-1.720000,2.403193,0.040000,87365800718.904221,34825745271.614311,-34836343848.479774,-23707075636.933762,0.656197,-0.656277,-0.446655
0.780000,-1.720000,2.399616,0.040000,89894444924.346909,39255210460.101868,-39273115233.236176,-22586085200.671997,0.739692,-0.739827,-0.425535
0.820000,-1.720000,2.396701,0.040000,92360307935.617432,43374726804.872032,-43399007382.412155,-20947585284.806854,0.817342,-0.817525,-0.394665
0.860000,-1.720000,2.394451,0.040000,94756808153.751678,47074150537.522224,-47103505453.220016,-18861001656.892536,0.887070,-0.887291,-0.355352
0.900000,-1.720000,2.392868,0.040000,97078034223.311630,50265404617.580482,-50298342272.655464,-16414041103.224880,0.947216,-0.947464,-0.309250
0.940000,-1.720000,2.391953,0.040000,99318885545.261749,52886475855.218803,-52921393053.189323,-13706044086.593220,0.996609,-0.996872,-0.258230
0.980000,-1.720000,2.391706,0.040000,101475171446.732895,54902676197.967056,-54938042530.352791,-10840900180.713156,1.034598,-1.034865,-0.204249
1.020000,-1.720000,2.391706,0.040000,103543666676.729431,56306074715.407578,-56340488808.944778,-7920294789.836102,1.061034,-1.061293,-0.149223
1.060000,-1.720000,2.391953,0.040000,105522124398.629440,57112669297.631905,-57144987337.247192,-5037932983.572076,1.076218,-1.076462,-0.094918
1.100000,-1.720000,2.392868,0.040000,107409250876.995636,57358575725.105576,-57387906971.898041,-2275156046.563486,1.080835,-1.081056,-0.042865
1.140000,-1.720000,2.394451,0.040000,109204648173.956635,57095101203.224052,-57120865024.087036,301853213.645914,1.075850,-1.076045,0.005687
1.180000,-1.720000,2.396701,0.040000,110908732431.046951,56383951649.865822,-56405818118.850616,2643314803.551774,1.062430,-1.062595,0.049802
1.220000,-1.720000,2.399616,0.040000,112522635609.187271,55292379503.924133,-55310276006.590508,4715731055.674578,1.041842,-1.041977,0.088847
1.260000,-1.720000,2.403193,0.040000,114048098189.057785,53889225142.507225,-53903251643.762009,6500706350.333253,1.015384,-1.015489,0.122477
1.300000,-1.720000,2.407429,0.040000,115487359369.036377,52241452208.672928,-52251868862.721474,7993032176.099198,0.984318,-0.984397,0.150593
1.340000,-1.720000,2.412322,0.040000,116843050090.895050,50411799823.399902,-50418945012.766167,9198368947.783499,0.949828,-0.949882,0.173303
1.380000,-1.720000,2.417866,0.040000,118118092847.976288,48456996418.800026,-48461277599.461998,10130791852.655161,0.912982,-0.913014,0.190870
1.420000,-1.720000,2.424058,0.040000,119315610958.581284,46426933020.268188,-46428762255.717934,10810422390.725948,0.874721,-0.874734,0.203675
1.460000,-1.720000,2.430892,0.040000,120438848810.630478,44364204547.398750,-44364000982.757812,11261282824.708199,0.835846,-0.835845,0.212169
1.500000,-1.720000,2.438363,0.040000,121491103663.162735,42304310893.297676,-42302456155.501747,11509466369.067265,0.797027,-0.797013,0.216845
1.540000,-1.720000,2.446466,0.040000,122475668844.359955,40275981824.981102,-40272833110.274620,11581649455.765699,0.758805,-0.758781,0.218205
1.580000,-1.720000,2.455193,0.040000,123395787697.155869,38301884146.476440,-38297745438.041473,11503950926.404228,0.721606,-0.721575,0.216741
1.620000,-1.720000,2.464539,0.040000,124254617278.460983,36399268730.058464,-36394409946.913177,11301103228.713591,0.685756,-0.685719,0.212919
1.660000,-1.720000,2.474497,0.040000,125055200663.341248,34580807932.556885,-34575446509.010376,10995900971.587063,0.651492,-0.651452,0.207169
1.700000,-1.720000,2.485058,0.040000,125800446629.341187,32855274134.023045,-32849595844.466221,10608872661.357351,0.618980,-0.618938,0.199877
1.740000,-1.720000,2.496216,0.040000,126493115536.194656,31228301105.013058,-31222447607.276779,10158134320.353720,0.588326,-0.588282,0.191385
1.780000,-1.720000,2.507962,0.040000,127135810278.320526,29702955233.543335,-29697043693.905537,9659375102.225666,0.559587,-0.559543,0.181988
1.820000,-1.720000,2.520288,0.040000,127730971310.634476,28280340832.883362,-28274454644.047852,9125942171.301811,0.532785,-0.532740,0.171938
1.860000,-1.720000,2.533186,0.040000,128280874858.444550,26960023988.720737,-26954229814.605328,8568987787.429047,0.507910,-0.507866,0.161445
1.900000,-1.720000,2.546647,0.040000,128787633560.497299,25740474593.163673,-25734814773.165024,7997658062.872264,0.484933,-0.484891,0.150681
1.940000,-1.720000,2.560662,0.040000,129253198903.620102,24619353346.909286,-24613859991.760963,7419299400.078501,0.463812,-0.463770,0.139784
1.980000,-1.720000,2.575223,0.040000,129679364928.562485,23593815868.367661,-23588504257.770245,6839672518.204651,0.444491,-0.444451,0.128863
2.020000,-1.720000,2.590319,0.040000,130067772774.883102,22660692499.879272,-22655572395.514816,6263160224.398333,0.426912,-0.426873,0.118002
2.060000,-1.720000,2.605941,0.040000,130419915726.179596,21816689181.634552,-21811758899.268936,5692965992.590342,0.411011,-0.410974,0.107259
2.100000,-1.720000,2.622081,0.040000,130737144479.304459,21058492954.410542,-21053748229.407906,5131296205.103526,0.396727,-0.396692,0.096677
2.140000,-1.720000,2.638729,0.040000,131020672426.390594,20382903964.156887,-20378332461.758755,4579526893.241469,0.384000,-0.383965,0.086281
2.180000,-1.720000,2.655875,0.040000,131271580775.719284,19786898201.783039,-19782486237.399384,4038350766.108737,0.372772,-0.372738,0.076085
2.220000,-1.720000,2.673509,0.040000,131490823375.799728,19267723645.944160,-19263451118.647217,3507904459.678449,0.362991,-0.362959,0.066091
2.260000,-1.720000,2.691622,0.040000,131679231119.807190,18822951816.193951,-18818800365.794151,2987868106.116399,0.354612,-0.354581,0.056293
2.300000,-1.720000,2.710205,0.040000,131837515818.227310,18450602845.740959,-18446595668.527905,2477528729.863190,0.347597,-0.347567,0.046678
2.340000,-1.720000,2.729247,0.040000,131966273343.656189,18149725112.426437,-18146368912.681278,1975803529.705059,0.341932,-0.341907,0.037225
2.380000,-1.720000,2.748739,0.040000,132065984378.320007,17921293491.889908,-17913222419.934113,1481716958.041745,0.337602,-0.337541,0.027916
2.420000,-1.720000,2.768673,0.040000,132136988144.101883,17776270499.540974,-17784595908.615604,1119268994.644945,0.334962,-0.335025,0.021088
2.460000,-1.720000,2.789037,0.040000,132179153270.229065,17820134616.945969,-17951380287.437511,909487416.103305,0.336483,-0.337473,0.017135
-2.500000,-1.680000,4.136105,0.040000,-35631346912.883530,-2758232285078.042969,19492430916369.664062,2067848257721.038086,-146.551296,272.664097,38.959460
-2.460000,-1.680000,4.105512,0.040000,-71249008439.487000,184269740840.473175,14279508532103.431641,1214216797367.083252,-78.280041,187.282428,22.876548
-2.420000,-1.680000,4.075081,0.040000,-71197636119.602615,-899051206916.624023,4632950160228.925781,250220478415.216980,-38.043292,66.182821,4.714299
-2.380000,-1.680000,4.044818,0.040000,-71112920586.965714,-66617732331.151405,153608946378.835052,2050899006.692746,-1.746806,2.402392,0.038640
-2.340000,-1.680000,4.014725,0.040000,-70994052276.440063,-21647245551.881165,21641594057.050663,2716011739.825284,-0.407815,0.407772,0.051171
-2.300000,-1.680000,3.984806,0.040000,-70840542004.597626,-22013828641.469860,22008852496.678982,3402666890.103181,-0.414725,0.414688,0.064108
-2.260000,-1.680000,3.955066,0.040000,-70651802175.001328,-22465003275.862030,22459982086.862186,4097383109.468757,-0.423225,0.423187,0.077197
-2.220000,-1.680000,3.925507,0.040000,-70427110710.336151,-23003473889.096283,22998322953.361465,4801116512.328462,-0.433370,0.433331,0.090456
-2.180000,-1.680000,3.896136,0.040000,-70165605853.108109,-23631628528.154976,23626319898.251110,5514291322.299313,-0.445204,0.445164,0.103892
-2.140000,-1.680000,3.866954,0.040000,-69866282315.769638,-24352216309.148907,24346728000.907513,6236765952.138648,-0.458779,0.458737,0.117504
-2.100000,-1.680000,3.837968,0.040000,-69527986885.191650,-25168357409.091434,25162671127.039070,6967741442.649344,-0.474154,0.474111,0.131276
-2.060000,-1.680000,3.809182,0.040000,-69149413434.919617,-26083490199.753662,26077591597.781414,7705630990.178359,-0.491395,0.491350,0.145179
-2.020000,-1.680000,3.780599,0.040000,-68729097430.502899,-27101298290.564175,27095178367.545963,8447895953.517186,-0.510570,0.510523,0.159163
-1.980000,-1.680000,3.752225,0.040000,-68265410043.098557,-28225621352.941292,28219277554.102871,9190851824.897022,-0.531751,0.531703,0.173161
-1.940000,-1.680000,3.724065,0.040000,-67756552016.719513,-29460336862.968853,29453775537.144836,9929445949.977102,-0.555013,0.554963,0.187077
-1.900000,-1.680000,3.695678,0.040000,-67200547476.948647,-30809209387.002522,30802447988.352844,10657008659.499323,-0.580425,0.580374,0.200784
-1.860000,-1.680000,3.667405,0.040000,-66595237925.619881,-32275689980.848129,32268760935.957291,11364980064.273193,-0.608054,0.608001,0.214123
-1.820000,-1.680000,3.639192,0.040000,-65938276740.874130,-33862660580.043579,33855614889.357410,12042617225.031591,-0.637952,0.637899,0.226890
-1.780000,-1.680000,3.610803,0.040000,-65227124595.607956,-35572102072.514206,35565014893.634674,12676689435.801910,-0.670159,0.670106,0.238836
-1.740000,-1.680000,3.582636,0.040000,-64459046323.560463,-37404679919.945724,37397655776.299934,13251174460.552160,-0.704686,0.704633,0.249660
-1.700000,-1.680000,3.554263,0.040000,-63631109900.742012,-39359223209.400558,39352403372.629349,13746974324.310301,-0.741512,0.741461,0.259001
-1.660000,-1.680000,3.525979,0.040000,-62740188373.273094,-41432093000.327728,41425662077.238808,14141677467.804178,-0.780568,0.780520,0.266437
-1.620000,-1.680000,3.497786,0.040000,-61782965747.285912,-43616417771.019501,43610612241.049667,14409402939.357275,-0.821726,0.821682,0.271482
-1.580000,-1.680000,3.469382,0.040000,-60755948060.342857,-45901201922.822632,45896316769.066643,14520773552.943003,-0.864778,0.864741,0.273580
-1.540000,-1.680000,3.441208,0.040000,-59655481065.170464,-48270298335.639496,48266694529.429787,14443075973.759634,-0.909420,0.909393,0.272116
-1.500000,-1.680000,3.412849,0.040000,-58477776162.935524,-50701277079.633865,50699384835.437508,14140677642.409315,-0.955231,0.955216,0.266419
-1.460000,-1.680000,3.384553,0.040000,-57218946398.230652,-53164214689.577339,53164535073.264221,13575779213.303114,-1.001646,1.001649,0.255776
-1.420000,-1.680000,3.356383,0.040000,-55875054441.132538,-55620487303.380005,55623585641.504265,12709586598.661388,-1.047940,1.047963,0.239456
-1.380000,-1.680000,3.327961,0.040000,-54442174484.781548,-58021652932.085609,58028146497.517586,11503982555.612835,-1.093198,1.093247,0.216742
-1.340000,-1.680000,3.299780,0.040000,-52916469827.444199,-60308584957.330933,60319117167.644485,9923762255.790985,-1.136308,1.136388,0.186969
-1.300000,-1.680000,3.271844,0.040000,-51294287516.480499,-62411024233.605171,62426228592.712006,7939462520.310245,-1.175946,1.176060,0.149584
-1.260000,-1.680000,3.244162,0.040000,-49572270743.088882,-64247798136.232903,64268244334.844696,5530758617.932974,-1.210581,1.210735,0.104203
-1.220000,-1.680000,3.216738,0.040000,-47747488623.524109,-65727937774.926804,65754066183.376236,2690319544.509575,-1.238500,1.238697,0.050687
-1.180000,-1.680000,3.189581,0.040000,-45817581547.910217,-66752972019.656258,66785012030.744484,-572093658.042843,-1.257846,1.258087,-0.010779
-1.140000,-1.680000,3.162696,0.040000,-43780918416.823067,-67220587138.191315,67258471975.140411,-4225628311.084527,-1.266689,1.266974,-0.079613
-1.100000,-1.680000,3.136091,0.040000,-41636759889.495354,-67029798155.662094,67073077757.766823,-8214908910.159262,-1.263125,1.263451,-0.154774
-1.060000,-1.680000,3.109773,0.040000,-39385419383.463478,-66087562443.954559,66135335383.883194,-12457752363.553808,-1.245398,1.245758,-0.234711
-1.020000,-1.680000,3.083749,0.040000,-37028411255.503136,-64316601948.164574,64367473574.610130,-16844660214.078735,-1.212050,1.212433,-0.317363
-0.980000,-1.680000,3.058027,0.040000,-34568573706.462738,-61663870861.623703,61715962614.613960,-21240682195.707077,-1.162078,1.162470,-0.400187
-0.940000,-1.680000,3.032614,0.040000,-32010152919.811928,-58108896530.406357,58159910334.732880,-25490086248.650158,-1.095094,1.095478,-0.480248
-0.900000,-1.680000,3.007519,0.040000,-29358835191.569408,-53670931231.791061,53718284852.630196,-29423977999.329647,-1.011459,1.011816,-0.554365
-0.860000,-1.680000,2.982748,0.040000,-26621715694.653046,-48413820974.775955,48454839872.561836,-32870601229.097130,-0.912376,0.912685,-0.619301
-0.820000,-1.680000,2.958312,0.040000,-23807196194.152153,-42447503570.830681,42479662566.769455,-35667577553.383949,-0.799917,0.800160,-0.671998
-0.780000,-1.680000,2.934217,0.040000,-20924809368.863426,-35925420164.720390,35946595113.963966,-37674894620.697304,-0.676975,0.677135,-0.709817
-0.740000,-1.680000,2.910472,0.040000,-17984973918.614468,-29037543295.491375,29046247043.016491,-38787138207.221436,-0.547133,0.547199,-0.730772
-0.700000,-1.680000,2.887087,0.040000,-14998691564.730774,-21999434339.633415,21994987994.620541,-38943379802.994591,-0.414457,0.414423,-0.733716
-0.660000,-1.680000,2.864069,0.040000,-11977203378.678873,-15038299751.471447,15020920915.026012,-38133335381.044380,-0.283232,0.283101,-0.718454
-0.620000,-1.680000,2.841428,0.040000,-8931627598.775915,-8377611787.457385,8348392476.404777,-36398888714.126785,-0.157674,0.157454,-0.685776
-0.580000,-1.680000,2.819172,0.040000,-5872603401.229251,-2222033002.901447,2182822575.052544,-33830741056.156094,-0.041643,0.041347,-0.637391
-0.540000,-1.680000,2.797311,0.040000,-2809964577.298896,3255581341.609449,-3302379721.288312,-30560668322.624214,0.061602,-0.061954,-0.575781
-0.500000,-1.680000,2.775855,0.040000,247536191.196924,7923773672.336091,-7975447090.324033,-26750485701.204491,0.149581,-0.149970,-0.503995
-0.460000,-1.680000,2.754812,0.040000,3292437201.211681,11697816073.451298,-11751600799.262974,-22579213411.774174,0.220698,-0.221103,-0.425405
-0.420000,-1.680000,2.734193,0.040000,6318703207.215814,14540677284.404305,-14593984720.106050,-18230046199.536728,0.274256,-0.274658,-0.343465
-0.380000,-1.680000,2.714007,0.040000,9321784939.882856,16460025603.600948,-16510622254.525019,-13878563643.060194,0.310402,-0.310784,-0.261480
-0.340000,-1.680000,2.694263,0.040000,12298607363.849554,17502205277.500572,-17548320495.247082,-9683249142.703728,0.330012,-0.330360,-0.182438
-0.300000,-1.680000,2.674972,0.040000,15247496231.068556,17744262283.945923,-17784635754.370926,-5778913886.772738,0.334540,-0.334845,-0.108878
-0.260000,-1.680000,2.656143,0.040000,18168055570.273155,17285210438.683292,-17319075236.495476,-2273152757.306722,0.325855,-0.326110,-0.042828
-0.220000,-1.680000,2.637786,0.040000,21061010017.035583,16237488363.202126,-16264516869.035540,754425546.240970,0.306076,-0.306280,0.014214
-0.180000,-1.680000,2.619911,0.040000,23928025569.611755,14719409334.742853,-14739624846.478214,3250708590.795097,0.277436,-0.277589,0.061245
-0.140000,-1.680000,2.602528,0.040000,26771520826.374718,12849041407.135798,-12862723108.633823,5185973703.156495,0.242161,-0.242264,0.097707
-0.100000,-1.680000,2.585648,0.040000,29594478458.815220,10739796756.163580,-10747377764.149229,6549837567.141896,0.202387,-0.202444,0.123403
-0.060000,-1.680000,2.569279,0.040000,32400263993.733307,8497696587.017834,-8499678222.895480,7346894342.141102,0.160113,-0.160128,0.138420
-0.020000,-1.680000,2.553432,0.040000,35192456277.599960,6220194700.178421,-6217071102.353903,7592581671.637335,0.117174,-0.117151,0.143049
0.020000,-1.680000,2.538116,0.040000,37974691548.370270,3996226013.564984,-3988435375.659690,7309683460.859082,0.075247,-0.075188,0.137719
0.060000,-1.680000,2.523342,0.040000,40750521050.195068,1907178700.623420,-1895069237.475492,6525740336.283630,0.035864,-0.035773,0.122949
0.100000,-1.680000,2.509119,0.040000,43523280685.009598,28377636.005138,-12201600.810784,5271523723.872582,0.000443,-0.000321,0.099319
0.140000,-1.680000,2.495455,0.040000,46295970342.584274,-1569249509.341577,1589325581.402917,3580639444.015607,-0.029679,0.029830,0.067461
0.180000,-1.680000,2.482361,0.040000,49071140294.884354,-2817760936.272422,2841616973.575691,1490232052.288315,-0.053223,0.053403,0.028077
0.220000,-1.680000,2.469845,0.040000,51850782413.689377,-3651388889.304789,3678898376.072857,-957361082.127537,-0.068950,0.069157,-0.018037
0.260000,-1.680000,2.457917,0.040000,54636224960.109512,-4006716628.177261,4037673175.053604,-3712295092.436012,-0.075664,0.075897,-0.069942
0.300000,-1.680000,2.446585,0.040000,57428031233.117722,-3824040459.948709,3858084483.934172,-6714653841.710865,-0.072240,0.072496,-0.126508
0.340000,-1.680000,2.435857,0.040000,60225904282.523514,-3050065456.878847,3086608243.362017,-9892137652.217089,-0.057672,0.057947,-0.186374
0.380000,-1.680000,2.425741,0.040000,63028601976.765961,-1641822657.354226,1679992183.764708,-13158556545.771214,-0.031149,0.031436,-0.247915
0.420000,-1.680000,2.416245,0.040000,65833868686.572800,428418487.261298,-389808790.625593,-16413689335.394434,0.007853,-0.007562,-0.309243
0.460000,-1.680000,2.407376,0.040000,68638391383.461403,3167791910.927185,-3130226103.900614,-19544995281.537418,0.059471,-0.059188,-0.368239
0.500000,-1.680000,2.399141,0.040000,71437788679.384766,6557711609.986640,-6522909420.541112,-22431480193.727634,0.123354,-0.123092,-0.422622
0.540000,-1.680000,2.391547,0.040000,74226640911.515472,10549899073.359388,-10519696299.864042,-24949720683.176476,0.198596,-0.198368,-0.470067
0.580000,-1.680000,2.384600,0.040000,76998567567.059753,15064400099.986082,-15040592381.131155,-26981677533.848469,0.283687,-0.283508,-0.508350
0.620000,-1.680000,2.378306,0.040000,79746355140.890930,19990359080.725506,-19974516202.025272,-28423549291.149628,0.376540,-0.376421,-0.535516
0.660000,-1.680000,2.372669,0.040000,82462134168.084869,25189904855.523872,-25183193989.012787,-29194613261.363735,0.474554,-0.474504,-0.550043
0.700000,-1.680000,2.367695,0.040000,85137599202.866409,30505132645.253651,-30508168484.562069,-29244851878.507648,0.574752,-0.574774,-0.550990
0.740000,-1.680000,2.363388,0.040000,87764260637.809448,35767578598.204727,-35780337979.644730,-28560225719.838993,0.673954,-0.674050,-0.538091
0.780000,-1.680000,2.359750,0.040000,90333713277.230057,40809220644.152153,-40831027201.080719,-27164741262.183189,0.768993,-0.769157,-0.511799
0.820000,-1.680000,2.356786,0.040000,92837904192.286942,45473673580.570374,-45503266429.302048,-25118928465.666687,0.856918,-0.857141,-0.473255
0.860000,-1.680000,2.354498,0.040000,95269382049.237457,49626274159.276733,-49661938582.371750,-22514893542.006378,0.935189,-0.935458,-0.424194
0.900000,-1.680000,2.352888,0.040000,97621511890.428329,53161866817.661652,-53201614469.289108,-19468627779.050838,1.001825,-1.002125,-0.366800
0.940000,-1.680000,2.351957,0.040000,99888642963.748840,56009565719.247505,-56051325424.764229,-16110622918.484644,1.055489,-1.055803,-0.303533
0.980000,-1.680000,2.351706,0.040000,102066222018.481354,58134185684.209625,-58175986316.017235,-12576002222.776911,1.095518,-1.095833,-0.236939
1.020000,-1.680000,2.351706,0.040000,104150849745.926743,59534589279.715500,-59574702972.370255,-8995311390.918886,1.121893,-1.122195,-0.169477
1.060000,-1.680000,2.351957,0.040000,106140282969.631897,60239509997.832924,-60276551790.508720,-5486870174.440684,1.135157,-1.135436,-0.103376
1.100000,-1.680000,2.352888,0.040000,108033389183.746246,60301703034.652283,-60334675042.622726,-2151237383.750488,1.136305,-1.136554,-0.040531
1.140000,-1.680000,2.354498,0.040000,109830062732.927856,59791268333.549599,-59819561914.013168,932024166.084401,1.126662,-1.126875,0.017560
1.180000,-1.680000,2.356786,0.040000,111531113236.246017,58788967900.261917,-58812326273.891960,3705413714.802851,1.107750,-1.107926,0.069812
1.220000,-1.680000,2.359750,0.040000,113138136904.184326,57380124308.424286,-57398585916.308815,6132744099.634658,1.081179,-1.081318,0.115544
1.260000,-1.680000,2.363388,0.040000,114653380466.125565,55649527425.401657,-55663355029.157394,8197053081.100140,1.048548,-1.048652,0.154437
1.300000,-1.680000,2.367695,0.040000,116079605850.721985,53677513822.366585,-53687126259.505020,9897672393.456060,1.011370,-1.011442,0.186478
1.340000,-1.680000,2.372669,0.040000,117419961881.728607,51537260015.769516,-51543167253.597931,11246907489.841366,0.971025,-0.971070,0.211898
1.380000,-1.680000,2.378306,0.040000,118677867338.192947,49293159892.350624,-49295911595.913162,12266692868.939737,0.928727,-0.928748,0.231112
1.420000,-1.680000,2.384600,0.040000,119856907982.838409,47000128888.232948,-47000272381.592926,12985485548.115019,0.885510,-0.885512,0.244654
1.460000,-1.680000,2.391547,0.040000,120960748697.815353,44703606457.220436,-44701659206.419365,13435558833.099487,0.842231,-0.842216,0.253134
1.500000,-1.680000,2.399141,0.040000,121993060734.759491,42440070658.539513,-42436500866.732803,13650774672.620958,0.799575,-0.799548,0.257189
1.540000,-1.680000,2.407376,0.040000,122957463278.380814,40237864912.433693,-40233082961.898636,13664847788.280041,0.758078,-0.758042,0.257454
1.580000,-1.680000,2.416245,0.040000,123857478007.620193,38118204482.189133,-38112558780.591568,13510071557.503494,0.718137,-0.718095,0.254538
1.620000,-1.680000,2.425741,0.040000,124696495059.637802,36096233814.714355,-36090013167.977417,13216449051.229183,0.680039,-0.679992,0.249006
1.660000,-1.680000,2.435857,0.040000,125477748706.538467,34182068996.684071,-34175506109.115364,12811161412.581318,0.643973,-0.643923,0.241370
1.700000,-1.680000,2.446585,0.040000,126204301086.339203,32381760276.802914,-32375038570.723774,12318303383.151997,0.610053,-0.610002,0.232084
1.740000,-1.680000,2.457917,0.040000,126879032446.113281,30698157722.494003,-30691417302.108608,11758820973.642561,0.578333,-0.578282,0.221543
1.780000,-1.680000,2.469845,0.040000,127504636517.564270,29131656020.437222,-29125001094.967384,11150593930.737226,0.548820,-0.548770,0.210084
1.820000,-1.680000,2.482361,0.040000,128083619829.527130,27680827932.752769,-27674332533.712837,10508615777.865891,0.521486,-0.521437,0.197988
1.860000,-1.680000,2.495455,0.040000,128618303946.892029,26342943125.976475,-26336657406.618786,9845233431.380522,0.496281,-0.496233,0.185490
1.900000,-1.680000,2.509119,0.040000,129110829801.572433,25114392002.512497,-25108346684.290771,9170417740.451315,0.473136,-0.473090,0.172776
1.940000,-1.680000,2.523342,0.040000,129563163439.315201,23991019013.089409,-23985230090.002460,8492043609.255098,0.451972,-0.451928,0.159995
1.980000,-1.680000,2.538116,0.040000,129977102645.112015,22968386171.273556,-22962857945.293514,7816165109.798896,0.432706,-0.432665,0.147261
2.020000,-1.680000,2.553432,0.040000,130354284027.031815,22041972534.530220,-22036700834.466034,7147275700.014122,0.415254,-0.415214,0.134659
2.060000,-1.680000,2.569279,0.040000,130696190235.937149,21207327736.145290,-21202301742.303459,6488547820.459994,0.399530,-0.399492,0.122248
2.100000,-1.680000,2.585648,0.040000,131004157076.669464,20460184251.955658,-20455388509.775616,5842048582.894146,0.385455,-0.385418,0.110068
2.140000,-1.680000,2.602528,0.040000,131279380328.280411,19796543076.525295,-19791958380.251789,5208930239.809414,0.372952,-0.372918,0.098139
2.180000,-1.680000,2.619911,0.040000,131522922137.350876,19212735879.051567,-19208340384.391010,4589594560.058348,0.361954,-0.361921,0.086471
2.220000,-1.680000,2.637786,0.040000,131735716882.715927,18705474406.175323,-18701243803.966640,3983830095.550551,0.352398,-0.352366,0.075058
2.260000,-1.680000,2.656143,0.040000,131918576433.796402,18271884151.717178,-18267789773.669563,3390919895.437577,0.344230,-0.344199,0.063887
2.300000,-1.680000,2.674972,0.040000,132072194748.069656,17909487614.404148,-17905455030.766018,2809715633.708281,0.337402,-0.337372,0.052937
2.340000,-1.680000,2.694263,0.040000,132197151859.356049,17615644972.686069,-17611082547.532089,2238663115.837072,0.331863,-0.331829,0.042178
2.380000,-1.680000,2.714007,0.040000,132293918812.227859,17389054948.337746,-17392241487.105118,1676063646.809867,0.327638,-0.327662,0.031578
2.420000,-1.680000,2.734193,0.040000,132362887587.349121,17237475378.399189,-17294733546.355366,1264977254.411402,0.325088,-0.325519,0.023833
2.460000,-1.680000,2.754812,0.040000,132404712512.174026,17001162071.617537,-17019877426.127018,1026512293.699896,0.320418,-0.320559,0.019340
-2.500000,-1.640000,4.110545,0.040000,-35785668912.338509,-209505924910.333740,21176034678224.554688,160283382046.526184,-122.453680,280.462302,3.019832
-2.460000,-1.640000,4.079760,0.040000,-71556950218.413086,1272811222740.312744,14846941596494.673828,43818419981.633827,-67.131145,188.613340,0.825564
-2.420000,-1.640000,4.049137,0.040000,-71508420035.727371,-780322369456.331543,4781336482626.291016,13207365469.330566,-37.316153,67.468724,0.248834
-2.380000,-1.640000,4.018678,0.040000,-71426665414.124039,-66102978978.269203,153457661080.583435,2290840603.660994,-1.739162,2.397487,0.043161
-2.340000,-1.640000,3.988388,0.040000,-71311827070.257446,-20924448003.062298,20920469189.612404,3035893526.999066,-0.394206,0.394176,0.057198
-2.300000,-1.640000,3.958270,0.040000,-71163501454.638870,-21280960675.744617,21276198446.981754,3806355249.859543,-0.400919,0.400883,0.071714
-2.260000,-1.640000,3.928329,0.040000,-70981118926.290787,-21722354391.820122,21717394383.828571,4586853843.460859,-0.409234,0.409196,0.086419
-2.220000,-1.640000,3.898568,0.040000,-70763973078.513275,-22250260272.852818,22245131838.081059,5378738650.297583,-0.419179,0.419140,0.101339
-2.180000,-1.640000,3.868991,0.040000,-70511219012.689392,-22867485040.199467,22862162992.969765,6182892267.613141,-0.430807,0.430766,0.116489
-2.140000,-1.640000,3.839604,0.040000,-70221868875.171402,-23577390363.038563,23571846323.704678,6999622181.868855,-0.444180,0.444139,0.131877
-2.100000,-1.640000,3.810410,0.040000,-69894786480.072067,-24383836822.460655,24378043510.577236,7828546521.020498,-0.459373,0.459329,0.147494
-2.060000,-1.640000,3.781413,0.040000,-69528681134.303436,-25291158334.963936,25285090633.828072,8668448230.746513,-0.476466,0.476420,0.163319
-2.020000,-1.640000,3.752619,0.040000,-69122100706.670822,-26304123547.547920,26297759631.454548,9517094404.728941,-0.495549,0.495501,0.179308
-1.980000,-1.640000,3.724032,0.040000,-68673424003.047951,-27427877992.201237,27421200818.749424,10371019775.226433,-0.516719,0.516669,0.195396
-1.940000,-1.640000,3.695656,0.040000,-68180852540.905205,-28667859499.487923,28660858907.940014,11225273489.485191,-0.540080,0.540027,0.211491
-1.900000,-1.640000,3.667498,0.040000,-67642401859.284485,-30029677289.365505,30022352771.405533,12073128569.543028,-0.565735,0.565680,0.227465
-1.860000,-1.640000,3.639109,0.040000,-67055892558.872894,-31518942016.267838,31511306393.847820,12905754475.423559,-0.593792,0.593734,0.243152
-1.820000,-1.640000,3.610837,0.040000,-66418941345.292267,-33141032084.448498,33133116156.780273,13711855324.527033,-0.624352,0.624292,0.258339
-1.780000,-1.640000,3.582625,0.040000,-65728952451.176773,-34900778187.185364,34892636599.204628,14477279752.621988,-0.657505,0.657444,0.272760
-1.740000,-1.640000,3.554235,0.040000,-64983109943.406036,-36802046165.444901,36793764517.254189,15184613471.985456,-0.693325,0.693263,0.286087
-1.700000,-1.640000,3.526069,0.040000,-64178371585.040657,-38847195304.149284,38838898692.251167,15812772542.710043,-0.731857,0.731794,0.297922
-1.660000,-1.640000,3.497695,0.040000,-63311465120.585876,-41036388895.808380,41028251724.694778,16336624622.203716,-0.773103,0.773042,0.307791
-1.620000,-1.640000,3.469410,0.040000,-62378888089.873413,-43366733672.885857,43358990668.097855,16726677176.213081,-0.817011,0.816952,0.315140
-1.580000,-1.640000,3.441220,0.040000,-61376912548.958481,-45831229506.906433,45824187310.217087,16948885975.753502,-0.863447,0.863394,0.319327
-1.540000,-1.640000,3.412813,0.040000,-60301596379.681976,-48417518064.355865,48411566729.446312,16964653786.152639,-0.912180,0.912136,0.319624
-1.500000,-1.640000,3.384641,0.040000,-59148803189.484550,-51106435183.205681,51102058061.088036,16731107173.521490,-0.962850,0.962817,0.315224
-1.460000,-1.640000,3.356281,0.040000,-57914233115.536797,-53870393931.315849,53868174182.181061,16201756900.926985,-1.014937,1.014920,0.305250
-1.420000,-1.640000,3.327985,0.040000,-56593467114.679298,-56671660746.080009,56672281628.678581,15327661504.454615,-1.067730,1.067735,0.288782
-1.380000,-1.640000,3.299816,0.040000,-55182027488.266739,-59460631607.421021,59464867413.509979,14059219579.105160,-1.120297,1.120329,0.264884
-1.340000,-1.640000,3.271392,0.040000,-53675457385.304413,-62174274689.394142,62182968191.010284,12348707808.048288,-1.171449,1.171514,0.232657
-1.300000,-1.640000,3.243213,0.040000,-52069421755.654167,-64734971324.083275,64748993904.395996,10153650784.297415,-1.219724,1.219829,0.191301
-1.260000,-1.640000,3.215284,0.040000,-50359831581.001488,-67050058473.239075,67070249115.706123,7441046660.238954,-1.263376,1.263528,0.140194
-1.220000,-1.640000,3.187612,0.040000,-48542992084.287010,-69012433942.702988,69039515359.417496,4192371813.866776,-1.300387,1.300591,0.078987
-1.180000,-1.640000,3.160204,0.040000,-46615773914.250610,-70502619893.361008,70537092433.711884,409144398.854539,-1.328505,1.328765,0.007709
-1.140000,-1.640000,3.133067,0.040000,-44575803970.838120,-71392659014.587296,71434678079.302826,-3881355187.672844,-1.345317,1.345633,-0.073127
-1.100000,-1.640000,3.106208,0.040000,-42421669612.408287,-71552123796.160309,71601371635.398514,-8620812584.358526,-1.348362,1.348733,-0.162421
-1.060000,-1.640000,3.079635,0.040000,-40153126622.655830,-70856321275.147614,70911891107.599518,-13715855307.492960,-1.335288,1.335707,-0.258415
-1.020000,-1.640000,3.053354,0.040000,-37771297828.007294,-69196474360.625565,69256789550.439621,-19036208209.555183,-1.304043,1.304497,-0.358653
-0.980000,-1.640000,3.027374,0.040000,-35278846129.495819,-66491261799.481712,66554056234.900116,-24415973319.035713,-1.253089,1.253562,-0.460011
-0.940000,-1.640000,3.001701,0.040000,-32680103576.881973,-62698662743.991386,62761045373.684418,-29658811428.978973,-1.181632,1.182102,-0.558789
-0.900000,-1.640000,2.976345,0.040000,-29981137661.463314,-57826653982.593948,57885272233.114784,-34547417736.504753,-1.089819,1.090261,-0.650893
-0.860000,-1.640000,2.951314,0.040000,-27189737859.868042,-51941073081.957809,51992373218.222397,-38857088742.191505,-0.978890,0.979276,-0.732090
-0.820000,-1.640000,2.926615,0.040000,-24315309994.374344,-45168990278.627441,45209553286.216293,-42372444356.417473,-0.851239,0.851545,-0.798321
-0.780000,-1.640000,2.902257,0.040000,-21368673127.005096,-37696314598.614685,37723224849.106453,-44905635321.813477,-0.710373,0.710575,-0.846048
-0.740000,-1.640000,2.878248,0.040000,-18361762867.526703,-29759080803.595936,29770271239.501251,-46313812420.775528,-0.560742,0.560826,-0.872579
-0.700000,-1.640000,2.854599,0.040000,-15307254999.532171,-21628835159.747139,21623348683.897373,-46513435813.380600,-0.407469,0.407427,-0.876340
-0.660000,-1.640000,2.831317,0.040000,-12218132682.119301,-13593552109.649391,13571670902.729292,-45489269991.849182,-0.255987,0.255822,-0.857044
-0.620000,-1.640000,2.808411,0.040000,-9107227560.559175,-5936346126.924480,5899563215.611389,-43296636220.355194,-0.111636,0.111359,-0.815734
-0.580000,-1.640000,2.785892,0.040000,-5986768610.646872,1085333597.262831,-1134494789.506865,-40056543589.091064,0.020726,-0.021097,-0.754689
-0.540000,-1.640000,2.763768,0.040000,-2867971775.295361,7257422527.081238,-7315707054.333845,-35944457159.595215,0.137063,-0.137503,-0.677214
-0.500000,-1.640000,2.742049,0.040000,239301432.847211,12421854173.348349,-12485638438.480314,-31174425278.051140,0.234395,-0.234876,-0.587344
-0.460000,-1.640000,2.720745,0.040000,3326796278.999464,16482959601.695219,-16548618584.570465,-25980871443.570953,0.310920,-0.311414,-0.489495
-0.420000,-1.640000,2.699866,0.040000,6388017870.595249,19407573966.498398,-19471799124.574299,-20600467662.568890,0.366013,-0.366497,-0.388125
-0.380000,-1.640000,2.679421,0.040000,9418284695.275366,21219674689.950970,-21279706476.466591,-15256182483.757875,0.400130,-0.400583,-0.287435
-0.340000,-1.640000,2.659420,0.040000,12414691082.213343,21991008320.280872,-22044766855.602356,-10144970027.521088,0.414627,-0.415032,-0.191137
-0.300000,-1.640000,2.639874,0.040000,15375993431.883213,21829437207.694706,-21875555405.796257,-5429810702.054173,0.411540,-0.411887,-0.102301
-0.260000,-1.640000,2.620793,0.040000,18302438711.400921,20866684899.228592,-20904461692.317291,-1236099507.743222,0.393354,-0.393639,-0.023289
-0.220000,-1.640000,2.602187,0.040000,21195554703.225399,19246851256.353344,-19276150246.978111,2348165817.525977,0.362787,-0.363008,0.044241
-0.180000,-1.640000,2.584066,0.040000,24057920299.362946,17116651564.449589,-17137768534.811214,5269256345.564489,0.322607,-0.322766,0.099276
-0.140000,-1.640000,2.566441,0.040000,26892931412.568546,14617918377.137814,-14631437869.367798,7502607855.319703,0.275486,-0.275588,0.141353
-0.100000,-1.640000,2.549321,0.040000,29704574483.478977,11882569511.385130,-11889226008.669800,9046685028.472448,0.223912,-0.223962,0.170445
-0.060000,-1.640000,2.532718,0.040000,32497215642.045425,9029964638.278864,-9030522376.557411,9916673868.435282,0.170133,-0.170137,0.186836
-0.020000,-1.640000,2.516640,0.040000,35275409779.088219,6166343309.689764,-6161503092.352907,10138717715.481661,0.116150,-0.116114,0.191019
0.020000,-1.640000,2.501100,0.040000,38043730469.437752,3385875551.281207,-3376211094.907065,9745201049.717768,0.063737,-0.063664,0.183605
0.060000,-1.640000,2.486105,0.040000,40806619109.836174,772821111.807053,-758741826.641832,8771364813.536566,0.014481,-0.014375,0.165258
0.100000,-1.640000,2.471667,0.040000,43568249857.708847,-1595668471.286160,1613928671.668150,7253395051.024715,-0.030167,0.030304,0.136658
0.140000,-1.640000,2.457796,0.040000,46332405924.991013,-3646550655.576125,3668915752.613299,5228068340.482083,-0.068830,0.068998,0.098500
0.180000,-1.640000,2.444500,0.040000,49102362472.981583,-5308201768.841353,5334703492.064377,2733963983.942481,-0.100159,0.100359,0.051509
0.220000,-1.640000,2.431790,0.040000,51880771852.911079,-6508592152.026463,6539290276.516741,-185913953.483169,-0.122799,0.123031,-0.003503
0.260000,-1.640000,2.419674,0.040000,54669548318.568611,-7174840763.471226,7209721588.500396,-3480481406.124524,-0.135375,0.135638,-0.065574
0.300000,-1.640000,2.408161,0.040000,57469751529.467026,-7234514176.354317,7273378117.931420,-7086442230.472944,-0.136522,0.136815,-0.133513
0.340000,-1.640000,2.397261,0.040000,60281470939.688309,-6618858913.515547,6661208114.285697,-10924350341.580465,-0.124943,0.125262,-0.205821
0.380000,-1.640000,2.386982,0.040000,63103716242.846138,-5267954683.212963,5312896431.714312,-14895626658.243198,-0.099505,0.099844,-0.280642
0.420000,-1.640000,2.377331,0.040000,65934322095.748589,-3137515455.510070,3183701555.605727,-18881357858.459362,-0.059374,0.059722,-0.355736
0.460000,-1.640000,2.368316,0.040000,68769877946.980698,-206706146.915277,252331166.017666,-22743669683.879440,-0.004152,0.004496,-0.428504
0.500000,-1.640000,2.359946,0.040000,71605695389.097153,3514033990.325025,-3471159188.723746,-26330244736.747433,0.065964,-0.065641,-0.496077
0.540000,-1.640000,2.352225,0.040000,74435825437.252716,7976457269.060379,-7938751345.013816,-29482125613.701378,0.150068,-0.149784,-0.555460
0.580000,-1.640000,2.345162,0.040000,77253136068.784592,13090631864.169107,-13060519605.242119,-32044372068.939404,0.246465,-0.246238,-0.603735
0.620000,-1.640000,2.338761,0.040000,80049456120.030518,18724906728.057663,-18704553114.001579,-33878535486.846050,0.352673,-0.352520,-0.638291
0.660000,-1.640000,2.333029,0.040000,82815785533.888336,24710429337.590374,-24701471992.618954,-34875404639.187141,0.465508,-0.465441,-0.657073
0.700000,-1.640000,2.327970,0.040000,85542564726.442612,30850241752.321281,-30853567890.935604,-34966196278.908829,0.581255,-0.581280,-0.658783
0.740000,-1.640000,2.323589,0.040000,88219988587.091125,36932183212.977097,-36947793995.958580,-34130419174.707146,0.695912,-0.696030,-0.643037
0.780000,-1.640000,2.319889,0.040000,90838344598.603668,42744109981.525421,-42771099269.859482,-32399066462.925308,0.805476,-0.805680,-0.610417
0.820000,-1.640000,2.316874,0.040000,93388350898.547318,48089473492.992523,-48126126506.119492,-29852522485.634792,0.906241,-0.906517,-0.562439
0.860000,-1.640000,2.314547,0.040000,95861469536.485229,52801215918.406425,-52845208581.343452,-26613446063.714367,0.995054,-0.995386,-0.501413
0.900000,-1.640000,2.312909,0.040000,98250172846.565475,56752257048.596252,-56800919132.080170,-22835705893.264210,1.069520,-1.069887,-0.430238
0.940000,-1.640000,2.311962,0.040000,100548146251.677628,59861483685.618233,-59912079198.779739,-18691009461.001537,1.128111,-1.128492,-0.352149
0.980000,-1.640000,2.311706,0.040000,102750417943.258331,62094933570.911987,-62144915026.616463,-14355076189.343655,1.170187,-1.170564,-0.270458
1.020000,-1.640000,2.311706,0.040000,104853413502.572510,63462615890.115257,-63509819463.297928,-9995052681.821335,1.195939,-1.196295,-0.188313
1.060000,-1.640000,2.311962,0.040000,106854940462.861801,64011965522.996040,-64054730801.342117,-5759438274.032928,1.206264,-1.206587,-0.108511
1.100000,-1.640000,2.312909,0.040000,108754113171.468460,63819220566.957603,-63856433681.381241,-1771219448.589701,1.202601,-1.202882,-0.033371
1.140000,-1.640000,2.314547,0.040000,110551231633.399536,62980029630.945259,-63011101572.952530,1875656670.107778,1.186756,-1.186990,0.035338
1.180000,-1.640000,2.316874,0.040000,112247629266.200897,61600407517.542198,-61625205733.575737,5116799125.388686,1.160728,-1.160914,0.096403
1.220000,-1.640000,2.319889,0.040000,113845503967.114899,59788843561.705811,-59807597373.818245,7915504525.744440,1.126562,-1.126704,0.149133
1.260000,-1.640000,2.323589,0.040000,115347745078.669449,57650024774.435555,-57663222362.159538,10259251955.171661,1.086234,-1.086334,0.193290
1.300000,-1.640000,2.327970,0.040000,116757766283.183914,55280323973.416283,-55288614872.295494,12155294509.560108,1.041560,-1.041623,0.229013
1.340000,-1.640000,2.333029,0.040000,118079351652.506592,52764969297.300301,-52769080746.579880,13625971328.993784,0.994146,-0.994177,0.256721
1.380000,-1.640000,2.338761,0.040000,119316519402.943665,50176659058.366196,-50177330511.900398,14704208984.346783,0.945361,-0.945366,0.277036
1.420000,-1.640000,2.345162,0.040000,120473405598.284103,47575315749.419006,-47573251838.364891,15429519032.217941,0.896335,-0.896319,0.290701
1.460000,-1.640000,2.352225,0.040000,121554168222.801926,45008659636.876404,-45004500074.316772,15844654765.186512,0.847966,-0.847934,0.298522
1.500000,-1.640000,2.359946,0.040000,122562910731.584763,42513312500.073265,-42507615759.634903,15992977531.395710,0.800943,-0.800900,0.301317
1.540000,-1.640000,2.368316,0.040000,123503623333.522110,40116190143.865707,-40109427798.207596,15916504343.905287,0.755774,-0.755723,0.299876
1.580000,-1.640000,2.377331,0.040000,124380139794.709473,37836000517.082085,-37828558891.995621,15654560775.651348,0.712810,-0.712754,0.294941
1.620000,-1.640000,2.386982,0.040000,125196107376.825439,35684717088.953209,-35676903720.886505,15242940006.858458,0.672277,-0.672218,0.287186
1.660000,-1.640000,2.397261,0.040000,125954967560.067825,33668945015.981899,-33660997627.092213,14713463507.622425,0.634298,-0.634238,0.277210
1.700000,-1.640000,2.408161,0.040000,126659945369.013458,31791133234.838150,-31783229829.956802,14093844756.217186,0.598919,-0.598859,0.265536
1.740000,-1.640000,2.419674,0.040000,127314045363.490356,30050613876.657398,-30042882759.822674,13407769634.483038,0.566127,-0.566069,0.252610
1.780000,-1.640000,2.431790,0.040000,127920052631.625381,28444467893.978584,-28436997081.361015,12675121927.257399,0.535868,-0.535812,0.238807
1.820000,-1.640000,2.444500,0.040000,128480537398.902191,26968228419.778584,-26961073963.973019,11912297351.037939,0.508057,-0.508003,0.224435
1.860000,-1.640000,2.457796,0.040000,128997862126.486160,25616438891.651649,-25609632084.206017,11132563242.381718,0.482590,-0.482539,0.209744
1.900000,-1.640000,2.471667,0.040000,129474190203.890854,24383086552.414101,-24376639886.995731,10346432834.831495,0.459355,-0.459306,0.194933
1.940000,-1.640000,2.486105,0.040000,129911495540.731735,23261931456.047493,-23255843522.822792,9562032655.981501,0.438234,-0.438188,0.180154
1.980000,-1.640000,2.501100,0.040000,130311572529.340027,22246750642.020309,-22241009980.450970,8785449128.139801,0.419109,-0.419066,0.165523
2.020000,-1.640000,2.516640,0.040000,130676045986.154617,21331514511.605736,-21326102635.047367,8021046115.806968,0.401868,-0.401827,0.151121
2.060000,-1.640000,2.532718,0.040000,131006380788.275360,20510510760.212090,-20505404413.837814,7271749263.734315,0.386401,-0.386363,0.137004
2.100000,-1.640000,2.549321,0.040000,131303891005.862167,19778428343.295116,-19773601190.303711,6539295722.048527,0.372610,-0.372573,0.123204
2.140000,-1.640000,2.566441,0.040000,131569748395.032852,19130412236.184616,-19125836033.788780,5824449541.636053,0.360402,-0.360368,0.109736
2.180000,-1.640000,2.584066,0.040000,131804990162.997375,18562097094.010143,-18557742559.398006,5127183800.342885,0.349696,-0.349663,0.096599
2.220000,-1.640000,2.602187,0.040000,132010525950.970749,18069626139.120277,-18065463756.091789,4446830686.869048,0.340419,-0.340387,0.083781
2.260000,-1.640000,2.620793,0.040000,132187144004.418549,17649660484.162521,-17645663931.777355,3782200815.914951,0.332507,-0.332477,0.071259
2.300000,-1.640000,2.639874,0.040000,132335516514.992447,17299414377.407661,-17295602255.344936,3131674867.772223,0.325909,-0.325881,0.059003
2.340000,-1.640000,2.659420,0.040000,132456204056.049377,17017151149.406328,-17013995369.765728,2493288974.385382,0.320595,-0.320571,0.046975
2.380000,-1.640000,2.679421,0.040000,132549657642.862976,16802988556.684881,-16795467894.301691,1865455535.367348,0.316536,-0.316479,0.035146
2.420000,-1.640000,2.699866,0.040000,132616195382.999435,16666692293.549767,-16674872661.086283,1405272748.916149,0.314056,-0.314118,0.026476
2.460000,-1.640000,2.720745,0.040000,132655695037.895477,16706960286.891479,-16831038698.262655,1139055446.700612,0.315470,-0.316405,0.021460
-2.500000,-1.600000,4.085217,0.040000,-35956230225.733093,-27134005219.506027,21390105052295.953125,80441750878.374954,-121.258448,282.254752,1.515569
-2.460000,-1.600000,4.054240,0.040000,-71899776427.993942,1284334261571.384033,14916605908490.205078,45138211292.994392,-67.372929,189.466971,0.850430
-2.420000,-1.600000,4.023423,0.040000,-71852094977.852859,-783135199383.201782,4803216456857.263672,14506519220.132069,-37.476920,67.773184,0.273311
-2.380000,-1.600000,3.992768,0.040000,-71773444172.198151,-65513254424.703125,153296844706.844849,2523076223.154103,-1.730476,2.392033,0.047536
-2.340000,-1.600000,3.962279,0.040000,-71663065390.868301,-20115760633.362614,20110398591.988892,3347377280.261989,-0.378962,0.378922,0.063067
-2.300000,-1.600000,3.931962,0.040000,-71520495303.371353,-20463818980.771523,20459033327.771915,4199956501.046237,-0.385523,0.385487,0.079130
-2.260000,-1.600000,3.901818,0.040000,-71345175952.025391,-20893318976.407951,20888431523.263214,5064858260.388903,-0.393615,0.393578,0.095425
-2.220000,-1.600000,3.871853,0.040000,-71136419862.147369,-21407814774.563610,21402737016.109406,5943996737.493950,-0.403307,0.403269,0.111988
-2.180000,-1.600000,3.842071,0.040000,-70893403544.082001,-22010744168.640579,22005437409.060570,6838802944.597496,-0.414665,0.414625,0.128847
-2.140000,-1.600000,3.812477,0.040000,-70615161962.068100,-22706102588.192802,22700530232.965908,7750145762.929688,-0.427765,0.427723,0.146017
-2.100000,-1.600000,3.783073,0.040000,-70300582138.696487,-23498514138.351242,23492639107.676735,8678205914.513432,-0.442692,0.442648,0.163502
-2.060000,-1.600000,3.753865,0.040000,-69948395755.289932,-24393246336.705208,24387031592.351616,9622316634.702364,-0.459548,0.459501,0.181290
-2.020000,-1.600000,3.724858,0.040000,-69557170723.951813,-25396209260.445408,25389618754.974190,10580767102.746204,-0.478442,0.478392,0.199348
-1.980000,-1.600000,3.696056,0.040000,-69125301732.995834,-26513937510.646633,26506937563.857319,11550564396.829493,-0.499498,0.499446,0.217619
-1.940000,-1.600000,3.667465,0.040000,-68650999795.257095,-27753547819.390781,27746109097.822422,12527150039.602247,-0.522851,0.522795,0.236019
-1.900000,-1.600000,3.639088,0.040000,-68132280868.024124,-29122661837.458996,29114762127.900890,13504067576.650066,-0.548643,0.548584,0.254424
-1.860000,-1.600000,3.610931,0.040000,-67566953669.347595,-30629280202.607033,30620908200.095627,14472578543.775345,-0.577026,0.576963,0.272672
-1.820000,-1.600000,3.582541,0.040000,-66952606893.753441,-32281590238.182121,32272750586.880749,15421226051.128561,-0.608154,0.608087,0.290545
-1.780000,-1.600000,3.554269,0.040000,-66286596136.956459,-34087685397.141228,34078405250.664585,16335348449.395939,-0.642179,0.642109,0.307767
-1.740000,-1.600000,3.526058,0.040000,-65566030980.764534,-36055170069.156693,36045507431.505722,17196550610.604435,-0.679246,0.679173,0.323993
-1.700000,-1.600000,3.497666,0.040000,-64787762873.192383,-38190618778.843674,38180672867.056557,17982147794.412548,-0.719477,0.719402,0.338794
-1.660000,-1.600000,3.469503,0.040000,-63948374672.118675,-40498854840.350143,40488778616.665077,18664607495.327320,-0.762965,0.762889,0.351652
-1.620000,-1.600000,3.441126,0.040000,-63044173009.926018,-42982010990.814865,42972025859.019119,19211028696.426044,-0.809750,0.809674,0.361947
-1.580000,-1.600000,3.412842,0.040000,-62071184985.350151,-45638334998.037880,45628747365.761818,19582716108.175194,-0.859798,0.859726,0.368950
-1.540000,-1.600000,3.384653,0.040000,-61025161096.362152,-48460708565.259331,48451927552.846649,19734929444.642620,-0.912978,0.912912,0.371818
-1.500000,-1.600000,3.356245,0.040000,-59901586785.486954,-51434860915.960419,51427415850.860550,19616914162.766552,-0.969021,0.968964,0.369594
-1.460000,-1.600000,3.328074,0.040000,-58695705455.416168,-54537282330.647774,54531837839.410194,19172348860.436157,-1.027483,1.027442,0.361218
-1.420000,-1.600000,3.299713,0.040000,-57402556289.468437,-57732881552.842346,57730246992.067917,18340372550.096924,-1.087706,1.087686,0.345543
-1.380000,-1.600000,3.271416,0.040000,-56017030616.341187,-60972487657.506561,60973616449.211388,17057376829.448917,-1.148763,1.148772,0.321371
-1.340000,-1.600000,3.243250,0.040000,-54533950800.691406,-64190374234.483086,64196347476.674210,15259755187.939312,-1.209418,1.209463,0.287503
-1.300000,-1.600000,3.214824,0.040000,-52948175596.921150,-67302080691.845108,67314068578.719749,12887782743.352417,-1.268078,1.268168,0.242813
-1.260000,-1.600000,3.186646,0.040000,-51254735418.385254,-70202916632.118347,70222111111.638977,9890740322.948095,-1.322772,1.322917,0.186347
-1.220000,-1.600000,3.158723,0.040000,-49448999871.547386,-72767646608.544769,72795160019.087845,6233281817.547352,-1.371140,1.371348,0.117439
-1.180000,-1.600000,3.131063,0.040000,-47526878008.179909,-74851940516.423264,74888668248.146729,1902860890.652843,-1.410462,1.410738,0.035851
-1.140000,-1.600000,3.103671,0.040000,-45485048921.018044,-76296203939.618927,76342655094.893845,-3082220813.147020,-1.437727,1.438077,-0.058071
-1.100000,-1.600000,3.076556,0.040000,-43321216506.538116,-76932329523.073090,76988438082.807022,-8664892907.808884,-1.449767,1.450190,-0.163252
-1.060000,-1.600000,3.049724,0.040000,-41034377564.034637,-76593689796.554581,76658629294.326569,-14742600641.418762,-1.443437,1.443926,-0.277759
-1.020000,-1.600000,3.023183,0.040000,-38625087248.581017,-75128293215.416473,75200328308.877380,-21163148159.299637,-1.415868,1.416411,-0.398726
-0.980000,-1.600000,2.996941,0.040000,-36095700884.651627,-72414450821.390366,72490866341.794708,-27724579760.864933,-1.364762,1.365338,-0.522347
-0.940000,-1.600000,2.971006,0.040000,-33450567191.010689,-68377608925.238121,68454756851.048386,-34180443830.842129,-1.288710,1.289291,-0.643979
-0.900000,-1.600000,2.945386,0.040000,-30696146162.425461,-63006317999.089340,63079811904.342422,-40251302497.003632,-1.187491,1.188045,-0.758358
-0.860000,-1.600000,2.920088,0.040000,-27841026279.773689,-56364814255.605225,56429877615.507927,-45642499527.793259,-1.062314,1.062804,-0.859931
-0.820000,-1.600000,2.895123,0.040000,-24895821149.120148,-48599593180.428368,48651535207.060684,-50067064917.585320,-0.915938,0.916330,-0.943293
-0.780000,-1.600000,2.870498,0.040000,-21872935243.298386,-39937814380.654984,39972571861.641792,-53271426143.559090,-0.752648,0.752910,-1.003665
-0.740000,-1.600000,2.846222,0.040000,-18786201396.936054,-30676431480.095348,30691088106.931393,-55060617127.882011,-0.578045,0.578155,-1.037374
-0.700000,-1.600000,2.822304,0.040000,-15650407412.689102,-21162449708.383205,21155635910.086864,-55319244219.032082,-0.398674,0.398623,-1.042247
-0.660000,-1.600000,2.798753,0.040000,-12480743186.538200,-11766360908.699965,11738453354.903351,-54024802257.019531,-0.221527,0.221317,-1.017859
-0.620000,-1.600000,2.775579,0.040000,-9292210554.608236,-2852177024.381027,2805255584.847590,-51251050474.512520,-0.053471,0.053118,-0.965600
-0.580000,-1.600000,2.752791,0.040000,-6099043443.068764,5251802115.821141,-5314231113.467194,-47160835853.641312,0.099300,-0.099770,-0.888537
-0.540000,-1.600000,2.730399,0.040000,-2914184740.956499,12277499849.856070,-12350956977.201250,-41989583302.825584,0.231730,-0.232284,-0.791108
-0.500000,-1.600000,2.708413,0.040000,251141152.225319,18033833525.283310,-18113407550.793182,-36022197869.662766,0.340218,-0.340817,-0.678679
-0.460000,-1.600000,2.686842,0.040000,3387733403.417083,22414230486.467484,-22495111585.999081,-29566990460.702991,0.422754,-0.423364,-0.557059
-0.420000,-1.600000,2.665697,0.040000,6488585410.038445,25395008991.220547,-25472932937.255363,-22930310231.793114,0.478897,-0.479484,-0.432020
-0.380000,-1.600000,2.644988,0.040000,9548923508.451384,27026125026.158146,-27097676930.526421,-16394942791.653437,0.509592,-0.510132,-0.308890
-0.340000,-1.600000,2.624725,0.040000,12566128321.439083,27416669579.121616,-27479429864.141579,-10204266478.000175,0.516901,-0.517374,-0.192254
-0.300000,-1.600000,2.604919,0.040000,15539561712.234785,26717805846.419109,-26770352393.553444,-4552944405.556325,0.503676,-0.504072,-0.085780
-0.260000,-1.600000,2.585579,0.040000,18470326428.577202,25105612293.239349,-25147414730.235500,416165785.642581,0.473241,-0.473556,0.007841
-0.220000,-1.600000,2.566718,0.040000,21360985724.368977,22765696359.342972,-22796945841.254646,4609969922.207271,0.429096,-0.429331,0.086855
-0.180000,-1.600000,2.548345,0.040000,24215267479.301628,19880707491.578484,-19902117725.615425,7979385350.025290,0.374685,-0.374846,0.150336
-0.140000,-1.600000,2.530471,0.040000,27037772752.856327,16621259129.008163,-16633861759.575985,10511287022.972284,0.313225,-0.313320,0.198039
-0.100000,-1.600000,2.513106,0.040000,29833703288.586132,13140366842.485733,-13145318891.317869,12219416734.350395,0.247600,-0.247637,0.230221
-0.060000,-1.600000,2.496262,0.040000,32608616883.412056,9571206898.377920,-9569629565.461960,13135400874.697920,0.180318,-0.180306,0.247479
-0.020000,-1.600000,2.479948,0.040000,35368214253.599037,6027669127.071206,-6020532287.188778,13300849259.656824,0.113524,-0.113471,0.250596
0.020000,-1.600000,2.464176,0.040000,38118156583.512138,2606921008.670338,-2594971464.575602,12761152216.007015,0.049048,-0.048958,0.240428
0.060000,-1.600000,2.448956,0.040000,40863909723.431091,-606777765.722004,623058105.147355,11561176834.319601,-0.011524,0.011647,0.217819
0.100000,-1.600000,2.434297,0.040000,43610608977.653152,-3537534385.185748,3557946215.224872,9742883408.421997,-0.066765,0.066918,0.183562
0.140000,-1.600000,2.420212,0.040000,46362937250.791946,-6112975875.308454,6137584853.162753,7344982731.309801,-0.115311,0.115497,0.138384
0.180000,-1.600000,2.406708,0.040000,49125008850.538467,-8259712268.875060,8288782561.572670,4404802413.873462,-0.155782,0.156001,0.082989
0.220000,-1.600000,2.393797,0.040000,51900251764.963287,-9899956975.887629,9933838532.145910,962262999.208206,-0.186712,0.186968,0.018130
0.260000,-1.600000,2.381488,0.040000,54691283078.179390,-10950098988.651653,10989084408.799505,-2934556589.600607,-0.206527,0.206820,-0.055289
0.300000,-1.600000,2.369790,0.040000,57499775283.252701,-11321740960.537287,11365906108.736258,-7223044935.838749,-0.213558,0.213891,-0.136086
0.340000,-1.600000,2.358713,0.040000,60326315175.584465,-10925477015.016800,10974514450.782454,-11819733181.845612,-0.206119,0.206489,-0.222691
0.380000,-1.600000,2.348264,0.040000,63170261382.530617,-9677528302.845650,9730589794.294687,-16614992186.871714,-0.182630,0.183030,-0.313036
0.420000,-1.600000,2.338454,0.040000,66029611133.608635,-7509067438.018579,7564647356.428240,-21469944361.776047,-0.141789,0.142208,-0.404506
0.460000,-1.600000,2.329289,0.040000,68900891128.164459,-4377511028.417640,4433410512.787971,-26216891786.418720,-0.082791,0.083212,-0.493941
0.500000,-1.600000,2.320777,0.040000,71779090445.558807,-278383358.458337,331787316.210553,-30664319845.467464,-0.005547,0.005949,-0.577734
0.540000,-1.600000,2.312926,0.040000,74657654309.474747,4744181123.789605,-4696501664.332445,-34606904534.228867,0.089114,-0.088754,-0.652014
0.580000,-1.600000,2.305742,0.040000,77528555322.477341,10590431643.324867,-10551804039.102905,-37840065971.551674,0.199312,-0.199020,-0.712929
0.620000,-1.600000,2.299232,0.040000,80382453211.250443,17103413076.051855,-17076872578.152828,-40177648526.584938,0.322088,-0.321888,-0.756970
0.660000,-1.600000,2.293401,0.040000,83208945510.971359,24074063227.155861,-24061948889.142162,-41470455756.389053,0.453501,-0.453410,-0.781327
0.700000,-1.600000,2.288254,0.040000,85996901012.840286,31253214423.729290,-31256825905.142014,-41622841521.280357,0.588849,-0.588876,-0.784198
0.740000,-1.600000,2.283797,0.040000,88734856864.028229,38369449952.226669,-38388835372.859344,-40604563871.245834,0.723012,-0.723158,-0.765014
0.780000,-1.600000,2.280033,0.040000,91411450946.989670,45150575860.163963,-45184496872.028503,-38455741250.327240,0.850855,-0.851110,-0.724528
0.820000,-1.600000,2.276965,0.040000,94015855449.938065,51345686274.765350,-51391768822.220963,-35283915707.205368,0.967643,-0.967990,-0.664769
0.860000,-1.600000,2.274597,0.040000,96538176603.243073,56744657634.691521,-56799696665.937599,-31253647278.675655,1.069413,-1.069828,-0.588837
0.900000,-1.600000,2.272930,0.040000,98969789622.631271,61192444164.143745,-61252800069.057976,-26570372154.707909,1.153242,-1.153697,-0.500601
0.940000,-1.600000,2.271966,0.040000,101303586124.551697,64596602061.140350,-64658613768.398460,-21461131342.381149,1.217388,-1.217855,-0.404340
0.980000,-1.600000,2.271706,0.040000,103534122000.458115,66927744224.743996,-66988090377.266907,-16155040456.913717,1.261299,-1.261753,-0.304370
1.020000,-1.600000,2.271706,0.040000,105657664944.775894,68213796215.318459,-68269756841.775940,-10866037645.604692,1.285504,-1.285925,-0.204722
1.060000,-1.600000,2.271966,0.040000,107672150677.846542,68529739286.108597,-68579337844.597229,-5779685832.000786,1.291420,-1.291794,-0.108893
1.100000,-1.600000,2.272930,0.040000,109577064095.306732,67984878105.160332,-68026909277.940842,-1044865929.227459,1.281112,-1.281429,-0.019686
1.140000,-1.600000,2.274597,0.040000,111373265543.730576,66709587987.476059,-66743554639.311935,3229682762.710516,1.257039,-1.257295,0.060849
1.180000,-1.600000,2.276965,0.040000,113062783289.968475,64843105156.045418,-64869096273.678169,6974676510.192957,1.221829,-1.222024,0.131407
1.220000,-1.600000,2.280033,0.040000,114648591630.445602,62523384404.447937,-62541925817.467270,10156525548.156971,1.178082,-1.178221,0.191355
1.260000,-1.600000,2.283797,0.040000,116134390826.485687,59879506297.472633,-59891410225.966965,12771663959.235426,1.128232,-1.128322,0.240626
1.300000,-1.600000,2.288254,0.040000,117524401011.752151,57026667926.113152,-57032899179.210121,14840032423.961487,1.074451,-1.074498,0.279595
1.340000,-1.600000,2.293401,0.040000,118823178111.112930,54063482314.095825,-54065050683.578766,16398552959.378033,1.018596,-1.018608,0.308958
1.380000,-1.600000,2.299232,0.040000,120035456131.017654,51071143045.870399,-51069024736.771782,17495172898.412907,0.962198,-0.962182,0.329619
1.420000,-1.600000,2.305742,0.040000,121166017201.550095,48113958007.265831,-48109044308.060867,18183809019.918468,0.906467,-0.906430,0.342594
1.460000,-1.600000,2.312926,0.040000,122219588557.256424,45240783451.094193,-45233852290.857666,18520322685.446617,0.852323,-0.852271,0.348934
1.500000,-1.600000,2.320777,0.040000,123200764196.841599,42486962567.517090,-42478667617.614174,18559513691.272575,0.800432,-0.800370,0.349672
1.540000,-1.600000,2.329289,0.040000,124113948146.663498,39876463335.334274,-39867335439.763664,18353031424.619694,0.751244,-0.751175,0.345782
1.580000,-1.600000,2.338454,0.040000,124963315926.237488,37424000101.151863,-37414456521.376427,17948056890.195480,0.705036,-0.704964,0.338152
1.620000,-1.600000,2.348264,0.040000,125752790833.200668,35137001142.626625,-35127359073.268990,17386596083.359150,0.661947,-0.661874,0.327574
1.660000,-1.600000,2.358713,0.040000,126486031906.211258,33017346204.570213,-33007837968.796391,16705232634.721357,0.622012,-0.621941,0.314736
1.700000,-1.600000,2.369790,0.040000,127166430788.389572,31062843069.606529,-31053631266.244942,15935206425.310751,0.585190,-0.585120,0.300229
1.740000,-1.600000,2.381488,0.040000,127797115128.777725,29268442770.312637,-29259634308.344242,15102708327.293156,0.551385,-0.551318,0.284544
1.780000,-1.600000,2.393797,0.040000,128380956575.860626,27627211736.954826,-27618870206.985607,14229305037.669147,0.520466,-0.520403,0.268088
1.820000,-1.600000,2.406708,0.040000,128920581805.214569,26131089189.835236,-26123245357.410042,13332429668.581305,0.492281,-0.492221,0.251191
1.860000,-1.600000,2.420212,0.040000,129418385366.646286,24771461920.458973,-24764122361.963707,12425892172.701788,0.466667,-0.466612,0.234111
1.900000,-1.600000,2.434297,0.040000,129876543428.349930,23539588589.120857,-23532742607.537067,11520378510.710669,0.443461,-0.443409,0.217051
1.940000,-1.600000,2.448956,0.040000,130297027736.615005,22426903263.823029,-22420528297.413120,10623918894.149521,0.422500,-0.422452,0.200161
1.980000,-1.600000,2.464176,0.040000,130681619303.123230,21425224433.339062,-21419290181.099594,9742313897.851860,0.403630,-0.403585,0.183551
2.020000,-1.600000,2.479948,0.040000,131031921483.475464,20526891766.305950,-20521363258.820732,8879513245.654167,0.386707,-0.386666,0.167295
2.060000,-1.600000,2.496262,0.040000,131349372226.520859,19724849046.901833,-19719688865.388607,8037946138.398487,0.371598,-0.371560,0.151440
2.100000,-1.600000,2.513106,0.040000,131635255360.496490,19012688120.472046,-19007857948.867786,7218804559.934607,0.358183,-0.358146,0.136006
2.140000,-1.600000,2.530471,0.040000,131890710844.651321,18384665503.895592,-18380127177.403927,6422282448.334599,0.346352,-0.346318,0.121000
2.180000,-1.600000,2.548345,0.040000,132116743959.008072,17835700421.024609,-17831416616.836754,5647774288.909789,0.336011,-0.335978,0.106407
2.220000,-1.600000,2.566718,0.040000,132314233434.874527,17361360262.688560,-17357294841.935795,4894036920.518604,0.327075,-0.327044,0.092206
2.260000,-1.600000,2.585579,0.040000,132483938549.074036,16957834867.917059,-16953950681.426859,4159318524.556353,0.319473,-0.319444,0.078364
2.300000,-1.600000,2.604919,0.040000,132626505223.586502,16621866553.876263,-16618086521.181881,3441458467.574727,0.313144,-0.313116,0.064839
2.340000,-1.600000,2.624725,0.040000,132742471263.705902,16350191115.283390,-16345958679.763020,2737947163.172808,0.308023,-0.307991,0.051585
2.380000,-1.600000,2.644988,0.040000,132832272241.740295,16140916546.141966,-16143900387.957876,2046291405.231008,0.304121,-0.304144,0.038553
2.420000,-1.600000,2.665697,0.040000,132896270359.730591,16000776642.863695,-16053928826.587103,1541548849.404547,0.301764,-0.302165,0.029044
2.460000,-1.600000,2.686842,0.040000,132935072150.542755,15781486948.919891,-15799001204.594303,1248977996.378876,0.297431,-0.297563,0.023531
-2.500000,-1.560000,4.060126,0.040000,-36142399168.871346,-26641471736.422775,21499571509576.320312,87325479316.480286,-121.870676,283.695656,1.645263
-2.460000,-1.560000,4.028956,0.040000,-72271600468.078735,1291488736338.018799,14992129748512.005859,49002110689.916016,-67.705447,190.422572,0.923228
-2.420000,-1.560000,3.997943,0.040000,-72227040315.031815,-786242002151.378662,4827029073157.625977,15751961524.976583,-37.652486,68.104795,0.296776
-2.380000,-1.560000,3.967091,0.040000,-72151957359.721237,-64879707782.499779,153105503001.879944,2749311650.017845,-1.721039,2.385929,0.051799
-2.340000,-1.560000,3.936404,0.040000,-72046475487.760986,-19230850282.587479,19227090341.768391,3648852376.876897,-0.362299,0.362271,0.068746
-2.300000,-1.560000,3.905886,0.040000,-71910216603.067596,-19564783605.535217,19560258017.312256,4581152752.686194,-0.368586,0.368552,0.086312
-2.260000,-1.560000,3.875539,0.040000,-71742647058.092484,-19979341639.817486,19974576304.241928,5528548759.506009,-0.376395,0.376360,0.104161
-2.220000,-1.560000,3.845370,0.040000,-71543103309.274277,-20477034807.629227,20472043839.833729,6493494295.117175,-0.385771,0.385733,0.122341
-2.180000,-1.560000,3.815381,0.040000,-71310788710.582123,-21061679728.582153,21056424794.720379,7478063223.284833,-0.396785,0.396745,0.140891
-2.140000,-1.560000,3.785578,0.040000,-71044767428.780609,-21737869280.947735,21732305794.759571,8483811800.224861,-0.409523,0.409481,0.159840
-2.100000,-1.560000,3.755963,0.040000,-70743957091.135223,-22510978357.164310,22505058801.018456,9511641883.245260,-0.424086,0.424042,0.179205
-2.060000,-1.560000,3.726543,0.040000,-70407120181.463852,-23387208362.374237,23380882845.926319,10561632870.092863,-0.440593,0.440545,0.198987
-2.020000,-1.560000,3.697322,0.040000,-70032854114.332047,-24373627617.970055,24366844528.668243,11632833413.117355,-0.459175,0.459124,0.219169
-1.980000,-1.560000,3.668304,0.040000,-69619579923.174210,-25478200459.573689,25470907528.356113,12723005782.816790,-0.479983,0.479928,0.239709
-1.940000,-1.560000,3.639494,0.040000,-69165529516.435760,-26709797415.714851,26701943402.820873,13828315831.173552,-0.503184,0.503124,0.260533
-1.900000,-1.560000,3.610898,0.040000,-68668731486.398643,-28078175583.051895,28069712818.651112,14942961494.001869,-0.528961,0.528897,0.281534
-1.860000,-1.560000,3.582519,0.040000,-68126995503.393364,-29593914232.987434,29584802293.205429,16058733158.965815,-0.557515,0.557446,0.302556
-1.820000,-1.560000,3.554365,0.040000,-67537895400.161514,-31268285783.797832,31258496637.399010,17164500453.029766,-0.589057,0.588984,0.323389
-1.780000,-1.560000,3.525973,0.040000,-66898751155.052795,-33113036449.250542,33102561464.028870,18245622572.955025,-0.623810,0.623731,0.343758
-1.740000,-1.560000,3.497701,0.040000,-66206610127.850281,-35140044125.286667,35128903368.251862,19283283816.533474,-0.661996,0.661912,0.363308
-1.700000,-1.560000,3.469491,0.040000,-65458228099.091888,-37360813578.174995,37349067862.353477,20253763250.374256,-0.703833,0.703744,0.381593
-1.660000,-1.560000,3.441097,0.040000,-64650050924.755768,-39785761228.893494,39773527326.851631,21127658426.190998,-0.749518,0.749425,0.398057
-1.620000,-1.560000,3.412936,0.040000,-63778197955.448036,-42423234701.548340,42410704024.753334,21869098833.659828,-0.799208,0.799113,0.412026
-1.580000,-1.560000,3.384558,0.040000,-62838448794.048752,-45278207374.634140,45265668160.338577,22435006509.868225,-0.852997,0.852902,0.422689
-1.540000,-1.560000,3.356274,0.040000,-61826235485.804268,-48350587849.524734,48338450438.845482,22774489919.856140,-0.910885,0.910793,0.429085
-1.500000,-1.560000,3.328087,0.040000,-60736642850.320396,-51633092035.355553,51621916093.978210,22828493374.523243,-0.972734,0.972650,0.430102
-1.460000,-1.560000,3.299676,0.040000,-59564420362.945633,-55108646173.790054,55099167632.847733,22529867258.045948,-1.038225,1.038154,0.424476
-1.420000,-1.560000,3.271508,0.040000,-58304009740.104187,-58747328543.347961,58740482566.803360,21804071640.907196,-1.106795,1.106743,0.410801
-1.380000,-1.560000,3.243145,0.040000,-56949593115.614159,-62502922468.262024,62499856909.218925,20570771815.782997,-1.177574,1.177551,0.387565
-1.340000,-1.560000,3.214848,0.040000,-55495167308.508247,-66309249950.029915,66311321668.745087,18746618884.803730,-1.249316,1.249332,0.353197
-1.300000,-1.560000,3.186684,0.040000,-53934650022.331093,-70076587538.832825,70085331960.397797,16249516157.910009,-1.320333,1.320399,0.306150
-1.260000,-1.560000,3.158255,0.040000,-52262023669.791229,-73688631887.580475,73705694876.971146,13004631190.000034,-1.388433,1.388562,0.245015
-1.220000,-1.560000,3.130079,0.040000,-50471521620.777802,-77000669085.290222,77027690542.247086,8952297416.160948,-1.450890,1.451094,0.168666
-1.180000,-1.560000,3.102163,0.040000,-48557859729.923485,-79839780789.789154,79878222497.369186,4057731628.165522,-1.504445,1.504735,0.076450
-1.140000,-1.560000,3.074514,0.040000,-46516512730.094368,-82008042579.383759,82058960017.013992,-1677844970.135352,-1.545367,1.545751,-0.031612
-1.100000,-1.560000,3.047139,0.040000,-44344030290.614685,-83289666596.226944,83353436437.931244,-8205551332.422042,-1.569586,1.570067,-0.154597
-1.060000,-1.560000,3.020046,0.040000,-42038381246.262314,-83462829630.070297,83538861134.503326,-15418061004.586561,-1.572918,1.573491,-0.290485
-1.020000,-1.560000,2.993242,0.040000,-39599307049.164925,-82316435106.796799,82402912212.860977,-23141610252.160812,-1.551378,1.552030,-0.436001
-0.980000,-1.560000,2.966735,0.040000,-37028657672.032516,-79671250143.585266,79764966952.496826,-31133076358.579212,-1.501582,1.502289,-0.586565
-0.940000,-1.560000,2.940534,0.040000,-34330676285.128307,-75403787558.496460,75500145969.260742,-39084396262.686684,-1.421196,1.421922,-0.736373
-0.900000,-1.560000,2.914646,0.040000,-31512194740.342827,-69470136974.142044,69563364118.174805,-46636046791.159996,-1.309385,1.310087,-0.878650
-0.860000,-1.560000,2.889079,0.040000,-28582702063.163269,-61925982221.038322,62009592450.095627,-53400119787.315102,-1.167194,1.167824,-1.006089
-0.820000,-1.560000,2.863844,0.040000,-25554254291.833836,-52938641173.981697,53006114814.811287,-58991776874.785309,-0.997776,0.998285,-1.111439
-0.780000,-1.560000,2.838947,0.040000,-22441206724.961723,-42787456907.672424,42833046928.112373,-63065867532.919289,-0.806398,0.806742,-1.188198
-0.740000,-1.560000,2.814399,0.040000,-19259768143.098881,-31850393699.528454,31869920582.084366,-65353751990.286751,-0.600190,0.600337,-1.231303
-0.700000,-1.560000,2.790208,0.040000,-16027398432.247780,-20577070127.092354,20568544898.727848,-65694468418.553261,-0.387636,0.387571,-1.237722
-0.660000,-1.560000,2.766384,0.040000,-12762092497.547421,-9451176535.220982,9415114969.891464,-64054759479.109489,-0.177862,0.177590,-1.206829
-0.620000,-1.560000,2.742937,0.040000,-9481610134.660465,1052456889.899403,-1113101341.617499,-60534211313.213196,0.020172,-0.020629,-1.140500
-0.580000,-1.560000,2.719875,0.040000,-6202719976.550367,10509649951.400114,-10589919180.694635,-55354495663.876381,0.198462,-0.199067,-1.042911
-0.540000,-1.560000,2.697210,0.040000,-2940523828.900219,18581287059.517506,-18674919211.768204,-48834720318.711082,0.350611,-0.351317,-0.920074
-0.500000,-1.560000,2.674951,0.040000,292083945.650613,25035781258.008503,-25136030343.524269,-41357355290.673172,0.472255,-0.473011,-0.779197
-0.460000,-1.560000,2.653108,0.040000,3484786230.900815,29757540055.207737,-29857958592.880856,-33330488817.876087,0.561217,-0.561974,-0.627966
-0.420000,-1.560000,2.631692,0.040000,6630028547.516029,32742032191.771751,-32837093705.537022,-25152084944.626804,0.617416,-0.618133,-0.473880
-0.380000,-1.560000,2.610713,0.040000,9723027683.572084,34080158266.047558,-34165649152.422035,-17180716132.554836,0.642573,-0.643217,-0.323695
-0.340000,-1.560000,2.590182,0.040000,12761628227.115887,33935838564.112854,-34009003803.101620,-9715430283.316618,0.639784,-0.640336,-0.183044
-0.300000,-1.560000,2.570110,0.040000,15746042491.655281,32521008737.670864,-32580484617.288197,-2985469593.298870,0.613051,-0.613499,-0.056248
-0.260000,-1.560000,2.550507,0.040000,18678513519.969479,30071672544.679058,-30117275713.053612,2851135433.735063,0.566826,-0.567169,0.053717
-0.220000,-1.560000,2.531384,0.040000,21562939261.741077,26827509401.068295,-26859961130.557213,7702183990.269104,0.505629,-0.505874,0.145114
-0.180000,-1.560000,2.512753,0.040000,24404490453.873379,23016195948.574738,-23036835125.552528,11531502250.680693,0.433755,-0.433911,0.217260
-0.140000,-1.560000,2.494623,0.040000,27209247275.790241,18842658056.246586,-18853159458.133377,14346686999.607939,0.355066,-0.355145,0.270300
-0.100000,-1.560000,2.477007,0.040000,29983871986.263458,14483161725.118563,-14485268945.075113,16185908281.250486,0.272883,-0.272899,0.304952
-0.060000,-1.560000,2.459916,0.040000,32735327010.922382,10084006808.388510,-10079313093.510763,17105239995.525423,0.189962,-0.189927,0.322273
-0.020000,-1.560000,2.443360,0.040000,35470640635.134262,5764034567.500536,-5753847553.002050,17167986611.922905,0.108540,-0.108463,0.323455
0.020000,-1.560000,2.427350,0.040000,38196716422.823776,1619512806.181271,-1604792903.739174,16436841141.884260,0.030429,-0.030318,0.309680
0.060000,-1.560000,2.411897,0.040000,40920178667.795937,-2269898369.954517,2288576628.039738,14968702400.530907,-0.042872,0.043013,0.282019
0.100000,-1.560000,2.397012,0.040000,43647244364.154434,-5834513431.940733,5857000059.251571,12811687376.439425,-0.110053,0.110222,0.241380
0.140000,-1.560000,2.382706,0.040000,46383611069.834694,-9007317434.459990,9033886793.345448,10004563478.366245,-0.169853,0.170053,0.188492
0.180000,-1.560000,2.368989,0.040000,49134349035.448975,-11716673994.336832,11747938636.030996,6579337140.576571,-0.220926,0.221161,0.123959
0.220000,-1.560000,2.355871,0.040000,51903786074.340858,-13880550182.755661,13917295844.817152,2567143092.272182,-0.261725,0.262002,0.048366
0.260000,-1.560000,2.343363,0.040000,54695376057.159454,-15403608536.510380,15446594526.020920,-1993459745.915836,-0.290456,0.290780,-0.037558
0.300000,-1.560000,2.331474,0.040000,57511546420.381203,-16177733887.513811,16227480507.172132,-7047026994.658621,-0.305079,0.305454,-0.132770
0.340000,-1.560000,2.320213,0.040000,60353525544.251366,-16086213482.133471,16142766744.245888,-12511571662.868471,-0.303393,0.303819,-0.235725
0.380000,-1.560000,2.309591,0.040000,63221156727.016090,-15011969366.939541,15074649311.887503,-18269730770.367580,-0.283188,0.283661,-0.344212
0.420000,-1.560000,2.299615,0.040000,66112711957.029716,-12850102994.452768,12917288053.559752,-24162422612.582523,-0.242483,0.242989,-0.455234
0.460000,-1.560000,2.290295,0.040000,69024725497.307632,-9524087007.930592,9593110111.946747,-29987200468.968220,-0.179829,0.180350,-0.564976
0.500000,-1.560000,2.281638,0.040000,71951873016.309235,-5003660694.749978,5070876426.884502,-35503271058.354004,-0.094652,0.095158,-0.668902
0.540000,-1.560000,2.273651,0.040000,74886924639.666092,678493826.468567,-617446633.450737,-40444150839.607788,0.012438,-0.011978,-0.761991
0.580000,-1.560000,2.266343,0.040000,77820798313.296280,7414617612.522603,-7364369905.589544,-44537552534.816597,0.139412,-0.139033,-0.839113
0.620000,-1.560000,2.259719,0.040000,80742732618.266006,15017397592.650227,-14982271899.506826,-47530596762.997566,0.282738,-0.282473,-0.895504
0.660000,-1.560000,2.253786,0.040000,83640586002.344040,23225383347.926125,-23208775647.362209,-49217026698.635902,0.437486,-0.437361,-0.927277
0.700000,-1.560000,2.248549,0.040000,86501253701.173706,31718955995.233688,-31722798626.295166,-49462103570.460854,0.597625,-0.597654,-0.931895
0.740000,-1.560000,2.244013,0.040000,89311176920.999008,40145448566.780357,-40169873037.313332,-48220705087.816727,0.756502,-0.756686,-0.908506
0.780000,-1.560000,2.240181,0.040000,92056904391.338516,48150004236.070175,-48193283631.483994,-45545085805.805519,0.907419,-0.907745,-0.858096
0.820000,-1.560000,2.237059,0.040000,94725657335.026672,55407412473.899544,-55466197871.440956,-41580652727.494003,1.044240,-1.044683,-0.783404
0.860000,-1.560000,2.234648,0.040000,97305847359.804626,61649920265.275497,-61719716101.758682,-36550461351.963577,1.161915,-1.162441,-0.688632
0.900000,-1.560000,2.232952,0.040000,99787503132.817032,66686945690.966087,-66762718041.081009,-30731282566.604355,1.256849,-1.257420,-0.578995
0.940000,-1.560000,2.231971,0.040000,102162574496.370880,70414415353.120377,-70491208767.348007,-24425456203.327744,1.327082,-1.327661,-0.460190
0.980000,-1.560000,2.231707,0.040000,104425099098.473236,72813555879.785599,-72887010186.942856,-17933047061.735859,1.372265,-1.372818,-0.337869
1.020000,-1.560000,2.231707,0.040000,106571233322.059891,73940818390.372192,-74007516540.614120,-11528119977.343977,1.393465,-1.393968,-0.217196
1.060000,-1.560000,2.231971,0.040000,108599163380.446960,73911797282.461365,-73969423007.389648,-5441594248.348373,1.392867,-1.393301,-0.102523
1.100000,-1.560000,2.232952,0.040000,110508922023.445633,72882381192.830719,-72929706301.569519,148420569.929534,1.373414,-1.373770,0.002796
1.140000,-1.560000,2.234648,0.040000,112302140756.399338,71030052399.049667,-71066799160.971451,5119265199.628427,1.338455,-1.338732,0.096450
1.180000,-1.560000,2.237059,0.040000,113981767304.698975,68537488384.711823,-68564121002.615532,9400724933.502064,1.291437,-1.291637,0.177115
1.220000,-1.560000,2.240181,0.040000,115551774453.678482,65579703747.430679,-65597197987.094551,12968173835.438635,1.235659,-1.235790,0.244328
1.260000,-1.560000,2.244013,0.040000,117016880802.882111,62315132039.746811,-62324759495.456749,15833659070.356567,1.174108,-1.174180,0.298315
1.300000,-1.560000,2.248549,0.040000,118382297724.779572,58880418014.482811,-58883566797.133080,18036429815.138248,1.109359,-1.109383,0.339817
1.340000,-1.560000,2.253786,0.040000,119653510914.419540,55388310086.447792,-55386350743.204178,19634000748.675591,1.043537,-1.043522,0.369916
1.380000,-1.560000,2.259719,0.040000,120836099969.780243,51927883981.246986,-51922080036.324669,20694415997.577377,0.978319,-0.978275,0.389895
1.420000,-1.560000,2.266343,0.040000,121935595712.078445,48566332527.532021,-48557789440.226730,21290018844.037041,0.914970,-0.914905,0.401116
1.460000,-1.560000,2.273651,0.040000,122957372440.376221,45351658563.083221,-45341302500.638885,21492766730.072853,0.854393,-0.854315,0.404936
1.500000,-1.560000,2.281638,0.040000,123906570857.024002,42315753298.609558,-42304330932.618721,21370961457.031914,0.797189,-0.797103,0.402641
1.540000,-1.560000,2.290295,0.040000,124788046770.559250,39477492792.819679,-39465584411.150230,20987175613.274757,0.743712,-0.743622,0.395411
1.580000,-1.560000,2.299615,0.040000,125606340642.079224,36845618053.842186,-36833657903.349449,20397126615.290749,0.694125,-0.694035,0.384294
1.620000,-1.560000,2.309591,0.040000,126365663378.087646,34421269863.231598,-34409569323.903969,19649258293.547318,0.648451,-0.648362,0.370203
1.660000,-1.560000,2.320213,0.040000,127069894318.555496,32200126265.899895,-32188896936.623528,18784819516.110291,0.606606,-0.606521,0.353917
1.700000,-1.560000,2.331474,0.040000,127722588000.222977,30174141949.083290,-30163516906.454578,17838267552.110840,0.568438,-0.568358,0.336083
1.740000,-1.560000,2.343363,0.040000,128326986909.460358,28332919601.980671,-28322971951.644924,16837862803.285995,0.533752,-0.533677,0.317235
1.780000,-1.560000,2.355871,0.040000,128886038026.470703,26664759188.024174,-26655517610.990017,15806356736.569391,0.502327,-0.502258,0.297801
1.820000,-1.560000,2.368989,0.040000,129402411477.480743,25157436664.618320,-25148898024.897835,14761704348.069855,0.473932,-0.473868,0.278119
1.860000,-1.560000,2.382706,0.040000,129878520044.529648,23798762850.427628,-23790902133.505493,13717755843.833714,0.448338,-0.448279,0.258450
1.900000,-1.560000,2.397012,0.040000,130316538634.626221,22576968678.662945,-22569746623.444454,12684899869.483538,0.425322,-0.425268,0.238991
1.940000,-1.560000,2.411897,0.040000,130718423088.364838,21480956916.343918,-21474325724.428421,11670643395.332045,0.404676,-0.404626,0.219882
1.980000,-1.560000,2.427350,0.040000,131085927922.331131,20500453815.693798,-20494361305.846115,10680122216.012037,0.386206,-0.386160,0.201220
2.020000,-1.560000,2.443360,0.040000,131420622760.285553,19626087827.609623,-19620480363.088226,9716541856.663160,0.369735,-0.369693,0.183065
2.060000,-1.560000,2.459916,0.040000,131723907325.311554,18849416823.075603,-18844241292.208706,8781552271.266216,0.355105,-0.355066,0.165450
2.100000,-1.560000,2.477007,0.040000,131997024947.934265,18162920371.945576,-18158125459.333290,7875561711.236296,0.342173,-0.342137,0.148380
2.140000,-1.560000,2.494623,0.040000,132241074601.474106,17559969518.865646,-17555506462.067204,6997996042.029684,0.330815,-0.330781,0.131846
2.180000,-1.560000,2.512753,0.040000,132457021512.212967,17034783073.101959,-17030606076.884520,6147510004.148457,0.320922,-0.320890,0.115823
2.220000,-1.560000,2.531384,0.040000,132645706413.770020,16582376693.194109,-16578443267.971268,5322156814.837634,0.312399,-0.312370,0.100273
2.260000,-1.560000,2.550507,0.040000,132807853526.799225,16198510662.122923,-16194784210.360134,4519522484.758688,0.305168,-0.305140,0.085150
2.300000,-1.560000,2.570110,0.040000,132944077346.764191,15879671194.707552,-15876158497.558752,3736832637.368932,0.299162,-0.299136,0.070404
2.340000,-1.560000,2.590182,0.040000,133054888249.276810,15623489577.050854,-15620614617.426329,2971058317.292709,0.294339,-0.294318,0.055976
2.380000,-1.560000,2.610713,0.040000,133140695621.652466,15429451031.138073,-15422564039.065367,2219779490.599914,0.290661,-0.290609,0.041822
2.420000,-1.560000,2.631692,0.040000,133201787390.586670,15306017419.638149,-15313159838.770893,1669933874.007836,0.288415,-0.288468,0.031463
2.460000,-1.560000,2.653108,0.040000,133238048361.904984,15344005551.248936,-15457234021.395067,1352109700.959660,0.289730,-0.290583,0.025475
-2.500000,-1.520000,4.035275,0.040000,-36343483842.054070,-26126839521.366955,21617858222391.718750,93882911979.677200,-122.532466,285.252760,1.768808
-2.460000,-1.520000,4.003911,0.040000,-72675467960.153397,1299943274328.506592,15074845827841.556641,52684269360.004364,-68.061471,191.465679,0.992602
-2.420000,-1.520000,3.972703,0.040000,-72632201970.722473,-789554983067.748535,4852807318885.642578,16940736078.061794,-37.841882,68.463494,0.319173
-2.380000,-1.520000,3.941654,0.040000,-72560823395.704758,-64176056433.755768,152904178610.310364,2964388939.252280,-1.710621,2.379297,0.055851
-2.340000,-1.520000,3.910767,0.040000,-72460640298.117401,-18265226546.555809,18260274609.470119,3937876008.393448,-0.344099,0.344062,0.074192
-2.300000,-1.520000,3.880047,0.040000,-72331227180.336258,-18585715656.462749,18581243813.520889,4947224878.490891,-0.350140,0.350107,0.093209
-2.260000,-1.520000,3.849497,0.040000,-72172070228.164719,-18982381603.180828,18977761414.274994,5974623541.893658,-0.357613,0.357578,0.112565
-2.220000,-1.520000,3.819122,0.040000,-71982534441.517319,-19459426949.470451,19454563706.708752,7023282663.063776,-0.366599,0.366563,0.132323
-2.180000,-1.520000,3.788925,0.040000,-71761856171.625748,-20021200744.937340,20016042414.075089,8096035693.163817,-0.377182,0.377143,0.152534
-2.140000,-1.520000,3.758912,0.040000,-71509136130.859314,-20672854359.312771,20667347327.637802,9195260375.737101,-0.389457,0.389416,0.173244
-2.100000,-1.520000,3.729086,0.040000,-71223331142.647644,-21420466436.154583,21414552347.649353,10322746472.248400,-0.403541,0.403496,0.194487
-2.060000,-1.520000,3.699452,0.040000,-70903244408.166992,-22271130982.232872,22264746478.501015,11479526662.995930,-0.419565,0.419517,0.216281
-2.020000,-1.520000,3.670015,0.040000,-70547514148.342300,-23233044229.322605,23226121099.806007,12665663535.824986,-0.437685,0.437633,0.238628
-1.980000,-1.520000,3.640779,0.040000,-70154600482.550629,-24315588274.835880,24308054014.418842,13879983402.353437,-0.458077,0.458020,0.261507
-1.940000,-1.520000,3.611750,0.040000,-69722770410.812897,-25529404596.357475,25521183565.537487,15119746806.325523,-0.480942,0.480880,0.284865
-1.900000,-1.520000,3.582932,0.040000,-69250080782.774017,-26886446845.969563,26877462297.463776,16380244761.342495,-0.506505,0.506438,0.308613
-1.860000,-1.520000,3.554331,0.040000,-68734359170.326889,-28399997700.792290,28390175010.534851,17654309186.315277,-0.535017,0.534943,0.332617
-1.820000,-1.520000,3.525951,0.040000,-68173182618.759857,-30084628641.944725,30073900169.770649,18931726095.516705,-0.566751,0.566670,0.356685
-1.780000,-1.520000,3.497798,0.040000,-67563854343.270660,-31956074110.192921,31944386215.004169,20198541387.896416,-0.602005,0.601917,0.380552
-1.740000,-1.520000,3.469405,0.040000,-66903378575.483788,-34030982354.843224,34018305191.825008,21436252304.934963,-0.641092,0.640996,0.403871
-1.700000,-1.520000,3.441133,0.040000,-66188433962.850639,-36326494402.895309,36312835221.731422,22620883785.880074,-0.684335,0.684232,0.426191
-1.660000,-1.520000,3.412924,0.040000,-65415346199.905731,-38859590152.238792,38845010868.331055,23721959361.066185,-0.732055,0.731945,0.446935
-1.620000,-1.520000,3.384529,0.040000,-64580060944.117371,-41646127328.480293,41630767112.600479,24701392557.390282,-0.784550,0.784435,0.465389
-1.580000,-1.520000,3.356370,0.040000,-63678118561.599625,-44699486385.921516,44683589845.092987,25512349035.942093,-0.842074,0.841955,0.480667
-1.540000,-1.520000,3.327990,0.040000,-62704632879.284294,-48028724941.569336,48012676057.608116,26098164005.688652,-0.904798,0.904677,0.491705
-1.500000,-1.520000,3.299706,0.040000,-61654276905.106102,-51636143147.559868,51620504379.130089,26391445848.911800,-0.972766,0.972649,0.497230
-1.460000,-1.520000,3.271520,0.040000,-60521279419.292450,-55514172711.145828,55499727411.342834,26313556500.197300,-1.045838,1.045729,0.495763
-1.420000,-1.520000,3.243108,0.040000,-59299437419.131874,-59641535640.469063,59629330051.710579,25774731124.489990,-1.123612,1.123520,0.485611
-1.380000,-1.520000,3.214941,0.040000,-57982150562.281334,-63978685162.971703,63970063630.323715,24675179571.316978,-1.205347,1.205282,0.464895
-1.340000,-1.520000,3.186577,0.040000,-56562484892.476830,-68462653070.480293,68459276794.680115,22907589536.549694,-1.289857,1.289832,0.431592
-1.300000,-1.520000,3.158280,0.040000,-55033274066.514511,-73001596627.307114,73005432545.538559,20361507342.094734,-1.375414,1.375443,0.383623
-1.260000,-1.520000,3.130118,0.040000,-53387266761.784424,-77469570502.203934,77482833442.852310,16930076799.574163,-1.459647,1.459747,0.318972
-1.220000,-1.520000,3.101687,0.040000,-51617328558.243370,-81702338841.161087,81727368228.925674,12519528180.286354,-1.539461,1.539650,0.235875
-1.180000,-1.520000,3.073513,0.040000,-49716704896.493286,-85495361183.009979,85534415199.470184,7061577923.936033,-1.611003,1.611297,0.133044
-1.140000,-1.520000,3.045604,0.040000,-47679348210.177803,-88605372002.252472,88660329635.080658,528477202.560357,-1.669687,1.670101,0.009957
-1.100000,-1.520000,3.017967,0.040000,-45500306567.353775,-90757125424.959717,90829102516.752289,-7050192885.096748,-1.710324,1.710866,-0.132830
-1.060000,-1.520000,2.990609,0.040000,-43176162901.196762,-91656755320.874191,91745665475.567062,-15570715449.115826,-1.727369,1.728039,-0.293361
-1.020000,-1.520000,2.963539,0.040000,-40705503372.920937,-91012654640.644135,91116777548.056885,-24841074430.505005,-1.715320,1.716104,-0.468020
-0.980000,-1.520000,2.936764,0.040000,-38089381473.452698,-88563693497.215134,88679345140.618286,-34572866982.615570,-1.669245,1.670117,-0.651373
-0.940000,-1.520000,2.910293,0.040000,-35331732870.224358,-84112977113.300537,84234396596.874802,-44383044041.374298,-1.585424,1.586339,-0.836202
-0.900000,-1.520000,2.884133,0.040000,-32439687313.321846,-77563397088.908127,77682958762.688690,-53808727593.112007,-1.462015,1.462916,-1.013788
-0.860000,-1.520000,2.858294,0.040000,-29423721208.056858,-68949402854.362640,69058218109.141846,-62336759981.382767,-1.299662,1.300482,-1.174461
-0.820000,-1.520000,2.832784,0.040000,-26297600604.381443,-58458360204.845390,58547249647.482506,-69446965918.411667,-1.101892,1.102562,-1.308421
-0.780000,-1.520000,2.807612,0.040000,-23078080984.664650,-46435227851.102592,46495937794.275696,-74664779887.498871,-0.875210,0.875667,-1.406728
-0.740000,-1.520000,2.782787,0.040000,-19784356733.123871,-33366449982.599812,33392890599.268772,-77615766814.229965,-0.628793,0.628992,-1.462326
-0.700000,-1.520000,2.758319,0.040000,-16437286090.403015,-19842750781.598278,19831986718.487045,-78072715938.962601,-0.373788,0.373707,-1.470935
-0.660000,-1.520000,2.734218,0.040000,-13058450749.531193,-6505076698.572604,6457832607.231076,-75986302251.803604,-0.122292,0.121936,-1.431626
-0.620000,-1.520000,2.710492,0.040000,-9669135856.336170,6018053870.013020,-6097500647.523091,-71493047328.696472,0.113833,-0.114431,-1.346970
-0.580000,-1.520000,2.687152,0.040000,-6289329733.556003,17171377814.952547,-17275890263.512173,-64898876801.814217,0.324109,-0.324897,-1.222732
-0.540000,-1.520000,2.664208,0.040000,-2936839771.436102,26521932547.038254,-26642619675.024830,-56641654650.481415,0.500371,-0.501280,-1.067162
-0.500000,-1.520000,2.641671,0.040000,373397664.035452,33789277712.270901,-33916755044.193085,-47240137452.636574,0.637330,-0.638291,-0.890032
-0.460000,-1.520000,2.619551,0.040000,3629765183.969174,38854211254.943993,-38979759414.962662,-37238695621.988937,0.732745,-0.733692,-0.701599
-0.420000,-1.520000,2.597858,0.040000,6824156091.256614,41747660565.991974,-41864096565.381889,-27156621459.419235,0.787208,-0.788086,-0.511646
-0.380000,-1.520000,2.576604,0.040000,9951927199.124701,42624604382.811928,-42726776001.530319,-17448519874.091927,0.803650,-0.804420,-0.328740
-0.340000,-1.520000,2.555799,0.040000,13011653915.412718,41729422975.384521,-41814319318.500099,-8479210461.921191,0.786686,-0.787326,-0.159753
-0.300000,-1.520000,2.535454,0.040000,16004742461.573151,39359194638.773384,-39425735672.229462,-513547422.959811,0.741926,-0.742428,-0.009676
-0.260000,-1.520000,2.515581,0.040000,18934957468.232334,35830421377.153893,-35879055903.796669,6281064652.255255,0.675341,-0.675707,0.118339
-0.220000,-1.520000,2.496191,0.040000,21807917884.593746,31452546640.959190,-31484814749.192177,11823449833.240002,0.592767,-0.593010,0.222761
-0.180000,-1.520000,2.477295,0.040000,24630603512.172783,26509001255.921310,-26527149030.767719,16102834518.177059,0.499548,-0.499684,0.303387
-0.140000,-1.520000,2.458904,0.040000,27410902584.443268,21244910674.026348,-21251529370.948086,19160975595.362316,0.400304,-0.400354,0.361004
-0.100000,-1.520000,2.441031,0.040000,30157220113.055111,15860973348.293610,-15858620242.994370,21073409374.164330,0.298817,-0.298799,0.397035
-0.060000,-1.520000,2.423685,0.040000,32878156743.710812,10513837777.926672,-10504711655.186274,21931486547.319988,0.198035,-0.197966,0.413202
-0.020000,-1.520000,2.406880,0.040000,35582257566.822540,5322166002.845583,-5307962842.688242,21827994332.795525,0.100192,-0.100085,0.411252
0.020000,-1.520000,2.390626,0.040000,38277821473.817841,375308235.237362,-357235543.470664,20847996265.525764,0.006969,-0.006833,0.392788
0.060000,-1.520000,2.374934,0.040000,40972757468.565002,-4258265415.028248,4279493283.745017,19063454438.746319,-0.080348,0.080508,0.359167
0.100000,-1.520000,2.359816,0.040000,43674474404.031654,-8522489838.070644,8546762201.880948,16529375026.939568,-0.160706,0.160889,0.311423
0.140000,-1.520000,2.345283,0.040000,46389790368.106499,-12363288701.584019,12391176738.170820,13282032997.007652,-0.233089,0.233299,0.250241
0.180000,-1.520000,2.331346,0.040000,49124845100.568108,-15716801473.670315,15749440811.850100,9342047222.096510,-0.296298,0.296544,0.176010
0.220000,-1.520000,2.318015,0.040000,51884996955.218872,-18499732184.098480,18538547824.720837,4723240836.975238,-0.348765,0.349058,0.088989
0.260000,-1.520000,2.305301,0.040000,54674689217.557480,-20604505444.391918,20650932498.896786,-554955998.434521,-0.388463,0.388813,-0.010456
0.300000,-1.520000,2.293215,0.040000,57497277990.784050,-21899186724.792645,21954425232.225231,-6454069893.805228,-0.412906,0.413322,-0.121598
0.340000,-1.520000,2.281765,0.040000,60354821449.149200,-22231595161.529778,22296305925.262550,-12902710815.997665,-0.419222,0.419710,-0.243095
0.380000,-1.520000,2.270963,0.040000,63247837152.810524,-21438708833.602379,21512609759.917213,-19782518587.017960,-0.404335,0.404892,-0.372714
0.420000,-1.520000,2.260817,0.040000,66175042641.816116,-19363031205.940765,19444499006.358547,-26916204521.041737,-0.365271,0.365885,-0.507117
0.460000,-1.520000,2.251336,0.040000,69133105474.569229,-15875690911.503386,15961527135.975443,-34061726316.919731,-0.299592,0.300239,-0.641743
0.500000,-1.520000,2.242529,0.040000,72116439406.291046,-10903395987.994669,10988860381.795952,-40916290512.545471,-0.205909,0.206553,-0.770887
0.540000,-1.520000,2.234403,0.040000,75117089433.617447,-4454704626.228370,4533849487.688879,-47132048815.029366,-0.084377,0.084973,-0.887995
0.580000,-1.520000,2.226965,0.040000,78124747295.353622,3359487298.476501,-3293190412.668072,-52343230363.394348,0.062920,-0.062420,-0.986177
0.620000,-1.520000,2.220224,0.040000,81126929773.091248,12316216755.773565,-12269016869.405855,-56202272555.924385,0.231778,-0.231422,-1.058883
0.660000,-1.520000,2.214185,0.040000,84109335005.613342,22085442054.779194,-22062350099.692436,-58420183859.873657,0.415972,-0.415798,-1.100670
0.700000,-1.520000,2.208854,0.040000,87056368686.095856,32251384229.737980,-32255316482.830399,-58804415698.912193,0.607657,-0.607687,-1.107909
0.740000,-1.520000,2.204236,0.040000,89951806150.409897,42348441868.958801,-42379673336.160202,-57286917049.498230,0.798046,-0.798281,-1.079319
0.780000,-1.520000,2.200336,0.040000,92779533359.924927,51906390688.494217,-51962459739.034729,-53936426769.651970,0.978263,-0.978686,-1.016194
0.820000,-1.520000,2.197157,0.040000,95524295138.052048,60497200232.665604,-60573289058.115562,-48952219056.478127,1.140232,-1.140806,-0.922288
0.860000,-1.520000,2.194702,0.040000,98172376468.776733,67775385860.125404,-67865078373.858612,-42640512101.352486,1.277435,-1.278110,-0.803372
0.900000,-1.520000,2.192975,0.040000,100712152861.219711,73505471950.110031,-73601704281.683853,-35378339779.049355,1.385430,-1.386155,-0.666548
0.940000,-1.520000,2.191976,0.040000,103134466128.886475,77573263766.366455,-77669257582.109451,-27571839630.087738,1.462068,-1.462791,-0.519469
0.980000,-1.520000,2.191707,0.040000,105432807523.564240,79981177787.627350,-80071182942.408798,-19616165897.067997,1.507400,-1.508079,-0.369580
1.020000,-1.520000,2.191707,0.040000,107603315409.883270,80830831698.066589,-80910580170.481003,-11862799618.095057,1.523350,-1.523951,-0.223502
1.060000,-1.520000,2.191976,0.040000,109644614903.800522,80297780487.944016,-80364637064.636047,-4597591209.642267,1.513235,-1.513738,-0.086621
1.100000,-1.520000,2.192975,0.040000,111557539442.192047,78603560227.500336,-78656420847.692474,1969724789.276401,1.481235,-1.481634,0.037111
1.140000,-1.520000,2.194702,0.040000,113344778634.144913,75989362289.360504,-76028385541.994751,7705886313.293701,1.431904,-1.432198,0.145183
1.180000,-1.520000,2.197157,0.040000,115010494263.369370,72694223805.542313,-72720485607.328690,12546909631.112732,1.369750,-1.369948,0.236391
1.220000,-1.520000,2.200336,0.040000,116559939219.886688,68939091849.411133,-68954237210.476334,16486302437.678690,1.298938,-1.299052,0.310611
1.260000,-1.520000,2.204236,0.040000,117999104852.122391,64916852704.874084,-64922793266.921463,19561377760.581345,1.223105,-1.223149,0.368548
1.300000,-1.520000,2.208854,0.040000,119334412759.910858,60787573611.426201,-60786254655.318741,21839738781.798168,1.145266,-1.145256,0.411473
1.340000,-1.520000,2.214185,0.040000,120572458745.143280,56677784556.896790,-56671025719.731705,23407276998.570072,1.067804,-1.067753,0.441007
1.380000,-1.520000,2.220224,0.040000,121719810179.716873,52682541992.004730,-52671943664.215401,24358367462.074799,0.992510,-0.992430,0.458926
1.420000,-1.520000,2.226965,0.040000,122782853587.780792,48869144451.927704,-48856045991.492180,24788440999.804661,0.920649,-0.920550,0.467029
1.460000,-1.520000,2.234403,0.040000,123767686575.688721,45281602317.653244,-45267077036.171440,24788782800.978237,0.853050,-0.852940,0.467035
1.500000,-1.520000,2.242529,0.040000,124680047013.943222,41945220064.628479,-41930093506.430962,24443227768.970192,0.790187,-0.790073,0.460525
1.540000,-1.520000,2.251336,0.040000,125525272175.155136,38870881065.470924,-38855761892.280190,23826357082.020679,0.732264,-0.732151,0.448902
1.580000,-1.520000,2.260817,0.040000,126308280991.779022,36058810208.456100,-36044126001.944191,23002807680.255432,0.679286,-0.679175,0.433386
1.620000,-1.520000,2.270963,0.040000,127033573421.203659,33501723727.604187,-33487756685.840172,22027353886.797520,0.631113,-0.631008,0.415008
1.660000,-1.520000,2.281765,0.040000,127705241878.551498,31187364018.192860,-31174283617.803185,20945484330.518299,0.587514,-0.587416,0.394625
1.700000,-1.520000,2.293215,0.040000,128326990677.049377,29100469246.347198,-29088360447.374672,19794262741.864090,0.548201,-0.548110,0.372935
1.740000,-1.520000,2.305301,0.040000,128902160317.958038,27224253249.465195,-27213139822.865337,18603319849.350800,0.512858,-0.512774,0.350497
1.780000,-1.520000,2.318015,0.040000,129433754254.882874,25541479349.646786,-25531342507.529896,17395872033.865570,0.481159,-0.481083,0.327748
1.820000,-1.520000,2.331346,0.040000,129924466407.270187,24035209125.287113,-24026001953.545799,16189700019.190659,0.452785,-0.452716,0.305023
1.860000,-1.520000,2.345283,0.040000,130376708218.701065,22689298857.905338,-22680957185.304970,14998048661.455700,0.427432,-0.427370,0.282572
1.900000,-1.520000,2.359816,0.040000,130792634460.254745,21488705604.036407,-21481155956.928997,13830428482.499485,0.404817,-0.404760,0.260573
1.940000,-1.520000,2.374934,0.040000,131174167284.792709,20419653679.700211,-20412818923.564510,12693312738.565205,0.384679,-0.384628,0.239149
1.980000,-1.520000,2.390626,0.040000,131523018262.267715,19469701939.105488,-19463505132.098614,11590732146.121170,0.366785,-0.366739,0.218376
2.020000,-1.520000,2.406880,0.040000,131840708285.682159,18627743130.224380,-18622110026.429085,10524774259.430401,0.350926,-0.350883,0.198293
2.060000,-1.520000,2.423685,0.040000,132128585346.664551,17883958985.501919,-17878819542.555214,9495996981.832272,0.336915,-0.336876,0.178910
2.100000,-1.520000,2.441031,0.040000,132387840250.998184,17229748510.424580,-17225037683.656525,8503766607.406233,0.324592,-0.324556,0.160216
2.140000,-1.520000,2.458904,0.040000,132619520387.748993,16657642006.451252,-16653300050.172766,7546530733.155399,0.313815,-0.313782,0.142181
2.180000,-1.520000,2.477295,0.040000,132824541688.797134,16161209505.590731,-16157181943.272524,6622035797.332255,0.304464,-0.304433,0.124763
2.220000,-1.520000,2.496191,0.040000,133003698924.782639,15734969221.807247,-15731206487.020864,5727498213.277494,0.296435,-0.296406,0.107909
2.260000,-1.520000,2.515581,0.040000,133157674483.650558,15374297581.753773,-15370752299.274309,4859737252.819524,0.289641,-0.289614,0.091560
2.300000,-1.520000,2.535454,0.040000,133287045776.162354,15075311748.842546,-15071902568.606058,4015275979.620485,0.284008,-0.283983,0.075650
2.340000,-1.520000,2.555799,0.040000,133392291475.384033,14834322520.939249,-14830534099.067057,3190397010.093709,0.279466,-0.279437,0.060109
2.380000,-1.520000,2.576604,0.040000,133473798021.559235,14649034118.372793,-14651764161.820061,2381551751.488849,0.276012,-0.276032,0.044870
2.420000,-1.520000,2.597858,0.040000,133531886707.232971,14524989474.426954,-14572455654.428885,1792206679.955181,0.273928,-0.274285,0.033766
2.460000,-1.520000,2.619551,0.040000,133567102741.820892,14327964089.244268,-14342198571.610331,1450891694.424935,0.270028,-0.270135,0.027336
-2.500000,-1.480000,4.010669,0.040000,-36558734466.280579,-28201163270.093800,21742769265334.691406,98826531216.871872,-123.265842,286.911862,1.861949
-2.460000,-1.480000,3.979111,0.040000,-73105656157.840179,1308250024792.097900,15162311645946.814453,56130286414.924805,-68.446290,192.572262,1.057527
-2.420000,-1.480000,3.947707,0.040000,-73065749276.290833,-793134175838.153931,4880339052688.380859,18064870236.261353,-38.044700,68.846824,0.340353
-2.380000,-1.480000,3.916459,0.040000,-72998499559.197327,-63431695421.849136,152674224691.127472,3170299108.886837,-1.699504,2.372057,0.059730
-2.340000,-1.480000,3.885372,0.040000,-72904017007.264008,-17228949065.619720,17225526948.732891,4212382004.438987,-0.324584,0.324558,0.079364
-2.300000,-1.480000,3.854450,0.040000,-72781961198.516098,-17530097768.660210,17525949709.152790,5295179398.339379,-0.330254,0.330222,0.099764
-2.260000,-1.480000,3.823695,0.040000,-72631850812.317337,-17905132573.428455,17900716710.373363,6399378994.268559,-0.337318,0.337285,0.120568
-2.220000,-1.480000,3.793114,0.040000,-72453085487.492401,-18357229521.779068,18352543537.104786,7528902147.539377,-0.345834,0.345799,0.141849
-2.180000,-1.480000,3.762708,0.040000,-72244941463.333481,-18890996713.831787,18885988412.818672,8687439498.778473,-0.355889,0.355851,0.163676
-2.140000,-1.480000,3.732484,0.040000,-72006564221.797745,-19512050176.375900,19506657929.761616,9878322571.927490,-0.367588,0.367547,0.186113
-2.100000,-1.480000,3.702445,0.040000,-71736959492.722946,-20227085823.491787,20221240583.020828,11104396757.789484,-0.381057,0.381013,0.209213
-2.060000,-1.480000,3.672597,0.040000,-71434982529.380264,-21044002808.974503,21037627615.885201,12367859481.981388,-0.396445,0.396397,0.233018
-2.020000,-1.480000,3.642942,0.040000,-71099325457.842285,-21972040491.791676,21965050013.265991,13670051763.411858,-0.413926,0.413874,0.257552
-1.980000,-1.480000,3.613488,0.040000,-70728502481.321625,-23021923479.210014,23014223857.570881,15011191612.753845,-0.433703,0.433645,0.282820
-1.940000,-1.480000,3.584237,0.040000,-70320832707.907349,-24206008901.822147,24197498127.003036,16390036088.283072,-0.456007,0.455943,0.308798
-1.900000,-1.480000,3.555196,0.040000,-69874420366.866516,-25538426637.562962,25528995724.567081,17803456906.381142,-0.481105,0.481034,0.335427
-1.860000,-1.480000,3.526370,0.040000,-69387132190.387726,-27035198279.841438,27024733631.040756,19245912582.080578,-0.509300,0.509221,0.362604
-1.820000,-1.480000,3.497764,0.040000,-68856571772.233322,-28714313986.615440,28702701442.516121,20708798492.625038,-0.540929,0.540841,0.390166
-1.780000,-1.480000,3.469382,0.040000,-68280050782.928482,-30595737526.054211,30582868760.250824,22179655536.433575,-0.576369,0.576272,0.417878
-1.740000,-1.480000,3.441232,0.040000,-67654557036.995811,-32701298392.528244,32687080481.118652,23641218987.449066,-0.616031,0.615924,0.445414
-1.700000,-1.480000,3.412837,0.040000,-66976719589.697006,-35054415392.778290,35038784578.677856,25070292874.509590,-0.660357,0.660239,0.472339
-1.660000,-1.480000,3.384565,0.040000,-66242771311.938614,-37679578377.657547,37662519231.576744,26436443390.561687,-0.709809,0.709680,0.498078
-1.620000,-1.480000,3.356358,0.040000,-65448509780.781952,-40601494012.172455,40583065320.713150,27700519713.777710,-0.764852,0.764713,0.521894
-1.580000,-1.480000,3.327960,0.040000,-64589257862.541451,-43843778597.544701,43824147313.588188,28813035161.927563,-0.825931,0.825783,0.542854
-1.540000,-1.480000,3.299803,0.040000,-63659826092.165482,-47427058245.049232,47406542598.755470,29712479457.514874,-0.893437,0.893283,0.559800
-1.500000,-1.480000,3.271422,0.040000,-62654479902.447273,-51366318434.913216,51345440658.338097,30323688183.576244,-0.967653,0.967496,0.571316
-1.460000,-1.480000,3.243138,0.040000,-61566915958.203705,-55667338404.515244,55646886238.810417,30556472252.638641,-1.048689,1.048535,0.575702
-1.420000,-1.480000,3.214954,0.040000,-60390253313.460327,-60322062073.553375,60303156026.424507,30304810999.253532,-1.136396,1.136253,0.570960
-1.380000,-1.480000,3.186539,0.040000,-59117046806.480896,-65302812262.002258,65286972177.159416,29447036353.631210,-1.230253,1.230134,0.554799
-1.340000,-1.480000,3.158375,0.040000,-57739331948.286469,-70555369519.075882,70544569207.661697,27847574438.727394,-1.329243,1.329162,0.524664
-1.300000,-1.480000,3.130009,0.040000,-56248712359.740646,-75991134774.140823,75987827315.551651,25360945031.940228,-1.431698,1.431673,0.477815
-1.260000,-1.480000,3.101712,0.040000,-54636502251.745285,-81478898282.086426,81485987750.127182,21838811409.008949,-1.535150,1.535203,0.411456
-1.220000,-1.480000,3.073553,0.040000,-52893937036.417526,-86837156489.769409,86857885846.252975,17140863619.627117,-1.636180,1.636336,0.322944
-1.180000,-1.480000,3.045118,0.040000,-51012464235.044029,-91828436691.358856,91866159219.134247,11150124619.652433,-1.730314,1.730598,0.210075
-1.140000,-1.480000,3.016946,0.040000,-48984123587.563835,-96157641212.271713,96215448283.846375,3792793924.668789,-1.811992,1.812428,0.071458
-1.100000,-1.480000,2.989044,0.040000,-46802018797.125481,-99476872231.151932,99557068344.928833,-4938098610.111699,-1.874655,1.875260,-0.093037
-1.060000,-1.480000,2.961420,0.040000,-44460872961.926262,-101399327139.192276,101502777969.060242,-14957193791.978168,-1.911007,1.911786,-0.281802
-1.020000,-1.480000,2.934080,0.040000,-41957645273.770668,-101524380975.037323,101649811619.620728,-26062959548.660435,-1.913487,1.914432,-0.491041
-0.980000,-1.480000,2.907034,0.040000,-39292168780.405609,-99474622217.249893,99618002944.185272,-37920545388.478561,-1.874970,1.876051,-0.714445
-0.940000,-1.480000,2.880290,0.040000,-36467750089.567665,-94943247252.622147,95097454161.096695,-50057407128.377937,-1.789657,1.790820,-0.943111
-0.900000,-1.480000,2.853855,0.040000,-33491655599.110825,-87747031757.723633,87901982144.286011,-61877613216.058311,-1.654081,1.655248,-1.165810
-0.860000,-1.480000,2.827739,0.040000,-30375400212.547127,-77876734343.563248,78020143209.503342,-72698765577.505447,-1.468053,1.469134,-1.369687
-0.820000,-1.480000,2.801951,0.040000,-27134758825.713299,-65534359859.568687,65653133045.247292,-81811442902.423065,-1.235377,1.236272,-1.541375
-0.780000,-1.480000,2.776499,0.040000,-23789441917.190914,-51146513678.083138,51228605493.520264,-88555527290.134521,-0.964094,0.964713,-1.668437
-0.740000,-1.480000,2.751394,0.040000,-20362414571.365524,-35346048134.187584,35382425888.366249,-92402121609.861572,-0.666146,0.666420,-1.740910
-0.700000,-1.480000,2.726644,0.040000,-16878888459.308216,-18920281919.068871,18906535683.459045,-93026005354.479645,-0.356391,0.356288,-1.752664
-0.660000,-1.480000,2.702260,0.040000,-13365069092.979046,-2731881340.385875,2669056742.094405,-90353525565.321533,-0.051115,0.050642,-1.702313
-0.620000,-1.480000,2.678251,0.040000,-9846783775.127796,12374386879.164759,-12479964913.700363,-84575175608.016129,0.233737,-0.234533,-1.593445
-0.580000,-1.480000,2.654628,0.040000,-6348137924.199217,25661915513.531979,-25799779768.379299,-76119905937.474838,0.484265,-0.485304,-1.434143
-0.540000,-1.480000,2.631401,0.040000,-2890342745.938650,36573227495.037025,-36730552434.717384,-65597012914.248947,0.689950,-0.691136,-1.235886
-0.500000,-1.480000,2.608580,0.040000,509173169.648391,44770630473.289444,-44934203016.991463,-53718340705.180923,0.844429,-0.845662,-1.012085
-0.460000,-1.480000,2.586177,0.040000,3837303562.128241,50143280273.494431,-50301223549.135117,-41216335268.164742,0.945621,-0.946811,-0.776540
-0.420000,-1.480000,2.564202,0.040000,7085443850.532573,52784746718.568810,-52927726154.019081,-28771793430.258026,0.995303,-0.996381,-0.542077
-0.380000,-1.480000,2.542666,0.040000,10249345229.590002,52949852608.993286,-53071677029.614487,-16960508081.929171,0.998294,-0.999213,-0.319546
-0.340000,-1.480000,2.521581,0.040000,13328711665.152401,51001088131.946838,-51098723683.320091,-6222859978.036138,0.961442,-0.962178,-0.117242
-0.300000,-1.480000,2.500958,0.040000,16326624667.289524,47354530482.708824,-47427612108.916733,3143915369.850295,0.892600,-0.893151,0.059233
-0.260000,-1.480000,2.480809,0.040000,19248881623.239166,42433754830.250854,-42483817812.246651,10975001892.540876,0.799760,-0.800137,0.206775
-0.220000,-1.480000,2.461145,0.040000,22103320966.044666,36636706347.600296,-36666486770.100693,17216499544.032681,0.690425,-0.690650,0.324369
-0.180000,-1.480000,2.441977,0.040000,24899187243.885849,30314760339.778053,-30327759881.836372,21901028272.968296,0.571221,-0.571319,0.412628
-0.140000,-1.480000,2.423319,0.040000,27646570050.865788,23759494153.883312,-23759613849.904541,25123501635.494900,0.447643,-0.447644,0.473341
-0.100000,-1.480000,2.405181,0.040000,30355938176.177650,17195579679.498077,-17186543846.140999,27015340679.576515,0.323924,-0.323856,0.508985
-0.060000,-1.480000,2.387575,0.040000,33037779952.859467,10783348025.785429,-10768102571.907011,27717903830.132164,0.203078,-0.202963,0.522221
-0.020000,-1.480000,2.370514,0.040000,35702345506.843971,4632013898.953994,-4612589706.019233,27362301753.114998,0.087160,-0.087014,0.515522
0.020000,-1.480000,2.354008,0.040000,38359470513.878220,-1184319301.213797,1206482818.888367,26060827161.591705,-0.022439,0.022606,0.491001
0.060000,-1.480000,2.338071,0.040000,41018456768.783943,-6616370794.324758,6640278112.110158,23904474458.417488,-0.124791,0.124972,0.450374
0.100000,-1.480000,2.322713,0.040000,43687992804.666542,-11632195516.804804,11657661141.728374,20957533688.862370,-0.219301,0.219493,0.394852
0.140000,-1.480000,2.307946,0.040000,46376101560.242012,-16203154073.549486,16231173408.376978,17250915277.136013,-0.305435,0.305646,0.325017
0.180000,-1.480000,2.293782,0.040000,49090092638.041756,-20283329866.584469,20315871267.779591,12784498370.395130,-0.382334,0.382579,0.240867
0.220000,-1.480000,2.280232,0.040000,51836487335.220276,-23792908163.239910,23832321710.364288,7541893137.816461,-0.448495,0.448792,0.142094
0.260000,-1.480000,2.267306,0.040000,54620890473.838631,-26611977179.350418,26660596242.237274,1509932281.009131,-0.501660,0.502026,0.028448
0.300000,-1.480000,2.255016,0.040000,57447798629.167076,-28580900302.761860,28640899007.854698,-5303710021.031938,-0.538820,0.539272,-0.099925
0.340000,-1.480000,2.243372,0.040000,60320344899.713852,-29502990332.465466,29576069215.078396,-12852688451.139801,-0.556266,0.556817,-0.242152
0.380000,-1.480000,2.232384,0.040000,63239984880.349335,-29152895444.783787,29239598820.068966,-21030352458.938034,-0.549748,0.550401,-0.396224
0.420000,-1.480000,2.222062,0.040000,66206137875.549675,-27296902173.126743,27395856017.747627,-29647690009.376602,-0.514849,0.515595,-0.558580
0.460000,-1.480000,2.212415,0.040000,69215815889.994705,-23726052064.704182,23833497556.948414,-38419372481.362091,-0.447620,0.448430,-0.723843
0.500000,-1.480000,2.203452,0.040000,72263292882.453690,-18296887263.434250,18406653909.361137,-46964866694.844460,-0.345344,0.346172,-0.884845
0.540000,-1.480000,2.195181,0.040000,75339878836.137421,-10972502060.267885,11076420185.242079,-54827429882.265450,-0.207316,0.208099,-1.032981
0.580000,-1.480000,2.187610,0.040000,78433863701.673981,-1856499236.583740,1945260007.037714,-61510874903.113625,-0.035479,0.036148,-1.158901
0.620000,-1.480000,2.180747,0.040000,81530684871.116531,8787827031.144085,-8723393079.638863,-66531432843.215630,0.165204,-0.164718,-1.253491
0.660000,-1.480000,2.174599,0.040000,84613348233.458954,20540209590.827053,-20507621808.311230,-69478224573.491257,0.386805,-0.386560,-1.309010
0.700000,-1.480000,2.169170,0.040000,87663098109.980072,32851879450.555630,-32855609714.089329,-70071792895.815628,0.618970,-0.618998,-1.320193
0.740000,-1.480000,2.164468,0.040000,90660290690.885147,45097764722.985603,-45138331159.815460,-68208376954.172722,0.849897,-0.850203,-1.285085
0.780000,-1.480000,2.160495,0.040000,93585388196.216965,56644048611.993843,-56717856908.311295,-63979668547.887688,1.067624,-1.068180,-1.205414
0.820000,-1.480000,2.157258,0.040000,96419966791.430435,66918415166.033165,-67018388074.604698,-57663243380.438744,1.261347,-1.262100,-1.086409
0.860000,-1.480000,2.154758,0.040000,99147627047.822632,75469622585.805634,-75586436223.126923,-49685825842.638947,1.422552,-1.423432,-0.936110
0.900000,-1.480000,2.152998,0.040000,101754712542.030106,82006090058.862061,-82129687238.442429,-40567675857.088661,1.545741,-1.546672,-0.764319
0.940000,-1.480000,2.151981,0.040000,104230775272.317581,86408742712.940125,-86529763031.414139,-30859806112.246563,1.628675,-1.629587,-0.581417
0.980000,-1.480000,2.151707,0.040000,106568767215.624908,88719452788.182816,-88830300344.477448,-21085709525.945629,1.672152,-1.672988,-0.397267
1.020000,-1.480000,2.151707,0.040000,108764975976.750336,89111160719.026550,-89206575252.924026,-11696347953.494780,1.679445,-1.680164,-0.220366
1.060000,-1.480000,2.151981,0.040000,110818751591.862686,87848075258.658676,-87925219392.185883,-3042738946.229053,1.655545,-1.656126,-0.057327
1.100000,-1.480000,2.152998,0.040000,112732087440.449432,85244188318.481339,-85302366212.807861,4633855850.484602,1.606379,-1.606817,0.087305
1.140000,-1.480000,2.154758,0.040000,114509121087.974518,81626427844.198715,-81666592284.425095,11197276952.221233,1.538116,-1.538419,0.210963
1.180000,-1.480000,2.157258,0.040000,116155613694.881226,77306129123.282883,-77330324061.433517,16602017209.170261,1.456629,-1.456811,0.312792
1.220000,-1.480000,2.160495,0.040000,117678453537.990616,72560004770.835037,-72570850699.329483,20873751502.121155,1.367134,-1.367216,0.393274
1.260000,-1.480000,2.164468,0.040000,119085214153.752518,67619947242.643341,-67620229339.177460,24088795264.059723,1.274001,-1.274003,0.453847
1.300000,-1.480000,2.169170,0.040000,120383783571.577179,62669948921.104141,-62662327396.684631,26355216836.568642,1.180695,-1.180638,0.496548
1.340000,-1.480000,2.174599,0.040000,121582069747.650757,57848066584.454430,-57834901329.675636,27797114272.204651,1.089817,-1.089717,0.523714
1.380000,-1.480000,2.180747,0.040000,122687779227.778351,53251471662.584229,-53234739138.484200,28542591936.060650,1.003194,-1.003068,0.537759
1.420000,-1.480000,2.187610,0.040000,123708261098.111801,48942992503.091019,-48924268702.407753,28715311545.033607,0.922009,-0.921867,0.541013
1.460000,-1.480000,2.195181,0.040000,124650405856.408936,44957997838.444672,-44938483152.253769,28429122760.573231,0.846924,-0.846777,0.535621
1.500000,-1.480000,2.203452,0.040000,125520588254.297272,41310884613.481133,-41291451305.213036,27785131245.567524,0.778211,-0.778065,0.523488
1.540000,-1.480000,2.212415,0.040000,126324643764.881973,38000767085.696579,-37982015567.167419,26870560069.414043,0.715850,-0.715709,0.506257
1.580000,-1.480000,2.222062,0.040000,127067869587.044891,35016204833.457474,-34998519852.792152,25758837929.741520,0.659626,-0.659492,0.485311
1.620000,-1.480000,2.232384,0.040000,127755042621.931564,32338963752.472416,-32322565442.504108,24510457691.962685,0.609192,-0.609069,0.461791
1.660000,-1.480000,2.243372,0.040000,128390448396.555878,29946894041.086147,-29931881490.852009,23174261785.900002,0.564132,-0.564019,0.436617
1.700000,-1.480000,2.255016,0.040000,128977916318.614655,27816051667.560452,-27802438431.118488,21788911423.846581,0.523994,-0.523891,0.410516
1.740000,-1.480000,2.267306,0.040000,129520857856.048660,25922201462.910400,-25909943435.527031,20384378162.644138,0.488320,-0.488228,0.384054
1.780000,-1.480000,2.280232,0.040000,130022305224.879791,24241833518.090351,-24230850118.273621,18983358345.408733,0.456668,-0.456585,0.357657
1.820000,-1.480000,2.293782,0.040000,130484948948.947906,22752808916.801689,-22742998693.202007,17602555586.227787,0.428621,-0.428547,0.331642
1.860000,-1.480000,2.307946,0.040000,130911173249.907257,21434731772.124107,-21425983543.342957,16253806955.413918,0.403793,-0.403727,0.306231
1.900000,-1.480000,2.322713,0.040000,131303088665.426971,20269125471.989647,-20261325997.510098,14945048230.627563,0.381838,-0.381779,0.281573
1.940000,-1.480000,2.338071,0.040000,131662561608.313553,19239473774.058414,-19232512802.732098,13681125459.060139,0.362443,-0.362391,0.257760
1.980000,-1.480000,2.354008,0.040000,131991240796.800507,18331172681.709835,-18324946067.157692,12464466524.377279,0.345335,-0.345288,0.234838
2.020000,-1.480000,2.370514,0.040000,132290580630.046249,17531427024.643276,-17525838450.544914,11295629257.535999,0.330271,-0.330229,0.212816
2.060000,-1.480000,2.387575,0.040000,132561861672.187561,16829116168.215967,-16824077903.268024,10173743207.086916,0.317042,-0.317004,0.191679
2.100000,-1.480000,2.405181,0.040000,132806208458.321503,16214645952.500687,-16210078949.709976,9096861428.721849,0.305468,-0.305433,0.171390
2.140000,-1.480000,2.423319,0.040000,133024604858.310608,15679798428.274267,-15675632003.593670,8062237206.389171,0.295393,-0.295362,0.151897
2.180000,-1.480000,2.441977,0.040000,133217907238.178375,15217586870.930929,-15213758133.857929,7066538905.111123,0.286687,-0.286658,0.133138
2.220000,-1.480000,2.461145,0.040000,133386855650.687546,14822120694.912123,-14818573967.128321,6106014456.473642,0.279237,-0.279211,0.115041
2.260000,-1.480000,2.480809,0.040000,133532083271.003586,14488484606.556189,-14485172893.154360,5176615525.168057,0.272953,-0.272928,0.097530
2.300000,-1.480000,2.500958,0.040000,133654124270.132751,14212662565.108803,-14209580343.477736,4274091477.193140,0.267757,-0.267734,0.080526
2.340000,-1.480000,2.521581,0.040000,133753420229.551193,13991868431.046885,-13989386111.681381,3394082783.562093,0.263601,-0.263582,0.063946
2.380000,-1.480000,2.542666,0.040000,133830324011.599747,13825103850.229729,-13818959283.180933,2533078125.673778,0.260438,-0.260392,0.047725
2.420000,-1.480000,2.564202,0.040000,133885082192.661789,13719299720.441723,-13724470363.528009,1903937237.740075,0.258509,-0.258548,0.035871
2.460000,-1.480000,2.586177,0.040000,133917583067.772827,13756593862.371626,-13855492029.287098,1540592117.431499,0.259741,-0.260487,0.029026
-2.500000,-1.440000,3.986312,0.040000,-36787346167.940727,125161384890.692825,21972726934060.792969,167606013155.619904,-122.542995,289.077805,3.157794
-2.460000,-1.440000,3.954560,0.040000,-73564548635.064011,1306499748988.666504,15248205108807.517578,45154834842.975578,-68.954858,193.714953,0.850743
-2.420000,-1.440000,3.922959,0.040000,-73526364842.207352,-798661874248.189819,4907760882312.967773,15656363234.099455,-38.272595,69.239718,0.294975
-2.380000,-1.440000,3.891513,0.040000,-73463367172.220581,-62624101433.869888,152434903971.462433,3361060972.074911,-1.687501,2.364336,0.063324
-2.340000,-1.440000,3.860225,0.040000,-73374946747.140305,-16119440463.212307,16115056865.155420,4469474650.090730,-0.303675,0.303642,0.084207
-2.300000,-1.440000,3.829099,0.040000,-73260730202.891281,-16401161603.765585,16397165337.860352,5621728172.802293,-0.308985,0.308955,0.105917
-2.260000,-1.440000,3.798140,0.040000,-73120265819.397339,-16751001183.902430,16746825087.355366,6798769214.975636,-0.315575,0.315543,0.128093
-2.220000,-1.440000,3.767351,0.040000,-72952993483.373459,-17173524444.475649,17169070084.889061,8005448098.298774,-0.323534,0.323500,0.150827
-2.180000,-1.440000,3.736736,0.040000,-72758236728.236450,-17673685709.419994,17668889079.062065,9246417559.827578,-0.332955,0.332919,0.174208
-2.140000,-1.440000,3.706300,0.040000,-72535194774.256561,-18257464011.763763,18252255494.686020,10526086950.973396,-0.343952,0.343913,0.198318
-2.100000,-1.440000,3.676047,0.040000,-72282932948.717941,-18932047006.403259,18926347490.529320,11848517377.554022,-0.356659,0.356616,0.223233
-2.060000,-1.440000,3.645982,0.040000,-72000371170.974121,-19706001400.532272,19699720820.130268,13217277547.704363,-0.371237,0.371190,0.249021
-2.020000,-1.440000,3.616110,0.040000,-71686270229.061844,-20589463708.586132,20582499793.231049,14635251322.453516,-0.387878,0.387826,0.275737
-1.980000,-1.440000,3.586435,0.040000,-71339215542.748657,-21594352264.091057,21586589477.123154,16104383839.156204,-0.406806,0.406748,0.303416
-1.940000,-1.440000,3.556962,0.040000,-70957598074.081619,-22734597306.740223,22725906152.740520,17625350214.182858,-0.428284,0.428218,0.332072
-1.900000,-1.440000,3.527696,0.040000,-70539592017.868942,-24026382554.847267,24016619532.154045,19197127602.302689,-0.452616,0.452542,0.361685
-1.860000,-1.440000,3.498643,0.040000,-70083128886.575241,-25488386794.870804,25477395389.763126,20816447785.861271,-0.480154,0.480071,0.392194
-1.820000,-1.440000,3.469808,0.040000,-69585867604.689072,-27142007046.343456,27129620323.224949,22477103704.036762,-0.511301,0.511208,0.423482
-1.780000,-1.440000,3.441197,0.040000,-69045160257.952179,-29011535114.550240,28997580662.508690,24169079834.887516,-0.546515,0.546410,0.455359
-1.740000,-1.440000,3.412814,0.040000,-68458013218.578346,-31124246020.623581,31108554273.805470,25877473840.313335,-0.586310,0.586192,0.487547
-1.700000,-1.440000,3.384666,0.040000,-67821043510.137817,-33510338999.074810,33492756257.824722,27581176561.793846,-0.631255,0.631122,0.519645
-1.660000,-1.440000,3.356269,0.040000,-67130430513.697800,-36202648591.449760,36183056422.433891,29251281153.445461,-0.681968,0.681820,0.551111
-1.620000,-1.440000,3.327997,0.040000,-66381863487.199883,-39236014187.461952,39214357236.990898,30849202601.880943,-0.739107,0.738944,0.581217
-1.580000,-1.440000,3.299791,0.040000,-65570485919.621170,-42646161129.079453,42622485677.789238,32324510028.216190,-0.803345,0.803166,0.609013
-1.540000,-1.440000,3.271392,0.040000,-64690838526.470779,-46467906426.345352,46442412115.094666,33612511331.854164,-0.875338,0.875146,0.633279
-1.500000,-1.440000,3.243237,0.040000,-63736803777.428307,-50732460732.042694,50705567587.518486,34631689755.262360,-0.955677,0.955474,0.652481
-1.460000,-1.440000,3.214854,0.040000,-62701556296.052498,-55463562713.022011,55435994573.910469,35281182864.077255,-1.044810,1.044602,0.664718
-1.420000,-1.440000,3.186570,0.040000,-61577525341.171844,-60672165216.241737,60645048451.125221,35438624425.398224,-1.142945,1.142741,0.667684
-1.380000,-1.440000,3.158388,0.040000,-60356377894.801353,-66349415382.832291,66324387827.815842,34958844646.566154,-1.249920,1.249731,0.658645
-1.340000,-1.440000,3.129970,0.040000,-59029033603.142776,-72457763598.043213,72437082316.531219,33674143399.781277,-1.365029,1.364874,0.634440
-1.300000,-1.440000,3.101809,0.040000,-57585725793.499603,-78920239456.982300,78906866807.510086,31397099610.940609,-1.486827,1.486727,0.591540
-1.260000,-1.440000,3.073441,0.040000,-56016125691.367996,-85608293952.409607,85605929710.762802,27927118822.844704,-1.612897,1.612879,0.526163
-1.220000,-1.440000,3.045144,0.040000,-54309549207.088844,-92329168880.231247,92342183222.314789,23062074310.851028,-1.739609,1.739707,0.434503
-1.180000,-1.440000,3.016987,0.040000,-52455266349.821365,-98814533831.270218,98847745378.730118,16616342260.819771,-1.861911,1.862161,0.313062
-1.140000,-1.440000,2.988550,0.040000,-50442931215.035225,-104713082504.195587,104771323767.369247,8446098550.746814,-1.973184,1.973623,0.159129
-1.100000,-1.440000,2.960380,0.040000,-48263144071.404175,-109590747533.177200,109678176183.372147,-1518259268.374907,-2.065247,2.065906,-0.028605
-1.060000,-1.440000,2.932485,0.040000,-45908144823.039818,-112942864781.431946,113062023420.109222,-13234426951.174559,-2.128583,2.129481,-0.249344
-1.020000,-1.440000,2.904874,0.040000,-43372618010.475563,-114222515202.371735,114373220870.065598,-26509547178.432896,-2.152870,2.154006,-0.499455
-0.980000,-1.440000,2.877553,0.040000,-40654563753.887161,-112887821651.092682,113066073437.670227,-40967734729.938751,-2.127880,2.129223,-0.771856
-0.940000,-1.440000,2.850532,0.040000,-37756158997.486572,-108467718108.140732,108664920478.233749,-56033360262.304314,-2.044709,2.046195,-1.055701
-0.900000,-1.440000,2.823819,0.040000,-34684504303.100632,-100640634898.561905,100843495954.039307,-70940549637.678421,-1.897275,1.898803,-1.336561
-0.860000,-1.440000,2.797422,0.040000,-31452131310.824299,-89314488599.710648,89505905194.255157,-84777287604.079300,-1.683819,1.685261,-1.597253
-0.820000,-1.440000,2.771352,0.040000,-28077144361.657333,-74691175417.394684,74852219050.537781,-96566644741.775391,-1.408135,1.409349,-1.819372
-0.780000,-1.440000,2.745617,0.040000,-24582894741.185585,-57296960577.882835,57409747796.649261,-105378415785.353485,-1.080145,1.080995,-1.985390
-0.740000,-1.440000,2.720227,0.040000,-20997140246.606773,-37963918288.581818,38014788848.321510,-110454136913.575851,-0.715550,0.715933,-2.081020
-0.700000,-1.440000,2.695191,0.040000,-17350720234.794777,-17757376888.916855,17739572061.590164,-111320792342.891418,-0.334459,0.334324,-2.097348
-0.660000,-1.440000,2.670519,0.040000,-13675861488.474121,2142036962.150245,-2226965851.536942,-107867298915.535400,0.040837,-0.041477,-2.032282
-0.620000,-1.440000,2.646223,0.040000,-10004301721.926823,20580198029.823837,-20722685595.161140,-100364842472.374054,0.388548,-0.389622,-1.890932
-0.580000,-1.440000,2.622311,0.040000,-6365455045.466764,36566272749.809402,-36750655635.154053,-89425754878.018555,0.689972,-0.691361,-1.684833
-0.540000,-1.440000,2.598795,0.040000,-2784835820.223430,49377082501.768349,-49584553240.421478,-75911288914.858582,0.931466,-0.933029,-1.430213
-0.500000,-1.440000,2.575685,0.040000,717093678.930809,58611387093.911331,-58823134603.840889,-60810717054.344917,1.105469,-1.107065,-1.145709
-0.460000,-1.440000,2.552993,0.040000,4125565230.819905,64190694605.665115,-64390466938.731537,-45118352795.788109,1.210519,-1.212025,-0.850056
-0.420000,-1.440000,2.530730,0.040000,7431634100.965414,66316146105.297165,-66491860701.104485,-29730491439.573273,1.250428,-1.251752,-0.560140
-0.380000,-1.440000,2.508907,0.040000,10631863461.620134,65397664265.917603,-65542088011.716049,-15374468186.762350,1.232946,-1.234035,-0.289664
-0.340000,-1.440000,2.487536,0.040000,13727675750.213982,61971402857.584709,-62082003180.429710,-2573262968.679583,1.168202,-1.169036,-0.048482
-0.300000,-1.440000,2.466629,0.040000,16724501883.385912,56619448770.033669,-56697411750.263313,8355603907.258644,1.067184,-1.067771,0.157424
-0.260000,-1.440000,2.446196,0.040000,19630855635.091442,49905403892.536079,-49954093937.707458,17272909001.426514,0.940522,-0.940889,0.325432
-0.220000,-1.440000,2.426252,0.040000,22457435267.712788,42335666882.725182,-42359408708.941780,24176959235.776497,0.797763,-0.797942,0.455508
-0.180000,-1.440000,2.406806,0.040000,25216314615.802231,34342407229.988239,-34346255677.911015,29167432699.802853,0.647053,-0.647082,0.549531
-0.140000,-1.440000,2.387873,0.040000,27920252528.292252,26271642030.652439,-26261418672.391174,32418133739.823048,0.494915,-0.494838,0.610776
-0.100000,-1.440000,2.369464,0.040000,30582140599.070816,18369896439.906513,-18351207975.934811,34144441623.322037,0.345994,-0.345853,0.643301
-0.060000,-1.440000,2.351591,0.040000,33214608792.968048,10786347867.145035,-10763030437.221655,34559152649.905457,0.203089,-0.202914,0.651114
-0.020000,-1.440000,2.334266,0.040000,35829783932.691307,3602849402.777445,-3576802844.481260,33839088732.561150,0.067733,-0.067536,0.637548
0.020000,-1.440000,2.317503,0.040000,38439155279.257202,-3131366633.260083,3158697267.089879,32124182661.203739,-0.059151,0.059357,0.605238
0.060000,-1.440000,2.301313,0.040000,41053495161.290199,-9391510146.548714,9418366536.615622,29530217758.593014,-0.177093,0.177296,0.556366
0.100000,-1.440000,2.285708,0.040000,43682820390.202309,-15183744725.564762,15209364990.295595,26139775762.149506,-0.286215,0.286408,0.492489
0.140000,-1.440000,2.270700,0.040000,46336400621.129753,-20527789540.748608,20553850875.663834,21976766432.452438,-0.386903,0.387099,0.414055
0.180000,-1.440000,2.256302,0.040000,49022785629.228767,-25413592611.907402,25443618397.962029,17003790466.699221,-0.478977,0.479203,0.320361
0.220000,-1.440000,2.242525,0.040000,51749786335.799545,-29769964744.885109,29807636178.273201,11153376295.019321,-0.561096,0.561380,0.210136
0.260000,-1.440000,2.229381,0.040000,54524361142.124367,-33463277443.257736,33511868807.730194,4362792437.540229,-0.630742,0.631108,0.082198
0.300000,-1.440000,2.216881,0.040000,57352402913.677444,-36304301558.465721,36367235084.032707,-3408005296.368997,-0.684350,0.684824,-0.064209
0.340000,-1.440000,2.205035,0.040000,60238435707.242378,-38044785705.019051,38125549051.446396,-12160014256.022402,-0.717242,0.717851,-0.229102
0.380000,-1.440000,2.193855,0.040000,63185217320.601997,-38376887411.782104,38477686487.105629,-21822016488.703766,-0.723613,0.724372,-0.411139
0.420000,-1.440000,2.183351,0.040000,66193248839.432693,-36956540727.295166,37076736024.413208,-32208453922.163361,-0.696962,0.697868,-0.606826
0.460000,-1.440000,2.173532,0.040000,69260228557.022980,-33452680567.648048,33587973900.381428,-42990001281.289169,-0.631033,0.632052,-0.809957
0.500000,-1.440000,2.164408,0.040000,72380527732.052841,-27609427680.160225,27751809567.577694,-53689360183.723709,-0.520982,0.522055,-1.011539
0.540000,-1.440000,2.155988,0.040000,75544786679.117981,-19309157193.234737,19447375685.551323,-63703736577.607292,-0.364577,0.365619,-1.200215
0.580000,-1.440000,2.148279,0.040000,78739731429.135666,-8627718264.112808,8748374533.083088,-72353598324.829483,-0.163233,0.164142,-1.363184
0.620000,-1.440000,2.141290,0.040000,81948298333.197113,4129270870.287073,-4039839276.766861,-78956669802.980011,0.077292,-0.076618,-1.487589
0.660000,-1.440000,2.135028,0.040000,85150123445.020660,18422523140.137383,-18375808989.682034,-82919481487.186096,0.346827,-0.346475,-1.562251
0.700000,-1.440000,2.129499,0.040000,88322402096.959793,33516623603.862637,-33519606152.751884,-83829581314.243896,0.631489,-0.631512,-1.579398
0.740000,-1.440000,2.124708,0.040000,91441058759.796112,48557251929.621330,-48610858007.673576,-81526896895.369415,0.915150,-0.915554,-1.536014
0.780000,-1.440000,2.120661,0.040000,94482104845.967987,62674415453.930901,-62773256088.886223,-76136027275.304138,1.181381,-1.182126,-1.434447
0.820000,-1.440000,2.117363,0.040000,97423021195.239929,75090146585.018646,-75223590288.292358,-68051047741.392654,1.415496,-1.416502,-1.282121
0.860000,-1.440000,2.114816,0.040000,100243994932.151093,85208052727.649231,-85362291104.909180,-57876856204.705887,1.606241,-1.607403,-1.090434
0.900000,-1.440000,2.113023,0.040000,102928868906.293411,92667867868.948898,-92828371973.290039,-46341753212.669334,1.746824,-1.748033,-0.873105
0.940000,-1.440000,2.111986,0.040000,105465717020.380157,97358282921.674271,-97512020230.382675,-34201399510.729462,1.835155,-1.836314,-0.644374
0.980000,-1.440000,2.111707,0.040000,107847024558.763031,99391977607.286163,-99528938833.793442,-22153355887.595970,1.873377,-1.874409,-0.417382
1.020000,-1.440000,2.111707,0.040000,110069512431.192337,99054437522.408157,-99168303976.160095,-10775441881.642223,1.866887,-1.867745,-0.203016
1.060000,-1.440000,2.111986,0.040000,112133685937.373596,96741083570.496124,-96829124716.850983,-493083321.475636,1.823156,-1.823819,-0.009290
1.100000,-1.440000,2.113023,0.040000,114043207491.763046,92895818047.048111,-92958264507.501343,8426404156.317492,1.750564,-1.751035,0.158758
1.140000,-1.440000,2.114816,0.040000,115804190846.686539,87960010778.099808,-87999185060.951691,15859235399.688326,1.657439,-1.657734,0.298797
1.180000,-1.440000,2.117363,0.040000,117424498068.579697,82336190782.605804,-82355629253.832870,21798518671.253239,1.551371,-1.551518,0.410697
1.220000,-1.440000,2.120661,0.040000,118913097342.387650,76366728187.563889,-76370441517.837128,26323090450.901909,1.438814,-1.438842,0.495942
1.260000,-1.440000,2.124708,0.040000,120279515916.242538,70325242896.219009,-70317177753.490784,29567400558.119827,1.324923,-1.324862,0.557067
1.300000,-1.440000,2.129499,0.040000,121533402231.697433,64417354871.728310,-64401057793.874977,31695785695.487549,1.213568,-1.213445,0.597167
1.340000,-1.440000,2.135028,0.040000,122684196341.667374,58787329970.440773,-58765779681.085892,32882544678.661022,1.107466,-1.107303,0.619526
1.380000,-1.440000,2.141290,0.040000,123740898236.316269,53527721622.422394,-53503283592.168419,33297871467.425331,1.008355,-1.008171,0.627351
1.420000,-1.440000,2.148279,0.040000,124711918835.346344,48689884132.155319,-48664342891.954582,33098917097.438335,0.917201,-0.917009,0.623603
1.460000,-1.440000,2.155988,0.040000,125604996944.000488,44293992259.888176,-44268625526.309509,32424918179.477386,0.834381,-0.834190,0.610904
1.500000,-1.440000,2.164408,0.040000,126427166205.901276,40337821640.957039,-40313490669.919800,31395294498.063107,0.759850,-0.759667,0.591506
1.540000,-1.440000,2.173532,0.040000,127184758029.704514,36803990273.064896,-36781230229.191528,30109746694.424145,0.693280,-0.693108,0.567285
1.580000,-1.440000,2.183351,0.040000,127883428904.045959,33665646731.045399,-33644748118.305038,28649579836.614700,0.634162,-0.634005,0.539775
1.620000,-1.440000,2.193855,0.040000,128528202986.691437,30890750506.330967,-30871827742.588673,27079679980.400047,0.581893,-0.581750,0.510197
1.660000,-1.440000,2.205035,0.040000,129123523100.225815,28445161639.713009,-28428208003.937046,25450747781.765636,0.535828,-0.535700,0.479507
1.700000,-1.440000,2.216881,0.040000,129673305170.408630,26294772995.092346,-26279702924.340580,23801534282.887489,0.495324,-0.495210,0.448435
1.740000,-1.440000,2.229381,0.040000,130180992676.467316,24406903421.869072,-24393583945.147270,22160928680.405663,0.459765,-0.459665,0.417525
1.780000,-1.440000,2.242525,0.040000,130649608867.805191,22751140200.283142,-22739413522.886913,20549821035.352150,0.428578,-0.428490,0.387171
1.820000,-1.440000,2.256302,0.040000,131081805385.767914,21299784812.087872,-21289483972.794613,18982711108.891315,0.401242,-0.401164,0.357645
1.860000,-1.440000,2.270700,0.040000,131479906566.682953,20028022989.171040,-20018982266.771008,17469064289.903431,0.377288,-0.377220,0.329127
1.900000,-1.440000,2.285708,0.040000,131845949146.087204,18913910934.729610,-18905972387.987598,16014432429.589792,0.356304,-0.356244,0.301721
1.940000,-1.440000,2.301313,0.040000,132181717380.277176,17938245555.287468,-17931262791.509808,14621365616.833218,0.337927,-0.337875,0.275475
1.980000,-1.440000,2.317503,0.040000,132488773788.565231,17084367433.711632,-17078207445.132507,13290143679.656267,0.321845,-0.321798,0.250394
2.020000,-1.440000,2.334266,0.040000,132768485828.526306,16337930572.019545,-16332474269.064953,12019355700.224167,0.307785,-0.307744,0.226452
2.060000,-1.440000,2.351591,0.040000,133022048870.644562,15686661917.995729,-15681803819.365637,10806353574.923676,0.295518,-0.295482,0.203598
2.100000,-1.440000,2.369464,0.040000,133250505855.815369,15120125624.267990,-15115773030.999918,9647602599.057287,0.284847,-0.284815,0.181766
2.140000,-1.440000,2.387873,0.040000,133454764012.094345,14629501210.928953,-14625573093.561960,8538948801.720874,0.275606,-0.275576,0.160879
2.180000,-1.440000,2.406806,0.040000,133635608985.187363,14207380764.418060,-14203806511.620960,7475819646.816023,0.267655,-0.267628,0.140849
2.220000,-1.440000,2.426252,0.040000,133793716706.956223,13847587487.451702,-13844305504.267870,6453371927.620311,0.260878,-0.260853,0.121585
2.260000,-1.440000,2.446196,0.040000,133929663292.214020,13545014546.191822,-13541968887.108885,5466598209.209746,0.255179,-0.255156,0.102994
2.300000,-1.440000,2.466629,0.040000,134043933222.209747,13295456367.605673,-13292563902.377035,4510399714.740775,0.250478,-0.250456,0.084979
2.340000,-1.440000,2.487536,0.040000,134136926101.724106,13095074928.427753,-13091870801.533342,3579610417.577907,0.246701,-0.246677,0.067442
2.380000,-1.440000,2.508907,0.040000,134208963335.516708,12941362508.969223,-12943818566.975403,2669418623.888567,0.243837,-0.243855,0.050293
2.420000,-1.440000,2.530730,0.040000,134260312747.420685,12838495547.427256,-12878710399.755630,2007284974.526753,0.242112,-0.242415,0.037818
2.460000,-1.440000,2.552993,0.040000,134291444667.444885,12668836698.143721,-12677649819.937525,1624145960.556697,0.238738,-0.238804,0.030600
-2.500000,-1.400000,3.962209,0.040000,-37028462238.962486,2824063820468.830566,23801086796725.519531,2176097249479.280518,-97.282982,297.936291,40.998934
-2.460000,-1.400000,3.930263,0.040000,-74046674567.201584,2473417878048.214355,15835114946625.677734,1278302033975.811768,-56.882385,194.859734,24.083951
-2.420000,-1.400000,3.898465,0.040000,-74012035459.859421,-670517088286.855835,5058992611067.901367,260572237106.761993,-37.437358,70.509927,4.909332
-2.380000,-1.400000,3.866820,0.040000,-73953662549.210449,-61765659003.862320,152109258668.959778,3512251335.182060,-1.674339,2.355189,0.066173
-2.340000,-1.400000,3.835330,0.040000,-73871656552.194153,-14947357644.959326,14944425793.154568,4706831298.697830,-0.281600,0.281578,0.088679
-2.300000,-1.400000,3.804001,0.040000,-73765728817.724930,-15203813604.655697,15200219808.976746,5923443784.787190,-0.286428,0.286401,0.111601
-2.260000,-1.400000,3.772835,0.040000,-73635469416.838455,-15524308804.603964,15520439405.293879,7168493186.732898,-0.292465,0.292436,0.135059
-2.220000,-1.400000,3.741838,0.040000,-73480365226.112335,-15912356231.965281,15908195135.171864,8447663954.585694,-0.299774,0.299743,0.159159
-2.180000,-1.400000,3.711013,0.040000,-73299794930.155380,-16372958775.719351,16368443085.817404,9766638691.365582,-0.308451,0.308416,0.184009
-2.140000,-1.400000,3.680364,0.040000,-73093021024.789444,-16912302381.111120,16907356479.211235,11131009556.107975,-0.318610,0.318572,0.209715
-2.100000,-1.400000,3.649896,0.040000,-72859179904.681442,-17537897821.139114,17532433884.743553,12546195805.072205,-0.330393,0.330352,0.236378
-2.060000,-1.400000,3.619614,0.040000,-72597269827.780762,-18258788529.788868,18252704650.566608,14017327689.382784,-0.343972,0.343926,0.264095
-2.020000,-1.400000,3.589522,0.040000,-72306136424.412247,-19085795652.933994,19078973714.438339,15549083135.835003,-0.359549,0.359497,0.292954
-1.980000,-1.400000,3.559626,0.040000,-71984455358.804169,-20031800107.142349,20024103631.546780,17145462513.210154,-0.377367,0.377309,0.323030
-1.940000,-1.400000,3.529929,0.040000,-71630711691.728134,-21112061815.134346,21103333934.055790,18809483137.475483,-0.397714,0.397648,0.354382
-1.900000,-1.400000,3.500437,0.040000,-71243175433.677353,-22344573748.598980,22334635540.844879,20542770575.090454,-0.420929,0.420854,0.387038
-1.860000,-1.400000,3.471156,0.040000,-70819872722.689423,-23750444123.169910,23739093693.787193,22345018306.476608,-0.447408,0.447322,0.420993
-1.820000,-1.400000,3.442091,0.040000,-70358552016.451187,-25354293473.151085,25341306331.935947,24213280961.715118,-0.477616,0.477518,0.456192
-1.780000,-1.400000,3.413247,0.040000,-69856644665.375519,-27184643475.662498,27169775027.002083,26141059360.934975,-0.512090,0.511978,0.492513
-1.740000,-1.400000,3.384630,0.040000,-69311219247.782227,-29274260106.058346,29257251399.986656,28117128507.295391,-0.551448,0.551320,0.529743
-1.700000,-1.400000,3.356245,0.040000,-68718929123.146378,-31660393498.728344,31640981833.706726,30124053507.161880,-0.596390,0.596244,0.567555
-1.660000,-1.400000,3.328100,0.040000,-68075952827.076218,-34384829009.315125,34362765527.453926,32136334918.036476,-0.647705,0.647539,0.605467
-1.620000,-1.400000,3.299701,0.040000,-67377927237.026634,-37493626544.646957,37468703612.895721,34118127197.991386,-0.706261,0.706073,0.642805
-1.580000,-1.400000,3.271429,0.040000,-66619873940.766159,-41036376576.748245,41008468451.956604,36020486367.946999,-0.772991,0.772781,0.678647
-1.540000,-1.400000,3.243225,0.040000,-65796120018.224243,-45064740580.630859,45033861504.201225,37778132593.832451,-0.848871,0.848639,0.711762
-1.500000,-1.400000,3.214823,0.040000,-64900215598.514938,-49629972195.693649,49596356426.569580,39305769930.814552,-0.934867,0.934614,0.740543
-1.460000,-1.400000,3.186671,0.040000,-63924852191.520264,-54779038487.465584,54743246464.900978,40494102002.816635,-1.031867,1.031597,0.762932
-1.420000,-1.400000,3.158286,0.040000,-62861788039.440758,-60548890565.771721,60511943762.069130,41205834940.260078,-1.140567,1.140289,0.776342
-1.380000,-1.400000,3.130002,0.040000,-61701789698.340096,-66958392914.680038,66921936058.763618,41272184620.122688,-1.261329,1.261054,0.777592
-1.340000,-1.400000,3.101822,0.040000,-60434602803.340874,-73997450631.726089,73963932639.453033,40490717742.216362,-1.393965,1.393713,0.762869
-1.300000,-1.400000,3.073402,0.040000,-59048969440.778732,-81613033615.419708,81585886419.916855,38625756242.965302,-1.537483,1.537279,0.727732
-1.260000,-1.400000,3.045242,0.040000,-57532714483.346466,-89692168928.573059,89675945498.578995,35413033917.732475,-1.689761,1.689638,0.667202
-1.220000,-1.400000,3.016874,0.040000,-55872928036.053902,-98042654098.842499,98043063675.847122,30570732696.222622,-1.847183,1.847186,0.575970
-1.180000,-1.400000,2.988576,0.040000,-54056274693.508682,-106373321873.214066,106397075249.240524,23819283271.873665,-2.004269,2.004448,0.448769
-1.140000,-1.400000,2.960421,0.040000,-52069460895.787025,-114277185237.868454,114331544221.409256,14912126937.738235,-2.153356,2.153765,0.280953
-1.100000,-1.400000,2.931981,0.040000,-49899886904.191635,-121222585518.643906,121314513824.998520,3678640193.488101,-2.284423,2.285116,0.069308
-1.060000,-1.400000,2.903814,0.040000,-47536496962.197716,-126559170542.756210,126694029396.239700,-9921770882.970631,-2.385210,2.386227,-0.186932
-1.020000,-1.400000,2.875927,0.040000,-44970817398.397354,-129546404660.401535,129726246281.195114,-25739039306.633949,-2.441746,2.443101,-0.484938
-0.980000,-1.400000,2.848329,0.040000,-42198136461.842224,-129411282593.424896,129632974547.790451,-43374787986.470322,-2.439437,2.441107,-0.817206
-0.940000,-1.400000,2.821027,0.040000,-39218733305.864029,-125437835503.671188,125691468843.898254,-62142313532.613388,-2.364755,2.366667,-1.170797
-0.900000,-1.400000,2.794032,0.040000,-36039013345.772400,-117083263070.280380,117351474714.255112,-81062218679.495071,-2.207433,2.209454,-1.527259
-0.860000,-1.400000,2.767352,0.040000,-32672365552.707855,-104104881674.217239,104363729578.205109,-98910564236.100739,-1.962859,1.964810,-1.863532
-0.820000,-1.400000,2.740996,0.040000,-29139540890.376476,-86671432917.190460,86893184025.379547,-114328362419.219406,-1.634193,1.635865,-2.154013
-0.780000,-1.400000,2.714973,0.040000,-25468376662.809246,-65426441240.671150,65584053506.730072,-125985999008.979782,-1.233563,1.234751,-2.373649
-0.740000,-1.400000,2.689293,0.040000,-21692767939.952255,-41475205651.434807,41547575583.890144,-132777171925.258881,-0.781826,0.782371,-2.501599
-0.700000,-1.400000,2.663966,0.040000,-17850908026.495331,-16282780725.108315,16259314194.929693,-134001230393.551147,-0.306644,0.306468,-2.524661
-0.660000,-1.400000,2.639003,0.040000,-13982960190.799952,8505376377.008179,-8622311676.974997,-129488376730.159302,0.160907,-0.161788,-2.439636
-0.620000,-1.400000,2.614414,0.040000,-10128444434.105656,31284172462.155952,-31479750790.837757,-119633445650.310867,0.590517,-0.591991,-2.253963
-0.580000,-1.400000,2.590208,0.040000,-6323688084.928795,50701106418.728897,-50951361834.624397,-105328350119.498627,0.956653,-0.958539,-1.984447
-0.540000,-1.400000,2.566398,0.040000,-2599675566.615622,65812488047.329330,-66089353363.841599,-87811901951.105972,1.241510,-1.243597,-1.654427
-0.500000,-1.400000,2.542994,0.040000,1019455296.868660,76154510076.424210,-76430950162.748886,-68477609584.040298,1.436358,-1.438441,-1.290158
-0.460000,-1.400000,2.520008,0.040000,4517156907.165608,81727070662.018738,-81980863513.519028,-48686702163.503784,1.541220,-1.543133,-0.917286
-0.420000,-1.400000,2.497451,0.040000,7884479336.650131,82912459319.246979,-83128120019.829224,-29622323320.701130,1.563338,-1.564963,-0.558102
-0.380000,-1.400000,2.475334,0.040000,11119468795.954744,80360462793.547699,-80529850501.561340,-12198529222.523111,1.514995,-1.516272,-0.229827
-0.340000,-1.400000,2.453671,0.040000,14226138821.862337,74863536101.238510,-74985629201.645279,2978803949.867521,1.411163,-1.412083,0.056122
-0.300000,-1.400000,2.432472,0.040000,17213212886.882771,67236227386.187057,-67315476554.844162,15601567361.436056,1.267217,-1.267815,0.293943
-0.260000,-1.400000,2.411751,0.040000,20092829712.801918,58220287253.100952,-58263265440.512283,25600582008.392578,1.097147,-1.097471,0.482330
-0.220000,-1.400000,2.391519,0.040000,22879360227.478264,48444005001.119987,-48456712262.735451,33063536822.394188,0.912785,-0.912881,0.622936
-0.180000,-1.400000,2.371789,0.040000,25588401034.340698,38430538460.619141,-38419238721.487740,38181073825.183609,0.723990,-0.723905,0.719354
-0.140000,-1.400000,2.352573,0.040000,28235936723.696144,28597512415.215881,-28571001873.726650,41236449179.812080,0.538644,-0.538444,0.776919
-0.100000,-1.400000,2.333886,0.040000,30837676016.174614,19214584539.130985,-19182364317.915485,42577950996.379532,0.361832,-0.361589,0.802193
-0.060000,-1.400000,2.315738,0.040000,33408623169.579609,10384906317.584320,-10351955772.964890,42528513179.630363,0.195471,-0.195223,0.801262
-0.020000,-1.400000,2.298143,0.040000,35962905685.716721,2120940715.112212,-2087010287.651335,41307592460.038025,0.039768,-0.039512,0.778259
0.020000,-1.400000,2.281114,0.040000,38513744043.270370,-5558578583.046843,5593129808.913115,39061767572.144836,-0.104922,0.105183,0.735946
0.060000,-1.400000,2.264664,0.040000,41073422892.811790,-12637825963.897228,12668718231.485029,35941812098.365601,-0.238279,0.238511,0.677165
0.100000,-1.400000,2.248805,0.040000,43653274403.270424,-19178029238.513931,19201987578.059494,32083130647.384453,-0.361461,0.361641,0.604465
0.140000,-1.400000,2.233550,0.040000,46263774688.807625,-25299354579.529758,25319566130.088570,27507564578.119694,-0.476769,0.476921,0.518258
0.180000,-1.400000,2.218911,0.040000,48914723652.483208,-31062701476.781513,31086441659.183994,22102037685.235725,-0.585373,0.585552,0.416415
0.220000,-1.400000,2.204900,0.040000,51615336027.476624,-36401326758.747032,36434144090.955437,15708857103.729343,-0.686008,0.686255,0.295964
0.260000,-1.400000,2.191530,0.040000,54374139339.644432,-41156986054.694733,41202133081.583771,8201718553.730153,-0.775677,0.776017,0.154525
0.300000,-1.400000,2.178813,0.040000,57198724600.906601,-45117506163.460228,45179619915.567162,-519377829.270908,-0.850391,0.850859,-0.009785
0.340000,-1.400000,2.166759,0.040000,60095403345.154274,-47988125123.966423,48074074815.374809,-10537860689.318546,-0.904610,0.905258,-0.198539
0.380000,-1.400000,2.155381,0.040000,63068732215.473671,-49355159261.993523,49470563762.179024,-21864517435.757698,-0.930532,0.931402,-0.411940
0.420000,-1.400000,2.144688,0.040000,66120853757.657486,-48712224646.275139,48857961128.333488,-34348708595.144283,-0.918590,0.919689,-0.647150
0.460000,-1.400000,2.134691,0.040000,69250693757.233795,-45541941548.623756,45713164843.023392,-47621177999.554871,-0.859004,0.860295,-0.897211
0.500000,-1.400000,2.125400,0.040000,72453141729.010864,-39411737038.301216,39598161322.785500,-61085307099.207748,-0.743594,0.744999,-1.150883
0.540000,-1.400000,2.116825,0.040000,75718366711.162903,-30066198835.516968,30252437266.247910,-73943559000.030334,-0.567517,0.568921,-1.393140
0.580000,-1.400000,2.108973,0.040000,79031416328.240524,-17514643062.697613,17681282605.415340,-85257868752.496490,-0.330928,0.332184,-1.606308
0.620000,-1.400000,2.101853,0.040000,82372237852.908493,-2099402884.976285,2225737098.014944,-94052933440.708740,-0.040268,0.041220,-1.772012
0.660000,-1.400000,2.095473,0.040000,85716227870.170563,15483406730.110668,-15415316590.172235,-99456651413.061844,0.291332,-0.290818,-1.873821
0.700000,-1.400000,2.089839,0.040000,89035341841.136734,34232098552.457027,-34233360998.121574,-100848984448.363724,0.644960,-0.644969,-1.900053
0.740000,-1.400000,2.084958,0.040000,92299686505.837234,52956076630.612106,-53028300561.478210,-97979778306.542267,0.998131,-0.998676,-1.845996
0.780000,-1.400000,2.080834,0.040000,95479410553.255905,70437503577.540161,-70572370261.686646,-91022460303.726059,1.327846,-1.328862,-1.714916
0.820000,-1.400000,2.077472,0.040000,98546638234.121887,85600272732.906708,-85781423642.661026,-80548864575.622696,1.613783,-1.615148,-1.517587
0.860000,-1.400000,2.074876,0.040000,101477179035.482681,97647156324.254959,-97853730929.342590,-67433031421.440666,1.840897,-1.842453,-1.270477
0.900000,-1.400000,2.073048,0.040000,104251796463.232285,106137119531.299774,-106347822091.772552,-52710693314.488403,2.000876,-2.002464,-0.993100
0.940000,-1.400000,2.071992,0.040000,106856913024.788727,110993660247.246170,-111190231986.453110,-37429883160.069672,2.092296,-2.093777,-0.705201
0.980000,-1.400000,2.071707,0.040000,109284737173.501816,112453998142.057800,-112623367208.954193,-22524702472.746525,2.119656,-2.120932,-0.424378
1.020000,-1.400000,2.071707,0.040000,111532891530.052414,110981293416.434280,-111116229544.962982,-8732057720.672907,2.091715,-2.092731,-0.164517
1.060000,-1.400000,2.071992,0.040000,113603680593.432678,107165152565.389145,-107263708563.928574,3443695442.549118,2.019611,-2.020353,0.064881
1.100000,-1.400000,2.073048,0.040000,115503155316.879501,101631087086.106598,-101695329204.789703,13725206105.888094,1.915152,-1.915636,0.258591
1.140000,-1.400000,2.074876,0.040000,117240118346.606689,94971221267.728577,-95005744153.117569,22028989003.645401,1.789508,-1.789768,0.415039
1.180000,-1.400000,2.077472,0.040000,118825180460.518417,87700177333.621811,-87710759066.732101,28418868853.561462,1.652382,-1.652462,0.535428
1.220000,-1.400000,2.080834,0.040000,120269938991.518570,80233980285.017242,-80226559378.018799,33057504349.601917,1.511613,-1.511557,0.622823
1.260000,-1.400000,2.084958,0.040000,121586312463.125626,72886636454.245758,-72866650939.025711,36163424693.826454,1.373114,-1.372963,0.681340
1.300000,-1.400000,2.089839,0.040000,122786037451.136536,65878258621.059273,-65850300960.784683,37977152595.184372,1.241027,-1.240816,0.715512
1.340000,-1.400000,2.095473,0.040000,123880315144.854065,59349327097.333038,-59317032693.135048,38737120453.502960,1.117993,-1.117750,0.729830
1.380000,-1.400000,2.101853,0.040000,124879585142.901459,53377040747.281166,-53343125738.266754,38664364672.913063,1.005463,-1.005207,0.728459
1.420000,-1.400000,2.108973,0.040000,125793400549.258484,47991141084.039482,-47957520186.036499,37954209856.240944,0.903991,-0.903738,0.715079
1.460000,-1.400000,2.116825,0.040000,126630379174.221115,43187783057.315575,-43155718318.788765,36773018811.031662,0.813502,-0.813260,0.692825
1.500000,-1.400000,2.125400,0.040000,127398208695.893677,38940880612.925079,-38911130486.091820,35258298692.364532,0.733501,-0.733276,0.664287
1.540000,-1.400000,2.134691,0.040000,128103687631.458069,35210893920.081627,-35183846290.569046,33520809430.343395,0.663241,-0.663037,0.631551
1.580000,-1.400000,2.144688,0.040000,128752788035.495148,31951317906.121235,-31927100369.476471,31647690962.321903,0.601844,-0.601662,0.596261
1.620000,-1.400000,2.155381,0.040000,129350729509.925919,29113255745.917507,-29091822246.924633,29705947476.859486,0.548389,-0.548228,0.559677
1.660000,-1.400000,2.166759,0.040000,129902057172.535721,26648481802.779911,-26629677825.941891,27745877921.558537,0.501967,-0.501825,0.522748
1.700000,-1.400000,2.178813,0.040000,130410718650.994675,24511364175.184345,-24494973951.088959,25804223250.861229,0.461716,-0.461592,0.486167
1.740000,-1.400000,2.191530,0.040000,130880136999.051727,22659958910.389763,-22645738341.403454,23906923295.567898,0.426846,-0.426739,0.450420
1.780000,-1.400000,2.204900,0.040000,131313277762.447937,21056524744.409821,-21044223447.023682,22071453512.857121,0.396648,-0.396555,0.415839
1.820000,-1.400000,2.218911,0.040000,131712709354.367599,19667648681.595348,-19657024007.709591,20308757086.593815,0.370490,-0.370410,0.382629
1.860000,-1.400000,2.233550,0.040000,132080656527.261093,18464123017.789841,-18454948347.806297,18624811375.785206,0.347823,-0.347754,0.350902
1.900000,-1.400000,2.248805,0.040000,132419047129.022903,17420674537.431431,-17412743600.362358,17021877413.993164,0.328171,-0.328111,0.320702
1.940000,-1.400000,2.264664,0.040000,132729552570.720428,16515615892.852030,-16508744420.868179,15499482591.149826,0.311125,-0.311073,0.292019
1.980000,-1.400000,2.281114,0.040000,133013622559.573959,15730466257.399374,-15724491923.401672,14055183523.530909,0.296337,-0.296292,0.264808
2.020000,-1.400000,2.298143,0.040000,133272514701.490738,15049571706.726183,-15044353012.283947,12685150818.804470,0.283513,-0.283474,0.238996
2.060000,-1.400000,2.315738,0.040000,133507319578.929214,14459743993.205278,-14455158570.428560,11384611419.374176,0.272404,-0.272369,0.214493
2.100000,-1.400000,2.333886,0.040000,133718981881.137177,13949928239.749012,-13945870875.097242,10148178284.917549,0.262802,-0.262771,0.191198
2.140000,-1.400000,2.352573,0.040000,133908318118.020203,13510904607.428869,-13507285188.178595,8970091782.459978,0.254533,-0.254506,0.169002
2.180000,-1.400000,2.371789,0.040000,134076031394.843719,13135025452.026203,-13131766963.668015,7844392472.555131,0.247453,-0.247429,0.147793
2.220000,-1.400000,2.391519,0.040000,134222723668.378357,12815987395.359690,-12813024139.945736,6765041055.663186,0.241444,-0.241422,0.127457
2.260000,-1.400000,2.411751,0.040000,134348905849.326691,12548638046.883245,-12545915846.936977,5725998107.008547,0.236408,-0.236388,0.107881
2.300000,-1.400000,2.432472,0.040000,134455006060.005081,12328840503.128687,-12326344355.316809,4721275133.210058,0.232268,-0.232250,0.088952
2.340000,-1.400000,2.453671,0.040000,134541376248.470749,12153707562.514090,-12151752245.517904,3744989120.075594,0.228972,-0.228957,0.070558
2.380000,-1.400000,2.475334,0.040000,134608296300.222473,12021961978.120375,-12016672578.956367,2792372924.225296,0.226471,-0.226431,0.052610
2.420000,-1.400000,2.497451,0.040000,134655959262.159042,11938825044.556864,-11941028043.820223,2097387572.875433,0.224947,-0.224963,0.039516
2.460000,-1.400000,2.520008,0.040000,134684252237.844498,11977319587.719717,-12058524844.380604,1696350963.263810,0.226119,-0.226731,0.031960
-2.500000,-1.360000,3.938366,0.040000,-37797260180.302765,-399701113162.694580,21627472804960.367188,1587206015250.201904,-127.513658,287.491068,29.903881
-2.460000,-1.360000,3.906224,0.040000,-74553719795.418625,446645980814.732910,18653847383249.570312,940644947641.772949,-99.544241,243.489988,17.722296
-2.420000,-1.360000,3.874229,0.040000,-74521201853.782562,-1074377047446.720581,6082431433949.588867,613552210454.915405,-48.548281,86.290140,11.559679
-2.380000,-1.360000,3.842384,0.040000,-74467555368.745361,-61360895533.105759,154566166399.783325,5645404895.241846,-1.682887,2.385304,0.106363
-2.340000,-1.360000,3.810693,0.040000,-74392270716.553421,-13712387209.171478,13708753440.267948,4921332312.611124,-0.258329,0.258301,0.092721
-2.300000,-1.360000,3.779159,0.040000,-74295042124.740646,-13942952315.010708,13939622991.153332,6196752522.387559,-0.262674,0.262649,0.116750
-2.260000,-1.360000,3.747787,0.040000,-74175499827.186768,-14230260983.794325,14226742990.691174,7504091794.922793,-0.268086,0.268060,0.141381
-2.220000,-1.360000,3.716581,0.040000,-74033183760.605942,-14578824898.683741,14575021674.260069,8850061214.350718,-0.274652,0.274623,0.166740
-2.180000,-1.360000,3.685544,0.040000,-73867535783.251953,-14993710397.756075,14989551073.243660,10241435843.343378,-0.282467,0.282435,0.192955
-2.140000,-1.360000,3.654682,0.040000,-73677891535.197906,-15481143364.502037,15476547568.739761,11685069908.707077,-0.291648,0.291613,0.220153
-2.100000,-1.360000,3.623998,0.040000,-73463470458.304810,-16048748619.906652,16043621814.535847,13187854911.312920,-0.302339,0.302300,0.248467
-2.060000,-1.360000,3.593498,0.040000,-73223363574.710373,-16705801494.499590,16700032069.895393,14756643549.305265,-0.314714,0.314671,0.278024
-2.020000,-1.360000,3.563186,0.040000,-72956518620.297211,-17463525779.701248,17456981951.218388,16398130015.570868,-0.328986,0.328937,0.308950
-1.980000,-1.360000,3.533066,0.040000,-72661722055.921967,-18335445390.576214,18327971807.581890,18118671607.103970,-0.345408,0.345352,0.341366
-1.940000,-1.360000,3.503144,0.040000,-72337577393.303787,-19337794844.318592,19329208988.581135,19924031821.003925,-0.364287,0.364222,0.375380
-1.900000,-1.360000,3.473425,0.040000,-71982479178.499191,-20489992047.384869,20480080590.547890,21819019192.873047,-0.385987,0.385913,0.411083
-1.860000,-1.360000,3.443914,0.040000,-71594581876.457733,-21815173836.526131,21803689256.631130,23806988709.558773,-0.410946,0.410859,0.448537
-1.820000,-1.360000,3.414617,0.040000,-71171762800.212738,-23340789363.263031,23327447314.473034,25889163488.037373,-0.439679,0.439578,0.487767
-1.780000,-1.360000,3.385539,0.040000,-70711578136.475266,-25099237629.210003,25083715842.003723,28063723457.292713,-0.472796,0.472679,0.528737
-1.740000,-1.360000,3.356686,0.040000,-70211211049.953018,-27128521718.230507,27110461609.857929,30324595142.950951,-0.511015,0.510879,0.571333
-1.700000,-1.360000,3.328063,0.040000,-69667410823.813477,-29472871429.388126,29451884164.477150,32659862906.756649,-0.555167,0.555009,0.615331
-1.660000,-1.360000,3.299677,0.040000,-69076422046.939026,-32183255348.277885,32158934847.782684,35049708483.306480,-0.606214,0.606030,0.660357
-1.620000,-1.360000,3.271533,0.040000,-68433903039.341499,-35317659493.110291,35289605877.377022,37463775026.175926,-0.665247,0.665035,0.705839
-1.580000,-1.360000,3.243132,0.040000,-67734833085.905434,-38940948597.377617,38908806773.763229,39857848819.358231,-0.733488,0.733246,0.750945
-1.540000,-1.360000,3.214861,0.040000,-66973408723.578163,-43124043867.505417,43087563378.838783,42169764132.049179,-0.812276,0.812001,0.794503
-1.500000,-1.360000,3.186658,0.040000,-66142930430.041679,-47942044784.520386,47901168446.571243,44314476660.547760,-0.903025,0.902717,0.834910
-1.460000,-1.360000,3.158255,0.040000,-65235682762.785576,-53470792588.337669,53425782463.769020,46178336855.430977,-1.007166,1.006827,0.870027
-1.420000,-1.360000,3.130105,0.040000,-64242813503.607315,-59781227027.204071,59732836159.450394,47612751660.912979,-1.126039,1.125675,0.897052
-1.380000,-1.360000,3.101718,0.040000,-63154220906.777367,-66930746719.166077,66880442497.552780,48427684561.455498,-1.260730,1.260351,0.912406
-1.340000,-1.360000,3.073434,0.040000,-61958462951.645866,-74950690540.490479,74900928614.295380,48385846325.908264,-1.411833,1.411458,0.911617
-1.300000,-1.360000,3.045256,0.040000,-60642708704.289299,-83829090508.399033,83783624118.323792,47199004354.395950,-1.579132,1.578789,0.889257
-1.260000,-1.360000,3.016833,0.040000,-59192759434.283936,-93488129149.499405,93452314544.315201,44528593686.368698,-1.761168,1.760898,0.838945
-1.220000,-1.360000,2.988676,0.040000,-57593175544.632782,-103756440256.088806,103737462253.244125,39993692597.924438,-1.954724,1.954581,0.753504
-1.180000,-1.360000,2.960306,0.040000,-55827553507.552826,-114337729158.882858,114344622940.994720,33190258622.044151,-2.154228,2.154280,0.625324
-1.140000,-1.360000,2.932008,0.040000,-53879002700.485458,-124779339002.251419,124822633494.916351,23725950626.463039,-2.351160,2.351486,0.447011
-1.100000,-1.360000,2.903856,0.040000,-51730871861.902794,-134447377462.026459,134538153562.866470,11274296264.027145,-2.533580,2.534264,0.212414
-1.060000,-1.360000,2.875413,0.040000,-49367764083.949516,-142518493452.122589,142666674951.184174,-4350402102.856619,-2.685969,2.687085,-0.081964
-1.020000,-1.360000,2.847248,0.040000,-46776852353.940674,-148001361258.250946,148213187603.491241,-23101003480.965538,-2.789629,2.791225,-0.435236
-0.980000,-1.360000,2.819369,0.040000,-43949460058.695152,-149801571908.802399,150076480784.077209,-44599783882.516533,-2.823902,2.825974,-0.840286
-0.940000,-1.360000,2.791784,0.040000,-40882801762.735710,-146839497812.071777,147167059387.052734,-68056347556.910652,-2.768393,2.770861,-1.282221
-0.900000,-1.360000,2.764504,0.040000,-37581695773.545052,-138219619794.001404,138577593972.367523,-92231312021.084625,-2.606161,2.608859,-1.737691
-0.860000,-1.360000,2.737535,0.040000,-34059979258.634228,-123431675168.085373,123786461199.959641,-115478377595.995651,-2.327530,2.330203,-2.175680
-0.820000,-1.360000,2.710889,0.040000,-30341307650.502029,-102542797803.811829,102853215882.092438,-135887755775.210434,-1.933720,1.936060,-2.560204
-0.780000,-1.360000,2.684575,0.040000,-26459035892.250637,-76324404164.162094,76548750156.263107,-151529299943.314545,-1.439264,1.440955,-2.854900
-0.740000,-1.360000,2.658601,0.040000,-22454983411.682114,-46258975980.080559,46363873481.901360,-160758466589.522858,-0.872139,0.872929,-3.028783
-0.700000,-1.360000,2.632980,0.040000,-18377074685.782288,-14396939082.828699,14365355039.329021,-162515653961.200745,-0.271068,0.270830,-3.061889
-0.660000,-1.360000,2.607720,0.040000,-14276083148.349678,16921829382.424242,-17086182320.496374,-156536790532.981323,0.319746,-0.320985,-2.949244
-0.620000,-1.360000,2.582832,0.040000,-10201918588.189798,45420654688.266205,-45694178396.705551,-143411233323.855530,0.857297,-0.859359,-2.701951
-0.580000,-1.360000,2.558328,0.040000,-6200014359.683195,69224029682.979614,-69569125050.690598,-124467873765.494247,1.306171,-1.308772,-2.345047
-0.540000,-1.360000,2.534218,0.040000,-2308347643.380960,87096399026.782623,-87470339758.661255,-101523706525.037704,1.643060,-1.645878,-1.912765
-0.500000,-1.360000,2.510514,0.040000,1444529616.830242,98531702780.158203,-98895356496.368408,-76569814898.023026,1.858450,-1.861190,-1.442620
-0.460000,-1.360000,2.487228,0.040000,5040305720.510103,103695402987.607101,-104018780405.459473,-51482252487.902969,1.955509,-1.957946,-0.969955
-0.420000,-1.360000,2.464371,0.040000,8470658424.388038,103269868124.680206,-103533602331.376205,-27820879958.667103,1.947155,-1.949142,-0.524162
-0.380000,-1.360000,2.441955,0.040000,11736179402.878607,98271257282.869171,-98466383351.942001,-6725018393.735415,1.852590,-1.854061,-0.126703
-0.340000,-1.360000,2.419993,0.040000,14844763489.666565,89872235126.648788,-90000736702.670441,11126132175.720095,1.693971,-1.694940,0.209623
-0.300000,-1.360000,2.398496,0.040000,17809747792.929424,79220970301.610107,-79294361413.870865,25496461000.778912,1.492984,-1.493537,0.480368
-0.260000,-1.360000,2.377479,0.040000,20648089787.311958,67278323625.677948,-67309790642.716034,36479699291.332176,1.267740,-1.267978,0.687299
-0.220000,-1.360000,2.356952,0.040000,23378835210.204262,54773833786.797180,-54769845986.475739,44311466238.560478,1.031948,-1.031918,0.834854
-0.180000,-1.360000,2.336931,0.040000,26021939883.335438,42313044244.250648,-42277492486.981110,49270344858.992828,0.797001,-0.796733,0.928282
-0.140000,-1.360000,2.317427,0.040000,28597291828.903339,30441866387.352478,-30388379523.967686,51764331953.673347,0.573240,-0.572837,0.975270
-0.100000,-1.360000,2.298453,0.040000,31123853246.885296,19489822529.590813,-19438872134.734344,52380980420.130630,0.366912,-0.366528,0.986888
-0.060000,-1.360000,2.280023,0.040000,33619152056.786427,9422977912.163816,-9381974666.478935,51655253746.266670,0.177303,-0.176994,0.973215
-0.020000,-1.360000,2.262151,0.040000,36099315975.280960,56810859.235641,-15426802.309066,49805570162.951645,0.000836,-0.000525,0.938366
0.020000,-1.360000,2.244849,0.040000,38579329477.943153,-8602592876.982367,8649776353.449276,46874136906.381958,-0.162345,0.162700,0.883136
0.060000,-1.360000,2.228131,0.040000,41073031948.942741,-16436954884.756369,16476398603.264202,43070138089.621262,-0.309905,0.310202,0.811466
0.100000,-1.360000,2.212010,0.040000,43592969945.071533,-23579150342.108376,23597675022.278275,38716613704.984322,-0.444350,0.444489,0.729443
0.140000,-1.360000,2.196499,0.040000,46150608969.975418,-30403579401.909801,30409352403.153999,33861806796.915600,-0.572854,0.572897,0.637976
0.180000,-1.360000,2.181611,0.040000,48756887772.101295,-37121604304.029320,37133478000.560425,28196458014.931873,-0.699460,0.699549,0.531238
0.220000,-1.360000,2.167360,0.040000,51422540589.638519,-43609415364.679726,43635021715.370857,21382667772.181377,-0.821771,0.821964,0.402862
0.260000,-1.360000,2.153757,0.040000,54157925952.743599,-49632265792.942329,49669506950.233147,13254787278.052809,-0.935311,0.935592,0.249728
0.300000,-1.360000,2.140815,0.040000,56972666038.962311,-54998487565.233864,55052154993.133095,3677703108.492800,-1.036507,1.036911,0.069290
0.340000,-1.360000,2.128546,0.040000,59875322973.063980,-59417894276.541473,59502752347.178802,-7579378643.807229,-1.119947,1.120587,-0.142800
0.380000,-1.360000,2.116962,0.040000,62872918850.173523,-62341388822.362778,62470422843.198723,-20711538494.840229,-1.175277,1.176250,-0.390217
0.420000,-1.360000,2.106075,0.040000,65970063698.337273,-63009583927.011307,63185796633.255150,-35661939144.315331,-1.188133,1.189461,-0.671892
0.460000,-1.360000,2.095894,0.040000,69167756353.687546,-60620675501.424385,60838138955.484192,-52026338746.141655,-1.143358,1.144997,-0.980206
0.500000,-1.360000,2.086430,0.040000,72462113291.098618,-54473946809.267822,54719945084.173645,-69062419333.539536,-1.027711,1.029565,-1.301176
0.540000,-1.360000,2.077694,0.040000,75843256980.363327,-44086125156.083878,44340264235.848297,-85719948862.065964,-0.832045,0.833960,-1.615014
0.580000,-1.360000,2.069693,0.040000,79294554744.952393,-29326256611.078068,29560305183.364414,-100698294999.772079,-0.553847,0.555610,-1.897214
0.620000,-1.360000,2.062438,0.040000,82792421377.488922,-10548598582.484308,10730492863.736345,-112583454652.629349,-0.199770,0.201141,-2.121138
0.660000,-1.360000,2.055936,0.040000,86306891563.113007,11345598918.698126,-11244554849.106073,-120068732979.870529,0.213187,-0.212425,-2.262165
0.700000,-1.360000,2.050193,0.040000,89803056630.783951,34967537019.301010,-34965397158.677635,-122202834485.491791,0.658797,-0.658780,-2.302372
0.740000,-1.360000,2.045217,0.040000,93243270615.367294,58622018204.024139,-58721513341.711296,-118589245958.462677,1.105035,-1.105785,-2.234290
0.780000,-1.360000,2.041013,0.040000,96589839576.744247,80567492999.543884,-80755367527.706253,-109476815000.716919,1.519000,-1.520416,-2.062607
0.820000,-1.360000,2.037585,0.040000,99807784052.456512,99287666892.710052,-99538096731.545273,-95716093655.156189,1.872053,-1.873940,-1.803347
0.860000,-1.360000,2.034938,0.040000,102867246219.122864,113705642640.644958,-113986448911.742661,-78597051103.458298,2.143867,-2.145984,-1.480814
0.900000,-1.360000,2.033075,0.040000,105745203360.428101,123293120895.088531,-123572643190.592697,-59617843940.400520,2.324494,-2.326600,-1.123235
0.940000,-1.360000,2.031998,0.040000,108426313904.674362,128063195594.003128,-128315773567.143646,-40248478948.844017,2.414212,-2.416116,-0.758305
0.980000,-1.360000,2.031707,0.040000,110902905455.333786,128469841667.645905,-128678740608.900894,-21743587704.488380,2.421627,-2.423201,-0.409662
1.020000,-1.360000,2.031707,0.040000,113174261801.361008,125256935701.695404,-125414662657.491638,-5033179123.788704,2.360805,-2.361993,-0.094828
1.060000,-1.360000,2.031998,0.040000,115245446576.286270,119300851645.762512,-119407598738.975998,9307384848.568239,2.248301,-2.249105,0.175357
1.100000,-1.360000,2.033075,0.040000,117125912616.557770,111478584800.515961,-111539798919.505234,21026319155.647297,2.100667,-2.101128,0.396148
1.140000,-1.360000,2.034938,0.040000,118828106708.037491,102576683133.289230,-102600605225.946030,30128945021.324493,1.932739,-1.932920,0.567647
1.180000,-1.360000,2.037585,0.040000,120366215370.156525,93241997534.449524,-93237675410.307892,36799508431.215248,1.756709,-1.756676,0.693324
1.220000,-1.360000,2.041013,0.040000,121755131169.973358,83966567109.013092,-83942518869.433807,41328018640.574577,1.581843,-1.581662,0.778644
1.260000,-1.360000,2.045217,0.040000,123009664713.222641,75095741239.931549,-75059226728.032806,44051045531.583221,1.414641,-1.414366,0.829947
1.300000,-1.360000,2.050193,0.040000,124143990224.661667,66849189768.615860,-66805944368.429482,45309185645.840218,1.259233,-1.258907,0.853651
1.340000,-1.360000,2.055936,0.040000,125171291796.985519,59346827957.063362,-59301094291.640671,45419995108.669968,1.117870,-1.117525,0.855739
1.380000,-1.360000,2.062438,0.040000,126103569280.592865,52634448170.378105,-52589167085.604752,44663338602.487648,0.991408,-0.991066,0.841483
1.420000,-1.360000,2.069693,0.040000,126951563048.418274,46706222006.241997,-46663284678.461319,43275675841.178123,0.879730,-0.879406,0.815339
1.460000,-1.360000,2.077694,0.040000,127724761729.077942,41522940381.797997,-41483441524.871506,41450163957.857094,0.782093,-0.781795,0.780945
1.500000,-1.360000,2.086430,0.040000,128431463729.226761,37025916214.478264,-36990377436.286446,39340126689.787361,0.697389,-0.697121,0.741191
1.540000,-1.360000,2.095894,0.040000,129078870257.947693,33147030023.332825,-33115581583.332104,37064147794.144295,0.624332,-0.624095,0.698310
1.580000,-1.360000,2.106075,0.040000,129673193718.582031,29815618465.224403,-29788138823.162083,34711651360.602058,0.561588,-0.561381,0.653988
1.620000,-1.360000,2.116962,0.040000,130219770383.073563,26962927744.793823,-26939145788.591434,32348292592.967957,0.507863,-0.507684,0.609461
1.660000,-1.360000,2.128546,0.040000,130723170167.053421,24524776110.977119,-24504342954.876926,30020804873.872002,0.461946,-0.461792,0.565609
1.700000,-1.360000,2.140815,0.040000,131187299199.528809,22442954003.674786,-22425491317.337643,27761158124.189434,0.422740,-0.422608,0.523036
1.740000,-1.360000,2.153757,0.040000,131615492911.236694,20665771384.975471,-20650902381.721233,25590009225.987667,0.389271,-0.389159,0.482131
1.780000,-1.360000,2.167360,0.040000,132010598739.464325,19148056022.685665,-19135424086.989315,23519493804.261532,0.360689,-0.360594,0.443121
1.820000,-1.360000,2.181611,0.040000,132375048433.173172,17850819949.665512,-17840098744.771626,21555440355.166546,0.336259,-0.336178,0.406117
1.860000,-1.360000,2.196499,0.040000,132710920479.024963,16740744279.830080,-16731642183.244331,19699097183.675739,0.315354,-0.315285,0.371142
1.900000,-1.360000,2.212010,0.040000,133019993463.883194,15789582675.024742,-15781843586.339342,17948459713.943497,0.297441,-0.297383,0.338159
1.940000,-1.360000,2.228131,0.040000,133303791322.653214,14973547821.220842,-14966949770.366289,16299276735.213909,0.282073,-0.282023,0.307088
1.980000,-1.360000,2.244849,0.040000,133563621449.698746,14272720112.762184,-14267072640.176062,14745802829.496769,0.268874,-0.268832,0.277819
2.020000,-1.360000,2.262151,0.040000,133800606618.024200,13670500605.248669,-13665641552.421001,13281352730.966566,0.257533,-0.257496,0.250228
2.060000,-1.360000,2.280023,0.040000,134015711580.580368,13153118951.935135,-13148911073.015583,11898702786.322077,0.247789,-0.247757,0.224178
2.100000,-1.360000,2.298453,0.040000,134209765140.692505,12709199793.021729,-12705527433.224085,10590375489.678724,0.239428,-0.239400,0.199529
2.140000,-1.360000,2.317427,0.040000,134383478385.482559,12329386640.817484,-12326152622.599714,9348835366.796001,0.232275,-0.232250,0.176137
2.180000,-1.360000,2.336931,0.040000,134537459684.371307,12006019796.180470,-12003142575.099255,8166618204.830926,0.226184,-0.226162,0.153864
2.220000,-1.360000,2.356952,0.040000,134672226968.408005,11732863518.002277,-11730274534.902657,7036410596.060431,0.221039,-0.221020,0.132570
2.260000,-1.360000,2.377479,0.040000,134788217727.414398,11504875868.961370,-11502515491.048996,5951092706.206820,0.216745,-0.216727,0.112122
2.300000,-1.360000,2.398496,0.040000,134885797094.070251,11317992710.434179,-11315781173.321804,4903752492.528240,0.213225,-0.213208,0.092390
2.340000,-1.360000,2.419993,0.040000,134965264375.414886,11168616166.032095,-11166149247.969940,3887653906.670533,0.210409,-0.210391,0.073246
2.380000,-1.360000,2.441955,0.040000,135026859271.271683,11054294521.006739,-11056476370.610325,2896642797.708251,0.208282,-0.208298,0.054574
2.420000,-1.360000,2.464371,0.040000,135070783269.935806,10977732770.852123,-11009196713.275908,2176798728.676457,0.207005,-0.207242,0.041012
2.460000,-1.360000,2.487228,0.040000,135097419039.295410,10840203888.272726,-10841402016.916456,1760601855.528820,0.204242,-0.204252,0.033171
-2.500000,-1.320000,3.914785,0.040000,-0.000009,-14417629646821.923828,35644498539013.664062,-3595511196849.556152,-391.614455,551.585061,-67.741515
-2.460000,-1.320000,3.882449,0.040000,-75080553449.284637,-397421475655.066956,18451643075556.917969,-2076258444477.525635,-109.533251,245.594052,-39.117913
-2.420000,-1.320000,3.850256,0.040000,-75051702820.436615,-1410689976633.669922,5859254610393.801758,-827436281811.450317,-51.722278,85.247693,-15.589379
-2.380000,-1.320000,3.818211,0.040000,-75003091166.869629,-104300879182.880722,277436010210.851929,1889803759.408171,-2.943679,4.248465,0.035605
-2.340000,-1.320000,3.786317,0.040000,-74934815610.398438,-12425866415.595589,12423594359.649239,5110652384.878359,-0.234098,0.234081,0.096288
-2.300000,-1.320000,3.754579,0.040000,-74846653956.655640,-12625126461.841389,12622284987.383661,6438128884.948425,-0.237849,0.237827,0.121298
-2.260000,-1.320000,3.723000,0.040000,-74738287695.581680,-12875099192.967915,12872002188.759275,7801075715.862769,-0.242557,0.242533,0.146977
-2.220000,-1.320000,3.691584,0.040000,-74609316555.175766,-13179168187.757252,13175791504.380499,9207067390.750002,-0.248284,0.248259,0.173466
-2.180000,-1.320000,3.660335,0.040000,-74459253602.686539,-13542146775.606268,13538423668.766546,10663980662.097624,-0.255121,0.255093,0.200916
-2.140000,-1.320000,3.629259,0.040000,-74287517544.251968,-13970085818.030928,13965934198.374218,12179974048.326187,-0.263181,0.263150,0.229478
-2.100000,-1.320000,3.598358,0.040000,-74093423023.888535,-14470475046.473734,14465796464.689430,13763485571.897978,-0.272606,0.272570,0.259312
-2.060000,-1.320000,3.567639,0.040000,-73876168615.189957,-15052524761.636002,15047201009.029009,15423207583.465693,-0.283568,0.283528,0.290582
-2.020000,-1.320000,3.537105,0.040000,-73634822054.746429,-15727510602.609997,15721399630.065826,17168025662.815836,-0.296281,0.296235,0.323456
-1.980000,-1.320000,3.506761,0.040000,-73368302164.805191,-16509189627.379017,16502120839.968603,19006906690.546745,-0.311003,0.310949,0.358101
-1.940000,-1.320000,3.476613,0.040000,-73075356798.506607,-17414298297.030510,17406067217.706856,20948716026.609936,-0.328049,0.327987,0.394686
-1.900000,-1.320000,3.446666,0.040000,-72754536009.973953,-18463143186.443954,18453505543.236385,23001936763.147018,-0.347802,0.347729,0.433370
-1.860000,-1.320000,3.416924,0.040000,-72404159503.257187,-19680294222.644176,19668959622.841248,25174254886.197903,-0.370724,0.370639,0.474298
-1.820000,-1.320000,3.387393,0.040000,-72022277250.347488,-21095387256.784187,21082012790.868912,27471962368.824081,-0.397374,0.397273,0.517588
-1.780000,-1.320000,3.358079,0.040000,-71606621994.079269,-22744036602.701717,22728221001.591324,29899115189.178082,-0.428421,0.428302,0.563317
-1.740000,-1.320000,3.328988,0.040000,-71154552176.755325,-24668847024.327229,24650126421.650276,32456364559.567947,-0.464670,0.464528,0.611497
-1.700000,-1.320000,3.300125,0.040000,-70662983677.842407,-26920495913.014069,26898342904.720005,35139357067.098099,-0.507073,0.506906,0.662046
-1.660000,-1.320000,3.271496,0.040000,-70128308634.386093,-29558826373.885475,29532654995.928120,37936573364.756134,-0.556757,0.556560,0.714747
-1.620000,-1.320000,3.243108,0.040000,-69546299604.371704,-32653845575.970127,32623026132.933605,40826447098.444344,-0.615043,0.614811,0.769194
-1.580000,-1.320000,3.214967,0.040000,-68911997490.866287,-36286453375.448944,36250342840.422272,43773579629.952583,-0.683454,0.683182,0.824720
-1.540000,-1.320000,3.186564,0.040000,-68219582085.091194,-40548625693.076202,40506621726.701416,46723849162.331161,-0.763722,0.763406,0.880304
-1.500000,-1.320000,3.158293,0.040000,-67462224971.237633,-45542636272.888550,45494265741.582268,49598218260.746544,-0.857776,0.857412,0.934459
-1.460000,-1.320000,3.130092,0.040000,-66631926090.947250,-51378710997.937195,51323766950.879845,52285093510.095116,-0.967694,0.967280,0.985081
-1.420000,-1.320000,3.101686,0.040000,-65719337794.370659,-58170267528.912758,58109011229.593452,54631219770.752602,-1.095615,1.095154,1.029284
-1.380000,-1.320000,3.073539,0.040000,-64713584093.065643,-66025608978.838303,65959054325.755791,56431350098.719757,-1.243585,1.243083,1.063199
-1.340000,-1.320000,3.045150,0.040000,-63602088529.149452,-75034649066.162750,74964942914.476349,57417389800.051109,-1.413302,1.412777,1.081777
-1.300000,-1.320000,3.016866,0.040000,-62370432044.014908,-85249030110.714096,85179929286.527985,57248451600.604858,-1.605751,1.605230,1.078594
-1.260000,-1.320000,2.988690,0.040000,-61002272800.627495,-96654012089.647888,96591430051.923965,55504355449.552361,-1.820664,1.820192,1.045734
-1.220000,-1.320000,2.960265,0.040000,-59479373036.123451,-109131024143.359161,109083569949.951111,51686587347.084137,-2.055824,2.055466,0.973805
-1.180000,-1.320000,2.932110,0.040000,-57781792841.562920,-122411163538.133286,122390517432.371933,45232485833.869957,-2.306181,2.306025,0.852206
-1.140000,-1.320000,2.903738,0.040000,-55888325012.486458,-136022668125.817322,136043534573.936691,35550066623.621429,-2.562864,2.563021,0.669784
-1.100000,-1.320000,2.875440,0.040000,-53777254366.336708,-149239872217.528473,149319145559.996643,22081593300.494171,-2.812214,2.812811,0.416030
-1.060000,-1.320000,2.847290,0.040000,-51427522006.803734,-161047358123.612244,161202085636.481934,4402353025.420254,-3.035100,3.036266,0.082943
-1.020000,-1.320000,2.818844,0.040000,-48820350092.835526,-170139915612.640381,170383747207.804535,-17644757053.249153,-3.206913,3.208750,-0.332437
-0.980000,-1.320000,2.790681,0.040000,-45941324932.255562,-174983832978.677734,175322026802.011322,-43789943861.188927,-3.298708,3.301257,-0.825028
-0.940000,-1.320000,2.762811,0.040000,-42782838211.994759,-173963335553.189545,174387110573.604828,-73181219883.088577,-3.279965,3.283159,-1.378777
-0.900000,-1.320000,2.735241,0.040000,-39346651126.806534,-165622087444.165131,166104054245.477325,-104281432000.340118,-3.123140,3.126773,-1.964723
-0.860000,-1.320000,2.707982,0.040000,-35646196631.162498,-148980245916.139526,149473367815.195251,-134878560024.976471,-2.809661,2.813378,-2.541190
-0.820000,-1.320000,2.681042,0.040000,-31708117782.329308,-123866591294.346924,124308934539.840439,-162262692420.358582,-2.336219,2.339552,-3.057123
-0.780000,-1.320000,2.654431,0.040000,-27572519388.021809,-91168073812.797668,91493950197.566071,-183585028335.224091,-1.719501,1.721957,-3.458848
-0.740000,-1.320000,2.628160,0.040000,-23291543256.437553,-52889807642.197853,53045049468.294746,-196348812303.477600,-0.997352,0.998522,-3.699325
-0.700000,-1.320000,2.602239,0.040000,-18926177321.515358,-11956862494.534199,11913297388.816460,-198913425005.382843,-0.225028,0.224700,-3.747644
-0.660000,-1.320000,2.576677,0.040000,-14541614645.132523,28228025804.695641,-28464435403.923584,-190859190070.501740,0.533169,-0.534950,-3.595898
-0.620000,-1.320000,2.551487,0.040000,-10201860397.087624,64363665311.899727,-64754305082.713272,-173089983502.672028,1.214857,-1.217801,-3.261116
-0.580000,-1.320000,2.526679,0.040000,-5964498962.593205,93803911962.668442,-94288121947.161652,-147636406902.724609,1.770057,-1.773706,-2.781555
-0.540000,-1.320000,2.502264,0.040000,-1876493160.856668,114932097574.490921,-115443206666.805908,-117223309948.231079,2.168276,-2.172128,-2.208555
-0.500000,-1.320000,2.478255,0.040000,2028393093.381841,127267239818.737762,-127748261293.448578,-84740025201.278305,2.400507,-2.404132,-1.596551
-0.460000,-1.320000,2.454662,0.040000,5730378339.343993,131308103168.301208,-131720285753.410797,-52779867865.330238,2.476251,-2.479357,-0.994403
-0.420000,-1.320000,2.431499,0.040000,9222893448.397112,128226690287.597168,-128547640912.892273,-23376091211.116264,2.417679,-2.420098,-0.440419
-0.380000,-1.320000,2.408777,0.040000,12510732852.601656,119578531801.329727,-119797393773.855728,2069997786.182368,2.254166,-2.255815,0.039000
-0.340000,-1.320000,2.386510,0.040000,15607582271.966125,107098433618.655762,-107220358791.364029,22812438578.414391,2.018486,-2.019405,0.429800
-0.300000,-1.320000,2.364709,0.040000,18533261679.647373,92452671695.955078,-92505074479.240051,38799466611.992882,1.742158,-1.742553,0.731004
-0.260000,-1.320000,2.343388,0.040000,21311092876.238724,76878445126.894943,-76892691335.177734,50509978819.117462,1.448515,-1.448622,0.951637
-0.220000,-1.320000,2.322561,0.040000,23965938667.763603,61059117121.570122,-61037545875.893349,58454245413.323250,1.150267,-1.150105,1.101312
-0.180000,-1.320000,2.302240,0.040000,26523067584.367950,45570984261.423874,-45497256404.287041,62865888345.551155,0.858167,-0.857611,1.184430
-0.140000,-1.320000,2.282439,0.040000,29007179641.018452,31292285521.684586,-31186728334.700851,64163524685.222755,0.588968,-0.588173,1.208878
-0.100000,-1.320000,2.263173,0.040000,31441052015.024055,18848345768.620964,-18769908181.874226,63457710657.915733,0.354670,-0.354079,1.195580
-0.060000,-1.320000,2.244453,0.040000,33844636803.858856,7808901322.981040,-7775376883.441800,61867633331.143005,0.146935,-0.146682,1.165622
-0.020000,-1.320000,2.226295,0.040000,36235692925.539024,-2683301427.236319,2723319698.662028,59429106069.322830,-0.050781,0.051083,1.119679
0.020000,-1.320000,2.208712,0.040000,38630996591.694466,-12528766724.051262,12606658262.055912,55591836723.216080,-0.236489,0.237076,1.047382
0.060000,-1.320000,2.191719,0.040000,41046211712.126923,-20984407391.175716,21050408653.911263,50689447074.126976,-0.395731,0.396229,0.955019
0.100000,-1.320000,2.175328,0.040000,43494885654.329109,-28260533468.244118,28262805662.988121,45775596029.449638,-0.532458,0.532475,0.862439
0.140000,-1.320000,2.159554,0.040000,45988787155.180962,-35542756645.380791,35510192544.518387,41028208872.429527,-0.669462,0.669217,0.772995
0.180000,-1.320000,2.144409,0.040000,48539619574.079964,-43396455010.076363,43389519192.500237,35481684921.416756,-0.817575,0.817523,0.668496
0.220000,-1.320000,2.129909,0.040000,51159885780.159088,-51301446956.256737,51325855334.115295,28373912540.205109,-0.966687,0.966871,0.534581
0.260000,-1.320000,2.116065,0.040000,53862185472.984032,-58747456059.404564,58772451963.633537,19730975297.560043,-1.106977,1.107166,0.371743
0.300000,-1.320000,2.102892,0.040000,56658446973.799255,-65775042739.092239,65802792399.703072,9558542854.545565,-1.239397,1.239606,0.180088
0.340000,-1.320000,2.090400,0.040000,59559911721.638214,-72305165675.176544,72374445008.958450,-2698827070.355289,-1.362663,1.363185,-0.050847
0.380000,-1.320000,2.078604,0.040000,62576956235.387291,-77577609170.296890,77717806309.152084,-17679253451.747913,-1.462400,1.463456,-0.333087
0.420000,-1.320000,2.067514,0.040000,65717907401.397911,-80381854557.663666,80594950982.307007,-35504976426.495850,-1.515645,1.517251,-0.668934
0.460000,-1.320000,2.057142,0.040000,68987146181.439468,-79492445758.801834,79768549796.167084,-55707986477.177414,-1.499244,1.501325,-1.049571
0.500000,-1.320000,2.047500,0.040000,72383156631.260941,-73835747154.037415,74161572496.552017,-77373785112.759827,-1.392950,1.395405,-1.457767
0.540000,-1.320000,2.038596,0.040000,75896812441.162308,-62561094094.261826,62912079118.252007,-99153955248.800964,-1.180671,1.183316,-1.868118
0.580000,-1.320000,2.030442,0.040000,79510035909.924454,-45250474799.908295,45585297147.506035,-119248949652.567108,-0.854438,0.856961,-2.246719
0.620000,-1.320000,2.023046,0.040000,83195155072.435959,-22199193511.316509,22466631995.639690,-135574540990.763367,-0.419757,0.421773,-2.554303
0.660000,-1.320000,2.016417,0.040000,86915390081.678665,5426667232.454447,-5273795169.839283,-146127658135.104034,0.101377,-0.100225,-2.753130
0.700000,-1.320000,2.010561,0.040000,90626712382.457428,35662375241.867981,-35653989396.353188,-149415880038.174377,0.671852,-0.671789,-2.815082
0.740000,-1.320000,2.005487,0.040000,94280962511.032349,66036220514.008011,-66176850357.263008,-144801319027.253571,1.244956,-1.246015,-2.728141
0.780000,-1.320000,2.001199,0.040000,97829766836.309784,93999127134.001251,-94266933885.789963,-132654685649.486832,1.772512,-1.774530,-2.499291
0.820000,-1.320000,1.997703,0.040000,101228576423.160538,117372111122.629089,-117725205755.710373,-114276426942.586212,2.213354,-2.216015,-2.153034
0.860000,-1.320000,1.995003,0.040000,104440123214.730804,134687551669.318726,-135075196982.922348,-91615039336.873337,2.539783,-2.542704,-1.726080
0.900000,-1.320000,1.993102,0.040000,107436754923.961380,145341407624.873932,-145715897102.066498,-66876942875.144730,2.740433,-2.743255,-1.260000
0.940000,-1.320000,1.992003,0.040000,110201406049.507431,149544585805.217133,-149869934001.513763,-42146197488.237144,2.819346,-2.821798,-0.794059
0.980000,-1.320000,1.991707,0.040000,112727277980.206635,148126521390.294250,-148382153775.300110,-19107150700.860523,2.792234,-2.794161,-0.359990
1.020000,-1.320000,1.991707,0.040000,115016534966.011490,142274652542.071167,-142454548877.091675,1090442080.323981,2.681554,-2.682909,0.020545
1.060000,-1.320000,1.992003,0.040000,117078426026.546814,133286454626.789490,-133395521983.623306,17835841685.913227,2.511811,-2.512632,0.336038
1.100000,-1.320000,1.993102,0.040000,118927225420.831329,122381472233.199326,-122431081899.678909,30973381147.076473,2.306018,-2.306392,0.583556
1.140000,-1.320000,1.995003,0.040000,120580291165.642822,110588486168.640274,-110592538696.344849,40678171494.549706,2.083574,-2.083605,0.766400
1.180000,-1.320000,1.997703,0.040000,122056422893.817795,98699769414.559494,-98671908374.237640,47329479253.054977,1.859403,-1.859193,0.891715
1.220000,-1.320000,2.001199,0.040000,123374593931.465225,87273480680.103165,-87225505676.180695,51404249223.476219,1.644012,-1.643650,0.968486
1.260000,-1.320000,2.005487,0.040000,124553055543.555557,76663965990.156067,-76605196290.089523,53399366687.677261,1.444061,-1.443618,1.006075
1.300000,-1.320000,2.010561,0.040000,125608766288.145401,67063672771.216232,-67000931544.220970,53782021387.576599,1.263164,-1.262691,1.013284
1.340000,-1.320000,2.016417,0.040000,126557080355.168610,58545866809.832787,-58483796672.512192,52962943608.129059,1.102687,-1.102219,0.997853
1.380000,-1.320000,2.023046,0.040000,127411627050.850937,51102261601.034187,-51043766274.221481,51286011789.216270,0.962466,-0.962025,0.966258
1.420000,-1.320000,2.030442,0.040000,128184321420.177750,44673220155.416786,-44619909195.383575,49028309965.542404,0.841368,-0.840966,0.923722
1.460000,-1.320000,2.038596,0.040000,128885457696.370346,39170355896.918213,-39122931595.976326,46406033243.587173,0.737724,-0.737367,0.874317
1.500000,-1.320000,2.047500,0.040000,129523849333.303909,34492457063.694626,-34451022480.429054,43583043206.586739,0.649624,-0.649311,0.821130
1.540000,-1.320000,2.057142,0.040000,130106990025.243317,30536058894.771244,-30500348022.264828,40680058326.847847,0.575115,-0.574846,0.766436
1.580000,-1.320000,2.067514,0.040000,130641218681.797729,27201994654.791214,-27171535787.900745,37783340185.714958,0.512329,-0.512100,0.711860
1.620000,-1.320000,2.078604,0.040000,131131877775.654282,24399079182.083862,-24373305538.063240,34952326069.344826,0.459547,-0.459353,0.658522
1.660000,-1.320000,2.090400,0.040000,131583459089.393845,22045842302.111481,-22024163323.531551,32226023789.614857,0.415234,-0.415071,0.607157
1.700000,-1.320000,2.102892,0.040000,131999734028.032150,20070999531.663956,-20052844168.649830,29628191020.498844,0.378047,-0.377910,0.558212
1.740000,-1.320000,2.116065,0.040000,132383867701.322372,18413152115.511131,-18397992899.718479,27171424004.805046,0.346829,-0.346715,0.511925
1.780000,-1.320000,2.129909,0.040000,132738517226.321762,17020054943.145376,-17007419389.048882,24860319810.541843,0.320596,-0.320501,0.468383
1.820000,-1.320000,2.144409,0.040000,133065915402.052078,15847676588.911865,-15837150571.353970,22693880059.743343,0.298520,-0.298441,0.427566
1.860000,-1.320000,2.159554,0.040000,133367941247.829758,14859193947.503693,-14850420266.770956,20667309843.177879,0.279906,-0.279840,0.389384
1.900000,-1.320000,2.175328,0.040000,133646179006.384491,14024007395.438011,-14016681671.055475,18773343937.389652,0.264179,-0.264124,0.353701
1.940000,-1.320000,2.191719,0.040000,133901967183.359726,13316824485.370251,-13310689769.851774,17003209366.462276,0.250862,-0.250816,0.320350
1.980000,-1.320000,2.208712,0.040000,134136439087.256989,12716835555.398495,-12711676531.207453,15347311806.853046,0.239563,-0.239525,0.289152
2.020000,-1.320000,2.226295,0.040000,134350556188.181122,12206989204.932461,-12202626482.551361,13795714612.014685,0.229962,-0.229929,0.259919
2.060000,-1.320000,2.244453,0.040000,134545135454.737137,11773366388.300922,-11769651187.331335,12338463670.648981,0.221796,-0.221768,0.232464
2.100000,-1.320000,2.263173,0.040000,134720871671.094009,11404646765.928720,-11401456114.806738,10965798758.159054,0.214852,-0.214828,0.206602
2.140000,-1.320000,2.282439,0.040000,134878355588.831161,11091658476.598267,-11088890975.698917,9668282128.597448,0.208958,-0.208937,0.182156
2.180000,-1.320000,2.302240,0.040000,135018088634.776764,10827001661.843678,-10824573802.570433,8436867391.792466,0.203973,-0.203955,0.158955
2.220000,-1.320000,2.322561,0.040000,135140494778.035202,10604736289.644833,-10602579374.245127,7262925811.965603,0.199787,-0.199771,0.136838
2.260000,-1.320000,2.343388,0.040000,135245930056.445084,10420126800.558468,-10418185860.659176,6138242758.745083,0.196310,-0.196296,0.115648
2.300000,-1.320000,2.364709,0.040000,135334690171.313034,10269457142.851814,-10267713160.857441,5054995260.794613,0.193473,-0.193460,0.095239
2.340000,-1.320000,2.386510,0.040000,135407016433.714340,10150173063.815662,-10148886209.691631,4005743366.429152,0.191228,-0.191218,0.075471
2.380000,-1.320000,2.408777,0.040000,135463099428.957184,10061010572.898733,-10056679705.606428,2984451881.242392,0.189531,-0.189498,0.056229
2.420000,-1.320000,2.431499,0.040000,135503066717.281754,10005394335.446730,-10003642443.261246,2240421145.138237,0.188498,-0.188484,0.042211
2.460000,-1.320000,2.454662,0.040000,135526798986.726852,10047123899.388947,-10107570473.991995,1811403727.251496,0.189635,-0.190091,0.034128
-2.500000,-1.280000,3.891473,0.040000,-75916820816.727707,14429630136997.498047,8870441729933.412109,-3557201688473.840820,140.166538,35.428206,-67.019742
-2.460000,-1.280000,3.858941,0.040000,-75628144604.185349,3103561994791.316895,12573274475690.171875,-2054586737470.310303,-30.135299,148.279574,-38.709605
-2.420000,-1.280000,3.826551,0.040000,-75601767392.139618,-199000766788.195435,4118470180423.011230,-822359899899.055054,-25.902813,55.440843,-15.493737
-2.380000,-1.280000,3.794306,0.040000,-75558262021.467316,-13945157215.999683,23433716670.284740,2010342171.318702,-0.316366,0.387874,0.037876
-2.340000,-1.280000,3.762209,0.040000,-75497232914.969986,-11089926025.139717,11087227052.907276,5271756386.368428,-0.208925,0.208905,0.099323
-2.300000,-1.280000,3.730266,0.040000,-75418456962.380310,-11257049136.163483,11254588461.046886,6644106977.049531,-0.212075,0.212057,0.125179
-2.260000,-1.280000,3.698479,0.040000,-75321666054.017975,-11466036087.435719,11463407913.931725,8055060901.080081,-0.216012,0.215992,0.151762
-2.220000,-1.280000,3.666853,0.040000,-75206525488.821350,-11720803275.476185,11717921116.619102,9513199094.800146,-0.220810,0.220789,0.179234
-2.180000,-1.280000,3.635392,0.040000,-75072627247.980087,-12025860824.341143,12022655623.922447,11027492618.641094,-0.226556,0.226532,0.207764
-2.140000,-1.280000,3.604100,0.040000,-74919482746.293640,-12386863136.078829,12383253562.969854,12607403419.869839,-0.233355,0.233328,0.237531
-2.100000,-1.280000,3.572982,0.040000,-74746513763.041321,-12810883234.752867,12806770405.780619,14262939335.585001,-0.241341,0.241310,0.268722
-2.060000,-1.280000,3.542043,0.040000,-74553041098.191452,-13306723199.008347,13301986383.620687,16004691035.071159,-0.250680,0.250644,0.301538
-2.020000,-1.280000,3.511286,0.040000,-74338270455.748428,-13885296228.761089,13879787816.500145,17843844116.929867,-0.261576,0.261534,0.336188
-1.980000,-1.280000,3.480718,0.040000,-74101274941.646988,-14560096376.503485,14553635872.055115,19792153421.043049,-0.274284,0.274235,0.372896
-1.940000,-1.280000,3.450342,0.040000,-73840973423.138824,-15347773022.598011,15340139928.426228,21861860964.089878,-0.289118,0.289060,0.411890
-1.900000,-1.280000,3.420164,0.040000,-73556103828.825439,-16268829391.849367,16259754872.422640,24065531326.489914,-0.306463,0.306394,0.453409
-1.860000,-1.280000,3.390190,0.040000,-73245190269.866806,-17348466169.337063,17337623456.976986,26415768002.626656,-0.326794,0.326712,0.497688
-1.820000,-1.280000,3.360424,0.040000,-72906502630.690002,-18617591819.561871,18604585453.792713,28924760295.010738,-0.350693,0.350595,0.544959
-1.780000,-1.280000,3.330873,0.040000,-72538007010.944992,-20114019411.613197,20098373635.323868,31603591720.751495,-0.378871,0.378753,0.595430
-1.740000,-1.280000,3.301542,0.040000,-72137305102.563095,-21883863777.677357,21865010807.517353,34461216374.063606,-0.412198,0.412056,0.649269
-1.700000,-1.280000,3.272437,0.040000,-71701560266.362656,-23983139837.805801,23960409365.330292,37502977957.051125,-0.451728,0.451556,0.706578
-1.660000,-1.280000,3.243564,0.040000,-71227407752.891281,-26479538561.632515,26452150847.388702,40728506147.332726,-0.498735,0.498529,0.767349
-1.620000,-1.280000,3.214929,0.040000,-70710846231.634506,-29454314848.574974,29421381307.770927,44128776217.205055,-0.554750,0.554502,0.831412
-1.580000,-1.280000,3.186540,0.040000,-70147107619.671234,-33004152275.529491,32964689732.206760,47682061643.042450,-0.621594,0.621297,0.898358
-1.540000,-1.280000,3.158401,0.040000,-69530502247.374390,-37242760248.976967,37195728298.681824,51348450553.102394,-0.701409,0.701055,0.967435
-1.500000,-1.280000,3.129996,0.040000,-68854236841.387497,-42301792561.277618,42246167956.928436,55062546287.326485,-0.796676,0.796257,1.037410
-1.460000,-1.280000,3.101725,0.040000,-68110203912.127769,-48330431978.120300,48265339730.851921,58723952043.537964,-0.910205,0.909715,1.106393
-1.420000,-1.280000,3.073525,0.040000,-67288743297.371765,-55492641585.639671,55417569247.681137,62185189278.586700,-1.045089,1.044523,1.171605
-1.380000,-1.280000,3.045118,0.040000,-66378380386.690422,-63960624797.411346,63875752998.920052,65236885905.495689,-1.204576,1.203936,1.229101
-1.340000,-1.280000,3.016973,0.040000,-65365551667.232620,-73902468737.219177,73809154646.748169,67590497545.880737,-1.391838,1.391135,1.273444
-1.300000,-1.280000,2.988583,0.040000,-64234337592.169029,-85461328262.661011,85362773554.839691,68859642599.022781,-1.609584,1.608841,1.297356
-1.260000,-1.280000,2.960299,0.040000,-62966236353.261368,-98722999199.921783,98625110424.781876,68542529421.159531,-1.859445,1.858708,1.291381
-1.220000,-1.280000,2.932124,0.040000,-61540030723.803612,-113668661162.720215,113581053072.893173,66010123536.068352,-2.141088,2.140428,1.243669
-1.180000,-1.280000,2.903696,0.040000,-59931823785.824654,-130110530021.596863,130047512774.156326,60507733596.105293,-2.451002,2.450527,1.140001
-1.140000,-1.280000,2.875544,0.040000,-58115346452.794640,-147611039923.550995,147592254533.916779,51181354895.077316,-2.780971,2.780830,0.964286
-1.100000,-1.280000,2.847170,0.040000,-56062665541.401588,-165392080078.295532,165442211616.241425,37143482519.314232,-3.116366,3.116744,0.699805
-1.060000,-1.280000,2.818872,0.040000,-53745436204.208405,-182250637645.645325,182397408293.770752,17594131862.969803,-3.434537,3.435643,0.331484
-1.020000,-1.280000,2.790725,0.040000,-51136831107.829399,-196510643567.079529,196780232170.269928,-7992023961.308578,-3.703898,3.705930,-0.150574
-0.980000,-1.280000,2.762276,0.040000,-48214219578.092522,-206054765461.283142,206464191009.309204,-39616648627.034531,-3.884505,3.887591,-0.746401
-0.940000,-1.280000,2.734115,0.040000,-44962541374.759613,-208486711180.449158,209033845123.278198,-76479858523.283752,-3.931103,3.935226,-1.440925
-0.900000,-1.280000,2.706253,0.040000,-41378111956.965530,-201462144157.194244,202115907923.868439,-116746249623.792038,-3.799359,3.804286,-2.199567
-0.860000,-1.280000,2.678699,0.040000,-37472330094.234673,-183182447553.970398,183877759213.785156,-157464543409.229675,-3.455194,3.460434,-2.966723
-0.820000,-1.280000,2.651462,0.040000,-33274504830.092064,-152969226607.499298,153611877441.637177,-194757534963.449921,-2.885661,2.890504,-3.669345
-0.780000,-1.280000,2.624551,0.040000,-28832897303.203598,-111752112446.437836,112236269783.676422,-224346019851.105682,-2.108211,2.111860,-4.226809
-0.740000,-1.280000,2.597978,0.040000,-24213215800.159554,-62259037625.543251,62494252855.762238,-242349574189.201508,-1.174326,1.176098,-4.566006
-0.700000,-1.280000,2.571752,0.040000,-19494274052.260101,-8751029901.351078,8689255121.393110,-246159500483.765350,-0.164525,0.164060,-4.637788
-0.660000,-1.280000,2.545885,0.040000,-14761237418.506943,43697968327.793686,-44046926753.368050,-235091276469.291077,0.825267,-0.827897,-4.429256
-0.620000,-1.280000,2.520387,0.040000,-10097591803.025206,90181579211.898422,-90752827726.783249,-210571666123.852020,1.702302,-1.706607,-3.967292
-0.580000,-1.280000,2.495270,0.040000,-5577376082.080720,126892984290.332458,-127585803983.739929,-175789804715.158203,2.394653,-2.399875,-3.311982
-0.540000,-1.280000,2.470545,0.040000,-1259144282.120995,151728732661.173218,-152435568747.544952,-134937607643.898148,2.862652,-2.867979,-2.542303
-0.500000,-1.280000,2.446224,0.040000,2817389347.051422,164408322070.014771,-165044930947.684937,-92287438098.765884,3.101146,-3.105944,-1.738749
-0.460000,-1.280000,2.422319,0.040000,6631831362.221638,166103198987.808258,-166625263131.270050,-51414709294.300430,3.132431,-3.136366,-0.968683
-0.420000,-1.280000,2.398844,0.040000,10181294350.528923,158781311277.243164,-159171225232.221130,-14866940440.751802,2.993736,-2.996674,-0.280102
-0.380000,-1.280000,2.375810,0.040000,13477296742.649200,144712493875.853180,-144952108270.608459,15689808996.060883,2.727822,-2.729627,0.295605
-0.340000,-1.280000,2.353230,0.040000,16542134279.749630,126413274633.012680,-126498097521.036469,39356707422.793365,2.382179,-2.382818,0.741503
-0.300000,-1.280000,2.331118,0.040000,19404851747.876213,106498054671.465210,-106490238465.182098,56380757870.881752,2.006441,-2.006382,1.062246
-0.260000,-1.280000,2.309488,0.040000,22097144179.824280,86702689836.618362,-86698564142.771271,68229784498.625969,1.633506,-1.633475,1.285489
-0.220000,-1.280000,2.288352,0.040000,24650684855.398720,67101878377.003662,-67092219641.710014,76153388609.820770,1.264184,-1.264111,1.434774
-0.180000,-1.280000,2.267724,0.040000,27096882682.663857,47593672439.173317,-47463543953.702141,79738291956.681839,0.895957,-0.894976,1.502316
-0.140000,-1.280000,2.247620,0.040000,29466778860.874947,30075489936.621490,-29840021903.482857,78590436246.089966,0.565309,-0.563534,1.480689
-0.100000,-1.280000,2.228052,0.040000,31788148044.950531,16693962230.359713,-16562738306.252935,75174574872.144791,0.313782,-0.312793,1.416333
-0.060000,-1.280000,2.209035,0.040000,34082541291.075916,5876406479.542737,-5922268619.190231,72786902976.871185,0.110974,-0.111320,1.371347
-0.020000,-1.280000,2.190583,0.040000,36367675128.752937,-5907623837.028008,5899579096.624478,70665743920.716629,-0.111258,0.111197,1.331384
0.020000,-1.280000,2.172711,0.040000,38662345505.484604,-18069291477.678165,18246881129.826492,65554662685.851318,-0.341440,0.342778,1.235088
0.060000,-1.280000,2.155434,0.040000,40985581108.366974,-26941023923.239407,27104460887.978672,58117264882.178940,-0.508508,0.509740,1.094963
0.100000,-1.280000,2.138765,0.040000,43351598924.331642,-32780881750.140129,32725931634.854485,52412651167.355629,-0.617300,0.616886,0.987485
0.140000,-1.280000,2.122719,0.040000,45770227333.780449,-39867929640.884537,39716219456.958931,49064158031.453384,-0.750277,0.749134,0.924397
0.180000,-1.280000,2.107310,0.040000,48252928830.296402,-49650235183.887299,49624611358.111092,44514688185.271347,-0.935294,0.935101,0.838683
0.220000,-1.280000,2.092553,0.040000,50815052197.423698,-59591869172.685936,59662019386.590858,36880541069.171761,-1.123142,1.123671,0.694851
0.260000,-1.280000,2.078460,0.040000,53472375201.606857,-68251267312.605942,68261324970.022652,27603211800.195827,-1.285950,1.286026,0.520061
0.300000,-1.280000,2.065046,0.040000,56238916616.425995,-76904740714.526550,76856999577.594376,17510844411.998924,-1.448660,1.448300,0.329914
0.340000,-1.280000,2.052325,0.040000,59128600170.033417,-86371670589.415817,86393174981.941299,5012057155.164734,-1.627414,1.627576,0.094430
0.380000,-1.280000,2.040308,0.040000,62156427730.322594,-95291557887.139847,95445202996.860977,-11698000341.364887,-1.796217,1.797375,-0.220397
0.420000,-1.280000,2.029009,0.040000,65336473308.028404,-101475462234.283234,101736885594.620377,-32903239650.320122,-1.913334,1.915304,-0.619916
0.460000,-1.280000,2.018440,0.040000,68678487156.055443,-103162654722.905640,103508592966.309708,-57855665041.524452,-1.945600,1.948207,-1.090034
0.500000,-1.280000,2.008611,0.040000,72185044023.608322,-98885091860.800278,99314115838.310944,-85489046645.166763,-1.865477,1.868711,-1.610663
0.540000,-1.280000,1.999535,0.040000,75849168711.423813,-87195019783.294373,87685557861.406418,-114219372409.953339,-1.645577,1.649274,-2.151959
0.580000,-1.280000,1.991221,0.040000,79652063305.953812,-67067483174.307861,67556862170.633682,-141580820805.089050,-1.266356,1.270044,-2.667465
0.620000,-1.280000,1.983678,0.040000,83561528027.688156,-38563894416.845810,38966370083.114098,-164425840105.673218,-0.728841,0.731874,-3.097878
0.660000,-1.280000,1.976917,0.040000,87532089495.472015,-3190638504.392077,3426669419.874009,-179599465321.372589,-0.061448,0.063226,-3.383758
0.700000,-1.280000,1.970944,0.040000,91507401070.578949,36205647356.857399,-36186312269.971062,-184706665584.674255,0.682026,-0.681880,-3.479981
0.740000,-1.280000,1.965767,0.040000,95424754734.497177,75926213826.965958,-76130941415.050949,-178706411516.527618,1.431651,-1.433194,-3.366932
0.780000,-1.280000,1.961393,0.040000,99220935045.049561,112144889492.237823,-112536514260.007309,-162175329516.238129,2.115088,-2.118040,-3.055477
0.820000,-1.280000,1.957826,0.040000,102838273772.046417,141663959071.827606,-142172552452.361755,-137162453674.202393,2.671906,-2.675739,-2.584220
0.860000,-1.280000,1.955071,0.040000,106229716821.725342,162471128489.056641,-163014818613.856567,-106686185456.075745,3.064123,-3.068221,-2.010030
0.900000,-1.280000,1.953131,0.040000,109362026054.434860,173945188256.880219,-174451226972.450562,-74057839525.288513,3.280088,-3.283902,-1.395293
0.940000,-1.280000,1.952010,0.040000,112216787010.642792,176706371911.080048,-177124866332.466003,-42259344868.463280,3.331616,-3.334770,-0.796191
0.980000,-1.280000,1.951707,0.040000,114789450771.811340,172233506625.317902,-172541230800.905273,-13536949101.874035,3.246718,-3.249038,-0.255044
1.020000,-1.280000,1.951707,0.040000,117087007695.142288,162413505734.563110,-162609882024.567413,10743162376.996445,3.061075,-3.062554,0.202407
1.060000,-1.280000,1.952010,0.040000,119125002244.244476,149155133760.881042,-149254478150.267792,30027269012.496880,2.810731,-2.811479,0.565731
1.100000,-1.280000,1.953131,0.040000,120924501366.487488,134131606466.645538,-134155246832.806427,44386587249.213539,2.527251,-2.527429,0.836269
1.140000,-1.280000,1.955071,0.040000,122509428034.199524,118656248679.328751,-118626531590.091385,54296316508.407715,2.235385,-2.235161,1.022974
1.180000,-1.280000,1.957826,0.040000,123904461647.785065,103660851052.282364,-103597555176.886429,60438509343.291748,1.952673,-1.952196,1.138697
1.220000,-1.280000,1.961393,0.040000,125133543472.361099,89736639845.590912,-89655424399.354034,63554542878.743233,1.690231,-1.689619,1.197404
1.260000,-1.280000,1.965767,0.040000,126218924581.253876,77203264524.705917,-77115474722.148972,64350289850.884674,1.454058,-1.453396,1.212397
1.300000,-1.280000,1.970944,0.040000,127180647967.042252,66182293190.837296,-66095490434.119652,63445164500.826340,1.246422,-1.245768,1.195344
1.340000,-1.280000,1.976917,0.040000,128036348335.153763,56662362710.255486,-56581128078.094482,61352458521.381905,1.067093,-1.066480,1.155916
1.380000,-1.280000,1.983678,0.040000,128801265771.552658,48550906823.438591,-48477652676.744278,58479239147.014160,0.914313,-0.913761,1.101783
1.420000,-1.280000,1.991221,0.040000,129488390547.977325,41712052099.956635,-41647716467.795517,55136783406.664032,0.785516,-0.785031,1.038809
1.460000,-1.280000,1.999535,0.040000,130108678264.820572,35992541193.566666,-35937126410.796555,51555442192.944565,0.677807,-0.677390,0.971334
1.500000,-1.280000,2.008611,0.040000,130671293624.848755,31238292009.037792,-31191254448.318802,47900242766.325584,0.588282,-0.587927,0.902468
1.540000,-1.280000,2.018440,0.040000,131183856120.356064,27304137106.222172,-27264653563.467659,44285266759.773514,0.514203,-0.513905,0.834360
1.580000,-1.280000,2.029009,0.040000,131652671864.568817,24058875342.648003,-24026015602.451740,40785954308.201912,0.453097,-0.452850,0.768431
1.620000,-1.280000,2.040308,0.040000,132082943342.217514,21387270291.718338,-21360102487.227032,37449136484.482277,0.402795,-0.402590,0.705563
1.660000,-1.280000,2.052325,0.040000,132478953779.261322,19190173447.729721,-19167823530.325302,34300938693.567158,0.361428,-0.361259,0.646250
1.700000,-1.280000,2.065046,0.040000,132844225864.328033,17383580689.081024,-17365261890.206463,31352845957.847523,0.327413,-0.327275,0.590706
1.740000,-1.280000,2.078460,0.040000,133181656285.385422,15897153091.972271,-15882176625.459406,28606260075.892094,0.299427,-0.299314,0.538959
1.780000,-1.280000,2.092553,0.040000,133493628419.383820,14672535679.150162,-14660310334.335686,26055861631.576359,0.276370,-0.276278,0.490908
1.820000,-1.280000,2.107310,0.040000,133782105847.650864,13661672740.010876,-13651698388.040045,23692048504.678841,0.257337,-0.257262,0.446372
1.860000,-1.280000,2.122719,0.040000,134048709383.029022,12825229428.557106,-12817087622.673815,21502674477.748829,0.241589,-0.241527,0.405123
1.900000,-1.280000,2.138765,0.040000,134294780129.618317,12131172786.646360,-12124516393.742626,19474265618.253437,0.228521,-0.228471,0.366906
1.940000,-1.280000,2.155434,0.040000,134521430843.896378,11553530783.206392,-11548073762.256582,17592852153.043484,0.217644,-0.217603,0.331460
1.980000,-1.280000,2.172711,0.040000,134729587582.909805,11071327903.729252,-11066835827.164965,15844520612.860601,0.208565,-0.208531,0.298520
2.020000,-1.280000,2.190583,0.040000,134920023343.671341,10667685067.579138,-10663966655.075857,14215764815.127432,0.200964,-0.200936,0.267833
2.060000,-1.280000,2.209035,0.040000,135093385135.409836,10329066662.697746,-10325966405.431698,12693693902.295782,0.194588,-0.194565,0.239157
2.100000,-1.280000,2.228052,0.040000,135250215691.059189,10044655958.842642,-10042047803.207148,11266140130.504883,0.189232,-0.189213,0.212261
2.140000,-1.280000,2.247620,0.040000,135390970818.924423,9805840597.738705,-9803622599.264130,9921697421.339058,0.184735,-0.184718,0.186931
2.180000,-1.280000,2.267724,0.040000,135516033219.212601,9605791324.451485,-9603881153.863997,8649712988.241434,0.180968,-0.180953,0.162966
2.220000,-1.280000,2.288352,0.040000,135625723440.762115,9439118994.298548,-9437450099.423651,7440247916.507267,0.177829,-0.177816,0.140179
2.260000,-1.280000,2.309488,0.040000,135720308527.885101,9301595815.567806,-9300112810.378025,6284017758.823997,0.175239,-0.175228,0.118395
2.300000,-1.280000,2.331118,0.040000,135800008804.643784,9189910720.566465,-9188544565.303871,5172319095.873487,0.173136,-0.173125,0.097449
2.340000,-1.280000,2.353230,0.040000,135865003200.576508,9101199923.719238,-9099617401.912365,4096921007.121917,0.171463,-0.171451,0.077188
2.380000,-1.280000,2.375810,0.040000,135915434214.419769,9033414428.652754,-9035335284.799461,3050428887.174074,0.170206,-0.170220,0.057472
2.420000,-1.280000,2.398844,0.040000,135951425276.519333,8987777991.192928,-9009188749.464479,2291253085.249234,0.169456,-0.169617,0.043169
2.460000,-1.280000,2.422319,0.040000,135973260516.890289,8886410639.666964,-8877965153.385256,1852613102.063592,0.167377,-0.167314,0.034904
-2.500000,-1.240000,3.868434,0.040000,-38099246328.970787,429427118442.776184,22932257395375.355469,1688324370678.055664,-123.953648,300.012720,31.809010
-2.460000,-1.240000,3.835707,0.040000,-76191788528.024078,2261076681032.255859,12437769755027.890625,997696926961.807251,-40.480441,151.254356,18.797188
-2.420000,-1.240000,3.803119,0.040000,-76169128487.276352,-538583852617.067627,3917296649334.084961,632018821330.428833,-29.244304,54.707067,11.907601
-2.380000,-1.240000,3.770673,0.040000,-76130961694.098083,-56886833139.561226,146485131543.812744,6033212648.702474,-1.578206,2.253440,0.113669
-2.340000,-1.240000,3.738374,0.040000,-76077387504.364304,-9716502346.297403,9715055003.163853,5402648388.918095,-0.183056,0.183045,0.101789
-2.300000,-1.240000,3.706225,0.040000,-76008263723.167633,-9846945004.949680,9845051869.837959,6811508807.488297,-0.185511,0.185497,0.128333
-2.260000,-1.240000,3.674230,0.040000,-75923381884.709473,-10011330872.978291,10009235979.238989,8261931628.188095,-0.188607,0.188592,0.155660
-2.220000,-1.240000,3.642394,0.040000,-75822478721.773941,-10212340553.003431,10210020000.863741,9763257856.590841,-0.192393,0.192376,0.183945
-2.180000,-1.240000,3.610720,0.040000,-75705232277.636002,-10453865071.512602,10451258441.589405,11325478718.816858,-0.196942,0.196923,0.213379
-2.140000,-1.240000,3.579212,0.040000,-75571255676.465317,-10740908833.482719,10737939490.692089,12959305483.367779,-0.202348,0.202326,0.244161
-2.100000,-1.240000,3.547876,0.040000,-75420089094.477707,-11079820986.315363,11076393806.628069,14676277492.901133,-0.208731,0.208705,0.276510
-2.060000,-1.240000,3.516715,0.040000,-75251189573.237595,-11478615815.065779,11474612550.436445,16488869506.925955,-0.216241,0.216211,0.310660
-2.020000,-1.240000,3.485735,0.040000,-75063918161.516907,-11947377188.640907,11942650648.925554,18410589787.587387,-0.225069,0.225033,0.346866
-1.980000,-1.240000,3.454941,0.040000,-74857523736.936829,-12498764907.950460,12493131795.972027,20456058911.704735,-0.235452,0.235410,0.385404
-1.940000,-1.240000,3.424336,0.040000,-74631122695.192108,-13148646297.057161,13141878422.598522,22641054183.839844,-0.247690,0.247639,0.426571
-1.900000,-1.240000,3.393927,0.040000,-74383673493.845795,-13916881277.904566,13908694848.122952,24982497048.381470,-0.262156,0.262094,0.470685
-1.860000,-1.240000,3.363719,0.040000,-74113944791.653763,-14828294385.382191,14818337068.254786,27498350272.423752,-0.279317,0.279242,0.518085
-1.820000,-1.240000,3.333717,0.040000,-73820475624.816803,-15913872364.777210,15901707865.503048,30207376689.595619,-0.299758,0.299666,0.569124
-1.780000,-1.240000,3.303927,0.040000,-73501525700.246979,-17212230326.123325,17197320345.149384,33128690346.182804,-0.324204,0.324092,0.624164
-1.740000,-1.240000,3.274355,0.040000,-73155013456.063370,-18771391404.487541,18753075119.618923,36281001881.942444,-0.353560,0.353422,0.683555
-1.700000,-1.240000,3.245006,0.040000,-72778439038.173782,-20650921869.679611,20628393603.471111,39681420287.479027,-0.388948,0.388778,0.747621
-1.660000,-1.240000,3.215887,0.040000,-72368788774.146698,-22924451259.435928,22896737913.348351,43343619707.518288,-0.431753,0.431544,0.816619
-1.620000,-1.240000,3.187004,0.040000,-71922417112.024734,-25682578278.722019,25648519663.399475,47275109393.800369,-0.483682,0.483425,0.890690
-1.580000,-1.240000,3.158363,0.040000,-71434901379.397568,-29036106726.050644,28994344435.242905,51473254446.429665,-0.546821,0.546506,0.969786
-1.540000,-1.240000,3.129971,0.040000,-70900864198.780289,-33119454496.932514,33068438925.365879,55919583875.918739,-0.623701,0.623317,1.053557
-1.500000,-1.240000,3.101835,0.040000,-70313758133.266296,-38093907587.971207,38031938682.326813,60571795153.025482,-0.717361,0.716894,1.141208
-1.460000,-1.240000,3.073428,0.040000,-69665607408.431107,-44150114530.201279,44075440562.313850,65352735905.308876,-0.831392,0.830829,1.231283
-1.420000,-1.240000,3.045157,0.040000,-68946702809.019379,-51508788154.657166,51419798760.192810,70135549252.422241,-0.969952,0.969282,1.321394
-1.380000,-1.240000,3.016959,0.040000,-68145248772.497719,-60417946156.386490,60313510990.127281,74724180798.730713,-1.137719,1.136932,1.407847
-1.340000,-1.240000,2.988549,0.040000,-67246967317.277512,-71144128854.769958,71024149658.176147,78828692609.665909,-1.339718,1.338814,1.485178
-1.300000,-1.240000,2.960407,0.040000,-66234673181.669891,-83953866880.588669,83820123028.814606,82035530866.927979,-1.580984,1.579976,1.545597
-1.260000,-1.240000,2.932015,0.040000,-65087850268.167336,-99080320450.821991,98937683701.413635,83774384163.726685,-1.865924,1.864850,1.578358
-1.220000,-1.240000,2.903731,0.040000,-63782283321.634254,-116668785964.275131,116526835518.672638,83286003595.600159,-2.197305,2.196235,1.569157
-1.180000,-1.240000,2.875558,0.040000,-62289832618.597427,-136694389263.467560,136569334952.526672,79599833826.331192,-2.574695,2.573752,1.499707
-1.140000,-1.240000,2.847128,0.040000,-60578483791.341995,-158847135029.233521,158763704107.348602,71536815703.605438,-2.992301,2.991672,1.347795
-1.100000,-1.240000,2.818978,0.040000,-58612856604.157959,-182385753015.183014,182378273869.035492,57760764047.872833,-3.436211,3.436155,1.088246
-1.060000,-1.240000,2.790603,0.040000,-56355405262.353752,-205975251298.632050,206086602797.710419,36908981075.378258,-3.881323,3.882162,0.695387
-1.020000,-1.240000,2.762304,0.040000,-53768566924.952660,-227545865060.650330,227822457603.877441,7833778821.437373,-4.288659,4.290744,0.147593
-0.980000,-1.240000,2.734160,0.040000,-50818078181.621109,-244241610389.465973,244722629231.812134,-30027982079.915192,-4.604372,4.607997,-0.565745
-0.940000,-1.240000,2.705707,0.040000,-47477533357.006859,-252554834873.307953,253255403445.072479,-76181579202.847412,-4.762239,4.767519,-1.435305
-0.900000,-1.240000,2.677550,0.040000,-43733960494.819969,-248746165742.908417,249637526422.632904,-128594929264.053635,-4.691560,4.698278,-2.422803
-0.860000,-1.240000,2.649697,0.040000,-39593738799.843826,-229594687106.137756,230589395549.004028,-183400314593.375336,-4.331319,4.338816,-3.455368
-0.820000,-1.240000,2.622158,0.040000,-35087664596.016914,-193388981405.311920,194342560833.485321,-235020817232.387573,-3.648950,3.656137,-4.427928
-0.780000,-1.240000,2.594944,0.040000,-30273604281.834225,-140881360125.250061,141619113179.561584,-276910262384.033081,-2.658456,2.664016,-5.217150
-0.740000,-1.240000,2.568064,0.040000,-25235244874.125763,-75786559484.957581,76152579048.508316,-302878571457.040894,-1.429932,1.432690,-5.706408
-0.700000,-1.240000,2.541530,0.040000,-20076178011.621918,-4456703887.355666,4366379622.271341,-308651588796.862000,-0.083456,0.082776,-5.815175
-0.660000,-1.240000,2.515352,0.040000,-14909843867.712511,65326394367.936447,-65856223689.657578,-293080460324.002197,1.233782,-1.237775,-5.521806
-0.620000,-1.240000,2.489541,0.040000,-9847233993.502365,126069723253.678574,-126927332154.824341,-258487479688.156464,2.380074,-2.386537,-4.870054
-0.580000,-1.240000,2.464109,0.040000,-4985045367.204581,172176135857.285889,-173190531617.347534,-210023136618.345886,3.249632,-3.257276,-3.956958
-0.540000,-1.240000,2.439068,0.040000,-396810700.898356,200933087163.888367,-201923333447.385803,-154320221103.333130,3.791293,-3.798756,-2.907482
-0.500000,-1.240000,2.414431,0.040000,3871429213.578485,212662219468.571503,-213496276771.360565,-97869199607.073074,4.011394,-4.017679,-1.843912
-0.460000,-1.240000,2.390208,0.040000,7800674391.753351,209947839443.531921,-210590703484.420135,-45577442603.686646,3.959173,-3.964017,-0.858705
-0.420000,-1.240000,2.366414,0.040000,11394963338.123156,196123022306.213531,-196601729243.807556,-260999458.116846,3.697777,-3.701385,-0.004917
-0.380000,-1.240000,2.343061,0.040000,14676161438.029469,174127523105.189117,-174406062883.643951,36392459392.783119,3.282238,-3.284337,0.685655
-0.340000,-1.240000,2.320163,0.040000,17679208977.623085,147204477999.393585,-147187198931.433014,62807358224.550865,2.773320,-2.773190,1.183327
-0.300000,-1.240000,2.297733,0.040000,20446772457.486668,120060767237.145645,-119863076099.523361,79119277552.384552,2.260897,-2.259407,1.490653
-0.260000,-1.240000,2.275785,0.040000,23021888597.004604,96252110150.408173,-96233309046.704315,89476680304.773209,1.813339,-1.813198,1.685793
-0.220000,-1.240000,2.254333,0.040000,25442830523.154572,73538187988.209290,-73709586671.479630,98122681328.218750,1.386471,-1.387763,1.848688
-0.180000,-1.240000,2.233391,0.040000,27746484477.197979,47784575153.879791,-47607857230.014069,102010557306.997696,0.899290,-0.897958,1.921938
-0.140000,-1.240000,2.212975,0.040000,29973659745.581608,23883140958.073071,-23225356150.738186,95571585996.771866,0.446254,-0.441297,1.800624
-0.100000,-1.240000,2.193098,0.040000,32161461583.695347,11429651579.053640,-11138160879.479727,84925588883.123199,0.213694,-0.211497,1.600047
-0.060000,-1.240000,2.173775,0.040000,34330119582.250809,5903463933.136818,-6319864345.197636,82801283473.940735,0.113578,-0.116716,1.560024
-0.020000,-1.240000,2.155022,0.040000,36490341852.007065,-7987730518.513623,7706205877.237378,85836483243.167343,-0.148902,0.146781,1.617209
0.020000,-1.240000,2.136853,0.040000,38664100671.641129,-27839251302.680954,28407836511.111095,78680694800.358627,-0.527721,0.532006,1.482390
0.060000,-1.240000,2.119283,0.040000,40881208038.905891,-36906344755.986656,37441567405.060074,62971339531.602577,-0.698362,0.702396,1.186417
0.100000,-1.240000,2.102327,0.040000,43156141734.892403,-35307288867.627861,35023696864.241447,55726709286.916649,-0.663607,0.661470,1.049924
0.140000,-1.240000,2.086001,0.040000,45488465614.034462,-40594478763.944275,40011849393.720467,58780808558.202644,-0.761530,0.757140,1.107465
0.180000,-1.240000,2.070319,0.040000,47886811684.636627,-56093948899.843384,56120027546.027008,57405535583.837608,-1.056990,1.057186,1.081554
0.220000,-1.240000,2.055296,0.040000,50374569857.093414,-69804430723.073822,70140568217.347733,46814954875.200119,-1.317056,1.319589,0.882021
0.260000,-1.240000,2.040946,0.040000,52973363416.622070,-77599050138.561523,77578278703.101105,35732743568.459023,-1.461894,1.461737,0.673226
0.300000,-1.240000,2.027284,0.040000,55696543443.585014,-86742246091.410110,86447361919.227921,27875169342.066437,-1.632607,1.630385,0.525184
0.340000,-1.240000,2.014324,0.040000,58559024411.940536,-100869226671.248352,100780538013.715393,17274105731.976631,-1.899933,1.899265,0.325454
0.380000,-1.240000,2.002079,0.040000,61582930715.207993,-115867854322.636780,116080939122.312790,-1054203484.393249,-2.184222,2.185828,-0.019862
0.420000,-1.240000,1.990563,0.040000,64791861732.343056,-127112109490.395386,127447270818.446030,-26539099871.393745,-2.396760,2.399286,-0.500012
0.460000,-1.240000,1.979788,0.040000,68203697760.786964,-132774270396.965668,133181254783.853333,-57238279935.837898,-2.503845,2.506912,-1.078402
0.500000,-1.240000,1.969767,0.040000,71827375963.193192,-131410573348.535614,131960708198.991653,-92339203425.280869,-2.478961,2.483107,-1.739724
0.540000,-1.240000,1.960511,0.040000,75660470960.149826,-120458769415.758606,121155669500.627792,-130525940159.854324,-2.273452,2.278704,-2.459184
0.580000,-1.240000,1.952030,0.040000,79685241275.313705,-97515229283.139542,98250218900.652435,-168426366132.244537,-1.841398,1.846937,-3.173250
0.620000,-1.240000,1.944336,0.040000,83864930305.422348,-62032407890.076225,62653306876.141541,-201080457521.231445,-1.172236,1.176915,-3.788472
0.660000,-1.240000,1.937437,0.040000,88142939344.520340,-15979932938.272865,16351727301.068155,-223372810285.619598,-0.303173,0.305975,-4.208473
0.700000,-1.240000,1.931343,0.040000,92445957232.615402,36402317601.921021,-36364314545.817955,-231386592408.143372,0.685626,-0.685340,-4.359458
0.740000,-1.240000,1.926059,0.040000,96690673951.447784,89428796631.475662,-89736882017.202515,-223398448586.985687,1.686632,-1.688954,-4.208956
0.780000,-1.240000,1.921594,0.040000,100792768635.799881,137198431698.175293,-137787552948.186737,-200344374099.090485,2.588228,-2.592668,-3.774604
0.820000,-1.240000,1.917953,0.040000,104676233371.511414,174910111648.121246,-175659818001.329498,-165558790262.355957,3.299645,-3.305295,-3.119224
0.860000,-1.240000,1.915141,0.040000,108280971361.794876,199801402786.911346,-200576242233.203491,-123847860945.146530,3.768754,-3.774593,-2.333365
0.900000,-1.240000,1.913161,0.040000,111567194879.901581,211406607249.715210,-212094649312.687531,-80278489563.150925,3.986912,-3.992097,-1.512493
0.940000,-1.240000,1.912016,0.040000,114516206091.810104,211168060155.815674,-211702129828.824554,-39143630050.888268,3.981547,-3.985572,-0.737489
0.980000,-1.240000,1.911708,0.040000,117128156285.553696,201687374827.858765,-202046370611.228973,-3385775034.651802,3.801936,-3.804642,-0.063790
1.020000,-1.240000,1.911708,0.040000,119417951976.621124,185947607579.419617,-186144779484.868011,25496805669.070202,3.504475,-3.505961,0.480375
1.060000,-1.240000,1.912016,0.040000,121410533323.504730,166726096113.166412,-166793379936.679504,47209987561.580490,3.141597,-3.142104,0.889464
1.100000,-1.240000,1.913161,0.040000,123136458542.460907,146268279736.637054,-146243019847.264160,62282366682.244179,2.755636,-2.755446,1.173436
1.140000,-1.240000,1.915141,0.040000,124628319655.342438,126186572551.395798,-126103069121.296829,71690365469.895920,2.376956,-2.376327,1.350688
1.180000,-1.240000,1.917953,0.040000,125918158407.950912,107505413112.886871,-107391008899.440826,76566547549.522995,2.024818,-2.023955,1.442558
1.220000,-1.240000,1.921594,0.040000,127035816965.498596,90776219918.660873,-90650519671.492218,78009851064.906250,1.709566,-1.708619,1.469751
1.260000,-1.240000,1.926059,0.040000,128008044131.252869,76208399041.648392,-76084168744.539612,76983869717.217056,1.435108,-1.434172,1.450421
1.300000,-1.240000,1.931343,0.040000,128858150029.677933,63786733512.394234,-63671426618.794334,74277906581.322540,1.201127,-1.200258,1.399439
1.340000,-1.240000,1.937437,0.040000,129606022419.668594,53363501776.172577,-53260806882.759224,70506410840.679489,1.004819,-1.004045,1.328382
1.380000,-1.240000,1.944336,0.040000,130268357319.195084,44724312932.057533,-44635451390.469742,66128203145.419167,0.842130,-0.841460,1.245894
1.420000,-1.240000,1.952030,0.040000,130858998252.905045,37631589928.691063,-37556291465.961273,61473294429.463173,0.708575,-0.708008,1.158193
1.460000,-1.240000,1.960511,0.040000,131389314076.539383,31851078184.987041,-31788260093.783344,56770279110.949097,0.599738,-0.599264,1.069585
1.500000,-1.240000,1.969767,0.040000,131868572521.497391,27166442899.984486,-27114653578.075962,52170843336.207603,0.511539,-0.511149,0.982929
1.540000,-1.240000,1.979788,0.040000,132304285748.193115,23386033219.730450,-23343724190.889595,47770103259.933868,0.440367,-0.440048,0.900016
1.580000,-1.240000,1.990563,0.040000,132702516824.734390,20344808907.469799,-20310489635.758430,43622674062.258217,0.383114,-0.382855,0.821876
1.620000,-1.240000,2.002079,0.040000,133068143869.007156,17903491175.054325,-17875807862.011242,39754928582.775208,0.337156,-0.336947,0.749006
1.660000,-1.240000,2.014324,0.040000,133405083095.987366,15946283000.469536,-15924050488.685570,36174100983.137695,0.300312,-0.300144,0.681541
1.700000,-1.240000,2.027284,0.040000,133716474345.350220,14377993676.266985,-14360200024.331839,32874899245.654224,0.270789,-0.270655,0.619382
1.740000,-1.240000,2.040946,0.040000,134004833647.675400,13121057205.672571,-13106853531.122896,29844214136.166241,0.247128,-0.247021,0.562282
1.780000,-1.240000,2.055296,0.040000,134272177576.779205,12112710825.806095,-12101394201.012806,27064408426.269459,0.228147,-0.228061,0.509909
1.820000,-1.240000,2.070319,0.040000,134520123891.542862,11302461205.317354,-11293455207.689390,24515567081.598400,0.212894,-0.212826,0.461887
1.860000,-1.240000,2.086001,0.040000,134749972517.472046,10649883440.139429,-10642718923.281965,22176998945.941814,0.200609,-0.200555,0.417828
1.900000,-1.240000,2.102327,0.040000,134962770389.748489,10122751705.046286,-10117049097.675360,20028206776.716274,0.190686,-0.190643,0.377343
1.940000,-1.240000,2.119283,0.040000,135159363150.944275,9695476603.045271,-9690930291.748156,18049484790.315018,0.182643,-0.182608,0.340063
1.980000,-1.240000,2.136853,0.040000,135340436206.742783,9347813890.270498,-9344178813.816513,16222258958.157427,0.176098,-0.176070,0.305637
2.020000,-1.240000,2.155022,0.040000,135506547209.036255,9063806596.076904,-9060886952.100935,14529252533.074221,0.170751,-0.170729,0.273740
2.060000,-1.240000,2.173775,0.040000,135658151662.193924,8830924051.157171,-8828563903.530199,12954535209.261402,0.166366,-0.166349,0.244071
2.100000,-1.240000,2.193098,0.040000,135795623032.945435,8639364827.359291,-8637440366.954268,11483496828.135960,0.162760,-0.162745,0.216356
2.140000,-1.240000,2.212975,0.040000,135919268481.681656,8481494849.339723,-8479908056.377130,10102773952.723053,0.159787,-0.159775,0.190342
2.180000,-1.240000,2.233391,0.040000,136029341116.327377,8351396263.729256,-8350069741.682974,8800148641.460802,0.157338,-0.157328,0.165800
2.220000,-1.240000,2.254333,0.040000,136126049492.375458,8244506753.562427,-8243379596.602306,7564432377.724610,0.155325,-0.155316,0.142518
2.260000,-1.240000,2.275785,0.040000,136209564937.630005,8157333611.201032,-8156359285.514451,6385343711.037148,0.153683,-0.153676,0.120304
2.300000,-1.240000,2.297733,0.040000,136280027160.014542,8087245996.806356,-8086409147.199107,5253386697.552144,0.152364,-0.152357,0.098977
2.340000,-1.240000,2.320163,0.040000,136337548461.260818,8032544529.255664,-8032054658.504577,4159760267.958446,0.151335,-0.151331,0.078372
2.380000,-1.240000,2.343061,0.040000,136382216121.893188,7992340932.867181,-7989051085.941637,3097350542.828989,0.150562,-0.150537,0.058356
2.420000,-1.240000,2.366414,0.040000,136414082089.989075,7968285145.450977,-7961734142.876642,2324220169.376787,0.150090,-0.150041,0.043790
2.460000,-1.240000,2.390208,0.040000,136433015782.798218,8015096594.360973,-8052345163.008086,1878680298.577566,0.151220,-0.151500,0.035395
-2.500000,-1.200000,3.845673,0.040000,-38388510517.071686,-2953073592532.210449,20987657095976.398438,2281681576416.349609,-157.572221,293.485024,42.988204
-2.460000,-1.200000,3.812751,0.040000,-76771737484.063370,215613243432.508118,15369077714881.992188,1337743386451.249756,-84.025105,201.474950,25.203861
-2.420000,-1.200000,3.779965,0.040000,-76751842757.744476,-953599661175.921021,4976517844463.651367,279628716287.296509,-40.704604,71.022248,5.268367
-2.380000,-1.200000,3.747319,0.040000,-76719047656.413940,-56992845865.850128,150709885577.395660,4128238229.481557,-1.603483,2.309757,0.077778
-2.340000,-1.200000,3.714816,0.040000,-76673082499.557892,-8310129266.965536,8308528606.287315,5500757539.575937,-0.156559,0.156547,0.103637
-2.300000,-1.200000,3.682462,0.040000,-76613819561.657379,-8403267552.712994,8401860444.747669,6937466458.930541,-0.158314,0.158304,0.130706
-2.260000,-1.200000,3.650259,0.040000,-76541109304.648163,-8520169160.577459,8518649927.820663,8418002397.256603,-0.160516,0.160505,0.158600
-2.220000,-1.200000,3.618211,0.040000,-76454764464.546936,-8663544204.276016,8661846469.266781,9952541640.040831,-0.163217,0.163204,0.187512
-2.180000,-1.200000,3.586324,0.040000,-76354555365.683594,-8836572164.879658,8834640183.154078,11551996985.327375,-0.166475,0.166461,0.217646
-2.140000,-1.200000,3.554600,0.040000,-76240204805.230026,-9043361373.936617,9041126607.808138,13228218447.126057,-0.170370,0.170353,0.249227
-2.100000,-1.200000,3.523045,0.040000,-76111381457.792297,-9289218184.828794,9286593938.960852,14994168406.342976,-0.174999,0.174980,0.282499
-2.060000,-1.200000,3.491663,0.040000,-75967691357.373062,-9580967753.533300,9577844043.367329,16864106017.163408,-0.180493,0.180470,0.317730
-2.020000,-1.200000,3.460458,0.040000,-75808666941.539764,-9927362152.781769,9923599326.925037,18853780934.512058,-0.187016,0.186988,0.355216
-1.980000,-1.200000,3.429437,0.040000,-75633753002.793488,-10339600036.183815,10335020730.697212,20980631377.866264,-0.194778,0.194744,0.395287
-1.940000,-1.200000,3.398603,0.040000,-75442288713.123398,-10831987171.954252,10826366161.513720,23263977108.532768,-0.204049,0.204007,0.438307
-1.900000,-1.200000,3.367961,0.040000,-75233484661.684830,-11422774624.528227,11415826050.313374,25725191380.368031,-0.215172,0.215120,0.484678
-1.860000,-1.200000,3.337518,0.040000,-75006393560.512894,-12135220404.137138,12126581767.265657,28387826184.089504,-0.228586,0.228521,0.534843
-1.820000,-1.200000,3.307279,0.040000,-74759872914.708847,-12998931003.758003,12988143234.262932,31277650671.187714,-0.244846,0.244765,0.589289
-1.780000,-1.200000,3.277248,0.040000,-74492537504.674408,-14051551151.312357,14038034025.089617,34422541441.389717,-0.264663,0.264561,0.648541
-1.740000,-1.200000,3.247433,0.040000,-74202698969.734924,-15340882542.195765,15323904776.726244,37852132510.738060,-0.288935,0.288807,0.713156
-1.700000,-1.200000,3.217838,0.040000,-73888289095.138580,-16927523525.260340,16906167135.598604,41597088267.306313,-0.318804,0.318643,0.783713
-1.660000,-1.200000,3.188471,0.040000,-73546762570.308548,-18888128219.682587,18861247320.159119,45687799239.722809,-0.355711,0.355509,0.860785
-1.620000,-1.200000,3.159337,0.040000,-73174973995.511673,-21319378941.742638,21285554408.350117,50152211174.334251,-0.401478,0.401223,0.944897
-1.580000,-1.200000,3.130443,0.040000,-72769022775.119522,-24342738896.796173,24300232597.496792,55012374388.071373,-0.458391,0.458071,1.036465
-1.540000,-1.200000,3.101796,0.040000,-72324058293.091583,-28109983877.589211,28056700210.604801,60279133550.451828,-0.529307,0.528906,1.135694
-1.500000,-1.200000,3.073403,0.040000,-71834036532.048843,-32809371220.155106,32742840498.005726,65944160329.971008,-0.617772,0.617270,1.242426
-1.460000,-1.200000,3.045270,0.040000,-71291418300.345001,-38672042668.749710,38589451889.272629,71968261671.322906,-0.728137,0.727514,1.355924
-1.420000,-1.200000,3.016860,0.040000,-70686798896.854889,-45977801328.512169,45876114938.130707,78264590901.836044,-0.865674,0.864907,1.474550
-1.380000,-1.200000,2.988590,0.040000,-70008460110.303207,-55058646392.378944,54934884752.930870,84675100537.330093,-1.036637,1.035705,1.595328
-1.340000,-1.200000,2.960393,0.040000,-69241839141.182007,-66297255812.653412,66149033352.756569,90938430085.843872,-1.248241,1.247124,1.713333
-1.300000,-1.200000,2.931981,0.040000,-68368917272.535721,-80115825678.062134,79942292020.387405,96647674563.190720,-1.508448,1.507140,1.820898
-1.260000,-1.200000,2.903841,0.040000,-67367546760.593292,-96948203081.432434,96751568361.391724,101197597618.670303,-1.825449,1.823967,1.906621
-1.220000,-1.200000,2.875447,0.040000,-66210761414.758179,-117185183838.026352,116973016103.715256,103723613803.532043,-2.206638,2.205039,1.954213
-1.180000,-1.200000,2.847163,0.040000,-64866159542.110756,-141079792959.368317,140868191935.632355,103040407753.736298,-2.656829,2.655234,1.941341
-1.140000,-1.200000,2.818993,0.040000,-63295512088.933029,-168597969781.194366,168415443239.211334,97597750072.001404,-3.175452,3.174076,1.838798
-1.100000,-1.200000,2.790559,0.040000,-61454835860.532097,-199203755817.246674,199095006530.266632,85485858574.623016,-3.752500,3.751680,1.610603
-1.060000,-1.200000,2.762412,0.040000,-59295275260.007942,-231582595142.064667,231610344856.616119,64541416781.606140,-4.363307,4.363516,1.215998
-1.020000,-1.200000,2.734035,0.040000,-56765232183.782166,-263339173608.001923,263580702403.904083,32621785832.149769,-4.962828,4.964648,0.614613
-0.980000,-1.200000,2.705736,0.040000,-53814219566.437012,-290762501115.750671,291296459808.561829,-11886578518.025127,-5.481152,5.485176,-0.223950
-0.940000,-1.200000,2.677595,0.040000,-50398800089.269325,-308823537696.100525,309703480847.655823,-69305606003.805588,-5.823388,5.830020,-1.305758
-0.900000,-1.200000,2.649139,0.040000,-46490594523.173286,-311624742535.234558,312841126417.417236,-137748547050.325012,-5.878066,5.887233,-2.595262
-0.860000,-1.200000,2.620984,0.040000,-42085623746.495544,-293484584950.479065,294927687634.373962,-212341358744.197540,-5.537576,5.548452,-4.000634
-0.820000,-1.200000,2.593140,0.040000,-37213250430.565681,-250628935220.055420,252076872083.358459,-285066576407.582703,-4.730178,4.741090,-5.370820
-0.780000,-1.200000,2.565618,0.040000,-31942050325.360714,-183064351838.988251,184221189103.424774,-345725010875.717834,-3.455577,3.464295,-6.513660
-0.740000,-1.200000,2.538428,0.040000,-26379689441.046436,-95803095187.693832,96390030420.829102,-384149987816.702271,-1.808303,1.812727,-7.237608
-0.700000,-1.200000,2.511581,0.040000,-20664927560.002880,1436399870.011862,-1573505083.673820,-393096262251.712585,0.027838,-0.028871,-7.406161
-0.660000,-1.200000,2.485087,0.040000,-14952255649.197405,96329655979.487915,-97158611515.669205,-370582899756.049316,1.819592,-1.825839,-6.981997
-0.620000,-1.200000,2.458959,0.040000,-9392461322.404310,177099332154.179108,-178422496276.744873,-320528958386.019714,3.344133,-3.354105,-6.038951
-0.580000,-1.200000,2.433207,0.040000,-4114038552.017219,235340244602.544342,-236867097100.715790,-251468229355.669983,4.442577,-4.454083,-4.737807
-0.540000,-1.200000,2.407845,0.040000,790130285.201034,267568522633.946411,-268984818728.328491,-174162471309.881775,5.049151,-5.059825,-3.281322
-0.500000,-1.200000,2.382885,0.040000,5268335306.369962,275480082080.325623,-276542544311.247803,-98890816961.506058,5.196210,-5.204217,-1.863160
-0.460000,-1.200000,2.358338,0.040000,9307413630.614805,264770721545.693756,-265478939110.592926,-32560725893.459682,4.992437,-4.997774,-0.613463
-0.420000,-1.200000,2.334219,0.040000,12923909753.511229,241644515105.681305,-242240042337.972382,22928236659.885448,4.556089,-4.560577,0.431981
-0.380000,-1.200000,2.310541,0.040000,16154558182.065401,208851649121.386414,-209326233211.046753,67550205356.981194,3.937569,-3.941145,1.272685
-0.340000,-1.200000,2.287317,0.040000,19051799530.549400,168157749805.706451,-167954950091.865540,97255962101.458389,3.167043,-3.165515,1.832359
-0.300000,-1.200000,2.264562,0.040000,21680024801.694958,129033484516.469223,-128141589031.814041,108048325499.521637,2.426025,-2.419303,2.035693
-0.260000,-1.200000,2.242289,0.040000,24100434005.846710,103980564207.984787,-103878712683.145233,110769168137.518707,1.958478,-1.957711,2.086955
-0.220000,-1.200000,2.220514,0.040000,26353428300.101162,85123968036.017426,-86200969007.770676,123934201616.640701,1.609872,-1.617989,2.334992
-0.180000,-1.200000,2.199250,0.040000,28472279332.644432,47569408162.192795,-47704154692.645699,137278681839.888428,0.896997,-0.898012,2.586410
-0.140000,-1.200000,2.178514,0.040000,30516297533.891590,3177316230.802536,-807586492.577917,118764852380.282578,0.046468,-0.028610,2.237599
-0.100000,-1.200000,2.158319,0.040000,32551678482.183838,-4061764992.127348,4867599668.118917,82362903900.211746,-0.081081,0.087154,1.551765
-0.060000,-1.200000,2.138682,0.040000,34589013764.061584,18925563250.058979,-20660308561.810680,84495544578.895401,0.366374,-0.379447,1.591945
-0.020000,-1.200000,2.119618,0.040000,36601645143.463142,-689701595.385141,-1103990310.261240,115344641758.739273,-0.002856,-0.010662,2.173160
0.020000,-1.200000,2.101143,0.040000,38618952797.970352,-52303200981.397728,54724966440.453613,104210550516.408936,-0.999111,1.017362,1.963387
0.060000,-1.200000,2.083272,0.040000,40715530638.336868,-62215586278.854080,63969051242.355232,55505187260.370499,-1.182089,1.195303,1.045750
0.100000,-1.200000,2.066021,0.040000,42905648904.479378,-26814498531.174004,25740927707.566242,44804571919.559914,-0.499133,0.491042,0.844144
0.140000,-1.200000,2.049406,0.040000,45144016708.196396,-27764242227.584938,25359656944.538975,75708590331.512527,-0.509503,0.491382,1.426394
0.180000,-1.200000,2.033441,0.040000,47430476200.657776,-66506219797.290878,67181122842.902672,82598442245.113571,-1.256830,1.261917,1.556203
0.220000,-1.200000,2.018144,0.040000,49821035558.801414,-88582250632.191467,90064070520.592392,55719245659.745895,-1.677316,1.688484,1.049783
0.260000,-1.200000,2.003528,0.040000,52350473134.434052,-84392791177.075592,84170675807.973083,38451773167.348000,-1.588754,1.587080,0.724454
0.300000,-1.200000,1.989609,0.040000,55016500291.820602,-89923627138.779877,88708685678.513840,41493074170.294418,-1.687346,1.678190,0.781754
0.340000,-1.200000,1.976402,0.040000,57828255256.352287,-114632899750.192490,114395468049.098801,38504467264.717407,-2.158408,2.156619,0.725446
0.380000,-1.200000,1.963921,0.040000,60823288760.418388,-140870049548.561096,141412551523.837555,16852658501.327467,-2.657140,2.661228,0.317514
0.420000,-1.200000,1.952180,0.040000,64042848239.493034,-158323579828.442474,158768089591.532471,-15301100681.535648,-2.985420,2.988770,-0.288282
0.460000,-1.200000,1.941192,0.040000,67515242767.317642,-169125240113.122711,169479029079.407562,-52108426335.490547,-3.188417,3.191083,-0.981753
0.500000,-1.200000,1.930970,0.040000,71257732523.584030,-173550434062.357544,174214113203.438110,-95687191697.417633,-3.273542,3.278544,-1.802802
0.540000,-1.200000,1.921527,0.040000,75276838485.878891,-166061724493.213989,167089432929.207397,-146831461102.990723,-3.134508,3.142253,-2.766390
0.580000,-1.200000,1.912874,0.040000,79560076499.984024,-140946130305.080688,142088832000.204041,-200499483969.442963,-2.661966,2.670577,-3.777527
0.620000,-1.200000,1.905022,0.040000,84067123363.076996,-96463617829.458084,97442727713.232986,-248306055721.765839,-1.822965,1.830343,-4.678230
0.660000,-1.200000,1.897980,0.040000,88727047222.236435,-35352521881.720886,35948811162.743881,-281804427590.890015,-0.669432,0.673926,-5.309359
0.700000,-1.200000,1.891758,0.040000,93442635860.355698,35915434788.339607,-35845234959.256119,-294533521546.313538,0.676271,-0.675742,-5.549182
0.740000,-1.200000,1.886364,0.040000,98100651818.526276,108382996037.672623,-108863446496.638840,-283576587176.257751,2.044714,-2.048335,-5.342747
0.780000,-1.200000,1.881805,0.040000,102585978745.525055,172670599504.383392,-173585068589.148926,-250498490344.746704,3.258383,-3.265275,-4.719537
0.820000,-1.200000,1.878086,0.040000,106796410465.488007,221378777619.870056,-222511936536.818542,-200917927849.427734,4.177309,-4.185849,-3.785410
0.860000,-1.200000,1.875214,0.040000,110654342180.666351,250745912555.444733,-251867418545.957062,-142724814019.802124,4.730537,-4.738989,-2.689018
0.900000,-1.200000,1.873192,0.040000,114112769093.892914,260905116643.098175,-261842323092.210541,-83825247045.310638,4.920901,-4.927964,-1.579316
0.940000,-1.200000,1.872023,0.040000,117155161142.082169,254929343329.396088,-255597857750.217438,-30400771710.235065,4.806795,-4.811833,-0.572768
0.980000,-1.200000,1.871708,0.040000,119790677887.941391,237358249492.437653,-237752476459.925140,13845003813.776539,4.474195,-4.477166,0.260848
1.020000,-1.200000,1.871708,0.040000,122047022025.076279,212868362210.944977,-213032121210.148712,47556395859.658852,4.011489,-4.012723,0.895990
1.060000,-1.200000,1.872023,0.040000,123963030563.956177,185423838485.001587,-185420325243.390686,71105539077.951523,3.493473,-3.493446,1.339670
1.100000,-1.200000,1.873192,0.040000,125582361618.526596,157929034264.668304,-157819966153.118073,85865563571.438919,2.974858,-2.974036,1.617757
1.140000,-1.200000,1.875214,0.040000,126948845953.092728,132237192667.455231,-132072472329.340378,93608133944.483917,2.490494,-2.489253,1.763632
1.180000,-1.200000,1.878086,0.040000,128103504695.148697,109341474891.511719,-109156536707.798813,96103174708.845184,2.059011,-2.057618,1.810640
1.220000,-1.200000,1.881805,0.040000,129082938903.522156,89617743252.136002,-89435062727.722382,94904362095.387146,1.687418,-1.686041,1.788053
1.260000,-1.200000,1.886364,0.040000,129918708814.628754,73046046507.891968,-72878187041.035614,91267772610.796692,1.375281,-1.374016,1.719538
1.300000,-1.200000,1.891758,0.040000,130637350805.212677,59382254904.835724,-59234973036.264557,86150058141.306870,1.117964,-1.116854,1.623117
1.340000,-1.200000,1.897980,0.040000,131260757641.688278,48277202560.817207,-48151987650.923485,80245608234.691147,0.908863,-0.907919,1.511874
1.380000,-1.200000,1.905022,0.040000,131806730600.095978,39352132429.101181,-39248045128.542519,74037055930.612289,0.740829,-0.740044,1.394901
1.420000,-1.200000,1.912874,0.040000,132289581719.021713,32242115142.757408,-32157008642.072601,67845215376.935059,0.606979,-0.606338,1.278243
1.460000,-1.200000,1.921527,0.040000,132720715794.563812,26617982403.501907,-26549256422.408447,61872229265.525444,0.501110,-0.500592,1.165709
1.500000,-1.200000,1.930970,0.040000,133109156318.311401,22194876862.615429,-22139908921.884014,56236104706.242775,0.417854,-0.417439,1.059521
1.540000,-1.200000,1.941192,0.040000,133462001186.819656,18733074786.005245,-18689443144.076321,50997009411.908302,0.352695,-0.352367,0.960813
1.580000,-1.200000,1.952180,0.040000,133784806546.599884,16034764399.880180,-16000344181.938702,46176589089.571281,0.301910,-0.301650,0.869994
1.620000,-1.200000,1.963921,0.040000,134081903733.412796,13939038762.143017,-13912025521.659285,41771767441.239357,0.262467,-0.262263,0.787004
1.660000,-1.200000,1.976402,0.040000,134356657204.453629,12316406044.813971,-12295300978.872822,37764373456.981461,0.231929,-0.231770,0.711503
1.700000,-1.200000,1.989609,0.040000,134611672186.874222,11063512634.194206,-11047090038.712427,34127709651.903423,0.208350,-0.208226,0.642986
1.740000,-1.200000,2.003528,0.040000,134848960457.461945,10098406672.394854,-10085675408.540503,30830929589.754902,0.190188,-0.190092,0.580873
1.780000,-1.200000,2.018144,0.040000,135070071821.921555,9356457961.699337,-9346623240.836546,27841875986.196873,0.176226,-0.176151,0.524557
1.820000,-1.200000,2.033441,0.040000,135276197821.919617,8786935762.781088,-8779364301.833233,25128854900.107765,0.165508,-0.165451,0.473442
1.860000,-1.200000,2.049406,0.040000,135468253150.254562,8350189944.804140,-8344379682.826438,22661686343.194439,0.157290,-0.157246,0.426959
1.900000,-1.200000,2.066021,0.040000,135646939291.089584,8015358375.212799,-8010912936.054523,20412271115.464256,0.150989,-0.150955,0.384579
1.940000,-1.200000,2.083272,0.040000,135812794060.554504,7758519128.190288,-7755126711.265705,18354840634.117752,0.146156,-0.146130,0.345816
1.980000,-1.200000,2.101143,0.040000,135966230010.874893,7561210977.012677,-7558627144.773576,16466004337.966135,0.142443,-0.142424,0.310229
2.020000,-1.200000,2.119618,0.040000,136107564071.155762,7409254515.999330,-7407288293.554491,14724672439.797211,0.139584,-0.139569,0.277421
2.060000,-1.200000,2.138682,0.040000,136237040316.047974,7291816287.760193,-7290319008.897449,13111906101.774158,0.137374,-0.137362,0.247036
2.100000,-1.200000,2.158319,0.040000,136354847363.884674,7200667993.983765,-7199524392.905360,11610729326.592850,0.135658,-0.135650,0.218753
2.140000,-1.200000,2.178514,0.040000,136461131592.964828,7129601593.256125,-7128722709.031303,10205924652.403337,0.134321,-0.134314,0.192286
2.180000,-1.200000,2.199250,0.040000,136556007114.595520,7073968590.722594,-7073286120.894107,8883826429.952242,0.133274,-0.133269,0.167376
2.220000,-1.200000,2.220514,0.040000,136639563242.242905,7030318069.089412,-7029779815.155437,7632119844.935537,0.132452,-0.132448,0.143794
2.260000,-1.200000,2.242289,0.040000,136711870037.712952,6996112316.568394,-6995677467.320429,6439649996.604407,0.131808,-0.131805,0.121327
2.300000,-1.200000,2.264562,0.040000,136772982391.025909,6969489204.374478,-6969108321.154119,5296241159.250603,0.131307,-0.131304,0.099784
2.340000,-1.200000,2.287317,0.040000,136822943024.359009,6948866015.434128,-6948286646.646397,4192499682.612453,0.130917,-0.130913,0.078989
2.380000,-1.200000,2.310541,0.040000,136861785320.838257,6932986316.694536,-6934666377.088488,3120115729.978700,0.130631,-0.130644,0.058785
2.420000,-1.200000,2.334219,0.040000,136889545869.646652,6921685983.011420,-6932116783.300809,2342835425.557550,0.130468,-0.130546,0.044140
2.460000,-1.200000,2.358338,0.040000,136906402675.186234,6859274397.429013,-6839652623.244185,1893940132.651795,0.129122,-0.128974,0.035683
-2.500000,-1.160000,3.823196,0.040000,-38684295548.132805,-215315936369.907257,22872424806289.183594,228009162874.889862,-132.118597,302.867823,4.295825
-2.460000,-1.160000,3.790078,0.040000,-77363794459.407532,1389616824512.818359,16031783765045.080078,78417991730.129501,-72.287599,203.579314,1.477440
-2.420000,-1.160000,3.757094,0.040000,-77347586381.860703,-828297522526.481201,5152485718673.705078,24234163196.951324,-40.046669,72.634754,0.456586
-2.380000,-1.160000,3.724247,0.040000,-77320309474.143158,-55973599893.760376,150408014879.535339,4177156775.719548,-1.588335,2.300014,0.078700
-2.340000,-1.160000,3.691542,0.040000,-77282070083.907196,-6883057028.468099,6882568455.786362,5564797662.488956,-0.129678,0.129674,0.104844
-2.300000,-1.160000,3.658981,0.040000,-77232816354.112762,-6935702096.483498,6934921177.207833,7019666849.155030,-0.130668,0.130662,0.132255
-2.260000,-1.160000,3.626570,0.040000,-77172464266.382294,-7002641407.222404,7001747459.216667,8520197133.812304,-0.131929,0.131922,0.160525
-2.220000,-1.160000,3.594311,0.040000,-77100906586.480011,-7085250644.609532,7084229816.676893,10077065511.090355,-0.133484,0.133477,0.189858
-2.180000,-1.160000,3.562210,0.040000,-77018010947.796616,-7185715901.398120,7184526375.508228,11701934213.763277,-0.135376,0.135367,0.220471
-2.140000,-1.160000,3.530269,0.040000,-76923616347.900131,-7306997021.331820,7305582689.115436,13407618766.910442,-0.137660,0.137649,0.252607
-2.100000,-1.160000,3.498495,0.040000,-76817528393.047882,-7453040708.601400,7451328328.491403,15208319943.648365,-0.140410,0.140397,0.286534
-2.060000,-1.160000,3.466890,0.040000,-76699512957.379730,-7629078748.930693,7626972915.684006,17119886758.225330,-0.143724,0.143708,0.322549
-2.020000,-1.160000,3.435461,0.040000,-76569287778.181000,-7842016595.352393,7839393170.230809,19160110682.838123,-0.147733,0.147714,0.360988
-1.980000,-1.160000,3.404212,0.040000,-76426511363.227280,-8100937306.758972,8097634921.389722,21349052033.178249,-0.152608,0.152583,0.402229
-1.940000,-1.160000,3.373147,0.040000,-76270768400.970398,-8417754506.088372,8413563570.086223,23709396924.040691,-0.158572,0.158540,0.446699
-1.900000,-1.160000,3.342272,0.040000,-76101550625.016739,-8808058115.195406,8802706594.127552,26266838672.730537,-0.165919,0.165878,0.494882
-1.860000,-1.160000,3.311593,0.040000,-75918231774.790222,-9292209451.248259,9285344486.849371,29050470113.459122,-0.175032,0.174980,0.547328
-1.820000,-1.160000,3.281114,0.040000,-75720034893.876343,-9896758489.645771,9887922703.411295,32093161436.510662,-0.186411,0.186344,0.604654
-1.780000,-1.160000,3.250842,0.040000,-75505989690.318024,-10656276289.566505,10644877357.671165,35431879563.932167,-0.200706,0.200620,0.667557
-1.740000,-1.160000,3.220783,0.040000,-75274877016.727890,-11615720118.773859,11600991956.896336,39107876279.965248,-0.218764,0.218653,0.736815
-1.700000,-1.160000,3.190941,0.040000,-75025156673.257721,-12833477517.794413,12814431239.593554,43166628296.002617,-0.241683,0.241539,0.813284
-1.660000,-1.160000,3.161324,0.040000,-74754873647.403320,-14385267008.988165,14360629849.945242,47657345815.732048,-0.270888,0.270702,0.897892
-1.620000,-1.160000,3.131937,0.040000,-74461536531.325714,-16369103538.209402,16337244425.096134,52631766527.951027,-0.308223,0.307983,0.991613
-1.580000,-1.160000,3.102788,0.040000,-74141960151.932266,-18911557635.244171,18870399480.346439,58141804776.325409,-0.356072,0.355762,1.095425
-1.540000,-1.160000,3.073884,0.040000,-73792062379.403061,-22175532062.724033,22122453973.130234,64235411537.855232,-0.417500,0.417100,1.210232
-1.500000,-1.160000,3.045230,0.040000,-73406602657.175003,-26369717488.019737,26301456246.059452,70949695460.415421,-0.496435,0.495921,1.336733
-1.460000,-1.160000,3.016834,0.040000,-72978847124.947403,-31759714564.158566,31672286146.900383,78299931496.207779,-0.597877,0.597218,1.475216
-1.420000,-1.160000,2.988704,0.040000,-72500142572.799835,-38680430128.477348,38569112090.570084,86262519236.921555,-0.728133,0.727294,1.625236
-1.380000,-1.160000,2.960292,0.040000,-71959379489.770767,-47548617022.485092,47408066175.683319,94749248764.117264,-0.895049,0.893990,1.785131
-1.340000,-1.160000,2.932022,0.040000,-71342324355.965744,-58873093036.718506,58697726288.010391,103569452157.580292,-1.108212,1.106890,1.951309
-1.300000,-1.160000,2.903827,0.040000,-70630805237.550842,-73257903333.708191,73042748822.418671,112375971822.784561,-1.379005,1.377384,2.117228
-1.260000,-1.160000,2.875412,0.040000,-69801746350.442429,-91390049894.209686,91132381258.179047,120590859103.308807,-1.720385,1.718443,2.272002
-1.220000,-1.160000,2.847275,0.040000,-68826072422.753143,-113997989467.153290,113700170316.881226,127308349106.206833,-2.146105,2.143860,2.398563
-1.180000,-1.160000,2.818879,0.040000,-67667551088.652466,-141759854564.955353,141433879906.231323,131177807276.669724,-2.668995,2.666539,2.471466
-1.140000,-1.160000,2.790595,0.040000,-66281722686.734589,-175132418993.035675,174806490922.880219,130281009034.902435,-3.297754,3.295298,2.454570
-1.100000,-1.160000,2.762427,0.040000,-64615194075.771767,-214067100984.976898,213793915386.468719,122040247573.161865,-4.031604,4.029545,2.299309
-1.060000,-1.160000,2.733991,0.040000,-62605753212.163628,-257586799596.459198,257451590828.766724,103229584223.536102,-4.852320,4.851301,1.944905
-1.020000,-1.160000,2.705847,0.040000,-60183980845.367485,-303233419832.791992,303356806516.516174,70208479657.311905,-5.713791,5.714721,1.322768
-0.980000,-1.160000,2.677467,0.040000,-57277235187.012207,-346482284996.001526,347008963197.026672,19536320500.367348,-6.530904,6.534873,0.368076
-0.940000,-1.160000,2.649168,0.040000,-53816925440.326477,-380369090154.225159,381431048991.649353,-50890830227.555016,-7.172377,7.180380,-0.958813
-0.900000,-1.160000,2.621030,0.040000,-49749634060.638634,-395755123318.120361,397403429883.104980,-140195584269.316437,-7.465572,7.477994,-2.641366
-0.860000,-1.160000,2.592570,0.040000,-45051618276.624741,-382737497067.719727,384857029004.362732,-242747626319.241547,-7.222976,7.238950,-4.573506
-0.820000,-1.160000,2.564418,0.040000,-39744409593.113029,-333457600710.858765,335712103958.333374,-347161870720.741089,-6.295277,6.312268,-6.540731
-0.780000,-1.160000,2.536584,0.040000,-33907059619.534702,-245784380683.932465,247659052100.346985,-437275263105.986511,-4.641316,4.655444,-8.238519
-0.740000,-1.160000,2.509080,0.040000,-27679279176.378613,-126265514317.174454,127239103063.559982,-495830449861.276611,-2.384418,2.391756,-9.341733
-0.700000,-1.160000,2.481915,0.040000,-21250943269.817650,9778673157.762598,-9999275410.853743,-510043945166.132019,0.185483,-0.187145,-9.609524
-0.660000,-1.160000,2.455101,0.040000,-14837916256.205458,142060719027.217163,-143400869508.151367,-476425338309.686768,2.684081,-2.694181,-8.976130
-0.620000,-1.160000,2.428650,0.040000,-8650156320.988174,251513542092.288666,-253603526537.631378,-401950892887.602051,4.750474,-4.766225,-7.572988
-0.580000,-1.160000,2.402574,0.040000,-2861678852.023538,325411073256.020630,-327776537429.467468,-301088260234.326294,6.144303,-6.162130,-5.672677
-0.540000,-1.160000,2.376885,0.040000,2409653601.722678,359262582136.148376,-361383370502.584229,-191395808197.578644,6.780702,-6.796685,-3.606008
-0.500000,-1.160000,2.351596,0.040000,7109351361.584215,357059484274.230591,-358368906220.501587,-89981545088.226074,6.734609,-6.744477,-1.695304
-0.460000,-1.160000,2.326719,0.040000,11239901510.922665,331237778690.578369,-331666717375.686035,-8222567985.220385,6.243136,-6.246369,-0.154918
-0.420000,-1.160000,2.302269,0.040000,14841220129.151468,296330860459.901733,-296953353033.046082,55998520481.758781,5.586564,-5.591255,1.055045
-0.380000,-1.160000,2.278259,0.040000,17968786427.696705,253181358442.794037,-254602156498.539703,113062520308.893616,4.778114,-4.788822,2.130163
-0.340000,-1.160000,2.254703,0.040000,20693187763.409233,188934788639.909821,-188937127967.756958,153751438691.273834,3.559654,-3.559672,2.896766
-0.300000,-1.160000,2.231615,0.040000,23116499351.563766,119909937966.738403,-116164037098.549438,147902870417.282654,2.238000,-2.209770,2.786576
-0.260000,-1.160000,2.209010,0.040000,25344092710.519928,99632225320.511276,-98986766915.707153,115259624869.396362,1.873481,-1.868616,2.171558
-0.220000,-1.160000,2.186903,0.040000,27404476799.503853,124888650100.833344,-128673472163.967773,143008153694.724670,2.374367,-2.402890,2.694357
-0.180000,-1.160000,2.165309,0.040000,29276272990.953342,62521440753.286880,-66698306810.197372,214481930562.535522,1.201549,-1.233026,4.040964
-0.140000,-1.160000,2.144245,0.040000,31055254967.805885,-65030719220.937332,75518056268.648834,172936142653.871490,-1.284493,1.363528,3.258217
-0.100000,-1.160000,2.123725,0.040000,32929946445.393982,-73933401960.726517,73422600985.022034,24562138822.299408,-1.390061,1.386212,0.462765
-0.060000,-1.160000,2.103765,0.040000,34886476950.251976,105709405049.858932,-105527291040.482224,40668072795.351662,1.990597,-1.989225,0.766210
-0.020000,-1.160000,2.084382,0.040000,36719921131.533203,52560255970.434608,-64029799495.573380,206193028805.747528,1.055094,-1.141531,3.884796
0.020000,-1.160000,2.065591,0.040000,38480006532.152969,-133561684555.427139,146802204085.773834,186359717214.552917,-2.591217,2.691001,3.511125
0.060000,-1.160000,2.047410,0.040000,40441737704.575790,-166195516216.966949,164757077144.704773,-9285970343.834545,-3.123090,3.112249,-0.174953
0.100000,-1.160000,2.029854,0.040000,42618984196.228859,46340877086.790710,-46587804459.844315,-25513768414.889862,0.874485,-0.876346,-0.480694
0.140000,-1.160000,2.012940,0.040000,44764214262.948822,34326635332.109463,-45596350366.671104,133043150824.381287,0.710432,-0.795363,2.506610
0.180000,-1.160000,1.996684,0.040000,46863527912.940094,-104723513164.034576,111014226631.402496,153342638052.505280,-2.008608,2.056016,2.889064
0.220000,-1.160000,1.981103,0.040000,49120005072.039558,-145686136297.615234,150259000405.775238,45708310826.222481,-2.770658,2.805120,0.861171
0.260000,-1.160000,1.966212,0.040000,51594572201.144150,-72786551883.235031,71577848287.933762,12658329190.438614,-1.364509,1.355400,0.238490
0.300000,-1.160000,1.952027,0.040000,54196964543.457443,-68600761598.370529,63574453880.894539,65707819285.262627,-1.264069,1.226189,1.237973
0.340000,-1.160000,1.938564,0.040000,56914227424.593803,-129444929436.381790,129819060659.605301,82770131229.069107,-2.440932,2.443752,1.559437
0.380000,-1.160000,1.925837,0.040000,59836281470.442329,-177338807921.084656,179364643656.601196,43983092295.170616,-3.352616,3.367883,0.828667
0.420000,-1.160000,1.913863,0.040000,63039333457.956726,-195331081984.930267,195723373106.025146,-1207347763.336158,-3.682368,3.685325,-0.022747
0.460000,-1.160000,1.902653,0.040000,66555228362.159683,-210593447730.460510,210337224120.327118,-39706235551.284447,-3.966254,3.964323,-0.748088
0.500000,-1.160000,1.892224,0.040000,70408293162.496017,-227689515235.618835,228450644181.357239,-90269153498.163040,-4.294104,4.299841,-1.700723
0.540000,-1.160000,1.882586,0.040000,74624231619.037094,-230073616095.111023,231737674016.086243,-160074117589.734222,-4.344126,4.356667,-3.015889
0.580000,-1.160000,1.873753,0.040000,79205798054.792358,-204507662925.079376,206344313897.708771,-238470649830.519440,-3.863424,3.877265,-4.492925
0.620000,-1.160000,1.865736,0.040000,84111892084.842804,-148154542947.901306,149710994189.742859,-310174503587.937866,-2.800115,2.811845,-5.843867
0.660000,-1.160000,1.858546,0.040000,89252703490.981903,-65325643079.872849,66299234232.210396,-361609817115.246887,-1.236276,1.243613,-6.812939
0.700000,-1.160000,1.852191,0.040000,94496552638.900574,34145452223.056557,-34013223537.670010,-382156865431.690674,0.642573,-0.641576,-7.200057
0.740000,-1.160000,1.846681,0.040000,99685562992.625458,135870881066.274048,-136648393083.904587,-366594370504.435364,2.564281,-2.570140,-6.906850
0.780000,-1.160000,1.842024,0.040000,104658354608.876297,224372441623.935242,-225843265282.665863,-317546936714.035889,4.235620,-4.246705,-5.982768
0.820000,-1.160000,1.838225,0.040000,109274367863.022949,287873903108.335571,-289633885521.296570,-244874835263.838135,5.433659,-5.446923,-4.613584
0.860000,-1.160000,1.835291,0.040000,113432430384.592102,321402247064.483032,-323047995929.795959,-161990162475.806396,6.064707,-6.077109,-3.051989
0.900000,-1.160000,1.833225,0.040000,117078723822.759171,326777143487.236267,-328045666561.157349,-81457983737.941147,6.163841,-6.173401,-1.534716
0.940000,-1.160000,1.832030,0.040000,120204085124.061066,310293717824.536316,-311096800344.461121,-12074513707.946898,5.850653,-5.856705,-0.227491
0.980000,-1.160000,1.831708,0.040000,122834193229.253204,279814453761.871704,-280194824402.054260,41900202610.955734,5.274016,-5.276883,0.789424
1.020000,-1.160000,1.831708,0.040000,125017182104.691528,242557164348.234192,-242620827458.949585,79940803441.736526,4.570277,-4.570757,1.506131
1.060000,-1.160000,1.832030,0.040000,126812186392.058823,203991880609.806732,-203854226821.961548,103850557176.904846,3.842547,-3.841510,1.956605
1.100000,-1.160000,1.833225,0.040000,128280604690.510696,167642350419.643311,-167399233974.654236,116460610548.503906,3.157105,-3.155273,2.194185
1.140000,-1.160000,1.835291,0.040000,129480433891.398788,135389620813.788132,-135108574128.405426,120733707391.424240,2.549230,-2.547112,2.274693
1.180000,-1.160000,1.838225,0.040000,130463218086.837082,107941089592.087891,-107663688940.530930,119281922180.444778,2.032105,-2.030014,2.247341
1.220000,-1.160000,1.842024,0.040000,131272878165.117065,85271377444.137527,-85019686172.663696,114185740779.886917,1.605140,-1.603243,2.151326
1.260000,-1.160000,1.846681,0.040000,131945723058.244019,66959506599.850662,-66742687138.674454,106988778006.472565,1.260330,-1.258696,2.015731
1.300000,-1.160000,1.852191,0.040000,132511103679.660202,52414986768.019775,-52234543919.474777,98773705387.297409,0.986509,-0.985149,1.860954
1.340000,-1.160000,1.858546,0.040000,132992345932.598999,41013809362.690857,-40867212842.530952,90262147563.545364,0.771895,-0.770791,1.700591
1.380000,-1.160000,1.865736,0.040000,133407742840.730804,32171218519.725460,-32054173819.336090,81909667621.390091,0.605463,-0.604581,1.543226
1.420000,-1.160000,1.873753,0.040000,133771487354.443924,25374345794.570091,-25282100236.313843,73984492010.200684,0.477546,-0.476851,1.393911
1.460000,-1.160000,1.882586,0.040000,134094492158.712265,20191487067.325184,-20119510600.358727,66627872485.905907,0.380012,-0.379470,1.255308
1.500000,-1.160000,1.892224,0.040000,134385080683.692062,16269037662.244764,-16213327397.036415,59898068981.087105,0.306203,-0.305783,1.128514
1.540000,-1.160000,1.902653,0.040000,134649553641.340118,13322785962.875059,-13279959591.152363,53801234934.759209,0.250767,-0.250444,1.013646
1.580000,-1.160000,1.913863,0.040000,134892644689.709351,11127363338.189749,-11094643608.539465,48312473379.634048,0.209461,-0.209214,0.910235
1.620000,-1.160000,1.925837,0.040000,135117881933.770020,9505833789.498281,-9480983689.676979,43389817323.550301,0.178955,-0.178768,0.817489
1.660000,-1.160000,1.938564,0.040000,135327871840.610962,8320337977.629046,-8301579474.523721,38983266151.522789,0.156654,-0.156513,0.734467
1.700000,-1.160000,1.952027,0.040000,135524520511.225494,7464112556.009033,-7450045708.618144,35040446729.407806,0.140549,-0.140443,0.660182
1.740000,-1.160000,1.966212,0.040000,135709205077.112717,6854898606.336915,-6844428705.389498,31510015416.480495,0.129091,-0.129012,0.593667
1.780000,-1.160000,1.981103,0.040000,135882905779.616455,6429610722.785820,-6421886139.066626,28343576436.273010,0.121094,-0.121036,0.534009
1.820000,-1.160000,1.996684,0.040000,136046307277.319092,6140086278.499971,-6134447168.974080,25496645539.523205,0.115651,-0.115608,0.480372
1.860000,-1.160000,2.012940,0.040000,136199875998.964905,5949728718.702539,-5945665584.968949,22929014291.737698,0.112073,-0.112043,0.431996
1.900000,-1.160000,2.029854,0.040000,136343918927.535141,5830874539.347143,-5827995217.186940,20604750382.786930,0.109841,-0.109819,0.388205
1.940000,-1.160000,2.047410,0.040000,136478628041.095673,5762737493.151293,-5760741106.705392,18491987685.051758,0.108562,-0.108547,0.348400
1.980000,-1.160000,2.065591,0.040000,136604113710.280701,5729808655.813736,-5728465198.185117,16562604815.794344,0.107945,-0.107935,0.312049
2.020000,-1.160000,2.084382,0.040000,136720429620.877808,5720614103.301895,-5719748496.012890,14791854336.214027,0.107775,-0.107768,0.278687
2.060000,-1.160000,2.103765,0.040000,136827591216.063278,5726751880.503262,-5726231563.876966,13157980560.809755,0.107892,-0.107888,0.247904
2.100000,-1.160000,2.123725,0.040000,136925589204.522308,5742146473.661375,-5741871760.304893,11641848181.686472,0.108184,-0.108182,0.219339
2.140000,-1.160000,2.144245,0.040000,137014399331.522736,5762472380.687361,-5762368963.190454,10226593745.928139,0.108568,-0.108567,0.192675
2.180000,-1.160000,2.165309,0.040000,137093989338.516891,5784709047.530860,-5784722181.306554,8897305571.074192,0.108987,-0.108987,0.167630
2.220000,-1.160000,2.186903,0.040000,137164323825.930725,5806797902.557461,-5806887937.505966,7640733675.571163,0.109404,-0.109405,0.143956
2.260000,-1.160000,2.209010,0.040000,137225367569.856705,5827379579.457391,-5827519405.341823,6445028975.443671,0.109792,-0.109793,0.121428
2.300000,-1.160000,2.231615,0.040000,137277087714.394653,5845606402.727978,-5845793242.630928,5299511295.238623,0.110136,-0.110137,0.099846
2.340000,-1.160000,2.254703,0.040000,137319455133.087952,5861172025.905637,-5861570897.023114,4194490426.554480,0.110430,-0.110433,0.079027
2.380000,-1.160000,2.278259,0.040000,137352444673.039413,5873946998.821305,-5871748493.415271,3122195943.211685,0.110656,-0.110640,0.058824
2.420000,-1.160000,2.302269,0.040000,137376026248.916931,5883940145.142335,-5872057406.226075,2342339094.409552,0.110790,-0.110700,0.044131
2.460000,-1.160000,2.326719,0.040000,137390054657.361069,5937071821.744523,-5949706790.234520,1893058641.933408,0.111929,-0.112025,0.035666
-2.500000,-1.120000,3.801006,0.040000,-38985514399.529373,-19259800988.155006,23171701033757.324219,136791232437.330154,-131.224490,305.706656,2.577226
-2.460000,-1.120000,3.767693,0.040000,-77967514975.086853,1406446928305.680664,16154420277909.013672,76725742570.115097,-72.758800,205.101567,1.445557
-2.420000,-1.120000,3.734511,0.040000,-77954291275.042084,-833307452168.042114,5191095246639.880859,24600610859.482796,-40.330970,73.172269,0.463490
-2.380000,-1.120000,3.701464,0.040000,-77932521112.380585,-54944291357.353149,150117976927.860870,4197014570.258411,-1.573121,2.290371,0.079074
-2.340000,-1.120000,3.668556,0.040000,-77902067973.780853,-5441922068.350742,5441533704.187054,5593066108.846931,-0.102527,0.102524,0.105377
-2.300000,-1.120000,3.635789,0.040000,-77862907741.823822,-5454093709.968028,5453876079.511449,7056367210.076335,-0.102757,0.102755,0.132946
-2.260000,-1.120000,3.603169,0.040000,-77815020662.200760,-5469553916.795126,5469312238.795799,8566212400.999464,-0.103048,0.103046,0.161392
-2.220000,-1.120000,3.570699,0.040000,-77758381928.139038,-5489226503.299695,5488924826.020206,10133780234.959232,-0.103419,0.103416,0.190926
-2.180000,-1.120000,3.538383,0.040000,-77692959969.352036,-5514206212.885763,5513814653.509053,11771285651.530403,-0.103889,0.103886,0.221778
-2.140000,-1.120000,3.506226,0.040000,-77618714680.132385,-5546081820.885956,5545560327.235888,13492276298.627819,-0.104488,0.104485,0.254202
-2.100000,-1.120000,3.474232,0.040000,-77535594860.067657,-5587144659.077152,5586438466.762795,15311928680.028471,-0.105261,0.105256,0.288486
-2.060000,-1.120000,3.442405,0.040000,-77443534525.303238,-5640648782.450835,5639683564.583930,17247387659.132198,-0.106268,0.106260,0.324951
-2.020000,-1.120000,3.410750,0.040000,-77342447672.109726,-5711154641.783746,5709830173.824808,19318159924.144337,-0.107594,0.107584,0.363965
-1.980000,-1.120000,3.379272,0.040000,-77232220940.523087,-5804983959.029202,5803165739.508087,21546569988.636089,-0.109359,0.109345,0.405950
-1.940000,-1.120000,3.347976,0.040000,-77112703447.123810,-5930821813.695699,5928329955.295771,23958286780.825317,-0.111726,0.111707,0.451388
-1.900000,-1.120000,3.316867,0.040000,-76983692819.436691,-6100513911.395008,6097108391.646623,26582927318.166721,-0.114918,0.114892,0.500838
-1.860000,-1.120000,3.285950,0.040000,-76844916150.750320,-6330122989.632842,6325484051.740865,29454740383.098259,-0.119237,0.119202,0.554944
-1.820000,-1.120000,3.255232,0.040000,-76696004177.683167,-6641329548.595411,6635031652.276009,32613366111.056213,-0.125091,0.125043,0.614455
-1.780000,-1.120000,3.224717,0.040000,-76536456429.461777,-7063290139.661895,7054767365.010401,36104654757.697334,-0.133028,0.132964,0.680233
-1.740000,-1.120000,3.194411,0.040000,-76365594362.580307,-7635103164.713661,7623603354.404796,39981506135.201332,-0.143785,0.143698,0.753275
-1.700000,-1.120000,3.164321,0.040000,-76182498518.361099,-8409079553.541081,8393603751.853735,44304654830.150208,-0.158344,0.158228,0.834725
-1.660000,-1.120000,3.134452,0.040000,-75985924447.900726,-9455075611.794603,9434298574.689524,49143266853.221504,-0.178022,0.177865,0.925888
-1.620000,-1.120000,3.104811,0.040000,-75774190443.023041,-10866218519.481968,10838385380.991173,54575117788.266632,-0.204569,0.204359,1.028227
-1.580000,-1.120000,3.075405,0.040000,-75545027876.239029,-12766439326.785398,12729233253.677153,60685971036.266663,-0.240317,0.240036,1.143359
-1.540000,-1.120000,3.046240,0.040000,-75295382053.073837,-15320315411.552504,15270691968.608540,67567537938.630341,-0.288363,0.287989,1.273012
-1.500000,-1.120000,3.017324,0.040000,-75021147778.913239,-18745792849.195698,18679780204.568123,75313036672.003357,-0.352808,0.352311,1.418941
-1.460000,-1.120000,2.988663,0.040000,-74716819234.174561,-23330362596.391232,23242835180.103699,84008814242.546692,-0.439063,0.438403,1.582775
-1.420000,-1.120000,2.960266,0.040000,-74375028238.604996,-29451110152.791328,29335561520.424461,93719678002.997314,-0.554223,0.553352,1.765733
-1.380000,-1.120000,2.932139,0.040000,-73985938829.740387,-37598571738.351089,37446948024.761246,104464410974.454941,-0.707522,0.706379,1.968170
-1.340000,-1.120000,2.903724,0.040000,-73536460087.774139,-48403197367.836777,48205918516.712532,116176346733.841995,-0.910829,0.909343,2.188830
-1.300000,-1.120000,2.875454,0.040000,-73009235167.837555,-62660907904.836868,62407318566.421883,128641875692.498505,-1.179134,1.177223,2.423688
-1.260000,-1.120000,2.847261,0.040000,-72381366326.224991,-81349886474.937958,81029565489.782806,141407636274.843750,-1.530869,1.528454,2.664202
-1.220000,-1.120000,2.818844,0.040000,-71622850410.881592,-105623136183.412781,105228770778.864044,153645839749.181610,-1.987772,1.984800,2.894777
-1.180000,-1.120000,2.790710,0.040000,-70694739129.017670,-136749013012.062119,136281890598.929611,163968931768.657593,-2.573790,2.570270,3.089270
-1.140000,-1.120000,2.762311,0.040000,-69547123204.666702,-175953999047.161316,175433445091.885620,170194253943.561859,-3.312133,3.308210,3.206558
-1.100000,-1.120000,2.734027,0.040000,-68117197853.625443,-224100277308.367310,223578148283.036774,169084855345.831879,-4.219228,4.215293,3.185657
-1.060000,-1.120000,2.705862,0.040000,-66327932751.173317,-281114756062.855347,280694435906.985535,156146327082.956451,-5.293989,5.290822,2.941887
-1.020000,-1.120000,2.677422,0.040000,-64088266126.409943,-345101732911.160095,344956397472.184692,125653061113.475327,-6.501095,6.500000,2.367377
-0.980000,-1.120000,2.649281,0.040000,-61296240592.740089,-411168917077.911194,411544645556.309875,71204689696.655823,-7.748784,7.751616,1.341538
-0.940000,-1.120000,2.620900,0.040000,-57846935758.681084,-470245236151.585266,471422576710.027527,-12787120748.297237,-8.866347,8.875220,-0.240917
-0.900000,-1.120000,2.592600,0.040000,-53647028586.370224,-508599308125.371887,510783334856.003235,-128379312829.318375,-9.594650,9.611110,-2.418741
-0.860000,-1.120000,2.564466,0.040000,-48636650374.207771,-509223764286.323914,512361775982.945435,-270411753051.791016,-9.611808,9.635456,-5.094714
-0.820000,-1.120000,2.536002,0.040000,-42816222478.583717,-456210659082.993713,459817054286.626953,-423312249687.122925,-8.615657,8.642836,-7.975448
-0.780000,-1.120000,2.507853,0.040000,-36271274203.500237,-341935413193.753967,345093350838.176086,-561147299865.430786,-6.460111,6.483910,-10.572340
-0.740000,-1.120000,2.480029,0.040000,-29183991987.547626,-174160116539.904480,175841110757.748413,-653516163801.718628,-3.290779,3.303447,-12.312623
-0.700000,-1.120000,2.452543,0.040000,-21820604166.170048,22122430200.736874,-22515800196.789352,-676704789432.143066,0.419023,-0.421987,-12.749511
-0.660000,-1.120000,2.425404,0.040000,-14492015179.106401,211793140799.233032,-214055787295.453003,-624412891902.399048,4.003094,-4.020146,-11.764301
-0.620000,-1.120000,2.398626,0.040000,-7498835154.478970,362908756424.489685,-366250680535.275574,-510216390464.027832,6.856300,-6.881486,-9.612773
-0.580000,-1.120000,2.372220,0.040000,-1081243823.922885,456895121304.759583,-460595348510.510498,-359500353885.729980,8.629083,-8.656969,-6.773195
-0.540000,-1.120000,2.346198,0.040000,4610719767.650184,488573031388.863892,-492047786402.307434,-199582197479.681335,9.224639,-9.250826,-3.760244
-0.500000,-1.120000,2.320575,0.040000,9525942267.652294,463060229208.502563,-464908198550.109619,-58855650954.090614,8.734768,-8.748695,-1.108875
-0.460000,-1.120000,2.295362,0.040000,13703504412.627562,404214675783.864197,-402986704371.274658,36081407174.501137,7.608698,-7.599444,0.679795
-0.420000,-1.120000,2.270574,0.040000,17233861684.404575,355094950920.287048,-354578057174.488892,92417747291.933395,6.687273,-6.683378,1.741204
-0.380000,-1.120000,2.246225,0.040000,20192823496.077431,324246373832.427368,-328730593720.143616,168253297510.072205,6.134335,-6.168129,3.169990
-0.340000,-1.120000,2.222329,0.040000,22639008096.946972,225329403617.542114,-231259656958.603363,266148208507.468018,4.278855,-4.323547,5.014387
-0.300000,-1.120000,2.198902,0.040000,24732651560.976635,49145108293.699661,-34349980773.596882,235309531569.703430,0.842298,-0.730798,4.433368
-0.260000,-1.120000,2.175957,0.040000,26739214604.504925,32597881315.849655,-15190096204.322721,32184038584.729382,0.515771,-0.384582,0.606366
-0.220000,-1.120000,2.153511,0.040000,28670767009.446655,316466324600.052002,-305632223154.288574,80174381158.089966,5.901173,-5.819524,1.510532
-0.180000,-1.120000,2.131579,0.040000,30200739587.242149,183484824586.565918,-226464355902.973602,448404072186.054077,3.699888,-4.023792,8.448193
-0.140000,-1.120000,2.110178,0.040000,31455660414.447758,-321483042353.176208,352419175128.614075,418132934133.106201,-6.231783,6.464925,7.877867
-0.100000,-1.120000,2.089323,0.040000,33169842226.654545,-285645804262.975403,396933068055.435181,-314190672871.883728,-6.010748,6.849434,-5.919534
-0.060000,-1.120000,2.069031,0.040000,35373726620.594223,474115953725.709717,-510679032332.946594,-255427306357.688721,9.139280,-9.414828,-4.812399
-0.020000,-1.120000,2.049319,0.040000,36966347723.091591,359714839257.237000,-395011417598.879211,618869176372.443481,6.976739,-7.242742,11.659854
0.020000,-1.120000,2.030205,0.040000,38078166626.822174,-499004201610.975769,532060230888.274841,588285343545.469482,-9.588367,9.837485,11.083637
0.060000,-1.120000,2.011704,0.040000,39882598463.705582,-566207624565.203613,603755667285.160522,-367669859404.703552,-10.879908,11.162879,-6.927113
0.100000,-1.120000,1.993833,0.040000,42431698196.011040,293805968208.472961,-421511132372.977722,-399941339218.533386,6.257287,-7.219702,-7.535127
0.140000,-1.120000,1.976611,0.040000,44476952923.426277,302534677765.677063,-336896101535.089844,428249746540.016663,5.894145,-6.153101,8.068473
0.180000,-1.120000,1.960054,0.040000,46100299520.772743,-292436894308.170227,346762345082.995422,405759249255.388245,-5.816738,6.226147,7.644739
0.220000,-1.120000,1.944179,0.040000,48166504807.094002,-403598660829.894104,385816993162.383728,-89988846152.185608,-7.503528,7.369521,-1.695442
0.260000,-1.120000,1.929003,0.040000,50734281406.142220,31958819428.005711,-56957921906.104942,-135346263504.635880,0.743422,-0.931821,-2.550002
0.300000,-1.120000,1.914542,0.040000,53283977744.313614,34882025492.815857,-54773237139.333961,156471502414.228821,0.769626,-0.919531,2.948014
0.340000,-1.120000,1.900814,0.040000,55788749675.161186,-174211090134.315857,183822679409.068604,195875494551.348267,-3.336564,3.408999,3.690408
0.380000,-1.120000,1.887833,0.040000,58558778336.774780,-252222790500.024780,258854891194.659332,66593985823.932045,-4.789509,4.839490,1.254669
0.420000,-1.120000,1.875616,0.040000,61723247009.654930,-228311120578.862915,226801665892.988037,85466042.993180,-4.292982,4.281607,0.001610
0.460000,-1.120000,1.864177,0.040000,65259362547.673767,-246313143155.067078,243310115829.655792,-11592626726.234241,-4.623709,4.601077,-0.218412
0.500000,-1.120000,1.853530,0.040000,69191840089.167328,-297890727239.419189,299248141936.084656,-62180975623.082466,-5.620106,5.630336,-1.171526
0.540000,-1.120000,1.843690,0.040000,73598164821.199310,-324023899003.952271,327191429121.242004,-164343812045.146667,-6.122702,6.146573,-3.096333
0.580000,-1.120000,1.834670,0.040000,78518582835.701447,-299909401588.047791,302830924554.303162,-283550994435.985901,-5.666980,5.688997,-5.342265
0.620000,-1.120000,1.826482,0.040000,83914725650.367828,-227225351728.046997,229642228715.281738,-392715821701.744812,-4.294718,4.312932,-7.398994
0.660000,-1.120000,1.819136,0.040000,89670734149.072571,-112800580123.375946,114446988260.205948,-473198640543.115051,-2.134534,2.146942,-8.915337
0.700000,-1.120000,1.812643,0.040000,95604666443.698410,29893876734.603676,-29611860239.406796,-507304070445.170532,0.561624,-0.559499,-9.557903
0.740000,-1.120000,1.807013,0.040000,101490338707.656631,177258093807.422302,-178569383440.970428,-484401461347.586975,3.347057,-3.356939,-9.126404
0.780000,-1.120000,1.802253,0.040000,107094395301.704971,302307648051.558167,-304774896876.982727,-408829367500.100586,5.709597,-5.728190,-7.702582
0.820000,-1.120000,1.798371,0.040000,112218483850.254898,385542614612.734924,-388357571917.971497,-298852850871.412781,7.279757,-7.300971,-5.630561
0.860000,-1.120000,1.795371,0.040000,116729931875.326721,420971146108.963135,-423408756223.829163,-178208226561.884979,7.945118,-7.963489,-3.357546
0.900000,-1.120000,1.793259,0.040000,120571482572.290222,414744341942.555237,-416423343984.691406,-67140922138.861145,7.823514,-7.836167,-1.264974
0.940000,-1.120000,1.792037,0.040000,123751969414.856796,379512534912.463257,-380395107767.342346,22297950694.188011,7.155225,-7.161876,0.420106
0.980000,-1.120000,1.791708,0.040000,126326578404.373062,328731479883.923401,-328982769064.931396,86272406904.816666,6.194912,-6.196806,1.625422
1.020000,-1.120000,1.791708,0.040000,128375614917.535126,273216153660.954895,-273059708211.480896,126614686395.381073,5.146666,-5.145487,2.385494
1.060000,-1.120000,1.792037,0.040000,129987287489.793716,220066588268.517395,-219697752880.649109,147905174858.655823,4.144097,-4.141318,2.786619
1.100000,-1.120000,1.793259,0.040000,131246309505.599564,173064641070.513702,-172620537839.018158,155325798939.526703,3.258128,-3.254781,2.926428
1.140000,-1.120000,1.795371,0.040000,132227764370.245468,133618924438.476913,-133181152058.473083,153490875601.518158,2.514984,-2.511684,2.891857
1.180000,-1.120000,1.798371,0.040000,132994769992.053543,101699161146.006912,-101308373560.282379,146013527380.572754,1.913862,-1.910917,2.750980
1.220000,-1.120000,1.802253,0.040000,133598465908.823822,76541437805.514893,-76212450483.974426,135490552223.758041,1.440226,-1.437746,2.552721
1.260000,-1.120000,1.807013,0.040000,134079196259.295624,57101760479.062477,-56835070645.177399,123667939096.048233,1.074323,-1.072313,2.329976
1.300000,-1.120000,1.812643,0.040000,134468158068.484619,42311999418.512627,-42101292898.129623,111649988676.166977,0.795992,-0.794404,2.103551
1.340000,-1.120000,1.819136,0.040000,134789099540.706711,31204430460.222561,-31040954932.797630,100088914371.140640,0.586986,-0.585754,1.885733
1.380000,-1.120000,1.826482,0.040000,135059864435.958633,22958435440.205769,-22833292630.761181,89334272610.605637,0.431843,-0.430900,1.683109
1.420000,-1.120000,1.834670,0.040000,135293704656.203369,16905721682.401146,-16810913400.607265,79541743632.011993,0.317978,-0.317263,1.498613
1.460000,-1.120000,1.843690,0.040000,135500350775.005707,12516190465.538258,-12444979239.287479,70748285416.772003,0.235410,-0.234873,1.332939
1.500000,-1.120000,1.853530,0.040000,135686862054.211838,9376798991.645863,-9323724543.565048,62922082057.591133,0.176364,-0.175964,1.185489
1.540000,-1.120000,1.864177,0.040000,135858289225.817490,7169708110.029887,-7130452596.472322,55994677464.523582,0.134860,-0.134564,1.054972
1.580000,-1.120000,1.875616,0.040000,136018184759.689911,5652542360.836876,-5623746154.331376,49881004751.741814,0.106334,-0.106117,0.939787
1.620000,-1.120000,1.887833,0.040000,136168992117.924072,4641738520.672656,-4620815920.541637,44491427982.968193,0.087335,-0.087177,0.838244
1.660000,-1.120000,1.900814,0.040000,136312340633.506699,3999048354.462265,-3984024149.080159,39738638688.746269,0.075259,-0.075146,0.748699
1.700000,-1.120000,1.914542,0.040000,136449267638.146240,3620866580.161170,-3610239833.302094,35541312685.305099,0.068159,-0.068079,0.669619
1.740000,-1.120000,1.929003,0.040000,136580384954.679245,3429926860.131886,-3422561433.612615,31825776900.526234,0.064580,-0.064525,0.599616
1.780000,-1.120000,1.944179,0.040000,136706003080.557877,3368907745.112113,-3363946276.246020,28526491154.737621,0.063444,-0.063407,0.537456
1.820000,-1.120000,1.960054,0.040000,136826223328.350601,3395542844.608697,-3392340124.579734,25585854792.670490,0.063956,-0.063932,0.482052
1.860000,-1.120000,1.976611,0.040000,136941005776.431641,3478897774.598027,-3476969629.553981,22953655519.378941,0.065534,-0.065519,0.432460
1.900000,-1.120000,1.993833,0.040000,137050219010.348801,3596543289.454904,-3595527588.900481,20586353818.134624,0.067755,-0.067748,0.387859
1.940000,-1.120000,2.011704,0.040000,137153676196.348984,3732412472.756299,-3732039493.433266,18446317472.197655,0.070319,-0.070316,0.347539
1.980000,-1.120000,2.030205,0.040000,137251160929.852173,3875178068.939343,-3875248017.023329,16501071180.388350,0.073011,-0.073012,0.310890
2.020000,-1.120000,2.049319,0.040000,137342445466.072311,4017024456.470417,-4017390433.012660,14722595592.392664,0.075685,-0.075688,0.277382
2.060000,-1.120000,2.069031,0.040000,137427303305.964706,4152718718.307145,-4153273815.725857,13086691456.990034,0.078243,-0.078247,0.246561
2.100000,-1.120000,2.089323,0.040000,137505517630.091248,4278908328.044037,-4279575850.417111,11572413543.346228,0.080621,-0.080626,0.218031
2.140000,-1.120000,2.110178,0.040000,137576886708.903656,4393590553.432071,-4394316604.028416,10161572711.390709,0.082782,-0.082787,0.191450
2.180000,-1.120000,2.131579,0.040000,137641227142.006409,4495712040.842425,-4496459895.528283,8838301150.113602,0.084706,-0.084712,0.166519
2.220000,-1.120000,2.153511,0.040000,137698375569.810455,4584867117.422275,-4585612907.970479,7588674209.857593,0.086386,-0.086391,0.142975
2.260000,-1.120000,2.175957,0.040000,137748189342.364807,4661070392.270158,-4661799057.371995,6400381607.193961,0.087821,-0.087827,0.120587
2.300000,-1.120000,2.198902,0.040000,137790546510.961243,4724575280.102235,-4725266017.446747,5262439125.720125,0.089018,-0.089023,0.099147
2.340000,-1.120000,2.222329,0.040000,137825345440.371429,4775589840.812566,-4776078791.487696,4164907392.241982,0.089978,-0.089981,0.078469
2.380000,-1.120000,2.246225,0.040000,137852504683.934875,4814019473.868443,-4815478513.330746,3099124045.379342,0.090707,-0.090718,0.058389
2.420000,-1.120000,2.270574,0.040000,137871970074.216858,4838501772.358811,-4837592666.675064,2326824847.070705,0.091155,-0.091148,0.043839
2.460000,-1.120000,2.295362,0.040000,137883810618.757751,4816074642.663707,-4784613476.047965,1880859358.498156,0.090560,-0.090323,0.035436
-2.500000,-1.080000,3.779109,0.040000,-39291071234.820473,-18494685529.969933,23351463733879.488281,138488030519.061432,-132.230450,308.073115,2.609195
-2.460000,-1.080000,3.745601,0.040000,-78579283172.297409,1418647016287.417480,16279213106221.625000,77661205716.177734,-73.303251,206.678429,1.463182
-2.420000,-1.080000,3.712222,0.040000,-78569631327.131500,-838417462465.754395,5230261687092.707031,24868742220.407417,-40.619738,73.717695,0.468542
-2.380000,-1.080000,3.678975,0.040000,-78553422567.556320,-53921713122.585976,149838391322.511047,4192917647.233835,-1.558054,2.280904,0.078997
-2.340000,-1.080000,3.645864,0.040000,-78530772642.383286,-3998782223.686535,3999327958.400181,5585354739.364037,-0.075342,0.075347,0.105231
-2.300000,-1.080000,3.612892,0.040000,-78501725076.930771,-3969088729.206198,3969518813.618177,7046629806.999070,-0.074782,0.074786,0.132763
-2.260000,-1.080000,3.580063,0.040000,-78466327597.049805,-3932301678.252294,3932737001.868401,8554681816.255536,-0.074089,0.074093,0.161175
-2.220000,-1.080000,3.547381,0.040000,-78424639094.052612,-3887977856.837208,3888424006.961967,10120778773.846870,-0.073254,0.073258,0.190681
-2.180000,-1.080000,3.514851,0.040000,-78376730503.126404,-3835916067.181398,3836361881.990514,11757422082.210285,-0.072273,0.072277,0.221517
-2.140000,-1.080000,3.482476,0.040000,-78322685121.634384,-3776137541.791882,3776562859.671324,13478598655.475666,-0.071147,0.071150,0.253945
-2.100000,-1.080000,3.450262,0.040000,-78262598562.599335,-3709022011.057448,3709395291.990333,15300122717.466156,-0.069882,0.069885,0.288263
-2.060000,-1.080000,3.418211,0.040000,-78196578129.762741,-3635506594.561514,3635780838.828633,17240042943.986511,-0.068497,0.068499,0.324812
-2.020000,-1.080000,3.386330,0.040000,-78124741294.500519,-3557357779.651257,3557464943.722937,19319126610.646889,-0.067023,0.067024,0.363984
-1.980000,-1.080000,3.354623,0.040000,-78047212837.187439,-3477541750.463933,3477385159.079682,21561436976.262123,-0.065518,0.065517,0.406230
-1.940000,-1.080000,3.323095,0.040000,-77964120057.412720,-3400728289.735853,3400172308.697921,23995022685.045334,-0.064069,0.064064,0.452080
-1.900000,-1.080000,3.291751,0.040000,-77875585242.604034,-3333976491.056608,3332832445.594348,26652740247.886833,-0.062808,0.062799,0.502153
-1.860000,-1.080000,3.260596,0.040000,-77781714292.160477,-3287668413.911815,3285675351.525610,29573232262.832531,-0.061930,0.061915,0.557177
-1.820000,-1.080000,3.229637,0.040000,-77682579995.339600,-3276781489.019252,3273579854.815180,32802084015.943836,-0.061718,0.061694,0.618010
-1.780000,-1.080000,3.198877,0.040000,-77578197916.180252,-3322624503.402172,3317720067.534380,36393177798.203026,-0.062572,0.062535,0.685669
-1.740000,-1.080000,3.168325,0.040000,-77468492092.938065,-3455208816.638104,3447923203.768756,40410254810.908264,-0.065057,0.065002,0.761353
-1.700000,-1.080000,3.137984,0.040000,-77353246737.550415,-3716490640.740024,3705893485.951068,44928674049.281189,-0.069961,0.069881,0.846482
-1.660000,-1.080000,3.107862,0.040000,-77232038719.338928,-4164807571.323322,4149623594.767773,50037317919.271858,-0.078382,0.078267,0.942732
-1.620000,-1.080000,3.077966,0.040000,-77104143696.112534,-4880950089.143378,4859432200.211397,55840522092.527382,-0.091838,0.091676,1.052068
-1.580000,-1.080000,3.048301,0.040000,-76968406126.352371,-5976463972.818747,5946220951.135664,62459780169.851112,-0.112429,0.112201,1.176778
-1.540000,-1.080000,3.018874,0.040000,-76823059809.346878,-7604978489.107043,7562743168.082940,70034756314.446411,-0.143043,0.142725,1.319495
-1.500000,-1.080000,2.989693,0.040000,-76665480737.743454,-9977597451.224724,9918919556.247423,78722773856.823776,-0.187652,0.187210,1.483183
-1.460000,-1.080000,2.960765,0.040000,-76491847522.920456,-13383658167.312807,13302507142.694218,88695344938.962372,-0.251697,0.251086,1.671072
-1.420000,-1.080000,2.932097,0.040000,-76296676044.080429,-18218399884.862282,18106671702.304588,100129327744.572205,-0.342614,0.341772,1.886495
-1.380000,-1.080000,2.903697,0.040000,-76072183910.570129,-25019148108.518776,24866095294.774246,113188741360.269867,-0.470510,0.469357,2.132542
-1.340000,-1.080000,2.875573,0.040000,-75807426736.507217,-34511207074.275131,34302870544.959019,127990857018.590698,-0.649034,0.647464,2.411422
-1.300000,-1.080000,2.847156,0.040000,-75487132823.688736,-47663136346.432411,47381983018.859985,144546590018.240875,-0.896412,0.894293,2.723342
-1.260000,-1.080000,2.818886,0.040000,-75090148161.971863,-65747277946.537834,65372493820.090591,162660179605.645264,-1.236598,1.233774,3.064612
-1.220000,-1.080000,2.790695,0.040000,-74587395965.492538,-90393164743.514420,89902501415.498077,181766839977.814362,-1.700286,1.696589,3.424593
-1.180000,-1.080000,2.762275,0.040000,-73939267748.079163,-123605279907.457672,122980100410.499084,200681017039.485291,-2.325262,2.320550,3.780947
-1.140000,-1.080000,2.734144,0.040000,-73092422488.512390,-167687606069.869049,166923856729.596680,217226948359.151245,-3.155015,3.149259,4.092682
-1.100000,-1.080000,2.705743,0.040000,-71976123623.402832,-224970624346.954376,224099590092.492584,227739311507.351990,-4.233654,4.227089,4.290741
-1.060000,-1.080000,2.677459,0.040000,-70498565182.248520,-297173247656.033203,296295917666.623779,226479307502.522125,-5.593957,5.587346,4.267001
-1.020000,-1.080000,2.649297,0.040000,-68544227410.669014,-384176660396.539795,383511108074.206421,205151285045.917419,-7.234349,7.229333,3.865169
-0.980000,-1.080000,2.620854,0.040000,-65974240835.979362,-482018554245.101868,481944794669.493958,152971962031.683014,-9.081092,9.080536,2.882080
-0.940000,-1.080000,2.592716,0.040000,-62632960767.950371,-580208516307.581421,581263737211.742798,58125395854.279015,-10.937429,10.945381,1.095116
-0.900000,-1.080000,2.564332,0.040000,-58364972987.696152,-659263250207.981079,662001207251.811157,-88298616093.222473,-12.436377,12.457011,-1.663597
-0.860000,-1.080000,2.536033,0.040000,-53046282822.683037,-690715063449.545166,695352197430.224976,-285302234937.719238,-13.039682,13.074629,-5.375259
-0.820000,-1.080000,2.507901,0.040000,-46629379528.931137,-642941654235.337769,648872137306.264282,-513606698021.431396,-12.146914,12.191607,-9.676648
-0.780000,-1.080000,2.479433,0.040000,-39192651633.946251,-494743664542.159973,500316181115.434937,-731595217899.813843,-9.352754,9.394750,-13.783678
-0.740000,-1.080000,2.451287,0.040000,-30972748067.777771,-252464518166.676697,255527007388.367493,-883542570693.676636,-4.773888,4.796967,-16.646454
-0.700000,-1.080000,2.423475,0.040000,-22353590468.627441,41698550823.715416,-42506621169.252876,-922519910591.947144,0.790192,-0.796282,-17.380810
-0.660000,-1.080000,2.396007,0.040000,-13799965982.690638,322676146173.675049,-326796004977.737183,-836357276221.728882,6.102692,-6.133740,-15.757456
-0.620000,-1.080000,2.368896,0.040000,-5756278765.943621,533837697518.605957,-539192913399.702148,-654950688987.323975,10.088080,-10.128438,-12.339651
-0.580000,-1.080000,2.342155,0.040000,1441662027.028107,651917550429.927124,-657308907555.955688,-427148139631.567078,12.312977,-12.353608,-8.047719
-0.540000,-1.080000,2.315796,0.040000,7604366460.310046,678009535529.897217,-684147217819.654663,-189455332113.463287,12.808784,-12.855039,-3.569448
-0.500000,-1.080000,2.289832,0.040000,12690128883.673079,607853386274.506348,-613089455027.425171,23357670847.421680,11.481905,-11.521366,0.440072
-0.460000,-1.080000,2.264277,0.040000,16810381112.628536,462067074215.016724,-455041041522.107788,131877346901.834595,8.665899,-8.612949,2.484646
-0.420000,-1.080000,2.239145,0.040000,20189419589.601116,383102473103.156433,-367508342508.572571,99514063821.491333,7.129732,-7.012211,1.874903
-0.380000,-1.080000,2.214451,0.040000,22949000034.445957,541390731811.421021,-504502329092.628357,166557786364.126221,9.991616,-9.713616,3.138045
-0.340000,-1.080000,2.190208,0.040000,24969673683.632153,396220707401.724915,-437781568503.084839,507442252821.081421,7.699937,-8.013149,9.560506
-0.300000,-1.080000,2.166433,0.040000,26393547396.673985,-102380958918.776138,277269346149.454651,470765333609.808228,-2.917416,4.235416,8.869492
-0.260000,-1.080000,2.143141,0.040000,28101677761.829792,158751622895.139130,387687018885.442627,-521135458925.797363,-0.097594,4.215682,-9.818494
-0.220000,-1.080000,2.120347,0.040000,30448444196.569931,1199952979312.323242,-1016653310979.304199,-326543160343.550537,21.571768,-20.190379,-6.152262
-0.180000,-1.080000,2.098069,0.040000,31545560876.402264,1030081295208.868408,-1020473345105.003906,1193207575129.606445,19.353023,-19.280615,22.480722
-0.140000,-1.080000,2.076322,0.040000,31300596933.887245,-381126397857.535156,1175793689821.535400,1035546068865.472412,-11.672240,17.661037,19.510288
-0.100000,-1.080000,2.055124,0.040000,32505785007.360565,-267497677582.265228,1505443006255.669189,-1012787831284.740234,-12.036894,21.366337,-19.081510
-0.060000,-1.080000,2.034491,0.040000,36893584193.658897,873510458846.291504,-1752500446253.862305,-886126700513.080566,21.425648,-28.049920,-16.695141
-0.020000,-1.080000,2.014441,0.040000,37879836152.457558,821018149348.245850,-1548194685807.541504,1522302334911.120850,19.578586,-25.058757,28.681058
0.020000,-1.080000,1.994992,0.040000,36790878519.251411,-953486762306.387451,1756430927923.069092,1477488608773.843750,-22.502623,28.553797,27.836742
0.060000,-1.080000,1.976162,0.040000,38119028149.294029,-945828152559.752197,1931758466341.567383,-1102154184380.182129,-23.392600,30.822800,-20.765224
0.100000,-1.080000,1.957967,0.040000,43224720237.336670,321398419862.553284,-1719074306309.546631,-1152936150703.508057,13.955240,-24.488449,-21.721985
0.140000,-1.080000,1.940427,0.040000,44721417106.985550,355196216098.259155,-1262431855965.855957,1217690987639.430420,11.819956,-18.657094,22.942004
0.180000,-1.080000,1.923558,0.040000,44705473085.561722,-1423519985127.859375,1395866749537.621826,1325533412191.880859,-26.663641,26.455240,24.973818
0.220000,-1.080000,1.907379,0.040000,46567084269.602509,-1596407750578.079590,1336063759590.956787,-701873214187.939453,-28.605738,26.643725,-13.223698
0.260000,-1.080000,1.891908,0.040000,50046048908.941849,-125887801451.858017,-643217942822.851807,-925991233618.667603,1.975320,-7.771479,-17.446212
0.300000,-1.080000,1.877162,0.040000,52471746194.513992,237668559948.828186,-481069959780.503357,468882504478.540710,5.853560,-7.687890,8.834018
0.340000,-1.080000,1.863158,0.040000,54345648376.012863,-434811017575.771423,497992726825.864990,478026420957.169373,-8.549206,9.025358,9.006295
0.380000,-1.080000,1.849913,0.040000,56857812083.653976,-557089708362.790405,494847775967.247314,-27781888863.010242,-10.144091,9.675021,-0.523427
0.420000,-1.080000,1.837443,0.040000,60052436069.296638,-199906925207.906372,173965796594.342896,-68885995625.677475,-3.619739,3.424240,-1.297852
0.460000,-1.080000,1.825765,0.040000,63578088470.896111,-240707380853.041138,228544350408.888428,76154945499.865952,-4.466319,4.374656,1.434803
0.500000,-1.080000,1.814893,0.040000,67492935196.963470,-403071925359.204102,409922531069.684937,24697264953.095242,-7.632830,7.684457,0.465311
0.540000,-1.080000,1.804843,0.040000,72043763864.618179,-472343474189.976929,478928030055.936279,-154921113451.127686,-8.936442,8.986065,-2.918804
0.580000,-1.080000,1.795628,0.040000,77342689064.101974,-443830161202.266357,447680035715.290894,-340004275382.692383,-8.383778,8.412791,-6.405878
0.620000,-1.080000,1.787260,0.040000,83346382395.967255,-349207381887.238708,352737202237.181091,-503531314690.428101,-6.599221,6.625822,-9.486822
0.660000,-1.080000,1.779753,0.040000,89902937546.042923,-190626425721.335846,193704496571.487671,-632336037974.653564,-3.608910,3.632107,-11.913578
0.700000,-1.080000,1.773116,0.040000,96759669831.017685,20291672504.343884,-19581601235.543060,-692279661489.655396,0.378293,-0.372942,-13.042950
0.740000,-1.080000,1.767360,0.040000,103582930963.987991,242384443949.719330,-244731775791.218842,-657429383662.800415,4.579931,-4.597621,-12.386351
0.780000,-1.080000,1.762493,0.040000,110021997695.965286,424545192855.682495,-428903317597.344788,-535425451981.201050,8.023310,-8.056154,-10.087726
0.820000,-1.080000,1.758522,0.040000,115788373889.187561,533163698579.264587,-537803318818.718445,-362773185932.999634,10.071337,-10.106302,-6.834857
0.860000,-1.080000,1.755455,0.040000,120708632686.372223,563267201095.164673,-566873470234.705322,-183340366414.673096,10.632664,-10.659842,-3.454239
0.900000,-1.080000,1.753294,0.040000,124733051694.360229,531776334512.999451,-533876012064.623596,-29756247520.514618,10.030842,-10.046666,-0.560625
0.940000,-1.080000,1.752045,0.040000,127909786677.827118,463769891832.502563,-464541135757.237915,83083447785.064499,8.742053,-8.747865,1.565340
0.980000,-1.080000,1.751708,0.040000,130345680086.240662,381723355210.658447,-381607862014.210693,154708389363.342377,7.191237,-7.190366,2.914796
1.020000,-1.080000,1.751708,0.040000,132170679059.482071,300943310654.737305,-300367194835.045044,192411460242.922791,5.666690,-5.662348,3.625143
1.060000,-1.080000,1.752045,0.040000,133513329077.236572,229600195580.745819,-228864104643.314880,205714477518.284851,4.321640,-4.316093,3.875780
1.100000,-1.080000,1.753294,0.040000,134487524723.322128,170698177020.515198,-169974215488.998077,203268558324.072296,3.211961,-3.206505,3.829697
1.140000,-1.080000,1.755455,0.040000,135187516546.226059,124207316252.609207,-123574776892.792725,191716599285.888733,2.336563,-2.331796,3.612052
1.180000,-1.080000,1.758522,0.040000,135687821017.022598,88654024888.880173,-88136955263.028137,175648112249.476135,1.667371,-1.663474,3.309312
1.220000,-1.080000,1.762493,0.040000,136045494336.376389,62092999592.618942,-61687440637.225182,157988795827.154938,1.167576,-1.164519,2.976601
1.260000,-1.080000,1.767360,0.040000,136303201405.116562,42612903487.260750,-42303355544.029594,140468296059.206055,0.801102,-0.798769,2.646504
1.300000,-1.080000,1.773116,0.040000,136492255472.694550,28552418589.259106,-28320559470.191830,124020113355.986359,0.536634,-0.534886,2.336611
1.340000,-1.080000,1.779753,0.040000,136635271283.245148,18559355140.056793,-18388057991.465115,109077873722.297928,0.348701,-0.347410,2.055090
1.380000,-1.080000,1.787260,0.040000,136748329992.886948,11575569191.248640,-11450377464.779488,95777671312.225418,0.217383,-0.216439,1.804507
1.420000,-1.080000,1.795628,0.040000,136842676043.922577,6793427920.430813,-6702792059.229475,84088948095.866684,0.127480,-0.126797,1.584285
1.460000,-1.080000,1.804843,0.040000,136926013693.819885,3606554161.851694,-3541543353.651298,73895664952.258881,0.067582,-0.067092,1.392237
1.500000,-1.080000,1.814893,0.040000,137003481158.059341,1564747084.664989,-1518594336.550254,65044743466.580238,0.029220,-0.028872,1.225481
1.540000,-1.080000,1.825765,0.040000,137078374209.540192,336417810.919839,-304061552.430228,57373764943.868935,0.006155,-0.005912,1.080955
1.580000,-1.080000,1.837443,0.040000,137152679315.448288,-321167019.341851,343481382.622895,50725914898.469498,-0.006177,0.006345,0.955706
1.620000,-1.080000,1.849913,0.040000,137227464004.497025,-584762314.987914,599804874.174409,44957301678.358109,-0.011102,0.011216,0.847022
1.660000,-1.080000,1.863158,0.040000,137303161179.352844,-582412599.318515,592219716.217370,39939854618.706734,-0.011028,0.011102,0.752490
1.700000,-1.080000,1.877162,0.040000,137379775110.497101,-406338732.835368,412403461.050818,35561761734.919144,-0.007690,0.007736,0.670004
1.740000,-1.080000,1.891908,0.040000,137457029821.504028,-122488387.712879,125902971.201181,31726620944.946693,-0.002327,0.002353,0.597748
1.780000,-1.080000,1.907379,0.040000,137534475219.317383,222414617.935973,-220853046.994275,28351992073.253197,0.004182,-0.004170,0.534168
1.820000,-1.080000,1.923558,0.040000,137611562304.573547,595678340.246417,-595389761.483143,25367740236.517727,0.011221,-0.011219,0.477943
1.860000,-1.080000,1.940427,0.040000,137687695811.454742,974822374.291140,-975386470.306256,22714383159.793346,0.018369,-0.018374,0.427952
1.900000,-1.080000,1.957967,0.040000,137762270421.114136,1344767499.707531,-1345881444.384867,20341549922.882332,0.025342,-0.025351,0.383247
1.940000,-1.080000,1.976162,0.040000,137834695068.512268,1695768116.445171,-1697215535.234970,18206598002.825466,0.031957,-0.031968,0.343023
1.980000,-1.080000,1.994992,0.040000,137904408667.884644,2021890933.153180,-2023519062.065687,16273401556.709467,0.038103,-0.038115,0.306600
2.020000,-1.080000,2.014441,0.040000,137970889703.503418,2319895628.674778,-2321598488.468500,14511305824.094799,0.043718,-0.043731,0.273401
2.060000,-1.080000,2.034491,0.040000,138033661485.896545,2588411607.415204,-2590117594.819690,12894233717.984037,0.048777,-0.048790,0.242935
2.100000,-1.080000,2.055124,0.040000,138092294397.490997,2827333091.015209,-2828995820.234544,11399927136.999636,0.053278,-0.053291,0.214781
2.140000,-1.080000,2.076322,0.040000,138146406100.507721,3037375361.775382,-3038966899.362926,10009304893.102470,0.057235,-0.057247,0.188581
2.180000,-1.080000,2.098069,0.040000,138195660420.794830,3219750021.740945,-3221255891.667875,8705920008.099888,0.060670,-0.060682,0.164025
2.220000,-1.080000,2.120347,0.040000,138239765429.890076,3375928191.273170,-3377343721.794219,7475500682.014267,0.063612,-0.063623,0.140843
2.260000,-1.080000,2.143141,0.040000,138278471106.198975,3507469155.852886,-3508797391.755091,6305561106.037470,0.066090,-0.066100,0.118800
2.300000,-1.080000,2.166433,0.040000,138311566850.789276,3615905618.607608,-3617164838.964072,5185071709.305368,0.068133,-0.068142,0.097690
2.340000,-1.080000,2.190208,0.040000,138338879037.516998,3702773959.964097,-3704091819.117311,4104204937.372807,0.069770,-0.069780,0.077326
2.380000,-1.080000,2.214451,0.040000,138360268393.512146,3769034049.976938,-3767934663.645064,3055183846.338860,0.071005,-0.070996,0.057561
2.420000,-1.080000,2.239145,0.040000,138375621943.873138,3813285712.121218,-3796021141.095948,2292135602.048691,0.071747,-0.071617,0.043185
2.460000,-1.080000,2.264277,0.040000,138384779199.699341,3872930790.267325,-3860946217.979739,1852493869.347311,0.072901,-0.072810,0.034902
-2.500000,-1.040000,3.757511,0.040000,-39599868260.767517,-225520762221.759552,23403294248351.363281,40305401969.048248,-135.253749,309.926824,0.759377
-2.460000,-1.040000,3.723808,0.040000,-79197997549.684311,1426228723267.528320,16406320923798.937500,75219863425.540390,-73.921696,208.311925,1.417186
-2.420000,-1.040000,3.690232,0.040000,-79191467659.469849,-843594903343.604492,5269878811440.041992,25042579109.910545,-40.911943,74.269445,0.471817
-2.380000,-1.040000,3.656785,0.040000,-79180761318.174347,-52906939105.085274,149579643161.424683,4159333746.938568,-1.543208,2.271756,0.078364
-2.340000,-1.040000,3.623471,0.040000,-79165876430.963623,-2561811510.613766,2562673004.565083,5541185210.012689,-0.048271,0.048277,0.104399
-2.300000,-1.040000,3.590293,0.040000,-79146894240.180130,-2491286905.271719,2492313471.538853,6990306753.399709,-0.046943,0.046951,0.131701
-2.260000,-1.040000,3.557256,0.040000,-79123927569.866257,-2402611672.858581,2403726214.277946,8485305725.666826,-0.045273,0.045281,0.159868
-2.220000,-1.040000,3.524363,0.040000,-79097118417.624634,-2294501962.317610,2295707288.678978,10037476806.845182,-0.043237,0.043246,0.189112
-2.180000,-1.040000,3.491618,0.040000,-79066639895.699280,-2165400865.765737,2166703749.721868,11659328045.723358,-0.040805,0.040815,0.219668
-2.140000,-1.040000,3.459026,0.040000,-79032698713.511139,-2013621181.268717,2015024176.317819,13364943807.770290,-0.037946,0.037956,0.251803
-2.100000,-1.040000,3.426591,0.040000,-78995537869.866379,-1837434791.439161,1838933628.948484,15170371112.873997,-0.034627,0.034638,0.285819
-2.060000,-1.040000,3.394317,0.040000,-78955439407.410767,-1635194107.434143,1636774612.739613,17094081019.329224,-0.030817,0.030829,0.322062
-2.020000,-1.040000,3.362210,0.040000,-78912727033.542450,-1405507101.588026,1407140879.515250,19157527141.219635,-0.026490,0.026502,0.360939
-1.980000,-1.040000,3.330273,0.040000,-78867768325.802551,-1147488424.656209,1149126786.848612,21385825607.128410,-0.021629,0.021641,0.402921
-1.940000,-1.040000,3.298512,0.040000,-78820976117.251465,-861117687.191105,862683104.828614,23808586114.206795,-0.016233,0.016245,0.448568
-1.900000,-1.040000,3.266932,0.040000,-78772808484.779343,-547748595.153491,549122661.723545,26460930305.451664,-0.010328,0.010338,0.498539
-1.860000,-1.040000,3.235538,0.040000,-78723766520.367416,-210830579.586039,211837035.219873,29384741377.864918,-0.003978,0.003985,0.553626
-1.820000,-1.040000,3.204337,0.040000,-78674388723.103699,143069850.579345,-142689101.866081,32630197387.210316,0.002693,-0.002690,0.614772
-1.780000,-1.040000,3.173332,0.040000,-78625240367.012070,502824221.046880,-503443066.002656,36257649492.700699,0.009477,-0.009482,0.683115
-1.740000,-1.040000,3.142531,0.040000,-78576895517.543457,850697464.024036,-852853757.286545,40339913891.956863,0.016040,-0.016056,0.760027
-1.700000,-1.040000,3.111939,0.040000,-78529908403.454254,1159452215.475494,-1163916275.462538,44965049409.601578,0.021870,-0.021904,0.847168
-1.660000,-1.040000,3.081563,0.040000,-78484769479.707932,1388243008.524091,-1396115159.662266,50239685830.208267,0.026200,-0.026259,0.946545
-1.620000,-1.040000,3.051408,0.040000,-78441839567.465149,1476787274.837662,-1489636877.023409,56292940388.918602,0.027896,-0.027993,1.060592
-1.580000,-1.040000,3.021483,0.040000,-78401252681.034439,1337080739.831338,-1357144296.882899,63280891957.291306,0.025305,-0.025456,1.192249
-1.540000,-1.040000,2.991792,0.040000,-78362774195.747360,841615311.080569,-872078189.272095,71391439868.823212,0.016029,-0.016258,1.345056
-1.500000,-1.040000,2.962344,0.040000,-78325595377.263641,-193372555.371174,147977388.925142,80849096383.254395,-0.003387,0.003045,1.523244
-1.460000,-1.040000,2.933147,0.040000,-78288037290.815720,-2031677632.772021,1964910156.461314,91918743299.934708,-0.037901,0.037397,1.731802
-1.420000,-1.040000,2.904206,0.040000,-78247125804.442398,-5050735241.848677,4953475190.164890,104906444236.243393,-0.094609,0.093876,1.976498
-1.380000,-1.040000,2.875531,0.040000,-78197983587.988373,-9788772816.303871,9648178078.601610,120153742244.693451,-0.183631,0.182572,2.263766
-1.340000,-1.040000,2.847129,0.040000,-78132963264.078461,-17010099271.487526,16808263567.621887,138018993094.322937,-0.319339,0.317818,2.600358
-1.300000,-1.040000,2.819008,0.040000,-78040416809.506851,-27793536000.521160,27505896600.505173,158834412033.646027,-0.522021,0.519853,2.992532
-1.260000,-1.040000,2.790588,0.040000,-77902959381.121765,-43647774547.667404,43241541923.287750,182819518134.486572,-0.820053,0.816992,3.444426
-1.220000,-1.040000,2.762319,0.040000,-77695043119.971909,-66652039153.921745,66085432440.149429,209919143851.364899,-1.252560,1.248290,3.954998
-1.180000,-1.040000,2.734130,0.040000,-77379617277.488113,-99605552365.796432,98829703764.778824,239516078962.446960,-1.872241,1.866394,4.512622
-1.140000,-1.040000,2.705706,0.040000,-76903639879.338013,-146134925036.949158,145102389491.181519,269946146415.128632,-2.747431,2.739649,5.085942
-1.100000,-1.040000,2.677579,0.040000,-76192279547.131714,-210637916405.618103,209325223685.794312,297726697663.255981,-3.961121,3.951228,5.609344
-1.060000,-1.040000,2.649176,0.040000,-75141919019.923004,-297813002257.549927,296269292300.724670,316429126960.487122,-5.602244,5.590611,5.961708
-1.020000,-1.040000,2.620892,0.040000,-73612751716.485138,-411326281900.819336,409762260779.227112,315258276431.742920,-7.740785,7.728999,5.939649
-0.980000,-1.040000,2.592731,0.040000,-71423161036.018738,-550960309786.301514,549879386468.388672,277794934551.283813,-10.374302,10.366156,5.233818
-0.940000,-1.040000,2.564285,0.040000,-68350497524.315964,-707644002140.240967,707963247305.021729,182205829199.938263,-13.334228,13.336634,3.432863
-0.900000,-1.040000,2.536151,0.040000,-64146177690.879845,-856757260201.003906,859740317864.493164,5509479841.062128,-16.158664,16.181145,0.103802
-0.860000,-1.040000,2.507765,0.040000,-58575546227.000229,-953018584760.753418,959705293641.753784,-264802878370.212494,-17.993217,18.043610,-4.989040
-0.820000,-1.040000,2.479465,0.040000,-51490010166.201485,-934920449680.328369,944915020225.187866,-611374685300.801514,-17.670934,17.746256,-11.518653
-0.780000,-1.040000,2.451337,0.040000,-42923476919.280495,-748286460614.107422,758669486661.177612,-969396322150.238892,-14.156837,14.235086,-18.263989
-0.740000,-1.040000,2.422865,0.040000,-33175376630.893673,-387107688902.427979,393142192581.025940,-1232894804016.298584,-7.327441,7.372919,-23.228453
-0.700000,-1.040000,2.394722,0.040000,-22817245663.123466,75998497883.527084,-77814958623.570312,-1301516173092.725098,1.442123,-1.455812,-24.521319
-0.660000,-1.040000,2.366921,0.040000,-12578160349.925121,510088010414.762451,-518628912247.790649,-1147164141241.424561,9.658628,-9.722995,-21.613237
-0.620000,-1.040000,2.339473,0.040000,-3142313252.870295,802898701211.023193,-811851790026.819458,-842649920823.388672,15.177681,-15.245154,-15.876013
-0.580000,-1.040000,2.312391,0.040000,5023819104.634059,936614525930.100098,-942057933230.939453,-502410140711.967041,17.677128,-17.718150,-9.465698
-0.540000,-1.040000,2.285689,0.040000,11700806863.705315,962645644666.368042,-972103411225.654663,-164657133734.104828,18.190259,-18.261535,-3.102236
-0.500000,-1.040000,2.259379,0.040000,16845016841.519201,856566320791.657837,-875742565893.775269,203876656211.258392,16.246594,-16.391110,3.841154
-0.460000,-1.040000,2.233476,0.040000,20644892260.628311,563035796270.074951,-373497142228.657288,250690464537.333649,9.536615,-8.108208,4.723154
-0.420000,-1.040000,2.207993,0.040000,23695156735.606701,970960513984.541504,-211840267767.557587,-428474735784.436157,14.002779,-8.281873,-8.072712
-0.380000,-1.040000,2.182947,0.040000,26486676673.960052,1928657526903.818604,-1180983379609.822266,-125802649194.735123,32.111042,-26.476396,-2.370195
-0.340000,-1.040000,2.158350,0.040000,28059999892.105293,1674463239473.689453,-1297023850775.597412,1231581123560.442383,29.414505,-26.570034,23.203702
-0.300000,-1.040000,2.134220,0.040000,27808290263.887722,376980414345.539612,1223656242355.342529,855871254432.636230,-1.944547,14.007316,16.125111
-0.260000,-1.040000,2.110573,0.040000,27991321091.868160,970029305477.861572,2036063538211.659668,-1251255801219.747803,1.284955,21.369658,-23.574385
-0.220000,-1.040000,2.087423,0.040000,34290956054.565029,1568773289403.790039,-2539330562598.649902,-905468478777.454590,35.042357,-42.356701,-17.059551
-0.180000,-1.040000,2.064790,0.040000,34583626047.094521,1670679932738.360107,-2645440429663.201660,1846034639452.002930,36.986094,-44.332115,34.780363
-0.140000,-1.040000,2.042689,0.040000,30170851496.751575,453362453168.245728,3089061139581.831543,1653429732885.209229,-11.480783,38.177308,31.151575
-0.100000,-1.040000,2.021138,0.040000,24597347111.012726,2575172249365.386230,5619492143140.092773,-1051570582610.034546,2.200070,59.556821,-19.812199
-0.060000,-1.040000,2.000154,0.040000,46840019981.612595,-1967492438317.664307,-6087224983874.506836,-975987798449.788696,8.457966,-69.160184,-18.388176
-0.020000,-1.040000,1.979757,0.040000,40544989794.403885,434073065955.267578,-3788458583601.077637,1866566077268.111328,27.137759,-52.417186,35.167187
0.020000,-1.040000,1.959964,0.040000,33513947619.052425,-262905005418.976837,4065465394101.407715,1816494231952.525635,-26.446015,55.102992,34.223804
0.060000,-1.040000,1.940793,0.040000,26940357639.250423,2387380769247.326660,6683447233204.915039,-1187390186167.673096,-6.290260,74.650123,-22.371119
0.100000,-1.040000,1.922264,0.040000,52217084727.700607,-2768724206064.507324,-6456678258914.199219,-1147143215381.985840,-0.020790,-69.503982,-21.612843
0.140000,-1.040000,1.904395,0.040000,45972993266.209488,-456161854488.410950,-3558709863986.315918,2086109376691.482422,14.098399,-44.355404,39.303510
0.180000,-1.040000,1.887204,0.040000,40996326394.675056,-2094628551697.666260,3491720248297.013184,2210541376498.594238,-47.360621,57.889428,41.647881
0.220000,-1.040000,1.870711,0.040000,42217739232.603539,-2019475670664.692139,3386623056369.299316,-1496901838729.166992,-45.775447,56.078587,-28.202498
0.260000,-1.040000,1.854934,0.040000,51587266918.433449,-1236798812383.745361,-2993049253707.289062,-1919568401676.872070,0.605830,-32.482946,-36.165781
0.300000,-1.040000,1.839892,0.040000,52150026200.793144,-486324994424.344543,-1786134416056.611572,1067024730278.555542,3.681691,-20.807472,20.103364
0.340000,-1.040000,1.825602,0.040000,52011744022.853706,-2458539760119.948242,1829113897245.797607,1536596449197.494385,-42.762690,38.019191,28.950368
0.380000,-1.040000,1.812082,0.040000,54408732224.798225,-2783437479141.470215,1546758032987.412109,-609518477241.247925,-45.451648,36.131745,-11.483681
0.420000,-1.040000,1.799350,0.040000,58166039783.398186,-1097158847015.922485,-158333638584.619751,-1045211813588.041504,-13.574847,4.113164,-19.692396
0.460000,-1.040000,1.787423,0.040000,61532556356.339577,-298149273089.278503,-14929007597.732731,163980094335.837799,-3.847732,1.488302,3.089480
0.500000,-1.040000,1.776317,0.040000,65124632527.811050,-649816750239.432983,680148236940.663452,226971778012.565155,-12.414363,12.642948,4.276280
0.540000,-1.040000,1.766047,0.040000,69715005307.291489,-715965625157.765137,726879236141.725464,-160874753793.186798,-13.550893,13.633141,-3.030974
0.580000,-1.040000,1.756628,0.040000,75445899817.101410,-646459827159.252441,647216770176.687622,-417414514038.367615,-12.183956,12.189661,-7.864331
0.620000,-1.040000,1.748074,0.040000,82207733391.327362,-537892570382.546875,543132932865.512695,-643508465277.614502,-10.163827,10.203320,-12.124073
0.660000,-1.040000,1.740398,0.040000,89819870756.553482,-327062454033.807373,334106990663.302734,-862172123632.609009,-6.201863,6.254952,-16.243823
0.700000,-1.040000,1.733610,0.040000,97944832252.332870,-2263622796.987771,4116441478.747459,-978677225520.005493,-0.053120,0.067084,-18.438846
0.740000,-1.040000,1.727722,0.040000,106070980786.751953,350942208304.747742,-355590856692.962097,-922900548490.539795,6.638230,-6.673263,-17.387981
0.780000,-1.040000,1.722743,0.040000,113642852340.896240,625658993063.483398,-633840221349.865112,-713748892083.685425,11.834020,-11.895675,-13.447443
0.820000,-1.040000,1.718681,0.040000,120226008909.032501,763128432431.410400,-770974910253.696899,-431198684502.150330,14.422132,-14.481265,-8.124033
0.860000,-1.040000,1.715542,0.040000,125599825043.356354,768392788628.884644,-773594599196.813843,-159378324403.233704,14.506367,-14.545569,-3.002780
0.900000,-1.040000,1.713332,0.040000,129751931039.813080,684693143215.040894,-686961776285.384399,50854604993.639328,12.912838,-12.929935,0.958130
0.940000,-1.040000,1.712053,0.040000,132811951483.612411,560742020586.789917,-560912958841.113647,186328241633.493103,10.565671,-10.566959,3.510532
0.980000,-1.040000,1.711708,0.040000,134975115852.831314,432211733822.277466,-431287378426.030945,257361744289.038025,8.137895,-8.130929,4.848844
1.020000,-1.040000,1.711708,0.040000,136445420968.406097,318373738329.610352,-317078804503.724976,282407583805.147217,5.991027,-5.981268,5.320723
1.060000,-1.040000,1.712053,0.040000,137404419776.456604,226205035140.414062,-224936501396.632843,278909195652.131287,4.254664,-4.245104,5.254811
1.100000,-1.040000,1.713332,0.040000,137999594197.997711,155698054074.658295,-154621467969.604126,259964671855.412018,2.927357,-2.919243,4.897885
1.140000,-1.040000,1.715542,0.040000,138344027640.431824,103792466121.587494,-102945625096.903412,234180407697.470978,1.950724,-1.944342,4.412095
1.180000,-1.040000,1.718681,0.040000,138521107698.346558,66630059751.676285,-65993312864.971481,206676575754.912598,1.251750,-1.246951,3.893906
1.220000,-1.040000,1.722743,0.040000,138590608998.136597,40609400857.192848,-40144135183.456253,180218605473.218201,0.762475,-0.758969,3.395423
1.260000,-1.040000,1.727722,0.040000,138594423912.627472,22757835083.504974,-22424361722.663826,156115678800.667389,0.426886,-0.424373,2.941310
1.300000,-1.040000,1.733610,0.040000,138561315405.966370,10775104472.626669,-10539430677.615164,134836679916.450699,0.201677,-0.199901,2.540401
1.340000,-1.040000,1.740398,0.040000,138510605160.949188,2946853211.949744,-2782211819.904528,116398374516.503189,0.054590,-0.053349,2.193013
1.380000,-1.040000,1.748074,0.040000,138454927093.197296,-1975545112.334664,2089293416.218992,100596227483.442978,-0.037863,0.038721,1.895291
1.420000,-1.040000,1.756628,0.040000,138402235056.092346,-4888326309.340992,4965938842.029058,87135095609.817444,-0.092538,0.093122,1.641676
1.460000,-1.040000,1.766047,0.040000,138357244952.063751,-6428602281.734764,6480723597.056252,75699466459.116592,-0.121413,0.121806,1.426222
1.500000,-1.040000,1.776317,0.040000,138322460368.000610,-7046165733.458771,7080401939.395297,65988598493.023804,-0.132947,0.133205,1.243263
1.540000,-1.040000,1.787423,0.040000,138298896883.965302,-7056775908.250842,7078531884.530019,57731994571.329834,-0.133077,0.133241,1.087704
1.580000,-1.040000,1.799350,0.040000,138286590658.016144,-6680868240.819791,6693972123.954396,50694289646.277054,-0.125945,0.126044,0.955110
1.620000,-1.040000,1.812082,0.040000,138284953540.557739,-6071329146.259159,6078486684.012528,44674752413.961319,-0.114428,0.114482,0.841698
1.660000,-1.040000,1.825602,0.040000,138293019415.198547,-5333287355.497432,5336407768.571141,39504299928.108681,-0.100500,0.100523,0.744284
1.700000,-1.040000,1.839892,0.040000,138309613627.862335,-4538167358.696368,4538595187.975359,35041590627.987732,-0.085504,0.085507,0.660204
1.740000,-1.040000,1.854934,0.040000,138333468133.340485,-3733655141.144659,3732334553.611131,31169003348.539238,-0.070337,0.070327,0.587242
1.780000,-1.040000,1.870711,0.040000,138363298407.931732,-2950764894.758742,2948355967.568778,27788888011.361893,-0.055581,0.055562,0.523559
1.820000,-1.040000,1.887204,0.040000,138397853508.584412,-2208853232.903843,2205814277.913025,24820244923.859333,-0.041599,0.041576,0.467628
1.860000,-1.040000,1.904395,0.040000,138435947353.424957,-1519180099.411191,1515826028.251334,22195870186.196297,-0.028603,0.028578,0.418183
1.900000,-1.040000,1.922264,0.040000,138476476957.944885,-887439375.318228,883983158.133059,19859946169.483986,-0.016700,0.016674,0.374173
1.940000,-1.040000,1.940793,0.040000,138518431701.791168,-315557699.438105,312139879.005349,17766030663.688133,-0.005926,0.005900,0.334722
1.980000,-1.040000,1.959964,0.040000,138560896522.630005,197027574.422357,-200317827.732175,15875390420.944014,0.003731,-0.003756,0.299102
2.020000,-1.040000,1.979757,0.040000,138603051094.816559,652461917.726768,-655571760.306899,14155625692.575418,0.012310,-0.012334,0.266700
2.060000,-1.040000,2.000154,0.040000,138644166452.439392,1053832582.772517,-1056734735.627177,12579537187.213842,0.019871,-0.019893,0.237006
2.100000,-1.040000,2.021138,0.040000,138683600088.988525,1404717384.069686,-1407402433.480734,11124193113.443838,0.026481,-0.026501,0.209586
2.140000,-1.040000,2.042689,0.040000,138720790260.304657,1708869255.857690,-1711340152.770897,9770160316.535175,0.032210,-0.032229,0.184075
2.180000,-1.040000,2.064790,0.040000,138755249998.892487,1969997806.503853,-1972265947.787825,8500869366.883477,0.037129,-0.037146,0.160161
2.220000,-1.040000,2.087423,0.040000,138786561191.539307,2191619937.986807,-2193702364.276832,7302088563.567052,0.041303,-0.041319,0.137576
2.260000,-1.040000,2.110573,0.040000,138814368961.006592,2376959009.024200,-2378875988.072852,6161486045.344979,0.044794,-0.044809,0.116086
2.300000,-1.040000,2.134220,0.040000,138838376514.501282,2528871933.367223,-2530638513.007668,5068261154.043679,0.047655,-0.047669,0.095489
2.340000,-1.040000,2.158350,0.040000,138858340580.098663,2649715096.450074,-2651260234.646299,4012805127.486267,0.049931,-0.049943,0.075604
2.380000,-1.040000,2.182947,0.040000,138874067755.298279,2740823575.030997,-2742073144.017779,2986873140.364877,0.051646,-0.051655,0.056274
2.420000,-1.040000,2.207993,0.040000,138885415795.425079,2799900096.743743,-2788024284.674967,2242977759.309765,0.052685,-0.052595,0.042259
2.460000,-1.040000,2.233476,0.040000,138892347764.431335,2816274296.445522,-2773520629.655229,1813256710.013319,0.052819,-0.052496,0.034163
-2.500000,-1.000000,3.736215,0.040000,-39910812622.266670,-3133712820920.966797,21768015552732.000000,-2145358380785.796143,-164.365286,304.797712,-40.419796
-2.460000,-1.000000,3.702320,0.040000,-79820684655.509781,202208667750.198853,15956764525712.824219,-1265784163269.267578,-87.523598,209.301367,-23.848107
-2.420000,-1.000000,3.668547,0.040000,-79817528773.615601,-987384154777.866699,5162870397498.340820,-247091726901.175385,-42.203464,73.670897,-4.655351
-2.380000,-1.000000,3.634900,0.040000,-79812286598.289322,-51912704761.251045,149343281999.647369,4102339086.648880,-1.528760,2.263019,0.077290
-2.340000,-1.000000,3.601383,0.040000,-79805082257.504349,-1142170943.575406,1143744054.392494,5461705457.522395,-0.021528,0.021540,0.102902
-2.300000,-1.000000,3.568000,0.040000,-79796052701.450958,-1031525918.273258,1033171144.803054,6888233676.185812,-0.019444,0.019456,0.129778
-2.260000,-1.000000,3.534755,0.040000,-79785375200.338852,-892320028.144793,894105415.985379,8358963306.122014,-0.016822,0.016835,0.157488
-2.220000,-1.000000,3.501650,0.040000,-79773272704.675247,-721995802.107427,723952914.797311,9884756043.891359,-0.013614,0.013629,0.186235
-2.180000,-1.000000,3.468691,0.040000,-79760017994.754959,-517556445.574574,519713470.106349,11477794477.618809,-0.009763,0.009780,0.216248
-2.140000,-1.000000,3.435882,0.040000,-79745938477.439774,-275523481.941980,277907921.666595,13151878744.287745,-0.005204,0.005222,0.247789
-2.100000,-1.000000,3.403226,0.040000,-79731421751.017426,8057611.207929,-5419747.554535,14922830653.105074,0.000137,-0.000117,0.281155
-2.060000,-1.000000,3.370728,0.040000,-79716921930.102768,337590527.060022,-334676358.232953,16808989133.842405,0.006344,-0.006322,0.316691
-2.020000,-1.000000,3.338394,0.040000,-79702966686.671417,717871848.938423,-714664165.708208,18831819090.705181,0.013507,-0.013483,0.354802
-1.980000,-1.000000,3.306227,0.040000,-79690164915.791870,1153989603.402778,-1150480725.800547,21016664474.386120,0.021722,-0.021696,0.395966
-1.940000,-1.000000,3.274233,0.040000,-79679214861.720505,1651153421.926883,-1647350972.106715,23393684949.226883,0.031087,-0.031059,0.440751
-1.900000,-1.000000,3.242417,0.040000,-79670912429.665878,2214422375.433367,-2210357853.791097,25999026416.501774,0.041698,-0.041667,0.489837
-1.860000,-1.000000,3.210783,0.040000,-79666159243.437637,2848280808.435009,-2844022282.505906,28876289602.797714,0.053639,-0.053607,0.544046
-1.820000,-1.000000,3.179339,0.040000,-79665969763.974869,3555989270.467859,-3551660116.014723,32078378653.648407,0.066972,-0.066940,0.604375
-1.780000,-1.000000,3.148088,0.040000,-79671476420.910889,4338603224.249675,-4334409802.546287,35669833912.565399,0.081718,-0.081686,0.672040
-1.740000,-1.000000,3.117037,0.040000,-79683931173.326340,5193501020.872404,-5189773594.720864,39729780370.639229,0.097828,-0.097799,0.748532
-1.700000,-1.000000,3.086193,0.040000,-79704701124.022751,6112186218.440118,-6109439551.176556,44355655630.127518,0.115142,-0.115121,0.835686
-1.660000,-1.000000,3.055560,0.040000,-79735254640.654922,7077014882.112506,-7076038194.809145,49667917239.175133,0.133330,-0.133322,0.935772
-1.620000,-1.000000,3.025147,0.040000,-79777132702.090012,8056326647.031282,-8058317491.928599,55815964517.524658,0.151797,-0.151812,1.051605
-1.580000,-1.000000,2.994959,0.040000,-79831897611.912186,8997199796.374916,-9003963763.928734,62985533942.266472,0.169551,-0.169602,1.186684
-1.540000,-1.000000,2.965003,0.040000,-79901047385.603165,9814661586.369806,-9828910794.364302,71407817066.898392,0.184994,-0.185102,1.345365
-1.500000,-1.000000,2.935286,0.040000,-79985878395.549728,10375600860.765673,-10401400521.396601,81370459533.755890,0.195628,-0.195823,1.533067
-1.460000,-1.000000,2.905816,0.040000,-80087270305.852997,10474757600.163197,-10518193699.556698,93230337891.129196,0.197596,-0.197923,1.756514
-1.420000,-1.000000,2.876601,0.040000,-80205354540.013947,9798875821.991570,-9869050145.619179,107427402144.237610,0.185013,-0.185542,2.023995
-1.380000,-1.000000,2.847648,0.040000,-80339008423.847870,7873242824.812820,-7983744812.332958,124497583938.126190,0.148961,-0.149794,2.345607
-1.340000,-1.000000,2.818965,0.040000,-80485088738.159821,3982241586.029954,-4153294581.897224,145080183620.060577,0.075995,-0.077284,2.733395
-1.300000,-1.000000,2.790560,0.040000,-80637276543.298828,-2947823234.849259,2686312945.687523,169910130886.562531,-0.054061,0.052090,3.201205
-1.260000,-1.000000,2.762443,0.040000,-80784344449.880737,-14519085758.334597,14123401075.875366,199776043351.221130,-0.271312,0.268330,3.763896
-1.220000,-1.000000,2.734020,0.040000,-80907572200.778656,-33103487343.436497,32511024577.702415,235407636721.443298,-0.620340,0.615875,4.435216
-1.180000,-1.000000,2.705751,0.040000,-80976923149.646942,-62168982559.021889,61293329597.500908,277225336443.772217,-1.166350,1.159751,5.223086
-1.140000,-1.000000,2.677564,0.040000,-80945460439.938553,-106681472915.899658,105411275448.950119,324833745271.395325,-2.002761,1.993189,6.120056
-1.100000,-1.000000,2.649138,0.040000,-80741366562.735809,-173502876058.265564,171713966819.248322,376064005511.435364,-3.258784,3.245302,7.085264
-1.060000,-1.000000,2.621014,0.040000,-80256951220.018784,-271529975503.480438,269132083839.938049,425281163088.545105,-5.102229,5.084158,8.012544
-1.020000,-1.000000,2.592608,0.040000,-79334479489.218399,-410941349681.042297,408000217740.821594,460649114538.038940,-7.725749,7.703584,8.678896
-0.980000,-1.000000,2.564324,0.040000,-77750137184.005341,-600243779266.418457,597237394725.277832,460338615281.125732,-11.291948,11.269291,8.673046
-0.940000,-1.000000,2.536167,0.040000,-75201043958.831924,-838960819278.671021,837193801675.533813,388872222780.079895,-15.796521,15.783204,7.326578
-0.900000,-1.000000,2.507717,0.040000,-71307199501.050034,-1103818664550.826172,1105786432671.968018,197876692754.231995,-20.807706,20.822535,3.728112
-0.860000,-1.000000,2.479585,0.040000,-65650332161.047585,-1330267338506.012695,1339158740991.436768,-159470987112.390167,-25.113264,25.180271,-3.004526
-0.820000,-1.000000,2.451197,0.040000,-57878076491.267769,-1403636803052.387207,1420704226282.234131,-689486897028.744507,-26.541799,26.670423,-12.990333
-0.780000,-1.000000,2.422897,0.040000,-47885031045.769188,-1191081756530.683838,1211592941426.296143,-1301854537650.972656,-22.556604,22.711181,-24.527694
-0.740000,-1.000000,2.394773,0.040000,-36017254741.908577,-635354857853.464355,648514667744.258301,-1790282324856.472900,-12.044835,12.144011,-33.729957
-0.700000,-1.000000,2.366296,0.040000,-23153604475.874958,142213110653.052765,-145950992758.674011,-1923020302093.759521,2.700505,-2.728674,-36.230817
-0.660000,-1.000000,2.338157,0.040000,-10512053475.631241,857484776530.902344,-877755240735.827393,-1617820416034.184326,16.270082,-16.422845,-30.480675
-0.620000,-1.000000,2.310367,0.040000,786869211.396238,1247719390523.573242,-1267544476664.000244,-1050052707471.007690,23.619811,-23.769218,-19.783602
-0.580000,-1.000000,2.282941,0.040000,10119907805.805752,1312832999255.269287,-1309539898740.793701,-549917040624.947998,24.715922,-24.691104,-10.360756
-0.540000,-1.000000,2.255890,0.040000,17361012231.687740,1329973170054.849609,-1343363758128.415283,-201167512015.391815,25.133151,-25.234066,-3.790113
-0.500000,-1.000000,2.229228,0.040000,22425334557.452396,1435645508510.904297,-1459876738006.718750,408951379118.178589,27.185353,-27.367965,7.704881
-0.460000,-1.000000,2.202970,0.040000,25277764281.129330,950450645260.165039,334710338257.605408,195415097570.340424,10.643088,-0.957817,3.681734
-0.420000,-1.000000,2.177131,0.040000,27078591188.877895,1917438747603.054688,1072660017905.911377,-1363302631578.179932,19.225099,3.308978,-25.685412
-0.380000,-1.000000,2.151725,0.040000,31345097139.769314,3257610883426.486328,-1966319419617.733398,-650323125691.624268,54.076674,-44.345202,-12.252465
-0.340000,-1.000000,2.126767,0.040000,33411114714.077118,2693590725443.582031,-2468111630633.305664,1881989977596.009277,49.474364,-47.775101,35.457782
-0.300000,-1.000000,2.102275,0.040000,29709632094.922256,1242491648995.818604,3138795294593.664551,1563987253802.680420,-1.354533,34.372927,29.466427
-0.260000,-1.000000,2.078264,0.040000,21142439095.142555,4046011342398.222656,6834282882382.263672,-518674447931.631897,14.731884,67.264536,-9.772127
-0.220000,-1.000000,2.054751,0.040000,54128422492.850380,-4770341465438.531250,-8819701674945.417969,-582494407392.408936,-13.062711,-89.355005,-10.974532
-0.180000,-1.000000,2.031753,0.040000,40598298957.099937,100341920433.785461,-4271542994640.959961,926359380259.534302,25.466854,-56.901992,17.453148
-0.140000,-1.000000,2.009289,0.040000,30630640704.488903,658917736029.176636,4922511982296.093750,1130472055904.699463,-19.132819,61.195768,21.298749
-0.100000,-1.000000,1.987376,0.040000,15396991917.992399,6087075069893.791992,10143185790013.558594,367896001450.753052,22.947766,99.367243,6.931374
-0.060000,-1.000000,1.966032,0.040000,59719728834.342102,-6266921075212.769531,-10780772852125.265625,232132349600.356110,-21.715895,-106.759479,4.373508
-0.020000,-1.000000,1.945277,0.040000,43005621184.245300,-268922243716.258789,-5313044470432.818359,518497887175.692749,26.483596,-68.550591,9.768801
0.020000,-1.000000,1.925129,0.040000,30839801887.779449,748123272823.264893,5616727528290.552734,522157132763.413513,-21.880168,69.847159,9.837743
0.060000,-1.000000,1.905608,0.040000,12730129019.653603,7333026530945.580078,11866925775622.265625,245317630198.934967,29.637001,115.058291,4.621926
0.100000,-1.000000,1.886733,0.040000,62875716731.084160,-6595625946968.458984,-11671374058175.150391,453100306971.575012,-21.017155,-116.647192,8.536672
0.140000,-1.000000,1.868524,0.040000,45549195218.458412,-374811705259.266663,-5869703870601.330078,1459723163915.053223,28.233418,-75.293536,27.502031
0.180000,-1.000000,1.851001,0.040000,33518818184.807869,300874187814.241394,5644219972876.396484,1150861859287.735596,-27.934062,72.737670,21.682905
0.220000,-1.000000,1.834182,0.040000,15665713586.377741,6968915684268.787109,12152033262593.888672,-945750161588.504883,23.223483,120.876422,-17.818481
0.260000,-1.000000,1.818088,0.040000,62814106960.869217,-5515520914680.335938,-9789019079668.494141,-818488092446.555664,-17.411690,-97.926873,-15.420790
0.300000,-1.000000,1.802738,0.040000,51238213742.892937,-1665784999005.821289,-4571636981059.332031,2239132515837.724121,3.870639,-50.877297,42.186555
0.340000,-1.000000,1.788151,0.040000,46448617279.822044,-3997165766764.549805,3662055727379.457520,2598447531906.035156,-73.414820,70.889353,48.956258
0.380000,-1.000000,1.774346,0.040000,50426448104.846352,-4929314749354.937500,2796134610266.123047,-1548346832547.935547,-80.814042,64.737902,-29.171752
0.420000,-1.000000,1.761342,0.040000,57294601794.555443,-2615357903762.299316,-2332196472302.962891,-2716247262162.559082,-21.310421,-15.975496,-51.175673
0.460000,-1.000000,1.749156,0.040000,59177064908.537659,-844892724440.477173,-1279770304694.522949,-93582768508.319153,-3.909304,-12.102649,-1.763154
0.500000,-1.000000,1.737805,0.040000,61629676367.227615,-1423015998551.890137,1463606575615.997803,383214047516.708984,-27.039871,27.345771,7.219975
0.540000,-1.000000,1.727306,0.040000,66216493987.413567,-1012883321663.293579,1029792198234.359375,-356767609827.285339,-19.178881,19.306310,-6.721709
0.580000,-1.000000,1.717675,0.040000,72515356826.036011,-855643214251.817627,836529959959.219116,-490843609042.779114,-16.012783,15.868741,-9.247778
0.620000,-1.000000,1.708926,0.040000,80188465602.686447,-844943436109.320923,859812180052.586548,-766630775074.201416,-16.003265,16.115319,-14.443768
0.660000,-1.000000,1.701072,0.040000,89189976421.664398,-596969698520.540894,616085002589.763306,-1202284214518.013184,-11.355298,11.499356,-22.651732
0.700000,-1.000000,1.694127,0.040000,99120713705.031479,-56099047824.060089,59951190553.555275,-1454839994037.779053,-1.078712,1.107742,-27.410029
0.740000,-1.000000,1.688102,0.040000,109135962738.976913,547801000514.037415,-558338971553.903564,-1352655758366.843506,10.380451,-10.459867,-25.484819
0.780000,-1.000000,1.683006,0.040000,118291141231.478104,975913381759.033936,-992233242488.240723,-965411644249.240601,18.479017,-18.602007,-18.188915
0.820000,-1.000000,1.678847,0.040000,125909417468.548676,1131761689714.495605,-1145176203344.578369,-482271762872.067383,21.398867,-21.499962,-9.086280
0.860000,-1.000000,1.675634,0.040000,131736535225.491196,1062878476050.577026,-1069769411302.242920,-67035993849.724739,20.064195,-20.116127,-1.262997
0.900000,-1.000000,1.673371,0.040000,135873158260.771393,875230732187.519409,-876659572463.401367,210105377042.908081,16.497930,-16.508698,3.958507
0.940000,-1.000000,1.672061,0.040000,138611665923.533844,659368486785.795044,-657869406889.067505,355156652702.651978,12.414411,-12.403114,6.691357
0.980000,-1.000000,1.671709,0.040000,140293121305.987335,465946434377.235779,-463487962656.826904,405666217960.812439,8.764805,-8.746278,7.642987
1.020000,-1.000000,1.671709,0.040000,141225490105.965637,313019904986.625000,-310628820122.166077,400140168297.028931,5.883962,-5.865942,7.538873
1.060000,-1.000000,1.672061,0.040000,141653475999.982056,200688908476.227509,-198740479081.443970,366774978699.769104,3.770083,-3.755399,6.910253
1.100000,-1.000000,1.673371,0.040000,141757426475.436707,121996619406.348434,-120541134670.344040,322919201520.416687,2.290260,-2.279292,6.083985
1.140000,-1.000000,1.675634,0.040000,141663971612.570282,68695220756.514816,-67659787857.469109,277979164374.598511,1.288405,-1.280602,5.237289
1.180000,-1.000000,1.678847,0.040000,141459022358.948242,33577467304.065434,-32862369983.430676,236424727523.705780,0.628577,-0.623188,4.454379
1.220000,-1.000000,1.683006,0.040000,141199252312.817383,11071898894.874142,-10587587123.339590,199959675288.414001,0.205864,-0.202214,3.767356
1.260000,-1.000000,1.688102,0.040000,140921022467.309387,-2867742139.480566,3190973912.490055,168868067113.045227,-0.055857,0.058293,3.181572
1.300000,-1.000000,1.694127,0.040000,140646883085.989288,-11079380215.342436,11292238425.299774,142778358226.956543,-0.209945,0.211549,2.690027
1.340000,-1.000000,1.701072,0.040000,140390142391.540405,-15513379171.812351,15651448392.590284,121069223511.959763,-0.293061,0.294102,2.281014
1.380000,-1.000000,1.708926,0.040000,140158009898.977936,-17493703266.607540,17581467382.849102,103071300389.567352,-0.330088,0.330749,1.941923
1.420000,-1.000000,1.717675,0.040000,139953731638.449005,-17911883553.310005,17966007937.803375,88158718105.714493,-0.337776,0.338184,1.660961
1.460000,-1.000000,1.727306,0.040000,139778028566.338989,-17364534974.613079,17396299336.656219,75783823149.531113,-0.327337,0.327577,1.427811
1.500000,-1.000000,1.737805,0.040000,139630059417.998322,-16248444552.457869,16265462152.722338,65484183584.712463,-0.306226,0.306355,1.233760
1.540000,-1.000000,1.749156,0.040000,139508061207.927612,-14825447466.246107,14832849568.540442,56877160315.526596,-0.279362,0.279418,1.071599
1.580000,-1.000000,1.761342,0.040000,139409771989.163361,-13266397696.759502,13267638703.122391,49649793482.274490,-0.249954,0.249963,0.935431
1.620000,-1.000000,1.774346,0.040000,139332706804.133331,-11680892576.564676,11678293784.558470,43547743169.094223,-0.220060,0.220041,0.820465
1.660000,-1.000000,1.788151,0.040000,139274334787.237091,-10137362756.117620,10132478774.431684,38364946843.843979,-0.190966,0.190929,0.722818
1.700000,-1.000000,1.802738,0.040000,139232189835.897461,-8676665382.630951,8670531143.041779,33934613559.473473,-0.163439,0.163393,0.639348
1.740000,-1.000000,1.818088,0.040000,139203936783.116119,-7321296507.329680,7314594120.591252,30121675660.797081,-0.137900,0.137849,0.567510
1.780000,-1.000000,1.834182,0.040000,139187407934.977051,-6081644393.915105,6074816192.117532,26816598523.485348,-0.114543,0.114492,0.505240
1.820000,-1.000000,1.851001,0.040000,139180620061.401245,-4960238503.302522,4953563878.126994,23930367867.676155,-0.093416,0.093366,0.450862
1.860000,-1.000000,1.868524,0.040000,139181778694.364075,-3954636460.117469,3948284268.249581,21390459503.431557,-0.074472,0.074424,0.403009
1.900000,-1.000000,1.886733,0.040000,139189274390.415649,-3059382430.961865,3053446841.125614,19137610675.197601,-0.057607,0.057562,0.360564
1.940000,-1.000000,1.905608,0.040000,139201674116.440613,-2267330534.005488,2261855602.215631,17123236942.847212,-0.042687,0.042646,0.322612
1.980000,-1.000000,1.925129,0.040000,139217709893.481415,-1570533058.686679,1565529598.171312,15307364987.790447,-0.029561,0.029524,0.288400
2.020000,-1.000000,1.945277,0.040000,139236266131.663696,-960830052.342435,956287207.269039,13656976059.045687,-0.018077,0.018043,0.257305
2.060000,-1.000000,1.966032,0.040000,139256366607.706970,-430234033.197841,426127201.150997,12144675635.453623,-0.008083,0.008052,0.228813
2.100000,-1.000000,1.987376,0.040000,139277161706.197296,28825504.548605,-32529281.964920,10747622096.424419,0.000564,-0.000592,0.202491
2.140000,-1.000000,2.009289,0.040000,139297916319.715607,423353023.866401,-426691428.177737,9446661082.224388,0.007995,-0.008020,0.177981
2.180000,-1.000000,2.031753,0.040000,139317998649.042603,759702204.459184,-762715235.048617,8225623273.387824,0.014330,-0.014353,0.154976
2.220000,-1.000000,2.054751,0.040000,139336870040.907654,1043533863.771628,-1046262305.649372,7070752035.242666,0.019676,-0.019697,0.133217
2.260000,-1.000000,2.078264,0.040000,139354075931.925568,1279801642.925128,-1282286423.339512,5970234295.344296,0.024126,-0.024145,0.112483
2.300000,-1.000000,2.102275,0.040000,139369237922.485474,1472758798.146443,-1475045129.271961,4913814933.354099,0.027761,-0.027778,0.092579
2.340000,-1.000000,2.126767,0.040000,139382046968.048950,1626027301.904118,-1628211809.922982,3892502752.945142,0.030648,-0.030664,0.073337
2.380000,-1.000000,2.151725,0.040000,139392257501.910583,1741851370.567265,-1741808692.105690,2899337552.829428,0.032817,-0.032817,0.054625
2.420000,-1.000000,2.177131,0.040000,139399679845.699036,1817724140.019895,-1795647057.164655,2176036177.213918,0.034122,-0.033956,0.040998
2.460000,-1.000000,2.202970,0.040000,139404141231.696747,1882668902.235134,-1847757092.373835,1759015260.582343,0.035273,-0.035010,0.033141
-2.500000,-0.960000,3.715229,0.040000,-40222823210.422821,303777811256.957031,24099872048646.632812,-1583501841792.363037,-132.210323,316.121887,-29.834093
-2.460000,-0.960000,3.681140,0.040000,-80445643033.689560,2416701311172.941406,13100914864730.277344,-889313357776.753784,-42.176212,159.120565,-16.755179
-2.420000,-0.960000,3.647171,0.040000,-80445661997.368317,-554198121995.521606,4117582231724.832520,-618652980459.651123,-30.582281,57.436770,-11.655781
-2.380000,-0.960000,3.613325,0.040000,-80445778856.839355,-49753767130.862419,144321715077.815826,1914592463.318259,-1.471904,2.184590,0.036072
-2.340000,-0.960000,3.579606,0.040000,-80446120254.265808,251212571.539050,-249159961.004810,5347887527.177133,0.004721,-0.004706,0.100757
-2.300000,-0.960000,3.546018,0.040000,-80446866716.712662,399719664.071779,-397500438.339386,6742159124.013160,0.007518,-0.007502,0.127026
-2.260000,-0.960000,3.512565,0.040000,-80448256109.782013,586931167.668643,-584503876.385702,8177771549.873350,0.011044,-0.011026,0.154074
-2.220000,-0.960000,3.479249,0.040000,-80450588288.846832,816476181.430778,-813795384.522072,9665056936.092968,0.015368,-0.015348,0.182095
-2.180000,-0.960000,3.446076,0.040000,-80454230911.848312,1092774224.292885,-1089790718.001926,11215549559.608318,0.020572,-0.020549,0.211307
-2.140000,-0.960000,3.413049,0.040000,-80459626516.410217,1421101738.613621,-1417762129.073484,12842362443.487000,0.026756,-0.026730,0.241958
-2.100000,-0.960000,3.380172,0.040000,-80467300968.517258,1807664892.006448,-1803911296.527143,14560600652.602556,0.034036,-0.034008,0.274330
-2.060000,-0.960000,3.347451,0.040000,-80477873399.174149,2259677177.583622,-2255447180.948564,16387867233.485903,0.042550,-0.042518,0.308757
-2.020000,-0.960000,3.314890,0.040000,-80492067752.826523,2785437400.920139,-2780664430.557137,18344891804.822582,0.052452,-0.052416,0.345628
-1.980000,-0.960000,3.282493,0.040000,-80510726071.674789,3394400584.318678,-3389014963.160600,20456317764.302616,0.063922,-0.063881,0.385409
-1.940000,-0.960000,3.250265,0.040000,-80534823628.276947,4097229689.928996,-4091160770.023836,22751694816.732029,0.077160,-0.077114,0.428655
-1.900000,-0.960000,3.218212,0.040000,-80565485987.523895,4905808882.827750,-4898988884.288188,25266738064.067265,0.092390,-0.092338,0.476040
-1.860000,-0.960000,3.186338,0.040000,-80604008016.565063,5833187917.056924,-5825558441.771539,28044934389.083160,0.109858,-0.109800,0.528383
-1.820000,-0.960000,3.154650,0.040000,-80651874749.560516,6893409953.606869,-6884932677.933382,31139603015.686405,0.129828,-0.129764,0.586688
-1.780000,-0.960000,3.123152,0.040000,-80710783825.294418,8101148288.179800,-8091822176.002674,34616552214.168266,0.152578,-0.152507,0.652196
-1.740000,-0.960000,3.091851,0.040000,-80782668906.312729,9471035692.054682,-9460924383.506994,38557521107.854454,0.178383,-0.178306,0.726446
-1.700000,-0.960000,3.060752,0.040000,-80869722990.759598,11016504812.719360,-11005779918.316801,43064658187.098747,0.207497,-0.207416,0.811363
-1.660000,-0.960000,3.029863,0.040000,-80974419736.898834,12747855749.141155,-12736865066.383230,48266370953.695129,0.240115,-0.240032,0.909366
-1.620000,-0.960000,2.999189,0.040000,-81099529669.785782,14669105747.686689,-14658480660.128000,54324988946.320099,0.276314,-0.276234,1.023514
-1.580000,-0.960000,2.968737,0.040000,-81248126168.813904,16772920992.222849,-16763745699.839508,61446819127.737526,0.315960,-0.315891,1.157694
-1.540000,-0.960000,2.938513,0.040000,-81423573031.030853,19032525284.804577,-19026603993.273594,69895337954.804596,0.358550,-0.358506,1.316869
-1.500000,-0.960000,2.908526,0.040000,-81629480512.027267,21388833961.702209,-21389113852.939129,80008446488.713486,0.402980,-0.402982,1.507406
-1.460000,-0.960000,2.878783,0.040000,-81869609016.773254,23730026800.574474,-23741269508.422291,92220873787.261810,0.447151,-0.447236,1.737495
-1.420000,-0.960000,2.849290,0.040000,-82147687371.252090,25859115602.770691,-25888965797.254139,107092846937.071869,0.487369,-0.487594,2.017691
-1.380000,-0.960000,2.820056,0.040000,-82467093166.928055,27442408721.156284,-27503096833.377293,125345814915.315216,0.517374,-0.517831,2.361588
-1.340000,-0.960000,2.791090,0.040000,-82830311738.941177,27927554823.763680,-28038607577.706127,147904791879.939575,0.526799,-0.527636,2.786612
-1.300000,-0.960000,2.762398,0.040000,-83238041091.438187,26413232191.859409,-26605765898.900581,175943648225.171295,0.498729,-0.500180,3.314880
-1.260000,-0.960000,2.733991,0.040000,-83687731841.646790,21442475207.416775,-21765914233.582985,210922069373.250244,0.405817,-0.408254,3.973894
-1.220000,-0.960000,2.705878,0.040000,-84171227817.944595,10677171956.250776,-11209501234.482624,254586088289.617493,0.204173,-0.208185,4.796549
-1.180000,-0.960000,2.677452,0.040000,-84670981243.083740,-9606869849.558996,8744240906.725613,308868409363.713623,-0.176123,0.169622,5.819260
-1.140000,-0.960000,2.649184,0.040000,-85154028047.018509,-45279670349.300957,43902652961.885796,375551690313.402283,-0.845312,0.834935,7.075612
-1.100000,-0.960000,2.620999,0.040000,-85562502410.079834,-105431980559.110718,103275679593.747711,455415223570.754028,-1.974212,1.957961,8.580287
-1.060000,-0.960000,2.592569,0.040000,-85798975919.630936,-203702417873.861206,200425787318.356384,546327492650.403687,-3.819352,3.794658,10.293127
-1.020000,-0.960000,2.564449,0.040000,-85704539992.151733,-359362920720.780945,354639342217.580078,639349471096.509644,-6.743907,6.708309,12.045715
-0.980000,-0.960000,2.536040,0.040000,-85028036227.697418,-596503181997.267334,590348397386.519409,711532471899.873047,-11.203678,11.157294,13.405684
-0.940000,-0.960000,2.507756,0.040000,-83388097052.732712,-937102316644.536865,930717108206.077026,714578102559.205322,-17.619461,17.571340,13.463066
-0.900000,-0.960000,2.479602,0.040000,-80239770246.410858,-1379813127331.707275,1377146891204.970459,562594077460.816162,-25.981409,25.961316,10.599599
-0.860000,-0.960000,2.451148,0.040000,-74880429253.297211,-1855443199211.760742,1864429352633.193359,135414721707.000214,-35.008417,35.076139,2.551292
-0.820000,-0.960000,2.423020,0.040000,-66565405345.634026,-2170020803199.912109,2198698122956.033447,-662313414298.944702,-41.046539,41.262658,-12.478369
-0.780000,-0.960000,2.394630,0.040000,-54818812795.423859,-2010499777631.933594,2053428098272.798584,-1750674212356.472900,-38.121620,38.445137,-32.983717
-0.740000,-0.960000,2.366329,0.040000,-39919815464.330414,-1138577102007.645996,1170021565323.877930,-2730580926372.442383,-21.629182,21.866155,-51.445728
-0.700000,-0.960000,2.338209,0.040000,-23251005675.883957,273010685892.116455,-278352168670.924805,-3030906555814.725586,5.173871,-5.214125,-57.104037
-0.660000,-0.960000,2.309728,0.040000,-7008603164.459688,1576258629062.071045,-1622475702830.950684,-2388334975868.288086,29.958853,-30.307156,-44.997615
-0.620000,-0.960000,2.281592,0.040000,6783639154.915626,2092053545126.406738,-2167003770759.683838,-1147098232584.488037,39.839133,-40.403976,-21.611996
-0.580000,-0.960000,2.253815,0.040000,17305203703.899853,1651729169211.425537,-1640788727509.605957,-285563423516.974609,31.057698,-30.975248,-5.380180
-0.540000,-0.960000,2.226410,0.040000,25156544856.262775,1554744262654.588135,-1500308979986.691162,-508241788729.194824,28.984606,-28.574369,-9.575570
-0.500000,-0.960000,2.199391,0.040000,30411267392.133793,2299371745028.276855,-2495526757336.020996,105849513786.436508,44.430199,-45.908469,1.994266
-0.460000,-0.960000,2.172773,0.040000,31456756045.338173,1778123052244.207275,1387852835814.449463,633270088458.637085,15.606223,8.253306,11.931176
-0.420000,-0.960000,2.146570,0.040000,28103979924.157997,3091848681778.993652,4645810288884.557617,-565817208826.732788,14.517627,43.795165,-10.660324
-0.380000,-0.960000,2.120798,0.040000,58237920801.610313,-5028059771431.344727,-8904139834868.683594,-441343198372.462585,-15.984346,-89.011941,-8.315162
-0.340000,-0.960000,2.095472,0.040000,43726165650.756927,28309762616.352737,-3512737576812.819336,1002189375678.330078,20.227964,-46.487420,18.881829
-0.300000,-0.960000,2.070610,0.040000,35240142449.055771,204829230949.012848,4502212379062.879883,1535516026423.962646,-22.745916,58.219273,28.930012
-0.260000,-0.960000,2.046227,0.040000,22838778180.443848,4421117390396.033203,8462357595845.034180,1502698836722.564697,10.476773,86.616082,28.311717
-0.220000,-0.960000,2.022341,0.040000,60920929670.818352,-6371904345330.929688,-9655453898415.158203,805523684569.082764,-29.460956,-91.324933,15.176533
-0.180000,-0.960000,1.998971,0.040000,44982604620.668892,-1034857175147.116089,-4196287983099.971191,-768390472773.221924,10.070033,-49.493156,-14.476922
-0.140000,-0.960000,1.976134,0.040000,35130773871.170822,-635413184898.034058,4364266102162.746094,-453719123295.813232,-33.047678,61.149178,-8.548331
-0.100000,-0.960000,1.953849,0.040000,25066749190.387466,3101190856178.089355,7209116516742.300781,1751784393772.449707,0.152583,77.548284,33.004634
-0.060000,-0.960000,1.932135,0.040000,52207163857.574753,-3323602713663.651367,-7268945296912.362305,1530239716530.278564,-2.747678,-77.080220,28.830603
-0.020000,-0.960000,1.911012,0.040000,41937620864.156387,246621449280.362732,-4148312668060.331543,-1136726751499.111572,26.699528,-56.103578,-21.416591
0.020000,-0.960000,1.890499,0.040000,32835375457.567398,32945981834.046841,4393280579323.538574,-1075474287613.881714,-24.397081,57.754151,-20.262559
0.060000,-0.960000,1.870617,0.040000,21896593466.500595,3982766573006.259277,7947689154147.407227,1768195163688.793701,7.604620,82.306060,33.313822
0.100000,-0.960000,1.851385,0.040000,52679822077.811401,-3224621438971.316895,-8375846346332.856445,1941754607504.440430,4.814124,-92.237939,36.583782
0.140000,-0.960000,1.832825,0.040000,41135662316.594757,1150948181834.962891,-5275897195381.601562,-651764683916.851807,44.999460,-76.086032,-12.279624
0.180000,-0.960000,1.814957,0.040000,29028924273.212921,1752848608228.831543,5639927619737.239258,-967243794852.124756,-8.760573,64.474249,-18.223434
0.220000,-0.960000,1.797801,0.040000,7857863850.669943,9187375293502.230469,13361062441798.843750,1089131987816.129883,45.647785,124.282470,20.519878
0.260000,-0.960000,1.781378,0.040000,62302938017.227982,-5986419326341.908203,-12133023056953.804688,2038775789090.431152,-10.373371,-126.178948,38.411718
0.300000,-0.960000,1.765709,0.040000,45363320794.351173,64749892466.732544,-6689201306661.383789,2176514396949.301270,38.662477,-88.585879,41.006793
0.340000,-0.960000,1.750814,0.040000,33396118576.111645,391317609051.084534,5431933952513.799805,1276826084432.408447,-25.541380,69.426754,24.056144
0.380000,-0.960000,1.736712,0.040000,10681555634.243235,8749828997821.836914,14329401271102.640625,-1250493313436.245117,34.404027,139.526404,-23.560019
0.420000,-0.960000,1.723424,0.040000,61211244346.673203,-4582918152579.052734,-8225213097498.044922,-1547724028331.895264,-13.951049,-82.573998,-29.160018
0.460000,-0.960000,1.710968,0.040000,55416484344.611221,-2180611633986.249512,-3051043289570.475586,385480875822.781616,-11.513764,-27.913201,7.262683
0.500000,-0.960000,1.699362,0.040000,55674886552.116035,-2675243557742.368164,3016743864051.505371,-457148168700.071777,-52.333359,54.906984,-8.612937
0.540000,-0.960000,1.688624,0.040000,61102192632.387054,-973473432224.511230,877731290784.683838,-1187555201437.115479,-17.799653,17.078118,-22.374228
0.580000,-0.960000,1.678771,0.040000,68276991538.614975,-768509279482.267334,729269802588.586182,-172005984850.110413,-14.257372,13.961654,-3.240692
0.620000,-0.960000,1.669818,0.040000,76756802847.788712,-1489244802608.747559,1579014691613.654541,-670474466195.079102,-28.565630,29.242157,-12.632128
0.660000,-0.960000,1.661780,0.040000,87544661819.310425,-1206265915591.964111,1250442270123.004639,-1772342326668.352783,-22.976442,23.309365,-33.391957
0.700000,-0.960000,1.654670,0.040000,100195793336.001038,-171028533195.397034,174658216205.662018,-2329252467999.800293,-3.242792,3.270146,-43.884467
0.740000,-0.960000,1.648500,0.040000,113112831055.295044,949039612565.504639,-975385337939.284790,-2088268864540.699951,18.029367,-18.227915,-39.344196
0.780000,-0.960000,1.643281,0.040000,124553699317.039383,1625059590332.718994,-1659230900214.054688,-1305921626166.904541,30.810207,-31.067730,-24.604320
0.820000,-0.960000,1.639022,0.040000,133445608428.722595,1734077509031.732910,-1756480541425.948975,-447076796742.714661,32.797651,-32.966486,-8.423186
0.860000,-0.960000,1.635730,0.040000,139594668882.102509,1471885717634.013184,-1478733450925.587402,176664198657.263031,27.769885,-27.821491,3.328456
0.900000,-0.960000,1.633412,0.040000,143398662830.156799,1086462975810.745972,-1084185734774.930908,506100558496.024780,20.456721,-20.439559,9.535228
0.940000,-0.960000,1.632070,0.040000,145461443972.429199,730005491018.500488,-724841307186.728027,618098826872.032104,13.724538,-13.685619,11.645340
0.980000,-0.960000,1.631709,0.040000,146348902257.916046,456344141679.638611,-451389424119.671814,608009107724.790771,8.569783,-8.532443,11.455244
1.020000,-0.960000,1.631709,0.040000,146498933292.986542,266047893130.804077,-262242572990.841858,543830328483.688904,4.990988,-4.962310,10.246079
1.060000,-0.960000,1.632070,0.040000,146217575975.227264,141412177807.199249,-138765998747.449860,463816143807.427612,2.649331,-2.629389,8.738565
1.100000,-0.960000,1.633412,0.040000,145705932633.052979,63122095299.363785,-61375254603.395958,386162350326.138306,1.179383,-1.166219,7.275523
1.140000,-0.960000,1.635730,0.040000,145090613143.566742,15703928554.499470,-14584913022.856773,317954928600.035095,0.289546,-0.281113,5.990455
1.180000,-0.960000,1.639022,0.040000,144448441019.624481,-11828759270.921774,12531475477.476194,260862802550.945679,-0.226833,0.232128,4.914806
1.220000,-0.960000,1.643281,0.040000,143824107236.771332,-26830649346.299164,27264627515.282604,214227597789.109436,-0.507958,0.511228,4.036172
1.260000,-0.960000,1.648500,0.040000,143242029286.878479,-34075288649.908188,34338286814.422783,176582291497.439301,-0.643485,0.645467,3.326913
1.300000,-0.960000,1.654670,0.040000,142714063082.290710,-36609042397.586868,36764189682.102249,146334322238.235870,-0.690613,0.691782,2.757023
1.340000,-0.960000,1.661780,0.040000,142244429745.615509,-36356790313.234695,36444351296.454033,122037572394.037170,-0.685478,0.686138,2.299259
1.380000,-0.960000,1.669818,0.040000,141832830502.936584,-34526019027.956528,34571534441.248856,102474774251.288635,-0.650747,0.651090,1.930684
1.420000,-0.960000,1.678771,0.040000,141476401380.005554,-31868488772.618919,31888126605.180676,86659167288.391388,-0.600532,0.600680,1.632709
1.460000,-0.960000,1.688624,0.040000,141170930522.013184,-28847284903.100212,28851272100.547520,73806334921.656113,-0.543522,0.543552,1.390554
1.500000,-0.960000,1.699362,0.040000,140911608336.603790,-25742852134.496006,25737650806.481731,63298782342.757996,-0.484981,0.484942,1.192586
1.540000,-0.960000,1.710968,0.040000,140693482043.013123,-22720222711.907341,22709904872.300724,54652414963.394218,-0.428004,0.427926,1.029683
1.580000,-0.960000,1.723424,0.040000,140511723430.060944,-19871696908.108818,19858813237.113304,47487987649.446770,-0.374321,0.374224,0.894701
1.620000,-0.960000,1.736712,0.040000,140361778895.433380,-17244003460.665142,17230133837.567581,41507983743.030922,-0.324809,0.324704,0.782034
1.660000,-0.960000,1.750814,0.040000,140239445716.509613,-14855625475.628162,14841729265.425974,36478379872.183067,-0.279810,0.279705,0.687274
1.700000,-0.960000,1.765709,0.040000,140140902584.936493,-12707871116.326630,12694511061.726938,32214463859.214901,-0.239348,0.239247,0.606939
1.740000,-0.960000,1.781378,0.040000,140062712314.198364,-10791948140.120552,10779434111.403202,28569880066.138123,-0.203256,0.203162,0.538273
1.780000,-0.960000,1.797801,0.040000,140001808163.790588,-9093474152.662701,9081955805.959793,25428188766.059391,-0.171261,0.171174,0.479082
1.820000,-0.960000,1.814957,0.040000,139955471075.631897,-7595334869.795804,7584861549.432592,22696360961.739956,-0.143041,0.142962,0.427613
1.860000,-0.960000,1.832825,0.040000,139921302446.712433,-6279474915.990240,6270034434.895035,20299754794.344624,-0.118256,0.118184,0.382459
1.900000,-0.960000,1.851385,0.040000,139897195335.972748,-5127997805.830994,5119541533.197965,18178223968.844578,-0.096567,0.096503,0.342488
1.940000,-0.960000,1.870617,0.040000,139881305886.586365,-4123819123.587608,4116278152.221967,16283091562.837095,-0.077653,0.077596,0.306783
1.980000,-0.960000,1.890499,0.040000,139872026022.539001,-3251031766.996345,3244327244.632051,14574786773.712648,-0.061213,0.061163,0.274597
2.020000,-0.960000,1.911012,0.040000,139867958012.915253,-2495087116.044882,2489136748.958132,13020991077.831167,-0.046975,0.046930,0.245323
2.060000,-0.960000,1.932135,0.040000,139867891199.690704,-1842860249.632640,1837582287.660661,11595177245.943901,-0.034691,0.034651,0.218460
2.100000,-0.960000,1.953849,0.040000,139870780997.259003,-1282643973.538274,1277959540.617771,10275452487.547367,-0.024139,0.024104,0.193595
2.140000,-0.960000,1.976134,0.040000,139875730156.700989,-804101090.372989,799935428.637685,9043637917.389952,-0.015126,0.015095,0.170387
2.180000,-0.960000,1.998971,0.040000,139881972220.106079,-398194228.155435,394477231.895719,7884532272.344642,-0.007481,0.007453,0.148549
2.220000,-0.960000,2.022341,0.040000,139888857053.767242,-57105861.192173,53772158.414948,6785319655.977054,-0.001057,0.001032,0.127839
2.260000,-0.960000,2.046227,0.040000,139895838332.996887,225843164.182002,-228854282.187654,5735089946.279826,0.004272,-0.004295,0.108052
2.300000,-0.960000,2.070610,0.040000,139902462848.681610,456269437.898069,-459012056.486492,4724445746.936728,0.008612,-0.008633,0.089011
2.340000,-0.960000,2.095472,0.040000,139908361515.613312,638768835.275062,-641263708.296721,3745152464.662183,0.012049,-0.012068,0.070561
2.380000,-0.960000,2.120798,0.040000,139913242051.041901,776192396.865163,-777228982.038255,2790276891.490542,0.014630,-0.014638,0.052570
2.420000,-0.960000,2.146570,0.040000,139916884533.775604,865610935.068734,-843975136.552994,2096598039.371502,0.016186,-0.016023,0.039501
2.460000,-0.960000,2.172773,0.040000,139919155751.585114,917139328.308201,-865075977.242559,1695467868.983503,0.016985,-0.016593,0.031944
-2.500000,-0.920000,3.694556,0.040000,-81069674504.651520,12067460940989.880859,7540719212559.991211,1725609230173.571777,116.529115,31.242677,32.511478
-2.460000,-0.920000,3.660275,0.040000,-81070586651.324020,2079776836676.419922,12969828336915.640625,1022927822012.781372,-45.878784,159.296099,19.272553
-2.420000,-0.920000,3.626110,0.040000,-81073705967.212204,-346349066873.158203,4280848902564.668457,664590865697.503540,-28.763895,58.415198,12.521277
-2.380000,-0.920000,3.592066,0.040000,-81079055509.111710,-2100122162.535128,12976742670.538559,6014830622.860548,-0.101044,0.183013,0.113323
-2.340000,-0.920000,3.558146,0.040000,-81086762712.930283,1608903671.613750,-1606406834.241893,5202344903.019398,0.030299,-0.030280,0.098015
-2.300000,-0.920000,3.524353,0.040000,-81097048100.718384,1792382074.137774,-1789630887.846798,6554868945.893000,0.033754,-0.033733,0.123498
-2.260000,-0.920000,3.490692,0.040000,-81110205498.558655,2023980484.184297,-2020956666.858196,7945110354.122317,0.038116,-0.038093,0.149690
-2.220000,-0.920000,3.457166,0.040000,-81126605870.983963,2308337754.995643,-2304982400.474905,9382412020.879120,0.043471,-0.043446,0.176770
-2.180000,-0.920000,3.423778,0.040000,-81146704694.149002,2651230232.651000,-2647473585.965179,10877313795.636616,0.049929,-0.049901,0.204935
-2.140000,-0.920000,3.390534,0.040000,-81171051207.240616,3059659182.633511,-3055422274.198725,12441833777.546099,0.057622,-0.057590,0.234411
-2.100000,-0.920000,3.357437,0.040000,-81200299628.103302,3542004100.633893,-3537197244.158615,14089859022.553728,0.066706,-0.066670,0.265461
-2.060000,-0.920000,3.324492,0.040000,-81235222576.722900,4108209091.558125,-4102730004.380455,15837634006.762230,0.077370,-0.077329,0.298390
-2.020000,-0.920000,3.291704,0.040000,-81276727004.957947,4770002331.228991,-4763734089.572491,17704373539.262138,0.089834,-0.089787,0.333561
-1.980000,-0.920000,3.259076,0.040000,-81325872983.887283,5541151007.468492,-5533959904.559371,19713038008.029877,0.104358,-0.104304,0.371405
-1.940000,-0.920000,3.226615,0.040000,-81383895756.811279,6437753245.280837,-6429486680.348905,21891321341.391731,0.121244,-0.121182,0.412445
-1.900000,-0.920000,3.194324,0.040000,-81452231524.925201,7478566225.239693,-7469050867.220207,24272919027.441853,0.140847,-0.140775,0.457316
-1.860000,-0.920000,3.162210,0.040000,-81532547490.205002,8685365272.840412,-8674405942.769375,26899166879.622379,0.163575,-0.163493,0.506796
-1.820000,-0.920000,3.130277,0.040000,-81626776728.906235,10083320678.188143,-10070700728.891569,29821173556.664371,0.189904,-0.189809,0.561848
-1.780000,-0.920000,3.098532,0.040000,-81737158496.228180,11701364961.502123,-11686849493.030285,33102614825.467285,0.220378,-0.220269,0.623672
-1.740000,-0.920000,3.066979,0.040000,-81866284545.314575,13572499170.649227,-13555843357.657129,36823420467.000015,0.255620,-0.255494,0.693775
-1.700000,-0.920000,3.035626,0.040000,-82017151942.660187,15733945796.124628,-15714912171.903553,41084673103.647888,0.296329,-0.296186,0.774059
-1.660000,-0.920000,3.004478,0.040000,-82193222610.570007,18226986610.676620,-18205377789.484776,46015162817.326042,0.343285,-0.343122,0.866952
-1.620000,-0.920000,2.973542,0.040000,-82398489313.068069,21096206917.571323,-21071924685.845062,51780217445.247078,0.397328,-0.397145,0.975569
-1.580000,-0.920000,2.942825,0.040000,-82637546834.805908,24387670535.595158,-24360819797.404236,58593677122.952744,0.459326,-0.459124,1.103939
-1.540000,-0.920000,2.912333,0.040000,-82915665362.767258,28145216180.745541,-28116285149.673965,66734231860.256439,0.530109,-0.529891,1.257312
-1.500000,-0.920000,2.882073,0.040000,-83238860025.622269,32403498719.968414,-32373668957.671131,76567829966.415329,0.610332,-0.610107,1.442582
-1.460000,-0.920000,2.852054,0.040000,-83613945253.334595,37175429374.154617,-37147107757.296867,88578536211.352829,0.700247,-0.700033,1.668871
-1.420000,-0.920000,2.822282,0.040000,-84048553513.459457,42430002068.098946,-42407733862.905113,103411108929.709213,0.799280,-0.799112,1.948325
-1.380000,-0.920000,2.792765,0.040000,-84551082348.472946,48053609415.076096,-48045649242.999985,121929669322.794800,0.905313,-0.905253,2.297226
-1.340000,-0.920000,2.763513,0.040000,-85130506787.225067,53782935750.384598,-53803959935.408974,145298007662.647736,1.013421,-1.013579,2.737499
-1.300000,-0.920000,2.734532,0.040000,-85795947968.006104,59088755645.278625,-59164562372.931961,175087776171.842224,1.113695,-1.114266,3.298755
-1.260000,-0.920000,2.705833,0.040000,-86555808933.666870,62974660423.154633,-63150335957.174568,213419532338.467468,1.187472,-1.188796,4.020948
-1.220000,-0.920000,2.677423,0.040000,-87416150140.441467,63628132817.274773,-63982235199.074402,263134344757.523773,1.200792,-1.203461,4.957604
-1.180000,-0.920000,2.649313,0.040000,-88377737048.874115,57815976907.219009,-58485000436.622192,327970535874.081604,1.093068,-1.098110,6.179155
-1.140000,-0.920000,2.620884,0.040000,-89430776729.397369,39842039554.138885,-41061720753.513489,412657034304.904541,0.757541,-0.766733,7.774698
-1.100000,-0.920000,2.592616,0.040000,-90545650781.592392,-222573743.386606,-1948859810.760940,522675155504.099365,0.008080,-0.024444,9.847503
-1.060000,-0.920000,2.564433,0.040000,-91656778485.289749,-79435489391.125336,75653359282.442413,663058664733.232666,-1.475233,1.446730,12.492410
-1.020000,-0.920000,2.536001,0.040000,-92634948520.367447,-226330913577.707855,219939414611.063629,834747632051.594360,-4.228080,4.179912,15.727129
-0.980000,-0.920000,2.507884,0.040000,-93241213645.593155,-486126399869.385803,475896182566.355591,1025304589735.808228,-9.101080,9.023983,19.317333
-0.940000,-0.920000,2.479473,0.040000,-93054384246.851791,-922501644420.218018,907880811661.352051,1188155111036.093506,-17.297826,17.187640,22.385531
-0.900000,-0.920000,2.451189,0.040000,-91370550042.219238,-1600866689965.478760,1585255050939.151611,1203505914091.232422,-30.073017,29.955364,22.674749
-0.860000,-0.920000,2.423037,0.040000,-87104453216.576340,-2515901687452.737305,2514293989130.870117,828652765620.353760,-47.391959,47.379843,15.612298
-0.820000,-0.920000,2.394579,0.040000,-78812208539.796509,-3416375220730.705078,3459641644787.706543,-282329280676.505920,-64.611039,64.937105,-5.319247
-0.780000,-0.920000,2.366456,0.040000,-65109122776.716919,-3617943026194.077148,3714160090097.232422,-2265188007477.073242,-68.707980,69.433094,-42.677455
-0.740000,-0.920000,2.338063,0.040000,-45752234778.939667,-2283651498609.923340,2361907830591.109863,-4408875107007.939453,-43.467636,44.057394,-83.065763
-0.700000,-0.920000,2.309761,0.040000,-22894145840.495701,517033899535.453308,-517216968473.111816,-5200043877163.282227,9.742253,-9.743633,-97.971841
-0.660000,-0.920000,2.281645,0.040000,-833352715.137630,3123490375792.025391,-3235960481647.573242,-3831278598475.558594,59.484070,-60.331671,-72.183510
-0.620000,-0.920000,2.253159,0.040000,16341339661.791033,4114600727703.414062,-4265783090494.951172,-1052730766743.171387,78.375972,-79.515317,-19.834058
-0.580000,-0.920000,2.225027,0.040000,27185009676.574322,3009177329448.895508,-1907986998009.682617,480820715114.538147,50.470526,-42.171700,9.058941
-0.540000,-0.920000,2.197263,0.040000,34736047581.464226,2369709571247.796387,-777805815490.103760,-562204373282.046265,35.648985,-23.652029,-10.592256
-0.500000,-0.920000,2.169882,0.040000,43331425057.486847,2181895950230.733154,-4255364715924.485840,-468317800614.712769,52.827791,-68.453932,-8.823379
-0.460000,-0.920000,2.142897,0.040000,41885935576.140472,1921563343763.068848,875646167843.016724,1710623342717.179443,20.393053,0.687367,32.229135
-0.420000,-0.920000,2.116324,0.040000,33425968056.902466,3722650895537.733398,6768354029529.434570,2331603555607.808594,10.839917,68.222729,43.928763
-0.380000,-0.920000,2.090179,0.040000,71032106773.383621,-7707202884217.251953,-10211233138744.136719,993763468714.412598,-43.930054,-91.107435,18.723080
-0.340000,-0.920000,2.064478,0.040000,53441776197.026176,-2189069514042.572998,-3799584403791.721680,-547752664251.021057,-7.394425,-37.737459,-10.319978
-0.300000,-0.920000,2.039237,0.040000,43594333662.012108,-1578206058658.964355,3546075765774.077637,-11715557111.210869,-40.857059,55.687381,-0.220728
-0.260000,-0.920000,2.014475,0.040000,37416047312.267776,783743400333.882568,4487385110572.073242,2225699092090.691406,-15.027155,54.751602,41.933461
-0.220000,-0.920000,1.990208,0.040000,47479572166.035683,-315478207806.652466,-3050843701382.770020,1672390118641.635254,13.083245,-38.452627,31.508799
-0.180000,-0.920000,1.966456,0.040000,45000812107.168999,104554940331.002777,-2401069973582.591309,-1132740625561.145020,14.950178,-32.257248,-21.341490
-0.140000,-0.920000,1.943237,0.040000,40027597286.604889,-1184754473824.903320,2170045829306.431152,-1105387380663.910645,-27.890499,35.315883,-20.826139
-0.100000,-0.920000,1.920570,0.040000,38018537227.174637,-597275382049.354858,2267565357742.823242,1570317536622.255859,-20.693784,33.281476,29.585693
-0.060000,-0.920000,1.898476,0.040000,41103028636.929214,649810535121.829834,-1910012870873.206299,1484003103616.736572,19.365690,-28.862867,27.959479
-0.020000,-0.920000,1.876974,0.040000,39932540810.327393,816894804576.341675,-1821402700895.807861,-1209904669156.457275,21.068425,-28.638629,-22.795305
0.020000,-0.920000,1.856085,0.040000,36376400515.150642,-877257958445.031738,1989460477991.897949,-1162241795569.341309,-22.814411,31.196227,-21.897309
0.060000,-0.920000,1.835830,0.040000,35475100146.223999,-620726793133.046875,2038766208853.070801,1709903490297.202393,-19.709858,30.396532,32.215573
0.100000,-0.920000,1.816230,0.040000,39191045192.519112,811678546295.725220,-2689599890657.872070,1677475168326.362305,25.906832,-40.059283,31.604605
0.140000,-0.920000,1.797307,0.040000,36950331386.436806,1479310575948.594727,-2575717850218.875488,-1545255411650.373047,34.068153,-42.330933,-29.113508
0.180000,-0.920000,1.779082,0.040000,31152322890.156979,-122147706464.268768,3337083936738.583984,-1485215118017.749268,-20.472712,44.701217,-27.982314
0.220000,-0.920000,1.761577,0.040000,28855087522.059319,551590583943.964966,4184335309201.576660,2291261597182.372070,-16.375990,52.067026,43.168697
0.260000,-0.920000,1.744813,0.040000,44026759864.002647,-903931158940.177002,-6502244787590.451172,2955175270255.568848,24.830407,-80.645067,55.677215
0.300000,-0.920000,1.728812,0.040000,36017869291.696114,2640525697077.471680,-5304355062396.739258,-372377855412.138000,64.805462,-84.880698,-7.015815
0.340000,-0.920000,1.713596,0.040000,22023198106.925488,3792326061374.214355,6136312397523.454102,-1244265731755.720947,15.331230,59.493292,-23.442688
0.380000,-0.920000,1.699186,0.040000,-5062297446.022408,13012179490736.873047,16667325317589.388672,1045225615872.866333,77.403282,146.268348,19.692657
0.420000,-0.920000,1.685602,0.040000,58853637151.836128,-5754159514368.437500,-11611976959605.484375,3055578656422.939453,-10.255277,-120.619954,57.568873
0.460000,-0.920000,1.672864,0.040000,45816278725.660919,-2479824389823.459473,-2089816879240.982910,1817685698892.560791,-20.892922,-13.544954,34.246252
0.500000,-0.920000,1.660992,0.040000,43297218253.342979,-2362603988734.822754,5900125480054.736328,-1960595533601.202881,-64.507515,91.167098,-36.938756
0.540000,-0.920000,1.650004,0.040000,55631529013.125343,-1891456838424.428711,-797769805121.589600,-1935230594087.464844,-20.436167,0.169531,-36.460866
0.580000,-0.920000,1.639919,0.040000,62783195501.514297,-2071000221964.026611,178736255875.326233,621527187452.252686,-28.323440,14.062900,11.709933
0.620000,-0.920000,1.630753,0.040000,70699842446.328156,-3460416225856.624023,3637642737370.625977,-341204757824.392273,-66.197963,67.533583,-6.428495
0.660000,-0.920000,1.622521,0.040000,83831827105.474670,-2551717997484.015137,2651727931703.074707,-2982156291320.067871,-48.641120,49.394818,-56.185553
0.700000,-0.920000,1.615239,0.040000,100986852197.580658,-356659677856.461487,346038530180.900269,-4094368750126.747559,-6.659643,6.579599,-77.140281
0.740000,-0.920000,1.608918,0.040000,118697705781.389481,1878454227930.693848,-1944520627876.311279,-3403510809094.859863,35.764585,-36.262477,-64.124117
0.780000,-0.920000,1.603570,0.040000,133527172059.189682,2898898449136.617188,-2974031310331.285645,-1686780648082.986084,55.041591,-55.607810,-31.779925
0.820000,-0.920000,1.599205,0.040000,143824591655.380280,2711100603831.652832,-2744399980519.651367,-128063105844.593369,51.266921,-51.517873,-2.412783
0.860000,-0.920000,1.595831,0.040000,149826987667.895569,1983604493058.098633,-1981944813503.192139,736181885081.342896,37.362878,-37.350370,13.870093
0.900000,-0.920000,1.593454,0.040000,152654490192.027557,1251409847694.678955,-1238903799663.452637,1020164820421.664673,23.506601,-23.412352,19.220497
0.940000,-0.920000,1.592080,0.040000,153462957012.593292,709506944412.866333,-697842820927.180908,997445196174.184570,13.301594,-13.213691,18.792446
0.980000,-0.920000,1.591709,0.040000,153119434989.825836,360888612303.396973,-352712133572.515259,859256119548.529419,6.753136,-6.691516,16.188883
1.020000,-0.920000,1.591709,0.040000,152186263076.836884,153443473494.580994,-148316316342.559235,700079108553.447998,2.861984,-2.823345,13.189896
1.060000,-0.920000,1.592080,0.040000,150999740320.295746,36546251429.085732,-33498827589.618267,556747057400.096191,0.671328,-0.648362,10.489437
1.100000,-0.920000,1.593454,0.040000,149750022980.002625,-25844204676.650032,27601976777.018723,439128776358.465759,-0.496855,0.510102,8.273441
1.140000,-0.920000,1.595831,0.040000,148538913540.559509,-56566129814.256821,57557730890.819191,346469232475.631775,-1.071343,1.078816,6.527681
1.180000,-0.920000,1.599205,0.040000,147416755765.310486,-69342448227.435516,69887968030.725571,274730792991.551483,-1.309535,1.313646,5.176087
1.220000,-0.920000,1.603570,0.040000,146404688049.031586,-72209838771.219818,72498340741.036530,219495146501.604828,-1.362106,1.364280,4.135416
1.260000,-0.920000,1.608918,0.040000,145507700624.078583,-69812420174.353210,69954009304.358505,176928328977.191406,-1.316107,1.317174,3.333432
1.300000,-0.920000,1.615239,0.040000,144722188007.553711,-64809029189.246338,64867530682.936760,143979187529.039093,-1.221370,1.221811,2.712651
1.340000,-0.920000,1.622521,0.040000,144040275220.079071,-58705320243.714493,58717699148.035080,118311087907.798462,-1.106112,1.106206,2.229049
1.380000,-0.920000,1.630753,0.040000,143452268845.418121,-52338619712.507530,52326272060.557541,98164922678.926071,-0.986020,0.985927,1.849484
1.420000,-0.920000,1.639919,0.040000,142948021144.961243,-46159366832.897896,46134641550.976715,82224582441.112488,-0.869529,0.869343,1.549159
1.460000,-0.920000,1.650004,0.040000,142517664939.591858,-40394685070.119003,40364654167.918533,69505650830.168396,-0.760890,0.760663,1.309527
1.500000,-0.920000,1.660992,0.040000,142151985275.209351,-35143749519.771416,35112397014.302109,59269515761.139847,-0.661951,0.661715,1.116672
1.540000,-0.920000,1.672864,0.040000,141842582938.832886,-30433562228.012779,30403062368.550240,50959214161.213493,-0.573214,0.572984,0.960101
1.580000,-0.920000,1.685602,0.040000,141581920494.740479,-26251623630.049610,26223091810.844913,44152228230.644547,-0.494435,0.494220,0.831854
1.620000,-0.920000,1.699186,0.040000,141363303942.176453,-22565043459.602070,22538979720.903034,38525953787.386238,-0.424991,0.424795,0.725851
1.660000,-0.920000,1.713596,0.040000,141180831054.012665,-19331649925.325165,19308201925.652126,33832448660.128597,-0.364087,0.363910,0.637423
1.700000,-0.920000,1.728812,0.040000,141029324453.804260,-16506358102.164816,16485477315.324612,29879914788.022068,-0.310871,0.310714,0.562955
1.740000,-0.920000,1.744813,0.040000,140904259787.755615,-14044724129.928215,14026258475.285730,26519053128.610630,-0.264506,0.264367,0.499634
1.780000,-0.920000,1.761577,0.040000,140801694777.680328,-11904830914.513403,11888579343.119658,23632948999.593369,-0.224202,0.224080,0.445258
1.820000,-0.920000,1.779082,0.040000,140718202231.506470,-10048190393.330236,10033934618.044687,21129524622.694462,-0.189233,0.189126,0.398092
1.860000,-0.920000,1.797307,0.040000,140650808490.627838,-8440073608.531925,8427596080.466372,18935868129.992920,-0.158945,0.158851,0.356763
1.900000,-0.920000,1.816230,0.040000,140596937863.673157,-7049515913.597529,7038609533.656810,16993942560.078890,-0.132755,0.132673,0.320176
1.940000,-0.920000,1.835830,0.040000,140554363067.916840,-5849145910.489886,5839618799.924053,15257316502.399086,-0.110147,0.110076,0.287457
1.980000,-0.920000,1.856085,0.040000,140521161412.334503,-4814926956.470811,4806604307.405181,13688656336.273451,-0.090669,0.090606,0.257902
2.020000,-0.920000,1.876974,0.040000,140495676313.273743,-3925863794.504872,3918588028.523768,12257790151.431940,-0.073924,0.073870,0.230944
2.060000,-0.920000,1.898476,0.040000,140476483675.990356,-3163704799.871250,3157334781.083306,10940203706.963404,-0.059570,0.059522,0.206120
2.100000,-0.920000,1.920570,0.040000,140462362667.128510,-2512656947.510195,2507066699.232062,9715865003.601568,-0.047308,0.047266,0.183053
2.140000,-0.920000,1.943237,0.040000,140452270422.869446,-1959122521.350846,1954199715.881001,8568300290.047003,-0.036883,0.036846,0.161432
2.180000,-0.920000,1.966456,0.040000,140445320271.848907,-1491461767.248079,1487106144.483752,7483863458.552848,-0.028075,0.028043,0.141000
2.220000,-0.920000,1.990208,0.040000,140440763093.204102,-1099782873.616625,1095904676.931578,6451154823.898898,-0.020699,0.020669,0.121543
2.260000,-0.920000,2.014475,0.040000,140437971473.702484,-775759088.240454,772277559.033554,5460555718.590122,-0.014596,0.014570,0.102880
2.300000,-0.920000,2.039237,0.040000,140436426371.266052,-512471998.903508,509313817.603198,4503854466.639154,-0.009637,0.009614,0.084855
2.340000,-0.920000,2.064478,0.040000,140435706034.178864,-304279952.118448,301375713.952664,3573966768.114038,-0.005716,0.005695,0.067336
2.380000,-0.920000,2.090179,0.040000,140435476964.783447,-147666485.151174,146747794.220569,2665638613.362149,-0.002777,0.002770,0.050222
2.420000,-0.920000,2.116324,0.040000,140435486706.712891,-45910404.525900,71545305.917460,2002334956.914131,-0.001010,0.001203,0.037725
2.460000,-0.920000,2.142897,0.040000,140435557435.373169,21520315.399254,32821087.556952,1619349056.157265,0.000098,0.000311,0.030509
-2.500000,-0.880000,3.674203,0.040000,-310979296.653237,-18148341546764.710938,37027548410793.250000,144962768051.004547,-448.633836,590.911917,2.731183
-2.460000,-0.880000,3.639730,0.040000,-81693284398.341858,-694309454108.901001,15941565333871.003906,25805429181.655891,-99.261335,214.168190,0.486189
-2.420000,-0.880000,3.605370,0.040000,-81699550099.739868,-1356771732312.234863,4987469809913.927734,6712644563.145782,-46.083703,73.445486,0.126470
-2.380000,-0.880000,3.571129,0.040000,-81709987382.319443,-95814227377.367416,279924968895.496643,3750128997.739242,-2.845822,4.233323,0.070655
-2.340000,-0.880000,3.537008,0.040000,-81724838913.070496,2922128213.033210,-2919046542.031414,5027524259.886907,0.055037,-0.055014,0.094721
-2.300000,-0.880000,3.503011,0.040000,-81744370270.285843,3137123565.088825,-3133880012.016353,6330042557.004021,0.059087,-0.059062,0.119262
-2.260000,-0.880000,3.469143,0.040000,-81768925948.605804,3408455141.340281,-3404896028.782629,7665582190.667745,0.064197,-0.064170,0.144424
-2.220000,-0.880000,3.435406,0.040000,-81798940575.361221,3741867120.240478,-3737906885.754572,9042411049.747532,0.070477,-0.070447,0.170364
-2.180000,-0.880000,3.401805,0.040000,-81834948221.883560,4144378615.923703,-4139927522.639786,10469768681.983521,0.078057,-0.078024,0.197257
-2.140000,-0.880000,3.368344,0.040000,-81877593654.633499,4624560510.240547,-4619515674.211302,11958189341.969757,0.087101,-0.087063,0.225299
-2.100000,-0.880000,3.335027,0.040000,-81927646069.482468,5192779591.472211,-5187021414.171352,13519858259.924828,0.097802,-0.097759,0.254722
-2.060000,-0.880000,3.301859,0.040000,-81986015704.109299,5861491554.069431,-5854879939.956200,15169054668.569921,0.110397,-0.110347,0.285794
-2.020000,-0.880000,3.268843,0.040000,-82053773798.371796,6645599288.498341,-6637969124.027967,16922711594.874197,0.125164,-0.125106,0.318834
-1.980000,-0.880000,3.235985,0.040000,-82132176477.085526,7562890147.046480,-7554045845.457621,18801129505.563496,0.142439,-0.142373,0.354224
-1.940000,-0.880000,3.203289,0.040000,-82222693256.257019,8634568524.084513,-8624277438.360687,20828893403.822418,0.162622,-0.162545,0.392428
-1.900000,-0.880000,3.170761,0.040000,-82327041026.623566,9885903479.215784,-9873887968.479609,23036060555.659336,0.186188,-0.186098,0.434013
-1.860000,-0.880000,3.138406,0.040000,-82447224552.740112,11347014809.500467,-11332942747.548260,25459710696.249096,0.213705,-0.213599,0.479676
-1.820000,-0.880000,3.106228,0.040000,-82585584747.685837,13053824546.855204,-13037298109.959946,28145985447.790115,0.245848,-0.245724,0.530287
-1.780000,-0.880000,3.074235,0.040000,-82744856248.377716,15049203484.373734,-15029746194.112278,31152793396.941578,0.283426,-0.283279,0.586937
-1.740000,-0.880000,3.042430,0.040000,-82928236128.529495,17384342340.369789,-17361384654.125347,34553428734.408783,0.327401,-0.327228,0.651007
-1.700000,-0.880000,3.010822,0.040000,-83139465945.217255,20120371311.042248,-20093235702.971542,38441454930.835281,0.378926,-0.378722,0.724259
-1.660000,-0.880000,2.979414,0.040000,-83382929710.898300,23330233917.705975,-23298121667.394783,42937356337.942482,0.439374,-0.439132,0.808965
-1.620000,-0.880000,2.948215,0.040000,-83663770786.040833,27100779797.403179,-27062764136.423901,48197683860.334869,0.510380,-0.510093,0.908072
-1.580000,-0.880000,2.917231,0.040000,-83988031030.406815,31534955183.481850,-31489990034.902733,54427752799.721428,0.593883,-0.593544,1.025450
-1.540000,-0.880000,2.886469,0.040000,-84362815692.628143,36753799794.604294,-36700761937.400986,61899448522.130951,0.692163,-0.691763,1.166221
-1.500000,-0.880000,2.855935,0.040000,-84796487179.601654,42897630973.926956,-42835429588.638069,70976446776.164642,0.807865,-0.807396,1.337237
-1.460000,-0.880000,2.825638,0.040000,-85298889492.798538,50125171588.258392,-50052989510.544456,82150296309.759109,0.943979,-0.943435,1.547759
-1.420000,-0.880000,2.795585,0.040000,-85881601726.162888,58608194582.889534,-58525983175.131966,96092550252.112396,1.103748,-1.103128,1.810439
-1.380000,-0.880000,2.765783,0.040000,-86558211652.537155,68517010953.222198,-68426470605.634453,113730782265.487259,1.290388,-1.289706,2.142754
-1.340000,-0.880000,2.736242,0.040000,-87344585404.418579,79987845427.000427,-79894336299.397980,136360333275.437653,1.506489,-1.505784,2.569108
-1.300000,-0.880000,2.706970,0.040000,-88259079563.444122,93054918955.398514,-92971161780.677963,165809592511.559998,1.752735,-1.752104,3.123949
-1.260000,-0.880000,2.677975,0.040000,-89322584123.912704,107514108269.274231,-107467356893.103882,204685112292.335846,2.025364,-2.025012,3.856386
-1.220000,-0.880000,2.649267,0.040000,-90558172613.180878,122653776741.600555,-122699795301.675446,256733863206.040710,2.311128,-2.311475,4.837015
-1.180000,-0.880000,2.620854,0.040000,-91989917758.560349,136726306860.046478,-136976843445.230896,327370622308.332947,2.577419,-2.579307,6.167852
-1.140000,-0.880000,2.592748,0.040000,-93640005480.489212,145909649961.366455,-146586920916.951172,424416017911.322876,2.752850,-2.757955,7.996244
-1.100000,-0.880000,2.564316,0.040000,-95522442662.965012,142260600361.871796,-143805635080.575745,559029751062.255493,2.689005,-2.700649,10.532445
-1.060000,-0.880000,2.536049,0.040000,-97629999923.312546,109684897609.218430,-112969624782.810150,746559375749.674683,2.085093,-2.109847,14.065611
-1.020000,-0.880000,2.507868,0.040000,-99907786974.468750,16124856932.724869,-22844231518.111034,1006132537892.286499,0.341781,-0.392419,18.956120
-0.980000,-0.880000,2.479432,0.040000,-102200720342.440643,-200853161162.990967,187562602915.319763,1355156716348.231445,-3.709069,3.608909,25.531938
-0.940000,-0.880000,2.451319,0.040000,-104151637130.703613,-657349405917.362671,632400506533.347778,1787747828866.275879,-12.243828,12.055808,33.682205
-0.900000,-0.880000,2.422905,0.040000,-105013537364.590942,-1547113574148.902100,1505450857463.394043,2209640446043.618164,-28.913032,28.599052,41.630907
-0.860000,-0.880000,2.394621,0.040000,-103342746412.353958,-3107119652250.628418,3059256189340.186523,2276896918894.973145,-58.269403,57.908693,42.898058
-0.820000,-0.880000,2.366473,0.040000,-96645716584.856613,-5303697134855.270508,5333705472606.196289,1126076754188.275879,-100.094341,100.320491,21.215939
-0.780000,-0.880000,2.338011,0.040000,-81498273318.133331,-6918097354406.134766,7162634070476.119141,-2419735631674.770508,-131.723129,133.566014,-45.589222
-0.740000,-0.880000,2.309891,0.040000,-55525185545.780182,-5254126024587.327148,5426178042709.173828,-7562672670163.303711,-99.963248,101.259872,-142.485137
-0.700000,-0.880000,2.281495,0.040000,-21698965957.496185,938901117421.877075,-1001368298252.889771,-9711427122424.916016,18.042517,-18.513284,-182.968917
-0.660000,-0.880000,2.253194,0.040000,10720513577.329369,6226220058750.918945,-6751889293399.354492,-6668315302929.822266,120.276769,-124.238334,-125.634926
-0.620000,-0.880000,2.225082,0.040000,32871608318.057018,7919941792352.085938,-8328164869429.443359,-1183635973281.199951,151.523642,-154.600106,-22.300388
-0.580000,-0.880000,2.196591,0.040000,41827474101.598587,6234885902900.634766,-2400992444603.473633,1965983043443.838867,95.799032,-66.905922,37.040260
-0.540000,-0.880000,2.168463,0.040000,37658884829.963829,7378583598624.288086,4115977706538.692871,1330134875480.407959,74.047533,12.578147,25.060512
-0.500000,-0.880000,2.140713,0.040000,68272140932.890015,-2038735350151.939209,-8357100377398.321289,622180611010.426147,20.348116,-98.693544,11.722243
-0.460000,-0.880000,2.113355,0.040000,57416484412.754257,69589420720.404663,-1316063819442.969238,2109178827966.750488,8.356395,-17.750115,39.738152
-0.420000,-0.880000,2.086406,0.040000,48593206245.171944,1730216418042.462646,4724793938717.584961,3779170329115.050293,-3.886561,52.533016,71.201760
-0.380000,-0.880000,2.059881,0.040000,56570289511.665421,514200247295.640015,-2059667923166.534668,2257531624625.411133,18.423083,-30.070086,42.533205
-0.340000,-0.880000,2.033797,0.040000,56142353548.688858,-372088968506.136963,-2457779099639.986816,-659590008315.097656,8.984535,-30.311077,-12.427058
-0.300000,-0.880000,2.008171,0.040000,49890229916.983383,-1334610442154.152344,1527861350659.448486,-778697784416.260742,-26.237122,27.693506,-14.671118
-0.260000,-0.880000,1.983021,0.040000,46340555938.221268,-768247110281.006958,1757152836622.384766,1253117853899.413330,-20.063688,27.516311,23.609467
-0.220000,-0.880000,1.958365,0.040000,46047699767.107529,588679337058.837280,-604655208319.838257,1275148494844.249512,11.181358,-11.301756,24.024537
-0.180000,-0.880000,1.934222,0.040000,44980207636.422020,565921396080.323608,-804185118400.806396,-361943551712.043152,12.008995,-13.804606,-6.819226
-0.140000,-0.880000,1.910611,0.040000,42681851980.009552,-571079137129.052124,649396396780.605469,-495146917101.755981,-11.202125,11.792342,-9.328855
-0.100000,-0.880000,1.887552,0.040000,41166225597.667290,-574043674539.387329,757731020855.877563,665653267018.528320,-11.853548,13.237859,12.541293
-0.060000,-0.880000,1.865067,0.040000,40679671687.063026,435225458562.984253,-490546709965.505249,690006978710.311157,8.512585,-8.929499,13.000131
-0.020000,-0.880000,1.843175,0.040000,39651363707.098816,421796788659.044495,-465816598183.582214,-386443556311.005493,8.195704,-8.527447,-7.280821
0.020000,-0.880000,1.821899,0.040000,38067993925.563759,-537674787190.385010,578610316553.671021,-365955299161.288452,-10.361479,10.669979,-6.894810
0.060000,-0.880000,1.801259,0.040000,37210384107.574562,-486854420941.264465,545754677731.368713,779257737918.710571,-9.505534,9.949420,14.681668
0.100000,-0.880000,1.781279,0.040000,36962753249.091843,653819514752.894287,-864623553679.034058,660846104650.818359,13.509840,-15.098508,12.450724
0.140000,-0.880000,1.761981,0.040000,35552162294.752167,574065484402.831909,-670038130979.045166,-750695593959.798340,11.358181,-12.081453,-14.143540
0.180000,-0.880000,1.743386,0.040000,33392130371.549095,-899687798017.446533,1227185619555.506348,-536806039888.745605,-18.801714,21.269814,-10.113737
0.220000,-0.880000,1.725519,0.040000,33130224736.048122,-850531532447.138916,871493878715.568481,1665838954212.814453,-16.142990,16.300967,31.385372
0.260000,-0.880000,1.708402,0.040000,33995983525.470303,1110542000065.462646,-2495938468012.873047,1483650815788.726807,28.753757,-39.194426,27.952841
0.300000,-0.880000,1.692057,0.040000,30229772509.205410,1931118649526.753906,-2137664456782.174805,-1650676940697.321289,37.550828,-39.107405,-31.099710
0.340000,-0.880000,1.676507,0.040000,22539169382.054012,485704911866.449585,4195370084516.825684,-1535929774881.649658,-17.307288,52.584955,-28.937807
0.380000,-0.880000,1.661775,0.040000,24712739743.448185,-867033469993.938843,3429612508191.897461,3017196614014.258301,-30.819556,50.131745,56.845733
0.420000,-0.880000,1.647883,0.040000,40825587566.722794,-2712075802996.531250,-7963385875275.415039,5218729419213.698242,9.242486,-89.695240,98.323888
0.460000,-0.880000,1.634851,0.040000,28851797297.867851,354467066702.843750,1876173245760.051025,2039676667523.401855,-5.929602,22.740225,38.428691
0.500000,-0.880000,1.622701,0.040000,12631256644.166914,4607827217040.590820,13051548302083.867188,-902874950723.196655,-12.999726,146.084874,-17.010687
0.540000,-0.880000,1.611452,0.040000,64812703692.589806,-10105818185957.246094,-9327327684208.705078,15815902085.466980,-80.559953,-65.892741,0.297981
0.580000,-0.880000,1.601124,0.040000,54130165120.737106,-6205921078684.269531,-308535682366.327637,1693385328777.520996,-80.102308,31.007851,31.904361
0.620000,-0.880000,1.591735,0.040000,58693350031.742783,-7231644014545.246094,7659760578657.728516,-976122159362.073853,-138.668155,141.894540,-18.390707
0.660000,-0.880000,1.583300,0.040000,75706041054.897354,-4888207203655.273438,5441046824580.770508,-5682183463254.505859,-95.221403,99.387731,-107.055630
0.700000,-0.880000,1.575836,0.040000,101235643721.839844,-414432723282.659546,517800265185.972229,-7667546063450.787109,-8.392404,9.171406,-144.461013
0.740000,-0.880000,1.569357,0.040000,127522808512.252136,4299617562851.783691,-4416511688449.004883,-5798599436721.184570,81.667993,-82.548935,-109.248975
0.780000,-0.880000,1.563873,0.040000,147381030028.171326,5494828081716.519531,-5682312712841.685547,-1756341350211.964355,104.585442,-105.998370,-33.090489
0.820000,-0.880000,1.559398,0.040000,158634079828.177521,4181137347534.836426,-4203425139826.100098,1005783724153.582642,78.901026,-79.068992,18.949548
0.860000,-0.880000,1.555937,0.040000,163223130550.797363,2434476211118.558594,-2396491913463.746094,1890035997455.315918,45.652249,-45.365991,35.609374
0.900000,-0.880000,1.553500,0.040000,163873193033.594879,1196312385771.654541,-1163365560359.122314,1821188361779.135498,22.352998,-22.104703,34.312244
0.940000,-0.880000,1.552089,0.040000,162563741839.936737,489057318162.784668,-469265831030.575134,1475369083390.500244,9.102258,-8.953105,27.796809
0.980000,-0.880000,1.551709,0.040000,160442227225.875488,125596084895.752365,-114997422246.621078,1122335185775.488281,2.306398,-2.226524,21.145446
1.020000,-0.880000,1.551709,0.040000,158103296032.460205,-46965363184.426865,52357898982.190163,836414658199.109863,-0.915334,0.955974,15.758537
1.060000,-0.880000,1.552089,0.040000,155830967660.250214,-120587182534.570496,123242117064.556549,622432537794.618408,-2.286939,2.306947,11.726990
1.100000,-0.880000,1.553500,0.040000,153747328060.440491,-144989370141.268158,146248086170.300049,466701588142.334900,-2.738798,2.748284,8.792928
1.140000,-0.880000,1.555937,0.040000,151893640643.505768,-145868029873.318695,146424677697.514313,354046463851.474915,-2.751385,2.755580,6.670441
1.180000,-0.880000,1.559398,0.040000,150272434986.488007,-136224188119.591400,136432005950.173859,272211651811.917542,-2.567717,2.569283,5.128625
1.220000,-0.880000,1.563873,0.040000,148868841114.249268,-122538424801.289322,122576601036.394623,212230421907.257538,-2.308911,2.309198,3.998544
1.260000,-0.880000,1.569357,0.040000,147661234994.669922,-107972543366.611389,107931991556.868484,167777139209.674622,-2.034036,2.033730,3.161019
1.300000,-0.880000,1.575836,0.040000,146626438670.313599,-94003313820.957520,93929995892.743195,134438983899.475525,-1.770663,1.770110,2.532908
1.340000,-0.880000,1.583300,0.040000,145742155141.146912,-81255464523.262863,81172298813.057693,109135780378.058701,-1.530430,1.529803,2.056181
1.380000,-0.880000,1.591735,0.040000,144988004842.918152,-69928349058.608841,69846386952.315567,89703799508.660187,-1.317027,1.316410,1.690072
1.420000,-0.880000,1.601124,0.040000,144345863598.899506,-60015392066.196251,59939578861.966400,74608949716.233978,-1.130296,1.129725,1.405676
1.460000,-0.880000,1.611452,0.040000,143799861859.982971,-51416919476.885300,51349089426.111595,62751977604.203438,-0.968341,0.967830,1.182284
1.500000,-0.880000,1.622701,0.040000,143336230200.023499,-43997673084.214340,43938114524.693039,53336475979.028145,-0.828605,0.828156,1.004890
1.540000,-0.880000,1.634851,0.040000,142943085379.198120,-37615466108.521286,37563739413.333321,45779096455.317528,-0.708405,0.708015,0.862505
1.580000,-0.880000,1.647883,0.040000,142610204017.815002,-32134770433.606304,32090132311.711185,39648017339.744118,-0.605185,0.604849,0.746992
1.620000,-0.880000,1.661775,0.040000,142328806247.673065,-27432485804.140213,27394105183.277149,34620379053.505157,-0.516627,0.516338,0.652268
1.660000,-0.880000,1.676507,0.040000,142091358903.419342,-23399723687.566765,23366787188.975983,30452533143.698132,-0.440678,0.440430,0.573743
1.700000,-0.880000,1.692057,0.040000,141891401283.653961,-19941634391.976112,19913393649.375908,26959020911.118458,-0.375552,0.375340,0.507924
1.740000,-0.880000,1.708402,0.040000,141723393297.626801,-16976345988.838764,16952134804.293594,23997556963.818581,-0.319707,0.319525,0.452128
1.780000,-0.880000,1.725519,0.040000,141582584347.811951,-14433570057.057016,14412806398.664675,21458186136.522987,-0.271819,0.271663,0.404285
1.820000,-0.880000,1.743386,0.040000,141464900741.741241,-12253154179.445158,12235335028.366455,19255371648.216137,-0.230756,0.230622,0.362782
1.860000,-0.880000,1.761981,0.040000,141366849328.579529,-10383714342.711153,10368407608.349722,17322163986.259533,-0.195549,0.195433,0.326360
1.900000,-0.880000,1.781279,0.040000,141285435177.076263,-8781402986.405636,8768238653.616961,15605862301.398588,-0.165372,0.165273,0.294023
1.940000,-0.880000,1.801259,0.040000,141218091325.117889,-7408828604.246209,7397490168.958954,14064757343.649305,-0.139523,0.139437,0.264988
1.980000,-0.880000,1.821899,0.040000,141162618871.898438,-6234123234.370192,6224339893.847058,12665665861.808022,-0.117399,0.117325,0.238628
2.020000,-0.880000,1.843175,0.040000,141117135919.605438,-5230145445.189544,5221685195.749859,11382049633.723200,-0.098491,0.098427,0.214444
2.060000,-0.880000,1.865067,0.040000,141080034088.034058,-4373803358.623930,4366467004.038603,10192570164.651957,-0.082364,0.082308,0.192034
2.100000,-0.880000,1.887552,0.040000,141049941517.602509,-3645482055.722221,3639098053.938335,9079970704.792301,-0.068647,0.068599,0.171072
2.140000,-0.880000,1.910611,0.040000,141025691443.347046,-3028560846.609937,3022980895.485420,8030206006.656731,-0.057028,0.056986,0.151294
2.180000,-0.880000,1.934222,0.040000,141006295566.406982,-2509007561.412441,2504102818.102428,7031760806.463429,-0.047243,0.047206,0.132482
2.220000,-0.880000,1.958365,0.040000,140990921572.899139,-2075038808.153939,2070696635.508260,6075112834.958923,-0.039070,0.039038,0.114459
2.260000,-0.880000,1.983021,0.040000,140978874255.779205,-1716836747.862869,1712957775.682385,5152306855.721997,-0.032324,0.032295,0.097072
2.300000,-0.880000,2.008171,0.040000,140969579785.799561,-1426312712.052351,1422806415.699453,4256612736.217859,-0.026853,0.026826,0.080197
2.340000,-0.880000,2.033797,0.040000,140962572751.483368,-1196886935.667609,1193648107.382310,3382226053.474471,-0.022532,0.022507,0.063723
2.380000,-0.880000,2.059881,0.040000,140957485582.562958,-1024344281.344744,1023543494.005812,2524411892.256317,-0.019295,0.019289,0.047561
2.420000,-0.880000,2.086406,0.040000,140954038954.116241,-911941646.600726,941299227.990002,1898995436.652023,-0.017347,0.017569,0.035778
2.460000,-0.880000,2.113355,0.040000,140952019563.736267,-831329546.498627,889246055.800977,1536629016.848505,-0.015990,0.016427,0.028951
-2.500000,-0.840000,3.654174,0.040000,-82309506461.513290,15482720560177.054688,9671253135814.552734,808696768658.389648,149.528797,40.037382,15.236316
-2.460000,-0.840000,3.619510,0.040000,-82312162955.517456,3422642187872.064941,13651174619355.832031,463021711678.635376,-32.019619,160.691862,8.723597
-2.420000,-0.840000,3.584957,0.040000,-82321192952.843033,-197276318321.235291,4457822529395.113281,-352513025673.799011,-27.798148,59.906613,-6.641550
-2.380000,-0.840000,3.550518,0.040000,-82336514367.974457,413157595.014157,10520684806.925182,1501935255.390159,-0.054016,0.136416,0.028297
-2.340000,-0.840000,3.516197,0.040000,-82358248887.713837,4184009343.844922,-4180788563.133811,4827389380.155598,0.078811,-0.078787,0.090951
-2.300000,-0.840000,3.481998,0.040000,-82386683120.291458,4425658303.604214,-4422024742.271564,6072291039.871902,0.083361,-0.083334,0.114405
-2.260000,-0.840000,3.447923,0.040000,-82422203965.640533,4731070528.819394,-4727056216.816498,7344929770.953925,0.089113,-0.089083,0.138383
-2.220000,-0.840000,3.413976,0.040000,-82465300640.249771,5106555105.044429,-5102078933.977718,8652095533.890711,0.096185,-0.096151,0.163010
-2.180000,-0.840000,3.380163,0.040000,-82516574622.094650,5560154454.585398,-5555111257.229910,10001433279.502024,0.104728,-0.104690,0.188433
-2.140000,-0.840000,3.346485,0.040000,-82576752534.413483,6101770993.296123,-6096037204.924764,11401642446.993048,0.114928,-0.114885,0.214814
-2.100000,-0.840000,3.312948,0.040000,-82646702016.448441,6743467887.649765,-6736897736.398093,12862768093.102392,0.127014,-0.126964,0.242342
-2.060000,-0.840000,3.279557,0.040000,-82727451058.343002,7499856357.698266,-7492276426.605443,14396570486.548904,0.141259,-0.141202,0.271240
-2.020000,-0.840000,3.246314,0.040000,-82820211421.294617,8388579451.624256,-8379781859.266830,16016995357.564854,0.157996,-0.157930,0.301769
-1.980000,-0.840000,3.213226,0.040000,-82926406919.055237,9430915384.947250,-9420649215.496038,17740777159.269249,0.177626,-0.177549,0.334247
-1.940000,-0.840000,3.180296,0.040000,-83047707528.797531,10652531100.309811,-10640491557.810991,19588219275.343002,0.200632,-0.200541,0.369053
-1.900000,-0.840000,3.147530,0.040000,-83186070540.523087,12084425982.570429,-12070240578.048355,21584211264.122143,0.227597,-0.227491,0.406659
-1.860000,-0.840000,3.114934,0.040000,-83343790259.494476,13764117802.253368,-13747328666.091251,23759566185.477524,0.259229,-0.259103,0.447644
-1.820000,-0.840000,3.082511,0.040000,-83523558165.129013,15737138891.311367,-15717180020.341686,26152793998.134575,0.296384,-0.296234,0.492734
-1.780000,-0.840000,3.050269,0.040000,-83728535927.978943,18058931418.496735,-18035099306.279018,28812474758.545387,0.340106,-0.339926,0.542844
-1.740000,-0.840000,3.018212,0.040000,-83962444327.354584,20797257809.347942,-20768673454.546413,31800465271.937149,0.391671,-0.391455,0.599139
-1.700000,-0.840000,2.986347,0.040000,-84229671939.429626,24035277382.818554,-24000837131.027599,35196276356.582306,0.452644,-0.452384,0.663118
-1.660000,-0.840000,2.954679,0.040000,-84535408535.481766,27875484588.748817,-27833796673.673977,39103112861.917404,0.524955,-0.524640,0.736725
-1.620000,-0.840000,2.923216,0.040000,-84885809513.217224,32444758457.983257,-32394061594.119347,43656303376.294991,0.610992,-0.610609,0.822510
-1.580000,-0.840000,2.891964,0.040000,-85288199467.519440,37900835223.417732,-37838895480.662041,49035206699.003532,0.713724,-0.713257,0.923852
-1.540000,-0.840000,2.860930,0.040000,-85751325289.529953,44440578658.667633,-44364561857.025429,55480241744.586990,0.836857,-0.836284,1.045280
-1.500000,-0.840000,2.830121,0.040000,-86285672062.961090,52310463543.090820,-52216784198.957756,63317568894.490982,0.985030,-0.984324,1.192940
-1.460000,-0.840000,2.799545,0.040000,-86903858564.720734,61819653303.576416,-61703811386.852234,72995358490.142929,1.164063,-1.163190,1.375275
-1.420000,-0.840000,2.769208,0.040000,-87621133307.713486,73355820384.706528,-73212261790.629333,85137862844.339813,1.381255,-1.380173,1.604047
-1.380000,-0.840000,2.739120,0.040000,-88455996391.335236,87403152363.180298,-87225245493.267853,100627256226.135956,1.645720,-1.644380,1.895876
-1.340000,-0.840000,2.709288,0.040000,-89430975768.338730,104560200623.916962,-104340547976.066803,120729452380.309875,1.968733,-1.967078,2.274613
-1.300000,-0.840000,2.679721,0.040000,-90573585921.672287,125551021193.865707,-125282605739.880203,147290651310.519501,2.363937,-2.361914,2.775041
-1.260000,-0.840000,2.650428,0.040000,-91917485382.412155,151213450706.735626,-150892742963.287964,183049381912.019409,2.847136,-2.844719,3.448756
-1.220000,-0.840000,2.621418,0.040000,-93503811055.212387,182426606639.431183,-182061180685.268738,232139943032.969116,3.434958,-3.432204,4.373651
-1.180000,-0.840000,2.592701,0.040000,-95382565774.587875,219889987616.918915,-219516542544.762939,300917416333.157959,4.140744,-4.137930,5.669459
-1.140000,-0.840000,2.564286,0.040000,-97613688003.126251,263550201936.349396,-263277131280.344513,399328631736.941284,4.963895,-4.961837,7.523583
-1.100000,-0.840000,2.536183,0.040000,-100266844485.459961,311190431664.438293,-311300093776.155212,543209372608.374207,5.863628,-5.864454,10.234379
-1.060000,-0.840000,2.507749,0.040000,-103417587104.956070,355003292058.803284,-356202569668.479248,758100248452.872314,6.695246,-6.704284,14.283048
-1.020000,-0.840000,2.479481,0.040000,-107134141175.679199,373254436443.151245,-377291541962.175659,1085242557058.366577,7.055148,-7.085573,20.446599
-0.980000,-0.840000,2.451303,0.040000,-111440889167.584946,310087589765.727905,-321240667879.091553,1589299965523.189941,5.905269,-5.989321,29.943333
-0.940000,-0.840000,2.422864,0.040000,-116224891907.915695,27803810981.144787,-56327882357.558571,2360965117277.639648,0.685063,-0.900027,44.481951
-0.900000,-0.840000,2.394755,0.040000,-121006520619.665909,-798650162916.860107,729146872978.322021,3481418545880.031738,-14.654187,14.130394,65.591944
-0.860000,-0.840000,2.366337,0.040000,-124403377925.751266,-2874974380412.871094,2717542142478.969727,4819840178770.905273,-53.276350,52.089904,90.808583
-0.820000,-0.840000,2.338054,0.040000,-123000992985.473175,-7379746189620.108398,7131140014802.741211,5220262528157.347656,-137.633531,135.759977,98.352772
-0.780000,-0.840000,2.309909,0.040000,-109667221812.602203,-13747432736403.126953,14610685786723.380859,-246956717162.158417,-263.888859,270.394534,-4.652808
-0.740000,-0.840000,2.281442,0.040000,-74568500628.053650,-11690257950787.646484,14054851715053.722656,-14855594096739.644531,-233.616332,251.436459,-279.888005
-0.700000,-0.840000,2.253327,0.040000,-18892388916.547485,6412969994077.898438,-4101936732373.064941,-20790622743284.234375,107.761710,-90.345228,-391.707385
-0.660000,-0.840000,2.224928,0.040000,33705246554.280266,14571980921847.654297,-15721828746895.517578,-10215281304528.050781,281.043708,-289.709228,-192.461822
-0.620000,-0.840000,2.196626,0.040000,63452697092.922386,12739270923764.003906,-14902457101769.900391,672997711005.005127,252.241954,-268.544226,12.679667
-0.580000,-0.840000,2.168519,0.040000,68017901576.530548,7543073793544.644531,-3686875035377.341309,5253038305317.134766,120.319977,-91.258769,98.970287
-0.540000,-0.840000,2.140022,0.040000,55837000229.849266,7486636427607.606445,6192494543241.515625,5400367721378.618164,63.735743,39.353360,101.746059
-0.500000,-0.840000,2.111898,0.040000,87244824479.321686,-4321985046042.177246,-8078299294675.113281,3587065630718.878906,-11.340140,-82.111278,67.582396
-0.460000,-0.840000,2.084163,0.040000,72013842154.717636,-1614856909110.682129,-2103597376542.199463,2012862384344.003174,-9.407490,-18.615644,37.923494
-0.420000,-0.840000,2.056831,0.040000,63193988846.488426,-903109730665.079712,2592977687578.024902,2465616807857.383301,-26.566538,39.301775,46.453650
-0.380000,-0.840000,2.029920,0.040000,59833967275.610321,694190688962.789185,168043390706.298004,2123935641657.165283,8.205458,-1.707462,40.016179
-0.340000,-0.840000,2.003446,0.040000,57538877537.235992,523853197330.436462,-710813894254.104370,287828162551.999268,10.926432,-12.335411,5.422849
-0.300000,-0.840000,1.977427,0.040000,53623648560.995094,-480535112121.908569,456361083910.906006,-162441676388.980957,-8.916924,8.734743,-3.060495
-0.260000,-0.840000,1.951880,0.040000,50297582536.068375,-683469106624.950562,780277227623.734497,437159264604.727234,-13.424131,14.153699,8.236334
-0.220000,-0.840000,1.926826,0.040000,48086938669.691544,-94594217188.003479,126980211453.339462,596194005615.023560,-1.965261,2.209330,11.232641
-0.180000,-0.840000,1.902282,0.040000,46202571464.552132,49206921251.533943,-65525683650.106453,144156271493.597229,1.019323,-1.142305,2.715988
-0.140000,-0.840000,1.878270,0.040000,44287610647.699715,-189532623104.718781,209586658052.538818,8513752852.498848,-3.684253,3.835385,0.160404
-0.100000,-0.840000,1.854809,0.040000,42666310408.980080,-247805793868.595123,254478649364.110107,211822910486.973389,-4.706521,4.756809,3.990866
-0.060000,-0.840000,1.831922,0.040000,41388991418.554482,25600675972.032379,-22568420478.068119,231873632888.271912,0.465193,-0.442341,4.368634
-0.020000,-0.840000,1.809629,0.040000,40128838240.572357,35488295621.814911,-50174593328.514297,33225344571.213661,0.751630,-0.862309,0.625985
0.020000,-0.840000,1.787954,0.040000,38823661214.468735,-112154215278.572403,128897361384.388474,41664736827.034790,-2.207686,2.333866,0.784988
0.060000,-0.840000,1.766918,0.040000,37684943782.742561,-80941276248.854950,75620280965.804199,242941464008.919220,-1.494905,1.454805,4.577158
0.100000,-0.840000,1.746545,0.040000,36612688788.086945,218342298793.657684,-228606479789.629944,178289912357.243500,4.171710,-4.249064,3.359085
0.140000,-0.840000,1.726858,0.040000,35253232523.973549,106102014831.538315,-130085017224.923950,-79762446940.614944,2.134580,-2.315321,-1.502771
0.180000,-0.840000,1.707882,0.040000,33734582905.125217,-213987442515.783905,236924304659.566833,107914789129.089249,-4.161291,4.334148,2.033177
0.220000,-0.840000,1.689639,0.040000,32491046374.774822,2581550475.010536,-50008151700.826530,679874529050.988647,0.316701,-0.674119,12.809230
0.260000,-0.840000,1.672154,0.040000,31000455335.696068,809749660139.637329,-950395555603.219116,336080987921.211670,16.051108,-17.111048,6.331961
0.300000,-0.840000,1.655452,0.040000,28192989322.128071,413783174815.492981,-366139181366.234558,-659352132224.907959,7.526623,-7.167567,-12.422576
0.340000,-0.840000,1.639555,0.040000,25017266588.058949,-1226641475195.548828,1534476134160.459717,-48763557567.992126,-24.850572,27.170485,-0.918734
0.380000,-0.840000,1.624488,0.040000,25098641857.431557,-1486476807531.761719,59933334713.840637,2715656255570.819824,-19.943013,9.192251,51.164538
0.420000,-0.840000,1.610274,0.040000,23952004131.217854,1216187571689.852539,-4000850838913.895020,2857353213019.431641,38.653080,-59.638948,53.834191
0.460000,-0.840000,1.596935,0.040000,14190017212.944588,2566524164212.341309,3781069741669.451660,1492625085815.303711,12.477098,35.359841,28.121922
0.500000,-0.840000,1.584494,0.040000,-6179139255.457208,7708691582874.669922,13358849796700.572266,3202309242942.846191,26.158810,132.611067,60.333363
0.540000,-0.840000,1.572972,0.040000,51823451873.765236,-10859742648996.886719,-12208152475773.767578,4955368862732.605469,-74.220092,-99.624915,93.362022
0.580000,-0.840000,1.562390,0.040000,32831294054.983509,-7558466694848.493164,947121446299.284058,3908272279985.383789,-105.037421,55.212790,73.634115
0.620000,-0.840000,1.552766,0.040000,33464093928.961288,-10885128497351.617188,13723383411826.388672,-995033577048.653320,-221.124441,242.514189,-18.747009
0.660000,-0.840000,1.544119,0.040000,58389027401.888695,-11082287222006.791016,12017631827841.917969,-9237855319805.773438,-214.083446,221.132420,-174.046550
0.700000,-0.840000,1.536465,0.040000,100715837021.822617,-4513195166288.396484,2411507617381.237305,-16262306096907.734375,-73.152110,57.313305,-306.391274
0.740000,-0.840000,1.529818,0.040000,143875683946.654724,9293681353893.220703,-11103943328592.017578,-11292115872048.785156,185.330260,-198.972814,-212.750009
0.780000,-0.840000,1.524193,0.040000,170574066141.740601,10802081687205.537109,-11478735606160.144531,11370425337.255295,207.342047,-212.441468,0.214225
0.820000,-0.840000,1.519600,0.040000,180157963168.575714,5779719917629.593750,-5584344568790.744141,4242666734659.281738,107.788978,-106.316584,79.934301
0.860000,-0.840000,1.516049,0.040000,180396152263.310547,2231842535762.911133,-2108415767084.688477,3900197066004.082031,41.351578,-40.421405,73.481974
0.900000,-0.840000,1.513547,0.040000,176906778202.166016,591425295413.232422,-536695755340.235229,2829645263777.247559,10.833455,-10.421000,53.312157
0.940000,-0.840000,1.512100,0.040000,172386890117.251343,-64777074404.654404,87417797754.116135,1931473183716.519775,-1.348407,1.519033,36.390074
0.980000,-0.840000,1.511710,0.040000,167933503394.112732,-289732195955.122498,298679241730.598328,1308732066279.144287,-5.509293,5.576720,24.657271
1.020000,-0.840000,1.511710,0.040000,163928581431.330566,-339427411737.572937,342714184701.127991,898553027219.036499,-6.413587,6.438357,16.929260
1.060000,-0.840000,1.512100,0.040000,160461060332.876404,-323150821487.207031,324154899603.612000,629910326797.105713,-6.094024,6.101591,11.867876
1.100000,-0.840000,1.513547,0.040000,157508761412.543793,-285683403027.176758,285798159380.591187,451773617689.068481,-5.383090,5.383954,8.511677
1.140000,-0.840000,1.516049,0.040000,155013260381.571045,-244683671961.966614,244478213878.308563,331371179658.777466,-4.608821,4.607273,6.243225
1.180000,-0.840000,1.519600,0.040000,152909516244.279633,-206635120585.903168,206339306448.683990,248278548675.532928,-3.891453,3.889224,4.677712
1.220000,-0.840000,1.524193,0.040000,151136818271.564270,-173486790787.639465,173190403385.718475,189751638701.126190,-3.266916,3.264683,3.575031
1.260000,-0.840000,1.529818,0.040000,149642142207.815460,-145404401836.763306,145139125678.855530,147728210128.027283,-2.738004,2.736005,2.783285
1.300000,-0.840000,1.536465,0.040000,148380513965.289276,-121910631931.275253,121684303778.050125,117012988118.905380,-2.295588,2.293882,2.204593
1.340000,-0.840000,1.544119,0.040000,147314286339.633087,-102353291655.875443,102164422584.886566,94191681792.018753,-1.927328,1.925904,1.774626
1.380000,-0.840000,1.552766,0.040000,146412111413.359070,-86089827232.955612,85933770411.785370,76976317675.774323,-1.621100,1.619924,1.450278
1.420000,-0.840000,1.562390,0.040000,145647918002.459991,-72551746154.799301,72423254128.461365,63804774122.209709,-1.366191,1.365222,1.202119
1.460000,-0.840000,1.572972,0.040000,145000003296.783905,-61259161602.462540,61153371297.420395,53591581443.669861,-1.153560,1.152763,1.009696
1.500000,-0.840000,1.584494,0.040000,144450264593.218597,-51815868513.326675,51728609466.815041,45570056765.783981,-0.975748,0.975090,0.858566
1.540000,-0.840000,1.596935,0.040000,143983564372.741669,-43898032412.718170,43825855620.054855,39190492700.521278,-0.826656,0.826112,0.738372
1.580000,-0.840000,1.610274,0.040000,143587211091.938843,-37241924746.316605,37182027619.558060,34053331503.416336,-0.701321,0.700870,0.641585
1.620000,-0.840000,1.624488,0.040000,143250536242.910309,-31632767746.684967,31582890783.510540,29864547714.772675,-0.595698,0.595322,0.562665
1.660000,-0.840000,1.639555,0.040000,142964549885.078003,-26895295575.322098,26853621413.864731,26405366402.448406,-0.506487,0.506173,0.497492
1.700000,-0.840000,1.655452,0.040000,142721659546.990601,-22886041176.064209,22851106800.976448,23511387577.504837,-0.430989,0.430726,0.442968
1.740000,-0.840000,1.672154,0.040000,142515440138.818481,-19487142134.480492,19457766484.086655,21057980872.941257,-0.366983,0.366762,0.396745
1.780000,-0.840000,1.689639,0.040000,142340444942.216095,-16601406595.578279,16576632465.613745,18949924207.193138,-0.312640,0.312453,0.357028
1.820000,-0.840000,1.707882,0.040000,142192049761.564026,-14148393701.523212,14127441762.886223,17113957164.593662,-0.266446,0.266288,0.322437
1.860000,-0.840000,1.726858,0.040000,142066323946.949097,-12061298458.548405,12043531094.203783,15493364215.366104,-0.227141,0.227008,0.291904
1.900000,-0.840000,1.746545,0.040000,141959923289.744751,-10284469899.571320,10269362812.283438,14043990355.381363,-0.193680,0.193566,0.264597
1.940000,-0.840000,1.766918,0.040000,141870000808.004974,-8771426706.460909,8758546599.671738,12731280308.473078,-0.165186,0.165089,0.239865
1.980000,-0.840000,1.787954,0.040000,141794132237.397888,-7483263964.140411,7472250939.219659,11528057801.982271,-0.140927,0.140844,0.217195
2.020000,-0.840000,1.809629,0.040000,141730253671.281952,-6387368399.153398,6377922005.944202,10412845865.924665,-0.120288,0.120217,0.196184
2.060000,-0.840000,1.831922,0.040000,141676609288.720367,-5456378041.662547,5448246160.319274,9368586693.199337,-0.102755,0.102694,0.176510
2.100000,-0.840000,1.854809,0.040000,141631707501.567108,-4667336666.090206,4660306585.877422,8381659345.820341,-0.087896,0.087843,0.157915
2.140000,-0.840000,1.878270,0.040000,141594284164.370148,-4001004479.492214,3994895686.787403,7441121343.516823,-0.075347,0.075301,0.140195
2.180000,-0.840000,1.902282,0.040000,141563271741.578644,-3441295082.339974,3435953383.725768,6538119760.852838,-0.064806,0.064766,0.123182
2.220000,-0.840000,1.926826,0.040000,141537773529.155762,-2974815334.306198,2970108037.736197,5665431434.951921,-0.056021,0.055985,0.106740
2.260000,-0.840000,1.951880,0.040000,141517042192.790009,-2590490079.226810,2586302247.791179,4817102021.820600,-0.048783,0.048751,0.090757
2.300000,-0.840000,1.977427,0.040000,141500462021.102509,-2279261074.801322,2275496125.977157,3988162238.297974,-0.042921,0.042893,0.075139
2.340000,-0.840000,2.003446,0.040000,141487534413.567413,-2033893629.134405,2030509311.916233,3174424362.983089,-0.038301,0.038275,0.059808
2.380000,-0.840000,2.029920,0.040000,141477866360.685181,-1849855888.799963,1848120093.047693,2373149853.060634,-0.034843,0.034829,0.044712
2.420000,-0.840000,2.056831,0.040000,141471163887.577942,-1730869852.442019,1758156772.089474,1785252198.012955,-0.032765,0.032970,0.033635
2.460000,-0.840000,2.084163,0.040000,141467255443.404877,-1665315440.465689,1733922115.660475,1444950289.831776,-0.031763,0.032280,0.027224
-2.500000,-0.800000,3.634475,0.040000,-42068570784.743843,-138452585447.197571,24189488335746.609375,3558530501193.614746,-138.549164,319.803346,67.044778
-2.460000,-0.800000,3.599621,0.040000,-82924539508.400482,1472625084179.185059,17093637240199.767578,2054631059625.638428,-77.194633,217.114291,38.710440
-2.420000,-0.800000,3.564875,0.040000,-82936616191.455109,-871855361113.899048,5488263653406.351562,1341238569306.727783,-42.519003,77.309326,25.269712
-2.380000,-0.800000,3.530241,0.040000,-82956648103.458710,-46748796764.614769,146640665788.036804,7774063729.099921,-1.445381,2.198189,0.146468
-2.340000,-0.800000,3.495721,0.040000,-82984975078.925537,5386810862.076817,-5382955633.514282,4605645321.302528,0.101469,-0.101440,0.086773
-2.300000,-0.800000,3.461319,0.040000,-83021926299.015884,5650763828.814764,-5646771714.717950,5786937070.477141,0.106441,-0.106411,0.109029
-2.260000,-0.800000,3.427038,0.040000,-83067924789.801498,5983887611.985398,-5979506195.043454,6989887273.908396,0.112715,-0.112682,0.131694
-2.220000,-0.800000,3.392883,0.040000,-83123504173.414886,6393435414.258549,-6388548395.311766,8219781902.806525,0.120428,-0.120392,0.154865
-2.180000,-0.800000,3.358857,0.040000,-83189320498.909271,6888271016.688231,-6882758578.354251,9482448618.076891,0.129748,-0.129706,0.178655
-2.140000,-0.800000,3.324964,0.040000,-83266166456.904968,7479323154.209394,-7473045283.127121,10784462188.519009,0.140879,-0.140832,0.203186
-2.100000,-0.800000,3.291208,0.040000,-83354988897.967575,8179966626.755128,-8172756792.794364,12133361783.448206,0.154075,-0.154020,0.228600
-2.060000,-0.800000,3.257593,0.040000,-83456910272.867874,9006488271.193651,-8998146490.556574,13537923777.122021,0.169640,-0.169577,0.255062
-2.020000,-0.800000,3.224124,0.040000,-83573254742.626648,9978673007.175667,-9968957114.045527,15008510537.980158,0.187949,-0.187876,0.282769
-1.980000,-0.800000,3.190805,0.040000,-83705579898.836319,11120542930.514742,-11109157411.987057,16557520128.922401,0.209453,-0.209367,0.311953
-1.940000,-0.800000,3.157642,0.040000,-83855715280.548004,12461292391.916290,-12447873966.260765,18199970641.510975,0.234702,-0.234601,0.342898
-1.900000,-0.800000,3.124639,0.040000,-84025809188.838867,14036476355.928490,-14020575177.790737,19954265531.869987,0.264365,-0.264246,0.375950
-1.860000,-0.800000,3.091801,0.040000,-84218385707.141861,15889529027.862940,-15870583980.852608,21843204478.979435,0.299261,-0.299118,0.411539
-1.820000,-0.800000,3.059133,0.040000,-84436414366.209976,18073716886.638889,-18051022826.571316,23895330618.515297,0.340391,-0.340220,0.450202
-1.780000,-0.800000,3.026642,0.040000,-84683395590.918945,20654667974.508026,-20627331936.018349,26146743639.043144,0.388991,-0.388785,0.492620
-1.740000,-0.800000,2.994332,0.040000,-84963465992.718872,23713672065.831665,-23680554223.310783,28643565583.504917,0.446592,-0.446343,0.539661
-1.700000,-0.800000,2.962210,0.040000,-85281528811.421127,27352020714.625362,-27311654127.093552,31445332408.419418,0.515100,-0.514796,0.592448
-1.660000,-0.800000,2.930282,0.040000,-85643416483.005615,31696761773.552475,-31647242380.460293,34629715618.182739,0.596905,-0.596532,0.652444
-1.620000,-0.800000,2.898554,0.040000,-86056094586.414581,36908393934.706070,-36847228530.111404,38299180905.551491,0.695030,-0.694569,0.721579
-1.580000,-0.800000,2.867033,0.040000,-86527919545.241302,43191244108.910149,-43115138527.243164,42590508043.189964,0.813318,-0.812744,0.802430
-1.540000,-0.800000,2.835726,0.040000,-87068966780.114807,50807584999.428757,-50712146673.309532,47688600998.464973,0.956705,-0.955986,0.898481
-1.500000,-0.800000,2.804640,0.040000,-87691452031.674927,60097007608.318405,-59976324823.413055,53846833624.591782,1.131580,-1.130671,1.014506
-1.460000,-0.800000,2.773783,0.040000,-88410277039.845184,71503229513.464203,-71349272558.813446,61417520812.626122,1.346292,-1.345132,1.157142
-1.420000,-0.800000,2.743161,0.040000,-89243742746.380020,85611486108.823654,-85413251483.808044,70898362694.093460,1.611850,-1.610356,1.335766
-1.380000,-0.800000,2.712784,0.040000,-90214490240.680740,103201034877.115662,-102943322201.251144,83004579168.603714,1.942911,-1.940969,1.563854
-1.340000,-0.800000,2.682660,0.040000,-91350754016.517548,125319219208.526184,-124980895263.419678,98783227319.381058,2.359174,-2.356625,1.861133
-1.300000,-0.800000,2.652796,0.040000,-92688046818.630524,153386016860.714081,-152937598567.628387,119798318039.638657,2.887347,-2.883968,2.257070
-1.260000,-0.800000,2.623202,0.040000,-94271444372.126984,189340723166.971588,-188741149096.879211,148437543973.226074,3.563900,-3.559382,2.796649
-1.220000,-0.800000,2.593888,0.040000,-96158705847.433258,235844040037.171326,-235036728085.140686,188433157280.787811,4.438875,-4.432791,3.550190
-1.180000,-0.800000,2.564862,0.040000,-98424554225.409439,296544932430.306030,-295454036301.013550,245770782524.939117,5.580913,-5.572691,4.630464
-1.140000,-0.800000,2.536135,0.040000,-101166542239.370941,376397483277.321594,-374928153290.082947,330325920985.257690,7.083242,-7.072169,6.223532
-1.100000,-0.800000,2.507717,0.040000,-104513000993.487732,481915529176.261414,-479973088192.759827,458926165553.682129,9.068589,-9.053950,8.646435
-1.060000,-0.800000,2.479619,0.040000,-108633436401.933411,620883045307.125854,-618468951794.579712,661340850346.670288,11.684152,-11.665958,12.460045
-1.020000,-0.800000,2.451181,0.040000,-113750750061.162186,799682454185.101196,-797277387606.559570,992478676986.565430,15.052887,-15.034762,18.698874
-0.980000,-0.800000,2.422914,0.040000,-120150447456.618027,1011733421308.751465,-1011649104767.765259,1557636264098.303223,19.061168,-19.060532,29.346770
-0.940000,-0.800000,2.394738,0.040000,-128166480095.500885,1195571237411.121338,-1206288831877.441406,2563230494908.169434,22.585833,-22.666603,48.292748
-0.900000,-0.800000,2.366295,0.040000,-138070682948.507751,1094589178876.285645,-1144665226524.318359,4408724392003.740234,20.905733,-21.283118,83.062923
-0.860000,-0.800000,2.338191,0.040000,-149621434997.366943,-197282167977.410522,4581349715.146535,7800768038028.395508,-2.627732,1.175494,146.970992
-0.820000,-0.800000,2.309770,0.040000,-160469237767.883148,-5708971200472.192383,4925584480072.288086,13484388138443.314453,-103.132489,97.228705,254.053690
-0.780000,-0.800000,2.281486,0.040000,-160872231441.691406,-18035656227966.066406,31671122710804.949219,2588683552444.501465,-416.872247,519.632284,48.772299
-0.740000,-0.800000,2.253345,0.040000,-120525337711.540039,3981402019752.490723,36348842563271.890625,-43064051789593.867188,-152.941634,456.879709,-811.351700
-0.700000,-0.800000,2.224874,0.040000,-9775513032.713161,47113639485939.523438,-24123705930869.156250,-42465240170331.484375,757.705177,-584.447707,-800.069742
-0.660000,-0.800000,2.196762,0.040000,75463139739.889236,47954723705650.445312,-37077037194093.617188,2748594078693.982422,842.012219,-760.035451,51.785106
-0.620000,-0.800000,2.168361,0.040000,120585769721.216736,13718190437220.800781,-21313420115275.902344,14289765771437.906250,301.388219,-358.627632,269.227471
-0.580000,-0.800000,2.140059,0.040000,108044034086.290283,2437949760000.301270,-3232260660420.895020,10998970642990.083984,50.421970,-56.408081,207.226983
-0.540000,-0.800000,2.111956,0.040000,93235445339.354736,-575900281737.519897,4337876522097.176270,8573523455708.247070,-32.113639,60.464764,161.530152
-0.500000,-0.800000,2.083453,0.040000,92994387896.970673,-2648328466649.027344,-1733355546155.807129,5429145314305.965820,-25.130004,-7.891383,102.288245
-0.460000,-0.800000,2.055334,0.040000,81678807999.839981,-1598295602350.254395,-463459065140.127380,1976492248371.737061,-18.459420,2.921558,37.238260
-0.420000,-0.800000,2.027614,0.040000,72090684534.941238,-1710527587306.608154,1882912508388.289307,1119634217107.993164,-33.201681,34.500814,21.094558
-0.380000,-0.800000,2.000310,0.040000,65508111080.252731,-825212225004.608887,969422541248.225098,1279263624556.993652,-16.362578,17.449381,24.102068
-0.340000,-0.800000,1.973439,0.040000,60652455357.250282,-360902466823.627563,337911806190.085754,682714505116.736084,-6.669664,6.496402,12.862737
-0.300000,-0.800000,1.947018,0.040000,56421256215.963440,-405870240019.975037,404526961146.154480,254983748311.022644,-7.639238,7.629115,4.804042
-0.260000,-0.800000,1.921067,0.040000,52837403610.923653,-464144657961.705872,476422834136.562256,251253417805.648499,-8.814153,8.906684,4.733760
-0.220000,-0.800000,1.895606,0.040000,49970225829.467865,-295836710497.116516,299788580423.093079,275708129752.696289,-5.596072,5.625854,5.194501
-0.180000,-0.800000,1.870653,0.040000,47595029682.087120,-183427273590.778900,175663730873.692627,173167015781.282928,-3.411995,3.353487,3.262567
-0.140000,-0.800000,1.846229,0.040000,45522208582.524551,-173312596768.448700,173715755668.198456,103483773385.117950,-3.267589,3.270627,1.949694
-0.100000,-0.800000,1.822356,0.040000,43724177704.906410,-150242043090.876282,152435123363.255066,117605458311.879013,-2.843043,2.859570,2.215755
-0.060000,-0.800000,1.799056,0.040000,42159172880.915810,-73553032108.236740,72545180107.526978,114271446518.550705,-1.380085,1.372490,2.152940
-0.020000,-0.800000,1.776351,0.040000,40718032526.797722,-36341018208.300636,34196300168.883018,73500134784.524521,-0.672564,0.656400,1.384785
0.020000,-0.800000,1.754264,0.040000,39339116331.569672,-35965458731.329193,38525544291.646461,73654215676.323975,-0.692080,0.711374,1.387688
0.060000,-0.800000,1.732819,0.040000,38013224025.309883,6438204277.908484,-6033046627.140835,108648988459.572906,0.119009,-0.115956,2.047010
0.100000,-0.800000,1.712041,0.040000,36671063907.182709,82135058330.180634,-85424733348.856415,94814837497.194168,1.566066,-1.590858,1.786367
0.140000,-0.800000,1.691953,0.040000,35206804291.814140,85884814167.869598,-85755291871.187134,68162374116.101082,1.617388,-1.616411,1.284219
0.180000,-0.800000,1.672580,0.040000,33607828608.158657,80412161738.879456,-69800689556.013870,148964911454.955139,1.455034,-1.375063,2.806585
0.220000,-0.800000,1.653948,0.040000,31868494989.165287,210957045666.191284,-218315554806.606598,249001790990.755066,4.016145,-4.071600,4.691338
0.260000,-0.800000,1.636082,0.040000,29768050807.388386,389570496345.070129,-410506798449.328979,143646186034.931122,7.458070,-7.615850,2.706377
0.300000,-0.800000,1.619007,0.040000,27084606674.683422,201996888010.186371,-199330504043.416016,77395861345.869507,3.790668,-3.770573,1.458183
0.340000,-0.800000,1.602749,0.040000,24081890774.510468,34580155368.592491,1763170798.607676,644875431458.752686,0.446091,-0.172200,12.149827
0.380000,-0.800000,1.587333,0.040000,20948754016.534790,680770424084.139160,-922179273591.856079,1372886712489.548096,14.190594,-16.009907,25.865982
0.420000,-0.800000,1.572783,0.040000,16056758218.277061,1980880425164.411133,-2267051398355.666016,659428939528.444946,38.938424,-41.095074,12.424023
0.460000,-0.800000,1.559123,0.040000,7552696833.221180,1595194097288.052490,1905288188264.158447,1352247144588.971191,10.269047,16.111399,25.477120
0.500000,-0.800000,1.546378,0.040000,-2106098014.359146,3307663885099.090820,4143407535945.137207,5799813018975.085938,20.203554,35.949448,109.271839
0.540000,-0.800000,1.534570,0.040000,8844107227.981594,357728920792.354797,-6653541962287.144531,8485208571850.376953,42.324850,-89.771557,159.866248
0.580000,-0.800000,1.523721,0.040000,-4114957146.353397,-1545258850224.311768,2366873137365.450195,8240490410608.787109,-33.757479,39.949355,155.255616
0.620000,-0.800000,1.513852,0.040000,-17876684337.240646,-9489492239174.941406,20600826303902.703125,9341630075406.419922,-241.590727,325.328318,176.001726
0.660000,-0.800000,1.504981,0.040000,32587186501.456863,-39892050784555.914062,25825795754644.269531,892841004369.699829,-672.084443,566.077883,16.821642
0.700000,-0.800000,1.497126,0.040000,96429921005.070190,-37696547023125.031250,17335045203784.441406,-33372462299022.058594,-595.138050,441.689050,-628.756536
0.740000,-0.800000,1.490305,0.040000,181522677760.015869,-3664709968743.754395,-28259394185955.992188,-33571310748022.519531,111.395328,-351.982780,-632.502956
0.780000,-0.800000,1.484530,0.040000,211856739271.844086,14022799018361.974609,-24799676514346.457031,2150577426598.414062,325.110449,-406.327496,40.518125
0.820000,-0.800000,1.479814,0.040000,210383204832.866943,4431622862947.763672,-3820722535790.083008,10722361245639.931641,80.041429,-75.437542,202.015502
0.860000,-0.800000,1.476167,0.040000,200792898779.432404,109929350428.688766,40371253444.159782,6249607860331.124023,1.221608,-0.088907,117.746235
0.900000,-0.800000,1.473597,0.040000,190723774734.250122,-915723269370.878296,955509548149.133423,3567315387180.085938,-17.477636,17.777475,67.210290
0.940000,-0.800000,1.472111,0.040000,182037172610.692535,-1001844304539.490356,1010662727216.086670,2094688215845.044189,-18.925171,18.991628,39.465140
0.980000,-0.800000,1.471710,0.040000,174933557666.612610,-858048089814.494141,858203206440.021973,1283841793444.918701,-16.167000,16.168169,24.188324
1.020000,-0.800000,1.471710,0.040000,169200579682.166077,-688289587230.785522,686494933005.924805,823042049709.679199,-12.957631,12.944106,15.506589
1.060000,-0.800000,1.472111,0.040000,164570989417.363586,-542920362731.407532,541052127174.661926,549967779558.149292,-10.218375,10.204295,10.361712
1.100000,-0.800000,1.473597,0.040000,160812745851.707397,-428274713213.460205,426747513895.103333,381117716914.116516,-8.060312,8.048803,7.180479
1.140000,-0.800000,1.476167,0.040000,157742027895.219940,-339886587811.834839,338718236090.457825,272617470070.335815,-6.397057,6.388252,5.136271
1.180000,-0.800000,1.479814,0.040000,155216903993.701019,-271887585445.864990,271010347311.029968,200527826180.417725,-5.117561,5.110950,3.778060
1.220000,-0.800000,1.484530,0.040000,153128140576.380432,-219278365067.267395,218620767348.222656,151227820206.794189,-4.127615,4.122659,2.849220
1.260000,-0.800000,1.490305,0.040000,151391229153.985077,-178225416708.214813,177729726033.443207,116656514414.273560,-3.355068,3.351333,2.197876
1.300000,-0.800000,1.497126,0.040000,149940237517.355469,-145886060345.995209,145509123578.890961,91874086027.762329,-2.746447,2.743607,1.730961
1.340000,-0.800000,1.504981,0.040000,148723240763.324097,-120170799528.880310,119881250151.230957,73758615806.700241,-2.262451,2.260269,1.389655
1.380000,-0.800000,1.513852,0.040000,147698960500.973602,-99541154757.962662,99316392737.365997,60282035418.004234,-1.874143,1.872449,1.135748
1.420000,-0.800000,1.523721,0.040000,146834289971.135559,-82856694566.126465,82680428324.699646,50093888268.521980,-1.560072,1.558743,0.943798
1.460000,-0.800000,1.534570,0.040000,146102459710.131317,-69264185736.269043,69124606108.455215,42274746950.866577,-1.304188,1.303137,0.796481
1.500000,-0.800000,1.546378,0.040000,145481665501.972565,-58118587436.369637,58007062542.580070,36186108052.122940,-1.094358,1.093517,0.681767
1.540000,-0.800000,1.559123,0.040000,144954031433.593292,-48926978506.806847,48837136241.033043,31376690467.924412,-0.921305,0.920628,0.591155
1.580000,-0.800000,1.572783,0.040000,144504817749.117340,-41308664885.531151,41235751183.939835,27522557216.182812,-0.777867,0.777318,0.518541
1.620000,-0.800000,1.587333,0.040000,144121809253.602722,-34966622286.001724,34907051670.035797,24388007480.620918,-0.658455,0.658006,0.459484
1.660000,-0.800000,1.602749,0.040000,143794838279.535675,-29666882232.179550,29617921398.407825,21799510871.245335,-0.558665,0.558296,0.410715
1.700000,-0.800000,1.619007,0.040000,143515409029.187561,-25223509705.761753,25183053141.634079,19628004659.336216,-0.474997,0.474692,0.369803
1.740000,-0.800000,1.636082,0.040000,143276399115.465607,-21487544463.891796,21453953953.664902,17776660010.621010,-0.404648,0.404395,0.334923
1.780000,-0.800000,1.653948,0.040000,143071820509.037140,-18338775718.394260,18310764475.888714,16172291249.665352,-0.345355,0.345144,0.304695
1.820000,-0.800000,1.672580,0.040000,142896626662.541382,-15679560904.773283,15656109110.731075,14759234178.167572,-0.295279,0.295103,0.278073
1.860000,-0.800000,1.691953,0.040000,142746555873.613342,-13430133417.088795,13410426037.638971,13494925158.532080,-0.252920,0.252772,0.254252
1.900000,-0.800000,1.712041,0.040000,142618003344.836884,-11525005703.008875,11508386253.188419,12346669679.304869,-0.217044,0.216919,0.232618
1.940000,-0.800000,1.732819,0.040000,142507916161.078461,-9910186245.910242,9896122064.051561,11289254709.616751,-0.186634,0.186528,0.212696
1.980000,-0.800000,1.754264,0.040000,142413706713.694763,-8541007377.781500,8529063282.965758,10303167559.589159,-0.160850,0.160760,0.194118
2.020000,-0.800000,1.776351,0.040000,142333181083.244110,-7380416137.939743,7370234247.421423,9373256022.243208,-0.138994,0.138917,0.176598
2.060000,-0.800000,1.799056,0.040000,142264479636.628357,-6397619672.888257,6388903783.952998,8487713165.200463,-0.120486,0.120420,0.159913
2.100000,-0.800000,1.822356,0.040000,142206027664.303864,-5567004820.038200,5559508203.063293,7637303363.446908,-0.104843,0.104787,0.143891
2.140000,-0.800000,1.846229,0.040000,142156494323.669067,-4867271866.633749,4860787626.999189,6814769179.259403,-0.091666,0.091617,0.128394
2.180000,-0.800000,1.870653,0.040000,142114758498.706635,-4280737313.996233,4275090701.460596,6014374839.346392,-0.080620,0.080577,0.113314
2.220000,-0.800000,1.895606,0.040000,142079880457.318817,-3792771383.887484,3787813566.825488,5231553512.844570,-0.071430,0.071393,0.098566
2.260000,-0.800000,1.921067,0.040000,142051078404.085663,-3391343807.510778,3386946412.973435,4462633742.909924,-0.063870,0.063837,0.084079
2.300000,-0.800000,1.947018,0.040000,142027709199.846130,-3066652576.883677,3062697624.929165,3704625132.328664,-0.057755,0.057725,0.069797
2.340000,-0.800000,1.973439,0.040000,142009252649.369843,-2810752011.211322,2807063495.074897,2955029907.705451,-0.052935,0.052908,0.055674
2.380000,-0.800000,2.000310,0.040000,141995298667.769257,-2618465034.059118,2617942431.824237,2212032649.478849,-0.049330,0.049327,0.041676
2.420000,-0.800000,2.027614,0.040000,141985533600.121063,-2493103807.899992,2527440393.107718,1667099690.364823,-0.047166,0.047424,0.031409
2.460000,-0.800000,2.055334,0.040000,141979685715.888336,-2391509217.102957,2450546420.496908,1350354935.098533,-0.045391,0.045836,0.025441
-2.500000,-0.760000,3.615111,0.040000,0.000041,-19192803676171.417969,37643601120460.070312,-1670744560130.571533,-465.890664,604.940151,-31.477796
-2.460000,-0.760000,3.580069,0.040000,-83529556787.085419,-1684899803655.253662,19916526196861.578125,-940963250497.372314,-134.792812,272.190576,-17.728293
-2.420000,-0.760000,3.545131,0.040000,-83544018069.868530,-1690209375996.382568,6347409283681.795898,-643165289691.451172,-58.167828,93.265567,-12.117607
-2.380000,-0.760000,3.510302,0.040000,-83568495751.866486,-96045770581.412506,288638193475.413208,1132449594.809642,-2.898124,4.349545,0.021336
-2.340000,-0.760000,3.475584,0.040000,-83603093563.175446,6526904298.697844,-6523237635.922700,4367253075.872506,0.122950,-0.122922,0.082282
-2.300000,-0.760000,3.440981,0.040000,-83648140634.475784,6806818999.175879,-6802621086.505684,5479967684.893973,0.128221,-0.128189,0.103246
-2.260000,-0.760000,3.406496,0.040000,-83704085050.298233,7160565985.966543,-7155923300.284317,6607993804.649385,0.134883,-0.134848,0.124498
-2.220000,-0.760000,3.372132,0.040000,-83771493446.566879,7595371440.785022,-7590191973.151861,7754819786.133295,0.143072,-0.143033,0.146105
-2.180000,-0.760000,3.337894,0.040000,-83851062328.332809,8120576168.938988,-8114733554.570335,8924276272.717476,0.152963,-0.152919,0.168139
-2.140000,-0.760000,3.303786,0.040000,-83943633034.263168,8747766008.149763,-8741109446.227524,10120600023.854898,0.164775,-0.164725,0.190678
-2.100000,-0.760000,3.269812,0.040000,-84050210309.386810,9491166007.253534,-9483515036.404953,11348554647.315016,0.178776,-0.178718,0.213813
-2.060000,-0.760000,3.235975,0.040000,-84171985110.376480,10368157915.108482,-10359294612.207346,12613587904.255180,0.195292,-0.195225,0.237647
-2.020000,-0.760000,3.202280,0.040000,-84310362473.582413,11399936477.892624,-11389595423.913969,13922034619.555182,0.214723,-0.214645,0.262299
-1.980000,-0.760000,3.168732,0.040000,-84466995499.219406,12612341998.145422,-12600197321.559029,15281379711.190184,0.237555,-0.237464,0.287910
-1.940000,-0.760000,3.135335,0.040000,-84643826788.280579,14036920503.912245,-14022568980.559862,16700601175.815512,0.264383,-0.264274,0.314649
-1.900000,-0.760000,3.102094,0.040000,-84843139034.496460,15712280982.248249,-15695219768.738312,18190620320.459457,0.295932,-0.295803,0.342722
-1.860000,-0.760000,3.069015,0.040000,-85067616951.150558,17685844274.089005,-17665441275.835438,19764897287.990536,0.333096,-0.332942,0.372382
-1.820000,-0.760000,3.036102,0.040000,-85320423342.296280,20016113566.902882,-19991567605.329639,21440225662.492950,0.376976,-0.376791,0.403946
-1.780000,-0.760000,3.003361,0.040000,-85605292966.841599,22775646596.052284,-22745933312.112946,23237803267.855503,0.428938,-0.428715,0.437814
-1.740000,-0.760000,2.970798,0.040000,-85926648972.963806,26054981641.205261,-26018779250.590191,25184691309.836613,0.490686,-0.490414,0.474494
-1.700000,-0.760000,2.938419,0.040000,-86289748215.465591,29967873771.663353,-29923460052.121971,27315827355.074158,0.564361,-0.564026,0.514646
-1.660000,-0.760000,2.906230,0.040000,-86700863878.392410,34658350873.082832,-34603458605.156593,29676839996.893063,0.652673,-0.652259,0.559129
-1.620000,-0.760000,2.874236,0.040000,-87167516756.642288,40310326278.775948,-40241937945.777451,32328042072.976608,0.759083,-0.758568,0.609079
-1.580000,-0.760000,2.842446,0.040000,-87698770670.584244,47160846793.434235,-47074899303.489754,35350184546.073067,0.888052,-0.887404,0.666018
-1.540000,-0.760000,2.810865,0.040000,-88305613349.679398,55518576816.531242,-55409531021.621170,38852885134.004799,1.045386,-1.044564,0.732011
-1.500000,-0.760000,2.779501,0.040000,-89001452569.129486,65789928313.503052,-65650132203.606880,42987192550.716652,1.238730,-1.237677,0.809904
-1.460000,-0.760000,2.748362,0.040000,-89802769667.663605,78516521657.934891,-78335253398.085175,47964666093.781303,1.478272,-1.476906,0.903682
-1.420000,-0.760000,2.717454,0.040000,-90729990881.551422,94429708346.936874,-94191713655.249771,54086929637.699173,1.777765,-1.775972,1.019029
-1.380000,-0.760000,2.686786,0.040000,-91808664518.867340,114531228410.626724,-114214444700.642975,61792441808.800713,2.156044,-2.153657,1.164205
-1.340000,-0.760000,2.656366,0.040000,-93071074295.230988,140214629159.398224,-139786578440.602173,71732257898.986435,2.639305,-2.636080,1.351477
-1.300000,-0.760000,2.626204,0.040000,-94558485184.084137,173451454984.379456,-172863420204.095123,84895903659.675919,3.264602,-3.260171,1.599488
-1.260000,-0.760000,2.596307,0.040000,-96324323168.307602,217082357304.195465,-216259797811.928619,102826234714.058075,4.085308,-4.079109,1.937306
-1.220000,-0.760000,2.566686,0.040000,-98438760630.334259,275281812889.919312,-274108206017.413177,127996582888.815643,5.179836,-5.170991,2.411530
-1.180000,-0.760000,2.537349,0.040000,-100995461511.299423,354318293648.367310,-352606814107.310120,164491971707.033875,6.665888,-6.652990,3.099124
-1.140000,-0.760000,2.508307,0.040000,-104121722421.928955,463839246712.516602,-461279832883.720398,219279545199.023376,8.724534,-8.705246,4.131354
-1.100000,-0.760000,2.479570,0.040000,-107994105845.533890,619145551994.544922,-615197971838.793579,304685607807.415771,11.642749,-11.612999,5.740453
-1.060000,-0.760000,2.451149,0.040000,-112863288130.960037,845432173693.381714,-839103198032.188599,443580085270.895386,15.892660,-15.844963,8.357306
-1.020000,-0.760000,2.423055,0.040000,-119095065562.097946,1185875845512.709717,-1175306563326.829834,681354488677.911743,22.282849,-22.203196,12.837114
-0.980000,-0.760000,2.394613,0.040000,-127240656295.920654,1715955328670.464355,-1697964615959.136230,1116295149408.248535,32.227907,-32.092324,21.031648
-0.940000,-0.760000,2.366346,0.040000,-138159054900.661774,2561938741692.936035,-2532435293899.628418,1979803829290.671387,48.101652,-47.879308,37.300652
-0.900000,-0.760000,2.338173,0.040000,-153218963047.357788,3897878098355.040527,-3854124331436.836914,3847591982101.543945,73.190979,-72.861241,72.490863
-0.860000,-0.760000,2.309727,0.040000,-174565064799.932739,5781318677704.707031,-5715173500995.623047,8228647746652.257812,108.549531,-108.051046,155.032494
-0.820000,-0.760000,2.281627,0.040000,-205150173658.754578,6986178726081.970703,-6228586708260.750977,19224409078282.031250,127.341615,-121.632226,362.199012
-0.780000,-0.760000,2.253202,0.040000,-246356608871.040131,-2230849283147.882324,74601488675726.875000,-6942258038043.778320,-451.081934,996.483854,-130.796166
-0.740000,-0.760000,2.224919,0.040000,-270289602660.733704,53941997005085.632812,114826809829259.375000,-73630955765043.046875,62.387847,1209.493016,-1387.249891
-0.700000,-0.760000,2.196781,0.040000,69619578161.524460,49757229983017.132812,-66622082226409.546875,-52857794894466.132812,1032.778136,-1159.875573,-995.871498
-0.660000,-0.760000,2.168305,0.040000,195326344664.189728,31758273165111.437500,-70653807944873.765625,28026388438174.031250,818.188604,-1111.314373,528.033405
-0.620000,-0.760000,2.140198,0.040000,197867826363.017151,-9217955451636.943359,-4089575897491.362305,37518022646652.585938,-98.455143,-1.833499,706.861296
-0.580000,-0.760000,2.111794,0.040000,149846796079.456299,-9090347273194.861328,4178180138121.497070,14121102101946.410156,-143.502989,106.483759,266.049750
-0.540000,-0.760000,2.083491,0.040000,119993524812.416916,-6842011622314.660156,6853777291018.832031,7429945834376.162109,-128.973967,129.062636,139.984487
-0.500000,-0.760000,2.055393,0.040000,101935631841.907898,-3557926895993.215332,2843644790488.468262,4270448729359.042480,-62.996159,57.613163,80.457730
-0.460000,-0.760000,2.026885,0.040000,88375415146.588776,-1961032496323.564453,1586758318107.723389,1553765208306.135254,-34.831526,32.010909,29.273837
-0.420000,-0.760000,1.998770,0.040000,77626464863.608078,-1689880622822.838623,1714434247046.769775,691803931848.887085,-31.977112,32.162154,13.033987
-0.380000,-0.760000,1.971067,0.040000,69534806128.544266,-1210200029711.869385,1215130652589.427490,621917347934.355591,-22.828739,22.865897,11.717283
-0.340000,-0.760000,1.943791,0.040000,63400320240.370895,-782232245641.692749,767150164857.577881,433807161205.974365,-14.652462,14.538800,8.173178
-0.300000,-0.760000,1.916962,0.040000,58535925807.230858,-570515154775.316772,562971473071.532349,240946822266.933258,-10.706198,10.649347,4.539578
-0.260000,-0.760000,1.890599,0.040000,54590794259.355133,-459358067436.641602,459792664519.900330,166267237672.341400,-8.657029,8.660304,3.132571
-0.220000,-0.760000,1.864721,0.040000,51379289716.451538,-345797718649.352173,345373221175.544495,140938707197.878174,-6.512630,6.509431,2.655367
-0.180000,-0.760000,1.839349,0.040000,48723584463.149376,-250920976515.643890,248902610511.888824,105006240926.791245,-4.716089,4.700878,1.978378
-0.140000,-0.760000,1.814504,0.040000,46473071765.457146,-192230178401.006744,191376398988.183655,75594911156.497238,-3.616902,3.610468,1.424252
-0.100000,-0.760000,1.790208,0.040000,44530685628.447670,-144516699787.957306,144562360319.654053,66388994994.630394,-2.723036,2.723381,1.250807
-0.060000,-0.760000,1.766484,0.040000,42818866450.369621,-94173358425.633530,93777202904.037323,59703210453.038315,-1.772042,1.769056,1.124843
-0.020000,-0.760000,1.743355,0.040000,41258932583.096832,-53572476312.144722,53177849748.500221,49102333765.106636,-1.007106,1.004132,0.925116
0.020000,-0.760000,1.720845,0.040000,39785759105.099442,-21550299191.400749,21922447106.431908,47552621971.787605,-0.408124,0.410928,0.895919
0.060000,-0.760000,1.698978,0.040000,38346045760.500183,18470232201.896614,-18341661433.499477,53346312154.970856,0.347263,-0.346294,1.005075
0.100000,-0.760000,1.677780,0.040000,36875900762.460808,64208866535.608536,-64567932791.491493,52804638484.901413,1.211762,-1.214468,0.994870
0.140000,-0.760000,1.657277,0.040000,35304260015.872902,101743837225.532806,-100782914701.161682,56516842987.919121,1.911482,-1.904240,1.064810
0.180000,-0.760000,1.637494,0.040000,33569381896.680733,150141987348.987457,-147996869574.298950,83343525112.220978,2.816638,-2.800471,1.570240
0.220000,-0.760000,1.618458,0.040000,31590152776.796940,236804548004.404358,-237629344952.851715,108266690843.550873,4.466197,-4.472413,2.039807
0.260000,-0.760000,1.600196,0.040000,29230547686.570862,326023428981.391052,-328424055407.152466,107796426181.386276,6.156039,-6.174131,2.030947
0.300000,-0.760000,1.582735,0.040000,26353740498.296326,383061591915.466309,-372980916159.870117,172357822947.647430,7.160125,-7.084154,3.247321
0.340000,-0.760000,1.566100,0.040000,22857222249.153996,561942020799.167358,-541508010156.436584,388992293768.967773,10.471817,-10.317821,7.328840
0.380000,-0.760000,1.550319,0.040000,18438192689.713104,1015900434332.667236,-1032141893518.694336,515632543908.771790,19.231953,-19.354352,9.714816
0.420000,-0.760000,1.535418,0.040000,12371970671.687948,1408986799166.276855,-1463875342322.286621,300112359304.427307,26.856368,-27.270020,5.654291
0.460000,-0.760000,1.521424,0.040000,4151048437.992701,1208858610170.977295,-597721961714.406128,1135032173042.547607,19.321346,-14.715679,21.384664
0.500000,-0.760000,1.508360,0.040000,-5414633689.761296,2839981857345.216797,-1671417066160.622314,4460342174335.853516,46.901973,-38.095398,84.035432
0.540000,-0.760000,1.496252,0.040000,-17438898280.827961,6674473264497.518555,-6826522427393.830078,6939075166032.900391,126.610354,-127.756232,130.736199
0.580000,-0.760000,1.485123,0.040000,-41464350287.186348,8587140485641.608398,-1958450935304.959473,10986514614402.324219,124.320199,-74.364857,206.992304
0.620000,-0.760000,1.474995,0.040000,-84567902400.425751,10349238619898.228516,8296134418472.948242,29195149405627.566406,89.598764,50.917091,550.053540
0.660000,-0.760000,1.465889,0.040000,-55426285678.155945,-29768691692017.492188,49506205227834.843750,21906007829060.625000,-672.419268,821.165747,412.721887
0.700000,-0.760000,1.457824,0.040000,35258460914.531563,-40782099447824.421875,50404582482020.156250,-41936359256584.867188,-822.746343,895.263606,-790.105319
0.740000,-0.760000,1.450818,0.040000,300312172169.160767,-43567575236416.101562,-89903737217602.343750,-58505329565348.398438,-66.435304,-939.435457,-1102.274325
0.780000,-0.760000,1.444885,0.040000,279885348615.143250,1533950325290.495117,-58739462566817.023438,-5762848063785.849609,352.236017,-783.350023,-108.575398
0.820000,-0.760000,1.440039,0.040000,246205019555.632690,-5497495221305.896484,4882234041210.293945,15198568813190.179688,-100.098434,95.461683,286.349847
0.860000,-0.760000,1.436291,0.040000,220903931306.027557,-4593427819316.683594,4546436706797.983398,6613399965662.046875,-86.277241,85.923105,124.600289
0.900000,-0.760000,1.433650,0.040000,202945055048.466431,-3144956819877.731934,3112075706106.318359,3139459182823.427246,-59.066960,58.819160,59.149231
0.940000,-0.760000,1.432122,0.040000,190054964684.643280,-2101487948111.882568,2078899102781.154297,1637878537211.301514,-39.465575,39.295340,30.858581
0.980000,-0.760000,1.431710,0.040000,180559618067.104462,-1432056559364.510742,1418113477661.015869,932734392127.220215,-26.901967,26.796889,17.573257
1.020000,-0.760000,1.431710,0.040000,173376685411.564087,-1007109611632.842896,998816209054.984497,572031252414.477905,-18.927653,18.865152,10.777400
1.060000,-0.760000,1.432122,0.040000,167817986407.502136,-730688092106.739014,725674991559.036621,371888103438.840881,-13.738252,13.700472,7.006587
1.100000,-0.760000,1.433650,0.040000,163436218882.212921,-544527285183.626770,541380344224.315674,253176935602.400299,-10.241423,10.217707,4.770000
1.140000,-0.760000,1.436291,0.040000,159930604493.391205,-414885977030.590820,412832519336.048096,179050607548.157990,-7.805086,7.789610,3.373417
1.180000,-0.760000,1.440039,0.040000,157091998562.995087,-321953566523.572205,320568292509.468262,130855821664.553116,-6.057962,6.047522,2.465400
1.220000,-0.760000,1.444885,0.040000,154770662793.517548,-253679400553.276398,252718198355.884491,98466704677.293640,-4.774034,4.766790,1.855170
1.260000,-0.760000,1.450818,0.040000,152856697650.870880,-202457078986.005341,201773591950.049164,76084093282.574036,-3.810546,3.805395,1.433468
1.300000,-0.760000,1.457824,0.040000,151267716402.346771,-163327791231.321442,162831094022.421936,60242576201.997345,-3.074383,3.070640,1.135005
1.340000,-0.760000,1.465889,0.040000,149940823176.719635,-132967855929.463303,132599816681.382370,48795175269.609482,-2.503111,2.500338,0.919329
1.380000,-0.760000,1.474995,0.040000,148827243481.324860,-109094288951.828369,108816812662.552002,40368628968.774139,-2.053831,2.051740,0.760568
1.420000,-0.760000,1.485123,0.040000,147888640083.388855,-90103764734.348389,89891319785.221054,34059330843.344635,-1.696406,1.694805,0.641698
1.460000,-0.760000,1.496252,0.040000,147094528114.167206,-74847212743.252640,74682325874.564041,29257718269.697182,-1.409233,1.407990,0.551232
1.500000,-0.760000,1.508360,0.040000,146420424036.975739,-62485713776.608711,62356190479.023438,25543609856.562298,-1.176535,1.175559,0.481256
1.540000,-0.760000,1.521424,0.040000,145846495194.797485,-52396358666.821556,52293531695.531296,22621961894.268604,-0.986597,0.985822,0.426211
1.580000,-0.760000,1.535418,0.040000,145356557699.534546,-44109491486.422241,44027095066.153702,20282337226.417778,-0.830583,0.829962,0.382131
1.620000,-0.760000,1.550319,0.040000,144937321274.350006,-37266072157.565208,37199504556.896652,18372678515.147881,-0.701738,0.701236,0.346152
1.660000,-0.760000,1.566100,0.040000,144577812224.006104,-31588186765.744061,31534018544.489552,16781939148.164900,-0.594834,0.594425,0.316181
1.700000,-0.760000,1.582735,0.040000,144268926967.668152,-26858306876.570930,26813947385.904408,15428334045.887651,-0.505775,0.505441,0.290679
1.740000,-0.760000,1.600196,0.040000,144003082703.497314,-22904471087.490585,22867938673.501163,14251237487.345119,-0.431327,0.431052,0.268502
1.780000,-0.760000,1.618458,0.040000,143773941334.864471,-19589540350.947773,19559301623.496708,13205497779.249670,-0.368907,0.368679,0.248799
1.820000,-0.760000,1.637494,0.040000,143576189359.893311,-16803298395.812521,16778154194.337612,12257385074.847679,-0.316442,0.316252,0.230936
1.860000,-0.760000,1.657277,0.040000,143405361012.883881,-14456567908.233833,14435571295.797628,11381662973.247263,-0.272251,0.272093,0.214437
1.900000,-0.760000,1.677780,0.040000,143257695194.112427,-12476774552.148232,12459171071.699829,10559446526.458172,-0.234970,0.234838,0.198946
1.940000,-0.760000,1.698978,0.040000,143130019056.139038,-10804564602.577274,10789748206.106979,9776619180.353718,-0.203481,0.203369,0.184197
1.980000,-0.760000,1.720845,0.040000,143019652810.713135,-9391198996.927755,9378679143.382584,9022652660.323870,-0.176865,0.176771,0.169992
2.020000,-0.760000,1.743355,0.040000,142924331569.587860,-8196526506.639967,8185903309.864672,8289721104.056940,-0.154367,0.154287,0.156183
2.060000,-0.760000,1.766484,0.040000,142842140963.947021,-7187393958.694450,7178339202.473989,7572032540.947674,-0.135363,0.135295,0.142661
2.100000,-0.760000,1.790208,0.040000,142771463989.795319,-6336390073.092793,6328632545.172349,6865322530.662202,-0.119337,0.119279,0.129347
2.140000,-0.760000,1.814504,0.040000,142710937062.819824,-5620846821.112374,5614160859.544646,6166469823.044434,-0.105862,0.105812,0.116180
2.180000,-0.760000,1.839349,0.040000,142659413679.977509,-5022041783.302242,5016238231.853566,5473204481.534708,-0.094585,0.094542,0.103118
2.220000,-0.760000,1.864721,0.040000,142615934407.887268,-4524559174.862988,4519478187.131474,4783886452.593151,-0.085217,0.085178,0.090131
2.260000,-0.760000,1.890599,0.040000,142579702172.886169,-4115777993.634649,4111283704.939355,4097338064.015200,-0.077518,0.077484,0.077196
2.300000,-0.760000,1.916962,0.040000,142550062031.819794,-3785469818.678100,3781453159.233017,3412719013.014890,-0.071298,0.071267,0.064298
2.340000,-0.760000,1.943791,0.040000,142526484782.778717,-3525571319.572732,3522021101.994353,2729452088.476732,-0.066404,0.066377,0.051424
2.380000,-0.760000,1.971067,0.040000,142508554178.176056,-3331023746.224249,3328652497.338734,2047886001.068613,-0.062745,0.062727,0.038583
2.420000,-0.760000,1.998770,0.040000,142495961664.419037,-3205700192.190747,3232229743.928757,1544079343.551472,-0.060547,0.060747,0.029091
2.460000,-0.760000,2.026885,0.040000,142488556546.541687,-3147600927.305378,3224051340.535159,1251308290.442992,-0.059735,0.060311,0.023575
-2.500000,-0.720000,3.596088,0.040000,-84411032590.948105,15840521344726.765625,9715957456530.189453,-3860607829688.573242,153.994942,38.604608,-72.736090
-2.460000,-0.720000,3.560858,0.040000,-84124159465.227905,3461797747375.291992,13965609654680.847656,-2285167665693.538086,-33.280461,164.617444,-43.053884
-2.420000,-0.720000,3.525731,0.040000,-84141512587.178253,-202688328187.903564,4561410783506.089844,-916390742783.256958,-28.455023,61.303366,-17.265333
-2.380000,-0.720000,3.490708,0.040000,-84170248609.212723,4035134595.840618,6561381000.425592,946094087.470445,0.016131,0.063727,0.017825
-2.340000,-0.720000,3.455793,0.040000,-84210781378.482651,7598299382.472566,-7593992313.871044,4116731090.683193,0.143132,-0.143100,0.077562
-2.300000,-0.720000,3.420989,0.040000,-84263477232.597610,7889476482.762761,-7885088689.186690,5157753326.851660,0.148618,-0.148584,0.097175
-2.260000,-0.720000,3.386301,0.040000,-84328802886.223923,8256515011.446037,-8251714413.632091,6207353035.054338,0.155530,-0.155494,0.116950
-2.220000,-0.720000,3.351730,0.040000,-84407346274.314575,8707278126.719767,-8701932586.969488,7267293863.219452,0.164020,-0.163980,0.136920
-2.180000,-0.720000,3.317282,0.040000,-84499829451.313248,9251332960.931114,-9245309994.302879,8339323507.877962,0.174266,-0.174221,0.157118
-2.140000,-0.720000,3.282960,0.040000,-84607123938.156784,9900521027.649069,-9893664943.786451,9425219765.927080,0.186493,-0.186441,0.177577
-2.100000,-0.720000,3.248767,0.040000,-84730269706.377808,10669404147.037951,-10661528310.073139,10526815077.075655,0.200973,-0.200914,0.198331
-2.060000,-0.720000,3.214709,0.040000,-84870498524.413818,11575808928.759239,-11566687390.904066,11646028070.191652,0.218043,-0.217975,0.219418
-2.020000,-0.720000,3.180789,0.040000,-85029262540.261520,12641515815.484917,-12630872694.166204,12784906244.033720,0.238113,-0.238033,0.240875
-1.980000,-0.720000,3.147011,0.040000,-85208269206.515656,13893134531.668940,-13880630264.427141,13945682845.294071,0.261684,-0.261590,0.262745
-1.940000,-0.720000,3.113381,0.040000,-85409523953.304733,15363221039.390354,-15348434399.990973,15130851751.427893,0.289368,-0.289257,0.285074
-1.900000,-0.720000,3.079904,0.040000,-85635382402.758957,17091710708.382700,-17074115025.298357,16343265355.577803,0.321918,-0.321786,0.307917
-1.860000,-0.720000,3.046584,0.040000,-85888614426.984909,19127769952.727497,-19106701324.772285,17586262197.737106,0.360259,-0.360100,0.331335
-1.820000,-0.720000,3.013426,0.040000,-86172483024.464539,21532207608.865040,-21506821963.322094,18863833714.393223,0.405536,-0.405344,0.355406
-1.780000,-0.720000,2.980436,0.040000,-86490841890.242462,24380643208.247162,-24349857638.717918,20180843531.563148,0.459171,-0.458939,0.380219
-1.740000,-0.720000,2.947620,0.040000,-86848256773.336304,27767710221.969570,-27730121928.199749,21543319106.745132,0.522947,-0.522664,0.405889
-1.700000,-0.720000,2.914983,0.040000,-87250157381.070984,31812690942.799732,-31766463878.312836,22958845741.418266,0.599108,-0.598760,0.432558
-1.660000,-0.720000,2.882532,0.040000,-87703028895.957260,36667155654.182274,-36609860024.767014,24437109572.077328,0.690507,-0.690075,0.460409
-1.620000,-0.720000,2.850273,0.040000,-88214655400.600372,42525443451.960609,-42453825432.395187,25990663399.482853,0.800799,-0.800259,0.489679
-1.580000,-0.720000,2.818212,0.040000,-88794432087.879120,49639226170.105049,-49548872812.180817,27636034485.228886,0.934721,-0.934040,0.520679
-1.540000,-0.720000,2.786357,0.040000,-89453769721.050110,58338023724.274429,-58222867893.914124,29395369488.666988,1.098471,-1.097603,0.553826
-1.500000,-0.720000,2.754714,0.040000,-90206624416.665405,69058529193.578888,-68910105954.689835,31298941096.725018,1.300264,-1.299145,0.589690
-1.460000,-0.720000,2.723291,0.040000,-91070200057.214096,82387196966.810547,-82193506036.576126,33389064699.225044,1.551128,-1.549668,0.629069
-1.420000,-0.720000,2.692095,0.040000,-92065892089.250168,99123174556.528671,-98866904477.996735,35726369804.044739,1.866090,-1.864158,0.673106
-1.380000,-0.720000,2.661135,0.040000,-93220574397.031357,120373091432.375931,-120028784359.825241,38400096902.844345,2.265953,-2.263358,0.723480
-1.340000,-0.720000,2.630419,0.040000,-94568382577.206299,147696883094.008820,-147226297238.437592,41545480474.940300,2.780035,-2.776489,0.782741
-1.300000,-0.720000,2.599955,0.040000,-96153229770.815094,183337387127.354034,-182681721853.781860,45374065416.791939,3.450477,-3.445535,0.854874
-1.260000,-0.720000,2.569753,0.040000,-98032427359.998581,230590885451.158325,-229657443125.828400,50228547329.786858,4.339190,-4.332155,0.946335
-1.220000,-0.720000,2.539822,0.040000,-100282012232.660538,294420565271.611450,-293059386690.238342,56685334632.626114,5.539361,-5.529102,1.067985
-1.180000,-0.720000,2.510171,0.040000,-103004778348.215546,382499544173.996887,-380461397130.596191,65749187728.401878,7.194993,-7.179633,1.238753
-1.140000,-0.720000,2.480811,0.040000,-106342712797.027512,507043522632.351379,-503899956989.104065,79214022542.689011,9.535226,-9.511535,1.492438
-1.100000,-0.720000,2.451752,0.040000,-110496836360.199249,688208522719.856689,-683179727091.151367,100285099495.724854,12.937824,-12.899926,1.889429
-1.060000,-0.720000,2.423005,0.040000,-115760054953.296890,961004209412.231689,-952519477545.618286,134578358464.109390,18.057919,-17.993976,2.535534
-1.020000,-0.720000,2.394580,0.040000,-122574552119.994110,1391174268719.010010,-1375636612980.313232,192151166324.787964,26.122708,-26.005613,3.620239
-0.980000,-0.720000,2.366491,0.040000,-131640372288.315079,2114816770351.782715,-2083452067549.925781,295679381190.711121,39.667095,-39.430724,5.570771
-0.940000,-0.720000,2.338045,0.040000,-144141343460.218079,3434873711961.363770,-3368373013496.792969,520761258508.740784,64.339138,-63.837974,9.811444
-0.900000,-0.720000,2.309779,0.040000,-162248678670.454620,6037285550554.726562,-5897701005504.902344,1145486733053.752441,112.957004,-111.905062,21.581634
-0.860000,-0.720000,2.281609,0.040000,-190269312012.813293,11572004709226.783203,-11312029992784.816406,3074437514999.389160,216.553855,-214.594625,57.924185
-0.820000,-0.720000,2.253158,0.040000,-237418312732.219116,22594525148776.425781,-15204091144145.115234,7182741582084.622070,383.921934,-328.225909,135.327015
-0.780000,-0.720000,2.225063,0.040000,-326128034977.921509,17894111100572.527344,125450430710931.984375,-10612176951457.833984,-473.072853,1553.350560,-199.939566
-0.740000,-0.720000,2.196635,0.040000,-541039654756.633789,120805404227993.140625,248463887466973.875000,-37140968551869.039062,188.869590,2594.029420,-699.757379
-0.700000,-0.720000,2.168351,0.040000,855265556117.716309,-258059260390758.062500,-332527804211152.812500,-18943605923570.726562,-1523.885265,-2926.915801,-356.908517
-0.660000,-0.720000,2.140217,0.040000,382150323680.619934,-67264015374015.570312,-105889673713620.640625,20635197391018.503906,-288.598279,-1016.328074,388.779081
-0.620000,-0.720000,2.111737,0.040000,249053596299.721832,-47391560791066.523438,31244981399872.773438,22214014349097.039062,-801.621204,679.936837,418.524908
-0.580000,-0.720000,2.083635,0.040000,174044437818.640808,-19681752605761.421875,15771201781713.253906,5359076890406.301758,-348.712515,319.241698,100.968115
-0.540000,-0.720000,2.055227,0.040000,133163468315.629822,-9876035271582.310547,9549238704752.728516,1984959862293.035156,-184.223119,181.760304,37.397795
-0.500000,-0.720000,2.026924,0.040000,108559188354.789230,-5009624741782.989258,4856403410309.260742,1259581133895.242920,-93.518201,92.363489,23.731239
-0.460000,-0.720000,1.998831,0.040000,92177930976.858994,-2801836627918.067383,2730980272813.845703,498383624698.686401,-52.387734,51.853744,9.389836
-0.420000,-0.720000,1.970316,0.040000,80387466761.657104,-1867260623757.116211,1853275312630.477051,187600325915.752136,-35.101225,34.995829,3.534499
-0.380000,-0.720000,1.942207,0.040000,71618363042.635101,-1305802870558.865479,1298397028439.980225,139249393663.068970,-24.560224,24.504412,2.623539
-0.340000,-0.720000,1.914520,0.040000,64953588531.917435,-907681709935.048950,900075399673.881104,107948796458.802826,-17.058257,17.000935,2.033818
-0.300000,-0.720000,1.887275,0.040000,59754467816.588493,-651402676857.707153,645853776842.431885,66329680305.114311,-12.241441,12.199623,1.249690
-0.260000,-0.720000,1.860491,0.040000,55605209950.309402,-486587125866.554810,484060495737.208130,42986759575.582359,-9.153303,9.134261,0.809895
-0.220000,-0.720000,1.834189,0.040000,52237970391.685333,-365778096343.967529,364332581442.128540,34300413551.988720,-6.883301,6.872407,0.646240
-0.180000,-0.720000,1.808388,0.040000,49458511908.488594,-273058424356.817017,271791030956.876740,26561528518.242271,-5.137415,5.127864,0.500435
-0.140000,-0.720000,1.783112,0.040000,47118140106.444321,-203729102526.338928,202884083260.789551,19609357587.239265,-3.833598,3.827230,0.369452
-0.100000,-0.720000,1.758383,0.040000,45104901836.166649,-148513420804.437775,148080625465.809509,16312510361.215702,-2.795633,2.792371,0.307337
-0.060000,-0.720000,1.734223,0.040000,43329818228.231430,-100454282577.078995,100146556895.688736,14114665823.314558,-1.890878,1.888559,0.265928
-0.020000,-0.720000,1.710658,0.040000,41716039224.594696,-58353499452.353088,58181825832.180313,11522778628.033407,-1.098443,1.097150,0.217096
0.020000,-0.720000,1.687712,0.040000,40195989641.209976,-19719581773.591675,19774276161.414791,10476044859.533581,-0.371837,0.372250,0.197375
0.060000,-0.720000,1.665410,0.040000,38707295852.232979,20337520358.298000,-20204711711.196609,10604771053.052240,0.382420,-0.381419,0.199800
0.100000,-0.720000,1.643779,0.040000,37185746895.860054,63369865843.351883,-63121985855.933624,9949456520.526081,1.192524,-1.190656,0.187454
0.140000,-0.720000,1.622847,0.040000,35562593762.463959,110159922886.697998,-109458060369.327682,10871702748.471281,2.071510,-2.066220,0.204829
0.180000,-0.720000,1.602639,0.040000,33762274734.982059,168164481122.811859,-167178229123.877197,15561460579.919291,3.162742,-3.155309,0.293187
0.220000,-0.720000,1.583184,0.040000,31691029482.442493,244988713605.700287,-244189646578.475433,18815133028.230194,4.611213,-4.605191,0.354488
0.260000,-0.720000,1.564510,0.040000,29226128037.377823,339700305556.992371,-337794702562.850708,21638526206.790642,6.389380,-6.375019,0.407682
0.300000,-0.720000,1.546646,0.040000,26215456792.071171,466445342121.613098,-460876799737.227844,44000580632.767601,8.756626,-8.714660,0.828996
0.340000,-0.720000,1.529619,0.040000,22451550251.501415,678788654344.171997,-672456325041.079956,84192734082.426163,12.752980,-12.705258,1.586240
0.380000,-0.720000,1.513457,0.040000,17589421249.020432,1011195754817.178833,-1010138962258.398926,83738934834.713028,19.045541,-19.037577,1.577690
0.420000,-0.720000,1.498190,0.040000,11102423156.080931,1406928118214.591797,-1404490503677.462646,71209908826.681259,26.493564,-26.475193,1.341636
0.460000,-0.720000,1.483844,0.040000,2342143575.964223,2031129949183.891357,-1953559298181.555176,419135180449.248169,37.829223,-37.244632,7.896750
0.500000,-0.720000,1.470447,0.040000,-9777870991.884613,3973522305417.469238,-3806833381305.570801,1336158038685.836426,73.921309,-72.665103,25.173992
0.540000,-0.720000,1.458024,0.040000,-28437240366.182137,8471621499221.293945,-8161681644242.797852,1681421439907.879883,157.858426,-155.522648,31.678955
0.580000,-0.720000,1.446601,0.040000,-60977980743.359810,16178916124170.744141,-11080432708640.380859,4320847102139.146484,276.002644,-237.579291,81.407264
0.620000,-0.720000,1.436202,0.040000,-122026505778.356094,39303293873686.445312,-21515118276825.378906,18596162920603.132812,639.954979,-505.899163,350.362490
0.660000,-0.720000,1.426848,0.040000,-211858665587.428589,51675276572079.343750,79946484499291.875000,17229643611433.333984,229.643083,762.289029,324.616474
0.700000,-0.720000,1.418561,0.040000,-588125597248.616089,203484731072269.125000,261075062193568.843750,-15420841522616.126953,1207.997551,2293.032775,-290.537594
0.740000,-0.720000,1.411360,0.040000,512938360083.074097,-95793730281460.437500,-195503614965709.375000,-30466423137996.144531,-158.346155,-2036.938186,-574.005074
0.780000,-0.720000,1.405260,0.040000,343267821064.187134,-14205175866812.128906,-99412608373682.343750,-9059220793141.916016,374.553728,-1230.803696,-170.680971
0.820000,-0.720000,1.400277,0.040000,272279856461.392181,-17748099685019.167969,11646949765551.937500,5672485000251.541016,-299.899726,253.920046,106.872906
0.860000,-0.720000,1.396423,0.040000,233664125358.162140,-9197869077026.220703,9004719480372.968750,2629037219837.196777,-172.201470,170.745850,49.532585
0.900000,-0.720000,1.393706,0.040000,210223190505.816345,-4875219254830.982422,4766332976390.207031,1027543772660.993164,-91.236513,90.415921,19.359520
0.940000,-0.720000,1.392134,0.040000,194778355353.391571,-2823392161975.091797,2771642778485.131836,484481798838.034424,-52.901849,52.511853,9.127918
0.980000,-0.720000,1.391710,0.040000,183937063359.339020,-1769205525807.709961,1744501603628.025879,275600282336.605774,-33.193227,33.007052,5.192469
1.020000,-0.720000,1.391710,0.040000,175966984355.351288,-1183914446184.727783,1171504190560.380859,175543436958.366119,-22.235490,22.141963,3.307340
1.060000,-0.720000,1.392134,0.040000,169911410997.708649,-832145760429.886841,825333279591.640503,118516357732.068436,-15.639603,15.588263,2.232917
1.100000,-0.720000,1.393706,0.040000,165198218396.130585,-606450714408.977295,602407052734.941772,83347264860.802689,-11.403028,11.372554,1.570311
1.140000,-0.720000,1.396423,0.040000,161461743916.585327,-454393902410.488708,451854725373.083801,60845087778.218315,-8.546693,8.527557,1.146357
1.180000,-0.720000,1.400277,0.040000,158456272961.004883,-348063033881.302246,346401078448.020142,46046109407.358887,-6.548316,6.535791,0.867535
1.220000,-0.720000,1.405260,0.040000,156010286149.002625,-271449786511.517975,270324821515.211426,36063826100.728989,-5.107913,5.099435,0.679463
1.260000,-0.720000,1.411360,0.040000,154000360195.247406,-214857426716.550812,214073537886.807739,29178408422.176647,-4.043608,4.037700,0.549738
1.300000,-0.720000,1.418561,0.040000,152335415781.190063,-172167523510.214569,171607186763.482910,24339730376.452679,-3.240569,3.236346,0.458575
1.340000,-0.720000,1.426848,0.040000,150946802103.551239,-139388249414.432373,138978628861.207733,20885831744.753372,-2.623840,2.620753,0.393501
1.380000,-0.720000,1.436202,0.040000,149781839128.999451,-113837936953.432053,113532559415.175278,18385132806.802635,-2.143047,2.140745,0.346387
1.420000,-0.720000,1.446601,0.040000,148799485467.751556,-93667225990.398636,93435630568.548126,16547591695.172262,-1.763436,1.761690,0.311766
1.460000,-0.720000,1.458024,0.040000,147967354338.367249,-77570350799.746796,77392069869.715164,15173416538.630787,-1.460463,1.459119,0.285876
1.500000,-0.720000,1.470447,0.040000,147259608760.655853,-64605699762.649544,64466663940.198448,14122373256.947136,-1.216423,1.215375,0.266074
1.540000,-0.720000,1.483844,0.040000,146655445031.370972,-54081333792.245331,53971668766.706627,13294704215.144615,-1.018304,1.017477,0.250480
1.580000,-0.720000,1.498190,0.040000,146137979117.909637,-45480155674.261429,45392798631.812645,12618836202.973473,-0.856379,0.855720,0.237746
1.620000,-0.720000,1.513457,0.040000,145693414953.889557,-38409892477.713371,38339703203.424179,12043209309.532650,-0.723268,0.722739,0.226901
1.660000,-0.720000,1.529619,0.040000,145310413834.288452,-32568970093.595921,32512147760.809231,11530694692.058048,-0.613297,0.612869,0.217245
1.700000,-0.720000,1.546646,0.040000,144979609832.483276,-27722786550.087177,27676479598.067005,11054689827.500881,-0.522052,0.521703,0.208277
1.740000,-0.720000,1.564510,0.040000,144693232976.070618,-23686925046.403240,23648965507.727348,10596331356.270790,-0.446061,0.445775,0.199641
1.780000,-0.720000,1.583184,0.040000,144444813129.138916,-20315083311.163223,20283802854.395733,10142471558.982586,-0.382571,0.382335,0.191090
1.820000,-0.720000,1.602639,0.040000,144228945141.395569,-17490262878.325382,17464363426.749020,9684188760.211292,-0.329380,0.329185,0.182456
1.860000,-0.720000,1.622847,0.040000,144041101082.581665,-15118247520.896734,15096708909.422743,9215678899.343830,-0.284715,0.284552,0.173629
1.900000,-0.720000,1.643779,0.040000,143877479070.496307,-13122713285.188784,13104726422.832817,8733424298.846521,-0.247138,0.247002,0.164543
1.940000,-0.720000,1.665410,0.040000,143734880829.341980,-11441517967.562801,11426435814.748920,8235567294.325162,-0.215480,0.215366,0.155163
1.980000,-0.720000,1.687712,0.040000,143610612014.123291,-10023854708.751995,10011155860.292412,7721437347.495566,-0.188783,0.188688,0.145476
2.020000,-0.720000,1.710658,0.040000,143502400727.454956,-8828046856.574596,8817308155.845018,7191194442.774748,-0.166265,0.166184,0.135486
2.060000,-0.720000,1.734223,0.040000,143408330686.673096,-7819824609.666426,7810700311.134467,6645561363.673079,-0.147278,0.147210,0.125206
2.100000,-0.720000,1.758383,0.040000,143326786273.825714,-6970967937.613785,6963173669.226139,6085624350.452089,-0.131293,0.131234,0.114657
2.140000,-0.720000,1.783112,0.040000,143256407289.844116,-6258231182.696454,6251531464.424625,5512686603.964804,-0.117871,0.117820,0.103862
2.180000,-0.720000,1.808388,0.040000,143196051686.811737,-5662486743.706580,5656685160.300343,4928162733.766767,-0.106652,0.106608,0.092849
2.220000,-0.720000,1.834189,0.040000,143144764904.140686,-5168041048.959624,5162972392.586848,4333504948.338772,-0.097340,0.097302,0.081646
2.260000,-0.720000,1.860491,0.040000,143101754711.151245,-4762087088.992365,4757610432.424303,3730153764.541376,-0.089695,0.089661,0.070278
2.300000,-0.720000,1.887275,0.040000,143066370677.599274,-4434258593.309385,4430242882.585673,3119506543.655424,-0.083521,0.083491,0.058773
2.340000,-0.720000,1.914520,0.040000,143038087551.888123,-4176159330.070921,4172376359.951688,2502883160.765036,-0.078660,0.078631,0.047156
2.380000,-0.720000,1.942207,0.040000,143016491646.878876,-3982259910.767849,3982073209.905844,1881792863.035279,-0.075027,0.075026,0.035454
2.420000,-0.720000,1.970316,0.040000,143001264534.573639,-3855708178.141441,3891828444.826235,1422132876.066472,-0.072848,0.073120,0.026794
2.460000,-0.720000,1.998831,0.040000,142992101210.157349,-3742521353.029586,3797108989.410160,1153669201.131891,-0.070820,0.071231,0.021736
-2.500000,-0.680000,3.577411,0.040000,-42351245685.683815,491506329978.386169,25468624840398.539062,1861800987172.763428,-137.470912,333.112480,35.077410
-2.460000,-0.680000,3.541996,0.040000,-84708187249.983185,2531108696341.335938,13804417665644.300781,1100298319060.910156,-44.643681,167.751995,20.730258
-2.420000,-0.680000,3.506679,0.040000,-84727523977.002945,-579845200756.246948,4334715193717.270020,699235997730.508179,-32.147798,60.445369,13.174012
-2.380000,-0.680000,3.471464,0.040000,-84760212295.984802,-44162795627.846008,143765933234.491577,5121358659.628952,-1.395027,2.145659,0.096489
-2.340000,-0.680000,3.436353,0.040000,-84806324149.614777,8601022313.621996,-8597232545.980112,3859487486.110962,0.162027,-0.161998,0.072715
-2.300000,-0.680000,3.401351,0.040000,-84866204251.084229,8896355540.189846,-8891966352.616846,4826935966.645534,0.167588,-0.167555,0.090942
-2.260000,-0.680000,3.366460,0.040000,-84940325259.739273,9269048101.440954,-9264206827.195257,5796371992.901280,0.174607,-0.174570,0.109207
-2.220000,-0.680000,3.331684,0.040000,-85029284123.115952,9726271774.279083,-9720890796.972992,6767684198.580802,0.183218,-0.183178,0.127507
-2.180000,-0.680000,3.297026,0.040000,-85133813219.236099,10277406883.575407,-10271358114.462160,7740513006.650058,0.193598,-0.193553,0.145836
-2.140000,-0.680000,3.262490,0.040000,-85254795382.511826,10934121139.837492,-10927250799.951786,8714154511.195219,0.205966,-0.205915,0.164180
-2.100000,-0.680000,3.228081,0.040000,-85393282608.767914,11710774486.352470,-11702897982.975657,9687478912.762300,0.220593,-0.220534,0.182518
-2.060000,-0.680000,3.193802,0.040000,-85550519078.082764,12624956104.447409,-12615849953.602022,10658833518.999786,0.237810,-0.237741,0.200819
-2.020000,-0.680000,3.159658,0.040000,-85727969356.895065,13698165712.955723,-13687557131.647234,11625922248.977772,0.258021,-0.257941,0.219039
-1.980000,-0.680000,3.125652,0.040000,-85927352872.904907,14956677739.556913,-14944231204.107264,12585652613.404238,0.281722,-0.281628,0.237121
-1.940000,-0.680000,3.091790,0.040000,-86150686050.087967,16432641642.401426,-16417941346.544641,13533937586.181816,0.309517,-0.309407,0.254987
-1.900000,-0.680000,3.058076,0.040000,-86400333870.630234,18165490628.060143,-18148017343.049732,14465434539.537550,0.342150,-0.342018,0.272537
-1.860000,-0.680000,3.024515,0.040000,-86679073126.327988,20203757490.060471,-20182857708.315979,15373195836.640028,0.380532,-0.380375,0.289640
-1.820000,-0.680000,2.991113,0.040000,-86990170276.651688,22607433774.726711,-22582278108.118694,16248194672.531118,0.425795,-0.425605,0.306125
-1.780000,-0.680000,2.957874,0.040000,-87337477704.664825,25451062136.373798,-25420588588.798676,17078673668.317245,0.479341,-0.479111,0.321772
-1.740000,-0.680000,2.924805,0.040000,-87725553341.847260,28827829422.976997,-28790665129.202972,17849240006.732632,0.542923,-0.542643,0.336290
-1.700000,-0.680000,2.891911,0.040000,-88159810243.936127,32855041824.749191,-32809393765.598602,18539595567.555889,0.618750,-0.618406,0.349297
-1.660000,-0.680000,2.859198,0.040000,-88646704925.870392,37681532186.424187,-37625032642.393036,19122737246.338158,0.709623,-0.709197,0.360283
-1.620000,-0.680000,2.826672,0.040000,-89193976377.429199,43497803208.744362,-43427288292.390656,19562381141.620174,0.819125,-0.818594,0.368567
-1.580000,-0.680000,2.794341,0.040000,-89810952092.168396,50550096846.095749,-50461284661.791489,19809237511.123718,0.951891,-0.951222,0.373218
-1.540000,-0.680000,2.762210,0.040000,-90508943776.148041,59160178583.894859,-59047194492.966003,19795562271.165825,1.113973,-1.113122,0.372960
-1.500000,-0.680000,2.730287,0.040000,-91301764628.567505,69753567418.174667,-69608232390.664841,19427084469.497097,1.313376,-1.312281,0.366018
-1.460000,-0.680000,2.698580,0.040000,-92206413730.835922,82900454738.802841,-82711199446.380219,18570865947.780991,1.560823,-1.559397,0.349886
-1.420000,-0.680000,2.667095,0.040000,-93243993598.352676,99376038591.211731,-99126212820.340958,17036720171.987349,1.870890,-1.869007,0.320982
-1.380000,-0.680000,2.635841,0.040000,-94440958377.156387,120251187876.153549,-119916366551.059311,14548186100.627497,2.263710,-2.261186,0.274096
-1.340000,-0.680000,2.604827,0.040000,-95830839326.875153,147031634896.245087,-146575206907.030914,10696137566.463778,2.767581,-2.764142,0.201521
-1.300000,-0.680000,2.574061,0.040000,-97456673008.337692,181876964249.260101,-181242688148.189423,4862886825.121435,3.423082,-3.418302,0.091620
-1.260000,-0.680000,2.543551,0.040000,-99374487340.681961,227954645696.760071,-227053727383.194153,-3904526772.715527,4.289706,-4.282916,-0.073564
-1.220000,-0.680000,2.513308,0.040000,-101658420546.828781,290028242486.565125,-288716574652.681091,-17108786038.934795,5.456886,-5.447001,-0.322339
-1.180000,-0.680000,2.483340,0.040000,-104408429291.378799,375455591161.430908,-373494328072.121338,-37169148662.430733,7.062716,-7.047935,-0.700288
-1.140000,-0.680000,2.453659,0.040000,-107762208841.980972,495894360601.360413,-492885675285.729004,-68072416836.156639,9.325932,-9.303257,-1.282524
-1.100000,-0.680000,2.424275,0.040000,-111914096839.811127,670198790646.296875,-665486964295.394531,-116691178879.049301,12.600302,-12.564792,-2.198529
-1.060000,-0.680000,2.395198,0.040000,-117145684329.066986,929474266633.489990,-921945444404.874268,-196210595514.161743,17.469280,-17.412541,-3.696721
-1.020000,-0.680000,2.366439,0.040000,-123876542473.209305,1327768833243.654785,-1315011699329.044434,-336900877715.809021,24.943829,-24.847688,-6.347408
-0.980000,-0.680000,2.338012,0.040000,-132753621651.677902,1974755360874.961426,-1948594594426.421143,-619231415480.219604,37.057671,-36.860517,-11.666679
-0.940000,-0.680000,2.309927,0.040000,-144836724346.752411,3154542365962.906250,-3084041416132.884766,-1251230053295.437500,59.034923,-58.503612,-23.573900
-0.900000,-0.680000,2.281478,0.040000,-162076477120.189270,5642776754886.208984,-5487184699588.076172,-2606239943154.018066,105.433752,-104.261174,-49.103071
-0.860000,-0.680000,2.253212,0.040000,-188600842149.630524,11069528098957.412109,-10673922736560.091797,-5307113709953.829102,206.320296,-203.338922,-99.989099
-0.820000,-0.680000,2.225045,0.040000,-233663250555.980560,20458575581175.878906,-10809723842987.621094,-14482536415264.240234,330.914436,-258.198452,-272.859382
-0.780000,-0.680000,2.196590,0.040000,-319548773341.516541,15383034763936.652344,125301374358191.359375,3055434245831.664062,-505.347455,1565.577784,57.566152
-0.740000,-0.680000,2.168499,0.040000,-442767960831.833984,89308924029776.656250,211389735994968.750000,45806953329311.851562,-16.969220,2283.104049,863.029555
-0.700000,-0.680000,2.140068,0.040000,751665228233.443726,-217198851442782.468750,-295460652054091.687500,35442260610352.632812,-1194.511602,-2669.009294,667.752736
-0.660000,-0.680000,2.111784,0.040000,351327627532.082031,-51233040866797.000000,-95124660654376.953125,-16253536768161.466797,-138.021008,-964.964569,-306.226055
-0.620000,-0.680000,2.083654,0.040000,230696512513.571838,-36964828568399.914062,33016091406490.683594,-26395006691843.183594,-674.119850,644.361251,-497.297228
-0.580000,-0.680000,2.055168,0.040000,168258586057.262512,-15829072202015.906250,14614576259057.765625,-9380456375164.851562,-291.364354,282.211631,-176.733236
-0.540000,-0.680000,2.027071,0.040000,131272983442.553482,-8207849303260.275391,8037223573283.087891,-4034154305369.449707,-153.676233,152.390358,-76.005806
-0.500000,-0.680000,1.998660,0.040000,107705442505.240967,-4623440878706.824219,4539245097912.881836,-1725132492457.609131,-86.632417,85.997898,-32.502496
-0.460000,-0.680000,1.970356,0.040000,91694378358.017563,-2779136461936.315918,2730838532309.186523,-879471925815.109131,-52.087554,51.723569,-16.569761
-0.420000,-0.680000,1.942270,0.040000,80204265460.289597,-1805892303855.862549,1783479222058.363281,-521453726719.761169,-33.897375,33.728465,-9.824491
-0.380000,-0.680000,1.913748,0.040000,71638289362.090179,-1244480562988.813477,1234079177654.715820,-320432031367.701050,-23.387945,23.309558,-6.037125
-0.340000,-0.680000,1.885644,0.040000,65080886204.277840,-883364968632.341064,876960115078.011597,-201793583287.826355,-16.606907,16.558638,-3.801908
-0.300000,-0.680000,1.857975,0.040000,59947528329.554581,-642019337518.229736,637713010171.784668,-135643000089.246109,-12.071676,12.039223,-2.555593
-0.260000,-0.680000,1.830763,0.040000,55848056586.668762,-477180763942.127747,474538556512.157532,-95989267432.158401,-8.975428,8.955516,-1.808493
-0.220000,-0.680000,1.804027,0.040000,52516040794.134232,-358915423169.644470,357278314736.621521,-69646431306.548676,-6.752921,6.740584,-1.312179
-0.180000,-0.680000,1.777789,0.040000,49760855633.261002,-270181391757.910370,269055373332.158173,-52478565762.805336,-5.084010,5.075524,-0.988727
-0.140000,-0.680000,1.752071,0.040000,47439760442.802902,-201758442691.793152,200992156920.138885,-41571428305.492577,-3.796915,3.791140,-0.783230
-0.100000,-0.680000,1.726897,0.040000,45442644527.338142,-146797016069.523682,146314669472.192474,-34425855142.014915,-2.763015,2.759379,-0.648603
-0.060000,-0.680000,1.702291,0.040000,43681117732.123177,-100241891432.231033,99948868564.065247,-30136617878.282681,-1.886959,1.884751,-0.567791
-0.020000,-0.680000,1.678277,0.040000,42080446119.797005,-58958850276.870674,58819235749.394867,-28299446523.105297,-1.110030,1.108978,-0.533178
0.020000,-0.680000,1.654882,0.040000,40574342333.274887,-20230709428.670338,20241579117.804092,-28314464366.936066,-0.381220,0.381302,-0.533461
0.060000,-0.680000,1.632132,0.040000,39100567669.733955,18800855064.040691,-18655305116.783012,-30168396604.012711,0.353396,-0.352299,-0.568390
0.100000,-0.680000,1.610054,0.040000,37596471213.392044,60513344420.268883,-60197182268.818077,-34267795972.903908,1.138319,-1.135937,-0.645625
0.140000,-0.680000,1.588677,0.040000,35995104218.135620,107652514617.763458,-107084529591.951508,-40653000457.581886,2.025025,-2.020745,-0.765926
0.180000,-0.680000,1.568029,0.040000,34220632425.732422,164712039305.599396,-163879406014.441956,-50085322844.140900,3.098564,-3.092289,-0.943637
0.220000,-0.680000,1.548139,0.040000,32181246663.034515,237038706982.020203,-235833488859.720673,-64914513668.715172,4.459135,-4.450052,-1.223027
0.260000,-0.680000,1.529038,0.040000,29760697270.641663,331355103954.341858,-329230114116.657104,-86737587888.315018,6.230911,-6.214897,-1.634186
0.300000,-0.680000,1.510754,0.040000,26806913289.096191,462401916523.461670,-458824494889.483582,-117647537864.247055,8.691700,-8.664740,-2.216548
0.340000,-0.680000,1.493317,0.040000,23107833810.547283,655910365743.878662,-651202535198.522827,-171089664080.024597,12.331122,-12.295643,-3.223428
0.380000,-0.680000,1.476759,0.040000,18350961968.805519,940353829064.881226,-933293596300.398560,-272072789658.566559,17.676906,-17.623698,-5.126009
0.420000,-0.680000,1.461108,0.040000,12076935429.883356,1369407856431.235596,-1350560615440.513672,-429735269229.436584,25.693910,-25.551873,-8.096462
0.460000,-0.680000,1.446395,0.040000,3584157655.051929,2137445966483.267578,-2092626732794.436523,-675172796119.709961,40.017395,-39.679627,-12.720647
0.500000,-0.680000,1.432647,0.040000,-8392711169.432644,3669130904989.494141,-3603905551493.928223,-1326413821518.808838,68.759888,-68.268335,-24.990405
0.540000,-0.680000,1.419894,0.040000,-26375340394.038055,6599364787001.816406,-6484003534258.159180,-3340109366491.224121,123.683816,-122.814427,-62.929597
0.580000,-0.680000,1.408161,0.040000,-55079782788.992561,12399130297750.986328,-10856324554473.976562,-7366354796822.842773,224.886596,-213.259655,-138.786395
0.620000,-0.680000,1.397476,0.040000,-103288743362.700607,29596036867129.792969,-25204642004383.742188,-19740596887741.199219,532.785564,-499.690994,-371.924289
0.660000,-0.680000,1.387861,0.040000,-195393802928.665833,41667399031604.156250,74005819355404.625000,-11793953484322.570312,131.232805,740.507391,-222.204921
0.700000,-0.680000,1.379340,0.040000,-510322047880.961548,172627065678591.343750,232920981882314.781250,27682891978577.699219,960.165896,2096.138230,521.561733
0.740000,-0.680000,1.371933,0.040000,431285313315.069275,-69309471443681.632812,-165604760861651.562500,35271488815260.226562,21.945474,-1792.313602,664.535297
0.780000,-0.680000,1.365657,0.040000,340614024813.237549,-12925742201957.187500,-100737987934819.140625,1827871045839.840088,398.918694,-1255.514921,34.438150
0.820000,-0.680000,1.360529,0.040000,270108565654.661560,-16244409728914.144531,7707009737503.055664,-11431047474620.876953,-257.799227,193.459401,-215.367561
0.860000,-0.680000,1.356562,0.040000,232594095711.197113,-8948481623292.941406,8598982741464.380859,-3966151981711.757324,-166.619153,163.985248,-74.724603
0.900000,-0.680000,1.353765,0.040000,210055656521.006683,-4642017549751.354492,4521654312038.964844,-1933873152851.556152,-86.777988,85.870902,-36.435291
0.940000,-0.680000,1.352147,0.040000,195146782051.106750,-2647450424970.587891,2592772396419.411133,-935480531802.605347,-49.570451,49.158385,-17.624996
0.980000,-0.680000,1.351711,0.040000,184560466627.243591,-1681248422551.080322,1659745136047.734863,-468805194582.447571,-31.554155,31.392101,-8.832562
1.020000,-0.680000,1.351711,0.040000,176701650582.867035,-1146213074839.903809,1135625933304.314941,-258536577961.563110,-21.535478,21.455691,-4.870979
1.060000,-0.680000,1.352147,0.040000,170694634310.711273,-815626167451.857300,809491214569.969238,-155210893575.957245,-15.332194,15.285960,-2.924263
1.100000,-0.680000,1.353765,0.040000,166002485735.938751,-598394695989.801025,594586987289.002441,-98544667872.374435,-11.252581,11.223885,-1.856639
1.140000,-0.680000,1.356562,0.040000,162273749198.845947,-449993989131.008789,447546813745.532959,-64740956021.904915,-8.464316,8.445873,-1.219757
1.180000,-0.680000,1.360529,0.040000,159268812238.936432,-345438016309.712402,343818750826.577332,-43395695619.114296,-6.499100,6.486897,-0.817600
1.220000,-0.680000,1.365657,0.040000,156819086547.613068,-269763836666.626251,268661042071.190491,-29329976574.248810,-5.076274,5.067963,-0.552594
1.260000,-0.680000,1.371933,0.040000,154802687970.392883,-213693560042.713318,212921575400.153687,-19712592679.656708,-4.021747,4.015929,-0.371397
1.300000,-0.680000,1.379340,0.040000,153129389724.339966,-171306220174.844574,170752209165.527863,-12911297907.963884,-3.224377,3.220202,-0.243256
1.340000,-0.680000,1.387861,0.040000,151731034088.506012,-138713457210.376160,138307096331.696167,-7954096238.662380,-2.611145,2.608083,-0.149860
1.380000,-0.680000,1.397476,0.040000,150555244307.514587,-113289709448.089630,112985937606.558243,-4247014703.785624,-2.132727,2.130438,-0.080016
1.420000,-0.680000,1.408161,0.040000,149561184109.349854,-93215826981.131058,92984976333.304825,-1417890625.451737,-1.754935,1.753196,-0.026714
1.460000,-0.680000,1.419894,0.040000,148716623002.487396,-77201823910.334610,77023866035.041733,772550231.463547,-1.453521,1.452180,0.014555
1.500000,-0.680000,1.432647,0.040000,147995857274.750397,-64313879314.389305,64174983195.758652,2482350563.383184,-1.210926,1.209879,0.046769
1.540000,-0.680000,1.446395,0.040000,147378206249.738434,-53863499717.251602,53753916277.810577,3818912011.876177,-1.014200,1.013374,0.071951
1.580000,-0.680000,1.461108,0.040000,146846904371.379486,-45334742129.264641,45247470455.931534,4857454280.557533,-0.853640,0.852982,0.091517
1.620000,-0.680000,1.476759,0.040000,146388271445.933197,-38335347079.194244,38265273760.094208,5652352136.885343,-0.721864,0.721336,0.106494
1.660000,-0.680000,1.493317,0.040000,145991082113.947449,-32563251406.599674,32506583383.690784,6244209718.067620,-0.613190,0.612763,0.117645
1.700000,-0.680000,1.510754,0.040000,145646080514.840424,-27783208365.250683,27737091984.803123,6664337356.084043,-0.523191,0.522844,0.125560
1.740000,-0.680000,1.529038,0.040000,145345602446.687225,-23810181112.642906,23772441687.955585,6937620536.301150,-0.448384,0.448100,0.130709
1.780000,-0.680000,1.548139,0.040000,145083278263.813660,-20497357670.883919,20466318480.281006,7084380393.936382,-0.386007,0.385773,0.133474
1.820000,-0.680000,1.568029,0.040000,144853797213.132111,-17727372225.386196,17701726757.126579,7121594981.376118,-0.333849,0.333656,0.134175
1.860000,-0.680000,1.588677,0.040000,144652719080.990326,-15405786078.675838,15384506529.286306,7063712038.673024,-0.290134,0.289973,0.133084
1.900000,-0.680000,1.610054,0.040000,144476322664.095581,-13456184816.815588,13438455639.073023,6923199146.754056,-0.253422,0.253289,0.130437
1.940000,-0.680000,1.632132,0.040000,144321483181.369080,-11816447804.422159,11801616803.677299,6710924335.605367,-0.222545,0.222433,0.126438
1.980000,-0.680000,1.654882,0.040000,144185572630.898102,-10435879464.312826,10423421352.164831,6436426917.011510,-0.196548,0.196454,0.121266
2.020000,-0.680000,1.678277,0.040000,144066378482.872803,-9272982178.436020,9262471080.249704,6108117081.678318,-0.174649,0.174570,0.115080
2.060000,-0.680000,1.702291,0.040000,143962037131.387634,-8293712739.332631,8284801214.344518,5733429156.433001,-0.156208,0.156141,0.108021
2.100000,-0.680000,1.726897,0.040000,143870979305.428497,-7470107497.158452,7462510349.041133,5318944599.801089,-0.140698,0.140641,0.100212
2.140000,-0.680000,1.752071,0.040000,143791885231.930664,-6779191804.021866,6772673451.739272,4870495100.238892,-0.127687,0.127638,0.091763
2.180000,-0.680000,1.777789,0.040000,143723647800.559967,-6202111090.542337,6196475611.625901,4393252440.193507,-0.116820,0.116777,0.082771
2.220000,-0.680000,1.804027,0.040000,143665342335.847656,-5723436640.562474,5718519873.587453,3891809402.771218,-0.107805,0.107768,0.073324
2.260000,-0.680000,1.830763,0.040000,143616201862.830658,-5330611180.665711,5326275043.725468,3370254520.667551,-0.100407,0.100375,0.063498
2.300000,-0.680000,1.857975,0.040000,143575596976.987823,-5013516807.456323,5009654775.274687,2832243434.342687,-0.094436,0.094407,0.053361
2.340000,-0.680000,1.885644,0.040000,143543019631.356323,-4764261342.810452,4760900299.212650,2281083151.654918,-0.089742,0.089717,0.042977
2.380000,-0.680000,1.913748,0.040000,143518070676.386810,-4577912509.019800,4575106497.167356,1720412455.527398,-0.086235,0.086214,0.032414
2.420000,-0.680000,1.942270,0.040000,143500456799.524902,-4458257630.014457,4481368461.965790,1301401087.911799,-0.084127,0.084301,0.024519
2.460000,-0.680000,1.970356,0.040000,143490064436.740204,-4413816084.978041,4491084712.221828,1056520194.154531,-0.083596,0.084178,0.019905
-2.500000,-0.640000,3.559085,0.040000,-42636230987.865829,-3270806891042.010254,23284741610575.960938,2516237230404.300781,-174.746138,325.575791,47.407368
-2.460000,-0.640000,3.523486,0.040000,-85278286369.578293,254342894804.809692,17047450458071.962891,1475481052091.873535,-93.000777,223.391104,27.798918
-2.420000,-0.640000,3.487982,0.040000,-85300325218.016785,-1041088902810.122314,5507761835321.369141,306470898403.359192,-44.861131,78.523014,5.774089
-2.380000,-0.640000,3.452576,0.040000,-85336781555.875214,-44839741119.901665,148919961215.579407,2732104296.122830,-1.433086,2.217459,0.051474
-2.340000,-0.640000,3.417272,0.040000,-85388118367.414642,9531224508.120144,-9526812729.197821,3600246073.738022,0.179549,-0.179516,0.067831
-2.300000,-0.640000,3.382072,0.040000,-85454710898.859558,9826365823.097054,-9821965449.295303,4494119631.799131,0.185110,-0.185076,0.084672
-2.260000,-0.640000,3.346980,0.040000,-85537032258.691315,10197387635.869993,-10192608701.662334,5383470159.008202,0.192098,-0.192062,0.101428
-2.220000,-0.640000,3.311999,0.040000,-85635676714.685928,10651730273.270933,-10646442209.300524,6266500651.679038,0.200655,-0.200615,0.118065
-2.180000,-0.640000,3.277133,0.040000,-85751371994.576370,11198347093.638231,-11192425301.571743,7140819282.358090,0.210950,-0.210905,0.134537
-2.140000,-0.640000,3.242386,0.040000,-85884993651.855026,11848316432.137627,-11841615088.657141,8003319853.102125,0.223191,-0.223141,0.150787
-2.100000,-0.640000,3.207761,0.040000,-86037582826.351944,12615263298.322338,-12607607898.293505,8850006198.247690,0.237636,-0.237578,0.166739
-2.060000,-0.640000,3.173262,0.040000,-86210368088.204590,13515864606.507160,-13507044414.558306,9675773336.985775,0.254597,-0.254530,0.182297
-2.020000,-0.640000,3.138894,0.040000,-86404792176.271439,14570483925.707207,-14560242525.141417,10474132574.975084,0.274458,-0.274381,0.197339
-1.980000,-0.640000,3.104661,0.040000,-86622544649.640823,15803971901.632462,-15791995105.031927,11236860907.104269,0.297688,-0.297598,0.211709
-1.940000,-0.640000,3.070567,0.040000,-86865601736.962784,17246678927.045589,-17232579142.823067,11953547326.686420,0.324858,-0.324751,0.225212
-1.900000,-0.640000,3.036618,0.040000,-87136275009.312119,18935742471.618919,-18919038277.026157,12610997661.163748,0.356666,-0.356540,0.237599
-1.860000,-0.640000,3.002817,0.040000,-87437270943.665771,20916733538.841919,-20896822709.815235,13192443712.027201,0.393971,-0.393821,0.248553
-1.820000,-0.640000,2.969171,0.040000,-87771764021.373993,23245777648.957375,-23221901169.592403,13676479448.163074,0.437829,-0.437649,0.257673
-1.780000,-0.640000,2.935684,0.040000,-88143486769.059128,25992309573.824974,-25963503082.200317,14035613239.924900,0.489547,-0.489330,0.264439
-1.740000,-0.640000,2.902362,0.040000,-88556841168.838043,29242683801.785313,-29207711350.583065,14234275142.824186,0.550751,-0.550488,0.268182
-1.700000,-0.640000,2.869210,0.040000,-89017037241.829803,33104953513.322231,-33062216162.697727,14226043446.130371,0.623475,-0.623153,0.268027
-1.660000,-0.640000,2.836236,0.040000,-89530266490.077988,37715263661.373238,-37662671851.132347,13949741398.631304,0.710280,-0.709884,0.262821
-1.620000,-0.640000,2.803444,0.040000,-90103920481.657135,43246500155.757797,-43181293348.487244,13323881027.608902,0.814421,-0.813929,0.251030
-1.580000,-0.640000,2.770841,0.040000,-90746868499.035477,49920130888.011925,-49838619540.782059,12238659661.439856,0.940063,-0.939449,0.230583
-1.540000,-0.640000,2.738435,0.040000,-91469813316.318237,58022618677.525124,-57919810429.775299,10544284414.239586,1.092599,-1.091824,0.198660
-1.500000,-0.640000,2.706231,0.040000,-92285751545.159348,67928466251.793091,-67797517408.547318,8033703763.413946,1.279072,-1.278085,0.151360
-1.460000,-0.640000,2.674239,0.040000,-93210575691.886749,80133006786.410873,-79964406857.995407,4416673327.630705,1.508799,-1.507529,0.083213
-1.420000,-0.640000,2.642464,0.040000,-94263870805.050812,95299708560.254868,-95080051006.364883,-719875675.824190,1.794260,-1.792605,-0.013563
-1.380000,-0.640000,2.610916,0.040000,-95469982045.693451,114329415534.663605,-114039514077.268845,-7973632827.686440,2.152394,-2.150209,-0.150228
-1.340000,-0.640000,2.579601,0.040000,-96859464992.585617,138463347337.995361,-138075281765.984467,-18225568472.298862,2.606536,-2.603612,-0.343380
-1.300000,-0.640000,2.548531,0.040000,-98471085181.383942,169439415681.435852,-168911722960.427399,-32801764763.021667,3.189354,-3.185377,-0.618004
-1.260000,-0.640000,2.517712,0.040000,-100354619952.421890,209736074307.538666,-209005463702.164398,-53746451498.255280,3.947420,-3.941914,-1.012614
-1.220000,-0.640000,2.487154,0.040000,-102574858251.788193,262967219626.509338,-261933388202.658478,-84293191505.392517,4.948611,-4.940820,-1.588133
-1.180000,-0.640000,2.456868,0.040000,-105217440350.034012,334546709371.341431,-333044322429.967834,-129681928544.582275,6.294562,-6.283240,-2.443283
-1.140000,-0.640000,2.426863,0.040000,-108397616008.686661,432806685702.924438,-430563275926.492981,-198538114944.795410,8.141649,-8.124742,-3.740573
-1.100000,-0.640000,2.397150,0.040000,-112273713421.382507,570625198754.405029,-567259085826.626465,-305080059785.812439,10.731884,-10.706516,-5.747885
-1.060000,-0.640000,2.367740,0.040000,-117067819392.298340,766371774018.439087,-761727630220.839355,-472806711938.845581,14.412639,-14.377640,-8.907953
-1.020000,-0.640000,2.338644,0.040000,-123094700279.901093,1038337697930.238525,-1034052756601.823120,-744307361715.294434,19.538665,-19.506373,-14.023182
-0.980000,-0.640000,2.309874,0.040000,-130789017825.093033,1378743838809.277832,-1382089538782.401611,-1224741719994.215820,25.995244,-26.020458,-23.074844
-0.940000,-0.640000,2.281443,0.040000,-140692561439.393890,1699545816014.289062,-1757089738442.303955,-2235706438464.958008,32.345677,-32.779341,-42.122005
-0.900000,-0.640000,2.253364,0.040000,-153398703148.640717,2049878891960.676025,-2325006682713.824707,-4811922839996.341797,40.175977,-42.249404,-90.659416
-0.860000,-0.640000,2.224910,0.040000,-170097382244.078461,3652133943207.339844,-4058370026483.084961,-10843397050093.550781,71.104438,-74.165927,-204.295886
-0.820000,-0.640000,2.196645,0.040000,-194601126901.728638,3659717069158.226074,1544086069191.954102,-20936335759272.226562,39.538391,-0.321324,-394.452703
-0.780000,-0.640000,2.168480,0.040000,-229600696814.167786,-4083216533244.391113,73788764278201.687500,5054433321328.953125,-470.918045,996.235217,95.228454
-0.740000,-0.640000,2.140021,0.040000,-156798198970.477325,21564524930106.542969,71868523980236.593750,72145661860325.984375,-121.811691,825.944813,1359.266093
-0.700000,-0.640000,2.111936,0.040000,45737253603.115700,61794015233287.718750,-53293804611325.953125,53598407525301.421875,1116.190401,-1052.130843,1009.825069
-0.660000,-0.640000,2.083500,0.040000,174346326474.634583,41009627560077.343750,-59143815622093.078125,-25204022933851.066406,875.142742,-1011.806188,-474.858403
-0.620000,-0.640000,2.055217,0.040000,165320293129.716187,4787476698081.477539,1748738397058.094238,-34732885618940.628906,53.255012,-3.996579,-654.387700
-0.580000,-0.640000,2.027091,0.040000,139292719522.942230,-2809786555923.101074,2915280358735.290527,-14080551183668.365234,-53.534277,54.329303,-265.285747
-0.540000,-0.640000,1.998600,0.040000,116833302516.526367,-3423767718981.757812,3446478811851.911621,-6725959482902.367188,-64.634136,64.805292,-126.720976
-0.500000,-0.640000,1.970508,0.040000,99730155677.376328,-2680447947661.674316,2670255249434.415039,-3419813463184.548828,-50.443582,50.366768,-64.431268
-0.460000,-0.640000,1.942093,0.040000,86915502646.478882,-1924527401884.462646,1910196770325.114990,-1878625397184.571045,-36.178213,36.070214,-35.394392
-0.420000,-0.640000,1.913789,0.040000,77198282837.833618,-1377175518604.260742,1366699314526.535156,-1113361608305.919434,-25.887572,25.808621,-20.976378
-0.380000,-0.640000,1.885708,0.040000,69699331773.681473,-1003229156521.408081,996771702075.978760,-699229393259.612305,-18.864920,18.816255,-13.173887
-0.340000,-0.640000,1.857179,0.040000,63815349384.046143,-743072569660.917480,738898443656.572510,-458999635940.256653,-13.976325,13.944868,-8.647819
-0.300000,-0.640000,1.829081,0.040000,59126841401.797676,-557914704905.213013,555050379055.734131,-313980932994.357544,-10.495247,10.473661,-5.915583
-0.260000,-0.640000,1.801432,0.040000,55335442383.790588,-423683873751.428101,421737674997.063416,-223215644511.455719,-7.971450,7.956783,-4.205512
-0.220000,-0.640000,1.774254,0.040000,52224911744.751511,-323800072739.220825,322487757791.518921,-164308121480.303192,-6.093164,6.083274,-3.095660
-0.180000,-0.640000,1.747569,0.040000,49634480837.537354,-247181437182.939941,246277236263.195648,-125299171678.095703,-4.651931,4.645117,-2.360709
-0.140000,-0.640000,1.721400,0.040000,47440944085.989876,-186630671580.934753,186007688778.761414,-99372945225.118042,-3.512709,3.508014,-1.872244
-0.100000,-0.640000,1.695770,0.040000,45546974122.072563,-137079168574.948502,136666862957.531143,-82359897456.190216,-2.580321,2.577213,-1.551708
-0.060000,-0.640000,1.670706,0.040000,43872958891.342934,-94776953787.023849,94525219787.279205,-71832430892.275742,-1.784230,1.782333,-1.353365
-0.020000,-0.640000,1.646231,0.040000,42350975855.472839,-56927899530.663231,56808614894.082321,-66418492254.626755,-1.071880,1.070981,-1.251363
0.020000,-0.640000,1.622374,0.040000,40920263714.311928,-21195997806.526463,21198617805.028000,-65374842205.544998,-0.399360,0.399379,-1.231700
0.060000,-0.640000,1.599162,0.040000,39523456650.529495,14607664891.235817,-14482566729.591618,-68545350243.563332,0.274510,-0.273567,-1.291434
0.100000,-0.640000,1.576623,0.040000,38103083075.430542,52636020997.384552,-52368562366.589836,-76306199849.073563,0.990181,-0.988166,-1.437653
0.140000,-0.640000,1.554786,0.040000,36598087695.125671,95353394676.998245,-94907986912.624146,-89559646178.196075,1.793996,-1.790639,-1.687356
0.180000,-0.640000,1.533682,0.040000,34939840040.598488,145944093929.953491,-145274902963.177368,-110140021306.947922,2.745889,-2.740846,-2.075102
0.220000,-0.640000,1.513341,0.040000,33047034320.287506,208487632343.372528,-207488423036.433075,-141277526239.466644,3.922380,-3.914850,-2.661750
0.260000,-0.640000,1.493794,0.040000,30819116738.775452,288738413766.864990,-287207579453.042236,-188115661072.622925,5.431347,-5.419810,-3.544208
0.300000,-0.640000,1.475073,0.040000,28126903361.693695,395821055434.708740,-393578268561.089661,-260047441444.517273,7.444822,-7.427919,-4.899445
0.340000,-0.640000,1.457210,0.040000,24797872463.884769,542820936834.101257,-539670450190.666565,-375414271624.474731,10.209254,-10.185511,-7.073023
0.380000,-0.640000,1.440236,0.040000,20595257532.468048,747365037305.593994,-742343807955.089233,-566124995077.031372,14.052410,-14.014569,-10.666123
0.420000,-0.640000,1.424184,0.040000,15189272311.981728,1040790898276.480835,-1031839868024.381348,-890325585842.375732,19.558511,-19.491054,-16.774250
0.460000,-0.640000,1.409085,0.040000,8105905430.209749,1478710340454.875732,-1466585518821.200439,-1488964023528.321777,27.791228,-27.699853,-28.052945
0.500000,-0.640000,1.394970,0.040000,-1358671243.999282,2089724034977.110352,-2084755740407.695068,-2721073492500.137695,39.343531,-39.306088,-51.266602
0.540000,-0.640000,1.381869,0.040000,-14163846250.652969,2645967427514.257812,-2675778160596.293945,-5386234900555.389648,50.020056,-50.244716,-101.479788
0.580000,-0.640000,1.369811,0.040000,-31098839130.683750,2041503474520.889404,-2067001466373.449951,-11099696766808.162109,38.607228,-38.799387,-209.124722
0.620000,-0.640000,1.358824,0.040000,-50546796732.314278,-3717465672109.292969,-1233880991111.534668,-26966615503606.023438,-42.053336,4.738839,-508.066669
0.660000,-0.640000,1.348934,0.040000,-56370723725.966484,-31613163672458.785156,46124295674966.796875,-19493991780381.203125,-677.629772,786.989027,-367.278106
0.700000,-0.640000,1.340165,0.040000,45601292650.973732,-47854657090969.015625,42332146110605.609375,42243586453147.062500,-870.395289,828.776366,795.893658
0.740000,-0.640000,1.332540,0.040000,203699064935.894836,-15337746684696.548828,-55169764771777.601562,56809829234193.289062,109.548678,-640.909634,1070.330116
0.780000,-0.640000,1.326078,0.040000,270410627425.088745,2285727941508.886719,-60678455427011.515625,3926433277636.164062,373.110290,-813.171425,73.976279
0.820000,-0.640000,1.320797,0.040000,239576519177.441437,-3036902710523.142090,-2368046404599.158203,-16399422151700.544922,-26.667295,-14.065655,-308.974620
0.860000,-0.640000,1.316710,0.040000,217921898385.351349,-3309252467597.505371,3456458082473.975586,-8378720978019.321289,-63.180267,64.289642,-157.859960
0.900000,-0.640000,1.313828,0.040000,202864552127.260437,-1990485953172.572754,2149690515437.431641,-3773285001162.513672,-38.401761,39.601564,-71.090877
0.940000,-0.640000,1.312161,0.040000,191442832669.675323,-1550717179139.218018,1580927792550.011230,-1793311941620.428467,-29.387166,29.614840,-33.787037
0.980000,-0.640000,1.311711,0.040000,182561072283.916260,-1219117095547.174316,1218605740664.599121,-984936671047.773193,-22.965983,22.962129,-18.556778
1.020000,-0.640000,1.311711,0.040000,175635870805.088409,-922207040638.735474,918241593063.022339,-599595560105.524048,-17.352502,17.322617,-11.296728
1.060000,-0.640000,1.312161,0.040000,170192092628.424500,-692170556691.017334,688475058791.972534,-387456252580.585205,-13.020007,12.992157,-7.299900
1.100000,-0.640000,1.313828,0.040000,165861181334.715057,-524408318237.997192,521718791617.046509,-259445956729.658112,-9.864955,9.844686,-4.888112
1.140000,-0.640000,1.316710,0.040000,162373368489.334229,-403307587269.354919,401456285596.255371,-178621205793.015533,-7.588085,7.574133,-3.365327
1.180000,-0.640000,1.320797,0.040000,159533681165.759644,-314830006572.543396,313550253337.368042,-125911097268.565094,-5.924346,5.914702,-2.372238
1.220000,-0.640000,1.326078,0.040000,157199691979.835480,-249007613570.988861,248104260501.322449,-90461187844.506653,-4.686342,4.679534,-1.704341
1.260000,-0.640000,1.332540,0.040000,155265506128.013489,-199171020182.582611,198518975632.941864,-65891250261.379807,-3.748812,3.743898,-1.241429
1.300000,-0.640000,1.340165,0.040000,153650996721.137482,-160852595163.507019,160372510031.940582,-48378021012.584747,-3.027843,3.024225,-0.911470
1.340000,-0.640000,1.348934,0.040000,152294588723.013885,-130999352774.865753,130639753727.937363,-35579127076.559006,-2.466071,2.463361,-0.670331
1.380000,-0.640000,1.358824,0.040000,151148331225.132202,-107477067002.067642,107203656689.308578,-26022380282.363430,-2.023385,2.021324,-0.490277
1.420000,-0.640000,1.369811,0.040000,150174455952.298859,-88762265914.220779,88551640386.637909,-18757676554.066154,-1.671142,1.669555,-0.353406
1.460000,-0.640000,1.381869,0.040000,149342922757.047943,-73747115345.612366,73582973158.324310,-13155796881.289196,-1.388511,1.387274,-0.247863
1.500000,-0.640000,1.394970,0.040000,148629636063.718994,-61612614293.811417,61483392741.391685,-8789609019.261898,-1.160087,1.159113,-0.165601
1.540000,-0.640000,1.409085,0.040000,148015127133.127991,-51744245595.246628,51641605939.393661,-5362222304.106047,-0.974311,0.973538,-0.101027
1.580000,-0.640000,1.424184,0.040000,147483565856.112946,-43674727133.340759,43592562555.834831,-2662509331.394907,-0.822393,0.821774,-0.050163
1.620000,-0.640000,1.440236,0.040000,147022009660.906158,-37044455813.844597,36978229761.864220,-536970891.923994,-0.697565,0.697066,-0.010117
1.660000,-0.640000,1.457210,0.040000,146619825730.380615,-31573723530.782261,31520021160.666409,1128410810.145879,-0.594564,0.594159,0.021260
1.700000,-0.640000,1.475073,0.040000,146268241743.954529,-27042898369.997013,26999117781.592426,2420085720.030249,-0.509256,0.508926,0.045596
1.740000,-0.640000,1.493794,0.040000,145959993217.563660,-23278079743.334000,23242216317.562340,3404886803.674436,-0.438370,0.438100,0.064150
1.780000,-0.640000,1.513341,0.040000,145689044345.932251,-20140571281.945396,20111064920.778225,4135419824.418479,-0.379293,0.379071,0.077914
1.820000,-0.640000,1.533682,0.040000,145450365406.640839,-17519054396.922577,17494679842.191341,4653773257.124477,-0.329931,0.329748,0.087680
1.860000,-0.640000,1.554786,0.040000,145239754137.236420,-15323698544.702051,15303485591.591805,4994111483.408001,-0.288593,0.288441,0.094092
1.900000,-0.640000,1.576623,0.040000,145053691615.749390,-13481678752.100033,13464853473.915941,5184516374.406824,-0.253908,0.253781,0.097679
1.940000,-0.640000,1.599162,0.040000,144889225440.315552,-11933728739.072168,11919669662.839495,5248317042.518840,-0.224759,0.224653,0.098881
1.980000,-0.640000,1.622374,0.040000,144743874669.906219,-10631465473.357546,10619670522.243647,5205067072.554445,-0.200236,0.200147,0.098066
2.020000,-0.640000,1.646231,0.040000,144615552228.908600,-9535295121.348782,9525356401.668964,5071276200.722751,-0.179594,0.179519,0.095546
2.060000,-0.640000,1.670706,0.040000,144502501413.040070,-8612762092.115952,8604346456.427925,4860968975.057655,-0.162222,0.162158,0.091583
2.100000,-0.640000,1.695770,0.040000,144403243846.195038,-7837239391.260018,7830073302.532198,4586120049.324504,-0.147618,0.147564,0.086405
2.140000,-0.640000,1.721400,0.040000,144316536786.200317,-7186884591.589366,7180742219.899920,4257000424.756893,-0.135370,0.135324,0.080204
2.180000,-0.640000,1.747569,0.040000,144241338104.082275,-6643804577.176021,6638498342.730134,3882458594.687551,-0.125143,0.125103,0.073148
2.220000,-0.640000,1.774254,0.040000,144176777596.679535,-6193385964.558704,6188758906.159657,3470153502.421253,-0.116661,0.116626,0.065380
2.260000,-0.640000,1.801432,0.040000,144122133558.408234,-5823757674.180447,5819676488.365959,3026751358.760123,-0.109700,0.109669,0.057026
2.300000,-0.640000,1.829081,0.040000,144076813749.881500,-5525349760.594747,5521687635.049903,2558094206.307746,-0.104080,0.104052,0.048196
2.340000,-0.640000,1.857179,0.040000,144040340049.154694,-5290390954.434846,5286888458.936347,2069333157.281407,-0.099654,0.099628,0.038987
2.380000,-0.640000,1.885708,0.040000,144012335790.550964,-5113724636.157674,5113938661.644120,1565285240.210700,-0.096347,0.096348,0.029491
2.420000,-0.640000,1.913789,0.040000,143992508487.253937,-4998175738.985093,5032783572.357760,1187425325.521492,-0.094364,0.094625,0.022372
2.460000,-0.640000,1.942093,0.040000,143980545778.784576,-4883059303.826448,4927422847.827308,965255782.366488,-0.092250,0.092585,0.018186
-2.500000,-0.600000,3.541117,0.040000,-42913997423.951744,-228051808308.739075,25350305670424.214844,227019656387.786530,-146.291976,335.619107,4.277182
-2.460000,-0.600000,3.505335,0.040000,-85834953702.792099,1557273444328.849365,17764271117940.207031,72002648342.571411,-79.868796,225.480436,1.356572
-2.420000,-0.600000,3.469645,0.040000,-85858577278.804688,-901359738724.668823,5697306769127.757812,21393168378.667175,-44.089667,80.233036,0.403060
-2.380000,-0.600000,3.434050,0.040000,-85898475440.805161,-44323759297.028290,149087710350.008087,2543781421.843627,-1.427229,2.216755,0.047926
-2.340000,-0.600000,3.398553,0.040000,-85954674863.638245,10392611890.944744,-10389022886.159498,3344204573.339662,0.195783,-0.195755,0.063007
-2.300000,-0.600000,3.363158,0.040000,-86027508957.317154,10680507739.717655,-10676303522.782284,4165729685.441061,0.201203,-0.201172,0.078485
-2.260000,-0.600000,3.327866,0.040000,-86117438330.487350,11042690490.892191,-11038085759.356041,4976793066.730994,0.208025,-0.207990,0.093766
-2.220000,-0.600000,3.292682,0.040000,-86225043025.319733,11485269154.204859,-11480196557.653265,5773910973.598846,0.216360,-0.216322,0.108784
-2.180000,-0.600000,3.257610,0.040000,-86351031877.589233,12016356535.378376,-12010706485.717430,6552796439.930977,0.226363,-0.226321,0.123458
-2.140000,-0.600000,3.222652,0.040000,-86496255507.434204,12646039264.994118,-12639680188.746702,7308116147.063492,0.238223,-0.238175,0.137689
-2.100000,-0.600000,3.187813,0.040000,-86661722488.417465,13386707563.492786,-13379482445.611261,8033224136.794362,0.252172,-0.252118,0.151351
-2.060000,-0.600000,3.153096,0.040000,-86848619210.545715,14253497125.024340,-14245217318.264105,8719834814.556532,0.268497,-0.268435,0.164287
-2.020000,-0.600000,3.118506,0.040000,-87058334145.664413,15264842583.791447,-15255279979.714388,9357612993.242874,0.287544,-0.287472,0.176303
-1.980000,-0.600000,3.084046,0.040000,-87292487403.129181,16443168367.710211,-16432045544.617516,9933652577.347546,0.309736,-0.309652,0.187156
-1.940000,-0.600000,3.049722,0.040000,-87552966684.209045,17815752312.149757,-17802730034.485023,10431804900.622458,0.335585,-0.335487,0.196541
-1.900000,-0.600000,3.015538,0.040000,-87841971021.060196,19415808577.441154,-19400469794.902241,10831802519.629980,0.365718,-0.365603,0.204077
-1.860000,-0.600000,2.981498,0.040000,-88162064038.299393,21283851420.861519,-21265680606.658852,11108102414.471991,0.400897,-0.400760,0.209283
-1.820000,-0.600000,2.947609,0.040000,-88516238926.358139,23469421841.904125,-23447778073.900253,11228340927.192366,0.442055,-0.441892,0.211548
-1.780000,-0.600000,2.913874,0.040000,-88907997898.845123,26033287264.652660,-26007368839.649590,11151246626.058676,0.490336,-0.490140,0.210096
-1.740000,-0.600000,2.880299,0.040000,-89341449666.395447,29050263398.744171,-29019060903.104919,10823789327.909536,0.547147,-0.546912,0.203926
-1.700000,-0.600000,2.846891,0.040000,-89821429459.701248,32612861724.002705,-32575095252.791744,10177242411.282059,0.614232,-0.613947,0.191745
-1.660000,-0.600000,2.813655,0.040000,-90353647462.026489,36836042039.450600,-36790076518.505257,9121683471.349646,0.693753,-0.693406,0.171858
-1.620000,-0.600000,2.780596,0.040000,-90944873288.896118,41863456153.585281,-41807186273.986237,7538226819.380246,0.788414,-0.787990,0.142025
-1.580000,-0.600000,2.747723,0.040000,-91603166551.489410,47875718346.790413,-47806411241.397858,5267924161.361693,0.901615,-0.901092,0.099251
-1.540000,-0.600000,2.715040,0.040000,-92338166801.253189,55101446756.020958,-55015526039.766449,2095711046.828402,1.037658,-1.037010,0.039484
-1.500000,-0.600000,2.682556,0.040000,-93161460611.623505,63832105854.305122,-63724855141.521637,-2273110874.783582,1.202028,-1.201219,-0.042827
-1.460000,-0.600000,2.650278,0.040000,-94087049667.393707,74442057871.259567,-74307216645.075043,-8247800171.351751,1.401769,-1.400753,-0.155393
-1.420000,-0.600000,2.618212,0.040000,-95131952106.411514,87415687539.729675,-87244911860.591263,-16404822731.113897,1.645997,-1.644710,-0.309076
-1.380000,-0.600000,2.586368,0.040000,-96316980714.048950,103383901369.896423,-103166078758.607651,-27568555188.304646,1.946581,-1.944940,-0.519408
-1.340000,-0.600000,2.554753,0.040000,-97667756581.751053,123172417974.234268,-122892884700.256271,-42937510069.800682,2.319060,-2.316953,-0.808968
-1.300000,-0.600000,2.523376,0.040000,-99216035641.937683,147863458807.263062,-147503285556.008331,-64286931106.443161,2.783798,-2.781083,-1.211203
-1.260000,-0.600000,2.492246,0.040000,-101001446773.087143,178870425246.643433,-178405951517.154022,-94305311169.749557,3.367397,-3.363897,-1.776767
-1.220000,-0.600000,2.461373,0.040000,-103073761073.837479,218026156456.989899,-217427766154.250305,-137177129591.785294,4.104357,-4.099847,-2.584497
-1.180000,-0.600000,2.430765,0.040000,-105495836147.087555,267714070660.379181,-266936573911.658386,-199627522441.324890,5.039494,-5.033634,-3.761098
-1.140000,-0.600000,2.400434,0.040000,-108347458891.606384,331204648345.762024,-330140560197.685974,-292769682208.202026,6.234073,-6.226054,-5.515951
-1.100000,-0.600000,2.370390,0.040000,-111730660790.263489,413659447184.889709,-412008181227.869080,-434877286374.217957,7.784251,-7.771806,-8.193340
-1.060000,-0.600000,2.340643,0.040000,-115778086375.838577,523755728549.390564,-521034310473.174744,-653007510545.030029,9.852480,-9.831970,-12.303040
-1.020000,-0.600000,2.311207,0.040000,-120666216817.251511,667150212870.091187,-664948581209.808228,-973645603191.572876,12.557053,-12.540461,-18.344048
-0.980000,-0.600000,2.282091,0.040000,-126618419591.419998,779291221251.209839,-795973272498.712891,-1384677362376.401367,14.776588,-14.902308,-26.088124
-0.940000,-0.600000,2.253310,0.040000,-133767866951.892136,457335724469.967529,-718073680476.452515,-1761509805783.403809,10.090206,-12.055188,-33.187866
-0.900000,-0.600000,2.224875,0.040000,-141245964394.612366,-1439284783315.432373,1880332192382.256104,-4252458662195.982910,-29.609836,32.933672,-80.118786
-0.860000,-0.600000,2.196800,0.040000,-144112426145.558807,-3666532861005.983887,2680459170302.250488,-10980589494916.488281,-63.506145,56.074865,-206.880672
-0.820000,-0.600000,2.168342,0.040000,-142473666884.242584,-8022292961058.125977,6453040038242.980469,-14222675916036.455078,-142.274960,130.448706,-267.963459
-0.780000,-0.600000,2.140078,0.040000,-134643110337.980881,-15476746400147.644531,27769542869968.281250,1365523076335.454834,-361.071898,453.713262,25.727246
-0.740000,-0.600000,2.111917,0.040000,-72288779873.129745,-1305492618258.736328,20533642173945.910156,39366806582326.945312,-133.277083,278.184877,741.693457
-0.700000,-0.600000,2.083453,0.040000,11432740434.871346,40501706501418.390625,-23821844976571.234375,34841319403050.750000,668.798152,-543.094847,656.430655
-0.660000,-0.600000,2.055373,0.040000,81327178640.930557,40062057911957.562500,-31014862165538.164062,-3255475845702.414062,703.656072,-635.474307,-61.335052
-0.620000,-0.600000,2.026933,0.040000,105443822424.766571,16077651086411.652344,-13779976957575.183594,-12146213099458.896484,289.925413,-272.609608,-228.841696
-0.580000,-0.600000,1.998650,0.040000,104935563325.306931,4426799941492.440430,-3979056666445.011719,-9127105823448.269531,80.872754,-77.498457,-171.959965
-0.540000,-0.600000,1.970529,0.040000,96765444301.026062,543582293264.302368,-404583306107.721558,-5813538804106.143555,9.455759,-8.408230,-109.530441
-0.500000,-0.600000,1.942031,0.040000,87486937655.968658,-607642321752.548218,651680652374.567139,-3543181141463.249512,-11.697246,12.029129,-66.755587
-0.460000,-0.600000,1.913945,0.040000,79100195404.745163,-831887708173.754761,844522042713.740479,-2185669264782.408203,-15.744658,15.839873,-41.179276
-0.420000,-0.600000,1.885527,0.040000,72020255627.930527,-775151663526.104492,777646360463.827271,-1391675337923.967773,-14.618407,14.637208,-26.219970
-0.380000,-0.600000,1.857222,0.040000,66174882143.185112,-652775767896.386963,652371697420.054565,-918036837728.509766,-12.296390,12.293345,-17.296346
-0.340000,-0.600000,1.829147,0.040000,61373913136.527061,-530018068093.341003,528933347357.545593,-626235901263.001099,-9.979717,9.971542,-11.798647
-0.300000,-0.600000,1.800611,0.040000,57422438957.592659,-423960546099.807861,422838698910.413086,-440988771888.586731,-7.981322,7.972867,-8.308484
-0.260000,-0.600000,1.772518,0.040000,54150956374.138580,-336786938437.752869,335829815888.320007,-320273756171.208679,-6.339851,6.332638,-6.034143
-0.220000,-0.600000,1.744890,0.040000,51419767884.497375,-266075323457.514954,265324210248.719299,-239832244812.714203,-5.008768,5.003107,-4.518579
-0.180000,-0.600000,1.717749,0.040000,49115437525.237007,-208427454960.844696,207860002166.189789,-185434865980.764587,-3.923687,3.919410,-3.493700
-0.140000,-0.600000,1.691118,0.040000,47145457596.911942,-160757911327.811554,160308231054.282288,-148537366753.946320,-3.026231,3.022842,-2.798530
-0.100000,-0.600000,1.665023,0.040000,45433253139.696632,-120906037750.138474,120206382419.020309,-123959706141.705643,-2.273985,2.268713,-2.335473
-0.060000,-0.600000,1.639488,0.040000,43913942191.497581,-85295679979.560410,84870435500.234131,-108485032857.700699,-1.604617,1.601412,-2.043921
-0.020000,-0.600000,1.614541,0.040000,42530795651.738953,-52957031471.479263,52759832265.248764,-100252217183.731522,-0.996627,0.995140,-1.888810
0.020000,-0.600000,1.590208,0.040000,41232258831.187622,-22224936843.001629,22238777286.722927,-98294534012.645844,-0.418809,0.418913,-1.851926
0.060000,-0.600000,1.566519,0.040000,39969328333.971939,8455780283.594083,-8228470973.813301,-102383987716.447968,0.158027,-0.156314,-1.928974
0.100000,-0.600000,1.543503,0.040000,38693088814.020615,40651357010.533096,-40179126927.746956,-112992568479.902237,0.763226,-0.759667,-2.128845
0.140000,-0.600000,1.521191,0.040000,37352246503.475891,75349897590.814636,-75034985183.359512,-131369781409.206161,1.417856,-1.415483,-2.475083
0.180000,-0.600000,1.499614,0.040000,35890464089.492256,115455216648.066055,-115042355868.128311,-159902240341.217285,2.172910,-2.169798,-3.012651
0.220000,-0.600000,1.478805,0.040000,34243322024.900566,162831993897.909637,-162267040635.208313,-202548460385.232300,3.064656,-3.060398,-3.816130
0.260000,-0.600000,1.458795,0.040000,32334796007.765236,220017964423.393280,-219283496597.018005,-265930203553.527954,4.141115,-4.135580,-5.010279
0.300000,-0.600000,1.439620,0.040000,30073142915.319988,289805903055.480286,-288948651330.516846,-361237967076.912720,5.455266,-5.448805,-6.805933
0.340000,-0.600000,1.421311,0.040000,27346525890.335148,374073691194.584045,-373254873625.563660,-507619103447.327148,7.043137,-7.036966,-9.563838
0.380000,-0.600000,1.403903,0.040000,24020278087.120022,471011819317.298401,-470664496046.747498,-737877144969.978760,8.872173,-8.869555,-13.902033
0.420000,-0.600000,1.387431,0.040000,19940450095.263920,567841495117.353760,-569682758613.651855,-1111004812619.706787,10.708870,-10.722746,-20.931975
0.460000,-0.600000,1.371928,0.040000,14956469280.061815,614034709386.467529,-624217815713.172363,-1738277873931.547607,11.626327,-11.703069,-32.750163
0.500000,-0.600000,1.357426,0.040000,9009287175.687550,435370854211.228394,-471341714392.323425,-2815466263298.529297,8.405953,-8.677038,-53.045017
0.540000,-0.600000,1.343959,0.040000,2430026267.506304,-488932386295.663940,379018857282.024841,-4608452031223.765625,-8.590519,7.762185,-86.825908
0.580000,-0.600000,1.331558,0.040000,-3178364146.296119,-3566898205558.590820,3220820402562.860352,-7183227199067.004883,-65.246338,62.638215,-135.336165
0.620000,-0.600000,1.320253,0.040000,-2628048389.748613,-12690192950574.302734,10882854770315.396484,-9502450190697.207031,-228.875202,215.254682,-179.031670
0.660000,-0.600000,1.310071,0.040000,17342753770.128956,-31410246757699.144531,24285479994346.906250,-2597159088261.070312,-551.516837,497.822942,-48.931983
0.700000,-0.600000,1.301041,0.040000,73138843535.686584,-31750311163915.847656,19146285540117.753906,27435502445962.996094,-526.954123,431.967264,516.900771
0.740000,-0.600000,1.293185,0.040000,139676672422.891724,1595264768906.759033,-15565688649535.939453,31276680388748.937500,109.018978,-214.303332,589.270790
0.780000,-0.600000,1.286526,0.040000,192902074708.014221,12329556770321.716797,-23556276898738.871094,1401015236124.570068,295.751372,-380.358538,26.395939
0.820000,-0.600000,1.281081,0.040000,198280935060.172852,6407623298919.716797,-6482797548093.363281,-10803972505398.615234,121.148235,-121.714766,-203.553105
0.860000,-0.600000,1.276867,0.040000,196918700172.711029,2454270970729.181152,-1836111965092.319336,-8376631922129.241211,42.745946,-38.087356,-157.820601
0.900000,-0.600000,1.273895,0.040000,192396920758.968201,753523514522.452759,-1015297227970.709229,-3492783308406.395996,15.676410,-17.649198,-65.806062
0.940000,-0.600000,1.272175,0.040000,185235685323.878723,-498767249267.866882,661461363070.226318,-1567536606867.134766,-10.316640,11.542740,-29.533298
0.980000,-0.600000,1.271711,0.040000,178618876283.971649,-711960660205.739868,723855988314.948120,-1138836993088.724121,-13.480986,13.570632,-21.456349
1.020000,-0.600000,1.271711,0.040000,173107696538.775146,-625143763789.959229,624597399198.017700,-790694021119.718872,-11.774983,11.770865,-14.897134
1.060000,-0.600000,1.272175,0.040000,168593522449.263641,-505114624607.740295,503479514074.281738,-542230137508.436462,-9.507410,9.495088,-10.215930
1.100000,-0.600000,1.273895,0.040000,164889119525.930237,-404296168034.723206,403000205781.379639,-375668654729.667725,-7.609849,7.600083,-7.077815
1.140000,-0.600000,1.276867,0.040000,161833426322.131653,-324741792708.849182,323769759836.146484,-265641558871.668793,-6.112830,6.105504,-5.004841
1.180000,-0.600000,1.281081,0.040000,159298794495.977417,-262115638006.274658,261367226405.302704,-191870585623.916138,-4.934180,4.928540,-3.614953
1.220000,-0.600000,1.286526,0.040000,157184693066.814575,-212621784499.797699,212038474709.238403,-141117080281.556519,-4.002621,3.998225,-2.658728
1.260000,-0.600000,1.293185,0.040000,155411678576.022858,-173357907853.077209,172902238102.798767,-105247786078.751068,-3.263588,3.260154,-1.982929
1.300000,-0.600000,1.301041,0.040000,153916733158.743805,-142081899441.521606,141725516387.186310,-79268554148.073486,-2.674891,2.672205,-1.493466
1.340000,-0.600000,1.310071,0.040000,152649663409.234528,-117053101548.946320,116773566091.974487,-60045186992.416801,-2.203768,2.201662,-1.131286
1.380000,-0.600000,1.320253,0.040000,151570305824.753143,-96924403163.475525,96704154044.753357,-45557030372.290367,-1.824867,1.823207,-0.858321
1.420000,-0.600000,1.331558,0.040000,150646363866.675262,-80656062522.058548,80481584569.525345,-34467088600.094604,-1.518621,1.517306,-0.649380
1.460000,-0.600000,1.343959,0.040000,149851738204.660217,-67445112794.553680,67306105072.525955,-25869438395.149525,-1.269919,1.268872,-0.487395
1.500000,-0.600000,1.357426,0.040000,149165237078.695770,-56669280995.641571,56557912483.307739,-19136628930.168560,-1.067053,1.066213,-0.360545
1.540000,-0.600000,1.371928,0.040000,148569576896.293304,-47843770731.092834,47754074517.087814,-13825022200.374142,-0.900897,0.900221,-0.260471
1.580000,-0.600000,1.387431,0.040000,148050603709.889679,-40588565816.573555,40515972083.923378,-9614712433.571283,-0.764302,0.763755,-0.181147
1.620000,-0.600000,1.403903,0.040000,147596683053.264862,-34603890137.021935,34544875983.929390,-6270625829.095482,-0.651624,0.651179,-0.118142
1.660000,-0.600000,1.421311,0.040000,147198218696.815186,-29651806947.252659,29603636997.252426,-3616882114.229734,-0.558385,0.558022,-0.068144
1.700000,-0.600000,1.439620,0.040000,146847270742.740936,-25542375883.499496,25502910779.084267,-1519618133.110404,-0.481010,0.480713,-0.028630
1.740000,-0.600000,1.458795,0.040000,146537250807.812012,-22123178500.406109,22090733246.534210,124698331.920879,-0.416630,0.416386,0.002349
1.780000,-0.600000,1.478805,0.040000,146262677458.283203,-19271336326.002686,19244574994.247574,1397338441.899288,-0.362932,0.362730,0.026327
1.820000,-0.600000,1.499614,0.040000,146018979070.142517,-16887381548.844217,16865238480.294809,2362966820.778296,-0.318043,0.317876,0.044520
1.860000,-0.600000,1.521191,0.040000,145802334267.152924,-14890513662.425627,14872134041.608135,3073661678.731454,-0.280442,0.280304,0.057910
1.900000,-0.600000,1.543503,0.040000,145609542317.609528,-13214900882.649508,13199595546.615473,3571815226.119725,-0.248890,0.248775,0.067295
1.940000,-0.600000,1.566519,0.040000,145437917550.249176,-11806775661.816488,11793986440.342737,3892257775.561685,-0.222374,0.222278,0.073332
1.980000,-0.600000,1.590208,0.040000,145285203125.990265,-10622138921.201609,10611411826.086002,4063837285.011783,-0.200067,0.199986,0.076565
2.020000,-0.600000,1.614541,0.040000,145149500480.241241,-9624934887.532684,9615899200.316957,4110612448.357673,-0.181288,0.181220,0.077446
2.060000,-0.600000,1.639488,0.040000,145029211506.481293,-8785592812.379396,8777944639.908564,4052768325.949844,-0.165482,0.165425,0.076357
2.100000,-0.600000,1.665023,0.040000,144922991141.022675,-8079857049.442390,8073346290.012931,3907330428.262281,-0.152192,0.152143,0.073616
2.140000,-0.600000,1.691118,0.040000,144829708471.852814,-7487845568.154663,7482265502.412758,3688730683.249609,-0.141044,0.141002,0.069498
2.180000,-0.600000,1.717749,0.040000,144748414861.168121,-6993290845.815614,6988469760.657048,3409263310.543301,-0.131730,0.131694,0.064232
2.220000,-0.600000,1.744890,0.040000,144678317863.917084,-6582927542.971329,6578721985.471475,3079457989.173360,-0.124002,0.123971,0.058019
2.260000,-0.600000,1.772518,0.040000,144618759960.223541,-6245999990.917793,6242290099.271411,2708390352.973816,-0.117657,0.117629,0.051028
2.300000,-0.600000,1.800611,0.040000,144569201312.022522,-5973879600.434194,5970577819.519687,2303945446.551974,-0.112533,0.112508,0.043408
2.340000,-0.600000,1.829147,0.040000,144529205937.635315,-5759919554.862665,5757099206.668434,1873057859.530843,-0.108504,0.108483,0.035289
2.380000,-0.600000,1.857222,0.040000,144498431292.154633,-5600025770.919418,5596981886.170337,1422418124.536741,-0.105491,0.105468,0.026799
2.420000,-0.600000,1.885527,0.040000,144476628413.142883,-5497726255.530807,5514829029.246100,1080575399.299450,-0.103677,0.103806,0.020359
2.460000,-0.600000,1.913945,0.040000,144463736779.825531,-5472991616.543698,5544266543.397089,879277077.703085,-0.103517,0.104054,0.016566
-2.500000,-0.560000,3.523511,0.040000,-43183848686.967239,-10540643022.387028,25645275930419.386719,119455108382.824890,-145.090574,338.279883,2.250603
-2.460000,-0.560000,3.487548,0.040000,-86374600555.743896,1572668504271.235352,17874025210225.085938,66658186550.972008,-80.286109,226.840902,1.255879
-2.420000,-0.560000,3.451675,0.040000,-86400723561.078171,-906299110233.680420,5732330955639.021484,20680574988.032013,-44.352772,80.722867,0.389634
-2.380000,-0.560000,3.415892,0.040000,-86443899206.731049,-43870067370.790894,149285778870.505798,2359006866.505351,-1.422365,2.216803,0.044445
-2.340000,-0.560000,3.380205,0.040000,-86504615920.137604,11183482450.937805,-11179291531.652937,3095627148.449222,0.210680,-0.210648,0.058323
-2.300000,-0.560000,3.344615,0.040000,-86583231450.649124,11460862834.629375,-11456808767.802248,3847716284.066290,0.215906,-0.215876,0.072493
-2.260000,-0.560000,3.309126,0.040000,-86680190465.021164,11807894967.076807,-11803550908.709234,4583925496.966434,0.222443,-0.222410,0.086364
-2.220000,-0.560000,3.273741,0.040000,-86796048722.664917,12230623298.271345,-12225876434.443253,5299380420.380761,0.230405,-0.230369,0.099843
-2.180000,-0.560000,3.238463,0.040000,-86931483206.752930,12736151913.288851,-12730904419.298014,5988122274.864286,0.239927,-0.239887,0.112820
-2.140000,-0.560000,3.203296,0.040000,-87087303526.531876,13333231067.879618,-13327370240.249567,6642853155.517094,0.251173,-0.251129,0.125155
-2.100000,-0.560000,3.168244,0.040000,-87264465943.773422,14032576614.693701,-14025969133.685068,7254600830.343047,0.264345,-0.264295,0.136681
-2.060000,-0.560000,3.133310,0.040000,-87464090549.764893,14847233967.121025,-14839721029.224182,7812304409.179661,0.279688,-0.279631,0.147188
-2.020000,-0.560000,3.098499,0.040000,-87687482176.850342,15793023799.212042,-15784415353.094402,8302297153.857594,0.297501,-0.297436,0.156420
-1.980000,-0.560000,3.063815,0.040000,-87936155759.174454,16889088358.698845,-16879156109.601297,8707652687.248949,0.318144,-0.318069,0.164057
-1.940000,-0.560000,3.029261,0.040000,-88211867018.617615,18158560116.197170,-18147028995.112644,9007348478.830648,0.342053,-0.341966,0.169704
-1.900000,-0.560000,2.994844,0.040000,-88516649548.102890,19629379611.548721,-19615917341.399139,9175183059.964817,0.369753,-0.369651,0.172866
-1.860000,-0.560000,2.960566,0.040000,-88852859603.732834,21335295776.750576,-21319500085.721268,9178358602.419813,0.401880,-0.401761,0.172926
-1.820000,-0.560000,2.926434,0.040000,-89223230209.859085,23317089848.860146,-23298472790.938541,8975604885.625540,0.439202,-0.439062,0.169106
-1.780000,-0.560000,2.892452,0.040000,-89630936539.750534,25624073360.421474,-25602042116.828957,8514669208.140996,0.482648,-0.482482,0.160421
-1.740000,-0.560000,2.858626,0.040000,-90079674973.993927,28315921497.184597,-28289754980.224873,7728921801.061614,0.533340,-0.533143,0.145617
-1.700000,-0.560000,2.824962,0.040000,-90573758776.360916,31464914662.835300,-31433735291.558090,6532716077.342173,0.592641,-0.592406,0.123080
-1.660000,-0.560000,2.791464,0.040000,-91118233980.918152,35158671462.946693,-35121411768.651932,4814979561.707954,0.662199,-0.661918,0.090717
-1.620000,-0.560000,2.758140,0.040000,-91719019870.855774,39503461004.866402,-39458825533.516937,2430266483.531503,0.744016,-0.743679,0.045788
-1.580000,-0.560000,2.724996,0.040000,-92383079355.507797,44628171621.049538,-44574596499.510880,-813867423.999503,0.840518,-0.840114,-0.015334
-1.540000,-0.560000,2.692037,0.040000,-93118625598.303482,50688966373.809364,-50624583055.903374,-5174873388.269386,0.954646,-0.954160,-0.097498
-1.500000,-0.560000,2.659272,0.040000,-93935372336.434845,57874530384.461090,-57797148931.693977,-11001179473.756804,1.089952,-1.089369,-0.207269
-1.460000,-0.560000,2.626708,0.040000,-94844836254.521606,66411520839.435608,-66318667105.447372,-18770054912.094601,1.250707,-1.250007,-0.353639
-1.420000,-0.560000,2.594351,0.040000,-95860700041.419342,76569167160.863922,-76458250866.854309,-29143413876.470783,1.441981,-1.441145,-0.549079
-1.380000,-0.560000,2.562210,0.040000,-96999243269.126663,88660463043.047485,-88529255491.346756,-43050904584.619919,1.669673,-1.668684,-0.811104
-1.340000,-0.560000,2.530293,0.040000,-98279842473.822800,103033860049.613403,-102881718350.798584,-61814856291.267319,1.940358,-1.939211,-1.164628
-1.300000,-0.560000,2.498609,0.040000,-99725525881.713196,120040808022.970963,-119871750701.139359,-87340447081.547302,2.260683,-2.259409,-1.645545
-1.260000,-0.560000,2.467167,0.040000,-101363527800.551361,139943782515.071045,-139774137640.984955,-122411967199.518250,2.635663,-2.634385,-2.306312
-1.220000,-0.560000,2.435975,0.040000,-103225688621.862015,162683828277.346619,-162560144777.071411,-171181209469.591370,3.064359,-3.063426,-3.225153
-1.180000,-0.560000,2.405045,0.040000,-105348315898.457565,187355761008.332306,-187388562566.815277,-240071678317.179993,3.530077,-3.530324,-4.523090
-1.140000,-0.560000,2.374385,0.040000,-107770659958.519470,211287642035.457336,-211668396658.703430,-339724684682.964661,3.982934,-3.985803,-6.400610
-1.100000,-0.560000,2.344007,0.040000,-110530616403.295761,229648532909.088074,-230377555459.569946,-489450744866.085083,4.330832,-4.336326,-9.221536
-1.060000,-0.560000,2.313921,0.040000,-113657532464.701492,241558468251.610779,-240739092113.109467,-725227937935.946899,4.546470,-4.540295,-13.663715
-1.020000,-0.560000,2.284140,0.040000,-117173221531.795212,281033276407.677368,-270866989830.170135,-1095482682897.554810,5.237368,-5.160753,-20.639529
-0.980000,-0.560000,2.254675,0.040000,-121150055483.080444,476186531497.560974,-458030325014.946960,-1539791252165.333740,8.869008,-8.732179,-29.010560
-0.940000,-0.560000,2.225539,0.040000,-125906956243.375259,947835448591.799683,-823394978902.905273,-1541074895815.373047,17.154410,-16.216598,-29.034744
-0.900000,-0.560000,2.196745,0.040000,-132181968872.772217,353158287795.732300,5627236487494.986328,-3178368856410.149902,-27.148524,72.218166,-59.882312
-0.860000,-0.560000,2.168306,0.040000,-142236670630.277069,3293303452551.764648,13649696868485.089844,-7261877451629.768555,-33.717038,161.403417,-136.817981
-0.820000,-0.560000,2.140237,0.040000,-90954969773.693527,-11586265810164.246094,-1485884022236.773438,-6586182453556.640625,-144.405900,45.891148,-124.087496
-0.780000,-0.560000,2.111775,0.040000,-78897382665.854416,-11745193261033.121094,7572155018934.775391,3294910948420.399414,-197.699512,166.250528,62.078032
-0.740000,-0.560000,2.083511,0.040000,-44629517539.630501,-9047374268680.894531,8841531471786.611328,14528067712940.363281,-169.294317,167.743038,273.717218
-0.700000,-0.560000,2.055353,0.040000,1988167721.974383,5410790152730.725586,-4668957966737.626953,15957272099085.304688,97.749459,-92.158839,300.644257
-0.660000,-0.560000,2.026884,0.040000,43290287996.266083,10972202736813.792969,-11680504137203.177734,7400277002435.959961,210.726103,-216.064027,139.425509
-0.620000,-0.560000,1.998810,0.040000,67438973935.493095,9509552012065.599609,-9747792219641.080078,-983625114086.753540,180.512048,-182.307481,-18.532067
-0.580000,-0.560000,1.970366,0.040000,76510642838.716110,5201820828599.726562,-5077028620080.935547,-3845963607468.917969,97.299973,-96.359510,-72.460184
-0.540000,-0.560000,1.942083,0.040000,77154207137.804230,2212318148145.731934,-2117728107830.209961,-3628157221885.109375,41.146717,-40.433865,-68.356585
-0.500000,-0.560000,1.913966,0.040000,74133949196.109116,704712911736.720459,-656882713750.400513,-2749309164637.520996,13.006855,-12.646396,-51.798578
-0.460000,-0.560000,1.885463,0.040000,69913941430.564377,40774506052.746956,-18935274353.482170,-1952118102246.495117,0.644776,-0.480191,-36.779037
-0.420000,-0.560000,1.857383,0.040000,65593846735.974281,-218037090533.258514,227520799011.809631,-1367511435140.986084,-4.161549,4.233020,-25.764708
-0.380000,-0.560000,1.828960,0.040000,61607052408.739395,-296315397464.139282,300258044262.218994,-965052175820.727661,-5.605038,5.634751,-18.182142
-0.340000,-0.560000,1.800654,0.040000,58087778745.583771,-298280779847.180481,299789531956.590332,-692028609024.210815,-5.628311,5.639681,-13.038220
-0.300000,-0.560000,1.772587,0.040000,55043191812.718094,-270488147868.422180,270936864331.640198,-506233072113.123901,-5.098690,5.102071,-9.537725
-0.260000,-0.560000,1.744042,0.040000,52430585602.623566,-233391519299.326874,233346390254.278717,-378621191971.179260,-4.396976,4.396636,-7.133443
-0.220000,-0.560000,1.715956,0.040000,50191236554.016304,-197295090015.445251,195870018213.286743,-290185445738.171570,-3.709099,3.698359,-5.467262
-0.180000,-0.560000,1.688350,0.040000,48264676950.868996,-160940062559.274414,160386664697.007751,-229098682181.505066,-3.029076,3.024906,-4.316352
-0.140000,-0.560000,1.661248,0.040000,46594124949.697838,-132998739215.629288,128173396665.963760,-182723561677.361694,-2.478500,2.442135,-3.442618
-0.100000,-0.560000,1.634676,0.040000,45127981266.549240,-112201267158.710205,101321155560.625122,-152277554635.961700,-2.052441,1.970446,-2.868997
-0.060000,-0.560000,1.608660,0.040000,43819613786.543892,-80888071152.093338,73530887739.401062,-133786919178.816956,-1.482394,1.426949,-2.520623
-0.020000,-0.560000,1.583226,0.040000,42626426839.314056,-50113419914.090302,47956271775.838120,-122379451844.744843,-0.931973,0.915717,-2.305700
0.020000,-0.560000,1.558405,0.040000,41508661994.112434,-22825840656.547939,23126463118.109043,-119851149080.760727,-0.431751,0.434017,-2.258065
0.060000,-0.560000,1.534225,0.040000,40428118229.718010,6243252761.895805,-1277962125.816522,-125723627727.157623,0.089562,-0.052142,-2.368706
0.100000,-0.560000,1.510717,0.040000,39346867796.077881,35544607391.839325,-26786380427.828514,-138254519066.032196,0.620178,-0.554174,-2.604795
0.140000,-0.560000,1.487914,0.040000,38226011321.319702,54871372085.030579,-50721913854.954506,-160595069600.237732,1.010355,-0.979084,-3.025704
0.180000,-0.560000,1.465847,0.040000,37024531133.035362,78695974532.480301,-78206255973.038696,-196258990400.507965,1.479910,-1.476219,-3.697633
0.220000,-0.560000,1.444551,0.040000,35698389542.922333,108938447312.545166,-107851210395.025467,-243787707281.477875,2.046318,-2.038125,-4.593102
0.260000,-0.560000,1.424060,0.040000,34200220385.108982,138640512258.012909,-138624267212.726227,-313076835293.868042,2.611976,-2.611853,-5.898549
0.300000,-0.560000,1.404410,0.040000,32480390101.356213,168766420599.737122,-169139571754.270599,-413470648270.165100,3.181766,-3.184578,-7.790027
0.340000,-0.560000,1.385637,0.040000,30491191779.865082,191235620703.327850,-192440555334.634888,-559877955214.098389,3.609800,-3.618881,-10.548425
0.380000,-0.560000,1.367775,0.040000,28198062920.696632,189964147734.132782,-193075022177.258270,-775093070438.196655,3.596618,-3.620062,-14.603203
0.420000,-0.560000,1.350862,0.040000,25606201691.806904,128355781474.168503,-135857032195.215317,-1092464592581.156616,2.460696,-2.517227,-20.582666
0.460000,-0.560000,1.334934,0.040000,22821272620.186649,-76083986156.086945,58712577896.084572,-1554019415641.906006,-1.335280,1.204365,-29.278627
0.500000,-0.560000,1.320026,0.040000,20185691979.741104,-601920812438.081055,564021375764.807129,-2183264606131.911377,-11.126323,10.840704,-41.133971
0.540000,-0.560000,1.306174,0.040000,18570306780.811054,-1794919831631.843750,1720903233226.157715,-2872598587626.733398,-33.398975,32.841169,-54.121423
0.580000,-0.560000,1.293410,0.040000,19924246168.364170,-4149122937806.790527,4052340323528.867188,-3033512346267.457520,-77.624849,76.895473,-57.153131
0.620000,-0.560000,1.281769,0.040000,27998152634.438221,-7523420369820.110352,7710696467085.230469,-780300094154.661499,-142.804118,144.215474,-14.701306
0.660000,-0.560000,1.271279,0.040000,48001094511.200890,-8667626923792.707031,9217451145692.990234,5762760755308.836914,-166.410818,170.554421,108.573753
0.700000,-0.560000,1.261971,0.040000,81575965516.000763,-4385648681507.002930,3894402042407.906250,12519925481637.570312,-79.851552,76.149404,235.882654
0.740000,-0.560000,1.253871,0.040000,119650983881.135620,7084575803477.484375,-6796938917339.315430,11598387462428.482422,131.851741,-129.684043,218.520343
0.780000,-0.560000,1.247001,0.040000,148410354595.199615,9604015853986.873047,-7415932807414.698242,2886552444645.064453,168.577800,-152.087899,54.384321
0.820000,-0.560000,1.241383,0.040000,159197972204.543274,8906380228577.332031,-1076344964274.788452,-4764825548388.278320,123.544646,-64.535684,-89.772076
0.860000,-0.560000,1.237034,0.040000,190877718093.681183,-1176785074759.933838,-9167433311244.347656,-5387746519387.083008,36.296008,-114.252437,-101.508268
0.900000,-0.560000,1.233966,0.040000,183584196518.008911,91815060766.669220,-3740856219510.985840,-2552499150034.126465,22.354864,-49.854885,-48.090564
0.940000,-0.560000,1.232190,0.040000,178094797322.482513,-569748019605.710327,499974079353.094238,-1304418336798.331543,-10.340009,9.814176,-24.575998
0.980000,-0.560000,1.231712,0.040000,173500553207.681763,-418897040866.511597,414156361847.992859,-1195534542870.641357,-7.865468,7.829741,-22.524564
1.020000,-0.560000,1.231712,0.040000,169578659364.048737,-331899115973.306824,328475580575.130310,-877215677356.612183,-6.233821,6.208021,-16.527252
1.060000,-0.560000,1.232190,0.040000,166191178021.778656,-293614031205.406860,293454390160.539673,-614174263710.037231,-5.530956,5.529753,-11.571399
1.100000,-0.560000,1.233966,0.040000,163274067259.014282,-262555157346.006256,262797834355.191284,-436547504967.369812,-4.948063,4.949892,-8.224808
1.140000,-0.560000,1.237034,0.040000,160776901945.201202,-229429948137.146332,229439052677.077545,-317654721436.203674,-4.322645,4.322713,-5.984799
1.180000,-0.560000,1.241383,0.040000,158646852369.296875,-196419307293.531769,196255778148.030273,-235650203475.653687,-3.699729,3.698497,-4.439786
1.220000,-0.560000,1.247001,0.040000,156831316129.919067,-166112848971.608459,165885403897.140015,-177390140677.912231,-3.128377,3.126663,-3.342133
1.260000,-0.560000,1.253871,0.040000,155281897301.006012,-139639331418.407806,139408032039.627197,-135009633769.777710,-2.629579,2.627835,-2.543660
1.300000,-0.560000,1.261971,0.040000,153956248183.947510,-117129085627.613159,116918706978.331375,-103580484406.408157,-2.205591,2.204005,-1.951516
1.340000,-0.560000,1.271279,0.040000,152818323513.202759,-98257556872.976440,98075507579.389740,-79885357031.406052,-1.850200,1.848828,-1.505086
1.380000,-0.560000,1.281769,0.040000,151837887223.906738,-82550434239.484344,82396719489.728806,-61762696896.866966,-1.554429,1.553271,-1.163645
1.420000,-0.560000,1.293410,0.040000,150989765454.171295,-69522222968.474686,69394068169.583954,-47729097218.295418,-1.309115,1.308149,-0.899244
1.460000,-0.560000,1.306174,0.040000,150253074425.350098,-58730613142.564796,58624470097.167542,-36747959887.862465,-1.105919,1.105119,-0.692353
1.500000,-0.560000,1.320026,0.040000,149610514145.261993,-49792864960.048416,49705239258.165482,-28082505186.158142,-0.937631,0.936971,-0.529091
1.540000,-0.560000,1.334934,0.040000,149047756044.176147,-42386195586.084938,42313955021.247429,-21200309967.775742,-0.798172,0.797628,-0.399426
1.580000,-0.560000,1.350862,0.040000,148552926016.295746,-36242057194.834938,36182514619.594467,-15710331488.826014,-0.682485,0.682036,-0.295992
1.620000,-0.560000,1.367775,0.040000,148116174085.829987,-31138639344.263138,31089541046.201347,-11320793402.908342,-0.586393,0.586022,-0.213290
1.660000,-0.560000,1.385637,0.040000,147729318859.164368,-26893423810.224323,26852902398.781528,-7810653196.022573,-0.506459,0.506153,-0.147157
1.700000,-0.560000,1.404410,0.040000,147385554911.115204,-23356492428.055439,23323010522.120758,-5010019548.373903,-0.439861,0.439608,-0.094392
1.740000,-0.560000,1.424060,0.040000,147079212414.656647,-20404785937.176685,20377081845.067089,-2786537409.850554,-0.384281,0.384073,-0.052500
1.780000,-0.560000,1.444551,0.040000,146805559826.552399,-17937296608.651257,17914336200.993340,-1035798660.288020,-0.337819,0.337646,-0.019515
1.820000,-0.560000,1.465847,0.040000,146560641928.283752,-15871094856.080206,15852030658.407497,325500601.805259,-0.298913,0.298769,0.006133
1.860000,-0.560000,1.487914,0.040000,146341146854.150116,-14138067700.470469,14122204871.234001,1364507641.725340,-0.266280,0.266160,0.025708
1.900000,-0.560000,1.510717,0.040000,146144296877.721985,-12682250627.189072,12669018988.505898,2135838515.496363,-0.238866,0.238766,0.040240
1.940000,-0.560000,1.534225,0.040000,145967758678.457550,-11457647919.942327,11446579095.074804,2684270885.892476,-0.215806,0.215723,0.050573
1.980000,-0.560000,1.558405,0.040000,145809569593.257172,-10426452580.300201,10417161347.613480,3046771728.149386,-0.196388,0.196318,0.057403
2.020000,-0.560000,1.583226,0.040000,145668076998.408356,-9557592267.488974,9549761355.398657,3254045430.155752,-0.180026,0.179967,0.061308
2.060000,-0.560000,1.608660,0.040000,145541888490.179077,-8825541141.270882,8818908814.879232,3331732195.141627,-0.166241,0.166191,0.062772
2.100000,-0.560000,1.634676,0.040000,145429830958.752136,-8209348806.117291,8203698711.554944,3301348631.473754,-0.154637,0.154594,0.062199
2.140000,-0.560000,1.661248,0.040000,145330916998.366272,-7691846866.980944,7686999699.399629,3181036196.216555,-0.144891,0.144855,0.059933
2.180000,-0.560000,1.688350,0.040000,145244317381.368530,-7259001186.247013,7254807827.673723,2986164940.690895,-0.136740,0.136708,0.056261
2.220000,-0.560000,1.715956,0.040000,145169338557.543518,-6899384036.842330,6895719827.625813,2729827251.463795,-0.129968,0.129940,0.051432
2.260000,-0.560000,1.744042,0.040000,145105404332.345337,-6603744573.782065,6600503625.588428,2423247250.588486,-0.124400,0.124376,0.045655
2.300000,-0.560000,1.772587,0.040000,145052041035.076630,-6364648178.985250,6361724908.335720,2076124438.767178,-0.119897,0.119875,0.039115
2.340000,-0.560000,1.800654,0.040000,145008865590.918488,-6176006656.588479,6173130555.914813,1696915098.704079,-0.116343,0.116322,0.031971
2.380000,-0.560000,1.828960,0.040000,144975575517.663818,-6033756946.685622,6034433001.691830,1293270990.164669,-0.113683,0.113688,0.024366
2.420000,-0.560000,1.857383,0.040000,144951932277.999573,-5940303415.568687,5970405598.611520,985645848.576836,-0.112089,0.112316,0.018570
2.460000,-0.560000,1.885463,0.040000,144937639736.642670,-5832036610.423764,5860937519.947286,803247314.748578,-0.110042,0.110260,0.015134
-2.500000,-0.520000,3.506273,0.040000,-43445136694.070709,215068192506.662598,25940353415030.824219,223176145426.519958,-143.782982,340.896305,4.204768
-2.460000,-0.520000,3.470132,0.040000,-86898324232.048477,1588291868193.533936,17980905055872.742188,67751996788.875397,-80.684165,228.162171,1.276487
-2.420000,-0.520000,3.434076,0.040000,-86925656847.027924,-911094774564.964722,5766313593703.986328,19927052133.097107,-44.608095,81.198150,0.375437
-2.380000,-0.520000,3.398109,0.040000,-86971783546.697754,-43459797038.905983,149519954246.629120,2183992485.575523,-1.418278,2.217572,0.041148
-2.340000,-0.520000,3.362232,0.040000,-87036674671.536667,11910838198.021587,-11907729573.832464,2858852804.345401,0.224390,-0.224366,0.053862
-2.300000,-0.520000,3.326450,0.040000,-87120629057.616272,12171476835.211580,-12167783095.415648,3545425882.771455,0.229297,-0.229269,0.066798
-2.260000,-0.520000,3.290765,0.040000,-87224063504.589264,12497618604.664995,-12493626144.235241,4211635476.907062,0.235440,-0.235410,0.079350
-2.220000,-0.520000,3.255180,0.040000,-87347500224.255783,12893453142.460108,-12889127806.165113,4851341551.696600,0.242896,-0.242863,0.091402
-2.180000,-0.520000,3.219699,0.040000,-87491573055.278229,13364722646.440332,-13359989667.017605,5457182168.249212,0.251772,-0.251737,0.102816
-2.140000,-0.520000,3.184325,0.040000,-87657036650.002396,13918542453.816467,-13913312401.277363,6020228073.201423,0.262204,-0.262164,0.113425
-2.100000,-0.520000,3.149062,0.040000,-87844777877.761337,14563593627.956060,-14557761633.893219,6529591046.632490,0.274354,-0.274310,0.123021
-2.060000,-0.520000,3.113913,0.040000,-88055829737.900482,15310388552.581274,-15303831377.088625,6971946556.104083,0.288420,-0.288370,0.131356
-2.020000,-0.520000,3.078882,0.040000,-88291388207.559326,16171591211.643806,-16164163806.651997,7330942554.334961,0.304640,-0.304584,0.138119
-1.980000,-0.520000,3.043975,0.040000,-88552832537.246918,17162397466.491673,-17153929133.837233,7586458506.039538,0.323302,-0.323238,0.142933
-1.940000,-0.520000,3.009193,0.040000,-88841749603.252502,18300982083.427792,-18291272279.952023,7713666365.029721,0.344746,-0.344673,0.145330
-1.900000,-0.520000,2.974544,0.040000,-89159963032.661545,19609018467.475517,-19597832385.871250,7681827824.793829,0.369382,-0.369298,0.144730
-1.860000,-0.520000,2.940029,0.040000,-89509567932.868149,21112274684.757706,-21099338882.440193,7452737675.045825,0.397694,-0.397597,0.140414
-1.820000,-0.520000,2.905656,0.040000,-89892972179.112808,22841284408.072048,-22826282998.164436,6978688429.048277,0.430258,-0.430145,0.131483
-1.780000,-0.520000,2.871428,0.040000,-90312945332.637924,24832082081.545753,-24814654414.977779,6199782022.992172,0.467752,-0.467621,0.116807
-1.740000,-0.520000,2.837352,0.040000,-90772676363.353516,27126974805.426178,-27106716274.287258,5040343677.521547,0.510973,-0.510821,0.094963
-1.700000,-0.520000,2.803432,0.040000,-91275841407.097473,29775293954.214535,-29751762746.218559,3404091105.969535,0.560851,-0.560673,0.064135
-1.660000,-0.520000,2.769674,0.040000,-91826682750.717575,32834018391.662960,-32806753078.995441,1167564496.531763,0.618458,-0.618252,0.021998
-1.620000,-0.520000,2.736084,0.040000,-92430100025.099518,36368072834.354729,-36336629220.063652,-1828892838.551003,0.685018,-0.684781,-0.034457
-1.580000,-0.520000,2.702669,0.040000,-93091754053.298111,40449952558.265594,-40413974325.784370,-5793629447.717613,0.761897,-0.761626,-0.109155
-1.540000,-0.520000,2.669435,0.040000,-93818182700.267731,45158062479.558456,-45117410802.904594,-11001148664.833654,0.850574,-0.850268,-0.207268
-1.500000,-0.520000,2.636389,0.040000,-94616925974.234421,50572703388.096848,-50527689034.658081,-17816719662.995541,0.952565,-0.952225,-0.335677
-1.460000,-0.520000,2.603539,0.040000,-95496653796.827698,56767849355.569557,-56719642614.239014,-26731325896.169838,1.069267,-1.068903,-0.503634
-1.420000,-0.520000,2.570890,0.040000,-96467283005.950714,63795487994.062927,-63746837523.157021,-38411582531.815109,1.201669,-1.201302,-0.723696
-1.380000,-0.520000,2.538452,0.040000,-97540058044.805954,71656864937.600281,-71613360988.029602,-53771163869.861923,1.349811,-1.349483,-1.013080
-1.340000,-0.520000,2.506233,0.040000,-98727548439.885437,80250415046.525238,-80222765301.667694,-74072278337.171005,1.511808,-1.511600,-1.395565
-1.300000,-0.520000,2.474241,0.040000,-100043478013.998779,89276390637.266006,-89284852415.778427,-101066087944.630478,1.682067,-1.682131,-1.904144
-1.260000,-0.520000,2.442485,0.040000,-101502229260.899185,98052709589.599228,-98137193244.362015,-137175041288.585144,1.847847,-1.848484,-2.584457
-1.220000,-0.520000,2.410974,0.040000,-103117717497.745148,105119036539.443436,-105366978119.230087,-185702864569.880768,1.981905,-1.983774,-3.498750
-1.180000,-0.520000,2.379719,0.040000,-104900969892.136246,107265759941.757050,-107897782476.736572,-251065175301.350403,2.024521,-2.029284,-4.730213
-1.140000,-0.520000,2.348728,0.040000,-106854770838.607117,96984952457.179016,-98605821848.587540,-339386042281.070129,1.836414,-1.848629,-6.394230
-1.100000,-0.520000,2.318014,0.040000,-108961143301.353348,56402535716.016197,-60539579636.999512,-462129567657.567932,1.086040,-1.117217,-8.706789
-1.060000,-0.520000,2.287587,0.040000,-111152212229.973801,-50752576516.038643,42025101757.246628,-655465298065.122681,-0.906879,0.841106,-12.349346
-1.020000,-0.520000,2.257458,0.040000,-113256125576.344177,-242090501949.256653,245519580600.640778,-1060277543427.246704,-4.580507,4.606349,-19.976244
-0.980000,-0.520000,2.227640,0.040000,-114993905723.058792,-207941815745.723572,281250188888.508667,-1990498418281.671387,-4.332096,4.884565,-37.502144
-0.940000,-0.520000,2.198146,0.040000,-116538242834.640778,1020712517134.686523,-434477088214.512085,-3456720563161.227539,15.917311,-11.499305,-65.126619
-0.900000,-0.520000,2.168988,0.040000,-120761182863.692978,2690062416533.783691,7081980973174.083984,-3680931670438.985352,-4.550953,78.195338,-69.350887
-0.860000,-0.520000,2.140180,0.040000,-136556992887.040466,10459434255617.234375,18832509836079.066406,-2067021532560.960449,31.498643,189.252240,-38.943884
-0.820000,-0.520000,2.111738,0.040000,-55626392079.345566,-11088169717474.806641,-8460079519678.225586,294429584620.152710,-98.417441,-48.902698,5.547224
-0.780000,-0.520000,2.083675,0.040000,-50366690407.563644,-6728897765180.776367,-427367567650.935120,3781074646189.626465,-86.327878,32.396604,71.237638
-0.740000,-0.520000,2.055207,0.040000,-29401972760.221561,-4443761802921.213867,4213503311728.442871,7253303071765.833008,-82.421587,80.686306,136.656435
-0.700000,-0.520000,2.026944,0.040000,-1226855472.468874,1024824305632.839600,-1087499092763.043457,7809491660459.816406,19.662533,-20.134865,147.135350
-0.660000,-0.520000,1.998790,0.040000,25541234138.122704,4792616113513.560547,-4971361921167.752930,4923779899095.387695,91.305968,-92.653038,92.766868
-0.620000,-0.520000,1.970315,0.040000,44963187980.391556,5309243603017.915039,-5438332975176.019531,1181666108503.435059,100.758863,-101.731710,22.263275
-0.580000,-0.520000,1.942248,0.040000,56034230170.338539,3943719413818.273926,-3951703704373.993652,-1103392581952.448975,74.347089,-74.407260,-20.788556
-0.540000,-0.520000,1.913799,0.040000,60807575940.475349,2360542273116.956055,-2329172918257.276855,-1841408397937.625977,44.296680,-44.060273,-34.693202
-0.500000,-0.520000,1.885516,0.040000,61765110145.364517,1223014613032.569580,-1194847526782.279541,-1791162533009.870605,22.883099,-22.670825,-33.746540
-0.460000,-0.520000,1.857405,0.040000,60726289100.088303,544529899048.436157,-526544635281.667725,-1486497576724.655518,10.157603,-10.022062,-28.006476
-0.420000,-0.520000,1.828894,0.040000,58789376165.166695,177379535088.023132,-167170106514.453308,-1159859145564.918701,3.284228,-3.207287,-21.852419
-0.380000,-0.520000,1.800821,0.040000,56552913030.993782,-7439080726.570772,12939520488.872705,-885001835550.041626,-0.171246,0.212699,-16.673948
-0.340000,-0.520000,1.772394,0.040000,54319720519.507149,-92381779520.634857,95259161075.386307,-672882877503.612061,-1.756790,1.778474,-12.677503
-0.300000,-0.520000,1.744087,0.040000,52229781390.779724,-122605491200.399567,128116780803.277756,-518825804688.423767,-2.341109,2.382644,-9.774979
-0.260000,-0.520000,1.716027,0.040000,50336887056.516235,-131880833232.562042,132738993973.136276,-400712906463.437439,-2.489562,2.496029,-7.549663
-0.220000,-0.520000,1.687474,0.040000,48650627289.964211,-143688883959.741364,129078667090.306976,-311600396196.721924,-2.624602,2.514496,-5.870732
-0.180000,-0.520000,1.659394,0.040000,47158814717.836227,-131601532575.893707,119528912209.433334,-257592273032.205902,-2.411213,2.320231,-4.853188
-0.140000,-0.520000,1.631812,0.040000,45839229325.228943,-108449042850.868622,99071198500.355637,-208768678939.810272,-1.990238,1.919564,-3.933323
-0.100000,-0.520000,1.604752,0.040000,44665612194.394394,-109267530386.314804,78706302858.725388,-169356099414.247620,-1.885926,1.655610,-3.190767
-0.060000,-0.520000,1.578243,0.040000,43610579472.709846,-91182335021.030197,58885337778.729515,-149165230944.001373,-1.535380,1.291982,-2.810359
-0.020000,-0.520000,1.552311,0.040000,42646895490.739494,-48120877782.735283,42728766594.502151,-134130826554.692673,-0.876148,0.835512,-2.527103
0.020000,-0.520000,1.526987,0.040000,41747888566.748413,-23118658050.674740,23897628920.156540,-131300165104.850601,-0.439972,0.445842,-2.473771
0.060000,-0.520000,1.502302,0.040000,40887450532.716736,15847367589.937969,7976491870.709128,-139688283628.544281,0.163917,0.015625,-2.631808
0.100000,-0.520000,1.478286,0.040000,40039893906.304840,35406215185.209740,-10354284124.858154,-152995465472.544250,0.525476,-0.336679,-2.882523
0.140000,-0.520000,1.454975,0.040000,39179881840.363251,36861315688.137260,-28648959687.350151,-182211179474.514526,0.648071,-0.586181,-3.432964
0.180000,-0.520000,1.432401,0.040000,38282671145.525047,56195010100.966919,-46737445637.757477,-219920403284.021088,1.005291,-0.934016,-4.143428
0.220000,-0.520000,1.410600,0.040000,37325029457.838371,67395071651.953835,-55857923507.795151,-261795601950.164673,1.204552,-1.117606,-4.932381
0.260000,-0.520000,1.389609,0.040000,36287451344.377838,59184070619.763847,-59748819340.502731,-331306630443.894104,1.118254,-1.122510,-6.242009
0.300000,-0.520000,1.369464,0.040000,35158812401.309692,52474690827.874405,-56795911978.390373,-424002689400.222473,1.013078,-1.045644,-7.988456
0.340000,-0.520000,1.350205,0.040000,33945574192.557400,29075029223.476448,-31355820994.239353,-545152931456.249573,0.560682,-0.577870,-10.270997
0.380000,-0.520000,1.331868,0.040000,32689429288.855339,-37672758423.727188,33322480587.750046,-712129679873.612061,-0.685188,0.652403,-13.416936
0.420000,-0.520000,1.314494,0.040000,31500388736.778191,-183423493809.150238,175345857586.585724,-928623470632.662720,-3.410149,3.349274,-17.495805
0.460000,-0.520000,1.298119,0.040000,30617272747.080841,-473372037520.967712,459145429160.921204,-1185904594704.627197,-8.838192,8.730977,-22.343130
0.500000,-0.520000,1.282784,0.040000,30512768898.600529,-1009411297142.942993,987216649784.626099,-1425279233549.781250,-18.892446,18.725182,-26.853087
0.540000,-0.520000,1.268524,0.040000,32054500690.394348,-1907238057578.752930,1882695177919.646484,-1462629081629.352539,-35.794750,35.609789,-27.556780
0.580000,-0.520000,1.255378,0.040000,36678381745.038254,-3154412295941.309570,3160741539194.371094,-878633354472.846436,-59.466730,59.514429,-16.553962
0.620000,-0.520000,1.243380,0.040000,46339670277.180305,-4230930531789.550781,4331341620749.390625,918080951339.717041,-80.280725,81.037446,17.297177
0.660000,-0.520000,1.232564,0.040000,62658448813.039719,-3843896461733.871582,3981203297658.332031,3856098259810.326660,-73.197320,74.232096,72.651127
0.700000,-0.520000,1.222962,0.040000,84875778073.486099,-930835860935.394043,982118807020.390381,6156264962859.976562,-17.827347,18.213828,115.987601
0.740000,-0.520000,1.214601,0.040000,108396298567.941376,3362521267182.479492,-3226382220153.790039,5808908648323.514648,62.582368,-61.556393,109.443206
0.780000,-0.520000,1.207508,0.040000,126513838933.794098,5432525612265.124023,-1093529312642.977051,2983623470594.383301,77.827170,-45.127488,56.213196
0.820000,-0.520000,1.201706,0.040000,132981042240.867401,8085776625953.829102,3872475504238.462891,50195860463.986946,84.750598,5.369563,0.945719
0.860000,-0.520000,1.197212,0.040000,183761463685.828979,-5459962888927.623047,-12483818825925.285156,-1633442990725.292236,-1.447491,-133.781009,-30.775013
0.900000,-0.520000,1.194042,0.040000,173782658480.825592,-1107078512095.727051,-4886654861308.221680,-2435690092097.438477,13.019622,-58.189787,-45.889813
0.940000,-0.520000,1.192207,0.040000,170024472806.837494,-550602855303.556763,193503815378.294983,-2189885044787.066895,-8.355291,5.664110,-41.258704
0.980000,-0.520000,1.191712,0.040000,167736372954.965027,-6464323459.283882,-25884548330.370613,-1386242066825.955322,0.061050,-0.304838,-26.117604
1.020000,-0.520000,1.191712,0.040000,165526644640.234863,4268927911.822311,-5129872030.450767,-866882780425.100342,0.085295,-0.091784,-16.332574
1.060000,-0.520000,1.192207,0.040000,163319205186.714355,-81016688507.441559,85147720243.343323,-596397847575.835571,-1.549751,1.580883,-11.236481
1.100000,-0.520000,1.194042,0.040000,161238283847.068207,-124241436339.122787,126324148639.138748,-440542166833.913574,-2.352553,2.368248,-8.300070
1.140000,-0.520000,1.197212,0.040000,159353327294.329498,-133842080717.492661,134694223821.120316,-334275295665.600098,-2.526479,2.532901,-6.297940
1.180000,-0.520000,1.201706,0.040000,157681170062.555145,-127736694555.817551,128043185782.038330,-256515583310.645966,-2.408366,2.410676,-4.832902
1.220000,-0.520000,1.207508,0.040000,156212873061.639496,-115609451077.204987,115681828152.328995,-198242786487.888580,-2.178558,2.179104,-3.735009
1.260000,-0.520000,1.214601,0.040000,154929415386.599121,-101889308689.435715,101860674954.429459,-154090966305.484009,-1.919492,1.919276,-2.903163
1.300000,-0.520000,1.222962,0.040000,153809012727.944977,-88517064934.102905,88446829405.124207,-120327379296.391678,-1.667316,1.666787,-2.267038
1.340000,-0.520000,1.232564,0.040000,152830339010.433075,-76297876977.995712,76214003638.473129,-94262313263.873062,-1.437022,1.436390,-1.775957
1.380000,-0.520000,1.243380,0.040000,151973867012.211914,-65505691982.774582,65421583974.454391,-73951552993.476303,-1.233690,1.233056,-1.393290
1.420000,-0.520000,1.255378,0.040000,151222330873.919861,-56162100515.264923,56083938618.078239,-57987243468.978348,-1.057685,1.057096,-1.092513
1.460000,-0.520000,1.268524,0.040000,150560772441.000153,-48172389854.380882,48102650054.046997,-45343990082.648819,-0.907202,0.906676,-0.854307
1.500000,-0.520000,1.282784,0.040000,149976395692.181030,-41394447577.438240,41333707452.994698,-35268126268.078934,-0.779552,0.779094,-0.664472
1.540000,-0.520000,1.298119,0.040000,149458342397.944885,-35673872591.519943,35621771419.275444,-27199560679.369114,-0.671822,0.671429,-0.512455
1.580000,-0.520000,1.314494,0.040000,148997446580.598846,-30861353604.952530,30817107394.110897,-20717058351.254375,-0.581196,0.580862,-0.390321
1.620000,-0.520000,1.331868,0.040000,148585996299.208466,-26820592222.923565,26783267509.844707,-15499927479.566927,-0.505105,0.504823,-0.292028
1.660000,-0.520000,1.350205,0.040000,148217515820.744873,-23431206717.991905,23399862073.475849,-11301065105.271910,-0.441280,0.441044,-0.212919
1.700000,-0.520000,1.369464,0.040000,147886573033.074982,-20589036088.353054,20562791031.260719,-7927853023.667902,-0.387761,0.387563,-0.149365
1.740000,-0.520000,1.389609,0.040000,147588612701.044159,-18205169493.614815,18183233887.302994,-5228495823.387656,-0.342872,0.342707,-0.098508
1.780000,-0.520000,1.410600,0.040000,147319814075.194794,-16204422340.063698,16186104685.769423,-3082153200.799221,-0.305197,0.305059,-0.058070
1.820000,-0.520000,1.432401,0.040000,147076970448.245514,-14523644823.801823,14508349703.882732,-1391736610.231358,-0.273547,0.273432,-0.026221
1.860000,-0.520000,1.454975,0.040000,146857387970.218475,-13110062099.908604,13097282454.657482,-78591880.480458,-0.246929,0.246833,-0.001481
1.900000,-0.520000,1.478286,0.040000,146658801074.751373,-11919741802.851131,11909049152.006142,921471581.565763,-0.224514,0.224434,0.017361
1.940000,-0.520000,1.502302,0.040000,146479302067.968781,-10916227923.125980,10907262200.395199,1661181290.193019,-0.205617,0.205550,0.031298
1.980000,-0.520000,1.526987,0.040000,146317282694.845215,-10069349644.703775,10061809491.801678,2184096315.602224,-0.189670,0.189613,0.041150
2.020000,-0.520000,1.552311,0.040000,146171385776.559906,-9354198138.699810,9347832055.931856,2526383332.507447,-0.176203,0.176155,0.047599
2.060000,-0.520000,1.578243,0.040000,146040465280.458069,-8750256995.281349,8744855490.112120,2718207825.453306,-0.164829,0.164789,0.051213
2.100000,-0.520000,1.604752,0.040000,145923553429.814392,-8240669236.168129,8236057975.694790,2784836817.398123,-0.155233,0.155198,0.052468
2.140000,-0.520000,1.631812,0.040000,145819833679.098236,-7811623580.967930,7807657487.876563,2747523229.595320,-0.147153,0.147123,0.051765
2.180000,-0.520000,1.659394,0.040000,145728618571.344849,-7451843648.191945,7448401847.096180,2624223415.772004,-0.140378,0.140352,0.049442
2.220000,-0.520000,1.687474,0.040000,145649331659.063965,-7152165411.935153,7149146975.682469,2430186205.284655,-0.134734,0.134711,0.045786
2.260000,-0.520000,1.716027,0.040000,145581492811.494659,-6905190858.031420,6902512170.156093,2178442368.230713,-0.130083,0.130062,0.041043
2.300000,-0.520000,1.744087,0.040000,145524706353.358032,-6705020333.200879,6702627443.870714,1880217246.212845,-0.126313,0.126295,0.035424
2.340000,-0.520000,1.772394,0.040000,145478651614.493591,-6547221312.920990,6545241691.583096,1545294150.523939,-0.123342,0.123327,0.029114
2.380000,-0.520000,1.800821,0.040000,145443076096.767303,-6429188189.486034,6426075678.088246,1182741462.771217,-0.121112,0.121089,0.022284
2.420000,-0.520000,1.828894,0.040000,145417799749.074066,-6354083061.388931,6363008396.664739,902819264.438506,-0.119765,0.119832,0.017010
2.460000,-0.520000,1.857405,0.040000,145402828409.512756,-6354108462.137247,6413655649.237379,736538571.380135,-0.120052,0.120500,0.013877
-2.500000,-0.480000,3.489408,0.040000,-43697259939.613647,3366380350963.775879,28058790113867.964844,2587819667337.279785,-114.195971,351.023343,48.756023
-2.460000,-0.480000,3.453091,0.040000,-87402350423.268204,2938066930677.657715,18709300769933.183594,1519367726756.379395,-66.999803,230.139385,28.625769
-2.420000,-0.480000,3.416855,0.040000,-87431987412.261795,-765591735460.810669,5958359923759.231445,314215677331.116333,-43.774621,82.908526,5.920006
-2.380000,-0.480000,3.380704,0.040000,-87480935092.911240,-43105059023.445435,149772684334.362976,2018216386.660613,-1.415028,2.218900,0.038024
-2.340000,-0.480000,3.344641,0.040000,-87549687569.071213,12574735458.148432,-12571025269.248352,2637083091.383052,0.236894,-0.236866,0.049684
-2.300000,-0.480000,3.308669,0.040000,-87638563980.178284,12817057598.488914,-12813633660.104958,3263356909.458006,0.241461,-0.241436,0.061484
-2.260000,-0.480000,3.272790,0.040000,-87747952815.837143,13117867072.837933,-13114282835.835808,3865644102.436137,0.247128,-0.247101,0.072831
-2.220000,-0.480000,3.237008,0.040000,-87878335690.164780,13481072308.213100,-13477244460.382875,4436908572.156650,0.253970,-0.253941,0.083594
-2.180000,-0.480000,3.201325,0.040000,-88030294106.992447,13911002519.030075,-13906873134.344318,4968712654.399066,0.262068,-0.262037,0.093613
-2.140000,-0.480000,3.165746,0.040000,-88204516414.343353,14412926209.724211,-14408431299.261953,5450882991.198090,0.271522,-0.271489,0.102698
-2.100000,-0.480000,3.130273,0.040000,-88401806247.038315,14993223826.304281,-14988289985.664558,5871088241.124739,0.282453,-0.282416,0.110615
-2.060000,-0.480000,3.094911,0.040000,-88623092749.918427,15659555525.200687,-15654098518.853018,6214325549.932574,0.295004,-0.294963,0.117081
-2.020000,-0.480000,3.059663,0.040000,-88869442850.543381,16421049482.061703,-16414973113.834263,6462290623.251243,0.309348,-0.309302,0.121753
-1.980000,-0.480000,3.024533,0.040000,-89142075882.397293,17288509176.560963,-17281704559.934376,6592597036.696118,0.325687,-0.325636,0.124208
-1.940000,-0.480000,2.989526,0.040000,-89442380889.638916,18274632602.351711,-18266978181.605419,6577799225.708294,0.344261,-0.344204,0.123930
-1.900000,-0.480000,2.954645,0.040000,-89771936962.961868,19394229895.346653,-19385592785.699493,6384158281.467975,0.365350,-0.365285,0.120281
-1.860000,-0.480000,2.919896,0.040000,-90132536952.717285,20664415723.668236,-20654655267.569801,5970068528.834725,0.389274,-0.389201,0.112480
-1.820000,-0.480000,2.885283,0.040000,-90526214863.682556,22104736782.692051,-22093711729.227337,5284033540.606626,0.416404,-0.416321,0.099554
-1.780000,-0.480000,2.850811,0.040000,-90955277129.842331,23737169617.139519,-23724751132.423771,4262039465.256692,0.447152,-0.447058,0.080299
-1.740000,-0.480000,2.816485,0.040000,-91422337756.652069,25585884579.467190,-25571978556.035130,2824116705.876552,0.481974,-0.481869,0.053208
-1.700000,-0.480000,2.782310,0.040000,-91930356938.685333,27676609744.800804,-27661193886.039322,869801659.958885,0.521356,-0.521240,0.016388
-1.660000,-0.480000,2.748293,0.040000,-92482682111.993820,30035330653.244629,-30018515031.783039,-1727900472.836511,0.565788,-0.565661,-0.032555
-1.620000,-0.480000,2.714439,0.040000,-93083089324.307159,32685905984.731415,-32668030999.136482,-5130605013.770987,0.615720,-0.615586,-0.096664
-1.580000,-0.480000,2.680754,0.040000,-93735821050.037430,35645929777.592583,-35627723960.771866,-9545456428.282173,0.671487,-0.671350,-0.179842
-1.540000,-0.480000,2.647245,0.040000,-94445613736.611328,38919768500.110313,-38902602583.947395,-15239918410.149120,0.733174,-0.733045,-0.287129
-1.500000,-0.480000,2.613918,0.040000,-95217703791.944565,42487050256.115173,-42473346469.422417,-22561910237.482834,0.800403,-0.800300,-0.425079
-1.460000,-0.480000,2.580782,0.040000,-96057793355.339081,46283834517.269508,-46277725208.494629,-31967294237.153824,0.871980,-0.871934,-0.602282
-1.420000,-0.480000,2.547842,0.040000,-96971945339.645645,50172037582.965546,-50180416238.439064,-44057412455.343407,0.945318,-0.945381,-0.830067
-1.380000,-0.480000,2.515107,0.040000,-97966358228.693787,53890231366.516510,-53924387676.438828,-59630126797.121231,1.015516,-1.015774,-1.123466
-1.340000,-0.480000,2.482584,0.040000,-99046941034.271210,56975747276.066521,-57053760712.278152,-79747991371.657730,1.073897,-1.074485,-1.502498
-1.300000,-0.480000,2.450283,0.040000,-100218562637.997894,58645031988.026344,-58794854368.907463,-105823612324.938126,1.105753,-1.106882,-1.993778
-1.260000,-0.480000,2.418213,0.040000,-101483782752.518433,57617557308.097672,-57880253951.759476,-139701494890.894104,1.087033,-1.089013,-2.632057
-1.220000,-0.480000,2.386382,0.040000,-102840779968.026810,51854783136.882187,-52289720013.180420,-183627645154.007721,0.979433,-0.982710,-3.459651
-1.180000,-0.480000,2.354800,0.040000,-104280042010.221222,38031821896.657547,-38753507690.194489,-239686903061.772980,0.720621,-0.726059,-4.515840
-1.140000,-0.480000,2.323477,0.040000,-105778863796.801575,9541279752.264896,-10990959706.227928,-307427203767.105408,0.187957,-0.198882,-5.792107
-1.100000,-0.480000,2.292424,0.040000,-107289909860.075241,-53135142781.951775,48649466635.011314,-377253167165.093933,-0.975743,0.941938,-7.107668
-1.060000,-0.480000,2.261653,0.040000,-108706212315.155319,-223974231302.145050,204794153916.999786,-424011247412.568909,-4.111395,3.966850,-7.988618
-1.020000,-0.480000,2.231174,0.040000,-109728990178.373627,-777413033625.372803,718845277746.777710,-499023934752.567383,-14.315877,13.874497,-9.401900
-0.980000,-0.480000,2.201000,0.040000,-109417577901.281189,-1997817123233.409912,2313732608961.147461,-1824639257182.844238,-39.425642,41.806454,-34.377261
-0.940000,-0.480000,2.171144,0.040000,-105596087942.008987,-1663525812310.736084,2114598510377.906738,-5727776927705.568359,-33.891332,37.290720,-107.914638
-0.900000,-0.480000,2.141618,0.040000,-99054662349.959045,-399898207536.783386,4308276138507.347168,-5008776528327.031250,-29.625146,59.079588,-94.368253
-0.860000,-0.480000,2.112438,0.040000,-90860617080.795837,1479062136206.931396,7656308166718.497070,1915211476073.379883,-23.768314,92.614583,36.083694
-0.820000,-0.480000,2.083616,0.040000,-46713676850.566696,-6252978058848.071289,-5648465054903.636719,4660506330819.983398,-50.540705,-39.151330,87.806641
-0.780000,-0.480000,2.055169,0.040000,-37114904494.576935,-3115778577132.349121,-1618090484873.126709,3185537739536.668457,-31.946423,-3.729112,60.017378
-0.740000,-0.480000,2.027112,0.040000,-21613627008.150421,-2217499367602.040527,2157248200186.516602,3443074916328.585938,-41.438424,40.984357,64.869527
-0.700000,-0.480000,1.998640,0.040000,-2560654538.305612,252837659160.477661,-286419954251.994446,4175897781847.836914,4.953421,-5.206505,78.676335
-0.660000,-0.480000,1.970377,0.040000,16135961442.665426,2255817571424.139648,-2329596400226.378418,3142411903390.554199,42.917922,-43.473936,59.204862
-0.620000,-0.480000,1.942227,0.040000,31345074194.180443,2983829699802.772461,-3047624304790.614258,1413179755876.763672,56.577660,-57.058430,26.625126
-0.580000,-0.480000,1.913747,0.040000,41869137534.072723,2679243115732.661133,-2703543312894.444824,-6556865711.458663,50.615842,-50.798974,-0.123535
-0.540000,-0.480000,1.885686,0.040000,48139480979.161209,1962240562259.714844,-1959415055679.671143,-776263510234.353516,36.953779,-36.932486,-14.625255
-0.500000,-0.480000,1.857232,0.040000,51267365129.188667,1265524259910.530029,-1254270669115.328857,-1035182320475.832397,23.779603,-23.694794,-19.503435
-0.460000,-0.480000,1.828949,0.040000,52354970912.960930,743611505478.957031,-732975258144.944702,-1018533665973.987427,13.949954,-13.869797,-19.189765
-0.420000,-0.480000,1.800843,0.040000,52237375774.089523,398943595071.924011,-391228634912.393066,-891443665239.360840,7.472722,-7.414581,-16.795315
-0.380000,-0.480000,1.772326,0.040000,51469921621.117058,187462220915.316010,-182394998886.883148,-739667995707.477173,3.503256,-3.465068,-13.935774
-0.340000,-0.480000,1.744259,0.040000,50394965568.636017,64757288092.720428,-57473668888.361549,-604744723868.886108,1.178897,-1.124006,-11.393741
-0.300000,-0.480000,1.715828,0.040000,49212471408.802666,4496079275.388755,22283821557.805279,-503169047294.137390,-0.066656,0.268475,-9.479997
-0.260000,-0.480000,1.687520,0.040000,48033202268.582718,-33092065443.496181,61600625145.875290,-415206513949.643738,-0.784609,0.999456,-7.822731
-0.220000,-0.480000,1.659467,0.040000,46914047907.214249,-95411467018.417862,72677146043.361328,-325712105532.586853,-1.669109,1.497778,-6.136605
-0.180000,-0.480000,1.630905,0.040000,45880132002.303535,-122187107741.615692,80722865618.370422,-272038460469.845154,-2.067713,1.755229,-5.125362
-0.140000,-0.480000,1.602833,0.040000,44938220514.987976,-83879233740.900009,85106863571.312332,-231543537115.056580,-1.587272,1.596524,-4.362414
0.140000,-0.480000,1.422398,0.040000,40171169068.609520,17985884425.350876,-18428961898.016930,-200803053269.463379,0.341369,-0.344708,-3.783246
0.180000,-0.480000,1.399298,0.040000,39601800104.452293,49358927313.695251,-17210489512.913712,-232079715078.479980,0.748242,-0.505964,-4.372516
0.220000,-0.480000,1.376973,0.040000,39032884549.446388,30214817555.068283,-12059123044.326958,-273389569424.519470,0.466646,-0.329820,-5.150818
0.260000,-0.480000,1.355462,0.040000,38468454396.643738,-17898251421.972813,-4095158169.249538,-343091723844.465332,-0.212903,0.047155,-6.464047
0.300000,-0.480000,1.334802,0.040000,37927301763.180061,-47177669735.963379,26247040340.252129,-412010962922.781677,-0.770551,0.612813,-7.762525
0.340000,-0.480000,1.315035,0.040000,37453521699.251587,-94421535325.891800,88688111214.373856,-491699124112.369873,-1.746550,1.703342,-9.263897
0.380000,-0.480000,1.296201,0.040000,37133923295.616142,-190988179492.034729,186982967880.310699,-597645793410.479980,-3.575690,3.545506,-11.259993
0.420000,-0.480000,1.278342,0.040000,37125882618.574715,-357720269705.871643,351624191582.298584,-716835287437.831665,-6.705201,6.659260,-13.505592
0.460000,-0.480000,1.261498,0.040000,37699318064.687965,-629672724117.395752,621276339177.019653,-816386985162.420288,-11.815941,11.752664,-15.381204
0.500000,-0.480000,1.245712,0.040000,39292406054.021187,-1041542085406.679932,1032680198307.333496,-828439277166.059326,-19.573168,19.506383,-15.608276
0.540000,-0.480000,1.231023,0.040000,42564135354.727791,-1591175424624.995361,1588959861376.071045,-622700608329.023682,-29.966145,29.949448,-11.732040
0.580000,-0.480000,1.217472,0.040000,48384015133.277390,-2156872275160.798096,2175890505511.778320,-14238635098.504364,-40.744218,40.887544,-0.268264
0.620000,-0.480000,1.205097,0.040000,57628967467.090355,-2399573300240.414551,2449437615498.080078,1106695695473.358887,-45.491194,45.866983,20.850788
0.660000,-0.480000,1.193934,0.040000,70643448848.508362,-1833706995990.524902,1891868329580.443848,2477688530734.556152,-34.876841,35.315158,46.681088
0.700000,-0.480000,1.184018,0.040000,86496132012.961990,-263480067340.670959,291004818864.093018,3322514180515.791992,-5.119692,5.327125,62.598093
0.740000,-0.480000,1.175381,0.040000,102731380960.425186,1699531740546.288086,-1670954153487.003662,2817761021685.802734,31.858638,-31.643270,53.088251
0.780000,-0.480000,1.168050,0.040000,116249231251.703766,2611249991798.989258,278619608594.396118,2317987833031.783203,32.863418,-11.084691,43.672235
0.820000,-0.480000,1.162050,0.040000,125052013193.909607,4686106248380.409180,2604036907536.583008,2785260335074.149414,47.083801,7.856408,52.475919
0.860000,-0.480000,1.157403,0.040000,153643504980.042725,38815051524.918755,-5762199071169.870117,1023264575987.497437,33.080860,-76.213609,19.278898
0.900000,-0.480000,1.154123,0.040000,158589591666.054779,838748112683.196655,-3502232980874.448242,-2702947716816.140625,30.856980,-50.929620,-50.925102
0.940000,-0.480000,1.152224,0.040000,161077155953.819244,924463459379.321655,-1150059273865.534180,-3126212574301.706055,18.692534,-20.392677,-58.899657
0.980000,-0.480000,1.151712,0.040000,162070340579.740326,908886891474.988281,-1034736732055.088745,-1285090097675.479492,17.835281,-18.783715,-24.211842
1.020000,-0.480000,1.151712,0.040000,161482057834.148071,342541100542.758118,-317594259280.300598,-606818091581.159546,6.312669,-6.124664,-11.432805
1.060000,-0.480000,1.152224,0.040000,160307044194.025085,73824559170.868103,-64788190102.924957,-483917047581.053589,1.339822,-1.271722,-9.117278
1.100000,-0.480000,1.154123,0.040000,158997823634.135254,-18533495757.637230,21208725710.508247,-400583597007.416992,-0.364303,0.384464,-7.547227
1.140000,-0.480000,1.157403,0.040000,157713055341.057617,-52382721184.796532,53426276477.473297,-323886689996.945435,-0.992819,1.000684,-6.102213
1.180000,-0.480000,1.162050,0.040000,156510169284.157074,-64252275570.112061,64753198307.307968,-258375863470.664886,-1.213381,1.217156,-4.867951
1.220000,-0.480000,1.168050,0.040000,155409232449.995972,-66325284683.396385,66580032152.090126,-205221201478.740387,-1.251047,1.252967,-3.866486
1.260000,-0.480000,1.175381,0.040000,154414001606.851440,-63620816969.154732,63741490039.184425,-162952773680.414032,-1.199335,1.200245,-3.070125
1.300000,-0.480000,1.184018,0.040000,153520370192.753815,-58671361191.572990,58715746983.240379,-129498001022.734177,-1.105653,1.105988,-2.439817
1.340000,-0.480000,1.193934,0.040000,152720540206.268951,-52872645872.938850,52874637590.108536,-102972855678.327728,-0.996163,0.996178,-1.940068
1.380000,-0.480000,1.205097,0.040000,152005300393.749603,-46994660791.228500,46974515832.468925,-81856502462.208145,-0.885293,0.885141,-1.542224
1.420000,-0.480000,1.217472,0.040000,151365280879.492859,-41441062038.317200,41410697149.021736,-64968724772.194862,-0.780602,0.780373,-1.224048
1.460000,-0.480000,1.231023,0.040000,150791612193.307587,-36400808271.476692,36367044078.868340,-51404253643.420235,-0.685621,0.685367,-0.968486
1.500000,-0.480000,1.245712,0.040000,150276235551.706085,-31939756460.521984,31906343247.168030,-40469146188.512657,-0.601575,0.601323,-0.762462
1.540000,-0.480000,1.261498,0.040000,149812013010.151550,-28055792576.017437,28024657594.581173,-31629197382.252926,-0.528411,0.528177,-0.595912
1.580000,-0.480000,1.278342,0.040000,149392726922.889832,-24711612338.154449,24683617984.481159,-24470465857.770752,-0.465423,0.465212,-0.461038
1.620000,-0.480000,1.296201,0.040000,149013021919.098450,-21853905281.331047,21829306204.245476,-18669726357.487041,-0.411601,0.411416,-0.351748
1.660000,-0.480000,1.315035,0.040000,148668320557.175812,-19424330254.708626,19403047276.465603,-13972527622.525801,-0.365845,0.365685,-0.263251
1.700000,-0.480000,1.334802,0.040000,148354730502.875397,-17365567207.005287,17347350249.504921,-10176918487.512438,-0.327074,0.326937,-0.191739
1.740000,-0.480000,1.355462,0.040000,148068953087.004547,-15624438047.316133,15608961851.041126,-7121347049.662049,-0.294286,0.294169,-0.134170
1.780000,-0.480000,1.376973,0.040000,147808198340.800476,-14153303793.307051,14140222941.197092,-4675617486.414803,-0.266583,0.266484,-0.088091
1.820000,-0.480000,1.399298,0.040000,147570108807.832916,-12910468983.742779,12899448328.720232,-2734086144.966691,-0.243178,0.243095,-0.051512
1.860000,-0.480000,1.422398,0.040000,147352692817.837982,-11860035200.394016,11850765502.746550,-1210501413.423174,-0.223398,0.223328,-0.022807
1.900000,-0.480000,1.446235,0.040000,147154267011.160675,-10971469394.627554,10963674170.837025,-34055526.566448,-0.206665,0.206606,-0.000642
1.940000,-0.480000,1.470773,0.040000,146973407436.838135,-10219045043.483047,10212482302.726515,853664821.104774,-0.192496,0.192446,0.016084
1.980000,-0.480000,1.495979,0.040000,146808908338.157257,-9581248212.573921,9575709330.266644,1501056599.309435,-0.180485,0.180443,0.028281
2.020000,-0.480000,1.521819,0.040000,146659747679.864014,-9040200245.510178,9035507345.359392,1948373324.352727,-0.170296,0.170261,0.036708
2.060000,-0.480000,1.548261,0.040000,146525058495.679565,-8581124230.475186,8577126897.816751,2229214509.796668,-0.161651,0.161621,0.042000
2.100000,-0.480000,1.575276,0.040000,146404105203.532013,-8191867604.102907,8188439415.482318,2371721678.483405,-0.154320,0.154294,0.044685
2.140000,-0.480000,1.602833,0.040000,146296264124.978821,-7862484542.566195,7859519686.117768,2399547968.738703,-0.148117,0.148095,0.045209
2.180000,-0.480000,1.630905,0.040000,146201007540.532288,-7584876853.315266,7582286977.833883,2332651735.794541,-0.142889,0.142869,0.043949
2.220000,-0.480000,1.659467,0.040000,146117890705.966766,-7352489430.065155,7350200729.497416,2187952445.765324,-0.138512,0.138495,0.041222
2.260000,-0.480000,1.687520,0.040000,146046541341.886597,-7160054312.248980,7158003883.458436,1979878276.689612,-0.134888,0.134873,0.037302
2.300000,-0.480000,1.715828,0.040000,145986651186.308411,-7003363578.674314,7001480648.019415,1720827746.436167,-0.131937,0.131923,0.032421
2.340000,-0.480000,1.744259,0.040000,145937969237.555267,-6878879248.510983,6876898519.438579,1421553978.272165,-0.129591,0.129576,0.026783
2.380000,-0.480000,1.772326,0.040000,145900295805.674011,-6784230476.949092,6785415428.066214,1091660221.386426,-0.127826,0.127834,0.020568
2.420000,-0.480000,1.800843,0.040000,145873467807.099213,-6721363604.578557,6744664869.776889,835853134.027906,-0.126766,0.126942,0.015748
2.460000,-0.480000,1.828949,0.040000,145857223559.798950,-6626718567.096376,6636187377.212652,682872527.693268,-0.124905,0.124976,0.012866
-2.500000,-0.440000,3.472922,0.040000,-43939661158.052841,-624400130843.203613,25707312776774.710938,1838547368469.398682,-153.537045,342.567691,34.639298
-2.460000,-0.440000,3.436430,0.040000,-87888308701.398361,541373062299.080505,22037811333789.640625,1090369990854.269897,-117.421695,287.583664,20.543203
-2.420000,-0.440000,3.400017,0.040000,-87918821109.344513,-1246948498694.226562,7164842037764.361328,713105842855.442749,-56.942196,101.540814,13.435327
-2.380000,-0.440000,3.363686,0.040000,-87970279301.952606,-44073202807.669472,155269220895.779633,4146037005.849300,-1.458864,2.296863,0.078114
-2.340000,-0.440000,3.327438,0.040000,-88042590414.929214,13184730250.701706,-13182298976.802870,2433272199.055135,0.248394,-0.248376,0.045844
-2.300000,-0.440000,3.291278,0.040000,-88136002121.542892,13403939171.635242,-13400985577.913189,3005078443.223768,0.252521,-0.252499,0.056617
-2.260000,-0.440000,3.255207,0.040000,-88250864708.106918,13675834772.452124,-13672717533.754967,3550445707.768551,0.257643,-0.257620,0.066892
-2.220000,-0.440000,3.219229,0.040000,-88387613378.399551,14002126066.753889,-13998851735.423119,4061648773.587389,0.263790,-0.263765,0.076524
-2.180000,-0.440000,3.183348,0.040000,-88546770433.297699,14385473819.444128,-14382011692.799023,4529519703.119752,0.271011,-0.270985,0.085339
-2.140000,-0.440000,3.147565,0.040000,-88728949514.922333,14829148707.782745,-14825462118.580767,4943060936.243951,0.279369,-0.279341,0.093130
-2.100000,-0.440000,3.111885,0.040000,-88934860844.779999,15337064064.393143,-15333112419.322929,5289007270.362027,0.288937,-0.288907,0.099648
-2.060000,-0.440000,3.076312,0.040000,-89165317490.792740,15913839095.415405,-15909578323.288942,5551301803.153152,0.299802,-0.299770,0.104590
-2.020000,-0.440000,3.040848,0.040000,-89421242763.211227,16564857762.631815,-16560241306.025391,5710461203.495474,0.312065,-0.312031,0.107588
-1.980000,-0.440000,3.005499,0.040000,-89703678832.585602,17296309803.639210,-17291290658.141079,5742800181.357374,0.325844,-0.325806,0.108198
-1.940000,-0.440000,2.970267,0.040000,-90013796633.796417,18115195025.444729,-18109729427.182510,5619476409.546391,0.341270,-0.341229,0.105874
-1.900000,-0.440000,2.935158,0.040000,-90352907060.467010,19029261539.608784,-19023315197.070461,5305305553.109853,0.358489,-0.358444,0.099955
-1.860000,-0.440000,2.900175,0.040000,-90722473347.001907,20046832707.490601,-20040390924.064186,4757280541.304797,0.377658,-0.377609,0.089630
-1.820000,-0.440000,2.865323,0.040000,-91124124355.356369,21176453662.438534,-21169537371.208591,3922708464.327347,0.398938,-0.398885,0.073906
-1.780000,-0.440000,2.830608,0.040000,-91559668191.840240,22426252353.969296,-22418943107.050774,2736850811.111221,0.422482,-0.422427,0.051564
-1.740000,-0.440000,2.796034,0.040000,-92031105117.795380,23802855989.539146,-23795334492.374317,1119916116.542370,0.448417,-0.448360,0.021100
-1.700000,-0.440000,2.761606,0.040000,-92540637999.527039,25309622113.678558,-25302227259.673862,-1026793910.222340,0.476806,-0.476750,-0.019345
-1.660000,-0.440000,2.727331,0.040000,-93090677435.529144,26943819769.155643,-26937138772.240448,-3825845374.102689,0.507599,-0.507549,-0.072081
-1.620000,-0.440000,2.693213,0.040000,-93683837002.772018,28692207405.654228,-28687213284.932999,-7430077666.211868,0.540550,-0.540512,-0.139987
-1.580000,-0.440000,2.659260,0.040000,-94322911473.432541,30524164352.937691,-30522425901.809380,-12030881378.931145,0.575083,-0.575070,-0.226669
-1.540000,-0.440000,2.625476,0.040000,-95010826900.187759,32381084136.027126,-32385087586.809505,-17868873783.958839,0.610101,-0.610131,-0.336660
-1.500000,-0.440000,2.591870,0.040000,-95750545426.390594,34160038288.533058,-34173682346.171848,-25247582970.705288,0.643672,-0.643775,-0.475679
-1.460000,-0.440000,2.558447,0.040000,-96544898415.157364,35688623580.026703,-35717984840.903320,-34550796828.399551,0.672560,-0.672782,-0.650957
-1.420000,-0.440000,2.525216,0.040000,-97396307237.961319,36686210048.636284,-36740726724.025475,-46264216348.822380,0.691498,-0.691908,-0.871645
-1.380000,-0.440000,2.492184,0.040000,-98306329092.977615,36704354980.115723,-36798623646.075218,-61002064192.250610,0.692064,-0.692775,-1.149314
-1.340000,-0.440000,2.459359,0.040000,-99274931663.811874,35036501552.692162,-35192783266.707382,-79539836579.772202,0.660991,-0.662169,-1.498577
-1.300000,-0.440000,2.426749,0.040000,-100299351428.376724,30588565522.661041,-30839178528.408047,-102856706707.924606,0.577723,-0.579611,-1.937880
-1.260000,-0.440000,2.394363,0.040000,-101372330076.791428,21727268332.833149,-22111579516.287407,-132194611520.080765,0.411527,-0.414423,-2.490623
-1.220000,-0.440000,2.362210,0.040000,-102479498335.005020,6243289941.538407,-6776657470.542778,-169116918134.262787,0.120642,-0.124661,-3.186261
-1.180000,-0.440000,2.330301,0.040000,-103595895412.428085,-18019771611.305794,17481742757.299244,-215281013911.894928,-0.336462,0.332407,-4.056019
-1.140000,-0.440000,2.298644,0.040000,-104682754198.139511,-50362755236.175072,50539099958.937248,-269960947102.045074,-0.949860,0.951189,-5.086221
-1.100000,-0.440000,2.267251,0.040000,-105689103808.731049,-81067292757.158691,83907371381.710373,-315256339862.457520,-1.543407,1.564811,-5.939612
-1.060000,-0.440000,2.236134,0.040000,-106566428554.823914,-102679578098.491196,112900737431.904373,-248227719603.277740,-1.992315,2.069344,-4.676754
-1.020000,-0.440000,2.205302,0.040000,-107268082014.119629,-301439066357.112183,294141903589.168823,373188419413.869141,-5.638042,5.583049,7.031086
-0.980000,-0.440000,2.174769,0.040000,-107322113311.279617,-1738114298682.935303,5284038180598.948242,-1018657930964.682007,-52.789259,79.512164,-19.192106
-0.940000,-0.440000,2.144548,0.040000,-100603998214.453842,-1570478851295.157715,6896482288009.161133,-5806137339874.265625,-59.692230,99.830227,-109.390993
-0.900000,-0.440000,2.114651,0.040000,-71462999270.689819,-4725640241067.901367,-2633292916752.025391,-5033535292130.979492,-47.439832,-8.018795,-94.834723
-0.860000,-0.440000,2.085093,0.040000,-57966953486.575150,-3409683028358.216309,-1238808489363.736328,2738103163384.489258,-37.966322,2.934212,51.587451
-0.820000,-0.440000,2.055888,0.040000,-42899790177.320488,-2552750259971.042480,-713456328673.774414,4986817027867.510742,-29.634127,5.019237,93.954524
-0.780000,-0.440000,2.027052,0.040000,-30587573353.287064,-1047229843006.820679,-294919249359.245605,2327001155001.022949,-12.144357,2.029610,43.842051
-0.740000,-0.440000,1.998601,0.040000,-17604634685.236485,-854321658126.045044,914867843640.345337,2008211044628.997803,-16.438133,16.894423,37.835860
-0.700000,-0.440000,1.970550,0.040000,-3380358345.378218,156068681696.896790,-159205150879.274078,2431087227828.019531,2.958152,-2.981789,45.803093
-0.660000,-0.440000,1.942073,0.040000,10591742875.042334,1192841951772.170898,-1222546461855.977051,2032996373545.107178,22.641729,-22.865589,38.302830
-0.620000,-0.440000,1.913810,0.040000,22700169851.695438,1747665588718.076416,-1779449997904.756592,1194009103271.030518,33.106684,-33.346219,22.495824
-0.580000,-0.440000,1.885664,0.040000,32058834620.375435,1778470036375.236328,-1797328478963.663574,358081541690.711304,33.613998,-33.756119,6.746464
-0.540000,-0.440000,1.857178,0.040000,38598942695.351219,1492428080539.615723,-1497660634170.841553,-229057420122.692444,28.147786,-28.187219,-4.315575
-0.500000,-0.440000,1.829124,0.040000,42758994924.825310,1109607741567.052979,-1107198015799.175537,-538999535697.698425,20.892033,-20.873873,-10.155064
-0.460000,-0.440000,1.800665,0.040000,45140537272.268394,759529807910.865234,-754667515290.171631,-647141662541.758179,14.282499,-14.245856,-12.192524
-0.420000,-0.440000,1.772382,0.040000,46299881527.513504,491674383177.687134,-480100606561.080383,-646375976599.725220,9.198013,-9.110791,-12.178098
-0.380000,-0.440000,1.744282,0.040000,46671267503.997047,318225938490.208557,-290744864368.532532,-598884291562.776001,5.840233,-5.633130,-11.283327
-0.340000,-0.440000,1.715757,0.040000,46563394583.296265,181646876841.839691,-152107840803.731506,-525396196385.746460,3.255373,-3.032760,-9.898769
-0.300000,-0.440000,1.687698,0.040000,46183320950.703903,89524973309.870209,-45751554566.313698,-474850097515.158569,1.439287,-1.109401,-8.946451
-0.260000,-0.440000,1.659261,0.040000,45664342968.622757,50176691577.725487,29049457524.127735,-419153302056.532043,0.497558,0.099509,-7.897091
0.260000,-0.440000,1.321643,0.040000,40630211834.645729,-82850387510.959808,21280003958.929813,-346344972991.614807,-1.212943,0.748934,-6.525340
0.300000,-0.440000,1.300446,0.040000,40635250574.257668,-113730704416.296997,79492639772.343857,-389812220032.722107,-1.949233,1.691207,-7.344288
0.340000,-0.440000,1.280149,0.040000,40818643482.085823,-186139991617.518066,162883266558.310913,-429288330377.852295,-3.375534,3.200266,-8.088041
0.380000,-0.440000,1.260794,0.040000,41285167649.881660,-293566060406.070557,271915856972.118164,-486732837245.178467,-5.408584,5.245423,-9.170329
0.420000,-0.440000,1.242426,0.040000,42197832164.586021,-430207976430.574829,421103410216.372253,-523584760747.563965,-8.053907,7.985293,-9.864640
0.460000,-0.440000,1.225088,0.040000,43799860119.587639,-641343446115.104858,637510223714.008667,-523442137544.240967,-12.061616,12.032728,-9.861953
0.500000,-0.440000,1.208827,0.040000,46433518297.206871,-917295256237.420166,915399790941.807007,-437090154464.755737,-17.271661,17.257376,-8.235032
0.540000,-0.440000,1.193684,0.040000,50537318619.060188,-1219012116234.892578,1223133078085.223877,-191206073477.741669,-22.990187,23.021244,-3.602433
0.580000,-0.440000,1.179704,0.040000,56585364715.278046,-1444460140585.093506,1459297823791.647217,273806761292.027313,-27.298332,27.410152,5.158678
0.620000,-0.440000,1.166929,0.040000,64923267353.481384,-1420239928991.911621,1445330837227.913330,936435130775.084106,-26.899962,27.089053,17.642981
0.660000,-0.440000,1.155397,0.040000,75496763617.061447,-981298523846.295532,1005173389377.171753,1605600989902.790771,-18.623178,18.803104,30.250453
0.700000,-0.440000,1.145148,0.040000,87604079521.269943,-151784178696.793427,155812145749.624298,1934518397362.131104,-2.882469,2.912824,36.447448
0.740000,-0.440000,1.136215,0.040000,99952393693.934708,697092392370.155029,-737856843967.793335,1621139468196.162598,13.364033,-13.671243,30.543207
0.780000,-0.440000,1.128629,0.040000,111267141412.257767,990448805442.090820,-175810900528.062683,1603631700724.804199,14.056155,-7.916854,30.213351
0.820000,-0.440000,1.122419,0.040000,121621473929.272217,2003483801187.433594,-12079954365.781748,2866048755634.877441,26.491035,-11.483354,53.998020
0.860000,-0.440000,1.117607,0.040000,132948112461.156509,2722050808318.747070,-713858502185.473633,1605865873731.262207,39.934363,-24.800160,30.255444
0.900000,-0.440000,1.114210,0.040000,141868069682.612152,2997880842162.079102,-174013771443.416779,-2305429952663.061523,40.520825,-19.239508,-43.435637
0.940000,-0.440000,1.112243,0.040000,154862340092.172028,1210134972811.812744,-3301663513857.699707,-2821735648000.874023,34.621327,-50.383572,-53.163135
0.980000,-0.440000,1.111713,0.040000,157963135049.873230,973283385037.895630,-2371705204354.504883,-805781479865.373413,26.241347,-36.780178,-15.181390
1.020000,-0.440000,1.111713,0.040000,157909229894.528656,246924887589.304901,-240249823833.352142,-171532903827.183838,4.614479,-4.564175,-3.231779
1.060000,-0.440000,1.112243,0.040000,157387837899.035461,86949215975.559219,-88620577360.964828,-367654283855.221497,1.647620,-1.660216,-6.926820
1.100000,-0.440000,1.114210,0.040000,156719176899.909698,39603463857.767578,-39539189302.040062,-354980243157.342651,0.745789,-0.745305,-6.688034
1.140000,-0.440000,1.117607,0.040000,155985582423.512970,10232998186.960796,-9765467932.213167,-301352527877.712708,0.190153,-0.186630,-5.677656
1.180000,-0.440000,1.122419,0.040000,155234768129.254242,-9636969375.516937,10104923253.499023,-247479000127.578796,-0.184211,0.187738,-4.662648
1.220000,-0.440000,1.128629,0.040000,154498673238.404724,-21469885441.476032,21809485215.490154,-201251245075.028717,-0.406425,0.408984,-3.791690
1.260000,-0.440000,1.136215,0.040000,153796420493.657410,-27424500150.493244,27640346519.476910,-163047137056.017090,-0.517913,0.519540,-3.071903
1.300000,-0.440000,1.145148,0.040000,153137717421.089844,-29576178599.196747,29702747129.435966,-131803746050.231720,-0.557948,0.558902,-2.483259
1.340000,-0.440000,1.155397,0.040000,152526140543.971863,-29468314759.957550,29536745608.805130,-106332127400.014053,-0.555587,0.556103,-2.003359
1.380000,-0.440000,1.166929,0.040000,151961606107.183838,-28125040557.661495,28157463909.442326,-85578509477.599319,-0.530075,0.530320,-1.612349
1.420000,-0.440000,1.179704,0.040000,151442020449.986298,-26187133225.792892,26198070679.980526,-68661750202.018929,-0.493443,0.493525,-1.293627
1.460000,-0.440000,1.193684,0.040000,150964316277.039795,-24039291721.338928,24037952885.389721,-54861432664.546547,-0.452907,0.452897,-1.033621
1.500000,-0.440000,1.208827,0.040000,150525076186.633972,-21902473967.381847,21894581705.127190,-43594776129.431000,-0.412611,0.412551,-0.821351
1.540000,-0.440000,1.225088,0.040000,150120891548.723969,-19895479210.885841,19884521057.784077,-34392527116.309822,-0.374780,0.374698,-0.647975
1.580000,-0.440000,1.242426,0.040000,149748556034.269257,-18074690082.752178,18062736669.993034,-26877188496.216770,-0.340470,0.340380,-0.506382
1.620000,-0.440000,1.260794,0.040000,149405158020.895142,-16459334188.864147,16447565917.076073,-20744620459.422245,-0.310037,0.309948,-0.390841
1.660000,-0.440000,1.280149,0.040000,149088112737.029083,-15047377767.686764,15036421782.575985,-15749050277.919127,-0.283439,0.283357,-0.296721
1.700000,-0.440000,1.300446,0.040000,148795159866.273193,-13825413830.026154,13815558975.147820,-11691111156.122335,-0.260423,0.260349,-0.220267
1.740000,-0.440000,1.321643,0.040000,148524342621.663300,-12774716750.829100,12766050191.639521,-8408403567.050756,-0.240634,0.240569,-0.158419
1.780000,-0.440000,1.343696,0.040000,148273978098.414948,-11874859387.535824,11867352931.664356,-5768082470.050675,-0.223687,0.223630,-0.108674
1.820000,-0.440000,1.366565,0.040000,148042624770.450439,-11105789565.551327,11099353658.693588,-3661038493.480626,-0.209203,0.209155,-0.068976
1.860000,-0.440000,1.390208,0.040000,147829050503.143829,-10448942194.366341,10443459157.120573,-1997319497.753848,-0.196833,0.196792,-0.037631
1.900000,-0.440000,1.414588,0.040000,147632202893.812256,-9887757051.468758,9883101021.419544,-702512665.110233,-0.186265,0.186230,-0.013236
1.940000,-0.440000,1.439666,0.040000,147451182788.996338,-9407839237.180717,9403887644.759634,285130175.584289,-0.177227,0.177197,0.005372
1.980000,-0.440000,1.465407,0.040000,147285221248.372528,-8996913273.266239,8993552977.658684,1016990975.243031,-0.169488,0.169463,0.019161
2.020000,-0.440000,1.491777,0.040000,147133659890.123077,-8644666107.568369,8641796219.423054,1535935398.870954,-0.162854,0.162833,0.028938
2.060000,-0.440000,1.518742,0.040000,146995934371.716980,-8342538229.939609,8340070925.893228,1877811976.969643,-0.157164,0.157146,0.035379
2.100000,-0.440000,1.546272,0.040000,146871560674.999054,-8083498823.597656,8081358992.606766,2072675402.929800,-0.152286,0.152270,0.039050
2.140000,-0.440000,1.574337,0.040000,146760123837.652679,-7861825942.174702,7859950195.226967,2145791725.250206,-0.148111,0.148097,0.040428
2.180000,-0.440000,1.602909,0.040000,146661268780.313660,-7672903218.056328,7671238596.559409,2118470249.575564,-0.144553,0.144540,0.039913
2.220000,-0.440000,1.630954,0.040000,146574692904.550262,-7513038736.484921,7511541381.777200,2008757225.479808,-0.141542,0.141530,0.037846
2.260000,-0.440000,1.659261,0.040000,146500140172.085510,-7379309009.882443,7377943939.500729,1832019074.274180,-0.139023,0.139012,0.034516
2.300000,-0.440000,1.687698,0.040000,146437396415.893829,-7269443074.882278,7268200232.797741,1601437910.152326,-0.136953,0.136944,0.030172
2.340000,-0.440000,1.715757,0.040000,146386285706.987335,-7181931853.738316,7180998245.600875,1328446393.493838,-0.135306,0.135299,0.025029
2.380000,-0.440000,1.744282,0.040000,146346668238.899811,-7116143143.444743,7113082589.056613,1023461867.772041,-0.134055,0.134032,0.019283
2.420000,-0.440000,1.772382,0.040000,146318449409.749207,-7074839146.172898,7074155114.264703,784343504.947554,-0.133290,0.133285,0.014777
2.460000,-0.440000,1.800665,0.040000,146301710082.981262,-7102907495.963257,7146850264.639624,641247206.597459,-0.134071,0.134402,0.012081
-2.500000,-0.400000,3.456821,0.040000,-232163260.778182,-16604548074296.593750,41975090426390.945312,-4202161820032.082031,-456.238029,647.436319,-79.171165
-2.460000,-0.400000,3.420157,0.040000,-88352272827.113907,-433778034874.680054,21733094587340.355469,-2486013857274.794434,-128.560071,289.076660,-46.837942
-2.420000,-0.400000,3.383569,0.040000,-88384918751.529968,-1632902249993.364502,6884615570159.280273,-988428139253.864014,-60.448422,100.026551,-18.622559
-2.380000,-0.400000,3.347059,0.040000,-88438801539.978745,-94425996281.268616,297686692335.656616,-575590353.832801,-2.927905,4.459725,-0.010844
-2.340000,-0.400000,3.310629,0.040000,-88514407279.196030,13741927918.893124,-13738859340.663023,2249119078.754313,0.258889,-0.258865,0.042375
-2.300000,-0.400000,3.274283,0.040000,-88612003351.092606,13938547111.795036,-13935924526.477131,2773064989.425979,0.262595,-0.262576,0.052246
-2.260000,-0.400000,3.238023,0.040000,-88731905000.284729,14179520389.120308,-14176889011.205952,3269170292.428933,0.267136,-0.267116,0.061593
-2.220000,-0.400000,3.201852,0.040000,-88874497879.457504,14466221029.557938,-14463532628.856634,3729417908.265318,0.272537,-0.272517,0.070264
-2.180000,-0.400000,3.165774,0.040000,-89040240800.951416,14799724804.730333,-14796966691.030542,4144280896.588177,0.278820,-0.278799,0.078081
-2.140000,-0.400000,3.129790,0.040000,-89229667476.939377,15181248518.705486,-15178410897.039417,4502371540.835027,0.286007,-0.285986,0.084827
-2.100000,-0.400000,3.093905,0.040000,-89443388466.006882,15612172552.119318,-15609247327.616915,4790010898.323218,0.294126,-0.294104,0.090247
-2.060000,-0.400000,3.058123,0.040000,-89682093379.306931,16094014294.998013,-16090996638.143387,4990717793.176144,0.303204,-0.303181,0.094028
-2.020000,-0.400000,3.022446,0.040000,-89946553303.293198,16628369439.483593,-16625260489.295021,5084599010.155696,0.313271,-0.313247,0.095797
-1.980000,-0.400000,2.986878,0.040000,-90237623343.546310,17216804943.762600,-17213616035.681263,5047617188.510962,0.324357,-0.324333,0.095100
-1.940000,-0.400000,2.951424,0.040000,-90556245116.098267,17860676870.307125,-17857436018.493595,4850707374.973326,0.336487,-0.336463,0.091390
-1.900000,-0.400000,2.916088,0.040000,-90903448891.322174,18560833162.402855,-18557594874.029430,4458706290.174877,0.349679,-0.349654,0.084005
-1.860000,-0.400000,2.880874,0.040000,-91280354909.696213,19317142331.844654,-19314002329.332748,3829049771.590768,0.363928,-0.363905,0.072142
-1.820000,-0.400000,2.845786,0.040000,-91688173107.781693,20127761126.231205,-20124878280.358253,2910183348.763179,0.379202,-0.379181,0.054830
-1.780000,-0.400000,2.810829,0.040000,-92128200071.575165,20988013463.212852,-20985642303.062016,1639618432.538992,0.395413,-0.395395,0.030891
-1.740000,-0.400000,2.776009,0.040000,-92601811407.237747,21888693309.397522,-21887232030.939026,-58447440.285849,0.412387,-0.412376,-0.001101
-1.700000,-0.400000,2.741330,0.040000,-93110446789.931610,22813517000.304600,-22813578177.841240,-2276042076.468418,0.429820,-0.429821,-0.042882
-1.660000,-0.400000,2.706798,0.040000,-93655583579.502823,23735322883.945938,-23737837438.218975,-5124968504.646047,0.447201,-0.447220,-0.096557
-1.620000,-0.400000,2.672418,0.040000,-94238692871.198151,24610429131.585060,-24616799043.381126,-8741100027.926868,0.463711,-0.463759,-0.164687
-1.580000,-0.400000,2.638197,0.040000,-94861168878.775085,25370285811.665714,-25382608393.197510,-13289500855.029488,0.478061,-0.478153,-0.250382
-1.540000,-0.400000,2.604140,0.040000,-95524218182.904633,25909151722.463394,-25930549348.348663,-18970369144.821480,0.488264,-0.488426,-0.357413
-1.500000,-0.400000,2.570255,0.040000,-96228688964.665894,26065920512.456154,-26101027321.181198,-26025600336.416992,0.491295,-0.491560,-0.490337
-1.460000,-0.400000,2.536548,0.040000,-96974810901.864182,25597290358.281681,-25652978103.830662,-34745353099.879662,0.482583,-0.483002,-0.654623
-1.420000,-0.400000,2.503026,0.040000,-97761802424.637192,24137965245.061852,-24224451382.142693,-45473230004.592911,0.455262,-0.455914,-0.856742
-1.380000,-0.400000,2.469697,0.040000,-98587281048.419495,21140936032.393425,-21273552192.061916,-58607550449.846733,0.399057,-0.400056,-1.104200
-1.340000,-0.400000,2.436568,0.040000,-99446380205.651672,15785960231.067389,-15988156229.855053,-74595745219.675079,0.298559,-0.300083,-1.405427
-1.300000,-0.400000,2.403649,0.040000,-100330424401.281601,6835868010.232460,-7144486594.786564,-93925297193.885635,0.130536,-0.132862,-1.769607
-1.260000,-0.400000,2.370948,0.040000,-101224930714.564972,-7584808172.930449,7111749965.973103,-117154238029.701157,-0.140228,0.136663,-2.207254
-1.220000,-0.400000,2.338473,0.040000,-102106587023.174637,-30244639528.517937,29530920980.723614,-145190612596.432068,-0.565792,0.560414,-2.735475
-1.180000,-0.400000,2.306235,0.040000,-102938856559.791306,-64471551068.949821,63543770483.242668,-180583393671.760864,-1.209437,1.202445,-3.402296
-1.140000,-0.400000,2.274244,0.040000,-103667086992.726532,-109408365971.409103,109257539324.197281,-231841373937.782349,-2.060465,2.059328,-4.368026
-1.100000,-0.400000,2.242510,0.040000,-104222298319.290359,-132624210245.684311,139631080519.314697,-322139645294.342773,-2.538321,2.591126,-6.069298
-1.060000,-0.400000,2.211044,0.040000,-104582735189.354843,47677819795.265663,-10634793542.118380,-470302592860.861938,0.688904,-0.409739,-8.860773
-1.020000,-0.400000,2.179857,0.040000,-105091758542.702789,952886033187.280273,-540207330485.231812,-345994501423.719360,15.620393,-12.510351,-6.518737
-0.980000,-0.400000,2.148963,0.040000,-107679755005.862732,1591811455365.791260,7802430317762.434570,-1233159548344.823242,-23.107238,93.904422,-23.233441
-0.940000,-0.400000,2.118373,0.040000,-120925678096.517151,10064337807499.251953,17954354224664.726562,-3048379646117.276367,31.251439,179.903922,-57.433240
-0.900000,-0.400000,2.088102,0.040000,-35860037167.665489,-10656360991808.212891,-14019588048849.041016,-2015480368713.179932,-61.299263,-124.664411,-37.972819
-0.860000,-0.400000,2.058163,0.040000,-40943196779.593491,-3496670443534.246094,-5642864650623.742188,1717377603867.434814,-14.221056,-54.656599,32.356390
-0.820000,-0.400000,2.028570,0.040000,-34876695182.316284,-2181046339372.117432,1340434391740.188477,2790896700720.355957,-36.340892,30.005846,52.582112
-0.780000,-0.400000,1.999340,0.040000,-25645804314.291351,-826097816548.774414,682990391248.659302,1632483148353.257568,-14.755294,13.676803,30.756929
-0.740000,-0.400000,1.970489,0.040000,-15127704682.886957,-425939995865.235474,451690191564.020142,1495605262960.263184,-8.170501,8.364560,28.178070
-0.700000,-0.400000,1.942032,0.040000,-3940882333.631012,118695737433.109985,-115875702991.833237,1581172843773.922119,2.220357,-2.199105,29.790213
-0.660000,-0.400000,1.913989,0.040000,7054171148.234756,696829811710.895142,-708814990368.131226,1372320512403.728027,13.196420,-13.286743,25.855314
-0.620000,-0.400000,1.885505,0.040000,16952574814.098654,1077176771579.329468,-1093174750859.340454,929943544606.480713,20.385058,-20.505623,17.520675
-0.580000,-0.400000,1.857244,0.040000,25151234528.159634,1191779458327.448730,-1203978199271.424072,434081495987.900330,22.522765,-22.614698,8.178347
-0.540000,-0.400000,1.829102,0.040000,31460934903.864880,1101073003454.480469,-1107046004864.030029,25053727276.464905,20.778614,-20.823628,0.472027
-0.500000,-0.400000,1.800610,0.040000,36017765645.563515,906454971164.702148,-907542140414.331909,-244569154944.583099,17.084282,-17.092475,-4.607825
-0.460000,-0.400000,1.772563,0.040000,39126030918.668716,691268596374.091187,-686666374724.250854,-389411349676.291260,12.997889,-12.963205,-7.336736
-0.420000,-0.400000,1.744098,0.040000,41128786012.695694,520160370129.825012,-490943979576.469788,-458832470149.795654,9.634987,-9.414805,-8.644670
-0.380000,-0.400000,1.715815,0.040000,42334892798.942703,412319742672.120605,-322007162407.105652,-493685705195.618042,7.257881,-6.577264,-9.301325
-0.340000,-0.400000,1.687722,0.040000,42991887901.382492,294907104004.121155,-199716429909.345978,-467385153234.567017,5.018187,-4.300808,-8.805807
-0.300000,-0.400000,1.659188,0.040000,43284849135.312401,147819317007.325653,-113589209373.774002,-425794209535.530640,2.591527,-2.333561,-8.022210
0.300000,-0.400000,1.266422,0.040000,43171343793.658493,-159408224572.820068,132511370866.074265,-351183488766.017273,-2.851318,2.648617,-6.616501
0.340000,-0.400000,1.245570,0.040000,43910215137.408134,-275019126452.591187,200011316402.802032,-383584819106.269836,-4.757563,4.192286,-7.226960
0.380000,-0.400000,1.225669,0.040000,45003671844.302795,-367160644855.643372,296152731508.923645,-403775070518.150391,-6.516170,5.981038,-7.607356
0.420000,-0.400000,1.206766,0.040000,46597428769.278496,-451961475348.705261,429088757375.622742,-375773786295.079712,-8.385936,8.213562,-7.079796
0.460000,-0.400000,1.188909,0.040000,48886332524.767876,-586620096474.903687,583032155295.748901,-320408635926.126221,-11.031983,11.004943,-6.036684
0.500000,-0.400000,1.172146,0.040000,52113433904.830246,-755878831984.497559,756745938107.487549,-205246283838.507385,-14.246096,14.252631,-3.866959
0.540000,-0.400000,1.156523,0.040000,56548535524.707710,-908720701866.698853,913443282969.192383,8721769493.226381,-17.147518,17.183108,0.164323
0.580000,-0.400000,1.142089,0.040000,62430588447.508980,-979344002812.133423,988994034014.289429,333168636727.419861,-18.505952,18.578677,6.277090
0.620000,-0.400000,1.128887,0.040000,69865426934.230133,-887382771564.979980,900113026766.809204,726919178541.239258,-16.790759,16.886698,13.695579
0.660000,-0.400000,1.116963,0.040000,78701178394.242874,-583710038848.341064,593503384054.061768,1079157745243.442627,-11.052789,11.126594,20.331958
0.700000,-0.400000,1.106358,0.040000,88455987223.628693,-118571411794.069855,117141101376.906052,1244265138865.359375,-2.225870,2.215091,23.442677
0.740000,-0.400000,1.097109,0.040000,98401341655.232315,328382266337.663147,-347271257835.958679,1156341379198.200928,6.293676,-6.436028,21.786142
0.780000,-0.400000,1.089251,0.040000,107834663461.115601,624008721076.621216,-543733365874.500000,1123837270765.192139,11.302956,-10.697982,21.173746
0.820000,-0.400000,1.082815,0.040000,116306037897.631409,1362916196416.915039,-927270693154.916748,1620123519867.162354,23.215787,-19.932662,30.524066
0.860000,-0.400000,1.077826,0.040000,122896146857.072357,2201651704113.998047,1498054024822.346191,1040044626040.495239,20.569014,7.312826,19.595044
0.900000,-0.400000,1.074304,0.040000,123992426828.248535,5052509444426.948242,4749158720726.651367,-798673892714.575073,39.791474,34.076170,-15.047479
0.940000,-0.400000,1.072264,0.040000,159578922682.538513,-3402789098907.621094,-7699917664849.968750,-1368329850316.771240,-1.356090,-82.316483,-25.780128
0.980000,-0.400000,1.071713,0.040000,155261286857.720428,-308722851332.087830,-3412284153954.611328,-670059870371.674805,15.215261,-43.257633,-12.624316
1.020000,-0.400000,1.071713,0.040000,154640376714.965790,-228488560117.496796,70732986868.101257,-336071687616.880859,-3.413195,2.224312,-6.331785
1.060000,-0.400000,1.072264,0.040000,154597076416.697418,47805190210.038033,-59287135019.116859,-401001763741.260559,0.965575,-1.052106,-7.555106
1.100000,-0.400000,1.074304,0.040000,154501996488.616791,87219629209.826614,-89190541324.136292,-334197068404.909180,1.654408,-1.669262,-6.296467
1.140000,-0.400000,1.077826,0.040000,154272777452.581360,63352005709.968323,-63038621870.574913,-275075559183.740906,1.191817,-1.189455,-5.182583
1.180000,-0.400000,1.082815,0.040000,153942471206.760071,36765742475.257225,-36236924494.604172,-228080270598.190247,0.689699,-0.685714,-4.297165
1.220000,-0.400000,1.089251,0.040000,153552711956.042664,17547359443.755463,-17143447076.956589,-189108689632.959747,0.328319,-0.325275,-3.562917
1.260000,-0.400000,1.097109,0.040000,153134293878.051331,5069425674.677113,-4797090637.015903,-156179142786.737396,0.093972,-0.091919,-2.942506
1.300000,-0.400000,1.106358,0.040000,152707351908.323090,-2651780159.447798,2828924252.839492,-128364346135.191483,-0.050962,0.052297,-2.418459
1.340000,-0.400000,1.116963,0.040000,152284380352.855927,-7236181980.211433,7349283327.323225,-105003118068.431320,-0.136973,0.137825,-1.978320
1.380000,-0.400000,1.128887,0.040000,151872811933.871246,-9808451270.679892,9879328129.033140,-85490667157.673721,-0.185198,0.185732,-1.610694
1.420000,-0.400000,1.142089,0.040000,151476827290.731842,-11116711661.940699,11160045220.995195,-69261276983.765045,-0.209690,0.210017,-1.304923
1.460000,-0.400000,1.156523,0.040000,151098562162.372131,-11650320206.681807,11675887722.570375,-55803797186.356270,-0.219643,0.219836,-1.051376
1.500000,-0.400000,1.172146,0.040000,150738897782.516388,-11725356141.803019,11739629686.216114,-44671193172.788658,-0.220993,0.221101,-0.841631
1.540000,-0.400000,1.188909,0.040000,150397971683.058014,-11543019313.958008,11550252349.744287,-35481076163.316376,-0.217518,0.217573,-0.668484
1.580000,-0.400000,1.206766,0.040000,150075503032.711517,-11228952107.761610,11231913574.131441,-27910783762.049435,-0.211577,0.211599,-0.525855
1.620000,-0.400000,1.225669,0.040000,149770995954.146149,-10859570856.244934,10860040896.391808,-21690181080.627079,-0.204603,0.204607,-0.408656
1.660000,-0.400000,1.245570,0.040000,149483863315.443115,-10479611678.839930,10478715862.711067,-16594047166.576315,-0.197437,0.197430,-0.312641
1.700000,-0.400000,1.266422,0.040000,149213499317.996521,-10113751271.779232,10112185258.594210,-12434954166.604864,-0.190540,0.190528,-0.234282
1.740000,-0.400000,1.288179,0.040000,148959319642.963928,-9774244035.323427,9772423994.494249,-9056995453.005606,-0.184142,0.184128,-0.170639
1.780000,-0.400000,1.310795,0.040000,148720781490.080688,-9465891160.575230,9464053994.639048,-6330436834.780522,-0.178332,0.178319,-0.119269
1.820000,-0.400000,1.334228,0.040000,148497391536.742279,-9189231355.300474,9187501070.052189,-4147235350.863522,-0.173121,0.173108,-0.078136
1.860000,-0.400000,1.358434,0.040000,148288706974.691956,-8942553312.670389,8940984626.680559,-2417320379.222647,-0.168474,0.168462,-0.045544
1.900000,-0.400000,1.383374,0.040000,148094332879.363190,-8723133529.787205,8721740231.458612,-1065521204.181863,-0.164341,0.164331,-0.020075
1.940000,-0.400000,1.409008,0.040000,147913917915.898254,-8527969981.736585,8526743113.254932,-29032177.346236,-0.160665,0.160656,-0.000547
1.980000,-0.400000,1.435299,0.040000,147747149571.419067,-8354192164.726222,8353111458.400012,744679783.424539,-0.157392,0.157384,0.014030
2.020000,-0.400000,1.462211,0.040000,147593749580.029846,-8199267278.954630,8198308152.770144,1299605674.735452,-0.154474,0.154466,0.024485
2.060000,-0.400000,1.489712,0.040000,147453469877.297272,-8061081415.760825,8060219077.434181,1672629254.860682,-0.151871,0.151864,0.031513
2.100000,-0.400000,1.517768,0.040000,147326089218.575165,-7937947149.668377,7937158844.219409,1894720577.263008,-0.149551,0.149545,0.035698
2.140000,-0.400000,1.546351,0.040000,147211410476.191406,-7828570573.228261,7827836661.270840,1991932478.940282,-0.147491,0.147485,0.037529
2.180000,-0.400000,1.574387,0.040000,147109258564.561401,-7731998605.292683,7731302921.680720,1986236102.031717,-0.145671,0.145666,0.037422
2.220000,-0.400000,1.602695,0.040000,147019478910.031158,-7647559305.688598,7646889029.858872,1896224937.306590,-0.144081,0.144076,0.035726
2.260000,-0.400000,1.631137,0.040000,146941936370.599884,-7574801746.762890,7574145894.393532,1737711587.234806,-0.142710,0.142705,0.032739
2.300000,-0.400000,1.659188,0.040000,146876514509.385040,-7513423752.795632,7512754479.496601,1524236733.832635,-0.141553,0.141548,0.028718
2.340000,-0.400000,1.687722,0.040000,146823115096.668030,-7462983804.925790,7462051295.283716,1267498484.832193,-0.140602,0.140595,0.023880
2.380000,-0.400000,1.715815,0.040000,146781657095.714539,-7423190470.082939,7424907591.417976,977871248.091448,-0.139867,0.139880,0.018424
2.420000,-0.400000,1.744098,0.040000,146752064741.522186,-7395558996.186483,7410787944.102098,750823889.861628,-0.139423,0.139537,0.014146
2.460000,-0.400000,1.772563,0.040000,146734121213.330078,-7318379668.241676,7306327886.828284,614323991.849814,-0.137814,0.137724,0.011574
-2.500000,-0.360000,3.441109,0.040000,-88786543586.064713,20307823650878.414062,12669906403803.238281,-1762945655810.170654,196.215305,52.312516,-33.214918
-2.460000,-0.360000,3.404276,0.040000,-88796331652.007812,5040803566915.055664,15377979240186.566406,-990057729359.200928,-20.438850,174.319532,-18.653262
-2.420000,-0.360000,3.367515,0.040000,-88829570325.257477,-56227033408.220596,4971511416000.162109,-684673943562.290161,-28.841392,65.884115,-12.899654
-2.380000,-0.360000,3.330829,0.040000,-88885593744.677170,10243295546.742939,1590835744.752713,-696222568.084814,0.126101,-0.036916,-0.013117
-2.340000,-0.360000,3.294220,0.040000,-88964244375.270935,14257451071.355120,-14255786522.686707,2085870193.522706,0.268609,-0.268597,0.039299
-2.300000,-0.360000,3.257691,0.040000,-89065710902.109741,14428458878.952723,-14426350891.188099,2568682751.130302,0.271829,-0.271813,0.048395
-2.260000,-0.360000,3.221244,0.040000,-89190266257.927841,14637479230.644854,-14635355164.159401,3023504349.189528,0.275767,-0.275751,0.056965
-2.220000,-0.360000,3.184883,0.040000,-89338244814.165070,14883540658.692694,-14881449121.732740,3442263435.862877,0.280403,-0.280387,0.064854
-2.180000,-0.360000,3.148610,0.040000,-89510040214.412125,15165983858.297937,-15163939606.295736,3815434763.201701,0.285724,-0.285709,0.071885
-2.140000,-0.360000,3.112428,0.040000,-89706104295.051071,15483971669.915079,-15481991377.732405,4131669115.234431,0.291716,-0.291701,0.077843
-2.100000,-0.360000,3.076340,0.040000,-89926945738.480362,15836377677.938349,-15834484141.487734,4377381685.862233,0.298356,-0.298342,0.082472
-2.060000,-0.360000,3.040351,0.040000,-90173128261.198471,16221673327.728455,-16219898331.875324,4536272940.094002,0.305616,-0.305602,0.085466
-2.020000,-0.360000,3.004463,0.040000,-90445268154.274460,16637768711.255579,-16636156983.248314,4588767083.396415,0.313456,-0.313444,0.086455
-1.980000,-0.360000,2.968680,0.040000,-90744030919.582428,17081783676.158314,-17080398584.423712,4511352187.387859,0.321823,-0.321812,0.084996
-1.940000,-0.360000,2.933006,0.040000,-91070126632.877045,17549718164.713295,-17548649943.577618,4275804037.518166,0.330641,-0.330633,0.080559
-1.900000,-0.360000,2.897446,0.040000,-91424303502.368500,18035977124.262917,-18035354731.974411,3848273849.652830,0.339805,-0.339800,0.072504
-1.860000,-0.360000,2.862002,0.040000,-91807338857.065353,18532685773.760803,-18532693966.414570,3188218589.207221,0.349167,-0.349167,0.060068
-1.820000,-0.360000,2.826680,0.040000,-92220026461.294037,19028703066.396690,-19029606943.400990,2247152456.812096,0.358517,-0.358524,0.042338
-1.780000,-0.360000,2.791484,0.040000,-92663158565.447479,19508201352.468723,-19510381582.763420,967200506.515965,0.367558,-0.367575,0.018223
-1.740000,-0.360000,2.756419,0.040000,-93137500404.012085,19948623624.420376,-19952626899.493607,-720557300.638702,0.375866,-0.375896,-0.013576
-1.700000,-0.360000,2.721490,0.040000,-93643753849.070969,20317749539.764210,-20324360664.267223,-2897946867.031457,0.382836,-0.382885,-0.054599
-1.660000,-0.360000,2.686703,0.040000,-94182505491.697357,20569488473.372974,-20579833064.413288,-5661727951.980540,0.387600,-0.387678,-0.106670
-1.620000,-0.360000,2.652063,0.040000,-94754152373.154419,20637859991.708687,-20653550204.724339,-9125689597.407915,0.388918,-0.389036,-0.171933
-1.580000,-0.360000,2.617576,0.040000,-95358795668.690262,20428403958.372524,-20451744159.541237,-13422598639.467508,0.385015,-0.385191,-0.252890
-1.540000,-0.360000,2.583247,0.040000,-95996088488.235870,19805965359.476685,-19840240340.936558,-18705577859.349361,0.373350,-0.373608,-0.352424
-1.500000,-0.360000,2.549084,0.040000,-96665018123.055954,18577400043.190845,-18627275575.161510,-25148106069.290485,0.350291,-0.350667,-0.473805
-1.460000,-0.360000,2.515093,0.040000,-97363594893.574051,16467207093.643860,-16539284016.996246,-32941109965.414742,0.310659,-0.311202,-0.620630
-1.420000,-0.360000,2.481282,0.040000,-98088408364.354416,13083276443.958103,-13186871190.009335,-42284209680.726341,0.247082,-0.247863,-0.796659
-1.380000,-0.360000,2.447656,0.040000,-98833995726.328613,7868239175.066099,-8016594246.349092,-53365345373.450333,0.149081,-0.150199,-1.005434
-1.340000,-0.360000,2.414226,0.040000,-99591943646.387894,26648873.497856,-239349325.314458,-66317391244.503113,0.001704,-0.003307,-1.249458
-1.300000,-0.360000,2.380998,0.040000,-100349604486.767029,-11601427035.241911,11291668458.893152,-81131227135.701736,-0.216827,0.214492,-1.528559
-1.260000,-0.360000,2.347981,0.040000,-101088215605.932266,-28823577241.655457,28347358108.232952,-97504852897.391006,-0.540361,0.536772,-1.837048
-1.220000,-0.360000,2.315184,0.040000,-101779937645.466827,-54891866398.629990,54057800705.527969,-114723795775.323654,-1.029480,1.023195,-2.161463
-1.180000,-0.360000,2.282617,0.040000,-102382444506.533173,-96892136851.493500,95097854821.671402,-132514695660.840958,-1.815362,1.801840,-2.496654
-1.140000,-0.360000,2.250290,0.040000,-102827067358.420059,-171921892603.744812,167363771252.965271,-158416447708.541321,-3.213345,3.178994,-2.984658
-1.100000,-0.360000,2.218213,0.040000,-102991065925.818115,-314316056171.571655,303606174794.655823,-248132109919.389923,-5.861363,5.780650,-4.674953
-1.060000,-0.360000,2.186397,0.040000,-102651405997.104843,-496785665937.715820,507783844142.067261,-697833390684.482422,-9.421894,9.504778,-13.147586
-1.020000,-0.360000,2.154854,0.040000,-101583548692.153915,-123012215085.379562,433535836042.811523,-2346224161044.085449,-4.072755,6.412933,-44.204223
-0.980000,-0.360000,2.123596,0.040000,-100925731739.524918,661376196621.918701,7926444944347.746094,-2896344285433.410645,-36.079148,100.798959,-54.568805
-0.940000,-0.360000,2.092636,0.040000,-109853886631.832840,10123099210065.060547,15985697229935.183594,296337068013.216492,43.153599,153.608345,5.583162
-0.900000,-0.360000,2.061987,0.040000,-27828770692.651718,-8311996998324.244141,-14903651711978.005859,2456208055312.619141,-25.383958,-149.574554,46.276384
-0.860000,-0.360000,2.031663,0.040000,-32926150975.231705,-1918399904755.762207,-6399463661568.985352,1117220977369.061035,10.870245,-73.555594,21.049091
-0.820000,-0.360000,2.001679,0.040000,-29020392674.842384,-1768522271007.486084,1458046106615.683350,479562933698.355774,-31.565120,29.225299,9.035244
-0.780000,-0.360000,1.972050,0.040000,-21911534640.853050,-853914548724.071777,828386052687.203125,947864409069.595581,-15.943954,15.751565,17.858315
-0.740000,-0.360000,1.942793,0.040000,-13396447897.193777,-349000140707.296082,346591671577.187378,1068640940941.772949,-6.561752,6.543601,20.133815
-0.700000,-0.360000,1.913925,0.040000,-4315720651.537513,60733164216.672440,-61748077367.668121,1087872859409.071655,1.149984,-1.157633,20.496155
-0.660000,-0.360000,1.885464,0.040000,4671616522.165031,430561555889.398010,-436535866358.842529,961972853162.783691,8.145797,-8.190821,18.124126
-0.620000,-0.360000,1.857428,0.040000,12979681058.313578,695096875958.622803,-703595590017.750854,709357751339.696777,13.144064,-13.208113,13.364711
-0.580000,-0.360000,1.828938,0.040000,20188420849.431866,816094172307.357788,-823664585554.626709,406535672043.418823,15.418477,-15.475529,7.659368
-0.540000,-0.360000,1.800677,0.040000,26102675762.889420,808954575933.986572,-813784115658.676758,128830562020.313354,15.268471,-15.304867,2.427242
-0.500000,-0.360000,1.772540,0.040000,30729801421.019558,718793773228.352051,-720967640343.776245,-81508445470.328781,13.554778,-13.571161,-1.535666
-0.460000,-0.360000,1.744041,0.040000,34210037921.527218,594818155625.104248,-609375063803.939575,-207081339236.822754,11.288997,-11.398701,-3.901532
-0.420000,-0.360000,1.716002,0.040000,36743429767.656693,489465186975.674988,-496198793442.874695,-294346506588.903503,9.259867,-9.310613,-5.545659
-0.380000,-0.360000,1.687532,0.040000,38536954212.503166,446963014745.769958,-332972584685.151367,-379818661085.549622,7.776749,-6.917690,-7.156004
0.380000,-0.360000,1.190852,0.040000,48230274405.225632,-393741012331.148254,304612178460.215271,-313928473628.522034,-6.914537,6.242842,-5.914594
0.420000,-0.360000,1.171388,0.040000,50310455973.302666,-427106918696.046570,432787449713.696411,-246246847100.479523,-8.079049,8.121859,-4.639433
0.460000,-0.360000,1.152983,0.040000,53040090048.705574,-509815173888.518127,521393502692.038879,-177078203240.084473,-9.670656,9.757913,-3.336256
0.500000,-0.360000,1.135689,0.040000,56581595364.228226,-606856827146.667969,608587571704.619507,-77364890190.606598,-11.443317,11.456360,-1.457599
0.540000,-0.360000,1.119558,0.040000,61091537619.426720,-676925723007.977051,680755848981.702759,89580524110.373169,-12.775322,12.804186,1.687749
0.580000,-0.360000,1.104640,0.040000,66678851191.164597,-681139345975.386353,687143623388.443848,310033072084.747620,-12.866997,12.912247,5.841203
0.620000,-0.360000,1.090986,0.040000,73347056279.623032,-583746275482.976562,590502790261.231079,550611717610.449219,-11.036307,11.087226,10.373844
0.660000,-0.360000,1.078643,0.040000,80939087867.718613,-372540816814.678284,377278326483.570618,751273084323.871704,-7.045662,7.081365,14.154420
0.700000,-0.360000,1.067657,0.040000,89119697103.863876,-79378767132.066071,79812130585.711624,849482469565.723389,-1.497991,1.501257,16.004742
0.740000,-0.360000,1.058070,0.040000,97425409555.753326,233050998048.811554,-233705763864.434113,826756438774.205444,4.394517,-4.399451,15.576571
0.780000,-0.360000,1.049920,0.040000,105357604323.318298,560329504638.631470,-549334924455.284241,726580144278.761719,10.494789,-10.411932,13.689191
0.820000,-0.360000,1.043241,0.040000,112378757533.783539,1048767970948.136841,-924102507819.905640,478105016041.820435,19.054766,-18.115258,9.007776
0.860000,-0.360000,1.038062,0.040000,117570326849.311401,1273981302973.094482,2028357916874.670898,623073384464.373047,5.337151,19.550043,11.739064
0.900000,-0.360000,1.034405,0.040000,118391054108.139359,3903657140863.978027,5279301276899.541992,1043122093272.087769,21.643486,47.561419,19.653025
0.940000,-0.360000,1.032285,0.040000,152782653365.587708,-3504576332461.672852,-6896243199597.103516,205427093005.585175,-7.241009,-71.141979,3.870366
0.980000,-0.360000,1.031714,0.040000,150244845135.201355,-43888568200.153351,-3391742511901.924805,-1087516116009.064941,18.591898,-44.483611,-20.489434
1.020000,-0.360000,1.031714,0.040000,151062597291.325653,106742571326.852417,-229482077052.145294,-1029123579587.038330,2.704837,-3.629830,-19.389285
1.060000,-0.360000,1.032285,0.040000,151925177908.451599,237055485333.582092,-241259911363.415039,-468730776704.292847,4.490027,-4.521712,-8.831160
1.100000,-0.360000,1.034405,0.040000,152431281185.915131,173171872747.867157,-170261074879.281403,-295694045815.183533,3.246206,-3.224270,-5.571047
1.140000,-0.360000,1.038062,0.040000,152660719699.206818,113053470821.106186,-111534357035.037170,-236835258638.558563,2.121407,-2.109958,-4.462114
1.180000,-0.360000,1.043241,0.040000,152707469646.955627,74656787786.749756,-73891941928.890823,-201098987442.938690,1.402254,-1.396490,-3.788822
1.220000,-0.360000,1.049920,0.040000,152633600445.414795,49743727347.735168,-49299691810.769882,-171069357770.969055,0.934691,-0.931345,-3.223046
1.260000,-0.360000,1.058070,0.040000,152479439105.550873,32894989721.008972,-32607042883.286007,-144225500450.816345,0.618133,-0.615963,-2.717292
1.300000,-0.360000,1.067657,0.040000,152272195013.156128,21221773796.117298,-21025245965.051159,-120476808419.157288,0.398720,-0.397239,-2.269853
1.340000,-0.360000,1.078643,0.040000,152030691598.868591,13045888610.727913,-12909475421.133837,-99831438049.628769,0.245021,-0.243993,-1.880882
1.380000,-0.360000,1.090986,0.040000,151768104470.193024,7286266184.314660,-7191239751.519615,-82129149848.052612,0.136740,-0.136024,-1.547361
1.420000,-0.360000,1.104640,0.040000,151493713084.571930,3207187093.129077,-3140973549.759016,-67099846645.710312,0.060051,-0.059552,-1.264200
1.460000,-0.360000,1.119558,0.040000,151214088351.873688,298707195.987627,-252528851.254713,-54432205588.457726,0.005367,-0.005019,-1.025534
1.500000,-0.360000,1.135689,0.040000,150933914659.218964,-1793369606.455328,1825674751.183476,-43815133793.092911,-0.033971,0.034214,-0.825503
1.540000,-0.360000,1.152983,0.040000,150656560667.992889,-3314322983.901989,3337058817.871524,-34958562030.082008,-0.062572,0.062744,-0.658640
1.580000,-0.360000,1.171388,0.040000,150384474626.524261,-4433408293.464561,4449558795.933909,-27602158694.753815,-0.083619,0.083741,-0.520041
1.620000,-0.360000,1.190852,0.040000,150119457206.603729,-5267149850.665206,5278769121.229116,-21517546912.288303,-0.099302,0.099389,-0.405403
1.660000,-0.360000,1.211325,0.040000,149862849370.373352,-5895748493.964916,5904241607.140119,-16507230459.560398,-0.111127,0.111191,-0.311006
1.700000,-0.360000,1.232756,0.040000,149615661688.803253,-6374541343.392217,6380864264.022182,-12402000652.846811,-0.120136,0.120183,-0.233661
1.740000,-0.360000,1.255097,0.040000,149378663571.532471,-6741938325.704067,6746738662.771653,-9057781239.333036,-0.127049,0.127085,-0.170654
1.780000,-0.360000,1.278299,0.040000,149152445197.120789,-7024875738.301450,7028590921.292137,-6352411541.990448,-0.132374,0.132402,-0.119683
1.820000,-0.360000,1.302316,0.040000,148937460934.655914,-7242536253.047427,7245461460.175357,-4182614152.519573,-0.136470,0.136492,-0.078803
1.860000,-0.360000,1.327105,0.040000,148734060255.124054,-7408868447.862432,7411203262.805905,-2461254097.479475,-0.139601,0.139618,-0.046371
1.900000,-0.360000,1.352622,0.040000,148542510196.451202,-7534281159.212119,7536161394.002285,-1114921703.031080,-0.141961,0.141975,-0.021006
1.940000,-0.360000,1.378828,0.040000,148363012115.973083,-7626774618.926982,7628293866.453818,-81832993.042693,-0.143701,0.143713,-0.001542
1.980000,-0.360000,1.405683,0.040000,148195714555.947357,-7692689895.991723,7693914017.104703,689976774.781425,-0.144942,0.144951,0.013000
2.020000,-0.360000,1.433152,0.040000,148040723432.077972,-7737201576.148624,7738178360.221296,1244198077.449563,-0.145779,0.145786,0.023441
2.060000,-0.360000,1.461200,0.040000,147898110340.772064,-7764639100.002215,7765404649.971933,1617563693.275955,-0.146295,0.146300,0.030476
2.100000,-0.360000,1.489794,0.040000,147767919504.312805,-7778694758.277623,7779277670.247254,1840968516.097090,-0.146558,0.146563,0.034685
2.140000,-0.360000,1.517820,0.040000,147650173690.140533,-7782557427.445439,7782981497.620947,1940421528.098197,-0.146630,0.146633,0.036559
2.180000,-0.360000,1.546130,0.040000,147544879320.487335,-7778998157.309888,7779284119.785649,1937855671.408744,-0.146562,0.146565,0.036510
2.220000,-0.360000,1.574577,0.040000,147452030910.804413,-7770424935.675784,7770591636.784034,1851818205.025462,-0.146400,0.146402,0.034889
2.260000,-0.360000,1.602620,0.040000,147371614925.601044,-7758918954.682107,7758985314.923386,1698061241.986260,-0.146183,0.146183,0.031992
2.300000,-0.360000,1.631162,0.040000,147303613110.648438,-7746276169.994158,7746280658.107105,1490050088.232692,-0.145944,0.145944,0.028073
2.340000,-0.360000,1.659249,0.040000,147248005378.633545,-7734262428.942907,7734453762.979814,1239412719.078653,-0.145719,0.145721,0.023351
2.380000,-0.360000,1.687532,0.040000,147204772970.992493,-7724471450.938918,7721519864.374754,956665883.056097,-0.145517,0.145495,0.018024
2.420000,-0.360000,1.716002,0.040000,147173912673.244263,-7719314279.798805,7708564741.111109,733979416.468534,-0.145376,0.145295,0.013829
2.460000,-0.360000,1.744041,0.040000,147155582840.075073,-7776352310.654552,7803248061.927875,600433901.147190,-0.146663,0.146866,0.011313
-2.500000,-0.320000,3.425792,0.040000,-45012563355.738892,278459048038.126831,26420314058764.691406,3779914797013.269531,-145.659779,346.867924,71.215786
-2.460000,-0.320000,3.388793,0.040000,-89216426086.136307,1614106148941.570557,18406781636946.726562,2181093714041.523926,-82.750844,233.632897,41.093070
-2.420000,-0.320000,3.351862,0.040000,-89251661945.545151,-930345800046.456665,5903114868911.479492,1432903841968.134277,-45.635210,83.111151,26.996739
-2.380000,-0.320000,3.315003,0.040000,-89309788329.242447,-41545259333.494362,149533840452.212067,6122966865.813468,-1.393107,2.206934,0.115360
-2.340000,-0.320000,3.278217,0.040000,-89391276927.698242,14732547453.353266,-14730164838.750006,1943504667.020982,0.277556,-0.277538,0.036617
-2.300000,-0.320000,3.241508,0.040000,-89496339690.652573,14880703182.648613,-14878921979.299585,2392112711.851427,0.280351,-0.280338,0.045069
-2.260000,-0.320000,3.204877,0.040000,-89625214190.456192,15058400708.567871,-15056763288.804539,2813657970.228011,0.283700,-0.283687,0.053011
-2.220000,-0.320000,3.168327,0.040000,-89778184612.490692,15264445333.974667,-15262938045.160408,3200394154.839566,0.287582,-0.287571,0.060297
-2.180000,-0.320000,3.131863,0.040000,-89955580434.563034,15496650731.930477,-15495304090.117495,3543154892.964201,0.291958,-0.291948,0.066755
-2.140000,-0.320000,3.095485,0.040000,-90157772940.339462,15752210896.789923,-15751065589.767559,3831038296.328615,0.296774,-0.296766,0.072179
-2.100000,-0.320000,3.059198,0.040000,-90385170718.667542,16027601494.793194,-16026708504.788017,4051030468.106032,0.301964,-0.301958,0.076324
-2.060000,-0.320000,3.023004,0.040000,-90638214009.112808,16318403652.402849,-16317827519.129663,4187572395.706879,0.307445,-0.307441,0.078896
-2.020000,-0.320000,2.986908,0.040000,-90917367610.995026,16619065695.688753,-16618889162.151178,4222062588.691792,0.313112,-0.313111,0.079546
-1.980000,-0.320000,2.950912,0.040000,-91223111972.801773,16922582740.461422,-16922913164.066639,4132287381.987664,0.318833,-0.318836,0.077855
-1.940000,-0.320000,2.915021,0.040000,-91555931946.622452,17220063223.816887,-17221041459.325729,3891772007.072573,0.324442,-0.324449,0.073323
-1.900000,-0.320000,2.879238,0.040000,-91916302510.260925,17500138793.844517,-17501951545.316788,3469048216.627270,0.329723,-0.329737,0.065359
-1.860000,-0.320000,2.843567,0.040000,-92304670507.522186,17748156372.253319,-17751053407.909687,2826839317.351192,0.334402,-0.334424,0.053259
-1.820000,-0.320000,2.808013,0.040000,-92721431106.512009,17945066660.718315,-17949384825.903343,1921172375.154545,0.338120,-0.338152,0.036196
-1.780000,-0.320000,2.772581,0.040000,-93166897187.128998,18065889291.789772,-18072085991.303158,700442393.577021,0.340407,-0.340454,0.013197
-1.740000,-0.320000,2.737274,0.040000,-93641259187.472565,18077587866.902580,-18086287667.724773,-895521972.992768,0.340641,-0.340707,-0.016872
-1.700000,-0.320000,2.702097,0.040000,-94144531989.125977,17936124038.485409,-17948183316.429585,-2936301465.082221,0.337995,-0.338086,-0.055322
-1.660000,-0.320000,2.667057,0.040000,-94676484100.236160,17582373613.320648,-17598969743.059799,-5501483878.149944,0.331356,-0.331481,-0.103651
-1.620000,-0.320000,2.632159,0.040000,-95236542564.672180,16936474409.933582,-16959227779.458605,-8680759411.730246,0.319222,-0.319393,-0.163551
-1.580000,-0.320000,2.597407,0.040000,-95823664503.879044,15890032610.105003,-15921171314.596693,-12573093348.222342,0.299553,-0.299788,-0.236884
-1.540000,-0.320000,2.562808,0.040000,-96436162757.041824,14295447416.396217,-14338024626.708576,-17284295200.430023,0.269575,-0.269896,-0.325646
-1.500000,-0.320000,2.528369,0.040000,-97071468460.387680,11951453375.933226,-12009622721.004393,-22921881710.917892,0.225501,-0.225939,-0.431862
-1.460000,-0.320000,2.494096,0.040000,-97725807349.243637,8583920122.182434,-8663256380.116730,-29585414706.790359,0.162174,-0.162772,-0.557406
-1.420000,-0.320000,2.459996,0.040000,-98393759002.304535,3821233779.576477,-3929034752.349795,-37349133525.032417,0.072604,-0.073416,-0.703679
-1.380000,-0.320000,2.426075,0.040000,-99067659674.118729,-2835282008.427513,2689895839.757235,-46230570155.989204,-0.052597,0.051501,-0.871011
-1.340000,-0.320000,2.392343,0.040000,-99736801626.142487,-12043009367.647411,11849551710.984510,-56129934784.569450,-0.225804,0.224346,-1.057521
-1.300000,-0.320000,2.358807,0.040000,-100386378528.644882,-24648685220.512379,24396266622.764854,-66695950673.294289,-0.462969,0.461067,-1.256590
-1.260000,-0.320000,2.325475,0.040000,-100996124759.829407,-41750788477.358238,41423878688.437820,-76974469610.270187,-0.784761,0.782298,-1.450244
-1.220000,-0.320000,2.292356,0.040000,-101538520571.485870,-65103167672.795456,64628347780.794601,-84370736042.773315,-1.223898,1.220319,-1.589594
-1.180000,-0.320000,2.259461,0.040000,-101975746986.823288,-99752692196.762375,98639700518.684418,-81535068769.386658,-1.873108,1.864720,-1.536168
-1.140000,-0.320000,2.226797,0.040000,-102250292429.211609,-168654013971.769745,163925644253.322235,-48210949460.218742,-3.150814,3.115180,-0.908322
-1.100000,-0.320000,2.194377,0.040000,-102241667528.304962,-382174118123.064026,355061990548.822815,58873915180.372543,-7.047139,6.842816,1.109219
-1.060000,-0.320000,2.162210,0.040000,-101557095675.974152,-1213924995596.423340,1189642423658.399658,91542753472.434372,-22.733801,22.550802,1.724719
-1.020000,-0.320000,2.130309,0.040000,-98622318201.440018,-3399092857498.347168,3741367430484.444336,-1937979886138.914551,-65.975475,68.554936,-36.512665
-0.980000,-0.320000,2.098686,0.040000,-88678764685.674515,-5071705227736.957031,6925680305304.250000,-4544642064019.533203,-106.032856,120.004842,-85.623691
-0.940000,-0.320000,2.067352,0.040000,-69285982741.471985,-1838342237890.141113,2140902292301.957520,-40345410242.519371,-36.345556,38.625718,-0.760131
-0.900000,-0.320000,2.036323,0.040000,-41026079323.797424,-185770176549.344299,-7412539837261.426758,4111534706640.320312,39.446952,-96.709578,77.463697
-0.860000,-0.320000,2.005611,0.040000,-31739686135.448940,699966461084.793823,-3886600250807.332520,1246597032392.708252,31.199182,-55.214393,23.486611
-0.820000,-0.320000,1.975231,0.040000,-25924960339.386402,-509911816499.288879,553399829213.229492,-147424796558.259155,-9.852836,10.180572,-2.777569
-0.780000,-0.320000,1.945200,0.040000,-19458244995.058998,-495736967826.842712,495618305342.511108,507278776458.460083,-9.339301,9.338407,9.557426
-0.740000,-0.320000,1.915533,0.040000,-12218709156.509859,-245355674058.035217,244497066554.135345,717904915394.014526,-4.617790,4.611319,13.525745
-0.700000,-0.320000,1.886248,0.040000,-4589120814.402228,27882850390.561878,-29387505130.173191,758424206135.063354,0.533834,-0.545173,14.289152
-0.660000,-0.320000,1.857362,0.040000,2997842680.897300,277493242386.142151,-280989745496.252014,688437315185.988403,5.247896,-5.274247,12.970558
-0.620000,-0.320000,1.828895,0.040000,10146224881.282532,466748173205.184692,-471598673818.835266,537755817310.520386,8.821222,-8.857777,10.131631
-0.580000,-0.320000,1.800867,0.040000,16555161054.865620,573461723290.022339,-578195377467.294067,347384965210.727356,10.831107,-10.866781,6.544934
-0.540000,-0.320000,1.772371,0.040000,22053659422.189606,599648817116.059692,-603189689323.333008,159304677451.972168,11.317745,-11.344430,3.001392
-0.500000,-0.320000,1.744111,0.040000,26598026355.896271,564915399417.003174,-570098535181.081665,4241160917.050931,10.672630,-10.711691,0.079906
-0.460000,-0.320000,1.715978,0.040000,30241336481.092403,510980506919.580566,-538795583320.032959,-102865552689.094986,9.784385,-9.994005,-1.938047
-0.420000,-0.320000,1.687473,0.040000,33093770299.509235,451725037242.492615,-517492181686.272156,-170784563132.219574,8.882489,-9.378125,-3.217680
0.420000,-0.320000,1.136316,0.040000,53377264917.155777,-396836798350.710693,448939882566.600220,-149275181852.316071,-7.771131,8.163792,-2.812431
0.460000,-0.320000,1.117333,0.040000,56381560262.569450,-443043507128.358337,465076511220.516052,-95560352763.551926,-8.471731,8.637777,-1.800412
0.500000,-0.320000,1.099479,0.040000,60073909272.808365,-484732130386.060303,488868474949.018555,-10720596878.571268,-9.156014,9.187186,-0.201982
0.540000,-0.320000,1.082808,0.040000,64539630092.157463,-510805690415.858582,513621517814.129089,112236253136.913910,-9.639791,9.661012,2.114596
0.580000,-0.320000,1.067377,0.040000,69818420496.505341,-488409182893.189209,492166682507.075073,261576948732.893738,-9.223150,9.251468,4.928261
0.620000,-0.320000,1.053240,0.040000,75873032961.112259,-402128920555.031982,405966236367.238037,413004903809.019653,-7.598031,7.626950,7.781252
0.660000,-0.320000,1.040449,0.040000,82565246885.910690,-250668643785.972198,253368215123.698090,533338252703.678223,-4.738001,4.758346,10.048402
0.700000,-0.320000,1.029055,0.040000,89654353877.293350,-52677932831.805077,53576840319.291420,590794993550.177490,-0.997564,1.004338,11.130920
0.740000,-0.320000,1.019105,0.040000,96826428976.191696,160733890073.710480,-160743962162.483948,567111223119.566772,3.028377,-3.028453,10.684704
0.780000,-0.320000,1.010641,0.040000,103742952141.499329,359460931261.558411,-359610527670.070129,442189908204.203796,6.773298,-6.774425,8.331114
0.820000,-0.320000,1.003701,0.040000,110092757447.314346,461749442087.460449,-478924300414.155273,106802549076.020004,8.796702,-8.926136,2.012222
0.860000,-0.320000,0.998317,0.040000,115766745790.065887,93541683474.039963,1173846914381.845947,534215231476.628845,-5.401121,14.952456,10.064925
0.900000,-0.320000,0.994513,0.040000,122213939693.664612,580650618128.199341,2266377065028.720703,1685382306213.413574,-5.152101,26.607962,31.753580
0.940000,-0.320000,0.992309,0.040000,135249291505.918945,1034385783988.074097,-1564873019947.949951,363763469961.671753,22.486834,-26.484709,6.853515
0.980000,-0.320000,0.991714,0.040000,143456986461.973663,1933110675323.254883,-2781725663633.720703,-1480183326249.160400,41.217445,-47.612805,-27.887512
1.020000,-0.320000,0.991714,0.040000,147763195492.618500,1218089077571.983887,-1303596924321.044922,-890604099950.820312,23.432810,-24.077217,-16.779498
1.060000,-0.320000,0.992309,0.040000,149651206715.548798,510148780903.195679,-502432978340.361145,-217100518076.749542,9.567888,-9.509740,-4.090300
1.100000,-0.320000,0.994513,0.040000,150632296114.081177,230198269183.403320,-221897945214.162872,-181832862174.612213,4.290154,-4.227601,-3.425837
1.140000,-0.320000,0.998317,0.040000,151225535592.004608,140412871917.020935,-138634821076.190704,-183773829426.338104,2.635410,-2.622010,-3.462405
1.180000,-0.320000,1.003701,0.040000,151589629702.652802,99801457367.343933,-99185890361.131622,-170032879699.993744,1.876838,-1.872199,-3.203518
1.220000,-0.320000,1.010641,0.040000,151792702172.732208,74276783746.224731,-73929840214.197006,-150058233969.928925,1.397457,-1.394842,-2.827184
1.260000,-0.320000,1.019105,0.040000,151876318831.249054,55724839441.645332,-55476822937.049835,-129157597175.791672,1.048486,-1.046617,-2.433404
1.300000,-0.320000,1.029055,0.040000,151870380973.278259,41688841761.070900,-41501516382.487762,-109453375724.798584,0.784383,-0.782971,-2.062165
1.340000,-0.320000,1.040449,0.040000,151797451966.508942,30966263821.411686,-30824418366.002178,-91698909308.130295,0.582621,-0.581552,-1.727661
1.380000,-0.320000,1.053240,0.040000,151674759647.847931,22736916119.614094,-22629980302.462574,-76088636706.526093,0.427772,-0.426966,-1.433554
1.420000,-0.320000,1.067377,0.040000,151515524612.868408,16385863763.649942,-16305366291.391790,-62577356919.355354,0.308264,-0.307658,-1.178994
1.460000,-0.320000,1.082808,0.040000,151329948981.452515,11449115122.759184,-11388365865.024075,-51013866844.005569,0.215365,-0.214907,-0.961131
1.500000,-0.320000,1.099479,0.040000,151125961759.618713,7579904051.240621,-7533783139.687793,-41203699512.055473,0.142549,-0.142202,-0.776302
1.540000,-0.320000,1.117333,0.040000,150909776080.108643,4521105994.254385,-4485787352.765177,-32941289931.568554,0.084981,-0.084714,-0.620633
1.580000,-0.320000,1.136316,0.040000,150686302568.119354,2082710709.410710,-2055379232.682349,-26026927241.128334,0.039085,-0.038879,-0.490362
1.620000,-0.320000,1.156371,0.040000,150459454896.191223,124176208.539059,-102780062.950999,-20275345486.758839,0.002219,-0.002057,-0.381999
1.660000,-0.320000,1.177443,0.040000,150232375816.011047,-1458937449.074695,1475886529.231620,-15519516378.013247,-0.027583,0.027711,-0.292397
1.700000,-0.320000,1.199480,0.040000,150007605124.062164,-2744862107.191616,2758442377.437164,-11611683568.090948,-0.051792,0.051894,-0.218771
1.740000,-0.320000,1.222429,0.040000,149787205460.474548,-3792832492.024519,3803826853.383905,-8422856078.907985,-0.071521,0.071604,-0.158691
1.780000,-0.320000,1.246239,0.040000,149572857537.386597,-4648287235.171731,4657267189.655719,-5841495179.319816,-0.087627,0.087695,-0.110057
1.820000,-0.320000,1.270862,0.040000,149365933165.090027,-5346594768.208691,5353981063.411461,-3771834266.970553,-0.100775,0.100830,-0.071064
1.860000,-0.320000,1.296253,0.040000,149167552072.933350,-5915711960.826780,5921817969.201778,-2132089597.312928,-0.111490,0.111536,-0.040170
1.900000,-0.320000,1.322366,0.040000,148978626805.195068,-6378078453.803881,6383140982.913004,-852707787.975592,-0.120195,0.120233,-0.016066
1.940000,-0.320000,1.349159,0.040000,148799898742.096069,-6751967651.683027,6756168722.363024,125272425.134660,-0.127235,0.127266,0.002360
1.980000,-0.320000,1.376594,0.040000,148631967421.392365,-7052453423.559277,7055935617.843866,851708065.839708,-0.132892,0.132918,0.016047
2.020000,-0.320000,1.404632,0.040000,148475314717.129913,-7292105838.114028,7294983106.106759,1368677832.394184,-0.137404,0.137425,0.025787
2.060000,-0.320000,1.433237,0.040000,148330324995.709869,-7481496042.142694,7483861322.195213,1711648537.524890,-0.140969,0.140987,0.032248
2.100000,-0.320000,1.461254,0.040000,148197302061.967743,-7629566546.792815,7631497160.058925,1910492231.103096,-0.143756,0.143771,0.035995
2.140000,-0.320000,1.489564,0.040000,148076483491.142365,-7743906227.746669,7745467725.879945,1990367925.994032,-0.145909,0.145920,0.037500
2.180000,-0.320000,1.518017,0.040000,147968052789.116150,-7830957377.412107,7832206314.200146,1972483276.743609,-0.147547,0.147556,0.037163
2.220000,-0.320000,1.546051,0.040000,147872149713.857330,-7896173695.776796,7897159584.926938,1874751635.175726,-0.148774,0.148781,0.035321
2.260000,-0.320000,1.574603,0.040000,147788879011.979095,-7944141230.464590,7944906745.445385,1712359211.365565,-0.149677,0.149682,0.032262
2.300000,-0.320000,1.602682,0.040000,147718317764.391510,-7978654044.015810,7979216251.963956,1498255519.276841,-0.150326,0.150330,0.028228
2.340000,-0.320000,1.630965,0.040000,147660521452.140594,-8002527145.403133,8002655034.726669,1243571292.912847,-0.150773,0.150774,0.023430
2.380000,-0.320000,1.659442,0.040000,147615528134.585571,-8017677781.704896,8019920759.470978,958127421.743669,-0.151070,0.151087,0.018052
2.420000,-0.320000,1.687473,0.040000,147583349585.863983,-8025290573.530583,8032408019.114549,735065287.841931,-0.151241,0.151295,0.013849
2.460000,-0.320000,1.715978,0.040000,147563814881.689545,-7965910993.476642,7932530689.545990,601170369.326714,-0.149894,0.149642,0.011326
-2.500000,-0.280000,3.410875,0.040000,0.000066,-16862367135522.873047,42698853329638.234375,822944753494.513184,-463.729085,658.438836,15.504756
-2.460000,-0.280000,3.373712,0.040000,-89615033181.498016,-415296683849.323364,22046102096763.632812,468930194949.405090,-130.085504,293.100270,8.834917
-2.420000,-0.280000,3.336615,0.040000,-89650633481.373367,-1653381982488.715088,6980811414708.714844,-395095840300.905273,-61.262233,101.410976,-7.443835
-2.380000,-0.280000,3.299585,0.040000,-89710609149.836182,-94743265935.550018,301396604568.135864,-919923426.647372,-2.953059,4.510446,-0.017332
-2.340000,-0.280000,3.262626,0.040000,-89794742402.695297,15178818555.141438,-15177893863.232323,1821475046.516508,0.285973,-0.285966,0.034318
-2.300000,-0.280000,3.225739,0.040000,-89903164714.307770,15302938997.810337,-15301649256.688965,2242407965.214095,0.288309,-0.288299,0.042248
-2.260000,-0.280000,3.188927,0.040000,-90036073781.529999,15450864471.017805,-15449698610.144575,2638386837.013762,0.291097,-0.291088,0.049709
-2.220000,-0.280000,3.152193,0.040000,-90193706004.691879,15619091197.532202,-15618135953.400522,3002212500.850355,0.294267,-0.294260,0.056563
-2.180000,-0.280000,3.115539,0.040000,-90376330220.153061,15803844602.573885,-15803155176.501778,3325401909.730812,0.297750,-0.297745,0.062652
-2.140000,-0.280000,3.078969,0.040000,-90584241627.624695,16000472251.335506,-16000111498.014164,3597876308.301492,0.301456,-0.301453,0.067786
-2.100000,-0.280000,3.042484,0.040000,-90817754329.933060,16203227188.011679,-16203270966.131290,3807624429.689581,0.305278,-0.305279,0.071738
-2.060000,-0.280000,3.006090,0.040000,-91077192117.761154,16405034969.020620,-16405576004.529333,3940323770.211189,0.309083,-0.309088,0.074238
-2.020000,-0.280000,2.969788,0.040000,-91362877124.731216,16597197497.897482,-16598350254.602339,3978915651.561723,0.312707,-0.312716,0.074965
-1.980000,-0.280000,2.933582,0.040000,-91675115877.195923,16769011499.346064,-16770918604.290630,3903132834.674665,0.315949,-0.315963,0.073537
-1.940000,-0.280000,2.897476,0.040000,-92014182125.898605,16907274008.119131,-16910114812.548553,3688982412.176467,0.318559,-0.318580,0.069503
-1.900000,-0.280000,2.861474,0.040000,-92380295665.014420,16995637282.554615,-16999639338.860582,3308193104.110793,0.320230,-0.320260,0.062328
-1.860000,-0.280000,2.825579,0.040000,-92773596101.963272,17013761828.076553,-17019216341.813314,2727646226.489823,0.320580,-0.320621,0.051390
-1.820000,-0.280000,2.789796,0.040000,-93194110216.742874,16936197622.458115,-16943480302.936352,1908825380.558175,0.319129,-0.319184,0.035963
-1.780000,-0.280000,2.754128,0.040000,-93641711112.480911,16730898681.180573,-16740497878.064127,807344106.738582,0.315274,-0.315346,0.015211
-1.740000,-0.280000,2.718582,0.040000,-94116066769.366013,16357243055.390419,-16369797640.848675,-627352536.818634,0.308251,-0.308346,-0.011820
-1.700000,-0.280000,2.683161,0.040000,-94616574819.067917,15763387438.782553,-15779737551.866455,-2451961268.256212,0.297084,-0.297207,-0.046196
-1.660000,-0.280000,2.647870,0.040000,-95142279287.408554,14882731436.098255,-14903985868.619373,-4728735087.120751,0.280519,-0.280680,-0.089092
-1.620000,-0.280000,2.612715,0.040000,-95691763622.822830,13629201496.948038,-13656825950.939184,-7523983401.177186,0.256938,-0.257146,-0.141756
-1.580000,-0.280000,2.577701,0.040000,-96263012433.368759,11890993229.521475,-11926923369.659849,-10905124403.232695,0.224236,-0.224507,-0.205459
-1.540000,-0.280000,2.542834,0.040000,-96853231883.072250,9522349539.457932,-9569130243.741478,-14935503288.636944,0.179671,-0.180024,-0.281394
-1.500000,-0.280000,2.508121,0.040000,-97458615555.393906,6332949236.366523,-6393892500.467474,-19665845598.173206,0.119661,-0.120120,-0.370516
-1.460000,-0.280000,2.473567,0.040000,-98074038785.920654,2074683220.132323,-2154008206.570838,-25120785519.424606,0.039537,-0.040134,-0.473290
-1.420000,-0.280000,2.439180,0.040000,-98692660363.339279,-3573523855.468552,3470701252.906703,-31278455149.765671,-0.066746,0.065971,-0.589304
-1.380000,-0.280000,2.404966,0.040000,-99305407647.282867,-11019020991.715815,10887314817.197578,-38040711804.854050,-0.206860,0.205868,-0.716709
-1.340000,-0.280000,2.370934,0.040000,-99900325111.860352,-20751981904.288834,20588632366.528748,-45190430066.694069,-0.390056,0.388825,-0.851414
-1.300000,-0.280000,2.337090,0.040000,-100461796477.722931,-33272016872.199089,33087960420.793201,-52322671831.433937,-0.625824,0.624437,-0.985789
-1.260000,-0.280000,2.303444,0.040000,-100969773713.793030,-48762802098.511604,48622672496.910568,-58669237618.189507,-0.917927,0.916871,-1.105362
-1.220000,-0.280000,2.270004,0.040000,-101399583951.577011,-65932130585.421623,66092412145.678947,-62341997506.995033,-1.243106,1.244313,-1.174559
-1.180000,-0.280000,2.236779,0.040000,-101724305616.535965,-78428398464.276367,79776381508.206879,-56447646410.933266,-1.485256,1.495414,-1.063506
-1.140000,-0.280000,2.203780,0.040000,-101925637507.184174,-66474458459.858711,71738303958.468735,-9414364862.139242,-1.282170,1.321839,-0.177372
-1.100000,-0.280000,2.171016,0.040000,-102025635160.867111,-3207237807.306699,33223981720.520916,228004434055.444275,-0.230086,0.456299,4.295736
-1.060000,-0.280000,2.138498,0.040000,-102127758486.773010,-122437533342.755188,400785800927.614929,1265466104933.260498,-3.880067,5.977764,23.842115
-1.020000,-0.280000,2.106238,0.040000,-102061678258.071899,-1771044075787.332031,7476377473698.923828,125652870179.339828,-65.615034,108.611749,2.367373
-0.980000,-0.280000,2.074247,0.040000,-91243541857.749237,-2283548816600.145020,9834232167667.607422,-4138644117968.153320,-85.701159,142.604860,-77.974454
-0.940000,-0.280000,2.042539,0.040000,-45647163787.507271,-6279842835731.887695,-7785608487650.006836,-2438436813321.971680,-38.815502,-67.185000,-45.941563
-0.900000,-0.280000,2.011127,0.040000,-36819735051.240669,383791156157.567505,-7074447029256.396484,2161552100078.522949,45.047598,-95.469933,40.724895
-0.860000,-0.280000,1.980024,0.040000,-29746808882.638702,560304085404.907349,-1067971052361.988770,1553374705320.037109,13.425876,-17.251772,29.266480
-0.820000,-0.280000,1.949246,0.040000,-23823522200.397781,-84288900901.709167,133027246576.381439,336199254568.033813,-1.863529,2.230833,6.334189
-0.780000,-0.280000,1.918807,0.040000,-17819150221.478352,-252085690763.040924,265500360327.215118,409298662548.654602,-4.825263,4.926359,7.711424
-0.740000,-0.280000,1.888726,0.040000,-11435056873.758823,-152089281311.693512,154935639575.387512,509057314044.120239,-2.881538,2.902989,9.590935
-0.700000,-0.280000,1.859019,0.040000,-4813903768.888762,17438085958.040199,-17751881349.651947,538334383558.516113,0.330317,-0.332682,10.142532
-0.660000,-0.280000,1.829703,0.040000,1779235859.796058,187619680054.223206,-189587170676.287048,498625288072.824951,3.545984,-3.560812,9.394389
-0.620000,-0.280000,1.800799,0.040000,8075044413.281895,325513100429.894592,-328402375017.020447,405943824811.717957,6.149186,-6.170960,7.648217
-0.580000,-0.280000,1.772327,0.040000,13854372467.682112,414449585339.069824,-417471477003.745361,283423692751.454590,7.825551,-7.848324,5.339867
-0.540000,-0.280000,1.744307,0.040000,18975122490.560982,451913283807.683289,-454499572941.772583,155498923659.790833,8.528926,-8.548417,2.929690
-0.500000,-0.280000,1.715804,0.040000,23376633638.891445,446700896776.444397,-464025357704.171265,52954973917.352333,8.514025,-8.644586,0.997702
-0.460000,-0.280000,1.687544,0.040000,27066946188.754002,416424744899.062378,-458344561588.771729,-26749086326.579227,8.082622,-8.398539,-0.503968
-0.420000,-0.280000,1.659417,0.040000,30101729346.898979,397538308209.029724,-453716921248.139587,-105506333197.001709,7.807383,-8.230759,-1.987800
0.420000,-0.280000,1.101579,0.040000,55859990179.599205,-353759896580.978455,398122783397.609131,-98291312862.178909,-6.915788,7.250117,-1.851865
0.460000,-0.280000,1.081988,0.040000,59032179240.746666,-368200839857.783936,401234314635.522522,-36382136023.299698,-7.123828,7.372776,-0.685461
0.500000,-0.280000,1.063540,0.040000,62785399582.728783,-391125165640.797668,404798387270.449463,26383232305.071949,-7.446308,7.549353,0.497075
0.540000,-0.280000,1.046297,0.040000,67161653884.152351,-393643098556.267334,395707518869.734436,107540661112.510742,-7.428133,7.443691,2.026128
0.580000,-0.280000,1.030319,0.040000,72164684743.349457,-362036715220.905457,364443106194.787231,209027074096.121307,-6.834583,6.852718,3.938191
0.620000,-0.280000,1.015667,0.040000,77743357172.441620,-289430752410.155396,291725508906.284485,306611747501.603821,-5.466014,5.483307,5.776743
0.660000,-0.280000,1.002397,0.040000,83781662786.580582,-177854082846.418579,179417031442.864410,381169390059.374573,-3.359708,3.371487,7.181452
0.700000,-0.280000,0.990565,0.040000,90102211672.958694,-40101259420.089394,40446568120.188225,415022283828.113586,-0.757483,0.760085,7.819260
0.740000,-0.280000,0.980224,0.040000,96486647369.912552,101127787135.096298,-102586580844.102844,396934491795.659058,1.913551,-1.924545,7.478476
0.780000,-0.280000,0.971422,0.040000,102712338439.657990,208673787400.134277,-214884810225.830933,324043626978.138184,3.966641,-4.013449,6.105170
0.820000,-0.280000,0.964199,0.040000,108614859456.479797,194656122915.266205,-215950358101.286621,227720376277.142242,3.787793,-3.948271,4.290384
0.860000,-0.280000,0.958593,0.040000,114229451918.807999,-28618574825.056026,215381344853.654663,579855077096.771851,-1.594806,3.002294,10.924806
0.900000,-0.280000,0.954631,0.040000,119998274888.722397,141144485715.155121,1850038074270.688477,958554017283.132568,-8.595266,23.601280,18.059713
0.940000,-0.280000,0.952334,0.040000,126052585992.166245,2281569732747.233398,1664433185548.208740,-405316716585.309204,20.682602,9.055391,-7.636402
0.980000,-0.280000,0.951715,0.040000,141659758428.926666,1162538575182.562256,-3300514554145.696289,-1220552485849.503418,33.987113,-50.099395,-22.995916
1.020000,-0.280000,0.951715,0.040000,146658855377.916229,822561805088.598633,-2418476423537.859863,-137418466030.627792,24.517928,-36.545111,-2.589044
1.060000,-0.280000,0.952334,0.040000,148109099712.870972,240480672388.730957,-315421653099.049866,185863151181.099670,4.954375,-5.519147,3.501770
1.100000,-0.280000,0.954631,0.040000,149177162855.462219,147793364451.402435,-154880569446.529358,-94163607297.463272,2.824571,-2.877982,-1.774097
1.140000,-0.280000,0.958593,0.040000,150008588312.377258,131974542457.227463,-132882121674.030472,-146865571247.644684,2.491607,-2.498446,-2.767033
1.180000,-0.280000,0.964199,0.040000,150629303782.596466,112885750608.644287,-112975683105.906265,-144198776254.607849,2.127341,-2.128019,-2.716789
1.220000,-0.280000,0.971422,0.040000,151069508151.209351,92469530732.013336,-92326976091.705765,-129479174845.711258,1.741374,-1.740299,-2.439463
1.260000,-0.280000,0.980224,0.040000,151361573671.978729,74183730874.594803,-74002555976.776962,-112694610908.005981,1.396640,-1.395275,-2.123232
1.300000,-0.280000,0.990565,0.040000,151534683569.049194,58894276968.832176,-58729597292.934029,-96398843551.742661,1.108672,-1.107430,-1.816210
1.340000,-0.280000,1.002397,0.040000,151613316530.945160,46425663439.101326,-46288757890.403984,-81386535668.105576,0.873913,-0.872881,-1.533370
1.380000,-0.280000,1.015667,0.040000,151617461112.283447,36334108724.483696,-36223711795.651817,-67933132759.364563,0.683932,-0.683100,-1.279900
1.420000,-0.280000,1.030319,0.040000,151563303068.468842,28169635301.420853,-28081508840.858700,-56100618190.547142,0.530234,-0.529570,-1.056968
1.460000,-0.280000,1.046297,0.040000,151463939178.590332,21546783971.625263,-21476535385.772167,-45840744262.124496,0.405557,-0.405027,-0.863666
1.500000,-0.280000,1.063540,0.040000,151329993188.516724,16153812133.652773,-16097653297.534409,-37045701558.487068,0.304030,-0.303607,-0.697962
1.540000,-0.280000,1.081988,0.040000,151170115340.742310,11744257135.385054,-11699129230.787107,-29578504910.754166,0.221014,-0.220673,-0.557276
1.580000,-0.280000,1.101579,0.040000,150991377768.283173,8124889705.327490,-8088395899.509196,-23292027284.237122,0.152871,-0.152596,-0.438835
1.620000,-0.280000,1.122255,0.040000,150799584651.641876,5144375556.885794,-5114665429.950758,-18040643932.207455,0.096755,-0.096531,-0.339896
1.660000,-0.280000,1.143956,0.040000,150599515180.739655,2683795663.099249,-2659449997.302766,-13686954565.861708,0.050427,-0.050243,-0.257870
1.700000,-0.280000,1.166626,0.040000,150395114481.452057,649121866.954960,-629053362.480876,-10105279201.636021,0.012116,-0.011965,-0.190389
1.740000,-0.280000,1.190208,0.040000,150189644567.063232,-1034593059.193883,1051219882.396825,-7183095517.420485,-0.019586,0.019712,-0.135334
1.780000,-0.280000,1.214650,0.040000,149985804638.642426,-2427631509.116628,2441462587.796953,-4821207959.334483,-0.045816,0.045920,-0.090834
1.820000,-0.280000,1.239901,0.040000,149785827826.815399,-3578938874.814236,3590477924.157561,-2933173162.797703,-0.067495,0.067581,-0.055263
1.860000,-0.280000,1.265913,0.040000,149591559722.074799,-4528622252.380419,4538266204.801489,-1444323297.180462,-0.085376,0.085449,-0.027212
1.900000,-0.280000,1.292639,0.040000,149404522709.629791,-5309827152.621486,5317892461.578742,-290605084.861063,-0.100086,0.100147,-0.005475
1.940000,-0.280000,1.320036,0.040000,149225969125.456726,-5950151995.911672,5956894072.135192,582630493.766835,-0.112142,0.112193,0.010977
1.980000,-0.280000,1.348063,0.040000,149056925507.237976,-6472720811.229774,6478348372.265365,1221807415.125465,-0.121982,0.122024,0.023020
2.020000,-0.280000,1.376682,0.040000,148898229664.282288,-6897003460.159129,6901689154.290220,1666227955.507467,-0.129970,0.130005,0.031393
2.060000,-0.280000,1.404687,0.040000,148750561884.499481,-7239448924.675227,7243337241.667415,1949078221.615504,-0.136417,0.136447,0.036722
2.100000,-0.280000,1.432999,0.040000,148614471295.841278,-7513979394.898150,7517192611.326734,2098328287.610547,-0.141586,0.141610,0.039534
2.140000,-0.280000,1.461458,0.040000,148490398175.766479,-7732379780.032449,7735022482.204247,2137528108.669361,-0.145697,0.145717,0.040272
2.180000,-0.280000,1.489483,0.040000,148378692834.128662,-7904607706.154376,7906770287.568079,2086505464.099365,-0.148940,0.148956,0.039311
2.220000,-0.280000,1.518044,0.040000,148279631567.061829,-8039042204.741212,8040803693.559274,1961974902.532102,-0.151470,0.151483,0.036965
2.260000,-0.280000,1.546116,0.040000,148193430080.919708,-8142685368.374982,8144117011.684933,1778067916.733613,-0.153421,0.153432,0.033500
2.300000,-0.280000,1.574399,0.040000,148120254710.076813,-8221344428.748025,8222532183.889529,1546795422.375457,-0.154902,0.154911,0.029143
2.340000,-0.280000,1.602882,0.040000,148060231731.501709,-8280021850.646812,8281275022.723877,1278461547.242096,-0.156007,0.156017,0.024087
2.380000,-0.280000,1.630904,0.040000,148013455741.510040,-8322533533.105496,8319677638.177060,982369991.238930,-0.156785,0.156764,0.018508
2.420000,-0.280000,1.659417,0.040000,147980008939.020355,-8351081788.422711,8330911556.752539,751650381.776728,-0.157225,0.157073,0.014162
2.460000,-0.280000,1.687544,0.040000,147960122603.221802,-8435345327.849810,8446476148.587186,613996283.551399,-0.158990,0.159074,0.011568
-2.500000,-0.240000,3.396365,0.040000,-90152502748.052017,20045260591139.199219,12399599921266.667969,249796570783.358490,194.280336,50.231656,4.706312
-2.460000,-0.240000,3.359041,0.040000,-89987968731.714127,4025241183178.477051,19578380314672.386719,82815118248.764191,-57.573896,235.456261,1.560285
-2.420000,-0.240000,3.321780,0.040000,-90025467213.232971,-391389534843.479980,6420870898515.355469,24787826727.700150,-41.453683,86.893253,0.467017
-2.380000,-0.240000,3.284583,0.040000,-90087300486.472534,10441395079.969559,5246322531.247845,1339466150.650275,0.108052,0.010174,0.025236
-2.340000,-0.240000,3.247452,0.040000,-90173926996.974152,15596693069.498453,-15594923442.560139,1718057703.846866,0.293841,-0.293827,0.032369
-2.300000,-0.240000,3.210391,0.040000,-90285509271.187241,15701650056.271824,-15700619903.533838,2117497908.430241,0.295822,-0.295815,0.039895
-2.260000,-0.240000,3.173401,0.040000,-90422215645.853378,15822930537.116140,-15822179587.208632,2495054157.944705,0.298109,-0.298103,0.047008
-2.220000,-0.240000,3.136485,0.040000,-90584239838.409744,15957060698.556097,-15956604732.872320,2844402096.629072,0.300638,-0.300634,0.053590
-2.180000,-0.240000,3.099646,0.040000,-90771796012.697723,16098982909.417341,-16098888440.970522,3158043038.948348,0.303314,-0.303313,0.059499
-2.140000,-0.240000,3.062885,0.040000,-90985110693.365036,16242386842.494886,-16242735402.378180,3427056686.896618,0.306018,-0.306021,0.064568
-2.100000,-0.240000,3.026207,0.040000,-91224412651.200836,16379531765.828556,-16380420385.483938,3640812479.760649,0.308605,-0.308612,0.068595
-2.060000,-0.240000,2.989615,0.040000,-91489920494.562012,16500980430.717440,-16502525226.573662,3786649116.590960,0.310897,-0.310908,0.071343
-2.020000,-0.240000,2.953110,0.040000,-91781827540.652451,16595265328.304554,-16597606153.513094,3849523505.360026,0.312678,-0.312695,0.072527
-1.980000,-0.240000,2.916697,0.040000,-92100283431.264236,16648473138.700342,-16651779457.625463,3811633360.148531,0.313686,-0.313710,0.071813
-1.940000,-0.240000,2.880380,0.040000,-92445371826.240265,16643726162.373777,-16648204519.765873,3652023398.447435,0.313603,-0.313637,0.068806
-1.900000,-0.240000,2.844161,0.040000,-92817083342.511307,16560532768.485571,-16566436347.093369,3346193952.968662,0.312043,-0.312088,0.063044
-1.860000,-0.240000,2.808045,0.040000,-93215282696.232819,16373970234.531712,-16381611138.634563,2865744195.276429,0.308538,-0.308596,0.053992
-1.820000,-0.240000,2.772035,0.040000,-93639668736.399567,16053652207.191874,-16063417280.713816,2178102099.840444,0.302515,-0.302589,0.041037
-1.780000,-0.240000,2.736137,0.040000,-94089725712.485077,15562418934.471674,-15574790108.190535,1246422627.701808,0.293275,-0.293368,0.023483
-1.740000,-0.240000,2.700353,0.040000,-94564663673.573959,14854671141.127071,-14870251482.372509,29778403.715674,0.279959,-0.280076,0.000561
-1.700000,-0.240000,2.664690,0.040000,-95063345324.518143,13874248181.734859,-13893794930.025005,-1516171030.249223,0.261509,-0.261657,-0.028566
-1.660000,-0.240000,2.629151,0.040000,-95584195933.567780,12551729161.443289,-12576194972.326874,-3437756951.889340,0.236620,-0.236805,-0.064769
-1.620000,-0.240000,2.593742,0.040000,-96125091960.866501,10801015174.085714,-10831598389.343161,-5780727156.853802,0.203670,-0.203901,-0.108912
-1.580000,-0.240000,2.558469,0.040000,-96683222925.817825,8515037739.573028,-8553241519.332075,-8585948723.600788,0.160644,-0.160932,-0.161764
-1.540000,-0.240000,2.523336,0.040000,-97254919633.596695,5560443069.808411,-5608141428.367963,-11882590250.882214,0.105032,-0.105391,-0.223875
-1.500000,-0.240000,2.488351,0.040000,-97835440245.596603,1771139030.005165,-1830645119.567748,-15677719385.538710,0.033706,-0.034154,-0.295377
-1.460000,-0.240000,2.453519,0.040000,-98418703867.213470,-3059313410.407763,2985185437.212415,-19941051859.155140,-0.057220,0.056662,-0.375701
-1.420000,-0.240000,2.418847,0.040000,-98996959498.825043,-9186244369.191492,9094145005.167240,-24583902890.487019,-0.172554,0.171860,-0.463175
-1.380000,-0.240000,2.384341,0.040000,-99560376778.987289,-16922249031.640257,16808386219.973597,-29433889799.956409,-0.318181,0.317323,-0.554552
-1.340000,-0.240000,2.350010,0.040000,-100096545633.919373,-26639714052.754627,26500677672.668858,-34217588879.135918,-0.501122,0.500074,-0.644679
-1.300000,-0.240000,2.315861,0.040000,-100589883559.574280,-38736697489.523308,38574543184.908562,-38602842886.517006,-0.728905,0.727683,-0.727300
-1.260000,-0.240000,2.281902,0.040000,-101021019838.529404,-53401935852.012184,53252777374.228180,-42488598946.835037,-1.005280,1.004156,-0.800510
-1.220000,-0.240000,2.248141,0.040000,-101366607974.864319,-69336697969.422409,69423100665.578995,-47160363266.508827,-1.306832,1.307483,-0.888529
-1.180000,-0.240000,2.214589,0.040000,-101601982537.785980,-77275704110.205368,78790067958.508072,-59049067802.315300,-1.464479,1.475891,-1.112519
-1.140000,-0.240000,2.181253,0.040000,-101718784020.231979,-28528307863.915787,37561391877.707794,-99053325959.961395,-0.588546,0.656622,-1.866222
-1.100000,-0.240000,2.148146,0.040000,-101815747559.026917,307300066784.934570,-254974366036.366272,-205741511349.669708,5.493957,-5.099619,-3.876289
-1.060000,-0.240000,2.115276,0.040000,-102529688521.294556,1639440612806.795654,-878925439218.990234,4125184282.468951,26.589448,-20.858029,0.077721
-1.020000,-0.240000,2.082657,0.040000,-106969372231.885010,3309684670682.789062,9342853529702.357422,-348253368594.368835,-9.157968,104.510430,-6.561295
-0.980000,-0.240000,2.050298,0.040000,-126681982314.587296,15540311925072.496094,22476071607143.253906,-1334779123898.420898,77.913274,208.587007,-25.148012
-0.940000,-0.240000,2.018214,0.040000,-24469658471.760292,-8612080670248.511719,-16969270719428.929688,-774909607850.703491,-17.666345,-175.120651,-14.599746
-0.900000,-0.240000,1.986417,0.040000,-29586574497.361595,-685913105001.522095,-8991408953588.560547,703419810550.528564,41.774907,-114.705450,13.252837
-0.860000,-0.240000,1.954921,0.040000,-26726280921.371605,-847826570113.622803,403040879848.861633,889385443008.913208,-13.459538,10.107530,16.756537
-0.820000,-0.240000,1.923741,0.040000,-21984802934.131443,-359438150708.760681,345583342183.731445,424714428230.620605,-6.693713,6.589300,8.001866
-0.780000,-0.240000,1.892893,0.040000,-16620700299.332972,-217822254204.313171,220245952063.612946,354054686700.223694,-4.117597,4.135862,6.670596
-0.740000,-0.240000,1.862393,0.040000,-10904098749.713852,-111631303380.550369,113250831310.944839,378082884730.022095,-2.112352,2.124557,7.123301
-0.700000,-0.240000,1.832258,0.040000,-5010129275.731036,10564147191.769306,-10540189868.555351,388759786140.897400,0.198899,-0.198719,7.324460
-0.660000,-0.240000,1.802508,0.040000,866987619.713496,132449783261.108994,-133559855805.359848,363138667448.515076,2.501705,-2.510071,6.841743
-0.620000,-0.240000,1.773161,0.040000,6533837467.125669,235700873179.554047,-237477400778.510010,304198378058.968506,4.450782,-4.464171,5.731274
-0.580000,-0.240000,1.744237,0.040000,11826231277.794825,308811560519.777771,-310788921369.507812,223893438094.857635,5.829365,-5.844267,4.218282
-0.540000,-0.240000,1.715758,0.040000,16627499728.073458,346847323773.938049,-351386686335.492737,139115226300.667480,6.560462,-6.594672,2.621012
-0.500000,-0.240000,1.687747,0.040000,20874366377.245754,358569622476.994568,-381994768710.189819,66762559390.774147,6.888063,-7.064600,1.257845
-0.460000,-0.240000,1.659237,0.040000,24552322766.504154,351951079873.319885,-410010241926.207520,17022822211.640327,6.959123,-7.396670,0.320720
0.460000,-0.240000,1.046977,0.040000,61098312454.459045,-317238586004.839111,362640813225.040588,-3096258974.577561,-6.233580,6.575742,-0.058335
0.500000,-0.240000,1.027902,0.040000,64867487559.543465,-321377634296.694519,339747613561.654236,35810313797.702492,-6.158771,6.297212,0.674687
0.540000,-0.240000,1.010050,0.040000,69147575937.082169,-310533857168.288940,314161897036.700195,92667940340.600006,-5.871144,5.898486,1.745918
0.580000,-0.240000,0.993490,0.040000,73924101901.639984,-278171153914.211182,279757992337.552490,159618259972.266327,-5.249875,5.261834,3.007301
0.620000,-0.240000,0.978285,0.040000,79143314452.475159,-217622136633.485260,219049583816.086212,223483996464.467651,-4.108195,4.118953,4.210568
0.660000,-0.240000,0.964501,0.040000,84708577345.515213,-132814104245.537598,133727801351.118500,270950905913.298096,-2.507459,2.514345,5.104872
0.700000,-0.240000,0.952199,0.040000,90484981267.951950,-32635976116.555832,32717215437.247662,292430634850.945496,-0.615340,0.615952,5.509563
0.740000,-0.240000,0.941437,0.040000,96313481119.426422,68840444771.652710,-69879614509.277908,283877247525.131775,1.302867,-1.310699,5.348412
0.780000,-0.240000,0.932268,0.040000,102033048260.487122,155810700933.792023,-157910379219.566406,253770184933.563049,2.947432,-2.963255,4.781177
0.820000,-0.240000,0.924740,0.040000,107503910900.767349,231982439203.150299,-229348028435.386780,245858257330.131897,4.355793,-4.335940,4.632112
0.860000,-0.240000,0.918893,0.040000,112591247937.240540,393368656006.423523,-264384764771.755188,378600917140.915710,6.682254,-5.710202,7.133061
0.900000,-0.240000,0.914759,0.040000,116899364740.276505,414289866235.190552,2309946191712.978027,367686734570.197693,-7.592395,28.122869,6.927431
0.940000,-0.240000,0.912362,0.040000,118605294488.001328,2768525488861.834961,4422732145123.937500,-69322350366.836609,11.514386,42.680599,-1.306073
0.980000,-0.240000,0.911716,0.040000,149954163847.817719,-4013131287601.733887,-6680480916881.693359,-328529561302.140869,-15.167564,-65.421977,-6.189687
1.020000,-0.240000,0.911716,0.040000,146465019237.866608,-663634979581.536255,-2893662203988.150391,-141456496676.196655,7.603195,-34.411811,-2.665122
1.060000,-0.240000,0.912362,0.040000,146839784191.119324,-270436678926.436676,59356596946.999657,-97670569900.776154,-3.902122,2.311374,-1.840170
1.100000,-0.240000,0.914759,0.040000,147954677966.277496,61967321916.265327,-75640610617.754166,-178566274536.306549,1.244784,-1.347829,-3.364292
1.140000,-0.240000,0.918893,0.040000,149004249154.144714,131788641809.932846,-134085743757.361267,-148068991760.768585,2.495958,-2.513270,-2.789706
1.180000,-0.240000,0.924740,0.040000,149849709367.738861,126593992878.086868,-126893354905.715485,-126557900629.815948,2.386796,-2.389052,-2.384424
1.220000,-0.240000,0.932268,0.040000,150493807608.052612,108100824729.910736,-108006190149.213806,-110110742044.687881,2.036147,-2.035434,-2.074550
1.260000,-0.240000,0.941437,0.040000,150964959622.895935,89501715656.757950,-89345600979.636734,-95531035676.571503,1.685382,-1.684205,-1.799860
1.300000,-0.240000,0.952199,0.040000,151292705333.479675,73246914396.681137,-73097793339.915359,-81991317195.235260,1.379171,-1.378048,-1.544764
1.340000,-0.240000,0.964501,0.040000,151503036252.762848,59511330050.849098,-59381890297.556175,-69483468057.980606,1.120496,-1.119521,-1.309109
1.380000,-0.240000,0.978285,0.040000,151617953503.177002,48016323163.790565,-47907071199.192711,-58139464180.418358,0.904038,-0.903215,-1.095381
1.420000,-0.240000,0.993490,0.040000,151655878546.556946,38424442767.227196,-38333175590.028854,-48041803510.003075,0.723423,-0.722735,-0.905135
1.460000,-0.240000,1.010050,0.040000,151632185471.959839,30425515656.837925,-30349566977.438698,-39198226893.086533,0.572805,-0.572233,-0.738517
1.500000,-0.240000,1.027902,0.040000,151559695816.284271,23753143427.506920,-23689991032.218220,-31558366572.436363,0.447166,-0.446690,-0.594578
1.540000,-0.240000,1.046977,0.040000,151449104851.521912,18184147360.950764,-18131586653.633678,-25035384388.032784,0.342303,-0.341907,-0.471681
1.580000,-0.240000,1.067212,0.040000,151309339110.490265,13533562313.931862,-13489737047.761503,-19523490853.576283,0.254732,-0.254402,-0.367834
1.620000,-0.240000,1.088541,0.040000,151147852847.434021,9648741235.441538,-9612119739.019772,-14910257115.889536,0.181581,-0.181305,-0.280918
1.660000,-0.240000,1.110901,0.040000,150970872762.138306,6403764239.701340,-6373095989.405545,-11084605633.876492,0.120477,-0.120246,-0.208840
1.700000,-0.240000,1.134231,0.040000,150783599897.731049,3694561131.522738,-3668829579.458000,-7941624055.803699,0.069462,-0.069268,-0.149625
1.740000,-0.240000,1.158473,0.040000,150590376508.626617,1434836632.932162,-1413215484.639579,-5385174765.784617,0.026911,-0.026748,-0.101460
1.780000,-0.240000,1.183571,0.040000,150394824422.715240,-447250858.268457,465435175.438966,-3329035288.505868,-0.008529,0.008666,-0.062721
1.820000,-0.240000,1.209471,0.040000,150199960220.803009,-2011759349.501655,2027058541.513394,-1697097327.085214,-0.037989,0.038104,-0.031974
1.860000,-0.240000,1.236123,0.040000,150008291515.399994,-3309095847.428109,3321964480.447679,-422991685.866045,-0.062418,0.062515,-0.007969
1.900000,-0.240000,1.263479,0.040000,149821897750.236938,-4381717072.776428,4392532105.540993,550611628.387834,-0.082615,0.082697,0.010374
1.940000,-0.240000,1.291495,0.040000,149642498249.529388,-5265488446.034635,5274564552.761117,1272863055.295723,-0.099256,0.099325,0.023981
1.980000,-0.240000,1.320128,0.040000,149471509697.760986,-5990774687.929966,5998376265.611575,1785646753.071474,-0.112913,0.112970,0.033643
2.020000,-0.240000,1.348121,0.040000,149310094800.003784,-6583319992.995188,6589670599.516952,2124481933.248169,-0.124069,0.124117,0.040026
2.060000,-0.240000,1.376434,0.040000,149159203534.974243,-7064962762.989466,7070252583.626300,2319374153.358242,-0.133138,0.133178,0.043698
2.100000,-0.240000,1.404900,0.040000,149019608147.409576,-7454219460.928504,7458611269.129842,2395596704.144609,-0.140467,0.140500,0.045134
2.140000,-0.240000,1.432914,0.040000,148891932816.233887,-7766764005.320397,7770397973.926807,2374394075.184524,-0.146351,0.146378,0.044735
2.180000,-0.240000,1.461486,0.040000,148776678767.302338,-8015822875.101713,8018820504.607758,2273606950.403489,-0.151040,0.151062,0.042836
2.220000,-0.240000,1.489550,0.040000,148674245464.237854,-8212501289.436225,8214968582.316000,2108222693.281440,-0.154742,0.154761,0.039720
2.260000,-0.240000,1.517833,0.040000,148584948400.269745,-8366051130.425086,8368079893.857073,1890857798.796746,-0.157633,0.157648,0.035625
2.300000,-0.240000,1.546323,0.040000,148509033920.208344,-8484071069.423923,8485719629.933884,1632179510.066329,-0.159854,0.159867,0.030751
2.340000,-0.240000,1.574336,0.040000,148446691382.039093,-8572403924.791435,8573456679.588721,1341265921.508551,-0.161515,0.161523,0.025270
2.380000,-0.240000,1.602857,0.040000,148398062159.905457,-8635042465.768221,8637773078.047434,1026077138.595724,-0.162705,0.162725,0.019332
2.420000,-0.240000,1.630978,0.040000,148363233533.622528,-8673022735.446218,8673283566.437212,783796894.774037,-0.163406,0.163408,0.014767
2.460000,-0.240000,1.659237,0.040000,148342071715.634552,-8628106589.328888,8576003598.663181,639541706.810184,-0.162264,0.161871,0.012049
-2.500000,-0.200000,3.382264,0.040000,0.000109,-13562637461440.048828,45189313064832.398438,1906387806319.822021,-434.287423,672.633384,35.917451
-2.460000,-0.200000,3.344783,0.040000,-90338034825.972122,935563031172.421021,22927743308796.175781,1129289787674.982178,-117.253008,297.092418,21.276474
-2.420000,-0.200000,3.307362,0.040000,-90375718761.663925,-1518583543433.043457,7222292850959.727539,732625810734.374512,-60.849351,103.833827,13.803095
-2.380000,-0.200000,3.270001,0.040000,-90439183080.307327,-94804986749.389267,303193254986.035889,3595112781.821210,-2.964028,4.534490,0.067734
-2.340000,-0.200000,3.232703,0.040000,-90528159813.029663,15997206079.231087,-15996884920.382837,1631049706.259340,0.301395,-0.301392,0.030730
-2.300000,-0.200000,3.195471,0.040000,-90642734194.836884,16083462495.299429,-16082840205.423134,2014306760.199972,0.303018,-0.303014,0.037951
-2.260000,-0.200000,3.158306,0.040000,-90783043157.555573,16181941353.657415,-16181559021.552580,2379736352.918249,0.304875,-0.304872,0.044836
-2.220000,-0.200000,3.121211,0.040000,-90949243804.806396,16287035177.121868,-16287010263.662994,2722062678.464986,0.306857,-0.306857,0.051285
-2.180000,-0.200000,3.084189,0.040000,-91141503736.426468,16392402846.172228,-16392822177.978912,3035027297.704490,0.308845,-0.308848,0.057182
-2.140000,-0.200000,3.047243,0.040000,-91359990863.237656,16490279505.874760,-16491240956.809341,3311157329.794205,0.310692,-0.310699,0.062384
-2.100000,-0.200000,3.010374,0.040000,-91604860961.539459,16571196470.454298,-16572814583.595230,3541523480.362632,0.312220,-0.312232,0.066724
-2.060000,-0.200000,2.973586,0.040000,-91876242497.539825,16623684853.436512,-16626094525.294231,3715477343.585892,0.313213,-0.313232,0.070002
-2.020000,-0.200000,2.936883,0.040000,-92174218246.097778,16633919778.568449,-16637280439.181000,3820370391.157554,0.313412,-0.313437,0.071978
-1.980000,-0.200000,2.900266,0.040000,-92498803133.522888,16585291843.882923,-16589792407.378506,3841262106.118507,0.312502,-0.312536,0.072372
-1.940000,-0.200000,2.863740,0.040000,-92849917617.588760,16457892132.076738,-16463756884.676695,3760631407.394960,0.310109,-0.310154,0.070852
-1.900000,-0.200000,2.827308,0.040000,-93227355779.348679,16227894404.397739,-16235390009.570196,3558115448.888445,0.305785,-0.305842,0.067037
-1.860000,-0.200000,2.790974,0.040000,-93630747136.566696,15866815031.938448,-15876258840.882624,3210314507.685336,0.298993,-0.299065,0.060484
-1.820000,-0.200000,2.754741,0.040000,-94059510992.673676,15340627997.548920,-15352397838.457075,2690722941.767955,0.289093,-0.289182,0.050695
-1.780000,-0.200000,2.718614,0.040000,-94512801903.016373,14608709401.411766,-14623254954.877104,1969876743.468328,0.275319,-0.275428,0.037114
-1.740000,-0.200000,2.682597,0.040000,-94989444567.223907,13622584246.109409,-13640439952.023252,1015851592.826949,0.256758,-0.256893,0.019139
-1.700000,-0.200000,2.646694,0.040000,-95487856140.273087,12324449597.943838,-12346248704.607990,-204693787.634268,0.232323,-0.232487,-0.003857
-1.660000,-0.200000,2.610911,0.040000,-96005953597.658905,10645455539.309162,-10671944291.742058,-1724649706.038103,0.200716,-0.200916,-0.032493
-1.620000,-0.200000,2.575251,0.040000,-96541043404.103867,8503743430.907703,-8535793378.429868,-3573368089.346007,0.160397,-0.160638,-0.067324
-1.580000,-0.200000,2.539721,0.040000,-97089690349.959900,5802276121.876776,-5840891131.663015,-5771804689.303520,0.109537,-0.109828,-0.108744
-1.540000,-0.200000,2.504326,0.040000,-97647562091.362991,2426550269.357040,-2472863861.681731,-8325133581.711461,0.045979,-0.046328,-0.156850
-1.500000,-0.200000,2.469071,0.040000,-98209245746.394913,-1757662698.930179,1702400638.615301,-11211812696.509487,-0.032803,0.032387,-0.211237
-1.460000,-0.200000,2.433963,0.040000,-98768032939.657730,-6906463793.819634,6840888198.699349,-14367775404.182919,-0.129751,0.129257,-0.270697
-1.420000,-0.200000,2.399008,0.040000,-99315669806.170135,-13200468061.083500,13122962520.226816,-17664237028.345268,-0.248266,0.247682,-0.332804
-1.380000,-0.200000,2.364213,0.040000,-99842067393.589096,-20851760578.227184,20759666210.694695,-20878416635.366764,-0.392339,0.391645,-0.393361
-1.340000,-0.200000,2.329585,0.040000,-100334959908.709808,-30131472484.439007,30017693984.339973,-23662764509.955185,-0.567051,0.566194,-0.445820
-1.300000,-0.200000,2.295132,0.040000,-100779461366.476364,-41478962418.827614,41318951509.134361,-25552072052.373604,-0.780583,0.779377,-0.481416
-1.260000,-0.200000,2.260862,0.040000,-101157327642.095520,-55902919917.122383,55607537134.837402,-26215400177.489132,-1.051574,1.049348,-0.493913
-1.220000,-0.200000,2.226782,0.040000,-101445225197.730011,-76331810065.131424,75584305170.314758,-26968946189.751663,-1.433911,1.428277,-0.508111
-1.180000,-0.200000,2.192903,0.040000,-101609705234.075668,-111567283671.883194,109301711964.777283,-38425207722.104370,-2.089187,2.072113,-0.723953
-1.140000,-0.200000,2.159233,0.040000,-101592495189.094330,-184191820267.535004,177378142512.063416,-117272928165.972122,-3.431769,3.380419,-2.209490
-1.100000,-0.200000,2.125782,0.040000,-101276446732.769958,-313536167153.651672,283427802663.392456,-530525381052.549927,-5.737025,5.510122,-9.995406
-1.060000,-0.200000,2.092562,0.040000,-100483208253.703873,-132633291190.104523,389560445107.363464,-2434724618763.855957,-3.951085,5.887348,-45.871623
-1.020000,-0.200000,2.059582,0.040000,-99626729812.031296,678714320725.110718,8411814579729.512695,-3292629465027.363281,-38.593879,107.102213,-62.035048
-0.980000,-0.200000,2.026855,0.040000,-109167686491.832809,11884862636344.974609,16623053780896.882812,899838833378.631226,62.786000,152.056268,16.953485
-0.940000,-0.200000,1.994394,0.040000,-27753452245.569798,-4504287043119.640625,-14747425656709.773438,3720288677789.994629,23.950649,-169.036020,70.092395
-0.900000,-0.200000,1.962211,0.040000,-28012275863.595432,337052200587.682739,-8040206601559.262695,1246163479927.844482,49.889827,-107.942585,23.478442
-0.860000,-0.200000,1.930320,0.040000,-24979475580.805943,-655621442204.696045,410805889661.470947,-229110000691.307190,-10.968548,9.123561,-4.316565
-0.820000,-0.200000,1.898736,0.040000,-20672109596.931156,-357628102764.012085,345409641517.571228,159725612870.287109,-6.668860,6.576779,3.009323
-0.780000,-0.200000,1.867475,0.040000,-15773235719.531979,-196191471181.701874,194012483436.994812,241304469748.172302,-3.684045,3.667624,4.546316
-0.740000,-0.200000,1.836553,0.040000,-10555581368.967903,-92497127193.590836,92548792633.953354,271603587850.962891,-1.742992,1.743381,5.117169
-0.700000,-0.200000,1.805987,0.040000,-5189315044.233848,4467486573.769699,-4607508685.232507,278873546836.706970,0.084961,-0.086017,5.254139
-0.660000,-0.200000,1.775797,0.040000,170197044.146562,97150872749.777176,-97860145542.472839,262292435776.577698,1.834388,-1.839733,4.941742
-0.620000,-0.200000,1.746001,0.040000,5375370169.341775,177410680682.873840,-178557816566.258667,224158352764.523987,3.349004,-3.357649,4.223273
-0.580000,-0.200000,1.716620,0.040000,10298417893.729389,238066537655.656006,-239423114574.651337,171107011572.724091,4.492979,-4.503203,3.223755
-0.540000,-0.200000,1.687675,0.040000,14842583423.441635,275278571440.216797,-285892051509.000427,119297256468.219315,5.246397,-5.326383,2.247629
-0.500000,-0.200000,1.659190,0.040000,18947356230.032864,284225954350.672119,-313848113523.224121,78641501217.309540,5.522411,-5.745651,1.481651
-0.460000,-0.200000,1.631188,0.040000,22587422661.239635,288778612947.546997,-334443338776.193115,31272507925.995140,5.698861,-6.043001,0.589192
0.460000,-0.200000,1.012337,0.040000,62666325816.459778,-267679226922.549744,303169212712.109985,7030818386.509866,-5.243827,5.511288,0.132465
0.500000,-0.200000,0.992595,0.040000,66433517138.323036,-263302383662.110565,286127470810.146057,43280888510.833084,-5.089781,5.261796,0.815437
0.540000,-0.200000,0.974097,0.040000,70630374414.276642,-254383419781.227661,262614156213.374298,74572269955.588730,-4.839253,4.901281,1.404985
0.580000,-0.200000,0.956915,0.040000,75233446204.970779,-222305373243.629944,223405624348.036560,115129096375.898834,-4.194581,4.202873,2.169099
0.620000,-0.200000,0.941120,0.040000,80190562802.126434,-171136069845.635956,172068923196.926086,157007970999.267242,-3.229575,3.236606,2.958121
0.660000,-0.200000,0.926783,0.040000,85420091570.709671,-104046818744.326370,104627546121.810760,187608497504.122131,-1.963585,1.967961,3.534653
0.700000,-0.200000,0.913973,0.040000,90815211176.626419,-26973407840.208904,27067657727.098248,201624381126.656982,-0.508727,0.509438,3.798720
0.740000,-0.200000,0.902755,0.040000,96253284912.039261,52319023785.710098,-52621916330.568184,197045980785.423920,0.987433,-0.989715,3.712461
0.780000,-0.200000,0.893190,0.040000,101607853198.855072,129130572062.426712,-128938278403.843506,176143095146.782837,2.431808,-2.430359,3.318638
0.820000,-0.200000,0.885329,0.040000,106754956919.507034,216440787323.855743,-212749206915.562836,137503353858.441833,4.057004,-4.029184,2.590643
0.860000,-0.200000,0.879220,0.040000,111550131943.895508,346122158525.115234,-275524269890.672546,17055552810.168146,6.122111,-5.590069,0.321337
0.900000,-0.200000,0.874899,0.040000,115726269765.742767,136908132606.862778,2031019246300.386230,424388278745.023071,-9.674074,26.012077,7.995721
0.940000,-0.200000,0.872393,0.040000,118605079688.108612,1586487502022.793213,3825604084076.418457,1124575976832.355469,-0.699739,41.486516,21.187663
0.980000,-0.200000,0.871716,0.040000,143950732871.843323,-3028169036572.425293,-4987442330177.461914,364737678416.699158,-11.746831,-48.660675,6.871869
1.020000,-0.200000,0.871716,0.040000,143250122844.946686,2350291297.826469,-2542494011405.288086,-867796179156.161743,14.401615,-33.544727,-16.349783
1.060000,-0.200000,0.872393,0.040000,145178817759.736694,169359583739.700714,-236460317585.759460,-746584825658.341919,3.570098,-4.075784,-14.066091
1.100000,-0.200000,0.874899,0.040000,146874294550.315857,222958664927.427063,-216288284337.439941,-255601437799.996124,4.162968,-4.112699,-4.815679
1.140000,-0.200000,0.879220,0.040000,148219833255.821289,181769188571.795776,-180402271062.000732,-137567802285.964874,3.416911,-3.406609,-2.591857
1.180000,-0.200000,0.885329,0.040000,149274045562.488922,147909505089.945435,-147357996398.304077,-104576922099.749359,2.783584,-2.779427,-1.970290
1.220000,-0.200000,0.893190,0.040000,150090872561.440674,122619174957.606461,-122351982930.459396,-89255221856.602783,2.308706,-2.306693,-1.681620
1.260000,-0.200000,0.902755,0.040000,150711082824.664154,102219200668.881821,-102042923380.819366,-77434410169.873932,1.924873,-1.923544,-1.458909
1.300000,-0.200000,0.913973,0.040000,151167461689.394409,85031070904.855911,-84889724289.709763,-66563380244.436485,1.601236,-1.600171,-1.254093
1.340000,-0.200000,0.926783,0.040000,151487571517.657593,70352363817.415649,-70230975306.432037,-56404729128.623688,1.324793,-1.323878,-1.062698
1.380000,-0.200000,0.941120,0.040000,151694931674.156097,57801292455.483803,-57695661042.642715,-47086178029.734871,1.088413,-1.087617,-0.887131
1.420000,-0.200000,0.956915,0.040000,151809648729.315308,47093937001.388733,-47002274074.444008,-38719188461.052574,0.886759,-0.886068,-0.729492
1.460000,-0.200000,0.974097,0.040000,151848875907.903259,37984988865.377663,-37905885390.567894,-31346058818.034348,0.715212,-0.714616,-0.590578
1.500000,-0.200000,0.992595,0.040000,151827206664.748657,30255483474.206593,-30187545264.279034,-24951146233.934765,0.569647,-0.569135,-0.470094
1.540000,-0.200000,1.012337,0.040000,151757025192.834106,23711001250.765823,-23652859175.844524,-19480189070.777374,0.446400,-0.445962,-0.367018
1.580000,-0.200000,1.033250,0.040000,151648817565.971832,18180904270.574493,-18131271575.994911,-14856606983.532471,0.342258,-0.341884,-0.279907
1.620000,-0.200000,1.055265,0.040000,151511444889.238739,13516881536.827625,-13474591151.190678,-10993375567.149858,0.254427,-0.254108,-0.207122
1.660000,-0.200000,1.078316,0.040000,151352380776.994171,9590900255.836025,-9554918616.434336,-7801089026.448614,0.180495,-0.180224,-0.146977
1.700000,-0.200000,1.102336,0.040000,151177916406.408813,6292912608.418422,-6262338039.750972,-5193114504.577255,0.118389,-0.118159,-0.097841
1.740000,-0.200000,1.127264,0.040000,150993336793.246338,3528578370.281017,-3502631345.436358,-3088645269.301073,0.066334,-0.066138,-0.058192
1.780000,-0.200000,1.153041,0.040000,150803071921.309204,1217147378.052107,-1195157434.564922,-1414292898.454504,0.022807,-0.022642,-0.026646
1.820000,-0.200000,1.179611,0.040000,150610826108.298492,-710436176.771440,729044172.381521,-104699856.417411,-0.013490,0.013630,-0.001973
1.860000,-0.200000,1.206923,0.040000,150419688640.048950,-2313193542.966081,2328912426.856164,897477700.258025,-0.043671,0.043789,0.016909
1.900000,-0.200000,1.234926,0.040000,150232228329.762451,-3641545842.669595,3654797905.276815,1641969646.234693,-0.068684,0.068784,0.030936
1.940000,-0.200000,1.263575,0.040000,150050574299.216431,-4738544483.960382,4749691780.626377,2171503999.460664,-0.089340,0.089424,0.040912
1.980000,-0.200000,1.291555,0.040000,149876484952.757568,-5640922131.445596,5650275399.694320,2522517665.010386,-0.106331,0.106402,0.047526
2.020000,-0.200000,1.319869,0.040000,149711406827.739655,-6379988275.347790,6387814592.953225,2725892360.128344,-0.120247,0.120306,0.051357
2.060000,-0.200000,1.348343,0.040000,149556524756.224243,-6982391234.043066,6988920579.293413,2807670488.776241,-0.131589,0.131638,0.052898
2.100000,-0.200000,1.376346,0.040000,149412804558.810394,-7470765669.782230,7476196546.145620,2789725081.185838,-0.140784,0.140825,0.052560
2.140000,-0.200000,1.404929,0.040000,149281029308.049316,-7864281941.942426,7868786211.285600,2690370879.099199,-0.148193,0.148227,0.050688
2.180000,-0.200000,1.432984,0.040000,149161830041.608032,-8179111095.701533,8182838153.166852,2524912103.682829,-0.154120,0.154148,0.047571
2.220000,-0.200000,1.461267,0.040000,149055711670.178467,-8428817133.324116,8431897610.353752,2306127772.030272,-0.158821,0.158844,0.043449
2.260000,-0.200000,1.489765,0.040000,148963074708.613068,-8624687447.968477,8627237863.909561,2044698659.899987,-0.162509,0.162528,0.038523
2.300000,-0.200000,1.517767,0.040000,148884233360.038422,-8776028812.789925,8778176773.160793,1749582381.087283,-0.165358,0.165374,0.032963
2.340000,-0.200000,1.546297,0.040000,148819430438.947784,-8890674301.586405,8892785688.660782,1428352898.635557,-0.167517,0.167533,0.026911
2.380000,-0.200000,1.574413,0.040000,148768850313.896332,-8974413950.298254,8971572338.982550,1087879084.259459,-0.169067,0.169046,0.020496
2.420000,-0.200000,1.602670,0.040000,148732642815.461731,-9029480908.420521,9001632202.191860,827897353.039114,-0.169963,0.169753,0.015598
2.460000,-0.200000,1.631188,0.040000,148711100529.529144,-9136548660.683880,9135886811.825598,674318409.563247,-0.172134,0.172129,0.012705
-2.500000,-0.160000,3.368580,0.040000,-45325244321.328285,-369810810410.935852,26684216968543.867188,-1848606465989.614014,-155.701050,354.012517,-34.828817
-2.460000,-0.160000,3.330945,0.040000,-90660923545.658295,584535106833.292236,22720372873069.652344,-1039667769361.045532,-120.710413,296.341603,-19.587943
-2.420000,-0.160000,3.293366,0.040000,-90700438951.583786,-1280532269336.267822,7384387818685.393555,-705297996287.395508,-58.626023,104.626094,-13.288223
-2.380000,-0.160000,3.255845,0.040000,-90765580256.427307,-42570098968.823189,157245685605.977325,-1151125655.447695,-1.450212,2.314434,-0.021688
-2.340000,-0.160000,3.218383,0.040000,-90856800585.586899,16379081526.575245,-16377748230.617496,1557248624.350602,0.308584,-0.308574,0.029339
-2.300000,-0.160000,3.180983,0.040000,-90974227746.319885,16453281754.179680,-16452798677.159172,1928821594.545746,0.309987,-0.309983,0.036340
-2.260000,-0.160000,3.143647,0.040000,-91117980778.469498,16534160801.886513,-16534061547.026051,2287357113.605142,0.311513,-0.311512,0.043095
-2.220000,-0.160000,3.106377,0.040000,-91288188602.884567,16616495043.636532,-16616816966.544056,2628883072.951306,0.313066,-0.313069,0.049530
-2.180000,-0.160000,3.069176,0.040000,-91484982318.061417,16693030968.930595,-16693866855.426872,2948604012.404968,0.314511,-0.314517,0.055553
-2.140000,-0.160000,3.032047,0.040000,-91708483598.502396,16754800183.793039,-16756260575.094477,3240735866.248468,0.315678,-0.315689,0.061057
-2.100000,-0.160000,2.994991,0.040000,-91958790323.266525,16790899103.267580,-16793112505.159466,3498313748.197890,0.316363,-0.316379,0.065910
-2.060000,-0.160000,2.958012,0.040000,-92235959103.151642,16788181034.296410,-16791296972.633461,3712984344.708235,0.316317,-0.316340,0.069955
-2.020000,-0.160000,2.921113,0.040000,-92539984214.001617,16730890009.954374,-16735082568.174822,3874787825.910429,0.315243,-0.315275,0.073003
-1.980000,-0.160000,2.884296,0.040000,-92870772349.786957,16600232819.170877,-16605704503.092241,3971937905.504116,0.312789,-0.312830,0.074834
-1.940000,-0.160000,2.847565,0.040000,-93228112510.227997,16373883896.626026,-16380869760.923388,3990615176.295990,0.308533,-0.308586,0.075186
-1.900000,-0.160000,2.810924,0.040000,-93611640230.396545,16025418679.954529,-16034190588.618082,3914798468.598957,0.301978,-0.302044,0.073757
-1.860000,-0.160000,2.774375,0.040000,-94020795245.479736,15523673340.171604,-15534544122.457483,3726172944.204428,0.292536,-0.292618,0.070203
-1.820000,-0.160000,2.737923,0.040000,-94454771566.458099,14832033077.009533,-14845360165.290308,3404173628.651899,0.279519,-0.279620,0.064137
-1.780000,-0.160000,2.701571,0.040000,-94912458828.797333,13907658582.867235,-13923846443.694269,2926251312.161178,0.262120,-0.262242,0.055132
-1.740000,-0.160000,2.665323,0.040000,-95392373678.391190,12700672589.832996,-12720172830.575823,2268487062.588631,0.239398,-0.239545,0.042740
-1.700000,-0.160000,2.629185,0.040000,-95892579896.858582,11153348366.904163,-11176655733.091768,1406735560.818506,0.210267,-0.210443,0.026504
-1.660000,-0.160000,2.593159,0.040000,-96410595974.178787,9199373844.114603,-9227015293.131149,318550466.389407,0.173478,-0.173686,0.006002
-1.620000,-0.160000,2.557252,0.040000,-96943288962.001038,6763315084.014651,-6795827549.759383,-1013757519.876500,0.127609,-0.127854,-0.019100
-1.580000,-0.160000,2.521469,0.040000,-97486753766.641022,3760480284.817892,-3798370444.040833,-2598449638.690037,0.071064,-0.071349,-0.048956
-1.540000,-0.160000,2.485813,0.040000,-98036177691.713150,97501678.914224,-141178008.074082,-4427418054.136542,0.002084,-0.002413,-0.083415
-1.500000,-0.160000,2.450292,0.040000,-98585691202.792099,-4325887691.683547,4276222569.834321,-6466051141.525713,-0.081222,0.080847,-0.121824
-1.460000,-0.160000,2.414911,0.040000,-99128207811.511383,-9613250725.220108,9557752560.845581,-8638480236.894821,-0.180806,0.180387,-0.162754
-1.420000,-0.160000,2.379676,0.040000,-99655258882.974777,-15865556470.392206,15804885769.167549,-10805535646.237137,-0.298573,0.298116,-0.203583
-1.380000,-0.160000,2.344595,0.040000,-100156832642.645706,-23174635177.778271,23109758243.877430,-12728942528.587107,-0.436257,0.435768,-0.239821
-1.340000,-0.160000,2.309673,0.040000,-100621226695.077927,-31629023120.569584,31558985631.889606,-14002687437.809769,-0.595513,0.594985,-0.263819
-1.300000,-0.160000,2.274918,0.040000,-101034898699.395432,-41399900386.428673,41309774455.560173,-13890009485.189104,-0.779489,0.778810,-0.261696
-1.260000,-0.160000,2.240338,0.040000,-101382149181.423203,-53228802730.532860,53032119686.454208,-10864966814.007946,-1.001750,1.000268,-0.204702
-1.220000,-0.160000,2.205942,0.040000,-101643723023.545914,-70817471458.055679,70088740385.263336,-1234323975.658815,-1.330123,1.324631,-0.023255
-1.180000,-0.160000,2.171737,0.040000,-101789882312.653107,-112128339047.950317,108844055720.310196,24805376489.914669,-2.094000,2.069248,0.467348
-1.140000,-0.160000,2.137734,0.040000,-101746908776.671860,-262028480488.465546,245563881601.369720,91712332164.003052,-4.843708,4.719627,1.727914
-1.100000,-0.160000,2.103942,0.040000,-101237723888.344528,-896065322887.967529,782903676173.391846,225314693502.872070,-16.242781,15.389968,4.245059
-1.060000,-0.160000,2.070371,0.040000,-99031362008.401642,-2974649539391.907227,4247993166577.926270,-2102940508121.050781,-63.241281,72.837494,-39.620618
-1.020000,-0.160000,2.037032,0.040000,-89825054029.387238,-4241115214584.889648,8114999331734.949219,-5386608852626.596680,-101.800936,130.995425,-101.486833
-0.980000,-0.160000,2.003937,0.040000,-63443333836.889717,-2559963307435.691406,175502067301.127380,-223962740004.340210,-34.753803,16.783950,-4.219588
-0.940000,-0.160000,1.971098,0.040000,-38049708314.312508,666657968583.072388,-8306034310770.585938,5044597252669.638672,55.739306,-113.311418,95.043137
-0.900000,-0.160000,1.938528,0.040000,-29130009785.750031,1531827691272.527588,-4299163992888.606934,1948847290393.607666,44.501988,-65.357276,36.717413
-0.860000,-0.160000,1.906241,0.040000,-24335449243.366230,116097655026.874405,-57455588801.824532,-187318815204.607727,1.855892,-1.413952,-3.529195
-0.820000,-0.160000,1.874252,0.040000,-19894245817.576878,-154081587386.690125,160221666903.898407,70777841035.474823,-2.937691,2.983964,1.333496
-0.780000,-0.160000,1.842575,0.040000,-15233185864.432249,-138577264369.856354,139399550653.458466,155707952284.881348,-2.615524,2.621721,2.933628
-0.740000,-0.160000,1.811228,0.040000,-10355007951.103157,-73046327926.879669,73243600825.399857,186523317573.562103,-1.377350,1.378837,3.514207
-0.700000,-0.160000,1.780228,0.040000,-5360797138.925607,1508233808.849104,-1630017699.761988,193808204527.978790,0.029104,-0.030022,3.651459
-0.660000,-0.160000,1.749593,0.040000,-368877742.134763,74615107448.175827,-75100390051.326141,183762208941.282898,1.408535,-1.412192,3.462187
-0.620000,-0.160000,1.719343,0.040000,4504387135.311329,139451706140.488098,-140235170257.445374,159338689214.515015,2.631779,-2.637684,3.002033
-0.580000,-0.160000,1.689498,0.040000,9155711175.376438,190600244558.121826,-191027334636.512146,124675455650.087906,3.593433,-3.596652,2.348958
-0.540000,-0.160000,1.660080,0.040000,13503053010.142076,225230970103.679230,-231628419507.545227,90028796724.989120,4.279642,-4.327854,1.696195
-0.500000,-0.160000,1.631113,0.040000,17490053066.407108,238423316917.427643,-270626557386.686798,70832553027.962067,4.674052,-4.916743,1.334526
0.500000,-0.160000,0.957658,0.040000,67565769558.012978,-228410796560.665131,251223210127.141174,34208019304.195717,-4.432332,4.604251,0.644499
0.540000,-0.160000,0.938472,0.040000,71702070598.097824,-215584751904.212250,219765753533.376740,48586696198.903320,-4.085373,4.116882,0.915402
0.580000,-0.160000,0.920625,0.040000,76183689053.650284,-185326857759.681274,185647453863.529907,75205585892.294296,-3.493478,3.495894,1.416917
0.620000,-0.160000,0.904196,0.040000,80961047676.166992,-141159721250.819702,141808211039.012115,102030326584.086014,-2.663196,2.668084,1.922311
0.660000,-0.160000,0.889264,0.040000,85963283674.472000,-85642388194.308640,86043662017.246613,121411168402.531372,-1.615820,1.618844,2.287457
0.700000,-0.160000,0.875906,0.040000,91101940675.603897,-23247500659.645115,23337610700.662659,130245306239.137817,-0.438506,0.439185,2.453897
0.740000,-0.160000,0.864194,0.040000,96277665480.350494,40615737943.063042,-40803494464.110329,126893952629.028030,0.766285,-0.767700,2.390756
0.780000,-0.160000,0.854197,0.040000,101388815983.711334,99990969961.885544,-100399674128.381088,110120668265.552078,1.886198,-1.889278,2.074737
0.820000,-0.160000,0.845974,0.040000,106341499074.114532,142938396320.278564,-144589366835.121033,72013714473.031570,2.702374,-2.714816,1.356780
0.860000,-0.160000,0.839579,0.040000,111072716226.742920,108783610985.034790,-124393662210.446518,-24137964265.732323,2.137777,-2.255418,-0.454773
0.900000,-0.160000,0.835052,0.040000,115674709525.342148,-225754146146.430817,1009745195700.494385,531549583815.135071,-8.684593,14.592931,10.014702
0.940000,-0.160000,0.832426,0.040000,121095454239.607605,130526864854.505356,1950242474267.009521,1435049875634.293213,-9.301668,24.982829,27.037172
0.980000,-0.160000,0.831717,0.040000,130541156480.871002,1024632947279.111694,-429922823664.062317,134821583040.649002,15.943274,-11.461400,2.540117
1.020000,-0.160000,0.831717,0.040000,139596847776.025024,1359835794630.646973,-2301969460619.388672,-1340962796485.483887,30.945198,-38.045336,-25.264516
1.060000,-0.160000,0.832426,0.040000,143891254715.621582,929737607869.907593,-1203868070746.656494,-645576525610.728149,19.066229,-21.132139,-12.163036
1.100000,-0.160000,0.835052,0.040000,146154258542.801971,393495870995.699402,-366346727030.302673,-59129890122.308296,7.260239,-7.055636,-1.114041
1.140000,-0.160000,0.839579,0.040000,147723695251.641632,217523225368.122498,-213473194736.439972,-69237508928.545212,4.075372,-4.044850,-1.304475
1.180000,-0.160000,0.845974,0.040000,148933563358.341461,160998695580.632477,-160100042117.030945,-71176607753.003830,3.028229,-3.021457,-1.341009
1.220000,-0.160000,0.854197,0.040000,149883317435.757629,132619627336.105240,-132334702482.087555,-66200813255.532516,2.497020,-2.494873,-1.247262
1.260000,-0.160000,0.864194,0.040000,150620205633.041901,111864846859.888977,-111710924093.483688,-58637788593.725304,2.106729,-2.105569,-1.104770
1.300000,-0.160000,0.875906,0.040000,151177825275.017822,94347963312.811859,-94225412539.665527,-50455108692.794472,1.776878,-1.775954,-0.950603
1.340000,-0.160000,0.889264,0.040000,151584291289.965332,79078406374.680099,-78968220127.869095,-42477194022.836357,1.489260,-1.488430,-0.800295
1.380000,-0.160000,0.904196,0.040000,151864062251.398224,65748015278.739792,-65647553322.344116,-35068695215.134277,1.238163,-1.237406,-0.660715
1.420000,-0.160000,0.920625,0.040000,152038483295.742737,54169228476.002144,-54078544793.154724,-28392977542.861607,1.020067,-1.019384,-0.534940
1.460000,-0.160000,0.938472,0.040000,152126095646.453186,44169109384.820404,-44088253482.624924,-22509352854.886253,0.831715,-0.831105,-0.424089
1.500000,-0.160000,0.957658,0.040000,152142914450.856445,35576789144.288727,-35505444945.377403,-17416379984.148445,0.669884,-0.669346,-0.328135
1.540000,-0.160000,0.978105,0.040000,152102701856.664307,28227207959.524841,-28164777400.654415,-13075984496.778736,0.531464,-0.530994,-0.246359
1.580000,-0.160000,0.999734,0.040000,152017230725.350189,21965557828.646736,-21911286817.368610,-9429055650.174290,0.413537,-0.413128,-0.177649
1.620000,-0.160000,1.022472,0.040000,151896532092.815033,16649976831.573912,-16603050642.233624,-6406068783.044314,0.313430,-0.313076,-0.120694
1.660000,-0.160000,1.046245,0.040000,151749122053.777100,12152655730.960508,-12112260625.706770,-3934271204.626227,0.228735,-0.228430,-0.074124
1.700000,-0.160000,1.070985,0.040000,151582206255.071686,8359869298.291343,-8325228988.276731,-1942362610.574828,0.157309,-0.157048,-0.036595
1.740000,-0.160000,1.096626,0.040000,151401861910.717102,5171359254.365768,-5141754491.594905,-363354378.056340,0.097264,-0.097041,-0.006846
1.780000,-0.160000,1.123106,0.040000,151213198300.394470,2499364295.805427,-2474141673.155766,863862957.005408,0.046947,-0.046757,0.016276
1.820000,-0.160000,1.150368,0.040000,151020497286.694977,267488481.875175,-246062556.734402,1793838480.375795,0.004919,-0.004757,0.033797
1.860000,-0.160000,1.178358,0.040000,150827335651.385101,-1590472999.010716,1608621560.454391,2474463177.372487,-0.030068,0.030205,0.046620
1.900000,-0.160000,1.207024,0.040000,150636691123.288177,-3131679451.863668,3147007971.128157,2947236175.537676,-0.059089,0.059205,0.055528
1.940000,-0.160000,1.234990,0.040000,150451033927.281250,-4405321349.441118,4418230370.009759,3247740417.281596,-0.083072,0.083169,0.061189
1.980000,-0.160000,1.263305,0.040000,150272405575.299591,-5453607382.879367,5464446352.855576,3406222333.684990,-0.102810,0.102892,0.064175
2.020000,-0.160000,1.291787,0.040000,150102486477.909576,-6312653514.640393,6321726497.952911,3448206133.369217,-0.118985,0.119054,0.064966
2.060000,-0.160000,1.319777,0.040000,149942653798.870819,-7013273176.678648,7020844345.201453,3395099096.717980,-0.132177,0.132234,0.063966
2.100000,-0.160000,1.348373,0.040000,149794030817.314911,-7581672168.521916,7587970943.397653,3264762249.325895,-0.142879,0.142926,0.061510
2.140000,-0.160000,1.376418,0.040000,149657528909.907135,-8040054225.263977,8045280004.551196,3072033019.073547,-0.151509,0.151548,0.057879
2.180000,-0.160000,1.404701,0.040000,149533883122.522064,-8407144349.483377,8411470800.803675,2829194564.823461,-0.158420,0.158453,0.053304
2.220000,-0.160000,1.433208,0.040000,149423682169.408142,-8698637246.232479,8702216097.988411,2546391623.655454,-0.163908,0.163935,0.047975
2.260000,-0.160000,1.461199,0.040000,149327393577.966583,-8927576815.851042,8930539794.115631,2231995832.276360,-0.168217,0.168240,0.042052
2.300000,-0.160000,1.489738,0.040000,149245384586.553345,-9104653213.474098,9107091727.331253,1892924635.068858,-0.171551,0.171569,0.035664
2.340000,-0.160000,1.517847,0.040000,149177939258.874664,-9238161262.880747,9239866030.471821,1534909370.213716,-0.174062,0.174075,0.028919
2.380000,-0.160000,1.546103,0.040000,149125271386.285919,-9333799250.343819,9336948484.082371,1162906907.038908,-0.175872,0.175896,0.021910
2.420000,-0.160000,1.574630,0.040000,149087520305.745911,-9392716121.710810,9388576873.329151,883032531.777266,-0.176941,0.176910,0.016637
2.460000,-0.160000,1.602621,0.040000,149064571574.279205,-9355539590.372311,9289585733.037987,718194428.822082,-0.175891,0.175394,0.013531
-2.500000,-0.120000,3.355317,0.040000,-45474032120.561142,3464960964283.944336,29169011173993.746094,-2482851636539.775879,-119.171013,365.108194,-46.778364
-2.460000,-0.120000,3.317532,0.040000,-90959711278.191162,3044137978647.858398,19457799391253.261719,-1462370447318.545166,-69.831539,239.411357,-27.551907
-2.420000,-0.120000,3.279799,0.040000,-90999270415.998322,-794753610894.775146,6194493229149.380859,-292307892456.417053,-45.493886,86.187576,-5.507250
-2.380000,-0.120000,3.242120,0.040000,-91065879846.030853,-41049252247.299484,152059569091.319214,1139398538.618442,-1.400841,2.237441,0.021467
-2.340000,-0.120000,3.204498,0.040000,-91159236258.529053,16751900207.487778,-16751955713.613064,1493116858.495711,0.315616,-0.315616,0.028131
-2.300000,-0.120000,3.166934,0.040000,-91279397337.664474,16815761468.649532,-16815555038.676323,1856255860.983643,0.316818,-0.316816,0.034973
-2.260000,-0.120000,3.129431,0.040000,-91426464046.715973,16884648332.428841,-16884762659.036024,2211852048.710485,0.318117,-0.318118,0.041673
-2.220000,-0.120000,3.091990,0.040000,-91600546014.279831,16951473521.736071,-16952047687.956175,2557344269.854558,0.319379,-0.319383,0.048182
-2.180000,-0.120000,3.054614,0.040000,-91801749454.175110,17008104976.746210,-17009247224.455713,2889573436.138754,0.320449,-0.320458,0.054441
-2.140000,-0.120000,3.017305,0.040000,-92030164110.781342,17044618875.832590,-17046450229.484192,3204637281.398858,0.321141,-0.321155,0.060377
-2.100000,-0.120000,2.980066,0.040000,-92285847356.340973,17048985560.788410,-17051645316.576403,3497743631.687228,0.321228,-0.321248,0.065900
-2.060000,-0.120000,2.942899,0.040000,-92568804915.437515,17006745832.865534,-17010394599.862597,3763053729.543114,0.320438,-0.320465,0.070898
-2.020000,-0.120000,2.905808,0.040000,-92878967697.858902,16900639679.817301,-16905462320.959534,3993518820.314248,0.318445,-0.318481,0.075240
-1.980000,-0.120000,2.868795,0.040000,-93216164145.721710,16710184425.416729,-16716392891.572554,4180717518.833251,0.314865,-0.314911,0.078767
-1.940000,-0.120000,2.831863,0.040000,-93580087420.058868,16411204096.933689,-16419039912.742197,4314707020.802220,0.309241,-0.309300,0.081292
-1.900000,-0.120000,2.795016,0.040000,-93970256674.408295,15975316359.525330,-15985052367.126678,4383909297.068795,0.301039,-0.301113,0.082595
-1.860000,-0.120000,2.758256,0.040000,-94385971595.651031,15369390357.893276,-15381331116.147526,4375065045.954827,0.289636,-0.289726,0.082429
-1.820000,-0.120000,2.721588,0.040000,-94826259346.731644,14554999491.901049,-14569479426.529579,4273304697.051737,0.274306,-0.274416,0.080512
-1.780000,-0.120000,2.685015,0.040000,-95289813039.178146,13487909158.198324,-13505287127.550785,4062408836.604126,0.254218,-0.254349,0.076538
-1.740000,-0.120000,2.648541,0.040000,-95774920921.339615,12117663109.083742,-12138311435.975142,3725362115.189994,0.228421,-0.228576,0.070188
-1.700000,-0.120000,2.612170,0.040000,-96279385629.046082,10387366564.994198,-10411651709.079632,3245347384.769109,0.195841,-0.196024,0.061144
-1.660000,-0.120000,2.575907,0.040000,-96800433164.562851,8233814278.542479,-8262065053.686779,2607383041.163201,0.155290,-0.155502,0.049125
-1.620000,-0.120000,2.539756,0.040000,-97334611827.961578,5588184539.884170,-5620641882.410074,1800878780.594067,0.105468,-0.105713,0.033930
-1.580000,-0.120000,2.503722,0.040000,-97877682239.916061,2377627758.499552,-2414366948.707733,823475647.822761,0.045004,-0.045280,0.015515
-1.540000,-0.120000,2.467810,0.040000,-98424501040.777069,-1471754866.653953,1430944501.078531,-313349755.121793,-0.027498,0.027190,-0.005904
-1.500000,-0.120000,2.432026,0.040000,-98968903099.846283,-6029760943.496398,5985567361.067291,-1576278180.693503,-0.113354,0.113021,-0.029698
-1.460000,-0.120000,2.396376,0.040000,-99503590593.946899,-11353404532.539108,11307321199.116240,-2898792184.659495,-0.213644,0.213297,-0.054615
-1.420000,-0.120000,2.360864,0.040000,-100020043089.167969,-17471922749.600655,17426895164.568577,-4164607563.015338,-0.328927,0.328587,-0.078464
-1.380000,-0.120000,2.325499,0.040000,-100508473211.620193,-24358627690.522346,24320579601.752422,-5180483368.207356,-0.458716,0.458429,-0.097603
-1.340000,-0.120000,2.290286,0.040000,-100957874648.413574,-31870048969.164654,31852132252.196857,-5618169511.025786,-0.600349,0.600214,-0.105850
-1.300000,-0.120000,2.255232,0.040000,-101356265119.832748,-39591885798.735962,39627655717.950867,-4841468612.670421,-0.746136,0.746406,-0.091216
-1.260000,-0.120000,2.220346,0.040000,-101691387287.517822,-46402265309.835312,46588659226.164383,-1254787284.570119,-0.875299,0.876704,-0.023641
-1.220000,-0.120000,2.185635,0.040000,-101952614861.221771,-49193527015.290680,49832727639.916275,10443150524.193047,-0.930447,0.935265,0.196755
-1.180000,-0.120000,2.151108,0.040000,-102136221447.619705,-39446546989.292152,41507749039.873695,51469495526.564743,-0.754846,0.770380,0.969715
-1.140000,-0.120000,2.116773,0.040000,-102259497425.615128,2351577576.352607,4607967329.439549,214854187907.024353,0.004969,0.047480,4.047977
-1.100000,-0.120000,2.082641,0.040000,-102390128532.461502,15674378075.856659,150684075604.613586,895177843713.290894,-0.644973,1.898688,16.865670
-1.060000,-0.120000,2.048720,0.040000,-102624922083.546112,-1377582313211.010742,8238879568438.935547,-633620464281.532104,-64.735695,116.444022,-11.937777
-1.020000,-0.120000,2.015023,0.040000,-102022820574.560532,2130562329126.710205,14437862742219.875000,-4345813279427.932129,-53.506591,178.370084,-81.877641
-0.980000,-0.120000,1.981561,0.040000,-38471587861.622139,-7688689964345.451172,-10364213513689.781250,-1834572187814.056641,-42.821226,-93.229641,-34.564404
-0.940000,-0.120000,1.948345,0.040000,-32622238549.049171,-398342250377.276672,-8111903680335.729492,2860544973748.563477,40.596391,-104.731578,53.894326
-0.900000,-0.120000,1.915388,0.040000,-27935071252.531128,163472841302.074463,-768641095860.909180,1945151597670.974121,6.500439,-11.061128,36.647784
-0.860000,-0.120000,1.882704,0.040000,-23678121093.267551,-23409444436.869869,44090952554.987801,307418001872.771057,-0.557943,0.713804,5.791933
-0.820000,-0.120000,1.850308,0.040000,-19394286979.734707,-124946784135.121964,131211632553.802567,120025667158.377884,-2.389480,2.436693,2.261353
-0.780000,-0.120000,1.818214,0.040000,-14920135872.859652,-110425561474.446991,112059260334.527435,111567953421.718658,-2.089716,2.102027,2.102005
-0.740000,-0.120000,1.786440,0.040000,-10272466623.605465,-60073994768.267693,60495353998.992256,122071252963.135315,-1.134210,1.137386,2.299893
-0.700000,-0.120000,1.755002,0.040000,-5529567963.880453,228468229.629302,-262991119.947961,125905811802.351212,0.004500,-0.004760,2.372138
-0.660000,-0.120000,1.723919,0.040000,-787046399.665966,60611690684.137192,-60950809789.343948,119899319618.506927,1.143876,-1.146432,2.258973
-0.620000,-0.120000,1.693210,0.040000,3858995355.313197,115318615228.595459,-115886155352.386032,104940072238.929810,2.175877,-2.180155,1.977132
-0.580000,-0.120000,1.662896,0.040000,8321381258.571385,160039941700.466461,-160210973094.079315,83375885443.754639,3.016212,-3.017501,1.570850
-0.540000,-0.120000,1.632999,0.040000,12528319564.923313,190086124174.260437,-184382893002.360474,63738182976.918968,3.549097,-3.506116,1.200864
-0.500000,-0.120000,1.603543,0.040000,16427236805.341673,207762973153.226959,-209369221353.786591,49794441184.480118,3.923454,-3.935559,0.938156
0.500000,-0.120000,0.923132,0.040000,68321594510.613464,-206269417399.432068,203085431119.364502,14821112000.076324,-3.868239,3.844244,0.279238
0.540000,-0.120000,0.903213,0.040000,72424742327.315598,-189426321631.335754,183675250191.003082,24674270301.084743,-3.536396,3.493054,0.464878
0.580000,-0.120000,0.884655,0.040000,76834551979.032761,-162359321114.117889,162476969649.811371,38803834168.714401,-3.059609,3.060495,0.731087
0.620000,-0.120000,0.867545,0.040000,81503633997.430435,-122623916504.292679,123108728739.077377,54639057064.040024,-2.313046,2.316700,1.029432
0.660000,-0.120000,0.851971,0.040000,86368183315.534332,-74325020964.798401,74620074963.405884,66039413117.806763,-1.401994,1.404218,1.244221
0.700000,-0.120000,0.838019,0.040000,91351210689.416107,-21001373954.505604,21056844427.136089,71253860473.858902,-0.395992,0.396410,1.342464
0.740000,-0.120000,0.825770,0.040000,96367774966.757507,33084703038.551212,-33311651450.707653,69465158803.031647,0.624618,-0.626328,1.308764
0.780000,-0.120000,0.815301,0.040000,101331825760.893997,82442830204.234451,-83153962876.302948,61332391888.377419,1.557290,-1.562649,1.155538
0.820000,-0.120000,0.806682,0.040000,106165269711.733170,117083797288.431305,-119320586338.472382,52884821753.276527,2.218569,-2.235426,0.996381
0.860000,-0.120000,0.799973,0.040000,110814829283.114487,110528366125.894836,-117552543991.792892,82635729227.462891,2.122120,-2.175056,1.556905
0.900000,-0.120000,0.795221,0.040000,115291862601.059921,67937936795.697685,91124539464.228485,483640544277.625916,0.380941,0.817790,9.112068
0.940000,-0.120000,0.792463,0.040000,119712914844.662262,277073722789.211060,1759030279901.493408,791495318720.288574,-6.288184,21.632736,14.912231
0.980000,-0.120000,0.791718,0.040000,124225404815.178421,2100880665807.175049,2124414267498.672119,-314591560350.792358,15.699708,16.143095,-5.927087
1.020000,-0.120000,0.791718,0.040000,141697978979.701752,-160166550814.603577,-3643331965842.867676,-1025502837249.928833,18.480404,-47.144451,-19.321068
1.060000,-0.120000,0.792463,0.040000,144148472743.431824,571836230159.454834,-2150950823599.572266,-215522776130.161072,19.699156,-31.599730,-4.060574
1.100000,-0.120000,0.795221,0.040000,146004116060.250885,197573436125.113281,-234770350396.448517,135418940966.178192,3.932642,-4.212966,2.551371
1.140000,-0.120000,0.799973,0.040000,147560473624.885895,168629085282.233765,-169800367654.390564,-14931912885.967676,3.183690,-3.192517,-0.281326
1.180000,-0.120000,0.806682,0.040000,148847140299.542450,154503195261.668030,-154782031343.101440,-44154957997.158958,2.912506,-2.914607,-0.831905
1.220000,-0.120000,0.815301,0.040000,149886908623.926849,136824884494.922607,-136843100791.578476,-45324782571.204437,2.577963,-2.578100,-0.853945
1.260000,-0.120000,0.825770,0.040000,150707798688.506134,118652437893.713654,-118586558799.220078,-40293863731.049896,2.235108,-2.234612,-0.759160
1.300000,-0.120000,0.838019,0.040000,151338755856.035217,101491653136.941269,-101399592326.785004,-34076174165.641884,1.911641,-1.910947,-0.642015
1.340000,-0.120000,0.851971,0.040000,151807190970.305603,85877012826.987488,-85779125632.408005,-27950356013.759491,1.617419,-1.616682,-0.526601
1.380000,-0.120000,0.867545,0.040000,152138075758.566864,71943900156.719315,-71848265499.944656,-22302285659.182533,1.354924,-1.354204,-0.420188
1.420000,-0.120000,0.884655,0.040000,152353705587.748444,59665944021.933510,-59576165293.068550,-17264988103.101425,1.123634,-1.122957,-0.325282
1.460000,-0.120000,0.903213,0.040000,152473733694.726318,48946422059.817566,-48864151087.869331,-12876099871.266764,0.921714,-0.921094,-0.242593
1.500000,-0.120000,0.923132,0.040000,152515322554.833649,39657120860.583366,-39582990892.898827,-9125661123.605961,0.746744,-0.746185,-0.171933
1.540000,-0.120000,0.944327,0.040000,152493347337.641724,31657686029.427101,-31591736877.357609,-5976670785.985460,0.596076,-0.595579,-0.112604
1.580000,-0.120000,0.966712,0.040000,152420619526.116791,24806513577.530094,-24748428967.832973,-3377092879.696043,0.467041,-0.466603,-0.063626
1.620000,-0.120000,0.990208,0.040000,152308112924.305908,18967176885.059704,-18916434472.191219,-1267864627.675415,0.357066,-0.356683,-0.023887
1.660000,-0.120000,1.014738,0.040000,152165181618.464630,14012130318.291321,-13968101135.042622,411681713.447528,0.263748,-0.263416,0.007756
1.700000,-0.120000,1.040227,0.040000,151999763883.236176,9824636568.624716,-9786651120.616295,1720285676.550775,0.184887,-0.184601,0.032411
1.740000,-0.120000,1.066608,0.040000,151818568896.623474,6299520234.417340,-6266911421.952626,2712618217.609865,0.118502,-0.118257,0.051107
1.780000,-0.120000,1.093815,0.040000,151627245022.138062,3343159647.522708,-3315289432.671004,3438141150.653504,0.062830,-0.062620,0.064777
1.820000,-0.120000,1.121789,0.040000,151430529646.168549,873004382.658669,-849279149.515984,3940656757.200216,0.016314,-0.016135,0.074244
1.860000,-0.120000,1.150474,0.040000,151232381325.182007,-1183181892.634244,1203303700.968662,4258311609.665321,-0.022406,0.022557,0.080229
1.900000,-0.120000,1.178424,0.040000,151036095442.321289,-2888216743.968752,2905222134.706109,4423881206.756391,-0.054512,0.054640,0.083348
1.940000,-0.120000,1.206741,0.040000,150844404797.998535,-4296441391.195839,4310763645.877220,4465212460.528453,-0.081028,0.081136,0.084127
1.980000,-0.120000,1.235232,0.040000,150659566637.255554,-5454651439.223728,5466672966.345743,4405739985.231610,-0.102837,0.102927,0.083007
2.020000,-0.120000,1.263209,0.040000,150483437599.914185,-6402979771.556491,6413036107.027864,4265021073.237306,-0.120693,0.120768,0.080355
2.060000,-0.120000,1.291818,0.040000,150317538004.373322,-7175711064.397290,7184095423.158882,4059255088.521708,-0.135242,0.135305,0.076479
2.100000,-0.120000,1.319853,0.040000,150163106767.403717,-7802017891.102530,7808985882.575396,3801767589.360508,-0.147034,0.147086,0.071628
2.140000,-0.120000,1.348136,0.040000,150021148137.443329,-8306615277.009421,8312389540.339514,3503449390.536860,-0.156534,0.156578,0.066007
2.180000,-0.120000,1.376651,0.040000,149892471288.788116,-8710334896.549099,8715109517.824932,3173147275.337068,-0.164135,0.164171,0.059784
2.220000,-0.120000,1.404630,0.040000,149777723695.723877,-9030622724.851479,9034567447.319853,2818007167.685383,-0.170164,0.170194,0.053093
2.260000,-0.120000,1.433179,0.040000,149677419083.296570,-9281966529.105345,9285232167.679264,2443773058.074231,-0.174896,0.174921,0.046042
2.300000,-0.120000,1.461281,0.040000,149591960639.570038,-9476279789.558064,9479026066.283688,2055046993.472541,-0.178554,0.178575,0.038718
2.340000,-0.120000,1.489537,0.040000,149521660116.983032,-9623506828.126625,9626149810.986347,1655526315.517514,-0.181327,0.181347,0.031191
2.380000,-0.120000,1.518072,0.040000,149466754192.322144,-9730952919.954815,9727986556.555641,1248646193.665469,-0.183320,0.183298,0.023525
2.420000,-0.120000,1.546053,0.040000,149427432222.561401,-9801205856.983141,9768387612.960453,944512789.238114,-0.184475,0.184228,0.017795
2.460000,-0.120000,1.574552,0.040000,149404030210.259949,-9924277445.727245,9918129117.891575,766778308.322076,-0.186944,0.186898,0.014447
-2.500000,-0.080000,3.342480,0.040000,-45609524854.934906,224042974885.241974,27223117303646.421875,-52852024429.126740,-150.915024,357.763188,-0.995763
-2.460000,-0.080000,3.304548,0.040000,-91229967581.927414,1671420379074.852539,18870453354916.121094,28831777882.841732,-84.615714,239.424038,0.543207
-2.420000,-0.080000,3.266665,0.040000,-91271311561.748886,-951649646075.305664,6048405971918.147461,9985038440.265631,-46.737384,85.147722,0.188124
-2.380000,-0.080000,3.228833,0.040000,-91339459163.338699,-40863095483.201843,152193338294.352875,1089831810.117446,-1.399142,2.238153,0.020533
-2.340000,-0.080000,3.191055,0.040000,-91434871327.691788,17111972184.316322,-17110819065.373449,1434356376.469827,0.322393,-0.322384,0.027024
-2.300000,-0.080000,3.153330,0.040000,-91557662593.698212,17173414158.143236,-17173187859.328396,1791161759.632220,0.323556,-0.323554,0.033747
-2.260000,-0.080000,3.115663,0.040000,-91707931546.103561,17236966618.900154,-17237188969.390713,2146350268.170871,0.324756,-0.324757,0.040438
-2.220000,-0.080000,3.078055,0.040000,-91885779289.073502,17296343393.259010,-17297064280.833088,2498944909.564382,0.325877,-0.325883,0.047082
-2.180000,-0.080000,3.040507,0.040000,-92091300071.634460,17342946578.102837,-17344274757.370522,2847560164.714522,0.326759,-0.326769,0.053650
-2.140000,-0.080000,3.003023,0.040000,-92324567533.871628,17366181234.993919,-17368244744.590534,3190321966.754581,0.327201,-0.327216,0.060108
-2.100000,-0.080000,2.965605,0.040000,-92585617730.944626,17353213049.364571,-17356159043.235207,3524768106.423603,0.326961,-0.326983,0.066409
-2.060000,-0.080000,2.928255,0.040000,-92874428569.409744,17288641322.327667,-17292638534.059540,3847739004.248769,0.325751,-0.325781,0.072494
-2.020000,-0.080000,2.890976,0.040000,-93190895133.333633,17154124113.970913,-17159365311.985735,4155261721.876463,0.323223,-0.323263,0.078288
-1.980000,-0.080000,2.853770,0.040000,-93534800300.711639,16927960904.974886,-16934664935.772701,4442431989.434021,0.318970,-0.319021,0.083698
-1.940000,-0.080000,2.816641,0.040000,-93905779983.103455,16584640504.160027,-16593053520.288010,4703302740.019532,0.312512,-0.312575,0.088613
-1.900000,-0.080000,2.779592,0.040000,-94303282266.407089,16094368822.139273,-16104764097.607676,4930793168.009507,0.303286,-0.303364,0.092899
-1.860000,-0.080000,2.742626,0.040000,-94726519699.391891,15422601666.880589,-15435277122.593584,5116640328.613229,0.290642,-0.290738,0.096400
-1.820000,-0.080000,2.705746,0.040000,-95174413985.995987,14529623210.318762,-14544895381.688084,5251426669.042349,0.273833,-0.273948,0.098940
-1.780000,-0.080000,2.668956,0.040000,-95645532412.412094,13370233129.242855,-13388425773.570393,5324732745.007364,0.252006,-0.252143,0.100321
-1.740000,-0.080000,2.632259,0.040000,-96138015516.629211,11893637172.295160,-11915061990.136202,5325486036.086657,0.224204,-0.224366,0.100335
-1.700000,-0.080000,2.595660,0.040000,-96649495837.450317,10043680361.350084,-10068606338.663607,5242605583.703727,0.189370,-0.189557,0.098774
-1.660000,-0.080000,2.559163,0.040000,-97177008133.579666,7759623531.140079,-7788230118.832105,5066079145.560566,0.146357,-0.146573,0.095448
-1.620000,-0.080000,2.522772,0.040000,-97716892340.069427,4977748322.670365,-5010055913.344425,4788654366.066771,0.093966,-0.094210,0.090221
-1.580000,-0.080000,2.486492,0.040000,-98264691865.102158,1634192255.578968,-1669960793.575599,4408373926.197763,0.030991,-0.031261,0.083056
-1.540000,-0.080000,2.450328,0.040000,-98815051812.846542,-2330416787.075741,2291835085.021672,3932221942.031884,-0.043688,0.043398,0.074085
-1.500000,-0.080000,2.414285,0.040000,-99361624621.090057,-6963683719.819158,6923563762.231650,3381129954.270515,-0.130973,0.130671,0.063702
-1.460000,-0.080000,2.378368,0.040000,-99896994880.043365,-12290113806.513842,12250714553.318016,2796380013.401451,-0.231330,0.231033,0.052685
-1.420000,-0.080000,2.342584,0.040000,-100412641727.396667,-18292718462.761189,18257985639.501751,2246619576.460497,-0.344449,0.344187,0.042328
-1.380000,-0.080000,2.306938,0.040000,-100898968996.267136,-24879058910.834869,24856434064.113907,1831927394.047987,-0.468608,0.468438,0.034515
-1.340000,-0.080000,2.271437,0.040000,-101345460055.079819,-31802059865.575329,31808366126.470074,1672285661.071684,-0.599205,0.599252,0.031507
-1.300000,-0.080000,2.236089,0.040000,-101741094267.962097,-38419464589.224144,38502933768.864258,1838338017.947496,-0.724317,0.724946,0.034635
-1.260000,-0.080000,2.200899,0.040000,-102075452652.405838,-42807954736.954597,43136907494.249519,2088801340.767252,-0.808386,0.810865,0.039354
-1.220000,-0.080000,2.165876,0.040000,-102342116391.583344,-38123973998.754082,39359455219.350464,1002771059.039351,-0.725261,0.734572,0.018893
-1.180000,-0.080000,2.131029,0.040000,-102551025978.454941,3334822493.345419,1589818973.952834,-6554110990.817517,0.034995,0.002118,-0.123483
-1.140000,-0.080000,2.096365,0.040000,-102779314083.558197,202340625901.885895,-179677261833.077301,-34847483791.001785,3.684117,-3.513321,-0.656547
-1.100000,-0.080000,2.061895,0.040000,-103397841845.812515,895430453269.966797,-377791423317.446350,-97464108685.438339,13.944643,-10.043595,-1.836280
-1.060000,-0.080000,2.027628,0.040000,-106137506369.094101,880517367524.812378,10199797412961.017578,-387527602725.921692,-46.038409,129.542230,-7.301245
-1.020000,-0.080000,1.993575,0.040000,-118665383673.122879,10119395587206.966797,21005956428847.390625,-638371636987.566895,14.729376,219.838494,-12.027292
-0.980000,-0.080000,1.959746,0.040000,-13078436421.433002,-14053261081527.830078,-20339463605472.750000,-153475492584.193390,-70.377924,-188.813624,-2.891567
-0.940000,-0.080000,1.926154,0.040000,-26314127093.943424,-2513746458933.916504,-9390788944245.841797,436916573322.614746,19.926064,-109.641403,8.231762
-0.900000,-0.080000,1.892811,0.040000,-26306262755.526402,-1446558094025.851074,798544050789.044922,361735889189.890625,-23.591305,18.707721,6.815314
-0.860000,-0.080000,1.859730,0.040000,-23113246695.316666,-447145070859.248657,413580268977.913757,129652563933.525604,-8.234758,7.981806,2.442729
-0.820000,-0.080000,1.826926,0.040000,-19111105034.182842,-189860883216.333618,186046562734.956879,68537452745.120178,-3.555530,3.526784,1.291285
-0.780000,-0.080000,1.794415,0.040000,-14788817086.887842,-110526013281.874435,110446013421.406143,62309835947.932617,-2.081922,2.081319,1.173953
-0.740000,-0.080000,1.762211,0.040000,-10287463692.446558,-55056856421.177162,55221631702.402115,66404498675.211311,-1.038234,1.039476,1.251099
-0.700000,-0.080000,1.730333,0.040000,-5697902860.700329,-658820677.984176,622437180.158531,68288337746.811218,-0.012207,0.011933,1.286592
-0.660000,-0.080000,1.698798,0.040000,-1107178481.295229,52531280622.357727,-52792587704.435883,65211725284.405136,0.991197,-0.993166,1.228627
-0.620000,-0.080000,1.667627,0.040000,3399896718.148106,101166502693.024597,-101611778050.158524,57279914687.692986,1.908552,-1.911908,1.079187
-0.580000,-0.080000,1.636839,0.040000,7745777978.948613,141881667850.301331,-141934019256.086914,45664875955.168854,2.673429,-2.673823,0.860353
-0.540000,-0.080000,1.606458,0.040000,11865073164.778116,170458252927.813843,-162645038107.869934,35704494966.993851,3.167371,-3.108488,0.672693
-0.500000,-0.080000,1.576506,0.040000,15707872815.962811,190621395460.244934,-173558417878.445374,29565482454.073177,3.494975,-3.366384,0.557031
0.500000,-0.080000,0.889066,0.040000,68738045047.771713,-195261757438.767914,179169928059.636963,-4959760058.122161,-3.587891,3.466619,-0.093445
0.540000,-0.080000,0.868365,0.040000,72837782341.828766,-176391710064.939636,169063010413.069733,-1363238580.168678,-3.281899,3.226668,-0.025684
0.580000,-0.080000,0.849045,0.040000,77223344592.074860,-149969502124.314545,149995062540.200714,4599389327.927040,-2.825657,2.825849,0.086655
0.620000,-0.080000,0.831203,0.040000,81848498080.843491,-112615887632.626572,113013100070.737762,11779727812.157709,-2.123994,2.126987,0.221937
0.660000,-0.080000,0.814935,0.040000,86653237425.329361,-68188181153.591347,68426630629.688492,17011543731.282671,-1.286053,1.287850,0.320507
0.700000,-0.080000,0.800337,0.040000,91566717115.082520,-19656530531.128799,19701469374.366875,19472091413.803024,-0.370594,0.370933,0.366865
0.740000,-0.080000,0.787502,0.040000,96511569189.746078,29757026384.399315,-29912910517.868061,18886322717.090210,0.561521,-0.562695,0.355829
0.780000,-0.080000,0.776518,0.040000,101408965235.796280,77341328486.446899,-77609658321.525116,16077622836.332491,1.458672,-1.460694,0.302912
0.820000,-0.080000,0.767463,0.040000,106182524057.105133,125560965814.760315,-125150245890.650787,15013503629.902657,2.363320,-2.360225,0.282863
0.860000,-0.080000,0.760408,0.040000,110752003955.012329,207760638194.608398,-200366116220.605927,29677624612.706738,3.872536,-3.816809,0.559144
0.900000,-0.080000,0.755408,0.040000,114967778137.096542,457426681390.170959,-306551314361.812012,95608934121.878860,7.765410,-6.628378,1.801328
0.940000,-0.080000,0.752503,0.040000,118249949793.957611,734557144719.803467,2017739359072.780518,138004254164.808868,-1.716976,22.458921,2.600080
0.980000,-0.080000,0.751719,0.040000,118224931866.336807,3456555494901.531250,4493586613771.101562,6136864871.695110,20.187923,39.726191,0.115622
1.020000,-0.080000,0.751719,0.040000,145333871565.023560,-2107492278541.291260,-5087319514480.023438,-138250821675.627716,0.959951,-55.181721,-2.604726
1.060000,-0.080000,0.752503,0.040000,144782936302.131561,18726753470.254971,-2580102398364.659180,-114693896872.802002,14.830163,-34.133284,-2.160900
1.100000,-0.080000,0.755408,0.040000,146139303535.984528,-8435136648.316610,-111067104633.345963,-61698558620.851158,0.516525,-1.417121,-1.162437
1.140000,-0.080000,0.760408,0.040000,147668317359.960602,127479937055.401398,-132556888312.694519,-47514267499.046776,2.430492,-2.468753,-0.895196
1.180000,-0.080000,0.767463,0.040000,149008542274.391541,151486665871.629822,-152501096799.670593,-36333085298.389946,2.859830,-2.867475,-0.684536
1.220000,-0.080000,0.776518,0.040000,150109451130.730804,141198562004.758789,-141377612405.576996,-28729282862.193844,2.661275,-2.662624,-0.541276
1.260000,-0.080000,0.787502,0.040000,150985028873.493866,124281768996.975159,-124256934399.349701,-22703156476.468369,2.341400,-2.341213,-0.427741
1.300000,-0.080000,0.800337,0.040000,151661786043.670380,107031853165.577972,-106953278397.467926,-17497411689.581551,2.016098,-2.015506,-0.329661
1.340000,-0.080000,0.814935,0.040000,152167188398.043549,90970558421.540802,-90877924460.047470,-12912688969.964630,1.713414,-1.712716,-0.243283
1.380000,-0.080000,0.831203,0.040000,152526900976.865448,76474099662.947342,-76380030439.012939,-8911305343.508850,1.440285,-1.439576,-0.167894
1.420000,-0.080000,0.849045,0.040000,152764113164.488525,63599431577.494133,-63509038402.784401,-5481203688.768756,1.197739,-1.197058,-0.103269
1.460000,-0.080000,0.868365,0.040000,152899429273.511780,52291698213.413261,-52207442928.786484,-2600081429.010037,0.984730,-0.984095,-0.048987
1.500000,-0.080000,0.889066,0.040000,152950950755.569336,42447493196.574112,-42370574995.236282,-231088802.298766,0.799301,-0.798721,-0.004354
1.540000,-0.080000,0.911053,0.040000,152934439377.575623,33940837035.776180,-33871709707.321568,1673157018.200983,0.639074,-0.638553,0.031523
1.580000,-0.080000,0.934236,0.040000,152863517568.395691,26637161569.815151,-26575801850.753773,3165435330.655018,0.501513,-0.501050,0.059639
1.620000,-0.080000,0.958528,0.040000,152749882977.884644,20401919922.238850,-20348000999.863003,4299661848.567857,0.384079,-0.383673,0.081008
1.660000,-0.080000,0.983848,0.040000,152603523281.040375,15105999636.525553,-15059012836.799860,5127871552.554852,0.284340,-0.283986,0.096612
1.700000,-0.080000,1.010117,0.040000,152432922476.396881,10628964795.976391,-10588305618.786423,5698318391.815239,0.200026,-0.199720,0.107360
1.740000,-0.080000,1.037264,0.040000,152245253434.389618,6860777996.263630,-6825805634.405586,6054444860.080086,0.129063,-0.128800,0.114069
1.780000,-0.080000,1.065221,0.040000,152046553899.500061,3702472310.053710,-3672549321.207139,6234476501.797780,0.069588,-0.069362,0.117461
1.820000,-0.080000,1.093926,0.040000,151841884840.611755,1066122239.584865,-1040639620.426775,6271436415.795277,0.019942,-0.019750,0.118157
1.860000,-0.080000,1.121859,0.040000,151635471173.705566,-1125629920.895017,1147238140.629689,6193421957.857038,-0.021330,0.021492,0.116688
1.900000,-0.080000,1.150177,0.040000,151430825598.669525,-2940308041.850346,2958557522.350968,6024028780.919397,-0.055500,0.055638,0.113496
1.940000,-0.080000,1.178678,0.040000,151230856713.333862,-4436467529.014816,4451821291.863585,5782842516.203260,-0.083672,0.083788,0.108952
1.980000,-0.080000,1.206640,0.040000,151037962781.721008,-5664604721.222731,5677474038.767392,5485945446.401124,-0.106797,0.106894,0.103358
2.020000,-0.080000,1.235265,0.040000,150854112606.598083,-6668053336.870196,6678800601.977718,5146405401.229177,-0.125691,0.125772,0.096961
2.060000,-0.080000,1.263288,0.040000,150680914937.583771,-7483832737.954391,7492775453.875076,4774728166.851938,-0.141050,0.141118,0.089959
2.100000,-0.080000,1.291570,0.040000,150519677770.296570,-8143427963.533147,8150843269.832979,4379264289.326385,-0.153469,0.153525,0.082508
2.140000,-0.080000,1.320096,0.040000,150371458783.756561,-8673491791.343029,8679621143.455286,3966567438.087101,-0.163448,0.163494,0.074732
2.180000,-0.080000,1.348062,0.040000,150237108039.084778,-9096465846.233450,9101519606.335129,3541705422.457716,-0.171411,0.171449,0.066728
2.220000,-0.080000,1.376622,0.040000,150117303933.390961,-9431121935.545801,9435283648.014412,3108527246.917835,-0.177711,0.177743,0.058566
2.260000,-0.080000,1.404716,0.040000,150012583275.302917,-9693025950.880615,9696454731.499914,2669890749.921184,-0.182642,0.182667,0.050302
2.300000,-0.080000,1.432970,0.040000,149923366224.424103,-9894907302.258118,9897716070.821274,2227855138.959831,-0.186442,0.186463,0.041974
2.340000,-0.080000,1.461515,0.040000,149849976672.946350,-10046653830.905405,10048626240.791132,1783832001.350835,-0.189296,0.189311,0.033608
2.380000,-0.080000,1.489484,0.040000,149792657667.068024,-10155103633.557066,10158575631.357269,1338919009.788665,-0.191348,0.191374,0.025226
2.420000,-0.080000,1.517992,0.040000,149751567910.990540,-10221839734.929646,10216722093.252146,1010747515.635118,-0.192556,0.192518,0.019043
2.460000,-0.080000,1.547009,0.040000,149726587344.876404,-10182987889.583992,10109910347.034723,819447239.504885,-0.191440,0.190890,0.015439
-2.500000,-0.040000,3.330074,0.040000,-45731428631.195068,-243491843351.683014,27002775309430.531250,-61253213399.566673,-155.835651,357.499817,-1.154046
-2.460000,-0.040000,3.291999,0.040000,-91475007318.555984,1665478299098.234863,18922673793933.804688,25343410206.095009,-84.989240,240.146328,0.477485
-2.420000,-0.040000,3.253970,0.040000,-91516273162.902817,-953872655974.779785,6064277028481.784180,8962551951.781895,-46.856408,85.369600,0.168860
-2.380000,-0.040000,3.215989,0.040000,-91585753503.022171,-40659739874.690910,152298354694.665802,1041428499.583548,-1.397054,2.238388,0.019621
-2.340000,-0.040000,3.178057,0.040000,-91683127984.322403,17466771031.120316,-17466912838.340462,1376545751.177623,0.329085,-0.329086,0.025935
-2.300000,-0.040000,3.140177,0.040000,-91808450867.570160,17528236364.960861,-17528124103.036449,1727622883.228285,0.330241,-0.330241,0.032549
-2.260000,-0.040000,3.102350,0.040000,-91961819200.960983,17593139728.625710,-17593386581.972977,2083375804.643967,0.331466,-0.331468,0.039252
-2.220000,-0.040000,3.064578,0.040000,-92143336176.684418,17653660330.700508,-17654417269.462627,2444443870.200906,0.332609,-0.332615,0.046055
-2.180000,-0.040000,3.026864,0.040000,-92353097844.452530,17700785079.270332,-17702171454.025158,2811302584.820507,0.333501,-0.333511,0.052967
-2.140000,-0.040000,2.989209,0.040000,-92591178644.495621,17723519999.377483,-17725668945.726223,3184206285.139293,0.333934,-0.333950,0.059992
-2.100000,-0.040000,2.951615,0.040000,-92857613790.892105,17708555071.640835,-17711618986.935596,3563132336.358429,0.333657,-0.333680,0.067131
-2.060000,-0.040000,2.914086,0.040000,-93152377945.983215,17639923528.908070,-17644076768.325840,3947717083.248022,0.332370,-0.332401,0.074377
-2.020000,-0.040000,2.876623,0.040000,-93475359640.190475,17498620047.076046,-17504061176.239216,4337182742.757722,0.329715,-0.329756,0.081715
-1.980000,-0.040000,2.839230,0.040000,-93826330826.774551,17262180695.569530,-17269134131.544060,4730255894.221172,0.325269,-0.325321,0.089121
-1.940000,-0.040000,2.801908,0.040000,-94204910900.393768,16904235348.703661,-16912951913.249472,5125079726.851238,0.318535,-0.318601,0.096559
-1.900000,-0.040000,2.764661,0.040000,-94610524465.004593,16394051954.290688,-16404807620.529240,5519124500.395930,0.308934,-0.309015,0.103984
-1.860000,-0.040000,2.727493,0.040000,-95042352124.722305,15696104760.459541,-15709196548.426250,5909104144.145898,0.295798,-0.295896,0.111331
-1.820000,-0.040000,2.690405,0.040000,-95499273611.194962,14769717014.031185,-14785454547.204000,6290912025.484120,0.278359,-0.278478,0.118524
-1.780000,-0.040000,2.653402,0.040000,-95979802682.480515,13568854839.942225,-13587545479.715942,6659596242.746226,0.255751,-0.255892,0.125471
-1.740000,-0.040000,2.616488,0.040000,-96482013473.492477,12042185609.064816,-12064110306.488953,7009405015.271725,0.227006,-0.227171,0.132061
-1.700000,-0.040000,2.579665,0.040000,-97003458405.631836,10133564269.374189,-10158940287.690704,7333946524.389023,0.191066,-0.191257,0.138176
-1.660000,-0.040000,2.542939,0.040000,-97541078453.829651,7783178387.135026,-7812103859.007006,7626525235.539444,0.146803,-0.147021,0.143688
-1.620000,-0.040000,2.506312,0.040000,-98091107630.803406,4929670310.643549,-4962044290.689490,7880737343.841420,0.093061,-0.093305,0.148478
-1.580000,-0.040000,2.469790,0.040000,-98648975121.279999,1513664307.773453,-1549074861.175038,8091426393.372828,0.028718,-0.028985,0.152447
-1.540000,-0.040000,2.433378,0.040000,-99209210757.922455,-2516747302.585424,2479174488.482133,8256097753.288239,-0.047205,0.046921,0.155550
-1.500000,-0.040000,2.397080,0.040000,-99765362675.501556,-7197886179.383424,7159682598.898335,8376803991.188470,-0.135396,0.135109,0.157824
-1.460000,-0.040000,2.360902,0.040000,-100309940193.595871,-12539034449.616709,12502615998.990538,8462120828.013561,-0.236037,0.235762,0.159431
-1.420000,-0.040000,2.324848,0.040000,-100834400287.997696,-18507253593.123554,18476118493.854343,8527332234.770815,-0.348511,0.348277,0.160660
-1.380000,-0.040000,2.288926,0.040000,-101329201848.211594,-25009544193.625534,24988213686.114159,8585297228.794637,-0.471074,0.470913,0.161752
-1.340000,-0.040000,2.253142,0.040000,-101783955721.224930,-31878606827.278446,31871533606.768505,8598731681.217434,-0.600571,0.600518,0.162005
-1.300000,-0.040000,2.217501,0.040000,-102187691289.707031,-38885592758.452248,38892450823.141342,8277916359.403904,-0.732666,0.732718,0.155961
-1.260000,-0.040000,2.182012,0.040000,-102529212476.674911,-45857079821.961082,45855934368.300735,6248142080.185087,-0.863967,0.863959,0.117719
-1.220000,-0.040000,2.146681,0.040000,-102797336056.082397,-53127872912.745422,53019832242.007942,-3442343061.925877,-1.000349,0.999535,-0.064856
-1.180000,-0.040000,2.111517,0.040000,-102980240571.157776,-62896066387.479774,62346057226.335472,-46495200877.340080,-1.181890,1.177745,-0.875997
-1.140000,-0.040000,2.076528,0.040000,-103061731815.857010,-81850469315.141251,79830856269.057190,-236689316930.922638,-1.530695,1.515475,-4.459364
-1.100000,-0.040000,2.041723,0.040000,-103010690356.284500,-207083713187.762390,375373221713.720886,-1051978301466.025757,-4.852779,6.121048,-19.819881
-1.060000,-0.040000,2.007111,0.040000,-102773315440.525375,-1629097819829.750000,9265801206049.675781,-418999073187.617981,-73.857123,131.409091,-7.894185
-1.020000,-0.040000,1.972704,0.040000,-102486127720.967377,4395865247408.514160,15060224204473.761719,1792862953278.468506,-27.148552,173.774153,33.778577
-0.980000,-0.040000,1.938511,0.040000,-31596140869.815834,-5597472523969.508789,-14064256809594.402344,1673039747194.833740,5.671886,-153.847238,31.521039
-0.940000,-0.040000,1.904544,0.040000,-29909926221.377701,828167115248.935791,-8485219044663.732422,-608496336345.142944,58.882138,-116.587457,-11.464424
-0.900000,-0.040000,1.870816,0.040000,-26827144163.494541,-275244980993.911560,100072260425.110336,-1103398120901.900879,-4.195668,2.875526,-20.788660
-0.860000,-0.040000,1.837339,0.040000,-23149840639.102509,-221390044810.534851,218300262679.307465,-203496704530.112335,-4.153653,4.130367,-3.833996
-0.820000,-0.040000,1.804129,0.040000,-19113136430.304333,-151468243355.945587,150641355008.758636,-24965670065.903519,-2.849076,2.842844,-0.470368
-0.780000,-0.040000,1.771198,0.040000,-14832532922.307795,-100659807368.556427,100708899058.660095,7199375520.154439,-1.896767,1.897137,0.135640
-0.740000,-0.040000,1.738565,0.040000,-10390757646.325432,-51225265930.884354,51334683093.920929,14191234687.620113,-0.965732,0.966557,0.267371
-0.700000,-0.040000,1.706245,0.040000,-5867123194.283486,-610161847.469152,566807309.600950,15998900971.515799,-0.011251,0.010924,0.301429
-0.660000,-0.040000,1.674257,0.040000,-1342431098.500260,49089781746.483032,-49317504348.701431,15534642130.036272,0.926167,-0.927883,0.292682
-0.620000,-0.040000,1.642620,0.040000,3104064283.484381,94843935947.969070,-95231653258.754318,13384875822.620352,1.789106,-1.792028,0.252179
-0.580000,-0.040000,1.611355,0.040000,7399395214.045416,133663927116.351135,-133658653303.085480,10043797897.502476,2.518276,-2.518236,0.189231
-0.540000,-0.040000,1.580483,0.040000,11481195781.722670,161434073191.265900,-153602942235.801514,7153557731.948318,2.997249,-2.938231,0.134777
-0.500000,-0.040000,1.550030,0.040000,15300785994.020176,181523945569.922638,-164323267063.539612,5369512110.871067,3.322795,-3.193167,0.101165
0.500000,-0.040000,0.855512,0.040000,68835019114.237076,-192088780640.146484,175561492630.481720,-27898655221.967407,-3.525649,3.401095,-0.525627
0.540000,-0.040000,0.833979,0.040000,72962437040.712814,-172850327366.056000,165342437575.868378,-28258253611.138866,-3.214164,3.157583,-0.532402
0.580000,-0.040000,0.813844,0.040000,77370204739.795197,-146410941346.812958,146395156377.021606,-28725154483.061386,-2.758378,2.758259,-0.541199
0.620000,-0.040000,0.795212,0.040000,82011929235.460678,-109584693793.299530,109948442695.341599,-29082507699.807156,-2.066695,2.069436,-0.547931
0.660000,-0.040000,0.778192,0.040000,86828439853.251587,-66249460861.616402,66467087334.428566,-29158279153.725975,-1.249408,1.251048,-0.549359
0.700000,-0.040000,0.762891,0.040000,91750620180.362000,-19164425664.175102,19210299315.203289,-29110059790.863018,-0.361328,0.361674,-0.548450
0.740000,-0.040000,0.749415,0.040000,96703389695.647644,28758894570.849224,-28879905715.490288,-29066622598.763084,0.542518,-0.543430,-0.547632
0.780000,-0.040000,0.737864,0.040000,101610308026.910965,74815678498.981461,-75029494868.821289,-29534121444.460762,1.410779,-1.412391,-0.556440
0.820000,-0.040000,0.728330,0.040000,106397783387.563843,117892689245.850403,-117920936443.855331,-34535660350.737801,2.221326,-2.221539,-0.650672
0.860000,-0.040000,0.720891,0.040000,110996577521.367981,161972548603.900208,-161258586720.160004,-70643059215.520660,3.047621,-3.042241,-1.330956
0.900000,-0.040000,0.715615,0.040000,115335096050.199036,202020226867.340027,-161080810200.010712,-268988165984.400238,3.574781,-3.266253,-5.067893
0.940000,-0.040000,0.712548,0.040000,119314609801.789322,-21505357442.129852,1790910064410.791748,-140841771864.128204,-10.406157,23.740801,-2.653541
0.980000,-0.040000,0.711720,0.040000,122700396587.667053,1490861572879.506104,3051964952710.543945,397519265549.987122,2.411851,31.823943,7.489493
1.020000,-0.040000,0.711720,0.040000,141764408659.939911,-808543213039.656860,-3686651339695.532227,418269960874.635559,10.174199,-44.051027,7.880449
1.060000,-0.040000,0.712548,0.040000,144185992365.766449,581105341984.416138,-2346080204816.247070,-109573746248.859207,20.924306,-34.225566,-2.064433
1.100000,-0.040000,0.715615,0.040000,146269436174.367554,242047442995.498993,-281443180924.953369,-262644595971.908722,4.782986,-5.079881,-4.948376
1.140000,-0.040000,0.720891,0.040000,147999629536.753204,195714759290.363739,-195366992769.193115,-73065656845.702576,3.685414,-3.682793,-1.376599
1.180000,-0.040000,0.728330,0.040000,149416511545.555450,171577821789.163269,-171427659755.315918,-25198029006.867050,3.231777,-3.230645,-0.474745
1.220000,-0.040000,0.737864,0.040000,150558671234.752075,149753120899.252106,-149655065728.588257,-10777425355.765947,2.820881,-2.820142,-0.203053
1.260000,-0.040000,0.749415,0.040000,151461072570.365479,129688805370.360107,-129597437780.273346,-4371030278.277934,2.442896,-2.442207,-0.082353
1.300000,-0.040000,0.762891,0.040000,152155829968.433716,111244479772.024979,-111149479088.172485,-317905887.867284,2.095374,-2.094658,-0.005990
1.340000,-0.040000,0.778192,0.040000,152672451048.255554,94457761164.405350,-94360082370.365952,2706335416.346649,1.779087,-1.778351,0.050989
1.380000,-0.040000,0.795212,0.040000,153037791311.424622,79366678235.309799,-79269659242.619095,5053349334.158073,1.494766,-1.494035,0.095208
1.420000,-0.040000,0.813844,0.040000,153275997666.534058,65958657710.187706,-65865369009.576355,6854151914.393865,1.242172,-1.241469,0.129136
1.460000,-0.040000,0.833979,0.040000,153408528581.312347,54169954152.451042,-54082589445.006432,8189833116.476225,1.020100,-1.019441,0.154301
1.500000,-0.040000,0.855512,0.040000,153454254904.682800,43899019284.053398,-43818900713.672424,9129099056.011065,0.826630,-0.826026,0.171998
1.540000,-0.040000,0.878340,0.040000,153429621069.884827,35021095554.977402,-34948841322.318008,9735105322.373037,0.659409,-0.658865,0.183415
1.580000,-0.040000,0.902364,0.040000,153348843649.380585,27400340292.335335,-27336052175.988377,10065670439.594719,0.515875,-0.515390,0.189643
1.620000,-0.040000,0.927492,0.040000,153224127918.889648,20898829100.903610,-20842256444.184933,10172550878.041925,0.393426,-0.393000,0.191657
1.660000,-0.040000,0.953635,0.040000,153065887997.890961,15382745180.332132,-15333415001.866182,10101005210.452927,0.289541,-0.289169,0.190309
1.700000,-0.040000,0.980714,0.040000,152882960615.056610,10726309080.466732,-10683623449.021669,9889790562.568510,0.201849,-0.201527,0.186329
1.740000,-0.040000,1.008652,0.040000,152682806162.214233,6814006877.832170,-6777312474.137250,9571492187.139919,0.128172,-0.127896,0.180332
1.780000,-0.040000,1.037381,0.040000,152471693429.770538,3541597614.620156,-3510233200.552440,9173058705.262686,0.066548,-0.066312,0.172826
1.820000,-0.040000,1.065294,0.040000,152254866378.133789,816284606.050003,-789611719.012427,8716438416.754337,0.015229,-0.015028,0.164223
1.860000,-0.040000,1.093614,0.040000,152036692645.493866,-1443656169.948454,1466234800.417543,8219242368.899593,-0.027327,0.027497,0.154855
1.900000,-0.040000,1.122126,0.040000,151820794367.771423,-3309575261.512526,3328605991.922668,7695386113.708363,-0.062462,0.062605,0.144986
1.940000,-0.040000,1.150072,0.040000,151610162416.128815,-4843323603.749218,4859298104.320111,7155682028.092336,-0.091341,0.091462,0.134817
1.980000,-0.040000,1.178713,0.040000,151407255441.090607,-6098196132.246237,6111551528.160961,6608368172.806175,-0.114969,0.115070,0.124505
2.020000,-0.040000,1.206723,0.040000,151214085227.040375,-7119875928.039275,7130997384.245448,6059569076.124743,-0.134205,0.134289,0.114166
2.060000,-0.040000,1.235005,0.040000,151032289863.951019,-7947335478.985594,7956560198.969962,5513689734.986225,-0.149785,0.149854,0.103881
2.100000,-0.040000,1.263541,0.040000,150863196176.180145,-8613669800.977629,8621291735.890800,4973747546.346449,-0.162330,0.162387,0.093708
2.140000,-0.040000,1.291493,0.040000,150707872740.213196,-9146848569.594572,9153123374.554783,4441648611.998518,-0.172367,0.172415,0.083683
2.180000,-0.040000,1.320065,0.040000,150567174694.365082,-9570382611.411760,9575532563.455618,3918415493.973060,-0.180341,0.180379,0.073825
2.220000,-0.040000,1.348151,0.040000,150441781406.879059,-9903905353.715645,9908124152.741028,3404373459.595043,-0.186619,0.186651,0.064140
2.260000,-0.040000,1.376404,0.040000,150332227933.066681,-10163674234.190531,10167133168.924717,2899301878.308447,-0.191509,0.191535,0.054625
2.300000,-0.040000,1.404960,0.040000,150238931064.609680,-10363020143.104441,10365898719.332705,2402557603.011385,-0.195262,0.195283,0.045266
2.340000,-0.040000,1.432916,0.040000,150162210704.658447,-10513033415.958782,10515789391.247129,1913188188.245550,-0.198087,0.198108,0.036046
2.380000,-0.040000,1.461432,0.040000,150102308104.017914,-10621907241.247658,10618637017.133778,1430524588.712763,-0.200104,0.200080,0.026952
2.420000,-0.040000,1.490476,0.040000,150059416409.663910,-10692958272.494429,10658602648.508148,1076208431.717483,-0.201267,0.201008,0.020276
2.460000,-0.040000,1.520018,0.040000,150033892361.824554,-10823422425.834970,10819786457.827129,871086142.646894,-0.203899,0.203872,0.016412
-2.500000,0.000000,3.318104,0.040000,-45839463584.185326,-3550035891591.850098,24999597747618.203125,-2552883870265.867676,-188.121388,349.770260,-48.097812
-2.460000,0.000000,3.279890,0.040000,-91690284971.190414,263833995985.015625,18310966302139.343750,-1502950025954.741211,-100.017216,240.001219,-28.316450
-2.420000,0.000000,3.241719,0.040000,-91733291186.114944,-1113342118456.751221,5911255709598.471680,-301515605352.775879,-48.094653,84.252842,-5.680729
-2.380000,0.000000,3.203593,0.040000,-91804181241.201584,-40464245621.963799,152355469185.185577,989305525.359203,-1.394798,2.238037,0.018639
-2.340000,0.000000,3.165513,0.040000,-91903440087.744034,17809728827.539238,-17808451128.031937,1314784262.607974,0.335538,-0.335529,0.024771
-2.300000,0.000000,3.127480,0.040000,-92031194563.357895,17879812215.832436,-17879499360.673557,1659394868.123713,0.336864,-0.336862,0.031264
-2.260000,0.000000,3.089498,0.040000,-92187557088.945389,17953437647.148682,-17953593005.606945,2015057844.941689,0.338254,-0.338255,0.037965
-2.220000,0.000000,3.051567,0.040000,-92372644859.764420,18024039053.070354,-18024715514.380207,2384115463.741042,0.339587,-0.339592,0.044918
-2.180000,0.000000,3.013690,0.040000,-92586570050.075180,18082628337.242405,-18083940352.599876,2768954101.522141,0.340695,-0.340705,0.052169
-2.140000,0.000000,2.975868,0.040000,-92829425434.649139,18118117029.179356,-18120199449.648590,3172011672.587129,0.341368,-0.341383,0.059763
-2.100000,0.000000,2.938104,0.040000,-93101266621.655258,18117058374.938271,-18120066239.467201,3595769089.819428,0.341353,-0.341376,0.067746
-2.060000,0.000000,2.900400,0.040000,-93402090507.469467,18063302046.678246,-18067413034.795803,4042731827.814253,0.340346,-0.340377,0.076167
-2.020000,0.000000,2.862758,0.040000,-93731809401.788376,17937601105.073292,-17943017860.025181,4515399106.418012,0.337985,-0.338026,0.085073
-1.980000,0.000000,2.825181,0.040000,-94090220194.662994,17717178917.696228,-17724130756.587685,5016216817.214976,0.333841,-0.333894,0.094508
-1.940000,0.000000,2.787671,0.040000,-94476967873.490463,17375267349.649212,-17384010846.064159,5547509220.876904,0.327410,-0.327475,0.104518
-1.900000,0.000000,2.750231,0.040000,-94891502652.814941,16880636364.755547,-16891454051.351692,6111383154.363895,0.318102,-0.318184,0.115142
-1.860000,0.000000,2.712865,0.040000,-95333029967.202148,16197148451.515207,-16210344549.132030,6709596964.682443,0.305238,-0.305338,0.126413
-1.820000,0.000000,2.675575,0.040000,-95800452618.849380,15283390562.126614,-15299282176.902443,7343384641.808330,0.288038,-0.288158,0.138354
-1.780000,0.000000,2.638364,0.040000,-96292304497.999512,14092463672.353632,-14111365282.671173,8013223715.728971,0.265617,-0.265759,0.150974
-1.740000,0.000000,2.601236,0.040000,-96806675549.753799,12572048327.743631,-12594246577.721674,8718533545.118408,0.236990,-0.237157,0.164262
-1.700000,0.000000,2.564194,0.040000,-97341128107.010239,10664916799.587233,-10690631612.925116,9457288912.652630,0.201079,-0.201272,0.178181
-1.660000,0.000000,2.527243,0.040000,-97892605429.887985,8310131989.222732,-8339458861.660180,10225532796.618929,0.156733,-0.156954,0.192655
-1.620000,0.000000,2.490386,0.040000,-98457334398.552536,5445262131.976418,-5478089358.786047,11016772533.387810,0.102777,-0.103025,0.207562
-1.580000,0.000000,2.453627,0.040000,-99030725940.858322,2010046021.183059,-2045940268.260420,11821246464.466766,0.038073,-0.038344,0.222719
-1.540000,0.000000,2.416971,0.040000,-99607279106.122467,-2047952888.958889,2009896611.130234,12625055379.247129,-0.038370,0.038083,0.237863
-1.500000,0.000000,2.380423,0.040000,-100180497881.114548,-6765136100.243047,6726470871.779818,13409167621.587448,-0.127241,0.126949,0.252636
-1.460000,0.000000,2.343987,0.040000,-100742833907.851730,-12150840204.384989,12113911162.366329,14148334392.091417,-0.228720,0.228442,0.266563
-1.420000,0.000000,2.307670,0.040000,-101285672636.330765,-18174797193.246868,18142612531.959431,14810006355.813349,-0.342242,0.341999,0.279029
-1.380000,0.000000,2.271476,0.040000,-101799382303.597046,-24760752243.636501,24735663965.524887,15353464642.312128,-0.466365,0.466176,0.289268
-1.340000,0.000000,2.235412,0.040000,-102273433087.730423,-31818843579.017200,31796513377.598488,15729702256.918196,-0.599359,0.599191,0.296357
-1.300000,0.000000,2.199485,0.040000,-102696522964.273224,-39449335422.337502,39394049344.181778,15883576748.675066,-0.742936,0.742519,0.299256
-1.260000,0.000000,2.163700,0.040000,-103056335920.373505,-48866428097.750854,48610703917.376762,15762994252.074049,-0.919226,0.917299,0.296984
-1.220000,0.000000,2.128065,0.040000,-103337246366.817856,-66396960129.552223,65222615999.948692,15350678659.498081,-1.244320,1.235469,0.289216
-1.180000,0.000000,2.092588,0.040000,-103508637711.798706,-121084852103.980850,115888246586.705093,14768205673.236877,-2.251937,2.212774,0.278242
-1.140000,0.000000,2.057277,0.040000,-103471272225.282181,-344007312714.155640,318977136991.377930,14591947714.415909,-6.339822,6.151189,0.274921
-1.100000,0.000000,2.022141,0.040000,-102811660024.789322,-1292337656776.193115,1090309161774.847168,16597804192.713955,-23.206490,21.683957,0.312712
-1.060000,0.000000,1.987188,0.040000,-99652872379.157928,-4210494369272.974121,8159001544803.881836,-4392771581.518291,-101.645804,131.402670,-0.082762
-1.020000,0.000000,1.952429,0.040000,-85842279074.894424,-1830837762023.108643,8727881480167.500000,-61542099666.964737,-73.477335,125.455056,-1.159489
-0.980000,0.000000,1.917875,0.040000,-52886257024.962212,3189535675805.418945,-6840476368906.337891,-68575158885.972771,80.728453,-108.242789,-1.291996
-0.940000,0.000000,1.883536,0.040000,-34534573561.055168,4358881882955.301758,-7495421754587.800781,-25190211062.020405,99.852130,-123.489822,-0.474598
-0.900000,0.000000,1.849425,0.040000,-27894810904.470783,1055012375952.188965,-757101306630.250488,-15696739520.611193,18.193200,-15.948073,-0.295736
-0.860000,0.000000,1.815554,0.040000,-23528841678.982971,65941910053.194519,-37391876890.624413,-25537853226.075912,1.081014,-0.865854,-0.481148
-0.820000,0.000000,1.781937,0.040000,-19355112004.538429,-99899271015.762634,104216945413.863663,-30517255273.759171,-1.906564,1.939103,-0.574963
-0.780000,0.000000,1.748589,0.040000,-15037440111.524776,-91573907111.102249,92410305079.982498,-33270070676.142941,-1.730033,1.736336,-0.626827
-0.740000,0.000000,1.715526,0.040000,-10576330333.026381,-49175313249.783730,49380955932.313950,-34479426907.774124,-0.927654,0.929204,-0.649612
-0.700000,0.000000,1.682763,0.040000,-6037174300.473461,251969997.623888,-285817379.718794,-34203057684.850811,0.004939,-0.005194,-0.644405
-0.660000,0.000000,1.650320,0.040000,-1498422525.744447,49661161284.228729,-49883610391.468956,-32441602701.149048,0.936902,-0.938579,-0.611219
-0.620000,0.000000,1.618215,0.040000,2961199690.785422,95329406825.329880,-95709249346.570358,-29294192068.134037,1.798208,-1.801071,-0.551920
-0.580000,0.000000,1.586469,0.040000,7268867406.885789,134210628897.276886,-134192591082.364410,-24977729645.102039,2.528504,-2.528368,-0.470595
-0.540000,0.000000,1.555104,0.040000,11362113539.465813,162147208999.272003,-154215099268.500793,-21282518071.849476,3.010114,-2.950336,-0.400975
-0.500000,0.000000,1.524143,0.040000,15191926241.386251,182473520722.206299,-165014228714.490234,-18974742686.868149,3.339224,-3.207647,-0.357495
0.500000,0.000000,0.822536,0.040000,68617064256.964500,-198300793699.625366,181191964705.899048,-51491190211.738441,-3.639400,3.510464,-0.970124
0.540000,0.000000,0.800116,0.040000,72804330652.903595,-178387902524.423065,170616521668.188263,-55757683062.266495,-3.317006,3.258439,-1.050507
0.580000,0.000000,0.779106,0.040000,77280939113.412399,-151028383114.400909,151011096662.725647,-62519879086.486511,-2.845365,2.845234,-1.177911
0.620000,0.000000,0.759622,0.040000,81998883250.122498,-112936322184.884995,113311356571.662079,-70222508083.048447,-2.129906,2.132732,-1.323033
0.660000,0.000000,0.741786,0.040000,86896959305.759247,-68134502690.445755,68358670451.142395,-75441085805.383774,-1.284961,1.286650,-1.421354
0.700000,0.000000,0.725718,0.040000,91903713370.805359,-19492783930.048874,19539241966.983852,-77707715221.846939,-0.367518,0.367868,-1.464058
0.740000,0.000000,0.711539,0.040000,96941595961.130005,29838583675.079754,-29979744309.128067,-76824471390.772003,0.562974,-0.564038,-1.447418
0.780000,0.000000,0.699362,0.040000,101932019241.197052,76001965049.998367,-76385985441.465225,-72893802122.138916,1.434092,-1.436986,-1.373361
0.820000,0.000000,0.689295,0.040000,106801827487.952759,111167384427.774734,-112364486422.686676,-66317595701.265388,2.101224,-2.110246,-1.249462
0.860000,0.000000,0.681431,0.040000,111497726088.245163,102928829456.230042,-109581625067.630280,-57796537895.547318,1.976842,-2.026979,-1.088920
0.900000,0.000000,0.675846,0.040000,116049019129.083923,-96112256064.848267,27816123259.140785,-48393566878.272614,-1.424789,0.910094,-0.911763
0.940000,0.000000,0.672599,0.040000,120888388725.557526,-826403752433.053833,1545040020845.697266,-36256128295.216469,-19.631783,25.047592,-0.683086
0.980000,0.000000,0.671721,0.040000,128135981237.343826,-534559071322.727417,1370725389189.159180,-20546046265.019051,-14.797560,21.099104,-0.387099
1.020000,0.000000,0.671721,0.040000,138417191903.498352,630189887777.999634,-2211646895244.452148,-11189639907.907965,20.811813,-32.730040,-0.210819
1.060000,0.000000,0.672599,0.040000,143974987032.310089,1175908341826.347168,-2081520172846.425781,-8476587025.735366,27.273470,-34.098371,-0.159704
1.100000,0.000000,0.675846,0.040000,146755102202.201385,495854774563.103088,-449935881311.518616,-2987861248.943212,9.082650,-8.736594,-0.056293
1.140000,0.000000,0.681431,0.040000,148643529846.784851,260686753995.202484,-255076940093.935608,3758307624.864677,4.879782,-4.837505,0.070809
1.180000,0.000000,0.689295,0.040000,150098595483.482605,189387876706.065430,-188188518277.611328,8976758513.411861,3.561398,-3.552360,0.169127
1.220000,0.000000,0.699362,0.040000,151247196263.009338,156634232661.706970,-156296801705.849792,12934345919.028902,2.949173,-2.946630,0.243691
1.260000,0.000000,0.711539,0.040000,152144332335.506897,133499319272.070541,-133348043331.464081,15814238455.198732,2.514350,-2.513209,0.297949
1.300000,0.000000,0.725718,0.040000,152827567535.958099,113796173601.728348,-113682576249.514191,17777101237.486752,2.143344,-2.142488,0.334931
1.340000,0.000000,0.741786,0.040000,153328540607.190918,96239736317.924179,-96133331672.236160,18976849390.064278,1.812611,-1.811809,0.357535
1.380000,0.000000,0.759622,0.040000,153675365151.441589,80567382964.726532,-80464273752.969757,19558454479.711670,1.517353,-1.516576,0.368493
1.420000,0.000000,0.779106,0.040000,153893124659.929779,66692269005.652626,-66593901889.835632,19653154866.319996,1.255965,-1.255224,0.370277
1.460000,0.000000,0.800116,0.040000,154004027062.515961,54526653833.717705,-54434888642.687973,19375358836.017540,1.026795,-1.026104,0.365043
1.500000,0.000000,0.822536,0.040000,154027547427.140900,43955777126.064522,-43871872191.012810,18821667715.075684,0.827678,-0.827046,0.354611
1.540000,0.000000,0.846254,0.040000,153980611054.951172,34843917705.171799,-34768462322.439461,18071472644.412418,0.656053,-0.655484,0.340477
1.580000,0.000000,0.871163,0.040000,153877809709.306244,27045022200.604557,-26978077965.295570,17188494445.813824,0.509166,-0.508661,0.323841
1.620000,0.000000,0.897165,0.040000,153731634518.442932,20411697402.134914,-20352960072.319229,16222773154.465036,0.384236,-0.383794,0.305646
1.660000,0.000000,0.924167,0.040000,153552711249.977844,14801587237.286314,-14750523041.157288,15212773633.325861,0.278582,-0.278197,0.286617
1.700000,0.000000,0.952084,0.040000,153350027729.023468,10081421061.498396,-10037370056.235521,14187404372.727076,0.189691,-0.189359,0.267299
1.740000,0.000000,0.980838,0.040000,153131146876.190094,6129264892.108703,-6091514675.782729,13167840621.861727,0.115266,-0.114981,0.248090
1.780000,0.000000,1.008730,0.040000,152902401719.393127,2835480899.332664,-2803316492.984274,12169105530.162258,0.053240,-0.052998,0.229273
1.820000,0.000000,1.037051,0.040000,152669070808.239655,102808268.378071,-75543928.605165,11201401703.228201,0.001783,-0.001577,0.211041
1.860000,0.000000,1.065575,0.040000,152435533874.126251,-2154119071.749642,2177121183.574891,10271207599.727625,-0.040715,0.040888,0.193516
1.900000,0.000000,1.093503,0.040000,152205408487.598541,-4009587341.754364,4028907715.427954,9382164143.533283,-0.075652,0.075798,0.176765
1.940000,0.000000,1.122162,0.040000,151981669002.679626,-5527788129.134652,5543946701.411238,8535780925.547729,-0.104238,0.104360,0.160819
1.980000,0.000000,1.150158,0.040000,151766749354.931854,-6763863796.792201,6777320791.509480,7731991284.239828,-0.127511,0.127613,0.145675
2.020000,0.000000,1.178441,0.040000,151562631379.686218,-7764941474.686219,7776100715.781302,6969583276.716620,-0.146359,0.146443,0.131311
2.060000,0.000000,1.206988,0.040000,151370920301.003387,-8571111629.201921,8580325236.287687,6246530282.918366,-0.161537,0.161606,0.117688
2.100000,0.000000,1.234924,0.040000,151192908954.930481,-9216326428.734051,9223900160.839607,5560241443.334202,-0.173684,0.173741,0.104758
2.140000,0.000000,1.263509,0.040000,151029632183.420227,-9729206102.928719,9735404873.718506,4907748719.671910,-0.183339,0.183386,0.092465
2.180000,0.000000,1.291587,0.040000,150881912688.804260,-10133749933.148970,10138803198.143616,4285844291.185156,-0.190954,0.190992,0.080748
2.220000,0.000000,1.319838,0.040000,150750399486.573090,-10449953651.922050,10454060404.890469,3691179334.451010,-0.196906,0.196937,0.069544
2.260000,0.000000,1.348405,0.040000,150635599944.717072,-10694336588.114750,10697668246.130163,3120332948.457148,-0.201506,0.201531,0.058789
2.300000,0.000000,1.376347,0.040000,150537906253.185211,-10880360820.382671,10883037682.838081,2569857320.436947,-0.205007,0.205028,0.048418
2.340000,0.000000,1.404873,0.040000,150457616980.100861,-11018437167.483049,11020219622.340414,2036291561.946729,-0.207604,0.207617,0.038365
2.380000,0.000000,1.433947,0.040000,150394953293.717072,-11115829666.840504,11119507916.938444,1516399144.843171,-0.209449,0.209477,0.028570
2.420000,0.000000,1.463537,0.040000,150350054620.048920,-11174897588.023806,11172831084.931519,1139006485.457970,-0.210530,0.210514,0.021460
2.460000,0.000000,1.493612,0.040000,150322765931.406677,-11123306233.962734,11051054974.267145,920889817.463485,-0.209161,0.208617,0.017350
-2.500000,0.040000,3.306574,0.040000,-45933364262.358223,360014152610.857483,27498944724131.429688,-1919326489926.400879,-150.680805,360.632379,-36.161224
-2.460000,0.040000,3.268226,0.040000,-91879333202.470642,2771030335664.274902,14958493333373.582031,-1078618901110.537109,-48.002533,181.616335,-20.321805
-2.420000,0.040000,3.229917,0.040000,-91922138741.590744,-616570065404.423340,4689649744124.830078,-724936090252.420288,-34.638292,65.333965,-13.658216
-2.380000,0.040000,3.191649,0.040000,-91994219318.437241,-38899389624.130692,146910789053.021271,-1459238451.934171,-1.343386,2.157385,-0.027493
-2.340000,0.040000,3.153425,0.040000,-92095257642.247070,18145838584.513691,-18145744797.444351,1244299962.086789,0.341878,-0.341877,0.023443
-2.300000,0.040000,3.115245,0.040000,-92225331301.203552,18227095054.271957,-18226720190.931915,1580114781.495878,0.343407,-0.343404,0.029770
-2.260000,0.040000,3.077112,0.040000,-92384568987.751236,18316422954.405338,-18316398952.697529,1933353891.766429,0.345092,-0.345092,0.036426
-2.220000,0.040000,3.039026,0.040000,-92573112981.866928,18406086409.353783,-18406565951.526566,2308014897.586897,0.346784,-0.346788,0.043484
-2.180000,0.040000,3.000991,0.040000,-92791105971.464203,18487180788.979610,-18488283903.560074,2708394110.932197,0.348315,-0.348324,0.051028
-2.140000,0.040000,2.963007,0.040000,-93038676756.972717,18548812102.612000,-18550673393.037655,3139121646.390210,0.349481,-0.349495,0.059143
-2.100000,0.040000,2.925077,0.040000,-93315922793.231949,18577744388.026577,-18580518919.444630,3605199926.356666,0.350031,-0.350052,0.067924
-2.060000,0.040000,2.887202,0.040000,-93622888980.551849,18558037736.711205,-18561904129.029499,4112033727.052807,0.349666,-0.349695,0.077473
-2.020000,0.040000,2.849386,0.040000,-93959542125.061478,18470638461.336502,-18475801642.571934,4665445522.105279,0.348027,-0.348066,0.087900
-1.980000,0.040000,2.811630,0.040000,-94325740412.881393,18292922274.346642,-18299615756.021732,5271667781.176508,0.344687,-0.344738,0.099321
-1.940000,0.040000,2.773938,0.040000,-94721197167.937820,17998198835.314075,-18006686061.471386,5937300338.316555,0.339144,-0.339208,0.111862
-1.900000,0.040000,2.736310,0.040000,-95145438102.134033,17555194255.902679,-17565768334.480072,6669216090.937347,0.330810,-0.330889,0.125652
-1.860000,0.040000,2.698751,0.040000,-95597751232.387100,16927540378.997860,-16940521176.523829,7474391766.429422,0.318998,-0.319096,0.140822
-1.820000,0.040000,2.661263,0.040000,-96077128651.444916,16073317642.089287,-16089044768.721901,8359631846.207459,0.302920,-0.303038,0.157500
-1.780000,0.040000,2.623849,0.040000,-96582199427.388992,14944724279.433617,-14963543877.884445,9331142471.905657,0.281674,-0.281815,0.175804
-1.740000,0.040000,2.586513,0.040000,-97111153112.068512,13487981321.625519,-13510223758.577913,10393897821.228201,0.254247,-0.254415,0.195827
-1.700000,0.040000,2.549257,0.040000,-97661653720.420166,11643633773.144972,-11669578284.901556,11550723808.360016,0.219519,-0.219715,0.217622
-1.660000,0.040000,2.512086,0.040000,-98230744682.540192,9347477473.842495,-9377298528.736761,12801003495.626383,0.176280,-0.176505,0.241178
-1.620000,0.040000,2.475003,0.040000,-98814746279.423752,6532432434.182888,-6566121117.351403,14138887572.729504,0.123265,-0.123519,0.266385
-1.580000,0.040000,2.438013,0.040000,-99409148597.754349,3131799253.798000,-3169051621.399537,15550878880.548985,0.059215,-0.059496,0.292988
-1.540000,0.040000,2.401118,0.040000,-100008505264.016556,-915527866.978988,875463955.573163,17012673962.543455,-0.017023,0.016721,0.320529
-1.500000,0.040000,2.364325,0.040000,-100606336360.746353,-5657181088.476316,5615706293.255689,18485255293.841885,-0.106350,0.106038,0.348273
-1.460000,0.040000,2.327638,0.040000,-101195053200.636093,-11115997735.667595,11075401068.613836,19910664096.204887,-0.209202,0.208896,0.375128
-1.420000,0.040000,2.291061,0.040000,-101765923119.205215,-17274725482.541061,17238410091.517948,21209461947.099503,-0.325261,0.324987,0.399599
-1.380000,0.040000,2.254601,0.040000,-102309098693.546417,-24057499209.918900,24029990175.356316,22287676036.313797,-0.453102,0.452894,0.419913
-1.340000,0.040000,2.218263,0.040000,-102813740557.241959,-31313464984.240253,31299503539.758446,23083052753.948601,-0.589885,0.589780,0.434898
-1.300000,0.040000,2.182052,0.040000,-103268258220.180466,-38823175975.104614,38823591737.611710,23767897051.654839,-0.731453,0.731457,0.447801
-1.260000,0.040000,2.145977,0.040000,-103660652757.963898,-46395784736.168327,46392638832.524361,25587712016.990803,-0.874106,0.874082,0.482087
-1.220000,0.040000,2.110043,0.040000,-103978788605.458038,-54257718301.471130,54165904785.551132,34376357443.498756,-1.021728,1.021036,0.647671
-1.180000,0.040000,2.074258,0.040000,-104209933941.448685,-64200852579.168793,63733611444.280396,75812467341.736847,-1.206940,1.203419,1.428351
-1.140000,0.040000,2.038629,0.040000,-104337728950.292130,-81593447911.740311,79884982203.254028,264077137843.805298,-1.527611,1.514736,4.975366
-1.100000,0.040000,2.003166,0.040000,-104333836838.463562,-200827297064.782043,372082019905.744141,1079167904232.173828,-4.751664,6.042279,20.332149
-1.060000,0.040000,1.967876,0.040000,-104155460420.132019,-1624525615817.797119,9343554752482.048828,407431161446.344177,-74.236299,132.408693,7.676239
-1.020000,0.040000,1.932770,0.040000,-103961654983.625351,4452445644866.823242,15210926501933.041016,-1894132581178.349854,-27.254142,175.441874,-35.686556
-0.980000,0.040000,1.897858,0.040000,-32401814399.769627,-5698174828807.027344,-14183124172226.291016,-1792395481200.728760,5.015643,-154.845722,-33.769770
-0.940000,0.040000,1.863150,0.040000,-30766395781.478882,793040763471.644531,-8536004088513.500977,548181353899.316772,58.705923,-117.058690,10.328054
-0.900000,0.040000,1.828659,0.040000,-27654147644.837654,-300386011822.922180,121709084138.810852,1061307469841.662109,-4.649534,3.302983,19.995648
-0.860000,0.040000,1.794396,0.040000,-23905412571.410217,-233800476735.733124,230203309046.337128,148182993803.513855,-4.384605,4.357496,2.791854
-0.820000,0.040000,1.760375,0.040000,-19776790275.988289,-158491077815.565063,157563543508.272156,-37985305890.864296,-2.980821,2.973831,-0.715665
-0.780000,0.040000,1.726611,0.040000,-15392841717.716555,-104539278172.926529,104590529766.799530,-75204070025.461472,-1.969870,1.970257,-1.416888
-0.740000,0.040000,1.693118,0.040000,-10841494229.261875,-52182892316.042595,52302289960.273300,-84636201414.462540,-0.983831,0.984731,-1.594595
-0.700000,0.040000,1.659913,0.040000,-6206763409.943855,1450316501.333804,-1496906794.954244,-85909551639.556091,0.027588,-0.027939,-1.618586
-0.660000,0.040000,1.627015,0.040000,-1574265300.759398,54096942003.836792,-54343416002.113503,-81823802487.488312,1.020611,-1.022468,-1.541608
-0.620000,0.040000,1.594440,0.040000,2972053154.995446,102474213556.151337,-102893192892.423782,-73160569039.978516,1.933042,-1.936199,-1.378388
-0.580000,0.040000,1.562211,0.040000,7355045865.231741,143369839647.301056,-143380709652.383484,-60881906689.424858,2.701232,-2.701314,-1.147050
-0.540000,0.040000,1.530349,0.040000,11509018198.876347,172470624590.381012,-164335544787.131836,-50347003028.191269,3.203466,-3.142158,-0.948567
-0.500000,0.040000,1.498877,0.040000,15383013635.560352,193370297953.943024,-175550501113.714874,-43792884562.601524,3.542488,-3.408194,-0.825083
0.500000,0.040000,0.790208,0.040000,68073981340.702629,-214219233786.221893,196440282177.236969,-76053451161.666397,-3.935525,3.801539,-1.432891
0.540000,0.040000,0.766844,0.040000,72354386987.514359,-193317613167.153229,185188639230.324615,-84563326387.850845,-3.596270,3.535008,-1.593222
0.580000,0.040000,0.744896,0.040000,76948097846.607788,-164088908808.369629,164110501663.523010,-98174400100.336136,-3.091652,3.091815,-1.849663
0.620000,0.040000,0.724493,0.040000,81803962508.070740,-122866360805.217865,123298132323.118576,-113885300789.719666,-2.317314,2.320568,-2.145665
0.660000,0.040000,0.705769,0.040000,86855761447.578537,-73945649105.819229,74203959762.379562,-124720826470.392273,-1.394639,1.396586,-2.349813
0.700000,0.040000,0.688862,0.040000,92025482718.241135,-20579339642.327812,20631406901.019558,-129506564410.061600,-0.388021,0.388413,-2.439979
0.740000,0.040000,0.673907,0.040000,97228047864.127045,33729570119.850037,-33880214073.822754,-127679922627.868622,0.636336,-0.637471,-2.405564
0.780000,0.040000,0.661038,0.040000,102376854202.938568,85656652344.377213,-85932640288.999344,-118946568523.771652,1.615381,-1.617461,-2.241022
0.820000,0.040000,0.650378,0.040000,107388968579.083969,133508487435.148865,-133631990102.999832,-100102827753.716125,2.516075,-2.517006,-1.885995
0.860000,0.040000,0.642037,0.040000,112187564970.424866,180665702587.212311,-180104464823.128967,-45911707118.730515,3.400674,-3.396445,-0.865003
0.900000,0.040000,0.636107,0.040000,116696190902.012299,221323720460.201904,-180872753588.663147,172803557075.707794,3.941231,-3.636383,3.255719
0.940000,0.040000,0.632655,0.040000,120815266256.177216,-2974343636.901081,1762771481777.848633,69651926097.250183,-10.002718,23.264957,1.312283
0.980000,0.040000,0.631722,0.040000,124313766022.499100,1500998260441.960205,3017430579091.270020,-439773083977.157043,2.740732,31.311196,-8.285580
1.020000,0.040000,0.631722,0.040000,143376575858.722046,-782963852832.662720,-3689269652253.385742,-441952461621.120667,10.526349,-44.230137,-8.326641
1.060000,0.040000,0.632655,0.040000,145850724876.173065,598533682073.806274,-2354388979050.667969,94174655675.600784,21.201121,-34.433654,1.774305
1.100000,0.040000,0.636107,0.040000,147955864464.742310,257097761177.559906,-296167808085.696167,258637742361.425262,5.064702,-5.359142,4.872885
1.140000,0.040000,0.642037,0.040000,149683474272.208832,207480353931.134125,-207093455618.718475,82078299617.442780,3.906863,-3.903948,1.546403
1.180000,0.040000,0.650378,0.040000,151078892288.252350,180632042484.760101,-180460872420.200806,44400073532.402237,3.402245,-3.400955,0.836523
1.220000,0.040000,0.661038,0.040000,152185066641.241089,156490736714.622498,-156374534511.973053,37721439906.480934,2.947719,-2.946844,0.710694
1.260000,0.040000,0.673907,0.040000,153040673824.224976,134435788536.020065,-134326429949.186630,36915797456.991280,2.532230,-2.531406,0.695515
1.300000,0.040000,0.688862,0.040000,153681014341.005310,114315121104.704605,-114202699719.272263,36633755417.267380,2.153128,-2.152280,0.690201
1.340000,0.040000,0.705769,0.040000,154138279056.137817,96154256593.302780,-96040502502.773422,35863155623.844666,1.810959,-1.810102,0.675683
1.380000,0.040000,0.724493,0.040000,154441524177.154968,79967835280.823135,-79856606828.863190,34547597151.868675,1.506012,-1.505173,0.650897
1.420000,0.040000,0.744896,0.040000,154616651968.597565,65711288978.686935,-65605872898.997963,32821642761.606915,1.237443,-1.236649,0.618379
1.460000,0.040000,0.766844,0.040000,154686481679.312561,53285068049.352180,-53187647570.849342,30833885904.674660,1.003371,-1.002637,0.580928
1.500000,0.040000,0.790208,0.040000,154670907317.115051,42551859333.929878,-42463606110.772751,28708116940.341213,0.801203,-0.800538,0.540878
1.540000,0.040000,0.814868,0.040000,154587115863.413025,33353629661.634598,-33274939422.980785,26538340389.586533,0.627957,-0.627364,0.499998
1.580000,0.040000,0.840707,0.040000,154449838957.877563,25525038327.118015,-25455765035.384460,24392135221.200157,0.480515,-0.479993,0.459562
1.620000,0.040000,0.867622,0.040000,154271616618.830322,18902914953.650085,-18842563825.767448,22315686669.618244,0.355801,-0.355346,0.420440
1.660000,0.040000,0.895516,0.040000,154063057781.342560,13332410129.679501,-13280283972.806845,20338629829.408100,0.250896,-0.250503,0.383192
1.700000,0.040000,0.924299,0.040000,153833087743.992126,8670596304.213638,-8625900477.283367,18478194360.101044,0.163106,-0.162770,0.348140
1.740000,0.040000,0.952166,0.040000,153589176700.853851,4788228783.802583,-4750142899.055134,16742563556.127644,0.089998,-0.089711,0.315440
1.780000,0.040000,0.980490,0.040000,153337546490.757782,1570244182.142894,-1537968529.675287,15133506243.698557,0.029402,-0.029159,0.285124
1.820000,0.040000,1.009027,0.040000,153083354727.822235,-1084562243.493671,1111778705.591988,13648387353.034891,-0.020588,0.020793,0.257144
1.860000,0.040000,1.036935,0.040000,152830856801.363373,-3264357121.069314,3287201750.907191,12281671146.553082,-0.061632,0.061804,0.231394
1.900000,0.040000,1.065613,0.040000,152583547038.171967,-5045359152.358829,5064449415.067317,11026022657.031031,-0.095165,0.095309,0.207737
1.940000,0.040000,1.093594,0.040000,152344280757.929443,-6493043534.974608,6508926536.913651,9873098136.148170,-0.122422,0.122542,0.186015
1.980000,0.040000,1.121876,0.040000,152115379140.011932,-7663358964.477133,7676514536.718545,8814099192.106449,-0.144456,0.144556,0.166063
2.020000,0.040000,1.150437,0.040000,151898718843.398560,-8603894091.451384,8614739901.276983,7840150168.788068,-0.162164,0.162245,0.147713
2.060000,0.040000,1.178356,0.040000,151695808242.875122,-9354957152.138973,9363854814.095438,6942545179.862136,-0.176303,0.176370,0.130802
2.100000,0.040000,1.206955,0.040000,151507852007.372009,-9950550635.859421,9957812154.474432,6112900322.228183,-0.187515,0.187570,0.115171
2.140000,0.040000,1.235022,0.040000,151335805579.368164,-10419234703.596510,10425128832.722754,5343237850.842507,-0.196338,0.196382,0.100670
2.180000,0.040000,1.263272,0.040000,151180420936.938843,-10784880468.480507,10789638750.656261,4626022237.780195,-0.203220,0.203256,0.087157
2.220000,0.040000,1.291851,0.040000,151042284844.168823,-11067318632.560030,11071141098.928175,3954162752.579292,-0.208536,0.208565,0.074499
2.260000,0.040000,1.319779,0.040000,150921850628.433624,-11282892671.719000,11285954873.769676,3320993231.287250,-0.212594,0.212617,0.062569
2.300000,0.040000,1.348315,0.040000,150819464370.838745,-11444950098.736792,11447436748.638346,2720237548.440073,-0.215644,0.215662,0.051251
2.340000,0.040000,1.377421,0.040000,150735386311.944458,-11564589567.907290,11566989518.241598,2145980027.696563,-0.217897,0.217915,0.040432
2.380000,0.040000,1.407062,0.040000,150669809146.934357,-11650143330.306530,11646372991.259392,1593185282.309529,-0.219474,0.219446,0.030017
2.420000,0.040000,1.437206,0.040000,150622890093.503845,-11706029654.388245,11673958396.728855,1193151313.290978,-0.220367,0.220125,0.022480
2.460000,0.040000,1.467820,0.040000,150594981211.597504,-11834249860.955084,11841951568.518547,963321198.184509,-0.223008,0.223066,0.018150
-2.500000,0.080000,3.295490,0.040000,-92090662515.307678,14019490373398.943359,8693326320399.247070,1985877123662.265137,135.758536,35.410517,37.415076
-2.460000,0.080000,3.257011,0.040000,-92037511212.317291,2401277067921.770996,14704319714381.970703,1115814724649.114746,-51.442356,180.354100,21.022596
-2.420000,0.080000,3.218568,0.040000,-92081993244.997467,-373544991696.488831,4842120178466.345703,736977691845.110840,-32.294968,65.971187,13.885087
-2.380000,0.080000,3.180164,0.040000,-92155329267.603699,14407226403.291435,-2215138345.429706,3253041054.712720,0.202529,-0.110646,0.061289
-2.340000,0.080000,3.141800,0.040000,-92258044971.254364,18465479465.476200,-18463758705.852139,1160150231.728567,0.347891,-0.347878,0.021858
-2.300000,0.080000,3.103478,0.040000,-92390306115.354248,18566516868.149197,-18565757640.134628,1483458749.871369,0.349800,-0.349794,0.027949
-2.260000,0.080000,3.065198,0.040000,-92552274712.277267,18678816500.190838,-18678496739.912540,1830276792.008190,0.351918,-0.351916,0.034483
-2.220000,0.080000,3.026963,0.040000,-92744129883.404556,18796367278.138584,-18796532822.093102,2206251820.364738,0.354135,-0.354137,0.041567
-2.180000,0.080000,2.988773,0.040000,-92966058976.575272,18910807047.411560,-18911567293.744114,2617548086.668231,0.356295,-0.356301,0.049316
-2.140000,0.080000,2.950632,0.040000,-93218244189.356766,19011756942.898117,-19013242537.833828,3070948331.041802,0.358201,-0.358212,0.057858
-2.100000,0.080000,2.912541,0.040000,-93500845936.177017,19086551707.970879,-19088914751.923103,3573945481.146348,0.359615,-0.359633,0.067335
-2.060000,0.080000,2.874501,0.040000,-93813982551.582352,19119872063.032955,-19123289323.117031,4134826911.184394,0.360249,-0.360275,0.077903
-2.020000,0.080000,2.836516,0.040000,-94157705741.905472,19093315725.128700,-19097992064.699993,4762744104.494544,0.359756,-0.359791,0.089733
-1.980000,0.080000,2.798586,0.040000,-94531971098.925797,18984908857.354355,-18991080520.850628,5467755996.659644,0.357722,-0.357768,0.103016
-1.940000,0.080000,2.760715,0.040000,-94936602894.096390,18768561054.153248,-18776498458.038967,6260828477.709223,0.353655,-0.353715,0.117958
-1.900000,0.080000,2.722905,0.040000,-95371252282.090912,18413472879.639874,-18423482371.580788,7153764493.307456,0.346977,-0.347053,0.134781
-1.860000,0.080000,2.685159,0.040000,-95835347967.337234,17883514498.154877,-17895938262.983379,8159028117.593937,0.337006,-0.337100,0.153721
-1.820000,0.080000,2.647478,0.040000,-96328038342.217758,17136608481.156466,-17151821367.309303,9289410926.246351,0.322950,-0.323064,0.175018
-1.780000,0.080000,2.609867,0.040000,-96848124114.183823,16124171547.251444,-16142573019.007742,10557468858.837019,0.303893,-0.304031,0.198909
-1.740000,0.080000,2.572328,0.040000,-97393980536.078979,14790701663.715626,-14812700297.962038,11974631311.674797,0.278790,-0.278956,0.225609
-1.700000,0.080000,2.534864,0.040000,-97963468590.510025,13073642467.494930,-13099629333.866920,13549850350.077835,0.246462,-0.246658,0.255287
-1.660000,0.080000,2.497478,0.040000,-98553834928.433075,10903721513.243273,-10934027306.563419,15287616191.268282,0.205604,-0.205832,0.288028
-1.620000,0.080000,2.460175,0.040000,-99161601128.150070,8206049545.495746,-8240878298.074535,17185116756.997704,0.154804,-0.155066,0.323778
-1.580000,0.080000,2.422958,0.040000,-99782444069.681000,4902395777.463733,-4941724933.552048,19228269846.033558,0.092586,-0.092883,0.362272
-1.540000,0.080000,2.385831,0.040000,-100411071117.364868,915240691.637413,-958671837.730730,21386323391.468334,0.017489,-0.017816,0.402931
-1.500000,0.080000,2.348798,0.040000,-101041096674.102905,-3825488347.647760,3778956967.041429,23604750052.932789,-0.071811,0.071461,0.444727
-1.460000,0.080000,2.311864,0.040000,-101664931017.283936,-9371474859.333416,9323823748.071894,25796393697.471390,-0.176295,0.175936,0.486019
-1.420000,0.080000,2.275034,0.040000,-102273699203.868622,-15737665901.733257,15692593795.382870,27831668093.740685,-0.296252,0.295912,0.524365
-1.380000,0.080000,2.238313,0.040000,-102857220177.181473,-22867664968.083447,22832470845.330750,29531352901.170124,-0.430641,0.430376,0.556388
-1.340000,0.080000,2.201706,0.040000,-103404104121.612213,-30552441575.852585,30544069903.202084,30674330792.639996,-0.575578,0.575515,0.577922
-1.300000,0.080000,2.165219,0.040000,-103902108533.100403,-38184251191.895493,38251728035.870796,31060789354.873142,-0.719795,0.720303,0.585203
-1.260000,0.080000,2.128858,0.040000,-104339189983.302963,-43855554295.539902,44169891257.776276,30759910627.063908,-0.828041,0.830410,0.579535
-1.220000,0.080000,2.092630,0.040000,-104706881523.541809,-40672470927.469917,41903354458.260223,30929152748.715954,-0.773250,0.782526,0.582723
-1.180000,0.080000,2.056542,0.040000,-105012747224.604248,-646130176.244915,5605070931.548751,36180667874.654854,-0.040202,0.077574,0.681665
-1.140000,0.080000,2.020601,0.040000,-105331735378.779770,198208186645.841034,-175349166510.683441,59444621215.984032,3.605154,-3.432883,1.119971
-1.100000,0.080000,1.984816,0.040000,-106034977562.132431,895343092453.097046,-372232618123.208374,110474462249.747528,13.912072,-9.969790,2.081403
-1.060000,0.080000,1.949194,0.040000,-108866594637.907303,872764118007.926392,10330493057054.310547,377007412690.359009,-46.879376,131.309720,7.103038
-1.020000,0.080000,1.913745,0.040000,-121566909268.142731,10203307701276.933594,21269330508688.488281,589255192401.208008,14.347407,222.837692,11.101909
-0.980000,0.080000,1.878479,0.040000,-14791809702.960896,-14247811392019.363281,-20529608332773.714844,69600919377.100952,-71.869002,-190.221698,1.311322
-0.940000,0.080000,1.843407,0.040000,-28108826879.848946,-2564571512799.227051,-9472633560432.855469,-523322822778.488037,19.718362,-110.433531,-9.859705
-0.900000,0.080000,1.808539,0.040000,-27998230689.259621,-1477560848635.579834,821783973254.947510,-431874670024.475220,-24.131538,19.189451,-8.136769
-0.860000,0.080000,1.773888,0.040000,-24642913718.578949,-464681458847.896729,430766946346.258972,-193236060669.453064,-8.563177,8.307590,-3.640679
-0.820000,0.080000,1.739466,0.040000,-20449369731.880844,-202353634229.629150,198616814200.668060,-135620825654.403015,-3.791339,3.763177,-2.555175
-0.780000,0.080000,1.705287,0.040000,-15915644729.373537,-118301066117.356537,118295337640.893799,-134387071684.749374,-2.228828,2.228785,-2.531930
-0.740000,0.080000,1.671367,0.040000,-11190497061.966347,-57128635380.149551,57327242529.417587,-141359945867.519501,-1.077459,1.078956,-2.663303
-0.700000,0.080000,1.637722,0.040000,-6373875257.207903,3525258794.888989,-3567307159.347065,-142843848298.576172,0.066656,-0.066972,-2.691261
-0.660000,0.080000,1.604368,0.040000,-1562776155.459560,62877446862.324348,-63179631518.334251,-135844012757.205429,1.186356,-1.188633,-2.559380
-0.620000,0.080000,1.571325,0.040000,3148181298.153654,116977756069.157623,-117490920335.233032,-120705784285.556580,2.206829,-2.210697,-2.274167
-0.580000,0.080000,1.538611,0.040000,7672749059.893107,161973019884.698303,-162063414525.322296,-99190290073.056549,3.052177,-3.052858,-1.868803
-0.540000,0.080000,1.506250,0.040000,11938672204.229277,193247700667.799713,-184840080075.096497,-80784952093.184204,3.593377,-3.530016,-1.522035
-0.500000,0.080000,1.474263,0.040000,15891440796.047932,215001369210.962646,-196764639587.326050,-69385933026.776215,3.947673,-3.810237,-1.307271
0.500000,0.080000,0.758613,0.040000,67180280852.380592,-241018820696.678680,222561656420.556305,-101848288920.645050,-4.436611,4.297514,-1.918881
0.540000,0.080000,0.734244,0.040000,71588318311.851913,-218885925701.694183,210344936359.993530,-115380491026.463989,-4.075663,4.011296,-2.173835
0.580000,0.080000,0.711290,0.040000,76350542408.807404,-186805028679.767700,186917966243.064545,-137164228585.913132,-3.520153,3.521004,-2.584254
0.620000,0.080000,0.689894,0.040000,81411099944.051025,-140377091506.022797,140922052683.148804,-162509178287.910767,-2.647866,2.651973,-3.061767
0.660000,0.080000,0.670205,0.040000,86695438634.718231,-84297666729.154053,84624976365.272202,-180158871386.995911,-1.590067,1.592534,-3.394298
0.700000,0.080000,0.652376,0.040000,92114158949.051208,-22594879782.573612,22653445331.081142,-188008632370.111816,-0.426032,0.426473,-3.542192
0.740000,0.080000,0.636565,0.040000,97568932389.600662,40223579491.169762,-40443174029.064964,-185229979018.437836,0.759077,-0.760732,-3.489840
0.780000,0.080000,0.622925,0.040000,102959599465.681763,100122550584.025284,-100518405554.901154,-172909593405.254700,1.888604,-1.891588,-3.257717
0.820000,0.080000,0.611601,0.040000,108190174906.287323,158443511091.717621,-158202510219.364807,-155982223961.071869,2.983805,-2.981989,-2.938796
0.860000,0.080000,0.602724,0.040000,113164335985.046921,247630987953.204559,-240472695851.331390,-149676961760.023651,4.625051,-4.571105,-2.820001
0.900000,0.080000,0.596403,0.040000,117721417209.508072,499904472072.454224,-350113855627.236816,-190409150131.624542,8.571847,-7.442991,-3.587419
0.940000,0.080000,0.592720,0.040000,121278344868.826080,775275635005.976807,1962106728082.682129,-205398172060.483917,-0.865519,21.495067,-3.869821
0.980000,0.080000,0.591724,0.040000,121474600893.860535,3478296169521.799316,4428997050767.914062,-49565073510.219864,20.839720,38.751476,-0.933835
1.020000,0.080000,0.591724,0.040000,148594647455.282867,-2059233879473.593750,-5097083792638.743164,112291043831.189896,1.651592,-55.583261,2.115628
1.060000,0.080000,0.592720,0.040000,148143407644.909729,51881455180.021523,-2599636848345.465820,102969334281.463135,15.377833,-34.578309,1.940002
1.100000,0.080000,0.596403,0.040000,149536156906.041260,20328846349.811348,-139235306410.261047,63237174214.050705,1.055087,-1.951194,1.191425
1.140000,0.080000,0.602724,0.040000,151054723919.156219,150411315693.443542,-155456151753.784332,60797829818.977638,2.862351,-2.900370,1.145466
1.180000,0.080000,0.611601,0.040000,152347725653.571991,169232772219.573669,-170216694953.057220,59224835164.353020,3.194005,-3.201420,1.115830
1.220000,0.080000,0.622925,0.040000,153372964940.464569,154354300580.488098,-154498431486.323578,58892590318.048576,2.908939,-2.910025,1.109571
1.260000,0.080000,0.636565,0.040000,154151770071.227814,133460283825.634216,-133398710414.704285,57994103654.158981,2.514121,-2.513657,1.092643
1.300000,0.080000,0.652376,0.040000,154717013293.531311,112868780397.938339,-112754519782.579590,56089330822.034317,2.125867,-2.125006,1.056756
1.340000,0.080000,0.670205,0.040000,155101508579.291046,94083282464.383484,-93957978358.970810,53315023137.386383,1.771875,-1.770931,1.004486
1.380000,0.080000,0.689894,0.040000,155335284205.387726,77429002476.592392,-77306313426.604446,49946777398.405594,1.458114,-1.457189,0.941026
1.420000,0.080000,0.711290,0.040000,155444988148.616486,62893733538.897072,-62779111063.592789,46247124221.930290,1.184307,-1.183443,0.871323
1.460000,0.080000,0.734244,0.040000,155453888299.659180,50347129876.042412,-50242924884.510139,42425294124.356255,0.947980,-0.947195,0.799317
1.500000,0.080000,0.758613,0.040000,155382074772.593719,39611857273.833969,-39518899884.790512,38634140277.301369,0.745785,-0.745084,0.727890
1.540000,0.080000,0.784266,0.040000,155246740968.385101,30494157894.601276,-30412411070.192337,34978081415.190773,0.574066,-0.573450,0.659007
1.580000,0.080000,0.811081,0.040000,155062492176.535248,22800043680.077904,-22728960323.619553,31523282109.409531,0.429164,-0.428629,0.593917
1.620000,0.080000,0.838947,0.040000,154841655151.437439,16344551335.993818,-16283300859.321896,28307163317.987118,0.307595,-0.307133,0.533323
1.660000,0.080000,0.867763,0.040000,154594573610.100159,10956856880.332760,-10904475127.963295,25346377317.615097,0.206137,-0.205743,0.477540
1.700000,0.080000,0.895603,0.040000,154329881340.229156,6482711011.804955,-6438198297.572659,22643127885.330589,0.121886,-0.121551,0.426610
1.740000,0.080000,0.923929,0.040000,154054748940.279327,2785132890.556699,-2747515560.794311,20189993058.720623,0.052261,-0.051977,0.380391
1.780000,0.080000,0.952481,0.040000,153775103025.049042,-255990559.486247,287624027.445409,17973496174.194565,-0.005002,0.005240,0.338631
1.820000,0.080000,0.980366,0.040000,153495818498.769318,-2744950072.005385,2771430347.982826,15976679003.640654,-0.051866,0.052066,0.301010
1.860000,0.080000,1.009067,0.040000,153220885541.669617,-4771597271.148787,4793666935.777424,14180905334.644535,-0.090024,0.090191,0.267176
1.900000,0.080000,1.037031,0.040000,152953553505.507660,-6412862395.505365,6431175996.451015,12567086272.615271,-0.120926,0.121064,0.236771
1.940000,0.080000,1.065312,0.040000,152696454135.183167,-7734277052.785295,7749405533.009928,11116480459.297640,-0.145804,0.145918,0.209441
1.980000,0.080000,1.093887,0.040000,152451706546.072937,-8791424004.888046,8803861524.201653,9811188065.009516,-0.165706,0.165800,0.184848
2.020000,0.080000,1.121787,0.040000,152221006273.013641,-9631270942.237999,9641442791.306570,8634428546.617811,-0.181516,0.181593,0.162678
2.060000,0.080000,1.150402,0.040000,152005700523.255463,-10293368277.457066,10301639055.610991,7570668949.148363,-0.193980,0.194042,0.142636
2.100000,0.080000,1.178459,0.040000,151806851549.403107,-10810905669.891026,10817587230.451674,6605651428.028964,-0.203721,0.203772,0.124454
2.140000,0.080000,1.206707,0.040000,151625289833.118042,-11211630894.076305,11216989776.407120,5726354876.643878,-0.211264,0.211304,0.107888
2.180000,0.080000,1.235299,0.040000,151461658550.520691,-11518639640.197353,11522903853.346981,4920915223.319634,-0.217042,0.217074,0.092713
2.220000,0.080000,1.263210,0.040000,151316450583.943573,-11751047151.196020,11754412164.468931,4178521351.317494,-0.221416,0.221441,0.078726
2.260000,0.080000,1.291757,0.040000,151190039155.670166,-11924551782.867388,11927183947.758219,3489298006.104007,-0.224680,0.224700,0.065740
2.300000,0.080000,1.320898,0.040000,151082702985.877533,-12051875619.369627,12053886539.675354,2844182169.990300,-0.227076,0.227091,0.053586
2.340000,0.080000,1.350596,0.040000,150994646664.678680,-12142751353.851698,12143860678.965317,2234783316.269377,-0.228783,0.228791,0.042105
2.380000,0.080000,1.380813,0.040000,150926015746.474274,-12204060776.291119,12207816194.589329,1653505524.628612,-0.229953,0.229981,0.031153
2.420000,0.080000,1.411517,0.040000,150876889887.113342,-12239251186.586111,12244427477.145050,1236852748.644212,-0.230624,0.230663,0.023303
2.460000,0.080000,1.442677,0.040000,150847048793.678986,-12163498750.341290,12100448185.434933,997704521.986377,-0.228811,0.228336,0.018797
-2.500000,0.120000,3.284855,0.040000,0.000104,-16741062941668.625000,44284985037868.851562,2846971962158.176270,-471.094369,678.671753,53.638602
-2.460000,0.120000,3.246250,0.040000,-92168561949.337997,656668687916.804565,18685066470713.339844,1547870317386.531006,-96.950832,242.714633,29.162774
-2.420000,0.120000,3.207679,0.040000,-92212699005.867371,-1361596306370.934814,5796911061552.822266,312728287590.343811,-50.722434,84.147995,5.891982
-2.380000,0.120000,3.169143,0.040000,-92287039677.686676,-92945999811.030701,301425346100.428528,776524780.069499,-2.929518,4.500667,0.014630
-2.340000,0.120000,3.130644,0.040000,-92391289830.837479,18771093257.055355,-18770445345.485458,1057789531.102938,0.353655,-0.353650,0.019929
-2.300000,0.120000,3.092183,0.040000,-92525576627.997528,18893924683.859066,-18892933027.862793,1363358024.014005,0.355967,-0.355959,0.025686
-2.260000,0.120000,3.053761,0.040000,-92690095322.888245,19035636465.947075,-19034938966.126266,1698129818.773772,0.358638,-0.358633,0.031994
-2.220000,0.120000,3.015381,0.040000,-92885072092.485809,19189429958.075661,-19189170087.175575,2069270706.104768,0.361539,-0.361537,0.038986
-2.180000,0.120000,2.977043,0.040000,-93110752332.768097,19347544023.444195,-19347831144.425018,2484716631.128510,0.364521,-0.364523,0.046814
-2.140000,0.120000,2.938750,0.040000,-93367388192.014404,19500416237.574020,-19501374596.013863,2953310902.620212,0.367405,-0.367412,0.055642
-2.100000,0.120000,2.900502,0.040000,-93655223242.525665,19636321273.046711,-19638096640.856308,3484951477.178841,0.369970,-0.369983,0.065659
-2.060000,0.120000,2.862303,0.040000,-93974473687.021866,19740989420.648544,-19743753241.703632,4090736752.741099,0.371947,-0.371968,0.077072
-2.020000,0.120000,2.824153,0.040000,-94325305488.019318,19797158787.869549,-19801112520.931847,4783101020.908410,0.373012,-0.373042,0.090116
-1.980000,0.120000,2.786056,0.040000,-94707806703.140289,19784052410.591145,-19789432154.908726,5575926004.192191,0.372773,-0.372814,0.105054
-1.940000,0.120000,2.748012,0.040000,-95121954189.298874,19676775233.208687,-19683856484.708519,6484607552.455517,0.370762,-0.370815,0.122174
-1.900000,0.120000,2.710025,0.040000,-95567573710.753494,19445628961.451565,-19454731201.625267,7526046115.796866,0.366418,-0.366487,0.141795
-1.860000,0.120000,2.672096,0.040000,-96044292355.070480,19055348127.262924,-19066838740.004360,8718514949.117153,0.359079,-0.359165,0.164262
-1.820000,0.120000,2.634229,0.040000,-96551482035.769363,18464269722.386379,-18478566419.667255,10081339691.784174,0.347958,-0.348066,0.189938
-1.780000,0.120000,2.596426,0.040000,-97088192755.392014,17623463321.479565,-17641033793.056461,11634295196.471952,0.332136,-0.332268,0.219197
-1.740000,0.120000,2.558689,0.040000,-97653074241.508026,16475871448.935804,-16497228260.947762,13396588093.603804,0.310536,-0.310697,0.252399
-1.700000,0.120000,2.521022,0.040000,-98244284587.604202,14955545001.433384,-14981232754.111403,15385244155.342520,0.281916,-0.282110,0.289867
-1.660000,0.120000,2.483429,0.040000,-98859384687.514603,12987111641.868578,-13017681894.854166,17612655634.595646,0.244858,-0.245088,0.331833
-1.620000,0.120000,2.445911,0.040000,-99495217631.757339,10485695058.196537,-10521662260.398544,20082963333.312271,0.197760,-0.198031,0.378375
-1.580000,0.120000,2.408474,0.040000,-100147772966.086563,7357624323.175777,-7399392329.756062,22786849617.420959,0.138858,-0.139173,0.429317
-1.540000,0.120000,2.371120,0.040000,-100812036993.282547,3502462785.507793,-3550204904.432497,25694198530.248386,0.066258,-0.066618,0.484094
-1.500000,0.120000,2.333854,0.040000,-101481832438.527802,-1182791647.632062,1129330603.721122,28743917971.316799,-0.021982,0.021579,0.541552
-1.460000,0.120000,2.296680,0.040000,-102149654327.767502,-6795853595.941236,6737702808.589377,31829914200.250412,-0.127709,0.127271,0.599694
-1.420000,0.120000,2.259602,0.040000,-102806514901.312057,-13414687143.643091,13354326964.495338,34781288691.970848,-0.252399,0.251944,0.655300
-1.380000,0.120000,2.222626,0.040000,-103441821317.191956,-21069390684.418079,21012317544.808128,37331233630.710526,-0.396637,0.396207,0.703342
-1.340000,0.120000,2.185756,0.040000,-104043332833.099838,-29680869680.907372,29639852935.514263,39053983760.331810,-0.558973,0.558664,0.735800
-1.300000,0.120000,2.148998,0.040000,-104597300767.554047,-38906865770.383667,38914926732.143776,39184159336.079300,-0.733073,0.733134,0.738252
-1.260000,0.120000,2.112358,0.040000,-105089053616.663971,-47711155551.005623,47863487073.564926,35948295737.299698,-0.899767,0.900915,0.677287
-1.220000,0.120000,2.075842,0.040000,-105504763237.316864,-53118289748.691483,53709770735.834251,23766148563.550407,-1.004123,1.008580,0.447768
-1.180000,0.120000,2.039457,0.040000,-105836490206.507538,-46925070230.254707,48895963967.110596,-19153627659.245071,-0.895235,0.910088,-0.360865
-1.140000,0.120000,2.003210,0.040000,-106095751347.679382,-10626993189.954754,17354522074.043129,-187505874709.242188,-0.238244,0.288944,-3.532719
-1.100000,0.120000,1.967108,0.040000,-106341137689.694260,-8983185990.335220,176284374970.242859,-881821751579.641113,-1.114864,2.375684,-16.614033
-1.060000,0.120000,1.931160,0.040000,-106651017149.876511,-1444414793363.828857,8378171334495.880859,650404419921.093018,-66.404410,118.658807,12.253996
-1.020000,0.120000,1.895374,0.040000,-106034012408.342697,2055328884828.955811,14683373755685.861328,4365822423269.899414,-55.886471,182.033215,82.254625
-0.980000,0.120000,1.859759,0.040000,-41638969226.144951,-7878964683218.066406,-10404452469423.162109,1747576484404.611328,-45.103209,-92.684863,32.925354
-0.940000,0.120000,1.824327,0.040000,-35500140079.274086,-442451522665.219055,-8200663505412.738281,-3013735676373.575195,40.516346,-105.652865,-56.780527
-0.900000,0.120000,1.789087,0.040000,-30538414341.878239,158785476605.741425,-781210197469.834229,-2036210530243.844727,6.509663,-11.200400,-38.363387
-0.860000,0.120000,1.754052,0.040000,-26008864537.768578,-39806161578.267448,61916147395.866631,-369942286850.625977,-0.874941,1.041567,-6.969927
-0.820000,0.120000,1.719233,0.040000,-21427294463.669212,-143684721512.624268,150395409395.521545,-190707892939.436249,-2.745033,2.795607,-3.593047
-0.780000,0.120000,1.684644,0.040000,-16626128243.867823,-123243953632.958496,125031693297.274414,-190172959211.067139,-2.332092,2.345565,-3.582969
-0.740000,0.120000,1.650300,0.040000,-11631213201.471569,-63828656977.983490,64305106824.163132,-204941406018.982544,-1.205262,1.208853,-3.861215
-0.700000,0.120000,1.616216,0.040000,-6535159693.556779,6638593853.176454,-6684944900.931642,-208705241453.432251,0.125337,-0.125686,-3.932128
-0.660000,0.120000,1.582409,0.040000,-1449724950.835801,77017725763.275665,-77428169724.666122,-198215082267.641327,1.453379,-1.456472,-3.734487
-0.620000,0.120000,1.548897,0.040000,3513087308.747428,140506943305.876526,-141191207174.112244,-174755140379.830048,2.651100,-2.656257,-3.292488
-0.580000,0.120000,1.515700,0.040000,8252118203.890432,191979864505.998016,-192224038238.515808,-141509701305.618988,3.618392,-3.620232,-2.666125
-0.540000,0.120000,1.482838,0.040000,12684753242.523094,225997113026.212158,-220713671932.339966,-111183748968.428146,4.228054,-4.188236,-2.094766
-0.500000,0.120000,1.450335,0.040000,16751421832.458555,244361225904.438507,-255453727749.501770,-89477689161.334778,4.666604,-4.750200,-1.685812
0.500000,0.120000,0.727844,0.040000,65893441185.879051,-275350630784.692017,290697299647.466248,-121536461020.115906,-5.274508,5.390164,-2.289817
0.540000,0.120000,0.702408,0.040000,70464633664.425201,-256964845675.575439,251963815339.246399,-146431868056.854553,-4.813100,4.775411,-2.758861
0.580000,0.120000,0.678379,0.040000,75451469533.005157,-221539706374.664185,221823682342.382507,-181093671383.371460,-4.175542,4.177682,-3.411910
0.620000,0.120000,0.655910,0.040000,80791921433.791580,-167468374851.320038,168207313172.450562,-218972639410.147675,-3.159378,3.164947,-4.125571
0.660000,0.120000,0.635168,0.040000,86399208975.801819,-100415873994.998734,100865219540.536453,-245606306595.688812,-1.894433,1.897819,-4.627365
0.700000,0.120000,0.616327,0.040000,92166487521.885788,-25703747816.828201,25782675244.690121,-257434489241.631744,-0.484720,0.485314,-4.850215
0.740000,0.120000,0.599566,0.040000,97974791040.435715,50174866644.541260,-50513846229.565491,-252850468726.341217,0.947240,-0.949794,-4.763849
0.780000,0.120000,0.585064,0.040000,103703403357.858292,119434788826.008118,-120365476727.496155,-232925883469.676636,2.255481,-2.262495,-4.388459
0.820000,0.120000,0.572992,0.040000,109242545433.409714,170300643718.637421,-172791055870.263733,-205208027755.778809,3.222639,-3.241407,-3.866238
0.860000,0.120000,0.563507,0.040000,114513033695.127258,175722977656.694641,-182878163453.682098,-210215708516.603699,3.351165,-3.405088,-3.960586
0.900000,0.120000,0.556741,0.040000,119507036372.400620,140636131822.416718,15720149203.564348,-578695021687.725342,1.765913,-0.587576,-10.902950
0.940000,0.120000,0.552794,0.040000,124327830341.376556,344204417332.717468,1675188854371.832520,-848233200292.370605,-4.928951,20.147567,-15.981205
0.980000,0.120000,0.551725,0.040000,129120613180.886032,2144729166903.201660,2053497116381.576660,277264491267.416504,16.678836,14.959971,5.223824
1.020000,0.120000,0.551725,0.040000,146704767592.141907,-110483403628.300415,-3674857969706.376953,997294652842.087769,19.313836,-47.841047,18.789609
1.060000,0.120000,0.552794,0.040000,149264705799.239044,615837112827.797729,-2187117469526.951904,206988200125.126862,20.483878,-32.325411,3.899778
1.100000,0.120000,0.556741,0.040000,151157477871.515808,238205995136.628265,-275326202933.743347,-127036962343.642624,4.697749,-4.977495,-2.393450
1.140000,0.120000,0.563507,0.040000,152686008984.065094,202033891000.809235,-203206759078.261322,34776407133.951515,3.813065,-3.821904,0.655208
1.180000,0.120000,0.572992,0.040000,153891418853.884766,180375941053.078247,-180615281159.922455,73128740435.574539,3.399740,-3.401544,1.377788
1.220000,0.120000,0.585064,0.040000,154808479542.389923,155781369708.947113,-155744593971.727875,80868156792.498260,2.934803,-2.934526,1.523603
1.260000,0.120000,0.599566,0.040000,155476250264.898468,131619140043.633438,-131494775666.789734,80159290397.371780,2.479078,-2.478141,1.510248
1.300000,0.120000,0.616327,0.040000,155933253474.178009,109471960386.689178,-109324001307.534927,76430296168.615265,2.061679,-2.060564,1.439991
1.340000,0.120000,0.635168,0.040000,156214881648.869965,89836660901.698486,-89688518100.307800,71356075803.691879,1.691737,-1.690621,1.344390
1.380000,0.120000,0.655910,0.040000,156352547880.913422,72754389213.787369,-72615425887.209610,65667654055.342407,1.369949,-1.368902,1.237217
1.420000,0.120000,0.678379,0.040000,156373596569.367859,58080538872.737068,-57954572049.124420,59785149624.593323,1.093559,-1.092610,1.126387
1.460000,0.120000,0.702408,0.040000,156301525148.372986,45595458999.705490,-45483735893.188042,53977914897.967888,0.858413,-0.857571,1.016975
1.500000,0.120000,0.727844,0.040000,156156331177.875336,35054420082.951431,-34956851662.253685,48418719808.021591,0.659894,-0.659159,0.912237
1.540000,0.120000,0.754544,0.040000,155954901728.007477,26212715026.195278,-26128495259.487560,43211818038.611504,0.493387,-0.492752,0.814136
1.580000,0.120000,0.782379,0.040000,155711403764.932861,18838855903.988377,-18766817438.562115,38412334159.965744,0.354528,-0.353985,0.723711
1.620000,0.120000,0.811231,0.040000,155437653958.044556,12721199303.321690,-12660029561.526272,34040941040.229706,0.239329,-0.238868,0.641351
1.660000,0.120000,0.839041,0.040000,155143457075.844727,7670662570.487599,-7619034869.581119,30095018719.665642,0.144228,-0.143839,0.567008
1.700000,0.120000,0.867369,0.040000,154836908489.027191,3521086479.102809,-3477736325.575599,26556965262.530975,0.066094,-0.065768,0.500349
1.740000,0.120000,0.895937,0.040000,154524660114.867126,128228261.275963,-91993968.706359,23400225542.211651,0.002211,-0.001938,0.440874
1.780000,0.120000,0.923798,0.040000,154212151358.796570,-2631979343.801347,2662138866.309134,20593542597.050896,-0.049758,0.049986,0.387994
1.820000,0.120000,0.952523,0.040000,153903807803.386963,-4865496760.029691,4890498357.441450,18103863341.849648,-0.091810,0.091999,0.341087
1.860000,0.120000,0.980468,0.040000,153603210932.731964,-6662321920.344334,6682962863.670245,15898251201.576187,-0.125639,0.125794,0.299532
1.900000,0.120000,1.008749,0.040000,153313242310.261292,-8098561298.336066,8115528466.927958,13945082786.192823,-0.152677,0.152805,0.262733
1.940000,0.120000,1.037340,0.040000,153036205516.595062,-9238346278.385227,9252227418.083000,12214739973.716185,-0.174134,0.174239,0.230133
1.980000,0.120000,1.065219,0.040000,152773928910.354980,-10135556813.538609,10146852365.714399,10679954725.181335,-0.191024,0.191109,0.201217
2.020000,0.120000,1.093850,0.040000,152527851968.824280,-10835341117.122734,10844475737.210478,9315921301.895458,-0.204196,0.204265,0.175517
2.060000,0.120000,1.121895,0.040000,152299097640.386963,-11375435960.635860,11382769244.306284,8100257876.032528,-0.214361,0.214417,0.152614
2.100000,0.120000,1.150142,0.040000,152088532822.384796,-11787300808.230892,11793137003.597588,7012875053.327136,-0.222113,0.222157,0.132127
2.140000,0.120000,1.178749,0.040000,151896818780.535400,-12097083119.878139,12101679758.154675,6035790837.730373,-0.227942,0.227977,0.113718
2.180000,0.120000,1.206642,0.040000,151724453056.019012,-12326433429.984591,12330008910.761532,5152918552.014770,-0.232257,0.232284,0.097084
2.220000,0.120000,1.235201,0.040000,151571804165.955261,-12493188498.636459,12495928820.342096,4349844946.326177,-0.235394,0.235415,0.081954
2.260000,0.120000,1.264380,0.040000,151439140191.798492,-12611941115.397135,12614007731.217972,3613609246.732384,-0.237628,0.237644,0.068082
2.300000,0.120000,1.294138,0.040000,151326652169.151550,-12694539042.137121,12696105539.470295,2932490282.769830,-0.239181,0.239193,0.055250
2.340000,0.120000,1.324435,0.040000,151234473095.320740,-12750864494.269726,12752438101.586191,2295819474.848126,-0.240243,0.240254,0.043255
2.380000,0.120000,1.355236,0.040000,151162694325.215912,-12788574178.781855,12784116745.131542,1694396414.211002,-0.240919,0.240885,0.031923
2.420000,0.120000,1.386507,0.040000,151111397741.517395,-12813499639.555151,12787529118.163954,1264140561.892279,-0.241267,0.241071,0.023817
2.460000,0.120000,1.418216,0.040000,151080905015.427277,-12929751265.174057,12957429150.716080,1018484035.081603,-0.243760,0.243969,0.019189
-2.500000,0.160000,3.274675,0.040000,-92290771380.263275,20547433045112.273438,12790595891365.074219,5341975047045.532227,198.693213,52.549904,100.645907
-2.460000,0.160000,3.235948,0.040000,-92267786456.483337,4139513318838.275879,20103474223585.183594,3078643075585.334961,-59.034751,241.735527,58.003420
-2.420000,0.160000,3.197252,0.040000,-92313494037.981384,-399473301509.529480,6590282561191.629883,624870088646.627197,-42.517839,89.173213,11.772915
-2.380000,0.160000,3.158589,0.040000,-92388873507.340378,13554716225.236336,2853814551.140477,686712991.822217,0.162635,-0.038976,0.012938
-2.340000,0.160000,3.119960,0.040000,-92494505871.920837,19050149919.230316,-19047691085.707092,932825914.535456,0.358902,-0.358883,0.017575
-2.300000,0.160000,3.081366,0.040000,-92630620220.721375,19202708011.081379,-19201164983.943939,1214164229.779152,0.361781,-0.361770,0.022876
-2.260000,0.160000,3.042808,0.040000,-92797461118.495407,19380151020.503796,-19378969725.381294,1529741033.556762,0.365127,-0.365118,0.028821
-2.220000,0.160000,3.004287,0.040000,-92995312037.409210,19577867868.101051,-19577076309.681522,1888135626.520645,0.368854,-0.368848,0.035574
-2.180000,0.160000,2.965806,0.040000,-93224488736.546616,19789163743.152836,-19788854241.450237,2298912637.486026,0.372838,-0.372835,0.043313
-2.140000,0.160000,2.927366,0.040000,-93485328554.518692,20005620544.498203,-20005906564.614555,2772827507.588141,0.376919,-0.376921,0.052242
-2.100000,0.160000,2.888968,0.040000,-93778176914.092590,20216831123.851501,-20217848096.126114,3322036049.677874,0.380903,-0.380910,0.062589
-2.060000,0.160000,2.850614,0.040000,-94103370637.592102,20410021953.022991,-20411931651.515343,3960310034.911258,0.384547,-0.384562,0.074615
-2.020000,0.160000,2.812306,0.040000,-94461217469.127106,20569593553.169750,-20572589381.005943,4703251622.711246,0.387560,-0.387583,0.088612
-1.980000,0.160000,2.774045,0.040000,-94851971067.242371,20676568455.697037,-20680881563.318089,5568493510.725816,0.389583,-0.389615,0.104914
-1.940000,0.160000,2.735835,0.040000,-95275800583.473419,20707932559.491051,-20713838851.816795,6575863516.795431,0.390183,-0.390227,0.123893
-1.900000,0.160000,2.697676,0.040000,-95732753771.641312,20635854556.115276,-20643682599.597549,7747480536.772868,0.388836,-0.388895,0.145967
-1.860000,0.160000,2.659571,0.040000,-96222712377.611267,20426767974.961842,-20436907718.566017,9107732004.736570,0.384909,-0.384986,0.171595
-1.820000,0.160000,2.621523,0.040000,-96745338339.576630,20040302066.314552,-20053214115.573429,10683059210.041370,0.377644,-0.377741,0.201275
-1.780000,0.160000,2.583534,0.040000,-97300009087.483368,19428052542.159027,-19444277428.211521,12501443601.695728,0.366127,-0.366250,0.235534
-1.740000,0.160000,2.545606,0.040000,-97885739974.860092,18532193325.442318,-18552359717.623547,14591441339.132721,0.349271,-0.349423,0.274911
-1.700000,0.160000,2.507743,0.040000,-98501091623.570938,17283949398.856251,-17308779409.990795,16980550856.318285,0.325780,-0.325967,0.319923
-1.660000,0.160000,2.469947,0.040000,-99144059742.648376,15601984042.371113,-15632292501.624308,19692614294.082718,0.294122,-0.294350,0.371020
-1.620000,0.160000,2.432222,0.040000,-99811944850.220901,13390809519.528866,-13427492108.791946,22743842549.730278,0.252498,-0.252774,0.428507
-1.580000,0.160000,2.394570,0.040000,-100501199372.917038,10539420706.480558,-10583422906.262852,26136907677.797146,0.198818,-0.199149,0.492434
-1.540000,0.160000,2.356996,0.040000,-101207249966.006363,6920491511.274688,-6972746353.215060,29852351086.357800,0.130681,-0.131075,0.562436
-1.500000,0.160000,2.319503,0.040000,-101924293815.285004,2390673464.441339,-2451992641.427135,33836271119.574673,0.045388,-0.045850,0.637495
-1.460000,0.160000,2.282095,0.040000,-102645069463.417313,-3207251632.488394,3136342766.051229,37982740609.995956,-0.060026,0.059491,0.715617
-1.420000,0.160000,2.244777,0.040000,-103360605659.697662,-10039719650.942812,9959154983.960310,42108166988.714447,-0.188699,0.188092,0.793342
-1.380000,0.160000,2.207552,0.040000,-104059955545.894470,-18276669061.801495,18186674690.715565,45911080217.264275,-0.343834,0.343156,0.864991
-1.340000,0.160000,2.170426,0.040000,-104729924153.760635,-28097908708.630108,27996757233.117901,48898482989.547966,-0.528809,0.528047,0.921276
-1.300000,0.160000,2.133404,0.040000,-105354772878.694519,-39780913737.862442,39652564594.243729,50218255945.101379,-0.748770,0.747803,0.946141
-1.260000,0.160000,2.096492,0.040000,-105915731236.434616,-54199726759.624069,53954765947.773697,48200538696.438370,-1.019770,1.017924,0.908126
-1.220000,0.160000,2.059695,0.040000,-106389381613.619247,-75268699307.000839,74470773694.271744,38998627763.168564,-1.413596,1.407583,0.734757
-1.180000,0.160000,2.023019,0.040000,-106740371271.689911,-121477982791.416931,118060574502.614532,12740269537.173155,-2.269400,2.243645,0.240034
-1.140000,0.160000,1.986472,0.040000,-106886980101.351883,-279551454566.115662,262702584780.377258,-54631344149.938301,-5.171679,5.044702,-1.029286
-1.100000,0.160000,1.950060,0.040000,-106538344719.537216,-932494656763.751831,817382930815.293335,-186415720885.866028,-16.918108,16.050600,-3.512180
-1.060000,0.160000,1.913791,0.040000,-104429406723.289047,-3063024435792.519531,4339266839786.690918,2186213013824.733154,-64.922700,74.540759,41.189521
-1.020000,0.160000,1.877675,0.040000,-95139520803.373886,-4420913336721.439453,8363475323153.704102,5465084658132.219727,-105.576616,135.288677,102.965363
-0.980000,0.160000,1.841718,0.040000,-68169012433.651970,-2756311337453.940430,321087941529.320557,86105188132.939972,-38.166197,19.813789,1.622272
-0.940000,0.160000,1.805932,0.040000,-41969724058.960052,578514348177.175171,-8476392959878.608398,-5287725374313.405273,55.539729,-115.059974,-99.623811
-0.900000,0.160000,1.770326,0.040000,-32644846625.552505,1528332146061.520264,-4405897004128.340820,-2055286459391.840088,45.059161,-66.745157,-38.722788
-0.860000,0.160000,1.734911,0.040000,-27497019601.861111,81979280815.561661,-21521706900.961842,136502899670.614456,1.202820,-0.747198,2.571794
-0.820000,0.160000,1.699700,0.040000,-22653221529.808147,-186018905083.824585,192352069885.644592,-147027764173.889954,-3.540500,3.588228,-2.770088
-0.780000,0.160000,1.664706,0.040000,-17539337985.148144,-159163667383.511658,160086643037.212006,-244742348815.530029,-3.003953,3.010908,-4.611088
-0.740000,0.160000,1.629942,0.040000,-12175656518.611797,-79502271419.301819,79762133369.863632,-281714994774.114075,-1.499338,1.501296,-5.307674
-0.700000,0.160000,1.595423,0.040000,-6685717306.247096,10338395649.964611,-10482198615.103983,-289346413435.132324,0.195594,-0.196678,-5.451454
-0.660000,0.160000,1.561165,0.040000,-1212163109.169367,98338340232.442184,-98939916575.956879,-273854179497.874298,1.856152,-1.860685,-5.159571
-0.620000,0.160000,1.527187,0.040000,4104955439.942142,176076062650.985901,-177047495045.039917,-238779417647.595856,3.322866,-3.330187,-4.498743
-0.580000,0.160000,1.493508,0.040000,9141817444.134382,236872835500.478668,-237446610820.621490,-189516338194.133087,4.466065,-4.470389,-3.570598
-0.540000,0.160000,1.460147,0.040000,13800928385.389034,277672584149.195007,-288114440304.954224,-140526004016.948792,5.290532,-5.369224,-2.647591
-0.500000,0.160000,1.427128,0.040000,18016495903.085583,290866253099.192688,-339853708434.661011,-112814076359.936813,5.756974,-6.126155,-2.125483
0.500000,0.160000,0.698012,0.040000,64150804234.591904,-328347800850.861694,384433428443.499817,-145489904313.657593,-6.503269,6.925943,-2.741114
0.540000,0.160000,0.671447,0.040000,68920893547.233124,-315412663790.668945,327593951762.862183,-176766435161.665222,-6.011408,6.103209,-3.330382
0.580000,0.160000,0.646268,0.040000,74194554550.663452,-272266077745.115265,272913508754.127777,-231669951977.857269,-5.133310,5.138189,-4.364796
0.620000,0.160000,0.622641,0.040000,79902468938.678406,-207571088906.177216,208629456049.416595,-286899133250.186646,-3.916742,3.924718,-5.405346
0.660000,0.160000,0.600752,0.040000,85940901706.505402,-124441688124.000183,125095486931.788132,-326189868156.394714,-2.348249,2.353176,-6.145606
0.700000,0.160000,0.580795,0.040000,92177454258.590057,-30131284868.661404,30260118635.780262,-343687595093.625366,-0.568419,0.569390,-6.475274
0.740000,0.160000,0.562977,0.040000,98462030817.133560,66302007137.602150,-66676719889.218704,-336512818382.804993,1.251286,-1.254110,-6.340097
0.780000,0.160000,0.547507,0.040000,104641215683.390320,155066012784.648804,-155853126319.849579,-304068483249.612549,2.925982,-2.931914,-5.728826
0.820000,0.160000,0.534587,0.040000,110574367963.833710,221088320970.105499,-223225119841.523956,-240993968356.137054,4.177510,-4.193613,-4.540466
0.860000,0.160000,0.524408,0.040000,116161662512.526154,202539317215.981781,-218433354472.000000,-115097755261.624023,3.905794,-4.025575,-2.168508
0.900000,0.160000,0.517131,0.040000,121469797636.280441,-121055854248.510376,888774189338.191895,-626992808472.301514,-6.620040,12.405743,-11.812908
0.940000,0.160000,0.512879,0.040000,127421757590.384857,221187328670.205139,1822751738484.201660,-1475544428717.092529,-7.385402,22.789000,-27.800112
0.980000,0.160000,0.511727,0.040000,137177435501.284866,1092683727943.265869,-504912871285.158081,-157355332688.530914,17.264612,-12.835034,-2.964666
1.020000,0.160000,0.511727,0.040000,146421933052.695679,1420119605724.636230,-2353593310299.388672,1314384410744.691162,32.032032,-39.066907,24.763764
1.060000,0.160000,0.512879,0.040000,150837569959.161957,990534436751.206909,-1264874629806.806885,638697370249.631836,20.212861,-22.280353,12.033429
1.100000,0.160000,0.517131,0.040000,153129619683.717285,447783338491.420776,-420846968467.840332,75161072166.168213,8.284249,-8.081250,1.416078
1.140000,0.160000,0.524408,0.040000,154641814704.934875,261433510271.617065,-257363943965.019440,98242750738.674591,4.902557,-4.871888,1.850950
1.180000,0.160000,0.534587,0.040000,155724210192.902466,194306207675.786194,-193336290084.641876,108858317707.878723,3.655359,-3.648050,2.050954
1.220000,0.160000,0.547507,0.040000,156493103871.670074,156415307379.959717,-156044430576.832336,109382156107.590546,2.944859,-2.942064,2.060823
1.260000,0.160000,0.562977,0.040000,157010931477.319061,127598654999.056366,-127358821276.693207,104906301444.443710,2.402677,-2.400870,1.976496
1.300000,0.160000,0.580795,0.040000,157324187137.008148,103497099468.790253,-103295568401.751282,97999427620.763367,1.948806,-1.947287,1.846366
1.340000,0.160000,0.600752,0.040000,157471531027.994263,83009820900.807953,-82830619837.809616,89968343754.692108,1.562940,-1.561590,1.695056
1.380000,0.160000,0.622641,0.040000,157485784881.073975,65660262759.845741,-65501622916.950790,81559495713.873154,1.236181,-1.234985,1.536628
1.420000,0.160000,0.646268,0.040000,157394740790.336365,51074993344.519661,-50936616346.866524,73232330073.351929,0.961500,-0.960458,1.379740
1.460000,0.160000,0.671447,0.040000,157221766191.933411,38900051652.650398,-38780994985.612350,65271274226.829269,0.732227,-0.731329,1.229749
1.500000,0.160000,0.698012,0.040000,156986370333.353424,28800023966.025532,-28698706964.383213,57842940038.589165,0.542036,-0.541273,1.089795
1.540000,0.160000,0.725811,0.040000,156704740187.252441,20466837463.980652,-20381346773.023582,51032491088.279655,0.385124,-0.384480,0.961482
1.580000,0.160000,0.754706,0.040000,156390232895.470978,13625288496.806118,-13553628567.202356,44869492117.556549,0.256303,-0.255763,0.845367
1.620000,0.160000,0.782479,0.040000,156053815966.363892,8034584369.887019,-7974834248.607530,39346814074.240479,0.151039,-0.150588,0.741317
1.660000,0.160000,0.810810,0.040000,155704452648.526001,3487179648.389581,-3437576914.667802,34434348060.308144,0.065420,-0.065046,0.648763
1.700000,0.160000,0.839397,0.040000,155349434238.207123,-193884983.451175,234908160.394786,30088742239.507244,-0.003885,0.004194,0.566889
1.740000,0.160000,0.867229,0.040000,154994663505.955017,-3158307569.555671,3192117282.710086,26260129102.589458,-0.059695,0.059950,0.494756
1.780000,0.160000,0.895982,0.040000,154644894517.778259,-5532000263.552547,5559769877.449607,22896624308.386127,-0.104383,0.104592,0.431386
1.820000,0.160000,0.923905,0.040000,154303934386.310303,-7420424964.313972,7443152208.214396,19947213178.240948,-0.139934,0.140105,0.375817
1.860000,0.160000,0.952187,0.040000,153974812276.281128,-8911641984.912327,8930169243.706989,17363496991.150856,-0.168005,0.168145,0.327138
1.900000,0.160000,0.980795,0.040000,153659920537.023956,-10079011767.761501,10094046753.486185,15100651677.981003,-0.189979,0.190093,0.284505
1.940000,0.160000,1.008650,0.040000,153361132283.994934,-10983540238.284412,10995675528.455391,13117856371.369606,-0.207005,0.207096,0.247148
1.980000,0.160000,1.037301,0.040000,153079899183.478851,-11675885803.332960,11685616526.488644,11378376043.212671,-0.220035,0.220109,0.214375
2.020000,0.160000,1.065333,0.040000,152817332654.428589,-12198059229.454065,12205798644.620926,9849427556.302359,-0.229862,0.229921,0.185569
2.060000,0.160000,1.093577,0.040000,152574271210.407440,-12584852475.864855,12590945454.647562,8501918138.868973,-0.237140,0.237186,0.160181
2.100000,0.160000,1.122200,0.040000,152351336230.928192,-12865032654.572060,12869767214.667959,7310116198.914161,-0.242411,0.242447,0.137727
2.140000,0.160000,1.150073,0.040000,152148978075.481812,-13062334894.327936,13065951992.765306,6251293726.664771,-0.246122,0.246150,0.117778
2.180000,0.160000,1.178645,0.040000,151967514131.477905,-13196284326.949539,13198986135.478416,5305365061.299782,-0.248641,0.248661,0.099956
2.220000,0.160000,1.207866,0.040000,151807160113.570801,-13282873388.502731,13284830160.671585,4454536807.538122,-0.250268,0.250283,0.083926
2.260000,0.160000,1.237690,0.040000,151668055699.997803,-13335115046.964239,13336468828.368059,3682976843.918314,-0.251249,0.251259,0.069389
2.300000,0.160000,1.268075,0.040000,151550285392.205139,-13363462020.324638,13364298487.832701,2976504895.583592,-0.251780,0.251786,0.056079
2.340000,0.160000,1.298980,0.040000,151453895252.328827,-13375734942.501266,13375716027.716585,2322290533.969098,-0.252006,0.252006,0.043753
2.380000,0.160000,1.330370,0.040000,151378904890.271027,-13377598042.428373,13381298742.446548,1708843621.241508,-0.252063,0.252091,0.032196
2.420000,0.160000,1.362212,0.040000,151325296438.664612,-13373816450.749422,13390095242.530106,1273705290.893492,-0.252062,0.252185,0.023997
2.460000,0.160000,1.394474,0.040000,151292756891.568634,-13263547899.678036,13217602294.413647,1025395186.561807,-0.249633,0.249287,0.019319
-2.500000,0.200000,3.264953,0.040000,0.000100,-14441705285223.537109,45822710365453.804688,3939385416483.451660,-449.460998,685.955529,74.220305
-2.460000,0.200000,3.226109,0.040000,-92339139638.096664,-132869758369.537598,27490075112149.390625,2213958427879.582520,-157.131026,363.301269,41.712260
-2.420000,0.200000,3.187294,0.040000,-92384317208.891006,-1890058236170.158447,8783464615466.207031,1469027578498.556396,-74.572525,126.522834,27.677331
-2.380000,0.200000,3.148509,0.040000,-92460436993.996536,-95379073559.458664,312508078353.585632,5354653091.213259,-3.024248,4.660582,0.100885
-2.340000,0.200000,3.109754,0.040000,-92567246188.772415,19302782128.442902,-19301301438.591251,781523968.322913,0.363667,-0.363656,0.014724
-2.300000,0.200000,3.071032,0.040000,-92704944043.207443,19485886079.563927,-19483965749.180164,1030860078.275359,0.367115,-0.367100,0.019422
-2.260000,0.200000,3.032342,0.040000,-92873822351.017090,19704115834.937386,-19702385629.619946,1318699141.104741,0.371227,-0.371214,0.024845
-2.220000,0.200000,2.993687,0.040000,-93074229873.548340,19952446787.561718,-19951029193.175117,1654816355.738438,0.375908,-0.375897,0.031178
-2.180000,0.200000,2.955068,0.040000,-93306563456.781723,20225293280.592106,-20224274188.148434,2050203986.138109,0.381050,-0.381043,0.038627
-2.140000,0.200000,2.916486,0.040000,-93571259046.744324,20515678898.515476,-20515157898.679295,2517319771.674350,0.386524,-0.386520,0.047428
-2.100000,0.200000,2.877943,0.040000,-93868780500.455383,20814892290.808140,-20814989972.989460,3070360600.960013,0.392165,-0.392166,0.057847
-2.060000,0.200000,2.839440,0.040000,-94199605615.412537,21112113671.434742,-21112976862.184639,3725555068.492549,0.397769,-0.397776,0.070192
-2.020000,0.200000,2.800979,0.040000,-94564208777.887527,21393955629.745106,-21395763569.118111,4501469602.236006,0.403085,-0.403098,0.084810
-1.980000,0.200000,2.762562,0.040000,-94963039493.615814,21643896254.736805,-21646868140.731434,5419317921.537121,0.407800,-0.407823,0.102103
-1.940000,0.200000,2.724190,0.040000,-95396495891.777176,21841580353.339039,-21845984580.281219,6503255732.420485,0.411533,-0.411566,0.122525
-1.900000,0.200000,2.685866,0.040000,-95864892081.635620,21961959177.519291,-21968124635.605942,7780630901.066950,0.413811,-0.413857,0.146592
-1.860000,0.200000,2.647591,0.040000,-96368417982.267838,21974232732.628830,-21982562573.992718,9282142259.507631,0.414054,-0.414117,0.174881
-1.820000,0.200000,2.609368,0.040000,-96907089929.322266,21840551743.015209,-21851540031.023624,11041835443.507879,0.411551,-0.411634,0.208035
-1.780000,0.200000,2.571199,0.040000,-97480689977.588715,21514429275.541672,-21528680874.233177,13096828666.081987,0.405425,-0.405532,0.246752
-1.740000,0.200000,2.533087,0.040000,-98088691353.079727,20938806076.698719,-20957059951.900982,15486610942.242903,0.394602,-0.394740,0.291777
-1.700000,0.200000,2.495034,0.040000,-98730166954.046738,20043711212.468616,-20066866893.374828,18251684506.881306,0.377766,-0.377941,0.343872
-1.660000,0.200000,2.457043,0.040000,-99403677153.266205,18743464750.477612,-18772610889.966629,21431224904.875389,0.353302,-0.353522,0.403777
-1.620000,0.200000,2.419116,0.040000,-100107132422.875015,16933388735.038534,-16969831311.436615,25059297599.704792,0.319241,-0.319515,0.472132
-1.580000,0.200000,2.381257,0.040000,-100837625520.031158,14486036041.109331,-14531321682.320759,29158988419.744167,0.273181,-0.273523,0.549372
-1.540000,0.200000,2.343470,0.040000,-101591227206.812363,11247022374.908361,-11302950202.811384,33733565732.412968,0.212217,-0.212638,0.635560
-1.500000,0.200000,2.305757,0.040000,-102362738851.072083,7030642954.187593,-7099260032.904528,38753488866.240372,0.132849,-0.133366,0.730138
-1.460000,0.200000,2.268122,0.040000,-103145394910.927734,1615462957.488918,-1699059476.233885,44137734876.897720,0.030909,-0.031539,0.831581
-1.420000,0.200000,2.230570,0.040000,-103930508213.386459,-5260500963.863017,5159281897.329512,49727717180.862350,-0.098539,0.097776,0.936899
-1.380000,0.200000,2.193104,0.040000,-104707050018.737076,-13908417354.411755,13785853590.974417,55252977735.500755,-0.261350,0.260426,1.040998
-1.340000,0.200000,2.155730,0.040000,-105461149689.926743,-24716684869.306095,24564711374.445316,60294601746.214920,-0.464818,0.463672,1.135985
-1.300000,0.200000,2.118451,0.040000,-106175463889.889404,-38258058858.653023,38051506699.354561,64287883475.232292,-0.719637,0.718080,1.211221
-1.260000,0.200000,2.081273,0.040000,-106828225861.501511,-55683155799.050697,55333203104.894363,66779863644.901077,-1.047125,1.044488,1.258171
-1.220000,0.200000,2.044202,0.040000,-107391289090.297623,-80047915832.395752,79240881110.859406,68991162607.437408,-1.503588,1.497506,1.299833
-1.180000,0.200000,2.007243,0.040000,-107824904523.110504,-120187475889.264450,117870328831.576813,81689149366.880402,-2.251305,2.233842,1.539071
-1.140000,0.200000,1.970404,0.040000,-108062987829.012207,-198294973862.691895,191491708099.573212,162918944669.733948,-3.697539,3.646268,3.069487
-1.100000,0.200000,1.933689,0.040000,-107979829886.105133,-331085055125.583252,300748187697.141113,586289907795.463989,-6.066365,5.837739,11.046042
-1.060000,0.200000,1.897108,0.040000,-107392216951.224991,-138459325043.290466,402392128385.066223,2533766483691.974121,-4.100448,6.089507,47.737629
-1.020000,0.200000,1.860667,0.040000,-106735362603.961594,671930504575.207642,8761093595147.158203,3355867633149.694336,-40.657533,111.746989,63.226492
-0.980000,0.200000,1.824375,0.040000,-116832979798.813507,12242405956283.357422,17367303828206.027344,-1026983461300.475586,63.294796,159.850843,-19.348964
-0.940000,0.200000,1.788242,0.040000,-32311314776.554485,-4792944847879.288086,-15202726843012.017578,-3935184209854.163574,22.717154,-173.409173,-74.141152
-0.900000,0.200000,1.752277,0.040000,-32444670308.079712,270535548594.006104,-8272618013073.580078,-1363103864643.405762,50.326208,-110.631757,-25.681667
-0.860000,0.200000,1.716490,0.040000,-29031583110.475056,-733878378995.840820,478810407552.904907,161362697906.717346,-12.385006,10.462754,3.040167
-0.820000,0.200000,1.680893,0.040000,-24209181392.789650,-408575328434.283875,395772748168.996887,-251973096818.459991,-7.625434,7.528950,-4.747319
-0.780000,0.200000,1.645499,0.040000,-18712909591.811771,-226945464593.788757,224859211455.242737,-346663544797.701233,-4.263992,4.248270,-6.531342
-0.740000,0.200000,1.610320,0.040000,-12848679331.386723,-102878866906.224594,103057547330.067444,-384879069605.635620,-1.939307,1.940654,-7.251345
-0.700000,0.200000,1.575371,0.040000,-6819367602.442451,16098631174.028681,-16264066541.248055,-393067371403.736328,0.304243,-0.305489,-7.405617
-0.660000,0.200000,1.540668,0.040000,-815370260.224381,130253315363.956116,-131149413902.973328,-369484911360.246399,2.459113,-2.465866,-6.961310
-0.620000,0.200000,1.506228,0.040000,4981606857.317920,228794108350.011414,-230240518386.284424,-317240028973.041565,4.318789,-4.329689,-5.976986
-0.580000,0.200000,1.472068,0.040000,10414695528.908054,302635173525.109497,-304345054613.497070,-244995241322.761444,5.711487,-5.724373,-4.615852
-0.540000,0.200000,1.438211,0.040000,15366114009.817474,347051674723.845886,-361637401575.539978,-174381257605.771271,6.621096,-6.731017,-3.285444
-0.500000,0.200000,1.404676,0.040000,19763610875.693283,355705345746.457153,-396761335485.048584,-118276193070.465927,6.933751,-7.243158,-2.228392
-0.460000,0.200000,1.371487,0.040000,23578925737.756428,360718880855.868042,-423221844020.853943,-52578564234.022278,7.149430,-7.620467,-0.990611
0.460000,0.200000,0.698187,0.040000,57517792823.068512,-406068502090.265320,475621620434.767334,-76000100968.283035,-8.043692,8.567861,-1.431886
0.500000,0.200000,0.669242,0.040000,61864827358.222069,-401062224671.966675,446903994111.537354,-149508122332.120392,-7.815350,8.160825,-2.816820
0.540000,0.200000,0.641487,0.040000,66867667292.692413,-392816848215.727722,409071366194.564758,-212206003458.534027,-7.492771,7.615268,-3.998084
0.580000,0.200000,0.615082,0.040000,72497492689.902908,-345644102252.040161,347513480324.646606,-290743900792.911194,-6.522701,6.536789,-5.477784
0.620000,0.200000,0.590209,0.040000,78677566865.453751,-266358343976.114105,267944417956.288452,-371049666361.468445,-5.027310,5.039263,-6.990791
0.660000,0.200000,0.567068,0.040000,85281425428.139435,-160026974935.358246,161018276936.931519,-429106053018.061157,-3.020604,3.028075,-8.084607
0.700000,0.200000,0.545882,0.040000,92139824855.808533,-36726088720.704834,36886199766.222946,-455140745732.907654,-0.692846,0.694052,-8.575115
0.740000,0.200000,0.526884,0.040000,99056685310.863144,89896894065.115494,-90497593517.204193,-445064835111.175537,1.697105,-1.701632,-8.385280
0.780000,0.200000,0.510321,0.040000,105830372959.681793,208884908031.132629,-209303297673.026459,-402053847559.548828,3.937878,-3.941031,-7.574928
0.820000,0.200000,0.496435,0.040000,112269927641.323730,327733607906.448181,-324929379633.971558,-328316565198.727539,6.158841,-6.137708,-6.185674
0.860000,0.200000,0.485456,0.040000,118180809339.655045,474240834587.316895,-405947932170.052979,-166244587021.216919,8.548969,-8.034298,-3.132144
0.900000,0.200000,0.477586,0.040000,123270271685.609375,273220020321.520569,1851280272099.012939,-519409285554.022766,-6.860422,22.871148,-9.785972
0.940000,0.200000,0.472978,0.040000,126866603026.585648,1685490384918.599121,3619783150830.279785,-1161809194417.633057,1.769287,38.212484,-21.889159
0.980000,0.200000,0.471730,0.040000,152279597332.365417,-2849503767497.458008,-5008837458927.522461,-377071705053.868835,-9.269592,-49.952690,-7.104250
1.020000,0.200000,0.471730,0.040000,151966227469.327301,112693066088.385269,-2604085244318.825195,857840264601.759033,16.204985,-34.980694,16.162208
1.060000,0.200000,0.472978,0.040000,154053076175.044952,261344880154.349548,-327478446027.988159,753689312236.971680,5.297687,-5.796085,14.199944
1.100000,0.200000,0.477586,0.040000,155759083790.524078,294309135168.013855,-287581369301.299255,285251774904.186218,5.506928,-5.456226,5.374309
1.140000,0.200000,0.485456,0.040000,157000761827.893799,235999255071.235352,-234505552886.450775,179880454026.743988,4.437920,-4.426663,3.389052
1.180000,0.200000,0.496435,0.040000,157864135681.980682,187435146084.072845,-186751233305.754395,154097786651.439941,3.527521,-3.522367,2.903292
1.220000,0.200000,0.510321,0.040000,158426679804.079865,149757423140.638367,-149360193979.510651,142462327490.732880,2.819271,-2.816278,2.684073
1.260000,0.200000,0.526884,0.040000,158748988745.632660,119222349614.300156,-118926382539.802597,131898026103.830780,2.244545,-2.242315,2.485035
1.300000,0.200000,0.545882,0.040000,158880079845.749359,93973289046.090027,-93727097849.892334,120610128071.221771,1.769120,-1.767264,2.272365
1.340000,0.200000,0.567068,0.040000,158860435248.434662,73054544821.760300,-72844659250.652908,108914196274.206970,1.375204,-1.373622,2.052007
1.380000,0.200000,0.590209,0.040000,158723582985.185364,55803704854.056183,-55625492842.076385,97341706765.608078,1.050367,-1.049024,1.833974
1.420000,0.200000,0.615082,0.040000,158497173299.533539,41662134773.427864,-41512324660.875259,86294253490.744843,0.784092,-0.782963,1.625834
1.460000,0.200000,0.641487,0.040000,158203876024.540833,30134415936.844349,-30009663335.440742,76018604748.924011,0.567045,-0.566105,1.432235
1.500000,0.200000,0.669242,0.040000,157862173621.825623,20784380546.489265,-20681270297.961979,66640194979.641998,0.391007,-0.390230,1.255540
1.540000,0.200000,0.698187,0.040000,157487059063.959503,13235131245.854513,-13150390553.659578,58199740705.335991,0.248879,-0.248240,1.096517
1.580000,0.200000,0.725919,0.040000,157090639105.545349,7166456998.266430,-7097109825.138551,50682608564.239639,0.134628,-0.134106,0.954890
1.620000,0.200000,0.754253,0.040000,156682647067.410889,2309784552.954360,-2253221959.098522,44040350617.121735,0.043198,-0.042772,0.829746
1.660000,0.200000,0.782861,0.040000,156270873104.963806,-1558096719.058503,1604105808.517460,38205792339.282295,-0.029615,0.029962,0.719819
1.700000,0.200000,0.810660,0.040000,155861521914.807068,-4621538744.435667,4658870570.156467,33103234463.979721,-0.087283,0.087565,0.623684
1.740000,0.200000,0.839446,0.040000,155459508234.640930,-7032173302.810747,7062388051.132540,28655100343.423420,-0.132661,0.132889,0.539879
1.780000,0.200000,0.867344,0.040000,155068699933.511963,-8914398788.567459,8938784220.517422,24786069757.063122,-0.168090,0.168274,0.466984
1.820000,0.200000,0.895625,0.040000,154692117463.233459,-10370120896.922277,10389734887.498697,21425478213.475006,-0.195490,0.195638,0.403668
1.860000,0.200000,0.924252,0.040000,154332097257.291138,-11482759659.879375,11498468797.536705,18508548446.998917,-0.216431,0.216549,0.348712
1.900000,0.200000,0.952082,0.040000,153990425494.223267,-12320587514.928186,12333100693.821398,15976857355.878304,-0.232198,0.232292,0.301013
1.940000,0.200000,0.980753,0.040000,153668447573.839996,-12939483357.958052,12949380265.464188,13778319841.212782,-0.243843,0.243918,0.259592
1.980000,0.200000,1.008770,0.040000,153367157720.449219,-13385190308.491385,13392945186.498964,11866882359.912289,-0.252229,0.252287,0.223579
2.020000,0.200000,1.037012,0.040000,153087272332.661835,-13695158947.925501,13701160202.865662,10202055656.839304,-0.258059,0.258104,0.192213
2.060000,0.200000,1.065653,0.040000,152829290035.255402,-13900048121.622950,13904614403.458286,8748371573.872789,-0.261911,0.261945,0.164824
2.100000,0.200000,1.093505,0.040000,152593540839.743103,-14024944771.080566,14028338112.742146,7474817925.718226,-0.264257,0.264283,0.140830
2.140000,0.200000,1.122091,0.040000,152380226369.861694,-14090354083.201801,14092790624.308197,6354284299.530637,-0.265484,0.265503,0.119718
2.180000,0.200000,1.151358,0.040000,152189452739.891235,-14113002126.933195,14114660881.273542,5363037403.715274,-0.265907,0.265919,0.101043
2.220000,0.200000,1.181254,0.040000,152021257373.020813,-14106485392.937269,14107515559.420795,4480235174.516109,-0.265780,0.265788,0.084410
2.260000,0.200000,1.211733,0.040000,151875630801.454865,-14081796809.411438,14082325978.335800,3687482797.670633,-0.265312,0.265316,0.069474
2.300000,0.200000,1.242752,0.040000,151752534292.374115,-14047780314.933187,14047953773.652170,2968430873.581349,-0.264669,0.264671,0.055927
2.340000,0.200000,1.274272,0.040000,151651914047.038727,-14011899911.842270,14012228756.761963,2308427318.926722,-0.263994,0.263997,0.043492
2.380000,0.200000,1.306256,0.040000,151573713772.870483,-13980329740.737209,13975035266.279749,1694795012.258165,-0.263368,0.263328,0.031931
2.420000,0.200000,1.338672,0.040000,151517905499.645752,-13960512457.447598,13944032622.683470,1260144707.653353,-0.262931,0.262807,0.023742
2.460000,0.200000,1.371487,0.040000,151484757151.571442,-14055990145.445528,14111029976.881016,1013335965.998415,-0.265134,0.265549,0.019092
-2.500000,0.240000,3.255693,0.040000,-19890572.382810,-14196660417644.500000,45987407436885.640625,-3805562204002.963379,-447.160143,686.742584,-71.698998
-2.460000,0.240000,3.216737,0.040000,-92377922097.383621,-122875222092.214828,27496145837774.562500,-2198797863304.586182,-157.033527,363.324841,-41.426626
-2.420000,0.240000,3.177808,0.040000,-92424501078.303314,-1889776400968.742432,8785556450991.196289,-1465518063514.035156,-74.580631,126.548829,-27.611210
-2.380000,0.240000,3.138905,0.040000,-92501348223.578201,-95224250766.394714,312387938408.343750,-4365718140.690687,-3.021527,4.658123,-0.082253
-2.340000,0.240000,3.100031,0.040000,-92609109648.295593,19514030547.176319,-19510600005.829197,600626280.793870,0.367636,-0.367610,0.011316
-2.300000,0.240000,3.061185,0.040000,-92748096709.097321,19734266279.893520,-19731664958.720581,809220060.228436,0.371790,-0.371771,0.015246
-2.260000,0.240000,3.022370,0.040000,-92918662421.949020,19997821108.686855,-19995457774.001240,1059580732.433594,0.376757,-0.376739,0.019963
-2.220000,0.240000,2.983586,0.040000,-93121228228.567200,20302274372.725220,-20300148039.670841,1362470300.602713,0.382495,-0.382479,0.025670
-2.180000,0.240000,2.944834,0.040000,-93356280898.925339,20643596181.878441,-20641768752.772594,1730056503.755664,0.388927,-0.388913,0.032595
-2.140000,0.240000,2.906116,0.040000,-93624366091.864990,21016560488.264225,-21015112724.056610,2176225207.887269,0.395956,-0.395945,0.041001
-2.100000,0.240000,2.867434,0.040000,-93926079970.561874,21414520503.549622,-21413553089.804775,2716921022.443398,0.403457,-0.403449,0.051188
-2.060000,0.240000,2.828788,0.040000,-94262058537.548737,21829066032.339508,-21828704723.912907,3370521604.787245,0.411270,-0.411267,0.063503
-2.020000,0.240000,2.790180,0.040000,-94632964140.119919,22249584613.500336,-22249986995.924763,4158245281.336564,0.419197,-0.419200,0.078344
-1.980000,0.240000,2.751612,0.040000,-95039468441.758865,22662703769.825222,-22664067911.472824,5104587285.509108,0.426986,-0.426996,0.096173
-1.940000,0.240000,2.713085,0.040000,-95482230964.312958,23051581520.464413,-23054157074.454254,6237773439.242671,0.434320,-0.434339,0.117523
-1.900000,0.240000,2.674602,0.040000,-95961872061.992752,23395002221.427212,-23399104706.164501,7590210133.126941,0.440799,-0.440830,0.143004
-1.860000,0.240000,2.636164,0.040000,-96478938875.683044,23666222028.443325,-23672251213.433460,9198894316.826921,0.445919,-0.445965,0.173313
-1.820000,0.240000,2.597773,0.040000,-97033862414.039978,23831492105.168404,-23839955656.439621,11105724509.837273,0.449047,-0.449111,0.209238
-1.780000,0.240000,2.559431,0.040000,-97626903390.487213,23848167602.107780,-23859711384.477982,13357620175.930590,0.449379,-0.449466,0.251665
-1.740000,0.240000,2.521141,0.040000,-98258083780.338135,23662286190.071693,-23677732843.557579,16006307349.107939,0.445898,-0.446015,0.301568
-1.700000,0.240000,2.482905,0.040000,-98927100211.121597,23205472054.994480,-23225869576.675812,19107556413.782650,0.437320,-0.437474,0.359997
-1.660000,0.240000,2.444725,0.040000,-99633214217.335663,22390991716.000076,-22417673638.636372,22719554217.917599,0.422010,-0.422211,0.428050
-1.620000,0.240000,2.406604,0.040000,-100375113031.429016,21108761442.596222,-21143419555.572392,26899945197.271137,0.397897,-0.398158,0.506811
-1.580000,0.240000,2.368545,0.040000,-101150732904.049316,19219091440.446930,-19263860474.748047,31700870778.053139,0.362352,-0.362689,0.597263
-1.540000,0.240000,2.330552,0.040000,-101957034926.495712,16544965008.584576,-16602515821.563673,37161061674.900131,0.312042,-0.312476,0.700136
-1.500000,0.240000,2.292626,0.040000,-102789720989.935242,12862716837.895916,-12936349816.981091,43293704969.161644,0.242757,-0.243312,0.815678
-1.460000,0.240000,2.254772,0.040000,-103642874968.782623,7891138044.416008,-7984860296.254302,50068522215.221680,0.149203,-0.149910,0.943320
-1.420000,0.240000,2.216994,0.040000,-104508511732.616226,1279422572.152885,-1397971380.944536,57386709326.615921,0.024775,-0.025669,1.081199
-1.380000,0.240000,2.179295,0.040000,-105376014845.864639,-7404416749.925545,7255740863.086006,65049798493.062737,-0.138663,0.137543,1.225576
-1.340000,0.240000,2.141679,0.040000,-106231445047.447510,-18677673695.972130,18494063421.533894,72734149395.780807,-0.350860,0.349477,1.370354
-1.300000,0.240000,2.104152,0.040000,-107056715984.304337,-33105308320.857212,32888204246.072227,80022482053.802658,-0.622496,0.620860,1.507670
-1.260000,0.240000,2.066717,0.040000,-107828713065.036163,-51045673573.598999,50833417569.162743,86680561844.020828,-0.960530,0.958931,1.633112
-1.220000,0.240000,2.029380,0.040000,-108518840801.465515,-71300470005.575226,71327678250.833267,93796945531.178040,-1.343496,1.343701,1.767189
-1.180000,0.240000,1.992146,0.040000,-109095542402.864548,-84368650451.107849,85875396058.723206,107511114500.549652,-1.598071,1.609426,2.025572
-1.140000,0.240000,1.955022,0.040000,-109542395310.254684,-39925798598.172531,49189702980.441124,148180405231.841400,-0.804586,0.874401,2.791805
-1.100000,0.240000,1.918013,0.040000,-109951919160.916260,299860035538.667297,-246028636076.663025,252486442026.343689,5.345272,-4.939587,4.756991
-1.060000,0.240000,1.881127,0.040000,-110970657488.026535,1665680201553.304688,-877157633292.142456,16638550280.626030,26.925514,-20.983025,0.313480
-1.020000,0.240000,1.844370,0.040000,-115798403253.495972,3364971908024.164551,9776488892601.171875,350641664009.191162,-10.879800,109.916896,6.606292
-0.980000,0.240000,1.807752,0.040000,-136371268380.858093,16022899114436.621094,23464784505468.855469,1333732424993.143066,78.689453,218.898888,25.128292
-0.940000,0.240000,1.771279,0.040000,-30122792151.700905,-9067565521988.416016,-17501871606731.337891,710831725473.943481,-20.663112,-179.570328,13.392482
-0.900000,0.240000,1.734962,0.040000,-35164806409.156395,-790879550406.637695,-9261690775363.265625,-835253637965.455933,41.918247,-117.676748,-15.736663
-0.860000,0.240000,1.698811,0.040000,-31793937896.384335,-935882480164.558594,472424512191.843140,-1016862699867.155396,-15.013023,11.520297,-19.158283
-0.820000,0.240000,1.662836,0.040000,-26379895830.128513,-420958346241.984802,407103448205.046875,-538579414128.554993,-7.852789,7.748375,-10.147148
-0.780000,0.240000,1.627048,0.040000,-20243429793.935333,-260582429786.279999,263701732102.997223,-480287198745.057861,-4.927155,4.950663,-9.048889
-0.740000,0.240000,1.591462,0.040000,-13686638501.885315,-128067052073.271149,130008883407.913528,-516737196628.868103,-2.423833,2.438467,-9.735628
-0.700000,0.240000,1.556089,0.040000,-6926614166.128140,25506529702.898399,-25517125708.056946,-529835074075.196289,0.480618,-0.480698,-9.982400
-0.660000,0.240000,1.520946,0.040000,-207304078.429985,178263360407.468445,-179684705825.070404,-494746458921.365967,3.366619,-3.377330,-9.321310
-0.620000,0.240000,1.486049,0.040000,6228901749.608786,307145998550.114014,-309405720417.890808,-416092761852.983459,5.799581,-5.816611,-7.839429
-0.580000,0.240000,1.451415,0.040000,12177065630.485353,397679965111.862244,-400188706118.110474,-309351216542.540466,7.506701,-7.525607,-5.828356
-0.540000,0.240000,1.417064,0.040000,17492713842.760075,443672456302.837219,-449590346230.711487,-196371714106.724854,8.392495,-8.437094,-3.699757
-0.500000,0.240000,1.383016,0.040000,22099107794.812691,456928222321.791138,-488433719977.407410,-99466889701.621078,8.786867,-9.024300,-1.874014
-0.460000,0.240000,1.349295,0.040000,25981141557.212891,447217684058.034424,-525712062387.805237,-32587960881.137291,8.869504,-9.461056,-0.613976
0.460000,0.240000,0.669359,0.040000,54467193593.265045,-502034063025.912964,589144376071.448364,-53133832816.477867,-9.950975,10.607459,-1.001072
0.500000,0.240000,0.641677,0.040000,58916315712.399773,-513513865072.419861,548439698188.304260,-127338721096.342285,-9.872306,10.135515,-2.399135
0.540000,0.240000,0.612674,0.040000,64179294217.776733,-500034034843.689636,506539738011.884705,-234709154044.836761,-9.457702,9.506731,-4.422057
0.580000,0.240000,0.584970,0.040000,70241638889.486023,-451018844417.275330,453765700211.443665,-359762212520.604553,-8.512982,8.533683,-6.778129
0.620000,0.240000,0.558758,0.040000,77021481811.804947,-353227761322.992798,355708143503.306458,-477860742505.664917,-6.669035,6.687728,-9.003173
0.660000,0.240000,0.534257,0.040000,84362759051.521164,-213269979876.180115,214861847310.262543,-565021307947.056274,-4.027128,4.039124,-10.645329
0.700000,0.240000,0.511714,0.040000,92042883755.252396,-46419184892.638496,46611282908.970200,-604065878450.292236,-0.875650,0.877098,-11.380951
0.740000,0.240000,0.491397,0.040000,99796988583.539078,123631741812.694855,-125146800585.985214,-587363000157.802856,2.337857,-2.349275,-11.066259
0.780000,0.240000,0.473594,0.040000,107355220088.859406,271044670705.431030,-274039498126.587646,-525001834315.157593,5.123566,-5.146136,-9.891339
0.820000,0.240000,0.458597,0.040000,114481799795.059418,391731947779.162903,-390316129393.259277,-465951416384.207825,7.372455,-7.361785,-8.778795
0.860000,0.240000,0.446690,0.040000,120971312950.510635,575456304246.998657,-450466086756.556213,-533573042527.645386,10.135464,-9.193509,-10.052825
0.900000,0.240000,0.438124,0.040000,126395162171.955719,598194538888.214600,2071324458797.122559,-457694778491.550110,-3.818254,23.936368,-8.623235
0.940000,0.240000,0.433096,0.040000,128962457098.232239,2888102152999.762695,4161267506909.692871,24906864088.215897,14.569256,38.556429,0.469260
0.980000,0.240000,0.431732,0.040000,160311152592.195892,-3781291359111.746582,-6702123441564.397461,317352781798.661377,-11.987638,-67.017807,5.979110
1.020000,0.240000,0.431732,0.040000,157261500034.575714,-517695662622.055054,-2969770998876.791992,161719161285.671234,9.958082,-36.240439,3.046883
1.060000,0.240000,0.433096,0.040000,157787518911.549103,-154695093106.255341,-52344452866.349106,138415306262.144897,-1.744322,0.184024,2.607825
1.100000,0.240000,0.438124,0.040000,158862503525.241638,147597290568.393829,-160907736358.776215,230822641363.583069,2.856051,-2.956362,4.348832
1.140000,0.240000,0.446690,0.040000,159734344009.403076,194042462617.275543,-196109101530.096680,208779280045.429901,3.667553,-3.683128,3.933523
1.180000,0.240000,0.458597,0.040000,160302066301.382996,170005339576.136322,-170100724788.404144,191331998985.714020,3.203538,-3.204257,3.604806
1.220000,0.240000,0.473594,0.040000,160598649620.277679,136308071588.469513,-136031028252.424957,175724201992.484528,2.566557,-2.564469,3.310746
1.260000,0.240000,0.491397,0.040000,160676876712.288849,105687614043.616852,-105373681203.187759,159830644410.848511,1.989442,-1.987076,3.011302
1.300000,0.240000,0.511714,0.040000,160585560140.511200,80157244250.614883,-79876102974.720947,143636403526.784119,1.508620,-1.506501,2.706193
1.340000,0.240000,0.534257,0.040000,160365571483.669403,59445409938.116577,-59208569878.774185,127709159230.524139,1.118647,-1.116862,2.406115
1.380000,0.240000,0.558758,0.040000,160050111122.626434,42847732197.695457,-42653078097.134506,112572125163.573227,0.806176,-0.804709,2.120924
1.420000,0.240000,0.584970,0.040000,159665798135.365570,29645288250.196377,-29487414453.567360,98564210084.328430,0.557642,-0.556452,1.857007
1.460000,0.240000,0.612674,0.040000,159233812056.963226,19201070561.925190,-19074077565.430096,85854810013.947647,0.361042,-0.360084,1.617554
1.500000,0.240000,0.641677,0.040000,158770910562.688599,10977469626.145304,-10875864657.800472,74490493094.749146,0.206248,-0.205482,1.403444
1.540000,0.240000,0.669359,0.040000,158290290070.326630,4531488370.849487,-4450484591.290151,64438211510.057983,0.084918,-0.084308,1.214053
1.580000,0.240000,0.697697,0.040000,157802295551.389374,-496811664.205702,561236087.376095,55617864079.629669,-0.009724,0.010210,1.047873
1.620000,0.240000,0.726331,0.040000,157314997574.374237,-4397341655.158298,4448489977.872794,47924863932.408096,-0.083138,0.083523,0.902932
1.660000,0.240000,0.754092,0.040000,156834657246.413696,-7402377999.302560,7442923958.022889,41244991827.795563,-0.139694,0.140000,0.777080
1.700000,0.240000,0.782913,0.040000,156366098809.468628,-9697482298.600101,9729570013.759642,35463726135.112999,-0.182888,0.183129,0.668157
1.740000,0.240000,0.810784,0.040000,155913007343.668213,-11430719942.845179,11456059128.640333,30471775640.749638,-0.215505,0.215696,0.574106
1.780000,0.240000,0.839064,0.040000,155478166333.222076,-12720238417.161491,12740188250.763117,26168078009.139584,-0.239769,0.239920,0.493022
1.820000,0.240000,0.867714,0.040000,155063647236.669556,-13660391804.442556,13676031552.325117,22461153486.029488,-0.257458,0.257576,0.423181
1.860000,0.240000,0.895513,0.040000,154670960880.401703,-14326636404.316572,14338823262.630201,19269425316.691452,-0.269991,0.270083,0.363047
1.900000,0.240000,0.924208,0.040000,154301178527.692535,-14779417442.344482,14788833070.458122,16520918967.585173,-0.278506,0.278577,0.311264
1.940000,0.240000,0.952209,0.040000,153955028859.090637,-15067242738.581182,15074430272.427622,14152612618.284250,-0.283916,0.283970,0.266643
1.980000,0.240000,0.980448,0.040000,153632975796.493958,-15229108922.340130,15234502212.296356,12109615255.006859,-0.286956,0.286996,0.228152
2.020000,0.240000,1.009109,0.040000,153335281064.687836,-15296415816.523357,15300362435.941895,10344283427.315353,-0.288216,0.288245,0.194892
2.060000,0.240000,1.036937,0.040000,153062054562.854492,-15294477835.715958,15297257162.425243,8815344003.267986,-0.288173,0.288193,0.166086
2.100000,0.240000,1.065539,0.040000,152813294971.807770,-15243718594.294859,15245556027.709713,7487061378.229222,-0.287211,0.287225,0.141061
2.140000,0.240000,1.094856,0.040000,152588922514.225983,-15160616388.474880,15161694551.942421,6328468831.860143,-0.285641,0.285649,0.119232
2.180000,0.240000,1.124831,0.040000,152388805385.259247,-15058453359.373362,15058920952.195459,5312671793.370833,-0.283713,0.283716,0.100094
2.220000,0.240000,1.155414,0.040000,152212781055.751617,-14947909290.748404,14947887991.542240,4416223391.634190,-0.281627,0.281627,0.083204
2.260000,0.240000,1.186557,0.040000,152060673400.916687,-14837529927.365049,14837117641.862892,3618568229.468090,-0.279545,0.279542,0.068176
2.300000,0.240000,1.218217,0.040000,151932306405.339355,-14734063287.301474,14733302817.727161,2901546977.816676,-0.277594,0.277588,0.054667
2.340000,0.240000,1.250356,0.040000,151827514964.978241,-14642279178.502876,14640760450.029343,2248940063.958477,-0.275860,0.275849,0.042371
2.380000,0.240000,1.282936,0.040000,151746151941.587189,-14565849928.882656,14569372314.395220,1646319947.336515,-0.274449,0.274476,0.031018
2.420000,0.240000,1.315926,0.040000,151688071571.185852,-14510968693.762575,14541383491.553261,1222954610.434577,-0.273567,0.273796,0.023041
2.460000,0.240000,1.349295,0.040000,151652847315.108459,-14358310861.711443,14335998506.040466,982671850.129701,-0.270393,0.270225,0.018514
-2.500000,0.280000,3.246899,0.040000,-92374809641.885925,24342137713028.363281,15182626859844.156250,-2602028201272.211914,235.219143,62.648648,-49.023720
-2.460000,0.280000,3.207837,0.040000,-92388306016.267700,5560786867313.012695,20788774031522.203125,-1530423636596.252930,-44.163853,242.740253,-28.834069
-2.420000,0.280000,3.168798,0.040000,-92434114930.201172,-242677694330.220459,6767038692856.414062,-309513637074.388489,-41.449011,90.618109,-5.831416
-2.380000,0.280000,3.129784,0.040000,-92511331329.415558,14063617181.313585,2457976438.035762,264220045.060004,0.171584,-0.047073,0.004978
-2.340000,0.280000,3.090795,0.040000,-92619758145.505783,19682269822.071175,-19679753870.782913,387751776.153497,0.370811,-0.370792,0.007305
-2.300000,0.280000,3.051832,0.040000,-92759682406.079147,19938671729.290802,-19935593772.392605,545997344.466759,0.375639,-0.375616,0.010287
-2.260000,0.280000,3.012896,0.040000,-92931513342.691025,20250432408.853989,-20247399095.036026,748167403.185989,0.381513,-0.381490,0.014096
-2.220000,0.280000,2.973988,0.040000,-93135749586.053452,20615041415.549587,-20612142361.859650,1005713102.336339,0.388383,-0.388361,0.018948
-2.180000,0.280000,2.935109,0.040000,-93372974298.520386,21030022198.004993,-21027306211.483326,1331668691.300936,0.396202,-0.396182,0.025089
-2.140000,0.280000,2.896262,0.040000,-93643851168.980209,21492155055.508087,-21489680711.698914,1741008096.266695,0.404911,-0.404892,0.032802
-2.100000,0.280000,2.857446,0.040000,-93949119240.403381,21997199420.087887,-21995042271.688168,2251049295.068905,0.414428,-0.414412,0.042411
-2.060000,0.280000,2.818663,0.040000,-94289586098.639969,22539589504.161522,-22537847537.434944,2881910665.544433,0.424649,-0.424636,0.054297
-2.020000,0.280000,2.779914,0.040000,-94666118932.818680,23112040116.342533,-23110840703.586330,3657024427.447186,0.435437,-0.435428,0.068900
-1.980000,0.280000,2.741202,0.040000,-95079632834.068359,23705030621.890278,-23704539720.790077,4603710262.713287,0.446614,-0.446610,0.086737
-1.940000,0.280000,2.702527,0.040000,-95531075503.443970,24306127222.643032,-24306561617.650509,5753808285.951477,0.457944,-0.457947,0.108405
-1.900000,0.280000,2.663891,0.040000,-96021407280.042709,24899090046.477871,-24900733690.179508,7144363887.791349,0.469123,-0.469135,0.134604
-1.860000,0.280000,2.625296,0.040000,-96551575054.376266,25462692980.384533,-25465918847.935932,8818346111.158020,0.479750,-0.479774,0.166143
-1.820000,0.280000,2.586744,0.040000,-97122478170.294403,25969159387.089912,-25974458717.003235,10825363912.883503,0.489304,-0.489344,0.203956
-1.780000,0.280000,2.548236,0.040000,-97734923801.304443,26382084010.686676,-26390105387.186691,13222317565.609385,0.497099,-0.497160,0.249116
-1.740000,0.280000,2.509775,0.040000,-98389568461.295074,26653668450.987640,-26665269884.844547,16073880574.663696,0.502236,-0.502324,0.302841
-1.700000,0.280000,2.471363,0.040000,-99086841206.576584,26721042524.778603,-26737360484.018860,19452643419.398685,0.503532,-0.503655,0.366499
-1.660000,0.280000,2.433002,0.040000,-99826842617.585602,26501375258.312099,-26523915375.784454,23438653336.774857,0.499429,-0.499599,0.441598
-1.620000,0.280000,2.394695,0.040000,-100609211704.903839,25885397928.296185,-25916152594.277290,28117938721.834923,0.487870,-0.488102,0.529758
-1.580000,0.280000,2.356444,0.040000,-101432950335.833572,24728873797.380001,-24770471355.678917,33579391253.968300,0.466141,-0.466455,0.632655
-1.540000,0.280000,2.318252,0.040000,-102296191485.967697,22841475183.294388,-22897362289.002445,39909067001.802116,0.430663,-0.431084,0.751910
-1.500000,0.280000,2.280122,0.040000,-103195893471.548340,19972525356.057144,-20047173499.899044,47180533104.667847,0.376716,-0.377278,0.888909
-1.460000,0.280000,2.242057,0.040000,-104127437322.272598,15793295359.808811,-15892390006.087276,55439319923.956970,0.298115,-0.298862,1.044509
-1.420000,0.280000,2.204061,0.040000,-105084099027.340134,9876524687.662407,-10006991621.147640,64678875129.230537,0.186817,-0.187800,1.218588
-1.380000,0.280000,2.166136,0.040000,-106056364243.574387,1677246645.102508,-1846620366.169628,74804669967.477142,0.032558,-0.033834,1.409363
-1.340000,0.280000,2.128288,0.040000,-107031056156.819031,-9469383626.649807,9255968569.242126,85581323783.721054,-0.177202,0.175594,1.612402
-1.300000,0.280000,2.090520,0.040000,-107990277841.010452,-24278046013.574677,24029291269.606136,96546433381.140106,-0.456006,0.454132,1.818991
-1.260000,0.280000,2.052837,0.040000,-108910297432.647720,-43184438583.223244,42963820629.177277,106802385693.184998,-0.812373,0.810710,2.012219
-1.220000,0.280000,2.015243,0.040000,-109760953390.823685,-65166721876.634903,65232769772.979729,114183720375.663559,-1.228152,1.228650,2.151287
-1.180000,0.280000,1.977743,0.040000,-110507601282.191208,-84123389440.758911,85372668191.374054,111143278340.794662,-1.591995,1.601409,2.094004
-1.140000,0.280000,1.940343,0.040000,-111121579903.102676,-80536861080.395004,85720738418.869034,64234145301.540482,-1.546661,1.585728,1.210209
-1.100000,0.280000,1.903049,0.040000,-111611450890.665878,-29075575571.128437,59620694525.131447,-182351691239.359558,-0.720447,0.950642,-3.435612
-1.060000,0.280000,1.865867,0.040000,-112061333349.400543,-178845734393.329315,466525855348.861389,-1262039671707.512939,-4.995575,7.163599,-23.777559
-1.020000,0.280000,1.828804,0.040000,-112251611504.395660,-1942419247755.500977,7865041905328.530273,-84029954951.083313,-70.071998,114.706256,-1.583173
-0.980000,0.280000,1.791867,0.040000,-101106889967.302750,-2557546915641.440918,10405893767011.380859,4294617796672.343750,-92.545888,151.692850,80.913089
-0.940000,0.280000,1.755064,0.040000,-53543631529.789474,-6713525098502.080078,-7892194952413.525391,2394126348895.667969,-43.932635,-66.139458,45.106728
-0.900000,0.280000,1.718405,0.040000,-43880813136.999542,305129981496.045654,-7296701413685.356445,-2415625578313.173340,45.266403,-97.956507,-45.511786
-0.860000,0.280000,1.681897,0.040000,-35964336516.679199,531117886702.437012,-1075258179350.091553,-1709799663830.109619,13.082144,-17.182912,-32.213617
-0.820000,0.280000,1.645552,0.040000,-29175116531.360294,-156244009850.423340,209925780449.368073,-448397057300.288025,-3.247146,3.651705,-8.448060
-0.780000,0.280000,1.609381,0.040000,-22195207689.585495,-317073404160.322754,332072702005.236755,-559544013528.916626,-6.058625,6.171664,-10.542134
-0.740000,0.280000,1.573395,0.040000,-14734268308.074856,-179792291168.529144,183074384963.059875,-684203038432.579346,-3.405942,3.430677,-12.890782
-0.700000,0.280000,1.537607,0.040000,-6992792925.655776,36365588794.177040,-36796978904.782532,-718708189510.668335,0.687587,-0.690838,-13.540879
-0.660000,0.280000,1.502031,0.040000,690508619.195474,251690189731.850464,-254199510677.208344,-665208929783.015503,4.756172,-4.775083,-12.532922
-0.620000,0.280000,1.466684,0.040000,7974777504.913334,425600831246.412292,-429288272665.085449,-543471530928.680725,8.039408,-8.067198,-10.239319
-0.580000,0.280000,1.431582,0.040000,14583627889.135050,537002775333.250244,-540856438141.423462,-382953214684.677795,10.139225,-10.168267,-7.215061
-0.540000,0.280000,1.396743,0.040000,20339064966.648476,582770542042.676025,-586064435373.466553,-215023841017.776794,10.998353,-11.023176,-4.051174
-0.500000,0.280000,1.362187,0.040000,25166932902.371006,574282163366.538330,-597297420533.855103,-79894964376.949738,10.949895,-11.123343,-1.505267
-0.460000,0.280000,1.327938,0.040000,29080450194.730354,533943128968.523438,-590020767201.617554,25542663062.985615,10.376759,-10.799373,0.481239
-0.420000,0.280000,1.294018,0.040000,32153084853.525501,509246494308.933228,-584459874472.975586,130289253049.644379,10.019618,-10.586444,2.454725
0.420000,0.280000,0.669806,0.040000,47065316256.486237,-570344349309.430054,653526141312.920654,127868157417.904083,-11.215776,11.842653,2.409110
0.460000,0.280000,0.641144,0.040000,50634481334.155968,-597909701699.352051,659946774854.555176,11919360105.044729,-11.615610,12.083135,0.224568
0.500000,0.280000,0.612802,0.040000,55145259313.688835,-643131041672.387451,668564016881.915649,-104668780292.118347,-12.260713,12.452382,-1.972020
0.540000,0.280000,0.585178,0.040000,60680079558.103294,-653704207122.400024,657313339349.423828,-253808520948.319946,-12.336566,12.363765,-4.781900
0.580000,0.280000,0.556106,0.040000,67255499159.076363,-604882656792.530640,609106312899.219116,-439043286702.164734,-11.420213,11.452043,-8.271830
0.620000,0.280000,0.528464,0.040000,74792384547.298630,-484132983404.283081,488167667056.233459,-616089885129.749146,-9.144151,9.174557,-11.607491
0.660000,0.280000,0.502488,0.040000,83097808054.896164,-294898315819.161621,297617908817.368896,-750649297904.025024,-5.571427,5.591922,-14.142668
0.700000,0.280000,0.478450,0.040000,91870998590.778015,-59891619571.101616,60417317878.813797,-811436920066.768066,-1.131364,1.135326,-15.287942
0.740000,0.280000,0.456656,0.040000,100739457362.271622,181737558102.224915,-184043195357.878387,-780695880446.014404,3.437073,-3.454449,-14.708763
0.780000,0.280000,0.437442,0.040000,109321437982.189819,375723060678.870911,-383374803286.221985,-659330684638.460205,7.122089,-7.179755,-12.422172
0.820000,0.280000,0.421160,0.040000,117315087517.606903,424374255608.791260,-446738515723.146118,-490521030340.271057,8.121864,-8.290406,-9.241701
0.860000,0.280000,0.408162,0.040000,124655237997.485550,238933112975.436401,-60596558586.122437,-745526608187.250244,3.493649,-2.149664,-14.046153
0.900000,0.280000,0.398768,0.040000,131719564132.767685,397386462493.804321,1545947398718.514160,-1017767989360.307251,-3.497070,18.142484,-19.175339
0.940000,0.280000,0.393239,0.040000,138638391765.997986,2455762120792.058105,1412540433175.062744,385648227368.859741,24.403663,4.748762,7.265836
0.980000,0.280000,0.391736,0.040000,154570234321.862518,1323744676774.598633,-3418946763562.279297,1215650021312.279053,36.782564,-52.572492,22.903551
1.020000,0.280000,0.391736,0.040000,159808222666.767853,964200669427.792725,-2529247619534.131348,182465564827.970825,27.012017,-38.806574,3.437757
1.060000,0.280000,0.393239,0.040000,161314985761.931763,362777756933.083618,-436237418331.998169,-112158923169.788818,7.250150,-7.803759,-2.113139
1.100000,0.280000,0.398768,0.040000,162243851077.654175,240965510192.933044,-247696398178.163666,174331043641.916229,4.577974,-4.628700,3.284498
1.140000,0.280000,0.408162,0.040000,162786695747.885498,198016094394.033875,-198625448412.260376,230450894607.642395,3.734182,-3.738774,4.341828
1.180000,0.280000,0.421160,0.040000,163012740465.792297,156582234726.999176,-156395493072.395294,227417368127.361633,2.949045,-2.947637,4.284675
1.220000,0.280000,0.437442,0.040000,162987945371.449158,118559117497.416550,-118177798496.177567,209605925301.346008,2.231567,-2.228694,3.949097
1.260000,0.280000,0.456656,0.040000,162772906643.848114,86804311270.943771,-86426029163.432404,188130943248.345306,1.633305,-1.630455,3.544496
1.300000,0.280000,0.478450,0.040000,162418419849.427063,61477221780.050385,-61154710243.833351,166376537125.586060,1.156444,-1.154013,3.134630
1.340000,0.280000,0.502488,0.040000,161965083069.888397,41725835162.732681,-41465394408.547096,145679908895.795685,0.784667,-0.782704,2.744694
1.380000,0.280000,0.528464,0.040000,161444589243.874634,26511770814.991707,-26306442186.566830,126644643770.576157,0.498337,-0.496789,2.386059
1.420000,0.280000,0.556106,0.040000,160881363597.217621,14887263631.448259,-14727350546.445837,109515384891.170227,0.279581,-0.278376,2.063333
1.460000,0.280000,0.585178,0.040000,160294074197.040619,6063028757.503351,-5939330217.140765,94332986929.881409,0.113532,-0.112600,1.777288
1.500000,0.280000,0.612802,0.040000,159696894957.636108,-593189465.712633,688495694.405962,81021196129.474258,-0.011715,0.012433,1.526486
1.540000,0.280000,0.641144,0.040000,159100519143.772064,-5578187831.360662,5651442200.254538,69440880110.166107,-0.105510,0.106062,1.308306
1.580000,0.280000,0.669806,0.040000,158512956431.296021,-9278288211.026936,9334502290.880493,59424317778.396103,-0.175126,0.175550,1.119589
1.620000,0.280000,0.697523,0.040000,157940153021.325745,-11992224286.724318,12035301650.561001,50796301930.886086,-0.226184,0.226509,0.957032
1.660000,0.280000,0.726387,0.040000,157386471293.889862,-13950388073.062983,13983342814.039095,43386525191.710999,-0.263020,0.263268,0.817427
1.700000,0.280000,0.754224,0.040000,156855059788.641235,-15330346726.335297,15355494636.345587,37036318413.750244,-0.288975,0.289164,0.697786
1.740000,0.280000,0.782504,0.040000,156348138377.117767,-16269054275.606930,16288170473.768541,31601822904.067883,-0.306626,0.306771,0.595397
1.780000,0.280000,0.811179,0.040000,155867218214.714813,-16872321396.513382,16886765961.155365,26954980230.874237,-0.317966,0.318075,0.507847
1.820000,0.280000,0.838945,0.040000,155413271672.011322,-17222092082.457539,17232908095.689075,22983241996.796680,-0.324535,0.324617,0.433018
1.860000,0.280000,0.867667,0.040000,154986863929.846344,-17382004976.815159,17389994016.289593,19588576958.690826,-0.327532,0.327592,0.369060
1.900000,0.280000,0.895648,0.040000,154588255170.538910,-17401631997.158424,17407411768.227592,16686137206.975145,-0.327890,0.327933,0.314376
1.940000,0.280000,0.923885,0.040000,154217480174.255127,-17319706179.137070,17323754287.491817,14202804030.985086,-0.326336,0.326367,0.267589
1.980000,0.280000,0.952568,0.040000,153874410506.216064,-17166581299.223206,17169268412.135965,12075743009.425707,-0.323444,0.323464,0.227514
2.020000,0.280000,0.980368,0.040000,153558803246.356842,-16966109273.654991,16967724226.035788,10251039876.387865,-0.319660,0.319673,0.193136
2.060000,0.280000,1.008988,0.040000,153270339277.588287,-16737076652.808090,16737845473.657242,8682452415.046942,-0.315341,0.315346,0.163582
2.100000,0.280000,1.038361,0.040000,153008653440.357483,-16494306957.411652,16494407321.027086,7330291414.885918,-0.310763,0.310764,0.138107
2.140000,0.280000,1.068424,0.040000,152773358324.240875,-16249509199.243681,16249081441.683544,6160430565.099339,-0.306148,0.306145,0.116066
2.180000,0.280000,1.099121,0.040000,152564063059.464325,-16011932950.909822,16011088515.831390,5143437743.376301,-0.301669,0.301663,0.096905
2.220000,0.280000,1.130399,0.040000,152380388160.410828,-15788875387.142962,15787703473.292913,4253816341.253127,-0.297465,0.297456,0.080144
2.260000,0.280000,1.162213,0.040000,152221977235.357971,-15586076328.667364,15584651416.744312,3469343691.434736,-0.293643,0.293632,0.065364
2.300000,0.280000,1.194518,0.040000,152088506197.346130,-15408059032.786377,15406481854.303972,2770494181.678624,-0.290288,0.290276,0.052198
2.340000,0.280000,1.227277,0.040000,151979690543.052734,-15258832883.333792,15257603139.118971,2139947625.385757,-0.287478,0.287469,0.040318
2.380000,0.280000,1.260455,0.040000,151895292437.164429,-15142385981.432558,15136168030.788538,1562702744.234149,-0.285256,0.285209,0.029442
2.420000,0.280000,1.294018,0.040000,151835148824.332672,-15067824020.265438,15063394279.263298,1157860192.667662,-0.283862,0.283828,0.021815
2.460000,0.280000,1.327938,0.040000,151799455447.187531,-15135618396.741320,15223146583.038734,929250437.122496,-0.285659,0.286318,0.017508
-2.500000,0.320000,3.238576,0.040000,10776025.463932,-13601064505742.335938,46370322548033.734375,1729568371680.081299,-441.469485,688.426213,32.586071
-2.460000,0.320000,3.199412,0.040000,-92365670865.841553,975032197267.624146,23442954959725.976562,1092258473233.984619,-119.644538,303.664152,20.578783
-2.420000,0.320000,3.160270,0.040000,-92412632284.183243,-1548472145540.019775,7382486525889.918945,732400925773.932373,-62.148977,106.115462,13.798858
-2.380000,0.320000,3.121149,0.040000,-92490145981.773727,-93671563777.594345,306748446853.515503,2472140407.952906,-2.969174,4.574971,0.046577
-2.340000,0.320000,3.082050,0.040000,-92598925872.143860,19790924949.490852,-19786386394.037937,141297193.919529,0.372847,-0.372813,0.002662
-2.300000,0.320000,3.042975,0.040000,-92739376101.981964,20088142030.875893,-20084310882.838001,239061420.600107,0.378451,-0.378422,0.004504
-2.260000,0.320000,3.003924,0.040000,-92911973058.122452,20450135002.546169,-20446380781.129860,381640911.273539,0.385271,-0.385243,0.007190
-2.220000,0.320000,2.964899,0.040000,-93117295929.703323,20877308571.532101,-20873591154.697601,580868008.012086,0.393320,-0.393292,0.010944
-2.180000,0.320000,2.925899,0.040000,-93356028144.220535,21369127564.883034,-21365465266.301502,850286292.595657,0.402586,-0.402558,0.016020
-2.140000,0.320000,2.886928,0.040000,-93628956527.347031,21924619759.687340,-21921044158.713158,1205554328.206039,0.413052,-0.413025,0.022713
-2.100000,0.320000,2.847985,0.040000,-93936969733.067078,22542249387.788692,-22538805660.117882,1664908012.845771,0.424690,-0.424664,0.031368
-2.060000,0.320000,2.809071,0.040000,-94281055765.931412,23219684297.809353,-23216435812.105042,2249693564.986390,0.437454,-0.437429,0.042386
-2.020000,0.320000,2.770188,0.040000,-94662298221.740341,23953476085.336060,-23950510931.119305,2984983412.870715,0.451281,-0.451258,0.056239
-1.980000,0.320000,2.731338,0.040000,-95081870732.192612,24738624891.167645,-24736064847.652260,3900287583.665433,0.466076,-0.466056,0.073484
-1.940000,0.320000,2.692521,0.040000,-95541028913.447372,25567986170.639755,-25565999044.934368,5030372758.296778,0.481704,-0.481689,0.094775
-1.900000,0.320000,2.653740,0.040000,-96041098864.259262,26431460068.919601,-26430276702.535904,6416199273.915727,0.497977,-0.497968,0.120885
-1.860000,0.320000,2.614995,0.040000,-96583460909.527100,27314881152.358250,-27314818890.513298,8105981946.502191,0.514628,-0.514627,0.152721
-1.820000,0.320000,2.576289,0.040000,-97169526802.913147,28198494646.392250,-28199989741.260887,10156371930.169292,0.531284,-0.531296,0.191352
-1.780000,0.320000,2.537622,0.040000,-97800707936.813538,29054861852.102303,-29058514184.528854,12633741168.678385,0.547431,-0.547459,0.238027
-1.740000,0.320000,2.498998,0.040000,-98478371189.467758,29845977938.807350,-29852612654.173943,15615523919.429195,0.562353,-0.562403,0.294206
-1.700000,0.320000,2.460418,0.040000,-99203777771.772034,30519304668.841576,-30530056889.297226,19191524311.436150,0.575062,-0.575143,0.361579
-1.660000,0.320000,2.421883,0.040000,-99977998690.850189,31002312742.542339,-31018743457.614426,23465023756.112942,0.584194,-0.584318,0.442095
-1.620000,0.320000,2.383397,0.040000,-100801798050.522766,31194987266.378387,-31219240699.074711,28553399501.608532,0.587869,-0.588052,0.537963
-1.580000,0.320000,2.344962,0.040000,-101675472134.278488,30959571830.341896,-30994586564.193340,34587767382.595520,0.583494,-0.583758,0.651654
-1.540000,0.320000,2.306580,0.040000,-102598627779.882263,30106617874.854496,-30156404435.949581,41710841782.110489,0.567508,-0.567883,0.785856
-1.500000,0.320000,2.268254,0.040000,-103569877625.097443,28376199573.951092,-28446192348.107006,50071684254.653130,0.535020,-0.535547,0.943380
-1.460000,0.320000,2.229986,0.040000,-104586422059.616562,25413052408.318672,-25510524626.156818,59815130498.017929,0.479348,-0.480082,1.126952
-1.420000,0.320000,2.191781,0.040000,-105643478017.952347,20734654010.453495,-20869130549.289505,71062050454.942703,0.391413,-0.392426,1.338850
-1.380000,0.320000,2.153640,0.040000,-106733503552.192856,13692409365.183084,-13875889809.791817,83873005402.139847,0.259010,-0.260393,1.580216
-1.340000,0.320000,2.115569,0.040000,-107845156291.040665,3428542686.933846,-3675183234.541367,98178163198.596512,0.065990,-0.067849,1.849734
-1.300000,0.320000,2.077570,0.040000,-108961916950.194534,-11168943468.654165,10843562487.501778,113625726011.562103,-0.208590,0.206138,2.140775
-1.260000,0.320000,2.039647,0.040000,-110060302367.557129,-31549618409.680183,31123459736.995872,129198781392.545944,-0.592004,0.588793,2.434180
-1.220000,0.320000,2.001805,0.040000,-111107504794.996658,-59950896497.822075,59338515799.097412,142119172564.075195,-1.126048,1.121433,2.677608
-1.180000,0.320000,1.964049,0.040000,-112057558541.255859,-102199768159.793655,100875899672.344574,144629304006.560883,-1.918020,1.908043,2.724900
-1.140000,0.320000,1.926383,0.040000,-112840636122.034531,-183025970306.979645,177871173554.842499,115711410480.780212,-3.419180,3.380332,2.180070
-1.100000,0.320000,1.888813,0.040000,-113316642486.037842,-418564615659.419983,390051603330.181702,11365327014.564552,-7.724840,7.509959,0.214129
-1.060000,0.320000,1.851345,0.040000,-113055307591.618927,-1304083207393.614014,1278423421406.262451,-10124656859.612080,-24.424650,24.231272,-0.190754
-1.020000,0.320000,1.813985,0.040000,-110385881990.056946,-3615259306426.855469,3966565340227.845215,2132403568103.107422,-70.099224,72.746748,40.175719
-0.980000,0.320000,1.776741,0.040000,-100290310880.547546,-5453482461487.276367,7505239310923.060547,4779477029000.042969,-114.343658,129.806173,90.048118
-0.940000,0.320000,1.739618,0.040000,-79916106249.835297,-2106040819424.742676,2591948146633.507812,-126700705616.060471,-42.425463,46.087373,-2.387115
-0.900000,0.320000,1.702626,0.040000,-49436953259.652077,-400195203541.234741,-7765586483309.190430,-4504584248761.665039,38.614509,-100.153733,-84.868979
-0.860000,0.320000,1.665773,0.040000,-39142033647.798294,606427905619.283569,-4059185768227.665527,-1403561171949.047363,30.941041,-56.961825,-26.443906
-0.820000,0.320000,1.629068,0.040000,-32361090925.257450,-663211032939.505615,710540069827.728760,48397816892.618454,-12.762792,13.119475,0.911843
-0.780000,0.320000,1.592522,0.040000,-24696137462.502850,-608368333434.862427,608566308469.864990,-699349082084.053589,-11.463131,11.464623,-13.176142
-0.740000,0.320000,1.556146,0.040000,-16080347523.914524,-292453879207.795471,291793371839.239014,-949747354016.254272,-5.506267,5.501290,-17.893791
-0.700000,0.320000,1.519952,0.040000,-6999797012.712993,52643585685.674507,-54410720742.995659,-997642750964.421021,1.001824,-1.015141,-18.796168
-0.660000,0.320000,1.483954,0.040000,1998910230.194017,369491026461.394775,-373935596180.840088,-905750189305.245117,6.986547,-7.020042,-17.064859
-0.620000,0.320000,1.448165,0.040000,10413300594.438299,609714974049.222534,-615921434808.459473,-709956043024.112915,11.522464,-11.569237,-13.375983
-0.580000,0.320000,1.412603,0.040000,17861546389.290489,744398501167.021973,-750453508961.500977,-462726421690.711182,14.059123,-14.104755,-8.718034
-0.540000,0.320000,1.377284,0.040000,24127835425.647686,776102150911.820557,-780622187113.699707,-218020581032.714020,14.647762,-14.681827,-4.107634
-0.500000,0.320000,1.342227,0.040000,29159134475.486523,730004351289.631714,-736747381565.814209,-15441492196.830713,13.791818,-13.842635,-0.290927
-0.460000,0.320000,1.307455,0.040000,33025926275.992004,659955882152.490601,-696821327620.827148,125352180867.725952,12.642321,-12.920148,2.361708
-0.420000,0.320000,1.272990,0.040000,35871238109.690712,583407747477.855469,-671479548373.482788,214989682145.335480,11.489537,-12.153267,4.050530
0.420000,0.320000,0.640955,0.040000,42510764206.748650,-652290344320.862793,749671942703.026367,221663405258.615143,-12.839946,13.573836,4.176267
0.460000,0.320000,0.613290,0.040000,45854404542.647919,-737074437945.421143,777772710122.956177,122692520683.851349,-14.116943,14.423655,2.311598
0.500000,0.320000,0.584594,0.040000,50339199698.563393,-814912785139.906006,822318836458.007568,-32576162724.994480,-15.395290,15.451103,-0.613754
0.540000,0.320000,0.556247,0.040000,56124001057.155220,-866782085613.971191,871738240193.189209,-255752912117.813293,-16.358690,16.396041,-4.818533
0.580000,0.320000,0.528694,0.040000,63288227300.910645,-833361641965.485107,840007960820.444702,-525165218779.735596,-15.738583,15.788671,-9.894417
0.620000,0.320000,0.499538,0.040000,71775871850.566711,-686971869686.903564,693782846356.048828,-797269518410.359741,-12.981445,13.032774,-15.021020
0.660000,0.320000,0.471973,0.040000,81352391212.812912,-425107209539.952576,429876620077.747620,-1012544298441.906860,-8.036224,8.072167,-19.076922
0.700000,0.320000,0.446294,0.040000,91601774407.271072,-81788916253.255310,83010452660.409653,-1113441907779.964844,-1.547855,1.557061,-20.977891
0.740000,0.320000,0.422846,0.040000,101980214152.900955,282344526705.612854,-283992000816.582153,-1068550688037.576538,5.328846,-5.341262,-20.132114
0.780000,0.320000,0.402019,0.040000,111910942337.265320,604678473987.899902,-607818247452.615112,-865375269539.595337,11.410240,-11.433902,-16.304172
0.820000,0.320000,0.384239,0.040000,120886790885.933365,783695247352.801147,-803471733033.432251,-423409782340.341309,14.877053,-15.026093,-7.977286
0.860000,0.320000,0.369946,0.040000,128674244292.140335,454467477026.768372,760271582631.710083,-708156917611.865601,1.696514,7.458041,-13.342087
0.900000,0.320000,0.359556,0.040000,136625582394.572372,900440386869.495605,1840979284182.838135,-1696425388298.119873,1.469838,19.190136,-31.961638
0.940000,0.320000,0.353413,0.040000,150366390552.021027,1301852727907.645020,-1792547958964.485840,-321201503422.854126,27.301155,-30.999148,-6.051623
0.980000,0.320000,0.351740,0.040000,159016796449.299530,2126640492753.524902,-2936518148970.458496,1508601339454.995605,44.644709,-50.748135,28.422924
1.020000,0.320000,0.351740,0.040000,163501323131.089722,1383871523749.079590,-1468092974885.868164,957067284883.750366,26.548976,-27.183688,18.031702
1.060000,0.320000,0.353413,0.040000,165313021324.803406,643162840263.585205,-635167414735.045410,321040671231.131470,12.072369,-12.012114,6.048592
1.100000,0.320000,0.359556,0.040000,166006306469.262665,327093753135.313110,-318486484085.934937,293924787275.293030,6.113986,-6.049120,5.537713
1.140000,0.320000,0.369946,0.040000,166156414803.413116,205167085927.155792,-202984322072.783813,294230330764.210876,3.853129,-3.836680,5.543470
1.180000,0.320000,0.384239,0.040000,165973200083.306793,138981112324.704163,-138001608228.264923,274400109769.182922,2.612948,-2.605567,5.169857
1.220000,0.320000,0.402019,0.040000,165565733751.065216,94098333551.648743,-93453556100.006973,246240543792.877716,1.769223,-1.764364,4.639315
1.260000,0.320000,0.422846,0.040000,165006646354.426910,61355684141.826530,-60874204621.548370,216449909142.603241,1.153255,-1.149627,4.078042
1.300000,0.320000,0.446294,0.040000,164348639766.909454,37204123279.004929,-36838429085.984322,187953946133.029602,0.698880,-0.696124,3.541161
1.340000,0.320000,0.471973,0.040000,163630545386.494080,19488853285.821789,-19213178530.308838,161933778731.936768,0.365623,-0.363546,3.050926
1.380000,0.320000,0.499538,0.040000,162880847004.773499,6614210979.108682,-6408335051.325590,138778736754.630035,0.123452,-0.121900,2.614672
1.420000,0.320000,0.528694,0.040000,162120250849.723480,-2644433229.400006,2797072070.175713,118501007968.154938,-0.050685,0.051836,2.232628
1.460000,0.320000,0.556247,0.040000,161363652097.932190,-9220403309.659634,9332979857.066545,100930610177.598389,-0.174354,0.175202,1.901591
1.500000,0.320000,0.584594,0.040000,160621633557.302490,-13816730401.376558,13899427299.789986,85816015968.415527,-0.260783,0.261406,1.616823
1.540000,0.320000,0.613290,0.040000,159901595074.876312,-16958271142.612896,17018803011.050737,72878782765.854935,-0.319846,0.320302,1.373079
1.580000,0.320000,0.640955,0.040000,159208597054.932312,-19034644503.435886,19078781669.551643,61843193695.794762,-0.358873,0.359206,1.165162
1.620000,0.320000,0.669867,0.040000,158545986808.464783,-20334167381.005306,20366191680.727497,52451536193.249794,-0.383289,0.383530,0.988217
1.660000,0.320000,0.697666,0.040000,157915862131.105316,-21069910441.206657,21092984378.980911,44471015294.823898,-0.397100,0.397274,0.837860
1.700000,0.320000,0.725945,0.040000,157319413926.871887,-21399332230.453678,21415786022.489826,37695866789.230614,-0.403269,0.403393,0.710212
1.740000,0.320000,0.754649,0.040000,156757179415.353027,-21438898466.980335,21450447796.203632,31946820817.112930,-0.403987,0.404074,0.601897
1.780000,0.320000,0.782376,0.040000,156229229417.914764,-21274886255.238377,21282794918.953316,27069206332.517471,-0.400876,0.400935,0.510000
1.820000,0.320000,0.811129,0.040000,155735307093.415222,-20971333430.173599,20976533624.860958,22930457439.547665,-0.395141,0.395181,0.432023
1.860000,0.320000,0.839089,0.040000,155274930906.958588,-20575874002.962406,20579054724.006924,19417457647.264030,-0.387679,0.387703,0.365836
1.900000,0.320000,0.867322,0.040000,154847471217.118042,-20124018800.201878,20125690564.952797,16433960501.929213,-0.379158,0.379170,0.309625
1.940000,0.320000,0.896030,0.040000,154452207366.869934,-19642297115.927555,19642839261.543037,13898206653.170715,-0.370075,0.370079,0.261850
1.980000,0.320000,0.923800,0.040000,154088370331.566650,-19150565747.180077,19150260977.584801,11740787902.721714,-0.360806,0.360804,0.221203
2.020000,0.320000,0.952440,0.040000,153755174637.946198,-18663709773.513821,18662769407.670086,9902769205.090778,-0.351630,0.351623,0.186574
2.060000,0.320000,0.981875,0.040000,153451842289.677063,-18192898759.749104,18191481213.148006,8334058125.889168,-0.342757,0.342746,0.157018
2.100000,0.320000,1.012035,0.040000,153177620719.738312,-17746517536.109238,17744741882.637787,6992000602.183607,-0.334345,0.334331,0.131733
2.140000,0.320000,1.042857,0.040000,152931796266.431915,-17330858213.355503,17328814168.615532,5840177491.951323,-0.326512,0.326496,0.110032
2.180000,0.320000,1.074284,0.040000,152713704285.737488,-16950636442.754461,16948391736.148500,4847375599.586723,-0.319347,0.319330,0.091327
2.220000,0.320000,1.106265,0.040000,152522736730.015625,-16609377647.461542,16606983357.864468,3986707958.159999,-0.312917,0.312899,0.075112
2.260000,0.320000,1.138753,0.040000,152358347813.921631,-16309704503.809471,16307196607.401533,3234860104.936395,-0.307270,0.307251,0.060947
2.300000,0.320000,1.171706,0.040000,152220058228.987396,-16053516599.387072,16050880717.801710,2571440630.000573,-0.302443,0.302423,0.048447
2.340000,0.320000,1.205085,0.040000,152107458175.341034,-15841647476.910292,15838392592.739954,1978405183.923068,-0.298447,0.298423,0.037274
2.380000,0.320000,1.238857,0.040000,152020208066.718506,-15675172909.698111,15678413194.707603,1439782023.090666,-0.295348,0.295372,0.027126
2.420000,0.320000,1.272990,0.040000,151958015433.677979,-15561691482.117958,15608011311.621595,1065386179.497298,-0.293453,0.293802,0.020072
2.460000,0.320000,1.307455,0.040000,151920329345.643616,-15362498072.492838,15368156049.505718,854190950.293164,-0.289470,0.289513,0.016093
-2.500000,0.360000,3.230727,0.040000,-46150442930.445114,-374649195075.216919,27166608919976.687500,-1977961150034.917969,-158.491424,360.401845,-37.265935
-2.460000,0.360000,3.191467,0.040000,-92314408558.325745,593221956312.543213,23149003159366.703125,-1111499847900.356445,-123.018540,301.945454,-20.941301
-2.420000,0.360000,3.152225,0.040000,-92360297469.299866,-1302509761532.714111,7522014535307.634766,-736069849528.764160,-59.693762,106.565392,-13.867983
-2.380000,0.360000,3.113003,0.040000,-92437685056.901581,-40382793047.134094,157178059481.439514,-2531990026.856863,-1.420982,2.301179,-0.047704
-2.340000,0.360000,3.073801,0.040000,-92546439034.988113,19837443677.153332,-19833798807.061344,-139322896.395687,0.373728,-0.373701,-0.002625
-2.300000,0.360000,3.034620,0.040000,-92686940459.436874,20172276560.896839,-20167933008.536388,-112465139.876638,0.380033,-0.380000,-0.002119
-2.260000,0.360000,2.995460,0.040000,-92859724256.902390,20584573261.890060,-20580100000.867977,-41249253.887434,0.387800,-0.387766,-0.000777
-2.220000,0.360000,2.956323,0.040000,-93065450181.166870,21074864497.102936,-21070308171.105736,86182588.794998,0.397037,-0.397003,0.001624
-2.180000,0.360000,2.917209,0.040000,-93304902817.310379,21644467866.516350,-21639828094.825161,283481739.717037,0.407768,-0.407733,0.005341
-2.140000,0.360000,2.878120,0.040000,-93578993656.481049,22294816619.763271,-22290095361.272720,566530997.104104,0.420021,-0.419985,0.010674
-2.100000,0.360000,2.839055,0.040000,-93888763379.449417,23027311173.893135,-23022518568.999054,953953243.783226,0.433821,-0.433785,0.017973
-2.060000,0.360000,2.800018,0.040000,-94235384084.360321,23843167947.343159,-23838326322.365265,1467708769.416177,0.449192,-0.449155,0.027652
-2.020000,0.360000,2.761008,0.040000,-94620161214.238937,24743203515.798832,-24738352861.996620,2133800887.689738,0.466149,-0.466112,0.040202
-1.980000,0.360000,2.722026,0.040000,-95044534836.340454,25727522304.768497,-25722728097.137039,2983112696.901128,0.484694,-0.484658,0.056204
-1.940000,0.360000,2.683075,0.040000,-95510079770.040665,26795066177.459148,-26790430533.589634,4052401533.607974,0.504808,-0.504773,0.076350
-1.900000,0.360000,2.644155,0.040000,-96018503837.474792,27942966915.323612,-27938644501.763115,5385481581.661486,0.526437,-0.526405,0.101466
-1.860000,0.360000,2.605268,0.040000,-96571643193.595383,29165617743.963486,-29161838428.195473,7034628801.277744,0.549476,-0.549447,0.132536
-1.820000,0.360000,2.566415,0.040000,-97171453239.724274,30453344784.017155,-30450445866.151512,9062244998.268850,0.573742,-0.573720,0.170738
-1.780000,0.360000,2.527597,0.040000,-97819992980.200317,31790509281.409470,-31788981319.812107,11542817881.998716,0.598943,-0.598931,0.217473
-1.740000,0.360000,2.488817,0.040000,-98519399764.805817,33152800633.569508,-33153352537.150143,14565208473.467485,0.624621,-0.624625,0.274417
-1.700000,0.360000,2.450077,0.040000,-99271850056.219131,34503380182.199776,-34507031554.728539,18235281043.578663,0.650084,-0.650112,0.343563
-1.660000,0.360000,2.411377,0.040000,-100079500010.723419,35787395050.499580,-35795606953.873070,22678854701.961502,0.674302,-0.674364,0.427283
-1.620000,0.360000,2.372721,0.040000,-100944397035.360504,36924184776.440247,-36939044376.579605,28044883582.477844,0.695757,-0.695869,0.528382
-1.580000,0.360000,2.334110,0.040000,-101868349769.529846,37796231762.942368,-37820711956.989563,34508635412.059555,0.712241,-0.712426,0.650163
-1.540000,0.360000,2.295546,0.040000,-102852738696.853943,38233536092.397919,-38271858356.221031,42274383850.657280,0.720559,-0.720847,0.796474
-1.500000,0.360000,2.257032,0.040000,-103898242228.702133,37991597557.245926,-38049735240.505524,51576660619.036629,0.716112,-0.716550,0.971734
-1.460000,0.360000,2.218572,0.040000,-105004442813.658051,36720517149.291870,-36806889946.842979,62678237614.930695,0.692324,-0.692975,1.180894
-1.420000,0.360000,2.180166,0.040000,-106169263331.847580,33921745465.334324,-34048189983.987423,75861334841.967194,0.639820,-0.640773,1.429272
-1.380000,0.360000,2.141819,0.040000,-107388164098.798187,28887087018.768864,-29070323270.778004,91405274116.282761,0.545285,-0.546666,1.722128
-1.340000,0.360000,2.103533,0.040000,-108653001921.081818,20608995992.312695,-20873395009.535358,109537517934.725403,0.389780,-0.391772,2.063750
-1.300000,0.360000,2.065312,0.040000,-109950404932.050995,7630945907.807372,-8015838571.918534,130335202067.379181,0.145947,-0.148848,2.455591
-1.260000,0.360000,2.027160,0.040000,-111259414474.468384,-12268627179.010744,11684441624.529438,153555062991.609558,-0.227846,0.223444,2.893066
-1.220000,0.360000,1.989081,0.040000,-112547856692.956497,-42922919721.952583,41933724969.601311,178494465394.027130,-0.803102,0.795647,3.362939
-1.180000,0.360000,1.951079,0.040000,-113765995899.047272,-92244904164.776962,90223740513.823715,204882722666.329559,-1.726524,1.711292,3.860109
-1.140000,0.360000,1.913157,0.040000,-114833348808.429901,-178486322538.911194,173586267411.646332,240635515945.308777,-3.335090,3.298162,4.533713
-1.100000,0.360000,1.875323,0.040000,-115609154693.441360,-337047377725.695679,325874295139.254639,344207566579.876221,-6.287016,6.202813,6.485070
-1.060000,0.360000,1.837580,0.040000,-115845010880.478607,-535842850608.696045,547607368900.895996,826148554043.472534,-10.162085,10.250745,15.565118
-1.020000,0.360000,1.799934,0.040000,-115294190749.631775,-143816864318.774933,479934008947.050720,2571913920054.317871,-4.609386,7.142442,48.456349
-0.980000,0.360000,1.762392,0.040000,-115160818061.443176,636938469089.324463,8676255682765.956055,3101833792726.215332,-40.639503,110.825894,58.440347
-0.940000,0.360000,1.724961,0.040000,-125245940114.622742,10765246073610.486328,17531824086054.751953,-371643442385.448608,42.883515,170.369767,-7.001978
-0.900000,0.360000,1.687648,0.040000,-36481420175.828323,-9247862522738.660156,-15888485333713.166016,-2710000662816.801270,-32.160081,-157.273265,-51.057984
-0.860000,0.360000,1.650460,0.040000,-41686599191.285164,-2294480100681.866699,-6715816085458.304688,-1312025109520.791016,7.698426,-75.602107,-24.719314
-0.820000,0.360000,1.613407,0.040000,-36801460284.891441,-2073152155032.032959,1736778415124.245605,-677668845159.673218,-37.158146,34.623155,-12.767674
-0.780000,0.360000,1.576498,0.040000,-28194237607.325356,-1029970235774.071167,1002491271652.167725,-1225240427708.809570,-19.249920,19.042833,-23.084240
-0.740000,0.360000,1.539744,0.040000,-17896967146.757160,-422041145124.931702,420281043534.490540,-1387303886911.919922,-7.941551,7.928287,-26.137609
-0.700000,0.360000,1.503155,0.040000,-6917807397.090343,95602515861.673462,-96775874004.540604,-1416263158745.592285,1.807839,-1.816682,-26.683219
-0.660000,0.360000,1.466744,0.040000,3912725302.111469,567737975206.780396,-575420608927.298828,-1254293520200.094971,10.739936,-10.797834,-23.631617
-0.620000,0.360000,1.430525,0.040000,13847173228.146927,905295254611.125000,-916203126735.332642,-928014973107.759399,17.117941,-17.200145,-17.484340
-0.580000,0.360000,1.394513,0.040000,22349602325.170410,1058751577571.172241,-1068451901653.361206,-536736953168.405762,20.002321,-20.075425,-10.112435
-0.540000,0.360000,1.358724,0.040000,29172463277.646347,1048027175638.258057,-1054203659924.400879,-177368483499.478882,19.780350,-19.826898,-3.341725
-0.500000,0.360000,1.323176,0.040000,34327686469.700096,931123641587.308105,-933892506443.352905,95826268733.199646,17.558559,-17.579426,1.805422
-0.460000,0.360000,1.287889,0.040000,37997159947.804550,771224207450.153198,-790548995252.953491,259952644597.783783,14.639538,-14.785174,4.897659
-0.420000,0.360000,1.252886,0.040000,40438874497.536957,635351712622.708740,-646437879852.698853,374457856409.724182,12.033056,-12.116603,7.055003
-0.380000,0.360000,1.218190,0.040000,41919043175.732162,580556795148.513794,-438578279182.619446,486946923401.045105,10.135539,-9.065556,9.174362
0.380000,0.360000,0.641111,0.040000,35157201570.234299,-649132863512.016846,492580727787.224976,522232557796.296082,-11.345180,10.165366,9.839164
0.420000,0.360000,0.613356,0.040000,37005528095.904549,-709643771775.876709,721983836092.065918,397872279055.174744,-13.439848,13.532846,7.496144
0.460000,0.360000,0.584386,0.040000,39928514032.789619,-859692607032.239746,881016110620.413574,271537053954.728851,-16.317631,16.478330,5.115916
0.500000,0.360000,0.556785,0.040000,44220167504.289894,-1036395846285.928223,1039430064519.717896,90793837979.463486,-19.543448,19.566315,1.710609
0.540000,0.360000,0.528047,0.040000,50165618778.361588,-1166029193583.557861,1172801843097.411621,-209780423994.768219,-22.006946,22.057986,-3.952385
0.580000,0.360000,0.499695,0.040000,57966618872.756882,-1179200225185.087891,1189850833332.993164,-605002786263.763184,-22.277015,22.357280,-11.398603
0.620000,0.360000,0.472231,0.040000,67638484622.128883,-1012033649229.901733,1024075098761.176758,-1035375964468.740845,-19.135361,19.226108,-19.507083
0.660000,0.360000,0.442970,0.040000,78911480797.791534,-641938382690.067017,650595579365.378662,-1393937923552.974365,-12.143423,12.208666,-26.262599
0.700000,0.360000,0.415503,0.040000,91198115246.208252,-123808543323.823303,124945488089.482193,-1566730565809.275146,-2.339051,2.347619,-29.518112
0.740000,0.360000,0.390209,0.040000,103679923527.664810,424864669409.541870,-428566077847.432495,-1506579401262.485596,8.025618,-8.053512,-28.384829
0.780000,0.360000,0.367537,0.040000,115486063737.428818,935663257564.522461,-930624225088.098022,-1268782006487.194092,17.599957,-17.561981,-23.904589
0.820000,0.360000,0.347999,0.040000,125789414637.041183,1509022203209.046143,-1394823974781.048828,-833889448654.206665,27.785385,-26.924761,-15.710961
0.860000,0.360000,0.332150,0.040000,133541110175.975861,1734693267945.286865,1433737388940.060547,-779879751383.095947,14.774106,9.103922,-14.693387
0.900000,0.360000,0.320537,0.040000,136281222078.860245,4207466114230.387695,4613740225572.368164,-1028245641568.216187,29.412108,37.066548,-19.372744
0.940000,0.360000,0.313631,0.040000,170544198457.124023,-2987595523229.049316,-7002537729527.529297,-112493618064.817078,0.177939,-75.465900,-2.119445
0.980000,0.360000,0.311745,0.040000,168725456172.679749,260245161874.390839,-3558928630389.723145,1192407879966.659912,23.547902,-48.407546,22.465656
1.020000,0.360000,0.311745,0.040000,169650488513.990021,328973214774.085083,-446080235900.601685,1157951735033.822754,6.859955,-7.742501,21.816482
1.060000,0.360000,0.313631,0.040000,170256288510.380432,385110838538.992493,-388274261440.077209,621423901709.613525,7.273592,-7.297432,11.707987
1.100000,0.360000,0.320537,0.040000,170266682033.012909,268445690867.374420,-264795720383.478363,447767300925.547180,5.037042,-5.009535,8.436196
1.140000,0.360000,0.332150,0.040000,169846733955.771667,169578403686.296906,-167459952114.753387,378332676312.476013,3.182982,-3.167016,7.128007
1.180000,0.360000,0.347999,0.040000,169152731753.917542,103020716731.778290,-101788083920.012085,328562684785.713074,1.934003,-1.924714,6.190311
1.220000,0.360000,0.367537,0.040000,168292014313.357178,58132765737.231987,-57336063409.756012,283917583528.445618,1.090752,-1.084748,5.349172
1.260000,0.360000,0.390209,0.040000,167337043948.660980,27487519929.986794,-26939899225.339306,243214701713.877380,0.514786,-0.510659,4.582306
1.300000,0.360000,0.415503,0.040000,166337245688.823669,6577073207.322634,-6192501987.495290,206936695151.086670,0.121742,-0.118844,3.898807
1.340000,0.360000,0.442970,0.040000,165326331632.324951,-7528555268.046044,7799353854.700458,175264889488.915131,-0.143373,0.145414,3.302092
1.380000,0.360000,0.472231,0.040000,164327046922.026733,-16851096322.158863,17040982473.809294,148007461807.603729,-0.318558,0.319989,2.788546
1.420000,0.360000,0.499695,0.040000,163354432161.125397,-22820651981.447701,22952911741.085377,124766876863.086014,-0.430702,0.431699,2.350680
1.460000,0.360000,0.528047,0.040000,162418127161.051422,-26454044917.089088,26545408119.688980,105068594829.636536,-0.498926,0.499614,1.979553
1.500000,0.360000,0.556785,0.040000,161524008151.604034,-28472772965.848595,28535234916.470802,88434307622.792419,-0.536797,0.537267,1.666154
1.540000,0.360000,0.584386,0.040000,160675349486.554504,-29386858385.684444,29428973779.425045,74418263194.242691,-0.553903,0.554221,1.402083
1.580000,0.360000,0.613356,0.040000,159873644961.505310,-29555488149.769581,29583327898.329014,62622417668.643456,-0.557000,0.557210,1.179843
1.620000,0.360000,0.641111,0.040000,159119186322.130920,-29230759772.888847,29248615957.272243,52700208498.672020,-0.550825,0.550960,0.992902
1.660000,0.360000,0.669388,0.040000,158411469348.914001,-28589026685.407864,28599925490.814537,44354583969.566383,-0.538695,0.538778,0.835666
1.700000,0.360000,0.698126,0.040000,157749477965.554779,-27753220053.644184,27759290795.342758,37333427504.931778,-0.522921,0.522967,0.703383
1.740000,0.360000,0.725808,0.040000,157131882306.033264,-26808672379.362968,26811410799.213791,31424074999.789883,-0.505106,0.505127,0.592048
1.780000,0.360000,0.754595,0.040000,156557176219.849426,-25814300240.341560,25814755313.476570,26447805728.372383,-0.486359,0.486362,0.498292
1.820000,0.360000,0.782531,0.040000,156023772224.993134,-24810491950.966843,24809397947.628948,22254729670.244453,-0.467438,0.467430,0.419292
1.860000,0.360000,0.810760,0.040000,155530066612.859863,-23824664609.733803,23822534250.118408,18719243159.747505,-0.448858,0.448842,0.352681
1.900000,0.360000,0.839496,0.040000,155074483656.097168,-22875176601.805679,22872366686.388645,15736091760.444637,-0.430966,0.430945,0.296477
1.940000,0.360000,0.867231,0.040000,154655505221.662903,-21974081249.882259,21970838867.866009,13217012779.860319,-0.413986,0.413962,0.249016
1.980000,0.360000,0.895894,0.040000,154271690224.761993,-21129064428.915257,21125559487.702721,11087900206.333021,-0.398064,0.398038,0.208902
2.020000,0.360000,0.925398,0.040000,153921687044.876801,-20344807708.637695,20341155832.165665,9286425063.927273,-0.383287,0.383260,0.174962
2.060000,0.360000,0.955666,0.040000,153604241099.714203,-19623947088.470284,19620225737.725471,7760044594.528993,-0.369706,0.369677,0.146204
2.100000,0.360000,0.986628,0.040000,153318199121.460175,-18967747019.159485,18964006843.779148,6464338898.148563,-0.357342,0.357314,0.121792
2.140000,0.360000,1.018219,0.040000,153062511221.112671,-18376573958.158520,18372846789.966721,5361620749.987331,-0.346204,0.346176,0.101016
2.180000,0.360000,1.050384,0.040000,152836231503.740417,-17850228772.165024,17846533261.569279,4419771719.827729,-0.336288,0.336260,0.083271
2.220000,0.360000,1.083071,0.040000,152638517770.145081,-17388179871.405693,17384525604.794788,3611264684.655782,-0.327583,0.327555,0.068038
2.260000,0.360000,1.116234,0.040000,152468630680.520630,-16989728649.856230,16986121569.985249,2912339055.208764,-0.320076,0.320049,0.054870
2.300000,0.360000,1.149832,0.040000,152325932647.271790,-16654162228.125578,16650645854.614832,2302301047.303131,-0.313754,0.313728,0.043377
2.340000,0.360000,1.183829,0.040000,152209886723.928833,-16381330226.210855,16378378643.823217,1762936050.137414,-0.308617,0.308595,0.033215
2.380000,0.360000,1.218190,0.040000,152120057063.963684,-16172546981.387215,16165404645.212711,1278448633.236657,-0.304660,0.304606,0.024087
2.420000,0.360000,1.252886,0.040000,152056133260.940155,-16038483227.646658,16047495464.251329,942889812.336215,-0.302225,0.302293,0.017765
2.460000,0.360000,1.287889,0.040000,152018227554.645386,-16074406040.250998,16196468214.843893,754752822.680175,-0.303541,0.304461,0.014220
-2.500000,0.400000,3.223355,0.040000,-46108864321.322662,3545076760875.903320,29592099259134.812500,-2626637848203.403320,-120.505781,370.235223,-49.487380
-2.460000,0.400000,3.184004,0.040000,-92230076728.543594,3100433233048.717285,19731727571984.187500,-1544303458009.781006,-70.637384,242.705842,-29.095572
-2.420000,0.400000,3.144669,0.040000,-92276779736.574066,-802106301712.972412,6279814502396.314453,-313972413373.468567,-46.073107,87.354386,-5.915422
-2.380000,0.400000,3.105352,0.040000,-92353904514.477966,-39040504890.056549,151592368998.102448,-371872585.770659,-1.371708,2.219925,-0.007006
-2.340000,0.400000,3.066052,0.040000,-92462226671.386566,19804744047.451080,-19799087957.611435,-453675488.237688,0.373101,-0.373058,-0.008548
-2.300000,0.400000,3.026770,0.040000,-92602242993.555359,20179482329.316669,-20174387404.619537,-508116306.621402,0.380164,-0.380126,-0.009573
-2.260000,0.400000,2.987507,0.040000,-92774554113.606705,20641081382.164562,-20635880970.549526,-520057870.647130,0.388861,-0.388821,-0.009798
-2.220000,0.400000,2.948265,0.040000,-92979898867.897385,21193122682.670456,-21187730785.704479,-478000210.392785,0.399260,-0.399220,-0.009006
-2.180000,0.400000,2.909043,0.040000,-93219160820.280594,21839058217.412426,-21833439605.511951,-368618689.831700,0.411429,-0.411386,-0.006945
-2.140000,0.400000,2.869842,0.040000,-93493373812.533356,22582838822.969246,-22576962398.138950,-176312080.640959,0.425441,-0.425396,-0.003322
-2.100000,0.400000,2.830664,0.040000,-93803728285.286469,23428946723.200474,-23422783807.825455,117335408.754476,0.441380,-0.441334,0.002211
-2.060000,0.400000,2.791509,0.040000,-94151578446.100342,24382357861.794434,-24375884382.355385,534196318.043551,0.459341,-0.459292,0.010065
-2.020000,0.400000,2.752378,0.040000,-94538450223.809143,25448459320.244385,-25441659513.201847,1100372503.835756,0.479425,-0.479374,0.020732
-1.980000,0.400000,2.713273,0.040000,-94966049874.950348,26632900587.650761,-26625772695.082535,1847130762.859292,0.501739,-0.501685,0.034801
-1.940000,0.400000,2.674194,0.040000,-95436273001.260483,27941343763.717216,-27933908633.488377,2812042197.982759,0.526389,-0.526333,0.052981
-1.900000,0.400000,2.635143,0.040000,-95951213574.091354,29379061288.232071,-29371375222.665054,4040376114.200783,0.553475,-0.553417,0.076123
-1.860000,0.400000,2.596120,0.040000,-96513172315.568695,30950305970.579010,-30942479784.001522,5586811830.681837,0.583077,-0.583018,0.105259
-1.820000,0.400000,2.557128,0.040000,-97124663418.981613,32657343395.500336,-32649570537.948933,7517547252.252513,0.615239,-0.615181,0.141635
-1.780000,0.400000,2.518168,0.040000,-97788418046.286118,34498986166.589989,-34491584088.038490,9912901495.097576,0.649939,-0.649883,0.186765
-1.740000,0.400000,2.479240,0.040000,-98507382237.120636,36468395525.386871,-36461866384.379585,12870529870.401108,0.687049,-0.687000,0.242488
-1.700000,0.400000,2.440348,0.040000,-99284705682.124969,38549807749.297340,-38544927407.691460,16509391391.617615,0.726273,-0.726236,0.311047
-1.660000,0.400000,2.401491,0.040000,-100123716079.224213,40713684311.490265,-40711632732.360443,20974627364.531551,0.767058,-0.767042,0.395174
-1.620000,0.400000,2.362673,0.040000,-101027871249.338547,42909552310.124458,-42912104635.374779,26443515027.341568,0.808455,-0.808475,0.498211
-1.580000,0.400000,2.323895,0.040000,-102000677462.680206,45055459808.554321,-45065266523.575531,33132633061.347889,0.848926,-0.849000,0.624238
-1.540000,0.400000,2.285159,0.040000,-103045556966.758591,47022466053.061218,-47043464380.939461,41306277571.848877,0.886049,-0.886207,0.778234
-1.500000,0.400000,2.246467,0.040000,-104165639697.641678,48611834911.257721,-48649854989.319000,51285925227.394524,0.916090,-0.916377,0.966257
-1.460000,0.400000,2.207822,0.040000,-105363442381.796570,49521457481.364403,-49585122826.938828,63460027664.545715,0.933373,-0.933853,1.195624
-1.420000,0.400000,2.169227,0.040000,-106640380845.219864,49296220872.232208,-49398310332.770767,78292456518.576996,0.929346,-0.930116,1.475075
-1.380000,0.400000,2.130682,0.040000,-107996035395.690720,47253988573.365501,-47413568727.366859,96326427431.477219,0.891195,-0.892397,1.814846
-1.340000,0.400000,2.092193,0.040000,-109427049656.058273,42373442900.971657,-42619374834.647842,118179697596.083862,0.799730,-0.801584,2.226574
-1.300000,0.400000,2.053761,0.040000,-110925481469.425049,33121286406.792145,-33498120795.418591,144532449125.201843,0.626154,-0.628994,2.723075
-1.260000,0.400000,2.015391,0.040000,-112476327274.618591,17192595459.807484,-17768797818.807110,176148407690.080811,0.327175,-0.331518,3.318738
-1.220000,0.400000,1.977085,0.040000,-114053809887.368210,-8782477027.373219,7918802006.529603,214137946161.507751,-0.160585,0.154076,4.034483
-1.180000,0.400000,1.938847,0.040000,-115616022609.786255,-48888532645.902847,47761122768.947128,261232359860.076202,-0.914716,0.906220,4.921769
-1.140000,0.400000,1.900682,0.040000,-117098856800.690735,-102853200185.565796,102512378639.049561,326090600414.693848,-1.935888,1.933319,6.143736
-1.100000,0.400000,1.862594,0.040000,-118419004290.903336,-136943894214.034958,144123945871.260254,431779083774.658569,-2.620685,2.674796,8.134968
-1.060000,0.400000,1.824587,0.040000,-119538190494.070480,41008608150.552322,-2228290085.666231,593907762064.244263,0.553433,-0.261175,11.189567
-1.020000,0.400000,1.786668,0.040000,-120799619346.270920,982855867072.347534,-538229024630.052673,451038934874.836487,16.004466,-12.653655,8.497835
-0.980000,0.400000,1.748842,0.040000,-124230922657.452621,1600086229648.045898,8573337379872.346680,1401512957312.736816,-27.355407,104.024687,26.405317
-0.940000,0.400000,1.711114,0.040000,-139002254279.596924,10666242279294.992188,19678328214130.738281,3354211864712.546875,29.445398,199.238322,63.195296
-0.900000,0.400000,1.673492,0.040000,-46923777490.022186,-11876656034563.863281,-14855724081491.046875,2168537108973.815674,-72.667023,-128.794392,40.856496
-0.860000,0.400000,1.635983,0.040000,-51974252312.784988,-4129914346887.838379,-5795298517630.442383,-2019773851934.809570,-21.710951,-53.087754,-38.053710
-0.820000,0.400000,1.598594,0.040000,-44482498080.604881,-2596849085807.307129,1651175779024.549072,-3264122447606.135742,-43.581032,36.454219,-61.497959
-0.780000,0.400000,1.561335,0.040000,-33249354252.954502,-1047803811435.152100,885463348441.912720,-2026606348882.029297,-18.823655,17.600219,-38.182438
-0.740000,0.400000,1.524215,0.040000,-20386598338.191849,-539771053659.912048,571304284383.228149,-1932027998130.670166,-10.347831,10.585473,-36.400528
-0.700000,0.400000,1.487244,0.040000,-6677902439.887453,167830210122.924561,-164796973466.203308,-2049590558427.939453,3.144874,-3.122015,-38.615474
-0.660000,0.400000,1.450434,0.040000,6760429925.516660,911202464541.099609,-926728349453.992798,-1779737861031.737305,17.255338,-17.372344,-33.531293
-0.620000,0.400000,1.413797,0.040000,18764519032.973572,1398091130405.085938,-1418629880782.719238,-1209380634571.469482,26.456936,-26.611721,-22.785432
-0.580000,0.400000,1.377348,0.040000,28562158222.266293,1543575568861.689941,-1559209619143.952393,-570491559142.864624,29.170225,-29.288047,-10.748392
-0.540000,0.400000,1.341101,0.040000,35913009116.603096,1425854843295.461914,-1433497854457.866943,-42928536827.176582,26.907131,-26.964731,-0.808799
-0.500000,0.400000,1.305073,0.040000,40993814591.457970,1175148205970.122314,-1176522418460.018555,305970241585.366760,22.148241,-22.158597,5.764657
-0.460000,0.400000,1.269283,0.040000,44196613106.520874,898359723711.866455,-892536687929.893433,494864509468.084045,16.892705,-16.848821,9.323534
-0.420000,0.400000,1.233752,0.040000,45962590174.652214,678519185467.871704,-641682789146.659912,586790349276.947998,12.575489,-12.297881,11.055470
-0.380000,0.400000,1.198502,0.040000,46688458947.150665,540641517501.682190,-425506627051.633240,634541851722.052490,9.535237,-8.667554,11.955136
-0.340000,0.400000,1.163560,0.040000,46691625845.157570,392021871999.751953,-269885817160.145111,604040820851.705933,6.695585,-5.775139,11.380479
-0.300000,0.400000,1.128953,0.040000,46208730773.900139,205105184427.922821,-161442312951.409668,552874237778.065186,3.617510,-3.288457,10.416471
0.300000,0.400000,0.669239,0.040000,29483774605.175747,-234805820561.800446,186507942630.610382,596073908270.175781,-4.150890,3.786906,11.230378
0.340000,0.400000,0.641610,0.040000,29162740423.044277,-441553770311.627380,306412456045.600708,652233838015.699341,-7.555287,6.536831,12.288464
0.380000,0.400000,0.612833,0.040000,29391514775.432629,-605423449535.487549,478335320754.945007,685341868577.445435,-10.688205,9.730439,12.912238
0.420000,0.400000,0.584557,0.040000,30431658233.301910,-757452935970.460938,716878271217.305908,632207094236.072632,-14.041517,13.735737,11.911148
0.460000,0.400000,0.556857,0.040000,32633474466.845596,-999820584929.391602,993408543987.523926,530687447776.771790,-18.800957,18.752635,9.998459
0.500000,0.400000,0.527818,0.040000,36434382227.101418,-1304890217377.212891,1306395430457.565430,322735357261.608154,-24.593396,24.604740,6.080521
0.540000,0.400000,0.500293,0.040000,42320672534.776894,-1581412059763.237549,1589787375861.079346,-60821523707.257080,-29.842059,29.905177,-1.145913
0.580000,0.400000,0.471506,0.040000,50724811491.164864,-1712178394977.674805,1729298457585.890625,-640488739730.278809,-32.355199,32.484220,-12.067179
0.620000,0.400000,0.443147,0.040000,61843282877.638229,-1554348197663.423340,1576888765850.285400,-1342910256374.483887,-29.412224,29.582095,-25.301208
0.660000,0.400000,0.415796,0.040000,75415081966.493759,-1020188249527.987183,1037853062744.201416,-1972707240316.680176,-19.320783,19.453909,-37.166948
0.700000,0.400000,0.386402,0.040000,90592054135.228378,-191159617323.099884,191302456239.419250,-2275599781531.945312,-3.602365,3.603442,-42.873619
0.740000,0.400000,0.359064,0.040000,106073291341.470261,646240604444.941406,-670386337884.466919,-2121400680472.139893,12.312024,-12.493991,-39.968419
0.780000,0.400000,0.334286,0.040000,120543102001.184708,1233566964109.310547,-1168247929866.045654,-1835637804060.605469,22.871922,-22.379663,-34.584480
0.820000,0.400000,0.312678,0.040000,133089028405.615540,2066122499604.817871,-1662440514891.712158,-1975126304050.708984,36.645265,-33.603024,-37.212525
0.860000,0.400000,0.294937,0.040000,142621539450.340302,2830946232994.633301,713871654307.357178,-1122538064537.322754,33.300741,-6.586171,-21.149268
0.900000,0.400000,0.281794,0.040000,145726457063.045258,5452031847635.071289,3961772645071.784180,841301247187.293335,49.510980,21.433633,15.850603
0.940000,0.400000,0.273913,0.040000,181007978692.673157,-2806488369631.276367,-7859651744295.713867,1505124247833.281982,7.411011,-87.793516,28.357413
0.980000,0.400000,0.271751,0.040000,177211926905.865295,39372272613.118591,-3612839927969.779785,888077050009.928223,20.939657,-47.870138,16.731886
1.020000,0.400000,0.271751,0.040000,176428258615.891235,9668041947.527927,-159879064559.359619,576582440157.717773,1.031170,-2.163195,10.863147
1.060000,0.400000,0.273913,0.040000,175830782762.469421,191427250725.812531,-201197555749.541748,623950245778.673950,3.661824,-3.735455,11.755584
1.100000,0.400000,0.281794,0.040000,174948828932.078094,167493275425.244720,-168319528873.757263,534820343541.916504,3.160341,-3.166567,10.076325
1.140000,0.400000,0.294937,0.040000,173802482388.752533,101146124707.451050,-100041004323.614655,450569859976.647034,1.899405,-1.891077,8.488997
1.180000,0.400000,0.312678,0.040000,172493348923.218445,46188701899.533539,-45106408982.926735,378992117142.211182,0.864105,-0.855948,7.140431
1.220000,0.400000,0.334286,0.040000,171108833252.599731,8391950871.154478,-7603745759.490695,317748138782.647827,0.153654,-0.147714,5.986559
1.260000,0.400000,0.359064,0.040000,169709716544.189575,-15873430182.891470,16409911494.830414,265472992924.590027,-0.302097,0.306140,5.001665
1.300000,0.400000,0.386402,0.040000,168335178277.956940,-30711936440.108315,31068785756.751064,221248773116.997375,-0.580648,0.583337,4.168455
1.340000,0.400000,0.415796,0.040000,167009230110.053802,-39233653991.685959,39467650352.714485,184149163694.113556,-0.740507,0.742271,3.469477
1.380000,0.400000,0.443147,0.040000,165745694836.326782,-43601984735.559288,43753045025.033821,153208117394.338409,-0.822340,0.823479,2.886530
1.420000,0.400000,0.471506,0.040000,164551689397.766937,-45284703544.323074,45380144824.632332,127490807640.209457,-0.853730,0.854449,2.402001
1.460000,0.400000,0.500293,0.040000,163429991862.166443,-45267733026.642014,45326099203.709282,106148567440.170029,-0.853200,0.853640,1.999901
1.500000,0.400000,0.527818,0.040000,162380632254.083160,-44208780503.318367,44242610161.801727,88442603902.357742,-0.833110,0.833365,1.666310
1.540000,0.400000,0.556857,0.040000,161401954108.837158,-42543392201.947411,42561136072.069473,73746272715.550903,-0.801642,0.801776,1.389423
1.580000,0.400000,0.584557,0.040000,160491317639.052094,-40557312394.551025,40564646800.428505,61536322709.354126,-0.764165,0.764220,1.159380
1.620000,0.400000,0.612833,0.040000,159645561199.347839,-38435630378.215874,38436352710.388138,51379806724.084930,-0.724154,0.724159,0.968025
1.660000,0.400000,0.641610,0.040000,158861300324.559296,-36296076430.183357,36292713865.868690,42920258590.903366,-0.683820,0.683795,0.808643
1.700000,0.400000,0.669239,0.040000,158135118055.909790,-34211535930.212753,34205758418.612247,35864829313.202461,-0.644533,0.644489,0.675714
1.740000,0.400000,0.698068,0.040000,157463682879.031891,-32225246094.731544,32218146207.441898,29973034665.268478,-0.607102,0.607049,0.564709
1.780000,0.400000,0.725975,0.040000,156843818793.655884,-30361033213.604031,30353315641.354141,25047242465.778011,-0.571976,0.571918,0.471905
1.820000,0.400000,0.754199,0.040000,156272544033.753540,-28630191234.749519,28622301030.418053,20924787658.379002,-0.539365,0.539305,0.394235
1.860000,0.400000,0.782968,0.040000,155747089538.268402,-27036087215.549488,27028296520.559917,17471510966.605278,-0.509332,0.509273,0.329173
1.900000,0.400000,0.810663,0.040000,155264904605.135742,-25577229450.585087,25569696076.732204,14576497403.361547,-0.481847,0.481790,0.274630
1.940000,0.400000,0.839351,0.040000,154823654680.980530,-24249297124.672577,24242104046.554726,12147804566.508144,-0.456830,0.456776,0.228872
1.980000,0.400000,0.868934,0.040000,154421214563.358246,-23046469818.239651,23039651714.173145,10108997055.585474,-0.434170,0.434119,0.190459
2.020000,0.400000,0.899323,0.040000,154055659162.708923,-21962286399.970917,21955847405.203083,8396332508.573483,-0.413746,0.413697,0.158192
2.060000,0.400000,0.930440,0.040000,153725253211.794830,-20990189036.835819,20984114537.463249,6956472151.287168,-0.395433,0.395387,0.131064
2.100000,0.400000,0.962213,0.040000,153428440802.222168,-20123857928.928699,20118122319.496887,5744612631.560027,-0.379113,0.379070,0.108232
2.140000,0.400000,0.994581,0.040000,153163835289.843597,-19357408302.899864,19351980015.239414,4722955893.153785,-0.364674,0.364633,0.088983
2.180000,0.400000,1.027486,0.040000,152930209888.436127,-18685498013.807537,18680342699.269371,3859450164.905351,-0.352016,0.351978,0.072714
2.220000,0.400000,1.060878,0.040000,152726489126.651031,-18103378218.024311,18098460546.826546,3126748267.538387,-0.341050,0.341013,0.058910
2.260000,0.400000,1.094714,0.040000,152551741251.194366,-17606906766.722881,17602188869.767628,2501339859.683686,-0.331698,0.331662,0.047127
2.300000,0.400000,1.128953,0.040000,152405171598.262451,-17192503693.683743,17187905410.903412,1962821920.480708,-0.323891,0.323856,0.036981
2.340000,0.400000,1.163560,0.040000,152286116841.137390,-16856602510.403828,16851551122.775715,1493269760.627553,-0.317560,0.317522,0.028134
2.380000,0.400000,1.198502,0.040000,152194038608.458313,-16597362546.603710,16600247091.024639,1076869874.794942,-0.312720,0.312742,0.020289
2.420000,0.400000,1.233752,0.040000,152128493629.914368,-16423645757.494164,16486053569.314583,792005247.795933,-0.309784,0.310254,0.014922
2.460000,0.400000,1.269283,0.040000,152088808109.689056,-16178399800.619501,16213562505.625515,632808775.754084,-0.305009,0.305274,0.011922
-2.500000,0.440000,3.216463,0.040000,-46051968967.496582,-3744616686.058044,27340368969546.394531,-254245533907.886078,-154.581906,360.597046,-4.790133
-2.460000,0.440000,3.177027,0.040000,-92117279796.690521,1684208253242.706543,19052639870564.800781,-23232254391.818253,-85.476812,241.754508,-0.437709
-2.420000,0.440000,3.137605,0.040000,-92162546659.617020,-958905678536.909058,6105042775251.589844,-5069587677.237353,-47.153201,85.935683,-0.095514
-2.380000,0.440000,3.098198,0.040000,-92238922080.144531,-39104095124.206833,151529733345.747375,-631500084.679501,-1.372193,2.219459,-0.011898
-2.340000,0.440000,3.058806,0.040000,-92346341136.644012,19690388403.687714,-19685653549.243320,-800288909.459792,0.370952,-0.370916,-0.015078
-2.300000,0.440000,3.019430,0.040000,-92485273985.412338,20099386890.425800,-20093819995.954445,-946026517.525100,0.378653,-0.378611,-0.017824
-2.260000,0.440000,2.980071,0.040000,-92656374447.261307,20607197503.391953,-20601317676.996387,-1052563843.180345,0.388218,-0.388174,-0.019831
-2.220000,0.440000,2.940729,0.040000,-92860455379.157043,21217575935.757946,-21211381188.133297,-1109129741.669671,0.399716,-0.399670,-0.020897
-2.180000,0.440000,2.901405,0.040000,-93098493859.337830,21935893127.489429,-21929326850.774441,-1103177980.256785,0.413248,-0.413198,-0.020785
-2.140000,0.440000,2.862099,0.040000,-93371639760.399933,22768617172.905914,-22761614633.833755,-1019923504.476861,0.428934,-0.428882,-0.019216
-2.100000,0.440000,2.822814,0.040000,-93681226104.649307,23723349337.177780,-23715840786.464642,-841795449.939285,0.446919,-0.446863,-0.015860
-2.060000,0.440000,2.783548,0.040000,-94028781233.358841,24808903919.169056,-24800815273.272964,-547776196.317011,0.467368,-0.467307,-0.010320
-2.020000,0.440000,2.744304,0.040000,-94416042916.102463,26035381537.856972,-26026635732.472149,-112594243.703970,0.490472,-0.490406,-0.002121
-1.980000,0.440000,2.705082,0.040000,-94844974516.090714,27414218175.919464,-27404737839.102528,494269931.898130,0.516446,-0.516375,0.009312
-1.940000,0.440000,2.665883,0.040000,-95317783287.927567,28958186197.324783,-28947898377.134331,1309817787.677413,0.545531,-0.545453,0.024678
-1.900000,0.440000,2.626708,0.040000,-95836940806.236176,30681310780.228260,-30670154822.691395,2379074992.602792,0.577991,-0.577907,0.044823
-1.860000,0.440000,2.587559,0.040000,-96405205386.584427,32598645786.700249,-32586586008.081059,3757031792.344607,0.614109,-0.614018,0.070785
-1.820000,0.440000,2.548436,0.040000,-97025646132.694489,34725823870.154915,-34712869499.150177,5511099246.693326,0.654181,-0.654084,0.103832
-1.780000,0.440000,2.509340,0.040000,-97701667878.879776,37078251633.307297,-37064487756.876305,7724236328.532527,0.698498,-0.698394,0.145529
-1.740000,0.440000,2.470274,0.040000,-98437035722.963074,39669754262.799744,-39655389427.112968,10498951872.995777,0.747320,-0.747212,0.197806
-1.700000,0.440000,2.431238,0.040000,-99235896955.352814,42510373516.948502,-42495812576.915619,13962449190.244202,0.800838,-0.800728,0.263061
-1.660000,0.440000,2.392233,0.040000,-100102796822.024124,45602869945.510017,-45588825300.737709,18273262758.119564,0.859105,-0.858999,0.344279
-1.620000,0.440000,2.353262,0.040000,-101042682465.582687,48937246126.224754,-48924907555.528694,23629837558.766251,0.921936,-0.921843,0.445200
-1.580000,0.440000,2.314327,0.040000,-102060886190.899231,52482247243.046539,-52473541657.126785,30281620520.333843,0.988747,-0.988681,0.570523
-1.540000,0.440000,2.275428,0.040000,-103163074317.003647,56172236437.045082,-56170226447.186317,38543360337.405487,1.058306,-1.058291,0.726179
-1.500000,0.440000,2.236568,0.040000,-104355140400.828705,59886970155.306274,-59896468267.664711,48813421828.366005,1.128359,-1.128430,0.919673
-1.460000,0.440000,2.197749,0.040000,-105643010139.953812,63420434063.404419,-63448952957.314293,61596967720.225471,1.195039,-1.195254,1.160523
-1.420000,0.440000,2.158973,0.040000,-107032307575.583328,66432790771.318413,-66492013025.662247,77534787551.972824,1.251967,-1.252413,1.460800
-1.380000,0.440000,2.120242,0.040000,-108527804930.739426,68376421790.958221,-68484434244.083809,97438373664.040024,1.288862,-1.289676,1.835795
-1.340000,0.440000,2.081560,0.040000,-110132536670.718109,68383551693.729179,-68568001522.751915,122331885398.556351,1.289428,-1.290818,2.304804
-1.300000,0.440000,2.042928,0.040000,-111846396967.816360,65103502234.583527,-65404884701.677704,153502735399.494476,1.228291,-1.230562,2.892081
-1.260000,0.440000,2.004350,0.040000,-113663961373.050156,56502705534.186394,-56972345796.612335,192562799948.157532,1.067198,-1.070738,3.627995
-1.220000,0.440000,1.965829,0.040000,-115571224634.773972,39764098738.749832,-40433357308.197052,241488102061.747162,0.752961,-0.758005,4.549776
-1.180000,0.440000,1.927368,0.040000,-117541141843.950974,11848693127.949146,-12590125756.817022,302300342648.657104,0.227427,-0.233015,5.695514
-1.140000,0.440000,1.888971,0.040000,-119528997159.846436,-27746395510.476234,27644928185.054314,374234827804.914368,-0.522185,0.521420,7.050801
-1.100000,0.440000,1.850642,0.040000,-121472067989.519119,-70973069981.629807,73473522595.235153,437585766563.990723,-1.351307,1.370151,8.244370
-1.060000,0.440000,1.812385,0.040000,-123301436516.096161,-114693803589.522552,124694936934.440750,380695498137.194519,-2.217426,2.292797,7.172524
-1.020000,0.440000,1.774205,0.040000,-124933341610.929337,-369168642305.843750,359636971402.561157,-273026709500.717743,-6.901477,6.829644,-5.143981
-0.980000,0.440000,1.736107,0.040000,-125792655027.646805,-1996119807363.984863,5833724393311.839844,1263998321646.583496,-59.298863,88.219941,23.814461
-0.940000,0.440000,1.698097,0.040000,-119129632861.037582,-1942374407458.269043,7703569495368.554688,6487926724516.972656,-69.158736,112.576439,122.236301
-0.900000,0.440000,1.660179,0.040000,-87771776583.272217,-5573560425030.837891,-2363772057551.034668,5566502761375.479492,-60.145926,0.328348,104.876139
-0.860000,0.440000,1.622362,0.040000,-72514226218.085022,-4259116816413.014160,-833190837563.825195,-3167569291015.161133,-51.461621,13.084810,-59.678842
-0.820000,0.440000,1.584653,0.040000,-54793928026.343323,-3211623075834.952148,-569785867418.864014,-5774429147726.014648,-39.135660,10.638085,-108.793593
-0.780000,0.440000,1.547058,0.040000,-39861088050.874329,-1424525683532.438232,-126668984571.074539,-2873299626124.565430,-18.071268,6.381105,-54.134631
-0.740000,0.440000,1.509587,0.040000,-23819861199.801464,-1096593298928.640747,1169387762718.229980,-2623710808081.066406,-21.071900,21.620496,-49.432233
-0.700000,0.440000,1.472248,0.040000,-6173554134.753439,221060469231.657745,-225730375568.258850,-3145821817073.818359,4.191303,-4.226496,-59.269107
-0.660000,0.440000,1.435054,0.040000,11117889711.727482,1551619218535.633789,-1589739691554.506836,-2626381542550.041504,29.448869,-29.736154,-49.482551
-0.620000,0.440000,1.398014,0.040000,25984561370.725853,2261119931652.785156,-2301836196337.391602,-1546357596199.369141,42.830946,-43.137793,-29.134274
-0.580000,0.440000,1.361142,0.040000,37293061273.735542,2298843911321.360840,-2322999191243.525391,-471509871135.645203,43.448082,-43.630122,-8.883519
-0.540000,0.440000,1.324451,0.040000,44957996037.953651,1930661901704.151611,-1937354058841.725098,284178501223.603760,36.412615,-36.463048,5.354088
-0.500000,0.440000,1.287958,0.040000,49543884294.850594,1438693336246.191162,-1435584464572.462402,684467848106.221802,27.088245,-27.064815,12.895771
-0.460000,0.440000,1.251679,0.040000,51823810212.214264,989047669671.993286,-982790209949.903198,826031122028.421997,18.598863,-18.551706,15.562905
-0.420000,0.440000,1.215633,0.040000,52512312868.921638,645178110695.387329,-630414230844.472168,827886074224.189209,12.072082,-11.960818,15.597854
-0.380000,0.440000,1.179842,0.040000,52166773888.910965,422939045508.897949,-387716130908.827698,769982661126.671143,7.769331,-7.503883,14.506920
-0.340000,0.440000,1.144330,0.040000,51182922599.744293,248856981760.211304,-211071591245.281036,678461348201.196533,4.475040,-4.190281,12.782605
-0.300000,0.440000,1.109124,0.040000,49825475536.583229,131589460743.241165,-76607497145.207825,615619034203.775269,2.168454,-1.754097,11.598619
-0.260000,0.440000,1.074253,0.040000,48263903509.950333,81709334540.940826,16657249173.913374,546295040511.356384,0.983466,-0.242153,10.292515
0.260000,0.440000,0.669420,0.040000,26432341894.755608,-98279917753.231232,-11410461970.578878,590131331741.575439,-1.231662,0.405009,11.118416
0.300000,0.440000,0.641547,0.040000,24930438319.320927,-153752338143.482361,92884246129.054657,665998834958.101685,-2.552746,2.094030,12.547804
0.340000,0.440000,0.612671,0.040000,23666816775.527397,-283761937490.255371,241928553221.088196,734749536652.036133,-5.109790,4.794524,13.843107
0.380000,0.440000,0.585105,0.040000,22829624355.365772,-476046248428.575562,437158183367.901611,834999864014.881348,-8.749185,8.456116,15.731881
0.420000,0.440000,0.556282,0.040000,22711604169.808105,-721143859858.629150,704909967469.980713,898046244623.852173,-13.495012,13.372669,16.919712
0.460000,0.440000,0.528007,0.040000,23749315221.319260,-1099921074475.066406,1093056227607.421265,895456095432.854980,-20.684349,20.632614,16.870912
0.500000,0.440000,0.500374,0.040000,26556715600.014668,-1594759957051.014404,1591354842927.261475,739459443929.661377,-30.026956,30.001294,13.931845
0.540000,0.440000,0.471249,0.040000,31920175426.019768,-2135981735756.367432,2143329075207.646484,299550368304.963562,-40.284663,40.340034,5.643703
0.580000,0.440000,0.443822,0.040000,40690235268.662300,-2541524307877.955078,2567950218346.433105,-529995528379.896484,-48.033155,48.232307,-9.985423
0.620000,0.440000,0.414973,0.040000,53488920155.221756,-2503308568423.427734,2547534198486.628418,-1709173367364.212891,-47.413756,47.747050,-32.201817
0.660000,0.440000,0.386605,0.040000,70227880015.304718,-1733398988695.263672,1774283720066.569336,-2897870388874.535645,-32.889329,33.197446,-54.597558
0.700000,0.440000,0.359403,0.040000,89676587489.133789,-281688643413.987549,288796590232.271851,-3501669834069.788574,-5.347353,5.400920,-65.973490
0.740000,0.440000,0.329835,0.040000,109568555244.297028,1246598734519.364746,-1299225195000.552490,-3061558098014.332031,23.784097,-24.180702,-57.681529
0.780000,0.440000,0.302673,0.040000,127566602917.668991,2005138149462.441895,-1259252026472.607910,-2552107499454.112793,33.562087,-27.940916,-48.083185
0.820000,0.440000,0.278624,0.040000,142976900045.877228,3083338436862.146973,-1223458936888.823975,-3165901895988.774414,47.579521,-33.563038,-59.647427
0.860000,0.440000,0.258557,0.040000,157412259299.391174,3614111670142.995117,-1700034991931.149414,-1513087054256.821289,57.273265,-42.848339,-28.507437
0.900000,0.440000,0.243459,0.040000,167924465836.134308,3641624063095.176270,-923434815666.430542,2471522056511.907715,53.246630,-32.761726,46.564908
0.940000,0.440000,0.234291,0.040000,181149828256.723206,1701080685244.307129,-3708510746824.646973,3071550600615.471191,43.395690,-58.524149,57.869794
0.980000,0.440000,0.231760,0.040000,184008111069.253174,1284925613209.161377,-2625464893564.275879,1159820364654.523682,31.785705,-41.888319,21.851688
1.020000,0.440000,0.231760,0.040000,183271786515.706360,446160617845.983154,-437186113409.811646,525251683124.163879,8.355199,-8.287565,9.896046
1.060000,0.440000,0.234291,0.040000,181748279971.610291,194863859095.843384,-194566727250.881744,668102051838.181152,3.669669,-3.667429,12.587430
1.100000,0.440000,0.243459,0.040000,179902281453.033264,84850346515.312561,-83453975379.285828,606782979856.797485,1.590737,-1.580214,11.432143
1.140000,0.440000,0.258557,0.040000,177916977589.477264,15538851973.857901,-14188834179.068632,509993639084.372131,0.285130,-0.274956,9.608576
1.180000,0.440000,0.278624,0.040000,175904615825.394073,-28742403733.899784,29783397861.456276,419342198813.989807,-0.547407,0.555253,7.900650
1.220000,0.440000,0.302673,0.040000,173936658891.685791,-54817475246.603882,55524784101.577278,342660379007.628723,-1.036791,1.042121,6.455920
1.260000,0.440000,0.329835,0.040000,172055331807.493500,-68469509382.405792,68918773168.866898,279667914141.576782,-1.292545,1.295930,5.269106
1.300000,0.440000,0.359403,0.040000,170282865067.549042,-74157804324.322495,74430532628.304321,228428023817.602203,-1.398718,1.400773,4.303716
1.340000,0.440000,0.386605,0.040000,168628628620.326294,-74977895252.310440,75135977604.575653,186880941746.985718,-1.413521,1.414712,3.520945
1.380000,0.440000,0.414973,0.040000,167094110834.704834,-72959934836.994873,73045493366.001083,153200339793.637512,-1.375091,1.375736,2.886383
1.420000,0.440000,0.443822,0.040000,165676195051.020844,-69395053945.639862,69435586251.395203,125858565435.643723,-1.307672,1.307978,2.371248
1.460000,0.440000,0.471249,0.040000,164369247246.211700,-65087292896.532448,65100436022.126244,103611239812.654510,-1.226357,1.226456,1.952096
1.500000,0.440000,0.500374,0.040000,163166417539.684326,-60526886010.877487,60523846458.794380,85458604982.562622,-1.140344,1.140322,1.610090
1.540000,0.440000,0.528007,0.040000,162060434467.771423,-56004270828.287315,55992112527.844978,70602963060.685715,-1.055084,1.054993,1.330201
1.580000,0.440000,0.556282,0.040000,161044076085.767456,-51683804063.677200,51666934719.405190,58409509090.861954,-0.973657,0.973530,1.100469
1.620000,0.440000,0.585105,0.040000,160110437049.904510,-47651096675.552650,47632225112.256424,48372992810.254723,-0.897668,0.897525,0.911375
1.660000,0.440000,0.612671,0.040000,159253068225.900513,-43943305473.923271,43924057074.239311,40090492423.558617,-0.827809,0.827663,0.755328
1.700000,0.440000,0.641547,0.040000,158466037818.208893,-40568456797.416847,40549769256.092041,33239692889.564209,-0.764228,0.764087,0.626255
1.740000,0.440000,0.669420,0.040000,157743945277.708008,-37517715588.482880,37500093543.127151,27561780130.559021,-0.706756,0.706623,0.519280
1.780000,0.440000,0.697639,0.040000,157081907836.880737,-34773115696.999825,34756794519.937218,22848059530.336842,-0.655053,0.654930,0.430471
1.820000,0.440000,0.726445,0.040000,156475532181.639801,-32312370837.857811,32297421809.965591,18929514224.511021,-0.608699,0.608587,0.356643
1.860000,0.440000,0.754095,0.040000,155920879048.091583,-30111810973.036964,30098208546.877899,15668655498.662825,-0.567247,0.567145,0.295207
1.900000,0.440000,0.782812,0.040000,155414425501.145844,-28148119643.028030,28135784147.003094,12953148856.861374,-0.530257,0.530164,0.244045
1.940000,0.440000,0.812484,0.040000,154953027712.701782,-26399309699.637703,26388134129.684139,10690812082.461485,-0.497315,0.497231,0.201421
1.980000,0.440000,0.843011,0.040000,154533885825.212646,-24845220851.232380,24835087362.885017,8805673268.766558,-0.468041,0.467965,0.165904
2.020000,0.440000,0.874301,0.040000,154154511712.630798,-23467722422.729332,23458512181.004005,7234849024.392447,-0.442093,0.442024,0.136309
2.060000,0.440000,0.906278,0.040000,153812699973.430267,-22250739641.385811,22242338412.727226,5926058953.395429,-0.419169,0.419106,0.111650
2.100000,0.440000,0.938869,0.040000,153506502204.358124,-21180179321.948772,21172480361.428486,4835635312.543895,-0.399003,0.398945,0.091106
2.140000,0.440000,0.972014,0.040000,153234204440.189758,-20243803147.300964,20236708396.648571,3926919333.000750,-0.381365,0.381311,0.073985
2.180000,0.440000,1.005658,0.040000,152994307559.364746,-19431078732.425602,19424498991.423016,3168960430.904960,-0.366056,0.366006,0.059705
2.220000,0.440000,1.039751,0.040000,152785510418.804291,-18733027090.745239,18726881730.592037,2535453295.817591,-0.352906,0.352860,0.047769
2.260000,0.440000,1.074253,0.040000,152606695474.832855,-18142079734.393097,18136298650.071480,2003862107.501985,-0.341775,0.341731,0.037754
2.300000,0.440000,1.109124,0.040000,152456916662.787537,-17651987411.276802,17646550965.808380,1554692393.324467,-0.332543,0.332502,0.029291
2.340000,0.440000,1.144330,0.040000,152335389411.875336,-17258224583.201630,17253570272.771187,1170885915.509599,-0.325129,0.325094,0.022060
2.380000,0.440000,1.179842,0.040000,152241484120.939819,-16959266908.741898,16951298830.449615,837599311.190691,-0.319477,0.319417,0.015781
2.420000,0.440000,1.215633,0.040000,152174746116.255859,-16767124038.141151,16789585401.656260,612100454.626550,-0.316029,0.316199,0.011532
2.460000,0.440000,1.251679,0.040000,152135201386.781036,-16770252155.827198,16925304091.219786,487396615.648309,-0.316838,0.318006,0.009183
-2.500000,0.480000,3.210056,0.040000,-45979897818.371124,-3518461042898.310547,25101021351281.546875,-2611445905634.465332,-188.278230,350.929409,-49.201155
-2.460000,0.480000,3.170540,0.040000,-91971868564.250946,282211753329.451111,18373549219477.476562,-1535025541038.421143,-100.128572,240.722713,-28.920771
-2.420000,0.480000,3.131036,0.040000,-92017520767.020615,-1113759250871.312500,5930143491576.290039,-313069325224.153992,-48.206911,84.504300,-5.898408
-2.380000,0.480000,3.091545,0.040000,-92092946932.427628,-39254208717.627106,151492424465.296082,-912077495.698140,-1.373962,2.219815,-0.017184
-2.340000,0.480000,3.052067,0.040000,-92198968718.420258,19478101214.508862,-19471461848.739540,-1176529633.122810,0.366941,-0.366891,-0.022167
-2.300000,0.480000,3.012603,0.040000,-92336163586.632782,19921127684.263332,-19914894506.235020,-1422911753.994178,0.375290,-0.375243,-0.026808
-2.260000,0.480000,2.973153,0.040000,-92505241623.751862,20470948250.974373,-20464428682.143784,-1634746525.530105,0.385648,-0.385599,-0.030800
-2.220000,0.480000,2.933719,0.040000,-92707083093.894363,21134267421.845943,-21127328989.384640,-1802406198.631424,0.398143,-0.398090,-0.033958
-2.180000,0.480000,2.894299,0.040000,-92942749952.202515,21918509659.305779,-21911060596.451439,-1914578823.649384,0.412915,-0.412859,-0.036072
-2.140000,0.480000,2.854896,0.040000,-93213497764.287643,22832589787.079651,-22824530965.916100,-1957838064.892609,0.430134,-0.430073,-0.036887
-2.100000,0.480000,2.815510,0.040000,-93520789986.972900,23887144555.470127,-23878364664.490582,-1916113664.607787,0.449998,-0.449932,-0.036101
-2.060000,0.480000,2.776141,0.040000,-93866315005.921280,25094750772.726006,-25085124450.281590,-1770043321.643942,0.472745,-0.472673,-0.033349
-2.020000,0.480000,2.736791,0.040000,-94252006279.874466,26470169722.394798,-26459556049.171272,-1496171354.723872,0.498653,-0.498573,-0.028189
-1.980000,0.480000,2.697460,0.040000,-94680065982.292236,28030616947.413300,-28018858386.749477,-1065948131.369092,0.528047,-0.527958,-0.020083
-1.940000,0.480000,2.658148,0.040000,-95152992571.359344,29796049576.572239,-29782971765.780510,-444469356.756027,0.561301,-0.561202,-0.008374
-1.900000,0.480000,2.618858,0.040000,-95673612746.750992,31789455854.868000,-31774868912.289486,411126016.978045,0.598849,-0.598739,0.007746
-1.860000,0.480000,2.579589,0.040000,-96245118254.046875,34037119660.760151,-34020822066.905167,1553708430.505185,0.641187,-0.641064,0.029273
-1.820000,0.480000,2.540343,0.040000,-96871107956.017456,36568813880.586212,-36550600611.563034,3048808586.077174,0.688875,-0.688737,0.057441
-1.780000,0.480000,2.501121,0.040000,-97555635473.577103,39417846535.315826,-39397524103.475578,4978067501.124496,0.742540,-0.742387,0.093790
-1.740000,0.480000,2.461925,0.040000,-98303262459.477661,42620836089.209450,-42598248700.885223,7443760599.396298,0.802874,-0.802703,0.140245
-1.700000,0.480000,2.422754,0.040000,-99119117127.972275,46217017075.252213,-46192090603.835739,10574773358.959705,0.870615,-0.870427,0.199235
-1.660000,0.480000,2.383611,0.040000,-100008956901.771057,50246757244.265259,-50219571738.440933,14534548710.311665,0.946524,-0.946320,0.273839
-1.620000,0.480000,2.344497,0.040000,-100979232759.375015,54748775363.502220,-54719683358.212784,19531724337.697739,1.031334,-1.031115,0.367989
-1.580000,0.480000,2.305413,0.040000,-102037150760.043945,59755239176.907997,-59725057806.258881,25834451604.532669,1.125653,-1.125425,0.486736
-1.540000,0.480000,2.266361,0.040000,-103190722788.343338,65283420964.316940,-65253743508.646645,33789763105.164635,1.229810,-1.229586,0.636619
-1.500000,0.480000,2.227343,0.040000,-104448792981.505157,71321771088.870682,-71295472319.734970,43849864262.328835,1.343595,-1.343397,0.826157
-1.460000,0.480000,2.188360,0.040000,-105821017256.651733,77806944150.930054,-77788999260.002762,56607897490.604156,1.465827,-1.465691,1.066526
-1.420000,0.480000,2.149415,0.040000,-107317758695.725296,84586196813.695084,-84584999877.236877,72846571498.196045,1.593646,-1.593637,1.372472
-1.380000,0.480000,2.110509,0.040000,-108949837860.620758,91356346165.336517,-91385791251.349350,93603927885.391327,1.721373,-1.721595,1.763552
-1.340000,0.480000,2.071645,0.040000,-110728039218.344528,97565995690.054688,-97648614669.279144,120260638311.799805,1.838667,-1.839290,2.265780
-1.300000,0.480000,2.032825,0.040000,-112662215623.855789,102262529172.657227,-102433824288.404312,154648969484.816467,1.927654,-1.928944,2.913676
-1.260000,0.480000,1.994051,0.040000,-114759743882.376205,103859602481.670135,-104173455038.797501,199160167206.126038,1.958549,-1.960914,3.752293
-1.220000,0.480000,1.955327,0.040000,-117022954933.181946,99777734921.181442,-100315766506.171021,256730759365.499725,1.882911,-1.886966,4.836956
-1.180000,0.480000,1.916655,0.040000,-119444942253.888535,85728789589.742371,-86647329407.042603,330254533620.786743,1.620372,-1.627294,6.222187
-1.140000,0.480000,1.878039,0.040000,-122002481346.068848,53294302817.329140,-55128791187.946907,420058626918.874023,1.014464,-1.028290,7.914148
-1.100000,0.480000,1.839483,0.040000,-124641587995.347351,-20907476426.231743,15572762041.784428,516930967918.144165,-0.363756,0.323553,9.739279
-1.060000,0.480000,1.800989,0.040000,-127235986416.297363,-220612282576.485077,199080799357.773163,595742200129.423828,-4.034764,3.872497,11.224128
-1.020000,0.480000,1.762562,0.040000,-129438173930.244766,-847863011868.830322,783438789524.022949,716470328405.588379,-15.610094,15.124578,13.498716
-0.980000,0.480000,1.724207,0.040000,-130184360280.594025,-2215867503522.979980,2557699557249.329590,2213162697455.842285,-43.680323,46.256448,41.697268
-0.940000,0.480000,1.685928,0.040000,-127043699646.205322,-1932379033603.434326,2436718149031.315918,6548796626604.220703,-39.257754,43.058570,123.383125
-0.900000,0.480000,1.647731,0.040000,-120749902289.748978,-747517308363.179565,5372349499720.621094,5717099474686.420898,-40.224015,75.077823,107.713468
-0.860000,0.480000,1.609621,0.040000,-111910582301.747635,1260949276664.130127,9373796370711.744141,-2152942314522.446045,-36.352417,116.498326,-40.562681
-0.820000,0.480000,1.571606,0.040000,-60630996779.587776,-7710495147571.693359,-6083113070096.436523,-5423809154959.359375,-67.306326,-36.645504,-102.187709
-0.780000,0.480000,1.533691,0.040000,-48661183760.514870,-4022108368054.655273,-1457447363368.726074,-3963830508046.144043,-44.807451,3.512249,-74.680865
-0.740000,0.480000,1.495885,0.040000,-29207661326.472301,-2785346803393.289551,2721615897385.234375,-4478500816817.285156,-52.117330,51.637039,-84.377552
-0.700000,0.480000,1.458196,0.040000,-5300910395.658610,364143060295.893311,-406204602148.490051,-5377938896459.604492,7.098406,-7.415391,-101.323486
-0.660000,0.480000,1.420634,0.040000,18083965325.939690,2920324991134.038086,-3014487043168.664551,-4044389263817.103516,55.552836,-56.262463,-76.198638
-0.620000,0.480000,1.383208,0.040000,36951875529.176468,3849027859366.784180,-3930681542870.375488,-1824900624333.143799,72.979437,-73.594798,-34.382186
-0.580000,0.480000,1.345930,0.040000,49775327552.077545,3456473411551.448242,-3487603181239.878418,-2399477226.035020,65.297914,-65.532515,-0.045208
-0.540000,0.480000,1.308813,0.040000,57110770001.002556,2535786233539.117676,-2532156171219.170898,987052499454.219238,47.755165,-47.727808,18.596641
-0.500000,0.480000,1.271871,0.040000,60385248576.733818,1641332877021.698975,-1626885631222.643311,1321636719839.282959,30.842005,-30.733127,24.900402
-0.460000,0.480000,1.235119,0.040000,61013767160.829880,971345995230.972412,-957682174425.860107,1302808585204.186279,18.223491,-18.120518,24.545669
-0.420000,0.480000,1.198576,0.040000,60068318244.852913,529066176509.762939,-519147032849.315308,1142348859828.762695,9.911849,-9.837096,21.522515
-0.380000,0.480000,1.162260,0.040000,58261514706.043755,258022393881.137787,-251498353693.760101,950285320769.479980,4.824416,-4.775250,17.903926
-0.340000,0.480000,1.126193,0.040000,56032142068.912727,101269783447.766525,-91978204965.350906,779790775197.465454,1.855464,-1.785440,14.691710
-0.300000,0.480000,1.090402,0.040000,53635692323.637833,24786881581.203529,8836143166.436554,651740370673.104614,0.276956,-0.023565,12.279166
-0.260000,0.480000,1.054912,0.040000,51212591097.352180,-22314138538.191170,57357715550.184067,541024054532.964539,-0.618484,0.882580,10.193207
-0.220000,0.480000,1.019757,0.040000,48833514233.896408,-99329152136.315704,69575280215.387207,429092258722.944397,-1.703245,1.479013,8.084347
-0.180000,0.480000,0.984971,0.040000,46527755807.696770,-129158767432.244125,77192633898.834213,362828599866.586914,-2.139704,1.748076,6.835901
-0.140000,0.480000,0.950595,0.040000,44300448053.047951,-77673174197.988068,78495272613.460495,312340180320.970337,-1.468054,1.474250,5.884670
0.140000,0.480000,0.726278,0.040000,29543258191.037975,84260723998.239929,-85637746170.615112,332343832041.632629,1.595304,-1.605682,6.261550
0.180000,0.480000,0.697526,0.040000,27300182311.789661,138693879306.332611,-81590911466.607193,388251432668.788513,2.290317,-1.859976,7.314882
0.220000,0.480000,0.669931,0.040000,24977191135.043716,102843843849.563904,-71412987473.946472,461987345384.716064,1.759985,-1.523115,8.704109
0.260000,0.480000,0.641080,0.040000,22582411882.267601,16693851294.605583,-56314593435.899246,585409456195.710571,0.538465,-0.837056,11.029454
0.300000,0.480000,0.612868,0.040000,20150526609.375851,-36078151068.205681,-1194598466.004543,706828253822.916870,-0.469061,0.188165,13.317054
0.340000,0.480000,0.585036,0.040000,17761676117.063072,-121418267318.245316,111167112010.999023,847271170568.814575,-2.229649,2.152394,15.963080
0.380000,0.480000,0.556102,0.040000,15572587181.944593,-295066018547.660156,287906115372.794067,1034218350425.428955,-5.518746,5.464787,19.485273
0.420000,0.480000,0.528614,0.040000,13866282254.229059,-594153042704.710938,583269722924.121216,1244638630358.086670,-11.132673,11.050654,23.449713
0.460000,0.480000,0.499733,0.040000,13126913556.110321,-1081116384804.918457,1066124996010.536255,1420167215521.737549,-20.284125,20.171147,26.756774
0.500000,0.480000,0.471461,0.040000,14139066245.600582,-1817874835053.402832,1802035413442.274414,1440075913805.890869,-34.160289,34.040919,27.131865
0.540000,0.480000,0.443913,0.040000,18081550760.149189,-2800651978534.654297,2796740419898.624512,1071968002586.152100,-52.743798,52.714320,20.196499
0.580000,0.480000,0.414681,0.040000,26509076777.224083,-3811295335273.479004,3845614630407.385742,-14350484718.272694,-72.000992,72.259630,-0.270371
0.620000,0.480000,0.387378,0.040000,40988220283.947540,-4242075789616.663574,4331317677551.757812,-2010584193890.448730,-80.427578,81.100125,-37.880572
0.660000,0.480000,0.358450,0.040000,62130785334.761909,-3236418419615.932617,3335389653816.357422,-4428712724601.166016,-61.535402,62.281272,-83.439515
0.700000,0.480000,0.330072,0.040000,88286436137.576416,-515778811457.877380,549596803682.928772,-5878329589970.815430,-9.908717,10.163577,-110.751137
0.740000,0.480000,0.303076,0.040000,115213328202.656860,2732584570360.598145,-2740183851984.171875,-5072624812291.654297,51.526430,-51.583700,-95.571192
0.780000,0.480000,0.273268,0.040000,137835265945.924377,4354218736907.457031,-1680143552016.760986,-3558005726386.617188,66.921667,-46.769217,-67.034890
0.820000,0.480000,0.246364,0.040000,153053612025.522980,6298110681751.532227,542078838772.160339,-2943875769920.183594,79.998116,-28.448861,-55.464326
0.860000,0.480000,0.223418,0.040000,183929832426.017090,1489840580301.545898,-6879071587467.110352,-615663849555.460938,58.530331,-99.144826,-11.599464
0.900000,0.480000,0.205757,0.040000,190218669718.711090,1760203825821.281006,-4252935665600.196777,3189874713495.964355,47.252614,-66.038420,60.099089
0.940000,0.480000,0.194824,0.040000,192648001371.143097,1466466981002.367676,-1673066820819.751709,3629296213624.426270,28.796826,-30.353811,68.378045
0.980000,0.480000,0.191772,0.040000,192705042285.974396,1185925918881.182129,-1300885277787.863281,1809936291752.239990,22.993302,-23.859662,34.100249
1.020000,0.480000,0.191772,0.040000,190733742175.406403,473760428989.300598,-445915843442.809753,1068078200328.594238,8.768539,-8.558695,20.123212
1.060000,0.480000,0.194824,0.040000,187961407134.663361,115229903077.810257,-104131192725.549377,858041031751.632690,2.108266,-2.024624,16.165990
1.100000,0.480000,0.205757,0.040000,184985528047.708191,-30951111584.911911,34984786505.731499,697944271362.632935,-0.605936,0.636335,13.149675
1.140000,0.480000,0.223418,0.040000,182051903069.970398,-94734026439.581757,96607160255.758652,559110633814.280518,-1.795431,1.809548,10.533968
1.180000,0.480000,0.246364,0.040000,179266642385.121613,-121762631928.036850,122753226039.590775,444770033183.197693,-2.299678,2.307143,8.379725
1.220000,0.480000,0.273268,0.040000,176674585934.903351,-130206665886.529678,130743141881.809387,353703582616.506958,-2.456201,2.460244,6.663981
1.260000,0.480000,0.303076,0.040000,174290005562.484009,-128793722391.905823,129071341741.059494,282112516293.568176,-2.428118,2.430210,5.315163
1.300000,0.480000,0.330072,0.040000,172111055219.384430,-122294722362.253220,122421879554.494141,225959224846.131836,-2.304822,2.305780,4.257203
1.340000,0.480000,0.358450,0.040000,170127573313.002716,-113439484267.053772,113480500802.598572,181797751578.568634,-2.137497,2.137807,3.425175
1.380000,0.480000,0.387378,0.040000,168325526469.147308,-103785880471.674713,103779246238.451874,146901456726.324005,-1.955349,1.955299,2.767709
1.420000,0.480000,0.414681,0.040000,166689543705.449890,-94197613914.136185,94166162989.681198,119172704652.380325,-1.774560,1.774323,2.245283
1.460000,0.480000,0.443913,0.040000,165204322931.524261,-85127289944.285431,85084374726.884903,97012782587.105682,-1.603605,1.603282,1.827777
1.500000,0.480000,0.471461,0.040000,163855369906.638916,-76786896153.128372,76740163632.385254,79204590508.403809,-1.446445,1.446093,1.492260
1.540000,0.480000,0.499733,0.040000,162629346312.695099,-69250334309.709549,69204020620.470230,64818884258.193298,-1.304455,1.304106,1.221225
1.580000,0.480000,0.528614,0.040000,161514193316.424072,-62514754939.342903,62471072305.300217,53142658516.803139,-1.177567,1.177238,1.001238
1.620000,0.480000,0.556102,0.040000,160499130168.882355,-56536980982.207397,56496953993.213455,43625469370.638214,-1.064963,1.064662,0.821929
1.660000,0.480000,0.585036,0.040000,159574586977.247009,-51254903554.026772,51218872714.270081,35839506044.555550,-0.965468,0.965197,0.675237
1.700000,0.480000,0.612868,0.040000,158732106400.542511,-46599826695.683167,46567750922.174828,29449941981.349754,-0.877786,0.877545,0.554854
1.740000,0.480000,0.641080,0.040000,157964234334.312347,-42503374048.748383,42475011447.303452,24192883387.126305,-0.800628,0.800414,0.455808
1.780000,0.480000,0.669931,0.040000,157264410824.673981,-38901144691.364929,38876159480.219284,19858907228.736816,-0.732779,0.732591,0.374153
1.820000,0.480000,0.697526,0.040000,156626867176.203918,-35734444794.700157,35712469375.973114,16280708922.122299,-0.673133,0.672968,0.306738
1.860000,0.480000,0.726278,0.040000,156046532094.191406,-32950900551.845737,32931570380.382267,13323777571.447659,-0.620705,0.620559,0.251028
1.900000,0.480000,0.756052,0.040000,155518947884.324066,-30504440801.410515,30487412838.037182,10879309652.793884,-0.574625,0.574497,0.204973
1.940000,0.480000,0.786735,0.040000,155040196707.581421,-28354944147.841335,28339905507.831741,8858785592.203276,-0.534139,0.534025,0.166905
1.980000,0.480000,0.818222,0.040000,154606836341.013031,-26467726776.876698,26454397628.741669,7189788483.048850,-0.498592,0.498492,0.135460
2.020000,0.480000,0.850425,0.040000,154215844633.874176,-24812974431.936069,24801107631.282387,5812756189.262017,-0.467424,0.467334,0.109516
2.060000,0.480000,0.883266,0.040000,153864571755.392212,-23365177489.991970,23354556458.959682,4678439165.891386,-0.440153,0.440073,0.088145
2.100000,0.480000,0.916676,0.040000,153550699333.034729,-22102600958.619431,22093036721.862484,3745895158.267076,-0.416372,0.416300,0.070575
2.140000,0.480000,0.950595,0.040000,153272205634.616028,-21006804889.600101,20998132801.561886,2980894763.068163,-0.395731,0.395666,0.056162
2.180000,0.480000,0.984971,0.040000,153027336027.400818,-20062221054.407276,20054297516.223713,2354643127.494089,-0.377939,0.377879,0.044363
2.220000,0.480000,1.019757,0.040000,152814578036.915039,-19255786105.870724,19248485286.787468,1842746026.705754,-0.362749,0.362694,0.034718
2.260000,0.480000,1.054912,0.040000,152632640418.268341,-18576626335.449265,18569834511.868744,1424365466.731028,-0.349956,0.349905,0.026836
2.300000,0.480000,1.090402,0.040000,152480435734.544617,-18015753632.221252,18009324951.250687,1081522175.175855,-0.339391,0.339342,0.020377
2.340000,0.480000,1.126193,0.040000,152357065932.897003,-17565296973.205872,17558586736.832569,798507265.460780,-0.330902,0.330852,0.015044
2.380000,0.480000,1.162260,0.040000,152261809039.580933,-17220557319.575932,17223049627.871769,561476217.111995,-0.324459,0.324478,0.010579
2.420000,0.480000,1.198576,0.040000,152194083144.635803,-16991430498.379002,17068374911.571680,405823271.831781,-0.320563,0.321143,0.007646
2.460000,0.480000,1.235119,0.040000,152153106588.790161,-16705645804.669664,16768745605.750292,320998516.085760,-0.315101,0.315576,0.006048
-2.500000,0.520000,3.204134,0.040000,-45892862420.795410,358894752695.487732,27473521535051.511719,-1982908365057.412354,-150.551872,360.303415,-37.359143
-2.460000,0.520000,3.164544,0.040000,-91798636783.812317,2760445591430.983398,14976574869642.281250,-1114636923919.710205,-48.244329,181.914628,-21.000406
-2.420000,0.520000,3.124965,0.040000,-91842438455.351624,-618161293159.539062,4695957892213.848633,-732994901230.309326,-34.694933,65.426153,-13.810049
-2.380000,0.520000,3.085396,0.040000,-91916376426.210938,-38129451531.107391,146083079699.583160,-3581601926.477467,-1.328554,2.142117,-0.067479
-2.340000,0.520000,3.045839,0.040000,-92020448896.534576,19166690939.726158,-19161046413.957584,-1578860604.375309,0.361080,-0.361037,-0.029747
-2.300000,0.520000,3.006293,0.040000,-92155198566.484177,19635763824.035717,-19629178625.153862,-1934120419.130120,0.369912,-0.369862,-0.036440
-2.260000,0.520000,2.966759,0.040000,-92321375601.789185,20221389671.478256,-20214325125.780239,-2260826607.839663,0.380943,-0.380890,-0.042595
-2.220000,0.520000,2.927239,0.040000,-92519917621.385010,20930289054.003014,-20922695837.300724,-2550819875.671853,0.394296,-0.394239,-0.048059
-2.180000,0.520000,2.887731,0.040000,-92751959663.366135,21771574814.200207,-21763341649.575291,-2794455641.032431,0.410143,-0.410081,-0.052649
-2.140000,0.520000,2.848237,0.040000,-93018848759.646973,22756410306.384331,-22747406221.511410,-2980191795.211640,0.428693,-0.428625,-0.056149
-2.100000,0.520000,2.808757,0.040000,-93322161821.603333,23898251674.972599,-23888325548.597813,-3094101053.863795,0.450201,-0.450126,-0.058295
-2.060000,0.520000,2.769293,0.040000,-93663727200.290909,25213193414.554218,-25202170147.205055,-3119270206.254980,0.474969,-0.474886,-0.058769
-2.020000,0.520000,2.729843,0.040000,-94045650474.144409,26720386444.653656,-26708062387.829720,-3035049958.749576,0.503358,-0.503265,-0.057182
-1.980000,0.520000,2.690411,0.040000,-94470345133.923431,28442536105.414085,-28428673873.124332,-2816107948.455544,0.535796,-0.535691,-0.053057
-1.940000,0.520000,2.650995,0.040000,-94940568962.614639,30406490412.138359,-30390813094.414398,-2431221226.752132,0.572787,-0.572669,-0.045806
-1.900000,0.520000,2.611597,0.040000,-95459467052.393784,32643928767.273674,-32626113643.639973,-1841721795.359239,0.614930,-0.614796,-0.034699
-1.860000,0.520000,2.572217,0.040000,-96030622561.321182,35192159474.188293,-35171831483.319923,-999476956.329821,0.662926,-0.662773,-0.018831
-1.820000,0.520000,2.532857,0.040000,-96658116486.120132,38095029673.119652,-38071755174.440826,155758606.270769,0.717601,-0.717425,0.002935
-1.780000,0.520000,2.493517,0.040000,-97346597906.419342,41403941539.348236,-41377223388.860069,1699845691.787130,0.779923,-0.779722,0.032026
-1.740000,0.520000,2.454199,0.040000,-98101366324.244797,45178949977.237183,-45148225787.820953,3728935852.906143,0.851024,-0.850792,0.070255
-1.700000,0.520000,2.414903,0.040000,-98928467850.006012,49489883124.156723,-49454530046.023087,6365766958.994210,0.932218,-0.931952,0.119935
-1.660000,0.520000,2.375631,0.040000,-99834807017.474136,54417366501.952698,-54376718404.944359,9768215582.731522,1.025025,-1.024719,0.184039
-1.620000,0.520000,2.336383,0.040000,-100828275846.852219,60053525075.590790,-60006912443.073044,14141017333.516401,1.131180,-1.130828,0.266425
-1.580000,0.520000,2.297161,0.040000,-101917901243.496841,66501950645.516579,-66448781218.492493,19751968383.729095,1.252635,-1.252234,0.372139
-1.540000,0.520000,2.257967,0.040000,-103114010616.056396,73876195081.258926,-73816106803.812042,26954513183.405476,1.391531,-1.391078,0.507839
-1.500000,0.520000,2.218801,0.040000,-104428413189.570999,82295477884.949631,-82228619347.526810,36219495853.367928,1.550117,-1.549613,0.682396
-1.460000,0.520000,2.179665,0.040000,-105874589945.157425,91875294434.041840,-91802829489.040726,48180132560.965332,1.730574,-1.730028,0.907742
-1.420000,0.520000,2.140562,0.040000,-107467876806.035995,102708847143.425613,-102633854219.236267,63696098159.725464,1.934670,-1.934105,1.200071
-1.380000,0.520000,2.101492,0.040000,-109225610732.104019,114832063140.480850,-114761138990.008423,83945089691.579544,2.163102,-2.162567,1.581574
-1.340000,0.520000,2.062458,0.040000,-111167181606.205353,128159017154.846756,-128105197980.732147,110552988138.980896,2.414286,-2.413880,2.082882
-1.300000,0.520000,2.023462,0.040000,-113313884350.695633,142362067435.398193,-142350508198.951294,145775061646.834961,2.682119,-2.682031,2.746487
-1.260000,0.520000,1.984505,0.040000,-115688374525.016769,156639826056.127594,-156720406385.835663,192735860640.088501,2.951641,-2.952248,3.631255
-1.220000,0.520000,1.945591,0.040000,-118313343346.529892,169226077705.860504,-169506568285.879639,255720023282.056458,3.189903,-3.192017,4.817913
-1.180000,0.520000,1.906722,0.040000,-121208590514.039230,176224629978.059479,-176968101629.078308,340520540251.135010,3.324376,-3.329979,6.415604
-1.140000,0.520000,1.867901,0.040000,-124384536668.847778,168660964009.042236,-170562497709.947266,455242688060.339417,3.188418,-3.202749,8.577036
-1.100000,0.520000,1.829130,0.040000,-127827294490.914948,125660812020.343185,-130429385174.320877,614477337462.086060,2.394475,-2.430412,11.577109
-1.060000,0.520000,1.790413,0.040000,-131464673978.305679,5607306973.646137,-15535793061.372288,860541345381.956421,0.161762,-0.236586,16.213098
-1.020000,0.520000,1.751755,0.040000,-135103938553.838058,-213034829421.342010,216140993493.158173,1350082828143.113525,-4.031256,4.054665,25.436343
-0.980000,0.520000,1.713157,0.040000,-138424896982.316254,-192917417670.704834,272705642097.484131,2426946829383.171875,-4.085653,4.686955,45.725085
-0.940000,0.520000,1.674626,0.040000,-141591362641.648346,1128437872867.295166,-450881272823.501465,4112085064522.470215,17.430756,-12.324532,77.474066
-0.900000,0.520000,1.636165,0.040000,-147755258364.546387,2847914684313.024902,8480587248848.114258,4424455532452.609375,-10.374299,95.748517,83.359307
-0.860000,0.520000,1.597780,0.040000,-166898009673.932770,11630268368894.898438,22323356432038.464844,2609478995448.693848,27.209206,228.673184,49.164097
-0.820000,0.520000,1.559476,0.040000,-73126760937.253098,-13568877222481.130859,-9082844036191.708984,-284290078986.367676,-127.614045,-43.094579,-5.356190
-0.780000,0.520000,1.521259,0.040000,-65940722427.867577,-8578062417074.265625,309064025352.833435,-4781957679757.099609,-114.877852,52.560762,-90.094855
-0.740000,0.520000,1.483136,0.040000,-39340748197.740532,-5594717449923.959961,5338100037072.469727,-9279303290652.572266,-103.957274,102.023345,-174.827453
-0.700000,0.520000,1.445115,0.040000,-3707608364.822402,1359200339397.746826,-1437313916040.429443,-10008612857066.927734,26.049634,-26.638316,-188.568068
-0.660000,0.520000,1.407203,0.040000,30044093865.402813,6171794093031.978516,-6400360203657.020508,-6320494278028.551758,117.572074,-119.294601,-119.081776
-0.620000,0.520000,1.369410,0.040000,54332479082.083687,6831299942994.627930,-6996741754104.171875,-1526102681793.762451,129.640757,-130.887565,-28.752659
-0.580000,0.520000,1.331746,0.040000,67875065754.107964,5080047446855.244141,-5090347136355.344727,1405036348753.836426,95.769254,-95.846875,26.471699
-0.540000,0.520000,1.294223,0.040000,73305354338.278305,3049070592224.041992,-3008877255695.145508,2354026758606.483887,57.219078,-56.916172,44.351229
-0.500000,0.520000,1.256852,0.040000,73807212849.476044,1589202897901.579102,-1553062152233.530762,2292032026777.227051,29.737230,-29.464865,43.183212
-0.460000,0.520000,1.219647,0.040000,71715618546.325134,718330552785.838501,-695232579337.434204,1903431378881.208984,13.403210,-13.229139,35.861751
-0.420000,0.520000,1.182626,0.040000,68440224558.855598,247247939040.715881,-234126785652.818726,1486594131050.634277,4.584131,-4.485247,28.008295
-0.380000,0.520000,1.145804,0.040000,64749003699.545708,10472909561.263371,-3394230007.185310,1136244010830.588135,0.157306,-0.103959,21.407496
-0.340000,0.520000,1.109203,0.040000,61029918338.574791,-97781991985.983383,101496741569.220871,866443027132.628174,-1.863266,1.891261,16.324289
-0.300000,0.520000,1.072845,0.040000,57461401545.968704,-135495503453.477753,142457829526.653259,671065603580.065796,-2.592166,2.644636,12.643265
-0.260000,0.520000,1.036754,0.040000,54110658025.967415,-145989048029.827179,146816708726.061554,521852217039.182800,-2.755196,2.761434,9.831998
-0.220000,0.520000,1.000961,0.040000,50987500997.369438,-158644043776.787384,139959101666.169678,410168149409.886597,-2.883335,2.742521,7.727806
-0.180000,0.520000,0.965499,0.040000,48073097748.736458,-139872871084.656403,124604860264.298584,342873151273.525635,-2.548989,2.433925,6.459929
-0.140000,0.520000,0.930404,0.040000,45335016912.308815,-108367643105.433060,94947075564.525650,282048357583.130066,-1.965854,1.864713,5.313955
-0.100000,0.520000,0.895721,0.040000,42734897947.413948,-106155740746.686310,65212837689.699417,234593000806.151978,-1.768619,1.460064,4.419868
-0.060000,0.520000,0.861498,0.040000,40232169684.436371,-75397024585.911819,35694573198.541359,212336678002.991913,-1.196118,0.896912,4.000546
-0.020000,0.520000,0.827794,0.040000,37785665528.012032,-13394317180.768456,10493807963.494202,197193505243.119293,-0.235963,0.214104,3.715240
0.020000,0.520000,0.794674,0.040000,35354145548.862488,25146211401.025391,-18993544211.405445,199226719635.171844,0.438993,-0.392625,3.753547
0.060000,0.520000,0.762215,0.040000,32896303158.851246,89257212718.866684,-44145943968.091110,218982062132.415710,1.426681,-1.086712,4.125749
0.100000,0.520000,0.730504,0.040000,30370631629.579563,118134724147.618561,-74170416022.065323,245937210368.884735,1.977233,-1.645908,4.633600
0.140000,0.520000,0.699642,0.040000,27735472335.632145,118356047223.713104,-104541006450.249969,299944785283.621826,2.151812,-2.047698,5.651134
0.180000,0.520000,0.669749,0.040000,24949639527.469753,151464660023.153870,-134727458631.037994,367513706259.387878,2.759080,-2.632945,6.924171
0.220000,0.520000,0.640958,0.040000,21974246293.938057,169493047867.377991,-149231396829.768677,442141118648.774597,3.078825,-2.926128,8.330195
0.260000,0.520000,0.613426,0.040000,18776834685.278111,153572692722.361755,-154790262926.114594,565532536962.398438,2.900280,-2.909456,10.654961
0.300000,0.520000,0.584524,0.040000,15339833640.597706,140372031645.421356,-148085926641.340790,729581804239.524658,2.688291,-2.746424,13.745744
0.340000,0.520000,0.556320,0.040000,11677102296.182758,97085843156.253571,-101162287762.810349,944105720030.466187,1.852194,-1.882915,17.787499
0.380000,0.520000,0.528537,0.040000,7865488943.792636,-23645244561.384491,15879786728.382650,1240073398634.511475,-0.401598,0.343076,23.363702
0.420000,0.520000,0.499534,0.040000,4103894389.733304,-285372040446.772400,270978316834.384674,1624152575225.793945,-5.295219,5.186744,30.599976
0.460000,0.520000,0.472141,0.040000,821088873.808945,-804148746946.525391,778800394316.120850,2080968036874.448975,-15.007355,14.816324,39.206644
0.500000,0.520000,0.443190,0.040000,-1137254844.411777,-1761629951195.436768,1721948999395.412109,2506602800135.952637,-32.965846,32.666801,47.225850
0.540000,0.520000,0.414921,0.040000,-221332588.252972,-3365444665002.581543,3321382887293.814941,2573170864796.519043,-63.157884,62.825824,48.480031
0.580000,0.520000,0.387483,0.040000,6133911401.413570,-5594108196742.706055,5606056849901.411133,1528110586215.693848,-105.463777,105.553825,28.790489
0.620000,0.520000,0.358113,0.040000,21421555104.000408,-7505005856825.141602,7689061687637.655273,-1692612783251.525146,-142.438977,143.826064,-31.889806
0.660000,0.520000,0.330978,0.040000,48513401673.981216,-6745603801397.116211,6999387549190.414062,-6925647315086.790039,-128.525516,130.438089,-130.483210
0.700000,0.520000,0.301945,0.040000,85954954519.862381,-1489755623909.508057,1549027998081.424316,-10772663855571.416016,-28.402877,28.849568,-202.963232
0.740000,0.520000,0.273554,0.040000,125514116243.613083,5632627245593.860352,-5595015102204.708008,-9573083353093.287109,105.909372,-105.625918,-180.362440
0.780000,0.520000,0.246858,0.040000,156266248887.772369,8694696586880.046875,-4726045445049.037109,-4449532512159.362305,141.381618,-111.472942,-83.831772
0.820000,0.520000,0.216701,0.040000,170458224338.553711,10597047550545.154297,636173358246.159058,249135530007.748260,136.162401,-51.506243,4.693858
0.860000,0.520000,0.190210,0.040000,221650966953.861755,-3247379274632.261230,-13636142732925.660156,2643261035739.030762,34.246095,-161.484231,49.800570
0.900000,0.520000,0.169115,0.040000,212565467550.477325,-20849870881.326199,-5603120359590.043945,3507331854547.931641,31.394834,-73.778378,66.080165
0.940000,0.520000,0.155629,0.040000,207675645695.049500,-38025325690.346916,-283945817531.174622,3110738308025.224121,1.103418,-3.529867,58.608113
0.980000,0.520000,0.151791,0.040000,203382140485.333221,169963962805.460846,-192428197720.410461,2128827528590.885742,3.329191,-3.498487,40.108345
1.020000,0.520000,0.151791,0.040000,198868463544.186249,18146415381.328171,-14379154665.749367,1440530514321.114990,0.320596,-0.292205,27.140430
1.060000,0.520000,0.155629,0.040000,194327258472.142578,-142051789466.941528,148431387703.563843,1030832256590.211670,-2.712397,2.760475,19.421477
1.100000,0.520000,0.169115,0.040000,190006526502.122498,-217618776215.091431,220857194752.380768,768205028583.453735,-4.118368,4.142773,14.473428
1.140000,0.520000,0.190210,0.040000,186029303064.562622,-238086280940.326813,239520900167.944519,582656458707.557129,-4.493792,4.504604,10.977585
1.180000,0.520000,0.216701,0.040000,182430737512.721252,-232064862118.156067,232648276978.323151,446550406676.234619,-4.375534,4.379931,8.413269
1.220000,0.520000,0.246858,0.040000,179202512348.926666,-214866671234.935944,215054530499.593140,345275910219.367249,-4.049274,4.050690,6.505198
1.260000,0.520000,0.273554,0.040000,176317749734.991943,-193886267541.023132,193889546950.919037,269234691780.327332,-3.652948,3.652973,5.072538
1.300000,0.520000,0.301945,0.040000,173743181896.284088,-172601884032.395142,172521892046.427460,211623114565.945038,-3.251467,3.250865,3.987102
1.340000,0.520000,0.330978,0.040000,171444889871.738556,-152588749189.990112,152475822615.357391,167554804480.536011,-2.874222,2.873371,3.156830
1.380000,0.520000,0.358113,0.040000,169390907187.010132,-134480947685.359253,134360276038.589844,133517667314.866165,-2.533017,2.532108,2.515550
1.420000,0.520000,0.387483,0.040000,167552275347.811188,-118443934251.635834,118327752737.039093,106980916382.116577,-2.230896,2.230020,2.015582
1.460000,0.520000,0.414921,0.040000,165903329441.641724,-104415437414.599396,104309183890.579422,86109947355.006531,-1.966647,1.965846,1.622361
1.500000,0.520000,0.443190,0.040000,164421609370.141632,-92230944028.004242,92136504025.356308,69563633251.086456,-1.737151,1.736439,1.310619
1.540000,0.520000,0.472141,0.040000,163087602287.257202,-81689092981.706711,81606545261.895096,56352040632.119186,-1.538603,1.537981,1.061705
1.580000,0.520000,0.499534,0.040000,161884423301.498077,-72584985333.577499,72513545249.340393,45736928700.282158,-1.367139,1.366601,0.861710
1.620000,0.520000,0.528537,0.040000,160797489021.412903,-64726215234.165588,64664740627.273643,37162009796.939583,-1.219132,1.218669,0.700154
1.660000,0.520000,0.556320,0.040000,159814210288.450653,-57939640564.610588,57886897227.094322,30203789868.350368,-1.091318,1.090921,0.569057
1.700000,0.520000,0.584524,0.040000,158923715310.705231,-52073285939.737831,52028080878.541161,24536651852.359005,-0.980835,0.980495,0.462285
1.740000,0.520000,0.613426,0.040000,158116606451.224060,-46995789976.808578,46957032476.928902,19907841280.249889,-0.885209,0.884917,0.375075
1.780000,0.520000,0.640958,0.040000,157384749900.572113,-42594714152.911034,42561438030.425819,16119381550.949286,-0.802321,0.802070,0.303698
1.820000,0.520000,0.669749,0.040000,156721095589.190338,-38774422295.799416,38745787930.940063,13014875787.316635,-0.730371,0.730155,0.245208
1.860000,0.520000,0.699642,0.040000,156119523978.785675,-35453901346.060844,35429187801.761993,10469782911.262711,-0.667832,0.667646,0.197257
1.900000,0.520000,0.730504,0.040000,155574716261.786804,-32564706466.208313,32543299337.406101,8384184835.402548,-0.613417,0.613256,0.157963
1.940000,0.520000,0.762215,0.040000,155082044687.939331,-30049110691.769524,30030488711.817188,6677355295.120214,-0.566037,0.565897,0.125805
1.980000,0.520000,0.794674,0.040000,154637480059.603027,-27858484067.873695,27842206027.031803,5283642942.150323,-0.524778,0.524655,0.099547
2.020000,0.520000,0.827794,0.040000,154237513802.026489,-25951898697.326817,25937591407.242764,4149321371.507504,-0.488868,0.488760,0.078176
2.060000,0.520000,0.861498,0.040000,153879092375.156158,-24294942513.156490,24282290101.738167,3230156501.423059,-0.457659,0.457564,0.060858
2.100000,0.520000,0.895721,0.040000,153559562127.030792,-22858719167.530621,22847453749.258080,2489510444.146724,-0.430608,0.430523,0.046904
2.140000,0.520000,0.930404,0.040000,153276622986.514740,-21619010389.734756,21608904034.518833,1896849667.503794,-0.407258,0.407181,0.035738
2.180000,0.520000,0.965499,0.040000,153028289653.178619,-20555578361.664341,20546436237.964458,1426559952.694361,-0.387227,0.387158,0.026877
2.220000,0.520000,1.000961,0.040000,152812859166.358368,-19651588001.470119,19643242690.461746,1056995577.129935,-0.370200,0.370137,0.019914
2.260000,0.520000,1.036754,0.040000,152628883927.525909,-18893133817.468349,18885443128.036594,769708173.818141,-0.355914,0.355856,0.014502
2.300000,0.520000,1.072845,0.040000,152475149418.341644,-18268892916.703854,18261777353.502850,548813953.067887,-0.344156,0.344103,0.010340
2.340000,0.520000,1.109203,0.040000,152350656080.960022,-17770342218.388294,17764196858.725445,380469457.347930,-0.334769,0.334723,0.007168
2.380000,0.520000,1.145804,0.040000,152254606400.055054,-17393346041.438507,17384753222.539684,252518524.695432,-0.327652,0.327587,0.004758
2.420000,0.520000,1.182626,0.040000,152186420443.744476,-17150934823.500771,17185415436.235092,174742312.498868,-0.323328,0.323588,0.003292
2.460000,0.520000,1.219647,0.040000,152146044196.520691,-17123759449.196930,17306575307.614193,134645467.145381,-0.323655,0.325033,0.002537
-2.500000,0.560000,3.198703,0.040000,-91466277586.605530,13924251285598.935547,8741972485466.815430,1907344865822.838623,134.227528,36.590391,35.935483
-2.460000,0.560000,3.159044,0.040000,-91593852441.838333,2397624578037.122070,14655807679484.625000,1072326455219.657959,-51.216328,179.734948,20.203252
-2.420000,0.560000,3.119395,0.040000,-91637529338.610657,-372946578048.051086,4825166534278.482422,718375696223.864258,-32.191251,65.744213,13.534615
-2.380000,0.560000,3.079755,0.040000,-91709725151.961487,14196447914.406145,-1665366306.795964,843186164.280926,0.196641,-0.102204,0.015886
-2.340000,0.560000,3.040124,0.040000,-91811282844.217575,18742060361.014843,-18734714452.148251,-2002565902.487296,0.353070,-0.353014,-0.037730
-2.300000,0.560000,3.000503,0.040000,-91942837117.455551,19234591627.471748,-19227506627.305347,-2473700648.218175,0.362351,-0.362297,-0.046606
-2.260000,0.560000,2.960892,0.040000,-92105177406.605820,19848890590.319416,-19841366474.672359,-2923372406.616062,0.373922,-0.373865,-0.055078
-2.220000,0.560000,2.921292,0.040000,-92299287369.336365,20594259077.236645,-20586124382.851414,-3345277082.684402,0.387962,-0.387900,-0.063027
-2.180000,0.560000,2.881703,0.040000,-92526360531.999557,21481470328.179123,-21472583605.056740,-3731837655.323905,0.404673,-0.404606,-0.070310
-2.140000,0.560000,2.842125,0.040000,-92787817579.073502,22523662718.612999,-22513863833.315781,-4073878860.466079,0.424303,-0.424230,-0.076754
-2.100000,0.560000,2.802559,0.040000,-93085327408.663788,23736765613.897507,-23725867589.724987,-4360211257.214039,0.447153,-0.447071,-0.082149
-2.060000,0.560000,2.763006,0.040000,-93420832660.738556,25139974661.521221,-25127757232.909779,-4577113105.928601,0.473583,-0.473491,-0.086235
-2.020000,0.560000,2.723466,0.040000,-93796580480.963150,26756334183.617310,-26742536162.229729,-4707678044.435030,0.504027,-0.503923,-0.088695
-1.980000,0.560000,2.683939,0.040000,-94215159454.049484,28613452804.895004,-28597762756.645676,-4730984339.953894,0.539005,-0.538887,-0.089134
-1.940000,0.560000,2.644427,0.040000,-94679543854.217896,30744382181.398155,-30726426974.961075,-4621025500.578902,0.579140,-0.579005,-0.087063
-1.900000,0.560000,2.604929,0.040000,-95193146621.987030,33188696095.858570,-33168026785.840115,-4345319555.235345,0.625177,-0.625022,-0.081868
-1.860000,0.560000,2.565448,0.040000,-95759882797.909561,35993816545.890541,-35969890929.041557,-3863082422.816472,0.678009,-0.677829,-0.072783
-1.820000,0.560000,2.525982,0.040000,-96384245540.072388,39216645003.522842,-39188806041.603195,-3122805201.813061,0.738707,-0.738497,-0.058835
-1.780000,0.560000,2.486534,0.040000,-97071397341.669662,42925571021.757339,-42893020181.906967,-2059009505.566404,0.808559,-0.808313,-0.038793
-1.740000,0.560000,2.447103,0.040000,-97827279670.154449,47202946793.342407,-47164711245.238197,-587859448.390203,0.889115,-0.888827,-0.011076
-1.700000,0.560000,2.407691,0.040000,-98658744996.578903,52148134394.237343,-52103027014.570587,1398831254.807055,0.982246,-0.981906,0.026355
-1.660000,0.560000,2.368299,0.040000,-99573716101.572845,57881249976.938385,-57827821417.080566,4041866236.401204,1.090214,-1.089812,0.076151
-1.620000,0.560000,2.328928,0.040000,-100581378660.537903,64547740499.726768,-64484223539.586281,7526187393.292430,1.215758,-1.215279,0.141798
-1.580000,0.560000,2.289578,0.040000,-101692414442.100616,72323921281.599213,-72248170056.891098,12097099760.032812,1.362196,-1.361626,0.227916
-1.540000,0.560000,2.250252,0.040000,-102919283986.723068,81423550484.843567,-81332982442.528214,18083368859.818661,1.533555,-1.532872,0.340701
-1.500000,0.560000,2.210949,0.040000,-104276569278.362579,92105364626.663605,-91996924394.636475,25930468217.764469,1.734706,-1.733888,0.488545
-1.460000,0.560000,2.171672,0.040000,-105781388427.929825,104681131181.989319,-104551319936.073761,36248980996.634277,1.971519,-1.970541,0.682952
-1.420000,0.560000,2.132422,0.040000,-107453895142.070282,119522935371.148575,-119368003407.935577,49885862693.831932,2.251006,-2.249838,0.939879
-1.380000,0.560000,2.093201,0.040000,-109317874361.062241,137066519150.317932,-136883045811.203217,68030527583.481651,2.581376,-2.579993,1.281735
-1.340000,0.560000,2.054009,0.040000,-111401438753.080750,157803099843.155579,-157589496190.183899,92374522195.131485,2.971895,-2.970285,1.740390
-1.300000,0.560000,2.014849,0.040000,-113737811420.265396,182241684513.863953,-182001935434.527924,125355017168.582565,3.432184,-3.430377,2.361761
-1.260000,0.560000,1.975723,0.040000,-116366130854.780731,210799314236.255737,-210552121553.196350,170534659403.857117,3.970184,-3.968321,3.212972
-1.220000,0.560000,1.936632,0.040000,-119332094365.085144,243523455164.631073,-243323291655.186279,233224742912.094421,4.586992,-4.585483,4.394089
-1.180000,0.560000,1.897580,0.040000,-122687980897.472153,279467686336.602600,-279444331074.228455,321615397120.802002,5.265201,-5.265025,6.059421
-1.140000,0.560000,1.858567,0.040000,-126491044744.582962,315583860042.162292,-315966072818.527466,449116754850.619141,5.947943,-5.950824,8.461620
-1.100000,0.560000,1.819598,0.040000,-130798595742.329376,346084594190.914856,-346915946230.859070,639497337954.449829,6.525133,-6.531399,12.048501
-1.060000,0.560000,1.780674,0.040000,-135659282988.183624,368636495010.331970,-367952188772.404419,935801042958.505005,6.941457,-6.936300,17.631034
-1.020000,0.560000,1.741799,0.040000,-141111904799.005310,416940953794.642090,-406484778663.760071,1395205767442.216797,7.796309,-7.717509,26.286485
-0.980000,0.560000,1.702976,0.040000,-147243098880.809357,622749556364.004517,-604731840303.414307,1952973874141.548096,11.631123,-11.495338,36.795160
-0.940000,0.560000,1.664209,0.040000,-154387306197.387482,1097154867775.576660,-956930117812.981323,2031133325668.966553,19.878459,-18.821693,38.267729
-0.900000,0.560000,1.625502,0.040000,-163279901560.190002,247350235505.018829,6676259850380.674805,4066007035332.917969,-34.473226,86.651158,76.605930
-0.860000,0.560000,1.586859,0.040000,-176282824222.604218,3348464732535.279785,16272696547303.378906,8963270092366.291016,-47.815199,195.684820,168.873205
-0.820000,0.560000,1.548284,0.040000,-117407268810.092148,-14459185450838.785156,-639223471545.775269,8079100363303.330078,-187.080603,73.295492,152.214934
-0.780000,0.560000,1.509784,0.040000,-102270389277.199326,-15108017539704.613281,10426899602086.005859,-4226816124713.134766,-258.185316,222.907326,-79.635666
-0.740000,0.560000,1.471364,0.040000,-58846438847.086563,-11575052452261.988281,11334911654032.035156,-18508894187829.421875,-216.723381,214.913624,-348.718296
-0.700000,0.560000,1.433031,0.040000,362079195.429018,6946788360689.916992,-5990826156438.807617,-20433265043472.460938,125.478255,-118.273902,-384.974559
-0.660000,0.560000,1.394790,0.040000,52743218192.678230,14081981088740.572266,-14990266700083.539062,-9496648551527.582031,270.446475,-277.291526,-178.922364
-0.620000,0.560000,1.356652,0.040000,83108209235.361481,12216492835527.080078,-12522288132573.369141,1247168455952.402832,231.894215,-234.198760,23.497377
-0.580000,0.560000,1.318624,0.040000,94104840905.876450,6696618222946.886719,-6536943659181.336914,4921538785527.424805,125.265661,-124.062316,92.724644
-0.540000,0.560000,1.280716,0.040000,94252435910.646469,2861891292035.088379,-2740668315081.579590,4646821074701.526367,53.234518,-52.320953,87.548803
-0.500000,0.560000,1.242939,0.040000,89661887782.399139,926482550739.981567,-865066570069.428711,3522079523480.024414,17.108335,-16.645489,66.358020
-0.460000,0.560000,1.205305,0.040000,83496273219.943436,74028311467.372360,-45961688124.535721,2501063476015.473145,1.236099,-1.024582,47.121486
-0.420000,0.560000,1.167829,0.040000,77167454523.993942,-257995664213.639160,270184017724.897736,1752811972074.455566,-4.929679,5.021533,33.023994
-0.380000,0.560000,1.130526,0.040000,71231436062.389374,-358020047711.098389,363097186778.575867,1238391618102.808594,-6.774002,6.812265,23.332016
-0.340000,0.560000,1.093413,0.040000,65859770485.154083,-359780876055.375732,361740879239.756287,890061501155.536743,-6.789559,6.804330,16.769275
-0.300000,0.560000,1.056511,0.040000,61060428997.915459,-322937744152.428284,323540459075.607117,653660375990.663208,-6.087741,6.092283,12.315340
-0.260000,0.560000,1.019843,0.040000,56776720548.440453,-273691947723.927582,273662263781.589081,491969411795.971863,-5.156347,5.156123,9.268989
-0.220000,0.560000,0.983435,0.040000,52930658943.260887,-225169417456.143951,223415063382.546265,380648484005.004517,-4.232406,4.219185,7.171638
-0.180000,0.560000,0.947316,0.040000,49441231516.855591,-175942694836.943451,175127240779.088501,304399258582.859192,-3.310253,3.304108,5.735058
-0.140000,0.560000,0.911522,0.040000,46231310038.358215,-137322371568.897949,130575648937.567291,247097128497.044067,-2.549099,2.498255,4.655453
-0.100000,0.560000,0.876091,0.040000,43229499338.415306,-106336415319.671478,92097650118.749100,210953539865.026917,-1.922960,1.815653,3.974487
-0.060000,0.560000,0.841071,0.040000,40369773021.380844,-59914939580.763466,51536095234.456696,190180176962.701111,-1.081474,1.018329,3.583105
-0.020000,0.560000,0.806513,0.040000,37590167820.570152,-14413797270.317039,13277566716.305088,179443372852.787384,-0.265142,0.256579,3.380817
0.020000,0.560000,0.772482,0.040000,34831103203.922066,27473103762.176594,-25006063161.832504,181346089211.881073,0.503665,-0.485073,3.416665
0.060000,0.560000,0.739048,0.040000,32033563306.153042,73737880094.542648,-63735127350.614334,196150229156.227295,1.332727,-1.257344,3.695584
0.100000,0.560000,0.706297,0.040000,29137237538.365440,120638477742.887146,-105159922460.955078,221144927503.120605,2.185411,-2.068761,4.166499
0.140000,0.560000,0.674329,0.040000,26078683361.067520,151685568342.856537,-144668538404.448120,262782447433.941071,2.818183,-2.765301,4.950974
0.180000,0.560000,0.643260,0.040000,22789616478.555595,191941334355.927643,-191136978770.860596,326926725353.327148,3.611740,-3.605678,6.159489
0.220000,0.560000,0.613227,0.040000,19195591225.480633,243685338233.959412,-241740581180.598328,411610359664.777893,4.580181,-4.565525,7.754978
0.260000,0.560000,0.584390,0.040000,15215694585.373085,294643761436.761047,-294610656810.137390,534567150905.672302,5.551072,-5.550823,10.071555
0.300000,0.560000,0.556934,0.040000,10764649270.354097,346449450813.056885,-347111315361.149841,712496350042.396973,6.531049,-6.536037,13.423844
0.340000,0.560000,0.527970,0.040000,5760456284.267826,384640388944.519104,-386792450269.915527,972117399505.649780,7.259012,-7.275230,18.315255
0.380000,0.560000,0.499776,0.040000,144488767.143944,380457893755.619751,-386026305871.600281,1354246011070.940674,7.199521,-7.241486,25.514780
0.420000,0.560000,0.472054,0.040000,-6070910609.682855,268500276152.918091,-281859345635.756531,1918273045499.009766,5.134209,-5.234886,36.141376
0.460000,0.560000,0.442965,0.040000,-12693987206.419987,-97834006799.263550,67053775091.605728,2738619659817.844238,-1.669274,1.437307,51.597182
0.500000,0.560000,0.415693,0.040000,-19111420303.328178,-1035166451066.286743,967687253183.158203,3858474416805.341797,-19.121732,18.613193,72.695895
0.540000,0.560000,0.386655,0.040000,-23770762443.964687,-3162307728718.781250,3028858661766.591309,5092549399619.015625,-58.825433,57.819730,95.946583
0.580000,0.560000,0.358391,0.040000,-23195536293.445610,-7377736575074.413086,7202230456630.449219,5389024639052.554688,-138.008843,136.686188,101.532348
0.620000,0.560000,0.331100,0.040000,-10669109735.891577,-13435247455626.208984,13774681895206.929688,1325531625568.926758,-255.046393,257.604450,24.973784
0.660000,0.560000,0.301544,0.040000,23149701159.145142,-15393025269918.050781,16410685727855.941406,-10542536233501.994141,-295.765513,303.434839,-198.627494
0.700000,0.560000,0.274646,0.040000,80984673801.767731,-7261286002346.332031,5923554808856.885742,-22138820342732.277344,-129.245748,119.164296,-417.108209
0.740000,0.560000,0.245470,0.040000,145410118323.955933,12674631846459.140625,-12964428875661.078125,-18615371659227.613281,240.435395,-242.619372,-350.724394
0.780000,0.560000,0.217063,0.040000,191738798292.249359,16200478233252.527344,-14462207536382.185547,-3727271783814.255371,295.401393,-282.301382,-70.223961
0.820000,0.560000,0.190849,0.040000,209924308613.561310,12816030855188.250000,-5380190533831.925781,6704043885842.548828,199.432788,-143.394571,126.308073
0.860000,0.560000,0.160136,0.040000,240683741486.574493,918212057118.346680,-10584560777166.419922,7608151239775.805664,71.935532,-144.783377,143.341980
0.900000,0.560000,0.134402,0.040000,231403649546.423950,810976752357.434937,-4206551986976.247070,4418643203251.229492,34.471654,-60.061496,83.249799
0.940000,0.560000,0.116980,0.040000,222603354614.516052,-406518356039.851379,360421174261.095764,2676292964263.307617,-7.398492,7.051093,50.422911
0.980000,0.560000,0.111824,0.040000,214408988132.758270,-489244895497.819885,506519092343.563232,2136653708552.759766,-9.315294,9.445477,40.255795
1.020000,0.560000,0.111824,0.040000,207018590193.558899,-499293220186.988403,509398029442.722778,1531030797239.052979,-9.464088,9.540240,28.845508
1.060000,0.560000,0.116980,0.040000,200448229221.659454,-495784115159.926758,497352734338.175964,1075275461165.140991,-9.349726,9.361548,20.258813
1.100000,0.560000,0.134402,0.040000,194669849684.351196,-456832903692.595215,457558776811.004578,766908977860.208618,-8.611099,8.616570,14.449010
1.140000,0.560000,0.160136,0.040000,189621410990.654327,-405570171181.562012,405664601865.814026,558466472050.628296,-7.641711,7.642423,10.521832
1.180000,0.560000,0.190849,0.040000,185221733620.309784,-352305097596.308594,352070396119.125549,414219409960.517578,-6.636306,6.634537,7.804134
1.220000,0.560000,0.217063,0.040000,181386074147.472260,-302711857103.557190,302360509888.223633,312056323357.131165,-5.701281,5.698633,5.879322
1.260000,0.560000,0.245470,0.040000,178035269928.496490,-258992187122.789429,258628447136.750305,238240057715.229645,-4.877507,4.874766,4.488581
1.300000,0.560000,0.274646,0.040000,175099397603.128632,-221493101648.127991,221159466646.489532,183968970507.712097,-4.171173,4.168658,3.466082
1.340000,0.560000,0.301544,0.040000,172518418099.788025,-189760395045.565704,189470188439.652252,143441264300.030334,-3.573556,3.571368,2.702517
1.380000,0.560000,0.331100,0.040000,170241495528.880188,-163070215968.591827,162824222337.962921,112747245814.886398,-3.070947,3.069093,2.124223
1.420000,0.560000,0.358391,0.040000,168225859430.378143,-140666246669.636230,140460402358.630310,89203937623.292892,-2.649070,2.647519,1.680654
1.460000,0.560000,0.386655,0.040000,166435602798.794678,-121854271913.697235,121683067716.789093,70939824874.792465,-2.294837,2.293547,1.336547
1.500000,0.560000,0.415693,0.040000,164840573905.771484,-106032208894.973953,105890130463.926437,56629095721.097595,-1.996905,1.995834,1.066925
1.540000,0.560000,0.442965,0.040000,163415413145.145660,-92692430949.217850,92574513044.306763,45318484097.920677,-1.745713,1.744824,0.853827
1.580000,0.560000,0.472054,0.040000,162138740071.917938,-81413214837.538193,81315200883.197418,36312752168.030060,-1.533318,1.532580,0.684153
1.620000,0.560000,0.499776,0.040000,160992477601.347473,-71846844976.589310,71765177603.795303,29097895626.251492,-1.353175,1.352559,0.548221
1.660000,0.560000,0.527970,0.040000,159961294615.051025,-63707621991.355179,63639368453.221245,23288947535.336128,-1.199903,1.199388,0.438777
1.700000,0.560000,0.556934,0.040000,159032147897.459503,-56761050684.032272,56703810272.882187,18594031225.408134,-1.069088,1.068656,0.350322
1.740000,0.560000,0.584390,0.040000,158193906135.700165,-50814586916.337738,50766400771.829300,14789283847.858797,-0.957104,0.956741,0.278639
1.780000,0.560000,0.613227,0.040000,157437041176.610321,-45709932901.407761,45669204026.111641,11701143426.089470,-0.860971,0.860664,0.220456
1.820000,0.560000,0.643260,0.040000,156753374198.910980,-41316717655.696716,41282143177.970207,9193684526.881731,-0.778235,0.777975,0.173214
1.860000,0.560000,0.674329,0.040000,156135866671.134552,-37527355876.864708,37497871092.520531,7159456257.540269,-0.706870,0.706648,0.134888
1.900000,0.560000,0.706297,0.040000,155578447851.813110,-34252882857.034306,34227615630.356339,5512777582.019789,-0.645201,0.645011,0.103864
1.940000,0.560000,0.739048,0.040000,155075872152.108551,-31419585939.911469,31397819817.039692,4184775707.530418,-0.591840,0.591676,0.078844
1.980000,0.560000,0.772482,0.040000,154623600957.983215,-28966280904.007786,28947425374.042923,3119674006.087179,-0.545635,0.545493,0.058776
2.020000,0.560000,0.806513,0.040000,154217704543.238892,-26842108556.857197,26825675096.825058,2271984823.582732,-0.505628,0.505504,0.042806
2.060000,0.560000,0.841071,0.040000,153854780539.167389,-25004750499.659531,24990333258.604115,1604364015.652325,-0.471023,0.470914,0.030227
2.100000,0.560000,0.876091,0.040000,153531886098.950104,-23418982902.446999,23406243093.426994,1085953916.262340,-0.441155,0.441059,0.020460
2.140000,0.560000,0.911522,0.040000,153246481437.193420,-22055503420.577869,22044156666.604477,691089999.015760,-0.415474,0.415389,0.013021
2.180000,0.560000,0.947316,0.040000,152996382863.155701,-20889979532.713039,20879785554.718670,398280537.466532,-0.393522,0.393445,0.007504
2.220000,0.560000,0.983435,0.040000,152779723781.414917,-19902277009.973515,19893031027.577656,189392645.453517,-0.374918,0.374848,0.003568
2.260000,0.560000,1.019843,0.040000,152594922422.656494,-19075833485.643158,19067356459.092815,48995235.787558,-0.359352,0.359288,0.000923
2.300000,0.560000,1.056511,0.040000,152440655299.308838,-18397114406.009968,18389205310.313774,-36178209.834841,-0.346568,0.346508,-0.000682
2.340000,0.560000,1.093413,0.040000,152315835490.970795,-17854655116.533932,17846618384.630238,-77674477.897158,-0.336347,0.336286,-0.001463
2.380000,0.560000,1.130526,0.040000,152219593570.957703,-17441371275.470638,17443473552.966709,-85703641.210100,-0.328617,0.328633,-0.001615
2.420000,0.560000,1.167829,0.040000,152151236919.961121,-17167911532.032549,17256171579.096478,-77765629.217683,-0.323952,0.324617,-0.001465
2.460000,0.560000,1.205305,0.040000,152109903945.665222,-16851924192.091171,16938382488.704613,-68861471.992841,-0.317989,0.318640,-0.001297
-2.500000,0.600000,3.193762,0.040000,0.000066,-16601958810463.822266,43895265612638.664062,2754369791305.510254,-467.057045,672.745734,51.893924
-2.460000,0.600000,3.154042,0.040000,-91362454604.836456,641480717177.606812,18554347070615.687500,1497265048568.635254,-96.412288,241.076498,28.209341
-2.420000,0.600000,3.114329,0.040000,-91403835105.744064,-1353224913362.166504,5758070978695.673828,300989307807.334595,-50.392498,83.588439,5.670813
-2.380000,0.600000,3.074624,0.040000,-91473716431.729813,-92833496268.710617,299528083474.026489,-1839080612.679037,-2.917311,4.475009,-0.034649
-2.340000,0.600000,3.034926,0.040000,-91572149393.194107,18205320609.404888,-18199077031.168339,-2442331451.469786,0.342964,-0.342916,-0.046015
-2.300000,0.600000,2.995236,0.040000,-91699722170.337189,18711464202.088928,-18704217635.225182,-3034569588.468771,0.352494,-0.352439,-0.057173
-2.260000,0.600000,2.955554,0.040000,-91857244436.152313,19345632518.534870,-19337783893.131573,-3613476523.332949,0.364439,-0.364379,-0.068080
-2.220000,0.600000,2.915882,0.040000,-92045731670.986130,20116783825.639301,-20108245911.919128,-4174814240.079432,0.378964,-0.378899,-0.078656
-2.180000,0.600000,2.876218,0.040000,-92266418761.522064,21036847708.753754,-21027466553.285770,-4713406121.268210,0.396293,-0.396223,-0.088803
-2.140000,0.600000,2.836564,0.040000,-92520779095.053467,22120546002.877525,-22110138248.237022,-5222856355.817981,0.416705,-0.416627,-0.098402
-2.100000,0.600000,2.796919,0.040000,-92810548153.865814,23385811171.925884,-23374160253.863102,-5695226117.032816,0.440536,-0.440449,-0.107301
-2.060000,0.600000,2.757285,0.040000,-93137752257.577682,24854361657.435852,-24841209713.895531,-6120630207.431164,0.468196,-0.468097,-0.115316
-2.020000,0.600000,2.717662,0.040000,-93504743375.687149,26552424475.661465,-26537462030.033432,-6486726084.847032,0.500178,-0.500066,-0.122214
-1.980000,0.600000,2.678050,0.040000,-93914241169.620224,28511638966.298336,-28494491899.081951,-6778058508.112177,0.537079,-0.536950,-0.127703
-1.940000,0.600000,2.638449,0.040000,-94369383714.417694,30770189040.979069,-30750402006.150375,-6975209435.968651,0.579616,-0.579467,-0.131417
-1.900000,0.600000,2.598861,0.040000,-94873788717.101837,33374226401.301056,-33351241538.701324,-7053683403.735345,0.628660,-0.628487,-0.132895
-1.860000,0.600000,2.559285,0.040000,-95431627516.076935,36379667438.932190,-36352796820.845421,-6982430815.488549,0.685262,-0.685060,-0.131553
-1.820000,0.600000,2.519723,0.040000,-96047714746.208923,39854474063.623192,-39822863734.753876,-6721871484.330414,0.750703,-0.750465,-0.126644
-1.780000,0.600000,2.480175,0.040000,-96727617331.798309,43881566438.272194,-43844149097.043701,-6221222340.885808,0.826543,-0.826261,-0.117211
-1.740000,0.600000,2.440642,0.040000,-97477787485.241684,48562567652.867249,-48517999880.819801,-5414847307.522202,0.914695,-0.914359,-0.102019
-1.700000,0.600000,2.401124,0.040000,-98305725726.569336,54022652581.253723,-53969230915.513924,-4217219579.238428,1.017516,-1.017114,-0.079455
-1.660000,0.600000,2.361623,0.040000,-99220181714.492996,60416873777.998367,-60352421655.366745,-2515894366.274622,1.137925,-1.137439,-0.047401
-1.620000,0.600000,2.322138,0.040000,-100231403055.098938,67938477826.776489,-67860192253.420517,-161597384.720922,1.279558,-1.278968,-0.003045
-1.580000,0.600000,2.282672,0.040000,-101351445456.126709,76829921837.298965,-76734164263.290939,3045917684.462009,1.446979,-1.446257,0.057387
-1.540000,0.600000,2.243224,0.040000,-102594561938.745590,87397572433.725021,-87279582482.936890,7378297789.750381,1.645954,-1.645065,0.139011
-1.500000,0.600000,2.203796,0.040000,-103977694743.204590,100031442632.586945,-99884946171.410309,13208487334.969826,1.883822,-1.882718,0.248856
-1.460000,0.600000,2.164389,0.040000,-105521101668.303833,115231815041.705368,-115048490990.569702,21055101048.222134,2.169998,-2.168616,0.396690
-1.420000,0.600000,2.125005,0.040000,-107249159655.310638,133645202128.193680,-133413970604.824570,31649300481.667385,2.516646,-2.514904,0.596291
-1.380000,0.600000,2.085644,0.040000,-109191403419.281036,156112697871.530518,-155818809705.307281,46037336580.371025,2.939593,-2.937378,0.867370
-1.340000,0.600000,2.046307,0.040000,-111383876781.810181,183734039887.994446,-183358012502.259735,65740994445.292137,3.459530,-3.456697,1.238598
-1.300000,0.600000,2.006997,0.040000,-113870899435.035217,217949930826.266998,-217466510012.031128,93015050255.529083,4.103571,-4.099927,1.752457
-1.260000,0.600000,1.967715,0.040000,-116707380902.161392,260642896354.604614,-260020266215.397522,131273962786.556168,4.907144,-4.902452,2.473278
-1.220000,0.600000,1.928462,0.040000,-119961843184.810608,314257246336.076843,-313455531379.399719,185826560541.140594,5.916257,-5.910215,3.501080
-1.180000,0.600000,1.889240,0.040000,-123720346554.623154,381966165223.895813,-380927527722.381287,265181489251.953522,7.190593,-7.182766,4.996173
-1.140000,0.600000,1.850052,0.040000,-128091599037.396149,468043572854.511841,-466645055105.236450,383340118014.710144,8.810308,-8.799768,7.222350
-1.100000,0.600000,1.810900,0.040000,-133213876703.721909,578867468948.390991,-576793849899.779663,563282695490.115845,10.894478,-10.878851,10.612573
-1.060000,0.600000,1.771785,0.040000,-139265308013.205688,724225821493.895386,-721034993351.922607,839506686993.548462,13.626799,-13.602752,15.816793
-1.020000,0.600000,1.732710,0.040000,-146478657493.469574,908381625671.269287,-906141418317.718384,1249121101852.451660,17.101774,-17.084892,23.534166
-0.980000,0.600000,1.693679,0.040000,-155141006371.774963,1050207267517.064941,-1070442697789.313232,1792634845910.547119,19.900888,-20.053387,33.774280
-0.940000,0.600000,1.654694,0.040000,-165424442949.872864,669571535142.226074,-974061557595.863770,2355917910395.754395,14.336146,-16.630854,44.386859
-0.900000,0.600000,1.615759,0.040000,-176307295394.545135,-1589001183984.462891,2093285894583.056885,5481698300330.639648,-32.788008,36.588415,103.278374
-0.860000,0.600000,1.576877,0.040000,-181957264666.604767,-4400741281295.000000,3239256166724.942871,13709718528788.425781,-76.347601,67.594380,258.299045
-0.820000,0.600000,1.538052,0.040000,-182099460046.801056,-10256240179580.691406,8742590784268.080078,17841267794632.683594,-184.678101,173.270888,336.139828
-0.780000,0.600000,1.499289,0.040000,-173303143351.408356,-20030497221104.257812,35998396459009.218750,-1741917294131.368164,-467.639523,587.977314,-32.818732
-0.740000,0.600000,1.460593,0.040000,-94269881519.807022,-1749436437229.640869,26444901917586.542969,-50373731152641.703125,-172.543462,358.654217,-949.070297
-0.700000,0.600000,1.421969,0.040000,12425529728.190332,51903065395909.484375,-30488043606481.953125,-44664410908658.484375,856.842413,-695.453843,-841.503394
-0.660000,0.600000,1.383424,0.040000,101477202963.236328,51369865412907.257812,-39765197619044.320312,4149386059763.940430,902.246443,-814.790976,78.176839
-0.620000,0.600000,1.344963,0.040000,131833778006.335983,20646117141274.546875,-17699743522418.554688,15548086644794.314453,372.331400,-350.126845,292.934966
-0.580000,0.600000,1.306594,0.040000,130570234352.120560,5711932434884.304688,-5139022580153.513672,11694143382162.794922,104.377932,-100.060351,220.324441
-0.540000,0.600000,1.268327,0.040000,119425873460.022278,725254146696.949341,-546817576644.577026,7453923280846.960938,12.655654,-11.310915,140.436236
-0.500000,0.600000,1.230169,0.040000,106814786920.449783,-755971524804.423584,812771958230.373657,4542254675182.588867,-14.563988,14.992049,85.578711
-0.460000,0.600000,1.192133,0.040000,95309750581.836975,-1044239063086.902832,1060512878903.297241,2800740161722.236816,-19.766052,19.888695,52.767568
-0.420000,0.600000,1.154229,0.040000,85444367866.992218,-971010885745.000244,974197488044.541016,1783463156546.411865,-18.312419,18.336434,33.601480
-0.380000,0.600000,1.116471,0.040000,77125316933.569290,-813568358099.885742,813061472708.725830,1177517306613.517578,-15.325234,15.321414,22.185109
-0.340000,0.600000,1.078876,0.040000,70107898370.711014,-655363740861.425903,654002485332.507324,804695310505.998779,-12.339739,12.329480,15.160926
-0.300000,0.600000,1.041459,0.040000,64140898544.387901,-518085618403.762146,516676955914.921509,568511878342.107422,-9.753071,9.742455,10.711093
-0.260000,0.600000,1.004241,0.040000,59004914722.945221,-404518353963.695007,403320582374.653564,415170241420.798157,-7.614590,7.605564,7.822048
-0.220000,0.600000,0.967246,0.040000,54517955237.241760,-311541233492.656616,310611217417.948975,313573253054.877136,-5.864361,5.857352,5.907902
-0.180000,0.600000,0.930499,0.040000,50530869371.397507,-234733401965.442810,234043631438.951416,245499521048.327240,-4.418615,4.413416,4.625353
-0.140000,0.600000,0.894031,0.040000,46920410277.689453,-170061072576.086945,169526414279.984558,200060899495.436249,-3.201027,3.196998,3.769263
-0.100000,0.600000,0.857879,0.040000,43582702429.105835,-114581330099.300400,113783257638.210266,170716061275.647491,-2.154268,2.148253,3.216390
-0.060000,0.600000,0.822083,0.040000,40427655562.453941,-63716950132.287346,63295366182.328140,153474806859.863037,-1.198081,1.194904,2.891554
-0.020000,0.600000,0.786692,0.040000,37374224672.067780,-15998670984.142258,15898076882.953989,146156601707.684967,-0.300856,0.300098,2.753675
0.020000,0.600000,0.751763,0.040000,34346319888.533001,30939787254.167515,-30730020512.442181,147809621944.854309,0.581738,-0.580157,2.784819
0.060000,0.600000,0.717365,0.040000,31269084499.637016,79395834641.415359,-78856987904.492828,158558950133.774811,1.492818,-1.488757,2.987343
0.100000,0.600000,0.683576,0.040000,28065255713.210728,131789085113.732574,-130857840516.966507,179624925722.837830,2.477719,-2.470701,3.384238
0.140000,0.600000,0.650492,0.040000,24651355372.180374,189562487238.764404,-188962715183.956451,213525628748.294922,3.568077,-3.563557,4.022947
0.180000,0.600000,0.618227,0.040000,20933414636.165554,257725609033.720032,-256959744198.910645,264722219505.721863,4.851371,-4.845599,4.987520
0.220000,0.600000,0.586914,0.040000,16801943328.971243,339362557447.554626,-338336635519.007446,340446968098.345703,6.387989,-6.380257,6.414218
0.260000,0.600000,0.556715,0.040000,12125939298.549940,438836257598.521118,-437519068383.765442,452676346862.678284,8.260485,-8.250558,8.528685
0.300000,0.600000,0.527822,0.040000,6745823522.203735,560951014361.147095,-559406148126.323730,621428876371.954346,10.559910,-10.548268,11.708080
0.340000,0.600000,0.500460,0.040000,465905357.984241,709071705752.853394,-707584987521.806152,880845961738.351318,13.350919,-13.339715,16.595649
0.380000,0.600000,0.471420,0.040000,-6950535369.164692,880059678725.468506,-879510909083.816284,1289902450899.021729,16.577733,-16.573597,24.302510
0.420000,0.600000,0.443238,0.040000,-15774980788.204277,1050146162902.752319,-1053618656222.620117,1954242860200.434570,19.804990,-19.831159,36.819068
0.460000,0.600000,0.415596,0.040000,-26271699380.221996,1128267975150.475098,-1146005038214.929688,3069185465232.268066,21.357476,-21.491146,57.825233
0.500000,0.600000,0.386397,0.040000,-38539604075.239685,811241065280.960449,-873401954038.317383,4979037161344.051758,15.635596,-16.104055,93.807947
0.540000,0.600000,0.359284,0.040000,-51991891500.810753,-814739175869.996826,618095436273.138062,8178108796667.760742,-14.238694,12.756741,154.080311
0.580000,0.600000,0.330131,0.040000,-63803145101.516792,-6304146185979.796875,5670990278004.539062,12845792739193.222656,-115.195061,110.423452,242.022182
0.620000,0.600000,0.301875,0.040000,-64709759160.867691,-22764526482175.011719,19526403204607.695312,17059309704597.341797,-410.594440,386.191192,321.407284
0.660000,0.600000,0.274794,0.040000,-30736717311.365452,-56588862301204.203125,43824981406474.859375,4326308518376.970215,-994.023296,897.831730,81.510160
0.700000,0.600000,0.244976,0.040000,67982560311.724396,-56890310746079.445312,31747235513892.160156,-48766531360166.968750,-929.733400,740.249355,-918.789721
0.740000,0.600000,0.218437,0.040000,185414191164.324188,1268574130654.968262,-31811412913857.175781,-53395765344790.390625,196.534109,-426.712024,-1006.007173
0.780000,0.600000,0.189049,0.040000,260588037491.289520,23456703191214.203125,-38837725579586.906250,-802804663623.093384,528.874100,-644.789051,-15.125305
0.820000,0.600000,0.160625,0.040000,268384274725.208252,10840476233536.248047,-10411599607301.935547,17068199562575.208984,201.816771,-198.584658,321.574774
0.860000,0.600000,0.135306,0.040000,261726100807.079163,3258678714904.110840,-2533240923242.772461,12443412392541.775391,57.295096,-51.828028,234.441103
0.900000,0.600000,0.103576,0.040000,250347258738.987640,414357007205.807434,-708521600245.686768,6155626660544.432617,9.469396,-11.686288,115.975575
0.940000,0.600000,0.079676,0.040000,236804781007.609406,-946264151610.042358,1139906641445.055664,3182708660961.109375,-18.922666,20.382001,59.964076
0.980000,0.600000,0.071893,0.040000,224617561889.452637,-978952418352.668335,1155987537487.271973,2119080984099.529053,-19.444664,20.778842,39.924714
1.020000,0.600000,0.071893,0.040000,214342531563.287048,-805879502530.530640,999225960693.172485,1499916145633.443359,-16.276065,17.733169,28.259290
1.060000,0.600000,0.079676,0.040000,205771032762.897186,-814246244411.848877,863003784623.634399,1003857302842.191772,-15.616457,15.983905,18.913254
1.100000,0.600000,0.103576,0.040000,198600099743.411224,-707902201626.640991,705187859996.016602,668075553349.033203,-13.321946,13.301490,12.586931
1.140000,0.600000,0.135306,0.040000,192564381787.236725,-574202667120.501587,572605189145.827148,472346897373.671082,-10.809282,10.797243,8.899289
1.180000,0.600000,0.160625,0.040000,187449796210.968048,-468292837197.118164,467032760285.444641,341135334750.701904,-8.815786,8.806290,6.427187
1.220000,0.600000,0.189049,0.040000,183086398762.179352,-384395008253.333801,383409116354.167847,251271638491.959320,-7.236652,7.229222,4.734103
1.260000,0.600000,0.218437,0.040000,179339538288.632599,-317758622344.080933,316990628890.548889,188178966897.465820,-5.982416,5.976628,3.545401
1.300000,0.600000,0.244976,0.040000,176102264817.088562,-264580648321.970673,263982599493.990723,142875395724.014343,-4.981473,4.976965,2.691855
1.340000,0.600000,0.274794,0.040000,173289234365.618652,-221887695411.500916,221420582463.530334,109691942579.861603,-4.177853,4.174332,2.066660
1.380000,0.600000,0.301875,0.040000,170831938230.536774,-187385227993.073761,187018484414.415619,84957400326.058289,-3.528373,3.525610,1.600647
1.420000,0.600000,0.330131,0.040000,168675019029.772095,-159312600162.958862,159022815521.340607,66236246770.852318,-2.999904,2.997720,1.247929
1.460000,0.600000,0.359284,0.040000,166773442854.885986,-136319198257.020538,136088637873.441650,51876841842.165741,-2.567030,2.565292,0.977390
1.500000,0.600000,0.386397,0.040000,165090329670.071625,-117365579779.077881,117180849114.620041,40736434266.395073,-2.210191,2.208799,0.767498
1.540000,0.600000,0.415596,0.040000,163595283587.713165,-101647535593.514252,101498499904.031693,32009592792.375923,-1.914256,1.913133,0.603079
1.580000,0.600000,0.443238,0.040000,162263101151.774475,-88538897397.715485,88417853335.732422,25118769227.454391,-1.667440,1.666528,0.473252
1.620000,0.600000,0.471420,0.040000,161072765747.342926,-77548816860.226074,77449873534.965469,19643094994.315418,-1.460505,1.459760,0.370087
1.660000,0.600000,0.500460,0.040000,160006659467.570648,-68289899922.358932,68208521672.538437,15271210203.077362,-1.286161,1.285548,0.287718
1.700000,0.600000,0.527822,0.040000,159049941207.273468,-60454376973.322151,60387046700.162537,11769488577.977146,-1.138615,1.138108,0.221744
1.740000,0.600000,0.556715,0.040000,158190052671.447693,-53796195882.447601,53740166821.401062,8960297330.091196,-1.013235,1.012813,0.168817
1.780000,0.600000,0.586914,0.040000,157416323512.217133,-48117483507.326561,48070595466.679390,6706902863.032928,-0.906296,0.905943,0.126362
1.820000,0.600000,0.618227,0.040000,156719653833.820801,-43258240998.104736,43218783558.893845,4902843587.858064,-0.814787,0.814490,0.092372
1.860000,0.600000,0.650492,0.040000,156092257506.124390,-39088445877.891518,39055055885.466576,3464347391.117316,-0.736260,0.736009,0.065270
1.900000,0.600000,0.683576,0.040000,155527453597.379181,-35501956884.949852,35473541096.044106,2324851575.163795,-0.668717,0.668503,0.043802
1.940000,0.600000,0.717365,0.040000,155019496135.405762,-32411778600.084492,32387454883.721489,1430992731.812752,-0.610519,0.610336,0.026961
1.980000,0.600000,0.751763,0.040000,154563434592.152740,-29746359208.059559,29725411518.580109,739636469.832923,-0.560320,0.560162,0.013935
2.020000,0.600000,0.786692,0.040000,154154999146.938049,-27446679032.120945,27428522672.454327,215651042.990364,-0.517009,0.516872,0.004063
2.060000,0.600000,0.822083,0.040000,153790506054.261353,-25463948841.593449,25448103465.355522,-169781122.061844,-0.479666,0.479547,-0.003199
2.100000,0.600000,0.857879,0.040000,153466779421.620972,-23757781860.813251,23743850333.910175,-440458976.652124,-0.447532,0.447427,-0.008299
2.140000,0.600000,0.894031,0.040000,153181086463.583954,-22294736526.128136,22282388249.443626,-616168617.480062,-0.419976,0.419883,-0.011609
2.180000,0.600000,0.930499,0.040000,152931083893.683319,-21047151625.221794,21036109283.161179,-713473431.332751,-0.396478,0.396395,-0.013442
2.220000,0.600000,0.967246,0.040000,152714773585.146820,-19992213976.799740,19982243066.516678,-746342524.085563,-0.376609,0.376533,-0.014062
2.260000,0.600000,1.004241,0.040000,152530466004.738495,-19111214858.704231,19102117871.430351,-726657076.708953,-0.360015,0.359946,-0.013691
2.300000,0.600000,1.041459,0.040000,152376750227.628021,-18388996158.569130,18380647053.508907,-664624373.251168,-0.346412,0.346349,-0.012522
2.340000,0.600000,1.078876,0.040000,152252469667.563721,-17814007848.726902,17806759336.087917,-569125761.042316,-0.335585,0.335531,-0.010723
2.380000,0.600000,1.116471,0.040000,152156704302.397980,-17380122173.536308,17371197570.296780,-448166120.001142,-0.327401,0.327334,-0.008444
2.420000,0.600000,1.154229,0.040000,152088782350.545807,-17101014868.346695,17144785205.798792,-347968710.146120,-0.322440,0.322770,-0.006556
2.460000,0.600000,1.192133,0.040000,152048584233.273621,-17049131288.422779,17251182918.562050,-286471896.801400,-0.322358,0.323880,-0.005397
-2.500000,0.640000,3.189316,0.040000,-90947286022.102722,20204636533297.125000,12685875390308.332031,5159963936337.236328,194.764172,53.106353,97.216712
-2.460000,0.640000,3.149540,0.040000,-91101253021.218384,4067717545482.763672,19879149079953.109375,2974160912092.632812,-58.713698,239.182838,56.034916
-2.420000,0.640000,3.109770,0.040000,-91141935855.558044,-400943963844.808167,6517897937709.822266,594181313575.821899,-42.128104,88.226888,11.194720
-2.380000,0.640000,3.070005,0.040000,-91209210665.292206,11632085082.759157,4977614479.000623,-2199840858.944390,0.125274,-0.000100,-0.041446
-2.340000,0.640000,3.030247,0.040000,-91303909610.720398,17545797047.767677,-17538140845.809456,-2891780734.177889,0.330530,-0.330472,-0.054483
-2.300000,0.640000,2.990495,0.040000,-91426691720.265625,18061115374.893723,-18053601881.907108,-3608663170.076786,0.340239,-0.340183,-0.067989
-2.260000,0.640000,2.950749,0.040000,-91578382945.954254,18705823624.090424,-18697771454.499729,-4320992437.390326,0.352383,-0.352322,-0.081410
-2.220000,0.640000,2.911011,0.040000,-91760015744.765732,19490853530.692928,-19482067844.415226,-5026895541.775556,0.367169,-0.367103,-0.094710
-2.180000,0.640000,2.871280,0.040000,-91972847288.579117,20429122231.951279,-20419429042.202789,-5723861262.971471,0.384842,-0.384769,-0.107841
-2.140000,0.640000,2.831557,0.040000,-92218380191.170074,21536489410.129459,-21525687994.830738,-6408592873.197433,0.405699,-0.405617,-0.120742
-2.100000,0.640000,2.791841,0.040000,-92498387929.753815,22832317868.188026,-22820170215.145683,-7076801034.706014,0.430105,-0.430014,-0.133331
-2.060000,0.640000,2.752134,0.040000,-92814945882.704010,24340132100.560684,-24326352970.408890,-7722942054.479191,0.458504,-0.458400,-0.145505
-2.020000,0.640000,2.712435,0.040000,-93170469040.903748,26088445873.336006,-26072690390.333069,-8339884326.294190,0.491432,-0.491314,-0.157128
-1.980000,0.640000,2.672746,0.040000,-93567757720.898209,28111807262.460819,-28093655017.088978,-8918477798.806295,0.529540,-0.529403,-0.168029
-1.940000,0.640000,2.633066,0.040000,-94010052957.271469,30452122804.260571,-30431057267.201130,-9446991576.786783,0.573617,-0.573458,-0.177987
-1.900000,0.640000,2.593395,0.040000,-94501103700.077744,33160343315.750187,-33135724915.173172,-9910370958.410496,0.624621,-0.624435,-0.186717
-1.860000,0.640000,2.553735,0.040000,-95045248524.362244,36298623028.232010,-36269653589.371452,-10289245352.590359,0.683723,-0.683505,-0.193855
-1.820000,0.640000,2.514086,0.040000,-95647515319.649353,39943104345.039299,-39908779644.212906,-10558589701.030066,0.752357,-0.752099,-0.198930
-1.780000,0.640000,2.474447,0.040000,-96313743433.267944,44187537965.766502,-44146583770.763908,-10685899809.947861,0.832287,-0.831979,-0.201329
-1.740000,0.640000,2.434821,0.040000,-97050734085.104782,49148030075.964325,-49098815003.764511,-10628679492.533236,0.925699,-0.925328,-0.200250
-1.700000,0.640000,2.395207,0.040000,-97866436684.959595,54969326496.090942,-54909741976.106621,-10330943808.361755,1.035317,-1.034868,-0.194641
-1.660000,0.640000,2.355606,0.040000,-98770181157.797913,61833216018.191269,-61760509057.753517,-9718300665.424307,1.164563,-1.164015,-0.183098
-1.620000,0.640000,2.316019,0.040000,-99772969794.992706,69969889281.038086,-69880426722.453278,-8690954526.915789,1.317768,-1.317093,-0.163743
-1.580000,0.640000,2.276447,0.040000,-100887846911.462509,79673468649.637009,-79562400787.898392,-7113634438.767761,1.500467,-1.499630,-0.134025
-1.540000,0.640000,2.236889,0.040000,-102130371311.961105,91323496956.848831,-91184271485.652405,-4800905491.796132,1.719801,-1.718751,-0.090452
-1.500000,0.640000,2.197348,0.040000,-103519226179.970261,105415047856.518250,-105238698380.616882,-1495442149.934980,1.985084,-1.983755,-0.028175
-1.460000,0.640000,2.157823,0.040000,-105077014914.899185,122601475192.171478,-122375565650.602448,3164618548.774390,2.308606,-2.306903,0.059623
-1.420000,0.640000,2.118317,0.040000,-106831311850.633377,143755947643.380951,-143462983563.036926,9695611458.672913,2.706790,-2.704582,0.182671
-1.380000,0.640000,2.078829,0.040000,-108816067141.410797,170061328259.945099,-169676325168.778564,18846290559.769146,3.201878,-3.198976,0.355075
-1.340000,0.640000,2.039361,0.040000,-111073510943.539230,203143607565.011353,-202630284572.630646,31722395172.028706,3.824442,-3.820573,0.597668
-1.300000,0.640000,1.999914,0.040000,-113656772560.874207,245273931820.300110,-244578545850.632904,49991067318.946625,4.617173,-4.611932,0.941861
-1.260000,0.640000,1.960490,0.040000,-116633541556.172409,299682537571.003235,-298723384276.572021,76225680400.081955,5.640771,-5.633543,1.436136
-1.220000,0.640000,1.921090,0.040000,-120091279929.940903,371063386715.436829,-369711942741.485962,114501010147.375076,6.983411,-6.973226,2.157265
-1.180000,0.640000,1.881715,0.040000,-124144805054.510635,466413026967.946045,-464459972653.365417,171428955879.528076,8.776453,-8.761734,3.229821
-1.140000,0.640000,1.842366,0.040000,-128947603779.535721,596422441707.928467,-593527346630.043701,257930689893.430969,11.220581,-11.198763,4.859564
-1.100000,0.640000,1.803047,0.040000,-134709108981.440506,777494154295.578003,-773179811293.893921,392172218606.785217,14.624055,-14.591541,7.388752
-1.060000,0.640000,1.763758,0.040000,-141721050153.019623,1033054988234.966553,-1027079566596.907837,604722836640.627563,19.429581,-19.384549,11.393329
-1.020000,0.640000,1.724501,0.040000,-150394436567.439087,1387635252028.415527,-1381749427194.365967,951987490576.575806,26.110585,-26.066228,17.935996
-0.980000,0.640000,1.685280,0.040000,-161296541426.383636,1838122912140.530029,-1840436250941.441162,1571069076559.786377,34.644377,-34.661810,29.599852
-0.940000,0.640000,1.646096,0.040000,-175145744905.717468,2293262657052.629395,-2357315506471.688965,2867529190582.094238,43.568436,-44.051153,54.025912
-0.900000,0.640000,1.606953,0.040000,-192764443615.312378,2825447092691.845703,-3140441135221.187988,6114329020904.171875,55.013462,-57.387330,115.197503
-0.860000,0.640000,1.567852,0.040000,-215733885716.891663,4836067422587.756836,-5274581117053.247070,13689798945158.482422,93.592869,-96.897610,257.923748
-0.820000,0.640000,1.528799,0.040000,-248733383564.893738,4620889343643.174805,2128635735461.964600,26671740042371.464844,48.910744,1.955242,502.511044
-0.780000,0.640000,1.489795,0.040000,-294886026542.280090,-5432933055252.851562,94795923448330.625000,-6457932569835.306641,-607.454771,1280.914989,-121.671193
-0.740000,0.640000,1.450846,0.040000,-202781059955.236633,27560244698738.972656,92382320870501.921875,-92463226091304.609375,-158.685253,1062.600240,-1742.060781
-0.700000,0.640000,1.411955,0.040000,56290715046.613960,79123499322842.125000,-68201007235394.437500,-68729245138183.984375,1428.996771,-1346.682338,-1294.898821
-0.660000,0.640000,1.373128,0.040000,220710998147.476746,52494957151705.296875,-75787544565864.250000,32237356969285.171875,1120.689180,-1296.227519,607.370494
-0.620000,0.640000,1.334371,0.040000,208657197189.305878,6156272227344.486328,2183726869307.027832,44453918142041.101562,68.848612,-5.996445,837.537588
-0.580000,0.640000,1.295689,0.040000,174702436964.143433,-3547688430662.081055,3670734304769.606445,18054530233521.667969,-67.535983,68.463286,340.157816
-0.540000,0.640000,1.257089,0.040000,145228948423.374603,-4364672341155.289551,4396527315556.168457,8638573774873.812500,-82.413007,82.653073,162.755738
-0.500000,0.640000,1.218580,0.040000,122580841279.107620,-3418333223556.242188,3405972399622.294922,4384933601514.994141,-64.333514,64.240360,82.614691
-0.460000,0.640000,1.180170,0.040000,105401108475.109299,-2445225641121.626953,2426664700061.110352,2405178062320.937500,-45.964559,45.824679,45.314949
-0.420000,0.640000,1.141869,0.040000,92157266072.554459,-1741443643431.616455,1727855720255.233154,1425908282051.385986,-32.733006,32.630605,26.864939
-0.380000,0.640000,1.103689,0.040000,81718797519.764297,-1261734267247.202637,1253482745652.734375,896511002595.855347,-23.725166,23.662981,16.890787
-0.340000,0.640000,1.065642,0.040000,73311620021.126251,-927516819324.512573,922219376603.306885,589228525567.471802,-17.445012,17.405090,11.101407
-0.300000,0.640000,1.027744,0.040000,66396818703.972969,-688701813299.019287,685058120776.218872,404054764098.419128,-12.954947,12.927487,7.612626
-0.260000,0.640000,0.990010,0.040000,60589602200.508873,-514698152853.465149,512228376292.715210,288636520550.253479,-9.683252,9.664639,5.438079
-0.220000,0.640000,0.952462,0.040000,55609673297.593193,-384252042067.294373,382605016813.629761,214102684183.319122,-7.230222,7.217810,4.033819
-0.180000,0.640000,0.915122,0.040000,51247080878.871841,-283005958512.291504,281889362073.755737,165104891081.734558,-5.325685,5.317270,3.110672
-0.140000,0.640000,0.878016,0.040000,47339033325.806267,-201620485622.232697,200870223585.744415,132987059660.984375,-3.794406,3.788752,2.505553
-0.100000,0.640000,0.841176,0.040000,43754733293.629356,-133492417596.757996,133021743312.145523,112474641774.267334,-2.512414,2.508867,2.119087
-0.060000,0.640000,0.804637,0.040000,40384737841.588531,-73642519844.176559,73391379348.646835,100535671951.790970,-1.386048,1.384156,1.894150
-0.020000,0.640000,0.768443,0.040000,37132959032.034843,-18242679310.925056,18179096718.835209,95554562861.996979,-0.343343,0.342864,1.800303
0.020000,0.640000,0.732645,0.040000,33910470426.054001,36012912011.463776,-35895320520.507545,96790917208.856171,0.677839,-0.676953,1.823597
0.060000,0.640000,0.697304,0.040000,30630176099.296455,92365136292.922073,-92055029716.123123,104336216446.579803,1.738460,-1.736123,1.965755
0.100000,0.640000,0.662493,0.040000,27201618730.716885,154205666710.981476,-153664168589.835999,119120069124.401215,2.902264,-2.898183,2.244291
0.140000,0.640000,0.628300,0.040000,23525507422.317669,225569969362.847839,-224729371473.603333,142994859677.831787,4.245118,-4.238783,2.694106
0.180000,0.640000,0.594831,0.040000,19487189952.368774,311788685515.271851,-310553201918.380066,179353685039.690460,5.867296,-5.857986,3.379127
0.220000,0.640000,0.562217,0.040000,14948090402.217772,419984280883.653137,-418171212870.954651,234016518777.074707,7.902500,-7.888836,4.409007
0.260000,0.640000,0.530615,0.040000,9734228131.316301,560322415676.476685,-557606854142.628296,316469957874.289246,10.541450,-10.520985,5.962477
0.300000,0.640000,0.500216,0.040000,3619706056.362600,748537876620.256104,-744536964884.029419,443563372498.790344,14.080274,-14.050122,8.356991
0.340000,0.640000,0.471254,0.040000,-3698693097.370650,1007899497839.261841,-1002101632095.099121,647075261709.699707,18.956640,-18.912946,12.191273
0.380000,0.640000,0.444009,0.040000,-12638875069.052258,1371704510067.079346,-1362696228889.978516,984505657742.575073,25.792792,-25.724903,18.548657
0.420000,0.640000,0.414875,0.040000,-23787463105.387001,1894504121861.410400,-1879637306460.286377,1565122576491.907471,35.609526,-35.497486,29.487817
0.460000,0.640000,0.386710,0.040000,-37988156744.685898,2662949223912.363770,-2642413412946.329102,2637322192810.346680,50.055435,-49.900673,49.688679
0.500000,0.640000,0.359171,0.040000,-56475696500.677063,3730631504613.963867,-3716060525580.147949,4803568794990.652344,70.204903,-70.095092,90.502021
0.540000,0.640000,0.329828,0.040000,-80932364738.348282,4784002985929.659180,-4815848833406.270508,9467020637655.632812,90.313388,-90.553386,178.364157
0.580000,0.640000,0.302935,0.040000,-112869794601.825485,3904237885516.541016,-4066044940735.843750,19870700719926.320312,74.472667,-75.692082,374.375521
0.620000,0.640000,0.273625,0.040000,-149744421136.965576,-6948091157689.020508,-2291644985734.459961,49038052850797.843750,-78.681470,9.048676,923.905344
0.660000,0.640000,0.245383,0.040000,-162384056114.886749,-58329750274542.468750,83674654466736.218750,35585744229670.781250,-1242.220116,1433.225191,670.456051
0.700000,0.640000,0.218623,0.040000,19776044428.564758,-87654888484248.406250,72390925242247.265625,-75172287449517.500000,-1565.194339,1450.161572,-1416.289474
0.740000,0.640000,0.188408,0.040000,309625692164.077576,-33545389520655.140625,-107375341182337.875000,-100819324937306.796875,164.493893,-1226.505197,-1899.494528
0.780000,0.640000,0.162478,0.040000,381998769563.390930,10366618747811.673828,-99038201150571.500000,-6824244422087.217773,696.500312,-1364.749918,-128.572721
0.820000,0.640000,0.132755,0.040000,335487415193.341431,-3884245892435.459961,-807930277465.677734,28028124012313.851562,-46.660449,11.299121,528.066105
0.860000,0.640000,0.104330,0.040000,297973769084.606628,-5658968191877.630859,5493475366954.609375,13904723484636.210938,-105.682847,104.435655,261.973051
0.900000,0.640000,0.081191,0.040000,270314202061.219482,-4210228787110.363281,3391914546833.056641,7190663305191.548828,-74.697897,68.530891,135.476265
0.940000,0.640000,0.047034,0.040000,249218511181.034882,-3306498533043.445801,2412668663989.725586,4007432023259.112793,-57.244267,50.508158,75.502342
0.980000,0.640000,0.032133,0.040000,232830592862.005463,-1577553274562.385010,1999786479054.463135,2008205818313.737793,-32.108554,35.290601,37.835762
1.020000,0.640000,0.032133,0.040000,219957756775.745331,-841629314444.484741,1512753781916.468506,1363958588757.388672,-19.650096,24.707846,25.697771
1.060000,0.640000,0.047034,0.040000,209701666863.458496,-971819460356.001831,1172115780236.976807,818117457456.544678,-19.441752,20.951231,15.413807
1.100000,0.640000,0.081191,0.040000,201403995313.195099,-872528281852.372314,893077294159.352783,488976324579.060059,-16.555085,16.709947,9.212597
1.140000,0.640000,0.104330,0.040000,194593576699.554840,-712766906816.073975,713902975522.519653,327591255168.958740,-13.435363,13.443925,6.172009
1.180000,0.640000,0.132755,0.040000,188932510883.800964,-562432464033.922607,560210811262.945801,228213696361.368042,-10.583997,10.567254,4.299678
1.220000,0.640000,0.162478,0.040000,184174760571.808472,-448977781026.613464,447413822321.121399,164605509520.822571,-8.450162,8.438376,3.101263
1.260000,0.640000,0.188408,0.040000,180137783646.874664,-363205552605.777527,362081388873.381226,120855120543.933624,-6.836649,6.828177,2.276981
1.300000,0.640000,0.218623,0.040000,176683664767.480408,-297296067919.641968,296472513231.820923,89980187870.977005,-5.596575,5.590369,1.695279
1.340000,0.640000,0.245383,0.040000,173706484600.939789,-245912849398.064911,245299164077.477875,67691556255.067085,-4.629672,4.625047,1.275348
1.380000,0.640000,0.273625,0.040000,171123706496.603424,-205338016946.665894,204873678244.525970,51280178873.406296,-3.866063,3.862563,0.966148
1.420000,0.640000,0.302935,0.040000,168870180880.371338,-172930944313.767151,172574728988.648193,38988896594.573181,-3.256106,3.253421,0.734573
1.460000,0.640000,0.329828,0.040000,166893890260.678070,-146783026705.609161,146506325063.790710,29649435853.750660,-2.763913,2.761828,0.558613
1.500000,0.640000,0.359171,0.040000,165152875903.270233,-125492651626.565216,125275266735.330826,22467170234.331829,-2.363126,2.361487,0.423295
1.540000,0.640000,0.386710,0.040000,163612982235.494171,-108015490177.321106,107842938267.544876,16890155292.812698,-2.034099,2.032799,0.318220
1.580000,0.640000,0.414875,0.040000,162246177097.076752,-93563044997.950394,93424786664.508118,12527476135.733194,-1.762001,1.760959,0.236025
1.620000,0.640000,0.444009,0.040000,161029284062.178070,-81532734116.860428,81420995275.554688,9097191081.255470,-1.535492,1.534650,0.171396
1.660000,0.640000,0.471254,0.040000,159943014049.640564,-71458950818.895264,71367924241.206696,6392463079.913127,-1.345814,1.345128,0.120438
1.700000,0.640000,0.500216,0.040000,158971217326.701080,-62978302907.867966,62903599388.386963,4259111593.063779,-1.186125,1.185563,0.080244
1.740000,0.640000,0.530615,0.040000,158100299902.362427,-55804582745.217659,55742848504.289474,2580477081.304334,-1.051042,1.050577,0.048618
1.780000,0.640000,0.562217,0.040000,157318764005.420197,-49710511015.235992,49659157393.073608,1267051764.816510,-0.936285,0.935898,0.023872
1.820000,0.640000,0.594831,0.040000,156616843263.753998,-44514259947.695488,44471269989.086639,249267944.419538,-0.838431,0.838107,0.004696
1.860000,0.640000,0.628300,0.040000,155986210903.442291,-40069392436.986664,40033180810.185753,-527590215.687678,-0.754726,0.754453,-0.009940
1.900000,0.640000,0.662493,0.040000,155419744788.109833,-36257272471.245049,36226582841.602158,-1107026799.527689,-0.682935,0.682703,-0.020857
1.940000,0.640000,0.697304,0.040000,154911337097.542694,-32981284337.518848,32955113353.659958,-1523973698.845894,-0.621239,0.621041,-0.028713
1.980000,0.640000,0.732645,0.040000,154455739355.371918,-30162390373.129684,30139930773.146721,-1806730252.012531,-0.568150,0.567981,-0.034040
2.020000,0.640000,0.768443,0.040000,154048435668.842560,-27735689752.611313,27716287354.452045,-1978407471.953113,-0.522447,0.522301,-0.037274
2.060000,0.640000,0.804637,0.040000,153685538653.413666,-25647733477.040527,25630854348.979397,-2058017652.693189,-0.483123,0.482996,-0.038774
2.100000,0.640000,0.841176,0.040000,153363703730.546173,-23854416176.368202,23839621342.187801,-2061307387.970540,-0.449347,0.449236,-0.038836
2.140000,0.640000,0.878016,0.040000,153080058414.006500,-22319312060.656982,22306237828.957802,-2001403022.861349,-0.420435,0.420336,-0.037708
2.180000,0.640000,0.915122,0.040000,152832143913.590729,-21012356067.382824,21000698581.167053,-1889317668.762761,-0.395819,0.395731,-0.035596
2.220000,0.640000,0.952462,0.040000,152617866939.625122,-19908795717.397079,19898298549.662018,-1734355143.651322,-0.375034,0.374955,-0.032676
2.260000,0.640000,0.990010,0.040000,152435460026.289185,-18988355165.812450,18978796756.225605,-1544436562.564557,-0.357698,0.357626,-0.029098
2.300000,0.640000,1.027744,0.040000,152283449031.810120,-18234532593.035858,18225677143.149658,-1326368091.872854,-0.343499,0.343432,-0.024990
2.340000,0.640000,1.065642,0.040000,152160626666.085541,-17633531080.641460,17624663436.076378,-1086056851.430867,-0.332176,0.332109,-0.020462
2.380000,0.640000,1.103689,0.040000,152066029690.228210,-17176723632.692223,17178471663.154490,-828818834.065097,-0.323629,0.323642,-0.015615
2.420000,0.640000,1.141869,0.040000,151998895827.403503,-16875203633.144707,16970175470.680464,-632216632.950825,-0.318475,0.319191,-0.011911
2.460000,0.640000,1.180170,0.040000,151958322162.104889,-16543331434.459558,16646060807.023911,-515481203.002764,-0.312267,0.313041,-0.009712
-2.500000,0.680000,3.185366,0.040000,0.000143,-14151274109178.490234,45104900286554.390625,3794196734748.499023,-441.573486,674.847191,71.484866
-2.460000,0.680000,3.145540,0.040000,-90815264509.070526,-111549893901.054855,27050168191016.488281,2132270126174.888672,-154.363420,357.379094,40.173205
-2.420000,0.680000,3.105718,0.040000,-90853200003.103134,-1859120037424.612305,8644039692556.681641,1430023202150.865479,-73.376445,124.509173,26.942466
-2.380000,0.680000,3.065901,0.040000,-90917288331.085678,-96272955732.219391,309827611845.360229,2189396520.775403,-3.020886,4.630284,0.041249
-2.340000,0.680000,3.026089,0.040000,-91007617625.002838,16767701808.220499,-16761267824.736773,-3344396496.690654,0.315877,-0.315828,-0.063010
-2.300000,0.680000,2.986282,0.040000,-91124786685.839401,17281287923.454777,-17273852030.717613,-4187212486.715216,0.325547,-0.325491,-0.078890
-2.260000,0.680000,2.946480,0.040000,-91269617233.619415,17926083993.199223,-17917988945.627563,-5034831532.013154,0.337692,-0.337631,-0.094859
-2.220000,0.680000,2.906683,0.040000,-91443141849.085266,18712176861.121437,-18703314046.995285,-5887784571.857470,0.352498,-0.352431,-0.110929
-2.180000,0.680000,2.866892,0.040000,-91646619445.730881,19652878700.827305,-19643072775.491833,-6746386548.479342,0.370216,-0.370142,-0.127106
-2.140000,0.680000,2.827107,0.040000,-91881556584.118164,20764660464.596649,-20753701781.651978,-7610645740.309156,0.391156,-0.391074,-0.143389
-2.100000,0.680000,2.787328,0.040000,-92149733872.798492,22067664366.721786,-22055303174.786732,-8480181088.795878,0.415698,-0.415605,-0.159772
-2.060000,0.680000,2.747556,0.040000,-92453238256.850494,23586401070.441200,-23572337012.326992,-9354119838.211260,0.444302,-0.444196,-0.176237
-2.020000,0.680000,2.707790,0.040000,-92794502312.253891,25350636159.411629,-25334504662.444366,-10230966146.167870,0.477530,-0.477408,-0.192757
-1.980000,0.680000,2.668031,0.040000,-93176351968.976212,27396515835.478672,-27377870516.710793,-11108429597.319462,0.516061,-0.515920,-0.209289
-1.940000,0.680000,2.628280,0.040000,-93602064469.986252,29768001733.030750,-29746291426.829742,-11983198220.719671,0.560724,-0.560560,-0.225770
-1.900000,0.680000,2.588536,0.040000,-94075438870.148804,32518709582.425613,-32493248036.569195,-12850634291.499508,0.612527,-0.612336,-0.242113
-1.860000,0.680000,2.548800,0.040000,-94600882028.117554,35714280992.093620,-35684206476.529312,-13704362080.314663,0.672708,-0.672481,-0.258198
-1.820000,0.680000,2.509073,0.040000,-95183513901.576599,39435466373.514191,-39399687271.563660,-14535703476.269236,0.742785,-0.742515,-0.273861
-1.780000,0.680000,2.469354,0.040000,-95829297100.063995,43782166631.634979,-43739287345.622505,-15332898026.955339,0.824639,-0.824316,-0.288881
-1.740000,0.680000,2.429645,0.040000,-96545197192.376892,48878781738.735092,-48827000638.402206,-16080015280.273438,0.920612,-0.920222,-0.302957
-1.700000,0.680000,2.389945,0.040000,-97339382369.340240,54881361163.782722,-54818328355.305847,-16755424449.625669,1.033640,-1.033165,-0.315682
-1.660000,0.680000,2.350256,0.040000,-98221473964.588013,61987268463.211006,-61909885074.576195,-17329621470.822582,1.167439,-1.166856,-0.326500
-1.620000,0.680000,2.310577,0.040000,-99202863386.993851,70448398344.566513,-70352529525.187973,-17762113603.498932,1.326747,-1.326024,-0.334649
-1.580000,0.680000,2.270910,0.040000,-100297116745.463043,80589480693.096420,-80469539436.972260,-17996905383.057381,1.517675,-1.516771,-0.339072
-1.540000,0.680000,2.231254,0.040000,-101520496652.575928,92833773232.325928,-92682107732.088531,-17955880274.545597,1.748185,-1.747042,-0.338299
-1.500000,0.680000,2.191611,0.040000,-102892642620.204300,107739651505.866699,-107545628443.098846,-17528965501.593670,2.028781,-2.027319,-0.330256
-1.460000,0.680000,2.151981,0.040000,-104437469064.043625,126053541388.617813,-125802149358.230759,-16559287401.454060,2.373501,-2.371606,-0.311987
-1.420000,0.680000,2.112365,0.040000,-106184366357.803299,148787816981.747101,-148457495399.200623,-14820357842.105661,2.801382,-2.798892,-0.279224
-1.380000,0.680000,2.072764,0.040000,-108169830786.678436,177337639223.356354,-176896823973.980957,-11980280275.321461,3.338652,-3.335330,-0.225715
-1.340000,0.680000,2.033178,0.040000,-110439712359.862122,213659997139.120728,-213061475722.566406,-7544287943.805901,4.022095,-4.017585,-0.142139
-1.300000,0.680000,1.993609,0.040000,-113052370403.722488,260554816179.635437,-259726228122.515656,-760302247.130619,4.904320,-4.898076,-0.014325
-1.260000,0.680000,1.954058,0.040000,-116083192788.789505,322118352090.571716,-320945751693.749084,9539618079.763771,6.062269,-6.053432,0.179732
-1.220000,0.680000,1.914525,0.040000,-119631215096.085281,404494667162.195435,-402793612398.642822,25209892538.868877,7.611299,-7.598480,0.474969
-1.180000,0.680000,1.875012,0.040000,-123829061442.824509,517149348358.759705,-514614528657.700195,49260910520.750137,9.729066,-9.709963,0.928104
-1.140000,0.680000,1.835520,0.040000,-128858278422.036148,675052383990.495239,-671173573281.461792,86708441709.015686,12.696455,-12.667223,1.633637
-1.100000,0.680000,1.796051,0.040000,-134973612677.655777,902428550402.447632,-896354073072.288940,146313216666.829468,16.967943,-16.922164,2.756626
-1.060000,0.680000,1.756605,0.040000,-142542356331.628052,1239435716919.935059,-1229688130253.876709,245022330988.571472,23.296592,-23.223132,4.616363
-1.020000,0.680000,1.717185,0.040000,-152109867582.468658,1756384970766.710693,-1739768012171.951172,421456357356.081543,32.997389,-32.872160,7.940482
-0.980000,0.680000,1.677793,0.040000,-164515817136.320892,2595809058208.805664,-2561961518156.578613,776397699646.447510,48.715235,-48.460152,14.627783
-0.940000,0.680000,1.638430,0.040000,-181134681537.092499,4119993264026.138184,-4031024753468.157227,1567387468092.212402,77.120196,-76.449709,29.530489
-0.900000,0.680000,1.599099,0.040000,-204484683203.237915,7303474180586.328125,-7107281318545.899414,3266678072689.461914,136.492771,-135.014216,61.546109
-0.860000,0.680000,1.559802,0.040000,-239845705489.217590,14217996739577.849609,-13705790315125.087891,6709648932709.291016,264.980221,-261.120115,126.413676
-0.820000,0.680000,1.520541,0.040000,-298999111513.805237,26186802510341.843750,-13829673303469.376953,18522331791603.972656,423.529897,-330.403706,348.971469
-0.780000,0.680000,1.481320,0.040000,-410416580334.287170,19632375157188.894531,160782038139400.062500,-3895674678676.117676,-649.848311,2009.493165,-73.396769
-0.740000,0.680000,1.442142,0.040000,-569844222548.891968,114492440417674.640625,271323490364480.156250,-58647887661612.546875,-23.594789,2931.193108,-1104.960202
-0.700000,0.680000,1.403010,0.040000,961551589831.418945,-278855312795750.531250,-378745800226895.000000,-45387482148558.882812,-1536.919892,-3418.914583,-855.126475
-0.660000,0.680000,1.363929,0.040000,447524384781.070068,-65954514111666.539062,-121815551487800.953125,20661348086444.734375,-181.312214,-1233.766541,389.271776
-0.620000,0.680000,1.324902,0.040000,292683195352.157532,-47489799798716.929688,42147247631264.335938,33631700643820.820312,-864.538325,824.275613,633.640737
-0.580000,0.680000,1.285935,0.040000,212015764141.769562,-20271264461646.875000,18586358468063.203125,12024655399477.351562,-372.398992,359.701150,226.551479
-0.540000,0.680000,1.247034,0.040000,163848896995.517670,-10542682170522.998047,10328107643033.662109,5203080314343.116211,-197.417431,195.800348,98.029049
-0.500000,0.680000,1.208204,0.040000,132902622880.221954,-5920801225321.342773,5813079219156.947266,2197649158136.839844,-110.942464,110.130646,41.404984
-0.460000,0.680000,1.169453,0.040000,111635759036.304855,-3536879461387.616211,3473388437785.401367,1117286304157.665527,-66.277997,65.799514,21.050322
-0.420000,0.680000,1.130790,0.040000,96124533364.832520,-2287904450784.770020,2258873241626.407715,667769364085.995361,-42.941357,42.722571,12.581162
-0.380000,0.680000,1.092222,0.040000,84318587658.597443,-1570726296955.169434,1557656628264.184326,411328639282.129639,-29.519522,29.421026,7.749670
-0.340000,0.680000,1.053761,0.040000,75047846766.501266,-1107197917153.110107,1099097767049.648804,258176826223.413940,-20.814467,20.753423,4.864201
-0.300000,0.680000,1.015420,0.040000,67562211901.165009,-795810918744.228027,790278906065.549805,173551608000.797668,-14.962271,14.920581,3.269813
-0.260000,0.680000,0.977211,0.040000,61358413731.031754,-582512713149.430176,579134842797.093750,123426018902.486084,-10.955785,10.930328,2.325418
-0.220000,0.680000,0.939151,0.040000,56091686203.034996,-428618282495.093689,426564173901.841614,90087269989.535172,-8.063807,8.048326,1.697296
-0.180000,0.680000,0.901260,0.040000,51513967433.866562,-311821743354.234314,310427261342.847961,68333240287.660370,-5.867021,5.856511,1.287438
-0.140000,0.680000,0.863558,0.040000,47437399801.052956,-220236003366.613312,219302516274.646484,54662017063.693825,-4.144098,4.137063,1.029864
-0.100000,0.680000,0.826073,0.040000,43714632113.121353,-145055826899.858368,144498928467.585663,45865806728.028999,-2.729788,2.725591,0.864138
-0.060000,0.680000,0.788835,0.040000,40224774982.889458,-79571889655.814987,79276428877.782074,40736717881.195274,-1.497511,1.495284,0.767503
-0.020000,0.680000,0.751881,0.040000,36862707332.369591,-19427939614.703495,19348095931.724102,38850198551.245560,-0.365582,0.364981,0.731960
0.020000,0.680000,0.715254,0.040000,33531870951.797859,39190944290.423996,-39049144400.357071,39578126829.222061,0.737579,-0.736510,0.745675
0.060000,0.680000,0.679009,0.040000,30138086108.002609,100431632010.197617,-100070198252.508591,42978870155.689667,1.890147,-1.887423,0.809747
0.100000,0.680000,0.643208,0.040000,26583035285.738640,168178932818.663818,-167539529376.199982,49750409699.817078,3.164975,-3.160156,0.937327
0.140000,0.680000,0.607931,0.040000,22757953130.786644,247065440464.213593,-246020226444.722961,60363371750.069115,4.648948,-4.641071,1.137281
0.180000,0.680000,0.573275,0.040000,18535971760.714832,344324680024.708435,-342785558634.551331,76222937002.525970,6.478577,-6.466978,1.436084
0.220000,0.680000,0.539359,0.040000,13760601879.320925,469416542372.381226,-467162182867.992920,100885047365.839874,8.831338,-8.814348,1.900733
0.260000,0.680000,0.506332,0.040000,8230632538.890328,635238356161.344116,-631522938646.502197,138067138519.213257,11.947259,-11.919258,2.601265
0.300000,0.680000,0.474380,0.040000,1678732666.610077,866367852169.749634,-860274069057.331421,193354010074.127991,16.288429,-16.242505,3.642902
0.340000,0.680000,0.443735,0.040000,-6268754681.256733,1205451535165.917969,-1196566548892.182373,286462519532.719482,22.661186,-22.594227,5.397120
0.380000,0.680000,0.414686,0.040000,-16159878054.321402,1711379603315.343750,-1697138497320.692139,455409679505.350891,32.162891,-32.055566,8.580182
0.420000,0.680000,0.387593,0.040000,-28813242673.434261,2493844722339.110840,-2462263312832.688965,738325580011.725220,46.806977,-46.568972,13.910482
0.460000,0.680000,0.358337,0.040000,-45505393681.834976,3855831799832.314941,-3786525481676.616699,1230817880481.166748,72.254375,-71.732067,23.189322
0.500000,0.680000,0.330195,0.040000,-68472761417.396111,6461047432965.879883,-6342269065647.700195,2403431625505.220215,121.058523,-120.163382,45.282045
0.540000,0.680000,0.302801,0.040000,-102005851156.061554,11542447592993.431641,-11300221852189.777344,5656599628015.881836,216.097302,-214.271833,106.573616
0.580000,0.680000,0.273260,0.040000,-154409820510.094055,22298590576813.914062,-20688295534508.632812,13316890673246.369141,411.016706,-398.881149,250.897940
0.620000,0.680000,0.246686,0.040000,-242730623899.842834,51867616558784.914062,-46520529768152.875000,37586727844935.546875,946.993300,-906.696414,708.155742
0.660000,0.680000,0.217151,0.040000,-413124772645.567627,71620365031983.531250,134226050903119.046875,23610932768405.273438,185.889454,1365.416869,444.843661
0.700000,0.680000,0.188936,0.040000,-976264241228.404419,305277425284395.875000,413480304351126.687500,-49616151981802.023438,1689.059976,3727.664943,-934.797066
0.740000,0.680000,0.162727,0.040000,706925484721.996582,-127913537745714.515625,-302529398160352.250000,-65349151291954.843750,22.973129,-3266.890907,-1231.215894
0.780000,0.680000,0.131840,0.040000,509256218192.047180,-18445704589598.273438,-172104900714975.656250,-5379546091512.911133,729.497393,-2165.530940,-101.353767
0.820000,0.680000,0.107160,0.040000,389656350435.616455,-28327212478011.542969,16448804775355.839844,20865685061708.078125,-466.562279,377.043844,393.121603
0.860000,0.680000,0.076864,0.040000,324270637766.435364,-16877626917518.105469,14085210666532.726562,9045967764104.664062,-302.201053,281.156757,170.431277
0.900000,0.680000,0.048673,0.040000,284049920245.057434,-10687291387926.054688,7010257429412.233398,5740619546117.034180,-180.571530,152.860549,108.156600
0.940000,0.680000,0.035724,0.040000,256997145950.087494,-6920774729690.731445,3346874762579.669434,3811806992131.948242,-110.191104,83.257365,71.816653
1.060000,0.680000,0.035724,0.040000,211705007465.561279,-943422683554.333984,1391607184500.031982,563870545211.625244,-20.307847,23.685469,10.623648
1.100000,0.680000,0.048673,0.040000,202742432944.855164,-888112435242.591064,969129955728.070435,273565287496.078918,-17.190478,17.801045,5.154129
1.140000,0.680000,0.076864,0.040000,195488354358.828918,-757317282248.436401,786909350211.063965,156541724148.344086,-14.435556,14.658569,2.949337
1.180000,0.680000,0.107160,0.040000,189522233007.648193,-615123766573.739624,618041318910.912109,90640954721.179535,-11.605779,11.627766,1.707728
1.220000,0.680000,0.131840,0.040000,184549619275.626923,-486501207669.183533,484569299244.096863,58822207267.233543,-9.155045,9.140486,1.108244
1.260000,0.680000,0.162727,0.040000,180358396066.772034,-389189519408.429565,387843480134.147339,41081424375.274109,-7.324948,7.314804,0.773998
1.300000,0.680000,0.188936,0.040000,176791952888.822052,-315746378569.146118,314785157606.893799,28749450360.804344,-5.943412,5.936168,0.541656
1.340000,0.680000,0.217151,0.040000,173732183772.022980,-259303963389.922424,258602490854.469543,19965666399.848351,-4.881472,4.876186,0.376165
1.380000,0.680000,0.246686,0.040000,171088379053.512665,-215241856441.356873,214720077076.647736,13577153239.228020,-4.052332,4.048400,0.255801
1.420000,0.680000,0.273260,0.040000,168789762059.206604,-180372623037.876678,179977912301.051147,8849789432.583021,-3.396094,3.393119,0.166735
1.460000,0.680000,0.302801,0.040000,166780346307.971893,-152447567858.321136,152144486961.796448,5303982081.338361,-2.870487,2.868203,0.099930
1.500000,0.680000,0.330195,0.040000,165015310813.196594,-129848301450.131653,129612460327.658203,2618710077.232728,-2.445084,2.443307,0.049338
1.540000,0.680000,0.358337,0.040000,163458393492.077911,-111389149532.345444,111203429862.486099,574060568.475582,-2.097586,2.096187,0.010816
1.580000,0.680000,0.387593,0.040000,162079982817.738220,-96187504792.695328,96039676688.443695,-983998425.258265,-1.811393,1.810279,-0.018539
1.620000,0.680000,0.414686,0.040000,160855698088.706421,-83576896352.912598,83458079983.252594,-2165689593.594754,-1.573966,1.573070,-0.040803
1.660000,0.680000,0.443735,0.040000,159765317905.048553,-73047546863.013687,72951198843.659454,-3051535031.073122,-1.375714,1.374987,-0.057493
1.700000,0.680000,0.474380,0.040000,158791960924.185272,-64204992739.386162,64126225654.203018,-3701542062.592535,-1.209214,1.208620,-0.069739
1.740000,0.680000,0.506332,0.040000,157921452170.744690,-56740803558.255157,56675921195.667778,-4161286296.483284,-1.068663,1.068174,-0.078401
1.780000,0.680000,0.539359,0.040000,157141827716.806946,-50411549013.955177,50357723847.306694,-4466004658.490622,-0.949479,0.949073,-0.084142
1.820000,0.680000,0.573275,0.040000,156442943859.433624,-45023479538.982224,44978525581.470421,-4643391825.108512,-0.848014,0.847676,-0.087484
1.860000,0.680000,0.607931,0.040000,155816166137.041687,-40421224959.826599,40383435567.166527,-4715539681.895170,-0.761346,0.761061,-0.088844
1.900000,0.680000,0.643208,0.040000,155254120002.228516,-36479358542.109184,36447389082.942017,-4700302888.773147,-0.687112,0.686871,-0.088556
1.940000,0.680000,0.679009,0.040000,154750489584.352234,-33096031356.683319,33068813299.057522,-4612275399.745670,-0.623395,0.623189,-0.086898
1.980000,0.680000,0.715254,0.040000,154299854308.481506,-30188121036.061710,30164798308.024704,-4463500174.958732,-0.568630,0.568454,-0.084095
2.020000,0.680000,0.751881,0.040000,153897555574.455231,-27687501225.691860,27667382557.366249,-4263993856.932412,-0.521535,0.521383,-0.080336
2.060000,0.680000,0.788835,0.040000,153539587502.619202,-25538149598.270088,25520672454.062183,-4022141699.643799,-0.481055,0.480923,-0.075779
2.100000,0.680000,0.826073,0.040000,153222507101.257263,-23693889993.888355,23678592997.950600,-3745000510.739532,-0.446320,0.446205,-0.070558
2.140000,0.680000,0.863558,0.040000,152943360230.109406,-22116619026.066494,22103120669.607571,-3438535650.244104,-0.416614,0.416512,-0.064784
2.180000,0.680000,0.901260,0.040000,152699620512.915405,-20774906569.256088,20762888609.017136,-3107810227.677743,-0.391343,0.391253,-0.058553
2.220000,0.680000,0.939151,0.040000,152489138952.581543,-19642887849.670521,19632082374.298897,-2757139270.981384,-0.370022,0.369941,-0.051946
2.260000,0.680000,0.977211,0.040000,152310102470.952789,-18699387540.621521,18689569229.682835,-2390218004.261250,-0.352252,0.352178,-0.045033
2.300000,0.680000,1.015420,0.040000,152160999968.375488,-17927264531.640446,17918282348.229141,-2010231508.139467,-0.337709,0.337642,-0.037874
2.340000,0.680000,1.053761,0.040000,152040594873.731110,-17313376448.703213,17305545708.605877,-1619961326.436197,-0.326150,0.326091,-0.030521
2.380000,0.680000,1.092222,0.040000,151947904792.990479,-16850527840.002647,16841632935.862860,-1222306312.117754,-0.317423,0.317356,-0.023029
2.420000,0.680000,1.130790,0.040000,151882210335.022278,-16552627284.635202,16601978115.332420,-924880137.334794,-0.312140,0.312512,-0.017425
2.460000,0.680000,1.169453,0.040000,151843347003.898376,-16483979349.261551,16694264019.760338,-750988530.426230,-0.311756,0.313341,-0.014149
-2.500000,0.720000,3.181914,0.040000,155906524.123158,-14196963987962.833984,44985149367780.789062,-3918013114659.692871,-441.499210,673.526114,-73.817638
-2.460000,0.720000,3.142044,0.040000,-90501956465.256836,-144148913300.222168,27006126277390.328125,-2202038954639.240723,-154.544417,356.982507,-41.487690
-2.420000,0.720000,3.102178,0.040000,-90538585206.435257,-1861146722913.246338,8631898844842.630859,-1450505510795.025879,-73.334552,124.360510,-27.328365
-2.380000,0.720000,3.062315,0.040000,-90599178082.212448,-96985252517.625473,310178605252.243469,-7546515116.384982,-3.032264,4.638939,-0.142181
-2.340000,0.720000,3.022455,0.040000,-90684519863.994171,15864709224.095863,-15857215072.223206,-3792825511.813956,0.298858,-0.298801,-0.071459
-2.300000,0.720000,2.982599,0.040000,-90795254999.732056,16371057882.220577,-16363627325.541338,-4760949414.987201,0.308398,-0.308342,-0.089699
-2.260000,0.720000,2.942748,0.040000,-90932195044.986343,17005526625.892479,-16997527997.370789,-5743297916.477068,0.320349,-0.320288,-0.108207
-2.220000,0.720000,2.902900,0.040000,-91096356108.192871,17779409641.065258,-17770646122.669270,-6742973773.752784,0.334925,-0.334859,-0.127042
-2.180000,0.720000,2.863056,0.040000,-91288977573.525162,18706162752.471962,-18696452478.210114,-7763190296.371616,0.352380,-0.352307,-0.146263
-2.140000,0.720000,2.823217,0.040000,-91511543689.730011,19802332307.732719,-19791464360.125587,-8807341294.450155,0.373026,-0.372944,-0.165935
-2.100000,0.720000,2.783383,0.040000,-91765810093.370010,21088147328.189053,-21075870712.829315,-9879054986.725805,0.397244,-0.397151,-0.186127
-2.060000,0.720000,2.743553,0.040000,-92053836236.739685,22588226624.909462,-22574239317.119896,-10982259145.571404,0.425496,-0.425391,-0.206912
-2.020000,0.720000,2.703728,0.040000,-92378024855.957825,24332473379.739506,-24316408476.114906,-12121262664.433739,0.458347,-0.458226,-0.228372
-1.980000,0.720000,2.663909,0.040000,-92741169915.235123,26357212629.984653,-26338620427.625366,-13300858202.218872,0.496480,-0.496340,-0.250596
-1.940000,0.720000,2.624095,0.040000,-93146514853.547623,28706643605.145794,-28684968156.641697,-14526451882.278990,0.540727,-0.540564,-0.273687
-1.900000,0.720000,2.584287,0.040000,-93597823465.935562,31434704274.896664,-31409252398.924835,-15804228026.962112,0.592104,-0.591912,-0.297761
-1.860000,0.720000,2.544485,0.040000,-94099466414.284515,34607481137.588074,-34577381036.299919,-17141359818.919086,0.651855,-0.651628,-0.322953
-1.820000,0.720000,2.504689,0.040000,-94656527239.223480,38306347695.435829,-38270493110.928787,-18546281082.647243,0.721511,-0.721241,-0.349423
-1.780000,0.720000,2.464900,0.040000,-95274932916.934891,42632087089.163612,-42589061129.301674,-20029040859.177708,0.802970,-0.802646,-0.377359
-1.740000,0.720000,2.425117,0.040000,-95961615588.383118,47710358456.521194,-47658328515.545792,-21601772375.102345,0.898597,-0.898205,-0.406990
-1.700000,0.720000,2.385342,0.040000,-96724714251.664749,53699018834.007645,-53635589923.271217,-23279323463.246090,1.011362,-1.010884,-0.438596
-1.660000,0.720000,2.345575,0.040000,-97573828196.665512,60798038015.457542,-60720045481.480331,-25080119912.550983,1.145029,-1.144442,-0.472524
-1.620000,0.720000,2.305816,0.040000,-98520338139.397308,69263082703.708389,-69166295381.266541,-27027372355.732346,1.304410,-1.303680,-0.509211
-1.580000,0.720000,2.266065,0.040000,-99577816929.167038,79424363178.140350,-79303052200.672302,-29150800885.195892,1.495715,-1.494801,-0.549218
-1.540000,0.720000,2.226323,0.040000,-100762560191.361374,91713137050.354721,-91559439827.183472,-31489156401.859219,1.727060,-1.725902,-0.593274
-1.500000,0.720000,2.186591,0.040000,-102094279629.815048,106699529718.154297,-106502495917.992752,-34093993279.130527,2.009167,-2.007682,-0.642351
-1.460000,0.720000,2.146868,0.040000,-103597019996.294479,125147368561.323486,-124891502455.819473,-37035447791.238495,2.356403,-2.354475,-0.697769
-1.420000,0.720000,2.107156,0.040000,-105300388247.676437,148095082655.315155,-147758069955.877167,-40411301984.700958,2.788292,-2.785753,-0.761372
-1.380000,0.720000,2.067455,0.040000,-107241225606.817032,176977376965.733856,-176526459084.837891,-44361564176.530334,3.331808,-3.328409,-0.835798
-1.340000,0.720000,2.027766,0.040000,-109465919329.699249,213812167478.055511,-213198215985.290955,-49092595235.374763,4.024875,-4.020248,-0.924933
-1.300000,0.720000,1.988089,0.040000,-112033656897.528854,261494563815.528961,-260642150642.127686,-54918357949.205589,4.921891,-4.915467,-1.034694
-1.260000,0.720000,1.948426,0.040000,-115021099335.056381,324270940606.843994,-323061290170.429077,-62333561916.895660,6.102615,-6.093499,-1.174400
-1.220000,0.720000,1.908776,0.040000,-118529243493.956772,408523786742.068298,-406764816076.028564,-72147858637.006866,7.686883,-7.673627,-1.359307
-1.180000,0.720000,1.869142,0.040000,-122693749946.653259,524108077927.820435,-521480172546.319641,-85736584721.375854,9.859647,-9.839842,-1.615327
-1.140000,0.720000,1.829523,0.040000,-127700915403.895966,686707129803.327515,-682659210660.769165,-105502700204.406143,12.915081,-12.884575,-1.987732
-1.100000,0.720000,1.789921,0.040000,-133813147052.448715,922216688308.269653,-915742694778.994751,-135684103155.515915,17.338505,-17.289715,-2.556367
-1.060000,0.720000,1.750338,0.040000,-141411171509.202362,1275662581215.429932,-1264739908250.254150,-183713812519.648407,23.972486,-23.890170,-3.461275
-1.020000,0.720000,1.710773,0.040000,-151067837920.247528,1831522920440.589111,-1811565247733.377197,-263114082354.639252,34.394149,-34.243744,-4.957222
-0.980000,0.720000,1.671230,0.040000,-163687582866.385132,2763882024922.720215,-2723817754275.569336,-404491390297.775269,51.846689,-51.544756,-7.620852
-0.940000,0.720000,1.631709,0.040000,-180795295392.956390,4458228429564.143555,-4373595420116.164062,-706575421434.940674,83.517248,-82.879434,-13.312291
-0.900000,0.720000,1.592212,0.040000,-205177253977.092499,7787950086159.345703,-7609590962063.997070,-1522572449852.986816,145.721378,-144.377222,-28.686148
-0.860000,0.720000,1.552740,0.040000,-242344148301.105988,14867928976666.021484,-14533768645991.406250,-3997189430526.835449,278.231669,-275.713359,-75.309366
-0.820000,0.720000,1.513296,0.040000,-304087123186.230713,28994658534863.535156,-19519138805631.886719,-9244377044284.720703,492.718890,-421.309176,-174.169423
-0.780000,0.720000,1.473883,0.040000,-419172074859.663818,22970614952264.343750,160915306754645.781250,13631005625550.292969,-606.575508,1992.382454,256.816048
-0.740000,0.720000,1.434501,0.040000,-696214812525.141846,155024588903617.968750,318731177362265.687500,47776656881811.351562,243.003141,3327.330170,900.139912
-0.700000,0.720000,1.395155,0.040000,1093695542388.993408,-331044004076567.687500,-426133293382539.625000,24409196030259.679688,-1957.363178,-3748.900513,459.883403
-0.660000,0.720000,1.355847,0.040000,485335171763.247437,-85987699169037.234375,-135032605554834.421875,-26637845368685.812500,-370.812900,-1294.847368,-501.872449
-0.620000,0.720000,1.316581,0.040000,317100164179.175476,-61205261768890.132812,39393933372488.968750,-28713734661995.386719,-1029.861192,865.485963,-540.983407
-0.580000,0.720000,1.277360,0.040000,219661080203.754913,-25384249089615.863281,19929775733594.097656,-6894191748676.375977,-447.424336,406.318160,-129.890569
-0.540000,0.720000,1.238190,0.040000,166337382457.395477,-12808880840604.068359,12378399361486.826172,-2580605583500.245117,-238.893584,235.649376,-48.620105
-0.500000,0.720000,1.199074,0.040000,134106003027.111130,-6415811133491.419922,6208935941096.771484,-1701973909889.504883,-119.708307,118.149247,-32.066175
-0.460000,0.720000,1.160018,0.040000,112410251228.275406,-3536441034154.437988,3440565854249.722168,-652901071029.639038,-66.086696,65.364158,-12.301035
-0.420000,0.720000,1.121029,0.040000,96516864209.680588,-2362376108323.020508,2346301482106.040039,-228642896439.772430,-44.417679,44.296537,-4.307765
-0.380000,0.720000,1.082113,0.040000,84445754206.474289,-1653679054760.617676,1645282308118.324951,-176480172862.372101,-31.108812,31.045532,-3.324989
-0.340000,0.720000,1.043280,0.040000,75038664228.970230,-1139235113046.389648,1129495209851.701660,-142236922730.582214,-21.408798,21.335396,-2.679826
-0.300000,0.720000,1.004538,0.040000,67471657847.290001,-806778073467.350586,799436217356.283936,-87657661332.204544,-15.158669,15.103339,-1.651521
-0.260000,0.720000,0.965899,0.040000,61205448021.797493,-594135122531.665894,590901863254.935303,-56374715665.197411,-11.175575,11.151209,-1.062132
-0.220000,0.720000,0.927375,0.040000,55894253255.785172,-437616313755.391296,435859820002.428711,-45656489000.505569,-8.235017,8.221780,-0.860195
-0.180000,0.720000,0.888982,0.040000,51286367924.601334,-315667002723.209900,314098417307.347900,-36526105116.835365,-5.938483,5.926662,-0.688173
-0.140000,0.720000,0.850737,0.040000,47186288860.231400,-222789848729.942902,221738011175.551392,-28052804737.486652,-4.191545,4.183618,-0.528531
-0.100000,0.720000,0.812661,0.040000,43444125080.433250,-147422978625.068207,146927557420.648102,-24308861756.674408,-2.774734,2.771001,-0.457993
-0.060000,0.720000,0.774778,0.040000,39938433381.498154,-80198876956.460632,79896736143.952805,-22428241619.982048,-1.509286,1.507009,-0.422561
-0.020000,0.720000,0.737119,0.040000,36561647555.028954,-18961332481.656906,18840358408.729389,-20300893970.812996,-0.356559,0.355647,-0.382481
0.020000,0.720000,0.699721,0.040000,33215505589.027699,39626695102.924454,-39437756642.896385,-20151907008.419201,0.745522,-0.744098,-0.379674
0.060000,0.720000,0.662626,0.040000,29805547113.154781,102066684789.369385,-101705883963.841690,-21883554746.947201,1.920956,-1.918237,-0.412299
0.100000,0.720000,0.625889,0.040000,26231602034.868996,171562819068.728607,-170989044608.246002,-23328986183.019241,3.229100,-3.224776,-0.439532
0.140000,0.720000,0.589577,0.040000,22382452602.085407,250545108488.938629,-249358878387.793762,-26989311535.832352,4.713710,-4.704771,-0.508494
0.180000,0.720000,0.553773,0.040000,18130784622.059261,349297829880.885254,-347570608924.465271,-35751855526.942528,6.571211,-6.558194,-0.673586
0.220000,0.720000,0.518584,0.040000,13317222862.370333,480067936297.653748,-478166753977.557068,-44934158080.828049,9.034012,-9.019685,-0.846586
0.260000,0.720000,0.484141,0.040000,7732159282.008266,648407735071.445190,-644863155219.073853,-55953297505.567154,12.196343,-12.169630,-1.054193
0.300000,0.720000,0.450618,0.040000,1104832396.311476,878279398194.558350,-870132773805.813965,-90409091950.021179,16.501247,-16.439852,-1.703360
0.340000,0.720000,0.418235,0.040000,-6938754583.035205,1240841554978.987305,-1230067308131.660400,-151000045091.580597,23.317276,-23.236079,-2.844928
0.380000,0.720000,0.387279,0.040000,-16986860770.720190,1804658640312.438232,-1795528134854.653809,-187350905958.725647,33.949208,-33.880398,-3.529800
0.420000,0.720000,0.358118,0.040000,-29942147352.567585,2579658722911.679199,-2562405379543.901855,-239066363804.695892,48.504747,-48.374722,-4.504149
0.460000,0.720000,0.331229,0.040000,-47070533440.371284,3855573515441.377930,-3751946357867.713379,-694983036895.862549,72.055521,-71.274563,-13.093883
0.500000,0.720000,0.301811,0.040000,-70523754782.798294,6976992174272.740234,-6752907379799.966797,-1843834763688.295898,130.184011,-128.495256,-34.738916
0.540000,0.720000,0.273703,0.040000,-105434061970.546463,13923698369694.599609,-13473061449207.302734,-2865545638723.976562,259.783471,-256.387366,-53.988541
0.580000,0.720000,0.246521,0.040000,-163265380080.739960,27784099884212.441406,-22608649251523.386719,-7385565349986.546875,494.216001,-455.212605,-139.148333
0.620000,0.720000,0.216692,0.040000,-269164724779.447601,66533809947908.468750,-44614561892761.164062,-30741004726648.792969,1129.644148,-964.455612,-579.178350
0.660000,0.720000,0.190625,0.040000,-459782510768.391846,95106197750790.843750,149393646607228.781250,-28268483354048.652344,409.900258,1432.707265,-532.594614
0.700000,0.720000,0.160745,0.040000,-1126413230490.261230,363861653041490.812500,466711607220164.562500,26836388089578.871094,2160.819963,4098.572723,505.613109
0.740000,0.720000,0.132594,0.040000,835313677602.347534,-169450630555586.000000,-351358838542139.062500,50929894305517.250000,-248.842417,-3676.098510,959.548733
0.780000,0.720000,0.107538,0.040000,525680200728.661682,-26476637534626.125000,-176936433276302.375000,16260266488892.087891,650.890852,-2183.858922,306.352847
0.820000,0.720000,0.075273,0.040000,396755168897.413025,-35387073930032.976562,23111396266639.527344,-8345605817328.777344,-597.328722,504.816369,-157.236052
0.860000,0.720000,0.054475,0.040000,327661520736.142578,-22301488242497.015625,18411956459647.132812,-2098334954576.406494,-398.188657,368.876243,-39.533847
0.900000,0.720000,0.024339,0.040000,285569772733.465942,-15232951608180.269531,10256562750745.091797,870375876659.457642,-258.870224,221.367003,16.398386
1.100000,0.720000,0.024339,0.040000,202404287202.617523,-840394470850.411377,955235244115.185181,43131861663.331833,-16.482619,17.348086,0.812629
1.140000,0.720000,0.054475,0.040000,195115404417.819611,-699844121166.672852,798376864454.195190,-4122956041.755527,-13.742393,14.484959,-0.077679
1.180000,0.720000,0.075273,0.040000,189131727673.702911,-595481658054.624756,626614143978.703735,-40411872719.974968,-11.395186,11.629808,-0.761383
1.220000,0.720000,0.107538,0.040000,184152080054.399292,-487908129518.636719,491187224629.955872,-50035030200.612846,-9.211006,9.235718,-0.942689
1.260000,0.720000,0.132594,0.040000,179960489896.413300,-391883014652.571533,390507421381.903992,-43907479129.272537,-7.375528,7.365161,-0.827242
1.300000,0.720000,0.160745,0.040000,176398036038.270538,-317555774707.898315,316577089694.219177,-35917550094.967957,-5.977403,5.970028,-0.676707
1.340000,0.720000,0.190625,0.040000,173345178681.696381,-260545218247.570404,259833239577.512665,-30088915319.563728,-4.904799,4.899433,-0.566893
1.380000,0.720000,0.216692,0.040000,170710288165.021118,-216104390749.089386,215576171362.545074,-25746378548.510120,-4.068546,4.064566,-0.485077
1.420000,0.720000,0.246521,0.040000,168421975477.902954,-180972243450.015289,180573498581.636597,-22445452892.909557,-3.407368,3.404363,-0.422885
1.460000,0.720000,0.273703,0.040000,166423829708.780426,-152856634046.927734,152550959649.159271,-19885740350.042999,-2.878180,2.875876,-0.374659
1.500000,0.720000,0.301811,0.040000,164670722731.777893,-130113207915.375916,129875646042.862473,-17859739916.360245,-2.450066,2.448275,-0.336488
1.540000,0.720000,0.331229,0.040000,163126160446.023560,-111540588106.948990,111353682601.627426,-16221534323.800373,-2.100433,2.099024,-0.305623
1.580000,0.720000,0.358118,0.040000,161760348942.102600,-96246558420.207458,96097876514.056564,-14867021770.548662,-1.812501,1.811380,-0.280103
1.620000,0.720000,0.387279,0.040000,160548759185.686188,-83558692506.796219,83439231700.613159,-13721079745.147467,-1.573619,1.572719,-0.258513
1.660000,0.720000,0.418235,0.040000,159471045839.353149,-72963463560.451675,72866606015.048843,-12729019566.856514,-1.374126,1.373397,-0.239822
1.700000,0.720000,0.450618,0.040000,158510221943.941711,-64063996264.125381,63984809325.389183,-11850770219.676727,-1.206555,1.205958,-0.223275
1.740000,0.720000,0.484141,0.040000,157652021324.039612,-56550260840.911278,56485020842.651779,-11056841567.267082,-1.065071,1.064579,-0.208317
1.780000,0.720000,0.518584,0.040000,156884400681.548889,-50177720628.889473,50123583411.829163,-10325473952.969910,-0.945071,0.944663,-0.194538
1.820000,0.720000,0.553773,0.040000,156197146986.186157,-44751818447.658432,44706587943.339447,-9640595208.392595,-0.842895,0.842554,-0.181634
1.860000,0.720000,0.589577,0.040000,155581565189.474670,-40116557670.325943,40078521071.031868,-8990337564.855446,-0.755604,0.755318,-0.169383
1.900000,0.720000,0.625889,0.040000,155030227889.137482,-36145995882.066154,36113804689.272202,-8365949521.242344,-0.680830,0.680587,-0.157619
1.940000,0.720000,0.662626,0.040000,154536773263.007385,-32737837928.795197,32710421045.114384,-7760990636.828999,-0.616645,0.616438,-0.146222
1.980000,0.720000,0.699721,0.040000,154095740971.981628,-29808561177.037106,29785060663.886765,-7170731791.957806,-0.561478,0.561301,-0.135101
2.020000,0.720000,0.737119,0.040000,153702438197.557983,-27289672275.759480,27269395337.327133,-6591706467.145062,-0.514039,0.513886,-0.124192
2.060000,0.720000,0.774778,0.040000,153352829799.836487,-25124808910.278084,25107191620.117107,-6021374172.197255,-0.473266,0.473134,-0.113446
2.100000,0.720000,0.812661,0.040000,153043447940.750854,-23267479387.560562,23252059002.666374,-5457867885.355135,-0.438286,0.438169,-0.102829
2.140000,0.720000,0.850737,0.040000,152771317542.693024,-21679288716.255783,21665682326.904251,-4899804867.289764,-0.408373,0.408271,-0.092315
2.180000,0.720000,0.888982,0.040000,152533894734.529327,-20328539565.088135,20316427454.974174,-4346145543.753474,-0.382933,0.382842,-0.081884
2.220000,0.720000,0.927375,0.040000,152329016039.319916,-19189124976.806477,19178237371.523964,-3796088983.184322,-0.361473,0.361391,-0.071521
2.260000,0.720000,0.965899,0.040000,152154856526.641388,-18239648493.667347,18229752508.160496,-3248996238.077475,-0.343590,0.343515,-0.061213
2.300000,0.720000,1.004538,0.040000,152009895516.952393,-17462690485.455090,17453542591.277496,-2704333993.176073,-0.328956,0.328887,-0.050951
2.340000,0.720000,1.043280,0.040000,151892888639.667969,-16843740669.539730,16834644082.871527,-2161619425.430996,-0.317294,0.317226,-0.040726
2.380000,0.720000,1.082113,0.040000,151802843923.293854,-16373709845.022114,16375161543.745749,-1620628026.545467,-0.308498,0.308509,-0.030534
2.420000,0.720000,1.121029,0.040000,151738979072.371338,-16063805944.029627,16159980845.295139,-1222607633.093663,-0.303195,0.303920,-0.023035
2.460000,0.720000,1.160018,0.040000,151700395419.374878,-15732964344.681038,15843226507.207264,-990876941.257864,-0.297041,0.297872,-0.018669
-2.500000,0.760000,3.178962,0.040000,-90156470067.199799,20367472852972.113281,12707088313567.906250,-5191806234646.334961,196.791824,52.465738,-97.816639
-2.460000,0.760000,3.139055,0.040000,-90166332432.317184,4066874028808.950195,19700190737814.015625,-3051516109663.244629,-57.713319,236.827430,-57.492333
-2.420000,0.760000,3.099149,0.040000,-90199788523.782974,-394501409952.627563,6460500405630.029297,-627041686359.016602,-41.718717,87.433492,-11.813829
-2.380000,0.760000,3.059247,0.040000,-90256328309.239441,9173220164.800468,6985954789.150489,-3193564608.584858,0.081494,0.040285,-0.060169
-2.340000,0.760000,3.019347,0.040000,-90336059414.649124,14844513049.682299,-14838345568.148052,-4230129902.011166,0.279644,-0.279598,-0.079698
-2.300000,0.760000,2.979450,0.040000,-90439552584.913071,15332681254.164824,-15325584548.982084,-5320454966.550370,0.288836,-0.288783,-0.100240
-2.260000,0.760000,2.939555,0.040000,-90567588943.099548,15945968888.319605,-15938232591.979218,-6434458513.296748,0.300388,-0.300329,-0.121229
-2.220000,0.760000,2.899663,0.040000,-90721150638.096542,16694288648.846716,-16685803090.631626,-7577652344.643377,0.314482,-0.314418,-0.142767
-2.180000,0.760000,2.859775,0.040000,-90901436118.814316,17590640318.512192,-17581235081.208752,-8756098293.604095,0.331365,-0.331294,-0.164970
-2.140000,0.760000,2.819889,0.040000,-91109880949.787537,18651085131.619125,-18640557126.637215,-9976523626.673161,0.351338,-0.351258,-0.187963
-2.100000,0.760000,2.780007,0.040000,-91348183554.642670,19895240081.656403,-19883347788.844170,-11246501359.518019,0.374771,-0.374681,-0.211891
-2.060000,0.760000,2.740128,0.040000,-91618336661.756683,21346946408.261387,-21333399806.776020,-12574678978.650858,0.402112,-0.402010,-0.236914
-2.020000,0.760000,2.700253,0.040000,-91922665524.336365,23035119192.642887,-23019566732.399471,-13971068448.638094,0.433907,-0.433790,-0.263223
-1.980000,0.760000,2.660382,0.040000,-92263874278.591934,24994825921.168140,-24976837695.161045,-15447417109.577698,0.470815,-0.470680,-0.291038
-1.940000,0.760000,2.620514,0.040000,-92645102171.518753,27268660644.083492,-27247706447.539852,-17017686222.495232,0.513639,-0.513481,-0.320623
-1.900000,0.760000,2.580651,0.040000,-93069991864.785004,29908503772.467934,-29883924215.740131,-18698673969.708050,0.563355,-0.563169,-0.352294
-1.860000,0.760000,2.540792,0.040000,-93542772641.060287,32977789934.684708,-32948758041.335411,-20510834184.496319,0.621157,-0.620938,-0.386436
-1.820000,0.760000,2.500937,0.040000,-94068362155.968582,36554451721.348244,-36519921375.002739,-22479363171.744537,0.688512,-0.688252,-0.423524
-1.780000,0.760000,2.461087,0.040000,-94652491465.868118,40734771486.473297,-40693407525.128899,-24635658101.609867,0.767233,-0.766921,-0.464150
-1.740000,0.760000,2.421242,0.040000,-95301859522.565079,45638465501.739426,-45588547938.121323,-27019296981.647293,0.859573,-0.859197,-0.509059
-1.700000,0.760000,2.381403,0.040000,-96024325309.436279,51415458154.128807,-51354749517.571762,-29680760702.428177,0.968354,-0.967896,-0.559203
-1.660000,0.760000,2.341568,0.040000,-96829148514.497086,58254999297.298325,-58180558797.129524,-32685225963.468819,1.097137,-1.096576,-0.615809
-1.620000,0.760000,2.301740,0.040000,-97727293410.200653,66398067776.207848,-66305987818.498657,-36117926798.808144,1.250458,-1.249764,-0.680483
-1.580000,0.760000,2.261917,0.040000,-98731815905.518463,76154440076.490463,-76039467874.279434,-40091850032.835625,1.434144,-1.433277,-0.755354
-1.540000,0.760000,2.222101,0.040000,-99858361257.843094,87926468180.205688,-87781454830.045975,-44758961259.745338,1.655766,-1.654673,-0.843285
-1.500000,0.760000,2.182292,0.040000,-101125810756.528625,102242641634.782349,-102057728032.713013,-50326865974.916725,1.925265,-1.923872,-0.948187
-1.460000,0.760000,2.142490,0.040000,-102557131485.727921,119805633923.546555,-119567028454.249405,-57083997022.397781,2.255859,-2.254061,-1.075496
-1.420000,0.760000,2.102695,0.040000,-104180506675.403030,141562140863.057373,-141250252393.150391,-65438453680.970100,2.665350,-2.662999,-1.232898
-1.380000,0.760000,2.062908,0.040000,-106030859386.329620,168806079828.165894,-168392613610.817780,-75979193041.560089,3.178067,-3.174951,-1.431492
-1.340000,0.760000,2.023130,0.040000,-108151936267.093704,203333807623.161743,-202777161996.529205,-89574726699.137329,3.827781,-3.823586,-1.687640
-1.300000,0.760000,1.983360,0.040000,-110599202391.852615,247682018380.065186,-246919846294.346924,-107536431295.304184,4.662165,-4.656421,-2.026049
-1.260000,0.760000,1.943600,0.040000,-113443932273.503998,305499709773.378784,-304436651998.851257,-131896284702.703354,5.749783,-5.741772,-2.485002
-1.220000,0.760000,1.903850,0.040000,-116779099853.095261,382142435104.336670,-380629375850.198853,-165892966518.999634,7.191233,-7.179830,-3.125520
-1.180000,0.760000,1.864111,0.040000,-120728031896.386536,485645820759.203796,-483443435298.581665,-214848557159.271301,9.137401,-9.120803,-4.047871
-1.140000,0.760000,1.824383,0.040000,-125457408046.723373,628373626364.020386,-625084367626.945557,-287804322834.186462,11.820332,-11.795543,-5.422400
-1.100000,0.760000,1.784668,0.040000,-131197295715.263687,829933638783.005005,-824865608497.557251,-400716757535.261963,15.607785,-15.569592,-7.549736
-1.060000,0.760000,1.744965,0.040000,-138272990530.092834,1122591097626.167969,-1114478200134.540527,-583155227354.392578,21.104412,-21.043271,-10.986983
-1.020000,0.760000,1.705276,0.040000,-147157520986.269104,1561518504444.177979,-1548006284010.837646,-893729652469.626343,29.343540,-29.241709,-16.838385
-0.980000,0.760000,1.665602,0.040000,-158561463494.426331,2242851109833.586426,-2219915444758.378418,-1458944358233.576416,42.126979,-41.954130,-27.487357
-0.940000,0.760000,1.625944,0.040000,-173588775277.881958,3327154766367.413574,-3289535212544.505371,-2575303873257.594238,62.472892,-62.189383,-48.520218
-0.900000,0.760000,1.586303,0.040000,-193993645882.179199,5036669030823.689453,-4980574304221.946289,-4978618456656.316406,94.576707,-94.153964,-93.800058
-0.860000,0.760000,1.546681,0.040000,-222520728139.871674,7448416642911.400391,-7362896594159.043945,-10599589251208.888672,139.849113,-139.204614,-199.702406
-0.820000,0.760000,1.507079,0.040000,-262951904854.703339,9000584931748.832031,-8027561739067.305664,-24698553706653.292969,164.076542,-156.743613,-465.335070
-0.780000,0.760000,1.467498,0.040000,-317072532944.536377,-2790540981469.653320,95636389420153.296875,8881397936439.937500,-577.356292,1277.064136,167.330686
-0.740000,0.760000,1.427940,0.040000,-349156403943.803101,69368786567064.375000,147190449456654.250000,94458736795827.984375,82.917688,1549.122931,1779.657360
-0.700000,0.760000,1.388408,0.040000,85191598084.675995,64100141563253.742188,-84926754702519.718750,67840413934099.773438,1325.399466,-1482.353652,1278.152726
-0.660000,0.760000,1.348904,0.040000,243699588345.062683,41736739901901.523438,-89244704773222.484375,-35894692874602.570312,1054.867655,-1412.898694,-676.276822
-0.620000,0.760000,1.309430,0.040000,252027226532.289246,-12504499502099.855469,-6340295841361.199219,-48029701699693.359375,-129.077959,-12.940789,-904.907423
-0.580000,0.760000,1.269988,0.040000,188468989118.354614,-11975447134904.419922,5076807468569.247070,-18082156148497.167969,-186.632055,134.642307,-340.678304
-0.540000,0.760000,1.230583,0.040000,149262011410.141937,-9054201842693.185547,9102762078936.248047,-9783480806754.871094,-170.860882,171.226844,-184.326450
-0.500000,0.760000,1.191217,0.040000,125776006470.546341,-4556662699002.784180,3503652714558.311035,-5736789019236.525391,-79.898371,71.962644,-108.084431
-0.460000,0.760000,1.151895,0.040000,107789084326.712570,-2419186765940.147949,1867348903120.980469,-1983110615706.998047,-42.459798,38.301019,-37.362954
-0.420000,0.760000,1.112621,0.040000,93179265695.500458,-2163063155571.543945,2202190486392.587891,-836337214207.165039,-40.974518,41.269391,-15.757078
-0.380000,0.760000,1.073401,0.040000,81956994716.603928,-1549468126064.970215,1558351180980.627930,-804432902774.543457,-29.243086,29.310031,-15.155982
-0.340000,0.760000,1.034241,0.040000,73240840173.652878,-976570423607.308228,955717270053.796021,-571547570273.343018,-18.281287,18.124133,-10.768288
-0.300000,0.760000,0.995147,0.040000,66112416381.565163,-698696730404.514771,688129790806.569336,-312543845990.959717,-13.104125,13.024490,-5.888507
-0.260000,0.760000,0.956128,0.040000,60110680770.881317,-559630878378.609497,560478561355.474121,-213752273913.821045,-10.548561,10.554950,-4.027217
-0.220000,0.760000,0.917194,0.040000,55002261089.175476,-413937557890.691772,413678042625.799133,-184724758416.588318,-7.797357,7.795401,-3.480322
-0.180000,0.760000,0.878356,0.040000,50559070051.869682,-288276445078.364929,285711695033.682556,-141193756215.511475,-5.416799,5.397470,-2.660172
-0.140000,0.760000,0.839627,0.040000,46581862259.532356,-208493564290.101929,207344281587.121063,-104049088863.514740,-3.921644,3.912982,-1.960345
-0.100000,0.760000,0.801023,0.040000,42939029992.736687,-143462391365.036041,143577853180.618408,-93037070742.758789,-2.703567,2.704437,-1.752872
-0.060000,0.760000,0.762562,0.040000,39524842978.998047,-74282975382.943375,73921156120.235535,-87026541948.859131,-1.397489,1.394762,-1.639631
-0.020000,0.760000,0.724269,0.040000,36230787231.093834,-14941285277.532572,14524876410.765507,-76743011296.496124,-0.279149,0.276011,-1.445883
0.020000,0.760000,0.686170,0.040000,32961785444.017853,35265249747.069313,-34756791081.645706,-77326170920.896667,0.661544,-0.657712,-1.456870
0.060000,0.760000,0.648300,0.040000,29635066895.171799,96161790141.292938,-95782899518.234512,-88305762774.361633,1.809602,-1.806747,-1.663732
0.100000,0.760000,0.610702,0.040000,26153156969.590263,167429438399.470947,-167525782880.330872,-94544227737.680115,3.155012,-3.155738,-1.781268
0.140000,0.760000,0.573429,0.040000,22404257289.802700,234877815561.052948,-233534440372.746674,-107064177888.779587,4.417641,-4.407517,-2.017151
0.180000,0.760000,0.536549,0.040000,18278559087.093063,319859292513.010437,-317028108465.058044,-147941671219.720856,6.010332,-5.988996,-2.787307
0.220000,0.760000,0.500149,0.040000,13635867622.798285,455368623748.679077,-455194416816.355896,-194412681959.127808,8.578424,-8.577111,-3.662848
0.260000,0.760000,0.464342,0.040000,8261509144.260362,611250904287.899170,-612311008947.225952,-224331161788.319550,11.522313,-11.530302,-4.226529
0.300000,0.760000,0.429275,0.040000,1911602310.057047,758222628762.308716,-746372346619.675293,-333246469197.854858,14.218374,-14.129068,-6.278557
0.340000,0.760000,0.395147,0.040000,-5661230943.776453,1060390927989.356934,-1036992513421.898315,-622083890347.635132,19.846128,-19.669792,-11.720421
0.380000,0.760000,0.362222,0.040000,-14958974700.575806,1693520698124.032715,-1703654747110.545654,-879040534280.684204,31.964191,-32.040564,-16.561633
0.420000,0.760000,0.330861,0.040000,-26996976123.935608,2372869105206.332520,-2416160942578.213867,-903766377585.938599,44.950923,-45.277180,-17.027482
0.460000,0.760000,0.301551,0.040000,-42750750210.411362,2647614288928.132812,-2051984834632.653809,-2130576004240.328613,46.515987,-42.027185,-40.141287
0.500000,0.760000,0.274949,0.040000,-62205236198.640038,4935229587801.598633,-3798261653326.049316,-6192026283134.165039,86.556246,-77.987792,-116.661365
0.540000,0.760000,0.245304,0.040000,-87613703852.111298,9740173765693.609375,-9838101812670.998047,-10603566204610.164062,184.064027,-184.802035,-199.777334
0.580000,0.760000,0.217250,0.040000,-129883355746.093384,12972432258408.441406,-6589926723724.629883,-19692861727763.136719,208.333113,-160.233071,-371.024931
0.620000,0.760000,0.190412,0.040000,-197732054675.300781,12739183568315.398438,4701406925847.112305,-52482755554623.039062,141.436353,-10.000019,-988.805539
0.660000,0.760000,0.160124,0.040000,-200051619044.351318,-43580781210671.367188,100089855564283.203125,-39122189666309.664062,-1140.486298,1566.351786,-737.084733
0.700000,0.760000,0.134990,0.040000,-23935960399.932560,-69107346622500.343750,93389333547198.984375,74414587567075.390625,-1439.268486,1622.263170,1402.013969
0.740000,0.760000,0.104515,0.040000,451700091068.617554,-77918152085551.093750,-165041233405317.031250,108020602989608.359375,-94.774455,-1736.223813,2035.170781
0.780000,0.760000,0.076586,0.040000,414168075342.778503,-1718270382908.742432,-119647899567085.515625,23541590872872.105469,653.609490,-1568.253089,443.537219
0.820000,0.760000,0.055215,0.040000,352620220289.933777,-9857044961733.822266,19083724334584.312500,-34788398908069.257812,-237.863238,307.397633,-655.433603
0.860000,0.760000,0.018714,0.040000,306652176773.936707,-15300839169238.462891,17415734242629.146484,-14596620480320.330078,-300.230435,316.168774,-275.008792
1.140000,0.760000,0.018714,0.040000,193458349951.114960,-620607246660.800781,736430945914.120728,-156608934869.449890,-12.347256,13.220130,-2.950603
1.180000,0.760000,0.055215,0.040000,187750913877.505554,-516018342275.777893,601947122451.116821,-145403414785.422302,-10.207769,10.855348,-2.739485
1.220000,0.760000,0.076586,0.040000,182975717393.909912,-442509064323.956360,468702216571.434021,-139378043460.443024,-8.485176,8.682573,-2.625963
1.260000,0.760000,0.104515,0.040000,178939847390.653931,-368661508849.252991,371635649572.073730,-121748810122.405624,-6.962607,6.985021,-2.293818
1.300000,0.760000,0.134990,0.040000,175499073374.139374,-302423165268.655212,301552041684.657288,-98483843959.895340,-5.692904,5.686339,-1.855493
1.340000,0.760000,0.160124,0.040000,172543515910.659332,-249455519716.214172,248813053501.714050,-78694167579.505554,-4.696255,4.691413,-1.482644
1.380000,0.760000,0.190412,0.040000,169988073753.824860,-207814582348.539948,207332499859.866730,-64051394480.985130,-3.912622,3.908989,-1.206765
1.420000,0.760000,0.217250,0.040000,167765874261.265869,-174660217261.883026,174292817967.592743,-53014445545.666298,-3.288623,3.285854,-0.998823
1.460000,0.760000,0.245304,0.040000,165823694007.330475,-147965461438.695312,147681520790.655884,-44551710902.030411,-2.786150,2.784010,-0.839380
1.500000,0.760000,0.274949,0.040000,164118693152.150299,-126257649521.361694,126035425201.959091,-37957180808.454964,-2.377511,2.375837,-0.715135
1.540000,0.760000,0.301551,0.040000,162616044480.018402,-108449305768.995560,108273390569.080231,-32738151869.860397,-2.042253,2.040928,-0.616806
1.580000,0.760000,0.330861,0.040000,161287183638.847961,-93725430814.040344,93584728663.344025,-28544807263.247776,-1.765046,1.763986,-0.537801
1.620000,0.760000,0.362222,0.040000,160108498484.234131,-81466958449.807129,81353357729.958115,-25124976573.947800,-1.534243,1.533387,-0.473369
1.660000,0.760000,0.395147,0.040000,159060333972.161072,-71197864565.242645,71105352822.292389,-22294424805.491165,-1.340886,1.340189,-0.420040
1.700000,0.760000,0.429275,0.040000,158126227288.274719,-62548025392.985275,62472088654.665649,-19916944289.943020,-1.178012,1.177440,-0.375247
1.740000,0.760000,0.464342,0.040000,157292313345.271759,-55226741769.161758,55163950569.279434,-17890768554.338795,-1.040149,1.039676,-0.337072
1.780000,0.760000,0.500149,0.040000,156546857998.022156,-49003601834.280708,48951321720.347404,-16139144392.472275,-0.922961,0.922567,-0.304071
1.820000,0.760000,0.536549,0.040000,155879888164.242737,-43694467853.158859,43650654156.876503,-14603689175.020298,-0.822981,0.822651,-0.275142
1.860000,0.760000,0.573429,0.040000,155282896299.510986,-39151090841.762932,39114141302.822433,-13239645427.609379,-0.737420,0.737142,-0.249443
1.900000,0.760000,0.610702,0.040000,154748602520.806030,-35253327260.330284,35221974899.104492,-12012448094.679361,-0.664016,0.663780,-0.226321
1.940000,0.760000,0.648300,0.040000,154270761863.269653,-31903245091.345387,31876479438.765240,-10895213204.222799,-0.600924,0.600723,-0.205272
1.980000,0.760000,0.686170,0.040000,153844007196.283173,-29020617859.482391,28997626397.137684,-9866881929.819817,-0.546635,0.546462,-0.185898
2.020000,0.760000,0.724269,0.040000,153463720558.212646,-26539449572.790813,26519573737.002121,-8910836557.590591,-0.499906,0.499756,-0.167885
2.060000,0.760000,0.762562,0.040000,153125927327.344666,-24405273554.940723,24387975348.174713,-8013860033.745583,-0.459712,0.459581,-0.150986
2.100000,0.760000,0.801023,0.040000,152827208890.877167,-22573038201.041489,22557874596.257507,-7165348182.398285,-0.425203,0.425089,-0.134999
2.140000,0.760000,0.839627,0.040000,152564630417.199524,-21005442326.599876,20992045454.500057,-6356709398.434765,-0.395679,0.395578,-0.119764
2.180000,0.760000,0.878356,0.040000,152335681059.168976,-19671618363.341312,19659680026.054848,-5580904517.716540,-0.370557,0.370467,-0.105147
2.220000,0.760000,0.917194,0.040000,152138224474.866089,-18546087523.705128,18535347100.221500,-4832092172.553918,-0.349358,0.349277,-0.091039
2.260000,0.760000,0.956128,0.040000,151970457989.142212,-17607931894.155201,17598169072.767220,-4105353974.022718,-0.331688,0.331615,-0.077347
2.300000,0.760000,0.995147,0.040000,151830879068.198639,-16840173295.974859,16831237609.178431,-3396481406.344710,-0.317228,0.317161,-0.063992
2.340000,0.760000,1.034241,0.040000,151718258131.227386,-16229732101.186138,16221908772.521385,-2701827475.779752,-0.305733,0.305674,-0.050904
2.380000,0.760000,1.073401,0.040000,151631618254.258942,-15769411495.835232,15760942694.057768,-2018896370.917872,-0.297057,0.296993,-0.038037
2.420000,0.760000,1.112621,0.040000,151570242374.121185,-15472906319.452999,15523607528.679743,-1518325421.722311,-0.291805,0.292187,-0.028606
2.460000,0.760000,1.151895,0.040000,151533945027.194336,-15396691561.494553,15602899946.644054,-1228731276.328861,-0.291248,0.292802,-0.023150
-2.500000,0.800000,3.176511,0.040000,179097253.638772,-12662193246029.765625,45549291085267.679688,-198895093850.350677,-424.446658,672.291453,-3.747299
-2.460000,0.800000,3.136572,0.040000,-89806615768.212234,2016154191743.069336,18895204811528.167969,-52424402763.448090,-80.209124,237.801975,-0.987706
-2.420000,0.800000,3.096635,0.040000,-89838151646.772888,-1181494006339.451416,5830995317902.038086,-11880171857.792866,-48.539822,83.579542,-0.223829
-2.380000,0.800000,3.056699,0.040000,-89890336129.914108,-95633923965.883331,299190401087.055237,-3466195380.530985,-2.952335,4.486384,-0.065305
-2.340000,0.800000,3.016766,0.040000,-89963869166.763290,13705597106.635277,-13698756011.180878,-4648820283.002206,0.258183,-0.258131,-0.087586
-2.300000,0.800000,2.976834,0.040000,-90059340205.031219,14169933327.417734,-14163119131.196253,-5856375012.690019,0.266931,-0.266880,-0.110338
-2.260000,0.800000,2.936904,0.040000,-90177493428.366455,14751841723.027239,-14744504410.885527,-7096515956.698773,0.277892,-0.277836,-0.133702
-2.220000,0.800000,2.896976,0.040000,-90319260767.164124,15461638645.794086,-15453602331.148870,-8377188477.162333,0.291261,-0.291200,-0.157831
-2.180000,0.800000,2.857049,0.040000,-90485778966.506210,16311613203.859125,-16302714875.121008,-9707166576.440912,0.307270,-0.307203,-0.182889
-2.140000,0.800000,2.817125,0.040000,-90678409299.989380,17316826930.420753,-17306878712.944492,-11096330961.772785,0.326203,-0.326128,-0.209061
-2.100000,0.800000,2.777204,0.040000,-90898761710.202103,18495620823.385551,-18484400727.816372,-12555973046.334297,0.348405,-0.348320,-0.236562
-2.060000,0.800000,2.737284,0.040000,-91148724206.641006,19870217036.973885,-19857459923.248425,-14099173248.445335,0.374294,-0.374198,-0.265637
-2.020000,0.800000,2.697367,0.040000,-91430498487.082718,21467474933.521393,-21452861216.704205,-15741280085.855478,0.404377,-0.404267,-0.296575
-1.980000,0.800000,2.657452,0.040000,-91746642995.751205,23319845051.880409,-23302986262.268936,-17500523049.774151,0.439264,-0.439137,-0.329720
-1.940000,0.800000,2.617540,0.040000,-92100124949.458420,25466576516.854988,-25446996660.255928,-19398803906.163681,0.479694,-0.479547,-0.365485
-1.900000,0.800000,2.577631,0.040000,-92494383270.011581,27955251784.290726,-27932363071.932262,-21462727758.452305,0.526564,-0.526391,-0.404370
-1.860000,0.800000,2.537724,0.040000,-92933404887.108429,30843747812.141048,-30816818795.639954,-23724959104.153934,0.580962,-0.580759,-0.446992
-1.820000,0.800000,2.497820,0.040000,-93421817561.246887,34202757416.358326,-34170870803.855366,-26226022694.998447,0.644220,-0.643979,-0.494113
-1.780000,0.800000,2.457920,0.040000,-93965003276.647995,38119052623.890427,-38081048977.736168,-29016719598.502876,0.717970,-0.717684,-0.546692
-1.740000,0.800000,2.418023,0.040000,-94569237447.235443,42699738959.894295,-42654140929.298103,-32161403746.930637,0.804230,-0.803886,-0.605939
-1.700000,0.800000,2.378129,0.040000,-95241860772.425323,48077844073.096085,-48022753586.823792,-35742476499.068405,0.905503,-0.905088,-0.673409
-1.660000,0.800000,2.338239,0.040000,-95991492726.080841,54419718061.537964,-54352675665.467636,-39866627171.296410,1.024920,-1.024415,-0.751110
-1.620000,0.800000,2.298353,0.040000,-96828298577.353195,61934914211.098167,-61852705001.473083,-44673609894.321762,1.166425,-1.165805,-0.841677
-1.580000,0.800000,2.258471,0.040000,-97764325834.734497,70889494101.251236,-70787877754.008423,-50348757155.547318,1.335025,-1.334259,-0.948600
-1.540000,0.800000,2.218593,0.040000,-98813931518.281479,81624099385.986343,-81497431561.723618,-57141081233.023132,1.537129,-1.536175,-1.076571
-1.500000,0.800000,2.178720,0.040000,-99994329342.025543,94578711756.769867,-94419409170.210159,-65389865612.804871,1.781017,-1.779817,-1.231983
-1.460000,0.800000,2.138851,0.040000,-101326296663.028595,110326866188.024750,-110124645922.060867,-75564376641.243317,2.077479,-2.075955,-1.423677
-1.420000,0.800000,2.098987,0.040000,-102835096285.268295,129623306903.210342,-129364100019.467682,-88324223882.465851,2.440713,-2.438760,-1.664080
-1.380000,0.800000,2.059129,0.040000,-104551689867.417908,153470829192.130035,-153135228479.055115,-104612860174.739304,2.889583,-2.887053,-1.970967
-1.340000,0.800000,2.019276,0.040000,-106514350592.868729,183214485375.387878,-182775541621.332550,-125805395650.797150,3.449386,-3.446078,-2.370247
-1.300000,0.800000,1.979429,0.040000,-108770826818.510132,220674494692.953125,-220094645371.392151,-153947437888.357849,4.154358,-4.149988,-2.900459
-1.260000,0.800000,1.939588,0.040000,-111381270651.016174,268332694830.363129,-267559655177.470123,-192150142097.089203,5.051174,-5.045348,-3.620220
-1.220000,0.800000,1.899754,0.040000,-114422231251.920883,329589467875.844788,-328551211283.742432,-245260275513.454437,6.203788,-6.195964,-4.620846
-1.180000,0.800000,1.859928,0.040000,-117992124986.431747,409102918009.738831,-407702962664.247131,-321028700558.131653,7.699823,-7.689273,-6.048367
-1.140000,0.800000,1.820108,0.040000,-122218723334.923523,513190113965.059143,-511308207119.123474,-432214377652.440674,9.658162,-9.643980,-8.143169
-1.100000,0.800000,1.780297,0.040000,-127269287501.219711,650141668742.299805,-647659520955.098877,-600520664072.834717,12.235016,-12.216310,-11.314157
-1.060000,0.800000,1.740495,0.040000,-133363797872.783798,829819627792.925049,-826746323663.252441,-864285284096.416260,15.616912,-15.593751,-16.283636
-1.020000,0.800000,1.700702,0.040000,-140790428785.983276,1060169629492.003052,-1057133764680.895996,-1294100681727.679199,19.957051,-19.934172,-24.381607
-0.980000,0.800000,1.660919,0.040000,-149916969698.373474,1332339802751.804199,-1332310849183.682617,-2025062871982.627930,25.101891,-25.101672,-38.153358
-0.940000,0.800000,1.621146,0.040000,-161172018518.897278,1567068193117.076172,-1580882405516.715576,-3321547651277.363770,29.602554,-29.706661,-62.579883
-0.900000,0.800000,1.581385,0.040000,-174902546041.711700,1435492740594.563232,-1499660725757.197998,-5694996183512.263672,27.408204,-27.891789,-107.297030
-0.860000,0.800000,1.541636,0.040000,-190795529064.040863,-222436165498.444275,-24430301569.872025,-10051392985108.982422,-2.795494,0.935051,-189.374071
-0.820000,0.800000,1.501901,0.040000,-205836309245.342926,-7287560702343.300781,6283309255490.107422,-17349441765534.466797,-131.625664,124.057393,-326.873541
-0.780000,0.800000,1.462180,0.040000,-207537066928.250000,-23081791856862.613281,40576282212405.062500,-3391742336919.483398,-533.756241,665.598777,-63.902392
-0.740000,0.800000,1.422475,0.040000,-157051631334.323395,5202495629373.592773,46552209245749.429688,55107200654149.468750,-194.508559,584.544016,1038.251607
-0.700000,0.800000,1.382786,0.040000,-16405409851.381327,60521729182409.609375,-30547122620665.144531,54419546894311.570312,970.842774,-744.947188,1025.295811
-0.660000,0.800000,1.343117,0.040000,91312764135.976059,61941431139395.812500,-46793907543441.437500,-3255045687146.651855,1081.396033,-967.240783,-61.326948
-0.620000,0.800000,1.303467,0.040000,151583174578.223358,17296457281024.658203,-28153860148404.878906,-17909396709522.230469,387.243211,-469.067117,-337.423416
-0.580000,0.800000,1.263839,0.040000,133822958099.014847,3038105904966.747070,-4083637650262.126953,-14019985297628.681641,63.149204,-71.028573,-264.144651
-0.540000,0.800000,1.224236,0.040000,113741563530.672318,-712699763030.196533,6291875788047.098633,-11399071849007.332031,-44.962150,87.008114,-214.765122
-0.500000,0.800000,1.184659,0.040000,115148398361.544037,-3660826560964.195801,-2862830111312.405273,-7327019263066.141602,-32.099253,-17.064537,-138.045290
-0.460000,0.800000,1.145112,0.040000,99644051038.182083,-2101143881981.550049,-969771495228.253906,-2506428968794.480957,-22.229421,-0.913709,-47.222575
-0.420000,0.800000,1.105598,0.040000,86267751975.238785,-2311188874245.013184,2557760089810.801270,-1383370504477.040283,-44.937802,46.796019,-26.063502
-0.380000,0.800000,1.066119,0.040000,76973744099.081039,-1060503284819.934937,1268082308013.540039,-1713568850142.990723,-21.153769,22.718133,-32.284631
-0.340000,0.800000,1.026681,0.040000,69959746322.896500,-403477737313.417664,370619150504.442688,-909282897426.977783,-7.416032,7.168402,-17.131417
-0.300000,0.800000,0.987288,0.040000,63658476784.680046,-474681172966.400879,472046726048.102295,-316440292558.774231,-8.928378,8.908524,-5.961919
-0.260000,0.800000,0.947946,0.040000,58114251434.379150,-572689095461.078003,590246386045.788574,-315858581218.721069,-10.889031,11.021347,-5.950959
-0.220000,0.800000,0.908662,0.040000,53450860903.054916,-355866864793.486450,361671769051.861328,-362135042830.643555,-6.737548,6.781295,-6.822834
-0.180000,0.800000,0.869442,0.040000,49380580207.941757,-202779753171.550507,192543122821.722778,-235142099126.268250,-3.762629,3.685483,-4.430213
-0.140000,0.800000,0.830297,0.040000,45646327053.377174,-183515331130.745667,183661286792.463165,-143657709719.266632,-3.458360,3.459460,-2.706595
-0.100000,0.800000,0.791238,0.040000,42202878386.408806,-152560462818.957947,155483748323.297638,-160889403769.562988,-2.890850,2.912881,-3.031250
-0.060000,0.800000,0.752278,0.040000,38994341434.110779,-53324392323.976311,52405599146.356537,-162213328575.481201,-0.999469,0.992545,-3.056193
-0.020000,0.800000,0.713432,0.040000,35878146770.000954,2955255416.094057,-5561973221.235261,-117799655981.690964,0.070412,-0.090057,-2.219414
0.020000,0.800000,0.674722,0.040000,32762050421.233604,15254124654.518429,-12422747974.810913,-119758255554.749146,0.271393,-0.250055,-2.256315
0.060000,0.800000,0.636171,0.040000,29616443349.841263,74758817783.861801,-73956009582.793930,-166192850672.022491,1.403962,-1.397912,-3.131170
0.100000,0.800000,0.597811,0.040000,26344135062.632500,176675467764.562256,-179872918665.710693,-163552356573.530090,3.346741,-3.370838,-3.081421
0.140000,0.800000,0.559680,0.040000,22798847800.983746,205784528708.301544,-205648820494.617065,-147566773074.121674,3.876333,-3.875310,-2.780244
0.180000,0.800000,0.521829,0.040000,18927020224.083824,226357485108.507355,-215023602784.079346,-250125649424.435791,4.200645,-4.115230,-4.712512
0.220000,0.800000,0.484324,0.040000,14680265016.159698,394739680960.141296,-401399927482.301025,-387057270215.223511,7.474769,-7.524962,-7.292383
0.260000,0.800000,0.447251,0.040000,9776183977.209738,628884202757.309814,-648824027829.750610,-329730490531.548706,11.961246,-12.111517,-6.212314
0.300000,0.800000,0.410728,0.040000,3905555160.756598,508679878779.984314,-505604013917.214600,-327589420066.272888,9.566438,-9.543258,-6.171975
0.340000,0.800000,0.374915,0.040000,-2776145820.513521,418931343651.465576,-382039559058.219910,-991929735242.978638,7.684391,-7.406366,-18.688531
0.380000,0.800000,0.340037,0.040000,-10203726293.337046,1148847164917.233398,-1384441427986.277344,-1891598031063.556152,22.976566,-24.752059,-35.638803
0.420000,0.800000,0.306414,0.040000,-20129057325.427937,2547394817642.006348,-2829044356978.011230,-1512287166910.306885,49.586327,-51.708904,-28.492367
0.460000,0.800000,0.274506,0.040000,-34566472815.944901,2320140570237.963867,996103065729.837158,-2679524375225.922363,24.968808,0.023173,-50.483793
0.500000,0.800000,0.244984,0.040000,-51382895408.804405,3972989662392.407227,3080761127304.790527,-7868606965955.654297,34.984402,18.174299,-148.249117
0.540000,0.800000,0.218818,0.040000,-49932819039.923355,736430576412.538330,-6791372000431.192383,-12230718463741.035156,48.098361,-93.729804,-230.433826
0.580000,0.800000,0.188834,0.040000,-71646316949.363678,-3290786526772.757812,3663327007306.270508,-15297689860560.667969,-64.105989,66.913541,-288.217345
0.620000,0.800000,0.160878,0.040000,-90592126872.045135,-19432316065511.949219,29293697983287.210938,-20023996128988.839844,-421.854345,496.172006,-377.263695
0.660000,0.800000,0.134689,0.040000,-31540973977.517960,-66965844240857.125000,52533371944570.671875,-3903967683272.432129,-1180.100483,1071.334025,-73.553014
0.700000,0.800000,0.103556,0.040000,86585185683.812805,-66559152169011.046875,33385003837409.535156,60839148479865.914062,-1066.506956,816.498882,1146.244826
0.740000,0.800000,0.080663,0.040000,239979522296.112976,-15771173757962.769531,-62227839848439.148438,77019014597407.265625,143.725934,-731.544587,1451.082884
0.780000,0.800000,0.049067,0.040000,293842625137.227356,24019554359427.164062,-68542157066659.304688,10304909073739.671875,704.191822,-1039.724480,194.150461
0.820000,0.800000,0.023446,0.040000,290342349011.597107,24461985357332.285156,4111215061654.577637,-35336571763410.054688,299.377287,-84.043023,-665.761497
1.180000,0.800000,0.023446,0.040000,185449308721.335632,-438019962558.850037,532294850131.958191,-235497579455.195282,-8.785408,9.495885,-4.436911
1.220000,0.800000,0.049067,0.040000,181067938166.276093,-366742608650.272034,432534279407.431885,-201869717199.483582,-7.281509,7.777331,-3.803342
1.260000,0.800000,0.080663,0.040000,177329707492.044159,-318449607604.736816,338464470244.889832,-178294071854.929962,-6.112903,6.263739,-3.359164
1.300000,0.800000,0.103556,0.040000,174118943049.917328,-270652154188.115570,273099350909.449890,-150758184795.724243,-5.113075,5.131518,-2.840372
1.340000,0.800000,0.134689,0.040000,171344723065.125732,-227235719518.107391,226728905458.205200,-122283155213.759491,-4.278388,4.274569,-2.303886
1.380000,0.800000,0.160878,0.040000,168934856173.316101,-191169862235.367676,190778325862.638947,-98832216533.931183,-3.599538,3.596587,-1.862056
1.420000,0.800000,0.188834,0.040000,166831460241.233704,-161978577941.376495,161672949344.792145,-81061615034.753479,-3.050043,3.047740,-1.527248
1.460000,0.800000,0.218818,0.040000,164987697523.280396,-138150038120.494049,137909068036.075348,-67383924448.850044,-2.601465,2.599649,-1.269552
1.500000,0.800000,0.244984,0.040000,163365343282.019073,-118547067157.523712,118355261511.431854,-56702268065.648514,-2.232411,2.230966,-1.068304
1.540000,0.800000,0.274506,0.040000,161932957468.799713,-102305574915.578903,102151531755.548172,-48244946351.317131,-1.926626,1.925465,-0.908963
1.580000,0.800000,0.306414,0.040000,160664495892.436005,-88762316828.771332,88637562671.997498,-41460139596.221031,-1.671628,1.670688,-0.781133
1.620000,0.800000,0.340037,0.040000,159538244528.930328,-77403208029.816589,77301382347.059647,-35947429612.077858,-1.457746,1.456978,-0.677270
1.660000,0.800000,0.374915,0.040000,158535993740.678070,-67826049749.192268,67742330449.278870,-31412387214.749416,-1.277409,1.276778,-0.591828
1.700000,0.800000,0.410728,0.040000,157642392396.862823,-59713407951.025238,59644103709.269829,-27635907387.121185,-1.124644,1.124121,-0.520677
1.740000,0.800000,0.447251,0.040000,156844438244.134125,-52812692843.961555,52754951400.249100,-24453154470.397942,-0.994695,0.994260,-0.460712
1.780000,0.800000,0.484324,0.040000,156131072476.316376,-46921387768.159958,46872985336.774330,-21738881204.751736,-0.883753,0.883388,-0.409573
1.820000,0.800000,0.521829,0.040000,155492854744.560364,-41875993062.689880,41835180901.986893,-19397045412.616890,-0.788737,0.788430,-0.365452
1.860000,0.800000,0.559680,0.040000,154921700830.211029,-37543674646.206253,37509066238.601555,-17353369246.551006,-0.707149,0.706888,-0.326948
1.900000,0.800000,0.597811,0.040000,154410669555.683350,-33815899996.105762,33786387328.465633,-15549942239.859232,-0.636944,0.636722,-0.292970
1.940000,0.800000,0.636171,0.040000,153953788706.208832,-30603547905.499371,30578238777.990635,-13941262977.191284,-0.576446,0.576255,-0.262661
1.980000,0.800000,0.674722,0.040000,153545912105.761658,-27833121086.843735,27811291749.756931,-12491306047.591896,-0.524269,0.524104,-0.235343
2.020000,0.800000,0.713432,0.040000,153182601763.810852,-25443791463.046772,25424850516.972275,-11171328158.183138,-0.479269,0.479126,-0.210474
2.060000,0.800000,0.752278,0.040000,152860030348.079742,-23385079735.416882,23368540376.467136,-9958212818.491951,-0.440495,0.440370,-0.187619
2.100000,0.800000,0.791238,0.040000,152574900257.831940,-21615022343.623688,21600480836.057388,-8833211265.615606,-0.407157,0.407048,-0.166423
2.140000,0.800000,0.830297,0.040000,152324376355.269470,-20098716242.881924,20085835073.541996,-7780977474.405812,-0.378599,0.378502,-0.146598
2.180000,0.800000,0.869442,0.040000,152106030019.516144,-18807159174.518570,18795653741.961185,-6788823119.146546,-0.354273,0.354186,-0.127905
2.220000,0.800000,0.908662,0.040000,151917792662.198792,-17716323082.879505,17705950944.440708,-5846138105.927797,-0.333727,0.333649,-0.110145
2.260000,0.800000,0.947946,0.040000,151757917217.948395,-16806411388.140392,16796961305.009527,-4943936284.013624,-0.316589,0.316518,-0.093147
2.300000,0.800000,0.987288,0.040000,151624946417.686066,-16061232530.537252,16052481678.573845,-4074494731.774299,-0.302553,0.302488,-0.076766
2.340000,0.800000,1.026681,0.040000,151517686820.365051,-15467254944.628397,15458564382.412931,-3231042967.533129,-0.291363,0.291297,-0.060875
2.380000,0.800000,1.066119,0.040000,151435186529.421722,-15016052460.026180,15017272274.214626,-2407882069.424299,-0.282918,0.282927,-0.045366
2.420000,0.800000,1.105598,0.040000,151376695714.414429,-14718583846.355074,14810147954.468548,-1809585200.974164,-0.277824,0.278514,-0.034094
2.460000,0.800000,1.145112,0.040000,151341367830.016388,-14406555008.849110,14515044067.205725,-1463518314.409237,-0.272041,0.272859,-0.027574
-2.500000,0.840000,3.174561,0.040000,-89419435198.886719,16685628611367.707031,10409599639993.445312,2416958869242.574219,161.219974,42.975949,45.536906
-2.460000,0.840000,3.134598,0.040000,-89427685340.811539,2630540645333.381836,18896237731148.960938,1424608732399.499023,-72.112184,234.342978,26.840454
-2.420000,0.840000,3.094635,0.040000,-89455680372.480820,-550072494936.068726,6245737231468.826172,277938447986.456482,-42.556572,85.480423,5.236521
-2.380000,0.840000,3.054674,0.040000,-89503005180.913391,6872719278.650555,9157931975.297789,-3796617481.948905,0.038878,0.081933,-0.071530
-2.340000,0.840000,3.014713,0.040000,-89569769124.888107,12459008145.346783,-12453553649.079929,-5042397762.810892,0.234704,-0.234663,-0.095002
-2.300000,0.840000,2.974754,0.040000,-89656477002.663864,12889608723.232315,-12883366216.829977,-6359789067.457560,0.242812,-0.242765,-0.119822
-2.260000,0.840000,2.934795,0.040000,-89763817836.060837,13430201053.117947,-13423412023.577164,-7718182830.977839,0.252994,-0.252943,-0.145415
-2.220000,0.840000,2.894838,0.040000,-89892657333.457184,14089274212.439600,-14081847419.064085,-9127602175.412550,0.265408,-0.265352,-0.171969
-2.180000,0.840000,2.854882,0.040000,-90044050979.748474,14877890324.078484,-14869685498.686579,-10599281613.695707,0.280262,-0.280200,-0.199697
-2.140000,0.840000,2.814927,0.040000,-90219261746.297516,15809631146.112904,-15800483230.462517,-12145956003.397411,0.297811,-0.297742,-0.228837
-2.100000,0.840000,2.774974,0.040000,-90419781855.894867,16900966679.083086,-16890682060.428179,-13782260972.954901,0.318366,-0.318288,-0.259666
-2.060000,0.840000,2.735022,0.040000,-90647359178.145538,18171750895.171982,-18160100476.123028,-15525236169.593737,0.342300,-0.342213,-0.292504
-2.020000,0.840000,2.695071,0.040000,-90904029049.986801,19645842580.136784,-19632553008.734898,-17394961097.718933,0.370064,-0.369964,-0.327731
-1.980000,0.840000,2.655122,0.040000,-91192152517.316483,21351880047.635132,-21336622697.239708,-19415366126.176201,0.402196,-0.402081,-0.365797
-1.940000,0.840000,2.615174,0.040000,-91514462240.707260,23324249010.086170,-23306626045.336472,-21615276380.773209,0.439343,-0.439210,-0.407244
-1.900000,0.840000,2.575228,0.040000,-91874117618.257233,25604294726.322697,-25583821379.567696,-24029767366.990978,0.482284,-0.482130,-0.452735
-1.860000,0.840000,2.535284,0.040000,-92274771070.805893,28241844913.403214,-28217926826.972347,-26701941133.656391,0.531958,-0.531777,-0.503080
-1.820000,0.840000,2.495341,0.040000,-92720647933.724304,31297130007.590027,-31269034144.375614,-29685274697.988579,0.589497,-0.589286,-0.559288
-1.780000,0.840000,2.455400,0.040000,-93216643037.526596,34843213586.838112,-34810030765.328392,-33046754507.920845,0.656279,-0.656029,-0.622620
-1.740000,0.840000,2.415462,0.040000,-93768437878.781128,38969079811.621933,-38929676362.803848,-36871101399.174911,0.733977,-0.733680,-0.694673
-1.700000,0.840000,2.375525,0.040000,-94382643337.838318,43783568450.054207,-43736523832.969719,-41266524469.301552,0.824642,-0.824287,-0.777485
-1.660000,0.840000,2.335591,0.040000,-95066974260.829422,49420403102.072578,-49363929604.665756,-46372642471.409447,0.930790,-0.930364,-0.873687
-1.620000,0.840000,2.295658,0.040000,-95830463978.357635,56044625211.187508,-55976465266.444366,-52371514059.095230,1.055528,-1.055014,-0.986710
-1.580000,0.840000,2.255729,0.040000,-96683729089.236084,63860822743.370117,-63778119319.408844,-59503181811.218445,1.202707,-1.202084,-1.121074
-1.540000,0.840000,2.215801,0.040000,-97639297715.690170,73123617517.401062,-73022754447.789703,-68087854321.807144,1.377121,-1.376361,-1.282815
-1.500000,0.840000,2.175877,0.040000,-98712018054.331787,84150920406.998245,-84027334542.897247,-78557982300.869873,1.584754,-1.583822,-1.480078
-1.460000,0.840000,2.135955,0.040000,-99919568471.341995,97340409808.808228,-97188390173.136459,-91505290426.197540,1.833091,-1.831945,-1.724013
-1.420000,0.840000,2.096036,0.040000,-101283095520.876648,113189377695.163879,-113001898620.652725,-107750750362.165619,2.131494,-2.130081,-2.030087
-1.380000,0.840000,2.056120,0.040000,-102828011574.562332,132317166499.996078,-132085874338.059814,-128450283183.310944,2.491625,-2.489882,-2.420078
-1.340000,0.840000,2.016208,0.040000,-104584987696.063675,155487110163.252777,-155202745480.094391,-155256981605.862762,2.927860,-2.925717,-2.925132
-1.300000,0.840000,1.976299,0.040000,-106591176133.612946,183619474730.252899,-183273372490.035065,-190574155747.070648,3.457541,-3.454933,-3.590528
-1.260000,0.840000,1.936394,0.040000,-108891681335.317902,217774539830.945557,-217362655516.706207,-237956615187.091522,4.100671,-4.097566,-4.483241
-1.220000,0.840000,1.896493,0.040000,-111541248197.704926,259056975999.080292,-258589719846.071838,-302757568285.239685,4.878143,-4.874621,-5.704128
-1.180000,0.840000,1.856597,0.040000,-114606004791.571228,308328648261.529663,-307854130978.134766,-393188168004.419312,5.806408,-5.802832,-7.407893
-1.140000,0.840000,1.816704,0.040000,-118164777318.099762,365467091190.293152,-365125998151.827148,-522077345027.902893,6.883684,-6.881113,-9.836240
-1.100000,0.840000,1.776817,0.040000,-122308736871.449799,427545600656.312622,-427702803515.811096,-709818085069.092041,8.056096,-8.057280,-13.373384
-1.060000,0.840000,1.736935,0.040000,-127136335334.633240,484420782301.676514,-485986836755.078979,-989253867584.805176,9.135620,-9.147422,-18.638116
-1.020000,0.840000,1.697058,0.040000,-132736151257.446075,508024778072.055664,-513245053619.860352,-1413340073954.055664,9.600987,-9.640328,-26.628146
-0.980000,0.840000,1.657188,0.040000,-139139749278.376984,426482911636.206726,-440840183583.653564,-2064989053412.206543,8.116335,-8.224535,-38.905591
-0.940000,0.840000,1.617323,0.040000,-146201420184.318939,63025524757.532600,-99652897601.254227,-3060375869552.587891,1.394462,-1.670494,-57.659256
-0.900000,0.840000,1.577466,0.040000,-153303761002.057800,-999123441311.750610,909971526830.675415,-4503534660080.780273,-18.320163,17.648293,-84.849204
-0.860000,0.840000,1.537616,0.040000,-158670324126.761902,-3664654464258.077637,3462738013904.000488,-6227341788501.833984,-67.902948,66.381258,-117.326729
-0.820000,0.840000,1.497774,0.040000,-157917790554.282074,-9445515192901.738281,9126514417090.705078,-6751834543377.916992,-176.155934,173.751870,-127.208477
-0.780000,0.840000,1.457941,0.040000,-141893173663.881256,-17621142866892.453125,18727445914298.078125,239488126412.890411,-338.245564,346.582920,4.512095
-0.740000,0.840000,1.418117,0.040000,-97967674605.396851,-15017663123001.365234,18038886112932.507812,18932185311652.371094,-300.017957,322.786594,356.693346
-0.700000,0.840000,1.378303,0.040000,-27587297629.176350,8094696021746.382812,-5069274776503.492188,26615660312897.824219,135.408559,-112.608283,501.454470
-0.660000,0.840000,1.338500,0.040000,39210832880.241348,18590895277955.773438,-20071656390377.730469,13345442286131.484375,358.632764,-369.792123,251.435869
-0.620000,0.840000,1.298710,0.040000,76851425913.817856,16518950978595.982422,-19538554532054.167969,-540661263026.341003,328.293937,-351.050370,-10.186372
-0.580000,0.840000,1.258932,0.040000,81230334483.811798,10027361132980.402344,-4268185150322.972168,-6699242272815.103516,156.369432,-112.966947,-126.217608
-0.540000,0.840000,1.219170,0.040000,62700464963.797279,10717846163466.560547,9606202688907.328125,-7102233979247.592773,87.055376,66.111369,-133.810205
-0.500000,0.840000,1.179423,0.040000,109732855285.738922,-6515302034595.844727,-11943264776016.771484,-4717121842432.570312,-18.421038,-120.687002,-88.873310
-0.460000,0.840000,1.139694,0.040000,87529527551.147217,-2346697612138.094238,-3223085526073.147461,-2583285401704.569824,-12.731760,-29.243417,-48.670595
-0.420000,0.840000,1.099985,0.040000,74757449648.550781,-1284148342955.385254,3700921015541.501465,-3335963932502.909668,-37.854119,56.067478,-62.851494
-0.380000,0.840000,1.060297,0.040000,69821904885.247192,1047921502796.768433,190367294369.815338,-2934886500769.526367,12.744425,-3.412393,-55.294963
-0.340000,0.840000,1.020634,0.040000,66336376799.357277,830466150852.671509,-1098170157753.386353,-353175606653.650085,17.159573,-19.177053,-6.654033
-0.300000,0.840000,0.980999,0.040000,60398973156.901642,-584271967004.955688,545856918715.050537,279947821942.654175,-10.790894,10.501389,5.274379
-0.260000,0.840000,0.941394,0.040000,55140183457.681664,-888252171523.815796,1017879695033.465942,-548403183477.540527,-17.467863,18.444766,-10.332234
-0.220000,0.840000,0.901824,0.040000,51327141851.852371,-108157669847.876541,151596605433.984070,-791467747269.703247,-2.283278,2.610644,-14.911711
-0.180000,0.840000,0.862294,0.040000,47916522131.280731,99511580554.612274,-121086615347.305054,-210196247455.460999,1.996802,-2.159396,-3.960219
-0.140000,0.840000,0.822809,0.040000,44410057832.774109,-197648205326.449829,222251891314.963348,-24322441061.784348,-3.862871,4.048290,-0.458249
-0.100000,0.840000,0.783376,0.040000,41208497330.050972,-277197350438.282532,286326454352.714600,-275309029154.401062,-5.274158,5.342957,-5.186982
-0.060000,0.840000,0.744004,0.040000,38386224064.046944,56668348847.441475,-52249740373.546600,-314449269753.746643,1.042690,-1.009390,-5.924407
-0.020000,0.840000,0.704703,0.040000,35542048159.716705,86050261834.507477,-103737005797.497330,-85437687338.598526,1.721205,-1.854497,-1.609696
0.020000,0.840000,0.665485,0.040000,32574167714.775963,-73837285273.265884,92284993293.054153,-90838266622.837692,-1.495407,1.634433,-1.711446
0.060000,0.840000,0.626366,0.040000,29709942472.031811,-36148121142.339401,31012314891.671307,-326030676466.986023,-0.652023,0.613318,-6.142607
0.100000,0.840000,0.587365,0.040000,26833003250.477570,308744808093.454529,-319014051524.007446,-277659096333.103577,5.874975,-5.952366,-5.231258
0.140000,0.840000,0.548509,0.040000,23529485067.235588,214272887055.866791,-240150118545.773193,-15039604214.518209,4.183288,-4.378305,-0.283355
0.180000,0.840000,0.509829,0.040000,19894732826.352417,-106295028185.908478,130101812449.000870,-226992266906.600677,-2.137220,2.316633,-4.276666
0.220000,0.840000,0.471370,0.040000,16360287088.413366,129768835219.552017,-178048660825.879883,-861101370615.890381,2.717806,-3.081654,-16.223649
0.260000,0.840000,0.433190,0.040000,12366252027.382959,988603878783.894287,-1132274368120.263672,-577889499555.843018,19.437921,-20.520655,-10.887773
0.300000,0.840000,0.395370,0.040000,6765257919.471872,635663314344.706421,-591163119647.954956,352365282135.539001,11.724743,-11.389379,6.638766
0.340000,0.840000,0.358025,0.040000,436925345.609957,-965174806788.815430,1267391128223.653809,-355429313340.343811,-19.892632,22.170204,-6.696494
0.380000,0.840000,0.321319,0.040000,-3075199010.797970,-1221602364911.898193,-180876017343.484528,-3255288785271.111328,-15.088645,4.519243,-61.331528
0.420000,0.840000,0.285499,0.040000,-8169132528.321031,1387827989263.525391,-4137003759993.963379,-3684496656103.440430,41.686303,-62.404730,-69.418053
0.460000,0.840000,0.250945,0.040000,-22009206367.769192,2592831723412.051270,3382975866345.474609,-2755091903981.239258,15.074149,29.960923,-51.907529
0.500000,0.840000,0.218260,0.040000,-46171417958.755653,7080496234042.456055,12881964726923.935547,-5020156431254.045898,20.569353,129.872382,-94.582657
0.540000,0.840000,0.188419,0.040000,4474999159.210305,-11540945469400.007812,-10431380682153.183594,-7569256027745.281250,-93.246694,-72.341851,-142.609172
0.580000,0.840000,0.162989,0.040000,-15868933348.510489,-10719154626367.099609,4263188008886.235840,-7284664250740.630859,-165.464841,116.811180,-137.247297
0.620000,0.840000,0.132449,0.040000,-11793655864.336258,-18006521980292.574219,20796744891607.683594,-1022150125392.793579,-355.024138,376.051905,-19.257901
0.660000,0.840000,0.104719,0.040000,27451384558.630211,-20546539918102.343750,22207664712599.492188,14159941521250.250000,-396.497689,409.016311,266.781507
0.700000,0.840000,0.080158,0.040000,98942404460.937119,-12686881860903.978516,5589805410773.698242,32448374819586.066406,-198.914299,145.429085,611.346192
0.740000,0.840000,0.046990,0.040000,174858496129.751373,9858964902888.980469,-31904037470319.406250,33168083165129.148438,310.351198,-476.487977,624.905915
0.780000,0.840000,0.034509,0.040000,221719429648.635681,25004587960624.992188,-44139300589126.703125,7971960607197.568359,579.253656,-723.457288,150.196359
1.220000,0.840000,0.034509,0.040000,178522431930.106140,-301663365149.011597,371606641084.826904,-250761577838.508698,-6.078844,6.605953,-4.724493
1.260000,0.840000,0.046990,0.040000,175196166680.390747,-255200623439.532440,302666390085.620056,-212701798726.240845,-5.076412,5.434125,-4.007425
1.300000,0.840000,0.080158,0.040000,172305346277.005554,-224809487725.354034,239415412999.604279,-184580035872.099487,-4.318096,4.428170,-3.477595
1.340000,0.840000,0.104719,0.040000,169783930484.693237,-195120492213.406342,197033866517.282806,-155874938359.706726,-3.686998,3.701418,-2.936774
1.380000,0.840000,0.132449,0.040000,167576985666.691589,-167735280072.802734,167463114785.362732,-128054241427.376007,-3.158692,3.156640,-2.412616
1.420000,0.840000,0.162989,0.040000,165638832082.136414,-143995502548.999115,143772506687.612091,-105094988021.163406,-2.711698,2.710018,-1.980050
1.460000,0.840000,0.188419,0.040000,163931411365.023560,-124153762896.845352,123970985936.710388,-87272709927.074020,-2.338096,2.336718,-1.644268
1.500000,0.840000,0.218260,0.040000,162422915477.628754,-107507922317.494049,107357747507.480789,-73258688714.816315,-2.024663,2.023531,-1.380236
1.540000,0.840000,0.250945,0.040000,161086661363.520355,-93488078668.386047,93364248028.545151,-62103844138.923416,-1.760670,1.759736,-1.170072
1.580000,0.840000,0.285499,0.040000,159900177079.521210,-81633425566.712494,81530886191.901123,-53120645263.050163,-1.537441,1.536669,-1.000824
1.620000,0.840000,0.321319,0.040000,158844462687.656158,-71571438869.052261,71486143747.283615,-45804511108.573441,-1.347965,1.347322,-0.862984
1.660000,0.840000,0.358025,0.040000,157903392690.146667,-63000385765.371880,62929102559.252213,-39780660384.249977,-1.186561,1.186024,-0.749491
1.700000,0.840000,0.395370,0.040000,157063232016.814362,-55675108193.499390,55615254258.291702,-34767625684.553055,-1.048613,1.048162,-0.655042
1.740000,0.840000,0.433190,0.040000,156312242781.504272,-49395663004.816193,49345169979.488548,-30551848684.288395,-0.930358,0.929977,-0.575615
1.780000,0.840000,0.471370,0.040000,155640363588.086212,-43998320040.592247,43955525542.573624,-26969752561.605892,-0.828712,0.828389,-0.508126
1.820000,0.840000,0.509829,0.040000,155038946942.230042,-39348451995.478653,39312014153.193176,-23894930877.789474,-0.741142,0.740867,-0.450194
1.860000,0.840000,0.548509,0.040000,154500543358.145721,-35334919756.859421,35303750200.334679,-21228884211.821762,-0.665554,0.665319,-0.399964
1.900000,0.840000,0.587365,0.040000,154018723148.753662,-31865631376.814617,31838842819.015877,-18894247854.219231,-0.600216,0.600014,-0.355979
1.940000,0.840000,0.626366,0.040000,153587928771.405243,-28864019614.037582,28840884824.167732,-16829789423.836176,-0.543684,0.543510,-0.317083
1.980000,0.840000,0.665485,0.040000,153203352075.823273,-26266238558.458473,26246158177.706554,-14986678112.752092,-0.494758,0.494606,-0.282358
2.020000,0.840000,0.704703,0.040000,152860831955.357239,-24018924384.460320,24001401586.406166,-13325677130.157312,-0.452431,0.452299,-0.251063
2.060000,0.840000,0.744004,0.040000,152556768808.295929,-22077400222.180077,22062020670.320503,-11815012925.334648,-0.415864,0.415748,-0.222602
2.100000,0.840000,0.783376,0.040000,152288052928.935791,-20404232253.801090,20390648161.669571,-10428745005.962692,-0.384351,0.384248,-0.196484
2.140000,0.840000,0.822809,0.040000,152052004511.880524,-18968065065.542561,18955982443.093441,-9145509056.449602,-0.357301,0.357210,-0.172307
2.180000,0.840000,0.862294,0.040000,151846323401.272766,-17742680413.969952,17731848796.500549,-7947540442.405359,-0.334221,0.334140,-0.149736
2.220000,0.840000,0.901824,0.040000,151669047075.193878,-16706236091.249773,16696440323.046188,-6819909603.945634,-0.314700,0.314626,-0.128491
2.260000,0.840000,0.941394,0.040000,151518515644.489014,-15840652954.449574,15831708598.466446,-5749918415.427306,-0.298397,0.298329,-0.108332
2.300000,0.840000,0.980999,0.040000,151393342883.557800,-15131153354.135475,15122934557.156467,-4726620729.076167,-0.285033,0.284971,-0.089052
2.340000,0.840000,1.020634,0.040000,151292392571.367035,-14566294103.189745,14559062178.929695,-3740462180.988989,-0.274397,0.274342,-0.070472
2.380000,0.840000,1.060297,0.040000,151214760752.268433,-14139883628.270281,14132233636.803417,-2783961244.625331,-0.266360,0.266303,-0.052451
2.420000,0.840000,1.099985,0.040000,151159782454.969910,-13864915386.130512,13912739157.437338,-2088432503.963616,-0.261493,0.261854,-0.039347
2.460000,0.840000,1.139694,0.040000,151127275181.771118,-13790334629.733425,13980179519.186113,-1687754404.092683,-0.260891,0.262322,-0.031798
-2.500000,0.880000,3.173115,0.040000,198789758.526844,-13599114011184.689453,44518052063117.312500,1787450751031.017822,-430.974407,663.986693,33.676608
-2.460000,0.880000,3.133133,0.040000,-89028593824.921143,931043625415.159424,22631913460498.480469,1003728867450.505981,-115.640530,293.216438,18.910834
-2.420000,0.880000,3.093152,0.040000,-89054084337.693146,-1501722795927.638428,7131312842419.649414,690316763006.936035,-60.112750,102.538646,13.005968
-2.380000,0.880000,3.053171,0.040000,-89096277347.650436,-98561007369.048172,304367810365.760498,-1724316113.002026,-3.020202,4.571210,-0.032487
-2.340000,0.880000,3.013190,0.040000,-89155753511.634155,11107969098.001535,-11102229829.615555,-5404086291.221632,0.209248,-0.209205,-0.101816
-2.300000,0.880000,2.973210,0.040000,-89233010056.310562,11499920717.387875,-11494207755.879488,-6822382593.240489,0.216633,-0.216590,-0.128538
-2.260000,0.880000,2.933231,0.040000,-89328675104.111588,11990465273.390057,-11984338426.563906,-8289019917.270499,0.225873,-0.225827,-0.156170
-2.220000,0.880000,2.893252,0.040000,-89443534221.282730,12587780978.622469,-12581104822.071753,-9816003438.341015,0.237123,-0.237073,-0.184939
-2.180000,0.880000,2.853274,0.040000,-89578543953.543182,13301521129.716549,-13294174019.859846,-11416715722.306347,0.250567,-0.250511,-0.215098
-2.140000,0.880000,2.813296,0.040000,-89734847307.637863,14143401239.082529,-14135246079.985882,-13106347506.891373,0.266424,-0.266362,-0.246931
-2.100000,0.880000,2.773319,0.040000,-89913792523.003250,15127527092.379477,-15118405599.734579,-14902380522.530838,0.284960,-0.284891,-0.280769
-2.060000,0.880000,2.733343,0.040000,-90116955673.515640,16270768564.627035,-16260496373.779034,-16825184803.249010,0.306493,-0.306415,-0.316996
-2.020000,0.880000,2.693367,0.040000,-90346167699.072662,17593215633.742168,-17581576536.017918,-18898769287.824871,0.331401,-0.331313,-0.356064
-1.980000,0.880000,2.653393,0.040000,-90603546598.120926,19118734938.820076,-19105473940.599030,-21151734231.935715,0.360133,-0.360033,-0.398511
-1.940000,0.880000,2.613418,0.040000,-90891535673.419708,20875647583.740707,-20860462543.053295,-23618490284.102509,0.393223,-0.393109,-0.444986
-1.900000,0.880000,2.573445,0.040000,-91212948917.693924,22897552979.928986,-22880084561.755650,-26340831958.724464,0.431304,-0.431173,-0.496277
-1.860000,0.880000,2.533473,0.040000,-91571024859.872971,25224327929.141094,-25204147634.633286,-29369985289.672573,0.475127,-0.474975,-0.553348
-1.820000,0.880000,2.493501,0.040000,-91969490473.361526,27903334272.362705,-27879930370.223431,-32769294677.180973,0.525583,-0.525406,-0.617393
-1.780000,0.880000,2.453530,0.040000,-92412637081.735657,30990871139.413345,-30963632522.171627,-36617778286.960686,0.583732,-0.583527,-0.689900
-1.740000,0.880000,2.413561,0.040000,-92905410588.542282,34553906891.919144,-34522105308.986237,-41014873673.180557,0.650836,-0.650596,-0.772744
-1.700000,0.880000,2.373592,0.040000,-93453518804.636429,38672116997.959526,-38634888980.556931,-46086828870.645271,0.728395,-0.728114,-0.868303
-1.660000,0.880000,2.333625,0.040000,-94063559133.844818,43440229313.581650,-43396560782.995354,-51995389164.111649,0.818192,-0.817863,-0.979623
-1.620000,0.880000,2.293658,0.040000,-94743170364.804794,48970622742.220238,-48919342467.032097,-58949716793.253540,0.922345,-0.921959,-1.110647
-1.580000,0.880000,2.253693,0.040000,-95501212712.403214,55396011534.203133,-55335805551.867065,-67222907120.907867,1.043353,-1.042899,-1.266519
-1.540000,0.880000,2.213729,0.040000,-96347980369.983719,62871824654.169197,-62801294889.201935,-77175103009.737732,1.184143,-1.183611,-1.454024
-1.500000,0.880000,2.173766,0.040000,-97295450308.669952,71577462806.100983,-71495273905.550247,-89286171851.651443,1.348096,-1.347477,-1.682203
-1.460000,0.880000,2.133805,0.040000,-98357569194.384811,81714806740.886032,-81620004228.484192,-104202370754.178070,1.539018,-1.538304,-1.963233
-1.420000,0.880000,2.093845,0.040000,-99550575762.911697,93500821978.303864,-93393478821.128799,-122803651275.794266,1.761003,-1.760194,-2.313692
-1.380000,0.880000,2.053887,0.040000,-100893346297.155273,107148211314.724518,-107030701373.981705,-146301646045.172729,2.018070,-2.017185,-2.756408
-1.340000,0.880000,2.013930,0.040000,-102407731250.491577,122822557830.982971,-122702027623.633682,-176383511540.209473,2.313367,-2.312459,-3.323168
-1.300000,0.880000,1.973976,0.040000,-104118812530.123413,140553829849.182190,-140446973342.742706,-215424427987.868103,2.647512,-2.646706,-4.058721
-1.260000,0.880000,1.934023,0.040000,-106054936160.416397,160059627428.127747,-160001924741.657745,-266802433135.744171,3.015290,-3.014855,-5.026713
-1.220000,0.880000,1.894072,0.040000,-108247230356.264786,180397365225.661346,-180461068122.799164,-335363342526.808167,3.399151,-3.399631,-6.318440
-1.180000,0.880000,1.854123,0.040000,-110728038439.974380,199282856180.433563,-199612314562.172791,-428097087318.716919,3.756467,-3.758950,-8.065597
-1.140000,0.880000,1.814176,0.040000,-113527148500.175308,211753312112.834167,-212634968966.279846,-555083246859.746460,3.994538,-4.001183,-10.458090
-1.100000,0.880000,1.774232,0.040000,-116663625386.964386,207535445147.617950,-209536842232.506042,-730684402043.386353,3.921400,-3.936483,-13.766518
-1.060000,0.880000,1.734290,0.040000,-120128926368.925476,165869802653.656891,-170111266051.955536,-974625920503.381348,3.149057,-3.181021,-18.362517
-1.020000,0.880000,1.694352,0.040000,-123852821636.873566,45489731655.486015,-54146150400.656944,-1311457018836.361328,0.905980,-0.971217,-24.708610
-0.980000,0.880000,1.654416,0.040000,-127635778538.063965,-233847700864.446991,216755082304.408813,-1763481499492.959717,-4.309216,4.180402,-33.225014
-0.940000,0.880000,1.614483,0.040000,-131018020265.045441,-821200094175.443848,789149040484.513062,-2323111863544.517090,-15.290728,15.049184,-43.768774
-0.900000,0.880000,1.574554,0.040000,-133038471577.006134,-1965209853845.215088,1911706257294.570312,-2869501177675.560059,-36.723281,36.320066,-54.063066
-0.860000,0.880000,1.534628,0.040000,-131840965891.112228,-3970202121164.434570,3908672798315.854492,-2961875345677.258301,-74.453135,73.989436,-55.803449
-0.820000,0.880000,1.494706,0.040000,-124220547607.600357,-6794467893880.214844,6832562934835.497070,-1493429777444.573975,-128.227034,128.514127,-28.137083
-0.780000,0.880000,1.454789,0.040000,-105773894183.367462,-8879279718461.656250,9191751431113.101562,3045869678561.811523,-169.056922,171.411781,57.385950
-0.740000,0.880000,1.414876,0.040000,-73431266830.724075,-6776104927400.432617,6992800176383.636719,9640725855437.431641,-128.890544,130.523610,181.636864
-0.700000,0.880000,1.374969,0.040000,-30960007281.430828,1126665462836.386475,-1218392931147.986084,12438043604733.882812,21.745490,-22.436770,234.339952
-0.660000,0.880000,1.335067,0.040000,9793810090.787405,7974157812890.259766,-8678359135977.115234,8627863083544.289062,154.218024,-159.525049,162.553942
-0.620000,0.880000,1.295171,0.040000,37296745792.958855,10368694366832.771484,-10914438610215.466797,1508996852424.882568,198.436854,-202.549709,28.430375
-0.580000,0.880000,1.255281,0.040000,47435909796.347008,8273330541195.952148,-2565483932401.501953,-2569345913457.805664,123.612602,-80.596946,-48.407966
-0.540000,0.880000,1.215399,0.040000,39658465674.094490,10417413970150.515625,6671719739853.467773,-1491782060099.874512,99.679363,29.108312,-28.106039
-0.500000,0.880000,1.175525,0.040000,84538468061.351791,-3314702432619.077148,-12162358682051.644531,-517369921587.682373,25.028126,-141.666847,-9.747549
-0.460000,0.880000,1.135660,0.040000,68185972513.215515,-17284165510.157795,-1970461319991.066406,-2799075341209.984863,10.909439,-25.889550,-52.736202
-0.420000,0.880000,1.095804,0.040000,55078545578.611336,2422487241533.163574,6842103683242.419922,-5295314561202.530273,-6.724015,76.544121,-99.766796
-0.380000,0.880000,1.055960,0.040000,66215525046.319923,724235008848.966797,-2944749426210.765625,-3162809074250.815918,26.195741,-42.930053,-59.589156
-0.340000,0.880000,1.016127,0.040000,65302063008.015419,-505528575176.006531,-3556594213471.596680,963083869448.966187,13.435373,-44.048472,18.145058
-0.300000,0.880000,0.976309,0.040000,55969874693.486832,-1818937527185.731934,2043125354153.107422,1142124108865.144775,-35.536986,37.226518,21.518280
-0.260000,0.880000,0.936505,0.040000,50312771607.776161,-1057134503806.365967,2358475651303.754395,-1633974410588.760254,-27.272433,37.079642,-30.785025
-0.220000,0.880000,0.896720,0.040000,49021911697.903130,761922469491.052124,-782365290993.091187,-1709916020818.396484,14.470607,-14.624669,-32.215809
-0.180000,0.880000,0.856954,0.040000,46731635817.309677,773982808432.681519,-1084929588046.789795,419158928099.972290,16.339810,-18.683177,7.897197
-0.140000,0.880000,0.817211,0.040000,42773575929.100868,-664626432538.650513,761881810919.176147,614973606819.959839,-13.071652,13.804591,11.586459
-0.100000,0.880000,0.777495,0.040000,39712637687.199280,-693213011892.093750,915296284151.908203,-816278348567.169312,-14.315788,15.989459,-15.379157
-0.060000,0.880000,0.737809,0.040000,37890354482.612213,526539549907.182251,-591545091970.727173,-880677157469.438477,10.287733,-10.777630,-16.592468
-0.020000,0.880000,0.698159,0.040000,35409052520.404930,544251758138.578674,-593585652294.340088,383533298719.303589,10.532862,-10.904654,7.225990
0.020000,0.880000,0.658552,0.040000,32200551610.101391,-550949168002.676758,599248556469.559937,373661712047.487732,-10.653198,11.017194,7.040003
0.060000,0.880000,0.618995,0.040000,29724893452.150303,-510827911396.057007,577087110903.012573,-920139526151.815674,-9.998803,10.498147,-17.335962
0.100000,0.880000,0.579498,0.040000,27878138888.318512,754909477786.300293,-986212225236.204834,-830638826863.744019,15.530296,-17.273447,-15.649717
0.140000,0.880000,0.540076,0.040000,24691748315.058743,702326964209.775146,-805496831405.961914,677675457612.705200,13.815381,-14.592893,12.767798
0.180000,0.880000,0.500746,0.040000,20560565508.623837,-847451252637.803711,1187726305601.857666,446460875270.734924,-17.889767,20.454158,8.411582
0.220000,0.880000,0.461530,0.040000,18258632124.708286,-813103183455.987549,835030219159.167114,-1882035682954.873047,-15.443271,15.608518,-35.458643
0.260000,0.880000,0.422462,0.040000,17016544504.051197,1200906286574.330811,-2633429476367.868652,-1774415401572.792480,30.722641,-41.518468,-33.431015
0.300000,0.880000,0.383586,0.040000,10906709080.280519,2041770917954.750000,-2277541159446.686035,1326210504146.733398,39.800762,-41.577581,24.986575
0.340000,0.880000,0.344967,0.040000,681670766.583568,571833225390.816650,4024111531219.209473,1130504671039.221191,-15.203410,49.839515,21.299363
0.380000,0.880000,0.306702,0.040000,-12499100.881111,-818961747987.115112,3331464851854.199219,-3499835121246.815430,-29.630819,48.565625,-65.938923
0.420000,0.880000,0.268942,0.040000,12931604734.080616,-2752072513132.772461,-7742072750542.776367,-5854314852204.990234,7.464093,-86.550405,-110.298686
0.460000,0.880000,0.231935,0.040000,-1536693028.656121,41723309331.632553,1926076770011.033936,-3019696033505.503906,-10.336257,25.166055,-56.892824
0.500000,0.880000,0.196107,0.040000,-19521310496.911484,3608067901756.584473,13125981263305.175781,-490399591058.188477,-26.605665,152.717340,-9.239413
0.540000,0.880000,0.162240,0.040000,28672210240.130032,-11200536333965.845703,-7276058460286.720703,-1557783534325.574707,-106.591670,-32.652232,-29.349545
0.580000,0.880000,0.131855,0.040000,19819045277.883423,-8826325010680.167969,2630661513889.151367,-2787389598309.591797,-131.274112,84.582156,-52.516036
0.620000,0.880000,0.107934,0.040000,30139938575.202751,-11119726664141.919922,11763243907075.296875,1329236036136.537109,-213.139368,217.989063,25.043577
0.660000,0.880000,0.076334,0.040000,59061487634.638481,-9695933666417.607422,10408896869586.894531,9264238858101.548828,-186.706803,192.079859,174.543631
0.700000,0.880000,0.049500,0.040000,102418550077.916153,-5690566750755.603516,1812722857033.858643,16564733270471.656250,-85.295328,56.070998,312.089178
0.740000,0.880000,0.033311,0.040000,147755945317.912262,2405649902501.656250,-14052525727278.244141,18327328416574.957031,111.154006,-198.927563,345.297492
1.260000,0.880000,0.033311,0.040000,172629356779.862793,-204679937923.798004,254387627612.653778,-236869281983.869781,-4.137245,4.511854,-4.462755
1.300000,0.880000,0.049500,0.040000,170124193573.111176,-175098328963.667755,208432439637.179382,-201826395046.416748,-3.487364,3.738578,-3.802526
1.340000,0.880000,0.076334,0.040000,167910202495.912537,-156572095509.367371,167005484980.093628,-174990657394.725433,-3.008880,3.087509,-3.296925
1.380000,0.880000,0.107934,0.040000,165951586651.822937,-138793217762.757751,140248583877.427826,-148845658448.833466,-2.623171,2.634139,-2.804338
1.420000,0.880000,0.131855,0.040000,164216505879.152679,-122140319143.775681,122008974859.251373,-124082065653.489014,-2.300452,2.299462,-2.337778
1.460000,0.880000,0.162240,0.040000,162677048661.972870,-106983636223.432495,106866665617.381485,-103414850784.132736,-2.014973,2.014091,-1.948396
1.500000,0.880000,0.196107,0.040000,161308942918.586853,-93860887336.328751,93758572458.936371,-86998468563.874588,-1.767815,1.767044,-1.639102
1.540000,0.880000,0.231935,0.040000,160091170191.241730,-82520008816.201569,82431409116.974731,-73820905762.274185,-1.554224,1.553556,-1.390829
1.580000,0.880000,0.268942,0.040000,159005564319.914551,-72723573991.696487,72647264123.281128,-63135271731.898033,-1.369723,1.369148,-1.189505
1.620000,0.880000,0.306702,0.040000,158036432357.993347,-64258085626.285774,64192525852.848434,-54384563075.278419,-1.210289,1.209795,-1.024637
1.660000,0.880000,0.344967,0.040000,157170213182.840149,-56936416796.615807,56880129847.502083,-47149233920.756348,-1.072397,1.071973,-0.888319
1.700000,0.880000,0.383586,0.040000,156395178014.632629,-50596959374.204071,50548606181.354858,-41110278186.396721,-0.953003,0.952638,-0.774541
1.740000,0.880000,0.422462,0.040000,155701171641.987518,-45101340254.949295,45059743910.160080,-36022960983.093994,-0.849500,0.849187,-0.678693
1.780000,0.880000,0.461530,0.040000,155079390782.864655,-40331659825.358170,40295804072.322365,-31697933060.655430,-0.759669,0.759399,-0.597207
1.820000,0.880000,0.500746,0.040000,154522195203.045807,-36187724408.680603,36156740606.678848,-27987515682.250412,-0.681623,0.681389,-0.527301
1.860000,0.880000,0.540076,0.040000,154022947182.724457,-32584488704.715725,32557638519.129734,-24775642987.938766,-0.613759,0.613557,-0.466787
1.900000,0.880000,0.579498,0.040000,153575875246.190521,-29449790863.553638,29426448337.296295,-21970417317.352638,-0.554719,0.554543,-0.413935
1.940000,0.880000,0.618995,0.040000,153175958531.990082,-26722395425.893421,26702030151.483704,-19498549293.593266,-0.503350,0.503197,-0.367364
1.980000,0.880000,0.658552,0.040000,152818828670.753326,-24350327320.690536,24332489415.042160,-17301170053.668793,-0.458673,0.458539,-0.325964
2.020000,0.880000,0.698159,0.040000,152500686502.442444,-22289466791.116161,22273773846.610760,-15330651297.730776,-0.419858,0.419740,-0.288838
2.060000,0.880000,0.737809,0.040000,152218231381.930023,-20502371437.564960,20488497372.767174,-13548171772.676289,-0.386198,0.386094,-0.255255
2.100000,0.880000,0.777495,0.040000,151968601185.321716,-18957292625.464008,18944958241.134460,-11921840922.515829,-0.357097,0.357004,-0.224614
2.140000,0.880000,0.817211,0.040000,151749321440.679382,-17627356651.798637,17616321667.005882,-10425241407.524036,-0.332047,0.331964,-0.196418
2.180000,0.880000,0.856954,0.040000,151558262270.770813,-16489884937.369045,16479941271.514521,-9036288524.957088,-0.310623,0.310548,-0.170249
2.220000,0.880000,0.896720,0.040000,151393602058.246155,-15525831319.996824,15516797301.099205,-7736330664.018814,-0.292465,0.292397,-0.145757
2.260000,0.880000,0.936505,0.040000,151253796931.302948,-14719316502.499805,14711029962.947119,-6509433722.414272,-0.277274,0.277211,-0.122642
2.300000,0.880000,0.976309,0.040000,151137555323.101746,-14057217139.696251,14049500034.540487,-5341804465.648774,-0.264803,0.264744,-0.100643
2.340000,0.880000,1.016127,0.040000,151043816929.271942,-13528441546.772968,13520748194.100006,-4221292713.821456,-0.254840,0.254782,-0.079532
2.380000,0.880000,1.055960,0.040000,150971734414.707489,-13126190767.139694,13127233445.549181,-3137466310.235575,-0.247311,0.247319,-0.059112
2.420000,0.880000,1.095804,0.040000,150920639752.122192,-12860762506.439726,12942222445.173573,-2353860316.559477,-0.242765,0.243379,-0.044348
2.460000,0.880000,1.135660,0.040000,150889783827.138519,-12584386996.488529,12682356195.559938,-1901910743.600624,-0.237651,0.238389,-0.035833
-2.500000,0.920000,3.172173,0.040000,-44303794193.476334,-366671560211.566711,26091216137647.464844,-1996247195130.560303,-152.307905,346.174038,-37.610454
-2.460000,0.920000,3.132179,0.040000,-88613969526.302856,552292519804.504517,22266229562394.867188,-1121622382946.456055,-118.568744,290.534418,-21.132016
-2.420000,0.920000,3.092185,0.040000,-88635636622.995834,-1262490849681.517822,7242216496417.300781,-728047704948.442383,-57.584509,102.649108,-13.716841
-2.380000,0.920000,3.052191,0.040000,-88672275249.546280,-48172603965.439789,160328123283.855103,-6604907021.541536,-1.541522,2.386752,-0.124440
-2.340000,0.920000,3.012198,0.040000,-88723981290.384521,9666247626.923279,-9661885933.346474,-5728607333.467689,0.182093,-0.182060,-0.107930
-2.300000,0.920000,2.972205,0.040000,-88791160908.605453,10011623600.865911,-10006669733.196999,-7236781951.364441,0.188597,-0.188559,-0.136345
-2.260000,0.920000,2.932212,0.040000,-88874366725.464615,10444242027.460510,-10438891452.066072,-8799743269.929171,0.196745,-0.196705,-0.165792
-2.220000,0.920000,2.892219,0.040000,-88974291478.733582,10970208530.026091,-10964402651.599903,-10430975182.078985,0.206652,-0.206609,-0.196526
-2.180000,0.920000,2.852226,0.040000,-89091777405.047958,11597408627.475996,-11591055579.463530,-12145608974.978430,0.218466,-0.218418,-0.228830
-2.140000,0.920000,2.812233,0.040000,-89227828857.720535,12335383971.552509,-12328379055.418139,-13960814960.162806,0.232366,-0.232313,-0.263030
-2.100000,0.920000,2.772241,0.040000,-89383627590.069855,13195505794.315096,-13187730838.318081,-15896329765.076038,0.248567,-0.248508,-0.299496
-2.060000,0.920000,2.732249,0.040000,-89560550969.744659,14191206733.452169,-14182527829.646654,-17975111156.234993,0.267322,-0.267256,-0.338662
-2.020000,0.920000,2.692257,0.040000,-89760193494.876968,15338254827.953154,-15328519810.752562,-20224155728.173546,0.288927,-0.288853,-0.381035
-1.980000,0.920000,2.652265,0.040000,-89984392050.705627,16655071361.708263,-16644107190.654945,-22675528921.239906,0.313729,-0.313647,-0.427220
-1.940000,0.920000,2.612274,0.040000,-90235255415.341766,18163093859.656925,-18150704088.348576,-25367673040.673367,0.342133,-0.342040,-0.477942
-1.900000,0.920000,2.572283,0.040000,-90515198595.318130,19887182391.670097,-19873145056.508686,-28347080941.273998,0.374607,-0.374501,-0.534075
-1.860000,0.920000,2.532292,0.040000,-90826982640.328217,21856061292.719044,-21840127820.406429,-31670453265.978512,0.411691,-0.411571,-0.596690
-1.820000,0.920000,2.492302,0.040000,-91173760642.295197,24102777610.665237,-24084673782.979725,-35407498897.383461,0.454008,-0.453872,-0.667098
-1.780000,0.920000,2.452312,0.040000,-91559130649.048187,26665138867.103355,-26644569616.074707,-39644596315.511505,0.502270,-0.502115,-0.746927
-1.740000,0.920000,2.412322,0.040000,-91987196187.017761,29586060791.931011,-29562721819.922779,-44489614589.318436,0.557287,-0.557111,-0.838210
-1.700000,0.920000,2.372332,0.040000,-92462634938.643829,32913701775.624252,-32887303033.284672,-50078306386.463120,0.619964,-0.619765,-0.943504
-1.660000,0.920000,2.332343,0.040000,-92990775771.074539,36701170143.620964,-36671479614.193550,-56582845376.190048,0.691304,-0.691080,-1.066054
-1.620000,0.920000,2.292354,0.040000,-93577683616.050583,41005438150.295639,-40972360137.763245,-64223306121.765526,0.772379,-0.772130,-1.210004
-1.580000,0.920000,2.252366,0.040000,-94230250409.419952,45884840613.896538,-45848552472.663216,-73283203072.686768,0.864292,-0.864018,-1.380698
-1.540000,0.920000,2.212378,0.040000,-94956287996.690430,51394104139.886032,-51355292001.677307,-84130653327.952789,0.968075,-0.967783,-1.585070
-1.500000,0.920000,2.172390,0.040000,-95764614896.453140,57575120323.999260,-57535382931.690079,-97247352872.424866,1.084524,-1.084225,-1.832197
-1.460000,0.920000,2.132403,0.040000,-96665121895.529083,64440426658.216042,-64402965849.750870,-113268412875.516251,1.213883,-1.213601,-2.134043
-1.420000,0.920000,2.092417,0.040000,-97668789596.026840,71944213248.136658,-71915015778.263550,-133037238370.667374,1.355306,-1.355086,-2.506499
-1.380000,0.920000,2.052431,0.040000,-98787610754.436676,79931965626.412888,-79921831955.559494,-157681038163.626373,1.505907,-1.505831,-2.970802
-1.340000,0.920000,2.012445,0.040000,-100034335512.166718,88053409243.269455,-88081450220.220444,-188714043119.800903,1.659136,-1.659347,-3.555482
-1.300000,0.920000,1.972460,0.040000,-101421897925.051285,95612172827.332321,-95711861019.832535,-228176392903.547028,1.801952,-1.802703,-4.298976
-1.260000,0.920000,1.932476,0.040000,-102962279247.414688,101305937399.568665,-101535610611.771790,-278814966854.734802,1.909961,-1.911692,-5.253036
-1.220000,0.920000,1.892492,0.040000,-104664385246.792389,102776694618.237869,-103237785121.337219,-344303068877.626221,1.938979,-1.942454,-6.486869
-1.180000,0.920000,1.852510,0.040000,-106530205958.872620,95832485689.433472,-96700939201.649002,-429466071397.392151,1.810448,-1.816993,-8.091390
-1.140000,0.920000,1.812527,0.040000,-108547992454.904785,73107084459.719757,-74686361327.379776,-540398959604.594421,1.386306,-1.398208,-10.181430
-1.100000,0.920000,1.772546,0.040000,-110680274009.246460,21786306633.272388,-24592125970.169037,-684156676691.457275,0.426326,-0.447471,-12.889908
-1.060000,0.920000,1.732566,0.040000,-112843033711.681473,-80109140024.816544,75230386549.498611,-867208413346.522095,-1.481727,1.444960,-16.338709
-1.020000,0.920000,1.692586,0.040000,-114870059259.590836,-269299703917.542297,261066240830.792664,-1090752968916.048218,-5.027226,4.965176,-20.550418
-0.980000,0.920000,1.652607,0.040000,-116453612642.800354,-603921087596.401001,590755355726.155762,-1338807444397.781250,-11.303808,11.204588,-25.223908
-0.940000,0.920000,1.612630,0.040000,-117051209687.723007,-1165808863855.901855,1146999782367.186035,-1551591039075.114502,-21.858203,21.716453,-29.232875
-0.900000,0.920000,1.572654,0.040000,-115756486938.988190,-2039083904400.042969,2018979986507.460449,-1575416934104.000000,-38.303892,38.152384,-29.681768
-0.860000,0.920000,1.532678,0.040000,-111172329807.977768,-3217353976735.947754,3215158816450.700195,-1098908402102.008789,-60.604407,60.587863,-20.704071
-0.820000,0.920000,1.492705,0.040000,-101439308274.542938,-4379216122914.436035,4434492528838.138672,322107958621.274902,-82.819402,83.235978,6.068701
-0.780000,0.920000,1.452732,0.040000,-84770283608.703156,-4647807641922.886719,4771053720745.182617,2863812478573.438477,-88.263999,89.192810,53.955887
-0.740000,0.920000,1.412762,0.040000,-60837749982.319695,-2947168262935.456543,3048532724761.171387,5619790810949.171875,-56.099288,56.863194,105.880117
-0.700000,0.920000,1.372792,0.040000,-32386414367.821373,647693119743.915039,-645526070386.392700,6650631010420.542969,12.190665,-12.174334,125.301744
-0.660000,0.920000,1.332825,0.040000,-4934951336.247501,4018844410649.520996,-4165556272262.304199,4888842295921.423828,76.546599,-77.652254,92.108623
-0.620000,0.920000,1.292860,0.040000,16223282863.240271,5314631239189.991211,-5521660902620.154297,1225318810304.231445,101.300901,-102.861125,23.085717
-0.580000,0.920000,1.252897,0.040000,29229408304.959080,3775693978197.194336,-2131705532876.393799,-683968391625.537476,61.844155,-49.454677,-12.886361
-0.540000,0.920000,1.212937,0.040000,38452031541.502594,3022041029522.383301,-656222686471.809692,1046088214723.742920,43.564988,-25.735633,19.708908
-0.500000,0.920000,1.172979,0.040000,50037582613.827148,2906627399325.545410,-6003861599246.518555,944803963181.334717,72.268652,-95.610127,17.800654
-0.460000,0.920000,1.133024,0.040000,47243213370.789711,2652382114091.750488,1297931575744.298340,-2304315264130.370117,27.644557,2.125923,-43.414635
-0.420000,0.920000,1.093072,0.040000,34490747186.039703,5260435150440.727539,9810220615136.488281,-3262149863477.395996,13.927680,99.648276,-61.460795
-0.380000,0.920000,1.053124,0.040000,88050844663.134048,-11142140509370.519531,-14599457395547.033203,-1373620827977.388184,-64.428398,-129.566253,-25.879813
-0.340000,0.920000,1.013181,0.040000,62433757195.856544,-3206668609514.947754,-5400638054825.187500,765209822398.685425,-11.765501,-53.101158,14.416997
-0.300000,0.920000,0.973241,0.040000,48037795710.225487,-2277045455930.608398,4822975025811.109375,40172040544.409004,-57.290893,76.477609,0.756865
-0.260000,0.920000,0.933307,0.040000,38864569388.949913,936963292590.610229,6009632148724.268555,-2966335525068.358887,-21.610434,73.961588,-55.887481
-0.220000,0.920000,0.893379,0.040000,51268918570.988289,-470373544029.169983,-3968591593587.911133,-2267552189703.729980,16.227693,-49.680763,-42.721998
-0.180000,0.920000,0.853458,0.040000,47223043703.800926,122124161851.800827,-3143657272201.902344,1372359731166.908936,19.379121,-42.150095,25.856053
-0.140000,0.920000,0.813545,0.040000,39899773589.111351,-1484183206331.998291,2661073195955.680176,1386778874344.610596,-34.614859,43.484175,26.127718
-0.100000,0.920000,0.773640,0.040000,36228037991.156593,-772084816906.978027,2775284238793.080078,-1906885551342.597656,-25.868957,40.965532,-35.926829
-0.060000,0.920000,0.733746,0.040000,38756645583.004051,740977002681.816772,-2252865315029.648926,-1854382451911.541748,22.505892,-33.899833,-34.937640
-0.020000,0.920000,0.693864,0.040000,36239825933.279510,974178602793.682251,-2171997307033.706787,1312696564312.680664,25.124369,-34.151409,24.731964
0.020000,0.920000,0.653996,0.040000,30855165433.786972,-967734302826.682373,2202416128504.039062,1293493279214.411133,-25.211312,34.516160,24.370163
0.060000,0.920000,0.614145,0.040000,28387170496.449249,-704210099597.832520,2270120428666.006836,-1940710683399.884033,-22.118524,33.919587,-36.564114
0.100000,0.920000,0.574316,0.040000,31045808617.840290,871564246762.990967,-2945945073999.253906,-1959826086525.663330,28.145537,-43.778552,-36.924260
0.140000,0.920000,0.534511,0.040000,27166889705.411556,1610120187650.333008,-2825373393668.553223,1510850644236.285400,37.204420,-46.362850,28.465302
0.180000,0.920000,0.494739,0.040000,19393063918.038486,-102178792246.963608,3425710066971.604980,1460534462045.909668,-20.710284,45.757187,27.517316
0.220000,0.920000,0.455006,0.040000,15186451434.809067,568476513332.240723,4320592331847.680664,-2509580753695.579590,-16.923440,53.768597,-47.281956
0.260000,0.920000,0.415324,0.040000,29018151838.384727,-968179724395.167236,-6681539224421.714844,-3257829433290.714844,24.996475,-82.646530,-61.379395
0.300000,0.920000,0.375710,0.040000,18979184132.639065,2605815344451.640137,-5391865172339.423828,82854997990.167099,64.842310,-85.838627,1.561036
0.340000,0.920000,0.336188,0.040000,3004966013.755080,3673716496969.121094,6069183096064.459961,899118991151.214233,14.146386,59.278365,16.939923
0.380000,0.920000,0.296793,0.040000,-25740017940.653843,12659036499669.962891,16474697428478.779297,-1476640211555.186523,73.834655,145.723919,-27.820758
0.420000,0.920000,0.257585,0.040000,35043486996.796715,-5883064283826.889648,-11169584207185.070312,-3561411027457.806641,-14.455807,-114.056907,-67.099048
0.460000,0.920000,0.218665,0.040000,20657437378.001522,-2858729664682.023438,-1706702812434.214111,-2496637558013.408691,-28.055506,-6.350652,-47.038099
0.500000,0.920000,0.180217,0.040000,17226065984.507195,-3139697629044.943848,6477159136812.662109,1043421465178.286621,-78.017636,103.169520,19.658665
0.540000,0.920000,0.142626,0.040000,29353161214.939285,-3225758406501.415527,666593397728.231079,1141313594493.438232,-46.310313,27.023852,21.503010
0.580000,0.920000,0.106799,0.040000,38859313605.628357,-3993378338077.565918,2262373366454.233887,-806903676426.495361,-65.453622,52.408367,-15.202533
0.620000,0.920000,0.075300,0.040000,52355357267.404068,-5680661208084.569336,6570879375782.750000,764383476859.645874,-112.058618,118.767509,14.401428
0.660000,0.920000,0.055983,0.040000,74589108758.929092,-5600059141058.362305,6371885667231.402344,5023714367776.425781,-109.870858,115.687522,94.649691
0.700000,0.920000,0.022609,0.040000,103619539754.055038,-4816780525231.233398,3013486037646.110840,9201625756870.863281,-80.558403,66.968358,173.363964
1.300000,0.920000,0.022609,0.040000,167652466355.927094,-136714558833.035126,171937389680.842896,-211824780585.504242,-2.774867,3.040315,-3.990902
1.340000,0.920000,0.055983,0.040000,165781773597.436066,-116581317785.240891,141933360741.119293,-181309429507.632782,-2.339754,2.530813,-3.415975
1.380000,0.920000,0.075300,0.040000,164103313858.740601,-106781189420.535980,114837749776.502136,-158654463904.181152,-2.057357,2.118073,-2.989142
1.420000,0.920000,0.106799,0.040000,162599164994.207336,-97441729444.896561,98539900882.381226,-136422347783.177948,-1.842066,1.850342,-2.570276
1.460000,0.920000,0.142626,0.040000,161251876988.297760,-87778879103.580261,87727655690.494690,-115367159289.043335,-1.653515,1.653129,-2.173584
1.500000,0.920000,0.180217,0.040000,160045112006.573853,-78434771756.551422,78381371841.783661,-97542704163.679138,-1.477455,1.477052,-1.837761
1.540000,0.920000,0.218665,0.040000,158963923266.879791,-70011659127.133484,69959772958.518692,-83077070778.912750,-1.318767,1.318376,-1.565220
1.580000,0.920000,0.257585,0.040000,157994831766.326660,-62487254646.924828,62438741104.201889,-71237463183.320572,-1.177022,1.176656,-1.342155
1.620000,0.920000,0.296793,0.040000,157125793490.816681,-55805201592.307091,55760865782.464073,-61465704018.689835,-1.051152,1.050818,-1.158049
1.660000,0.920000,0.336188,0.040000,156346110895.145081,-49894119970.832520,49854171657.535507,-53333612539.062660,-0.939808,0.939507,-1.004836
1.700000,0.920000,0.375710,0.040000,155646319628.717987,-44678383489.608849,44642707335.278084,-46510382834.016991,-0.841565,0.841296,-0.876283
1.740000,0.920000,0.415324,0.040000,155018068044.603027,-40084023359.281952,40052337591.126068,-40738629741.733971,-0.755027,0.754788,-0.767539
1.780000,0.920000,0.455006,0.040000,154453999112.487732,-36041770890.056473,36013719544.292717,-35816700769.080917,-0.678889,0.678678,-0.674807
1.820000,0.920000,0.494739,0.040000,153947639707.508148,-32488435654.666008,32463641195.824951,-31585532520.537651,-0.611961,0.611774,-0.595090
1.860000,0.920000,0.534511,0.040000,153493299541.889923,-29367332711.666218,29345425032.429165,-27918818721.412807,-0.553174,0.553009,-0.526007
1.900000,0.920000,0.574316,0.040000,153085980459.842926,-26628184083.080795,26608815487.652866,-24715605055.147121,-0.501581,0.501435,-0.465656
1.940000,0.920000,0.614145,0.040000,152721295959.957733,-24226746822.816360,24209598775.325020,-21894673421.388493,-0.456349,0.456220,-0.412508
1.980000,0.920000,0.653996,0.040000,152395400362.872528,-22124316018.143375,22109101142.338089,-19390254121.832230,-0.416749,0.416634,-0.365324
2.020000,0.920000,0.693864,0.040000,152104926836.448486,-20287188425.538448,20273649848.932972,-17148729891.545380,-0.382146,0.382044,-0.323092
2.060000,0.920000,0.733746,0.040000,151846933424.418091,-18686134757.861290,18674044058.344917,-15126085471.685703,-0.351989,0.351898,-0.284984
2.100000,0.920000,0.773640,0.040000,151618856236.384827,-17295906109.102192,17285060600.383785,-13285921006.381424,-0.325804,0.325722,-0.250314
2.140000,0.920000,0.813545,0.040000,151418469010.488861,-16094786661.648022,16085006450.048189,-11597894262.819416,-0.303180,0.303106,-0.218511
2.180000,0.920000,0.853458,0.040000,151243848333.456207,-15064197100.602516,15055322156.365818,-10036490655.052521,-0.283768,0.283701,-0.189093
2.220000,0.920000,0.893379,0.040000,151093343883.492279,-14188348913.927267,14180236384.083426,-8580044914.573161,-0.267271,0.267210,-0.161653
2.260000,0.920000,0.933307,0.040000,150965553142.726959,-13453948990.222111,13446472502.325584,-7209956639.408752,-0.253438,0.253382,-0.135840
2.300000,0.920000,0.973241,0.040000,150859300106.781403,-12849976397.410128,12843052116.875765,-5910057345.727904,-0.242062,0.242010,-0.111349
2.340000,0.920000,1.013181,0.040000,150773617649.750854,-12367836429.549562,12361703697.263817,-4666124884.214286,-0.232983,0.232936,-0.087912
2.380000,0.920000,1.053124,0.040000,150707734264.500244,-12003102910.252420,11996623490.211901,-3466694786.646940,-0.226109,0.226060,-0.065315
2.420000,0.920000,1.093072,0.040000,150661081060.215912,-11767537150.402294,11808755980.118670,-2597613867.834378,-0.221940,0.222251,-0.048941
2.460000,0.920000,1.133024,0.040000,150633499283.625702,-11702610466.060322,11865102167.712851,-2097917195.662353,-0.221402,0.222627,-0.039526
-2.500000,0.960000,3.171735,0.040000,-44089408151.731285,3424835010268.132812,28336150186415.871094,-2619537088614.587402,-114.992735,354.350884,-49.353597
-2.460000,0.960000,3.131735,0.040000,-88183737842.030243,2971920026633.494141,18888070628879.445312,-1538514868935.190430,-67.563773,232.305731,-28.986512
-2.420000,0.960000,3.091736,0.040000,-88202376799.629822,-775764857740.552124,6018070918395.586914,-318852402624.829468,-44.246285,83.753519,-6.007364
-2.380000,0.960000,3.051736,0.040000,-88233239144.652115,-48076852360.678673,155705425381.659180,-4492974463.859626,-1.514131,2.325245,-0.084650
-2.340000,0.960000,3.011737,0.040000,-88276758093.597336,8141241514.634618,-8136958014.063631,-6010604446.185568,0.153361,-0.153329,-0.113243
-2.300000,0.960000,2.971737,0.040000,-88333308738.856216,8436545686.806215,-8432309844.749291,-7596636968.550299,0.158925,-0.158894,-0.143125
-2.260000,0.960000,2.931738,0.040000,-88403364254.855042,8804934565.629934,-8800436600.414972,-9242463460.677114,0.165865,-0.165831,-0.174133
-2.220000,0.960000,2.891738,0.040000,-88487514509.851288,9251674834.645969,-9246832032.460371,-10962881905.244915,0.174280,-0.174243,-0.206547
-2.180000,0.960000,2.851739,0.040000,-88586474815.799530,9782824595.258541,-9777570025.018574,-12774354306.812717,0.184284,-0.184245,-0.240676
-2.140000,0.960000,2.811739,0.040000,-88701095639.125076,10405562645.616323,-10399825755.695406,-14695505986.767799,0.196014,-0.195971,-0.276872
-2.100000,0.960000,2.771740,0.040000,-88832374094.672134,11128293389.989643,-11121998455.509550,-16747679739.744730,0.209628,-0.209580,-0.315536
-2.060000,0.960000,2.731740,0.040000,-88981467400.696991,11960738685.269796,-11953804793.327560,-18955611520.760677,0.225308,-0.225256,-0.357135
-2.020000,0.960000,2.691741,0.040000,-89149708441.652893,12914027058.511454,-12906368731.591885,-21348266347.735577,0.243264,-0.243207,-0.402214
-1.980000,0.960000,2.651741,0.040000,-89338623580.645294,14000771210.010633,-13992299944.923071,-23959881213.270325,0.263735,-0.263671,-0.451418
-1.940000,0.960000,2.611742,0.040000,-89549952844.148575,15235117592.869514,-15225744844.935247,-26831275728.777172,0.286985,-0.286915,-0.505517
-1.900000,0.960000,2.571743,0.040000,-89785672556.075836,16632742310.564240,-16622384745.646929,-30011510018.763115,0.313312,-0.313234,-0.565434
-1.860000,0.960000,2.531743,0.040000,-90048020411.122787,18210752898.067158,-18199341186.006992,-33559994541.014256,0.343037,-0.342951,-0.632290
-1.820000,0.960000,2.491744,0.040000,-90339522824.755829,19987432875.459213,-19974925993.520226,-37549190204.307320,0.376504,-0.376410,-0.707449
-1.780000,0.960000,2.451745,0.040000,-90663024142.595764,21981730851.511723,-21968138953.738365,-42068082283.053383,0.414072,-0.413969,-0.792587
-1.740000,0.960000,2.411746,0.040000,-91021716878.496201,24212341451.900433,-24197762061.875015,-47226671959.002663,0.456092,-0.455982,-0.889778
-1.700000,0.960000,2.371746,0.040000,-91419171490.159424,26696140439.885574,-26680815404.575920,-53161809617.023560,0.502884,-0.502769,-1.001599
-1.660000,0.960000,2.331747,0.040000,-91859363156.305603,29445603580.682487,-29430008466.120338,-60044799977.643631,0.554684,-0.554567,-1.131279
-1.620000,0.960000,2.291748,0.040000,-92346691375.276703,32464630090.120922,-32449614451.245102,-68091346844.835434,0.611568,-0.611454,-1.282880
-1.580000,0.960000,2.251749,0.040000,-92885985623.675446,35741861969.671341,-35728869721.997047,-77574579487.502960,0.673324,-0.673226,-1.461550
-1.540000,0.960000,2.211750,0.040000,-93482486261.673050,39240067763.583099,-39231484206.548813,-88842112814.488556,0.739257,-0.739192,-1.673837
-1.500000,0.960000,2.171750,0.040000,-94141783502.390976,42879326423.806038,-42879026327.886078,-102338323892.460663,0.807870,-0.807867,-1.928113
-1.460000,0.960000,2.131751,0.040000,-94869687227.374863,46510415684.442558,-46524631649.481987,-118633226376.831818,0.876364,-0.876471,-2.235119
-1.420000,0.960000,2.091752,0.040000,-95671984572.390869,49872677861.367149,-49911379844.308334,-138459359775.941925,0.939849,-0.940141,-2.608655
-1.380000,0.960000,2.051753,0.040000,-96554017075.825851,52527227547.100456,-52606317880.166397,-162757675270.693665,0.990090,-0.990686,-3.066449
-1.340000,0.960000,2.011754,0.040000,-97519969258.794739,53750947963.569176,-53895751399.047775,-192731817781.276428,1.013517,-1.014609,-3.631179
-1.300000,0.960000,1.971756,0.040000,-98571697030.984329,52368232726.982605,-52619019073.044785,-229906029333.412750,0.988065,-0.989955,-4.331563
-1.260000,0.960000,1.931757,0.040000,-99706823587.004776,46484507077.605354,-46905126465.665428,-276172105847.977539,0.878172,-0.881342,-5.203243
-1.220000,0.960000,1.891758,0.040000,-100915671695.290085,33067029665.543869,-33758080464.524071,-333789220289.384399,0.626908,-0.632116,-6.288782
-1.180000,0.960000,1.851759,0.040000,-102176354910.388428,7295257377.566087,-8413161838.580234,-405254573095.026550,0.143765,-0.152190,-7.635231
-1.140000,0.960000,1.811760,0.040000,-103446979888.032333,-38415781418.450058,36634091087.428589,-492869050138.296509,-0.713705,0.700278,-9.285939
-1.100000,0.960000,1.771762,0.040000,-104653390428.591461,-115796138567.289230,113010021274.541733,-597639006522.232666,-2.165919,2.144922,-11.259865
-1.060000,0.960000,1.731763,0.040000,-105670250964.068512,-242424302570.263306,238195464149.240173,-716824718655.472900,-4.543512,4.511643,-13.505393
-1.020000,0.960000,1.691765,0.040000,-106292798112.034576,-443119381167.665710,437028060094.620300,-838936838771.349976,-8.314197,8.268291,-15.806056
-0.980000,0.960000,1.651766,0.040000,-106197214049.329315,-748895252052.945190,740960482602.965698,-934494006642.030884,-14.064772,14.004974,-17.606409
-0.940000,0.960000,1.611768,0.040000,-104891753104.726379,-1188079941961.891113,1179839466722.789795,-941472363999.702881,-22.337538,22.275436,-17.737885
-0.900000,0.960000,1.571770,0.040000,-101673712818.196030,-1759121520838.663574,1755636762770.408936,-749580090172.905640,-33.123173,33.096911,-14.122523
-0.860000,0.960000,1.531771,0.040000,-95636731956.570847,-2373500443797.997559,2384946231092.799316,-204439038335.452454,-44.782818,44.869076,-3.851750
-0.820000,0.960000,1.491773,0.040000,-85818745955.542328,-2782606881629.628418,2819322281941.482910,816816452792.311646,-52.633449,52.910144,15.389295
-0.780000,0.960000,1.451775,0.040000,-71600406271.288116,-2584559178238.589844,2639684781022.244629,2212738823886.734375,-49.006173,49.421612,41.689282
-0.740000,0.960000,1.411777,0.040000,-53329434488.393806,-1471731434841.488525,1512408877524.781738,3472215763508.121582,-27.958189,28.264744,65.418558
-0.700000,0.960000,1.371780,0.040000,-32770580528.072342,337408815262.656799,-344135599937.771057,3859357697363.231934,6.394999,-6.445693,72.712536
-0.660000,0.960000,1.331782,0.040000,-12738319826.959177,2007571169830.867920,-2068607307216.899414,3025391703327.850098,38.168792,-38.628774,57.000134
-0.620000,0.960000,1.291785,0.040000,4176300258.183148,2637759661518.266602,-2740866578182.604492,1407769725226.230225,50.279699,-51.056737,26.523198
-0.580000,0.960000,1.251787,0.040000,16972052963.290649,1984450097249.595215,-1963605105890.210205,346715403854.781311,37.270371,-37.113278,6.532319
-0.540000,0.960000,1.211790,0.040000,26545505038.863010,1917446325902.555176,-1835981601406.953125,827089174567.018433,35.665348,-35.051410,15.582840
-0.500000,0.960000,1.171793,0.040000,32888176003.783386,3114617173532.785156,-3413055278436.840820,-5499182209.461280,60.368017,-62.617116,-0.103608
-0.460000,0.960000,1.131796,0.040000,33465081064.047768,2439219750682.224609,2101452597256.523438,-806615790324.950195,20.291644,13.927915,-15.197109
-0.420000,0.960000,1.091800,0.040000,27907637714.173634,4337983319748.853516,6777136281906.338867,890967817147.295898,18.905531,64.860587,16.786350
-0.380000,0.960000,1.051804,0.040000,70622004814.800369,-7334407847709.284180,-12681441701341.132812,695037811462.314331,-25.051433,-125.792651,13.094915
-0.340000,0.960000,1.011808,0.040000,49384233931.068336,-114648676334.295273,-4914967925335.991211,-1415179826210.817139,26.268220,-64.172577,-26.662808
-0.300000,0.960000,0.971812,0.040000,37081602408.096100,134198900777.496826,6074474282461.693359,-2163878481045.892578,-32.564116,79.354116,-40.768725
-0.260000,0.960000,0.931817,0.040000,19818900930.115196,5739947132224.958984,11246703925939.544922,-2055899252352.389893,12.132425,115.882916,-38.734334
-0.220000,0.960000,0.891822,0.040000,69264708434.851822,-8490681932001.404297,-12643751787333.087891,-1132689105206.562012,-40.513875,-118.760118,-21.340519
-0.180000,0.960000,0.851828,0.040000,47628732383.576180,-1485013326583.813477,-5427005151079.463867,887671074599.347656,11.089419,-63.179993,16.724238
-0.140000,0.960000,0.811834,0.040000,34222344295.824398,-940604196339.812866,5384220536973.402344,534406248742.964661,-42.837621,76.325744,10.068524
-0.100000,0.960000,0.771841,0.040000,20890412766.194210,3616456821311.583496,8752392575068.523438,-2153580033896.880371,-1.774745,94.989262,-40.574696
-0.060000,0.960000,0.731849,0.040000,52375624256.911842,-4078891907562.914062,-8633662489113.915039,-1916581711900.934082,-4.995120,-90.809638,-36.109511
-0.020000,0.960000,0.691858,0.040000,39120046080.625923,180094378973.086487,-4875481454279.163086,1219186096650.078125,29.932227,-65.317753,22.970173
0.020000,0.960000,0.651867,0.040000,27460780994.765007,-62829602248.890396,4937799770807.679688,1195600686485.638916,-28.737925,65.476831,22.525810
0.060000,0.960000,0.611878,0.040000,13941652918.111286,4325294853471.285156,8845356104010.990234,-2006050031148.833740,7.048253,92.208827,-37.795146
0.100000,0.960000,0.571891,0.040000,46607029214.841553,-3640370593490.730957,-9170444994860.210938,-2232522185351.212402,3.822265,-100.367542,-42.062012
0.140000,0.960000,0.531905,0.040000,32671863503.805466,1130148442265.657715,-5710901854454.889648,580710628094.438110,47.183867,-81.705487,10.940925
0.180000,0.960000,0.491921,0.040000,18378267886.448402,1737816242239.140625,5884761288225.810547,928932280412.612915,-10.342668,67.788180,17.501623
0.220000,0.960000,0.451941,0.040000,-5150553501.176194,9428426480300.578125,13850318075438.130859,-1257080861749.439209,46.061508,129.372509,-23.684132
0.260000,0.960000,0.411964,0.040000,49486025729.741226,-6252709461249.912109,-12456042382803.083984,-2267056311292.281738,-12.059552,-128.933940,-42.712655
0.300000,0.960000,0.371993,0.040000,30537533951.860775,-64106350626.988968,-6774790216431.498047,-2403709179610.285645,37.446832,-88.986342,-45.287274
0.340000,0.960000,0.332028,0.040000,16923319388.800282,217643855059.916687,5483176557216.503906,-1554946962032.688477,-28.121492,71.084197,-29.296102
0.380000,0.960000,0.292073,0.040000,-6954834578.546039,8382979927490.201172,14271477674585.298828,855807617912.198486,29.893267,140.835978,16.123912
0.420000,0.960000,0.252132,0.040000,41410042661.533951,-4803345004887.105469,-7773309136393.125977,1094227116693.946411,-19.412368,-75.368214,20.615873
0.460000,0.960000,0.212213,0.040000,34971063475.726845,-2600148831642.499512,-2546700997125.816895,-846690578609.251099,-19.897421,-18.890433,-15.952141
0.500000,0.960000,0.172332,0.040000,35213403760.841606,-3353885285062.980469,3669053339298.998047,-30026068765.721764,-64.970528,67.345707,-0.565709
0.540000,0.960000,0.132523,0.040000,41674722135.987038,-2040580988531.395508,1951717887524.084717,879876632315.053833,-37.943459,37.273766,16.577386
0.580000,0.960000,0.092879,0.040000,51578170877.274612,-2111150679350.291992,2160806393085.835693,291531215104.350464,-40.055965,40.430182,5.492617
0.620000,0.960000,0.053762,0.040000,64900705966.592857,-2892679553762.652832,3856204114404.323242,1000044989225.709473,-59.945768,67.207113,18.841427
0.660000,0.960000,0.018824,0.040000,82621367539.269257,-2380358875348.218262,5120974646065.948242,2379744366696.204102,-60.337778,80.991694,44.835763
1.340000,0.960000,0.018824,0.040000,163461007052.280609,-74679395018.716858,117816506576.511276,-179893211990.134521,-1.650822,1.975913,-3.389292
1.380000,0.960000,0.053762,0.040000,162080825577.095795,-77772849443.445511,91606645559.227982,-163531153093.712769,-1.543477,1.647731,-3.081022
1.420000,0.960000,0.092879,0.040000,160825158111.907715,-73494698503.306885,76595931885.582764,-143049589309.418640,-1.402211,1.425583,-2.695137
1.460000,0.960000,0.132523,0.040000,159686419435.933472,-67682569486.509888,67703358605.046806,-123037084804.863235,-1.275296,1.275453,-2.318090
1.500000,0.960000,0.172332,0.040000,158655952342.083832,-62077099593.852425,62069134506.176590,-104766798185.055008,-1.169524,1.169463,-1.973867
1.540000,0.960000,0.212213,0.040000,157724819708.923157,-56599293703.679436,56582385849.548523,-89735860676.221817,-1.066268,1.066141,-1.690676
1.580000,0.960000,0.252132,0.040000,156884271023.552612,-51406298604.836891,51384849235.426979,-77293145064.070862,-0.968403,0.968242,-1.456248
1.620000,0.960000,0.292073,0.040000,156126004639.421417,-46580767271.004814,46557488679.963303,-66923170209.626526,-0.877477,0.877302,-1.260871
1.660000,0.960000,0.332028,0.040000,155442302640.155701,-42156829899.009026,42133360810.815666,-58221195434.644440,-0.794126,0.793950,-1.096921
1.700000,0.960000,0.371993,0.040000,154826087112.322327,-38139258562.076340,38116555883.782173,-50868175785.841599,-0.718437,0.718266,-0.958386
1.740000,0.960000,0.411964,0.040000,154270928837.682281,-34515636901.337158,34494226019.832748,-44611482264.919205,-0.650174,0.650012,-0.840506
1.780000,0.960000,0.451941,0.040000,153771028095.958313,-31264062756.555264,31244197931.944157,-39250101062.171852,-0.588921,0.588771,-0.739495
1.820000,0.960000,0.491921,0.040000,153321180041.778412,-28357989538.849937,28339756874.166363,-34623271382.877174,-0.534178,0.534041,-0.652323
1.860000,0.960000,0.531905,0.040000,152916732491.027435,-25769231420.622097,25752614975.966625,-30601747412.981571,-0.485413,0.485288,-0.576555
1.900000,0.960000,0.571891,0.040000,152553540982.025848,-23469789855.340324,23454714004.035095,-27081058378.609287,-0.442099,0.441986,-0.510223
1.940000,0.960000,0.611878,0.040000,152227924070.767639,-21432925028.464211,21419281442.251610,-23976290224.749817,-0.403732,0.403629,-0.451727
1.980000,0.960000,0.651867,0.040000,151936620598.335175,-19633746152.217487,19621410816.023693,-21218028020.368217,-0.369841,0.369748,-0.399760
2.020000,0.960000,0.691858,0.040000,151676749890.395355,-18049498209.661308,18038341959.678673,-18749186162.265335,-0.340000,0.339916,-0.353246
2.060000,0.960000,0.731849,0.040000,151445775357.589142,-16659660478.662445,16649555333.825459,-16522519835.241114,-0.313821,0.313744,-0.311294
2.100000,0.960000,0.771841,0.040000,151241471660.956940,-15445931719.779249,15436754488.275803,-14498661075.264687,-0.290958,0.290889,-0.273163
2.140000,0.960000,0.811834,0.040000,151061895422.918732,-14392150551.144693,14383784679.294762,-12644560218.072922,-0.271109,0.271046,-0.238231
2.180000,0.960000,0.851828,0.040000,150905359359.128601,-13484182302.617126,13476518593.611855,-10932241611.839321,-0.254006,0.253949,-0.205970
2.220000,0.960000,0.891822,0.040000,150770409651.906799,-12709792294.759590,12702728821.773275,-9337803579.138083,-0.239420,0.239367,-0.175930
2.260000,0.960000,0.931817,0.040000,150655806363.582550,-12058516778.719889,12051956741.550074,-7840608383.174479,-0.227152,0.227103,-0.147722
2.300000,0.960000,0.971812,0.040000,150560506683.489044,-11521516834.643717,11515342223.785250,-6422617879.091516,-0.217037,0.216991,-0.121006
2.340000,0.960000,1.011808,0.040000,150483650761.203766,-11091128220.257130,11084913430.942493,-5067809398.335410,-0.208928,0.208881,-0.095480
2.380000,0.960000,1.051804,0.040000,150424549004.987762,-10762818296.004110,10763715864.135036,-3762269579.237892,-0.202783,0.202790,-0.070883
2.420000,0.960000,1.091800,0.040000,150382656161.497559,-10545761879.726276,10612495268.680902,-2820507711.696830,-0.199065,0.199568,-0.053140
2.460000,0.960000,1.131796,0.040000,150357358981.099548,-10319336713.276819,10399577158.575035,-2278023080.913974,-0.194876,0.195481,-0.042919
-2.500000,1.000000,3.171801,0.040000,-43868919485.794998,215406470220.400085,26201556936741.820312,-210484312793.328003,-145.254889,344.339251,-3.965646
-2.460000,1.000000,3.131802,0.040000,-87742144131.949280,1598929729684.053711,18162647572369.152344,-60410326996.415932,-81.571109,230.498938,-1.138166
-2.420000,1.000000,3.091804,0.040000,-87756785027.590988,-925406822980.883667,5828312163643.755859,-19114752258.274258,-45.147275,82.096706,-0.360133
-2.380000,1.000000,3.051805,0.040000,-87781553424.484146,-49346509021.717094,156441023438.204773,-4669533644.600554,-1.535034,2.342123,-0.087977
-2.340000,1.000000,3.011806,0.040000,-87816520985.784134,6548409113.499476,-6545410459.949968,-6246584778.146463,0.123359,-0.123336,-0.117689
-2.300000,1.000000,2.971808,0.040000,-87861971201.459656,6788336138.306486,-6784974272.467603,-7896879803.142310,0.127877,-0.127852,-0.148782
-2.260000,1.000000,2.931809,0.040000,-87918287911.107208,7087436019.733174,-7083858020.590579,-9610872288.676632,0.133511,-0.133484,-0.181074
-2.220000,1.000000,2.891811,0.040000,-87985949965.421814,7448920500.066127,-7445106565.034101,-11404092947.928310,0.140320,-0.140292,-0.214860
-2.180000,1.000000,2.851812,0.040000,-88065536096.095001,7876856547.352136,-7872770891.754157,-13293869880.446804,0.148381,-0.148351,-0.250464
-2.140000,1.000000,2.811814,0.040000,-88157731413.649750,8375968232.841254,-8371575094.579570,-15299736064.877089,0.157783,-0.157750,-0.288256
-2.100000,1.000000,2.771815,0.040000,-88263334963.919067,8951601174.566648,-8946867269.609211,-17443970848.450279,0.168627,-0.168591,-0.328655
-2.060000,1.000000,2.731817,0.040000,-88383268277.052353,9609675651.474730,-9604572491.078804,-19752260156.526295,0.181023,-0.180985,-0.372144
-2.020000,1.000000,2.691819,0.040000,-88518584832.505432,10356600557.274963,-10351107898.973328,-22254504508.817795,0.195093,-0.195052,-0.419288
-1.980000,1.000000,2.651821,0.040000,-88670480300.499039,11199126274.444363,-11193237301.324123,-24985814885.134304,0.210965,-0.210920,-0.470747
-1.940000,1.000000,2.611823,0.040000,-88840303321.876877,12144105762.782938,-12137834784.923037,-27987747521.132561,0.228767,-0.228719,-0.527305
-1.900000,1.000000,2.571824,0.040000,-89029566440.221054,13198119192.553759,-13191513029.949619,-31309842739.586906,0.248623,-0.248573,-0.589896
-1.860000,1.000000,2.531826,0.040000,-89239956579.963074,14366896894.375404,-14360051649.404150,-35011550861.411972,0.270642,-0.270590,-0.659638
-1.820000,1.000000,2.491828,0.040000,-89473344138.905151,15654445116.394444,-15647530859.192343,-39164650995.660347,0.294900,-0.294848,-0.737885
-1.780000,1.000000,2.451830,0.040000,-89731789284.162750,17061734302.164278,-17055031413.828459,-43856296980.732445,0.321415,-0.321365,-0.826278
-1.740000,1.000000,2.411833,0.040000,-90017543334.794754,18584743138.604763,-18578695890.021694,-49192859609.923737,0.350113,-0.350068,-0.926822
-1.700000,1.000000,2.371835,0.040000,-90333042075.010956,20211552596.706753,-20206848299.903687,-55304775444.879349,0.380771,-0.380735,-1.041974
-1.660000,1.000000,2.331837,0.040000,-90680886308.964600,21918036139.474987,-21915722370.356556,-62352658117.295044,0.412935,-0.412918,-1.174760
-1.620000,1.000000,2.291840,0.040000,-91063802702.711792,23661470304.001965,-23663128974.280735,-70534972262.932465,0.445805,-0.445818,-1.328920
-1.580000,1.000000,2.251842,0.040000,-91484574602.536179,25371056434.336483,-25379062946.208008,-80097599399.410324,0.478051,-0.478111,-1.509085
-1.540000,1.000000,2.211845,0.040000,-91945927533.125137,26933843263.095570,-26951753141.778656,-91345609755.399338,0.507550,-0.507685,-1.721004
-1.500000,1.000000,2.171847,0.040000,-92450346655.113205,28173788419.504173,-28206914791.366837,-104657434615.174377,0.530998,-0.531247,-1.971807
-1.460000,1.000000,2.131850,0.040000,-92999792386.311081,28820575597.763821,-28876851316.840080,-120501292868.417892,0.543314,-0.543739,-2.270314
-1.420000,1.000000,2.091853,0.040000,-93595263856.150497,28463149637.249508,-28554410408.082996,-139452937499.732758,0.536778,-0.537466,-2.627374
-1.380000,1.000000,2.051856,0.040000,-94236135203.519211,26480540253.238998,-26624420483.774933,-162212125736.375153,0.499722,-0.500806,-3.056170
-1.340000,1.000000,2.011859,0.040000,-94919153100.176895,21939215410.288971,-22161910020.425220,-189611885046.485992,0.414606,-0.416285,-3.572398
-1.300000,1.000000,1.971862,0.040000,-95636929953.275742,13441891111.475052,-13782075684.046345,-222608191156.702179,0.255176,-0.257740,-4.194067
-1.260000,1.000000,1.931865,0.040000,-96375689154.057007,-1092037198.819604,577903437.070237,-262225501266.782318,-0.017669,0.013794,-4.940480
-1.220000,1.000000,1.891869,0.040000,-97111909066.022644,-24737281035.797604,23968440145.594646,-309411272103.243164,-0.461719,0.455925,-5.829488
-1.180000,1.000000,1.851873,0.040000,-97807366928.669617,-61982333102.808327,60847419567.151962,-364713175222.490356,-1.161368,1.152815,-6.871408
-1.140000,1.000000,1.811876,0.040000,-98401912151.855148,-119246192988.383987,117601798984.687943,-427627039764.999390,-2.237373,2.224980,-8.056741
-1.100000,1.000000,1.771880,0.040000,-98803150948.079987,-205389801465.197418,203076072215.252228,-495365326161.007202,-3.856585,3.839149,-9.332970
-1.060000,1.000000,1.731885,0.040000,-98872252042.876862,-331894366916.931458,328794954775.051147,-560682004411.099976,-6.235564,6.212206,-10.563574
-1.020000,1.000000,1.691889,0.040000,-98405657611.920517,-511894984832.008789,508093687325.091675,-608359645358.013428,-9.622913,9.594265,-11.461848
-0.980000,1.000000,1.651893,0.040000,-97114389253.122864,-756391524300.957520,752500891714.533691,-610339731377.771606,-14.228864,14.199544,-11.499154
-0.940000,1.000000,1.611898,0.040000,-94607248586.840149,-1064869973827.334351,1062562943650.984009,-521024957732.172974,-20.049728,20.032342,-9.816412
-0.900000,1.000000,1.571903,0.040000,-90393158605.423035,-1407578893894.358887,1410057129942.392334,-278224552210.224792,-26.533610,26.552286,-5.241912
-0.860000,1.000000,1.531909,0.040000,-83930834092.139771,-1701799218821.360840,1713159464549.834473,178352176045.943756,-32.127094,32.212707,3.360258
-0.820000,1.000000,1.491914,0.040000,-74762291122.412186,-1800406234109.415527,1822274635087.345947,857154228932.917725,-34.044301,34.209107,16.149283
-0.780000,1.000000,1.451920,0.040000,-62745164129.458206,-1532667432379.086426,1559001327653.154053,1642682651183.038574,-29.025187,29.223645,30.949093
-0.740000,1.000000,1.411926,0.040000,-48315545506.699905,-824520378508.401611,841432337748.396240,2270156626597.153809,-15.630031,15.757484,42.771067
-0.700000,1.000000,1.371933,0.040000,-32593253102.274925,168299153556.676331,-173299923214.606598,2440916369590.224121,3.199119,-3.236806,45.988279
-0.660000,1.000000,1.331940,0.040000,-17133039423.755241,1078028961533.646851,-1104738924076.936523,2048455728523.643066,20.461660,-20.662952,38.594093
-0.620000,1.000000,1.291947,0.040000,-3359397048.511503,1562538454174.996582,-1587801022182.360352,1325431814391.022461,29.581919,-29.772303,24.971904
-0.580000,1.000000,1.251955,0.040000,7953147374.032058,1634303067257.837646,-1626353187750.155273,714479266462.421875,30.746283,-30.686371,13.461204
-0.540000,1.000000,1.211964,0.040000,16659104313.183594,1686425042026.381104,-1704998246117.273193,305204022261.035583,31.878204,-32.018176,5.750221
-0.500000,1.000000,1.171973,0.040000,22591949414.045311,1895993298457.409180,-1931428894327.716797,-524094323892.928650,35.921901,-36.188952,-9.874241
-0.460000,1.000000,1.131982,0.040000,25615833026.781315,1239133008191.440430,605396836811.150024,-208149222823.982361,12.920381,0.980424,-3.921652
-0.420000,1.000000,1.091992,0.040000,27332808325.318317,2645018610587.685547,1649242226651.490234,2032807374593.878906,25.561775,6.800771,38.299269
-0.380000,1.000000,1.052004,0.040000,32768712989.552666,4565569360830.243164,-2712172972894.595703,1017265948710.515747,75.542255,-61.574630,19.165880
-0.340000,1.000000,1.012016,0.040000,35229092069.743958,3721821812591.230469,-3415330281529.325684,-2586989764855.259277,68.388937,-66.079146,-48.740387
-0.300000,1.000000,0.972029,0.040000,29659332359.339428,1648860487017.330322,4163908644323.595703,-2195722218562.705566,-1.789295,45.595671,-41.368679
-0.260000,1.000000,0.932043,0.040000,17621546522.630222,5288085192495.644531,9058624454166.634766,623821720265.840332,18.540493,89.579638,11.753163
-0.220000,1.000000,0.892058,0.040000,60444912322.284714,-6380907782885.354492,-11540081807337.783203,736490691599.912842,-18.927452,-116.129281,13.875912
-0.180000,1.000000,0.852075,0.040000,42085966343.757828,-40707271195.019760,-5491947085838.138672,-1233090236465.426025,30.504576,-72.199942,-23.232135
-0.140000,1.000000,0.812093,0.040000,28745025954.207474,647233199487.006104,6033716388004.636719,-1505215832229.850830,-25.567640,75.916826,-28.359139
-0.100000,1.000000,0.772114,0.040000,9333620071.859934,7206738717935.294922,12266473067623.503906,-523838694868.420532,25.713156,121.041484,-9.869425
-0.060000,1.000000,0.732136,0.040000,61546656012.140167,-7624489483794.524414,-12834729789034.080078,-336191780524.273193,-28.010736,-126.174684,-6.334048
-0.020000,1.000000,0.692161,0.040000,40693159252.825592,-494183497005.410217,-6236369211825.069336,-661446672413.107300,28.731551,-79.454557,-12.462039
0.020000,1.000000,0.652190,0.040000,25616422640.926697,674995451456.999756,6323607322404.032227,-664894342073.764771,-26.840014,79.583108,-12.526995
0.060000,1.000000,0.612221,0.040000,4258357619.119481,8005383341094.797852,13190809105439.798828,-347218340063.993042,31.021497,128.717924,-6.541795
0.100000,1.000000,0.572258,0.040000,58413597072.644608,-7367313538745.803711,-12803483355863.134766,-563419948783.764771,-24.795606,-127.216197,-10.615158
0.140000,1.000000,0.532300,0.040000,38212133417.264999,-540964192862.276428,-6367867025617.112305,-1630468681310.643799,28.857837,-80.924391,-30.718975
0.180000,1.000000,0.492349,0.040000,24078037451.129459,183130817942.493805,5932364308276.249023,-1328932651372.766846,-31.115551,77.203341,-25.037862
0.220000,1.000000,0.452406,0.040000,4166557116.605323,7111646979610.011719,12628196392127.617188,829956242236.340210,22.414524,126.349513,15.636857
0.260000,1.000000,0.412474,0.040000,51504389690.596802,-5767020457214.472656,-10034462017887.269531,695055542447.981934,-19.341282,-99.742354,13.095249
0.300000,1.000000,0.372557,0.040000,38326373144.127357,-1782376163857.777100,-4632839858548.676758,-2436444798342.686523,2.678916,-51.025472,-45.904032
0.340000,1.000000,0.332660,0.040000,32231039273.228012,-4121777485859.979492,3781152045155.083008,-2855120875193.276855,-75.731403,73.164371,-53.792132
0.380000,1.000000,0.292792,0.040000,35072271356.706024,-5079414047523.207031,2982860611921.655762,1213798819460.397705,-83.849021,68.048908,22.868673
0.420000,1.000000,0.252964,0.040000,41139198241.306747,-2891791654856.039062,-1967681617196.254395,2355410519675.324707,-27.016443,-9.605674,44.377300
0.460000,1.000000,0.213201,0.040000,42833794516.841766,-1278567904733.401123,-810038795041.428223,-202692268065.406219,-12.283792,-3.456432,-3.818840
0.500000,1.000000,0.173548,0.040000,45810013070.883614,-2011380103485.086670,2050702474906.334229,-599479875228.273193,-38.117824,38.414167,-11.294548
0.540000,1.000000,0.134100,0.040000,51866603099.228424,-1788949220818.409424,1810510450066.815918,308096700007.713745,-33.826708,33.989199,5.804720
0.580000,1.000000,0.095114,0.040000,60864853244.658096,-1739107085822.572754,1742929076803.275635,749559812555.383179,-32.787388,32.816192,14.122141
0.620000,1.000000,0.057539,0.040000,72626185276.364441,-1749168831609.807617,2020728265571.227051,1283103715347.709473,-34.490256,36.536791,24.174418
1.380000,1.000000,0.057539,0.040000,159933448353.266815,-48821732094.795738,50482213161.112595,-169051251453.517242,-0.929215,0.941729,-3.185024
1.420000,1.000000,0.095114,0.040000,158934057611.481995,-48889732222.358177,49090656786.251549,-148165807623.836243,-0.922247,0.923761,-2.791530
1.460000,1.000000,0.134100,0.040000,158012652356.598846,-47703429588.671059,47748407311.972061,-126671306306.392181,-0.899014,0.899353,-2.386561
1.500000,1.000000,0.173548,0.040000,157167494780.731201,-45575654017.308968,45606310104.605911,-108774553083.115387,-0.858845,0.859076,-2.049376
1.540000,1.000000,0.213201,0.040000,156395210419.182739,-42889467893.959778,42903293221.448746,-93830023678.094620,-0.808141,0.808245,-1.767812
1.580000,1.000000,0.252964,0.040000,155691527366.144714,-39950085847.411598,39953087414.274651,-81294341703.206085,-0.752700,0.752722,-1.531633
1.620000,1.000000,0.292792,0.040000,155051759337.984955,-36950033277.612259,36946236278.917747,-70726759953.340118,-0.696139,0.696110,-1.332533
1.660000,1.000000,0.332660,0.040000,154471116769.798431,-34010428750.042362,34002522318.606159,-61770769377.026184,-0.640732,0.640672,-1.163797
1.700000,1.000000,0.372557,0.040000,153944902665.441010,-31204679704.986160,31194450980.087200,-54138150758.611168,-0.587856,0.587779,-1.019994
1.740000,1.000000,0.412474,0.040000,153468631440.316162,-28574478109.009048,28563104465.572903,-47595659347.030167,-0.538295,0.538210,-0.896730
1.780000,1.000000,0.452406,0.040000,153038096568.678864,-26140612114.388222,26128858376.170319,-41954147562.599442,-0.492438,0.492349,-0.790440
1.820000,1.000000,0.492349,0.040000,152649404480.685272,-23910279796.443211,23898631700.235241,-37059792009.045219,-0.450418,0.450330,-0.698228
1.860000,1.000000,0.532300,0.040000,152298986509.525208,-21882036270.333557,21870791039.695934,-32787068810.368446,-0.412207,0.412122,-0.617727
1.900000,1.000000,0.572258,0.040000,151983596870.188568,-20049135194.448868,20038463157.335831,-29033149672.328342,-0.377677,0.377597,-0.547001
1.940000,1.000000,0.612221,0.040000,151700302060.928070,-18401778280.094090,18391764865.392410,-25713437286.516731,-0.346644,0.346568,-0.484456
1.980000,1.000000,0.652190,0.040000,151446465316.899231,-16928620756.802620,16919295139.785828,-22758007314.466381,-0.318892,0.318822,-0.428774
2.020000,1.000000,0.692161,0.040000,151219728545.291229,-15617769413.916731,15609124046.438032,-20108768586.933334,-0.294199,0.294134,-0.378861
2.060000,1.000000,0.732136,0.040000,151017993352.871124,-14457434747.429401,14449438639.970762,-17717191055.241455,-0.272341,0.272281,-0.333802
2.100000,1.000000,0.772114,0.040000,150839402218.996613,-13436347865.268961,13428955574.442013,-15542482202.883284,-0.253107,0.253051,-0.292829
2.140000,1.000000,0.812093,0.040000,150682320487.764069,-12544018197.036352,12537175852.395901,-13550117695.982714,-0.236298,0.236246,-0.255292
2.180000,1.000000,0.852075,0.040000,150545319596.182556,-11770884410.267311,11764533701.464043,-11710651936.408127,-0.221734,0.221687,-0.220635
2.220000,1.000000,0.892058,0.040000,150427161782.990021,-11108394785.350216,11102475619.373835,-9998749820.389053,-0.209255,0.209211,-0.188382
2.260000,1.000000,0.932043,0.040000,150326786408.897430,-10549043311.143692,10543496909.011026,-8392393350.635293,-0.198719,0.198677,-0.158118
2.300000,1.000000,0.972029,0.040000,150243297947.916107,-10086398534.775850,10081190728.860077,-6872228449.116142,-0.190004,0.189965,-0.129477
2.340000,1.000000,1.012016,0.040000,150175955709.345825,-9715379758.746309,9710723890.131304,-5421057443.481042,-0.183017,0.182982,-0.102136
2.380000,1.000000,1.052004,0.040000,150124166105.552734,-9433717538.521852,9428689569.355007,-4024819332.417303,-0.177708,0.177670,-0.075830
2.420000,1.000000,1.091992,0.040000,150087490141.787689,-9251383321.464231,9283159769.858089,-3014495704.069016,-0.174481,0.174721,-0.056795
2.460000,1.000000,1.131982,0.040000,150065808027.548065,-9202037839.745028,9328506891.990929,-2434018602.970131,-0.174087,0.175040,-0.045858
-2.500000,1.040000,3.171735,0.040000,-43643527870.807007,-14683176677.042843,25926393005253.406250,-102815102787.726929,-146.734130,342.010784,-1.937096
-2.460000,1.040000,3.131735,0.040000,-87289997840.147919,1583898727844.421387,18071776312115.031250,-58109876330.924049,-81.255723,229.385448,-1.094824
-2.420000,1.040000,3.091736,0.040000,-87301173956.006149,-922193780533.416260,5799987393922.692383,-19515132475.732540,-44.944803,81.704987,-0.367676
-2.380000,1.040000,3.051736,0.040000,-87319691476.511520,-50668445797.739349,157209092010.509094,-4806755102.417704,-1.556809,2.359724,-0.090562
-2.340000,1.040000,3.011737,0.040000,-87345816735.065353,4898393497.390827,-4895790199.342462,-6433058358.578286,0.092274,-0.092254,-0.121203
-2.300000,1.040000,2.971737,0.040000,-87379782897.730057,5081222664.805954,-5078692254.064648,-8133691453.971679,0.095719,-0.095700,-0.153243
-2.260000,1.040000,2.931738,0.040000,-87421882836.140579,5307674040.478641,-5305048079.502082,-9900344989.985291,0.099985,-0.099965,-0.186528
-2.220000,1.040000,2.891738,0.040000,-87472479045.615585,5579822682.823579,-5577074388.804395,-11749112327.180538,0.105112,-0.105091,-0.221360
-2.180000,1.040000,2.851739,0.040000,-87532007150.997665,5899817021.181993,-5896936325.880813,-13697750721.271231,0.111140,-0.111118,-0.258074
-2.140000,1.040000,2.811739,0.040000,-87600979343.759644,6269949414.697618,-6266933681.062372,-15766161245.805065,0.118112,-0.118090,-0.297044
-2.100000,1.040000,2.771740,0.040000,-87679988039.809341,6692550511.194916,-6689406684.683249,-17976904700.575073,0.126074,-0.126050,-0.338695
-2.060000,1.040000,2.731740,0.040000,-87769709593.879089,7169821585.588981,-7166570241.120664,-20355815589.940693,0.135065,-0.135041,-0.383515
-2.020000,1.040000,2.691741,0.040000,-87870907800.630325,7703594032.245374,-7700275111.629926,-22932742497.879692,0.145121,-0.145096,-0.432066
-1.980000,1.040000,2.651741,0.040000,-87984436795.133408,8294987559.171473,-8291668419.040672,-25742446338.280361,0.156264,-0.156239,-0.485003
-1.940000,1.040000,2.611742,0.040000,-88111242802.290009,8943926391.084347,-8940713090.550169,-28825694846.824009,0.168491,-0.168466,-0.543093
-1.900000,1.040000,2.571743,0.040000,-88252363956.142899,9648456287.747246,-9645509438.267363,-32230600107.004810,0.181766,-0.181744,-0.607243
-1.860000,1.040000,2.531743,0.040000,-88408927089.292526,10403781822.051865,-10401338880.730278,-36014255710.897415,0.195999,-0.195981,-0.678529
-1.820000,1.040000,2.491744,0.040000,-88582139942.160141,11200910111.487074,-11199316802.803888,-40244741032.132309,0.211023,-0.211011,-0.758234
-1.780000,1.040000,2.451745,0.040000,-88773276608.035370,12024739744.602661,-12024494449.651775,-45003571157.573685,0.226552,-0.226550,-0.847893
-1.740000,1.040000,2.411746,0.040000,-88983653136.251251,12851365783.617846,-12853182395.234428,-50388680330.035690,0.242137,-0.242151,-0.949352
-1.700000,1.040000,2.371746,0.040000,-89214588953.101852,13644274572.859022,-13649171689.202648,-56518030357.274796,0.257094,-0.257131,-1.064832
-1.660000,1.040000,2.331747,0.040000,-89467347971.703903,14348963013.400110,-14358390726.169018,-63533925829.652344,0.270396,-0.270467,-1.197016
-1.620000,1.040000,2.291748,0.040000,-89743050723.864319,14885318292.965467,-14901338595.376333,-71608081298.955414,0.280539,-0.280659,-1.349138
-1.580000,1.040000,2.251749,0.040000,-90042545239.160843,15136811571.644842,-15162355019.954271,-80947396780.167191,0.285331,-0.285523,-1.525096
-1.540000,1.040000,2.211750,0.040000,-90366219264.114792,14935160963.507357,-14974391120.984276,-91800212578.491165,0.281609,-0.281904,-1.729569
-1.500000,1.040000,2.171750,0.040000,-90713729117.081360,14038566381.447132,-14097394942.423845,-104462454499.326416,0.264827,-0.265271,-1.968133
-1.460000,1.040000,2.131751,0.040000,-91083610124.288147,12100870797.333866,-12187679441.766764,-119282410744.440369,0.228478,-0.229132,-2.247350
-1.420000,1.040000,2.091752,0.040000,-91472718980.286163,8628034374.630512,-8754671285.368639,-136661671039.244461,0.163273,-0.164227,-2.574785
-1.380000,1.040000,2.051753,0.040000,-91875437975.961624,2917155836.807615,-3100276800.967009,-157047618545.474121,0.055996,-0.057376,-2.958868
-1.340000,1.040000,2.011754,0.040000,-92282543013.159851,-6027858224.162052,5765063129.141171,-180909160957.399597,-0.112083,0.110102,-3.408433
-1.300000,1.040000,1.971756,0.040000,-92679599914.547073,-19610391022.516197,19236151111.041630,-208681123617.906769,-0.367356,0.364536,-3.931673
-1.260000,1.040000,1.931757,0.040000,-93044706042.606232,-39789816906.994202,39261765142.478271,-240652457870.438873,-0.746679,0.742699,-4.534032
-1.220000,1.040000,1.891758,0.040000,-93345339471.106812,-69262682061.747070,68526877685.719116,-276757346491.898132,-1.300790,1.295245,-5.214269
-1.180000,1.040000,1.851759,0.040000,-93534027627.881134,-111655113955.220093,110648496475.367599,-316205062018.478149,-2.097957,2.090371,-5.957487
-1.140000,1.040000,1.811760,0.040000,-93542533158.968964,-171661061230.826263,170322387939.732300,-356855870887.052124,-3.226627,3.216539,-6.723371
-1.100000,1.040000,1.771762,0.040000,-93274349243.396835,-254970260001.075409,253269067345.371918,-394228744658.250610,-4.794172,4.781351,-7.427498
-1.060000,1.040000,1.731763,0.040000,-92595647283.277313,-367664327442.507507,365663357980.886597,-420051833656.436218,-6.915699,6.900619,-7.914020
-1.020000,1.040000,1.691765,0.040000,-91325692813.020325,-514505546135.746826,512474906038.061218,-420436275000.553589,-9.682105,9.666802,-7.921263
-0.980000,1.040000,1.651766,0.040000,-89229540392.302094,-695277322363.566040,693862803775.248535,-374258122971.125916,-13.091433,13.080773,-7.051240
-0.940000,1.040000,1.611768,0.040000,-86018931164.837128,-898404380171.021118,898782957430.415894,-253420647545.544830,-16.928599,16.931452,-4.774592
-0.900000,1.040000,1.571770,0.040000,-81371564707.476761,-1092353750651.138306,1096148391870.087402,-28316723320.198044,-20.602026,20.630623,-0.533503
-0.860000,1.040000,1.531771,0.040000,-74982156771.218811,-1219052706283.482666,1227602047750.592773,317271404279.631470,-23.015982,23.080412,5.977577
-0.820000,1.040000,1.491773,0.040000,-66654953393.190880,-1199537626022.799316,1212340930836.271973,761278331332.956299,-22.672351,22.768839,14.342925
-0.780000,1.040000,1.451775,0.040000,-56427542502.638809,-964151198757.378296,977463159536.214722,1220710934485.309814,-18.240409,18.340731,22.998902
-0.740000,1.040000,1.411777,0.040000,-44677601933.643906,-505048236988.329346,512763365741.297852,1559582890741.040527,-9.559009,9.617152,29.383446
-0.700000,1.040000,1.371780,0.040000,-32131535543.086681,84364755167.814362,-86785375601.076248,1649047951026.147949,1.603163,-1.621405,31.069019
-0.660000,1.040000,1.331782,0.040000,-19717091030.703930,635391295021.615723,-646405717937.788330,1453888966679.810791,12.033396,-12.116403,27.392111
-0.620000,1.040000,1.291785,0.040000,-8302673095.868691,1004834958129.094849,-1015883381174.316406,1070517736504.338623,18.994121,-19.077384,20.169175
-0.580000,1.040000,1.251787,0.040000,1522780729.725145,1175950947377.076416,-1182070463674.618164,646991966989.862061,22.190186,-22.236304,12.189704
-0.540000,1.040000,1.211790,0.040000,9477793420.649176,1220592809239.612305,-1233314557835.307617,220673421857.410248,23.068582,-23.164456,4.157615
-0.500000,1.040000,1.171793,0.040000,15488934188.566158,1092107690419.278320,-1119565203169.745850,-268147944322.895508,20.731137,-20.938063,-5.052063
-0.460000,1.040000,1.131796,0.040000,19790491450.672981,694499432490.677124,-422705711089.016479,-312183959074.393188,11.548547,-9.500246,-5.881727
-0.420000,1.040000,1.091800,0.040000,23198728635.640049,1297544101049.249023,-207522735683.987885,679982815815.565430,18.285493,-10.070839,12.811270
-0.380000,1.040000,1.051804,0.040000,26391393482.181091,2684361597411.543945,-1610547478598.194824,267735626889.587677,44.505544,-36.413032,5.044294
-0.340000,1.040000,1.011808,0.040000,27971460107.431068,2336045524935.295410,-1791318832311.562500,-1633554570870.407227,40.933562,-36.828375,-30.777115
-0.300000,1.040000,0.971812,0.040000,27032534833.835892,534844198896.448364,1585987849932.993164,-1161397934209.687744,-1.910537,17.893619,-21.881410
-0.260000,1.040000,0.931817,0.040000,26614894025.809841,1263193825466.505127,2701499403428.451660,1633154873714.017090,1.390168,28.488679,30.769585
-0.220000,1.040000,0.891822,0.040000,34286563108.000523,2016321042619.588623,-3296629497108.016113,1210957586459.662354,45.225183,-54.873885,22.815143
-0.180000,1.040000,0.851828,0.040000,34121681752.480804,2114924674858.549805,-3411015688668.398926,-2342537606870.178223,47.172139,-56.939781,-44.134767
-0.140000,1.040000,0.811834,0.040000,27898028802.496544,536737618362.439575,3725362679991.015137,-2146395820951.145020,-13.977684,46.097860,-40.439342
-0.100000,1.040000,0.771841,0.040000,20273007676.370770,3048096878778.702148,6784972408128.240234,1181013177932.194336,1.849695,72.254596,22.250973
-0.060000,1.040000,0.731849,0.040000,46091184046.807884,-2421756156893.717285,-7244496968873.114258,1143164389416.189697,9.008054,-81.855179,21.537880
-0.020000,1.040000,0.691858,0.040000,37764020893.560905,436938668697.726135,-4472553426657.603516,-2188514519135.164551,31.042174,-61.455503,-41.232882
0.020000,1.040000,0.651867,0.040000,28691968732.996567,-365585092922.130554,4554641286155.244141,-2173193721626.616455,-30.565109,62.134808,-40.944230
0.060000,1.040000,0.611878,0.040000,20249085753.737720,2577682177795.965332,7436502770442.071289,1210223926911.210938,-8.036888,83.506108,22.801320
0.100000,1.040000,0.571891,0.040000,47066571450.385849,-3103309717288.415527,-7082756415187.522461,1205500680596.717529,-0.894737,-75.869820,22.712332
0.140000,1.040000,0.531905,0.040000,39154447232.694527,-527298686407.405762,-3896093766539.131348,-2303793197570.101074,15.067170,-48.402882,-43.404799
0.180000,1.040000,0.491921,0.040000,32662699263.972664,-2247060973103.603027,3681861492091.888672,-2482699266174.747559,-50.445673,61.258663,-46.775493
0.220000,1.040000,0.451941,0.040000,32709043248.719959,-2159762384353.789795,3570515905030.580566,1382334253479.776367,-48.665000,59.296765,26.043979
0.260000,1.040000,0.411964,0.040000,41288401569.277145,-1348047856641.567871,-3018863991569.664062,1826749226205.026123,-0.715458,-32.194602,34.417014
0.300000,1.040000,0.371993,0.040000,40888947529.964714,-566102544166.057495,-1773430792829.160156,-1260757148185.404541,2.557749,-20.189015,-23.753396
0.340000,1.040000,0.332028,0.040000,39875148733.397064,-2580538684992.752441,1963374393136.094238,-1774553608048.933350,-45.130525,40.479432,-33.433619
0.380000,1.040000,0.292073,0.040000,41613514133.064980,-2963180112111.432129,1748101385392.523438,357224870601.246826,-48.960195,39.803080,6.730324
0.420000,1.040000,0.252132,0.040000,45057217358.841492,-1382252994201.287842,148624336543.036102,808490466831.651978,-19.069764,9.772852,15.232429
0.460000,1.040000,0.212213,0.040000,48606903981.913834,-688725935507.390259,380732889004.301208,-333964612707.507629,-11.235166,8.914059,-6.292087
0.500000,1.040000,0.172332,0.040000,53012460633.102341,-1133585728408.481689,1164315960442.828613,-308717423416.248718,-21.531105,21.762695,-5.816415
0.540000,1.040000,0.132523,0.040000,59189997538.884827,-1282297203838.591797,1296062496328.844971,220074383440.845764,-24.237027,24.340765,4.146329
0.580000,1.040000,0.092879,0.040000,67409101832.006935,-1233710160810.508545,1189865599891.245361,639153695815.255615,-22.995998,22.665575,12.042026
0.620000,1.040000,0.053762,0.040000,77598261348.502518,-1100397391173.525146,976710182760.503906,1002498356843.366577,-20.033023,19.100888,18.887650
0.660000,1.040000,0.018824,0.040000,89459446744.145493,-933944821857.902100,684673024648.196045,1217492770870.894287,-16.187134,14.308564,22.938270
1.340000,1.040000,0.018824,0.040000,158485971813.146606,-21670642103.637970,-8306319628.682137,-174608833246.798950,-0.238852,0.012939,-3.289732
1.380000,1.040000,0.053762,0.040000,157708386908.016571,-22010775601.079723,11704329423.532560,-162089462463.271362,-0.356442,0.278770,-3.053859
1.420000,1.040000,0.092879,0.040000,156964527434.895538,-25885012723.694843,23372444430.334866,-144494368402.950165,-0.473487,0.454552,-2.722358
1.460000,1.040000,0.132523,0.040000,156262375116.622437,-28708458766.883797,28788072616.023609,-126696661909.270935,-0.541334,0.541934,-2.387039
1.500000,1.040000,0.172332,0.040000,155606021350.589386,-29600712469.347374,29661272073.391663,-109850508926.656372,-0.558037,0.558493,-2.069647
1.540000,1.040000,0.212213,0.040000,154996935402.462921,-29415539032.078941,29454246557.422909,-95532397600.711823,-0.554425,0.554716,-1.799886
1.580000,1.040000,0.252132,0.040000,154434854582.612793,-28542951765.325218,28566483897.776409,-83341406000.201569,-0.537899,0.538076,-1.570200
1.620000,1.040000,0.292073,0.040000,153918406083.962433,-27251107316.698246,27264173233.311047,-72930065330.542114,-0.513501,0.513599,-1.374045
1.660000,1.040000,0.332028,0.040000,153445539052.682983,-25725026209.228031,25730942735.788235,-64006065470.675194,-0.484708,0.484752,-1.205911
1.700000,1.040000,0.371993,0.040000,153013822759.454681,-24091163925.328823,24092263804.423176,-56325289546.839462,-0.453898,0.453906,-1.061201
1.740000,1.040000,0.411964,0.040000,152620650440.099854,-22434782661.469761,22432703113.327526,-49684695770.021751,-0.422673,0.422657,-0.936088
1.780000,1.040000,0.451941,0.040000,152263376783.784149,-20812230712.838436,20808117043.985592,-43915715196.548279,-0.392091,0.392060,-0.827398
1.820000,1.040000,0.491921,0.040000,151939408846.154388,-19259627222.008984,19254276488.887241,-38878431475.527336,-0.362832,0.362792,-0.732492
1.860000,1.040000,0.531905,0.040000,151646264375.060272,-17799010144.325390,17792972629.398579,-34456599683.941055,-0.335310,0.335264,-0.649182
1.900000,1.040000,0.571891,0.040000,151381607450.433868,-16442692358.238022,16436343366.862722,-30553459946.415684,-0.309754,0.309706,-0.575645
1.940000,1.040000,0.611878,0.040000,151143268453.714233,-15196350097.116535,15189940856.041187,-27088258512.423290,-0.286272,0.286224,-0.510358
1.980000,1.040000,0.651867,0.040000,150929253340.433380,-14061212832.985054,14054906644.203007,-23993376550.343708,-0.264886,0.264838,-0.452049
2.020000,1.040000,0.691858,0.040000,150737745742.438568,-13035615018.539860,13029512984.709124,-21211969662.235905,-0.245564,0.245518,-0.399646
2.060000,1.040000,0.731849,0.040000,150567104398.565643,-12116093840.362654,12110253193.388166,-18696030594.724842,-0.228241,0.228197,-0.352244
2.100000,1.040000,0.771841,0.040000,150415857681.535797,-11298163577.066038,11292610743.994072,-16404799356.527790,-0.212833,0.212791,-0.309076
2.140000,1.040000,0.811834,0.040000,150282696468.133911,-10576859449.654642,10571599362.844912,-14303456701.499022,-0.199244,0.199205,-0.269485
2.180000,1.040000,0.851828,0.040000,150166466228.595825,-9947117224.799734,9942139941.332426,-12362047659.469814,-0.187381,0.187344,-0.232908
2.220000,1.040000,0.891822,0.040000,150066158946.698517,-9404035915.042793,9399321237.064270,-10554591099.034273,-0.177151,0.177115,-0.198855
2.260000,1.040000,0.931817,0.040000,149980905293.820679,-8943056505.682062,8938576011.127924,-8858339004.354389,-0.168467,0.168433,-0.166896
2.300000,1.040000,0.971812,0.040000,149909967344.731964,-8560064312.210616,8555764552.395397,-7253153288.785756,-0.161252,0.161220,-0.136654
2.340000,1.040000,1.011808,0.040000,149852731989.942200,-8251215090.456791,8246806291.351921,-5720939166.981963,-0.155433,0.155400,-0.107786
2.380000,1.040000,1.051804,0.040000,149808704468.576691,-8014474849.207968,8015229729.069135,-4245819245.939511,-0.151002,0.151007,-0.079994
2.420000,1.040000,1.091800,0.040000,149777491272.997314,-7857405623.715250,7906054079.777808,-3182374812.185662,-0.148313,0.148680,-0.059958
2.460000,1.040000,1.131796,0.040000,149758643456.657013,-7691521353.519023,7749037640.512755,-2570011530.483756,-0.145238,0.145671,-0.048421
-2.500000,1.080000,3.172173,0.040000,-43414473847.611160,-233408893158.088928,25656237592408.828125,-208361851732.287140,-148.091808,339.684140,-3.925658
-2.460000,1.080000,3.132179,0.040000,-86831031566.264465,1569138734957.726562,17979664863345.746094,-62143021961.987282,-80.929754,228.254071,-1.170811
-2.420000,1.080000,3.092185,0.040000,-86838156718.820526,-918933244333.263184,5771232202141.609375,-19798319796.388332,-44.739273,81.307323,-0.373012
-2.380000,1.080000,3.052191,0.040000,-86850226278.093033,-52023140031.603889,158006814364.762115,-4909446948.207268,-1.579184,2.377902,-0.092497
-2.340000,1.080000,3.012198,0.040000,-86867282404.840988,3207093576.598023,-3205596332.674949,-6568582624.124574,0.060415,-0.060404,-0.123756
-2.300000,1.080000,2.972205,0.040000,-86889472468.188461,3330408370.749499,-3328785801.592955,-8304664422.863963,0.062738,-0.062725,-0.156465
-2.260000,1.080000,2.932212,0.040000,-86916993671.176575,3482244956.255262,-3480588900.503564,-10107985124.217411,0.065598,-0.065586,-0.190440
-2.220000,1.080000,2.892219,0.040000,-86950088984.066010,3662905536.718590,-3661232655.951367,-11994616135.288990,0.069002,-0.068989,-0.225986
-2.180000,1.080000,2.852226,0.040000,-86989047487.257141,3872647308.543741,-3870974648.883473,-13982299959.422647,0.072953,-0.072941,-0.263435
-2.140000,1.080000,2.812233,0.040000,-87034204765.744919,4111442301.439933,-4109797693.970423,-16090795627.818972,0.077453,-0.077440,-0.303160
-2.100000,1.080000,2.772241,0.040000,-87085942846.893463,4378770979.765021,-4377197595.407392,-18342335780.551609,0.082490,-0.082478,-0.345580
-2.060000,1.080000,2.732249,0.040000,-87144689345.623413,4673351397.492561,-4671913243.025269,-20762168317.092808,0.088041,-0.088030,-0.391171
-2.020000,1.080000,2.692257,0.040000,-87210915381.366150,4992772599.438216,-4991561905.342462,-23379197989.395027,0.094060,-0.094051,-0.440478
-1.980000,1.080000,2.652265,0.040000,-87285131677.282639,5332998071.025300,-5332145295.300196,-26226748912.751427,0.100472,-0.100466,-0.494127
-1.940000,1.080000,2.612274,0.040000,-87367882043.252289,5687693125.639628,-5687380533.613853,-29343472197.996574,0.107158,-0.107155,-0.552848
-1.900000,1.080000,2.572283,0.040000,-87459733160.967117,6047313252.193375,-6047793391.441640,-32774425764.458828,0.113938,-0.113941,-0.617489
-1.860000,1.080000,2.532292,0.040000,-87561259204.979996,6397867211.704942,-6399488098.653357,-36572355333.264397,0.120549,-0.120561,-0.689044
-1.820000,1.080000,2.492302,0.040000,-87673019310.366806,6719236673.736818,-6722476194.485021,-40799205394.703758,0.126613,-0.126637,-0.768681
-1.780000,1.080000,2.452312,0.040000,-87795525184.292862,6982890129.940701,-6988403095.293910,-45527884421.310493,0.131593,-0.131634,-0.857772
-1.740000,1.080000,2.412322,0.040000,-87929195184.341629,7148768276.028454,-7157450845.043916,-50844296036.738464,0.134736,-0.134801,-0.957936
-1.700000,1.080000,2.372332,0.040000,-88074289853.597504,7161035175.623181,-7174113064.215744,-56849620958.629173,0.134992,-0.135091,-1.071080
-1.660000,1.080000,2.332343,0.040000,-88230822077.911209,6942276862.096824,-6961425977.617750,-63662782808.755730,0.130905,-0.131049,-1.199444
-1.620000,1.080000,2.292354,0.040000,-88398432533.487000,6385577654.735386,-6413088592.586354,-71422936966.470108,0.120463,-0.120671,-1.345650
-1.580000,1.080000,2.252366,0.040000,-88576217679.869614,5343704787.490527,-5382705904.573686,-80291657110.710678,0.100899,-0.101193,-1.512741
-1.540000,1.080000,2.212378,0.040000,-88762492904.407532,3614376368.432189,-3669133493.717738,-90454212907.537125,0.068406,-0.068819,-1.704210
-1.500000,1.080000,2.172390,0.040000,-88954467130.453842,920276905.301444,-996589988.299668,-102118860828.162186,0.017770,-0.018345,-1.923979
-1.460000,1.080000,2.132403,0.040000,-89147796767.607574,-3117858515.541027,3012143092.299713,-115512292677.961121,-0.058145,0.057348,-2.176319
-1.420000,1.080000,2.092417,0.040000,-89335975765.493622,-9017072221.098949,8871426137.547703,-130868126135.998352,-0.169064,0.167966,-2.465631
-1.380000,1.080000,2.052431,0.040000,-89509504265.432236,-17478984813.759975,17279464115.534245,-148403318702.310028,-0.328186,0.326683,-2.796005
-1.340000,1.080000,2.012445,0.040000,-89654760833.113022,-29449092670.575047,29177607226.501823,-168274285856.696136,-0.553303,0.551258,-3.170385
-1.300000,1.080000,1.972460,0.040000,-89752483428.288544,-46188131228.031532,45821979841.416359,-190499885059.980865,-0.868142,0.865382,-3.589128
-1.260000,1.080000,1.932476,0.040000,-89775745384.047165,-69350171497.426697,68862420777.508041,-214831957743.828308,-1.303841,1.300165,-4.047559
-1.220000,1.080000,1.892492,0.040000,-89687302807.760513,-101051530882.553009,100413391471.117477,-240546028896.162354,-1.900263,1.895453,-4.532027
-1.180000,1.080000,1.852510,0.040000,-89436206304.959763,-143893819244.788605,143081132704.118256,-266117005250.011414,-2.706450,2.700325,-5.013799
-1.140000,1.080000,1.812527,0.040000,-88953646532.506775,-200867166328.058777,199874502331.179688,-288743521276.241516,-3.778843,3.771362,-5.440095
-1.100000,1.080000,1.772546,0.040000,-88148199996.367172,-274999636400.337524,273866950001.223419,-303705239160.255066,-5.174750,5.166214,-5.721983
-1.060000,1.080000,1.732566,0.040000,-86901054663.608734,-368537762410.360352,367394523378.845398,-303611263808.967224,-6.937003,6.928388,-5.720212
-1.020000,1.080000,1.692586,0.040000,-85062551491.954041,-481371856193.374268,480497897236.049622,-277777101325.897888,-9.064385,9.057799,-5.233482
-0.980000,1.080000,1.652607,0.040000,-82452583351.788132,-608459974087.560547,608343159774.211304,-212310007562.104462,-11.463078,11.462198,-4.000044
-0.940000,1.080000,1.612630,0.040000,-78868963801.130356,-736378831334.959106,737709173577.510254,-91971650276.184982,-13.881323,13.891349,-1.732799
-0.900000,1.080000,1.572654,0.040000,-74109188652.470062,-840152916427.894653,843642526424.983154,94772481292.508438,-15.848692,15.874990,1.785568
-0.860000,1.080000,1.532678,0.040000,-68010418226.729889,-883251782880.596313,889180937925.224609,346767902271.774658,-16.674488,16.719172,6.533308
-0.820000,1.080000,1.492705,0.040000,-60507306409.443977,-825055983923.406738,832649703191.270630,639414600613.348755,-15.587454,15.644682,12.046942
-0.780000,1.080000,1.452732,0.040000,-51695477128.327782,-638282768104.852417,645421078548.831299,919433068818.939209,-12.065964,12.119760,17.322652
-0.740000,1.080000,1.412762,0.040000,-41873174323.678673,-330999472372.183228,334915632216.299744,1115417589475.255127,-6.258357,6.287870,21.015114
-0.700000,1.080000,1.372792,0.040000,-31527274953.123291,42672877015.142960,-43716625927.805771,1167339323525.643066,0.809881,-0.817747,21.993350
-0.660000,1.080000,1.332825,0.040000,-21248131457.406147,399424890506.579956,-404652511500.552612,1060086787642.881836,7.554944,-7.594340,19.972650
-0.620000,1.080000,1.292860,0.040000,-11599998897.645498,667572896270.130615,-674250912166.979614,832601116991.436279,12.615206,-12.665533,15.686688
-0.580000,1.080000,1.252897,0.040000,-3009439162.815872,819081020886.889648,-825841003984.458862,546580296270.417114,15.470170,-15.521115,10.297890
-0.540000,1.080000,1.212937,0.040000,4280357806.705799,855156017805.878906,-863313454088.783447,245156886934.806732,16.157742,-16.219219,4.618898
-0.500000,1.080000,1.172979,0.040000,10212196058.015539,764444922176.311523,-771698852024.845093,-28030861177.098125,14.443586,-14.498253,-0.528118
-0.460000,1.080000,1.133024,0.040000,14930673054.778358,569824081509.351318,-559704326933.611084,-159732115328.949707,10.678617,-10.602353,-3.009446
-0.420000,1.080000,1.093072,0.040000,18734613087.589378,472299311091.727417,-449790183581.313721,-93655265116.801071,8.771167,-8.601533,-1.764519
-0.380000,1.080000,1.053124,0.040000,21773269500.280853,718741705851.686035,-664995877300.577271,-169900871060.028595,13.237730,-12.832689,-3.201031
-0.340000,1.080000,1.013181,0.040000,23843600509.238297,543620723455.193237,-600395108781.815918,-637364750010.698730,10.563028,-10.990893,-12.008321
-0.300000,1.080000,0.973241,0.040000,25095191820.037510,-118256002580.652542,347868913502.390991,-610288012798.912720,-3.525824,5.256240,-11.498180
-0.260000,1.080000,0.933307,0.040000,26695444087.582077,210286744055.287750,510631743595.446899,697935987719.602905,-0.112833,5.545841,13.149519
-0.220000,1.080000,0.893379,0.040000,29135539728.912567,1574913509624.474365,-1331987211151.514160,464784037032.524170,28.299222,-26.468473,8.756801
-0.180000,1.080000,0.853458,0.040000,29936803405.704212,1371057741007.663086,-1352292728579.239014,-1489762019816.771240,25.725460,-25.584042,-28.067980
-0.140000,1.080000,0.813545,0.040000,28934879387.003719,-408152508106.123962,1367103846299.288818,-1327914242015.907471,-13.109990,20.336869,-25.018674
-0.100000,1.080000,0.773640,0.040000,29593508254.196793,-315777378934.568604,1802958618695.998779,1158181754054.544922,-14.355236,25.562979,21.820816
-0.060000,1.080000,0.733746,0.040000,34059990025.369118,1042410277325.855225,-2095632318919.232666,1044324331874.127563,25.592608,-33.529934,19.675676
-0.020000,1.080000,0.693864,0.040000,34450656416.402222,1003176454404.101074,-1869400466305.589355,-1792740910441.865723,23.796475,-30.324540,-33.776278
0.020000,1.080000,0.653996,0.040000,32308615352.510303,-1039163319152.612427,1931311162746.480957,-1778972215936.168945,-24.621014,31.344447,-33.516868
0.060000,1.080000,0.614145,0.040000,32801392963.042133,-1058159915825.877441,2147992830968.034668,1113641031758.026611,-26.096271,34.309505,20.981643
0.100000,1.080000,0.574316,0.040000,37484331502.278694,342764793242.776672,-1884610408177.437744,1198618312501.991211,15.172667,-26.792373,22.582664
0.140000,1.080000,0.534511,0.040000,38199705296.806892,407960916827.523987,-1405247536740.537598,-1400711048345.405273,13.323058,-20.838841,-26.390208
0.180000,1.080000,0.494739,0.040000,37219244995.547760,-1495668689086.116455,1471030091273.302490,-1550676876496.862549,-28.040004,27.854321,-29.215651
0.220000,1.080000,0.455006,0.040000,38210283173.317757,-1703676182027.010498,1435417569538.525146,567824913237.196533,-30.582003,28.560343,10.698151
0.260000,1.080000,0.415324,0.040000,40958486627.087685,-200990929662.803070,-593183923050.354004,806953944414.204712,0.702029,-6.687115,15.203480
0.300000,1.080000,0.375710,0.040000,42732993558.879791,157127015575.958649,-409598682199.825989,-639584869278.431885,4.387378,-6.290063,-12.050150
0.340000,1.080000,0.336188,0.040000,44080165221.192001,-570566042962.074829,633888843427.178711,-665985582913.444824,-11.107706,11.584922,-12.547554
0.380000,1.080000,0.296793,0.040000,46283165525.708092,-753546424631.734375,692465900857.503296,-149600609858.141144,-13.852014,13.391697,-2.818562
0.420000,1.080000,0.257585,0.040000,49486660239.934441,-464326686880.377441,438690266445.476013,-77314774320.066788,-8.603282,8.410080,-1.456655
0.460000,1.080000,0.218665,0.040000,53444207000.442429,-567471869394.497314,555778468538.695923,-168307202186.430420,-10.625406,10.537282,-3.171005
0.500000,1.080000,0.180217,0.040000,58313278397.279427,-784746137482.855469,792680678666.600098,-37588365475.149467,-14.829920,14.889716,-0.708187
0.540000,1.080000,0.142626,0.040000,64427372541.714340,-889413377126.978638,898371053707.692017,252744927960.453064,-16.807694,16.875201,4.761861
0.580000,1.080000,0.106799,0.040000,71953250520.785507,-864092721464.763672,853308340575.637329,558189982895.908203,-16.219053,16.137779,10.516623
0.620000,1.080000,0.075300,0.040000,80836681052.570038,-753975886065.250366,655014473246.812134,791990937333.126831,-13.645996,12.900200,14.921568
0.660000,1.080000,0.055983,0.040000,90820727803.010193,-588068162333.042358,359094425410.237610,930790177876.324463,-9.785346,8.059747,17.536627
0.700000,1.080000,0.022609,0.040000,101449329980.559723,-347327716071.113953,123398367258.496582,1005540837476.289307,-5.278168,3.590584,18.944972
1.300000,1.080000,0.022609,0.040000,156409468262.687622,24128951974.356621,-46155577045.127747,-186013290446.485870,0.579102,-0.745100,-3.504598
1.340000,1.080000,0.055983,0.040000,155940739823.520355,8125246541.023106,-26071563293.011711,-170180955484.689484,0.254520,-0.389768,-3.206308
1.380000,1.080000,0.075300,0.040000,155448672133.531433,47686071.122326,-6104458046.019189,-156444934199.283630,0.035132,-0.080778,-2.947513
1.420000,1.080000,0.106799,0.040000,154952656151.537628,-6373683696.949924,5612743709.793624,-140529759556.795746,-0.115783,0.110048,-2.647662
1.460000,1.080000,0.142626,0.040000,154465872598.549438,-11303022777.407263,11417226186.383959,-123740783044.290314,-0.213601,0.214462,-2.331348
1.500000,1.080000,0.180217,0.040000,153996998744.845886,-14671932857.973003,14753130348.019390,-108401834098.138489,-0.276887,0.277499,-2.042353
1.540000,1.080000,0.218665,0.040000,153551475398.513458,-16609770469.422857,16666815325.434231,-95117853684.070129,-0.313260,0.313690,-1.792076
1.580000,1.080000,0.257585,0.040000,153132440110.266571,-17541494913.510406,17580942583.292179,-83618049718.733856,-0.330715,0.331012,-1.575413
1.620000,1.080000,0.296793,0.040000,152741410614.015228,-17776853108.157337,17803531859.826038,-73654062878.546921,-0.335077,0.335278,-1.387685
1.660000,1.080000,0.336188,0.040000,152378783061.720490,-17540677774.001980,17558131658.444691,-65004967279.535492,-0.330575,0.330707,-1.224731
1.700000,1.080000,0.375710,0.040000,152044193720.835968,-16995445851.994453,17006270367.026453,-57477968979.962654,-0.320265,0.320347,-1.082918
1.740000,1.080000,0.415324,0.040000,151736780389.989990,-16257955319.598688,16264048021.310034,-50906870654.197678,-0.306344,0.306390,-0.959115
1.780000,1.080000,0.455006,0.040000,151455370345.075439,-15411602692.325989,15414348608.930737,-45149508949.699280,-0.290379,0.290400,-0.850643
1.820000,1.080000,0.494739,0.040000,151198614559.159180,-14515401850.320478,14515809925.439613,-40084846820.913330,-0.273481,0.273484,-0.755222
1.860000,1.080000,0.534511,0.040000,150965082701.161926,-13610603052.352713,13609406263.566944,-35610089330.877724,-0.256425,0.256416,-0.670915
1.900000,1.080000,0.574316,0.040000,150753329559.312775,-12725550227.056503,12723278963.073870,-31638006934.285820,-0.239744,0.239727,-0.596078
1.940000,1.080000,0.614145,0.040000,150561940701.998688,-11879246765.315977,11876282601.127426,-28094544310.063389,-0.223795,0.223773,-0.529318
1.980000,1.080000,0.653996,0.040000,150389563111.312775,-11083974715.660175,11080589849.165085,-24916733978.650803,-0.208809,0.208784,-0.469446
2.020000,1.080000,0.693864,0.040000,150234925001.996307,-10347219776.073414,10343605980.839907,-22050902976.218628,-0.194927,0.194900,-0.415452
2.060000,1.080000,0.733746,0.040000,150096847921.831818,-9673086646.110008,9669376555.717560,-19451146085.056149,-0.182226,0.182198,-0.366471
2.100000,1.080000,0.773640,0.040000,149974253409.811401,-9063339758.208164,9059622533.669518,-17078033510.679766,-0.170738,0.170710,-0.321760
2.140000,1.080000,0.813545,0.040000,149866165885.858551,-8518168270.815219,8514501149.089331,-14897520270.486450,-0.160467,0.160439,-0.280678
2.180000,1.080000,0.853458,0.040000,149771713002.415710,-8036747859.500405,8033164676.255513,-12880026462.412746,-0.151397,0.151370,-0.242667
2.220000,1.080000,0.893379,0.040000,149690124361.398132,-7617652646.127106,7614170189.098292,-10999660609.034637,-0.143501,0.143475,-0.207240
2.260000,1.080000,0.933307,0.040000,149620729259.028168,-7259157349.946089,7255781053.573752,-9233561759.868950,-0.136748,0.136722,-0.173966
2.300000,1.080000,0.973241,0.040000,149562953944.781677,-6959472226.841560,6956215138.997986,-7561341697.951675,-0.131102,0.131078,-0.142460
2.340000,1.080000,1.013181,0.040000,149516318780.774902,-6717100277.467629,6714139958.624543,-5964647582.437772,-0.126537,0.126515,-0.112377
2.380000,1.080000,1.053124,0.040000,149480436132.779053,-6531920397.941187,6528535313.506222,-4428332233.882741,-0.123046,0.123021,-0.083432
2.420000,1.080000,1.093072,0.040000,149455017987.132111,-6411568612.232837,6432179944.698925,-3316682520.820936,-0.120914,0.121070,-0.062488
2.460000,1.080000,1.133024,0.040000,149439991875.114258,-6381137084.666331,6465865041.941872,-2678011014.663540,-0.120703,0.121342,-0.050455
-2.500000,1.120000,3.173115,0.040000,-43183029296.140495,-3718997360877.732422,23342698788427.558594,-2709176156258.090820,-180.984640,328.873404,-51.042449
-2.460000,1.120000,3.133133,0.040000,-86366918766.604675,253035655162.724243,17282715859824.091797,-1475079955561.549316,-94.347779,226.501269,-27.791361
-2.420000,1.120000,3.093152,0.040000,-86370248268.714539,-1060874821258.382080,5588182845733.900391,-305289280985.592651,-45.576629,79.695472,-5.751827
-2.380000,1.120000,3.053171,0.040000,-86375786027.011810,-53404582262.013710,158821636762.947968,-4970408492.621547,-1.602009,2.396456,-0.093645
-2.340000,1.120000,3.013190,0.040000,-86383621863.969589,1487287015.693607,-1486446955.507700,-6651669285.653342,0.028017,-0.028010,-0.125321
-2.300000,1.120000,2.973210,0.040000,-86393838490.002335,1551145222.645833,-1550389861.357355,-8408652725.324842,0.029220,-0.029215,-0.158424
-2.260000,1.120000,2.933231,0.040000,-86406538085.397675,1627974921.084141,-1627278424.444514,-10232586139.462271,0.030668,-0.030663,-0.192788
-2.220000,1.120000,2.893252,0.040000,-86421843495.592575,1716860221.834572,-1716246618.358051,-12139400998.416372,0.032343,-0.032339,-0.228713
-2.180000,1.120000,2.853274,0.040000,-86439896810.090714,1816344340.146651,-1815852575.838399,-14146447345.337975,0.034218,-0.034214,-0.266527
-2.140000,1.120000,2.813296,0.040000,-86460857016.359695,1924277059.097463,-1923961305.710587,-16272885310.855101,0.036253,-0.036250,-0.306591
-2.100000,1.120000,2.773319,0.040000,-86484896536.621964,2037555091.172097,-2037489354.271402,-18540080609.048294,0.038388,-0.038388,-0.349306
-2.060000,1.120000,2.733343,0.040000,-86512196232.270004,2151774307.125873,-2152058753.256059,-20972056452.620235,0.040542,-0.040544,-0.395126
-2.020000,1.120000,2.693367,0.040000,-86542938317.227829,2260770395.310038,-2261539697.007013,-23596015290.353252,0.042599,-0.042604,-0.444563
-1.980000,1.120000,2.653393,0.040000,-86577296442.245209,2356012908.143115,-2357447261.171405,-26442941339.311016,0.044397,-0.044408,-0.498200
-1.940000,1.120000,2.613418,0.040000,-86615421976.511047,2425805770.776816,-2428145469.322751,-29548294160.973877,0.045717,-0.045734,-0.556707
-1.900000,1.120000,2.573445,0.040000,-86657425201.950577,2454231732.631043,-2457796483.527845,-32952801428.668850,0.046259,-0.046286,-0.620850
-1.860000,1.120000,2.533473,0.040000,-86703349724.076248,2419757513.151745,-2424972055.947284,-36703354281.681816,0.045619,-0.045658,-0.691512
-1.820000,1.120000,2.493501,0.040000,-86753137857.977234,2293388898.208793,-2300816999.261930,-40853999443.642769,0.043251,-0.043307,-0.769713
-1.780000,1.120000,2.453530,0.040000,-86806584024.787827,2036228771.890067,-2046618302.947388,-45467005730.727997,0.038422,-0.038501,-0.856625
-1.740000,1.120000,2.413561,0.040000,-86863272234.544571,1596243646.596965,-1610586247.905340,-50613954172.791557,0.030155,-0.030263,-0.953596
-1.700000,1.120000,2.373592,0.040000,-86922492459.600128,903983097.813518,-923592859.404467,-56376753660.460686,0.017142,-0.017290,-1.062171
-1.660000,1.120000,2.333625,0.040000,-86983129020.677826,-133080671.470079,106464075.330492,-62848406875.588257,-0.002357,0.002156,-1.184100
-1.620000,1.120000,2.293658,0.040000,-87043511891.637024,-1638020038.430284,1602097450.510051,-70133227474.770660,-0.030658,0.030387,-1.321351
-1.580000,1.120000,2.253693,0.040000,-87101218928.711258,-3774261156.106803,3726002653.856312,-78346013641.730209,-0.070837,0.070473,-1.476084
-1.540000,1.120000,2.213729,0.040000,-87152813273.005783,-6758381924.956253,6693812701.284917,-87609377346.354370,-0.126967,0.126480,-1.650611
-1.500000,1.120000,2.173766,0.040000,-87193495385.273544,-10876632742.580242,10790575108.870033,-98047958037.639877,-0.204436,0.203787,-1.847280
-1.460000,1.120000,2.133805,0.040000,-87216643215.032394,-16505917108.075665,16391698521.932661,-109777537550.060638,-0.310335,0.309475,-2.068272
-1.420000,1.120000,2.093845,0.040000,-87213206887.335876,-24139768868.075871,23988929246.743141,-122886020068.237778,-0.453955,0.452818,-2.315244
-1.380000,1.120000,2.053887,0.040000,-87170916349.846664,-34419234634.816719,34221312052.545826,-137401733114.650665,-0.647360,0.645868,-2.588728
-1.340000,1.120000,2.013930,0.040000,-87073252700.382980,-48167110692.926079,47909669143.754417,-153242450412.275543,-0.906041,0.904101,-2.887177
-1.300000,1.120000,1.973976,0.040000,-86898128805.020828,-66421006946.768227,66090217223.170403,-170135962596.927185,-1.249541,1.247048,-3.205460
-1.260000,1.120000,1.934023,0.040000,-86616227176.912582,-90455121406.755981,90037446317.611603,-187500301523.955688,-1.701866,1.698718,-3.532614
-1.220000,1.120000,1.894072,0.040000,-86188961995.706650,-121770831110.342102,121256722113.270218,-204270050410.752075,-2.291327,2.287453,-3.848566
-1.180000,1.120000,1.854123,0.040000,-85566083413.903030,-162020375593.014221,161411332911.350159,-218657428024.900604,-3.049115,3.044525,-4.119633
-1.140000,1.120000,1.814176,0.040000,-84683051352.068710,-212804865894.728363,212125567813.299255,-227848983488.910675,-4.005528,4.000408,-4.292807
-1.100000,1.120000,1.774232,0.040000,-83458509502.627792,-275259982867.712280,274576908701.908600,-227671452547.683167,-5.182197,5.177049,-4.289462
-1.060000,1.120000,1.734290,0.040000,-81792531797.131882,-349322280231.931702,348768122717.828674,-212329268834.698792,-6.578302,6.574126,-4.000407
-1.020000,1.120000,1.694352,0.040000,-79566823061.136475,-432588887581.023560,432386045039.641113,-174436243000.650879,-8.149079,8.147550,-3.286480
-0.980000,1.120000,1.654416,0.040000,-76648695629.469070,-518808416835.889771,519273074131.685181,-105727400154.042572,-9.777278,9.780779,-1.991966
-0.940000,1.120000,1.614483,0.040000,-72901206592.042877,-596359821185.232788,597852755990.986328,1035199047.805344,-11.244203,11.255454,0.019504
-0.900000,1.120000,1.574554,0.040000,-68201811853.110771,-647628340606.569702,650413949108.515503,148573845886.106354,-12.217438,12.238431,2.799217
-0.860000,1.120000,1.534628,0.040000,-62470405124.249626,-650774199283.917969,654786466538.599854,330363432630.838684,-12.283641,12.313879,6.224239
-0.820000,1.120000,1.494706,0.040000,-55703779554.562195,-585341124387.840698,589958398485.760132,526524669718.999390,-11.054264,11.089061,9.920030
-0.780000,1.120000,1.454789,0.040000,-48007543168.270195,-441475667757.181702,445522365870.631287,703881531510.537842,-8.340530,8.371027,13.261536
-0.740000,1.120000,1.414876,0.040000,-39611049721.519569,-229046860544.181763,231205419238.475494,823531031100.106567,-4.327576,4.343844,15.515802
-0.700000,1.120000,1.374969,0.040000,-30851358456.487907,20011045009.520283,-20497872620.061264,855185579059.692627,0.379771,-0.383440,16.112192
-0.660000,1.120000,1.335067,0.040000,-22122945869.149582,260913317983.730316,-263765066043.307343,790927528064.057129,4.931877,-4.953368,14.901533
-0.620000,1.120000,1.295171,0.040000,-13807624761.095249,453184988358.006165,-457391827479.592468,648150401462.932129,8.562046,-8.593749,12.211529
-0.580000,1.120000,1.255281,0.040000,-6211015588.603370,573450898444.857666,-578154899375.349976,458821905009.647156,10.830735,-10.866186,8.644471
-0.540000,1.120000,1.215399,0.040000,474912961.854479,614634562182.732422,-619143533318.917236,257105942911.781586,11.605557,-11.639538,4.844025
-0.500000,1.120000,1.175525,0.040000,6183841661.158457,581995512296.816772,-584342552912.380737,80036883298.267639,10.978399,-10.996087,1.507941
-0.460000,1.120000,1.135660,0.040000,10965759387.817236,506902563857.974915,-504938151224.721313,-35544485990.306915,9.539235,-9.524431,-0.669679
-0.420000,1.120000,1.095804,0.040000,14935657851.207386,449478164807.481812,-448491627601.669800,-99418216146.726852,8.462853,-8.455418,-1.873097
-0.380000,1.120000,1.055960,0.040000,18181372628.415905,422575294380.113403,-428579552441.257324,-194578143550.049316,7.995501,-8.040750,-3.665965
-0.340000,1.120000,1.016127,0.040000,20759121413.675262,303958690680.387085,-312255931337.022644,-328059084223.503540,5.773655,-5.836185,-6.180823
-0.300000,1.120000,0.976309,0.040000,22861949732.061905,74895033519.212906,-55692265857.665550,-293744511300.503845,1.302528,-1.157812,-5.534317
-0.260000,1.120000,0.936505,0.040000,24834088310.443481,52546986057.099701,-29262063720.942818,-25282468348.569843,0.858405,-0.682925,-0.476336
-0.220000,1.120000,0.896720,0.040000,26691459324.701942,432530610952.227478,-417058652777.382263,-79387034778.053024,8.061677,-7.945077,-1.495698
-0.180000,1.120000,0.856954,0.040000,27993409954.036400,281532874057.150208,-335525001754.019165,-554970216469.614990,5.609415,-6.016313,-10.455961
-0.140000,1.120000,0.817211,0.040000,28868770501.800625,-341764611995.574829,378746927090.527832,-541978277714.130737,-6.648074,6.926781,-10.211185
-0.100000,1.120000,0.777495,0.040000,30224694035.691254,-317310741655.328735,451889776339.952820,338432531448.798157,-6.738982,7.753201,6.376265
-0.060000,1.120000,0.737809,0.040000,32126208961.354534,591468205166.833496,-633849771941.347778,281612445206.227722,11.383152,-11.702549,5.305742
-0.020000,1.120000,0.698159,0.040000,33256250935.456078,474837629634.422913,-514492749894.307312,-756673221376.988770,9.170354,-9.469204,-14.256162
0.020000,1.120000,0.658552,0.040000,33739881257.158878,-516126540970.132141,554995831323.336914,-747600387450.887085,-9.943819,10.236747,-14.085225
0.060000,1.120000,0.618995,0.040000,34932228381.842216,-616908773282.861694,659614992340.935059,315846347649.543274,-11.864302,12.186146,5.950728
0.100000,1.120000,0.579498,0.040000,36932000400.877518,325650505357.939331,-465856540338.989319,360717681345.285095,6.927913,-7.984538,6.796130
0.140000,1.120000,0.540076,0.040000,38372486718.221680,340052992519.117615,-378257871291.275574,-555828397556.070801,6.622736,-6.910657,-10.472129
0.180000,1.120000,0.500746,0.040000,39337619449.153008,-315662468803.340149,373385834567.873169,-555062570414.067993,-6.273526,6.708543,-10.457701
0.220000,1.120000,0.461530,0.040000,40781860539.595345,-462749210724.482666,444962077163.111877,-40521117021.968056,-8.617927,8.483879,-0.763441
0.260000,1.120000,0.422462,0.040000,42816963566.173897,-36770245579.142555,10904603294.786995,9613242256.989033,-0.546576,0.351646,0.181119
0.300000,1.120000,0.383586,0.040000,44945068818.111748,-58079199806.144180,37022808994.427773,-291505329130.975281,-0.975231,0.816546,-5.492129
0.340000,1.120000,0.344967,0.040000,47177995472.655174,-306148200211.801392,315457192147.274292,-331787499831.102478,-5.820626,5.890780,-6.251069
0.380000,1.120000,0.306702,0.040000,49887876855.227150,-429598084744.447021,436210090555.433411,-188387589249.134552,-8.131249,8.181079,-3.549331
0.420000,1.120000,0.268942,0.040000,53276104628.754555,-451940703387.087646,450654703700.788391,-91565979834.201096,-8.507556,8.497865,-1.725156
0.460000,1.120000,0.231935,0.040000,57393366207.279442,-511739165433.468689,509325922551.963562,-32160536415.302589,-9.627822,9.609636,-0.605923
0.500000,1.120000,0.196107,0.040000,62330807978.823593,-594866149134.667847,597312159828.917480,84442458613.854401,-11.221448,11.239882,1.590945
0.540000,1.120000,0.162240,0.040000,68215628546.190300,-633621865535.331177,638508150769.135254,270244165806.889160,-11.965421,12.002246,5.091557
0.580000,1.120000,0.131855,0.040000,75107304606.134186,-592542958164.126099,597651789658.405273,484518021055.599731,-11.192729,11.231230,9.128600
0.620000,1.120000,0.107934,0.040000,82939627226.899933,-472725526679.293457,463226872167.244019,672768600214.034302,-8.852735,8.781151,12.675350
0.660000,1.120000,0.076334,0.040000,91510050737.371811,-311908050534.834106,249700194513.749939,780344254464.385498,-5.524919,5.056106,14.702138
0.700000,1.120000,0.049500,0.040000,100492721000.072189,-160231632219.489502,29107969061.081112,802018174076.147095,-2.277723,1.289545,15.110487
0.740000,1.120000,0.033311,0.040000,109479116359.287323,6159227181.169391,-122839409456.005997,771556548885.851929,0.775540,-1.654869,14.536573
1.260000,1.120000,0.033311,0.040000,153662574106.137238,64395459631.957855,-86713642639.862076,-184269635242.885681,1.339394,-1.507589,-3.471747
1.300000,1.120000,0.049500,0.040000,153584650656.980499,45742649719.227325,-63881405933.277756,-173808164480.623016,0.964341,-1.101039,-3.274647
1.340000,1.120000,0.076334,0.040000,153417452754.247894,33292880106.922798,-39605225550.066193,-163351544774.612640,0.662936,-0.710507,-3.077638
1.380000,1.120000,0.107934,0.040000,153191886283.408539,21441639519.611691,-22316624143.350994,-149552758327.327820,0.408918,-0.415513,-2.817661
1.420000,1.120000,0.131855,0.040000,152930813969.397247,11598474719.579693,-11432359000.615955,-133659243917.627579,0.217583,-0.216331,-2.518218
1.460000,1.120000,0.162240,0.040000,152650930130.586578,4129213355.350604,-4004385054.472862,-118440216615.770660,0.077091,-0.076150,-2.231482
1.500000,1.120000,0.196107,0.040000,152364248596.140259,-1148660500.913203,1241760863.306968,-104900158790.172699,-0.022168,0.022869,-1.976380
1.540000,1.120000,0.231935,0.040000,152079262433.000183,-4791187970.158132,4860109492.461308,-92923077190.130386,-0.090658,0.091178,-1.750725
1.580000,1.120000,0.268942,0.040000,151801836647.266144,-7222465142.237491,7273073294.467661,-82363561406.424896,-0.136361,0.136743,-1.551777
1.620000,1.120000,0.306702,0.040000,151535889292.033691,-8763901245.902861,8800704089.745256,-73067915795.697937,-0.165325,0.165602,-1.376642
1.660000,1.120000,0.344967,0.040000,151283907787.485718,-9657893255.925478,9684330212.545420,-64886230609.823906,-0.182110,0.182309,-1.222494
1.700000,1.120000,0.383586,0.040000,151047338385.220947,-10086508601.208780,10105190648.636791,-57678762201.938881,-0.190141,0.190282,-1.086701
1.740000,1.120000,0.422462,0.040000,150826878740.810272,-10185991875.116255,10198894190.675884,-51318828446.973442,-0.191983,0.192080,-0.966876
1.780000,1.120000,0.461530,0.040000,150622696876.628479,-10057910397.209717,10066523379.082029,-45693637217.869301,-0.189546,0.189610,-0.860895
1.820000,1.120000,0.500746,0.040000,150434594430.750275,-9777658642.119457,9783104582.022200,-40703943552.917419,-0.184248,0.184289,-0.766886
1.860000,1.120000,0.540076,0.040000,150262127851.150787,-9400919074.377268,9404041441.901026,-36263090978.992760,-0.177136,0.177160,-0.683218
1.900000,1.120000,0.579498,0.040000,150104697914.241760,-8968557461.625229,8969988817.378044,-32295773915.889732,-0.168981,0.168992,-0.608471
1.940000,1.120000,0.618995,0.040000,149961615432.840607,-8510326544.976519,8510540008.586798,-28736719472.420750,-0.160341,0.160342,-0.541416
1.980000,1.120000,0.658552,0.040000,149832149104.567078,-8047666218.742163,8047014392.429711,-25529400189.018250,-0.151619,0.151614,-0.480989
2.020000,1.120000,0.698159,0.040000,149715560000.121765,-7595820210.568873,7594564590.800558,-22624835823.740456,-0.143103,0.143093,-0.426265
2.060000,1.120000,0.737809,0.040000,149611126092.687958,-7165436215.427449,7163769414.853795,-19980509996.249031,-0.134992,0.134979,-0.376444
2.100000,1.120000,0.777495,0.040000,149518159399.670441,-6763775720.307885,6761838265.808142,-17559408553.521420,-0.127423,0.127408,-0.330829
2.140000,1.120000,0.817211,0.040000,149436017680.789703,-6395628774.482047,6393521817.686226,-15329175865.473148,-0.120485,0.120470,-0.288811
2.180000,1.120000,0.856954,0.040000,149364112162.423859,-6064005509.040956,6061800453.491611,-13261379686.778994,-0.114237,0.114220,-0.249852
2.220000,1.120000,0.896720,0.040000,149301912399.338531,-5770658471.121596,5768404235.936278,-11330872691.814669,-0.108710,0.108693,-0.213480
2.260000,1.120000,0.936505,0.040000,149248949113.091888,-5516475869.561053,5514203652.925662,-9515237893.908596,-0.103921,0.103904,-0.179273
2.300000,1.120000,0.976309,0.040000,149204815638.767609,-5301765925.097654,5299481517.202632,-7794302899.696196,-0.099875,0.099858,-0.146849
2.340000,1.120000,1.016127,0.040000,149169168430.491180,-5126319744.426939,5123873804.003419,-6149672069.769698,-0.096569,0.096551,-0.115863
2.380000,1.120000,1.055960,0.040000,149141726541.293610,-4990440765.527802,4991026222.409557,-4565023002.909838,-0.094026,0.094031,-0.086008
2.420000,1.120000,1.095804,0.040000,149122263578.745239,-4899605345.611646,4928264091.964689,-3422120845.580716,-0.092473,0.092689,-0.064475
2.460000,1.120000,1.135660,0.040000,149110511764.951202,-4800554029.813367,4832853262.752813,-2763859283.969607,-0.090628,0.090871,-0.052073
-2.500000,1.160000,3.174561,0.040000,-42950487606.067848,-6212441750513.083984,21648690533946.027344,-6702471338230.493164,-204.294367,320.625517,-126.278446
-2.460000,1.160000,3.134598,0.040000,-85900760986.926193,-40698848479.102852,12852172500255.593750,-3892632700828.384766,-73.179467,169.729703,-73.339457
-2.420000,1.160000,3.094635,0.040000,-85900112782.325378,-888430182298.223511,4113361590929.509277,-1265425328526.657959,-34.966413,59.270244,-23.841347
-2.380000,1.160000,3.054674,0.040000,-85899049522.950623,-53550230574.922447,154600405688.020660,-7200380690.608821,-1.580071,2.341608,-0.135659
-2.340000,1.160000,3.014713,0.040000,-85897584055.605530,-245951219.333924,245940261.058092,-6682875899.907551,-0.004634,0.004634,-0.125909
-2.300000,1.160000,2.974754,0.040000,-85895725019.454193,-241184064.450488,241073588.574233,-8445842540.167060,-0.004543,0.004543,-0.159125
-2.260000,1.160000,2.934795,0.040000,-85893479914.793900,-238434310.009255,238197545.653423,-10274546859.472805,-0.004491,0.004489,-0.193578
-2.220000,1.160000,2.894838,0.040000,-85890852949.503952,-239897281.606462,239490133.540616,-12184255084.183228,-0.004518,0.004514,-0.229558
-2.180000,1.160000,2.854882,0.040000,-85887841522.169540,-248563720.324976,247927976.818619,-14191569085.635323,-0.004679,0.004675,-0.267377
-2.140000,1.160000,2.814927,0.040000,-85884431416.719269,-268447251.146980,267507113.595690,-16314658636.221689,-0.005052,0.005045,-0.307378
-2.100000,1.160000,2.774974,0.040000,-85880590353.820450,-304891329.877308,303548213.089465,-18573572518.187069,-0.005737,0.005727,-0.349937
-2.060000,1.160000,2.735022,0.040000,-85876259406.521576,-364968711.525446,363094525.469199,-20990589350.314919,-0.006866,0.006852,-0.395475
-2.020000,1.160000,2.695071,0.040000,-85871341638.740143,-457998826.730034,455427327.973638,-23590608493.545673,-0.008614,0.008595,-0.444461
-1.980000,1.160000,2.655122,0.040000,-85865687135.847153,-596216843.155827,592732479.503796,-26401582119.041832,-0.011213,0.011187,-0.497421
-1.940000,1.160000,2.615174,0.040000,-85859073353.017792,-795638364.530932,790961869.121746,-29454986156.331253,-0.014964,0.014929,-0.554949
-1.900000,1.160000,2.575228,0.040000,-85851179392.863876,-1077176742.310526,1070946527.799445,-32786321904.059299,-0.020259,0.020212,-0.617713
-1.860000,1.160000,2.535284,0.040000,-85841552418.232651,-1468086588.334844,1459834739.625814,-36435630389.209358,-0.027613,0.027551,-0.686468
-1.820000,1.160000,2.495341,0.040000,-85829563882.306900,-2003828056.850816,1992949426.085829,-40447986104.287621,-0.037692,0.037610,-0.762064
-1.780000,1.160000,2.455400,0.040000,-85814352582.632050,-2730472548.961510,2716185130.276825,-44873912540.976692,-0.051363,0.051255,-0.845451
-1.740000,1.160000,2.415462,0.040000,-85794750676.657516,-3707802146.050286,3689096591.108579,-49769624534.521782,-0.069751,0.069610,-0.937689
-1.700000,1.160000,2.375525,0.040000,-85769187683.182632,-5013292044.196914,4988867957.976694,-55196945320.811096,-0.094315,0.094131,-1.039942
-1.660000,1.160000,2.335591,0.040000,-85735566077.751556,-6747205699.047615,6715392398.532013,-61222659946.694588,-0.126941,0.126702,-1.153470
-1.620000,1.160000,2.295658,0.040000,-85691100306.289505,-9039071313.718971,8997731370.807228,-67916937819.434944,-0.170068,0.169756,-1.279594
-1.580000,1.160000,2.255729,0.040000,-85632108828.753494,-12055834850.277353,12002250553.204222,-75350267070.550217,-0.226836,0.226432,-1.419643
-1.540000,1.160000,2.215801,0.040000,-85553746122.686218,-16011977465.775976,15942724352.102291,-83588067122.670227,-0.301284,0.300762,-1.574848
-1.500000,1.160000,2.175877,0.040000,-85449658440.386032,-21181804359.264118,21092623923.316586,-92681752162.759232,-0.398573,0.397901,-1.746178
-1.460000,1.160000,2.135955,0.040000,-85311543658.531433,-27913886826.380905,27799585200.482178,-102654472433.641434,-0.525268,0.524406,-1.934070
-1.420000,1.160000,2.096036,0.040000,-85128592156.261795,-36647149474.025459,36501574689.719810,-113479033721.061722,-0.689631,0.688534,-2.138011
-1.380000,1.160000,2.056120,0.040000,-84886783107.720078,-47927143420.993462,47743337071.267616,-125044589419.637589,-0.901936,0.900551,-2.355913
-1.340000,1.160000,2.016208,0.040000,-84568010426.191284,-62419329107.541580,62190016900.257607,-137107697182.634521,-1.174720,1.172992,-2.583188
-1.300000,1.160000,1.976299,0.040000,-84149017634.869781,-80913270730.247482,80631958270.302597,-149222500917.360962,-1.522863,1.520743,-2.811438
-1.260000,1.160000,1.936394,0.040000,-83600135887.020584,-104306963128.252548,103970039001.587494,-160644776759.181061,-1.963299,1.960760,-3.026641
-1.220000,1.160000,1.896493,0.040000,-82883851752.375534,-133553543074.157486,133163938002.838120,-170206679521.518585,-2.514024,2.511088,-3.206793
-1.180000,1.160000,1.856597,0.040000,-81953292383.936630,-169543324719.240753,169116352187.729706,-176165640504.371887,-3.191881,3.188663,-3.319063
-1.140000,1.160000,1.816704,0.040000,-80750820056.757401,-212883904839.637421,212455716997.776306,-176045847180.237183,-4.008436,4.005209,-3.316806
-1.100000,1.160000,1.776817,0.040000,-79207091713.191437,-263534998914.721100,263173244295.799316,-166519151340.750946,-4.963107,4.960381,-3.137317
-1.060000,1.160000,1.736935,0.040000,-77241170801.134415,-320264272262.080444,320078451478.273071,-143418236047.444824,-6.032914,6.031514,-2.702083
-1.020000,1.160000,1.697058,0.040000,-74762561182.910751,-379936665276.813904,380081827050.979187,-102035123591.837860,-7.159048,7.160141,-1.922401
-0.980000,1.160000,1.657188,0.040000,-71676289811.783707,-436760463233.964417,437422752122.638977,-37908596464.550171,-8.232564,8.237555,-0.714220
-0.940000,1.160000,1.617323,0.040000,-67892217464.852699,-481805147338.384033,483154659739.628479,51717762339.109451,-9.085116,9.095286,0.974393
-0.900000,1.160000,1.577466,0.040000,-63339301487.915779,-503337333721.430542,505440606805.312500,165784670095.662872,-9.495055,9.510906,3.123479
-0.860000,1.160000,1.537616,0.040000,-57984215110.755806,-488625624999.097961,491336159139.684875,297141515744.123047,-9.221310,9.241738,5.598318
-0.820000,1.160000,1.497774,0.040000,-51851403504.512352,-427540514005.378723,430428159984.348633,431256733672.486694,-8.071433,8.093195,8.125127
-0.780000,1.160000,1.457941,0.040000,-45038870402.603699,-317278206757.915405,319683951435.721558,547467432241.456665,-5.991303,6.009433,10.314604
-0.740000,1.160000,1.418117,0.040000,-37722317346.433372,-166142572992.393951,167400201319.099884,623705153417.542480,-3.137331,3.146809,11.750967
-0.700000,1.160000,1.378303,0.040000,-30141834674.621258,6350263945.400226,-6612430052.988338,643635980585.131714,0.121124,-0.123100,12.126475
-0.660000,1.160000,1.338500,0.040000,-22571111009.291531,174377789911.485382,-176060834504.761383,602809196732.278198,3.294892,-3.307575,11.357275
-0.620000,1.160000,1.298710,0.040000,-15276840357.440100,313727820701.442627,-316364510162.741699,510078800938.403259,5.925717,-5.945588,9.610180
-0.580000,1.160000,1.258932,0.040000,-8480575460.253375,408225389349.608948,-411225372684.886902,383743425270.789124,7.708159,-7.730768,7.229949
-0.540000,1.160000,1.219170,0.040000,-2333025879.941256,452003242482.111633,-454697100545.525330,246115898610.495117,8.531229,-8.551531,4.636966
-0.500000,1.160000,1.179423,0.040000,3095361055.198622,450067966436.082031,-451674506309.270691,119367522975.237320,8.488622,-8.500729,2.248953
-0.460000,1.160000,1.139694,0.040000,7806309134.198656,418984330251.988098,-419387184715.680176,18441270617.327808,7.896185,-7.899221,0.347444
-0.420000,1.160000,1.099985,0.040000,11847638127.568600,378570432560.259277,-379275644621.997192,-60326915890.144615,7.136472,-7.141787,-1.136594
-0.380000,1.160000,1.060297,0.040000,15283526713.900284,329458860138.841187,-331361978281.781128,-132577086721.529129,6.217953,-6.232295,-2.497829
-0.340000,1.160000,1.020634,0.040000,18194865749.710411,252060812210.553741,-252199720534.250946,-186793113720.006409,4.749757,-4.750804,-3.519291
-0.300000,1.160000,0.980999,0.040000,20704736596.861820,166037220000.688843,-161153444900.499939,-180896623456.789490,3.100634,-3.063828,-3.408197
-0.260000,1.160000,0.941394,0.040000,22943920548.906223,143600185625.232178,-142556616894.948212,-138171231755.443207,2.699612,-2.691748,-2.603226
-0.220000,1.160000,0.901824,0.040000,24942794985.041698,184291840723.450073,-188896302536.804626,-173999062965.895691,3.498190,-3.532891,-3.278243
-0.180000,1.160000,0.862294,0.040000,26661176392.446178,114586793489.860886,-120211162099.773804,-272102146708.314484,2.190672,-2.233058,-5.126562
-0.140000,1.160000,0.822809,0.040000,28205751916.566319,-42769521987.493027,55166721498.255936,-233932088805.460938,-0.875874,0.969302,-4.407416
-0.100000,1.160000,0.783376,0.040000,29808853057.125282,-59830048817.173325,59581036469.523254,-59975618693.919739,-1.125825,1.123949,-1.129975
-0.060000,1.160000,0.744004,0.040000,31463452318.054382,154847362098.702759,-154112239423.090698,-79147296674.532104,2.913259,-2.907719,-1.491181
-0.020000,1.160000,0.704703,0.040000,32924941261.498169,97325058862.325638,-111220253955.708084,-282367531244.508728,1.912199,-2.016916,-5.319968
0.020000,1.160000,0.665485,0.040000,34243580944.006443,-121290396718.078293,135771889361.929092,-276806378215.203552,-2.367033,2.476169,-5.215193
0.060000,1.160000,0.626366,0.040000,35742995243.063705,-172143175084.505676,170957144037.919281,-65753206332.040329,-3.236574,3.227635,-1.238829
0.100000,1.160000,0.587365,0.040000,37461736930.344002,53065939339.983559,-53103774348.522545,-49110993051.619629,1.000007,-1.000292,-0.925280
0.140000,1.160000,0.548509,0.040000,39141789213.355743,33706847452.736141,-46422702565.733620,-229336377425.138397,0.706929,-0.802758,-4.320830
0.180000,1.160000,0.509829,0.040000,40778113466.624100,-129655323825.580750,135930787130.688828,-263249454315.816681,-2.478251,2.525545,-4.959772
0.220000,1.160000,0.471370,0.040000,42611375250.673927,-195324681163.312195,200141555365.912018,-155639853309.125519,-3.707256,3.743557,-2.932345
0.260000,1.160000,0.433190,0.040000,44741615122.653091,-142819248676.692108,141519533265.071289,-120175915067.597534,-2.683451,2.673656,-2.264184
0.300000,1.160000,0.395370,0.040000,47112193346.130318,-162282495171.488647,156880358554.402985,-171302583410.671570,-3.026962,2.986251,-3.227440
0.340000,1.160000,0.358025,0.040000,49748003441.526054,-252311925129.865784,252482080177.323853,-181514539871.572174,-4.754665,4.755947,-3.419839
0.380000,1.160000,0.321319,0.040000,52785461520.920998,-332590859316.300354,334654166585.750427,-126330191245.073776,-6.277867,6.293416,-2.380134
0.420000,1.160000,0.285499,0.040000,56352267774.661865,-382314907328.525574,382985023080.670227,-53076003127.723022,-7.206822,7.211872,-0.999983
0.460000,1.160000,0.250945,0.040000,60530657417.425987,-424359871605.088989,424667259241.398865,25929814463.681061,-7.996923,7.999240,0.488533
0.500000,1.160000,0.218260,0.040000,65387392339.714485,-458413091350.920654,460069550073.243896,129062298836.802109,-8.646131,8.658614,2.431609
0.540000,1.160000,0.188419,0.040000,70974812441.141891,-462279027071.236450,465162605991.599731,261193989361.828766,-8.725903,8.747635,4.921046
0.580000,1.160000,0.162989,0.040000,77297552361.549835,-417254076938.300598,420492195934.472961,406191026791.025146,-7.879611,7.904014,7.652874
0.620000,1.160000,0.132449,0.040000,84283103941.795364,-317524680296.325439,320376205506.943970,539781680999.994263,-5.998466,6.019956,10.169800
0.660000,1.160000,0.104719,0.040000,91772415508.898666,-173722206579.355225,167016827524.120758,629348315168.527344,-3.235127,3.184594,11.857287
0.700000,1.160000,0.080158,0.040000,99529862005.317001,-29372929453.467281,-5005005788.026452,649447270986.407349,-0.359093,0.100013,12.235963
0.740000,1.160000,0.046990,0.040000,107271032151.228577,83574522446.558777,-144359641153.413666,613066697746.889893,1.918161,-2.376251,11.550532
0.780000,1.160000,0.034509,0.040000,114704092812.992203,180445879841.028442,-228563317033.084320,546383007414.987244,3.671673,-4.034297,10.294173
1.220000,1.160000,0.034509,0.040000,150248151267.633270,104587633944.864426,-125015588345.935791,-169646866789.403290,2.085954,-2.239904,-3.196245
1.260000,1.160000,0.046990,0.040000,150626522233.924652,84160948713.237640,-101836425610.400284,-165920003661.675751,1.685546,-1.818752,-3.126029
1.300000,1.160000,0.080158,0.040000,150847395573.338135,68695776068.704796,-75179222471.554459,-160839507447.314941,1.330914,-1.379775,-3.030310
1.340000,1.160000,0.104719,0.040000,150951205778.037903,52553547424.772865,-53481952843.155190,-151096252891.620422,0.995387,-1.002383,-2.846741
1.380000,1.160000,0.132449,0.040000,150969589041.529388,37904923571.953484,-37700225665.228951,-137834211934.314209,0.712994,-0.711451,-2.596876
1.420000,1.160000,0.162989,0.040000,150927012350.559174,26239685133.438282,-26078325708.908356,-124153657782.423019,0.493459,-0.492243,-2.339127
1.460000,1.160000,0.188419,0.040000,150842205948.826904,17397722599.967365,-17271784234.070179,-111450486656.652969,0.327071,-0.326122,-2.099792
1.500000,1.160000,0.218260,0.040000,150729370898.535889,10761096811.144825,-10663585990.129326,-99830984692.840775,0.202194,-0.201459,-1.880874
1.540000,1.160000,0.250945,0.040000,150599169130.378082,5833100547.047892,-5758112548.633176,-89309597553.884766,0.109475,-0.108910,-1.682645
1.580000,1.160000,0.285499,0.040000,150459519798.906158,2219752710.763360,-2162443764.523296,-79845986335.326492,0.041498,-0.041066,-1.504345
1.620000,1.160000,0.321319,0.040000,150316231249.591217,-388454433.287470,431981919.787569,-71369595631.248734,-0.007565,0.007893,-1.344645
1.660000,1.160000,0.358025,0.040000,150173497663.115784,-2232941101.623539,2265782077.927453,-63795508985.430893,-0.042256,0.042503,-1.201944
1.700000,1.160000,0.395370,0.040000,150034286546.335663,-3500996607.305024,3525585971.428391,-57034366675.258095,-0.066100,0.066285,-1.074561
1.740000,1.160000,0.433190,0.040000,149900639399.448486,-4337287205.814344,4355527986.207503,-50998317635.650223,-0.081820,0.081958,-0.960838
1.780000,1.160000,0.471370,0.040000,149773903992.427765,-4853146012.041787,4866518480.459151,-45604373089.009796,-0.091512,0.091612,-0.859213
1.820000,1.160000,0.509829,0.040000,149654913142.840363,-5133966474.327541,5143617991.899085,-40776092834.998131,-0.096781,0.096854,-0.768245
1.860000,1.160000,0.548509,0.040000,149544121853.518311,-5245029731.952030,5251847165.115615,-36444228117.310295,-0.098858,0.098909,-0.686630
1.900000,1.160000,0.587365,0.040000,149441712160.208405,-5236067251.116256,5240734511.296095,-32546733223.325008,-0.098677,0.098712,-0.613199
1.940000,1.160000,0.626366,0.040000,149347673011.980530,-5144817188.825839,5147860516.161749,-29028414064.356007,-0.096949,0.096971,-0.546912
1.980000,1.160000,0.665485,0.040000,149261860893.221588,-4999788088.728897,5001611461.202197,-25840385360.389339,-0.094209,0.094223,-0.486848
2.020000,1.160000,0.704703,0.040000,149184045624.167969,-4822402345.356108,4823315051.423289,-22939443869.696636,-0.090862,0.090869,-0.432192
2.060000,1.160000,0.744004,0.040000,149113944781.476074,-4628656493.393929,4628894546.474123,-20287422916.081581,-0.087208,0.087210,-0.382227
2.100000,1.160000,0.783376,0.040000,149051249404.690277,-4430406113.484579,4430148861.766348,-17850566050.612679,-0.083470,0.083468,-0.336315
2.140000,1.160000,0.822809,0.040000,148995643051.797913,-4236359523.078922,4235742527.894396,-15598940105.814722,-0.079812,0.079807,-0.293893
2.180000,1.160000,0.862294,0.040000,148946815799.476105,-4052845644.799343,4051970673.517105,-13505896819.715317,-0.076353,0.076346,-0.254459
2.220000,1.160000,0.901824,0.040000,148904474421.034058,-3884406697.001287,3883349518.377361,-11547585387.337128,-0.073178,0.073171,-0.217563
2.260000,1.160000,0.941394,0.040000,148868349693.764496,-3734255225.893353,3733072206.828087,-9702514373.444828,-0.070349,0.070340,-0.182801
2.300000,1.160000,0.980999,0.040000,148838201569.718384,-3604632708.411178,3603373701.099419,-7951161648.062751,-0.067906,0.067897,-0.149804
2.340000,1.160000,1.020634,0.040000,148813822790.159668,-3497180943.979088,3495974120.336359,-6275667738.389812,-0.065882,0.065873,-0.118237
2.380000,1.160000,1.060297,0.040000,148795041674.947845,-3413576686.730590,3411930617.199139,-4661188551.984003,-0.064304,0.064292,-0.087819
2.420000,1.160000,1.099985,0.040000,148781729034.934540,-3358642688.262781,3367521445.251663,-3492026736.304686,-0.063329,0.063396,-0.065792
2.460000,1.160000,1.139694,0.040000,148773861139.930023,-3347815855.173107,3388222250.401470,-2820029572.195440,-0.063303,0.063608,-0.053131
-2.500000,1.200000,3.176511,0.040000,-85205487986.402267,13816245585354.611328,8776476898690.157227,-1806207399036.312988,132.608080,37.655916,-34.029994
-2.460000,1.200000,3.136572,0.040000,-85435047424.226181,4229720978762.906738,6239841060185.467773,-1070698441021.112061,20.514610,58.386437,-20.172579
-2.420000,1.200000,3.096635,0.040000,-85430388746.641724,259698793904.431030,1940349526910.241211,-694710173201.568604,-7.542180,24.122254,-13.088742
-2.380000,1.200000,3.056699,0.040000,-85422715066.889297,-3480747314.733432,7844106850.689454,-7184881393.321372,-0.090242,0.123125,-0.135367
-2.340000,1.200000,3.016766,0.040000,-85411939697.142853,-1978808813.558031,1977933837.192317,-6662557621.840099,-0.037277,0.037270,-0.125526
-2.300000,1.200000,2.976834,0.040000,-85397997098.755295,-2031602780.666268,2030657321.538890,-8417508656.979341,-0.038271,0.038264,-0.158591
-2.260000,1.200000,2.936904,0.040000,-85380802504.783600,-2100760924.218754,2099634976.518587,-10235719537.185881,-0.039573,0.039565,-0.192847
-2.220000,1.200000,2.896976,0.040000,-85360244974.733215,-2189619742.298696,2188249412.177320,-12131763403.423269,-0.041246,0.041236,-0.228569
-2.180000,1.200000,2.857049,0.040000,-85336181960.422501,-2302473798.434176,2300785483.751596,-14121227398.010807,-0.043370,0.043358,-0.266052
-2.140000,1.200000,2.817125,0.040000,-85308432409.473389,-2444895994.150322,2442797443.126318,-16220978150.625088,-0.046051,0.046036,-0.305613
-2.100000,1.200000,2.777204,0.040000,-85276767819.590179,-2624074730.243243,2621449424.236868,-18449397107.638973,-0.049424,0.049404,-0.347597
-2.060000,1.200000,2.737284,0.040000,-85240900700.021042,-2849239582.334624,2845940061.001426,-20826627630.340755,-0.053663,0.053638,-0.392386
-2.020000,1.200000,2.697367,0.040000,-85200469756.975311,-3132203284.796975,3128042766.470369,-23374833609.519180,-0.058989,0.058958,-0.440395
-1.980000,1.200000,2.657452,0.040000,-85155020933.192535,-3488050422.967411,3482792247.772327,-26118462953.763683,-0.065687,0.065648,-0.492087
-1.940000,1.200000,2.617540,0.040000,-85103983196.429428,-3936010960.952634,3929355296.283230,-29084503519.422249,-0.074119,0.074069,-0.547969
-1.900000,1.200000,2.577631,0.040000,-85046637675.049179,-4500566457.005254,4492133593.742182,-32302710545.688957,-0.084746,0.084682,-0.608602
-1.860000,1.200000,2.537724,0.040000,-84982078365.569290,-5212848523.015130,5202157971.906961,-35805771969.514015,-0.098153,0.098072,-0.674602
-1.820000,1.200000,2.497820,0.040000,-84909162168.241882,-6112402778.592131,6098847276.789886,-39629359220.806107,-0.115085,0.114982,-0.746640
-1.780000,1.200000,2.457920,0.040000,-84826445420.603424,-7249406911.189012,7232220402.701043,-43811983562.760216,-0.136486,0.136356,-0.825443
-1.740000,1.200000,2.418023,0.040000,-84732103370.957809,-8687447460.566614,8665666192.408585,-48394538009.537621,-0.163553,0.163389,-0.911781
-1.700000,1.200000,2.378129,0.040000,-84623828138.533844,-10506974316.371017,10479390518.763910,-53419347199.287750,-0.197802,0.197594,-1.006451
-1.660000,1.200000,2.338239,0.040000,-84498699621.978729,-12809560153.957935,12774668557.290426,-58928465467.220207,-0.241142,0.240879,-1.110246
-1.620000,1.200000,2.298353,0.040000,-84353022530.451691,-15723085873.517345,15679024905.341534,-64960847910.298409,-0.295983,0.295651,-1.223900
-1.580000,1.200000,2.258471,0.040000,-84182121232.978439,-19407938076.100426,19352430539.945274,-71547859734.490372,-0.365343,0.364925,-1.348003
-1.540000,1.200000,2.218593,0.040000,-83980082510.083908,-24064216274.327118,23994519513.042664,-78706373971.820572,-0.452990,0.452465,-1.482874
-1.500000,1.200000,2.178720,0.040000,-83739434691.842163,-29939766014.361301,29852650318.014030,-86428426997.134171,-0.563590,0.562934,-1.628362
-1.460000,1.200000,2.138851,0.040000,-83450750374.246140,-37338516564.333153,37230304744.534058,-94666053886.911575,-0.702868,0.702052,-1.783563
-1.420000,1.200000,2.098987,0.040000,-83102159469.500748,-46628013468.002808,46494736475.325218,-103309532266.276703,-0.877745,0.876741,-1.946411
-1.380000,1.200000,2.059129,0.040000,-82678760718.594711,-58244061964.454948,58081817704.935242,-112156892282.095184,-1.096435,1.095212,-2.113101
-1.340000,1.200000,2.019276,0.040000,-82161924550.562241,-72688861037.611771,72494507595.522232,-120872363102.387085,-1.368402,1.366937,-2.277305
-1.300000,1.200000,1.979429,0.040000,-81528490787.176224,-90516715965.206070,90289083522.894836,-128931750841.208923,-1.704101,1.702385,-2.429149
-1.260000,1.200000,1.939588,0.040000,-80749884843.296341,-112298237901.973755,112040092380.851913,-135554179888.585693,-2.114305,2.112359,-2.553919
-1.220000,1.200000,1.899754,0.040000,-79791210838.627533,-138549997002.450256,138270997067.238617,-139623176608.979004,-2.608785,2.606683,-2.630582
-1.180000,1.200000,1.859928,0.040000,-78610435657.506302,-169612667968.544769,169333449795.919403,-139607195030.645966,-3.194023,3.191919,-2.630280
-1.140000,1.200000,1.820108,0.040000,-77157860572.859314,-205458905336.007599,205216072824.834473,-133502132377.336044,-3.869592,3.867762,-2.515258
-1.100000,1.200000,1.780297,0.040000,-75376189094.046875,-245416891932.832153,245267896767.595612,-118837376145.933640,-4.622954,4.621832,-2.238965
-1.060000,1.200000,1.740495,0.040000,-73201633035.885834,-287814113326.237183,287839621417.075012,-92811027027.152924,-5.422729,5.422921,-1.748614
-1.020000,1.200000,1.700702,0.040000,-70566622823.236649,-329588011315.957458,329887493192.244263,-52641059763.822174,-6.211322,6.213579,-0.991788
-0.980000,1.200000,1.660919,0.040000,-67404734772.581779,-365982391357.273132,366657233089.205750,3782703206.745335,-6.899135,6.904221,0.071268
-0.940000,1.200000,1.621146,0.040000,-63658302682.509758,-390541669793.501892,391661236978.958862,76920008725.723099,-7.364359,7.372797,1.449218
-0.900000,1.200000,1.581385,0.040000,-59288698126.781364,-395684586704.170166,397237465383.502625,164402396509.015289,-7.463704,7.475407,3.097436
-0.860000,1.200000,1.541636,0.040000,-54288340076.047958,-374092595291.142456,375938989525.820374,260031940701.965637,-7.058558,7.072472,4.899153
-0.820000,1.200000,1.501901,0.040000,-48692213942.025726,-320877287727.495117,322733629270.734985,353577699716.268433,-6.056006,6.069996,6.661609
-0.780000,1.200000,1.462180,0.040000,-42585478563.037468,-235981392520.621826,237469323601.108856,432005859296.461548,-4.454436,4.465650,8.139241
-0.740000,1.200000,1.422475,0.040000,-36103414004.715630,-125746996881.230621,126510486649.366455,482315811996.759033,-2.373462,2.379216,9.087110
-0.700000,1.200000,1.382786,0.040000,-29421304285.830273,-2526569108.963902,2369534758.741385,495236713651.831543,-0.046714,0.045531,9.330547
-0.660000,1.200000,1.343117,0.040000,-22734913209.591606,118010165830.960648,-119046329124.118607,468212636205.876770,2.229237,-2.237045,8.821397
-0.620000,1.200000,1.303467,0.040000,-16235776123.361586,220897456918.166656,-222562445087.782379,406194103560.626038,4.171247,-4.183795,7.652932
-0.580000,1.200000,1.263839,0.040000,-10087575580.380949,295448765758.623108,-297373813381.085083,319999958923.213684,5.577307,-5.591814,6.028985
-0.540000,1.200000,1.224236,0.040000,-4409207676.906473,337230003321.856384,-339007921463.906860,223331910878.470398,6.363658,-6.377057,4.207703
-0.500000,1.200000,1.184659,0.040000,732287258.438687,348497892133.032532,-349804566724.804016,129346551146.609146,6.573288,-6.583135,2.436964
-0.460000,1.200000,1.145112,0.040000,5318212423.771046,336812239734.578857,-337652664905.083801,46770668056.636116,6.350488,-6.356822,0.881186
-0.420000,1.200000,1.105598,0.040000,9366482637.716711,310340220607.985901,-311063680463.481384,-22494956823.462971,5.851079,-5.856531,-0.423818
-0.380000,1.200000,1.066119,0.040000,12919138297.944391,272221722951.217133,-272842531993.866913,-79119072111.848465,5.132324,-5.137003,-1.490649
-0.340000,1.200000,1.026681,0.040000,16037226593.224085,223806575088.978516,-223568425484.614380,-117895673087.796158,4.215300,-4.213505,-2.221223
-0.300000,1.200000,0.987288,0.040000,18797323529.343712,176986098064.788483,-175809800510.425415,-132842805958.048920,3.327872,-3.319007,-2.502835
-0.260000,1.200000,0.947946,0.040000,21272449791.955524,148734799527.203979,-148534142770.560669,-137569932811.537781,2.801116,-2.799604,-2.591897
-0.220000,1.200000,0.908662,0.040000,23508133797.512180,129635568166.980713,-131002707773.107269,-157068626907.088074,2.450137,-2.460440,-2.959264
-0.180000,1.200000,0.869442,0.040000,25539036489.628559,86558737866.652237,-86905659494.446274,-179831520577.344482,1.632778,-1.635392,-3.388130
-0.140000,1.200000,0.830297,0.040000,27433293239.324558,32099760501.358566,-29341144570.277561,-164708066247.175842,0.589186,-0.568396,-3.103195
-0.100000,1.200000,0.791238,0.040000,29272026635.125122,20971309440.042583,-19919856448.902222,-126210727509.254471,0.389169,-0.381245,-2.377883
-0.060000,1.200000,0.752278,0.040000,31071633398.568966,47347506978.905815,-49339873724.351685,-133069891642.766861,0.903316,-0.918331,-2.507114
-0.020000,1.200000,0.713432,0.040000,32802052829.598972,23816310966.478668,-26134831343.185593,-176675685594.121368,0.461818,-0.479291,-3.328672
0.020000,1.200000,0.674722,0.040000,34498817894.395775,-40472584620.976120,42984110887.084564,-173908405077.306244,-0.776723,0.795650,-3.276535
0.060000,1.200000,0.636171,0.040000,36255633000.883789,-61070927511.897293,63045480545.183189,-126287501967.288406,-1.161772,1.176653,-2.379330
0.100000,1.200000,0.597811,0.040000,38103483815.450233,-31262392391.796074,30089040404.712704,-118620852266.879059,-0.582370,0.573527,-2.234886
0.140000,1.200000,0.559680,0.040000,40007247229.449844,-41584340630.676849,38773469507.660301,-157390126131.723267,-0.767586,0.746402,-2.965321
0.180000,1.200000,0.521829,0.040000,41981808657.174622,-96146722809.363403,96630592049.796066,-170633603191.115784,-1.814195,1.817841,-3.214836
0.220000,1.200000,0.484324,0.040000,44108078040.309914,-136797997477.931076,138255188917.058044,-145057785400.908203,-2.585590,2.596572,-2.732973
0.260000,1.200000,0.447251,0.040000,46450391190.135498,-151734678282.527130,151444278514.153595,-125409213364.987595,-2.857128,2.854939,-2.362782
0.300000,1.200000,0.410728,0.040000,49037190722.260223,-177842198275.501251,176506433352.702087,-123094963896.326248,-3.343100,3.333034,-2.319180
0.340000,1.200000,0.374915,0.040000,51910570520.313232,-225096280231.053223,224807312009.027008,-110095763696.926697,-4.239311,4.237133,-2.074268
0.380000,1.200000,0.340037,0.040000,55144033061.932930,-274590151407.613373,275230107237.110718,-71596609543.070602,-5.177055,5.181878,-1.348922
0.420000,1.200000,0.306414,0.040000,58815819320.120926,-313521520728.157043,314245860941.108276,-14399985016.219700,-5.911021,5.916480,-0.271304
0.460000,1.200000,0.274506,0.040000,62988329402.989182,-340890238509.466370,341727820633.336243,55948989521.550667,-6.427304,6.433616,1.054111
0.500000,1.200000,0.244984,0.040000,67705026603.009163,-353481328021.370178,354836644160.899658,140696163974.704437,-6.667454,6.677668,2.650797
0.540000,1.200000,0.218818,0.040000,72985186829.398926,-342226696122.301514,344114419990.041565,238248849756.934204,-6.458419,6.472645,4.488746
0.580000,1.200000,0.188834,0.040000,78810047435.375244,-298582874956.271667,300646441564.065918,339330392659.670776,-5.637138,5.652690,6.393181
0.620000,1.200000,0.160878,0.040000,85109548705.135513,-219831438796.917053,221622135542.929443,429663058010.096863,-4.151873,4.165368,8.095101
0.660000,1.200000,0.134689,0.040000,91758093199.551376,-110620256601.933228,111733616042.809784,494315554671.268921,-2.090443,2.098833,9.313192
0.700000,1.200000,0.103556,0.040000,98581951926.916428,15250637051.150301,-19361341334.903725,517370782580.949341,0.310565,-0.341544,9.747565
0.740000,1.200000,0.080663,0.040000,105377490453.852966,122580856115.226517,-138118867910.025482,493384985376.076416,2.397318,-2.514416,9.295659
0.780000,1.200000,0.049067,0.040000,111936722995.368393,196063178039.313416,-216240922254.910461,439105089221.217651,3.807992,-3.960056,8.272994
0.820000,1.200000,0.023446,0.040000,118074075838.501846,245735128511.794495,-256913211518.791321,370440025073.693970,4.692973,-4.777213,6.979305
1.180000,1.200000,0.023446,0.040000,146219415237.091766,140270012193.222717,-156361770560.358154,-143139801322.070374,2.733722,-2.854993,-2.696837
1.220000,1.200000,0.049067,0.040000,147092751088.339569,120380414552.858246,-135475057767.310745,-146946239539.197235,2.353354,-2.467111,-2.768552
1.260000,1.200000,0.080663,0.040000,147746211075.049316,103369068280.389526,-109301146370.680710,-148202719958.303650,1.981062,-2.025768,-2.792225
1.300000,1.200000,0.103556,0.040000,148225740604.001434,84214810108.569809,-85109595821.217697,-143947238902.953094,1.591713,-1.598457,-2.712049
1.340000,1.200000,0.134689,0.040000,148569196654.775787,65636581542.284134,-65418096072.851974,-134958292332.785522,1.235396,-1.233750,-2.542692
1.380000,1.200000,0.160878,0.040000,148807302043.018494,50274498234.141953,-50092806499.677872,-124298506899.979874,0.946174,-0.944804,-2.341856
1.420000,1.200000,0.188834,0.040000,148964691694.780670,38080619004.559731,-37932015181.695961,-113646953220.161118,0.716621,-0.715501,-2.141174
1.460000,1.200000,0.218818,0.040000,149060925963.314636,28481175492.633621,-28361143203.265182,-103362258111.200668,0.535923,-0.535019,-1.947405
1.500000,1.200000,0.244984,0.040000,149111407351.851196,20979329638.906216,-20883305641.396374,-93654906169.734955,0.394720,-0.393996,-1.764513
1.540000,1.200000,0.274506,0.040000,149128175332.650635,15156762762.626978,-15080531406.753771,-84633542902.497513,0.285131,-0.284557,-1.594545
1.580000,1.200000,0.306414,0.040000,149120576153.145264,10668107816.511444,-10607970979.553120,-76338958200.685043,0.200653,-0.200200,-1.438270
1.620000,1.200000,0.340037,0.040000,149095816190.767212,7232224576.448718,-7185043292.669696,-68768338063.249313,0.135993,-0.135637,-1.295635
1.660000,1.200000,0.374915,0.040000,149059412616.665833,4622621743.461958,-4585790172.853505,-61892164514.732666,0.086885,-0.086607,-1.166084
1.700000,1.200000,0.410728,0.040000,149015556586.874878,2658253318.452173,-2629641487.190786,-55665733083.862625,0.049921,-0.049706,-1.048775
1.740000,1.200000,0.447251,0.040000,148967403637.094757,1195265610.341508,-1173151718.933186,-50036821720.069450,0.022395,-0.022228,-0.942723
1.780000,1.200000,0.484324,0.040000,148917304468.627228,119897172.855688,-102900583.911152,-44950660081.882362,0.002163,-0.002035,-0.846896
1.820000,1.200000,0.521829,0.040000,148866987485.747864,-657467623.837273,670447368.510286,-40353036706.270004,-0.012460,0.012558,-0.760275
1.860000,1.200000,0.559680,0.040000,148817702607.470184,-1207189055.854113,1217025123.820231,-36192142377.032509,-0.022800,0.022874,-0.681881
1.900000,1.200000,0.597811,0.040000,148770334190.468201,-1584343406.104608,1591726175.598229,-32419570393.281776,-0.029892,0.029947,-0.610804
1.940000,1.200000,0.636171,0.040000,148725489429.933319,-1831919122.724501,1837392884.483347,-28990765595.666939,-0.034545,0.034587,-0.546203
1.980000,1.200000,0.674722,0.040000,148683567364.011505,-1983372602.869113,1987365417.496180,-25865122130.399548,-0.037390,0.037421,-0.487314
2.020000,1.200000,0.713432,0.040000,148644812581.456604,-2064662426.658907,2067510183.920522,-23005865269.267319,-0.038916,0.038937,-0.433444
2.060000,1.200000,0.752278,0.040000,148609356896.080292,-2095862955.705481,2097828637.555820,-20379807579.681728,-0.039498,0.039513,-0.383967
2.100000,1.200000,0.791238,0.040000,148577251577.062073,-2092440961.406991,2093729998.104582,-17957038677.543125,-0.039430,0.039440,-0.338321
2.140000,1.200000,0.830297,0.040000,148548492183.676331,-2066263509.316606,2067035989.587480,-15710586551.692846,-0.038934,0.038940,-0.295997
2.180000,1.200000,0.869442,0.040000,148523037621.848175,-2026392086.250142,2026772454.986706,-13616074044.776646,-0.038181,0.038183,-0.256535
2.220000,1.200000,0.908662,0.040000,148500824696.972839,-1979706885.710809,1979791634.202907,-11651384391.442493,-0.037299,0.037300,-0.219519
2.260000,1.200000,0.947946,0.040000,148481779164.892700,-1931395858.402986,1931259370.391689,-9796343131.742537,-0.036388,0.036387,-0.184569
2.300000,1.200000,0.987288,0.040000,148465824065.835388,-1885332168.144598,1885027253.644100,-8032416924.875825,-0.035519,0.035517,-0.151335
2.340000,1.200000,1.026681,0.040000,148452885944.747192,-1844312005.870219,1843825041.362611,-6342389279.311421,-0.034745,0.034741,-0.119494
2.380000,1.200000,1.066119,0.040000,148442899271.752197,-1810512939.868028,1810880087.604557,-4710792781.097092,-0.034113,0.034116,-0.088754
2.420000,1.200000,1.105598,0.040000,148435806950.234344,-1786926990.282720,1795128692.296077,-3532717139.140880,-0.033713,0.033775,-0.066558
2.460000,1.200000,1.145112,0.040000,148431527655.743652,-1756692478.067488,1763687848.854263,-2853795243.765675,-0.033137,0.033189,-0.053767
-2.500000,1.240000,3.178962,0.040000,-84974668521.377441,13258717754399.824219,8293544674043.953125,8299021605638.191406,127.984793,34.438054,156.358378
-2.460000,1.240000,3.139055,0.040000,-84972149522.585205,3207724020769.285156,9877799549922.343750,4789142813845.421875,-13.526275,112.141815,90.230227
-2.420000,1.240000,3.099149,0.040000,-84963707970.980118,-51415917795.201561,3203028506104.853516,1900423108798.267334,-18.782168,42.533451,35.805073
-2.380000,1.240000,3.059247,0.040000,-84949481700.825058,-6113278251.437001,13710627874.617809,-523248724.047505,-0.158119,0.215375,-0.009858
-2.340000,1.240000,3.019347,0.040000,-84929459025.598495,-3698128965.924203,3696714983.938793,-6592958756.537011,-0.069667,0.069656,-0.124215
-2.300000,1.240000,2.979450,0.040000,-84903516823.556656,-3805741294.537088,3804032144.026579,-8326016168.256159,-0.071693,0.071680,-0.156867
-2.260000,1.240000,2.939555,0.040000,-84871482806.718430,-3943551982.246576,3941596390.215685,-10119233670.171198,-0.074288,0.074273,-0.190652
-2.220000,1.240000,2.899663,0.040000,-84833136123.409210,-4115558545.509712,4113297672.480558,-11986064806.403259,-0.077527,0.077510,-0.225824
-2.180000,1.240000,2.859775,0.040000,-84788201098.297073,-4327082468.533295,4324432943.089896,-13940851022.720613,-0.081510,0.081490,-0.262654
-2.140000,1.240000,2.819889,0.040000,-84736338699.835678,-4584925188.035126,4581783642.106474,-15998922771.859655,-0.086365,0.086341,-0.301429
-2.100000,1.240000,2.780007,0.040000,-84677135628.545898,-4897698504.772722,4893937086.049050,-18176746723.657063,-0.092254,0.092226,-0.342460
-2.060000,1.240000,2.740128,0.040000,-84610090500.825378,-5276251825.112594,5271712006.027604,-20492071292.549435,-0.099382,0.099348,-0.386083
-2.020000,1.240000,2.700253,0.040000,-84534596443.085785,-5734208797.970285,5728693723.027615,-22964059415.379051,-0.108005,0.107963,-0.432656
-1.980000,1.240000,2.660382,0.040000,-84449919235.426651,-6288637819.015248,6281902902.788938,-25613395432.437611,-0.118444,0.118393,-0.482571
-1.940000,1.240000,2.620514,0.040000,-84355169929.376633,-6960886865.991215,6952628282.218551,-28462346252.801971,-0.131100,0.131038,-0.536247
-1.900000,1.240000,2.580651,0.040000,-84249270600.759842,-7777619403.651120,7767460075.270217,-31534747246.270119,-0.146477,0.146401,-0.594133
-1.860000,1.240000,2.540792,0.040000,-84130911576.439926,-8772094834.605646,8759567532.215090,-34855869482.264107,-0.165201,0.165106,-0.656705
-1.820000,1.240000,2.500937,0.040000,-83998498081.839828,-9985743654.854780,9970270870.903217,-38452105473.931328,-0.188050,0.187933,-0.724460
-1.780000,1.240000,2.461087,0.040000,-83850083784.112488,-11470093037.837204,11450963469.437908,-42350383404.557755,-0.215995,0.215851,-0.797906
-1.740000,1.240000,2.421242,0.040000,-83683288144.929886,-13289101058.756798,13265442888.623962,-46577182217.083527,-0.250241,0.250062,-0.877541
-1.700000,1.240000,2.381403,0.040000,-83495193843.364716,-15521953796.571426,15492705634.009947,-51156968561.430359,-0.292277,0.292057,-0.963827
-1.660000,1.240000,2.341568,0.040000,-83282219790.119354,-18266363452.291317,18230244984.198360,-56109807431.852592,-0.343945,0.343673,-1.057141
-1.620000,1.240000,2.301740,0.040000,-83039964455.958115,-21642368239.720272,21597854641.937870,-61447807136.296547,-0.407503,0.407168,-1.157712
-1.580000,1.240000,2.261917,0.040000,-82763013440.689636,-25796561725.926048,25741869132.874874,-67169942428.249763,-0.485713,0.485301,-1.265521
-1.540000,1.240000,2.222101,0.040000,-82444704533.260223,-30906548528.034901,30839642952.518246,-73254656269.250488,-0.581919,0.581415,-1.380160
-1.500000,1.240000,2.182292,0.040000,-82076843170.512939,-37185202399.713348,37103852208.258636,-79649476449.995850,-0.700131,0.699518,-1.500642
-1.460000,1.240000,2.142490,0.040000,-81649361549.305313,-44883946167.774635,44785849415.424072,-86256717661.207230,-0.845085,0.844346,-1.625127
-1.420000,1.240000,2.102695,0.040000,-81149916259.715393,-54293720716.761124,54176754025.694633,-92914218241.160995,-1.022264,1.021383,-1.750558
-1.380000,1.240000,2.062908,0.040000,-80563423075.795898,-65741491739.066437,65604146837.079552,-99370075496.714508,-1.237832,1.236796,-1.872190
-1.340000,1.240000,2.023130,0.040000,-79871534780.083435,-79578993107.665497,79421088291.917618,-105250661412.094818,-1.498422,1.497232,-1.982983
-1.300000,1.240000,1.983360,0.040000,-79052080450.473328,-96158905265.385757,95982674845.149307,-110022102197.164352,-1.810693,1.809365,-2.072880
-1.260000,1.240000,1.943600,0.040000,-78078504894.470779,-115791927923.184006,115603587151.994354,-112947320613.583939,-2.180523,2.179103,-2.127993
-1.220000,1.240000,1.903850,0.040000,-76919377624.714706,-138676627313.101166,138488453087.320801,-113044253797.722763,-2.611684,2.610266,-2.129819
-1.180000,1.240000,1.864111,0.040000,-75538084377.532700,-164793449123.072601,164626258493.859497,-109056613487.631714,-3.103859,3.102599,-2.054690
-1.140000,1.240000,1.824383,0.040000,-73892871313.038498,-193756656459.800354,193642241165.321259,-99456922528.516281,-3.649841,3.648979,-1.873826
-1.100000,1.240000,1.784668,0.040000,-71937478667.162262,-224625994665.125488,224608528004.430878,-82511898759.460480,-4.231985,4.231854,-1.554572
-1.060000,1.240000,1.744965,0.040000,-69622663572.400238,-255697166983.857941,255831874485.500336,-56449592665.614777,-4.818244,4.819259,-1.063543
-1.020000,1.240000,1.705276,0.040000,-66898943127.461906,-284319439854.448242,284666179198.763428,-19769017680.216869,-5.358703,5.361316,-0.372460
-0.980000,1.240000,1.665602,0.040000,-63720841950.912376,-306827883499.034119,307437360141.931702,28285636865.908386,-5.784260,5.788853,0.532918
-0.940000,1.240000,1.625944,0.040000,-60052741787.361061,-318713968952.060303,319606142999.129211,87117137694.672668,-6.009799,6.016522,1.641337
-0.900000,1.240000,1.586303,0.040000,-55876048823.251457,-315162189088.640198,316300842718.758667,154158716693.382629,-5.944274,5.952855,2.904440
-0.860000,1.240000,1.546681,0.040000,-51196814576.957596,-292010433346.249634,293284159781.286926,224489299723.618225,-5.508845,5.518444,4.229509
-0.820000,1.240000,1.507079,0.040000,-46052283165.378647,-247019648037.272308,248243959774.765564,290992837288.704102,-4.660913,4.670140,5.482474
-0.780000,1.240000,1.467498,0.040000,-40514364466.188881,-181096566121.344208,182048281828.459808,345303899187.378723,-3.417344,3.424516,6.505726
-0.740000,1.240000,1.427940,0.040000,-34688124733.665443,-98932392343.841461,99412434321.037415,379502910285.368652,-1.866657,1.870275,7.150055
-0.700000,1.240000,1.388408,0.040000,-28704316026.647259,-8586257335.327420,8486699904.636897,388109655634.350342,-0.161207,0.160457,7.312211
-0.660000,1.240000,1.348904,0.040000,-22706618841.784939,80058738095.224045,-80716538271.934082,369624946622.340210,1.512071,-1.517028,6.963948
-0.620000,1.240000,1.309430,0.040000,-16836025239.766027,157486561136.850708,-158560519949.665558,326968162435.345276,2.973208,-2.981302,6.160270
-0.580000,1.240000,1.269988,0.040000,-11215794976.740061,216594090657.526672,-217865812396.725952,266660542331.188354,4.087946,-4.097530,5.024039
-0.540000,1.240000,1.230583,0.040000,-5940200355.840154,253961388137.761353,-255197737814.997406,197118229304.890900,4.791768,-4.801085,3.713822
-0.500000,1.240000,1.191217,0.040000,-1069072704.158352,270070821430.197540,-271101522971.975555,126563345326.254929,5.094117,-5.101884,2.384527
-0.460000,1.240000,1.151895,0.040000,3371506092.799544,268318630424.598602,-269104689847.211548,61115916069.961388,5.059721,-5.065645,1.151459
-0.420000,1.240000,1.112621,0.040000,7383947621.347687,252975067770.004883,-253564004273.035065,4102042970.538634,4.769526,-4.773964,0.077285
-0.380000,1.240000,1.073401,0.040000,10992493659.138412,227597590869.000519,-227948383046.791260,-42583753180.519455,4.290053,-4.292697,-0.802303
-0.340000,1.240000,1.034241,0.040000,14237456137.006588,196022486410.785828,-195999308945.835114,-76951739487.362778,3.693046,-3.692872,-1.449815
-0.300000,1.240000,0.995147,0.040000,17168841134.503424,164171377893.487091,-163907319390.082336,-99012377023.533081,3.091591,-3.089601,-1.865451
-0.260000,1.240000,0.956128,0.040000,19837088114.626228,136760506378.160400,-136726941448.507416,-114125731022.450378,2.576458,-2.576205,-2.150195
-0.220000,1.240000,0.917194,0.040000,22286282023.492229,110892623830.656128,-111140266609.643829,-128181999832.680359,2.090681,-2.092547,-2.415023
-0.180000,1.240000,0.878356,0.040000,24558565822.742790,80634041735.166992,-80497689364.742950,-137704806968.424774,1.518421,-1.517394,-2.594438
-0.140000,1.240000,0.839627,0.040000,26701932149.422607,51289691709.780556,-50551532602.944160,-135241923868.130951,0.962155,-0.956592,-2.548036
-0.100000,1.240000,0.801023,0.040000,28761918557.098042,34818349735.553871,-34477891328.240891,-127451889705.938004,0.654074,-0.651508,-2.401267
-0.060000,1.240000,0.762562,0.040000,30765181328.786766,26438783748.494122,-26962834434.030582,-129905812925.974823,0.501084,-0.505033,-2.447501
-0.020000,1.240000,0.724269,0.040000,32727385378.503201,7555942982.561490,-8001406919.110080,-139462480401.693512,0.144876,-0.148233,-2.627554
0.020000,1.240000,0.686170,0.040000,34678555142.730194,-20232010893.571228,20753597999.639629,-137864521441.137451,-0.384131,0.388062,-2.597448
0.060000,1.240000,0.648300,0.040000,36660924848.365631,-37852397316.949608,38393255871.749123,-125665128990.524109,-0.716218,0.720294,-2.367604
0.100000,1.240000,0.610702,0.040000,38702578209.849884,-44600010597.983208,44234861697.656410,-121671543840.496353,-0.838226,0.835474,-2.292362
0.140000,1.240000,0.573429,0.040000,40816661785.981544,-59902298620.367836,59157995997.108177,-128455785902.538269,-1.124387,1.118778,-2.420181
0.180000,1.240000,0.536549,0.040000,43027923059.905632,-88206223599.193176,88104317544.396225,-129664721488.091034,-1.661280,1.660512,-2.442959
0.220000,1.240000,0.500149,0.040000,45380146913.618172,-116784148029.590469,117053063301.739044,-118934178022.275070,-2.201801,2.203828,-2.240789
0.260000,1.240000,0.464342,0.040000,47918665131.197342,-140592966769.054688,140526154529.713715,-104589929088.902084,-2.648475,2.647972,-1.970535
0.300000,1.240000,0.429275,0.040000,50682435916.584610,-166584710545.720581,166261211613.483215,-90105590265.077011,-3.136724,3.134286,-1.697642
0.340000,1.240000,0.395147,0.040000,53713300727.529167,-198020419761.938416,197961244207.928986,-68719585277.307373,-3.730485,3.730039,-1.294717
0.380000,1.240000,0.362222,0.040000,57060983680.647072,-229738741530.493744,230082569758.027954,-34455732826.566406,-4.330354,4.332946,-0.649166
0.420000,1.240000,0.330861,0.040000,60775682536.453339,-255374697525.515869,255968125445.320984,12733818408.004980,-4.814762,4.819234,0.239913
0.460000,1.240000,0.301551,0.040000,64898113170.804497,-270918199907.123138,271720699525.866180,70818485445.611725,-5.108792,5.114840,1.334261
0.500000,1.240000,0.274949,0.040000,69452817584.938568,-272582703840.011200,273655036549.720886,138000453260.359741,-5.141677,5.149759,2.600009
0.540000,1.240000,0.245304,0.040000,74442026063.245590,-255656674300.367493,256962142573.179688,210931859255.193207,-4.824099,4.833937,3.974079
0.580000,1.240000,0.217250,0.040000,79838309069.394699,-216288398826.057678,217642336257.571136,283135162284.774719,-4.082652,4.092855,5.334431
0.620000,1.240000,0.190412,0.040000,85578615202.406021,-153785152021.144989,154932155532.425507,345750208177.942871,-2.903884,2.912529,6.514134
0.660000,1.240000,0.160124,0.040000,91563253108.527573,-71726210539.873596,72426853555.310455,389647994582.639343,-1.355324,1.360604,7.341194
0.700000,1.240000,0.134990,0.040000,97661598442.420197,22272608869.300369,-22174186644.554344,407735120331.678345,0.419073,-0.418331,7.681966
0.740000,1.240000,0.104515,0.040000,103724159032.297089,116974013470.803757,-119187124315.526672,395207131147.289001,2.216367,-2.233046,7.445931
0.780000,1.240000,0.076586,0.040000,109598797024.788086,188891789399.166779,-193764470461.872437,355651136290.078735,3.586372,-3.623094,6.700674
0.820000,1.240000,0.055215,0.040000,115147597323.956543,232821394107.959564,-232896299392.103241,302773497935.339539,4.386913,-4.387478,5.704428
0.860000,1.240000,0.018714,0.040000,120260636516.672684,254797552460.865662,-248789621352.705963,244411125513.553619,4.766576,-4.721299,4.604847
1.140000,1.240000,0.018714,0.040000,141676786741.108795,167173070924.822327,-177195507854.912659,-107852428375.917343,3.206286,-3.281818,-2.032002
1.180000,1.240000,0.055215,0.040000,143050580470.126129,150149326619.593414,-160891411192.779541,-118678657150.310059,2.889616,-2.970571,-2.235975
1.220000,1.240000,0.076586,0.040000,144155753767.158722,133437594520.994370,-138128018460.360260,-126215618081.495010,2.540553,-2.575901,-2.377975
1.260000,1.240000,0.104515,0.040000,145038474364.823700,113175012940.461624,-113944547326.715775,-128114814202.089340,2.136632,-2.142432,-2.413757
1.300000,1.240000,0.134990,0.040000,145738967977.408508,92270706424.304245,-92070275487.177338,-124573947580.444473,1.737301,-1.735790,-2.347045
1.340000,1.240000,0.160124,0.040000,146291524758.549896,74326487781.568695,-74147767703.830124,-118189238709.500504,1.399344,-1.397997,-2.226754
1.380000,1.240000,0.190412,0.040000,146724887885.471039,59486781536.114113,-59332017164.490669,-110720177381.144745,1.119891,-1.118724,-2.086032
1.420000,1.240000,0.217250,0.040000,147062836938.296722,47340301561.121346,-47209091354.768349,-102749110771.356461,0.891177,-0.890188,-1.935853
1.460000,1.240000,0.245304,0.040000,147324841879.359467,37480303723.148125,-37370802533.767143,-94680056600.821945,0.705532,-0.704707,-1.783827
1.500000,1.240000,0.274949,0.040000,147526711600.150635,29530521592.858768,-29440225786.784012,-86781798681.846695,0.555862,-0.555181,-1.635019
1.540000,1.240000,0.301551,0.040000,147681194908.421021,23157236059.826363,-23083464780.041862,-79223644398.655334,0.435879,-0.435323,-1.492619
1.580000,1.240000,0.330861,0.040000,147798514182.034821,18072785883.365444,-18012954813.065914,-72103662129.401535,0.340164,-0.339713,-1.358475
1.620000,1.240000,0.362222,0.040000,147886825755.346649,14034169229.538582,-13985929896.839952,-65470207802.089600,0.264139,-0.263776,-1.233497
1.660000,1.240000,0.395147,0.040000,147952609068.966034,10839115935.900854,-10800412172.861244,-59337898445.151764,0.203996,-0.203705,-1.117960
1.700000,1.240000,0.429275,0.040000,148000990739.321991,8321105407.953904,-8290181603.224503,-53699205260.533791,0.156600,-0.156367,-1.011724
1.740000,1.240000,0.464342,0.040000,148036011444.551971,6344193955.865500,-6319577377.187395,-48532703462.329025,0.119389,-0.119204,-0.914384
1.780000,1.240000,0.500149,0.040000,148060843862.419495,4798120391.301214,-4778591321.445992,-43808831978.200478,0.090289,-0.090142,-0.825384
1.820000,1.240000,0.536549,0.040000,148077969472.023895,3593913714.201019,-3578471511.274624,-39493833482.725227,0.067624,-0.067508,-0.744087
1.860000,1.240000,0.573429,0.040000,148089321240.291107,2660081473.213991,-2647911059.550056,-35552385658.450912,0.050049,-0.049957,-0.669828
1.900000,1.240000,0.610702,0.040000,148096398292.211365,1939376083.864108,-1929817149.585363,-31949304375.059471,0.036485,-0.036413,-0.601943
1.940000,1.240000,0.648300,0.040000,148100357742.642883,1386094745.551075,-1378614627.661692,-28650597655.583397,0.026073,-0.026016,-0.539794
1.980000,1.240000,0.686170,0.040000,148102088015.290192,963850646.343565,-958021093.602010,-25624071921.151279,0.018127,-0.018083,-0.482772
2.020000,1.240000,0.724269,0.040000,148102267220.775513,643748729.473627,-639226364.844598,-22839634392.184227,0.012103,-0.012069,-0.430312
2.060000,1.240000,0.762562,0.040000,148101409518.162292,402902126.548485,-399412228.729657,-20269393272.559605,0.007571,-0.007545,-0.381887
2.100000,1.240000,0.801023,0.040000,148099901838.675140,223231656.690450,-220554818.086192,-17887626721.072639,0.004191,-0.004171,-0.337013
2.140000,1.240000,0.839627,0.040000,148098032896.784851,90498367.345201,-88459584.387336,-15670669632.038498,0.001694,-0.001678,-0.295245
2.180000,1.240000,0.878356,0.040000,148096016040.290771,-6473255.928108,8013472.397053,-13596751593.546675,-0.000131,0.000142,-0.256171
2.220000,1.240000,0.917194,0.040000,148094007185.345947,-76416667.252020,77569526.040230,-11645808332.589167,-0.001446,0.001455,-0.219414
2.260000,1.240000,0.956128,0.040000,148092118833.149689,-126118180.144071,126972534.986435,-9799281334.781227,-0.002381,0.002387,-0.184624
2.300000,1.240000,0.995147,0.040000,148090430962.237183,-160809342.100380,161437041.098943,-8039917475.370967,-0.003033,0.003038,-0.151477
2.340000,1.240000,1.034241,0.040000,148088999426.071716,-184481164.770882,184946438.727848,-6351615177.559366,-0.003478,0.003482,-0.119668
2.380000,1.240000,1.073401,0.040000,148087862368.726868,-200033890.286076,200133197.366073,-4720921527.647677,-0.003769,0.003770,-0.088945
2.420000,1.240000,1.112621,0.040000,148087045341.600159,-209124332.587752,206734043.733235,-3538396628.974956,-0.003927,0.003908,-0.066665
2.460000,1.240000,1.151895,0.040000,148086568811.431671,-216304262.903880,212726915.058218,-2858228351.098243,-0.004055,0.004028,-0.053851
-2.500000,1.280000,3.181914,0.040000,228006481.499907,-19711251062270.054688,38064622660372.234375,6599184920283.709961,-475.107845,613.423109,124.332470
-2.460000,1.280000,3.142044,0.040000,-84515300487.831848,-1748046158729.301758,20297222773590.425781,3778588221604.911621,-137.777375,277.568271,71.190793
-2.420000,1.280000,3.102178,0.040000,-84502751701.031967,-1733061371798.279785,6478492072256.841797,1225960038960.689453,-59.473881,95.236547,23.097798
-2.380000,1.280000,3.062315,0.040000,-84482033282.056595,-109154196770.775803,304638501021.138672,-2640202904.221499,-3.161440,4.634655,-0.049743
-2.340000,1.280000,3.022455,0.040000,-84452890403.188522,-5389997309.223731,5387559829.660292,-6475900369.291755,-0.101537,0.101519,-0.122010
-2.300000,1.280000,2.982599,0.040000,-84415120358.478973,-5549938878.521982,5547476955.150351,-8174520863.776546,-0.104550,0.104532,-0.154013
-2.260000,1.280000,2.942748,0.040000,-84368466693.689789,-5752353823.717727,5749633860.469872,-9929276164.628670,-0.108362,0.108342,-0.187073
-2.220000,1.280000,2.902900,0.040000,-84312605119.632477,-6002223591.064836,5999155346.796945,-11752575546.731316,-0.113068,0.113045,-0.221425
-2.180000,1.280000,2.863056,0.040000,-84247135311.490250,-6305671557.488747,6302163379.829113,-13657378575.105974,-0.118783,0.118756,-0.257313
-2.140000,1.280000,2.823217,0.040000,-84171571081.191864,-6670393714.131894,6666335997.182580,-15657329149.234879,-0.125651,0.125621,-0.294993
-2.100000,1.280000,2.783383,0.040000,-84085328034.835632,-7106000959.031230,7101260688.320511,-17766832162.764091,-0.133854,0.133819,-0.334737
-2.060000,1.280000,2.743553,0.040000,-83987708159.463974,-7624430006.342928,7618845188.017708,-20001106190.689564,-0.143617,0.143575,-0.376832
-2.020000,1.280000,2.703728,0.040000,-83877880680.123199,-8240449975.226004,8233823021.648705,-22376203112.290024,-0.155217,0.155167,-0.421581
-1.980000,1.280000,2.663909,0.040000,-83754858375.003891,-8972284344.870066,8964374189.897932,-24908977719.227867,-0.168998,0.168939,-0.469300
-1.940000,1.280000,2.624095,0.040000,-83617468351.598801,-9842370446.339462,9832883213.511787,-27616983005.556484,-0.185382,0.185311,-0.520320
-1.900000,1.280000,2.584287,0.040000,-83464316066.498550,-10878281587.194616,10866859674.263851,-30518256970.434063,-0.204889,0.204802,-0.574982
-1.860000,1.280000,2.544485,0.040000,-83293741111.032303,-12113839170.700439,12100048701.331480,-33630953353.729710,-0.228154,0.228050,-0.633627
-1.820000,1.280000,2.504689,0.040000,-83103762980.904282,-13590442856.080214,13573759618.154987,-36972750635.290764,-0.255958,0.255832,-0.696588
-1.780000,1.280000,2.464900,0.040000,-82892014699.314987,-15358644437.703497,15338438730.454918,-40559949486.720840,-0.289252,0.289099,-0.764173
-1.740000,1.280000,2.425117,0.040000,-82655661773.772278,-17479983346.538284,17455504667.094044,-44406137085.313675,-0.329195,0.329010,-0.836637
-1.700000,1.280000,2.385342,0.040000,-82391303549.662796,-20029084812.982014,19999448140.069302,-48520255618.962372,-0.377192,0.376969,-0.914150
-1.660000,1.280000,2.345575,0.040000,-82094853606.129517,-23095990170.228722,23060166901.815655,-52903860510.698334,-0.434939,0.434669,-0.996739
-1.620000,1.280000,2.305816,0.040000,-81761395473.109924,-26788634192.590523,26745452776.373421,-57547290869.242210,-0.504469,0.504144,-1.084224
-1.580000,1.280000,2.266065,0.040000,-81385009720.917892,-31235294749.276272,31183458984.222630,-62424402099.416504,-0.588198,0.587807,-1.176112
-1.540000,1.280000,2.226323,0.040000,-80958568530.320114,-36586698758.732033,36524835949.994576,-67485434559.275833,-0.688965,0.688499,-1.271465
-1.500000,1.280000,2.186591,0.040000,-80473494419.666321,-43017253511.594429,42944010425.928795,-72647526841.839951,-0.810056,0.809504,-1.368722
-1.460000,1.280000,2.146868,0.040000,-79919481232.468384,-50724557254.404312,50638769261.052277,-77782355956.756653,-0.955195,0.954549,-1.465465
-1.420000,1.280000,2.107156,0.040000,-79284178280.626328,-59925899595.013077,59826867100.226196,-82700450487.463516,-1.128479,1.127733,-1.558124
-1.380000,1.280000,2.067455,0.040000,-78552843406.362961,-70849871000.142044,70737785786.212524,-87131962453.544724,-1.334219,1.333374,-1.641617
-1.340000,1.280000,2.027766,0.040000,-77707978615.278076,-83720469833.760880,83597038555.668152,-90704233022.064713,-1.576645,1.575714,-1.708920
-1.300000,1.280000,1.988089,0.040000,-76728974006.736618,-98730299632.387238,98599605216.226166,-92917538444.237152,-1.859397,1.858412,-1.750620
-1.260000,1.280000,1.948426,0.040000,-75591803241.721893,-115998792837.622589,115868404127.346832,-93122199486.228989,-2.184748,2.183765,-1.754476
-1.220000,1.280000,1.908776,0.040000,-74268837755.933365,-135511305965.113373,135393572366.592377,-90503027047.733292,-2.552446,2.551559,-1.705129
-1.180000,1.280000,1.869142,0.040000,-72728877427.929337,-157036159363.292725,156949486484.557190,-84080973397.683136,-2.958162,2.957509,-1.584134
-1.140000,1.280000,1.829523,0.040000,-70937530383.751282,-180020387916.573761,179990063545.557190,-72746565512.379395,-3.391517,3.391289,-1.370587
-1.100000,1.280000,1.789921,0.040000,-68858108027.018875,-203472546783.048004,203530384903.062439,-55344039535.320641,-3.833868,3.834304,-1.042714
-1.060000,1.280000,1.750338,0.040000,-66453220999.043915,-225853529394.046448,226035307742.962921,-30826429536.354942,-4.256239,4.257609,-0.580788
-1.020000,1.280000,1.710773,0.040000,-63687247442.025795,-245013620075.336578,245353214826.512238,1504309757.030983,-4.618118,4.620677,0.028342
-0.980000,1.280000,1.671230,0.040000,-60529769371.726707,-258231924886.394196,258751546558.740356,41677494417.766739,-4.868176,4.872092,0.785228
-0.940000,1.280000,1.631709,0.040000,-56959908331.557686,-262423114906.953857,263120495598.275848,88696427971.089218,-4.948145,4.953401,1.671092
-0.900000,1.280000,1.592212,0.040000,-52971225098.751717,-254560476643.856689,255396286104.505219,140236926080.757050,-4.800791,4.807090,2.642145
-0.860000,1.280000,1.552740,0.040000,-48576506958.362427,-232308027006.971100,233199372708.036407,192542329502.455994,-4.381856,4.388573,3.627609
-0.820000,1.280000,1.513296,0.040000,-43811440165.186668,-194756511715.047363,195583169140.814026,240664660388.865234,-3.673998,3.680228,4.534262
-0.780000,1.280000,1.473883,0.040000,-38736008850.370438,-143048660935.553619,143675482533.533356,279133535560.257446,-2.698663,2.703386,5.259038
-0.740000,1.280000,1.434501,0.040000,-33432644130.434731,-80623584709.746002,80935052196.735062,302979386953.821960,-1.520756,1.523103,5.708307
-0.700000,1.280000,1.395155,0.040000,-28000750861.812290,-12878476234.734957,12813188271.410324,308848410762.496277,-0.242269,0.241777,5.818883
-0.660000,1.280000,1.355847,0.040000,-22548153617.835434,53750617399.148567,-54180291356.279121,295834803939.910278,1.015121,-1.018360,5.573699
-0.620000,1.280000,1.316581,0.040000,-17180910263.075054,113039259765.664948,-113750671003.868912,265718770445.429260,2.133746,-2.139108,5.006296
-0.580000,1.280000,1.277360,0.040000,-11993458220.728889,160163525812.363678,-161028067184.417542,222521676220.774506,3.022460,-3.028976,4.192437
-0.540000,1.280000,1.238190,0.040000,-7060964139.608190,192473408988.139801,-193353556122.637909,171535395919.593353,3.631285,-3.637918,3.231826
-0.500000,1.280000,1.199074,0.040000,-2435097703.687628,209647608142.562012,-210436606893.221802,118134056767.262329,3.954342,-3.960288,2.225714
-0.460000,1.280000,1.160018,0.040000,1856524641.110440,213204812295.905609,-213849437434.444916,66763273025.759880,4.020546,-4.025404,1.257859
-0.420000,1.280000,1.121029,0.040000,5807989376.137578,205627160601.111420,-206109627228.270477,20521939763.401417,3.876862,-3.880498,0.386645
-0.380000,1.280000,1.082113,0.040000,9431179471.476637,189703359494.723389,-190002048340.754486,-18596952286.859905,3.575810,-3.578060,-0.350377
-0.340000,1.280000,1.043280,0.040000,12751312716.826399,168504423555.018433,-168610350864.647400,-49502716980.203896,3.175320,-3.176118,-0.932660
-0.300000,1.280000,1.004538,0.040000,15802016941.358723,145277342589.719818,-145267826742.476685,-72523163004.573547,2.737056,-2.736984,-1.366378
-0.260000,1.280000,0.965899,0.040000,18620242528.435444,122185753964.879761,-122190086682.029373,-89609422207.425858,2.302075,-2.302108,-1.688293
-0.220000,1.280000,0.927375,0.040000,21242949357.770351,99168807322.225037,-99186770216.245621,-102516651041.284271,1.868499,-1.868635,-1.931473
-0.180000,1.280000,0.888982,0.040000,23707056330.468533,75749794316.360184,-75637026230.129486,-110790099124.845291,1.426533,-1.425683,-2.087350
-0.140000,1.280000,0.850737,0.040000,26049850213.540878,53966551089.200012,-53724778265.372559,-113717323166.997375,1.015395,-1.013573,-2.142500
-0.100000,1.280000,0.812661,0.040000,28305872675.354023,36437844679.588776,-36315199504.038498,-114027927258.990189,0.685817,-0.684893,-2.148352
-0.060000,1.280000,0.774778,0.040000,30503327670.462582,21366731690.356796,-21468369729.044353,-115717885831.076370,0.403136,-0.403902,-2.180192
-0.020000,1.280000,0.737119,0.040000,32666835311.195656,4323015726.011975,-4407745410.205613,-118038657798.239944,0.081927,-0.082566,-2.223917
0.020000,1.280000,0.699721,0.040000,34823639326.985725,-14454463760.245405,14576620035.792454,-116954582309.279037,-0.273021,0.273942,-2.203492
0.060000,1.280000,0.662626,0.040000,37003299269.975136,-30861663622.433731,30981988554.207565,-112674169866.827805,-0.582132,0.583039,-2.122847
0.100000,1.280000,0.625889,0.040000,39232069450.448830,-44965468326.022064,44845707170.919853,-109464559897.745071,-0.846499,0.845596,-2.062376
0.140000,1.280000,0.589577,0.040000,41533050788.537849,-61479854758.286743,61241840302.226051,-107964900733.530975,-1.156971,1.155177,-2.034121
0.180000,1.280000,0.553773,0.040000,43932820890.684372,-82186847855.295319,82084342126.386368,-103997118072.345123,-1.547868,1.547096,-1.959366
0.220000,1.280000,0.518584,0.040000,46464183735.828262,-104343499585.964935,104364748990.047668,-94902476839.335968,-1.966012,1.966172,-1.788018
0.260000,1.280000,0.484141,0.040000,49162418589.967766,-126040038087.883835,126029459791.284851,-81594908906.745911,-2.374608,2.374528,-1.537295
0.300000,1.280000,0.450618,0.040000,52062364657.959885,-148077749064.021881,148042994270.040253,-64493522988.210770,-2.789674,2.789412,-1.215095
0.340000,1.280000,0.418235,0.040000,55199309740.707970,-170679201254.183868,170765757232.749237,-41534402917.581612,-3.216184,3.216837,-0.782532
0.380000,1.280000,0.387279,0.040000,58609190581.520775,-191567765286.703735,191859981232.194366,-10468210648.347376,-3.610899,3.613102,-0.197227
0.420000,1.280000,0.358118,0.040000,62325119447.548820,-207284561758.084320,207772271195.154144,29163399482.591766,-3.908118,3.911793,0.549455
0.460000,1.280000,0.331229,0.040000,66371967275.106590,-214565768965.444794,215227659555.823547,76302716294.246262,-4.046285,4.051273,1.437587
0.500000,1.280000,0.301811,0.040000,70761124844.899109,-210414023689.116699,211234767517.888580,128951078085.391571,-3.968961,3.975146,2.429513
0.540000,1.280000,0.273703,0.040000,75485704899.057877,-192097383390.522064,193022322574.209015,183910649795.719208,-3.624454,3.631425,3.464983
0.580000,1.280000,0.246521,0.040000,80516243325.400085,-157878333573.964722,158792593687.554504,236481840948.842590,-2.979687,2.986577,4.455455
0.620000,1.280000,0.216692,0.040000,85798008660.477524,-107999527886.181870,108753296342.729736,280905170783.534180,-2.039034,2.044715,5.292416
0.660000,1.280000,0.190625,0.040000,91251438259.855270,-45239253994.370773,45691879839.667595,311470068381.435730,-0.854892,0.858303,5.868277
0.700000,1.280000,0.160745,0.040000,96776569286.519226,25247522058.010067,-25186691925.523106,323822190280.262268,0.475334,-0.474876,6.100998
0.740000,1.280000,0.132594,0.040000,102261212778.950424,96769891970.918259,-97114874003.534744,316030432994.296753,1.825151,-1.827751,5.954197
0.780000,1.280000,0.107538,0.040000,107591544248.063156,162142160257.443512,-163138564986.763123,288780881466.387939,3.060484,-3.067993,5.440799
0.820000,1.280000,0.075273,0.040000,112663071574.795715,207277170470.906647,-206821526316.236938,248143462665.914886,3.902647,-3.899213,4.675167
0.860000,1.280000,0.054475,0.040000,117389836957.674789,231820817833.532379,-223340228114.871094,203504817401.254761,4.319705,-4.255793,3.834149
0.900000,1.280000,0.024339,0.040000,121710272838.352066,238880498734.961609,-226251076421.262024,157674662446.204132,4.429263,-4.334085,2.970682
1.100000,1.280000,0.024339,0.040000,136755226693.174301,182553911234.220093,-185882646776.070618,-68388243483.555557,3.458236,-3.483322,-1.288474
1.140000,1.280000,0.054475,0.040000,138601490310.584717,170176539356.322662,-175578580907.235626,-84525479439.157364,3.236758,-3.277469,-1.592509
1.180000,1.280000,0.075273,0.040000,140149455083.800262,155576433166.399048,-158534684624.818329,-97245741830.784607,2.947871,-2.970165,-1.832166
1.220000,1.280000,0.107538,0.040000,141440201317.249176,136352493041.128006,-136920176629.402298,-104995587198.423721,2.572169,-2.576447,-1.978178
1.260000,1.280000,0.132594,0.040000,142511965142.870270,115186173330.681992,-115034743436.775055,-107307390666.634918,2.169318,-2.168177,-2.021733
1.300000,1.280000,0.160745,0.040000,143399202591.595978,96246986643.797424,-96096729487.267075,-105936466760.635406,1.812500,-1.811367,-1.995904
1.340000,1.280000,0.190625,0.040000,144132217526.922943,79905631094.393173,-79764717821.277206,-102466792007.703857,1.504672,-1.503610,-1.930534
1.380000,1.280000,0.216692,0.040000,144737169848.642548,66007171954.058243,-65879933693.805061,-97614290280.100403,1.242894,-1.241935,-1.839110
1.420000,1.280000,0.246521,0.040000,145236317544.131165,54318956879.422127,-54207113029.407288,-91926930567.027008,1.022768,-1.021926,-1.731957
1.460000,1.280000,0.273703,0.040000,145648384938.230377,44576536913.664780,-44480147971.208504,-85810692801.792770,0.839303,-0.838577,-1.616723
1.500000,1.280000,0.301811,0.040000,145988983262.143951,36513023357.554665,-36431180212.216408,-79556902252.327957,0.687464,-0.686847,-1.498898
1.540000,1.280000,0.331229,0.040000,146271036176.182922,29876383078.624592,-29807677999.944172,-73367442630.928268,0.562500,-0.561982,-1.382285
1.580000,1.280000,0.358118,0.040000,146505182244.450928,24438445371.963192,-24381277011.064392,-67376335886.367691,0.460111,-0.459681,-1.269409
1.620000,1.280000,0.387279,0.040000,146700139698.462128,19998512180.145477,-19951271742.503319,-61667333510.427994,0.376517,-0.376161,-1.161848
1.660000,1.280000,0.418235,0.040000,146863027532.019958,16383654615.774406,-16344830957.293928,-56287768452.053360,0.308458,-0.308166,-1.060494
1.700000,1.280000,0.450618,0.040000,146999642328.706940,13447124203.580631,-13415355965.687637,-51259179753.323898,0.253172,-0.252933,-0.965753
1.740000,1.280000,0.484141,0.040000,147114693282.548126,11065816267.930408,-11039910943.678923,-46585291225.608482,0.208340,-0.208145,-0.877694
1.780000,1.280000,0.518584,0.040000,147211999419.380707,9137373567.077335,-9116307014.150665,-42257895332.929131,0.172034,-0.171876,-0.796163
1.820000,1.280000,0.553773,0.040000,147294653622.796692,7577279858.520948,-7560185118.296117,-38261120273.620903,0.142664,-0.142535,-0.720862
1.860000,1.280000,0.589577,0.040000,147365158098.271637,6316136173.704367,-6302287199.950863,-34574473246.298294,0.118921,-0.118817,-0.651403
1.900000,1.280000,0.625889,0.040000,147425535625.402618,5297212967.102618,-5286006664.864507,-31174971759.955242,0.099739,-0.099655,-0.587355
1.940000,1.280000,0.662626,0.040000,147477420512.052612,4474310570.785040,-4465249102.763375,-28038604331.711514,0.084247,-0.084179,-0.528264
1.980000,1.280000,0.699721,0.040000,147522132673.950134,3809925253.432350,-3802599649.561928,-25141303874.900005,0.071740,-0.071685,-0.473677
2.020000,1.280000,0.737119,0.040000,147560737775.951813,3273699417.974348,-3267774956.159665,-22459570971.968971,0.061645,-0.061600,-0.423151
2.060000,1.280000,0.774778,0.040000,147594095917.291962,2841125853.181132,-2836329339.762763,-19970848489.063881,0.053501,-0.053465,-0.376262
2.100000,1.280000,0.812661,0.040000,147622900936.882202,2492473381.650802,-2488582273.273073,-17653721783.423073,0.046938,-0.046908,-0.332606
2.140000,1.280000,0.850737,0.040000,147647712060.400391,2211902101.872181,-2208735308.463850,-15487998323.983362,0.041656,-0.041632,-0.291803
2.180000,1.280000,0.888982,0.040000,147668979307.336182,1986739050.936024,-1984149219.651302,-13454705363.878683,0.037417,-0.037397,-0.253494
2.220000,1.280000,0.927375,0.040000,147687063819.182922,1806888523.346308,-1804755582.292911,-11536033110.528065,0.034031,-0.034015,-0.217346
2.260000,1.280000,0.965899,0.040000,147702254054.195068,1664354730.908297,-1662580291.867031,-9715242503.531162,0.031347,-0.031334,-0.183041
2.300000,1.280000,1.004538,0.040000,147714778614.150024,1552855260.066500,-1551354836.108845,-7976548198.068550,0.029248,-0.029237,-0.150283
2.340000,1.280000,1.043280,0.040000,147724816324.746887,1467472284.029782,-1466134959.364905,-6304945439.719380,0.027640,-0.027630,-0.118789
2.380000,1.280000,1.082113,0.040000,147732504180.449432,1404785469.981962,-1404696336.582629,-4686762729.832730,0.026466,-0.026466,-0.088301
2.420000,1.280000,1.121029,0.040000,147737945405.014526,1364558452.440781,-1376029679.971197,-3516553655.550610,0.025774,-0.025860,-0.066254
2.460000,1.280000,1.160018,0.040000,147741240130.357269,1327823235.261044,-1344219279.888981,-2841603022.773225,0.025110,-0.025233,-0.053537
-2.500000,1.320000,3.185366,0.040000,-42035415462.280807,-795670572523.536133,24501529534688.339844,-1697356921557.664551,-148.980532,327.633383,-31.979188
-2.460000,1.320000,3.145540,0.040000,-84066067528.505417,498330410816.859619,21151526006789.636719,-1064797814733.971924,-112.979920,276.138258,-20.061408
-2.420000,1.320000,3.105718,0.040000,-84050040219.210403,-1213798850525.249756,6889808009284.679688,-693799725037.459717,-54.950465,97.726186,-13.071589
-2.380000,1.320000,3.065901,0.040000,-84023006830.005035,-61520016079.731308,167932408872.524475,-6931620201.467197,-1.760534,2.562483,-0.130596
-2.340000,1.320000,3.026089,0.040000,-83984939038.696411,-7043970956.383791,7041338947.238090,-6314831513.685959,-0.132698,0.132678,-0.118975
-2.300000,1.320000,2.986282,0.040000,-83935596191.254135,-7251705845.528382,7248620987.525533,-7966934059.731250,-0.136609,0.136586,-0.150102
-2.260000,1.320000,2.946480,0.040000,-83874645871.992004,-7513908806.292662,7510503936.659521,-9670872190.633553,-0.141547,0.141521,-0.182205
-2.220000,1.320000,2.906683,0.040000,-83801668109.311508,-7835572226.560911,7831786917.517440,-11437697434.415447,-0.147605,0.147577,-0.215493
-2.180000,1.320000,2.866892,0.040000,-83716147663.893402,-8223303484.830965,8219045455.262794,-13278886002.479940,-0.154908,0.154876,-0.250182
-2.140000,1.320000,2.827107,0.040000,-83617463444.939407,-8685362130.503510,8680520339.395218,-15206319590.228405,-0.163610,0.163573,-0.286496
-2.100000,1.320000,2.787328,0.040000,-83504875268.393616,-9231950488.669838,9226392263.037739,-17232286825.556919,-0.173904,0.173862,-0.324666
-2.060000,1.320000,2.747556,0.040000,-83377507500.367981,-9875589187.337185,9869155648.243120,-19369454030.208412,-0.186025,0.185977,-0.364932
-2.020000,1.320000,2.707790,0.040000,-83234328984.211411,-10631574554.835211,10624075237.472374,-21630788438.999863,-0.200263,0.200206,-0.407537
-1.980000,1.320000,2.668031,0.040000,-83074128518.269592,-11518529862.050364,11509736527.343861,-24029414407.568172,-0.216966,0.216900,-0.452728
-1.940000,1.320000,2.628280,0.040000,-82895485001.128815,-12559064270.341938,12548703896.499945,-26578376410.989895,-0.236561,0.236483,-0.500752
-1.900000,1.320000,2.588536,0.040000,-82696731188.793930,-13780553565.495228,13768300590.103447,-29290273564.242348,-0.259564,0.259472,-0.551846
-1.860000,1.320000,2.548800,0.040000,-82475909813.506668,-15216055414.971291,15201523440.889763,-32176718521.497292,-0.286597,0.286488,-0.606228
-1.820000,1.320000,2.509073,0.040000,-82230720599.010284,-16905367988.700623,16888101398.892796,-35247558271.732101,-0.318409,0.318279,-0.664084
-1.780000,1.320000,2.469354,0.040000,-81958456478.377365,-18896232768.850670,18875699058.024033,-38509774850.822113,-0.355900,0.355745,-0.725546
-1.740000,1.320000,2.429645,0.040000,-81655927091.071442,-21245667913.889759,21221252100.580231,-41965959741.945824,-0.400143,0.399959,-0.790663
-1.700000,1.320000,2.389945,0.040000,-81319367429.131348,-24021394267.401752,23992397576.157833,-45612226483.221390,-0.452413,0.452195,-0.859361
-1.660000,1.320000,2.350256,0.040000,-80944329357.512405,-27303277245.511627,27268923448.808968,-49435392266.398872,-0.514215,0.513956,-0.931391
-1.620000,1.320000,2.310577,0.040000,-80525553713.424942,-31184647879.012875,31144102381.284328,-53409223140.387794,-0.587308,0.587002,-1.006261
-1.580000,1.320000,2.270910,0.040000,-80056820890.658417,-35773276669.857574,35725685722.309921,-57489503627.176582,-0.673720,0.673362,-1.083136
-1.540000,1.320000,2.231254,0.040000,-79530778381.676956,-41191644087.117165,41136204522.072144,-61607669578.968475,-0.775761,0.775343,-1.160724
-1.500000,1.320000,2.191611,0.040000,-78938744891.489197,-47575969702.100891,47512043225.985641,-65662749911.343895,-0.895998,0.895516,-1.237124
-1.460000,1.320000,2.151981,0.040000,-78270492644.788788,-55073217500.219048,55000507553.329857,-69511426780.914810,-1.037200,1.036652,-1.309636
-1.420000,1.320000,2.112365,0.040000,-77514012773.177567,-63834983473.282867,63753796065.025665,-72956189364.885376,-1.202229,1.201617,-1.374537
-1.380000,1.320000,2.072764,0.040000,-76655273689.708649,-74006805150.651016,73918416039.980331,-75731889126.583633,-1.393832,1.393165,-1.426833
-1.340000,1.320000,2.033178,0.040000,-75677989715.946625,-85711056767.654343,85618202464.177689,-77491592934.876816,-1.614321,1.613621,-1.459987
-1.300000,1.320000,1.993609,0.040000,-74563427514.635834,-99021314157.743118,98928807892.354187,-77793580489.579071,-1.865096,1.864399,-1.465676
-1.260000,1.320000,1.954058,0.040000,-73290291528.762924,-113926092782.075607,113841530858.561691,-76092743148.617691,-2.145956,2.145318,-1.433631
-1.220000,1.320000,1.914525,0.040000,-71834746574.996750,-130280518872.856689,130214978222.006470,-71741546491.170639,-2.454190,2.453696,-1.351652
-1.180000,1.320000,1.875012,0.040000,-70170654892.694946,-147746280831.919159,147714807979.478546,-64007976684.938507,-2.783448,2.783211,-1.205947
-1.140000,1.320000,1.835520,0.040000,-68270123396.755409,-165723725713.679810,165745284436.614746,-52120006183.203651,-3.122453,3.122615,-0.981971
-1.100000,1.320000,1.796051,0.040000,-66104468949.761642,-183285722286.976624,183382131406.131897,-35347019984.204788,-3.453754,3.454481,-0.665958
-1.060000,1.320000,1.756605,0.040000,-63645705945.554504,-199130878043.906677,199324205819.839600,-13126540376.936375,-3.752834,3.754291,-0.247312
-1.020000,1.320000,1.717185,0.040000,-60868628747.113640,-211582564734.612183,211890579863.931427,14762909262.922943,-3.988079,3.990400,0.278142
-0.980000,1.320000,1.677793,0.040000,-57753487654.963005,-218666530560.337311,219096296910.198395,47996984339.408737,-4.122233,4.125472,0.904291
-0.940000,1.320000,1.638430,0.040000,-54289131498.418991,-218297715495.456635,218838343623.296661,85505472815.440018,-4.115911,4.119986,1.610973
-0.900000,1.320000,1.599099,0.040000,-50476316735.397713,-208589085615.389465,209205860480.543488,125338976964.549332,-3.933425,3.938074,2.361459
-0.860000,1.320000,1.559802,0.040000,-46330691002.913109,-188257579439.213867,188890608816.460602,164680465282.284576,-3.550460,3.555231,3.102675
-0.820000,1.320000,1.520541,0.040000,-41884808332.687187,-157049729250.054688,157620008054.109467,200070190611.969208,-2.962131,2.966429,3.769438
-0.780000,1.320000,1.481320,0.040000,-37188506081.264091,-116061865148.310684,116485523554.396851,227863662616.248840,-2.189067,2.192260,4.293083
-0.740000,1.320000,1.442142,0.040000,-32307143504.680622,-67817957729.532921,68025786243.844597,244858464307.833435,-1.278904,1.280471,4.613275
-0.700000,1.320000,1.403010,0.040000,-27317585431.198315,-16017414701.649256,15973345336.276987,248937801687.195648,-0.301528,0.301196,4.690132
-0.660000,1.320000,1.363929,0.040000,-22302333080.304745,35028794655.069176,-35317308775.448990,239535907311.998322,0.661594,-0.663768,4.512995
-0.620000,1.320000,1.324902,0.040000,-17342691989.459831,81136609082.519547,-81620473123.676544,217768567424.824646,1.531396,-1.535042,4.102886
-0.580000,1.320000,1.285935,0.040000,-12512139998.635086,118954586181.761917,-119556592629.704514,186181243162.760651,2.244576,-2.249113,3.507763
-0.540000,1.320000,1.247034,0.040000,-7871007053.946895,146440979242.362335,-147076444098.572083,148195068092.165314,2.762625,-2.767414,2.792081
-0.500000,1.320000,1.208204,0.040000,-3463220066.226780,162995860404.147797,-163593094271.638550,107426355236.298416,3.074312,-3.078813,2.023975
-0.460000,1.320000,1.169453,0.040000,684675649.920198,169252021000.288177,-169763494731.935760,67095992598.248238,3.191697,-3.195552,1.264127
-0.420000,1.320000,1.130790,0.040000,4562540867.091503,166669376823.899872,-167068646242.925476,29700397107.461990,3.142404,-3.145413,0.559573
-0.380000,1.320000,1.092222,0.040000,8174340903.228459,157160709754.578400,-157434973234.183014,-3058991406.843129,2.962549,-2.964616,-0.057633
-0.340000,1.320000,1.053761,0.040000,11535104812.299417,142847755087.643219,-143003449675.184723,-30289183725.303356,2.692215,-2.693388,-0.570666
-0.300000,1.320000,1.015420,0.040000,14667552181.453661,125765845081.226486,-125838535107.780884,-51966101618.980736,2.369912,-2.370460,-0.979071
-0.260000,1.320000,0.977211,0.040000,17598880220.850792,107393772721.832260,-107426406769.449936,-68750633819.054169,2.023545,-2.023791,-1.295302
-0.220000,1.320000,0.939151,0.040000,20358425475.782341,88455675587.169189,-88454706945.088287,-81342123986.342453,1.666551,-1.666543,-1.532533
-0.180000,1.320000,0.901260,0.040000,22976453103.442169,69481515069.776047,-69425558006.887878,-90025548585.708389,1.308756,-1.308334,-1.696134
-0.140000,1.320000,0.863558,0.040000,25483236599.147209,51393247307.264244,-51302196241.331108,-95211807529.433929,0.967764,-0.967078,-1.793846
-0.100000,1.320000,0.826073,0.040000,27907638858.677677,34886021765.295029,-34830068621.637497,-98130154047.280991,0.656957,-0.656535,-1.848829
-0.060000,1.320000,0.788835,0.040000,30276124674.417641,19397619876.937584,-19403124934.505405,-100077010068.320221,0.365494,-0.365535,-1.885509
-0.020000,1.320000,0.751881,0.040000,32613601516.513737,3772078567.971380,-3780818774.523865,-101053171432.919601,0.071118,-0.071183,-1.903900
0.020000,1.320000,0.715254,0.040000,34945074146.200668,-12057343861.961597,12088345469.062807,-100236786479.475388,-0.227343,0.227576,-1.888519
0.060000,1.320000,0.679009,0.040000,37295773228.702988,-27301269641.869812,27322387930.995239,-97717818352.755493,-0.514491,0.514650,-1.841060
0.100000,1.320000,0.643208,0.040000,39690103597.058418,-42138184200.465546,42090918623.404793,-94437822712.807648,-0.793641,0.793284,-1.779263
0.140000,1.320000,0.607931,0.040000,42151941682.029472,-57843992003.231834,57758848559.774872,-90404575484.907761,-1.089333,1.088691,-1.703275
0.180000,1.320000,0.573275,0.040000,44706473595.606773,-75028466188.524323,74977163608.804642,-84291719566.571426,-1.413290,1.412903,-1.588105
0.220000,1.320000,0.539359,0.040000,47381116731.257767,-93016101620.090134,93015226728.977798,-74887278214.564011,-1.752472,1.752466,-1.410920
0.260000,1.320000,0.506332,0.040000,50204573338.344200,-110964842389.218826,110990425515.756744,-61814823104.455803,-2.090787,2.090979,-1.164627
0.300000,1.320000,0.474380,0.040000,53205537582.586327,-128468926989.937775,128530428646.646545,-44745487621.029930,-2.420777,2.421240,-0.843031
0.340000,1.320000,0.443735,0.040000,56411963338.406082,-144871505953.493256,145018128471.495117,-22842908562.872688,-2.730292,2.731397,-0.430374
0.380000,1.320000,0.414686,0.040000,59849956801.893951,-158654045633.715637,158925798320.163361,4703601805.882883,-2.990670,2.992718,0.088619
0.420000,1.320000,0.387593,0.040000,63541378915.009048,-167670259869.766602,168075135147.808167,37964334253.626938,-3.161293,3.164345,0.715270
0.460000,1.320000,0.358337,0.040000,67500459069.835152,-169661956924.342896,170187685666.706940,76077044415.938553,-3.199501,3.203463,1.433336
0.500000,1.320000,0.330195,0.040000,71730204268.565552,-162568876046.970734,163188914265.102905,117313743134.168640,-3.066396,3.071069,2.210259
0.540000,1.320000,0.302801,0.040000,76219123259.933411,-144785256557.644318,145449863315.946472,159081147229.237915,-2.731595,2.736603,2.997181
0.580000,1.320000,0.273260,0.040000,80938695172.085434,-115571889316.954575,116204206859.945374,197979590106.581665,-2.181015,2.185781,3.730050
0.620000,1.320000,0.246686,0.040000,85842228260.743225,-75511249635.830368,76019473942.633499,230151682834.550293,-1.425548,1.429378,4.336191
0.660000,1.320000,0.217151,0.040000,90865813363.963196,-26748384572.462490,27048366366.404156,251925561460.097595,-0.505651,0.507911,4.746424
0.700000,1.320000,0.188936,0.040000,95931743994.543839,27144673247.177193,-27106673765.401909,260560958433.093506,0.511207,-0.510920,4.909120
0.740000,1.320000,0.162727,0.040000,100954186047.090042,81684720979.826157,-81917144365.438370,254858045573.866241,1.540301,-1.542053,4.801673
0.780000,1.320000,0.131840,0.040000,105846282967.216141,132244862757.480927,-132708741094.609161,235435951450.942566,2.494192,-2.497688,4.435750
0.820000,1.320000,0.107160,0.040000,110527487467.877151,174955129998.296906,-175241246917.660187,204918667830.347260,3.297873,-3.300029,3.860786
0.860000,1.320000,0.076864,0.040000,114929853237.261795,201899484520.513519,-199129798497.989990,169075596468.467407,3.788249,-3.767376,3.185482
0.900000,1.320000,0.048673,0.040000,119002317061.548080,214582910410.780609,-203359064029.342682,133752545917.852966,3.979427,-3.894842,2.519976
0.940000,1.320000,0.035724,0.040000,122712533863.074020,210173619700.531952,-207206423338.887848,94500118950.116043,3.943022,-3.920660,1.780437
1.060000,1.320000,0.035724,0.040000,131605196621.792648,181373416493.235962,-193683184325.901337,-24331842331.413067,3.486757,-3.579527,-0.458426
1.100000,1.320000,0.048673,0.040000,133868295609.009613,178905864186.317413,-178957085067.440948,-48697513511.350021,3.370980,-3.371366,-0.917489
1.140000,1.320000,0.076864,0.040000,135824275899.176743,167788530594.615631,-168833908362.095703,-64751898366.683960,3.167142,-3.175020,-1.219963
1.180000,1.320000,0.107160,0.040000,137505052785.431061,151522700133.146545,-151843600624.466675,-77147421800.350998,2.856589,-2.859008,-1.453502
1.220000,1.320000,0.131840,0.040000,138942985726.128632,132198500666.361649,-132117546272.141312,-84835139573.596497,2.490239,-2.489629,-1.598343
1.260000,1.320000,0.162727,0.040000,140169279903.350433,114037463616.939026,-113936929081.938919,-88518149885.909912,2.147964,-2.147206,-1.667733
1.300000,1.320000,0.188936,0.040000,141212962760.837067,97601997566.496414,-97493987902.230377,-89366243301.792572,1.838268,-1.837454,-1.683712
1.340000,1.320000,0.217151,0.040000,142100319253.892426,83029518742.903961,-82922287403.804962,-88098981041.277664,1.563718,-1.562910,-1.659836
1.380000,1.320000,0.246686,0.040000,142854666172.165161,70312477683.172607,-70211204382.005997,-85319573363.906967,1.324155,-1.323392,-1.607470
1.420000,1.320000,0.273260,0.040000,143496359559.668274,59351741475.402138,-59259316987.138748,-81514587759.528336,1.117699,-1.117002,-1.535782
1.460000,1.320000,0.302801,0.040000,144042949843.828827,49996565294.436737,-49914274698.785233,-77064081265.508301,0.941499,-0.940879,-1.451932
1.500000,1.320000,0.330195,0.040000,144509420574.127808,42072774746.618820,-42000841498.890381,-72256478191.120773,0.792269,-0.791727,-1.361354
1.540000,1.320000,0.358337,0.040000,144908465472.905090,35401495099.168785,-35339487551.115562,-67304614617.913452,0.666634,-0.666167,-1.268058
1.580000,1.320000,0.387593,0.040000,145250773625.599762,29810778498.234829,-29757898384.708725,-62360925421.887825,0.561353,-0.560955,-1.174916
1.620000,1.320000,0.414686,0.040000,145545304028.784851,25142167532.439224,-25097445280.146179,-57530796215.720482,0.473440,-0.473103,-1.083914
1.660000,1.320000,0.443735,0.040000,145799538852.939148,21253815615.397785,-21216236230.927181,-52883750692.420349,0.400222,-0.399939,-0.996361
1.700000,1.320000,0.474380,0.040000,146019710321.585510,18021377952.532593,-17989957467.946274,-48462509993.146721,0.339356,-0.339119,-0.913062
1.740000,1.320000,0.506332,0.040000,146210999705.676544,15337541292.787161,-15311369351.383425,-44290142563.125397,0.288820,-0.288623,-0.834452
1.780000,1.320000,0.539359,0.040000,146377709133.706421,13110789344.103270,-13089049463.883936,-40375592668.693199,0.246892,-0.246728,-0.760700
1.820000,1.320000,0.573275,0.040000,146523408158.551025,11263798819.663027,-11245774543.135281,-36717882425.242706,0.212115,-0.211979,-0.691786
1.860000,1.320000,0.607931,0.040000,146651057625.600128,9731716799.216938,-9716789384.250391,-33309257103.760414,0.183267,-0.183154,-0.627566
1.900000,1.320000,0.643208,0.040000,146763113585.298431,8460470431.017170,-8448111854.527625,-30137505369.385319,0.159330,-0.159237,-0.567808
1.940000,1.320000,0.679009,0.040000,146861613947.273346,7405193272.064837,-7394956984.407513,-27187645421.807976,0.139460,-0.139383,-0.512231
1.980000,1.320000,0.715254,0.040000,146948250390.367493,6528809298.615367,-6520320248.121219,-24443130066.777378,0.122959,-0.122895,-0.460523
2.020000,1.320000,0.751881,0.040000,147024427792.961548,5800788589.107902,-5793733414.978471,-21886690822.448547,0.109250,-0.109197,-0.412358
2.060000,1.320000,0.788835,0.040000,147091313174.698242,5196072593.618891,-5190190481.240357,-19500913835.376133,0.097864,-0.097819,-0.367409
2.100000,1.320000,0.826073,0.040000,147149875870.144928,4694158015.287412,-4689232447.597786,-17268618370.825939,0.088413,-0.088376,-0.325351
2.140000,1.320000,0.863558,0.040000,147200920401.527252,4278324043.584338,-4274175523.544237,-15173091292.977217,0.080583,-0.080551,-0.285870
2.180000,1.320000,0.901260,0.040000,147245113288.420349,3934986253.968445,-3931465978.331937,-13198217493.095715,0.074118,-0.074091,-0.248662
2.220000,1.320000,0.939151,0.040000,147283004829.596039,3653160779.495698,-3650145215.838528,-11328535919.879545,0.068811,-0.068788,-0.213436
2.260000,1.320000,0.977211,0.040000,147315046715.674255,3424023955.361650,-3421410642.077529,-9549243185.816021,0.064496,-0.064476,-0.179913
2.300000,1.320000,1.015420,0.040000,147341606178.203827,3240560171.687398,-3238270760.295235,-7846163338.104064,0.061041,-0.061024,-0.147826
2.340000,1.320000,1.053761,0.040000,147362977235.698303,3097362916.240231,-3095409705.619757,-6205735559.614995,0.058345,-0.058330,-0.116920
2.380000,1.320000,1.092222,0.040000,147379389238.334259,2990967298.601223,-2989192242.825643,-4616593824.439404,0.056342,-0.056328,-0.086979
2.420000,1.320000,1.130790,0.040000,147391009074.363586,2923066319.846082,-2935472628.518083,-3462219103.425890,0.055142,-0.055236,-0.065230
2.460000,1.320000,1.169453,0.040000,147397892621.273804,2901135169.056941,-2945961310.513510,-2797638921.366185,0.054912,-0.055250,-0.052709
-2.500000,1.360000,3.189316,0.040000,-41816852216.110947,3244642581198.805664,26899677340113.769531,-2493272351236.290039,-109.249992,336.424576,-46.974696
-2.460000,1.360000,3.149540,0.040000,-83628338234.552475,2807568455366.316406,17934254824166.667969,-1464304490687.155762,-64.340175,220.655365,-27.588345
-2.420000,1.360000,3.109770,0.040000,-83608219994.203583,-751093593409.921021,5724730212522.114258,-303831545280.435730,-42.262898,79.745377,-5.724362
-2.380000,1.360000,3.070005,0.040000,-83574992899.986786,-61561753730.747978,163645946084.704254,-4576602795.641506,-1.736857,2.506187,-0.086226
-2.340000,1.360000,3.030247,0.040000,-83528248775.084091,-8646703530.627272,8642924468.717497,-6112545132.968652,-0.162888,0.162859,-0.115164
-2.300000,1.360000,2.990495,0.040000,-83467665041.894165,-8899378099.385723,8895651323.597624,-7707607992.770292,-0.167648,0.167620,-0.145216
-2.260000,1.360000,2.950749,0.040000,-83392836682.167206,-9216247569.804495,9212231040.844822,-9349646661.031181,-0.173617,0.173586,-0.176153
-2.220000,1.360000,2.911011,0.040000,-83303256212.412643,-9603124724.930021,9598714990.093630,-11048523829.321852,-0.180904,0.180870,-0.208161
-2.180000,1.360000,2.871280,0.040000,-83198304026.886734,-10066929770.138336,10062032324.150335,-12814217123.373190,-0.189639,0.189602,-0.241427
-2.140000,1.360000,2.831557,0.040000,-83077237293.896011,-10616184971.029852,10610691010.943958,-14656840631.384403,-0.199984,0.199943,-0.276143
-2.100000,1.360000,2.791841,0.040000,-82939176295.819824,-11261309694.195700,11255091497.494078,-16586593499.173347,-0.212134,0.212088,-0.312501
-2.060000,1.360000,2.752134,0.040000,-82783087729.173309,-12014953199.623009,12007860373.707642,-18613663397.054012,-0.226329,0.226275,-0.350692
-2.020000,1.360000,2.712435,0.040000,-82607764431.270157,-12892390121.095673,12884245509.294664,-20748072403.077904,-0.242854,0.242793,-0.390906
-1.980000,1.360000,2.672746,0.040000,-82411800900.075867,-13911986960.873825,13902582169.769020,-22999445637.317715,-0.262057,0.261986,-0.433323
-1.940000,1.360000,2.633066,0.040000,-82193563860.289764,-15095746167.771837,15084836821.315954,-25376676774.332306,-0.284351,0.284269,-0.478111
-1.900000,1.360000,2.593395,0.040000,-81951157004.728210,-16469932332.704939,16457233272.883705,-27887456847.767822,-0.310231,0.310136,-0.525416
-1.860000,1.360000,2.553735,0.040000,-81682378909.038742,-18065781077.766026,18050961901.517128,-30537623100.636444,-0.340286,0.340174,-0.575347
-1.820000,1.360000,2.514086,0.040000,-81384672986.066895,-19920284267.485012,19902965840.743172,-33330272756.838802,-0.375212,0.375081,-0.627962
-1.780000,1.360000,2.474447,0.040000,-81055068225.071518,-22077033785.516590,22056786741.155594,-36264572367.612801,-0.415830,0.415677,-0.683246
-1.740000,1.360000,2.434821,0.040000,-80690109368.828888,-24587088290.471004,24563435037.654362,-39334176992.313766,-0.463101,0.462923,-0.741079
-1.700000,1.360000,2.395207,0.040000,-80285775147.246658,-27509800377.783295,27482222874.710621,-42525155646.138077,-0.518145,0.517937,-0.801199
-1.660000,1.360000,2.355606,0.040000,-79837383252.912888,-30913501890.688320,30881458411.925697,-45813301928.204681,-0.582247,0.582006,-0.863149
-1.620000,1.360000,2.316019,0.040000,-79339480975.908264,-34875888344.669937,34838843748.783989,-49160694939.136375,-0.656873,0.656593,-0.926216
-1.580000,1.360000,2.276447,0.040000,-78785720903.508804,-39483864478.735275,39441340063.116165,-52511371559.890312,-0.743659,0.743338,-0.989345
-1.540000,1.360000,2.236889,0.040000,-78168721961.863693,-44832506701.339371,44784157544.920891,-55785986947.103897,-0.844397,0.844033,-1.051040
-1.500000,1.360000,2.197348,0.040000,-77479917501.685715,-51022660921.812828,50968390438.997711,-58875391499.617569,-0.960990,0.960581,-1.109247
-1.460000,1.360000,2.157823,0.040000,-76709394328.040421,-58156526435.182877,58096649182.501167,-61633163052.486412,-1.095364,1.094913,-1.161205
-1.420000,1.360000,2.118317,0.040000,-75845729813.170563,-66330387834.625565,66265851460.999695,-63867335458.033455,-1.249338,1.248852,-1.203298
-1.380000,1.360000,2.078829,0.040000,-74875838810.529816,-75623474273.766846,75556148235.122955,-65331901181.079346,-1.424410,1.423902,-1.230891
-1.340000,1.360000,2.039361,0.040000,-73784848295.243347,-86081804661.554428,86014834394.389221,-65719183670.297646,-1.621453,1.620948,-1.238188
-1.300000,1.360000,1.999914,0.040000,-72556025675.595322,-97695918352.147934,97634125558.913300,-64654916150.374252,-1.840298,1.839833,-1.218136
-1.260000,1.360000,1.960490,0.040000,-71170796472.500641,-110371752255.493011,110322030868.250702,-61698835767.238083,-2.079187,2.078812,-1.162442
-1.220000,1.360000,1.921090,0.040000,-69608897951.577179,-123894830507.902130,123866440864.940887,-56354735388.027298,-2.334090,2.333876,-1.061756
-1.180000,1.360000,1.881715,0.040000,-67848725843.582214,-137889649153.536438,137894251281.561432,-48094989623.163437,-2.597947,2.597982,-0.906137
-1.140000,1.360000,1.842366,0.040000,-65867938736.683517,-151778899596.015747,151830101237.623627,-36405129824.198242,-2.859892,2.860278,-0.685894
-1.100000,1.360000,1.803047,0.040000,-63644384646.468048,-164751013081.483826,164863166752.368225,-20853323793.931202,-3.104639,3.105484,-0.392889
-1.060000,1.360000,1.763758,0.040000,-61157400562.837517,-175748975472.700684,175934990104.221252,-1186587792.176949,-3.312264,3.313666,-0.022356
-1.020000,1.360000,1.724501,0.040000,-58389501399.317406,-183497182157.041290,183765283078.005096,22550816162.280018,-3.458709,3.460729,0.424870
-0.980000,1.360000,1.685280,0.040000,-55328413819.683212,-186583944581.740936,186933673074.663055,49891473331.314949,-3.517326,3.519962,0.939984
-0.940000,1.360000,1.646096,0.040000,-51969321819.610229,-183611977783.300812,184030252358.565491,79838726046.433792,-3.461720,3.464872,1.504208
-0.900000,1.360000,1.606953,0.040000,-48317083400.270096,-173415010259.144409,173873622803.306274,110819004040.676224,-3.269831,3.273288,2.087894
-0.860000,1.360000,1.567852,0.040000,-44388073914.735680,-155315419917.787048,155771593900.613007,140734394706.347168,-2.928811,2.932249,2.651518
-0.820000,1.360000,1.528799,0.040000,-40211248442.630272,-129370640700.812119,129771855212.998276,167144934818.277008,-2.439686,2.442709,3.149107
-0.780000,1.360000,1.489795,0.040000,-35828035314.167061,-96536332953.734406,96829335227.300369,187578544025.989655,-1.820457,1.822665,3.534089
-0.740000,1.360000,1.450846,0.040000,-31290805988.867977,-58676128383.665924,58818242035.092026,199921414082.655457,-1.106296,1.107367,3.766635
-0.700000,1.360000,1.411955,0.040000,-26659909164.632778,-18379879643.517563,18349238216.588600,202799996183.613342,-0.346114,0.345883,3.820869
-0.660000,1.360000,1.373128,0.040000,-21999558322.170692,21390917831.877895,-21589756504.099277,195849610683.968109,0.404141,-0.405640,3.689920
-0.620000,1.360000,1.334371,0.040000,-17373133070.333118,57752257196.294052,-58089419657.317696,179788027385.811157,1.089992,-1.092533,3.387311
-0.580000,1.360000,1.295689,0.040000,-12838602777.779865,88327764455.849060,-88755610199.979507,156269552654.920776,1.666565,-1.669789,2.944209
-0.540000,1.360000,1.257089,0.040000,-8444751110.496146,111551591826.044342,-112016141870.246994,127563189073.152039,2.104322,-2.107823,2.403364
-0.500000,1.360000,1.218580,0.040000,-4228680371.731103,126779221212.181259,-127231423916.195114,96150976916.659042,2.391150,-2.394558,1.811540
-0.460000,1.360000,1.180170,0.040000,-214773007.029174,134207886203.953537,-134610692326.101715,64360157105.798470,2.530831,-2.533867,1.212583
-0.420000,1.360000,1.141869,0.040000,3585011153.548806,134673667673.100357,-135003618331.269943,34112142220.766228,2.539195,-2.541681,0.642693
-0.380000,1.360000,1.103689,0.040000,7169818024.933572,129416901139.924576,-129663465681.762756,6798652599.273826,2.439683,-2.441541,0.128091
-0.340000,1.360000,1.065642,0.040000,10547933474.554977,119861457021.247589,-120027772269.409470,-16762212938.196512,2.259199,-2.260453,-0.315810
-0.300000,1.360000,1.027744,0.040000,13734524173.101431,107389185677.088943,-107490786708.051865,-36305330140.882446,2.023849,-2.024614,-0.684013
-0.260000,1.360000,0.990010,0.040000,16749446261.191153,93128821727.995926,-93183876979.562851,-51976649114.349678,1.754912,-1.755327,-0.979270
-0.220000,1.360000,0.952462,0.040000,19615446974.545219,77891684405.792053,-77909486987.700104,-64084422968.315155,1.467625,-1.467759,-1.207388
-0.180000,1.360000,0.915122,0.040000,22356852329.001747,62313382078.056099,-62298308166.684433,-72952081097.212509,1.173935,-1.173821,-1.374459
-0.140000,1.360000,0.878016,0.040000,24998536228.420292,46962426529.814896,-46929646985.973923,-79017155568.018143,0.884614,-0.884367,-1.488729
-0.100000,1.360000,0.841176,0.040000,27565027794.168095,32167819271.885212,-32141723443.903141,-82914395327.146652,0.605913,-0.605716,-1.562155
-0.060000,1.360000,0.804637,0.040000,30080009207.867165,17825920716.171932,-17816461677.517883,-85213994579.537903,0.335797,-0.335726,-1.605481
-0.020000,1.360000,0.768443,0.040000,32566459451.759769,3635342362.918713,-3630230133.648095,-86086356095.552094,0.068463,-0.068425,-1.621917
0.020000,1.360000,0.732645,0.040000,35047089322.260513,-10478315030.832090,10488321212.168577,-85435245958.356323,-0.197474,0.197549,-1.609650
0.060000,1.360000,0.697304,0.040000,37544465301.545509,-24408875853.686882,24411778438.225445,-83306600307.505478,-0.459894,0.459916,-1.569545
0.100000,1.360000,0.662493,0.040000,40080886543.500336,-38277591017.441048,38260311177.279442,-79867866369.409012,-0.721074,0.720944,-1.504757
0.140000,1.360000,0.628300,0.040000,42678580482.259125,-52446610570.755974,52419863868.090195,-74979189947.357285,-0.987973,0.987772,-1.412651
0.180000,1.360000,0.594831,0.040000,45360232375.399734,-67067144096.250992,67055691046.199478,-68077201882.030052,-1.263519,1.263433,-1.282614
0.220000,1.360000,0.562217,0.040000,48149205980.126884,-81851253123.771851,81869592953.209167,-58532524153.249123,-1.542229,1.542367,-1.102787
0.260000,1.360000,0.530615,0.040000,51069109185.354309,-96283551029.829666,96335825871.998047,-45904387138.417984,-1.814333,1.814727,-0.864865
0.300000,1.360000,0.500216,0.040000,54142985538.420921,-109785323297.704086,109882431739.688019,-29833350574.185829,-2.068968,2.069700,-0.562078
0.340000,1.360000,0.471254,0.040000,57392371115.762596,-121573486696.949203,121736474706.343353,-9940174629.946335,-2.291436,2.292665,-0.187279
0.380000,1.360000,0.444009,0.040000,60836025519.502480,-130498300785.117981,130745246850.073135,13999240227.725714,-2.460059,2.461920,0.263754
0.420000,1.360000,0.414875,0.040000,64488100764.485619,-135114655331.350372,135450101887.322998,41774154618.050529,-2.547534,2.550062,0.787049
0.460000,1.360000,0.386710,0.040000,68355850479.908676,-133912073165.377914,134325878896.502350,72581849533.919861,-2.525320,2.528439,1.367484
0.500000,1.360000,0.359171,0.040000,72437233522.686325,-125556829503.354584,126024933483.748291,105001664140.901718,-2.368209,2.371737,1.978292
0.540000,1.360000,0.329828,0.040000,76718800187.182724,-109129817469.515610,109613226338.209290,137035102531.737854,-2.058801,2.062444,2.581821
0.580000,1.360000,0.302935,0.040000,81174244579.236603,-84384450253.062683,84830709321.817474,166231608467.673706,-1.592374,1.595737,3.131900
0.620000,1.360000,0.273625,0.040000,85764030642.954971,-51974244993.701118,52325085185.080833,189955741936.960083,-0.981208,0.983852,3.578876
0.660000,1.360000,0.245383,0.040000,90436446368.857346,-13547024934.207348,13750729240.260881,205785985047.760651,-0.256385,0.257920,3.877127
0.700000,1.360000,0.218623,0.040000,95130230270.482635,28369779778.948463,-28345793483.435673,211953560673.011780,0.534368,-0.534187,3.993328
0.740000,1.360000,0.188408,0.040000,99778586478.298096,70695256031.595322,-70856109298.464371,207695573030.132538,1.332849,-1.334061,3.913105
0.780000,1.360000,0.162478,0.040000,104314072940.329468,110261477493.166260,-110583565143.549896,193416501386.271240,2.079211,-2.081638,3.644079
0.820000,1.360000,0.132755,0.040000,108673626908.912613,144301678528.322083,-144738761654.062592,170610067772.864166,2.721198,-2.724492,3.214393
0.860000,1.360000,0.104330,0.040000,112802957716.023621,171080462953.460297,-170986653834.936371,142137365327.860107,3.222725,-3.222018,2.677950
0.900000,1.360000,0.081191,0.040000,116659697498.429565,186478761598.179871,-183343507081.570557,112550893275.480713,3.495647,-3.472019,2.120524
0.940000,1.360000,0.047034,0.040000,120214995874.211472,190762789707.691956,-189912565217.386047,80728300565.283600,3.589276,-3.582868,1.520968
0.980000,1.360000,0.032133,0.040000,123453573065.288147,167783423290.453247,-193283069842.887146,41760950729.012337,3.305265,-3.497437,0.786801
1.020000,1.360000,0.032133,0.040000,126372510468.383377,162125169817.495361,-189247009676.502655,19502828084.600754,3.207830,-3.412226,0.367445
1.060000,1.360000,0.047034,0.040000,128979202460.911194,175537065536.170441,-180467172557.824005,-10838883478.460089,3.335086,-3.372240,-0.204211
1.100000,1.360000,0.081191,0.040000,131288914176.527954,169903368098.647003,-169583623753.088745,-32368502153.807747,3.199271,-3.196861,-0.609841
1.140000,1.360000,0.104330,0.040000,133322320283.042282,157778787096.476654,-157847179584.057709,-47728599786.289375,2.973030,-2.973546,-0.899234
1.180000,1.360000,0.132755,0.040000,135103285926.909485,142008647703.925507,-142004614432.534790,-59563845005.636467,2.675502,-2.675472,-1.122217
1.220000,1.360000,0.162478,0.040000,136657033196.752228,126239164677.355331,-126199912197.104416,-67635191190.903641,2.378197,-2.377901,-1.274286
1.260000,1.360000,0.188408,0.040000,138008739560.689117,111128223579.127792,-111066581429.435562,-72546780238.940765,2.093372,-2.092907,-1.366823
1.300000,1.360000,0.218623,0.040000,139182548233.074493,97070242056.453430,-96996361949.869949,-74891479865.252258,1.828442,-1.827885,-1.410999
1.340000,1.360000,0.245383,0.040000,140200933103.392456,84283086289.789398,-84204490781.416580,-75223598284.760208,1.587498,-1.586906,-1.417256
1.380000,1.360000,0.273625,0.040000,141084346195.422363,72853207082.274979,-72775122725.189728,-74032561342.106995,1.372155,-1.371567,-1.394816
1.420000,1.360000,0.302935,0.040000,141851075876.298157,62775323434.968277,-62701123758.660217,-71732468962.675461,1.182304,-1.181745,-1.351481
1.460000,1.360000,0.329828,0.040000,142517252495.324860,53984620179.294815,-53916271626.459213,-68661997169.031143,1.016715,-1.016200,-1.293632
1.500000,1.360000,0.359171,0.040000,143096949946.820953,46381308197.797127,-46319763857.279045,-65090301836.793648,0.873503,-0.873039,-1.226339
1.540000,1.360000,0.386710,0.040000,143602343785.707367,39848386065.280052,-39793906193.043694,-61225832535.470558,0.750459,-0.750048,-1.153530
1.580000,1.360000,0.414875,0.040000,144043897368.777283,34263834665.652443,-34216232796.586739,-57226037926.379501,0.645281,-0.644923,-1.078172
1.620000,1.360000,0.444009,0.040000,144430556398.738159,29508517273.180252,-29467340510.502216,-53206761489.027992,0.555725,-0.555415,-1.002446
1.660000,1.360000,0.471254,0.040000,144769939131.576996,25470921193.342064,-25435576831.983334,-49250697701.469009,0.479687,-0.479421,-0.927912
1.700000,1.360000,0.500216,0.040000,145068514579.257843,22049673082.359283,-22019513860.313183,-45414649639.661674,0.415258,-0.415031,-0.855638
1.740000,1.360000,0.530615,0.040000,145331764620.287964,19154549920.827858,-19128928715.929970,-41735551828.303993,0.360738,-0.360545,-0.786322
1.780000,1.360000,0.562217,0.040000,145564328353.965637,16706520870.909479,-16684823633.835808,-38235343591.539719,0.314638,-0.314474,-0.720376
1.820000,1.360000,0.594831,0.040000,145770128598.039764,14637202507.136700,-14618866204.519651,-34924834310.996696,0.275670,-0.275532,-0.658004
1.860000,1.360000,0.628300,0.040000,145952481378.422791,12887991664.833292,-12872512250.443077,-31806718829.167965,0.242730,-0.242613,-0.599257
1.900000,1.360000,0.662493,0.040000,146114189783.066406,11409052243.911325,-11395986256.208527,-28877896184.648468,0.214879,-0.214781,-0.544076
1.940000,1.360000,0.697304,0.040000,146257623791.292847,10158269052.463373,-10147231349.249710,-26131229045.962357,0.191325,-0.191242,-0.492328
1.980000,1.360000,0.732645,0.040000,146384787746.455933,9100237549.686333,-9090896883.073763,-23556861318.071114,0.171401,-0.171331,-0.443825
2.020000,1.360000,0.768443,0.040000,146497377084.980927,8205328266.921593,-8197401818.753699,-21143191203.032169,0.154548,-0.154489,-0.398350
2.060000,1.360000,0.804637,0.040000,146596825817.083588,7448844814.936130,-7442092408.311065,-18877578432.120892,0.140302,-0.140252,-0.355665
2.100000,1.360000,0.841176,0.040000,146684346105.818787,6810281717.221150,-6804500134.721017,-16746848271.195625,0.128277,-0.128233,-0.315520
2.140000,1.360000,0.878016,0.040000,146760961132.066864,6272680594.606181,-6267698246.785921,-14737641424.324778,0.118153,-0.118115,-0.277666
2.180000,1.360000,0.915122,0.040000,146827532276.077332,5822078863.640692,-5817750924.137471,-12836647981.096930,0.109667,-0.109634,-0.241850
2.220000,1.360000,0.952462,0.040000,146884781498.352386,5447042929.434284,-5443246935.468839,-11030754770.159409,0.102604,-0.102575,-0.207826
2.260000,1.360000,0.990010,0.040000,146933309667.533417,5138276564.405731,-5134907830.822913,-9307128420.312286,0.096789,-0.096764,-0.175352
2.300000,1.360000,1.027744,0.040000,146973611462.818481,4888286428.468354,-4885243840.784311,-7653248574.389759,0.092081,-0.092058,-0.144192
2.340000,1.360000,1.065642,0.040000,147006087392.693146,4690973954.590530,-4688036772.387352,-6056865343.378079,0.088364,-0.088342,-0.114115
2.380000,1.360000,1.103689,0.040000,147031053752.496490,4542338491.408425,-4542585041.278068,-4506635877.614455,0.085582,-0.085584,-0.084908
2.420000,1.360000,1.141869,0.040000,147048756980.605804,4445008662.771352,-4474412683.277157,-3383532526.892358,0.083913,-0.084134,-0.063748
2.460000,1.360000,1.180170,0.040000,147059465546.383698,4346181762.782210,-4382653715.923441,-2735119171.425197,0.082091,-0.082366,-0.051531
-2.500000,1.400000,3.193762,0.040000,-41604858339.865585,194722663171.418304,24869762768724.011719,-198343920508.217987,-138.000143,326.891917,-3.736914
-2.460000,1.400000,3.154042,0.040000,-83202829539.089066,1502405580844.007812,17243466047402.804688,-56473443492.255310,-77.648734,218.921970,-1.063992
-2.420000,1.400000,3.114329,0.040000,-83179629325.052383,-893303628529.144775,5544097023074.464844,-17876714191.483414,-43.117451,78.166909,-0.336808
-2.380000,1.400000,3.074624,0.040000,-83140492311.154892,-62808510119.444321,164369462020.368500,-4400869324.420132,-1.757389,2.522776,-0.082915
-2.340000,1.400000,3.034926,0.040000,-83085382835.117371,-10190906339.891172,10187284283.410252,-5873152232.538568,-0.191982,0.191955,-0.110654
-2.300000,1.400000,2.995236,0.040000,-83013961389.869125,-10482829288.407423,10478636503.936159,-7401294848.957691,-0.197479,0.197447,-0.139445
-2.260000,1.400000,2.955554,0.040000,-82925760971.081070,-10848792801.548693,10844251211.247150,-8971607781.265079,-0.204372,0.204338,-0.169030
-2.220000,1.400000,2.915882,0.040000,-82820195565.175461,-11294017429.521381,11289076159.133764,-10592558057.620506,-0.212758,0.212721,-0.199570
-2.180000,1.400000,2.876218,0.040000,-82696552207.069046,-11825420667.756330,11819991998.375034,-12272633386.327713,-0.222767,0.222726,-0.231224
-2.140000,1.400000,2.836564,0.040000,-82553979909.051010,-12451508173.699295,12445489151.944387,-14020231973.223389,-0.234560,0.234514,-0.264149
-2.100000,1.400000,2.796919,0.040000,-82391476031.573715,-13182585702.822157,13175857244.791510,-15843557659.835386,-0.248330,0.248279,-0.298502
-2.060000,1.400000,2.757285,0.040000,-82207869769.664429,-14031036942.913004,14023461238.699326,-17750470322.649906,-0.264310,0.264253,-0.334429
-2.020000,1.400000,2.717662,0.040000,-82001802310.550369,-15011649460.444757,15003067150.751348,-19748273981.149151,-0.282780,0.282715,-0.372069
-1.980000,1.400000,2.678050,0.040000,-81771703140.793121,-16141989719.390118,16132217037.655451,-21843423464.095791,-0.304069,0.303996,-0.411543
-1.940000,1.400000,2.638449,0.040000,-81515761902.867981,-17442827437.683521,17431653515.547043,-24041125695.442482,-0.328570,0.328486,-0.452949
-1.900000,1.400000,2.598861,0.040000,-81231895122.483246,-18938606180.787979,18925790831.413765,-26344805656.331791,-0.356742,0.356645,-0.496351
-1.860000,1.400000,2.559285,0.040000,-80917707054.436874,-20657951530.254139,20643223994.065727,-28755399912.326302,-0.389125,0.389014,-0.541768
-1.820000,1.400000,2.519723,0.040000,-80570443835.436340,-22634199587.608337,22617258964.641529,-31270432330.274727,-0.426346,0.426218,-0.589153
-1.780000,1.400000,2.480175,0.040000,-80186940100.880814,-24905915801.548058,24886434221.758930,-33882817534.203701,-0.469132,0.468985,-0.638372
-1.740000,1.400000,2.440642,0.040000,-79763557239.697937,-27517355597.419937,27494985617.803535,-36579328440.393486,-0.518316,0.518148,-0.689176
-1.700000,1.400000,2.401124,0.040000,-79296112556.724152,-30518792120.288536,30493180407.668430,-39338656179.356560,-0.574847,0.574654,-0.741163
-1.660000,1.400000,2.361623,0.040000,-78779798827.879883,-33966600315.613621,33937410386.113819,-42128986162.918358,-0.639785,0.639565,-0.793735
-1.620000,1.400000,2.322138,0.040000,-78209094127.470306,-37922938140.994942,37889885767.932686,-44905016789.512543,-0.714303,0.714054,-0.846037
-1.580000,1.400000,2.282672,0.040000,-77577662457.028961,-42454802766.585052,42417708582.770119,-47604363251.883514,-0.799663,0.799384,-0.896894
-1.540000,1.400000,2.243224,0.040000,-76878246711.987076,-47632161147.964668,47591025803.015732,-50143327000.966774,-0.897185,0.896875,-0.944729
-1.500000,1.400000,2.203796,0.040000,-76102557011.543930,-53524761949.220352,53479869656.137672,-52412084228.242386,-1.008184,1.007845,-0.987474
-1.460000,1.400000,2.164389,0.040000,-75241159535.679810,-60197136246.851868,60149192150.187149,-54269471071.524666,-1.133878,1.133517,-1.022468
-1.420000,1.400000,2.125005,0.040000,-74283373919.219391,-67701203543.136780,67651508249.292664,-55537739761.445488,-1.275249,1.274875,-1.046363
-1.380000,1.400000,2.085644,0.040000,-73217191089.049057,-76065847459.994949,76016507089.359695,-55997950705.452866,-1.432846,1.432474,-1.055034
-1.340000,1.400000,2.046307,0.040000,-72029228276.065811,-85282862871.746445,85237023558.769196,-55387068097.250938,-1.606519,1.606174,-1.043524
-1.300000,1.400000,2.006997,0.040000,-70704743721.616791,-95288880624.369110,95250960786.620468,-53398342049.079544,-1.795083,1.794798,-1.006056
-1.260000,1.400000,1.967715,0.040000,-69227739992.823166,-105943353233.655457,105919223920.814316,-49687152532.934357,-1.995898,1.995716,-0.936135
-1.220000,1.400000,1.928462,0.040000,-67581191047.716293,-117003559798.781311,117000593530.669098,-43885056729.417725,-2.204398,2.204376,-0.826820
-1.180000,1.400000,1.889240,0.040000,-65747432839.869240,-128098972639.478973,128125848711.599991,-35625115733.389961,-2.413611,2.413813,-0.671198
-1.140000,1.400000,1.850052,0.040000,-63708758105.225975,-138709253527.289856,138775383684.481201,-24581340342.953167,-2.613737,2.614235,-0.463127
-1.100000,1.400000,1.810900,0.040000,-61448249963.904144,-148152454194.265656,148266896387.992065,-10523823609.497494,-2.791925,2.792787,-0.198275
-1.060000,1.400000,1.771785,0.040000,-58950872448.413017,-155592189916.117401,155761976774.242462,6611683460.548761,-2.932407,2.933686,0.124568
-1.020000,1.400000,1.732710,0.040000,-56204805608.747070,-160073687925.674927,160301637381.096924,26645663778.728706,-3.017169,3.018887,0.502020
-0.980000,1.400000,1.693679,0.040000,-53202966752.405823,-160597304553.717865,160879610639.640656,49080373681.674896,-3.027342,3.029469,0.924703
-0.940000,1.400000,1.654694,0.040000,-49944599877.426018,-156232881367.818207,156557065326.131470,73047798944.001907,-2.945350,2.947794,1.376263
-0.900000,1.400000,1.615759,0.040000,-46436750881.084717,-146268377989.153381,146612407621.742584,97303123621.840775,-2.757726,2.760318,1.833247
-0.860000,1.400000,1.576877,0.040000,-42695392486.921051,-130372579556.505249,130705975223.765091,120285356651.345169,-2.458179,2.460692,2.266246
-0.820000,1.400000,1.538052,0.040000,-38745941531.170029,-108738032573.944122,109025421052.969894,140256459730.957947,-2.050312,2.052478,2.642513
-0.780000,1.400000,1.499289,0.040000,-34622943573.624374,-82162860118.258621,82369695846.892822,155510811804.359802,-1.549165,1.550724,2.929914
-0.740000,1.400000,1.460593,0.040000,-30368797177.141872,-52035102009.115120,52134366563.047714,164622522849.127167,-0.980933,0.981681,3.101584
-0.700000,1.400000,1.421969,0.040000,-26031544383.888550,-20203420751.729069,20181455576.879036,166678028120.725281,-0.380520,0.380354,3.140311
-0.660000,1.400000,1.383424,0.040000,-21661932960.190495,11250870268.706137,-11391240282.983271,161435765714.251617,0.212766,-0.213824,3.041543
-0.620000,1.400000,1.344963,0.040000,-17310111091.299465,40294510770.175217,-40534635345.519974,149369145729.122772,0.760529,-0.762339,2.814201
-0.580000,1.400000,1.306594,0.040000,-13022397971.540102,65211829222.428528,-65521497576.689629,131580169675.383423,1.230379,-1.232713,2.479047
-0.540000,1.400000,1.268327,0.040000,-8838556145.513924,84802289328.597107,-85146207535.605545,109607699392.214554,1.599668,-1.602260,2.065073
-0.500000,1.400000,1.230169,0.040000,-4789878353.886868,98468631023.918350,-98813006472.236588,85182643877.701706,1.857153,-1.859748,1.604890
-0.460000,1.400000,1.192133,0.040000,-898229685.344989,106193140295.392670,-106510468777.726013,59991198196.885651,2.002534,-2.004925,1.130269
-0.420000,1.400000,1.154229,0.040000,2823990288.817299,108431396731.915070,-108702787704.317352,35492578545.574493,2.044444,-2.046490,0.668701
-0.380000,1.400000,1.116471,0.040000,6373131555.843940,105965280936.094482,-106181102458.929398,12807849348.198385,1.997667,-1.999294,0.241307
-0.340000,1.400000,1.078876,0.040000,9753056315.694355,99745534858.343506,-99905133356.440277,-7325958079.154572,1.880166,-1.881369,-0.138025
-0.300000,1.400000,1.041459,0.040000,12973631045.002399,90739824915.108398,-90849539860.854355,-24540535492.598595,1.710211,-1.711038,-0.462358
-0.260000,1.400000,1.004241,0.040000,16049189192.842865,79811725644.875519,-79880593660.200516,-38758961431.436256,1.504088,-1.504607,-0.730241
-0.220000,1.400000,0.967246,0.040000,18997154279.446587,67669135365.685715,-67705122913.988907,-50085289801.460205,1.275129,-1.275400,-0.943636
-0.180000,1.400000,0.930499,0.040000,21836905182.887188,54880518499.970955,-54891215563.099052,-58728007801.919998,1.034041,-1.034122,-1.106470
-0.140000,1.400000,0.894031,0.040000,24588864697.592365,41886269126.324982,-41881895807.201202,-64984152602.647903,0.789137,-0.789104,-1.224339
-0.100000,1.400000,0.857879,0.040000,27273799434.050518,28954984284.551735,-28946715853.166016,-69211222656.413879,0.545482,-0.545420,-1.303980
-0.060000,1.400000,0.822083,0.040000,29912393713.237167,16159614948.897829,-16153297790.231163,-71721937592.417313,0.304421,-0.304373,-1.351283
-0.020000,1.400000,0.786692,0.040000,32525124394.085842,3466908209.654992,-3461536846.397644,-72684145961.776443,0.065288,-0.065248,-1.369411
0.020000,1.400000,0.751763,0.040000,35132300841.395653,-9136580159.341942,9142357334.324877,-72148168706.619293,-0.172171,0.172215,-1.359313
0.060000,1.400000,0.717365,0.040000,37754086086.887901,-21637141355.214886,21640620594.613556,-70141070104.766174,-0.407676,0.407702,-1.321498
0.100000,1.400000,0.683576,0.040000,40410484170.906174,-34071286319.010517,34070771695.572956,-66658665339.372444,-0.641920,0.641916,-1.255888
0.140000,1.400000,0.650492,0.040000,43121397120.202095,-46507189809.784203,46508463130.419067,-61561838034.829628,-0.876230,0.876239,-1.159861
0.180000,1.400000,0.618227,0.040000,45906719767.181137,-58907921553.177498,58922210127.220924,-54551405375.453339,-1.109940,1.110048,-1.027780
0.220000,1.400000,0.586914,0.040000,48786272102.756294,-71040017529.393188,71077523192.013794,-45273375673.384972,-1.338647,1.338930,-0.852977
0.260000,1.400000,0.556715,0.040000,51779429612.514496,-82498593051.931824,82567210270.362503,-33422704180.573345,-1.554709,1.555226,-0.629703
0.300000,1.400000,0.527822,0.040000,54904479478.705315,-92745349514.744339,92854052788.735229,-18766337168.390335,-1.747991,1.748810,-0.353569
0.340000,1.400000,0.500460,0.040000,58177756228.870506,-101085031408.897919,101244373016.151352,-1161215551.799329,-1.905401,1.906602,-0.021878
0.380000,1.400000,0.471420,0.040000,61612526483.049217,-106640824532.164032,106858576383.908127,19356782768.893917,-2.010406,2.012047,0.364693
0.420000,1.400000,0.443238,0.040000,65217591081.648674,-108407736199.129730,108684134916.690201,42447076947.544617,-2.044027,2.046110,0.799728
0.460000,1.400000,0.415596,0.040000,68995688903.612885,-105382838774.930313,105708430634.098236,67376054835.189178,-1.987314,1.989768,1.269404
0.500000,1.400000,0.386397,0.040000,72941906462.189682,-96729172986.373718,97084456544.000320,92996244077.774338,-1.824442,1.827119,1.752103
0.540000,1.400000,0.359284,0.040000,77042353591.082199,-81946647131.578888,82302646346.484360,117791052962.308624,-1.545935,1.548617,2.219252
0.580000,1.400000,0.330131,0.040000,81273377569.163620,-61033776212.013161,61354448812.067940,139990378066.138763,-1.151724,1.154141,2.637500
0.620000,1.400000,0.301875,0.040000,85601571449.280945,-34607115646.995049,34854516756.763145,157764975267.655487,-0.653416,0.655281,2.972384
0.660000,1.400000,0.274794,0.040000,89984763380.268066,-3931647824.264829,4073126503.335503,169482352902.621735,-0.074874,0.075940,3.193146
0.700000,1.400000,0.244976,0.040000,94374032550.789856,29171077365.657990,-29155762124.812843,173973344181.382019,0.549513,-0.549398,3.277759
0.740000,1.400000,0.218437,0.040000,98716604973.569977,62534965247.516052,-62648938660.875084,170741980139.206970,1.178839,-1.179698,3.216878
0.780000,1.400000,0.189049,0.040000,102959293491.381104,93940823358.232040,-94169334876.906967,160060999711.731567,1.771191,-1.772913,3.015642
0.820000,1.400000,0.160625,0.040000,107052021597.166916,121420714076.787384,-121734515886.946213,142926421533.281616,2.289410,-2.291775,2.692817
0.860000,1.400000,0.135306,0.040000,110950950319.967834,143505290156.650909,-143866981274.723541,120884790826.948380,2.705767,-2.708493,2.277540
0.900000,1.400000,0.103576,0.040000,114620816898.814682,159658851096.721069,-159406557736.874817,96391660855.249908,3.006639,-3.004738,1.816075
0.940000,1.400000,0.079676,0.040000,118036262632.685577,167033534953.473358,-168370688521.367523,69299690088.230667,3.154566,-3.164644,1.305646
0.980000,1.400000,0.071893,0.040000,121182122232.100739,163255936842.341278,-169896927834.441040,42347026403.160393,3.113373,-3.163421,0.797843
1.020000,1.400000,0.071893,0.040000,124052814853.685410,161077237872.782867,-168097719859.751495,21548359606.356247,3.074470,-3.127378,0.405984
1.060000,1.400000,0.079676,0.040000,126651082831.636383,162321444973.853394,-164127625209.966644,-676050648.321882,3.068439,-3.082051,-0.012737
1.100000,1.400000,0.103576,0.040000,128986358902.215454,155609564566.513153,-155472872439.609467,-19793991838.136253,2.931002,-2.929972,-0.372930
1.140000,1.400000,0.135306,0.040000,131073018959.672089,144411826474.227203,-144475844249.071533,-34123942402.652245,2.721164,-2.721647,-0.642915
1.180000,1.400000,0.160625,0.040000,132928718384.913971,132195242203.425201,-132216806906.859863,-45383738315.040787,2.490757,-2.490919,-0.855056
1.220000,1.400000,0.189049,0.040000,134572939283.615784,119584052763.983871,-119573600761.712906,-53595856691.054924,2.252974,-2.252895,-1.009777
1.260000,1.400000,0.218437,0.040000,136025810848.363678,107136630793.067398,-107103744381.620193,-59135258499.282120,2.018330,-2.018083,-1.114143
1.300000,1.400000,0.244976,0.040000,137307214722.087433,95245924630.977249,-95198711867.268433,-62418046705.810059,1.794222,-1.793866,-1.175992
1.340000,1.400000,0.274794,0.040000,138436154087.830200,84164305647.534653,-84109196125.350601,-63858535548.915268,1.585393,-1.584978,-1.203132
1.380000,1.400000,0.301875,0.040000,139430347357.248749,74032235332.517776,-73974042154.321854,-63841873809.927254,1.394481,-1.394043,-1.202818
1.420000,1.400000,0.330131,0.040000,140306000995.696075,64906086575.552933,-64848211402.451378,-62709067433.602119,1.222541,-1.222105,-1.181475
1.460000,1.400000,0.359284,0.040000,141077717190.152954,56782569753.001648,-56727263558.646637,-60750998163.591454,1.069504,-1.069087,-1.144584
1.500000,1.400000,0.386397,0.040000,141758497366.275330,49618734034.990639,-49567359095.705627,-58208410688.753914,0.934555,-0.934168,-1.096680
1.540000,1.400000,0.415596,0.040000,142359809557.279755,43347473365.113586,-43300737328.416283,-55275469450.413498,0.816427,-0.816075,-1.041422
1.580000,1.400000,0.443238,0.040000,142891694774.846588,37888988272.316765,-37847138299.624161,-52105141780.744682,0.713614,-0.713299,-0.981691
1.620000,1.400000,0.471420,0.040000,143362893983.884705,33158876445.955364,-33121851783.522301,-48815233745.878067,0.624523,-0.624244,-0.919707
1.660000,1.400000,0.500460,0.040000,143780982673.889679,29073563352.631149,-29041110148.613487,-45494349744.773964,0.547579,-0.547335,-0.857140
1.700000,1.400000,0.527822,0.040000,144152504280.926910,25553724339.166515,-25525478804.312675,-42207367905.773918,0.481287,-0.481074,-0.795211
1.740000,1.400000,0.556715,0.040000,144483096936.902710,22526247530.559399,-22501793964.467064,-39000240100.452080,0.424269,-0.424085,-0.734787
1.780000,1.400000,0.586914,0.040000,144777610367.276947,19925175503.574329,-19904085173.007587,-35904062402.397835,0.375283,-0.375124,-0.676453
1.820000,1.400000,0.618227,0.040000,145040211401.345734,17691960551.315388,-17673816466.873199,-32938441864.828369,0.333224,-0.333088,-0.620579
1.860000,1.400000,0.650492,0.040000,145274477665.137878,15775280784.379328,-15759692408.309225,-30114227160.043861,0.297127,-0.297010,-0.567369
1.900000,1.400000,0.683576,0.040000,145483479735.743774,14130594099.140982,-14117205074.392427,-27435687844.789429,0.266153,-0.266052,-0.516904
1.940000,1.400000,0.717365,0.040000,145669852460.030273,12719552995.570078,-12708044195.187469,-24902229612.923847,0.239579,-0.239492,-0.469172
1.980000,1.400000,0.751763,0.040000,145835856366.837830,11509362951.066023,-11499452509.961939,-22509727456.542797,0.216787,-0.216712,-0.424096
2.020000,1.400000,0.786692,0.040000,145983430194.612488,10472137846.843851,-10463579348.081648,-20251549388.346500,0.197253,-0.197188,-0.381551
2.060000,1.400000,0.822083,0.040000,146114235562.944366,9584285285.069099,-9576864910.002867,-18119332836.395634,0.180532,-0.180476,-0.341379
2.100000,1.400000,0.857879,0.040000,146229694769.888031,8825940392.530659,-8819473573.119823,-16103565459.660137,0.166249,-0.166201,-0.303401
2.140000,1.400000,0.894031,0.040000,146331022620.203033,8180457151.896639,-8174785075.126846,-14194012697.939863,0.154092,-0.154050,-0.267423
2.180000,1.400000,0.930499,0.040000,146419253098.138824,7633960124.021375,-7628946304.526531,-12380026179.053122,0.143800,-0.143762,-0.233247
2.220000,1.400000,0.967246,0.040000,146495261602.095062,7174955665.712510,-7170482756.663682,-10650760229.757910,0.135155,-0.135121,-0.200666
2.260000,1.400000,1.004241,0.040000,146559783363.476074,6794000361.566653,-6789968114.608521,-8995318221.732319,0.127980,-0.127950,-0.169477
2.300000,1.400000,1.041459,0.040000,146613428580.350647,6483435247.627587,-6479772110.572538,-7402848285.121998,0.122131,-0.122103,-0.139474
2.340000,1.400000,1.078876,0.040000,146656694683.594696,6237337138.299969,-6234140367.521456,-5862639810.279666,0.117497,-0.117473,-0.110456
2.380000,1.400000,1.116471,0.040000,146689975574.871429,6052295243.618859,-6048971844.263667,-4365711305.079618,0.114010,-0.113985,-0.082253
2.420000,1.400000,1.154229,0.040000,146713559990.714966,5933348289.488059,-5954025727.972657,-3276250720.867282,0.111905,-0.112060,-0.061726
2.460000,1.400000,1.192133,0.040000,146727528215.477386,5900825215.383783,-5982450937.361781,-2648409124.342538,0.111636,-0.112251,-0.049898
-2.500000,1.440000,3.198703,0.040000,-41400611819.660667,-23900586416.628956,24614122474683.199219,-90408996243.248749,-139.438512,324.756126,-1.703358
-2.460000,1.440000,3.159044,0.040000,-82793981454.076538,1488829440704.587158,17161609437651.333984,-51093677592.594254,-77.365114,217.919146,-0.962635
-2.420000,1.440000,3.119395,0.040000,-82766809558.486145,-890375604484.633057,5518453546030.125977,-17147188984.680300,-42.933894,77.812163,-0.323063
-2.380000,1.440000,3.079755,0.040000,-82721933093.661545,-63992001757.160652,165061000192.727844,-4196954332.597753,-1.776906,2.538585,-0.079073
-2.340000,1.440000,3.040124,0.040000,-82658809534.531097,-11664179637.067293,11659310993.101353,-5599909540.116477,-0.219732,0.219696,-0.105506
-2.300000,1.440000,3.000503,0.040000,-82577017054.567429,-11992695306.084133,11987979801.808701,-7052852336.235627,-0.225923,0.225887,-0.132880
-2.260000,1.440000,2.960892,0.040000,-82476029156.378220,-12402324683.889612,12397327829.834047,-8542930460.493876,-0.233639,0.233601,-0.160954
-2.220000,1.440000,2.921292,0.040000,-82355189936.000305,-12898992190.948063,12893608059.597849,-10077452936.775486,-0.242994,0.242953,-0.189865
-2.180000,1.440000,2.881703,0.040000,-82213704131.572235,-13489525917.375782,13483668640.898876,-11663495277.692226,-0.254117,0.254073,-0.219747
-2.140000,1.440000,2.842125,0.040000,-82050626168.185760,-14182186362.903439,14175760918.088085,-13307840601.744862,-0.267164,0.267116,-0.250727
-2.100000,1.440000,2.802559,0.040000,-81864846923.693359,-14986887276.207359,14979785892.645287,-15016844439.595079,-0.282322,0.282268,-0.282926
-2.060000,1.440000,2.763006,0.040000,-81655077847.147476,-15915421171.510597,15907521466.763424,-16796247618.276312,-0.299811,0.299752,-0.316451
-2.020000,1.440000,2.723466,0.040000,-81419832068.566086,-16981713622.898973,16972876924.280104,-18650925474.052174,-0.319895,0.319829,-0.351394
-1.980000,1.440000,2.683939,0.040000,-81157402093.283737,-18202106241.355778,18192176154.624794,-20584556300.623306,-0.342882,0.342807,-0.387825
-1.940000,1.440000,2.644427,0.040000,-80865833628.497086,-19595664058.675507,19584465519.000687,-22599188155.760193,-0.369130,0.369046,-0.425782
-1.900000,1.440000,2.604929,0.040000,-80542895050.943390,-21184498687.952873,21171837852.050453,-24694678902.627495,-0.399057,0.398961,-0.465262
-1.860000,1.440000,2.565448,0.040000,-80186041999.948364,-22994092321.708553,22979757813.124451,-26867979644.149803,-0.433141,0.433033,-0.506208
-1.820000,1.440000,2.525982,0.040000,-79792376579.533829,-25053598595.201077,25037364822.486626,-29112226796.352551,-0.471933,0.471810,-0.548491
-1.780000,1.440000,2.486534,0.040000,-79358600691.385223,-27396083719.210793,27377717251.288048,-31415603482.787754,-0.516054,0.515916,-0.591888
-1.740000,1.440000,2.447103,0.040000,-78880963117.554306,-30058654024.042301,30037924340.676826,-33759927655.908340,-0.566205,0.566049,-0.636057
-1.700000,1.440000,2.407691,0.040000,-78355200155.525742,-33082392996.701569,33059089333.957169,-36118923890.151581,-0.623160,0.622984,-0.680501
-1.660000,1.440000,2.368299,0.040000,-77776469915.701355,-36512000893.849625,36485957356.645416,-38456140519.678818,-0.687760,0.687564,-0.724536
-1.620000,1.440000,2.328928,0.040000,-77139280870.536835,-40394992222.889076,40366123800.011360,-40722487249.247688,-0.760902,0.760684,-0.767235
-1.580000,1.440000,2.289578,0.040000,-76437415955.962540,-44780260750.491486,44748613247.770615,-42853395602.416740,-0.843507,0.843269,-0.807383
-1.540000,1.440000,2.250252,0.040000,-75663854542.219421,-49715769790.846535,49681586832.361511,-44765652465.383827,-0.936481,0.936223,-0.843411
-1.500000,1.440000,2.210949,0.040000,-74810695995.506332,-55245071840.279495,55208881704.322021,-46354034350.405029,-1.040645,1.040372,-0.873337
-1.460000,1.440000,2.171672,0.040000,-73869090428.955856,-61402315453.113739,61365039191.520058,-47487987204.559998,-1.156645,1.156364,-0.894701
-1.420000,1.440000,2.132422,0.040000,-72829184663.873123,-68205375151.990395,68168454603.638329,-48008764176.717171,-1.284820,1.284542,-0.904513
-1.380000,1.440000,2.093201,0.040000,-71680094422.935638,-75646768786.564819,75612308003.697693,-47727659380.484306,-1.425034,1.424774,-0.899217
-1.340000,1.440000,2.054009,0.040000,-70409917306.944626,-83682145301.655899,83653050775.554596,-46426258376.714394,-1.576456,1.576236,-0.874698
-1.300000,1.440000,2.014849,0.040000,-69005804971.516205,-92216386538.759079,92196479890.958893,-43859946913.265038,-1.737298,1.737148,-0.826347
-1.260000,1.440000,1.975723,0.040000,-67454116697.401634,-101087830182.962341,101081891885.977051,-39766228243.620872,-1.904520,1.904475,-0.749219
-1.220000,1.440000,1.936632,0.040000,-65740679491.448730,-110051842706.613022,110065528742.956390,-33879598895.349064,-2.073518,2.073621,-0.638311
-1.180000,1.440000,1.897580,0.040000,-63851180807.712814,-118765973010.013565,118805532700.941788,-25954665454.691788,-2.237843,2.238142,-0.489001
-1.140000,1.440000,1.858567,0.040000,-61771717341.797394,-126780141231.139282,126851861979.377304,-15798632620.102230,-2.389017,2.389557,-0.297655
-1.100000,1.440000,1.819598,0.040000,-59489515185.257591,-133536563171.545242,133645888412.045593,-3313007616.549887,-2.516524,2.517348,-0.062419
-1.060000,1.440000,1.780674,0.040000,-56993820971.950905,-138384979171.265015,138535302469.710815,11457846038.770990,-2.608103,2.609236,0.215872
-1.020000,1.440000,1.741799,0.040000,-54276939168.858154,-140618632684.587463,140809871639.481476,28276801943.759510,-2.650417,2.651859,0.532751
-0.980000,1.440000,1.702976,0.040000,-51335357622.831497,-139534592530.544006,139761783509.161072,46671842587.012238,-2.630197,2.631909,0.879325
-0.940000,1.440000,1.664209,0.040000,-48170864887.446892,-134517841304.657913,134770136212.472733,65913995150.535202,-2.535820,2.537721,1.241858
-0.900000,1.440000,1.625502,0.040000,-44791525398.169258,-125142053618.309372,125402579019.921143,85028743368.045395,-2.359221,2.361185,1.601991
-0.860000,1.440000,1.586859,0.040000,-41212352546.483162,-111272228971.330872,111519207366.979584,102851689633.612366,-2.097829,2.099691,1.937785
-0.820000,1.440000,1.548284,0.040000,-37455517331.664703,-93147691603.837418,93356971022.540054,118131732257.525269,-1.756139,1.757717,2.225670
-0.780000,1.440000,1.509784,0.040000,-33549961899.461536,-71421651729.665741,71570366889.266281,129673208347.296600,-1.346466,1.347587,2.443118
-0.740000,1.440000,1.471364,0.040000,-29530356365.259876,-47138336053.566856,47208963035.290062,136495246049.260086,-0.888513,0.889045,2.571650
-0.700000,1.440000,1.433031,0.040000,-25435436103.142090,-21641236283.989094,21625007714.566601,137976778628.043274,-0.407642,0.407519,2.599562
-0.660000,1.440000,1.394790,0.040000,-21305865342.663025,3576529157.448359,-3677832926.515835,133954121013.389572,0.067956,-0.068720,2.523773
-0.620000,1.440000,1.356652,0.040000,-17181864054.455280,27052168766.038521,-27226608888.741192,124746953679.521179,0.510665,-0.511979,2.350305
-0.580000,1.440000,1.318624,0.040000,-13100882775.872728,47526581412.145058,-47754522741.040817,111105985752.403214,0.896717,-0.898435,2.093301
-0.540000,1.440000,1.280716,0.040000,-9095599646.340458,64076058888.890434,-64333956664.551598,94095656037.205017,1.208688,-1.210631,1.772817
-0.500000,1.440000,1.242939,0.040000,-5192448381.036318,76179807761.151550,-76444217267.632965,74940760545.893463,1.436766,-1.438759,1.411927
-0.460000,1.440000,1.205305,0.040000,-1410784865.462751,83719210300.755569,-83970025901.069824,54871270567.191124,1.578736,-1.580626,1.033807
-0.420000,1.440000,1.167829,0.040000,2237307654.472845,86921551863.498337,-87143999194.360809,34993501833.252304,1.638910,-1.640586,0.659298
-0.380000,1.440000,1.130526,0.040000,5746662905.105493,86269402234.137039,-86454846899.901123,16202781476.530428,1.626414,-1.627811,0.305270
-0.340000,1.440000,1.093413,0.040000,9118268627.902224,82396096428.215530,-82541833820.744629,-858730861.380630,1.553214,-1.554312,-0.016179
-0.300000,1.440000,1.056511,0.040000,12358262138.894369,75984495662.680832,-76092496367.650024,-15800922596.988802,1.432202,-1.433016,-0.297699
-0.260000,1.440000,1.019843,0.040000,15476844937.978636,67686075109.358604,-67760963780.939423,-28448363736.782173,1.275668,-1.276233,-0.535984
-0.220000,1.440000,0.983435,0.040000,18487244502.879601,58073708956.989601,-58121074983.428940,-38784815838.221642,1.094410,-1.094767,-0.730728
-0.180000,1.440000,0.947316,0.040000,21404798996.507538,47624357620.144135,-47650350780.424599,-46903802873.887566,0.897417,-0.897613,-0.883695
-0.140000,1.440000,0.911522,0.040000,24246194725.515011,36710155406.304276,-36721591774.016342,-52973024348.610619,0.691705,-0.691791,-0.998042
-0.100000,1.440000,0.876091,0.040000,27028871954.528889,25586831984.127563,-25590139338.372974,-57195390955.566406,0.482089,-0.482114,-1.077594
-0.060000,1.440000,0.841071,0.040000,29770615637.540443,14398633025.282396,-14397947751.741327,-59756068926.785873,0.271275,-0.271270,-1.125839
-0.020000,1.440000,0.806513,0.040000,32489321008.019424,3217262863.370963,-3214019764.888043,-60780387268.751419,0.060597,-0.060572,-1.145138
0.020000,1.440000,0.772482,0.040000,35202874137.039604,-7910012058.801507,7915435654.006886,-60330910941.127975,-0.149060,0.149101,-1.136669
0.060000,1.440000,0.739048,0.040000,37929074774.775223,-18941751591.927349,18948973325.335468,-58425212647.890160,-0.356914,0.356969,-1.100765
0.100000,1.440000,0.706297,0.040000,40685570748.163185,-29843666104.201103,29853615176.183170,-55032251382.961365,-0.562328,0.562403,-1.036840
0.140000,1.440000,0.674329,0.040000,43489801153.745247,-40565678395.640282,40582282729.446747,-50049492794.305725,-0.764375,0.764500,-0.942961
0.180000,1.440000,0.643260,0.040000,46358911051.082939,-50988738265.163185,51018400042.623993,-43304732313.277878,-0.960825,0.961049,-0.815886
0.220000,1.440000,0.613227,0.040000,49309557109.365456,-60882752299.740921,60932396812.206116,-34598903061.384918,-1.147347,1.147721,-0.651863
0.260000,1.440000,0.584390,0.040000,52357539185.462402,-69899348810.911011,69975467344.837296,-23758948075.888599,-1.317374,1.317948,-0.447632
0.300000,1.440000,0.556934,0.040000,55517243804.606422,-77579435756.812866,77688271999.993668,-10676694808.981461,-1.462257,1.463077,-0.201155
0.340000,1.440000,0.527970,0.040000,58800909709.901703,-83356758596.298080,83503796757.675507,4652684250.052830,-1.571321,1.572429,0.087659
0.380000,1.440000,0.499776,0.040000,62217722848.368507,-86571815958.834732,86759830107.021774,22074473345.705341,-1.632126,1.633543,0.415896
0.420000,1.440000,0.472054,0.040000,65772765428.798622,-86520161895.023819,86746940707.330566,41210619693.826599,-1.631372,1.633081,0.776432
0.460000,1.440000,0.442965,0.040000,69465896473.773712,-82538642241.313461,82795577922.392059,61415596425.120224,-1.556528,1.558464,1.157105
0.500000,1.440000,0.415693,0.040000,73290700361.991943,-74114560197.975250,74386365435.390564,81771611363.694550,-1.397898,1.399946,1.540625
0.540000,1.440000,0.386655,0.040000,77233676469.065231,-60999379456.798180,61264894891.810539,101130726877.520660,-1.150764,1.152765,1.905362
0.580000,1.440000,0.358391,0.040000,81273850310.510864,-43308553725.815948,43542849792.162712,118206282004.778839,-0.817283,0.819048,2.227075
0.620000,1.440000,0.331100,0.040000,85382963939.783173,-21585099970.726074,21762968737.287182,131710278041.300583,-0.407681,0.409022,2.481498
0.660000,1.440000,0.301544,0.040000,89526345179.148376,3196704347.872906,-3096380544.297744,140520649739.508270,0.059661,-0.058905,2.647491
0.700000,1.440000,0.274646,0.040000,93664460282.826782,29701986309.388500,-29692084693.063236,143847730682.589813,0.559547,-0.559472,2.710175
0.740000,1.440000,0.245470,0.040000,97755037316.731094,56376270279.884636,-56458712884.598236,141362269103.946838,1.062628,-1.063249,2.663347
0.780000,1.440000,0.217063,0.040000,101755536829.349945,81632398775.102417,-81797699916.654297,133253143013.429443,1.538936,-1.540182,2.510566
0.820000,1.440000,0.190849,0.040000,105625674135.953354,104045118042.052124,-104274315379.523209,120199933929.925262,1.961566,-1.963293,2.264636
0.860000,1.440000,0.160136,0.040000,109329685458.440201,122512989728.534500,-122781352140.041718,103267535886.260590,2.309733,-2.311755,1.945620
0.900000,1.440000,0.134402,0.040000,112838081531.709122,136357464844.906006,-136638901454.585663,83749074015.833252,2.570644,-2.572765,1.577881
0.940000,1.440000,0.116980,0.040000,116128731211.377930,145328610633.605988,-145613544911.137451,62985157680.851616,2.739686,-2.741833,1.186677
0.980000,1.440000,0.111824,0.040000,119187235750.868607,149009131335.163177,-149672895007.956604,42244167023.039452,2.811170,-2.816172,0.795905
1.020000,1.440000,0.111824,0.040000,122006661813.421494,149172474890.424408,-149760387053.986511,22567879415.282394,2.813819,-2.818250,0.425192
1.060000,1.440000,0.116980,0.040000,124586776280.745026,146339397417.811310,-146509389280.890503,4703984387.334087,2.758080,-2.759361,0.088626
1.100000,1.440000,0.134402,0.040000,126932960032.207870,140212564622.902527,-140324989826.818848,-10851717475.869783,2.642321,-2.643169,-0.204453
1.140000,1.440000,0.160136,0.040000,129054974884.442886,132106080200.759659,-132177490612.032318,-23848759463.035469,2.489359,-2.489897,-0.449324
1.180000,1.440000,0.190849,0.040000,130965729138.357147,122746001431.517380,-122782533477.522186,-34267738130.654137,2.312812,-2.313088,-0.645624
1.220000,1.440000,0.217063,0.040000,132680146035.720551,112737309421.472977,-112745976588.277802,-42235599687.919800,2.124085,-2.124151,-0.795743
1.260000,1.440000,0.245470,0.040000,134214197150.720886,102564799668.247101,-102552531202.576508,-47979613880.922302,1.932311,-1.932218,-0.903964
1.300000,1.440000,0.274646,0.040000,135584126623.498520,92593902504.173569,-92566941273.269745,-51781706834.536827,1.744370,-1.744167,-0.975597
1.340000,1.440000,0.301544,0.040000,136805865460.463120,83082063363.241364,-83045663306.715271,-53943018578.092354,1.565108,-1.564834,-1.016318
1.380000,1.440000,0.331100,0.040000,137894618143.955048,74195525811.492096,-74153867081.410706,-54758814412.462845,1.397651,-1.397337,-1.031688
1.420000,1.440000,0.358391,0.040000,138864595028.072876,66027734904.291489,-65983977693.352867,-54502476814.548203,1.243753,-1.243424,-1.026858
1.460000,1.440000,0.386655,0.040000,139728861286.829285,58616925678.463966,-58573338877.194695,-53416706113.453163,1.104131,-1.103802,-1.006402
1.500000,1.440000,0.415693,0.040000,140499274388.374939,51961563011.592537,-51919682204.451378,-51709991189.048370,0.978749,-0.978434,-0.974246
1.540000,1.440000,0.442965,0.040000,141186485437.848114,46033091487.591759,-45993877432.602615,-49556636275.230011,0.867068,-0.866773,-0.933676
1.580000,1.440000,0.472054,0.040000,141799983991.294586,40785961831.274429,-40749943466.500420,-47098973557.132591,0.768228,-0.767956,-0.887372
1.620000,1.440000,0.499776,0.040000,142348170275.971588,36165185165.141586,-36132580129.345619,-44450747008.995003,0.681189,-0.680943,-0.837478
1.660000,1.440000,0.527970,0.040000,142838442696.791840,32111794744.446114,-32082605990.145958,-41700965894.855202,0.604840,-0.604620,-0.785670
1.700000,1.440000,0.556934,0.040000,143277291854.253815,28566624431.434864,-28540714622.884109,-38917775912.310097,0.538065,-0.537870,-0.733233
1.740000,1.440000,0.584390,0.040000,143670394994.763763,25472787163.295639,-25449933987.485920,-36152081175.502876,0.479793,-0.479621,-0.681126
1.780000,1.440000,0.613227,0.040000,144022706898.888184,22777184380.223557,-22757120311.767868,-33440779645.458508,0.429022,-0.428871,-0.630044
1.820000,1.440000,0.643260,0.040000,144338544768.823669,20431317042.401146,-20413756939.350151,-30809559925.067280,0.384839,-0.384706,-0.580470
1.860000,1.440000,0.674329,0.040000,144621665798.933411,18391610681.652592,-18376270163.561420,-28275260022.951462,0.346422,-0.346306,-0.532722
1.900000,1.440000,0.706297,0.040000,144875336895.197876,16619415850.426699,-16606022888.754751,-25847818513.188885,0.313044,-0.312943,-0.486988
1.940000,1.440000,0.739048,0.040000,145102396532.487457,15080803047.421619,-15069104691.038033,-23531863092.692467,0.284065,-0.283977,-0.443354
1.980000,1.440000,0.772482,0.040000,145305309070.331848,13746237639.529697,-13736003350.917299,-21327986461.748119,0.258929,-0.258852,-0.401832
2.020000,1.440000,0.806513,0.040000,145486212042.109283,12590194510.578886,-12581217212.643362,-19233758645.941101,0.237156,-0.237088,-0.362375
2.060000,1.440000,0.841071,0.040000,145646957030.701324,11590752866.299383,-11582848502.416613,-17244520971.067398,0.218332,-0.218272,-0.324897
2.100000,1.440000,0.876091,0.040000,145789144776.641388,10729197517.154984,-10722203699.066133,-15354001589.381948,0.202105,-0.202052,-0.289278
2.140000,1.440000,0.911522,0.040000,145914155155.288055,9989642885.511499,-9983417025.601582,-13554786774.873371,0.188175,-0.188129,-0.255380
2.180000,1.440000,0.947316,0.040000,146023172623.817230,9358688953.085924,-9353106147.370934,-11838676756.765133,0.176292,-0.176249,-0.223048
2.220000,1.440000,0.983435,0.040000,146117207688.128204,8825113568.173174,-8820064338.635090,-10196949948.873360,0.166242,-0.166204,-0.192116
2.260000,1.440000,1.019843,0.040000,146197114881.863708,8379601537.480634,-8374988474.378071,-8620555061.606413,0.157850,-0.157816,-0.162416
2.300000,1.440000,1.056511,0.040000,146263607691.342651,8014494373.760452,-8010212149.251128,-7100244728.388656,0.150974,-0.150941,-0.133773
2.340000,1.440000,1.093413,0.040000,146317270836.719788,7723355822.650611,-7719089784.900460,-5626627643.100338,0.145488,-0.145456,-0.106009
2.380000,1.440000,1.130526,0.040000,146358570884.582245,7502189295.296247,-7502815229.007653,-4190841779.500642,0.141349,-0.141354,-0.078958
2.420000,1.440000,1.167829,0.040000,146387875596.170105,7356426708.457708,-7401404091.106908,-3148642542.273477,0.138854,-0.139193,-0.059322
2.460000,1.440000,1.205305,0.040000,146405603056.946350,7202481967.366355,-7254962620.000171,-2546312527.484279,0.135996,-0.136391,-0.047974
-2.500000,1.480000,3.204134,0.040000,-41205241295.364471,-24681914102.137089,24499766817201.003906,-86146352034.353607,-138.802458,323.252373,-1.623047
-2.460000,1.480000,3.164544,0.040000,-82401643371.892502,1480338790620.818848,17081930389174.457031,-48677277336.002922,-77.026733,216.916297,-0.917108
-2.420000,1.480000,3.124965,0.040000,-82371858087.099030,-887587445490.726807,5493879870976.768555,-16321654556.301813,-42.758228,77.472316,-0.307509
-2.380000,1.480000,3.085396,0.040000,-82321616810.382858,-65121272064.110039,165705881888.464478,-3973350244.038801,-1.795444,2.553473,-0.074860
-2.340000,1.480000,3.045839,0.040000,-82250885605.112106,-13062482111.505426,13058106233.600512,-5297080970.461828,-0.246080,0.246047,-0.099800
-2.300000,1.480000,3.006293,0.040000,-82159246478.550507,-13421332260.100462,13416304272.863098,-6667219631.493370,-0.252837,0.252799,-0.125614
-2.260000,1.480000,2.966759,0.040000,-82046125486.710999,-13869009879.814077,13863641214.977678,-8069775587.350764,-0.261270,0.261229,-0.152039
-2.220000,1.480000,2.927239,0.040000,-81910805903.040771,-14410341992.263416,14404599049.331308,-9510780597.092054,-0.271467,0.271423,-0.179189
-2.180000,1.480000,2.887731,0.040000,-81752421030.526917,-15051779356.201103,15045588111.335098,-10995984299.716179,-0.283549,0.283503,-0.207171
-2.140000,1.480000,2.848237,0.040000,-81569943886.961105,-15801136372.537277,15794411974.519911,-12530690016.312920,-0.297665,0.297614,-0.236085
-2.100000,1.480000,2.808757,0.040000,-81362174689.336014,-16667710565.520485,16660358355.879847,-14119589855.269602,-0.313988,0.313932,-0.266021
-2.060000,1.480000,2.769293,0.040000,-81127725963.126114,-17662448818.147640,17654363540.369560,-15766553531.968168,-0.332725,0.332664,-0.297051
-2.020000,1.480000,2.729843,0.040000,-80865005011.207993,-18798131052.728024,18789196191.731728,-17474355787.771088,-0.354117,0.354050,-0.329227
-1.980000,1.480000,2.690411,0.040000,-80572193448.925400,-20089565260.867001,20079652801.786476,-19244327401.495060,-0.378443,0.378368,-0.362574
-1.940000,1.480000,2.650995,0.040000,-80247223493.910278,-21553786211.855659,21542757085.979656,-21075912556.416107,-0.406023,0.405940,-0.397082
-1.900000,1.480000,2.611597,0.040000,-79887750693.781738,-23210245672.444477,23197951252.475780,-22966112763.226917,-0.437225,0.437132,-0.432695
-1.860000,1.480000,2.572217,0.040000,-79491122788.985550,-25080975611.325779,25067260748.064301,-24908795003.016922,-0.472463,0.472359,-0.469296
-1.820000,1.480000,2.532857,0.040000,-79054344452.007721,-27190697249.423885,27175405502.378830,-26893839673.456909,-0.512202,0.512087,-0.506696
-1.780000,1.480000,2.493517,0.040000,-78574037731.841507,-29566837390.096771,29549819301.484028,-28906102961.958187,-0.556960,0.556832,-0.544608
-1.740000,1.480000,2.454199,0.040000,-78046398182.231049,-32239398631.574142,32220524120.382164,-30924169441.350082,-0.607302,0.607160,-0.582629
-1.700000,1.480000,2.414903,0.040000,-77467146887.643250,-35240611297.761284,35219787497.590775,-32918875473.426262,-0.663836,0.663679,-0.620211
-1.660000,1.480000,2.375631,0.040000,-76831478952.174805,-38604271940.003563,38581468038.502174,-34851594534.032951,-0.727198,0.727026,-0.656624
-1.620000,1.480000,2.336383,0.040000,-76134009520.447617,-42364646304.926285,42339927112.022034,-36672294752.336678,-0.798035,0.797848,-0.690927
-1.580000,1.480000,2.297161,0.040000,-75368719098.998337,-46554784972.287399,46528354951.690773,-38317410605.434052,-0.876970,0.876771,-0.721922
-1.540000,1.480000,2.257967,0.040000,-74528900888.989227,-51204070344.382019,51176329541.336472,-39707619544.208611,-0.964558,0.964349,-0.748115
-1.500000,1.480000,2.218801,0.040000,-73607114073.011917,-56334789827.500099,56306402297.308830,-40745685676.864014,-1.061220,1.061006,-0.767672
-1.460000,1.480000,2.179665,0.040000,-72595148557.664230,-61957521183.611572,61929494876.651421,-41314631662.311546,-1.167157,1.166946,-0.778392
-1.420000,1.480000,2.140562,0.040000,-71484008572.378113,-68065136526.515564,68038910755.767868,-41276630047.663033,-1.282238,1.282041,-0.777676
-1.380000,1.480000,2.101492,0.040000,-70263924729.085815,-74625301790.145996,74602834026.283417,-40473165192.724739,-1.405857,1.405688,-0.762538
-1.340000,1.480000,2.062458,0.040000,-68924406541.835342,-81571495384.499924,81555332935.394455,-38727196396.297516,-1.536763,1.536641,-0.729643
-1.300000,1.480000,2.023462,0.040000,-67454349752.688461,-88792823847.477173,88786138072.136826,-35848226452.802727,-1.672870,1.672820,-0.675401
-1.260000,1.480000,1.984505,0.040000,-65842214701.097282,-96123302008.115372,96129853891.020248,-31641299831.442520,-1.811056,1.811105,-0.596140
-1.220000,1.480000,1.945591,0.040000,-64076292783.669930,-103331804171.374329,103355802322.743011,-25920944553.517391,-1.946967,1.947148,-0.488366
-1.180000,1.480000,1.906722,0.040000,-62145076919.175316,-110114559740.712311,110160368790.531693,-18530825525.688984,-2.074881,2.075226,-0.349131
-1.140000,1.480000,1.867901,0.040000,-60037747799.950798,-116092777716.447021,116164441965.648102,-9369269923.352791,-2.187660,2.188200,-0.176522
-1.100000,1.480000,1.829130,0.040000,-57744779453.043037,-120818565145.955139,120919135534.861374,1580253673.152371,-2.276860,2.277618,0.029773
-1.060000,1.480000,1.790413,0.040000,-55258654347.831802,-123792475125.036652,123923172182.070694,14216207886.506470,-2.333061,2.334046,0.267842
-1.020000,1.480000,1.751755,0.040000,-52574659730.473083,-124495419027.060699,124654730409.639175,28288087765.504139,-2.346466,2.347667,0.532964
-0.980000,1.480000,1.713157,0.040000,-49691714032.142479,-122435952456.693802,122618840802.809219,43374008869.055885,-2.307798,2.309176,0.817191
-0.940000,1.480000,1.674626,0.040000,-46613147864.065720,-117210922723.638931,117408383882.916779,58874567549.611725,-2.209438,2.210926,1.109231
-0.900000,1.480000,1.636165,0.040000,-43347343092.945595,-108573383334.800751,108772611016.372131,74030561618.487747,-2.046712,2.048213,1.394779
-0.860000,1.480000,1.597780,0.040000,-39908122245.106560,-96497371210.167114,96682715847.090973,87969634384.640564,-1.819114,1.820511,1.657399
-0.820000,1.480000,1.559476,0.040000,-36314785786.912689,-81226028384.588913,81380770350.750473,99781757919.611435,-1.531220,1.532386,1.879946
-0.780000,1.480000,1.521259,0.040000,-32591721506.956356,-63289293449.683662,63398010579.317070,108616374854.581696,-1.193021,1.193841,2.046395
-0.740000,1.480000,1.483136,0.040000,-28767558583.889668,-43481184439.933037,43532256493.253777,113786785750.743469,-0.819499,0.819884,2.143809
-0.700000,1.480000,1.445115,0.040000,-24873902891.591663,-22794470385.250278,22782130097.647785,114862562823.738693,-0.429391,0.429298,2.164077
-0.660000,1.480000,1.407203,0.040000,-20943757385.365520,-2320513390.341448,2245904357.437095,111730711402.958908,-0.043298,0.042736,2.105071
-0.620000,1.480000,1.369410,0.040000,-17009786329.429291,16868834454.598282,-16997889466.412081,104611880849.366623,0.318548,-0.319521,1.970948
-0.580000,1.480000,1.331746,0.040000,-13102610393.171864,33835408140.973301,-34005865497.128181,94027905344.571121,0.638442,-0.639727,1.771540
-0.540000,1.480000,1.294223,0.040000,-9249313455.953838,47864172450.582275,-48060047898.805756,80728234879.514145,0.902896,-0.904372,1.520967
-0.500000,1.480000,1.256852,0.040000,-5472302990.614065,58513923717.552841,-58718800346.070221,65591646577.170959,1.103594,-1.105138,1.235785
-0.460000,1.480000,1.219647,0.040000,-1788604802.135638,65625249927.345093,-65824454750.382721,49523182461.980835,1.237544,-1.239045,0.933045
-0.420000,1.480000,1.182626,0.040000,1790394642.003944,69291241532.689621,-69473348494.531113,33363964663.967384,1.306516,-1.307889,0.628596
-0.380000,1.480000,1.145804,0.040000,5258804130.521583,69802368143.122498,-69959928618.041916,17825424698.006649,1.316008,-1.317195,0.335841
-0.340000,1.480000,1.109203,0.040000,8615768916.426357,67578688952.035645,-67708221870.262978,3452834329.541196,1.273954,-1.274930,0.065053
-0.300000,1.480000,1.072845,0.040000,11864804597.076546,63101925911.312767,-63203267411.693649,-9382330861.822575,1.189450,-1.190213,-0.176769
-0.260000,1.480000,1.036754,0.040000,15013031401.567314,56858205546.254860,-56933483448.499191,-20466483218.301285,1.071667,-1.072234,-0.385600
-0.220000,1.480000,1.000961,0.040000,18070399877.086597,49298093037.178085,-49350773064.584572,-29714290744.818378,0.929102,-0.929499,-0.559834
-0.180000,1.480000,0.965499,0.040000,21048971966.929405,40813202783.984825,-40847494030.448631,-37135881904.105972,0.769138,-0.769397,-0.699662
-0.140000,1.480000,0.930404,0.040000,23962295513.293129,31723329846.362484,-31743738128.346283,-42805543521.538170,0.597801,-0.597955,-0.806481
-0.100000,1.480000,0.895721,0.040000,26824893112.566452,22271086267.408665,-22281737104.074593,-46829852041.563950,0.419660,-0.419741,-0.882302
-0.060000,1.480000,0.861498,0.040000,29651873475.428692,12627914931.071640,-12631803273.283329,-49315337833.308990,0.237939,-0.237969,-0.929130
-0.020000,1.480000,0.827794,0.040000,32458655364.091858,2913365170.897202,-2912122389.857063,-50343838830.731773,0.054882,-0.054873,-0.948507
0.020000,1.480000,0.794674,0.040000,35260774111.451378,-6781128545.907127,6786880290.150451,-49962611975.541359,-0.127793,0.127836,-0.941325
0.060000,1.480000,0.762215,0.040000,38073733822.876686,-16374736190.535286,16385152779.344213,-48183803089.474075,-0.308568,0.308647,-0.907811
0.100000,1.480000,0.730504,0.040000,40912877031.803322,-25783993323.995792,25800354868.938961,-44982547067.990318,-0.485878,0.486001,-0.847497
0.140000,1.480000,0.699642,0.040000,43793249471.869606,-34903328034.141403,34928440362.073433,-40294468213.266647,-0.657741,0.657930,-0.759171
0.180000,1.480000,0.669749,0.040000,46729428710.219505,-43578511272.306076,43616461418.931580,-34024127679.174751,-0.821259,0.821545,-0.641034
0.220000,1.480000,0.640958,0.040000,49735275405.460663,-51584803806.983040,51640200769.723251,-26069394781.422863,-0.972201,0.972618,-0.491163
0.260000,1.480000,0.613426,0.040000,52823573059.788139,-58618513837.716949,58695828433.185432,-16354019342.039825,-1.104844,1.105426,-0.308119
0.300000,1.480000,0.584524,0.040000,56005542400.894028,-64299642064.760628,64402757377.899483,-4860462429.823029,-1.212025,1.212802,-0.091574
0.340000,1.480000,0.556320,0.040000,59290234228.274376,-68182103099.705254,68313646000.325897,8336336707.278965,-1.285334,1.286325,0.157061
0.380000,1.480000,0.528537,0.040000,62683817534.696808,-69775766614.946793,69936017549.361649,23032062708.780407,-1.315522,1.316729,0.433937
0.420000,1.480000,0.499534,0.040000,66188798874.434929,-68587411466.414093,68773135513.985626,38858638755.777893,-1.293276,1.294676,0.732119
0.460000,1.480000,0.472141,0.040000,69803238554.164413,-64181390379.427223,64385083206.737640,55264352339.998161,-1.210366,1.211901,1.041212
0.500000,1.480000,0.443190,0.040000,73520060024.554245,-56252703001.219193,56462533696.775764,71519410474.553589,-1.061020,1.062601,1.347467
0.540000,1.480000,0.414921,0.040000,77326568360.708710,-44700727644.943474,44901285479.465675,86752824736.676437,-0.843321,0.844833,1.634474
0.580000,1.480000,0.387483,0.040000,81204294629.698059,-29690001829.578117,29863890545.088409,100021383572.200089,-0.560360,0.561670,1.884461
0.620000,1.480000,0.358113,0.040000,85129262123.985596,-11683597141.557873,11813779479.902454,110405703638.694565,-0.220862,0.221843,2.080107
0.660000,1.480000,0.330978,0.040000,89072726721.646317,8563628603.753146,-8491105382.511591,117121016638.393585,0.160934,-0.160387,2.206628
0.700000,1.480000,0.301945,0.040000,93002380001.569077,30058222610.077011,-30051733680.254379,119623496990.702835,0.566278,-0.566229,2.253776
0.740000,1.480000,0.273554,0.040000,96883930361.832367,51663677292.755058,-51724414883.254112,117690273438.764435,0.973717,-0.974175,2.217353
0.780000,1.480000,0.246858,0.040000,100682910614.290390,72223195208.088516,-72344898442.959457,111455074731.808975,1.361415,-1.362332,2.099878
0.820000,1.480000,0.216701,0.040000,104366517638.123917,90687032539.905640,-90857124754.134415,101391096263.818253,1.709558,-1.710840,1.910267
0.860000,1.480000,0.190210,0.040000,107905282457.169571,106220554152.525223,-106422365585.749664,88245021199.565872,2.002397,-2.003918,1.662587
0.900000,1.480000,0.169115,0.040000,111274399483.780762,118274550294.168594,-118490037164.915283,72937061430.151138,2.229579,-2.231203,1.374177
0.940000,1.480000,0.155629,0.040000,114454603168.859619,126609296603.184860,-126821611745.093323,56448005453.285141,2.386593,-2.388193,1.063513
0.980000,1.480000,0.151791,0.040000,117432553340.603973,131274743845.113708,-131470159254.583115,39714212493.027390,2.474397,-2.475869,0.748239
1.020000,1.480000,0.151791,0.040000,120200759957.668854,132557717926.863449,-132726658949.810059,23546250660.632416,2.498419,-2.499692,0.443625
1.060000,1.480000,0.155629,0.040000,122757130425.627243,130911155913.195221,-131048369417.527222,8578979979.903905,2.467218,-2.468252,0.161633
1.100000,1.480000,0.169115,0.040000,125104251400.366867,126880117527.114365,-126984179718.735870,-4746868454.494585,2.391083,-2.391867,-0.089434
1.140000,1.480000,0.190210,0.040000,127248522467.470215,121035901424.436035,-121108345460.214630,-16177182910.481522,2.280796,-2.281342,-0.304788
1.180000,1.480000,0.216701,0.040000,129199246536.906067,113924879820.064941,-113969205696.209198,-25619345056.604546,2.146661,-2.146995,-0.482683
1.220000,1.480000,0.246858,0.040000,130967758635.569794,106034201728.079575,-106054960315.841858,-33108003455.456852,1.997863,-1.998020,-0.623774
1.260000,1.480000,0.273554,0.040000,132566648078.647156,97773215617.701096,-97775274203.984680,-38768798487.202034,1.842116,-1.842131,-0.730427
1.300000,1.480000,0.301945,0.040000,134009104012.379745,89467583907.680481,-89455608377.610214,-42784914117.630295,1.685553,-1.685463,-0.806093
1.340000,1.480000,0.330978,0.040000,135308394068.615768,81362414549.198242,-81340554563.791229,-45369170032.968849,1.532792,-1.532627,-0.854781
1.380000,1.480000,0.358113,0.040000,136477471425.521194,73630931558.581909,-73602669778.874847,-46742629643.090034,1.387090,-1.386877,-0.880658
1.420000,1.480000,0.387483,0.040000,137528696649.249939,66385850370.293411,-66353969345.186798,-47119520410.954216,1.250568,-1.250327,-0.887759
1.460000,1.480000,0.414921,0.040000,138473656294.588928,59691408660.403801,-59658032504.028687,-46697601941.855087,1.124432,-1.124181,-0.879810
1.500000,1.480000,0.443190,0.040000,139323059129.489532,53574737789.150368,-53541414368.955132,-45652852038.551552,1.009191,-1.008940,-0.860126
1.540000,1.480000,0.472141,0.040000,140086691851.659424,48035852707.927544,-48003651809.905106,-44137334393.204704,0.904841,-0.904599,-0.831573
1.580000,1.480000,0.499534,0.040000,140773418338.572723,43055966023.377029,-43025577674.979836,-42279247131.389458,0.811028,-0.810799,-0.796566
1.620000,1.480000,0.528537,0.040000,141391209129.426971,38604110242.154495,-38575934188.405609,-40184345128.564346,0.727165,-0.726952,-0.757096
1.660000,1.480000,0.556320,0.040000,141947190530.608185,34642212483.656052,-34616434632.581078,-37938128465.833542,0.652534,-0.652339,-0.714776
1.700000,1.480000,0.584524,0.040000,142447705205.727356,31128842003.644466,-31105496766.462090,-35608366750.693588,0.586353,-0.586178,-0.670882
1.740000,1.480000,0.613426,0.040000,142898378232.999390,28021872141.792267,-28000891398.905567,-33247673125.775085,0.527830,-0.527672,-0.626405
1.780000,1.480000,0.640958,0.040000,143304184350.666107,25280287380.925190,-25261537711.951542,-30895951369.276550,0.476189,-0.476048,-0.582098
1.820000,1.480000,0.669749,0.040000,143669513481.386108,22865338936.779675,-22848649074.065678,-28582618354.410812,0.430702,-0.430576,-0.538513
1.860000,1.480000,0.699642,0.040000,143998232671.800934,20741218913.755474,-20726399362.761856,-26328558026.403271,0.390693,-0.390581,-0.496045
1.900000,1.480000,0.730504,0.040000,144293743356.710602,18875389631.382908,-18862246209.519547,-24147797893.037403,0.355549,-0.355450,-0.454959
1.940000,1.480000,0.762215,0.040000,144559033411.660675,17238674439.468155,-17227017216.891109,-22048920041.686474,0.324721,-0.324633,-0.415414
1.980000,1.480000,0.794674,0.040000,144796723841.623993,15805190540.079578,-15794839392.583311,-20036230130.051380,0.297720,-0.297642,-0.377494
2.020000,1.480000,0.827794,0.040000,145009110208.072449,14552183291.846283,-14542971014.910017,-18110712879.460316,0.274119,-0.274050,-0.341216
2.060000,1.480000,0.861498,0.040000,145198199055.827850,13459804844.035440,-13451578561.103312,-16270803682.328407,0.253544,-0.253482,-0.306551
2.100000,1.480000,0.895721,0.040000,145365739691.256989,12510867158.178692,-12503488572.086742,-14513004667.824995,0.235670,-0.235615,-0.273433
2.140000,1.480000,0.930404,0.040000,145513251705.197479,11690589845.910971,-11683934736.534878,-12832371068.732281,0.220220,-0.220170,-0.241769
2.180000,1.480000,0.965499,0.040000,145642048642.920715,10986356156.952944,-10980313421.932863,-11222890732.250160,0.206955,-0.206910,-0.211446
2.220000,1.480000,1.000961,0.040000,145753258210.829773,10387485414.885881,-10381955927.552965,-9677776586.605007,0.195675,-0.195633,-0.182335
2.260000,1.480000,1.036754,0.040000,145847839383.584320,9885027769.006500,-9879924444.336340,-8189689195.380080,0.186211,-0.186172,-0.154298
2.300000,1.480000,1.072845,0.040000,145926596739.465088,9471602303.017927,-9466869833.342054,-6750906241.524506,0.178424,-0.178388,-0.127191
2.340000,1.480000,1.109203,0.040000,145990192271.236847,9141508761.948935,-9137332490.087315,-5353486164.327876,0.172208,-0.172176,-0.100863
2.380000,1.480000,1.145804,0.040000,146039154141.836853,8891883095.929371,-8887177233.795723,-3990788808.511475,0.167502,-0.167466,-0.075189
2.420000,1.480000,1.182626,0.040000,146073870594.151764,8730925147.464157,-8757930749.993015,-2997080331.904795,0.164648,-0.164852,-0.056467
2.460000,1.480000,1.219647,0.040000,146094435044.640869,8692146160.668539,-8805111031.621250,-2423823937.392589,0.164404,-0.165255,-0.045666
-2.500000,1.520000,3.210056,0.040000,-41019819725.555634,-25429658743.137718,24391257505674.132812,-81410201565.854233,-138.199006,321.825535,-1.533815
-2.460000,1.520000,3.170540,0.040000,-82030698349.961349,1472741400230.081055,17007014450844.587891,-45995392787.747253,-76.703492,215.971217,-0.866580
-2.420000,1.520000,3.131036,0.040000,-81997150387.439041,-884907146777.244507,5470586292439.127930,-15409934556.206573,-42.591220,77.149961,-0.290332
-2.380000,1.520000,3.091545,0.040000,-81941751537.969482,-66173065609.438774,166313443721.306335,-3727375478.006954,-1.812750,2.567431,-0.070226
-2.340000,1.520000,3.052067,0.040000,-81863846052.935532,-14374472760.724497,14368764724.925356,-4967944587.238759,-0.270791,0.270748,-0.093599
-2.300000,1.520000,3.012603,0.040000,-81762934178.935913,-14761650092.001276,14756210613.580029,-6249166606.525439,-0.278087,0.278046,-0.117738
-2.260000,1.520000,2.973153,0.040000,-81638395476.393188,-15242266947.695210,15236584632.737907,-7558120661.449697,-0.287141,0.287098,-0.142399
-2.220000,1.520000,2.933719,0.040000,-81489460504.285797,-15821809536.908657,15815783339.873446,-8899835894.625196,-0.298058,0.298013,-0.167678
-2.180000,1.520000,2.894299,0.040000,-81315201466.153473,-16506359584.189314,16499919149.581972,-10278870764.485773,-0.310953,0.310904,-0.193660
-2.140000,1.520000,2.854896,0.040000,-81114522451.089142,-17303143640.407612,17296214798.283722,-11699209941.368240,-0.325962,0.325910,-0.220420
-2.100000,1.520000,2.815510,0.040000,-80886147861.200302,-18220674973.053051,18213177077.980175,-13164091048.345078,-0.343246,0.343189,-0.248019
-2.060000,1.520000,2.776141,0.040000,-80628608780.335953,-19268870369.872562,19260715986.796440,-14675782794.398851,-0.362991,0.362929,-0.276500
-2.020000,1.520000,2.736791,0.040000,-80340227096.937286,-20459167843.402569,20450262899.080505,-16235305449.229950,-0.385412,0.385345,-0.305883
-1.980000,1.520000,2.697460,0.040000,-80019097193.193497,-21804641078.603325,21794885551.706966,-17842081609.813637,-0.410757,0.410683,-0.336155
-1.940000,1.520000,2.658148,0.040000,-79663065018.204102,-23320101337.324501,23309390740.621014,-19493503927.815727,-0.439304,0.439223,-0.367269
-1.900000,1.520000,2.618858,0.040000,-79269704383.313126,-25022172889.871235,25010400883.359634,-21184405319.533207,-0.471366,0.471277,-0.399126
-1.860000,1.520000,2.579589,0.040000,-78836290360.657028,-26929322098.207165,26916384669.920788,-22906416411.816902,-0.507291,0.507193,-0.431570
-1.820000,1.520000,2.540343,0.040000,-78359769740.788452,-29061812649.396729,29047614414.768528,-24647195079.374779,-0.547461,0.547354,-0.464367
-1.780000,1.520000,2.501121,0.040000,-77836728624.239395,-31441549819.462273,31426013120.466373,-26389514586.575897,-0.592289,0.592172,-0.497194
-1.740000,1.520000,2.461925,0.040000,-77263357400.470490,-34091764800.602501,34074842419.229553,-28110201006.364040,-0.642213,0.642085,-0.529612
-1.700000,1.520000,2.422754,0.040000,-76635413624.788452,-37036475985.336739,37018168405.133438,-29778918536.506245,-0.697685,0.697547,-0.561052
-1.660000,1.520000,2.383611,0.040000,-75948183662.095840,-40299647960.316368,40280026180.771614,-31356814771.615448,-0.759158,0.759010,-0.590781
-1.620000,1.520000,2.344497,0.040000,-75196444451.509552,-43903951714.666191,43883186588.440369,-32795059074.429554,-0.827059,0.826902,-0.617878
-1.580000,1.520000,2.305413,0.040000,-74374427385.394745,-47869013067.771774,47847411912.074570,-34033338494.302364,-0.901758,0.901595,-0.641208
-1.540000,1.520000,2.266361,0.040000,-73475787116.309662,-52209023874.136505,52187074585.249863,-34998420004.700363,-0.983524,0.983359,-0.659391
-1.500000,1.520000,2.227343,0.040000,-72493579125.205612,-56929587491.649399,56908009414.719490,-35602947750.473549,-1.072464,1.072302,-0.670780
-1.460000,1.520000,2.188360,0.040000,-71420251108.190994,-62023684262.534416,62003483455.151970,-35744721004.648392,-1.168448,1.168296,-0.673451
-1.420000,1.520000,2.149415,0.040000,-70247654643.471497,-67466685392.969055,67449209490.867226,-35306791608.542564,-1.271013,1.270881,-0.665200
-1.380000,1.520000,2.110509,0.040000,-68967085115.260956,-73210428714.059311,73197413233.243576,-34158823090.494213,-1.379253,1.379155,-0.643572
-1.340000,1.520000,2.071645,0.040000,-67569359359.966736,-79176513388.538055,79170107022.756165,-32160254084.391823,-1.491695,1.491647,-0.605918
-1.300000,1.520000,2.032825,0.040000,-66044941730.727905,-85249187712.463379,85251939374.400620,-29165881714.003933,-1.606160,1.606180,-0.549502
-1.260000,1.520000,1.994051,0.040000,-64384129901.336525,-91268503023.638885,91283288932.959061,-25034487810.235416,-1.719635,1.719747,-0.471664
-1.220000,1.520000,1.955327,0.040000,-62577311272.157753,-97024779642.261490,97054646329.494156,-19641018764.602676,-1.828172,1.828397,-0.370048
-1.180000,1.520000,1.916655,0.040000,-60615298705.330925,-102255841411.932663,102303742556.228073,-12892534279.506052,-1.926830,1.927191,-0.242903
-1.140000,1.520000,1.878039,0.040000,-58489749854.075294,-106648845065.961349,106717259697.102493,-4747599240.724446,-2.009713,2.010228,-0.089448
-1.100000,1.520000,1.839483,0.040000,-56193666981.268883,-109848728734.102921,109939168401.761169,4762028118.921667,-2.070125,2.070806,0.089719
-1.060000,1.520000,1.800989,0.040000,-53721963584.281616,-111475152349.920685,111587596576.956879,15509628677.649117,-2.100892,2.101739,0.292210
-1.020000,1.520000,1.762562,0.040000,-51072070616.053612,-111149106489.416321,111281446484.930344,27255070886.001801,-2.094862,2.095859,0.513501
-0.980000,1.520000,1.724207,0.040000,-48244539743.658463,-108528979915.791168,108676591468.894302,39634074940.548729,-2.045583,2.046696,0.746729
-0.940000,1.520000,1.685928,0.040000,-45243586133.201881,-103353804459.417755,103509397001.329544,52160007416.884239,-1.948125,1.949298,0.982725
-0.900000,1.520000,1.647731,0.040000,-42077501986.069229,-95488900727.141861,95642781888.295181,64242382533.211121,-1.799936,1.801096,1.210364
-0.860000,1.520000,1.609621,0.040000,-38758868418.094185,-84966806330.844269,85107644663.782288,75224212596.883759,-1.601620,1.602681,1.417268
-0.820000,1.520000,1.571606,0.040000,-35304500944.031883,-72015006827.787521,72131068300.687469,84436931153.421722,-1.357460,1.358335,1.590841
-0.780000,1.520000,1.533691,0.040000,-31735084907.984604,-57062450375.996284,57143147595.935371,91267356359.617111,-1.075546,1.076154,1.719530
-0.740000,1.520000,1.495885,0.040000,-28074490904.541317,-40719595269.332062,40757064840.904076,95227166066.600464,-0.767393,0.767675,1.794135
-0.700000,1.520000,1.458196,0.040000,-24348802155.636570,-23731581133.007439,23721945080.955200,96012994583.082535,-0.447062,0.446990,1.808940
-0.660000,1.520000,1.420634,0.040000,-20585128293.764126,-6909942230.548818,6853950063.622708,93545667044.168625,-0.129871,0.129449,1.762455
-0.620000,1.520000,1.383208,0.040000,-16810313879.170252,8946592214.778854,-9043703529.543692,87980593880.483765,0.169108,-0.169840,1.657605
-0.580000,1.520000,1.345930,0.040000,-13049667194.934263,23128920474.494095,-23258312668.692932,79687193488.085922,0.436494,-0.437469,1.501353
-0.540000,1.520000,1.308813,0.040000,-9325831113.894733,35079329036.095757,-35229971475.853935,69201717301.838516,0.661766,-0.662902,1.303800
-0.500000,1.520000,1.271871,0.040000,-5657894067.527334,44429272455.550911,-44589541654.677849,57163041856.237297,0.837979,-0.839187,1.076985
-0.460000,1.520000,1.235119,0.040000,-2060801276.926001,51009867416.814445,-51169007867.266731,44243393863.382790,0.961955,-0.963154,0.833571
-0.420000,1.520000,1.198576,0.040000,1454916754.614959,54837391736.248749,-54986603305.466248,31085232874.109531,1.034012,-1.035136,0.585664
-0.380000,1.520000,1.162260,0.040000,4883121126.838894,56080102181.953018,-56213144317.528603,18252471609.762901,1.057334,-1.058336,0.343887
-0.340000,1.520000,1.126193,0.040000,8221799174.827338,55014577060.084984,-55127883960.021011,6200269665.590252,1.037147,-1.038001,0.116817
-0.300000,1.520000,1.090402,0.040000,11472625973.690380,51979890143.556351,-52072274986.384521,-4736180293.180192,0.979853,-0.980550,-0.089232
-0.260000,1.520000,1.054912,0.040000,14640425419.149086,47336630066.886780,-47408740147.000908,-14336769031.664251,0.892257,-0.892801,-0.270113
-0.220000,1.520000,1.019757,0.040000,17732596061.057117,41435128526.519936,-41488854682.551468,-22480703701.744686,0.780966,-0.781370,-0.423549
-0.180000,1.520000,0.984971,0.040000,20758552444.442734,34593842682.393921,-34631808736.050751,-29125346076.491917,0.651983,-0.652269,-0.548738
-0.140000,1.520000,0.950595,0.040000,23729216686.155724,27086568129.175697,-27111674458.513512,-34283194206.545162,0.510469,-0.510658,-0.645915
-0.100000,1.520000,0.916676,0.040000,26656580849.067055,19137473864.434208,-19152430179.443874,-37998522985.832344,0.360646,-0.360758,-0.715914
-0.060000,1.520000,0.883266,0.040000,29553348014.698677,10924153380.212086,-10931070177.105427,-40325526859.076027,0.205856,-0.205909,-0.759756
-0.020000,1.520000,0.850425,0.040000,32432647218.173862,2587825117.124025,-2588016954.479590,-41311286022.007797,0.048757,-0.048759,-0.778329
0.020000,1.520000,0.818222,0.040000,35307806265.565796,-5752935027.710537,5758937072.224877,-40985820052.140854,-0.108423,0.108468,-0.772197
0.060000,1.520000,0.786735,0.040000,38192160836.847313,-13988671824.226137,14001096785.456278,-39357902141.387901,-0.263625,0.263719,-0.741526
0.100000,1.520000,0.756052,0.040000,41098878248.136635,-22005975350.453876,22025896269.550373,-36413957287.763374,-0.414718,0.414868,-0.686060
0.140000,1.520000,0.726278,0.040000,44040774726.639153,-29672925398.048645,29702307993.723572,-32120368037.523182,-0.559221,0.559443,-0.605166
0.180000,1.520000,0.697526,0.040000,47030102957.997719,-36823705657.773590,36865222232.644722,-26432286605.585278,-0.694015,0.694327,-0.498000
0.220000,1.520000,0.669931,0.040000,50078285704.704315,-43246567177.006493,43303188362.718651,-19310296914.856819,-0.815110,0.815537,-0.363817
0.260000,1.520000,0.641080,0.040000,53195576591.435493,-48678935861.874397,48753459421.319725,-10742544013.576008,-0.917561,0.918122,-0.202396
0.300000,1.520000,0.612868,0.040000,56390640278.132713,-52810607397.563553,52905180619.055199,-769067056.835693,-0.995517,0.996230,-0.014490
0.340000,1.520000,0.585036,0.040000,59670057115.768227,-55295136439.142044,55410692922.840675,10493354249.732105,-1.042446,1.043316,0.197701
0.380000,1.520000,0.556102,0.040000,63037770660.433937,-55770967714.879349,55906557560.291573,22827460324.906288,-1.051524,1.052546,0.430083
0.420000,1.520000,0.528614,0.040000,66494512036.171959,-53894076183.157265,54046238161.105461,35896946135.943352,-1.016256,1.017402,0.676319
0.460000,1.520000,0.499733,0.040000,70037253294.016006,-49381221185.279350,49543624705.513206,49239312904.657753,-0.931289,0.932513,0.927697
0.500000,1.520000,0.471461,0.040000,73658758549.325394,-42059094178.968376,42222628571.752991,62276025309.088417,-0.793342,0.794574,1.173316
0.540000,1.520000,0.443913,0.040000,77347310861.527985,-31911728899.271786,32065126551.040905,74343301906.589630,-0.602103,0.603259,1.400671
0.580000,1.520000,0.414681,0.040000,81086689919.791092,-19117105261.987717,19248096335.468414,84743268009.475922,-0.360918,0.361905,1.596612
0.620000,1.520000,0.387378,0.040000,84856458306.131454,-4063916534.604720,4160800258.143992,92811044033.310425,-0.077114,0.077844,1.748614
0.660000,1.520000,0.358450,0.040000,88632582536.072174,12658545750.130714,-12605167047.541550,97988991979.939346,0.238193,-0.237790,1.846169
0.700000,1.520000,0.330072,0.040000,92388372447.368683,30300083036.615013,-30295767438.648407,99895932075.957062,0.570847,-0.570814,1.882097
0.740000,1.520000,0.303076,0.040000,96095675729.047653,48015428206.704102,-48060920855.160736,98378245196.748383,0.904896,-0.905238,1.853503
0.780000,1.520000,0.273268,0.040000,99726223097.065308,64946624867.516449,-65037694816.376694,93532343098.437576,1.224147,-1.224833,1.762204
0.820000,1.520000,0.246364,0.040000,103252993527.994186,80308176087.684326,-80436305105.745148,85693636248.291824,1.513777,-1.514742,1.614518
0.860000,1.520000,0.223418,0.040000,106651464593.251663,93460487587.975677,-93614234731.795197,75394237940.437866,1.761719,-1.762877,1.420471
0.900000,1.520000,0.205757,0.040000,109900631400.557419,103960101676.371216,-104126813056.888016,63298041379.136971,1.959611,-1.960867,1.192572
0.940000,1.520000,0.194824,0.040000,112983714287.755768,111580802534.659973,-111748290866.281067,50125650990.632202,2.103194,-2.104456,0.944396
0.980000,1.520000,0.191772,0.040000,115888521456.444458,116306031309.608017,-116463914614.420074,36582104213.245605,2.192165,-2.193355,0.689228
1.020000,1.520000,0.191772,0.040000,118607478170.962906,118298333557.345413,-118438857348.643250,23297748299.588001,2.229603,-2.230662,0.438943
1.060000,1.520000,0.194824,0.040000,121137370632.613083,117854581112.280716,-117972897709.931732,10788276852.658861,2.221117,-2.222009,0.203257
1.100000,1.520000,0.205757,0.040000,123478875359.513443,115356208606.267044,-115450204225.783081,-564713562.050847,2.173909,-2.174617,-0.010640
1.140000,1.520000,0.223418,0.040000,125635953013.747726,111222211876.578949,-111292033973.531693,-10515015229.754375,2.095886,-2.096412,-0.198109
1.180000,1.520000,0.246364,0.040000,127615181425.955551,105870092575.940598,-105917538152.148071,-18939531413.730545,1.994922,-1.995280,-0.356832
1.220000,1.520000,0.273268,0.040000,129425090094.024765,99687205267.355331,-99715102186.737335,-25817698561.183121,1.878322,-1.878533,-0.486420
1.260000,1.520000,0.303076,0.040000,131075541986.802963,93012701047.584824,-93024369501.868729,-31207414993.489574,1.752479,-1.752567,-0.587966
1.300000,1.520000,0.330072,0.040000,132577191660.857315,86128751237.777832,-86127587959.451675,-35221176575.197845,1.622709,-1.622700,-0.663587
1.340000,1.520000,0.358450,0.040000,133941033915.279221,79258980118.815063,-79248173239.229446,-38004825960.920616,1.493224,-1.493143,-0.716033
1.380000,1.520000,0.387378,0.040000,135178045688.018600,72571877149.075516,-72554237672.805038,-39720149208.266487,1.367197,-1.367064,-0.748351
1.420000,1.520000,0.414681,0.040000,136298915909.870880,66187182451.540573,-66165067871.615524,-40531655315.545647,1.246880,-1.246713,-0.763640
1.460000,1.520000,0.443913,0.040000,137313853238.741745,60183649302.147705,-60158952713.398689,-40597283948.622154,1.133755,-1.133569,-0.764876
1.500000,1.520000,0.471461,0.040000,138232459353.777100,54607040809.672379,-54581221617.267403,-40062465889.208855,1.028682,-1.028488,-0.754800
1.540000,1.520000,0.499733,0.040000,139063655078.274597,49477628851.157967,-49451766103.203606,-39056841193.321884,0.932041,-0.931846,-0.735854
1.580000,1.520000,0.528614,0.040000,139815647367.976959,44796792031.699730,-44771646719.016350,-37692951033.027145,0.843855,-0.843666,-0.710157
1.620000,1.520000,0.556102,0.040000,140495926622.155975,40552547738.805725,-40528625124.000160,-36066301988.261574,0.763898,-0.763718,-0.679510
1.660000,1.520000,0.585036,0.040000,141111285466.673737,36724010560.425438,-36701617314.528725,-34256313922.511230,0.691775,-0.691606,-0.645409
1.700000,1.520000,0.612868,0.040000,141667851867.992676,33284862073.545315,-33264155676.306198,-32327777773.148884,0.626989,-0.626833,-0.609074
1.740000,1.520000,0.641080,0.040000,142171131014.939178,30205963012.838203,-30186992643.755730,-30332553015.835609,0.568991,-0.568848,-0.571483
1.780000,1.520000,0.669931,0.040000,142626051775.964081,27457253640.267609,-27439992859.502079,-28311320005.018795,0.517213,-0.517083,-0.533402
1.820000,1.520000,0.697526,0.040000,143037014678.911591,25009083943.203442,-24993456030.371658,-26295268785.286896,0.471097,-0.470980,-0.495418
1.860000,1.520000,0.726278,0.040000,143407939273.860626,22833100861.411777,-22818997917.108120,-24307655011.166759,0.430109,-0.430003,-0.457970
1.900000,1.520000,0.756052,0.040000,143742309450.007050,20902800952.161278,-20890097898.855515,-22365188186.911274,0.393749,-0.393653,-0.421373
1.940000,1.520000,0.786735,0.040000,144043215814.561279,19193837381.715187,-19182401916.554504,-20479240662.158932,0.361558,-0.361472,-0.385841
1.980000,1.520000,0.818222,0.040000,144313394636.311707,17684151918.896175,-17673851336.635105,-18656880556.715450,0.333121,-0.333044,-0.351506
2.020000,1.520000,0.850425,0.040000,144555263137.888000,16353986684.201447,-16344692335.346926,-16901740436.438744,0.308066,-0.307996,-0.318439
2.060000,1.520000,0.883266,0.040000,144770951114.316437,15185817083.394228,-15177407087.233284,-15214738014.467167,0.286062,-0.285999,-0.286654
2.100000,1.520000,0.916676,0.040000,144962328982.500977,14164236559.492374,-14156597259.250729,-13594666837.290064,0.266819,-0.266762,-0.256131
2.140000,1.520000,0.950595,0.040000,145131032444.106293,13275815256.137552,-13268841795.696852,-12038674879.571604,0.250085,-0.250032,-0.226816
2.180000,1.520000,0.984971,0.040000,145278483986.632141,12508948060.416483,-12502544365.428497,-10542647968.677036,0.235640,-0.235591,-0.198630
2.220000,1.520000,1.019757,0.040000,145405911464.902100,11853702381.868313,-11847780670.811831,-9101513520.343960,0.223297,-0.223253,-0.171478
2.260000,1.520000,1.054912,0.040000,145514364005.952362,11301671031.828310,-11296149557.144466,-7709478454.084618,0.212899,-0.212857,-0.145251
2.300000,1.520000,1.090402,0.040000,145604725472.771790,10845812932.754208,-10840590793.869963,-6360211775.199175,0.204312,-0.204273,-0.119830
2.340000,1.520000,1.126193,0.040000,145677725754.850433,10480007048.788658,-10474691307.291374,-5046950951.670217,0.197419,-0.197379,-0.095087
2.380000,1.520000,1.162260,0.040000,145733950980.456024,10200703111.426302,-10201728458.498585,-3763162837.859495,0.192193,-0.192201,-0.070900
2.420000,1.520000,1.198576,0.040000,145773866647.715210,10015919205.132965,-10073806959.318800,-2829500890.100701,0.189033,-0.189469,-0.053309
2.460000,1.520000,1.235119,0.040000,145798018563.332855,9815028276.886610,-9879283403.440952,-2289336679.357961,0.185284,-0.185768,-0.043132
-2.500000,1.560000,3.216463,0.040000,-40845358756.156433,-232564431476.858246,24160070321449.175781,-174977919019.287384,-139.624073,319.947306,-3.296685
-2.460000,1.560000,3.177027,0.040000,-81680138264.991348,1460254309455.604492,16936453006313.380859,-46140363858.971802,-76.469351,215.111204,-0.869311
-2.420000,1.560000,3.137605,0.040000,-81644496722.981934,-882403106318.396606,5448617531554.478516,-14414793479.668638,-42.434024,76.846075,-0.271583
-2.380000,1.560000,3.098198,0.040000,-81584388906.313217,-67162166098.310234,166867639388.771271,-3466811474.146764,-1.828927,2.580330,-0.065317
-2.340000,1.560000,3.058806,0.040000,-81499790159.936600,-15599157186.720949,15594243585.329309,-4616505183.258278,-0.293869,0.293832,-0.086978
-2.300000,1.560000,3.019430,0.040000,-81390223742.258926,-16008313158.666275,16002696789.195074,-5803297194.491663,-0.301574,0.301532,-0.109337
-2.260000,1.560000,2.980071,0.040000,-81255035380.777283,-16516748599.699766,16510826154.029949,-7013631223.239388,-0.311152,0.311107,-0.132141
-2.220000,1.560000,2.940729,0.040000,-81093411204.349350,-17128464303.730326,17122223225.064178,-8251477220.031756,-0.322675,0.322628,-0.155463
-2.180000,1.560000,2.901405,0.040000,-80904371988.100388,-17848920330.297928,17842304695.979088,-9520329715.456064,-0.336247,0.336197,-0.179369
-2.140000,1.560000,2.862099,0.040000,-80686764432.696457,-18684637475.604477,18677584794.730446,-10823028044.693256,-0.351990,0.351936,-0.203912
-2.100000,1.560000,2.822814,0.040000,-80439250725.763077,-19643228925.446720,19635672800.827896,-12161575459.349926,-0.370047,0.369990,-0.229131
-2.060000,1.560000,2.783548,0.040000,-80160296355.132767,-20733462782.894367,20725333475.750763,-13536917169.904776,-0.390585,0.390523,-0.255043
-2.020000,1.560000,2.744304,0.040000,-79848156074.862488,-21965319174.714657,21956544406.098938,-14948665985.269842,-0.413790,0.413724,-0.281642
-1.980000,1.560000,2.705082,0.040000,-79500857933.240814,-23350033290.761868,23340539606.858482,-16394766170.368912,-0.439875,0.439803,-0.308887
-1.940000,1.560000,2.665883,0.040000,-79116185294.799789,-24900114188.169525,24889829142.194366,-17871086070.956604,-0.469074,0.468997,-0.336702
-1.900000,1.560000,2.626708,0.040000,-78691656827.493408,-26629325029.444523,26618180479.482079,-19370929996.998653,-0.501649,0.501565,-0.364960
-1.860000,1.560000,2.587559,0.040000,-78224504488.364258,-28552605212.751781,28540542097.765232,-20884460368.223484,-0.537879,0.537789,-0.393475
-1.820000,1.560000,2.548436,0.040000,-77711649634.546967,-30685908531.345535,30672883559.869114,-22398022736.783421,-0.578067,0.577969,-0.421992
-1.780000,1.560000,2.509340,0.040000,-77149677521.466751,-33045923947.470840,33031918704.789955,-23893369645.002071,-0.622525,0.622420,-0.450165
-1.740000,1.560000,2.470274,0.040000,-76534810638.678116,-35649636791.011566,35634669830.331581,-25346785149.217808,-0.671575,0.671462,-0.477548
-1.700000,1.560000,2.431238,0.040000,-75862881589.960419,-38513678432.539650,38497820940.103271,-26728121252.500500,-0.725530,0.725411,-0.503573
-1.660000,1.560000,2.392233,0.040000,-75129306563.618103,-41653402350.984390,41636797934.121513,-27999771675.951965,-0.784680,0.784555,-0.527532
-1.620000,1.560000,2.353262,0.040000,-74329060877.520966,-45081615195.697861,45064504188.997948,-29115628787.989094,-0.849267,0.849138,-0.548555
-1.580000,1.560000,2.314327,0.040000,-73456658636.004333,-48806884936.220207,48789633288.737076,-30020097601.314682,-0.919452,0.919322,-0.565596
-1.540000,1.560000,2.275428,0.040000,-72506139212.476929,-52831347596.724510,52814479815.794640,-30647277845.937641,-0.995278,0.995151,-0.577412
-1.500000,1.560000,2.236568,0.040000,-71471064073.005569,-57147943902.368431,57132178587.472542,-30920471884.140755,-1.076611,1.076492,-0.582560
-1.460000,1.560000,2.197749,0.040000,-70344528366.011368,-61737043516.031204,61723328631.945305,-30752231890.419239,-1.163084,1.162981,-0.579390
-1.420000,1.560000,2.158973,0.040000,-69119192678.683121,-66562465080.884338,66552008228.044586,-30045221007.405865,-1.254016,1.253938,-0.566069
-1.380000,1.560000,2.120242,0.040000,-67787341320.173309,-71566983629.370041,71561270189.822281,-28694222874.707756,-1.348331,1.348288,-0.540616
-1.340000,1.560000,2.081560,0.040000,-66340974301.025040,-76667541246.614914,76668330591.400696,-26589679139.251205,-1.444465,1.444471,-0.500965
-1.300000,1.560000,2.042928,0.040000,-64771940638.204544,-81750547137.953506,81759834502.429733,-23623145266.315777,-1.540280,1.540350,-0.445074
-1.260000,1.560000,2.004350,0.040000,-63072120453.380638,-86667866839.572861,86687796784.076660,-19695003414.146133,-1.632986,1.633136,-0.371065
-1.220000,1.560000,1.965829,0.040000,-61233662208.339867,-91234341021.937546,91267058783.077301,-14724623393.920975,-1.719093,1.719339,-0.277420
-1.180000,1.560000,1.927368,0.040000,-59249278953.689186,-95227905580.864227,95275336609.454269,-8662884162.620960,-1.794417,1.794774,-0.163214
-1.140000,1.560000,1.888971,0.040000,-57112603290.727806,-98393543942.504364,98457101101.446793,-1506534419.627833,-1.854151,1.854630,-0.028384
-1.100000,1.560000,1.850642,0.040000,-54818594614.568672,-100452300898.790833,100532534179.469864,6686715495.536016,-1.893033,1.893638,0.125982
-1.060000,1.560000,1.812385,0.040000,-52363984131.080368,-101116319785.101120,101212544535.822342,15784165573.425791,-1.905634,1.906359,0.297383
-1.020000,1.560000,1.774205,0.040000,-49747733557.493546,-100110236051.199020,100220199587.727341,25567625761.115749,-1.886756,1.887585,0.481709
-0.980000,1.560000,1.736107,0.040000,-46971473336.514145,-97198227811.327972,97317894664.066116,35729362808.794189,-1.831947,1.832849,0.673162
-0.940000,1.560000,1.698097,0.040000,-44039877263.067566,-92214652318.525116,92338196240.817490,45877410672.175011,-1.738076,1.739007,0.864357
-0.900000,1.560000,1.660179,0.040000,-40960924817.177597,-85094703366.850403,85214780065.649399,55552463042.413589,-1.603912,1.604817,1.046641
-0.860000,1.560000,1.622362,0.040000,-37746002573.312317,-75900283938.760864,76008616440.911942,64257050423.605286,-1.430618,1.431434,1.210640
-0.820000,1.560000,1.584653,0.040000,-34409803759.312271,-64835771085.009193,64924012441.910332,71495469833.323700,-1.222042,1.222707,1.347016
-0.780000,1.560000,1.547058,0.040000,-30970001156.905090,-52248976045.639702,52309735956.675995,76820377092.513336,-0.984744,0.985202,1.447340
-0.740000,1.560000,1.509587,0.040000,-27446692052.877811,-38614548659.308769,38642405571.468987,79879724513.163330,-0.727678,0.727888,1.504980
-0.700000,1.560000,1.472248,0.040000,-23861641771.115372,-24500113249.054497,24492407529.860470,80456574561.023178,-0.461553,0.461495,1.515849
-0.660000,1.560000,1.435054,0.040000,-20237379638.424442,-10518890299.370369,10476123710.980877,78494802380.750565,-0.197940,0.197618,1.478888
-0.620000,1.560000,1.398014,0.040000,-16596222597.313700,2724483442.375821,-2798733989.760054,74105925053.235565,0.051751,-0.052310,1.396199
-0.580000,1.560000,1.361142,0.040000,-12959312423.150116,14686667823.279264,-14786301722.800032,67555797764.717117,0.277268,-0.278019,1.272790
-0.540000,1.560000,1.324451,0.040000,-9345750186.510490,24928942560.416779,-25046225613.697098,59233769666.434715,0.470339,-0.471223,1.115999
-0.500000,1.560000,1.287958,0.040000,-5771896768.233468,33145357620.114929,-33271959007.464989,49610029609.098404,0.625193,-0.626147,0.934682
-0.460000,1.560000,1.251679,0.040000,-2250884246.408556,39173176336.800980,-39301153276.700607,39188492120.386063,0.738769,-0.739733,0.738334
-0.420000,1.560000,1.215633,0.040000,1207645057.385180,42986463433.365005,-43109037269.765564,28462431548.320297,0.810583,-0.811506,0.536249
-0.380000,1.560000,1.179842,0.040000,4597581818.898149,44676339696.268501,-44788375369.321007,17878504748.814423,0.842361,-0.843206,0.336841
-0.340000,1.560000,1.144330,0.040000,7916206387.713181,44422937835.217255,-44521108343.894783,7812468095.041504,0.837509,-0.838249,0.147191
-0.300000,1.560000,1.109124,0.040000,11163903298.626350,42464422587.796326,-42547100973.862617,-1442581409.378264,0.800522,-0.801145,-0.027179
-0.260000,1.560000,1.074253,0.040000,14343782774.690123,39067741778.636597,-39134709514.220924,-9676772831.754562,0.736437,-0.736942,-0.182316
-0.220000,1.560000,1.039751,0.040000,17461255738.851593,34504297823.365288,-34556373283.457924,-16755610699.927582,0.650375,-0.650768,-0.315685
-0.180000,1.560000,1.005658,0.040000,20523601137.007355,29031971905.812035,-29070632326.889523,-22606871417.988777,0.547198,-0.547489,-0.425927
-0.140000,1.560000,0.972014,0.040000,23539554328.528976,22883645297.452454,-22910665892.097969,-27204878730.884655,0.431294,-0.431498,-0.512556
-0.100000,1.560000,0.938869,0.040000,26518934938.873680,16261924598.273691,-16279042792.638382,-30554111904.148563,0.306481,-0.306610,-0.575657
-0.060000,1.560000,0.906278,0.040000,29472322643.226337,9339655873.591925,-9348296085.239805,-32673947245.142410,0.176013,-0.176078,-0.615596
-0.020000,1.560000,0.874301,0.040000,32410780140.073318,2265224781.969781,-2266328646.014730,-33586352742.725262,0.042684,-0.042693,-0.632786
0.020000,1.560000,0.843011,0.040000,35345614999.996300,-4829164953.295480,4835207664.293193,-33307680383.302780,-0.091018,0.091064,-0.627536
0.060000,1.560000,0.812484,0.040000,38288167310.299004,-11818002880.949854,11831378717.189795,-31844494513.086216,-0.222734,0.222834,-0.599969
0.100000,1.560000,0.782812,0.040000,41249607999.011749,-18572564152.749550,18594046800.017345,-29192897062.972301,-0.350039,0.350201,-0.550011
0.140000,1.560000,0.754095,0.040000,44240731991.939781,-24950818307.568707,24981724612.991577,-25341510058.473675,-0.470263,0.470495,-0.477449
0.180000,1.560000,0.726445,0.040000,47271730138.500877,-30788119186.244434,30830151314.313221,-20278899427.456112,-0.580304,0.580620,-0.382066
0.220000,1.560000,0.697639,0.040000,50351925196.863541,-35890669380.474350,35945641021.854172,-14005598365.416044,-0.676512,0.676926,-0.263874
0.260000,1.560000,0.669420,0.040000,53489461602.254425,-40033747144.742683,40103239768.660812,-6549597613.714329,-0.754652,0.755176,-0.123398
0.300000,1.560000,0.641547,0.040000,56690946276.286316,-42965861497.810280,43050842571.025436,2016506938.574203,-0.809982,0.810623,0.037992
0.340000,1.560000,0.612671,0.040000,59961047174.222458,-44419473097.905617,44519881308.798409,11558526329.175472,-0.837456,0.838213,0.217769
0.380000,1.560000,0.585105,0.040000,63302066776.841919,-44128844032.147209,44243169303.881058,21865951056.672508,-0.832059,0.832921,0.411967
0.420000,1.560000,0.556282,0.040000,66713519099.171387,-41855067774.545898,41980010851.081665,32642441911.353703,-0.789280,0.790222,0.615003
0.460000,1.560000,0.528007,0.040000,70191750141.211502,-37416847465.079559,37547176106.106102,43505133800.376427,-0.705692,0.706674,0.819662
0.500000,1.560000,0.500374,0.040000,73729650724.455505,-30723608227.786674,30852309372.837860,53995928351.122482,-0.579578,0.580548,1.017315
0.540000,1.560000,0.471249,0.040000,77316514247.616760,-21805876265.333141,21924652655.960140,63606371275.264488,-0.411507,0.412402,1.198381
0.580000,1.560000,0.443822,0.040000,80938087452.772964,-10837060543.327715,10937154316.506878,71815350363.337555,-0.204742,0.205497,1.353043
0.620000,1.560000,0.414973,0.040000,84576848563.281799,1858913587.782123,-1785663895.360871,78136138497.930496,0.034609,-0.034057,1.472130
0.660000,1.560000,0.386605,0.040000,88212524657.040619,15818061528.133924,-15778099704.013090,82166726961.158585,0.297796,-0.297494,1.548069
0.700000,1.560000,0.359403,0.040000,91822831447.333466,30465940075.167377,-30463024253.085667,83635634047.953201,0.573979,-0.573958,1.575744
0.740000,1.560000,0.329835,0.040000,95384388341.303650,45163745196.776398,-45198343890.343109,82435167328.144806,0.851107,-0.851367,1.553126
0.780000,1.560000,0.302673,0.040000,98873735567.516006,59264691359.765465,-59333883456.289291,78635848440.835861,1.116972,-1.117494,1.481545
0.820000,1.560000,0.278624,0.040000,102268363923.692764,72172091317.855377,-72269994056.704697,72479114682.880188,1.360317,-1.361055,1.365549
0.860000,1.560000,0.258557,0.040000,105547665010.886322,83390149742.981033,-83508775403.515701,64349613247.778786,1.571789,-1.572683,1.212384
0.900000,1.560000,0.243459,0.040000,108693721329.021561,92560162289.715088,-92690513523.045380,54732232091.308685,1.744624,-1.745606,1.031187
0.940000,1.560000,0.234291,0.040000,111691878674.623627,99478028330.178864,-99611209406.132095,44161448120.125038,1.874976,-1.875980,0.832027
0.980000,1.560000,0.231760,0.040000,114531072845.241135,104092763145.969193,-104220912569.323532,33171107074.804920,1.961892,-1.962858,0.624963
1.020000,1.560000,0.231760,0.040000,117203912763.777191,106489007351.768280,-106605928257.183884,22251496810.918678,2.006975,-2.007857,0.419231
1.060000,1.560000,0.234291,0.040000,119706547554.536240,106858651712.039688,-106960101761.163712,11818147937.861341,2.013852,-2.014617,0.222661
1.100000,1.560000,0.243459,0.040000,122038362460.112869,105467374446.105286,-105551050345.273056,2194006344.613423,1.987539,-1.988170,0.041336
1.140000,1.560000,0.258557,0.040000,124201556680.191071,102621318564.314346,-102686616195.237457,-6395813011.254016,1.933814,-1.934306,-0.120501
1.180000,1.560000,0.278624,0.040000,126200656110.075592,98637778077.466187,-98685424605.897156,-13819131328.951591,1.858662,-1.859021,-0.260360
1.220000,1.560000,0.302673,0.040000,128042007686.772858,93822128264.774231,-93853773874.553055,-20024865419.694832,1.767842,-1.768081,-0.377280
1.260000,1.560000,0.329835,0.040000,129733292191.484726,88451737205.323090,-88469571719.161011,-25027432800.334644,1.666583,-1.666717,-0.471531
1.300000,1.560000,0.359403,0.040000,131283081285.710831,82766470316.726578,-82772903792.609818,-28890089386.064938,1.559405,-1.559453,-0.544306
1.340000,1.560000,0.386605,0.040000,132700454068.662933,76964716727.691010,-76962139982.033981,-31709151212.544449,1.450045,-1.450026,-0.597419
1.380000,1.560000,0.414973,0.040000,133994679633.400742,71203578893.014313,-71194203086.561661,-33600297369.308094,1.341464,-1.341393,-0.633049
1.420000,1.560000,0.443822,0.040000,135174965437.182739,65601870085.141640,-65587634502.045044,-34687509165.219795,1.235897,-1.235790,-0.653533
1.460000,1.560000,0.471249,0.040000,136250266793.007828,60244742947.157761,-60227275785.109650,-35094726485.677948,1.134947,-1.134816,-0.661205
1.500000,1.560000,0.500374,0.040000,137229150157.000641,55189028789.068336,-55169645402.583992,-34939999020.481857,1.039684,-1.039538,-0.658290
1.540000,1.560000,0.528007,0.040000,138119701725.778595,50468633251.864807,-50448358190.978905,-34331750399.537807,0.950744,-0.950591,-0.646830
1.580000,1.560000,0.556282,0.040000,138929472747.146912,46099569388.748199,-46079171438.387650,-33366719053.666565,0.868427,-0.868274,-0.628648
1.620000,1.560000,0.585105,0.040000,139665453511.250793,42084396503.976212,-42064428908.422363,-32129153481.346741,0.792782,-0.792631,-0.605332
1.660000,1.560000,0.612671,0.040000,140334068928.210968,38415969548.752930,-38396810232.417580,-30690891022.317677,0.723671,-0.723526,-0.578234
1.700000,1.560000,0.641547,0.040000,140941189693.450958,35080495066.442879,-35062383750.515739,-29112016221.814003,0.660834,-0.660698,-0.548487
1.740000,1.560000,0.669420,0.040000,141492154146.664886,32059944691.460648,-32043015327.716007,-27441863301.011459,0.603932,-0.603805,-0.517021
1.780000,1.560000,0.697639,0.040000,141991796955.845276,29333905577.379543,-29318213557.022385,-25720189221.566902,0.552579,-0.552461,-0.484583
1.820000,1.560000,0.726445,0.040000,142444481657.829132,26880957337.041168,-26866501577.394516,-23978395795.348045,0.506371,-0.506262,-0.451767
1.860000,1.560000,0.754095,0.040000,142854134844.523285,24679663853.133633,-24666404226.377815,-22240720452.294121,0.464904,-0.464804,-0.419028
1.900000,1.560000,0.782812,0.040000,143224280400.857147,22709260642.035160,-22697131376.083164,-20525346392.865818,0.427787,-0.427696,-0.386709
1.940000,1.560000,0.812484,0.040000,143558072688.567474,20950107744.309696,-20939027467.735191,-18845405388.794174,0.394650,-0.394566,-0.355058
1.980000,1.560000,0.843011,0.040000,143858327946.086792,19383966580.377800,-19373845651.171509,-17209862133.467888,0.365148,-0.365072,-0.324244
2.020000,1.560000,0.874301,0.040000,144127553457.436859,17994148140.971592,-17984893833.184120,-15624279375.509123,0.338968,-0.338898,-0.294370
2.060000,1.560000,0.906278,0.040000,144367974249.749329,16765569966.138266,-16757090001.748571,-14091469475.948496,0.315825,-0.315761,-0.265491
2.100000,1.560000,0.938869,0.040000,144581557225.727448,15684750851.473734,-15676955684.935966,-12612041635.272568,0.295466,-0.295407,-0.237618
2.140000,1.560000,0.972014,0.040000,144770032737.614410,14739765129.174036,-14732569318.339354,-11184855727.292528,0.277665,-0.277611,-0.210729
2.180000,1.560000,1.005658,0.040000,144934913674.419861,13920172567.019955,-13913495505.458347,-9807394145.286297,0.262226,-0.262176,-0.184777
2.220000,1.560000,1.039751,0.040000,145077512173.575256,13216935308.799107,-13210701629.136345,-8476062873.217753,0.248979,-0.248933,-0.159694
2.260000,1.560000,1.074253,0.040000,145198954089.244232,12622330971.287830,-12616472405.067364,-7186432706.971354,0.237779,-0.237735,-0.135397
2.300000,1.560000,1.109124,0.040000,145300191355.433655,12129890726.126688,-12124373222.878984,-5933433231.666493,0.228503,-0.228461,-0.111789
2.340000,1.560000,1.144330,0.040000,145382012327.673584,11734660725.995581,-11729755353.141855,-4711540912.275843,0.221060,-0.221023,-0.088768
2.380000,1.560000,1.179842,0.040000,145445049231.386902,11434654289.020908,-11428751791.337526,-3516162800.853501,0.215402,-0.215358,-0.066247
2.420000,1.560000,1.215633,0.040000,145489767376.249390,11240897472.046917,-11272330124.179264,-2642811105.512176,0.211963,-0.212200,-0.049792
2.460000,1.560000,1.251679,0.040000,145516263331.854187,11199796618.083792,-11338228789.229858,-2138475066.582188,0.211793,-0.212836,-0.040290
-2.500000,1.600000,3.223355,0.040000,-40682803781.385284,-3123501761777.933594,22258312239639.554688,-2341743540694.107422,-167.001861,311.206229,-44.119806
-2.460000,1.600000,3.184004,0.040000,-81355176334.217239,225162349459.903839,16297885444154.332031,-1375757794671.223145,-89.148951,213.670470,-25.920074
-2.420000,1.600000,3.144669,0.040000,-81316056426.828796,-1017689969164.303589,5282208243188.325195,-283811899874.622742,-43.277668,75.416067,-5.347181
-2.380000,1.600000,3.105352,0.040000,-81251471870.433884,-68063182718.796364,167381785377.882629,-3189398882.699900,-1.843716,2.592204,-0.060090
-2.340000,1.600000,3.066052,0.040000,-81160675262.439209,-16726154188.319654,16719829554.720808,-4245727732.114504,-0.315095,0.315047,-0.079992
-2.300000,1.600000,3.026770,0.040000,-81043108880.251587,-17156235765.986973,17150300275.675945,-5333851137.141244,-0.323200,0.323155,-0.100493
-2.260000,1.600000,2.987507,0.040000,-80898083594.681137,-17688140877.091934,17682020467.487839,-6441547068.896765,-0.333220,0.333174,-0.121362
-2.220000,1.600000,2.948265,0.040000,-80724747977.848846,-18326551085.161507,18320153113.473648,-7572003497.457851,-0.345247,0.345198,-0.142661
-2.180000,1.600000,2.909043,0.040000,-80522080145.521729,-19076401825.488113,19069673635.269882,-8727804671.097000,-0.359372,0.359322,-0.164437
-2.140000,1.600000,2.869842,0.040000,-80288879833.899033,-19943449673.515717,19936339623.736908,-9910822180.753443,-0.375706,0.375652,-0.186726
-2.100000,1.600000,2.830664,0.040000,-80023759185.668991,-20934342850.369335,20926798361.983337,-11122045222.556595,-0.394373,0.394316,-0.209546
-2.060000,1.600000,2.791509,0.040000,-79725132111.184799,-22056642491.023388,22048610759.482277,-12361368327.876953,-0.415515,0.415454,-0.232895
-2.020000,1.600000,2.752378,0.040000,-79391202190.336761,-23318826138.533653,23310255354.903152,-13627331409.925541,-0.439292,0.439227,-0.256747
-1.980000,1.600000,2.713273,0.040000,-79019949110.062897,-24730269322.145660,24721110467.423019,-14916806176.276958,-0.465881,0.465812,-0.281041
-1.940000,1.600000,2.674194,0.040000,-78609113667.841446,-26301195429.385616,26291404860.123169,-16224623253.965599,-0.495474,0.495401,-0.305681
-1.900000,1.600000,2.635143,0.040000,-78156181422.567413,-28042580109.921310,28032123178.130295,-17543134923.004963,-0.528279,0.528201,-0.330523
-1.860000,1.600000,2.596120,0.040000,-77658365147.351929,-29965992103.740654,29954848095.658684,-18861709630.457508,-0.564514,0.564430,-0.355366
-1.820000,1.600000,2.557128,0.040000,-77112586340.917130,-32083347534.881897,32071516239.633789,-20166156956.191467,-0.604402,0.604313,-0.379942
-1.780000,1.600000,2.518168,0.040000,-76515456193.206543,-34406549206.898582,34394059462.409103,-21438085938.828056,-0.648169,0.648075,-0.403906
-1.740000,1.600000,2.479240,0.040000,-75863256585.334641,-36946976549.919724,36933897109.852791,-22654206251.878860,-0.696029,0.695930,-0.426818
-1.700000,1.600000,2.440348,0.040000,-75151921943.487640,-39714785871.632507,39701238907.562454,-23785591354.279915,-0.748173,0.748071,-0.448134
-1.660000,1.600000,2.401491,0.040000,-74377023070.358612,-42717975340.056618,42704152778.656342,-24796936229.409420,-0.804753,0.804649,-0.467189
-1.620000,1.600000,2.362673,0.040000,-73533754454.432465,-45961165749.139465,45947348442.104996,-25645860480.834362,-0.865857,0.865753,-0.483183
-1.580000,1.600000,2.323895,0.040000,-72616927012.143875,-49444048588.652771,49430627940.953888,-26282331046.629612,-0.931479,0.931378,-0.495174
-1.540000,1.600000,2.285159,0.040000,-71620968749.676514,-53159459685.356476,53146960821.177078,-26648307893.006210,-1.001484,1.001390,-0.502070
-1.500000,1.600000,2.246467,0.040000,-70539936428.800964,-57091053353.061409,57080158076.289467,-26677750221.381744,-1.075567,1.075485,-0.502624
-1.460000,1.600000,2.207822,0.040000,-69367541957.690308,-61210582638.527138,61202149374.571571,-26297158050.411209,-1.153195,1.153132,-0.495454
-1.420000,1.600000,2.169227,0.040000,-68097197853.562317,-65474840883.981438,65469917414.421112,-25426860481.352337,-1.233556,1.233519,-0.479057
-1.380000,1.600000,2.130682,0.040000,-66722086659.554367,-69822392746.678940,69822216024.539719,-23983290503.457607,-1.315493,1.315492,-0.451859
-1.340000,1.600000,2.092193,0.040000,-65235259526.404633,-74170322269.317429,74176298064.059601,-21882496089.035900,-1.397446,1.397491,-0.412279
-1.300000,1.600000,2.053761,0.040000,-63629769131.322014,-78411350558.739059,78425004586.487778,-19045113685.707390,-1.477392,1.477495,-0.358821
-1.260000,1.600000,2.015391,0.040000,-61898841502.462395,-82411819023.891037,82434711069.998077,-15402954671.385466,-1.552816,1.552988,-0.290201
-1.220000,1.600000,1.977085,0.040000,-60036089919.887817,-86011178119.129440,86044772321.392426,-10907208357.454346,-1.620690,1.620944,-0.205498
-1.180000,1.600000,1.938847,0.040000,-58035771644.922844,-89023735791.539993,89069224477.655518,-5538030880.688093,-1.677516,1.677859,-0.104340
-1.140000,1.600000,1.900682,0.040000,-55893084610.709633,-91243458909.317123,91301544965.666016,685036463.501562,-1.719408,1.719846,0.012906
-1.100000,1.600000,1.862594,0.040000,-53604496329.759178,-92452529009.993469,92523182699.783218,7692775503.688346,-1.742259,1.742791,0.144936
-1.060000,1.600000,1.824587,0.040000,-51168091291.744644,-92434072901.812256,92516292507.968109,15357505072.284515,-1.741976,1.742596,0.289344
-1.020000,1.600000,1.786668,0.040000,-48583916489.384834,-90988979438.439499,91080598452.447708,23487535652.536797,-1.714803,1.715493,0.442519
-0.980000,1.600000,1.748842,0.040000,-45854298236.786087,-87955978961.103058,88053571792.241180,31826763789.201359,-1.657693,1.658429,0.599635
-0.940000,1.600000,1.711114,0.040000,-42984098302.255058,-83233275511.925934,83332213584.440369,40061136870.227402,-1.568722,1.569468,0.754775
-0.900000,1.600000,1.673492,0.040000,-39980874970.840210,-76799143262.147888,76893839468.891327,47833106088.201385,-1.447476,1.448189,0.901203
-0.860000,1.600000,1.635983,0.040000,-36854916365.610443,-68728264051.693253,68812613935.111633,54764100132.984993,-1.295357,1.295993,1.031787
-0.820000,1.600000,1.598594,0.040000,-33619120183.093212,-59200455116.169174,59268441314.058098,60483603566.536095,-1.115755,1.116268,1.139546
-0.780000,1.600000,1.561335,0.040000,-30288706123.284718,-48499020787.454498,48545402277.810822,64661879493.061577,-0.914012,0.914361,1.218267
-0.740000,1.600000,1.524215,0.040000,-26880763778.320160,-36997306596.664734,37018279778.561539,67042125009.420311,-0.697169,0.697327,1.263113
-0.700000,1.600000,1.487244,0.040000,-23413657450.205875,-25133959706.072876,25127667579.093826,67467296532.510460,-0.473503,0.473455,1.271123
-0.660000,1.600000,1.450434,0.040000,-19906327252.115620,-13379500929.769323,13346287366.062592,65897269487.812042,-0.251890,0.251640,1.241543
-0.620000,1.600000,1.413797,0.040000,-16377539594.384287,-2198560743.869766,2140916365.412367,62413424846.776825,-0.041096,0.040662,1.175905
-0.580000,1.600000,1.377348,0.040000,-12845147013.679007,7986962722.542790,-8064751155.192821,57209898937.300591,0.150919,-0.151505,1.077868
-0.540000,1.600000,1.341101,0.040000,-9325415846.401566,16828766505.595247,-16921189566.316528,50573070125.878822,0.317586,-0.318283,0.952826
-0.500000,1.600000,1.305073,0.040000,-5832470791.388193,24073217200.472939,-24174225339.617687,42852796218.436981,0.454124,-0.454886,0.807372
-0.460000,1.600000,1.269283,0.040000,-2377889916.448732,29570758193.079895,-29674430651.305794,34430006369.993858,0.557716,-0.558498,0.648681
-0.420000,1.600000,1.233752,0.040000,1029534819.619155,33273859205.226315,-33374956543.339188,25685320724.558205,0.627470,-0.628232,0.483926
-0.380000,1.600000,1.198502,0.040000,4383874636.008191,35225471489.001236,-35319807077.145294,16972552713.821188,0.664202,-0.664912,0.319773
-0.340000,1.600000,1.163560,0.040000,7681996790.216096,35541062936.849319,-35625672259.018761,8599572661.090244,0.670092,-0.670730,0.162021
-0.300000,1.600000,1.128953,0.040000,10923381670.091040,34387679646.862518,-34460806002.840820,817454436.065561,0.648297,-0.648848,0.015401
-0.260000,1.600000,1.094714,0.040000,14109857342.178141,31963181094.126152,-32024124665.478867,-6182577377.188617,0.602549,-0.603009,-0.116483
-0.220000,1.600000,1.060878,0.040000,17245284572.874901,28478010586.105808,-28526898057.848122,-12265870947.855743,0.536819,-0.537187,-0.231096
-0.180000,1.600000,1.027486,0.040000,20335221369.173470,24140892068.177784,-24178414592.391197,-17346645939.209095,0.455040,-0.455323,-0.326821
-0.140000,1.600000,0.994581,0.040000,23386589877.113949,19149018044.940815,-19176167931.371243,-21377734756.121143,0.360932,-0.361137,-0.402769
-0.100000,1.600000,0.962213,0.040000,26407361335.069664,13682763833.047539,-13700591281.729559,-24339409090.759403,0.257892,-0.258026,-0.458569
-0.060000,1.600000,0.930440,0.040000,29406267566.469933,7904596780.951547,-7914009341.946761,-26228746304.453255,0.148980,-0.149051,-0.494165
-0.020000,1.600000,0.899323,0.040000,32392540819.163818,1961459858.848235,-1963083093.966806,-27050774046.856728,0.036964,-0.036976,-0.509652
0.020000,1.600000,0.868934,0.040000,35375678231.904106,-4010421016.836685,4016321168.839267,-26812213554.613674,-0.075592,0.075636,-0.505158
0.060000,1.600000,0.839351,0.040000,38365223332.859299,-9879378166.995502,9892926019.067776,-25518124480.982559,-0.186210,0.186312,-0.480776
0.100000,1.600000,0.810663,0.040000,41370554786.704453,-15511613276.223249,15533314461.849220,-23171481150.122189,-0.292370,0.292534,-0.436564
0.140000,1.600000,0.782968,0.040000,44400671744.464645,-20764668033.662819,20795348526.217968,-19775770632.323978,-0.391392,0.391623,-0.372587
0.180000,1.600000,0.754199,0.040000,47463965427.668350,-25481961912.646519,25522637652.001228,-15340734206.299114,-0.480325,0.480631,-0.289028
0.220000,1.600000,0.725975,0.040000,50567968315.655525,-29489600948.035381,29541278160.239613,-9891037085.162376,-0.555893,0.556283,-0.186353
0.260000,1.600000,0.698068,0.040000,53719075936.357002,-32596647183.044483,32660071722.571690,-3477078025.086401,-0.614498,0.614976,-0.065510
0.300000,1.600000,0.669239,0.040000,56922241765.768265,-34599711143.024551,34675088851.676231,3813305167.073526,-0.652305,0.652873,0.071845
0.340000,1.600000,0.641610,0.040000,60180652624.895248,-35292351883.716454,35379061613.827835,11843741236.974480,-0.665418,0.666072,0.223143
0.380000,1.600000,0.612833,0.040000,63495399625.156082,-34479395665.856018,34575728735.760986,20420613355.747128,-0.650156,0.650882,0.384736
0.420000,1.600000,0.584557,0.040000,66865167533.044685,-31995695541.875080,32098675916.648495,29288808332.560291,-0.603400,0.604176,0.551818
0.460000,1.600000,0.556857,0.040000,70285972446.809982,-27727916348.117371,27833266368.086575,38134089400.059937,-0.523005,0.523799,0.718468
0.500000,1.600000,0.527818,0.040000,73750982420.350388,-21636829716.591457,21739134717.788738,46593800311.767662,-0.408229,0.409000,0.877854
0.540000,1.600000,0.500293,0.040000,77250456406.413712,-13776710750.832811,13869804741.653345,54276534420.672310,-0.260087,0.260789,1.022601
0.580000,1.600000,0.471506,0.040000,80771832222.101151,-4308068507.458873,4385619662.102612,60789867642.155914,-0.081605,0.082189,1.145316
0.620000,1.600000,0.443147,0.040000,84299983605.965622,6499683076.203291,-6443456098.260367,65773544483.451660,0.122140,-0.121716,1.239212
0.660000,1.600000,0.415796,0.040000,87817650444.253738,18277821789.415794,-18247413918.372986,68933982576.879807,0.344193,-0.343964,1.298756
0.700000,1.600000,0.386402,0.040000,91306026782.677109,30580490920.581276,-30578488986.989258,70075037621.150909,0.576143,-0.576128,1.320254
0.740000,1.600000,0.359064,0.040000,94745471317.950211,42917482137.130806,-42944182252.502289,69120014454.641922,0.808741,-0.808942,1.302261
0.780000,1.600000,0.334286,0.040000,98116288276.313950,54793541731.505409,-54846887108.865387,66121073542.268707,1.032644,-1.033046,1.245759
0.820000,1.600000,0.312678,0.040000,101399516271.224045,65748735412.412453,-65824588658.091911,61254283504.923180,1.239173,-1.239745,1.154066
0.860000,1.600000,0.294937,0.040000,104577661059.636139,75394169998.249390,-75486862358.315582,54801114263.339462,1.420994,-1.421692,1.032485
0.900000,1.600000,0.281794,0.040000,107635315458.951263,83438343991.287308,-83541389745.344543,47119504964.789703,1.572609,-1.573386,0.887759
0.940000,1.600000,0.273913,0.040000,110559624512.442902,89701295072.716431,-89808136446.657181,38609202373.133011,1.690628,-1.691433,0.727420
0.980000,1.600000,0.271751,0.040000,113340573313.780624,94115998638.767212,-94220658237.325867,29676535684.301514,1.773792,-1.774580,0.559123
1.020000,1.600000,0.271751,0.040000,115971095114.698441,96718567759.455765,-96816123126.660233,20703195397.053116,1.822785,-1.823520,0.390060
1.060000,1.600000,0.273913,0.040000,118447015129.189880,97630268211.601700,-97717112227.728912,12022221301.709885,1.839902,-1.840556,0.226506
1.100000,1.600000,0.281794,0.040000,120766858488.516449,97034996306.367447,-97108892786.736343,3902721998.611200,1.828613,-1.829170,0.073530
1.140000,1.600000,0.294937,0.040000,122931558074.481628,95155723839.842133,-95215699966.642868,-3456729286.645634,1.793128,-1.793580,-0.065127
1.180000,1.600000,0.312678,0.040000,124944099672.994766,92232718567.680267,-92278850900.401306,-9927258054.070065,1.737979,-1.738326,-0.187035
1.220000,1.600000,0.334286,0.040000,126809139134.077667,88505387362.525818,-88538538197.027756,-15443310303.042250,1.667680,-1.667930,-0.290961
1.260000,1.600000,0.359064,0.040000,128532620513.292252,84198620960.973190,-84220171623.015945,-19992810377.379326,1.586473,-1.586635,-0.376676
1.300000,1.600000,0.386402,0.040000,130121417037.231735,79513717965.936737,-79525330974.350082,-23605748553.721054,1.498150,-1.498238,-0.444746
1.340000,1.600000,0.415796,0.040000,131583009457.158859,74623412080.720825,-74626839379.441559,-26342698884.153488,1.405968,-1.405994,-0.496312
1.380000,1.600000,0.443147,0.040000,132925209816.016449,69670223117.693405,-69667165604.765259,-28284302931.424816,1.312610,-1.312587,-0.532893
1.420000,1.600000,0.471506,0.040000,134155933344.168961,64767255443.745415,-64759270750.862938,-29522316866.263153,1.220208,-1.220147,-0.556218
1.460000,1.600000,0.500293,0.040000,135283017279.118134,60000613669.280373,-59989064552.866798,-30152462987.018051,1.130381,-1.130294,-0.568090
1.500000,1.600000,0.527818,0.040000,136314082805.484619,55432733227.241272,-55418767151.438148,-30269071205.171024,1.044306,-1.044201,-0.570287
1.540000,1.600000,0.556857,0.040000,137256434833.691498,51106083281.360641,-51090633968.103668,-29961336478.543468,0.962781,-0.962664,-0.564489
1.580000,1.600000,0.584557,0.040000,138116993726.146545,47046857901.384598,-47030660856.098808,-29310937021.084389,0.886299,-0.886176,-0.552235
1.620000,1.600000,0.612833,0.040000,138902253086.454407,43268409250.105446,-43252024976.601646,-28390733814.017246,0.815109,-0.814986,-0.534898
1.660000,1.600000,0.641610,0.040000,139618258130.406708,39774285931.297394,-39758126241.955406,-27264284262.479931,0.749279,-0.749157,-0.513675
1.700000,1.600000,0.669239,0.040000,140270599782.282135,36560819680.063896,-36545174024.555489,-25985935421.761627,0.688739,-0.688621,-0.489590
1.740000,1.600000,0.698068,0.040000,140864420357.899475,33619257842.563309,-33604317760.302444,-24601303243.317776,0.633322,-0.633209,-0.463503
1.780000,1.600000,0.725975,0.040000,141404427419.735413,30937472420.751358,-30923353130.148464,-23147986070.731133,0.582800,-0.582694,-0.436121
1.820000,1.600000,0.754199,0.040000,141894913065.337311,28501294368.306458,-28488053103.860527,-21656398742.043114,0.536906,-0.536806,-0.408019
1.860000,1.600000,0.782968,0.040000,142339776509.285126,26295528827.125980,-26283179946.126247,-20150646045.255501,0.495353,-0.495260,-0.379650
1.900000,1.600000,0.810663,0.040000,142742548329.430023,24304707106.308502,-24293234205.027870,-18649380372.722504,0.457850,-0.457763,-0.351365
1.940000,1.600000,0.839351,0.040000,143106415169.726318,22513627126.446503,-22502992530.919243,-17166608547.877518,0.424110,-0.424030,-0.323429
1.980000,1.600000,0.868934,0.040000,143434244030.954651,20907727970.264900,-20897879997.545876,-15712427720.744623,0.393858,-0.393784,-0.296031
2.020000,1.600000,0.899323,0.040000,143728605546.669556,19473337303.226151,-19464215686.413548,-14293680858.785606,0.366837,-0.366769,-0.269301
2.060000,1.600000,0.930440,0.040000,143991795845.704407,18197823699.113033,-18189363532.850536,-12914529600.098471,0.342810,-0.342746,-0.243317
2.100000,1.600000,0.962213,0.040000,144225856755.259644,17069679667.176136,-17061814191.429407,-11576946884.226837,0.321558,-0.321499,-0.218116
2.140000,1.600000,0.994581,0.040000,144432594209.960114,16078555696.369959,-16071218191.834967,-10281134511.202969,0.302888,-0.302833,-0.193703
2.180000,1.600000,1.027486,0.040000,144613594811.057648,15215260809.637850,-15208385842.302458,-9025872170.016376,0.286625,-0.286574,-0.170053
2.220000,1.600000,1.060878,0.040000,144770240533.905029,14471740836.099367,-14465264959.016867,-7808805043.433500,0.272619,-0.272571,-0.147122
2.260000,1.600000,1.094714,0.040000,144903721617.825287,13841040266.820499,-13834900584.030914,-6626677296.569262,0.260739,-0.260692,-0.124850
2.300000,1.600000,1.128953,0.040000,145015047699.546417,13317225569.325268,-13311330056.677874,-5475517650.849051,0.250871,-0.250826,-0.103162
2.340000,1.600000,1.163560,0.040000,145105057329.142487,12894929828.859936,-12888821677.948870,-4350758737.519135,0.242913,-0.242867,-0.081971
2.380000,1.600000,1.198502,0.040000,145174427067.733826,12571340037.684490,-12572753039.816397,-3247836560.568006,0.236859,-0.236870,-0.061191
2.420000,1.600000,1.233752,0.040000,145223697338.570221,12356725864.145094,-12424801485.907251,-2444257158.923838,0.233193,-0.233706,-0.046051
2.460000,1.600000,1.269283,0.040000,145253518607.762054,12117536310.630259,-12189580072.663145,-1978888858.482270,0.228709,-0.229252,-0.037283
-2.500000,1.640000,3.230727,0.040000,-40533029672.114380,706701486739.217285,24565081296253.753906,-1578747283236.111328,-129.525846,319.979861,-29.744514
-2.460000,1.640000,3.191467,0.040000,-81053981125.663727,2416193188327.709961,13270694453702.759766,-992228389761.163940,-43.142537,161.362560,-18.694158
-2.420000,1.640000,3.152225,0.040000,-81013318787.762756,-579866565051.492188,4184914002297.955078,-651837768939.280762,-31.301377,58.469851,-12.281001
-2.380000,1.640000,3.113003,0.040000,-80944763507.625443,-67713402795.476753,163054486025.118195,-4991364242.424684,-1.814644,2.533157,-0.094040
-2.340000,1.640000,3.073801,0.040000,-80848305172.500504,-17757094080.013676,17751818028.683372,-3859060629.720418,-0.334524,0.334484,-0.072707
-2.300000,1.640000,3.034620,0.040000,-80723425700.696548,-18202019494.970478,18196016326.313286,-4844730580.939178,-0.342903,0.342857,-0.091278
-2.260000,1.640000,2.995460,0.040000,-80569413754.975876,-18753130552.542149,18746872954.333122,-5846606102.722158,-0.353284,0.353237,-0.110153
-2.220000,1.640000,2.956323,0.040000,-80385387274.681625,-19413339317.311466,19406835007.356079,-6867067404.390774,-0.365722,0.365673,-0.129380
-2.180000,1.640000,2.917209,0.040000,-80170289556.428787,-20186835457.140743,20180046332.626389,-7907917377.650811,-0.380293,0.380242,-0.148990
-2.140000,1.640000,2.878120,0.040000,-79922882573.646942,-21078569126.808266,21071454418.571442,-8970229666.684040,-0.397092,0.397039,-0.169004
-2.100000,1.640000,2.839055,0.040000,-79641739057.598053,-22094203633.564903,22086723785.412655,-10054190643.556454,-0.416225,0.416169,-0.189427
-2.060000,1.640000,2.800018,0.040000,-79325233438.189941,-23240088719.200459,23232206664.524208,-11158903123.970789,-0.437812,0.437753,-0.210240
-2.020000,1.640000,2.761008,0.040000,-78971531688.255814,-24523216116.617016,24514898761.771481,-12282146764.699617,-0.461985,0.461922,-0.231403
-1.980000,1.640000,2.722026,0.040000,-78578580142.848129,-25951149549.926655,25942369762.697681,-13420092719.950676,-0.488885,0.488819,-0.252842
-1.940000,1.640000,2.683075,0.040000,-78144093406.469254,-27531919320.862625,27522658691.342674,-14566970492.462002,-0.518665,0.518595,-0.274450
-1.900000,1.640000,2.644155,0.040000,-77665541517.918381,-29273868940.616409,29264121425.017853,-15714685549.183443,-0.551482,0.551408,-0.296074
-1.860000,1.640000,2.605268,0.040000,-77140136619.654297,-31185437453.947533,31175214179.230911,-16852387818.678923,-0.587494,0.587417,-0.317509
-1.820000,1.640000,2.566415,0.040000,-76564819481.536591,-33274858312.673363,33264193656.542976,-17965994080.272648,-0.626857,0.626777,-0.338490
-1.780000,1.640000,2.527597,0.040000,-75936246362.885132,-35549751456.507607,35538710702.167480,-19037671772.786121,-0.669716,0.669632,-0.358681
-1.740000,1.640000,2.488817,0.040000,-75250776867.699188,-38016582536.994637,38005271166.869301,-20045298342.288410,-0.716191,0.716105,-0.377665
-1.700000,1.640000,2.450077,0.040000,-74504463660.996216,-40679959537.983246,40668534381.343781,-20961919275.327957,-0.766369,0.766283,-0.394935
-1.660000,1.640000,2.411377,0.040000,-73693045174.219666,-43541736319.450012,43530418389.513924,-21755239939.670200,-0.820288,0.820202,-0.409881
-1.620000,1.640000,2.372721,0.040000,-72811942736.865829,-46599892503.629478,46588981400.731316,-22387201538.450817,-0.877907,0.877825,-0.421788
-1.580000,1.640000,2.334110,0.040000,-71856263928.544250,-49847164917.861816,49837054047.632538,-22813710066.306820,-0.939092,0.939016,-0.429824
-1.540000,1.640000,2.295546,0.040000,-70820814342.676865,-53269415422.018349,53260607111.376740,-22984608671.294933,-1.003577,1.003510,-0.433043
-1.500000,1.640000,2.257032,0.040000,-69700120372.720459,-56843740246.861145,56836858861.979988,-22844007230.991093,-1.070930,1.070878,-0.430394
-1.460000,1.640000,2.218572,0.040000,-68488466043.239159,-60536354835.979759,60532155585.114822,-22331105815.368519,-1.140516,1.140485,-0.420731
-1.420000,1.640000,2.180166,0.040000,-67179947262.999962,-64300333431.203438,64299703233.597374,-21381667217.038074,-1.211452,1.211447,-0.402843
-1.380000,1.640000,2.141819,0.040000,-65768547105.067955,-68073340410.262070,68077286738.072441,-19930301797.252911,-1.282564,1.282593,-0.375498
-1.340000,1.640000,2.103533,0.040000,-64248235724.932518,-71775566702.885712,71785189118.878723,-17913717456.143391,-1.352348,1.352420,-0.337505
-1.300000,1.640000,2.065312,0.040000,-62613098192.642166,-75308169452.392700,75324608830.534271,-15275048244.241985,-1.418942,1.419066,-0.287791
-1.260000,1.640000,2.027160,0.040000,-60857492701.119949,-78552604961.102737,78576965487.488495,-11969295964.482536,-1.480114,1.480298,-0.225508
-1.220000,1.640000,1.989081,0.040000,-58976240177.459076,-81371320817.347595,81404562435.575912,-7969790011.307935,-1.533271,1.533521,-0.150155
-1.180000,1.640000,1.951079,0.040000,-56964844144.671898,-83610317848.657104,83653119957.951508,-3275386879.450276,-1.575509,1.575831,-0.061710
-1.140000,1.640000,1.913157,0.040000,-54819736692.392792,-85104067217.721756,85156670812.529480,2082102748.277587,-1.603707,1.604104,0.039228
-1.100000,1.640000,1.875323,0.040000,-52538542656.415367,-85683148499.295334,85745190686.343903,8031033434.930171,-1.614671,1.615138,0.151309
-1.060000,1.640000,1.837580,0.040000,-50120349776.053528,-85184722561.262833,85255086307.799133,14454614057.040123,-1.605327,1.605858,0.272333
-1.020000,1.640000,1.799934,0.040000,-47565968095.545517,-83465567490.633728,83542275781.258957,21188362420.438618,-1.572973,1.573551,0.399201
-0.980000,1.640000,1.762392,0.040000,-44878157820.437431,-80416895553.567505,80497083385.701675,28021540218.666077,-1.515554,1.516158,0.527942
-0.940000,1.640000,1.724961,0.040000,-42061802038.610031,-75979609681.761581,76059603447.213745,34703571672.503799,-1.431952,1.432555,0.653835
-0.900000,1.640000,1.687648,0.040000,-39124000058.418938,-70158147737.604507,70233670886.281067,40955959106.156990,-1.322247,1.322816,0.771634
-0.860000,1.640000,1.650460,0.040000,-36074059402.133057,-63030759406.544197,63097262164.660561,46489449610.158821,-1.187912,1.188413,0.875888
-0.820000,1.640000,1.613407,0.040000,-32923370199.029774,-54754096067.124306,54807181916.149071,51025270619.997643,-1.031899,1.032299,0.961346
-0.780000,1.640000,1.576498,0.040000,-29685154778.396000,-45560479507.527000,45596374051.990791,54318314710.375221,-0.858589,0.858859,1.023389
-0.740000,1.640000,1.539744,0.040000,-26374096896.854305,-35747134708.138260,35763125114.292313,56179446413.245232,-0.673587,0.673708,1.058453
-0.700000,1.640000,1.503155,0.040000,-23005867781.722435,-25657909667.317356,25652677885.266762,56493850648.316246,-0.483380,0.483341,1.064377
-0.660000,1.640000,1.466744,0.040000,-19596578079.748524,-15659298254.559887,15633086501.979895,55232683583.256836,-0.294882,0.294685,1.040616
-0.620000,1.640000,1.430525,0.040000,-16162193820.940050,-6113640348.758338,6068216466.839974,52456214298.311134,-0.114928,0.114585,0.988305
-0.580000,1.640000,1.394513,0.040000,-12717958977.267508,2647090510.403892,-2708660215.044975,48307984378.875046,0.050221,-0.050685,0.910150
-0.540000,1.640000,1.358724,0.040000,-9277866265.006359,10343616925.433043,-10417343979.129322,43000961290.999542,0.195296,-0.195852,0.810163
-0.500000,1.640000,1.323176,0.040000,-5854211695.052480,16765260197.656748,-16846689749.808157,36797884439.546791,0.316327,-0.316941,0.693293
-0.460000,1.640000,1.287889,0.040000,-2457258194.153097,21778040386.874050,-21862710288.597118,29988736116.080841,0.410789,-0.411428,0.565005
-0.420000,1.640000,1.252886,0.040000,904978746.944182,25324910764.784889,-25408745876.372952,22868397777.139824,0.477610,-0.478242,0.430854
-0.380000,1.640000,1.218190,0.040000,4226822927.627940,27419211466.011269,-27498807707.857895,15717124902.511389,0.517044,-0.517644,0.296120
-0.340000,1.640000,1.183829,0.040000,7504917101.363453,28133222750.022938,-28206000723.999680,8785662627.336321,0.530458,-0.531006,0.165527
-0.300000,1.640000,1.149832,0.040000,10738108569.479225,27584035924.503094,-27648270301.478283,2285852680.450793,0.520062,-0.520546,0.043067
-0.260000,1.640000,1.116234,0.040000,13927263122.821005,25918878611.211918,-25973626870.607063,-3613335069.163659,0.488636,-0.489049,-0.068077
-0.220000,1.640000,1.083071,0.040000,17075030660.010887,23301622157.578049,-23346586092.930977,-8785109807.026176,0.439270,-0.439609,-0.165517
-0.180000,1.640000,1.050384,0.040000,20185583967.484940,19901646324.964817,-19936997427.110672,-13140664052.019434,0.375158,-0.375425,-0.247578
-0.140000,1.640000,1.018219,0.040000,23264348424.468861,15885687806.735106,-15911882750.362982,-16622754643.283293,0.299444,-0.299641,-0.313182
-0.100000,1.640000,0.986628,0.040000,26317735658.551662,11412861091.781017,-11430467011.101152,-19198293235.809513,0.215124,-0.215257,-0.361707
-0.060000,1.640000,0.955666,0.040000,29352889133.421917,6632685583.522034,-6642232556.001469,-20851055005.187740,0.125018,-0.125090,-0.392846
-0.020000,1.640000,0.925398,0.040000,32377444864.413506,1685665432.392354,-1687537285.424114,-21575425994.516518,0.031769,-0.031784,-0.406494
0.020000,1.640000,0.895894,0.040000,35399306393.688805,-3294242718.768850,3299874955.760368,-21371844404.943573,-0.062097,0.062140,-0.402658
0.060000,1.640000,0.867231,0.040000,38426430140.700363,-8176004480.174718,8189209186.123041,-20244304982.458042,-0.154115,0.154215,-0.381414
0.100000,1.640000,0.839496,0.040000,41466615389.074524,-12827425864.502987,12848497873.507750,-18200090140.148235,-0.241795,0.241954,-0.342900
0.140000,1.640000,0.810760,0.040000,44527292436.738152,-17111294928.646376,17140699775.804726,-15251782676.187946,-0.322553,0.322775,-0.287352
0.180000,1.640000,0.782531,0.040000,47615302801.858002,-20882496804.712833,20920767511.519230,-11421492710.209946,-0.393655,0.393943,-0.215188
0.220000,1.640000,0.754595,0.040000,50736666939.982727,-23986914963.681263,24034504778.375473,-6746993326.138439,-0.452196,0.452555,-0.127117
0.260000,1.640000,0.725808,0.040000,53896337782.537529,-26262881555.020870,26319983455.205158,-1289135797.740946,-0.495131,0.495561,-0.024288
0.300000,1.640000,0.698126,0.040000,57097942465.240776,-27545733639.203281,27612084142.878048,4860386431.631999,-0.519353,0.519853,0.091572
0.340000,1.640000,0.669388,0.040000,60343519560.208687,-27675742207.401955,27750430237.511478,11572084527.952753,-0.521849,0.522412,0.218025
0.380000,1.640000,0.641111,0.040000,63633264488.779236,-26509307583.669437,26590617195.774185,18673861934.903019,-0.499910,0.500523,0.351826
0.420000,1.640000,0.613356,0.040000,66965300977.756065,-23932832064.410561,24018154155.379414,25949761835.789581,-0.451391,0.452034,0.488909
0.460000,1.640000,0.584386,0.040000,70335500649.643616,-19878063519.340538,19963914431.894188,33143590608.447922,-0.374999,0.375646,0.624444
0.500000,1.640000,0.556785,0.040000,73737375136.340637,-14337074592.294876,14419248957.217354,39968320062.430519,-0.270583,0.271203,0.753026
0.540000,1.640000,0.528047,0.040000,77162064479.455902,-7374569818.210439,7448435814.026855,46121418298.729179,-0.139359,0.139915,0.868954
0.580000,1.640000,0.499695,0.040000,80598441295.913071,864901598.524184,-803985187.538507,51305257414.756386,0.015951,-0.015492,0.966621
0.620000,1.640000,0.472231,0.040000,84033342065.343979,10156903903.725845,-10113097438.370098,55250678003.801575,0.191114,-0.190784,1.040955
0.660000,1.640000,0.442970,0.040000,87451925497.978653,20205471232.761177,-20181964330.410992,57740890479.600288,0.380550,-0.380373,1.087872
0.700000,1.640000,0.415503,0.040000,90838144612.447235,30659848145.089470,-30658453208.932976,58632407334.538956,0.577641,-0.577631,1.104669
0.740000,1.640000,0.390209,0.040000,94175305865.695541,41138171359.734428,-41159076760.513832,57869819516.319855,0.775185,-0.775343,1.090301
0.780000,1.640000,0.367537,0.040000,97446677683.412827,51255368461.155411,-51297099323.475082,55492012294.799263,0.965917,-0.966231,1.045502
0.820000,1.640000,0.347999,0.040000,100636104066.721024,60651721437.036522,-60711316935.463554,51628737855.922218,1.143050,-1.143500,0.972715
0.860000,1.640000,0.332150,0.040000,103728577898.103806,69018405688.348129,-69091778167.755341,46488035644.437019,1.300761,-1.301314,0.875862
0.900000,1.640000,0.320537,0.040000,106710733359.048477,76116890063.713989,-76199299284.060272,40336449772.924881,1.434552,-1.435173,0.759962
0.940000,1.640000,0.313631,0.040000,109571226591.701538,81790229388.669800,-81876788531.404541,33475005253.679199,1.541465,-1.542117,0.630689
0.980000,1.640000,0.311745,0.040000,112300986585.848618,85965685778.089951,-86051821078.018509,26214278791.743984,1.620130,-1.620779,0.493892
1.020000,1.640000,0.311745,0.040000,114893332026.812454,88649460215.626495,-88731265180.192871,18851625624.384583,1.670670,-1.671286,0.355176
1.060000,1.640000,0.313631,0.040000,117343962376.700882,89915315303.609711,-89989769893.098984,11652854036.200140,1.694477,-1.695039,0.219547
1.100000,1.640000,0.320537,0.040000,119650841188.746109,89889395795.580917,-89954448378.968628,4839618490.308007,1.693936,-1.694426,0.091181
1.140000,1.640000,0.332150,0.040000,121813995736.385223,88733589345.483139,-88788122156.485901,-1417216651.862628,1.672100,-1.672511,-0.026701
1.180000,1.640000,0.347999,0.040000,123835259403.332092,86629435695.033951,-86673146196.443024,-6998815890.218411,1.632396,-1.632725,-0.131862
1.220000,1.640000,0.367537,0.040000,125717982453.650864,83764034192.578842,-83797268826.936081,-11835317888.536213,1.578351,-1.578601,-0.222984
1.260000,1.640000,0.390209,0.040000,127466733656.534393,80318787753.307571,-80342359955.211090,-15899818094.670086,1.513386,-1.513563,-0.299562
1.300000,1.640000,0.415503,0.040000,129087010751.772964,76461265157.179474,-76476282447.615555,-19200694942.125290,1.440659,-1.440773,-0.361752
1.340000,1.640000,0.442970,0.040000,130584972788.495193,72340043698.599976,-72347758997.964294,-21773393890.193382,1.362972,-1.363030,-0.410223
1.380000,1.640000,0.472231,0.040000,131967202625.657516,68082121500.454086,-68083816321.070602,-23672509132.454037,1.282716,-1.282729,-0.446004
1.420000,1.640000,0.499695,0.040000,133240503781.687134,63792360504.377525,-63789260801.559776,-24964715048.132637,1.201868,-1.201844,-0.470350
1.460000,1.640000,0.528047,0.040000,134411732574.256424,59554396360.367729,-59547618310.030556,-25722843664.761429,1.122001,-1.121950,-0.484633
1.500000,1.640000,0.556785,0.040000,135487664138.983170,55432502365.579193,-55423022638.777580,-26021203584.447014,1.044327,-1.044255,-0.490255
1.540000,1.640000,0.584386,0.040000,136474889382.391220,51473979785.666840,-51462624711.774895,-25932095306.960442,0.969735,-0.969650,-0.488576
1.580000,1.640000,0.613356,0.040000,137379739072.818054,47711748571.585808,-47699196394.826370,-25523392253.545979,0.898846,-0.898751,-0.480876
1.620000,1.640000,0.641111,0.040000,138208230944.546448,44166906627.315033,-44153698303.905342,-24857014921.235699,0.832055,-0.831956,-0.468321
1.660000,1.640000,0.669388,0.040000,138966035732.980499,40851109696.211357,-40837664285.124771,-23988115291.833778,0.769583,-0.769481,-0.451950
1.700000,1.640000,0.698126,0.040000,139658458340.536652,37768687761.738777,-37755319835.927032,-22964798502.295147,0.711508,-0.711408,-0.432670
1.740000,1.640000,0.725808,0.040000,140290430749.804901,34918463265.606667,-34905400300.190201,-21828229964.853256,0.657810,-0.657712,-0.411257
1.780000,1.640000,0.754595,0.040000,140866513775.219513,32295268215.335953,-32282666931.284279,-20613001938.950729,0.608390,-0.608295,-0.388361
1.820000,1.640000,0.782531,0.040000,141390905224.033966,29891179095.365849,-29879139977.017441,-19347659809.272026,0.563099,-0.563008,-0.364521
1.860000,1.640000,0.810760,0.040000,141867452488.290619,27696498987.932457,-27685078827.946590,-18055312374.623829,0.521754,-0.521667,-0.340173
1.900000,1.640000,0.839496,0.040000,142299667993.178345,25700522189.055603,-25689744524.353603,-16754271161.319799,0.484152,-0.484071,-0.315660
1.940000,1.640000,0.867231,0.040000,142690746275.426392,23892116391.141895,-23881980054.873135,-15458680663.364927,0.450084,-0.450008,-0.291251
1.980000,1.640000,0.895894,0.040000,143043581757.187988,22260156254.497211,-22250642153.287327,-14179114696.050549,0.419340,-0.419269,-0.267143
2.020000,1.640000,0.925398,0.040000,143360786519.195190,20793838060.934246,-20784914497.783218,-12923124047.441410,0.391718,-0.391650,-0.243479
2.060000,1.640000,0.955666,0.040000,143644707567.355804,19482901766.882168,-19474528467.399986,-11695727897.531406,0.367022,-0.366959,-0.220354
2.100000,1.640000,0.986628,0.040000,143897443235.693665,18317782108.193790,-18309913245.281685,-10499846478.760979,0.345073,-0.345014,-0.197823
2.140000,1.640000,1.018219,0.040000,144120858482.197906,17289707052.039284,-17282293413.071846,-9336675682.448275,0.325706,-0.325650,-0.175908
2.180000,1.640000,1.050384,0.040000,144316598918.886078,16390757759.255037,-16383748325.570784,-8206006109.395440,0.308772,-0.308719,-0.154606
2.220000,1.640000,1.083071,0.040000,144486103479.117889,15613901189.753969,-15607244406.221069,-7106489878.284207,0.294137,-0.294087,-0.133890
2.260000,1.640000,1.116234,0.040000,144630615669.429382,14953004003.088882,-14946650970.718481,-6035858958.900414,0.281687,-0.281639,-0.113719
2.300000,1.640000,1.149832,0.040000,144751193382.757507,14402859434.153551,-14396797529.030817,-4991101344.359524,0.271324,-0.271278,-0.094035
2.340000,1.640000,1.183829,0.040000,144848717212.305481,13959577973.117449,-13954155989.246117,-3968628494.614933,0.262976,-0.262935,-0.074771
2.380000,1.640000,1.218190,0.040000,144923896100.194122,13622246070.113964,-13615334006.348343,-2965450705.190266,0.256612,-0.256560,-0.055871
2.420000,1.640000,1.252886,0.040000,144977251931.175476,13404289247.185242,-13438435337.039579,-2231254821.893415,0.252738,-0.252995,-0.042038
2.460000,1.640000,1.287889,0.040000,145008876757.331726,13364060895.626335,-13522063220.405863,-1806878191.116331,0.252680,-0.253870,-0.034043
-2.500000,1.680000,3.238576,0.040000,-80671786815.262085,18432219236906.753906,11624297097480.533203,6195858669168.987305,177.389038,49.123838,116.733569
-2.460000,1.680000,3.199412,0.040000,-80781982327.892746,4544479563277.143555,14112719346909.644531,3600610181675.552246,-19.833104,160.438081,67.837583
-2.420000,1.680000,3.160270,0.040000,-80738186702.766281,-88639349616.286606,4584334494027.360352,1169551478144.827393,-27.080468,60.961069,22.035028
-2.380000,1.680000,3.121149,0.040000,-80665907761.351685,-22031690113.408241,33139546048.064800,-512972271.283218,-0.477873,0.561585,-0.009665
-2.340000,1.680000,3.082050,0.040000,-80564327316.938004,-18682308001.163345,18675544425.642410,-3458913785.959544,-0.351947,0.351896,-0.065168
-2.300000,1.680000,3.042975,0.040000,-80432846788.724243,-19142174530.004734,19135921685.703533,-4339345505.227421,-0.360614,0.360567,-0.081756
-2.260000,1.680000,3.003924,0.040000,-80270729386.747009,-19709176576.095573,19702808145.765949,-5232980236.905628,-0.371296,0.371248,-0.098592
-2.220000,1.680000,2.964899,0.040000,-80077067621.575974,-20386962423.792019,20380392415.879574,-6141621821.107180,-0.384065,0.384016,-0.115712
-2.180000,1.680000,2.925899,0.040000,-79850776723.211960,-21179150566.403843,21172341596.602009,-7066421003.239364,-0.398989,0.398938,-0.133135
-2.140000,1.680000,2.886928,0.040000,-79590588827.045303,-22089902686.506229,22082823050.593948,-8007809081.410561,-0.416147,0.416093,-0.150872
-2.100000,1.680000,2.847985,0.040000,-79295046318.712112,-23123921511.328796,23116543622.454865,-8965365305.066048,-0.435626,0.435571,-0.168913
-2.060000,1.680000,2.809071,0.040000,-78962494315.036942,-24286388956.808918,24278689985.432648,-9937640007.081305,-0.457526,0.457468,-0.187231
-2.020000,1.680000,2.770188,0.040000,-78591072380.889297,-25582879114.006577,25574842790.119663,-10921937570.787056,-0.481951,0.481890,-0.205776
-1.980000,1.680000,2.731338,0.040000,-78178705619.923904,-27019247437.370396,27010865712.998039,-11914061486.155788,-0.509011,0.508948,-0.224468
-1.940000,1.680000,2.692521,0.040000,-77723095319.249512,-28601481557.180908,28592757724.277695,-12908022492.466003,-0.538819,0.538753,-0.243195
-1.900000,1.680000,2.653740,0.040000,-77221709385.661697,-30335507593.076412,30326459354.406170,-13895711209.131424,-0.571487,0.571419,-0.261803
-1.860000,1.680000,2.614995,0.040000,-76671772886.850830,-32226931847.103374,32217596220.769444,-14866537847.690540,-0.607121,0.607051,-0.280094
-1.820000,1.680000,2.576289,0.040000,-76070259109.726761,-34280708970.383949,34271147192.020733,-15807044871.136414,-0.645814,0.645742,-0.297814
-1.780000,1.680000,2.537622,0.040000,-75413881671.105148,-36500711481.722290,36491016120.198692,-16700502538.251980,-0.687640,0.687567,-0.314647
-1.740000,1.680000,2.498998,0.040000,-74699088368.147018,-38889189863.872635,38879491851.633125,-17526503806.422054,-0.732640,0.732567,-0.330209
-1.700000,1.680000,2.460418,0.040000,-73922057637.447433,-41446094618.838997,41436572704.654129,-18260582627.479919,-0.780815,0.780743,-0.344040
-1.660000,1.680000,2.421883,0.040000,-73078698705.464706,-44168251567.297943,44159141199.321251,-18873890205.561363,-0.832104,0.832035,-0.355595
-1.620000,1.680000,2.383397,0.040000,-72164656755.138351,-47048364467.027374,47039968766.656464,-19332975385.636551,-0.886371,0.886308,-0.364244
-1.580000,1.680000,2.344962,0.040000,-71175324700.855499,-50073848736.338104,50066547531.081596,-19599729843.442532,-0.943379,0.943324,-0.369270
-1.540000,1.680000,2.306580,0.040000,-70105863442.222534,-53225487630.844833,53219747113.891945,-19631573210.214664,-1.002767,1.002723,-0.369870
-1.500000,1.680000,2.268254,0.040000,-68951232739.593292,-56475947855.934937,56472325371.885185,-19381968731.533916,-1.064019,1.063992,-0.365168
-1.460000,1.680000,2.229986,0.040000,-67706235087.673325,-59788189373.615738,59787335551.366226,-18801371696.465530,-1.126439,1.126433,-0.354229
-1.420000,1.680000,2.191781,0.040000,-66365575117.915794,-63113871924.978691,63116522877.948143,-17838720020.707489,-1.189117,1.189137,-0.336092
-1.380000,1.680000,2.153640,0.040000,-64923937074.428070,-66391871960.275925,66398833507.769272,-16443571484.478033,-1.250901,1.250953,-0.309806
-1.340000,1.680000,2.115569,0.040000,-63376082713.052444,-69547113795.333405,69559228975.957504,-14568972454.753258,-1.310376,1.310468,-0.274488
-1.300000,1.680000,2.077570,0.040000,-61716971480.409363,-72489935335.358627,72508038000.467346,-12175098743.866507,-1.365855,1.365991,-0.229386
-1.260000,1.680000,2.039647,0.040000,-59941903953.836784,-75116303546.398560,75141149637.184967,-9233637789.575798,-1.415375,1.415562,-0.173967
-1.220000,1.680000,2.001805,0.040000,-58046688177.603012,-77309183796.829529,77341366808.257507,-5732775092.421291,-1.456732,1.456974,-0.108009
-1.180000,1.680000,1.964049,0.040000,-56027826665.970879,-78941418417.191833,78981264662.062439,-1682511169.489861,-1.487527,1.487828,-0.031699
-1.140000,1.680000,1.926383,0.040000,-53882719452.911324,-79880366582.834015,79927824816.476425,2880127044.306031,-1.505261,1.505618,0.054263
-1.100000,1.680000,1.888813,0.040000,-51609875739.768188,-79994492524.647339,80049021558.265045,7886581354.519423,-1.507451,1.507862,0.148588
-1.060000,1.680000,1.851345,0.040000,-49209123614.874672,-79161825360.137695,79222304815.763947,13233705079.579819,-1.491797,1.492252,0.249331
-1.020000,1.680000,1.813985,0.040000,-46681804325.957817,-77279991912.202606,77344667051.890198,18782963629.889576,-1.456365,1.456853,0.353882
-0.980000,1.680000,1.776741,0.040000,-44030935124.353516,-74277114250.046494,74343605092.086487,24362658666.425320,-1.399800,1.400301,0.459007
-0.940000,1.680000,1.739618,0.040000,-41261323321.303001,-70122582431.520355,70187964051.552246,29773740049.929447,-1.321520,1.322012,0.560955
-0.900000,1.680000,1.702626,0.040000,-38379614449.046509,-64836353431.790703,64897326025.543266,34799397899.476311,-1.221899,1.222359,0.655641
-0.860000,1.680000,1.665773,0.040000,-35394259760.772758,-58495371280.554794,58548503542.832397,39218102424.459183,-1.102387,1.102787,0.738892
-0.820000,1.680000,1.629068,0.040000,-32315392931.015137,-51235722671.590233,51277758142.753281,42819154904.877037,-0.965548,0.965865,0.806738
-0.780000,1.680000,1.592522,0.040000,-29154612577.439472,-43249600923.901947,43277778577.030174,45419239862.110641,-0.815007,0.815219,0.855725
-0.740000,1.680000,1.556146,0.040000,-25924675508.142120,-34776698400.695221,34789052720.417397,46878067134.849106,-0.655283,0.655376,0.883210
-0.700000,1.680000,1.519952,0.040000,-22639114409.300304,-26090536934.639011,26086117168.515640,47111085239.660835,-0.491536,0.491503,0.887600
-0.660000,1.680000,1.483954,0.040000,-19311801749.461376,-17480969050.875992,17459952258.207130,46097507374.719864,-0.329233,0.329074,0.868504
-0.620000,1.680000,1.448165,0.040000,-15956487711.087002,-9234825782.296844,9198491227.792765,43882500426.734650,-0.173784,0.173510,0.826772
-0.580000,1.680000,1.412603,0.040000,-12586342932.092150,-1616920410.332077,1567502909.423398,40573238756.808090,-0.030184,0.029812,0.764423
-0.540000,1.680000,1.377284,0.040000,-9213536240.611103,5146357795.163028,-5205922279.339184,36329439257.924171,0.097297,-0.097746,0.684468
-0.500000,1.680000,1.342227,0.040000,-5848873499.608056,10879181064.014580,-10945561061.152790,31349778122.872887,0.205345,-0.205846,0.590648
-0.460000,1.680000,1.307455,0.040000,-2501516874.716674,15463101104.431519,-15532891607.391825,25856084276.612072,0.291728,-0.292254,0.487144
-0.420000,1.680000,1.272990,0.040000,821204561.259918,18838429558.919346,-18908431796.848495,20077333726.373249,0.355323,-0.355850,0.378269
-0.380000,1.680000,1.238857,0.040000,4113890645.045082,21000722125.996117,-21068162734.185936,14235248368.660137,0.396047,-0.396555,0.268200
-0.340000,1.680000,1.205085,0.040000,7373077865.353235,21993567845.724220,-22056226817.532593,8532823547.538836,0.414726,-0.415198,0.160763
-0.300000,1.680000,1.171706,0.040000,10597170461.140028,21899068147.231083,-21955329217.507397,3146501100.704775,0.412909,-0.413333,0.059282
-0.260000,1.680000,1.138753,0.040000,13786309962.184778,20827508513.073856,-20876329720.234657,-1777897752.460823,0.392678,-0.393046,-0.033497
-0.220000,1.680000,1.106265,0.040000,16942199607.049528,18907422565.947491,-18948260315.485924,-6125856777.722866,0.356458,-0.356765,-0.115415
-0.180000,1.680000,1.074284,0.040000,20067899435.385391,16277028139.857161,-16309721404.807064,-9812167442.130892,0.306853,-0.307100,-0.184867
-0.140000,1.680000,1.042857,0.040000,23167605726.701683,13077554342.457232,-13102202416.336662,-12777106893.307348,0.246528,-0.246714,-0.240728
-0.100000,1.680000,1.012035,0.040000,26246425422.031567,9448752067.604361,-9465587946.366844,-14981674077.956842,0.178115,-0.178242,-0.282263
-0.060000,1.680000,0.981875,0.040000,29310152734.734905,5526495716.891886,-5535782427.574167,-16402704823.594788,0.104175,-0.104245,-0.309036
-0.020000,1.680000,0.952440,0.040000,32365051791.876881,1442259673.906828,-1444204590.609111,-17028561023.452465,0.027184,-0.027199,-0.320828
0.020000,1.680000,0.923800,0.040000,35417646201.143188,-2676011990.281878,2681305769.657916,-16855917177.427528,-0.050448,0.050487,-0.317575
0.060000,1.680000,0.896030,0.040000,38474514177.856865,-6702108065.246914,6714665798.813934,-15887981568.997498,-0.126343,0.126437,-0.299339
0.100000,1.680000,0.867322,0.040000,41542086423.338966,-10509423976.023653,10529383857.776194,-14134324877.524132,-0.198116,0.198267,-0.266299
0.140000,1.680000,0.839089,0.040000,44626443382.092773,-13969016615.803804,13996588053.441057,-11612350627.008955,-0.263340,0.263548,-0.218783
0.180000,1.680000,0.811129,0.040000,47733108835.384293,-16948469330.875431,16983851053.777082,-8350296218.301624,-0.319519,0.319786,-0.157324
0.220000,1.680000,0.782376,0.040000,50866838045.973892,-19312085686.390205,19355361996.097073,-4391469737.059830,-0.364095,0.364422,-0.082738
0.260000,1.680000,0.754649,0.040000,54031400827.169495,-20922959859.263210,20973969829.896156,200783590.713692,-0.394489,0.394873,0.003783
0.300000,1.680000,0.725945,0.040000,57229362859.143028,-21647210131.432117,21705417412.877300,5338091284.230808,-0.408175,0.408614,0.100573
0.340000,1.680000,0.697666,0.040000,60461872054.833275,-21360532082.709187,21424898403.881264,10902901000.997843,-0.402809,0.403294,0.205417
0.380000,1.680000,0.669867,0.040000,63728460424.380585,-19956825384.436859,20025723049.524113,16746117536.114740,-0.376388,0.376907,0.315507
0.420000,1.680000,0.640955,0.040000,67026875212.108383,-17358389485.493679,17429562035.232998,22687477542.977463,-0.327444,0.327981,0.427445
0.460000,1.680000,0.613290,0.040000,70352955516.115372,-13526679379.755342,13597286450.758986,28519460634.691151,-0.255250,0.255782,0.537323
0.500000,1.680000,0.584594,0.040000,73700571502.810364,-8472346449.390672,8539092762.634994,34015195968.617508,-0.160001,0.160504,0.640866
0.540000,1.680000,0.556247,0.040000,77061642124.897522,-2262949413.635420,2322312569.607956,38940294083.973511,-0.042971,0.043418,0.733658
0.580000,1.680000,0.528694,0.040000,80426243561.788773,4973178639.971166,-4924652679.057536,43067877017.900925,0.093423,-0.093058,0.811424
0.620000,1.680000,0.499538,0.040000,83782814438.275238,13048228814.715097,-13013583161.483562,46195411645.312935,0.245640,-0.245379,0.870348
0.660000,1.680000,0.471973,0.040000,87118455702.963959,21722004793.127209,-21703544034.916031,48161418382.029381,0.409151,-0.409012,0.907389
0.700000,1.680000,0.446294,0.040000,90419313818.449570,30714705213.626114,-30713721994.574154,48859873483.558289,0.578677,-0.578670,0.920548
0.740000,1.680000,0.422846,0.040000,93671026922.332947,39724299270.565941,-39740915506.811501,48250250260.813171,0.748523,-0.748648,0.909063
0.780000,1.680000,0.402019,0.040000,96859206302.042328,48446698240.783699,-48479837103.660667,46361671432.795456,0.912951,-0.913201,0.873481
0.820000,1.680000,0.384239,0.040000,99969921134.228439,56596324095.980179,-56643831069.017456,43290490428.884140,1.066576,-1.066934,0.815618
0.860000,1.680000,0.369946,0.040000,102990153775.606644,63924686892.891762,-63983566216.652885,39191611134.130859,1.204711,-1.205155,0.738393
0.900000,1.680000,0.359556,0.040000,105908196082.402161,70234839823.333878,-70301577714.946899,34264781223.877361,1.323642,-1.324145,0.645568
0.940000,1.680000,0.353413,0.040000,108713963734.609848,75390375568.098022,-75461286006.228729,28737757638.090801,1.420799,-1.421334,0.541436
0.980000,1.680000,0.351740,0.040000,111399214230.954285,79318420672.134705,-79389974813.545593,22848526689.998432,1.494809,-1.495349,0.430479
1.020000,1.680000,0.351740,0.040000,113957663714.303528,82007041256.444122,-82076128803.868103,16828645265.670364,1.545451,-1.545971,0.317061
1.060000,1.680000,0.353413,0.040000,116385006700.420929,83498075845.357361,-83562186017.133621,10889333144.039444,1.573515,-1.573998,0.205161
1.100000,1.680000,0.359556,0.040000,118678850033.552612,83876899045.736237,-83934204597.207825,5211322768.649887,1.580613,-1.581045,0.098184
1.140000,1.680000,0.369946,0.040000,120838577323.296295,83260646916.188110,-83310010410.638901,-61184370.925906,1.568958,-1.569330,-0.001153
1.180000,1.680000,0.384239,0.040000,122865162563.706619,81786362664.000153,-81827273795.751907,-4822675408.436546,1.541134,-1.541442,-0.090862
1.220000,1.680000,0.402019,0.040000,124760951817.563919,79600136036.418716,-79632611868.833878,-9005221394.907530,1.499896,-1.500141,-0.169664
1.260000,1.680000,0.422846,0.040000,126529430267.290176,76847993572.710480,-76872454747.966049,-12574950605.366089,1.447999,-1.448183,-0.236919
1.300000,1.680000,0.446294,0.040000,128174989189.527451,73668858092.296539,-73686007324.073578,-15526985790.528757,1.388061,-1.388190,-0.292537
1.340000,1.680000,0.471973,0.040000,129702704104.103271,70189646318.423660,-70200354112.813843,-17879653134.517159,1.322474,-1.322555,-0.336863
1.380000,1.680000,0.499538,0.040000,131118131967.751877,66522294828.775414,-66527507198.851585,-19668615757.176388,1.253348,-1.253387,-0.370568
1.420000,1.680000,0.528694,0.040000,132427132188.969009,62762427628.406853,-62763091899.680206,-20941402979.524815,1.182484,-1.182489,-0.394548
1.460000,1.680000,0.556247,0.040000,133635713637.070862,58989275069.055733,-58986289813.680305,-21752628555.554810,1.111375,-1.111353,-0.409832
1.500000,1.680000,0.584594,0.040000,134749907798.516739,55266504560.748161,-55260685317.629829,-22160041466.458939,1.041220,-1.041176,-0.417508
1.540000,1.680000,0.613290,0.040000,135775666787.361237,51643619822.930504,-51635682689.139030,-22221437084.037632,0.972951,-0.972891,-0.418665
1.580000,1.680000,0.640955,0.040000,136718783986.885895,48157683894.527863,-48148238233.567169,-21992378867.646149,0.907265,-0.907194,-0.414349
1.620000,1.680000,0.669867,0.040000,137584834589.856110,44835146419.727539,-44824697974.719376,-21524633275.153797,0.844661,-0.844582,-0.405537
1.660000,1.680000,0.697666,0.040000,138379133120.024231,41693649055.752808,-41682606247.994293,-20865199787.190022,0.785470,-0.785387,-0.393112
1.700000,1.680000,0.725945,0.040000,139106705059.935425,38743701179.864792,-38732386278.420715,-20055813488.273956,0.729890,-0.729805,-0.377863
1.740000,1.680000,0.754649,0.040000,139772269903.294312,35990187075.479065,-35978846906.050888,-19132806132.860165,0.678012,-0.677926,-0.360473
1.780000,1.680000,0.782376,0.040000,140380233227.152344,33433668517.557167,-33422486871.091587,-18127225089.689892,0.629846,-0.629762,-0.341527
1.820000,1.680000,0.811129,0.040000,140934685695.644684,31071491770.161789,-31060599718.531761,-17065126954.451168,0.585343,-0.585261,-0.321517
1.860000,1.680000,0.839089,0.040000,141439407227.112305,28898698818.569057,-28888185281.841347,-15967978966.862400,0.544409,-0.544330,-0.300846
1.900000,1.680000,0.867322,0.040000,141897874861.429871,26908770743.194599,-26898690587.374550,-14853117510.666670,0.506920,-0.506844,-0.279841
1.940000,1.680000,0.896030,0.040000,142313273139.511383,25094216124.382454,-25084598037.247704,-13734225996.052172,0.472735,-0.472663,-0.258761
1.980000,1.680000,0.923800,0.040000,142688506048.586975,23447035182.709427,-23437887300.134987,-12621806066.426430,0.441704,-0.441635,-0.237802
2.020000,1.680000,0.952440,0.040000,143026209791.420105,21959074139.666935,-21950389415.784573,-11523624533.457981,0.413673,-0.413607,-0.217112
2.060000,1.680000,0.981875,0.040000,143328765808.286194,20622296475.206116,-20614056213.326595,-10445125620.917444,0.388489,-0.388427,-0.196792
2.100000,1.680000,1.012035,0.040000,143598313618.367554,19428982872.320293,-19421160101.960407,-9389802687.490896,0.366009,-0.365950,-0.176909
2.140000,1.680000,1.042857,0.040000,143836763157.282288,18371880830.072929,-18364442255.028900,-8359527235.656439,0.346095,-0.346039,-0.157498
2.180000,1.680000,1.074284,0.040000,144045806372.046478,17444312132.388664,-17437220065.309673,-7354834568.842447,0.328621,-0.328567,-0.138569
2.220000,1.680000,1.106265,0.040000,144226927898.936157,16640253139.268818,-16633466337.522310,-6375166207.872430,0.313474,-0.313423,-0.120112
2.260000,1.680000,1.138753,0.040000,144381414696.688934,15954388860.087412,-15947861564.216795,-5419068339.090933,0.300553,-0.300504,-0.102098
2.300000,1.680000,1.171706,0.040000,144510364547.614258,15382115375.985210,-15375763626.313477,-4484343936.470366,0.289772,-0.289724,-0.084488
2.340000,1.680000,1.205085,0.040000,144614693443.568237,14919083619.887119,-14912397807.384451,-3568137326.358310,0.281046,-0.280996,-0.067226
2.380000,1.680000,1.238857,0.040000,144695143133.115112,14563427594.205936,-14565173893.379219,-2667401030.306207,0.274393,-0.274406,-0.050255
2.420000,1.680000,1.272990,0.040000,144752308696.432404,14327307225.964863,-14402917793.897369,-2010122187.430047,0.270362,-0.270932,-0.037872
2.460000,1.680000,1.307455,0.040000,144786922450.207428,14058505285.208925,-14134739089.465677,-1629146234.431646,0.265301,-0.265876,-0.030694
-2.500000,1.720000,3.246899,0.040000,0.000061,-15696569792209.642578,38102464718642.960938,5653625900106.833008,-422.374489,591.230509,106.517589
-2.460000,1.720000,3.207837,0.040000,-80536579378.085739,-1372068953750.872070,23456942843102.914062,3236906876673.108398,-150.678123,317.114853,60.985202
-2.420000,1.720000,3.168798,0.040000,-80491805376.599670,-1820993375688.740967,7555708666125.316406,1541301298308.687256,-66.722179,109.940323,29.039010
-2.380000,1.720000,3.129784,0.040000,-80416350934.538025,-119081440730.092682,308508703480.322937,1882437393.667789,-3.314239,4.741807,0.035466
-2.340000,1.720000,3.090795,0.040000,-80310223065.483292,-19505484151.267159,19499969043.405064,-3047929627.556311,-0.367463,0.367422,-0.057425
-2.300000,1.720000,3.051832,0.040000,-80172876096.646805,-19974795306.426491,19968558383.089691,-3820641293.728098,-0.376301,0.376254,-0.071983
-2.260000,1.720000,3.012896,0.040000,-80003559848.649490,-20554501860.405560,20548073481.637608,-4604242668.074196,-0.387222,0.387174,-0.086747
-2.220000,1.720000,2.973988,0.040000,-79801346611.536240,-21246280278.593033,21239679514.897144,-5399900184.991169,-0.400255,0.400205,-0.101737
-2.180000,1.720000,2.935109,0.040000,-79565129287.088348,-22052992352.708656,22046195516.596943,-6208194922.481396,-0.415453,0.415402,-0.116966
-2.140000,1.720000,2.896262,0.040000,-79293616835.873154,-22978050385.515491,22971033300.364372,-7029049982.732533,-0.432880,0.432827,-0.132431
-2.100000,1.720000,2.857446,0.040000,-78985328834.091248,-24025256371.440376,24018003819.163139,-7861614865.267385,-0.452609,0.452554,-0.148117
-2.060000,1.720000,2.818663,0.040000,-78638589391.507584,-25198714876.871822,25191215253.588692,-8704104919.007950,-0.474716,0.474659,-0.163990
-2.020000,1.720000,2.779914,0.040000,-78251520603.730560,-26502686705.775620,26494940287.440243,-9553604212.235624,-0.499282,0.499224,-0.179995
-1.980000,1.720000,2.741202,0.040000,-77822035737.577148,-27941471612.420731,27933484823.171181,-10405840753.637541,-0.526388,0.526328,-0.196052
-1.940000,1.720000,2.702527,0.040000,-77347832377.984512,-29519199996.209564,29510996454.116035,-11254934135.835348,-0.556112,0.556051,-0.212049
-1.900000,1.720000,2.663891,0.040000,-76826385826.704620,-31239642829.870560,31231257240.333874,-12093121514.748861,-0.588526,0.588462,-0.227841
-1.860000,1.720000,2.625296,0.040000,-76254943106.562851,-33105895300.176609,33097387741.282238,-12910462159.950272,-0.623686,0.623622,-0.243241
-1.820000,1.720000,2.586744,0.040000,-75630518024.761261,-35120068570.546692,35111517754.092033,-13694531558.524769,-0.661634,0.661570,-0.258013
-1.780000,1.720000,2.548236,0.040000,-74949887848.877457,-37282815480.795403,37274336733.896317,-14430111626.333527,-0.702382,0.702318,-0.271872
-1.740000,1.720000,2.509775,0.040000,-74209592290.005844,-39592855879.794273,39584593335.864449,-15098898464.616146,-0.745906,0.745843,-0.284472
-1.700000,1.720000,2.471363,0.040000,-73405935625.731400,-42046294134.056801,42038442556.759705,-15679245631.151484,-0.792132,0.792073,-0.295406
-1.660000,1.720000,2.433002,0.040000,-72534992976.184586,-44635935718.162376,44628730563.047005,-16145980117.149776,-0.840926,0.840872,-0.304200
-1.620000,1.720000,2.394695,0.040000,-71592621914.350723,-47350362401.112259,47344104762.903610,-16470325463.198069,-0.892073,0.892026,-0.310310
-1.580000,1.720000,2.356444,0.040000,-70574480794.108780,-50173029748.948639,50168071959.097023,-16619989364.849474,-0.945261,0.945224,-0.313130
-1.540000,1.720000,2.318252,0.040000,-69476055343.564255,-53081119445.730675,53077890799.884911,-16559469155.646454,-1.000061,1.000036,-0.311990
-1.500000,1.720000,2.280122,0.040000,-68292695242.330276,-56044489731.910965,56043473226.902451,-16250651875.147902,-1.055905,1.055897,-0.306172
-1.460000,1.720000,2.242057,0.040000,-67019662482.337013,-59024442012.872047,59026196140.164566,-15653774959.008591,-1.112065,1.112078,-0.294926
-1.420000,1.720000,2.204061,0.040000,-65652193342.084106,-61972755026.643745,61977874719.464890,-14728829357.110500,-1.167632,1.167670,-0.277500
-1.380000,1.720000,2.166136,0.040000,-64185575657.329346,-64830705040.129898,64839832462.644951,-13437458745.510532,-1.221500,1.221568,-0.253170
-1.340000,1.720000,2.128288,0.040000,-62615242782.367943,-67528656355.051094,67542417539.159149,-11745403311.054495,-1.272357,1.272461,-0.221290
-1.300000,1.720000,2.090520,0.040000,-60936885053.854851,-69985942935.502640,70004940359.224976,-9625476116.394020,-1.318683,1.318826,-0.181350
-1.260000,1.720000,2.052837,0.040000,-59146578741.331467,-72111756104.270538,72136474937.351028,-7061019322.584987,-1.358767,1.358953,-0.133034
-1.220000,1.720000,2.015243,0.040000,-57240931245.290016,-73806720536.206207,73837501700.395844,-4049684648.336927,-1.390735,1.390967,-0.076298
-1.180000,1.720000,1.977743,0.040000,-55217239788.278908,-74965939251.892395,75002859772.776825,-607304828.805985,-1.412610,1.412889,-0.011442
-1.140000,1.720000,1.940343,0.040000,-53073658944.285530,-75483033635.530350,75525874273.034821,3228507644.849337,-1.422386,1.422709,0.060827
-1.100000,1.720000,1.903049,0.040000,-50809370293.810188,-75255873530.568604,75303997864.000046,7395476860.190062,-1.418136,1.418499,0.139335
-1.060000,1.720000,1.865867,0.040000,-48424745307.590759,-74193175340.588760,74245528511.816147,11805032506.531498,-1.398138,1.398533,0.222414
-1.020000,1.720000,1.828804,0.040000,-45921490654.285103,-72222382529.097763,72277415277.004822,16342462005.091106,-1.361023,1.361437,0.307901
-0.980000,1.720000,1.791867,0.040000,-43302763663.467339,-69297491380.235596,69353241102.622482,20869331972.619003,-1.305920,1.306340,0.393190
-0.940000,1.720000,1.755064,0.040000,-40573245183.096130,-65406874662.625633,65460982544.175247,25228472535.250137,-1.232609,1.233017,0.475319
-0.900000,1.720000,1.718405,0.040000,-37739157717.276138,-60579312547.759041,60629220669.830498,29251565306.745838,-1.141631,1.142008,0.551116
-0.860000,1.720000,1.681897,0.040000,-34808218942.974922,-54888164035.180603,54931234281.416870,32768995796.811916,-1.034368,1.034693,0.617387
-0.820000,1.720000,1.645552,0.040000,-31789524358.577656,-48451879179.381149,48485679544.548492,35621260287.920036,-0.913053,0.913307,0.671125
-0.780000,1.720000,1.609381,0.040000,-28693357930.250961,-41431255805.551468,41453716805.210320,37670845780.198181,-0.780716,0.780885,0.709741
-0.740000,1.720000,1.573395,0.040000,-25530935515.977379,-34022291196.580200,34031982589.081089,38813291036.026199,-0.641054,0.641128,0.731265
-0.700000,1.720000,1.537607,0.040000,-22314092080.277020,-26446061697.794792,26442269428.526024,38986083213.540833,-0.498238,0.498209,0.734520
-0.660000,1.720000,1.502031,0.040000,-19054929213.921021,-18935466267.121319,18918343072.219765,38174252191.079788,-0.356658,0.356529,0.719225
-0.620000,1.720000,1.466684,0.040000,-15765443641.302502,-11721252059.966568,11691725199.430027,36411915272.657104,-0.220668,0.220446,0.686022
-0.580000,1.720000,1.431582,0.040000,-12457159361.493315,-5017720018.154002,4977469629.231254,33779586576.459591,-0.094309,0.094006,0.636427
-0.540000,1.720000,1.396743,0.040000,-9140785734.988552,989266568.358753,-1038058148.361231,30397641980.987854,0.018914,-0.019282,0.572709
-0.500000,1.720000,1.362187,0.040000,-5825921033.773581,6151942595.038315,-6206722309.485497,26416848631.953308,0.116216,-0.116629,0.497709
-0.460000,1.720000,1.327938,0.040000,-2520816405.236220,10366059489.939121,-10424209659.070271,22007195617.524757,0.195631,-0.196069,0.414628
-0.420000,1.720000,1.294018,0.040000,767790650.370630,13573059327.938919,-13632020051.398857,17346379041.001598,0.256058,-0.256502,0.326816
-0.380000,1.720000,1.260455,0.040000,4034770233.831398,15758114349.590752,-15815630707.973387,12609178777.903086,0.297217,-0.297651,0.237564
-0.340000,1.720000,1.227277,0.040000,7276624052.188654,16945948479.724077,-17000095898.531883,7958683089.524946,0.319578,-0.319986,0.149946
-0.300000,1.720000,1.194518,0.040000,10491446535.734709,17194156335.622581,-17243476164.622562,3539933209.206984,0.324227,-0.324598,0.066694
-0.260000,1.720000,1.162213,0.040000,13678833210.625774,16586229976.294107,-16629644527.410860,-523835651.590239,0.312740,-0.313067,-0.009869
-0.220000,1.720000,1.130399,0.040000,16839747865.736328,15223965891.207403,-15260821018.114611,-4132525558.072057,0.287037,-0.287314,-0.077859
-0.180000,1.720000,1.099121,0.040000,19976360139.499805,13221189122.548471,-13251100421.520174,-7208498407.470473,0.249264,-0.249489,-0.135812
-0.140000,1.720000,1.068424,0.040000,23091863987.813797,10698044981.980753,-10720899014.454649,-9694454057.397152,0.201687,-0.201859,-0.182649
-0.100000,1.720000,1.038361,0.040000,26190285683.491734,7777330063.391317,-7793115100.621265,-11550480923.138390,0.146619,-0.146738,-0.217618
-0.060000,1.720000,1.008988,0.040000,29276287676.620201,4581665888.929011,-4590480191.400290,-12750873948.446846,0.086371,-0.086437,-0.240234
-0.020000,1.720000,0.980368,0.040000,32354972389.368027,1232596943.756325,-1234504435.579057,-13281239766.183077,0.023234,-0.023248,-0.250226
0.020000,1.720000,0.952568,0.040000,35431687874.226936,-2149891767.999371,2154815935.234690,-13136295821.009830,-0.040533,0.040570,-0.247495
0.060000,1.720000,0.923885,0.040000,38511835678.228729,-5446574173.634724,5458343157.372775,-12318641272.596937,-0.102683,0.102772,-0.232090
0.100000,1.720000,0.895648,0.040000,41600680129.178352,-8538534569.359679,8557155794.386607,-10838647398.944130,-0.160976,0.161117,-0.204206
0.140000,1.720000,0.867667,0.040000,44703157902.472977,-11306273271.011276,11331798387.760740,-8715489224.664003,-0.213161,0.213353,-0.164205
0.180000,1.720000,0.838945,0.040000,47823686936.216835,-13630020796.043953,13662403692.952984,-5979209884.266293,-0.256981,0.257225,-0.112652
0.220000,1.720000,0.811179,0.040000,50965974770.891388,-15390431297.283413,15429536211.493357,-2673566990.879764,-0.290186,0.290480,-0.050372
0.260000,1.720000,0.782504,0.040000,54132827912.892044,-16471204258.725803,16516633616.519756,1140735626.475567,-0.310584,0.310926,0.021492
0.300000,1.720000,0.754224,0.040000,57325965971.886818,-16762597940.641661,16813688372.272793,5382960229.655186,-0.316106,0.316491,0.101418
0.340000,1.720000,0.726387,0.040000,60545846656.160088,-16167071780.882624,16222733546.344673,9950016053.807516,-0.304912,0.305331,0.187464
0.380000,1.720000,0.697523,0.040000,63791510173.207420,-14605611539.277979,14664364105.389744,14715573149.666874,-0.275510,0.275953,0.277250
0.420000,1.720000,0.669806,0.040000,67060453575.846092,-12025490486.339058,12085372000.710342,19531232689.178692,-0.226906,0.227357,0.367980
0.460000,1.720000,0.641144,0.040000,70348546946.653610,-8407505557.941742,8466205803.708544,24230233009.981541,-0.158734,0.159176,0.456512
0.500000,1.720000,0.612802,0.040000,73650003375.147476,-3772963238.617631,3827850855.643682,28633908144.635139,-0.071395,0.071809,0.539479
0.540000,1.720000,0.585178,0.040000,76957413353.399261,1811867497.971442,-1763491428.148654,32560744610.428719,0.033863,-0.033499,0.613463
0.580000,1.720000,0.556106,0.040000,80261851081.701324,8233634342.542085,-8194402790.219538,35837451874.364891,0.154905,-0.154609,0.675198
0.620000,1.720000,0.528464,0.040000,83553055555.401657,15334100424.296556,-15306260912.584629,38311039633.055565,0.288746,-0.288536,0.721802
0.660000,1.720000,0.502488,0.040000,86819683332.697433,22915823739.121902,-22901092257.211334,39860582060.997932,0.431664,-0.431553,0.750996
0.700000,1.720000,0.478450,0.040000,90049623467.028549,30752319060.264141,-30751617786.183033,40407213827.494873,0.579388,-0.579382,0.761295
0.740000,1.720000,0.456656,0.040000,93230358852.291946,38600759763.080627,-38614187411.710724,39921020473.896393,0.727337,-0.727438,0.752135
0.780000,1.720000,0.437442,0.040000,96349353336.403641,46217105286.030151,-46243844381.765991,38423834154.948776,0.870908,-0.871110,0.723927
0.820000,1.720000,0.421160,0.040000,99394440964.471786,53370932036.932632,-53409404421.250282,35987503600.853394,1.005757,-1.006047,0.678025
0.860000,1.720000,0.408162,0.040000,102354193349.336807,59859443432.807365,-59907399765.683922,32727831018.417732,1.128058,-1.128419,0.616611
0.900000,1.720000,0.398768,0.040000,105218243285.561188,65518150290.479836,-65572961537.058304,28794977842.639908,1.234710,-1.235123,0.542514
0.940000,1.720000,0.393239,0.040000,107977547207.875931,70228302073.479385,-70287134356.076416,24361566109.200798,1.323474,-1.323918,0.458986
0.980000,1.720000,0.391736,0.040000,110624575024.971848,73919624020.185074,-73979740013.037689,19609927836.073082,1.393028,-1.393481,0.369462
1.020000,1.720000,0.391736,0.040000,113153422563.499969,76569509900.582047,-76628402246.684799,14719897366.069975,1.442947,-1.443391,0.277331
1.060000,1.720000,0.393239,0.040000,115559848216.615326,78198338416.386856,-78253934094.488266,9858312098.445498,1.473616,-1.474035,0.185736
1.100000,1.720000,0.398768,0.040000,117841240864.545090,78862769209.474686,-78913452004.231155,5170983984.668112,1.486107,-1.486489,0.097424
1.140000,1.720000,0.408162,0.040000,119996530029.880341,78647190698.531250,-78691879880.660873,777500409.425058,1.482011,-1.482348,0.014649
1.180000,1.720000,0.421160,0.040000,122026051549.229980,77655165372.459686,-77693237099.755402,-3231198458.660236,1.463284,-1.463570,-0.060878
1.220000,1.720000,0.437442,0.040000,123931382673.743927,76000906517.053391,-76032184018.198227,-6792793461.366403,1.432078,-1.432314,-0.127980
1.260000,1.720000,0.456656,0.040000,125715159901.569458,73802139768.036499,-73826766349.038177,-9871645588.288553,1.390614,-1.390800,-0.185988
1.300000,1.720000,0.478450,0.040000,127380891199.680908,71173982387.938080,-71192379093.937698,-12455522029.621176,1.341063,-1.341202,-0.234669
1.340000,1.720000,0.502488,0.040000,128932772147.251099,68224637397.265053,-68237377935.170502,-14551574955.085667,1.285464,-1.285560,-0.274160
1.380000,1.720000,0.528464,0.040000,130375513128.939560,65052224419.345810,-65060000027.166031,-16182054778.827385,1.225666,-1.225724,-0.304879
1.420000,1.720000,0.556106,0.040000,131714182444.024185,61743172697.048767,-61746695568.876740,-17380150854.985992,1.163297,-1.163324,-0.327452
1.460000,1.720000,0.585178,0.040000,132954068126.685822,58371400686.963219,-58371391149.747986,-18186211062.061138,1.099751,-1.099751,-0.342639
1.500000,1.720000,0.612802,0.040000,134100559621.997498,54998546544.814995,-54995669565.550468,-18644504784.365726,1.036188,-1.036167,-0.351273
1.540000,1.720000,0.641144,0.040000,135159049145.110947,51674541538.311615,-51669414499.619652,-18800583280.914482,0.973549,-0.973511,-0.354214
1.580000,1.720000,0.669806,0.040000,136134851661.884262,48438757909.500717,-48431913294.888359,-18699245313.589043,0.912576,-0.912524,-0.352305
1.620000,1.720000,0.697523,0.040000,137033141818.470169,45321160990.185120,-45313066675.650032,-18383052207.915009,0.853831,-0.853770,-0.346347
1.660000,1.720000,0.726387,0.040000,137858905850.264984,42343708307.582649,-42334746955.941391,-17891329491.375160,0.797729,-0.797662,-0.337083
1.700000,1.720000,0.754224,0.040000,138616906365.480194,39521564896.850639,-39512058912.521004,-17259564004.673679,0.744555,-0.744484,-0.325180
1.740000,1.720000,0.782504,0.040000,139311657948.920868,36864385807.220673,-36854585803.317825,-16519121303.011450,0.694491,-0.694417,-0.311230
1.780000,1.720000,0.811179,0.040000,139947411642.048737,34377346818.135544,-34367456019.165131,-15697198897.071192,0.647633,-0.647559,-0.295744
1.820000,1.720000,0.838945,0.040000,140528146555.973694,32062165548.808640,-32052332530.021027,-14816955015.432983,0.604014,-0.603940,-0.279160
1.860000,1.720000,0.867667,0.040000,141057567070.757965,29917874468.859528,-29908214418.185284,-13897750407.555264,0.563615,-0.563543,-0.261842
1.900000,1.720000,0.895648,0.040000,141539104304.943848,27941564753.865154,-27932153978.480888,-12955464350.349567,0.526382,-0.526311,-0.244088
1.940000,1.720000,0.923885,0.040000,141975920735.500763,26128918273.799236,-26119811527.494778,-12002844909.363668,0.492232,-0.492164,-0.226141
1.980000,1.720000,0.952568,0.040000,142370917051.387329,24474716205.906616,-24465941871.433128,-11049873099.491352,0.461068,-0.461002,-0.208186
2.020000,1.720000,0.980368,0.040000,142726740483.828613,22973180663.066551,-22964754303.915218,-10104118436.570612,0.432780,-0.432717,-0.190367
2.060000,1.720000,1.008988,0.040000,143045794013.027893,21618306468.082310,-21610226294.067902,-9171078274.673746,0.407256,-0.407195,-0.172788
2.100000,1.720000,1.038361,0.040000,143330245966.465302,20404068181.044312,-20396325333.751087,-8254489901.288383,0.384381,-0.384322,-0.155519
2.140000,1.720000,1.068424,0.040000,143582039633.932190,19324631329.371910,-19317205459.059334,-7356614931.368802,0.364045,-0.363989,-0.138603
2.180000,1.720000,1.099121,0.040000,143802902598.506439,18374475388.275066,-18367342204.611855,-6478490754.052565,0.346145,-0.346092,-0.122059
2.220000,1.720000,1.130399,0.040000,143994355551.293884,17548534155.232914,-17541661185.822289,-5620149642.555002,0.330586,-0.330534,-0.105887
2.260000,1.720000,1.162213,0.040000,144157720395.585815,16842279276.363356,-16835634022.825706,-4780798580.502640,0.317281,-0.317231,-0.090073
2.300000,1.720000,1.194518,0.040000,144294127477.779266,16251859681.606924,-16245443430.117203,-3958954260.396556,0.306158,-0.306110,-0.074589
2.340000,1.720000,1.227277,0.040000,144404521728.091949,15774614464.550375,-15768836983.186600,-3152539891.388229,0.297170,-0.297127,-0.059396
2.380000,1.720000,1.260455,0.040000,144489666257.263092,15410897534.270458,-15403139355.715536,-2359738893.547478,0.290306,-0.290248,-0.044459
2.420000,1.720000,1.294018,0.040000,144550122495.154449,15176189043.717440,-15211540607.079908,-1778802554.206455,0.286128,-0.286394,-0.033514
2.460000,1.720000,1.327938,0.040000,144585973126.712372,15139250879.837673,-15310947294.045015,-1442781105.345264,0.286203,-0.287497,-0.027183
-2.500000,1.760000,3.255693,0.040000,106938576.289068,-12618100351406.445312,39964363021809.015625,-3262549458004.018555,-392.298158,598.385935,-61.468323
-2.460000,1.760000,3.216737,0.040000,-80323305228.869568,-153638564956.065430,24000910376022.300781,-1938167396295.358643,-137.683567,317.402137,-36.516197
-2.420000,1.760000,3.177808,0.040000,-80275789027.013657,-1683889458868.389404,7693544817328.317383,-1284566152252.997314,-65.693071,110.983227,-24.201971
-2.380000,1.760000,3.138905,0.040000,-80197413070.243164,-119650816338.447754,308846967146.580505,-6150883048.117750,-3.323660,4.749486,-0.115886
-2.340000,1.760000,3.100031,0.040000,-80087307459.292587,-20217362155.976357,20210297144.827774,-2627662818.773071,-0.380867,0.380814,-0.049507
-2.300000,1.760000,3.061185,0.040000,-79944845361.119293,-20697615367.131657,20691181604.625565,-3290964026.857052,-0.389919,0.389870,-0.062004
-2.260000,1.760000,3.022370,0.040000,-79769257440.595200,-21287883040.570923,21281417360.457554,-3963350588.905858,-0.401040,0.400991,-0.074672
-2.220000,1.760000,2.983586,0.040000,-79559599054.983322,-21990757857.150677,21984148433.147678,-4645433481.372486,-0.414281,0.414231,-0.087523
-2.180000,1.760000,2.944834,0.040000,-79314745431.122726,-22808545624.635971,22801790188.475937,-5337280617.862213,-0.429688,0.429637,-0.100557
-2.140000,1.760000,2.906116,0.040000,-79033387830.851318,-23744109230.389805,23737164605.003212,-6038426598.928838,-0.447314,0.447261,-0.113767
-2.100000,1.760000,2.867434,0.040000,-78714029128.532593,-24800356049.782085,24793246758.641457,-6747751185.886701,-0.467213,0.467159,-0.127132
-2.060000,1.760000,2.828788,0.040000,-78354979010.045837,-25980545384.640480,25973238305.830341,-7463335653.121409,-0.489447,0.489392,-0.140614
-2.020000,1.760000,2.790180,0.040000,-77954348950.961716,-27287642465.810719,27280187644.753059,-8182265802.950451,-0.514073,0.514017,-0.154159
-1.980000,1.760000,2.751612,0.040000,-77510047285.502747,-28724707178.112789,28717083632.888756,-8900450429.939821,-0.541147,0.541090,-0.167690
-1.940000,1.760000,2.713085,0.040000,-77019774552.604919,-30294078473.817062,30286370816.909302,-9612388694.684446,-0.570714,0.570656,-0.181103
-1.900000,1.760000,2.674602,0.040000,-76481019523.669983,-31997823210.011429,31990030200.954388,-10310965183.446478,-0.602813,0.602755,-0.194265
-1.860000,1.760000,2.636164,0.040000,-75891056200.793457,-33836679071.694534,33828933777.864414,-10987191169.949728,-0.637459,0.637401,-0.207005
-1.820000,1.760000,2.597773,0.040000,-75246942355.327515,-35810555809.532593,35802888286.163353,-11629992871.803528,-0.674648,0.674591,-0.219116
-1.780000,1.760000,2.559431,0.040000,-74545520055.633240,-37917170483.628830,37909780145.244812,-12225954290.893307,-0.714340,0.714284,-0.230344
-1.740000,1.760000,2.521141,0.040000,-73783418977.814423,-40152602752.713211,40145565652.115570,-12759142743.775757,-0.756459,0.756406,-0.240390
-1.700000,1.760000,2.482905,0.040000,-72957063154.988617,-42509561702.576958,42503164249.478256,-13210915537.096294,-0.800869,0.800820,-0.248901
-1.660000,1.760000,2.444725,0.040000,-72062682228.019241,-44978013888.143600,44972393861.721245,-13559867920.041454,-0.847380,0.847338,-0.255476
-1.620000,1.760000,2.406604,0.040000,-71096328083.318924,-47543042139.064621,47538592841.834084,-13781812986.140013,-0.895713,0.895680,-0.259657
-1.580000,1.760000,2.368545,0.040000,-70053898216.649216,-50185605203.029991,50182537640.313522,-13849988763.192648,-0.945509,0.945485,-0.260942
-1.540000,1.760000,2.330552,0.040000,-68931166901.219559,-52880002101.892509,52878827975.747269,-13735374016.619427,-0.996283,0.996274,-0.258782
-1.500000,1.760000,2.292626,0.040000,-67723825692.982704,-55594901446.185783,55595902019.070702,-13407340611.952543,-1.047446,1.047453,-0.252602
-1.460000,1.760000,2.254772,0.040000,-66427534382.587936,-58290526056.374649,58294321139.192207,-12834506053.561413,-1.098249,1.098277,-0.241810
-1.420000,1.760000,2.216994,0.040000,-65037983874.765205,-60920219865.460236,60927127317.911453,-11986032385.419937,-1.147811,1.147863,-0.225824
-1.380000,1.760000,2.179295,0.040000,-63550971767.782219,-63427621442.441788,63438318124.935425,-10833194835.770615,-1.195074,1.195154,-0.204104
-1.340000,1.760000,2.141679,0.040000,-61962491569.862572,-65749206978.227348,65763962989.522743,-9351452376.437305,-1.238837,1.238948,-0.176187
-1.300000,1.760000,2.104152,0.040000,-60268835347.383247,-67811898074.063065,67831336068.042427,-7522763795.789233,-1.277725,1.277872,-0.141733
-1.260000,1.760000,2.066717,0.040000,-58466709428.339264,-69537170099.679230,69561362511.870697,-5338317123.685843,-1.310257,1.310440,-0.100577
-1.220000,1.760000,2.029380,0.040000,-56553361094.108673,-70839642911.071548,70868980327.583847,-2801287600.335204,-1.334826,1.335047,-0.052778
-1.180000,1.760000,1.992146,0.040000,-54526713645.358910,-71633337051.228500,71667487150.762405,70322396.880937,-1.349807,1.350064,0.001325
-1.140000,1.760000,1.955022,0.040000,-52385505035.980324,-71831652079.901855,71870557118.237579,3241300462.803140,-1.353570,1.353863,0.061068
-1.100000,1.760000,1.918013,0.040000,-50129424544.733795,-71355992620.326080,71398705212.670105,6657363816.589686,-1.344630,1.344952,0.125429
-1.060000,1.760000,1.881127,0.040000,-47759239628.660339,-70136961866.089172,70182802831.682449,10244461221.996635,-1.321680,1.322026,0.193012
-1.020000,1.760000,1.844370,0.040000,-45276904772.841103,-68124737489.041397,68172038979.013016,13909321856.259483,-1.283777,1.284133,0.262060
-0.980000,1.760000,1.807752,0.040000,-42685642445.963638,-65290289573.443459,65337746863.555237,17541812806.191025,-1.230375,1.230733,0.330498
-0.940000,1.760000,1.771279,0.040000,-39989987222.432526,-61635740477.503174,61681093454.808861,21018990711.459557,-1.161509,1.161851,0.396010
-0.900000,1.760000,1.734962,0.040000,-37195783958.610252,-57193366666.645409,57234958678.675430,24211066799.947723,-1.077791,1.078105,0.456151
-0.860000,1.760000,1.698811,0.040000,-34310133914.669342,-52033379077.600563,52068782171.552101,26988741856.779964,-0.980539,0.980806,0.508484
-0.820000,1.760000,1.662836,0.040000,-31341284532.350685,-46258219613.362549,46285967630.250099,29231615277.695400,-0.871689,0.871898,0.550741
-0.780000,1.760000,1.627048,0.040000,-28298463579.925297,-40005630624.861237,40023750457.139511,30836676321.510784,-0.753832,0.753968,0.580981
-0.740000,1.760000,1.591462,0.040000,-25191661518.525448,-33437027709.373356,33444865809.932594,31726207859.606651,-0.630017,0.630076,0.597740
-0.700000,1.760000,1.556089,0.040000,-22031371604.164150,-26735717696.801624,26732312939.851280,31854005643.765491,-0.503697,0.503672,0.600148
-0.660000,1.760000,1.520946,0.040000,-18828299859.385242,-20090658078.655098,20076570426.836498,31209345691.084900,-0.378440,0.378334,0.588002
-0.620000,1.760000,1.486049,0.040000,-15593061222.097116,-13692309218.865940,13667792751.240065,29818048278.672127,-0.257832,0.257648,0.561789
-0.580000,1.760000,1.451415,0.040000,-12335878245.409861,-7715382248.749681,7682169565.263465,27740663659.236790,-0.145175,0.144924,0.522650
-0.540000,1.760000,1.417064,0.040000,-9066299824.385523,-2316291772.960486,2275591466.085932,25067905768.125420,-0.043410,0.043104,0.472294
-0.500000,1.760000,1.383016,0.040000,-5792954173.407945,2381119654.034436,-2426860292.577366,21914037330.968281,0.045120,-0.045465,0.412873
-0.460000,1.760000,1.349295,0.040000,-2523348466.728775,6283360565.962564,-6332550040.260452,18408930962.461227,0.118660,-0.119031,0.346835
-0.420000,1.760000,1.315926,0.040000,736277911.075335,9336421932.949448,-9386521663.503616,14689790345.839079,0.176187,-0.176564,0.276764
-0.380000,1.760000,1.282936,0.040000,3981042510.680182,11518086596.399914,-11567704804.264118,10893322786.006914,0.217288,-0.217662,0.205237
-0.340000,1.760000,1.250356,0.040000,7207452904.033074,12842415277.694729,-12889415907.032154,7149093877.984407,0.242224,-0.242578,0.134693
-0.300000,1.760000,1.218217,0.040000,10413387275.494331,13348263959.290527,-13391806553.713118,3574471530.547632,0.251735,-0.252063,0.067345
-0.260000,1.760000,1.186557,0.040000,13598029978.325283,13101404946.333157,-13139961206.009027,271363856.262397,0.247056,-0.247347,0.005113
-0.220000,1.760000,1.155414,0.040000,16761769501.498411,12181889457.830111,-12215226074.920359,-2675323930.429407,0.229702,-0.229954,-0.050405
-0.180000,1.760000,1.124831,0.040000,19906068094.869644,10686263258.909113,-10713397625.678240,-5197750734.615736,0.201489,-0.201693,-0.097929
-0.140000,1.760000,1.094856,0.040000,23033310419.292805,8715894876.675985,-8737047699.407852,-7244089201.687190,0.164332,-0.164491,-0.136483
-0.100000,1.760000,1.065539,0.040000,26146638919.220718,6380793989.652385,-6395325788.463834,-8776786958.698391,0.120300,-0.120410,-0.165360
-0.060000,1.760000,1.036937,0.040000,29249780767.549110,3789816818.424566,-3798182268.851722,-9770561103.880312,0.071450,-0.071513,-0.184083
-0.020000,1.760000,1.009109,0.040000,32346871091.996662,1056365431.431742,-1058063772.255457,-10210510179.656187,0.019912,-0.019925,-0.192372
0.020000,1.760000,0.980448,0.040000,35442274348.744492,-1709770226.685318,1714215996.720160,-10090648086.376822,-0.032238,0.032272,-0.190114
0.060000,1.760000,0.952209,0.040000,38540405948.860405,-4395503002.651648,4406564053.288277,-9413078188.819845,-0.082876,0.082960,-0.177348
0.100000,1.760000,0.924208,0.040000,41645554077.310806,-6891939242.753447,6909066425.965023,-8187923109.867435,-0.129945,0.130074,-0.154265
0.140000,1.760000,0.895513,0.040000,44761702748.023697,-9087409264.699785,9111015250.737143,-6434023349.815210,-0.171345,0.171523,-0.121221
0.180000,1.760000,0.867714,0.040000,47892355940.215012,-10875519341.778431,10904930284.796049,-4180314977.245635,-0.205067,0.205289,-0.078760
0.220000,1.760000,0.839064,0.040000,51040364752.784790,-12149319223.961939,12184729115.224180,-1467684102.962291,-0.229100,0.229367,-0.027652
0.260000,1.760000,0.810784,0.040000,54207759233.155060,-12810969120.337358,12851374325.624611,1649000227.253506,-0.241594,0.241899,0.031068
0.300000,1.760000,0.782913,0.040000,57395589387.321198,-12767824445.361668,12812972807.588638,5099066872.844560,-0.240808,0.241149,0.096069
0.340000,1.760000,0.754092,0.040000,60603780067.920616,-11944067533.786646,11992410512.819160,8794880032.888475,-0.225306,0.225671,0.165701
0.380000,1.760000,0.726331,0.040000,63831007376.892860,-10278525405.998505,10329195636.665730,12631787374.894459,-0.193940,0.194322,0.237990
0.420000,1.760000,0.697697,0.040000,67074603998.090775,-7737403528.220628,7788230309.443686,16489588798.532768,-0.146064,0.146447,0.310673
0.460000,1.760000,0.669359,0.040000,70330502868.617447,-4312323749.851419,4361869098.713696,20235797638.010952,-0.081527,0.081900,0.381254
0.500000,1.760000,0.641677,0.040000,73593226872.135056,-31961727.173214,77635301.257828,23730800166.170010,-0.000860,0.001205,0.447102
0.540000,1.760000,0.612674,0.040000,76855932276.653214,5042290581.848796,-5002138142.809127,26834715326.392754,0.094773,-0.094470,0.505582
0.580000,1.760000,0.584970,0.040000,80110509688.660461,10808608236.297482,-10776473516.366306,29415540433.756554,0.203459,-0.203217,0.554206
0.620000,1.760000,0.558758,0.040000,83347744139.891006,17133919998.238649,-17111052031.733156,31357810587.746887,0.322684,-0.322511,0.590799
0.660000,1.760000,0.534257,0.040000,86557530178.338715,23851961461.030216,-23840104242.187603,32570932059.182102,0.449318,-0.449228,0.613655
0.700000,1.760000,0.511714,0.040000,89729134631.931534,30777907233.934486,-30777302607.615665,32996132018.686760,0.579870,-0.579866,0.621666
0.740000,1.760000,0.491397,0.040000,92851493998.776993,37711497631.760010,-37722649728.834045,32611243967.128853,0.710570,-0.710654,0.614415
0.780000,1.760000,0.473594,0.040000,95913531395.672668,44454838459.423256,-44476704306.441414,31432566169.336704,0.837679,-0.837843,0.592208
0.820000,1.760000,0.458597,0.040000,98904474628.134155,50817228372.997002,-50849030241.609306,29513651342.319599,0.957606,-0.957845,0.556054
0.860000,1.760000,0.446690,0.040000,101814158032.269745,56631861966.300011,-56671491529.314240,26940997352.480072,1.067201,-1.067500,0.507584
0.900000,1.760000,0.438124,0.040000,104633290927.968918,61758098826.509232,-61803928843.085297,23827336025.159519,1.163817,-1.164163,0.448921
0.940000,1.760000,0.433096,0.040000,107353679907.953445,66093205481.767738,-66142661687.436485,20303134277.991760,1.245514,-1.245887,0.382523
0.980000,1.760000,0.431732,0.040000,109968395118.445480,69569395391.737183,-69620670211.217575,16507485365.654387,1.311018,-1.311404,0.311011
1.020000,1.760000,0.431732,0.040000,112471876664.007126,72159218323.358032,-72209939460.194794,12579118250.833187,1.359808,-1.360190,0.236998
1.060000,1.760000,0.433096,0.040000,114859980748.289627,73867539188.719208,-73916299343.997787,8648585732.766296,1.391983,-1.392350,0.162944
1.100000,1.760000,0.438124,0.040000,117129970411.462967,74731917936.884964,-74776998036.759552,4831955969.994039,1.408247,-1.408587,0.091037
1.140000,1.760000,0.446690,0.040000,119280457754.242996,74811845453.010513,-74852526517.179733,1226578028.351420,1.409728,-1.410035,0.023109
1.180000,1.760000,0.458597,0.040000,121311307617.382126,74186824399.999191,-74222170321.516876,-2091310190.997831,1.397923,-1.398189,-0.039401
1.220000,1.760000,0.473594,0.040000,123223512548.742035,72945636449.399384,-72975603912.193817,-5067028562.756507,1.374507,-1.374733,-0.095466
1.260000,1.760000,0.491397,0.040000,125019049750.721329,71184550221.393585,-71208863867.508270,-7666555061.675447,1.341296,-1.341479,-0.144442
1.300000,1.760000,0.511714,0.040000,126700728907.452332,68998516037.104797,-69017614245.338684,-9874392867.696705,1.300080,-1.300224,-0.186039
1.340000,1.760000,0.534257,0.040000,128272039282.023849,66480776093.775230,-66494810841.569717,-11690883067.969620,1.252616,-1.252721,-0.220263
1.380000,1.760000,0.558758,0.040000,129737002019.966690,63716632394.262032,-63726285705.448540,-13129054030.853848,1.200513,-1.200586,-0.247359
1.420000,1.760000,0.584970,0.040000,131100032683.298599,60784624361.716484,-60790248512.000008,-14211572278.640257,1.145249,-1.145292,-0.267754
1.460000,1.760000,0.612674,0.040000,132365816744.079514,57752602641.505798,-57754929496.349312,-14967755702.467785,1.088106,-1.088123,-0.282001
1.500000,1.760000,0.641677,0.040000,133539200071.515854,54680015186.438904,-54679434733.927704,-15431043443.545229,1.030200,-1.030196,-0.290730
1.540000,1.760000,0.669359,0.040000,134625094705.009644,51615634962.321289,-51612809227.736366,-15636758606.945593,0.972453,-0.972431,-0.294606
1.580000,1.760000,0.697697,0.040000,135628399938.740479,48600345308.367538,-48595612068.562630,-15620417423.779217,0.915632,-0.915596,-0.294298
1.620000,1.760000,0.726331,0.040000,136553937599.972717,45665870774.818909,-45659768827.883232,-15416351349.816422,0.860337,-0.860291,-0.290453
1.660000,1.760000,0.754092,0.040000,137406400514.977509,42837571199.683510,-42830351906.210945,-15056809288.763506,0.807044,-0.806989,-0.283679
1.700000,1.760000,0.782913,0.040000,138190312481.157379,40133696289.584938,-40125766320.913712,-14571291589.804073,0.756097,-0.756038,-0.274532
1.740000,1.760000,0.810784,0.040000,138909998409.672302,37567894604.185226,-37559418092.027855,-13986240484.212086,0.707753,-0.707689,-0.263509
1.780000,1.760000,0.839064,0.040000,139569562929.497437,35148703130.870361,-35139969152.172737,-13324858701.332586,0.662173,-0.662107,-0.251048
1.820000,1.760000,0.867714,0.040000,140172876185.816345,32881647210.196556,-32872747286.375763,-12607163161.076649,0.619459,-0.619392,-0.237526
1.860000,1.760000,0.895513,0.040000,140723565359.737488,30768820488.831390,-30759949290.652683,-11850080613.675663,0.579652,-0.579585,-0.223262
1.900000,1.760000,0.924208,0.040000,141225010880.889557,28810562542.385860,-28801757770.852634,-11067684092.765846,0.542758,-0.542692,-0.208522
1.940000,1.760000,0.952209,0.040000,141680346179.085236,27005072007.390045,-26996457425.545536,-10271414362.930645,0.508743,-0.508678,-0.193519
1.980000,1.760000,0.980448,0.040000,142092460219.109741,25349706114.853321,-25341282848.815502,-9470378746.382429,0.477556,-0.477492,-0.178427
2.020000,1.760000,1.009109,0.040000,142464001970.308380,23840613641.199238,-23832454601.629883,-8671604960.224018,0.449125,-0.449063,-0.163378
2.060000,1.760000,1.036937,0.040000,142797386295.738708,22473722511.185905,-22465805729.014805,-7880334389.392348,0.423373,-0.423314,-0.148470
2.100000,1.760000,1.065539,0.040000,143094800663.704590,21244397106.909439,-21236760041.786610,-7100260312.952240,0.400214,-0.400156,-0.133773
2.140000,1.760000,1.094856,0.040000,143358212351.597382,20148184222.538864,-20140790859.451530,-6333785601.227483,0.379562,-0.379506,-0.119332
2.180000,1.760000,1.124831,0.040000,143589375729.498352,19180507337.805176,-19173369881.270309,-5582227384.759336,0.361332,-0.361278,-0.105172
2.220000,1.760000,1.155414,0.040000,143789839414.958618,18337243426.984955,-18330315350.844410,-4846029651.235446,0.345445,-0.345393,-0.091302
2.260000,1.760000,1.186557,0.040000,143960952995.835602,17614476725.363842,-17607745792.671661,-4124922075.357527,0.331829,-0.331778,-0.077716
2.300000,1.760000,1.218217,0.040000,144103873160.221680,17008946690.820749,-17002309621.976879,-3418055275.599735,0.320421,-0.320371,-0.064398
2.340000,1.760000,1.250356,0.040000,144219569034.661163,16517363627.341972,-16510273166.694695,-2724015805.655809,0.311157,-0.311103,-0.051322
2.380000,1.760000,1.282936,0.040000,144308827989.320618,16139181389.045624,-16141141275.508011,-2041037310.031449,0.304083,-0.304097,-0.038454
2.420000,1.760000,1.315926,0.040000,144372283725.952759,15888360268.364265,-15968941598.824272,-1542466970.375434,0.299801,-0.300409,-0.029061
2.460000,1.760000,1.349295,0.040000,144410729070.010895,15598484524.465141,-15675481422.374365,-1253430181.308957,0.294320,-0.294900,-0.023615
-2.500000,1.800000,3.264953,0.040000,-80153167128.664124,20925522955294.250000,13113860495013.871094,-2426237508904.955566,201.852468,54.676219,-45.711721
-2.460000,1.800000,3.226109,0.040000,-80138858768.641174,4795441815223.881836,18107479571200.140625,-1371542916089.445312,-39.102391,211.704117,-25.840664
-2.420000,1.800000,3.187294,0.040000,-80090922901.915421,-247494591709.716370,5918989911152.811523,-282064739964.318298,-36.719219,79.460923,-5.314263
-2.380000,1.800000,3.148509,0.040000,-80010202870.938904,-25165730759.438473,39512413141.540573,-1673717824.251191,-0.555227,0.663347,-0.031534
-2.340000,1.800000,3.109754,0.040000,-79896720854.284546,-20823084231.132816,20817518338.902245,-2199471952.906085,-0.392288,0.392246,-0.041439
-2.300000,1.800000,3.071032,0.040000,-79749911017.281357,-21310118048.257729,21303701641.979279,-2752085402.665689,-0.401459,0.401410,-0.051851
-2.260000,1.800000,3.032342,0.040000,-79568995481.725662,-21908580640.798813,21902218382.596077,-3312674438.395979,-0.412734,0.412686,-0.062413
-2.220000,1.800000,2.993687,0.040000,-79353016099.250000,-22620537237.061699,22613841841.491982,-3881120909.755246,-0.426146,0.426096,-0.073123
-2.180000,1.800000,2.955068,0.040000,-79100834158.792603,-23446195928.007038,23439613191.811935,-4456954038.509665,-0.441703,0.441653,-0.083972
-2.140000,1.800000,2.916486,0.040000,-78811127741.862335,-24389697415.233864,24382699836.105850,-5039498395.040997,-0.459476,0.459424,-0.094947
-2.100000,1.800000,2.877943,0.040000,-78482387795.252121,-25451287137.997597,25444470811.425919,-5627455092.090077,-0.479478,0.479427,-0.106025
-2.060000,1.800000,2.839440,0.040000,-78112914711.950989,-26635687136.143620,26628390425.979500,-6219032900.687515,-0.501791,0.501736,-0.117170
-2.020000,1.800000,2.800979,0.040000,-77700814245.599716,-27942279062.445751,27935289310.986538,-6811429480.315370,-0.526409,0.526357,-0.128331
-1.980000,1.800000,2.762562,0.040000,-77243994588.336548,-29375855604.349068,29368339121.447449,-7401047477.478073,-0.553416,0.553359,-0.139440
-1.940000,1.800000,2.724190,0.040000,-76740163176.588913,-30934062906.615314,30927049309.558323,-7982882052.506328,-0.582776,0.582723,-0.150402
-1.900000,1.800000,2.685866,0.040000,-76186825431.837311,-32621094668.626209,32613541133.564800,-8550823549.808449,-0.614558,0.614501,-0.161102
-1.860000,1.800000,2.647591,0.040000,-75581283778.930557,-34431694942.394600,34424932745.954048,-9096940440.858812,-0.648675,0.648624,-0.171392
-1.820000,1.800000,2.609368,0.040000,-74920639659.138718,-36368463095.608826,36361200914.705574,-9611887999.972929,-0.685162,0.685107,-0.181094
-1.780000,1.800000,2.571199,0.040000,-74201796628.451920,-38421665544.026405,38415602845.480309,-10084100887.327076,-0.723852,0.723806,-0.189990
-1.740000,1.800000,2.533087,0.040000,-73421467878.050323,-40590903989.226974,40584457786.449493,-10500356087.120396,-0.764720,0.764671,-0.197833
-1.700000,1.800000,2.495034,0.040000,-72576185959.747482,-42859924106.649239,42855233944.336716,-10844920155.061342,-0.807479,0.807444,-0.204325
-1.660000,1.800000,2.457043,0.040000,-71662318767.463333,-45223491502.001564,45218633392.870872,-11100347782.952251,-0.852009,0.851973,-0.209137
-1.620000,1.800000,2.419116,0.040000,-70676089158.095642,-47656341476.111382,47653967986.147018,-11246665815.336384,-0.897860,0.897842,-0.211894
-1.580000,1.800000,2.381257,0.040000,-69613603032.616867,-50146213869.226166,50144000034.785599,-11262524610.230667,-0.944771,0.944755,-0.212192
-1.540000,1.800000,2.343470,0.040000,-68470882701.829025,-52656079508.554634,52657256771.256844,-11124538834.935373,-0.992078,0.992087,-0.209593
-1.500000,1.800000,2.305757,0.040000,-67243911102.126328,-55164407173.899673,55166171618.824966,-10808935386.177877,-1.039339,1.039353,-0.203647
-1.460000,1.800000,2.268122,0.040000,-65928682853.665627,-57619846042.205467,57626054053.113266,-10291191458.172409,-1.085626,1.085673,-0.193892
-1.420000,1.800000,2.230570,0.040000,-64521268310.659805,-59989926617.417183,59997189389.445847,-9548313548.061007,-1.130286,1.130341,-0.179896
-1.380000,1.800000,2.193104,0.040000,-63017885329.495193,-62207480739.787010,62220289805.256546,-8558882290.221473,-1.172097,1.172194,-0.161254
-1.340000,1.800000,2.155730,0.040000,-61414985147.930885,-64229082883.839058,64243321099.884209,-7306010674.707543,-1.210194,1.210301,-0.137649
-1.300000,1.800000,2.118451,0.040000,-59709345220.274750,-65972629009.413383,65993383064.986832,-5777777910.219732,-1.243080,1.243236,-0.108857
-1.260000,1.800000,2.081273,0.040000,-57898175132.284241,-67386836107.995125,67409078135.152184,-3970708984.611841,-1.269733,1.269900,-0.074810
-1.220000,1.800000,2.044202,0.040000,-55979225838.846832,-68379512302.550674,68408831960.523239,-1890325514.708168,-1.288475,1.288696,-0.035615
-1.180000,1.800000,2.007243,0.040000,-53950907527.258316,-68899236496.777557,68929493147.690140,445342245.559167,-1.298273,1.298501,0.008391
-1.140000,1.800000,1.970404,0.040000,-51812403155.915276,-68853826916.102158,68890993429.643860,3005707051.354180,-1.297456,1.297736,0.056629
-1.100000,1.800000,1.933689,0.040000,-49563781881.508499,-68204791240.190712,68241444860.661667,5744933783.183998,-1.285225,1.285501,0.108238
-1.060000,1.800000,1.897108,0.040000,-47206096196.365311,-66875247104.566170,66917656739.321808,8603296795.272587,-1.260208,1.260528,0.162091
-1.020000,1.800000,1.860667,0.040000,-44741466385.956421,-64856824628.991585,64896233227.409042,11506333902.589031,-1.222163,1.222460,0.216786
-0.980000,1.800000,1.824375,0.040000,-42173133910.425377,-62105858747.181961,62148859973.107681,14368453714.479069,-1.170353,1.170677,0.270710
-0.940000,1.800000,1.788242,0.040000,-39505488345.103241,-58661331889.710503,58697985868.258606,17094634997.487087,-1.105421,1.105697,0.322073
-0.900000,1.800000,1.752277,0.040000,-36744049517.651772,-54527856001.553329,54565287135.028130,19586474610.917740,-1.027548,1.027830,0.369021
-0.860000,1.800000,1.716490,0.040000,-33895413135.289963,-49802449913.935585,49829919205.776741,21746180369.451809,-0.938462,0.938669,0.409711
-0.820000,1.800000,1.680893,0.040000,-30967144521.682022,-44543176961.646400,44568699452.391220,23484067955.743546,-0.839364,0.839556,0.442453
-0.780000,1.800000,1.645499,0.040000,-27967635054.861084,-38902628744.514381,38915197470.463272,24723331953.061069,-0.733019,0.733114,0.465802
-0.740000,1.800000,1.610320,0.040000,-24905911159.163677,-32982436257.048622,32991332489.889641,25406872993.691322,-0.621459,0.621526,0.478680
-0.700000,1.800000,1.575371,0.040000,-21791417773.938671,-26972438015.472176,26966874765.204140,25500541654.279800,-0.508145,0.508103,0.480445
-0.660000,1.800000,1.540668,0.040000,-18633771364.425415,-20993334722.266911,20984051016.122437,24996958010.263325,-0.395474,0.395404,0.470957
-0.620000,1.800000,1.506228,0.040000,-15442509968.767372,-15242034776.513563,15218708549.764881,23915340902.066399,-0.287037,0.286861,0.450579
-0.580000,1.800000,1.472068,0.040000,-12226837738.595072,-9826448645.140148,9801146392.083799,22301087118.258343,-0.184993,0.184802,0.420165
-0.540000,1.800000,1.438211,0.040000,-8995392864.440729,-4918329026.599947,4881115063.302976,20221881610.948372,-0.092454,0.092173,0.380992
-0.500000,1.800000,1.404676,0.040000,-5756034376.895041,-584539643.462166,548380700.248041,17763680031.380775,-0.010809,0.010536,0.334678
-0.460000,1.800000,1.371487,0.040000,-2515673541.920498,3051837771.258043,-3096801197.966997,15024577641.752512,0.057753,-0.058091,0.283072
-0.420000,1.800000,1.338672,0.040000,719860164.031704,5980664886.273779,-6021115163.683859,12109297594.040894,0.112908,-0.113213,0.228146
-0.380000,1.800000,1.306256,0.040000,3945898613.587582,8136144524.504285,-8182212654.558181,9123140580.447124,0.153550,-0.153897,0.171885
-0.340000,1.800000,1.274272,0.040000,7158976592.070209,9565280891.863533,-9603760328.117376,6167275393.324841,0.180433,-0.180723,0.116195
-0.300000,1.800000,1.242752,0.040000,10356821084.258007,10254017719.751396,-10295528536.938574,3334617838.167771,0.193426,-0.193739,0.062826
-0.260000,1.800000,1.211733,0.040000,13538309536.506218,10295409459.670753,-10327105609.153515,707269471.749386,0.194151,-0.194390,0.013325
-0.220000,1.800000,1.181254,0.040000,16703386090.047052,9713256730.091764,-9746277155.367807,-1645072011.714950,0.183190,-0.183439,-0.030994
-0.180000,1.800000,1.151358,0.040000,19852958916.274910,8630942833.194891,-8652836979.327837,-3665477381.884679,0.162736,-0.162901,-0.069060
-0.140000,1.800000,1.122091,0.040000,22988768152.442833,7094809457.455029,-7117123936.072326,-5309406453.987781,0.133796,-0.133965,-0.100032
-0.100000,1.800000,1.093505,0.040000,26113246918.126156,5244323757.211855,-5254906252.375038,-6543734603.224697,0.098866,-0.098946,-0.123288
-0.060000,1.800000,1.065653,0.040000,29229363519.395226,3136374722.978148,-3147020984.162372,-7345540926.654807,0.059151,-0.059232,-0.138394
-0.020000,1.800000,1.037012,0.040000,32340465421.439404,916814876.787914,-915545082.169672,-7700918477.799381,0.017266,-0.017257,-0.145090
0.020000,1.800000,1.008770,0.040000,35450111168.732956,-1354199374.298379,1355460189.999328,-7604022823.908981,-0.025521,0.025531,-0.143264
0.060000,1.800000,0.980753,0.040000,38561909042.932846,-3529801815.618090,3542933462.383064,-7056533831.871436,-0.066578,0.066677,-0.132949
0.100000,1.800000,0.952082,0.040000,41679347325.685982,-5550622049.420320,5563601448.164123,-6067612263.983625,-0.104650,0.104748,-0.114317
0.140000,1.800000,0.924252,0.040000,44805634209.779884,-7272337052.634085,7296920900.366138,-4654352534.264591,-0.137154,0.137339,-0.087691
0.180000,1.800000,0.895625,0.040000,47943532161.394539,-8640267956.944750,8664270534.901814,-2842678242.489202,-0.162923,0.163104,-0.053558
0.220000,1.800000,0.867344,0.040000,51095205422.640099,-9517751887.357344,9552688624.382692,-668507343.417925,-0.179517,0.179781,-0.012595
0.260000,1.800000,0.839446,0.040000,54262066688.947235,-9861752731.120583,9895151609.520254,1821025373.310461,-0.185990,0.186242,0.034309
0.300000,1.800000,0.810660,0.040000,57444643424.364670,-9552664028.430891,9595632996.532269,4566545999.254278,-0.180221,0.180544,0.086036
0.340000,1.800000,0.782861,0.040000,60642451808.426743,-8570837784.895138,8610517296.969223,7496010763.409601,-0.161704,0.162003,0.141229
0.380000,1.800000,0.754253,0.040000,63853900765.496391,-6827878744.333819,6874844602.129169,10525001670.706682,-0.128907,0.129261,0.198297
0.420000,1.800000,0.725919,0.040000,67076215583.353561,-4342879026.099698,4383915230.475749,13558306312.299995,-0.082054,0.082364,0.255446
0.460000,1.800000,0.698187,0.040000,70305404345.503159,-1074589211.522024,1119759100.201658,16492480165.069620,-0.020501,0.020842,0.310728
0.500000,1.800000,0.669242,0.040000,73536256287.614029,2905009323.663931,-2869023434.635221,19220085764.022396,0.054529,-0.054257,0.362118
0.540000,1.800000,0.641487,0.040000,76762393450.455734,7578634156.976749,-7542061527.920186,21634530971.577461,0.142579,-0.142304,0.407607
0.580000,1.800000,0.615082,0.040000,79976361425.110138,12815742855.613552,-12791521213.633020,23636380028.529709,0.241319,-0.241137,0.445323
0.620000,1.800000,0.590209,0.040000,83169775608.091049,18541026129.785908,-18519313808.695156,25139081138.034809,0.349201,-0.349037,0.473635
0.660000,1.800000,0.567068,0.040000,86333502931.235260,24574471297.529026,-24567248388.573322,26075403687.980453,0.462956,-0.462902,0.491276
0.700000,1.800000,0.545882,0.040000,89457888688.727737,30799274182.443985,-30796298558.241352,26401618505.514622,0.580259,-0.580237,0.497422
0.740000,1.800000,0.526884,0.040000,92533002288.731018,37010748753.034515,-37022593616.642601,26101574167.968994,0.697371,-0.697460,0.491769
0.780000,1.800000,0.510321,0.040000,95548905715.860596,43080425862.529694,-43096362649.077835,25187072656.949760,0.811750,-0.811870,0.474539
0.820000,1.800000,0.496435,0.040000,98495915191.411530,48812938127.859161,-48842001705.308937,23697984342.259396,0.919828,-0.920047,0.446484
0.860000,1.800000,0.485456,0.040000,101364857743.486969,54101748098.513084,-54132981899.229691,21698118882.505390,1.019485,-1.019720,0.408805
0.900000,1.800000,0.477586,0.040000,104147294706.186493,58792515491.824020,-58833630281.124191,19271694553.180668,1.107917,-1.108227,0.363090
0.940000,1.800000,0.472978,0.040000,106835716455.427567,62826269501.360466,-62866598178.696388,16516027568.076088,1.183911,-1.184215,0.311172
0.980000,1.800000,0.471730,0.040000,109423686393.555359,66108633356.656570,-66154973905.317245,13536383468.033279,1.245787,-1.246136,0.255033
1.020000,1.800000,0.471730,0.040000,111905944108.244278,68638126695.297264,-68680663046.487213,10438002582.170755,1.293423,-1.293743,0.196658
1.060000,1.800000,0.472978,0.040000,114278453569.765198,70382250165.847351,-70427259755.831894,7321813766.182414,1.326297,-1.326636,0.137947
1.100000,1.800000,0.477586,0.040000,116538411912.705612,71390822352.390244,-71429740601.796997,4278073419.496960,1.345264,-1.345558,0.080601
1.140000,1.800000,0.485456,0.040000,118684211360.821381,71681120059.755096,-71719927658.667572,1384564524.242559,1.350733,-1.351026,0.026086
1.180000,1.800000,0.496435,0.040000,120715373014.683289,71337604407.960052,-71369137377.136536,-1297098084.401946,1.344220,-1.344458,-0.024438
1.220000,1.800000,0.510321,0.040000,122632448872.563965,70408394960.440338,-70438368127.323074,-3720529792.999217,1.326704,-1.326930,-0.070097
1.260000,1.800000,0.526884,0.040000,124436910792.158997,68993092643.714844,-69015673079.080307,-5855833201.696771,1.299997,-1.300168,-0.110327
1.300000,1.800000,0.545882,0.040000,126131023717.838257,67152010776.520630,-67172552800.802498,-7686695719.473491,1.265299,-1.265454,-0.144822
1.340000,1.800000,0.567068,0.040000,127717719454.846130,64983447075.671928,-64997255611.412766,-9210140619.961079,1.224404,-1.224508,-0.173524
1.380000,1.800000,0.590209,0.040000,129200467518.733932,62545921510.815399,-62557860985.736816,-10432776686.291874,1.178469,-1.178559,-0.196560
1.420000,1.800000,0.615082,0.040000,130583155856.819214,59925752982.748917,-59932041409.829391,-11370030709.185993,1.129071,-1.129119,-0.214218
1.460000,1.800000,0.641487,0.040000,131869976669.375641,57171590531.290741,-57176503479.708557,-12042472190.946743,1.077174,-1.077211,-0.226887
1.500000,1.800000,0.669242,0.040000,133065326718.132568,54352852491.208374,-54353321281.205574,-12475199273.675016,1.024042,-1.024045,-0.235040
1.540000,1.800000,0.698187,0.040000,134173716364.563614,51505288669.186623,-51504957715.335960,-12694759496.305397,0.970388,-0.970385,-0.239177
1.580000,1.800000,0.725919,0.040000,135199693987.767151,48680793179.781128,-48677152545.877563,-12728979530.753454,0.917154,-0.917126,-0.239821
1.620000,1.800000,0.754253,0.040000,136147779655.702423,45902551759.836227,-45898626362.743469,-12604641122.287710,0.864808,-0.864779,-0.237479
1.660000,1.800000,0.782861,0.040000,137022412762.750473,43206842972.816872,-43200569928.981720,-12347767648.353069,0.814007,-0.813959,-0.232639
1.700000,1.800000,0.810660,0.040000,137827907706.512360,40606364651.670906,-40600198998.563683,-11981991252.953947,0.765013,-0.764966,-0.225748
1.740000,1.800000,0.839446,0.040000,138568421053.991211,38124774013.282516,-38117020031.165237,-11529172013.623602,0.718249,-0.718191,-0.217216
1.780000,1.800000,0.867344,0.040000,139247924844.387360,35766924166.375923,-35759536922.431541,-11008300734.335098,0.673828,-0.673772,-0.207403
1.820000,1.800000,0.895625,0.040000,139870188686.517609,33546990109.800220,-33538581601.045307,-10436294716.675146,0.631997,-0.631934,-0.196626
1.860000,1.800000,0.924252,0.040000,140438766048.010590,31464504706.389511,-31456606413.579445,-9827273425.657385,0.592765,-0.592705,-0.185152
1.900000,1.800000,0.952082,0.040000,140956986891.726929,29526951948.764763,-29518436211.590096,-9193398997.350069,0.556257,-0.556193,-0.173209
1.940000,1.800000,0.980753,0.040000,141427952834.365692,27730638753.307533,-27722687585.953949,-8544393367.236429,0.522416,-0.522356,-0.160981
1.980000,1.800000,1.008770,0.040000,141854536643.096771,26078616481.157406,-26070322169.068962,-7888334198.591063,0.491289,-0.491227,-0.148621
2.020000,1.800000,1.037012,0.040000,142239382963.330780,24565551381.593334,-24557813836.335392,-7231322728.083797,0.462785,-0.462727,-0.136242
2.060000,1.800000,1.065653,0.040000,142584911841.656281,23191778594.908318,-23183873904.145649,-6578186657.755998,0.436902,-0.436842,-0.123937
2.100000,1.800000,1.093505,0.040000,142893322554.671936,21951441323.316265,-21944046193.555500,-5932244649.314858,0.413536,-0.413480,-0.111767
2.140000,1.800000,1.122091,0.040000,143166599104.294159,20843408288.434490,-20835949087.961697,-5295900540.436125,0.392660,-0.392604,-0.099778
2.180000,1.800000,1.151358,0.040000,143406515393.252777,19862046645.106369,-19855026464.865299,-4670480797.059248,0.374173,-0.374120,-0.087995
2.220000,1.800000,1.181254,0.040000,143614641261.184845,19005667791.848915,-18998629602.255131,-4056729478.175748,0.358038,-0.357985,-0.076431
2.260000,1.800000,1.211733,0.040000,143792347766.179108,18269406257.524166,-18262718714.551586,-3454713492.858676,0.344168,-0.344118,-0.065089
2.300000,1.800000,1.242752,0.040000,143940812677.463654,17651880914.492073,-17645206132.638493,-2864215204.682112,0.332534,-0.332484,-0.053963
2.340000,1.800000,1.274272,0.040000,144061024638.970215,17150293693.167881,-17144365987.189875,-2284621943.092381,0.323088,-0.323043,-0.043044
2.380000,1.800000,1.306256,0.040000,144153785133.904388,16767687235.362679,-16759152935.951128,-1715543512.337337,0.315865,-0.315800,-0.032322
2.420000,1.800000,1.338672,0.040000,144219683976.356903,16520975415.201908,-16556368980.236990,-1299215386.189229,0.311465,-0.311732,-0.024478
2.460000,1.800000,1.371487,0.040000,144258794042.407745,16488882088.190601,-16668048189.270329,-1058941924.047550,0.311673,-0.313023,-0.019951
-2.500000,1.840000,3.274675,0.040000,75437450.418985,-14872334725164.708984,38340050659530.703125,-784500388593.573608,-412.847020,589.705169,-14.780442
-2.460000,1.840000,3.235948,0.040000,-79988761175.659271,-403521458072.842346,19795136634834.031250,-395381900956.861389,-117.207360,263.347068,-7.449224
-2.420000,1.840000,3.197252,0.040000,-79938503132.092590,-1515026503792.315918,6292844147422.627930,361630867629.649475,-55.549034,91.555776,6.813335
-2.380000,1.840000,3.158589,0.040000,-79855697041.816772,-119100571587.544083,303838620725.699951,742193474.533561,-3.288095,4.680324,0.013983
-2.340000,1.840000,3.119960,0.040000,-79739430557.256836,-21312099554.307350,21306127562.002846,-1763276731.763460,-0.401499,0.401454,-0.033221
-2.300000,1.840000,3.081366,0.040000,-79589052727.328506,-21813461745.152714,21805763525.520504,-2205269364.158408,-0.410935,0.410877,-0.041549
-2.260000,1.840000,3.042808,0.040000,-79403767212.330292,-22413817787.933514,22409041934.751865,-2654000028.881875,-0.422262,0.422226,-0.050003
-2.220000,1.840000,3.004287,0.040000,-79182605297.380936,-23138913341.689896,23130591904.596951,-3109495861.333000,-0.435904,0.435841,-0.058585
-2.180000,1.840000,2.965806,0.040000,-78924416051.475021,-23962998926.507748,23958674907.490345,-3569692688.687094,-0.451452,0.451420,-0.067255
-2.140000,1.840000,2.927366,0.040000,-78627869561.100174,-24920361748.173656,24911122343.355721,-4035217678.630900,-0.469462,0.469392,-0.076026
-2.100000,1.840000,2.888968,0.040000,-78291446994.678284,-25975135590.297348,25971503109.706688,-4503213187.650633,-0.489366,0.489339,-0.084843
-2.060000,1.840000,2.850614,0.040000,-77913445024.219711,-27172961433.628685,27162644970.708214,-4973960259.646165,-0.511896,0.511818,-0.093712
-2.020000,1.840000,2.812306,0.040000,-77491965055.818954,-28464040985.989590,28461436979.265907,-5442940730.499531,-0.536264,0.536245,-0.102548
-1.980000,1.840000,2.774045,0.040000,-77024920149.749954,-29908157729.378761,29896653017.126537,-5909468913.548451,-0.563422,0.563335,-0.111338
-1.940000,1.840000,2.735835,0.040000,-76510024017.596954,-31437309952.803326,31436187064.933331,-6366723144.519032,-0.592291,0.592282,-0.119953
-1.900000,1.840000,2.697676,0.040000,-75944801943.414093,-33128371934.851105,33115643015.032032,-6812544354.995308,-0.624086,0.623990,-0.128352
-1.860000,1.840000,2.659571,0.040000,-75326580474.649948,-34890150277.307320,34891116716.938995,-7237196506.448537,-0.657356,0.657363,-0.136353
-1.820000,1.840000,2.621523,0.040000,-74652504357.574646,-36819668563.031586,36805791146.321457,-7636567859.968971,-0.693625,0.693521,-0.143877
-1.780000,1.840000,2.583534,0.040000,-73919528340.929871,-38796745299.516747,38800606964.647850,-7997437964.178323,-0.730975,0.731004,-0.150676
-1.740000,1.840000,2.545606,0.040000,-73124442733.018280,-40941727705.923080,40926928850.552895,-8313359039.994716,-0.771282,0.771171,-0.156629
-1.700000,1.840000,2.507743,0.040000,-72263869267.512924,-43098824995.225410,43106623387.135162,-8567229424.228067,-0.812051,0.812110,-0.161412
-1.660000,1.840000,2.469947,0.040000,-71334298483.037674,-45415030309.489807,45399724288.108650,-8750152882.649248,-0.855559,0.855444,-0.164858
-1.620000,1.840000,2.432222,0.040000,-70332092079.460648,-47691600683.130127,47704634399.405594,-8841162249.608847,-0.898611,0.898709,-0.166573
-1.580000,1.840000,2.394570,0.040000,-69253535776.877899,-50105748755.430756,50090554682.621452,-8829349496.754053,-0.943935,0.943821,-0.166350
-1.540000,1.840000,2.356996,0.040000,-68094850837.760300,-52408022623.134163,52427831367.177582,-8690652263.305908,-0.987509,0.987659,-0.163737
-1.500000,1.840000,2.319503,0.040000,-66852266129.726044,-54809919521.246544,54795636833.266502,-8413500085.770950,-1.032570,1.032462,-0.158515
-1.460000,1.840000,2.282095,0.040000,-65522041197.325577,-57003719230.493164,57031999771.336922,-7972663240.976055,-1.074143,1.074356,-0.150210
-1.420000,1.840000,2.244777,0.040000,-64100560545.440239,-59240203551.544426,59227712773.223526,-7358543260.881924,-1.116049,1.115955,-0.138639
-1.380000,1.840000,2.207552,0.040000,-62584369381.088463,-61147014070.604416,61185432148.131371,-6548169236.865800,-1.152262,1.152552,-0.123371
-1.340000,1.840000,2.170426,0.040000,-60970291162.580925,-63020819553.325233,63010874581.023399,-5538040370.225240,-1.187293,1.187218,-0.104340
-1.300000,1.840000,2.133404,0.040000,-59255474415.264542,-64420799442.506004,64470669401.515015,-4312413763.101497,-1.214007,1.214383,-0.081248
-1.260000,1.840000,2.096492,0.040000,-57437530906.402893,-65698498491.335266,65691393935.447708,-2879259418.920415,-1.237758,1.237704,-0.054247
-1.220000,1.840000,2.059695,0.040000,-55514587458.878975,-66344856899.376541,66406694295.284378,-1235999684.237134,-1.250325,1.250791,-0.023287
-1.180000,1.840000,2.023019,0.040000,-53485436612.032494,-66778232939.673447,66773377815.712662,592320753.463101,-1.258113,1.258077,0.011160
-1.140000,1.840000,1.986472,0.040000,-51349581364.775307,-66426720192.887352,66499740340.884857,2589684878.403559,-1.251931,1.252481,0.048791
-1.100000,1.840000,1.950060,0.040000,-49107383571.570480,-65790101169.652306,65785610104.388214,4710088265.305477,-1.239498,1.239464,0.088741
-1.060000,1.840000,1.913791,0.040000,-46760083319.520813,-64244131007.577812,64325858174.019783,6916343064.445780,-1.210859,1.211475,0.130308
-1.020000,1.840000,1.877675,0.040000,-44309924498.122574,-62385450326.857063,62377949849.802628,9141884615.022043,-1.175336,1.175279,0.172238
-0.980000,1.840000,1.841718,0.040000,-41760126581.634354,-59551097050.802017,59637319616.861259,11331190773.374603,-1.122465,1.123114,0.213486
-0.940000,1.840000,1.805932,0.040000,-39114964837.692818,-56447008767.060051,56431886892.392303,13403976307.890812,-1.063409,1.063295,0.252539
-0.900000,1.840000,1.770326,0.040000,-36379673897.063118,-52384163907.904129,52469444536.155006,15296062903.480570,-0.987430,0.988073,0.288187
-0.860000,1.840000,1.734911,0.040000,-33560465035.448673,-48182069792.499924,48154296799.011620,16926937223.969580,-0.907621,0.907412,0.318913
-0.820000,1.840000,1.699700,0.040000,-30664350444.876514,-43132333546.694199,43211101361.833794,18239083099.302837,-0.813083,0.813677,0.343635
-0.780000,1.840000,1.664706,0.040000,-27699093093.006363,-38159588691.492493,38114986346.742546,19169008952.231709,-0.718697,0.718361,0.361155
-0.740000,1.840000,1.629942,0.040000,-24672957400.989498,-32533235279.451683,32601187059.190975,19682457531.353874,-0.613329,0.613841,0.370829
-0.700000,1.840000,1.595423,0.040000,-21594605646.399269,-27260636865.500568,27197178000.084969,19748349855.130020,-0.513248,0.512769,0.372070
-0.660000,1.840000,1.561165,0.040000,-18472799923.976238,-21576952193.234577,21632240681.084465,19367447802.619621,-0.406835,0.407251,0.364894
-0.620000,1.840000,1.527187,0.040000,-15316276340.992491,-16539718908.314623,16458305900.523123,18548662421.736877,-0.311158,0.310544,0.349468
-0.580000,1.840000,1.493508,0.040000,-12133437086.185947,-11333458031.275534,11377153454.223660,17329859209.624660,-0.213776,0.214105,0.326505
-0.540000,1.840000,1.460147,0.040000,-8932242275.104012,-7031099989.330501,6935450150.294002,15756623896.976196,-0.131929,0.131209,0.296864
-0.500000,1.840000,1.427128,0.040000,-5719933391.178249,-2752997693.394834,2788628485.302569,13895551219.597801,-0.052069,0.052338,0.261800
-0.460000,1.840000,1.394474,0.040000,-2502978582.991199,440883440.508431,-545196170.720361,11816305435.262539,0.008896,-0.009682,0.222626
-0.420000,1.840000,1.362212,0.040000,713141352.359039,3499141216.525139,-3466718184.200906,9599113073.765030,0.065743,-0.065498,0.180853
-0.380000,1.840000,1.330370,0.040000,3923913017.609555,5391220183.613737,-5498125437.982016,7321157451.342609,0.102178,-0.102984,0.137935
-0.340000,1.840000,1.298980,0.040000,7125928423.086565,7129016535.346119,-7094889628.612605,5060501349.972335,0.134122,-0.133865,0.095343
-0.300000,1.840000,1.268075,0.040000,10316787493.824255,7715436759.523568,-7819572991.235892,2887311230.644549,0.145952,-0.146737,0.054399
-0.260000,1.840000,1.237690,0.040000,13495164226.756165,8212289054.394423,-8172426247.244355,866063766.967523,0.154499,-0.154199,0.016317
-0.220000,1.840000,1.207866,0.040000,16660643505.739813,7651143264.308308,-7748539839.929000,-948849418.907341,0.144702,-0.145436,-0.017877
-0.180000,1.840000,1.178645,0.040000,19813731091.430267,7127551299.365849,-7079185661.494077,-2511566539.382999,0.134014,-0.133649,-0.047319
-0.140000,1.840000,1.150073,0.040000,22955643750.692280,5693044489.957952,-5781228894.076674,-3786020723.781275,0.107759,-0.108423,-0.071331
-0.100000,1.840000,1.122200,0.040000,26088282354.250092,4462455049.742146,-4404005802.075538,-4744686082.777982,0.083745,-0.083304,-0.089393
-0.060000,1.840000,1.093577,0.040000,29213994211.818825,2498618208.881261,-2576341617.683806,-5368272198.214443,0.047515,-0.048100,-0.101141
-0.020000,1.840000,1.065333,0.040000,32335526175.896770,925154342.031798,-855932530.346793,-5644829125.651144,0.017039,-0.016518,-0.106352
0.020000,1.840000,1.037301,0.040000,35455773845.874275,-1190607549.759459,1123745624.244772,-5569212860.416353,-0.022054,0.021550,-0.104927
0.060000,1.840000,1.008650,0.040000,38577726952.460762,-2723084329.037627,2803124767.831951,-5142722655.103380,-0.051757,0.052360,-0.096892
0.100000,1.840000,0.980795,0.040000,41704215574.650482,-4605656073.158989,4549449178.922974,-4373088997.460163,-0.086456,0.086032,-0.082392
0.140000,1.840000,0.952187,0.040000,44837856677.327904,-5716128492.732392,5806422790.093938,-3274758366.223260,-0.108206,0.108886,-0.061698
0.180000,1.840000,0.923905,0.040000,47980805525.428123,-6993629896.153658,6947253672.759949,-1869386989.389491,-0.131502,0.131152,-0.035220
0.220000,1.840000,0.895982,0.040000,51134712090.677811,-7326144659.606874,7425293484.876213,-186765251.007535,-0.138589,0.139336,-0.003519
0.260000,1.840000,0.867229,0.040000,54300487548.043816,-7664947615.064372,7626719094.749337,1734981486.281215,-0.144196,0.143908,0.032688
0.300000,1.840000,0.839397,0.040000,57478282472.396996,-6918741797.059790,7024137111.780404,3847932087.768839,-0.130949,0.131743,0.072497
0.340000,1.840000,0.810810,0.040000,60667282769.660698,-6059126544.476213,6026198426.473632,6095880758.329067,-0.113971,0.113723,0.114850
0.380000,1.840000,0.782479,0.040000,63865726268.847496,-4030252570.183445,4137788939.063858,8412380534.860040,-0.076540,0.077351,0.158494
0.420000,1.840000,0.754706,0.040000,67070746863.864403,-1832342396.083643,1800602781.735974,10725623376.722296,-0.034343,0.034104,0.202077
0.460000,1.840000,0.725811,0.040000,70278448727.946396,1538347594.888152,-1434178543.283736,12955658054.777424,0.028395,-0.027610,0.244092
0.500000,1.840000,0.698012,0.040000,73483817811.399536,5048522356.455989,-5084073401.819960,15023967677.246067,0.095318,-0.095586,0.283060
0.540000,1.840000,0.671447,0.040000,76680869465.291367,9635924186.474356,-9541339817.073933,16848813236.302061,0.181012,-0.180299,0.317441
0.580000,1.840000,0.646268,0.040000,79862639273.413330,14238741622.166643,-14283034553.090441,18359966274.598602,0.268516,-0.268850,0.345912
0.620000,1.840000,0.622641,0.040000,83021408101.799835,19722882000.584015,-19643556350.110153,19490299218.883663,0.371142,-0.370544,0.367209
0.660000,1.840000,0.600752,0.040000,86148769015.831268,25015371134.801826,-25071939375.498985,20195092377.277630,0.471624,-0.472050,0.380487
0.700000,1.840000,0.580795,0.040000,89235915436.620316,30915485185.445648,-30855122451.986443,20437583099.100403,0.582124,-0.581670,0.385056
0.740000,1.840000,0.562977,0.040000,92273761724.823639,36368811959.755096,-36438605846.786087,20211659125.351746,0.685604,-0.686130,0.380799
0.780000,1.840000,0.547507,0.040000,95253261558.052628,42122527583.645638,-42081856122.462906,19519600865.951496,0.793383,-0.793076,0.367761
0.820000,1.840000,0.534587,0.040000,98165544414.816452,47177100659.320122,-47258008958.800751,18397182716.608482,0.889301,-0.889911,0.346614
0.860000,1.840000,0.524408,0.040000,101002220725.996674,52245218073.267616,-52221881894.640701,16883306183.200621,0.984198,-0.984022,0.318091
0.900000,1.840000,0.517131,0.040000,103755492323.765869,56415957138.644867,-56503308898.365387,15047343549.171721,1.063403,-1.064061,0.283501
0.940000,1.840000,0.512879,0.040000,106418403697.213379,60380467764.826584,-60369871409.967545,12952118019.083025,1.137543,-1.137463,0.244025
0.980000,1.840000,0.511727,0.040000,108984893809.600708,63339144289.711792,-63426984749.979271,10684042884.149582,1.193843,-1.194505,0.201294
1.020000,1.840000,0.511727,0.040000,111449967839.188339,65964708417.957222,-65961415326.849930,8312083349.710079,1.242795,-1.242770,0.156604
1.060000,1.840000,0.512879,0.040000,113809676340.888641,67576591708.590446,-67659179388.131805,5921270143.661241,1.273649,-1.274271,0.111560
1.100000,1.840000,0.517131,0.040000,116061202414.727036,68822024751.642212,-68821114670.383804,3570422263.467638,1.296642,-1.296635,0.067269
1.140000,1.840000,0.524408,0.040000,118202773922.353394,69133657291.117432,-69206620644.211960,1328925085.356464,1.302931,-1.303480,0.025038
1.180000,1.840000,0.534587,0.040000,120233678906.436569,69119843348.288361,-69117779208.716599,-764678916.021834,1.302246,-1.302231,-0.014407
1.220000,1.840000,0.547507,0.040000,122154130398.713333,68312091462.253380,-68372953604.250031,-2663677789.669329,1.287383,-1.287842,-0.050185
1.260000,1.840000,0.562977,0.040000,123965232883.609055,67265565496.602562,-67260440840.987976,-4352536791.752147,1.267293,-1.267255,-0.082004
1.300000,1.840000,0.580795,0.040000,125668824274.701248,65593357261.894020,-65641462428.027206,-5807301004.795480,1.236089,-1.236451,-0.109413
1.340000,1.840000,0.600752,0.040000,127267417616.948105,63786561027.747719,-63777870458.453056,-7032374095.619120,1.201727,-1.201661,-0.132494
1.380000,1.840000,0.622641,0.040000,128764042373.874939,61523774895.243263,-61559846491.997551,-8022076944.308854,1.159347,-1.159619,-0.151141
1.420000,1.840000,0.646268,0.040000,130162181022.839005,59226679311.530952,-59214861777.263664,-8794684431.180000,1.115798,-1.115709,-0.165697
1.460000,1.840000,0.671447,0.040000,131465625291.043686,56626453263.403069,-56652039960.332069,-9356547206.532751,1.067020,-1.067213,-0.176283
1.500000,1.840000,0.698012,0.040000,132678420368.284256,54075546384.977493,-54061516035.520874,-9733292652.147310,1.018735,-1.018630,-0.183381
1.540000,1.840000,0.725811,0.040000,133804744459.567825,51348180676.752556,-51365168505.358307,-9937399499.149183,0.967526,-0.967654,-0.187226
1.580000,1.840000,0.754706,0.040000,134848866760.941452,48732017597.572525,-48716801733.131905,-9996461896.308270,0.918053,-0.917939,-0.188339
1.620000,1.840000,0.782479,0.040000,135815052720.420380,46037504507.857285,-46047772257.617561,-9924611787.662317,0.867431,-0.867509,-0.186985
1.660000,1.840000,0.810810,0.040000,136707537061.705811,43494562215.217064,-43479078485.803436,-9747755260.000156,0.819375,-0.819259,-0.183653
1.700000,1.840000,0.839397,0.040000,137530453199.829102,40944869559.969788,-40950090942.028275,-9478868031.751507,0.771455,-0.771494,-0.178587
1.740000,1.840000,0.867229,0.040000,138287819699.407257,38568783043.647301,-38553736231.187904,-9140169143.439041,0.726573,-0.726460,-0.172206
1.780000,1.840000,0.895982,0.040000,138983490238.636322,36235286325.643723,-36236846334.239967,-8742086350.599260,0.682703,-0.682714,-0.164706
1.820000,1.840000,0.923905,0.040000,139621150590.568176,34083412615.719498,-34069272935.990746,-8302416868.477026,0.642071,-0.641965,-0.156422
1.860000,1.840000,0.952187,0.040000,140204284857.698212,32006089016.260384,-32005074008.739475,-7828644035.121191,0.603008,-0.603000,-0.147496
1.900000,1.840000,0.980795,0.040000,140736179824.855011,30108690335.422356,-30095717006.140110,-7334220461.491410,0.567192,-0.567094,-0.138181
1.940000,1.840000,1.008650,0.040000,141219903349.799042,28305017820.668427,-28302245286.237041,-6823877461.528201,0.533267,-0.533246,-0.128566
1.980000,1.840000,1.037301,0.040000,141658313272.358551,26673569482.824692,-26661853132.725033,-6307232518.213717,0.502479,-0.502391,-0.118832
2.020000,1.840000,1.065333,0.040000,142054044415.832092,25146124610.721882,-25142189339.758709,-5786737873.050962,0.473745,-0.473716,-0.109025
2.060000,1.840000,1.093577,0.040000,142409519809.668793,23780118137.759064,-23769626185.539028,-5268853897.536680,0.447972,-0.447893,-0.099268
2.100000,1.840000,1.122200,0.040000,142726943455.228607,22522547127.086426,-22517870332.384239,-4754313498.347476,0.424311,-0.424276,-0.089574
2.140000,1.840000,1.150073,0.040000,143008312230.035339,21414673026.917973,-21405290287.243305,-4247119029.103045,0.403412,-0.403341,-0.080018
2.180000,1.840000,1.178645,0.040000,143255412249.816345,20416080620.187031,-20410955050.775967,-3746848325.237705,0.384622,-0.384583,-0.070593
2.220000,1.840000,1.207866,0.040000,143469830372.901581,19555942011.197159,-19547500998.609932,-3255740958.369122,0.368398,-0.368334,-0.061340
2.260000,1.840000,1.237690,0.040000,143652952562.824493,18803972646.730125,-18798587301.436806,-2772849709.239810,0.354247,-0.354207,-0.052242
2.300000,1.840000,1.268075,0.040000,143805974288.717194,18180797622.341526,-18173011221.122799,-2299494338.867992,0.342493,-0.342434,-0.043324
2.340000,1.840000,1.298980,0.040000,143929899559.676758,17663832983.773609,-17657552337.349579,-1835063544.213244,0.332761,-0.332714,-0.034574
2.380000,1.840000,1.330370,0.040000,144025550684.727600,17270846474.733585,-17272199370.643932,-1380902412.199328,0.325400,-0.325411,-0.026017
2.420000,1.840000,1.362212,0.040000,144093591617.230042,17003752596.516447,-17087657896.231451,-1051544673.220065,0.320835,-0.321467,-0.019812
2.460000,1.840000,1.394474,0.040000,144134862618.466888,16703746230.891867,-16769685139.395317,-865495179.154606,0.315081,-0.315578,-0.016306
-2.500000,1.880000,3.284855,0.040000,-39942092934.394867,358844588830.003723,24002985627303.218750,-3235047454123.579102,-130.936461,314.532863,-60.950169
-2.460000,1.880000,3.246250,0.040000,-79869080636.001633,1431418576844.474609,16584959515478.511719,-1916622317866.708008,-74.862946,210.638549,-36.110276
-2.420000,1.880000,3.207679,0.040000,-79818935058.447250,-870521256352.914185,5340869183657.744141,-1274082307155.229736,-41.668309,75.357888,-24.004449
-2.380000,1.880000,3.169143,0.040000,-79734651983.258743,-72037974832.430084,169565419487.794373,-5152746368.467841,-1.908479,2.643469,-0.097081
-2.340000,1.880000,3.130644,0.040000,-79616221866.260223,-21452133009.198055,21602304178.528950,-1317092477.090860,-0.405019,0.406151,-0.024815
-2.300000,1.880000,3.092183,0.040000,-79463074995.690918,-22195190213.636082,22202313114.212650,-1655477523.877747,-0.418211,0.418264,-0.031190
-2.260000,1.880000,3.053761,0.040000,-79274382996.332520,-22451362468.484104,22673942790.757061,-1986881940.245768,-0.424255,0.425932,-0.037434
-2.220000,1.880000,3.015381,0.040000,-79049194200.917236,-23532041095.662857,23540990249.186283,-2337789247.576066,-0.443408,0.443475,-0.044045
-2.180000,1.880000,2.977043,0.040000,-78786321243.293549,-23892569525.146893,24189439338.553291,-2674659031.290952,-0.451828,0.454065,-0.050392
-2.140000,1.880000,2.938750,0.040000,-78484459443.216553,-25324742868.336163,25334257687.583599,-3034035812.237544,-0.477187,0.477258,-0.057163
-2.100000,1.880000,2.900502,0.040000,-78142049957.798782,-25788581745.112350,26162141530.527206,-3372964788.787030,-0.487983,0.490798,-0.063549
-2.060000,1.880000,2.862303,0.040000,-77757425373.198090,-27587131175.237637,27595737665.316513,-3737324078.738486,-0.519806,0.519871,-0.070413
-2.020000,1.880000,2.824153,0.040000,-77328643671.801834,-28148150813.265545,28601851096.346245,-4072748199.054192,-0.532892,0.536311,-0.076733
-1.980000,1.880000,2.786056,0.040000,-76853669827.650635,-30326522447.129623,30332542044.091244,-4435076699.609534,-0.571403,0.571449,-0.083559
-1.940000,1.880000,2.748012,0.040000,-76330172765.496368,-30971678304.625801,31509924117.663937,-4756820367.926317,-0.586567,0.590623,-0.089621
-1.900000,1.880000,2.710025,0.040000,-75755752898.285172,-33539339947.076260,33540840144.889748,-5104736916.924774,-0.631909,0.631920,-0.096176
-1.860000,1.880000,2.672096,0.040000,-75127694020.970200,-34245531460.893623,34873538568.656120,-5396404452.147675,-0.648755,0.653488,-0.101671
-1.820000,1.880000,2.634229,0.040000,-74443248159.310455,-37203959021.234581,37198694000.955833,-5710597306.244175,-0.700914,0.700875,-0.107591
-1.780000,1.880000,2.596426,0.040000,-73699333965.423248,-37933655337.953690,38657248115.354401,-5948114841.571631,-0.718782,0.724235,-0.112066
-1.740000,1.880000,2.558689,0.040000,-72892891679.525528,-41270953523.941971,41256300127.823189,-6200965627.801435,-0.777486,0.777375,-0.116830
-1.700000,1.880000,2.521022,0.040000,-72020519136.972427,-41966775337.510529,42792105969.697479,-6351488077.590612,-0.795343,0.801563,-0.119666
-1.660000,1.880000,2.483429,0.040000,-71078910992.035065,-45651087776.406746,45623976945.816025,-6506284039.705966,-0.859940,0.859735,-0.122582
-1.620000,1.880000,2.445911,0.040000,-70064422915.088470,-46229720278.721558,47162882742.153282,-6528028004.313328,-0.876269,0.883302,-0.122992
-1.580000,1.880000,2.408474,0.040000,-68973610269.868561,-50201894585.327591,50158734838.800529,-6539464883.510899,-0.945589,0.945264,-0.123207
-1.540000,1.880000,2.371120,0.040000,-67802710402.780441,-50548154273.138641,51594664773.847694,-6383307375.588466,-0.958272,0.966158,-0.120265
-1.500000,1.880000,2.333854,0.040000,-66548296348.624054,-54714705447.612236,54651292378.466354,-6200238456.546148,-1.030498,1.030020,-0.116816
-1.460000,1.880000,2.296680,0.040000,-65206666148.009834,-54677272081.567108,55841392806.518158,-5814113841.483609,-1.036731,1.045504,-0.109541
-1.420000,1.880000,2.259602,0.040000,-63774626406.704681,-58905502608.742340,58816908228.434807,-5385596165.139849,-1.109313,1.108645,-0.101468
-1.380000,1.880000,2.222626,0.040000,-62248776132.076492,-58296674028.288368,59580574608.634422,-4722653780.361032,-1.105600,1.115276,-0.088978
-1.340000,1.880000,2.185756,0.040000,-60626432556.420746,-62414718820.663689,62295160943.720146,-4008052470.233738,-1.175254,1.174353,-0.075514
-1.300000,1.880000,2.148998,0.040000,-58904794908.570137,-61017300680.650902,62420088792.065392,-3038940145.543568,-1.157530,1.168102,-0.057255
-1.260000,1.880000,2.112358,0.040000,-57082020404.818741,-64822507974.190643,64665218452.976112,-2021899090.086501,-1.220405,1.219219,-0.038094
-1.220000,1.880000,2.075842,0.040000,-55156250734.499451,-62407110589.892540,63923824985.223923,-750165953.035143,-1.184359,1.195789,-0.014134
-1.180000,1.880000,2.039457,0.040000,-53126839484.302307,-65685913802.252098,65483059034.424164,545524460.342990,-1.236414,1.234885,0.010278
-1.140000,1.880000,2.003210,0.040000,-50993221466.378571,-62040765663.725662,63661507855.147781,2068057260.318364,-1.178045,1.190259,0.038963
-1.100000,1.880000,1.967108,0.040000,-48756284777.447807,-64601269709.835617,64344021765.824760,3565024035.762239,-1.215671,1.213733,0.067167
-1.060000,1.880000,1.931160,0.040000,-46417061711.394669,-59573496668.989578,61282958202.968704,5228422628.469618,-1.132061,1.144944,0.098507
-1.020000,1.880000,1.895374,0.040000,-43978230856.234665,-61287919190.116646,60966807366.229172,6791032848.802626,-1.152885,1.150465,0.127947
-0.980000,1.880000,1.859759,0.040000,-41442610195.335098,-54830075739.481903,56607748200.413704,8429663656.606301,-1.043078,1.056475,0.158820
-0.940000,1.880000,1.824327,0.040000,-38814769612.024712,-55678513094.963760,55284161995.400070,9874461562.935724,-1.046787,1.043815,0.186041
-0.900000,1.880000,1.789087,0.040000,-36099314006.108040,-47888402757.270866,49709677143.673607,11286771978.985807,-0.912539,0.926265,0.212649
-0.860000,1.880000,1.754052,0.040000,-33302586731.974663,-47990338310.679405,47514582290.706390,12410924539.534420,-0.901477,0.897891,0.233829
-0.820000,1.880000,1.719233,0.040000,-30430744146.667362,-39128858542.860428,40966999419.713165,13396312750.981096,-0.747600,0.761453,0.252394
-0.780000,1.880000,1.684644,0.040000,-27491536749.477234,-38747860427.998177,38185026198.174706,14020019189.283796,-0.726851,0.722609,0.264145
-0.740000,1.880000,1.650300,0.040000,-24492195040.026913,-29222211803.940216,31050882296.687298,14424641593.142628,-0.560899,0.574681,0.271769
-0.700000,1.880000,1.616216,0.040000,-21441285596.943371,-28735136279.103405,28083096823.807655,14435739807.793402,-0.537701,0.532787,0.271978
-0.660000,1.880000,1.582409,0.040000,-18346446977.023014,-19044528156.959175,20840290027.206078,14192692016.122437,-0.368960,0.382493,0.267399
-0.620000,1.880000,1.548897,0.040000,-15216328210.866196,-18878564273.802299,18139127092.737152,13577841610.591963,-0.351504,0.345931,0.255814
-0.580000,1.880000,1.515700,0.040000,-12058226618.555412,-9533374155.790237,11277554067.359167,12726787829.918324,-0.189473,0.202617,0.239780
-0.540000,1.880000,1.482838,0.040000,-8880121203.418243,-10087216777.192104,9265599590.174759,11577172951.444227,-0.185405,0.179213,0.218121
-0.500000,1.880000,1.450335,0.040000,-5688266921.687198,-1523523731.787131,3203070612.194066,10255817134.362219,-0.038197,0.050855,0.193226
-0.460000,1.880000,1.418216,0.040000,-2489332567.333782,-3095688343.500298,2199185806.830799,8745423433.373672,-0.053257,0.046501,0.164769
-0.420000,1.880000,1.386507,0.040000,712002537.809126,4391142907.262973,-2783808973.142953,7156770018.206892,0.073647,-0.061534,0.134838
-0.380000,1.880000,1.355236,0.040000,3910805982.198891,1647414852.564016,-2611154444.119446,5502467395.930876,0.036485,-0.043748,0.103670
-0.340000,1.880000,1.324435,0.040000,7104263274.651662,7934927769.516438,-6402769814.107759,3871064908.421993,0.140839,-0.129292,0.072933
-0.300000,1.880000,1.294138,0.040000,10289341839.675577,4022373780.389339,-5046937437.188214,2289666899.455763,0.081575,-0.089296,0.043139
-0.260000,1.880000,1.264380,0.040000,13465117438.017857,9157493190.630547,-7700014444.217575,822071903.063803,0.164295,-0.153311,0.015488
-0.220000,1.880000,1.235201,0.040000,16630364504.866159,4216301720.570208,-5297572966.425072,-502341533.996683,0.085549,-0.093698,-0.009464
-0.180000,1.880000,1.206642,0.040000,19785839615.527061,8386040008.423251,-7000441439.585844,-1642779268.947465,0.150166,-0.139724,-0.030951
-0.140000,1.880000,1.178749,0.040000,22931820942.798290,2659095377.944861,-3795645236.837543,-2575305462.281466,0.056523,-0.065088,-0.048520
-0.100000,1.880000,1.150142,0.040000,26070358360.398758,6149940865.414359,-4832149250.888330,-3277491805.534634,0.108420,-0.098489,-0.061750
-0.060000,1.880000,1.121895,0.040000,29202782563.967667,-54705683.936455,-1138182554.908951,-3734604273.318717,0.005712,-0.014702,-0.070362
-0.020000,1.880000,1.093850,0.040000,32331934019.317059,3103213129.244876,-1848784836.589608,-3937489794.757835,0.051376,-0.041922,-0.074185
0.020000,1.880000,1.065219,0.040000,35459657338.475349,-3237825223.039127,1985644524.878681,-3881849039.168121,-0.053925,0.044488,-0.073136
0.060000,1.880000,1.037340,0.040000,38589020824.729462,-41221618.621108,1236264150.117184,-3568626071.006725,-0.007531,0.016537,-0.067235
0.100000,1.880000,1.008749,0.040000,41721807126.920906,-6168843195.502125,4853313301.567048,-3003989639.691152,-0.108789,0.098875,-0.056597
0.140000,1.880000,0.980468,0.040000,44860734029.245201,-2564921919.017734,3703286992.272033,-2199133535.491554,-0.054759,0.063338,-0.041433
0.180000,1.880000,0.952523,0.040000,48006950611.116562,-8142350510.457194,6759165136.506785,-1170091828.129065,-0.145589,0.135165,-0.022045
0.220000,1.880000,0.923798,0.040000,51162269682.392769,-3793812074.312605,4876204286.854333,58184202.101961,-0.077595,0.085753,0.001096
0.260000,1.880000,0.895937,0.040000,54326680570.962791,-8521663000.913256,7067130994.741904,1461481047.660752,-0.152332,0.141370,0.027535
0.300000,1.880000,0.867369,0.040000,57500604298.962425,-3155743403.518867,4180321180.989961,2995634945.043180,-0.065247,0.072969,0.056439
0.340000,1.880000,0.839041,0.040000,60682438894.704689,-6803439430.102859,5275387614.105117,4632308876.963944,-0.119544,0.108028,0.087275
0.380000,1.880000,0.811231,0.040000,63870848644.923920,-251297769.954422,1213518434.995427,6303167364.202894,-0.010173,0.017425,0.118755
0.420000,1.880000,0.782379,0.040000,67062363090.934700,-2694363625.323941,1093138866.846441,7983667772.277775,-0.041713,0.029646,0.150417
0.460000,1.880000,0.754544,0.040000,70253709014.723160,5068663255.882476,-4175608820.819003,9579428864.821861,0.090449,-0.083719,0.180482
0.500000,1.880000,0.727844,0.040000,73439486774.276352,3813799096.089873,-5484211127.743550,11082134085.714684,0.081296,-0.093884,0.208794
0.540000,1.880000,0.702408,0.040000,76614545640.329376,12639227341.914431,-11823298437.026445,12374075681.434298,0.233519,-0.227370,0.233135
0.580000,1.880000,0.678379,0.040000,79771758127.789352,12396858877.242638,-14127717845.479389,13478846959.933176,0.243347,-0.256391,0.253949
0.620000,1.880000,0.655910,0.040000,82904425094.562561,21960493590.344540,-21229141918.384113,14262127081.173700,0.409615,-0.404103,0.268707
0.660000,1.880000,0.635168,0.040000,86004159763.177933,22407472491.299191,-24184474715.804672,14794803269.481966,0.432214,-0.445606,0.278743
0.700000,1.880000,0.616327,0.040000,89063290914.253967,32243904338.793442,-31602283475.356277,14933891007.095778,0.603867,-0.599032,0.281363
0.740000,1.880000,0.599566,0.040000,92072856158.764069,32957353309.618134,-34760546062.642693,14807777395.704369,0.631128,-0.644717,0.278987
0.780000,1.880000,0.585064,0.040000,95024955012.133377,42530140692.957764,-41979735943.023087,14270391342.250208,0.798182,-0.794034,0.268862
0.820000,1.880000,0.572992,0.040000,97910840885.387741,43062963206.014122,-44867704067.241325,13508595324.779413,0.821532,-0.835133,0.254510
0.860000,1.880000,0.563507,0.040000,100723167200.397018,51854531872.195007,-51392654382.139137,12374048415.805538,0.974359,-0.970878,0.233134
0.900000,1.880000,0.556741,0.040000,103454164389.906738,51818127907.343910,-53597090049.286423,11102754868.861271,0.986339,-0.999745,0.209182
0.940000,1.880000,0.552794,0.040000,106097725486.412521,59414255299.464783,-59034507086.274094,9540444596.421692,1.117253,-1.114391,0.179748
0.980000,1.880000,0.551725,0.040000,108647659682.766159,58543966434.805458,-60269790254.213356,7955191224.968803,1.112757,-1.125763,0.149880
1.020000,1.880000,0.551725,0.040000,111099578184.979111,64689563842.081734,-64383004018.570358,6181384652.718143,1.217056,-1.214746,0.116461
1.060000,1.880000,0.552794,0.040000,113449226763.992996,62875570778.925072,-64523512647.948097,4499278338.583686,1.193927,-1.206346,0.084769
1.100000,1.880000,0.556741,0.040000,115694152962.703613,67490255240.297371,-67246794325.831718,2728219567.421268,1.270179,-1.268345,0.051401
1.140000,1.880000,0.563507,0.040000,117832131188.330597,64770577499.308281,-66320544187.641365,1142861696.086457,1.229076,-1.240757,0.021532
1.180000,1.880000,0.572992,0.040000,119862612044.109314,67927389279.032974,-67736984495.531868,-452187284.686762,1.278715,-1.277280,-0.008519
1.220000,1.880000,0.585064,0.040000,121785260083.283508,64452545086.259560,-65890175780.450523,-1800490890.128647,1.222449,-1.233283,-0.033922
1.260000,1.880000,0.599566,0.040000,123601200300.802078,66333647430.508316,-66187078313.998962,-3107623150.192090,1.248936,-1.247831,-0.058549
1.300000,1.880000,0.616327,0.040000,125311688717.583633,62318767566.069130,-63635559523.378693,-4142158867.437593,1.181564,-1.191488,-0.078041
1.340000,1.880000,0.635168,0.040000,126919178368.246582,63164653350.448708,-63053872440.151360,-5112472987.749540,1.189433,-1.188598,-0.096322
1.380000,1.880000,0.655910,0.040000,128426137408.158096,58843675616.948967,-60036386507.569542,-5814202765.354587,1.115390,-1.124379,-0.109543
1.420000,1.880000,0.678379,0.040000,129835958426.901398,58908714321.812019,-58826893119.273430,-6450393071.531673,1.109412,-1.108795,-0.121529
1.460000,1.880000,0.702408,0.040000,131151930409.812225,54499728494.320755,-55569371929.481529,-6842799360.985673,1.032852,-1.040913,-0.128922
1.500000,1.880000,0.727844,0.040000,132378013230.749496,54020588739.609566,-53962003326.726387,-7182028237.243917,1.017448,-1.017007,-0.135314
1.540000,1.880000,0.754544,0.040000,133517961253.777374,49705225165.586052,-50655939350.408173,-7313598815.120178,0.941849,-0.949014,-0.137792
1.580000,1.880000,0.782379,0.040000,134575981589.832184,48883099568.350456,-48842964472.321877,-7410601983.748362,0.920759,-0.920457,-0.139620
1.620000,1.880000,0.811231,0.040000,135556000201.316025,44798445919.204933,-45636424821.471619,-7339612629.407785,0.848765,-0.855080,-0.138283
1.660000,1.880000,0.839041,0.040000,136462219334.043182,43792609417.665199,-43766918237.441414,-7253400823.823255,0.824933,-0.824739,-0.136658
1.700000,1.880000,0.867369,0.040000,137298512416.524704,40032093664.105240,-40764678325.045158,-7037065474.962757,0.758369,-0.763889,-0.132582
1.740000,1.880000,0.895937,0.040000,138068893588.735138,38961118962.208199,-38946511882.619667,-6822242060.262412,0.733968,-0.733857,-0.128535
1.780000,1.880000,0.923798,0.040000,138777025392.021027,35580575975.103111,-36215535735.318886,-6510366003.679753,0.673948,-0.678733,-0.122659
1.820000,1.880000,0.952523,0.040000,139426611568.826752,34527759309.054512,-34521417026.810150,-6212594931.707472,0.650487,-0.650439,-0.117049
1.860000,1.880000,0.980468,0.040000,140021001028.067291,31553646624.740917,-32098639916.712189,-5844843319.075145,0.597569,-0.601677,-0.110120
1.900000,1.880000,1.008749,0.040000,140563513907.553040,30574061670.643314,-30573618221.362831,-5499368703.053980,0.576031,-0.576027,-0.103611
1.940000,1.880000,1.037340,0.040000,141057125978.978790,28011814030.915829,-28473999843.457691,-5104965611.970409,0.530371,-0.533854,-0.096181
1.980000,1.880000,1.065219,0.040000,141504737129.536499,27139362566.697834,-27142829700.810802,-4737026861.464149,0.511341,-0.511367,-0.089248
2.020000,1.880000,1.093850,0.040000,141908921716.629913,24980782315.799446,-25366548449.938992,-4335821725.807445,0.472833,-0.475740,-0.081689
2.060000,1.880000,1.121895,0.040000,142272147971.321869,24234377966.113369,-24240076512.930096,-3962033506.503137,0.456622,-0.456665,-0.074647
2.100000,1.880000,1.150142,0.040000,142596581438.906036,22463599745.267761,-22778376402.536201,-3566159997.248585,0.425006,-0.427379,-0.067189
2.140000,1.880000,1.178749,0.040000,142884263246.780975,21852123094.619354,-21858620298.883602,-3196238051.146785,0.411743,-0.411792,-0.060219
2.180000,1.880000,1.206642,0.040000,143136955432.006256,20450045004.074978,-20698178911.866314,-2811916965.417450,0.386693,-0.388563,-0.052978
2.220000,1.880000,1.235201,0.040000,143356285542.760895,19975937826.129166,-19981994271.320858,-2450487542.837799,0.376392,-0.376438,-0.046169
2.260000,1.880000,1.264380,0.040000,143543624253.695831,18923102784.282257,-19107776902.439453,-2079994528.659270,0.357566,-0.358958,-0.039188
2.300000,1.880000,1.294138,0.040000,143700203428.074432,18584603917.671143,-18589168625.887989,-1729027212.318748,0.350171,-0.350205,-0.032576
2.340000,1.880000,1.324435,0.040000,143827017698.326050,17863765502.912239,-17987433163.679840,-1374437479.937766,0.337263,-0.338195,-0.025895
2.380000,1.880000,1.355236,0.040000,143924920424.888519,17662769745.328938,-17662451722.263184,-1039819045.882867,0.332775,-0.332773,-0.019591
2.420000,1.880000,1.386507,0.040000,143994511948.548096,17284648229.760201,-17360453446.245548,-790827925.641000,0.326081,-0.326653,-0.014900
2.460000,1.880000,1.418216,0.040000,144035892811.173676,-14220610648.623829,-118731666458.046738,34921616291.953690,0.483545,-1.485504,0.657943
-2.500000,1.920000,3.295490,0.040000,-79773721575.563461,21979295481209.589844,13772522195061.335938,4128386713799.771484,212.027177,57.406811,77.781199
-2.460000,1.920000,3.257011,0.040000,-79785214471.951782,5804493140759.173828,14346747267675.994141,2146528140522.489746,-4.538300,156.402720,40.441835
-2.420000,1.920000,3.218568,0.040000,-79733120769.822052,46928074551.164818,4656956802645.899414,871369924243.527954,-25.703023,61.152590,16.417115
-2.380000,1.920000,3.180164,0.040000,-79647727367.921463,-21662254309.391106,35522822161.827209,703298326.791896,-0.486472,0.590928,0.013251
-2.340000,1.920000,3.141800,0.040000,-79527664082.723312,-17672428183.737103,21047094501.137390,-1258273883.474676,-0.352033,0.377465,-0.023707
-2.300000,1.920000,3.103478,0.040000,-79372652266.770996,-16851727535.881910,21861994779.149445,-1802259132.956462,-0.345815,0.383574,-0.033956
-2.260000,1.920000,3.065198,0.040000,-79181422047.253845,-16843349441.914127,21757473560.457584,-1695111872.816729,-0.345114,0.382148,-0.031937
-2.220000,1.920000,3.026963,0.040000,-78953486641.198578,-16128725044.637394,22985142379.130360,-2264626982.876199,-0.342628,0.394300,-0.042667
-2.180000,1.920000,2.988773,0.040000,-78687128123.897308,-16486307756.733128,22903394831.371647,-2143384352.634760,-0.346882,0.395243,-0.040383
-2.140000,1.920000,2.950632,0.040000,-78381630009.438660,-15865034373.157919,24568326693.692642,-2742490253.504694,-0.348099,0.413689,-0.051670
-2.100000,1.920000,2.912541,0.040000,-78034763425.438370,-16596588353.082829,24498902773.119896,-2598960646.716535,-0.357355,0.416908,-0.048966
-2.060000,1.920000,2.874501,0.040000,-77645614257.984894,-16048768171.329765,26622359345.815399,-3231397586.226840,-0.362132,0.441817,-0.060881
-2.020000,1.920000,2.836516,0.040000,-77211388344.779907,-17162971953.377630,26546540173.144333,-3055141846.401628,-0.376398,0.447115,-0.057561
-1.980000,1.920000,2.798586,0.040000,-76731018108.788101,-16664560684.964647,29149686711.676800,-3721607927.511098,-0.384538,0.478629,-0.070117
-1.940000,1.920000,2.760715,0.040000,-76201092576.621674,-18170460255.306614,29039772887.437580,-3498797535.706634,-0.403777,0.485691,-0.065919
-1.900000,1.920000,2.722905,0.040000,-75620448768.464737,-17691507364.380386,32141529086.147438,-4195865037.984535,-0.414992,0.523891,-0.079053
-1.860000,1.920000,2.685159,0.040000,-74985013002.976715,-19595790667.541214,31957766409.730999,-3908578993.183873,-0.439068,0.532231,-0.073640
-1.820000,1.920000,2.647478,0.040000,-74293604490.368256,-19097276667.634045,35570914751.303757,-4627505725.222782,-0.452916,0.577065,-0.087185
-1.780000,1.920000,2.609867,0.040000,-73541452333.416641,-21400232068.966125,35257278365.427849,-4253135310.629570,-0.481515,0.585945,-0.080132
-1.740000,1.920000,2.572328,0.040000,-72727462514.102798,-20830054694.149574,39383256564.119041,-4978643475.380824,-0.497316,0.637137,-0.093801
-1.700000,1.920000,2.534864,0.040000,-71846151782.066055,-23520448082.970966,38862488242.433411,-4489677255.120587,-0.529855,0.645476,-0.084588
-1.660000,1.920000,2.497478,0.040000,-70896653057.398376,-22808884919.682026,43485088961.215820,-5199018624.896193,-0.546598,0.702419,-0.097953
-1.620000,1.920000,2.460175,0.040000,-69872784785.955322,-25858057660.257919,42653513459.289009,-4563639166.899099,-0.582112,0.708686,-0.085982
-1.580000,1.920000,2.422958,0.040000,-68774091430.046356,-24913280345.998741,47731992042.844810,-5226439406.419732,-0.598356,0.770323,-0.098469
-1.540000,1.920000,2.385831,0.040000,-67593747184.384163,-28269151356.149311,46455074086.490898,-4410501445.892430,-0.635397,0.772451,-0.083096
-1.500000,1.920000,2.348798,0.040000,-66331944620.039047,-26973835453.785000,51917694106.889160,-4990044382.824534,-0.649190,0.837172,-0.094015
-1.460000,1.920000,2.311864,0.040000,-64981317856.437462,-30556077217.132877,50027916398.951149,-3961069955.898959,-0.685752,0.832497,-0.074629
-1.420000,1.920000,2.275034,0.040000,-63542999717.778679,-28766752592.448490,55767664067.848511,-4417752112.042055,-0.694596,0.898081,-0.083233
-1.380000,1.920000,2.238313,0.040000,-62009245133.861176,-32465100336.904106,53066978538.960609,-3151442018.901289,-0.728107,0.883367,-0.059375
-1.340000,1.920000,2.201706,0.040000,-60382470960.002541,-30016454409.119072,58941887065.860878,-3448944693.071876,-0.729019,0.947008,-0.064980
-1.300000,1.920000,2.165219,0.040000,-58654769607.631691,-33694665873.019741,55211445283.476242,-1938201988.902931,-0.756444,0.918599,-0.036517
-1.260000,1.920000,2.128858,0.040000,-56830221514.623062,-30411222733.626572,61052351716.014122,-2052317245.536494,-0.746154,0.977073,-0.038667
-1.220000,1.920000,2.092630,0.040000,-54901016030.129364,-33919214697.282879,56072000285.897095,-317782372.579301,-0.764269,0.931218,-0.005987
-1.180000,1.920000,2.056542,0.040000,-52873280751.788094,-29636184248.601330,61700092508.494553,-246700310.978367,-0.739594,0.981235,-0.004648
-1.140000,1.920000,2.020601,0.040000,-50739575368.093590,-32831788126.711365,55278663159.855690,1653623862.383904,-0.745444,0.914608,0.031155
-1.100000,1.920000,1.984816,0.040000,-48508412996.466812,-27424920263.185837,60533315107.669334,1880232854.523699,-0.703836,0.953348,0.035425
-1.060000,1.920000,1.949194,0.040000,-46172965642.146339,-30204107572.393192,52547659051.539413,3846091711.888894,-0.695353,0.863739,0.072463
-1.020000,1.920000,1.913745,0.040000,-43744361680.739273,-23624959551.394741,57321592241.859917,4163085117.305710,-0.635567,0.889513,0.078435
-0.980000,1.920000,1.878479,0.040000,-41216539032.915459,-25955461979.318489,47757878109.137901,6056152041.397959,-0.612247,0.776555,0.114101
-0.940000,1.920000,1.843407,0.040000,-38603295277.864914,-18264297515.638489,52032282422.739388,6367893267.447828,-0.534972,0.789456,0.119975
-0.900000,1.920000,1.808539,0.040000,-35899342986.188965,-20213503897.675564,41018696008.599609,8027941907.447688,-0.498429,0.655221,0.151251
-0.860000,1.920000,1.773888,0.040000,-33120973494.982052,-11598902220.307339,44887410915.849434,8224034782.422338,-0.406682,0.657552,0.154946
-0.820000,1.920000,1.739466,0.040000,-30263499556.990898,-13344991472.865648,32705519444.774277,9496276369.954912,-0.360856,0.506762,0.178915
-0.780000,1.920000,1.705287,0.040000,-27345281697.832394,-4119581435.703688,36377234447.090042,9475742677.602217,-0.259941,0.503042,0.178528
-0.740000,1.920000,1.671367,0.040000,-24361872780.697479,-5937312215.164682,23442335630.667862,10243414453.327616,-0.210804,0.342726,0.192992
-0.700000,1.920000,1.637722,0.040000,-21333058407.503452,3495564212.436018,27214742921.179989,9940510360.843916,-0.107722,0.339162,0.187285
-0.660000,1.920000,1.604368,0.040000,-18254129079.135811,1275608485.322309,14024017612.772346,10152899948.667141,-0.062443,0.177744,0.191287
-0.620000,1.920000,1.571325,0.040000,-15145512751.625376,10480060291.824987,18233086571.982655,9555548807.793852,0.035159,0.181230,0.180032
-0.580000,1.920000,1.538611,0.040000,-12001676240.204039,7530182240.309609,5291530585.487763,9241664871.754509,0.069402,0.027225,0.174118
-0.540000,1.920000,1.506250,0.040000,-8842885249.688875,16107016710.420633,10248649039.093111,8395505955.848830,0.154499,0.044124,0.158176
-0.500000,1.920000,1.474263,0.040000,-5662265952.074018,12163086708.144241,-2008696225.021551,7658410239.814783,0.171765,-0.095239,0.144289
-0.460000,1.920000,1.442677,0.040000,-2479218743.359419,19811824534.863708,3925895966.858762,6655206091.779860,0.239097,-0.060204,0.125388
-0.420000,1.920000,1.411517,0.040000,714849097.402897,14719133246.203899,-7343795438.279836,5649434877.146115,0.235630,-0.180048,0.106439
-0.380000,1.920000,1.380813,0.040000,3901905171.433567,21277488777.963997,-321197214.412986,4604971925.470345,0.282432,-0.124500,0.086760
-0.340000,1.920000,1.350596,0.040000,7092439538.498795,15011283397.788651,-10463734377.023884,3505507392.275574,0.257118,-0.222846,0.066046
-0.300000,1.920000,1.320898,0.040000,10270036954.345026,20465727229.978100,-2371570308.399114,2535615154.158283,0.283315,-0.146953,0.047772
-0.260000,1.920000,1.291757,0.040000,13447046221.377201,13125820026.054794,-11412138237.266680,1508478259.984752,0.237612,-0.224697,0.028421
-0.220000,1.920000,1.263210,0.040000,16608661454.862707,17596833652.180748,-2384424976.329879,710847106.402700,0.245551,-0.130907,0.013393
-0.180000,1.920000,1.235299,0.040000,19768856027.094494,9383963537.186565,-10489263493.505516,-107573065.941273,0.183047,-0.191376,-0.002027
-0.140000,1.920000,1.206707,0.040000,22914204051.660885,13095963212.292835,-748347117.000973,-662234922.488552,0.176945,-0.083890,-0.012477
-0.100000,1.920000,1.178459,0.040000,26059918505.261326,4280866720.206037,-8188315413.305273,-1175165481.490727,0.102740,-0.132187,-0.022141
-0.060000,1.920000,1.150402,0.040000,29193558838.295177,7527595297.405093,1985808799.834635,-1443741936.246008,0.088053,-0.016358,-0.027201
-0.020000,1.920000,1.121787,0.040000,32331093111.365696,-1578212271.518555,-5125792023.095748,-1595855495.023522,0.008158,-0.058681,-0.030067
0.020000,1.920000,1.093887,0.040000,35460567189.729973,1534389971.932995,5171156121.382194,-1559245552.804302,-0.008992,0.059527,-0.029377
0.060000,1.920000,1.065312,0.040000,38598166563.934845,-7533336689.277317,-1978212349.396134,-1334924915.732170,-0.088172,0.016490,-0.025151
0.100000,1.920000,1.037031,0.040000,41731877325.668922,-4213617396.381782,8123017706.977586,-994771510.275261,-0.101484,0.130946,-0.018742
0.140000,1.920000,1.009067,0.040000,44877550335.496582,-12916173615.773293,572880116.066387,-416837126.418147,-0.173582,0.080560,-0.007853
0.180000,1.920000,0.980366,0.040000,48022570674.495941,-9063084880.609938,10171597303.047035,204578763.044989,-0.177019,0.185373,0.003854
0.220000,1.920000,0.952481,0.040000,51181923222.787910,-17093954821.293917,1893366742.747915,1074048113.052726,-0.236144,0.121588,0.020236
0.260000,1.920000,0.923929,0.040000,54341907616.322014,-12423241482.110168,10716519032.025097,1930659727.887144,-0.224414,0.211552,0.036375
0.300000,1.920000,0.895603,0.040000,57516170462.051208,-19519772973.441303,1454013669.280326,2988875695.800384,-0.265653,0.129505,0.056312
0.340000,1.920000,0.867763,0.040000,60689554400.337051,-13820706342.043964,9289279495.880627,4007199447.617352,-0.234778,0.200628,0.075498
0.380000,1.920000,0.838947,0.040000,63874000496.931931,-19793242769.595119,-1104187235.614476,5112607780.784752,-0.254800,0.097312,0.096324
0.420000,1.920000,0.811081,0.040000,67052695705.035606,-12962941681.331213,5622174524.663356,6192231799.528366,-0.202738,0.147416,0.116665
0.460000,1.920000,0.784266,0.040000,70235664320.982254,-17725892582.701767,-5903580415.621046,7174646249.660689,-0.200408,0.022331,0.135174
0.500000,1.920000,0.758613,0.040000,73404467033.721832,-9799188641.442530,-288565212.593791,8197151730.411017,-0.127605,0.051581,0.154439
0.540000,1.920000,0.734244,0.040000,76567200900.296127,-13394812473.215311,-12779663875.921715,8878885393.115227,-0.104423,-0.092834,0.167283
0.580000,1.920000,0.711290,0.040000,79704092016.605804,-4558484042.409171,-8146691253.571716,9726536082.599180,-0.014073,-0.081677,0.183254
0.620000,1.920000,0.689894,0.040000,82821521431.666061,-7161895292.906678,-21270020968.896969,9952680751.504757,0.025768,-0.240037,0.187514
0.660000,1.920000,0.670205,0.040000,85898928904.366623,2257255978.218981,-17369146110.581837,10533302293.398788,0.127943,-0.241830,0.198454
0.700000,1.920000,0.652376,0.040000,88941393317.619919,360066716.800274,-30660235728.656567,10203784088.885223,0.178046,-0.406395,0.192245
0.740000,1.920000,0.636565,0.040000,91928315845.024597,9937229785.645063,-27159954426.444569,10473768757.760370,0.284569,-0.414363,0.197332
0.780000,1.920000,0.622925,0.040000,94864024880.332809,8397855919.941934,-40088183303.620995,9566551180.456732,0.337340,-0.576165,0.180239
0.820000,1.920000,0.611601,0.040000,97728725859.012878,17675664612.707203,-36635838921.324188,9542808590.778072,0.440186,-0.583074,0.179792
0.860000,1.920000,0.602724,0.040000,100526586790.261795,16147181225.182180,-48686173873.891495,8119236418.407741,0.488138,-0.733360,0.152971
0.900000,1.920000,0.596403,0.040000,103239425756.668167,24708415282.286690,-44973846803.385445,7874578874.772330,0.580065,-0.732790,0.148362
0.940000,1.920000,0.592720,0.040000,105871770661.314941,22906876504.392536,-55724103346.040565,6064268404.331029,0.617068,-0.864386,0.114254
0.980000,1.920000,0.591724,0.040000,108407704592.509781,30434961836.674969,-51541283633.858887,5707559027.163873,0.692709,-0.851771,0.107534
1.020000,1.920000,0.591724,0.040000,110852479000.997269,28181505735.497940,-60715296521.220528,3678185329.248987,0.714843,-0.960025,0.069299
1.060000,1.920000,0.592720,0.040000,113192855524.731079,34494264649.363739,-55974845947.586060,3326753924.227309,0.771304,-0.933187,0.062678
1.100000,1.920000,0.596403,0.040000,115434972738.254013,31728772993.697617,-63461108511.957352,1249242396.776976,0.777145,-1.016287,0.023536
1.140000,1.920000,0.602724,0.040000,117568417805.501236,36781086373.774323,-58195302760.074203,1003245689.691784,0.814014,-0.975396,0.018902
1.180000,1.920000,0.611601,0.040000,119600185139.233093,33548867260.732010,-64032612776.355949,-977123733.849715,0.804380,-1.034112,-0.018410
1.220000,1.920000,0.622925,0.040000,121522592494.609161,37410039615.475754,-58365961397.963989,-1051131031.471159,0.823273,-0.981202,-0.019804
1.260000,1.920000,0.636565,0.040000,123343307176.326355,33830901174.085098,-62706694166.417297,-2831436065.322887,0.800605,-1.018219,-0.053346
1.300000,1.920000,0.652376,0.040000,125057100802.055130,36648252870.917603,-56817521125.555664,-2705313726.899158,0.804475,-0.956475,-0.050970
1.340000,1.920000,0.670205,0.040000,126672040834.840805,32879910230.083046,-59882336233.253662,-4228749431.442420,0.772099,-0.975596,-0.079672
1.380000,1.920000,0.689894,0.040000,128184967820.431671,34840386068.823265,-53964854479.700615,-3907983849.723407,0.764508,-0.908634,-0.073629
1.420000,1.920000,0.711290,0.040000,129604048367.137161,31045982275.361885,-56000502543.831238,-5157934508.827093,0.725972,-0.914035,-0.097178
1.460000,1.920000,0.734244,0.040000,130927767252.358536,32344087486.723785,-50235222033.693436,-4671499636.458030,0.710505,-0.845337,-0.088014
1.500000,1.920000,0.758613,0.040000,132164109245.726791,28669182956.689545,-51482301791.615967,-5660670265.971094,0.669088,-0.841013,-0.106650
1.540000,1.920000,0.784266,0.040000,133312791219.008194,29484980672.055511,-46017809582.097816,-5049753674.020558,0.648961,-0.773556,-0.095140
1.580000,1.920000,0.811081,0.040000,134381385172.170593,26045103263.714455,-46690503324.035362,-5808512902.715512,0.607396,-0.762985,-0.109436
1.620000,1.920000,0.838947,0.040000,135370473399.652847,26532295288.098949,-41635916136.154373,-5116970209.791382,0.585252,-0.699077,-0.096407
1.660000,1.920000,0.867763,0.040000,136287046999.504288,23409357730.463192,-41912412017.866547,-5683500780.446976,0.545628,-0.685072,-0.107080
1.700000,1.920000,0.895603,0.040000,137132248007.481949,23691376184.606094,-37337823546.164085,-4951286984.294709,0.523491,-0.626334,-0.093285
1.740000,1.920000,0.923929,0.040000,137912381028.756470,20936132878.487598,-37358597550.391335,-5364582193.175221,0.487272,-0.611035,-0.101072
1.780000,1.920000,0.952481,0.040000,138628905817.909698,21107529986.453449,-33300386101.052563,-4624181809.410314,0.466594,-0.558482,-0.087122
1.820000,1.920000,0.980366,0.040000,139287389247.442657,18745297364.084888,-33171327296.472530,-4919844106.200933,0.434711,-0.543429,-0.092693
1.860000,1.920000,1.009067,0.040000,139889425100.928497,18875989734.347561,-29639646727.531502,-4195067175.539490,0.416473,-0.497590,-0.079037
1.900000,1.920000,1.037031,0.040000,140439833868.934692,16913495202.934950,-29437545668.993370,-4403326632.567294,0.389448,-0.483832,-0.082961
1.940000,1.920000,1.065312,0.040000,140940208708.659729,17054067057.283083,-26424125887.111561,-3709651546.153434,0.374270,-0.444885,-0.069892
1.980000,1.920000,1.093887,0.040000,141394645410.256073,15486064090.224798,-26202808117.398693,-3854886251.658428,0.352339,-0.433103,-0.072628
2.020000,1.920000,1.121787,0.040000,141804640420.331451,15673008352.143366,-23687973718.146484,-3200618739.972351,0.340591,-0.400993,-0.060302
2.060000,1.920000,1.150402,0.040000,142173605883.080902,14487947253.770693,-23484054724.894291,-3301743386.399473,0.323809,-0.391606,-0.062207
2.100000,1.920000,1.178459,0.040000,142502874081.529968,14748249159.467112,-21442458863.434860,-2689455034.554361,0.315702,-0.366152,-0.050671
2.140000,1.920000,1.206707,0.040000,142795225125.535431,13932721560.223421,-21280190068.982193,-2760706157.637257,0.304030,-0.359402,-0.052013
2.180000,1.920000,1.235299,0.040000,143051779785.076294,14287484728.304281,-19685085012.389004,-2188614491.554892,0.299693,-0.340370,-0.041235
2.220000,1.920000,1.263210,0.040000,143274741943.031555,13829280780.913254,-19579952696.713673,-2240439726.271330,0.293055,-0.336394,-0.042211
2.260000,1.920000,1.291757,0.040000,143464987078.510864,14295963090.295563,-18405701727.660660,-1703641359.211120,0.292573,-0.323545,-0.032098
2.300000,1.920000,1.320898,0.040000,143624199469.679993,14184893025.913393,-18365808993.489407,-1743940896.470060,0.290883,-0.322391,-0.032857
2.340000,1.920000,1.350596,0.040000,143752986159.965729,14775420137.529650,-17585805511.758453,-1236946973.590028,0.294262,-0.315442,-0.023305
2.380000,1.920000,1.380813,0.040000,143852573316.354797,14993815683.963795,-17607133143.549267,-1276899070.018036,0.297263,-0.316958,-0.024058
2.420000,1.920000,1.411517,0.040000,143923320206.042297,-231239880378.908844,-1624475866967.710449,1130310589524.427002,6.132135,-20.117239,21.295707
2.460000,1.920000,1.442677,0.040000,143966455002.386932,-4205765399039.782227,-20954788752313.019531,5455577810645.449219,62.972770,-252.588540,102.786249
-2.500000,1.960000,3.306574,0.040000,0.000025,-8370677096469.180664,42144616934608.992188,12493107715486.324219,-348.604591,603.132833,235.377392
-2.460000,1.960000,3.268226,0.040000,-79733082918.298218,3819423888927.499023,23219343204971.640625,6804672604958.913086,-80.867654,284.638072,128.203977
-2.420000,1.960000,3.229917,0.040000,-79680540167.102020,-1462108856221.131592,7530372089368.528320,2621834339545.403809,-61.845858,107.577696,49.396879
-2.380000,1.960000,3.191649,0.040000,-79595878586.858704,-172259531608.067444,327615117732.663086,21019042889.052769,-4.123566,5.294362,0.396011
-2.340000,1.960000,3.153425,0.040000,-79473525983.828537,-8473288904.018146,23405092696.449047,-2589949938.211481,-0.244039,0.356568,-0.048796
-2.300000,1.960000,3.115245,0.040000,-79318967465.692429,-5459553197.104120,23996884033.553452,-2383015027.909850,-0.207637,0.347339,-0.044897
-2.260000,1.960000,3.077112,0.040000,-79124429940.126724,-3352059102.030052,25154572399.208374,-2860541523.664144,-0.186386,0.350695,-0.053894
-2.220000,1.960000,3.039026,0.040000,-78896942570.408630,-533703690.913315,25830230902.947762,-2643900645.156857,-0.153036,0.343676,-0.049813
-2.180000,1.960000,3.000991,0.040000,-78626044210.004074,1184313862.717813,27307446928.104012,-3155148972.177002,-0.138727,0.353448,-0.059445
-2.140000,1.960000,2.963007,0.040000,-78321216466.790588,3944084875.282352,28136276849.669636,-2923889087.825036,-0.107015,0.348780,-0.055088
-2.100000,1.960000,2.925077,0.040000,-77968337330.364426,5193594824.934783,29885568021.712898,-3474383395.835525,-0.100423,0.364788,-0.065459
-2.060000,1.960000,2.887202,0.040000,-77580329269.413223,8038165181.482798,30932814665.489830,-3219171915.573236,-0.068827,0.362521,-0.060651
-2.020000,1.960000,2.849386,0.040000,-77138354994.437515,8727738573.495104,32898002603.128132,-3811058775.615785,-0.070840,0.384542,-0.071803
-1.980000,1.960000,2.811630,0.040000,-76659879461.415192,11806073937.783939,34227276162.727772,-3519661907.779146,-0.037755,0.384673,-0.066312
-1.940000,1.960000,2.773938,0.040000,-76120187399.590088,11828434820.424198,36340642836.503929,-4151974933.754354,-0.049405,0.412419,-0.078226
-1.900000,1.960000,2.736310,0.040000,-75542522723.936096,15298187106.230892,38013361695.696579,-3809348918.859866,-0.013099,0.414868,-0.071770
-1.860000,1.960000,2.698751,0.040000,-74895006308.013199,14529742961.090216,40190406976.765556,-4477361046.114454,-0.035539,0.447923,-0.084356
-1.820000,1.960000,2.661263,0.040000,-74208053842.708618,18561070341.447575,42263453266.232208,-4065403164.444044,0.005911,0.452477,-0.076595
-1.780000,1.960000,2.623849,0.040000,-73441206457.416580,16863002100.821947,44396625300.630630,-4759674268.331448,-0.028541,0.490208,-0.089675
-1.740000,1.960000,2.586513,0.040000,-72633617312.761902,21642182961.365776,46918644396.211388,-4257099772.816040,0.020234,0.496457,-0.080206
-1.700000,1.960000,2.549257,0.040000,-71734705109.268463,18863150311.519997,48870573194.578743,-4962549317.141957,-0.027450,0.537907,-0.093497
-1.660000,1.960000,2.512086,0.040000,-70794106723.422455,24595427373.682587,51877085518.210251,-4345225515.514538,0.031156,0.545158,-0.081867
-1.620000,1.960000,2.475003,0.040000,-69749465392.517105,20576062952.145412,53474079694.766212,-5040566444.632337,-0.030879,0.588938,-0.094967
-1.580000,1.960000,2.438013,0.040000,-68662822428.714272,27486948882.886162,56981819375.990372,-4282671014.730595,0.040438,0.596138,-0.080688
-1.540000,1.960000,2.401118,0.040000,-67458315224.744957,22066107313.065102,58008918635.693581,-4940644792.152680,-0.036860,0.640324,-0.093085
-1.500000,1.960000,2.364325,0.040000,-66212458799.375443,30400030154.857868,62010276845.611610,-4017061063.703075,0.050435,0.645990,-0.075684
-1.460000,1.960000,2.327638,0.040000,-64834129248.091850,23422339200.285656,62209830471.929832,-4606001702.860854,-0.042717,0.688061,-0.086780
-1.420000,1.960000,2.291061,0.040000,-63416480451.543755,33437131169.967419,66668878979.076241,-3496318727.076612,0.064158,0.690264,-0.065873
-1.380000,1.960000,2.254601,0.040000,-61851419337.613251,24760814278.370514,65745267252.513412,-3983541254.056133,-0.045048,0.727123,-0.075052
-1.340000,1.960000,2.218263,0.040000,-60250913617.957741,36716324788.253868,70597415924.349426,-2677785604.810267,0.085201,0.723540,-0.050451
-1.300000,1.960000,2.182052,0.040000,-58488332125.078575,26219672683.164814,68230823592.526688,-3035019126.874060,-0.039857,0.751658,-0.057182
-1.260000,1.960000,2.145977,0.040000,-56696517231.957039,40358998602.229279,73388428547.424545,-1540713023.939282,0.117467,0.739760,-0.029028
-1.220000,1.960000,2.110043,0.040000,-54728974284.343185,27943554310.622643,69260035728.717880,-1751181517.243385,-0.022939,0.755488,-0.032993
-1.180000,1.960000,2.074258,0.040000,-52741205767.832039,44466388936.300163,74625799824.462875,-100484843.894839,0.164643,0.732864,-0.001893
-1.140000,1.960000,2.038629,0.040000,-50565879845.109940,30055277567.213364,68454860418.357330,-166303164.371550,0.009462,0.732933,-0.003133
-1.100000,1.960000,2.003166,0.040000,-48382479788.673637,49084970140.113831,73943250645.976578,1578965779.930502,0.229412,0.697757,0.029749
-1.060000,1.960000,1.967876,0.040000,-46002313192.220078,32616181295.873466,65533042478.590065,1631401174.598485,0.059751,0.679924,0.030737
-1.020000,1.960000,1.932770,0.040000,-43629503042.885216,54165183209.458565,71097112524.178360,3379709878.019616,0.312499,0.631507,0.063676
-0.980000,1.960000,1.897858,0.040000,-41053997950.539818,35581926675.142159,60382154952.076973,3499145796.895623,0.127978,0.595229,0.065926
-0.940000,1.960000,1.863150,0.040000,-38504385787.509361,59523580588.107574,66039730843.179207,5136673362.893462,0.411753,0.534521,0.096778
-0.900000,1.960000,1.828659,0.040000,-35749820833.266052,38766292753.333443,53122519697.354454,5253388069.001511,0.211008,0.481488,0.098977
-0.860000,1.960000,1.794396,0.040000,-33042240613.294785,64822804720.405930,58973160258.776505,6659668903.296739,0.521583,0.411372,0.125472
-0.820000,1.960000,1.760375,0.040000,-30131126483.466335,41828518958.984558,44137335910.319633,6698854169.483334,0.302180,0.345679,0.126210
-0.780000,1.960000,1.726611,0.040000,-27289707347.077724,69583588784.561508,50361697712.814438,7768332683.204412,0.633044,0.270892,0.146360
-0.740000,1.960000,1.693118,0.040000,-24249417482.925232,44296771512.539421,34052122386.743938,7667483912.085518,0.391735,0.198720,0.144460
-0.700000,1.960000,1.659913,0.040000,-21301900601.300449,73235830195.513092,40889480464.406883,8331550095.198378,0.734749,0.125325,0.156971
-0.660000,1.960000,1.627015,0.040000,-18162580050.567543,45630231350.970825,23658307827.618637,8056434868.866354,0.468069,0.054105,0.151788
-0.620000,1.960000,1.594440,0.040000,-15138067493.274719,75202789312.321686,31365170975.641682,8299090371.768400,0.814524,-0.011403,0.156360
-0.580000,1.960000,1.562211,0.040000,-11930094081.792604,45308181995.986176,13793865139.356966,7852629421.009048,0.519577,-0.074171,0.147948
-0.540000,1.960000,1.530349,0.040000,-8856557524.042297,74998890346.328934,22593856009.856686,7714468277.993947,0.861411,-0.125930,0.145345
-0.500000,1.960000,1.498877,0.040000,-5607947925.164045,42922967988.629013,5209439126.520310,7135403757.221996,0.536641,-0.173904,0.134435
-0.460000,1.960000,1.467820,0.040000,-2509894111.525563,72314605314.229202,15248169539.018013,6704697146.831676,0.867529,-0.207636,0.126320
-0.420000,1.960000,1.437206,0.040000,755929842.061723,38251271292.812332,-1546385196.181347,6057067772.048414,0.513214,-0.236597,0.114119
-0.380000,1.960000,1.407062,0.040000,3859270338.219856,67065892009.767479,9770176374.165413,5451383398.075923,0.829269,-0.250215,0.102707
-0.340000,1.960000,1.377421,0.040000,7125019756.888242,31286588990.991005,-6196916818.010281,4809310199.872325,0.447646,-0.258565,0.090610
-0.300000,1.960000,1.348315,0.040000,10220730500.842184,59398943680.023216,6323149615.449322,4153887836.808496,0.747638,-0.252341,0.078262
-0.260000,1.960000,1.319779,0.040000,13475907198.615908,22230670665.799984,-8753197690.274475,3587206487.650745,0.342662,-0.241092,0.067585
-0.220000,1.960000,1.291851,0.040000,16557558900.638302,49656727913.152473,4794736081.858932,2996100964.245151,0.627792,-0.217434,0.056448
-0.180000,1.960000,1.263272,0.040000,19798215049.602924,11455317987.350166,-9483719424.916580,2560785233.973116,0.204681,-0.189823,0.048247
-0.140000,1.960000,1.235022,0.040000,22865229345.199924,38324420045.618469,4838632134.443626,2124228530.787155,0.478089,-0.152802,0.040022
-0.100000,1.960000,1.206955,0.040000,26092945125.191185,-547660995.573192,-8855895087.343283,1858627208.331823,0.042832,-0.113700,0.035018
-0.060000,1.960000,1.178356,0.040000,29149304614.281670,25972572359.102730,5936118545.051118,1636866299.474165,0.308985,-0.068514,0.030840
-0.020000,1.960000,1.150437,0.040000,32369575738.611942,-13212779089.243008,-7467744757.222601,1562188874.002025,-0.132047,-0.023807,0.029433
0.020000,1.960000,1.121876,0.040000,35422078615.034836,13210840033.949163,7461754196.809178,1583792914.452553,0.132055,0.023739,0.029840
0.060000,1.960000,1.093594,0.040000,38642327111.456474,-25935925625.428059,-5981786383.801661,1706077045.796067,-0.308243,0.067704,0.032143
0.100000,1.960000,1.065613,0.040000,41698585524.184471,655507483.110051,8745474902.866554,1968079963.483810,-0.040786,0.111634,0.037080
0.140000,1.960000,1.036935,0.040000,44925997366.620621,-38099858940.623032,-5064358695.609155,2279217025.385742,-0.473852,0.148556,0.042942
0.180000,1.960000,1.009027,0.040000,47992363389.813293,-11094525530.976486,9131434914.370710,2747321652.240191,-0.197932,0.183137,0.051761
0.220000,1.960000,0.980490,0.040000,51231742454.553177,-49098412095.036659,-5327057151.556505,3224162013.683735,-0.617420,0.207257,0.060745
0.260000,1.960000,0.952166,0.040000,54311336873.356644,-21483029752.868870,8038322965.160101,3832949934.182156,-0.328761,0.227438,0.072215
0.300000,1.960000,0.924299,0.040000,57563163739.063103,-58369208549.103889,-7265450165.156349,4435376545.586959,-0.728731,0.234093,0.083565
0.340000,1.960000,0.895516,0.040000,60654189911.662224,-30031517024.586525,5024690308.429138,5090238848.975152,-0.424468,0.236011,0.095903
0.380000,1.960000,0.867622,0.040000,63913086727.818588,-65440513311.663841,-11194410196.534891,5760638689.316660,-0.799783,0.222245,0.108534
0.420000,1.960000,0.840707,0.040000,67007626239.854355,-36386103554.919624,-143626644.346877,6344121036.937982,-0.479063,0.203766,0.119527
0.460000,1.960000,0.814868,0.040000,70261438227.886353,-69989135322.982941,-17187603858.907711,7011145075.562522,-0.825898,0.168914,0.132094
0.500000,1.960000,0.790208,0.040000,73344924181.491364,-40368584587.304756,-7435959167.430257,7395858414.124623,-0.490368,0.130102,0.139342
0.540000,1.960000,0.766844,0.040000,76574606708.706665,-71896234003.143051,-25037080194.814838,7984195783.663169,-0.806683,0.076171,0.150427
0.580000,1.960000,0.744896,0.040000,79626127185.710571,-42015557033.487373,-16528077731.696617,8052142298.258617,-0.460699,0.019500,0.151707
0.620000,1.960000,0.724493,0.040000,82806550260.122269,-71281309905.430771,-34252305979.815121,8497343015.556112,-0.746487,-0.048839,0.160095
0.660000,1.960000,0.705769,0.040000,85800032424.525375,-41586784327.354736,-26820956127.434742,8162137767.200086,-0.396867,-0.118670,0.153779
0.700000,1.960000,0.688862,0.040000,88901676890.476318,-68496225438.313919,-44112250856.751968,8426391338.788391,-0.654026,-0.194618,0.158758
0.740000,1.960000,0.673907,0.040000,91807850064.208588,-39530537872.706337,-37515426197.512985,7652093084.723495,-0.309301,-0.271335,0.144170
0.780000,1.960000,0.661038,0.040000,94799197096.384140,-64072230445.689659,-53769123917.750420,7735112017.558592,-0.541098,-0.346982,0.145734
0.820000,1.960000,0.650378,0.040000,97588069139.382507,-36408089298.980034,-47733263211.045677,6545086780.919656,-0.210368,-0.423741,0.123313
0.860000,1.960000,0.642037,0.040000,100438328766.404968,-58629708592.947128,-62383677637.941391,6485289475.978910,-0.420629,-0.491356,0.122187
0.900000,1.960000,0.636107,0.040000,103081789766.862167,-32795457479.455528,-56657529134.639038,4957466308.927014,-0.112282,-0.561857,0.093402
0.940000,1.960000,0.632655,0.040000,105763532600.481583,-52774625148.146454,-69258750213.930557,4822357642.812580,-0.304551,-0.615121,0.090856
0.980000,1.960000,0.631722,0.040000,108237670598.349289,-29189627703.919018,-63656563338.107948,3072187197.142765,-0.025167,-0.674544,0.057882
1.020000,1.960000,0.631722,0.040000,110728954078.243530,-47009977796.362961,-73937195630.309967,2941278408.120498,-0.202081,-0.709405,0.055415
1.060000,1.960000,0.632655,0.040000,113015743546.058487,-25943905060.387478,-68361581795.495743,1098100152.919441,0.044233,-0.754941,0.020689
1.100000,1.960000,0.636107,0.040000,115301452216.672852,-41683035359.411446,-76243086836.589996,1044439072.431922,-0.118794,-0.769925,0.019678
1.140000,1.960000,0.642037,0.040000,117389630254.320084,-23244700006.167870,-70684537396.899139,-771405689.941049,0.092961,-0.800833,-0.014534
1.180000,1.960000,0.650378,0.040000,119461932840.595917,-36974528235.556091,-76264491035.576996,-695288095.223435,-0.056575,-0.796821,-0.013100
1.220000,1.960000,0.661038,0.040000,121347056241.875839,-21126857410.443722,-70782251412.769867,-2388814759.223050,0.121444,-0.814092,-0.045007
1.260000,1.960000,0.673907,0.040000,123205059595.217926,-32921972643.872349,-74292997001.204529,-2157382792.333909,-0.014271,-0.793725,-0.040646
1.300000,1.960000,0.688862,0.040000,124888883226.290466,-19513833500.546589,-68986383303.169998,-3666395801.854743,0.132567,-0.799525,-0.069077
1.340000,1.960000,0.705769,0.040000,126537686357.929276,-29461689430.579582,-70743264831.677734,-3280110856.088291,0.011301,-0.766468,-0.061799
1.380000,1.960000,0.724493,0.040000,128027086490.216461,-18265910243.504215,-65722674925.714851,-4574594094.999384,0.130578,-0.763535,-0.086188
1.420000,1.960000,0.744896,0.040000,129476487583.349365,-26473938611.613224,-66074459392.876274,-4053810695.280216,0.024315,-0.721781,-0.076376
1.460000,1.960000,0.766844,0.040000,130782168704.765427,-17222996702.843494,-61438521724.647133,-5130060720.790494,0.120117,-0.712929,-0.096653
1.500000,1.960000,0.790208,0.040000,132045262908.030075,-23820376004.764160,-60728043962.363358,-4506877774.676189,0.029093,-0.666269,-0.084912
1.540000,1.960000,0.814868,0.040000,133180450499.843811,-16234830808.863789,-56549609994.059113,-5379485196.537222,0.105517,-0.654037,-0.101353
1.580000,1.960000,0.840707,0.040000,134272301004.322830,-21369137174.430450,-55087670588.497093,-4690056723.446073,0.029540,-0.605736,-0.088363
1.620000,1.960000,0.867622,0.040000,135251561433.689621,-15177244808.725332,-51408291602.066765,-5384119258.559645,0.090405,-0.592209,-0.101440
1.660000,1.960000,0.895516,0.040000,136188057364.086426,-19007682927.342224,-49460077118.476372,-4662840573.124997,0.028876,-0.544865,-0.087851
1.700000,1.960000,0.924299,0.040000,137026321937.489365,-13956879913.257389,-46290881856.348488,-5207728318.225741,0.077575,-0.531616,-0.098117
1.740000,1.960000,0.952166,0.040000,137823273526.781250,-16646168435.113811,-44072168596.429413,-4483692844.123301,0.029567,-0.487155,-0.084475
1.780000,1.960000,0.980490,0.040000,138535090913.206390,-12508173612.752026,-41398579286.099442,-4908771004.529856,0.069029,-0.475283,-0.092484
1.820000,1.960000,1.009027,0.040000,139207565257.782227,-14214804260.647465,-39078450118.849945,-4204226425.457094,0.033408,-0.435038,-0.079210
1.860000,1.960000,1.036935,0.040000,139806570315.805634,-10786280695.245787,-36866492804.718010,-4536364819.577467,0.066122,-0.425244,-0.085468
1.900000,1.960000,1.065613,0.040000,140368441762.563110,-11658221677.429546,-34573668198.335938,-3866606807.582099,0.041663,-0.390077,-0.072849
1.940000,1.960000,1.093594,0.040000,140867008647.654907,-8758664257.135372,-32776285023.975185,-4129051116.274353,0.069744,-0.382761,-0.077794
1.980000,1.960000,1.121876,0.040000,141330683879.002747,-8928952389.000542,-30606914625.883205,-3503167893.458903,0.055237,-0.353188,-0.066002
2.020000,1.960000,1.150437,0.040000,141739723549.789917,-6397031841.274873,-29169349200.541264,-3715308533.169748,0.080504,-0.348540,-0.069999
2.060000,1.960000,1.178356,0.040000,142115998269.115509,-5981248572.020340,-27194876884.059616,-3137295874.979626,0.074827,-0.324850,-0.059108
2.100000,1.960000,1.206955,0.040000,142444860882.740326,-3670435524.205971,-26058715462.412006,-3314932211.720636,0.098881,-0.322927,-0.062455
2.140000,1.960000,1.235022,0.040000,142742868357.546936,-2765836920.465497,-24333033639.118252,-2784825977.533711,0.101058,-0.305281,-0.052468
2.180000,1.960000,1.263272,0.040000,142999315937.022247,-539871884.107189,-23438768931.530212,-2940585180.539992,0.125360,-0.306069,-0.055402
2.220000,1.960000,1.291851,0.040000,143226534336.585236,773974367.270744,-22004177449.097702,-2455302504.108874,0.134579,-0.294575,-0.046259
2.260000,1.960000,1.319779,0.040000,143416756297.397766,3044963665.177501,-21291985259.616966,-2598794072.999796,0.160504,-0.298018,-0.048963
2.300000,1.960000,1.348315,0.040000,143579050642.777985,4702955967.862480,-20182816882.898346,-2152184185.181735,0.176101,-0.292761,-0.040548
2.340000,1.960000,1.377421,0.040000,143707705753.621613,7142905144.696464,-19590642489.562660,-2289005659.147403,0.204933,-0.298742,-0.043126
2.380000,1.960000,1.407062,0.040000,143809398349.319366,11918687560.997452,-36171153187.610390,8754193996.776499,0.361634,-0.544406,0.164934
2.420000,1.960000,1.437206,0.040000,143879677961.553314,71141829659.161346,-8491812825849.750000,3965287000191.112793,48.935450,-112.395579,74.708306
2.460000,1.960000,1.467820,0.040000,143923275605.368713,-9006335512898.218750,-37029204228646.281250,7499725527210.363281,90.516295,-437.450797,141.299177
-2.500000,2.000000,3.318104,0.040000,-3846693330.342069,-24499919001183.136719,40494560680078.585938,8747652586719.817383,-551.997173,672.536502,164.810846
-2.460000,2.000000,3.279890,0.040000,-79718663967.140366,-15472590590802.630859,29475531565256.007812,5666689210003.273438,-370.659634,476.189044,106.763710
-2.420000,2.000000,3.241719,0.040000,-79624582706.556488,-395490718763.715027,9903246219947.873047,1807845021919.380127,-61.190762,132.843412,34.060848
-2.380000,2.000000,3.203593,0.040000,-79581538103.788345,222300357820.776550,432315151143.076416,175829219212.372467,0.488267,4.445067,3.312724
-2.340000,2.000000,3.165513,0.040000,-79384489200.752411,13394177789.344168,10795603534.888659,-3969128658.781467,0.115629,0.066671,-0.074781
-2.300000,2.000000,3.127480,0.040000,-79306211406.163910,-17768001025.952953,36689031423.450310,-3618998510.048306,-0.441704,0.584298,-0.068184
-2.260000,2.000000,3.089498,0.040000,-79001615193.645218,28687186276.672928,6584864592.553579,-4115120467.058197,0.341119,-0.075301,-0.077531
-2.220000,2.000000,3.051567,0.040000,-78886489199.220108,-17817615997.071930,43546767632.454720,-3761553416.221440,-0.481120,0.675021,-0.070870
-2.180000,2.000000,3.013690,0.040000,-78468254889.536667,43857004983.349632,2482385011.739153,-4302038396.884687,0.564373,-0.215149,-0.081053
-2.140000,2.000000,2.975868,0.040000,-78313964728.842926,-18922846994.731140,51237331636.119682,-3937850175.557621,-0.539164,0.782694,-0.074191
-2.100000,2.000000,2.938104,0.040000,-77773862426.644226,59148463397.777321,-1602885658.809144,-4529248065.307830,0.789134,-0.355457,-0.085334
-2.060000,2.000000,2.900400,0.040000,-77577359459.936935,-21136844790.551815,59873021821.135979,-4142740258.396119,-0.617174,0.909099,-0.078052
-2.020000,2.000000,2.862758,0.040000,-76904993609.368301,74792300327.804565,-5774697060.562912,-4787187258.735336,1.019031,-0.498898,-0.090193
-1.980000,2.000000,2.825181,0.040000,-76662490462.314529,-24529008509.919167,69558325533.387283,-4363665107.378065,-0.716654,1.056006,-0.082214
-1.940000,2.000000,2.787671,0.040000,-75845302768.463608,91000382370.865799,-10146212648.675081,-5060234381.477033,1.257498,-0.648162,-0.095338
-1.900000,2.000000,2.750231,0.040000,-75552279606.526260,-29182863205.335831,80383014501.571808,-4582630062.041431,-0.839214,1.225070,-0.086339
-1.860000,2.000000,2.712865,0.040000,-74575605980.578995,107962569713.104141,-14843372543.568254,-5326881361.570249,1.507752,-0.805984,-0.100362
-1.820000,2.000000,2.675575,0.040000,-74226839378.214111,-35188264501.519981,92410712461.210754,-4775724794.891924,-0.986399,1.417640,-0.089977
-1.780000,2.000000,2.638364,0.040000,-73074055815.262299,125842766563.593063,-20008548681.505920,-5558810724.640471,1.772757,-0.975166,-0.104731
-1.740000,2.000000,2.601236,0.040000,-72663683350.638657,-42629783567.258522,105663589510.593048,-4912298361.010216,-1.159448,1.634485,-0.092551
-1.700000,2.000000,2.564194,0.040000,-71316483767.967331,144772776900.839478,-25803586191.151264,-5720040375.241384,2.055168,-1.158589,-0.107769
-1.660000,2.000000,2.527243,0.040000,-70838120192.974106,-51571175992.846840,120103395282.884750,-4954539636.882804,-1.358987,1.875462,-0.093346
-1.620000,2.000000,2.490386,0.040000,-69276975665.131317,164843370815.243195,-32411108651.381680,-5766784807.348028,2.357214,-1.359174,-0.108650
-1.580000,2.000000,2.453627,0.040000,-68723898273.629227,-62036105481.987579,135609850090.221375,-4858085476.466269,-1.584648,2.139117,-0.091529
-1.540000,2.000000,2.416971,0.040000,-66928748700.660675,186092112011.382568,-40032430555.747070,-5648725219.451115,2.680529,-1.579789,-0.106425
-1.500000,2.000000,2.380423,0.040000,-66294169090.959091,-73986272768.332657,151958767109.970703,-4574358221.405740,-1.834658,2.422277,-0.086184
-1.460000,2.000000,2.343987,0.040000,-64245390760.868279,208487666248.204681,-48879845891.147682,-5312462874.895393,3.025897,-1.823056,-0.100090
-1.420000,2.000000,2.307670,0.040000,-63522825867.343620,-87299626262.069656,168804076210.395325,-4055342592.184988,-2.105453,2.719689,-0.076405
-1.380000,2.000000,2.271476,0.040000,-61202496317.543968,231910701601.646027,-59160713256.316528,-4707844768.023817,3.392919,-2.091035,-0.088699
-1.340000,2.000000,2.235412,0.040000,-60386241465.396294,-101753211869.356522,185669844546.076721,-3261268919.432536,-2.391401,3.023816,-0.061444
-1.300000,2.000000,2.199485,0.040000,-57779681538.394104,256132295471.170929,-71051059846.586105,-3797413652.422056,3.779570,-2.384754,-0.071545
-1.260000,2.000000,2.163700,0.040000,-56865370850.162041,-117016945755.257553,201959748962.992035,-2171008774.024609,-2.684779,3.324927,-0.040903
-1.220000,2.000000,2.128065,0.040000,-53962880749.233322,280792176973.215027,-84657925753.789780,-2568300555.384140,4.181702,-2.703589,-0.048388
-1.180000,2.000000,2.092588,0.040000,-52948095468.683655,-132665247591.481323,216991169809.858582,-793835695.729699,-2.976115,3.611615,-0.014956
-1.140000,2.000000,2.057277,0.040000,-49746721289.068649,305381237479.925781,-99972822233.922668,-1044468368.215949,4.592555,-3.044550,-0.019678
-1.100000,2.000000,2.022141,0.040000,-48631577293.247688,-148211881044.111298,230057938957.998749,820272120.234221,-3.255006,3.871817,0.015454
-1.060000,2.000000,1.987188,0.040000,-45136661351.123764,329235257435.634399,-116823425251.193909,704313231.383562,5.002394,-3.401610,0.013270
-1.020000,2.000000,1.952429,0.040000,-43924280019.521255,-163168622476.321899,240519109684.574951,2575854314.578176,-3.511390,4.094321,0.048531
-0.980000,2.000000,1.917875,0.040000,-40150488005.348351,351548799332.895752,-134835884444.502457,2561257784.549530,5.398484,-3.765285,0.048256
-0.940000,2.000000,1.883536,0.040000,-38847240109.963234,-177120777571.938416,247901696198.832092,4336898431.562773,-3.737124,4.270546,0.081710
-0.900000,2.000000,1.849425,0.040000,-34818753212.834236,371418061125.099182,-153423557893.727264,4372861537.650505,5.765589,-4.122732,0.082387
-0.860000,2.000000,1.815554,0.040000,-33434175041.067665,-189804244622.882599,251996030336.246185,5943803513.323339,-3.927541,4.396233,0.111985
-0.820000,2.000000,1.781937,0.040000,-29183813404.440178,387917329138.525269,-171816579029.417969,5971491502.409130,6.087148,-4.458563,0.112506
-0.780000,2.000000,1.748589,0.040000,-27730135280.748631,-201163640618.351471,252917718607.349792,7240798610.608875,-4.082563,4.472593,0.136421
-0.740000,2.000000,1.715526,0.040000,-23297346650.076233,400204759376.934631,-189138405083.104767,7206414345.010747,6.347106,-4.756461,0.135773
-0.700000,2.000000,1.682763,0.040000,-21788643733.458046,-211372794583.623993,251114253469.108612,8107556871.096928,-4.207012,4.506512,0.152751
-0.660000,2.000000,1.650320,0.040000,-17216519515.980145,407641388698.187744,-204521419097.882965,7975080041.945108,6.532131,-5.001371,0.150255
-0.620000,2.000000,1.618215,0.040000,-15667577603.603266,-220808768168.871857,247307890694.954498,8485667935.494149,-4.309943,4.509646,0.159875
-0.580000,2.000000,1.586469,0.040000,-10999285955.133240,409897339681.513916,-217238705423.723785,8244950781.018436,6.633763,-5.181843,0.155340
-0.540000,2.000000,1.555104,0.040000,-9424345912.107670,-229985094915.033203,242385127261.749939,8391305878.982841,-4.403140,4.496589,0.158097
-0.500000,2.000000,1.524143,0.040000,-4699523578.736552,407016965818.890015,-226820350863.269379,8058876723.879427,6.649933,-5.291930,0.151834
-0.460000,2.000000,1.493612,0.040000,-3111102375.527318,-239462445149.319580,237259057204.726898,7910112868.759781,-4.499157,4.482552,0.149031
-0.420000,2.000000,1.463537,0.040000,1637229894.862858,399423319696.385559,-233125163546.814850,7522981182.279587,6.585421,-5.332159,0.141737
-0.380000,2.000000,1.433947,0.040000,3229257992.326997,-249759393611.935608,232736870675.772491,7176821236.087113,-4.609398,4.481112,0.135215
-0.340000,2.000000,1.404873,0.040000,7976804140.028789,387859403234.326965,-236352148715.054230,6782211227.273804,6.451151,-5.309357,0.127781
-0.300000,2.000000,1.376347,0.040000,9565739632.846155,-261280924483.412842,229418753997.904449,6347118208.331725,-4.742594,4.502473,0.119583
-0.260000,2.000000,1.348405,0.040000,14297813122.217852,373281929002.051208,-236994346042.420502,5992045462.770056,6.262527,-5.235432,0.112894
-0.220000,2.000000,1.319838,0.040000,15880228077.633171,-274271558007.804871,227640563075.336456,5570432495.034328,-4.903869,4.552447,0.104950
-0.180000,2.000000,1.291587,0.040000,20591390030.910511,356734886724.825378,-235752567889.661987,5294138934.800516,6.037279,-5.125528,0.099745
-0.140000,2.000000,1.263509,0.040000,22166814739.449024,-288789727024.745972,227458195141.451019,4969779879.225641,-5.094309,4.632101,0.093634
-0.100000,2.000000,1.234924,0.040000,26859423718.120903,339231050178.782471,-233432657715.768066,4800079087.775051,5.793319,-4.995998,0.090436
-0.060000,2.000000,1.206988,0.040000,28429699279.030804,-304694987965.432678,228662667784.249023,4630539994.649440,-5.310882,4.737885,0.087242
-0.020000,2.000000,1.178441,0.040000,33111635549.414104,321661148419.470703,-230846646979.347778,4583266550.871431,5.546983,-4.862584,0.086351
0.020000,2.000000,1.150158,0.040000,34680031681.028404,-321640996504.943359,230813651890.381317,4596394590.093792,-5.546531,4.862035,0.086599
0.060000,2.000000,1.122162,0.040000,39361891136.647270,304737869075.238770,-228729331808.218628,4676199880.967140,5.311825,-4.739007,0.088102
0.100000,2.000000,1.093503,0.040000,40932090780.370438,-339073000927.977234,233283817855.322998,4869055079.645255,-5.790393,4.993141,0.091736
0.140000,2.000000,1.065575,0.040000,45624133672.303741,288970653154.550842,-227672451223.493073,5069933111.586070,5.097907,-4.635949,0.095520
0.180000,2.000000,1.037051,0.040000,47199179680.182152,-356235565928.134155,235312988844.346008,5409004638.061573,-6.028209,5.116909,0.101909
0.220000,2.000000,1.008730,0.040000,51908302180.808624,274660943725.494812,-228072905876.651367,5713884036.615147,4.911448,-4.560349,0.107653
0.260000,2.000000,0.980838,0.040000,53489597535.705223,-372200984307.180115,236075782850.549194,6136552712.652895,-6.243079,5.217208,0.115616
0.300000,2.000000,0.952084,0.040000,58216592937.919357,261907209573.954498,-230091139858.676331,6516558400.984586,4.754654,-4.514880,0.122776
0.340000,2.000000,0.924167,0.040000,59803048994.754097,-385928758516.895691,234766379113.239136,6934921648.923903,-6.416725,5.277531,0.130658
0.380000,2.000000,0.897165,0.040000,64540440620.987595,250613688868.465088,-233620364160.085999,7349926127.780825,4.625658,-4.497592,0.138477
0.420000,2.000000,0.871163,0.040000,66127873699.812386,-396360343638.956726,230698423206.947601,7658633378.652930,-6.531309,5.282842,0.144293
0.460000,2.000000,0.846254,0.040000,70858610913.646271,240503958113.358307,-238274106580.336029,8060935117.416382,4.518630,-4.501826,0.151873
0.500000,2.000000,0.822536,0.040000,72439485189.671783,-402541862047.805054,223408528487.907135,8150079746.466875,-6.571629,5.221639,0.153552
0.540000,2.000000,0.800116,0.040000,77136761161.523163,231146699620.429474,-243404568063.065643,8492114551.444054,4.424221,-4.516600,0.159996
0.580000,2.000000,0.779106,0.040000,78700352242.841476,-403754339103.742493,212742495995.970001,8264409182.267040,-6.527334,5.087824,0.155706
0.620000,2.000000,0.759622,0.040000,83328695633.951065,222002771984.843475,-248163278244.361359,8509466471.655791,4.330525,-4.527676,0.160323
0.660000,2.000000,0.741786,0.040000,84861697048.632965,-399622016994.492859,198899741154.850708,7898505253.349380,-6.394593,4.881904,0.148812
0.700000,2.000000,0.725718,0.040000,89379303507.870804,212497627407.112274,-251606463210.071747,8031320741.789474,4.224628,-4.519362,0.151315
0.740000,2.000000,0.711539,0.040000,90866822364.818665,-390170063148.719360,182417595107.717987,7015957845.974111,-6.176777,4.611106,0.132185
0.780000,2.000000,0.699362,0.040000,95228859042.526810,202112327186.419922,-252832421311.504211,7049052898.340964,4.094592,-4.476831,0.132808
0.820000,2.000000,0.689295,0.040000,96655666319.613052,-375815228714.862488,164092825029.758850,5659081565.079493,-5.883885,4.288296,0.106620
0.860000,2.000000,0.681431,0.040000,100818071225.119263,190474861790.769104,-251123473162.073822,5631733301.535696,3.931453,-4.388515,0.106105
0.900000,2.000000,0.675846,0.040000,102169913459.648056,-357292502774.450806,144857074323.767670,3942522659.202367,-5.530876,3.929913,0.074279
0.940000,2.000000,0.672599,0.040000,106093096844.716400,177427902184.667877,-246058588906.106140,3912046185.103804,3.730757,-4.247974,0.073705
0.980000,2.000000,0.671721,0.040000,107357862212.782440,-335539054694.638062,125637213422.928787,2029583459.486365,-5.135349,3.553480,0.038239
1.020000,2.000000,0.671721,0.040000,111009745844.733994,163053705858.253418,-237569119734.280640,2057756894.057095,3.493200,-4.054766,0.038769
1.060000,2.000000,0.672599,0.040000,112178315433.856262,-311565915294.555176,107234219091.437683,98763602.941781,-4.715164,3.175273,0.001861
1.100000,2.000000,0.675846,0.040000,115536310606.299042,147650188916.963074,-225927057905.658844,238009688.516036,3.224250,-3.814162,0.004484
1.140000,2.000000,0.681431,0.040000,116603001956.046127,-286345294566.656250,90244696611.693054,-1689096982.437259,-4.286517,2.808657,-0.031824
1.180000,2.000000,0.689295,0.040000,119654770735.958069,131667686512.639297,-211675223932.878387,-1405569471.327111,2.932912,-3.535867,-0.026482
1.220000,2.000000,0.699362,0.040000,120617369101.797501,-260730568813.672424,75033044417.974503,-3214362239.934500,-3.862720,2.463261,-0.060560
1.260000,2.000000,0.711539,0.040000,123360455983.085831,115626427601.416351,-195523171629.340576,-2776339427.177207,2.630059,-3.232180,-0.052308
1.300000,2.000000,0.725718,0.040000,124219902405.019791,-235413124945.357178,61747159421.180336,-4408819456.680472,-3.453730,2.144943,-0.083065
1.340000,2.000000,0.741786,0.040000,126660499238.511017,100036573095.043228,-178236760105.154358,-3827114967.052952,2.326748,-2.916083,-0.072105
1.380000,2.000000,0.759622,0.040000,127420346802.966858,-210910635736.832855,50361824579.002357,-5253550083.168586,-3.066229,1.856296,-0.098980
1.420000,2.000000,0.779106,0.040000,129571532782.113235,85336998527.312668,-160544110314.696472,-4554275038.825122,2.032882,-2.599660,-0.085805
1.460000,2.000000,0.800116,0.040000,130237290903.496017,-187576930274.863098,40732590010.785851,-5768596131.629425,-2.704068,1.597415,-0.108684
1.500000,2.000000,0.822536,0.040000,132117079037.489807,71859997826.358688,-143070503917.065002,-4986103085.607372,1.756378,-2.293037,-0.093941
1.540000,2.000000,0.846254,0.040000,132695548358.020218,-165623569049.122070,32646830979.060390,-5999327675.030775,-2.368836,1.366693,-0.113031
1.580000,2.000000,0.871163,0.040000,134325000787.798874,59820916479.508057,-126304588301.192917,-5169778759.360750,1.502838,-2.003874,-0.097402
1.620000,2.000000,0.897165,0.040000,134823670934.243225,-145145507850.399567,25864460475.149273,-6003419632.898233,-2.060428,1.161499,-0.113108
1.660000,2.000000,0.924167,0.040000,136225253117.187271,49326705876.946152,-110591116808.209900,-5160052022.506855,1.275621,-1.737324,-0.097218
1.700000,2.000000,0.952084,0.040000,136651803336.454300,-126146040492.455338,20145952686.167351,-5840658045.314886,-1.777534,0.978692,-0.110041
1.740000,2.000000,0.980838,0.040000,137848059261.707092,40395780215.579056,-96142181030.222107,-5011008475.925699,1.076168,-1.496286,-0.094410
1.780000,2.000000,1.008730,0.040000,138209975085.629761,-108558540867.396194,15268734638.680967,-5566255362.345912,-1.518016,0.814962,-0.104871
1.820000,2.000000,1.037051,0.040000,139222537599.310333,32982364551.813194,-83058714112.346619,-4771079187.025129,0.904447,-1.281834,-0.089890
1.860000,2.000000,1.065575,0.040000,139526838072.670074,-92264081537.388962,11034584595.005316,-5227344521.040693,-1.279186,0.667021,-0.098486
1.900000,2.000000,1.093503,0.040000,140375744407.384338,27000463719.214130,-71355628320.529282,-4480739023.713022,0.759407,-1.093678,-0.084420
1.940000,2.000000,1.122162,0.040000,140628803881.712494,-77104883500.983551,7270950143.156813,-4861860250.493251,-1.057987,0.531702,-0.091600
1.980000,2.000000,1.150158,0.040000,141332063928.875824,22344659490.293850,-60986113772.427521,-4172088371.596877,0.639395,-0.930606,-0.078605
2.020000,2.000000,1.178441,0.040000,141539508234.453186,-62893969375.391396,3828671857.095396,-4498941178.286877,-0.851112,0.405982,-0.084763
2.060000,2.000000,1.206988,0.040000,142112866297.454926,18906611796.427059,-51862618101.859978,-3869541253.433283,0.542485,-0.790849,-0.072904
2.100000,2.000000,1.234924,0.040000,142279523112.811676,-49421558980.308899,577935824.403084,-4160098432.110138,-0.655058,0.286961,-0.078379
2.140000,2.000000,1.263509,0.040000,142736356897.776459,16587207406.583996,-43873513434.971191,-3590959315.601736,0.466740,-0.672375,-0.067656
2.180000,2.000000,1.291587,0.040000,142866242459.696411,-36458861394.992157,-2596333923.022077,-3860492187.925605,-0.466159,0.171830,-0.072734
2.220000,2.000000,1.319838,0.040000,143217551075.556854,15304647908.946466,-36895346158.723717,-3348522269.508029,0.410383,-0.573095,-0.063088
2.260000,2.000000,1.348405,0.040000,143313878643.094940,-23760551327.220108,-5798734586.355512,-3609293461.390017,-0.280588,0.057823,-0.068001
2.300000,2.000000,1.376347,0.040000,143568321048.682648,14997196985.646503,-30800298169.160572,-3147570869.859075,0.371878,-0.490974,-0.059302
2.340000,2.000000,1.404873,0.040000,143633519916.308502,-11068068785.479181,-9121938947.966877,-3407852873.895108,-0.094411,-0.057745,-0.064206
2.380000,2.000000,1.433947,0.040000,143797476674.746460,-428984554509.454590,-737839377154.284180,336912391870.248962,-1.487226,-7.306230,6.347625
2.420000,2.000000,1.463537,0.040000,143833231060.981506,-5259006675923.457031,-14722251034653.373047,5829114621872.989258,13.854809,-164.438201,109.823899
2.460000,2.000000,1.493612,0.040000,143911359420.584198,4642102007759.810547,-54177089682131.250000,3727793039175.974121,367.440258,-740.747412,70.233782
2.500000,2.000000,1.524143,0.040000,5097501970.571443,-449581253647.871033,-78345457802857.703125,5317270129946.413086,436.892893,-1030.710578,100.180452
