x,y,R,s,phi,sigma_xx,sigma_yy,tau_xy,epsilon_xx,epsilon_yy,epsilon_xy
-2.120000,-1.680000,0.320052,0.080000,-8817865564.479698,-31626742.487124,28123330.689287,-129248182.086670,-0.000576,0.000550,-0.002435
-2.040000,-1.680000,0.320026,0.080000,-8819825456.374414,-46221973.726616,42943674.321100,-85334378.876143,-0.000852,0.000828,-0.001608
-1.960000,-1.680000,0.320301,0.080000,-8821520318.387463,-46336652.867230,42836284.253291,-55449537.948534,-0.000853,0.000827,-0.001045
-1.880000,-1.680000,0.320061,0.080000,-8822943271.129784,-41534993.507429,38435054.675293,-35625876.013352,-0.000765,0.000742,-0.000671
-1.800000,-1.680000,0.320020,0.080000,-8824122196.235426,-35523210.792150,32499658.547175,-22997114.410307,-0.000652,0.000629,-0.000433
-1.720000,-1.680000,0.320281,0.080000,-8825093775.727652,-29853864.645423,26888437.671967,-14858339.996506,-0.000546,0.000523,-0.000280
-1.640000,-1.680000,0.320070,0.080000,-8825893358.382368,-24973574.914262,22050323.018266,-9575211.824945,-0.000454,0.000432,-0.000180
-1.560000,-1.680000,0.320015,0.080000,-8826551684.189005,-20931467.692383,18038158.419413,-6113652.771099,-0.000378,0.000356,-0.000115
-1.480000,-1.680000,0.320261,0.080000,-8827094357.973761,-17638599.311056,14766372.722332,-3825305.765906,-0.000316,0.000294,-0.000072
-1.400000,-1.680000,0.320081,0.080000,-8827542310.677404,-14972210.051984,12114812.505220,-2302032.420602,-0.000266,0.000244,-0.000043
-1.320000,-1.680000,0.320011,0.080000,-8827912529.181829,-12814548.277478,9967616.278372,-1284314.051285,-0.000225,0.000204,-0.000024
-1.240000,-1.680000,0.320242,0.080000,-8828218780.413881,-11064953.675482,8225450.261951,-605024.114553,-0.000192,0.000171,-0.000011
-1.160000,-1.680000,0.320092,0.080000,-8828472239.644968,-9641520.600221,6807323.332281,-155061.521513,-0.000166,0.000144,-0.000003
-1.080000,-1.680000,0.320007,0.080000,-8828682005.935118,-8479106.791083,5648727.396828,137765.490344,-0.000144,0.000122,0.000003
-1.000000,-1.680000,0.320224,0.080000,-8828855514.117155,-7526432.830614,4698821.615752,321846.654717,-0.000126,0.000105,0.000006
-0.920000,-1.680000,0.320104,0.080000,-8828998860.175066,-6743283.512953,3917690.879527,430013.380161,-0.000111,0.000090,0.000008
-0.840000,-1.680000,0.320004,0.080000,-8829117057.024403,-6098120.766076,3274009.765199,484790.903644,-0.000099,0.000078,0.000009
-0.760000,-1.680000,0.320206,0.080000,-8829214235.413750,-5566176.773953,2743160.914958,501789.026524,-0.000089,0.000068,0.000009
-0.680000,-1.680000,0.320116,0.080000,-8829293801.884714,-5127968.090636,2305763.079403,491925.795060,-0.000081,0.000059,0.000009
-0.600000,-1.680000,0.320002,0.080000,-8829358563.167738,-4768141.591608,1946538.878107,462902.113306,-0.000074,0.000053,0.000009
-0.520000,-1.680000,0.320190,0.080000,-8829410824.258060,-4474601.499101,1653448.228563,420190.167753,-0.000068,0.000047,0.000008
-0.440000,-1.680000,0.320129,0.080000,-8829452465.717878,-4237849.809968,1417028.802838,367709.515135,-0.000064,0.000043,0.000007
-0.360000,-1.680000,0.320001,0.080000,-8829485004.426565,-4050476.204391,1229898.564089,308292.897705,-0.000060,0.000039,0.000006
-0.280000,-1.680000,0.320173,0.080000,-8829509640.978119,-3906781.580075,1086380.506957,244009.434159,-0.000058,0.000036,0.000005
-0.200000,-1.680000,0.320143,0.080000,-8829527296.132351,-3802503.091967,982222.954379,176398.171110,-0.000056,0.000034,0.000003
-0.120000,-1.680000,0.320000,0.080000,-8829538638.109810,-3734603.249335,914398.148780,106638.455083,-0.000054,0.000033,0.000002
-0.040000,-1.680000,0.320158,0.080000,-8829544102.030853,-3701129.039472,880961.375925,35675.816244,-0.000054,0.000033,0.000001
0.040000,-1.680000,0.320158,0.080000,-8829543902.403326,-3701128.857281,880961.193350,-35674.247281,-0.000054,0.000033,-0.000001
0.120000,-1.680000,0.320000,0.080000,-8829538039.228388,-3734602.699479,914397.596531,-106636.890188,-0.000054,0.000033,-0.000002
0.200000,-1.680000,0.320143,0.080000,-8829526298.000603,-3802502.159105,982222.023680,-176396.615095,-0.000056,0.000034,-0.000003
0.280000,-1.680000,0.320173,0.080000,-8829508243.601982,-3906780.246328,1086379.173431,-244007.892984,-0.000058,0.000036,-0.000005
0.360000,-1.680000,0.320001,0.080000,-8829483207.814596,-4050474.438834,1229896.798062,-308291.378700,-0.000060,0.000039,-0.000006
0.440000,-1.680000,0.320129,0.080000,-8829450269.881405,-4237847.571043,1417026.564578,-367708.027846,-0.000064,0.000043,-0.000007
0.520000,-1.680000,0.320190,0.080000,-8829408229.211441,-4474598.733239,1653445.466253,-420188.724948,-0.000068,0.000047,-0.000008
0.600000,-1.680000,0.320002,0.080000,-8829355568.928679,-4768138.233103,1946535.524263,-462900.732590,-0.000074,0.000053,-0.000009
0.680000,-1.680000,0.320116,0.080000,-8829290408.474718,-5127964.056913,2305759.050222,-491924.501190,-0.000081,0.000059,-0.000009
0.760000,-1.680000,0.320206,0.080000,-8829210442.858669,-5566171.960629,2743156.108462,-501787.852476,-0.000089,0.000068,-0.000009
0.840000,-1.680000,0.320004,0.080000,-8829112865.355055,-6098115.046201,3274004.052558,-484789.894160,-0.000099,0.000078,-0.000009
0.920000,-1.680000,0.320104,0.080000,-8828994269.428091,-6743276.728274,3917684.103454,-430012.597876,-0.000111,0.000090,-0.000008
1.000000,-1.680000,0.320224,0.080000,-8828850524.336020,-7526424.784703,4698813.582334,-321846.186664,-0.000126,0.000105,-0.000006
1.080000,-1.680000,0.320007,0.080000,-8828676617.171354,-8479097.240364,5648717.864542,-137765.457862,-0.000144,0.000122,-0.000003
1.160000,-1.680000,0.320092,0.080000,-8828466451.959717,-9641509.242741,6807311.999234,155060.947086,-0.000166,0.000144,0.000003
1.240000,-1.680000,0.320242,0.080000,-8828212593.879841,-11064940.133472,8225436.751949,605022.688409,-0.000192,0.000171,0.000011
1.320000,-1.680000,0.320011,0.080000,-8827905943.885670,-12814532.077319,9967600.122151,1284311.420420,-0.000225,0.000204,0.000024
1.400000,-1.680000,0.320081,0.080000,-8827535326.722757,-14972190.601774,12114793.114922,2302028.070454,-0.000266,0.000244,0.000043
1.480000,-1.680000,0.320261,0.080000,-8827086975.484997,-17638575.872707,14766349.366322,3825298.935139,-0.000316,0.000294,0.000072
1.560000,-1.680000,0.320015,0.080000,-8826543903.315891,-20931439.358806,18038130.199065,6113642.316742,-0.000378,0.000356,0.000115
1.640000,-1.680000,0.320070,0.080000,-8825885179.305794,-24973540.601799,22050288.864352,9575196.007104,-0.000454,0.000432,0.000180
1.720000,-1.680000,0.320281,0.080000,-8825085198.666365,-29853823.144773,26888396.392734,14858316.130344,-0.000546,0.000523,0.000280
1.800000,-1.680000,0.320020,0.080000,-8824113221.453444,-35523160.967987,32499609.029177,22997078.308828,-0.000652,0.000629,0.000433
1.880000,-1.680000,0.320061,0.080000,-8822933898.943033,-41534934.870538,38434996.456524,35625821.120885,-0.000765,0.000742,0.000671
1.960000,-1.680000,0.320301,0.080000,-8821510549.165689,-46336587.163977,42836219.557284,55449453.789174,-0.000853,0.000827,0.001045
2.040000,-1.680000,0.320026,0.080000,-8819815290.528404,-46221908.031668,42943609.302045,85334250.833087,-0.000852,0.000828,0.001608
2.120000,-1.680000,0.320052,0.080000,-8817855002.411392,-31626697.628705,28123286.830876,129247989.739131,-0.000576,0.000550,0.002435
-2.120000,-1.600000,0.380012,0.080000,-8819384100.438837,5739595.441730,-8998679.340960,-99611763.787218,0.000127,-0.000151,-0.001877
-2.040000,-1.600000,0.400021,0.080000,-8820722070.797241,-15805965.696363,12746564.747913,-74928201.895032,-0.000281,0.000257,-0.001412
-1.960000,-1.600000,0.400241,0.080000,-8821985172.580545,-24595544.768970,21575588.830007,-54365055.379650,-0.000446,0.000424,-0.001024
-1.880000,-1.600000,0.400048,0.080000,-8823114718.586893,-26612654.336335,23725569.949633,-38238226.869523,-0.000485,0.000463,-0.000720
-1.800000,-1.600000,0.400016,0.080000,-8824095680.498890,-25463893.109012,22564372.432003,-26800194.833453,-0.000463,0.000442,-0.000505
-1.720000,-1.600000,0.400225,0.080000,-8824933838.495720,-23092450.004707,20197830.211114,-18735683.399646,-0.000419,0.000397,-0.000353
-1.640000,-1.600000,0.400056,0.080000,-8825643458.765703,-20411524.511022,17527932.782998,-13093374.275393,-0.000368,0.000347,-0.000247
-1.560000,-1.600000,0.400012,0.080000,-8826241176.623808,-17833225.046738,14961534.483627,-9146476.912211,-0.000320,0.000298,-0.000172
-1.480000,-1.600000,0.400209,0.080000,-8826743193.050388,-15519743.477450,12658735.409375,-6376050.784788,-0.000276,0.000255,-0.000120
-1.400000,-1.600000,0.400065,0.080000,-8827164141.012678,-13514403.762911,10662258.013955,-4422069.566223,-0.000238,0.000217,-0.000083
-1.320000,-1.600000,0.400009,0.080000,-8827516754.044041,-11807545.117142,8962468.415803,-3037373.450596,-0.000206,0.000185,-0.000057
-1.240000,-1.600000,0.400194,0.080000,-8827811897.438705,-10368692.258072,7529139.948429,-2052472.265246,-0.000179,0.000158,-0.000039
-1.160000,-1.600000,0.400073,0.080000,-8828058745.827330,-9161723.524213,6326444.019260,-1350672.901398,-0.000157,0.000135,-0.000025
-1.080000,-1.600000,0.400006,0.080000,-8828265004.281656,-8151617.658079,5319627.916295,-851088.355491,-0.000138,0.000116,-0.000016
-1.000000,-1.600000,0.400179,0.080000,-8828437126.565115,-7307111.158641,4477651.386181,-497189.270088,-0.000122,0.000100,-0.000009
-0.920000,-1.600000,0.400083,0.080000,-8828580511.736584,-6601430.228024,3773917.624887,-249115.938709,-0.000108,0.000087,-0.000005
-0.840000,-1.600000,0.400004,0.080000,-8828699673.417700,-6012166.967060,3186155.569953,-78503.431038,-0.000097,0.000076,-0.000001
-0.760000,-1.600000,0.400165,0.080000,-8828798381.942533,-5520820.027390,2695968.226548,35021.314863,-0.000088,0.000067,0.000001
-0.680000,-1.600000,0.400093,0.080000,-8828879781.997589,-5112245.383175,2288290.562843,106228.593144,-0.000080,0.000059,0.000002
-0.600000,-1.600000,0.400002,0.080000,-8828946489.072418,-4774126.824088,1950865.917381,145929.672765,-0.000074,0.000053,0.000003
-0.520000,-1.600000,0.400152,0.080000,-8829000667.993946,-4496509.408205,1673784.121918,162118.646105,-0.000069,0.000047,0.000003
-0.440000,-1.600000,0.400104,0.080000,-8829044096.460367,-4271407.791251,1449093.388919,160774.018746,-0.000065,0.000043,0.000003
-0.360000,-1.600000,0.400001,0.080000,-8829078216.038858,-4092487.423095,1270484.189514,146428.139887,-0.000061,0.000040,0.000003
-0.280000,-1.600000,0.400139,0.080000,-8829104172.640892,-3954811.313543,1133037.978799,122577.463023,-0.000059,0.000037,0.000002
-0.200000,-1.600000,0.400115,0.080000,-8829122848.079824,-3854643.787637,1033032.395503,91983.525121,-0.000057,0.000035,0.000002
-0.120000,-1.600000,0.400000,0.080000,-8829134883.956324,-3789303.308539,967795.101046,56899.303508,-0.000055,0.000034,0.000001
-0.040000,-1.600000,0.400126,0.080000,-8829140698.807251,-3757057.814874,935599.804090,19245.597382,-0.000055,0.000034,0.000000
0.040000,-1.600000,0.400126,0.080000,-8829140499.184181,-3757057.635803,935599.626489,-19244.391292,-0.000055,0.000034,-0.000000
0.120000,-1.600000,0.400000,0.080000,-8829134285.088228,-3789302.770038,967794.562068,-56898.109821,-0.000055,0.000034,-0.000001
0.200000,-1.600000,0.400115,0.080000,-8829121849.970184,-3854642.875842,1033031.486602,-91982.356277,-0.000057,0.000035,-0.000002
0.280000,-1.600000,0.400139,0.080000,-8829102775.295523,-3954810.010752,1133036.678879,-122576.333128,-0.000059,0.000037,-0.000002
0.360000,-1.600000,0.400001,0.080000,-8829076419.466110,-4092485.700673,1270482.471740,-146427.065944,-0.000061,0.000040,-0.000003
0.440000,-1.600000,0.400104,0.080000,-8829041900.671251,-4271405.613157,1449091.215301,-160773.021311,-0.000065,0.000043,-0.000003
0.520000,-1.600000,0.400152,0.080000,-8828998073.002386,-4496506.728212,1673781.442565,-162117.750170,-0.000069,0.000047,-0.000003
0.600000,-1.600000,0.400002,0.080000,-8828943494.895638,-4774123.577621,1950862.677119,-145928.910017,-0.000074,0.000053,-0.000003
0.680000,-1.600000,0.400093,0.080000,-8828876388.656351,-5112241.497759,2288286.685837,-106228.004544,-0.000080,0.000059,-0.000002
0.760000,-1.600000,0.400165,0.080000,-8828794589.461702,-5520815.412611,2695963.621070,-35020.953589,-0.000088,0.000067,-0.000001
0.840000,-1.600000,0.400004,0.080000,-8828695481.826805,-6012161.513017,3186150.124489,78503.495332,-0.000097,0.000076,0.000001
0.920000,-1.600000,0.400083,0.080000,-8828575921.070568,-6601423.798260,3773911.207886,249115.613650,-0.000108,0.000087,0.000005
1.000000,-1.600000,0.400179,0.080000,-8828432136.865133,-7307103.590637,4477643.835576,497188.432467,-0.000122,0.000100,0.000009
1.080000,-1.600000,0.400006,0.080000,-8828259615.596121,-8151608.757079,5319619.034761,851086.839537,-0.000138,0.000116,0.000016
1.160000,-1.600000,0.400073,0.080000,-8828052958.213207,-9161713.053280,6326433.572732,1350670.481182,-0.000157,0.000135,0.000025
1.240000,-1.600000,0.400194,0.080000,-8827805710.962984,-10368679.934876,7529127.656532,2052468.629760,-0.000179,0.000158,0.000039
1.320000,-1.600000,0.400009,0.080000,-8827510168.785524,-11807530.608867,8962453.946980,3037368.168690,-0.000206,0.000185,0.000057
1.400000,-1.600000,0.400065,0.080000,-8827157157.064112,-13514386.684032,10662240.985882,4422062.034912,-0.000238,0.000217,0.000083
1.480000,-1.600000,0.400209,0.080000,-8826735810.520874,-15519723.399240,12658715.396712,6376040.151242,-0.000276,0.000255,0.000120
1.560000,-1.600000,0.400012,0.080000,-8826233395.641457,-17833201.530358,14961511.045534,9146461.960474,-0.000320,0.000298,0.000172
1.640000,-1.600000,0.400056,0.080000,-8825635279.480442,-20411497.177454,17527905.548663,13093353.263252,-0.000368,0.000347,0.000247
1.720000,-1.600000,0.400225,0.080000,-8824925261.081400,-23092418.716847,20197799.039349,18735653.827689,-0.000419,0.000397,0.000353
1.800000,-1.600000,0.400016,0.080000,-8824086705.153915,-25463858.327082,22564337.773349,26800153.143512,-0.000463,0.000442,0.000505
1.880000,-1.600000,0.400048,0.080000,-8823105345.530731,-26612617.840303,23725533.564353,38238168.118805,-0.000485,0.000463,0.000720
1.960000,-1.600000,0.400241,0.080000,-8821975402.041275,-24595511.151028,21575555.514443,54364972.699519,-0.000446,0.000424,0.001024
2.040000,-1.600000,0.400021,0.080000,-8820711902.981493,-15805944.752324,12746544.163296,74928088.781551,-0.000281,0.000257,0.001412
2.120000,-1.600000,0.380012,0.080000,-8819373535.468594,5739585.265895,-8998668.519935,99611614.080550,0.000127,-0.000151,0.001877
-2.120000,-1.520000,0.380207,0.080000,-8820877583.826729,21648303.026408,-25254286.348813,-72035494.330134,0.000428,-0.000455,-0.001357
-2.040000,-1.520000,0.460171,0.080000,-8821724675.935995,2099378.693555,-5231018.398007,-60389142.976069,0.000057,-0.000081,-0.001138
-1.960000,-1.520000,0.480201,0.080000,-8822608461.322044,-9178775.829910,6105687.653989,-47841134.984977,-0.000156,0.000132,-0.000901
-1.880000,-1.520000,0.480040,0.080000,-8823455965.559366,-14663459.111973,11774377.216959,-36337314.514496,-0.000260,0.000238,-0.000685
-1.800000,-1.520000,0.480013,0.080000,-8824231257.919306,-16601554.290644,13690170.518194,-27189063.602970,-0.000296,0.000274,-0.000512
-1.720000,-1.520000,0.480187,0.080000,-8824920788.963760,-16657466.624703,13746040.986723,-20158225.348177,-0.000297,0.000275,-0.000380
-1.640000,-1.520000,0.480047,0.080000,-8825523389.162071,-15778783.854935,12877102.694149,-14882129.828780,-0.000281,0.000259,-0.000280
-1.560000,-1.520000,0.480010,0.080000,-8826044133.086220,-14503795.343577,11614867.133162,-10967563.007767,-0.000257,0.000235,-0.000207
-1.480000,-1.520000,0.480174,0.080000,-8826490816.536631,-13122747.146187,10246362.833784,-8075768.513559,-0.000231,0.000209,-0.000152
-1.400000,-1.520000,0.480054,0.080000,-8826872038.074467,-11782983.329680,8917646.990905,-5940499.858515,-0.000206,0.000184,-0.000112
-1.320000,-1.520000,0.480007,0.080000,-8827196213.527695,-10552382.905634,7696260.188933,-4361432.375029,-0.000183,0.000161,-0.000082
-1.240000,-1.520000,0.480162,0.080000,-8827471113.325171,-9456059.530142,6607396.817785,-3191022.427888,-0.000162,0.000141,-0.000060
-1.160000,-1.520000,0.480061,0.080000,-8827703683.379316,-8497045.472727,5654324.495889,-2321628.387048,-0.000144,0.000123,-0.000044
-1.080000,-1.520000,0.480005,0.080000,-8827900013.776632,-7667716.498659,4829686.003065,-1674933.285340,-0.000128,0.000107,-0.000032
-1.000000,-1.520000,0.480149,0.080000,-8828065379.855547,-6955971.656539,4121627.500710,-1193879.843087,-0.000115,0.000094,-0.000022
-0.920000,-1.520000,0.480069,0.080000,-8828204314.619345,-6348481.981340,3517029.813563,-836738.931858,-0.000104,0.000082,-0.000016
-0.840000,-1.520000,0.480003,0.080000,-8828320690.732376,-5832320.816513,3003136.674368,-572824.143405,-0.000094,0.000073,-0.000011
-0.760000,-1.520000,0.480138,0.080000,-8828417801.054241,-5395713.658733,2568308.522598,-379419.935799,-0.000086,0.000064,-0.000007
-0.680000,-1.520000,0.480077,0.080000,-8828498432.525063,-5028319.506065,2202309.646329,-239584.055043,-0.000079,0.000057,-0.000005
-0.600000,-1.520000,0.480001,0.080000,-8828564931.352657,-4721272.259217,1896355.338044,-140572.597426,-0.000073,0.000052,-0.000003
-0.520000,-1.520000,0.480126,0.080000,-8828619259.076441,-4467107.778658,1643043.945840,-72706.253818,-0.000068,0.000047,-0.000001
-0.440000,-1.520000,0.480086,0.080000,-8828663039.871065,-4259644.604239,1436241.683828,-28548.660224,-0.000064,0.000043,-0.000001
-0.360000,-1.520000,0.480001,0.080000,-8828697599.784910,-4093854.316806,1270956.209453,-2305.512386,-0.000061,0.000040,-0.000000
-0.280000,-1.520000,0.480116,0.080000,-8828723998.697975,-3965739.843032,1143217.380436,10620.245162,-0.000059,0.000037,0.000000
-0.200000,-1.520000,0.480096,0.080000,-8828743055.748327,-3872230.378024,1049974.033444,13963.245291,-0.000057,0.000036,0.000000
-0.120000,-1.520000,0.480000,0.080000,-8828755368.879293,-3811096.590628,989010.507853,10853.765101,-0.000056,0.000035,0.000000
-0.040000,-1.520000,0.480105,0.080000,-8828761329.037300,-3780887.211410,958884.168854,4023.467627,-0.000055,0.000034,0.000000
0.040000,-1.520000,0.480105,0.080000,-8828761129.417540,-3780887.039860,958883.999165,-4022.604216,-0.000055,0.000034,-0.000000
0.120000,-1.520000,0.480000,0.080000,-8828754770.021076,-3811096.075115,989009.992718,-10852.921052,-0.000056,0.000035,-0.000000
0.200000,-1.520000,0.480096,0.080000,-8828742057.654970,-3872229.507114,1049973.164248,-13962.440204,-0.000057,0.000036,-0.000000
0.280000,-1.520000,0.480116,0.080000,-8828722601.375042,-3965738.600367,1143216.139597,-10619.500464,-0.000059,0.000037,-0.000000
0.360000,-1.520000,0.480001,0.080000,-8828695803.240351,-4093852.678059,1270954.572297,2306.171527,-0.000061,0.000040,0.000000
0.440000,-1.520000,0.480086,0.080000,-8828660844.115383,-4259642.535507,1436239.619088,28549.204204,-0.000064,0.000043,0.000001
0.520000,-1.520000,0.480126,0.080000,-8828616664.122877,-4467105.237839,1643041.412298,72706.647221,-0.000068,0.000047,0.000001
0.600000,-1.520000,0.480001,0.080000,-8828561937.217430,-4721269.197291,1896352.282356,140572.796929,-0.000073,0.000052,0.000003
0.680000,-1.520000,0.480077,0.080000,-8828495039.227785,-5028315.857654,2202306.008492,239584.006748,-0.000079,0.000057,0.000005
0.760000,-1.520000,0.480138,0.080000,-8828414008.618219,-5395709.349494,2568304.225228,379419.571287,-0.000086,0.000064,0.000007
0.840000,-1.520000,0.480003,0.080000,-8828316499.185175,-5832315.754637,3003131.629200,572823.374714,-0.000094,0.000073,0.000011
0.920000,-1.520000,0.480069,0.080000,-8828199723.993296,-6348476.061532,3517023.913742,836737.645784,-0.000104,0.000082,0.000016
1.000000,-1.520000,0.480149,0.080000,-8828060390.188461,-6955964.754657,4121620.621260,1193877.892671,-0.000115,0.000094,0.000022
1.080000,-1.520000,0.480005,0.080000,-8827894625.112617,-7667708.468580,4829678.002250,1674930.477677,-0.000128,0.000107,0.000032
1.160000,-1.520000,0.480061,0.080000,-8827697895.769630,-8497036.151169,5654315.210263,2321624.466405,-0.000144,0.000123,0.000044
1.240000,-1.520000,0.480162,0.080000,-8827464926.829313,-9456048.733832,6607386.068619,3191017.053411,-0.000162,0.000141,0.000060
1.320000,-1.520000,0.480007,0.080000,-8827189628.214510,-10552370.441430,7696247.785117,4361425.090377,-0.000183,0.000161,0.000082
1.400000,-1.520000,0.480054,0.080000,-8826865054.023329,-11782969.012353,8917632.744510,5940490.048589,-0.000206,0.000184,0.000112
1.480000,-1.520000,0.480174,0.080000,-8826483433.838665,-13122730.824913,10246346.598800,8075755.345482,-0.000231,0.000209,0.000152
1.560000,-1.520000,0.480010,0.080000,-8826036351.845158,-14503776.966449,11614848.863600,10967545.354247,-0.000257,0.000235,0.000207
1.640000,-1.520000,0.480047,0.080000,-8825515209.494385,-15778763.590590,12877082.553967,14882106.172837,-0.000281,0.000259,0.000280
1.720000,-1.520000,0.480187,0.080000,-8824912210.997534,-16657445.060145,13746019.564933,20158193.676985,-0.000297,0.000275,0.000380
1.800000,-1.520000,0.480013,0.080000,-8824222281.790073,-16601532.799952,13690149.171194,27189021.327259,-0.000296,0.000274,0.000512
1.880000,-1.520000,0.480040,0.080000,-8823446591.401007,-14663440.444440,11774358.659585,36337258.510693,-0.000260,0.000238,0.000685
1.960000,-1.520000,0.480201,0.080000,-8822598689.248749,-9178765.144939,6105677.352847,47841061.760689,-0.000156,0.000132,0.000901
2.040000,-1.520000,0.460171,0.080000,-8821714506.009573,2099372.970796,-5231012.205256,60389050.937737,0.000057,-0.000081,0.001138
2.120000,-1.520000,0.380207,0.080000,-8820867016.002850,21648268.854198,-25254251.018128,72035384.603424,0.000428,-0.000455,0.001357
-2.120000,-1.440000,0.380079,0.080000,-8822236575.111517,27313469.260852,-30394965.851785,-50234040.384857,0.000532,-0.000555,-0.000946
-2.040000,-1.440000,0.460065,0.080000,-8822717811.978996,11615496.053730,-14431949.032230,-46122937.775357,0.000235,-0.000256,-0.000869
-1.960000,-1.440000,0.540056,0.080000,-8823292129.067120,898012.813841,-3707562.638206,-39452696.391006,0.000033,-0.000054,-0.000743
-1.880000,-1.440000,0.560035,0.080000,-8823891052.031582,-5694821.911745,3045126.131783,-32113775.143940,-0.000092,0.000072,-0.000605
-1.800000,-1.440000,0.560012,0.080000,-8824472591.151533,-9242952.873585,6532767.793186,-25490618.698228,-0.000159,0.000138,-0.000480
-1.720000,-1.440000,0.560161,0.080000,-8825013681.322071,-10873250.749110,8119751.616051,-19909819.753441,-0.000189,0.000169,-0.000375
-1.640000,-1.440000,0.560040,0.080000,-8825503629.419561,-11335659.580996,8553517.682055,-15405054.009791,-0.000198,0.000177,-0.000290
-1.560000,-1.440000,0.560009,0.080000,-8825939303.416178,-11131191.348318,8331034.858811,-11856178.183343,-0.000194,0.000173,-0.000223
-1.480000,-1.440000,0.560149,0.080000,-8826321903.223970,-10576584.375525,7765511.553872,-9098023.749242,-0.000183,0.000162,-0.000171
-1.400000,-1.440000,0.560046,0.080000,-8826654912.786404,-9863978.126392,7046513.264307,-6969644.109675,-0.000170,0.000149,-0.000131
-1.320000,-1.440000,0.560006,0.080000,-8826942854.882662,-9105536.684795,6284477.238336,-5332589.896470,-0.000156,0.000134,-0.000100
-1.240000,-1.440000,0.560138,0.080000,-8827190562.746931,-8363799.684950,5540835.896500,-4074710.617670,-0.000142,0.000120,-0.000077
-1.160000,-1.440000,0.560052,0.080000,-8827402773.015789,-7671296.921362,4847428.021878,-3108015.063137,-0.000129,0.000107,-0.000059
-1.080000,-1.440000,0.560004,0.080000,-8827583913.280178,-7042844.217454,4218645.799086,-2364645.855133,-0.000117,0.000095,-0.000045
-1.000000,-1.440000,0.560128,0.080000,-8827738004.651468,-6483098.811443,3658890.238712,-1792725.013235,-0.000106,0.000085,-0.000034
-0.920000,-1.440000,0.560059,0.080000,-8827868630.377052,-5991132.097879,3167079.742496,-1352724.501338,-0.000097,0.000076,-0.000025
-0.840000,-1.440000,0.560003,0.080000,-8827978940.844101,-5563158.608067,2739338.840456,-1014522.050837,-0.000089,0.000068,-0.000019
-0.760000,-1.440000,0.560118,0.080000,-8828071677.257290,-5194138.548218,2370575.856363,-755102.809073,-0.000082,0.000061,-0.000014
-0.680000,-1.440000,0.560066,0.080000,-8828149203.579933,-4878698.526915,2055388.386868,-556801.994265,-0.000076,0.000055,-0.000010
-0.600000,-1.440000,0.560001,0.080000,-8828213540.751282,-4611643.456303,1788565.912540,-405975.523979,-0.000071,0.000050,-0.000008
-0.520000,-1.440000,0.560108,0.080000,-8828266399.845768,-4388226.283759,1565353.853116,-291998.688768,-0.000067,0.000045,-0.000006
-0.440000,-1.440000,0.560074,0.080000,-8828309212.413374,-4204276.805463,1381578.984423,-206511.614930,-0.000063,0.000042,-0.000004
-0.360000,-1.440000,0.560000,0.080000,-8828343157.154741,-4056250.957733,1233696.625956,-142848.143191,-0.000060,0.000039,-0.000003
-0.280000,-1.440000,0.560099,0.080000,-8828369182.603670,-3941237.504139,1118796.123439,-95599.726382,-0.000058,0.000037,-0.000002
-0.200000,-1.440000,0.560082,0.080000,-8828388025.765736,-3856944.345857,1034586.400030,-60277.685918,-0.000057,0.000035,-0.000001
-0.120000,-1.440000,0.560000,0.080000,-8828400226.796608,-3801677.588909,979374.589415,-33045.992455,-0.000056,0.000034,-0.000001
-0.040000,-1.440000,0.560090,0.080000,-8828406139.851360,-3774321.093173,952045.354854,-10503.157768,-0.000055,0.000034,-0.000000
0.040000,-1.440000,0.560090,0.080000,-8828405940.233820,-3774320.932785,952045.196326,10503.685730,-0.000055,0.000034,0.000000
0.120000,-1.440000,0.560000,0.080000,-8828399627.944981,-3801677.107526,979374.108399,33046.495365,-0.000056,0.000034,0.000001
0.200000,-1.440000,0.560082,0.080000,-8828387027.683121,-3856943.533792,1034585.589071,60278.137344,-0.000057,0.000035,0.000001
0.280000,-1.440000,0.560099,0.080000,-8828367785.295254,-3941236.348515,1118794.967208,95600.097859,-0.000058,0.000037,0.000002
0.360000,-1.440000,0.560000,0.080000,-8828341360.627966,-4056249.435170,1233695.107028,142848.402377,-0.000060,0.000039,0.000003
0.440000,-1.440000,0.560074,0.080000,-8828307016.677956,-4204274.891509,1381577.072610,206511.724883,-0.000063,0.000042,0.000004
0.520000,-1.440000,0.560108,0.080000,-8828263804.913982,-4388223.943214,1565351.515586,291998.605890,-0.000067,0.000045,0.000006
0.600000,-1.440000,0.560001,0.080000,-8828210546.638113,-4611640.648773,1788563.107731,405975.195428,-0.000071,0.000050,0.000008
0.680000,-1.440000,0.560066,0.080000,-8828145810.303373,-4878695.202465,2055385.065661,556801.355699,-0.000076,0.000055,0.000010
0.760000,-1.440000,0.560118,0.080000,-8828067884.838631,-5194134.649177,2370571.960105,755101.780650,-0.000082,0.000061,0.000014
0.840000,-1.440000,0.560003,0.080000,-8827974749.308325,-5563154.067357,2739334.302008,1014520.532383,-0.000089,0.000068,0.000019
0.920000,-1.440000,0.560059,0.080000,-8827864039.753256,-5991126.839560,3167074.486147,1352722.366445,-0.000097,0.000076,0.000025
1.000000,-1.440000,0.560128,0.080000,-8827733014.973366,-6483092.749601,3658884.181575,1792722.101650,-0.000106,0.000085,0.000034
1.080000,-1.440000,0.560004,0.080000,-8827578524.586576,-7042837.264022,4218638.848710,2364641.961629,-0.000117,0.000095,0.000045
1.160000,-1.440000,0.560052,0.080000,-8827396985.351261,-7671288.982357,4847420.089431,3108009.923565,-0.000129,0.000107,0.000059
1.240000,-1.440000,0.560138,0.080000,-8827184376.162281,-8363790.678559,5540826.894065,4074703.890876,-0.000142,0.000120,0.000077
1.320000,-1.440000,0.560006,0.080000,-8826936269.435555,-9105526.548055,6284467.101236,5332581.140861,-0.000156,0.000134,0.000100
1.400000,-1.440000,0.560046,0.080000,-8826647928.541729,-9863966.844345,7046501.976062,6969632.753720,-0.000170,0.000149,0.000131
1.480000,-1.440000,0.560149,0.080000,-8826314520.253937,-10576572.024369,7765499.191063,9098009.055987,-0.000183,0.000162,0.000171
1.560000,-1.440000,0.560009,0.080000,-8825931521.799715,-11131178.173490,8331021.654779,11856159.211698,-0.000194,0.000173,0.000223
1.640000,-1.440000,0.560040,0.080000,-8825495449.240818,-11335646.106112,8553504.151228,15405029.582092,-0.000198,0.000177,0.000290
1.720000,-1.440000,0.560161,0.080000,-8825005102.666956,-10873237.960964,8119738.731700,19909788.448540,-0.000189,0.000169,0.000375
1.800000,-1.440000,0.560012,0.080000,-8824463614.101288,-9242942.490959,6532757.251028,25490578.914716,-0.000159,0.000138,0.000480
1.880000,-1.440000,0.560035,0.080000,-8823881676.651682,-5694816.746025,3045120.717658,32113725.320990,-0.000092,0.000072,0.000605
1.960000,-1.440000,0.540056,0.080000,-8823282355.389124,898008.305655,-3707558.145942,39452635.420926,0.000033,-0.000054,0.000743
2.040000,-1.440000,0.460065,0.080000,-8822707639.972900,11615475.836663,-14431928.817109,46122866.565048,0.000235,-0.000256,0.000869
2.120000,-1.440000,0.380079,0.080000,-8822226004.646868,27313426.018234,-30394922.223106,50233962.519354,0.000532,-0.000555,0.000946
-2.120000,-1.360000,0.380004,0.080000,-8823425290.216522,26978664.018512,-30011617.911869,-34713690.009777,0.000525,-0.000548,-0.000654
-2.040000,-1.360000,0.460003,0.080000,-8823641478.277590,15285775.146777,-18141856.010436,-34421672.603420,0.000304,-0.000326,-0.000649
-1.960000,-1.360000,0.540003,0.080000,-8823973674.565487,6304529.977048,-9162295.270598,-31414732.770557,0.000135,-0.000156,-0.000592
-1.880000,-1.360000,0.620003,0.080000,-8824364677.260351,-10632.820965,-2680101.604019,-27135085.709497,0.000015,-0.000035,-0.000511
-1.800000,-1.360000,0.640010,0.080000,-8824774423.450819,-4032397.766508,1307180.190958,-22674966.991432,-0.000061,0.000040,-0.000427
-1.720000,-1.360000,0.640141,0.080000,-8825176972.982912,-6418949.119016,3664030.363730,-18535586.782716,-0.000105,0.000085,-0.000349
-1.640000,-1.360000,0.640035,0.080000,-8825556876.389515,-7676413.945897,4898881.917172,-14937767.081611,-0.000129,0.000108,-0.000281
-1.560000,-1.360000,0.640008,0.080000,-8825905951.207510,-8194650.249027,5401069.675507,-11928882.039402,-0.000139,0.000118,-0.000225
-1.480000,-1.360000,0.640131,0.080000,-8826220784.876196,-8252138.681221,5447670.748108,-9470838.295354,-0.000140,0.000118,-0.000178
-1.400000,-1.360000,0.640040,0.080000,-8826500944.569853,-8038302.105475,5226682.921737,-7491391.274974,-0.000136,0.000114,-0.000141
-1.320000,-1.360000,0.640005,0.080000,-8826747756.508595,-7677471.004131,4861277.652292,-5911067.396348,-0.000129,0.000108,-0.000111
-1.240000,-1.360000,0.640121,0.080000,-8826963503.292011,-7248832.074739,4429787.872444,-4655702.158389,-0.000121,0.000099,-0.000088
-1.160000,-1.360000,0.640046,0.080000,-8827150911.929705,-6801307.444312,3980539.738419,-3661201.035921,-0.000112,0.000091,-0.000069
-1.080000,-1.360000,0.640004,0.080000,-8827312837.106541,-6364016.703550,3542250.006793,-2874429.052058,-0.000104,0.000083,-0.000054
-1.000000,-1.360000,0.640112,0.080000,-8827452072.354124,-5953378.486454,3131070.551570,-2252373.512575,-0.000096,0.000075,-0.000042
-0.920000,-1.360000,0.640052,0.080000,-8827571243.339258,-5577823.518193,2755257.917577,-1760685.066549,-0.000089,0.000068,-0.000033
-0.840000,-1.360000,0.640002,0.080000,-8827672752.842472,-5240874.394449,2418222.171366,-1372127.151728,-0.000083,0.000062,-0.000026
-0.760000,-1.360000,0.640103,0.080000,-8827758757.527220,-4943134.544527,2120494.699697,-1065161.471834,-0.000077,0.000056,-0.000020
-0.680000,-1.360000,0.640058,0.080000,-8827831163.640688,-4683559.623929,1860985.461430,-822746.134060,-0.000072,0.000051,-0.000016
-0.600000,-1.360000,0.640001,0.080000,-8827891633.422197,-4460261.789594,1637777.942826,-631352.607490,-0.000068,0.000047,-0.000012
-0.520000,-1.360000,0.640095,0.080000,-8827941597.014158,-4271012.382389,1448625.727800,-480178.397662,-0.000065,0.000043,-0.000009
-0.440000,-1.360000,0.640065,0.080000,-8827982266.621086,-4113551.352555,1291257.970490,-360523.143635,-0.000062,0.000040,-0.000007
-0.360000,-1.360000,0.640000,0.080000,-8828014650.911455,-3985773.978022,1163563.517770,-265295.774661,-0.000059,0.000038,-0.000005
-0.280000,-1.360000,0.640087,0.080000,-8828039568.452145,-3885840.532857,1063698.948092,-188623.907052,-0.000057,0.000036,-0.000004
-0.200000,-1.360000,0.640072,0.080000,-8828057659.462643,-3812238.459880,990149.650066,-125541.165231,-0.000056,0.000035,-0.000002
-0.120000,-1.360000,0.640000,0.080000,-8828069395.485199,-3763815.933688,941762.721540,-71732.386213,-0.000055,0.000034,-0.000001
-0.040000,-1.360000,0.640079,0.080000,-8828075086.751596,-3739798.858545,917763.549369,-23320.239744,-0.000055,0.000033,-0.000000
0.040000,-1.360000,0.640079,0.080000,-8828074887.135248,-3739798.712675,917763.403729,23320.461529,-0.000055,0.000033,0.000000
0.120000,-1.360000,0.640000,0.080000,-8828068796.637087,-3763815.494220,941762.282745,71732.578441,-0.000055,0.000034,0.000001
0.200000,-1.360000,0.640072,0.080000,-8828056661.385578,-3812237.720429,990148.910803,125541.295768,-0.000056,0.000035,0.000002
0.280000,-1.360000,0.640087,0.080000,-8828038171.150862,-3885839.482269,1063697.896573,188623.941606,-0.000057,0.000036,0.000004
0.360000,-1.360000,0.640000,0.080000,-8828012854.392710,-3985772.598462,1163562.139991,265295.675732,-0.000059,0.000038,0.000005
0.440000,-1.360000,0.640065,0.080000,-8827980070.893692,-4113549.624803,1291256.242953,360522.868600,-0.000062,0.000040,0.000007
0.520000,-1.360000,0.640095,0.080000,-8827939002.089199,-4271010.279334,1448623.625718,480177.896840,-0.000065,0.000043,0.000009
0.600000,-1.360000,0.640001,0.080000,-8827888639.313147,-4460259.280273,1637775.435723,631351.821766,-0.000068,0.000047,0.000012
0.680000,-1.360000,0.640058,0.080000,-8827827770.363613,-4683556.672857,1860982.512772,822744.992378,-0.000072,0.000051,0.000016
0.760000,-1.360000,0.640103,0.080000,-8827754965.101019,-4943131.111442,2120491.268848,1065159.887520,-0.000077,0.000056,0.000020
0.840000,-1.360000,0.640002,0.080000,-8827668561.289150,-5240870.433209,2418218.215210,1372125.018555,-0.000083,0.000062,0.000026
0.920000,-1.360000,0.640052,0.080000,-8827566652.684153,-5577818.984115,2755253.387304,1760682.253734,-0.000089,0.000068,0.000033
1.000000,-1.360000,0.640112,0.080000,-8827447082.626276,-5953373.332430,3131065.401474,2252369.857065,-0.000096,0.000075,0.000042
1.080000,-1.360000,0.640004,0.080000,-8827307448.338919,-6364010.890508,3542244.192630,2874424.350367,-0.000104,0.000083,0.000054
1.160000,-1.360000,0.640046,0.080000,-8827145124.159575,-6801300.939378,3980533.234559,3661195.034009,-0.000112,0.000091,0.000069
1.240000,-1.360000,0.640121,0.080000,-8826957316.560987,-7248824.874476,4429780.671583,4655694.538655,-0.000121,0.000099,0.000088
1.320000,-1.360000,0.640005,0.080000,-8826741170.862745,-7677463.146099,4861269.790690,5911057.761938,-0.000129,0.000108,0.000111
1.400000,-1.360000,0.640040,0.080000,-8826493960.059402,-8038293.701737,5226674.505291,7491379.134085,-0.000136,0.000114,0.000141
1.480000,-1.360000,0.640131,0.080000,-8826213401.554863,-8252129.958074,5447662.002331,9470823.047069,-0.000140,0.000118,0.000178
1.560000,-1.360000,0.640008,0.080000,-8825898169.130972,-8194641.617438,5401061.004411,11928862.964962,-0.000139,0.000118,0.000225
1.640000,-1.360000,0.640035,0.080000,-8825548695.612787,-7676406.093104,4898874.001807,14937743.354231,-0.000129,0.000108,0.000281
1.720000,-1.360000,0.640141,0.080000,-8825168393.555866,-6418943.142082,3664024.290658,18535557.517626,-0.000105,0.000085,0.000349
1.800000,-1.360000,0.640010,0.080000,-8824765445.411146,-4032395.331643,1307177.618525,22674931.368895,-0.000061,0.000040,0.000427
1.880000,-1.360000,0.620003,0.080000,-8824355300.622787,-10636.338633,-2680098.273714,27135043.223562,0.000015,-0.000035,0.000511
1.960000,-1.360000,0.540003,0.080000,-8823963899.306377,6304517.127117,-9162282.360726,31414683.628864,0.000135,-0.000156,0.000592
2.040000,-1.360000,0.460003,0.080000,-8823631304.314060,15285749.025324,-18141829.832670,34421618.612852,0.000304,-0.000326,0.000649
2.120000,-1.360000,0.380004,0.080000,-8823414717.381166,26978620.588237,-30011574.164955,34713635.033952,0.000525,-0.000548,0.000654
-2.120000,-1.280000,0.380169,0.080000,-8824443643.370209,24472955.442885,-27457607.617136,-23915935.973355,0.000478,-0.000500,-0.000451
-2.040000,-1.280000,0.460140,0.080000,-8824470239.407663,16036606.598078,-18907894.161631,-25365231.035907,0.000318,-0.000340,-0.000478
-1.960000,-1.280000,0.540119,0.080000,-8824617378.907133,8945033.072872,-11824700.380823,-24492958.952271,0.000185,-0.000207,-0.000461
-1.880000,-1.280000,0.620104,0.080000,-8824839964.153767,3453246.561858,-6183003.547698,-22283772.855191,0.000080,-0.000101,-0.000420
-1.800000,-1.280000,0.700092,0.080000,-8825103227.428177,-442501.175745,-2303546.191493,-19488737.213892,0.000007,-0.000028,-0.000367
-1.720000,-1.280000,0.720125,0.080000,-8825382142.736368,-3073070.647824,309220.598377,-16592252.711742,-0.000042,0.000021,-0.000313
-1.640000,-1.280000,0.720031,0.080000,-8825659770.443613,-4737452.969758,1957849.166978,-13868361.362034,-0.000074,0.000053,-0.000261
-1.560000,-1.280000,0.720007,0.080000,-8825925365.606924,-5704029.056037,2911874.388127,-11445738.540575,-0.000092,0.000071,-0.000216
-1.480000,-1.280000,0.720116,0.080000,-8826172667.833536,-6188314.938074,3386766.259378,-9364251.869107,-0.000101,0.000080,-0.000176
-1.400000,-1.280000,0.720036,0.080000,-8826398522.087057,-6352257.757858,3543960.039464,-7615117.920482,-0.000104,0.000083,-0.000143
-1.320000,-1.280000,0.720005,0.080000,-8826601839.349497,-6312305.577682,3499298.260941,-6166375.621853,-0.000103,0.000082,-0.000116
-1.240000,-1.280000,0.720108,0.080000,-8826782847.791077,-6149553.996106,3333333.927001,-4977708.670213,-0.000100,0.000079,-0.000094
-1.160000,-1.280000,0.720041,0.080000,-8826942570.510544,-5919043.111673,3100674.362620,-4008366.924444,-0.000096,0.000074,-0.000076
-1.080000,-1.280000,0.720003,0.080000,-8827082470.664276,-5657259.432146,2837481.770378,-3220946.669206,-0.000091,0.000069,-0.000061
-1.000000,-1.280000,0.720100,0.080000,-8827204215.984215,-5387795.308024,2567114.437325,-2582840.479178,-0.000086,0.000064,-0.000049
-0.920000,-1.280000,0.720046,0.080000,-8827309526.362185,-5125450.080753,2304206.750779,-2066462.154413,-0.000081,0.000059,-0.000039
-0.840000,-1.280000,0.720002,0.080000,-8827400078.129818,-4879126.336268,2057546.917172,-1648885.989730,-0.000076,0.000055,-0.000031
-0.760000,-1.280000,0.720092,0.080000,-8827477446.386003,-4653840.020159,1832072.462040,-1311252.035753,-0.000072,0.000050,-0.000025
-0.680000,-1.280000,0.720052,0.080000,-8827543072.418678,-4452098.376777,1630237.315775,-1038119.932474,-0.000068,0.000047,-0.000020
-0.600000,-1.280000,0.720001,0.080000,-8827598247.336014,-4274835.659231,1452939.747466,-816858.387018,-0.000065,0.000043,-0.000015
-0.520000,-1.280000,0.720084,0.080000,-8827644105.870466,-4122043.568586,1300147.313896,-637105.520571,-0.000062,0.000040,-0.000012
-0.440000,-1.280000,0.720058,0.080000,-8827681626.287714,-3993192.881605,1171314.713555,-490308.487784,-0.000059,0.000038,-0.000009
-0.360000,-1.280000,0.720000,0.080000,-8827711633.678329,-3887513.291456,1065661.013142,-369337.852381,-0.000057,0.000036,-0.000007
-0.280000,-1.280000,0.720077,0.080000,-8827734804.825399,-3804177.483616,982351.945556,-268166.741525,-0.000056,0.000034,-0.000005
-0.200000,-1.280000,0.720064,0.080000,-8827751673.459194,-3742420.803490,920618.391536,-181603.148085,-0.000055,0.000033,-0.000003
-0.120000,-1.280000,0.720000,0.080000,-8827762635.125433,-3701617.695157,879832.015258,-105063.881514,-0.000054,0.000033,-0.000002
-0.040000,-1.280000,0.720070,0.080000,-8827767951.173227,-3681328.954254,859552.005574,-34379.502211,-0.000053,0.000032,-0.000001
0.040000,-1.280000,0.720070,0.080000,-8827767751.557135,-3681328.825739,859551.874492,34379.448489,-0.000053,0.000032,0.000001
0.120000,-1.280000,0.720000,0.080000,-8827762036.278017,-3701617.305502,879831.624164,105063.794014,-0.000054,0.000033,0.000002
0.200000,-1.280000,0.720064,0.080000,-8827750675.382959,-3742420.147294,920617.735833,181602.990804,-0.000055,0.000033,0.000003
0.280000,-1.280000,0.720077,0.080000,-8827733407.524542,-3804176.552905,982351.015640,268166.476198,-0.000056,0.000034,0.000005
0.360000,-1.280000,0.720000,0.080000,-8827709837.158823,-3887512.073452,1065659.799100,369337.437914,-0.000057,0.000036,0.000007
0.440000,-1.280000,0.720058,0.080000,-8827679430.557318,-3993191.363976,1171313.197648,490307.877549,-0.000059,0.000038,0.000009
0.520000,-1.280000,0.720084,0.080000,-8827641510.938910,-4122041.732137,1300145.479596,637104.660449,-0.000062,0.000040,0.000012
0.600000,-1.280000,0.720001,0.080000,-8827595253.215050,-4274833.483629,1452937.574016,816857.214504,-0.000065,0.000043,0.000015
0.680000,-1.280000,0.720052,0.080000,-8827539679.122231,-4452095.839900,1630234.780361,1038118.373357,-0.000068,0.000047,0.000020
0.760000,-1.280000,0.720092,0.080000,-8827473653.930321,-4653837.097829,1832069.541697,1311250.000617,-0.000072,0.000050,0.000025
0.840000,-1.280000,0.720002,0.080000,-8827395886.533602,-4879123.005515,2057543.587377,1648883.371757,-0.000076,0.000055,0.000031
0.920000,-1.280000,0.720046,0.080000,-8827304935.646769,-5125446.320630,2304202.992147,2066458.825057,-0.000081,0.000059,0.000039
1.000000,-1.280000,0.720100,0.080000,-8827199226.173649,-5387791.107116,2567110.235544,2582836.281493,-0.000086,0.000064,0.000049
1.080000,-1.280000,0.720003,0.080000,-8827077081.785477,-5657254.788000,2837477.127216,3220941.411870,-0.000091,0.000069,0.000061
1.160000,-1.280000,0.720041,0.080000,-8826936782.593180,-5919038.049558,3100669.295653,4008360.376013,-0.000096,0.000074,0.000076
1.240000,-1.280000,0.720108,0.080000,-8826776660.867561,-6149548.569911,3333328.494566,4977700.551281,-0.000100,0.000079,0.000094
1.320000,-1.280000,0.720005,0.080000,-8826595253.454508,-6312299.898708,3499292.570840,6166365.597139,-0.000103,0.000082,0.000116
1.400000,-1.280000,0.720036,0.080000,-8826391537.256880,-6352252.017207,3543954.281148,7615105.594055,-0.000104,0.000083,0.000143
1.480000,-1.280000,0.720116,0.080000,-8826165284.104795,-6188309.448227,3386760.741547,9364236.785779,-0.000101,0.000080,0.000176
1.560000,-1.280000,0.720007,0.080000,-8825917583.014612,-5704024.298474,2911869.593150,11445720.196784,-0.000092,0.000071,0.000216
1.640000,-1.280000,0.720031,0.080000,-8825651589.017864,-4737449.670681,1957845.807368,13868339.238806,-0.000074,0.000053,0.000261
1.720000,-1.280000,0.720125,0.080000,-8825373562.497988,-3073069.841964,309219.712921,16592226.346765,-0.000042,0.000021,0.000313
1.800000,-1.280000,0.700092,0.080000,-8825094248.381767,-442504.302022,-2303543.174721,19488706.329672,0.000007,-0.000028,0.000367
1.880000,-1.280000,0.620104,0.080000,-8824830586.278698,3453237.628631,-6182994.746115,22283737.568904,0.000080,-0.000101,0.000420
1.960000,-1.280000,0.540119,0.080000,-8824607602.145418,8945015.958688,-11824683.176112,24492920.076717,0.000185,-0.000207,0.000461
2.040000,-1.280000,0.460140,0.080000,-8824460063.649534,16036578.909855,-18907866.395940,25365190.492749,0.000318,-0.000340,0.000478
2.120000,-1.280000,0.380169,0.080000,-8824433068.438658,24472915.134438,-27457567.058308,23915897.095589,0.000478,-0.000500,0.000451
-2.120000,-1.200000,0.380106,0.080000,-8825306466.610147,21326973.843452,-24270884.392727,-16495615.821516,0.000418,-0.000441,-0.000311
-2.040000,-1.200000,0.460087,0.080000,-8825198032.712803,15321800.639245,-18194672.767641,-18593853.609899,0.000305,-0.000327,-0.000350
-1.960000,-1.200000,0.540074,0.080000,-8825205463.705919,9894030.282357,-12779129.246729,-18872947.868848,0.000203,-0.000224,-0.000356
-1.880000,-1.200000,0.620065,0.080000,-8825294265.098398,5361554.275384,-8122214.732218,-17974131.207414,0.000117,-0.000137,-0.000339
-1.800000,-1.200000,0.700057,0.080000,-8825435773.861284,1878517.060890,-4644544.983070,-16368447.173950,0.000051,-0.000072,-0.000308
-1.720000,-1.200000,0.780051,0.080000,-8825607669.447662,-687150.631716,-2088068.746987,-14452491.064668,0.000003,-0.000024,-0.000272
-1.640000,-1.200000,0.800028,0.080000,-8825793478.791222,-2486936.447778,-298127.659637,-12483406.915579,-0.000031,0.000010,-0.000235
-1.560000,-1.200000,0.800006,0.080000,-8825981625.849537,-3686565.350444,892612.228548,-10613789.589643,-0.000054,0.000033,-0.000200
-1.480000,-1.200000,0.800105,0.080000,-8826164380.838377,-4437220.955439,1635936.711482,-8921761.649052,-0.000068,0.000047,-0.000168
-1.400000,-1.200000,0.800032,0.080000,-8826336896.483627,-4864258.897281,2057256.534686,-7437262.034228,-0.000076,0.000055,-0.000140
-1.320000,-1.200000,0.800004,0.080000,-8826496406.220390,-5065660.554025,2254361.925735,-6161658.900949,-0.000080,0.000058,-0.000116
-1.240000,-1.200000,0.800097,0.080000,-8826641596.041391,-5115004.892783,2300563.367966,-5081019.078375,-0.000080,0.000059,-0.000096
-1.160000,-1.200000,0.800037,0.080000,-8826772132.010450,-5065954.952100,2249260.467078,-4174450.613524,-0.000080,0.000058,-0.000079
-1.080000,-1.200000,0.800003,0.080000,-8826888315.242987,-4956758.695883,2138475.807084,-3419008.525090,-0.000077,0.000056,-0.000064
-1.000000,-1.200000,0.800090,0.080000,-8826990835.759684,-4814142.519745,1994756.268996,-2792367.272817,-0.000075,0.000054,-0.000053
-0.920000,-1.200000,0.800041,0.080000,-8827080600.350471,-4656431.892297,1836290.343653,-2274119.881527,-0.000072,0.000051,-0.000043
-0.840000,-1.200000,0.800002,0.080000,-8827158614.460182,-4495941.516060,1675291.048256,-1846274.660895,-0.000069,0.000048,-0.000035
-0.760000,-1.200000,0.800083,0.080000,-8827225902.757195,-4340753.242085,1519766.154558,-1493309.493674,-0.000066,0.000045,-0.000028
-0.680000,-1.200000,0.800046,0.080000,-8827283456.960045,-4196012.652023,1374807.974258,-1202001.253717,-0.000063,0.000042,-0.000023
-0.600000,-1.200000,0.800001,0.080000,-8827332202.583046,-4064861.446900,1243520.267307,-961156.548865,-0.000061,0.000039,-0.000018
-0.520000,-1.200000,0.800076,0.080000,-8827372978.600344,-3949100.974935,1127677.573714,-761313.530084,-0.000058,0.000037,-0.000014
-0.440000,-1.200000,0.800052,0.080000,-8827406525.755949,-3849660.500310,1028190.344205,-594450.714315,-0.000057,0.000035,-0.000011
-0.360000,-1.200000,0.800000,0.080000,-8827433480.503799,-3766925.170270,945430.621104,-453719.145966,-0.000055,0.000034,-0.000009
-0.280000,-1.200000,0.800069,0.080000,-8827454372.464870,-3700963.842635,879458.236178,-333203.215393,-0.000054,0.000033,-0.000006
-0.200000,-1.200000,0.800057,0.080000,-8827469623.933073,-3651685.616467,830176.184103,-227709.544014,-0.000053,0.000032,-0.000004
-0.120000,-1.200000,0.800000,0.080000,-8827479550.421103,-3618945.420442,797435.407599,-132580.357649,-0.000052,0.000031,-0.000002
-0.040000,-1.200000,0.800063,0.080000,-8827484361.565653,-3602612.709614,781102.967836,-43526.398516,-0.000052,0.000031,-0.000001
0.040000,-1.200000,0.800063,0.080000,-8827484161.948999,-3602612.599051,781102.854213,43526.103516,-0.000052,0.000031,0.000001
0.120000,-1.200000,0.800000,0.080000,-8827478951.571905,-3618945.083899,797435.070903,132580.025132,-0.000052,0.000031,0.000002
0.200000,-1.200000,0.800057,0.080000,-8827468625.853489,-3651685.050443,830175.621555,227709.135994,-0.000053,0.000032,0.000004
0.280000,-1.200000,0.800069,0.080000,-8827452975.158489,-3700963.043765,879457.439535,333202.691716,-0.000054,0.000033,0.000006
0.360000,-1.200000,0.800000,0.080000,-8827431683.975729,-3766924.131484,945429.583442,453718.462797,-0.000055,0.000034,0.000009
0.440000,-1.200000,0.800052,0.080000,-8827404330.012840,-3849659.212443,1028189.057184,594449.822486,-0.000057,0.000035,0.000011
0.520000,-1.200000,0.800076,0.080000,-8827370383.650446,-3949099.427377,1127676.027578,761312.373440,-0.000058,0.000037,0.000014
0.600000,-1.200000,0.800001,0.080000,-8827329208.436249,-4064859.629955,1243518.449269,961155.063308,-0.000061,0.000039,0.000018
0.680000,-1.200000,0.800046,0.080000,-8827280063.628006,-4196010.553494,1374805.876316,1201999.364965,-0.000063,0.000042,0.000023
0.760000,-1.200000,0.800083,0.080000,-8827222110.253353,-4340750.853241,1519763.769309,1493307.114111,-0.000066,0.000045,0.000028
0.840000,-1.200000,0.800002,0.080000,-8827154422.799782,-4495938.835735,1675288.366994,1846271.687336,-0.000069,0.000048,0.000035
0.920000,-1.200000,0.800041,0.080000,-8827076009.550680,-4656428.922370,1836287.370168,2274116.191741,-0.000072,0.000051,0.000043
1.000000,-1.200000,0.800090,0.080000,-8826985845.839533,-4814139.272996,1994753.019648,2792362.721957,-0.000075,0.000054,0.000053
1.080000,-1.200000,0.800003,0.080000,-8826882926.223240,-4956755.205504,2138472.312631,3419002.942062,-0.000077,0.000056,0.000064
1.160000,-1.200000,0.800037,0.080000,-8826766343.913439,-5065951.277046,2249256.787179,4174443.797097,-0.000080,0.000058,0.000079
1.240000,-1.200000,0.800097,0.080000,-8826635408.890579,-5115001.134337,2300559.599492,5081010.794517,-0.000080,0.000059,0.000096
1.320000,-1.200000,0.800004,0.080000,-8826489820.039812,-5065656.865625,2254358.226467,6161648.881487,-0.000080,0.000058,0.000116
1.400000,-1.200000,0.800032,0.080000,-8826329911.296768,-4864255.516907,2057253.134809,7437249.979705,-0.000076,0.000055,0.000140
1.480000,-1.200000,0.800105,0.080000,-8826156996.666758,-4437218.226874,1635933.953955,8921747.239177,-0.000068,0.000047,0.000168
1.560000,-1.200000,0.800006,0.080000,-8825973842.710463,-3686563.762631,892610.602450,10613772.505333,-0.000054,0.000033,0.000200
1.640000,-1.200000,0.800028,0.080000,-8825785296.694626,-2486936.674923,-298127.481061,12483386.879693,-0.000031,0.000010,0.000235
1.720000,-1.200000,0.780051,0.080000,-8825599088.391739,-687153.575194,-2088065.869566,14452467.912821,0.000003,-0.000024,0.000272
1.800000,-1.200000,0.700057,0.080000,-8825426793.826803,1878510.256149,-4644538.259091,16368420.963113,0.000051,-0.000072,0.000308
1.880000,-1.200000,0.620065,0.080000,-8825284886.041340,5361542.236348,-8122202.781511,17974102.367497,0.000117,-0.000137,0.000339
1.960000,-1.200000,0.540074,0.080000,-8825195685.548706,9894011.430454,-12779110.296724,18872917.403354,0.000203,-0.000224,0.000356
2.040000,-1.200000,0.460087,0.080000,-8825187855.334764,15321773.608960,-18194645.658730,18593823.226163,0.000305,-0.000327,0.000350
2.120000,-1.200000,0.380106,0.080000,-8825295889.838650,21326937.715970,-24270848.076249,16495588.149989,0.000418,-0.000441,0.000311
-2.120000,-1.120000,0.380000,0.080000,-8826033269.247055,18222749.106488,-21134766.593795,-11405509.000276,0.000360,-0.000382,-0.000215
-2.040000,-1.120000,0.460000,0.080000,-8825828673.915602,13964814.753982,-16832962.025490,-13614501.670678,0.000279,-0.000301,-0.000257
-1.960000,-1.120000,0.540000,0.080000,-8825731239.189617,9876227.317669,-12758047.336807,-14454908.246351,0.000202,-0.000224,-0.000272
-1.880000,-1.120000,0.620000,0.080000,-8825714985.526495,6245203.848894,-9028140.630544,-14338002.536403,0.000133,-0.000154,-0.000270
-1.800000,-1.120000,0.700000,0.080000,-8825756962.953541,3271538.860442,-6054065.112729,-13536338.168851,0.000077,-0.000098,-0.000255
-1.720000,-1.120000,0.780000,0.080000,-8825838144.532124,931263.989788,-3717463.067929,-12348355.136343,0.000033,-0.000054,-0.000233
-1.640000,-1.120000,0.860000,0.080000,-8825943532.255440,-833678.855263,-1957965.268571,-10986736.836173,0.000000,-0.000021,-0.000207
-1.560000,-1.120000,0.880006,0.080000,-8826061799.252451,-2113518.084668,-683877.712417,-9596442.196311,-0.000024,0.000003,-0.000181
-1.480000,-1.120000,0.880095,0.080000,-8826184721.169695,-3005073.979746,202403.865334,-8267179.985842,-0.000041,0.000020,-0.000156
-1.400000,-1.120000,0.880029,0.080000,-8826306561.320345,-3597801.300781,790661.928450,-7048111.223077,-0.000052,0.000031,-0.000133
-1.320000,-1.120000,0.880004,0.080000,-8826423500.224838,-3967764.471622,1157023.336788,-5960925.390830,-0.000059,0.000038,-0.000112
-1.240000,-1.120000,0.880088,0.080000,-8826533149.229977,-4176307.149999,1362761.220182,-5009986.529171,-0.000063,0.000042,-0.000094
-1.160000,-1.120000,0.880033,0.080000,-8826634157.516914,-4271122.410723,1455445.563496,-4189556.350138,-0.000065,0.000043,-0.000079
-1.080000,-1.120000,0.880003,0.080000,-8826725906.138844,-4288305.273653,1471039.297451,-3488617.506471,-0.000065,0.000044,-0.000066
-1.000000,-1.120000,0.880081,0.080000,-8826808276.221649,-4254606.064657,1436172.263864,-2893920.025607,-0.000064,0.000043,-0.000055
-0.920000,-1.120000,0.880038,0.080000,-8826881477.035275,-4189507.582257,1370226.003014,-2391797.460553,-0.000063,0.000042,-0.000045
-0.840000,-1.120000,0.880002,0.080000,-8826945920.690983,-4106981.202209,1287090.814926,-1969172.665361,-0.000061,0.000040,-0.000037
-0.760000,-1.120000,0.880075,0.080000,-8827002132.233208,-4016897.822984,1196574.697680,-1614051.989230,-0.000060,0.000038,-0.000030
-0.680000,-1.120000,0.880042,0.080000,-8827050686.084276,-3926124.853260,1105497.290168,-1315709.783695,-0.000058,0.000037,-0.000025
-0.600000,-1.120000,0.880001,0.080000,-8827092161.803562,-3839360.076289,1018520.660665,-1064694.336824,-0.000056,0.000035,-0.000020
-0.520000,-1.120000,0.880069,0.080000,-8827127113.805445,-3759755.287650,938770.206569,-852737.479447,-0.000055,0.000034,-0.000016
-0.440000,-1.120000,0.880047,0.080000,-8827156051.028687,-3689376.861230,868293.015527,-672617.664816,-0.000054,0.000032,-0.000013
-0.360000,-1.120000,0.880000,0.080000,-8827179423.595205,-3629542.294866,808392.614585,-518005.408548,-0.000052,0.000031,-0.000010
-0.280000,-1.120000,0.880063,0.080000,-8827197614.294432,-3581063.426259,759870.871410,-383306.828468,-0.000052,0.000030,-0.000007
-0.200000,-1.120000,0.880052,0.080000,-8827210933.327913,-3544419.821278,723200.388079,-263512.945028,-0.000051,0.000030,-0.000005
-0.120000,-1.120000,0.880000,0.080000,-8827219615.198582,-3519879.718404,698644.729364,-154057.555561,-0.000050,0.000029,-0.000003
-0.040000,-1.120000,0.880057,0.080000,-8827223816.966324,-3507581.026700,686338.938783,-50683.663948,-0.000050,0.000029,-0.000001
0.040000,-1.120000,0.880057,0.080000,-8827223617.348415,-3507580.933564,686338.845889,50683.164189,-0.000050,0.000029,0.000001
0.120000,-1.120000,0.880000,0.080000,-8827219016.345444,-3519879.439422,698644.450120,154057.016241,-0.000050,0.000029,0.000003
0.200000,-1.120000,0.880052,0.080000,-8827209935.241337,-3544419.354734,723199.921212,263512.327208,-0.000051,0.000030,0.000005
0.280000,-1.120000,0.880063,0.080000,-8827196216.977402,-3581062.769985,759870.213688,383306.090782,-0.000052,0.000030,0.000007
0.360000,-1.120000,0.880000,0.080000,-8827177627.051939,-3629541.444816,808391.763518,518004.505493,-0.000052,0.000031,0.000010
0.440000,-1.120000,0.880047,0.080000,-8827153855.264627,-3689375.814262,868291.967535,672616.546605,-0.000054,0.000032,0.000013
0.520000,-1.120000,0.880069,0.080000,-8827124518.827307,-3759754.040237,938768.959236,852736.089913,-0.000055,0.000034,0.000016
0.600000,-1.120000,0.880001,0.080000,-8827089167.619316,-3839358.627681,1018519.209874,1064692.612209,-0.000056,0.000035,0.000020
0.680000,-1.120000,0.880042,0.080000,-8827047292.703220,-3926123.202275,1105495.638430,1315707.651918,-0.000058,0.000037,0.000025
0.760000,-1.120000,0.880075,0.080000,-8826998339.665911,-4016895.974460,1196572.850367,1614049.367937,-0.000060,0.000038,0.000030
0.840000,-1.120000,0.880002,0.080000,-8826941728.949249,-4106979.168971,1287088.780982,1969169.458125,-0.000061,0.000040,0.000037
0.920000,-1.120000,0.880038,0.080000,-8826876886.132101,-4189505.386426,1370223.803151,2391793.554748,-0.000063,0.000042,0.000045
1.000000,-1.120000,0.880081,0.080000,-8826803286.171108,-4254603.739960,1436169.935824,2893915.292077,-0.000064,0.000043,0.000055
1.080000,-1.120000,0.880003,0.080000,-8826720516.955770,-4288302.878533,1471036.894645,3488611.797997,-0.000065,0.000044,0.000066
1.160000,-1.120000,0.880033,0.080000,-8826628369.216648,-4271120.027972,1455443.173194,4189549.499274,-0.000065,0.000043,0.000079
1.240000,-1.120000,0.880088,0.080000,-8826526961.827723,-4176304.905144,1362758.966701,5009978.348876,-0.000063,0.000042,0.000094
1.320000,-1.120000,0.880004,0.080000,-8826416913.734873,-3967762.545816,1157021.396355,5960915.677775,-0.000059,0.000038,0.000112
1.400000,-1.120000,0.880029,0.080000,-8826299575.754925,-3597799.941991,790660.550604,7048099.764592,-0.000052,0.000031,0.000133
1.480000,-1.120000,0.880095,0.080000,-8826177336.537374,-3005073.530661,202403.387064,8267166.575560,-0.000041,0.000020,0.000156
1.560000,-1.120000,0.880006,0.080000,-8826054015.555990,-2113518.996848,-683876.833830,9596426.659739,-0.000024,0.000003,0.000181
1.640000,-1.120000,0.860000,0.080000,-8825935349.488781,-833681.717394,-1957962.447827,10986719.069616,0.000000,-0.000021,0.000207
1.720000,-1.120000,0.780000,0.080000,-8825829562.676680,931258.445202,-3717457.574935,12348335.166349,0.000033,-0.000054,0.000233
1.800000,-1.120000,0.700000,0.080000,-8825747981.973543,3271529.766316,-6054056.074788,13536316.233522,0.000077,-0.000098,0.000255
1.880000,-1.120000,0.620000,0.080000,-8825705605.363401,6245190.245085,-9028127.081847,14337979.184425,0.000133,-0.000154,0.000270
1.960000,-1.120000,0.540000,0.080000,-8825721459.756029,9876208.199238,-12758028.123709,14454884.460807,0.000202,-0.000224,0.000272
2.040000,-1.120000,0.460000,0.080000,-8825818495.089251,13964789.399382,-16832936.598345,13614478.849326,0.000279,-0.000301,0.000257
2.120000,-1.120000,0.380000,0.080000,-8826022690.866062,18222717.204461,-21134734.549405,11405489.135595,0.000360,-0.000382,0.000215
-2.120000,-1.040000,0.380136,0.080000,-8826643603.884764,15428508.414627,-18316481.925866,-7902739.083776,0.000307,-0.000329,-0.000149
-2.040000,-1.040000,0.460112,0.080000,-8826370406.594172,12406255.255286,-15267487.795532,-9977828.337431,0.000250,-0.000271,-0.000188
-1.960000,-1.040000,0.540095,0.080000,-8826194413.355938,9348808.069663,-12223568.926153,-11042532.209267,0.000192,-0.000214,-0.000208
-1.880000,-1.040000,0.620083,0.080000,-8826096194.328054,6488763.079470,-9286876.726696,-11361646.302287,0.000138,-0.000159,-0.000214
-1.800000,-1.040000,0.700074,0.080000,-8826057676.107506,4019587.025957,-6814667.417225,-11078277.706241,0.000092,-0.000113,-0.000209
-1.720000,-1.040000,0.780066,0.080000,-8826063075.508024,1969402.099451,-4764956.421533,-10406338.321397,0.000053,-0.000074,-0.000196
-1.640000,-1.040000,0.860060,0.080000,-8826099269.797071,333704.974447,-3131737.117316,-9509515.548123,0.000022,-0.000043,-0.000179
-1.560000,-1.040000,0.940055,0.080000,-8826155776.790356,-927310.810028,-1874079.724439,-8511381.525028,-0.000002,-0.000019,-0.000160
-1.480000,-1.040000,0.960087,0.080000,-8826224506.813339,-1869401.656319,-935501.806919,-7497930.569792,-0.000019,-0.000002,-0.000141
-1.400000,-1.040000,0.960027,0.080000,-8826299410.245029,-2551596.398033,-256568.143412,-6524287.659553,-0.000032,0.000011,-0.000123
-1.320000,-1.040000,0.960004,0.080000,-8826376102.211300,-3028994.594022,218006.248018,-5622340.267314,-0.000041,0.000020,-0.000106
-1.240000,-1.040000,0.960081,0.080000,-8826451511.094357,-3349405.545934,536080.470298,-4807624.517120,-0.000047,0.000026,-0.000091
-1.160000,-1.040000,0.960031,0.080000,-8826523572.874062,-3552376.356410,737177.646844,-4084840.670461,-0.000051,0.000030,-0.000077
-1.080000,-1.040000,0.960002,0.080000,-8826590977.894344,-3669537.724560,852870.737607,-3451944.703386,-0.000053,0.000032,-0.000065
-1.000000,-1.040000,0.960075,0.080000,-8826652968.083933,-3725565.651809,907767.696136,-2903015.692806,-0.000054,0.000033,-0.000055
-0.920000,-1.040000,0.960035,0.080000,-8826709178.621138,-3739341.929856,920684.397911,-2430170.971286,-0.000055,0.000033,-0.000046
-0.840000,-1.040000,0.960001,0.080000,-8826759516.692135,-3725089.808141,905785.956744,-2024786.611541,-0.000054,0.000033,-0.000038
-0.760000,-1.040000,0.960069,0.080000,-8826804070.109949,-3693381.205108,873595.742310,-1678234.136531,-0.000054,0.000032,-0.000032
-0.680000,-1.040000,0.960039,0.080000,-8826843039.359768,-3651980.503459,831839.011870,-1382292.677357,-0.000053,0.000032,-0.000026
-0.600000,-1.040000,0.960001,0.080000,-8826876687.669657,-3606525.869011,786123.185049,-1129350.562717,-0.000052,0.000031,-0.000021
-0.520000,-1.040000,0.960063,0.080000,-8826905304.739611,-3561065.457296,740472.676869,-912474.810538,-0.000051,0.000030,-0.000017
-0.440000,-1.040000,0.960043,0.080000,-8826929180.689802,-3518471.331435,697741.521435,-725400.841347,-0.000050,0.000029,-0.000014
-0.360000,-1.040000,0.960000,0.080000,-8826948587.570169,-3480753.989587,659926.707819,-562476.279751,-0.000050,0.000028,-0.000011
-0.280000,-1.040000,0.960058,0.080000,-8826963766.411880,-3449297.730682,628402.603933,-418580.074747,-0.000049,0.000028,-0.000008
-0.200000,-1.040000,0.960048,0.080000,-8826974918.307919,-3425033.701550,604093.233051,-289029.724328,-0.000049,0.000027,-0.000005
-0.120000,-1.040000,0.960000,0.080000,-8826982198.411034,-3408563.853174,587595.671571,-169483.869583,-0.000048,0.000027,-0.000003
-0.040000,-1.040000,0.960053,0.080000,-8826985712.051893,-3400245.816713,579264.507459,-55843.984714,-0.000048,0.000027,-0.000001
0.040000,-1.040000,0.960053,0.080000,-8826985512.432121,-3400245.742888,579264.434599,55843.318403,-0.000048,0.000027,0.000001
0.120000,-1.040000,0.960000,0.080000,-8826981599.552179,-3408563.632554,587595.452097,169483.163798,-0.000048,0.000027,0.000003
0.200000,-1.040000,0.960048,0.080000,-8826973920.211380,-3425033.335135,604092.865573,289028.939137,-0.000049,0.000027,0.000005
0.280000,-1.040000,0.960058,0.080000,-8826962369.080011,-3449297.218091,628402.089179,418579.167946,-0.000049,0.000028,0.000008
0.360000,-1.040000,0.960000,0.080000,-8826946791.006271,-3480753.329994,659926.047083,562475.205914,-0.000050,0.000028,0.000011
0.440000,-1.040000,0.960043,0.080000,-8826926984.898094,-3518470.526802,697740.715458,725399.551505,-0.000050,0.000029,0.000014
0.520000,-1.040000,0.960063,0.080000,-8826902709.725266,-3561064.509256,740471.731325,912473.250673,-0.000051,0.000030,0.000017
0.600000,-1.040000,0.960001,0.080000,-8826873693.438709,-3606524.785190,786122.103399,1129348.671598,-0.000052,0.000031,0.000021
0.680000,-1.040000,0.960039,0.080000,-8826839645.919123,-3651979.295465,831837.801771,1382290.386561,-0.000053,0.000032,0.000026
0.760000,-1.040000,0.960069,0.080000,-8826800277.467344,-3693379.887879,873594.420400,1678231.369534,-0.000054,0.000032,0.000032
0.840000,-1.040000,0.960001,0.080000,-8826755324.856024,-3725088.403251,905784.548191,2024783.280650,-0.000054,0.000033,0.000038
0.920000,-1.040000,0.960035,0.080000,-8826704587.600517,-3739340.471225,920682.938836,2430166.977070,-0.000055,0.000033,0.000046
1.000000,-1.040000,0.960075,0.080000,-8826647977.888090,-3725564.192501,907766.235026,2903010.924451,-0.000054,0.000033,0.000055
1.080000,-1.040000,0.960002,0.080000,-8826585588.532585,-3669536.337029,852869.346476,3451939.037882,-0.000053,0.000032,0.000065
1.160000,-1.040000,0.960031,0.080000,-8826517784.355215,-3552375.141916,737176.425133,4084833.973392,-0.000051,0.000030,0.000077
1.240000,-1.040000,0.960081,0.080000,-8826445323.426130,-3349404.642991,536079.553210,4807616.645346,-0.000047,0.000026,0.000091
1.320000,-1.040000,0.960004,0.080000,-8826369515.399467,-3028994.182672,218005.823619,5622331.074753,-0.000041,0.000020,0.000106
1.400000,-1.040000,0.960027,0.080000,-8826292424.292112,-2551596.723497,-256567.835078,6524277.007091,-0.000032,0.000011,0.000123
1.480000,-1.040000,0.960087,0.080000,-8826217121.717154,-1869403.032382,-935500.451560,7497918.340898,-0.000019,-0.000002,0.000141
1.560000,-1.040000,0.940055,0.080000,-8826147992.541916,-927313.637764,-1874076.926518,8511367.649958,-0.000002,-0.000019,0.000160
1.640000,-1.040000,0.860060,0.080000,-8826091086.378162,333700.212920,-3131732.385951,9509500.037544,0.000022,-0.000043,0.000179
1.720000,-1.040000,0.780066,0.080000,-8826054492.887924,1969394.830577,-4764949.189771,10406321.311742,0.000053,-0.000074,0.000196
1.800000,-1.040000,0.700074,0.080000,-8826048694.239496,4019576.618730,-6814657.046854,11078259.515466,0.000092,-0.000113,0.000209
1.880000,-1.040000,0.620083,0.080000,-8826086813.145290,6488748.888015,-9286862.567585,11361627.489008,0.000138,-0.000159,0.000214
1.960000,-1.040000,0.540095,0.080000,-8826184632.767384,9348789.481385,-12223550.254479,11042513.645496,0.000192,-0.000214,0.000208
2.040000,-1.040000,0.460112,0.080000,-8826360226.481010,12406231.936390,-15267464.416028,9977811.119410,0.000250,-0.000271,0.000188
2.120000,-1.040000,0.380136,0.080000,-8826633024.098137,15428480.365413,-18316453.771205,7902724.692209,0.000307,-0.000329,0.000149
-2.120000,-0.960000,0.380136,0.080000,-8827155201.227770,13020963.056994,-15891152.793317,-5479868.771469,0.000262,-0.000283,-0.000103
-2.040000,-0.960000,0.460112,0.080000,-8826832955.496990,10868444.362488,-13722611.098370,-7325421.662832,0.000221,-0.000242,-0.000138
-1.960000,-0.960000,0.540095,0.080000,-8826598103.819607,8587157.147292,-11453828.280367,-8430543.285045,0.000178,-0.000200,-0.000159
-1.880000,-0.960000,0.620083,0.080000,-8826436144.732248,6354761.374318,-9162832.538509,-8968506.931666,0.000136,-0.000157,-0.000169
-1.800000,-0.960000,0.700074,0.080000,-8826332970.943052,4338602.649378,-7142764.911939,-9002810.679271,0.000098,-0.000119,-0.000170
-1.720000,-0.960000,0.780066,0.080000,-8826275703.336136,2587364.919276,-5390339.627130,-8682290.565284,0.000065,-0.000086,-0.000164
-1.640000,-0.960000,0.860060,0.080000,-8826253142.014074,1123946.034082,-3927554.180041,-8127256.132436,0.000037,-0.000058,-0.000153
-1.560000,-0.960000,0.940055,0.080000,-8826255918.159634,-60419.060632,-2744865.309955,-7436492.654632,0.000015,-0.000036,-0.000140
-1.480000,-0.960000,1.020050,0.080000,-8826276442.571009,-992865.862880,-1814559.088912,-6685041.292692,-0.000003,-0.000018,-0.000126
-1.400000,-0.960000,1.040025,0.080000,-8826308735.461361,-1708910.787351,-1100738.075459,-5926097.412597,-0.000016,-0.000005,-0.000112
-1.320000,-0.960000,1.040003,0.080000,-8826348201.451872,-2245803.249941,-565931.032350,-5194769.661625,-0.000026,0.000005,-0.000098
-1.240000,-0.960000,1.040075,0.080000,-8826391392.521511,-2638612.676673,-174959.810906,-4512250.626994,-0.000034,0.000013,-0.000085
-1.160000,-0.960000,1.040028,0.080000,-8826435784.227566,-2918280.130315,103152.798623,-3889625.611749,-0.000039,0.000018,-0.000073
-1.080000,-0.960000,1.040002,0.080000,-8826479577.907265,-3110943.495505,294538.734424,-3331004.054813,-0.000043,0.000021,-0.000063
-1.000000,-0.960000,1.040069,0.080000,-8826521533.362816,-3238008.781591,420576.683000,-2835922.607673,-0.000045,0.000024,-0.000053
-0.920000,-0.960000,1.040032,0.080000,-8826560831.699129,-3316605.275236,498360.190826,-2401097.095305,-0.000047,0.000025,-0.000045
-0.840000,-0.960000,1.040001,0.080000,-8826596965.480165,-3360195.979403,541315.545045,-2021646.401140,-0.000047,0.000026,-0.000038
-0.760000,-0.960000,1.040064,0.080000,-8826629652.342922,-3379210.727875,559838.736022,-1691913.756000,-0.000048,0.000026,-0.000032
-0.680000,-0.960000,1.040036,0.080000,-8826658768.040787,-3381632.737492,561883.656616,-1405994.278488,-0.000048,0.000027,-0.000026
-0.600000,-0.960000,1.040001,0.080000,-8826684295.172663,-3373508.339598,553472.239190,-1158055.337791,-0.000048,0.000026,-0.000022
-0.520000,-0.960000,1.040058,0.080000,-8826706284.337902,-3359371.999570,539119.206882,-942514.893314,-0.000047,0.000026,-0.000018
-0.440000,-0.960000,1.040040,0.080000,-8826724824.995964,-3342590.354420,522175.607837,-754124.942287,-0.000047,0.000026,-0.000014
-0.360000,-0.960000,1.040000,0.080000,-8826740023.824938,-3325634.334729,505100.283275,-587993.140307,-0.000047,0.000025,-0.000011
-0.280000,-0.960000,1.040053,0.080000,-8826751988.834587,-3310289.861266,489670.021967,-439565.189214,-0.000046,0.000025,-0.000008
-0.200000,-0.960000,1.040044,0.080000,-8826760817.880835,-3297817.350565,477138.525981,-304583.044955,-0.000046,0.000025,-0.000006
-0.120000,-0.960000,1.040000,0.080000,-8826766590.558558,-3289068.776229,468353.078897,-179028.722073,-0.000046,0.000025,-0.000003
-0.040000,-0.960000,1.040049,0.080000,-8826769362.720661,-3284569.388302,463835.971154,-59059.870946,-0.000046,0.000025,-0.000001
0.040000,-0.960000,1.040049,0.080000,-8826769163.098545,-3284569.334816,463835.917127,59059.077219,-0.000046,0.000025,0.000001
0.120000,-0.960000,1.040000,0.080000,-8826765991.692574,-3289068.614149,468352.918536,179027.889605,-0.000046,0.000025,0.000003
0.200000,-0.960000,1.040044,0.080000,-8826759819.771980,-3297817.083821,477138.257293,304582.134026,-0.000046,0.000025,0.000006
0.280000,-0.960000,1.040053,0.080000,-8826750591.484615,-3310289.488901,489669.651634,439564.158058,-0.000046,0.000025,0.000008
0.360000,-0.960000,1.040000,0.080000,-8826738227.236197,-3325633.862873,505099.812692,587991.944757,-0.000047,0.000025,0.000011
0.440000,-0.960000,1.040040,0.080000,-8826722629.171457,-3342589.789416,522175.041503,754123.535259,-0.000047,0.000026,0.000014
0.520000,-0.960000,1.040058,0.080000,-8826703689.281269,-3359371.348040,539118.556296,942513.223611,-0.000047,0.000026,0.000018
0.600000,-0.960000,1.040001,0.080000,-8826681300.888041,-3373507.615507,553471.514017,1158053.348495,-0.000048,0.000026,0.000022
0.680000,-0.960000,1.040036,0.080000,-8826655374.532824,-3381631.956069,561882.874623,1405991.906263,-0.000048,0.000027,0.000026
0.760000,-0.960000,1.040064,0.080000,-8826625859.616589,-3379209.915024,559837.919847,1691910.930525,-0.000048,0.000026,0.000032
0.840000,-0.960000,1.040001,0.080000,-8826592773.540680,-3360195.166059,541314.729889,2021643.044707,-0.000047,0.000026,0.000038
0.920000,-0.960000,1.040032,0.080000,-8826556240.551672,-3316604.506869,498359.420449,2401093.123314,-0.000047,0.000025,0.000045
1.000000,-0.960000,1.040069,0.080000,-8826516543.012272,-3238008.119540,420576.017060,2835917.927910,-0.000045,0.000024,0.000053
1.080000,-0.960000,1.040002,0.080000,-8826474188.357830,-3110943.021692,294538.252916,3330998.567600,-0.000043,0.000021,0.000063
1.160000,-0.960000,1.040028,0.080000,-8826429995.482264,-2918279.949438,103152.610020,3889619.212744,-0.000039,0.000018,0.000073
1.240000,-0.960000,1.040075,0.080000,-8826385204.581432,-2638612.928981,-174959.569663,4512243.211346,-0.000034,0.000013,0.000085
1.320000,-0.960000,1.040003,0.080000,-8826341614.315359,-2245804.111917,-565930.182211,5194761.131302,-0.000026,0.000005,0.000098
1.400000,-0.960000,1.040025,0.080000,-8826301749.122799,-1708912.484820,-1100736.394169,5926087.686660,-0.000016,-0.000005,0.000112
1.480000,-0.960000,1.020050,0.080000,-8826269057.019430,-992868.673854,-1814556.300886,6685030.320881,-0.000003,-0.000018,0.000126
1.560000,-0.960000,0.940055,0.080000,-8826248133.376970,-60423.316887,-2744861.078037,7436480.437895,0.000015,-0.000036,0.000140
1.640000,-0.960000,0.860060,0.080000,-8826244957.972963,1123939.945199,-3927548.115039,8127242.750340,0.000037,-0.000058,0.000153
1.720000,-0.960000,0.780066,0.080000,-8826267119.997440,2587356.566808,-5390331.300318,8682276.208286,0.000065,-0.000086,0.000164
1.800000,-0.960000,0.700074,0.080000,-8826323988.253149,4338591.585869,-7142753.874820,9002795.683412,0.000098,-0.000119,0.000170
1.880000,-0.960000,0.620083,0.080000,-8826426762.620218,6354747.185020,-9162818.366934,8968491.811333,0.000136,-0.000157,0.000169
1.960000,-0.960000,0.540095,0.080000,-8826588322.194511,8587139.479128,-11453810.538732,8430528.774338,0.000178,-0.000200,0.000159
2.040000,-0.960000,0.460112,0.080000,-8826822774.245892,10868423.104510,-13722589.789593,7325408.601411,0.000221,-0.000242,0.000138
2.120000,-0.960000,0.380136,0.080000,-8827144620.214970,13020938.358554,-15891128.014077,5479858.251808,0.000262,-0.000283,0.000103
-2.120000,-0.880000,0.380000,0.080000,-8827583400.242411,10993841.171089,-13850993.828205,-3795008.266363,0.000223,-0.000245,-0.000072
-2.040000,-0.880000,0.460000,0.080000,-8827226023.985937,9454245.720820,-12302066.206457,-5387792.937561,0.000194,-0.000216,-0.000102
-1.960000,-0.880000,0.540000,0.080000,-8826947025.157114,7750761.535374,-10609677.811257,-6438607.314213,0.000162,-0.000184,-0.000121
-1.880000,-0.880000,0.620000,0.080000,-8826735571.209745,6015333.828178,-8829755.352501,-7063610.424660,0.000129,-0.000150,-0.000133
-1.800000,-0.880000,0.700000,0.080000,-8826580693.785486,4384868.863590,-7195381.997588,-7279858.009402,0.000098,-0.000120,-0.000137
-1.720000,-0.880000,0.780000,0.080000,-8826471981.851423,2912303.618334,-5720901.774051,-7188992.971380,0.000071,-0.000092,-0.000135
-1.640000,-0.880000,0.860000,0.080000,-8826400023.068958,1632175.441063,-4440352.223631,-6876674.397272,0.000047,-0.000068,-0.000130
-1.560000,-0.880000,0.940000,0.080000,-8826356627.764664,553256.316256,-3362003.945360,-6418618.509980,0.000026,-0.000047,-0.000121
-1.480000,-0.880000,1.020000,0.080000,-8826334888.039459,-332943.138062,-2476946.639729,-5876635.722803,0.000010,-0.000031,-0.000111
-1.400000,-0.880000,1.100000,0.080000,-8826329125.944448,-1044960.620213,-1766329.675539,-5297996.083023,-0.000004,-0.000017,-0.000100
-1.320000,-0.880000,1.120003,0.080000,-8826334776.713806,-1605973.826639,-1206765.387198,-4716736.460152,-0.000014,-0.000007,-0.000089
-1.240000,-0.880000,1.120069,0.080000,-8826348241.689957,-2040143.599730,-773966.384209,-4155850.092212,-0.000023,0.000001,-0.000078
-1.160000,-0.880000,1.120026,0.080000,-8826366734.457592,-2370392.142994,-444944.562696,-3629671.170620,-0.000029,0.000008,-0.000068
-1.080000,-0.880000,1.120002,0.080000,-8826388134.539865,-2617233.895124,-199159.979843,-3146074.604911,-0.000033,0.000012,-0.000059
-1.000000,-0.880000,1.120064,0.080000,-8826410856.260201,-2798312.763768,-18967.886945,-2708324.296174,-0.000037,0.000016,-0.000051
-0.920000,-0.880000,1.120030,0.080000,-8826433735.825710,-2928373.947806,110364.220197,-2316532.058038,-0.000039,0.000018,-0.000044
-0.840000,-0.880000,1.120001,0.080000,-8826455936.880014,-3019476.247526,200876.230493,-1968756.550929,-0.000041,0.000020,-0.000037
-0.760000,-0.880000,1.120059,0.080000,-8826476873.211197,-3081316.293537,262244.143305,-1661799.549395,-0.000042,0.000021,-0.000031
-0.680000,-0.880000,1.120033,0.080000,-8826496146.567064,-3121585.383743,302139.435547,-1391762.536500,-0.000043,0.000022,-0.000026
-0.600000,-0.880000,1.120001,0.080000,-8826513497.309490,-3146313.820122,326574.659525,-1154421.312550,-0.000043,0.000022,-0.000022
-0.520000,-0.880000,1.120054,0.080000,-8826528765.712049,-3160179.924776,340212.975435,-945466.729936,-0.000044,0.000022,-0.000018
-0.440000,-0.880000,1.120037,0.080000,-8826541861.925865,-3166774.633896,346632.782146,-760649.414647,-0.000044,0.000022,-0.000014
-0.360000,-0.880000,1.120000,0.080000,-8826552742.921167,-3168820.306885,348546.381333,-595857.103648,-0.000044,0.000023,-0.000011
-0.280000,-0.880000,1.120050,0.080000,-8826561395.002691,-3168346.487706,347975.473638,-447145.618078,-0.000044,0.000022,-0.000008
-0.200000,-0.880000,1.120041,0.080000,-8826567820.772783,-3166826.974816,346387.963400,-310738.553038,-0.000044,0.000022,-0.000006
-0.120000,-0.880000,1.120000,0.080000,-8826572029.663071,-3165282.913645,344800.798407,-183006.318702,-0.000044,0.000022,-0.000003
-0.040000,-0.880000,1.120045,0.080000,-8826574031.373610,-3164356.131645,343853.119536,-60431.956771,-0.000044,0.000022,-0.000001
0.040000,-0.880000,1.120045,0.080000,-8826573831.748804,-3164356.098145,343853.084017,60431.074678,-0.000044,0.000022,0.000001
0.120000,-0.880000,1.120000,0.080000,-8826571430.788914,-3165282.810088,344800.695224,183005.398693,-0.000044,0.000022,0.000003
0.200000,-0.880000,1.120041,0.080000,-8826566822.649923,-3166826.804282,346387.793477,310737.557084,-0.000044,0.000022,0.000006
0.280000,-0.880000,1.120050,0.080000,-8826559997.632206,-3168346.255857,347975.241461,447144.506615,-0.000044,0.000022,0.000008
0.360000,-0.880000,1.120000,0.080000,-8826550946.304541,-3168820.020276,348546.093571,595855.834390,-0.000044,0.000023,0.000011
0.440000,-0.880000,1.120037,0.080000,-8826539666.064930,-3166774.301662,346632.447006,760647.942698,-0.000044,0.000022,0.000014
0.520000,-0.880000,1.120054,0.080000,-8826526170.608934,-3160179.559903,340212.606298,945465.007299,-0.000044,0.000022,0.000018
0.600000,-0.880000,1.120001,0.080000,-8826510502.966562,-3146313.437181,326574.275317,1154419.287252,-0.000043,0.000022,0.000022
0.680000,-0.880000,1.120033,0.080000,-8826492752.986738,-3121585.007689,302139.055414,1391760.151634,-0.000043,0.000022,0.000026
0.760000,-0.880000,1.120059,0.080000,-8826473080.395905,-3081315.952450,262243.800691,1661796.742647,-0.000042,0.000021,0.000031
0.840000,-0.880000,1.120001,0.080000,-8826451744.831911,-3019475.982150,200875.963914,1968753.255158,-0.000041,0.000020,0.000037
0.920000,-0.880000,1.120030,0.080000,-8826429144.546446,-2928373.811178,110364.077508,2316528.202054,-0.000039,0.000018,0.000044
1.000000,-0.880000,1.120064,0.080000,-8826405865.750660,-2798312.819372,-18967.837627,2708319.804713,-0.000037,0.000016,0.000051
1.080000,-0.880000,1.120002,0.080000,-8826382744.799669,-2617234.226926,-199159.654613,3146069.399790,-0.000033,0.000012,0.000059
1.160000,-0.880000,1.120026,0.080000,-8826360945.484579,-2370392.857802,-444943.855303,3629665.174312,-0.000029,0.000008,0.000068
1.240000,-0.880000,1.120069,0.080000,-8826342053.479515,-2040144.829923,-773965.160490,4155843.232308,-0.000023,0.000001,0.000078
1.320000,-0.880000,1.120003,0.080000,-8826328189.257973,-1605975.738287,-1206763.485464,4716728.676675,-0.000014,-0.000007,0.000089
1.400000,-0.880000,1.100000,0.080000,-8826322139.230911,-1044963.412258,-1766326.897524,5297987.337820,-0.000004,-0.000017,0.000100
1.480000,-0.880000,1.020000,0.080000,-8826327502.050282,-332947.044914,-2476942.748547,5876626.011224,0.000010,-0.000031,0.000111
1.560000,-0.880000,0.940000,0.080000,-8826348842.474739,553251.022140,-3361998.669119,6418607.877318,0.000026,-0.000047,0.000121
1.640000,-0.880000,0.860000,0.080000,-8826391838.444313,1632168.460292,-4440345.260139,6876662.959612,0.000047,-0.000068,0.000130
1.720000,-0.880000,0.780000,0.080000,-8826463397.847252,2912294.635105,-5720892.809853,7188980.936680,0.000071,-0.000092,0.000135
1.800000,-0.880000,0.700000,0.080000,-8826571710.344206,4384857.574002,-7195370.723996,7279845.697749,0.000098,-0.000120,0.000137
1.880000,-0.880000,0.620000,0.080000,-8826726188.259026,6015319.975618,-8829741.508109,7063598.284460,0.000129,-0.000150,0.000133
1.960000,-0.880000,0.540000,0.080000,-8826937242.608196,7750744.931569,-10609661.151313,6438595.944685,0.000162,-0.000184,0.000121
2.040000,-0.880000,0.460000,0.080000,-8827215841.732788,9454226.386970,-12302046.829454,5387782.973758,0.000194,-0.000216,0.000102
2.120000,-0.880000,0.380000,0.080000,-8827572818.161539,10993819.312237,-13850971.908624,3795000.514092,0.000223,-0.000245,0.000072
-2.120000,-0.800000,0.380106,0.080000,-8827941147.099339,9309185.308733,-12156810.375409,-2618219.482281,0.000191,-0.000213,-0.000049
-2.040000,-0.800000,0.460087,0.080000,-8827558588.128351,8203413.290858,-11045883.058674,-3967901.351500,0.000171,-0.000192,-0.000075
-1.960000,-0.800000,0.540074,0.080000,-8827246432.788553,6928100.817065,-9780174.345643,-4920040.801620,0.000147,-0.000168,-0.000093
-1.880000,-0.800000,0.620065,0.080000,-8826996567.891558,5579884.416186,-8398256.471478,-5554753.673618,0.000121,-0.000142,-0.000105
-1.800000,-0.800000,0.700057,0.080000,-8826800470.416611,4267489.904160,-7082336.696273,-5863666.858861,0.000096,-0.000118,-0.000110
-1.720000,-0.800000,0.780051,0.080000,-8826649762.421513,3040522.124933,-5853251.930145,-5915371.648769,0.000073,-0.000094,-0.000111
-1.640000,-0.800000,0.860047,0.080000,-8826536604.361616,1936365.905924,-4748134.028715,-5769434.597553,0.000052,-0.000074,-0.000109
-1.560000,-0.800000,0.940043,0.080000,-8826453935.819159,972594.442114,-3784252.870271,-5482208.915871,0.000034,-0.000055,-0.000103
-1.480000,-0.800000,1.020039,0.080000,-8826395589.755436,152076.587702,-2964190.334853,-5102670.929617,0.000019,-0.000040,-0.000096
-1.400000,-0.800000,1.100036,0.080000,-8826356312.571457,-532137.472626,-2280759.801935,-4670681.088276,0.000006,-0.000027,-0.000088
-1.320000,-0.800000,1.180034,0.080000,-8826331721.038727,-1092752.517932,-1721079.779909,-4216902.639715,-0.000005,-0.000017,-0.000079
-1.240000,-0.800000,1.200065,0.080000,-8826318222.043957,-1545176.238537,-1269621.871083,-3763684.425410,-0.000013,-0.000008,-0.000071
-1.160000,-0.800000,1.200024,0.080000,-8826312914.702274,-1905422.524134,-910297.081317,-3326384.404638,-0.000020,-0.000001,-0.000063
-1.080000,-0.800000,1.200002,0.080000,-8826313488.317808,-2188799.877154,-627755.646948,-2914790.088087,-0.000025,0.000004,-0.000055
-1.000000,-0.800000,1.200060,0.080000,-8826318124.655588,-2409186.366579,-408101.487497,-2534439.668187,-0.000029,0.000008,-0.000048
-0.920000,-0.800000,1.200028,0.080000,-8826325409.228258,-2578709.869100,-239203.522116,-2187752.153673,-0.000033,0.000011,-0.000041
-0.840000,-0.800000,1.200001,0.080000,-8826334253.694424,-2707687.982341,-110749.602673,-1874940.494084,-0.000035,0.000014,-0.000035
-0.760000,-0.800000,1.200055,0.080000,-8826343829.791016,-2804720.130101,-14150.142114,-1594718.124890,-0.000037,0.000016,-0.000030
-0.680000,-0.800000,1.200031,0.080000,-8826353514.235188,-2876857.812466,57634.848221,-1344826.302547,-0.000038,0.000017,-0.000025
-0.600000,-0.800000,1.200001,0.080000,-8826362843.523172,-2929804.921615,110297.727428,-1122414.792130,-0.000039,0.000018,-0.000021
-0.520000,-0.800000,1.200051,0.080000,-8826371477.354059,-2968118.952468,148385.366260,-924307.334304,-0.000040,0.000019,-0.000017
-0.440000,-0.800000,1.200035,0.080000,-8826379169.396091,-2995396.829674,175485.410368,-747179.292648,-0.000040,0.000019,-0.000014
-0.360000,-0.800000,1.200000,0.080000,-8826385744.209082,-3014437.367914,194388.901069,-587669.975101,-0.000041,0.000020,-0.000011
-0.280000,-0.800000,1.200046,0.080000,-8826391079.284061,-3027377.461849,207226.465535,-442447.362566,-0.000041,0.000020,-0.000008
-0.200000,-0.800000,1.200038,0.080000,-8826395091.328611,-3035801.924863,215578.085536,-308238.850049,-0.000041,0.000020,-0.000006
-0.120000,-0.800000,1.200000,0.080000,-8826397726.094160,-3040828.309291,220557.796303,-181838.265249,-0.000041,0.000020,-0.000003
-0.040000,-0.800000,1.200042,0.080000,-8826398951.202211,-3043168.447915,222875.156566,-60096.857264,-0.000041,0.000020,-0.000001
0.040000,-0.800000,1.200042,0.080000,-8826398751.574528,-3043168.430374,222875.141817,60095.924303,-0.000041,0.000020,0.000001
0.120000,-0.800000,1.200000,0.080000,-8826397127.211170,-3040828.260982,220557.748327,181837.296122,-0.000041,0.000020,0.000003
0.200000,-0.800000,1.200038,0.080000,-8826394093.190617,-3035801.849442,215578.006540,308237.808969,-0.000041,0.000020,0.000006
0.280000,-0.800000,1.200046,0.080000,-8826389681.891590,-3027377.362395,207226.366221,442446.212512,-0.000041,0.000020,0.000008
0.360000,-0.800000,1.200000,0.080000,-8826383947.562744,-3014437.254983,194388.788358,587668.676495,-0.000041,0.000020,0.000011
0.440000,-0.800000,1.200035,0.080000,-8826376973.496603,-2995396.714813,175485.295078,747177.803541,-0.000040,0.000019,0.000014
0.520000,-0.800000,1.200051,0.080000,-8826368882.202148,-2968118.851678,148385.265271,924305.610768,-0.000040,0.000019,0.000017
0.600000,-0.800000,1.200001,0.080000,-8826359849.119482,-2929804.854954,110297.662389,1122412.787481,-0.000039,0.000018,0.000021
0.680000,-0.800000,1.200031,0.080000,-8826350120.580099,-2876857.808671,57634.843248,1344823.966637,-0.000038,0.000017,0.000025
0.760000,-0.800000,1.200055,0.080000,-8826340036.884554,-2804720.222265,-14150.050320,1594715.404080,-0.000037,0.000016,0.000030
0.840000,-0.800000,1.200001,0.080000,-8826330061.535967,-2707688.214495,-110749.371644,1874937.331486,-0.000035,0.000014,0.000035
0.920000,-0.800000,1.200028,0.080000,-8826320817.816278,-2578710.296478,-239203.100366,2187748.490003,-0.000033,0.000011,0.000041
1.000000,-0.800000,1.200060,0.080000,-8826313133.987364,-2409187.053695,-408100.804400,2534435.443085,-0.000029,0.000008,0.000048
1.080000,-0.800000,1.200002,0.080000,-8826308098.388893,-2188800.908716,-627754.620971,2914785.242625,-0.000025,0.000004,0.000055
1.160000,-0.800000,1.200024,0.080000,-8826307125.506031,-1905424.002137,-910295.610100,3326378.884022,-0.000020,-0.000001,0.000063
1.240000,-0.800000,1.200065,0.080000,-8826312033.570894,-1545178.285200,-1269619.830111,3763678.183138,-0.000013,-0.000008,0.000071
1.320000,-0.800000,1.180034,0.080000,-8826325133.275646,-1092755.282886,-1721077.026753,4216895.644113,-0.000005,-0.000017,0.000079
1.400000,-0.800000,1.100036,0.080000,-8826349325.500654,-532141.122473,-2280756.161914,4670673.330814,0.000006,-0.000027,0.000088
1.480000,-0.800000,1.020039,0.080000,-8826388203.353436,152071.854387,-2964185.616256,5102662.435225,0.000019,-0.000040,0.000096
1.560000,-0.800000,0.940043,0.080000,-8826446150.055641,972588.413579,-3784246.852907,5482199.755254,0.000034,-0.000055,0.000103
1.640000,-0.800000,0.860047,0.080000,-8826528419.197886,1936358.352957,-4748126.487430,5769424.900718,0.000052,-0.000074,0.000109
1.720000,-0.800000,0.780051,0.080000,-8826641177.809143,3040512.823484,-5853242.640871,5915361.618998,0.000073,-0.000094,0.000111
1.800000,-0.800000,0.700057,0.080000,-8826791486.296013,4267478.654428,-7082325.455166,5863656.784030,0.000096,-0.000118,0.000110
1.880000,-0.800000,0.620065,0.080000,-8826987184.190678,5579871.069897,-8398243.128525,5554743.931470,0.000121,-0.000142,0.000105
1.960000,-0.800000,0.540074,0.080000,-8827236649.421955,6928085.295668,-9780158.772806,4920031.872477,0.000147,-0.000168,0.000093
2.040000,-0.800000,0.460087,0.080000,-8827548404.996840,8203395.676244,-11045865.407294,3967893.712482,0.000171,-0.000192,0.000075
2.120000,-0.800000,0.380106,0.080000,-8827930564.090395,9309165.823491,-12156790.843054,2618213.729409,0.000191,-0.000213,0.000049
-2.120000,-0.720000,0.380169,0.080000,-8828239216.749212,7920727.242976,-10761389.420201,-1794157.488046,0.000165,-0.000187,-0.000034
-2.040000,-0.720000,0.460140,0.080000,-8827838614.559746,7123760.264379,-9961875.798216,-2923431.869331,0.000150,-0.000172,-0.000055
-1.960000,-0.720000,0.540119,0.080000,-8827501533.295712,6165396.552655,-9011704.148314,-3760087.780370,0.000132,-0.000154,-0.000071
-1.880000,-0.720000,0.620104,0.080000,-8827221873.362688,5116011.443522,-7936778.500281,-4361013.305209,0.000112,-0.000134,-0.000082
-1.800000,-0.720000,0.700092,0.080000,-8826992998.994854,4060626.586816,-6878374.168384,-4705268.748415,0.000092,-0.000114,-0.000089
-1.720000,-0.720000,0.780082,0.080000,-8826808173.879683,3042613.674019,-5858312.456488,-4838781.959918,0.000073,-0.000094,-0.000091
-1.640000,-0.720000,0.860075,0.080000,-8826660895.184767,2097737.021774,-4912248.146724,-4802197.804458,0.000055,-0.000077,-0.000090
-1.560000,-0.720000,0.940068,0.080000,-8826545123.066607,1247072.531782,-4061085.756636,-4636558.001014,0.000039,-0.000061,-0.000087
-1.480000,-0.720000,1.020063,0.080000,-8826455416.553745,499866.108810,-3313885.994184,-4379609.714933,0.000025,-0.000047,-0.000083
-1.400000,-0.720000,1.100058,0.080000,-8826386993.809425,-143334.696177,-2671027.538945,-4063767.203957,0.000013,-0.000034,-0.000077
-1.320000,-0.720000,1.180055,0.080000,-8826335736.634901,-687800.727345,-2127101.484957,-3715350.104639,0.000003,-0.000024,-0.000070
-1.240000,-0.720000,1.260051,0.080000,-8826298157.555130,-1142252.553362,-1673283.586337,-3354683.115707,-0.000006,-0.000016,-0.000063
-1.160000,-0.720000,1.280023,0.080000,-8826271344.623507,-1517073.082115,-1299118.800485,-2996696.126521,-0.000013,-0.000009,-0.000056
-1.080000,-0.720000,1.280002,0.080000,-8826252895.399866,-1823059.302631,-993763.860650,-2651753.957347,-0.000018,-0.000003,-0.000050
-1.000000,-0.720000,1.280056,0.080000,-8826240848.124153,-2070618.918471,-746784.306487,-2326535.442189,-0.000023,0.000002,-0.000044
-0.920000,-0.720000,1.280026,0.080000,-8826233615.264469,-2269304.864197,-548614.230251,-2024855.934669,-0.000027,0.000006,-0.000038
-0.840000,-0.720000,1.280001,0.080000,-8826229922.453102,-2427589.294664,-390777.608064,-1748381.004155,-0.000030,0.000009,-0.000033
-0.760000,-0.720000,1.280052,0.080000,-8826228754.284899,-2552796.403379,-265951.958909,-1497214.000601,-0.000032,0.000011,-0.000028
-0.680000,-0.720000,1.280029,0.080000,-8826229307.429148,-2651132.900056,-167935.376985,-1270360.572411,-0.000034,0.000013,-0.000024
-0.600000,-0.720000,1.280001,0.080000,-8826230950.875349,-2727772.468818,-91560.360099,-1066083.565983,-0.000035,0.000014,-0.000020
-0.520000,-0.720000,1.280047,0.080000,-8826233192.781956,-2786964.724253,-32583.796200,-882165.696676,-0.000037,0.000015,-0.000017
-0.440000,-0.720000,1.280032,0.080000,-8826235653.237812,-2832149.703135,12428.188376,-716097.674160,-0.000037,0.000016,-0.000013
-0.360000,-0.720000,1.280000,0.080000,-8826238042.207033,-2866066.521112,46209.231783,-565207.887532,-0.000038,0.000017,-0.000011
-0.280000,-0.720000,1.280043,0.080000,-8826240141.964472,-2890849.821689,70889.380322,-426747.416683,-0.000039,0.000017,-0.000008
-0.200000,-0.720000,1.280036,0.080000,-8826241793.405071,-2908110.940572,88076.298681,-297941.693954,-0.000039,0.000018,-0.000006
-0.120000,-0.720000,1.280000,0.080000,-8826242885.708488,-2919002.569456,98919.954947,-176017.924728,-0.000039,0.000018,-0.000003
-0.040000,-0.720000,1.280040,0.080000,-8826243348.944841,-2924266.794859,104160.640157,-58215.525672,-0.000039,0.000018,-0.000001
0.040000,-0.720000,1.280040,0.080000,-8826243149.314138,-2924266.795251,104160.642014,58214.577028,-0.000039,0.000018,0.000001
0.120000,-0.720000,1.280000,0.080000,-8826242286.816368,-2919002.571949,98919.959979,176016.942884,-0.000039,0.000018,0.000003
0.200000,-0.720000,1.280036,0.080000,-8826240795.251484,-2908110.951106,88076.308106,297940.645367,-0.000039,0.000018,0.000006
0.280000,-0.720000,1.280043,0.080000,-8826238744.549364,-2890849.846574,70889.404346,426746.266698,-0.000039,0.000017,0.000008
0.360000,-0.720000,1.280000,0.080000,-8826236245.530254,-2866066.569721,46209.282238,565206.600268,-0.000038,0.000017,0.000011
0.440000,-0.720000,1.280032,0.080000,-8826233457.299017,-2832149.791011,12428.276567,716096.211753,-0.000037,0.000016,0.000013
0.520000,-0.720000,1.280047,0.080000,-8826230597.580574,-2786964.869653,-32583.650899,882164.019662,-0.000037,0.000015,0.000017
0.600000,-0.720000,1.280001,0.080000,-8826227956.410423,-2727772.696524,-91560.135176,1066081.633004,-0.000035,0.000014,0.000020
0.680000,-0.720000,1.280029,0.080000,-8826225913.699223,-2651133.238592,-167935.042693,1270358.339595,-0.000034,0.000013,0.000024
0.760000,-0.720000,1.280052,0.080000,-8826224961.287813,-2552796.888459,-265951.477005,1497211.422342,-0.000032,0.000011,0.000028
0.840000,-0.720000,1.280001,0.080000,-8826225730.185740,-2427589.971129,-390776.933466,1748378.033574,-0.000030,0.000009,0.000033
0.920000,-0.720000,1.280026,0.080000,-8826229023.722471,-2269305.787216,-548613.309254,2024852.523581,-0.000027,0.000006,0.000038
1.000000,-0.720000,1.280056,0.080000,-8826235857.301556,-2070620.157141,-746783.074818,2326531.543492,-0.000023,0.000002,0.000044
1.080000,-0.720000,1.280002,0.080000,-8826247505.288757,-1823060.933613,-993762.235538,2651749.527688,-0.000018,-0.000003,0.000050
1.160000,-0.720000,1.280023,0.080000,-8826265555.213400,-1517075.201466,-1299116.688427,2996691.129023,-0.000013,-0.000009,0.000056
1.240000,-0.720000,1.260051,0.080000,-8826291968.832449,-1142255.269811,-1673280.874188,3354677.523821,-0.000006,-0.000016,0.000063
1.320000,-0.720000,1.180055,0.080000,-8826329148.582178,-687804.170681,-2127098.047936,3715343.907055,0.000003,-0.000024,0.000070
1.400000,-0.720000,1.100058,0.080000,-8826380006.404562,-143339.010446,-2671023.233816,4063760.411431,0.000013,-0.000034,0.000077
1.480000,-0.720000,1.020063,0.080000,-8826448029.769075,499860.766059,-3313880.662926,4379602.369390,0.000025,-0.000047,0.000083
1.560000,-0.720000,0.940068,0.080000,-8826537336.867910,1247065.996006,-4061079.228784,4636550.184372,0.000039,-0.000061,0.000087
1.640000,-0.720000,0.860075,0.080000,-8826652709.530125,2097729.123618,-4912240.256834,4802189.647032,0.000055,-0.000077,0.000090
1.720000,-0.720000,0.780082,0.080000,-8826799588.718504,3042604.260108,-5858303.048320,4838773.648544,0.000073,-0.000094,0.000091
1.800000,-0.720000,0.700092,0.080000,-8826984014.266815,4060615.529198,-6878363.116759,4705260.532047,0.000092,-0.000114,0.000089
1.880000,-0.720000,0.620104,0.080000,-8827212488.997023,5115998.669887,-7936765.726624,4361005.495000,0.000112,-0.000134,0.000082
1.960000,-0.720000,0.540119,0.080000,-8827491749.210670,6165382.049871,-9011689.601243,3760080.756919,0.000132,-0.000154,0.000071
2.040000,-0.720000,0.460140,0.080000,-8827828430.662603,7123744.143466,-9961859.648988,2923425.990427,0.000150,-0.000172,0.000055
2.120000,-0.720000,0.380169,0.080000,-8828228632.937000,7920709.722358,-10761371.864669,1794153.195716,0.000165,-0.000187,0.000034
-2.120000,-0.640000,0.380004,0.080000,-8828486498.033775,6783914.029607,-9619480.887670,-1217028.787902,0.000144,-0.000165,-0.000023
-2.040000,-0.640000,0.460003,0.080000,-8828072994.529905,6208028.695942,-9042677.438432,-2151941.674294,0.000133,-0.000154,-0.000041
-1.960000,-0.640000,0.540003,0.080000,-8827717173.634466,5484387.129787,-8325973.696929,-2870740.762641,0.000119,-0.000141,-0.000054
-1.880000,-0.640000,0.620003,0.080000,-8827414427.486561,4664226.349198,-7486400.624035,-3414899.502907,0.000104,-0.000125,-0.000064
-1.800000,-0.640000,0.700002,0.080000,-8827159568.167059,3813601.699062,-6633258.766190,-3758561.273698,0.000088,-0.000109,-0.000071
-1.720000,-0.640000,0.780002,0.080000,-8826947166.664307,2969101.100539,-5786897.843479,-3932312.901084,0.000072,-0.000093,-0.000074
-1.640000,-0.640000,0.860002,0.080000,-8826771829.344198,2162925.754817,-4979488.346052,-3963430.563089,0.000057,-0.000078,-0.000075
-1.560000,-0.640000,0.940002,0.080000,-8826628404.191139,1416656.891954,-4232523.494049,-3881300.675975,0.000043,-0.000064,-0.000073
-1.480000,-0.640000,1.020002,0.080000,-8826512119.429230,742699.603622,-3558295.370565,-3714412.322773,0.000030,-0.000051,-0.000070
-1.400000,-0.640000,1.100001,0.080000,-8826418663.572485,146177.916154,-2961813.368970,-3488423.646784,0.000019,-0.000040,-0.000066
-1.320000,-0.640000,1.180001,0.080000,-8826344218.891003,-373123.220209,-2442760.276080,-3225150.008398,0.000009,-0.000030,-0.000061
-1.240000,-0.640000,1.260001,0.080000,-8826285460.636518,-819015.929691,-1997240.729666,-2942246.818938,0.000000,-0.000022,-0.000055
-1.160000,-0.640000,1.340001,0.080000,-8826239533.136066,-1197483.658040,-1619208.190867,-2653356.653148,-0.000007,-0.000015,-0.000050
-1.080000,-0.640000,1.360002,0.080000,-8826204011.870420,-1515596.856475,-1301547.422039,-2368525.530169,-0.000013,-0.000009,-0.000045
-1.000000,-0.640000,1.360053,0.080000,-8826176858.486883,-1780741.747657,-1036842.524507,-2094742.258995,-0.000018,-0.000004,-0.000039
-0.920000,-0.640000,1.360024,0.080000,-8826156373.701273,-2000108.870357,-817884.881396,-1836502.365624,-0.000022,0.000001,-0.000035
-0.840000,-0.640000,1.360001,0.080000,-8826141151.382849,-2180382.018455,-637981.031332,-1596337.265714,-0.000025,0.000004,-0.000030
-0.760000,-0.640000,1.360049,0.080000,-8826130035.832722,-2327572.519370,-491115.697157,-1375278.114508,-0.000028,0.000007,-0.000026
-0.680000,-0.640000,1.360027,0.080000,-8826122083.331537,-2446953.010184,-372015.981830,-1173243.049203,-0.000030,0.000009,-0.000022
-0.600000,-0.640000,1.360001,0.080000,-8826116528.393467,-2543054.967983,-276152.292562,-989348.319003,-0.000032,0.000011,-0.000019
-0.520000,-0.640000,1.360045,0.080000,-8826112754.750521,-2619703.803373,-199702.223706,-822150.184480,-0.000033,0.000012,-0.000015
-0.440000,-0.640000,1.360030,0.080000,-8826110270.849775,-2680073.018030,-139495.665250,-669827.308402,-0.000035,0.000013,-0.000013
-0.360000,-0.640000,1.360000,0.080000,-8826108689.520487,-2726745.091932,-92953.478404,-530314.025228,-0.000035,0.000014,-0.000010
-0.280000,-0.640000,1.360041,0.080000,-8826107711.424706,-2761771.095193,-58027.582653,-401394.351938,-0.000036,0.000015,-0.000008
-0.200000,-0.640000,1.360034,0.080000,-8826107111.910906,-2786724.207078,-33147.305988,-280765.531014,-0.000037,0.000015,-0.000005
-0.120000,-0.640000,1.360000,0.080000,-8826106730.929726,-2802744.289659,-17174.705810,-166078.662879,-0.000037,0.000016,-0.000003
-0.040000,-0.640000,1.360037,0.080000,-8826106465.726606,-2810572.050517,-9370.359963,-54962.824205,-0.000037,0.000016,-0.000001
0.040000,-0.640000,1.360037,0.080000,-8826106266.092886,-2810572.067984,-9370.343215,54961.893410,-0.000037,0.000016,0.000001
0.120000,-0.640000,1.360000,0.080000,-8826106132.028471,-2802744.341762,-17174.653940,166077.702241,-0.000037,0.000016,0.000003
0.200000,-0.640000,1.360034,0.080000,-8826106113.741758,-2786724.300422,-33147.217335,280764.509346,-0.000037,0.000015,0.000005
0.280000,-0.640000,1.360041,0.080000,-8826106313.987116,-2761771.235103,-58027.444912,401393.237653,-0.000036,0.000015,0.000008
0.360000,-0.640000,1.360000,0.080000,-8826106892.813560,-2726745.290392,-92953.279803,530312.786717,-0.000035,0.000014,0.000010
0.440000,-0.640000,1.360030,0.080000,-8826108074.872213,-2680073.292464,-139495.392785,669825.912354,-0.000035,0.000013,0.000013
0.520000,-0.640000,1.360045,0.080000,-8826110159.500576,-2619704.172930,-199701.856128,822148.595904,-0.000033,0.000012,0.000015
0.600000,-0.640000,1.360001,0.080000,-8826113533.868763,-2543055.458541,-276151.804698,989346.501696,-0.000032,0.000011,0.000019
0.680000,-0.640000,1.360027,0.080000,-8826118689.528933,-2446953.652420,-372015.342588,1173240.965394,-0.000030,0.000009,0.000022
0.760000,-0.640000,1.360049,0.080000,-8826126242.748091,-2327573.351732,-491114.869197,1375275.725962,-0.000028,0.000007,0.000026
0.840000,-0.640000,1.360001,0.080000,-8826136959.010868,-2180383.085354,-637979.968072,1596334.534424,-0.000025,0.000004,0.000030
0.920000,-0.640000,1.360024,0.080000,-8826151782.035093,-2000110.226070,-817883.529713,1836499.253698,-0.000022,0.000001,0.000035
1.000000,-0.640000,1.360053,0.080000,-8826171867.517830,-1780743.454101,-1036840.818839,2094738.730957,-0.000018,-0.000004,0.000039
1.080000,-0.640000,1.360002,0.080000,-8826198621.587484,-1515598.992929,-1301545.292244,2368521.554867,-0.000013,-0.000009,0.000045
1.160000,-0.640000,1.340001,0.080000,-8826233743.525587,-1197486.307485,-1619205.547632,2653352.206759,-0.000007,-0.000015,0.000050
1.240000,-0.640000,1.260001,0.080000,-8826279271.681494,-819019.190999,-1997237.476283,2942241.889304,0.000000,-0.000022,0.000055
1.320000,-0.640000,1.180001,0.080000,-8826337630.570547,-373127.200530,-2442756.302017,3225144.598299,0.000009,-0.000030,0.000061
1.400000,-0.640000,1.100001,0.080000,-8826411675.861073,146173.097259,-2961808.556194,3488417.779060,0.000019,-0.000040,0.000066
1.480000,-0.640000,1.020002,0.080000,-8826504732.295958,742693.819372,-3558289.595158,3714406.046729,0.000030,-0.000051,0.000070
1.560000,-0.640000,0.940002,0.080000,-8826620617.598953,1416650.015734,-4232516.627714,3881294.074679,0.000043,-0.000064,0.000073
1.640000,-0.640000,0.860002,0.080000,-8826763643.249092,2162917.669386,-4979480.265183,3963423.758843,0.000057,-0.000078,0.000075
1.720000,-0.640000,0.780002,0.080000,-8826938581.014448,2969091.699261,-5786888.449567,3932306.058897,0.000072,-0.000093,0.000074
1.800000,-0.640000,0.700002,0.080000,-8827150582.902315,3813590.913720,-6633247.981294,3758554.603241,0.000088,-0.000109,0.000071
1.880000,-0.640000,0.620003,0.080000,-8827405042.537855,4664214.150342,-7486388.424081,3414893.255980,0.000104,-0.000125,0.000064
1.960000,-0.640000,0.540003,0.080000,-8827707388.923767,5484373.545449,-8325960.076730,2870735.238582,0.000119,-0.000141,0.000054
2.040000,-0.640000,0.460003,0.080000,-8828062809.970377,6208013.851271,-9042662.568519,2151937.140912,0.000133,-0.000154,0.000041
2.120000,-0.640000,0.380004,0.080000,-8828475913.530560,6783898.125898,-9619464.954524,1217025.574007,0.000144,-0.000165,0.000023
-2.120000,-0.560000,0.380079,0.080000,-8828690273.200199,5859690.095572,-8691523.996116,-814054.052188,0.000126,-0.000148,-0.000015
-2.040000,-0.560000,0.460065,0.080000,-8828267581.225605,5442829.507039,-8274759.633175,-1579527.624489,0.000119,-0.000140,-0.000030
-1.960000,-0.560000,0.540056,0.080000,-8827897692.610844,4893077.627937,-7730875.876457,-2185100.759007,0.000108,-0.000130,-0.000041
-1.880000,-0.560000,0.620049,0.080000,-8827577105.024176,4247884.771246,-7070851.184414,-2661635.463454,0.000096,-0.000117,-0.000050
-1.800000,-0.560000,0.700043,0.080000,-8827301735.898792,3558574.674851,-6379468.549856,-2982777.100127,0.000083,-0.000104,-0.000056
-1.720000,-0.560000,0.780039,0.080000,-8827067185.851887,2855475.125527,-5674734.269357,-3168807.013520,0.000070,-0.000091,-0.000060
-1.640000,-0.560000,0.860035,0.080000,-8826868964.744904,2166674.512855,-4984746.488263,-3237738.753628,0.000057,-0.000078,-0.000061
-1.560000,-0.560000,0.940032,0.080000,-8826702671.365459,1512721.745541,-4330016.568615,-3210312.013031,0.000044,-0.000066,-0.000060
-1.480000,-0.560000,1.020030,0.080000,-8826564125.143419,907218.557117,-3724081.972405,-3107663.121458,0.000033,-0.000054,-0.000059
-1.400000,-0.560000,1.100027,0.080000,-8826449453.568878,357883.170858,-3174586.774990,-2949666.173246,0.000023,-0.000044,-0.000056
-1.320000,-0.560000,1.180026,0.080000,-8826355142.018658,-132203.868232,-2684539.216431,-2753910.036288,0.000013,-0.000035,-0.000052
-1.240000,-0.560000,1.260024,0.080000,-8826278053.893763,-563375.141513,-2253543.093502,-2535200.912024,0.000005,-0.000027,-0.000048
-1.160000,-0.560000,1.340022,0.080000,-8826215428.863352,-938293.420736,-1878883.674299,-2305453.535940,-0.000002,-0.000019,-0.000043
-1.080000,-0.560000,1.420021,0.080000,-8826164866.127245,-1261064.480377,-1556415.270377,-2073839.648999,-0.000008,-0.000013,-0.000039
-1.000000,-0.560000,1.440050,0.080000,-8826124298.372274,-1536554.344144,-1281242.856167,-1847084.531445,-0.000013,-0.000008,-0.000035
-0.920000,-0.560000,1.440023,0.080000,-8826091960.798487,-1769892.965089,-1048216.562809,-1629829.891839,-0.000017,-0.000004,-0.000031
-0.840000,-0.560000,1.440001,0.080000,-8826066358.402357,-1966133.812908,-852270.104326,-1425007.476465,-0.000021,-0.000000,-0.000027
-0.760000,-0.560000,1.440046,0.080000,-8826046233.707394,-2130035.684755,-688637.128575,-1234189.234567,-0.000024,0.000003,-0.000023
-0.680000,-0.560000,1.440026,0.080000,-8826030536.349421,-2265935.278085,-552977.101727,-1057895.907051,-0.000027,0.000006,-0.000020
-0.600000,-0.560000,1.440000,0.080000,-8826018395.341574,-2377683.778749,-441437.474555,-895856.921715,-0.000029,0.000008,-0.000017
-0.520000,-0.560000,1.440042,0.080000,-8826009094.431894,-2468626.206371,-350673.419982,-747221.453224,-0.000031,0.000009,-0.000014
-0.440000,-0.560000,1.440029,0.080000,-8826002050.691576,-2541607.369958,-277841.195389,-610724.502236,-0.000032,0.000011,-0.000012
-0.360000,-0.560000,1.440000,0.080000,-8825996796.299625,-2598992.709879,-220576.827107,-484813.801450,-0.000033,0.000012,-0.000009
-0.280000,-0.560000,1.440039,0.080000,-8825992963.393412,-2642695.782479,-176968.307596,-367744.015468,-0.000034,0.000013,-0.000007
-0.200000,-0.560000,1.440032,0.080000,-8825990271.811176,-2674206.790936,-145526.849585,-257644.620895,-0.000034,0.000013,-0.000005
-0.120000,-0.560000,1.440000,0.080000,-8825988519.545139,-2694618.489017,-125160.841096,-152567.387317,-0.000035,0.000014,-0.000003
-0.040000,-0.560000,1.440035,0.080000,-8825987575.739933,-2704647.156569,-115154.817773,-50518.786068,-0.000035,0.000014,-0.000001
0.040000,-0.560000,1.440035,0.080000,-8825987376.103331,-2704647.186509,-115154.785392,50517.903845,-0.000035,0.000014,0.000001
0.120000,-0.560000,1.440000,0.080000,-8825987920.635080,-2694618.584834,-125160.747447,152566.478451,-0.000035,0.000014,0.000003
0.200000,-0.560000,1.440032,0.080000,-8825989273.627089,-2674206.954518,-145526.686553,257643.657370,-0.000034,0.000013,0.000005
0.280000,-0.560000,1.440039,0.080000,-8825991565.934223,-2642696.024810,-176968.068112,367742.969335,-0.000034,0.000013,0.000007
0.360000,-0.560000,1.440000,0.080000,-8825994999.563808,-2598993.042079,-220576.496768,484812.645280,-0.000033,0.000012,0.000009
0.440000,-0.560000,1.440029,0.080000,-8825999854.677004,-2541607.808630,-277840.757445,610723.206976,-0.000032,0.000011,0.000012
0.520000,-0.560000,1.440042,0.080000,-8826006499.135740,-2468626.773371,-350672.854850,747219.988665,-0.000031,0.000009,0.000014
0.600000,-0.560000,1.440000,0.080000,-8826015400.760214,-2377684.499571,-441436.754371,895855.257249,-0.000029,0.000008,0.000017
0.680000,-0.560000,1.440026,0.080000,-8826027142.478214,-2265936.185908,-552976.195693,1057894.010779,-0.000027,0.000006,0.000020
0.760000,-0.560000,1.440046,0.080000,-8826042440.540516,-2130036.817572,-688635.999244,1234187.074858,-0.000024,0.000003,0.000023
0.840000,-0.560000,1.440001,0.080000,-8826062165.932558,-1966135.214568,-852268.705311,1425005.022726,-0.000021,-0.000000,0.000027
0.920000,-0.560000,1.440023,0.080000,-8826087369.016760,-1769894.689176,-1048214.843782,1629827.114859,-0.000017,-0.000004,0.000031
1.000000,-0.560000,1.440050,0.080000,-8826119307.267580,-1536556.449681,-1281240.756703,1847081.405078,-0.000013,-0.000008,0.000035
1.080000,-0.560000,1.420021,0.080000,-8826159475.686108,-1261067.034432,-1556412.720349,2073836.152157,-0.000008,-0.000013,0.000039
1.160000,-0.560000,1.340022,0.080000,-8826209639.069378,-938296.502404,-1878880.598375,2305449.654732,-0.000002,-0.000019,0.000043
1.240000,-0.560000,1.260024,0.080000,-8826271864.727211,-563378.835427,-2253539.405798,2535196.643185,0.000005,-0.000027,0.000048
1.320000,-0.560000,1.180026,0.080000,-8826348553.455856,-132208.266477,-2684534.825142,2753905.391134,0.000013,-0.000035,0.000052
1.400000,-0.560000,1.100027,0.080000,-8826442465.581665,357877.973102,-3174581.581786,2949661.180888,0.000023,-0.000044,0.000056
1.480000,-0.560000,1.020030,0.080000,-8826556737.698479,907212.460762,-3724075.880549,3107657.833046,0.000033,-0.000054,0.000059
1.560000,-0.560000,0.940032,0.080000,-8826694884.423733,1512714.655258,-4330009.483410,3210306.506801,0.000044,-0.000066,0.000060
1.640000,-0.560000,0.860035,0.080000,-8826860778.260984,2166666.344442,-4984738.324905,3237733.138278,0.000057,-0.000078,0.000061
1.720000,-0.560000,0.780039,0.080000,-8827058599.773483,2855465.815147,-5674724.963352,3168801.429959,0.000070,-0.000091,0.000060
1.800000,-0.560000,0.700043,0.080000,-8827292750.166315,3558564.187517,-6379458.064942,2982771.721468,0.000083,-0.000104,0.000056
1.880000,-0.560000,0.620049,0.080000,-8827567719.570549,4247873.115171,-7070839.522308,2661630.491370,0.000096,-0.000117,0.000050
1.960000,-0.560000,0.540056,0.080000,-8827887907.361435,4893064.847662,-7730863.067528,2185096.426838,0.000108,-0.000130,0.000041
2.040000,-0.560000,0.460065,0.080000,-8828257396.098738,5442815.731318,-8274745.839228,1579524.131498,0.000119,-0.000140,0.000030
2.120000,-0.560000,0.380079,0.080000,-8828679688.107832,5859675.506760,-8691509.389543,814051.643568,0.000126,-0.000148,0.000015
-2.120000,-0.480000,0.380207,0.080000,-8828856465.029421,5115459.744877,-7944560.501485,-534575.919489,0.000112,-0.000134,-0.000010
-2.040000,-0.480000,0.460171,0.080000,-8828427270.253712,4813252.967716,-7643078.617821,-1152542.901866,0.000107,-0.000128,-0.000022
-1.960000,-0.480000,0.540146,0.080000,-8828046863.805634,4392140.405054,-7226949.580423,-1652387.843660,0.000099,-0.000120,-0.000031
-1.880000,-0.480000,0.620127,0.080000,-8827712561.487438,3879717.514212,-6703101.821385,-2057349.374395,0.000089,-0.000110,-0.000039
-1.800000,-0.480000,0.700112,0.080000,-8827421119.674330,3316096.230050,-6137777.630844,-2343039.487931,0.000078,-0.000100,-0.000044
-1.720000,-0.480000,0.780101,0.080000,-8827168941.084822,2726279.875868,-5546545.985488,-2522843.377630,0.000067,-0.000089,-0.000048
-1.640000,-0.480000,0.860091,0.080000,-8826952259.183846,2134412.425225,-4953579.432915,-2608458.876761,0.000056,-0.000077,-0.000049
-1.560000,-0.480000,0.940084,0.080000,-8826767292.512224,1559358.106260,-4377733.899908,-2614323.690528,0.000045,-0.000067,-0.000049
-1.480000,-0.480000,1.020077,0.080000,-8826610365.448551,1014802.816950,-3832662.720492,-2555872.763363,0.000035,-0.000056,-0.000048
-1.400000,-0.480000,1.100071,0.080000,-8826477995.977762,509779.403761,-3327353.412435,-2448199.400590,0.000026,-0.000047,-0.000046
-1.320000,-0.480000,1.180067,0.080000,-8826366953.758949,49419.921232,-2866888.939108,-2305139.751493,0.000017,-0.000038,-0.000043
-1.240000,-0.480000,1.260062,0.080000,-8826274293.253262,-364220.011349,-2453278.133782,-2138737.305870,0.000009,-0.000030,-0.000040
-1.160000,-0.480000,1.340059,0.080000,-8826197367.150785,-731370.607438,-2086249.766284,-1959012.188400,0.000002,-0.000023,-0.000037
-1.080000,-0.480000,1.420055,0.080000,-8826133825.134918,-1053852.337099,-1763949.603547,-1773951.783881,-0.000004,-0.000017,-0.000033
-1.000000,-0.480000,1.500052,0.080000,-8826081602.427200,-1334502.009299,-1483514.417365,-1589645.834608,-0.000009,-0.000012,-0.000030
-0.920000,-0.480000,1.520022,0.080000,-8826038901.784058,-1576723.656526,-1241520.454729,-1410503.096480,-0.000014,-0.000007,-0.000027
-0.840000,-0.480000,1.520001,0.080000,-8826004171.824476,-1784153.310878,-1034317.573248,-1239502.606153,-0.000018,-0.000004,-0.000023
-0.760000,-0.480000,1.520043,0.080000,-8825976083.839155,-1960420.212231,-858266.933462,-1078447.448141,-0.000021,-0.000000,-0.000020
-0.680000,-0.480000,1.520024,0.080000,-8825953508.617138,-2108984.997181,-709901.711313,-928201.130617,-0.000024,0.000003,-0.000017
-0.600000,-0.480000,1.520000,0.080000,-8825935494.331203,-2233036.562871,-586029.320641,-788895.896468,-0.000026,0.000005,-0.000015
-0.520000,-0.480000,1.520040,0.080000,-8825921246.147991,-2335431.657437,-483791.063551,-660108.757090,-0.000028,0.000007,-0.000012
-0.440000,-0.480000,1.520027,0.080000,-8825910107.953789,-2418664.209698,-400692.212150,-541005.241585,-0.000030,0.000008,-0.000010
-0.360000,-0.480000,1.520000,0.080000,-8825901546.395800,-2484854.234286,-334612.668473,-430453.349654,-0.000031,0.000010,-0.000008
-0.280000,-0.480000,1.520037,0.080000,-8825895137.312689,-2535748.642320,-283805.821158,-327111.500554,-0.000032,0.000011,-0.000006
-0.200000,-0.480000,1.520030,0.080000,-8825890554.550917,-2572728.381206,-246891.179309,-229494.809371,-0.000033,0.000011,-0.000004
-0.120000,-0.480000,1.520000,0.080000,-8825887561.122641,-2596817.922195,-222844.732993,-136024.090699,-0.000033,0.000012,-0.000003
-0.040000,-0.480000,1.520033,0.080000,-8825886002.645435,-2608694.370134,-210989.737766,-45061.814415,-0.000033,0.000012,-0.000001
0.040000,-0.480000,1.520033,0.080000,-8825885803.006128,-2608694.412360,-210989.693323,45061.006988,-0.000033,0.000012,0.000001
0.120000,-0.480000,1.520000,0.080000,-8825886962.204397,-2596818.054509,-222844.601374,136023.260199,-0.000033,0.000012,0.000003
0.200000,-0.480000,1.520030,0.080000,-8825889556.352926,-2572728.605893,-246890.951238,229493.931620,-0.000033,0.000011,0.000004
0.280000,-0.480000,1.520037,0.080000,-8825893739.833466,-2535748.971270,-283805.490432,327110.551496,-0.000032,0.000011,0.000006
0.360000,-0.480000,1.520000,0.080000,-8825899749.633209,-2484854.682217,-334612.222795,430452.305511,-0.000031,0.000010,0.000008
0.440000,-0.480000,1.520027,0.080000,-8825907911.904989,-2418664.791604,-400691.630857,541004.077242,-0.000030,0.000008,0.000010
0.520000,-0.480000,1.520040,0.080000,-8825918650.809231,-2335432.396288,-483790.327754,660107.447313,-0.000028,0.000007,0.000012
0.600000,-0.480000,1.520000,0.080000,-8825932499.697762,-2233037.484491,-586028.401749,788894.416007,-0.000026,0.000005,0.000015
0.680000,-0.480000,1.520024,0.080000,-8825950114.683111,-2108986.133229,-709900.576518,928199.453207,-0.000024,0.000003,0.000017
0.760000,-0.480000,1.520043,0.080000,-8825972290.597246,-1960421.600559,-858265.547463,1078445.548079,-0.000021,-0.000000,0.000020
0.840000,-0.480000,1.520001,0.080000,-8825999979.265785,-1784154.994754,-1034315.891546,1239500.459695,-0.000018,-0.000004,0.000023
0.920000,-0.480000,1.520022,0.080000,-8826034309.897800,-1576725.684708,-1241518.425951,1410500.681415,-0.000014,-0.000007,0.000027
1.000000,-0.480000,1.500052,0.080000,-8826076611.200315,-1334504.441843,-1483511.990038,1589643.131649,-0.000009,-0.000012,0.000030
1.080000,-0.480000,1.420055,0.080000,-8826128434.551870,-1053855.231653,-1763946.710853,1773948.779338,-0.000004,-0.000017,0.000033
1.160000,-0.480000,1.340059,0.080000,-8826191577.192982,-731374.035479,-2086246.342767,1959008.875948,0.000002,-0.000023,0.000037
1.240000,-0.480000,1.260062,0.080000,-8826268103.898766,-364224.044171,-2453274.103354,2138733.688184,0.000009,-0.000030,0.000040
1.320000,-0.480000,1.180067,0.080000,-8826360364.981884,49415.203631,-2866884.227436,2305135.843272,0.000017,-0.000038,0.000043
1.400000,-0.480000,1.100071,0.080000,-8826471007.747936,509773.925547,-3327347.939055,2448195.232370,0.000026,-0.000047,0.000046
1.480000,-0.480000,1.020077,0.080000,-8826602977.730879,1014796.502796,-3832656.409722,2555868.384279,0.000035,-0.000056,0.000048
1.560000,-0.480000,0.940084,0.080000,-8826759505.266266,1559350.886881,-4377726.682592,2614319.170831,0.000045,-0.000067,0.000049
1.640000,-0.480000,0.860091,0.080000,-8826944072.363371,2134404.243768,-4953571.251325,2608454.309504,0.000056,-0.000077,0.000049
1.720000,-0.480000,0.780101,0.080000,-8827160354.637444,2726270.695441,-5546536.803655,2522838.879312,0.000067,-0.000089,0.000048
1.800000,-0.480000,0.700112,0.080000,-8827412133.541271,3316086.040283,-6137767.439637,2343035.198585,0.000078,-0.000100,0.000044
1.880000,-0.480000,0.620127,0.080000,-8827703175.603512,3879706.342499,-6703090.644160,2057345.453416,0.000089,-0.000110,0.000039
1.960000,-0.480000,0.540146,0.080000,-8828037078.099331,4392128.310434,-7226937.463167,1652384.470848,0.000099,-0.000120,0.000031
2.040000,-0.480000,0.460171,0.080000,-8828417084.647757,4813240.077214,-7643065.710967,1152540.224540,0.000107,-0.000128,0.000022
2.120000,-0.480000,0.380207,0.080000,-8828845879.441406,5115446.222404,-7944546.962703,534574.119958,0.000112,-0.000134,0.000010
-2.120000,-0.400000,0.380012,0.080000,-8828989844.072096,4524862.551733,-7351971.424295,-342853.210606,0.000101,-0.000123,-0.000006
-2.040000,-0.400000,0.460010,0.080000,-8828556092.103300,4305147.941551,-7133368.037941,-831658.565143,0.000097,-0.000118,-0.000016
-1.960000,-0.400000,0.540008,0.080000,-8828167887.657972,3978676.240754,-6811168.611764,-1233885.066641,0.000091,-0.000112,-0.000023
-1.880000,-0.400000,0.620007,0.080000,-8827823148.643314,3566053.633218,-6389635.472318,-1567031.211425,0.000083,-0.000104,-0.000030
-1.800000,-0.400000,0.700006,0.080000,-8827519262.179741,3099008.949661,-5921182.144147,-1809985.947448,0.000074,-0.000096,-0.000034
-1.720000,-0.400000,0.780006,0.080000,-8827253247.242287,2598246.705810,-5419197.404128,-1971521.342997,0.000065,-0.000086,-0.000037
-1.640000,-0.400000,0.860005,0.080000,-8827021906.013760,2084470.044669,-4904420.180754,-2059089.553052,0.000055,-0.000076,-0.000039
-1.560000,-0.400000,0.940005,0.080000,-8826821956.153151,1574720.226225,-4393899.616308,-2082587.465576,0.000046,-0.000067,-0.000039
-1.480000,-0.400000,1.020004,0.080000,-8826650139.796185,1082208.586621,-3900834.429377,-2053089.849500,0.000036,-0.000058,-0.000039
-1.400000,-0.400000,1.100004,0.080000,-8826503308.168600,616504.357768,-3434768.322361,-1981816.654636,0.000028,-0.000049,-0.000037
-1.320000,-0.400000,1.180004,0.080000,-8826378482.969229,183949.286110,-3002011.134723,-1879373.647370,0.000019,-0.000041,-0.000035
-1.240000,-0.400000,1.260004,0.080000,-8826272897.136896,-211813.318400,-2606172.867580,-1755258.019658,0.000012,-0.000033,-0.000033
-1.160000,-0.400000,1.340003,0.080000,-8826184018.357607,-569280.826462,-2248724.730881,-1617591.677221,0.000005,-0.000026,-0.000030
-1.080000,-0.400000,1.420003,0.080000,-8826109558.861240,-888562.553235,-1929529.768717,-1473032.037476,-0.000001,-0.000020,-0.000028
-1.000000,-0.400000,1.500003,0.080000,-8826047474.880444,-1170913.227541,-1647310.175237,-1326808.878520,-0.000006,-0.000015,-0.000025
-0.920000,-0.400000,1.580003,0.080000,-8825995958.752415,-1418343.102897,-1400037.238038,-1182841.470740,-0.000011,-0.000010,-0.000022
-0.840000,-0.400000,1.600001,0.080000,-8825953426.158318,-1633306.299480,-1185242.623694,-1043899.148912,-0.000015,-0.000006,-0.000020
-0.760000,-0.400000,1.600041,0.080000,-8825918500.497265,-1818461.205494,-1000257.375316,-911778.060961,-0.000018,-0.000003,-0.000017
-0.680000,-0.400000,1.600023,0.080000,-8825889995.931812,-1976492.884724,-842388.825650,-787475.535290,-0.000021,0.000000,-0.000015
-0.600000,-0.400000,1.600000,0.080000,-8825866900.245302,-2109986.186563,-709046.850916,-671350.639525,-0.000024,0.000003,-0.000013
-0.520000,-0.400000,1.600038,0.080000,-8825848358.327017,-2221338.586632,-597830.475491,-563264.918839,-0.000026,0.000005,-0.000011
-0.440000,-0.400000,1.600026,0.080000,-8825833656.846600,-2312702.975469,-506584.586762,-462701.132376,-0.000028,0.000006,-0.000009
-0.360000,-0.400000,1.600000,0.080000,-8825822210.486425,-2385952.201660,-433435.006779,-368860.327902,-0.000029,0.000008,-0.000007
-0.280000,-0.400000,1.600035,0.080000,-8825813549.961079,-2442658.753819,-376808.534923,-280739.138274,-0.000030,0.000009,-0.000005
-0.200000,-0.400000,1.600029,0.080000,-8825807311.956169,-2484084.398519,-335443.063968,-197190.019717,-0.000031,0.000010,-0.000004
-0.120000,-0.400000,1.600000,0.080000,-8825803231.053791,-2511175.913429,-308391.677346,-116967.533752,-0.000031,0.000010,-0.000002
-0.040000,-0.400000,1.600032,0.080000,-8825801133.672728,-2524564.111576,-295023.544411,-38763.878146,-0.000032,0.000010,-0.000001
0.040000,-0.400000,1.600032,0.080000,-8825800934.030981,-2524564.165862,-295023.490458,38763.168858,-0.000032,0.000010,0.000001
0.120000,-0.400000,1.600000,0.080000,-8825802632.128197,-2511176.078941,-308391.513472,116966.804961,-0.000031,0.000010,0.000002
0.200000,-0.400000,1.600029,0.080000,-8825806313.745693,-2484084.678815,-335442.782026,197189.251429,-0.000031,0.000010,0.000004
0.280000,-0.400000,1.600035,0.080000,-8825812152.463877,-2442659.161666,-376808.130035,280738.310637,-0.000030,0.000009,0.000005
0.360000,-0.400000,1.600000,0.080000,-8825820413.699924,-2385952.747628,-433434.461572,368859.420407,-0.000029,0.000008,0.000007
0.440000,-0.400000,1.600026,0.080000,-8825831460.767298,-2312703.677551,-506583.882534,462700.124520,-0.000028,0.000006,0.000009
0.520000,-0.400000,1.600038,0.080000,-8825845762.950367,-2221339.469745,-597829.594613,563263.789989,-0.000026,0.000005,0.000011
0.600000,-0.400000,1.600000,0.080000,-8825863905.565660,-2109987.276280,-709045.764240,671349.368674,-0.000024,0.000003,0.000013
0.680000,-0.400000,1.600023,0.080000,-8825886601.942226,-1976494.210141,-842387.498002,787474.101908,-0.000021,0.000000,0.000015
0.760000,-0.400000,1.600041,0.080000,-8825914707.189180,-1818462.806673,-1000255.775472,911776.444908,-0.000018,-0.000003,0.000017
0.840000,-0.400000,1.600001,0.080000,-8825949233.521481,-1633308.217042,-1185240.708429,1043897.331943,-0.000015,-0.000006,0.000020
0.920000,-0.400000,1.580003,0.080000,-8825991366.774542,-1418345.383341,-1400034.958463,1182839.436864,-0.000011,-0.000010,0.000022
1.000000,-0.400000,1.500003,0.080000,-8826042483.546904,-1170915.923779,-1647307.480476,1326806.613730,-0.000006,-0.000015,0.000025
1.080000,-0.400000,1.420003,0.080000,-8826104168.154739,-888565.722847,-1929526.603826,1473029.532891,-0.000001,-0.000020,0.000028
1.160000,-0.400000,1.340003,0.080000,-8826178228.257851,-569284.529238,-2248721.034261,1617588.931066,0.000005,-0.000026,0.000030
1.240000,-0.400000,1.260004,0.080000,-8826266707.620192,-211817.616061,-2606168.573961,1755255.037960,0.000012,-0.000033,0.000033
1.320000,-0.400000,1.180004,0.080000,-8826371894.008041,183944.328394,-3002006.180455,1879370.446228,0.000019,-0.000041,0.000035
1.400000,-0.400000,1.100004,0.080000,-8826496319.731188,616498.677694,-3434762.643350,1981813.262576,0.000028,-0.000049,0.000037
1.480000,-0.400000,1.020004,0.080000,-8826642751.846140,1082202.123816,-3900827.970227,2053086.310045,0.000036,-0.000058,0.000039
1.560000,-0.400000,0.940005,0.080000,-8826814168.649111,1574712.932588,-4393892.326025,2082583.838900,0.000046,-0.000067,0.000039
1.640000,-0.400000,0.860005,0.080000,-8827013718.909044,2084461.884727,-4904412.021321,2059085.916154,0.000055,-0.000076,0.000039
1.720000,-0.400000,0.780006,0.080000,-8827244660.484659,2598237.662445,-5419188.359755,1971517.789995,0.000065,-0.000086,0.000037
1.800000,-0.400000,0.700006,0.080000,-8827510275.711309,3098999.029645,-5921172.224270,1809982.588219,0.000074,-0.000096,0.000034
1.880000,-0.400000,0.620007,0.080000,-8827813762.400629,3566042.876801,-6389624.713494,1567028.168810,0.000083,-0.000104,0.000030
1.960000,-0.400000,0.540008,0.080000,-8828158101.572235,3978664.717134,-6811157.066264,1233882.477575,0.000091,-0.000112,0.000023
2.040000,-0.400000,0.460010,0.080000,-8828545906.100826,4305135.768267,-7133355.849311,831656.537773,0.000097,-0.000118,0.000016
2.120000,-0.400000,0.380012,0.080000,-8828979258.075047,4524849.876687,-7351958.736396,342851.879325,0.000101,-0.000123,0.000006
-2.120000,-0.320000,0.380057,0.080000,-8829094196.724663,4067126.601135,-6892801.687381,-213249.506948,0.000093,-0.000114,-0.000004
-2.040000,-0.320000,0.460047,0.080000,-8828657301.038857,3906168.230012,-6733188.757675,-587631.595871,0.000090,-0.000111,-0.000011
-1.960000,-0.320000,0.540040,0.080000,-8828263407.792925,3648394.919944,-6479133.810913,-899768.707573,0.000085,-0.000106,-0.000017
-1.880000,-0.320000,0.620035,0.080000,-8827910872.080259,3309518.138151,-6133174.516712,-1162619.005921,0.000078,-0.000100,-0.000022
-1.800000,-0.320000,0.700031,0.080000,-8827597547.190256,2915130.406082,-5737603.586331,-1358996.770332,0.000071,-0.000092,-0.000026
-1.720000,-0.320000,0.780028,0.080000,-8827320915.698555,2482612.631169,-5304021.278291,-1494574.000294,0.000063,-0.000084,-0.000028
-1.640000,-0.320000,0.860025,0.080000,-8827078215.550255,2029860.066248,-4850360.099172,-1573984.240252,0.000054,-0.000075,-0.000030
-1.560000,-0.320000,0.940023,0.080000,-8826866554.351665,1572237.360503,-4392001.024550,-1603867.411252,0.000046,-0.000067,-0.000030
-1.480000,-0.320000,1.020021,0.080000,-8826683007.591789,1122271.393699,-3941470.492687,-1591976.860021,0.000037,-0.000058,-0.000030
-1.400000,-0.320000,1.100020,0.080000,-8826524698.803673,689634.216454,-3508428.177049,-1546416.636472,0.000029,-0.000050,-0.000029
-1.320000,-0.320000,1.180018,0.080000,-8826388861.527323,281333.898751,-3099862.476150,-1475049.865695,0.000021,-0.000042,-0.000028
-1.240000,-0.320000,1.260017,0.080000,-8826272884.268272,-97965.801842,-2720414.045986,-1385085.490268,0.000014,-0.000035,-0.000026
-1.160000,-0.320000,1.340016,0.080000,-8826174340.474375,-445563.513643,-2372760.613843,-1282827.648933,0.000008,-0.000029,-0.000024
-1.080000,-0.320000,1.420015,0.080000,-8826091005.957668,-760326.161198,-2058013.007588,-1173559.245472,0.000002,-0.000023,-0.000022
-1.000000,-0.320000,1.500014,0.080000,-8826020866.271978,-1042316.400725,-1776088.820361,-1061526.821399,-0.000004,-0.000018,-0.000020
-0.920000,-0.320000,1.580014,0.080000,-8825962116.423643,-1292461.248771,-1526044.275694,-949995.079938,-0.000008,-0.000013,-0.000018
-0.840000,-0.320000,1.660013,0.080000,-8825913155.033134,-1512270.766760,-1306355.615067,-841343.862439,-0.000013,-0.000009,-0.000016
-0.760000,-0.320000,1.680039,0.080000,-8825872574.747829,-1703608.149749,-1115148.777303,-737186.164448,-0.000016,-0.000005,-0.000014
-0.680000,-0.320000,1.680022,0.080000,-8825839150.377996,-1868507.938012,-950380.857148,-638491.620349,-0.000019,-0.000002,-0.000012
-0.600000,-0.320000,1.680000,0.080000,-8825811825.922010,-2009036.470622,-809979.234251,-545705.055379,-0.000022,0.000001,-0.000010
-0.520000,-0.320000,1.680036,0.080000,-8825789701.375797,-2127187.787256,-691945.289017,-458853.896865,-0.000024,0.000003,-0.000009
-0.440000,-0.320000,1.680025,0.080000,-8825772019.995594,-2224808.098297,-594429.543879,-377641.390964,-0.000026,0.000005,-0.000007
-0.360000,-0.320000,1.680000,0.080000,-8825758156.499126,-2303542.573318,-515784.568097,-301524.802288,-0.000027,0.000006,-0.000006
-0.280000,-0.320000,1.680033,0.080000,-8825747606.547882,-2364798.988605,-454601.071744,-229779.260188,-0.000029,0.000007,-0.000004
-0.200000,-0.320000,1.680027,0.080000,-8825739977.744709,-2409723.726741,-409731.688867,-161548.815153,-0.000029,0.000008,-0.000003
-0.120000,-0.320000,1.680000,0.080000,-8825734982.301441,-2439186.553797,-380306.044163,-95886.772807,-0.000030,0.000009,-0.000002
-0.040000,-0.320000,1.680030,0.080000,-8825732431.474943,-2453771.446865,-365739.820791,-31787.623948,-0.000030,0.000009,-0.000001
0.040000,-0.320000,1.680030,0.080000,-8825732231.831112,-2453771.510478,-365739.758310,31787.033005,-0.000030,0.000009,0.000001
0.120000,-0.320000,1.680000,0.080000,-8825734383.369549,-2439186.746128,-380305.853448,95886.165701,-0.000030,0.000009,0.000002
0.200000,-0.320000,1.680027,0.080000,-8825738979.523544,-2409724.051995,-409731.362568,161548.176322,-0.000029,0.000008,0.000003
0.280000,-0.320000,1.680033,0.080000,-8825746209.035334,-2364799.458195,-454600.602826,229778.573879,-0.000029,0.000007,0.000004
0.360000,-0.320000,1.680000,0.080000,-8825756359.692183,-2303543.201404,-515783.942153,301524.051797,-0.000027,0.000006,0.000006
0.440000,-0.320000,1.680025,0.080000,-8825769823.890247,-2224808.901690,-594428.741444,377640.560427,-0.000026,0.000005,0.000007
0.520000,-0.320000,1.680036,0.080000,-8825787105.966881,-2127188.789596,-691944.290165,458852.969846,-0.000024,0.000003,0.000009
0.600000,-0.320000,1.680000,0.080000,-8825808831.203125,-2009037.697201,-809978.010171,545704.014974,-0.000022,0.000001,0.000010
0.680000,-0.320000,1.680022,0.080000,-8825835756.341282,-1868509.420291,-950379.376451,638490.451187,-0.000019,-0.000002,0.000012
0.760000,-0.320000,1.680039,0.080000,-8825868781.383776,-1703609.924028,-1115147.006313,737184.851639,-0.000016,-0.000005,0.000014
0.840000,-0.320000,1.660013,0.080000,-8825908962.330374,-1512272.873499,-1306353.514454,841342.391982,-0.000013,-0.000009,0.000016
0.920000,-0.320000,1.580014,0.080000,-8825957524.368704,-1292463.731498,-1526041.798491,949993.440157,-0.000008,-0.000013,0.000018
1.000000,-0.320000,1.500014,0.080000,-8826015874.848978,-1042319.306490,-1776085.917129,1061525.003253,-0.000004,-0.000018,0.000020
1.080000,-0.320000,1.420015,0.080000,-8826085615.147974,-760329.542894,-2058009.629450,1173557.243665,0.000002,-0.000023,0.000022
1.160000,-0.320000,1.340016,0.080000,-8826168550.256323,-445567.425937,-2372756.706860,1282825.463444,0.000008,-0.000029,0.000024
1.240000,-0.320000,1.260017,0.080000,-8826266694.616829,-97970.298343,-2720409.553206,1385083.128237,0.000014,-0.000035,0.000026
1.320000,-0.320000,1.180018,0.080000,-8826382272.413689,281328.763434,-3099857.343897,1475047.342833,0.000021,-0.000042,0.000028
1.400000,-0.320000,1.100020,0.080000,-8826517710.194965,689628.391291,-3508422.353763,1546413.977733,0.000029,-0.000050,0.000029
1.480000,-0.320000,1.020021,0.080000,-8826675619.450703,1122264.833546,-3941463.935094,1591974.101273,0.000037,-0.000058,0.000030
1.560000,-0.320000,0.940023,0.080000,-8826858766.636200,1572230.030141,-4391993.697871,1603864.600579,0.000046,-0.000067,0.000030
1.640000,-0.320000,0.860025,0.080000,-8827070028.213526,2029851.947096,-4850351.978776,1573981.438848,0.000054,-0.000075,0.000030
1.720000,-0.320000,0.780028,0.080000,-8827312328.688570,2482603.718721,-5304012.364089,1494571.281548,0.000063,-0.000084,0.000028
1.800000,-0.320000,0.700031,0.080000,-8827588560.449984,2915120.720604,-5737593.898121,1358994.217611,0.000071,-0.000092,0.000026
1.880000,-0.320000,0.620035,0.080000,-8827901485.547733,3309507.726622,-6133164.100285,1162616.710917,0.000078,-0.000100,0.000022
1.960000,-0.320000,0.540040,0.080000,-8828253621.401525,3648383.852492,-6479122.725667,899766.771851,0.000085,-0.000106,0.000017
2.040000,-0.320000,0.460047,0.080000,-8828647114.717836,3906156.620058,-6733177.135256,587630.097638,0.000090,-0.000111,0.000011
2.120000,-0.320000,0.380057,0.080000,-8829083610.399782,4067114.583899,-6892789.659834,213248.543074,0.000093,-0.000114,0.000004
-2.120000,-0.240000,0.380248,0.080000,-8829172457.914557,3726347.169002,-6551018.329580,-126975.647922,0.000086,-0.000107,-0.000002
-2.040000,-0.240000,0.460205,0.080000,-8828733453.177618,3606186.019477,-6432341.474042,-398278.029014,0.000084,-0.000105,-0.000008
-1.960000,-0.240000,0.540175,0.080000,-8828335537.110373,3396859.535580,-6226320.905882,-626670.623384,0.000080,-0.000101,-0.000012
-1.880000,-0.240000,0.620152,0.080000,-8827977373.189922,3110737.407916,-5934406.234038,-821337.666434,0.000075,-0.000096,-0.000015
-1.800000,-0.240000,0.700135,0.080000,-8827657148.238760,2769069.161527,-5591719.719679,-969304.101311,0.000068,-0.000089,-0.000018
-1.720000,-0.240000,0.780121,0.080000,-8827372681.210644,2386789.710547,-5208496.850618,-1074129.564570,0.000061,-0.000082,-0.000020
-1.640000,-0.240000,0.860110,0.080000,-8827121530.809225,1979646.505378,-4800521.374419,-1138590.972045,0.000053,-0.000075,-0.000021
-1.560000,-0.240000,0.940100,0.080000,-8826901096.041737,1561622.607603,-4381796.765260,-1166977.900474,0.000045,-0.000067,-0.000022
-1.480000,-0.240000,1.020092,0.080000,-8826708705.575186,1144563.394731,-3964175.127101,-1164491.586276,0.000038,-0.000059,-0.000022
-1.400000,-0.240000,1.100086,0.080000,-8826541693.494257,738039.455684,-3557223.111660,-1136712.726822,0.000030,-0.000051,-0.000021
-1.320000,-0.240000,1.180080,0.080000,-8826397460.564968,349394.342822,-3168272.929696,-1089172.162380,0.000023,-0.000044,-0.000021
-1.240000,-0.240000,1.260075,0.080000,-8826273521.290771,-16077.997368,-2802602.754834,-1027036.249632,0.000016,-0.000037,-0.000019
-1.160000,-0.240000,1.340070,0.080000,-8826167537.878874,-354877.080103,-2463695.293554,-954902.169416,0.000009,-0.000030,-0.000018
-1.080000,-0.240000,1.420066,0.080000,-8826077342.741079,-665003.175218,-2153532.339341,-876688.085692,0.000003,-0.000025,-0.000017
-1.000000,-0.240000,1.500063,0.080000,-8826000951.391960,-945659.627529,-1872893.671793,-795598.220420,-0.000002,-0.000019,-0.000015
-0.920000,-0.240000,1.580060,0.080000,-8825936567.641771,-1196971.689300,-1621638.949640,-714142.172643,-0.000007,-0.000015,-0.000013
-0.840000,-0.240000,1.660057,0.080000,-8825882582.879257,-1419734.645698,-1398959.920123,-634189.705440,-0.000011,-0.000010,-0.000012
-0.760000,-0.240000,1.740054,0.080000,-8825837571.054159,-1615197.296609,-1203597.002274,-557045.476234,-0.000014,-0.000007,-0.000010
-0.680000,-0.240000,1.760021,0.080000,-8825800280.744913,-1784882.028545,-1034019.082297,-483531.868016,-0.000018,-0.000004,-0.000009
-0.600000,-0.240000,1.760000,0.080000,-8825769625.463358,-1930439.633131,-888568.499910,-414071.571559,-0.000020,-0.000001,-0.000008
-0.520000,-0.240000,1.760034,0.080000,-8825744673.127449,-2053535.177752,-765574.884552,-348764.564990,-0.000023,0.000002,-0.000007
-0.440000,-0.240000,1.760024,0.080000,-8825724635.433311,-2155760.506251,-663442.403887,-287456.504417,-0.000025,0.000003,-0.000005
-0.360000,-0.240000,1.760000,0.080000,-8825708857.688694,-2238568.715692,-580715.030639,-229797.296873,-0.000026,0.000005,-0.000004
-0.280000,-0.240000,1.760032,0.080000,-8825696809.528606,-2303226.271991,-516124.184595,-175289.863900,-0.000027,0.000006,-0.000003
-0.200000,-0.240000,1.760026,0.080000,-8825688076.820557,-2350778.952731,-468622.628842,-123329.901659,-0.000028,0.000007,-0.000002
-0.120000,-0.240000,1.760000,0.080000,-8825682354.979029,-2382028.363970,-437407.785122,-73237.931279,-0.000029,0.000008,-0.000001
-0.040000,-0.240000,1.760029,0.080000,-8825679443.839916,-2397516.519540,-421937.050047,-24285.215220,-0.000029,0.000008,-0.000000
0.040000,-0.240000,1.760029,0.080000,-8825679244.194410,-2397516.589668,-421936.980233,24284.758033,-0.000029,0.000008,0.000000
0.120000,-0.240000,1.760000,0.080000,-8825681756.042078,-2382028.575040,-437407.571980,73237.461786,-0.000029,0.000008,0.000001
0.200000,-0.240000,1.760026,0.080000,-8825687078.590776,-2350779.312715,-468622.268706,123329.408545,-0.000028,0.000007,0.000002
0.280000,-0.240000,1.760032,0.080000,-8825695412.003687,-2303226.790666,-516123.667402,175289.335227,-0.000027,0.000006,0.000003
0.360000,-0.240000,1.760000,0.080000,-8825707060.865334,-2238569.405297,-580714.340105,229796.720084,-0.000026,0.000005,0.000004
0.440000,-0.240000,1.760024,0.080000,-8825722439.307047,-2155761.387875,-663441.525739,287455.867604,-0.000025,0.000003,0.000005
0.520000,-0.240000,1.760034,0.080000,-8825742077.692671,-2053536.270530,-765573.793339,348763.855896,-0.000023,0.000002,0.000007
0.600000,-0.240000,1.760000,0.080000,-8825766630.713053,-1930440.964523,-888567.170025,414070.777859,-0.000020,-0.000001,0.000008
0.680000,-0.240000,1.760021,0.080000,-8825796886.670532,-1784883.630799,-1034017.484459,483530.978576,-0.000018,-0.000004,0.000009
0.760000,-0.240000,1.740054,0.080000,-8825833777.645485,-1615199.200522,-1203595.098644,557044.480496,-0.000014,-0.000007,0.000010
0.840000,-0.240000,1.660057,0.080000,-8825878390.124048,-1419736.892886,-1398957.676012,634188.593359,-0.000011,-0.000010,0.000012
0.920000,-0.240000,1.580060,0.080000,-8825931975.525644,-1196974.321618,-1621636.320749,714140.935977,-0.000007,-0.000015,0.000013
1.000000,-0.240000,1.500063,0.080000,-8825995959.898077,-945662.688270,-1872890.610883,795596.853518,-0.000002,-0.000019,0.000015
1.080000,-0.240000,1.420066,0.080000,-8826071951.849792,-665006.714363,-2153528.802834,876686.586067,0.000003,-0.000025,0.000017
1.160000,-0.240000,1.340070,0.080000,-8826161747.567537,-354881.144500,-2463691.230064,954900.538050,0.000009,-0.000030,0.000018
1.240000,-0.240000,1.260075,0.080000,-8826267331.533335,-16082.637059,-2802598.116991,1027034.492890,0.000016,-0.000037,0.000019
1.320000,-0.240000,1.180080,0.080000,-8826390871.331709,349389.080738,-3168267.671745,1089170.293188,0.000023,-0.000044,0.000021
1.400000,-0.240000,1.100086,0.080000,-8826534704.751520,738033.532143,-3557217.188354,1136710.765229,0.000030,-0.000051,0.000021
1.480000,-0.240000,1.020092,0.080000,-8826701317.285023,1144556.773714,-3964168.506184,1164489.559879,0.000038,-0.000059,0.000022
1.560000,-0.240000,0.940100,0.080000,-8826893308.161751,1561615.264010,-4381789.422967,1166975.845033,0.000045,-0.000067,0.000022
1.640000,-0.240000,0.860110,0.080000,-8827113343.292433,1979638.430189,-4800513.298055,1138588.932733,0.000053,-0.000075,0.000021
1.720000,-0.240000,0.780121,0.080000,-8827364094.005344,2386780.909370,-5208488.048857,1074127.595289,0.000061,-0.000082,0.000020
1.800000,-0.240000,0.700135,0.080000,-8827648161.288675,2769059.665386,-5591710.216560,969302.262448,0.000068,-0.000089,0.000018
1.880000,-0.240000,0.620152,0.080000,-8827967986.434225,3110727.263042,-5934396.085804,821336.022984,0.000075,-0.000096,0.000015
1.960000,-0.240000,0.540175,0.080000,-8828325750.484196,3396848.816996,-6226310.171460,626669.246818,0.000080,-0.000101,0.000012
2.040000,-0.240000,0.460205,0.080000,-8828723266.612432,3606174.834777,-6432330.277670,398276.973224,0.000084,-0.000105,0.000008
2.120000,-0.240000,0.380248,0.080000,-8829161871.338837,3726335.643548,-6551006.793617,126974.980151,0.000086,-0.000107,0.000002
-2.120000,-0.160000,0.380023,0.080000,-8829226812.816036,3490839.882354,-6314849.386002,-69839.740277,0.000082,-0.000103,-0.000001
-2.040000,-0.160000,0.460019,0.080000,-8828786470.788811,3397398.281412,-6222970.872186,-246279.732823,0.000080,-0.000101,-0.000005
-1.960000,-0.160000,0.540016,0.080000,-8828385885.345396,3220182.170851,-6048776.183018,-395803.023132,0.000077,-0.000098,-0.000007
-1.880000,-0.160000,0.620014,0.080000,-8828023924.397261,2969404.514048,-5793061.090906,-524300.959247,0.000072,-0.000093,-0.000010
-1.800000,-0.160000,0.700012,0.080000,-8827698998.256491,2663433.523845,-5486183.812215,-623110.196698,0.000066,-0.000087,-0.000012
-1.720000,-0.160000,0.780011,0.080000,-8827409153.642183,2315536.863493,-5137428.670985,-694303.121023,0.000060,-0.000081,-0.000013
-1.640000,-0.160000,0.860010,0.080000,-8827152168.771032,1939957.975008,-4761073.814996,-739424.423786,0.000052,-0.000074,-0.000014
-1.560000,-0.160000,0.940009,0.080000,-8826925644.295858,1549665.280713,-4370109.866065,-761024.302214,0.000045,-0.000066,-0.000014
-1.480000,-0.160000,1.020009,0.080000,-8826727086.158535,1155950.915200,-3975839.696095,-762289.669320,0.000038,-0.000059,-0.000014
-1.400000,-0.160000,1.100008,0.080000,-8826553977.783852,768226.834555,-3587676.450134,-746709.000628,0.000030,-0.000052,-0.000014
-1.320000,-0.160000,1.180007,0.080000,-8826403840.297930,393986.047208,-3213107.097864,-717794.518304,0.000023,-0.000045,-0.000014
-1.240000,-0.160000,1.260007,0.080000,-8826274280.509134,38889.501872,-2857781.682426,-678872.025885,0.000017,-0.000038,-0.000013
-1.160000,-0.160000,1.340007,0.080000,-8826163027.194252,-293061.173018,-2525688.107465,-632938.160830,0.000010,-0.000032,-0.000012
-1.080000,-0.160000,1.420006,0.080000,-8826067956.782330,-599300.800533,-2219376.718022,-582577.762242,0.000005,-0.000026,-0.000011
-1.000000,-0.160000,1.500006,0.080000,-8825987109.853155,-878456.652207,-1940205.527241,-529930.253513,-0.000001,-0.000021,-0.000010
-0.920000,-0.160000,1.580006,0.080000,-8825918700.003778,-1130105.042209,-1688584.487509,-476692.752389,-0.000005,-0.000016,-0.000009
-0.840000,-0.160000,1.660005,0.080000,-8825861116.636450,-1354543.164698,-1464204.123739,-424148.248948,-0.000010,-0.000012,-0.000008
-0.760000,-0.160000,1.740005,0.080000,-8825812923.124405,-1552585.001705,-1266239.890955,-373208.857168,-0.000013,-0.000008,-0.000007
-0.680000,-0.160000,1.820005,0.080000,-8825772851.661243,-1725385.345599,-1093528.138978,-324466.252282,-0.000017,-0.000005,-0.000006
-0.600000,-0.160000,1.840000,0.080000,-8825739795.918741,-1874292.790920,-944713.074333,-278243.533333,-0.000019,-0.000002,-0.000005
-0.520000,-0.160000,1.840033,0.080000,-8825712802.455498,-2000730.174378,-818366.126791,-234644.650695,-0.000022,0.000001,-0.000004
-0.440000,-0.160000,1.840023,0.080000,-8825691061.641893,-2106099.761633,-713080.567774,-193599.106538,-0.000024,0.000002,-0.000004
-0.360000,-0.160000,1.840000,0.080000,-8825673898.709446,-2191709.812905,-627544.759187,-154900.829852,-0.000025,0.000004,-0.000003
-0.280000,-0.160000,1.840030,0.080000,-8825660765.396093,-2258719.027316,-560597.490374,-118240.997023,-0.000027,0.000005,-0.000002
-0.200000,-0.160000,1.840025,0.080000,-8825651232.543606,-2308095.622191,-511268.742359,-83235.161443,-0.000028,0.000006,-0.000002
-0.120000,-0.160000,1.840000,0.080000,-8825644983.910208,-2340588.159810,-478808.735229,-49445.429521,-0.000028,0.000007,-0.000001
-0.040000,-0.160000,1.840028,0.080000,-8825641811.386244,-2356705.738074,-462707.599371,-16398.644855,-0.000028,0.000007,-0.000000
0.040000,-0.160000,1.840028,0.080000,-8825641611.739504,-2356705.813634,-462707.524700,16398.333037,-0.000028,0.000007,0.000000
0.120000,-0.160000,1.840000,0.080000,-8825644384.969534,-2340588.386132,-478808.507057,49445.109878,-0.000028,0.000007,0.000001
0.200000,-0.160000,1.840025,0.080000,-8825650234.307501,-2308096.008603,-511268.358607,83234.826111,-0.000028,0.000006,0.000002
0.280000,-0.160000,1.840030,0.080000,-8825659367.862122,-2258719.580704,-560596.937704,118240.637840,-0.000027,0.000005,0.000002
0.360000,-0.160000,1.840000,0.080000,-8825672101.874054,-2191710.547759,-627544.024031,154900.438667,-0.000025,0.000004,0.000003
0.440000,-0.160000,1.840023,0.080000,-8825688865.500355,-2106100.696912,-713079.633751,193598.675196,-0.000024,0.000002,0.000004
0.520000,-0.160000,1.840033,0.080000,-8825710207.001841,-2000731.330150,-818364.969104,234644.171132,-0.000022,0.000001,0.000004
0.600000,-0.160000,1.840000,0.080000,-8825736801.145525,-1874294.195245,-944711.668848,278242.998137,-0.000019,-0.000002,0.000005
0.680000,-0.160000,1.820005,0.080000,-8825769457.559458,-1725387.028956,-1093526.455119,324465.653967,-0.000017,-0.000005,0.000006
0.760000,-0.160000,1.740005,0.080000,-8825809129.683243,-1552586.998769,-1266237.896115,373208.188193,-0.000013,-0.000008,0.000007
0.840000,-0.160000,1.660005,0.080000,-8825856923.843115,-1354545.512521,-1464201.781273,424147.503262,-0.000010,-0.000012,0.000008
0.920000,-0.160000,1.580006,0.080000,-8825914107.843285,-1130107.777845,-1688581.751531,476691.925042,-0.000005,-0.000016,0.000009
1.000000,-0.160000,1.500006,0.080000,-8825982118.307911,-878459.823945,-1940202.359896,529929.341101,-0.000001,-0.000021,0.000010
1.080000,-0.160000,1.420006,0.080000,-8826062565.832066,-599304.448861,-2219373.072020,582576.763456,0.000005,-0.000026,0.000011
1.160000,-0.160000,1.340007,0.080000,-8826157236.815584,-293065.344276,-2525683.938975,632937.077219,0.000010,-0.000032,0.000012
1.240000,-0.160000,1.260007,0.080000,-8826268090.675356,38884.764087,-2857776.947227,678870.862454,0.000017,-0.000038,0.000013
1.320000,-0.160000,1.180007,0.080000,-8826397250.978701,393980.701306,-3213101.755264,717793.283685,0.000023,-0.000045,0.000014
1.400000,-0.160000,1.100008,0.080000,-8826546988.944960,768220.845779,-3587670.463321,746707.708404,0.000030,-0.000052,0.000014
1.480000,-0.160000,1.020009,0.080000,-8826719697.761633,1155944.255251,-3975833.038770,762288.338352,0.000038,-0.000059,0.000014
1.560000,-0.160000,0.940009,0.080000,-8826917856.298347,1549657.934726,-4370102.518682,761022.956628,0.000045,-0.000066,0.000014
1.640000,-0.160000,0.860010,0.080000,-8827143981.125870,1939949.937279,-4761065.775741,739423.093375,0.000052,-0.000074,0.000014
1.720000,-0.160000,0.780011,0.080000,-8827400566.297932,2315528.147223,-5137419.952673,694301.840822,0.000060,-0.000081,0.000013
1.800000,-0.160000,0.700012,0.080000,-8827690011.157370,2663424.160812,-5486174.447544,623109.005904,0.000066,-0.000087,0.000012
1.880000,-0.160000,0.620014,0.080000,-8828014537.483385,2969394.559560,-5793051.132848,524299.899578,0.000072,-0.000093,0.000010
1.960000,-0.160000,0.540016,0.080000,-8828376098.553087,3220171.697611,-6048765.695162,395802.139725,0.000077,-0.000098,0.000007
2.040000,-0.160000,0.460019,0.080000,-8828776284.051090,3397387.391474,-6222959.974433,246279.059615,0.000080,-0.000101,0.000005
2.120000,-0.160000,0.380023,0.080000,-8829216226.063309,3490828.697206,-6314838.190364,69839.319986,0.000082,-0.000103,0.000001
-2.120000,-0.080000,0.380038,0.080000,-8829258771.633583,3352625.272215,-6176258.826901,-30645.796493,0.000079,-0.000100,-0.000001
-2.040000,-0.080000,0.460031,0.080000,-8828817691.952511,3274301.786967,-6099538.284304,-117555.468777,0.000078,-0.000099,-0.000002
-1.960000,-0.080000,0.540027,0.080000,-8828415583.447538,3115402.084912,-5943493.409476,-191493.223529,0.000075,-0.000096,-0.000004
-1.880000,-0.080000,0.620023,0.080000,-8828051430.658859,2884931.972541,-5708573.596790,-255339.510681,0.000070,-0.000092,-0.000005
-1.800000,-0.080000,0.700021,0.080000,-8827723772.318617,2599616.353171,-5422416.505023,-304763.680301,0.000065,-0.000086,-0.000006
-1.720000,-0.080000,0.780019,0.080000,-8827430786.936861,2271755.623426,-5093747.463026,-340717.370988,0.000059,-0.000080,-0.000006
-1.640000,-0.080000,0.860017,0.080000,-8827170380.643290,1914705.487029,-4735955.640925,-363885.930088,0.000052,-0.000073,-0.000007
-1.560000,-0.080000,0.940015,0.080000,-8826940272.452530,1540818.012121,-4361415.974324,-375455.378354,0.000045,-0.000066,-0.000007
-1.480000,-0.080000,1.020014,0.080000,-8826738073.168995,1161030.394294,-3981078.389045,-376937.377863,0.000038,-0.000059,-0.000007
-1.400000,-0.080000,1.100013,0.080000,-8826561355.297604,784627.986354,-3604232.149356,-370007.640631,0.000031,-0.000052,-0.000007
-1.320000,-0.080000,1.180012,0.080000,-8826407712.435921,419159.593943,-3238422.962248,-356369.805761,0.000024,-0.000045,-0.000007
-1.240000,-0.080000,1.260011,0.080000,-8826274807.594952,70474.450277,-2889491.908553,-337650.566256,0.000017,-0.000039,-0.000006
-1.160000,-0.080000,1.340011,0.080000,-8826160410.673571,-257152.413868,-2561702.672686,-315326.728862,0.000011,-0.000032,-0.000006
-1.080000,-0.080000,1.420010,0.080000,-8826062425.878342,-560837.949214,-2257925.313745,-290681.335024,0.000005,-0.000027,-0.000005
-1.000000,-0.080000,1.500010,0.080000,-8825978910.244854,-838879.200868,-1979849.422537,-264783.932657,0.000000,-0.000021,-0.000005
-0.920000,-0.080000,1.580009,0.080000,-8825908084.610004,-1090533.105558,-1728205.182497,-238489.306901,-0.000005,-0.000017,-0.000004
-0.840000,-0.080000,1.660009,0.080000,-8825848338.438343,-1315803.538572,-1502976.926608,-212449.110847,-0.000009,-0.000012,-0.000004
-0.760000,-0.080000,1.740008,0.080000,-8825798229.862415,-1515245.707381,-1303599.059389,-187131.526084,-0.000013,-0.000009,-0.000004
-0.680000,-0.080000,1.820008,0.080000,-8825756482.186916,-1689793.577896,-1129128.735779,-162845.026303,-0.000016,-0.000005,-0.000003
-0.600000,-0.080000,1.900008,0.080000,-8825721977.959967,-1840612.622929,-978393.127890,-139763.317973,-0.000019,-0.000002,-0.000003
-0.520000,-0.080000,1.920032,0.080000,-8825693751.554638,-1968977.691598,-850111.420758,-117949.451787,-0.000021,-0.000000,-0.000002
-0.440000,-0.080000,1.920022,0.080000,-8825670981.042311,-2076174.332474,-742993.347491,-97377.870863,-0.000023,0.000002,-0.000002
-0.360000,-0.080000,1.920000,0.080000,-8825652979.990650,-2163420.960748,-655816.850670,-77953.769910,-0.000025,0.000004,-0.000001
-0.280000,-0.080000,1.920029,0.080000,-8825639189.685253,-2231808.953146,-587487.813161,-59529.577393,-0.000026,0.000005,-0.000001
-0.200000,-0.080000,1.920024,0.080000,-8825629172.159363,-2282257.758253,-537084.790968,-41918.691055,-0.000027,0.000006,-0.000001
-0.120000,-0.080000,1.920000,0.080000,-8825622604.319817,-2315482.381796,-503891.401824,-24906.799601,-0.000028,0.000006,-0.000000
-0.040000,-0.080000,1.920026,0.080000,-8825619273.378166,-2331971.015274,-487418.592858,-8261.239786,-0.000028,0.000007,-0.000000
0.040000,-0.080000,1.920026,0.080000,-8825619073.730677,-2331971.093919,-487418.515057,8261.081916,-0.000028,0.000007,0.000000
0.120000,-0.080000,1.920000,0.080000,-8825622005.376856,-2315482.618802,-503891.165859,24906.637965,-0.000028,0.000006,0.000000
0.200000,-0.080000,1.920024,0.080000,-8825628173.919409,-2282258.159868,-537084.391856,41918.521311,-0.000027,0.000006,0.000001
0.280000,-0.080000,1.920029,0.080000,-8825637792.145760,-2231809.527564,-587487.239055,59529.395453,-0.000026,0.000005,0.000001
0.360000,-0.080000,1.920000,0.080000,-8825651183.147915,-2163421.723932,-655816.089353,77953.572210,-0.000025,0.000004,0.000001
0.440000,-0.080000,1.920022,0.080000,-8825668784.891459,-2076175.301533,-742992.379877,97377.653123,-0.000023,0.000002,0.000002
0.520000,-0.080000,1.920032,0.080000,-8825691156.089449,-1968978.889672,-850110.225951,117949.209890,-0.000021,-0.000000,0.000002
0.600000,-0.080000,1.900008,0.080000,-8825718983.172775,-1840614.075513,-978391.680000,139763.048696,-0.000019,-0.000002,0.000003
0.680000,-0.080000,1.820008,0.080000,-8825753088.068441,-1689795.313578,-1129127.002718,162844.725617,-0.000016,-0.000005,0.000003
0.760000,-0.080000,1.740008,0.080000,-8825794436.401545,-1515247.758813,-1303597.008061,187131.190009,-0.000013,-0.000009,0.000004
0.840000,-0.080000,1.660009,0.080000,-8825844145.621904,-1315805.944280,-1502974.523410,212448.736587,-0.000009,-0.000012,0.000004
0.920000,-0.080000,1.580009,0.080000,-8825903492.422598,-1090535.904777,-1728202.385427,238488.892464,-0.000005,-0.000017,0.000004
1.000000,-0.080000,1.500010,0.080000,-8825973918.668560,-838882.434290,-1979846.188727,264783.476372,0.000000,-0.000021,0.000005
1.080000,-0.080000,1.420010,0.080000,-8826057034.892412,-560841.661740,-2257921.603874,290680.835976,0.000005,-0.000027,0.000005
1.160000,-0.080000,1.340011,0.080000,-8826154620.254255,-257156.645866,-2561698.441919,315326.188332,0.000011,-0.000032,0.000006
1.240000,-0.080000,1.260011,0.080000,-8826268617.715126,70469.655666,-2889487.117336,337649.987323,0.000017,-0.000039,0.000006
1.320000,-0.080000,1.180012,0.080000,-8826401123.064913,419154.200880,-3238417.570512,356369.192356,0.000024,-0.000045,0.000007
1.400000,-0.080000,1.100013,0.080000,-8826554366.400862,784621.961011,-3604226.127460,370006.999098,0.000031,-0.000052,0.000007
1.480000,-0.080000,1.020014,0.080000,-8826730684.707985,1161023.715709,-3981071.711028,376936.718017,0.000038,-0.000059,0.000007
1.560000,-0.080000,0.940015,0.080000,-8826932484.384483,1540810.665337,-4361408.628683,375454.712756,0.000045,-0.000066,0.000007
1.640000,-0.080000,0.860017,0.080000,-8827162192.921207,1914697.473757,-4735947.626458,363885.273681,0.000052,-0.000073,0.000007
1.720000,-0.080000,0.780019,0.080000,-8827422199.509441,2271746.958241,-5093738.798327,340716.740811,0.000059,-0.000080,0.000006
1.800000,-0.080000,0.700021,0.080000,-8827714785.130457,2599607.073907,-5422407.221878,304763.095356,0.000065,-0.000086,0.000006
1.880000,-0.080000,0.620023,0.080000,-8828042043.650560,2884922.132001,-5708563.753154,255338.991174,0.000070,-0.000092,0.000005
1.960000,-0.080000,0.540027,0.080000,-8828405796.556175,3115391.757906,-5943483.067815,191492.791561,0.000075,-0.000096,0.000004
2.040000,-0.080000,0.460031,0.080000,-8828807505.112032,3274291.072552,-6099527.561445,117555.140955,0.000078,-0.000099,0.000002
2.120000,-0.080000,0.380038,0.080000,-8829248184.775488,3352614.285664,-6176247.832472,30645.593448,0.000079,-0.000100,0.000001
-2.120000,0.000000,0.380293,0.080000,-8829269220.698439,3307061.272003,-6130572.909273,0.209875,0.000078,-0.000100,0.000000
-2.040000,0.000000,0.460242,0.080000,-8828827905.634520,3233630.164671,-6058756.859982,-0.090686,0.000077,-0.000098,-0.000000
-1.960000,0.000000,0.540206,0.080000,-8828425302.237837,3080682.289207,-5908608.968506,-0.361426,0.000074,-0.000095,-0.000000
-1.880000,0.000000,0.620180,0.080000,-8828060432.949032,2856835.036676,-5680470.491647,-0.613321,0.000070,-0.000091,-0.000000
-1.800000,0.000000,0.700159,0.080000,-8827731878.383625,2578279.495721,-5401094.683941,-0.830132,0.000065,-0.000086,-0.000000
-1.720000,0.000000,0.780143,0.080000,-8827437860.184132,2256999.236193,-5079022.691694,-1.013169,0.000058,-0.000080,-0.000000
-1.640000,0.000000,0.860130,0.080000,-8827176326.490610,1906056.731271,-4727349.990044,-1.161613,0.000052,-0.000073,-0.000000
-1.560000,0.000000,0.940118,0.080000,-8826945035.332108,1537597.662085,-4358245.293845,-1.275835,0.000045,-0.000066,-0.000000
-1.480000,0.000000,1.020109,0.080000,-8826741632.209982,1162437.418876,-3982537.325413,-1.357016,0.000038,-0.000059,-0.000000
-1.400000,0.000000,1.100101,0.080000,-8826563719.225674,789814.215279,-3609469.051814,-1.407599,0.000031,-0.000052,-0.000000
-1.320000,0.000000,1.180094,0.080000,-8826408914.165981,427290.027206,-3246600.293105,-1.430452,0.000024,-0.000045,-0.000000
-1.240000,0.000000,1.260088,0.080000,-8826274898.902752,80771.662538,-2899830.600733,-1.428415,0.000017,-0.000039,-0.000000
-1.160000,0.000000,1.340083,0.080000,-8826159457.230452,-245379.191581,-2573511.086087,-1.404564,0.000011,-0.000033,-0.000000
-1.080000,0.000000,1.420078,0.080000,-8826060502.835804,-548177.095261,-2270614.828126,-1.361967,0.000006,-0.000027,-0.000000
-1.000000,0.000000,1.500074,0.080000,-8825976098.471029,-825811.601407,-1992939.342088,-1.303429,0.000000,-0.000022,-0.000000
-0.920000,0.000000,1.580070,0.080000,-8825904467.610966,-1077434.906690,-1741319.860685,-1.231689,-0.000004,-0.000017,-0.000000
-0.840000,0.000000,1.660067,0.080000,-8825843999.948217,-1302954.084364,-1515837.687413,-1.149116,-0.000009,-0.000013,-0.000000
-0.760000,0.000000,1.740064,0.080000,-8825793252.051912,-1502838.488079,-1316013.149709,-1.057749,-0.000012,-0.000009,-0.000000
-0.680000,0.000000,1.820061,0.080000,-8825750944.420832,-1677948.473794,-1140977.017004,-0.959387,-0.000016,-0.000006,-0.000000
-0.600000,0.000000,1.900059,0.080000,-8825715956.025894,-1829388.202070,-989617.717800,-0.855457,-0.000019,-0.000003,-0.000000
-0.520000,0.000000,1.980056,0.080000,-8825687317.284115,-1958382.782342,-860704.114580,-0.747626,-0.000021,-0.000000,-0.000000
-0.440000,0.000000,2.000021,0.080000,-8825664202.250946,-2066178.375824,-752985.238531,-0.636704,-0.000023,0.000002,-0.000000
-0.360000,0.000000,2.000000,0.080000,-8825645920.670649,-2153962.974597,-665269.374273,-0.523410,-0.000025,0.000003,-0.000000
-0.280000,0.000000,2.000028,0.080000,-8825631910.393209,-2222805.078089,-596485.206971,-0.408680,-0.000026,0.000005,-0.000000
-0.200000,0.000000,2.000023,0.080000,-8825621730.550898,-2273607.510935,-545727.854191,-0.292564,-0.000027,0.000006,-0.000000
-0.120000,0.000000,2.000000,0.080000,-8825615055.791044,-2307073.806502,-512292.349146,-0.175629,-0.000028,0.000006,-0.000000
-0.040000,0.000000,2.000025,0.080000,-8825611671.780745,-2323684.994595,-495696.772232,-0.058521,-0.000028,0.000007,-0.000000
0.040000,0.000000,2.000025,0.080000,-8825611472.133013,-2323685.073150,-495696.692751,0.058741,-0.000028,0.000007,0.000000
0.120000,0.000000,2.000000,0.080000,-8825614456.847317,-2307074.046369,-512292.110652,0.175795,-0.000028,0.000006,0.000000
0.200000,0.000000,2.000023,0.080000,-8825620732.309666,-2273607.915861,-545727.448660,0.292449,-0.000027,0.000006,0.000000
0.280000,0.000000,2.000028,0.080000,-8825630512.851849,-2222805.660381,-596484.626936,0.408434,-0.000026,0.000005,0.000000
0.360000,0.000000,2.000000,0.080000,-8825644123.825451,-2153963.746744,-665268.603954,0.523364,-0.000025,0.000003,0.000000
0.440000,0.000000,2.000021,0.080000,-8825662006.096964,-2066179.356145,-752984.259873,0.636801,-0.000023,0.000002,0.000000
0.520000,0.000000,1.980056,0.080000,-8825684721.815079,-1958383.992023,-860702.905405,0.747834,-0.000021,-0.000000,0.000000
0.600000,0.000000,1.900059,0.080000,-8825712961.234018,-1829389.669927,-989616.255385,0.855537,-0.000019,-0.000003,0.000000
0.680000,0.000000,1.820061,0.080000,-8825747550.296770,-1677950.225699,-1140975.266510,0.959177,-0.000016,-0.000006,0.000000
0.760000,0.000000,1.740064,0.080000,-8825789458.584425,-1502840.558385,-1316011.080170,1.057505,-0.000012,-0.000009,0.000000
0.840000,0.000000,1.660067,0.080000,-8825839807.124014,-1302956.511511,-1515835.265728,1.148852,-0.000009,-0.000013,0.000000
0.920000,0.000000,1.580070,0.080000,-8825899875.414543,-1077437.727380,-1741317.043251,1.231565,-0.000004,-0.000017,0.000000
1.000000,0.000000,1.500074,0.080000,-8825971106.884314,-825814.857707,-1992936.088300,1.303386,0.000000,-0.000022,0.000000
1.080000,0.000000,1.420078,0.080000,-8826055111.837955,-548180.827706,-2270611.095634,1.362021,0.000006,-0.000027,0.000000
1.160000,0.000000,1.340083,0.080000,-8826153666.797520,-245383.445663,-2573506.837049,1.404933,0.000011,-0.000033,0.000000
1.240000,0.000000,1.260088,0.080000,-8826268709.007538,80766.849351,-2899825.791306,1.428916,0.000017,-0.000039,0.000000
1.320000,0.000000,1.180094,0.080000,-8826402324.777678,427284.618867,-3246594.885771,1.430606,0.000024,-0.000045,0.000000
1.400000,0.000000,1.100101,0.080000,-8826556730.309652,789808.181274,-3609463.016457,1.407331,0.000031,-0.000052,0.000000
1.480000,0.000000,1.020109,0.080000,-8826734243.727602,1162430.736177,-3982530.640319,1.356809,0.000038,-0.000059,0.000000
1.560000,0.000000,0.940118,0.080000,-8826937247.240553,1537590.315943,-4358237.949284,1.275895,0.000045,-0.000066,0.000000
1.640000,0.000000,0.860130,0.080000,-8827168138.742907,1906048.726691,-4727341.984397,1.161687,0.000052,-0.000073,0.000000
1.720000,0.000000,0.780143,0.080000,-8827429272.729050,2256990.590753,-5079014.043547,1.013275,0.000058,-0.000080,0.000000
1.800000,0.000000,0.700159,0.080000,-8827722891.165838,2578270.244433,-5401085.428966,0.830322,0.000065,-0.000086,0.000000
1.880000,0.000000,0.620180,0.080000,-8828051045.909355,2856825.235592,-5680460.684869,0.613148,0.000070,-0.000091,0.000000
1.960000,0.000000,0.540206,0.080000,-8828415515.313553,3080672.010126,-5908598.676018,0.361101,0.000074,-0.000095,0.000000
2.040000,0.000000,0.460242,0.080000,-8828817718.759911,3233619.508226,-6058746.195003,0.090486,0.000077,-0.000098,0.000000
2.120000,0.000000,0.380293,0.080000,-8829258633.805363,3307050.351078,-6130561.981040,-0.209967,0.000078,-0.000100,-0.000000
-2.120000,0.080000,0.380038,0.080000,-8829258452.202927,3352624.651640,-6176258.206089,30646.200228,0.000079,-0.000100,0.000001
-2.040000,0.080000,0.460031,0.080000,-8828817372.522589,3274301.206810,-6099537.702585,117555.264425,0.000078,-0.000099,0.000002
-1.960000,0.080000,0.540027,0.080000,-8828415264.014631,3115401.556250,-5943492.879341,191492.472362,0.000075,-0.000096,0.000004
-1.880000,0.080000,0.620023,0.080000,-8828051111.219595,2884931.505215,-5708573.129371,255338.251966,0.000070,-0.000092,0.000005
-1.800000,0.080000,0.700021,0.080000,-8827723452.870010,2599615.952698,-5422416.103993,304761.985813,0.000065,-0.000086,0.000006
-1.720000,0.080000,0.780019,0.080000,-8827430467.476345,2271755.292295,-5093747.131570,340715.309753,0.000059,-0.000080,0.000006
-1.640000,0.080000,0.860017,0.080000,-8827170061.168745,1914705.225429,-4735955.378971,363883.572648,0.000052,-0.000073,0.000007
-1.560000,0.080000,0.940015,0.080000,-8826939952.962276,1540817.817525,-4361415.780199,375452.794159,0.000045,-0.000066,0.000007
-1.480000,0.080000,1.020014,0.080000,-8826737753.661785,1161030.262768,-3981078.259281,376934.633211,0.000038,-0.000059,0.000007
-1.400000,0.080000,1.100013,0.080000,-8826561035.772606,784627.913652,-3604232.078236,370004.797198,0.000031,-0.000052,0.000007
-1.320000,0.080000,1.180012,0.080000,-8826407392.892683,419159.575301,-3238422.943345,356366.919648,0.000024,-0.000045,0.000007
-1.240000,0.080000,1.260011,0.080000,-8826274488.033337,70474.478190,-2889491.937002,337647.687521,0.000017,-0.000039,0.000006
-1.160000,0.080000,1.340011,0.080000,-8826160091.093773,-257152.344175,-2561702.740350,315323.900892,0.000011,-0.000032,0.000006
-1.080000,0.080000,1.420010,0.080000,-8826062106.280769,-560837.846017,-2257925.417277,290678.595243,0.000005,-0.000027,0.000005
-1.000000,0.080000,1.500010,0.080000,-8825978590.630178,-838879.068639,-1979849.554766,264781.312692,0.000000,-0.000021,0.000005
-0.920000,0.080000,1.580009,0.080000,-8825907764.979073,-1090532.948876,-1728205.337947,238486.832666,-0.000005,-0.000017,0.000004
-0.840000,0.080000,1.660009,0.080000,-8825848018.792133,-1315803.363311,-1502977.102440,212446.804008,-0.000009,-0.000012,0.000004
-0.760000,0.080000,1.740008,0.080000,-8825797910.202072,-1515245.515550,-1303599.249262,187129.403951,-0.000013,-0.000009,0.000004
-0.680000,0.080000,1.820008,0.080000,-8825756162.513626,-1689793.375827,-1129128.939559,162843.102494,-0.000016,-0.000005,0.000003
-0.600000,0.080000,1.900008,0.080000,-8825721658.275043,-1840612.412022,-978393.341153,139761.603043,-0.000019,-0.000002,0.000003
-0.520000,0.080000,1.920032,0.080000,-8825693431.859455,-1968977.472620,-850111.639722,117947.953319,-0.000021,-0.000000,0.000002
-0.440000,0.080000,1.920022,0.080000,-8825670661.338249,-2076174.108787,-742993.573041,97376.595020,-0.000023,0.000002,0.000002
-0.360000,0.080000,1.920000,0.080000,-8825652660.279167,-2163420.732230,-655817.079025,77952.721300,-0.000025,0.000004,0.000001
-0.280000,0.080000,1.920029,0.080000,-8825638869.967806,-2231808.721455,-587488.043697,59528.759052,-0.000026,0.000005,0.000001
-0.200000,0.080000,1.920024,0.080000,-8825628852.437412,-2282257.525942,-537085.024754,41918.105315,-0.000027,0.000006,0.000001
-0.120000,0.080000,1.920000,0.080000,-8825622284.594872,-2315482.148100,-503891.636100,24906.447746,-0.000028,0.000006,0.000000
-0.040000,0.080000,1.920026,0.080000,-8825618953.651728,-2331970.780207,-487418.827018,8261.122340,-0.000028,0.000007,0.000000
0.040000,0.080000,1.920026,0.080000,-8825618754.004238,-2331970.858473,-487418.749545,-8260.964612,-0.000028,0.000007,-0.000000
0.120000,0.080000,1.920000,0.080000,-8825621685.651922,-2315482.383448,-503891.399479,-24906.285940,-0.000028,0.000006,-0.000000
0.200000,0.080000,1.920024,0.080000,-8825627854.197477,-2282257.925486,-537084.624067,-41917.935463,-0.000027,0.000006,-0.000001
0.280000,0.080000,1.920029,0.080000,-8825637472.428305,-2231809.296379,-587487.470511,-59528.577282,-0.000026,0.000005,-0.000001
0.360000,0.080000,1.920000,0.080000,-8825650863.436434,-2163421.495074,-655816.317756,-77952.523765,-0.000025,0.000004,-0.000001
0.440000,0.080000,1.920022,0.080000,-8825668465.187401,-2076175.077160,-742992.605233,-97376.377389,-0.000023,0.000002,-0.000002
0.520000,0.080000,1.920032,0.080000,-8825690836.394272,-1968978.669511,-850110.444804,-117947.711438,-0.000021,-0.000000,-0.000002
0.600000,0.080000,1.900008,0.080000,-8825718663.487875,-1840613.861797,-978391.891457,-139761.333643,-0.000019,-0.000002,-0.000003
0.680000,0.080000,1.820008,0.080000,-8825752768.395168,-1689795.109358,-1129127.205236,-162842.801708,-0.000016,-0.000005,-0.000003
0.760000,0.080000,1.740008,0.080000,-8825794116.741192,-1515247.567734,-1303597.198833,-187129.067741,-0.000013,-0.000009,-0.000004
0.840000,0.080000,1.660009,0.080000,-8825843825.975687,-1315805.770178,-1502974.699512,-212446.429744,-0.000009,-0.000012,-0.000004
0.920000,0.080000,1.580009,0.080000,-8825903172.791656,-1090535.749508,-1728202.541260,-238486.418492,-0.000005,-0.000017,-0.000004
1.000000,0.080000,1.500010,0.080000,-8825973599.053869,-838882.303925,-1979846.321719,-264780.856454,0.000000,-0.000021,-0.000005
1.080000,0.080000,1.420010,0.080000,-8826056715.294832,-560841.559726,-2257921.707570,-290678.096132,0.000005,-0.000027,-0.000005
1.160000,0.080000,1.340011,0.080000,-8826154300.674442,-257156.577842,-2561698.510935,-315323.360059,0.000011,-0.000032,-0.000006
1.240000,0.080000,1.260011,0.080000,-8826268298.153513,70469.683484,-2889487.145625,-337647.108128,0.000017,-0.000039,-0.000006
1.320000,0.080000,1.180012,0.080000,-8826400803.521690,419154.183539,-3238417.550253,-356366.306281,0.000024,-0.000045,-0.000007
1.400000,0.080000,1.100013,0.080000,-8826554046.875883,784621.890318,-3604226.055039,-370004.156074,0.000031,-0.000052,-0.000007
1.480000,0.080000,1.020014,0.080000,-8826730365.200762,1161023.583535,-3981071.583116,-376933.973568,0.000038,-0.000059,-0.000007
1.560000,0.080000,0.940015,0.080000,-8826932164.894236,1540810.471628,-4361408.434413,-375452.128487,0.000045,-0.000066,-0.000007
1.640000,0.080000,0.860017,0.080000,-8827161873.446669,1914697.213019,-4735947.364164,-363882.916200,0.000052,-0.000073,-0.000007
1.720000,0.080000,0.780019,0.080000,-8827421880.048931,2271746.628062,-5093738.467039,-340714.679407,0.000059,-0.000080,-0.000006
1.800000,0.080000,0.700021,0.080000,-8827714465.681854,2599606.674019,-5422406.820923,-304761.400512,0.000065,-0.000086,-0.000006
1.880000,0.080000,0.620023,0.080000,-8828041724.211317,2884921.666426,-5708563.283905,-255337.732484,0.000070,-0.000092,-0.000005
1.960000,0.080000,0.540027,0.080000,-8828405477.123257,3115391.228189,-5943482.538936,-191492.040819,0.000075,-0.000096,-0.000004
2.040000,0.080000,0.460031,0.080000,-8828807185.682106,3274290.492098,-6099526.980150,-117554.936902,0.000078,-0.000099,-0.000002
2.120000,0.080000,0.380038,0.080000,-8829247865.344835,3352613.665484,-6176247.211229,-30645.997293,0.000079,-0.000100,-0.000001
-2.120000,0.160000,0.380023,0.080000,-8829226173.958715,3490838.627864,-6314848.127789,69840.094230,0.000082,-0.000103,0.000001
-2.040000,0.160000,0.460019,0.080000,-8828785831.932676,3397397.108368,-6222969.697327,246279.458040,0.000080,-0.000101,0.000005
-1.960000,0.160000,0.540016,0.080000,-8828385246.482965,3220181.104229,-6048775.113873,395802.185826,0.000077,-0.000098,0.000007
-1.880000,0.160000,0.620014,0.080000,-8828023285.521723,2969403.572855,-5793060.150529,524299.602848,0.000072,-0.000093,0.000010
-1.800000,0.160000,0.700012,0.080000,-8827698359.361839,2663432.719344,-5486183.007709,623108.397935,0.000066,-0.000087,0.000012
-1.720000,0.160000,0.780011,0.080000,-8827408514.723272,2315536.201092,-5137428.007969,694300.953733,0.000060,-0.000081,0.000013
-1.640000,0.160000,0.860010,0.080000,-8827151529.823616,1939957.454067,-4761073.293608,739421.962492,0.000052,-0.000074,0.000014
-1.560000,0.160000,0.940009,0.080000,-8826925005.316597,1549664.896285,-4370109.481583,761021.619105,0.000045,-0.000066,0.000014
-1.480000,0.160000,1.020009,0.080000,-8826726447.144951,1155950.658185,-3975839.441509,762286.832316,0.000038,-0.000059,0.000014
-1.400000,0.160000,1.100008,0.080000,-8826553338.734331,768226.697067,-3587676.312378,746706.072829,0.000030,-0.000052,0.000014
-1.320000,0.160000,1.180007,0.080000,-8826403201.211561,393986.015184,-3213107.067336,717791.557078,0.000023,-0.000045,0.000014
-1.240000,0.160000,1.260007,0.080000,-8826273641.385723,38889.563645,-2857781.745205,678869.081472,0.000017,-0.000038,0.000013
-1.160000,0.160000,1.340007,0.080000,-8826162388.034178,-293061.031117,-2525688.251766,632935.276513,0.000010,-0.000032,0.000012
-1.080000,0.160000,1.420006,0.080000,-8826067317.586533,-599300.587813,-2219376.929490,582574.975073,0.000005,-0.000026,0.000011
-1.000000,0.160000,1.500006,0.080000,-8825986470.622950,-878456.383312,-1940205.797014,529927.594225,-0.000001,-0.000021,0.000010
-0.920000,0.160000,1.580006,0.080000,-8825918060.740910,-1130104.724847,-1688584.803066,476690.246215,-0.000005,-0.000016,0.000009
-0.840000,0.160000,1.660005,0.080000,-8825860477.342899,-1354542.811133,-1464204.479710,424145.916618,-0.000010,-0.000012,0.000008
-0.760000,0.160000,1.740005,0.080000,-8825812283.802469,-1552584.617270,-1266240.276341,373206.714970,-0.000013,-0.000008,0.000007
-0.680000,0.160000,1.820005,0.080000,-8825772212.313374,-1725384.937331,-1093528.548472,324464.312707,-0.000017,-0.000005,0.000006
-0.600000,0.160000,1.840000,0.080000,-8825739156.547562,-1874292.363317,-944713.501189,278241.806054,-0.000019,-0.000002,0.000005
-0.520000,0.160000,1.840033,0.080000,-8825712163.063738,-2000729.732290,-818366.566264,234643.143161,-0.000022,0.000001,0.000004
-0.440000,0.160000,1.840023,0.080000,-8825690422.232349,-2106099.310487,-713081.018994,193597.824132,-0.000024,0.000002,0.000004
-0.360000,0.160000,1.840000,0.080000,-8825673259.285015,-2191709.354582,-627545.217429,154899.776532,-0.000025,0.000004,0.000003
-0.280000,0.160000,1.840030,0.080000,-8825660125.959707,-2258718.563930,-560597.953606,118240.175727,-0.000027,0.000005,0.000002
-0.200000,0.160000,1.840025,0.080000,-8825650593.098213,-2308095.156722,-511269.210554,83234.573750,-0.000028,0.000006,0.000002
-0.120000,0.160000,1.840000,0.080000,-8825644344.458834,-2340587.690431,-478809.203057,49445.076293,-0.000028,0.000007,0.000001
-0.040000,0.160000,1.840028,0.080000,-8825641171.931850,-2356705.268993,-462708.069300,16398.526775,-0.000028,0.000007,0.000000
0.040000,0.160000,1.840028,0.080000,-8825640972.285112,-2356705.344250,-462707.994764,-16398.215566,-0.000028,0.000007,-0.000000
0.120000,0.160000,1.840000,0.080000,-8825643745.518148,-2340587.917588,-478808.976101,-49444.756777,-0.000028,0.000007,-0.000001
0.200000,0.160000,1.840025,0.080000,-8825649594.862114,-2308095.542734,-511268.826064,-83234.237992,-0.000028,0.000006,-0.000002
0.280000,0.160000,1.840030,0.080000,-8825658728.425735,-2258719.117490,-560597.400774,-118239.816192,-0.000027,0.000005,-0.000002
0.360000,0.160000,1.840000,0.080000,-8825671462.449621,-2191710.089738,-627544.482465,-154899.385384,-0.000025,0.000004,-0.000003
0.440000,0.160000,1.840023,0.080000,-8825688226.090803,-2106100.246822,-713080.085366,-193597.392853,-0.000024,0.000002,-0.000004
0.520000,0.160000,1.840033,0.080000,-8825709567.610064,-2000730.890212,-818365.409780,-234642.663855,-0.000022,0.000001,-0.000004
0.600000,0.160000,1.840000,0.080000,-8825736161.774330,-1874293.769650,-944712.096580,-278241.271117,-0.000019,-0.000002,-0.000005
0.680000,0.160000,1.820005,0.080000,-8825768818.211575,-1725386.622138,-1093526.865682,-324463.714111,-0.000017,-0.000005,-0.000006
0.760000,0.160000,1.740005,0.080000,-8825808490.361313,-1552586.613985,-1266238.280978,-373206.045360,-0.000013,-0.000008,-0.000007
0.840000,0.160000,1.660005,0.080000,-8825856284.549583,-1354545.157662,-1464202.135127,-424145.170551,-0.000010,-0.000012,-0.000008
0.920000,0.160000,1.580006,0.080000,-8825913468.580399,-1130107.462112,-1688582.068454,-476689.418927,-0.000005,-0.000016,-0.000009
1.000000,0.160000,1.500006,0.080000,-8825981479.077721,-878459.553691,-1940202.628264,-529926.681821,-0.000001,-0.000021,-0.000010
1.080000,0.160000,1.420006,0.080000,-8826061926.636251,-599304.237775,-2219373.284772,-582573.976221,0.000005,-0.000026,-0.000011
1.160000,0.160000,1.340007,0.080000,-8826156597.655518,-293065.201852,-2525684.082945,-632934.193111,0.000010,-0.000032,-0.000012
1.240000,0.160000,1.260007,0.080000,-8826267451.551947,38884.825662,-2857777.009907,-678867.918493,0.000017,-0.000038,-0.000013
1.320000,0.160000,1.180007,0.080000,-8826396611.892345,393980.670020,-3213101.723391,-717790.322933,0.000023,-0.000045,-0.000014
1.400000,0.160000,1.100008,0.080000,-8826546349.895435,768220.708017,-3587670.326247,-746704.780751,0.000030,-0.000052,-0.000014
1.480000,0.160000,1.020009,0.080000,-8826719058.748062,1155943.999731,-3975832.783572,-762285.501211,0.000038,-0.000059,-0.000014
1.560000,0.160000,0.940009,0.080000,-8826917217.319080,1549657.549969,-4370102.134749,-761020.273533,0.000045,-0.000066,-0.000014
1.640000,0.160000,0.860010,0.080000,-8827143342.178459,1939949.416914,-4761065.253767,-739420.632109,0.000052,-0.000074,-0.000014
1.720000,0.160000,0.780011,0.080000,-8827399927.379013,2315527.484388,-5137419.290874,-694299.673483,0.000060,-0.000081,-0.000013
1.800000,0.160000,0.700012,0.080000,-8827689372.262724,2663423.356798,-5486173.642901,-623107.207049,0.000066,-0.000087,-0.000012
1.880000,0.160000,0.620014,0.080000,-8828013898.607864,2969393.619619,-5793050.190831,-524298.542968,0.000072,-0.000093,-0.000010
1.960000,0.160000,0.540016,0.080000,-8828375459.690662,3220170.631620,-6048764.625823,-395801.302418,0.000077,-0.000098,-0.000007
2.040000,0.160000,0.460019,0.080000,-8828775645.194965,3397386.219665,-6222958.798993,-246278.784882,0.000080,-0.000101,-0.000005
2.120000,0.160000,0.380023,0.080000,-8829215587.205973,3490827.441714,-6314836.933484,-69839.673753,0.000082,-0.000103,-0.000001
-2.120000,0.240000,0.380248,0.080000,-8829171499.638605,3726345.248890,-6551016.404211,126975.913781,0.000086,-0.000107,0.000002
-2.040000,0.240000,0.460205,0.080000,-8828732494.902805,3606184.230599,-6432339.679804,398277.631403,0.000084,-0.000105,0.000008
-1.960000,0.240000,0.540175,0.080000,-8828334578.825264,3396857.914841,-6226319.278264,626669.637182,0.000080,-0.000101,0.000012
-1.880000,0.240000,0.620152,0.080000,-8827976414.884146,3110735.982756,-5934404.808736,821336.142191,0.000075,-0.000096,0.000015
-1.800000,0.240000,0.700135,0.080000,-8827656189.903219,2769067.948514,-5591718.506249,969302.124458,0.000068,-0.000089,0.000018
-1.720000,0.240000,0.780121,0.080000,-8827371722.837574,2386788.716585,-5208495.856900,1074127.216494,0.000061,-0.000082,0.000020
-1.640000,0.240000,0.860110,0.080000,-8827120572.392258,1979645.728520,-4800520.599558,1138588.333755,0.000053,-0.000075,0.000021
-1.560000,0.240000,0.940100,0.080000,-8826900137.575924,1561622.041578,-4381796.198586,1166975.049150,0.000045,-0.000067,0.000022
-1.480000,0.240000,1.020092,0.080000,-8826707747.056885,1144563.025171,-3964174.756065,1164488.593630,0.000038,-0.000059,0.000022
-1.400000,0.240000,1.100086,0.080000,-8826540734.921076,738039.264602,-3557222.920533,1136709.658249,0.000030,-0.000051,0.000021
-1.320000,0.240000,1.180080,0.080000,-8826396501.935661,349394.310303,-3168272.900501,1089169.076180,0.000023,-0.000044,0.000021
-1.240000,0.240000,1.260075,0.080000,-8826272562.605164,-16077.888286,-2802602.864275,1027033.196233,0.000016,-0.000037,0.000019
-1.160000,0.240000,1.340070,0.080000,-8826166579.137646,-354876.849687,-2463695.522847,954899.192027,0.000009,-0.000030,0.000018
-1.080000,0.240000,1.420066,0.080000,-8826076383.945665,-665002.844565,-2153532.672476,876685.220487,0.000003,-0.000025,0.000017
-1.000000,0.240000,1.500063,0.080000,-8825999992.544502,-945659.211744,-1872894.088396,795595.496592,-0.000002,-0.000019,0.000015
-0.920000,0.240000,1.580060,0.080000,-8825935608.744925,-1196971.203559,-1621639.435099,714139.614059,-0.000007,-0.000015,0.000013
-0.840000,0.240000,1.660057,0.080000,-8825881623.936108,-1419734.104724,-1398960.462687,634187.331332,-0.000011,-0.000010,0.000012
-0.760000,0.240000,1.740054,0.080000,-8825836612.068190,-1615196.710612,-1203597.587371,557043.301076,-0.000014,-0.000007,0.000010
-0.680000,0.240000,1.760021,0.080000,-8825799321.719843,-1784881.409182,-1034019.702808,483529.902522,-0.000018,-0.000004,0.000009
-0.600000,0.240000,1.760000,0.080000,-8825768666.403172,-1930438.986623,-888569.145871,414069.824594,-0.000020,-0.000001,0.000008
-0.520000,0.240000,1.760034,0.080000,-8825743714.036270,-2053534.511782,-765575.549523,348763.043327,-0.000023,0.000002,0.000007
-0.440000,0.240000,1.760024,0.080000,-8825723676.315384,-2155759.826973,-663443.084173,287455.211890,-0.000025,0.000003,0.000005
-0.360000,0.240000,1.760000,0.080000,-8825707898.548386,-2238568.025344,-580715.720446,229796.236244,-0.000026,0.000005,0.000004
-0.280000,0.240000,1.760032,0.080000,-8825695850.370317,-2303225.574949,-516124.882108,175289.037656,-0.000027,0.000006,0.000003
-0.200000,0.240000,1.760026,0.080000,-8825687117.648762,-2350778.250352,-468623.330259,123329.310755,-0.000028,0.000007,0.000002
-0.120000,0.240000,1.760000,0.080000,-8825681395.798210,-2382027.658994,-437408.489003,73237.576284,-0.000029,0.000008,0.000001
-0.040000,0.240000,1.760029,0.080000,-8825678484.654577,-2397515.813713,-421937.755522,24285.096812,-0.000029,0.000008,0.000000
0.040000,0.240000,1.760029,0.080000,-8825678285.009069,-2397515.883890,-421937.685979,-24284.639847,-0.000029,0.000008,-0.000000
0.120000,0.240000,1.760000,0.080000,-8825680796.861242,-2382027.871401,-437408.277548,-73237.107035,-0.000029,0.000008,-0.000001
0.200000,0.240000,1.760026,0.080000,-8825686119.418983,-2350778.610320,-468622.969670,-123328.817358,-0.000028,0.000007,-0.000002
0.280000,0.240000,1.760032,0.080000,-8825694452.845404,-2303226.093425,-516124.363888,-175288.508650,-0.000027,0.000006,-0.000003
0.360000,0.240000,1.760000,0.080000,-8825706101.725019,-2238568.715278,-580715.030567,-229795.659414,-0.000026,0.000005,-0.000004
0.440000,0.240000,1.760024,0.080000,-8825721480.189123,-2155760.707951,-663442.205863,-287454.574801,-0.000025,0.000003,-0.000005
0.520000,0.240000,1.760034,0.080000,-8825741118.601498,-2053535.604113,-765574.457530,-348762.334109,-0.000023,0.000002,-0.000007
0.600000,0.240000,1.760000,0.080000,-8825765671.652864,-1930440.318315,-888567.815928,-414069.031322,-0.000020,-0.000001,-0.000008
0.680000,0.240000,1.760021,0.080000,-8825795927.645470,-1784883.010495,-1034018.104661,-483529.013307,-0.000018,-0.000004,-0.000009
0.760000,0.240000,1.740054,0.080000,-8825832818.659494,-1615198.616134,-1203595.685870,-557042.305024,-0.000014,-0.000007,-0.000010
0.840000,0.240000,1.660057,0.080000,-8825877431.180908,-1419736.351176,-1398958.217423,-634186.219058,-0.000011,-0.000010,-0.000012
0.920000,0.240000,1.580060,0.080000,-8825931016.628803,-1196973.834995,-1621636.806092,-714138.377418,-0.000007,-0.000015,-0.000013
1.000000,0.240000,1.500063,0.080000,-8825995001.050608,-945662.272899,-1872891.029305,-795594.129469,-0.000002,-0.000019,-0.000015
1.080000,0.240000,1.420066,0.080000,-8826070993.054394,-665006.382345,-2153529.134850,-876683.720576,0.000003,-0.000025,-0.000017
1.160000,0.240000,1.340070,0.080000,-8826160788.826298,-354880.915325,-2463691.460815,-954897.561042,0.000009,-0.000030,-0.000018
1.240000,0.240000,1.260075,0.080000,-8826266372.847738,-16082.527486,-2802598.225607,-1027031.440196,0.000016,-0.000037,-0.000019
1.320000,0.240000,1.180080,0.080000,-8826389912.702417,349389.048838,-3168267.640972,-1089167.207340,0.000023,-0.000044,-0.000021
1.400000,0.240000,1.100086,0.080000,-8826533746.178331,738033.340119,-3557216.998104,-1136707.696489,0.000030,-0.000051,-0.000021
1.480000,0.240000,1.020092,0.080000,-8826700358.766706,1144556.402755,-3964168.136505,-1164486.566973,0.000038,-0.000059,-0.000022
1.560000,0.240000,0.940100,0.080000,-8826892349.695927,1561614.696840,-4381788.856843,-1166972.993821,0.000045,-0.000067,-0.000022
1.640000,0.240000,0.860110,0.080000,-8827112384.875463,1979637.653126,-4800512.523074,-1138586.294564,0.000053,-0.000075,-0.000021
1.720000,0.240000,0.780121,0.080000,-8827363135.632273,2386779.915225,-5208487.055427,-1074125.247232,0.000061,-0.000082,-0.000020
1.800000,0.240000,0.700135,0.080000,-8827647202.953131,2769058.451527,-5591709.003429,-969300.285646,0.000068,-0.000089,-0.000018
1.880000,0.240000,0.620152,0.080000,-8827967028.128458,3110725.837846,-5934394.659158,-821334.498693,0.000075,-0.000096,-0.000015
1.960000,0.240000,0.540175,0.080000,-8828324792.199081,3396847.195305,-6226308.544182,-626668.260431,0.000080,-0.000101,-0.000012
2.040000,0.240000,0.460205,0.080000,-8828722308.337612,3606173.045230,-6432328.484218,-398276.575426,0.000084,-0.000105,-0.000008
2.120000,0.240000,0.380248,0.080000,-8829160913.062880,3726333.723065,-6551004.868744,-126975.245840,0.000086,-0.000107,-0.000002
-2.120000,0.320000,0.380057,0.080000,-8829092919.042376,4067123.965767,-6892799.048633,213249.639678,0.000093,-0.000114,0.000004
-2.040000,0.320000,0.460047,0.080000,-8828656023.356817,3906165.785041,-6733186.307506,587631.014403,0.000090,-0.000111,0.000011
-1.960000,0.320000,0.540040,0.080000,-8828262130.095503,3648392.715109,-6479131.599021,899767.500368,0.000085,-0.000106,0.000017
-1.880000,0.320000,0.620035,0.080000,-8827909594.353390,3309516.213298,-6133172.588481,1162617.235187,0.000078,-0.000100,0.000022
-1.800000,0.320000,0.700031,0.080000,-8827596269.421600,2915128.778280,-5737601.956622,1358994.534221,0.000071,-0.000092,0.000026
-1.720000,0.320000,0.780028,0.080000,-8827319637.877680,2482611.306896,-5304019.956145,1494571.390773,0.000063,-0.000084,0.000028
-1.640000,0.320000,0.860025,0.080000,-8827076937.668715,2029859.043529,-4850359.077902,1573981.347041,0.000054,-0.000075,0.000030
-1.560000,0.320000,0.940023,0.080000,-8826865276.402905,1572236.624969,-4392000.290634,1603864.319090,0.000046,-0.000067,0.000030
-1.480000,0.320000,1.020021,0.080000,-8826681729.571098,1122270.925234,-3941470.025236,1591973.646060,0.000037,-0.000058,0.000030
-1.400000,0.320000,1.100020,0.080000,-8826523420.708038,689633.989908,-3508427.952039,1546413.369030,0.000029,-0.000050,0.000029
-1.320000,0.320000,1.180018,0.080000,-8826387583.355291,281333.887471,-3099862.465778,1475046.604204,0.000021,-0.000042,0.000028
-1.240000,0.320000,1.260017,0.080000,-8826271606.019747,-97965.627263,-2720414.222736,1385082.285326,0.000014,-0.000035,0.000026
-1.160000,0.320000,1.340016,0.080000,-8826173062.150469,-445563.180206,-2372760.950665,1282824.542906,0.000008,-0.000029,0.000024
-1.080000,0.320000,1.420015,0.080000,-8826089727.560518,-760325.694149,-2058013.478533,1173556.272791,0.000002,-0.000023,0.000022
-1.000000,0.320000,1.500014,0.080000,-8826019587.804596,-1042315.821962,-1776089.399327,1061524.009305,-0.000004,-0.000018,0.000020
-0.920000,0.320000,1.580014,0.080000,-8825960837.889688,-1292460.581932,-1526044.946012,949992.450007,-0.000008,-0.000013,0.000018
-0.840000,0.320000,1.660013,0.080000,-8825911876.436901,-1512270.027800,-1306356.357079,841341.431538,-0.000013,-0.000009,0.000016
-0.760000,0.320000,1.680039,0.080000,-8825871296.094055,-1703607.354046,-1115149.573443,737183.945030,-0.000016,-0.000005,0.000014
-0.680000,0.320000,1.680022,0.080000,-8825837871.671761,-1868507.099318,-950381.696020,638489.621258,-0.000019,-0.000002,0.000012
-0.600000,0.320000,1.680000,0.080000,-8825810547.168659,-2009035.601003,-809980.107549,545703.283258,-0.000022,0.000001,0.000010
-0.520000,0.320000,1.680036,0.080000,-8825788422.580927,-2127186.893369,-691946.185482,458852.356469,-0.000024,0.000003,0.000009
-0.440000,0.320000,1.680025,0.080000,-8825770741.164936,-2224807.186299,-594430.456634,377640.084945,-0.000026,0.000005,0.000007
-0.360000,0.320000,1.680000,0.080000,-8825756877.638512,-2303541.648975,-515785.493474,301523.732304,-0.000027,0.000006,0.000006
-0.280000,0.320000,1.680033,0.080000,-8825746327.663225,-2364798.056293,-454602.005928,229778.427491,-0.000029,0.000007,0.000004
-0.200000,0.320000,1.680027,0.080000,-8825738698.841997,-2409722.788259,-409732.627074,161548.220167,-0.000029,0.000008,0.000003
-0.120000,0.320000,1.680000,0.080000,-8825733703.386660,-2439185.613035,-380306.986203,95886.415711,-0.000030,0.000009,0.000002
-0.040000,0.320000,1.680030,0.080000,-8825731152.554140,-2453770.503355,-365740.763089,31787.504939,-0.000030,0.000009,0.000001
0.040000,0.320000,1.680030,0.080000,-8825730952.910299,-2453770.567481,-365740.701433,-31786.914004,-0.000030,0.000009,-0.000001
0.120000,0.320000,1.680000,0.080000,-8825733104.454771,-2439185.804336,-380306.795444,-95885.808733,-0.000030,0.000009,-0.000002
0.200000,0.320000,1.680027,0.080000,-8825737700.620815,-2409723.114579,-409732.302272,-161547.581373,-0.000029,0.000008,-0.000003
0.280000,0.320000,1.680033,0.080000,-8825744930.150686,-2364798.525072,-454601.535515,-229777.741113,-0.000029,0.000007,-0.000004
0.360000,0.320000,1.680000,0.080000,-8825755080.831570,-2303542.276662,-515784.867514,-301522.981885,-0.000027,0.000006,-0.000006
0.440000,0.320000,1.680025,0.080000,-8825768545.059587,-2224807.989396,-594429.654949,-377639.254337,-0.000026,0.000005,-0.000007
0.520000,0.320000,1.680036,0.080000,-8825785827.172029,-2127187.893794,-691945.184673,-458851.429321,-0.000024,0.000003,-0.000009
0.600000,0.320000,1.680000,0.080000,-8825807552.449772,-2009036.827180,-809978.883519,-545702.243085,-0.000022,0.000001,-0.000010
0.680000,0.320000,1.680022,0.080000,-8825834477.635044,-1868508.580751,-950380.216325,-638488.452305,-0.000019,-0.000002,-0.000012
0.760000,0.320000,1.680039,0.080000,-8825867502.730009,-1703609.127102,-1115147.802227,-737182.632223,-0.000016,-0.000005,-0.000014
0.840000,0.320000,1.660013,0.080000,-8825907683.734159,-1512272.132934,-1306354.254289,-841339.961117,-0.000013,-0.000009,-0.000016
0.920000,0.320000,1.580014,0.080000,-8825956245.834766,-1292463.062840,-1526042.467787,-949990.810186,-0.000008,-0.000013,-0.000018
1.000000,0.320000,1.500014,0.080000,-8826014596.381590,-1042318.727603,-1776086.497777,-1061522.190804,-0.000004,-0.000018,-0.000020
1.080000,0.320000,1.420015,0.080000,-8826084336.750841,-760329.074186,-2058010.099242,-1173554.270695,0.000002,-0.000023,-0.000022
1.160000,0.320000,1.340016,0.080000,-8826167271.932432,-445567.091065,-2372757.042783,-1282822.357654,0.000008,-0.000029,-0.000024
1.240000,0.320000,1.260017,0.080000,-8826265416.368309,-97970.123394,-2720409.730031,-1385079.923524,0.000014,-0.000035,-0.000026
1.320000,0.320000,1.180018,0.080000,-8826380994.241655,281328.751541,-3099857.333612,-1475044.081162,0.000021,-0.000042,-0.000028
1.400000,0.320000,1.100020,0.080000,-8826516432.099325,689628.164207,-3508422.129541,-1546410.710079,0.000029,-0.000050,-0.000029
1.480000,0.320000,1.020021,0.080000,-8826674341.430012,1122264.365312,-3941463.467582,-1591970.887259,0.000037,-0.000058,-0.000030
1.560000,0.320000,0.940023,0.080000,-8826857488.687452,1572229.296004,-4391992.962288,-1603861.508628,0.000046,-0.000067,-0.000030
1.640000,0.320000,0.860025,0.080000,-8827068750.331972,2029850.923664,-4850350.958625,-1573978.545783,0.000054,-0.000075,-0.000030
1.720000,0.320000,0.780028,0.080000,-8827311050.867695,2482602.394728,-5304011.042084,-1494568.671819,0.000063,-0.000084,-0.000028
1.800000,0.320000,0.700031,0.080000,-8827587282.681320,2915119.091802,-5737592.268922,-1358991.981416,0.000071,-0.000092,-0.000026
1.880000,0.320000,0.620035,0.080000,-8827900207.820868,3309505.801249,-6133162.171259,-1162614.940103,0.000078,-0.000100,-0.000022
1.960000,0.320000,0.540040,0.080000,-8828252343.704109,3648381.647517,-6479120.513152,-899765.564462,0.000085,-0.000106,-0.000017
2.040000,0.320000,0.460047,0.080000,-8828645837.035788,3906154.174011,-6733174.686106,-587629.515966,0.000090,-0.000111,-0.000011
2.120000,0.320000,0.380057,0.080000,-8829082332.717493,4067111.948204,-6892787.021121,-213248.675959,0.000093,-0.000114,-0.000004
-2.120000,0.400000,0.380012,0.080000,-8828988247.000385,4524859.137383,-7351968.003530,342853.154593,0.000101,-0.000123,0.000006
-2.040000,0.400000,0.460010,0.080000,-8828554495.029709,4305144.789231,-7133364.879367,831657.726576,0.000097,-0.000118,0.000016
-1.960000,0.400000,0.540008,0.080000,-8828166290.562370,3978673.416211,-6811165.777821,1233883.553619,0.000091,-0.000112,0.000023
-1.880000,0.400000,0.620007,0.080000,-8827821551.507656,3566051.183822,-6389633.023367,1567029.102727,0.000083,-0.000104,0.000030
-1.800000,0.400000,0.700006,0.080000,-8827517664.988380,3099006.898189,-5921180.092579,1809983.358917,0.000074,-0.000096,0.000034
-1.720000,0.400000,0.780006,0.080000,-8827251649.982098,2598245.058414,-5419195.756138,1971518.381557,0.000065,-0.000086,0.000037
-1.640000,0.400000,0.860005,0.080000,-8827020308.674175,2084468.790023,-4904418.927742,2059086.320594,0.000055,-0.000076,0.000039
-1.560000,0.400000,0.940005,0.080000,-8826820358.726149,1574719.343709,-4393898.734789,2082584.055726,0.000046,-0.000067,0.000039
-1.480000,0.400000,1.020004,0.080000,-8826648542.276091,1082208.045316,-3900833.890351,2053086.345564,0.000036,-0.000058,0.000039
-1.400000,0.400000,1.100004,0.080000,-8826501710.551952,616504.124443,-3434768.090251,1981813.128607,0.000028,-0.000049,0.000037
-1.320000,0.400000,1.180004,0.080000,-8826376885.254498,183949.321744,-3002011.174184,1879370.160128,0.000019,-0.000041,0.000035
-1.240000,0.400000,1.260004,0.080000,-8826271299.324322,-211813.049874,-2606173.138741,1755254.621398,0.000012,-0.000033,0.000033
-1.160000,0.400000,1.340003,0.080000,-8826182420.448887,-569280.361781,-2248725.199221,1617588.408119,0.000005,-0.000026,0.000030
-1.080000,0.400000,1.420003,0.080000,-8826107960.859360,-888561.924025,-1929530.399662,1473028.929345,-0.000001,-0.000020,0.000028
-1.000000,0.400000,1.500003,0.080000,-8826045876.789417,-1170912.464137,-1647310.938127,1326805.956415,-0.000006,-0.000015,0.000025
-0.920000,0.400000,1.580003,0.080000,-8825994360.577112,-1418342.231592,-1400038.107338,1182838.753231,-0.000011,-0.000010,0.000022
-0.840000,0.400000,1.600001,0.080000,-8825951827.904259,-1633305.346095,-1185243.580349,1043896.648926,-0.000015,-0.000006,0.000020
-0.760000,0.400000,1.600041,0.080000,-8825916902.170599,-1818460.185172,-1000258.394607,911775.788259,-0.000018,-0.000003,0.000017
-0.680000,0.400000,1.600023,0.080000,-8825888397.539032,-1976491.815320,-842389.894324,787473.496468,-0.000021,0.000000,0.000015
-0.600000,0.400000,1.600000,0.080000,-8825865301.793236,-2109985.081167,-709047.957583,671348.838000,-0.000024,0.000003,0.000013
-0.520000,0.400000,1.600038,0.080000,-8825846759.822750,-2221337.454351,-597831.607939,563263.356711,-0.000026,0.000005,0.000011
-0.440000,0.400000,1.600026,0.080000,-8825832058.297386,-2312701.823006,-506585.736178,462699.811026,-0.000028,0.000006,0.000009
-0.360000,0.400000,1.600000,0.080000,-8825820611.899591,-2385951.038035,-433436.171176,368859.247827,-0.000029,0.000008,0.000007
-0.280000,0.400000,1.600035,0.080000,-8825811951.344084,-2442657.582540,-376809.708441,280738.298918,-0.000030,0.000009,0.000005
-0.200000,0.400000,1.600029,0.080000,-8825805713.316540,-2484083.220638,-335444.240861,197189.420434,-0.000031,0.000010,0.000004
-0.120000,0.400000,1.600000,0.080000,-8825801632.399038,-2511174.733143,-308392.857726,116967.174457,-0.000031,0.000010,0.000002
-0.040000,0.400000,1.600032,0.080000,-8825799535.010408,-2524562.930220,-295024.726342,38763.758467,-0.000032,0.000010,0.000001
0.040000,0.400000,1.600032,0.080000,-8825799335.368660,-2524562.984511,-295024.672486,-38763.049095,-0.000032,0.000010,-0.000001
0.120000,0.400000,1.600000,0.080000,-8825801033.473434,-2511174.899112,-308392.694734,-116966.445679,-0.000031,0.000010,-0.000002
0.200000,0.400000,1.600029,0.080000,-8825804715.106052,-2484083.501739,-335443.959792,-197188.652469,-0.000031,0.000010,-0.000004
0.280000,0.400000,1.600035,0.080000,-8825810553.846899,-2442657.989013,-376809.301337,-280737.471302,-0.000030,0.000009,-0.000005
0.360000,0.400000,1.600000,0.080000,-8825818815.113087,-2385951.584313,-433435.626128,-368858.340203,-0.000029,0.000008,-0.000007
0.440000,0.400000,1.600026,0.080000,-8825829862.218060,-2312702.527164,-506585.034478,-462698.803262,-0.000028,0.000006,-0.000009
0.520000,0.400000,1.600038,0.080000,-8825844164.446102,-2221338.337594,-597830.726187,-563262.228015,-0.000026,0.000005,-0.000011
0.600000,0.400000,1.600000,0.080000,-8825862307.113600,-2109986.170460,-709046.869826,-671347.567195,-0.000024,0.000003,-0.000013
0.680000,0.400000,1.600023,0.080000,-8825885003.549423,-1976493.142256,-842388.569125,-787472.063052,-0.000021,0.000000,-0.000015
0.760000,0.400000,1.600041,0.080000,-8825913108.862499,-1818461.787579,-1000256.795914,-911774.172395,-0.000018,-0.000003,-0.000017
0.840000,0.400000,1.600001,0.080000,-8825947635.267426,-1633307.263891,-1185241.663794,-1043894.831978,-0.000015,-0.000006,-0.000020
0.920000,0.400000,1.580003,0.080000,-8825989768.599222,-1418344.513991,-1400035.829220,-1182836.719017,-0.000011,-0.000010,-0.000022
1.000000,0.400000,1.500003,0.080000,-8826040885.455866,-1170915.161541,-1647308.244928,-1326803.691788,-0.000006,-0.000015,-0.000025
1.080000,0.400000,1.420003,0.080000,-8826102570.152868,-888565.093059,-1929527.233793,-1473026.425156,-0.000001,-0.000020,-0.000028
1.160000,0.400000,1.340003,0.080000,-8826176630.349150,-569284.063070,-2248721.501079,-1617585.661894,0.000005,-0.000026,-0.000030
1.240000,0.400000,1.260004,0.080000,-8826265109.807617,-211817.347743,-2606168.845607,-1755251.639233,0.000012,-0.000033,-0.000033
1.320000,0.400000,1.180004,0.080000,-8826370296.293324,183944.364823,-3002006.218641,-1879366.958546,0.000019,-0.000041,-0.000035
1.400000,0.400000,1.100004,0.080000,-8826494722.114532,616498.443867,-3434762.412114,-1981809.736507,0.000028,-0.000049,-0.000037
1.480000,0.400000,1.020004,0.080000,-8826641154.326044,1082201.582749,-3900827.431407,-2053082.806295,0.000036,-0.000058,-0.000039
1.560000,0.400000,0.940005,0.080000,-8826812571.222105,1574712.049880,-4393891.444338,-2082580.429067,0.000046,-0.000067,-0.000039
1.640000,0.400000,0.860005,0.080000,-8827012121.569452,2084460.629507,-4904410.769019,-2059082.683459,0.000055,-0.000076,-0.000039
1.720000,0.400000,0.780006,0.080000,-8827243063.224466,2598236.014536,-5419186.712140,-1971514.828435,0.000065,-0.000086,-0.000037
1.800000,0.400000,0.700006,0.080000,-8827508678.519958,3098996.978679,-5921170.171787,-1809979.999780,0.000074,-0.000096,-0.000034
1.880000,0.400000,0.620007,0.080000,-8827812165.264982,3566040.428009,-6389622.263538,-1567026.060008,0.000083,-0.000104,-0.000030
1.960000,0.400000,0.540008,0.080000,-8828156504.476635,3978661.892509,-6811154.232511,-1233880.964256,0.000091,-0.000112,-0.000023
2.040000,0.400000,0.460010,0.080000,-8828544309.027237,4305132.616025,-7133352.691120,-831655.699057,0.000097,-0.000118,-0.000016
2.120000,0.400000,0.380012,0.080000,-8828977661.003349,4524846.463318,-7351955.314548,-342851.823536,0.000101,-0.000123,-0.000006
-2.120000,0.480000,0.380207,0.080000,-8828854548.590168,5115455.463424,-7944556.210884,534575.602828,0.000112,-0.000134,0.000010
-2.040000,0.480000,0.460171,0.080000,-8828425353.808773,4813249.041512,-7643074.683244,1152541.714937,0.000107,-0.000128,0.000022
-1.960000,0.480000,0.540146,0.080000,-8828044947.329943,4392136.916328,-7226946.078784,1652385.921774,0.000099,-0.000120,0.000031
-1.880000,0.480000,0.620127,0.080000,-8827710644.958708,3879714.519402,-6703098.825420,2057346.819065,0.000089,-0.000110,0.000039
-1.800000,0.480000,0.700112,0.080000,-8827419203.073412,3316093.751237,-6137775.150877,2343036.438821,0.000078,-0.000100,0.000044
-1.720000,0.480000,0.780101,0.080000,-8827167024.395840,2726277.913533,-5546544.023886,2522839.961620,0.000067,-0.000089,0.000048
-1.640000,0.480000,0.860091,0.080000,-8826950342.394236,2134410.960833,-4953577.970066,2608455.211339,0.000056,-0.000077,0.000049
-1.560000,0.480000,0.940084,0.080000,-8826765375.612587,1559357.105298,-4377732.903272,2614319.879805,0.000045,-0.000067,0.000049
-1.480000,0.480000,1.020077,0.080000,-8826608448.432503,1014802.239813,-3832662.144398,2555868.897438,0.000035,-0.000056,0.000048
-1.400000,0.480000,1.100071,0.080000,-8826476078.841564,509779.200964,-3327353.211606,2448195.555227,0.000026,-0.000047,0.000046
-1.320000,0.480000,1.180067,0.080000,-8826365036.501276,49420.042885,-2866889.064797,2305135.988313,0.000017,-0.000038,0.000043
-1.240000,0.480000,1.260062,0.080000,-8826272375.874908,-364219.611119,-2453278.534209,2138733.673559,0.000009,-0.000030,0.000040
-1.160000,0.480000,1.340059,0.080000,-8826195449.654259,-731369.976930,-2086250.398611,1959008.724443,0.000002,-0.000023,0.000037
-1.080000,0.480000,1.420055,0.080000,-8826131907.524250,-1053851.517040,-1763950.425245,1773948.516392,-0.000004,-0.000017,0.000033
-1.000000,0.480000,1.500052,0.080000,-8826079684.707605,-1334501.038340,-1483515.392630,1589642.784326,-0.000009,-0.000012,0.000030
-0.920000,0.480000,1.520022,0.080000,-8826036983.961784,-1576722.562892,-1241521.548835,1410500.277746,-0.000014,-0.000007,0.000027
-0.840000,0.480000,1.520001,0.080000,-8826002253.906485,-1784152.123656,-1034318.761983,1239500.027817,-0.000018,-0.000004,0.000023
-0.760000,0.480000,1.520043,0.080000,-8825974165.833048,-1960418.953256,-858268.192737,1078445.115916,-0.000021,-0.000000,0.000020
-0.680000,0.480000,1.520024,0.080000,-8825951590.530958,-2108983.685099,-709903.022931,928199.047721,-0.000024,0.000003,0.000017
-0.600000,0.480000,1.520000,0.080000,-8825933576.173340,-2233035.211957,-586030.670329,788894.063279,-0.000026,0.000005,0.000015
-0.520000,0.480000,1.520040,0.080000,-8825919327.927069,-2335430.280126,-483792.440143,660107.172733,-0.000028,0.000007,0.000012
-0.440000,0.480000,1.520027,0.080000,-8825908189.678596,-2418662.816218,-400693.608727,541003.905192,-0.000030,0.000008,0.000010
-0.360000,0.480000,1.520000,0.080000,-8825899628.075304,-2484852.826974,-334614.075306,430452.259642,-0.000031,0.000010,0.000008
-0.280000,0.480000,1.520037,0.080000,-8825893218.955875,-2535747.227043,-283807.234875,327110.654705,-0.000032,0.000011,0.000006
-0.200000,0.480000,1.520030,0.080000,-8825888636.166822,-2572726.962230,-246892.598164,229494.206363,-0.000033,0.000011,0.000004
-0.120000,0.480000,1.520000,0.080000,-8825885642.720360,-2596816.500334,-222846.153611,136023.729637,-0.000033,0.000012,0.000003
-0.040000,0.480000,1.520033,0.080000,-8825884084.234056,-2608692.947308,-210991.158972,45061.694397,-0.000033,0.000012,0.000001
0.040000,0.480000,1.520033,0.080000,-8825883884.594738,-2608692.990587,-210991.115532,-45060.886385,-0.000033,0.000012,-0.000001
0.120000,0.480000,1.520000,0.080000,-8825885043.802113,-2596816.633189,-222846.022139,-136022.898933,-0.000033,0.000012,-0.000003
0.200000,0.480000,1.520030,0.080000,-8825887637.968821,-2572727.188248,-246892.370697,-229493.329138,-0.000033,0.000011,-0.000004
0.280000,0.480000,1.520037,0.080000,-8825891821.476641,-2535747.557027,-283806.904727,-327109.706276,-0.000032,0.000011,-0.000006
0.360000,0.480000,1.520000,0.080000,-8825897831.312712,-2484853.274497,-334613.629681,-430451.215462,-0.000031,0.000010,-0.000008
0.440000,0.480000,1.520027,0.080000,-8825905993.629814,-2418663.395904,-400693.026085,-541002.740841,-0.000030,0.000008,-0.000010
0.520000,0.480000,1.520040,0.080000,-8825916732.588308,-2335431.018897,-483791.703716,-660105.862975,-0.000028,0.000007,-0.000012
0.600000,0.480000,1.520000,0.080000,-8825930581.539902,-2233036.133255,-586029.750505,-788892.582392,-0.000026,0.000005,-0.000015
0.680000,0.480000,1.520024,0.080000,-8825948196.596914,-2108984.822415,-709901.889639,-928197.370116,-0.000024,0.000003,-0.000017
0.760000,0.480000,1.520043,0.080000,-8825970372.591141,-1960420.341465,-858266.806095,-1078443.216169,-0.000021,-0.000000,-0.000020
0.840000,0.480000,1.520001,0.080000,-8825998061.347799,-1784153.807272,-1034317.079124,-1239497.881404,-0.000018,-0.000004,-0.000023
0.920000,0.480000,1.520022,0.080000,-8826032392.075520,-1576724.591483,-1241519.520592,-1410497.862530,-0.000014,-0.000007,-0.000027
1.000000,0.480000,1.500052,0.080000,-8826074693.480728,-1334503.469893,-1483512.964743,-1589640.081671,-0.000009,-0.000012,-0.000030
1.080000,0.480000,1.420055,0.080000,-8826126516.941191,-1053854.413016,-1763947.533235,-1773945.512138,-0.000004,-0.000017,-0.000033
1.160000,0.480000,1.340059,0.080000,-8826189659.696453,-731373.406040,-2086246.975117,-1959005.411767,0.000002,-0.000023,-0.000037
1.240000,0.480000,1.260062,0.080000,-8826266186.520388,-364223.646731,-2453274.505977,-2138730.055599,0.000009,-0.000030,-0.000040
1.320000,0.480000,1.180067,0.080000,-8826358447.724224,49415.326161,-2866884.351687,-2305132.080028,0.000017,-0.000038,-0.000043
1.400000,0.480000,1.100071,0.080000,-8826469090.611740,509773.723003,-3327347.738111,-2448191.386973,0.000026,-0.000047,-0.000046
1.480000,0.480000,1.020077,0.080000,-8826601060.714825,1014795.925119,-3832655.834204,-2555864.518280,0.000035,-0.000056,-0.000048
1.560000,0.480000,0.940084,0.080000,-8826757588.366634,1559349.886203,-4377725.685158,-2614315.359769,0.000045,-0.000067,-0.000049
1.640000,0.480000,0.860091,0.080000,-8826942155.573748,2134402.778090,-4953569.789857,-2608450.643660,0.000056,-0.000077,-0.000049
1.720000,0.480000,0.780101,0.080000,-8827158437.948450,2726268.731779,-5546534.843018,-2522835.463540,0.000067,-0.000089,-0.000048
1.800000,0.480000,0.700112,0.080000,-8827410216.940359,3316083.561587,-6137764.959394,-2343032.150068,0.000078,-0.000100,-0.000044
1.880000,0.480000,0.620127,0.080000,-8827701259.074780,3879703.347342,-6703087.648831,-2057342.898298,0.000089,-0.000110,-0.000039
1.960000,0.480000,0.540146,0.080000,-8828035161.623661,4392124.823693,-7226933.960440,-1652382.548826,0.000099,-0.000120,-0.000031
2.040000,0.480000,0.460171,0.080000,-8828415168.202814,4813236.150976,-7643061.777511,-1152539.037484,0.000107,-0.000128,-0.000022
2.120000,0.480000,0.380207,0.080000,-8828843963.002167,5115441.942219,-7944542.671278,-534573.803336,0.000112,-0.000134,-0.000010
-2.120000,0.560000,0.380079,0.080000,-8828688037.420843,5859684.833512,-8691518.722767,814053.379658,0.000126,-0.000148,0.000015
-2.040000,0.560000,0.460065,0.080000,-8828265345.434475,5442824.722822,-8274754.838889,1579525.971998,0.000119,-0.000140,0.000030
-1.960000,0.560000,0.540056,0.080000,-8827895456.777391,4893073.420286,-7730871.654475,2185098.299262,0.000108,-0.000130,0.000041
-1.880000,0.560000,0.620049,0.080000,-8827574869.121552,4247881.205981,-7070847.617470,2661632.329426,0.000096,-0.000117,0.000050
-1.800000,0.560000,0.700043,0.080000,-8827299499.904181,3558571.768468,-6379465.641988,2982773.463281,0.000083,-0.000104,0.000056
-1.720000,0.560000,0.780039,0.080000,-8827064949.746647,2855472.866745,-5674732.015031,3168803.025510,0.000070,-0.000091,0.000060
-1.640000,0.560000,0.860035,0.080000,-8826866728.514606,2166672.871286,-4984744.850712,3237734.550210,0.000057,-0.000078,0.000061
-1.560000,0.560000,0.940032,0.080000,-8826700434.999596,1512720.672573,-4330015.496607,3210307.710935,0.000044,-0.000066,0.000060
-1.480000,0.560000,1.020030,0.080000,-8826561888.635059,907217.990293,-3724081.409533,3107658.818308,0.000033,-0.000054,0.000059
-1.400000,0.560000,1.100027,0.080000,-8826447216.914392,357883.047906,-3174586.655486,2949661.947612,0.000023,-0.000044,0.000056
-1.320000,0.560000,1.180026,0.080000,-8826352905.217216,-132203.613298,-2684539.477704,2753905.948562,0.000013,-0.000035,0.000052
-1.240000,0.560000,1.260024,0.080000,-8826275816.947012,-563374.567656,-2253543.671573,2535197.007846,0.000005,-0.000027,0.000048
-1.160000,0.560000,1.340022,0.080000,-8826213191.774942,-938292.584870,-1878884.513584,2305449.849205,-0.000002,-0.000019,0.000043
-1.080000,0.560000,1.420021,0.080000,-8826162628.902515,-1261063.432860,-1556416.319764,2073836.202534,-0.000008,-0.000013,0.000039
-1.000000,0.560000,1.440050,0.080000,-8826122061.017893,-1536553.130908,-1281244.073141,1847081.339385,-0.000013,-0.000008,0.000035
-0.920000,0.560000,1.440023,0.080000,-8826089723.322227,-1769891.621828,-1048217.908646,1629826.962724,-0.000017,-0.000004,0.000031
-0.840000,0.560000,1.440001,0.080000,-8826064120.812807,-1966132.370834,-852271.548604,1425004.814307,-0.000021,-0.000000,0.000027
-0.760000,0.560000,1.440046,0.080000,-8826043996.013769,-2130034.170056,-688638.646387,1234186.840168,-0.000024,0.000003,0.000023
-0.680000,0.560000,1.440026,0.080000,-8826028298.561430,-2265933.710077,-552978.671138,1057893.779095,-0.000027,0.000006,0.000020
-0.600000,0.560000,1.440000,0.080000,-8826016157.469238,-2377682.174239,-441439.080597,895855.057155,-0.000029,0.000008,0.000017
-0.520000,0.560000,1.440042,0.080000,-8826006856.485498,-2468624.576094,-350675.049175,747219.848218,-0.000031,0.000009,0.000014
-0.440000,0.560000,1.440029,0.080000,-8825999812.681528,-2541605.724467,-277842.840312,610723.152771,-0.000032,0.000011,0.000012
-0.360000,0.560000,1.440000,0.080000,-8825994558.236435,-2598991.056962,-220578.482743,484812.703096,-0.000033,0.000012,0.000009
-0.280000,0.560000,1.440039,0.080000,-8825990725.287689,-2642694.124008,-176969.967489,367743.164590,-0.000034,0.000013,0.000007
-0.200000,0.560000,1.440032,0.080000,-8825988033.673552,-2674205.128387,-145528.510758,257644.015358,-0.000034,0.000013,0.000005
-0.120000,0.560000,1.440000,0.080000,-8825986281.386206,-2694616.827749,-125162.505356,152567.025229,-0.000035,0.000014,0.000003
-0.040000,0.560000,1.440035,0.080000,-8825985337.570385,-2704645.492698,-115156.479588,50518.665783,-0.000035,0.000014,0.000001
0.040000,0.560000,1.440035,0.080000,-8825985137.933767,-2704645.523783,-115156.448789,-50517.782904,-0.000035,0.000014,-0.000001
0.120000,0.560000,1.440000,0.080000,-8825985682.476166,-2694616.921799,-125162.410112,-152566.115987,-0.000035,0.000014,-0.000003
0.200000,0.560000,1.440032,0.080000,-8825987035.489464,-2674205.292109,-145528.347326,-257643.052297,-0.000034,0.000013,-0.000005
0.280000,0.560000,1.440039,0.080000,-8825989327.828506,-2642694.365684,-176969.727425,-367742.119408,-0.000034,0.000013,-0.000007
0.360000,0.560000,1.440000,0.080000,-8825992761.500612,-2598991.389013,-220578.152915,-484811.547302,-0.000033,0.000012,-0.000009
0.440000,0.560000,1.440029,0.080000,-8825997616.666943,-2541606.163724,-277842.403263,-610721.857272,-0.000032,0.000011,-0.000012
0.520000,0.560000,1.440042,0.080000,-8826004261.189335,-2468625.143944,-350674.484168,-747218.383144,-0.000031,0.000009,-0.000014
0.600000,0.560000,1.440000,0.080000,-8826013162.887871,-2377682.895918,-441438.360639,-895853.391982,-0.000029,0.000008,-0.000017
0.680000,0.560000,1.440026,0.080000,-8826024904.690216,-2265934.618553,-552977.765472,-1057891.882724,-0.000027,0.000006,-0.000020
0.760000,0.560000,1.440046,0.080000,-8826040202.846888,-2130035.303055,-688637.517071,-1234184.681057,-0.000024,0.000003,-0.000023
0.840000,0.560000,1.440001,0.080000,-8826059928.342993,-1966133.773381,-852270.150688,-1425002.361170,-0.000021,-0.000000,-0.000027
0.920000,0.560000,1.440023,0.080000,-8826085131.540512,-1769893.344170,-1048216.188550,-1629824.185965,-0.000017,-0.000004,-0.000031
1.000000,0.560000,1.440050,0.080000,-8826117069.913212,-1536555.234563,-1281241.972533,-1847078.212795,-0.000013,-0.000008,-0.000035
1.080000,0.560000,1.420021,0.080000,-8826157238.461369,-1261065.987667,-1556413.770509,-2073832.705144,-0.000008,-0.000013,-0.000039
1.160000,0.560000,1.340022,0.080000,-8826207401.980972,-938295.666316,-1878881.437169,-2305445.967855,-0.000002,-0.000019,-0.000043
1.240000,0.560000,1.260024,0.080000,-8826269627.780468,-563378.260588,-2253539.983358,-2535192.739570,0.000005,-0.000027,-0.000048
1.320000,0.560000,1.180026,0.080000,-8826346316.654430,-132208.009842,-2684535.085187,-2753901.303477,0.000013,-0.000035,-0.000052
1.400000,0.560000,1.100027,0.080000,-8826440228.927168,357877.849276,-3174581.463478,-2949656.954730,0.000023,-0.000044,-0.000056
1.480000,0.560000,1.020030,0.080000,-8826554501.190123,907211.894250,-3724075.317415,-3107653.529694,0.000033,-0.000054,-0.000059
1.560000,0.560000,0.940032,0.080000,-8826692648.057858,1512713.581540,-4330008.412768,-3210302.204657,0.000044,-0.000066,-0.000060
1.640000,0.560000,0.860035,0.080000,-8826858542.030701,2166664.704553,-4984736.686864,-3237728.934771,0.000057,-0.000078,-0.000061
1.720000,0.560000,0.780039,0.080000,-8827056363.668272,2855463.558858,-5674722.706708,-3168797.442117,0.000070,-0.000091,-0.000060
1.800000,0.560000,0.700043,0.080000,-8827290514.171715,3558561.281860,-6379455.156481,-2982768.085113,0.000083,-0.000104,-0.000056
1.880000,0.560000,0.620049,0.080000,-8827565483.667923,4247869.549627,-7070835.956076,-2661627.357981,0.000096,-0.000117,-0.000050
1.960000,0.560000,0.540056,0.080000,-8827885671.527994,4893060.641331,-7730858.845159,-2185093.967357,0.000108,-0.000130,-0.000041
2.040000,0.560000,0.460065,0.080000,-8828255160.307617,5442810.948280,-8274741.044644,-1579522.478825,0.000119,-0.000140,-0.000030
2.120000,0.560000,0.380079,0.080000,-8828677452.328493,5859670.246062,-8691504.114767,-814050.970640,0.000126,-0.000148,-0.000015
-2.120000,0.640000,0.380004,0.080000,-8828483942.948050,6783907.645930,-9619474.488312,1217027.630583,0.000144,-0.000165,0.000023
-2.040000,0.640000,0.460003,0.080000,-8828070439.423254,6208022.955486,-9042671.681615,2151939.403122,0.000133,-0.000154,0.000041
-1.960000,0.640000,0.540003,0.080000,-8827714618.470203,5484382.146044,-8325968.692914,2870737.601699,0.000119,-0.000141,0.000054
-1.880000,0.640000,0.620003,0.080000,-8827411872.232864,4664222.190946,-7486396.466384,3414895.627779,0.000104,-0.000125,0.000064
-1.800000,0.640000,0.700002,0.080000,-8827157012.797354,3813598.375210,-6633255.440946,3758556.896894,0.000088,-0.000109,0.000071
-1.720000,0.640000,0.780002,0.080000,-8826944611.157253,2969098.581096,-5786895.329182,3932308.204751,0.000072,-0.000093,0.000074
-1.640000,0.640000,0.860002,0.080000,-8826769273.683701,2162923.988632,-4979486.582997,3963425.704326,0.000057,-0.000078,0.000075
-1.560000,0.640000,0.940002,0.080000,-8826625848.365835,1416655.803604,-4232522.411511,3881295.785371,0.000043,-0.000064,0.000073
-1.480000,0.640000,1.020002,0.080000,-8826509563.432150,742699.113107,-3558294.884952,3714407.504444,0.000030,-0.000051,0.000070
-1.400000,0.640000,1.100001,0.080000,-8826416107.400450,146177.938095,-2961813.396188,3488418.980029,0.000019,-0.000040,0.000066
-1.320000,0.640000,1.180001,0.080000,-8826341662.544138,-373122.766797,-2442760.732314,3225145.550771,0.000009,-0.000030,0.000061
-1.240000,0.640000,1.260001,0.080000,-8826282904.117678,-819015.122572,-1997241.540254,2942242.610573,0.000000,-0.000022,0.000055
-1.160000,0.640000,1.340001,0.080000,-8826236976.450386,-1197482.565658,-1619209.288175,2653352.720791,-0.000007,-0.000015,0.000050
-1.080000,0.640000,1.360002,0.080000,-8826201455.024887,-1515595.537624,-1301548.744279,2368521.889530,-0.000013,-0.000009,0.000045
-1.000000,0.640000,1.360053,0.080000,-8826174301.489944,-1780740.251290,-1036844.018304,2094738.916777,-0.000018,-0.000004,0.000039
-0.920000,0.640000,1.360024,0.080000,-8826153816.562420,-2000107.243710,-817886.509132,1836499.322908,-0.000022,0.000001,0.000035
-0.840000,0.640000,1.360001,0.080000,-8826138594.112503,-2180380.293858,-637982.755813,1596334.519795,-0.000025,0.000004,0.000030
-0.760000,0.640000,1.360049,0.080000,-8826127478.441881,-2327570.726685,-491117.492627,1375275.660016,-0.000028,0.000007,0.000026
-0.680000,0.640000,1.360027,0.080000,-8826119525.831707,-2446951.168333,-372017.823186,1173240.879624,-0.000030,0.000009,0.000022
-0.600000,0.640000,1.360001,0.080000,-8826113970.796392,-2543053.096555,-276154.165970,989346.426830,-0.000032,0.000011,0.000019
-0.520000,0.640000,1.360045,0.080000,-8826110197.068203,-2619701.912287,-199704.115603,822148.562362,-0.000033,0.000012,0.000015
-0.440000,0.640000,1.360030,0.080000,-8826107713.094305,-2680071.116852,-139497.567750,669825.949273,-0.000035,0.000013,0.000013
-0.360000,0.640000,1.360000,0.080000,-8826106131.704063,-2726743.184015,-92955.382482,530312.922193,-0.000035,0.000014,0.000010
-0.280000,0.640000,1.360041,0.080000,-8826105153.559479,-2761769.188048,-58029.489332,401393.499563,-0.000036,0.000015,0.000008
-0.200000,0.640000,1.360034,0.080000,-8826104554.009087,-2786722.301624,-33149.213491,280764.925472,-0.000037,0.000015,0.000005
-0.120000,0.640000,1.360000,0.080000,-8826104173.003532,-2802742.385237,-17176.611239,166078.301090,-0.000037,0.000016,0.000003
-0.040000,0.640000,1.360037,0.080000,-8826103907.788227,-2810570.147129,-9372.264116,54962.703769,-0.000037,0.000016,0.000001
0.040000,0.640000,1.360037,0.080000,-8826103708.154510,-2810570.163940,-9372.247518,-54961.773146,-0.000037,0.000016,-0.000001
0.120000,0.640000,1.360000,0.080000,-8826103574.102293,-2802742.435715,-17176.558371,-166077.340200,-0.000037,0.000016,-0.000003
0.200000,0.640000,1.360034,0.080000,-8826103555.839952,-2786722.393973,-33149.123205,-280763.903625,-0.000037,0.000015,-0.000005
0.280000,0.640000,1.360041,0.080000,-8826103756.121889,-2761769.327890,-58029.351444,-401392.385467,-0.000036,0.000015,-0.000008
0.360000,0.640000,1.360000,0.080000,-8826104334.997103,-2726743.385092,-92955.186992,-530311.683913,-0.000035,0.000014,-0.000010
0.440000,0.640000,1.360030,0.080000,-8826105517.116737,-2680071.391547,-139497.295353,-669824.553115,-0.000035,0.000013,-0.000013
0.520000,0.640000,1.360045,0.080000,-8826107601.818256,-2619702.281794,-199703.747664,-822146.973496,-0.000033,0.000012,-0.000015
0.600000,0.640000,1.360001,0.080000,-8826110976.271692,-2543053.586299,-276153.677678,-989344.609266,-0.000032,0.000011,-0.000019
0.680000,0.640000,1.360027,0.080000,-8826116132.029106,-2446951.809766,-372017.183463,-1173238.795861,-0.000030,0.000009,-0.000022
0.760000,0.640000,1.360049,0.080000,-8826123685.357264,-2327571.557454,-491116.663388,-1375273.271887,-0.000028,0.000007,-0.000026
0.840000,0.640000,1.360001,0.080000,-8826134401.740519,-2180381.360905,-637981.692677,-1596331.788769,-0.000025,0.000004,-0.000030
0.920000,0.640000,1.360024,0.080000,-8826149224.896229,-2000108.600562,-817885.157982,-1836496.211070,-0.000022,0.000001,-0.000035
1.000000,0.640000,1.360053,0.080000,-8826169310.520849,-1780741.961537,-1036842.316120,-2094735.388493,-0.000018,-0.000004,-0.000039
1.080000,0.640000,1.360002,0.080000,-8826196064.741959,-1515597.673547,-1301546.613440,-2368517.914013,-0.000013,-0.000009,-0.000045
1.160000,0.640000,1.340001,0.080000,-8826231186.839916,-1197485.214243,-1619206.643469,-2653348.274917,-0.000007,-0.000015,-0.000050
1.240000,0.640000,1.260001,0.080000,-8826276715.162657,-819018.383181,-1997238.286646,-2942237.681354,0.000000,-0.000022,-0.000055
1.320000,0.640000,1.180001,0.080000,-8826335074.223675,-373126.747629,-2442756.759249,-3225140.140279,0.000009,-0.000030,-0.000061
1.400000,0.640000,1.100001,0.080000,-8826409119.689035,146173.118792,-2961808.583483,-3488413.111664,0.000019,-0.000040,-0.000066
1.480000,0.640000,1.020002,0.080000,-8826502176.298885,742693.329237,-3558289.108592,-3714401.228383,0.000030,-0.000051,-0.000070
1.560000,0.640000,0.940002,0.080000,-8826618061.773664,1416648.928823,-4232515.544356,-3881289.184528,0.000043,-0.000064,-0.000073
1.640000,0.640000,0.860002,0.080000,-8826761087.588583,2162915.902344,-4979478.503869,-3963418.900262,0.000057,-0.000078,-0.000075
1.720000,0.640000,0.780002,0.080000,-8826936025.507410,2969089.180723,-5786885.934001,-3932301.362363,0.000072,-0.000093,-0.000074
1.800000,0.640000,0.700002,0.080000,-8827148027.532598,3813587.588168,-6633244.656991,-3758550.226353,0.000088,-0.000109,-0.000071
1.880000,0.640000,0.620003,0.080000,-8827402487.284170,4664209.992560,-7486384.265394,-3414889.381317,0.000104,-0.000125,-0.000064
1.960000,0.640000,0.540003,0.080000,-8827704833.759487,5484368.559974,-8325955.074302,-2870732.078104,0.000119,-0.000141,-0.000054
2.040000,0.640000,0.460003,0.080000,-8828060254.863708,6208008.109186,-9042656.813170,-2151934.869626,0.000133,-0.000154,-0.000041
2.120000,0.640000,0.380004,0.080000,-8828473358.444834,6783891.741906,-9619458.554675,-1217024.416155,0.000144,-0.000165,-0.000023
-2.120000,0.720000,0.380169,0.080000,-8828236342.398033,7920719.561309,-10761381.717031,1794155.668990,0.000165,-0.000187,0.000034
-2.040000,0.720000,0.460140,0.080000,-8827835740.174330,7123753.447454,-9961868.962315,2923428.776172,0.000150,-0.000172,0.000055
-1.960000,0.720000,0.540119,0.080000,-8827498658.832537,6165390.731683,-9011698.299543,3760083.708682,0.000132,-0.000154,0.000071
-1.880000,0.720000,0.620104,0.080000,-8827218998.784557,5116006.682554,-7936773.738987,4361008.487586,0.000112,-0.000134,0.000082
-1.800000,0.720000,0.700092,0.080000,-8826990124.271284,4060622.870209,-6878370.457145,4705263.448527,0.000092,-0.000114,0.000089
-1.720000,0.720000,0.780082,0.080000,-8826805298.986897,3042610.949762,-5858309.738679,4838776.396984,0.000073,-0.000094,0.000091
-1.640000,0.720000,0.860075,0.080000,-8826658020.105303,2097735.202928,-4912246.334599,4802192.159878,0.000055,-0.000077,0.000090
-1.560000,0.720000,0.940068,0.080000,-8826542247.788799,1247071.514429,-4061084.744213,4636552.418480,0.000039,-0.000061,0.000087
-1.480000,0.720000,1.020063,0.080000,-8826452541.071018,499865.779656,-3313885.671824,4379604.302305,0.000025,-0.000047,0.000083
-1.400000,0.720000,1.100058,0.080000,-8826384118.119652,-143334.445635,-2671027.794490,4063762.038098,0.000013,-0.000034,0.000077
-1.320000,0.720000,1.180055,0.080000,-8826332860.739641,-687800.000731,-2127102.214677,3715345.237214,0.000003,-0.000024,0.000070
-1.240000,0.720000,1.260051,0.080000,-8826295281.458990,-1142251.443949,-1673284.697501,3354678.577882,-0.000006,-0.000016,0.000063
-1.160000,0.720000,1.280023,0.080000,-8826268468.333525,-1517071.672999,-1299120.214683,2996691.934150,-0.000013,-0.000009,0.000056
-1.080000,0.720000,1.280002,0.080000,-8826250018.925068,-1823057.660806,-993765.504904,2651750.115631,-0.000018,-0.000003,0.000050
-1.000000,0.720000,1.280056,0.080000,-8826237971.475000,-2070617.103574,-746786.124835,2326531.948586,-0.000023,0.000002,0.000044
-0.920000,0.720000,1.280026,0.080000,-8826230738.452585,-2269302.921014,-548616.174428,2024852.781415,-0.000027,0.000006,0.000038
-0.840000,0.720000,1.280001,0.080000,-8826227045.490892,-2427587.261929,-390779.641588,1748378.180152,-0.000030,0.000009,0.000033
-0.760000,0.720000,1.280052,0.080000,-8826225877.185352,-2552794.310909,-265954.053361,1497211.493150,-0.000032,0.000011,0.000028
-0.680000,0.720000,1.280029,0.080000,-8826226430.205650,-2651130.770379,-167937.509805,1270358.368974,-0.000034,0.000013,0.000024
-0.600000,0.720000,1.280001,0.080000,-8826228073.541550,-2727770.317086,-91562.512732,1066081.654007,-0.000035,0.000014,0.000020
-0.520000,0.720000,1.280047,0.080000,-8826230315.351616,-2786962.562484,-32585.958514,882164.064282,-0.000037,0.000015,0.000017
-0.440000,0.720000,1.280032,0.080000,-8826232775.724754,-2832147.539803,12426.023413,716096.311202,-0.000037,0.000016,0.000013
-0.360000,0.720000,1.280000,0.080000,-8826235164.625130,-2866064.358894,46207.071811,565206.785227,-0.000038,0.000017,0.000011
-0.280000,0.720000,1.280043,0.080000,-8826237264.327526,-2890847.664897,70887.224433,426746.567458,-0.000039,0.000017,0.000008
-0.200000,0.720000,1.280036,0.080000,-8826238915.726879,-2908108.789770,88074.146325,297941.091805,-0.000039,0.000018,0.000006
-0.120000,0.720000,1.280000,0.080000,-8826240008.002838,-2919000.422322,98917.808080,176017.565087,-0.000039,0.000018,0.000003
-0.040000,0.720000,1.280040,0.080000,-8826240471.225471,-2924264.649825,104158.496721,58215.405793,-0.000039,0.000018,0.000001
0.040000,0.720000,1.280040,0.080000,-8826240271.594763,-2924264.650526,104158.497493,-58214.457840,-0.000039,0.000018,-0.000001
0.120000,0.720000,1.280000,0.080000,-8826239409.110716,-2919000.425037,98917.812616,-176016.583285,-0.000039,0.000018,-0.000003
0.200000,0.720000,1.280036,0.080000,-8826237917.573305,-2908108.799657,88074.157604,-297940.042551,-0.000039,0.000018,-0.000006
0.280000,0.720000,1.280043,0.080000,-8826235866.912422,-2890847.689522,70887.249050,-426745.416869,-0.000039,0.000017,-0.000008
0.360000,0.720000,1.280000,0.080000,-8826233367.948341,-2866064.407832,46207.121132,-565205.497768,-0.000038,0.000017,-0.000011
0.440000,0.720000,1.280032,0.080000,-8826230579.785950,-2832147.628174,12426.111080,-716094.849127,-0.000037,0.000016,-0.000013
0.520000,0.720000,1.280047,0.080000,-8826227720.150229,-2786962.708130,-32585.813340,-882162.387821,-0.000037,0.000015,-0.000017
0.600000,0.720000,1.280001,0.080000,-8826225079.076628,-2727770.544226,-91562.287398,-1066079.721293,-0.000035,0.000014,-0.000020
0.680000,0.720000,1.280029,0.080000,-8826223036.475750,-2651131.106661,-167937.172985,-1270356.136225,-0.000034,0.000013,-0.000024
0.760000,0.720000,1.280052,0.080000,-8826222084.188253,-2552794.796813,-265953.572562,-1497208.914704,-0.000032,0.000011,-0.000028
0.840000,0.720000,1.280001,0.080000,-8826222853.223532,-2427587.937779,-390778.966802,-1748375.208915,-0.000030,0.000009,-0.000033
0.920000,0.720000,1.280026,0.080000,-8826226146.910568,-2269303.845587,-548615.254731,-2024849.369888,-0.000027,0.000006,-0.000038
1.000000,0.720000,1.280056,0.080000,-8826232980.652418,-2070618.340836,-746784.891875,-2326528.050024,-0.000023,0.000002,-0.000044
1.080000,0.720000,1.280002,0.080000,-8826244628.813948,-1823059.293024,-993763.880220,-2651745.686553,-0.000018,-0.000003,-0.000050
1.160000,0.720000,1.280023,0.080000,-8826262678.923429,-1517073.791744,-1299118.100725,-2996686.937135,-0.000013,-0.000009,-0.000056
1.240000,0.720000,1.260051,0.080000,-8826289092.736288,-1142254.162138,-1673281.987346,-3354672.985834,-0.000006,-0.000016,-0.000063
1.320000,0.720000,1.180055,0.080000,-8826326272.686892,-687803.446263,-2127098.780275,-3715339.039196,0.000003,-0.000024,-0.000070
1.400000,0.720000,1.100058,0.080000,-8826377130.714796,-143338.759407,-2671023.488370,-4063755.245540,0.000013,-0.000034,-0.000077
1.480000,0.720000,1.020063,0.080000,-8826445154.286356,499860.437256,-3313880.339505,-4379596.956929,0.000025,-0.000047,-0.000083
1.560000,0.720000,0.940068,0.080000,-8826534461.590090,1247064.977332,-4061078.217879,-4636544.602029,0.000039,-0.000061,-0.000087
1.640000,0.720000,0.860075,0.080000,-8826649834.450663,2097727.304731,-4912238.445191,-4802184.002666,0.000055,-0.000077,-0.000090
1.720000,0.720000,0.780082,0.080000,-8826796713.825722,3042601.535546,-5858300.330222,-4838768.085491,0.000073,-0.000094,-0.000091
1.800000,0.720000,0.700092,0.080000,-8826981139.543262,4060611.813558,-6878359.403707,-4705255.231927,0.000092,-0.000114,-0.000089
1.880000,0.720000,0.620104,0.080000,-8827209614.418898,5115993.909087,-7936760.964658,-4361000.677017,0.000112,-0.000134,-0.000082
1.960000,0.720000,0.540119,0.080000,-8827488874.747471,6165376.226308,-9011683.754471,-3760076.685170,0.000132,-0.000154,-0.000071
2.040000,0.720000,0.460140,0.080000,-8827825556.277187,7123737.326157,-9961852.812888,-2923422.897715,0.000150,-0.000172,-0.000055
2.120000,0.720000,0.380169,0.080000,-8828225758.585814,7920702.039792,-10761364.161659,-1794151.376781,0.000165,-0.000187,-0.000034
-2.120000,0.800000,0.380106,0.080000,-8827937953.531937,9309176.112358,-12156801.150412,2618216.756281,0.000191,-0.000213,0.000049
-2.040000,0.800000,0.460087,0.080000,-8827555394.507828,8203405.263012,-11045875.009771,3967897.163912,0.000171,-0.000192,0.000075
-1.960000,0.800000,0.540074,0.080000,-8827243239.063684,6928094.099808,-9780167.597024,4920035.546740,0.000147,-0.000168,0.000093
-1.880000,0.800000,0.620065,0.080000,-8826993374.019444,5579879.059654,-8398251.117300,5554747.661029,0.000121,-0.000142,0.000105
-1.800000,0.800000,0.700057,0.080000,-8826797276.362951,4267485.854945,-7082332.653500,5863660.415899,0.000096,-0.000118,0.000110
-1.720000,0.800000,0.780051,0.080000,-8826646568.160360,3040519.284417,-5853249.098896,5915365.037410,0.000073,-0.000094,0.000111
-1.640000,0.800000,0.860047,0.080000,-8826533409.874763,1936364.142196,-4748132.273514,5769428.024134,0.000052,-0.000074,0.000109
-1.560000,0.800000,0.940043,0.080000,-8826450741.095247,972593.605566,-3784252.044493,5482202.534024,0.000034,-0.000055,0.000103
-1.480000,0.800000,1.020039,0.080000,-8826392394.789101,152076.531914,-2964190.285742,5102664.846612,0.000019,-0.000040,0.000096
-1.400000,0.800000,1.100036,0.080000,-8826353117.362253,-532136.891988,-2280760.390967,4670675.373132,0.000006,-0.000027,0.000088
-1.320000,0.800000,1.180034,0.080000,-8826328525.590340,-1092751.427672,-1721080.878087,4216897.332030,-0.000005,-0.000017,0.000079
-1.240000,0.800000,1.200065,0.080000,-8826315026.363342,-1545174.748705,-1269623.366108,3763679.542627,-0.000013,-0.000008,0.000071
-1.160000,0.800000,1.200024,0.080000,-8826309718.798918,-1905420.730235,-910298.881366,3326379.948089,-0.000020,-0.000001,0.000063
-1.080000,0.800000,1.200002,0.080000,-8826310292.203175,-2188797.857321,-627757.672675,2914786.048923,-0.000025,0.000004,0.000055
-1.000000,0.800000,1.200060,0.080000,-8826314928.342611,-2409184.182586,-408103.673423,2534436.031467,-0.000029,0.000008,0.000048
-0.920000,0.800000,1.200028,0.080000,-8826322212.730865,-2578707.573672,-239205.821507,2187748.900581,-0.000033,0.000011,0.000041
-0.840000,0.800000,1.200001,0.080000,-8826331057.027325,-2707685.612138,-110751.973948,1874937.603971,-0.000035,0.000014,0.000035
-0.760000,0.800000,1.200055,0.080000,-8826340632.969355,-2804717.715722,-14152.557582,1594715.577104,-0.000037,0.000016,0.000030
-0.680000,0.800000,1.200031,0.080000,-8826350317.274412,-2876855.375456,57632.410896,1344824.077487,-0.000038,0.000017,0.000025
-0.600000,0.800000,1.200001,0.080000,-8826359646.438877,-2929802.477091,110295.284865,1122412.871867,-0.000039,0.000018,0.000021
-0.520000,0.800000,1.200051,0.080000,-8826368280.161860,-2968116.511865,148382.926404,924305.702571,-0.000040,0.000019,0.000017
-0.440000,0.800000,1.200035,0.080000,-8826375972.111609,-2995394.398524,175482.979860,747177.935521,-0.000040,0.000019,0.000014
-0.360000,0.800000,1.200000,0.080000,-8826382546.847866,-3014434.949719,194386.483216,587668.881202,-0.000041,0.000020,0.000011
-0.280000,0.800000,1.200046,0.080000,-8826387881.861591,-3027375.056314,207224.060082,442446.522220,-0.000041,0.000020,0.000008
-0.200000,0.800000,1.200038,0.080000,-8826391893.860279,-3035799.530388,215575.689915,308238.254939,-0.000041,0.000020,0.000006
-0.120000,0.800000,1.200000,0.080000,-8826394528.595303,-3040825.922524,220555.409049,181837.909931,-0.000041,0.000020,0.000003
-0.040000,0.800000,1.200042,0.080000,-8826395753.688128,-3043166.063508,222872.776187,60096.739091,-0.000041,0.000020,0.000001
0.040000,0.800000,1.200042,0.080000,-8826395554.060421,-3043166.047935,222872.758962,-60095.806369,-0.000041,0.000020,-0.000001
0.120000,0.800000,1.200000,0.080000,-8826393929.712311,-3040825.874745,220555.360731,-181836.941033,-0.000041,0.000020,-0.000003
0.200000,0.800000,1.200038,0.080000,-8826390895.722292,-3035799.454880,215575.612233,-308237.213713,-0.000041,0.000020,-0.000006
0.280000,0.800000,1.200046,0.080000,-8826386484.469120,-3027374.956708,207223.960894,-442445.371464,-0.000041,0.000020,-0.000008
0.360000,0.800000,1.200000,0.080000,-8826380750.201525,-3014434.836502,194386.369729,-587667.582006,-0.000041,0.000020,-0.000011
0.440000,0.800000,1.200035,0.080000,-8826373776.212112,-2995394.284199,175482.864168,-747176.446609,-0.000040,0.000019,-0.000014
0.520000,0.800000,1.200051,0.080000,-8826365685.009951,-2968116.411036,148382.825799,-924303.979635,-0.000040,0.000019,-0.000017
0.600000,0.800000,1.200001,0.080000,-8826356652.035166,-2929802.412564,110295.218144,-1122410.867559,-0.000039,0.000018,-0.000021
0.680000,0.800000,1.200031,0.080000,-8826346923.619312,-2876855.373390,57632.405725,-1344821.741643,-0.000038,0.000017,-0.000025
0.760000,0.800000,1.200055,0.080000,-8826336840.062889,-2804717.808509,-14152.465860,-1594712.856160,-0.000037,0.000016,-0.000030
0.840000,0.800000,1.200001,0.080000,-8826326864.868860,-2707685.844596,-110751.743814,-1874934.441025,-0.000035,0.000014,-0.000035
0.920000,0.800000,1.200028,0.080000,-8826317621.318899,-2578707.999292,-239205.398383,-2187745.236555,-0.000033,0.000011,-0.000041
1.000000,0.800000,1.200060,0.080000,-8826309937.674377,-2409184.869933,-408102.991472,-2534431.806502,-0.000029,0.000008,-0.000048
1.080000,0.800000,1.200002,0.080000,-8826304902.274265,-2188798.888421,-627756.645893,-2914781.203900,-0.000025,0.000004,-0.000055
1.160000,0.800000,1.200024,0.080000,-8826303929.602686,-1905422.207395,-910297.408647,-3326374.427592,-0.000020,-0.000001,-0.000063
1.240000,0.800000,1.200065,0.080000,-8826308837.890263,-1545176.796133,-1269621.327145,-3763673.300196,-0.000013,-0.000008,-0.000071
1.320000,0.800000,1.180034,0.080000,-8826321937.827282,-1092754.189794,-1721078.123220,-4216890.336476,-0.000005,-0.000017,-0.000079
1.400000,0.800000,1.100036,0.080000,-8826346130.291451,-532140.541666,-2280756.750702,-4670667.615863,0.000006,-0.000027,-0.000088
1.480000,0.800000,1.020039,0.080000,-8826385008.387112,152071.799290,-2964185.565934,-5102656.352154,0.000019,-0.000040,-0.000096
1.560000,0.800000,0.940043,0.080000,-8826442955.331745,972587.578238,-3784246.026008,-5482193.373278,0.000034,-0.000055,-0.000103
1.640000,0.800000,0.860047,0.080000,-8826525224.711020,1936356.588160,-4748124.734078,-5769418.327408,0.000052,-0.000074,-0.000109
1.720000,0.800000,0.780051,0.080000,-8826637983.548000,3040509.983463,-5853239.808744,-5915355.007909,0.000073,-0.000094,-0.000111
1.800000,0.800000,0.700057,0.080000,-8826788292.242355,4267474.605034,-7082321.412195,-5863650.340972,0.000096,-0.000118,-0.000110
1.880000,0.800000,0.620065,0.080000,-8826983990.318573,5579865.714248,-8398237.773885,-5554737.917979,0.000121,-0.000142,-0.000105
1.960000,0.800000,0.540074,0.080000,-8827233455.697086,6928078.578393,-9780152.024107,-4920026.616888,0.000147,-0.000168,-0.000093
2.040000,0.800000,0.460087,0.080000,-8827545211.376305,8203387.647487,-11045857.359388,-3967889.525512,0.000171,-0.000192,-0.000075
2.120000,0.800000,0.380106,0.080000,-8827927370.522982,9309156.626305,-12156781.619297,-2618211.004142,0.000191,-0.000213,-0.000049
-2.120000,0.880000,0.380000,0.080000,-8827579887.517702,10993830.199030,-13850982.820076,3795004.288180,0.000223,-0.000245,0.000072
-2.040000,0.880000,0.460000,0.080000,-8827222511.181702,9454236.341366,-12302056.800831,5387787.286840,0.000194,-0.000216,0.000102
-1.960000,0.880000,0.540000,0.080000,-8826943512.213495,7750753.885480,-10609670.124162,6438600.520885,0.000162,-0.000184,0.000121
-1.880000,0.880000,0.620000,0.080000,-8826732058.077908,6015327.922565,-8829749.451513,7063602.901329,0.000129,-0.000150,0.000133
-1.800000,0.880000,0.700000,0.080000,-8826577180.427572,4384864.583281,-7195377.727370,7279850.160819,0.000098,-0.000120,0.000137
-1.720000,0.880000,0.780000,0.080000,-8826468468.239986,2912300.797658,-5720898.966229,7188985.105811,0.000071,-0.000092,0.000135
-1.640000,0.880000,0.860000,0.080000,-8826396509.185892,1632173.882696,-4440350.677183,6876666.742592,0.000047,-0.000068,0.000130
-1.560000,0.880000,0.940000,0.080000,-8826353113.599922,553255.814818,-3362003.454722,6418611.223059,0.000026,-0.000047,0.000121
-1.480000,0.880000,1.020000,0.080000,-8826331373.589754,-332942.779889,-2476947.008455,5876628.901906,0.000010,-0.000031,0.000111
-1.400000,0.880000,1.100000,0.080000,-8826325611.212021,-1044959.579290,-1766330.724778,5297989.780683,-0.000004,-0.000017,0.000100
-1.320000,0.880000,1.120003,0.080000,-8826331261.705256,-1605972.257813,-1206766.963089,4716730.695997,-0.000014,-0.000007,0.000089
-1.240000,0.880000,1.120069,0.080000,-8826344726.415283,-2040141.632370,-773968.356026,4155844.863406,-0.000023,0.000001,0.000078
-1.160000,0.880000,1.120026,0.080000,-8826363218.929329,-2370389.884962,-444946.825954,3629666.459259,-0.000029,0.000008,0.000068
-1.080000,0.880000,1.120002,0.080000,-8826384618.772444,-2617231.431525,-199162.447933,3146070.384250,-0.000033,0.000012,0.000059
-1.000000,0.880000,1.120064,0.080000,-8826407340.269373,-2798310.161352,-18970.491902,2708320.535593,-0.000037,0.000016,0.000051
-0.920000,0.880000,1.120030,0.080000,-8826430219.628103,-2928371.258824,110361.528490,2316528.725455,-0.000039,0.000018,0.000044
-0.840000,0.880000,1.120001,0.080000,-8826452420.492842,-3019473.509327,200873.492295,1968753.615130,-0.000041,0.000020,0.000037
-0.760000,0.880000,1.120059,0.080000,-8826473356.651953,-3081313.535727,262241.385149,1661796.981008,-0.000042,0.000021,0.000031
-0.680000,0.880000,1.120033,0.080000,-8826492629.853374,-3121582.627702,302136.676160,1391760.308222,-0.000043,0.000022,0.000026
-0.600000,0.880000,1.120001,0.080000,-8826509980.459032,-3146311.075994,326571.915550,1154419.400325,-0.000043,0.000022,0.000022
-0.520000,0.880000,1.120054,0.080000,-8826525248.742353,-3160177.202293,340210.251069,945465.113099,-0.000044,0.000022,0.000018
-0.440000,0.880000,1.120037,0.080000,-8826538344.854378,-3166771.934835,346630.081795,760648.075541,-0.000044,0.000022,0.000014
-0.360000,0.880000,1.120000,0.080000,-8826549225.765158,-3168817.632666,348543.704886,595856.027825,-0.000044,0.000023,0.000011
-0.280000,0.880000,1.120050,0.080000,-8826557877.779301,-3168343.834704,347972.820206,447144.793552,-0.000044,0.000022,0.000008
-0.200000,0.880000,1.120041,0.080000,-8826564303.498995,-3166824.338998,346385.328498,310737.970096,-0.000044,0.000022,0.000006
-0.120000,0.880000,1.120000,0.080000,-8826568512.355745,-3165280.290601,344798.176039,183005.970992,-0.000044,0.000022,0.000003
-0.040000,0.880000,1.120045,0.080000,-8826570514.049536,-3164353.515325,343850.503913,60431.841319,-0.000044,0.000022,0.000001
0.040000,0.880000,1.120045,0.080000,-8826570314.424734,-3164353.481239,343850.468369,-60430.958901,-0.000044,0.000022,-0.000001
0.120000,0.880000,1.120000,0.080000,-8826567913.481575,-3165280.188192,344798.071577,-183005.051135,-0.000044,0.000022,-0.000003
0.200000,0.880000,1.120041,0.080000,-8826563305.376131,-3166824.169338,346385.158726,-310736.974441,-0.000044,0.000022,-0.000006
0.280000,0.880000,1.120050,0.080000,-8826556480.408823,-3168343.602440,347972.588583,-447143.681898,-0.000044,0.000022,-0.000008
0.360000,0.880000,1.120000,0.080000,-8826547429.148535,-3168817.345513,348543.417072,-595854.758199,-0.000044,0.000023,-0.000011
0.440000,0.880000,1.120037,0.080000,-8826536148.993452,-3166771.601334,346629.747665,-760646.603818,-0.000044,0.000022,-0.000014
0.520000,0.880000,1.120054,0.080000,-8826522653.639250,-3160176.835366,340209.882490,-945463.390816,-0.000044,0.000022,-0.000018
0.600000,0.880000,1.120001,0.080000,-8826506986.116100,-3146310.692395,326571.530383,-1154417.374906,-0.000043,0.000022,-0.000022
0.680000,0.880000,1.120033,0.080000,-8826489236.273071,-3121582.249577,302136.298508,-1391757.922914,-0.000043,0.000022,-0.000026
0.760000,0.880000,1.120059,0.080000,-8826469563.836651,-3081313.195674,262241.041867,-1661794.174093,-0.000042,0.000021,-0.000031
0.840000,0.880000,1.120001,0.080000,-8826448228.444717,-3019473.245782,200873.223728,-1968750.319784,-0.000041,0.000020,-0.000037
0.920000,0.880000,1.120030,0.080000,-8826425628.348854,-2928371.120694,110361.387233,-2316524.869912,-0.000039,0.000018,-0.000044
1.000000,0.880000,1.120064,0.080000,-8826402349.759832,-2798310.216521,-18970.442827,-2708316.044122,-0.000037,0.000016,-0.000051
1.080000,0.880000,1.120002,0.080000,-8826379229.032259,-2617231.762358,-199162.121481,-3146065.178887,-0.000033,0.000012,-0.000059
1.160000,0.880000,1.120026,0.080000,-8826357429.956310,-2370390.600438,-444946.118643,-3629660.462744,-0.000029,0.000008,-0.000068
1.240000,0.880000,1.120069,0.080000,-8826338538.204824,-2040142.863678,-773967.134123,-4155838.003578,-0.000023,0.000001,-0.000078
1.320000,0.880000,1.120003,0.080000,-8826324674.249407,-1605974.170523,-1206765.062652,-4716722.912829,-0.000014,-0.000007,-0.000089
1.400000,0.880000,1.100000,0.080000,-8826318624.498484,-1044962.371594,-1766327.946459,-5297981.035518,-0.000004,-0.000017,-0.000100
1.480000,0.880000,1.020000,0.080000,-8826323987.600569,-332946.687992,-2476943.117603,-5876619.190122,0.000010,-0.000031,-0.000111
1.560000,0.880000,0.940000,0.080000,-8826345328.309999,553250.520687,-3361998.178323,-6418600.590382,0.000026,-0.000047,-0.000121
1.640000,0.880000,0.860000,0.080000,-8826388324.561243,1632166.901854,-4440343.714623,-6876655.305026,0.000047,-0.000068,-0.000130
1.720000,0.880000,0.780000,0.080000,-8826459884.235819,2912291.814607,-5720890.001495,-7188973.071288,0.000071,-0.000092,-0.000135
1.800000,0.880000,0.700000,0.080000,-8826568196.986294,4384853.293800,-7195366.453819,-7279837.849297,0.000098,-0.000120,-0.000137
1.880000,0.880000,0.620000,0.080000,-8826722675.127163,6015314.068263,-8829735.610252,-7063590.760645,0.000129,-0.000150,-0.000133
1.960000,0.880000,0.540000,0.080000,-8826933729.664618,7750737.285375,-10609653.460717,-6438589.150820,0.000162,-0.000184,-0.000121
2.040000,0.880000,0.460000,0.080000,-8827212328.928564,9454217.008701,-12302037.422918,-5387777.323075,0.000194,-0.000216,-0.000102
2.120000,0.880000,0.380000,0.080000,-8827569305.436832,10993808.340691,-13850960.901149,-3794996.536349,0.000223,-0.000245,-0.000071
-2.120000,0.960000,0.380136,0.080000,-8827151369.416052,13020950.006159,-15891139.692342,5479863.048366,0.000262,-0.000283,0.000103
-2.040000,0.960000,0.460112,0.080000,-8826829123.569054,10868433.496943,-13722600.198002,7325414.045872,0.000221,-0.000242,0.000138
-1.960000,0.960000,0.540095,0.080000,-8826594271.706099,8587148.571245,-11453819.657847,8430534.490838,0.000178,-0.000200,0.000159
-1.880000,0.960000,0.620083,0.080000,-8826432312.378399,6354755.027190,-9162826.201978,8968497.506450,0.000136,-0.000157,0.000169
-1.800000,0.960000,0.700074,0.080000,-8826329138.308146,4338598.308818,-7142760.588425,9002801.116959,0.000098,-0.000119,0.000170
-1.720000,0.960000,0.780066,0.080000,-8826271870.392319,2587362.320706,-5390337.046355,8682281.218859,0.000065,-0.000086,0.000164
-1.640000,0.960000,0.860060,0.080000,-8826249308.744629,1123944.890485,-3927553.050705,8127247.242072,0.000037,-0.000058,0.000153
-1.560000,0.960000,0.940055,0.080000,-8826252084.557114,-60419.030270,-2744865.354606,7436484.367083,0.000015,-0.000036,0.000140
-1.480000,0.960000,1.020050,0.080000,-8826272608.635521,-992864.911292,-1814560.053490,6685033.683193,-0.000003,-0.000018,0.000126
-1.400000,0.960000,1.040025,0.080000,-8826304901.198933,-1708909.131843,-1100739.739940,5926090.504939,-0.000016,-0.000005,0.000112
-1.320000,0.960000,1.040003,0.080000,-8826344366.873011,-2245801.074061,-565933.216812,5194763.445483,-0.000026,0.000005,0.000098
-1.240000,0.960000,1.040075,0.080000,-8826387557.640104,-2638610.126819,-174962.366655,4512245.071216,-0.000034,0.000013,0.000085
-1.160000,0.960000,1.040028,0.080000,-8826431949.059879,-2918277.323790,103149.986841,3889620.672794,-0.000039,0.000018,0.000073
-1.080000,0.960000,1.040002,0.080000,-8826475742.471228,-3110940.522541,294535.756465,3330999.683779,-0.000043,0.000021,0.000063
-1.000000,0.960000,1.040069,0.080000,-8826517697.677444,-3238005.709589,420573.607843,2835918.755462,-0.000045,0.000024,0.000053
-0.920000,0.960000,1.040032,0.080000,-8826556995.784065,-3316602.154734,498357.068314,2401093.714987,-0.000047,0.000025,0.000045
-0.840000,0.960000,1.040001,0.080000,-8826593129.355371,-3360192.846269,541312.411377,2021643.449620,-0.000047,0.000026,0.000038
-0.760000,0.960000,1.040064,0.080000,-8826625816.028423,-3379207.608464,559835.614807,1691911.194214,-0.000048,0.000026,0.000032
-0.680000,0.960000,1.040036,0.080000,-8826654931.556564,-3381629.646114,561880.565729,1405992.071140,-0.000048,0.000027,0.000026
-0.600000,0.960000,1.040001,0.080000,-8826680458.538473,-3373505.287520,553469.186021,1158053.454778,-0.000048,0.000026,0.000022
-0.520000,0.960000,1.040058,0.080000,-8826702447.573299,-3359368.988927,539116.196346,942513.309111,-0.000047,0.000026,0.000018
-0.440000,0.960000,1.040040,0.080000,-8826720988.120195,-3342587.386685,522172.637298,754123.635438,-0.000047,0.000026,0.000014
-0.360000,0.960000,1.040000,0.080000,-8826736186.857050,-3325631.403172,505097.353542,587992.093812,-0.000047,0.000025,0.000011
-0.280000,0.960000,1.040053,0.080000,-8826748151.793304,-3310286.963868,489667.125131,439564.389407,-0.000046,0.000025,0.000008
-0.200000,0.960000,1.040044,0.080000,-8826756980.784721,-3297814.478814,477135.656477,304582.481017,-0.000046,0.000025,0.000006
-0.120000,0.960000,1.040000,0.080000,-8826762753.425962,-3289065.924386,468350.225849,179028.386352,-0.000046,0.000025,0.000003
-0.040000,0.960000,1.040049,0.080000,-8826765525.569866,-3284566.545505,463833.127528,59059.759447,-0.000046,0.000025,0.000001
0.040000,0.960000,1.040049,0.080000,-8826765325.947750,-3284566.491723,463833.073161,-59058.965569,-0.000046,0.000025,-0.000001
0.120000,0.960000,1.040000,0.080000,-8826762154.559990,-3289065.760946,468350.066273,-179027.553826,-0.000046,0.000025,-0.000003
0.200000,0.960000,1.040044,0.080000,-8826755982.675875,-3297814.211593,477135.388647,-304581.569946,-0.000046,0.000025,-0.000006
0.280000,0.960000,1.040053,0.080000,-8826746754.443316,-3310286.593313,489666.752959,-439563.358258,-0.000046,0.000025,-0.000008
0.360000,0.960000,1.040000,0.080000,-8826734390.268301,-3325630.932284,505096.882289,-587990.898777,-0.000047,0.000025,-0.000011
0.440000,0.960000,1.040040,0.080000,-8826718792.295710,-3342586.819896,522172.073354,-754122.229118,-0.000047,0.000026,-0.000014
0.520000,0.960000,1.040058,0.080000,-8826699852.516659,-3359368.337470,539115.544741,-942511.639494,-0.000047,0.000026,-0.000018
0.600000,0.960000,1.040001,0.080000,-8826677464.253847,-3373504.563144,553468.460064,-1158051.465038,-0.000048,0.000026,-0.000022
0.680000,0.960000,1.040036,0.080000,-8826651538.048595,-3381628.865001,561879.783580,-1405989.698257,-0.000048,0.000027,-0.000026
0.760000,0.960000,1.040064,0.080000,-8826622023.302101,-3379206.794491,559834.799748,-1691908.368089,-0.000048,0.000026,-0.000032
0.840000,0.960000,1.040001,0.080000,-8826588937.415886,-3360192.033181,541311.596307,-2021640.093455,-0.000047,0.000026,-0.000038
0.920000,0.960000,1.040032,0.080000,-8826552404.636604,-3316601.387115,498356.297619,-2401089.743750,-0.000047,0.000025,-0.000045
1.000000,0.960000,1.040069,0.080000,-8826512707.326893,-3238005.048506,420572.941098,-2835914.075874,-0.000045,0.000024,-0.000053
1.080000,0.960000,1.040002,0.080000,-8826470352.921801,-3110940.048452,294535.275962,-3330994.196236,-0.000043,0.000021,-0.000063
1.160000,0.960000,1.040028,0.080000,-8826426160.314581,-2918277.142675,103149.799024,-3889614.273327,-0.000039,0.000018,-0.000073
1.240000,0.960000,1.040075,0.080000,-8826381369.700024,-2638610.378924,-174962.125764,-4512237.655491,-0.000034,0.000013,-0.000085
1.320000,0.960000,1.040003,0.080000,-8826337779.736494,-2245801.936171,-565932.367111,-5194754.915375,-0.000026,0.000005,-0.000098
1.400000,0.960000,1.040025,0.080000,-8826297914.860369,-1708910.829780,-1100738.058728,-5926080.779038,-0.000016,-0.000005,-0.000112
1.480000,0.960000,1.020050,0.080000,-8826265223.083956,-992867.721644,-1814557.263837,-6685022.711507,-0.000003,-0.000018,-0.000126
1.560000,0.960000,0.940055,0.080000,-8826244299.774454,-60423.286428,-2744861.122329,-7436472.150503,0.000015,-0.000036,-0.000140
1.640000,0.960000,0.860060,0.080000,-8826241124.703514,1123938.801431,-3927546.986470,-8127233.860147,0.000037,-0.000058,-0.000153
1.720000,0.960000,0.780066,0.080000,-8826263287.053629,2587353.968678,-5390328.718640,-8682266.862056,0.000065,-0.000086,-0.000164
1.800000,0.960000,0.700074,0.080000,-8826320155.618254,4338587.246604,-7142749.550388,-9002786.121280,0.000098,-0.000119,-0.000170
1.880000,0.960000,0.620083,0.080000,-8826422930.266365,6354740.838113,-9162812.031684,-8968482.386201,0.000136,-0.000157,-0.000169
1.960000,0.960000,0.540095,0.080000,-8826584490.081009,8587130.903254,-11453801.915456,-8430519.979759,0.000178,-0.000200,-0.000159
2.040000,0.960000,0.460112,0.080000,-8826818942.317965,10868412.239264,-13722578.888128,-7325400.983934,0.000221,-0.000242,-0.000138
2.120000,0.960000,0.380136,0.080000,-8827140788.403238,13020925.306553,-15891114.914819,-5479852.528738,0.000262,-0.000283,-0.000103
-2.120000,1.040000,0.380136,0.080000,-8826639453.069601,15428492.942814,-18316466.385155,7902730.906407,0.000307,-0.000329,0.000149
-2.040000,1.040000,0.460112,0.080000,-8826366255.611967,12406242.801302,-15267475.300543,9977818.065674,0.000250,-0.000271,0.000188
-1.960000,1.040000,0.540095,0.080000,-8826190262.127220,9348798.652554,-12223559.455031,11042520.813273,0.000192,-0.000214,0.000208
-1.880000,1.040000,0.620083,0.080000,-8826092042.792673,6488756.501204,-9286870.167127,11361634.497025,0.000138,-0.000159,0.000214
-1.800000,1.040000,0.700074,0.080000,-8826053524.223217,4019582.901521,-6814663.313614,11078266.079134,0.000092,-0.000113,0.000209
-1.720000,1.040000,0.780066,0.080000,-8826058923.248259,1969400.016491,-4764954.360945,10406327.257916,0.000053,-0.000074,0.000196
-1.640000,1.040000,0.860060,0.080000,-8826095117.148361,333704.526351,-3131736.688628,9509505.279591,0.000022,-0.000043,0.000179
-1.560000,1.040000,0.940055,0.080000,-8826151623.749670,-927309.995310,-1874080.559791,8511372.165320,-0.000002,-0.000019,0.000160
-1.480000,1.040000,0.960087,0.080000,-8826220353.385836,-1869399.891924,-935503.584520,7497922.150624,-0.000019,-0.000002,0.000141
-1.400000,1.040000,0.960027,0.080000,-8826295256.441866,-2551593.948207,-256570.605616,6524280.159204,-0.000032,0.000011,0.000123
-1.320000,1.040000,0.960004,0.080000,-8826371948.048107,-3028991.664206,218003.309516,5622333.632544,-0.000041,0.000020,0.000106
-1.240000,1.040000,0.960081,0.080000,-8826447356.589802,-3349402.299403,536077.213949,4807618.678627,-0.000047,0.000026,0.000091
-1.160000,1.040000,0.960031,0.080000,-8826519418.048922,-3552372.912248,737174.197077,4084835.552554,-0.000051,0.000030,0.000077
-1.080000,1.040000,0.960002,0.080000,-8826586822.770628,-3669534.173325,852867.183753,3451940.231252,-0.000053,0.000032,0.000065
-1.000000,1.040000,0.960075,0.080000,-8826648812.684338,-3725562.059102,907764.102789,2903011.796594,-0.000054,0.000033,0.000055
-0.920000,1.040000,0.960035,0.080000,-8826705022.968624,-3739338.342347,920680.809482,2430167.587552,-0.000055,0.000033,0.000046
-0.840000,1.040000,0.960001,0.080000,-8826755360.809641,-3725086.257154,905782.402285,2024783.683868,-0.000054,0.000033,0.000038
-0.760000,1.040000,0.960069,0.080000,-8826799914.020214,-3693377.708571,873592.242232,1678231.615247,-0.000054,0.000032,0.000032
-0.680000,1.040000,0.960039,0.080000,-8826838883.085213,-3651977.068276,831835.579322,1382290.520079,-0.000053,0.000032,0.000026
-0.600000,1.040000,0.960001,0.080000,-8826872531.232212,-3606522.502904,786119.820101,1129348.734118,-0.000052,0.000031,0.000021
-0.520000,1.040000,0.960063,0.080000,-8826901148.160847,-3561062.156617,740469.381513,912473.280405,-0.000051,0.000030,0.000017
-0.440000,1.040000,0.960043,0.080000,-8826925023.990768,-3518468.096404,697738.285316,725399.584580,-0.000050,0.000029,0.000014
-0.360000,1.040000,0.960000,0.080000,-8826944430.771618,-3480750.809460,659923.527377,562475.276750,-0.000050,0.000028,0.000011
-0.280000,1.040000,0.960058,0.080000,-8826959609.534157,-3449294.597657,628399.469893,418579.310236,-0.000049,0.000028,0.000008
-0.200000,1.040000,0.960048,0.080000,-8826970761.371109,-3425030.602584,604090.136829,289029.186489,-0.000049,0.000027,0.000005
-0.120000,1.040000,0.960000,0.080000,-8826978041.434946,-3408560.778437,587592.599175,169483.550130,-0.000048,0.000027,0.000003
-0.040000,1.040000,0.960053,0.080000,-8826981555.056208,-3400242.754087,579261.447054,55843.878905,-0.000048,0.000027,0.000001
0.040000,1.040000,0.960053,0.080000,-8826981355.436422,-3400242.681558,579261.372942,-55843.212486,-0.000048,0.000027,-0.000001
0.120000,1.040000,0.960000,0.080000,-8826977442.576082,-3408560.558760,587592.378648,-169482.844541,-0.000048,0.000027,-0.000003
0.200000,1.040000,0.960048,0.080000,-8826969763.274582,-3425030.234957,604089.770189,-289028.401187,-0.000049,0.000027,-0.000005
0.280000,1.040000,0.960058,0.080000,-8826958212.202303,-3449294.083440,628398.956061,-418578.403288,-0.000049,0.000028,-0.000008
0.360000,1.040000,0.960000,0.080000,-8826942634.207726,-3480750.149495,659922.867440,-562474.203340,-0.000050,0.000028,-0.000011
0.440000,1.040000,0.960043,0.080000,-8826922828.199070,-3518467.291318,697737.480697,-725398.294855,-0.000050,0.000029,-0.000014
0.520000,1.040000,0.960063,0.080000,-8826898553.146456,-3561061.212862,740468.431977,-912471.719909,-0.000051,0.000030,-0.000017
0.600000,1.040000,0.960001,0.080000,-8826869537.001249,-3606521.421080,786118.737564,-1129346.842927,-0.000052,0.000031,-0.000021
0.680000,1.040000,0.960039,0.080000,-8826835489.644558,-3651975.861568,831834.368841,-1382288.229816,-0.000053,0.000032,-0.000026
0.760000,1.040000,0.960069,0.080000,-8826796121.377625,-3693376.389788,873590.921452,-1678228.848071,-0.000054,0.000032,-0.000032
0.840000,1.040000,0.960001,0.080000,-8826751168.973549,-3725084.850578,905780.995571,-2024780.352375,-0.000054,0.000033,-0.000038
0.920000,1.040000,0.960035,0.080000,-8826700431.947996,-3739336.884698,920679.349514,-2430163.593215,-0.000055,0.000033,-0.000046
1.000000,1.040000,0.960075,0.080000,-8826643822.488480,-3725560.601677,907762.639953,-2903007.028407,-0.000054,0.000033,-0.000055
1.080000,1.040000,0.960002,0.080000,-8826581433.408861,-3669532.787137,852865.792299,-3451934.566100,-0.000053,0.000032,-0.000065
1.160000,1.040000,0.960031,0.080000,-8826513629.530077,-3552371.697762,737172.975777,-4084828.855663,-0.000051,0.000030,-0.000077
1.240000,1.040000,0.960081,0.080000,-8826441168.921587,-3349401.394843,536076.297594,-4807610.806702,-0.000047,0.000026,-0.000091
1.320000,1.040000,0.960004,0.080000,-8826365361.236263,-3028991.253243,218002.883665,-5622324.439901,-0.000041,0.000020,-0.000106
1.400000,1.040000,0.960027,0.080000,-8826288270.488955,-2551594.273021,-256570.296964,-6524269.506782,-0.000032,0.000011,-0.000123
1.480000,1.040000,0.960087,0.080000,-8826212968.289646,-1869401.268664,-935502.229181,-7497909.921885,-0.000019,-0.000002,-0.000141
1.560000,1.040000,0.940055,0.080000,-8826143839.501242,-927312.822089,-1874077.760958,-8511358.290340,-0.000002,-0.000019,-0.000160
1.640000,1.040000,0.860060,0.080000,-8826086933.729435,333699.763404,-3131731.959065,-9509489.768967,0.000022,-0.000043,-0.000179
1.720000,1.040000,0.780066,0.080000,-8826050340.628157,1969392.747080,-4764947.128631,-10406310.248400,0.000053,-0.000074,-0.000196
1.800000,1.040000,0.700074,0.080000,-8826044542.355190,4019572.492664,-6814652.944396,-11078247.888505,0.000092,-0.000113,-0.000209
1.880000,1.040000,0.620083,0.080000,-8826082661.609892,6488742.308360,-9286856.010027,-11361615.683869,0.000138,-0.000159,-0.000214
1.960000,1.040000,0.540095,0.080000,-8826180481.538670,9348780.063862,-12223540.782620,-11042502.249334,0.000192,-0.000214,-0.000208
2.040000,1.040000,0.460112,0.080000,-8826356075.498816,12406219.482230,-15267451.919627,-9977800.847207,0.000250,-0.000271,-0.000188
2.120000,1.040000,0.380136,0.080000,-8826628873.282986,15428464.894334,-18316438.229657,-7902716.514894,0.000307,-0.000329,-0.000149
-2.120000,1.120000,0.380000,0.080000,-8826028799.527437,18222730.863781,-21134748.258870,11405497.338563,0.000360,-0.000382,0.000215
-2.040000,1.120000,0.460000,0.080000,-8825824203.958601,13964800.704934,-16832947.931299,13614487.802057,0.000279,-0.000301,0.000257
-1.960000,1.120000,0.540000,0.080000,-8825726768.905615,9876217.294397,-12758037.252199,14454893.477169,0.000202,-0.000224,0.000272
-1.880000,1.120000,0.620000,0.080000,-8825710514.851418,6245197.409355,-9028134.223866,14337987.782721,0.000133,-0.000154,0.000270
-1.800000,1.120000,0.700000,0.080000,-8825752491.845930,3271535.367763,-6054061.656253,13536324.097353,0.000077,-0.000098,0.000255
-1.720000,1.120000,0.780000,0.080000,-8825833672.969418,931262.831719,-3717461.944652,12348342.131454,0.000033,-0.000054,0.000233
-1.640000,1.120000,0.860000,0.080000,-8825939060.230057,-833678.236881,-1957965.914840,10986725.081570,0.000000,-0.000021,0.000207
-1.560000,1.120000,0.880006,0.080000,-8826057326.768179,-2113516.165469,-683879.653635,9596431.737569,-0.000024,0.000003,0.000181
-1.480000,1.120000,0.880095,0.080000,-8826180248.238670,-3005071.145199,202401.011882,8267170.782325,-0.000041,0.000020,0.000156
-1.400000,1.120000,0.880029,0.080000,-8826302087.960627,-3597797.848928,790658.463206,7048103.185897,-0.000052,0.000031,0.000133
-1.320000,1.120000,0.880004,0.080000,-8826419026.458429,-3967760.629501,1157019.483075,5960918.408256,-0.000059,0.000038,0.000112
-1.240000,1.120000,0.880088,0.080000,-8826528675.081444,-4176303.081820,1362757.146699,5009980.483758,-0.000063,0.000042,0.000094
-1.160000,1.120000,0.880033,0.080000,-8826629683.012230,-4271118.238102,1455441.388422,4189551.128482,-0.000065,0.000043,0.000079
-1.080000,1.120000,0.880003,0.080000,-8826721431.304663,-4288301.081431,1471035.102545,3488613.004021,-0.000065,0.000044,0.000066
-1.000000,1.120000,0.880081,0.080000,-8826803801.084780,-4254601.909417,1436168.105016,2893916.149573,-0.000064,0.000043,0.000055
-0.920000,1.120000,0.880038,0.080000,-8826877001.622311,-4189503.499482,1370221.916829,2391794.130058,-0.000063,0.000042,0.000045
-0.840000,1.120000,0.880002,0.080000,-8826941445.028067,-4106977.212198,1287086.823480,1969169.810393,-0.000061,0.000040,0.000037
-0.760000,1.120000,0.880075,0.080000,-8826997656.345875,-4016893.936428,1196570.811824,1614049.550505,-0.000060,0.000038,0.000030
-0.680000,1.120000,0.880042,0.080000,-8827046209.997395,-3926121.072884,1105493.511299,1315707.712222,-0.000058,0.000037,0.000025
-0.600000,1.120000,0.880001,0.080000,-8827087685.541294,-3839356.401505,1018516.983112,1064692.592163,-0.000056,0.000035,0.000020
-0.520000,1.120000,0.880069,0.080000,-8827122637.391375,-3759751.706574,938766.628367,852736.027727,-0.000055,0.000034,0.000016
-0.440000,1.120000,0.880047,0.080000,-8827151574.485693,-3689373.366660,868289.522240,672616.478259,-0.000054,0.000032,0.000013
-0.360000,1.120000,0.880000,0.080000,-8827174946.945658,-3629538.874733,808389.194257,518004.465156,-0.000052,0.000031,0.000010
-0.280000,1.120000,0.880063,0.080000,-8827193137.560230,-3581060.067244,759867.512010,383306.111129,-0.000052,0.000030,0.000007
-0.200000,1.120000,0.880052,0.080000,-8827206456.530573,-3544416.508061,723197.075545,263512.441052,-0.000051,0.000030,0.000005
-0.120000,1.120000,0.880000,0.080000,-8827215138.359310,-3519876.435789,698641.447282,154057.256722,-0.000050,0.000029,0.000003
-0.040000,1.120000,0.880057,0.080000,-8827219340.106134,-3507577.759645,686335.671802,50683.565380,-0.000050,0.000029,0.000001
0.040000,1.120000,0.880057,0.080000,-8827219140.488230,-3507577.666556,686335.579651,-50683.065055,-0.000050,0.000029,-0.000001
0.120000,1.120000,0.880000,0.080000,-8827214539.506178,-3519876.156676,698641.168645,-154056.718070,-0.000050,0.000029,-0.000003
0.200000,1.120000,0.880052,0.080000,-8827205458.443983,-3544416.042477,723196.607012,-263511.823860,-0.000051,0.000030,-0.000005
0.280000,1.120000,0.880063,0.080000,-8827191740.243214,-3581059.409409,759866.855366,-383305.373459,-0.000052,0.000030,-0.000007
0.360000,1.120000,0.880000,0.080000,-8827173150.402393,-3629538.024318,808388.343765,-518003.561819,-0.000052,0.000031,-0.000010
0.440000,1.120000,0.880047,0.080000,-8827149378.721630,-3689372.319591,868288.473775,-672615.359254,-0.000054,0.000032,-0.000013
0.520000,1.120000,0.880069,0.080000,-8827120042.413231,-3759750.458864,938765.379989,-852734.637398,-0.000055,0.000034,-0.000016
0.600000,1.120000,0.880001,0.080000,-8827084691.357069,-3839354.950670,1018515.534663,-1064690.867792,-0.000056,0.000035,-0.000020
0.680000,1.120000,0.880042,0.080000,-8827042816.616335,-3926119.422084,1105491.859332,-1315705.581570,-0.000058,0.000037,-0.000025
0.760000,1.120000,0.880075,0.080000,-8826993863.778564,-4016892.088870,1196568.962539,-1614046.929705,-0.000060,0.000038,-0.000030
0.840000,1.120000,0.880002,0.080000,-8826937253.286346,-4106975.177932,1287084.790740,-1969166.602586,-0.000061,0.000040,-0.000037
0.920000,1.120000,0.880038,0.080000,-8826872410.719154,-4189501.302022,1370219.718108,-2391790.223483,-0.000063,0.000042,-0.000045
1.000000,1.120000,0.880081,0.080000,-8826798811.034250,-4254599.583317,1436165.777130,-2893911.415967,-0.000064,0.000043,-0.000055
1.080000,1.120000,0.880003,0.080000,-8826716042.121603,-4288298.685223,1471032.700801,-3488607.295926,-0.000065,0.000044,-0.000066
1.160000,1.120000,0.880033,0.080000,-8826623894.711966,-4271115.855348,1455438.998253,-4189544.277950,-0.000065,0.000043,-0.000079
1.240000,1.120000,0.880088,0.080000,-8826522487.679171,-4176300.838492,1362754.891249,-5009972.303643,-0.000063,0.000042,-0.000094
1.320000,1.120000,0.880004,0.080000,-8826412439.968475,-3967758.702245,1157017.543337,-5960908.695178,-0.000059,0.000038,-0.000112
1.400000,1.120000,0.880029,0.080000,-8826295102.395205,-3597796.490053,790657.085041,-7048091.727478,-0.000052,0.000031,-0.000133
1.480000,1.120000,0.880095,0.080000,-8826172863.606369,-3005070.694401,202400.535569,-8267157.372184,-0.000041,0.000020,-0.000156
1.560000,1.120000,0.880006,0.080000,-8826049543.071711,-2113517.077986,-683878.776067,-9596416.200805,-0.000024,0.000003,-0.000181
1.640000,1.120000,0.860000,0.080000,-8825930877.463406,-833681.097934,-1957963.093764,-10986707.314665,0.000000,-0.000021,-0.000207
1.720000,1.120000,0.780000,0.080000,-8825825091.113981,931257.287667,-3717456.450373,-12348322.161194,0.000033,-0.000054,-0.000233
1.800000,1.120000,0.700000,0.080000,-8825743510.865934,3271526.273715,-6054052.617874,-13536302.161824,0.000077,-0.000098,-0.000255
1.880000,1.120000,0.620000,0.080000,-8825701134.688305,6245183.803972,-9028120.677298,-14337964.430968,0.000133,-0.000154,-0.000270
1.960000,1.120000,0.540000,0.080000,-8825716989.472031,9876198.175972,-12758018.038695,-14454869.691970,0.000202,-0.000224,-0.000272
2.040000,1.120000,0.460000,0.080000,-8825814025.132259,13964775.350623,-16832922.502884,-13614464.980773,0.000279,-0.000301,-0.000257
2.120000,1.120000,0.380000,0.080000,-8826018221.146446,18222698.961737,-21134716.214366,-11405477.473837,0.000360,-0.000382,-0.000215
-2.120000,1.200000,0.380106,0.080000,-8825301678.102650,21326952.551034,-24270862.978811,16495599.169383,0.000418,-0.000441,0.000311
-2.040000,1.200000,0.460087,0.080000,-8825193243.870478,15321785.199630,-18194657.275278,18593834.865342,0.000305,-0.000327,0.000350
-1.960000,1.200000,0.540074,0.080000,-8825200674.430195,9894020.145641,-12779119.043523,18872928.761539,0.000203,-0.000224,0.000356
-1.880000,1.200000,0.620065,0.080000,-8825289475.324387,5361548.589880,-8122209.103329,17974112.863799,0.000117,-0.000137,0.000339
-1.800000,1.200000,0.700057,0.080000,-8825430983.552288,1878514.826309,-4644542.798249,16368430.284681,0.000051,-0.000072,0.000308
-1.720000,1.200000,0.780051,0.080000,-8825602878.589048,-687150.297365,-2088069.124149,14452475.944997,0.000003,-0.000024,0.000272
-1.640000,1.200000,0.800028,0.080000,-8825788687.384888,-2486934.283777,-298129.855506,12483393.637398,-0.000031,0.000010,0.000235
-1.560000,1.200000,0.800006,0.080000,-8825976833.909107,-3686561.944244,892608.797415,10613778.078811,-0.000054,0.000033,0.000200
-1.480000,1.200000,0.800105,0.080000,-8826159588.385490,-4437216.751398,1635932.487242,8921751.754586,-0.000068,0.000047,0.000168
-1.400000,1.200000,0.800032,0.080000,-8826332103.545118,-4864254.217324,2057251.844685,7437253.574224,-0.000076,0.000055,0.000140
-1.320000,1.200000,0.800004,0.080000,-8826491612.826078,-5065655.632592,2254356.995466,6161651.689518,-0.000080,0.000058,0.000116
-1.240000,1.200000,0.800097,0.080000,-8826636802.222721,-5114999.889285,2300558.356196,5081012.940709,-0.000080,0.000059,0.000096
-1.160000,1.200000,0.800037,0.080000,-8826767337.799438,-5065949.971324,2249255.482673,4174445.393124,-0.000080,0.000058,0.000079
-1.080000,1.200000,0.800003,0.080000,-8826883520.671463,-4956753.808083,2138470.915263,3419004.085568,-0.000077,0.000056,0.000064
-1.000000,1.200000,0.800090,0.080000,-8826986040.858953,-4814137.762964,1994751.512761,2792363.497760,-0.000075,0.000054,0.000053
-0.920000,1.200000,0.800041,0.080000,-8827075805.150934,-4656427.290898,1836285.741630,2274116.673006,-0.000072,0.000051,0.000043
-0.840000,1.200000,0.800002,0.080000,-8827153818.991299,-4495937.077050,1675286.610013,1846271.937159,-0.000069,0.000048,0.000035
-0.760000,1.200000,0.800083,0.080000,-8827221107.047371,-4340748.964737,1519761.878920,1493307.187380,-0.000066,0.000045,0.000028
-0.680000,1.200000,0.800046,0.080000,-8827278661.036633,-4196008.530850,1374803.851010,1201999.309792,-0.000063,0.000042,0.000023
-0.600000,1.200000,0.800001,0.080000,-8827327406.472469,-4064857.467105,1243516.288097,961154.921938,-0.000061,0.000039,0.000018
-0.520000,1.200000,0.800076,0.080000,-8827368182.328066,-3949097.123101,1127673.723196,761312.183630,-0.000058,0.000037,0.000014
-0.440000,1.200000,0.800052,0.080000,-8827401729.346617,-3849656.760412,1028186.603692,594449.619183,-0.000057,0.000035,0.000011
-0.360000,1.200000,0.800000,0.080000,-8827428683.981377,-3766921.523309,945426.974494,453718.278706,-0.000055,0.000034,0.000009
-0.280000,1.200000,0.800069,0.080000,-8827449575.852707,-3700960.270831,879454.666451,333202.557915,-0.000054,0.000033,0.000006
-0.200000,1.200000,0.800057,0.080000,-8827464827.254028,-3651682.101550,830172.672192,227709.083216,-0.000053,0.000032,0.000004
-0.120000,1.200000,0.800000,0.080000,-8827474753.697653,-3618941.944928,797431.931533,132580.084801,-0.000052,0.000031,0.000002
-0.040000,1.200000,0.800063,0.080000,-8827479564.820066,-3602609.253394,781099.510370,43526.308379,-0.000052,0.000031,0.000001
0.040000,1.200000,0.800063,0.080000,-8827479365.203438,-3602609.140960,781099.399735,-43526.013070,-0.000052,0.000031,-0.000001
0.120000,1.200000,0.800000,0.080000,-8827474154.848465,-3618941.607726,797431.596124,-132579.752604,-0.000052,0.000031,-0.000002
0.200000,1.200000,0.800057,0.080000,-8827463829.174435,-3651681.536279,830172.108304,-227708.675745,-0.000053,0.000032,-0.000004
0.280000,1.200000,0.800069,0.080000,-8827448178.546314,-3700959.473236,879453.869165,-333202.034440,-0.000054,0.000033,-0.000006
0.360000,1.200000,0.800000,0.080000,-8827426887.453310,-3766920.484377,945425.937885,-453717.595295,-0.000055,0.000034,-0.000009
0.440000,1.200000,0.800052,0.080000,-8827399533.603497,-3849655.472867,1028185.315538,-594448.726995,-0.000057,0.000035,-0.000011
0.520000,1.200000,0.800076,0.080000,-8827365587.378168,-3949095.574260,1127672.176491,-761311.027003,-0.000058,0.000037,-0.000014
0.600000,1.200000,0.800001,0.080000,-8827324412.325682,-4064855.648611,1243514.471341,-961153.436402,-0.000061,0.000039,-0.000018
0.680000,1.200000,0.800046,0.080000,-8827275267.704617,-4196006.430177,1374801.755196,-1201997.420877,-0.000063,0.000042,-0.000023
0.760000,1.200000,0.800083,0.080000,-8827217314.543503,-4340746.578328,1519759.490628,-1493304.808072,-0.000066,0.000045,-0.000028
0.840000,1.200000,0.800002,0.080000,-8827149627.330898,-4495934.397210,1675283.928810,-1846268.963871,-0.000069,0.000048,-0.000035
0.920000,1.200000,0.800041,0.080000,-8827071214.351154,-4656424.320200,1836282.769123,-2274112.983080,-0.000072,0.000051,-0.000043
1.000000,1.200000,0.800090,0.080000,-8826981050.938795,-4814134.516823,1994748.262153,-2792358.946704,-0.000075,0.000054,-0.000053
1.080000,1.200000,0.800003,0.080000,-8826878131.651743,-4956750.315473,2138467.423009,-3418998.502400,-0.000077,0.000056,-0.000064
1.160000,1.200000,0.800037,0.080000,-8826761549.702417,-5065946.297026,2249251.801779,-4174438.576653,-0.000080,0.000058,-0.000079
1.240000,1.200000,0.800097,0.080000,-8826630615.071915,-5114996.129889,2300554.588000,-5081004.657039,-0.000080,0.000059,-0.000096
1.320000,1.200000,0.800004,0.080000,-8826485026.645491,-5065651.944558,2254353.295141,-6161641.670308,-0.000080,0.000058,-0.000116
1.400000,1.200000,0.800032,0.080000,-8826325118.358253,-4864250.837332,2057248.444641,-7437241.519914,-0.000076,0.000055,-0.000140
1.480000,1.200000,0.800105,0.080000,-8826152204.213881,-4437214.022158,1635929.731036,-8921737.344659,-0.000068,0.000047,-0.000168
1.560000,1.200000,0.800006,0.080000,-8825969050.770031,-3686560.356539,892607.171050,-10613760.994091,-0.000054,0.000033,-0.000200
1.640000,1.200000,0.800028,0.080000,-8825780505.288275,-2486934.512444,-298129.678526,-12483373.601214,-0.000031,0.000010,-0.000235
1.720000,1.200000,0.780051,0.080000,-8825594297.533133,-687153.240251,-2088066.245679,-14452452.792851,0.000003,-0.000024,-0.000272
1.800000,1.200000,0.700057,0.080000,-8825422003.517801,1878508.021324,-4644536.074870,-16368404.073499,0.000051,-0.000072,-0.000308
1.880000,1.200000,0.620065,0.080000,-8825280096.267332,5361536.551690,-8122197.152829,-17974084.024152,0.000117,-0.000137,-0.000339
1.960000,1.200000,0.540074,0.080000,-8825190896.272982,9894001.293805,-12779100.093852,-18872898.296634,0.000203,-0.000224,-0.000356
2.040000,1.200000,0.460087,0.080000,-8825183066.492453,15321758.170040,-18194630.164991,-18593804.481782,0.000305,-0.000327,-0.000350
2.120000,1.200000,0.380106,0.080000,-8825291101.331165,21326916.424430,-24270826.661299,-16495571.497535,0.000418,-0.000441,-0.000311
-2.120000,1.280000,0.380169,0.080000,-8824438536.210651,24472931.071673,-27457583.084228,23915912.129358,0.000478,-0.000500,0.000451
-2.040000,1.280000,0.460140,0.080000,-8824465131.777950,16036590.378355,-18907877.888103,25365205.713587,0.000318,-0.000340,0.000478
-1.960000,1.280000,0.540119,0.080000,-8824612270.703585,8945023.740388,-11824690.986412,24492934.355126,0.000185,-0.000207,0.000461
-1.880000,1.280000,0.620104,0.080000,-8824834855.316513,3453242.608494,-6182999.681327,22283750.264009,0.000080,-0.000101,0.000420
-1.800000,1.280000,0.700092,0.080000,-8825098117.931433,-442501.263975,-2303546.174927,19488717.211014,0.000007,-0.000028,0.000367
-1.720000,1.280000,0.720125,0.080000,-8825377032.579159,-3073068.079702,309217.976625,16592235.421005,-0.000042,0.000021,0.000313
-1.640000,1.280000,0.720031,0.080000,-8825654659.642035,-4737448.679216,1957844.836065,13868346.645954,-0.000074,0.000053,0.000261
-1.560000,1.280000,0.720007,0.080000,-8825920254.188234,-5704023.722261,2911869.029767,11445726.135994,-0.000092,0.000071,0.000216
-1.480000,1.280000,0.720116,0.080000,-8826167555.831650,-6188309.044069,3386760.345644,9364241.470100,-0.000101,0.000080,0.000176
-1.400000,1.280000,0.720036,0.080000,-8826393409.539616,-6352251.626123,3543953.895783,7615109.225918,-0.000104,0.000083,0.000143
-1.320000,1.280000,0.720005,0.080000,-8826596726.295658,-6312299.422177,3499292.097341,6166368.357680,-0.000103,0.000082,0.000116
-1.240000,1.280000,0.720108,0.080000,-8826777734.270203,-6149547.949689,3333327.876802,4977702.597518,-0.000100,0.000079,0.000094
-1.160000,1.280000,0.720041,0.080000,-8826937456.561287,-5919037.255048,3100668.503323,4008361.841464,-0.000096,0.000074,0.000076
-1.080000,1.280000,0.720003,0.080000,-8827077356.324131,-5657253.805186,2837476.145596,3220942.408434,-0.000091,0.000069,0.000061
-1.000000,1.280000,0.720100,0.080000,-8827199101.289129,-5387789.932568,2567109.059595,2582836.902613,-0.000086,0.000064,0.000049
-0.920000,1.280000,0.720046,0.080000,-8827304411.346607,-5125444.954905,2304201.624869,2066459.149120,-0.000081,0.000059,0.000039
-0.840000,1.280000,0.720002,0.080000,-8827394962.826548,-4879121.451889,2057542.032791,1648883.464275,-0.000076,0.000055,0.000031
-0.760000,1.280000,0.720092,0.080000,-8827472330.826323,-4653835.360238,1832067.804315,1311249.916830,-0.000072,0.000050,0.000025
-0.680000,1.280000,0.720052,0.080000,-8827537956.632406,-4452093.922258,1630232.864190,1038118.160755,-0.000068,0.000047,0.000020
-0.600000,1.280000,0.720001,0.080000,-8827593131.351646,-4274831.389821,1452935.479397,816856.914309,-0.000065,0.000043,0.000015
-0.520000,1.280000,0.720084,0.080000,-8827638989.715351,-4122039.460183,1300143.208217,637104.308888,-0.000062,0.000040,0.000012
-0.440000,1.280000,0.720058,0.080000,-8827676509.988138,-3993188.911399,1171310.745291,490307.507064,-0.000059,0.000038,0.000009
-0.360000,1.280000,0.720000,0.080000,-8827706517.259708,-3887509.435812,1065657.159007,369337.078668,-0.000057,0.000036,0.000007
-0.280000,1.280000,0.720077,0.080000,-8827729688.312414,-3804173.719499,982348.182752,268166.156948,-0.000056,0.000034,0.000005
-0.200000,1.280000,0.720064,0.080000,-8827746556.875956,-3742417.106755,920614.697935,181602.739860,-0.000055,0.000033,0.000003
-0.120000,1.280000,0.720000,0.080000,-8827757518.495577,-3701614.044884,879828.364848,105063.640167,-0.000054,0.000033,0.000002
-0.040000,1.280000,0.720070,0.080000,-8827762834.520145,-3681325.326273,859548.377860,34379.422034,-0.000053,0.000032,0.000001
0.040000,1.280000,0.720070,0.080000,-8827762634.904068,-3681325.196726,859548.248874,-34379.368742,-0.000053,0.000032,-0.000001
0.120000,1.280000,0.720000,0.080000,-8827756919.648169,-3701613.654718,879827.974880,-105063.552310,-0.000054,0.000033,-0.000002
0.200000,1.280000,0.720064,0.080000,-8827745558.799707,-3742416.451545,920614.040752,-181602.582196,-0.000055,0.000033,-0.000003
0.280000,1.280000,0.720077,0.080000,-8827728291.011551,-3804172.789325,982347.252766,-268165.891864,-0.000056,0.000034,-0.000005
0.360000,1.280000,0.720000,0.080000,-8827704720.740183,-3887508.219356,1065655.943977,-369336.664456,-0.000057,0.000036,-0.000007
0.440000,1.280000,0.720058,0.080000,-8827674314.257742,-3993187.393435,1171309.229807,-490306.896956,-0.000059,0.000038,-0.000009
0.520000,1.280000,0.720084,0.080000,-8827636394.783785,-4122037.624541,1300141.373295,-637103.449104,-0.000062,0.000040,-0.000012
0.600000,1.280000,0.720001,0.080000,-8827590137.230682,-4274829.214819,1452933.306596,-816855.741599,-0.000065,0.000043,-0.000015
0.680000,1.280000,0.720052,0.080000,-8827534563.335951,-4452091.386549,1630230.328602,-1038116.600787,-0.000068,0.000047,-0.000020
0.760000,1.280000,0.720092,0.080000,-8827468538.370632,-4653832.438636,1832064.883200,-1311247.881685,-0.000072,0.000050,-0.000025
0.840000,1.280000,0.720002,0.080000,-8827390771.230339,-4879118.120647,2057538.703618,-1648880.846964,-0.000076,0.000055,-0.000031
0.920000,1.280000,0.720046,0.080000,-8827299820.631182,-5125441.196138,2304197.865404,-2066455.819889,-0.000081,0.000059,-0.000039
1.000000,1.280000,0.720100,0.080000,-8827194111.478580,-5387785.731029,2567104.859387,-2582832.704737,-0.000086,0.000064,-0.000049
1.080000,1.280000,0.720003,0.080000,-8827071967.445311,-5657249.163639,2837471.500854,-3220937.151191,-0.000091,0.000069,-0.000061
1.160000,1.280000,0.720041,0.080000,-8826931668.643942,-5919032.191238,3100663.438148,-4008355.293139,-0.000096,0.000074,-0.000076
1.240000,1.280000,0.720108,0.080000,-8826771547.346680,-6149542.523560,3333322.443634,-4977694.478530,-0.000100,0.000079,-0.000094
1.320000,1.280000,0.720005,0.080000,-8826590140.400665,-6312293.743092,3499286.406976,-6166358.332870,-0.000103,0.000082,-0.000116
1.400000,1.280000,0.720036,0.080000,-8826386424.709429,-6352245.886503,3543948.137344,-7615096.899505,-0.000104,0.000083,-0.000143
1.480000,1.280000,0.720116,0.080000,-8826160172.102907,-6188303.554716,3386754.828220,-9364226.386514,-0.000101,0.000080,-0.000176
1.560000,1.280000,0.720007,0.080000,-8825912471.595892,-5704018.967609,2911864.232231,-11445707.791797,-0.000092,0.000071,-0.000216
1.640000,1.280000,0.720031,0.080000,-8825646478.216305,-4737445.378722,1957841.478344,-13868324.522863,-0.000074,0.000053,-0.000261
1.720000,1.280000,0.720125,0.080000,-8825368452.340769,-3073067.274900,309217.090338,-16592209.056168,-0.000042,0.000021,-0.000313
1.800000,1.280000,0.700092,0.080000,-8825089138.885036,-442504.389227,-2303543.157069,-19488686.326682,0.000007,-0.000028,-0.000367
1.880000,1.280000,0.620104,0.080000,-8824825477.441454,3453233.676034,-6182990.879178,-22283714.977864,0.000080,-0.000101,-0.000420
1.960000,1.280000,0.540119,0.080000,-8824602493.941868,8945006.625879,-11824673.782226,-24492895.479886,0.000185,-0.000207,-0.000461
2.040000,1.280000,0.460140,0.080000,-8824454956.019821,16036562.689626,-18907850.122347,-25365165.170460,0.000318,-0.000340,-0.000478
2.120000,1.280000,0.380169,0.080000,-8824427961.279091,24472890.762112,-27457542.526378,-23915873.251320,0.000478,-0.000500,-0.000451
-2.120000,1.360000,0.380004,0.080000,-8823419864.559824,26978637.167648,-30011590.854199,34713655.793988,0.000525,-0.000548,0.000654
-2.040000,1.360000,0.460003,0.080000,-8823636051.962690,15285759.520197,-18141840.346847,34421638.535642,0.000304,-0.000326,0.000649
-1.960000,1.360000,0.540003,0.080000,-8823968247.492300,6304523.044411,-9162288.295010,31414701.431459,0.000135,-0.000156,0.000592
-1.880000,1.360000,0.620003,0.080000,-8824359249.384113,-10633.564072,-2680100.981779,27135058.330322,0.000015,-0.000035,0.000511
-1.800000,1.360000,0.640010,0.080000,-8824768994.766039,-4032394.492687,1307176.827001,22674943.783834,-0.000061,0.000040,0.000427
-1.720000,1.360000,0.640141,0.080000,-8825171543.510017,-6418943.388844,3664024.573297,18535567.480978,-0.000105,0.000085,0.000349
-1.640000,1.360000,0.640035,0.080000,-8825551446.164776,-7676406.852615,4898874.783648,14937751.204748,-0.000129,0.000108,0.000281
-1.560000,1.360000,0.640008,0.080000,-8825900520.276054,-8194642.520601,5401061.918826,11928869.053853,-0.000139,0.000118,0.000225
-1.480000,1.360000,0.640131,0.080000,-8826215353.287373,-8252130.777701,5447662.830932,9470827.696460,-0.000140,0.000118,0.000178
-1.400000,1.360000,0.640040,0.080000,-8826495512.374096,-8038294.313424,5226675.119446,7491382.621459,-0.000136,0.000114,0.000141
-1.320000,1.360000,0.640005,0.080000,-8826742323.755751,-7677463.483192,4861270.127841,5911060.317865,-0.000129,0.000108,0.000111
-1.240000,1.360000,0.640121,0.080000,-8826958070.030161,-7248824.910601,4429780.706317,4655696.351856,-0.000121,0.000099,0.000088
-1.160000,1.360000,0.640046,0.080000,-8827145478.204695,-6801300.671034,3980532.965107,3661196.257679,-0.000112,0.000091,0.000069
-1.080000,1.360000,0.640004,0.080000,-8827307402.961714,-6364010.325670,3542243.629345,2874425.107349,-0.000104,0.000083,0.000054
-1.000000,1.360000,0.640112,0.080000,-8827446637.830307,-5953372.489395,3131064.555290,2252370.246354,-0.000096,0.000075,0.000042
-0.920000,1.360000,0.640052,0.080000,-8827565808.474854,-5577817.876554,2755252.278950,1760682.355497,-0.000089,0.000068,0.000033
-0.840000,1.360000,0.640002,0.080000,-8827667317.673576,-5240869.079558,2418216.858169,1372124.898155,-0.000083,0.000062,0.000026
-0.760000,1.360000,0.640103,0.080000,-8827753322.087860,-4943129.523679,2120489.678646,1065159.599101,-0.000077,0.000056,0.000020
-0.680000,1.360000,0.640058,0.080000,-8827825727.963032,-4683554.862459,1860980.700605,822744.581234,-0.000072,0.000051,0.000016
-0.600000,1.360000,0.640001,0.080000,-8827886197.536739,-4460257.254183,1637773.409836,631351.326493,-0.000068,0.000047,0.000012
-0.520000,1.360000,0.640095,0.080000,-8827936160.949932,-4271008.041555,1448621.390639,480177.350861,-0.000065,0.000043,0.000009
-0.440000,1.360000,0.640065,0.080000,-8827976830.405855,-4113547.177498,1291253.796384,360522.301000,-0.000062,0.000040,0.000007
-0.360000,1.360000,0.640000,0.080000,-8828009214.571972,-3985769.937521,1163559.479067,265295.112734,-0.000059,0.000038,0.000005
-0.280000,1.360000,0.640087,0.080000,-8828034132.014269,-3885836.599225,1063695.015704,188623.408695,-0.000057,0.000036,0.000004
-0.200000,1.360000,0.640072,0.080000,-8828052222.951565,-3812234.605130,990145.796971,125540.818230,-0.000056,0.000035,0.000002
-0.120000,1.360000,0.640000,0.080000,-8828063958.925594,-3763812.131248,941758.920434,71732.181408,-0.000055,0.000034,0.000001
-0.040000,1.360000,0.640079,0.080000,-8828069650.167812,-3739795.082037,917759.774039,23320.171483,-0.000055,0.000033,0.000000
0.040000,1.360000,0.640079,0.080000,-8828069450.551470,-3739794.935841,917759.629198,-23320.394002,-0.000055,0.000033,-0.000000
0.120000,1.360000,0.640000,0.080000,-8828063360.077484,-3763811.691673,941758.481881,-71732.373060,-0.000055,0.000034,-0.000001
0.200000,1.360000,0.640072,0.080000,-8828051224.874498,-3812233.865612,990145.057552,-125540.948074,-0.000056,0.000035,-0.000002
0.280000,1.360000,0.640087,0.080000,-8828032734.712992,-3885835.548031,1063693.965185,-188623.443272,-0.000057,0.000036,-0.000004
0.360000,1.360000,0.640000,0.080000,-8828007418.053225,-3985768.557948,1163558.101450,-265295.014035,-0.000059,0.000038,-0.000005
0.440000,1.360000,0.640065,0.080000,-8827974634.678457,-4113545.449955,1291252.068891,-360522.025891,-0.000062,0.000040,-0.000007
0.520000,1.360000,0.640095,0.080000,-8827933566.024952,-4271005.940488,1448619.287197,-480176.849973,-0.000065,0.000043,-0.000009
0.600000,1.360000,0.640001,0.080000,-8827883203.427675,-4460254.746379,1637770.901832,-631350.540929,-0.000068,0.000047,-0.000012
0.680000,1.360000,0.640058,0.080000,-8827822334.685963,-4683551.910909,1860977.752646,-822743.439603,-0.000072,0.000051,-0.000016
0.760000,1.360000,0.640103,0.080000,-8827749529.661674,-4943126.088855,2120486.249214,-1065158.014889,-0.000077,0.000056,-0.000020
0.840000,1.360000,0.640002,0.080000,-8827663126.120255,-5240865.117855,2418212.901591,-1372122.765219,-0.000083,0.000062,-0.000026
0.920000,1.360000,0.640052,0.080000,-8827561217.819736,-5577813.343396,2755247.747173,-1760679.542424,-0.000089,0.000068,-0.000033
1.000000,1.360000,0.640112,0.080000,-8827441648.102465,-5953367.335412,3131059.405912,-2252366.590698,-0.000096,0.000075,-0.000042
1.080000,1.360000,0.640004,0.080000,-8827302014.194101,-6364004.512481,3542237.816485,-2874420.405908,-0.000104,0.000083,-0.000054
1.160000,1.360000,0.640046,0.080000,-8827139690.434561,-6801294.166717,3980526.461139,-3661190.256044,-0.000112,0.000091,-0.000069
1.240000,1.360000,0.640121,0.080000,-8826951883.299124,-7248817.711141,4429773.504298,-4655688.732081,-0.000121,0.000099,-0.000088
1.320000,1.360000,0.640005,0.080000,-8826735738.109884,-7677455.626187,4861262.264972,-5911050.683097,-0.000129,0.000108,-0.000111
1.400000,1.360000,0.640040,0.080000,-8826488527.863653,-8038285.909014,5226666.704351,-7491370.480274,-0.000136,0.000114,-0.000141
1.480000,1.360000,0.640131,0.080000,-8826207969.966028,-8252122.055770,5447654.084283,-9470812.447894,-0.000140,0.000118,-0.000178
1.560000,1.360000,0.640008,0.080000,-8825892738.199532,-8194633.887969,5401053.249172,-11928849.979402,-0.000139,0.000118,-0.000225
1.640000,1.360000,0.640035,0.080000,-8825543265.388048,-7676399.000103,4898866.868400,-14937727.477816,-0.000129,0.000108,-0.000281
1.720000,1.360000,0.640141,0.080000,-8825162964.082977,-6418937.411560,3664018.500250,-18535538.216082,-0.000105,0.000085,-0.000349
1.800000,1.360000,0.640010,0.080000,-8824760016.726364,-4032392.058517,1307174.254277,-22674908.161106,-0.000061,0.000040,-0.000427
1.880000,1.360000,0.620003,0.080000,-8824349872.746548,-10637.082526,-2680097.651649,-27135015.844434,0.000015,-0.000035,-0.000511
1.960000,1.360000,0.540003,0.080000,-8823958472.233185,6304510.193581,-9162275.385996,-31414652.289931,0.000135,-0.000156,-0.000592
2.040000,1.360000,0.460003,0.080000,-8823625877.999174,15285733.399573,-18141814.167996,-34421584.545168,0.000304,-0.000326,-0.000649
2.120000,1.360000,0.380004,0.080000,-8823409291.724476,26978593.737850,-30011547.106829,-34713600.818132,0.000525,-0.000548,-0.000654
-2.120000,1.440000,0.380079,0.080000,-8822230831.127367,27313441.946929,-30394938.283035,50233991.358201,0.000532,-0.000555,0.000946
-2.040000,1.440000,0.460065,0.080000,-8822712067.076197,11615483.750253,-14431936.724307,46122892.447586,0.000235,-0.000256,0.000869
-1.960000,1.440000,0.540056,0.080000,-8823286383.166286,898010.879458,-3707560.705412,39452657.219199,0.000033,-0.000054,0.000743
-1.880000,1.440000,0.560035,0.080000,-8823885305.119600,-5694817.343381,3045121.404995,32113742.814924,-0.000092,0.000072,0.000605
-1.800000,1.440000,0.560012,0.080000,-8824466843.256647,-9242944.688918,6532759.504393,25490592.598635,-0.000159,0.000138,0.000480
-1.720000,1.440000,0.560161,0.080000,-8825007932.496031,-10873240.785649,8119741.588639,19909798.948465,-0.000189,0.000169,0.000375
-1.640000,1.440000,0.560040,0.080000,-8825497879.725735,-11335648.977689,8553507.040755,15405037.518588,-0.000198,0.000177,0.000290
-1.560000,1.440000,0.560009,0.080000,-8825933552.922203,-11131180.772127,8331024.262202,11856165.126020,-0.000194,0.000173,0.000223
-1.480000,1.440000,0.560149,0.080000,-8826316151.997416,-10576574.191897,7765501.361843,9098013.392681,-0.000183,0.000162,0.000171
-1.400000,1.440000,0.560046,0.080000,-8826649160.892361,-9863968.517268,7046503.651733,6969635.866318,-0.000170,0.000149,0.000131
-1.320000,1.440000,0.560006,0.080000,-8826937102.382614,-9105527.719599,6284468.274324,5332583.304929,-0.000156,0.000134,0.000100
-1.240000,1.440000,0.560138,0.080000,-8827184809.698246,-8363791.370314,5540827.585169,4074705.320104,-0.000142,0.000120,0.000077
-1.160000,1.440000,0.560052,0.080000,-8827397019.471672,-7671289.230143,4847420.332915,3108010.783434,-0.000129,0.000107,0.000059
-1.080000,1.440000,0.560004,0.080000,-8827578159.289877,-7042837.102880,4218638.686537,2364642.380141,-0.000117,0.000095,0.000045
-1.000000,1.440000,0.560128,0.080000,-8827732250.260546,-6483092.218923,3658883.648738,1792722.178732,-0.000106,0.000085,0.000034
-0.920000,1.440000,0.560059,0.080000,-8827862875.627728,-5991125.971583,3167073.620602,1352722.180765,-0.000097,0.000076,0.000025
-0.840000,1.440000,0.560003,0.080000,-8827973185.775587,-5563152.894820,2739333.131218,1014520.146104,-0.000089,0.000068,0.000019
-0.760000,1.440000,0.560118,0.080000,-8828065921.906157,-5194133.197567,2370570.507317,755101.243512,-0.000082,0.000061,0.000014
-0.680000,1.440000,0.560066,0.080000,-8828143447.980457,-4878693.489793,2055383.351304,556800.708394,-0.000076,0.000055,0.000010
-0.600000,1.440000,0.560001,0.080000,-8828207784.935713,-4611638.688742,1788561.144807,405974.472152,-0.000071,0.000050,0.000008
-0.520000,1.440000,0.560108,0.080000,-8828260643.844658,-4388221.743402,1565349.313640,291997.835772,-0.000067,0.000045,0.000006
-0.440000,1.440000,0.560074,0.080000,-8828303456.255804,-4204272.453959,1381574.635690,206510.932871,-0.000063,0.000042,0.000004
-0.360000,1.440000,0.560000,0.080000,-8828337400.868567,-4056246.760062,1233692.431879,142847.610449,-0.000060,0.000039,0.000003
-0.280000,1.440000,0.560099,0.080000,-8828363426.215750,-3941233.427962,1118792.049205,95599.326994,-0.000058,0.000037,0.000002
-0.200000,1.440000,0.560082,0.080000,-8828382269.302162,-3856940.359906,1034582.413701,60277.408475,-0.000057,0.000035,0.000001
-0.120000,1.440000,0.560000,0.080000,-8828394470.282948,-3801673.659490,979370.664560,33045.829118,-0.000056,0.000034,0.000001
-0.040000,1.440000,0.560090,0.080000,-8828400383.312714,-3774317.195042,952041.457068,10503.103639,-0.000055,0.000034,0.000000
0.040000,1.440000,0.560090,0.080000,-8828400183.695171,-3774317.034943,952041.298228,-10503.631866,-0.000055,0.000034,-0.000000
0.120000,1.440000,0.560000,0.080000,-8828393871.431303,-3801673.179793,979370.181938,-33046.331736,-0.000056,0.000034,-0.000001
0.200000,1.440000,0.560082,0.080000,-8828381271.219551,-3856939.547585,1034581.603315,-60277.859644,-0.000057,0.000035,-0.000001
0.280000,1.440000,0.560099,0.080000,-8828362028.907341,-3941232.271581,1118790.894028,-95599.698244,-0.000058,0.000037,-0.000002
0.360000,1.440000,0.560000,0.080000,-8828335604.341770,-4056245.239037,1233690.911004,-142847.869505,-0.000060,0.000039,-0.000003
0.440000,1.440000,0.560074,0.080000,-8828301260.520374,-4204270.540623,1381572.722672,-206511.042729,-0.000063,0.000042,-0.000004
0.520000,1.440000,0.560108,0.080000,-8828258048.912889,-4388219.401056,1565346.977754,-291997.753037,-0.000067,0.000045,-0.000006
0.600000,1.440000,0.560001,0.080000,-8828204790.822552,-4611635.880005,1788558.340604,-405974.144319,-0.000071,0.000050,-0.000008
0.680000,1.440000,0.560066,0.080000,-8828140054.703903,-4878690.164160,2055380.030388,-556800.070416,-0.000076,0.000055,-0.000010
0.760000,1.440000,0.560118,0.080000,-8828062129.487501,-5194129.297747,2370566.611467,-755100.214980,-0.000082,0.000061,-0.000014
0.840000,1.440000,0.560003,0.080000,-8827968994.239807,-5563148.354098,2739328.592142,-1014518.627247,-0.000089,0.000068,-0.000019
0.920000,1.440000,0.560059,0.080000,-8827858285.003931,-5991120.712919,3167068.363676,-1352720.045797,-0.000097,0.000076,-0.000025
1.000000,1.440000,0.560128,0.080000,-8827727260.582457,-6483086.155860,3658877.592878,-1792719.267115,-0.000106,0.000085,-0.000034
1.080000,1.440000,0.560004,0.080000,-8827572770.596289,-7042830.148358,4218631.737577,-2364638.486479,-0.000117,0.000095,-0.000045
1.160000,1.440000,0.560052,0.080000,-8827391231.807133,-7671281.292014,4847412.399532,-3108005.643682,-0.000129,0.000107,-0.000059
1.240000,1.440000,0.560138,0.080000,-8827178623.113586,-8363782.364416,5540818.581730,-4074698.593225,-0.000142,0.000120,-0.000077
1.320000,1.440000,0.560006,0.080000,-8826930516.935507,-9105517.582576,6284458.137320,-5332574.549228,-0.000156,0.000134,-0.000100
1.400000,1.440000,0.560046,0.080000,-8826642176.647686,-9863957.235282,7046492.363797,-6969624.510095,-0.000170,0.000149,-0.000131
1.480000,1.440000,0.560149,0.080000,-8826308769.027372,-10576561.841630,7765488.997944,-9097998.699232,-0.000183,0.000162,-0.000171
1.560000,1.440000,0.560009,0.080000,-8825925771.305746,-11131167.597093,8331011.058556,-11856146.154665,-0.000194,0.000173,-0.000223
1.640000,1.440000,0.560040,0.080000,-8825489699.546997,-11335635.502594,8553493.510170,-15405013.091315,-0.000198,0.000177,-0.000290
1.720000,1.440000,0.560161,0.080000,-8824999353.840908,-10873227.998182,8119728.702647,-19909767.643640,-0.000189,0.000169,-0.000375
1.800000,1.440000,0.560012,0.080000,-8824457866.206417,-9242934.305055,6532748.963219,-25490552.815163,-0.000159,0.000138,-0.000480
1.880000,1.440000,0.560035,0.080000,-8823875929.739714,-5694812.176488,3045115.991782,-32113692.991966,-0.000092,0.000072,-0.000605
1.960000,1.440000,0.540056,0.080000,-8823276609.488298,898006.372193,-3707556.213127,-39452596.249176,0.000033,-0.000054,-0.000743
2.040000,1.440000,0.460065,0.080000,-8822701895.070091,11615463.532307,-14431916.510345,-46122821.237235,0.000235,-0.000256,-0.000869
2.120000,1.440000,0.380079,0.080000,-8822220260.662720,27313398.704252,-30394894.654372,-50233913.492610,0.000532,-0.000555,-0.000946
-2.120000,1.520000,0.380207,0.080000,-8820871521.685707,21648280.809270,-25254263.382835,72035424.581304,0.000428,-0.000455,0.001357
-2.040000,1.520000,0.460171,0.080000,-8821718612.519449,2099375.155057,-5231014.563349,60389083.917344,0.000057,-0.000081,0.001138
-1.960000,1.520000,0.480201,0.080000,-8822602396.602526,-9178768.384298,6105680.454020,47841087.578898,-0.000156,0.000132,0.000901
-1.880000,1.520000,0.480040,0.080000,-8823449899.580418,-14663446.122906,11774364.293428,36337277.881026,-0.000260,0.000238,0.000685
-1.800000,1.520000,0.480013,0.080000,-8824225190.760637,-16601539.136790,13690155.449919,27189035.612933,-0.000296,0.000274,0.000512
-1.720000,1.520000,0.480187,0.080000,-8824914720.720034,-16657451.130288,13746025.579998,20158204.064960,-0.000297,0.000275,0.000380
-1.640000,1.520000,0.480047,0.080000,-8825517319.930832,-15778768.958878,12877087.873441,14882113.633428,-0.000281,0.000259,0.000280
-1.560000,1.520000,0.480010,0.080000,-8826038062.961784,-14503781.467740,11614853.324982,10967550.634411,-0.000257,0.000235,0.000207
-1.480000,1.520000,0.480174,0.080000,-8826484745.607029,-13122734.439205,10246350.178125,8075759.004619,-0.000231,0.000209,0.000152
-1.400000,1.520000,0.480054,0.080000,-8826865966.420582,-11782971.786068,8917635.490533,5940492.500819,-0.000206,0.000184,0.000112
-1.320000,1.520000,0.480007,0.080000,-8827190141.223074,-10552372.452149,7696249.773415,4361426.640614,-0.000183,0.000161,0.000082
-1.240000,1.520000,0.480162,0.080000,-8827465040.436438,-9456050.066900,6607387.381720,3191017.926135,-0.000162,0.000141,0.000060
-1.160000,1.520000,0.480061,0.080000,-8827697609.966900,-8497036.886847,5654315.932431,2321624.827758,-0.000144,0.000123,0.000044
-1.080000,1.520000,0.480005,0.080000,-8827893939.895378,-7667708.681350,4829678.206664,1674930.452111,-0.000128,0.000107,0.000032
-1.000000,1.520000,0.480149,0.080000,-8828059305.555361,-6955964.510603,4121620.368698,1193877.574102,-0.000115,0.000094,0.000022
-0.920000,1.520000,0.480069,0.080000,-8828198239.945934,-6348475.414052,3517023.259559,836737.105874,-0.000104,0.000082,0.000016
-0.840000,1.520000,0.480003,0.080000,-8828314615.727713,-5832314.748383,3003130.617410,572822.668523,-0.000094,0.000073,0.000011
-0.760000,1.520000,0.480138,0.080000,-8828411725.757128,-5395708.018188,2568302.892143,379418.741150,-0.000086,0.000064,0.000007
-0.680000,1.520000,0.480077,0.080000,-8828492356.971567,-5028314.230135,2202304.379317,239583.086528,-0.000079,0.000057,0.000005
-0.600000,1.520000,0.480001,0.080000,-8828558855.576511,-4721267.292743,1896350.376956,140571.814395,-0.000073,0.000052,0.000003
-0.520000,1.520000,0.480126,0.080000,-8828613183.109428,-4467103.070980,1643039.242126,72705.625161,-0.000068,0.000047,0.000001
-0.440000,1.520000,0.480086,0.080000,-8828656963.743320,-4259640.109365,1436237.193616,28548.161903,-0.000064,0.000043,0.000001
-0.360000,1.520000,0.480001,0.080000,-8828691523.525183,-4093849.994304,1270951.890092,2305.126227,-0.000061,0.000040,0.000000
-0.280000,1.520000,0.480116,0.080000,-8828717922.333944,-3965735.653369,1143213.195231,-10620.532863,-0.000059,0.000037,-0.000000
-0.200000,1.520000,0.480096,0.080000,-8828736979.306787,-3872226.286791,1049969.945789,-13963.444409,-0.000057,0.000036,-0.000000
-0.120000,1.520000,0.480000,0.080000,-8828749292.386429,-3811092.563955,989006.485173,-10853.881819,-0.000056,0.000035,-0.000000
-0.040000,1.520000,0.480105,0.080000,-8828755252.518883,-3780883.216128,958880.178914,-4023.505777,-0.000055,0.000034,-0.000000
0.040000,1.520000,0.480105,0.080000,-8828755052.899099,-3780883.046557,958880.006921,4022.642914,-0.000055,0.000034,0.000000
0.120000,1.520000,0.480000,0.080000,-8828748693.528217,-3811092.048186,989005.970449,10853.037709,-0.000056,0.000035,0.000000
0.200000,1.520000,0.480096,0.080000,-8828735981.213428,-3872225.416319,1049969.076624,13962.638868,-0.000057,0.000036,0.000000
0.280000,1.520000,0.480116,0.080000,-8828716525.011019,-3965734.410053,1143211.955029,10619.788187,-0.000059,0.000037,0.000000
0.360000,1.520000,0.480001,0.080000,-8828689726.980644,-4093848.353475,1270950.254503,-2305.785053,-0.000061,0.000040,-0.000000
0.440000,1.520000,0.480086,0.080000,-8828654767.987642,-4259638.039937,1436235.128726,-28548.705894,-0.000064,0.000043,-0.000001
0.520000,1.520000,0.480126,0.080000,-8828610588.155859,-4467100.530604,1643036.708310,-72706.018923,-0.000068,0.000047,-0.000001
0.600000,1.520000,0.480001,0.080000,-8828555861.441288,-4721264.230548,1896347.321950,-140572.014442,-0.000073,0.000052,-0.000003
0.680000,1.520000,0.480077,0.080000,-8828488963.674278,-5028310.582618,2202300.740431,-239583.038524,-0.000079,0.000057,-0.000005
0.760000,1.520000,0.480138,0.080000,-8828407933.321096,-5395703.709773,2568298.594238,-379418.376225,-0.000086,0.000064,-0.000007
0.840000,1.520000,0.480003,0.080000,-8828310424.180504,-5832309.687238,3003125.571961,-572821.899397,-0.000094,0.000073,-0.000011
0.920000,1.520000,0.480069,0.080000,-8828193649.319878,-6348469.495006,3517017.359100,-836735.820092,-0.000104,0.000082,-0.000016
1.000000,1.520000,0.480149,0.080000,-8828054315.888283,-6955957.608471,4121613.490182,-1193875.624045,-0.000115,0.000094,-0.000022
1.080000,1.520000,0.480005,0.080000,-8827888551.231363,-7667700.651489,4829670.206063,-1674927.644167,-0.000128,0.000107,-0.000032
1.160000,1.520000,0.480061,0.080000,-8827691822.357231,-8497027.563628,5654306.648320,-2321620.906433,-0.000144,0.000123,-0.000044
1.240000,1.520000,0.480162,0.080000,-8827458853.940573,-9456039.270783,6607376.631673,-3191012.551322,-0.000162,0.000141,-0.000060
1.320000,1.520000,0.480007,0.080000,-8827183555.909868,-10552359.989340,7696237.367443,-4361419.356178,-0.000183,0.000161,-0.000082
1.400000,1.520000,0.480054,0.080000,-8826858982.369450,-11782957.467975,8917621.244413,-5940482.691093,-0.000206,0.000184,-0.000112
1.480000,1.520000,0.480174,0.080000,-8826477362.909086,-13122718.115806,10246333.944573,-8075745.836700,-0.000231,0.000209,-0.000152
1.560000,1.520000,0.480010,0.080000,-8826030281.720737,-14503763.089439,11614835.056452,-10967532.981086,-0.000257,0.000235,-0.000207
1.640000,1.520000,0.480047,0.080000,-8825509140.263168,-15778748.692707,12877067.734706,-14882089.977535,-0.000281,0.000259,-0.000280
1.720000,1.520000,0.480187,0.080000,-8824906142.753801,-16657429.566120,13746004.156757,-20158172.393878,-0.000297,0.000275,-0.000380
1.800000,1.520000,0.480013,0.080000,-8824216214.631414,-16601517.645553,13690134.103591,-27188993.337513,-0.000296,0.000274,-0.000512
1.880000,1.520000,0.480040,0.080000,-8823440525.422068,-14663427.454652,11774345.736771,-36337221.877384,-0.000260,0.000238,-0.000685
1.960000,1.520000,0.480201,0.080000,-8822592624.529232,-9178757.698996,6105670.152459,-47841014.354210,-0.000156,0.000132,-0.000901
2.040000,1.520000,0.460171,0.080000,-8821708442.593039,2099369.433020,-5231008.369798,-60388991.878457,0.000057,-0.000081,-0.001138
2.120000,1.520000,0.380207,0.080000,-8820860953.861826,21648246.636344,-25254228.052394,-72035314.854439,0.000428,-0.000455,-0.001357
-2.120000,1.600000,0.380012,0.080000,-8819377720.279358,5739587.780404,-8998671.259671,99611667.835034,0.000127,-0.000151,0.001877
-2.040000,1.600000,0.400021,0.080000,-8820715688.885853,-15805952.646588,12746551.928853,74928128.747490,-0.000281,0.000257,0.001412
-1.960000,1.600000,0.400241,0.080000,-8821978788.993118,-24595522.914479,21575567.176832,54365001.397182,-0.000446,0.000424,0.001024
-1.880000,1.600000,0.400048,0.080000,-8823108333.457834,-26612630.078364,23725545.756093,38238188.047157,-0.000485,0.000463,0.000720
-1.800000,1.600000,0.400016,0.080000,-8824089293.979897,-25463869.514397,22564348.911753,26800166.874243,-0.000463,0.000442,0.000505
-1.720000,1.600000,0.400225,0.080000,-8824927450.735748,-23092428.311801,20197808.589789,18735663.188732,-0.000419,0.000397,0.000353
-1.640000,1.600000,0.400056,0.080000,-8825637069.902359,-20411505.092730,17527913.424737,13093359.559175,-0.000368,0.000347,0.000247
-1.560000,1.600000,0.400012,0.080000,-8826234786.780672,-17833207.872004,14961517.359311,9146466.101125,-0.000320,0.000298,0.000172
-1.480000,1.600000,0.400209,0.080000,-8826736802.336956,-15519728.349759,12658720.323175,6376042.766534,-0.000276,0.000255,0.000120
-1.400000,1.600000,0.400065,0.080000,-8827157749.525490,-13514390.435126,10662244.716252,4422063.562169,-0.000238,0.000217,0.000083
-1.320000,1.600000,0.400009,0.080000,-8827510361.868273,-11807533.338042,8962456.660867,3037368.913226,-0.000206,0.000185,0.000057
-1.240000,1.600000,0.400194,0.080000,-8827805504.649656,-10368681.799446,7529129.508133,2052468.806175,-0.000179,0.000158,0.000039
-1.160000,1.600000,0.400073,0.080000,-8828052352.491907,-9161714.184341,6326434.696227,1350670.242397,-0.000157,0.000135,0.000025
-1.080000,1.600000,0.400006,0.080000,-8828258610.459591,-8151609.266371,5319619.538250,851086.296043,-0.000138,0.000116,0.000016
-1.000000,1.600000,0.400179,0.080000,-8828430732.310099,-7307103.568932,4477643.807069,497187.664152,-0.000122,0.000100,0.000009
-0.920000,1.600000,0.400083,0.080000,-8828574117.097179,-6601423.317246,3773910.721093,249114.679004,-0.000108,0.000087,0.000005
-0.840000,1.600000,0.400004,0.080000,-8828693278.438152,-6012160.629383,3186149.238079,78502.438192,-0.000097,0.000076,0.000001
-0.760000,1.600000,0.400165,0.080000,-8828791986.663418,-5520814.172718,2695962.378262,-35022.100366,-0.000088,0.000067,-0.000001
-0.680000,1.600000,0.400093,0.080000,-8828873386.456381,-5112239.934398,2288285.121105,-106229.215598,-0.000080,0.000059,-0.000002
-0.600000,1.600000,0.400002,0.080000,-8828940093.303967,-4774121.716897,1950860.813640,-145930.165419,-0.000074,0.000053,-0.000003
-0.520000,1.600000,0.400152,0.080000,-8828994272.030956,-4496504.584291,1673779.300277,-162119.034421,-0.000069,0.000047,-0.000003
-0.440000,1.600000,0.400104,0.080000,-8829037700.333738,-4271403.198384,1449088.799912,-160774.321707,-0.000065,0.000043,-0.000003
-0.360000,1.600000,0.400001,0.080000,-8829071819.777983,-4092483.015864,1270479.785944,-146428.371366,-0.000061,0.000040,-0.000003
-0.280000,1.600000,0.400139,0.080000,-8829097776.273979,-3954807.050352,1133033.718885,-122577.633312,-0.000059,0.000037,-0.000002
-0.200000,1.600000,0.400115,0.080000,-8829116451.634169,-3854639.629725,1033028.240759,-91983.641844,-0.000057,0.000035,-0.000002
-0.120000,1.600000,0.400000,0.080000,-8829128487.458517,-3789299.221810,967791.013448,-56899.371581,-0.000055,0.000034,-0.000001
-0.040000,1.600000,0.400126,0.080000,-8829134302.283524,-3757053.759299,935595.753640,-19245.619500,-0.000055,0.000034,-0.000000
0.040000,1.600000,0.400126,0.080000,-8829134102.660435,-3757053.581632,935595.574125,19244.413886,-0.000055,0.000034,0.000000
0.120000,1.600000,0.400000,0.080000,-8829127888.590448,-3789298.680819,967790.476700,56898.177841,-0.000055,0.000034,0.000001
0.200000,1.600000,0.400115,0.080000,-8829115453.524519,-3854638.718978,1033027.330965,91982.472663,-0.000057,0.000035,0.000002
0.280000,1.600000,0.400139,0.080000,-8829096378.928608,-3954805.748055,1133032.418431,122576.503308,-0.000059,0.000037,0.000002
0.360000,1.600000,0.400001,0.080000,-8829070023.205223,-4092481.294681,1270478.067048,146427.297557,-0.000061,0.000040,0.000003
0.440000,1.600000,0.400104,0.080000,-8829035504.544619,-4271401.020764,1449086.625708,160773.324261,-0.000065,0.000043,0.000003
0.520000,1.600000,0.400152,0.080000,-8828991677.039410,-4496501.903601,1673776.622425,162118.138473,-0.000069,0.000047,0.000003
0.600000,1.600000,0.400002,0.080000,-8828937099.127188,-4774118.470827,1950857.574138,145929.402767,-0.000074,0.000053,0.000003
0.680000,1.600000,0.400093,0.080000,-8828869993.115118,-5112236.051226,2288281.242010,106228.626944,-0.000080,0.000059,0.000002
0.760000,1.600000,0.400165,0.080000,-8828788194.182579,-5520809.558361,2695957.772228,35021.739092,-0.000088,0.000067,0.000001
0.840000,1.600000,0.400004,0.080000,-8828689086.847263,-6012155.174771,3186143.793687,-78502.502289,-0.000097,0.000076,-0.000001
0.920000,1.600000,0.400083,0.080000,-8828569526.431160,-6601416.888152,3773904.304149,-249114.353964,-0.000108,0.000087,-0.000005
1.000000,1.600000,0.400179,0.080000,-8828425742.610109,-7307096.002360,4477636.256158,-497186.826832,-0.000122,0.000100,-0.000009
1.080000,1.600000,0.400006,0.080000,-8828253221.774050,-8151600.366520,5319610.656388,-851084.780184,-0.000138,0.000116,-0.000016
1.160000,1.600000,0.400073,0.080000,-8828046564.877769,-9161703.714926,6326424.248369,-1350667.821848,-0.000157,0.000135,-0.000025
1.240000,1.600000,0.400194,0.080000,-8827799318.173943,-10368669.475488,7529117.216921,-2052465.170456,-0.000179,0.000158,-0.000039
1.320000,1.600000,0.400009,0.080000,-8827503776.609766,-11807518.828693,8962442.192642,-3037363.631755,-0.000206,0.000185,-0.000057
1.400000,1.600000,0.400065,0.080000,-8827150765.576937,-13514373.354907,10662227.688926,-4422056.031404,-0.000238,0.000217,-0.000083
1.480000,1.600000,0.400209,0.080000,-8826729419.807434,-15519708.272367,12658700.309467,-6376032.133130,-0.000276,0.000255,-0.000120
1.560000,1.600000,0.400012,0.080000,-8826227005.798328,-17833184.355578,14961493.921868,-9146451.149267,-0.000320,0.000298,-0.000172
1.640000,1.600000,0.400056,0.080000,-8825628890.617094,-20411477.760004,17527886.189767,-13093338.546733,-0.000368,0.000347,-0.000247
1.720000,1.600000,0.400225,0.080000,-8824918873.321424,-23092397.024642,20197777.417202,-18735633.616584,-0.000419,0.000397,-0.000353
1.800000,1.600000,0.400016,0.080000,-8824080318.634928,-25463834.732781,22564314.254020,-26800125.184415,-0.000463,0.000442,-0.000505
1.880000,1.600000,0.400048,0.080000,-8823098960.401651,-26612593.584933,23725509.369127,-38238129.296567,-0.000485,0.000463,-0.000720
1.960000,1.600000,0.400241,0.080000,-8821969018.453840,-24595489.297557,21575533.860150,-54364918.716822,-0.000446,0.000424,-0.001024
2.040000,1.600000,0.400021,0.080000,-8820705521.070099,-15805931.703465,12746531.343707,-74928015.633622,-0.000281,0.000257,-0.001412
2.120000,1.600000,0.380012,0.080000,-8819367155.309126,5739577.605135,-8998660.437636,-99611518.128416,0.000127,-0.000151,-0.001877
-2.120000,1.680000,0.320052,0.080000,-8817858866.339905,-31626715.701579,28123304.548933,129248057.762453,-0.000576,0.000550,0.002435
-2.040000,1.680000,0.320026,0.080000,-8819818755.880075,-46221932.390246,42943633.416597,85334295.270981,-0.000852,0.000828,0.001608
-1.960000,1.680000,0.320301,0.080000,-8821513615.791235,-46336610.606901,42836242.645976,55449482.309478,-0.000853,0.000827,0.001045
-1.880000,1.680000,0.320061,0.080000,-8822936566.695810,-41534955.097176,38435016.530792,35625839.129093,-0.000765,0.000742,0.000671
-1.800000,1.680000,0.320020,0.080000,-8824115490.205910,-35523177.537493,32499625.489135,22997089.629305,-0.000652,0.000629,0.000433
-1.720000,1.680000,0.320281,0.080000,-8825087068.313442,-29853836.364819,26888409.533442,14858323.137791,-0.000546,0.000523,0.000280
-1.640000,1.680000,0.320070,0.080000,-8825886649.763384,-24973550.973412,22050299.178562,9575200.206169,-0.000454,0.000432,0.000180
-1.560000,1.680000,0.320015,0.080000,-8826544974.517881,-20931447.382520,18038138.182201,6113644.664679,-0.000378,0.000356,0.000115
-1.480000,1.680000,0.320261,0.080000,-8827087647.380169,-17638581.984563,14766355.450450,3825300.047303,-0.000316,0.000294,0.000072
-1.400000,1.680000,0.320081,0.080000,-8827535599.272036,-14972195.163147,12114797.656207,2302028.347306,-0.000266,0.000244,0.000043
-1.320000,1.680000,0.320011,0.080000,-8827905817.059881,-12814535.377903,9967603.409400,1284311.126342,-0.000225,0.000204,0.000024
-1.240000,1.680000,0.320242,0.080000,-8828212067.657841,-11064942.404985,8225439.012963,605022.000165,-0.000192,0.000171,0.000011
-1.160000,1.680000,0.320092,0.080000,-8828465526.326958,-9641510.667263,6807313.415647,155059.984833,-0.000166,0.000144,0.000003
-1.080000,1.680000,0.320007,0.080000,-8828675292.118696,-8479097.962179,5648718.578801,-137766.611328,-0.000144,0.000122,-0.000003
-1.000000,1.680000,0.320224,0.080000,-8828848799.858858,-7526424.914451,4698813.709120,-321847.474427,-0.000126,0.000105,-0.000006
-0.920000,1.680000,0.320104,0.080000,-8828992145.525551,-6743276.356885,3917683.729073,-430013.980512,-0.000111,0.000090,-0.000008
-0.840000,1.680000,0.320004,0.080000,-8829110342.029505,-6098114.242262,3274003.246631,-484791.343589,-0.000099,0.000078,-0.000009
-0.760000,1.680000,0.320206,0.080000,-8829207520.115244,-5566170.776994,2743154.924325,-501789.348545,-0.000089,0.000068,-0.000009
-0.680000,1.680000,0.320116,0.080000,-8829287086.320971,-5127962.534007,2305757.526092,-491926.029818,-0.000081,0.000059,-0.000009
-0.600000,1.680000,0.320002,0.080000,-8829351847.374340,-4768136.400238,1946533.688005,-462902.283701,-0.000074,0.000053,-0.000009
-0.520000,1.680000,0.320190,0.080000,-8829404108.268274,-4474596.607441,1653443.340335,-420190.291015,-0.000068,0.000047,-0.000008
-0.440000,1.680000,0.320129,0.080000,-8829445749.562998,-4237845.164480,1417024.158720,-367709.603461,-0.000064,0.000043,-0.000007
-0.360000,1.680000,0.320001,0.080000,-8829478288.136353,-4050471.754467,1229894.115565,-308292.959899,-0.000060,0.000039,-0.000006
-0.280000,1.680000,0.320173,0.080000,-8829502924.581053,-3906777.282605,1086376.208165,-244009.476559,-0.000058,0.000036,-0.000005
-0.200000,1.680000,0.320143,0.080000,-8829520579.655987,-3802498.903726,982218.766874,-176398.198285,-0.000056,0.000034,-0.000003
-0.120000,1.680000,0.320000,0.080000,-8829531921.580946,-3734599.134310,914394.032562,-106638.470389,-0.000054,0.000033,-0.000002
-0.040000,1.680000,0.320158,0.080000,-8829537385.475868,-3701124.959440,880957.296125,-35675.821350,-0.000054,0.000033,-0.000001
0.040000,1.680000,0.320158,0.080000,-8829537185.848339,-3701124.777266,880957.113197,35674.252099,-0.000054,0.000033,0.000001
0.120000,1.680000,0.320000,0.080000,-8829531322.699549,-3734598.582288,914393.482320,106636.905605,-0.000054,0.000033,0.000002
0.200000,1.680000,0.320143,0.080000,-8829519581.524240,-3802497.970905,982217.836169,176396.642679,-0.000056,0.000034,0.000003
0.280000,1.680000,0.320173,0.080000,-8829501527.204922,-3906775.948596,1086374.874714,244007.935465,-0.000058,0.000036,0.000005
0.360000,1.680000,0.320001,0.080000,-8829476491.524389,-4050469.988672,1229892.349761,308291.440735,-0.000060,0.000039,0.000006
0.440000,1.680000,0.320129,0.080000,-8829443553.726534,-4237842.924928,1417021.921036,367708.116055,-0.000064,0.000043,0.000007
0.520000,1.680000,0.320190,0.080000,-8829401513.221653,-4474593.841932,1653440.577780,420188.848372,-0.000068,0.000047,0.000008
0.600000,1.680000,0.320002,0.080000,-8829348853.135283,-4768133.041718,1946530.334548,462900.903505,-0.000074,0.000053,0.000009
0.680000,1.680000,0.320116,0.080000,-8829283692.910980,-5127958.499568,2305753.497399,491924.735978,-0.000081,0.000059,0.000009
0.760000,1.680000,0.320206,0.080000,-8829203727.560144,-5566165.964752,2743150.115813,501788.174054,-0.000089,0.000068,0.000009
0.840000,1.680000,0.320004,0.080000,-8829106150.360159,-6098108.521960,3273997.534220,484790.334041,-0.000099,0.000078,0.000009
0.920000,1.680000,0.320104,0.080000,-8828987554.778585,-6743269.571424,3917676.953977,430013.198450,-0.000111,0.000090,0.000008
1.000000,1.680000,0.320224,0.080000,-8828843810.077728,-7526416.868161,4698805.676218,321847.006442,-0.000126,0.000105,0.000006
1.080000,1.680000,0.320007,0.080000,-8828669903.354939,-8479088.411012,5648709.046727,137766.578725,-0.000144,0.000122,0.000003
1.160000,1.680000,0.320092,0.080000,-8828459738.641703,-9641499.310144,6807302.081865,-155059.410479,-0.000166,0.000144,-0.000003
1.240000,1.680000,0.320242,0.080000,-8828205881.123810,-11064928.862374,8225425.503877,-605020.574094,-0.000192,0.000171,-0.000011
1.320000,1.680000,0.320011,0.080000,-8827899231.763712,-12814519.178738,9967587.252425,-1284308.495801,-0.000225,0.000204,-0.000024
1.400000,1.680000,0.320081,0.080000,-8827528615.317379,-14972175.713960,12114778.264719,-2302023.997462,-0.000266,0.000244,-0.000043
1.480000,1.680000,0.320261,0.080000,-8827080264.891403,-17638558.546848,14766332.094165,-3825293.216564,-0.000316,0.000294,-0.000072
1.560000,1.680000,0.320015,0.080000,-8826537193.644779,-20931419.048634,18038109.963051,-6113634.210149,-0.000378,0.000356,-0.000115
1.640000,1.680000,0.320070,0.080000,-8825878470.686810,-24973516.661409,22050265.024491,-9575184.388037,-0.000454,0.000432,-0.000180
1.720000,1.680000,0.320281,0.080000,-8825078491.252155,-29853794.864373,26888368.253803,-14858299.271500,-0.000546,0.000523,-0.000280
1.800000,1.680000,0.320020,0.080000,-8824106515.423937,-35523127.712763,32499575.972147,-22997053.527718,-0.000652,0.000629,-0.000433
1.880000,1.680000,0.320061,0.080000,-8822927194.509073,-41534896.459197,38434958.313024,-35625784.236438,-0.000765,0.000742,-0.000671
1.960000,1.680000,0.320301,0.080000,-8821503846.569447,-46336544.904869,42836177.947899,-55449398.150223,-0.000853,0.000827,-0.001045
2.040000,1.680000,0.320026,0.080000,-8819808590.034082,-46221866.694141,42943568.398872,-85334167.228227,-0.000852,0.000828,-0.001608
2.120000,1.680000,0.320052,0.080000,-8817848304.271614,-31626670.842345,28123260.691941,-129247865.415151,-0.000576,0.000550,-0.002435
-2.500000,-1.980000,0.005075,0.040000,-4269432873.334085,14531821837.626099,2605133907100.888184,-67211687396.072029,-14.533018,34.275427,-1.266307
-2.420000,-1.980000,0.020652,0.040000,-8820936275.573397,73325287965.721329,613957304952.179443,-35483287238.948479,-2.503150,7.682671,-0.668526
-2.460000,-1.980000,0.020594,0.040000,-8790355709.455793,-204231512941.548859,1830765064309.272461,-25956543050.406967,-13.041291,25.299225,-0.489036
-2.340000,-1.980000,0.020538,0.040000,-8866142184.041996,-24434033151.671162,35514014596.439125,-8377523369.460779,-0.522977,0.606479,-0.157837
-2.380000,-1.980000,0.024839,0.040000,-8650949320.552528,52401835591.194794,-31258346722.841965,-14065047135.348160,0.867774,-0.708432,-0.264994
-2.260000,-1.980000,0.024698,0.040000,-8677035990.680542,39813096054.247162,-57518852810.223137,-1071252774.151922,0.850178,-0.983613,-0.020183
-2.300000,-1.980000,0.020713,0.040000,-8856274281.402109,-18427012776.378212,26288440398.168667,7358688954.724606,-0.391610,0.450855,0.138642
-2.180000,-1.980000,0.020777,0.040000,-8863165151.354105,-15724159896.838305,22445632772.315414,8004539012.123205,-0.334243,0.384898,0.150810
-2.220000,-1.980000,0.020485,0.040000,-8889736687.397518,-25191623725.344330,36070255951.660774,-6893950846.689007,-0.536113,0.618097,-0.129886
-2.100000,-1.980000,0.020435,0.040000,-8903010089.804237,-26562168878.181206,38151353810.423088,-6558078536.448236,-0.565951,0.653290,-0.123558
-2.140000,-1.980000,0.024558,0.040000,-8687600551.767349,40130922438.926353,-57857791077.169601,-1338266430.619351,0.856285,-0.989879,-0.025214
-2.020000,-1.980000,0.024420,0.040000,-8693745320.479864,39976215235.254097,-57569914654.925323,-1779832675.841778,0.852618,-0.985208,-0.033533
-2.060000,-1.980000,0.020843,0.040000,-8863096971.277590,-13506427391.731894,19346200823.476582,8197814563.427584,-0.287476,0.331486,0.154452
-1.940000,-1.980000,0.020912,0.040000,-8860232442.771263,-11403168674.790556,16356689234.185436,8340670750.007775,-0.242840,0.280171,0.157143
-1.980000,-1.980000,0.020387,0.040000,-8912525437.992855,-28089032804.686745,40399453755.507271,-6275366967.166357,-0.598794,0.691568,-0.118232
-1.860000,-1.980000,0.020342,0.040000,-8920155752.008421,-29612047216.033131,42614723476.108757,-5979943269.353202,-0.631402,0.729393,-0.112666
-1.900000,-1.980000,0.024283,0.040000,-8698148677.154388,39613865688.440910,-57022023516.498627,-2229949314.027600,0.844742,-0.975934,-0.042014
-1.780000,-1.980000,0.024148,0.040000,-8701785127.506203,39114696796.119461,-56293288627.190117,-2673043603.251131,0.834040,-0.963502,-0.050362
-1.820000,-1.980000,0.020983,0.040000,-8855946541.872877,-9321665432.000977,13376064220.936527,8462573570.129196,-0.198542,0.229097,0.159440
-1.700000,-1.980000,0.021057,0.040000,-8850837504.304081,-7238999620.158995,10384152327.381344,8565466468.673030,-0.154164,0.177866,0.161378
-1.740000,-1.980000,0.020299,0.040000,-8926638571.281981,-31084650692.284931,44745958579.427544,-5667537309.305182,-0.662869,0.765824,-0.106780
-1.620000,-1.980000,0.020260,0.040000,-8932321220.567623,-32488669105.957485,46773074953.427177,-5339472280.141996,-0.692843,0.800494,-0.100599
-1.660000,-1.980000,0.024015,0.040000,-8705095957.624458,38502442781.310600,-55409148713.265167,-3106946018.705331,0.820968,-0.948381,-0.058537
-1.540000,-1.980000,0.023883,0.040000,-8708309581.415825,37787277968.475304,-54380677379.754822,-3530904423.971718,0.805723,-0.930775,-0.066524
-1.580000,-1.980000,0.021133,0.040000,-8845214438.767078,-5150653013.646986,7379516987.302547,8648596328.965361,-0.109639,0.126436,0.162945
-1.460000,-1.980000,0.021211,0.040000,-8839257763.752567,-3057971379.540901,4366343505.672455,8711152807.798738,-0.065009,0.074869,0.164123
-1.500000,-1.980000,0.020223,0.040000,-8937386411.829197,-33814633524.140549,48684995020.846466,-4997364951.282932,-0.721137,0.833204,-0.094153
-1.380000,-1.980000,0.020189,0.040000,-8941937391.804083,-35056324066.783234,50473964005.800209,-4642616272.892750,-0.747625,0.863816,-0.087470
-1.420000,-1.980000,0.023753,0.040000,-8711554943.778526,36974739838.285362,-53214195661.975395,-3944191865.291525,0.788414,-0.910798,-0.074311
-1.300000,-1.980000,0.023625,0.040000,-8714909010.991144,36068595170.930260,-51914263923.713387,-4345982560.021923,0.769116,-0.888532,-0.081881
-1.340000,-1.980000,0.021292,0.040000,-8833083130.405512,-964462192.058560,1350802165.865754,8752528411.019001,-0.020355,0.023266,0.164903
-1.220000,-1.980000,0.021376,0.040000,-8826770497.563931,1125490782.888769,-1660172656.127413,8772291886.332418,0.024227,-0.028257,0.165275
-1.260000,-1.980000,0.020158,0.040000,-8946035240.353437,-36208982070.515022,52133758845.974403,-4276445641.963877,-0.772208,0.892221,-0.080571
-1.140000,-1.980000,0.020129,0.040000,-8949717076.769018,-37268645352.011185,53659039876.115906,-3899959954.564253,-0.794804,0.918326,-0.073478
-1.180000,-1.980000,0.023498,0.040000,-8718419179.295578,35071909338.329567,-50484787008.081352,-4735386143.303355,0.747891,-0.864046,-0.089217
-1.060000,-1.980000,0.023373,0.040000,-8722114839.414516,33987494468.916931,-48929477898.723755,-5111487190.239729,0.724799,-0.837405,-0.096303
-1.100000,-1.980000,0.021462,0.040000,-8820378709.889078,3207136285.141612,-4659357778.828049,8770145027.855869,0.068633,-0.079577,0.165235
-0.980000,-1.980000,0.021550,0.040000,-8813953373.965961,5275580703.840086,-7639451439.634071,8745893448.199347,0.112756,-0.130571,0.164778
-1.020000,-1.980000,0.020103,0.040000,-8953005712.903271,-38231877757.256508,55045093798.759560,-3514201152.396645,-0.815342,0.942050,-0.066210
-0.900000,-1.980000,0.020081,0.040000,-8955915117.274506,-39095652782.035080,56287726865.517738,-3120174793.152221,-0.833757,0.963321,-0.058786
-0.940000,-1.980000,0.023250,0.040000,-8726013776.738512,32818115083.413651,-47252072150.759369,-5473372964.932271,0.699896,-0.808673,-0.103122
-0.820000,-1.980000,0.023129,0.040000,-8730125917.428959,31566589208.666168,-45456434718.750099,-5820151578.620358,0.673241,-0.777918,-0.109655
-0.860000,-1.980000,0.021640,0.040000,-8807531370.919008,7325898352.594425,-10593178258.480825,8699429257.958075,0.156491,-0.181114,0.163902
-0.740000,-1.980000,0.021732,0.040000,-8801143565.770786,9353191059.376472,-13513348372.775278,8630721160.216967,0.199733,-0.231085,0.162608
-0.780000,-1.980000,0.020061,0.040000,-8958453675.975534,-39857302597.250977,57383220823.800034,-2718866679.807583,-0.849994,0.982074,-0.051225
-0.660000,-1.980000,0.020043,0.040000,-8960626224.411039,-40514496578.425827,58328316654.919029,-2311252449.488742,-0.864003,0.998252,-0.043545
-0.700000,-1.980000,0.023010,0.040000,-8734455623.307911,30235840597.136299,-43546616102.210915,-6150963982.221702,0.644896,-0.745209,-0.115888
-0.580000,-1.980000,0.022892,0.040000,-8739003150.869900,28828926410.306011,-41526882749.929886,-6464992156.845612,0.614925,-0.710619,-0.121804
-0.620000,-1.980000,0.021827,0.040000,-8794816495.582762,11352623661.516546,-16392894901.954380,8539808838.683606,0.242379,-0.280363,0.160895
-0.500000,-1.980000,0.021924,0.040000,-8788573451.440054,13319447233.397524,-19224900294.650280,8426799770.819234,0.284325,-0.328830,0.158766
-0.540000,-1.980000,0.020029,0.040000,-8962435357.651846,-41065233636.503464,59120210948.270164,-1898303040.566432,-0.875743,1.011809,-0.035765
-0.420000,-1.980000,0.020018,0.040000,-8963882297.706806,-41507841014.990898,59756557885.817589,-1480987721.343073,-0.885177,1.022703,-0.027903
-0.460000,-1.980000,0.022777,0.040000,-8743765606.526741,27349051793.055107,-39401733451.477913,-6761464931.504957,0.583396,-0.674228,-0.127390
-0.340000,-1.980000,0.022663,0.040000,-8748737585.358660,25799577019.719479,-37175907562.361084,-7039662267.575265,0.550380,-0.636115,-0.132631
-0.380000,-1.980000,0.022024,0.040000,-8782435185.153282,15249015631.032263,-22002616448.403591,8291867381.259351,0.325473,-0.376370,0.156224
-0.260000,-1.980000,0.022125,0.040000,-8776420374.021120,17136798124.602980,-24719480978.256523,8135249901.989182,0.365726,-0.422871,0.153273
-0.300000,-1.980000,0.020009,0.040000,-8964967476.550205,-41840975927.577362,60235473386.302635,-1060275655.706223,-0.892277,1.030902,-0.019976
-0.180000,-1.980000,0.020003,0.040000,-8965690928.398731,-42063628154.958023,60555539629.463600,-637136581.413416,-0.897023,1.036382,-0.012004
-0.220000,-1.980000,0.022551,0.040000,-8753911602.670074,24184020174.906338,-34854388118.412407,-7298918505.188633,0.515952,-0.596366,-0.137516
-0.100000,-1.980000,0.022442,0.040000,-8759278383.620043,22506056974.610901,-32442401497.648071,-7538624870.084247,0.480189,-0.555072,-0.142032
-0.140000,-1.980000,0.022228,0.040000,-8770545922.800461,18978389549.527763,-27369130831.371910,7957249560.872300,0.404990,-0.468224,0.149919
-0.020000,-1.980000,0.022334,0.040000,-8764827150.451448,20769518732.241970,-29945413861.093410,7758231864.315263,0.443174,-0.512325,0.146170
-0.060000,-1.980000,0.020000,0.040000,-8966052547.269663,-42175122587.918785,60715809006.581047,-212540950.618817,-0.899399,1.039126,-0.004004
0.060000,-1.980000,0.020000,0.040000,-8966052243.255978,-42175121161.934029,60715806977.361588,212540245.989049,-0.899399,1.039126,0.004004
0.020000,-1.980000,0.022334,0.040000,-8764827050.088194,20769518619.161739,-29945414551.705414,-7758231428.139243,0.443174,-0.512325,-0.146170
0.140000,-1.980000,0.022228,0.040000,-8770545227.491806,18978388173.991825,-27369129723.571766,-7957248612.839061,0.404990,-0.468224,-0.149919
0.100000,-1.980000,0.022442,0.040000,-8759277889.799952,22506055585.578541,-32442398666.214603,7538624821.670845,0.480189,-0.555072,0.142032
0.220000,-1.980000,0.022551,0.040000,-8753910515.398521,24184017055.747700,-34854382820.560020,7298918003.508568,0.515952,-0.596366,0.137516
0.180000,-1.980000,0.020003,0.040000,-8965690016.397341,-42063623888.332047,60555533558.042953,637135821.017431,-0.897023,1.036382,0.012004
0.300000,-1.980000,0.020009,0.040000,-8964965956.680157,-41840968854.279678,60235463321.322006,1060274784.034984,-0.892277,1.030902,0.019976
0.260000,-1.980000,0.022125,0.040000,-8776419082.978508,17136795736.756691,-24719478429.657257,-8135248419.025250,0.365726,-0.422871,-0.153273
0.380000,-1.980000,0.022024,0.040000,-8782433297.565786,15249012490.371517,-22002612830.168819,-8291865344.567334,0.325473,-0.376369,-0.156224
0.340000,-1.980000,0.022663,0.040000,-8748735905.334394,25799571955.051533,-37175899490.791473,7039661347.876810,0.550380,-0.636115,0.132631
0.460000,-1.980000,0.022777,0.040000,-8743763334.412844,27349044581.239056,-39401722318.640724,6761463632.789870,0.583396,-0.674227,0.127390
0.420000,-1.980000,0.020018,0.040000,-8963880170.166540,-41507831191.388741,59756543908.070435,1480986683.412933,-0.885177,1.022703,0.027903
0.540000,-1.980000,0.020029,0.040000,-8962432622.719385,-41065221141.135071,59120193170.314262,1898301782.172056,-0.875742,1.011809,0.035765
0.500000,-1.980000,0.021924,0.040000,-8788570966.479107,13319443607.568832,-19224895989.780067,-8426797165.981791,0.284325,-0.328830,-0.158766
0.620000,-1.980000,0.021827,0.040000,-8794813412.407385,11352619825.128689,-16392890303.524826,-8539805655.683379,0.242378,-0.280363,-0.160895
0.580000,-1.980000,0.022892,0.040000,-8739000287.292219,28828916864.258358,-41526868289.278969,6464990521.715409,0.614925,-0.710619,0.121804
0.700000,-1.980000,0.023010,0.040000,-8734452168.853727,30235828545.373631,-43546598069.576996,6150962056.639697,0.644895,-0.745208,0.115888
0.660000,-1.980000,0.020043,0.040000,-8960622882.444302,-40514481511.569191,58328295220.504425,2311250917.462254,-0.864003,0.998252,0.043545
0.780000,-1.980000,0.020061,0.040000,-8958449727.413052,-39857285080.430199,57383195907.157249,2718864822.279469,-0.849994,0.982073,0.051225
0.740000,-1.980000,0.021732,0.040000,-8801139883.533972,9353187292.643148,-13513343882.011143,-8630717393.504515,0.199733,-0.231085,-0.162608
0.860000,-1.980000,0.021640,0.040000,-8807527088.774824,7325894940.037127,-10593174282.876759,-8699424906.449125,0.156491,-0.181114,-0.163902
0.820000,-1.980000,0.023129,0.040000,-8730121872.647125,31566574496.060608,-45456412893.462532,5820149411.718258,0.673240,-0.777917,0.109655
0.940000,-1.980000,0.023250,0.040000,-8726009142.140694,32818097572.013664,-47252046336.730827,5473370608.779053,0.699895,-0.808673,0.103121
0.900000,-1.980000,0.020081,0.040000,-8955910562.636679,-39095632957.344849,56287698670.445541,3120172559.816495,-0.833757,0.963320,0.058786
1.020000,-1.980000,0.020103,0.040000,-8953000552.794771,-38231855786.657356,55045062557.605934,3514198494.773848,-0.815341,0.942050,0.066210
0.980000,-1.980000,0.021550,0.040000,-8813948491.077965,5275577932.979364,-7639448391.016200,-8745888515.260096,0.112756,-0.130571,-0.164778
1.100000,-1.980000,0.021462,0.040000,-8820373225.440636,3207134445.166147,-4659356071.369312,-8770139521.278629,0.068632,-0.079577,-0.165235
1.060000,-1.980000,0.023373,0.040000,-8722109615.478071,33987474038.698074,-48929447925.509109,5111484699.590004,0.724798,-0.837405,0.096303
1.180000,-1.980000,0.023498,0.040000,-8718413366.468826,35071885887.998260,-50484752731.904175,4735383575.354633,0.747891,-0.864046,0.089217
1.140000,-1.980000,0.020129,0.040000,-8949711311.882923,-37268621416.469711,53659005848.615234,3899956826.266419,-0.794804,0.918325,0.073477
1.260000,-1.980000,0.020158,0.040000,-8946028871.477877,-36208956368.962639,52133722317.823975,4276441998.976047,-0.772207,0.892220,0.080571
1.220000,-1.980000,0.021376,0.040000,-8826764410.771328,1125490163.286453,-1660172704.344752,-8772285818.257936,0.024227,-0.028256,-0.165275
1.340000,-1.980000,0.021292,0.040000,-8833076440.535177,-964461302.763885,1350799949.076544,-8752521797.841736,-0.020355,0.023266,-0.164903
1.300000,-1.980000,0.023625,0.040000,-8714902609.702539,36068568618.616554,-51914225228.405136,4345979974.152626,0.769115,-0.888532,0.081881
1.420000,-1.980000,0.023753,0.040000,-8711547954.451406,36974710122.427757,-53214152460.041527,3944189322.819498,0.788413,-0.910797,0.074311
1.380000,-1.980000,0.020189,0.040000,-8941930419.833639,-35056296814.935394,50473925287.098335,4642612073.881366,-0.747624,0.863815,0.087470
1.500000,-1.980000,0.020223,0.040000,-8937378837.784000,-33814604953.062508,48684954444.193886,4997360157.920961,-0.721137,0.833203,0.094153
1.460000,-1.980000,0.021211,0.040000,-8839250470.145041,-3057968694.925148,4366338710.863585,-8711145670.031090,-0.065009,0.074869,-0.164123
1.580000,-1.980000,0.021133,0.040000,-8845206540.872938,-5150648250.297578,7379509210.133779,-8648588691.027243,-0.109639,0.126436,-0.162944
1.540000,-1.980000,0.023883,0.040000,-8708302004.492907,37787245048.892700,-54380629613.638000,3530901987.931776,0.805722,-0.930774,0.066524
1.660000,-1.980000,0.024015,0.040000,-8705087793.609653,38502406640.809105,-55409096357.144096,3106943753.636086,0.820967,-0.948380,0.058537
1.620000,-1.980000,0.020260,0.040000,-8932313045.626268,-32488639460.078068,46773032871.507080,5339466857.499244,-0.692843,0.800493,0.100599
1.740000,-1.980000,0.020299,0.040000,-8926629796.840965,-31084620226.488373,44745915361.608665,5667531226.373649,-0.662868,0.765823,0.106780
1.700000,-1.980000,0.021057,0.040000,-8850829001.740993,-7238992497.775750,10384141169.538305,-8565458358.619713,-0.154164,0.177866,-0.161378
1.820000,-1.980000,0.020983,0.040000,-8855937434.525129,-9321655671.750231,13376049289.346647,-8462565019.342872,-0.198542,0.229096,-0.159440
1.780000,-1.980000,0.024148,0.040000,-8701776377.038832,39114657443.710800,-56293231690.409599,2673041575.076575,0.834039,-0.963501,0.050362
1.900000,-1.980000,0.024283,0.040000,-8698139341.153290,39613823166.385979,-57021962050.937561,2229947589.629138,0.844741,-0.975933,0.042014
1.860000,-1.980000,0.020342,0.040000,-8920146379.795132,-29612016189.912457,42614679502.229073,5979936499.486487,-0.631401,0.729392,0.112665
1.980000,-1.980000,0.020387,0.040000,-8912515470.301695,-28089001469.143974,40399409401.514954,6275359487.935713,-0.598794,0.691568,0.118231
1.940000,-1.980000,0.020912,0.040000,-8860222730.981943,-11403155992.347034,16356670135.103292,-8340661793.217716,-0.242840,0.280171,-0.157143
2.060000,-1.980000,0.020843,0.040000,-8863086656.271725,-13506411472.421263,19346177137.795429,-8197805242.578194,-0.287476,0.331486,-0.154451
2.020000,-1.980000,0.024420,0.040000,-8693735400.450260,39976169639.078400,-57569848776.374977,1779831320.715536,0.852617,-0.985207,0.033533
2.140000,-1.980000,0.024558,0.040000,-8687590050.568842,40130873984.997772,-57857721042.527863,1338265489.320942,0.856284,-0.989878,0.025214
2.100000,-1.980000,0.020435,0.040000,-8902999530.056625,-26562137433.636902,38151309402.264198,6558070321.732096,-0.565950,0.653289,0.123558
2.220000,-1.980000,0.020485,0.040000,-8889725541.769182,-25191592158.285362,36070211551.614555,6893941779.254814,-0.536112,0.618096,0.129886
2.180000,-1.980000,0.020777,0.040000,-8863154236.361170,-15724140297.403481,22445603942.301113,-8004529415.522230,-0.334243,0.384897,-0.150810
2.300000,-1.980000,0.020713,0.040000,-8856262775.650782,-18426988528.493366,26288404971.075729,-7358679746.066131,-0.391609,0.450855,-0.138642
2.260000,-1.980000,0.024698,0.040000,-8677024914.969139,39813045357.513496,-57518779427.985596,1071252056.185591,0.850177,-0.983611,0.020183
2.380000,-1.980000,0.024839,0.040000,-8650937692.799994,52401764419.956635,-31258306587.102673,14065027950.936388,0.867773,-0.708431,0.264993
2.340000,-1.980000,0.020538,0.040000,-8866130468.160992,-24434000804.951572,35513968351.318024,8377511781.229598,-0.522977,0.606478,0.157837
2.460000,-1.980000,0.020594,0.040000,-8790343498.739330,-204231220310.512695,1830762480133.336182,25956506910.542385,-13.041272,25.299189,0.489036
2.420000,-1.980000,0.020652,0.040000,-8820924218.988462,73325184749.513870,613956437523.733765,35483236895.259132,-2.503146,7.682660,0.668525
2.500000,-1.980000,0.005075,0.040000,-4269426844.344692,14531812241.116762,2605130228534.375000,67211595897.001175,-14.532998,34.275378,1.266305
-2.500000,-1.940000,0.014627,0.040000,-4372033139.635333,18135432853.792755,2603523135510.145508,-24132036095.306931,-14.476388,34.233815,-0.454662
-2.500000,-1.900000,0.004478,0.040000,-4387307087.211140,6041958892.327250,2607139087732.254395,-6823531850.926762,-14.656320,34.349858,-0.128559
-2.460000,-1.940000,0.042590,0.040000,-8748685845.794725,219757226358.238464,1810499916280.323975,-20278472318.381321,-7.335013,22.635502,-0.382058
-2.420000,-1.940000,0.060221,0.040000,-8767507003.785666,-136442882086.158691,590866395292.040283,-15277181447.518019,-5.139144,8.563785,-0.287831
-2.420000,-1.900000,0.080125,0.040000,-8778912131.584160,-95834144905.272430,584024787065.349365,391381694.080968,-4.564909,8.244027,0.007374
-2.460000,-1.900000,0.040250,0.040000,-8773938041.509104,163194946728.882111,1816447434291.075684,-4436064767.463380,-8.114596,23.033640,-0.083578
-2.380000,-1.940000,0.061782,0.040000,-8781873131.930403,-2069721279.364200,9758264998.601852,-4506902758.055428,-0.082452,0.140394,-0.084913
-2.340000,-1.940000,0.060182,0.040000,-8792401073.294931,-5955617505.767389,7214525190.631145,-5582708922.312870,-0.119323,0.128810,-0.105181
-2.340000,-1.900000,0.100109,0.040000,-8794442338.965656,-2228531778.738858,2256810455.805654,-4277550543.521420,-0.042147,0.042360,-0.080592
-2.380000,-1.900000,0.101079,0.040000,-8787024107.861177,-3633440592.293397,14371356880.952875,-2743420790.477116,-0.129149,0.210072,-0.051688
-2.300000,-1.940000,0.060242,0.040000,-8799949368.464579,-4504503343.446988,5306481630.716676,4045110770.923115,-0.089400,0.095444,0.076212
-2.260000,-1.940000,0.061725,0.040000,-8805482610.005270,7464338150.268957,-8955992002.097122,-807729380.859611,0.149064,-0.160305,-0.015218
-2.260000,-1.900000,0.101044,0.040000,-8805430629.868513,1895013283.494637,-1888778151.945364,-769226132.812929,0.035668,-0.035621,-0.014493
-2.300000,-1.900000,0.100145,0.040000,-8800546928.300520,-1811966812.275646,1822261716.912732,2445978530.178592,-0.034197,0.034274,0.046084
-2.220000,-1.940000,0.060163,0.040000,-8809766744.154995,-5527736825.146329,6497232504.909447,-4183880671.552945,-0.109626,0.116932,-0.078827
-2.180000,-1.940000,0.060263,0.040000,-8813063634.351614,-3480844724.275104,4085381681.403515,4704666462.397407,-0.068998,0.073554,0.088639
-2.180000,-1.900000,0.100158,0.040000,-8812480205.181149,-1298383163.888383,1298161724.467613,3143017705.731791,-0.024461,0.024459,0.059216
-2.220000,-1.900000,0.100098,0.040000,-8809333783.926052,-1987113043.964579,1982682998.249086,-3018455358.495595,-0.037413,0.037380,-0.056869
-2.140000,-1.940000,0.061669,0.040000,-8815655936.639648,7876159653.793019,-9410943606.854473,-819771257.225634,0.157066,-0.168633,-0.015445
-2.100000,-1.940000,0.060146,0.040000,-8817842735.886717,-5557394732.653011,6572466209.600965,-3905693805.452600,-0.110442,0.118092,-0.073586
-2.100000,-1.900000,0.100088,0.040000,-8817162502.311478,-1842103318.005250,1837332354.785635,-2725239315.109382,-0.034679,0.034643,-0.051345
-2.140000,-1.900000,0.101010,0.040000,-8815045838.619846,2210138548.709281,-2207119612.240287,-617923765.471578,0.041623,-0.041600,-0.011642
-2.060000,-1.940000,0.060286,0.040000,-8819596208.953865,-2858990374.546711,3379275298.368152,4862860863.212187,-0.056806,0.060727,0.091619
-2.020000,-1.940000,0.061614,0.040000,-8821028648.603266,7969926027.512169,-9497317230.532843,-1057537052.814407,0.158791,-0.170302,-0.019925
-2.020000,-1.900000,0.100977,0.040000,-8820414928.046602,2329775102.921848,-2326661623.494994,-739949878.074834,0.043877,-0.043853,-0.013941
-2.060000,-1.900000,0.100172,0.040000,-8818927912.969677,-989897556.063720,989987493.226744,3316709962.612892,-0.018651,0.018651,0.062489
-1.980000,-1.940000,0.060130,0.040000,-8822320582.160517,-5775219555.005277,6850713755.719876,-3724014897.373693,-0.114887,0.122993,-0.070163
-1.940000,-1.940000,0.060310,0.040000,-8823366962.513159,-2365285556.014148,2807226291.315703,4955529453.137605,-0.047061,0.050392,0.093365
-1.940000,-1.900000,0.100186,0.040000,-8822760317.210283,-785818491.332335,786227018.032104,3398057775.006818,-0.014808,0.014811,0.064021
-1.980000,-1.900000,0.100078,0.040000,-8821678451.085922,-1838761964.557778,1833834694.278560,-2573445527.324558,-0.034615,0.034578,-0.048485
-1.900000,-1.940000,0.061560,0.040000,-8824237589.441862,7948604565.397057,-9460957778.456324,-1320470167.604333,0.158304,-0.169702,-0.024878
-1.860000,-1.940000,0.060115,0.040000,-8825072821.495775,-6044846658.349818,7179069697.976521,-3546338100.585295,-0.120299,0.128847,-0.066815
-1.860000,-1.900000,0.100069,0.040000,-8824501592.104429,-1888001986.526451,1882525055.985661,-2443210764.599352,-0.035540,0.035499,-0.046032
-1.900000,-1.900000,0.100944,0.040000,-8823692905.005392,2365136029.869125,-2362092003.975604,-908410392.938444,0.044543,-0.044520,-0.017115
-1.820000,-1.940000,0.060335,0.040000,-8825740573.209393,-1912924868.975496,2275816251.423600,5028975995.993224,-0.038092,0.040827,0.094749
-1.780000,-1.940000,0.061507,0.040000,-8826300426.070799,7872534525.990446,-9365820986.426012,-1583277388.828354,0.156763,-0.168017,-0.029830
-1.780000,-1.900000,0.100912,0.040000,-8825823585.504004,2363054060.790741,-2360226709.608291,-1084749869.314196,0.044505,-0.044484,-0.020437
-1.820000,-1.900000,0.100201,0.040000,-8825206443.133467,-621845103.690869,622392991.511760,3453802082.884569,-0.011719,0.011723,0.065072
-1.740000,-1.940000,0.060100,0.040000,-8826873860.734409,-6324876261.356443,7514663216.542465,-3360979449.525713,-0.125889,0.134856,-0.063323
-1.700000,-1.940000,0.060360,0.040000,-8827316922.349760,-1475586595.090221,1758362962.746014,5089711686.741737,-0.029399,0.031530,0.095893
-1.700000,-1.900000,0.100217,0.040000,-8826844658.868832,-474627183.564426,475205429.531139,3497023788.895411,-0.008946,0.008950,0.065886
-1.740000,-1.900000,0.100060,0.040000,-8826366105.861973,-1956254702.079748,1950029294.145590,-2313116552.437757,-0.036822,0.036775,-0.043580
-1.660000,-1.940000,0.061455,0.040000,-8827689188.890093,7761947786.329258,-9232603771.376091,-1841461216.427762,0.154552,-0.165635,-0.034694
-1.620000,-1.940000,0.060087,0.040000,-8828100338.441534,-6600319207.629005,7842315510.994219,-3166785274.629029,-0.131374,0.140734,-0.059664
-1.620000,-1.900000,0.100052,0.040000,-8827643750.756397,-2030570238.630098,2023496444.022689,-2178719427.352177,-0.038217,0.038164,-0.041048
-1.660000,-1.900000,0.100880,0.040000,-8827268082.984140,2340983629.661155,-2338455078.897450,-1260434495.252827,0.044091,-0.044072,-0.023747
-1.580000,-1.940000,0.060387,0.040000,-8828400289.495953,-1044322438.326702,1246147631.861913,5138479550.876795,-0.020816,0.022337,0.096812
-1.540000,-1.940000,0.061404,0.040000,-8828652431.014095,7624914543.592686,-9069459690.492086,-2093836261.902577,0.151823,-0.162709,-0.039449
-1.540000,-1.900000,0.100848,0.040000,-8828275431.703964,2306123240.119023,-2303943059.996145,-1433026254.072220,0.043436,-0.043420,-0.026999
-1.580000,-1.900000,0.100233,0.040000,-8827977792.789398,-335174801.764218,335708246.078891,3530710103.292394,-0.006318,0.006322,0.066521
-1.500000,-1.940000,0.060075,0.040000,-8828957325.429363,-6864628769.357876,8155415859.854396,-2964262640.084192,-0.136629,0.146357,-0.055848
-1.460000,-1.940000,0.060415,0.040000,-8829161405.968763,-615995207.532001,736314926.042876,5175076029.830876,-0.012286,0.013193,0.097501
-1.460000,-1.900000,0.100249,0.040000,-8828778609.195667,-199741598.834034,200172205.797406,3555539662.937532,-0.003766,0.003769,0.066988
-1.500000,-1.900000,0.100045,0.040000,-8828541119.166519,-2105328765.879489,2097356159.822747,-2039216929.664768,-0.039621,0.039560,-0.038420
-1.420000,-1.940000,0.061353,0.040000,-8829333447.422604,7465212060.689114,-8880195863.532728,-2339801757.810904,0.148647,-0.159310,-0.044083
-1.380000,-1.940000,0.060063,0.040000,-8829565987.490311,-7114407154.701995,8450507255.934146,-2754146819.618410,-0.141591,0.151661,-0.051890
-1.380000,-1.900000,0.100038,0.040000,-8829181659.352835,-2177782828.872247,2168891239.831702,-1894708822.005971,-0.040980,0.040913,-0.035697
-1.420000,-1.900000,0.100818,0.040000,-8828991176.378218,2261798622.468247,-2259997738.732759,-1601568045.978394,0.042603,-0.042590,-0.030174
-1.340000,-1.940000,0.060443,0.040000,-8829703426.470984,-189697963.408269,228233542.490083,5199192295.176041,-0.003792,0.004082,0.097956
-1.300000,-1.940000,0.061304,0.040000,-8829820592.329863,7284902252.024692,-8666900451.190571,-2578842356.559073,0.145063,-0.155478,-0.048587
-1.300000,-1.900000,0.100788,0.040000,-8829505762.558113,2209720731.093481,-2208316626.917529,-1765508464.076551,0.041624,-0.041614,-0.033263
-1.340000,-1.900000,0.100266,0.040000,-8829352470.599792,-66697325.809143,66978997.179555,3571601771.647876,-0.001258,0.001260,0.067291
-1.260000,-1.940000,0.060053,0.040000,-8830002434.830807,-7347598948.236625,8725472108.463457,-2537155840.123808,-0.146221,0.156605,-0.047801
-1.220000,-1.940000,0.060473,0.040000,-8830092260.821154,234523175.393230,-277784250.179171,5210567140.001216,0.004663,-0.004989,0.098170
-1.220000,-1.900000,0.100284,0.040000,-8829767067.768002,64650990.522117,-64553726.262378,3578837996.672004,0.001218,-0.001217,0.067427
-1.260000,-1.900000,0.100032,0.040000,-8829643425.142672,-2246432081.133881,2236623726.508240,-1745534416.402866,-0.042269,0.042195,-0.032887
-1.180000,-1.940000,0.061255,0.040000,-8830171204.186079,7085296398.222310,-8430916266.567116,-2810440026.322579,0.141097,-0.151238,-0.052950
-1.140000,-1.940000,0.060043,0.040000,-8830316772.303837,-7562794275.672087,8978839188.925402,-2313961937.847973,-0.150491,0.161163,-0.043596
-1.140000,-1.900000,0.100026,0.040000,-8829978003.959850,-2310370430.414988,2299666301.579191,-1592094897.759125,-0.043468,0.043388,-0.029996
-1.180000,-1.900000,0.100758,0.040000,-8829878160.031015,2150866713.782632,-2149865505.886279,-1924417367.003979,0.040518,-0.040510,-0.036257
-1.100000,-1.940000,0.060503,0.040000,-8830371875.027363,656180972.378349,-780992643.326925,5209006402.607639,0.013068,-0.014009,0.098141
-1.060000,-1.940000,0.061207,0.040000,-8830423994.611353,6867357391.964952,-8173245094.080373,-3034068124.280446,0.136766,-0.146608,-0.057164
-1.060000,-1.900000,0.100729,0.040000,-8830148295.570219,2085856451.470174,-2085253907.267052,-2077905502.656647,0.039295,-0.039291,-0.039149
-1.100000,-1.900000,0.100303,0.040000,-8830067704.257486,194547674.190311,-194659830.192991,3577167303.768969,0.003666,-0.003667,0.067396
-1.020000,-1.940000,0.060035,0.040000,-8830543205.644726,-7758932605.574159,9209490554.380302,-2085200958.484483,-0.154382,0.165313,-0.039286
-0.980000,-1.940000,0.060534,0.040000,-8830572592.761915,1074572851.106914,-1280436970.856757,5194377706.964705,0.021409,-0.022961,0.097865
-0.980000,-1.900000,0.100321,0.040000,-8830285689.376276,323008512.812076,-323344592.137763,3566523241.803421,0.006088,-0.006090,0.067195
-1.020000,-1.900000,0.100021,0.040000,-8830220699.220583,-2369000235.714248,2357438100.918503,-1434803760.023611,-0.044568,0.044481,-0.027033
-0.940000,-1.940000,0.061160,0.040000,-8830605911.562321,6631882667.129271,-7894731585.705174,-3249200151.540786,0.132086,-0.141603,-0.061217
-0.900000,-1.940000,0.060027,0.040000,-8830705749.854124,-7935166934.921920,9416527408.878555,-1851484651.907556,-0.157876,0.169040,-0.034883
-0.900000,-1.900000,0.100016,0.040000,-8830396334.172150,-2421897790.370230,2409530779.248500,-1274073723.917803,-0.045560,0.045467,-0.024004
-0.940000,-1.900000,0.100700,0.040000,-8830344012.632957,2015126586.626951,-2014908844.774627,-2225602216.637068,0.037965,-0.037963,-0.041932
-0.860000,-1.940000,0.060566,0.040000,-8830715870.016499,1488888722.368999,-1775061449.975908,5166602930.105687,0.029669,-0.031826,0.097342
-0.820000,-1.940000,0.061114,0.040000,-8830736154.023563,6379593389.811212,-7596153291.012451,-3455319013.419690,0.127071,-0.136240,-0.065100
-0.820000,-1.900000,0.100672,0.040000,-8830485170.781996,1939016420.350102,-1939160707.276077,-2367150611.867102,0.036533,-0.036534,-0.044598
-0.860000,-1.900000,0.100341,0.040000,-8830443203.821207,449927217.582720,-450491258.125086,3546864785.517567,0.008480,-0.008484,0.066825
-0.780000,-1.940000,0.060020,0.040000,-8830821621.512653,-8090797822.331088,9599204847.145870,-1613409911.249594,-0.160961,0.172329,-0.030398
-0.740000,-1.940000,0.060600,0.040000,-8830817174.664948,1898266109.711257,-2263764837.505269,5125652437.919376,0.037830,-0.040585,0.096570
-0.740000,-1.900000,0.100361,0.040000,-8830556249.754610,575130139.616524,-575915962.506239,3518179015.652219,0.010840,-0.010846,0.066285
-0.780000,-1.900000,0.100012,0.040000,-8830522721.895048,-2468746098.530218,2455641432.662355,-1110314267.853390,-0.046439,0.046340,-0.020919
-0.700000,-1.940000,0.061069,0.040000,-8830828626.785751,6111180410.784178,-7278267441.900012,-3651924333.568637,0.121735,-0.130530,-0.068804
-0.660000,-1.940000,0.060014,0.040000,-8830903339.762276,-8225239997.930617,9756898625.526600,-1371564892.478632,-0.163625,0.175168,-0.025841
-0.660000,-1.900000,0.100009,0.040000,-8830612823.232725,-2509299594.104762,2495537273.776606,-943932039.267702,-0.047199,0.047095,-0.017784
-0.700000,-1.900000,0.100645,0.040000,-8830586163.997280,1857812697.951151,-1858288154.162667,-2502207929.638898,0.035005,-0.035009,-0.047143
-0.620000,-1.940000,0.060634,0.040000,-8830887791.235924,2301820073.939717,-2745431198.017388,5071541225.647860,0.045875,-0.049218,0.095551
-0.580000,-1.940000,0.061025,0.040000,-8830893496.027441,5827328951.914194,-6941836438.507310,-3838537886.709159,0.116090,-0.124489,-0.072320
-0.580000,-1.900000,0.100618,0.040000,-8830657521.586174,1771774035.795870,-1772542691.444723,-2630447304.139002,0.033386,-0.033391,-0.049559
-0.620000,-1.900000,0.100381,0.040000,-8830636506.457226,698405902.414983,-699397593.333116,3480481319.856380,0.013164,-0.013171,0.065574
-0.540000,-1.940000,0.060010,0.040000,-8830960071.232630,-8338005024.038876,9889087693.262068,-1126532865.993823,-0.165860,0.177549,-0.021225
-0.500000,-1.940000,0.060669,0.040000,-8830935986.917400,2698660365.098569,-3218948023.476141,5004326436.589038,0.053785,-0.057706,0.094284
-0.500000,-1.900000,0.100403,0.040000,-8830692532.148237,819522192.875279,-820694814.310762,3433814928.692189,0.015447,-0.015456,0.064695
-0.540000,-1.900000,0.100006,0.040000,-8830676132.029198,-2543364882.539414,2529036249.020190,-775331806.841956,-0.047837,0.047729,-0.014608
-0.460000,-1.940000,0.060982,0.040000,-8830938202.686354,5528732243.107817,-6587642212.734632,-4014707613.647288,0.110150,-0.118130,-0.075639
-0.420000,-1.940000,0.060006,0.040000,-8830998512.591318,-8428692202.550622,9995344833.514816,-878894558.189563,-0.167656,0.179463,-0.016559
-0.420000,-1.900000,0.100004,0.040000,-8830719585.845053,-2570789905.199938,2555996051.049120,-604917291.702740,-0.048352,0.048240,-0.011397
-0.460000,-1.900000,0.100592,0.040000,-8830706953.325611,1681144727.932795,-1682162632.800138,-2751559677.703700,0.031679,-0.031687,-0.051841
-0.380000,-1.940000,0.060705,0.040000,-8830967781.468845,3087901761.650237,-3683217549.879752,4924105764.623789,0.061543,-0.066029,0.092773
-0.340000,-1.940000,0.060939,0.040000,-8830968134.978090,5216099135.882806,-6216494462.113159,-4180010627.240897,0.103929,-0.111468,-0.078754
-0.340000,-1.900000,0.100566,0.040000,-8830740044.061289,1586162749.552695,-1587381245.217041,-2865255523.106112,0.029891,-0.029900,-0.053983
-0.380000,-1.900000,0.100424,0.040000,-8830730558.858616,938235652.889222,-939556170.462575,3378250344.628853,0.017684,-0.017694,0.063648
-0.300000,-1.940000,0.060003,0.040000,-8831023478.427694,-8496983840.678476,10075331617.657124,-629229517.120405,-0.169009,0.180904,-0.011855
-0.260000,-1.940000,0.060741,0.040000,-8830987461.204594,3468670601.213511,-4137164204.270531,4831016382.261363,0.069130,-0.074168,0.091019
-0.260000,-1.900000,0.100447,0.040000,-8830755023.658226,1054297894.404932,-1055726292.576983,3313884806.063684,0.019872,-0.019882,0.062436
-0.300000,-1.900000,0.100002,0.040000,-8830748173.363052,-2591457711.646940,2576307739.914210,-433091741.631321,-0.048739,0.048625,-0.008160
-0.220000,-1.940000,0.060898,0.040000,-8830987077.558001,4890158285.472110,-5829235320.635265,-4334055501.969184,0.097441,-0.104518,-0.081656
-0.180000,-1.940000,0.060001,0.040000,-8831038293.219618,-8542642848.570965,10128795703.995684,-378116855.617547,-0.169914,0.181867,-0.007124
-0.180000,-1.900000,0.100001,0.040000,-8830765339.698387,-2605282843.751293,2589891992.839686,-260258268.348199,-0.048998,0.048882,-0.004903
-0.220000,-1.900000,0.100541,0.040000,-8830760718.050644,1487064448.366442,-1488431559.809186,-2971266300.105052,0.028025,-0.028035,-0.055980
-0.140000,-1.940000,0.060779,0.040000,-8830997920.212418,3840109080.110965,-4579739714.025787,4725234151.381276,0.076530,-0.082104,0.089026
-0.100000,-1.940000,0.060857,0.040000,-8830997507.465776,4551660288.916946,-5426741835.474774,-4476484045.602125,0.090702,-0.097297,-0.084340
-0.100000,-1.900000,0.100517,0.040000,-8830771545.088757,1384087257.697394,-1385549175.533665,-3069345660.560498,0.026085,-0.026096,-0.057828
-0.140000,-1.900000,0.100469,0.040000,-8830768921.570353,1167459236.129125,-1168949793.507919,3240841794.125532,0.022004,-0.022015,0.061059
-0.060000,-1.940000,0.060000,0.040000,-8831045046.578279,-8565511576.934326,10155569425.134115,-126135603.517936,-0.170366,0.182350,-0.002376
-0.020000,-1.940000,0.060818,0.040000,-8831000878.752581,4201378172.971050,-5009926699.046393,4606972953.084869,0.083726,-0.089820,0.086798
-0.020000,-1.900000,0.100493,0.040000,-8830774031.555393,1277471028.641415,-1278973719.574769,3159270550.851795,0.024077,-0.024088,0.059522
-0.060000,-1.900000,0.100000,0.040000,-8830773250.465559,-2612209253.987703,2596696914.997529,-86820005.242312,-0.049128,0.049011,-0.001636
0.020000,-1.940000,0.060818,0.040000,-8831000778.926855,4201378538.128554,-5009926995.492641,-4606972687.971641,0.083726,-0.089820,-0.086798
0.060000,-1.940000,0.060000,0.040000,-8831044747.102411,-8565511297.918003,10155569090.534399,126135175.857258,-0.170366,0.182350,0.002376
0.060000,-1.900000,0.100000,0.040000,-8830772950.997028,-2612209169.347778,2596696828.836070,86819855.723069,-0.049128,0.049011,0.001636
0.020000,-1.900000,0.100493,0.040000,-8830773931.732498,1277471159.980645,-1278973780.106346,-3159270438.980843,0.024077,-0.024088,-0.059522
0.100000,-1.940000,0.060857,0.040000,-8830997008.343187,4551659631.208210,-5426741186.483733,4476484023.389544,0.090702,-0.097297,0.084340
0.140000,-1.940000,0.060779,0.040000,-8830997221.439419,3840109200.039305,-4579739714.616270,-4725233582.749620,0.076530,-0.082104,-0.089026
0.140000,-1.900000,0.100469,0.040000,-8830768222.812067,1167459293.647894,-1168949778.486543,-3240841468.016463,0.022004,-0.022015,-0.061059
0.100000,-1.900000,0.100517,0.040000,-8830771045.974997,1384087038.175455,-1385549024.915108,3069345569.546192,0.026085,-0.026096,0.057828
0.180000,-1.940000,0.060001,0.040000,-8831037394.795635,-8542642013.814991,10128794702.886267,378116394.893241,-0.169914,0.181867,0.007124
0.220000,-1.940000,0.060898,0.040000,-8830985979.493359,4890157290.240177,-5829234265.232957,4334055211.034033,0.097441,-0.104518,0.081656
0.220000,-1.900000,0.100541,0.040000,-8830759620.006500,1487064127.040564,-1488431305.302846,2971266019.223515,0.028025,-0.028035,0.055980
0.180000,-1.900000,0.100001,0.040000,-8830764441.296520,-2605282590.522457,2589891735.029973,260258095.689587,-0.048998,0.048882,0.004903
0.260000,-1.940000,0.060741,0.040000,-8830986163.492676,3468670525.321605,-4137163968.267604,-4831015496.403008,0.069130,-0.074168,-0.091019
0.300000,-1.940000,0.060003,0.040000,-8831021981.066704,-8496982457.058078,10075329958.111252,629228990.425048,-0.169009,0.180904,0.011855
0.300000,-1.900000,0.100002,0.040000,-8830746676.039320,-2591457291.877402,2576307312.508292,433091522.804668,-0.048739,0.048625,0.008160
0.260000,-1.900000,0.100447,0.040000,-8830753725.973347,1054297893.107783,-1055726217.224213,-3313884256.070905,0.019872,-0.019882,-0.062436
0.340000,-1.940000,0.060939,0.040000,-8830966437.985195,5216097760.641891,-6216492949.531859,4180010088.514604,0.103929,-0.111468,0.078754
0.380000,-1.940000,0.060705,0.040000,-8830965884.834208,3087901541.243940,-3683217138.827074,-4924104550.376703,0.061543,-0.066029,-0.092773
0.380000,-1.900000,0.100424,0.040000,-8830728662.264040,938235608.390811,-939556050.588411,-3378249562.866830,0.017684,-0.017694,-0.063648
0.340000,-1.900000,0.100566,0.040000,-8830738347.100882,1586162313.588629,-1587380873.826205,2865255066.973646,0.029891,-0.029900,0.053983
0.420000,-1.940000,0.060006,0.040000,-8830996416.312496,-8428690281.467053,9995342528.934641,878893932.923852,-0.167656,0.179463,0.016559
0.460000,-1.940000,0.060982,0.040000,-8830935906.787432,5528730448.162835,-6587640195.508193,4014706850.295070,0.110150,-0.118130,0.075639
0.460000,-1.900000,0.100592,0.040000,-8830704657.471643,1681144165.343973,-1682162132.416157,2751559062.477674,0.031679,-0.031687,0.051841
0.420000,-1.900000,0.100004,0.040000,-8830717489.619167,-2570789322.315405,2555995457.419353,604917003.894857,-0.048352,0.048240,0.011397
0.500000,-1.940000,0.060669,0.040000,-8830933491.384905,2698660053.110185,-3218947500.957314,-5004324885.379953,0.053785,-0.057706,-0.094284
0.540000,-1.940000,0.060010,0.040000,-8830957376.064331,-8338002581.370752,9889084762.322962,1126532110.025958,-0.165860,0.177549,0.021225
0.540000,-1.900000,0.100006,0.040000,-8830673436.930313,-2543364141.299196,2529035493.868644,775331427.565413,-0.047837,0.047729,0.014608
0.500000,-1.900000,0.100403,0.040000,-8830690036.669813,819522121.305098,-820694666.279526,-3433813909.056382,0.015447,-0.015456,-0.064695
0.580000,-1.940000,0.061025,0.040000,-8830890601.254305,5827326700.466352,-6941833872.712671,3838536924.033457,0.116090,-0.124489,0.072320
0.620000,-1.940000,0.060634,0.040000,-8830884696.840633,2301819724.749295,-2745430629.326611,-5071539331.516349,0.045875,-0.049218,-0.095551
0.620000,-1.900000,0.100381,0.040000,-8830633412.131287,698405820.374840,-699397433.979230,-3480480058.050560,0.013164,-0.013171,-0.065574
0.580000,-1.900000,0.100618,0.040000,-8830654626.871330,1771773335.533401,-1772542050.866249,2630446547.438805,0.033386,-0.033391,0.049559
0.660000,-1.940000,0.060014,0.040000,-8830900045.743639,-8225237053.899342,9756895092.049250,1371563974.295325,-0.163625,0.175168,0.025841
0.700000,-1.940000,0.061069,0.040000,-8830825133.181658,6111177669.175359,-7278264287.394073,3651923198.874624,0.121735,-0.130530,0.068804
0.700000,-1.900000,0.100645,0.040000,-8830582670.465982,1857811849.932809,-1858287363.228677,2502207050.466211,0.035005,-0.035009,0.047143
0.660000,-1.900000,0.100009,0.040000,-8830609529.301119,-2509298700.543749,2495536363.089671,943931546.473897,-0.047199,0.047095,0.017784
0.740000,-1.940000,0.060600,0.040000,-8830813481.454193,1898265778.881942,-2263764289.360297,-5125650197.550145,0.037830,-0.040585,-0.096570
0.780000,-1.940000,0.060020,0.040000,-8830817728.695976,-8090794401.422463,9599200739.976040,1613408800.115613,-0.160961,0.172329,0.030398
0.780000,-1.900000,0.100012,0.040000,-8830518829.184549,-2468745059.931157,2455640373.665792,1110313640.038081,-0.046439,0.046340,0.020919
0.740000,-1.900000,0.100361,0.040000,-8830552556.630133,575130064.114593,-575915809.069399,-3518177509.208603,0.010840,-0.010846,-0.066285
0.820000,-1.940000,0.061114,0.040000,-8830732061.645926,6379590127.687480,-7596149511.618414,3455317735.898313,0.127071,-0.136240,0.065100
0.860000,-1.940000,0.060566,0.040000,-8830711578.052858,1488888466.396409,-1775060990.236457,-5166600342.830067,0.029669,-0.031826,-0.097342
0.860000,-1.900000,0.100341,0.040000,-8830438911.962879,449927165.970208,-450491128.204763,-3546863033.800291,0.008480,-0.008484,-0.066825
0.820000,-1.900000,0.100672,0.040000,-8830481078.493296,1939015415.567760,-1939159756.878131,2367149630.518635,0.036533,-0.036534,0.044598
0.900000,-1.940000,0.060027,0.040000,-8830701258.308262,-7935163065.689211,9416522761.709597,1851483318.019444,-0.157876,0.169040,0.034883
0.940000,-1.940000,0.061160,0.040000,-8830601220.486498,6631878857.648696,-7894727149.423615,3249198762.136891,0.132086,-0.141603,0.061217
0.940000,-1.900000,0.100700,0.040000,-8830339321.664373,2015125417.212860,-2014907726.962035,2225601154.610276,0.037965,-0.037963,0.041932
0.900000,-1.900000,0.100016,0.040000,-8830391842.753572,-2421896615.198989,2409529580.319351,1274072940.225911,-0.045560,0.045467,0.024004
0.980000,-1.940000,0.060534,0.040000,-8830567702.127501,1074572727.211466,-1280436668.222484,-5194374774.741318,0.021409,-0.022961,-0.097865
1.020000,-1.940000,0.060035,0.040000,-8830538115.459867,-7758928320.451137,9209485405.538881,2085199373.135223,-0.154382,0.165313,0.039286
1.020000,-1.900000,0.100021,0.040000,-8830215609.186733,-2368998933.502529,2357436771.524511,1434802800.366016,-0.044568,0.044481,0.027033
0.980000,-1.900000,0.100321,0.040000,-8830280798.868912,323008502.755652,-323344503.638419,-3566521245.997923,0.006088,-0.006090,-0.067195
1.060000,-1.940000,0.061207,0.040000,-8830418704.936018,6867353011.977830,-8173239973.313998,3034066655.542637,0.136766,-0.146607,0.057164
1.100000,-1.940000,0.060503,0.040000,-8830366385.829929,656181038.300547,-780992567.043803,-5209003130.013448,0.013068,-0.014009,-0.098141
1.100000,-1.900000,0.100303,0.040000,-8830062215.212278,194547723.653430,-194659801.297445,-3577165066.883030,0.003666,-0.003667,-0.067396
1.060000,-1.900000,0.100729,0.040000,-8830143006.023317,2085855110.804090,-2085252615.330850,2077904382.546944,0.039295,-0.039291,0.039149
1.140000,-1.940000,0.060043,0.040000,-8830311083.598360,-7562789610.731697,8978833581.109579,2313960073.582683,-0.150491,0.161163,0.043596
1.180000,-1.940000,0.061255,0.040000,-8830165316.041006,7085291428.519283,-8430910438.357486,2810438512.265977,0.141097,-0.151238,0.052950
1.180000,-1.900000,0.100758,0.040000,-8829872272.039341,2150865196.614273,-2149864034.511550,1924416212.406442,0.040518,-0.040510,0.036257
1.140000,-1.900000,0.100026,0.040000,-8829972315.432501,-2310369011.652479,2299664852.128385,1592093742.916712,-0.043468,0.043388,0.029996
1.220000,-1.940000,0.060473,0.040000,-8830086173.202869,234523489.205772,-277784469.820997,-5210563534.175018,0.004663,-0.004989,-0.098170
1.260000,-1.940000,0.060053,0.040000,-8829996147.761347,-7347593942.858448,8725466088.411316,2537153670.914925,-0.146221,0.156605,0.047801
1.260000,-1.900000,0.100032,0.040000,-8829637138.282967,-2246430557.056332,2236622168.201044,1745533048.137578,-0.042269,0.042195,0.032887
1.220000,-1.900000,0.100284,0.040000,-8829760980.331522,64651117.769285,-64553775.471935,-3578835523.506318,0.001218,-0.001217,-0.067427
1.300000,-1.940000,0.061304,0.040000,-8829814105.887396,7284896677.594141,-8666893897.502541,2578840832.510383,0.145063,-0.155478,0.048587
1.340000,-1.940000,0.060443,0.040000,-8829696740.621599,-189697343.406296,228232957.210147,-5199188365.764564,-0.003792,0.004082,-0.097956
1.340000,-1.900000,0.100266,0.040000,-8829345784.967550,-66697102.090752,66978850.978689,-3571599068.778644,-0.001258,0.001260,-0.067291
1.300000,-1.900000,0.100788,0.040000,-8829499276.298977,2209719033.728661,-2208314972.359879,1765507299.466447,0.041624,-0.041614,0.033263
1.380000,-1.940000,0.060063,0.040000,-8829559102.266888,-7114401851.122537,8450500873.975769,2754144321.047807,-0.141591,0.151660,0.051890
1.420000,-1.940000,0.061353,0.040000,-8829326362.915068,7465205871.125978,-8880188571.664841,2339800260.268173,0.148647,-0.159310,0.044083
1.420000,-1.900000,0.100818,0.040000,-8828984092.090565,2261796743.105516,-2259995899.114653,1601566896.585996,0.042603,-0.042590,0.030174
1.380000,-1.900000,0.100038,0.040000,-8829174774.376656,-2177781211.205105,2168889584.338706,1894707223.161950,-0.040980,0.040913,0.035697
1.460000,-1.940000,0.060415,0.040000,-8829154122.145802,-615994222.744381,736313905.289838,-5175071788.906904,-0.012286,0.013193,-0.097501
1.500000,-1.940000,0.060075,0.040000,-8828949842.338821,-6864623212.037338,8155409169.198041,2964259789.529891,-0.136629,0.146357,0.055848
1.500000,-1.900000,0.100045,0.040000,-8828533636.368542,-2105327066.312042,2097354418.808790,2039215084.243692,-0.039621,0.039560,0.038420
1.460000,-1.900000,0.100249,0.040000,-8828771325.632627,-199741259.311009,200171943.046175,-3555536738.703471,-0.003766,0.003769,-0.066988
1.540000,-1.940000,0.061404,0.040000,-8828644748.761360,7624907733.756577,-9069451653.724274,2093834828.389109,0.151822,-0.162709,0.039449
1.580000,-1.940000,0.060387,0.040000,-8828392408.057150,-1044321029.499739,1246146105.407397,-5138475012.834675,-0.020816,0.022337,-0.096812
1.580000,-1.900000,0.100233,0.040000,-8827969911.663101,-335174325.843611,335707846.048420,-3530706967.828609,-0.006318,0.006322,-0.066521
1.540000,-1.900000,0.100848,0.040000,-8828267749.716347,2306121179.381553,-2303941035.896402,1433025145.708541,0.043436,-0.043420,0.026999
1.620000,-1.940000,0.060087,0.040000,-8828092257.885971,-6600313442.128400,7842308566.640732,3166782051.464602,-0.131374,0.140734,0.059664
1.660000,-1.940000,0.061455,0.040000,-8827680909.345211,7761940357.542330,-9232594990.194044,1841459885.310241,0.154552,-0.165635,0.034694
1.660000,-1.900000,0.100880,0.040000,-8827259803.760981,2340981391.721347,-2338452874.415487,1260433454.017295,0.044091,-0.044072,0.023747
1.620000,-1.900000,0.100052,0.040000,-8827635670.548998,-2030568467.917221,2023494628.259384,2178717320.518089,-0.038217,0.038164,0.041048
1.700000,-1.940000,0.060360,0.040000,-8827308443.807743,-1475584701.231145,1758360858.939131,-5089706868.220265,-0.029399,0.031530,-0.095893
1.740000,-1.940000,0.060100,0.040000,-8826865183.297153,-6324870332.240461,7514656073.119166,3360975835.298664,-0.125889,0.134856,0.063323
1.740000,-1.900000,0.100060,0.040000,-8826357428.841562,-1956252868.194357,1950027411.649050,2313114170.266323,-0.036822,0.036775,0.043580
1.700000,-1.900000,0.100217,0.040000,-8826836180.704380,-474626548.188726,475204868.984967,-3497020454.338902,-0.008946,0.008950,-0.065886
1.780000,-1.940000,0.061507,0.040000,-8826291549.900396,7872526488.656883,-9365811471.137205,1583276199.031471,0.156763,-0.168017,0.029830
1.820000,-1.940000,0.060335,0.040000,-8825731498.330397,-1912922424.393614,2275813494.320077,-5028970916.035098,-0.038092,0.040827,-0.094749
1.820000,-1.900000,0.100201,0.040000,-8825197368.711922,-621844280.322243,622392241.807939,-3453798564.239355,-0.011719,0.011723,-0.065072
1.780000,-1.900000,0.100912,0.040000,-8825814709.726007,2363051655.729680,-2360224334.727954,1084748920.876366,0.044505,-0.044484,0.020437
1.860000,-1.940000,0.060115,0.040000,-8825063548.063864,-6044840604.408747,7179062405.010402,3546334078.748451,-0.120299,0.128847,0.066815
1.900000,-1.940000,0.061560,0.040000,-8824228117.679413,7948595945.228932,-9460947555.513115,1320469157.529815,0.158304,-0.169702,0.024878
1.900000,-1.900000,0.100944,0.040000,-8823683433.719896,2365133479.234268,-2362089480.132081,908409560.258239,0.044543,-0.044520,0.017115
1.860000,-1.900000,0.100069,0.040000,-8824492319.172520,-1888000090.460613,1882523107.883348,2443208092.832425,-0.035540,0.035499,0.046031
1.940000,-1.940000,0.060310,0.040000,-8823357292.511078,-2365282482.326071,2807222792.645667,-4955524134.512225,-0.047061,0.050392,-0.093365
1.980000,-1.940000,0.060130,0.040000,-8822310714.173388,-5775213396.968785,6850706345.062829,3724010451.058388,-0.114887,0.122992,0.070163
1.980000,-1.900000,0.100078,0.040000,-8821668583.688253,-1838759989.752322,1833832664.284407,2573442546.230632,-0.034615,0.034578,0.048485
1.940000,-1.900000,0.100186,0.040000,-8822750647.757246,-785817438.565488,786226037.696907,-3398054093.441570,-0.014808,0.014811,-0.064021
2.020000,-1.940000,0.061614,0.040000,-8821018582.972500,7969916883.093083,-9497306360.644650,1057536255.392285,0.158791,-0.170302,0.019925
2.060000,-1.940000,0.060286,0.040000,-8819585945.917410,-2858986556.021061,3379270932.186130,-4862855340.696290,-0.056806,0.060727,-0.091619
2.060000,-1.900000,0.100172,0.040000,-8818917650.553139,-989896199.117377,989986207.548712,-3316706159.928338,-0.018651,0.018651,-0.062489
2.020000,-1.900000,0.100977,0.040000,-8820404862.974251,2329772454.495139,-2326658998.246787,739949172.510084,0.043877,-0.043853,0.013941
2.100000,-1.940000,0.060146,0.040000,-8817832275.910000,-5557388435.175104,6572458655.571452,3905688902.447762,-0.110442,0.118092,0.073585
2.140000,-1.940000,0.061669,0.040000,-8815645280.340382,7876150133.966354,-9410932246.890093,819770669.945106,0.157066,-0.168633,0.015445
2.140000,-1.900000,0.101010,0.040000,-8815035182.849579,2210135918.549070,-2207117001.405135,617923143.690163,0.041623,-0.041600,0.011642
2.100000,-1.900000,0.100088,0.040000,-8817152042.960573,-1842101200.756892,1837330179.778942,2725235975.241357,-0.034679,0.034643,0.051345
2.180000,-1.940000,0.060263,0.040000,-8813052782.343964,-3480839921.737241,4085376189.072347,-4704660839.515302,-0.068998,0.073554,-0.088639
2.220000,-1.940000,0.060163,0.040000,-8809755697.457317,-5527730160.757156,6497224566.851779,4183875149.280271,-0.109625,0.116932,0.078827
2.220000,-1.900000,0.100098,0.040000,-8809322737.473829,-1987110593.793054,1982680487.542081,3018451440.303041,-0.037413,0.037380,0.056869
2.180000,-1.900000,0.100158,0.040000,-8812469353.647188,-1298381336.096823,1298159966.587204,-3143013920.980883,-0.024461,0.024459,-0.059216
2.260000,-1.940000,0.061725,0.040000,-8805471370.035234,7464328698.323212,-8955980664.980324,807728716.122685,0.149063,-0.160305,0.015218
2.300000,-1.940000,0.060242,0.040000,-8799937937.040110,-4504496926.284046,5306474210.226516,-4045105773.874818,-0.089400,0.095444,-0.076212
2.300000,-1.900000,0.100145,0.040000,-8800535495.629044,-1811964201.471540,1822259159.190157,-2445975518.865629,-0.034197,0.034274,-0.046084
2.260000,-1.900000,0.101044,0.040000,-8805419389.596441,1895010948.542805,-1888775837.161281,769225228.106738,0.035668,-0.035621,0.014493
2.340000,-1.940000,0.060182,0.040000,-8792389453.313494,-5955609859.454727,7214515786.689610,5582701163.386802,-0.119323,0.128810,0.105181
2.380000,-1.940000,0.061782,0.040000,-8781861327.668423,-2069717740.732924,9758250456.076542,4506896776.886562,-0.082452,0.140394,0.084913
2.380000,-1.900000,0.101079,0.040000,-8787012295.834589,-3633435269.513810,14371336392.675220,2743417023.666247,-0.129149,0.210072,0.051688
2.340000,-1.900000,0.100109,0.040000,-8794430715.662514,-2228528865.446557,2256807433.369665,4277544652.775178,-0.042147,0.042360,0.080591
2.420000,-1.940000,0.060221,0.040000,-8767495020.779085,-136442688671.451660,590865559936.537720,15277159265.339174,-5.139136,8.563773,0.287831
2.460000,-1.940000,0.042590,0.040000,-8748673690.501314,219756916321.395630,1810497357736.734863,20278442929.553951,-7.335003,22.635470,0.382058
2.460000,-1.900000,0.040250,0.040000,-8773925849.728260,163194715351.312012,1816444868108.960205,4436058185.361499,-8.114584,23.033607,0.083578
2.420000,-1.900000,0.080125,0.040000,-8778900131.874283,-95834009512.873947,584023961873.335449,-391381605.428262,-4.564903,8.244015,-0.007374
2.500000,-1.940000,0.014627,0.040000,-4372026980.583156,18135413652.226849,2603519453689.130371,24132001542.793549,-14.476368,34.233767,0.454661
2.500000,-1.900000,0.004478,0.040000,-4387300887.267464,6041946625.804007,2607135406113.992188,6823521896.008570,-14.656299,34.349810,0.128559
-2.500000,-1.860000,0.005672,0.040000,-4395031713.409306,1166419925.654307,2607951828823.580078,1559156159.669709,-14.725214,34.388134,0.029375
-2.500000,-1.820000,0.014030,0.040000,-4399733090.457923,-662762040.842026,2611732655483.631348,1662123725.955068,-14.770708,34.448336,0.031315
-2.460000,-1.860000,0.040400,0.040000,-8787943467.424374,161489598106.252838,1818070261411.896973,47125316.129116,-8.146259,23.064681,0.000888
-2.420000,-1.860000,0.080201,0.040000,-8789019229.255913,-92094545102.720184,583077243373.753906,-1358329595.101288,-4.510234,8.210394,-0.025592
-2.420000,-1.820000,0.081221,0.040000,-8796914348.082336,-92419383657.284180,584020106027.836548,-603386048.878639,-4.519848,8.224665,-0.011368
-2.460000,-1.820000,0.042389,0.040000,-8794913197.132301,159942988484.985992,1819677306378.118408,477160685.462813,-8.175740,23.094617,0.008990
-2.380000,-1.860000,0.120134,0.040000,-8793165344.157681,-4789903605.001678,15837318447.755192,-1628128364.117826,-0.152686,0.235942,-0.030675
-2.340000,-1.860000,0.140078,0.040000,-8797912437.203461,-429172732.806993,287440684.180317,-1191119446.732381,-0.007285,0.006217,-0.022441
-2.340000,-1.820000,0.160614,0.040000,-8801740582.002533,133775733.545378,-120437428.658511,-863416860.975623,0.002445,-0.002345,-0.016267
-2.380000,-1.820000,0.120817,0.040000,-8798874682.185532,-5070240477.578203,15818728086.307713,-1018496800.768746,-0.156279,0.237282,-0.019189
-2.300000,-1.860000,0.140104,0.040000,-8802397553.544317,-542251472.302074,428468131.091772,-754222620.082473,-0.009573,0.008716,-0.014210
-2.260000,-1.860000,0.140748,0.040000,-8806328309.573372,62659067.178912,219072451.645659,-483847594.707911,-0.000412,0.002535,-0.009116
-2.260000,-1.820000,0.180582,0.040000,-8807831223.819349,-176786872.273624,177811920.574572,-465752629.765529,-0.003337,0.003344,-0.008775
-2.300000,-1.820000,0.180081,0.040000,-8804845623.845339,-84365828.765700,88940328.714904,-652604960.573592,-0.001615,0.001650,-0.012295
-2.220000,-1.860000,0.140070,0.040000,-8809671283.983047,-597587552.512425,424568390.317889,-312832715.556426,-0.010281,0.008977,-0.005894
-2.180000,-1.860000,0.140113,0.040000,-8812485974.138239,-445819630.321425,336687262.708338,-179483476.903371,-0.007783,0.006960,-0.003382
-2.180000,-1.820000,0.180088,0.040000,-8812941852.737120,-194843615.541084,192603992.008794,-223807256.095754,-0.003658,0.003641,-0.004217
-2.220000,-1.820000,0.180055,0.040000,-8810544143.028088,-201563599.495770,200393801.194235,-324240040.258883,-0.003791,0.003782,-0.006109
-2.140000,-1.860000,0.140724,0.040000,-8814853977.840815,200597277.348366,76553084.832824,-123106262.919314,0.002213,-0.000124,-0.002319
-2.100000,-1.860000,0.140063,0.040000,-8816853048.324100,-473877908.226223,287991079.017862,-86601143.467532,-0.007877,0.006477,-0.001632
-2.100000,-1.820000,0.180049,0.040000,-8816848611.561365,-154816463.745749,151208624.874533,-106847751.848965,-0.002896,0.002869,-0.002013
-2.140000,-1.820000,0.180563,0.040000,-8815033489.212049,-177114100.126756,173581544.705687,-154421123.954555,-0.003317,0.003290,-0.002909
-2.060000,-1.860000,0.140123,0.040000,-8818549544.200657,-300451309.550816,204905010.799313,-37087303.428722,-0.005121,0.004401,-0.000699
-2.020000,-1.860000,0.140699,0.040000,-8819997713.854034,299678103.267553,-24618557.599041,-33166878.560506,0.004091,-0.002019,-0.000625
-2.020000,-1.820000,0.180545,0.040000,-8819788263.748640,-113887379.439875,110624962.932101,-51574727.001455,-0.002127,0.002103,-0.000972
-2.060000,-1.820000,0.180096,0.040000,-8818422230.806828,-133216686.560594,129745500.154038,-74158356.727662,-0.002490,0.002464,-0.001397
-1.980000,-1.860000,0.140056,0.040000,-8821241175.655796,-408738822.035744,211626380.664565,-27689185.588864,-0.006587,0.005101,-0.000522
-1.940000,-1.860000,0.140133,0.040000,-8822314847.838598,-212443229.517813,131058422.536670,1378005.105188,-0.003543,0.002929,0.000026
-1.940000,-1.820000,0.180104,0.040000,-8822014779.318060,-83585898.974578,80433695.392526,-24778594.030191,-0.001557,0.001533,-0.000467
-1.980000,-1.820000,0.180043,0.040000,-8820977058.360077,-97563080.445573,94297470.448637,-35840542.345637,-0.001820,0.001795,-0.000675
-1.900000,-1.860000,0.140676,0.040000,-8823246731.607521,348359012.630106,-76110708.240721,-8534123.615294,0.005024,-0.002973,-0.000161
-1.860000,-1.860000,0.140049,0.040000,-8824059389.458122,-382708400.601425,174801409.816074,-10440209.871576,-0.006035,0.004468,-0.000197
-1.860000,-1.820000,0.180038,0.040000,-8823722077.574959,-62159526.845437,59101948.865508,-11359630.885666,-0.001154,0.001131,-0.000214
-1.900000,-1.820000,0.180526,0.040000,-8822923582.482700,-71768306.048379,68768615.619289,-16948544.842024,-0.001335,0.001313,-0.000319
-1.820000,-1.860000,0.140144,0.040000,-8824771117.129280,-155763296.748445,88641735.703063,12785595.330344,-0.002555,0.002049,0.000241
-1.780000,-1.860000,0.140653,0.040000,-8825396855.023357,371060169.242889,-102407912.282995,-1677340.070712,0.005473,-0.003448,-0.000032
-1.780000,-1.820000,0.180508,0.040000,-8825047980.980820,-46918100.938119,44044975.819914,-4451543.982411,-0.000868,0.000846,-0.000084
-1.820000,-1.820000,0.180112,0.040000,-8824425854.659443,-53918790.623823,50934391.935891,-7341618.962115,-0.000999,0.000977,-0.000138
-1.740000,-1.860000,0.140043,0.040000,-8825948892.005503,-375450246.872566,157210372.346434,-5030707.256152,-0.005840,0.004195,-0.000095
-1.700000,-1.860000,0.140155,0.040000,-8826437408.564108,-114330682.471478,61564333.065527,16158168.779619,-0.001856,0.001458,0.000304
-1.700000,-1.820000,0.180120,0.040000,-8826089473.159163,-36335348.358376,33430145.638046,-844566.909837,-0.000668,0.000646,-0.000016
-1.740000,-1.820000,0.180034,0.040000,-8825599435.225973,-41296986.666233,38335485.629200,-2361081.927650,-0.000761,0.000739,-0.000044
-1.660000,-1.860000,0.140630,0.040000,-8826870897.275696,380424012.460757,-116088703.347452,-264557.365352,0.005673,-0.003681,-0.000005
-1.620000,-1.860000,0.140037,0.040000,-8827256489.834072,-377152848.971736,149104063.763243,-3346734.058238,-0.005817,0.004098,-0.000063
-1.620000,-1.820000,0.180029,0.040000,-8826915465.366692,-28669775.641235,25751730.595662,1020636.518116,-0.000524,0.000502,0.000019
-1.660000,-1.820000,0.180490,0.040000,-8826525929.592613,-32051569.153518,29236132.575037,241297.185137,-0.000588,0.000567,0.000005
-1.580000,-1.860000,0.140166,0.040000,-8827600212.942636,-80641974.071990,42309401.434587,16913415.306473,-0.001303,0.001014,0.000319
-1.540000,-1.860000,0.140607,0.040000,-8827907189.897268,382357586.514200,-123020798.790240,-630291.820097,0.005738,-0.003784,-0.000012
-1.540000,-1.820000,0.180473,0.040000,-8827575717.882278,-22815335.535332,20026559.576562,1956053.412110,-0.000414,0.000393,0.000037
-1.580000,-1.820000,0.180129,0.040000,-8827263768.502665,-25552422.956729,22686100.201816,1577175.171959,-0.000465,0.000444,0.000030
-1.500000,-1.860000,0.140032,0.040000,-8828181800.403002,-383183855.272200,145893245.844342,-2883696.334768,-0.005878,0.004090,-0.000054
-1.460000,-1.860000,0.140178,0.040000,-8828427808.152374,-51151892.664796,27304412.886868,16782489.916745,-0.000829,0.000649,0.000316
-1.460000,-1.820000,0.180139,0.040000,-8828106800.792128,-18671013.086039,15825386.625931,2380472.059420,-0.000336,0.000314,0.000045
-1.500000,-1.820000,0.180025,0.040000,-8827855516.587877,-20719681.286029,17821558.556007,2212581.476635,-0.000374,0.000352,0.000042
-1.420000,-1.860000,0.140585,0.040000,-8828648463.392149,379736378.633386,-126054947.624843,-1566373.897389,0.005721,-0.003809,-0.000030
-1.380000,-1.860000,0.140027,0.040000,-8828846585.859524,-391233789.123950,145301061.344838,-2796299.575450,-0.005981,0.004128,-0.000053
-1.380000,-1.820000,0.180021,0.040000,-8828536055.265732,-15520033.689297,12631046.402188,2510777.933051,-0.000276,0.000254,0.000047
-1.420000,-1.820000,0.180456,0.040000,-8828332728.970272,-16847959.631439,14071617.908285,2469813.428213,-0.000302,0.000281,0.000047
-1.340000,-1.860000,0.140190,0.040000,-8829024632.285370,-24101002.102575,14756694.330093,16362550.448398,-0.000401,0.000331,0.000308
-1.300000,-1.860000,0.140564,0.040000,-8829184751.709181,374050874.093356,-126662641.639797,-2648076.890011,0.005649,-0.003785,-0.000050
-1.300000,-1.820000,0.180439,0.040000,-8828884250.240492,-12855296.557568,10084553.005146,2487142.357118,-0.000227,0.000206,0.000047
-1.340000,-1.820000,0.180148,0.040000,-8828719190.067802,-14114835.742283,11281398.060798,2517656.788182,-0.000250,0.000229,0.000047
-1.260000,-1.860000,0.140023,0.040000,-8829328831.008118,-400073849.748502,146126079.776482,-2785644.977961,-0.006102,0.004188,-0.000052
-1.220000,-1.860000,0.140203,0.040000,-8829458532.601036,1425469.613003,3716104.525038,15866363.670240,-0.000002,0.000041,0.000299
-1.220000,-1.820000,0.180158,0.040000,-8829167390.625952,-11001126.613219,8175713.404447,2381163.196082,-0.000191,0.000170,0.000045
-1.260000,-1.820000,0.180018,0.040000,-8829033100.947351,-12004185.455119,9119207.814710,2439657.631704,-0.000210,0.000188,0.000046
-1.180000,-1.860000,0.140542,0.040000,-8829575325.875216,366124412.871220,-125650072.074037,-3723239.145353,0.005539,-0.003727,-0.000070
-1.140000,-1.860000,0.140018,0.040000,-8829680513.450407,-409007987.407070,147696460.386212,-2747242.150153,-0.006229,0.004260,-0.000052
-1.140000,-1.820000,0.180014,0.040000,-8829397968.619701,-9559702.284965,6676227.241705,2221799.552532,-0.000164,0.000142,0.000042
-1.180000,-1.820000,0.180422,0.040000,-8829288580.355900,-10103624.577308,7335012.091425,2303036.134397,-0.000175,0.000154,0.000043
-1.100000,-1.860000,0.140216,0.040000,-8829775253.258705,25919331.334665,-6345091.676635,15367307.099767,0.000378,-0.000230,0.000290
-1.060000,-1.860000,0.140522,0.040000,-8829860577.227085,356440449.231860,-123483733.710501,-4740201.400687,0.005399,-0.003643,-0.000089
-1.060000,-1.820000,0.180406,0.040000,-8829585844.298199,-8160845.002556,5392503.421574,2045184.882778,-0.000138,0.000117,0.000039
-1.100000,-1.820000,0.180168,0.040000,-8829496712.261925,-8816546.128103,5997026.165850,2139413.886793,-0.000150,0.000129,0.000040
-1.020000,-1.860000,0.140015,0.040000,-8829937407.089375,-417618680.150518,149616500.537579,-2649170.803919,-0.006353,0.004334,-0.000050
-0.980000,-1.860000,0.140230,0.040000,-8830006567.852955,49648858.036497,-15730988.972086,14886310.956259,0.000744,-0.000488,0.000280
-0.980000,-1.820000,0.180179,0.040000,-8829738875.409065,-7251300.781093,4436535.650857,1865913.024333,-0.000121,0.000099,0.000035
-1.020000,-1.820000,0.180012,0.040000,-8829666289.103245,-7821415.284545,4938203.518698,1954098.012938,-0.000131,0.000109,0.000037
-0.940000,-1.860000,0.140501,0.040000,-8830068799.344954,345300201.553911,-120447341.491971,-5685376.391047,0.005235,-0.003540,-0.000107
-0.900000,-1.860000,0.140012,0.040000,-8830124766.083130,-425642322.132952,151642286.837662,-2486987.707730,-0.006471,0.004406,-0.000047
-0.900000,-1.820000,0.180009,0.040000,-8829863374.661411,-6563831.435562,3680284.545871,1678561.813851,-0.000107,0.000086,0.000032
-0.940000,-1.820000,0.180390,0.040000,-8829804347.466755,-6763119.490209,3993990.587129,1769253.320167,-0.000112,0.000091,0.000033
-0.860000,-1.860000,0.140244,0.040000,-8830175065.776199,72758402.340304,-24621343.385033,14424602.902495,0.001099,-0.000736,0.000272
-0.820000,-1.860000,0.140481,0.040000,-8830220236.696915,332902741.958018,-116721577.452821,-6559387.501118,0.005050,-0.003421,-0.000124
-0.820000,-1.820000,0.180374,0.040000,-8829964446.407648,-5744058.163267,2973501.309904,1498696.257396,-0.000093,0.000072,0.000028
-0.860000,-1.820000,0.180190,0.040000,-8829916559.819668,-6112025.208526,3301379.717912,1592185.347328,-0.000099,0.000078,0.000030
-0.780000,-1.860000,0.140009,0.040000,-8830260764.031261,-432904929.508931,153617466.578906,-2266277.171199,-0.006578,0.004473,-0.000043
-0.740000,-1.860000,0.140258,0.040000,-8830297085.396675,95320714.221241,-33123723.714457,13976502.778953,0.001444,-0.000976,0.000263
-0.740000,-1.820000,0.180201,0.040000,-8830046237.642992,-5274449.498154,2467551.159857,1330654.788338,-0.000084,0.000062,0.000025
-0.780000,-1.820000,0.180007,0.040000,-8830007524.783712,-5643351.836068,2759208.484159,1412421.141949,-0.000090,0.000068,0.000027
-0.700000,-1.860000,0.140462,0.040000,-8830329595.676577,319387680.275027,-112426608.116508,-7367686.805618,0.004848,-0.003288,-0.000139
-0.660000,-1.860000,0.140006,0.040000,-8830358651.199911,-439287419.476888,155438515.761108,-1995765.809882,-0.006672,0.004533,-0.000038
-0.660000,-1.820000,0.180005,0.040000,-8830112127.183468,-4966144.930042,2081327.364039,1161513.857988,-0.000077,0.000056,0.000022
-0.700000,-1.820000,0.180359,0.040000,-8830080984.768267,-4995797.319086,2223398.283273,1242223.127630,-0.000078,0.000058,0.000023
-0.620000,-1.860000,0.140273,0.040000,-8830384573.399923,117365678.005964,-41302140.347171,13534469.234427,0.001781,-0.001208,0.000255
-0.580000,-1.860000,0.140442,0.040000,-8830407652.045813,304858885.426689,-107645724.579519,-8116876.577855,0.004629,-0.003143,-0.000153
-0.580000,-1.820000,0.180344,0.040000,-8830164869.555674,-4446873.111031,1672345.319477,1001745.524511,-0.000068,0.000047,0.000019
-0.620000,-1.820000,0.180212,0.040000,-8830139990.790152,-4656784.373353,1853400.591276,1084942.406803,-0.000072,0.000051,0.000020
-0.540000,-1.860000,0.140004,0.040000,-8830428148.034992,-444706104.247722,157035194.450677,-1684650.309126,-0.006753,0.004585,-0.000032
-0.500000,-1.860000,0.140288,0.040000,-8830446295.849035,138896722.714639,-49193374.480713,13091023.142262,0.002110,-0.001434,0.000247
-0.500000,-1.820000,0.180224,0.040000,-8830206705.201487,-4204275.647382,1404248.807734,854636.839544,-0.000063,0.000042,0.000016
-0.540000,-1.820000,0.180003,0.040000,-8830187028.310143,-4469689.554954,1584223.082298,926435.950223,-0.000068,0.000046,0.000017
-0.460000,-1.860000,0.140424,0.040000,-8830462305.734344,289398143.951456,-102438964.121691,-8813349.349359,0.004396,-0.002987,-0.000166
-0.420000,-1.860000,0.140003,0.040000,-8830476365.573164,-449101364.870827,158359174.836881,-1341649.198921,-0.006818,0.004627,-0.000025
-0.420000,-1.820000,0.180002,0.040000,-8830239445.235107,-4111863.150651,1225832.329705,705424.520617,-0.000061,0.000039,0.000013
-0.460000,-1.820000,0.180330,0.040000,-8830224113.849613,-4049257.350217,1272389.108689,776083.643888,-0.000061,0.000040,0.000015
-0.380000,-1.860000,0.140303,0.040000,-8830488642.529934,159900503.148114,-56816592.249994,12639386.746802,0.002430,-0.001653,0.000238
-0.340000,-1.860000,0.140405,0.040000,-8830499284.514399,273073246.880665,-96851185.349876,-9462883.137600,0.004149,-0.002821,-0.000178
-0.340000,-1.820000,0.180315,0.040000,-8830264536.652445,-3770571.218864,991196.699138,562711.643826,-0.000055,0.000034,0.000011
-0.380000,-1.820000,0.180236,0.040000,-8830252869.352362,-3879996.870459,1083208.777055,637537.810052,-0.000057,0.000036,0.000012
-0.300000,-1.860000,0.140001,0.040000,-8830508421.413334,-452430906.466642,159377252.574044,-974764.785946,-0.006868,0.004659,-0.000018
-0.260000,-1.860000,0.140319,0.040000,-8830516166.166822,180352752.097434,-64179138.175599,12173594.966499,0.002741,-0.001866,0.000229
-0.260000,-1.820000,0.180248,0.040000,-8830283112.245491,-3659253.237981,865605.133661,430707.615942,-0.000053,0.000032,0.000008
-0.300000,-1.820000,0.180001,0.040000,-8830274579.297625,-3864345.290061,977869.317533,495714.010085,-0.000056,0.000035,0.000009
-0.220000,-1.860000,0.140387,0.040000,-8830522615.716068,255942861.331153,-90916943.563222,-10070626.519708,0.003889,-0.002646,-0.000190
-0.180000,-1.860000,0.140000,0.040000,-8830527851.767401,-454665685.595253,160067236.656080,-591332.229708,-0.006901,0.004681,-0.000011
-0.180000,-1.820000,0.180000,0.040000,-8830296028.291069,-3708583.788772,821801.978664,294160.513513,-0.000054,0.000032,0.000006
-0.220000,-1.820000,0.180301,0.040000,-8830290234.178389,-3589334.272496,807316.956525,358569.973748,-0.000052,0.000031,0.000007
-0.140000,-1.860000,0.140336,0.040000,-8830531941.442535,200221857.927879,-71280060.080350,11688395.846191,0.003043,-0.002072,0.000220
-0.100000,-1.860000,0.140370,0.040000,-8830534937.832048,238059461.720664,-84663436.240336,-10641236.299875,0.003618,-0.002462,-0.000200
-0.100000,-1.820000,0.180288,0.040000,-8830303892.214893,-3492067.390111,707290.284990,160425.136161,-0.000050,0.000029,0.000003
-0.140000,-1.820000,0.180261,0.040000,-8830300562.947422,-3526159.441697,735560.338144,230947.449255,-0.000051,0.000030,0.000004
-0.060000,-1.860000,0.140000,0.040000,-8830536880.391756,-455787469.375150,160415479.083237,-198178.577798,-0.006918,0.004692,-0.000004
-0.020000,-1.860000,0.140352,0.040000,-8830537795.249166,219471019.411430,-78112216.228912,11179072.320333,0.003336,-0.002271,0.000211
-0.020000,-1.820000,0.180274,0.040000,-8830307081.778574,-3471591.129322,683950.521438,34993.219828,-0.000050,0.000029,0.000001
-0.060000,-1.820000,0.180000,0.040000,-8830306056.284067,-3633351.249968,746414.046375,97509.760606,-0.000052,0.000030,0.000002
0.020000,-1.860000,0.140352,0.040000,-8830537695.428267,219471021.878704,-78112217.103706,-11179069.637525,0.003336,-0.002271,-0.000211
0.060000,-1.860000,0.140000,0.040000,-8830536580.929171,-455787453.916199,160415473.453274,198180.610564,-0.006918,0.004692,0.000004
0.060000,-1.820000,0.180000,0.040000,-8830305756.826994,-3633350.977202,746413.777940,-97507.550155,-0.000052,0.000030,-0.000002
0.020000,-1.820000,0.180274,0.040000,-8830306981.959499,-3471591.038318,683950.431405,-34991.011838,-0.000050,0.000029,-0.000001
0.100000,-1.860000,0.140370,0.040000,-8830534438.728205,238059443.768565,-84663430.230830,10641238.269663,0.003618,-0.002462,0.000200
0.140000,-1.860000,0.140336,0.040000,-8830531242.698137,200221847.465342,-71280056.740577,-11688392.378582,0.003043,-0.002072,-0.000220
0.140000,-1.820000,0.180261,0.040000,-8830299864.215912,-3526158.813179,735559.699825,-230945.225360,-0.000051,0.000030,-0.000004
0.100000,-1.820000,0.180288,0.040000,-8830303393.120243,-3492066.947218,707289.834674,-160422.919803,-0.000050,0.000029,-0.000003
0.180000,-1.860000,0.140000,0.040000,-8830526953.383467,-454665639.326622,160067219.790438,591334.213235,-0.006901,0.004681,0.000011
0.220000,-1.860000,0.140387,0.040000,-8830521517.693876,255942825.478958,-90916931.589380,10070627.857513,0.003889,-0.002646,0.000190
0.220000,-1.820000,0.180301,0.040000,-8830289136.176531,-3589333.270950,807315.938590,-358567.727523,-0.000052,0.000031,-0.000007
0.180000,-1.820000,0.180000,0.040000,-8830295129.923744,-3708582.954937,821801.155715,-294158.280664,-0.000054,0.000032,-0.000006
0.260000,-1.860000,0.140319,0.040000,-8830514868.507969,180352731.414786,-64179131.596475,-12173590.645169,0.002741,-0.001866,-0.000229
0.300000,-1.860000,0.140001,0.040000,-8830506924.119762,-452430829.707710,159377224.558436,974766.671998,-0.006868,0.004659,0.000018
0.300000,-1.820000,0.180001,0.040000,-8830273082.031960,-3864343.851311,977867.895393,-495711.729425,-0.000056,0.000035,-0.000009
0.260000,-1.820000,0.180248,0.040000,-8830281814.610760,-3659252.025459,865603.918905,-430705.353235,-0.000053,0.000032,-0.000008
0.340000,-1.860000,0.140405,0.040000,-8830497587.588322,273073190.885801,-96851166.647057,9462883.929115,0.004149,-0.002821,0.000178
0.380000,-1.860000,0.140303,0.040000,-8830486745.973915,159900475.085188,-56816583.469972,-12639381.508519,0.002430,-0.001653,-0.000238
0.380000,-1.820000,0.180236,0.040000,-8830250972.831963,-3879995.019640,1083206.913146,-637535.481787,-0.000057,0.000036,-0.000012
0.340000,-1.820000,0.180315,0.040000,-8830262839.758104,-3770569.600599,991195.068967,-562709.340871,-0.000055,0.000034,-0.000011
0.420000,-1.860000,0.140003,0.040000,-8830474269.390139,-449101258.156757,158359135.796485,1341650.943821,-0.006818,0.004627,0.000025
0.460000,-1.860000,0.140424,0.040000,-8830460009.927635,289398065.748854,-102438938.026583,8813349.690517,0.004396,-0.002987,0.000166
0.460000,-1.820000,0.180330,0.040000,-8830221818.086433,-4049255.028482,1272386.766076,-776081.262659,-0.000061,0.000040,-0.000015
0.420000,-1.820000,0.180002,0.040000,-8830237349.091658,-4111861.028575,1225830.227177,-705422.167470,-0.000061,0.000039,-0.000013
0.500000,-1.860000,0.140288,0.040000,-8830443800.422312,138896690.232059,-49193364.617690,-13091016.928265,0.002110,-0.001434,-0.000247
0.540000,-1.860000,0.140004,0.040000,-8830425452.992392,-444705968.290283,157035144.579317,1684651.868076,-0.006753,0.004585,0.000032
0.540000,-1.820000,0.180003,0.040000,-8830184333.319235,-4469686.638113,1584220.179442,-926433.502088,-0.000068,0.000046,-0.000017
0.500000,-1.820000,0.180224,0.040000,-8830204209.822363,-4204273.042624,1404246.199675,-854634.424769,-0.000063,0.000042,-0.000016
0.580000,-1.860000,0.140442,0.040000,-8830404757.391872,304858783.151881,-107645690.520895,8116876.570536,0.004629,-0.003143,0.000153
0.620000,-1.860000,0.140273,0.040000,-8830381479.139673,117365644.189600,-41302130.589741,-13534461.983848,0.001781,-0.001208,-0.000255
0.620000,-1.820000,0.180212,0.040000,-8830136896.590057,-4656780.870235,1853397.078020,-1084939.880319,-0.000072,0.000051,-0.000020
0.580000,-1.820000,0.180344,0.040000,-8830161974.957617,-4446869.950860,1672342.135285,-1001743.039965,-0.000068,0.000047,-0.000019
0.660000,-1.860000,0.140006,0.040000,-8830355357.338917,-439287255.182335,155438455.261924,1995767.152555,-0.006672,0.004533,0.000038
0.700000,-1.860000,0.140462,0.040000,-8830326102.220881,319387552.288876,-112426565.644163,7367686.563609,0.004848,-0.003288,0.000139
0.700000,-1.820000,0.180359,0.040000,-8830077491.381529,-4995793.123998,2223394.063827,-1242220.513677,-0.000078,0.000058,-0.000023
0.660000,-1.820000,0.180005,0.040000,-8830108833.386971,-4966141.036079,2081323.494781,-1161511.289441,-0.000077,0.000056,-0.000022
0.740000,-1.860000,0.140258,0.040000,-8830293392.352997,95320682.285298,-33123715.331280,-13976494.436670,0.001444,-0.000976,-0.000263
0.780000,-1.860000,0.140009,0.040000,-8830256871.406887,-432904737.946008,153617395.665898,2266278.270752,-0.006578,0.004473,0.000043
0.780000,-1.820000,0.180007,0.040000,-8830003632.237469,-5643346.731047,2759203.403033,-1412418.431518,-0.000090,0.000068,-0.000027
0.740000,-1.820000,0.180201,0.040000,-8830042544.672783,-5274444.878980,2467546.525202,-1330652.125653,-0.000084,0.000062,-0.000025
0.820000,-1.860000,0.140481,0.040000,-8830216144.499859,332902586.887167,-116721526.239602,6559387.148912,0.005050,-0.003421,0.000124
0.860000,-1.860000,0.140244,0.040000,-8830170774.015207,72758375.626034,-24621337.759174,-14424593.413311,0.001099,-0.000736,-0.000272
0.860000,-1.820000,0.180190,0.040000,-8829912268.146420,-6112019.163396,3301373.659807,-1592182.531022,-0.000099,0.000078,-0.000030
0.820000,-1.820000,0.180374,0.040000,-8829960354.293480,-5744052.662489,2973495.787597,-1498693.496045,-0.000093,0.000072,-0.000028
0.900000,-1.860000,0.140012,0.040000,-8830120274.767771,-425642104.475187,151642205.708540,2486988.543342,-0.006471,0.004406,0.000047
0.940000,-1.860000,0.140501,0.040000,-8830064108.485699,345300018.302864,-120447281.414173,5685376.062845,0.005235,-0.003540,0.000107
0.940000,-1.820000,0.180390,0.040000,-8829799656.705385,-6763112.301318,3993983.369691,-1769250.397663,-0.000112,0.000091,-0.000033
0.900000,-1.820000,0.180009,0.040000,-8829858883.438799,-6563824.774332,3680277.906565,-1678558.944811,-0.000107,0.000086,-0.000032
0.980000,-1.860000,0.140230,0.040000,-8830001677.461256,49648840.044300,-15730987.624701,-14886300.263618,0.000744,-0.000488,-0.000280
1.020000,-1.860000,0.140015,0.040000,-8829932317.177763,-417618437.651660,149616409.319658,2649171.361685,-0.006353,0.004334,0.000050
1.020000,-1.820000,0.180012,0.040000,-8829661199.300175,-7821406.575313,4938194.844910,-1954094.986516,-0.000131,0.000109,-0.000037
0.980000,-1.820000,0.180179,0.040000,-8829733985.120525,-7251292.867046,4436527.745841,-1865910.047332,-0.000121,0.000099,-0.000035
1.060000,-1.860000,0.140522,0.040000,-8829855287.809280,356440237.071842,-123483664.858306,4740201.232396,0.005399,-0.003643,0.000089
1.100000,-1.860000,0.140216,0.040000,-8829769764.349728,25919325.780419,-6345096.317881,-15367295.155492,0.000378,-0.000230,-0.000290
1.100000,-1.820000,0.180168,0.040000,-8829491223.472710,-8816535.742087,5997015.781230,-2139410.763664,-0.000150,0.000129,-0.000040
1.060000,-1.820000,0.180406,0.040000,-8829580554.994492,-8160835.570031,5392493.972419,-2045181.806413,-0.000138,0.000117,-0.000039
1.140000,-1.860000,0.140018,0.040000,-8829674825.066732,-409007721.302188,147696359.052319,2747242.421107,-0.006229,0.004260,0.000052
1.180000,-1.860000,0.140542,0.040000,-8829569438.034971,366124171.523895,-125649994.876245,3723239.275475,0.005539,-0.003727,0.000070
1.180000,-1.820000,0.180422,0.040000,-8829282692.647221,-10103612.118674,7334999.604281,-2303032.955484,-0.000175,0.000154,-0.000043
1.140000,-1.820000,0.180014,0.040000,-8829392280.361633,-9559690.831639,6676215.830600,-2221796.397395,-0.000164,0.000142,-0.000042
1.220000,-1.860000,0.140203,0.040000,-8829452445.324099,1425480.500013,3716091.876870,-15866350.443977,-0.000002,0.000041,-0.000299
1.260000,-1.860000,0.140023,0.040000,-8829322544.316439,-400073561.112995,146125968.035135,2785644.935135,-0.006102,0.004188,0.000052
1.260000,-1.820000,0.180018,0.040000,-8829026814.399551,-12004170.223685,9119192.629927,-2439654.453186,-0.000210,0.000188,-0.000046
1.220000,-1.820000,0.180158,0.040000,-8829161303.486694,-11001112.839485,8175699.643232,-2381160.004620,-0.000191,0.000170,-0.000045
1.300000,-1.860000,0.140564,0.040000,-8829178265.626917,374050603.888826,-126662557.002406,2648077.431013,0.005649,-0.003785,0.000050
1.340000,-1.860000,0.140190,0.040000,-8829017946.839260,-24100970.295572,14756671.196600,-16362535.956759,-0.000401,0.000331,-0.000308
1.340000,-1.820000,0.180148,0.040000,-8828712504.778322,-14114817.215601,11281379.565500,-2517653.716604,-0.000250,0.000229,-0.000047
1.300000,-1.820000,0.180439,0.040000,-8828877764.308445,-12855279.881733,10084536.297598,-2487139.215428,-0.000227,0.000206,-0.000047
1.380000,-1.860000,0.140027,0.040000,-8828839701.079180,-391233478.666914,145300938.397940,2796299.135409,-0.005981,0.004128,0.000053
1.420000,-1.860000,0.140585,0.040000,-8828641379.310419,379736080.795422,-126054857.181371,1566374.876288,0.005721,-0.003809,0.000030
1.420000,-1.820000,0.180456,0.040000,-8828325645.057970,-16847936.924077,14071595.170479,-2469810.663634,-0.000302,0.000281,-0.000047
1.380000,-1.820000,0.180021,0.040000,-8828529170.648420,-15520013.108811,12631025.884016,-2510774.985120,-0.000276,0.000254,-0.000047
1.460000,-1.860000,0.140178,0.040000,-8828420524.805798,-51151834.696506,27304375.986042,-16782474.307279,-0.000829,0.000649,-0.000316
1.500000,-1.860000,0.140032,0.040000,-8828174317.832445,-383183522.904377,145893109.987229,2883695.243118,-0.005878,0.004090,0.000054
1.500000,-1.820000,0.180025,0.040000,-8827848034.199160,-20719652.889315,17821530.244836,-2212579.360508,-0.000374,0.000352,-0.000042
1.460000,-1.820000,0.180139,0.040000,-8828099517.621321,-18670987.701321,15825361.279975,-2380469.560927,-0.000336,0.000314,-0.000045
1.540000,-1.860000,0.140607,0.040000,-8827899508.148386,382357263.629243,-123020705.433530,630293.021494,0.005738,-0.003784,0.000012
1.580000,-1.860000,0.140166,0.040000,-8827592332.066729,-80641883.328666,42309346.109882,-16913399.068089,-0.001303,0.001014,-0.000319
1.580000,-1.820000,0.180129,0.040000,-8827255887.819515,-25552387.318771,22686064.629326,-1577174.287645,-0.000465,0.000444,-0.000030
1.540000,-1.820000,0.180473,0.040000,-8827568036.320982,-22815303.899069,20026527.940944,-1956051.816668,-0.000414,0.000393,-0.000037
1.620000,-1.860000,0.140037,0.040000,-8827248409.888979,-377152493.050301,149103911.627607,3346731.607732,-0.005817,0.004098,0.000063
1.660000,-1.860000,0.140630,0.040000,-8826862618.326839,380423669.466612,-116088612.163757,264557.941469,0.005673,-0.003681,0.000005
1.660000,-1.820000,0.180490,0.040000,-8826517650.844004,-32051523.840452,29236087.294589,-241298.592601,-0.000588,0.000567,-0.000005
1.620000,-1.820000,0.180029,0.040000,-8826907385.618713,-28669735.420539,25751690.501493,-1020636.610616,-0.000524,0.000502,-0.000019
1.700000,-1.860000,0.140155,0.040000,-8826428930.685848,-114330549.775200,61564252.043665,-16158153.300262,-0.001856,0.001458,-0.000304
1.740000,-1.860000,0.140043,0.040000,-8825940215.282698,-375449862.607074,157210197.351017,5030701.480182,-0.005840,0.004195,0.000095
1.740000,-1.820000,0.180034,0.040000,-8825590758.703806,-41296927.841500,38335426.983041,2361076.336758,-0.000761,0.000739,0.000044
1.700000,-1.820000,0.180120,0.040000,-8826080995.482563,-36335296.787524,33430094.197953,844563.728089,-0.000668,0.000646,0.000016
1.780000,-1.860000,0.140653,0.040000,-8825387979.553379,371059815.436839,-102407832.532921,1677337.385374,0.005473,-0.003448,0.000032
1.820000,-1.860000,0.140144,0.040000,-8824762043.024427,-155763107.806913,88641616.556520,-12785584.551700,-0.002555,0.002049,-0.000241
1.820000,-1.820000,0.180112,0.040000,-8824416780.741640,-53918713.275802,50934314.831179,7341605.677549,-0.000999,0.000977,0.000138
1.780000,-1.820000,0.180508,0.040000,-8825039105.707077,-46918033.781751,44044908.777807,4451535.132810,-0.000868,0.000846,0.000084
1.860000,-1.860000,0.140049,0.040000,-8824050116.848682,-382707976.738683,174801198.837806,10440195.143008,-0.006035,0.004468,0.000197
1.900000,-1.860000,0.140676,0.040000,-8823237260.645639,348358666.004550,-76110657.697773,8534109.695901,0.005024,-0.002973,0.000161
1.900000,-1.820000,0.180526,0.040000,-8822914111.666637,-71768202.623354,68768512.486879,16948517.106727,-0.001335,0.001313,0.000319
1.860000,-1.820000,0.180038,0.040000,-8823712805.136688,-62159437.491775,59101859.843459,11359611.520086,-0.001154,0.001131,0.000214
1.940000,-1.860000,0.140133,0.040000,-8822305178.702974,-212442959.255226,131058242.033419,-1378010.838392,-0.003543,0.002929,-0.000026
1.980000,-1.860000,0.140056,0.040000,-8821231308.558039,-408738333.402279,211626106.635764,27689144.547802,-0.006587,0.005101,0.000522
1.980000,-1.820000,0.180043,0.040000,-8820967191.311670,-97562939.590331,94297330.231918,35840486.683611,-0.001820,0.001795,0.000675
1.940000,-1.820000,0.180104,0.040000,-8822005110.289581,-83585778.406545,80433575.300202,24778554.670976,-0.001557,0.001533,0.000467
2.020000,-1.860000,0.140699,0.040000,-8819987649.046362,299677800.151567,-24618572.196628,33166827.648348,0.004091,-0.002019,0.000625
2.060000,-1.860000,0.140123,0.040000,-8818539281.985849,-300450909.834408,204904722.633806,37087241.986201,-0.005121,0.004401,0.000699
2.060000,-1.820000,0.180096,0.040000,-8818411968.430414,-133216493.989051,129745308.526417,74158245.089533,-0.002490,0.002464,0.001397
2.020000,-1.820000,0.180545,0.040000,-8819778198.904934,-113887214.847650,110624799.011018,51574648.286807,-0.002127,0.002103,0.000972
2.100000,-1.860000,0.140063,0.040000,-8816842589.068058,-473877300.634017,287990685.797459,86601015.912078,-0.007877,0.006477,0.001632
2.140000,-1.860000,0.140724,0.040000,-8814843321.987799,200597089.373587,76552933.949606,123106081.083418,0.002213,-0.000124,0.002319
2.140000,-1.820000,0.180563,0.040000,-8815022832.739182,-177113843.856999,173581289.492702,154420895.993340,-0.003317,0.003290,0.002909
2.100000,-1.820000,0.180049,0.040000,-8816838151.958849,-154816239.880408,151208402.145806,106847592.746762,-0.002896,0.002869,0.002013
2.180000,-1.860000,0.140113,0.040000,-8812475122.228352,-445819015.599719,336686782.431995,179483210.428294,-0.007783,0.006960,0.003382
2.220000,-1.860000,0.140070,0.040000,-8809660236.668697,-597586743.654551,424567791.794631,312832261.450890,-0.010281,0.008977,0.005894
2.220000,-1.820000,0.180055,0.040000,-8810533094.077488,-201563307.014038,200393506.362693,324239567.331747,-0.003791,0.003782,0.006109
2.180000,-1.820000,0.180088,0.040000,-8812930999.800497,-194843333.394416,192603709.043276,223806927.945026,-0.003658,0.003641,0.004217
2.260000,-1.860000,0.140748,0.040000,-8806317067.625097,62659050.639997,219072104.237368,483846894.056638,-0.000412,0.002535,0.009116
2.300000,-1.860000,0.140104,0.040000,-8802386117.819927,-542250706.995737,428467512.344520,754221529.380538,-0.009573,0.008716,0.014210
2.300000,-1.820000,0.180081,0.040000,-8804834184.199697,-84365701.427105,88940190.842503,652604014.525754,-0.001615,0.001650,0.012295
2.260000,-1.820000,0.180582,0.040000,-8807819979.318813,-176786614.182187,177811657.028344,465751953.003800,-0.003337,0.003344,0.008775
2.340000,-1.860000,0.140078,0.040000,-8797900808.516428,-429172137.700443,287440267.582873,1191117731.595027,-0.007285,0.006217,0.022441
2.380000,-1.860000,0.120134,0.040000,-8793153522.909521,-4789896796.336058,15837296047.396427,1628126018.363847,-0.152686,0.235942,0.030675
2.380000,-1.820000,0.120817,0.040000,-8798862852.303864,-5070233297.858330,15818705688.093933,1018495322.006138,-0.156278,0.237281,0.019189
2.340000,-1.820000,0.160614,0.040000,-8801728947.399797,133775550.790284,-120437268.925992,863415610.094039,0.002445,-0.002344,0.016267
2.420000,-1.860000,0.080201,0.040000,-8789007214.623569,-92094414999.758911,583076419415.365356,1358327917.621741,-4.510228,8.210382,0.025592
2.460000,-1.860000,0.040400,0.040000,-8787931255.073524,161489369734.709045,1818067692301.430420,-47124880.824033,-8.146247,23.064648,-0.000888
2.460000,-1.820000,0.042389,0.040000,-8794900974.199631,159942763199.839661,1819674734187.938232,-477160196.532685,-8.175728,23.094584,-0.008990
2.420000,-1.820000,0.081221,0.040000,-8796902321.649595,-92419252856.836075,584019280507.517700,603385039.678027,-4.519841,8.224653,0.011368
2.500000,-1.860000,0.005672,0.040000,-4395025507.159698,1166417213.597596,2607948144246.318359,-1559153275.631832,-14.725193,34.388086,-0.029375
2.500000,-1.820000,0.014030,0.040000,-4399726890.730768,-662756206.489280,2611728960967.119141,-1662121646.811104,-14.770687,34.448287,-0.031315
-2.500000,-1.780000,0.003881,0.040000,-4402910390.806217,-879194100.937471,2614889422076.783691,1359681279.408779,-14.791405,34.491192,0.025617
-2.500000,-1.740000,0.006269,0.040000,-4405205196.200115,-1246442205.394953,2616644831240.803711,942164225.675512,-14.806170,34.516419,0.017751
-2.460000,-1.780000,0.040188,0.040000,-8804855461.803127,160915216428.961090,1823094137844.191162,520450749.540301,-8.182230,23.134185,0.009806
-2.420000,-1.780000,0.080094,0.040000,-8802952672.678207,-92572714520.761276,584680650177.644409,-256663895.259265,-4.525603,8.234243,-0.004836
-2.420000,-1.740000,0.080245,0.040000,-8807611525.938622,-92907258976.534897,585259550242.181152,-9503459.077068,-4.533287,8.243768,-0.000179
-2.460000,-1.740000,0.040488,0.040000,-8808921720.876143,160314961470.634705,1824056464548.051270,486700817.892953,-8.195586,23.150269,0.009170
-2.380000,-1.780000,0.120063,0.040000,-8803741490.619640,-5036623961.218575,15786293869.202942,-628386791.444857,-0.155652,0.236664,-0.011839
-2.340000,-1.780000,0.160047,0.040000,-8805387925.106207,254324552.318564,-254495115.634002,-589788350.848614,0.004793,-0.004794,-0.011112
-2.340000,-1.740000,0.160123,0.040000,-8808648342.744425,272233118.852779,-273947907.317424,-392175564.408551,0.005139,-0.005152,-0.007389
-2.380000,-1.740000,0.120164,0.040000,-8807770494.526148,-5139135209.026363,15890546996.302588,-298137581.253412,-0.157593,0.238618,-0.005617
-2.300000,-1.780000,0.200038,0.040000,-8807451130.413792,64299378.821369,-62361960.150990,-505165784.981935,0.001200,-0.001186,-0.009518
-2.260000,-1.780000,0.220477,0.040000,-8809628653.898493,-44307079.743427,44669438.442902,-400036463.314038,-0.000837,0.000840,-0.007537
-2.260000,-1.740000,0.240082,0.040000,-8811506746.208126,34008105.788718,-34628992.236666,-322151997.277865,0.000644,-0.000649,-0.006070
-2.300000,-1.740000,0.200098,0.040000,-8809968454.913710,131166781.434527,-131375802.089060,-372638613.763092,0.002472,-0.002474,-0.007021
-2.220000,-1.780000,0.220045,0.040000,-8811744553.897593,-96291167.279781,98410378.557912,-306794675.656422,-0.001826,0.001842,-0.005780
-2.180000,-1.780000,0.220072,0.040000,-8813711282.961830,-118929313.751988,117437717.564216,-226382598.158641,-0.002232,0.002221,-0.004265
-2.180000,-1.740000,0.260061,0.040000,-8814673113.432768,-62907644.263991,56066765.450004,-203880391.774686,-0.001147,0.001095,-0.003841
-2.220000,-1.740000,0.260038,0.040000,-8813107206.469496,-25189397.199812,24536765.697914,-264219828.386178,-0.000471,0.000466,-0.004978
-2.140000,-1.780000,0.220461,0.040000,-8815494711.348459,-114084987.936036,117907595.330425,-171085184.883643,-0.002171,0.002200,-0.003223
-2.100000,-1.780000,0.220040,0.040000,-8817089897.890469,-109196930.553742,111009204.092011,-119831464.430678,-0.002068,0.002081,-0.002258
-2.100000,-1.740000,0.260034,0.040000,-8817515334.158262,-83018523.556308,78745144.406605,-120937675.833102,-0.001540,0.001508,-0.002279
-2.140000,-1.740000,0.260390,0.040000,-8816150916.150045,-76541422.453187,74594215.557257,-166085909.042298,-0.001431,0.001416,-0.003129
-2.060000,-1.780000,0.220078,0.040000,-8818506368.666649,-99664350.019256,101410555.882511,-91444922.941222,-0.001888,0.001901,-0.001723
-2.020000,-1.780000,0.220446,0.040000,-8819759842.361801,-90969921.290021,91244981.677156,-63366496.673733,-0.001715,0.001718,-0.001194
-2.020000,-1.740000,0.260377,0.040000,-8819881304.106098,-76575861.099505,73170259.623644,-71466024.569169,-0.001423,0.001398,-0.001346
-2.060000,-1.740000,0.260066,0.040000,-8818758253.624290,-81901825.193526,78039946.286018,-100585401.083468,-0.001521,0.001492,-0.001895
-1.980000,-1.780000,0.220035,0.040000,-8820867847.414175,-79582746.638515,79485585.777203,-49420600.511359,-0.001499,0.001498,-0.000931
-1.940000,-1.780000,0.220085,0.040000,-8821847544.554701,-71871715.052613,70627407.380208,-34192982.144939,-0.001347,0.001338,-0.000644
-1.940000,-1.740000,0.260072,0.040000,-8821797020.729174,-63779836.193672,60704192.729594,-42246064.911011,-0.001184,0.001161,-0.000796
-1.980000,-1.740000,0.260030,0.040000,-8820891211.310472,-70070913.135033,66167717.585210,-59631116.523132,-0.001298,0.001269,-0.001123
-1.900000,-1.780000,0.220431,0.040000,-8822714747.930803,-62034095.767771,60854332.916759,-26808066.075961,-0.001162,0.001153,-0.000505
-1.860000,-1.780000,0.220031,0.040000,-8823483574.227436,-56040529.619902,54022504.771592,-18393597.656338,-0.001044,0.001029,-0.000347
-1.860000,-1.740000,0.260027,0.040000,-8823335302.086304,-51414576.141579,48510681.924325,-25064479.481376,-0.000952,0.000930,-0.000472
-1.900000,-1.740000,0.260365,0.040000,-8822608506.437820,-56875178.695264,53172017.149130,-35420019.610539,-0.001051,0.001023,-0.000667
-1.820000,-1.780000,0.220092,0.040000,-8824166406.359970,-48334101.499446,46523425.652599,-14386039.091853,-0.000900,0.000887,-0.000271
-1.780000,-1.780000,0.220416,0.040000,-8824774003.551853,-43849426.096955,41433624.801981,-9634283.221412,-0.000812,0.000794,-0.000182
-1.780000,-1.740000,0.260352,0.040000,-8824570255.047897,-41147376.482207,38327112.240589,-14851181.218499,-0.000759,0.000738,-0.000280
-1.820000,-1.740000,0.260077,0.040000,-8823986459.644882,-45485304.155653,42000395.640507,-21085190.102031,-0.000837,0.000811,-0.000397
-1.740000,-1.780000,0.220027,0.040000,-8825315669.697826,-37993018.906089,35809129.536621,-7412724.622051,-0.000703,0.000687,-0.000140
-1.700000,-1.780000,0.220099,0.040000,-8825799435.389671,-34660711.391924,32037318.107360,-4679202.882304,-0.000638,0.000618,-0.000088
-1.700000,-1.740000,0.260083,0.040000,-8825564720.539722,-33050018.455760,30267175.628938,-8687111.413869,-0.000607,0.000586,-0.000164
-1.740000,-1.740000,0.260023,0.040000,-8825094132.106333,-36396102.090620,33088195.124517,-12493934.159563,-0.000667,0.000642,-0.000235
-1.660000,-1.780000,0.220401,0.040000,-8826232232.260214,-30236279.023653,27826517.929155,-3430841.939553,-0.000556,0.000538,-0.000065
-1.620000,-1.780000,0.220024,0.040000,-8826620050.553831,-27747402.033481,25014356.559574,-1839317.497015,-0.000507,0.000487,-0.000035
-1.620000,-1.740000,0.260020,0.040000,-8826368824.787836,-26771509.024661,24002730.748960,-4912682.338291,-0.000489,0.000468,-0.000093
-1.660000,-1.740000,0.260340,0.040000,-8825987890.849413,-29334676.619455,26158111.828272,-7269003.594804,-0.000535,0.000511,-0.000137
-1.580000,-1.780000,0.220106,0.040000,-8826968077.113575,-24390719.890076,21840757.393003,-1136299.326435,-0.000445,0.000426,-0.000021
-1.540000,-1.780000,0.220387,0.040000,-8827280814.049860,-22512996.694493,19721793.684582,-207196.326703,-0.000408,0.000387,-0.000004
-1.540000,-1.740000,0.260327,0.040000,-8827021710.153660,-21915547.958749,19149439.476009,-2575834.515196,-0.000397,0.000376,-0.000049
-1.580000,-1.740000,0.260090,0.040000,-8826712089.649845,-23884341.722691,20802353.909208,-4049490.491700,-0.000433,0.000409,-0.000076
-1.500000,-1.780000,0.220020,0.040000,-8827562179.730225,-19944802.399478,17305668.310673,182816.073767,-0.000361,0.000341,0.000003
-1.460000,-1.780000,0.220113,0.040000,-8827815594.222424,-18511578.941881,15689749.339452,719287.998869,-0.000333,0.000312,0.000014
-1.460000,-1.740000,0.260096,0.040000,-8827553796.053810,-18144797.215695,15376099.338481,-1120823.965026,-0.000326,0.000305,-0.000021
-1.500000,-1.740000,0.260017,0.040000,-8827301234.880182,-19667593.342100,16653252.602022,-2047367.783323,-0.000354,0.000331,-0.000039
-1.420000,-1.780000,0.220373,0.040000,-8828044051.375345,-16526815.388702,13829664.766318,926184.527688,-0.000296,0.000276,0.000017
-1.380000,-1.780000,0.220017,0.040000,-8828250179.569857,-15419906.521678,12582441.902929,1225762.573484,-0.000274,0.000253,0.000023
-1.380000,-1.740000,0.260015,0.040000,-8827988785.719389,-15196543.545571,12423095.683349,-216654.933113,-0.000271,0.000250,-0.000004
-1.420000,-1.740000,0.260316,0.040000,-8827782162.447866,-16384566.214765,13418796.473447,-798163.894729,-0.000292,0.000270,-0.000015
-1.340000,-1.780000,0.220121,0.040000,-8828436292.939304,-13870274.078856,11134513.655778,1324062.652986,-0.000246,0.000225,0.000025
-1.300000,-1.780000,0.220359,0.040000,-8828604434.608776,-13005627.046065,10160781.865174,1478772.416176,-0.000229,0.000208,0.000028
-1.300000,-1.740000,0.260304,0.040000,-8828345260.466272,-12872992.610515,10094165.684151,337847.341220,-0.000227,0.000206,0.000006
-1.340000,-1.740000,0.260103,0.040000,-8828175840.725534,-13808210.289556,10877624.190164,-22678.592041,-0.000244,0.000222,-0.000000
-1.260000,-1.780000,0.220014,0.040000,-8828756413.264597,-11783845.030603,9021894.054494,1512186.651022,-0.000206,0.000186,0.000028
-1.220000,-1.780000,0.220129,0.040000,-8828893834.152916,-11101453.383067,8253707.615085,1577524.354950,-0.000193,0.000172,0.000030
-1.220000,-1.740000,0.260109,0.040000,-8828637894.079538,-11026948.470264,8242840.151135,667324.515374,-0.000192,0.000171,0.000013
-1.260000,-1.740000,0.260012,0.040000,-8828498766.304743,-11769580.242426,8864766.364927,450223.737102,-0.000205,0.000183,0.000008
-1.180000,-1.780000,0.220346,0.040000,-8829018125.422707,-10129340.696263,7349329.548492,1572166.819029,-0.000175,0.000154,0.000030
-1.140000,-1.780000,0.220012,0.040000,-8829130560.572395,-9585843.399716,6737645.307187,1582166.266225,-0.000165,0.000143,0.000030
-1.140000,-1.740000,0.260010,0.040000,-8828878363.489162,-9549010.486009,6760034.690732,850367.916404,-0.000164,0.000143,0.000016
-1.180000,-1.740000,0.260292,0.040000,-8828764016.667233,-10143452.733474,7257747.828263,727380.910176,-0.000175,0.000153,0.000014
-1.100000,-1.780000,0.220138,0.040000,-8829232277.630030,-8806168.959213,6013445.993191,1553862.032799,-0.000150,0.000129,0.000029
-1.060000,-1.780000,0.220332,0.040000,-8829324295.588219,-8369727.062252,5522397.700357,1529694.148008,-0.000142,0.000120,0.000029
-1.060000,-1.740000,0.260281,0.040000,-8829076029.289032,-8357556.473409,5564236.953747,937312.620121,-0.000142,0.000121,0.000018
-1.100000,-1.740000,0.260117,0.040000,-8828982037.394012,-8836761.584051,5965402.467911,876611.532045,-0.000150,0.000129,0.000017
-1.020000,-1.780000,0.220009,0.040000,-8829407528.526651,-7740118.133262,4938317.966864,1488125.239584,-0.000130,0.000109,0.000028
-0.980000,-1.780000,0.220146,0.040000,-8829482797.780722,-7387310.191773,4541448.923956,1443099.384337,-0.000123,0.000102,0.000027
-0.980000,-1.740000,0.260124,0.040000,-8829238445.513817,-7391302.641547,4594172.145052,960836.289093,-0.000123,0.000102,0.000018
-1.020000,-1.740000,0.260008,0.040000,-8829161230.840029,-7779929.136954,4919474.416499,941605.864350,-0.000130,0.000109,0.000018
-0.940000,-1.780000,0.220319,0.040000,-8829550842.455126,-6875925.226567,4067578.840044,1394217.433854,-0.000114,0.000093,0.000026
-0.900000,-1.780000,0.220007,0.040000,-8829612328.531111,-6589269.783544,3745133.414083,1336740.948785,-0.000108,0.000087,0.000025
-0.900000,-1.740000,0.260006,0.040000,-8829371743.585768,-6603894.786548,3803448.916076,942395.913795,-0.000109,0.000087,0.000018
-0.940000,-1.740000,0.260270,0.040000,-8829308398.196404,-6920553.130753,4068489.302427,950870.362331,-0.000114,0.000093,0.000018
-0.860000,-1.780000,0.220155,0.040000,-8829667856.774830,-6172180.877428,3358994.411359,1284197.621030,-0.000100,0.000079,0.000024
-0.820000,-1.780000,0.220306,0.040000,-8829717969.621086,-5938330.693747,3096010.589211,1219596.856191,-0.000096,0.000074,0.000023
-0.820000,-1.740000,0.260259,0.040000,-8829480923.443913,-5960005.964730,3156684.844337,896208.867654,-0.000096,0.000075,0.000017
-0.860000,-1.740000,0.260131,0.040000,-8829429073.528498,-6218858.440847,3373330.323646,923201.785288,-0.000101,0.000080,0.000017
-0.780000,-1.780000,0.220006,0.040000,-8829763157.178078,-5597345.161164,2780534.034008,1165605.817382,-0.000090,0.000068,0.000022
-0.740000,-1.780000,0.220164,0.040000,-8829803862.475882,-5406245.241341,2565658.324389,1097243.728940,-0.000086,0.000064,0.000021
-0.740000,-1.740000,0.260139,0.040000,-8829570075.857430,-5432522.377073,2626706.090004,831757.312588,-0.000086,0.000065,0.000016
-0.780000,-1.740000,0.260005,0.040000,-8829527777.958906,-5644426.777049,2804051.700676,871096.760599,-0.000090,0.000069,0.000016
-0.700000,-1.780000,0.220294,0.040000,-8829840486.062328,-5127250.978138,2307718.779444,1043113.619497,-0.000081,0.000059,0.000020
-0.660000,-1.780000,0.220004,0.040000,-8829873390.033545,-4971226.853209,2132256.467331,973071.444507,-0.000078,0.000056,0.000018
-0.660000,-1.740000,0.260003,0.040000,-8829642553.329050,-5000507.508843,2192518.125673,755388.607954,-0.000078,0.000057,0.000014
-0.700000,-1.740000,0.260249,0.040000,-8829608214.434258,-5173839.602798,2337578.093635,802910.459153,-0.000081,0.000060,0.000015
-0.620000,-1.780000,0.220174,0.040000,-8829902901.573206,-4743440.328959,1921779.157210,919536.998659,-0.000073,0.000052,0.000017
-0.580000,-1.780000,0.220282,0.040000,-8829929316.063658,-4616419.838487,1778971.373761,849072.454615,-0.000071,0.000050,0.000016
-0.580000,-1.740000,0.260238,0.040000,-8829701102.233053,-4647722.543129,1837828.761378,671352.916130,-0.000072,0.000051,0.000013
-0.620000,-1.740000,0.260147,0.040000,-8829673417.905661,-4788971.228962,1956036.182465,724244.107487,-0.000074,0.000053,0.000014
-0.540000,-1.780000,0.220003,0.040000,-8829952899.821829,-4431538.072743,1608182.070511,796500.318234,-0.000068,0.000046,0.000015
-0.500000,-1.780000,0.220183,0.040000,-8829973892.505993,-4328929.047331,1492840.516383,726337.750738,-0.000066,0.000044,0.000014
-0.500000,-1.740000,0.260155,0.040000,-8829747965.409235,-4361545.496726,1549968.043484,582485.051912,-0.000066,0.000045,0.000011
-0.540000,-1.740000,0.260002,0.040000,-8829725871.714851,-4475746.003127,1645538.254133,638849.403830,-0.000068,0.000047,0.000012
-0.460000,-1.780000,0.220270,0.040000,-8829992509.231867,-4180365.761033,1355669.527974,674860.780214,-0.000063,0.000042,0.000013
-0.420000,-1.780000,0.220002,0.040000,-8830008942.431242,-4098679.415272,1263809.771446,605358.832350,-0.000061,0.000040,0.000011
-0.420000,-1.740000,0.260001,0.040000,-8829784961.966249,-4132178.270394,1319094.968751,490658.221015,-0.000062,0.000041,0.000009
-0.460000,-1.740000,0.260228,0.040000,-8829767598.073811,-4223228.977177,1395291.282861,549225.770539,-0.000064,0.000042,0.000010
-0.380000,-1.780000,0.220193,0.040000,-8830023363.481504,-3981453.149182,1155616.200563,554961.671972,-0.000059,0.000038,0.000010
-0.340000,-1.780000,0.220258,0.040000,-8830035924.130074,-3917861.947474,1084131.452853,486247.605694,-0.000058,0.000036,0.000009
-0.340000,-1.740000,0.260218,0.040000,-8829813549.259676,-3952063.701116,1137613.905892,397089.905884,-0.000059,0.000037,0.000007
-0.380000,-1.740000,0.260163,0.040000,-8829800228.425964,-4022958.396025,1196942.184878,457019.714413,-0.000060,0.000039,0.000009
-0.300000,-1.780000,0.220001,0.040000,-8830046757.734306,-3828241.817611,1001405.595513,436818.674865,-0.000056,0.000035,0.000008
-0.260000,-1.780000,0.220203,0.040000,-8830055980.334642,-3780704.947072,947987.937789,368875.113198,-0.000055,0.000034,0.000007
-0.260000,-1.740000,0.260172,0.040000,-8829834870.699978,-3815457.938302,999745.960185,302550.847163,-0.000056,0.000035,0.000006
-0.300000,-1.740000,0.260001,0.040000,-8829825057.949512,-3868455.348947,1044096.697953,363295.354843,-0.000057,0.000036,0.000007
-0.220000,-1.780000,0.220247,0.040000,-8830063691.575182,-3715763.958547,888068.374074,320243.531763,-0.000054,0.000033,0.000006
-0.180000,-1.780000,0.220000,0.040000,-8830069975.484795,-3682867.364362,851063.587249,252944.017692,-0.000053,0.000032,0.000005
-0.180000,-1.740000,0.260000,0.040000,-8829849792.075665,-3718119.367653,901216.878490,207510.378295,-0.000054,0.000033,0.000004
-0.220000,-1.740000,0.260209,0.040000,-8829843087.337734,-3754865.673591,931967.842502,268720.281401,-0.000055,0.000034,0.000005
-0.140000,-1.780000,0.220214,0.040000,-8830074901.128885,-3640610.590323,812094.129702,204903.482226,-0.000053,0.000031,0.000004
-0.100000,-1.780000,0.220235,0.040000,-8830078523.139977,-3621244.596764,790325.631989,138060.330909,-0.000052,0.000031,0.000003
-0.100000,-1.740000,0.260199,0.040000,-8829858928.345312,-3657087.402843,839034.769537,112239.990630,-0.000053,0.000032,0.000002
-0.140000,-1.740000,0.260181,0.040000,-8829855054.150928,-3678702.392307,857123.140270,173695.752599,-0.000053,0.000032,0.000003
-0.060000,-1.780000,0.220000,0.040000,-8830080882.134575,-3600474.529851,771147.071071,90381.569577,-0.000052,0.000031,0.000002
-0.020000,-1.780000,0.220224,0.040000,-8830082005.021254,-3594054.277066,763952.978001,23779.740502,-0.000052,0.000030,0.000000
-0.020000,-1.740000,0.260190,0.040000,-8829862662.287342,-3630532.668656,811339.119893,16890.215742,-0.000052,0.000031,0.000000
-0.060000,-1.740000,0.260000,0.040000,-8829861455.393883,-3637666.643694,817309.129619,78450.513365,-0.000053,0.000031,0.000001
0.020000,-1.780000,0.220224,0.040000,-8830081905.203890,-3594054.160505,763952.880980,-23777.705486,-0.000052,0.000030,-0.000000
0.060000,-1.780000,0.220000,0.040000,-8830080582.682581,-3600474.279519,771146.810917,-90379.531369,-0.000052,0.000031,-0.000002
0.060000,-1.740000,0.260000,0.040000,-8829861155.946539,-3637666.381227,817308.881741,-78448.682786,-0.000053,0.000031,-0.000001
0.020000,-1.740000,0.260190,0.040000,-8829862562.471514,-3630532.562876,811339.003449,-16888.385677,-0.000052,0.000031,-0.000000
0.100000,-1.780000,0.220235,0.040000,-8830078024.053806,-3621244.117146,790325.160249,-138058.289278,-0.000052,0.000031,-0.000003
0.140000,-1.780000,0.220214,0.040000,-8830074202.409269,-3640609.969541,812093.500934,-204901.435980,-0.000053,0.000031,-0.000004
0.140000,-1.740000,0.260181,0.040000,-8829854355.442188,-3678701.748212,857122.527061,-173693.915846,-0.000053,0.000032,-0.000003
0.100000,-1.740000,0.260199,0.040000,-8829858429.266897,-3657086.922790,839034.282115,-112238.158330,-0.000053,0.000032,-0.000002
0.180000,-1.780000,0.220000,0.040000,-8830069077.132763,-3682866.509457,851062.743113,-252941.967256,-0.000053,0.000032,-0.000005
0.220000,-1.780000,0.220247,0.040000,-8830062593.592041,-3715762.961145,888067.351302,-320241.473754,-0.000054,0.000033,-0.000006
0.220000,-1.740000,0.260209,0.040000,-8829841989.371706,-3754864.651542,931966.839219,-268718.445269,-0.000055,0.000034,-0.000005
0.180000,-1.740000,0.260000,0.040000,-8829848893.737606,-3718118.510683,901216.016720,-207508.539874,-0.000054,0.000033,-0.000004
0.260000,-1.780000,0.220203,0.040000,-8830054682.722082,-3780703.694621,947986.694042,-368873.046922,-0.000055,0.000034,-0.000007
0.300000,-1.780000,0.220001,0.040000,-8830045260.494274,-3828240.406781,1001404.175132,-436816.595743,-0.000056,0.000035,-0.000008
0.300000,-1.740000,0.260001,0.040000,-8829823560.732822,-3868453.921746,1044095.284261,-363293.515887,-0.000057,0.000036,-0.000007
0.260000,-1.740000,0.260172,0.040000,-8829833573.107632,-3815456.685284,999744.696095,-302549.010110,-0.000056,0.000035,-0.000006
0.340000,-1.780000,0.220258,0.040000,-8830034227.264870,-3917860.267055,1084129.783657,-486245.513583,-0.000058,0.000036,-0.000009
0.380000,-1.780000,0.220193,0.040000,-8830021466.993782,-3981451.292231,1155614.338527,-554959.565858,-0.000059,0.000038,-0.000010
0.380000,-1.740000,0.260163,0.040000,-8829798331.967882,-4022956.524012,1196940.328815,-457017.870991,-0.000060,0.000039,-0.000009
0.340000,-1.740000,0.260218,0.040000,-8829811852.420973,-3952062.017846,1137612.215999,-397088.063109,-0.000059,0.000037,-0.000007
0.420000,-1.780000,0.220002,0.040000,-8830006846.323997,-4098677.265320,1263807.636009,-605356.712950,-0.000061,0.000040,-0.000011
0.460000,-1.780000,0.220270,0.040000,-8829990213.508507,-4180363.416370,1355667.179837,-674858.644002,-0.000063,0.000042,-0.000013
0.460000,-1.740000,0.260228,0.040000,-8829765302.386450,-4223226.616171,1395288.942196,-549223.924499,-0.000064,0.000042,-0.000010
0.420000,-1.740000,0.260001,0.040000,-8829782865.891829,-4132176.122307,1319092.807959,-490656.373934,-0.000062,0.000041,-0.000009
0.500000,-1.780000,0.220183,0.040000,-8829971397.170294,-4328926.376701,1492837.861434,-726335.596922,-0.000066,0.000044,-0.000014
0.540000,-1.780000,0.220003,0.040000,-8829950204.878023,-4431535.185522,1608179.176728,-796498.146722,-0.000068,0.000046,-0.000015
0.540000,-1.740000,0.260002,0.040000,-8829723176.813471,-4475743.092609,1645535.375516,-638847.561328,-0.000068,0.000047,-0.000012
0.500000,-1.740000,0.260155,0.040000,-8829745470.112726,-4361542.836314,1549965.354915,-582483.202683,-0.000066,0.000045,-0.000011
0.580000,-1.780000,0.220282,0.040000,-8829926421.516407,-4616416.580081,1778968.134518,-849070.266096,-0.000071,0.000050,-0.000016
0.620000,-1.780000,0.220174,0.040000,-8829899807.427670,-4743436.823107,1921775.639475,-919534.793296,-0.000073,0.000052,-0.000017
0.620000,-1.740000,0.260147,0.040000,-8829670323.808996,-4788967.703635,1956032.679737,-724242.277621,-0.000074,0.000053,-0.000014
0.580000,-1.740000,0.260238,0.040000,-8829698207.731443,-4647719.291225,1837825.491662,-671351.073047,-0.000072,0.000051,-0.000013
0.660000,-1.780000,0.220004,0.040000,-8829870096.295380,-4971222.923974,2132252.549426,-973069.217076,-0.000078,0.000056,-0.000018
0.700000,-1.780000,0.220294,0.040000,-8829836992.737789,-5127246.760793,2307714.546923,-1043111.374644,-0.000081,0.000059,-0.000020
0.700000,-1.740000,0.260249,0.040000,-8829604721.165098,-5173835.360211,2337573.887102,-802908.652309,-0.000081,0.000060,-0.000015
0.660000,-1.740000,0.260003,0.040000,-8829639259.643005,-5000503.590084,2192514.174945,-755386.779114,-0.000078,0.000057,-0.000014
0.740000,-1.780000,0.220164,0.040000,-8829800169.571777,-5406240.527971,2565653.631675,-1097241.465970,-0.000086,0.000064,-0.000021
0.780000,-1.780000,0.220006,0.040000,-8829759264.701885,-5597340.113014,2780528.971012,-1165603.542915,-0.000090,0.000068,-0.000022
0.780000,-1.740000,0.260005,0.040000,-8829523885.544582,-5644421.711001,2804046.667882,-871094.998305,-0.000090,0.000069,-0.000016
0.740000,-1.740000,0.260139,0.040000,-8829566383.011957,-5432517.676642,2626701.368497,-831755.512419,-0.000086,0.000065,-0.000016
0.820000,-1.780000,0.220306,0.040000,-8829713877.580963,-5938325.062557,3096004.989307,-1219594.561875,-0.000096,0.000074,-0.000023
0.860000,-1.780000,0.220155,0.040000,-8829663565.179680,-6172174.856956,3358988.362327,-1284195.321428,-0.000100,0.000079,-0.000024
0.860000,-1.740000,0.260131,0.040000,-8829424782.001701,-6218852.398123,3373324.325251,-923200.092459,-0.000101,0.000080,-0.000017
0.820000,-1.740000,0.260259,0.040000,-8829476831.468904,-5960000.357486,3156679.211556,-896207.116643,-0.000096,0.000075,-0.000017
0.900000,-1.780000,0.220007,0.040000,-8829607837.390688,-6589263.073903,3745126.724548,-1336738.636423,-0.000108,0.000087,-0.000025
0.940000,-1.780000,0.220319,0.040000,-8829546151.780081,-6875918.047599,4067571.627757,-1394215.132943,-0.000114,0.000093,-0.000026
0.940000,-1.740000,0.260270,0.040000,-8829303707.596083,-6920545.931398,4068482.165723,-950868.783610,-0.000114,0.000093,-0.000018
0.900000,-1.740000,0.260006,0.040000,-8829367252.516916,-6603888.101343,3803442.211249,-942394.245385,-0.000109,0.000087,-0.000018
0.980000,-1.780000,0.220146,0.040000,-8829477907.582672,-7387302.187728,4541440.946493,-1443097.077307,-0.000123,0.000102,-0.000027
1.020000,-1.780000,0.220009,0.040000,-8829402438.818293,-7740109.565667,4938309.353987,-1488122.964308,-0.000130,0.000109,-0.000028
1.020000,-1.740000,0.260008,0.040000,-8829156141.212515,-7779920.566979,4919465.908319,-941604.460854,-0.000130,0.000109,-0.000018
0.980000,-1.740000,0.260124,0.040000,-8829233555.393585,-7391294.688992,4594164.157907,-960834.749264,-0.000123,0.000102,-0.000018
1.060000,-1.780000,0.220332,0.040000,-8829319006.383432,-8369717.498161,5522388.164348,-1529691.878596,-0.000142,0.000120,-0.000029
1.100000,-1.780000,0.220138,0.040000,-8829226788.943989,-8806158.710294,6013435.684830,-1553859.832274,-0.000150,0.000129,-0.000029
1.100000,-1.740000,0.260117,0.040000,-8828976548.794554,-8836751.348282,5965392.314510,-876610.396712,-0.000150,0.000129,-0.000017
1.060000,-1.740000,0.260281,0.040000,-8829070740.168018,-8357546.991606,5564227.427148,-937311.279619,-0.000142,0.000121,-0.000018
1.140000,-1.780000,0.220012,0.040000,-8829124872.421728,-9585831.931452,6737633.874502,-1582164.098932,-0.000165,0.000143,-0.000030
1.180000,-1.780000,0.220346,0.040000,-8829012237.825590,-10129328.389584,7349317.165005,-1572164.780131,-0.000175,0.000154,-0.000030
1.180000,-1.740000,0.260292,0.040000,-8828758129.161749,-10143440.469521,7257735.668464,-727380.178593,-0.000175,0.000153,-0.000014
1.140000,-1.740000,0.260010,0.040000,-8828872675.427702,-9548999.139786,6760023.302137,-850366.881120,-0.000164,0.000143,-0.000016
1.220000,-1.780000,0.220129,0.040000,-8828887747.129335,-11101439.577107,8253693.842144,-1577522.386900,-0.000193,0.000172,-0.000030
1.260000,-1.780000,0.220014,0.040000,-8828750126.836449,-11783830.184879,9021879.097567,-1512184.901178,-0.000206,0.000186,-0.000028
1.260000,-1.740000,0.260012,0.040000,-8828492479.972178,-11769565.488855,8864751.735493,-450223.612145,-0.000205,0.000183,-0.000008
1.220000,-1.740000,0.260109,0.040000,-8828631807.149723,-11026934.849781,8242826.474893,-667323.937253,-0.000192,0.000171,-0.000013
1.300000,-1.780000,0.220359,0.040000,-8828597948.800211,-13005610.334433,10160765.181285,-1478770.800876,-0.000229,0.000208,-0.000028
1.340000,-1.780000,0.220121,0.040000,-8828429607.776844,-13870256.061417,11134495.489393,-1324061.396739,-0.000246,0.000225,-0.000025
1.340000,-1.740000,0.260103,0.040000,-8828169155.660858,-13808192.444658,10877606.501792,22677.804243,-0.000244,0.000222,0.000000
1.300000,-1.740000,0.260304,0.040000,-8828338774.754650,-12872976.177768,10094149.186645,-337847.452912,-0.000227,0.000206,-0.000006
1.380000,-1.780000,0.220017,0.040000,-8828243295.082830,-15419886.160968,12582421.555184,-1225761.554460,-0.000274,0.000253,-0.000023
1.420000,-1.780000,0.220373,0.040000,-8828036967.596125,-16526793.362193,13829642.543167,-926184.095214,-0.000296,0.000276,-0.000017
1.420000,-1.740000,0.260316,0.040000,-8827775078.765911,-16384544.482212,13418774.964977,798161.732580,-0.000292,0.000270,0.000015
1.380000,-1.740000,0.260015,0.040000,-8827981901.330320,-15196523.596230,12423075.672945,216653.782988,-0.000271,0.000250,0.000004
1.460000,-1.780000,0.220113,0.040000,-8827808311.186876,-18511553.939357,15689724.328977,-719287.975601,-0.000333,0.000312,-0.000014
1.500000,-1.780000,0.220020,0.040000,-8827554697.478127,-19944775.263583,17305640.878010,-182816.998828,-0.000361,0.000341,-0.000003
1.500000,-1.740000,0.260017,0.040000,-8827293752.720551,-19667566.701799,16653226.254485,2047363.528002,-0.000354,0.000331,0.000039
1.460000,-1.740000,0.260096,0.040000,-8827546513.113775,-18144772.848952,15376074.896391,1120821.244503,-0.000326,0.000305,0.000021
1.540000,-1.780000,0.220387,0.040000,-8827273132.625521,-22512965.732791,19721762.658699,207194.715575,-0.000408,0.000387,0.000004
1.580000,-1.780000,0.220106,0.040000,-8826960196.566349,-24390686.141355,21840723.220322,1136296.174359,-0.000445,0.000426,0.000021
1.580000,-1.740000,0.260090,0.040000,-8826704209.183495,-23884308.818441,20802321.395370,4049483.014723,-0.000433,0.000409,0.000076
1.540000,-1.740000,0.260327,0.040000,-8827014028.817045,-21915517.970590,19149409.417782,2575829.390258,-0.000397,0.000376,0.000049
1.620000,-1.780000,0.220024,0.040000,-8826611970.938910,-27747363.315274,25014317.690712,1839313.185942,-0.000507,0.000487,0.000035
1.660000,-1.780000,0.220401,0.040000,-8826223953.639439,-30236236.631250,27826474.906980,3430835.100749,-0.000556,0.000538,0.000065
1.660000,-1.740000,0.260340,0.040000,-8825979612.287151,-29334635.664573,26158071.395168,7268991.088463,-0.000535,0.000511,0.000137
1.620000,-1.740000,0.260020,0.040000,-8826360745.244308,-26771471.843116,24002693.506146,4912673.492794,-0.000489,0.000468,0.000093
1.700000,-1.780000,0.220099,0.040000,-8825790957.832556,-34660662.482178,32037268.885209,4679194.075444,-0.000638,0.000618,0.000088
1.740000,-1.780000,0.220027,0.040000,-8825306993.282684,-37992965.102720,35809074.768561,7412711.598685,-0.000703,0.000687,0.000140
1.740000,-1.740000,0.260023,0.040000,-8825085455.709978,-36396050.739813,33088144.504274,12493913.668223,-0.000667,0.000642,0.000235
1.700000,-1.740000,0.260083,0.040000,-8825556243.023994,-33049972.022727,30267129.151236,8687096.719321,-0.000607,0.000586,0.000164
1.780000,-1.780000,0.220416,0.040000,-8824765128.367214,-43849363.703479,41433561.790454,9634266.794384,-0.000812,0.000794,0.000182
1.820000,-1.780000,0.220092,0.040000,-8824157332.506126,-48334032.538870,46523355.200018,14386015.493039,-0.000900,0.000887,0.000271
1.820000,-1.740000,0.260077,0.040000,-8823977385.741407,-45485239.495324,42000331.954588,21085156.696011,-0.000837,0.000811,0.000397
1.780000,-1.740000,0.260352,0.040000,-8824561379.852388,-41147318.164552,38327053.935827,14851157.158647,-0.000759,0.000738,0.000280
1.860000,-1.780000,0.220031,0.040000,-8823474301.818264,-56040449.402572,54022423.362445,18393568.047476,-0.001044,0.001029,0.000347
1.900000,-1.780000,0.220431,0.040000,-8822705277.095917,-62034006.812919,60854241.544074,26808023.962991,-0.001162,0.001153,0.000505
1.900000,-1.740000,0.260365,0.040000,-8822599035.436852,-56875097.390815,53171937.144317,35419964.927341,-0.001051,0.001023,0.000667
1.860000,-1.740000,0.260027,0.040000,-8823326029.576984,-51414502.809132,48510608.721029,25064440.143667,-0.000952,0.000930,0.000472
1.940000,-1.780000,0.220085,0.040000,-8821837875.441759,-71871611.768731,70627301.765784,34192929.114751,-0.001347,0.001338,0.000644
1.980000,-1.780000,0.220035,0.040000,-8820857980.191437,-79582632.132044,79485467.283282,49420525.098082,-0.001499,0.001498,0.000931
1.980000,-1.740000,0.260030,0.040000,-8820881343.722523,-70070812.575240,66167618.628671,59631026.221761,-0.001298,0.001269,0.001123
1.940000,-1.740000,0.260072,0.040000,-8821787351.363987,-63779744.805425,60704101.736831,42246000.157726,-0.001184,0.001161,0.000796
2.020000,-1.780000,0.220446,0.040000,-8819749777.220491,-90969790.202530,91244846.072629,63366400.857942,-0.001715,0.001718,0.001194
2.060000,-1.780000,0.220078,0.040000,-8818496105.822966,-99664206.279945,101410405.485060,91444786.187601,-0.001888,0.001901,0.001723
2.060000,-1.740000,0.260066,0.040000,-8818747990.071295,-81901707.305463,78039829.950356,100585250.935165,-0.001521,0.001492,0.001895
2.020000,-1.740000,0.260377,0.040000,-8819871238.451128,-76575751.023207,73170150.414574,71465916.948293,-0.001423,0.001398,0.001346
2.100000,-1.780000,0.220040,0.040000,-8817079437.586149,-109196772.832395,111009039.658637,119831286.433771,-0.002068,0.002081,0.002258
2.140000,-1.780000,0.220461,0.040000,-8815484053.848194,-114084822.967112,117907420.717280,171084932.555273,-0.002171,0.002200,0.003223
2.140000,-1.740000,0.260390,0.040000,-8816140257.340345,-76541311.915713,74594103.774193,166085663.604998,-0.001431,0.001416,0.003129
2.100000,-1.740000,0.260034,0.040000,-8817504872.886143,-83018403.850806,78745026.834536,120937496.054288,-0.001540,0.001508,0.002279
2.180000,-1.780000,0.220072,0.040000,-8813700428.544497,-118929141.252899,117437543.183491,226382265.782271,-0.002232,0.002221,0.004265
2.220000,-1.780000,0.220045,0.040000,-8811733502.835590,-96291026.728675,98410230.928920,306794226.969081,-0.001826,0.001842,0.005780
2.220000,-1.740000,0.260038,0.040000,-8813096153.059500,-25189359.791522,24536725.189877,264219440.295518,-0.000471,0.000466,0.004978
2.180000,-1.740000,0.260061,0.040000,-8814662257.255714,-62907552.954075,56066679.975716,203880091.370667,-0.001147,0.001095,0.003841
2.260000,-1.780000,0.220477,0.040000,-8809617406.416161,-44307012.985046,44669367.135175,400035879.641193,-0.000837,0.000840,0.007537
2.300000,-1.780000,0.200038,0.040000,-8807439686.611183,64299290.848697,-62361878.972024,505165048.675923,0.001200,-0.001186,0.009518
2.300000,-1.740000,0.200098,0.040000,-8809957007.073824,131166595.243254,-131375619.648101,372638066.854665,0.002472,-0.002474,0.007021
2.260000,-1.740000,0.240082,0.040000,-8811495495.623243,34008058.636416,-34628948.230456,322151524.690128,0.000644,-0.000649,0.006070
2.340000,-1.780000,0.160047,0.040000,-8805376284.832582,254324192.998965,-254494760.182938,589787490.244389,0.004793,-0.004794,0.011112
2.380000,-1.780000,0.120063,0.040000,-8803729653.292341,-5036616860.489576,15786271594.787920,628385870.955573,-0.155652,0.236664,0.011839
2.380000,-1.740000,0.120164,0.040000,-8807758650.944735,-5139127953.843355,15890524541.811438,298137135.186585,-0.157593,0.238618,0.005617
2.340000,-1.740000,0.160123,0.040000,-8808636697.346149,272232730.401192,-273947520.504351,392174986.824223,0.005139,-0.005152,0.007389
2.420000,-1.780000,0.080094,0.040000,-8802940637.083311,-92572583899.497971,584679824064.649170,256663353.316229,-4.525597,8.234231,0.004836
2.460000,-1.780000,0.040188,0.040000,-8804843224.119864,160914988230.310669,1823091561964.519531,-520450172.083475,-8.182218,23.134152,-0.009806
2.460000,-1.740000,0.040488,0.040000,-8808909476.790140,160314734949.520691,1824053886527.296387,-486699689.084917,-8.195574,23.150236,-0.009170
2.420000,-1.740000,0.080245,0.040000,-8807599483.151400,-92907127669.983307,585258723070.352417,9503760.109222,-4.533281,8.243757,0.000179
2.500000,-1.780000,0.003881,0.040000,-4402904164.380183,-879197544.638515,2614885729853.889648,-1359679597.971708,-14.791384,34.491143,-0.025617
2.500000,-1.740000,0.006269,0.040000,-4405198976.486478,-1246440318.658948,2616641133203.653320,-942162125.259063,-14.806149,34.516370,-0.017751
-2.500000,-1.700000,0.013433,0.040000,-4406940021.771794,-1643801482.668593,2617686257403.613281,826063516.365487,-14.817297,34.532400,0.015564
-2.500000,-1.660000,0.003284,0.040000,-4408295736.316635,-1395518918.140456,2619075778549.592285,692084926.941946,-14.821876,34.549322,0.013039
-2.460000,-1.700000,0.042195,0.040000,-8810329583.788408,159181677836.421051,1823970479672.466797,403966108.134654,-8.210046,23.155540,0.007611
-2.420000,-1.700000,0.081120,0.040000,-8811268454.641996,-93259725772.035278,585731790043.579224,2482504.358228,-4.540605,8.251989,0.000047
-2.420000,-1.660000,0.080067,0.040000,-8814192384.551903,-93181540024.408188,585935551780.849976,17716663.202846,-4.540726,8.254234,0.000334
-2.460000,-1.660000,0.040135,0.040000,-8816603991.597759,160542693797.773956,1826193559731.055420,336230681.164922,-8.204661,23.177167,0.006335
-2.380000,-1.700000,0.120749,0.040000,-8811085445.327623,-5271167657.944999,16023698521.793589,-220920858.636374,-0.160087,0.241121,-0.004162
-2.340000,-1.700000,0.160563,0.040000,-8811481057.039515,249070360.087378,-247256480.277609,-259416867.400990,0.004682,-0.004669,-0.004888
-2.340000,-1.660000,0.160034,0.040000,-8813913865.006008,220535545.235888,-226590195.628204,-171889330.783495,0.004189,-0.004235,-0.003238
-2.380000,-1.660000,0.120045,0.040000,-8813822158.394066,-5284117417.473631,16043284074.928446,-154325751.727612,-0.160369,0.241452,-0.002908
-2.300000,-1.700000,0.200451,0.040000,-8812284091.518576,152312685.240276,-153846498.249552,-268703017.694108,0.002878,-0.002890,-0.005063
-2.260000,-1.700000,0.240376,0.040000,-8813337208.273544,74974736.248412,-77303435.444638,-250256877.801076,0.001426,-0.001443,-0.004715
-2.260000,-1.660000,0.240022,0.040000,-8815052643.786303,91956508.741032,-94787300.943499,-190696883.907117,0.001749,-0.001770,-0.003593
-2.300000,-1.660000,0.200027,0.040000,-8814360092.495588,150629892.831884,-152891915.396452,-192015688.801266,0.002851,-0.002868,-0.003618
-2.220000,-1.700000,0.280322,0.040000,-8814516048.019674,21177427.179791,-19290609.492872,-223569294.940796,0.000388,-0.000374,-0.004212
-2.180000,-1.700000,0.300053,0.040000,-8815732146.860886,-13969674.116373,11558217.851501,-185976778.838767,-0.000250,0.000231,-0.003504
-2.180000,-1.660000,0.320017,0.040000,-8816819999.502060,10514186.025884,-15284341.620080,-150305890.048185,0.000225,-0.000261,-0.002832
-2.220000,-1.660000,0.280019,0.040000,-8815897307.385366,43100890.532893,-39480281.367357,-174816682.539849,0.000792,-0.000764,-0.003294
2.180000,-1.700000,0.300053,0.040000,-8815721288.783150,-13969654.120656,11558197.286608,185976503.861193,-0.000250,0.000231,0.003504
2.220000,-1.700000,0.280322,0.040000,-8814504992.193399,21177396.775168,-19290585.791899,223568964.929975,0.000388,-0.000374,0.004212
2.220000,-1.660000,0.280019,0.040000,-8815886249.182285,43100827.655886,-39480227.816583,174816422.561196,0.000792,-0.000764,0.003294
2.180000,-1.660000,0.320017,0.040000,-8816809139.482338,10514170.096859,-15284322.837103,150305666.339045,0.000225,-0.000261,0.002832
2.260000,-1.700000,0.240376,0.040000,-8813325954.651819,74974628.755529,-77303328.651492,250256508.199387,0.001426,-0.001443,0.004715
2.300000,-1.700000,0.200451,0.040000,-8812272639.927565,152312466.628504,-153846281.492882,268702619.923191,0.002878,-0.002890,0.005063
2.300000,-1.660000,0.200027,0.040000,-8814348637.497326,150629674.896486,-152891698.279501,192015401.535029,0.002851,-0.002868,0.003618
2.260000,-1.660000,0.240022,0.040000,-8815041387.292610,91956375.462915,-94787167.648811,190696599.959768,0.001749,-0.001770,0.003593
2.340000,-1.700000,0.160563,0.040000,-8811469407.126726,249070002.083424,-247256128.861983,259416480.803641,0.004682,-0.004669,0.004888
2.380000,-1.700000,0.120749,0.040000,-8811073596.513884,-5271160203.889396,16023675841.794554,220920524.288237,-0.160087,0.241120,0.004162
2.380000,-1.660000,0.120045,0.040000,-8813810305.180403,-5284109975.477463,16043261451.952444,154325515.260788,-0.160368,0.241452,0.002908
2.340000,-1.660000,0.160034,0.040000,-8813902211.153299,220535226.191888,-226589872.030464,171889070.742210,0.004189,-0.004235,0.003238
2.420000,-1.700000,0.081120,0.040000,-8811256406.100563,-93259593772.100113,585730962041.953125,-2482736.511385,-4.540599,8.251977,-0.000047
2.460000,-1.700000,0.042195,0.040000,-8810317337.092001,159181453638.635803,1823967901202.604492,-403965880.051725,-8.210034,23.155508,-0.007611
2.460000,-1.660000,0.040135,0.040000,-8816591735.433332,160542465879.614960,1826190979551.996338,-336230325.000948,-8.204650,23.177134,-0.006335
2.420000,-1.660000,0.080067,0.040000,-8814180331.314398,-93181408598.012070,585934723919.266724,-17716775.262862,-4.540719,8.254222,-0.000334
2.500000,-1.700000,0.013433,0.040000,-4406933810.611036,-1643794077.933133,2617682554055.154297,-826062907.112644,-14.817276,34.532351,-0.015564
2.500000,-1.660000,0.003284,0.040000,-4408289497.507834,-1395523023.196310,2619072081184.693359,-692084142.122204,-14.821856,34.549273,-0.013039
-2.500000,-1.620000,0.006866,0.040000,-4409382117.406002,-1586702963.277176,2619687572659.188965,447189878.551764,-14.827856,34.558471,0.008425
-2.500000,-1.580000,0.012836,0.040000,-4410269900.446899,-1834374386.229143,2620053935331.604004,465499238.966872,-14.833193,34.564703,0.008770
-2.460000,-1.620000,0.040585,0.040000,-8817695268.369904,159959660079.527496,1826183033940.145996,298959726.429273,-8.212291,23.180323,0.005633
-2.420000,-1.620000,0.080294,0.040000,-8816567366.110111,-93367120317.969055,586201053079.482544,106795310.183565,-4.544674,8.258785,0.002012
-2.420000,-1.580000,0.081023,0.040000,-8818525219.326841,-93574895876.341644,586437594747.268799,40822389.384815,-4.548751,8.263079,0.000769
-2.460000,-1.580000,0.042009,0.040000,-8817609656.309397,159074853145.063904,1825721844235.203369,239203605.134636,-8.221354,23.179242,0.004507
-2.380000,-1.620000,0.120196,0.040000,-8816097690.843075,-5367021796.244698,16127743962.831251,-22411292.626943,-0.161939,0.243035,-0.000422
-2.340000,-1.620000,0.160147,0.040000,-8815996752.573145,185832038.122062,-189385284.197169,-114103746.619982,0.003521,-0.003548,-0.002150
-2.340000,-1.580000,0.160514,0.040000,-8817782143.037760,153655988.071108,-152922939.348761,-76409408.138501,0.002891,-0.002885,-0.001440
-2.380000,-1.580000,0.120685,0.040000,-8818005571.965946,-5450503604.414354,16211529517.901106,-64042285.102577,-0.163514,0.244611,-0.001207
-2.300000,-1.620000,0.200118,0.040000,-8816196866.286627,138901428.535293,-141533062.816563,-136961645.006278,0.002632,-0.002652,-0.002580
-2.260000,-1.620000,0.240098,0.040000,-8816623994.224974,95499269.310095,-98549267.967485,-143918088.432416,0.001817,-0.001839,-0.002712
-2.260000,-1.580000,0.240343,0.040000,-8818044336.836470,91969575.783196,-95100304.077837,-108207157.280982,0.001750,-0.001774,-0.002039
-2.300000,-1.580000,0.200411,0.040000,-8817812003.361958,123725000.141456,-126532257.420679,-97846222.248009,0.002347,-0.002368,-0.001843
-2.220000,-1.620000,0.280084,0.040000,-8817208485.889862,58642018.550958,-57017314.573519,-142572967.175191,0.001096,-0.001083,-0.002686
-2.180000,-1.620000,0.320074,0.040000,-8817891116.355846,33613168.680118,-35809112.980852,-131197017.789085,0.000646,-0.000662,-0.002472
-2.180000,-1.580000,0.320257,0.040000,-8818917369.036366,39489508.751565,-43300747.736691,-101796711.366238,0.000766,-0.000794,-0.001918
-2.220000,-1.580000,0.280294,0.040000,-8818428182.449713,62187979.425719,-60533668.523631,-107645674.179229,0.001162,-0.001150,-0.002028
2.180000,-1.620000,0.320074,0.040000,-8817880254.419682,33613118.472854,-35809063.724831,131196821.603340,0.000646,-0.000662,0.002472
2.220000,-1.620000,0.280084,0.040000,-8817197425.412260,58641932.242189,-57017234.634470,142572753.664584,0.001096,-0.001083,0.002686
2.220000,-1.580000,0.280294,0.040000,-8818417119.832180,62187887.257983,-60533582.866478,107645511.229878,0.001162,-0.001150,0.002028
2.180000,-1.580000,0.320257,0.040000,-8818906505.251076,39489449.528338,-43300687.032121,101796557.683700,0.000766,-0.000794,0.001918
2.260000,-1.620000,0.240098,0.040000,-8816612735.068146,95499129.746128,-98549128.076062,143917872.038881,0.001816,-0.001839,0.002711
2.300000,-1.620000,0.200118,0.040000,-8816185408.227190,138901226.056382,-141532860.627107,136961437.448441,0.002632,-0.002652,0.002580
2.300000,-1.580000,0.200411,0.040000,-8817800542.564402,123724818.396622,-126532075.696549,97846071.629742,0.002347,-0.002368,0.001843
2.260000,-1.580000,0.240343,0.040000,-8818033075.237206,91969440.309361,-95100168.151886,108206992.692020,0.001750,-0.001774,0.002039
2.340000,-1.620000,0.160147,0.040000,-8815985095.286736,185831767.348817,-189385012.404961,114103570.619299,0.003521,-0.003548,0.002150
2.380000,-1.620000,0.120196,0.040000,-8816085833.897530,-5367014218.105538,16127721166.284204,22411247.304195,-0.161939,0.243034,0.000422
2.380000,-1.580000,0.120685,0.040000,-8817993711.824827,-5450495897.052024,16211506571.371090,64042180.624041,-0.163514,0.244611,0.001207
2.340000,-1.580000,0.160514,0.040000,-8817770482.751059,153655762.359868,-152922718.676970,76409287.373058,0.002891,-0.002885,0.001440
2.420000,-1.620000,0.080294,0.040000,-8816555308.973955,-93366988304.233414,586200224502.780273,-106794786.893107,-4.544667,8.258773,-0.002012
2.460000,-1.620000,0.040585,0.040000,-8817683010.098127,159959434276.604797,1826180452676.357666,-298958810.869318,-8.212280,23.180290,-0.005633
2.460000,-1.580000,0.042009,0.040000,-8817597397.619623,159074629144.856049,1825719263287.614990,-239203799.591464,-8.221342,23.179209,-0.004507
2.420000,-1.580000,0.081023,0.040000,-8818513158.902294,-93574763420.113922,586436765748.154541,-40822670.374284,-4.548745,8.263067,-0.000769
2.500000,-1.620000,0.006866,0.040000,-4409375892.658214,-1586699371.351823,2619683869447.309570,-447188404.432401,-14.827835,34.558422,-0.008425
2.500000,-1.580000,0.012836,0.040000,-4410263683.407490,-1834366421.528533,2620050228452.447754,-465499469.848615,-14.833172,34.564654,-0.008770
-2.500000,-1.540000,0.002687,0.040000,-4411006849.225382,-1513613259.239644,2620957812324.660645,403046899.039853,-14.834072,34.574810,0.007594
-2.500000,-1.500000,0.007463,0.040000,-4411626454.231833,-1703909575.576857,2621168448458.068848,228674498.851324,-14.837772,34.578664,0.004308
-2.460000,-1.540000,0.040090,0.040000,-8822602277.159523,160521978035.704803,1827608479049.815430,201475885.697847,-8.212932,23.195944,0.003796
-2.420000,-1.540000,0.080045,0.040000,-8820160953.571739,-93408407086.372299,586480930141.348267,33369327.651731,-4.546800,8.262709,0.000629
-2.420000,-1.500000,0.080347,0.040000,-8821540538.884958,-93560883011.417236,586643761424.988159,102814508.971027,-4.549731,8.265718,0.001937
-2.460000,-1.500000,0.040690,0.040000,-8822293961.992418,159809034425.756256,1827163076858.563232,187736047.376009,-8.219817,23.194100,0.003537
-2.380000,-1.540000,0.120030,0.040000,-8819618627.929394,-5423257614.924645,16189655293.792398,-50987491.869976,-0.163031,0.244169,-0.000961
-2.340000,-1.540000,0.160023,0.040000,-8819317544.949667,132339910.474578,-138965453.086325,-51133936.349556,0.002531,-0.002581,-0.000963
-2.340000,-1.500000,0.160174,0.040000,-8820643541.776670,109351219.628718,-112382561.868146,-33813761.142100,0.002077,-0.002100,-0.000637
-2.380000,-1.500000,0.120232,0.040000,-8820993233.400829,-5481702042.752983,16248078335.387524,38268959.019412,-0.164132,0.245270,0.000721
-2.300000,-1.540000,0.200018,0.040000,-8819229221.682844,108276958.163811,-111162464.475497,-70092808.646420,0.002056,-0.002078,-0.001321
-2.260000,-1.540000,0.240015,0.040000,-8819318541.502245,85109064.214590,-88248041.474459,-81316419.631234,0.001621,-0.001645,-0.001532
-2.260000,-1.500000,0.240116,0.040000,-8820457118.662521,77015108.067335,-80128849.097181,-61178243.572886,0.001469,-0.001492,-0.001153
-2.300000,-1.500000,0.200139,0.040000,-8820472993.777782,93944097.286665,-96855871.600673,-50334065.565244,0.001786,-0.001808,-0.000948
-2.220000,-1.540000,0.280013,0.040000,-8819548313.931635,62560719.454076,-62170594.776822,-87481510.812290,0.001176,-0.001174,-0.001648
-2.180000,-1.540000,0.320011,0.040000,-8819883011.938095,45443775.967928,-48541828.637573,-87740152.754712,0.000874,-0.000897,-0.001653
-2.180000,-1.500000,0.320087,0.040000,-8820780643.564922,45280516.504295,-48673750.543346,-66611921.142241,0.000872,-0.000898,-0.001255
-2.220000,-1.500000,0.280099,0.040000,-8820568727.174459,59767340.548883,-59916268.396296,-65324898.396462,0.001127,-0.001128,-0.001231
2.180000,-1.540000,0.320011,0.040000,-8819872146.394812,45443707.324971,-48541759.634994,87740019.481024,0.000874,-0.000897,0.001653
2.220000,-1.540000,0.280013,0.040000,-8819537249.321817,62560625.916882,-62170505.880331,87481377.195001,0.001176,-0.001174,0.001648
2.220000,-1.500000,0.280099,0.040000,-8820557660.721369,59767250.495320,-59916182.276671,65324797.149713,0.001127,-0.001128,0.001231
2.180000,-1.500000,0.320087,0.040000,-8820769776.366535,45280447.680179,-48673680.844911,66611818.666045,0.000872,-0.000898,0.001255
2.260000,-1.540000,0.240015,0.040000,-8819307277.675789,85108937.798074,-88247914.602581,81316294.248519,0.001621,-0.001645,0.001532
2.300000,-1.540000,0.200018,0.040000,-8819217758.437836,108276797.788264,-111162304.013925,70092698.679368,0.002056,-0.002078,0.001321
2.300000,-1.500000,0.200139,0.040000,-8820461528.342178,93943956.884720,-96855731.079529,50333984.747737,0.001786,-0.001808,0.000948
2.260000,-1.500000,0.240116,0.040000,-8820445852.810324,77014992.652501,-80128733.262628,61178147.719540,0.001469,-0.001492,0.001153
2.340000,-1.540000,0.160023,0.040000,-8819305882.029634,132339714.684292,-138965251.913025,51133852.931390,0.002531,-0.002581,0.000963
2.380000,-1.540000,0.120030,0.040000,-8819606765.026001,-5423249980.822431,16189632476.756039,50987408.265968,-0.163031,0.244169,0.000961
2.380000,-1.500000,0.120232,0.040000,-8820981368.088619,-5481694299.359821,16248055360.494556,-38268912.979695,-0.164132,0.245269,-0.000721
2.340000,-1.500000,0.160174,0.040000,-8820631876.533230,109351056.268108,-112382398.209762,33813703.555641,0.002077,-0.002100,0.000637
2.420000,-1.540000,0.080045,0.040000,-8820148890.333954,-93408275412.226486,586480101611.329468,-33369385.853686,-4.546794,8.262697,-0.000629
2.460000,-1.540000,0.040090,0.040000,-8822590010.887579,160521749885.612061,1827605897202.256348,-201475689.219875,-8.212920,23.195911,-0.003796
2.460000,-1.500000,0.040690,0.040000,-8822281695.661560,159808809094.275970,1827160494180.747070,-187735236.705823,-8.219805,23.194067,-0.003537
2.420000,-1.500000,0.080347,0.040000,-8821528473.214918,-93560750672.104935,586642932214.070801,-102813930.348842,-4.549725,8.265707,-0.001937
2.500000,-1.540000,0.002687,0.040000,-4411000601.131121,-1513618792.115077,2620954113534.902832,-403046482.938787,-14.834051,34.574762,-0.007594
2.500000,-1.500000,0.007463,0.040000,-4411620227.097421,-1703904487.957433,2621164742555.357910,-228673255.439316,-14.837751,34.578615,-0.004308
-2.500000,-1.460000,0.012239,0.040000,-4412152936.408001,-1888442220.930979,2621313696021.709961,302286648.563370,-14.841026,34.581623,0.005695
-2.500000,-1.420000,0.002090,0.040000,-4412604272.338936,-1550162753.508836,2622014677595.725586,257166083.851128,-14.840527,34.588955,0.004845
-2.460000,-1.460000,0.041830,0.040000,-8821785373.121891,159101041451.862000,1826670294789.590820,146883330.610914,-8.226369,23.191602,0.002767
-2.420000,-1.460000,0.080931,0.040000,-8822715822.853989,-93703660780.264603,586786155917.414551,24586185.875928,-4.552419,8.268403,0.000463
-2.420000,-1.420000,0.080027,0.040000,-8823726301.333750,-93507382310.546951,586766486171.910034,25234534.542086,-4.549720,8.267035,0.000475
-2.460000,-1.420000,0.040055,0.040000,-8826160394.262510,160562265165.118866,1828409388111.369873,127636209.593887,-8.216928,23.206279,0.002405
-2.380000,-1.460000,0.120623,0.040000,-8822173163.256775,-5534071387.937306,16300150262.145205,-32155334.182932,-0.165117,0.246253,-0.000606
-2.340000,-1.460000,0.160467,0.040000,-8821793903.672440,90107047.425379,-89544692.161230,-22492649.097005,0.001694,-0.001690,-0.000424
-2.340000,-1.420000,0.160014,0.040000,-8822796424.240149,79950399.630089,-86729430.645233,-14503996.850545,0.001545,-0.001596,-0.000273
-2.380000,-1.420000,0.120018,0.040000,-8823192652.188667,-5488238150.461690,16258914358.062626,-21955438.523112,-0.164279,0.245450,-0.000414
-2.300000,-1.460000,0.200374,0.040000,-8821566164.058134,81225884.416449,-84140490.476529,-36186007.544896,0.001547,-0.001569,-0.000682
-2.260000,-1.460000,0.240312,0.040000,-8821472745.246902,68805773.585952,-71881893.636024,-46107220.052797,0.001314,-0.001337,-0.000869
-2.260000,-1.420000,0.240009,0.040000,-8822378399.148260,61037004.328744,-64073675.687815,-34804538.824175,0.001167,-0.001190,-0.000656
-2.300000,-1.420000,0.200011,0.040000,-8822529068.598969,70198009.803240,-73107633.797247,-25987074.070275,0.001339,-0.001361,-0.000490
-2.220000,-1.460000,0.280267,0.040000,-8821493687.455847,55402615.374011,-56066327.162678,-53222542.500027,0.001048,-0.001053,-0.001003
-2.180000,-1.460000,0.320234,0.040000,-8821608235.474087,44375320.691086,-47739882.985333,-57278493.723655,0.000855,-0.000880,-0.001079
-2.180000,-1.420000,0.320007,0.040000,-8822367060.466616,42207077.738142,-45334287.923114,-43146607.806005,0.000813,-0.000836,-0.000813
-2.220000,-1.420000,0.280008,0.040000,-8822329685.969471,51139849.606242,-52407595.135762,-39655687.681684,0.000971,-0.000980,-0.000747
2.180000,-1.460000,0.320234,0.040000,-8821597366.727283,44375252.547279,-47739814.070628,57278404.923977,0.000855,-0.000880,0.001079
2.220000,-1.460000,0.280267,0.040000,-8821482619.303371,55402531.029408,-56066245.968229,53222459.046025,0.001048,-0.001053,0.001003
2.220000,-1.420000,0.280008,0.040000,-8822318616.252962,51139771.045713,-52407518.891541,39655624.269348,0.000971,-0.000980,0.000747
2.180000,-1.420000,0.320007,0.040000,-8822356190.277029,42207012.418148,-45334222.123538,43146539.802947,0.000813,-0.000836,0.000813
2.260000,-1.460000,0.240312,0.040000,-8821461477.553217,68805669.488479,-71881789.154034,46107146.441530,0.001314,-0.001337,0.000869
2.300000,-1.460000,0.200374,0.040000,-8821554696.656986,81225761.840717,-84140367.761871,36185947.775108,0.001547,-0.001569,0.000682
2.300000,-1.420000,0.200011,0.040000,-8822517599.428802,70197902.735889,-73107526.598212,25987029.621908,0.001339,-0.001361,0.000490
2.260000,-1.420000,0.240009,0.040000,-8822367129.779425,61036911.010191,-64073582.049544,34804482.015215,0.001167,-0.001190,0.000656
2.340000,-1.460000,0.160467,0.040000,-8821782236.367907,90106911.289677,-89544560.809463,22492608.646848,0.001694,-0.001690,0.000424
2.380000,-1.460000,0.120623,0.040000,-8822161295.827013,-5534063561.510186,16300127188.774471,32155278.732372,-0.165117,0.246252,0.000606
2.380000,-1.420000,0.120018,0.040000,-8823180782.883858,-5488230429.976731,16258891459.928431,21955399.632774,-0.164279,0.245449,0.000414
2.340000,-1.420000,0.160014,0.040000,-8822784755.097511,79950277.906221,-86729303.323203,14503968.651737,0.001545,-0.001596,0.000273
2.420000,-1.460000,0.080931,0.040000,-8822703755.058668,-93703528137.928650,586785326500.223145,-24586615.570221,-4.552413,8.268392,-0.000463
2.460000,-1.460000,0.041830,0.040000,-8821773107.035215,159100817501.827026,1826667712729.631348,-146883884.186646,-8.226357,23.191570,-0.002767
2.460000,-1.420000,0.040055,0.040000,-8826148121.526800,160562036663.284363,1828406805767.299561,-127636089.398718,-8.216916,23.206246,-0.002405
2.420000,-1.420000,0.080027,0.040000,-8823714231.663546,-93507250596.816620,586765657437.529297,-25234576.589265,-4.549713,8.267023,-0.000475
2.500000,-1.460000,0.012239,0.040000,-4412146715.554599,-1888433737.295866,2621309987405.000488,-302287503.448219,-14.841005,34.581574,-0.005695
2.500000,-1.420000,0.002090,0.040000,-4412598015.406613,-1550170156.139508,2622010979144.119629,-257165838.658841,-14.840506,34.588907,-0.004845
-2.500000,-1.380000,0.008060,0.040000,-4412994100.539521,-1765730838.771462,2622022207446.068359,117731342.117781,-14.843413,34.590273,0.002218
-2.500000,-1.340000,0.011642,0.040000,-4413332965.474352,-1902013529.493958,2622086256138.931641,218480851.130559,-14.845572,34.591888,0.004116
-2.460000,-1.380000,0.040804,0.040000,-8824992317.694818,159702099659.684662,1827685055094.111816,125541279.895887,-8.224178,23.201588,0.002365
-2.420000,-1.380000,0.080405,0.040000,-8824599190.446379,-93661880450.403778,586891411742.784424,88675481.287571,-4.552463,8.269555,0.001671
-2.420000,-1.340000,0.080843,0.040000,-8825358898.769173,-93762890572.190903,586984652569.582764,6510438.319893,-4.554322,8.271356,0.000123
-2.460000,-1.340000,0.041660,0.040000,-8824464920.186558,159165284951.750122,1827273723643.923096,93982530.178766,-8.228933,23.199197,0.001771
-2.380000,-1.380000,0.120270,0.040000,-8824078713.197983,-5539323934.448779,16308982496.019024,52638804.931655,-0.165236,0.246399,0.000992
-2.340000,-1.380000,0.160203,0.040000,-8823673906.009741,65925537.999837,-68331414.556184,-8732567.242659,0.001256,-0.001274,-0.000165
-2.340000,-1.340000,0.160423,0.040000,-8824445076.597897,54838529.196997,-54502849.429667,-5194324.055958,0.001031,-0.001029,-0.000098
-2.380000,-1.340000,0.120563,0.040000,-8824852866.473244,-5573792025.390894,16343038381.188419,-28087166.017290,-0.165883,0.247043,-0.000529
-2.300000,-1.380000,0.200162,0.040000,-8823379373.945641,60745954.444682,-63644291.245449,-18584646.571182,0.001161,-0.001183,-0.000350
-2.260000,-1.380000,0.240135,0.040000,-8823186422.389370,53951667.605136,-56951829.408550,-26296996.091745,0.001033,-0.001056,-0.000495
-2.260000,-1.340000,0.240282,0.040000,-8823908104.009254,47623889.966029,-50592244.004068,-19865198.003645,0.000914,-0.000936,-0.000374
-2.300000,-1.340000,0.200339,0.040000,-8824132235.155037,52690770.850703,-55577535.738316,-13177699.370369,0.001009,-0.001031,-0.000248
-2.220000,-1.380000,0.280116,0.040000,-8823084119.492144,45960473.946486,-47360571.486923,-32465928.966940,0.000874,-0.000884,-0.000612
-2.180000,-1.380000,0.320101,0.040000,-8823060300.987459,38965753.776687,-42329876.624668,-37168455.534288,0.000753,-0.000779,-0.000700
-2.180000,-1.340000,0.320212,0.040000,-8823692141.701488,36426428.867626,-39396091.827250,-27949989.925536,0.000703,-0.000725,-0.000527
-2.220000,-1.340000,0.280242,0.040000,-8823764525.155973,41898998.333392,-43823132.005939,-24190123.195808,0.000800,-0.000815,-0.000456
2.180000,-1.380000,0.320101,0.040000,-8823049429.456833,38965692.689609,-42329814.752115,37168396.388565,0.000753,-0.000779,0.000700
2.220000,-1.380000,0.280116,0.040000,-8823073048.336946,45960402.458603,-47360502.096402,32465876.266945,0.000874,-0.000884,0.000612
2.220000,-1.340000,0.280242,0.040000,-8823753452.677145,41898932.470692,-43823067.504019,24190082.895264,0.000800,-0.000815,0.000456
2.180000,-1.340000,0.320212,0.040000,-8823681268.926041,36426371.238327,-39396033.946039,27949944.502552,0.000703,-0.000725,0.000527
2.260000,-1.380000,0.240135,0.040000,-8823175151.494633,53951584.170824,-56951745.716003,26296952.036323,0.001033,-0.001056,0.000495
2.300000,-1.380000,0.200162,0.040000,-8823367903.178139,60745860.705304,-63644197.405551,18584613.367332,0.001161,-0.001183,0.000350
2.300000,-1.340000,0.200339,0.040000,-8824120762.940559,52690688.517757,-55577453.307610,13177674.487276,0.001009,-0.001031,0.000248
2.260000,-1.340000,0.240282,0.040000,-8823896831.722132,47623815.407527,-50592169.226138,19865163.682639,0.000914,-0.000936,0.000374
2.340000,-1.380000,0.160203,0.040000,-8823662235.219696,65925436.206468,-68331313.343587,8732548.016021,0.001256,-0.001274,0.000165
2.380000,-1.380000,0.120270,0.040000,-8824066842.222099,-5539316106.495982,16308959427.610058,-52638735.322949,-0.165236,0.246398,-0.000992
2.380000,-1.340000,0.120563,0.040000,-8824840993.999441,-5573784142.053835,16343015246.464376,28087118.317057,-0.165883,0.247042,0.000529
2.340000,-1.340000,0.160423,0.040000,-8824433404.324455,54838443.183640,-54502767.890184,5194310.527715,0.001031,-0.001029,0.000098
2.420000,-1.380000,0.080405,0.040000,-8824587119.112541,-93661747920.800430,586890582251.192627,-88674851.265859,-4.552457,8.269544,-0.001671
2.460000,-1.380000,0.040804,0.040000,-8824980046.173780,159701874808.816895,1827682471893.233887,-125540505.924534,-8.224166,23.201555,-0.002365
2.460000,-1.340000,0.041660,0.040000,-8824452648.990332,159165061055.375641,1827271141265.870361,-93983458.529165,-8.228921,23.199165,-0.001771
2.420000,-1.340000,0.080843,0.040000,-8825346825.947849,-93762757850.562088,586983823046.502441,-6511055.825071,-4.554316,8.271344,-0.000123
2.500000,-1.380000,0.008060,0.040000,-4412987872.169505,-1765724122.861773,2622018500044.016113,-117730179.461470,-14.843392,34.590224,-0.002218
2.500000,-1.340000,0.011642,0.040000,-4413326741.792108,-1902004346.217289,2622082546739.612305,-218482338.633160,-14.845551,34.591839,-0.004116
-2.500000,-1.300000,0.001493,0.040000,-4413629154.114266,-1563019881.282821,2622676876301.488770,172037555.193062,-14.844440,34.597761,0.003241
-2.500000,-1.260000,0.008657,0.040000,-4413889273.310298,-1808032255.183682,2622558806027.415039,55653281.630807,-14.847004,34.597589,0.001049
-2.460000,-1.300000,0.040028,0.040000,-8828452149.072092,160606897290.501678,1828913994961.943115,85295346.746279,-8.219191,23.212682,0.001607
-2.420000,-1.300000,0.080014,0.040000,-8826024520.480158,-93557646363.666412,586936269130.198120,18581565.621761,-4.551342,8.269558,0.000350
-2.420000,-1.260000,0.080467,0.040000,-8826608403.867785,-93724253021.390366,587046300573.438965,76437778.055417,-4.554161,8.271951,0.001440
-2.460000,-1.260000,0.040926,0.040000,-8826673761.598177,159606539605.153198,1827979193005.071045,88399987.330892,-8.227100,23.206007,0.001666
-2.380000,-1.300000,0.120009,0.040000,-8825532420.045538,-5520707203.348277,16294083429.744406,-10406831.919736,-0.164906,0.246097,-0.000196
-2.340000,-1.300000,0.160007,0.040000,-8825125368.994457,50856457.538223,-57762982.813797,-2462448.464200,0.000997,-0.001049,-0.000046
-2.340000,-1.260000,0.160234,0.040000,-8825727560.168121,41472664.163207,-43303463.078508,-370821.951333,0.000792,-0.000806,-0.000007
-2.380000,-1.260000,0.120312,0.040000,-8826131422.805441,-5571551999.449363,16343231266.206806,54794289.278706,-0.165855,0.247033,0.001032
-2.300000,-1.300000,0.200006,0.040000,-8824800574.808554,45839902.918294,-48718007.556801,-9206106.758583,0.000880,-0.000902,-0.000173
-2.260000,-1.300000,0.240005,0.040000,-8824553544.481419,42040988.434259,-44982529.964078,-14980239.625724,0.000809,-0.000831,-0.000282
-2.260000,-1.260000,0.240156,0.040000,-8825131665.965670,37149123.241424,-40068484.455577,-11253493.667412,0.000716,-0.000738,-0.000212
-2.300000,-1.260000,0.200187,0.040000,-8825395388.351456,40008769.969980,-42876713.091880,-6275744.521822,0.000770,-0.000792,-0.000118
-2.220000,-1.300000,0.280004,0.040000,-8824378159.112577,37208095.474779,-39091791.355999,-19886201.727078,0.000712,-0.000726,-0.000375
-2.180000,-1.300000,0.320003,0.040000,-8824267193.804100,32757866.052221,-36038565.597661,-24150945.545052,0.000636,-0.000660,-0.000455
-2.180000,-1.260000,0.320117,0.040000,-8824790140.772329,30427577.956489,-33308419.448360,-18164810.870488,0.000590,-0.000611,-0.000342
-2.220000,-1.260000,0.280134,0.040000,-8824931783.488440,33796134.222352,-36099786.518651,-14795482.562954,0.000650,-0.000667,-0.000279
2.180000,-1.300000,0.320003,0.040000,-8824256319.873892,32757813.410547,-36038512.286358,24150905.828666,0.000636,-0.000660,0.000455
2.220000,-1.300000,0.280004,0.040000,-8824367085.415123,37208036.119690,-39091733.401453,19886167.948574,0.000712,-0.000726,0.000375
2.220000,-1.260000,0.280134,0.040000,-8824920708.667990,33796079.633665,-36099732.744873,14795456.546023,0.000650,-0.000667,0.000279
2.180000,-1.260000,0.320117,0.040000,-8824779265.771027,30427528.536856,-33308369.915946,18164780.197055,0.000590,-0.000611,0.000342
2.260000,-1.300000,0.240005,0.040000,-8824542270.921238,42040921.729687,-44982463.081517,14980212.777192,0.000809,-0.000831,0.000282
2.300000,-1.300000,0.200006,0.040000,-8824789101.279116,45839830.305338,-48717934.860340,9206088.082389,0.000880,-0.000902,0.000173
2.300000,-1.260000,0.200187,0.040000,-8825383913.623503,40008705.651696,-42876648.702623,6275730.507436,0.000770,-0.000792,0.000118
2.260000,-1.260000,0.240156,0.040000,-8825120391.239229,37149063.440157,-40068424.507200,11253472.588589,0.000716,-0.000738,0.000212
2.340000,-1.300000,0.160007,0.040000,-8825113695.379704,50856377.269991,-57762896.758416,2462439.402632,0.000997,-0.001049,0.000046
2.380000,-1.300000,0.120009,0.040000,-8825520546.222166,-5520699445.040277,16294060506.190517,10406811.570092,-0.164906,0.246097,0.000196
2.380000,-1.260000,0.120312,0.040000,-8826119547.760670,-5571544123.277465,16343208143.158689,-54794214.423162,-0.165854,0.247032,-0.001032
2.340000,-1.260000,0.160234,0.040000,-8825715885.335844,41472597.286076,-43303397.599786,370816.373509,0.000792,-0.000806,0.000007
2.420000,-1.300000,0.080014,0.040000,-8826012446.320023,-93557514722.801575,586935440495.927124,-18581591.463177,-4.551336,8.269546,-0.000350
2.460000,-1.300000,0.040028,0.040000,-8828439871.826674,160606668364.056488,1828911412982.273926,-85295259.715516,-8.219179,23.212649,-0.001607
2.460000,-1.260000,0.040926,0.040000,-8826661486.481064,159606315361.223297,1827976609949.689453,-88399238.893935,-8.227089,23.205975,-0.001665
2.420000,-1.260000,0.080467,0.040000,-8826596328.499550,-93724120355.548096,587045471042.329590,-76437078.114079,-4.554155,8.271939,-0.001440
2.500000,-1.300000,0.001493,0.040000,-4413622887.186438,-1563029759.486392,2622673179662.829590,-172037402.988979,-14.844419,34.597713,-0.003241
2.500000,-1.260000,0.008657,0.040000,-4413883044.288571,-1808023490.043432,2622555098004.514160,-55652176.612744,-14.846982,34.597540,-0.001049
-2.500000,-1.220000,0.011045,0.040000,-4414118657.459182,-1899029293.846339,2622600220779.073730,171488700.610922,-14.848438,34.598650,0.003231
-2.500000,-1.180000,0.000896,0.040000,-4414321662.180546,-1568298452.137932,2623117679066.929688,116556361.157304,-14.847001,34.603605,0.002196
-2.460000,-1.220000,0.041497,0.040000,-8826317625.054451,159245386143.974518,1827699503270.834473,61558527.660920,-8.230283,23.204360,0.001160
-2.420000,-1.220000,0.080759,0.040000,-8827123976.055092,-93790901900.138428,587107662184.365234,-7884875.284218,-4.555387,8.273137,-0.000149
-2.420000,-1.180000,0.080005,0.040000,-8827581506.776884,-93586576180.818329,587045690790.192627,15439473.600860,-4.552342,8.271164,0.000291
-2.460000,-1.180000,0.040010,0.040000,-8829998535.396572,160641897462.977234,1829248881810.854980,59584605.508288,-8.220622,23.216901,0.001123
-2.380000,-1.220000,0.120507,0.040000,-8826661380.041990,-5593485669.402845,16364878681.904081,-30904927.157159,-0.166266,0.247442,-0.000582
-2.340000,-1.220000,0.160381,0.040000,-8826262283.878353,34929387.889706,-34911704.427665,606804.004625,0.000658,-0.000658,0.000011
-2.340000,-1.180000,0.160003,0.040000,-8826738439.014961,34109600.797322,-41113868.579169,1583820.418309,0.000682,-0.000735,0.000030
-2.380000,-1.180000,0.120003,0.040000,-8827131791.243832,-5538433291.170001,16313607691.542944,-3433352.445895,-0.165250,0.246455,-0.000065
-2.300000,-1.220000,0.200305,0.040000,-8825926033.481386,35038352.787476,-37898161.654630,-4107004.232940,0.000676,-0.000698,-0.000077
-2.260000,-1.220000,0.240254,0.040000,-8825650292.537338,32878181.778486,-35779392.453711,-8398737.834784,0.000636,-0.000658,-0.000158
-2.260000,-1.180000,0.240002,0.040000,-8826116258.900200,29154902.806729,-32041348.313858,-6204302.980531,0.000566,-0.000587,-0.000117
-2.300000,-1.180000,0.200002,0.040000,-8826400487.231752,30791453.122660,-33646321.539560,-2499395.260951,0.000596,-0.000618,-0.000047
-2.220000,-1.220000,0.280218,0.040000,-8825431576.586374,29905441.997259,-32101719.138908,-12184728.182623,0.000576,-0.000592,-0.000230
-2.180000,-1.220000,0.320191,0.040000,-8825265529.044119,27044741.244748,-30230796.512722,-15740549.963713,0.000528,-0.000552,-0.000297
-2.180000,-1.180000,0.320001,0.040000,-8825697651.936739,25079542.220092,-27912393.599223,-11836065.066226,0.000489,-0.000510,-0.000223
-2.220000,-1.180000,0.280001,0.040000,-8825883113.870161,27169795.171627,-29693353.452682,-9015310.220625,0.000526,-0.000545,-0.000170
2.180000,-1.220000,0.320191,0.040000,-8825254653.049141,27044696.490898,-30230751.243643,15740522.993315,0.000528,-0.000552,0.000297
2.220000,-1.220000,0.280218,0.040000,-8825420500.729948,29905392.863872,-32101670.946070,12184706.205473,0.000576,-0.000592,0.000230
2.220000,-1.180000,0.280001,0.040000,-8825872037.056944,27169749.896715,-29693308.645948,9015293.179729,0.000526,-0.000545,0.000170
2.180000,-1.180000,0.320001,0.040000,-8825686775.019632,25079500.223175,-27912351.558470,11836044.092854,0.000489,-0.000510,0.000223
2.260000,-1.220000,0.240254,0.040000,-8825639016.740381,32878128.023537,-35779338.578842,8398721.237960,0.000636,-0.000658,0.000158
2.300000,-1.220000,0.200305,0.040000,-8825914557.658031,35038295.554385,-37898104.369001,4106993.742745,0.000676,-0.000698,0.000077
2.300000,-1.180000,0.200002,0.040000,-8826389010.404774,30791401.968403,-33646270.327110,2499387.450958,0.000596,-0.000618,0.000047
2.260000,-1.180000,0.240002,0.040000,-8826104982.118816,29154854.342599,-32041299.741976,6204289.885162,0.000566,-0.000587,0.000117
2.340000,-1.220000,0.160381,0.040000,-8826250607.937124,34929330.382018,-34911650.938311,-606807.740209,0.000658,-0.000658,-0.000011
2.380000,-1.220000,0.120507,0.040000,-8826649503.887413,-5593477757.927560,16364855516.848778,30904876.340299,-0.166266,0.247442,0.000582
2.380000,-1.180000,0.120003,0.040000,-8827119914.077316,-5538425521.152214,16313584779.599737,3433343.418599,-0.165250,0.246454,0.000065
2.340000,-1.180000,0.160003,0.040000,-8826726762.060606,34109544.563985,-41113806.411415,-1583822.365219,0.000682,-0.000735,-0.000030
2.420000,-1.220000,0.080759,0.040000,-8827111899.590080,-93790769157.202621,587106832834.736694,7883996.769768,-4.555381,8.273125,0.000149
2.460000,-1.220000,0.041497,0.040000,-8826305350.067486,159245162374.936951,1827696921352.390625,-61559967.075794,-8.230271,23.204327,-0.001160
2.460000,-1.180000,0.040010,0.040000,-8829986254.839676,160641667975.921021,1829246301255.886475,-59584529.665015,-8.220611,23.216868,-0.001123
2.420000,-1.180000,0.080005,0.040000,-8827569429.311506,-93586444728.828720,587044862602.278687,-15439479.421079,-4.552336,8.271153,-0.000291
2.500000,-1.220000,0.011045,0.040000,-4414112431.478600,-1899018986.863718,2622596511353.322754,-171491052.043739,-14.848417,34.598601,-0.003231
2.500000,-1.180000,0.000896,0.040000,-4414315381.629688,-1568311998.364553,2623113986341.977051,-116556289.696550,-14.846980,34.603556,-0.002196
-2.500000,-1.140000,0.009254,0.040000,-4414501879.690981,-1841466433.301940,2622912868449.661133,19031193.959275,-14.849446,34.602448,0.000359
-2.500000,-1.100000,0.010448,0.040000,-4414662299.297587,-1887597280.657962,2622960869303.539551,143436258.813758,-14.850325,34.603341,0.002702
-2.460000,-1.140000,0.041056,0.040000,-8827754817.257420,159515470198.483307,1828145266061.011963,64691539.307582,-8.229240,23.208712,0.001219
-2.420000,-1.140000,0.080533,0.040000,-8827986806.318119,-93767617718.618164,587150270604.875122,66584705.831404,-4.555321,8.273567,0.001254
-2.420000,-1.100000,0.080679,0.040000,-8828348326.662378,-93802601963.772812,587187617400.501099,-18863355.910448,-4.555993,8.274257,-0.000355
-2.460000,-1.100000,0.041342,0.040000,-8827671296.287344,159334702338.864594,1828023328383.961426,40488685.937496,-8.230935,23.208126,0.000763
-2.380000,-1.140000,0.120356,0.040000,-8827550559.966547,-5591594096.683537,16364567965.502026,53011588.935581,-0.166240,0.247427,0.000999
-2.340000,-1.140000,0.160267,0.040000,-8827163513.906773,27050431.602579,-28350048.179146,2373654.549457,0.000517,-0.000527,0.000045
-2.340000,-1.100000,0.160341,0.040000,-8827543844.095097,23188203.579885,-23556195.695952,2434604.097014,0.000439,-0.000442,0.000046
-2.380000,-1.100000,0.120454,0.040000,-8827924310.467018,-5603206170.858758,16376143662.615728,-35210243.547577,-0.166458,0.247646,-0.000663
-2.300000,-1.140000,0.200214,0.040000,-8826825566.810427,27149350.661804,-29997563.832297,-1308365.421283,0.000528,-0.000549,-0.000025
-2.260000,-1.140000,0.240178,0.040000,-8826535525.584421,25909424.113488,-28783890.794729,-4512845.160323,0.000504,-0.000526,-0.000085
-2.260000,-1.100000,0.240227,0.040000,-8826913289.561241,23078208.379978,-25942964.633941,-3206730.276879,0.000451,-0.000473,-0.000060
-2.300000,-1.100000,0.200273,0.040000,-8827207115.842472,24017285.441820,-26860825.574439,-428745.319727,0.000469,-0.000490,-0.000008
-2.220000,-1.140000,0.280153,0.040000,-8826291387.815296,24052039.941087,-26451004.991955,-7410565.918578,0.000467,-0.000485,-0.000140
-2.180000,-1.140000,0.320134,0.040000,-8826090492.500347,22190271.297643,-25293670.995740,-10275695.045309,0.000436,-0.000459,-0.000194
-2.180000,-1.100000,0.320171,0.040000,-8826447702.835407,20590087.638746,-23398358.597839,-7709092.241136,0.000404,-0.000425,-0.000145
-2.220000,-1.100000,0.280195,0.040000,-8826660847.485233,21896581.343379,-24548623.346317,-5414400.195722,0.000428,-0.000448,-0.000102
2.180000,-1.140000,0.320134,0.040000,-8826079614.727022,22190233.321125,-25293632.618860,10275676.504280,0.000436,-0.000459,0.000194
2.220000,-1.140000,0.280153,0.040000,-8826280310.117418,24051999.052893,-26450964.751944,7410551.428249,0.000467,-0.000485,0.000140
2.220000,-1.100000,0.280195,0.040000,-8826649768.968613,21896543.514777,-24548585.795646,5414388.903290,0.000428,-0.000448,0.000102
2.180000,-1.100000,0.320171,0.040000,-8826436824.266783,20590051.925894,-23398322.874422,7709077.728542,0.000404,-0.000425,0.000145
2.260000,-1.140000,0.240178,0.040000,-8826524247.896196,25909380.259387,-28783846.864438,4512834.813473,0.000504,-0.000526,0.000085
2.300000,-1.140000,0.200214,0.040000,-8826814089.061798,27149304.718906,-29997517.852403,1308359.657220,0.000528,-0.000549,0.000025
2.300000,-1.100000,0.200273,0.040000,-8827195637.245844,24017243.994876,-26860784.098399,428741.122870,0.000469,-0.000490,0.000008
2.260000,-1.100000,0.240227,0.040000,-8826902011.036425,23078168.567572,-25942924.752760,3206722.099400,0.000451,-0.000473,0.000060
2.340000,-1.140000,0.160267,0.040000,-8827151836.024303,27050385.463567,-28350004.185617,-2373655.018241,0.000517,-0.000527,-0.000045
2.380000,-1.140000,0.120356,0.040000,-8827538681.874538,-5591586190.033469,16364544807.493362,-53011514.808428,-0.166239,0.247427,-0.000999
2.380000,-1.100000,0.120454,0.040000,-8827912431.526340,-5603198246.099354,16376120484.635136,35210186.283778,-0.166458,0.247645,0.000663
2.340000,-1.100000,0.160341,0.040000,-8827532165.360411,23188163.004082,-23556158.589382,-2434604.160112,0.000439,-0.000442,-0.000046
2.420000,-1.140000,0.080533,0.040000,-8827974727.940224,-93767484917.068588,587149441321.745972,-66583934.492869,-4.555314,8.273555,-0.001254
2.460000,-1.140000,0.041056,0.040000,-8827742539.532543,159515247014.750977,1828142684027.252441,-64691027.291035,-8.229229,23.208680,-0.001219
2.460000,-1.100000,0.041342,0.040000,-8827659018.350222,159334478912.447845,1828020748623.084961,-40491275.848560,-8.230923,23.208093,-0.000763
2.420000,-1.100000,0.080679,0.040000,-8828336247.447561,-93802469268.118652,587186788798.082397,18861935.176609,-4.555987,8.274246,0.000355
2.500000,-1.140000,0.009254,0.040000,-4414495650.339308,-1841454225.541726,2622909161076.010742,-19030525.379957,-14.849425,34.602399,-0.000359
2.500000,-1.100000,0.010448,0.040000,-4414656071.319636,-1887584567.562416,2622957160985.649902,-143440578.262915,-14.850304,34.603292,-0.002703
-2.500000,-1.060000,0.000299,0.040000,-4414805428.724495,-1571759001.587927,2623421362979.338867,77192281.983360,-14.848763,34.607629,0.001454
-2.500000,-1.020000,0.009851,0.040000,-4414933387.032119,-1869820522.868112,2623153180795.093262,-2857274.834671,-14.851178,34.605777,-0.000054
-2.460000,-1.060000,0.040001,0.040000,-8831066555.234333,160663345271.867737,1829474889096.747559,43254369.966645,-8.221617,23.219760,0.000815
-2.420000,-1.060000,0.080001,0.040000,-8828671956.262012,-93605330620.003708,587120127521.915405,15023332.386205,-4.553010,8.272252,0.000283
-2.420000,-1.020000,0.080604,0.040000,-8828960335.066345,-93800215150.371628,587223357784.777710,58326035.590891,-4.556164,8.274715,0.001099
-2.460000,-1.020000,0.041195,0.040000,-8828458765.566063,159428250861.086243,1828234397284.859619,48661958.844359,-8.230894,23.210381,0.000917
-2.380000,-1.060000,0.120000,0.040000,-8828258630.740891,-5549031292.064566,16325439196.097124,2346076.546087,-0.165457,0.246671,0.000044
-2.340000,-1.060000,0.160000,0.040000,-8827884817.793245,23975406.568048,-31029114.081394,2795966.194666,0.000492,-0.000545,0.000053
-2.340000,-1.020000,0.160303,0.040000,-8828191040.301641,18099029.613276,-18905439.998711,3082974.385942,0.000346,-0.000352,0.000058
-2.380000,-1.020000,0.120404,0.040000,-8828558263.265146,-5605202027.039780,16379021728.344481,49621867.961552,-0.166501,0.247695,0.000935
-2.300000,-1.060000,0.200000,0.040000,-8827550159.865276,21315173.433878,-24156497.468998,216980.659208,0.000418,-0.000439,0.000004
-2.260000,-1.060000,0.240000,0.040000,-8827254085.246258,20605015.951201,-23461896.100903,-2197482.221663,0.000404,-0.000426,-0.000041
-2.260000,-1.020000,0.240202,0.040000,-8827561874.124521,18440870.875909,-21291352.359305,-1418150.016784,0.000364,-0.000385,-0.000027
-2.300000,-1.020000,0.200242,0.040000,-8827859035.491055,18973883.571589,-21810782.656248,685899.146170,0.000374,-0.000395,0.000013
-2.220000,-1.060000,0.280000,0.040000,-8826995446.562204,19430279.310837,-21962207.744412,-4417991.658887,0.000380,-0.000399,-0.000083
-2.180000,-1.060000,0.320000,0.040000,-8826772605.311611,18204382.820698,-21241802.552170,-6695458.428906,0.000360,-0.000383,-0.000126
-2.180000,-1.020000,0.320152,0.040000,-8827068206.349785,16920313.707925,-19717127.107926,-4994619.402413,0.000335,-0.000356,-0.000094
-2.220000,-1.020000,0.280173,0.040000,-8827298693.366892,17739996.832098,-20467802.076797,-3149845.356731,0.000350,-0.000370,-0.000059
2.180000,-1.060000,0.320000,0.040000,-8826761726.003849,18204350.453733,-21241769.864517,6695445.538370,0.000360,-0.000383,0.000126
2.220000,-1.060000,0.280000,0.040000,-8826984367.287104,19430244.975171,-21962173.858289,4417982.008708,0.000380,-0.000399,0.000083
2.220000,-1.020000,0.280173,0.040000,-8827287613.388626,17739964.896998,-20467770.320080,3149837.809274,0.000350,-0.000370,0.000059
2.180000,-1.020000,0.320152,0.040000,-8827057326.354889,16920283.158676,-19717096.573696,4994609.250919,0.000335,-0.000356,0.000094
2.260000,-1.060000,0.240000,0.040000,-8827242805.948584,20604979.671964,-23461859.771869,2197475.763429,0.000404,-0.000426,0.000041
2.300000,-1.060000,0.200000,0.040000,-8827538680.487076,21315135.879863,-24156459.882145,-216983.651765,0.000418,-0.000439,-0.000004
2.300000,-1.020000,0.200242,0.040000,-8827847555.391462,18973849.398278,-21810748.448418,-685901.212798,0.000374,-0.000395,-0.000013
2.260000,-1.020000,0.240202,0.040000,-8827550594.112110,18440837.703056,-21291319.134252,1418144.922526,0.000364,-0.000385,0.000027
2.340000,-1.060000,0.160000,0.040000,-8827873138.274464,23975364.973604,-31029066.488888,-2795965.460279,0.000492,-0.000545,-0.000053
2.380000,-1.060000,0.120000,0.040000,-8828246751.020237,-5549023537.565117,16325416355.653053,-2346076.364560,-0.165457,0.246670,-0.000044
2.380000,-1.020000,0.120404,0.040000,-8828546382.826292,-5605194099.781266,16378998547.612047,-49621796.476165,-0.166501,0.247694,-0.000935
2.340000,-1.020000,0.160303,0.040000,-8828179360.060205,18098996.426821,-18905409.659837,-3082972.985173,0.000346,-0.000352,-0.000058
2.420000,-1.060000,0.080001,0.040000,-8828659876.277252,-93605199654.384094,587119300656.054810,-15023314.955901,-4.553004,8.272240,-0.000283
2.460000,-1.060000,0.040001,0.040000,-8831054272.173653,160663114701.979767,1829472312722.706543,-43254290.013353,-8.221605,23.219727,-0.000815
2.460000,-1.020000,0.041195,0.040000,-8828446485.894503,159428028028.684418,1828231817505.482422,-48660010.393924,-8.230883,23.210348,-0.000917
2.420000,-1.020000,0.080604,0.040000,-8828948254.374647,-93800082377.560593,587222529196.273193,-58324701.470465,-4.556157,8.274703,-0.001099
2.500000,-1.060000,0.000299,0.040000,-4414799120.919825,-1571780665.029883,2623417679941.856934,-77192194.440912,-14.848742,34.607581,-0.001454
2.500000,-1.020000,0.009851,0.040000,-4414927157.535235,-1869806077.452078,2623149473604.135742,2860440.804191,-14.851157,34.605728,0.000054
-2.500000,-0.980000,0.009851,0.040000,-4415047976.625971,-1871145833.207294,2623223821811.326660,125796690.514931,-14.851595,34.606716,0.002370
-2.500000,-0.940000,0.000299,0.040000,-4415150739.661493,-1575818740.145638,2623634197510.671875,47371344.531092,-14.850019,34.610459,0.000893
-2.460000,-0.980000,0.041195,0.040000,-8828704618.822840,159430559318.223083,1828284251479.266357,26160995.459671,-8.231146,23.211025,0.000493
-2.420000,-0.980000,0.080604,0.040000,-8829219438.947233,-93804766622.358795,587240818070.668823,-27195710.998175,-4.556323,8.274971,-0.000512
-2.420000,-0.940000,0.080001,0.040000,-8829452709.464128,-93619105969.498703,587172792385.714844,16450093.165889,-4.553489,8.273025,0.000310
-2.460000,-0.940000,0.040001,0.040000,-8831807377.940172,160670215046.278381,1829625157525.324707,32540935.427918,-8.222376,23.221703,0.000613
-2.380000,-0.980000,0.120404,0.040000,-8828827256.928852,-5607509074.877604,16381609909.136959,-39405657.655640,-0.166546,0.247742,-0.000742
-2.340000,-0.980000,0.160303,0.040000,-8828466466.191044,15973495.819298,-16777077.243505,2801655.736625,0.000305,-0.000312,0.000053
-2.340000,-0.940000,0.160000,0.040000,-8828714506.105589,17544805.152899,-24589732.907982,2952801.568427,0.000370,-0.000423,0.000056
-2.380000,-0.940000,0.120000,0.040000,-8829069085.303833,-5556019882.575336,16333281655.454533,7859742.779324,-0.165594,0.246814,0.000148
-2.300000,-0.980000,0.200242,0.040000,-8828137497.478167,16940482.063279,-19774861.379644,1020491.804341,0.000335,-0.000357,0.000019
-2.260000,-0.980000,0.240202,0.040000,-8827840122.928059,16543545.445770,-19388818.518723,-817765.737733,0.000328,-0.000349,-0.000015
-2.260000,-0.940000,0.240000,0.040000,-8828091871.119331,14876844.729778,-17717868.062211,-357301.375980,0.000296,-0.000318,-0.000007
-2.300000,-0.940000,0.200000,0.040000,-8828388807.483503,15169122.042042,-18002791.324413,1252920.026595,0.000302,-0.000323,0.000024
-2.220000,-0.980000,0.280173,0.040000,-8827573699.312775,15795284.051044,-18415774.612757,-2528210.145709,0.000312,-0.000332,-0.000048
-2.180000,-0.980000,0.320152,0.040000,-8827337216.850563,14980450.495113,-17967091.164143,-4331150.197439,0.000299,-0.000322,-0.000082
-2.180000,-0.940000,0.320000,0.040000,-8827582075.579720,13955341.905285,-16747913.431739,-3196635.645719,0.000279,-0.000300,-0.000060
-2.220000,-0.940000,0.280000,0.040000,-8827823223.982689,14468463.763157,-17241257.842089,-1719453.397789,0.000288,-0.000309,-0.000032
2.180000,-0.980000,0.320152,0.040000,-8827326336.216675,14980422.684637,-17967063.109973,4331141.143173,0.000299,-0.000322,0.000082
2.220000,-0.980000,0.280173,0.040000,-8827562618.682247,15795254.888947,-18415745.773479,2528203.668593,0.000312,-0.000332,0.000048
2.220000,-0.940000,0.280000,0.040000,-8827812142.746868,14468436.507231,-17241230.676154,1719448.325728,0.000288,-0.000309,0.000032
2.180000,-0.940000,0.320000,0.040000,-8827571194.351570,13955315.557996,-16747887.109483,3196628.480800,0.000279,-0.000300,0.000060
2.260000,-0.980000,0.240202,0.040000,-8827828842.254005,16543514.991880,-19388788.030619,817761.730464,0.000328,-0.000349,0.000015
2.300000,-0.980000,0.200242,0.040000,-8828126016.711929,16940450.825161,-19774830.117142,-1020493.158294,0.000335,-0.000357,-0.000019
2.300000,-0.940000,0.200000,0.040000,-8828377326.100672,15169093.368566,-18002762.633231,-1252920.833287,0.000302,-0.000323,-0.000024
2.260000,-0.940000,0.240000,0.040000,-8828080589.832415,14876816.675893,-17717839.978705,357298.240063,0.000296,-0.000318,0.000007
2.340000,-0.980000,0.160303,0.040000,-8828454785.282650,15973465.720360,-16777050.002724,-2801654.496711,0.000305,-0.000312,-0.000053
2.380000,-0.980000,0.120404,0.040000,-8828815375.827667,-5607501144.069498,16381586724.092899,39405595.158414,-0.166546,0.247742,0.000742
2.380000,-0.940000,0.120000,0.040000,-8829057203.591143,-5556012117.304037,16333258801.961258,-7859734.020635,-0.165593,0.246813,-0.000148
2.340000,-0.940000,0.160000,0.040000,-8828702824.580984,17544772.907251,-24589694.685613,-2952799.900594,0.000370,-0.000423,-0.000056
2.420000,-0.980000,0.080604,0.040000,-8829207357.602894,-93804633839.878769,587239989437.777466,27194436.851777,-4.556316,8.274959,0.000512
2.460000,-0.980000,0.041195,0.040000,-8828692338.513231,159430336477.317596,1828281671568.279053,-26162770.300012,-8.231134,23.210993,-0.000493
2.460000,-0.940000,0.040001,0.040000,-8831795092.960558,160669984451.025208,1829622580755.407227,-32540840.367134,-8.222364,23.221670,-0.000613
2.420000,-0.940000,0.080001,0.040000,-8829440627.516409,-93618974974.647690,587171965386.268066,-16450050.141491,-4.553483,8.273013,-0.000310
2.500000,-0.980000,0.009851,0.040000,-4415041746.819967,-1871131385.782063,2623220114432.810059,-125799555.740214,-14.851574,34.606667,-0.002370
2.500000,-0.940000,0.000299,0.040000,-4415144430.927163,-1575840397.365689,2623630513909.416504,-47371128.984641,-14.849999,34.610411,-0.000892
-2.500000,-0.900000,0.010448,0.040000,-4415243002.664703,-1894554487.781376,2623318853137.337402,-15500420.545809,-14.852441,34.608102,-0.000292
-2.500000,-0.860000,0.009254,0.040000,-4415325912.150036,-1851428876.368403,2623421251532.301758,114075319.378899,-14.852451,34.609209,0.002149
-2.460000,-0.900000,0.041342,0.040000,-8828916659.869503,159345938585.755615,1828275950935.943604,37268745.402416,-8.232215,23.211394,0.000702
-2.420000,-0.900000,0.080679,0.040000,-8829661153.496733,-93825916839.452438,587276316885.606323,50982185.190574,-4.556802,8.275559,0.000961
-2.420000,-0.860000,0.080533,0.040000,-8829849418.709211,-93800905023.907883,587276371824.970947,-33475600.810539,-4.556473,8.275418,-0.000631
-2.460000,-0.860000,0.041056,0.040000,-8829522352.863337,159531351111.233154,1828504143376.620361,16080680.392597,-8.231059,23.213356,0.000303
-2.380000,-0.900000,0.120454,0.040000,-8829286742.386873,-5615072063.039471,16389446970.083649,45360628.249006,-0.166690,0.247888,0.000855
-2.340000,-0.900000,0.160341,0.040000,-8828938113.505287,12287646.891733,-12639470.434203,3028160.220428,0.000233,-0.000236,0.000057
-2.340000,-0.860000,0.160267,0.040000,-8829139855.480621,11397999.639606,-12674583.147263,2622844.841316,0.000222,-0.000232,0.000049
-2.380000,-0.860000,0.120356,0.040000,-8829482821.116526,-5608645740.514960,16383655548.839441,-42971045.731233,-0.166572,0.247775,-0.000810
-2.300000,-0.900000,0.200273,0.040000,-8828615807.717979,13619366.086304,-16449828.208037,1407172.047483,0.000273,-0.000294,0.000027
-2.260000,-0.900000,0.240227,0.040000,-8828319788.779276,13409848.413029,-16247394.236839,-6703.409655,0.000269,-0.000290,-0.000000
-2.260000,-0.860000,0.240178,0.040000,-8828526226.086643,12116186.490942,-14950879.729698,257295.180406,0.000244,-0.000266,0.000005
-2.300000,-0.860000,0.200214,0.040000,-8828820982.196451,12261903.280913,-15091128.901213,1501444.027605,0.000247,-0.000268,0.000028
-2.220000,-0.900000,0.280195,0.040000,-8828049716.042156,12933231.651448,-15613696.446038,-1332850.508948,0.000259,-0.000279,-0.000025
-2.180000,-0.900000,0.320171,0.040000,-8827804973.260492,12388427.599135,-15336519.629472,-2760505.131350,0.000250,-0.000272,-0.000052
-2.180000,-0.860000,0.320134,0.040000,-8828007876.047562,11570702.942065,-14362905.762163,-2000993.585261,0.000234,-0.000255,-0.000038
-2.220000,-0.860000,0.280153,0.040000,-8828255349.792887,11888252.487791,-14687822.262430,-818676.623492,0.000240,-0.000261,-0.000015
2.180000,-0.900000,0.320171,0.040000,-8827794091.479683,12388403.477389,-15336495.310846,2760498.717710,0.000250,-0.000272,0.000052
2.220000,-0.900000,0.280195,0.040000,-8828038634.244463,12933206.586601,-15613671.609365,1332846.147156,0.000259,-0.000279,0.000025
2.220000,-0.860000,0.280153,0.040000,-8828244267.473671,11888228.919087,-14687798.756057,818673.210545,0.000240,-0.000261,0.000015
2.180000,-0.860000,0.320134,0.040000,-8827996993.752884,11570679.981064,-14362882.840467,2000988.488719,0.000234,-0.000255,0.000038
2.260000,-0.900000,0.240227,0.040000,-8828308506.924419,13409822.476997,-16247368.271746,6700.972707,0.000269,-0.000290,0.000000
2.300000,-0.900000,0.200273,0.040000,-8828604325.764492,13619339.663253,-16449801.772443,-1407172.436861,0.000273,-0.000294,-0.000027
2.300000,-0.860000,0.200214,0.040000,-8828809499.714624,12261878.826828,-15091104.445141,-1501444.100807,0.000247,-0.000268,-0.000028
2.260000,-0.860000,0.240178,0.040000,-8828514943.705376,12116162.423895,-14950855.635844,-257297.058201,0.000244,-0.000266,-0.000005
2.340000,-0.900000,0.160341,0.040000,-8828926431.410923,12287622.166635,-12639449.201938,-3028158.252677,0.000233,-0.000236,-0.000057
2.380000,-0.900000,0.120454,0.040000,-8829274860.109030,-5615064120.005674,16389423770.002823,-45360562.220939,-0.166690,0.247888,-0.000855
2.380000,-0.860000,0.120356,0.040000,-8829470938.316093,-5608637807.672410,16383632359.241945,42970980.058150,-0.166572,0.247775,0.000810
2.340000,-0.860000,0.160267,0.040000,-8829128172.859171,11397976.238969,-12674561.932586,-2622843.269201,0.000222,-0.000232,-0.000049
2.420000,-0.900000,0.080679,0.040000,-8829649070.993254,-93825784094.514603,587275488059.149780,-50980703.151652,-4.556796,8.275547,-0.000961
2.460000,-0.900000,0.041342,0.040000,-8828904378.718819,159345715117.603394,1828273370512.239990,-37265977.649874,-8.232203,23.211361,-0.000702
2.460000,-0.860000,0.041056,0.040000,-8829510070.603432,159531127868.647736,1828501560406.992432,-16081010.225400,-8.231048,23.213323,-0.000303
2.420000,-0.860000,0.080533,0.040000,-8829837335.690842,-93800772152.467499,587275542225.357422,33474892.091934,-4.556466,8.275406,0.000631
2.500000,-0.900000,0.010448,0.040000,-4415236773.129511,-1894541763.977706,2623315143875.004883,15505048.047387,-14.852419,34.608053,0.000292
2.500000,-0.860000,0.009254,0.040000,-4415319680.601639,-1851416653.370634,2623417542825.502930,-114075672.319469,-14.852429,34.609160,-0.002149
-2.500000,-0.820000,0.000896,0.040000,-4415400463.285407,-1581591614.653170,2623783795646.091309,23626170.921481,-14.850941,34.612465,0.000445
-2.500000,-0.780000,0.011045,0.040000,-4415467523.139361,-1916217685.067952,2623433840686.411621,-21975750.536492,-14.853376,34.609741,-0.000414
-2.460000,-0.820000,0.040010,0.040000,-8832313098.627913,160662475372.492676,1829719446991.561035,25350648.247736,-8.223011,23.222990,0.000478
-2.420000,-0.820000,0.080005,0.040000,-8830019432.032957,-93630571965.536804,587211229480.242188,19053877.069410,-4.553858,8.273596,0.000359
-2.420000,-0.780000,0.080759,0.040000,-8830171341.954193,-93846692089.804504,587315415491.644409,44102632.851689,-4.557297,8.276192,0.000831
-2.460000,-0.780000,0.041497,0.040000,-8829210698.635235,159270006388.453705,1828288222962.788086,28797325.021122,-8.233286,23.211985,0.000543
-2.380000,-0.820000,0.120003,0.040000,-8829659574.614017,-5561150441.577679,16338996798.102180,13319724.240714,-0.165694,0.246918,0.000251
-2.340000,-0.820000,0.160003,0.040000,-8829321970.857035,13291017.295071,-20264765.655260,2716604.971427,0.000290,-0.000342,0.000051
-2.340000,-0.780000,0.160381,0.040000,-8829486418.106253,8376082.311516,-8315737.944301,2692045.264862,0.000157,-0.000157,0.000051
-2.380000,-0.780000,0.120507,0.040000,-8829818967.558187,-5622554517.849306,16397291325.007191,40489700.625849,-0.166833,0.248034,0.000763
-2.300000,-0.820000,0.200002,0.040000,-8829006507.800240,11069812.449547,-13899092.323901,1549894.540245,0.000225,-0.000246,0.000029
-2.260000,-0.820000,0.240002,0.040000,-8828713255.534765,10973378.678922,-13805725.508990,452798.839052,0.000223,-0.000244,0.000009
-2.260000,-0.780000,0.240254,0.040000,-8828882707.930973,9962254.751550,-12792665.545744,593961.829802,0.000204,-0.000225,0.000011
-2.300000,-0.780000,0.200305,0.040000,-8829174296.966837,10018695.934035,-12845419.444948,1563065.067239,0.000205,-0.000226,0.000029
-2.220000,-0.820000,0.280001,0.040000,-8828442057.495672,10672891.164916,-13394661.852353,-581869.398368,0.000216,-0.000237,-0.000011
-2.180000,-0.820000,0.320001,0.040000,-8828192547.646297,10308270.642513,-13227166.018236,-1714492.040580,0.000211,-0.000233,-0.000032
-2.180000,-0.780000,0.320191,0.040000,-8828360569.710905,9655434.861049,-12449270.153608,-1206363.266357,0.000198,-0.000219,-0.000023
-2.220000,-0.780000,0.280218,0.040000,-8828611557.756742,9846812.207739,-12662232.138170,-259392.294727,0.000201,-0.000223,-0.000005
2.180000,-0.820000,0.320001,0.040000,-8828181664.874075,10308249.485840,-13227144.717205,1714487.465086,0.000211,-0.000233,0.000032
2.220000,-0.820000,0.280001,0.040000,-8828430974.692522,10672869.348271,-13394640.199276,581866.458665,0.000216,-0.000237,0.000011
2.220000,-0.780000,0.280218,0.040000,-8828600474.504732,9846791.578860,-12662211.545896,259390.003073,0.000201,-0.000223,0.000005
2.180000,-0.780000,0.320191,0.040000,-8828349686.495186,9655414.645306,-12449249.965911,1206359.622089,0.000198,-0.000219,0.000023
2.260000,-0.820000,0.240002,0.040000,-8828701972.665611,10973356.262974,-13805703.076612,-452800.268916,0.000223,-0.000244,-0.000009
2.300000,-0.820000,0.200002,0.040000,-8828995024.829262,11069789.736795,-13899069.599528,-1549894.375961,0.000225,-0.000246,-0.000029
2.300000,-0.780000,0.200305,0.040000,-8829162813.543072,10018674.758589,-12845398.258617,-1563064.727278,0.000205,-0.000226,-0.000029
2.260000,-0.780000,0.240254,0.040000,-8828871424.609838,9962233.807547,-12792644.580707,-593962.900830,0.000204,-0.000225,-0.000011
2.340000,-0.820000,0.160003,0.040000,-8829310287.747913,13290991.277637,-20264733.754849,-2716603.101490,0.000290,-0.000342,-0.000051
2.380000,-0.820000,0.120003,0.040000,-8829647691.330271,-5561142636.754308,16338973844.336788,-13319707.145532,-0.165693,0.246918,-0.000251
2.380000,-0.780000,0.120507,0.040000,-8829807083.827471,-5622546561.950483,16397268106.830391,-40489642.421649,-0.166833,0.248033,-0.000763
2.340000,-0.780000,0.160381,0.040000,-8829474734.545979,8376063.308201,-8315723.028234,-2692043.276323,0.000157,-0.000157,-0.000051
2.420000,-0.820000,0.080005,0.040000,-8830007348.537693,-93630440421.965851,587210400880.365356,-19053806.742915,-4.553852,8.273585,-0.000359
2.460000,-0.820000,0.040010,0.040000,-8832300812.177269,160662245809.266785,1829716865219.383789,-25350535.906559,-8.222999,23.222958,-0.000478
2.460000,-0.780000,0.041497,0.040000,-8829198416.350744,159269782527.555969,1828285639536.892090,-28795689.627188,-8.233274,23.211952,-0.000543
2.420000,-0.780000,0.080759,0.040000,-8830159258.019686,-93846559231.910507,587314585630.422119,-44101687.540344,-4.557291,8.276180,-0.000831
2.500000,-0.820000,0.000896,0.040000,-4415394179.881196,-1581605140.613690,2623780101188.391602,-23625916.445904,-14.850920,34.612416,-0.000445
2.500000,-0.780000,0.011045,0.040000,-4415461293.625860,-1916207351.825014,2623430129113.863281,21978441.554997,-14.853355,34.609692,0.000414
-2.500000,-0.740000,0.008657,0.040000,-4415527849.665736,-1829515905.263871,2623572957262.832031,105710482.220156,-14.853019,34.611086,0.001992
-2.500000,-0.700000,0.001493,0.040000,-4415582107.304322,-1589600254.163668,2623887656783.096680,4013281.904349,-14.851634,34.613880,0.000076
-2.460000,-0.740000,0.040926,0.040000,-8830189005.576281,159635714257.768005,1828695849099.878174,8810299.506728,-8.230766,23.215294,0.000166
-2.420000,-0.740000,0.080467,0.040000,-8830309033.115067,-93793048893.022446,587299781685.209106,-38101875.069482,-4.556501,8.275682,-0.000718
-2.420000,-0.700000,0.080014,0.040000,-8830433406.993345,-93641193013.549255,587240037798.187256,22356055.052114,-4.554161,8.274036,0.000421
-2.460000,-0.700000,0.040028,0.040000,-8832643070.166971,160640518618.996155,1829770399241.889160,20442997.900780,-8.223588,23.223786,0.000385
-2.380000,-0.740000,0.120312,0.040000,-8829962719.439688,-5607825626.357050,16383567188.378750,-45727990.372841,-0.166561,0.247770,-0.000862
-2.340000,-0.740000,0.160234,0.040000,-8829634915.038881,8438706.307727,-10215569.751619,2251340.364255,0.000169,-0.000182,0.000042
-2.340000,-0.700000,0.160007,0.040000,-8829768971.834410,10376041.594449,-17215280.725954,2345975.844400,0.000234,-0.000286,0.000044
-2.380000,-0.700000,0.120009,0.040000,-8830092337.805422,-5565348355.939170,16343580157.414444,18712400.453226,-0.165775,0.247002,0.000353
-2.300000,-0.740000,0.200187,0.040000,-8829326033.485764,9092409.409360,-11918695.106722,1549097.856427,0.000187,-0.000209,0.000029
-2.260000,-0.740000,0.240156,0.040000,-8829036203.101406,9066455.211807,-11895265.266457,691899.192661,0.000187,-0.000208,0.000013
-2.260000,-0.700000,0.240005,0.040000,-8829175176.099474,8272002.144083,-11099485.315778,755375.107710,0.000172,-0.000193,0.000014
-2.300000,-0.700000,0.200006,0.040000,-8829463202.603939,8274456.668372,-11101149.444838,1514531.527171,0.000172,-0.000193,0.000029
-2.220000,-0.740000,0.280134,0.040000,-8828765380.344362,8882026.773512,-11632726.618936,-119411.384234,0.000183,-0.000204,-0.000002
-2.180000,-0.740000,0.320117,0.040000,-8828513360.383499,8639435.548087,-11536129.487763,-1019621.531115,0.000179,-0.000201,-0.000019
-2.180000,-0.700000,0.320003,0.040000,-8828652190.973610,8117861.556976,-10914294.768240,-681962.712857,0.000169,-0.000190,-0.000013
-2.220000,-0.700000,0.280004,0.040000,-8828904887.820644,8227129.407042,-11051764.195123,76697.799801,0.000171,-0.000192,0.000001
2.180000,-0.740000,0.320117,0.040000,-8828502476.756279,8639416.782167,-11536110.612034,1019618.251359,0.000179,-0.000201,0.000019
2.220000,-0.740000,0.280134,0.040000,-8828754296.676413,8882007.541426,-11632707.505038,119409.409619,0.000183,-0.000204,0.000002
2.220000,-0.700000,0.280004,0.040000,-8828893803.767662,8227111.116693,-11051745.922705,-76699.331425,0.000171,-0.000192,-0.000001
2.180000,-0.700000,0.320003,0.040000,-8828641306.965092,8117843.538593,-10914276.788407,681960.095147,0.000169,-0.000190,0.000013
2.260000,-0.740000,0.240156,0.040000,-8829024919.361816,9066435.570109,-11895245.606542,-691899.977818,0.000187,-0.000208,-0.000013
2.300000,-0.740000,0.200187,0.040000,-8829314549.643143,9092389.596856,-11918675.269889,-1549097.389740,0.000187,-0.000209,-0.000029
2.300000,-0.700000,0.200006,0.040000,-8829451718.374147,8274438.038849,-11101130.818455,-1514530.973783,0.000172,-0.000193,-0.000029
2.260000,-0.700000,0.240005,0.040000,-8829163891.972874,8271983.653146,-11099466.815848,-755375.665588,0.000172,-0.000193,-0.000014
2.340000,-0.740000,0.160234,0.040000,-8829623231.061489,8438687.274202,-10215552.195353,-2251338.856222,0.000169,-0.000182,-0.000042
2.380000,-0.740000,0.120312,0.040000,-8829950835.295807,-5607817694.963513,16383543999.669565,45727921.825828,-0.166561,0.247769,0.000862
2.380000,-0.700000,0.120009,0.040000,-8830080453.279938,-5565340529.960382,16343557153.883226,-18712375.222043,-0.165775,0.247002,-0.000353
2.340000,-0.700000,0.160007,0.040000,-8829757287.471678,10376019.867567,-17215253.304719,-2345974.069445,0.000234,-0.000286,-0.000044
2.420000,-0.740000,0.080467,0.040000,-8830296948.773323,-93792916087.219040,587298951537.734863,38101244.720421,-4.556495,8.275671,0.000718
2.460000,-0.740000,0.040926,0.040000,-8830176721.691605,159635489904.772186,1828693264231.537598,-8810842.122618,-8.230755,23.215261,-0.000166
2.460000,-0.700000,0.040028,0.040000,-8832630782.604429,160640289566.256104,1829767815126.001953,-20442866.864207,-8.223577,23.223754,-0.000385
2.420000,-0.700000,0.080014,0.040000,-8830421322.274975,-93641061205.193649,587239208436.038574,-22355956.115036,-4.554154,8.274025,-0.000421
2.500000,-0.740000,0.008657,0.040000,-4415521616.402146,-1829507107.487247,2623569246659.419434,-105711230.327823,-14.852998,34.611037,-0.001992
2.500000,-0.700000,0.001493,0.040000,-4415575835.388827,-1589610092.184767,2623883957106.374023,-4013055.877403,-14.851613,34.613831,-0.000076
-2.500000,-0.660000,0.011642,0.040000,-4415630879.877386,-1934970687.937811,2623513611751.416992,-24151681.958573,-14.854074,34.610899,-0.000455
-2.500000,-0.620000,0.008060,0.040000,-4415674681.306471,-1806167286.734209,2623691638722.445801,99149203.421008,-14.853382,34.612519,0.001868
-2.460000,-0.660000,0.041660,0.040000,-8829395002.550577,159201934618.623840,1828283297400.751221,22226281.505840,-8.234155,23.212305,0.000419
-2.420000,-0.660000,0.080843,0.040000,-8830544177.137960,-93863597278.131119,587344528257.471191,37411858.332713,-4.557685,8.276671,0.000705
-2.420000,-0.620000,0.080405,0.040000,-8830644754.947241,-93782493993.134796,587314571022.232178,-41339716.952160,-4.556446,8.275818,-0.000779
-2.460000,-0.620000,0.040804,0.040000,-8830745503.602758,159742284448.675812,1828867052152.691895,3473285.968323,-8.230329,23.216950,0.000065
-2.380000,-0.660000,0.120563,0.040000,-8830209147.484634,-5628361933.855212,16403330645.356518,35124980.883280,-0.166944,0.248146,0.000662
-2.340000,-0.660000,0.160423,0.040000,-8829889918.642275,5674343.399373,-5249119.882478,2265093.778346,0.000105,-0.000101,0.000043
-2.340000,-0.620000,0.160203,0.040000,-8829998928.735451,6515115.111548,-8810333.250953,1826962.639745,0.000136,-0.000153,0.000034
-2.380000,-0.620000,0.120270,0.040000,-8830314315.711370,-5605751233.819518,16382096080.834820,-47617533.099568,-0.166525,0.247738,-0.000897
-2.300000,-0.660000,0.200339,0.040000,-8829587116.419071,7549584.910477,-10374078.253774,1464100.748183,0.000158,-0.000179,0.000028
-2.260000,-0.660000,0.240282,0.040000,-8829300899.600555,7566937.879525,-10393317.973372,791325.916765,0.000159,-0.000180,0.000015
-2.260000,-0.620000,0.240135,0.040000,-8829414503.060909,6941021.408750,-9766483.550875,805260.119363,0.000147,-0.000168,0.000015
-2.300000,-0.620000,0.200162,0.040000,-8829698935.358555,6909136.207463,-9733725.133649,1401551.895020,0.000146,-0.000167,0.000026
-2.220000,-0.660000,0.280242,0.040000,-8829031294.361200,7460117.668804,-10231416.832555,153344.681149,0.000156,-0.000177,0.000003
-2.180000,-0.660000,0.320212,0.040000,-8828778200.856089,7301323.169210,-10181003.453414,-562505.835097,0.000154,-0.000176,-0.000011
-2.180000,-0.620000,0.320101,0.040000,-8828892410.707102,6884919.059052,-9684354.635434,-341636.366893,0.000146,-0.000167,-0.000006
-2.220000,-0.620000,0.280116,0.040000,-8829145682.108809,6940467.726783,-9770243.074371,265236.604475,0.000147,-0.000168,0.000005
2.180000,-0.660000,0.320212,0.040000,-8828767316.494844,7301306.329477,-10180986.527084,562503.475718,0.000154,-0.000176,0.000011
2.220000,-0.660000,0.280242,0.040000,-8829020209.952360,7460100.487350,-10231399.749068,-153345.998569,0.000156,-0.000177,-0.000003
2.220000,-0.620000,0.280116,0.040000,-8829134597.371742,6940451.310043,-9770226.655708,-265237.614767,0.000147,-0.000168,-0.000005
2.180000,-0.620000,0.320101,0.040000,-8828881526.020229,6884902.827948,-9684338.420856,341634.488036,0.000146,-0.000167,0.000006
2.260000,-0.660000,0.240282,0.040000,-8829289615.116552,7566920.418384,-10393300.503741,-791326.294147,0.000159,-0.000180,-0.000015
2.300000,-0.660000,0.200339,0.040000,-8829575631.831982,7549567.351673,-10374060.689848,-1464100.140227,0.000158,-0.000179,-0.000028
2.300000,-0.620000,0.200162,0.040000,-8829687450.442276,6909119.596496,-9733708.509695,-1401551.255241,0.000146,-0.000167,-0.000026
2.260000,-0.620000,0.240135,0.040000,-8829403218.247461,6941004.868127,-9766466.995980,-805260.354375,0.000147,-0.000168,-0.000015
2.340000,-0.660000,0.160423,0.040000,-8829878233.924013,5674328.374740,-5249109.454739,-2265091.995138,0.000105,-0.000101,-0.000043
2.380000,-0.660000,0.120563,0.040000,-8830197262.607145,-5628353968.131151,16403307413.965393,-35124930.579955,-0.166943,0.248146,-0.000662
2.380000,-0.620000,0.120270,0.040000,-8830302430.509747,-5605743306.078851,16382072896.256243,47617462.610729,-0.166525,0.247738,0.000897
2.340000,-0.620000,0.160203,0.040000,-8829987243.689749,6515098.938423,-8810317.823928,-1826961.360565,0.000136,-0.000153,-0.000034
2.420000,-0.660000,0.080843,0.040000,-8830532092.073910,-93863464357.812683,587343697886.373169,-37411163.805755,-4.557678,8.276660,-0.000705
2.460000,-0.660000,0.041660,0.040000,-8829382719.396566,159201710581.860626,1828280712544.486816,-22225120.090588,-8.234144,23.212272,-0.000419
2.460000,-0.620000,0.040804,0.040000,-8830733218.356981,159742059441.317230,1828864466101.964600,-3473808.570929,-8.230317,23.216917,-0.000065
2.420000,-0.620000,0.080405,0.040000,-8830632669.563454,-93782361229.907425,587313740552.008057,41339168.386532,-4.556439,8.275806,0.000779
2.500000,-0.660000,0.011642,0.040000,-4415624650.416079,-1934961454.831660,2623509898826.986816,24153574.291239,-14.854053,34.610850,0.000455
2.500000,-0.620000,0.008060,0.040000,-4415668446.309912,-1806160510.063395,2623687927270.204590,-99149928.461897,-14.853361,34.612470,-0.001868
-2.500000,-0.580000,0.002090,0.040000,-4415713964.557880,-1600060333.118141,2623957366397.546387,-12607681.063428,-14.852166,34.614858,-0.000238
-2.500000,-0.540000,0.012239,0.040000,-4415749129.142501,-1950803457.680196,2623568520848.406250,-23249204.643811,-14.854594,34.611713,-0.000438
-2.460000,-0.580000,0.040055,0.040000,-8832837273.342680,160604976104.452820,1829786589430.697754,17039930.616634,-8.224148,23.224201,0.000321
-2.420000,-0.580000,0.080027,0.040000,-8830735293.352930,-93651797350.763077,587262148611.803101,26006292.015856,-4.554426,8.274388,0.000490
-2.420000,-0.540000,0.080931,0.040000,-8830815318.235710,-93877217302.061722,587366150657.096558,30752000.785937,-4.557986,8.277034,0.000579
-2.460000,-0.540000,0.041830,0.040000,-8829506418.640377,159143067502.371307,1828269477273.740967,16916969.440745,-8.234854,23.212455,0.000319
-2.380000,-0.580000,0.120018,0.040000,-8830408870.727024,-5569122464.106084,16347587373.408838,23952407.978448,-0.165847,0.247076,0.000451
-2.340000,-0.580000,0.160014,0.040000,-8830097038.000072,8320332.065494,-14962845.938291,1942924.998520,0.000194,-0.000244,0.000037
-2.340000,-0.540000,0.160467,0.040000,-8830185161.392048,3782917.964557,-3045035.165052,1822184.955601,0.000067,-0.000062,0.000034
-2.380000,-0.540000,0.120623,0.040000,-8830493719.285597,-5632884960.580182,16407998349.626257,29340548.793241,-0.167030,0.248233,0.000553
-2.300000,-0.580000,0.200011,0.040000,-8829799686.393536,6342457.754967,-9167578.154063,1330018.878237,0.000135,-0.000157,0.000025
-2.260000,-0.580000,0.240009,0.040000,-8829516989.128597,6385470.438342,-9210167.115746,801565.750294,0.000136,-0.000158,0.000015
-2.260000,-0.540000,0.240312,0.040000,-8829609247.716146,5892747.332056,-8716804.208309,783747.738435,0.000127,-0.000148,0.000015
-2.300000,-0.540000,0.200374,0.040000,-8829890278.519501,5839726.652483,-8662857.862411,1251598.325154,0.000126,-0.000147,0.000024
-2.220000,-0.580000,0.280008,0.040000,-8829249015.373341,6331254.295797,-9117465.836863,300062.944348,0.000135,-0.000156,0.000006
-2.180000,-0.580000,0.320007,0.040000,-8828995734.216415,6230743.558143,-9097250.188384,-268007.366423,0.000134,-0.000155,-0.000005
-2.180000,-0.540000,0.320234,0.040000,-8829088988.418097,5899474.773702,-8702025.899875,-127819.886215,0.000127,-0.000148,-0.000002
-2.220000,-0.540000,0.280267,0.040000,-8829342152.954304,5919858.548221,-8752246.916145,355343.176192,0.000128,-0.000149,0.000007
2.180000,-0.580000,0.320007,0.040000,-8828984849.229662,6230728.261315,-9097234.820395,268005.670747,0.000134,-0.000155,0.000005
2.220000,-0.580000,0.280008,0.040000,-8829237930.334215,6331238.753346,-9117450.367493,-300063.811138,0.000135,-0.000156,-0.000006
2.220000,-0.540000,0.280267,0.040000,-8829331067.638103,5919843.607069,-8752231.975582,-355343.832679,0.000128,-0.000149,-0.000007
2.180000,-0.540000,0.320234,0.040000,-8829078103.156075,5899459.957791,-8702011.102514,127818.533828,0.000127,-0.000148,0.000002
2.260000,-0.580000,0.240009,0.040000,-8829505704.012182,6385454.708073,-9210151.374017,-801565.874836,0.000136,-0.000158,-0.000015
2.300000,-0.580000,0.200011,0.040000,-8829788201.174644,6342441.971318,-9167562.370014,-1330018.226017,0.000135,-0.000157,-0.000025
2.300000,-0.540000,0.200374,0.040000,-8829878793.023293,5839711.616456,-8662842.818440,-1251597.678544,0.000126,-0.000147,-0.000024
2.260000,-0.540000,0.240312,0.040000,-8829597962.321936,5892732.319191,-8716789.193683,-783747.779778,0.000127,-0.000148,-0.000015
2.340000,-0.580000,0.160014,0.040000,-8830085352.653484,8320313.374688,-14962821.836714,-1942923.444488,0.000194,-0.000244,-0.000037
2.380000,-0.580000,0.120018,0.040000,-8830396985.227570,-5569114622.745017,16347564335.701605,-23952374.901689,-0.165847,0.247076,-0.000451
2.380000,-0.540000,0.120623,0.040000,-8830481833.513288,-5632876987.209094,16407975108.091793,-29340506.843179,-0.167029,0.248233,-0.000553
2.340000,-0.540000,0.160467,0.040000,-8830173475.769777,3782905.740360,-3045027.972649,-1822183.469149,0.000067,-0.000062,-0.000034
2.420000,-0.580000,0.080027,0.040000,-8830723207.675110,-93651665362.833298,587261318754.674683,-26006163.374038,-4.554419,8.274376,-0.000490
2.460000,-0.580000,0.040055,0.040000,-8832824984.967104,160604747431.303101,1829784003831.351318,-17039777.076653,-8.224137,23.224168,-0.000321
2.460000,-0.540000,0.041830,0.040000,-8829494134.825666,159142843372.275665,1828266891515.302734,-16916114.894807,-8.234842,23.212423,-0.000319
2.420000,-0.540000,0.080931,0.040000,-8830803232.290129,-93877084337.043274,587365319955.676025,-30751479.283975,-4.557980,8.277022,-0.000579
2.500000,-0.580000,0.002090,0.040000,-4415707700.082592,-1600067661.189959,2623953663324.540527,12607913.463769,-14.852145,34.614810,0.000238
2.500000,-0.540000,0.012239,0.040000,-4415742899.744771,-1950794881.006777,2623564806982.203613,23250586.964643,-14.854572,34.611664,0.000438
-2.500000,-0.500000,0.007463,0.040000,-4415780527.425157,-1781991161.013022,2623785642004.114258,93402631.395656,-14.853594,34.613622,0.001760
-2.500000,-0.460000,0.002687,0.040000,-4415808469.945720,-1613007126.687095,2624000830308.080078,-26931034.939706,-14.852582,34.615505,-0.000507
-2.460000,-0.500000,0.040690,0.040000,-8831218108.541937,159849635766.754456,1829022282266.887451,-493912.543446,-8.229790,23.218390,-0.000009
-2.420000,-0.500000,0.080347,0.040000,-8830887917.220882,-93770137863.599472,587323091622.183350,-43371970.740851,-4.556331,8.275860,-0.000817
-2.420000,-0.460000,0.080045,0.040000,-8830952663.231184,-93662846147.991760,587279478614.337158,29738892.770012,-4.554669,8.274679,0.000560
-2.460000,-0.460000,0.040090,0.040000,-8832923583.200487,160556654470.735779,1829774135027.826660,14626905.206462,-8.224715,23.224310,0.000276
-2.380000,-0.500000,0.120232,0.040000,-8830569661.846693,-5602861403.161577,16379712419.230518,-48627756.765789,-0.166474,0.247691,-0.000916
-2.340000,-0.500000,0.160174,0.040000,-8830264106.868670,5284270.669123,-8107070.272503,1403699.883036,0.000116,-0.000137,0.000026
-2.340000,-0.460000,0.160023,0.040000,-8830334587.205519,6840162.150102,-13226326.514915,1545548.467244,0.000165,-0.000213,0.000029
-2.380000,-0.460000,0.120030,0.040000,-8830637403.074902,-5572756171.493674,16351334222.474678,28934870.657900,-0.165916,0.247146,0.000545
-2.300000,-0.500000,0.200139,0.040000,-8829971515.938341,5396670.137537,-8220280.341273,1168032.523133,0.000118,-0.000139,0.000022
-2.260000,-0.500000,0.240116,0.040000,-8829692068.078730,5456380.332713,-8279902.935545,754612.507009,0.000119,-0.000140,0.000014
-2.260000,-0.460000,0.240015,0.040000,-8829766149.186102,5070811.126519,-7893887.069282,716412.013207,0.000111,-0.000133,0.000013
-2.300000,-0.460000,0.200018,0.040000,-8830044109.298733,5005990.996335,-7830126.853211,1080863.826478,0.000110,-0.000132,0.000020
-2.220000,-0.500000,0.280099,0.040000,-8829425858.828766,5438280.177166,-8235469.807904,362366.869469,0.000118,-0.000139,0.000007
-2.180000,-0.500000,0.320087,0.040000,-8829172902.778320,5378784.029409,-8234962.786768,-85636.704106,0.000117,-0.000139,-0.000002
-2.180000,-0.460000,0.320011,0.040000,-8829248127.169241,5117376.332373,-7923018.908290,-1497.146096,0.000112,-0.000133,-0.000000
-2.220000,-0.460000,0.280013,0.040000,-8829500811.414631,5114897.032689,-7948312.389829,379373.369682,0.000112,-0.000134,0.000007
2.180000,-0.500000,0.320087,0.040000,-8829162017.264570,5378769.970090,-8234948.668189,85635.482738,0.000117,-0.000139,0.000002
2.220000,-0.500000,0.280099,0.040000,-8829414773.259329,5438265.939380,-8235455.620891,-362367.431717,0.000118,-0.000139,-0.000007
2.220000,-0.460000,0.280013,0.040000,-8829489725.614819,5114883.267500,-7948298.621120,-379373.787480,0.000112,-0.000134,-0.000007
2.180000,-0.460000,0.320011,0.040000,-8829237241.426355,5117362.649243,-7923005.247045,1496.180135,0.000112,-0.000133,0.000000
2.260000,-0.500000,0.240116,0.040000,-8829680782.430786,5456365.969852,-8279888.553441,-754612.485997,0.000119,-0.000140,-0.000014
2.300000,-0.500000,0.200139,0.040000,-8829960030.188868,5396655.752138,-8220265.955623,-1168031.893782,0.000118,-0.000139,-0.000022
2.300000,-0.460000,0.200018,0.040000,-8830032623.319036,5005977.189421,-7830113.043149,-1080863.221912,0.000110,-0.000132,-0.000020
2.260000,-0.460000,0.240015,0.040000,-8829754863.307390,5070797.324527,-7893873.258236,-716411.946319,0.000111,-0.000133,-0.000013
2.340000,-0.500000,0.160174,0.040000,-8830252420.994686,5284256.346628,-8107055.947648,-1403698.889756,0.000116,-0.000137,-0.000026
2.380000,-0.500000,0.120232,0.040000,-8830557775.825281,-5602853480.606510,16379689241.140051,48627685.424966,-0.166474,0.247690,0.000916
2.380000,-0.460000,0.120030,0.040000,-8830625516.827114,-5572748317.548662,16351311158.357529,-28934830.145255,-0.165916,0.247146,-0.000545
2.340000,-0.460000,0.160023,0.040000,-8830322901.102751,6840145.648820,-13226304.975156,-1545547.178352,0.000165,-0.000213,-0.000029
2.420000,-0.500000,0.080347,0.040000,-8830875831.029350,-93770005144.020096,587322260943.832886,43371488.959314,-4.556324,8.275849,0.000817
2.460000,-0.500000,0.040690,0.040000,-8831205822.158541,159849410245.640442,1829019695389.855713,493436.145293,-8.229779,23.218357,0.000009
2.460000,-0.460000,0.040090,0.040000,-8832911294.268597,160556426127.816071,1829771548412.471924,-14626726.486308,-8.224704,23.224277,-0.000276
2.420000,-0.460000,0.080045,0.040000,-8830940576.816095,-93662714022.390839,587278648404.813354,-29738733.401625,-4.554663,8.274667,-0.000560
2.500000,-0.500000,0.007463,0.040000,-4415774290.639692,-1781985957.640782,2623781930149.539551,-93403285.261752,-14.853573,34.613573,-0.001760
2.500000,-0.460000,0.002687,0.040000,-4415802210.961695,-1613012513.020709,2623997124771.240234,26931285.948728,-14.852561,34.615456,0.000507
-2.500000,-0.420000,0.012836,0.040000,-4415833229.918246,-1963636324.225366,2623605641566.678223,-20125143.272515,-14.854973,34.612275,-0.000379
-2.500000,-0.380000,0.006866,0.040000,-4415855047.038713,-1757513136.949241,2623860485518.400879,87815812.421220,-14.853695,34.614471,0.001655
-2.460000,-0.420000,0.042009,0.040000,-8829570498.446430,159094557889.191589,1828252591722.158691,12451989.954237,-8.235398,23.212507,0.000235
-2.420000,-0.420000,0.081023,0.040000,-8831009046.251629,-93887880434.182739,587381930106.463989,24042420.101173,-4.558216,8.277302,0.000453
-2.420000,-0.380000,0.080294,0.040000,-8831059903.509151,-93756645229.194580,587326955131.309814,-44333521.522695,-4.556175,8.275835,-0.000835
-2.460000,-0.380000,0.040585,0.040000,-8831623475.513742,159956281121.425262,1829164035197.340820,-3473283.139958,-8.229185,23.219657,-0.000065
-2.380000,-0.420000,0.120685,0.040000,-8830697562.807184,-5636343150.691763,16411543494.149633,23202995.307978,-0.167095,0.248300,0.000437
-2.340000,-0.420000,0.160514,0.040000,-8830397230.034637,2463152.470055,-1469326.528714,1390414.021815,0.000041,-0.000033,0.000026
-2.340000,-0.380000,0.160147,0.040000,-8830452586.375408,4537119.721631,-7888046.868921,999630.012704,0.000104,-0.000130,0.000019
-2.380000,-0.380000,0.120196,0.040000,-8830750685.461771,-5599448966.067576,16376729092.447855,-48769247.077569,-0.166412,0.247632,-0.000919
-2.300000,-0.420000,0.200411,0.040000,-8830108685.288593,4661267.990936,-7483556.157277,990940.918580,0.000104,-0.000125,0.000019
-2.260000,-0.420000,0.240343,0.040000,-8829832108.629156,4731269.712701,-7553971.919948,670956.659473,0.000105,-0.000126,0.000013
-2.260000,-0.380000,0.240098,0.040000,-8829890490.263374,4433669.993479,-7256060.931338,619704.604210,0.000099,-0.000121,0.000012
-2.300000,-0.380000,0.200118,0.040000,-8830165794.821251,4360882.563471,-7183943.147351,899067.521028,0.000098,-0.000119,0.000017
-2.220000,-0.420000,0.280294,0.040000,-8829567611.590801,4738277.109121,-7543690.293572,367850.438924,0.000105,-0.000126,0.000007
-2.180000,-0.420000,0.320257,0.040000,-8829315238.847469,4707942.179359,-7555906.486105,19022.773881,0.000105,-0.000126,0.000000
-2.180000,-0.380000,0.320074,0.040000,-8829374748.543516,4504841.315543,-7313502.436817,64182.247746,0.000101,-0.000122,0.000001
-2.220000,-0.380000,0.280084,0.040000,-8829626789.629644,4487787.839214,-7321217.724467,358939.757256,0.000101,-0.000122,0.000007
2.180000,-0.420000,0.320257,0.040000,-8829304352.897240,4707929.094028,-7555893.349668,-19023.644402,0.000105,-0.000126,-0.000000
2.220000,-0.420000,0.280294,0.040000,-8829556525.582577,4738263.887933,-7543677.118945,-367850.796437,0.000105,-0.000126,-0.000007
2.220000,-0.380000,0.280084,0.040000,-8829615703.434246,4487774.993552,-7321204.870390,-358940.016980,0.000101,-0.000122,-0.000007
2.180000,-0.380000,0.320074,0.040000,-8829363862.406935,4504828.521960,-7313489.659153,-64182.929780,0.000101,-0.000122,-0.000001
2.260000,-0.420000,0.240343,0.040000,-8829820822.541788,4731256.412593,-7553958.607826,-670956.561979,0.000105,-0.000126,-0.000013
2.300000,-0.420000,0.200411,0.040000,-8830097199.100777,4661254.698131,-7483542.858835,-990940.347729,0.000104,-0.000125,-0.000019
2.300000,-0.380000,0.200118,0.040000,-8830154308.446590,4360869.717460,-7183930.294114,-899066.990571,0.000098,-0.000119,-0.000017
2.260000,-0.380000,0.240098,0.040000,-8829879203.988630,4433657.131595,-7256048.062671,-619704.488647,0.000099,-0.000121,-0.000012
2.340000,-0.420000,0.160514,0.040000,-8830385543.725103,2463142.199248,-1469321.662847,-1390412.862749,0.000041,-0.000033,-0.000026
2.380000,-0.420000,0.120685,0.040000,-8830685676.354794,-5636335171.476319,16411520244.905376,-23202962.162852,-0.167095,0.248299,-0.000437
2.380000,-0.380000,0.120196,0.040000,-8830738798.825726,-5599441049.798344,16376705922.737118,48769176.012103,-0.166412,0.247632,0.000919
2.340000,-0.380000,0.160147,0.040000,-8830440899.880268,4537106.536460,-7888032.936505,-999629.319440,0.000104,-0.000130,-0.000019
2.420000,-0.420000,0.081023,0.040000,-8830996959.635979,-93887747435.977371,587381099177.244751,-24042036.710576,-4.558210,8.277290,-0.000453
2.460000,-0.420000,0.042009,0.040000,-8829558214.141186,159094333707.581451,1828250005354.726074,-12451370.049140,-8.235386,23.212474,-0.000235
2.460000,-0.380000,0.040585,0.040000,-8831611188.190363,159956055157.457886,1829161447735.676514,3472854.777986,-8.229173,23.219624,0.000065
2.420000,-0.380000,0.080294,0.040000,-8831047816.711905,-93756512557.748810,587326124322.506226,44333095.558933,-4.556168,8.275823,0.000835
2.500000,-0.420000,0.012836,0.040000,-4415827000.582876,-1963628169.529960,2623601927024.678711,20126140.612132,-14.854951,34.612226,0.000379
2.500000,-0.380000,0.006866,0.040000,-4415848808.372480,-1757509295.482934,2623856773563.686523,-87816391.832657,-14.853674,34.614422,-0.001655
-2.500000,-0.340000,0.003284,0.040000,-4415874130.706392,-1628357439.327762,2624023533736.832031,-39395184.870760,-14.852913,34.615891,-0.000742
-2.500000,-0.300000,0.013433,0.040000,-4415890662.747659,-1973370763.350129,2623629815261.027344,-15424467.765682,-14.855238,34.612648,-0.000291
-2.460000,-0.340000,0.040135,0.040000,-8832921919.433031,160496510646.095123,1829737592719.663086,12845466.631096,-8.225302,23.224168,0.000242
-2.420000,-0.340000,0.080067,0.040000,-8831104338.161886,-93674570895.614456,587293286653.040771,33344663.581192,-4.554902,8.274927,0.000628
-2.420000,-0.300000,0.081120,0.040000,-8831141900.221846,-93895770370.938309,587392961177.129761,17253055.011431,-4.558383,8.277492,0.000325
-2.460000,-0.300000,0.042195,0.040000,-8829604959.189518,159057343405.662933,1828236736033.494385,8546048.619578,-8.235799,23.212508,0.000161
-2.380000,-0.340000,0.120045,0.040000,-8830797245.807236,-5576402380.170156,16354996547.080240,33554172.808442,-0.165985,0.247215,0.000632
-2.340000,-0.340000,0.160034,0.040000,-8830501137.880640,5764223.351611,-11838192.432456,1164996.838711,0.000143,-0.000189,0.000022
-2.340000,-0.300000,0.160563,0.040000,-8830543302.980989,1569910.835044,-380656.308358,976595.172554,0.000023,-0.000014,0.000018
-2.380000,-0.300000,0.120749,0.040000,-8830837656.086145,-5638861234.488994,16414111192.973906,16782229.701376,-0.167143,0.248348,0.000316
-2.300000,-0.340000,0.200027,0.040000,-8830215920.014820,4099524.274012,-6923028.422208,806013.659854,0.000093,-0.000114,0.000015
-2.260000,-0.340000,0.240022,0.040000,-8829941770.757593,4174519.861000,-6996651.894068,563832.482820,0.000095,-0.000116,0.000011
-2.260000,-0.300000,0.240376,0.040000,-8829986365.189432,3950848.972379,-6772766.332160,504291.723618,0.000090,-0.000112,0.000010
-2.300000,-0.300000,0.200451,0.040000,-8830259480.129568,3873048.843235,-6694819.892056,712020.833706,0.000089,-0.000110,0.000013
-2.220000,-0.340000,0.280019,0.040000,-8829678811.175182,4199199.993413,-7010887.485044,335064.529564,0.000095,-0.000116,0.000006
-2.180000,-0.340000,0.320017,0.040000,-8829427105.756100,4189770.180014,-7031091.744320,69802.117934,0.000095,-0.000116,0.000001
-2.180000,-0.300000,0.320282,0.040000,-8829472703.334387,4036345.087516,-6847954.990552,88027.048870,0.000092,-0.000113,0.000002
-2.220000,-0.300000,0.280322,0.040000,-8829724082.379349,4010420.549523,-6843197.687872,308697.997755,0.000092,-0.000113,0.000006
2.180000,-0.340000,0.320017,0.040000,-8829416219.453575,4189757.851142,-7031079.367878,-69802.731379,0.000095,-0.000116,-0.000001
2.220000,-0.340000,0.280019,0.040000,-8829667724.813110,4199187.568198,-7010875.085279,-335064.750865,0.000095,-0.000116,-0.000006
2.220000,-0.300000,0.280322,0.040000,-8829712995.870525,4010408.395242,-6843185.536860,-308698.151213,0.000092,-0.000113,-0.000006
2.180000,-0.300000,0.320282,0.040000,-8829461816.885685,4036332.976974,-6847942.885410,-88027.520544,0.000092,-0.000113,-0.000002
2.260000,-0.340000,0.240022,0.040000,-8829930484.316069,4174507.380715,-6996639.409465,-563832.357810,0.000095,-0.000116,-0.000011
2.300000,-0.340000,0.200027,0.040000,-8830204433.473881,4099511.814761,-6923015.957246,-806013.174082,0.000093,-0.000114,-0.000015
2.300000,-0.300000,0.200451,0.040000,-8830247993.442287,3873036.716794,-6694807.769105,-712020.398577,0.000089,-0.000110,-0.000013
2.260000,-0.300000,0.240376,0.040000,-8829975078.601097,3950836.817561,-6772754.181631,-504291.596717,0.000090,-0.000112,-0.000010
2.340000,-0.340000,0.160034,0.040000,-8830489451.220352,5764208.450438,-11838172.923644,-1164995.827019,0.000143,-0.000189,-0.000022
2.380000,-0.340000,0.120045,0.040000,-8830785359.007792,-5576394515.223605,16354973461.217863,-33554125.407013,-0.165985,0.247215,-0.000632
2.380000,-0.300000,0.120749,0.040000,-8830825769.142920,-5638853251.017501,16414087938.140701,-16782205.739928,-0.167143,0.248347,-0.000316
2.340000,-0.300000,0.160563,0.040000,-8830531616.175375,1569901.891940,-380653.042968,-976594.346794,0.000023,-0.000014,-0.000018
2.420000,-0.340000,0.080067,0.040000,-8831092251.203209,-93674438657.407028,587292456185.145020,-33344472.414995,-4.554896,8.274915,-0.000628
2.460000,-0.340000,0.040135,0.040000,-8832909630.171310,160496282615.445770,1829735005401.985352,-12845260.355235,-8.225290,23.224135,-0.000242
2.460000,-0.300000,0.042195,0.040000,-8829592674.537003,159057119195.855408,1828234149257.149658,-8545625.710162,-8.235788,23.212475,-0.000161
2.420000,-0.300000,0.081120,0.040000,-8831129813.122498,-93895637348.870193,587392130092.388428,-17252791.127052,-4.558376,8.277480,-0.000325
2.500000,-0.340000,0.003284,0.040000,-4415867876.071202,-1628361205.934435,2624019826326.763184,39395462.405328,-14.852892,34.615842,0.000742
2.500000,-0.300000,0.013433,0.040000,-4415884433.465094,-1973362881.377712,2623626100246.704590,15425145.488791,-14.855217,34.612599,0.000291
-2.500000,-0.260000,0.006269,0.040000,-4415904799.711096,-1733207775.843069,2623919748856.638184,81940312.098336,-14.853709,34.615115,0.001544
-2.500000,-0.220000,0.003881,0.040000,-4415916674.789525,-1645942822.468355,2624029278048.717773,-50290795.531997,-14.853177,34.616066,-0.000948
-2.460000,-0.260000,0.040488,0.040000,-8831971651.166521,160060693449.870575,1829293431632.379883,-5739054.240365,-8.228539,23.220773,-0.000108
-2.420000,-0.260000,0.080245,0.040000,-8831175206.330545,-93742533210.490082,587327275469.333740,-44333297.559177,-4.555990,8.275760,-0.000835
-2.420000,-0.220000,0.080094,0.040000,-8831202967.223021,-93687048088.452682,587304377901.214600,36653251.342952,-4.555129,8.275144,0.000691
-2.460000,-0.220000,0.040188,0.040000,-8832846691.992962,160425637623.176575,1829680475169.937256,11431863.201429,-8.225914,23.223815,0.000215
-2.380000,-0.260000,0.120164,0.040000,-8830872271.822044,-5595720453.535825,16373364955.281612,-48066817.543040,-0.166344,0.247567,-0.000906
-2.340000,-0.260000,0.160123,0.040000,-8830579442.076424,4144054.817694,-8015126.049975,617481.734210,0.000100,-0.000129,0.000012
-2.340000,-0.220000,0.160047,0.040000,-8830609861.896215,4989268.129900,-10699983.579121,800908.821174,0.000126,-0.000169,0.000015
-2.380000,-0.220000,0.120063,0.040000,-8830901394.666361,-5580133153.479499,16358662834.023523,37711027.737201,-0.166055,0.247285,0.000710
-2.300000,-0.260000,0.200098,0.040000,-8830296836.598818,3681503.984777,-6504282.500635,617451.189406,0.000085,-0.000107,0.000012
-2.260000,-0.260000,0.240082,0.040000,-8830024631.804703,3760148.478138,-6581890.226143,441854.013880,0.000087,-0.000108,0.000008
-2.260000,-0.220000,0.240031,0.040000,-8830056876.038578,3600318.765830,-6421918.139807,377147.959594,0.000084,-0.000105,0.000007
-2.300000,-0.220000,0.200038,0.040000,-8830328297.265316,3520812.484351,-6343907.464995,522689.321473,0.000082,-0.000104,0.000010
-2.220000,-0.260000,0.280070,0.040000,-8829762954.292765,3797419.376576,-6613988.221942,276682.728641,0.000087,-0.000109,0.000005
-2.180000,-0.260000,0.320061,0.040000,-8829511881.419598,3803043.384910,-6638889.969842,83518.693653,0.000088,-0.000109,0.000002
-2.180000,-0.220000,0.320024,0.040000,-8829544930.807928,3692994.763913,-6507518.848554,83522.093917,0.000085,-0.000107,0.000002
-2.220000,-0.220000,0.280027,0.040000,-8829795726.590508,3662247.474742,-6493904.032623,238779.927270,0.000085,-0.000106,0.000004
2.180000,-0.260000,0.320061,0.040000,-8829500994.844030,3803031.612590,-6638878.172796,-83519.113924,0.000088,-0.000109,-0.000002
2.220000,-0.260000,0.280070,0.040000,-8829751867.656633,3797407.541905,-6613976.402749,-276682.858910,0.000087,-0.000109,-0.000005
2.220000,-0.220000,0.280027,0.040000,-8829784639.846010,3662235.833197,-6493892.395939,-238780.012813,0.000085,-0.000106,-0.000004
2.180000,-0.220000,0.320024,0.040000,-8829534044.124395,3692983.157488,-6507507.240576,-83522.402584,0.000085,-0.000107,-0.000002
2.260000,-0.260000,0.240082,0.040000,-8830013345.089018,3760136.606587,-6581878.358134,-441853.892658,0.000087,-0.000108,-0.000008
2.300000,-0.260000,0.200098,0.040000,-8830285349.784624,3681492.148538,-6504270.658043,-617450.808045,0.000085,-0.000107,-0.000012
2.300000,-0.220000,0.200038,0.040000,-8830316810.343142,3520800.886239,-6343895.863631,-522688.995253,0.000082,-0.000104,-0.000010
2.260000,-0.220000,0.240031,0.040000,-8830045589.214554,3600307.135407,-6421906.504473,-377147.849243,0.000084,-0.000105,-0.000007
2.340000,-0.260000,0.160123,0.040000,-8830567755.144770,4144042.246086,-8015111.987712,-617481.338899,0.000100,-0.000129,-0.000012
2.380000,-0.260000,0.120164,0.040000,-8830860384.754114,-5595712544.381159,16373341795.567816,48066747.886787,-0.166344,0.247566,0.000906
2.380000,-0.220000,0.120063,0.040000,-8830889507.492371,-5580125278.513095,16358639729.551514,-37710974.116780,-0.166055,0.247284,-0.000710
2.340000,-0.220000,0.160047,0.040000,-8830598174.857340,4989254.373603,-10699965.730336,-800908.089489,0.000126,-0.000169,-0.000015
2.420000,-0.260000,0.080245,0.040000,-8831163119.107580,-93742400592.650024,587326444590.749390,44332919.872970,-4.555984,8.275748,0.000835
2.460000,-0.260000,0.040488,0.040000,-8831959363.084995,160060467086.955170,1829290843777.503418,5738671.043821,-8.228528,23.220740,0.000108
2.460000,-0.220000,0.040188,0.040000,-8832834402.606056,160425409902.220734,1829677887387.828613,-11431627.041769,-8.225902,23.223782,-0.000215
2.420000,-0.220000,0.080094,0.040000,-8831190879.895222,-93686915754.429642,587303547245.357300,-36653027.138147,-4.555123,8.275132,-0.000691
2.500000,-0.260000,0.006269,0.040000,-4415898559.034997,-1733205187.877044,2623916037049.676758,-81940822.925622,-14.853688,34.615066,-0.001544
2.500000,-0.220000,0.003881,0.040000,-4415910423.756068,-1645945166.289657,2624025569188.316406,50291106.258446,-14.853156,34.616017,0.000948
-2.500000,-0.180000,0.014030,0.040000,-4415926399.417727,-1979916598.752811,2623644270429.487305,-9667117.036758,-14.855406,34.612876,-0.000182
-2.500000,-0.140000,0.005672,0.040000,-4415934064.581126,-1709511995.434165,2623965604314.590820,75458911.290972,-14.853656,34.615586,0.001422
-2.460000,-0.180000,0.042389,0.040000,-8829621743.297815,159032134620.716339,1828224704157.253174,4993784.947183,-8.236064,23.212492,0.000094
-2.420000,-0.180000,0.081221,0.040000,-8831224853.432848,-93900987660.070435,587399956141.390625,10386703.004993,-4.558491,8.277614,0.000196
-2.420000,-0.140000,0.080201,0.040000,-8831243264.579679,-93728216247.142288,587324808949.281616,-43468414.466137,-4.555788,8.275646,-0.000819
-2.460000,-0.140000,0.040400,0.040000,-8832267896.140205,160161333252.151672,1829410618830.740967,-7501630.861041,-8.227874,23.221750,-0.000141
-2.380000,-0.180000,0.120817,0.040000,-8830925277.114971,-5640509448.867036,16415785388.086126,10153919.083183,-0.167174,0.248379,0.000191
-2.340000,-0.180000,0.160614,0.040000,-8830634819.128208,1015419.473738,305799.638390,578871.841911,0.000012,-0.000002,0.000011
-2.340000,-0.140000,0.160100,0.040000,-8830654523.397114,4025495.690971,-8400409.740371,253403.111631,0.000101,-0.000134,0.000005
-2.380000,-0.140000,0.120134,0.040000,-8830944125.884789,-5591827311.764950,16369778185.870552,-46556914.043234,-0.166272,0.247497,-0.000877
-2.300000,-0.180000,0.200491,0.040000,-8830354119.914730,3388481.975132,-6209954.641880,427679.845577,0.000080,-0.000101,0.000008
-2.260000,-0.180000,0.240410,0.040000,-8830083353.879414,3469629.469602,-6291115.354677,310688.952288,0.000081,-0.000103,0.000006
-2.260000,-0.140000,0.240067,0.040000,-8830104274.641108,3366686.444802,-6188085.651492,242904.099002,0.000079,-0.000101,0.000005
-2.300000,-0.140000,0.200080,0.040000,-8830374515.180857,3285658.700535,-6108332.640679,332586.426168,0.000078,-0.000099,0.000006
-2.220000,-0.180000,0.280351,0.040000,-8829822650.700056,3515959.430811,-6336404.469135,201557.214545,0.000082,-0.000103,0.000004
-2.180000,-0.180000,0.320307,0.040000,-8829572095.787378,3532390.162999,-6363624.964125,72350.453431,0.000083,-0.000104,0.000001
-2.180000,-0.140000,0.320050,0.040000,-8829593576.492668,3461325.089247,-6278785.950543,60665.390933,0.000081,-0.000102,0.000001
-2.220000,-0.140000,0.280057,0.040000,-8829843932.387827,3428775.595806,-6258946.183013,156398.558986,0.000081,-0.000102,0.000003
2.180000,-0.180000,0.320307,0.040000,-8829561209.014389,3532378.789242,-6363613.568994,-72350.721548,0.000083,-0.000104,-0.000001
2.220000,-0.180000,0.280351,0.040000,-8829811563.865820,3515948.004248,-6336393.062365,-201557.287743,0.000082,-0.000103,-0.000004
2.220000,-0.140000,0.280057,0.040000,-8829832845.482159,3428764.299126,-6258934.887662,-156398.600558,0.000081,-0.000102,-0.000003
2.180000,-0.140000,0.320050,0.040000,-8829582689.648457,3461313.817293,-6278774.681390,-60665.566169,0.000081,-0.000102,-0.000001
2.260000,-0.180000,0.240410,0.040000,-8830072066.965656,3469618.030415,-6291103.913149,-310688.857267,0.000081,-0.000103,-0.000006
2.300000,-0.180000,0.200491,0.040000,-8830342632.903145,3388470.573505,-6209943.239735,-427679.576792,0.000080,-0.000101,-0.000008
2.300000,-0.140000,0.200080,0.040000,-8830363028.098110,3285647.452121,-6108321.391068,-332586.216571,0.000078,-0.000099,-0.000006
2.260000,-0.140000,0.240067,0.040000,-8830092987.655926,3366675.156571,-6188074.363690,-242904.022545,0.000079,-0.000101,-0.000005
2.340000,-0.180000,0.160614,0.040000,-8830623132.000559,1015411.357403,305801.890439,-578871.349280,0.000012,-0.000002,-0.000011
2.380000,-0.180000,0.120817,0.040000,-8830913389.853146,-5640501462.607214,16415762129.604439,-10153904.588705,-0.167174,0.248379,-0.000191
2.380000,-0.140000,0.120134,0.040000,-8830932238.553051,-5591819410.374480,16369755037.627882,46556846.897813,-0.166272,0.247497,0.000877
2.340000,-0.140000,0.160100,0.040000,-8830642836.198816,4025483.322523,-8400395.166025,-253403.005806,0.000101,-0.000134,-0.000005
2.420000,-0.180000,0.081221,0.040000,-8831212766.019505,-93900854622.469467,587399124958.899780,-10386548.229154,-4.558485,8.277602,-0.000196
2.460000,-0.180000,0.042389,0.040000,-8829609458.423122,159031910396.329468,1828222117126.919922,-4993538.258030,-8.236052,23.212459,-0.000094
2.460000,-0.140000,0.040400,0.040000,-8832255607.473829,160161106520.893646,1829408030750.690674,7501289.206360,-8.227863,23.221717,0.000141
2.420000,-0.140000,0.080201,0.040000,-8831231177.096622,-93728083688.954788,587323978053.140747,43468079.806191,-4.555781,8.275634,0.000819
2.500000,-0.180000,0.014030,0.040000,-4415920170.173022,-1979908881.661594,2623640555114.122070,9667511.343683,-14.855385,34.612827,0.000182
2.500000,-0.140000,0.005672,0.040000,-4415927821.723919,-1709510611.877814,2623961892883.506348,-75459361.194617,-14.853635,34.615537,-0.001422
-2.500000,-0.100000,0.004478,0.040000,-4415939741.864637,-1665529152.678549,2624020617369.924316,-59826669.715339,-14.853387,34.616063,-0.001127
-2.500000,-0.060000,0.014627,0.040000,-4415943484.266954,-1983207078.750208,2623650990084.453125,-3300676.788851,-14.855487,34.612983,-0.000062
-2.460000,-0.100000,0.040250,0.040000,-8832708250.682457,160345251369.443970,1829605549585.057617,10179772.796777,-8.226551,23.223281,0.000192
-2.420000,-0.100000,0.080125,0.040000,-8831256576.635185,-93700241782.170166,587313223480.615234,39521883.580761,-4.555353,8.275335,0.000745
-2.420000,-0.060000,0.081326,0.040000,-8831264616.497154,-93903584135.447968,587403344514.129761,3466680.676654,-4.558544,8.277673,0.000065
-2.460000,-0.060000,0.042590,0.040000,-8829628245.397112,159019408402.365356,1828218242728.420410,1637140.896980,-8.236195,23.212479,0.000031
-2.380000,-0.100000,0.120084,0.040000,-8830958102.820381,-5583966689.362245,16362362904.872328,41315260.418590,-0.166127,0.247355,0.000778
-2.340000,-0.100000,0.160063,0.040000,-8830669139.656172,4455975.334950,-9758042.060513,448049.523525,0.000114,-0.000154,0.000008
-2.340000,-0.060000,0.160667,0.040000,-8830678790.044193,749576.481290,638133.470702,191739.795970,0.000006,0.000004,0.000004
-2.380000,-0.060000,0.120888,0.040000,-8830967327.959610,-5641325333.176550,16416612090.577728,3398850.047978,-0.167190,0.248395,0.000064
-2.300000,-0.100000,0.200050,0.040000,-8830389648.882650,3209100.669462,-6031938.590620,237600.777237,0.000076,-0.000098,0.000004
-2.260000,-0.100000,0.240042,0.040000,-8830119803.198071,3290403.470472,-6111739.516399,174152.987501,0.000078,-0.000099,0.000003
-2.260000,-0.060000,0.240445,0.040000,-8830130061.724918,3239983.295649,-6061277.812112,104745.419790,0.000077,-0.000098,0.000002
-2.300000,-0.060000,0.200534,0.040000,-8830399643.840517,3157634.215970,-5978970.118627,142531.689580,0.000075,-0.000097,0.000003
-2.220000,-0.100000,0.280036,0.040000,-8829859733.849382,3343267.682134,-6166854.673106,116093.431816,0.000079,-0.000100,0.000002
-2.180000,-0.100000,0.320031,0.040000,-8829609530.814631,3367306.796076,-6194560.124247,45459.280391,0.000079,-0.000101,0.000001
-2.180000,-0.060000,0.320334,0.040000,-8829620075.893822,3332446.962605,-6152942.400026,27256.424872,0.000079,-0.000100,0.000001
-2.220000,-0.060000,0.280382,0.040000,-8829870175.340242,3300531.205329,-6128883.876865,66946.432826,0.000078,-0.000099,0.000001
2.180000,-0.100000,0.320031,0.040000,-8829598643.917196,3367295.658377,-6194548.980707,-45459.424614,0.000079,-0.000101,-0.000001
2.220000,-0.100000,0.280036,0.040000,-8829848646.890356,3343256.517132,-6166843.507952,-116093.468622,0.000079,-0.000100,-0.000002
2.220000,-0.060000,0.280382,0.040000,-8829859088.345715,3300520.098095,-6128872.773099,-66946.446521,0.000078,-0.000099,-0.000001
2.180000,-0.060000,0.320334,0.040000,-8829609188.961029,3332435.885950,-6152931.307991,-27256.492025,0.000079,-0.000100,-0.000001
2.260000,-0.100000,0.240042,0.040000,-8830108516.159540,3290392.298559,-6111728.339812,-174152.931451,0.000078,-0.000099,-0.000003
2.300000,-0.100000,0.200050,0.040000,-8830378161.746742,3209089.534525,-6031927.457241,-237600.627027,0.000076,-0.000098,-0.000004
2.300000,-0.060000,0.200534,0.040000,-8830388156.669277,3157623.158761,-5978959.061128,-142531.598630,0.000075,-0.000097,-0.000003
2.260000,-0.060000,0.240445,0.040000,-8830118774.650925,3239972.200696,-6061266.707629,-104745.384468,0.000077,-0.000098,-0.000002
2.340000,-0.100000,0.160063,0.040000,-8830657452.405102,4455962.366036,-9758025.570197,-448049.069245,0.000114,-0.000154,-0.000008
2.380000,-0.100000,0.120084,0.040000,-8830946215.436440,-5583958805.064518,16362339784.071316,-41315201.366984,-0.166126,0.247355,-0.000778
2.380000,-0.060000,0.120888,0.040000,-8830955440.540964,-5641317345.536604,16416588830.288252,-3398845.196540,-0.167189,0.248394,-0.000064
2.340000,-0.060000,0.160667,0.040000,-8830667102.758020,749568.758330,638135.226136,-191739.633037,0.000006,0.000004,-0.000004
2.420000,-0.100000,0.080125,0.040000,-8831244489.100540,-93700109364.515808,587312392694.580444,-39521624.797708,-4.555347,8.275323,-0.000745
2.460000,-0.100000,0.040250,0.040000,-8832695961.359373,160345023964.443512,1829602961534.709961,-10179504.299013,-8.226539,23.223248,-0.000192
2.460000,-0.060000,0.042590,0.040000,-8829615960.414059,159019184171.840546,1828215655576.057373,-1637059.766865,-8.236183,23.212446,-0.000031
2.420000,-0.060000,0.081326,0.040000,-8831252528.929260,-93903451090.175171,587402513284.335083,-3466629.639567,-4.558538,8.277661,-0.000065
2.500000,-0.100000,0.004478,0.040000,-4415933493.909376,-1665530196.080059,2624016907388.713867,59827020.037296,-14.853366,34.616014,0.001127
2.500000,-0.060000,0.014627,0.040000,-4415937255.041936,-1983199439.623505,2623647274622.299805,3300806.298698,-14.855466,34.612934,0.000062
-2.500000,-0.020000,0.005075,0.040000,-4415945326.796328,-1686829313.085675,2623999132944.728516,68137490.210396,-14.853546,34.615900,0.001284
-2.500000,0.020000,0.005075,0.040000,-4415945286.860058,-1686829290.257543,2623999109226.393066,-68173254.393565,-14.853546,34.615899,-0.001284
-2.460000,-0.020000,0.040321,0.040000,-8832513788.964760,160256676988.130127,1829515017520.186035,-8935626.263733,-8.227207,23.222588,-0.000168
-2.420000,-0.020000,0.080161,0.040000,-8831269553.525892,-93714029204.328323,587320034699.075317,-41833561.060929,-4.555574,8.275503,-0.000788
-2.420000,0.020000,0.080161,0.040000,-8831269473.658365,-93714028352.275833,587320029385.281372,41827806.437846,-4.555574,8.275503,0.000788
-2.460000,0.020000,0.040321,0.040000,-8832513709.117241,160256675555.915833,1829515000986.564209,8915857.379352,-8.227207,23.222588,0.000168
-2.380000,-0.020000,0.120107,0.040000,-8830971881.090399,-5587882150.597399,16366083819.953238,-44286958.282765,-0.166199,0.247426,-0.000834
-2.340000,-0.020000,0.160080,0.040000,-8830683555.245649,4135956.604962,-8990400.911944,-99218.842006,0.000105,-0.000142,-0.000002
-2.340000,0.020000,0.160080,0.040000,-8830683475.382122,4135956.474222,-8990400.832075,99221.024484,0.000105,-0.000142,0.000002
-2.380000,0.020000,0.120107,0.040000,-8830971801.224989,-5587882099.048480,16366083670.188854,44286951.053475,-0.166199,0.247426,0.000834
-2.300000,-0.020000,0.200064,0.040000,-8830404581.208174,3133191.525186,-5955891.256742,47472.774409,0.000075,-0.000096,0.000001
-2.260000,-0.020000,0.240054,0.040000,-8830135130.973852,3214903.058144,-6036177.555085,34957.213394,0.000077,-0.000098,0.000001
-2.260000,0.020000,0.240054,0.040000,-8830135051.113304,3214902.896095,-6036177.392607,-34955.673010,0.000077,-0.000098,-0.000001
-2.300000,0.020000,0.200064,0.040000,-8830404501.346254,3133191.360270,-5955891.098351,-47470.909942,0.000075,-0.000096,-0.000001
-2.220000,-0.020000,0.280046,0.040000,-8829875336.374945,3272398.422733,-6098580.127946,25209.757354,0.000078,-0.000099,0.000000
-2.180000,-0.020000,0.320040,0.040000,-8829625289.221212,3301491.172275,-6125212.426841,10148.570925,0.000078,-0.000099,0.000000
-2.180000,0.020000,0.320040,0.040000,-8829625209.362617,3301491.061794,-6125212.286707,-10147.703681,0.000078,-0.000099,-0.000000
-2.220000,0.020000,0.280046,0.040000,-8829875256.515499,3272398.284610,-6098580.004170,-25208.527569,0.000078,-0.000099,-0.000000
2.180000,-0.020000,0.320040,0.040000,-8829614402.270750,3301480.138196,-6125201.376656,-10148.608780,0.000078,-0.000099,-0.000000
2.220000,-0.020000,0.280046,0.040000,-8829864249.362707,3272387.357090,-6098569.067163,-25209.766257,0.000078,-0.000099,-0.000000
2.220000,0.020000,0.280046,0.040000,-8829864169.503260,3272387.218429,-6098568.943131,25208.540007,0.000078,-0.000099,0.000000
2.180000,0.020000,0.320040,0.040000,-8829614322.412127,3301480.017514,-6125201.247559,10147.741520,0.000078,-0.000099,0.000000
2.260000,-0.020000,0.240054,0.040000,-8830123843.882133,3214891.992151,-6036166.493524,-34957.199908,0.000077,-0.000098,-0.000001
2.300000,-0.020000,0.200064,0.040000,-8830393094.019297,3133180.504213,-5955880.232044,-47472.743664,0.000075,-0.000096,-0.000001
2.300000,0.020000,0.200064,0.040000,-8830393014.157389,3133180.343636,-5955880.069671,47470.879750,0.000075,-0.000096,0.000001
2.260000,0.020000,0.240054,0.040000,-8830123764.021589,3214891.831884,-6036166.328917,34955.662122,0.000077,-0.000098,0.000001
2.340000,-0.020000,0.160080,0.040000,-8830671867.941975,4135944.091582,-8990385.518243,99218.664919,0.000105,-0.000142,0.000002
2.380000,-0.020000,0.120107,0.040000,-8830959993.654413,-5587874257.506871,16366060684.644213,44286894.693662,-0.166199,0.247426,0.000834
2.380000,0.020000,0.120107,0.040000,-8830959913.789017,-5587874205.952881,16366060534.885000,-44286887.466616,-0.166199,0.247426,-0.000834
2.340000,0.020000,0.160080,0.040000,-8830671788.078447,4135943.961098,-8990385.438411,-99220.848368,0.000105,-0.000142,-0.000002
2.420000,-0.020000,0.080161,0.040000,-8831257465.940012,-93713896712.518982,587319203833.891235,41833265.692608,-4.555567,8.275491,0.000788
2.460000,-0.020000,0.040321,0.040000,-8832501499.883928,160256449911.355164,1829512429374.381348,8935322.717625,-8.227195,23.222555,0.000168
2.460000,0.020000,0.040321,0.040000,-8832501420.036402,160256448479.138702,1829512412840.755859,-8915553.832463,-8.227195,23.222555,-0.000168
2.420000,0.020000,0.080161,0.040000,-8831257386.072491,-93713895860.464325,587319198520.099854,-41827511.071163,-4.555567,8.275491,-0.000788
2.500000,-0.020000,0.005075,0.040000,-4415939081.535192,-1686829127.452150,2623995422117.220703,-68137886.772562,-14.853525,34.615851,-0.001284
2.500000,0.020000,0.005075,0.040000,-4415939041.598927,-1686829104.623720,2623995398398.894531,68173650.960221,-14.853525,34.615850,0.001284
-2.500000,0.060000,0.014627,0.040000,-4415943364.458267,-1983207025.733218,2623650918901.875977,3264903.226653,-14.855487,34.612982,0.000062
-2.500000,0.100000,0.004478,0.040000,-4415939542.183876,-1665529084.834978,2624020498706.033203,59790903.067148,-14.853386,34.616061,0.001126
-2.460000,0.060000,0.042590,0.040000,-8829628005.838129,159019404086.447052,1828218193126.667725,-1656908.442571,-8.236195,23.212478,-0.000031
-2.420000,0.060000,0.081326,0.040000,-8831264376.894800,-93903581588.475723,587403328577.826660,-3472429.374274,-4.558544,8.277673,-0.000065
-2.420000,0.100000,0.080125,0.040000,-8831256177.298704,-93700237550.170471,587313196926.130615,-39527636.385347,-4.555353,8.275335,-0.000745
-2.460000,0.100000,0.040250,0.040000,-8832707851.253805,160345244102.463654,1829605466843.369873,-10199541.091540,-8.226550,23.223280,-0.000192
-2.380000,0.060000,0.120888,0.040000,-8830967088.363647,-5641325180.597225,16416611645.635904,-3398853.569024,-0.167190,0.248395,-0.000064
-2.340000,0.060000,0.160667,0.040000,-8830678550.453854,749576.057100,638133.782905,-191737.599227,0.000006,0.000004,-0.000004
-2.340000,0.100000,0.160063,0.040000,-8830668740.339806,4455974.428429,-9758040.975757,-448047.322596,0.000114,-0.000154,-0.000008
-2.380000,0.100000,0.120084,0.040000,-8830957703.494606,-5583966438.588943,16362362167.249388,-41315265.605986,-0.166127,0.247355,-0.000778
-2.300000,0.060000,0.200534,0.040000,-8830399404.255053,3157633.732701,-5978969.630135,-142529.823809,0.000075,-0.000097,-0.000003
-2.260000,0.060000,0.240445,0.040000,-8830129822.143536,3239982.810491,-6061277.323008,-104743.880644,0.000077,-0.000098,-0.000002
-2.260000,0.100000,0.240042,0.040000,-8830119403.896629,3290402.656044,-6111738.697321,-174151.450865,0.000078,-0.000099,-0.000003
-2.300000,0.100000,0.200050,0.040000,-8830389249.574389,3209099.851681,-6031937.778429,-237598.909705,0.000076,-0.000098,-0.000004
-2.220000,0.060000,0.280382,0.040000,-8829869935.762159,3300530.698340,-6128883.353594,-66945.205790,0.000078,-0.000099,-0.000001
-2.180000,0.060000,0.320334,0.040000,-8829619836.318272,3332446.440045,-6152941.891349,-27255.560842,0.000079,-0.000100,-0.000001
-2.180000,0.100000,0.320031,0.040000,-8829609131.522884,3367306.039197,-6194559.342332,-45458.428371,0.000079,-0.000101,-0.000001
-2.220000,0.100000,0.280036,0.040000,-8829859334.553453,3343266.899288,-6166853.894386,-116092.212060,0.000079,-0.000100,-0.000002
2.180000,0.060000,0.320334,0.040000,-8829608949.385458,3332435.357085,-6152930.807584,27255.626486,0.000079,-0.000100,0.000001
2.220000,0.060000,0.280382,0.040000,-8829858848.767630,3300519.591005,-6128872.249874,66945.218736,0.000078,-0.000099,0.000001
2.220000,0.100000,0.280036,0.040000,-8829848247.594412,3343255.730746,-6166842.734109,116092.247123,0.000079,-0.000100,0.000002
2.180000,0.100000,0.320031,0.040000,-8829598244.625439,3367294.901299,-6194548.202843,45458.574493,0.000079,-0.000101,0.000001
2.260000,0.060000,0.240445,0.040000,-8830118535.069544,3239971.716088,-6061266.215859,104743.846128,0.000077,-0.000098,0.000002
2.300000,0.060000,0.200534,0.040000,-8830387917.083809,3157622.673363,-5978958.573132,142529.733640,0.000075,-0.000097,0.000003
2.300000,0.100000,0.200050,0.040000,-8830377762.438496,3209088.720252,-6031926.638185,237598.759858,0.000076,-0.000098,0.000004
2.260000,0.100000,0.240042,0.040000,-8830108116.858089,3290391.480242,-6111727.523103,174151.394304,0.000078,-0.000099,0.000003
2.340000,0.060000,0.160667,0.040000,-8830666863.167686,749568.335003,638135.541096,191737.436086,0.000006,0.000004,0.000004
2.380000,0.060000,0.120888,0.040000,-8830955200.944992,-5641317192.961817,16416588385.344627,3398848.717140,-0.167189,0.248394,0.000064
2.380000,0.100000,0.120084,0.040000,-8830945816.110668,-5583958554.290244,16362339046.450281,41315206.555738,-0.166126,0.247355,0.000778
2.340000,0.100000,0.160063,0.040000,-8830657053.088736,4455961.458488,-9758024.485052,448046.868703,0.000114,-0.000154,0.000008
2.420000,0.060000,0.081326,0.040000,-8831252289.326891,-93903448543.208481,587402497348.027954,3472378.336644,-4.558538,8.277661,0.000065
2.460000,0.060000,0.042590,0.040000,-8829615720.855055,159019179855.915527,1828215605974.291748,1656827.312569,-8.236183,23.212445,0.000031
2.460000,0.100000,0.040250,0.040000,-8832695561.930719,160345016697.463531,1829602878793.020508,10199272.592462,-8.226539,23.223247,0.000192
2.420000,0.100000,0.080125,0.040000,-8831244089.764053,-93700105132.517960,587312366140.093628,39527377.602951,-4.555347,8.275323,0.000745
2.500000,0.060000,0.014627,0.040000,-4415937135.233252,-1983199386.611357,2623647203439.665527,-3265032.723391,-14.855466,34.612933,-0.000062
2.500000,0.100000,0.004478,0.040000,-4415933294.228612,-1665530128.237381,2624016788724.850586,-59791253.392750,-14.853365,34.616012,-0.001127
-2.500000,0.140000,0.005672,0.040000,-4415933785.028877,-1709511879.662648,2623965438217.227539,-75494671.524526,-14.853655,34.615583,-0.001422
-2.500000,0.180000,0.014030,0.040000,-4415926039.994798,-1979916439.976618,2623644056883.359863,9631343.541126,-14.855404,34.612873,0.000181
-2.460000,0.140000,0.040400,0.040000,-8832267337.041559,160161323130.531464,1829410503032.573975,7481861.932724,-8.227874,23.221748,0.000141
-2.420000,0.140000,0.080201,0.040000,-8831242705.510389,-93728210309.608368,587324771766.719727,43462657.973147,-4.555787,8.275646,0.000819
-2.420000,0.180000,0.081221,0.040000,-8831224134.632509,-93900980019.415070,587399908332.998047,-10392450.881471,-4.558491,8.277613,-0.000196
-2.460000,0.180000,0.042389,0.040000,-8829621024.624895,159032121671.984863,1828224555352.194580,-5013551.752802,-8.236063,23.212490,-0.000094
-2.380000,0.140000,0.120134,0.040000,-8830943566.830490,-5591826957.489949,16369777148.356207,46556904.520256,-0.166272,0.247497,0.000877
-2.340000,0.140000,0.160100,0.040000,-8830653964.356012,4025494.535026,-8400408.562863,-253400.915957,0.000101,-0.000134,-0.000005
-2.340000,0.180000,0.160614,0.040000,-8830634100.364204,1015418.168572,305800.623777,-578869.608679,0.000012,-0.000002,-0.000011
-2.380000,0.180000,0.120817,0.040000,-8830924558.333965,-5640508991.216673,16415784053.345022,-10153921.896173,-0.167174,0.248379,-0.000191
-2.300000,0.140000,0.200080,0.040000,-8830373956.151121,3285657.547549,-6108331.492858,-332584.555038,0.000078,-0.000099,-0.000006
-2.260000,0.140000,0.240067,0.040000,-8830103715.620905,3366685.290337,-6188084.499728,-242902.565845,0.000079,-0.000101,-0.000005
-2.260000,0.180000,0.240410,0.040000,-8830082635.142311,3469627.974857,-6291113.856773,-310687.423418,0.000081,-0.000103,-0.000006
-2.300000,0.180000,0.200491,0.040000,-8830353401.165359,3388480.478786,-6209953.152513,-427677.968055,0.000080,-0.000101,-0.000008
-2.220000,0.140000,0.280057,0.040000,-8829843373.375313,3428774.424890,-6258945.001372,-156397.345944,0.000081,-0.000102,-0.000003
-2.180000,0.140000,0.320050,0.040000,-8829593017.486017,3461323.911601,-6278784.791460,-60664.548282,0.000081,-0.000102,-0.000001
-2.180000,0.180000,0.320307,0.040000,-8829571377.067625,3532388.743394,-6363623.520621,-72349.643716,0.000083,-0.000104,-0.000001
-2.220000,0.180000,0.280351,0.040000,-8829821931.972822,3515957.971222,-6336403.024065,-201556.019401,0.000082,-0.000103,-0.000004
2.180000,0.140000,0.320050,0.040000,-8829582130.641813,3461312.644004,-6278773.516257,60664.726264,0.000081,-0.000102,0.000001
2.220000,0.140000,0.280057,0.040000,-8829832286.469646,3428763.131371,-6258933.705311,156397.387172,0.000081,-0.000102,0.000003
2.220000,0.180000,0.280351,0.040000,-8829810845.138580,3515946.543199,-6336391.618552,201556.092695,0.000082,-0.000103,0.000004
2.180000,0.180000,0.320307,0.040000,-8829560490.294632,3532377.368253,-6363612.122809,72349.911567,0.000083,-0.000104,0.000001
2.260000,0.140000,0.240067,0.040000,-8830092428.635719,3366674.001797,-6188073.213849,242902.488633,0.000079,-0.000101,0.000005
2.300000,0.140000,0.200080,0.040000,-8830362469.068380,3285646.300540,-6108320.239841,332584.344232,0.000078,-0.000099,0.000006
2.300000,0.180000,0.200491,0.040000,-8830341914.153793,3388469.081526,-6209941.740963,427677.697709,0.000080,-0.000101,0.000008
2.260000,0.180000,0.240410,0.040000,-8830071348.228546,3469616.532604,-6291102.417919,310687.327800,0.000081,-0.000103,0.000006
2.340000,0.140000,0.160100,0.040000,-8830642277.157715,4025482.167755,-8400393.989733,253400.809677,0.000101,-0.000134,0.000005
2.380000,0.140000,0.120134,0.040000,-8830931679.498766,-5591819056.092515,16369754000.116470,-46556837.372780,-0.166272,0.247497,-0.000877
2.380000,0.180000,0.120817,0.040000,-8830912671.072126,-5640501004.961118,16415760794.857372,10153907.402477,-0.167174,0.248379,0.000191
2.340000,0.180000,0.160614,0.040000,-8830622413.236547,1015410.048982,305802.872394,578869.115203,0.000012,-0.000002,0.000011
2.420000,0.140000,0.080201,0.040000,-8831230618.027334,-93728077751.417999,587323940870.578979,-43462323.311624,-4.555781,8.275634,-0.000819
2.460000,0.140000,0.040400,0.040000,-8832255048.375175,160161096399.273193,1829407914952.519531,-7481520.278946,-8.227862,23.221716,-0.000141
2.460000,0.180000,0.042389,0.040000,-8829608739.750208,159031897447.600128,1828221968321.863037,5013305.063919,-8.236051,23.212457,0.000094
2.420000,0.180000,0.081221,0.040000,-8831212047.219179,-93900846981.809128,587399077150.512817,10392296.107001,-4.558484,8.277601,0.000196
2.500000,0.140000,0.005672,0.040000,-4415927542.171671,-1709510496.106371,2623961726786.111816,75495121.425919,-14.853634,34.615534,0.001422
2.500000,0.180000,0.014030,0.040000,-4415919810.750096,-1979908722.885475,2623640341567.969238,-9631737.849121,-14.855383,34.612824,-0.000181
-2.500000,0.220000,0.003881,0.040000,-4415916235.496996,-1645942665.997669,2624029017003.427734,50255028.093403,-14.853176,34.616063,0.000947
-2.500000,0.260000,0.006269,0.040000,-4415904280.550261,-1733207564.698011,2623919440387.576172,-81976067.013762,-14.853707,34.615111,-0.001544
-2.460000,0.220000,0.040188,0.040000,-8832845813.278904,160425621648.546600,1829680293146.071045,-11451630.370121,-8.225913,23.223813,-0.000216
-2.420000,0.220000,0.080094,0.040000,-8831202088.693806,-93687038773.853668,587304319479.766968,-36659002.474884,-4.555129,8.275143,-0.000691
-2.420000,0.260000,0.080245,0.040000,-8831174168.075422,-93742522186.107559,587327206418.375977,44327539.256519,-4.555990,8.275759,0.000835
-2.460000,0.260000,0.040488,0.040000,-8831970612.856983,160060674649.640991,1829293216584.014404,5719285.871192,-8.228538,23.220770,0.000108
-2.380000,0.220000,0.120063,0.040000,-8830900516.160961,-5580132600.803961,16358661209.426577,-37711031.241208,-0.166055,0.247285,-0.000710
-2.340000,0.220000,0.160047,0.040000,-8830608983.411678,4989266.107304,-10699981.209133,-800906.567121,0.000126,-0.000169,-0.000015
-2.340000,0.260000,0.160123,0.040000,-8830578403.874290,4144052.592398,-8015123.781970,-617479.488320,0.000100,-0.000129,-0.000012
-2.380000,0.260000,0.120164,0.040000,-8830871233.595146,-5595719796.164824,16373363029.705643,48066805.588770,-0.166344,0.247567,0.000906
-2.300000,0.220000,0.200038,0.040000,-8830327418.798708,3520810.634482,-6343905.620605,-522687.436533,0.000082,-0.000104,-0.000010
-2.260000,0.220000,0.240031,0.040000,-8830055997.586966,3600316.918835,-6421916.286971,-377146.435641,0.000084,-0.000105,-0.000007
-2.260000,0.260000,0.240082,0.040000,-8830023593.641529,3760146.260058,-6581888.009696,-441852.496656,0.000087,-0.000108,-0.000008
-2.300000,0.260000,0.200098,0.040000,-8830295798.417942,3681501.770009,-6504280.283436,-617449.296677,0.000085,-0.000107,-0.000012
-2.220000,0.220000,0.280027,0.040000,-8829794848.150908,3662245.610512,-6493902.160734,-238778.742289,0.000085,-0.000106,-0.000004
-2.180000,0.220000,0.320024,0.040000,-8829544052.377415,3692992.897310,-6507517.010839,-83521.302086,0.000085,-0.000107,-0.000002
-2.180000,0.260000,0.320061,0.040000,-8829510843.281235,3803041.263509,-6638887.823921,-83517.955108,0.000088,-0.000109,-0.000002
-2.220000,0.260000,0.280070,0.040000,-8829761916.143770,3797417.205929,-6613986.067289,-276681.570918,0.000087,-0.000109,-0.000005
2.180000,0.220000,0.320024,0.040000,-8829533165.693878,3692981.289733,-6507505.402126,83521.610339,0.000085,-0.000107,0.000002
2.220000,0.220000,0.280027,0.040000,-8829783761.406414,3662233.969641,-6493890.523046,238778.828666,0.000085,-0.000106,0.000004
2.220000,0.260000,0.280070,0.040000,-8829750829.507631,3797405.370294,-6613974.251729,276681.702562,0.000087,-0.000109,0.000005
2.180000,0.260000,0.320061,0.040000,-8829499956.705677,3803029.497032,-6638876.024035,83518.374885,0.000088,-0.000109,0.000002
2.260000,0.220000,0.240031,0.040000,-8830044710.762934,3600305.283493,-6421904.653783,377146.324999,0.000084,-0.000105,0.000007
2.300000,0.220000,0.200038,0.040000,-8830315931.876537,3520799.034160,-6343894.014986,522687.109769,0.000082,-0.000104,0.000010
2.300000,0.260000,0.200098,0.040000,-8830284311.603756,3681489.936523,-6504268.438409,617448.915485,0.000085,-0.000107,0.000012
2.260000,0.260000,0.240082,0.040000,-8830012306.925863,3760134.395513,-6581876.135860,441852.375407,0.000087,-0.000108,0.000008
2.340000,0.220000,0.160047,0.040000,-8830597296.372791,4989252.345440,-10699963.364867,800905.834921,0.000126,-0.000169,0.000015
2.380000,0.220000,0.120063,0.040000,-8830888628.986958,-5580124725.843318,16358638104.949018,37710977.620259,-0.166055,0.247284,0.000710
2.380000,0.260000,0.120164,0.040000,-8830859346.527212,-5595711887.010605,16373339869.988247,-48066735.932866,-0.166343,0.247566,-0.000906
2.340000,0.260000,0.160123,0.040000,-8830566716.942642,4144040.024177,-8015109.720212,617479.094022,0.000100,-0.000129,0.000012
2.420000,0.220000,0.080094,0.040000,-8831190001.366016,-93686906439.829941,587303488823.915405,36658778.270318,-4.555122,8.275131,0.000691
2.460000,0.220000,0.040188,0.040000,-8832833523.891983,160425393927.583252,1829677705363.956055,11451394.211128,-8.225901,23.223780,0.000216
2.460000,0.260000,0.040488,0.040000,-8831958324.775467,160060448286.728027,1829290628729.141846,-5718902.674896,-8.228527,23.220738,-0.000108
2.420000,0.260000,0.080245,0.040000,-8831162080.852459,-93742389568.267700,587326375539.792480,-44327161.571073,-4.555983,8.275747,-0.000835
2.500000,0.220000,0.003881,0.040000,-4415909984.463535,-1645945009.820089,2624025308143.037109,-50255338.817270,-14.853155,34.616014,-0.000947
2.500000,0.260000,0.006269,0.040000,-4415898039.874168,-1733204976.727217,2623915728580.652832,81976577.841729,-14.853686,34.615062,0.001544
-2.500000,0.300000,0.013433,0.040000,-4415890063.720104,-1973370499.613136,2623629459356.275879,15388694.570936,-14.855236,34.612644,0.000290
-2.500000,0.340000,0.003284,0.040000,-4415873451.813974,-1628357195.984125,2624023130315.437500,39359418.538331,-14.852911,34.615886,0.000742
-2.460000,0.300000,0.042195,0.040000,-8829603761.415380,159057321821.257690,1828236488025.937500,-8565813.893844,-8.235798,23.212505,-0.000161
-2.420000,0.300000,0.081120,0.040000,-8831140702.244188,-93895757637.369339,587392881498.238892,-17258801.250510,-4.558382,8.277491,-0.000325
-2.420000,0.340000,0.080067,0.040000,-8831102980.465506,-93674556499.861496,587293196366.810547,-33350413.245890,-4.554901,8.274926,-0.000628
-2.460000,0.340000,0.040135,0.040000,-8832920561.441494,160496485956.960693,1829737311411.077637,-12865232.088281,-8.225301,23.224164,-0.000242
-2.380000,0.300000,0.120749,0.040000,-8830836458.141216,-5638860472.021673,16414108968.681437,-16782231.115386,-0.167143,0.248348,-0.000316
-2.340000,0.300000,0.160563,0.040000,-8830542105.064781,1569908.533849,-380654.530664,-976592.864675,0.000023,-0.000014,-0.000018
-2.340000,0.340000,0.160034,0.040000,-8830499780.254499,5764220.063988,-11838188.595139,-1164994.500793,0.000143,-0.000189,-0.000022
-2.380000,0.340000,0.120045,0.040000,-8830795888.148357,-5576401526.045549,16354994035.948092,-33554175.072032,-0.165985,0.247215,-0.000632
-2.300000,0.300000,0.200451,0.040000,-8830258282.237957,3873046.240722,-6694817.291553,-712018.932938,0.000089,-0.000110,-0.000013
-2.260000,0.300000,0.240376,0.040000,-8829985167.318256,3950846.370790,-6772763.732576,-504290.216208,0.000090,-0.000112,-0.000010
-2.260000,0.340000,0.240022,0.040000,-8829940413.182583,4174516.859177,-6996648.890365,-563830.989364,0.000095,-0.000116,-0.000011
-2.300000,0.340000,0.200027,0.040000,-8830214562.416655,4099521.270463,-6923025.413730,-806011.751013,0.000093,-0.000114,-0.000015
-2.220000,0.300000,0.280322,0.040000,-8829722884.524452,4010417.941779,-6843195.070486,-308696.858606,0.000092,-0.000113,-0.000006
-2.180000,0.300000,0.320282,0.040000,-8829471505.491655,4036342.490867,-6847952.408997,-88026.337800,0.000092,-0.000113,-0.000002
-2.180000,0.340000,0.320017,0.040000,-8829425748.213051,4189767.303102,-7031088.829537,-69801.479384,0.000095,-0.000116,-0.000001
-2.220000,0.340000,0.280019,0.040000,-8829677453.618536,4199197.048056,-7010884.561409,-335063.433564,0.000095,-0.000116,-0.000006
2.180000,0.300000,0.320282,0.040000,-8829460619.042946,4036330.379732,-6847940.307855,88026.807960,0.000092,-0.000113,0.000002
2.220000,0.300000,0.280322,0.040000,-8829711798.015638,4010405.793121,-6843182.917505,308697.011811,0.000092,-0.000113,0.000006
2.220000,0.340000,0.280019,0.040000,-8829666367.256460,4199184.620055,-7010872.161380,335063.652066,0.000095,-0.000116,0.000006
2.180000,0.340000,0.320017,0.040000,-8829414861.910501,4189754.964806,-7031076.462277,69802.091119,0.000095,-0.000116,0.000001
2.260000,0.300000,0.240376,0.040000,-8829973880.729933,3950834.221332,-6772751.578177,504290.089236,0.000090,-0.000112,0.000010
2.300000,0.300000,0.200451,0.040000,-8830246795.550686,3873034.118532,-6694805.166866,712018.499367,0.000089,-0.000110,0.000013
2.300000,0.340000,0.200027,0.040000,-8830203075.875706,4099508.806252,-6923012.952243,806011.268171,0.000093,-0.000114,0.000015
2.260000,0.340000,0.240022,0.040000,-8829929126.741055,4174504.376140,-6996636.405249,563830.863721,0.000095,-0.000116,0.000011
2.340000,0.300000,0.160563,0.040000,-8830530418.259176,1569899.594795,-380651.264323,976592.041317,0.000023,-0.000014,0.000018
2.380000,0.300000,0.120749,0.040000,-8830824571.197989,-5638852488.550408,16414085713.845547,16782207.153856,-0.167143,0.248347,0.000316
2.380000,0.340000,0.120045,0.040000,-8830784001.348928,-5576393661.096587,16354970950.091873,33554127.669343,-0.165985,0.247215,0.000632
2.340000,0.340000,0.160034,0.040000,-8830488093.594198,5764205.155179,-11838169.090544,1164993.491295,0.000143,-0.000189,0.000022
2.420000,0.300000,0.081120,0.040000,-8831128615.144852,-93895624615.296463,587392050413.500000,17258537.364641,-4.558376,8.277479,0.000325
2.460000,0.300000,0.042195,0.040000,-8829591476.762875,159057097611.456207,1828233901249.591309,8565390.983438,-8.235786,23.212472,0.000161
2.460000,0.340000,0.040135,0.040000,-8832908272.179771,160496257926.310883,1829734724093.397461,12865025.811756,-8.225289,23.224131,0.000242
2.420000,0.340000,0.080067,0.040000,-8831090893.506828,-93674424261.655838,587292365898.915039,33350222.076888,-4.554895,8.274914,0.000628
2.500000,0.300000,0.013433,0.040000,-4415883834.437544,-1973362617.635951,2623625744341.956543,-15389372.296379,-14.855214,34.612595,-0.000290
2.500000,0.340000,0.003284,0.040000,-4415867197.178782,-1628360962.594226,2624019422905.353027,-39359696.073905,-14.852890,34.615837,-0.000742
-2.500000,0.380000,0.006866,0.040000,-4415854288.283559,-1757512827.924862,2623860034689.315918,-87851560.709178,-14.853692,34.614465,-0.001655
-2.500000,0.420000,0.012836,0.040000,-4415832391.302805,-1963635956.845507,2623605143312.100586,20089370.782089,-14.854970,34.612268,0.000378
-2.460000,0.380000,0.040585,0.040000,-8831621958.049059,159956253654.080780,1829163720916.595459,3453516.028780,-8.229183,23.219653,0.000065
-2.420000,0.380000,0.080294,0.040000,-8831058386.098839,-93756629116.758987,587326854213.266724,44327761.617214,-4.556174,8.275834,0.000835
-2.420000,0.420000,0.081023,0.040000,-8831007369.132647,-93887862609.010452,587381818559.816650,-24048163.890649,-4.558215,8.277300,-0.000453
-2.460000,0.420000,0.042009,0.040000,-8829568821.593985,159094527664.447784,1828252244513.829346,-12471752.833053,-8.235396,23.212503,-0.000235
-2.380000,0.380000,0.120196,0.040000,-8830749168.093664,-5599448005.298346,16376726278.582401,48769232.683520,-0.166412,0.247632,0.000919
-2.340000,0.380000,0.160147,0.040000,-8830451069.044119,4537116.305564,-7888043.441069,-999627.686365,0.000104,-0.000130,-0.000019
-2.340000,0.420000,0.160514,0.040000,-8830395553.003651,2463148.981323,-1469323.732509,-1390411.606721,0.000041,-0.000033,-0.000026
-2.380000,0.420000,0.120685,0.040000,-8830695885.735216,-5636342083.819736,16411540380.761795,-23202994.671468,-0.167095,0.248300,-0.000437
-2.300000,0.380000,0.200118,0.040000,-8830164277.521330,4360879.130720,-7183939.712781,-899065.604141,0.000098,-0.000119,-0.000017
-2.260000,0.380000,0.240098,0.040000,-8829888972.989328,4433666.564368,-7256057.502736,-619703.127576,0.000099,-0.000121,-0.000012
-2.260000,0.420000,0.240343,0.040000,-8829830431.661577,4731265.833558,-7553968.034601,-670955.202807,0.000105,-0.000126,-0.000013
-2.300000,0.420000,0.200411,0.040000,-8830107008.292427,4661264.105391,-7483552.264310,-990938.992871,0.000104,-0.000125,-0.000019
-2.220000,0.380000,0.280084,0.040000,-8829625272.376005,4487784.415793,-7321214.286938,-358938.688961,0.000101,-0.000122,-0.000007
-2.180000,0.380000,0.320074,0.040000,-8829373231.304836,4504837.909566,-7313499.053478,-64181.648244,0.000101,-0.000122,-0.000001
-2.180000,0.420000,0.320257,0.040000,-8829313561.918516,4707938.462529,-7555902.728980,-19022.283399,0.000105,-0.000126,-0.000000
-2.220000,0.420000,0.280294,0.040000,-8829565934.645578,4738273.291246,-7543686.524411,-367849.433006,0.000105,-0.000126,-0.000007
2.180000,0.380000,0.320074,0.040000,-8829362345.168264,4504825.119112,-7313486.273290,64182.329623,0.000101,-0.000122,0.000001
2.220000,0.380000,0.280084,0.040000,-8829614186.180588,4487771.562034,-7321201.437335,358938.946098,0.000101,-0.000122,0.000007
2.220000,0.420000,0.280294,0.040000,-8829554848.637371,4738260.078881,-7543673.345617,367849.790746,0.000105,-0.000126,0.000007
2.180000,0.420000,0.320257,0.040000,-8829302675.968290,4707925.380053,-7555889.594485,19023.154368,0.000105,-0.000126,0.000000
2.260000,0.380000,0.240098,0.040000,-8829877686.714575,4433653.698020,-7256044.637083,619703.011200,0.000099,-0.000121,0.000012
2.300000,0.380000,0.200118,0.040000,-8830152791.146662,4360866.280591,-7183926.862992,899065.075223,0.000098,-0.000119,0.000017
2.300000,0.420000,0.200411,0.040000,-8830095522.104593,4661250.807657,-7483538.974936,990938.421801,0.000104,-0.000125,0.000019
2.260000,0.420000,0.240343,0.040000,-8829819145.574200,4731252.533169,-7553954.729287,670955.105662,0.000105,-0.000126,0.000013
2.340000,0.380000,0.160147,0.040000,-8830439382.549002,4537103.124840,-7888029.498805,999626.993758,0.000104,-0.000130,0.000019
2.380000,0.380000,0.120196,0.040000,-8830737281.457619,-5599440089.032840,16376703108.873322,-48769161.619489,-0.166412,0.247632,-0.000919
2.380000,0.420000,0.120685,0.040000,-8830683999.282841,-5636334104.600881,16411517131.522406,23202961.525939,-0.167095,0.248299,0.000437
2.340000,0.420000,0.160514,0.040000,-8830383866.694136,2463138.714900,-1469318.859114,1390410.446331,0.000041,-0.000033,0.000026
2.420000,0.380000,0.080294,0.040000,-8831046299.301594,-93756496445.314789,587326023404.462769,-44327335.654436,-4.556168,8.275822,-0.000835
2.460000,0.380000,0.040585,0.040000,-8831609670.725662,159956027690.106262,1829161133454.922119,-3453087.666749,-8.229172,23.219620,-0.000065
2.460000,0.420000,0.042009,0.040000,-8829556537.288740,159094303482.840149,1828249658146.393311,12471132.928567,-8.235385,23.212470,0.000235
2.420000,0.420000,0.081023,0.040000,-8830995282.517000,-93887729610.802979,587380987630.595581,24047780.500753,-4.558209,8.277289,0.000453
2.500000,0.380000,0.006866,0.040000,-4415848049.617320,-1757508986.461461,2623856322734.610352,87852140.120397,-14.853671,34.614416,0.001655
2.500000,0.420000,0.012836,0.040000,-4415826161.967434,-1963627802.145332,2623601428770.133301,-20090368.121016,-14.854949,34.612219,-0.000379
-2.500000,0.460000,0.002687,0.040000,-4415807551.472754,-1613006797.884554,2624000284520.865723,26895271.920066,-14.852579,34.615498,0.000507
-2.500000,0.500000,0.007463,0.040000,-4415779529.097783,-1781990751.633718,2623785048831.470215,-93438371.712868,-14.853591,34.613614,-0.001760
-2.460000,0.460000,0.040090,0.040000,-8832921745.958899,160556621062.119812,1829773754436.939941,-14646668.282230,-8.224714,23.224305,-0.000276
-2.420000,0.460000,0.080045,0.040000,-8830950826.409283,-93662826672.521378,587279356466.475952,-29744641.205637,-4.554668,8.274677,-0.000560
-2.420000,0.500000,0.080347,0.040000,-8830885920.703009,-93770116662.132568,587322958839.517456,43366209.597475,-4.556330,8.275859,0.000817
-2.460000,0.500000,0.040690,0.040000,-8831216111.994591,159849599644.135986,1829021868775.094482,474147.542565,-8.229788,23.218385,0.000009
-2.380000,0.460000,0.120030,0.040000,-8830635566.305172,-5572755016.390281,16351330825.309689,-28934872.200057,-0.165916,0.247146,-0.000545
-2.340000,0.460000,0.160023,0.040000,-8830332750.481039,6840157.371412,-13226320.948348,-1545546.017047,0.000165,-0.000213,-0.000029
-2.340000,0.500000,0.160174,0.040000,-8830262110.457642,5284265.834363,-8107065.526749,-1403697.447446,0.000116,-0.000137,-0.000026
-2.380000,0.500000,0.120232,0.040000,-8830567665.386097,-5602860138.798882,16379708716.971149,48627740.053185,-0.166474,0.247691,0.000916
-2.300000,0.460000,0.200018,0.040000,-8830042272.612528,5005986.620649,-7830122.477738,-1080861.894949,0.000110,-0.000132,-0.000020
-2.260000,0.460000,0.240015,0.040000,-8829764312.531191,5070806.766574,-7893882.701953,-716410.583081,0.000111,-0.000133,-0.000013
-2.260000,0.500000,0.240116,0.040000,-8829690071.743477,5456375.457899,-8279898.048303,-754611.113021,0.000119,-0.000140,-0.000014
-2.300000,0.500000,0.200139,0.040000,-8829969519.569122,5396665.242264,-8220275.441050,-1168030.590372,0.000118,-0.000139,-0.000022
-2.220000,0.460000,0.280013,0.040000,-8829498974.784029,5114892.688600,-7948308.032959,-379372.404259,0.000112,-0.000134,-0.000007
-2.180000,0.460000,0.320011,0.040000,-8829246290.556049,5117372.026952,-7923014.623106,1497.579048,0.000112,-0.000133,0.000000
-2.180000,0.500000,0.320087,0.040000,-8829170906.487654,5378779.366086,-8234958.083027,85636.987514,0.000117,-0.000139,0.000002
-2.220000,0.500000,0.280099,0.040000,-8829423862.519672,5438275.400659,-8235465.060408,-362365.993818,0.000118,-0.000139,-0.000007
2.180000,0.460000,0.320011,0.040000,-8829235404.813162,5117358.341725,-7923000.965233,-1496.613889,0.000112,-0.000133,-0.000000
2.220000,0.460000,0.280013,0.040000,-8829487888.984222,5114878.926430,-7948294.264023,379372.822526,0.000112,-0.000134,0.000007
2.220000,0.500000,0.280099,0.040000,-8829412776.950224,5438261.157852,-8235450.878155,362366.556386,0.000118,-0.000139,0.000007
2.180000,0.500000,0.320087,0.040000,-8829160020.973913,5378765.308547,-8234943.963373,-85635.767021,0.000117,-0.000139,-0.000002
2.260000,0.460000,0.240015,0.040000,-8829753026.652483,5070792.969046,-7893868.893510,716410.517120,0.000111,-0.000133,0.000013
2.300000,0.460000,0.200018,0.040000,-8830030786.632845,5005972.819707,-7830108.665876,1080861.289430,0.000110,-0.000132,0.000020
2.300000,0.500000,0.200139,0.040000,-8829958033.819647,5396650.854113,-8220261.055912,1168029.959502,0.000118,-0.000139,0.000022
2.260000,0.500000,0.240116,0.040000,-8829678786.095518,5456361.089248,-8279883.673643,754611.092059,0.000119,-0.000140,0.000014
2.340000,0.460000,0.160023,0.040000,-8830321064.378292,6840140.875708,-13226299.401187,1545544.726674,0.000165,-0.000213,0.000029
2.380000,0.460000,0.120030,0.040000,-8830623680.057394,-5572747162.443668,16351307761.194534,28934831.687856,-0.165916,0.247146,0.000545
2.380000,0.500000,0.120232,0.040000,-8830555779.364677,-5602852216.249864,16379685538.877937,-48627668.710951,-0.166474,0.247690,-0.000916
2.340000,0.500000,0.160174,0.040000,-8830250424.583670,5284251.512089,-8107051.197319,1403696.453407,0.000116,-0.000137,0.000026
2.420000,0.460000,0.080045,0.040000,-8830938739.994194,-93662694546.920120,587278526256.949219,29744481.837717,-4.554662,8.274665,0.000560
2.460000,0.460000,0.040090,0.040000,-8832909457.027018,160556392719.205994,1829771167821.586182,14646489.561808,-8.224702,23.224272,0.000276
2.460000,0.500000,0.040690,0.040000,-8831203825.611166,159849374123.011078,1829019281898.048340,-473671.145295,-8.229777,23.218352,-0.000009
2.420000,0.500000,0.080347,0.040000,-8830873834.511488,-93769983942.551971,587322128161.171997,-43365727.815447,-4.556323,8.275847,-0.000817
2.500000,0.460000,0.002687,0.040000,-4415801292.488731,-1613012184.217423,2623996578983.989258,-26895522.926042,-14.852558,34.615449,-0.000507
2.500000,0.500000,0.007463,0.040000,-4415773292.312321,-1781985548.263714,2623781336976.893066,93439025.578660,-14.853570,34.613565,0.001760
-2.500000,0.540000,0.012239,0.040000,-4415748050.964216,-1950802988.487333,2623567880257.327637,23213433.636717,-14.854590,34.611704,0.000437
-2.500000,0.580000,0.002090,0.040000,-4415712806.532572,-1600059919.900894,2623956678260.716309,12571923.948867,-14.852162,34.614849,0.000237
-2.460000,0.540000,0.041830,0.040000,-8829504262.745560,159143028630.965363,1828269030867.979492,-16936728.912836,-8.234852,23.212450,-0.000319
-2.420000,0.540000,0.080931,0.040000,-8830813162.029381,-93877194387.156448,587366007246.787964,-30757741.314424,-4.557985,8.277031,-0.000579
-2.420000,0.580000,0.080027,0.040000,-8830732977.466297,-93651772797.047043,587261994606.635376,-26012039.448176,-4.554425,8.274386,-0.000490
-2.460000,0.580000,0.040055,0.040000,-8832834956.901407,160604933973.472626,1829786109565.718750,-17059690.459708,-8.224146,23.224195,-0.000321
-2.380000,0.540000,0.120623,0.040000,-8830491563.141829,-5632883589.927439,16407994347.810032,-29340545.507033,-0.167030,0.248233,-0.000553
-2.340000,0.540000,0.160467,0.040000,-8830183005.302309,3782912.976626,-3045030.999136,-1822182.404804,0.000067,-0.000062,-0.000034
-2.340000,0.580000,0.160014,0.040000,-8830094722.240318,8320325.440548,-14962838.277614,-1942922.413675,0.000194,-0.000244,-0.000037
-2.380000,0.580000,0.120018,0.040000,-8830406554.908665,-5569121008.550570,16347583090.796757,-23952409.366086,-0.165847,0.247076,-0.000451
-2.300000,0.540000,0.200374,0.040000,-8829888122.475094,5839721.188262,-8662852.399877,-1251596.392980,0.000126,-0.000147,-0.000024
-2.260000,0.540000,0.240312,0.040000,-8829607091.708344,5892741.892361,-8716798.767188,-783746.389935,0.000127,-0.000148,-0.000015
-2.260000,0.580000,0.240009,0.040000,-8829514673.456974,6385464.398322,-9210161.067223,-801564.458336,0.000136,-0.000158,-0.000015
-2.300000,0.580000,0.200011,0.040000,-8829797370.682697,6342451.675678,-9167572.076963,-1330016.951265,0.000135,-0.000157,-0.000025
-2.220000,0.540000,0.280267,0.040000,-8829339996.974409,5919853.142979,-8752241.506290,-355342.360317,0.000128,-0.000149,-0.000007
-2.180000,0.540000,0.320234,0.040000,-8829086832.457537,5899469.435658,-8702020.584864,127820.090910,0.000127,-0.000148,0.000002
-2.180000,0.580000,0.320007,0.040000,-8828993418.594357,6230737.812017,-9097244.383542,268007.361599,0.000134,-0.000155,0.000005
-2.220000,0.580000,0.280008,0.040000,-8829246699.731253,6331248.385773,-9117459.977116,-300062.259904,0.000135,-0.000156,-0.000006
2.180000,0.540000,0.320234,0.040000,-8829075947.195522,5899454.624946,-8702005.789066,-127818.738128,0.000127,-0.000148,-0.000002
2.220000,0.540000,0.280267,0.040000,-8829328911.658213,5919838.206448,-8752226.567296,355343.018762,0.000128,-0.000149,0.000007
2.220000,0.580000,0.280008,0.040000,-8829235614.692129,6331232.845122,-9117444.508094,300063.127413,0.000135,-0.000156,0.000006
2.180000,0.580000,0.320007,0.040000,-8828982533.607586,6230722.509286,-9097229.024556,-268005.664326,0.000134,-0.000155,-0.000005
2.260000,0.540000,0.240312,0.040000,-8829595806.314138,5892726.883425,-8716783.752292,783746.431966,0.000127,-0.000148,0.000015
2.300000,0.540000,0.200374,0.040000,-8829876636.978886,5839706.150739,-8662837.355502,1251595.746040,0.000126,-0.000147,0.000024
2.300000,0.580000,0.200011,0.040000,-8829785885.463821,6342435.897266,-9167556.287539,1330016.300301,0.000135,-0.000157,0.000025
2.260000,0.580000,0.240009,0.040000,-8829503388.340557,6385448.668818,-9210145.326731,801564.583853,0.000136,-0.000158,0.000015
2.340000,0.540000,0.160467,0.040000,-8830171319.680040,3782900.749963,-3045023.806195,1822180.918243,0.000067,-0.000062,0.000034
2.380000,0.540000,0.120623,0.040000,-8830479677.369514,-5632875616.561137,16407971106.273117,29340503.557786,-0.167029,0.248233,0.000553
2.380000,0.580000,0.120018,0.040000,-8830394669.409214,-5569113167.189123,16347560053.088865,23952376.289347,-0.165847,0.247076,0.000451
2.340000,0.580000,0.160014,0.040000,-8830083036.893738,8320306.751304,-14962814.174337,1942920.860638,0.000194,-0.000244,0.000037
2.420000,0.540000,0.080931,0.040000,-8830801076.083817,-93877061422.134338,587365176545.374634,30757219.813652,-4.557979,8.277020,0.000579
2.460000,0.540000,0.041830,0.040000,-8829491978.930843,159142804500.867737,1828266445109.536133,16935874.366971,-8.234840,23.212417,0.000319
2.460000,0.580000,0.040055,0.040000,-8832822668.525827,160604705300.322784,1829783523966.369629,17059536.920706,-8.224135,23.224162,0.000321
2.420000,0.580000,0.080027,0.040000,-8830720891.788483,-93651640809.115799,587261164749.508667,26011910.806325,-4.554418,8.274374,0.000490
2.500000,0.540000,0.012239,0.040000,-4415741821.566487,-1950794411.815256,2623564166391.104492,-23214815.957223,-14.854569,34.611655,-0.000437
2.500000,0.580000,0.002090,0.040000,-4415706542.057284,-1600067247.971520,2623952975187.700195,-12572156.352380,-14.852141,34.614800,-0.000237
-2.500000,0.620000,0.008060,0.040000,-4415673443.438478,-1806166774.670482,2623690903228.391602,-99184934.247228,-14.853378,34.612509,-0.001869
-2.500000,0.660000,0.011642,0.040000,-4415629562.171532,-1934970119.255111,2623512828842.975586,24115913.690262,-14.854070,34.610889,0.000454
-2.460000,0.620000,0.040804,0.040000,-8830743028.064636,159742239682.640350,1828866539475.057373,-3493047.768846,-8.230326,23.216943,-0.000066
-2.420000,0.620000,0.080405,0.040000,-8830642279.389997,-93782467702.031265,587314406378.830688,41333955.128507,-4.556444,8.275816,0.000779
-2.420000,0.660000,0.080843,0.040000,-8830541541.920454,-93863569275.985703,587344352989.235107,-37417594.780393,-4.557683,8.276669,-0.000705
-2.460000,0.660000,0.041660,0.040000,-8829392367.666878,159201887092.802063,1828282751803.548340,-22246036.348823,-8.234153,23.212298,-0.000419
-2.380000,0.620000,0.120270,0.040000,-8830311840.228024,-5605749665.827665,16382091490.259697,47617514.324512,-0.166525,0.247738,0.000897
-2.340000,0.620000,0.160203,0.040000,-8829996453.315388,6515108.503343,-8810326.873764,-1826960.072972,0.000136,-0.000153,-0.000034
-2.340000,0.660000,0.160423,0.040000,-8829887283.572691,5674336.432776,-5249113.830287,-2265091.075852,0.000105,-0.000101,-0.000043
-2.380000,0.660000,0.120563,0.040000,-8830206512.346947,-5628360260.296302,16403325756.029871,-35124974.421011,-0.166944,0.248146,-0.000662
-2.300000,0.620000,0.200162,0.040000,-8829696459.991028,6909129.462880,-9733718.384848,-1401549.981995,0.000146,-0.000167,-0.000026
-2.260000,0.620000,0.240135,0.040000,-8829412027.735125,6941014.711890,-9766476.847610,-805258.899407,0.000147,-0.000168,-0.000015
-2.260000,0.660000,0.240282,0.040000,-8829298264.631340,7566930.464497,-10393310.551443,-791324.786587,0.000159,-0.000180,-0.000015
-2.300000,0.660000,0.200339,0.040000,-8829584481.405655,7549577.434198,-10374070.770734,-1464098.858313,0.000158,-0.000179,-0.000028
-2.220000,0.620000,0.280116,0.040000,-8829143206.814060,6940461.096169,-9770236.436871,-265236.010773,0.000147,-0.000168,-0.000005
-2.180000,0.620000,0.320101,0.040000,-8828889935.432859,6884912.533922,-9684348.125037,341636.249502,0.000146,-0.000167,0.000006
-2.180000,0.660000,0.320212,0.040000,-8828775565.939928,7301316.159481,-10180996.373484,562505.426295,0.000154,-0.000176,0.000011
-2.220000,0.660000,0.280242,0.040000,-8829028659.424330,7460110.437197,-10231409.665866,-153344.277016,0.000156,-0.000177,-0.000003
2.180000,0.620000,0.320101,0.040000,-8828879050.745972,6884896.294941,-9684331.915299,-341634.369202,0.000146,-0.000167,-0.000006
2.220000,0.620000,0.280116,0.040000,-8829132122.076975,6940444.669849,-9770220.022738,265237.019867,0.000147,-0.000168,0.000005
2.220000,0.660000,0.280242,0.040000,-8829017575.015501,7460093.261192,-10231392.580333,153345.593631,0.000156,-0.000177,0.000003
2.180000,0.660000,0.320212,0.040000,-8828764681.578697,7301299.324573,-10180979.441459,-562503.065067,0.000154,-0.000176,-0.000011
2.260000,0.620000,0.240135,0.040000,-8829400742.921663,6940998.163832,-9766460.296605,805259.133514,0.000147,-0.000168,0.000015
2.300000,0.620000,0.200162,0.040000,-8829684975.074736,6909112.844389,-9733701.764688,1401549.341522,0.000146,-0.000167,0.000026
2.300000,0.660000,0.200339,0.040000,-8829572996.818581,7549559.881005,-10374053.202015,1464098.247640,0.000158,-0.000179,0.000028
2.260000,0.660000,0.240282,0.040000,-8829286980.147335,7566913.003912,-10393293.084322,791325.162041,0.000159,-0.000180,0.000015
2.340000,0.620000,0.160203,0.040000,-8829984768.269703,6515092.334894,-8810311.441125,1826958.793283,0.000136,-0.000153,0.000034
2.380000,0.620000,0.120270,0.040000,-8830299955.026396,-5605741738.088146,16382068305.677780,-47617443.836359,-0.166525,0.247738,-0.000897
2.380000,0.660000,0.120563,0.040000,-8830194627.469475,-5628352294.567274,16403302524.644295,35124924.117249,-0.166943,0.248146,0.000662
2.340000,0.660000,0.160423,0.040000,-8829875598.854425,5674321.406455,-5249103.404680,2265089.291131,0.000105,-0.000101,0.000043
2.420000,0.620000,0.080405,0.040000,-8830630194.006229,-93782334938.796463,587313575908.611328,-41333406.563425,-4.556438,8.275804,-0.000779
2.460000,0.620000,0.040804,0.040000,-8830730742.818871,159742014675.287384,1828863953424.333984,3493570.371740,-8.230315,23.216910,0.000066
2.460000,0.660000,0.041660,0.040000,-8829380084.512857,159201663056.033936,1828280166947.281250,22244874.934400,-8.234141,23.212265,0.000419
2.420000,0.660000,0.080843,0.040000,-8830529456.856392,-93863436355.672958,587343522618.133301,37416900.253843,-4.557677,8.276657,0.000705
2.500000,0.620000,0.008060,0.040000,-4415667208.441922,-1806159997.996614,2623687191776.146973,99185659.288526,-14.853357,34.612460,0.001869
2.500000,0.660000,0.011642,0.040000,-4415623332.710221,-1934960886.149779,2623509115918.569336,-24117806.022253,-14.854049,34.610840,-0.000454
-2.500000,0.700000,0.001493,0.040000,-4415580709.765958,-1589599757.205546,2623886826320.227539,-4049029.987047,-14.851629,34.613869,-0.000076
-2.500000,0.740000,0.008657,0.040000,-4415526372.300784,-1829515288.435444,2623572079476.874023,-105746201.684542,-14.853014,34.611074,-0.001992
-2.460000,0.700000,0.040028,0.040000,-8832640274.604397,160640467765.052307,1829769820117.967529,-20462753.409423,-8.223586,23.223779,-0.000386
-2.420000,0.700000,0.080014,0.040000,-8830430612.126844,-93641163383.156143,587239851941.570923,-22361801.643517,-4.554159,8.274034,-0.000421
-2.420000,0.740000,0.080467,0.040000,-8830306078.612841,-93793017512.229111,587299585186.806030,38096113.353046,-4.556500,8.275680,0.000718
-2.460000,0.740000,0.040926,0.040000,-8830186051.163340,159635660859.883118,1828695237266.264160,-8830056.666769,-8.230764,23.215286,-0.000166
-2.380000,0.700000,0.120009,0.040000,-8830089543.025219,-5565346600.567694,16343574990.078308,-18712402.285237,-0.165775,0.247002,-0.000353
-2.340000,0.700000,0.160007,0.040000,-8829766177.127274,10376032.607203,-17215270.431167,-2345973.123341,0.000234,-0.000286,-0.000044
-2.340000,0.740000,0.160234,0.040000,-8829631960.707451,8438697.360081,-10215561.221452,-2251337.672120,0.000169,-0.000182,-0.000042
-2.380000,0.740000,0.120312,0.040000,-8829959765.030100,-5607823754.947627,16383561709.848223,45727969.921754,-0.166561,0.247769,0.000862
-2.300000,0.700000,0.200006,0.040000,-8829460407.956596,8274448.382499,-11101141.158513,-1514529.671469,0.000172,-0.000193,-0.000029
-2.260000,0.700000,0.240005,0.040000,-8829172381.498703,8271993.942939,-11099477.105054,-755374.088520,0.000172,-0.000193,-0.000014
-2.260000,0.740000,0.240156,0.040000,-8829033248.882214,9066446.146223,-11895256.187584,-691898.311616,0.000187,-0.000208,-0.000013
-2.300000,0.740000,0.200187,0.040000,-8829323079.217787,9092400.238170,-11918685.925383,-1549096.051681,0.000187,-0.000209,-0.000029
-2.220000,0.700000,0.280004,0.040000,-8828902093.253319,8227121.315808,-11051756.107263,-76697.527446,0.000171,-0.000192,-0.000001
-2.180000,0.700000,0.320003,0.040000,-8828649396.426878,8117853.623821,-10914286.864690,681962.145212,0.000169,-0.000190,0.000013
-2.180000,0.740000,0.320117,0.040000,-8828510406.218685,8639427.039390,-11536120.907083,1019620.553372,0.000179,-0.000201,0.000019
-2.220000,0.740000,0.280134,0.040000,-8828762426.159456,8882017.968340,-11632717.894510,119411.384627,0.000183,-0.000204,0.000002
2.180000,0.700000,0.320003,0.040000,-8828638512.418369,8117835.608780,-10914268.880572,-681959.525933,0.000169,-0.000190,-0.000013
2.220000,0.700000,0.280004,0.040000,-8828891009.200338,8227103.026984,-11051737.835627,76699.058640,0.000171,-0.000192,0.000001
2.220000,0.740000,0.280134,0.040000,-8828751342.491510,8881998.735463,-11632698.778833,-119409.409255,0.000183,-0.000204,-0.000002
2.180000,0.740000,0.320117,0.040000,-8828499522.591486,8639408.278764,-11536102.021277,-1019617.273795,0.000179,-0.000201,-0.000019
2.260000,0.700000,0.240005,0.040000,-8829161097.372110,8271975.456267,-11099458.604742,755374.644795,0.000172,-0.000193,0.000014
2.300000,0.700000,0.200006,0.040000,-8829448923.726826,8274429.760943,-11101122.525788,1514529.117189,0.000172,-0.000193,0.000029
2.300000,0.740000,0.200187,0.040000,-8829311595.375143,9092380.416067,-11918666.096987,1549095.585900,0.000187,-0.000209,0.000029
2.260000,0.740000,0.240156,0.040000,-8829021965.142624,9066426.502474,-11895236.527928,691899.096605,0.000187,-0.000208,0.000013
2.340000,0.700000,0.160007,0.040000,-8829754492.764530,10376010.875604,-17215243.014399,2345971.349199,0.000234,-0.000286,0.000044
2.380000,0.700000,0.120009,0.040000,-8830077658.499729,-5565338774.592925,16343551986.545717,18712377.055623,-0.165775,0.247002,0.000353
2.380000,0.740000,0.120312,0.040000,-8829947880.886229,-5607815823.552049,16383538521.142775,-45727901.374186,-0.166561,0.247769,-0.000862
2.340000,0.740000,0.160234,0.040000,-8829620276.730055,8438678.323582,-10215543.666455,2251336.165783,0.000169,-0.000182,0.000042
2.420000,0.700000,0.080014,0.040000,-8830418527.408468,-93641031574.804565,587239022579.421021,22361702.707451,-4.554153,8.274022,0.000421
2.460000,0.700000,0.040028,0.040000,-8832627987.041853,160640238712.309967,1829767236002.080322,20462622.372642,-8.223574,23.223746,0.000386
2.460000,0.740000,0.040926,0.040000,-8830173767.278683,159635436506.893707,1828692652397.934082,8830599.281955,-8.230752,23.215254,0.000166
2.420000,0.740000,0.080467,0.040000,-8830293994.271095,-93792884706.426743,587298755039.331055,-38095483.004261,-4.556493,8.275668,-0.000718
2.500000,0.700000,0.001493,0.040000,-4415574437.850459,-1589609595.232234,2623883126643.467773,4048803.959772,-14.851608,34.613820,0.000076
2.500000,0.740000,0.008657,0.040000,-4415520139.037189,-1829506490.656585,2623568368873.493652,105746949.791292,-14.852993,34.611025,0.001992
-2.500000,0.780000,0.011045,0.040000,-4415465965.954411,-1916217019.714266,2623432915487.455566,21939987.128184,-14.853371,34.609729,0.000413
-2.500000,0.820000,0.000896,0.040000,-4415398826.287761,-1581591034.319997,2623782822890.262695,-23661906.072461,-14.850935,34.612452,-0.000446
-2.460000,0.780000,0.041497,0.040000,-8829207584.840477,159269950199.266663,1828287578184.347168,-28817073.633562,-8.233283,23.211977,-0.000543
-2.420000,0.780000,0.080759,0.040000,-8830168227.830355,-93846659003.670227,587315208373.308350,-44108364.352774,-4.557296,8.276189,-0.000831
-2.420000,0.820000,0.080005,0.040000,-8830016158.303072,-93630537260.316162,587211011780.129639,-19059622.850612,-4.553856,8.273593,-0.000359
-2.460000,0.820000,0.040010,0.040000,-8832309824.057917,160662415797.377533,1829718768632.409180,-25370397.863404,-8.223008,23.222982,-0.000478
-2.380000,0.780000,0.120507,0.040000,-8829815853.533794,-5622552542.576283,16397285549.459274,-40489690.555752,-0.166833,0.248034,-0.000763
-2.340000,0.780000,0.160381,0.040000,-8829483304.165224,8376072.642010,-8315729.233920,-2692042.430391,0.000157,-0.000157,-0.000051
-2.340000,0.820000,0.160003,0.040000,-8829318697.322760,13291005.131914,-20264751.934564,-2716602.157566,0.000290,-0.000342,-0.000051
-2.380000,0.820000,0.120003,0.040000,-8829656300.990984,-5561148387.255642,16338990747.028421,-13319727.138657,-0.165693,0.246918,-0.000251
-2.300000,0.780000,0.200305,0.040000,-8829171183.092896,10018685.769491,-12845409.278628,-1563063.336195,0.000205,-0.000226,-0.000029
-2.260000,0.780000,0.240254,0.040000,-8828879594.107878,9962244.729562,-12792655.508246,-593961.122933,0.000204,-0.000225,-0.000011
-2.260000,0.820000,0.240002,0.040000,-8828709982.123808,10973367.591835,-13805714.412906,-452798.350551,0.000223,-0.000244,-0.000009
-2.300000,0.820000,0.200002,0.040000,-8829003234.336639,11069801.188770,-13899081.049827,-1549892.911174,0.000225,-0.000246,-0.000029
-2.220000,0.780000,0.280218,0.040000,-8828608443.968449,9846802.367274,-12662222.309426,259392.101144,0.000201,-0.000223,0.000005
-2.180000,0.780000,0.320191,0.040000,-8828357455.941790,9655425.264656,-12449260.580504,1206362.063288,0.000198,-0.000219,0.000023
-2.180000,0.820000,0.320001,0.040000,-8828189274.287970,10308260.354382,-13227155.625117,1714490.259590,0.000211,-0.000233,0.000032
-2.220000,0.820000,0.280001,0.040000,-8828438784.119659,10672880.456732,-13394651.250695,581868.805234,0.000216,-0.000237,0.000011
2.180000,0.780000,0.320191,0.040000,-8828346572.726059,9655405.043202,-12449240.394803,-1206358.419359,0.000198,-0.000219,-0.000023
2.220000,0.780000,0.280218,0.040000,-8828597360.716444,9846781.737940,-12662201.713858,-259389.807788,0.000201,-0.000223,-0.000005
2.220000,0.820000,0.280001,0.040000,-8828427701.316513,10672858.639383,-13394629.595385,-581865.864764,0.000216,-0.000237,-0.000011
2.180000,0.820000,0.320001,0.040000,-8828178391.515747,10308239.196512,-13227134.322962,-1714485.685077,0.000211,-0.000233,-0.000032
2.260000,0.780000,0.240254,0.040000,-8828868310.786747,9962223.785048,-12792634.541613,593962.195016,0.000204,-0.000225,0.000011
2.300000,0.780000,0.200305,0.040000,-8829159699.669136,10018664.595494,-12845388.092121,1563062.997011,0.000205,-0.000226,0.000029
2.300000,0.820000,0.200002,0.040000,-8828991751.365652,11069778.472880,-13899058.331776,1549892.746767,0.000225,-0.000246,0.000029
2.260000,0.820000,0.240002,0.040000,-8828698699.254658,10973345.175601,-13805691.979341,452799.781204,0.000223,-0.000244,0.000009
2.340000,0.780000,0.160381,0.040000,-8829471620.604954,8376053.639174,-8315714.317201,2692040.442510,0.000157,-0.000157,0.000051
2.380000,0.780000,0.120507,0.040000,-8829803969.803080,-5622544586.678575,16397262331.283279,40489632.350789,-0.166833,0.248033,0.000763
2.380000,0.820000,0.120003,0.040000,-8829644417.707253,-5561140582.427441,16338967793.267540,13319710.043094,-0.165693,0.246917,0.000251
2.340000,0.820000,0.160003,0.040000,-8829307014.213642,13290979.116068,-20264720.035175,2716600.286834,0.000290,-0.000342,0.000051
2.420000,0.780000,0.080759,0.040000,-8830156143.895847,-93846526145.777313,587314378512.084229,44107419.040061,-4.557289,8.276177,0.000831
2.460000,0.780000,0.041497,0.040000,-8829195302.555990,159269726338.370209,1828284994758.449707,28815438.239427,-8.233271,23.211944,0.000543
2.460000,0.820000,0.040010,0.040000,-8832297537.607275,160662186234.151123,1829716186860.230957,25370285.522454,-8.222996,23.222949,0.000478
2.420000,0.820000,0.080005,0.040000,-8830004074.807814,-93630405716.743896,587210183180.252563,19059552.523154,-4.553850,8.273582,0.000359
2.500000,0.780000,0.011045,0.040000,-4415459736.440910,-1916206686.468720,2623429203914.932617,-21942678.145017,-14.853350,34.609680,-0.000413
2.500000,0.820000,0.000896,0.040000,-4415392542.883549,-1581604560.282007,2623779128432.565430,23661651.596209,-14.850915,34.612403,0.000446
-2.500000,0.860000,0.009254,0.040000,-4415324195.347803,-1851428153.135702,2623420231493.560059,-114111024.902551,-14.852445,34.609195,-0.002150
-2.500000,0.900000,0.010448,0.040000,-4415241206.066914,-1894553729.095533,2623317785685.532715,15464665.233906,-14.852434,34.608088,0.000291
-2.460000,0.860000,0.041056,0.040000,-8829518919.723213,159531289092.439331,1828503432422.968506,-16100430.940071,-8.231056,23.213347,-0.000303
-2.420000,0.860000,0.080533,0.040000,-8829845985.391384,-93800868554.195648,587276143479.855957,33469840.269043,-4.556471,8.275415,0.000631
-2.420000,0.900000,0.080679,0.040000,-8829657560.610378,-93825878673.516724,587276077927.876099,-50987910.783164,-4.556800,8.275555,-0.000961
-2.460000,0.900000,0.041342,0.040000,-8828913067.276396,159345873723.396301,1828275206993.065674,-37288485.631272,-8.232211,23.211385,-0.000703
-2.380000,0.860000,0.120356,0.040000,-8829479387.912853,-5608643566.309747,16383649183.152626,42971024.103037,-0.166572,0.247775,0.000810
-2.340000,0.860000,0.160267,0.040000,-8829136422.371223,11397987.436140,-12674571.614831,-2622842.090493,0.000222,-0.000232,-0.000049
-2.340000,0.900000,0.160341,0.040000,-8828934520.840912,12287633.413605,-12639457.887495,-3028157.355217,0.000233,-0.000236,-0.000057
-2.380000,0.900000,0.120454,0.040000,-8829283149.622599,-5615069787.722973,16389440310.112251,-45360614.257194,-0.166690,0.247888,-0.000855
-2.300000,0.860000,0.200214,0.040000,-8828817549.161217,12261890.787214,-15091116.398103,-1501442.535323,0.000247,-0.000268,-0.000028
-2.260000,0.860000,0.240178,0.040000,-8828522793.105579,12116174.218536,-14950867.453612,-257294.962964,0.000244,-0.000266,-0.000005
-2.260000,0.900000,0.240227,0.040000,-8828316196.247774,13409834.827197,-16247380.634648,6703.288339,0.000269,-0.000290,0.000000
-2.300000,0.900000,0.200273,0.040000,-8828612215.131128,13619352.208504,-16449814.324764,-1407170.736797,0.000273,-0.000294,-0.000027
-2.220000,0.860000,0.280153,0.040000,-8828251916.846422,11888240.517307,-14687810.315962,818675.738682,0.000240,-0.000261,0.000015
-2.180000,0.860000,0.320134,0.040000,-8828004443.116646,11570691.334567,-14362894.183329,2000991.480461,0.000234,-0.000255,0.000038
-2.180000,0.900000,0.320171,0.040000,-8827801380.775263,12388415.156824,-15336507.050360,2760502.204730,0.000250,-0.000272,0.000052
-2.220000,0.900000,0.280195,0.040000,-8828046123.544279,12933218.609454,-15613683.557016,1332849.036933,0.000259,-0.000279,0.000025
2.180000,0.860000,0.320134,0.040000,-8827993560.821972,11570668.377466,-14362871.262029,-2000986.385076,0.000234,-0.000255,-0.000038
2.220000,0.860000,0.280153,0.040000,-8828240834.527206,11888216.949756,-14687786.810898,-818672.325470,0.000240,-0.000261,-0.000015
2.220000,0.900000,0.280195,0.040000,-8828035041.746597,12933193.548870,-15613658.717700,-1332844.675733,0.000259,-0.000279,-0.000025
2.180000,0.900000,0.320171,0.040000,-8827790498.994444,12388391.032980,-15336482.735784,-2760495.790719,0.000250,-0.000272,-0.000052
2.260000,0.860000,0.240178,0.040000,-8828511510.724327,12116150.156848,-14950843.355244,257296.841568,0.000244,-0.000266,0.000005
2.300000,0.860000,0.200214,0.040000,-8828806066.679396,12261866.335550,-15091091.942778,1501442.607507,0.000247,-0.000268,0.000028
2.300000,0.900000,0.200273,0.040000,-8828600733.177650,13619325.788236,-16449787.885982,1407171.126566,0.000273,-0.000294,0.000027
2.260000,0.900000,0.240227,0.040000,-8828304914.392923,13409808.892791,-16247354.667426,-6700.850854,0.000269,-0.000290,-0.000000
2.340000,0.860000,0.160267,0.040000,-8829124739.749784,11397964.040250,-12674550.398785,2622840.516174,0.000222,-0.000232,0.000049
2.380000,0.860000,0.120356,0.040000,-8829467505.112436,-5608635633.461164,16383625993.558886,-42970958.430371,-0.166572,0.247775,-0.000810
2.380000,0.900000,0.120454,0.040000,-8829271267.344744,-5615061844.696548,16389417110.027750,45360548.228996,-0.166690,0.247888,0.000855
2.340000,0.900000,0.160341,0.040000,-8828922838.746540,12287608.683708,-12639436.658101,3028155.387001,0.000233,-0.000236,0.000057
2.420000,0.860000,0.080533,0.040000,-8829833902.373024,-93800735682.750961,587275313880.243408,-33469131.548583,-4.556464,8.275403,-0.000631
2.460000,0.860000,0.041056,0.040000,-8829506637.463305,159531065849.853241,1828500849453.335938,16100760.774680,-8.231044,23.213314,0.000303
2.460000,0.900000,0.041342,0.040000,-8828900786.125721,159345650255.246521,1828272626569.366211,37285717.879654,-8.232200,23.211352,0.000702
2.420000,0.900000,0.080679,0.040000,-8829645478.106894,-93825745928.582825,587275249101.418213,50986428.744862,-4.556794,8.275544,0.000961
2.500000,0.860000,0.009254,0.040000,-4415317963.799410,-1851415930.135921,2623416522786.766113,114111377.843863,-14.852424,34.609146,0.002150
2.500000,0.900000,0.010448,0.040000,-4415234976.531726,-1894541005.290002,2623314076423.197266,-15469292.735551,-14.852413,34.608039,-0.000291
-2.500000,0.940000,0.000299,0.040000,-4415148863.278208,-1575818076.584190,2623633082507.963867,-47407061.680461,-14.850013,34.610445,-0.000893
-2.500000,0.980000,0.009851,0.040000,-4415046020.468408,-1871145002.587363,2623222659572.530273,-125832378.304978,-14.851588,34.606701,-0.002371
-2.460000,0.940000,0.040001,0.040000,-8831803624.523764,160670146754.272736,1829624379965.741455,-32560676.920487,-8.222372,23.221693,-0.000613
-2.420000,0.940000,0.080001,0.040000,-8829448957.030838,-93619066191.868927,587172542853.050781,-16455837.935322,-4.553488,8.273021,-0.000310
-2.420000,0.980000,0.080604,0.040000,-8829215526.992043,-93804725065.732269,587240557890.780884,27189953.054993,-4.556321,8.274967,0.000512
-2.460000,0.980000,0.041195,0.040000,-8828700707.147434,159430488688.517578,1828283441450.085449,-26180736.600577,-8.231142,23.211015,-0.000493
-2.380000,0.940000,0.120000,0.040000,-8829065333.001261,-5556017530.559791,16333274722.109377,-7859747.380624,-0.165594,0.246813,-0.000148
-2.340000,0.940000,0.160000,0.040000,-8828710753.908657,17544788.565904,-24589714.515370,-2952798.808907,0.000370,-0.000423,-0.000056
-2.340000,0.980000,0.160303,0.040000,-8828462554.486572,15973478.909282,-16777061.290233,-2801653.129284,0.000305,-0.000312,-0.000053
-2.380000,0.980000,0.120404,0.040000,-8828823345.112883,-5607506599.147833,16381602657.808350,39405635.419504,-0.166546,0.247742,0.000742
-2.300000,0.940000,0.200000,0.040000,-8828385055.367289,15169106.609966,-18002775.875284,-1252918.957764,0.000302,-0.000323,-0.000024
-2.260000,0.940000,0.240000,0.040000,-8828088119.059135,14876829.665733,-17717852.978864,357300.830115,0.000296,-0.000318,0.000007
-2.260000,0.980000,0.240202,0.040000,-8827836211.363291,16543528.714833,-19388801.769373,817764.661399,0.000328,-0.000349,0.000015
-2.300000,0.980000,0.200242,0.040000,-8828133585.857304,16940464.862671,-19774844.163738,-1020491.054836,0.000335,-0.000357,-0.000019
-2.220000,0.940000,0.280000,0.040000,-8827819471.954468,14468449.180025,-17241243.298742,1719451.488282,0.000288,-0.000309,0.000032
-2.180000,0.940000,0.320000,0.040000,-8827578323.560246,13955327.871564,-16747899.422135,3196632.250932,0.000279,-0.000300,0.000060
-2.180000,0.980000,0.320152,0.040000,-8827333305.318914,14980435.429789,-17967075.935483,4331145.617995,0.000299,-0.000322,0.000082
-2.220000,0.980000,0.280173,0.040000,-8827569787.777382,15795268.129100,-18415758.902561,2528207.364284,0.000312,-0.000332,0.000048
2.180000,0.940000,0.320000,0.040000,-8827567442.332098,13955301.522368,-16747873.095718,-3196625.085075,0.000279,-0.000300,-0.000060
2.220000,0.940000,0.280000,0.040000,-8827808390.718620,14468421.911797,-17241216.139111,-1719446.417959,0.000288,-0.000309,-0.000032
2.220000,0.980000,0.280173,0.040000,-8827558707.146858,15795238.969283,-18415730.060739,-2528200.889391,0.000312,-0.000332,-0.000048
2.180000,0.980000,0.320152,0.040000,-8827322424.685034,14980407.621451,-17967047.876411,-4331136.565507,0.000299,-0.000322,-0.000082
2.260000,0.940000,0.240000,0.040000,-8828076837.772219,14876801.610340,-17717824.894171,-357297.695775,0.000296,-0.000318,-0.000007
2.300000,0.940000,0.200000,0.040000,-8828373573.984451,15169077.934246,-18002747.185678,1252919.765872,0.000302,-0.000323,0.000024
2.300000,0.980000,0.200242,0.040000,-8828122105.091059,16940433.624398,-19774812.905514,1020492.408824,0.000335,-0.000357,0.000019
2.260000,0.980000,0.240202,0.040000,-8827824930.689243,16543498.264557,-19388771.279223,-817760.656632,0.000328,-0.000349,-0.000015
2.340000,0.940000,0.160000,0.040000,-8828699072.384060,17544756.322111,-24589676.289882,2952797.143956,0.000370,-0.000423,0.000056
2.380000,0.940000,0.120000,0.040000,-8829053451.288555,-5556009765.295868,16333251868.611712,7859738.622464,-0.165593,0.246813,0.000148
2.380000,0.980000,0.120404,0.040000,-8828811464.011724,-5607498668.329472,16381579472.774275,-39405572.920625,-0.166546,0.247741,-0.000742
2.340000,0.980000,0.160303,0.040000,-8828450873.578182,15973448.813579,-16777034.048510,2801651.891834,0.000305,-0.000312,0.000053
2.420000,0.940000,0.080001,0.040000,-8829436875.083115,-93618935197.021286,587171715853.603271,16455794.909226,-4.553481,8.273009,0.000310
2.460000,0.940000,0.040001,0.040000,-8831791339.544144,160669916159.015808,1829621803195.823486,32560581.857949,-8.222361,23.221660,0.000613
2.460000,0.980000,0.041195,0.040000,-8828688426.837820,159430265847.608307,1828280861539.094482,26182511.440767,-8.231130,23.210982,0.000493
2.420000,0.980000,0.080604,0.040000,-8829203445.647713,-93804592283.249252,587239729257.891968,-27188678.908307,-4.556314,8.274956,-0.000512
2.500000,0.940000,0.000299,0.040000,-4415142554.543873,-1575839733.806998,2623629398906.705566,47406846.133145,-14.849992,34.610396,0.000893
2.500000,0.980000,0.009851,0.040000,-4415039790.662405,-1871130555.160567,2623218952194.046875,125835243.528662,-14.851567,34.606652,0.002371
-2.500000,1.020000,0.009851,0.040000,-4414931351.112862,-1869819674.845934,2623151971143.538574,2821532.689576,-14.851171,34.605761,0.000053
-2.500000,1.060000,0.000299,0.040000,-4414803313.057665,-1571758254.979402,2623420105794.389648,-77227974.154375,-14.848756,34.607613,-0.001455
-2.460000,1.020000,0.041195,0.040000,-8828454694.338528,159428177315.162720,1828233554204.642578,-48681687.610323,-8.230891,23.210370,-0.000917
-2.420000,1.020000,0.080604,0.040000,-8828956263.616402,-93800171910.202637,587223087002.488647,-58331754.130710,-4.556162,8.274711,-0.001099
-2.420000,1.060000,0.080001,0.040000,-8828667725.347858,-93605285773.534180,587119846172.187012,-15029075.578015,-4.553008,8.272248,-0.000283
-2.460000,1.060000,0.040001,0.040000,-8831062323.197981,160663268269.665527,1829474012386.562500,-43274099.969298,-8.221613,23.219749,-0.000815
-2.380000,1.020000,0.120404,0.040000,-8828554191.963717,-5605199454.128047,16379014186.570971,-49621849.920163,-0.166501,0.247695,-0.000935
-2.340000,1.020000,0.160303,0.040000,-8828186969.117579,18099010.548722,-18905421.780192,-3082971.778840,0.000346,-0.000352,-0.000058
-2.340000,1.060000,0.160000,0.040000,-8827880587.160910,23975383.515148,-31029088.991494,-2795963.898566,0.000492,-0.000545,-0.000053
-2.380000,1.060000,0.120000,0.040000,-8828254399.985357,-5549028644.436346,16325431382.797802,-2346083.563472,-0.165457,0.246670,-0.000044
-2.300000,1.020000,0.200242,0.040000,-8827854964.393118,18973864.365889,-21810763.427644,-685898.816250,0.000374,-0.000395,-0.000013
-2.260000,1.020000,0.240202,0.040000,-8827557803.081991,18440852.274700,-21291333.724091,1418148.275741,0.000364,-0.000385,0.000027
-2.260000,1.060000,0.240000,0.040000,-8827249854.755747,20604995.227072,-23461875.336338,2197479.643433,0.000404,-0.000426,0.000041
-2.300000,1.060000,0.200000,0.040000,-8827545929.321039,21315151.932532,-24156475.945684,-216980.880315,0.000418,-0.000439,-0.000004
-2.220000,1.020000,0.280173,0.040000,-8827294622.350039,17739978.985731,-20467784.328188,3149841.911941,0.000350,-0.000370,0.000059
-2.180000,1.020000,0.320152,0.040000,-8827064135.330254,16920296.714065,-19717110.135071,4994614.135103,0.000335,-0.000356,0.000094
-2.180000,1.060000,0.320000,0.040000,-8826768374.830883,18204364.557472,-21241784.080795,6695451.433833,0.000360,-0.000383,0.000126
-2.220000,1.060000,0.280000,0.040000,-8826991216.092295,19430259.802770,-21962188.525720,4417986.902444,0.000380,-0.000399,0.000083
2.180000,1.020000,0.320152,0.040000,-8827053255.335358,16920266.166889,-19717079.602165,-4994603.986369,0.000335,-0.000356,-0.000094
2.220000,1.020000,0.280173,0.040000,-8827283542.371786,17739947.057714,-20467752.567029,-3149834.365084,0.000350,-0.000370,-0.000059
2.220000,1.060000,0.280000,0.040000,-8826980136.817186,19430225.464310,-21962154.641420,-4417977.250034,0.000380,-0.000399,-0.000083
2.180000,1.060000,0.320000,0.040000,-8826757495.523123,18204332.191522,-21241751.393293,-6695438.544031,0.000360,-0.000383,-0.000126
2.260000,1.020000,0.240202,0.040000,-8827546523.069572,18440819.100879,-21291300.501179,-1418143.181012,0.000364,-0.000385,-0.000027
2.300000,1.020000,0.200242,0.040000,-8827843484.293501,18973830.184916,-21810729.229433,685900.882873,0.000374,-0.000395,0.000013
2.300000,1.060000,0.200000,0.040000,-8827534449.942833,21315114.377423,-24156438.360049,216983.872283,0.000418,-0.000439,0.000004
2.260000,1.060000,0.240000,0.040000,-8827238575.458059,20604958.942982,-23461839.010161,-2197473.182165,0.000404,-0.000426,-0.000041
2.340000,1.020000,0.160303,0.040000,-8828175288.876137,18098977.359728,-18905391.442357,3082970.377816,0.000346,-0.000352,0.000058
2.380000,1.020000,0.120404,0.040000,-8828542311.524862,-5605191526.870996,16378991005.839607,49621778.436039,-0.166500,0.247694,0.000935
2.380000,1.060000,0.120000,0.040000,-8828242520.264711,-5549020889.934680,16325408542.356522,2346083.381473,-0.165457,0.246670,0.000044
2.340000,1.060000,0.160000,0.040000,-8827868907.642126,23975341.921088,-31029041.399496,2795963.161816,0.000492,-0.000545,0.000053
2.420000,1.020000,0.080604,0.040000,-8828944182.924698,-93800039137.394501,587222258413.980713,58330420.011911,-4.556155,8.274700,0.001099
2.460000,1.020000,0.041195,0.040000,-8828442414.666977,159427954482.764832,1828230974425.266113,48679739.160580,-8.230879,23.210337,0.000917
2.460000,1.060000,0.040001,0.040000,-8831050040.137327,160663037699.786438,1829471436012.533203,43274020.015171,-8.221601,23.219716,0.000815
2.420000,1.060000,0.080001,0.040000,-8828655645.363108,-93605154807.911880,587119019306.329346,15029058.147387,-4.553002,8.272236,0.000283
2.500000,1.020000,0.009851,0.040000,-4414925121.615977,-1869805229.430124,2623148263952.554688,-2824698.658464,-14.851150,34.605712,-0.000053
2.500000,1.060000,0.000299,0.040000,-4414797005.253001,-1571779918.416440,2623416422756.934570,77227886.613020,-14.848735,34.607564,0.001455
-2.500000,1.100000,0.010448,0.040000,-4414660103.899101,-1887596342.696324,2622959564937.549805,-143471922.871964,-14.850318,34.603324,-0.002703
-2.500000,1.140000,0.009254,0.040000,-4414499604.578817,-1841465500.879139,2622911516675.085938,-19066914.875265,-14.849438,34.602430,-0.000359
-2.460000,1.100000,0.041342,0.040000,-8827666906.333998,159334623106.944794,1828022419336.809326,-40508413.509215,-8.230931,23.208114,-0.000763
-2.420000,1.100000,0.080679,0.040000,-8828343936.319483,-93802555324.222427,587187325403.306519,18857602.473610,-4.555991,8.274253,0.000355
-2.420000,1.140000,0.080533,0.040000,-8827982256.585493,-93767569411.965576,587149968019.208984,-66590415.840823,-4.555318,8.273563,-0.001255
-2.460000,1.140000,0.041056,0.040000,-8827750267.637396,159515387958.259430,1828144323886.894531,-64711251.944477,-8.229236,23.208700,-0.001219
-2.380000,1.100000,0.120454,0.040000,-8827919920.292698,-5603203396.024029,16376135528.383013,35210221.220273,-0.166458,0.247645,0.000663
-2.340000,1.100000,0.160341,0.040000,-8827539454.049679,23188179.543899,-23556172.931602,-2434602.189347,0.000439,-0.000442,-0.000046
-2.340000,1.140000,0.160267,0.040000,-8827158964.487953,27050404.013802,-28350021.276734,-2373652.958901,0.000517,-0.000527,-0.000045
-2.380000,1.140000,0.120356,0.040000,-8827546010.413378,-5591591229.952140,16364559546.000410,-53011567.061108,-0.166240,0.247427,-0.000999
-2.300000,1.100000,0.200273,0.040000,-8827202725.886396,24017261.306585,-26860801.421212,428744.378061,0.000469,-0.000490,0.000008
-2.260000,1.100000,0.240227,0.040000,-8826908899.655933,23078185.238939,-25942941.456174,3206726.640661,0.000451,-0.000473,0.000060
-2.260000,1.140000,0.240178,0.040000,-8826530976.301386,25909398.232591,-28783864.867953,4512840.183021,0.000504,-0.000526,0.000085
-2.300000,1.140000,0.200214,0.040000,-8826821017.481207,27149323.501351,-29997536.645645,1308363.536020,0.000528,-0.000549,0.000025
-2.220000,1.100000,0.280195,0.040000,-8826656457.593739,21896559.421372,-24548601.596437,5414394.417877,0.000428,-0.000448,0.000102
-2.180000,1.100000,0.320171,0.040000,-8826443312.922878,20590067.032259,-23398338.008158,7709084.224344,0.000404,-0.000425,0.000145
-2.180000,1.140000,0.320134,0.040000,-8826085943.188353,22190249.137013,-25293648.559166,10275684.476173,0.000436,-0.000459,0.000194
-2.220000,1.140000,0.280153,0.040000,-8826286838.537125,24052015.930617,-26450981.393788,7410558.133539,0.000467,-0.000485,0.000140
2.180000,1.100000,0.320171,0.040000,-8826432434.354252,20590031.319670,-23398302.285608,-7709069.711452,0.000404,-0.000425,-0.000145
2.220000,1.100000,0.280195,0.040000,-8826645379.077103,21896521.590289,-24548564.051660,-5414383.123119,0.000428,-0.000448,-0.000102
2.220000,1.140000,0.280153,0.040000,-8826275760.839226,24051975.037846,-26450941.161098,-7410543.643926,0.000467,-0.000485,-0.000140
2.180000,1.140000,0.320134,0.040000,-8826075065.415028,22190211.160919,-25293610.182261,-10275665.936613,0.000436,-0.000459,-0.000194
2.260000,1.100000,0.240227,0.040000,-8826897621.131117,23078145.429393,-25942901.573199,-3206718.461692,0.000451,-0.000473,-0.000060
2.300000,1.100000,0.200273,0.040000,-8827191247.289776,24017219.865763,-26860759.941199,-428740.182688,0.000469,-0.000490,-0.000008
2.300000,1.140000,0.200214,0.040000,-8826809539.732580,27149277.559917,-29997490.662727,-1308357.771093,0.000528,-0.000549,-0.000025
2.260000,1.140000,0.240178,0.040000,-8826519698.613182,25909354.387518,-28783820.926822,-4512829.836449,0.000504,-0.000526,-0.000085
2.340000,1.100000,0.160341,0.040000,-8827527775.314983,23188138.967649,-23556135.830116,2434602.251083,0.000439,-0.000442,0.000046
2.380000,1.100000,0.120454,0.040000,-8827908041.352022,-5603195471.264468,16376112350.403671,-35210163.956738,-0.166458,0.247645,-0.000663
2.380000,1.140000,0.120356,0.040000,-8827534132.321356,-5591583323.308858,16364536387.988827,53011492.934391,-0.166239,0.247427,0.000999
2.340000,1.140000,0.160267,0.040000,-8827147286.605471,27050357.870399,-28349977.288942,2373653.429138,0.000517,-0.000527,0.000045
2.420000,1.100000,0.080679,0.040000,-8828331857.104668,-93802422628.570206,587186496800.890015,-18856181.740163,-4.555985,8.274241,-0.000355
2.460000,1.100000,0.041342,0.040000,-8827654628.396858,159334399680.519714,1828019839575.923340,40511003.420880,-8.230919,23.208082,0.000763
2.460000,1.140000,0.041056,0.040000,-8827737989.912510,159515164774.521454,1828141741853.129639,64710739.929279,-8.229224,23.208668,0.001219
2.420000,1.140000,0.080533,0.040000,-8827970178.207613,-93767436610.413925,587149138736.087402,66589644.502391,-4.555312,8.273551,0.001255
2.500000,1.100000,0.010448,0.040000,-4414653875.921147,-1887583629.604280,2622955856619.660156,143476242.325383,-14.850297,34.603275,0.002703
2.500000,1.140000,0.009254,0.040000,-4414493375.227148,-1841453293.120265,2622907809301.431641,19066246.294658,-14.849417,34.602381,0.000359
-2.500000,1.180000,0.000896,0.040000,-4414319307.375161,-1568297623.215020,2623116279792.411133,-116592018.058945,-14.846993,34.603586,-0.002197
-2.500000,1.220000,0.011045,0.040000,-4414116222.983956,-1899028250.348642,2622598774390.459473,-171524331.016867,-14.848430,34.598631,-0.003232
-2.460000,1.180000,0.040010,0.040000,-8829993825.063288,160641811759.478516,1829247906021.797363,-59604318.721999,-8.220618,23.216888,-0.001123
-2.420000,1.180000,0.080005,0.040000,-8827576797.699146,-93586526271.293015,587045377646.193481,-15445214.089830,-4.552340,8.271160,-0.000291
-2.420000,1.220000,0.080759,0.040000,-8827119107.684196,-93790850185.062531,587107338396.259033,7879128.915132,-4.555385,8.273132,0.000148
-2.460000,1.220000,0.041497,0.040000,-8826312757.182756,159245298316.651428,1827698495284.368652,-61578235.181516,-8.230278,23.204347,-0.001160
-2.380000,1.180000,0.120003,0.040000,-8827127082.357141,-5538430351.537322,16313599002.284643,3433342.036425,-0.165250,0.246455,0.000065
-2.340000,1.180000,0.160003,0.040000,-8826733730.267611,34109567.818611,-41113833.361770,-1583819.621061,0.000682,-0.000735,-0.000030
-2.340000,1.220000,0.160381,0.040000,-8826257415.853437,34929352.549393,-34911670.692398,-606804.213477,0.000658,-0.000658,-0.000011
-2.380000,1.220000,0.120507,0.040000,-8826656511.873514,-5593482600.012295,16364869669.746424,30904904.886572,-0.166266,0.247442,0.000582
-2.300000,1.180000,0.200002,0.040000,-8826395778.572937,30791422.464971,-33646290.841424,2499392.133868,0.000596,-0.000618,0.000047
-2.260000,1.180000,0.240002,0.040000,-8826111550.280891,29154873.803889,-32041319.248016,6204296.295811,0.000566,-0.000587,0.000117
-2.260000,1.220000,0.240254,0.040000,-8825645424.628199,32878149.202386,-35779359.803583,8398728.966614,0.000636,-0.000658,0.000158
-2.300000,1.220000,0.200305,0.040000,-8825921165.542107,35038318.055924,-37898126.891076,4106999.467372,0.000676,-0.000698,0.000077
-2.220000,1.180000,0.280001,0.040000,-8825878405.244059,27169768.154070,-29693326.714334,9015300.835160,0.000526,-0.000545,0.000170
-2.180000,1.180000,0.320001,0.040000,-8825692943.260857,25079517.257144,-27912368.616316,11836052.957808,0.000489,-0.000510,0.000223
-2.180000,1.220000,0.320191,0.040000,-8825260661.043442,27044714.379922,-30230769.298072,15740534.042435,0.000528,-0.000552,0.000297
-2.220000,1.220000,0.280218,0.040000,-8825426708.655352,29905412.342566,-32101690.088182,12184715.682411,0.000576,-0.000592,0.000230
2.180000,1.180000,0.320001,0.040000,-8825682066.343735,25079475.255915,-27912326.582553,-11836031.985106,0.000489,-0.000510,-0.000223
2.220000,1.180000,0.280001,0.040000,-8825867328.430820,27169722.871510,-29693281.914242,-9015283.795568,0.000526,-0.000545,-0.000170
2.220000,1.220000,0.280218,0.040000,-8825415632.798914,29905363.206012,-32101641.900468,-12184693.703045,0.000576,-0.000592,-0.000230
2.180000,1.220000,0.320191,0.040000,-8825249785.048483,27044669.635131,-30230724.024096,-15740507.068473,0.000528,-0.000552,-0.000297
2.260000,1.180000,0.240002,0.040000,-8826100273.499496,29154825.332836,-32041270.676047,-6204283.200970,0.000566,-0.000587,-0.000117
2.300000,1.180000,0.200002,0.040000,-8826384301.745934,30791371.299442,-33646239.635178,-2499384.322315,0.000596,-0.000618,-0.000047
2.300000,1.220000,0.200305,0.040000,-8825909689.718760,35038260.825139,-37898069.603538,-4106988.978690,0.000676,-0.000698,-0.000077
2.260000,1.220000,0.240254,0.040000,-8825634148.831247,32878095.447845,-35779305.925631,-8398712.370121,0.000636,-0.000658,-0.000158
2.340000,1.180000,0.160003,0.040000,-8826722053.313251,34109511.583192,-41113771.195725,1583821.568578,0.000682,-0.000735,0.000030
2.380000,1.180000,0.120003,0.040000,-8827115205.190641,-5538422581.515155,16313576090.347294,-3433333.010218,-0.165250,0.246454,-0.000065
2.380000,1.220000,0.120507,0.040000,-8826644635.718945,-5593474688.534284,16364846504.692230,-30904854.070814,-0.166266,0.247442,-0.000582
2.340000,1.220000,0.160381,0.040000,-8826245739.912214,34929295.045048,-34911617.203068,606807.947153,0.000658,-0.000658,0.000011
2.420000,1.180000,0.080005,0.040000,-8827564720.233767,-93586394819.304626,587044549458.277588,15445219.909597,-4.552333,8.271148,0.000291
2.460000,1.180000,0.040010,0.040000,-8829981544.506403,160641582272.426483,1829245325466.830811,59604242.878862,-8.220606,23.216855,0.001123
2.460000,1.220000,0.041497,0.040000,-8826300482.195803,159245074547.615204,1827695913365.929443,61579674.595831,-8.230266,23.204315,0.001160
2.420000,1.220000,0.080759,0.040000,-8827107031.219185,-93790717442.128281,587106509046.628906,-7878250.400701,-4.555378,8.273120,-0.000148
2.500000,1.180000,0.000896,0.040000,-4414313026.824317,-1568311169.435680,2623112587067.465820,116591946.596765,-14.846972,34.603538,0.002197
2.500000,1.220000,0.011045,0.040000,-4414109997.003371,-1899017943.369821,2622595064964.708496,171526682.448012,-14.848408,34.598582,0.003232
-2.500000,1.260000,0.008657,0.040000,-4413886759.192042,-1808031245.041639,2622557312244.385254,-55688968.017826,-14.846995,34.597569,-0.001049
-2.500000,1.300000,0.001493,0.040000,-4413626560.384007,-1563018972.505778,2622675335075.693848,-172073160.382830,-14.844431,34.597741,-0.003242
-2.460000,1.260000,0.040926,0.040000,-8826668733.951946,159606448659.413971,1827978151807.484863,-88419676.396151,-8.227096,23.205994,-0.001666
-2.420000,1.260000,0.080467,0.040000,-8826603376.262173,-93724199659.910965,587045966216.128662,-76443477.533360,-4.554159,8.271946,-0.001440
-2.420000,1.300000,0.080014,0.040000,-8826019333.707857,-93557591401.466461,586935924227.277832,-18587301.512967,-4.551339,8.269553,-0.000350
-2.460000,1.300000,0.040028,0.040000,-8828446960.916765,160606802895.921997,1828912920200.178711,-85315034.389373,-8.219186,23.212668,-0.001607
-2.380000,1.260000,0.120312,0.040000,-8826126395.414438,-5571548845.275518,16343221975.770947,-54794264.584851,-0.165855,0.247032,-0.001032
-2.340000,1.260000,0.160234,0.040000,-8825722532.923775,41472622.930139,-43303422.308897,370820.566133,0.000792,-0.000806,0.000007
-2.340000,1.300000,0.160007,0.040000,-8825120182.597298,50856408.474427,-57762931.341594,2462445.049383,0.000997,-0.001049,0.000046
-2.380000,1.300000,0.120009,0.040000,-8825527233.500362,-5520703978.495513,16294073871.903545,10406816.228654,-0.164906,0.246097,0.000196
-2.300000,1.260000,0.200187,0.040000,-8825390361.187422,40008730.502542,-42876673.581337,6275737.588354,0.000770,-0.000792,0.000118
-2.260000,1.260000,0.240156,0.040000,-8825126638.818878,37149086.587611,-40068447.706198,11253481.994500,0.000716,-0.000738,0.000212
-2.260000,1.300000,0.240005,0.040000,-8824548358.155657,42040947.125728,-44982488.542700,14980224.330655,0.000809,-0.000831,0.000282
-2.300000,1.300000,0.200006,0.040000,-8824795388.483049,45839857.917614,-48717962.501928,9206096.941812,0.000880,-0.000902,0.000173
-2.220000,1.260000,0.280134,0.040000,-8824926756.300339,33796100.832403,-36099753.635584,14795467.515096,0.000650,-0.000667,0.000279
-2.180000,1.260000,0.320117,0.040000,-8824785113.489849,30427547.832622,-33308389.264560,18164792.595002,0.000590,-0.000611,0.000342
-2.180000,1.300000,0.320003,0.040000,-8824262007.286922,32757833.699589,-36038532.793276,24150921.492789,0.000636,-0.000660,0.000455
-2.220000,1.300000,0.280004,0.040000,-8824372972.720585,37208058.826030,-39091755.619430,19886181.757160,0.000712,-0.000726,0.000375
2.180000,1.260000,0.320117,0.040000,-8824774238.488537,30427498.411838,-33308339.737821,-18164761.917896,0.000590,-0.000611,-0.000342
2.220000,1.260000,0.280134,0.040000,-8824915681.479898,33796046.249154,-36099699.860538,-14795441.495589,0.000650,-0.000667,-0.000279
2.220000,1.300000,0.280004,0.040000,-8824361899.023142,37207999.474498,-39091697.661607,-19886147.978756,0.000712,-0.000726,-0.000375
2.180000,1.300000,0.320003,0.040000,-8824251133.356705,32757781.055298,-36038479.487376,-24150881.777888,0.000636,-0.000660,-0.000455
2.260000,1.260000,0.240156,0.040000,-8825115364.092451,37149026.792013,-40068387.754314,-11253460.916331,0.000716,-0.000738,-0.000212
2.300000,1.260000,0.200187,0.040000,-8825378886.459476,40008666.188351,-42876609.192319,-6275723.576181,0.000770,-0.000792,-0.000118
2.300000,1.300000,0.200006,0.040000,-8824783914.953615,45839785.304184,-48717889.805779,-9206078.265957,0.000880,-0.000902,-0.000173
2.260000,1.300000,0.240005,0.040000,-8824537084.595503,42040880.427825,-44982421.650083,-14980197.482393,0.000809,-0.000831,-0.000282
2.340000,1.260000,0.160234,0.040000,-8825710858.091507,41472556.057296,-43303356.830457,-370814.989697,0.000792,-0.000806,-0.000007
2.380000,1.260000,0.120312,0.040000,-8826114520.369671,-5571540969.103223,16343198852.721407,54794189.730493,-0.165854,0.247032,0.001032
2.380000,1.300000,0.120009,0.040000,-8825515359.676985,-5520696220.188941,16294050948.344213,-10406795.878069,-0.164906,0.246096,-0.000196
2.340000,1.300000,0.160007,0.040000,-8825108508.982538,50856328.204001,-57762845.291485,-2462435.987866,0.000997,-0.001049,-0.000046
2.420000,1.260000,0.080467,0.040000,-8826591300.893950,-93724066994.067307,587045136685.021851,76442777.593477,-4.554152,8.271934,0.001440
2.460000,1.260000,0.040926,0.040000,-8826656458.834833,159606224415.480042,1827975568752.104004,88418927.958632,-8.227084,23.205961,0.001666
2.460000,1.300000,0.040028,0.040000,-8828434683.671368,160606573969.481293,1828910338220.518799,85314947.359284,-8.219175,23.212635,0.001607
2.420000,1.300000,0.080014,0.040000,-8826007259.547731,-93557459760.599365,586935095593.008667,18587327.355837,-4.551333,8.269541,0.000350
2.500000,1.260000,0.008657,0.040000,-4413880530.170323,-1808022479.903772,2622553604221.445801,55687862.997853,-14.846974,34.597520,0.001049
2.500000,1.300000,0.001493,0.040000,-4413620293.456180,-1563028850.706667,2622671638437.069824,172073008.176915,-14.844410,34.597692,0.003242
-2.500000,1.340000,0.011642,0.040000,-4413330292.168205,-1902012385.649011,2622084667885.671387,-218516430.115553,-14.845563,34.591867,-0.004117
-2.500000,1.380000,0.008060,0.040000,-4412991347.699884,-1765729761.402458,2622020571834.775391,-117766970.543881,-14.843403,34.590252,-0.002219
-2.460000,1.340000,0.041660,0.040000,-8824459574.926804,159165188532.663971,1827272616833.662354,-94002206.844906,-8.228928,23.199183,-0.001771
-2.420000,1.340000,0.080843,0.040000,-8825353552.910366,-93762833795.476425,586984297032.604492,-6516174.258613,-4.554320,8.271351,-0.000123
-2.420000,1.380000,0.080405,0.040000,-8824593685.593706,-93661822053.654526,586891045664.715210,-88681167.630188,-4.552460,8.269550,-0.001671
-2.460000,1.380000,0.040804,0.040000,-8824986812.599958,159701999995.519287,1827683914991.151367,-125560932.621278,-8.224173,23.201574,-0.002366
-2.380000,1.340000,0.120563,0.040000,-8824847520.853085,-5573788670.254108,16343028500.559666,28087142.559325,-0.165883,0.247043,0.000529
-2.340000,1.340000,0.160423,0.040000,-8824439731.124590,54838474.994417,-54502797.163008,5194317.958205,0.001031,-0.001029,0.000098
-2.340000,1.380000,0.160203,0.040000,-8823668401.549078,65925473.793801,-68331350.482253,8732557.580850,0.001256,-0.001274,0.000165
-2.380000,1.380000,0.120270,0.040000,-8824073208.595377,-5539320504.573199,16308972347.097084,-52638780.735104,-0.165236,0.246399,-0.000992
-2.300000,1.340000,0.200339,0.040000,-8824126889.740242,52690719.371008,-55577484.189198,13177685.693168,0.001009,-0.001031,0.000248
-2.260000,1.340000,0.240282,0.040000,-8823902758.570684,47623843.368515,-50592197.256483,19865178.000917,0.000914,-0.000936,0.000374
-2.260000,1.380000,0.240135,0.040000,-8823180917.912554,53951615.009912,-56951776.650552,26296969.934335,0.001033,-0.001056,0.000495
-2.300000,1.380000,0.200162,0.040000,-8823373869.524097,60745895.356220,-63644232.092497,18584627.691975,0.001161,-0.001183,0.000350
-2.220000,1.340000,0.280242,0.040000,-8823759179.619202,41898957.222016,-43823091.746262,24190099.090612,0.000800,-0.000815,0.000456
-2.180000,1.340000,0.320212,0.040000,-8823686796.001078,36426392.990438,-39396055.799280,27949962.228358,0.000703,-0.000725,0.000527
-2.180000,1.380000,0.320101,0.040000,-8823054796.159788,38965715.470808,-42329837.788767,37168419.035568,0.000753,-0.000779,0.000700
-2.220000,1.380000,0.280116,0.040000,-8823078614.876099,45960428.973095,-47360527.861596,32465896.959068,0.000874,-0.000884,0.000612
2.180000,1.340000,0.320212,0.040000,-8823675923.225620,36426335.359135,-39395997.924766,-27949916.808037,0.000703,-0.000725,-0.000527
2.220000,1.340000,0.280242,0.040000,-8823748107.140375,41898891.358263,-43823027.244208,-24190058.791602,0.000800,-0.000815,-0.000456
2.220000,1.380000,0.280116,0.040000,-8823067543.720907,45960357.486950,-47360458.470269,-32465844.261018,0.000874,-0.000884,-0.000612
2.180000,1.380000,0.320101,0.040000,-8823043924.629148,38965654.380803,-42329775.924392,-37168359.889621,0.000753,-0.000779,-0.000700
2.260000,1.340000,0.240282,0.040000,-8823891486.283556,47623768.804494,-50592122.478836,-19865143.679564,0.000914,-0.000936,-0.000374
2.300000,1.340000,0.200339,0.040000,-8824115417.525761,52690637.034438,-55577401.760092,-13177660.809339,0.001009,-0.001031,-0.000248
2.300000,1.380000,0.200162,0.040000,-8823362398.756615,60745801.623879,-63644138.246468,-18584594.486542,0.001161,-0.001183,-0.000350
2.260000,1.380000,0.240135,0.040000,-8823169647.017834,53951531.580630,-56951692.951349,-26296925.879555,0.001033,-0.001056,-0.000495
2.340000,1.340000,0.160423,0.040000,-8824428058.851156,54838388.983039,-54502715.622397,-5194304.430489,0.001031,-0.001029,-0.000098
2.380000,1.340000,0.120563,0.040000,-8824835648.379280,-5573780786.917647,16343005365.832029,-28087094.860405,-0.165883,0.247042,-0.000529
2.380000,1.380000,0.120270,0.040000,-8824061337.619484,-5539312676.624945,16308949278.683159,52638711.125597,-0.165236,0.246398,0.000992
2.340000,1.380000,0.160203,0.040000,-8823656730.759014,65925371.993760,-68331249.276587,-8732538.353045,0.001256,-0.001274,-0.000165
2.420000,1.340000,0.080843,0.040000,-8825341480.089062,-93762701073.842072,586983467509.528931,6516791.764260,-4.554313,8.271339,0.000123
2.460000,1.340000,0.041660,0.040000,-8824447303.730589,159164964636.290894,1827270034455.616211,94003135.196721,-8.228916,23.199151,0.001771
2.460000,1.380000,0.040804,0.040000,-8824974541.078945,159701775144.655121,1827681331790.287842,125560158.649654,-8.224161,23.201541,0.002366
2.420000,1.380000,0.080405,0.040000,-8824581614.259846,-93661689524.062943,586890216173.114868,88680537.607160,-4.552454,8.269538,0.001671
2.500000,1.340000,0.011642,0.040000,-4413324068.485961,-1902003202.372938,2622080958486.344727,218517917.620426,-14.845542,34.591818,0.004117
2.500000,1.380000,0.008060,0.040000,-4412985119.329871,-1765723045.487478,2622016864432.781738,117765807.889219,-14.843382,34.590203,0.002219
-2.500000,1.420000,0.002090,0.040000,-4412601440.016072,-1550161772.162318,2622012994638.007812,-257201608.321079,-14.840518,34.588933,-0.004846
-2.500000,1.460000,0.012239,0.040000,-4412150024.662086,-1888440989.681110,2621311966161.589844,-302322142.026069,-14.841017,34.581600,-0.005696
-2.460000,1.420000,0.040055,0.040000,-8826154729.020187,160562162088.409210,1828408214543.446289,-127655856.180853,-8.216922,23.206264,-0.002405
-2.420000,1.420000,0.080027,0.040000,-8823720637.597567,-93507322316.109024,586766109569.329224,-25240263.247155,-4.549717,8.267029,-0.000476
-2.420000,1.460000,0.080931,0.040000,-8822710000.367125,-93703598969.828125,586785768704.265503,-24591907.698884,-4.552416,8.268398,-0.000463
-2.460000,1.460000,0.041830,0.040000,-8821779551.313240,159100936437.538422,1826669089341.688965,-146902957.172088,-8.226364,23.191587,-0.002768
-2.380000,1.420000,0.120018,0.040000,-8823186988.712379,-5488234654.150379,16258903946.259781,21955412.494303,-0.164279,0.245449,0.000414
-2.340000,1.420000,0.160014,0.040000,-8822790760.895390,79950323.020944,-86729351.489233,14503981.711375,0.001545,-0.001596,0.000273
-2.340000,1.460000,0.160467,0.040000,-8821788081.564491,90106960.157141,-89544607.114530,22492626.359764,0.001694,-0.001690,0.000424
-2.380000,1.460000,0.120623,0.040000,-8822167341.035824,-5534067765.197001,16300139532.239983,32155303.386909,-0.165117,0.246252,0.000606
-2.300000,1.420000,0.200011,0.040000,-8822523405.265488,70197941.829195,-73107565.729389,25987048.130588,0.001339,-0.001361,0.000490
-2.260000,1.420000,0.240009,0.040000,-8822372735.717390,61036945.044047,-64073616.199338,34804504.578607,0.001167,-0.001190,0.000656
-2.260000,1.460000,0.240312,0.040000,-8821466922.956802,68805706.973837,-71881826.776432,46107175.121337,0.001314,-0.001337,0.000869
-2.300000,1.460000,0.200374,0.040000,-8821560341.921715,81225806.084572,-84140412.045673,36185971.945971,0.001547,-0.001569,0.000682
-2.220000,1.420000,0.280008,0.040000,-8822324022.346581,51139799.702525,-52407546.696977,39655648.844309,0.000971,-0.000980,0.000747
-2.180000,1.420000,0.320007,0.040000,-8822361396.572075,42207036.295438,-45334246.192098,43146565.625823,0.000813,-0.000836,0.000813
-2.180000,1.460000,0.320234,0.040000,-8821602412.577147,44375277.162985,-47739838.924126,57278438.144005,0.000855,-0.000880,0.001079
-2.220000,1.460000,0.280267,0.040000,-8821487864.905697,55402561.409992,-56066275.244841,53222490.827279,0.001048,-0.001053,0.001003
2.180000,1.420000,0.320007,0.040000,-8822350526.382502,42206970.979910,-45334180.388689,-43146497.621723,0.000813,-0.000836,-0.000813
2.220000,1.420000,0.280008,0.040000,-8822312952.630066,51139721.138532,-52407470.454051,-39655585.433719,0.000971,-0.000980,-0.000747
2.220000,1.460000,0.280267,0.040000,-8821476796.753231,55402477.066965,-56066194.046776,-53222407.372392,0.001048,-0.001053,-0.001003
2.180000,1.460000,0.320234,0.040000,-8821591543.830336,44375209.016126,-47739770.013061,-57278349.342830,0.000855,-0.000880,-0.001079
2.260000,1.420000,0.240009,0.040000,-8822361466.348549,61036851.721686,-64073522.562524,-34804447.770777,0.001167,-0.001190,-0.000656
2.300000,1.420000,0.200011,0.040000,-8822511936.095306,70197834.755722,-73107458.536366,-25987003.681213,0.001339,-0.001361,-0.000490
2.300000,1.460000,0.200374,0.040000,-8821548874.520559,81225683.504092,-84140289.334563,-36185912.176643,0.001547,-0.001569,-0.000682
2.260000,1.460000,0.240312,0.040000,-8821455655.263113,68805602.872428,-71881722.295624,-46107101.509943,0.001314,-0.001337,-0.000869
2.340000,1.420000,0.160014,0.040000,-8822779091.752773,79950201.304135,-86729224.159703,-14503953.509997,0.001545,-0.001596,-0.000273
2.380000,1.420000,0.120018,0.040000,-8823175119.407581,-5488226933.661891,16258881048.128088,-21955373.602701,-0.164279,0.245449,-0.000414
2.380000,1.460000,0.120623,0.040000,-8822155473.606066,-5534059938.768643,16300116458.868734,-32155247.936076,-0.165117,0.246252,-0.000606
2.340000,1.460000,0.160467,0.040000,-8821776414.259945,90106824.015314,-89544475.768155,-22492585.909931,0.001694,-0.001690,-0.000424
2.420000,1.420000,0.080027,0.040000,-8823708567.927361,-93507190602.381546,586765280834.945923,25240305.293034,-4.549710,8.267018,0.000476
2.460000,1.420000,0.040055,0.040000,-8826142456.284491,160561933586.575775,1828405632199.384521,127655735.983898,-8.216911,23.206231,0.002405
2.460000,1.460000,0.041830,0.040000,-8821767285.226583,159100712487.508148,1826666507281.739014,146903510.746141,-8.226352,23.191554,0.002768
2.420000,1.460000,0.080931,0.040000,-8822697932.571814,-93703466327.489471,586784939287.075439,24592337.392375,-4.552410,8.268386,0.000463
2.500000,1.420000,0.002090,0.040000,-4412595183.083744,-1550169174.795970,2622009296186.404297,257201363.128303,-14.840497,34.588884,0.004846
2.500000,1.460000,0.012239,0.040000,-4412143803.808682,-1888432506.046966,2621308257544.869629,302322996.911187,-14.840996,34.581551,0.005696
-2.500000,1.500000,0.007463,0.040000,-4411623463.135880,-1703908451.516926,2621166671325.820801,-228710024.048125,-14.837762,34.578641,-0.004309
-2.500000,1.540000,0.002687,0.040000,-4411003778.869217,-1513612226.951271,2620955988018.098633,-403082285.060960,-14.834061,34.574786,-0.007594
-2.460000,1.500000,0.040690,0.040000,-8822287980.418289,159808926023.168854,1827161838061.540527,-187755640.284465,-8.219812,23.194084,-0.003537
-2.420000,1.500000,0.080347,0.040000,-8821534557.806345,-93560819617.307877,586643363716.388550,-102820180.146300,-4.549728,8.265713,-0.001937
-2.420000,1.540000,0.080045,0.040000,-8820154814.096905,-93408342105.168701,586480521950.028931,-33375048.453215,-4.546797,8.262703,-0.000629
-2.460000,1.540000,0.040090,0.040000,-8822596136.061071,160521866275.294800,1827607206963.541992,-201495462.007760,-8.212926,23.195928,-0.003796
-2.380000,1.500000,0.120232,0.040000,-8820987252.589443,-5481698361.169052,16248067353.152832,-38268946.418638,-0.164132,0.245270,-0.000721
-2.340000,1.500000,0.160174,0.040000,-8820637561.047760,109351114.835989,-112382456.793032,33813727.628841,0.002077,-0.002100,0.000637
-2.340000,1.540000,0.160023,0.040000,-8819311405.768017,132339784.753820,-138965324.702409,51133886.652622,0.002531,-0.002581,0.000963
-2.380000,1.540000,0.120030,0.040000,-8819612488.713793,-5423253877.187880,16189644059.630377,50987438.542448,-0.163031,0.244169,0.000961
-2.300000,1.500000,0.200139,0.040000,-8820467012.964035,93944007.019395,-96855781.246320,50334016.645612,0.001786,-0.001808,0.000948
-2.260000,1.500000,0.240116,0.040000,-8820451137.619646,77015033.700133,-80128774.456124,61178184.455918,0.001469,-0.001492,0.001153
-2.260000,1.540000,0.240015,0.040000,-8819312401.825344,85108982.191432,-88247959.145932,81316341.627145,0.001621,-0.001645,0.001532
-2.300000,1.540000,0.200018,0.040000,-8819223082.336473,108276854.458791,-111162360.710361,70092741.212025,0.002056,-0.002078,0.001321
-2.220000,1.500000,0.280099,0.040000,-8820562745.783722,59767282.394700,-59916212.751912,65324835.323851,0.001127,-0.001128,0.001231
-2.180000,1.500000,0.320087,0.040000,-8820774661.733120,45280471.989614,-48673705.490935,66611856.747661,0.000872,-0.000898,0.001255
-2.180000,1.540000,0.320011,0.040000,-8819876871.240379,45443731.206518,-48541783.584125,87740068.416711,0.000874,-0.000897,0.001653
-2.220000,1.540000,0.280013,0.040000,-8819542173.793173,62560658.580206,-62170536.928801,87481426.906420,0.001176,-0.001174,0.001648
2.180000,1.500000,0.320087,0.040000,-8820763794.534739,45280403.166021,-48673635.791024,-66611754.270708,0.000872,-0.000898,-0.001255
2.220000,1.500000,0.280099,0.040000,-8820551679.330639,59767192.342983,-59916126.630353,-65324734.076271,0.001127,-0.001128,-0.001231
2.220000,1.540000,0.280013,0.040000,-8819531109.183363,62560565.044475,-62170448.030810,-87481293.290011,0.001176,-0.001174,-0.001648
2.180000,1.540000,0.320011,0.040000,-8819866005.697094,45443662.561776,-48541714.583814,-87739935.144523,0.000874,-0.000897,-0.001653
2.260000,1.500000,0.240116,0.040000,-8820439871.767458,77014918.289296,-80128658.620139,-61178088.601670,0.001469,-0.001492,-0.001153
2.300000,1.500000,0.200139,0.040000,-8820455547.528439,93943866.620626,-96855640.725063,-50333935.827951,0.001786,-0.001808,-0.000948
2.300000,1.540000,0.200018,0.040000,-8819211619.091473,108276694.085510,-111162200.248696,-70092631.244210,0.002056,-0.002078,-0.001321
2.260000,1.540000,0.240015,0.040000,-8819301137.998892,85108855.775624,-88247832.275473,-81316216.244061,0.001621,-0.001645,-0.001532
2.340000,1.500000,0.160174,0.040000,-8820625895.804331,109350951.478297,-112382293.132593,-33813670.044018,0.002077,-0.002100,-0.000637
2.380000,1.500000,0.120232,0.040000,-8820975387.277239,-5481690617.775578,16248044378.259563,38268900.377165,-0.164132,0.245269,0.000721
2.380000,1.540000,0.120030,0.040000,-8819600625.810396,-5423246243.088688,16189621242.590857,-50987354.940296,-0.163031,0.244168,-0.000961
2.340000,1.540000,0.160023,0.040000,-8819299742.847992,132339588.964982,-138965123.528109,-51133803.234582,0.002531,-0.002581,-0.000963
2.420000,1.500000,0.080347,0.040000,-8821522492.136324,-93560687277.990372,586642534505.475952,102819601.523360,-4.549722,8.265701,0.001937
2.460000,1.500000,0.040690,0.040000,-8822275714.087429,159808700691.686798,1827159255383.721680,187754829.615314,-8.219800,23.194051,0.003537
2.460000,1.540000,0.040090,0.040000,-8822583869.789135,160521638125.203186,1827604625115.985596,201495265.531376,-8.212915,23.195895,0.003796
2.420000,1.540000,0.080045,0.040000,-8820142750.859123,-93408210431.022827,586479693420.010010,33375106.653490,-4.546791,8.262692,0.000629
2.500000,1.500000,0.007463,0.040000,-4411617236.001472,-1703903363.894373,2621162965423.142090,228708780.640027,-14.837741,34.578592,0.004309
2.500000,1.540000,0.002687,0.040000,-4410997530.774953,-1513617759.830207,2620952289228.336426,403081868.961151,-14.834040,34.574738,0.007594
-2.500000,1.580000,0.012836,0.040000,-4410266750.942934,-1834373102.881387,2620052064336.201172,-465534573.605163,-14.833182,34.564678,-0.008771
-2.500000,1.620000,0.006866,0.040000,-4409378888.897767,-1586701846.144348,2619685654602.384766,-447225200.944869,-14.827845,34.558446,-0.008426
-2.460000,1.580000,0.042009,0.040000,-8817603359.415819,159074739510.433289,1825720540491.031494,-239223144.837070,-8.221348,23.179225,-0.004507
-2.420000,1.580000,0.081023,0.040000,-8818518921.699202,-93574829095.730896,586437176000.227051,-40828098.400799,-4.548748,8.263073,-0.000769
-2.420000,1.620000,0.080294,0.040000,-8816560910.634825,-93367052014.429199,586200623925.649170,-106800975.332842,-4.544670,8.258779,-0.002012
-2.460000,1.620000,0.040585,0.040000,-8817688812.110432,159959542888.536682,1826181696874.426025,-298979213.941526,-8.212285,23.180306,-0.005633
-2.380000,1.580000,0.120685,0.040000,-8817999274.573074,-5450499754.251517,16211517980.735895,64042221.627801,-0.163514,0.244611,0.001207
-2.340000,1.580000,0.160514,0.040000,-8817775845.603102,153655841.558518,-152922795.358815,76409334.858054,0.002891,-0.002885,0.001440
-2.340000,1.620000,0.160147,0.040000,-8815990297.123085,185831862.085205,-189385107.488274,114103638.252947,0.003521,-0.003548,0.002150
-2.380000,1.620000,0.120196,0.040000,-8816091235.552271,-5367017916.146542,16127732202.721958,22411251.059942,-0.161939,0.243034,0.000422
-2.300000,1.580000,0.200411,0.040000,-8817805705.649096,123724881.950042,-126532139.230132,97846128.908040,0.002347,-0.002368,0.001843
-2.260000,1.580000,0.240343,0.040000,-8818038038.656263,91969487.211876,-95100215.208660,108207054.131161,0.001750,-0.001774,0.002039
-2.260000,1.620000,0.240098,0.040000,-8816617537.682245,95499177.221041,-98549175.651919,143917951.965941,0.001816,-0.001839,0.002711
-2.300000,1.620000,0.200118,0.040000,-8816190410.396339,138901296.057330,-141532930.498909,136961515.268444,0.002632,-0.002652,0.002580
-2.220000,1.580000,0.280294,0.040000,-8818421883.660603,62187918.696810,-60533611.979931,107645571.380193,0.001162,-0.001150,0.002028
-2.180000,1.580000,0.320257,0.040000,-8818911069.539972,39489469.317599,-43300707.368652,101796613.801778,0.000766,-0.000794,0.001918
-2.180000,1.620000,0.320074,0.040000,-8817884658.121410,33613134.542420,-35809079.380882,131196892.512666,0.000646,-0.000662,0.002472
-2.220000,1.620000,0.280084,0.040000,-8817202028.547325,58641960.910421,-57017261.107536,142572831.652768,0.001096,-0.001083,0.002686
2.180000,1.580000,0.320257,0.040000,-8818900205.754690,39489410.094982,-43300646.663532,-101796460.121170,0.000766,-0.000794,-0.001918
2.220000,1.580000,0.280294,0.040000,-8818410821.043081,62187826.531595,-60533526.320866,-107645408.431852,0.001162,-0.001150,-0.002028
2.220000,1.620000,0.280084,0.040000,-8817190968.069712,58641874.595244,-57017181.173853,-142572618.143286,0.001096,-0.001083,-0.002686
2.180000,1.620000,0.320074,0.040000,-8817873796.185251,33613084.334156,-35809030.125269,-131196696.327697,0.000646,-0.000662,-0.002472
2.260000,1.580000,0.240343,0.040000,-8818026777.056999,91969351.737062,-95100079.285120,-108206889.542322,0.001750,-0.001774,-0.002039
2.300000,1.580000,0.200411,0.040000,-8817794244.851534,123724700.202292,-126531957.510212,-97845978.289730,0.002347,-0.002368,-0.001843
2.300000,1.620000,0.200118,0.040000,-8816178952.336908,138901093.580365,-141532728.309005,-136961307.712062,0.002632,-0.002652,-0.002580
2.260000,1.620000,0.240098,0.040000,-8816606278.525431,95499037.660594,-98549035.757213,-143917735.573403,0.001816,-0.001839,-0.002711
2.340000,1.580000,0.160514,0.040000,-8817764185.316425,153655615.854551,-152922574.679308,-76409214.092054,0.002891,-0.002885,-0.001440
2.380000,1.580000,0.120685,0.040000,-8817987414.431955,-5450492046.890965,16211495034.205446,-64042117.149569,-0.163513,0.244611,-0.001207
2.380000,1.620000,0.120196,0.040000,-8816079378.606735,-5367010338.004706,16127709406.178331,-22411205.734573,-0.161939,0.243034,-0.000422
2.340000,1.620000,0.160147,0.040000,-8815978639.836676,185831591.312252,-189384835.697204,-114103462.252013,0.003521,-0.003548,-0.002150
2.420000,1.580000,0.081023,0.040000,-8818506861.274662,-93574696639.501938,586436347001.113647,40828379.389834,-4.548741,8.263061,0.000769
2.460000,1.580000,0.042009,0.040000,-8817591100.726030,159074515510.219421,1825717959543.432617,239223339.294627,-8.221336,23.179192,0.004507
2.460000,1.620000,0.040585,0.040000,-8817676553.838644,159959317085.608459,1826179115610.629883,298978298.382058,-8.212274,23.180273,0.005633
2.420000,1.620000,0.080294,0.040000,-8816548853.498665,-93366920000.696686,586199795348.945068,106800452.044468,-4.544664,8.258767,0.002012
2.500000,1.580000,0.012836,0.040000,-4410260533.903537,-1834365138.180405,2620048357457.013672,465534804.489722,-14.833161,34.564629,0.008771
2.500000,1.620000,0.006866,0.040000,-4409372664.149978,-1586698254.224509,2619681951390.481445,447223726.823126,-14.827824,34.558397,0.008426
-2.500000,1.660000,0.003284,0.040000,-4408292428.991896,-1395517909.118384,2619073813677.903809,-692120040.922888,-14.821865,34.549296,-0.013040
-2.500000,1.700000,0.013433,0.040000,-4406936635.883615,-1643800270.851180,2617684246319.104980,-826098510.464669,-14.817286,34.532373,-0.015564
-2.460000,1.660000,0.040135,0.040000,-8816597376.972555,160542573302.451813,1826192189711.574219,-336250130.798109,-8.204655,23.177149,-0.006335
-2.420000,1.660000,0.080067,0.040000,-8814185771.621855,-93181470174.523743,585935112245.030151,-17722398.459289,-4.540722,8.254228,-0.000334
-2.420000,1.700000,0.081120,0.040000,-8811261684.771601,-93259654192.574402,585731340096.517212,-2488249.967630,-4.540602,8.251982,-0.000047
-2.460000,1.700000,0.042195,0.040000,-8810322814.763689,159181555468.044891,1823969078395.643799,-403985493.607623,-8.210039,23.155523,-0.007611
-2.380000,1.660000,0.120045,0.040000,-8813815545.552233,-5284113506.677065,16043272089.593973,154325602.017182,-0.160368,0.241452,0.002908
-2.340000,1.660000,0.160034,0.040000,-8813907251.822372,220535337.161798,-226589985.159993,171889168.947223,0.004189,-0.004235,0.003238
-2.340000,1.700000,0.160563,0.040000,-8811474286.453075,249070124.541344,-247256248.383452,259416624.694164,0.004682,-0.004669,0.004888
-2.380000,1.700000,0.120749,0.040000,-8811078675.368355,-5271163668.543080,16023686268.865808,220920648.128331,-0.160087,0.241120,0.004162
-2.300000,1.660000,0.200027,0.040000,-8814353478.639292,150629749.159322,-152891772.227723,192015507.954900,0.002851,-0.002868,0.003618
-2.260000,1.660000,0.240022,0.040000,-8815046029.026762,91956419.591102,-94787211.755285,190696703.863064,0.001749,-0.001770,0.003593
-2.260000,1.700000,0.240376,0.040000,-8813330435.437012,74974662.310740,-77303361.937252,250256642.299686,0.001426,-0.001443,0.004715
-2.300000,1.700000,0.200451,0.040000,-8812277319.924536,152312539.488053,-153846353.667978,268702765.765111,0.002878,-0.002890,0.005063
-2.220000,1.660000,0.280019,0.040000,-8815890691.579479,43100846.965150,-39480243.797660,174816516.851746,0.000792,-0.000764,0.003294
-2.180000,1.660000,0.320017,0.040000,-8816813382.575926,10514173.009102,-15284326.774034,150305746.788173,0.000225,-0.000261,0.002832
-2.180000,1.700000,0.300053,0.040000,-8815725371.263689,-13969664.677884,11558208.028785,185976601.897008,-0.000250,0.000231,0.003504
-2.220000,1.700000,0.280322,0.040000,-8814509273.821217,21177403.552529,-19290590.309875,223569083.559372,0.000388,-0.000374,0.004212
2.180000,1.660000,0.320017,0.040000,-8816802522.556223,10514157.085759,-15284307.987227,-150305523.078202,0.000225,-0.000261,-0.002832
2.220000,1.660000,0.280019,0.040000,-8815879633.376404,43100784.089754,-39480190.247810,-174816256.873315,0.000792,-0.000764,-0.003294
2.220000,1.700000,0.280322,0.040000,-8814498217.994947,21177373.150829,-19290566.609183,-223568753.546799,0.000388,-0.000374,-0.004212
2.180000,1.700000,0.300053,0.040000,-8815714513.185966,-13969644.677904,11558187.466717,-185976326.917987,-0.000250,0.000231,-0.003504
2.260000,1.660000,0.240022,0.040000,-8815034772.533062,91956286.309579,-94787078.463797,-190696419.916593,0.001749,-0.001770,-0.003593
2.300000,1.660000,0.200027,0.040000,-8814342023.641026,150629531.221716,-152891555.111921,-192015220.690539,0.002851,-0.002868,-0.003618
2.300000,1.700000,0.200451,0.040000,-8812265868.333534,152312320.878670,-153846136.906573,-268702367.993631,0.002878,-0.002890,-0.005063
2.260000,1.700000,0.240376,0.040000,-8813319181.815292,74974554.820078,-77303255.142291,-250256272.696776,0.001426,-0.001443,-0.004715
2.340000,1.660000,0.160034,0.040000,-8813895597.969654,220535018.114392,-226589661.566613,-171888908.906489,0.004189,-0.004235,-0.003238
2.380000,1.660000,0.120045,0.040000,-8813803692.338583,-5284106064.676367,16043249466.622332,-154325365.547763,-0.160368,0.241452,-0.002908
2.380000,1.700000,0.120749,0.040000,-8811066826.554611,-5271156214.490181,16023663588.866003,-220920313.781679,-0.160087,0.241120,-0.004162
2.340000,1.700000,0.160563,0.040000,-8811462636.540258,249069766.526300,-247255896.978397,-259416238.097279,0.004682,-0.004669,-0.004888
2.420000,1.660000,0.080067,0.040000,-8814173718.384340,-93181338748.129929,585934284383.442627,17722510.521537,-4.540716,8.254216,0.000334
2.460000,1.660000,0.040135,0.040000,-8816585120.808153,160542345384.302887,1826189609532.524658,336249774.633665,-8.204644,23.177116,0.006335
2.460000,1.700000,0.042195,0.040000,-8810310568.067293,159181331270.265503,1823966499925.784668,403985265.524289,-8.210028,23.155490,0.007611
2.420000,1.700000,0.081120,0.040000,-8811249636.230183,-93259522192.634048,585730512094.897827,2488482.119114,-4.540595,8.251971,0.000047
2.500000,1.660000,0.003284,0.040000,-4408286190.183097,-1395522014.172226,2619070116313.002930,692119256.101029,-14.821844,34.549247,0.013040
2.500000,1.700000,0.013433,0.040000,-4406930424.722864,-1643792866.114825,2617680542970.622070,826097901.214637,-14.817265,34.532324,0.015564
-2.500000,1.740000,0.006269,0.040000,-4405201732.102625,-1246441302.238926,2616642773718.774414,-942199090.020949,-14.806159,34.516392,-0.017752
-2.500000,1.780000,0.003881,0.040000,-4402906849.019563,-879193478.285074,2614887318786.065430,-1359715770.882182,-14.791393,34.491164,-0.025618
-2.460000,1.740000,0.040488,0.040000,-8808914793.831018,160314835293.952148,1824055030274.367920,-486720128.641455,-8.195579,23.150251,-0.009170
-2.420000,1.740000,0.080245,0.040000,-8807604599.812542,-92907186010.951660,585259090108.638184,9497690.213291,-4.533284,8.243762,0.000179
-2.420000,1.780000,0.080094,0.040000,-8802945591.228754,-92572640153.818024,584680179955.826538,256657908.990416,-4.525600,8.234236,0.004836
-2.460000,1.780000,0.040188,0.040000,-8804848379.041943,160915086883.522430,1823092671464.457031,-520470025.233868,-8.182223,23.134166,-0.009806
-2.380000,1.740000,0.120164,0.040000,-8807763567.991529,-5139131235.717854,15890534567.090919,298137288.247406,-0.157593,0.238618,0.005617
-2.340000,1.740000,0.160123,0.040000,-8808641415.132877,272232861.497308,-273947650.998880,392175199.194170,0.005139,-0.005152,0.007389
-2.340000,1.780000,0.160047,0.040000,-8805380840.874222,254324310.221719,-254494876.310928,589787803.474864,0.004793,-0.004794,0.011112
-2.380000,1.780000,0.120063,0.040000,-8803734408.177883,-5036619978.260007,15786281235.885704,628386204.902290,-0.155652,0.236664,0.011839
-2.300000,1.740000,0.200098,0.040000,-8809961525.811424,131166654.392821,-131375677.431083,372638265.545924,0.002472,-0.002474,0.007021
-2.260000,1.740000,0.240082,0.040000,-8811499815.408390,34008069.039613,-34628957.495604,322151694.770694,0.000644,-0.000649,0.006070
-2.260000,1.780000,0.220477,0.040000,-8809621565.188126,-44307045.070115,44669400.853246,400036087.946826,-0.000837,0.000840,0.007537
-2.300000,1.780000,0.200038,0.040000,-8807444043.999075,64299312.228474,-62361897.898138,505165313.873329,0.001200,-0.001186,0.009518
-2.220000,1.740000,0.260038,0.040000,-8813100273.910513,-25189378.470887,24536744.976606,264219578.757587,-0.000471,0.000466,0.004978
-2.180000,1.740000,0.260061,0.040000,-8814666179.143385,-62907589.824333,56066714.786404,203880197.618493,-0.001147,0.001095,0.003841
-2.180000,1.780000,0.220072,0.040000,-8813704189.896276,-118929207.693850,117437610.273415,226382382.130188,-0.002232,0.002221,0.004265
-2.220000,1.780000,0.220045,0.040000,-8811737462.942677,-96291083.368546,98410290.068363,306794385.623061,-0.001826,0.001842,0.005780
-2.140000,1.740000,0.260390,0.040000,-8816143980.209984,-76541354.479298,74594146.800540,166085749.641406,-0.001431,0.001416,0.003129
-2.100000,1.740000,0.260034,0.040000,-8817508396.671968,-83018448.912591,78745071.160182,120937558.316092,-0.001540,0.001508,0.002279
-2.100000,1.780000,0.220040,0.040000,-8817082801.112104,-109196831.601150,111009100.768030,119831347.086864,-0.002068,0.002081,0.002258
-2.140000,1.780000,0.220461,0.040000,-8815487616.339647,-114084885.172699,117907486.444190,171085019.922261,-0.002171,0.002200,0.003223
-2.060000,1.740000,0.260066,0.040000,-8818751314.704926,-81901750.816496,78039872.833372,100585302.514479,-0.001521,0.001492,0.001895
-2.020000,1.740000,0.260377,0.040000,-8819874363.866392,-76575791.162040,73170190.265236,71465953.221543,-0.001423,0.001398,0.001346
-2.020000,1.780000,0.220446,0.040000,-8819752742.530142,-90969837.829206,91244895.285216,63366432.229868,-0.001715,0.001718,0.001194
-2.060000,1.780000,0.220078,0.040000,-8818499270.285105,-99664258.983280,101410460.598228,91444832.109290,-0.001888,0.001901,0.001723
-1.980000,1.740000,0.260030,0.040000,-8820884269.857805,-70070848.696064,66167654.120898,59631056.321496,-0.001298,0.001269,0.001123
-1.940000,1.740000,0.260072,0.040000,-8821790078.163303,-63779777.254269,60704134.054762,42246021.164972,-0.001184,0.001161,0.000796
-1.940000,1.780000,0.220085,0.040000,-8821840442.221012,-71871648.404129,70627339.196455,34192945.465945,-0.001347,0.001338,0.000644
-1.980000,1.780000,0.220035,0.040000,-8820860746.270155,-79582673.138828,79485509.718023,49420549.300038,-0.001499,0.001498,0.000931
-1.900000,1.740000,0.260365,0.040000,-8822601562.850046,-56875125.797718,53171965.060033,35419982.388256,-0.001051,0.001023,0.000667
-1.860000,1.740000,0.260027,0.040000,-8823328357.559477,-51414528.100510,48510633.978387,25064452.201049,-0.000952,0.000930,0.000472
-1.860000,1.780000,0.220031,0.040000,-8823476469.827765,-56040477.084763,54022451.442125,18393576.307854,-0.001044,0.001029,0.000347
-1.900000,1.780000,0.220431,0.040000,-8822707644.516104,-62034037.857453,60854273.451564,26808036.540372,-0.001162,0.001153,0.000505
-1.820000,1.740000,0.260077,0.040000,-8823979514.253891,-45485261.381857,42000353.475640,21085166.691644,-0.000837,0.000811,0.000397
-1.780000,1.740000,0.260352,0.040000,-8824563308.860256,-41147337.599853,38327073.373540,14851163.906830,-0.000759,0.000738,0.000280
-1.780000,1.780000,0.220416,0.040000,-8824766897.427357,-43849384.533103,41433582.811567,9634270.588798,-0.000812,0.000794,0.000182
-1.820000,1.780000,0.220092,0.040000,-8824159301.060268,-48334055.877002,46523379.068371,14386021.717228,-0.000900,0.000887,0.000271
-1.740000,1.740000,0.260023,0.040000,-8825087185.182930,-36396067.463015,33088160.958813,12493919.195864,-0.000667,0.000642,0.000235
-1.700000,1.740000,0.260083,0.040000,-8825557772.935452,-33049986.857726,30267144.009333,8687100.261352,-0.000607,0.000586,0.000164
-1.700000,1.780000,0.220099,0.040000,-8825792327.808914,-34660678.154361,32037284.638581,4679195.349473,-0.000638,0.000618,0.000088
-1.740000,1.780000,0.220027,0.040000,-8825308562.815407,-37992982.637087,35809092.637345,7412714.269249,-0.000703,0.000687,0.000140
-1.660000,1.740000,0.260340,0.040000,-8825980942.613928,-29334648.378789,26158083.922397,7268993.895997,-0.000535,0.000511,0.000137
-1.620000,1.740000,0.260020,0.040000,-8826361875.966089,-26771483.115678,24002704.807591,4912675.065711,-0.000489,0.000468,0.000093
-1.620000,1.780000,0.220024,0.040000,-8826612941.730808,-27747375.092035,25014329.511634,1839313.017535,-0.000507,0.000487,0.000035
-1.660000,1.780000,0.220401,0.040000,-8826225124.034407,-30236249.810021,27826488.299281,3430835.745724,-0.000556,0.000538,0.000065
-1.580000,1.740000,0.260090,0.040000,-8826705140.282639,-23884318.442665,20802330.878361,4049484.137139,-0.000433,0.000409,0.000076
-1.540000,1.740000,0.260327,0.040000,-8827014760.278151,-21915526.479396,19149417.966236,2575829.733370,-0.000397,0.000376,0.000049
-1.540000,1.780000,0.220387,0.040000,-8827273704.157454,-22512974.558226,19721771.498423,207193.714194,-0.000408,0.000387,0.000004
-1.580000,1.780000,0.220106,0.040000,-8826960967.736372,-24390696.027833,21840733.246938,1136295.651212,-0.000445,0.000426,0.000021
-1.500000,1.740000,0.260017,0.040000,-8827294284.530247,-19667573.929163,16653233.377290,2047363.592229,-0.000354,0.000331,0.000039
-1.460000,1.740000,0.260096,0.040000,-8827546845.260475,-18144779.211765,15376081.288255,1120820.813609,-0.000326,0.000305,0.000021
-1.460000,1.780000,0.220113,0.040000,-8827808483.402414,-18511560.505469,15689730.876817,-719289.453908,-0.000333,0.000312,-0.000014
-1.500000,1.780000,0.220020,0.040000,-8827555069.357924,-19944782.634492,17305648.350866,-182818.197187,-0.000361,0.000341,-0.000003
-1.420000,1.740000,0.260316,0.040000,-8827775211.239632,-16384549.833889,13418780.237098,798161.129371,-0.000292,0.000270,0.000015
-1.380000,1.740000,0.260015,0.040000,-8827981834.122452,-15196528.271790,12423080.372172,216652.859355,-0.000271,0.000250,0.000004
-1.380000,1.780000,0.220017,0.040000,-8828243067.940187,-15419890.963996,12582426.339584,-1225763.307443,-0.000274,0.000253,-0.000023
-1.420000,1.780000,0.220373,0.040000,-8828036940.137032,-16526798.795945,13829648.037483,-926185.683065,-0.000296,0.000276,-0.000017
-1.340000,1.740000,0.260103,0.040000,-8828168888.764078,-13808196.314569,10877610.311531,22676.771537,-0.000244,0.000222,0.000000
-1.300000,1.740000,0.260304,0.040000,-8828338308.162720,-12872979.506733,10094152.544456,-337848.691469,-0.000227,0.000206,-0.000006
-1.300000,1.780000,0.220359,0.040000,-8828597322.268869,-13005613.750191,10160768.574714,-1478772.700731,-0.000229,0.000208,-0.000028
-1.340000,1.780000,0.220121,0.040000,-8828429180.943083,-13870259.967918,11134499.450009,-1324063.206079,-0.000246,0.000225,-0.000025
-1.260000,1.740000,0.260012,0.040000,-8828491813.679876,-11769568.170420,8864754.381552,-450224.917688,-0.000205,0.000183,-0.000008
-1.220000,1.740000,0.260109,0.040000,-8828630941.152689,-11026937.101853,8242828.754178,-667325.378306,-0.000192,0.000171,-0.000013
-1.220000,1.780000,0.220129,0.040000,-8828886721.187658,-11101441.889086,8253696.131175,-1577524.359269,-0.000193,0.000172,-0.000030
-1.260000,1.780000,0.220014,0.040000,-8828749300.602182,-11783832.888503,9021881.839050,-1512186.824008,-0.000206,0.000186,-0.000028
-1.180000,1.740000,0.260292,0.040000,-8828757063.456450,-10143442.203761,7257737.364602,-727381.661808,-0.000175,0.000153,-0.000014
-1.140000,1.740000,0.260010,0.040000,-8828871410.011343,-9549000.518416,6760024.707253,-850368.449988,-0.000164,0.000143,-0.000016
-1.140000,1.780000,0.220012,0.040000,-8829123447.055140,-9585833.352185,6737635.272153,-1582166.102825,-0.000165,0.000143,-0.000030
-1.180000,1.780000,0.220346,0.040000,-8829011012.172909,-10129330.127355,7349318.928160,-1572166.760546,-0.000175,0.000154,-0.000030
-1.100000,1.740000,0.260117,0.040000,-8828975083.664965,-8836752.301713,5965393.240381,-876611.990288,-0.000150,0.000129,-0.000017
-1.060000,1.740000,0.260281,0.040000,-8829069075.323641,-8357547.657922,5564228.110603,-937312.931731,-0.000142,0.000121,-0.000018
-1.060000,1.780000,0.220332,0.040000,-8829317181.583061,-8369718.184954,5522388.840494,-1529693.889304,-0.000142,0.000120,-0.000029
-1.100000,1.780000,0.220138,0.040000,-8829225163.861305,-8806159.663365,6013436.652116,-1553861.834149,-0.000150,0.000129,-0.000029
-1.020000,1.740000,0.260008,0.040000,-8829154276.652334,-7779920.879827,4919466.199127,-941606.127716,-0.000130,0.000109,-0.000018
-0.980000,1.740000,0.260124,0.040000,-8829231491.117065,-7391294.762325,4594164.243510,-960836.448662,-0.000123,0.000102,-0.000018
-0.980000,1.780000,0.220146,0.040000,-8829475683.344240,-7387302.278822,4541441.008227,-1443099.076585,-0.000123,0.000102,-0.000027
-1.020000,1.780000,0.220009,0.040000,-8829400414.299177,-7740109.867873,4938309.672948,-1488124.966381,-0.000130,0.000109,-0.000028
-0.940000,1.740000,0.260270,0.040000,-8829301443.603134,-6920545.713105,4068481.912187,-950870.490703,-0.000114,0.000093,-0.000018
-0.900000,1.740000,0.260006,0.040000,-8829364788.807909,-6603887.673468,3803441.792467,-942395.976263,-0.000109,0.000087,-0.000018
-0.900000,1.780000,0.220007,0.040000,-8829605213.713860,-6589262.650517,3745126.293050,-1336740.625387,-0.000108,0.000087,-0.000025
-0.940000,1.780000,0.220319,0.040000,-8829543727.822306,-6875917.805690,4067571.404597,-1394217.124583,-0.000114,0.000093,-0.000026
-0.860000,1.740000,0.260131,0.040000,-8829422118.577351,-6218851.710248,3373323.620788,-923201.828328,-0.000101,0.000080,-0.000017
-0.820000,1.740000,0.260259,0.040000,-8829473968.330286,-5959999.490347,3156678.360508,-896208.865686,-0.000096,0.000075,-0.000017
-0.820000,1.780000,0.220306,0.040000,-8829710854.468536,-5938324.209250,3096004.114037,-1219596.533910,-0.000096,0.000074,-0.000023
-0.860000,1.780000,0.220155,0.040000,-8829660741.784523,-6172174.157034,3358987.673082,-1284197.301735,-0.000100,0.000079,-0.000024
-0.780000,1.740000,0.260005,0.040000,-8829520822.693102,-5644420.620830,2804045.568727,-871096.748166,-0.000090,0.000069,-0.000016
-0.740000,1.740000,0.260139,0.040000,-8829563120.449318,-5432516.436489,2626700.135181,-831757.270224,-0.000086,0.000065,-0.000016
-0.740000,1.780000,0.220164,0.040000,-8829796747.029400,-5406239.292533,2565652.383940,-1097243.421207,-0.000086,0.000064,-0.000021
-0.780000,1.780000,0.220006,0.040000,-8829756041.873636,-5597339.014335,2780527.882487,-1165605.504926,-0.000090,0.000068,-0.000022
-0.700000,1.740000,0.260249,0.040000,-8829601258.893341,-5173833.914157,2337572.438456,-802910.410510,-0.000081,0.000060,-0.000015
-0.660000,1.740000,0.260003,0.040000,-8829635597.664379,-5000502.010616,2192512.603270,-755388.542130,-0.000078,0.000057,-0.000014
-0.660000,1.780000,0.220004,0.040000,-8829866274.331078,-4971221.348059,2132250.965800,-973071.159727,-0.000078,0.000056,-0.000018
-0.700000,1.780000,0.220294,0.040000,-8829833370.483303,-5127245.312076,2307713.102539,-1043113.322979,-0.000081,0.000059,-0.000020
-0.620000,1.740000,0.260147,0.040000,-8829666462.126070,-4788965.940984,1956030.906189,-724244.041880,-0.000074,0.000053,-0.000014
-0.580000,1.740000,0.260238,0.040000,-8829694146.347023,-4647717.396772,1837823.613085,-671352.844013,-0.000072,0.000051,-0.000013
-0.580000,1.780000,0.220282,0.040000,-8829922200.140362,-4616414.695866,1778966.241669,-849072.201679,-0.000071,0.000050,-0.000016
-0.620000,1.780000,0.220174,0.040000,-8829895785.756094,-4743435.053655,1921773.876471,-919536.730839,-0.000073,0.000052,-0.000017
-0.540000,1.740000,0.260002,0.040000,-8829718915.730574,-4475741.037127,1645533.302631,-638849.332769,-0.000068,0.000047,-0.000012
-0.500000,1.740000,0.260155,0.040000,-8829741009.334667,-4361540.653080,1549963.188233,-582484.975659,-0.000066,0.000045,-0.000011
-0.500000,1.780000,0.220183,0.040000,-8829966776.394680,-4328924.202804,1492835.682048,-726337.527523,-0.000066,0.000044,-0.000014
-0.540000,1.780000,0.220003,0.040000,-8829945783.800549,-4431533.122241,1608177.114660,-796500.079218,-0.000068,0.000046,-0.000015
-0.460000,1.740000,0.260228,0.040000,-8829760641.916702,-4223224.275491,1395286.588679,-549225.698358,-0.000064,0.000042,-0.000010
-0.420000,1.740000,0.260001,0.040000,-8829778005.734135,-4132173.664020,1319090.354642,-490658.151499,-0.000062,0.000041,-0.000009
-0.420000,1.780000,0.220002,0.040000,-8830001826.162827,-4098674.812631,1263805.176990,-605358.646456,-0.000061,0.000040,-0.000011
-0.460000,1.780000,0.220270,0.040000,-8829985393.038240,-4180361.072089,1355664.836488,-674860.574460,-0.000063,0.000042,-0.000013
-0.380000,1.740000,0.260163,0.040000,-8829793272.126217,-4022953.898969,1196937.704673,-457019.649746,-0.000060,0.000039,-0.000009
-0.340000,1.740000,0.260218,0.040000,-8829806592.899479,-3952059.279063,1137609.487571,-397089.843991,-0.000059,0.000037,-0.000007
-0.340000,1.780000,0.220258,0.040000,-8830028807.733934,-3917857.540498,1084127.044830,-486247.450882,-0.000058,0.000036,-0.000009
-0.380000,1.780000,0.220193,0.040000,-8830016247.145649,-3981448.668618,1155611.722751,-554961.500772,-0.000059,0.000038,-0.000010
-0.300000,1.740000,0.260001,0.040000,-8829818101.535913,-3868451.018739,1044092.374261,-363295.299475,-0.000057,0.000036,-0.000007
-0.260000,1.740000,0.260172,0.040000,-8829827914.239927,-3815453.662176,999741.684320,-302550.800600,-0.000056,0.000035,-0.000006
-0.260000,1.780000,0.220203,0.040000,-8830048863.838970,-3780700.684057,947983.677306,-368874.998702,-0.000055,0.000034,-0.000007
-0.300000,1.780000,0.220001,0.040000,-8830039641.284950,-3828237.503473,1001401.281378,-436818.537907,-0.000056,0.000035,-0.000008
-0.220000,1.740000,0.260209,0.040000,-8829836130.838066,-3754861.459325,931963.641366,-268720.239894,-0.000055,0.000034,-0.000005
-0.180000,1.740000,0.260000,0.040000,-8829842835.543104,-3718115.195878,901212.709406,-207510.341676,-0.000054,0.000033,-0.000004
-0.180000,1.780000,0.220000,0.040000,-8830062858.916859,-3682863.200017,851059.439080,-252943.938298,-0.000053,0.000032,-0.000005
-0.220000,1.780000,0.220247,0.040000,-8830056575.039982,-3715759.772278,888064.166480,-320243.433523,-0.000054,0.000033,-0.000006
-0.140000,1.740000,0.260181,0.040000,-8829848097.592155,-3678698.258098,857119.019719,-173695.723507,-0.000053,0.000032,-0.000003
-0.100000,1.740000,0.260199,0.040000,-8829851971.766930,-3657083.289981,839030.670658,-112239.972468,-0.000053,0.000032,-0.000002
-0.100000,1.780000,0.220235,0.040000,-8830071406.526333,-3621240.503686,790321.541029,-138060.285225,-0.000052,0.000031,-0.000003
-0.140000,1.780000,0.220214,0.040000,-8830067784.534794,-3640606.475815,812090.015810,-204903.417832,-0.000053,0.000031,-0.000004
-0.060000,1.740000,0.260000,0.040000,-8829854498.802439,-3637662.557171,817305.053685,-78450.501593,-0.000053,0.000031,-0.000001
-0.020000,1.740000,0.260190,0.040000,-8829855705.689358,-3630528.598205,811335.042208,-16890.211880,-0.000052,0.000031,-0.000000
-0.020000,1.780000,0.220224,0.040000,-8830074888.388105,-3594050.212640,763948.917726,-23779.731042,-0.000052,0.000030,-0.000000
-0.060000,1.780000,0.220000,0.040000,-8830073765.507923,-3600470.460135,771143.003523,-90381.539103,-0.000052,0.000031,-0.000002
0.020000,1.740000,0.260190,0.040000,-8829855605.873533,-3630528.490863,811334.927386,16888.381946,-0.000052,0.000031,0.000000
0.060000,1.740000,0.260000,0.040000,-8829854199.355082,-3637662.302132,817304.803302,78448.668846,-0.000053,0.000031,0.000001
0.060000,1.780000,0.220000,0.040000,-8830073466.055937,-3600470.205276,771142.746722,90379.502640,-0.000052,0.000031,0.000002
0.020000,1.780000,0.220224,0.040000,-8830074788.570730,-3594050.098432,763948.816211,23777.696303,-0.000052,0.000030,0.000000
0.100000,1.740000,0.260199,0.040000,-8829851472.688492,-3657082.825292,839030.180514,112238.137368,-0.000053,0.000032,0.000002
0.140000,1.740000,0.260181,0.040000,-8829847398.883381,-3678697.633310,857118.397367,173693.889854,-0.000053,0.000032,0.000003
0.140000,1.780000,0.220214,0.040000,-8830067085.815176,-3640605.855798,812089.385414,204901.371889,-0.000053,0.000031,0.000004
0.100000,1.780000,0.220235,0.040000,-8830070907.440168,-3621240.022485,790321.073552,138058.245198,-0.000052,0.000031,0.000003
0.180000,1.740000,0.260000,0.040000,-8829841937.205040,-3718114.344551,901211.845492,207508.506845,-0.000054,0.000033,0.000004
0.220000,1.740000,0.260209,0.040000,-8829835032.872044,-3754860.438960,931962.641856,268718.404007,-0.000055,0.000034,0.000005
0.220000,1.780000,0.220247,0.040000,-8830055477.056873,-3715758.767674,888063.157064,320241.373380,-0.000054,0.000033,0.000006
0.180000,1.780000,0.220000,0.040000,-8830061960.564819,-3682862.347239,851058.590198,252941.885738,-0.000053,0.000032,0.000005
0.260000,1.740000,0.260172,0.040000,-8829826616.647594,-3815452.406740,999740.423604,302548.962428,-0.000056,0.000035,0.000006
0.300000,1.740000,0.260001,0.040000,-8829816604.319233,-3868449.589405,1044090.961523,363293.459676,-0.000057,0.000036,0.000007
0.300000,1.780000,0.220001,0.040000,-8830038144.044922,-3828236.091136,1001399.858365,436816.459432,-0.000056,0.000035,0.000008
0.260000,1.780000,0.220203,0.040000,-8830047566.226414,-3780699.432139,947982.433499,368872.930668,-0.000055,0.000034,0.000007
0.340000,1.740000,0.260218,0.040000,-8829804896.060778,-3952057.597360,1137607.797546,397088.001309,-0.000059,0.000037,0.000007
0.380000,1.740000,0.260163,0.040000,-8829791375.668125,-4022952.033407,1196935.844082,457017.806134,-0.000060,0.000039,0.000009
0.380000,1.780000,0.220193,0.040000,-8830014350.657923,-3981446.814056,1155609.858507,554959.395288,-0.000059,0.000038,0.000010
0.340000,1.780000,0.220258,0.040000,-8830027110.868736,-3917855.858921,1084125.376383,486245.361632,-0.000058,0.000036,0.000009
0.420000,1.740000,0.260001,0.040000,-8829775909.659714,-4132171.518609,1319088.192536,490656.303507,-0.000062,0.000041,0.000009
0.460000,1.740000,0.260228,0.040000,-8829758346.229355,-4223221.911194,1395284.252797,549223.852506,-0.000064,0.000042,0.000010
0.460000,1.780000,0.220270,0.040000,-8829983097.314875,-4180358.731355,1355662.486284,674858.436542,-0.000063,0.000042,0.000013
0.420000,1.780000,0.220002,0.040000,-8829999730.055584,-4098672.663780,1263803.041248,605356.524514,-0.000061,0.000040,0.000011
0.500000,1.740000,0.260155,0.040000,-8829738514.038179,-4361537.984422,1549960.505576,582483.128097,-0.000066,0.000045,0.000011
0.540000,1.740000,0.260002,0.040000,-8829716220.829193,-4475738.126038,1645530.421353,638847.490897,-0.000068,0.000047,0.000012
0.540000,1.780000,0.220003,0.040000,-8829943088.856733,-4431530.238301,1608174.215566,796497.909967,-0.000068,0.000046,0.000015
0.500000,1.780000,0.220183,0.040000,-8829964281.058977,-4328921.534452,1492833.025070,726335.374994,-0.000066,0.000044,0.000014
0.580000,1.740000,0.260238,0.040000,-8829691251.845411,-4647714.146113,1837820.339480,671351.000901,-0.000072,0.000051,0.000013
0.620000,1.740000,0.260147,0.040000,-8829663368.029413,-4788962.415198,1956027.405339,724242.212054,-0.000074,0.000053,0.000014
0.620000,1.780000,0.220174,0.040000,-8829892691.610556,-4743431.551231,1921770.357124,919534.523412,-0.000073,0.000052,0.000017
0.580000,1.780000,0.220282,0.040000,-8829919305.593111,-4616411.438727,1778962.999944,849070.013281,-0.000071,0.000050,0.000016
0.660000,1.740000,0.260003,0.040000,-8829632303.978365,-5000498.083339,2192508.663816,755386.714308,-0.000078,0.000057,0.000014
0.700000,1.740000,0.260249,0.040000,-8829597765.624170,-5173829.676945,2337568.227552,802908.605784,-0.000081,0.000060,0.000015
0.700000,1.780000,0.220294,0.040000,-8829829877.158772,-5127241.092924,2307708.871047,1043111.080272,-0.000081,0.000059,0.000020
0.660000,1.780000,0.220004,0.040000,-8829862980.592928,-4971217.416925,2132247.052844,973068.932273,-0.000078,0.000056,0.000018
0.740000,1.740000,0.260139,0.040000,-8829559427.603844,-5432511.733867,2626695.411214,831755.470927,-0.000086,0.000065,0.000016
0.780000,1.740000,0.260005,0.040000,-8829516930.278776,-5644415.552202,2804040.535493,871094.983387,-0.000090,0.000069,0.000016
0.780000,1.780000,0.220006,0.040000,-8829752149.397429,-5597333.968359,2780522.813138,1165603.229727,-0.000090,0.000068,0.000022
0.740000,1.780000,0.220164,0.040000,-8829793054.125296,-5406234.577518,2565647.690027,1097241.158695,-0.000086,0.000064,0.000021
0.820000,1.740000,0.260259,0.040000,-8829469876.355274,-5959993.884162,3156672.727939,896207.113208,-0.000096,0.000075,0.000017
0.860000,1.740000,0.260131,0.040000,-8829417827.050549,-6218845.672758,3373317.622512,923200.135616,-0.000101,0.000080,0.000017
0.860000,1.780000,0.220155,0.040000,-8829656450.189367,-6172168.138620,3358981.622594,1284195.003232,-0.000100,0.000079,0.000024
0.820000,1.780000,0.220306,0.040000,-8829706762.428410,-5938318.578076,3095998.511717,1219594.240009,-0.000096,0.000074,0.000023
0.900000,1.740000,0.260006,0.040000,-8829360297.739056,-6603880.993258,3803435.087406,942394.307617,-0.000109,0.000087,0.000018
0.940000,1.740000,0.260270,0.040000,-8829296753.002806,-6920538.520173,4068474.771615,950868.913188,-0.000114,0.000093,0.000018
0.940000,1.780000,0.220319,0.040000,-8829539037.147261,-6875910.627260,4067564.189158,1394214.821487,-0.000114,0.000093,0.000026
0.900000,1.780000,0.220007,0.040000,-8829600722.573441,-6589255.940309,3745119.604090,1336738.311807,-0.000108,0.000087,0.000025
0.980000,1.740000,0.260124,0.040000,-8829226600.996845,-7391286.808049,4594156.258355,960834.909492,-0.000123,0.000102,0.000018
1.020000,1.740000,0.260008,0.040000,-8829149187.024836,-7779912.305551,4919457.694005,941604.722999,-0.000130,0.000109,0.000018
1.020000,1.780000,0.220009,0.040000,-8829395324.590826,-7740101.299292,4938301.061406,1488122.689898,-0.000130,0.000109,0.000028
0.980000,1.780000,0.220146,0.040000,-8829470793.146219,-7387294.267216,4541433.039837,1443096.767775,-0.000123,0.000102,0.000027
1.060000,1.740000,0.260281,0.040000,-8829063786.202644,-8357538.170012,5564218.586720,937311.591247,-0.000142,0.000121,0.000018
1.100000,1.740000,0.260117,0.040000,-8828969595.065504,-8836742.067701,5965383.084308,876610.856851,-0.000150,0.000129,0.000017
1.100000,1.780000,0.220138,0.040000,-8829219675.175276,-8806149.410214,6013426.345532,1553859.636524,-0.000150,0.000129,0.000029
1.060000,1.780000,0.220332,0.040000,-8829311892.378275,-8369708.620791,5522379.300751,1529691.620976,-0.000142,0.000120,0.000029
1.140000,1.740000,0.260010,0.040000,-8828865721.949879,-9548989.174734,6760013.316187,850367.415221,-0.000164,0.000143,0.000016
1.180000,1.740000,0.260292,0.040000,-8828751175.950966,-10143429.940563,7257725.203180,727380.928695,-0.000175,0.000153,0.000014
1.180000,1.780000,0.220346,0.040000,-8829005124.575798,-10129317.818530,7349306.544283,1572164.720802,-0.000175,0.000154,0.000030
1.140000,1.780000,0.220012,0.040000,-8829117758.904474,-9585821.882914,6737623.839374,1582163.936705,-0.000165,0.000143,0.000030
1.220000,1.740000,0.260109,0.040000,-8828624854.222872,-11026923.484300,8242815.076088,667324.799433,-0.000192,0.000171,0.000013
1.260000,1.740000,0.260012,0.040000,-8828485527.347324,-11769553.414391,8864739.755282,450224.795007,-0.000205,0.000183,0.000008
1.260000,1.780000,0.220014,0.040000,-8828743014.174046,-11783818.041332,9021866.884417,1512185.073833,-0.000206,0.000186,0.000028
1.220000,1.780000,0.220129,0.040000,-8828880634.164080,-11101428.083313,8253682.355544,1577522.390467,-0.000193,0.000172,0.000030
1.300000,1.740000,0.260304,0.040000,-8828331822.451105,-12872963.071500,10094136.047298,337848.804702,-0.000227,0.000206,0.000006
1.340000,1.740000,0.260103,0.040000,-8828162203.699432,-13808178.455904,10877592.631433,-22675.985448,-0.000244,0.000222,-0.000000
1.340000,1.780000,0.220121,0.040000,-8828422495.780630,-13870241.947411,11134481.284222,1324061.949068,-0.000246,0.000225,0.000025
1.300000,1.780000,0.220359,0.040000,-8828590836.460310,-13005597.037672,10160751.891372,1478771.084386,-0.000229,0.000208,0.000028
1.380000,1.740000,0.260015,0.040000,-8827974949.733372,-15196508.323716,12423060.356117,-216651.710770,-0.000271,0.000250,-0.000004
1.420000,1.740000,0.260316,0.040000,-8827768127.557680,-16384528.097241,13418758.727930,-798158.968150,-0.000292,0.000270,-0.000015
1.420000,1.780000,0.220373,0.040000,-8828029856.357800,-16526776.771162,13829625.808304,926185.252674,-0.000296,0.000276,0.000017
1.380000,1.780000,0.220017,0.040000,-8828236183.453169,-15419870.598967,12582405.992135,1225762.290080,-0.000274,0.000253,0.000023
1.460000,1.740000,0.260096,0.040000,-8827539562.320440,-18144754.844723,15376056.847062,-1120818.093585,-0.000326,0.000305,-0.000021
1.500000,1.740000,0.260017,0.040000,-8827286802.370613,-19667547.289987,16653207.028964,-2047359.337959,-0.000354,0.000331,-0.000039
1.500000,1.780000,0.220020,0.040000,-8827547587.105835,-19944755.495640,17305620.921781,182819.120286,-0.000361,0.000341,0.000003
1.460000,1.780000,0.220113,0.040000,-8827801200.366856,-18511535.506955,15689705.863310,719289.430302,-0.000333,0.000312,0.000014
1.540000,1.740000,0.260327,0.040000,-8827007078.941528,-21915496.495970,19149387.906015,-2575824.609908,-0.000397,0.000376,-0.000049
1.580000,1.740000,0.260090,0.040000,-8826697259.816294,-23884285.537619,20802298.365812,-4049476.659560,-0.000433,0.000409,-0.000076
1.580000,1.780000,0.220106,0.040000,-8826953087.189159,-24390662.275812,21840699.078923,-1136292.498759,-0.000445,0.000426,-0.000021
1.540000,1.780000,0.220387,0.040000,-8827266022.733116,-22512943.595762,19721740.473172,-207192.103835,-0.000408,0.000387,-0.000004
1.620000,1.740000,0.260020,0.040000,-8826353796.422560,-26771445.934364,24002667.561341,-4912666.219122,-0.000489,0.000468,-0.000093
1.660000,1.740000,0.260340,0.040000,-8825972664.051687,-29334607.415672,26158043.495295,-7268981.389532,-0.000535,0.000511,-0.000137
1.660000,1.780000,0.220401,0.040000,-8826216845.413649,-30236207.414261,27826445.283259,-3430828.906898,-0.000556,0.000538,-0.000065
1.620000,1.780000,0.220024,0.040000,-8826604862.115870,-27747336.379912,25014290.635077,-1839308.706663,-0.000507,0.000487,-0.000035
1.700000,1.740000,0.260083,0.040000,-8825549295.419725,-33049940.424454,30267097.531417,-8687085.566543,-0.000607,0.000586,-0.000164
1.740000,1.740000,0.260023,0.040000,-8825078508.786575,-36396016.113044,33088110.336312,-12493898.705809,-0.000667,0.000642,-0.000235
1.740000,1.780000,0.220027,0.040000,-8825299886.400270,-37992928.832986,35809037.870231,-7412701.245241,-0.000703,0.000687,-0.000140
1.700000,1.780000,0.220099,0.040000,-8825783850.251801,-34660629.245579,32037235.416515,-4679186.541082,-0.000638,0.000618,-0.000088
1.780000,1.740000,0.260352,0.040000,-8824554433.664740,-41147279.287006,38327015.064897,-14851139.849749,-0.000759,0.000738,-0.000280
1.820000,1.740000,0.260077,0.040000,-8823970440.350439,-45485196.714233,42000289.795733,-21085133.287436,-0.000837,0.000811,-0.000397
1.820000,1.780000,0.220092,0.040000,-8824150227.206394,-48333986.928421,46523308.604109,-14385998.120051,-0.000900,0.000887,-0.000271
1.780000,1.780000,0.220416,0.040000,-8824758022.242727,-43849322.138819,41433519.803621,-9634254.162972,-0.000812,0.000794,-0.000182
1.860000,1.740000,0.260027,0.040000,-8823319085.050173,-51414454.764286,48510560.779192,-25064412.861867,-0.000952,0.000930,-0.000472
1.900000,1.740000,0.260365,0.040000,-8822592091.849085,-56875044.492369,53171885.057288,-35419927.700209,-0.001051,0.001023,-0.000667
1.900000,1.780000,0.220431,0.040000,-8822698173.681223,-62033948.901587,60854182.079588,-26807994.424541,-0.001162,0.001153,-0.000505
1.860000,1.780000,0.220031,0.040000,-8823467197.418581,-56040396.872883,54022370.027474,-18393546.699549,-0.001044,0.001029,-0.000347
1.940000,1.740000,0.260072,0.040000,-8821780408.798109,-63779685.869221,60704043.058605,-42245956.409281,-0.001184,0.001161,-0.000796
1.980000,1.740000,0.260030,0.040000,-8820874402.269850,-70070748.137768,66167555.160031,-59630966.023788,-0.001298,0.001269,-0.001123
1.980000,1.780000,0.220035,0.040000,-8820850879.047422,-79582558.629695,79485391.223542,-49420473.888417,-0.001499,0.001498,-0.000931
1.940000,1.780000,0.220085,0.040000,-8821830773.108091,-71871545.113751,70627233.590282,-34192892.433127,-0.001347,0.001338,-0.000644
2.020000,1.740000,0.260377,0.040000,-8819864298.211422,-76575681.088345,73170081.055016,-71465845.603390,-0.001423,0.001398,-0.001346
2.060000,1.740000,0.260066,0.040000,-8818741051.151926,-81901632.936539,78039756.498014,-100585152.365141,-0.001521,0.001492,-0.001895
2.060000,1.780000,0.220078,0.040000,-8818489007.441448,-99664115.237959,101410310.210032,-91444695.354590,-0.001888,0.001901,-0.001723
2.020000,1.780000,0.220446,0.040000,-8819742677.388826,-90969706.743323,91244759.673859,-63366336.415956,-0.001715,0.001718,-0.001194
2.100000,1.740000,0.260034,0.040000,-8817497935.399853,-83018329.212881,78744953.590473,-120937378.537570,-0.001540,0.001508,-0.002279
2.140000,1.740000,0.260390,0.040000,-8816133321.400269,-76541243.953566,74594035.011958,-166085504.205505,-0.001431,0.001416,-0.003129
2.140000,1.780000,0.220461,0.040000,-8815476958.839380,-114084720.206652,117907311.828710,-171084767.593348,-0.002171,0.002200,-0.003223
2.100000,1.780000,0.220040,0.040000,-8817072340.807810,-109196673.875247,111008936.343900,-119831169.088596,-0.002068,0.002081,-0.002258
2.180000,1.740000,0.260061,0.040000,-8814655322.966331,-62907498.518231,56066629.312457,-203879897.214869,-0.001147,0.001095,-0.003841
2.220000,1.740000,0.260038,0.040000,-8813089220.500511,-25189341.065838,24536704.466732,-264219190.666066,-0.000471,0.000466,-0.004978
2.220000,1.780000,0.220045,0.040000,-8811726411.880667,-96290942.821643,98410142.436914,-306793936.936952,-0.001826,0.001842,-0.005780
2.180000,1.780000,0.220072,0.040000,-8813693335.478937,-118929035.199047,117437435.890498,-226382049.754898,-0.002232,0.002221,-0.004265
2.260000,1.740000,0.240082,0.040000,-8811488564.823502,34008021.885300,-34628913.491199,-322151222.181007,0.000644,-0.000649,-0.006070
2.300000,1.740000,0.200098,0.040000,-8809950077.971540,131166468.202224,-131375494.988621,-372637718.634633,0.002472,-0.002474,-0.007021
2.300000,1.780000,0.200038,0.040000,-8807432600.196463,64299224.254996,-62361816.721215,-505164577.565970,0.001200,-0.001186,-0.009518
2.260000,1.780000,0.220477,0.040000,-8809610317.705797,-44306978.310765,44669329.546495,-400035504.274301,-0.000837,0.000840,-0.007537
2.340000,1.740000,0.160123,0.040000,-8808629769.734604,272232473.046266,-273947264.185777,-392174621.609009,0.005139,-0.005152,-0.007389
2.380000,1.740000,0.120164,0.040000,-8807751724.410101,-5139123980.542381,15890512112.596077,-298136842.183175,-0.157593,0.238618,-0.005617
2.380000,1.780000,0.120063,0.040000,-8803722570.850607,-5036612877.524702,15786258961.479727,-628385284.413033,-0.155652,0.236663,-0.011839
2.340000,1.780000,0.160047,0.040000,-8805369200.600611,254323950.907311,-254494520.856523,-589786942.868659,0.004793,-0.004794,-0.011112
2.420000,1.740000,0.080245,0.040000,-8807592557.025326,-92907054704.400894,585258262936.813354,-9497991.248684,-4.533277,8.243750,-0.000179
2.460000,1.740000,0.040488,0.040000,-8808902549.744986,160314608772.825592,1824052452253.598633,486718999.832742,-8.195568,23.150218,0.009170
2.460000,1.780000,0.040188,0.040000,-8804836141.358671,160914858684.869415,1823090095584.777100,520469447.776792,-8.182212,23.134133,0.009806
2.420000,1.780000,0.080094,0.040000,-8802933555.633852,-92572509532.558411,584679353842.828979,-256657367.048280,-4.525593,8.234225,-0.004836
2.500000,1.740000,0.006269,0.040000,-4405195512.388988,-1246439415.510371,2616639075681.565430,942196989.607654,-14.806138,34.516343,0.017752
2.500000,1.780000,0.003881,0.040000,-4402900622.593533,-879196921.984032,2614883626563.197266,1359714089.444603,-14.791372,34.491116,0.025618
-2.500000,1.820000,0.014030,0.040000,-4399729471.797509,-662761621.486768,2611730507631.588379,-1662157939.848905,-14.770696,34.448308,-0.031316
-2.500000,1.860000,0.005672,0.040000,-4395028019.276437,1166418723.275959,2607949637049.224609,-1559190439.684597,-14.725202,34.388105,-0.029376
-2.460000,1.820000,0.042389,0.040000,-8794905963.561575,159942856790.186768,1819675809928.655518,-477179996.361510,-8.175733,23.094598,-0.008990
-2.420000,1.820000,0.081221,0.040000,-8796907112.589773,-92419307763.268433,584019625812.595581,603379749.609743,-4.519844,8.224658,0.011368
-2.420000,1.860000,0.080201,0.040000,-8789011841.442173,-92094467810.576477,583076753413.857788,1358322597.771399,-4.510230,8.210387,0.025592
-2.460000,1.860000,0.040400,0.040000,-8787936080.875393,161489462178.736786,1818068733485.460693,-47145015.049631,-8.146252,23.064662,-0.000888
-2.380000,1.820000,0.120817,0.040000,-8798867444.620888,-5070236371.981671,15818715136.864258,1018495856.568381,-0.156278,0.237281,0.019189
-2.340000,1.820000,0.160614,0.040000,-8801733341.519617,133775599.551833,-120437309.040621,863416061.068561,0.002445,-0.002344,0.016267
-2.340000,1.860000,0.140078,0.040000,-8797905040.653339,-429172355.938552,287440432.950985,1191118343.221048,-0.007285,0.006217,0.022441
-2.380000,1.860000,0.120134,0.040000,-8793157952.263237,-4789899652.651134,15837305187.047037,1628126852.287037,-0.152686,0.235942,0.030675
-2.300000,1.820000,0.180081,0.040000,-8804838380.211277,-84365760.098274,88940253.270500,652604352.199337,-0.001615,0.001650,0.012295
-2.260000,1.820000,0.180582,0.040000,-8807823977.133902,-176786716.392130,177811761.156553,465752192.157617,-0.003337,0.003344,0.008775
-2.260000,1.860000,0.140748,0.040000,-8806320904.652658,62659008.344094,219072252.548335,483847137.811177,-0.000412,0.002535,0.009116
-2.300000,1.860000,0.140104,0.040000,-8802390152.560461,-542250986.773643,428467745.967702,754221915.123694,-0.009573,0.008716,0.014210
-2.220000,1.820000,0.180055,0.040000,-8810536893.535400,-201563418.805751,200393618.968258,324239732.594005,-0.003791,0.003782,0.006109
-2.180000,1.820000,0.180088,0.040000,-8812934600.723711,-194843439.371406,192603815.287242,223807041.100024,-0.003658,0.003641,0.004217
-2.180000,1.860000,0.140113,0.040000,-8812478562.893370,-445819224.865435,336686953.560256,179483300.941946,-0.007783,0.006960,0.003382
-2.220000,1.860000,0.140070,0.040000,-8809663875.658772,-597587010.809359,424568002.811210,312832416.410201,-0.010281,0.008977,0.005894
-2.140000,1.820000,0.180563,0.040000,-8815026234.958672,-177113938.966566,173581384.188305,154420973.327627,-0.003317,0.003290,0.002909
-2.100000,1.820000,0.180049,0.040000,-8816841355.323683,-154816322.117512,151208483.973056,106847645.628001,-0.002896,0.002869,0.002013
-2.100000,1.860000,0.140063,0.040000,-8816845632.402271,-473877476.129561,287990812.838632,86601055.171171,-0.007877,0.006477,0.001632
-2.140000,1.860000,0.140724,0.040000,-8814846564.086529,200597097.721914,76553010.708633,123106139.970391,0.002213,-0.000124,0.002319
-2.060000,1.820000,0.180096,0.040000,-8818414972.809820,-133216564.080639,129745378.277189,74158281.239810,-0.002490,0.002464,0.001397
-2.020000,1.820000,0.180545,0.040000,-8819781004.187267,-113887274.210922,110624858.119320,51574672.925416,-0.002127,0.002103,0.000972
-2.020000,1.860000,0.140699,0.040000,-8819990294.395687,299677834.515654,-24618540.728651,33166841.035790,0.004091,-0.002019,0.000625
-2.060000,1.860000,0.140123,0.040000,-8818542126.393755,-300451034.425503,204904819.715991,37087261.293166,-0.005121,0.004401,0.000699
-1.980000,1.820000,0.180043,0.040000,-8820969797.402225,-97562989.851833,94297380.271820,35840503.334433,-0.001820,0.001795,0.000675
-1.940000,1.820000,0.180104,0.040000,-8822007517.108160,-83585820.964935,80433617.688125,24778565.731146,-0.001557,0.001533,0.000467
-1.940000,1.860000,0.140133,0.040000,-8822307425.628510,-212443034.060703,131058298.294479,-1378009.704312,-0.003543,0.002929,-0.000026
-1.980000,1.860000,0.140056,0.040000,-8821233754.740265,-408738448.603583,211626183.365915,27689153.907588,-0.006587,0.005101,0.000522
-1.900000,1.820000,0.180526,0.040000,-8822916319.145275,-71768238.709397,68768548.452544,16948524.228881,-0.001335,0.001313,0.000319
-1.860000,1.820000,0.180038,0.040000,-8823714813.217709,-62159468.209342,59101890.456391,11359615.847227,-0.001154,0.001131,0.000214
-1.860000,1.860000,0.140049,0.040000,-8824051965.050077,-382708050.886456,174801246.032871,10440195.706199,-0.006035,0.004468,0.000197
-1.900000,1.860000,0.140676,0.040000,-8823239308.240131,348358699.644504,-76110644.612562,8534110.648677,0.005024,-0.002973,0.000161
-1.820000,1.820000,0.180112,0.040000,-8824418589.375944,-53918739.476459,50934340.944046,7341608.006713,-0.000999,0.000977,0.000138
-1.780000,1.820000,0.180508,0.040000,-8825040714.852798,-46918056.166808,44044931.103373,4451536.030100,-0.000868,0.000846,0.000084
-1.780000,1.860000,0.140653,0.040000,-8825389428.820339,371059835.394259,-102407824.573470,1677334.691971,0.005473,-0.003448,0.000032
-1.820000,1.860000,0.140144,0.040000,-8824763691.780607,-155763152.858973,88641650.119776,-12785587.985629,-0.002555,0.002049,-0.000241
-1.740000,1.820000,0.180034,0.040000,-8825592168.325146,-41296947.031539,38335446.127982,2361076.206006,-0.000761,0.000739,0.000044
-1.700000,1.820000,0.180120,0.040000,-8826082205.548807,-36335313.265482,33430110.634442,844562.858266,-0.000668,0.000646,0.000016
-1.700000,1.860000,0.140155,0.040000,-8826429980.868212,-114330576.390500,61564272.273604,-16158157.348752,-0.001856,0.001458,-0.000304
-1.740000,1.860000,0.140043,0.040000,-8825941465.023201,-375449903.948399,157210224.744243,5030699.177045,-0.005840,0.004195,0.000095
-1.660000,1.820000,0.180490,0.040000,-8826518661.328802,-32051537.999011,29236101.422223,-241299.991768,-0.000588,0.000567,-0.000005
-1.620000,1.820000,0.180029,0.040000,-8826908196.499407,-28669747.605460,25751702.655793,-1020638.385802,-0.000524,0.000502,-0.000019
-1.620000,1.860000,0.140037,0.040000,-8827249060.877924,-377152504.715757,149103923.750280,3346728.295702,-0.005817,0.004098,0.000063
-1.660000,1.860000,0.140630,0.040000,-8826863468.924042,380423669.831618,-116088602.969232,264554.166015,0.005673,-0.003681,0.000005
-1.580000,1.820000,0.180129,0.040000,-8827256499.076626,-25552397.803473,22686075.091790,-1577176.327339,-0.000465,0.000444,-0.000030
-1.540000,1.820000,0.180473,0.040000,-8827568447.937721,-22815312.915648,20026536.936215,-1956054.037134,-0.000414,0.000393,-0.000037
-1.540000,1.860000,0.140607,0.040000,-8827899759.864326,382357241.873333,-123020691.879918,630288.911517,0.005738,-0.003784,0.000012
-1.580000,1.860000,0.140166,0.040000,-8827592783.427633,-80641898.772034,42309358.334868,-16913402.491039,-0.001303,0.001014,-0.000319
-1.500000,1.820000,0.180025,0.040000,-8827848246.161119,-20719660.618992,17821537.968196,-2212581.700145,-0.000374,0.000352,-0.000042
-1.460000,1.820000,0.180139,0.040000,-8828099529.916090,-18670994.336260,15825367.891816,-2380471.978147,-0.000336,0.000314,-0.000045
-1.460000,1.860000,0.140178,0.040000,-8828420377.190397,-51151844.311175,27304383.604182,-16782476.715236,-0.000829,0.000649,-0.000316
-1.500000,1.860000,0.140032,0.040000,-8828174369.888891,-383183505.740261,145893108.946884,2883691.550947,-0.005878,0.004090,0.000054
-1.420000,1.820000,0.180456,0.040000,-8828325457.674982,-16847942.584000,14071600.824095,-2469813.128709,-0.000302,0.000281,-0.000047
-1.380000,1.820000,0.180021,0.040000,-8828528783.578598,-15520017.893981,12631030.678840,-2510777.471595,-0.000276,0.000254,-0.000047
-1.380000,1.860000,0.140027,0.040000,-8828839154.089813,-391233432.452781,145300925.177152,2796295.279118,-0.005981,0.004128,0.000053
-1.420000,1.860000,0.140585,0.040000,-8828641032.012529,379736036.135442,-126054837.748903,1566370.592468,0.005721,-0.003809,0.000030
-1.340000,1.820000,0.180148,0.040000,-8828711918.013950,-14114821.273816,11281383.604019,-2517656.205217,-0.000250,0.000229,-0.000047
-1.300000,1.820000,0.180439,0.040000,-8828876977.843075,-12855283.282689,10084539.677592,-2487141.695307,-0.000227,0.000206,-0.000047
-1.300000,1.860000,0.140564,0.040000,-8829177319.232927,374050536.543620,-126662531.033233,2648072.945601,0.005649,-0.003785,0.000050
-1.340000,1.860000,0.140190,0.040000,-8829017200.150785,-24100978.468032,14756676.611837,-16362537.253550,-0.000401,0.000331,-0.000308
-1.260000,1.820000,0.180018,0.040000,-8829025828.227762,-12004172.998976,9119195.410119,-2439656.914770,-0.000210,0.000188,-0.000046
-1.220000,1.820000,0.180158,0.040000,-8829160117.604017,-11001115.107478,8175701.906807,-2381162.441540,-0.000191,0.000170,-0.000045
-1.220000,1.860000,0.140203,0.040000,-8829451099.504028,1425469.935004,3716096.984282,-15866350.637583,-0.000002,0.000041,-0.000299
-1.260000,1.860000,0.140023,0.040000,-8829321398.211594,-400073485.204523,146125943.015338,2785641.003434,-0.006102,0.004188,0.000052
-1.180000,1.820000,0.180422,0.040000,-8829281307.050024,-10103613.928535,7335001.400313,-2303035.366421,-0.000175,0.000154,-0.000043
-1.140000,1.820000,0.180014,0.040000,-8829390695.047031,-9559692.178179,6676217.181786,-2221798.779598,-0.000164,0.000142,-0.000042
-1.140000,1.860000,0.140018,0.040000,-8829673079.806326,-409007614.883550,147696322.341675,2747238.459973,-0.006229,0.004260,0.000052
-1.180000,1.860000,0.140542,0.040000,-8829567892.496111,366124082.334295,-125649962.219534,3723234.492841,0.005539,-0.003727,0.000070
-1.100000,1.820000,0.180168,0.040000,-8829489438.438553,-8816536.728356,5997016.770946,-2139413.115933,-0.000150,0.000129,-0.000040
-1.060000,1.820000,0.180406,0.040000,-8829578570.239155,-8160836.235651,5392494.615480,-2045184.129403,-0.000138,0.000117,-0.000039
-1.060000,1.860000,0.140522,0.040000,-8829853143.100008,356440127.319536,-123483625.677035,4740196.039360,0.005399,-0.003643,0.000089
-1.100000,1.860000,0.140216,0.040000,-8829767819.365631,25919309.294689,-6345089.948015,-15367294.288165,0.000378,-0.000230,-0.000290
-1.020000,1.820000,0.180012,0.040000,-8829659014.822670,-7821406.863568,4938195.157159,-1954097.277133,-0.000131,0.000109,-0.000037
-0.980000,1.820000,0.180179,0.040000,-8829731600.920313,-7251292.909779,4436527.783183,-1865912.307220,-0.000121,0.000099,-0.000035
-0.980000,1.860000,0.140230,0.040000,-8829999133.299286,49648814.341267,-15730978.609135,-14886298.391290,0.000744,-0.000488,-0.000280
-1.020000,1.860000,0.140015,0.040000,-8829929972.742353,-417618299.935195,149616360.865000,2649167.402668,-0.006353,0.004334,0.000050
-0.940000,1.820000,0.180390,0.040000,-8829797072.782419,-6763112.099338,3993983.157196,-1769252.632965,-0.000112,0.000091,-0.000033
-0.900000,1.820000,0.180009,0.040000,-8829856099.793427,-6563824.263918,3680277.430330,-1678561.154015,-0.000107,0.000086,-0.000032
-0.900000,1.860000,0.140012,0.040000,-8830117331.153088,-425641934.725579,151642145.443609,2486984.623314,-0.006471,0.004406,0.000047
-0.940000,1.860000,0.140501,0.040000,-8830061364.597164,345299889.610387,-120447236.089630,5685370.351290,0.005235,-0.003540,0.000107
-0.860000,1.820000,0.180190,0.040000,-8829909284.779377,-6112018.482240,3301372.973770,-1592184.714230,-0.000099,0.000078,-0.000030
-0.820000,1.820000,0.180374,0.040000,-8829957171.205870,-5744051.797925,2973494.900178,-1498695.659880,-0.000093,0.000072,-0.000028
-0.820000,1.860000,0.140481,0.040000,-8830212801.435602,332902441.142932,-116721475.323138,6559380.820139,0.005050,-0.003421,0.000124
-0.860000,1.860000,0.140244,0.040000,-8830167630.675175,72758337.577814,-24621324.839146,-14424590.595056,0.001099,-0.000736,-0.000272
-0.780000,1.820000,0.180007,0.040000,-8830000249.430738,-5643345.591001,2759202.299066,-1412420.574162,-0.000090,0.000068,-0.000027
-0.740000,1.820000,0.180201,0.040000,-8830038962.148661,-5274443.620089,2467545.261063,-1330654.247873,-0.000084,0.000062,-0.000025
-0.740000,1.860000,0.140258,0.040000,-8830289649.845070,95320628.885141,-33123697.366206,-13976490.738213,0.001444,-0.000976,-0.000263
-0.780000,1.860000,0.140009,0.040000,-8830253328.619915,-432904535.596631,153617323.484363,2266274.431671,-0.006578,0.004473,0.000043
-0.700000,1.820000,0.180359,0.040000,-8830073709.142054,-4995791.715044,2223392.637813,-1242222.622675,-0.000078,0.000058,-0.000023
-0.660000,1.820000,0.180005,0.040000,-8830104851.434431,-4966139.379175,2081321.870458,-1161513.384718,-0.000077,0.000056,-0.000022
-0.660000,1.860000,0.140006,0.040000,-8830351215.395567,-439287019.842177,155438371.093503,1995763.443812,-0.006672,0.004533,0.000038
-0.700000,1.860000,0.140462,0.040000,-8830322159.994102,319387391.623513,-112426509.786989,7367679.524450,0.004848,-0.003288,0.000139
-0.620000,1.820000,0.180212,0.040000,-8830132714.927044,-4656779.125367,1853395.329916,-1084941.962911,-0.000072,0.000051,-0.000020
-0.580000,1.820000,0.180344,0.040000,-8830157593.586916,-4446868.081137,1672340.241384,-1001745.115819,-0.000068,0.000047,-0.000019
-0.580000,1.860000,0.140442,0.040000,-8830400216.023458,304858609.870915,-107645630.509984,8116868.735907,0.004629,-0.003143,0.000153
-0.620000,1.860000,0.140273,0.040000,-8830377137.482384,117365572.586393,-41302106.497162,-13534457.470580,0.001781,-0.001208,-0.000255
-0.540000,1.820000,0.180003,0.040000,-8830179752.243906,-4469684.525723,1584218.103648,-926435.571133,-0.000068,0.000046,-0.000017
-0.500000,1.820000,0.180224,0.040000,-8830199429.045691,-4204270.875754,1404244.013466,-854636.488053,-0.000063,0.000042,-0.000016
-0.500000,1.860000,0.140288,0.040000,-8830438859.641088,138896597.691798,-49193333.403466,-13091011.670465,0.002110,-0.001434,-0.000247
-0.540000,1.860000,0.140004,0.040000,-8830420711.915924,-444705699.752382,157035048.402664,1684648.339386,-0.006753,0.004585,0.000032
-0.460000,1.820000,0.180330,0.040000,-8830216837.611950,-4049252.733402,1272384.456176,-776083.327003,-0.000061,0.000040,-0.000015
-0.420000,1.820000,0.180002,0.040000,-8830232168.923048,-4111858.495049,1225827.734170,-705424.231672,-0.000061,0.000039,-0.000013
-0.420000,1.860000,0.140003,0.040000,-8830468929.210163,-449100956.436437,158359027.638636,1341647.647662,-0.006818,0.004627,0.000025
-0.460000,1.860000,0.140424,0.040000,-8830454869.445152,289397882.353287,-102438874.714241,8813340.983312,0.004396,-0.002987,0.000166
-0.380000,1.820000,0.180236,0.040000,-8830245592.973202,-3879992.444850,1083204.319227,-637537.545944,-0.000057,0.000036,-0.000012
-0.340000,1.820000,0.180315,0.040000,-8830257260.213350,-3770566.903940,991192.342258,-562711.411981,-0.000055,0.000034,-0.000011
-0.340000,1.860000,0.140405,0.040000,-8830491848.025364,273073000.048870,-96851100.958990,9462874.283529,0.004149,-0.002821,0.000178
-0.380000,1.860000,0.140303,0.040000,-8830481206.100355,159900359.011091,-56816544.207964,-12639375.579288,0.002430,-0.001653,-0.000238
-0.300000,1.820000,0.180001,0.040000,-8830267302.805609,-3864340.896045,977864.994060,-495713.806124,-0.000056,0.000035,-0.000009
-0.260000,1.820000,0.180248,0.040000,-8830275835.707403,-3659249.042850,865600.915690,-430707.438218,-0.000053,0.000032,-0.000008
-0.260000,1.860000,0.140319,0.040000,-8830508729.579538,180352589.364650,-64179083.411980,-12173584.121602,0.002741,-0.001866,-0.000229
-0.300000,1.860000,0.140001,0.040000,-8830500984.871771,-452430495.042408,159377104.496933,974763.666983,-0.006868,0.004659,0.000018
-0.220000,1.820000,0.180301,0.040000,-8830282957.601004,-3589330.152981,807312.796805,-358569.829156,-0.000052,0.000031,-0.000007
-0.180000,1.820000,0.180000,0.040000,-8830288751.681082,-3708579.569222,821797.816678,-294160.394970,-0.000054,0.000032,-0.000006
-0.180000,1.860000,0.140000,0.040000,-8830520415.108784,-454665272.172965,160067087.974806,591331.552781,-0.006901,0.004681,0.000011
-0.220000,1.860000,0.140387,0.040000,-8830515179.089800,255942629.999701,-90916864.527922,10070617.212118,0.003889,-0.002646,0.000190
-0.140000,1.820000,0.180261,0.040000,-8830293286.311440,-3526155.393651,735556.259569,-230947.353112,-0.000051,0.000030,-0.000004
-0.100000,1.820000,0.180288,0.040000,-8830296615.559469,-3492063.376574,707286.237431,-160425.069781,-0.000050,0.000029,-0.000003
-0.100000,1.860000,0.140370,0.040000,-8830527501.128349,238059246.598603,-84663362.854973,10641226.567067,0.003618,-0.002462,0.000200
-0.140000,1.860000,0.140336,0.040000,-8830524504.758102,200221677.133069,-71279998.854435,-11688385.349612,0.003043,-0.002072,-0.000220
-0.060000,1.820000,0.180000,0.040000,-8830298779.615705,-3633347.110466,746409.967685,-97509.719056,-0.000052,0.000030,-0.000002
-0.020000,1.820000,0.180274,0.040000,-8830299805.103752,-3471587.135895,683946.500872,-34993.203829,-0.000050,0.000029,-0.000001
-0.020000,1.860000,0.140352,0.040000,-8830530358.526220,219470821.152720,-78112148.781294,-11179062.192422,0.003336,-0.002271,-0.000211
-0.060000,1.860000,0.140000,0.040000,-8830529443.675211,-455787054.945297,160415330.098683,198178.351624,-0.006918,0.004692,0.000004
0.020000,1.820000,0.180274,0.040000,-8830299705.284674,-3471587.045097,683946.408874,34990.994664,-0.000050,0.000029,0.000001
0.060000,1.820000,0.180000,0.040000,-8830298480.158630,-3633346.835786,746409.697316,97507.509119,-0.000052,0.000030,0.000002
0.060000,1.860000,0.140000,0.040000,-8830529144.212612,-455787039.489262,160415324.462772,-198180.384655,-0.006918,0.004692,-0.000004
0.020000,1.860000,0.140352,0.040000,-8830530258.705311,219470823.617622,-78112149.659925,11179059.509167,0.003336,-0.002271,0.000211
0.100000,1.820000,0.180288,0.040000,-8830296116.464817,-3492062.931804,707285.786735,160422.855722,-0.000050,0.000029,0.000003
0.140000,1.820000,0.180261,0.040000,-8830292587.579937,-3526154.760169,735555.622149,230945.129652,-0.000051,0.000030,0.000004
0.140000,1.860000,0.140336,0.040000,-8830523806.013718,200221666.675864,-71279995.509854,11688381.881823,0.003043,-0.002072,0.000220
0.100000,1.860000,0.140370,0.040000,-8830527002.024492,238059228.642561,-84663356.849812,-10641228.536451,0.003618,-0.002462,-0.000200
0.180000,1.820000,0.180000,0.040000,-8830287853.313755,-3708578.735670,821796.990033,294158.160247,-0.000054,0.000032,0.000006
0.220000,1.820000,0.180301,0.040000,-8830281859.599159,-3589329.150412,807311.784353,358567.581754,-0.000052,0.000031,0.000007
0.220000,1.860000,0.140387,0.040000,-8830514081.067619,255942594.150040,-90916852.550278,-10070618.549669,0.003889,-0.002646,-0.000190
0.180000,1.860000,0.140000,0.040000,-8830519516.724846,-454665225.904514,160067071.104568,-591333.537506,-0.006901,0.004681,-0.000011
0.260000,1.820000,0.180248,0.040000,-8830274538.072680,-3659247.831190,865599.703804,430705.174567,-0.000053,0.000032,0.000008
0.300000,1.820000,0.180001,0.040000,-8830265805.539936,-3864339.459949,977863.564717,495711.525295,-0.000056,0.000035,0.000009
0.300000,1.860000,0.140001,0.040000,-8830499487.578178,-452430418.290878,159377076.470362,-974765.553350,-0.006868,0.004659,-0.000018
0.260000,1.860000,0.140319,0.040000,-8830507431.920700,180352568.685054,-64179076.826543,12173579.801539,0.002741,-0.001866,0.000229
0.340000,1.820000,0.180315,0.040000,-8830255563.319017,-3770565.282463,991190.712946,562709.110725,-0.000055,0.000034,0.000011
0.380000,1.820000,0.180236,0.040000,-8830243696.452822,-3879990.587186,1083202.462018,637535.218691,-0.000057,0.000036,0.000012
0.380000,1.860000,0.140303,0.040000,-8830479309.544344,159900330.948704,-56816535.423655,12639370.341089,0.002430,-0.001653,0.000238
0.340000,1.860000,0.140405,0.040000,-8830490151.099279,273072944.050524,-96851082.259944,-9462875.076004,0.004149,-0.002821,-0.000178
0.420000,1.820000,0.180002,0.040000,-8830230072.779606,-4111856.370054,1225825.633104,705421.877813,-0.000061,0.000039,0.000013
0.460000,1.820000,0.180330,0.040000,-8830214541.848774,-4049250.410141,1272382.113561,776080.944857,-0.000061,0.000040,0.000015
0.460000,1.860000,0.140424,0.040000,-8830452573.638445,289397804.151381,-102438848.619406,-8813341.324616,0.004396,-0.002987,-0.000166
0.420000,1.860000,0.140003,0.040000,-8830466833.027136,-449100849.724397,158358988.597919,-1341649.392228,-0.006818,0.004627,-0.000025
0.500000,1.820000,0.180224,0.040000,-8830196933.666567,-4204268.270354,1404241.403799,854634.073557,-0.000063,0.000042,0.000016
0.540000,1.820000,0.180003,0.040000,-8830177057.253008,-4469681.603757,1584215.201823,926433.123517,-0.000068,0.000046,0.000017
0.540000,1.860000,0.140004,0.040000,-8830418016.873318,-444705563.797327,157034998.528988,-1684649.899459,-0.006753,0.004585,-0.000032
0.500000,1.860000,0.140288,0.040000,-8830436364.214361,138896565.208691,-49193323.542478,13091005.456280,0.002110,-0.001434,0.000247
0.580000,1.820000,0.180344,0.040000,-8830154698.988878,-4446864.912773,1672337.061509,1001742.631177,-0.000068,0.000047,0.000019
0.620000,1.820000,0.180212,0.040000,-8830129620.726963,-4656775.618644,1853391.819845,1084939.435790,-0.000072,0.000051,0.000020
0.620000,1.860000,0.140273,0.040000,-8830374043.222153,117365538.775760,-41302096.733599,13534450.220987,0.001781,-0.001208,0.000255
0.580000,1.860000,0.140442,0.040000,-8830397321.369514,304858507.594487,-107645596.453568,-8116868.729625,0.004629,-0.003143,-0.000153
0.660000,1.820000,0.180005,0.040000,-8830101557.637941,-4966135.484848,2081318.002046,1161510.815940,-0.000077,0.000056,0.000022
0.700000,1.820000,0.180359,0.040000,-8830070215.755314,-4995787.521411,2223388.416041,1242220.009398,-0.000078,0.000058,0.000023
0.700000,1.860000,0.140462,0.040000,-8830318666.538418,319387263.640200,-112426467.311208,-7367679.282472,0.004848,-0.003288,-0.000139
0.660000,1.860000,0.140006,0.040000,-8830347921.534567,-439286855.551013,155438310.591600,-1995764.785248,-0.006672,0.004533,-0.000038
0.740000,1.820000,0.180201,0.040000,-8830035269.178467,-5274438.994141,2467540.631195,1330651.585267,-0.000084,0.000062,0.000025
0.780000,1.820000,0.180007,0.040000,-8829996356.884502,-5643340.480003,2759197.218636,1412417.863611,-0.000090,0.000068,0.000027
0.780000,1.860000,0.140009,0.040000,-8830249435.995527,-432904344.037970,153617252.566240,-2266275.530645,-0.006578,0.004473,-0.000043
0.740000,1.860000,0.140258,0.040000,-8830285956.801382,95320596.944937,-33123688.985376,13976482.396126,0.001444,-0.000976,0.000263
0.820000,1.820000,0.180374,0.040000,-8829953079.091694,-5744046.296353,2973489.372694,1498692.898524,-0.000093,0.000072,0.000028
0.860000,1.820000,0.180190,0.040000,-8829904993.106152,-6112012.426979,3301366.923299,1592181.897563,-0.000099,0.000078,0.000030
0.860000,1.860000,0.140244,0.040000,-8830163338.914169,72758310.856723,-24621319.216684,14424581.105260,0.001099,-0.000736,0.000272
0.820000,1.860000,0.140481,0.040000,-8830208709.238541,332902286.069691,-116721424.111656,-6559380.468609,0.005050,-0.003421,-0.000124
0.900000,1.820000,0.180009,0.040000,-8829851608.570837,-6563817.593834,3680270.798055,1678558.284851,-0.000107,0.000086,0.000032
0.940000,1.820000,0.180390,0.040000,-8829792382.021053,-6763104.909803,3993975.938472,1769249.709890,-0.000112,0.000091,0.000033
0.940000,1.860000,0.140501,0.040000,-8830056673.737902,345299706.353251,-120447176.014566,-5685370.022415,0.005235,-0.003540,-0.000107
0.900000,1.860000,0.140012,0.040000,-8830112839.837721,-425641717.073419,151642064.312575,-2486985.457573,-0.006471,0.004406,-0.000047
0.980000,1.820000,0.180179,0.040000,-8829726710.631767,-7251285.000984,4436519.876404,1865909.329341,-0.000121,0.000099,0.000035
1.020000,1.820000,0.180012,0.040000,-8829653925.019604,-7821398.155979,4938186.485400,1954094.250556,-0.000131,0.000109,0.000037
1.020000,1.860000,0.140015,0.040000,-8829924882.830755,-417618057.432648,149616269.652490,-2649167.960455,-0.006353,0.004334,-0.000050
0.980000,1.860000,0.140230,0.040000,-8829994242.907591,49648796.347649,-15730977.259479,14886287.697836,0.000744,-0.000488,0.000280
1.060000,1.820000,0.180406,0.040000,-8829573280.935432,-8160826.809083,5392485.158798,2045181.053074,-0.000138,0.000117,0.000039
1.100000,1.820000,0.180168,0.040000,-8829483949.649340,-8816526.341666,5997006.385926,2139409.993290,-0.000150,0.000129,0.000040
1.100000,1.860000,0.140216,0.040000,-8829762330.456646,25919303.736695,-6345094.591482,15367282.343333,0.000378,-0.000230,0.000290
1.060000,1.860000,0.140522,0.040000,-8829847853.682194,356439915.156641,-123483556.829183,-4740195.870940,0.005399,-0.003643,-0.000089
1.140000,1.820000,0.180014,0.040000,-8829385006.788982,-9559680.718307,6676205.777865,2221795.625294,-0.000164,0.000142,0.000042
1.180000,1.820000,0.180422,0.040000,-8829275419.341352,-10103601.466877,7334988.913705,2303032.188197,-0.000175,0.000154,0.000043
1.180000,1.860000,0.140542,0.040000,-8829562004.655863,366123840.984248,-125649885.023230,-3723234.622929,0.005539,-0.003727,-0.000070
1.140000,1.860000,0.140018,0.040000,-8829667391.422640,-409007348.785269,147696221.005624,-2747238.731011,-0.006229,0.004260,-0.000052
1.220000,1.820000,0.180158,0.040000,-8829154030.464750,-11001101.336999,8175688.139153,2381159.249438,-0.000191,0.000170,0.000045
1.260000,1.820000,0.180018,0.040000,-8829019541.679979,-12004157.762578,9119180.230096,2439653.734896,-0.000210,0.000188,0.000046
1.260000,1.860000,0.140023,0.040000,-8829315111.519913,-400073196.571222,146125831.273680,-2785640.962007,-0.006102,0.004188,-0.000052
1.220000,1.860000,0.140203,0.040000,-8829445012.227102,1425480.825374,3716084.339296,15866337.410364,-0.000002,0.000041,0.000299
1.300000,1.820000,0.180439,0.040000,-8828870491.911051,-12855266.600616,10084522.978126,2487138.552972,-0.000227,0.000206,0.000047
1.340000,1.820000,0.180148,0.040000,-8828705232.724464,-14114802.750332,11281365.106034,2517653.133980,-0.000250,0.000229,0.000047
1.340000,1.860000,0.140190,0.040000,-8829010514.704678,-24100946.660805,14756653.480351,16362522.763710,-0.000401,0.000331,0.000308
1.300000,1.860000,0.140564,0.040000,-8829170833.150658,374050266.335568,-126662446.396995,-2648073.485830,0.005649,-0.003785,-0.000050
1.380000,1.820000,0.180021,0.040000,-8828521898.961279,-15519997.314981,12631010.155738,2510774.525163,-0.000276,0.000254,0.000047
1.420000,1.820000,0.180456,0.040000,-8828318373.762690,-16847919.871908,14071578.088592,2469810.366456,-0.000302,0.000281,0.000047
1.420000,1.860000,0.140585,0.040000,-8828633947.930786,379735738.293643,-126054747.311016,-1566371.570874,0.005721,-0.003809,-0.000030
1.380000,1.860000,0.140027,0.040000,-8828832269.309450,-391233122.001369,145300802.222128,-2796294.838785,-0.005981,0.004128,-0.000053
1.460000,1.820000,0.180139,0.040000,-8828092246.745295,-18670968.948717,15825342.552406,2380469.480096,-0.000336,0.000314,0.000045
1.500000,1.820000,0.180025,0.040000,-8827840763.772402,-20719632.223163,17821509.657205,2212579.582187,-0.000374,0.000352,0.000042
1.500000,1.860000,0.140032,0.040000,-8828166887.318333,-383183173.374534,145892973.089442,-2883690.458648,-0.005878,0.004090,-0.000054
1.460000,1.860000,0.140178,0.040000,-8828413093.843836,-51151786.339116,27304346.711887,16782461.107031,-0.000829,0.000649,0.000316
1.540000,1.820000,0.180473,0.040000,-8827560766.376408,-22815281.285518,20026505.293682,1956052.441447,-0.000414,0.000393,0.000037
1.580000,1.820000,0.180129,0.040000,-8827248618.393476,-25552362.166410,22686039.519638,1577175.444501,-0.000465,0.000444,0.000030
1.580000,1.860000,0.140166,0.040000,-8827584902.551739,-80641808.023149,42309303.013982,16913386.252020,-0.001303,0.001014,0.000319
1.540000,1.860000,0.140607,0.040000,-8827892078.115431,382356918.983291,-123020598.530037,-630290.113656,0.005738,-0.003784,-0.000012
1.620000,1.820000,0.180029,0.040000,-8826900116.751421,-28669707.389585,25751662.559072,1020638.478781,-0.000524,0.000502,0.000019
1.660000,1.820000,0.180490,0.040000,-8826510382.580194,-32051492.688790,29236056.142338,241301.398806,-0.000588,0.000567,0.000005
1.660000,1.860000,0.140630,0.040000,-8826855189.975206,380423326.845574,-116088511.780235,-264554.742042,0.005673,-0.003681,-0.000005
1.620000,1.860000,0.140037,0.040000,-8827240980.932835,-377152148.791733,149103771.614722,-3346725.845032,-0.005817,0.004098,-0.000063
1.700000,1.820000,0.180120,0.040000,-8826073727.872198,-36335261.701129,33430059.190409,-844559.676738,-0.000668,0.000646,-0.000016
1.740000,1.820000,0.180034,0.040000,-8825583491.802996,-41296888.202108,38335387.486948,-2361070.615263,-0.000761,0.000739,-0.000044
1.740000,1.860000,0.140043,0.040000,-8825932788.300406,-375449519.682018,157210049.751228,-5030693.401764,-0.005840,0.004195,-0.000095
1.700000,1.860000,0.140155,0.040000,-8826421502.989956,-114330443.693703,61564191.251264,16158141.869453,-0.001856,0.001458,0.000304
1.780000,1.820000,0.180508,0.040000,-8825031839.579050,-46917989.012428,44044864.058143,-4451527.179828,-0.000868,0.000846,-0.000084
1.820000,1.820000,0.180112,0.040000,-8824409515.458162,-53918662.121188,50934263.846282,-7341594.722003,-0.000999,0.000976,-0.000138
1.820000,1.860000,0.140144,0.040000,-8824754617.675755,-155762963.917170,88641530.972846,12785577.207976,-0.002555,0.002049,0.000241
1.780000,1.860000,0.140653,0.040000,-8825380553.350361,371059481.586893,-102407744.825361,-1677332.006960,0.005473,-0.003448,-0.000032
1.860000,1.820000,0.180038,0.040000,-8823705540.779436,-62159378.856764,59101801.432340,-11359596.483812,-0.001154,0.001131,-0.000214
1.900000,1.820000,0.180526,0.040000,-8822906848.329206,-71768135.285930,68768445.315513,-16948496.495210,-0.001335,0.001313,-0.000319
1.900000,1.860000,0.140676,0.040000,-8823229837.278221,348358353.008909,-76110594.082428,-8534096.731510,0.005024,-0.002973,-0.000161
1.860000,1.860000,0.140049,0.040000,-8824042692.440647,-382707627.020349,174801035.058257,-10440180.978124,-0.006035,0.004468,-0.000197
1.940000,1.820000,0.180104,0.040000,-8821997848.079704,-83585700.389978,80433497.604883,-24778526.370128,-0.001557,0.001533,-0.000467
1.980000,1.820000,0.180043,0.040000,-8820959930.353825,-97562848.995729,94297240.056179,-35840447.671001,-0.001820,0.001795,-0.000675
1.980000,1.860000,0.140056,0.040000,-8821223887.642511,-408737959.970289,211625909.339053,-27689112.864052,-0.006587,0.005101,-0.000522
1.940000,1.860000,0.140133,0.040000,-8822297756.492897,-212442763.795918,131058117.795610,1378015.437404,-0.003543,0.002929,0.000026
2.020000,1.820000,0.180545,0.040000,-8819770939.343550,-113887109.623277,110624694.189351,-51574594.211992,-0.002127,0.002103,-0.000972
2.060000,1.820000,0.180096,0.040000,-8818404710.433409,-133216371.510834,129745186.648923,-74158169.602578,-0.002490,0.002464,-0.001397
2.060000,1.860000,0.140123,0.040000,-8818531864.178953,-300450634.710024,204904531.551043,-37087199.852144,-0.005121,0.004401,-0.000699
2.020000,1.860000,0.140699,0.040000,-8819980229.588018,299677531.400880,-24618555.328296,-33166790.123157,0.004091,-0.002019,-0.000625
2.100000,1.820000,0.180049,0.040000,-8816830895.721172,-154816098.252305,151208261.245353,-106847486.524567,-0.002896,0.002869,-0.002013
2.140000,1.820000,0.180563,0.040000,-8815015578.485819,-177113682.691785,173581128.977805,-154420745.363969,-0.003317,0.003290,-0.002909
2.140000,1.860000,0.140724,0.040000,-8814835908.233511,200596909.744065,76552859.821959,-123105958.133222,0.002213,-0.000124,-0.002319
2.100000,1.860000,0.140063,0.040000,-8816835173.146240,-473876868.537279,287990419.621005,-86600927.615967,-0.007877,0.006477,-0.001632
2.180000,1.820000,0.180088,0.040000,-8812923747.787102,-194843157.220560,192603532.325062,-223806712.948464,-0.003658,0.003641,-0.004217
2.220000,1.820000,0.180055,0.040000,-8810525844.584793,-201563126.326589,200393324.132645,-324239259.668263,-0.003791,0.003782,-0.006109
2.220000,1.860000,0.140070,0.040000,-8809652828.344427,-597586201.950306,424567404.288073,-312831962.304515,-0.010281,0.008977,-0.005894
2.180000,1.860000,0.140113,0.040000,-8812467710.983498,-445818610.140674,336686473.288570,-179483034.465494,-0.007783,0.006960,-0.003382
2.260000,1.820000,0.180582,0.040000,-8807812732.633362,-176786458.301604,177811497.607471,-465751515.397278,-0.003337,0.003344,-0.008775
2.300000,1.820000,0.180081,0.040000,-8804826940.565638,-84365632.759533,88940115.396959,-652603406.151962,-0.001615,0.001650,-0.012295
2.300000,1.860000,0.140104,0.040000,-8802378716.836065,-542250221.471546,428467127.217078,-754220824.422694,-0.009573,0.008716,-0.014210
2.260000,1.860000,0.140748,0.040000,-8806309662.704390,62658991.806604,219071905.139380,-483846437.160100,-0.000412,0.002535,-0.009116
2.340000,1.820000,0.160614,0.040000,-8801721706.916887,133775416.797432,-120437149.307766,-863414810.186393,0.002445,-0.002344,-0.016267
2.380000,1.820000,0.120817,0.040000,-8798855614.739220,-5070229192.263368,15818692738.650532,-1018494377.804711,-0.156278,0.237281,-0.019189
2.380000,1.860000,0.120134,0.040000,-8793146131.015116,-4789892843.974455,15837282786.701023,-1628124506.533265,-0.152686,0.235942,-0.030675
2.340000,1.860000,0.140078,0.040000,-8797893411.966305,-429171760.834798,287440016.351320,-1191116628.085913,-0.007285,0.006217,-0.022441
2.420000,1.820000,0.081221,0.040000,-8796895086.157047,-92419176962.814133,584018800292.278809,-603378740.408234,-4.519837,8.224646,-0.011368
2.460000,1.820000,0.042389,0.040000,-8794893740.628899,159942631505.041199,1819673237738.465332,477179507.431400,-8.175721,23.094566,0.008990
2.460000,1.860000,0.040400,0.040000,-8787923868.524548,161489233807.194244,1818066164374.989014,47144579.745141,-8.146241,23.064629,0.000888
2.420000,1.860000,0.080201,0.040000,-8788999826.809834,-92094337707.614914,583075929455.467896,-1358320920.290069,-4.510224,8.210375,-0.025592
2.500000,1.820000,0.014030,0.040000,-4399723272.070360,-662755787.134618,2611726813115.040527,1662155860.705841,-14.770675,34.448259,0.031316
2.500000,1.860000,0.005672,0.040000,-4395021813.026841,1166416011.224315,2607945952471.978027,1559187555.647685,-14.725181,34.388057,0.029376
-2.500000,1.900000,0.004478,0.040000,-4387303320.372957,6041953380.452171,2607136849462.645020,6823490038.867845,-14.656307,34.349829,0.128559
-2.500000,1.940000,0.014627,0.040000,-4372029306.973577,18135416229.554638,2603520857807.625000,24131979461.775814,-14.476375,34.233785,0.454660
-2.460000,1.900000,0.040250,0.040000,-8773930508.323975,163194806329.017212,1816445874914.325439,4436041011.317289,-8.114589,23.033620,0.083578
-2.420000,1.900000,0.080125,0.040000,-8778904593.506756,-95834062702.283859,584024285713.392822,-391387117.473038,-4.564905,8.244020,-0.007374
-2.420000,1.940000,0.060221,0.040000,-8767499316.692385,-136442763903.043564,590865878212.777954,15277161964.347824,-5.139139,8.563777,0.287831
-2.460000,1.940000,0.042590,0.040000,-8748678176.074728,219757031858.755188,1810498331777.017334,20278435005.127220,-7.335007,22.635482,0.382057
-2.380000,1.900000,0.101079,0.040000,-8787016562.062159,-3633437591.652846,14371344650.591267,2743418257.264243,-0.129149,0.210072,0.051688
-2.340000,1.900000,0.100109,0.040000,-8794434786.042505,-2228529767.288146,2256808415.580362,4277546635.123471,-0.042147,0.042360,0.080591
-2.340000,1.940000,0.060182,0.040000,-8792393362.715572,-5955612113.405554,7214518649.801416,5582703824.413617,-0.119323,0.128810,0.105181
-2.380000,1.940000,0.061782,0.040000,-8781865431.361506,-2069719697.898944,9758256676.134998,4506898639.138947,-0.082452,0.140394,0.084913
-2.300000,1.900000,0.100145,0.040000,-8800539369.434341,-1811965172.412109,1822260064.675096,-2445976339.948495,-0.034197,0.034274,-0.046084
-2.260000,1.900000,0.101044,0.040000,-8805423066.167130,1895011567.869064,-1888776444.697747,769225414.432772,0.035668,-0.035621,0.014493
-2.260000,1.940000,0.061725,0.040000,-8805474886.659676,7464331390.532803,-8955983895.291889,807728625.497336,0.149063,-0.160305,0.015218
-2.300000,1.940000,0.060242,0.040000,-8799941650.582350,-4504499261.206984,5306476815.956610,-4045107134.549721,-0.089400,0.095444,-0.076212
-2.220000,1.900000,0.100098,0.040000,-8809326216.284643,-1987111239.843172,1982681195.644113,3018452606.284151,-0.037413,0.037380,0.056869
-2.180000,1.900000,0.100158,0.040000,-8812472634.294525,-1298381983.776744,1298160541.780996,-3143014871.205458,-0.024461,0.024459,-0.059216
-2.180000,1.940000,0.060263,0.040000,-8813055903.283091,-3480841565.340052,4085377970.975305,-4704662212.564241,-0.068998,0.073554,-0.088639
-2.220000,1.940000,0.060163,0.040000,-8809759016.493040,-5527731809.937140,6497226607.371722,4183876862.924260,-0.109625,0.116932,0.078827
-2.140000,1.900000,0.101010,0.040000,-8815038265.024521,2210136549.660952,-2207117618.506289,617923193.425620,0.041623,-0.041600,0.011642
-2.100000,1.900000,0.100088,0.040000,-8817154926.424894,-1842101644.089041,1837330682.741714,2725236835.264980,-0.034679,0.034643,0.051345
-2.100000,1.940000,0.060146,0.040000,-8817834999.692749,-5557389689.972399,6572460243.958508,3905690256.067970,-0.110442,0.118092,0.073585
-2.140000,1.940000,0.061669,0.040000,-8815648202.817690,7876152520.732407,-9410935086.058409,819770501.655793,0.157066,-0.168633,0.015445
-2.060000,1.900000,0.100172,0.040000,-8818920335.120817,-989896655.104345,989986589.469109,-3316706964.768415,-0.018651,0.018651,-0.062489
-2.020000,1.900000,0.100977,0.040000,-8820407348.498304,2329772994.989418,-2326659520.940429,739949199.691867,0.043877,-0.043853,0.013941
-2.020000,1.940000,0.061614,0.040000,-8821020908.780703,7969918807.717514,-9497308629.106483,1057536086.206317,0.158791,-0.170302,0.019925
-2.060000,1.940000,0.060286,0.040000,-8819588470.793829,-2858987779.197996,3379272228.352713,-4862856463.611220,-0.056806,0.060727,-0.091619
-1.980000,1.900000,0.100078,0.040000,-8821670870.051064,-1838760293.827698,1833833025.550899,2573443188.162653,-0.034615,0.034578,0.048485
-1.940000,1.900000,0.100186,0.040000,-8822752734.863590,-785817775.662779,786226299.299541,-3398054700.235934,-0.014808,0.014811,-0.064021
-1.940000,1.940000,0.060310,0.040000,-8823359219.878059,-2365283408.540885,2807223740.335918,-4955524966.180953,-0.047061,0.050392,-0.093365
-1.980000,1.940000,0.060130,0.040000,-8822312840.814707,-5775214315.049008,6850707538.147296,3724011515.664557,-0.114887,0.122992,0.070163
-1.900000,1.900000,0.100944,0.040000,-8823685321.491949,2365133889.132979,-2362089868.548389,908409564.080616,0.044543,-0.044520,0.017115
-1.860000,1.900000,0.100069,0.040000,-8824494007.546106,-1888000271.453658,1882523343.406970,2443208545.112024,-0.035540,0.035499,0.046031
-1.860000,1.940000,0.060115,0.040000,-8825065076.665018,-6044841174.062201,7179063182.793839,3546334881.394626,-0.120299,0.128847,0.066815
-1.900000,1.940000,0.061560,0.040000,-8824229845.687674,7948597363.277954,-9460949208.005163,1320468964.893778,0.158304,-0.169702,0.024878
-1.820000,1.900000,0.100201,0.040000,-8825198857.633663,-621844537.035131,622392421.681891,-3453798955.607485,-0.011719,0.011723,-0.065072
-1.780000,1.900000,0.100912,0.040000,-8825815999.151281,2363051921.263908,-2360224575.167796,1084748881.879060,0.044505,-0.044484,0.020437
-1.780000,1.940000,0.061507,0.040000,-8826292679.518196,7872527391.444921,-9365812500.600288,1583275949.127278,0.156763,-0.168017,0.029830
-1.820000,1.940000,0.060335,0.040000,-8825732827.463976,-1912923131.897175,2275814182.563666,-5028971440.370658,-0.038092,0.040827,-0.094749
-1.740000,1.900000,0.100060,0.040000,-8826358518.732771,-1956252925.372726,1950027520.603050,2313114451.820804,-0.036822,0.036775,0.043580
-1.700000,1.900000,0.100217,0.040000,-8826837071.029757,-474626750.705813,475204993.481598,-3497020621.081620,-0.008946,0.008950,-0.065886
-1.700000,1.940000,0.060360,0.040000,-8827309174.304266,-1475585254.789492,1758361363.309198,-5089707074.595474,-0.029399,0.031530,-0.095893
-1.740000,1.940000,0.060100,0.040000,-8826866113.371696,-6324870523.147267,7514656396.976853,3360976399.166573,-0.125889,0.134856,0.063323
-1.660000,1.900000,0.100880,0.040000,-8827260494.493576,2340981509.547504,-2338452963.602149,1260433349.319077,0.044091,-0.044072,0.023747
-1.620000,1.900000,0.100052,0.040000,-8827636161.665859,-2030568394.720423,2023494604.043711,2178717449.152361,-0.038217,0.038164,0.041048
-1.620000,1.940000,0.060087,0.040000,-8828092589.149790,-6600313219.526294,7842308394.117758,3166782400.774235,-0.131374,0.140734,0.059664
-1.660000,1.940000,0.061455,0.040000,-8827681440.234798,7761940750.866616,-9232595404.970762,1841459543.393245,0.154552,-0.165635,0.034694
-1.580000,1.900000,0.100233,0.040000,-8827970203.144655,-335174495.620484,335707936.794768,-3530706903.947007,-0.006318,0.006322,-0.066521
-1.540000,1.900000,0.100848,0.040000,-8828267841.545910,2306121151.114563,-2303940975.499292,1433024952.146107,0.043436,-0.043420,0.026999
-1.540000,1.940000,0.061404,0.040000,-8828644680.719376,7624907631.393848,-9069451470.874157,2093834360.500241,0.151822,-0.162709,0.039449
-1.580000,1.940000,0.060387,0.040000,-8828392539.676952,-1044321489.280957,1246146497.086838,-5138474893.423177,-0.020816,0.022337,-0.096812
-1.500000,1.900000,0.100045,0.040000,-8828533528.531872,-2105326854.307352,2097354252.980994,2039215078.328963,-0.039621,0.039560,0.038420
-1.460000,1.900000,0.100249,0.040000,-8828771018.117569,-199741415.735037,200172019.653790,-3555536440.309244,-0.003766,0.003769,-0.066988
-1.460000,1.940000,0.060415,0.040000,-8829153654.742182,-615994647.094699,736314253.792925,-5175071338.329091,-0.012286,0.013193,-0.097501
-1.500000,1.940000,0.060075,0.040000,-8828949574.619081,-6864622541.388156,8155408458.756974,2964259950.131663,-0.136629,0.146357,0.055848
-1.420000,1.900000,0.100818,0.040000,-8828983584.886759,2261796573.241018,-2259995693.653228,1601566591.545513,0.042603,-0.042590,0.030174
-1.380000,1.900000,0.100038,0.040000,-8829174067.475330,-2177780851.686431,2168889268.194266,1894707101.967167,-0.040980,0.040913,0.035697
-1.380000,1.940000,0.060063,0.040000,-8829558235.457251,-7114400699.985981,8450499586.901991,2754144320.369700,-0.141591,0.151660,0.051890
-1.420000,1.940000,0.061353,0.040000,-8829325695.816462,7465205292.460307,-8880187814.561470,2339799633.656398,0.148647,-0.159310,0.044083
-1.340000,1.900000,0.100266,0.040000,-8829344878.361324,-66697263.563570,66978932.038264,-3571598533.837651,-0.001258,0.001260,-0.067291
-1.300000,1.900000,0.100788,0.040000,-8829498169.981665,2209718728.729740,-2208314628.353441,1765506861.186112,0.041624,-0.041614,0.033263
-1.300000,1.940000,0.061304,0.040000,-8829812839.655930,7284895646.584167,-8666892594.819769,2578840015.803128,0.145063,-0.155478,0.048587
-1.340000,1.940000,0.060443,0.040000,-8829695674.104654,-189697789.757697,228233331.208629,-5199187581.096948,-0.003792,0.004082,-0.097956
-1.260000,1.900000,0.100032,0.040000,-8829635832.249424,-2246430041.741223,2236621693.495063,1745532831.831773,-0.042269,0.042195,0.032887
-1.220000,1.900000,0.100284,0.040000,-8829759474.577560,64650933.464025,-64553671.927496,-3578834751.795117,0.001218,-0.001217,-0.067427
-1.220000,1.940000,0.060473,0.040000,-8830084507.519476,234522964.122156,-277784002.330661,-5210562415.018181,0.004663,-0.004989,-0.098170
-1.260000,1.940000,0.060053,0.040000,-8829994681.797726,-7347592281.797348,8725464189.709373,2537153537.769340,-0.146221,0.156605,0.047801
-1.180000,1.900000,0.100758,0.040000,-8829870566.561590,2150864764.490486,-2149863560.024619,1924415620.137688,0.040518,-0.040510,0.036257
-1.140000,1.900000,0.100026,0.040000,-8829970410.228346,-2310368333.070998,2299664211.418006,1592093452.497967,-0.043468,0.043388,0.029996
-1.140000,1.940000,0.060043,0.040000,-8830309018.444942,-7562787413.791371,8978831040.042177,2313959838.002814,-0.150491,0.161163,0.043596
-1.180000,1.940000,0.061255,0.040000,-8830163450.632568,7085289973.179392,-8430908623.516954,2810437475.628199,0.141097,-0.151238,0.052950
-1.100000,1.900000,0.100303,0.040000,-8830060110.279753,194547499.161599,-194659657.678963,-3577164059.980450,0.003666,-0.003667,-0.067396
-1.060000,1.900000,0.100729,0.040000,-8830140701.361061,2085854560.877581,-2085252019.742331,2077903616.674692,0.039295,-0.039291,0.039149
-1.060000,1.940000,0.061207,0.040000,-8830416240.328613,6867351164.063210,-8173237684.127563,3034065370.821517,0.136766,-0.146607,0.057164
-1.100000,1.940000,0.060503,0.040000,-8830364120.951874,656180378.488333,-780991938.865877,-5209001678.535824,0.013068,-0.014009,-0.098141
-1.020000,1.900000,0.100021,0.040000,-8830213104.793907,-2368998085.214377,2357435958.381116,1434802457.548440,-0.044568,0.044481,0.027033
-0.980000,1.900000,0.100321,0.040000,-8830278094.745195,323008221.113881,-323344302.753073,-3566520007.310605,0.006088,-0.006090,-0.067195
-0.980000,1.940000,0.060534,0.040000,-8830564838.044119,1074571877.529961,-1280435813.177517,-5194372995.733818,0.021409,-0.022961,-0.097865
-1.020000,1.940000,0.060035,0.040000,-8830535451.100473,-7758925565.555052,9209482195.966801,2085199066.198103,-0.154381,0.165313,0.039286
-0.940000,1.900000,0.100700,0.040000,-8830336417.809868,2015124759.957936,-2014907020.837310,2225600196.751067,0.037965,-0.037963,0.041932
-0.900000,1.900000,0.100016,0.040000,-8830388739.168777,-2421895591.910994,2409528589.470792,1274072567.342227,-0.045560,0.045467,0.024004
-0.900000,1.940000,0.060027,0.040000,-8830697994.740980,-7935159734.824895,9416518862.372639,1851482971.680136,-0.157876,0.169040,0.034883
-0.940000,1.940000,0.061160,0.040000,-8830598156.673847,6631876652.368402,-7894724427.865747,3249197202.977599,0.132086,-0.141603,0.061217
-0.860000,1.900000,0.100341,0.040000,-8830435608.648682,449926810.620588,-450490853.269531,-3546861568.548624,0.008480,-0.008484,-0.066825
-0.820000,1.900000,0.100672,0.040000,-8830477575.450947,1939014662.532017,-1939158951.856546,2367148463.630750,0.036533,-0.036534,0.044598
-0.820000,1.940000,0.061114,0.040000,-8830728398.633410,6379587603.508235,-7596146403.592441,3455315877.902167,0.127071,-0.136240,0.065100
-0.860000,1.940000,0.060566,0.040000,-8830708114.766348,1488887372.783099,-1775059843.420820,-5166598243.699843,0.029669,-0.031826,-0.097342
-0.780000,1.900000,0.100012,0.040000,-8830515126.415552,-2468743857.587230,2455639201.063669,1110313259.927212,-0.046438,0.046340,0.020919
-0.740000,1.900000,0.100361,0.040000,-8830548654.136354,575129618.962459,-575915443.744538,-3518175824.440992,0.010840,-0.010846,-0.066284
-0.740000,1.940000,0.060600,0.040000,-8830809418.976551,1898264388.590581,-2263762787.431731,-5125647788.345385,0.037830,-0.040585,-0.096570
-0.780000,1.940000,0.060020,0.040000,-8830813865.929548,-8090790480.864088,9599196134.659269,1613408447.045886,-0.160961,0.172329,0.030398
-0.700000,1.900000,0.100645,0.040000,-8830578568.249537,1857811013.631880,-1858286471.951480,2502205658.921446,0.035005,-0.035009,0.047143
-0.660000,1.900000,0.100009,0.040000,-8830605227.364395,-2509297316.381006,2495535005.989675,943931182.371575,-0.047199,0.047095,0.017784
-0.660000,1.940000,0.060014,0.040000,-8830895583.795172,-8225232534.330164,9756889769.745386,1371563647.729060,-0.163625,0.175168,0.025841
-0.700000,1.940000,0.061069,0.040000,-8830820870.983698,6111174867.660699,-7278260842.497184,3651921019.708456,0.121735,-0.130530,0.068804
-0.620000,1.900000,0.100381,0.040000,-8830628910.476891,698405269.823998,-699396962.441840,-3480478162.616174,0.013164,-0.013171,-0.065574
-0.580000,1.900000,0.100618,0.040000,-8830649925.502129,1771772429.401892,-1772541086.888394,2630444917.118532,0.033386,-0.033391,0.049559
-0.580000,1.940000,0.061025,0.040000,-8830885739.892576,5827323666.045297,-6941830144.031204,3838534403.566278,0.116090,-0.124489,0.072320
-0.620000,1.940000,0.060634,0.040000,-8830880035.191637,2301817986.573002,-2745428710.799991,-5071536624.891367,0.045875,-0.049218,-0.095551
-0.540000,1.900000,0.100006,0.040000,-8830668535.849413,-2543362573.920808,2529033950.843318,775331102.992154,-0.047837,0.047729,0.014608
-0.500000,1.900000,0.100403,0.040000,-8830684935.880514,819521450.321039,-820694073.280499,-3433811813.596774,0.015447,-0.015456,-0.064695
-0.500000,1.940000,0.060669,0.040000,-8830928230.590775,2698657917.570576,-3218945106.514381,-5004321896.582744,0.053785,-0.057706,-0.094284
-0.540000,1.940000,0.060010,0.040000,-8830952314.957838,-8337997457.989364,9889078717.363976,1126531843.602510,-0.165860,0.177549,0.021225
-0.460000,1.900000,0.100592,0.040000,-8830699356.977482,1681143203.653759,-1682161110.141934,2751557180.843262,0.031679,-0.031687,0.051841
-0.420000,1.900000,0.100004,0.040000,-8830711989.423855,-2570787571.702449,2555993728.416841,604916742.552635,-0.048352,0.048240,0.011397
-0.420000,1.940000,0.060006,0.040000,-8830990756.077930,-8428684554.105345,9995335761.054157,878893760.533952,-0.167656,0.179463,0.016559
-0.460000,1.940000,0.060982,0.040000,-8830930446.289816,5528727227.939529,-6587636239.383066,4014703970.694124,0.110150,-0.118130,0.075639
-0.380000,1.900000,0.100424,0.040000,-8830722962.371532,938234802.559781,-939555321.522473,-3378247279.778648,0.017684,-0.017694,-0.063648
-0.340000,1.900000,0.100566,0.040000,-8830732447.515335,1586161311.363577,-1587379808.476581,2865252923.136459,0.029891,-0.029900,0.053983
-0.340000,1.940000,0.060939,0.040000,-8830960378.385189,5216094404.202615,-6216488825.332086,4180006834.344069,0.103929,-0.111468,0.078754
-0.380000,1.940000,0.060705,0.040000,-8830960024.926973,3087898960.877280,-3683214211.567657,-4924101297.201505,0.061543,-0.066029,-0.092773
-0.300000,1.900000,0.100002,0.040000,-8830740576.765104,-2591455359.402819,2576305398.858595,433091348.463252,-0.048739,0.048625,0.008160
-0.260000,1.900000,0.100447,0.040000,-8830747427.015030,1054296938.721402,-1055725338.182296,-3313881799.468197,0.019872,-0.019882,-0.062435
-0.260000,1.940000,0.060741,0.040000,-8830979704.509827,3468667454.884434,-4137160454.004094,-4831011999.135152,0.069130,-0.074168,-0.091019
-0.300000,1.940000,0.060003,0.040000,-8831015721.739586,-8496976130.185217,10075322472.511932,629228946.045619,-0.169009,0.180904,0.011855
-0.220000,1.900000,0.100541,0.040000,-8830753121.368874,1487063100.036527,-1488430212.789812,2971263604.010649,0.028025,-0.028035,0.055980
-0.180000,1.900000,0.100001,0.040000,-8830757742.984573,-2605280478.968623,2589889639.457887,260258032.080464,-0.048998,0.048882,0.004903
-0.180000,1.940000,0.060001,0.040000,-8831030536.416973,-8542635096.584501,10128786510.268126,378116512.446197,-0.169913,0.181867,0.007124
-0.220000,1.940000,0.060898,0.040000,-8830979320.829895,4890153849.425581,-5829230035.100663,4334051569.355865,0.097441,-0.104518,0.081656
-0.140000,1.900000,0.100469,0.040000,-8830761324.831001,1167458177.741569,-1168948736.348878,-3240838853.688041,0.022004,-0.022015,-0.061059
-0.100000,1.900000,0.100517,0.040000,-8830763948.330317,1384086002.764339,-1385547921.834258,3069342875.539965,0.026085,-0.026096,0.057828
-0.100000,1.940000,0.060857,0.040000,-8830989750.660809,4551656159.927119,-5426736915.073328,4476479983.821834,0.090702,-0.097297,0.084339
-0.140000,1.940000,0.060779,0.040000,-8830990163.423946,3840105596.728126,-4579735562.136133,-4725229864.100048,0.076530,-0.082104,-0.089026
-0.060000,1.900000,0.100000,0.040000,-8830765653.694393,-2612206882.923632,2596694555.440490,86819926.424085,-0.049128,0.049011,0.001636
-0.020000,1.900000,0.100493,0.040000,-8830766434.777887,1277469870.428509,-1278972562.567962,-3159267684.324832,0.024077,-0.024088,-0.059522
-0.020000,1.940000,0.060818,0.040000,-8830993121.927620,4201374361.777848,-5009922156.809941,-4606968772.995795,0.083726,-0.089820,-0.086798
-0.060000,1.940000,0.060000,0.040000,-8831037289.718916,-8565503804.175274,10155560207.071054,126135489.038603,-0.170366,0.182349,0.002376
0.020000,1.900000,0.100493,0.040000,-8830766334.955000,1277470001.772259,-1278972623.097776,3159267572.453488,0.024077,-0.024088,0.059522
0.060000,1.900000,0.100000,0.040000,-8830765354.225855,-2612206798.282941,2596694469.275130,-86819776.905186,-0.049128,0.049011,-0.001636
0.060000,1.940000,0.060000,0.040000,-8831036990.243025,-8565503525.167315,10155559872.463551,-126135061.378104,-0.170366,0.182349,-0.002376
0.020000,1.940000,0.060818,0.040000,-8830993022.101891,4201374726.935754,-5009922453.258542,4606968507.882069,0.083726,-0.089820,0.086798
0.100000,1.900000,0.100517,0.040000,-8830763449.216566,1384085783.247770,-1385547771.211718,-3069342784.526942,0.026085,-0.026096,-0.057828
0.140000,1.900000,0.100469,0.040000,-8830760626.072721,1167458235.263128,-1168948721.323899,3240838527.577668,0.022004,-0.022015,0.061059
0.140000,1.940000,0.060779,0.040000,-8830989464.650930,3840105716.645244,-4579735562.729038,4725229295.468137,0.076530,-0.082104,0.089026
0.100000,1.940000,0.060857,0.040000,-8830989251.538214,4551655502.215420,-5426736266.081259,-4476479961.610293,0.090702,-0.097297,-0.084339
0.180000,1.900000,0.100001,0.040000,-8830756844.582716,-2605280225.735564,2589889381.649515,-260257859.422186,-0.048998,0.048882,-0.004903
0.220000,1.900000,0.100541,0.040000,-8830752023.324732,1487062778.710023,-1488429958.282645,-2971263323.128045,0.028025,-0.028035,-0.055980
0.220000,1.940000,0.060898,0.040000,-8830978222.765228,4890152854.174521,-5829228979.704052,-4334051278.420506,0.097441,-0.104518,-0.081656
0.180000,1.940000,0.060001,0.040000,-8831029637.992977,-8542634261.838799,10128785509.155054,-378116051.720836,-0.169913,0.181867,-0.007124
0.260000,1.900000,0.100447,0.040000,-8830746129.330172,1054296937.430259,-1055725262.820831,3313881249.477815,0.019872,-0.019882,0.062435
0.300000,1.900000,0.100002,0.040000,-8830739079.441362,-2591454939.635371,2576304971.447196,-433091129.635593,-0.048739,0.048625,-0.008160
0.300000,1.940000,0.060003,0.040000,-8831014224.378592,-8496974746.565633,10075320812.963835,-629228419.349868,-0.169009,0.180904,-0.011855
0.260000,1.940000,0.060741,0.040000,-8830978406.797913,3468667378.989674,-4137160217.997302,4831011113.277081,0.069130,-0.074168,0.091019
0.340000,1.900000,0.100566,0.040000,-8830730750.554935,1586160875.402460,-1587379437.084532,-2865252467.004891,0.029891,-0.029900,-0.053983
0.380000,1.900000,0.100424,0.040000,-8830721065.776958,938234758.058966,-939555201.646489,3378246498.017323,0.017684,-0.017694,0.063648
0.380000,1.940000,0.060705,0.040000,-8830958128.292324,3087898740.461160,-3683213800.520590,4924100082.957881,0.061543,-0.066029,0.092773
0.340000,1.940000,0.060939,0.040000,-8830958681.392300,5216093028.966138,-6216487312.751065,-4180006295.617057,0.103929,-0.111468,-0.078754
0.420000,1.900000,0.100004,0.040000,-8830709893.197969,-2570786988.823368,2555993134.789421,-604916454.743291,-0.048351,0.048240,-0.011397
0.460000,1.900000,0.100592,0.040000,-8830697061.123514,1681142641.061759,-1682160609.757175,-2751556565.618468,0.031679,-0.031687,-0.051841
0.460000,1.940000,0.060982,0.040000,-8830928150.390892,5528725432.986357,-6587634222.156583,-4014703207.344991,0.110150,-0.118130,-0.075639
0.420000,1.940000,0.060006,0.040000,-8830988659.799126,-8428682633.023970,9995333456.482855,-878893135.265977,-0.167656,0.179463,-0.016559
0.500000,1.900000,0.100403,0.040000,-8830682440.402071,819521378.743893,-820693925.256565,3433810793.960214,0.015447,-0.015456,0.064695
0.540000,1.900000,0.100006,0.040000,-8830665840.750542,-2543361832.676190,2529033195.698411,-775330723.716410,-0.047837,0.047729,-0.014608
0.540000,1.940000,0.060010,0.040000,-8830949619.789555,-8337995015.308209,9889075786.430500,-1126531087.635375,-0.165860,0.177549,-0.021224
0.500000,1.940000,0.060669,0.040000,-8830925735.058273,2698657605.582718,-3218944584.000884,5004320345.369621,0.053785,-0.057706,0.094284
0.580000,1.900000,0.100618,0.040000,-8830647030.787256,1771771729.128244,-1772540446.319891,-2630444160.419795,0.033386,-0.033391,-0.049559
0.620000,1.900000,0.100381,0.040000,-8830625816.150955,698405187.782957,-699396803.085955,3480476900.810760,0.013164,-0.013171,0.065574
0.620000,1.940000,0.060634,0.040000,-8830876940.796333,2301817637.374297,-2745428142.112449,5071534730.760144,0.045875,-0.049218,0.095551
0.580000,1.940000,0.061025,0.040000,-8830882845.119448,5827321414.606082,-6941827578.235222,-3838533440.889173,0.116089,-0.124489,-0.072320
0.660000,1.900000,0.100009,0.040000,-8830601933.432795,-2509296422.819845,2495534095.306177,-943930689.577680,-0.047199,0.047095,-0.017784
0.700000,1.900000,0.100645,0.040000,-8830575074.718239,1857810165.613383,-1858285681.017419,-2502204779.747823,0.035005,-0.035008,-0.047143
0.700000,1.940000,0.061069,0.040000,-8830817377.379602,6111172126.052754,-7278257687.992431,-3651919885.015024,0.121735,-0.130530,-0.068804
0.660000,1.940000,0.060014,0.040000,-8830892289.776535,-8225229590.301977,9756886236.270647,-1371562729.547169,-0.163625,0.175168,-0.025841
0.740000,1.900000,0.100361,0.040000,-8830544961.011881,575129543.462081,-575915290.305698,3518174317.998677,0.010840,-0.010846,0.066284
0.780000,1.900000,0.100012,0.040000,-8830511233.705044,-2468742818.991105,2455638142.063253,-1110312632.110326,-0.046438,0.046340,-0.020919
0.780000,1.940000,0.060020,0.040000,-8830809973.112875,-8090787059.949255,9599192027.488314,-1613407335.909572,-0.160961,0.172329,-0.030398
0.740000,1.940000,0.060600,0.040000,-8830805725.765795,1898264057.763622,-2263762239.287646,5125645547.977869,0.037830,-0.040585,0.096570
0.820000,1.900000,0.100672,0.040000,-8830473483.162241,1939013657.746278,-1939158001.459161,-2367147482.281870,0.036533,-0.036534,-0.044598
0.860000,1.900000,0.100341,0.040000,-8830431316.790361,449926759.009044,-450490723.346127,3546859816.829528,0.008480,-0.008484,0.066825
0.860000,1.940000,0.060566,0.040000,-8830703822.802702,1488887116.807995,-1775059383.684574,5166595656.422168,0.029669,-0.031826,0.097342
0.820000,1.940000,0.061114,0.040000,-8830724306.255783,6379584341.389755,-7596142624.193521,-3455314600.380222,0.127071,-0.136240,-0.065100
0.900000,1.900000,0.100016,0.040000,-8830384247.750195,-2421894416.743093,2409527390.538268,-1274071783.649619,-0.045560,0.045467,-0.024004
0.940000,1.900000,0.100700,0.040000,-8830331726.841309,2015123590.549503,-2014905903.014944,-2225599134.723444,0.037965,-0.037963,-0.041932
0.940000,1.940000,0.061160,0.040000,-8830593465.598026,6631872842.881954,-7894719991.582214,-3249195813.570966,0.132086,-0.141603,-0.061217
0.900000,1.940000,0.060027,0.040000,-8830693503.195129,-7935155865.584228,9416514215.202007,-1851481637.791910,-0.157876,0.169040,-0.034883
0.980000,1.900000,0.100321,0.040000,-8830273204.237835,323008211.055332,-323344214.251752,3566518011.503640,0.006088,-0.006090,0.067195
1.020000,1.900000,0.100021,0.040000,-8830208014.760046,-2368996783.008445,2357434628.982806,-1434801497.890621,-0.044568,0.044481,-0.027032
1.020000,1.940000,0.060035,0.040000,-8830530360.915611,-7758921280.440757,9209477047.121649,-2085197480.848614,-0.154381,0.165313,-0.039286
0.980000,1.940000,0.060534,0.040000,-8830559947.409708,1074571753.626780,-1280435510.541279,5194370063.511155,0.021409,-0.022961,0.097865
1.060000,1.900000,0.100729,0.040000,-8830135411.814157,2085853220.210052,-2085250727.807225,-2077902496.564007,0.039295,-0.039291,-0.039149
1.100000,1.900000,0.100303,0.040000,-8830054621.234541,194547548.622041,-194659628.784263,3577161823.094406,0.003666,-0.003667,0.067396
1.100000,1.940000,0.060503,0.040000,-8830358631.754435,656180444.403445,-780991862.586164,5208998405.941231,0.013068,-0.014009,0.098141
1.060000,1.940000,0.061207,0.040000,-8830410950.653278,6867346784.070725,-8173232563.361891,-3034063902.083936,0.136766,-0.146607,-0.057164
1.140000,1.900000,0.100026,0.040000,-8829964721.701012,-2310366914.306129,2299662761.974233,-1592092297.656002,-0.043468,0.043387,-0.029996
1.180000,1.900000,0.100758,0.040000,-8829864678.569906,2150863247.316635,-2149862088.652488,-1924414465.541865,0.040518,-0.040510,-0.036257
1.180000,1.940000,0.061255,0.040000,-8830157562.487499,7085285003.473458,-8430902795.305031,-2810435961.574272,0.141097,-0.151237,-0.052950
1.140000,1.940000,0.060043,0.040000,-8830303329.739471,-7562782748.853933,8978825432.229315,-2313957973.737943,-0.150491,0.161163,-0.043596
1.220000,1.900000,0.100284,0.040000,-8829753387.141090,64651060.713994,-64553721.133754,3578832278.628263,0.001218,-0.001217,0.067427
1.260000,1.900000,0.100032,0.040000,-8829629545.389708,-2246428517.669372,2236620135.185589,-1745531463.566315,-0.042269,0.042195,-0.032887
1.260000,1.940000,0.060053,0.040000,-8829988394.728281,-7347587276.412369,8725458169.665281,-2537151368.560239,-0.146221,0.156605,-0.047801
1.220000,1.940000,0.060473,0.040000,-8830078419.901176,234523277.927248,-277784221.979977,5210558809.190966,0.004663,-0.004989,0.098170
1.300000,1.900000,0.100788,0.040000,-8829491683.722527,2209717031.364264,-2208312973.795480,-1765505696.576971,0.041624,-0.041614,-0.033263
1.340000,1.900000,0.100266,0.040000,-8829338192.729080,-66697039.842953,66978785.837571,3571595830.969778,-0.001258,0.001260,0.067291
1.340000,1.940000,0.060443,0.040000,-8829688988.255262,-189697169.751140,228232745.923749,5199183651.685748,-0.003792,0.004082,0.097956
1.300000,1.940000,0.061304,0.040000,-8829806353.213448,7284890072.148589,-8666886041.134600,-2578838491.757454,0.145063,-0.155478,-0.048587
1.380000,1.900000,0.100038,0.040000,-8829167182.499159,-2177779234.013990,2168887612.703856,-1894705503.121331,-0.040980,0.040913,-0.035697
1.420000,1.900000,0.100818,0.040000,-8828976500.599089,2261794693.872803,-2259993854.041893,-1601565442.155056,0.042603,-0.042590,-0.030174
1.420000,1.940000,0.061353,0.040000,-8829318611.308916,7465199102.892078,-8880180522.694351,-2339798136.115977,0.148646,-0.159310,-0.044083
1.380000,1.940000,0.060063,0.040000,-8829551350.233824,-7114395396.405244,8450493204.944318,-2754141821.795337,-0.141591,0.151660,-0.051890
1.460000,1.900000,0.100249,0.040000,-8828763734.554554,-199741076.203656,200171756.912028,3555533516.075610,-0.003766,0.003769,0.066988
1.500000,1.900000,0.100045,0.040000,-8828526045.733898,-2105325154.740561,2097352511.968637,-2039213232.903675,-0.039620,0.039560,-0.038420
1.500000,1.940000,0.060075,0.040000,-8828942091.528542,-6864616984.072188,8155401768.101816,-2964257099.571440,-0.136629,0.146357,-0.055848
1.460000,1.940000,0.060415,0.040000,-8829146370.919220,-615993662.305924,736313233.035673,5175067097.405020,-0.012286,0.013193,0.097501
1.540000,1.900000,0.100848,0.040000,-8828260159.558296,2306119090.376262,-2303938951.398670,-1433023843.783819,0.043436,-0.043420,-0.026999
1.580000,1.900000,0.100233,0.040000,-8827962322.018351,-335174019.702531,335707536.759767,3530703768.478917,-0.006318,0.006322,0.066521
1.580000,1.940000,0.060387,0.040000,-8828384658.238146,-1044320080.458061,1246144970.628895,5138470355.375246,-0.020816,0.022337,0.096812
1.540000,1.940000,0.061404,0.040000,-8828636998.466656,7624900821.554924,-9069443434.097437,-2093832926.987023,0.151822,-0.162709,-0.039449
1.620000,1.900000,0.100052,0.040000,-8827628081.458464,-2030566624.004166,2023492788.280504,-2178715342.320273,-0.038217,0.038164,-0.041048
1.660000,1.900000,0.100880,0.040000,-8827252215.270422,2340979271.613382,-2338450759.120460,-1260432308.084532,0.044091,-0.044072,-0.023747
1.660000,1.940000,0.061455,0.040000,-8827673160.689913,7761933322.085808,-9232586623.789482,-1841458212.279284,0.154552,-0.165635,-0.034694
1.620000,1.940000,0.060087,0.040000,-8828084508.594215,-6600307454.029529,7842301449.761126,-3166779177.615119,-0.131374,0.140734,-0.059664
1.700000,1.900000,0.100217,0.040000,-8826828592.865316,-474626115.322503,475204432.935790,3497017286.528421,-0.008945,0.008950,0.065886
1.740000,1.900000,0.100060,0.040000,-8826349841.712368,-1956251091.488192,1950025638.109380,-2313112069.644115,-0.036822,0.036775,-0.043580
1.740000,1.940000,0.060100,0.040000,-8826857435.934465,-6324864594.024449,7514649253.563797,-3360972784.928208,-0.125889,0.134855,-0.063323
1.700000,1.940000,0.060360,0.040000,-8827300695.762236,-1475583360.926434,1758359259.490816,5089702256.079658,-0.029399,0.031530,0.095893
1.780000,1.900000,0.100912,0.040000,-8825807123.373276,2363049516.192448,-2360222200.290646,-1084747933.441700,0.044505,-0.044484,-0.020437
1.820000,1.900000,0.100201,0.040000,-8825189783.212118,-621843713.671142,622391671.977378,3453795436.960023,-0.011719,0.011723,0.065072
1.820000,1.940000,0.060335,0.040000,-8825723752.584974,-1912920687.327600,2275811425.455986,5028966360.405881,-0.038092,0.040826,0.094749
1.780000,1.940000,0.061507,0.040000,-8826283803.347811,7872519354.103804,-9365802985.302721,-1583274759.327730,0.156763,-0.168017,-0.029830
1.860000,1.900000,0.100069,0.040000,-8824484734.614206,-1887998375.384808,1882521395.309262,-2443205873.346066,-0.035540,0.035499,-0.046031
1.900000,1.900000,0.100944,0.040000,-8823675850.206455,2365131338.503181,-2362087344.706877,-908408731.402970,0.044543,-0.044520,-0.017115
1.900000,1.940000,0.061560,0.040000,-8824220373.925226,7948588743.124189,-9460938985.064184,-1320467954.822226,0.158304,-0.169702,-0.024878
1.860000,1.940000,0.060115,0.040000,-8825055803.233110,-6044835120.118402,7179055889.829323,-3546330859.564670,-0.120299,0.128847,-0.066815
1.940000,1.900000,0.100186,0.040000,-8822743065.410538,-785816722.897640,786225318.957138,3398051018.669834,-0.014808,0.014811,0.064021
1.980000,1.900000,0.100078,0.040000,-8821661002.653416,-1838758319.012967,1833830995.564355,-2573440207.068055,-0.034615,0.034578,-0.048485
1.980000,1.940000,0.060130,0.040000,-8822302972.827557,-5775208157.017350,6850700127.485385,-3724007069.347561,-0.114887,0.122992,-0.070162
1.940000,1.940000,0.060310,0.040000,-8823349549.875980,-2365280334.839105,2807220241.665233,4955519647.555456,-0.047061,0.050392,0.093365
2.020000,1.900000,0.100977,0.040000,-8820397283.425959,2329770346.566561,-2326656895.693174,-739948494.124808,0.043877,-0.043853,-0.013941
2.060000,1.900000,0.100172,0.040000,-8818910072.704279,-989895298.159636,989985303.790132,3316703162.085347,-0.018651,0.018651,0.062489
2.060000,1.940000,0.060286,0.040000,-8819578207.757376,-2858983960.675482,3379267862.173712,4862850941.097488,-0.056806,0.060727,0.091619
2.020000,1.940000,0.061614,0.040000,-8821010843.149942,7969909663.304717,-9497297759.218742,-1057535288.780514,0.158791,-0.170302,-0.019925
2.100000,1.900000,0.100088,0.040000,-8817144467.074003,-1842099526.838230,1837328507.737909,-2725233495.398671,-0.034679,0.034643,-0.051345
2.140000,1.900000,0.101010,0.040000,-8815027609.254244,2210133919.496835,-2207115007.678642,-617922571.644507,0.041623,-0.041600,-0.011642
2.140000,1.940000,0.061669,0.040000,-8815637546.518431,7876143000.914878,-9410923726.097195,-819769914.377607,0.157066,-0.168632,-0.015445
2.100000,1.940000,0.060146,0.040000,-8817824539.716047,-5557383392.488265,6572452689.933519,-3905685353.065634,-0.110442,0.118091,-0.073585
2.180000,1.900000,0.100158,0.040000,-8812461782.760588,-1298380155.978158,1298158783.907888,3143011086.454886,-0.024461,0.024459,0.059216
2.220000,1.900000,0.100098,0.040000,-8809315169.832424,-1987108789.668319,1982678684.934932,-3018448688.091502,-0.037413,0.037380,-0.056869
2.220000,1.940000,0.060163,0.040000,-8809747969.795374,-5527725145.531958,6497218669.312444,-4183871340.651145,-0.109625,0.116932,-0.078827
2.180000,1.940000,0.060263,0.040000,-8813045051.275452,-3480836762.792746,4085372478.649373,4704656589.680355,-0.068998,0.073554,0.088638
2.260000,1.900000,0.101044,0.040000,-8805411825.895044,1895009232.914333,-1888774129.923110,-769224509.723471,0.035668,-0.035621,-0.014493
2.300000,1.900000,0.100145,0.040000,-8800527936.762884,-1811962561.604036,1822257506.959080,2445973328.635389,-0.034197,0.034274,0.046084
2.300000,1.940000,0.060242,0.040000,-8799930219.157898,-4504492844.040375,5306469395.474466,4045102137.505456,-0.089400,0.095444,0.076212
2.260000,1.940000,0.061725,0.040000,-8805463646.689655,7464321938.603261,-8955972558.176634,-807727960.755202,0.149063,-0.160305,-0.015218
2.340000,1.900000,0.100109,0.040000,-8794423162.739365,-2228526853.999210,2256805393.143541,-4277540744.379948,-0.042147,0.042360,-0.080591
2.380000,1.900000,0.101079,0.040000,-8787004750.035563,-3633432268.880930,14371324162.309410,-2743414490.452607,-0.129148,0.210072,-0.051688
2.380000,1.940000,0.061782,0.040000,-8781853627.099524,-2069716159.277600,9758242133.602930,-4506892657.967295,-0.082452,0.140394,-0.084912
2.340000,1.940000,0.060182,0.040000,-8792381742.734140,-5955604467.096939,7214509245.859200,-5582696065.487561,-0.119323,0.128810,-0.105181
2.420000,1.900000,0.080125,0.040000,-8778892593.796871,-95833927309.895218,584023460521.375732,391387028.823299,-4.564899,8.244008,0.007374
2.460000,1.900000,0.040250,0.040000,-8773918316.543133,163194574951.441071,1816443308732.210449,-4436034429.215590,-8.114577,23.033587,-0.083577
2.460000,1.940000,0.042590,0.040000,-8748666020.781340,219756721821.906281,1810495773233.440430,-20278405616.303711,-7.334996,22.635450,-0.382057
2.420000,1.940000,0.060221,0.040000,-8767487333.685822,-136442570488.342773,590865042857.280762,-15277139782.165577,-5.139132,8.563765,-0.287830
2.500000,1.900000,0.004478,0.040000,-4387297120.429288,6041941113.929525,2607133167844.410645,-6823480083.955454,-14.656287,34.349780,-0.128558
2.500000,1.940000,0.014627,0.040000,-4372023147.921399,18135397027.983219,2603517175986.642578,-24131944909.271618,-14.476355,34.233737,-0.454660
-2.500000,1.980000,0.005075,0.040000,-4269429054.021599,14531806152.505280,2605131597042.491699,67211590715.085678,-14.533005,34.275396,1.266305
-2.460000,1.980000,0.020594,0.040000,-8790347843.014627,-204231329868.459381,1830763436505.681641,25956500736.035999,-13.041279,25.299202,0.489036
-2.420000,1.980000,0.020652,0.040000,-8820928380.800426,73325221935.733780,613956759608.311890,35483250032.959274,-2.503148,7.682664,0.668525
-2.380000,1.980000,0.024839,0.040000,-8650941579.170275,52401788246.823212,-31258318141.437202,14065034431.494165,0.867773,-0.708431,0.264993
-2.340000,1.980000,0.020538,0.040000,-8866134247.135296,-24434011014.480167,35513982399.993904,8377515735.175882,-0.522977,0.606478,0.157837
-2.300000,1.980000,0.020713,0.040000,-8856266352.918917,-18426996075.424843,26288416565.533401,-7358682317.190658,-0.391609,0.450855,-0.138642
-2.260000,1.980000,0.024698,0.040000,-8677028224.119955,39813059983.083672,-57518800702.576057,1071251778.753909,0.850177,-0.983612,0.020183
-2.220000,1.980000,0.020485,0.040000,-8889728727.623814,-25191600889.763809,36070223249.958717,6893944582.293999,-0.536112,0.618096,0.129886
-2.180000,1.980000,0.020777,0.040000,-8863157215.218691,-15724145640.357599,22445612421.514565,-8004531771.469941,-0.334243,0.384897,-0.150810
-2.140000,1.980000,0.024558,0.040000,-8687592774.320436,40130886073.451744,-57857738650.055565,1338265204.666449,0.856284,-0.989878,0.025214
-2.100000,1.980000,0.020435,0.040000,-8903002116.716015,-26562144797.628078,38151319220.546013,6558072583.449337,-0.565950,0.653289,0.123558
-2.060000,1.980000,0.020843,0.040000,-8863089033.975857,-13506415144.168810,19346183280.900429,-8197807140.689487,-0.287476,0.331486,-0.154451
-2.020000,1.980000,0.024420,0.040000,-8693737536.307407,39976179003.518936,-57569862479.012383,1779831054.162973,0.852617,-0.985207,0.033533
-1.980000,1.980000,0.020387,0.040000,-8912517455.139709,-28089007337.760818,40399417124.886612,6275361273.068824,-0.598794,0.691568,0.118231
-1.940000,1.980000,0.020912,0.040000,-8860224506.972300,-11403158333.095881,16356674400.433037,-8340663194.065238,-0.242840,0.280171,-0.157143
-1.900000,1.980000,0.024283,0.040000,-8698140887.955179,39613829779.529350,-57021971829.203789,2229947286.505451,0.844741,-0.975933,0.042013
-1.860000,1.980000,0.020342,0.040000,-8920147761.213572,-29612020365.974899,42614684833.824402,5979937844.185409,-0.631401,0.729392,0.112665
-1.820000,1.980000,0.020983,0.040000,-8855938608.975145,-9321656976.850050,13376052088.382055,-8462565901.277040,-0.198542,0.229096,-0.159440
-1.780000,1.980000,0.024148,0.040000,-8701777334.075790,39114661334.906067,-56293237593.742332,2673041175.212847,0.834039,-0.963501,0.050362
-1.740000,1.980000,0.020299,0.040000,-8926630573.683136,-31084622504.610249,44745918001.295784,5667532167.879006,-0.662868,0.765823,0.106780
-1.700000,1.980000,0.021057,0.040000,-8850829575.148836,-7238993052.975361,10384142906.783657,-8565458704.777462,-0.154164,0.177866,-0.161378
-1.660000,1.980000,0.024015,0.040000,-8705088160.346010,38502407870.981842,-55409098475.508263,3106943197.919214,0.820967,-0.948380,0.058537
-1.620000,1.980000,0.020260,0.040000,-8932313216.976501,-32488639642.689861,46773032533.646149,5339467436.363296,-0.692843,0.800493,0.100599
-1.580000,1.980000,0.021133,0.040000,-8845206513.905226,-5150648339.924938,7379510290.710132,-8648588488.327299,-0.109639,0.126436,-0.162944
-1.540000,1.980000,0.023883,0.040000,-8708301780.456520,37787243702.983826,-54380628069.445572,3530901219.138954,0.805722,-0.930774,0.066524
-1.500000,1.980000,0.020223,0.040000,-8937378402.884260,-33814602856.034939,48684950863.810646,4997360417.784243,-0.721137,0.833203,0.094153
-1.460000,1.980000,0.021211,0.040000,-8839249843.564222,-3057968603.532979,4366339541.319705,-8711144909.316015,-0.065009,0.074869,-0.164123
-1.420000,1.980000,0.023753,0.040000,-8711547139.182598,36974706306.435394,-53214147404.979759,3944188285.872727,0.788413,-0.910797,0.074311
-1.380000,1.980000,0.020189,0.040000,-8941929378.044426,-35056292270.238708,50473918222.994202,4642612061.095366,-0.747624,0.863815,0.087470
-1.340000,1.980000,0.021292,0.040000,-8833075215.160572,-964461314.835555,1350800936.368680,-8752520474.070469,-0.020355,0.023266,-0.164903
-1.300000,1.980000,0.023625,0.040000,-8714901202.728127,36068562458.110756,-51914216841.750069,4345978616.302737,0.769115,-0.888532,0.081881
-1.260000,1.980000,0.020158,0.040000,-8946027222.258507,-36208949226.351578,52133711554.627632,4276441762.219106,-0.772207,0.892220,0.080571
-1.220000,1.980000,0.021376,0.040000,-8826762587.455393,1125489764.293409,-1660171154.527329,-8772283930.659830,0.024227,-0.028256,-0.165275
-1.180000,1.980000,0.023498,0.040000,-8718411367.288315,35071877527.105003,-50484741219.265991,4735381846.417371,0.747891,-0.864046,0.089217
-1.140000,1.980000,0.020129,0.040000,-8949709054.781101,-37268611544.633339,53658991198.347809,3899956416.248694,-0.794804,0.918325,0.073477
-1.100000,1.980000,0.021462,0.040000,-8820370805.053167,3207133378.052137,-4659353556.481403,-8770137073.433409,0.068632,-0.079577,-0.165234
-1.060000,1.980000,0.023373,0.040000,-8722107023.556210,33987463639.268890,-48929433517.756531,5111482552.197496,0.724798,-0.837404,0.096303
-1.020000,1.980000,0.020103,0.040000,-8952997687.441206,-38231843074.259346,55045043861.023499,3514197963.954378,-0.815341,0.942049,0.066210
-0.980000,1.980000,0.021550,0.040000,-8813945474.494715,5275575920.015654,-7639444513.564327,-8745885515.178255,0.112756,-0.130571,-0.164778
-0.940000,1.980000,0.023250,0.040000,-8726005956.903645,32818085312.817432,-47252029288.950180,5473367998.574997,0.699895,-0.808672,0.103121
-0.900000,1.980000,0.020081,0.040000,-8955907088.742123,-39095617313.774239,56287675798.111893,3120171962.116875,-0.833757,0.963320,0.058786
-0.860000,1.980000,0.021640,0.040000,-8807523476.868540,7325891708.329673,-10593168652.378489,-8699421366.565702,0.156491,-0.181114,-0.163902
-0.820000,1.980000,0.023129,0.040000,-8730118093.481035,31566560571.957737,-45456393483.832108,5820146297.624851,0.673240,-0.777917,0.109655
-0.780000,1.980000,0.020061,0.040000,-8958445644.767076,-39857266436.541183,57383168760.420761,2718864212.813216,-0.849993,0.982073,0.051225
-0.740000,1.980000,0.021732,0.040000,-8801135677.167181,9353182575.444834,-13513336116.905130,-8630713330.712439,0.199733,-0.231085,-0.162608
-0.700000,1.980000,0.023010,0.040000,-8734447795.104691,30235813166.522636,-43546576598.220428,6150958401.054983,0.644895,-0.745208,0.115888
-0.660000,1.980000,0.020043,0.040000,-8960618190.914680,-40514459820.174774,58328263732.243050,2311250352.287489,-0.864003,0.998252,0.043545
-0.620000,1.980000,0.021827,0.040000,-8794808612.426311,11352613363.112656,-16392880033.042019,-8539801091.277573,0.242378,-0.280363,-0.160895
-0.580000,1.980000,0.022892,0.040000,-8738995318.267422,28828900255.204197,-41526845077.015915,6464986290.736047,0.614924,-0.710619,0.121804
-0.540000,1.980000,0.020029,0.040000,-8962427322.252121,-41065196377.495834,59120157305.574539,1898301318.030264,-0.875742,1.011808,0.035765
-0.500000,1.980000,0.021924,0.040000,-8788565573.708447,13319435150.057976,-19224882855.754932,-8426792125.625218,0.284324,-0.328829,-0.158766
-0.460000,1.980000,0.022777,0.040000,-8743757769.382488,27349026979.940998,-39401697705.679390,6761458796.380595,0.583395,-0.674227,0.127390
-0.420000,1.980000,0.020018,0.040000,-8963874260.785988,-41507803353.531609,59756503664.512672,1480986377.457505,-0.885176,1.022702,0.027903
-0.380000,1.980000,0.022024,0.040000,-8782427312.804131,15249001796.577534,-22002596488.778465,-8291859858.219587,0.325473,-0.376369,-0.156223
-0.340000,1.980000,0.022663,0.040000,-8748729743.534204,25799553611.974709,-37175873835.342300,7039655880.037434,0.550379,-0.636114,0.132631
-0.300000,1.980000,0.020009,0.040000,-8964959438.489304,-41840937963.202194,60235418729.528412,1060274693.570546,-0.892276,1.030901,0.019976
-0.260000,1.980000,0.022125,0.040000,-8776412506.994196,17136782576.962484,-24719458553.147175,-8135242520.839724,0.365726,-0.422870,-0.153273
-0.220000,1.980000,0.022551,0.040000,-8753903756.033016,24183998232.720848,-34854356497.310867,7298911882.441482,0.515951,-0.596366,0.137516
-0.180000,1.980000,0.020003,0.040000,-8965682889.578064,-42063589988.115913,60555484681.659424,637136003.247738,-0.897022,1.036381,0.012004
-0.140000,1.980000,0.022228,0.040000,-8770538061.019455,18978372330.689426,-27369106001.842571,-7957242341.058480,0.404989,-0.468224,-0.149919
-0.100000,1.980000,0.022442,0.040000,-8759270532.046005,22506036554.773888,-32442372064.800129,7538618029.893464,0.480189,-0.555071,0.142032
-0.060000,1.980000,0.020000,0.040000,-8966044508.069149,-42175084319.692924,60715753913.031288,212540757.748920,-0.899398,1.039125,0.004004
-0.020000,1.980000,0.022334,0.040000,-8764819293.825682,20769499888.064213,-29945386693.836819,-7758224824.952785,0.443173,-0.512325,-0.146169
0.020000,1.980000,0.022334,0.040000,-8764819193.462412,20769499774.983803,-29945387384.455452,7758224388.777818,0.443173,-0.512325,0.146169
0.060000,1.980000,0.020000,0.040000,-8966044204.055464,-42175082893.722847,60715751883.810463,-212540053.118119,-0.899398,1.039125,-0.004004
0.100000,1.980000,0.022442,0.040000,-8759270038.225912,22506035165.726662,-32442369233.365604,-7538617981.480080,0.480189,-0.555071,-0.142032
0.140000,1.980000,0.022228,0.040000,-8770537365.710802,18978370955.131702,-27369104894.042454,7957241393.026660,0.404989,-0.468224,0.149919
0.180000,1.980000,0.020003,0.040000,-8965681977.576668,-42063585721.510353,60555478610.234131,-637135242.849230,-0.897022,1.036381,-0.012004
0.220000,1.980000,0.022551,0.040000,-8753902668.761486,24183995113.532917,-34854351199.451988,-7298911380.762768,0.515951,-0.596365,-0.137516
0.260000,1.980000,0.022125,0.040000,-8776411215.951588,17136780189.103724,-24719456004.546345,8135241037.871840,0.365725,-0.422870,0.153273
0.300000,1.980000,0.020009,0.040000,-8964957918.619251,-41840930889.907837,60235408664.544830,-1060273821.900831,-0.892276,1.030901,-0.019976
0.340000,1.980000,0.022663,0.040000,-8748728063.509933,25799548547.305962,-37175865763.777725,-7039654960.336850,0.550379,-0.636114,-0.132631
0.380000,1.980000,0.022024,0.040000,-8782425425.216644,15248998655.909260,-22002592870.546459,8291857821.533258,0.325472,-0.376369,0.156223
0.420000,1.980000,0.020018,0.040000,-8963872133.245743,-41507793529.934395,59756489686.773087,-1480985339.524734,-0.885176,1.022702,-0.027903
0.460000,1.980000,0.022777,0.040000,-8743755497.268650,27349019768.106216,-39401686572.824120,-6761457497.670782,0.583395,-0.674227,-0.127390
0.500000,1.980000,0.021924,0.040000,-8788563088.747448,13319431524.253185,-19224878550.905704,8426789520.778889,0.284324,-0.328829,0.158766
0.540000,1.980000,0.020029,0.040000,-8962424587.319681,-41065183882.124313,59120139527.627007,-1898300059.637571,-0.875742,1.011808,-0.035765
0.580000,1.980000,0.022892,0.040000,-8738992454.689692,28828890709.183811,-41526830616.380600,-6464984655.599898,0.614924,-0.710619,-0.121804
0.620000,1.980000,0.021827,0.040000,-8794805529.250961,11352609526.714483,-16392875434.601719,8539797908.279896,0.242378,-0.280363,0.160895
0.660000,1.980000,0.020043,0.040000,-8960614848.947958,-40514444753.327339,58328242297.835732,-2311248820.263525,-0.864002,0.998251,-0.043545
0.700000,1.980000,0.023010,0.040000,-8734444340.650469,30235801114.771263,-43546558565.599777,-6150956475.475594,0.644895,-0.745208,-0.115888
0.740000,1.980000,0.021732,0.040000,-8801131994.930397,9353178808.701611,-13513331626.130281,8630709564.000252,0.199733,-0.231085,0.162608
0.780000,1.980000,0.020061,0.040000,-8958441696.204550,-39857248919.697990,57383143843.762100,-2718862355.282173,-0.849993,0.982072,-0.051225
0.820000,1.980000,0.023129,0.040000,-8730114048.699232,31566545859.348988,-45456371658.531807,-5820144130.721366,0.673240,-0.777917,-0.109655
0.860000,1.980000,0.021640,0.040000,-8807519194.724375,7325888295.768970,-10593164676.768780,8699417015.054375,0.156491,-0.181114,0.163902
0.900000,1.980000,0.020081,0.040000,-8955902534.104252,-39095597489.069618,56287647603.017410,-3120169728.779984,-0.833756,0.963319,-0.058786
0.940000,1.980000,0.023250,0.040000,-8726001322.305876,32818067801.397476,-47252003474.906013,-5473365642.415939,0.699895,-0.808672,-0.103121
0.980000,1.980000,0.021550,0.040000,-8813940591.606737,5275573149.145261,-7639441464.942947,8745880582.241566,0.112756,-0.130571,0.164777
1.020000,1.980000,0.020103,0.040000,-8952992527.332716,-38231821103.668495,55045012619.864632,-3514195306.332112,-0.815341,0.942049,-0.066209
1.060000,1.980000,0.023373,0.040000,-8722101799.619785,33987443209.038921,-48929403544.539810,-5111480061.548865,0.724798,-0.837404,-0.096303
1.100000,1.980000,0.021462,0.040000,-8820365320.604738,3207131538.066123,-4659351849.024871,8770131566.854748,0.068632,-0.079577,0.165234
1.140000,1.980000,0.020129,0.040000,-8949703289.895010,-37268587609.094559,53658957170.846748,-3899953287.951001,-0.794803,0.918325,-0.073477
1.180000,1.980000,0.023498,0.040000,-8718405554.461607,35071854076.755585,-50484706943.075142,-4735379278.471754,0.747890,-0.864045,-0.089217
1.220000,1.980000,0.021376,0.040000,-8826756500.662756,1125489144.699366,-1660171202.761416,8772277862.583122,0.024227,-0.028256,0.165275
1.260000,1.980000,0.020158,0.040000,-8946020853.382954,-36208923524.800377,52133675026.483330,-4276438119.231274,-0.772207,0.892219,-0.080571
1.300000,1.980000,0.023625,0.040000,-8714894801.439545,36068535905.786949,-51914178146.429863,-4345976030.437477,0.769114,-0.888531,-0.081881
1.340000,1.980000,0.021292,0.040000,-8833068525.290169,-964460425.524900,1350798719.552531,8752513860.893196,-0.020355,0.023266,0.164902
1.380000,1.980000,0.020189,0.040000,-8941922406.073999,-35056265018.402298,50473879504.301537,-4642607862.078099,-0.747623,0.863814,-0.087469
1.420000,1.980000,0.023753,0.040000,-8711540149.855499,36974676590.566650,-53214104203.033752,-3944185743.403016,0.788412,-0.910797,-0.074311
1.460000,1.980000,0.021211,0.040000,-8839242549.956669,-3057965918.917928,4366334746.492884,8711137771.547577,-0.065009,0.074869,0.164123
1.500000,1.980000,0.020223,0.040000,-8937370828.839054,-33814574284.954350,48684910287.153824,-4997355624.414745,-0.721136,0.833202,-0.094153
1.540000,1.980000,0.023883,0.040000,-8708294203.533699,37787210783.371216,-54380580303.292328,-3530898783.098868,0.805722,-0.930773,-0.066524
1.580000,1.980000,0.021133,0.040000,-8845198616.011028,-5150643576.556436,7379502513.518586,8648580850.382587,-0.109639,0.126436,0.162944
1.620000,1.980000,0.020260,0.040000,-8932305042.035175,-32488609996.828564,46772990451.737350,-5339462013.727452,-0.692842,0.800492,-0.100599
1.660000,1.980000,0.024015,0.040000,-8705079996.331169,38502371730.486137,-55409046119.394173,-3106940932.856648,0.820966,-0.948379,-0.058537
1.700000,1.980000,0.021057,0.040000,-8850821072.585690,-7238985930.577792,10384131748.913338,8565450594.729635,-0.154164,0.177866,0.161378
1.740000,1.980000,0.020299,0.040000,-8926621799.242125,-31084592038.804291,44745874783.481651,-5667526084.931243,-0.662868,0.765822,-0.106779
1.780000,1.980000,0.024148,0.040000,-8701768583.608519,39114621982.473389,-56293180656.926727,-2673039147.032649,0.834038,-0.963500,-0.050362
1.820000,1.980000,0.020983,0.040000,-8855929501.627380,-9321647216.590187,13376037156.781746,8462557350.481404,-0.198541,0.229096,0.159439
1.860000,1.980000,0.020342,0.040000,-8920138389.000326,-29611989339.871662,42614640859.958984,-5979931074.331971,-0.631400,0.729391,-0.112665
1.900000,1.980000,0.024283,0.040000,-8698131551.954006,39613787257.505386,-57021910363.665642,-2229945562.111417,0.844740,-0.975932,-0.042013
1.940000,1.980000,0.020912,0.040000,-8860214795.182947,-11403145650.640862,16356655301.345093,8340654237.278535,-0.242840,0.280171,0.157143
1.980000,1.980000,0.020387,0.040000,-8912507487.448563,-28088976002.228645,40399372770.905441,-6275353793.834934,-0.598793,0.691567,-0.118231
2.020000,1.980000,0.024420,0.040000,-8693727616.277748,39976133407.358200,-57569796600.481331,-1779829699.032151,0.852616,-0.985206,-0.033533
2.060000,1.980000,0.020843,0.040000,-8863078718.970036,-13506399224.868536,19346159595.239899,8197797819.841456,-0.287476,0.331486,0.154451
2.100000,1.980000,0.020435,0.040000,-8902991556.968416,-26562113353.078995,38151274812.394493,-6558064368.738193,-0.565950,0.653288,-0.123558
2.140000,1.980000,0.024558,0.040000,-8687582273.121874,40130837619.551743,-57857668615.433983,-1338264263.371819,0.856283,-0.989877,-0.025214
2.180000,1.980000,0.020777,0.040000,-8863146300.225790,-15724126040.922201,22445583591.521015,8004522174.865371,-0.334242,0.384897,0.150810
2.220000,1.980000,0.020485,0.040000,-8889717581.995434,-25191569322.675220,36070178849.898499,-6893935514.860241,-0.536112,0.618095,-0.129886
2.260000,1.980000,0.024698,0.040000,-8677017148.408493,39813009286.387268,-57518727320.359543,-1071251060.779641,0.850176,-0.983610,-0.020183
2.300000,1.980000,0.020713,0.040000,-8856254847.167669,-18426971827.555786,26288381138.472446,7358673108.540673,-0.391609,0.450854,0.138642
2.340000,1.980000,0.020538,0.040000,-8866122531.254259,-24433978667.743141,35513936154.857552,-8377504146.941319,-0.522976,0.606477,-0.157837
2.380000,1.980000,0.024839,0.040000,-8650929951.417789,52401717075.567162,-31258278005.695202,-14065015247.078863,0.867772,-0.708430,-0.264993
2.420000,1.980000,0.020652,0.040000,-8820916324.215494,73325118719.538757,613955892179.860474,-35483199689.266434,-2.503144,7.682653,-0.668524
2.460000,1.980000,0.020594,0.040000,-8790335632.298246,-204231037237.434601,1830760852329.779297,-25956464596.173611,-13.041261,25.299166,-0.489035
2.500000,1.980000,0.005075,0.040000,-4269423025.032207,14531796555.988194,2605127918476.064941,-67211499216.021774,-14.532985,34.275348,-1.266304
