x,y,R,s,phi,sigma_xx,sigma_yy,tau_xy,epsilon_xx,epsilon_yy,epsilon_xy
-2.120000,-1.680000,0.321403,0.080000,-0.017149,-0.010477,0.006845,-0.036412,-0.000000,0.000000,-0.000000
-2.040000,-1.680000,0.320156,0.080000,-0.017302,-0.014505,0.011290,-0.024607,-0.000000,0.000000,-0.000000
-1.960000,-1.680000,0.320156,0.080000,-0.017384,-0.014672,0.011650,-0.016258,-0.000000,0.000000,-0.000000
-1.880000,-1.680000,0.321403,0.080000,-0.017392,-0.013398,0.010668,-0.010495,-0.000000,0.000000,-0.000000
-1.800000,-1.680000,0.323883,0.080000,-0.017332,-0.011677,0.009087,-0.006684,-0.000000,0.000000,-0.000000
-1.720000,-1.680000,0.321403,0.080000,-0.017215,-0.009973,0.007475,-0.004146,-0.000000,0.000000,-0.000000
-1.640000,-1.680000,0.320156,0.080000,-0.017049,-0.008444,0.006005,-0.002452,-0.000000,0.000000,-0.000000
-1.560000,-1.680000,0.320156,0.080000,-0.016845,-0.007129,0.004727,-0.001321,-0.000000,0.000000,-0.000000
-1.480000,-1.680000,0.321403,0.080000,-0.016611,-0.006022,0.003639,-0.000564,-0.000000,0.000000,-0.000000
-1.400000,-1.680000,0.323883,0.080000,-0.016353,-0.005096,0.002721,-0.000061,-0.000000,0.000000,-0.000000
-1.320000,-1.680000,0.321403,0.080000,-0.016078,-0.004326,0.001951,0.000270,-0.000000,0.000000,0.000000
-1.240000,-1.680000,0.320156,0.080000,-0.015791,-0.003684,0.001304,0.000481,-0.000000,0.000000,0.000000
-1.160000,-1.680000,0.320156,0.080000,-0.015494,-0.003149,0.000759,0.000608,-0.000000,0.000000,0.000000
-1.080000,-1.680000,0.321403,0.080000,-0.015193,-0.002701,0.000301,0.000678,-0.000000,0.000000,0.000000
-1.000000,-1.680000,0.323883,0.080000,-0.014890,-0.002326,-0.000086,0.000705,-0.000000,0.000000,0.000000
-0.920000,-1.680000,0.321403,0.080000,-0.014588,-0.002012,-0.000414,0.000704,-0.000000,0.000000,0.000000
-0.840000,-1.680000,0.320156,0.080000,-0.014288,-0.001748,-0.000691,0.000681,-0.000000,0.000000,0.000000
-0.760000,-1.680000,0.320156,0.080000,-0.013993,-0.001526,-0.000925,0.000642,-0.000000,-0.000000,0.000000
-0.680000,-1.680000,0.321403,0.080000,-0.013703,-0.001341,-0.001122,0.000593,-0.000000,-0.000000,0.000000
-0.600000,-1.680000,0.323883,0.080000,-0.013421,-0.001186,-0.001288,0.000536,-0.000000,-0.000000,0.000000
-0.520000,-1.680000,0.321403,0.080000,-0.013146,-0.001059,-0.001425,0.000473,-0.000000,-0.000000,0.000000
-0.440000,-1.680000,0.320156,0.080000,-0.012881,-0.000954,-0.001538,0.000405,-0.000000,-0.000000,0.000000
-0.360000,-1.680000,0.320156,0.080000,-0.012626,-0.000871,-0.001629,0.000335,-0.000000,-0.000000,0.000000
-0.280000,-1.680000,0.321403,0.080000,-0.012381,-0.000807,-0.001699,0.000262,-0.000000,-0.000000,0.000000
-0.200000,-1.680000,0.323883,0.080000,-0.012147,-0.000760,-0.001751,0.000188,-0.000000,-0.000000,0.000000
-0.120000,-1.680000,0.321403,0.080000,-0.011924,-0.000729,-0.001785,0.000113,0.000000,-0.000000,0.000000
-0.040000,-1.680000,0.320156,0.080000,-0.011713,-0.000713,-0.001801,0.000038,0.000000,-0.000000,0.000000
0.040000,-1.680000,0.320156,0.080000,-0.011513,-0.000713,-0.001801,-0.000038,0.000000,-0.000000,-0.000000
0.120000,-1.680000,0.321403,0.080000,-0.011324,-0.000729,-0.001785,-0.000113,0.000000,-0.000000,-0.000000
0.200000,-1.680000,0.323883,0.080000,-0.011147,-0.000759,-0.001751,-0.000188,-0.000000,-0.000000,-0.000000
0.280000,-1.680000,0.321403,0.080000,-0.010981,-0.000806,-0.001699,-0.000262,-0.000000,-0.000000,-0.000000
0.360000,-1.680000,0.320156,0.080000,-0.010826,-0.000871,-0.001629,-0.000335,-0.000000,-0.000000,-0.000000
0.440000,-1.680000,0.320156,0.080000,-0.010682,-0.000954,-0.001538,-0.000405,-0.000000,-0.000000,-0.000000
0.520000,-1.680000,0.321403,0.080000,-0.010547,-0.001058,-0.001426,-0.000472,-0.000000,-0.000000,-0.000000
0.600000,-1.680000,0.323883,0.080000,-0.010421,-0.001186,-0.001288,-0.000535,-0.000000,-0.000000,-0.000000
0.680000,-1.680000,0.321403,0.080000,-0.010304,-0.001340,-0.001123,-0.000593,-0.000000,-0.000000,-0.000000
0.760000,-1.680000,0.320156,0.080000,-0.010193,-0.001526,-0.000925,-0.000642,-0.000000,-0.000000,-0.000000
0.840000,-1.680000,0.320156,0.080000,-0.010089,-0.001747,-0.000692,-0.000680,-0.000000,0.000000,-0.000000
0.920000,-1.680000,0.321403,0.080000,-0.009989,-0.002011,-0.000415,-0.000703,-0.000000,0.000000,-0.000000
1.000000,-1.680000,0.323883,0.080000,-0.009892,-0.002325,-0.000087,-0.000705,-0.000000,0.000000,-0.000000
1.080000,-1.680000,0.321403,0.080000,-0.009795,-0.002700,0.000300,-0.000677,-0.000000,0.000000,-0.000000
1.160000,-1.680000,0.320156,0.080000,-0.009696,-0.003147,0.000758,-0.000608,-0.000000,0.000000,-0.000000
1.240000,-1.680000,0.320156,0.080000,-0.009592,-0.003682,0.001302,-0.000481,-0.000000,0.000000,-0.000000
1.320000,-1.680000,0.321403,0.080000,-0.009480,-0.004324,0.001949,-0.000270,-0.000000,0.000000,-0.000000
1.400000,-1.680000,0.323883,0.080000,-0.009355,-0.005094,0.002719,0.000060,-0.000000,0.000000,0.000000
1.480000,-1.680000,0.321403,0.080000,-0.009213,-0.006019,0.003636,0.000563,-0.000000,0.000000,0.000000
1.560000,-1.680000,0.320156,0.080000,-0.009048,-0.007126,0.004723,0.001320,-0.000000,0.000000,0.000000
1.640000,-1.680000,0.320156,0.080000,-0.008852,-0.008439,0.006001,0.002451,-0.000000,0.000000,0.000000
1.720000,-1.680000,0.321403,0.080000,-0.008617,-0.009967,0.007469,0.004143,-0.000000,0.000000,0.000000
1.800000,-1.680000,0.323883,0.080000,-0.008335,-0.011670,0.009080,0.006680,-0.000000,0.000000,0.000000
1.880000,-1.680000,0.321403,0.080000,-0.007995,-0.013389,0.010659,0.010490,-0.000000,0.000000,0.000000
1.960000,-1.680000,0.320156,0.080000,-0.007588,-0.014661,0.011640,0.016249,-0.000000,0.000000,0.000000
2.040000,-1.680000,0.320156,0.080000,-0.007106,-0.014493,0.011278,0.024593,-0.000000,0.000000,0.000000
2.120000,-1.680000,0.321403,0.080000,-0.006554,-0.010465,0.006833,0.036388,-0.000000,0.000000,0.000000
-2.120000,-1.600000,0.383275,0.080000,-0.017274,-0.000171,-0.003136,-0.028525,0.000000,-0.000000,-0.000000
-2.040000,-1.600000,0.400125,0.080000,-0.017248,-0.006014,0.002957,-0.021696,-0.000000,0.000000,-0.000000
-1.960000,-1.600000,0.400125,0.080000,-0.017205,-0.008472,0.005584,-0.015894,-0.000000,0.000000,-0.000000
-1.880000,-1.600000,0.401123,0.080000,-0.017126,-0.009055,0.006329,-0.011222,-0.000000,0.000000,-0.000000
-1.800000,-1.600000,0.403113,0.080000,-0.017009,-0.008709,0.006064,-0.007815,-0.000000,0.000000,-0.000000
-1.720000,-1.600000,0.401123,0.080000,-0.016853,-0.007970,0.005384,-0.005350,-0.000000,0.000000,-0.000000
-1.640000,-1.600000,0.400125,0.080000,-0.016662,-0.007108,0.004561,-0.003587,-0.000000,0.000000,-0.000000
-1.560000,-1.600000,0.400125,0.080000,-0.016443,-0.006252,0.003730,-0.002332,-0.000000,0.000000,-0.000000
-1.480000,-1.600000,0.401123,0.080000,-0.016200,-0.005460,0.002951,-0.001442,-0.000000,0.000000,-0.000000
-1.400000,-1.600000,0.403113,0.080000,-0.015937,-0.004754,0.002250,-0.000812,-0.000000,0.000000,-0.000000
-1.320000,-1.600000,0.401123,0.080000,-0.015661,-0.004136,0.001631,-0.000369,-0.000000,0.000000,-0.000000
-1.240000,-1.600000,0.400125,0.080000,-0.015374,-0.003602,0.001091,-0.000060,-0.000000,0.000000,-0.000000
-1.160000,-1.600000,0.400125,0.080000,-0.015079,-0.003142,0.000624,0.000151,-0.000000,0.000000,0.000000
-1.080000,-1.600000,0.401123,0.080000,-0.014781,-0.002749,0.000221,0.000291,-0.000000,0.000000,0.000000
-1.000000,-1.600000,0.403113,0.080000,-0.014481,-0.002413,-0.000126,0.000378,-0.000000,0.000000,0.000000
-0.920000,-1.600000,0.401123,0.080000,-0.014183,-0.002127,-0.000425,0.000427,-0.000000,0.000000,0.000000
-0.840000,-1.600000,0.400125,0.080000,-0.013886,-0.001883,-0.000680,0.000447,-0.000000,0.000000,0.000000
-0.760000,-1.600000,0.400125,0.080000,-0.013594,-0.001676,-0.000898,0.000445,-0.000000,-0.000000,0.000000
-0.680000,-1.600000,0.401123,0.080000,-0.013308,-0.001501,-0.001084,0.000428,-0.000000,-0.000000,0.000000
-0.600000,-1.600000,0.403113,0.080000,-0.013029,-0.001355,-0.001241,0.000398,-0.000000,-0.000000,0.000000
-0.520000,-1.600000,0.401123,0.080000,-0.012757,-0.001233,-0.001372,0.000359,-0.000000,-0.000000,0.000000
-0.440000,-1.600000,0.400125,0.080000,-0.012495,-0.001132,-0.001480,0.000313,-0.000000,-0.000000,0.000000
-0.360000,-1.600000,0.400125,0.080000,-0.012242,-0.001052,-0.001567,0.000262,-0.000000,-0.000000,0.000000
-0.280000,-1.600000,0.401123,0.080000,-0.011998,-0.000989,-0.001635,0.000207,-0.000000,-0.000000,0.000000
-0.200000,-1.600000,0.403113,0.080000,-0.011766,-0.000944,-0.001685,0.000150,-0.000000,-0.000000,0.000000
-0.120000,-1.600000,0.401123,0.080000,-0.011544,-0.000914,-0.001717,0.000091,-0.000000,-0.000000,0.000000
-0.040000,-1.600000,0.400125,0.080000,-0.011333,-0.000899,-0.001734,0.000030,-0.000000,-0.000000,0.000000
0.040000,-1.600000,0.400125,0.080000,-0.011133,-0.000899,-0.001734,-0.000030,-0.000000,-0.000000,-0.000000
0.120000,-1.600000,0.401123,0.080000,-0.010944,-0.000914,-0.001717,-0.000090,-0.000000,-0.000000,-0.000000
0.200000,-1.600000,0.403113,0.080000,-0.010766,-0.000944,-0.001685,-0.000150,-0.000000,-0.000000,-0.000000
0.280000,-1.600000,0.401123,0.080000,-0.010599,-0.000989,-0.001635,-0.000207,-0.000000,-0.000000,-0.000000
0.360000,-1.600000,0.400125,0.080000,-0.010442,-0.001052,-0.001567,-0.000262,-0.000000,-0.000000,-0.000000
0.440000,-1.600000,0.400125,0.080000,-0.010295,-0.001132,-0.001480,-0.000313,-0.000000,-0.000000,-0.000000
0.520000,-1.600000,0.401123,0.080000,-0.010158,-0.001232,-0.001372,-0.000359,-0.000000,-0.000000,-0.000000
0.600000,-1.600000,0.403113,0.080000,-0.010030,-0.001354,-0.001241,-0.000398,-0.000000,-0.000000,-0.000000
0.680000,-1.600000,0.401123,0.080000,-0.009909,-0.001501,-0.001084,-0.000428,-0.000000,-0.000000,-0.000000
0.760000,-1.600000,0.400125,0.080000,-0.009795,-0.001676,-0.000899,-0.000445,-0.000000,-0.000000,-0.000000
0.840000,-1.600000,0.400125,0.080000,-0.009687,-0.001882,-0.000681,-0.000447,-0.000000,0.000000,-0.000000
0.920000,-1.600000,0.401123,0.080000,-0.009584,-0.002126,-0.000425,-0.000427,-0.000000,0.000000,-0.000000
1.000000,-1.600000,0.403113,0.080000,-0.009483,-0.002412,-0.000127,-0.000378,-0.000000,0.000000,-0.000000
1.080000,-1.600000,0.401123,0.080000,-0.009383,-0.002748,0.000220,-0.000291,-0.000000,0.000000,-0.000000
1.160000,-1.600000,0.400125,0.080000,-0.009281,-0.003141,0.000623,-0.000151,-0.000000,0.000000,-0.000000
1.240000,-1.600000,0.400125,0.080000,-0.009175,-0.003600,0.001090,0.000060,-0.000000,0.000000,0.000000
1.320000,-1.600000,0.401123,0.080000,-0.009063,-0.004134,0.001629,0.000368,-0.000000,0.000000,0.000000
1.400000,-1.600000,0.403113,0.080000,-0.008939,-0.004751,0.002248,0.000811,-0.000000,0.000000,0.000000
1.480000,-1.600000,0.401123,0.080000,-0.008802,-0.005457,0.002949,0.001441,-0.000000,0.000000,0.000000
1.560000,-1.600000,0.400125,0.080000,-0.008645,-0.006248,0.003727,0.002331,-0.000000,0.000000,0.000000
1.640000,-1.600000,0.400125,0.080000,-0.008465,-0.007104,0.004557,0.003585,-0.000000,0.000000,0.000000
1.720000,-1.600000,0.401123,0.080000,-0.008255,-0.007966,0.005380,0.005347,-0.000000,0.000000,0.000000
1.800000,-1.600000,0.403113,0.080000,-0.008012,-0.008704,0.006059,0.007810,-0.000000,0.000000,0.000000
1.880000,-1.600000,0.401123,0.080000,-0.007730,-0.009049,0.006323,0.011216,-0.000000,0.000000,0.000000
1.960000,-1.600000,0.400125,0.080000,-0.007408,-0.008466,0.005578,0.015884,-0.000000,0.000000,0.000000
2.040000,-1.600000,0.400125,0.080000,-0.007052,-0.006009,0.002952,0.021682,-0.000000,0.000000,0.000000
2.120000,-1.600000,0.383275,0.080000,-0.006679,-0.000168,-0.003138,0.028504,0.000000,-0.000000,0.000000
-2.120000,-1.520000,0.381182,0.080000,-0.017403,0.004569,-0.007740,-0.021047,0.000000,-0.000000,-0.000000
-2.040000,-1.520000,0.460977,0.080000,-0.017234,-0.000844,-0.002120,-0.017673,0.000000,-0.000000,-0.000000
-1.960000,-1.520000,0.480104,0.080000,-0.017080,-0.004005,0.001136,-0.014053,-0.000000,0.000000,-0.000000
-1.880000,-1.520000,0.480937,0.080000,-0.016919,-0.005556,0.002809,-0.010688,-0.000000,0.000000,-0.000000
-1.800000,-1.520000,0.482597,0.080000,-0.016741,-0.006091,0.003388,-0.007960,-0.000000,0.000000,-0.000000
-1.720000,-1.520000,0.480937,0.080000,-0.016542,-0.006065,0.003397,-0.005822,-0.000000,0.000000,-0.000000
-1.640000,-1.520000,0.480104,0.080000,-0.016321,-0.005746,0.003103,-0.004189,-0.000000,0.000000,-0.000000
-1.560000,-1.520000,0.480104,0.080000,-0.016080,-0.005294,0.002666,-0.002960,-0.000000,0.000000,-0.000000
-1.480000,-1.520000,0.480937,0.080000,-0.015823,-0.004799,0.002179,-0.002043,-0.000000,0.000000,-0.000000
-1.400000,-1.520000,0.482597,0.080000,-0.015552,-0.004310,0.001692,-0.001362,-0.000000,0.000000,-0.000000
-1.320000,-1.520000,0.480937,0.080000,-0.015270,-0.003851,0.001230,-0.000861,-0.000000,0.000000,-0.000000
-1.240000,-1.520000,0.480104,0.080000,-0.014980,-0.003434,0.000807,-0.000493,-0.000000,0.000000,-0.000000
-1.160000,-1.520000,0.480104,0.080000,-0.014684,-0.003060,0.000425,-0.000227,-0.000000,0.000000,-0.000000
-1.080000,-1.520000,0.480937,0.080000,-0.014386,-0.002731,0.000086,-0.000037,-0.000000,0.000000,-0.000000
-1.000000,-1.520000,0.482597,0.080000,-0.014088,-0.002442,-0.000214,0.000096,-0.000000,0.000000,0.000000
-0.920000,-1.520000,0.480937,0.080000,-0.013791,-0.002191,-0.000476,0.000184,-0.000000,0.000000,0.000000
-0.840000,-1.520000,0.480104,0.080000,-0.013497,-0.001973,-0.000704,0.000239,-0.000000,0.000000,0.000000
-0.760000,-1.520000,0.480104,0.080000,-0.013207,-0.001786,-0.000902,0.000268,-0.000000,-0.000000,0.000000
-0.680000,-1.520000,0.480937,0.080000,-0.012923,-0.001627,-0.001072,0.000277,-0.000000,-0.000000,0.000000
-0.600000,-1.520000,0.482597,0.080000,-0.012646,-0.001491,-0.001217,0.000272,-0.000000,-0.000000,0.000000
-0.520000,-1.520000,0.480937,0.080000,-0.012376,-0.001378,-0.001339,0.000254,-0.000000,-0.000000,0.000000
-0.440000,-1.520000,0.480104,0.080000,-0.012116,-0.001284,-0.001440,0.000228,-0.000000,-0.000000,0.000000
-0.360000,-1.520000,0.480104,0.080000,-0.011864,-0.001208,-0.001522,0.000194,-0.000000,-0.000000,0.000000
-0.280000,-1.520000,0.480937,0.080000,-0.011622,-0.001149,-0.001586,0.000156,-0.000000,-0.000000,0.000000
-0.200000,-1.520000,0.482597,0.080000,-0.011390,-0.001106,-0.001633,0.000114,-0.000000,-0.000000,0.000000
-0.120000,-1.520000,0.480937,0.080000,-0.011169,-0.001077,-0.001664,0.000069,-0.000000,-0.000000,0.000000
-0.040000,-1.520000,0.480104,0.080000,-0.010958,-0.001063,-0.001680,0.000023,-0.000000,-0.000000,0.000000
0.040000,-1.520000,0.480104,0.080000,-0.010758,-0.001063,-0.001680,-0.000023,-0.000000,-0.000000,-0.000000
0.120000,-1.520000,0.480937,0.080000,-0.010569,-0.001077,-0.001664,-0.000069,-0.000000,-0.000000,-0.000000
0.200000,-1.520000,0.482597,0.080000,-0.010391,-0.001105,-0.001633,-0.000114,-0.000000,-0.000000,-0.000000
0.280000,-1.520000,0.480937,0.080000,-0.010222,-0.001149,-0.001586,-0.000156,-0.000000,-0.000000,-0.000000
0.360000,-1.520000,0.480104,0.080000,-0.010064,-0.001208,-0.001522,-0.000194,-0.000000,-0.000000,-0.000000
0.440000,-1.520000,0.480104,0.080000,-0.009916,-0.001283,-0.001440,-0.000228,-0.000000,-0.000000,-0.000000
0.520000,-1.520000,0.480937,0.080000,-0.009777,-0.001377,-0.001339,-0.000254,-0.000000,-0.000000,-0.000000
0.600000,-1.520000,0.482597,0.080000,-0.009646,-0.001491,-0.001217,-0.000272,-0.000000,-0.000000,-0.000000
0.680000,-1.520000,0.480937,0.080000,-0.009524,-0.001626,-0.001072,-0.000277,-0.000000,-0.000000,-0.000000
0.760000,-1.520000,0.480104,0.080000,-0.009408,-0.001786,-0.000902,-0.000268,-0.000000,-0.000000,-0.000000
0.840000,-1.520000,0.480104,0.080000,-0.009298,-0.001973,-0.000705,-0.000239,-0.000000,0.000000,-0.000000
0.920000,-1.520000,0.480937,0.080000,-0.009192,-0.002190,-0.000477,-0.000184,-0.000000,0.000000,-0.000000
1.000000,-1.520000,0.482597,0.080000,-0.009089,-0.002441,-0.000215,-0.000096,-0.000000,0.000000,-0.000000
1.080000,-1.520000,0.480937,0.080000,-0.008988,-0.002729,0.000084,0.000037,-0.000000,0.000000,0.000000
1.160000,-1.520000,0.480104,0.080000,-0.008886,-0.003059,0.000424,0.000226,-0.000000,0.000000,0.000000
1.240000,-1.520000,0.480104,0.080000,-0.008781,-0.003432,0.000805,0.000493,-0.000000,0.000000,0.000000
1.320000,-1.520000,0.480937,0.080000,-0.008671,-0.003850,0.001229,0.000860,-0.000000,0.000000,0.000000
1.400000,-1.520000,0.482597,0.080000,-0.008554,-0.004308,0.001690,0.001361,-0.000000,0.000000,0.000000
1.480000,-1.520000,0.480937,0.080000,-0.008425,-0.004797,0.002177,0.002041,-0.000000,0.000000,0.000000
1.560000,-1.520000,0.480104,0.080000,-0.008283,-0.005292,0.002664,0.002958,-0.000000,0.000000,0.000000
1.640000,-1.520000,0.480104,0.080000,-0.008123,-0.005743,0.003100,0.004187,-0.000000,0.000000,0.000000
1.720000,-1.520000,0.480937,0.080000,-0.007944,-0.006062,0.003393,0.005818,-0.000000,0.000000,0.000000
1.800000,-1.520000,0.482597,0.080000,-0.007744,-0.006088,0.003385,0.007955,-0.000000,0.000000,0.000000
1.880000,-1.520000,0.480937,0.080000,-0.007522,-0.005553,0.002805,0.010681,-0.000000,0.000000,0.000000
1.960000,-1.520000,0.480104,0.080000,-0.007283,-0.004002,0.001133,0.014043,-0.000000,0.000000,0.000000
2.040000,-1.520000,0.460977,0.080000,-0.007038,-0.000842,-0.002121,0.017660,0.000000,-0.000000,0.000000
2.120000,-1.520000,0.381182,0.080000,-0.006807,0.004567,-0.007738,0.021031,0.000000,-0.000000,0.000000
-2.120000,-1.440000,0.380132,0.080000,-0.017504,0.006517,-0.009356,-0.014949,0.000000,-0.000000,-0.000000
-2.040000,-1.440000,0.460109,0.080000,-0.017227,0.002052,-0.004816,-0.013657,0.000000,-0.000000,-0.000000
-1.960000,-1.440000,0.540093,0.080000,-0.016981,-0.001006,-0.001738,-0.011671,-0.000000,-0.000000,-0.000000
-1.880000,-1.440000,0.560803,0.080000,-0.016747,-0.002894,0.000218,-0.009487,-0.000000,0.000000,-0.000000
-1.800000,-1.440000,0.562228,0.080000,-0.016512,-0.003904,0.001228,-0.007496,-0.000000,0.000000,-0.000000
-1.720000,-1.440000,0.560803,0.080000,-0.016269,-0.004347,0.001671,-0.005796,-0.000000,0.000000,-0.000000
-1.640000,-1.440000,0.560089,0.080000,-0.016016,-0.004436,0.001757,-0.004405,-0.000000,0.000000,-0.000000
-1.560000,-1.440000,0.560089,0.080000,-0.015752,-0.004317,0.001633,-0.003296,-0.000000,0.000000,-0.000000
-1.480000,-1.440000,0.560803,0.080000,-0.015477,-0.004085,0.001393,-0.002427,-0.000000,0.000000,-0.000000
-1.400000,-1.440000,0.562228,0.080000,-0.015194,-0.003799,0.001098,-0.001753,-0.000000,0.000000,-0.000000
-1.320000,-1.440000,0.560803,0.080000,-0.014903,-0.003497,0.000785,-0.001235,-0.000000,0.000000,-0.000000
-1.240000,-1.440000,0.560089,0.080000,-0.014608,-0.003199,0.000475,-0.000840,-0.000000,0.000000,-0.000000
-1.160000,-1.440000,0.560089,0.080000,-0.014309,-0.002917,0.000181,-0.000542,-0.000000,0.000000,-0.000000
-1.080000,-1.440000,0.560803,0.080000,-0.014009,-0.002657,-0.000091,-0.000318,-0.000000,0.000000,-0.000000
-1.000000,-1.440000,0.562228,0.080000,-0.013710,-0.002422,-0.000339,-0.000153,-0.000000,0.000000,-0.000000
-0.920000,-1.440000,0.560803,0.080000,-0.013413,-0.002212,-0.000561,-0.000034,-0.000000,0.000000,-0.000000
-0.840000,-1.440000,0.560089,0.080000,-0.013119,-0.002027,-0.000759,0.000049,-0.000000,0.000000,0.000000
-0.760000,-1.440000,0.560089,0.080000,-0.012831,-0.001865,-0.000932,0.000104,-0.000000,-0.000000,0.000000
-0.680000,-1.440000,0.560803,0.080000,-0.012548,-0.001724,-0.001084,0.000137,-0.000000,-0.000000,0.000000
-0.600000,-1.440000,0.562228,0.080000,-0.012272,-0.001603,-0.001214,0.000152,-0.000000,-0.000000,0.000000
-0.520000,-1.440000,0.560803,0.080000,-0.012004,-0.001501,-0.001325,0.000154,-0.000000,-0.000000,0.000000
-0.440000,-1.440000,0.560089,0.080000,-0.011745,-0.001416,-0.001417,0.000146,-0.000000,-0.000000,0.000000
-0.360000,-1.440000,0.560089,0.080000,-0.011494,-0.001347,-0.001493,0.000129,-0.000000,-0.000000,0.000000
-0.280000,-1.440000,0.560803,0.080000,-0.011253,-0.001292,-0.001552,0.000106,-0.000000,-0.000000,0.000000
-0.200000,-1.440000,0.562228,0.080000,-0.011022,-0.001252,-0.001596,0.000079,-0.000000,-0.000000,0.000000
-0.120000,-1.440000,0.560803,0.080000,-0.010801,-0.001226,-0.001625,0.000049,-0.000000,-0.000000,0.000000
-0.040000,-1.440000,0.560089,0.080000,-0.010591,-0.001213,-0.001639,0.000016,-0.000000,-0.000000,0.000000
0.040000,-1.440000,0.560089,0.080000,-0.010391,-0.001213,-0.001639,-0.000016,-0.000000,-0.000000,-0.000000
0.120000,-1.440000,0.560803,0.080000,-0.010202,-0.001226,-0.001625,-0.000049,-0.000000,-0.000000,-0.000000
0.200000,-1.440000,0.562228,0.080000,-0.010022,-0.001252,-0.001596,-0.000079,-0.000000,-0.000000,-0.000000
0.280000,-1.440000,0.560803,0.080000,-0.009854,-0.001292,-0.001552,-0.000106,-0.000000,-0.000000,-0.000000
0.360000,-1.440000,0.560089,0.080000,-0.009695,-0.001346,-0.001493,-0.000129,-0.000000,-0.000000,-0.000000
0.440000,-1.440000,0.560089,0.080000,-0.009545,-0.001415,-0.001418,-0.000146,-0.000000,-0.000000,-0.000000
0.520000,-1.440000,0.560803,0.080000,-0.009405,-0.001501,-0.001325,-0.000154,-0.000000,-0.000000,-0.000000
0.600000,-1.440000,0.562228,0.080000,-0.009273,-0.001603,-0.001214,-0.000152,-0.000000,-0.000000,-0.000000
0.680000,-1.440000,0.560803,0.080000,-0.009149,-0.001723,-0.001084,-0.000137,-0.000000,-0.000000,-0.000000
0.760000,-1.440000,0.560089,0.080000,-0.009032,-0.001864,-0.000933,-0.000104,-0.000000,-0.000000,-0.000000
0.840000,-1.440000,0.560089,0.080000,-0.008920,-0.002026,-0.000759,-0.000049,-0.000000,0.000000,-0.000000
0.920000,-1.440000,0.560803,0.080000,-0.008814,-0.002212,-0.000562,0.000034,-0.000000,0.000000,0.000000
1.000000,-1.440000,0.562228,0.080000,-0.008711,-0.002421,-0.000340,0.000153,-0.000000,0.000000,0.000000
1.080000,-1.440000,0.560803,0.080000,-0.008611,-0.002656,-0.000092,0.000318,-0.000000,0.000000,0.000000
1.160000,-1.440000,0.560089,0.080000,-0.008510,-0.002916,0.000180,0.000541,-0.000000,0.000000,0.000000
1.240000,-1.440000,0.560089,0.080000,-0.008409,-0.003197,0.000474,0.000840,-0.000000,0.000000,0.000000
1.320000,-1.440000,0.560803,0.080000,-0.008305,-0.003495,0.000784,0.001235,-0.000000,0.000000,0.000000
1.400000,-1.440000,0.562228,0.080000,-0.008196,-0.003797,0.001097,0.001752,-0.000000,0.000000,0.000000
1.480000,-1.440000,0.560803,0.080000,-0.008079,-0.004083,0.001392,0.002425,-0.000000,0.000000,0.000000
1.560000,-1.440000,0.560089,0.080000,-0.007954,-0.004315,0.001631,0.003294,-0.000000,0.000000,0.000000
1.640000,-1.440000,0.560089,0.080000,-0.007818,-0.004434,0.001755,0.004402,-0.000000,0.000000,0.000000
1.720000,-1.440000,0.560803,0.080000,-0.007672,-0.004345,0.001669,0.005792,-0.000000,0.000000,0.000000
1.800000,-1.440000,0.562228,0.080000,-0.007514,-0.003902,0.001226,0.007491,-0.000000,0.000000,0.000000
1.880000,-1.440000,0.560803,0.080000,-0.007350,-0.002893,0.000216,0.009480,-0.000000,0.000000,0.000000
1.960000,-1.440000,0.540093,0.080000,-0.007184,-0.001006,-0.001739,0.011662,-0.000000,-0.000000,0.000000
2.040000,-1.440000,0.460109,0.080000,-0.007030,0.002050,-0.004815,0.013647,0.000000,-0.000000,0.000000
2.120000,-1.440000,0.380132,0.080000,-0.006907,0.006512,-0.009351,0.014938,0.000000,-0.000000,0.000000
-2.120000,-1.360000,0.380132,0.080000,-0.017564,0.006699,-0.009388,-0.010465,0.000000,-0.000000,-0.000000
-2.040000,-1.360000,0.460109,0.080000,-0.017208,0.003279,-0.005967,-0.010287,0.000000,-0.000000,-0.000000
-1.960000,-1.360000,0.540093,0.080000,-0.016890,0.000662,-0.003377,-0.009352,0.000000,-0.000000,-0.000000
-1.880000,-1.360000,0.620081,0.080000,-0.016594,-0.001175,-0.001505,-0.008051,-0.000000,-0.000000,-0.000000
-1.800000,-1.360000,0.641950,0.080000,-0.016308,-0.002340,-0.000359,-0.006695,-0.000000,0.000000,-0.000000
-1.720000,-1.360000,0.640703,0.080000,-0.016025,-0.003018,0.000301,-0.005426,-0.000000,0.000000,-0.000000
-1.640000,-1.360000,0.640078,0.080000,-0.015740,-0.003354,0.000621,-0.004313,-0.000000,0.000000,-0.000000
-1.560000,-1.360000,0.640078,0.080000,-0.015451,-0.003463,0.000714,-0.003374,-0.000000,0.000000,-0.000000
-1.480000,-1.360000,0.640703,0.080000,-0.015157,-0.003427,0.000662,-0.002602,-0.000000,0.000000,-0.000000
-1.400000,-1.360000,0.641950,0.080000,-0.014860,-0.003304,0.000523,-0.001977,-0.000000,0.000000,-0.000000
-1.320000,-1.360000,0.640703,0.080000,-0.014559,-0.003134,0.000337,-0.001478,-0.000000,0.000000,-0.000000
-1.240000,-1.360000,0.640078,0.080000,-0.014256,-0.002941,0.000128,-0.001084,-0.000000,0.000000,-0.000000
-1.160000,-1.360000,0.640078,0.080000,-0.013952,-0.002744,-0.000085,-0.000775,-0.000000,0.000000,-0.000000
-1.080000,-1.360000,0.640703,0.080000,-0.013649,-0.002551,-0.000293,-0.000536,-0.000000,0.000000,-0.000000
-1.000000,-1.360000,0.641950,0.080000,-0.013348,-0.002369,-0.000490,-0.000352,-0.000000,0.000000,-0.000000
-0.920000,-1.360000,0.640703,0.080000,-0.013049,-0.002200,-0.000672,-0.000213,-0.000000,0.000000,-0.000000
-0.840000,-1.360000,0.640078,0.080000,-0.012755,-0.002048,-0.000837,-0.000110,-0.000000,0.000000,-0.000000
-0.760000,-1.360000,0.640078,0.080000,-0.012467,-0.001912,-0.000985,-0.000036,-0.000000,-0.000000,-0.000000
-0.680000,-1.360000,0.640703,0.080000,-0.012184,-0.001791,-0.001116,0.000015,-0.000000,-0.000000,0.000000
-0.600000,-1.360000,0.641950,0.080000,-0.011909,-0.001687,-0.001231,0.000048,-0.000000,-0.000000,0.000000
-0.520000,-1.360000,0.640703,0.080000,-0.011642,-0.001597,-0.001329,0.000066,-0.000000,-0.000000,0.000000
-0.440000,-1.360000,0.640078,0.080000,-0.011383,-0.001522,-0.001412,0.000073,-0.000000,-0.000000,0.000000
-0.360000,-1.360000,0.640078,0.080000,-0.011133,-0.001460,-0.001480,0.000071,-0.000000,-0.000000,0.000000
-0.280000,-1.360000,0.640703,0.080000,-0.010893,-0.001412,-0.001533,0.000062,-0.000000,-0.000000,0.000000
-0.200000,-1.360000,0.641950,0.080000,-0.010662,-0.001376,-0.001573,0.000048,-0.000000,-0.000000,0.000000
-0.120000,-1.360000,0.640703,0.080000,-0.010442,-0.001352,-0.001600,0.000030,-0.000000,-0.000000,0.000000
-0.040000,-1.360000,0.640078,0.080000,-0.010231,-0.001341,-0.001613,0.000010,-0.000000,-0.000000,0.000000
0.040000,-1.360000,0.640078,0.080000,-0.010031,-0.001340,-0.001613,-0.000010,-0.000000,-0.000000,-0.000000
0.120000,-1.360000,0.640703,0.080000,-0.009842,-0.001352,-0.001600,-0.000030,-0.000000,-0.000000,-0.000000
0.200000,-1.360000,0.641950,0.080000,-0.009662,-0.001376,-0.001573,-0.000048,-0.000000,-0.000000,-0.000000
0.280000,-1.360000,0.640703,0.080000,-0.009493,-0.001412,-0.001534,-0.000062,-0.000000,-0.000000,-0.000000
0.360000,-1.360000,0.640078,0.080000,-0.009333,-0.001460,-0.001480,-0.000071,-0.000000,-0.000000,-0.000000
0.440000,-1.360000,0.640078,0.080000,-0.009183,-0.001522,-0.001412,-0.000073,-0.000000,-0.000000,-0.000000
0.520000,-1.360000,0.640703,0.080000,-0.009042,-0.001597,-0.001329,-0.000067,-0.000000,-0.000000,-0.000000
0.600000,-1.360000,0.641950,0.080000,-0.008910,-0.001687,-0.001231,-0.000048,-0.000000,-0.000000,-0.000000
0.680000,-1.360000,0.640703,0.080000,-0.008785,-0.001791,-0.001117,-0.000015,-0.000000,-0.000000,-0.000000
0.760000,-1.360000,0.640078,0.080000,-0.008668,-0.001911,-0.000986,0.000036,-0.000000,-0.000000,0.000000
0.840000,-1.360000,0.640078,0.080000,-0.008556,-0.002047,-0.000837,0.000110,-0.000000,0.000000,0.000000
0.920000,-1.360000,0.640703,0.080000,-0.008450,-0.002200,-0.000672,0.000213,-0.000000,0.000000,0.000000
1.000000,-1.360000,0.641950,0.080000,-0.008349,-0.002368,-0.000490,0.000352,-0.000000,0.000000,0.000000
1.080000,-1.360000,0.640703,0.080000,-0.008250,-0.002550,-0.000294,0.000535,-0.000000,0.000000,0.000000
1.160000,-1.360000,0.640078,0.080000,-0.008154,-0.002743,-0.000086,0.000775,-0.000000,0.000000,0.000000
1.240000,-1.360000,0.640078,0.080000,-0.008058,-0.002940,0.000127,0.001083,-0.000000,0.000000,0.000000
1.320000,-1.360000,0.640703,0.080000,-0.007961,-0.003133,0.000335,0.001477,-0.000000,0.000000,0.000000
1.400000,-1.360000,0.641950,0.080000,-0.007862,-0.003303,0.000522,0.001976,-0.000000,0.000000,0.000000
1.480000,-1.360000,0.640703,0.080000,-0.007759,-0.003426,0.000660,0.002600,-0.000000,0.000000,0.000000
1.560000,-1.360000,0.640078,0.080000,-0.007653,-0.003462,0.000713,0.003372,-0.000000,0.000000,0.000000
1.640000,-1.360000,0.640078,0.080000,-0.007542,-0.003353,0.000620,0.004310,-0.000000,0.000000,0.000000
1.720000,-1.360000,0.640703,0.080000,-0.007427,-0.003017,0.000300,0.005423,-0.000000,0.000000,0.000000
1.800000,-1.360000,0.641950,0.080000,-0.007311,-0.002339,-0.000360,0.006690,-0.000000,0.000000,0.000000
1.880000,-1.360000,0.620081,0.080000,-0.007197,-0.001175,-0.001505,0.008046,-0.000000,-0.000000,0.000000
1.960000,-1.360000,0.540093,0.080000,-0.007093,0.000662,-0.003376,0.009345,0.000000,-0.000000,0.000000
2.040000,-1.360000,0.460109,0.080000,-0.007011,0.003277,-0.005965,0.010279,0.000000,-0.000000,0.000000
2.120000,-1.360000,0.380132,0.080000,-0.006967,0.006694,-0.009383,0.010457,0.000000,-0.000000,0.000000
-2.120000,-1.280000,0.381182,0.080000,-0.017582,0.006159,-0.008737,-0.007248,0.000000,-0.000000,-0.000000
-2.040000,-1.280000,0.460977,0.080000,-0.017169,0.003627,-0.006253,-0.007617,0.000000,-0.000000,-0.000000
-1.960000,-1.280000,0.540833,0.080000,-0.016795,0.001518,-0.004202,-0.007319,0.000000,-0.000000,-0.000000
-1.880000,-1.280000,0.620725,0.080000,-0.016449,-0.000106,-0.002575,-0.006631,0.000000,-0.000000,-0.000000
-1.800000,-1.280000,0.700643,0.080000,-0.016120,-0.001252,-0.001466,-0.005770,-0.000000,-0.000000,-0.000000
-1.720000,-1.280000,0.720625,0.080000,-0.015800,-0.002015,-0.000734,-0.004876,-0.000000,0.000000,-0.000000
-1.640000,-1.280000,0.720069,0.080000,-0.015485,-0.002484,-0.000294,-0.004031,-0.000000,0.000000,-0.000000
-1.560000,-1.280000,0.720069,0.080000,-0.015172,-0.002738,-0.000066,-0.003274,-0.000000,0.000000,-0.000000
-1.480000,-1.280000,0.720625,0.080000,-0.014860,-0.002841,0.000013,-0.002620,-0.000000,0.000000,-0.000000
-1.400000,-1.280000,0.721734,0.080000,-0.014547,-0.002843,-0.000008,-0.002069,-0.000000,0.000000,-0.000000
-1.320000,-1.280000,0.720625,0.080000,-0.014235,-0.002780,-0.000092,-0.001613,-0.000000,0.000000,-0.000000
-1.240000,-1.280000,0.720069,0.080000,-0.013923,-0.002679,-0.000214,-0.001239,-0.000000,0.000000,-0.000000
-1.160000,-1.280000,0.720069,0.080000,-0.013613,-0.002556,-0.000356,-0.000938,-0.000000,0.000000,-0.000000
-1.080000,-1.280000,0.720625,0.080000,-0.013305,-0.002424,-0.000506,-0.000696,-0.000000,0.000000,-0.000000
-1.000000,-1.280000,0.721734,0.080000,-0.013000,-0.002292,-0.000655,-0.000505,-0.000000,0.000000,-0.000000
-0.920000,-1.280000,0.720625,0.080000,-0.012700,-0.002165,-0.000798,-0.000355,-0.000000,0.000000,-0.000000
-0.840000,-1.280000,0.720069,0.080000,-0.012404,-0.002045,-0.000931,-0.000240,-0.000000,-0.000000,-0.000000
-0.760000,-1.280000,0.720069,0.080000,-0.012115,-0.001935,-0.001054,-0.000152,-0.000000,-0.000000,-0.000000
-0.680000,-1.280000,0.720625,0.080000,-0.011832,-0.001837,-0.001165,-0.000087,-0.000000,-0.000000,-0.000000
-0.600000,-1.280000,0.721734,0.080000,-0.011557,-0.001749,-0.001263,-0.000041,-0.000000,-0.000000,-0.000000
-0.520000,-1.280000,0.720625,0.080000,-0.011289,-0.001673,-0.001348,-0.000010,-0.000000,-0.000000,-0.000000
-0.440000,-1.280000,0.720069,0.080000,-0.011031,-0.001609,-0.001420,0.000010,-0.000000,-0.000000,0.000000
-0.360000,-1.280000,0.720069,0.080000,-0.010781,-0.001556,-0.001480,0.000020,-0.000000,-0.000000,0.000000
-0.280000,-1.280000,0.720625,0.080000,-0.010541,-0.001513,-0.001527,0.000022,-0.000000,-0.000000,0.000000
-0.200000,-1.280000,0.721734,0.080000,-0.010311,-0.001482,-0.001563,0.000020,-0.000000,-0.000000,0.000000
-0.120000,-1.280000,0.720625,0.080000,-0.010091,-0.001461,-0.001586,0.000013,-0.000000,-0.000000,0.000000
-0.040000,-1.280000,0.720069,0.080000,-0.009880,-0.001451,-0.001598,0.000005,-0.000000,-0.000000,0.000000
0.040000,-1.280000,0.720069,0.080000,-0.009680,-0.001451,-0.001598,-0.000005,-0.000000,-0.000000,-0.000000
0.120000,-1.280000,0.720625,0.080000,-0.009491,-0.001461,-0.001586,-0.000013,-0.000000,-0.000000,-0.000000
0.200000,-1.280000,0.721734,0.080000,-0.009311,-0.001482,-0.001563,-0.000020,-0.000000,-0.000000,-0.000000
0.280000,-1.280000,0.720625,0.080000,-0.009141,-0.001513,-0.001528,-0.000022,-0.000000,-0.000000,-0.000000
0.360000,-1.280000,0.720069,0.080000,-0.008982,-0.001555,-0.001480,-0.000020,-0.000000,-0.000000,-0.000000
0.440000,-1.280000,0.720069,0.080000,-0.008831,-0.001609,-0.001420,-0.000010,-0.000000,-0.000000,-0.000000
0.520000,-1.280000,0.720625,0.080000,-0.008690,-0.001673,-0.001348,0.000010,-0.000000,-0.000000,0.000000
0.600000,-1.280000,0.721734,0.080000,-0.008557,-0.001749,-0.001263,0.000041,-0.000000,-0.000000,0.000000
0.680000,-1.280000,0.720625,0.080000,-0.008433,-0.001836,-0.001165,0.000087,-0.000000,-0.000000,0.000000
0.760000,-1.280000,0.720069,0.080000,-0.008316,-0.001935,-0.001055,0.000152,-0.000000,-0.000000,0.000000
0.840000,-1.280000,0.720069,0.080000,-0.008205,-0.002045,-0.000932,0.000240,-0.000000,-0.000000,0.000000
0.920000,-1.280000,0.720625,0.080000,-0.008101,-0.002164,-0.000798,0.000355,-0.000000,0.000000,0.000000
1.000000,-1.280000,0.721734,0.080000,-0.008001,-0.002292,-0.000655,0.000505,-0.000000,0.000000,0.000000
1.080000,-1.280000,0.720625,0.080000,-0.007906,-0.002424,-0.000506,0.000696,-0.000000,0.000000,0.000000
1.160000,-1.280000,0.720069,0.080000,-0.007814,-0.002555,-0.000357,0.000937,-0.000000,0.000000,0.000000
1.240000,-1.280000,0.720069,0.080000,-0.007725,-0.002678,-0.000215,0.001238,-0.000000,0.000000,0.000000
1.320000,-1.280000,0.720625,0.080000,-0.007637,-0.002780,-0.000093,0.001611,-0.000000,0.000000,0.000000
1.400000,-1.280000,0.721734,0.080000,-0.007549,-0.002842,-0.000009,0.002068,-0.000000,0.000000,0.000000
1.480000,-1.280000,0.720625,0.080000,-0.007462,-0.002840,0.000012,0.002618,-0.000000,0.000000,0.000000
1.560000,-1.280000,0.720069,0.080000,-0.007374,-0.002737,-0.000067,0.003272,-0.000000,0.000000,0.000000
1.640000,-1.280000,0.720069,0.080000,-0.007287,-0.002484,-0.000295,0.004028,-0.000000,0.000000,0.000000
1.720000,-1.280000,0.720625,0.080000,-0.007202,-0.002015,-0.000735,0.004873,-0.000000,0.000000,0.000000
1.800000,-1.280000,0.700643,0.080000,-0.007122,-0.001252,-0.001466,0.005766,-0.000000,-0.000000,0.000000
1.880000,-1.280000,0.620725,0.080000,-0.007052,-0.000107,-0.002574,0.006626,0.000000,-0.000000,0.000000
1.960000,-1.280000,0.540833,0.080000,-0.006998,0.001517,-0.004200,0.007313,0.000000,-0.000000,0.000000
2.040000,-1.280000,0.460977,0.080000,-0.006972,0.003624,-0.006250,0.007611,0.000000,-0.000000,0.000000
2.120000,-1.280000,0.381182,0.080000,-0.006985,0.006155,-0.008732,0.007242,0.000000,-0.000000,0.000000
-2.120000,-1.200000,0.383275,0.080000,-0.017560,0.005344,-0.007840,-0.004976,0.000000,-0.000000,-0.000000
-2.040000,-1.200000,0.462709,0.080000,-0.017106,0.003500,-0.006077,-0.005576,0.000000,-0.000000,-0.000000
-1.960000,-1.200000,0.542310,0.080000,-0.016691,0.001856,-0.004513,-0.005639,0.000000,-0.000000,-0.000000
-1.880000,-1.200000,0.622013,0.080000,-0.016305,0.000495,-0.003177,-0.005351,0.000000,-0.000000,-0.000000
-1.800000,-1.200000,0.701783,0.080000,-0.015939,-0.000543,-0.002190,-0.004851,0.000000,-0.000000,-0.000000
-1.720000,-1.200000,0.781601,0.080000,-0.015588,-0.001299,-0.001478,-0.004257,-0.000000,-0.000000,-0.000000
-1.640000,-1.200000,0.800062,0.080000,-0.015246,-0.001819,-0.000997,-0.003643,-0.000000,-0.000000,-0.000000
-1.560000,-1.200000,0.800062,0.080000,-0.014911,-0.002153,-0.000699,-0.003059,-0.000000,0.000000,-0.000000
-1.480000,-1.200000,0.800562,0.080000,-0.014580,-0.002345,-0.000538,-0.002527,-0.000000,0.000000,-0.000000
-1.400000,-1.200000,0.801561,0.080000,-0.014253,-0.002436,-0.000477,-0.002060,-0.000000,0.000000,-0.000000
-1.320000,-1.200000,0.800562,0.080000,-0.013929,-0.002456,-0.000484,-0.001658,-0.000000,0.000000,-0.000000
-1.240000,-1.200000,0.800062,0.080000,-0.013608,-0.002427,-0.000537,-0.001319,-0.000000,0.000000,-0.000000
-1.160000,-1.200000,0.800062,0.080000,-0.013290,-0.002367,-0.000620,-0.001037,-0.000000,0.000000,-0.000000
-1.080000,-1.200000,0.800562,0.080000,-0.012977,-0.002290,-0.000718,-0.000804,-0.000000,0.000000,-0.000000
-1.000000,-1.200000,0.801561,0.080000,-0.012668,-0.002203,-0.000824,-0.000615,-0.000000,0.000000,-0.000000
-0.920000,-1.200000,0.800562,0.080000,-0.012364,-0.002113,-0.000932,-0.000462,-0.000000,-0.000000,-0.000000
-0.840000,-1.200000,0.800062,0.080000,-0.012066,-0.002025,-0.001036,-0.000340,-0.000000,-0.000000,-0.000000
-0.760000,-1.200000,0.800062,0.080000,-0.011775,-0.001941,-0.001134,-0.000245,-0.000000,-0.000000,-0.000000
-0.680000,-1.200000,0.800562,0.080000,-0.011491,-0.001863,-0.001225,-0.000171,-0.000000,-0.000000,-0.000000
-0.600000,-1.200000,0.801561,0.080000,-0.011215,-0.001793,-0.001306,-0.000115,-0.000000,-0.000000,-0.000000
-0.520000,-1.200000,0.800562,0.080000,-0.010948,-0.001732,-0.001378,-0.000074,-0.000000,-0.000000,-0.000000
-0.440000,-1.200000,0.800062,0.080000,-0.010689,-0.001678,-0.001440,-0.000044,-0.000000,-0.000000,-0.000000
-0.360000,-1.200000,0.800062,0.080000,-0.010439,-0.001634,-0.001491,-0.000024,-0.000000,-0.000000,-0.000000
-0.280000,-1.200000,0.800562,0.080000,-0.010199,-0.001598,-0.001532,-0.000012,-0.000000,-0.000000,-0.000000
-0.200000,-1.200000,0.801561,0.080000,-0.009969,-0.001572,-0.001563,-0.000004,-0.000000,-0.000000,-0.000000
-0.120000,-1.200000,0.800562,0.080000,-0.009749,-0.001554,-0.001583,-0.000001,-0.000000,-0.000000,-0.000000
-0.040000,-1.200000,0.800062,0.080000,-0.009539,-0.001545,-0.001594,-0.000000,-0.000000,-0.000000,-0.000000
0.040000,-1.200000,0.800062,0.080000,-0.009339,-0.001545,-0.001594,0.000000,-0.000000,-0.000000,0.000000
0.120000,-1.200000,0.800562,0.080000,-0.009149,-0.001554,-0.001584,0.000001,-0.000000,-0.000000,0.000000
0.200000,-1.200000,0.801561,0.080000,-0.008969,-0.001572,-0.001563,0.000004,-0.000000,-0.000000,0.000000
0.280000,-1.200000,0.800562,0.080000,-0.008800,-0.001598,-0.001532,0.000012,-0.000000,-0.000000,0.000000
0.360000,-1.200000,0.800062,0.080000,-0.008640,-0.001634,-0.001491,0.000024,-0.000000,-0.000000,0.000000
0.440000,-1.200000,0.800062,0.080000,-0.008489,-0.001678,-0.001440,0.000044,-0.000000,-0.000000,0.000000
0.520000,-1.200000,0.800562,0.080000,-0.008348,-0.001731,-0.001378,0.000073,-0.000000,-0.000000,0.000000
0.600000,-1.200000,0.801561,0.080000,-0.008216,-0.001793,-0.001306,0.000115,-0.000000,-0.000000,0.000000
0.680000,-1.200000,0.800562,0.080000,-0.008092,-0.001863,-0.001225,0.000171,-0.000000,-0.000000,0.000000
0.760000,-1.200000,0.800062,0.080000,-0.007976,-0.001941,-0.001135,0.000245,-0.000000,-0.000000,0.000000
0.840000,-1.200000,0.800062,0.080000,-0.007867,-0.002025,-0.001036,0.000340,-0.000000,-0.000000,0.000000
0.920000,-1.200000,0.800562,0.080000,-0.007765,-0.002113,-0.000932,0.000462,-0.000000,-0.000000,0.000000
1.000000,-1.200000,0.801561,0.080000,-0.007669,-0.002202,-0.000825,0.000614,-0.000000,0.000000,0.000000
1.080000,-1.200000,0.800562,0.080000,-0.007578,-0.002289,-0.000719,0.000804,-0.000000,0.000000,0.000000
1.160000,-1.200000,0.800062,0.080000,-0.007492,-0.002367,-0.000620,0.001036,-0.000000,0.000000,0.000000
1.240000,-1.200000,0.800062,0.080000,-0.007409,-0.002426,-0.000538,0.001318,-0.000000,0.000000,0.000000
1.320000,-1.200000,0.800562,0.080000,-0.007330,-0.002455,-0.000485,0.001657,-0.000000,0.000000,0.000000
1.400000,-1.200000,0.801561,0.080000,-0.007255,-0.002436,-0.000477,0.002058,-0.000000,0.000000,0.000000
1.480000,-1.200000,0.800562,0.080000,-0.007182,-0.002345,-0.000539,0.002525,-0.000000,0.000000,0.000000
1.560000,-1.200000,0.800062,0.080000,-0.007113,-0.002152,-0.000699,0.003056,-0.000000,0.000000,0.000000
1.640000,-1.200000,0.800062,0.080000,-0.007048,-0.001819,-0.000998,0.003641,-0.000000,-0.000000,0.000000
1.720000,-1.200000,0.781601,0.080000,-0.006990,-0.001299,-0.001478,0.004254,-0.000000,-0.000000,0.000000
1.800000,-1.200000,0.701783,0.080000,-0.006942,-0.000544,-0.002189,0.004848,0.000000,-0.000000,0.000000
1.880000,-1.200000,0.622013,0.080000,-0.006908,0.000494,-0.003176,0.005347,0.000000,-0.000000,0.000000
1.960000,-1.200000,0.542310,0.080000,-0.006894,0.001854,-0.004511,0.005634,0.000000,-0.000000,0.000000
2.040000,-1.200000,0.462709,0.080000,-0.006909,0.003497,-0.006074,0.005572,0.000000,-0.000000,0.000000
2.120000,-1.200000,0.383275,0.080000,-0.006963,0.005340,-0.007836,0.004971,0.000000,-0.000000,0.000000
-2.120000,-1.120000,0.381182,0.080000,-0.017505,0.004473,-0.006911,-0.003380,0.000000,-0.000000,-0.000000
-2.040000,-1.120000,0.460977,0.080000,-0.017022,0.003141,-0.005681,-0.004047,0.000000,-0.000000,-0.000000
-1.960000,-1.120000,0.540833,0.080000,-0.016576,0.001883,-0.004519,-0.004297,0.000000,-0.000000,-0.000000
-1.880000,-1.120000,0.620725,0.080000,-0.016158,0.000779,-0.003461,-0.004257,0.000000,-0.000000,-0.000000
-1.800000,-1.120000,0.700643,0.080000,-0.015763,-0.000118,-0.002628,-0.004007,0.000000,-0.000000,-0.000000
-1.720000,-1.120000,0.780577,0.080000,-0.015385,-0.000816,-0.001985,-0.003638,0.000000,-0.000000,-0.000000
-1.640000,-1.120000,0.860523,0.080000,-0.015019,-0.001334,-0.001516,-0.003213,-0.000000,-0.000000,-0.000000
-1.560000,-1.120000,0.880057,0.080000,-0.014664,-0.001699,-0.001193,-0.002779,-0.000000,-0.000000,-0.000000
-1.480000,-1.120000,0.880511,0.080000,-0.014316,-0.001943,-0.000989,-0.002361,-0.000000,-0.000000,-0.000000
-1.400000,-1.120000,0.881419,0.080000,-0.013974,-0.002092,-0.000875,-0.001978,-0.000000,0.000000,-0.000000
-1.320000,-1.120000,0.880511,0.080000,-0.013638,-0.002170,-0.000829,-0.001636,-0.000000,0.000000,-0.000000
-1.240000,-1.120000,0.880057,0.080000,-0.013308,-0.002197,-0.000831,-0.001338,-0.000000,0.000000,-0.000000
-1.160000,-1.120000,0.880057,0.080000,-0.012983,-0.002189,-0.000866,-0.001082,-0.000000,0.000000,-0.000000
-1.080000,-1.120000,0.880511,0.080000,-0.012663,-0.002156,-0.000923,-0.000866,-0.000000,0.000000,-0.000000
-1.000000,-1.120000,0.881419,0.080000,-0.012349,-0.002109,-0.000992,-0.000685,-0.000000,-0.000000,-0.000000
-0.920000,-1.120000,0.880511,0.080000,-0.012042,-0.002053,-0.001068,-0.000536,-0.000000,-0.000000,-0.000000
-0.840000,-1.120000,0.880057,0.080000,-0.011741,-0.001993,-0.001145,-0.000414,-0.000000,-0.000000,-0.000000
-0.760000,-1.120000,0.880057,0.080000,-0.011448,-0.001934,-0.001221,-0.000315,-0.000000,-0.000000,-0.000000
-0.680000,-1.120000,0.880511,0.080000,-0.011163,-0.001876,-0.001292,-0.000236,-0.000000,-0.000000,-0.000000
-0.600000,-1.120000,0.881419,0.080000,-0.010886,-0.001823,-0.001358,-0.000173,-0.000000,-0.000000,-0.000000
-0.520000,-1.120000,0.880511,0.080000,-0.010617,-0.001775,-0.001417,-0.000125,-0.000000,-0.000000,-0.000000
-0.440000,-1.120000,0.880057,0.080000,-0.010358,-0.001733,-0.001468,-0.000088,-0.000000,-0.000000,-0.000000
-0.360000,-1.120000,0.880057,0.080000,-0.010108,-0.001697,-0.001511,-0.000060,-0.000000,-0.000000,-0.000000
-0.280000,-1.120000,0.880511,0.080000,-0.009868,-0.001668,-0.001546,-0.000040,-0.000000,-0.000000,-0.000000
-0.200000,-1.120000,0.881419,0.080000,-0.009637,-0.001647,-0.001572,-0.000025,-0.000000,-0.000000,-0.000000
-0.120000,-1.120000,0.880511,0.080000,-0.009417,-0.001632,-0.001589,-0.000013,-0.000000,-0.000000,-0.000000
-0.040000,-1.120000,0.880057,0.080000,-0.009207,-0.001625,-0.001598,-0.000004,-0.000000,-0.000000,-0.000000
0.040000,-1.120000,0.880057,0.080000,-0.009007,-0.001625,-0.001598,0.000004,-0.000000,-0.000000,0.000000
0.120000,-1.120000,0.880511,0.080000,-0.008817,-0.001632,-0.001590,0.000013,-0.000000,-0.000000,0.000000
0.200000,-1.120000,0.881419,0.080000,-0.008637,-0.001647,-0.001572,0.000025,-0.000000,-0.000000,0.000000
0.280000,-1.120000,0.880511,0.080000,-0.008468,-0.001668,-0.001546,0.000040,-0.000000,-0.000000,0.000000
0.360000,-1.120000,0.880057,0.080000,-0.008308,-0.001697,-0.001511,0.000060,-0.000000,-0.000000,0.000000
0.440000,-1.120000,0.880057,0.080000,-0.008158,-0.001733,-0.001468,0.000088,-0.000000,-0.000000,0.000000
0.520000,-1.120000,0.880511,0.080000,-0.008018,-0.001775,-0.001417,0.000125,-0.000000,-0.000000,0.000000
0.600000,-1.120000,0.881419,0.080000,-0.007886,-0.001823,-0.001358,0.000173,-0.000000,-0.000000,0.000000
0.680000,-1.120000,0.880511,0.080000,-0.007764,-0.001876,-0.001292,0.000235,-0.000000,-0.000000,0.000000
0.760000,-1.120000,0.880057,0.080000,-0.007649,-0.001933,-0.001221,0.000314,-0.000000,-0.000000,0.000000
0.840000,-1.120000,0.880057,0.080000,-0.007542,-0.001993,-0.001145,0.000413,-0.000000,-0.000000,0.000000
0.920000,-1.120000,0.880511,0.080000,-0.007443,-0.002052,-0.001068,0.000535,-0.000000,-0.000000,0.000000
1.000000,-1.120000,0.881419,0.080000,-0.007350,-0.002108,-0.000992,0.000685,-0.000000,-0.000000,0.000000
1.080000,-1.120000,0.880511,0.080000,-0.007264,-0.002156,-0.000923,0.000865,-0.000000,0.000000,0.000000
1.160000,-1.120000,0.880057,0.080000,-0.007184,-0.002188,-0.000866,0.001082,-0.000000,0.000000,0.000000
1.240000,-1.120000,0.880057,0.080000,-0.007109,-0.002197,-0.000831,0.001337,-0.000000,0.000000,0.000000
1.320000,-1.120000,0.880511,0.080000,-0.007040,-0.002170,-0.000829,0.001635,-0.000000,0.000000,0.000000
1.400000,-1.120000,0.881419,0.080000,-0.006976,-0.002092,-0.000875,0.001977,-0.000000,0.000000,0.000000
1.480000,-1.120000,0.880511,0.080000,-0.006917,-0.001943,-0.000989,0.002360,-0.000000,-0.000000,0.000000
1.560000,-1.120000,0.880057,0.080000,-0.006866,-0.001699,-0.001193,0.002777,-0.000000,-0.000000,0.000000
1.640000,-1.120000,0.860523,0.080000,-0.006821,-0.001334,-0.001515,0.003211,-0.000000,-0.000000,0.000000
1.720000,-1.120000,0.780577,0.080000,-0.006787,-0.000816,-0.001984,0.003635,0.000000,-0.000000,0.000000
1.800000,-1.120000,0.700643,0.080000,-0.006765,-0.000119,-0.002627,0.004004,0.000000,-0.000000,0.000000
1.880000,-1.120000,0.620725,0.080000,-0.006761,0.000777,-0.003460,0.004253,0.000000,-0.000000,0.000000
1.960000,-1.120000,0.540833,0.080000,-0.006778,0.001881,-0.004516,0.004294,0.000000,-0.000000,0.000000
2.040000,-1.120000,0.460977,0.080000,-0.006825,0.003138,-0.005678,0.004044,0.000000,-0.000000,0.000000
2.120000,-1.120000,0.381182,0.080000,-0.006908,0.004469,-0.006907,0.003377,0.000000,-0.000000,0.000000
-2.120000,-1.040000,0.380132,0.080000,-0.017421,0.003644,-0.006042,-0.002263,0.000000,-0.000000,-0.000000
-2.040000,-1.040000,0.460109,0.080000,-0.016918,0.002686,-0.005200,-0.002914,0.000000,-0.000000,-0.000000
-1.960000,-1.040000,0.540093,0.080000,-0.016448,0.001735,-0.004354,-0.003248,0.000000,-0.000000,-0.000000
-1.880000,-1.040000,0.620081,0.080000,-0.016007,0.000857,-0.003541,-0.003351,0.000000,-0.000000,-0.000000
-1.800000,-1.040000,0.700071,0.080000,-0.015587,0.000106,-0.002863,-0.003267,0.000000,-0.000000,-0.000000
-1.720000,-1.040000,0.780064,0.080000,-0.015187,-0.000511,-0.002310,-0.003060,0.000000,-0.000000,-0.000000
-1.640000,-1.040000,0.860058,0.080000,-0.014801,-0.000996,-0.001881,-0.002782,-0.000000,-0.000000,-0.000000
-1.560000,-1.040000,0.940053,0.080000,-0.014427,-0.001363,-0.001566,-0.002471,-0.000000,-0.000000,-0.000000
-1.480000,-1.040000,0.960469,0.080000,-0.014064,-0.001628,-0.001346,-0.002154,-0.000000,-0.000000,-0.000000
-1.400000,-1.040000,0.961301,0.080000,-0.013709,-0.001811,-0.001204,-0.001848,-0.000000,-0.000000,-0.000000
-1.320000,-1.040000,0.960469,0.080000,-0.013362,-0.001928,-0.001124,-0.001565,-0.000000,-0.000000,-0.000000
-1.240000,-1.040000,0.960052,0.080000,-0.013022,-0.001996,-0.001089,-0.001310,-0.000000,-0.000000,-0.000000
-1.160000,-1.040000,0.960052,0.080000,-0.012689,-0.002026,-0.001089,-0.001085,-0.000000,-0.000000,-0.000000
-1.080000,-1.040000,0.960469,0.080000,-0.012363,-0.002030,-0.001112,-0.000890,-0.000000,-0.000000,-0.000000
-1.000000,-1.040000,0.961301,0.080000,-0.012044,-0.002016,-0.001152,-0.000722,-0.000000,-0.000000,-0.000000
-0.920000,-1.040000,0.960469,0.080000,-0.011733,-0.001989,-0.001200,-0.000580,-0.000000,-0.000000,-0.000000
-0.840000,-1.040000,0.960052,0.080000,-0.011429,-0.001955,-0.001254,-0.000462,-0.000000,-0.000000,-0.000000
-0.760000,-1.040000,0.960052,0.080000,-0.011133,-0.001917,-0.001310,-0.000363,-0.000000,-0.000000,-0.000000
-0.680000,-1.040000,0.960469,0.080000,-0.010846,-0.001879,-0.001364,-0.000283,-0.000000,-0.000000,-0.000000
-0.600000,-1.040000,0.961301,0.080000,-0.010568,-0.001841,-0.001415,-0.000217,-0.000000,-0.000000,-0.000000
-0.520000,-1.040000,0.960469,0.080000,-0.010298,-0.001806,-0.001462,-0.000164,-0.000000,-0.000000,-0.000000
-0.440000,-1.040000,0.960052,0.080000,-0.010038,-0.001775,-0.001503,-0.000122,-0.000000,-0.000000,-0.000000
-0.360000,-1.040000,0.960052,0.080000,-0.009787,-0.001748,-0.001538,-0.000089,-0.000000,-0.000000,-0.000000
-0.280000,-1.040000,0.960469,0.080000,-0.009547,-0.001726,-0.001567,-0.000062,-0.000000,-0.000000,-0.000000
-0.200000,-1.040000,0.961301,0.080000,-0.009316,-0.001709,-0.001588,-0.000041,-0.000000,-0.000000,-0.000000
-0.120000,-1.040000,0.960469,0.080000,-0.009096,-0.001697,-0.001603,-0.000023,-0.000000,-0.000000,-0.000000
-0.040000,-1.040000,0.960052,0.080000,-0.008885,-0.001692,-0.001610,-0.000007,-0.000000,-0.000000,-0.000000
0.040000,-1.040000,0.960052,0.080000,-0.008685,-0.001692,-0.001610,0.000007,-0.000000,-0.000000,0.000000
0.120000,-1.040000,0.960469,0.080000,-0.008496,-0.001697,-0.001603,0.000023,-0.000000,-0.000000,0.000000
0.200000,-1.040000,0.961301,0.080000,-0.008316,-0.001709,-0.001588,0.000041,-0.000000,-0.000000,0.000000
0.280000,-1.040000,0.960469,0.080000,-0.008147,-0.001725,-0.001567,0.000062,-0.000000,-0.000000,0.000000
0.360000,-1.040000,0.960052,0.080000,-0.007988,-0.001748,-0.001538,0.000089,-0.000000,-0.000000,0.000000
0.440000,-1.040000,0.960052,0.080000,-0.007838,-0.001775,-0.001503,0.000122,-0.000000,-0.000000,0.000000
0.520000,-1.040000,0.960469,0.080000,-0.007699,-0.001806,-0.001462,0.000164,-0.000000,-0.000000,0.000000
0.600000,-1.040000,0.961301,0.080000,-0.007568,-0.001841,-0.001415,0.000217,-0.000000,-0.000000,0.000000
0.680000,-1.040000,0.960469,0.080000,-0.007447,-0.001878,-0.001364,0.000282,-0.000000,-0.000000,0.000000
0.760000,-1.040000,0.960052,0.080000,-0.007334,-0.001917,-0.001310,0.000363,-0.000000,-0.000000,0.000000
0.840000,-1.040000,0.960052,0.080000,-0.007230,-0.001955,-0.001255,0.000461,-0.000000,-0.000000,0.000000
0.920000,-1.040000,0.960469,0.080000,-0.007134,-0.001989,-0.001201,0.000580,-0.000000,-0.000000,0.000000
1.000000,-1.040000,0.961301,0.080000,-0.007045,-0.002016,-0.001152,0.000722,-0.000000,-0.000000,0.000000
1.080000,-1.040000,0.960469,0.080000,-0.006964,-0.002030,-0.001113,0.000889,-0.000000,-0.000000,0.000000
1.160000,-1.040000,0.960052,0.080000,-0.006890,-0.002026,-0.001089,0.001084,-0.000000,-0.000000,0.000000
1.240000,-1.040000,0.960052,0.080000,-0.006823,-0.001996,-0.001090,0.001309,-0.000000,-0.000000,0.000000
1.320000,-1.040000,0.960469,0.080000,-0.006763,-0.001928,-0.001124,0.001564,-0.000000,-0.000000,0.000000
1.400000,-1.040000,0.961301,0.080000,-0.006711,-0.001811,-0.001204,0.001847,-0.000000,-0.000000,0.000000
1.480000,-1.040000,0.960469,0.080000,-0.006666,-0.001628,-0.001346,0.002152,-0.000000,-0.000000,0.000000
1.560000,-1.040000,0.940053,0.080000,-0.006629,-0.001363,-0.001566,0.002469,-0.000000,-0.000000,0.000000
1.640000,-1.040000,0.860058,0.080000,-0.006603,-0.000997,-0.001881,0.002780,-0.000000,-0.000000,0.000000
1.720000,-1.040000,0.780064,0.080000,-0.006589,-0.000512,-0.002309,0.003058,0.000000,-0.000000,0.000000
1.800000,-1.040000,0.700071,0.080000,-0.006590,0.000105,-0.002861,0.003264,0.000000,-0.000000,0.000000
1.880000,-1.040000,0.620081,0.080000,-0.006609,0.000855,-0.003539,0.003349,0.000000,-0.000000,0.000000
1.960000,-1.040000,0.540093,0.080000,-0.006651,0.001733,-0.004352,0.003246,0.000000,-0.000000,0.000000
2.040000,-1.040000,0.460109,0.080000,-0.006721,0.002684,-0.005197,0.002911,0.000000,-0.000000,0.000000
2.120000,-1.040000,0.380132,0.080000,-0.006824,0.003641,-0.006039,0.002261,0.000000,-0.000000,0.000000
-2.120000,-0.960000,0.380132,0.080000,-0.017314,0.002900,-0.005270,-0.001482,0.000000,-0.000000,-0.000000
-2.040000,-0.960000,0.460109,0.080000,-0.016797,0.002213,-0.004708,-0.002079,0.000000,-0.000000,-0.000000
-1.960000,-0.960000,0.540093,0.080000,-0.016310,0.001499,-0.004106,-0.002438,0.000000,-0.000000,-0.000000
-1.880000,-0.960000,0.620081,0.080000,-0.015849,0.000809,-0.003495,-0.002617,0.000000,-0.000000,-0.000000
-1.800000,-0.960000,0.700071,0.080000,-0.015411,0.000192,-0.002959,-0.002637,0.000000,-0.000000,-0.000000
-1.720000,-0.960000,0.780064,0.080000,-0.014992,-0.000338,-0.002501,-0.002543,0.000000,-0.000000,-0.000000
-1.640000,-0.960000,0.860058,0.080000,-0.014589,-0.000775,-0.002128,-0.002374,0.000000,-0.000000,-0.000000
-1.560000,-0.960000,0.940053,0.080000,-0.014200,-0.001123,-0.001837,-0.002161,-0.000000,-0.000000,-0.000000
-1.480000,-0.960000,1.020049,0.080000,-0.013822,-0.001390,-0.001621,-0.001927,-0.000000,-0.000000,-0.000000
-1.400000,-0.960000,1.041201,0.080000,-0.013455,-0.001588,-0.001469,-0.001690,-0.000000,-0.000000,-0.000000
-1.320000,-0.960000,1.040433,0.080000,-0.013098,-0.001730,-0.001369,-0.001461,-0.000000,-0.000000,-0.000000
-1.240000,-0.960000,1.040048,0.080000,-0.012749,-0.001825,-0.001311,-0.001248,-0.000000,-0.000000,-0.000000
-1.160000,-0.960000,1.040048,0.080000,-0.012408,-0.001884,-0.001286,-0.001055,-0.000000,-0.000000,-0.000000
-1.080000,-0.960000,1.040433,0.080000,-0.012076,-0.001916,-0.001284,-0.000882,-0.000000,-0.000000,-0.000000
-1.000000,-0.960000,1.041201,0.080000,-0.011752,-0.001928,-0.001299,-0.000731,-0.000000,-0.000000,-0.000000
-0.920000,-0.960000,1.040433,0.080000,-0.011437,-0.001926,-0.001326,-0.000600,-0.000000,-0.000000,-0.000000
-0.840000,-0.960000,1.040048,0.080000,-0.011129,-0.001914,-0.001360,-0.000488,-0.000000,-0.000000,-0.000000
-0.760000,-0.960000,1.040048,0.080000,-0.010831,-0.001895,-0.001398,-0.000393,-0.000000,-0.000000,-0.000000
-0.680000,-0.960000,1.040433,0.080000,-0.010542,-0.001873,-0.001437,-0.000313,-0.000000,-0.000000,-0.000000
-0.600000,-0.960000,1.041201,0.080000,-0.010261,-0.001850,-0.001475,-0.000247,-0.000000,-0.000000,-0.000000
-0.520000,-0.960000,1.040433,0.080000,-0.009990,-0.001827,-0.001510,-0.000192,-0.000000,-0.000000,-0.000000
-0.440000,-0.960000,1.040048,0.080000,-0.009729,-0.001806,-0.001542,-0.000147,-0.000000,-0.000000,-0.000000
-0.360000,-0.960000,1.040048,0.080000,-0.009478,-0.001787,-0.001570,-0.000110,-0.000000,-0.000000,-0.000000
-0.280000,-0.960000,1.040433,0.080000,-0.009237,-0.001771,-0.001593,-0.000079,-0.000000,-0.000000,-0.000000
-0.200000,-0.960000,1.041201,0.080000,-0.009006,-0.001759,-0.001610,-0.000053,-0.000000,-0.000000,-0.000000
-0.120000,-0.960000,1.040433,0.080000,-0.008785,-0.001751,-0.001622,-0.000030,-0.000000,-0.000000,-0.000000
-0.040000,-0.960000,1.040048,0.080000,-0.008575,-0.001747,-0.001628,-0.000010,-0.000000,-0.000000,-0.000000
0.040000,-0.960000,1.040048,0.080000,-0.008375,-0.001747,-0.001628,0.000010,-0.000000,-0.000000,0.000000
0.120000,-0.960000,1.040433,0.080000,-0.008185,-0.001751,-0.001622,0.000030,-0.000000,-0.000000,0.000000
0.200000,-0.960000,1.041201,0.080000,-0.008006,-0.001759,-0.001610,0.000053,-0.000000,-0.000000,0.000000
0.280000,-0.960000,1.040433,0.080000,-0.007837,-0.001771,-0.001593,0.000079,-0.000000,-0.000000,0.000000
0.360000,-0.960000,1.040048,0.080000,-0.007678,-0.001787,-0.001570,0.000109,-0.000000,-0.000000,0.000000
0.440000,-0.960000,1.040048,0.080000,-0.007530,-0.001806,-0.001542,0.000147,-0.000000,-0.000000,0.000000
0.520000,-0.960000,1.040433,0.080000,-0.007391,-0.001827,-0.001510,0.000192,-0.000000,-0.000000,0.000000
0.600000,-0.960000,1.041201,0.080000,-0.007262,-0.001850,-0.001475,0.000247,-0.000000,-0.000000,0.000000
0.680000,-0.960000,1.040433,0.080000,-0.007142,-0.001873,-0.001437,0.000313,-0.000000,-0.000000,0.000000
0.760000,-0.960000,1.040048,0.080000,-0.007032,-0.001895,-0.001398,0.000392,-0.000000,-0.000000,0.000000
0.840000,-0.960000,1.040048,0.080000,-0.006930,-0.001913,-0.001360,0.000487,-0.000000,-0.000000,0.000000
0.920000,-0.960000,1.040433,0.080000,-0.006838,-0.001926,-0.001326,0.000599,-0.000000,-0.000000,0.000000
1.000000,-0.960000,1.041201,0.080000,-0.006753,-0.001928,-0.001299,0.000730,-0.000000,-0.000000,0.000000
1.080000,-0.960000,1.040433,0.080000,-0.006677,-0.001916,-0.001284,0.000881,-0.000000,-0.000000,0.000000
1.160000,-0.960000,1.040048,0.080000,-0.006610,-0.001884,-0.001286,0.001054,-0.000000,-0.000000,0.000000
1.240000,-0.960000,1.040048,0.080000,-0.006550,-0.001825,-0.001311,0.001247,-0.000000,-0.000000,0.000000
1.320000,-0.960000,1.040433,0.080000,-0.006499,-0.001730,-0.001369,0.001460,-0.000000,-0.000000,0.000000
1.400000,-0.960000,1.041201,0.080000,-0.006457,-0.001589,-0.001469,0.001689,-0.000000,-0.000000,0.000000
1.480000,-0.960000,1.020049,0.080000,-0.006424,-0.001390,-0.001621,0.001926,-0.000000,-0.000000,0.000000
1.560000,-0.960000,0.940053,0.080000,-0.006402,-0.001123,-0.001837,0.002159,-0.000000,-0.000000,0.000000
1.640000,-0.960000,0.860058,0.080000,-0.006391,-0.000776,-0.002127,0.002372,0.000000,-0.000000,0.000000
1.720000,-0.960000,0.780064,0.080000,-0.006394,-0.000339,-0.002500,0.002541,0.000000,-0.000000,0.000000
1.800000,-0.960000,0.700071,0.080000,-0.006413,0.000191,-0.002958,0.002635,0.000000,-0.000000,0.000000
1.880000,-0.960000,0.620081,0.080000,-0.006452,0.000808,-0.003493,0.002615,0.000000,-0.000000,0.000000
1.960000,-0.960000,0.540093,0.080000,-0.006512,0.001497,-0.004104,0.002436,0.000000,-0.000000,0.000000
2.040000,-0.960000,0.460109,0.080000,-0.006599,0.002210,-0.004705,0.002077,0.000000,-0.000000,0.000000
2.120000,-0.960000,0.380132,0.080000,-0.006716,0.002896,-0.005267,0.001481,0.000000,-0.000000,0.000000
-2.120000,-0.880000,0.381182,0.080000,-0.017188,0.002250,-0.004602,-0.000939,0.000000,-0.000000,-0.000000
-2.040000,-0.880000,0.460977,0.080000,-0.016661,0.001760,-0.004242,-0.001467,0.000000,-0.000000,-0.000000
-1.960000,-0.880000,0.540833,0.080000,-0.016162,0.001227,-0.003826,-0.001818,0.000000,-0.000000,-0.000000
-1.880000,-0.880000,0.620725,0.080000,-0.015687,0.000690,-0.003379,-0.002031,0.000000,-0.000000,-0.000000
-1.800000,-0.880000,0.700643,0.080000,-0.015234,0.000190,-0.002966,-0.002112,0.000000,-0.000000,-0.000000
-1.720000,-0.880000,0.780577,0.080000,-0.014800,-0.000257,-0.002598,-0.002093,0.000000,-0.000000,-0.000000
-1.640000,-0.880000,0.860523,0.080000,-0.014382,-0.000641,-0.002283,-0.002002,0.000000,-0.000000,-0.000000
-1.560000,-0.880000,0.940479,0.080000,-0.013980,-0.000960,-0.002027,-0.001864,-0.000000,-0.000000,-0.000000
-1.480000,-0.880000,1.020441,0.080000,-0.013590,-0.001217,-0.001826,-0.001697,-0.000000,-0.000000,-0.000000
-1.400000,-0.880000,1.100409,0.080000,-0.013212,-0.001418,-0.001676,-0.001518,-0.000000,-0.000000,-0.000000
-1.320000,-0.880000,1.120402,0.080000,-0.012845,-0.001571,-0.001569,-0.001337,-0.000000,-0.000000,-0.000000
-1.240000,-0.880000,1.120045,0.080000,-0.012487,-0.001683,-0.001498,-0.001163,-0.000000,-0.000000,-0.000000
-1.160000,-0.880000,1.120045,0.080000,-0.012140,-0.001763,-0.001456,-0.000999,-0.000000,-0.000000,-0.000000
-1.080000,-0.880000,1.120402,0.080000,-0.011801,-0.001816,-0.001436,-0.000850,-0.000000,-0.000000,-0.000000
-1.000000,-0.880000,1.121116,0.080000,-0.011472,-0.001849,-0.001433,-0.000716,-0.000000,-0.000000,-0.000000
-0.920000,-0.880000,1.120402,0.080000,-0.011153,-0.001866,-0.001442,-0.000598,-0.000000,-0.000000,-0.000000
-0.840000,-0.880000,1.120045,0.080000,-0.010842,-0.001872,-0.001460,-0.000495,-0.000000,-0.000000,-0.000000
-0.760000,-0.880000,1.120045,0.080000,-0.010541,-0.001870,-0.001483,-0.000405,-0.000000,-0.000000,-0.000000
-0.680000,-0.880000,1.120402,0.080000,-0.010249,-0.001863,-0.001508,-0.000329,-0.000000,-0.000000,-0.000000
-0.600000,-0.880000,1.121116,0.080000,-0.009967,-0.001853,-0.001535,-0.000264,-0.000000,-0.000000,-0.000000
-0.520000,-0.880000,1.120402,0.080000,-0.009695,-0.001841,-0.001560,-0.000209,-0.000000,-0.000000,-0.000000
-0.440000,-0.880000,1.120045,0.080000,-0.009432,-0.001829,-0.001584,-0.000163,-0.000000,-0.000000,-0.000000
-0.360000,-0.880000,1.120045,0.080000,-0.009180,-0.001817,-0.001605,-0.000124,-0.000000,-0.000000,-0.000000
-0.280000,-0.880000,1.120402,0.080000,-0.008938,-0.001808,-0.001622,-0.000090,-0.000000,-0.000000,-0.000000
-0.200000,-0.880000,1.121116,0.080000,-0.008707,-0.001800,-0.001636,-0.000061,-0.000000,-0.000000,-0.000000
-0.120000,-0.880000,1.120402,0.080000,-0.008486,-0.001794,-0.001645,-0.000036,-0.000000,-0.000000,-0.000000
-0.040000,-0.880000,1.120045,0.080000,-0.008275,-0.001791,-0.001649,-0.000012,-0.000000,-0.000000,-0.000000
0.040000,-0.880000,1.120045,0.080000,-0.008075,-0.001791,-0.001649,0.000012,-0.000000,-0.000000,0.000000
0.120000,-0.880000,1.120402,0.080000,-0.007886,-0.001794,-0.001645,0.000035,-0.000000,-0.000000,0.000000
0.200000,-0.880000,1.121116,0.080000,-0.007707,-0.001800,-0.001636,0.000061,-0.000000,-0.000000,0.000000
0.280000,-0.880000,1.120402,0.080000,-0.007539,-0.001807,-0.001622,0.000090,-0.000000,-0.000000,0.000000
0.360000,-0.880000,1.120045,0.080000,-0.007381,-0.001817,-0.001605,0.000123,-0.000000,-0.000000,0.000000
0.440000,-0.880000,1.120045,0.080000,-0.007233,-0.001829,-0.001584,0.000163,-0.000000,-0.000000,0.000000
0.520000,-0.880000,1.120402,0.080000,-0.007095,-0.001841,-0.001560,0.000209,-0.000000,-0.000000,0.000000
0.600000,-0.880000,1.121116,0.080000,-0.006968,-0.001853,-0.001535,0.000264,-0.000000,-0.000000,0.000000
0.680000,-0.880000,1.120402,0.080000,-0.006850,-0.001863,-0.001508,0.000329,-0.000000,-0.000000,0.000000
0.760000,-0.880000,1.120045,0.080000,-0.006742,-0.001870,-0.001483,0.000405,-0.000000,-0.000000,0.000000
0.840000,-0.880000,1.120045,0.080000,-0.006643,-0.001872,-0.001460,0.000494,-0.000000,-0.000000,0.000000
0.920000,-0.880000,1.120402,0.080000,-0.006554,-0.001866,-0.001442,0.000597,-0.000000,-0.000000,0.000000
1.000000,-0.880000,1.121116,0.080000,-0.006474,-0.001849,-0.001433,0.000716,-0.000000,-0.000000,0.000000
1.080000,-0.880000,1.120402,0.080000,-0.006403,-0.001816,-0.001436,0.000850,-0.000000,-0.000000,0.000000
1.160000,-0.880000,1.120045,0.080000,-0.006341,-0.001763,-0.001456,0.000999,-0.000000,-0.000000,0.000000
1.240000,-0.880000,1.120045,0.080000,-0.006289,-0.001683,-0.001498,0.001162,-0.000000,-0.000000,0.000000
1.320000,-0.880000,1.120402,0.080000,-0.006246,-0.001571,-0.001569,0.001336,-0.000000,-0.000000,0.000000
1.400000,-0.880000,1.100409,0.080000,-0.006213,-0.001419,-0.001676,0.001517,-0.000000,-0.000000,0.000000
1.480000,-0.880000,1.020441,0.080000,-0.006192,-0.001218,-0.001826,0.001696,-0.000000,-0.000000,0.000000
1.560000,-0.880000,0.940479,0.080000,-0.006181,-0.000961,-0.002027,0.001862,-0.000000,-0.000000,0.000000
1.640000,-0.880000,0.860523,0.080000,-0.006184,-0.000642,-0.002283,0.002001,0.000000,-0.000000,0.000000
1.720000,-0.880000,0.780577,0.080000,-0.006202,-0.000258,-0.002597,0.002091,0.000000,-0.000000,0.000000
1.800000,-0.880000,0.700643,0.080000,-0.006236,0.000189,-0.002965,0.002110,0.000000,-0.000000,0.000000
1.880000,-0.880000,0.620725,0.080000,-0.006289,0.000688,-0.003377,0.002029,0.000000,-0.000000,0.000000
1.960000,-0.880000,0.540833,0.080000,-0.006364,0.001224,-0.003824,0.001816,0.000000,-0.000000,0.000000
2.040000,-0.880000,0.460977,0.080000,-0.006464,0.001757,-0.004239,0.001466,0.000000,-0.000000,0.000000
2.120000,-0.880000,0.381182,0.080000,-0.006590,0.002247,-0.004599,0.000937,0.000000,-0.000000,0.000000
-2.120000,-0.800000,0.383275,0.080000,-0.017047,0.001693,-0.004034,-0.000563,0.000000,-0.000000,-0.000000
-2.040000,-0.800000,0.462709,0.080000,-0.016515,0.001346,-0.003820,-0.001021,0.000000,-0.000000,-0.000000
-1.960000,-0.800000,0.542310,0.080000,-0.016006,0.000949,-0.003544,-0.001346,0.000000,-0.000000,-0.000000
-1.880000,-0.800000,0.622013,0.080000,-0.015521,0.000534,-0.003227,-0.001567,0.000000,-0.000000,-0.000000
-1.800000,-0.800000,0.701783,0.080000,-0.015056,0.000133,-0.002918,-0.001680,0.000000,-0.000000,-0.000000
-1.720000,-0.800000,0.781601,0.080000,-0.014609,-0.000239,-0.002630,-0.001708,0.000000,-0.000000,-0.000000
-1.640000,-0.800000,0.861452,0.080000,-0.014180,-0.000571,-0.002373,-0.001672,0.000000,-0.000000,-0.000000
-1.560000,-0.800000,0.941329,0.080000,-0.013766,-0.000857,-0.002155,-0.001589,0.000000,-0.000000,-0.000000
-1.480000,-0.800000,1.021225,0.080000,-0.013365,-0.001096,-0.001976,-0.001474,-0.000000,-0.000000,-0.000000
-1.400000,-0.800000,1.101136,0.080000,-0.012978,-0.001292,-0.001835,-0.001342,-0.000000,-0.000000,-0.000000
-1.320000,-0.800000,1.181059,0.080000,-0.012602,-0.001448,-0.001729,-0.001202,-0.000000,-0.000000,-0.000000
-1.240000,-0.800000,1.200042,0.080000,-0.012237,-0.001570,-0.001652,-0.001062,-0.000000,-0.000000,-0.000000
-1.160000,-0.800000,1.200042,0.080000,-0.011883,-0.001662,-0.001600,-0.000927,-0.000000,-0.000000,-0.000000
-1.080000,-0.800000,1.200375,0.080000,-0.011539,-0.001730,-0.001568,-0.000800,-0.000000,-0.000000,-0.000000
-1.000000,-0.800000,1.201041,0.080000,-0.011205,-0.001779,-0.001551,-0.000684,-0.000000,-0.000000,-0.000000
-0.920000,-0.800000,1.200375,0.080000,-0.010881,-0.001812,-0.001547,-0.000579,-0.000000,-0.000000,-0.000000
-0.840000,-0.800000,1.200042,0.080000,-0.010567,-0.001833,-0.001552,-0.000486,-0.000000,-0.000000,-0.000000
-0.760000,-0.800000,1.200042,0.080000,-0.010262,-0.001845,-0.001562,-0.000403,-0.000000,-0.000000,-0.000000
-0.680000,-0.800000,1.200375,0.080000,-0.009968,-0.001850,-0.001577,-0.000332,-0.000000,-0.000000,-0.000000
-0.600000,-0.800000,1.201041,0.080000,-0.009684,-0.001851,-0.001593,-0.000270,-0.000000,-0.000000,-0.000000
-0.520000,-0.800000,1.200375,0.080000,-0.009410,-0.001849,-0.001610,-0.000217,-0.000000,-0.000000,-0.000000
-0.440000,-0.800000,1.200042,0.080000,-0.009147,-0.001845,-0.001627,-0.000171,-0.000000,-0.000000,-0.000000
-0.360000,-0.800000,1.200042,0.080000,-0.008894,-0.001840,-0.001641,-0.000131,-0.000000,-0.000000,-0.000000
-0.280000,-0.800000,1.200375,0.080000,-0.008651,-0.001836,-0.001654,-0.000097,-0.000000,-0.000000,-0.000000
-0.200000,-0.800000,1.201041,0.080000,-0.008419,-0.001832,-0.001664,-0.000066,-0.000000,-0.000000,-0.000000
-0.120000,-0.800000,1.200375,0.080000,-0.008198,-0.001829,-0.001670,-0.000039,-0.000000,-0.000000,-0.000000
-0.040000,-0.800000,1.200042,0.080000,-0.007987,-0.001828,-0.001674,-0.000013,-0.000000,-0.000000,-0.000000
0.040000,-0.800000,1.200042,0.080000,-0.007787,-0.001828,-0.001674,0.000013,-0.000000,-0.000000,0.000000
0.120000,-0.800000,1.200375,0.080000,-0.007598,-0.001829,-0.001670,0.000039,-0.000000,-0.000000,0.000000
0.200000,-0.800000,1.201041,0.080000,-0.007419,-0.001832,-0.001664,0.000066,-0.000000,-0.000000,0.000000
0.280000,-0.800000,1.200375,0.080000,-0.007252,-0.001836,-0.001654,0.000097,-0.000000,-0.000000,0.000000
0.360000,-0.800000,1.200042,0.080000,-0.007094,-0.001840,-0.001641,0.000131,-0.000000,-0.000000,0.000000
0.440000,-0.800000,1.200042,0.080000,-0.006947,-0.001845,-0.001627,0.000171,-0.000000,-0.000000,0.000000
0.520000,-0.800000,1.200375,0.080000,-0.006811,-0.001849,-0.001610,0.000216,-0.000000,-0.000000,0.000000
0.600000,-0.800000,1.201041,0.080000,-0.006685,-0.001851,-0.001593,0.000270,-0.000000,-0.000000,0.000000
0.680000,-0.800000,1.200375,0.080000,-0.006569,-0.001850,-0.001577,0.000332,-0.000000,-0.000000,0.000000
0.760000,-0.800000,1.200042,0.080000,-0.006463,-0.001845,-0.001563,0.000403,-0.000000,-0.000000,0.000000
0.840000,-0.800000,1.200042,0.080000,-0.006368,-0.001833,-0.001552,0.000485,-0.000000,-0.000000,0.000000
0.920000,-0.800000,1.200375,0.080000,-0.006282,-0.001812,-0.001547,0.000578,-0.000000,-0.000000,0.000000
1.000000,-0.800000,1.201041,0.080000,-0.006206,-0.001779,-0.001551,0.000683,-0.000000,-0.000000,0.000000
1.080000,-0.800000,1.200375,0.080000,-0.006140,-0.001730,-0.001567,0.000800,-0.000000,-0.000000,0.000000
1.160000,-0.800000,1.200042,0.080000,-0.006084,-0.001662,-0.001599,0.000926,-0.000000,-0.000000,0.000000
1.240000,-0.800000,1.200042,0.080000,-0.006038,-0.001570,-0.001651,0.001061,-0.000000,-0.000000,0.000000
1.320000,-0.800000,1.181059,0.080000,-0.006003,-0.001448,-0.001728,0.001201,-0.000000,-0.000000,0.000000
1.400000,-0.800000,1.101136,0.080000,-0.005979,-0.001292,-0.001835,0.001341,-0.000000,-0.000000,0.000000
1.480000,-0.800000,1.021225,0.080000,-0.005967,-0.001097,-0.001975,0.001473,-0.000000,-0.000000,0.000000
1.560000,-0.800000,0.941329,0.080000,-0.005967,-0.000857,-0.002154,0.001587,0.000000,-0.000000,0.000000
1.640000,-0.800000,0.861452,0.080000,-0.005982,-0.000572,-0.002372,0.001671,0.000000,-0.000000,0.000000
1.720000,-0.800000,0.781601,0.080000,-0.006011,-0.000240,-0.002628,0.001707,0.000000,-0.000000,0.000000
1.800000,-0.800000,0.701783,0.080000,-0.006058,0.000132,-0.002917,0.001678,0.000000,-0.000000,0.000000
1.880000,-0.800000,0.622013,0.080000,-0.006123,0.000533,-0.003225,0.001565,0.000000,-0.000000,0.000000
1.960000,-0.800000,0.542310,0.080000,-0.006208,0.000947,-0.003542,0.001345,0.000000,-0.000000,0.000000
2.040000,-0.800000,0.462709,0.080000,-0.006317,0.001343,-0.003817,0.001020,0.000000,-0.000000,0.000000
2.120000,-0.800000,0.383275,0.080000,-0.006450,0.001691,-0.004031,0.000562,0.000000,-0.000000,0.000000
-2.120000,-0.720000,0.381182,0.080000,-0.016896,0.001222,-0.003556,-0.000306,0.000000,-0.000000,-0.000000
-2.040000,-0.720000,0.460977,0.080000,-0.016359,0.000978,-0.003447,-0.000698,0.000000,-0.000000,-0.000000
-1.960000,-0.720000,0.540833,0.080000,-0.015845,0.000685,-0.003278,-0.000989,0.000000,-0.000000,-0.000000
-1.880000,-0.720000,0.620725,0.080000,-0.015351,0.000366,-0.003062,-0.001201,0.000000,-0.000000,-0.000000
-1.800000,-0.720000,0.700643,0.080000,-0.014876,0.000046,-0.002839,-0.001328,0.000000,-0.000000,-0.000000
-1.720000,-0.720000,0.780577,0.080000,-0.014420,-0.000262,-0.002620,-0.001384,0.000000,-0.000000,-0.000000
-1.640000,-0.720000,0.860523,0.080000,-0.013981,-0.000545,-0.002416,-0.001383,0.000000,-0.000000,-0.000000
-1.560000,-0.720000,0.940479,0.080000,-0.013557,-0.000797,-0.002235,-0.001339,0.000000,-0.000000,-0.000000
-1.480000,-0.720000,1.020441,0.080000,-0.013148,-0.001016,-0.002081,-0.001265,-0.000000,-0.000000,-0.000000
-1.400000,-0.720000,1.100409,0.080000,-0.012752,-0.001202,-0.001954,-0.001170,-0.000000,-0.000000,-0.000000
-1.320000,-0.720000,1.180381,0.080000,-0.012368,-0.001355,-0.001853,-0.001064,-0.000000,-0.000000,-0.000000
-1.240000,-0.720000,1.260357,0.080000,-0.011996,-0.001481,-0.001776,-0.000953,-0.000000,-0.000000,-0.000000
-1.160000,-0.720000,1.280039,0.080000,-0.011636,-0.001580,-0.001719,-0.000843,-0.000000,-0.000000,-0.000000
-1.080000,-0.720000,1.280352,0.080000,-0.011287,-0.001658,-0.001680,-0.000737,-0.000000,-0.000000,-0.000000
-1.000000,-0.720000,1.280976,0.080000,-0.010948,-0.001718,-0.001654,-0.000638,-0.000000,-0.000000,-0.000000
-0.920000,-0.720000,1.280352,0.080000,-0.010620,-0.001763,-0.001640,-0.000546,-0.000000,-0.000000,-0.000000
-0.840000,-0.720000,1.280039,0.080000,-0.010303,-0.001796,-0.001635,-0.000464,-0.000000,-0.000000,-0.000000
-0.760000,-0.720000,1.280039,0.080000,-0.009996,-0.001820,-0.001636,-0.000390,-0.000000,-0.000000,-0.000000
-0.680000,-0.720000,1.280352,0.080000,-0.009700,-0.001836,-0.001641,-0.000324,-0.000000,-0.000000,-0.000000
-0.600000,-0.720000,1.280976,0.080000,-0.009414,-0.001846,-0.001649,-0.000266,-0.000000,-0.000000,-0.000000
-0.520000,-0.720000,1.280352,0.080000,-0.009138,-0.001852,-0.001659,-0.000216,-0.000000,-0.000000,-0.000000
-0.440000,-0.720000,1.280039,0.080000,-0.008873,-0.001855,-0.001668,-0.000172,-0.000000,-0.000000,-0.000000
-0.360000,-0.720000,1.280039,0.080000,-0.008619,-0.001857,-0.001678,-0.000133,-0.000000,-0.000000,-0.000000
-0.280000,-0.720000,1.280352,0.080000,-0.008376,-0.001857,-0.001686,-0.000099,-0.000000,-0.000000,-0.000000
-0.200000,-0.720000,1.280976,0.080000,-0.008144,-0.001857,-0.001693,-0.000068,-0.000000,-0.000000,-0.000000
-0.120000,-0.720000,1.280352,0.080000,-0.007922,-0.001856,-0.001697,-0.000040,-0.000000,-0.000000,-0.000000
-0.040000,-0.720000,1.280039,0.080000,-0.007711,-0.001856,-0.001700,-0.000013,-0.000000,-0.000000,-0.000000
0.040000,-0.720000,1.280039,0.080000,-0.007511,-0.001856,-0.001700,0.000013,-0.000000,-0.000000,0.000000
0.120000,-0.720000,1.280352,0.080000,-0.007322,-0.001856,-0.001697,0.000040,-0.000000,-0.000000,0.000000
0.200000,-0.720000,1.280976,0.080000,-0.007144,-0.001857,-0.001693,0.000068,-0.000000,-0.000000,0.000000
0.280000,-0.720000,1.280352,0.080000,-0.006976,-0.001857,-0.001686,0.000099,-0.000000,-0.000000,0.000000
0.360000,-0.720000,1.280039,0.080000,-0.006820,-0.001857,-0.001678,0.000133,-0.000000,-0.000000,0.000000
0.440000,-0.720000,1.280039,0.080000,-0.006674,-0.001855,-0.001668,0.000172,-0.000000,-0.000000,0.000000
0.520000,-0.720000,1.280352,0.080000,-0.006539,-0.001852,-0.001659,0.000216,-0.000000,-0.000000,0.000000
0.600000,-0.720000,1.280976,0.080000,-0.006414,-0.001846,-0.001649,0.000266,-0.000000,-0.000000,0.000000
0.680000,-0.720000,1.280352,0.080000,-0.006300,-0.001836,-0.001641,0.000324,-0.000000,-0.000000,0.000000
0.760000,-0.720000,1.280039,0.080000,-0.006197,-0.001820,-0.001636,0.000389,-0.000000,-0.000000,0.000000
0.840000,-0.720000,1.280039,0.080000,-0.006104,-0.001796,-0.001635,0.000463,-0.000000,-0.000000,0.000000
0.920000,-0.720000,1.280352,0.080000,-0.006021,-0.001763,-0.001640,0.000546,-0.000000,-0.000000,0.000000
1.000000,-0.720000,1.280976,0.080000,-0.005949,-0.001719,-0.001654,0.000637,-0.000000,-0.000000,0.000000
1.080000,-0.720000,1.280352,0.080000,-0.005888,-0.001659,-0.001680,0.000736,-0.000000,-0.000000,0.000000
1.160000,-0.720000,1.280039,0.080000,-0.005837,-0.001581,-0.001719,0.000842,-0.000000,-0.000000,0.000000
1.240000,-0.720000,1.260357,0.080000,-0.005798,-0.001481,-0.001776,0.000952,-0.000000,-0.000000,0.000000
1.320000,-0.720000,1.180381,0.080000,-0.005769,-0.001356,-0.001853,0.001063,-0.000000,-0.000000,0.000000
1.400000,-0.720000,1.100409,0.080000,-0.005753,-0.001202,-0.001954,0.001169,-0.000000,-0.000000,0.000000
1.480000,-0.720000,1.020441,0.080000,-0.005749,-0.001017,-0.002081,0.001264,-0.000000,-0.000000,0.000000
1.560000,-0.720000,0.940479,0.080000,-0.005759,-0.000798,-0.002234,0.001338,0.000000,-0.000000,0.000000
1.640000,-0.720000,0.860523,0.080000,-0.005783,-0.000546,-0.002415,0.001382,0.000000,-0.000000,0.000000
1.720000,-0.720000,0.780577,0.080000,-0.005822,-0.000263,-0.002618,0.001383,0.000000,-0.000000,0.000000
1.800000,-0.720000,0.700643,0.080000,-0.005878,0.000044,-0.002838,0.001327,0.000000,-0.000000,0.000000
1.880000,-0.720000,0.620725,0.080000,-0.005953,0.000364,-0.003060,0.001200,0.000000,-0.000000,0.000000
1.960000,-0.720000,0.540833,0.080000,-0.006046,0.000683,-0.003276,0.000988,0.000000,-0.000000,0.000000
2.040000,-0.720000,0.460977,0.080000,-0.006161,0.000976,-0.003445,0.000697,0.000000,-0.000000,0.000000
2.120000,-0.720000,0.381182,0.080000,-0.006298,0.001219,-0.003553,0.000306,0.000000,-0.000000,0.000000
-2.120000,-0.640000,0.380132,0.080000,-0.016737,0.000826,-0.003157,-0.000136,0.000000,-0.000000,-0.000000
-2.040000,-0.640000,0.460109,0.080000,-0.016198,0.000658,-0.003126,-0.000465,0.000000,-0.000000,-0.000000
-1.960000,-0.640000,0.540093,0.080000,-0.015678,0.000444,-0.003036,-0.000720,0.000000,-0.000000,-0.000000
-1.880000,-0.640000,0.620081,0.080000,-0.015178,0.000199,-0.002899,-0.000915,0.000000,-0.000000,-0.000000
-1.800000,-0.640000,0.700071,0.080000,-0.014697,-0.000056,-0.002745,-0.001042,0.000000,-0.000000,-0.000000
-1.720000,-0.640000,0.780064,0.080000,-0.014233,-0.000308,-0.002584,-0.001112,0.000000,-0.000000,-0.000000
-1.640000,-0.640000,0.860058,0.080000,-0.013786,-0.000548,-0.002427,-0.001134,0.000000,-0.000000,-0.000000
-1.560000,-0.640000,0.940053,0.080000,-0.013354,-0.000769,-0.002282,-0.001117,0.000000,-0.000000,-0.000000
-1.480000,-0.640000,1.020049,0.080000,-0.012937,-0.000967,-0.002153,-0.001071,-0.000000,-0.000000,-0.000000
-1.400000,-0.640000,1.100045,0.080000,-0.012533,-0.001139,-0.002042,-0.001005,-0.000000,-0.000000,-0.000000
-1.320000,-0.640000,1.180042,0.080000,-0.012143,-0.001287,-0.001950,-0.000926,-0.000000,-0.000000,-0.000000
-1.240000,-0.640000,1.260040,0.080000,-0.011765,-0.001412,-0.001875,-0.000840,-0.000000,-0.000000,-0.000000
-1.160000,-0.640000,1.340037,0.080000,-0.011400,-0.001516,-0.001817,-0.000752,-0.000000,-0.000000,-0.000000
-1.080000,-0.640000,1.360331,0.080000,-0.011045,-0.001600,-0.001774,-0.000665,-0.000000,-0.000000,-0.000000
-1.000000,-0.640000,1.360919,0.080000,-0.010703,-0.001668,-0.001743,-0.000581,-0.000000,-0.000000,-0.000000
-0.920000,-0.640000,1.360331,0.080000,-0.010371,-0.001722,-0.001722,-0.000503,-0.000000,-0.000000,-0.000000
-0.840000,-0.640000,1.360037,0.080000,-0.010051,-0.001764,-0.001708,-0.000431,-0.000000,-0.000000,-0.000000
-0.760000,-0.640000,1.360037,0.080000,-0.009741,-0.001796,-0.001702,-0.000366,-0.000000,-0.000000,-0.000000
-0.680000,-0.640000,1.360331,0.080000,-0.009442,-0.001821,-0.001700,-0.000307,-0.000000,-0.000000,-0.000000
-0.600000,-0.640000,1.360919,0.080000,-0.009155,-0.001839,-0.001701,-0.000254,-0.000000,-0.000000,-0.000000
-0.520000,-0.640000,1.360331,0.080000,-0.008878,-0.001853,-0.001704,-0.000208,-0.000000,-0.000000,-0.000000
-0.440000,-0.640000,1.360037,0.080000,-0.008612,-0.001862,-0.001709,-0.000167,-0.000000,-0.000000,-0.000000
-0.360000,-0.640000,1.360037,0.080000,-0.008357,-0.001869,-0.001713,-0.000130,-0.000000,-0.000000,-0.000000
-0.280000,-0.640000,1.360331,0.080000,-0.008113,-0.001873,-0.001718,-0.000097,-0.000000,-0.000000,-0.000000
-0.200000,-0.640000,1.360919,0.080000,-0.007880,-0.001876,-0.001722,-0.000067,-0.000000,-0.000000,-0.000000
-0.120000,-0.640000,1.360331,0.080000,-0.007658,-0.001878,-0.001725,-0.000040,-0.000000,-0.000000,-0.000000
-0.040000,-0.640000,1.360037,0.080000,-0.007447,-0.001879,-0.001726,-0.000013,-0.000000,-0.000000,-0.000000
0.040000,-0.640000,1.360037,0.080000,-0.007247,-0.001879,-0.001726,0.000013,-0.000000,-0.000000,0.000000
0.120000,-0.640000,1.360331,0.080000,-0.007058,-0.001878,-0.001725,0.000039,-0.000000,-0.000000,0.000000
0.200000,-0.640000,1.360919,0.080000,-0.006880,-0.001876,-0.001722,0.000067,-0.000000,-0.000000,0.000000
0.280000,-0.640000,1.360331,0.080000,-0.006713,-0.001873,-0.001718,0.000097,-0.000000,-0.000000,0.000000
0.360000,-0.640000,1.360037,0.080000,-0.006557,-0.001869,-0.001713,0.000130,-0.000000,-0.000000,0.000000
0.440000,-0.640000,1.360037,0.080000,-0.006412,-0.001862,-0.001709,0.000167,-0.000000,-0.000000,0.000000
0.520000,-0.640000,1.360331,0.080000,-0.006278,-0.001853,-0.001704,0.000208,-0.000000,-0.000000,0.000000
0.600000,-0.640000,1.360919,0.080000,-0.006155,-0.001839,-0.001701,0.000254,-0.000000,-0.000000,0.000000
0.680000,-0.640000,1.360331,0.080000,-0.006043,-0.001821,-0.001699,0.000307,-0.000000,-0.000000,0.000000
0.760000,-0.640000,1.360037,0.080000,-0.005942,-0.001797,-0.001702,0.000365,-0.000000,-0.000000,0.000000
0.840000,-0.640000,1.360037,0.080000,-0.005852,-0.001764,-0.001708,0.000431,-0.000000,-0.000000,0.000000
0.920000,-0.640000,1.360331,0.080000,-0.005772,-0.001722,-0.001721,0.000503,-0.000000,-0.000000,0.000000
1.000000,-0.640000,1.360919,0.080000,-0.005704,-0.001668,-0.001743,0.000581,-0.000000,-0.000000,0.000000
1.080000,-0.640000,1.360331,0.080000,-0.005647,-0.001600,-0.001774,0.000664,-0.000000,-0.000000,0.000000
1.160000,-0.640000,1.340037,0.080000,-0.005601,-0.001516,-0.001817,0.000751,-0.000000,-0.000000,0.000000
1.240000,-0.640000,1.260040,0.080000,-0.005567,-0.001413,-0.001875,0.000839,-0.000000,-0.000000,0.000000
1.320000,-0.640000,1.180042,0.080000,-0.005544,-0.001288,-0.001949,0.000925,-0.000000,-0.000000,0.000000
1.400000,-0.640000,1.100045,0.080000,-0.005535,-0.001140,-0.002041,0.001004,-0.000000,-0.000000,0.000000
1.480000,-0.640000,1.020049,0.080000,-0.005538,-0.000967,-0.002152,0.001070,-0.000000,-0.000000,0.000000
1.560000,-0.640000,0.940053,0.080000,-0.005555,-0.000770,-0.002281,0.001116,0.000000,-0.000000,0.000000
1.640000,-0.640000,0.860058,0.080000,-0.005587,-0.000549,-0.002426,0.001133,0.000000,-0.000000,0.000000
1.720000,-0.640000,0.780064,0.080000,-0.005635,-0.000309,-0.002583,0.001111,0.000000,-0.000000,0.000000
1.800000,-0.640000,0.700071,0.080000,-0.005699,-0.000057,-0.002744,0.001041,0.000000,-0.000000,0.000000
1.880000,-0.640000,0.620081,0.080000,-0.005780,0.000198,-0.002898,0.000914,0.000000,-0.000000,0.000000
1.960000,-0.640000,0.540093,0.080000,-0.005880,0.000442,-0.003034,0.000719,0.000000,-0.000000,0.000000
2.040000,-0.640000,0.460109,0.080000,-0.006000,0.000656,-0.003124,0.000465,0.000000,-0.000000,0.000000
2.120000,-0.640000,0.380132,0.080000,-0.006139,0.000824,-0.003155,0.000135,0.000000,-0.000000,0.000000
-2.120000,-0.560000,0.380132,0.080000,-0.016573,0.000498,-0.002827,-0.000027,0.000000,-0.000000,-0.000000
-2.040000,-0.560000,0.460109,0.080000,-0.016032,0.000386,-0.002852,-0.000301,0.000000,-0.000000,-0.000000
-1.960000,-0.560000,0.540093,0.080000,-0.015509,0.000230,-0.002822,-0.000519,0.000000,-0.000000,-0.000000
-1.880000,-0.560000,0.620081,0.080000,-0.015005,0.000043,-0.002747,-0.000692,0.000000,-0.000000,-0.000000
-1.800000,-0.560000,0.700071,0.080000,-0.014518,-0.000159,-0.002649,-0.000812,0.000000,-0.000000,-0.000000
-1.720000,-0.560000,0.780064,0.080000,-0.014047,-0.000367,-0.002536,-0.000885,0.000000,-0.000000,-0.000000
-1.640000,-0.560000,0.860058,0.080000,-0.013594,-0.000570,-0.002419,-0.000919,0.000000,-0.000000,-0.000000
-1.560000,-0.560000,0.940053,0.080000,-0.013155,-0.000762,-0.002305,-0.000919,0.000000,-0.000000,-0.000000
-1.480000,-0.560000,1.020049,0.080000,-0.012732,-0.000939,-0.002199,-0.000894,0.000000,-0.000000,-0.000000
-1.400000,-0.560000,1.100045,0.080000,-0.012322,-0.001098,-0.002104,-0.000850,-0.000000,-0.000000,-0.000000
-1.320000,-0.560000,1.180042,0.080000,-0.011926,-0.001239,-0.002022,-0.000792,-0.000000,-0.000000,-0.000000
-1.240000,-0.560000,1.260040,0.080000,-0.011543,-0.001361,-0.001953,-0.000726,-0.000000,-0.000000,-0.000000
-1.160000,-0.560000,1.340037,0.080000,-0.011173,-0.001465,-0.001897,-0.000657,-0.000000,-0.000000,-0.000000
-1.080000,-0.560000,1.420035,0.080000,-0.010814,-0.001553,-0.001852,-0.000586,-0.000000,-0.000000,-0.000000
-1.000000,-0.560000,1.440868,0.080000,-0.010468,-0.001627,-0.001817,-0.000518,-0.000000,-0.000000,-0.000000
-0.920000,-0.560000,1.440312,0.080000,-0.010133,-0.001687,-0.001791,-0.000452,-0.000000,-0.000000,-0.000000
-0.840000,-0.560000,1.440035,0.080000,-0.009810,-0.001736,-0.001772,-0.000390,-0.000000,-0.000000,-0.000000
-0.760000,-0.560000,1.440035,0.080000,-0.009498,-0.001776,-0.001760,-0.000334,-0.000000,-0.000000,-0.000000
-0.680000,-0.560000,1.440312,0.080000,-0.009197,-0.001807,-0.001752,-0.000282,-0.000000,-0.000000,-0.000000
-0.600000,-0.560000,1.440868,0.080000,-0.008908,-0.001832,-0.001748,-0.000236,-0.000000,-0.000000,-0.000000
-0.520000,-0.560000,1.440312,0.080000,-0.008629,-0.001851,-0.001746,-0.000194,-0.000000,-0.000000,-0.000000
-0.440000,-0.560000,1.440035,0.080000,-0.008362,-0.001866,-0.001746,-0.000156,-0.000000,-0.000000,-0.000000
-0.360000,-0.560000,1.440035,0.080000,-0.008106,-0.001877,-0.001747,-0.000123,-0.000000,-0.000000,-0.000000
-0.280000,-0.560000,1.440312,0.080000,-0.007861,-0.001885,-0.001748,-0.000092,-0.000000,-0.000000,-0.000000
-0.200000,-0.560000,1.440868,0.080000,-0.007628,-0.001891,-0.001750,-0.000064,-0.000000,-0.000000,-0.000000
-0.120000,-0.560000,1.440312,0.080000,-0.007405,-0.001894,-0.001751,-0.000038,-0.000000,-0.000000,-0.000000
-0.040000,-0.560000,1.440035,0.080000,-0.007194,-0.001896,-0.001752,-0.000012,-0.000000,-0.000000,-0.000000
0.040000,-0.560000,1.440035,0.080000,-0.006994,-0.001896,-0.001752,0.000012,-0.000000,-0.000000,0.000000
0.120000,-0.560000,1.440312,0.080000,-0.006806,-0.001894,-0.001751,0.000038,-0.000000,-0.000000,0.000000
0.200000,-0.560000,1.440868,0.080000,-0.006628,-0.001891,-0.001750,0.000064,-0.000000,-0.000000,0.000000
0.280000,-0.560000,1.440312,0.080000,-0.006462,-0.001885,-0.001748,0.000092,-0.000000,-0.000000,0.000000
0.360000,-0.560000,1.440035,0.080000,-0.006307,-0.001877,-0.001747,0.000122,-0.000000,-0.000000,0.000000
0.440000,-0.560000,1.440035,0.080000,-0.006163,-0.001866,-0.001746,0.000156,-0.000000,-0.000000,0.000000
0.520000,-0.560000,1.440312,0.080000,-0.006030,-0.001851,-0.001746,0.000194,-0.000000,-0.000000,0.000000
0.600000,-0.560000,1.440868,0.080000,-0.005908,-0.001832,-0.001747,0.000235,-0.000000,-0.000000,0.000000
0.680000,-0.560000,1.440312,0.080000,-0.005798,-0.001807,-0.001752,0.000282,-0.000000,-0.000000,0.000000
0.760000,-0.560000,1.440035,0.080000,-0.005699,-0.001776,-0.001760,0.000334,-0.000000,-0.000000,0.000000
0.840000,-0.560000,1.440035,0.080000,-0.005611,-0.001736,-0.001772,0.000390,-0.000000,-0.000000,0.000000
0.920000,-0.560000,1.440312,0.080000,-0.005534,-0.001687,-0.001791,0.000452,-0.000000,-0.000000,0.000000
1.000000,-0.560000,1.440868,0.080000,-0.005469,-0.001627,-0.001817,0.000517,-0.000000,-0.000000,0.000000
1.080000,-0.560000,1.420035,0.080000,-0.005416,-0.001554,-0.001851,0.000586,-0.000000,-0.000000,0.000000
1.160000,-0.560000,1.340037,0.080000,-0.005374,-0.001466,-0.001896,0.000656,-0.000000,-0.000000,0.000000
1.240000,-0.560000,1.260040,0.080000,-0.005345,-0.001361,-0.001953,0.000726,-0.000000,-0.000000,0.000000
1.320000,-0.560000,1.180042,0.080000,-0.005328,-0.001240,-0.002022,0.000791,-0.000000,-0.000000,0.000000
1.400000,-0.560000,1.100045,0.080000,-0.005324,-0.001099,-0.002103,0.000849,-0.000000,-0.000000,0.000000
1.480000,-0.560000,1.020049,0.080000,-0.005333,-0.000940,-0.002198,0.000893,0.000000,-0.000000,0.000000
1.560000,-0.560000,0.940053,0.080000,-0.005357,-0.000763,-0.002304,0.000919,0.000000,-0.000000,0.000000
1.640000,-0.560000,0.860058,0.080000,-0.005395,-0.000571,-0.002418,0.000918,0.000000,-0.000000,0.000000
1.720000,-0.560000,0.780064,0.080000,-0.005449,-0.000368,-0.002534,0.000885,0.000000,-0.000000,0.000000
1.800000,-0.560000,0.700071,0.080000,-0.005519,-0.000160,-0.002647,0.000811,0.000000,-0.000000,0.000000
1.880000,-0.560000,0.620081,0.080000,-0.005606,0.000042,-0.002746,0.000691,0.000000,-0.000000,0.000000
1.960000,-0.560000,0.540093,0.080000,-0.005711,0.000228,-0.002820,0.000518,0.000000,-0.000000,0.000000
2.040000,-0.560000,0.460109,0.080000,-0.005834,0.000384,-0.002850,0.000300,0.000000,-0.000000,0.000000
2.120000,-0.560000,0.380132,0.080000,-0.005975,0.000496,-0.002825,0.000026,0.000000,-0.000000,0.000000
-2.120000,-0.480000,0.381182,0.080000,-0.016405,0.000229,-0.002558,0.000038,0.000000,-0.000000,0.000000
-2.040000,-0.480000,0.460977,0.080000,-0.015863,0.000157,-0.002624,-0.000186,0.000000,-0.000000,-0.000000
-1.960000,-0.480000,0.540833,0.080000,-0.015339,0.000046,-0.002639,-0.000369,0.000000,-0.000000,-0.000000
-1.880000,-0.480000,0.620725,0.080000,-0.014831,-0.000096,-0.002612,-0.000518,0.000000,-0.000000,-0.000000
-1.800000,-0.480000,0.700643,0.080000,-0.014339,-0.000258,-0.002556,-0.000625,0.000000,-0.000000,-0.000000
-1.720000,-0.480000,0.780577,0.080000,-0.013864,-0.000428,-0.002482,-0.000696,0.000000,-0.000000,-0.000000
-1.640000,-0.480000,0.860523,0.080000,-0.013405,-0.000601,-0.002398,-0.000734,0.000000,-0.000000,-0.000000
-1.560000,-0.480000,0.940479,0.080000,-0.012962,-0.000768,-0.002312,-0.000745,0.000000,-0.000000,-0.000000
-1.480000,-0.480000,1.020441,0.080000,-0.012533,-0.000927,-0.002227,-0.000733,0.000000,-0.000000,-0.000000
-1.400000,-0.480000,1.100409,0.080000,-0.012118,-0.001073,-0.002148,-0.000705,-0.000000,-0.000000,-0.000000
-1.320000,-0.480000,1.180381,0.080000,-0.011718,-0.001206,-0.002076,-0.000664,-0.000000,-0.000000,-0.000000
-1.240000,-0.480000,1.260357,0.080000,-0.011330,-0.001324,-0.002013,-0.000615,-0.000000,-0.000000,-0.000000
-1.160000,-0.480000,1.340336,0.080000,-0.010955,-0.001427,-0.001959,-0.000561,-0.000000,-0.000000,-0.000000
-1.080000,-0.480000,1.420317,0.080000,-0.010593,-0.001517,-0.001915,-0.000505,-0.000000,-0.000000,-0.000000
-1.000000,-0.480000,1.500300,0.080000,-0.010244,-0.001593,-0.001878,-0.000449,-0.000000,-0.000000,-0.000000
-0.920000,-0.480000,1.520296,0.080000,-0.009906,-0.001658,-0.001849,-0.000395,-0.000000,-0.000000,-0.000000
-0.840000,-0.480000,1.520033,0.080000,-0.009580,-0.001713,-0.001827,-0.000343,-0.000000,-0.000000,-0.000000
-0.760000,-0.480000,1.520033,0.080000,-0.009266,-0.001758,-0.001810,-0.000296,-0.000000,-0.000000,-0.000000
-0.680000,-0.480000,1.520296,0.080000,-0.008963,-0.001795,-0.001797,-0.000251,-0.000000,-0.000000,-0.000000
-0.600000,-0.480000,1.520822,0.080000,-0.008672,-0.001825,-0.001789,-0.000211,-0.000000,-0.000000,-0.000000
-0.520000,-0.480000,1.520296,0.080000,-0.008393,-0.001849,-0.001783,-0.000175,-0.000000,-0.000000,-0.000000
-0.440000,-0.480000,1.520033,0.080000,-0.008124,-0.001868,-0.001779,-0.000141,-0.000000,-0.000000,-0.000000
-0.360000,-0.480000,1.520033,0.080000,-0.007868,-0.001883,-0.001777,-0.000111,-0.000000,-0.000000,-0.000000
-0.280000,-0.480000,1.520296,0.080000,-0.007622,-0.001894,-0.001776,-0.000084,-0.000000,-0.000000,-0.000000
-0.200000,-0.480000,1.520822,0.080000,-0.007388,-0.001902,-0.001776,-0.000058,-0.000000,-0.000000,-0.000000
-0.120000,-0.480000,1.520296,0.080000,-0.007165,-0.001907,-0.001776,-0.000034,-0.000000,-0.000000,-0.000000
-0.040000,-0.480000,1.520033,0.080000,-0.006954,-0.001909,-0.001776,-0.000011,-0.000000,-0.000000,-0.000000
0.040000,-0.480000,1.520033,0.080000,-0.006754,-0.001909,-0.001776,0.000011,-0.000000,-0.000000,0.000000
0.120000,-0.480000,1.520296,0.080000,-0.006566,-0.001907,-0.001776,0.000034,-0.000000,-0.000000,0.000000
0.200000,-0.480000,1.520822,0.080000,-0.006388,-0.001902,-0.001776,0.000058,-0.000000,-0.000000,0.000000
0.280000,-0.480000,1.520296,0.080000,-0.006222,-0.001894,-0.001776,0.000084,-0.000000,-0.000000,0.000000
0.360000,-0.480000,1.520033,0.080000,-0.006068,-0.001883,-0.001777,0.000111,-0.000000,-0.000000,0.000000
0.440000,-0.480000,1.520033,0.080000,-0.005925,-0.001868,-0.001779,0.000141,-0.000000,-0.000000,0.000000
0.520000,-0.480000,1.520296,0.080000,-0.005793,-0.001849,-0.001783,0.000174,-0.000000,-0.000000,0.000000
0.600000,-0.480000,1.520822,0.080000,-0.005673,-0.001825,-0.001789,0.000211,-0.000000,-0.000000,0.000000
0.680000,-0.480000,1.520296,0.080000,-0.005564,-0.001795,-0.001797,0.000251,-0.000000,-0.000000,0.000000
0.760000,-0.480000,1.520033,0.080000,-0.005467,-0.001758,-0.001810,0.000295,-0.000000,-0.000000,0.000000
0.840000,-0.480000,1.520033,0.080000,-0.005381,-0.001713,-0.001827,0.000343,-0.000000,-0.000000,0.000000
0.920000,-0.480000,1.520296,0.080000,-0.005307,-0.001659,-0.001849,0.000395,-0.000000,-0.000000,0.000000
1.000000,-0.480000,1.500300,0.080000,-0.005245,-0.001594,-0.001878,0.000449,-0.000000,-0.000000,0.000000
1.080000,-0.480000,1.420317,0.080000,-0.005195,-0.001517,-0.001914,0.000504,-0.000000,-0.000000,0.000000
1.160000,-0.480000,1.340336,0.080000,-0.005157,-0.001428,-0.001959,0.000560,-0.000000,-0.000000,0.000000
1.240000,-0.480000,1.260357,0.080000,-0.005131,-0.001324,-0.002013,0.000614,-0.000000,-0.000000,0.000000
1.320000,-0.480000,1.180381,0.080000,-0.005119,-0.001206,-0.002075,0.000663,-0.000000,-0.000000,0.000000
1.400000,-0.480000,1.100409,0.080000,-0.005120,-0.001074,-0.002147,0.000704,-0.000000,-0.000000,0.000000
1.480000,-0.480000,1.020441,0.080000,-0.005134,-0.000928,-0.002226,0.000733,0.000000,-0.000000,0.000000
1.560000,-0.480000,0.940479,0.080000,-0.005163,-0.000769,-0.002311,0.000744,0.000000,-0.000000,0.000000
1.640000,-0.480000,0.860523,0.080000,-0.005207,-0.000602,-0.002397,0.000734,0.000000,-0.000000,0.000000
1.720000,-0.480000,0.780577,0.080000,-0.005266,-0.000430,-0.002481,0.000695,0.000000,-0.000000,0.000000
1.800000,-0.480000,0.700643,0.080000,-0.005341,-0.000259,-0.002555,0.000625,0.000000,-0.000000,0.000000
1.880000,-0.480000,0.620725,0.080000,-0.005432,-0.000098,-0.002610,0.000517,0.000000,-0.000000,0.000000
1.960000,-0.480000,0.540833,0.080000,-0.005540,0.000044,-0.002637,0.000368,0.000000,-0.000000,0.000000
2.040000,-0.480000,0.460977,0.080000,-0.005665,0.000156,-0.002623,0.000186,0.000000,-0.000000,0.000000
2.120000,-0.480000,0.381182,0.080000,-0.005807,0.000227,-0.002556,-0.000038,0.000000,-0.000000,-0.000000
-2.120000,-0.400000,0.383275,0.080000,-0.016236,0.000012,-0.002342,0.000070,0.000000,-0.000000,0.000000
-2.040000,-0.400000,0.462709,0.080000,-0.015694,-0.000030,-0.002438,-0.000109,0.000000,-0.000000,-0.000000
-1.960000,-0.400000,0.542310,0.080000,-0.015168,-0.000109,-0.002486,-0.000257,0.000000,-0.000000,-0.000000
-1.880000,-0.400000,0.622013,0.080000,-0.014657,-0.000217,-0.002495,-0.000381,0.000000,-0.000000,-0.000000
-1.800000,-0.400000,0.701783,0.080000,-0.014163,-0.000346,-0.002473,-0.000474,0.000000,-0.000000,-0.000000
-1.720000,-0.400000,0.781601,0.080000,-0.013684,-0.000488,-0.002430,-0.000537,0.000000,-0.000000,-0.000000
-1.640000,-0.400000,0.861452,0.080000,-0.013221,-0.000635,-0.002373,-0.000575,0.000000,-0.000000,-0.000000
-1.560000,-0.400000,0.941329,0.080000,-0.012773,-0.000782,-0.002309,-0.000591,0.000000,-0.000000,-0.000000
-1.480000,-0.400000,1.021225,0.080000,-0.012340,-0.000925,-0.002243,-0.000588,0.000000,-0.000000,-0.000000
-1.400000,-0.400000,1.101136,0.080000,-0.011921,-0.001059,-0.002177,-0.000570,-0.000000,-0.000000,-0.000000
-1.320000,-0.400000,1.181059,0.080000,-0.011517,-0.001184,-0.002115,-0.000542,-0.000000,-0.000000,-0.000000
-1.240000,-0.400000,1.260992,0.080000,-0.011125,-0.001297,-0.002058,-0.000506,-0.000000,-0.000000,-0.000000
-1.160000,-0.400000,1.340933,0.080000,-0.010747,-0.001399,-0.002008,-0.000465,-0.000000,-0.000000,-0.000000
-1.080000,-0.400000,1.420880,0.080000,-0.010382,-0.001489,-0.001965,-0.000421,-0.000000,-0.000000,-0.000000
-1.000000,-0.400000,1.500833,0.080000,-0.010030,-0.001567,-0.001928,-0.000377,-0.000000,-0.000000,-0.000000
-0.920000,-0.400000,1.580791,0.080000,-0.009689,-0.001635,-0.001897,-0.000334,-0.000000,-0.000000,-0.000000
-0.840000,-0.400000,1.600031,0.080000,-0.009361,-0.001693,-0.001872,-0.000292,-0.000000,-0.000000,-0.000000
-0.760000,-0.400000,1.600031,0.080000,-0.009045,-0.001743,-0.001852,-0.000253,-0.000000,-0.000000,-0.000000
-0.680000,-0.400000,1.600281,0.080000,-0.008741,-0.001784,-0.001836,-0.000216,-0.000000,-0.000000,-0.000000
-0.600000,-0.400000,1.600781,0.080000,-0.008449,-0.001818,-0.001824,-0.000182,-0.000000,-0.000000,-0.000000
-0.520000,-0.400000,1.600281,0.080000,-0.008168,-0.001846,-0.001815,-0.000151,-0.000000,-0.000000,-0.000000
-0.440000,-0.400000,1.600031,0.080000,-0.007899,-0.001869,-0.001809,-0.000123,-0.000000,-0.000000,-0.000000
-0.360000,-0.400000,1.600031,0.080000,-0.007641,-0.001886,-0.001804,-0.000097,-0.000000,-0.000000,-0.000000
-0.280000,-0.400000,1.600281,0.080000,-0.007395,-0.001900,-0.001801,-0.000073,-0.000000,-0.000000,-0.000000
-0.200000,-0.400000,1.600781,0.080000,-0.007161,-0.001909,-0.001799,-0.000051,-0.000000,-0.000000,-0.000000
-0.120000,-0.400000,1.600281,0.080000,-0.006938,-0.001916,-0.001798,-0.000030,-0.000000,-0.000000,-0.000000
-0.040000,-0.400000,1.600031,0.080000,-0.006726,-0.001919,-0.001797,-0.000010,-0.000000,-0.000000,-0.000000
0.040000,-0.400000,1.600031,0.080000,-0.006526,-0.001919,-0.001797,0.000010,-0.000000,-0.000000,0.000000
0.120000,-0.400000,1.600281,0.080000,-0.006338,-0.001916,-0.001798,0.000030,-0.000000,-0.000000,0.000000
0.200000,-0.400000,1.600781,0.080000,-0.006161,-0.001910,-0.001799,0.000051,-0.000000,-0.000000,0.000000
0.280000,-0.400000,1.600281,0.080000,-0.005995,-0.001900,-0.001801,0.000073,-0.000000,-0.000000,0.000000
0.360000,-0.400000,1.600031,0.080000,-0.005841,-0.001886,-0.001804,0.000097,-0.000000,-0.000000,0.000000
0.440000,-0.400000,1.600031,0.080000,-0.005699,-0.001869,-0.001809,0.000123,-0.000000,-0.000000,0.000000
0.520000,-0.400000,1.600281,0.080000,-0.005568,-0.001846,-0.001815,0.000151,-0.000000,-0.000000,0.000000
0.600000,-0.400000,1.600781,0.080000,-0.005449,-0.001818,-0.001824,0.000182,-0.000000,-0.000000,0.000000
0.680000,-0.400000,1.600281,0.080000,-0.005342,-0.001784,-0.001836,0.000216,-0.000000,-0.000000,0.000000
0.760000,-0.400000,1.600031,0.080000,-0.005246,-0.001743,-0.001852,0.000252,-0.000000,-0.000000,0.000000
0.840000,-0.400000,1.600031,0.080000,-0.005162,-0.001694,-0.001872,0.000292,-0.000000,-0.000000,0.000000
0.920000,-0.400000,1.580791,0.080000,-0.005090,-0.001636,-0.001897,0.000333,-0.000000,-0.000000,0.000000
1.000000,-0.400000,1.500833,0.080000,-0.005031,-0.001568,-0.001927,0.000377,-0.000000,-0.000000,0.000000
1.080000,-0.400000,1.420880,0.080000,-0.004983,-0.001489,-0.001964,0.000421,-0.000000,-0.000000,0.000000
1.160000,-0.400000,1.340933,0.080000,-0.004949,-0.001399,-0.002008,0.000464,-0.000000,-0.000000,0.000000
1.240000,-0.400000,1.260992,0.080000,-0.004927,-0.001298,-0.002058,0.000505,-0.000000,-0.000000,0.000000
1.320000,-0.400000,1.181059,0.080000,-0.004918,-0.001184,-0.002114,0.000541,-0.000000,-0.000000,0.000000
1.400000,-0.400000,1.101136,0.080000,-0.004923,-0.001060,-0.002176,0.000570,-0.000000,-0.000000,0.000000
1.480000,-0.400000,1.021225,0.080000,-0.004942,-0.000925,-0.002242,0.000587,0.000000,-0.000000,0.000000
1.560000,-0.400000,0.941329,0.080000,-0.004975,-0.000783,-0.002308,0.000590,0.000000,-0.000000,0.000000
1.640000,-0.400000,0.861452,0.080000,-0.005023,-0.000636,-0.002372,0.000575,0.000000,-0.000000,0.000000
1.720000,-0.400000,0.781601,0.080000,-0.005086,-0.000489,-0.002429,0.000537,0.000000,-0.000000,0.000000
1.800000,-0.400000,0.701783,0.080000,-0.005164,-0.000347,-0.002472,0.000473,0.000000,-0.000000,0.000000
1.880000,-0.400000,0.622013,0.080000,-0.005259,-0.000218,-0.002493,0.000381,0.000000,-0.000000,0.000000
1.960000,-0.400000,0.542310,0.080000,-0.005369,-0.000110,-0.002484,0.000257,0.000000,-0.000000,0.000000
2.040000,-0.400000,0.462709,0.080000,-0.005496,-0.000032,-0.002436,0.000109,0.000000,-0.000000,0.000000
2.120000,-0.400000,0.383275,0.080000,-0.005638,0.000010,-0.002340,-0.000070,0.000000,-0.000000,-0.000000
-2.120000,-0.320000,0.381182,0.080000,-0.016067,-0.000159,-0.002173,0.000079,0.000000,-0.000000,0.000000
-2.040000,-0.320000,0.460977,0.080000,-0.015525,-0.000179,-0.002290,-0.000059,0.000000,-0.000000,-0.000000
-1.960000,-0.320000,0.540833,0.080000,-0.014997,-0.000233,-0.002363,-0.000175,0.000000,-0.000000,-0.000000
-1.880000,-0.320000,0.620725,0.080000,-0.014485,-0.000316,-0.002398,-0.000274,0.000000,-0.000000,-0.000000
-1.800000,-0.320000,0.700643,0.080000,-0.013988,-0.000421,-0.002402,-0.000349,0.000000,-0.000000,-0.000000
-1.720000,-0.320000,0.780577,0.080000,-0.013507,-0.000540,-0.002383,-0.000403,0.000000,-0.000000,-0.000000
-1.640000,-0.320000,0.860523,0.080000,-0.013041,-0.000668,-0.002348,-0.000436,0.000000,-0.000000,-0.000000
-1.560000,-0.320000,0.940479,0.080000,-0.012590,-0.000798,-0.002302,-0.000453,0.000000,-0.000000,-0.000000
-1.480000,-0.320000,1.020441,0.080000,-0.012153,-0.000928,-0.002250,-0.000455,0.000000,-0.000000,-0.000000
-1.400000,-0.320000,1.100409,0.080000,-0.011731,-0.001052,-0.002196,-0.000444,-0.000000,-0.000000,-0.000000
-1.320000,-0.320000,1.180381,0.080000,-0.011323,-0.001170,-0.002143,-0.000425,-0.000000,-0.000000,-0.000000
-1.240000,-0.320000,1.260357,0.080000,-0.010929,-0.001279,-0.002092,-0.000400,-0.000000,-0.000000,-0.000000
-1.160000,-0.320000,1.340336,0.080000,-0.010548,-0.001379,-0.002045,-0.000369,-0.000000,-0.000000,-0.000000
-1.080000,-0.320000,1.420317,0.080000,-0.010180,-0.001468,-0.002003,-0.000337,-0.000000,-0.000000,-0.000000
-1.000000,-0.320000,1.500300,0.080000,-0.009826,-0.001548,-0.001967,-0.000303,-0.000000,-0.000000,-0.000000
-0.920000,-0.320000,1.580285,0.080000,-0.009483,-0.001618,-0.001935,-0.000270,-0.000000,-0.000000,-0.000000
-0.840000,-0.320000,1.660271,0.080000,-0.009153,-0.001678,-0.001908,-0.000237,-0.000000,-0.000000,-0.000000
-0.760000,-0.320000,1.680030,0.080000,-0.008836,-0.001730,-0.001886,-0.000206,-0.000000,-0.000000,-0.000000
-0.680000,-0.320000,1.680268,0.080000,-0.008530,-0.001775,-0.001868,-0.000177,-0.000000,-0.000000,-0.000000
-0.600000,-0.320000,1.680744,0.080000,-0.008236,-0.001812,-0.001853,-0.000150,-0.000000,-0.000000,-0.000000
-0.520000,-0.320000,1.680268,0.080000,-0.007955,-0.001843,-0.001842,-0.000125,-0.000000,-0.000000,-0.000000
-0.440000,-0.320000,1.680030,0.080000,-0.007685,-0.001868,-0.001833,-0.000102,-0.000000,-0.000000,-0.000000
-0.360000,-0.320000,1.680030,0.080000,-0.007427,-0.001888,-0.001827,-0.000081,-0.000000,-0.000000,-0.000000
-0.280000,-0.320000,1.680268,0.080000,-0.007180,-0.001904,-0.001822,-0.000061,-0.000000,-0.000000,-0.000000
-0.200000,-0.320000,1.680744,0.080000,-0.006945,-0.001915,-0.001818,-0.000043,-0.000000,-0.000000,-0.000000
-0.120000,-0.320000,1.680268,0.080000,-0.006722,-0.001922,-0.001816,-0.000025,-0.000000,-0.000000,-0.000000
-0.040000,-0.320000,1.680030,0.080000,-0.006510,-0.001926,-0.001815,-0.000008,-0.000000,-0.000000,-0.000000
0.040000,-0.320000,1.680030,0.080000,-0.006310,-0.001926,-0.001815,0.000008,-0.000000,-0.000000,0.000000
0.120000,-0.320000,1.680268,0.080000,-0.006122,-0.001922,-0.001816,0.000025,-0.000000,-0.000000,0.000000
0.200000,-0.320000,1.680744,0.080000,-0.005945,-0.001915,-0.001818,0.000043,-0.000000,-0.000000,0.000000
0.280000,-0.320000,1.680268,0.080000,-0.005780,-0.001904,-0.001822,0.000061,-0.000000,-0.000000,0.000000
0.360000,-0.320000,1.680030,0.080000,-0.005627,-0.001888,-0.001827,0.000080,-0.000000,-0.000000,0.000000
0.440000,-0.320000,1.680030,0.080000,-0.005485,-0.001868,-0.001833,0.000102,-0.000000,-0.000000,0.000000
0.520000,-0.320000,1.680268,0.080000,-0.005355,-0.001843,-0.001842,0.000125,-0.000000,-0.000000,0.000000
0.600000,-0.320000,1.680744,0.080000,-0.005237,-0.001812,-0.001853,0.000150,-0.000000,-0.000000,0.000000
0.680000,-0.320000,1.680268,0.080000,-0.005131,-0.001775,-0.001868,0.000177,-0.000000,-0.000000,0.000000
0.760000,-0.320000,1.680030,0.080000,-0.005036,-0.001731,-0.001886,0.000206,-0.000000,-0.000000,0.000000
0.840000,-0.320000,1.660271,0.080000,-0.004954,-0.001678,-0.001908,0.000237,-0.000000,-0.000000,0.000000
0.920000,-0.320000,1.580285,0.080000,-0.004884,-0.001618,-0.001935,0.000269,-0.000000,-0.000000,0.000000
1.000000,-0.320000,1.500300,0.080000,-0.004827,-0.001548,-0.001966,0.000303,-0.000000,-0.000000,0.000000
1.080000,-0.320000,1.420317,0.080000,-0.004782,-0.001469,-0.002003,0.000337,-0.000000,-0.000000,0.000000
1.160000,-0.320000,1.340336,0.080000,-0.004749,-0.001379,-0.002045,0.000369,-0.000000,-0.000000,0.000000
1.240000,-0.320000,1.260357,0.080000,-0.004730,-0.001280,-0.002091,0.000399,-0.000000,-0.000000,0.000000
1.320000,-0.320000,1.180381,0.080000,-0.004724,-0.001171,-0.002142,0.000425,-0.000000,-0.000000,0.000000
1.400000,-0.320000,1.100409,0.080000,-0.004732,-0.001053,-0.002195,0.000444,-0.000000,-0.000000,0.000000
1.480000,-0.320000,1.020441,0.080000,-0.004755,-0.000929,-0.002249,0.000454,0.000000,-0.000000,0.000000
1.560000,-0.320000,0.940479,0.080000,-0.004791,-0.000799,-0.002301,0.000452,0.000000,-0.000000,0.000000
1.640000,-0.320000,0.860523,0.080000,-0.004842,-0.000669,-0.002347,0.000436,0.000000,-0.000000,0.000000
1.720000,-0.320000,0.780577,0.080000,-0.004909,-0.000542,-0.002382,0.000402,0.000000,-0.000000,0.000000
1.800000,-0.320000,0.700643,0.080000,-0.004990,-0.000422,-0.002401,0.000349,0.000000,-0.000000,0.000000
1.880000,-0.320000,0.620725,0.080000,-0.005087,-0.000318,-0.002397,0.000274,0.000000,-0.000000,0.000000
1.960000,-0.320000,0.540833,0.080000,-0.005199,-0.000235,-0.002361,0.000175,0.000000,-0.000000,0.000000
2.040000,-0.320000,0.460977,0.080000,-0.005326,-0.000181,-0.002289,0.000059,0.000000,-0.000000,0.000000
2.120000,-0.320000,0.381182,0.080000,-0.005468,-0.000160,-0.002171,-0.000079,0.000000,-0.000000,-0.000000
-2.120000,-0.240000,0.380132,0.080000,-0.015898,-0.000287,-0.002046,0.000072,0.000000,-0.000000,0.000000
-2.040000,-0.240000,0.460109,0.080000,-0.015357,-0.000292,-0.002178,-0.000029,0.000000,-0.000000,-0.000000
-1.960000,-0.240000,0.540093,0.080000,-0.014829,-0.000329,-0.002268,-0.000115,0.000000,-0.000000,-0.000000
-1.880000,-0.240000,0.620081,0.080000,-0.014315,-0.000394,-0.002323,-0.000188,0.000000,-0.000000,-0.000000
-1.800000,-0.240000,0.700071,0.080000,-0.013817,-0.000481,-0.002345,-0.000245,0.000000,-0.000000,-0.000000
-1.720000,-0.240000,0.780064,0.080000,-0.013333,-0.000584,-0.002344,-0.000286,0.000000,-0.000000,-0.000000
-1.640000,-0.240000,0.860058,0.080000,-0.012865,-0.000696,-0.002325,-0.000314,0.000000,-0.000000,-0.000000
-1.560000,-0.240000,0.940053,0.080000,-0.012411,-0.000814,-0.002293,-0.000328,0.000000,-0.000000,-0.000000
-1.480000,-0.240000,1.020049,0.080000,-0.011972,-0.000933,-0.002253,-0.000332,0.000000,-0.000000,-0.000000
-1.400000,-0.240000,1.100045,0.080000,-0.011548,-0.001050,-0.002208,-0.000326,-0.000000,-0.000000,-0.000000
-1.320000,-0.240000,1.180042,0.080000,-0.011137,-0.001162,-0.002162,-0.000314,-0.000000,-0.000000,-0.000000
-1.240000,-0.240000,1.260040,0.080000,-0.010741,-0.001267,-0.002116,-0.000297,-0.000000,-0.000000,-0.000000
-1.160000,-0.240000,1.340037,0.080000,-0.010358,-0.001364,-0.002072,-0.000276,-0.000000,-0.000000,-0.000000
-1.080000,-0.240000,1.420035,0.080000,-0.009988,-0.001453,-0.002032,-0.000252,-0.000000,-0.000000,-0.000000
-1.000000,-0.240000,1.500033,0.080000,-0.009631,-0.001533,-0.001996,-0.000228,-0.000000,-0.000000,-0.000000
-0.920000,-0.240000,1.580032,0.080000,-0.009287,-0.001604,-0.001964,-0.000204,-0.000000,-0.000000,-0.000000
-0.840000,-0.240000,1.660030,0.080000,-0.008956,-0.001667,-0.001936,-0.000180,-0.000000,-0.000000,-0.000000
-0.760000,-0.240000,1.740029,0.080000,-0.008637,-0.001721,-0.001912,-0.000157,-0.000000,-0.000000,-0.000000
-0.680000,-0.240000,1.760256,0.080000,-0.008331,-0.001768,-0.001892,-0.000135,-0.000000,-0.000000,-0.000000
-0.600000,-0.240000,1.760710,0.080000,-0.008036,-0.001807,-0.001876,-0.000114,-0.000000,-0.000000,-0.000000
-0.520000,-0.240000,1.760256,0.080000,-0.007754,-0.001841,-0.001863,-0.000096,-0.000000,-0.000000,-0.000000
-0.440000,-0.240000,1.760028,0.080000,-0.007483,-0.001868,-0.001853,-0.000078,-0.000000,-0.000000,-0.000000
-0.360000,-0.240000,1.760028,0.080000,-0.007224,-0.001890,-0.001845,-0.000062,-0.000000,-0.000000,-0.000000
-0.280000,-0.240000,1.760256,0.080000,-0.006977,-0.001907,-0.001839,-0.000047,-0.000000,-0.000000,-0.000000
-0.200000,-0.240000,1.760710,0.080000,-0.006742,-0.001919,-0.001834,-0.000033,-0.000000,-0.000000,-0.000000
-0.120000,-0.240000,1.760256,0.080000,-0.006519,-0.001927,-0.001832,-0.000019,-0.000000,-0.000000,-0.000000
-0.040000,-0.240000,1.760028,0.080000,-0.006307,-0.001931,-0.001830,-0.000006,-0.000000,-0.000000,-0.000000
0.040000,-0.240000,1.760028,0.080000,-0.006107,-0.001931,-0.001830,0.000006,-0.000000,-0.000000,0.000000
0.120000,-0.240000,1.760256,0.080000,-0.005919,-0.001927,-0.001832,0.000019,-0.000000,-0.000000,0.000000
0.200000,-0.240000,1.760710,0.080000,-0.005742,-0.001919,-0.001834,0.000033,-0.000000,-0.000000,0.000000
0.280000,-0.240000,1.760256,0.080000,-0.005578,-0.001907,-0.001838,0.000047,-0.000000,-0.000000,0.000000
0.360000,-0.240000,1.760028,0.080000,-0.005425,-0.001890,-0.001844,0.000062,-0.000000,-0.000000,0.000000
0.440000,-0.240000,1.760028,0.080000,-0.005283,-0.001868,-0.001853,0.000078,-0.000000,-0.000000,0.000000
0.520000,-0.240000,1.760256,0.080000,-0.005154,-0.001841,-0.001863,0.000096,-0.000000,-0.000000,0.000000
0.600000,-0.240000,1.760710,0.080000,-0.005037,-0.001808,-0.001876,0.000114,-0.000000,-0.000000,0.000000
0.680000,-0.240000,1.760256,0.080000,-0.004931,-0.001768,-0.001892,0.000135,-0.000000,-0.000000,0.000000
0.760000,-0.240000,1.740029,0.080000,-0.004838,-0.001721,-0.001912,0.000156,-0.000000,-0.000000,0.000000
0.840000,-0.240000,1.660030,0.080000,-0.004757,-0.001667,-0.001936,0.000179,-0.000000,-0.000000,0.000000
0.920000,-0.240000,1.580032,0.080000,-0.004688,-0.001605,-0.001963,0.000203,-0.000000,-0.000000,0.000000
1.000000,-0.240000,1.500033,0.080000,-0.004632,-0.001534,-0.001995,0.000228,-0.000000,-0.000000,0.000000
1.080000,-0.240000,1.420035,0.080000,-0.004589,-0.001454,-0.002031,0.000252,-0.000000,-0.000000,0.000000
1.160000,-0.240000,1.340037,0.080000,-0.004559,-0.001365,-0.002072,0.000275,-0.000000,-0.000000,0.000000
1.240000,-0.240000,1.260040,0.080000,-0.004542,-0.001268,-0.002115,0.000296,-0.000000,-0.000000,0.000000
1.320000,-0.240000,1.180042,0.080000,-0.004539,-0.001162,-0.002161,0.000314,-0.000000,-0.000000,0.000000
1.400000,-0.240000,1.100045,0.080000,-0.004549,-0.001051,-0.002207,0.000326,-0.000000,-0.000000,0.000000
1.480000,-0.240000,1.020049,0.080000,-0.004574,-0.000934,-0.002252,0.000331,0.000000,-0.000000,0.000000
1.560000,-0.240000,0.940053,0.080000,-0.004613,-0.000815,-0.002292,0.000328,0.000000,-0.000000,0.000000
1.640000,-0.240000,0.860058,0.080000,-0.004666,-0.000697,-0.002324,0.000313,0.000000,-0.000000,0.000000
1.720000,-0.240000,0.780064,0.080000,-0.004735,-0.000585,-0.002343,0.000286,0.000000,-0.000000,0.000000
1.800000,-0.240000,0.700071,0.080000,-0.004818,-0.000482,-0.002344,0.000245,0.000000,-0.000000,0.000000
1.880000,-0.240000,0.620081,0.080000,-0.004917,-0.000396,-0.002321,0.000188,0.000000,-0.000000,0.000000
1.960000,-0.240000,0.540093,0.080000,-0.005030,-0.000331,-0.002267,0.000115,0.000000,-0.000000,0.000000
2.040000,-0.240000,0.460109,0.080000,-0.005158,-0.000294,-0.002177,0.000029,0.000000,-0.000000,0.000000
2.120000,-0.240000,0.380132,0.080000,-0.005300,-0.000288,-0.002044,-0.000072,0.000000,-0.000000,-0.000000
-2.120000,-0.160000,0.380132,0.080000,-0.015732,-0.000376,-0.001958,0.000054,0.000000,-0.000000,0.000000
-2.040000,-0.160000,0.460109,0.080000,-0.015190,-0.000372,-0.002100,-0.000012,0.000000,-0.000000,-0.000000
-1.960000,-0.160000,0.540093,0.080000,-0.014662,-0.000397,-0.002201,-0.000069,0.000000,-0.000000,-0.000000
-1.880000,-0.160000,0.620081,0.080000,-0.014148,-0.000450,-0.002269,-0.000118,0.000000,-0.000000,-0.000000
-1.800000,-0.160000,0.700071,0.080000,-0.013648,-0.000525,-0.002304,-0.000156,0.000000,-0.000000,-0.000000
-1.720000,-0.160000,0.780064,0.080000,-0.013163,-0.000616,-0.002315,-0.000184,0.000000,-0.000000,-0.000000
-1.640000,-0.160000,0.860058,0.080000,-0.012693,-0.000718,-0.002307,-0.000203,0.000000,-0.000000,-0.000000
-1.560000,-0.160000,0.940053,0.080000,-0.012238,-0.000827,-0.002285,-0.000213,0.000000,-0.000000,-0.000000
-1.480000,-0.160000,1.020049,0.080000,-0.011797,-0.000939,-0.002253,-0.000217,0.000000,-0.000000,-0.000000
-1.400000,-0.160000,1.100045,0.080000,-0.011371,-0.001049,-0.002215,-0.000214,-0.000000,-0.000000,-0.000000
-1.320000,-0.160000,1.180042,0.080000,-0.010959,-0.001157,-0.002174,-0.000207,-0.000000,-0.000000,-0.000000
-1.240000,-0.160000,1.260040,0.080000,-0.010561,-0.001260,-0.002132,-0.000196,-0.000000,-0.000000,-0.000000
-1.160000,-0.160000,1.340037,0.080000,-0.010176,-0.001355,-0.002090,-0.000183,-0.000000,-0.000000,-0.000000
-1.080000,-0.160000,1.420035,0.080000,-0.009805,-0.001443,-0.002052,-0.000168,-0.000000,-0.000000,-0.000000
-1.000000,-0.160000,1.500033,0.080000,-0.009447,-0.001523,-0.002016,-0.000152,-0.000000,-0.000000,-0.000000
-0.920000,-0.160000,1.580032,0.080000,-0.009102,-0.001595,-0.001984,-0.000136,-0.000000,-0.000000,-0.000000
-0.840000,-0.160000,1.660030,0.080000,-0.008770,-0.001659,-0.001955,-0.000121,-0.000000,-0.000000,-0.000000
-0.760000,-0.160000,1.740029,0.080000,-0.008450,-0.001715,-0.001931,-0.000105,-0.000000,-0.000000,-0.000000
-0.680000,-0.160000,1.820027,0.080000,-0.008142,-0.001763,-0.001910,-0.000091,-0.000000,-0.000000,-0.000000
-0.600000,-0.160000,1.840679,0.080000,-0.007847,-0.001804,-0.001893,-0.000077,-0.000000,-0.000000,-0.000000
-0.520000,-0.160000,1.840245,0.080000,-0.007564,-0.001839,-0.001878,-0.000065,-0.000000,-0.000000,-0.000000
-0.440000,-0.160000,1.840027,0.080000,-0.007293,-0.001867,-0.001867,-0.000053,-0.000000,-0.000000,-0.000000
-0.360000,-0.160000,1.840027,0.080000,-0.007034,-0.001890,-0.001858,-0.000042,-0.000000,-0.000000,-0.000000
-0.280000,-0.160000,1.840245,0.080000,-0.006787,-0.001908,-0.001851,-0.000032,-0.000000,-0.000000,-0.000000
-0.200000,-0.160000,1.840679,0.080000,-0.006551,-0.001921,-0.001846,-0.000022,-0.000000,-0.000000,-0.000000
-0.120000,-0.160000,1.840245,0.080000,-0.006328,-0.001930,-0.001843,-0.000013,-0.000000,-0.000000,-0.000000
-0.040000,-0.160000,1.840027,0.080000,-0.006116,-0.001934,-0.001841,-0.000004,-0.000000,-0.000000,-0.000000
0.040000,-0.160000,1.840027,0.080000,-0.005916,-0.001934,-0.001841,0.000004,-0.000000,-0.000000,0.000000
0.120000,-0.160000,1.840245,0.080000,-0.005728,-0.001930,-0.001843,0.000013,-0.000000,-0.000000,0.000000
0.200000,-0.160000,1.840679,0.080000,-0.005552,-0.001921,-0.001846,0.000022,-0.000000,-0.000000,0.000000
0.280000,-0.160000,1.840245,0.080000,-0.005387,-0.001908,-0.001851,0.000032,-0.000000,-0.000000,0.000000
0.360000,-0.160000,1.840027,0.080000,-0.005234,-0.001890,-0.001858,0.000042,-0.000000,-0.000000,0.000000
0.440000,-0.160000,1.840027,0.080000,-0.005094,-0.001867,-0.001867,0.000053,-0.000000,-0.000000,0.000000
0.520000,-0.160000,1.840245,0.080000,-0.004965,-0.001839,-0.001878,0.000065,-0.000000,-0.000000,0.000000
0.600000,-0.160000,1.840679,0.080000,-0.004848,-0.001804,-0.001892,0.000077,-0.000000,-0.000000,0.000000
0.680000,-0.160000,1.820027,0.080000,-0.004743,-0.001763,-0.001910,0.000091,-0.000000,-0.000000,0.000000
0.760000,-0.160000,1.740029,0.080000,-0.004651,-0.001715,-0.001931,0.000105,-0.000000,-0.000000,0.000000
0.840000,-0.160000,1.660030,0.080000,-0.004571,-0.001659,-0.001955,0.000120,-0.000000,-0.000000,0.000000
0.920000,-0.160000,1.580032,0.080000,-0.004503,-0.001596,-0.001983,0.000136,-0.000000,-0.000000,0.000000
1.000000,-0.160000,1.500033,0.080000,-0.004448,-0.001524,-0.002015,0.000152,-0.000000,-0.000000,0.000000
1.080000,-0.160000,1.420035,0.080000,-0.004406,-0.001444,-0.002051,0.000168,-0.000000,-0.000000,0.000000
1.160000,-0.160000,1.340037,0.080000,-0.004377,-0.001356,-0.002090,0.000183,-0.000000,-0.000000,0.000000
1.240000,-0.160000,1.260040,0.080000,-0.004362,-0.001260,-0.002131,0.000196,-0.000000,-0.000000,0.000000
1.320000,-0.160000,1.180042,0.080000,-0.004360,-0.001158,-0.002173,0.000207,-0.000000,-0.000000,0.000000
1.400000,-0.160000,1.100045,0.080000,-0.004372,-0.001050,-0.002214,0.000214,-0.000000,-0.000000,0.000000
1.480000,-0.160000,1.020049,0.080000,-0.004399,-0.000939,-0.002252,0.000217,0.000000,-0.000000,0.000000
1.560000,-0.160000,0.940053,0.080000,-0.004439,-0.000828,-0.002284,0.000213,0.000000,-0.000000,0.000000
1.640000,-0.160000,0.860058,0.080000,-0.004495,-0.000719,-0.002306,0.000203,0.000000,-0.000000,0.000000
1.720000,-0.160000,0.780064,0.080000,-0.004565,-0.000617,-0.002314,0.000184,0.000000,-0.000000,0.000000
1.800000,-0.160000,0.700071,0.080000,-0.004650,-0.000526,-0.002303,0.000155,0.000000,-0.000000,0.000000
1.880000,-0.160000,0.620081,0.080000,-0.004749,-0.000451,-0.002267,0.000117,0.000000,-0.000000,0.000000
1.960000,-0.160000,0.540093,0.080000,-0.004864,-0.000399,-0.002200,0.000069,0.000000,-0.000000,0.000000
2.040000,-0.160000,0.460109,0.080000,-0.004992,-0.000373,-0.002098,0.000012,0.000000,-0.000000,0.000000
2.120000,-0.160000,0.380132,0.080000,-0.005134,-0.000378,-0.001956,-0.000054,0.000000,-0.000000,-0.000000
-2.120000,-0.080000,0.381182,0.080000,-0.015568,-0.000429,-0.001906,0.000029,0.000000,-0.000000,0.000000
-2.040000,-0.080000,0.460977,0.080000,-0.015026,-0.000419,-0.002053,-0.000004,0.000000,-0.000000,-0.000000
-1.960000,-0.080000,0.540833,0.080000,-0.014498,-0.000438,-0.002161,-0.000032,0.000000,-0.000000,-0.000000
-1.880000,-0.080000,0.620725,0.080000,-0.013983,-0.000483,-0.002236,-0.000056,0.000000,-0.000000,-0.000000
-1.800000,-0.080000,0.700643,0.080000,-0.013483,-0.000551,-0.002279,-0.000076,0.000000,-0.000000,-0.000000
-1.720000,-0.080000,0.780577,0.080000,-0.012997,-0.000635,-0.002298,-0.000090,0.000000,-0.000000,-0.000000
-1.640000,-0.080000,0.860523,0.080000,-0.012526,-0.000732,-0.002296,-0.000100,0.000000,-0.000000,-0.000000
-1.560000,-0.080000,0.940479,0.080000,-0.012070,-0.000835,-0.002280,-0.000105,0.000000,-0.000000,-0.000000
-1.480000,-0.080000,1.020441,0.080000,-0.011628,-0.000942,-0.002253,-0.000107,0.000000,-0.000000,-0.000000
-1.400000,-0.080000,1.100409,0.080000,-0.011201,-0.001050,-0.002219,-0.000106,-0.000000,-0.000000,-0.000000
-1.320000,-0.080000,1.180381,0.080000,-0.010788,-0.001155,-0.002180,-0.000103,-0.000000,-0.000000,-0.000000
-1.240000,-0.080000,1.260357,0.080000,-0.010389,-0.001256,-0.002141,-0.000098,-0.000000,-0.000000,-0.000000
-1.160000,-0.080000,1.340336,0.080000,-0.010003,-0.001350,-0.002101,-0.000091,-0.000000,-0.000000,-0.000000
-1.080000,-0.080000,1.420317,0.080000,-0.009631,-0.001438,-0.002063,-0.000084,-0.000000,-0.000000,-0.000000
-1.000000,-0.080000,1.500300,0.080000,-0.009273,-0.001518,-0.002028,-0.000076,-0.000000,-0.000000,-0.000000
-0.920000,-0.080000,1.580285,0.080000,-0.008927,-0.001590,-0.001996,-0.000068,-0.000000,-0.000000,-0.000000
-0.840000,-0.080000,1.660271,0.080000,-0.008594,-0.001654,-0.001967,-0.000061,-0.000000,-0.000000,-0.000000
-0.760000,-0.080000,1.740259,0.080000,-0.008273,-0.001711,-0.001942,-0.000053,-0.000000,-0.000000,-0.000000
-0.680000,-0.080000,1.820247,0.080000,-0.007966,-0.001760,-0.001921,-0.000046,-0.000000,-0.000000,-0.000000
-0.600000,-0.080000,1.900237,0.080000,-0.007670,-0.001802,-0.001902,-0.000039,-0.000000,-0.000000,-0.000000
-0.520000,-0.080000,1.920234,0.080000,-0.007386,-0.001837,-0.001887,-0.000033,-0.000000,-0.000000,-0.000000
-0.440000,-0.080000,1.920026,0.080000,-0.007115,-0.001867,-0.001875,-0.000027,-0.000000,-0.000000,-0.000000
-0.360000,-0.080000,1.920026,0.080000,-0.006856,-0.001891,-0.001866,-0.000021,-0.000000,-0.000000,-0.000000
-0.280000,-0.080000,1.920234,0.080000,-0.006608,-0.001909,-0.001858,-0.000016,-0.000000,-0.000000,-0.000000
-0.200000,-0.080000,1.920651,0.080000,-0.006373,-0.001923,-0.001853,-0.000011,-0.000000,-0.000000,-0.000000
-0.120000,-0.080000,1.920234,0.080000,-0.006149,-0.001932,-0.001849,-0.000007,-0.000000,-0.000000,-0.000000
-0.040000,-0.080000,1.920026,0.080000,-0.005938,-0.001936,-0.001848,-0.000002,-0.000000,-0.000000,-0.000000
0.040000,-0.080000,1.920026,0.080000,-0.005738,-0.001936,-0.001848,0.000002,-0.000000,-0.000000,0.000000
0.120000,-0.080000,1.920234,0.080000,-0.005549,-0.001932,-0.001849,0.000007,-0.000000,-0.000000,0.000000
0.200000,-0.080000,1.920651,0.080000,-0.005373,-0.001923,-0.001853,0.000011,-0.000000,-0.000000,0.000000
0.280000,-0.080000,1.920234,0.080000,-0.005209,-0.001909,-0.001858,0.000016,-0.000000,-0.000000,0.000000
0.360000,-0.080000,1.920026,0.080000,-0.005056,-0.001891,-0.001865,0.000021,-0.000000,-0.000000,0.000000
0.440000,-0.080000,1.920026,0.080000,-0.004916,-0.001867,-0.001875,0.000027,-0.000000,-0.000000,0.000000
0.520000,-0.080000,1.920234,0.080000,-0.004787,-0.001837,-0.001887,0.000033,-0.000000,-0.000000,0.000000
0.600000,-0.080000,1.900237,0.080000,-0.004671,-0.001802,-0.001902,0.000039,-0.000000,-0.000000,0.000000
0.680000,-0.080000,1.820247,0.080000,-0.004566,-0.001760,-0.001920,0.000046,-0.000000,-0.000000,0.000000
0.760000,-0.080000,1.740259,0.080000,-0.004474,-0.001711,-0.001942,0.000053,-0.000000,-0.000000,0.000000
0.840000,-0.080000,1.660271,0.080000,-0.004395,-0.001654,-0.001967,0.000061,-0.000000,-0.000000,0.000000
0.920000,-0.080000,1.580285,0.080000,-0.004328,-0.001590,-0.001995,0.000068,-0.000000,-0.000000,0.000000
1.000000,-0.080000,1.500300,0.080000,-0.004274,-0.001518,-0.002027,0.000076,-0.000000,-0.000000,0.000000
1.080000,-0.080000,1.420317,0.080000,-0.004232,-0.001438,-0.002063,0.000084,-0.000000,-0.000000,0.000000
1.160000,-0.080000,1.340336,0.080000,-0.004204,-0.001351,-0.002100,0.000091,-0.000000,-0.000000,0.000000
1.240000,-0.080000,1.260357,0.080000,-0.004190,-0.001256,-0.002140,0.000098,-0.000000,-0.000000,0.000000
1.320000,-0.080000,1.180381,0.080000,-0.004189,-0.001156,-0.002180,0.000103,-0.000000,-0.000000,0.000000
1.400000,-0.080000,1.100409,0.080000,-0.004202,-0.001051,-0.002218,0.000106,-0.000000,-0.000000,0.000000
1.480000,-0.080000,1.020441,0.080000,-0.004229,-0.000943,-0.002252,0.000107,0.000000,-0.000000,0.000000
1.560000,-0.080000,0.940479,0.080000,-0.004271,-0.000836,-0.002279,0.000105,0.000000,-0.000000,0.000000
1.640000,-0.080000,0.860523,0.080000,-0.004328,-0.000733,-0.002295,0.000099,0.000000,-0.000000,0.000000
1.720000,-0.080000,0.780577,0.080000,-0.004399,-0.000637,-0.002297,0.000090,0.000000,-0.000000,0.000000
1.800000,-0.080000,0.700643,0.080000,-0.004484,-0.000552,-0.002278,0.000075,0.000000,-0.000000,0.000000
1.880000,-0.080000,0.620725,0.080000,-0.004585,-0.000485,-0.002235,0.000056,0.000000,-0.000000,0.000000
1.960000,-0.080000,0.540833,0.080000,-0.004699,-0.000439,-0.002160,0.000032,0.000000,-0.000000,0.000000
2.040000,-0.080000,0.460977,0.080000,-0.004828,-0.000420,-0.002052,0.000004,0.000000,-0.000000,0.000000
2.120000,-0.080000,0.381182,0.080000,-0.004969,-0.000430,-0.001904,-0.000029,0.000000,-0.000000,-0.000000
-2.120000,0.000000,0.383275,0.080000,-0.015407,-0.000446,-0.001888,0.000000,0.000000,-0.000000,0.000000
-2.040000,0.000000,0.462709,0.080000,-0.014865,-0.000434,-0.002038,0.000000,0.000000,-0.000000,0.000000
-1.960000,0.000000,0.542310,0.080000,-0.014336,-0.000451,-0.002148,-0.000000,0.000000,-0.000000,-0.000000
-1.880000,0.000000,0.622013,0.080000,-0.013822,-0.000495,-0.002226,-0.000000,0.000000,-0.000000,-0.000000
-1.800000,0.000000,0.701783,0.080000,-0.013321,-0.000560,-0.002271,-0.000000,0.000000,-0.000000,-0.000000
-1.720000,0.000000,0.781601,0.080000,-0.012835,-0.000642,-0.002292,-0.000000,0.000000,-0.000000,-0.000000
-1.640000,0.000000,0.861452,0.080000,-0.012364,-0.000736,-0.002292,-0.000000,0.000000,-0.000000,-0.000000
-1.560000,0.000000,0.941329,0.080000,-0.011907,-0.000838,-0.002278,-0.000000,0.000000,-0.000000,-0.000000
-1.480000,0.000000,1.021225,0.080000,-0.011465,-0.000944,-0.002253,-0.000000,0.000000,-0.000000,-0.000000
-1.400000,0.000000,1.101136,0.080000,-0.011037,-0.001050,-0.002220,-0.000000,-0.000000,-0.000000,-0.000000
-1.320000,0.000000,1.181059,0.080000,-0.010624,-0.001154,-0.002183,-0.000000,-0.000000,-0.000000,-0.000000
-1.240000,0.000000,1.260992,0.080000,-0.010225,-0.001254,-0.002143,-0.000000,-0.000000,-0.000000,-0.000000
-1.160000,0.000000,1.340933,0.080000,-0.009839,-0.001349,-0.002104,-0.000000,-0.000000,-0.000000,-0.000000
-1.080000,0.000000,1.420880,0.080000,-0.009467,-0.001436,-0.002067,-0.000000,-0.000000,-0.000000,-0.000000
-1.000000,0.000000,1.500833,0.080000,-0.009108,-0.001516,-0.002032,-0.000000,-0.000000,-0.000000,-0.000000
-0.920000,0.000000,1.580791,0.080000,-0.008762,-0.001588,-0.002000,-0.000000,-0.000000,-0.000000,-0.000000
-0.840000,0.000000,1.660753,0.080000,-0.008429,-0.001653,-0.001971,-0.000000,-0.000000,-0.000000,-0.000000
-0.760000,0.000000,1.740718,0.080000,-0.008108,-0.001709,-0.001946,-0.000000,-0.000000,-0.000000,-0.000000
-0.680000,0.000000,1.820687,0.080000,-0.007800,-0.001759,-0.001924,-0.000000,-0.000000,-0.000000,-0.000000
-0.600000,0.000000,1.900658,0.080000,-0.007504,-0.001801,-0.001906,-0.000000,-0.000000,-0.000000,-0.000000
-0.520000,0.000000,1.980631,0.080000,-0.007221,-0.001837,-0.001890,-0.000000,-0.000000,-0.000000,-0.000000
-0.440000,0.000000,2.000025,0.080000,-0.006949,-0.001867,-0.001878,-0.000000,-0.000000,-0.000000,-0.000000
-0.360000,0.000000,2.000025,0.080000,-0.006690,-0.001891,-0.001868,-0.000000,-0.000000,-0.000000,-0.000000
-0.280000,0.000000,2.000225,0.080000,-0.006442,-0.001909,-0.001861,-0.000000,-0.000000,-0.000000,-0.000000
-0.200000,0.000000,2.000625,0.080000,-0.006207,-0.001923,-0.001855,-0.000000,-0.000000,-0.000000,-0.000000
-0.120000,0.000000,2.000225,0.080000,-0.005983,-0.001932,-0.001852,-0.000000,-0.000000,-0.000000,-0.000000
-0.040000,0.000000,2.000025,0.080000,-0.005771,-0.001937,-0.001850,-0.000000,-0.000000,-0.000000,-0.000000
0.040000,0.000000,2.000025,0.080000,-0.005571,-0.001937,-0.001850,0.000000,-0.000000,-0.000000,0.000000
0.120000,0.000000,2.000225,0.080000,-0.005383,-0.001932,-0.001852,0.000000,-0.000000,-0.000000,0.000000
0.200000,0.000000,2.000625,0.080000,-0.005207,-0.001923,-0.001855,0.000000,-0.000000,-0.000000,0.000000
0.280000,0.000000,2.000225,0.080000,-0.005043,-0.001909,-0.001861,0.000000,-0.000000,-0.000000,0.000000
0.360000,0.000000,2.000025,0.080000,-0.004890,-0.001891,-0.001868,0.000000,-0.000000,-0.000000,0.000000
0.440000,0.000000,2.000025,0.080000,-0.004750,-0.001867,-0.001878,0.000000,-0.000000,-0.000000,0.000000
0.520000,0.000000,1.980631,0.080000,-0.004621,-0.001837,-0.001890,0.000000,-0.000000,-0.000000,0.000000
0.600000,0.000000,1.900658,0.080000,-0.004505,-0.001801,-0.001906,0.000000,-0.000000,-0.000000,0.000000
0.680000,0.000000,1.820687,0.080000,-0.004401,-0.001759,-0.001924,0.000000,-0.000000,-0.000000,0.000000
0.760000,0.000000,1.740718,0.080000,-0.004309,-0.001710,-0.001945,0.000000,-0.000000,-0.000000,0.000000
0.840000,0.000000,1.660753,0.080000,-0.004229,-0.001653,-0.001971,0.000000,-0.000000,-0.000000,0.000000
0.920000,0.000000,1.580791,0.080000,-0.004163,-0.001589,-0.001999,0.000000,-0.000000,-0.000000,0.000000
1.000000,0.000000,1.500833,0.080000,-0.004109,-0.001516,-0.002031,0.000000,-0.000000,-0.000000,0.000000
1.080000,0.000000,1.420880,0.080000,-0.004068,-0.001436,-0.002066,0.000000,-0.000000,-0.000000,0.000000
1.160000,0.000000,1.340933,0.080000,-0.004040,-0.001349,-0.002104,0.000000,-0.000000,-0.000000,0.000000
1.240000,0.000000,1.260992,0.080000,-0.004026,-0.001255,-0.002143,0.000000,-0.000000,-0.000000,0.000000
1.320000,0.000000,1.181059,0.080000,-0.004025,-0.001155,-0.002182,0.000000,-0.000000,-0.000000,0.000000
1.400000,0.000000,1.101136,0.080000,-0.004039,-0.001051,-0.002219,0.000000,-0.000000,-0.000000,0.000000
1.480000,0.000000,1.021225,0.080000,-0.004066,-0.000945,-0.002252,0.000000,0.000000,-0.000000,0.000000
1.560000,0.000000,0.941329,0.080000,-0.004109,-0.000839,-0.002277,0.000000,0.000000,-0.000000,0.000000
1.640000,0.000000,0.861452,0.080000,-0.004165,-0.000737,-0.002291,0.000000,0.000000,-0.000000,0.000000
1.720000,0.000000,0.781601,0.080000,-0.004237,-0.000643,-0.002291,0.000000,0.000000,-0.000000,0.000000
1.800000,0.000000,0.701783,0.080000,-0.004323,-0.000561,-0.002270,0.000000,0.000000,-0.000000,0.000000
1.880000,0.000000,0.622013,0.080000,-0.004423,-0.000496,-0.002224,0.000000,0.000000,-0.000000,0.000000
1.960000,0.000000,0.542310,0.080000,-0.004538,-0.000453,-0.002147,0.000000,0.000000,-0.000000,0.000000
2.040000,0.000000,0.462709,0.080000,-0.004667,-0.000436,-0.002037,-0.000000,0.000000,-0.000000,-0.000000
2.120000,0.000000,0.383275,0.080000,-0.004808,-0.000448,-0.001887,-0.000000,0.000000,-0.000000,-0.000000
-2.120000,0.080000,0.381182,0.080000,-0.015248,-0.000429,-0.001905,-0.000028,0.000000,-0.000000,-0.000000
-2.040000,0.080000,0.460977,0.080000,-0.014706,-0.000419,-0.002053,0.000004,0.000000,-0.000000,0.000000
-1.960000,0.080000,0.540833,0.080000,-0.014178,-0.000438,-0.002161,0.000032,0.000000,-0.000000,0.000000
-1.880000,0.080000,0.620725,0.080000,-0.013663,-0.000484,-0.002236,0.000056,0.000000,-0.000000,0.000000
-1.800000,0.080000,0.700643,0.080000,-0.013163,-0.000551,-0.002279,0.000075,0.000000,-0.000000,0.000000
-1.720000,0.080000,0.780577,0.080000,-0.012677,-0.000636,-0.002298,0.000090,0.000000,-0.000000,0.000000
-1.640000,0.080000,0.860523,0.080000,-0.012206,-0.000732,-0.002296,0.000099,0.000000,-0.000000,0.000000
-1.560000,0.080000,0.940479,0.080000,-0.011750,-0.000835,-0.002280,0.000105,0.000000,-0.000000,0.000000
-1.480000,0.080000,1.020441,0.080000,-0.011308,-0.000942,-0.002253,0.000107,0.000000,-0.000000,0.000000
-1.400000,0.080000,1.100409,0.080000,-0.010881,-0.001050,-0.002219,0.000106,-0.000000,-0.000000,0.000000
-1.320000,0.080000,1.180381,0.080000,-0.010468,-0.001155,-0.002180,0.000102,-0.000000,-0.000000,0.000000
-1.240000,0.080000,1.260357,0.080000,-0.010069,-0.001256,-0.002141,0.000097,-0.000000,-0.000000,0.000000
-1.160000,0.080000,1.340336,0.080000,-0.009683,-0.001350,-0.002101,0.000091,-0.000000,-0.000000,0.000000
-1.080000,0.080000,1.420317,0.080000,-0.009311,-0.001438,-0.002063,0.000084,-0.000000,-0.000000,0.000000
-1.000000,0.080000,1.500300,0.080000,-0.008953,-0.001518,-0.002028,0.000076,-0.000000,-0.000000,0.000000
-0.920000,0.080000,1.580285,0.080000,-0.008607,-0.001590,-0.001996,0.000068,-0.000000,-0.000000,0.000000
-0.840000,0.080000,1.660271,0.080000,-0.008274,-0.001654,-0.001967,0.000060,-0.000000,-0.000000,0.000000
-0.760000,0.080000,1.740259,0.080000,-0.007954,-0.001711,-0.001942,0.000053,-0.000000,-0.000000,0.000000
-0.680000,0.080000,1.820247,0.080000,-0.007646,-0.001760,-0.001921,0.000046,-0.000000,-0.000000,0.000000
-0.600000,0.080000,1.900237,0.080000,-0.007350,-0.001802,-0.001902,0.000039,-0.000000,-0.000000,0.000000
-0.520000,0.080000,1.920234,0.080000,-0.007067,-0.001837,-0.001887,0.000032,-0.000000,-0.000000,0.000000
-0.440000,0.080000,1.920026,0.080000,-0.006795,-0.001867,-0.001875,0.000027,-0.000000,-0.000000,0.000000
-0.360000,0.080000,1.920026,0.080000,-0.006536,-0.001891,-0.001866,0.000021,-0.000000,-0.000000,0.000000
-0.280000,0.080000,1.920234,0.080000,-0.006288,-0.001909,-0.001858,0.000016,-0.000000,-0.000000,0.000000
-0.200000,0.080000,1.920651,0.080000,-0.006053,-0.001923,-0.001853,0.000011,-0.000000,-0.000000,0.000000
-0.120000,0.080000,1.920234,0.080000,-0.005829,-0.001932,-0.001849,0.000007,-0.000000,-0.000000,0.000000
-0.040000,0.080000,1.920026,0.080000,-0.005618,-0.001936,-0.001848,0.000002,-0.000000,-0.000000,0.000000
0.040000,0.080000,1.920026,0.080000,-0.005418,-0.001936,-0.001848,-0.000002,-0.000000,-0.000000,-0.000000
0.120000,0.080000,1.920234,0.080000,-0.005229,-0.001932,-0.001849,-0.000007,-0.000000,-0.000000,-0.000000
0.200000,0.080000,1.920651,0.080000,-0.005053,-0.001923,-0.001853,-0.000011,-0.000000,-0.000000,-0.000000
0.280000,0.080000,1.920234,0.080000,-0.004889,-0.001909,-0.001858,-0.000016,-0.000000,-0.000000,-0.000000
0.360000,0.080000,1.920026,0.080000,-0.004736,-0.001891,-0.001865,-0.000021,-0.000000,-0.000000,-0.000000
0.440000,0.080000,1.920026,0.080000,-0.004596,-0.001867,-0.001875,-0.000027,-0.000000,-0.000000,-0.000000
0.520000,0.080000,1.920234,0.080000,-0.004467,-0.001837,-0.001887,-0.000032,-0.000000,-0.000000,-0.000000
0.600000,0.080000,1.900237,0.080000,-0.004351,-0.001802,-0.001902,-0.000039,-0.000000,-0.000000,-0.000000
0.680000,0.080000,1.820247,0.080000,-0.004246,-0.001760,-0.001920,-0.000045,-0.000000,-0.000000,-0.000000
0.760000,0.080000,1.740259,0.080000,-0.004154,-0.001711,-0.001942,-0.000053,-0.000000,-0.000000,-0.000000
0.840000,0.080000,1.660271,0.080000,-0.004075,-0.001654,-0.001967,-0.000060,-0.000000,-0.000000,-0.000000
0.920000,0.080000,1.580285,0.080000,-0.004008,-0.001590,-0.001995,-0.000068,-0.000000,-0.000000,-0.000000
1.000000,0.080000,1.500300,0.080000,-0.003954,-0.001518,-0.002027,-0.000076,-0.000000,-0.000000,-0.000000
1.080000,0.080000,1.420317,0.080000,-0.003912,-0.001438,-0.002063,-0.000084,-0.000000,-0.000000,-0.000000
1.160000,0.080000,1.340336,0.080000,-0.003884,-0.001351,-0.002100,-0.000091,-0.000000,-0.000000,-0.000000
1.240000,0.080000,1.260357,0.080000,-0.003870,-0.001256,-0.002140,-0.000097,-0.000000,-0.000000,-0.000000
1.320000,0.080000,1.180381,0.080000,-0.003869,-0.001156,-0.002180,-0.000102,-0.000000,-0.000000,-0.000000
1.400000,0.080000,1.100409,0.080000,-0.003882,-0.001051,-0.002218,-0.000106,-0.000000,-0.000000,-0.000000
1.480000,0.080000,1.020441,0.080000,-0.003910,-0.000943,-0.002252,-0.000107,0.000000,-0.000000,-0.000000
1.560000,0.080000,0.940479,0.080000,-0.003951,-0.000836,-0.002279,-0.000105,0.000000,-0.000000,-0.000000
1.640000,0.080000,0.860523,0.080000,-0.004008,-0.000733,-0.002295,-0.000099,0.000000,-0.000000,-0.000000
1.720000,0.080000,0.780577,0.080000,-0.004079,-0.000637,-0.002296,-0.000089,0.000000,-0.000000,-0.000000
1.800000,0.080000,0.700643,0.080000,-0.004165,-0.000552,-0.002278,-0.000075,0.000000,-0.000000,-0.000000
1.880000,0.080000,0.620725,0.080000,-0.004265,-0.000485,-0.002235,-0.000056,0.000000,-0.000000,-0.000000
1.960000,0.080000,0.540833,0.080000,-0.004379,-0.000439,-0.002160,-0.000032,0.000000,-0.000000,-0.000000
2.040000,0.080000,0.460977,0.080000,-0.004508,-0.000420,-0.002052,-0.000004,0.000000,-0.000000,-0.000000
2.120000,0.080000,0.381182,0.080000,-0.004650,-0.000430,-0.001904,0.000028,0.000000,-0.000000,0.000000
-2.120000,0.160000,0.380132,0.080000,-0.015092,-0.000376,-0.001957,-0.000054,0.000000,-0.000000,-0.000000
-2.040000,0.160000,0.460109,0.080000,-0.014550,-0.000372,-0.002100,0.000012,0.000000,-0.000000,0.000000
-1.960000,0.160000,0.540093,0.080000,-0.014022,-0.000398,-0.002201,0.000069,0.000000,-0.000000,0.000000
-1.880000,0.160000,0.620081,0.080000,-0.013508,-0.000450,-0.002269,0.000117,0.000000,-0.000000,0.000000
-1.800000,0.160000,0.700071,0.080000,-0.013008,-0.000525,-0.002304,0.000155,0.000000,-0.000000,0.000000
-1.720000,0.160000,0.780064,0.080000,-0.012523,-0.000616,-0.002315,0.000184,0.000000,-0.000000,0.000000
-1.640000,0.160000,0.860058,0.080000,-0.012053,-0.000718,-0.002307,0.000202,0.000000,-0.000000,0.000000
-1.560000,0.160000,0.940053,0.080000,-0.011598,-0.000827,-0.002285,0.000213,0.000000,-0.000000,0.000000
-1.480000,0.160000,1.020049,0.080000,-0.011157,-0.000939,-0.002253,0.000216,0.000000,-0.000000,0.000000
-1.400000,0.160000,1.100045,0.080000,-0.010731,-0.001050,-0.002215,0.000214,-0.000000,-0.000000,0.000000
-1.320000,0.160000,1.180042,0.080000,-0.010319,-0.001157,-0.002174,0.000207,-0.000000,-0.000000,0.000000
-1.240000,0.160000,1.260040,0.080000,-0.009921,-0.001260,-0.002132,0.000196,-0.000000,-0.000000,0.000000
-1.160000,0.160000,1.340037,0.080000,-0.009536,-0.001355,-0.002090,0.000183,-0.000000,-0.000000,0.000000
-1.080000,0.160000,1.420035,0.080000,-0.009165,-0.001443,-0.002052,0.000168,-0.000000,-0.000000,0.000000
-1.000000,0.160000,1.500033,0.080000,-0.008807,-0.001523,-0.002016,0.000152,-0.000000,-0.000000,0.000000
-0.920000,0.160000,1.580032,0.080000,-0.008462,-0.001595,-0.001984,0.000136,-0.000000,-0.000000,0.000000
-0.840000,0.160000,1.660030,0.080000,-0.008130,-0.001659,-0.001955,0.000120,-0.000000,-0.000000,0.000000
-0.760000,0.160000,1.740029,0.080000,-0.007810,-0.001714,-0.001931,0.000105,-0.000000,-0.000000,0.000000
-0.680000,0.160000,1.820027,0.080000,-0.007503,-0.001763,-0.001910,0.000091,-0.000000,-0.000000,0.000000
-0.600000,0.160000,1.840679,0.080000,-0.007207,-0.001804,-0.001893,0.000077,-0.000000,-0.000000,0.000000
-0.520000,0.160000,1.840245,0.080000,-0.006924,-0.001838,-0.001878,0.000064,-0.000000,-0.000000,0.000000
-0.440000,0.160000,1.840027,0.080000,-0.006653,-0.001867,-0.001867,0.000053,-0.000000,-0.000000,0.000000
-0.360000,0.160000,1.840027,0.080000,-0.006394,-0.001890,-0.001858,0.000042,-0.000000,-0.000000,0.000000
-0.280000,0.160000,1.840245,0.080000,-0.006147,-0.001908,-0.001851,0.000032,-0.000000,-0.000000,0.000000
-0.200000,0.160000,1.840679,0.080000,-0.005911,-0.001921,-0.001846,0.000022,-0.000000,-0.000000,0.000000
-0.120000,0.160000,1.840245,0.080000,-0.005688,-0.001930,-0.001843,0.000013,-0.000000,-0.000000,0.000000
-0.040000,0.160000,1.840027,0.080000,-0.005476,-0.001934,-0.001841,0.000004,-0.000000,-0.000000,0.000000
0.040000,0.160000,1.840027,0.080000,-0.005276,-0.001934,-0.001841,-0.000004,-0.000000,-0.000000,-0.000000
0.120000,0.160000,1.840245,0.080000,-0.005088,-0.001930,-0.001843,-0.000013,-0.000000,-0.000000,-0.000000
0.200000,0.160000,1.840679,0.080000,-0.004912,-0.001921,-0.001846,-0.000022,-0.000000,-0.000000,-0.000000
0.280000,0.160000,1.840245,0.080000,-0.004747,-0.001908,-0.001851,-0.000032,-0.000000,-0.000000,-0.000000
0.360000,0.160000,1.840027,0.080000,-0.004594,-0.001890,-0.001858,-0.000042,-0.000000,-0.000000,-0.000000
0.440000,0.160000,1.840027,0.080000,-0.004454,-0.001867,-0.001867,-0.000053,-0.000000,-0.000000,-0.000000
0.520000,0.160000,1.840245,0.080000,-0.004325,-0.001839,-0.001878,-0.000064,-0.000000,-0.000000,-0.000000
0.600000,0.160000,1.840679,0.080000,-0.004208,-0.001804,-0.001892,-0.000077,-0.000000,-0.000000,-0.000000
0.680000,0.160000,1.820027,0.080000,-0.004103,-0.001763,-0.001910,-0.000091,-0.000000,-0.000000,-0.000000
0.760000,0.160000,1.740029,0.080000,-0.004011,-0.001715,-0.001931,-0.000105,-0.000000,-0.000000,-0.000000
0.840000,0.160000,1.660030,0.080000,-0.003931,-0.001659,-0.001955,-0.000120,-0.000000,-0.000000,-0.000000
0.920000,0.160000,1.580032,0.080000,-0.003863,-0.001596,-0.001983,-0.000136,-0.000000,-0.000000,-0.000000
1.000000,0.160000,1.500033,0.080000,-0.003808,-0.001524,-0.002015,-0.000152,-0.000000,-0.000000,-0.000000
1.080000,0.160000,1.420035,0.080000,-0.003766,-0.001444,-0.002051,-0.000167,-0.000000,-0.000000,-0.000000
1.160000,0.160000,1.340037,0.080000,-0.003737,-0.001356,-0.002090,-0.000182,-0.000000,-0.000000,-0.000000
1.240000,0.160000,1.260040,0.080000,-0.003722,-0.001260,-0.002131,-0.000196,-0.000000,-0.000000,-0.000000
1.320000,0.160000,1.180042,0.080000,-0.003720,-0.001158,-0.002173,-0.000206,-0.000000,-0.000000,-0.000000
1.400000,0.160000,1.100045,0.080000,-0.003732,-0.001050,-0.002214,-0.000214,-0.000000,-0.000000,-0.000000
1.480000,0.160000,1.020049,0.080000,-0.003759,-0.000939,-0.002252,-0.000216,0.000000,-0.000000,-0.000000
1.560000,0.160000,0.940053,0.080000,-0.003799,-0.000828,-0.002284,-0.000213,0.000000,-0.000000,-0.000000
1.640000,0.160000,0.860058,0.080000,-0.003855,-0.000719,-0.002306,-0.000202,0.000000,-0.000000,-0.000000
1.720000,0.160000,0.780064,0.080000,-0.003925,-0.000617,-0.002314,-0.000183,0.000000,-0.000000,-0.000000
1.800000,0.160000,0.700071,0.080000,-0.004010,-0.000526,-0.002303,-0.000155,0.000000,-0.000000,-0.000000
1.880000,0.160000,0.620081,0.080000,-0.004110,-0.000451,-0.002267,-0.000117,0.000000,-0.000000,-0.000000
1.960000,0.160000,0.540093,0.080000,-0.004224,-0.000399,-0.002200,-0.000069,0.000000,-0.000000,-0.000000
2.040000,0.160000,0.460109,0.080000,-0.004352,-0.000373,-0.002098,-0.000012,0.000000,-0.000000,-0.000000
2.120000,0.160000,0.380132,0.080000,-0.004494,-0.000378,-0.001956,0.000054,0.000000,-0.000000,0.000000
-2.120000,0.240000,0.380132,0.080000,-0.014939,-0.000287,-0.002045,-0.000072,0.000000,-0.000000,-0.000000
-2.040000,0.240000,0.460109,0.080000,-0.014397,-0.000292,-0.002178,0.000029,0.000000,-0.000000,0.000000
-1.960000,0.240000,0.540093,0.080000,-0.013869,-0.000330,-0.002268,0.000115,0.000000,-0.000000,0.000000
-1.880000,0.240000,0.620081,0.080000,-0.013356,-0.000395,-0.002322,0.000188,0.000000,-0.000000,0.000000
-1.800000,0.240000,0.700071,0.080000,-0.012857,-0.000481,-0.002345,0.000245,0.000000,-0.000000,0.000000
-1.720000,0.240000,0.780064,0.080000,-0.012373,-0.000584,-0.002344,0.000286,0.000000,-0.000000,0.000000
-1.640000,0.240000,0.860058,0.080000,-0.011905,-0.000696,-0.002325,0.000313,0.000000,-0.000000,0.000000
-1.560000,0.240000,0.940053,0.080000,-0.011451,-0.000814,-0.002293,0.000328,0.000000,-0.000000,0.000000
-1.480000,0.240000,1.020049,0.080000,-0.011012,-0.000933,-0.002253,0.000331,0.000000,-0.000000,0.000000
-1.400000,0.240000,1.100045,0.080000,-0.010588,-0.001050,-0.002208,0.000326,-0.000000,-0.000000,0.000000
-1.320000,0.240000,1.180042,0.080000,-0.010177,-0.001162,-0.002162,0.000314,-0.000000,-0.000000,0.000000
-1.240000,0.240000,1.260040,0.080000,-0.009781,-0.001267,-0.002116,0.000296,-0.000000,-0.000000,0.000000
-1.160000,0.240000,1.340037,0.080000,-0.009398,-0.001364,-0.002072,0.000275,-0.000000,-0.000000,0.000000
-1.080000,0.240000,1.420035,0.080000,-0.009028,-0.001453,-0.002032,0.000252,-0.000000,-0.000000,0.000000
-1.000000,0.240000,1.500033,0.080000,-0.008672,-0.001533,-0.001996,0.000228,-0.000000,-0.000000,0.000000
-0.920000,0.240000,1.580032,0.080000,-0.008328,-0.001604,-0.001964,0.000203,-0.000000,-0.000000,0.000000
-0.840000,0.240000,1.660030,0.080000,-0.007996,-0.001667,-0.001936,0.000179,-0.000000,-0.000000,0.000000
-0.760000,0.240000,1.740029,0.080000,-0.007677,-0.001721,-0.001912,0.000156,-0.000000,-0.000000,0.000000
-0.680000,0.240000,1.760256,0.080000,-0.007371,-0.001768,-0.001893,0.000134,-0.000000,-0.000000,0.000000
-0.600000,0.240000,1.760710,0.080000,-0.007076,-0.001807,-0.001876,0.000114,-0.000000,-0.000000,0.000000
-0.520000,0.240000,1.760256,0.080000,-0.006794,-0.001840,-0.001863,0.000095,-0.000000,-0.000000,0.000000
-0.440000,0.240000,1.760028,0.080000,-0.006523,-0.001868,-0.001853,0.000078,-0.000000,-0.000000,0.000000
-0.360000,0.240000,1.760028,0.080000,-0.006264,-0.001890,-0.001845,0.000062,-0.000000,-0.000000,0.000000
-0.280000,0.240000,1.760256,0.080000,-0.006017,-0.001906,-0.001839,0.000047,-0.000000,-0.000000,0.000000
-0.200000,0.240000,1.760710,0.080000,-0.005782,-0.001919,-0.001834,0.000033,-0.000000,-0.000000,0.000000
-0.120000,0.240000,1.760256,0.080000,-0.005559,-0.001927,-0.001832,0.000019,-0.000000,-0.000000,0.000000
-0.040000,0.240000,1.760028,0.080000,-0.005347,-0.001931,-0.001830,0.000006,-0.000000,-0.000000,0.000000
0.040000,0.240000,1.760028,0.080000,-0.005147,-0.001931,-0.001830,-0.000006,-0.000000,-0.000000,-0.000000
0.120000,0.240000,1.760256,0.080000,-0.004959,-0.001927,-0.001832,-0.000019,-0.000000,-0.000000,-0.000000
0.200000,0.240000,1.760710,0.080000,-0.004782,-0.001919,-0.001834,-0.000033,-0.000000,-0.000000,-0.000000
0.280000,0.240000,1.760256,0.080000,-0.004618,-0.001906,-0.001839,-0.000047,-0.000000,-0.000000,-0.000000
0.360000,0.240000,1.760028,0.080000,-0.004465,-0.001890,-0.001845,-0.000062,-0.000000,-0.000000,-0.000000
0.440000,0.240000,1.760028,0.080000,-0.004324,-0.001868,-0.001853,-0.000078,-0.000000,-0.000000,-0.000000
0.520000,0.240000,1.760256,0.080000,-0.004194,-0.001841,-0.001863,-0.000095,-0.000000,-0.000000,-0.000000
0.600000,0.240000,1.760710,0.080000,-0.004077,-0.001807,-0.001876,-0.000114,-0.000000,-0.000000,-0.000000
0.680000,0.240000,1.760256,0.080000,-0.003971,-0.001768,-0.001892,-0.000134,-0.000000,-0.000000,-0.000000
0.760000,0.240000,1.740029,0.080000,-0.003878,-0.001721,-0.001912,-0.000156,-0.000000,-0.000000,-0.000000
0.840000,0.240000,1.660030,0.080000,-0.003797,-0.001667,-0.001936,-0.000179,-0.000000,-0.000000,-0.000000
0.920000,0.240000,1.580032,0.080000,-0.003729,-0.001605,-0.001963,-0.000203,-0.000000,-0.000000,-0.000000
1.000000,0.240000,1.500033,0.080000,-0.003673,-0.001534,-0.001995,-0.000227,-0.000000,-0.000000,-0.000000
1.080000,0.240000,1.420035,0.080000,-0.003629,-0.001454,-0.002032,-0.000252,-0.000000,-0.000000,-0.000000
1.160000,0.240000,1.340037,0.080000,-0.003599,-0.001365,-0.002072,-0.000275,-0.000000,-0.000000,-0.000000
1.240000,0.240000,1.260040,0.080000,-0.003582,-0.001268,-0.002115,-0.000296,-0.000000,-0.000000,-0.000000
1.320000,0.240000,1.180042,0.080000,-0.003579,-0.001162,-0.002161,-0.000313,-0.000000,-0.000000,-0.000000
1.400000,0.240000,1.100045,0.080000,-0.003589,-0.001051,-0.002207,-0.000326,-0.000000,-0.000000,-0.000000
1.480000,0.240000,1.020049,0.080000,-0.003614,-0.000934,-0.002252,-0.000331,0.000000,-0.000000,-0.000000
1.560000,0.240000,0.940053,0.080000,-0.003653,-0.000815,-0.002292,-0.000327,0.000000,-0.000000,-0.000000
1.640000,0.240000,0.860058,0.080000,-0.003706,-0.000698,-0.002324,-0.000313,0.000000,-0.000000,-0.000000
1.720000,0.240000,0.780064,0.080000,-0.003775,-0.000585,-0.002343,-0.000286,0.000000,-0.000000,-0.000000
1.800000,0.240000,0.700071,0.080000,-0.003859,-0.000483,-0.002344,-0.000244,0.000000,-0.000000,-0.000000
1.880000,0.240000,0.620081,0.080000,-0.003957,-0.000396,-0.002321,-0.000188,0.000000,-0.000000,-0.000000
1.960000,0.240000,0.540093,0.080000,-0.004071,-0.000331,-0.002266,-0.000114,0.000000,-0.000000,-0.000000
2.040000,0.240000,0.460109,0.080000,-0.004198,-0.000294,-0.002177,-0.000029,0.000000,-0.000000,-0.000000
2.120000,0.240000,0.380132,0.080000,-0.004340,-0.000289,-0.002044,0.000072,0.000000,-0.000000,0.000000
-2.120000,0.320000,0.381182,0.080000,-0.014787,-0.000159,-0.002172,-0.000079,0.000000,-0.000000,-0.000000
-2.040000,0.320000,0.460977,0.080000,-0.014245,-0.000179,-0.002290,0.000059,0.000000,-0.000000,0.000000
-1.960000,0.320000,0.540833,0.080000,-0.013718,-0.000234,-0.002362,0.000175,0.000000,-0.000000,0.000000
-1.880000,0.320000,0.620725,0.080000,-0.013206,-0.000317,-0.002398,0.000274,0.000000,-0.000000,0.000000
-1.800000,0.320000,0.700643,0.080000,-0.012709,-0.000421,-0.002402,0.000349,0.000000,-0.000000,0.000000
-1.720000,0.320000,0.780577,0.080000,-0.012227,-0.000541,-0.002383,0.000402,0.000000,-0.000000,0.000000
-1.640000,0.320000,0.860523,0.080000,-0.011761,-0.000668,-0.002348,0.000436,0.000000,-0.000000,0.000000
-1.560000,0.320000,0.940479,0.080000,-0.011310,-0.000799,-0.002302,0.000452,0.000000,-0.000000,0.000000
-1.480000,0.320000,1.020441,0.080000,-0.010873,-0.000928,-0.002250,0.000454,0.000000,-0.000000,0.000000
-1.400000,0.320000,1.100409,0.080000,-0.010451,-0.001052,-0.002196,0.000444,-0.000000,-0.000000,0.000000
-1.320000,0.320000,1.180381,0.080000,-0.010043,-0.001170,-0.002143,0.000425,-0.000000,-0.000000,0.000000
-1.240000,0.320000,1.260357,0.080000,-0.009649,-0.001279,-0.002092,0.000399,-0.000000,-0.000000,0.000000
-1.160000,0.320000,1.340336,0.080000,-0.009268,-0.001379,-0.002045,0.000369,-0.000000,-0.000000,0.000000
-1.080000,0.320000,1.420317,0.080000,-0.008901,-0.001468,-0.002003,0.000336,-0.000000,-0.000000,0.000000
-1.000000,0.320000,1.500300,0.080000,-0.008546,-0.001548,-0.001967,0.000303,-0.000000,-0.000000,0.000000
-0.920000,0.320000,1.580285,0.080000,-0.008203,-0.001617,-0.001935,0.000269,-0.000000,-0.000000,0.000000
-0.840000,0.320000,1.660271,0.080000,-0.007874,-0.001678,-0.001908,0.000237,-0.000000,-0.000000,0.000000
-0.760000,0.320000,1.680030,0.080000,-0.007556,-0.001730,-0.001886,0.000206,-0.000000,-0.000000,0.000000
-0.680000,0.320000,1.680268,0.080000,-0.007250,-0.001775,-0.001868,0.000176,-0.000000,-0.000000,0.000000
-0.600000,0.320000,1.680744,0.080000,-0.006957,-0.001812,-0.001854,0.000149,-0.000000,-0.000000,0.000000
-0.520000,0.320000,1.680268,0.080000,-0.006675,-0.001843,-0.001842,0.000124,-0.000000,-0.000000,0.000000
-0.440000,0.320000,1.680030,0.080000,-0.006405,-0.001868,-0.001833,0.000101,-0.000000,-0.000000,0.000000
-0.360000,0.320000,1.680030,0.080000,-0.006147,-0.001888,-0.001827,0.000080,-0.000000,-0.000000,0.000000
-0.280000,0.320000,1.680268,0.080000,-0.005900,-0.001904,-0.001822,0.000061,-0.000000,-0.000000,0.000000
-0.200000,0.320000,1.680744,0.080000,-0.005665,-0.001915,-0.001819,0.000043,-0.000000,-0.000000,0.000000
-0.120000,0.320000,1.680268,0.080000,-0.005442,-0.001922,-0.001817,0.000025,-0.000000,-0.000000,0.000000
-0.040000,0.320000,1.680030,0.080000,-0.005231,-0.001926,-0.001816,0.000008,-0.000000,-0.000000,0.000000
0.040000,0.320000,1.680030,0.080000,-0.005031,-0.001926,-0.001816,-0.000008,-0.000000,-0.000000,-0.000000
0.120000,0.320000,1.680268,0.080000,-0.004842,-0.001922,-0.001817,-0.000025,-0.000000,-0.000000,-0.000000
0.200000,0.320000,1.680744,0.080000,-0.004666,-0.001915,-0.001819,-0.000042,-0.000000,-0.000000,-0.000000
0.280000,0.320000,1.680268,0.080000,-0.004501,-0.001904,-0.001822,-0.000061,-0.000000,-0.000000,-0.000000
0.360000,0.320000,1.680030,0.080000,-0.004347,-0.001888,-0.001827,-0.000080,-0.000000,-0.000000,-0.000000
0.440000,0.320000,1.680030,0.080000,-0.004205,-0.001868,-0.001833,-0.000101,-0.000000,-0.000000,-0.000000
0.520000,0.320000,1.680268,0.080000,-0.004075,-0.001843,-0.001842,-0.000124,-0.000000,-0.000000,-0.000000
0.600000,0.320000,1.680744,0.080000,-0.003957,-0.001812,-0.001853,-0.000149,-0.000000,-0.000000,-0.000000
0.680000,0.320000,1.680268,0.080000,-0.003851,-0.001775,-0.001868,-0.000176,-0.000000,-0.000000,-0.000000
0.760000,0.320000,1.680030,0.080000,-0.003757,-0.001731,-0.001886,-0.000205,-0.000000,-0.000000,-0.000000
0.840000,0.320000,1.660271,0.080000,-0.003674,-0.001678,-0.001908,-0.000236,-0.000000,-0.000000,-0.000000
0.920000,0.320000,1.580285,0.080000,-0.003604,-0.001618,-0.001935,-0.000269,-0.000000,-0.000000,-0.000000
1.000000,0.320000,1.500300,0.080000,-0.003547,-0.001548,-0.001966,-0.000302,-0.000000,-0.000000,-0.000000
1.080000,0.320000,1.420317,0.080000,-0.003502,-0.001468,-0.002003,-0.000336,-0.000000,-0.000000,-0.000000
1.160000,0.320000,1.340336,0.080000,-0.003470,-0.001379,-0.002045,-0.000369,-0.000000,-0.000000,-0.000000
1.240000,0.320000,1.260357,0.080000,-0.003450,-0.001280,-0.002091,-0.000399,-0.000000,-0.000000,-0.000000
1.320000,0.320000,1.180381,0.080000,-0.003445,-0.001171,-0.002142,-0.000424,-0.000000,-0.000000,-0.000000
1.400000,0.320000,1.100409,0.080000,-0.003453,-0.001053,-0.002195,-0.000444,-0.000000,-0.000000,-0.000000
1.480000,0.320000,1.020441,0.080000,-0.003475,-0.000929,-0.002249,-0.000454,0.000000,-0.000000,-0.000000
1.560000,0.320000,0.940479,0.080000,-0.003511,-0.000799,-0.002301,-0.000452,0.000000,-0.000000,-0.000000
1.640000,0.320000,0.860523,0.080000,-0.003563,-0.000669,-0.002347,-0.000436,0.000000,-0.000000,-0.000000
1.720000,0.320000,0.780577,0.080000,-0.003629,-0.000542,-0.002382,-0.000402,0.000000,-0.000000,-0.000000
1.800000,0.320000,0.700643,0.080000,-0.003710,-0.000423,-0.002400,-0.000348,0.000000,-0.000000,-0.000000
1.880000,0.320000,0.620725,0.080000,-0.003807,-0.000318,-0.002396,-0.000274,0.000000,-0.000000,-0.000000
1.960000,0.320000,0.540833,0.080000,-0.003919,-0.000235,-0.002361,-0.000175,0.000000,-0.000000,-0.000000
2.040000,0.320000,0.460977,0.080000,-0.004047,-0.000181,-0.002288,-0.000059,0.000000,-0.000000,-0.000000
2.120000,0.320000,0.381182,0.080000,-0.004189,-0.000161,-0.002171,0.000079,0.000000,-0.000000,0.000000
-2.120000,0.400000,0.383275,0.080000,-0.014636,0.000011,-0.002341,-0.000070,0.000000,-0.000000,-0.000000
-2.040000,0.400000,0.462709,0.080000,-0.014094,-0.000031,-0.002438,0.000109,0.000000,-0.000000,0.000000
-1.960000,0.400000,0.542310,0.080000,-0.013568,-0.000109,-0.002486,0.000257,0.000000,-0.000000,0.000000
-1.880000,0.400000,0.622013,0.080000,-0.013058,-0.000217,-0.002494,0.000381,0.000000,-0.000000,0.000000
-1.800000,0.400000,0.701783,0.080000,-0.012563,-0.000346,-0.002472,0.000473,0.000000,-0.000000,0.000000
-1.720000,0.400000,0.781601,0.080000,-0.012085,-0.000488,-0.002430,0.000537,0.000000,-0.000000,0.000000
-1.640000,0.400000,0.861452,0.080000,-0.011621,-0.000635,-0.002373,0.000575,0.000000,-0.000000,0.000000
-1.560000,0.400000,0.941329,0.080000,-0.011174,-0.000782,-0.002309,0.000590,0.000000,-0.000000,0.000000
-1.480000,0.400000,1.021225,0.080000,-0.010740,-0.000925,-0.002242,0.000587,0.000000,-0.000000,0.000000
-1.400000,0.400000,1.101136,0.080000,-0.010322,-0.001059,-0.002177,0.000570,-0.000000,-0.000000,0.000000
-1.320000,0.400000,1.181059,0.080000,-0.009917,-0.001184,-0.002115,0.000541,-0.000000,-0.000000,0.000000
-1.240000,0.400000,1.260992,0.080000,-0.009526,-0.001297,-0.002058,0.000505,-0.000000,-0.000000,0.000000
-1.160000,0.400000,1.340933,0.080000,-0.009148,-0.001399,-0.002008,0.000464,-0.000000,-0.000000,0.000000
-1.080000,0.400000,1.420880,0.080000,-0.008782,-0.001489,-0.001965,0.000421,-0.000000,-0.000000,0.000000
-1.000000,0.400000,1.500833,0.080000,-0.008430,-0.001567,-0.001928,0.000377,-0.000000,-0.000000,0.000000
-0.920000,0.400000,1.580791,0.080000,-0.008090,-0.001635,-0.001897,0.000333,-0.000000,-0.000000,0.000000
-0.840000,0.400000,1.600031,0.080000,-0.007762,-0.001693,-0.001872,0.000292,-0.000000,-0.000000,0.000000
-0.760000,0.400000,1.600031,0.080000,-0.007445,-0.001742,-0.001852,0.000252,-0.000000,-0.000000,0.000000
-0.680000,0.400000,1.600281,0.080000,-0.007141,-0.001784,-0.001836,0.000216,-0.000000,-0.000000,0.000000
-0.600000,0.400000,1.600781,0.080000,-0.006849,-0.001818,-0.001824,0.000182,-0.000000,-0.000000,0.000000
-0.520000,0.400000,1.600281,0.080000,-0.006568,-0.001846,-0.001815,0.000151,-0.000000,-0.000000,0.000000
-0.440000,0.400000,1.600031,0.080000,-0.006299,-0.001868,-0.001809,0.000123,-0.000000,-0.000000,0.000000
-0.360000,0.400000,1.600031,0.080000,-0.006041,-0.001886,-0.001804,0.000097,-0.000000,-0.000000,0.000000
-0.280000,0.400000,1.600281,0.080000,-0.005795,-0.001900,-0.001801,0.000073,-0.000000,-0.000000,0.000000
-0.200000,0.400000,1.600781,0.080000,-0.005561,-0.001909,-0.001799,0.000051,-0.000000,-0.000000,0.000000
-0.120000,0.400000,1.600281,0.080000,-0.005338,-0.001916,-0.001798,0.000030,-0.000000,-0.000000,0.000000
-0.040000,0.400000,1.600031,0.080000,-0.005126,-0.001919,-0.001797,0.000010,-0.000000,-0.000000,0.000000
0.040000,0.400000,1.600031,0.080000,-0.004926,-0.001919,-0.001797,-0.000010,-0.000000,-0.000000,-0.000000
0.120000,0.400000,1.600281,0.080000,-0.004738,-0.001916,-0.001798,-0.000030,-0.000000,-0.000000,-0.000000
0.200000,0.400000,1.600781,0.080000,-0.004561,-0.001909,-0.001799,-0.000051,-0.000000,-0.000000,-0.000000
0.280000,0.400000,1.600281,0.080000,-0.004396,-0.001900,-0.001801,-0.000073,-0.000000,-0.000000,-0.000000
0.360000,0.400000,1.600031,0.080000,-0.004242,-0.001886,-0.001804,-0.000097,-0.000000,-0.000000,-0.000000
0.440000,0.400000,1.600031,0.080000,-0.004099,-0.001868,-0.001809,-0.000123,-0.000000,-0.000000,-0.000000
0.520000,0.400000,1.600281,0.080000,-0.003969,-0.001846,-0.001815,-0.000151,-0.000000,-0.000000,-0.000000
0.600000,0.400000,1.600781,0.080000,-0.003849,-0.001818,-0.001824,-0.000182,-0.000000,-0.000000,-0.000000
0.680000,0.400000,1.600281,0.080000,-0.003742,-0.001784,-0.001836,-0.000215,-0.000000,-0.000000,-0.000000
0.760000,0.400000,1.600031,0.080000,-0.003646,-0.001743,-0.001852,-0.000252,-0.000000,-0.000000,-0.000000
0.840000,0.400000,1.600031,0.080000,-0.003562,-0.001694,-0.001872,-0.000291,-0.000000,-0.000000,-0.000000
0.920000,0.400000,1.580791,0.080000,-0.003491,-0.001635,-0.001897,-0.000333,-0.000000,-0.000000,-0.000000
1.000000,0.400000,1.500833,0.080000,-0.003431,-0.001568,-0.001927,-0.000376,-0.000000,-0.000000,-0.000000
1.080000,0.400000,1.420880,0.080000,-0.003384,-0.001489,-0.001964,-0.000420,-0.000000,-0.000000,-0.000000
1.160000,0.400000,1.340933,0.080000,-0.003349,-0.001399,-0.002008,-0.000464,-0.000000,-0.000000,-0.000000
1.240000,0.400000,1.260992,0.080000,-0.003327,-0.001298,-0.002058,-0.000505,-0.000000,-0.000000,-0.000000
1.320000,0.400000,1.181059,0.080000,-0.003318,-0.001185,-0.002114,-0.000541,-0.000000,-0.000000,-0.000000
1.400000,0.400000,1.101136,0.080000,-0.003323,-0.001060,-0.002176,-0.000569,-0.000000,-0.000000,-0.000000
1.480000,0.400000,1.021225,0.080000,-0.003342,-0.000925,-0.002242,-0.000587,0.000000,-0.000000,-0.000000
1.560000,0.400000,0.941329,0.080000,-0.003375,-0.000783,-0.002308,-0.000590,0.000000,-0.000000,-0.000000
1.640000,0.400000,0.861452,0.080000,-0.003423,-0.000636,-0.002372,-0.000574,0.000000,-0.000000,-0.000000
1.720000,0.400000,0.781601,0.080000,-0.003486,-0.000489,-0.002429,-0.000536,0.000000,-0.000000,-0.000000
1.800000,0.400000,0.701783,0.080000,-0.003565,-0.000348,-0.002471,-0.000473,0.000000,-0.000000,-0.000000
1.880000,0.400000,0.622013,0.080000,-0.003659,-0.000219,-0.002493,-0.000381,0.000000,-0.000000,-0.000000
1.960000,0.400000,0.542310,0.080000,-0.003770,-0.000111,-0.002484,-0.000257,0.000000,-0.000000,-0.000000
2.040000,0.400000,0.462709,0.080000,-0.003896,-0.000032,-0.002436,-0.000109,0.000000,-0.000000,-0.000000
2.120000,0.400000,0.383275,0.080000,-0.004038,0.000009,-0.002340,0.000070,0.000000,-0.000000,0.000000
-2.120000,0.480000,0.381182,0.080000,-0.014486,0.000228,-0.002557,-0.000038,0.000000,-0.000000,-0.000000
-2.040000,0.480000,0.460977,0.080000,-0.013944,0.000157,-0.002624,0.000186,0.000000,-0.000000,0.000000
-1.960000,0.480000,0.540833,0.080000,-0.013419,0.000045,-0.002638,0.000368,0.000000,-0.000000,0.000000
-1.880000,0.480000,0.620725,0.080000,-0.012911,-0.000097,-0.002611,0.000517,0.000000,-0.000000,0.000000
-1.800000,0.480000,0.700643,0.080000,-0.012420,-0.000258,-0.002556,0.000625,0.000000,-0.000000,0.000000
-1.720000,0.480000,0.780577,0.080000,-0.011945,-0.000429,-0.002482,0.000695,0.000000,-0.000000,0.000000
-1.640000,0.480000,0.860523,0.080000,-0.011486,-0.000601,-0.002398,0.000734,0.000000,-0.000000,0.000000
-1.560000,0.480000,0.940479,0.080000,-0.011042,-0.000769,-0.002311,0.000744,0.000000,-0.000000,0.000000
-1.480000,0.480000,1.020441,0.080000,-0.010613,-0.000927,-0.002227,0.000733,0.000000,-0.000000,0.000000
-1.400000,0.480000,1.100409,0.080000,-0.010199,-0.001073,-0.002147,0.000704,-0.000000,-0.000000,0.000000
-1.320000,0.480000,1.180381,0.080000,-0.009798,-0.001206,-0.002076,0.000663,-0.000000,-0.000000,0.000000
-1.240000,0.480000,1.260357,0.080000,-0.009410,-0.001324,-0.002013,0.000614,-0.000000,-0.000000,0.000000
-1.160000,0.480000,1.340336,0.080000,-0.009036,-0.001427,-0.001959,0.000560,-0.000000,-0.000000,0.000000
-1.080000,0.480000,1.420317,0.080000,-0.008674,-0.001517,-0.001915,0.000504,-0.000000,-0.000000,0.000000
-1.000000,0.480000,1.500300,0.080000,-0.008324,-0.001593,-0.001878,0.000448,-0.000000,-0.000000,0.000000
-0.920000,0.480000,1.520296,0.080000,-0.007986,-0.001658,-0.001849,0.000394,-0.000000,-0.000000,0.000000
-0.840000,0.480000,1.520033,0.080000,-0.007660,-0.001712,-0.001827,0.000343,-0.000000,-0.000000,0.000000
-0.760000,0.480000,1.520033,0.080000,-0.007346,-0.001758,-0.001810,0.000295,-0.000000,-0.000000,0.000000
-0.680000,0.480000,1.520296,0.080000,-0.007044,-0.001795,-0.001798,0.000251,-0.000000,-0.000000,0.000000
-0.600000,0.480000,1.520822,0.080000,-0.006752,-0.001825,-0.001789,0.000211,-0.000000,-0.000000,0.000000
-0.520000,0.480000,1.520296,0.080000,-0.006473,-0.001849,-0.001783,0.000174,-0.000000,-0.000000,0.000000
-0.440000,0.480000,1.520033,0.080000,-0.006205,-0.001868,-0.001780,0.000141,-0.000000,-0.000000,0.000000
-0.360000,0.480000,1.520033,0.080000,-0.005948,-0.001882,-0.001777,0.000111,-0.000000,-0.000000,0.000000
-0.280000,0.480000,1.520296,0.080000,-0.005702,-0.001894,-0.001776,0.000084,-0.000000,-0.000000,0.000000
-0.200000,0.480000,1.520822,0.080000,-0.005468,-0.001901,-0.001776,0.000058,-0.000000,-0.000000,0.000000
-0.120000,0.480000,1.520296,0.080000,-0.005246,-0.001906,-0.001776,0.000034,-0.000000,-0.000000,0.000000
-0.040000,0.480000,1.520033,0.080000,-0.005034,-0.001909,-0.001776,0.000011,-0.000000,-0.000000,0.000000
0.040000,0.480000,1.520033,0.080000,-0.004834,-0.001909,-0.001776,-0.000011,-0.000000,-0.000000,-0.000000
0.120000,0.480000,1.520296,0.080000,-0.004646,-0.001906,-0.001776,-0.000034,-0.000000,-0.000000,-0.000000
0.200000,0.480000,1.520822,0.080000,-0.004469,-0.001901,-0.001776,-0.000058,-0.000000,-0.000000,-0.000000
0.280000,0.480000,1.520296,0.080000,-0.004303,-0.001894,-0.001776,-0.000084,-0.000000,-0.000000,-0.000000
0.360000,0.480000,1.520033,0.080000,-0.004148,-0.001883,-0.001777,-0.000111,-0.000000,-0.000000,-0.000000
0.440000,0.480000,1.520033,0.080000,-0.004005,-0.001868,-0.001780,-0.000141,-0.000000,-0.000000,-0.000000
0.520000,0.480000,1.520296,0.080000,-0.003873,-0.001849,-0.001783,-0.000174,-0.000000,-0.000000,-0.000000
0.600000,0.480000,1.520822,0.080000,-0.003753,-0.001825,-0.001789,-0.000211,-0.000000,-0.000000,-0.000000
0.680000,0.480000,1.520296,0.080000,-0.003644,-0.001795,-0.001798,-0.000251,-0.000000,-0.000000,-0.000000
0.760000,0.480000,1.520033,0.080000,-0.003547,-0.001758,-0.001810,-0.000295,-0.000000,-0.000000,-0.000000
0.840000,0.480000,1.520033,0.080000,-0.003461,-0.001713,-0.001827,-0.000343,-0.000000,-0.000000,-0.000000
0.920000,0.480000,1.520296,0.080000,-0.003387,-0.001658,-0.001849,-0.000394,-0.000000,-0.000000,-0.000000
1.000000,0.480000,1.500300,0.080000,-0.003325,-0.001594,-0.001878,-0.000448,-0.000000,-0.000000,-0.000000
1.080000,0.480000,1.420317,0.080000,-0.003275,-0.001517,-0.001914,-0.000504,-0.000000,-0.000000,-0.000000
1.160000,0.480000,1.340336,0.080000,-0.003237,-0.001428,-0.001959,-0.000560,-0.000000,-0.000000,-0.000000
1.240000,0.480000,1.260357,0.080000,-0.003212,-0.001324,-0.002013,-0.000614,-0.000000,-0.000000,-0.000000
1.320000,0.480000,1.180381,0.080000,-0.003199,-0.001206,-0.002075,-0.000663,-0.000000,-0.000000,-0.000000
1.400000,0.480000,1.100409,0.080000,-0.003200,-0.001074,-0.002147,-0.000704,-0.000000,-0.000000,-0.000000
1.480000,0.480000,1.020441,0.080000,-0.003215,-0.000928,-0.002226,-0.000732,0.000000,-0.000000,-0.000000
1.560000,0.480000,0.940479,0.080000,-0.003244,-0.000770,-0.002311,-0.000744,0.000000,-0.000000,-0.000000
1.640000,0.480000,0.860523,0.080000,-0.003287,-0.000602,-0.002397,-0.000733,0.000000,-0.000000,-0.000000
1.720000,0.480000,0.780577,0.080000,-0.003347,-0.000430,-0.002481,-0.000695,0.000000,-0.000000,-0.000000
1.800000,0.480000,0.700643,0.080000,-0.003422,-0.000259,-0.002554,-0.000624,0.000000,-0.000000,-0.000000
1.880000,0.480000,0.620725,0.080000,-0.003513,-0.000098,-0.002610,-0.000517,0.000000,-0.000000,-0.000000
1.960000,0.480000,0.540833,0.080000,-0.003621,0.000044,-0.002637,-0.000368,0.000000,-0.000000,-0.000000
2.040000,0.480000,0.460977,0.080000,-0.003746,0.000155,-0.002622,-0.000186,0.000000,-0.000000,-0.000000
2.120000,0.480000,0.381182,0.080000,-0.003887,0.000226,-0.002556,0.000038,0.000000,-0.000000,0.000000
-2.120000,0.560000,0.380132,0.080000,-0.014333,0.000497,-0.002826,0.000027,0.000000,-0.000000,0.000000
-2.040000,0.560000,0.460109,0.080000,-0.013792,0.000385,-0.002852,0.000300,0.000000,-0.000000,0.000000
-1.960000,0.560000,0.540093,0.080000,-0.013270,0.000229,-0.002821,0.000518,0.000000,-0.000000,0.000000
-1.880000,0.560000,0.620081,0.080000,-0.012765,0.000043,-0.002747,0.000692,0.000000,-0.000000,0.000000
-1.800000,0.560000,0.700071,0.080000,-0.012278,-0.000160,-0.002648,0.000811,0.000000,-0.000000,0.000000
-1.720000,0.560000,0.780064,0.080000,-0.011808,-0.000367,-0.002535,0.000885,0.000000,-0.000000,0.000000
-1.640000,0.560000,0.860058,0.080000,-0.011354,-0.000570,-0.002418,0.000918,0.000000,-0.000000,0.000000
-1.560000,0.560000,0.940053,0.080000,-0.010916,-0.000762,-0.002304,0.000919,0.000000,-0.000000,0.000000
-1.480000,0.560000,1.020049,0.080000,-0.010492,-0.000939,-0.002199,0.000893,0.000000,-0.000000,0.000000
-1.400000,0.560000,1.100045,0.080000,-0.010083,-0.001099,-0.002104,0.000849,-0.000000,-0.000000,0.000000
-1.320000,0.560000,1.180042,0.080000,-0.009687,-0.001239,-0.002022,0.000791,-0.000000,-0.000000,0.000000
-1.240000,0.560000,1.260040,0.080000,-0.009304,-0.001361,-0.001953,0.000726,-0.000000,-0.000000,0.000000
-1.160000,0.560000,1.340037,0.080000,-0.008933,-0.001465,-0.001897,0.000656,-0.000000,-0.000000,0.000000
-1.080000,0.560000,1.420035,0.080000,-0.008575,-0.001553,-0.001852,0.000586,-0.000000,-0.000000,0.000000
-1.000000,0.560000,1.440868,0.080000,-0.008228,-0.001626,-0.001817,0.000517,-0.000000,-0.000000,0.000000
-0.920000,0.560000,1.440312,0.080000,-0.007894,-0.001687,-0.001791,0.000451,-0.000000,-0.000000,0.000000
-0.840000,0.560000,1.440035,0.080000,-0.007570,-0.001736,-0.001773,0.000390,-0.000000,-0.000000,0.000000
-0.760000,0.560000,1.440035,0.080000,-0.007258,-0.001775,-0.001760,0.000333,-0.000000,-0.000000,0.000000
-0.680000,0.560000,1.440312,0.080000,-0.006957,-0.001807,-0.001752,0.000282,-0.000000,-0.000000,0.000000
-0.600000,0.560000,1.440868,0.080000,-0.006668,-0.001832,-0.001748,0.000235,-0.000000,-0.000000,0.000000
-0.520000,0.560000,1.440312,0.080000,-0.006390,-0.001851,-0.001746,0.000194,-0.000000,-0.000000,0.000000
-0.440000,0.560000,1.440035,0.080000,-0.006122,-0.001866,-0.001746,0.000156,-0.000000,-0.000000,0.000000
-0.360000,0.560000,1.440035,0.080000,-0.005866,-0.001877,-0.001747,0.000122,-0.000000,-0.000000,0.000000
-0.280000,0.560000,1.440312,0.080000,-0.005622,-0.001885,-0.001749,0.000092,-0.000000,-0.000000,0.000000
-0.200000,0.560000,1.440868,0.080000,-0.005388,-0.001891,-0.001750,0.000064,-0.000000,-0.000000,0.000000
-0.120000,0.560000,1.440312,0.080000,-0.005166,-0.001894,-0.001751,0.000038,-0.000000,-0.000000,0.000000
-0.040000,0.560000,1.440035,0.080000,-0.004955,-0.001896,-0.001752,0.000012,-0.000000,-0.000000,0.000000
0.040000,0.560000,1.440035,0.080000,-0.004755,-0.001896,-0.001752,-0.000012,-0.000000,-0.000000,-0.000000
0.120000,0.560000,1.440312,0.080000,-0.004566,-0.001894,-0.001751,-0.000037,-0.000000,-0.000000,-0.000000
0.200000,0.560000,1.440868,0.080000,-0.004388,-0.001891,-0.001750,-0.000064,-0.000000,-0.000000,-0.000000
0.280000,0.560000,1.440312,0.080000,-0.004222,-0.001885,-0.001749,-0.000092,-0.000000,-0.000000,-0.000000
0.360000,0.560000,1.440035,0.080000,-0.004067,-0.001877,-0.001747,-0.000122,-0.000000,-0.000000,-0.000000
0.440000,0.560000,1.440035,0.080000,-0.003923,-0.001866,-0.001746,-0.000156,-0.000000,-0.000000,-0.000000
0.520000,0.560000,1.440312,0.080000,-0.003790,-0.001851,-0.001746,-0.000193,-0.000000,-0.000000,-0.000000
0.600000,0.560000,1.440868,0.080000,-0.003669,-0.001832,-0.001748,-0.000235,-0.000000,-0.000000,-0.000000
0.680000,0.560000,1.440312,0.080000,-0.003558,-0.001807,-0.001752,-0.000282,-0.000000,-0.000000,-0.000000
0.760000,0.560000,1.440035,0.080000,-0.003459,-0.001776,-0.001760,-0.000333,-0.000000,-0.000000,-0.000000
0.840000,0.560000,1.440035,0.080000,-0.003371,-0.001736,-0.001772,-0.000390,-0.000000,-0.000000,-0.000000
0.920000,0.560000,1.440312,0.080000,-0.003295,-0.001687,-0.001791,-0.000451,-0.000000,-0.000000,-0.000000
1.000000,0.560000,1.440868,0.080000,-0.003229,-0.001627,-0.001817,-0.000517,-0.000000,-0.000000,-0.000000
1.080000,0.560000,1.420035,0.080000,-0.003176,-0.001553,-0.001851,-0.000585,-0.000000,-0.000000,-0.000000
1.160000,0.560000,1.340037,0.080000,-0.003134,-0.001466,-0.001896,-0.000656,-0.000000,-0.000000,-0.000000
1.240000,0.560000,1.260040,0.080000,-0.003105,-0.001361,-0.001953,-0.000725,-0.000000,-0.000000,-0.000000
1.320000,0.560000,1.180042,0.080000,-0.003088,-0.001240,-0.002022,-0.000791,-0.000000,-0.000000,-0.000000
1.400000,0.560000,1.100045,0.080000,-0.003084,-0.001099,-0.002103,-0.000848,-0.000000,-0.000000,-0.000000
1.480000,0.560000,1.020049,0.080000,-0.003094,-0.000940,-0.002198,-0.000893,0.000000,-0.000000,-0.000000
1.560000,0.560000,0.940053,0.080000,-0.003117,-0.000763,-0.002303,-0.000918,0.000000,-0.000000,-0.000000
1.640000,0.560000,0.860058,0.080000,-0.003156,-0.000571,-0.002417,-0.000917,0.000000,-0.000000,-0.000000
1.720000,0.560000,0.780064,0.080000,-0.003210,-0.000368,-0.002534,-0.000884,0.000000,-0.000000,-0.000000
1.800000,0.560000,0.700071,0.080000,-0.003280,-0.000161,-0.002647,-0.000810,0.000000,-0.000000,-0.000000
1.880000,0.560000,0.620081,0.080000,-0.003367,0.000041,-0.002745,-0.000691,0.000000,-0.000000,-0.000000
1.960000,0.560000,0.540093,0.080000,-0.003472,0.000228,-0.002820,-0.000518,0.000000,-0.000000,-0.000000
2.040000,0.560000,0.460109,0.080000,-0.003594,0.000383,-0.002850,-0.000300,0.000000,-0.000000,-0.000000
2.120000,0.560000,0.380132,0.080000,-0.003735,0.000495,-0.002824,-0.000026,0.000000,-0.000000,-0.000000
-2.120000,0.640000,0.380132,0.080000,-0.014178,0.000825,-0.003156,0.000135,0.000000,-0.000000,0.000000
-2.040000,0.640000,0.460109,0.080000,-0.013638,0.000657,-0.003125,0.000465,0.000000,-0.000000,0.000000
-1.960000,0.640000,0.540093,0.080000,-0.013119,0.000443,-0.003035,0.000720,0.000000,-0.000000,0.000000
-1.880000,0.640000,0.620081,0.080000,-0.012619,0.000199,-0.002899,0.000915,0.000000,-0.000000,0.000000
-1.800000,0.640000,0.700071,0.080000,-0.012137,-0.000056,-0.002745,0.001042,0.000000,-0.000000,0.000000
-1.720000,0.640000,0.780064,0.080000,-0.011674,-0.000309,-0.002584,0.001111,0.000000,-0.000000,0.000000
-1.640000,0.640000,0.860058,0.080000,-0.011226,-0.000549,-0.002427,0.001133,0.000000,-0.000000,0.000000
-1.560000,0.640000,0.940053,0.080000,-0.010794,-0.000769,-0.002282,0.001116,0.000000,-0.000000,0.000000
-1.480000,0.640000,1.020049,0.080000,-0.010377,-0.000967,-0.002152,0.001070,-0.000000,-0.000000,0.000000
-1.400000,0.640000,1.100045,0.080000,-0.009974,-0.001139,-0.002042,0.001004,-0.000000,-0.000000,0.000000
-1.320000,0.640000,1.180042,0.080000,-0.009584,-0.001287,-0.001950,0.000925,-0.000000,-0.000000,0.000000
-1.240000,0.640000,1.260040,0.080000,-0.009206,-0.001412,-0.001875,0.000839,-0.000000,-0.000000,0.000000
-1.160000,0.640000,1.340037,0.080000,-0.008840,-0.001515,-0.001818,0.000751,-0.000000,-0.000000,0.000000
-1.080000,0.640000,1.360331,0.080000,-0.008486,-0.001600,-0.001774,0.000664,-0.000000,-0.000000,0.000000
-1.000000,0.640000,1.360919,0.080000,-0.008143,-0.001668,-0.001743,0.000581,-0.000000,-0.000000,0.000000
-0.920000,0.640000,1.360331,0.080000,-0.007812,-0.001722,-0.001722,0.000503,-0.000000,-0.000000,0.000000
-0.840000,0.640000,1.360037,0.080000,-0.007491,-0.001764,-0.001709,0.000431,-0.000000,-0.000000,0.000000
-0.760000,0.640000,1.360037,0.080000,-0.007182,-0.001796,-0.001702,0.000365,-0.000000,-0.000000,0.000000
-0.680000,0.640000,1.360331,0.080000,-0.006883,-0.001821,-0.001700,0.000307,-0.000000,-0.000000,0.000000
-0.600000,0.640000,1.360919,0.080000,-0.006595,-0.001839,-0.001701,0.000254,-0.000000,-0.000000,0.000000
-0.520000,0.640000,1.360331,0.080000,-0.006318,-0.001852,-0.001704,0.000208,-0.000000,-0.000000,0.000000
-0.440000,0.640000,1.360037,0.080000,-0.006052,-0.001862,-0.001709,0.000166,-0.000000,-0.000000,0.000000
-0.360000,0.640000,1.360037,0.080000,-0.005797,-0.001869,-0.001714,0.000130,-0.000000,-0.000000,0.000000
-0.280000,0.640000,1.360331,0.080000,-0.005553,-0.001873,-0.001718,0.000097,-0.000000,-0.000000,0.000000
-0.200000,0.640000,1.360919,0.080000,-0.005320,-0.001876,-0.001722,0.000067,-0.000000,-0.000000,0.000000
-0.120000,0.640000,1.360331,0.080000,-0.005098,-0.001878,-0.001725,0.000039,-0.000000,-0.000000,0.000000
-0.040000,0.640000,1.360037,0.080000,-0.004887,-0.001878,-0.001726,0.000013,-0.000000,-0.000000,0.000000
0.040000,0.640000,1.360037,0.080000,-0.004687,-0.001878,-0.001726,-0.000013,-0.000000,-0.000000,-0.000000
0.120000,0.640000,1.360331,0.080000,-0.004498,-0.001878,-0.001725,-0.000039,-0.000000,-0.000000,-0.000000
0.200000,0.640000,1.360919,0.080000,-0.004320,-0.001876,-0.001722,-0.000067,-0.000000,-0.000000,-0.000000
0.280000,0.640000,1.360331,0.080000,-0.004153,-0.001873,-0.001718,-0.000097,-0.000000,-0.000000,-0.000000
0.360000,0.640000,1.360037,0.080000,-0.003997,-0.001869,-0.001714,-0.000130,-0.000000,-0.000000,-0.000000
0.440000,0.640000,1.360037,0.080000,-0.003853,-0.001862,-0.001709,-0.000166,-0.000000,-0.000000,-0.000000
0.520000,0.640000,1.360331,0.080000,-0.003719,-0.001852,-0.001704,-0.000207,-0.000000,-0.000000,-0.000000
0.600000,0.640000,1.360919,0.080000,-0.003596,-0.001839,-0.001701,-0.000254,-0.000000,-0.000000,-0.000000
0.680000,0.640000,1.360331,0.080000,-0.003484,-0.001821,-0.001700,-0.000306,-0.000000,-0.000000,-0.000000
0.760000,0.640000,1.360037,0.080000,-0.003382,-0.001796,-0.001702,-0.000365,-0.000000,-0.000000,-0.000000
0.840000,0.640000,1.360037,0.080000,-0.003292,-0.001764,-0.001709,-0.000430,-0.000000,-0.000000,-0.000000
0.920000,0.640000,1.360331,0.080000,-0.003213,-0.001722,-0.001722,-0.000502,-0.000000,-0.000000,-0.000000
1.000000,0.640000,1.360919,0.080000,-0.003144,-0.001668,-0.001743,-0.000580,-0.000000,-0.000000,-0.000000
1.080000,0.640000,1.360331,0.080000,-0.003087,-0.001600,-0.001774,-0.000664,-0.000000,-0.000000,-0.000000
1.160000,0.640000,1.340037,0.080000,-0.003041,-0.001516,-0.001817,-0.000750,-0.000000,-0.000000,-0.000000
1.240000,0.640000,1.260040,0.080000,-0.003007,-0.001412,-0.001875,-0.000839,-0.000000,-0.000000,-0.000000
1.320000,0.640000,1.180042,0.080000,-0.002985,-0.001288,-0.001949,-0.000924,-0.000000,-0.000000,-0.000000
1.400000,0.640000,1.100045,0.080000,-0.002975,-0.001140,-0.002041,-0.001003,-0.000000,-0.000000,-0.000000
1.480000,0.640000,1.020049,0.080000,-0.002979,-0.000967,-0.002152,-0.001069,-0.000000,-0.000000,-0.000000
1.560000,0.640000,0.940053,0.080000,-0.002996,-0.000770,-0.002281,-0.001115,0.000000,-0.000000,-0.000000
1.640000,0.640000,0.860058,0.080000,-0.003028,-0.000550,-0.002426,-0.001132,0.000000,-0.000000,-0.000000
1.720000,0.640000,0.780064,0.080000,-0.003075,-0.000310,-0.002583,-0.001110,0.000000,-0.000000,-0.000000
1.800000,0.640000,0.700071,0.080000,-0.003139,-0.000058,-0.002743,-0.001041,0.000000,-0.000000,-0.000000
1.880000,0.640000,0.620081,0.080000,-0.003221,0.000197,-0.002897,-0.000914,0.000000,-0.000000,-0.000000
1.960000,0.640000,0.540093,0.080000,-0.003321,0.000441,-0.003033,-0.000719,0.000000,-0.000000,-0.000000
2.040000,0.640000,0.460109,0.080000,-0.003440,0.000656,-0.003123,-0.000464,0.000000,-0.000000,-0.000000
2.120000,0.640000,0.380132,0.080000,-0.003580,0.000823,-0.003154,-0.000135,0.000000,-0.000000,-0.000000
-2.120000,0.720000,0.381182,0.080000,-0.014017,0.001220,-0.003554,0.000306,0.000000,-0.000000,0.000000
-2.040000,0.720000,0.460977,0.080000,-0.013480,0.000977,-0.003446,0.000697,0.000000,-0.000000,0.000000
-1.960000,0.720000,0.540833,0.080000,-0.012965,0.000684,-0.003277,0.000988,0.000000,-0.000000,0.000000
-1.880000,0.720000,0.620725,0.080000,-0.012471,0.000365,-0.003061,0.001201,0.000000,-0.000000,0.000000
-1.800000,0.720000,0.700643,0.080000,-0.011997,0.000045,-0.002838,0.001327,0.000000,-0.000000,0.000000
-1.720000,0.720000,0.780577,0.080000,-0.011541,-0.000262,-0.002619,0.001383,0.000000,-0.000000,0.000000
-1.640000,0.720000,0.860523,0.080000,-0.011102,-0.000545,-0.002416,0.001382,0.000000,-0.000000,0.000000
-1.560000,0.720000,0.940479,0.080000,-0.010678,-0.000797,-0.002235,0.001338,0.000000,-0.000000,0.000000
-1.480000,0.720000,1.020441,0.080000,-0.010268,-0.001016,-0.002081,0.001264,-0.000000,-0.000000,0.000000
-1.400000,0.720000,1.100409,0.080000,-0.009872,-0.001202,-0.001954,0.001169,-0.000000,-0.000000,0.000000
-1.320000,0.720000,1.180381,0.080000,-0.009489,-0.001355,-0.001854,0.001063,-0.000000,-0.000000,0.000000
-1.240000,0.720000,1.260357,0.080000,-0.009117,-0.001480,-0.001776,0.000952,-0.000000,-0.000000,0.000000
-1.160000,0.720000,1.280039,0.080000,-0.008756,-0.001580,-0.001720,0.000842,-0.000000,-0.000000,0.000000
-1.080000,0.720000,1.280352,0.080000,-0.008407,-0.001658,-0.001680,0.000736,-0.000000,-0.000000,0.000000
-1.000000,0.720000,1.280976,0.080000,-0.008069,-0.001718,-0.001655,0.000637,-0.000000,-0.000000,0.000000
-0.920000,0.720000,1.280352,0.080000,-0.007741,-0.001763,-0.001641,0.000546,-0.000000,-0.000000,0.000000
-0.840000,0.720000,1.280039,0.080000,-0.007423,-0.001796,-0.001635,0.000463,-0.000000,-0.000000,0.000000
-0.760000,0.720000,1.280039,0.080000,-0.007116,-0.001819,-0.001636,0.000389,-0.000000,-0.000000,0.000000
-0.680000,0.720000,1.280352,0.080000,-0.006820,-0.001835,-0.001641,0.000324,-0.000000,-0.000000,0.000000
-0.600000,0.720000,1.280976,0.080000,-0.006534,-0.001846,-0.001649,0.000266,-0.000000,-0.000000,0.000000
-0.520000,0.720000,1.280352,0.080000,-0.006259,-0.001852,-0.001659,0.000216,-0.000000,-0.000000,0.000000
-0.440000,0.720000,1.280039,0.080000,-0.005994,-0.001855,-0.001669,0.000172,-0.000000,-0.000000,0.000000
-0.360000,0.720000,1.280039,0.080000,-0.005740,-0.001857,-0.001678,0.000133,-0.000000,-0.000000,0.000000
-0.280000,0.720000,1.280352,0.080000,-0.005496,-0.001857,-0.001687,0.000099,-0.000000,-0.000000,0.000000
-0.200000,0.720000,1.280976,0.080000,-0.005264,-0.001857,-0.001693,0.000068,-0.000000,-0.000000,0.000000
-0.120000,0.720000,1.280352,0.080000,-0.005042,-0.001856,-0.001698,0.000040,-0.000000,-0.000000,0.000000
-0.040000,0.720000,1.280039,0.080000,-0.004831,-0.001856,-0.001700,0.000013,-0.000000,-0.000000,0.000000
0.040000,0.720000,1.280039,0.080000,-0.004631,-0.001856,-0.001700,-0.000013,-0.000000,-0.000000,-0.000000
0.120000,0.720000,1.280352,0.080000,-0.004442,-0.001856,-0.001698,-0.000040,-0.000000,-0.000000,-0.000000
0.200000,0.720000,1.280976,0.080000,-0.004264,-0.001857,-0.001693,-0.000068,-0.000000,-0.000000,-0.000000
0.280000,0.720000,1.280352,0.080000,-0.004097,-0.001857,-0.001687,-0.000099,-0.000000,-0.000000,-0.000000
0.360000,0.720000,1.280039,0.080000,-0.003940,-0.001857,-0.001678,-0.000133,-0.000000,-0.000000,-0.000000
0.440000,0.720000,1.280039,0.080000,-0.003794,-0.001855,-0.001669,-0.000171,-0.000000,-0.000000,-0.000000
0.520000,0.720000,1.280352,0.080000,-0.003659,-0.001852,-0.001659,-0.000215,-0.000000,-0.000000,-0.000000
0.600000,0.720000,1.280976,0.080000,-0.003535,-0.001846,-0.001649,-0.000266,-0.000000,-0.000000,-0.000000
0.680000,0.720000,1.280352,0.080000,-0.003421,-0.001835,-0.001641,-0.000323,-0.000000,-0.000000,-0.000000
0.760000,0.720000,1.280039,0.080000,-0.003317,-0.001819,-0.001636,-0.000389,-0.000000,-0.000000,-0.000000
0.840000,0.720000,1.280039,0.080000,-0.003224,-0.001796,-0.001635,-0.000463,-0.000000,-0.000000,-0.000000
0.920000,0.720000,1.280352,0.080000,-0.003142,-0.001763,-0.001641,-0.000545,-0.000000,-0.000000,-0.000000
1.000000,0.720000,1.280976,0.080000,-0.003070,-0.001718,-0.001655,-0.000637,-0.000000,-0.000000,-0.000000
1.080000,0.720000,1.280352,0.080000,-0.003008,-0.001658,-0.001680,-0.000736,-0.000000,-0.000000,-0.000000
1.160000,0.720000,1.280039,0.080000,-0.002958,-0.001580,-0.001719,-0.000842,-0.000000,-0.000000,-0.000000
1.240000,0.720000,1.260357,0.080000,-0.002918,-0.001481,-0.001776,-0.000951,-0.000000,-0.000000,-0.000000
1.320000,0.720000,1.180381,0.080000,-0.002890,-0.001356,-0.001853,-0.001062,-0.000000,-0.000000,-0.000000
1.400000,0.720000,1.100409,0.080000,-0.002874,-0.001202,-0.001954,-0.001168,-0.000000,-0.000000,-0.000000
1.480000,0.720000,1.020441,0.080000,-0.002870,-0.001017,-0.002080,-0.001263,-0.000000,-0.000000,-0.000000
1.560000,0.720000,0.940479,0.080000,-0.002879,-0.000798,-0.002234,-0.001337,0.000000,-0.000000,-0.000000
1.640000,0.720000,0.860523,0.080000,-0.002903,-0.000546,-0.002415,-0.001381,0.000000,-0.000000,-0.000000
1.720000,0.720000,0.780577,0.080000,-0.002943,-0.000263,-0.002618,-0.001382,0.000000,-0.000000,-0.000000
1.800000,0.720000,0.700643,0.080000,-0.002999,0.000044,-0.002837,-0.001326,0.000000,-0.000000,-0.000000
1.880000,0.720000,0.620725,0.080000,-0.003073,0.000364,-0.003060,-0.001200,0.000000,-0.000000,-0.000000
1.960000,0.720000,0.540833,0.080000,-0.003167,0.000682,-0.003275,-0.000987,0.000000,-0.000000,-0.000000
2.040000,0.720000,0.460977,0.080000,-0.003282,0.000975,-0.003444,-0.000696,0.000000,-0.000000,-0.000000
2.120000,0.720000,0.381182,0.080000,-0.003419,0.001218,-0.003552,-0.000305,0.000000,-0.000000,-0.000000
-2.120000,0.800000,0.383275,0.080000,-0.013848,0.001692,-0.004032,0.000562,0.000000,-0.000000,0.000000
-2.040000,0.800000,0.462709,0.080000,-0.013316,0.001344,-0.003818,0.001020,0.000000,-0.000000,0.000000
-1.960000,0.800000,0.542310,0.080000,-0.012807,0.000948,-0.003543,0.001345,0.000000,-0.000000,0.000000
-1.880000,0.800000,0.622013,0.080000,-0.012322,0.000533,-0.003226,0.001566,0.000000,-0.000000,0.000000
-1.800000,0.800000,0.701783,0.080000,-0.011856,0.000132,-0.002917,0.001679,0.000000,-0.000000,0.000000
-1.720000,0.800000,0.781601,0.080000,-0.011410,-0.000240,-0.002629,0.001707,0.000000,-0.000000,0.000000
-1.640000,0.800000,0.861452,0.080000,-0.010981,-0.000571,-0.002373,0.001671,0.000000,-0.000000,0.000000
-1.560000,0.800000,0.941329,0.080000,-0.010566,-0.000857,-0.002154,0.001588,0.000000,-0.000000,0.000000
-1.480000,0.800000,1.021225,0.080000,-0.010166,-0.001096,-0.001976,0.001473,-0.000000,-0.000000,0.000000
-1.400000,0.800000,1.101136,0.080000,-0.009778,-0.001292,-0.001835,0.001341,-0.000000,-0.000000,0.000000
-1.320000,0.800000,1.181059,0.080000,-0.009402,-0.001448,-0.001729,0.001201,-0.000000,-0.000000,0.000000
-1.240000,0.800000,1.200042,0.080000,-0.009037,-0.001570,-0.001652,0.001061,-0.000000,-0.000000,0.000000
-1.160000,0.800000,1.200042,0.080000,-0.008683,-0.001662,-0.001600,0.000926,-0.000000,-0.000000,0.000000
-1.080000,0.800000,1.200375,0.080000,-0.008339,-0.001730,-0.001568,0.000800,-0.000000,-0.000000,0.000000
-1.000000,0.800000,1.201041,0.080000,-0.008005,-0.001778,-0.001552,0.000683,-0.000000,-0.000000,0.000000
-0.920000,0.800000,1.200375,0.080000,-0.007681,-0.001811,-0.001548,0.000578,-0.000000,-0.000000,0.000000
-0.840000,0.800000,1.200042,0.080000,-0.007367,-0.001832,-0.001552,0.000485,-0.000000,-0.000000,0.000000
-0.760000,0.800000,1.200042,0.080000,-0.007063,-0.001844,-0.001563,0.000403,-0.000000,-0.000000,0.000000
-0.680000,0.800000,1.200375,0.080000,-0.006769,-0.001850,-0.001577,0.000332,-0.000000,-0.000000,0.000000
-0.600000,0.800000,1.201041,0.080000,-0.006485,-0.001850,-0.001594,0.000270,-0.000000,-0.000000,0.000000
-0.520000,0.800000,1.200375,0.080000,-0.006211,-0.001848,-0.001611,0.000216,-0.000000,-0.000000,0.000000
-0.440000,0.800000,1.200042,0.080000,-0.005947,-0.001844,-0.001627,0.000171,-0.000000,-0.000000,0.000000
-0.360000,0.800000,1.200042,0.080000,-0.005694,-0.001840,-0.001642,0.000131,-0.000000,-0.000000,0.000000
-0.280000,0.800000,1.200375,0.080000,-0.005452,-0.001835,-0.001654,0.000097,-0.000000,-0.000000,0.000000
-0.200000,0.800000,1.201041,0.080000,-0.005220,-0.001831,-0.001664,0.000066,-0.000000,-0.000000,0.000000
-0.120000,0.800000,1.200375,0.080000,-0.004998,-0.001829,-0.001671,0.000039,-0.000000,-0.000000,0.000000
-0.040000,0.800000,1.200042,0.080000,-0.004788,-0.001827,-0.001674,0.000013,-0.000000,-0.000000,0.000000
0.040000,0.800000,1.200042,0.080000,-0.004588,-0.001827,-0.001674,-0.000013,-0.000000,-0.000000,-0.000000
0.120000,0.800000,1.200375,0.080000,-0.004398,-0.001829,-0.001671,-0.000039,-0.000000,-0.000000,-0.000000
0.200000,0.800000,1.201041,0.080000,-0.004220,-0.001831,-0.001664,-0.000066,-0.000000,-0.000000,-0.000000
0.280000,0.800000,1.200375,0.080000,-0.004052,-0.001835,-0.001654,-0.000097,-0.000000,-0.000000,-0.000000
0.360000,0.800000,1.200042,0.080000,-0.003895,-0.001840,-0.001642,-0.000131,-0.000000,-0.000000,-0.000000
0.440000,0.800000,1.200042,0.080000,-0.003748,-0.001844,-0.001627,-0.000170,-0.000000,-0.000000,-0.000000
0.520000,0.800000,1.200375,0.080000,-0.003611,-0.001848,-0.001611,-0.000216,-0.000000,-0.000000,-0.000000
0.600000,0.800000,1.201041,0.080000,-0.003485,-0.001850,-0.001594,-0.000269,-0.000000,-0.000000,-0.000000
0.680000,0.800000,1.200375,0.080000,-0.003370,-0.001850,-0.001577,-0.000331,-0.000000,-0.000000,-0.000000
0.760000,0.800000,1.200042,0.080000,-0.003264,-0.001844,-0.001563,-0.000403,-0.000000,-0.000000,-0.000000
0.840000,0.800000,1.200042,0.080000,-0.003168,-0.001832,-0.001552,-0.000485,-0.000000,-0.000000,-0.000000
0.920000,0.800000,1.200375,0.080000,-0.003082,-0.001811,-0.001548,-0.000578,-0.000000,-0.000000,-0.000000
1.000000,0.800000,1.201041,0.080000,-0.003006,-0.001778,-0.001552,-0.000683,-0.000000,-0.000000,-0.000000
1.080000,0.800000,1.200375,0.080000,-0.002940,-0.001730,-0.001568,-0.000799,-0.000000,-0.000000,-0.000000
1.160000,0.800000,1.200042,0.080000,-0.002884,-0.001662,-0.001600,-0.000925,-0.000000,-0.000000,-0.000000
1.240000,0.800000,1.200042,0.080000,-0.002839,-0.001570,-0.001652,-0.001060,-0.000000,-0.000000,-0.000000
1.320000,0.800000,1.181059,0.080000,-0.002804,-0.001448,-0.001728,-0.001200,-0.000000,-0.000000,-0.000000
1.400000,0.800000,1.101136,0.080000,-0.002780,-0.001292,-0.001835,-0.001340,-0.000000,-0.000000,-0.000000
1.480000,0.800000,1.021225,0.080000,-0.002768,-0.001097,-0.001975,-0.001472,-0.000000,-0.000000,-0.000000
1.560000,0.800000,0.941329,0.080000,-0.002768,-0.000858,-0.002154,-0.001586,0.000000,-0.000000,-0.000000
1.640000,0.800000,0.861452,0.080000,-0.002782,-0.000572,-0.002372,-0.001670,0.000000,-0.000000,-0.000000
1.720000,0.800000,0.781601,0.080000,-0.002812,-0.000241,-0.002628,-0.001706,0.000000,-0.000000,-0.000000
1.800000,0.800000,0.701783,0.080000,-0.002858,0.000131,-0.002916,-0.001677,0.000000,-0.000000,-0.000000
1.880000,0.800000,0.622013,0.080000,-0.002924,0.000532,-0.003224,-0.001564,0.000000,-0.000000,-0.000000
1.960000,0.800000,0.542310,0.080000,-0.003009,0.000946,-0.003541,-0.001344,0.000000,-0.000000,-0.000000
2.040000,0.800000,0.462709,0.080000,-0.003118,0.001342,-0.003816,-0.001019,0.000000,-0.000000,-0.000000
2.120000,0.800000,0.383275,0.080000,-0.003250,0.001689,-0.004030,-0.000562,0.000000,-0.000000,-0.000000
-2.120000,0.880000,0.381182,0.080000,-0.013669,0.002248,-0.004600,0.000938,0.000000,-0.000000,0.000000
-2.040000,0.880000,0.460977,0.080000,-0.013142,0.001758,-0.004240,0.001467,0.000000,-0.000000,0.000000
-1.960000,0.880000,0.540833,0.080000,-0.012643,0.001225,-0.003825,0.001817,0.000000,-0.000000,0.000000
-1.880000,0.880000,0.620725,0.080000,-0.012168,0.000689,-0.003378,0.002030,0.000000,-0.000000,0.000000
-1.800000,0.880000,0.700643,0.080000,-0.011715,0.000189,-0.002966,0.002111,0.000000,-0.000000,0.000000
-1.720000,0.880000,0.780577,0.080000,-0.011281,-0.000258,-0.002597,0.002092,0.000000,-0.000000,0.000000
-1.640000,0.880000,0.860523,0.080000,-0.010863,-0.000641,-0.002283,0.002001,0.000000,-0.000000,0.000000
-1.560000,0.880000,0.940479,0.080000,-0.010460,-0.000960,-0.002027,0.001863,-0.000000,-0.000000,0.000000
-1.480000,0.880000,1.020441,0.080000,-0.010071,-0.001217,-0.001826,0.001696,-0.000000,-0.000000,0.000000
-1.400000,0.880000,1.100409,0.080000,-0.009693,-0.001418,-0.001676,0.001517,-0.000000,-0.000000,0.000000
-1.320000,0.880000,1.120402,0.080000,-0.009325,-0.001571,-0.001569,0.001336,-0.000000,-0.000000,0.000000
-1.240000,0.880000,1.120045,0.080000,-0.008968,-0.001683,-0.001498,0.001162,-0.000000,-0.000000,0.000000
-1.160000,0.880000,1.120045,0.080000,-0.008620,-0.001762,-0.001456,0.000999,-0.000000,-0.000000,0.000000
-1.080000,0.880000,1.120402,0.080000,-0.008282,-0.001815,-0.001436,0.000850,-0.000000,-0.000000,0.000000
-1.000000,0.880000,1.121116,0.080000,-0.007953,-0.001848,-0.001433,0.000716,-0.000000,-0.000000,0.000000
-0.920000,0.880000,1.120402,0.080000,-0.007633,-0.001866,-0.001443,0.000597,-0.000000,-0.000000,0.000000
-0.840000,0.880000,1.120045,0.080000,-0.007323,-0.001872,-0.001460,0.000494,-0.000000,-0.000000,0.000000
-0.760000,0.880000,1.120045,0.080000,-0.007021,-0.001870,-0.001483,0.000405,-0.000000,-0.000000,0.000000
-0.680000,0.880000,1.120402,0.080000,-0.006729,-0.001863,-0.001509,0.000329,-0.000000,-0.000000,0.000000
-0.600000,0.880000,1.121116,0.080000,-0.006447,-0.001852,-0.001535,0.000264,-0.000000,-0.000000,0.000000
-0.520000,0.880000,1.120402,0.080000,-0.006175,-0.001840,-0.001561,0.000209,-0.000000,-0.000000,0.000000
-0.440000,0.880000,1.120045,0.080000,-0.005913,-0.001828,-0.001584,0.000163,-0.000000,-0.000000,0.000000
-0.360000,0.880000,1.120045,0.080000,-0.005661,-0.001817,-0.001605,0.000123,-0.000000,-0.000000,0.000000
-0.280000,0.880000,1.120402,0.080000,-0.005419,-0.001807,-0.001623,0.000090,-0.000000,-0.000000,0.000000
-0.200000,0.880000,1.121116,0.080000,-0.005187,-0.001799,-0.001636,0.000061,-0.000000,-0.000000,0.000000
-0.120000,0.880000,1.120402,0.080000,-0.004966,-0.001794,-0.001645,0.000036,-0.000000,-0.000000,0.000000
-0.040000,0.880000,1.120045,0.080000,-0.004756,-0.001791,-0.001650,0.000012,-0.000000,-0.000000,0.000000
0.040000,0.880000,1.120045,0.080000,-0.004556,-0.001791,-0.001650,-0.000012,-0.000000,-0.000000,-0.000000
0.120000,0.880000,1.120402,0.080000,-0.004366,-0.001794,-0.001645,-0.000035,-0.000000,-0.000000,-0.000000
0.200000,0.880000,1.121116,0.080000,-0.004187,-0.001799,-0.001636,-0.000061,-0.000000,-0.000000,-0.000000
0.280000,0.880000,1.120402,0.080000,-0.004019,-0.001807,-0.001623,-0.000090,-0.000000,-0.000000,-0.000000
0.360000,0.880000,1.120045,0.080000,-0.003861,-0.001817,-0.001605,-0.000123,-0.000000,-0.000000,-0.000000
0.440000,0.880000,1.120045,0.080000,-0.003713,-0.001828,-0.001584,-0.000162,-0.000000,-0.000000,-0.000000
0.520000,0.880000,1.120402,0.080000,-0.003576,-0.001840,-0.001561,-0.000209,-0.000000,-0.000000,-0.000000
0.600000,0.880000,1.121116,0.080000,-0.003448,-0.001852,-0.001535,-0.000263,-0.000000,-0.000000,-0.000000
0.680000,0.880000,1.120402,0.080000,-0.003330,-0.001863,-0.001509,-0.000328,-0.000000,-0.000000,-0.000000
0.760000,0.880000,1.120045,0.080000,-0.003222,-0.001870,-0.001483,-0.000405,-0.000000,-0.000000,-0.000000
0.840000,0.880000,1.120045,0.080000,-0.003123,-0.001872,-0.001460,-0.000494,-0.000000,-0.000000,-0.000000
0.920000,0.880000,1.120402,0.080000,-0.003034,-0.001866,-0.001443,-0.000597,-0.000000,-0.000000,-0.000000
1.000000,0.880000,1.121116,0.080000,-0.002954,-0.001848,-0.001433,-0.000715,-0.000000,-0.000000,-0.000000
1.080000,0.880000,1.120402,0.080000,-0.002883,-0.001815,-0.001436,-0.000849,-0.000000,-0.000000,-0.000000
1.160000,0.880000,1.120045,0.080000,-0.002822,-0.001762,-0.001456,-0.000998,-0.000000,-0.000000,-0.000000
1.240000,0.880000,1.120045,0.080000,-0.002769,-0.001683,-0.001498,-0.001161,-0.000000,-0.000000,-0.000000
1.320000,0.880000,1.120402,0.080000,-0.002727,-0.001571,-0.001569,-0.001335,-0.000000,-0.000000,-0.000000
1.400000,0.880000,1.100409,0.080000,-0.002694,-0.001418,-0.001676,-0.001516,-0.000000,-0.000000,-0.000000
1.480000,0.880000,1.020441,0.080000,-0.002672,-0.001218,-0.001826,-0.001695,-0.000000,-0.000000,-0.000000
1.560000,0.880000,0.940479,0.080000,-0.002662,-0.000961,-0.002026,-0.001861,-0.000000,-0.000000,-0.000000
1.640000,0.880000,0.860523,0.080000,-0.002665,-0.000642,-0.002282,-0.002000,0.000000,-0.000000,-0.000000
1.720000,0.880000,0.780577,0.080000,-0.002683,-0.000259,-0.002596,-0.002090,0.000000,-0.000000,-0.000000
1.800000,0.880000,0.700643,0.080000,-0.002717,0.000188,-0.002964,-0.002109,0.000000,-0.000000,-0.000000
1.880000,0.880000,0.620725,0.080000,-0.002770,0.000687,-0.003376,-0.002028,0.000000,-0.000000,-0.000000
1.960000,0.880000,0.540833,0.080000,-0.002845,0.001223,-0.003823,-0.001815,0.000000,-0.000000,-0.000000
2.040000,0.880000,0.460977,0.080000,-0.002945,0.001756,-0.004238,-0.001465,0.000000,-0.000000,-0.000000
2.120000,0.880000,0.381182,0.080000,-0.003071,0.002245,-0.004598,-0.000937,0.000000,-0.000000,-0.000000
-2.120000,0.960000,0.380132,0.080000,-0.013475,0.002898,-0.005268,0.001482,0.000000,-0.000000,0.000000
-2.040000,0.960000,0.460109,0.080000,-0.012958,0.002211,-0.004706,0.002078,0.000000,-0.000000,0.000000
-1.960000,0.960000,0.540093,0.080000,-0.012471,0.001497,-0.004105,0.002437,0.000000,-0.000000,0.000000
-1.880000,0.960000,0.620081,0.080000,-0.012011,0.000808,-0.003494,0.002616,0.000000,-0.000000,0.000000
-1.800000,0.960000,0.700071,0.080000,-0.011572,0.000192,-0.002959,0.002635,0.000000,-0.000000,0.000000
-1.720000,0.960000,0.780064,0.080000,-0.011153,-0.000338,-0.002501,0.002542,0.000000,-0.000000,0.000000
-1.640000,0.960000,0.860058,0.080000,-0.010750,-0.000775,-0.002127,0.002373,0.000000,-0.000000,0.000000
-1.560000,0.960000,0.940053,0.080000,-0.010361,-0.001123,-0.001837,0.002159,-0.000000,-0.000000,0.000000
-1.480000,0.960000,1.020049,0.080000,-0.009983,-0.001390,-0.001621,0.001926,-0.000000,-0.000000,0.000000
-1.400000,0.960000,1.041201,0.080000,-0.009616,-0.001588,-0.001469,0.001689,-0.000000,-0.000000,0.000000
-1.320000,0.960000,1.040433,0.080000,-0.009258,-0.001729,-0.001369,0.001460,-0.000000,-0.000000,0.000000
-1.240000,0.960000,1.040048,0.080000,-0.008909,-0.001824,-0.001312,0.001247,-0.000000,-0.000000,0.000000
-1.160000,0.960000,1.040048,0.080000,-0.008569,-0.001884,-0.001286,0.001054,-0.000000,-0.000000,0.000000
-1.080000,0.960000,1.040433,0.080000,-0.008237,-0.001916,-0.001284,0.000881,-0.000000,-0.000000,0.000000
-1.000000,0.960000,1.041201,0.080000,-0.007913,-0.001928,-0.001300,0.000730,-0.000000,-0.000000,0.000000
-0.920000,0.960000,1.040433,0.080000,-0.007597,-0.001925,-0.001327,0.000599,-0.000000,-0.000000,0.000000
-0.840000,0.960000,1.040048,0.080000,-0.007290,-0.001913,-0.001361,0.000487,-0.000000,-0.000000,0.000000
-0.760000,0.960000,1.040048,0.080000,-0.006992,-0.001895,-0.001398,0.000392,-0.000000,-0.000000,0.000000
-0.680000,0.960000,1.040433,0.080000,-0.006702,-0.001873,-0.001437,0.000313,-0.000000,-0.000000,0.000000
-0.600000,0.960000,1.041201,0.080000,-0.006422,-0.001850,-0.001475,0.000246,-0.000000,-0.000000,0.000000
-0.520000,0.960000,1.040433,0.080000,-0.006151,-0.001827,-0.001511,0.000192,-0.000000,-0.000000,0.000000
-0.440000,0.960000,1.040048,0.080000,-0.005890,-0.001805,-0.001543,0.000147,-0.000000,-0.000000,0.000000
-0.360000,0.960000,1.040048,0.080000,-0.005638,-0.001787,-0.001570,0.000109,-0.000000,-0.000000,0.000000
-0.280000,0.960000,1.040433,0.080000,-0.005397,-0.001771,-0.001593,0.000079,-0.000000,-0.000000,0.000000
-0.200000,0.960000,1.041201,0.080000,-0.005166,-0.001759,-0.001610,0.000053,-0.000000,-0.000000,0.000000
-0.120000,0.960000,1.040433,0.080000,-0.004945,-0.001750,-0.001622,0.000030,-0.000000,-0.000000,0.000000
-0.040000,0.960000,1.040048,0.080000,-0.004735,-0.001746,-0.001628,0.000010,-0.000000,-0.000000,0.000000
0.040000,0.960000,1.040048,0.080000,-0.004535,-0.001746,-0.001628,-0.000010,-0.000000,-0.000000,-0.000000
0.120000,0.960000,1.040433,0.080000,-0.004346,-0.001750,-0.001622,-0.000030,-0.000000,-0.000000,-0.000000
0.200000,0.960000,1.041201,0.080000,-0.004166,-0.001759,-0.001610,-0.000053,-0.000000,-0.000000,-0.000000
0.280000,0.960000,1.040433,0.080000,-0.003998,-0.001771,-0.001593,-0.000079,-0.000000,-0.000000,-0.000000
0.360000,0.960000,1.040048,0.080000,-0.003839,-0.001787,-0.001570,-0.000109,-0.000000,-0.000000,-0.000000
0.440000,0.960000,1.040048,0.080000,-0.003690,-0.001805,-0.001543,-0.000146,-0.000000,-0.000000,-0.000000
0.520000,0.960000,1.040433,0.080000,-0.003552,-0.001827,-0.001511,-0.000191,-0.000000,-0.000000,-0.000000
0.600000,0.960000,1.041201,0.080000,-0.003422,-0.001849,-0.001475,-0.000246,-0.000000,-0.000000,-0.000000
0.680000,0.960000,1.040433,0.080000,-0.003303,-0.001873,-0.001437,-0.000312,-0.000000,-0.000000,-0.000000
0.760000,0.960000,1.040048,0.080000,-0.003192,-0.001894,-0.001398,-0.000392,-0.000000,-0.000000,-0.000000
0.840000,0.960000,1.040048,0.080000,-0.003091,-0.001913,-0.001361,-0.000487,-0.000000,-0.000000,-0.000000
0.920000,0.960000,1.040433,0.080000,-0.002998,-0.001925,-0.001327,-0.000599,-0.000000,-0.000000,-0.000000
1.000000,0.960000,1.041201,0.080000,-0.002914,-0.001928,-0.001300,-0.000730,-0.000000,-0.000000,-0.000000
1.080000,0.960000,1.040433,0.080000,-0.002838,-0.001916,-0.001285,-0.000881,-0.000000,-0.000000,-0.000000
1.160000,0.960000,1.040048,0.080000,-0.002770,-0.001884,-0.001286,-0.001053,-0.000000,-0.000000,-0.000000
1.240000,0.960000,1.040048,0.080000,-0.002711,-0.001824,-0.001312,-0.001247,-0.000000,-0.000000,-0.000000
1.320000,0.960000,1.040433,0.080000,-0.002660,-0.001729,-0.001369,-0.001459,-0.000000,-0.000000,-0.000000
1.400000,0.960000,1.041201,0.080000,-0.002618,-0.001588,-0.001469,-0.001688,-0.000000,-0.000000,-0.000000
1.480000,0.960000,1.020049,0.080000,-0.002585,-0.001390,-0.001621,-0.001924,-0.000000,-0.000000,-0.000000
1.560000,0.960000,0.940053,0.080000,-0.002563,-0.001123,-0.001836,-0.002158,-0.000000,-0.000000,-0.000000
1.640000,0.960000,0.860058,0.080000,-0.002552,-0.000776,-0.002127,-0.002371,0.000000,-0.000000,-0.000000
1.720000,0.960000,0.780064,0.080000,-0.002555,-0.000339,-0.002500,-0.002540,0.000000,-0.000000,-0.000000
1.800000,0.960000,0.700071,0.080000,-0.002575,0.000190,-0.002957,-0.002633,0.000000,-0.000000,-0.000000
1.880000,0.960000,0.620081,0.080000,-0.002613,0.000806,-0.003492,-0.002614,0.000000,-0.000000,-0.000000
1.960000,0.960000,0.540093,0.080000,-0.002674,0.001495,-0.004103,-0.002435,0.000000,-0.000000,-0.000000
2.040000,0.960000,0.460109,0.080000,-0.002760,0.002209,-0.004703,-0.002076,0.000000,-0.000000,-0.000000
2.120000,0.960000,0.380132,0.080000,-0.002877,0.002894,-0.005265,-0.001480,0.000000,-0.000000,-0.000000
-2.120000,1.040000,0.380132,0.080000,-0.013262,0.003642,-0.006040,0.002262,0.000000,-0.000000,0.000000
-2.040000,1.040000,0.460109,0.080000,-0.012759,0.002684,-0.005198,0.002912,0.000000,-0.000000,0.000000
-1.960000,1.040000,0.540093,0.080000,-0.012290,0.001734,-0.004353,0.003247,0.000000,-0.000000,0.000000
-1.880000,1.040000,0.620081,0.080000,-0.011848,0.000856,-0.003539,0.003349,0.000000,-0.000000,0.000000
-1.800000,1.040000,0.700071,0.080000,-0.011429,0.000105,-0.002862,0.003265,0.000000,-0.000000,0.000000
-1.720000,1.040000,0.780064,0.080000,-0.011028,-0.000512,-0.002309,0.003058,0.000000,-0.000000,0.000000
-1.640000,1.040000,0.860058,0.080000,-0.010642,-0.000996,-0.001881,0.002780,-0.000000,-0.000000,0.000000
-1.560000,1.040000,0.940053,0.080000,-0.010268,-0.001363,-0.001566,0.002469,-0.000000,-0.000000,0.000000
-1.480000,1.040000,0.960469,0.080000,-0.009905,-0.001628,-0.001346,0.002152,-0.000000,-0.000000,0.000000
-1.400000,1.040000,0.961301,0.080000,-0.009550,-0.001810,-0.001205,0.001847,-0.000000,-0.000000,0.000000
-1.320000,1.040000,0.960469,0.080000,-0.009203,-0.001928,-0.001124,0.001564,-0.000000,-0.000000,0.000000
-1.240000,1.040000,0.960052,0.080000,-0.008863,-0.001995,-0.001090,0.001309,-0.000000,-0.000000,0.000000
-1.160000,1.040000,0.960052,0.080000,-0.008530,-0.002026,-0.001090,0.001084,-0.000000,-0.000000,0.000000
-1.080000,1.040000,0.960469,0.080000,-0.008204,-0.002030,-0.001113,0.000889,-0.000000,-0.000000,0.000000
-1.000000,1.040000,0.961301,0.080000,-0.007885,-0.002015,-0.001152,0.000722,-0.000000,-0.000000,0.000000
-0.920000,1.040000,0.960469,0.080000,-0.007573,-0.001988,-0.001201,0.000580,-0.000000,-0.000000,0.000000
-0.840000,1.040000,0.960052,0.080000,-0.007270,-0.001954,-0.001255,0.000461,-0.000000,-0.000000,0.000000
-0.760000,1.040000,0.960052,0.080000,-0.006974,-0.001917,-0.001310,0.000363,-0.000000,-0.000000,0.000000
-0.680000,1.040000,0.960469,0.080000,-0.006687,-0.001878,-0.001364,0.000282,-0.000000,-0.000000,0.000000
-0.600000,1.040000,0.961301,0.080000,-0.006408,-0.001840,-0.001415,0.000217,-0.000000,-0.000000,0.000000
-0.520000,1.040000,0.960469,0.080000,-0.006139,-0.001805,-0.001462,0.000164,-0.000000,-0.000000,0.000000
-0.440000,1.040000,0.960052,0.080000,-0.005878,-0.001774,-0.001503,0.000122,-0.000000,-0.000000,0.000000
-0.360000,1.040000,0.960052,0.080000,-0.005628,-0.001747,-0.001539,0.000088,-0.000000,-0.000000,0.000000
-0.280000,1.040000,0.960469,0.080000,-0.005387,-0.001725,-0.001567,0.000062,-0.000000,-0.000000,0.000000
-0.200000,1.040000,0.961301,0.080000,-0.005156,-0.001708,-0.001589,0.000041,-0.000000,-0.000000,0.000000
-0.120000,1.040000,0.960469,0.080000,-0.004936,-0.001697,-0.001603,0.000023,-0.000000,-0.000000,0.000000
-0.040000,1.040000,0.960052,0.080000,-0.004726,-0.001691,-0.001611,0.000007,-0.000000,-0.000000,0.000000
0.040000,1.040000,0.960052,0.080000,-0.004526,-0.001691,-0.001611,-0.000007,-0.000000,-0.000000,-0.000000
0.120000,1.040000,0.960469,0.080000,-0.004336,-0.001697,-0.001603,-0.000023,-0.000000,-0.000000,-0.000000
0.200000,1.040000,0.961301,0.080000,-0.004157,-0.001708,-0.001589,-0.000041,-0.000000,-0.000000,-0.000000
0.280000,1.040000,0.960469,0.080000,-0.003987,-0.001725,-0.001567,-0.000062,-0.000000,-0.000000,-0.000000
0.360000,1.040000,0.960052,0.080000,-0.003828,-0.001747,-0.001539,-0.000088,-0.000000,-0.000000,-0.000000
0.440000,1.040000,0.960052,0.080000,-0.003679,-0.001774,-0.001503,-0.000122,-0.000000,-0.000000,-0.000000
0.520000,1.040000,0.960469,0.080000,-0.003539,-0.001805,-0.001462,-0.000164,-0.000000,-0.000000,-0.000000
0.600000,1.040000,0.961301,0.080000,-0.003409,-0.001840,-0.001416,-0.000216,-0.000000,-0.000000,-0.000000
0.680000,1.040000,0.960469,0.080000,-0.003287,-0.001878,-0.001365,-0.000282,-0.000000,-0.000000,-0.000000
0.760000,1.040000,0.960052,0.080000,-0.003175,-0.001916,-0.001310,-0.000363,-0.000000,-0.000000,-0.000000
0.840000,1.040000,0.960052,0.080000,-0.003071,-0.001954,-0.001255,-0.000461,-0.000000,-0.000000,-0.000000
0.920000,1.040000,0.960469,0.080000,-0.002975,-0.001988,-0.001201,-0.000579,-0.000000,-0.000000,-0.000000
1.000000,1.040000,0.961301,0.080000,-0.002886,-0.002015,-0.001152,-0.000721,-0.000000,-0.000000,-0.000000
1.080000,1.040000,0.960469,0.080000,-0.002805,-0.002030,-0.001113,-0.000888,-0.000000,-0.000000,-0.000000
1.160000,1.040000,0.960052,0.080000,-0.002731,-0.002026,-0.001090,-0.001084,-0.000000,-0.000000,-0.000000
1.240000,1.040000,0.960052,0.080000,-0.002664,-0.001995,-0.001090,-0.001308,-0.000000,-0.000000,-0.000000
1.320000,1.040000,0.960469,0.080000,-0.002604,-0.001928,-0.001124,-0.001563,-0.000000,-0.000000,-0.000000
1.400000,1.040000,0.961301,0.080000,-0.002551,-0.001810,-0.001205,-0.001846,-0.000000,-0.000000,-0.000000
1.480000,1.040000,0.960469,0.080000,-0.002507,-0.001628,-0.001346,-0.002151,-0.000000,-0.000000,-0.000000
1.560000,1.040000,0.940053,0.080000,-0.002470,-0.001363,-0.001566,-0.002468,-0.000000,-0.000000,-0.000000
1.640000,1.040000,0.860058,0.080000,-0.002444,-0.000997,-0.001881,-0.002778,-0.000000,-0.000000,-0.000000
1.720000,1.040000,0.780064,0.080000,-0.002430,-0.000512,-0.002309,-0.003056,0.000000,-0.000000,-0.000000
1.800000,1.040000,0.700071,0.080000,-0.002431,0.000104,-0.002861,-0.003262,0.000000,-0.000000,-0.000000
1.880000,1.040000,0.620081,0.080000,-0.002450,0.000854,-0.003538,-0.003347,0.000000,-0.000000,-0.000000
1.960000,1.040000,0.540093,0.080000,-0.002492,0.001731,-0.004350,-0.003244,0.000000,-0.000000,-0.000000
2.040000,1.040000,0.460109,0.080000,-0.002562,0.002681,-0.005195,-0.002910,0.000000,-0.000000,-0.000000
2.120000,1.040000,0.380132,0.080000,-0.002665,0.003638,-0.006036,-0.002260,0.000000,-0.000000,-0.000000
-2.120000,1.120000,0.381182,0.080000,-0.013026,0.004470,-0.006908,0.003379,0.000000,-0.000000,0.000000
-2.040000,1.120000,0.460977,0.080000,-0.012544,0.003138,-0.005678,0.004045,0.000000,-0.000000,0.000000
-1.960000,1.120000,0.540833,0.080000,-0.012097,0.001881,-0.004517,0.004295,0.000000,-0.000000,0.000000
-1.880000,1.120000,0.620725,0.080000,-0.011680,0.000777,-0.003460,0.004254,0.000000,-0.000000,0.000000
-1.800000,1.120000,0.700643,0.080000,-0.011284,-0.000119,-0.002627,0.004005,0.000000,-0.000000,0.000000
-1.720000,1.120000,0.780577,0.080000,-0.010906,-0.000816,-0.001984,0.003636,0.000000,-0.000000,0.000000
-1.640000,1.120000,0.860523,0.080000,-0.010540,-0.001334,-0.001515,0.003211,-0.000000,-0.000000,0.000000
-1.560000,1.120000,0.880057,0.080000,-0.010185,-0.001699,-0.001193,0.002777,-0.000000,-0.000000,0.000000
-1.480000,1.120000,0.880511,0.080000,-0.009837,-0.001943,-0.000989,0.002360,-0.000000,-0.000000,0.000000
-1.400000,1.120000,0.881419,0.080000,-0.009495,-0.002091,-0.000876,0.001977,-0.000000,0.000000,0.000000
-1.320000,1.120000,0.880511,0.080000,-0.009159,-0.002170,-0.000829,0.001635,-0.000000,0.000000,0.000000
-1.240000,1.120000,0.880057,0.080000,-0.008829,-0.002197,-0.000832,0.001337,-0.000000,0.000000,0.000000
-1.160000,1.120000,0.880057,0.080000,-0.008503,-0.002188,-0.000867,0.001082,-0.000000,0.000000,0.000000
-1.080000,1.120000,0.880511,0.080000,-0.008184,-0.002156,-0.000923,0.000865,-0.000000,0.000000,0.000000
-1.000000,1.120000,0.881419,0.080000,-0.007870,-0.002108,-0.000993,0.000685,-0.000000,-0.000000,0.000000
-0.920000,1.120000,0.880511,0.080000,-0.007563,-0.002052,-0.001068,0.000535,-0.000000,-0.000000,0.000000
-0.840000,1.120000,0.880057,0.080000,-0.007262,-0.001993,-0.001146,0.000413,-0.000000,-0.000000,0.000000
-0.760000,1.120000,0.880057,0.080000,-0.006969,-0.001933,-0.001221,0.000314,-0.000000,-0.000000,0.000000
-0.680000,1.120000,0.880511,0.080000,-0.006683,-0.001876,-0.001293,0.000235,-0.000000,-0.000000,0.000000
-0.600000,1.120000,0.881419,0.080000,-0.006406,-0.001822,-0.001359,0.000173,-0.000000,-0.000000,0.000000
-0.520000,1.120000,0.880511,0.080000,-0.006138,-0.001774,-0.001417,0.000125,-0.000000,-0.000000,0.000000
-0.440000,1.120000,0.880057,0.080000,-0.005878,-0.001732,-0.001469,0.000088,-0.000000,-0.000000,0.000000
-0.360000,1.120000,0.880057,0.080000,-0.005628,-0.001697,-0.001512,0.000060,-0.000000,-0.000000,0.000000
-0.280000,1.120000,0.880511,0.080000,-0.005388,-0.001668,-0.001546,0.000040,-0.000000,-0.000000,0.000000
-0.200000,1.120000,0.881419,0.080000,-0.005158,-0.001646,-0.001573,0.000025,-0.000000,-0.000000,0.000000
-0.120000,1.120000,0.880511,0.080000,-0.004937,-0.001632,-0.001590,0.000013,-0.000000,-0.000000,0.000000
-0.040000,1.120000,0.880057,0.080000,-0.004727,-0.001624,-0.001599,0.000004,-0.000000,-0.000000,0.000000
0.040000,1.120000,0.880057,0.080000,-0.004527,-0.001624,-0.001599,-0.000004,-0.000000,-0.000000,-0.000000
0.120000,1.120000,0.880511,0.080000,-0.004337,-0.001632,-0.001590,-0.000013,-0.000000,-0.000000,-0.000000
0.200000,1.120000,0.881419,0.080000,-0.004158,-0.001646,-0.001573,-0.000024,-0.000000,-0.000000,-0.000000
0.280000,1.120000,0.880511,0.080000,-0.003988,-0.001668,-0.001546,-0.000040,-0.000000,-0.000000,-0.000000
0.360000,1.120000,0.880057,0.080000,-0.003829,-0.001697,-0.001512,-0.000060,-0.000000,-0.000000,-0.000000
0.440000,1.120000,0.880057,0.080000,-0.003679,-0.001732,-0.001469,-0.000088,-0.000000,-0.000000,-0.000000
0.520000,1.120000,0.880511,0.080000,-0.003538,-0.001774,-0.001418,-0.000125,-0.000000,-0.000000,-0.000000
0.600000,1.120000,0.881419,0.080000,-0.003407,-0.001822,-0.001359,-0.000173,-0.000000,-0.000000,-0.000000
0.680000,1.120000,0.880511,0.080000,-0.003284,-0.001875,-0.001293,-0.000235,-0.000000,-0.000000,-0.000000
0.760000,1.120000,0.880057,0.080000,-0.003170,-0.001933,-0.001222,-0.000314,-0.000000,-0.000000,-0.000000
0.840000,1.120000,0.880057,0.080000,-0.003063,-0.001992,-0.001146,-0.000413,-0.000000,-0.000000,-0.000000
0.920000,1.120000,0.880511,0.080000,-0.002964,-0.002052,-0.001069,-0.000535,-0.000000,-0.000000,-0.000000
1.000000,1.120000,0.881419,0.080000,-0.002871,-0.002108,-0.000993,-0.000684,-0.000000,-0.000000,-0.000000
1.080000,1.120000,0.880511,0.080000,-0.002785,-0.002155,-0.000924,-0.000865,-0.000000,0.000000,-0.000000
1.160000,1.120000,0.880057,0.080000,-0.002705,-0.002188,-0.000867,-0.001081,-0.000000,0.000000,-0.000000
1.240000,1.120000,0.880057,0.080000,-0.002630,-0.002196,-0.000832,-0.001336,-0.000000,0.000000,-0.000000
1.320000,1.120000,0.880511,0.080000,-0.002561,-0.002169,-0.000830,-0.001634,-0.000000,0.000000,-0.000000
1.400000,1.120000,0.881419,0.080000,-0.002497,-0.002091,-0.000876,-0.001975,-0.000000,0.000000,-0.000000
1.480000,1.120000,0.880511,0.080000,-0.002439,-0.001942,-0.000989,-0.002358,-0.000000,-0.000000,-0.000000
1.560000,1.120000,0.880057,0.080000,-0.002387,-0.001699,-0.001193,-0.002775,-0.000000,-0.000000,-0.000000
1.640000,1.120000,0.860523,0.080000,-0.002343,-0.001334,-0.001515,-0.003209,-0.000000,-0.000000,-0.000000
1.720000,1.120000,0.780577,0.080000,-0.002308,-0.000817,-0.001984,-0.003633,0.000000,-0.000000,-0.000000
1.800000,1.120000,0.700643,0.080000,-0.002287,-0.000120,-0.002626,-0.004002,0.000000,-0.000000,-0.000000
1.880000,1.120000,0.620725,0.080000,-0.002282,0.000776,-0.003458,-0.004251,0.000000,-0.000000,-0.000000
1.960000,1.120000,0.540833,0.080000,-0.002300,0.001879,-0.004514,-0.004292,0.000000,-0.000000,-0.000000
2.040000,1.120000,0.460977,0.080000,-0.002346,0.003135,-0.005675,-0.004042,0.000000,-0.000000,-0.000000
2.120000,1.120000,0.381182,0.080000,-0.002429,0.004466,-0.006904,-0.003376,0.000000,-0.000000,-0.000000
-2.120000,1.200000,0.383275,0.080000,-0.012762,0.005341,-0.007837,0.004973,0.000000,-0.000000,0.000000
-2.040000,1.200000,0.462709,0.080000,-0.012308,0.003497,-0.006074,0.005574,0.000000,-0.000000,0.000000
-1.960000,1.200000,0.542310,0.080000,-0.011893,0.001854,-0.004511,0.005636,0.000000,-0.000000,0.000000
-1.880000,1.200000,0.622013,0.080000,-0.011507,0.000494,-0.003176,0.005348,0.000000,-0.000000,0.000000
-1.800000,1.200000,0.701783,0.080000,-0.011141,-0.000544,-0.002189,0.004849,0.000000,-0.000000,0.000000
-1.720000,1.200000,0.781601,0.080000,-0.010789,-0.001299,-0.001478,0.004254,-0.000000,-0.000000,0.000000
-1.640000,1.200000,0.800062,0.080000,-0.010447,-0.001819,-0.000997,0.003641,-0.000000,-0.000000,0.000000
-1.560000,1.200000,0.800062,0.080000,-0.010112,-0.002152,-0.000699,0.003057,-0.000000,0.000000,0.000000
-1.480000,1.200000,0.800562,0.080000,-0.009781,-0.002345,-0.000539,0.002526,-0.000000,0.000000,0.000000
-1.400000,1.200000,0.801561,0.080000,-0.009454,-0.002436,-0.000477,0.002058,-0.000000,0.000000,0.000000
-1.320000,1.200000,0.800562,0.080000,-0.009130,-0.002455,-0.000485,0.001657,-0.000000,0.000000,0.000000
-1.240000,1.200000,0.800062,0.080000,-0.008809,-0.002426,-0.000538,0.001318,-0.000000,0.000000,0.000000
-1.160000,1.200000,0.800062,0.080000,-0.008491,-0.002367,-0.000621,0.001036,-0.000000,0.000000,0.000000
-1.080000,1.200000,0.800562,0.080000,-0.008177,-0.002289,-0.000719,0.000803,-0.000000,0.000000,0.000000
-1.000000,1.200000,0.801561,0.080000,-0.007868,-0.002202,-0.000825,0.000614,-0.000000,0.000000,0.000000
-0.920000,1.200000,0.800562,0.080000,-0.007565,-0.002112,-0.000933,0.000461,-0.000000,-0.000000,0.000000
-0.840000,1.200000,0.800062,0.080000,-0.007267,-0.002024,-0.001037,0.000340,-0.000000,-0.000000,0.000000
-0.760000,1.200000,0.800062,0.080000,-0.006976,-0.001940,-0.001135,0.000244,-0.000000,-0.000000,0.000000
-0.680000,1.200000,0.800562,0.080000,-0.006692,-0.001863,-0.001225,0.000171,-0.000000,-0.000000,0.000000
-0.600000,1.200000,0.801561,0.080000,-0.006416,-0.001793,-0.001307,0.000115,-0.000000,-0.000000,0.000000
-0.520000,1.200000,0.800562,0.080000,-0.006148,-0.001731,-0.001379,0.000073,-0.000000,-0.000000,0.000000
-0.440000,1.200000,0.800062,0.080000,-0.005889,-0.001678,-0.001440,0.000044,-0.000000,-0.000000,0.000000
-0.360000,1.200000,0.800062,0.080000,-0.005640,-0.001633,-0.001492,0.000024,-0.000000,-0.000000,0.000000
-0.280000,1.200000,0.800562,0.080000,-0.005400,-0.001598,-0.001533,0.000011,-0.000000,-0.000000,0.000000
-0.200000,1.200000,0.801561,0.080000,-0.005169,-0.001571,-0.001564,0.000004,-0.000000,-0.000000,0.000000
-0.120000,1.200000,0.800562,0.080000,-0.004949,-0.001554,-0.001584,0.000001,-0.000000,-0.000000,0.000000
-0.040000,1.200000,0.800062,0.080000,-0.004739,-0.001545,-0.001594,0.000000,-0.000000,-0.000000,0.000000
0.040000,1.200000,0.800062,0.080000,-0.004539,-0.001545,-0.001594,-0.000000,-0.000000,-0.000000,-0.000000
0.120000,1.200000,0.800562,0.080000,-0.004349,-0.001553,-0.001584,-0.000001,-0.000000,-0.000000,-0.000000
0.200000,1.200000,0.801561,0.080000,-0.004170,-0.001571,-0.001564,-0.000004,-0.000000,-0.000000,-0.000000
0.280000,1.200000,0.800562,0.080000,-0.004000,-0.001598,-0.001533,-0.000011,-0.000000,-0.000000,-0.000000
0.360000,1.200000,0.800062,0.080000,-0.003840,-0.001633,-0.001492,-0.000024,-0.000000,-0.000000,-0.000000
0.440000,1.200000,0.800062,0.080000,-0.003690,-0.001678,-0.001440,-0.000044,-0.000000,-0.000000,-0.000000
0.520000,1.200000,0.800562,0.080000,-0.003549,-0.001731,-0.001379,-0.000073,-0.000000,-0.000000,-0.000000
0.600000,1.200000,0.801561,0.080000,-0.003417,-0.001793,-0.001307,-0.000115,-0.000000,-0.000000,-0.000000
0.680000,1.200000,0.800562,0.080000,-0.003293,-0.001863,-0.001226,-0.000170,-0.000000,-0.000000,-0.000000
0.760000,1.200000,0.800062,0.080000,-0.003177,-0.001940,-0.001135,-0.000244,-0.000000,-0.000000,-0.000000
0.840000,1.200000,0.800062,0.080000,-0.003068,-0.002024,-0.001037,-0.000340,-0.000000,-0.000000,-0.000000
0.920000,1.200000,0.800562,0.080000,-0.002966,-0.002112,-0.000933,-0.000461,-0.000000,-0.000000,-0.000000
1.000000,1.200000,0.801561,0.080000,-0.002870,-0.002202,-0.000826,-0.000614,-0.000000,0.000000,-0.000000
1.080000,1.200000,0.800562,0.080000,-0.002779,-0.002288,-0.000720,-0.000803,-0.000000,0.000000,-0.000000
1.160000,1.200000,0.800062,0.080000,-0.002692,-0.002366,-0.000621,-0.001035,-0.000000,0.000000,-0.000000
1.240000,1.200000,0.800062,0.080000,-0.002610,-0.002426,-0.000539,-0.001317,-0.000000,0.000000,-0.000000
1.320000,1.200000,0.800562,0.080000,-0.002531,-0.002454,-0.000485,-0.001656,-0.000000,0.000000,-0.000000
1.400000,1.200000,0.801561,0.080000,-0.002456,-0.002435,-0.000478,-0.002057,-0.000000,0.000000,-0.000000
1.480000,1.200000,0.800562,0.080000,-0.002383,-0.002344,-0.000539,-0.002524,-0.000000,0.000000,-0.000000
1.560000,1.200000,0.800062,0.080000,-0.002314,-0.002152,-0.000700,-0.003054,-0.000000,0.000000,-0.000000
1.640000,1.200000,0.800062,0.080000,-0.002250,-0.001819,-0.000998,-0.003639,-0.000000,-0.000000,-0.000000
1.720000,1.200000,0.781601,0.080000,-0.002192,-0.001299,-0.001478,-0.004251,-0.000000,-0.000000,-0.000000
1.800000,1.200000,0.701783,0.080000,-0.002143,-0.000544,-0.002188,-0.004845,0.000000,-0.000000,-0.000000
1.880000,1.200000,0.622013,0.080000,-0.002109,0.000493,-0.003174,-0.005344,0.000000,-0.000000,-0.000000
1.960000,1.200000,0.542310,0.080000,-0.002096,0.001852,-0.004509,-0.005631,0.000000,-0.000000,-0.000000
2.040000,1.200000,0.462709,0.080000,-0.002111,0.003494,-0.006071,-0.005569,0.000000,-0.000000,-0.000000
2.120000,1.200000,0.383275,0.080000,-0.002165,0.005336,-0.007832,-0.004969,0.000000,-0.000000,-0.000000
-2.120000,1.280000,0.381182,0.080000,-0.012464,0.006155,-0.008732,0.007245,0.000000,-0.000000,0.000000
-2.040000,1.280000,0.460977,0.080000,-0.012050,0.003624,-0.006249,0.007613,0.000000,-0.000000,0.000000
-1.960000,1.280000,0.540833,0.080000,-0.011677,0.001516,-0.004200,0.007315,0.000000,-0.000000,0.000000
-1.880000,1.280000,0.620725,0.080000,-0.011331,-0.000107,-0.002574,0.006627,0.000000,-0.000000,0.000000
-1.800000,1.280000,0.700643,0.080000,-0.011001,-0.001252,-0.001466,0.005767,-0.000000,-0.000000,0.000000
-1.720000,1.280000,0.720625,0.080000,-0.010681,-0.002015,-0.000734,0.004874,-0.000000,0.000000,0.000000
-1.640000,1.280000,0.720069,0.080000,-0.010366,-0.002484,-0.000294,0.004028,-0.000000,0.000000,0.000000
-1.560000,1.280000,0.720069,0.080000,-0.010053,-0.002737,-0.000067,0.003272,-0.000000,0.000000,0.000000
-1.480000,1.280000,0.720625,0.080000,-0.009741,-0.002840,0.000012,0.002618,-0.000000,0.000000,0.000000
-1.400000,1.280000,0.721734,0.080000,-0.009428,-0.002842,-0.000009,0.002068,-0.000000,0.000000,0.000000
-1.320000,1.280000,0.720625,0.080000,-0.009116,-0.002780,-0.000093,0.001611,-0.000000,0.000000,0.000000
-1.240000,1.280000,0.720069,0.080000,-0.008804,-0.002678,-0.000215,0.001238,-0.000000,0.000000,0.000000
-1.160000,1.280000,0.720069,0.080000,-0.008494,-0.002555,-0.000357,0.000937,-0.000000,0.000000,0.000000
-1.080000,1.280000,0.720625,0.080000,-0.008186,-0.002423,-0.000507,0.000696,-0.000000,0.000000,0.000000
-1.000000,1.280000,0.721734,0.080000,-0.007881,-0.002291,-0.000655,0.000504,-0.000000,0.000000,0.000000
-0.920000,1.280000,0.720625,0.080000,-0.007580,-0.002164,-0.000798,0.000355,-0.000000,0.000000,0.000000
-0.840000,1.280000,0.720069,0.080000,-0.007285,-0.002044,-0.000932,0.000239,-0.000000,-0.000000,0.000000
-0.760000,1.280000,0.720069,0.080000,-0.006995,-0.001935,-0.001055,0.000152,-0.000000,-0.000000,0.000000
-0.680000,1.280000,0.720625,0.080000,-0.006713,-0.001836,-0.001166,0.000087,-0.000000,-0.000000,0.000000
-0.600000,1.280000,0.721734,0.080000,-0.006437,-0.001748,-0.001263,0.000041,-0.000000,-0.000000,0.000000
-0.520000,1.280000,0.720625,0.080000,-0.006170,-0.001673,-0.001349,0.000010,-0.000000,-0.000000,0.000000
-0.440000,1.280000,0.720069,0.080000,-0.005911,-0.001608,-0.001421,-0.000010,-0.000000,-0.000000,-0.000000
-0.360000,1.280000,0.720069,0.080000,-0.005662,-0.001555,-0.001481,-0.000020,-0.000000,-0.000000,-0.000000
-0.280000,1.280000,0.720625,0.080000,-0.005422,-0.001513,-0.001528,-0.000022,-0.000000,-0.000000,-0.000000
-0.200000,1.280000,0.721734,0.080000,-0.005191,-0.001481,-0.001563,-0.000020,-0.000000,-0.000000,-0.000000
-0.120000,1.280000,0.720625,0.080000,-0.004971,-0.001461,-0.001587,-0.000013,-0.000000,-0.000000,-0.000000
-0.040000,1.280000,0.720069,0.080000,-0.004761,-0.001450,-0.001599,-0.000005,-0.000000,-0.000000,-0.000000
0.040000,1.280000,0.720069,0.080000,-0.004561,-0.001450,-0.001599,0.000005,-0.000000,-0.000000,0.000000
0.120000,1.280000,0.720625,0.080000,-0.004371,-0.001461,-0.001587,0.000013,-0.000000,-0.000000,0.000000
0.200000,1.280000,0.721734,0.080000,-0.004192,-0.001481,-0.001564,0.000020,-0.000000,-0.000000,0.000000
0.280000,1.280000,0.720625,0.080000,-0.004022,-0.001513,-0.001528,0.000022,-0.000000,-0.000000,0.000000
0.360000,1.280000,0.720069,0.080000,-0.003862,-0.001555,-0.001481,0.000020,-0.000000,-0.000000,0.000000
0.440000,1.280000,0.720069,0.080000,-0.003712,-0.001608,-0.001421,0.000010,-0.000000,-0.000000,0.000000
0.520000,1.280000,0.720625,0.080000,-0.003571,-0.001672,-0.001349,-0.000009,-0.000000,-0.000000,-0.000000
0.600000,1.280000,0.721734,0.080000,-0.003438,-0.001748,-0.001264,-0.000041,-0.000000,-0.000000,-0.000000
0.680000,1.280000,0.720625,0.080000,-0.003313,-0.001835,-0.001166,-0.000087,-0.000000,-0.000000,-0.000000
0.760000,1.280000,0.720069,0.080000,-0.003196,-0.001934,-0.001055,-0.000152,-0.000000,-0.000000,-0.000000
0.840000,1.280000,0.720069,0.080000,-0.003086,-0.002044,-0.000933,-0.000239,-0.000000,-0.000000,-0.000000
0.920000,1.280000,0.720625,0.080000,-0.002982,-0.002163,-0.000799,-0.000355,-0.000000,0.000000,-0.000000
1.000000,1.280000,0.721734,0.080000,-0.002882,-0.002291,-0.000656,-0.000504,-0.000000,0.000000,-0.000000
1.080000,1.280000,0.720625,0.080000,-0.002787,-0.002423,-0.000507,-0.000695,-0.000000,0.000000,-0.000000
1.160000,1.280000,0.720069,0.080000,-0.002695,-0.002554,-0.000358,-0.000936,-0.000000,0.000000,-0.000000
1.240000,1.280000,0.720069,0.080000,-0.002606,-0.002677,-0.000216,-0.001237,-0.000000,0.000000,-0.000000
1.320000,1.280000,0.720625,0.080000,-0.002518,-0.002779,-0.000094,-0.001610,-0.000000,0.000000,-0.000000
1.400000,1.280000,0.721734,0.080000,-0.002430,-0.002842,-0.000010,-0.002066,-0.000000,0.000000,-0.000000
1.480000,1.280000,0.720625,0.080000,-0.002343,-0.002840,0.000011,-0.002617,-0.000000,0.000000,-0.000000
1.560000,1.280000,0.720069,0.080000,-0.002255,-0.002737,-0.000068,-0.003269,-0.000000,0.000000,-0.000000
1.640000,1.280000,0.720069,0.080000,-0.002168,-0.002483,-0.000295,-0.004025,-0.000000,0.000000,-0.000000
1.720000,1.280000,0.720625,0.080000,-0.002084,-0.002015,-0.000735,-0.004870,-0.000000,0.000000,-0.000000
1.800000,1.280000,0.700643,0.080000,-0.002004,-0.001252,-0.001466,-0.005763,-0.000000,-0.000000,-0.000000
1.880000,1.280000,0.620725,0.080000,-0.001933,-0.000108,-0.002573,-0.006623,0.000000,-0.000000,-0.000000
1.960000,1.280000,0.540833,0.080000,-0.001880,0.001514,-0.004198,-0.007309,0.000000,-0.000000,-0.000000
2.040000,1.280000,0.460977,0.080000,-0.001853,0.003621,-0.006246,-0.007607,0.000000,-0.000000,-0.000000
2.120000,1.280000,0.381182,0.080000,-0.001867,0.006150,-0.008727,-0.007239,0.000000,-0.000000,-0.000000
-2.120000,1.360000,0.380132,0.080000,-0.012126,0.006694,-0.009383,0.010460,0.000000,-0.000000,0.000000
-2.040000,1.360000,0.460109,0.080000,-0.011770,0.003276,-0.005964,0.010282,0.000000,-0.000000,0.000000
-1.960000,1.360000,0.540093,0.080000,-0.011452,0.000661,-0.003375,0.009347,0.000000,-0.000000,0.000000
-1.880000,1.360000,0.620081,0.080000,-0.011156,-0.001176,-0.001504,0.008047,-0.000000,-0.000000,0.000000
-1.800000,1.360000,0.641950,0.080000,-0.010870,-0.002340,-0.000360,0.006691,-0.000000,0.000000,0.000000
-1.720000,1.360000,0.640703,0.080000,-0.010586,-0.003017,0.000301,0.005423,-0.000000,0.000000,0.000000
-1.640000,1.360000,0.640078,0.080000,-0.010301,-0.003353,0.000620,0.004311,-0.000000,0.000000,0.000000
-1.560000,1.360000,0.640078,0.080000,-0.010012,-0.003462,0.000713,0.003372,-0.000000,0.000000,0.000000
-1.480000,1.360000,0.640703,0.080000,-0.009719,-0.003426,0.000661,0.002600,-0.000000,0.000000,0.000000
-1.400000,1.360000,0.641950,0.080000,-0.009421,-0.003303,0.000522,0.001975,-0.000000,0.000000,0.000000
-1.320000,1.360000,0.640703,0.080000,-0.009120,-0.003132,0.000335,0.001477,-0.000000,0.000000,0.000000
-1.240000,1.360000,0.640078,0.080000,-0.008817,-0.002940,0.000127,0.001083,-0.000000,0.000000,0.000000
-1.160000,1.360000,0.640078,0.080000,-0.008513,-0.002743,-0.000086,0.000775,-0.000000,0.000000,0.000000
-1.080000,1.360000,0.640703,0.080000,-0.008210,-0.002550,-0.000294,0.000535,-0.000000,0.000000,0.000000
-1.000000,1.360000,0.641950,0.080000,-0.007908,-0.002368,-0.000491,0.000352,-0.000000,0.000000,0.000000
-0.920000,1.360000,0.640703,0.080000,-0.007610,-0.002200,-0.000672,0.000213,-0.000000,0.000000,0.000000
-0.840000,1.360000,0.640078,0.080000,-0.007316,-0.002047,-0.000838,0.000110,-0.000000,0.000000,0.000000
-0.760000,1.360000,0.640078,0.080000,-0.007027,-0.001911,-0.000986,0.000036,-0.000000,-0.000000,0.000000
-0.680000,1.360000,0.640703,0.080000,-0.006745,-0.001791,-0.001117,-0.000016,-0.000000,-0.000000,-0.000000
-0.600000,1.360000,0.641950,0.080000,-0.006470,-0.001686,-0.001232,-0.000048,-0.000000,-0.000000,-0.000000
-0.520000,1.360000,0.640703,0.080000,-0.006202,-0.001597,-0.001330,-0.000067,-0.000000,-0.000000,-0.000000
-0.440000,1.360000,0.640078,0.080000,-0.005943,-0.001521,-0.001413,-0.000073,-0.000000,-0.000000,-0.000000
-0.360000,1.360000,0.640078,0.080000,-0.005694,-0.001460,-0.001481,-0.000071,-0.000000,-0.000000,-0.000000
-0.280000,1.360000,0.640703,0.080000,-0.005453,-0.001411,-0.001534,-0.000062,-0.000000,-0.000000,-0.000000
-0.200000,1.360000,0.641950,0.080000,-0.005223,-0.001375,-0.001574,-0.000048,-0.000000,-0.000000,-0.000000
-0.120000,1.360000,0.640703,0.080000,-0.005002,-0.001352,-0.001600,-0.000030,-0.000000,-0.000000,-0.000000
-0.040000,1.360000,0.640078,0.080000,-0.004792,-0.001340,-0.001613,-0.000010,-0.000000,-0.000000,-0.000000
0.040000,1.360000,0.640078,0.080000,-0.004592,-0.001340,-0.001613,0.000010,-0.000000,-0.000000,0.000000
0.120000,1.360000,0.640703,0.080000,-0.004402,-0.001352,-0.001600,0.000030,-0.000000,-0.000000,0.000000
0.200000,1.360000,0.641950,0.080000,-0.004223,-0.001375,-0.001574,0.000048,-0.000000,-0.000000,0.000000
0.280000,1.360000,0.640703,0.080000,-0.004054,-0.001411,-0.001534,0.000062,-0.000000,-0.000000,0.000000
0.360000,1.360000,0.640078,0.080000,-0.003894,-0.001460,-0.001481,0.000071,-0.000000,-0.000000,0.000000
0.440000,1.360000,0.640078,0.080000,-0.003744,-0.001521,-0.001413,0.000073,-0.000000,-0.000000,0.000000
0.520000,1.360000,0.640703,0.080000,-0.003603,-0.001596,-0.001330,0.000067,-0.000000,-0.000000,0.000000
0.600000,1.360000,0.641950,0.080000,-0.003470,-0.001686,-0.001232,0.000048,-0.000000,-0.000000,0.000000
0.680000,1.360000,0.640703,0.080000,-0.003346,-0.001790,-0.001118,0.000016,-0.000000,-0.000000,0.000000
0.760000,1.360000,0.640078,0.080000,-0.003228,-0.001910,-0.000987,-0.000035,-0.000000,-0.000000,-0.000000
0.840000,1.360000,0.640078,0.080000,-0.003117,-0.002047,-0.000838,-0.000110,-0.000000,0.000000,-0.000000
0.920000,1.360000,0.640703,0.080000,-0.003011,-0.002199,-0.000673,-0.000213,-0.000000,0.000000,-0.000000
1.000000,1.360000,0.641950,0.080000,-0.002910,-0.002367,-0.000491,-0.000351,-0.000000,0.000000,-0.000000
1.080000,1.360000,0.640703,0.080000,-0.002811,-0.002549,-0.000295,-0.000535,-0.000000,0.000000,-0.000000
1.160000,1.360000,0.640078,0.080000,-0.002715,-0.002742,-0.000087,-0.000774,-0.000000,0.000000,-0.000000
1.240000,1.360000,0.640078,0.080000,-0.002619,-0.002939,0.000126,-0.001082,-0.000000,0.000000,-0.000000
1.320000,1.360000,0.640703,0.080000,-0.002522,-0.003131,0.000334,-0.001476,-0.000000,0.000000,-0.000000
1.400000,1.360000,0.641950,0.080000,-0.002423,-0.003302,0.000521,-0.001974,-0.000000,0.000000,-0.000000
1.480000,1.360000,0.640703,0.080000,-0.002321,-0.003424,0.000659,-0.002598,-0.000000,0.000000,-0.000000
1.560000,1.360000,0.640078,0.080000,-0.002214,-0.003460,0.000711,-0.003370,-0.000000,0.000000,-0.000000
1.640000,1.360000,0.640078,0.080000,-0.002103,-0.003352,0.000619,-0.004308,-0.000000,0.000000,-0.000000
1.720000,1.360000,0.640703,0.080000,-0.001989,-0.003016,0.000299,-0.005419,-0.000000,0.000000,-0.000000
1.800000,1.360000,0.641950,0.080000,-0.001872,-0.002339,-0.000360,-0.006686,-0.000000,0.000000,-0.000000
1.880000,1.360000,0.620081,0.080000,-0.001759,-0.001176,-0.001504,-0.008041,-0.000000,-0.000000,-0.000000
1.960000,1.360000,0.540093,0.080000,-0.001655,0.000660,-0.003374,-0.009340,0.000000,-0.000000,-0.000000
2.040000,1.360000,0.460109,0.080000,-0.001573,0.003273,-0.005961,-0.010274,0.000000,-0.000000,-0.000000
2.120000,1.360000,0.380132,0.080000,-0.001529,0.006689,-0.009378,-0.010452,0.000000,-0.000000,-0.000000
-2.120000,1.440000,0.380132,0.080000,-0.011746,0.006511,-0.009350,0.014942,0.000000,-0.000000,0.000000
-2.040000,1.440000,0.460109,0.080000,-0.011469,0.002048,-0.004813,0.013650,0.000000,-0.000000,0.000000
-1.960000,1.440000,0.540093,0.080000,-0.011223,-0.001008,-0.001737,0.011664,-0.000000,-0.000000,0.000000
-1.880000,1.440000,0.560803,0.080000,-0.010989,-0.002894,0.000218,0.009481,-0.000000,0.000000,0.000000
-1.800000,1.440000,0.562228,0.080000,-0.010753,-0.003903,0.001227,0.007492,-0.000000,0.000000,0.000000
-1.720000,1.440000,0.560803,0.080000,-0.010511,-0.004346,0.001669,0.005792,-0.000000,0.000000,0.000000
-1.640000,1.440000,0.560089,0.080000,-0.010257,-0.004435,0.001756,0.004402,-0.000000,0.000000,0.000000
-1.560000,1.440000,0.560089,0.080000,-0.009993,-0.004315,0.001631,0.003294,-0.000000,0.000000,0.000000
-1.480000,1.440000,0.560803,0.080000,-0.009718,-0.004083,0.001392,0.002425,-0.000000,0.000000,0.000000
-1.400000,1.440000,0.562228,0.080000,-0.009435,-0.003797,0.001097,0.001752,-0.000000,0.000000,0.000000
-1.320000,1.440000,0.560803,0.080000,-0.009144,-0.003495,0.000784,0.001234,-0.000000,0.000000,0.000000
-1.240000,1.440000,0.560089,0.080000,-0.008849,-0.003197,0.000474,0.000840,-0.000000,0.000000,0.000000
-1.160000,1.440000,0.560089,0.080000,-0.008550,-0.002916,0.000180,0.000541,-0.000000,0.000000,0.000000
-1.080000,1.440000,0.560803,0.080000,-0.008250,-0.002656,-0.000093,0.000318,-0.000000,0.000000,0.000000
-1.000000,1.440000,0.562228,0.080000,-0.007951,-0.002421,-0.000340,0.000153,-0.000000,0.000000,0.000000
-0.920000,1.440000,0.560803,0.080000,-0.007654,-0.002211,-0.000562,0.000034,-0.000000,0.000000,0.000000
-0.840000,1.440000,0.560089,0.080000,-0.007360,-0.002026,-0.000760,-0.000049,-0.000000,0.000000,-0.000000
-0.760000,1.440000,0.560089,0.080000,-0.007071,-0.001864,-0.000933,-0.000104,-0.000000,-0.000000,-0.000000
-0.680000,1.440000,0.560803,0.080000,-0.006789,-0.001723,-0.001085,-0.000137,-0.000000,-0.000000,-0.000000
-0.600000,1.440000,0.562228,0.080000,-0.006513,-0.001602,-0.001215,-0.000153,-0.000000,-0.000000,-0.000000
-0.520000,1.440000,0.560803,0.080000,-0.006245,-0.001500,-0.001326,-0.000155,-0.000000,-0.000000,-0.000000
-0.440000,1.440000,0.560089,0.080000,-0.005985,-0.001415,-0.001418,-0.000146,-0.000000,-0.000000,-0.000000
-0.360000,1.440000,0.560089,0.080000,-0.005735,-0.001346,-0.001493,-0.000129,-0.000000,-0.000000,-0.000000
-0.280000,1.440000,0.560803,0.080000,-0.005494,-0.001292,-0.001553,-0.000106,-0.000000,-0.000000,-0.000000
-0.200000,1.440000,0.562228,0.080000,-0.005263,-0.001252,-0.001596,-0.000079,-0.000000,-0.000000,-0.000000
-0.120000,1.440000,0.560803,0.080000,-0.005042,-0.001225,-0.001625,-0.000049,-0.000000,-0.000000,-0.000000
-0.040000,1.440000,0.560089,0.080000,-0.004831,-0.001212,-0.001640,-0.000016,-0.000000,-0.000000,-0.000000
0.040000,1.440000,0.560089,0.080000,-0.004632,-0.001212,-0.001640,0.000016,-0.000000,-0.000000,0.000000
0.120000,1.440000,0.560803,0.080000,-0.004442,-0.001225,-0.001625,0.000049,-0.000000,-0.000000,0.000000
0.200000,1.440000,0.562228,0.080000,-0.004263,-0.001252,-0.001597,0.000079,-0.000000,-0.000000,0.000000
0.280000,1.440000,0.560803,0.080000,-0.004094,-0.001292,-0.001553,0.000106,-0.000000,-0.000000,0.000000
0.360000,1.440000,0.560089,0.080000,-0.003935,-0.001346,-0.001494,0.000129,-0.000000,-0.000000,0.000000
0.440000,1.440000,0.560089,0.080000,-0.003786,-0.001415,-0.001418,0.000146,-0.000000,-0.000000,0.000000
0.520000,1.440000,0.560803,0.080000,-0.003645,-0.001500,-0.001326,0.000155,-0.000000,-0.000000,0.000000
0.600000,1.440000,0.562228,0.080000,-0.003514,-0.001602,-0.001215,0.000153,-0.000000,-0.000000,0.000000
0.680000,1.440000,0.560803,0.080000,-0.003390,-0.001723,-0.001085,0.000137,-0.000000,-0.000000,0.000000
0.760000,1.440000,0.560089,0.080000,-0.003272,-0.001863,-0.000934,0.000104,-0.000000,-0.000000,0.000000
0.840000,1.440000,0.560089,0.080000,-0.003161,-0.002025,-0.000760,0.000049,-0.000000,0.000000,0.000000
0.920000,1.440000,0.560803,0.080000,-0.003055,-0.002211,-0.000563,-0.000034,-0.000000,0.000000,-0.000000
1.000000,1.440000,0.562228,0.080000,-0.002952,-0.002420,-0.000341,-0.000153,-0.000000,0.000000,-0.000000
1.080000,1.440000,0.560803,0.080000,-0.002851,-0.002655,-0.000093,-0.000317,-0.000000,0.000000,-0.000000
1.160000,1.440000,0.560089,0.080000,-0.002751,-0.002914,0.000179,-0.000540,-0.000000,0.000000,-0.000000
1.240000,1.440000,0.560089,0.080000,-0.002650,-0.003196,0.000473,-0.000839,-0.000000,0.000000,-0.000000
1.320000,1.440000,0.560803,0.080000,-0.002546,-0.003494,0.000782,-0.001233,-0.000000,0.000000,-0.000000
1.400000,1.440000,0.562228,0.080000,-0.002437,-0.003796,0.001095,-0.001751,-0.000000,0.000000,-0.000000
1.480000,1.440000,0.560803,0.080000,-0.002320,-0.004081,0.001390,-0.002424,-0.000000,0.000000,-0.000000
1.560000,1.440000,0.560089,0.080000,-0.002195,-0.004313,0.001629,-0.003292,-0.000000,0.000000,-0.000000
1.640000,1.440000,0.560089,0.080000,-0.002060,-0.004432,0.001754,-0.004399,-0.000000,0.000000,-0.000000
1.720000,1.440000,0.560803,0.080000,-0.001913,-0.004344,0.001667,-0.005788,-0.000000,0.000000,-0.000000
1.800000,1.440000,0.562228,0.080000,-0.001756,-0.003901,0.001225,-0.007487,-0.000000,0.000000,-0.000000
1.880000,1.440000,0.560803,0.080000,-0.001592,-0.002893,0.000216,-0.009475,-0.000000,0.000000,-0.000000
1.960000,1.440000,0.540093,0.080000,-0.001427,-0.001007,-0.001738,-0.011656,-0.000000,-0.000000,-0.000000
2.040000,1.440000,0.460109,0.080000,-0.001273,0.002047,-0.004811,-0.013640,0.000000,-0.000000,-0.000000
2.120000,1.440000,0.380132,0.080000,-0.001150,0.006506,-0.009345,-0.014930,0.000000,-0.000000,-0.000000
-2.120000,1.520000,0.381182,0.080000,-0.011326,0.004563,-0.007734,0.021036,0.000000,-0.000000,0.000000
-2.040000,1.520000,0.460977,0.080000,-0.011157,-0.000846,-0.002117,0.017663,0.000000,-0.000000,0.000000
-1.960000,1.520000,0.480104,0.080000,-0.011002,-0.004004,0.001136,0.014044,-0.000000,0.000000,0.000000
-1.880000,1.520000,0.480937,0.080000,-0.010841,-0.005555,0.002808,0.010681,-0.000000,0.000000,0.000000
-1.800000,1.520000,0.482597,0.080000,-0.010663,-0.006089,0.003386,0.007955,-0.000000,0.000000,0.000000
-1.720000,1.520000,0.480937,0.080000,-0.010463,-0.006063,0.003395,0.005818,-0.000000,0.000000,0.000000
-1.640000,1.520000,0.480104,0.080000,-0.010242,-0.005744,0.003101,0.004186,-0.000000,0.000000,0.000000
-1.560000,1.520000,0.480104,0.080000,-0.010002,-0.005292,0.002664,0.002958,-0.000000,0.000000,0.000000
-1.480000,1.520000,0.480937,0.080000,-0.009744,-0.004797,0.002177,0.002041,-0.000000,0.000000,0.000000
-1.400000,1.520000,0.482597,0.080000,-0.009473,-0.004308,0.001690,0.001361,-0.000000,0.000000,0.000000
-1.320000,1.520000,0.480937,0.080000,-0.009191,-0.003850,0.001229,0.000859,-0.000000,0.000000,0.000000
-1.240000,1.520000,0.480104,0.080000,-0.008901,-0.003432,0.000805,0.000492,-0.000000,0.000000,0.000000
-1.160000,1.520000,0.480104,0.080000,-0.008605,-0.003059,0.000424,0.000226,-0.000000,0.000000,0.000000
-1.080000,1.520000,0.480937,0.080000,-0.008307,-0.002729,0.000084,0.000036,-0.000000,0.000000,0.000000
-1.000000,1.520000,0.482597,0.080000,-0.008009,-0.002441,-0.000215,-0.000096,-0.000000,0.000000,-0.000000
-0.920000,1.520000,0.480937,0.080000,-0.007711,-0.002190,-0.000477,-0.000184,-0.000000,0.000000,-0.000000
-0.840000,1.520000,0.480104,0.080000,-0.007417,-0.001972,-0.000705,-0.000239,-0.000000,0.000000,-0.000000
-0.760000,1.520000,0.480104,0.080000,-0.007128,-0.001786,-0.000903,-0.000268,-0.000000,-0.000000,-0.000000
-0.680000,1.520000,0.480937,0.080000,-0.006844,-0.001626,-0.001073,-0.000278,-0.000000,-0.000000,-0.000000
-0.600000,1.520000,0.482597,0.080000,-0.006566,-0.001490,-0.001217,-0.000272,-0.000000,-0.000000,-0.000000
-0.520000,1.520000,0.480937,0.080000,-0.006297,-0.001377,-0.001339,-0.000254,-0.000000,-0.000000,-0.000000
-0.440000,1.520000,0.480104,0.080000,-0.006036,-0.001283,-0.001441,-0.000228,-0.000000,-0.000000,-0.000000
-0.360000,1.520000,0.480104,0.080000,-0.005785,-0.001207,-0.001523,-0.000194,-0.000000,-0.000000,-0.000000
-0.280000,1.520000,0.480937,0.080000,-0.005543,-0.001148,-0.001587,-0.000156,-0.000000,-0.000000,-0.000000
-0.200000,1.520000,0.482597,0.080000,-0.005311,-0.001105,-0.001634,-0.000114,-0.000000,-0.000000,-0.000000
-0.120000,1.520000,0.480937,0.080000,-0.005090,-0.001076,-0.001665,-0.000069,-0.000000,-0.000000,-0.000000
-0.040000,1.520000,0.480104,0.080000,-0.004879,-0.001062,-0.001680,-0.000023,-0.000000,-0.000000,-0.000000
0.040000,1.520000,0.480104,0.080000,-0.004679,-0.001062,-0.001680,0.000023,-0.000000,-0.000000,0.000000
0.120000,1.520000,0.480937,0.080000,-0.004490,-0.001076,-0.001665,0.000069,-0.000000,-0.000000,0.000000
0.200000,1.520000,0.482597,0.080000,-0.004311,-0.001105,-0.001634,0.000114,-0.000000,-0.000000,0.000000
0.280000,1.520000,0.480937,0.080000,-0.004143,-0.001148,-0.001587,0.000156,-0.000000,-0.000000,0.000000
0.360000,1.520000,0.480104,0.080000,-0.003985,-0.001207,-0.001523,0.000194,-0.000000,-0.000000,0.000000
0.440000,1.520000,0.480104,0.080000,-0.003837,-0.001283,-0.001441,0.000228,-0.000000,-0.000000,0.000000
0.520000,1.520000,0.480937,0.080000,-0.003698,-0.001376,-0.001340,0.000254,-0.000000,-0.000000,0.000000
0.600000,1.520000,0.482597,0.080000,-0.003567,-0.001490,-0.001218,0.000272,-0.000000,-0.000000,0.000000
0.680000,1.520000,0.480937,0.080000,-0.003444,-0.001625,-0.001073,0.000278,-0.000000,-0.000000,0.000000
0.760000,1.520000,0.480104,0.080000,-0.003328,-0.001785,-0.000903,0.000268,-0.000000,-0.000000,0.000000
0.840000,1.520000,0.480104,0.080000,-0.003218,-0.001972,-0.000706,0.000239,-0.000000,0.000000,0.000000
0.920000,1.520000,0.480937,0.080000,-0.003113,-0.002189,-0.000478,0.000184,-0.000000,0.000000,0.000000
1.000000,1.520000,0.482597,0.080000,-0.003010,-0.002440,-0.000216,0.000096,-0.000000,0.000000,0.000000
1.080000,1.520000,0.480937,0.080000,-0.002909,-0.002728,0.000083,-0.000036,-0.000000,0.000000,-0.000000
1.160000,1.520000,0.480104,0.080000,-0.002807,-0.003058,0.000422,-0.000226,-0.000000,0.000000,-0.000000
1.240000,1.520000,0.480104,0.080000,-0.002702,-0.003431,0.000804,-0.000492,-0.000000,0.000000,-0.000000
1.320000,1.520000,0.480937,0.080000,-0.002593,-0.003848,0.001227,-0.000859,-0.000000,0.000000,-0.000000
1.400000,1.520000,0.482597,0.080000,-0.002475,-0.004306,0.001688,-0.001360,-0.000000,0.000000,-0.000000
1.480000,1.520000,0.480937,0.080000,-0.002347,-0.004795,0.002175,-0.002039,-0.000000,0.000000,-0.000000
1.560000,1.520000,0.480104,0.080000,-0.002204,-0.005290,0.002662,-0.002956,-0.000000,0.000000,-0.000000
1.640000,1.520000,0.480104,0.080000,-0.002045,-0.005741,0.003098,-0.004184,-0.000000,0.000000,-0.000000
1.720000,1.520000,0.480937,0.080000,-0.001866,-0.006059,0.003391,-0.005815,-0.000000,0.000000,-0.000000
1.800000,1.520000,0.482597,0.080000,-0.001666,-0.006086,0.003383,-0.007950,-0.000000,0.000000,-0.000000
1.880000,1.520000,0.480937,0.080000,-0.001444,-0.005551,0.002804,-0.010674,-0.000000,0.000000,-0.000000
1.960000,1.520000,0.480104,0.080000,-0.001206,-0.004001,0.001133,-0.014035,-0.000000,0.000000,-0.000000
2.040000,1.520000,0.460977,0.080000,-0.000961,-0.000845,-0.002119,-0.017650,0.000000,-0.000000,-0.000000
2.120000,1.520000,0.381182,0.080000,-0.000730,0.004561,-0.007732,-0.021020,0.000000,-0.000000,-0.000000
-2.120000,1.600000,0.383275,0.080000,-0.010877,-0.000175,-0.003131,0.028509,0.000000,-0.000000,0.000000
-2.040000,1.600000,0.400125,0.080000,-0.010851,-0.006014,0.002957,0.021684,-0.000000,0.000000,0.000000
-1.960000,1.600000,0.400125,0.080000,-0.010807,-0.008470,0.005582,0.015884,-0.000000,0.000000,0.000000
-1.880000,1.600000,0.401123,0.080000,-0.010729,-0.009052,0.006326,0.011215,-0.000000,0.000000,0.000000
-1.800000,1.600000,0.403113,0.080000,-0.010611,-0.008705,0.006061,0.007810,-0.000000,0.000000,0.000000
-1.720000,1.600000,0.401123,0.080000,-0.010455,-0.007967,0.005381,0.005346,-0.000000,0.000000,0.000000
-1.640000,1.600000,0.400125,0.080000,-0.010264,-0.007105,0.004558,0.003584,-0.000000,0.000000,0.000000
-1.560000,1.600000,0.400125,0.080000,-0.010045,-0.006249,0.003727,0.002330,-0.000000,0.000000,0.000000
-1.480000,1.600000,0.401123,0.080000,-0.009801,-0.005457,0.002949,0.001440,-0.000000,0.000000,0.000000
-1.400000,1.600000,0.403113,0.080000,-0.009539,-0.004751,0.002248,0.000811,-0.000000,0.000000,0.000000
-1.320000,1.600000,0.401123,0.080000,-0.009262,-0.004134,0.001629,0.000368,-0.000000,0.000000,0.000000
-1.240000,1.600000,0.400125,0.080000,-0.008975,-0.003600,0.001090,0.000059,-0.000000,0.000000,0.000000
-1.160000,1.600000,0.400125,0.080000,-0.008680,-0.003141,0.000622,-0.000151,-0.000000,0.000000,-0.000000
-1.080000,1.600000,0.401123,0.080000,-0.008382,-0.002748,0.000219,-0.000291,-0.000000,0.000000,-0.000000
-1.000000,1.600000,0.403113,0.080000,-0.008082,-0.002412,-0.000128,-0.000378,-0.000000,0.000000,-0.000000
-0.920000,1.600000,0.401123,0.080000,-0.007783,-0.002126,-0.000426,-0.000427,-0.000000,0.000000,-0.000000
-0.840000,1.600000,0.400125,0.080000,-0.007487,-0.001882,-0.000681,-0.000447,-0.000000,0.000000,-0.000000
-0.760000,1.600000,0.400125,0.080000,-0.007195,-0.001675,-0.000899,-0.000446,-0.000000,-0.000000,-0.000000
-0.680000,1.600000,0.401123,0.080000,-0.006909,-0.001501,-0.001085,-0.000428,-0.000000,-0.000000,-0.000000
-0.600000,1.600000,0.403113,0.080000,-0.006629,-0.001354,-0.001241,-0.000398,-0.000000,-0.000000,-0.000000
-0.520000,1.600000,0.401123,0.080000,-0.006358,-0.001232,-0.001372,-0.000359,-0.000000,-0.000000,-0.000000
-0.440000,1.600000,0.400125,0.080000,-0.006095,-0.001132,-0.001481,-0.000313,-0.000000,-0.000000,-0.000000
-0.360000,1.600000,0.400125,0.080000,-0.005842,-0.001051,-0.001568,-0.000262,-0.000000,-0.000000,-0.000000
-0.280000,1.600000,0.401123,0.080000,-0.005599,-0.000989,-0.001636,-0.000207,-0.000000,-0.000000,-0.000000
-0.200000,1.600000,0.403113,0.080000,-0.005366,-0.000943,-0.001685,-0.000150,-0.000000,-0.000000,-0.000000
-0.120000,1.600000,0.401123,0.080000,-0.005144,-0.000913,-0.001718,-0.000091,-0.000000,-0.000000,-0.000000
-0.040000,1.600000,0.400125,0.080000,-0.004933,-0.000898,-0.001734,-0.000030,-0.000000,-0.000000,-0.000000
0.040000,1.600000,0.400125,0.080000,-0.004733,-0.000898,-0.001734,0.000030,-0.000000,-0.000000,0.000000
0.120000,1.600000,0.401123,0.080000,-0.004544,-0.000913,-0.001718,0.000091,-0.000000,-0.000000,0.000000
0.200000,1.600000,0.403113,0.080000,-0.004366,-0.000943,-0.001685,0.000150,-0.000000,-0.000000,0.000000
0.280000,1.600000,0.401123,0.080000,-0.004199,-0.000989,-0.001636,0.000207,-0.000000,-0.000000,0.000000
0.360000,1.600000,0.400125,0.080000,-0.004042,-0.001051,-0.001568,0.000262,-0.000000,-0.000000,0.000000
0.440000,1.600000,0.400125,0.080000,-0.003896,-0.001131,-0.001481,0.000313,-0.000000,-0.000000,0.000000
0.520000,1.600000,0.401123,0.080000,-0.003759,-0.001231,-0.001373,0.000359,-0.000000,-0.000000,0.000000
0.600000,1.600000,0.403113,0.080000,-0.003630,-0.001353,-0.001242,0.000398,-0.000000,-0.000000,0.000000
0.680000,1.600000,0.401123,0.080000,-0.003510,-0.001500,-0.001085,0.000428,-0.000000,-0.000000,0.000000
0.760000,1.600000,0.400125,0.080000,-0.003396,-0.001675,-0.000900,0.000445,-0.000000,-0.000000,0.000000
0.840000,1.600000,0.400125,0.080000,-0.003288,-0.001881,-0.000682,0.000447,-0.000000,0.000000,0.000000
0.920000,1.600000,0.401123,0.080000,-0.003184,-0.002125,-0.000427,0.000427,-0.000000,0.000000,0.000000
1.000000,1.600000,0.403113,0.080000,-0.003084,-0.002411,-0.000129,0.000378,-0.000000,0.000000,0.000000
1.080000,1.600000,0.401123,0.080000,-0.002983,-0.002747,0.000218,0.000291,-0.000000,0.000000,0.000000
1.160000,1.600000,0.400125,0.080000,-0.002882,-0.003139,0.000621,0.000152,-0.000000,0.000000,0.000000
1.240000,1.600000,0.400125,0.080000,-0.002776,-0.003598,0.001088,-0.000059,-0.000000,0.000000,-0.000000
1.320000,1.600000,0.401123,0.080000,-0.002664,-0.004132,0.001627,-0.000367,-0.000000,0.000000,-0.000000
1.400000,1.600000,0.403113,0.080000,-0.002541,-0.004749,0.002245,-0.000810,-0.000000,0.000000,-0.000000
1.480000,1.600000,0.401123,0.080000,-0.002403,-0.005455,0.002946,-0.001439,-0.000000,0.000000,-0.000000
1.560000,1.600000,0.400125,0.080000,-0.002247,-0.006246,0.003724,-0.002329,-0.000000,0.000000,-0.000000
1.640000,1.600000,0.400125,0.080000,-0.002067,-0.007101,0.004554,-0.003582,-0.000000,0.000000,-0.000000
1.720000,1.600000,0.401123,0.080000,-0.001857,-0.007963,0.005376,-0.005343,-0.000000,0.000000,-0.000000
1.800000,1.600000,0.403113,0.080000,-0.001614,-0.008700,0.006055,-0.007805,-0.000000,0.000000,-0.000000
1.880000,1.600000,0.401123,0.080000,-0.001332,-0.009046,0.006320,-0.011208,-0.000000,0.000000,-0.000000
1.960000,1.600000,0.400125,0.080000,-0.001011,-0.008463,0.005576,-0.015874,-0.000000,0.000000,-0.000000
2.040000,1.600000,0.400125,0.080000,-0.000655,-0.006009,0.002952,-0.021669,-0.000000,0.000000,-0.000000
2.120000,1.600000,0.383275,0.080000,-0.000282,-0.000172,-0.003134,-0.028489,0.000000,-0.000000,-0.000000
-2.120000,1.680000,0.321403,0.080000,-0.010433,-0.010477,0.006845,0.036389,-0.000000,0.000000,0.000000
-2.040000,1.680000,0.320156,0.080000,-0.010585,-0.014500,0.011286,0.024592,-0.000000,0.000000,0.000000
-1.960000,1.680000,0.320156,0.080000,-0.010667,-0.014666,0.011644,0.016248,-0.000000,0.000000,0.000000
-1.880000,1.680000,0.321403,0.080000,-0.010674,-0.013392,0.010662,0.010488,-0.000000,0.000000,0.000000
-1.800000,1.680000,0.323883,0.080000,-0.010615,-0.011672,0.009081,0.006679,-0.000000,0.000000,0.000000
-1.720000,1.680000,0.321403,0.080000,-0.010497,-0.009968,0.007471,0.004142,-0.000000,0.000000,0.000000
-1.640000,1.680000,0.320156,0.080000,-0.010331,-0.008440,0.006001,0.002450,-0.000000,0.000000,0.000000
-1.560000,1.680000,0.320156,0.080000,-0.010127,-0.007126,0.004723,0.001319,-0.000000,0.000000,0.000000
-1.480000,1.680000,0.321403,0.080000,-0.009893,-0.006019,0.003636,0.000563,-0.000000,0.000000,0.000000
-1.400000,1.680000,0.323883,0.080000,-0.009635,-0.005094,0.002719,0.000060,-0.000000,0.000000,0.000000
-1.320000,1.680000,0.321403,0.080000,-0.009359,-0.004324,0.001949,-0.000270,-0.000000,0.000000,-0.000000
-1.240000,1.680000,0.320156,0.080000,-0.009072,-0.003682,0.001302,-0.000481,-0.000000,0.000000,-0.000000
-1.160000,1.680000,0.320156,0.080000,-0.008775,-0.003147,0.000758,-0.000609,-0.000000,0.000000,-0.000000
-1.080000,1.680000,0.321403,0.080000,-0.008474,-0.002700,0.000299,-0.000678,-0.000000,0.000000,-0.000000
-1.000000,1.680000,0.323883,0.080000,-0.008171,-0.002325,-0.000088,-0.000706,-0.000000,0.000000,-0.000000
-0.920000,1.680000,0.321403,0.080000,-0.007869,-0.002011,-0.000415,-0.000704,-0.000000,0.000000,-0.000000
-0.840000,1.680000,0.320156,0.080000,-0.007569,-0.001747,-0.000692,-0.000681,-0.000000,0.000000,-0.000000
-0.760000,1.680000,0.320156,0.080000,-0.007273,-0.001525,-0.000926,-0.000642,-0.000000,-0.000000,-0.000000
-0.680000,1.680000,0.321403,0.080000,-0.006984,-0.001340,-0.001123,-0.000593,-0.000000,-0.000000,-0.000000
-0.600000,1.680000,0.323883,0.080000,-0.006701,-0.001185,-0.001289,-0.000536,-0.000000,-0.000000,-0.000000
-0.520000,1.680000,0.321403,0.080000,-0.006427,-0.001058,-0.001426,-0.000473,-0.000000,-0.000000,-0.000000
-0.440000,1.680000,0.320156,0.080000,-0.006162,-0.000954,-0.001539,-0.000405,-0.000000,-0.000000,-0.000000
-0.360000,1.680000,0.320156,0.080000,-0.005906,-0.000870,-0.001630,-0.000335,-0.000000,-0.000000,-0.000000
-0.280000,1.680000,0.321403,0.080000,-0.005661,-0.000806,-0.001700,-0.000262,-0.000000,-0.000000,-0.000000
-0.200000,1.680000,0.323883,0.080000,-0.005427,-0.000759,-0.001751,-0.000188,-0.000000,-0.000000,-0.000000
-0.120000,1.680000,0.321403,0.080000,-0.005204,-0.000728,-0.001785,-0.000113,0.000000,-0.000000,-0.000000
-0.040000,1.680000,0.320156,0.080000,-0.004993,-0.000713,-0.001802,-0.000038,0.000000,-0.000000,-0.000000
0.040000,1.680000,0.320156,0.080000,-0.004793,-0.000713,-0.001802,0.000038,0.000000,-0.000000,0.000000
0.120000,1.680000,0.321403,0.080000,-0.004605,-0.000728,-0.001785,0.000113,0.000000,-0.000000,0.000000
0.200000,1.680000,0.323883,0.080000,-0.004428,-0.000759,-0.001752,0.000188,-0.000000,-0.000000,0.000000
0.280000,1.680000,0.321403,0.080000,-0.004262,-0.000806,-0.001700,0.000262,-0.000000,-0.000000,0.000000
0.360000,1.680000,0.320156,0.080000,-0.004107,-0.000870,-0.001630,0.000335,-0.000000,-0.000000,0.000000
0.440000,1.680000,0.320156,0.080000,-0.003962,-0.000953,-0.001539,0.000405,-0.000000,-0.000000,0.000000
0.520000,1.680000,0.321403,0.080000,-0.003827,-0.001057,-0.001426,0.000472,-0.000000,-0.000000,0.000000
0.600000,1.680000,0.323883,0.080000,-0.003702,-0.001185,-0.001289,0.000536,-0.000000,-0.000000,0.000000
0.680000,1.680000,0.321403,0.080000,-0.003584,-0.001339,-0.001124,0.000593,-0.000000,-0.000000,0.000000
0.760000,1.680000,0.320156,0.080000,-0.003474,-0.001525,-0.000926,0.000642,-0.000000,-0.000000,0.000000
0.840000,1.680000,0.320156,0.080000,-0.003370,-0.001746,-0.000693,0.000681,-0.000000,0.000000,0.000000
0.920000,1.680000,0.321403,0.080000,-0.003270,-0.002010,-0.000416,0.000704,-0.000000,0.000000,0.000000
1.000000,1.680000,0.323883,0.080000,-0.003172,-0.002324,-0.000089,0.000705,-0.000000,0.000000,0.000000
1.080000,1.680000,0.321403,0.080000,-0.003076,-0.002698,0.000298,0.000678,-0.000000,0.000000,0.000000
1.160000,1.680000,0.320156,0.080000,-0.002977,-0.003145,0.000756,0.000609,-0.000000,0.000000,0.000000
1.240000,1.680000,0.320156,0.080000,-0.002873,-0.003680,0.001300,0.000481,-0.000000,0.000000,0.000000
1.320000,1.680000,0.321403,0.080000,-0.002761,-0.004322,0.001947,0.000270,-0.000000,0.000000,0.000000
1.400000,1.680000,0.323883,0.080000,-0.002637,-0.005091,0.002716,-0.000059,-0.000000,0.000000,-0.000000
1.480000,1.680000,0.321403,0.080000,-0.002495,-0.006016,0.003633,-0.000562,-0.000000,0.000000,-0.000000
1.560000,1.680000,0.320156,0.080000,-0.002329,-0.007122,0.004720,-0.001318,-0.000000,0.000000,-0.000000
1.640000,1.680000,0.320156,0.080000,-0.002134,-0.008435,0.005997,-0.002449,-0.000000,0.000000,-0.000000
1.720000,1.680000,0.321403,0.080000,-0.001899,-0.009963,0.007465,-0.004140,-0.000000,0.000000,-0.000000
1.800000,1.680000,0.323883,0.080000,-0.001618,-0.011665,0.009074,-0.006675,-0.000000,0.000000,-0.000000
1.880000,1.680000,0.321403,0.080000,-0.001278,-0.013383,0.010654,-0.010482,-0.000000,0.000000,-0.000000
1.960000,1.680000,0.320156,0.080000,-0.000870,-0.014656,0.011634,-0.016238,-0.000000,0.000000,-0.000000
2.040000,1.680000,0.320156,0.080000,-0.000389,-0.014488,0.011274,-0.024577,-0.000000,0.000000,-0.000000
2.120000,1.680000,0.321403,0.080000,0.000162,-0.010465,0.006833,-0.036365,-0.000000,0.000000,-0.000000
-2.500000,-1.980000,0.030000,0.040000,0.000633,12.318442,-4.180251,-5.275539,0.000000,-0.000000,-0.000000
-2.420000,-1.980000,0.036056,0.040000,-0.004213,1.116244,-1.460939,-1.540731,0.000000,-0.000000,-0.000000
-2.460000,-1.980000,0.022361,0.040000,-0.001450,4.812520,-2.821354,-2.714218,0.000000,-0.000000,-0.000000
-2.340000,-1.980000,0.022361,0.040000,-0.012483,-0.270807,0.542895,-0.334738,-0.000000,0.000000,-0.000000
-2.380000,-1.980000,0.036056,0.040000,-0.010239,-0.591267,0.740397,-0.651000,-0.000000,0.000000,-0.000000
-2.260000,-1.980000,0.022361,0.040000,-0.015975,-0.247178,0.285478,-0.067269,-0.000000,0.000000,-0.000000
-2.300000,-1.980000,0.053852,0.040000,-0.014379,-0.244717,0.282028,-0.128423,-0.000000,0.000000,-0.000000
-2.180000,-1.980000,0.036056,0.040000,-0.017675,-0.157094,0.156865,-0.014727,-0.000000,0.000000,-0.000000
-2.220000,-1.980000,0.036056,0.040000,-0.016660,-0.087865,0.101816,-0.029870,-0.000000,0.000000,-0.000000
-2.100000,-1.980000,0.053852,0.040000,-0.018497,-0.064873,0.056024,0.005368,-0.000000,0.000000,0.000000
-2.140000,-1.980000,0.022361,0.040000,-0.018075,-0.073040,0.081166,0.000150,-0.000000,0.000000,0.000000
-2.020000,-1.980000,0.036056,0.040000,-0.018986,-0.025641,0.023053,0.005465,-0.000000,0.000000,0.000000
-2.060000,-1.980000,0.022361,0.040000,-0.018857,-0.067676,0.068777,0.004673,-0.000000,0.000000,0.000000
-1.940000,-1.980000,0.022361,0.040000,-0.019281,-0.025958,0.026202,0.007318,-0.000000,0.000000,0.000000
-1.980000,-1.980000,0.036056,0.040000,-0.019230,-0.050793,0.048076,0.004907,-0.000000,0.000000,0.000000
-1.860000,-1.980000,0.022361,0.040000,-0.019375,-0.025863,0.024934,0.006157,-0.000000,0.000000,0.000000
-1.900000,-1.980000,0.053852,0.040000,-0.019339,-0.024349,0.019446,0.007281,-0.000000,0.000000,0.000000
-1.780000,-1.980000,0.036056,0.040000,-0.019320,-0.019569,0.017200,0.005243,-0.000000,0.000000,0.000000
-1.820000,-1.980000,0.036056,0.040000,-0.019334,-0.013113,0.010784,0.005982,-0.000000,0.000000,0.000000
-1.700000,-1.980000,0.053852,0.040000,-0.019167,-0.011471,0.008205,0.005341,-0.000000,0.000000,0.000000
-1.740000,-1.980000,0.022361,0.040000,-0.019248,-0.013128,0.012116,0.005686,-0.000000,0.000000,0.000000
-1.620000,-1.980000,0.036056,0.040000,-0.018967,-0.009590,0.007628,0.004799,-0.000000,0.000000,0.000000
-1.660000,-1.980000,0.022361,0.040000,-0.019076,-0.011077,0.009654,0.004698,-0.000000,0.000000,0.000000
-1.540000,-1.980000,0.022361,0.040000,-0.018720,-0.008289,0.006820,0.004093,-0.000000,0.000000,0.000000
-1.580000,-1.980000,0.036056,0.040000,-0.018842,-0.006899,0.004627,0.004317,-0.000000,0.000000,0.000000
-1.460000,-1.980000,0.022361,0.040000,-0.018431,-0.004497,0.002822,0.003438,-0.000000,0.000000,0.000000
-1.500000,-1.980000,0.053852,0.040000,-0.018577,-0.006095,0.003507,0.003789,-0.000000,0.000000,0.000000
-1.380000,-1.980000,0.036056,0.040000,-0.018117,-0.000852,-0.001429,0.003468,-0.000000,-0.000000,0.000000
-1.420000,-1.980000,0.036056,0.040000,-0.018292,-0.008241,0.006448,0.003773,-0.000000,0.000000,0.000000
-1.300000,-1.980000,0.053852,0.040000,-0.017806,-0.003451,0.001163,0.002701,-0.000000,0.000000,0.000000
-1.340000,-1.980000,0.022361,0.040000,-0.017974,-0.006012,0.004292,0.002948,-0.000000,0.000000,0.000000
-1.220000,-1.980000,0.036056,0.040000,-0.017488,-0.007494,0.005755,0.002983,-0.000000,0.000000,0.000000
-1.260000,-1.980000,0.022361,0.040000,-0.017636,-0.001182,-0.000665,0.002515,-0.000000,-0.000000,0.000000
-1.140000,-1.980000,0.022361,0.040000,-0.017145,-0.004734,0.002845,0.002127,-0.000000,0.000000,0.000000
-1.180000,-1.980000,0.036056,0.040000,-0.017293,0.002252,-0.004573,0.002787,0.000000,-0.000000,0.000000
-1.060000,-1.980000,0.022361,0.040000,-0.016793,0.000592,-0.002567,0.001833,0.000000,-0.000000,0.000000
-1.100000,-1.980000,0.053852,0.040000,-0.016969,-0.002006,-0.000146,0.001926,-0.000000,0.000000,0.000000
-0.980000,-1.980000,0.036056,0.040000,-0.016448,0.003852,-0.006212,0.002233,0.000000,-0.000000,0.000000
-1.020000,-1.980000,0.036056,0.040000,-0.016646,-0.006907,0.005164,0.002363,-0.000000,0.000000,0.000000
-0.900000,-1.980000,0.053852,0.040000,-0.016130,-0.001160,-0.000932,0.001348,-0.000000,-0.000000,0.000000
-0.940000,-1.980000,0.022361,0.040000,-0.016303,-0.003902,0.001890,0.001517,-0.000000,0.000000,0.000000
-0.820000,-1.980000,0.036056,0.040000,-0.015818,-0.006348,0.004575,0.001854,-0.000000,0.000000,0.000000
-0.860000,-1.980000,0.022361,0.040000,-0.015958,0.001546,-0.003619,0.001310,0.000000,-0.000000,0.000000
-0.740000,-1.980000,0.022361,0.040000,-0.015490,-0.003295,0.001192,0.001041,-0.000000,0.000000,0.000000
-0.780000,-1.980000,0.036056,0.040000,-0.015627,0.004602,-0.006993,0.001767,0.000000,-0.000000,0.000000
-0.660000,-1.980000,0.022361,0.040000,-0.015165,0.002024,-0.004171,0.000890,0.000000,-0.000000,0.000000
-0.700000,-1.980000,0.053852,0.040000,-0.015327,-0.000645,-0.001423,0.000897,-0.000000,-0.000000,0.000000
-0.580000,-1.980000,0.036056,0.040000,-0.014857,0.004840,-0.007247,0.001357,0.000000,-0.000000,0.000000
-0.620000,-1.980000,0.036056,0.040000,-0.015036,-0.005784,0.003969,0.001417,-0.000000,0.000000,0.000000
-0.500000,-1.980000,0.053852,0.040000,-0.014583,-0.000331,-0.001730,0.000526,0.000000,-0.000000,0.000000
-0.540000,-1.980000,0.022361,0.040000,-0.014733,-0.002815,0.000646,0.000651,-0.000000,0.000000,0.000000
-0.420000,-1.980000,0.036056,0.040000,-0.014320,-0.005218,0.003359,0.001026,-0.000000,0.000000,0.000000
-0.460000,-1.980000,0.022361,0.040000,-0.014436,0.002208,-0.004407,0.000536,0.000000,-0.000000,0.000000
-0.340000,-1.980000,0.022361,0.040000,-0.014047,-0.002423,0.000210,0.000316,-0.000000,0.000000,0.000000
-0.380000,-1.980000,0.036056,0.040000,-0.014158,0.004756,-0.007165,0.000982,0.000000,-0.000000,0.000000
-0.260000,-1.980000,0.022361,0.040000,-0.013783,0.002199,-0.004431,0.000220,0.000000,-0.000000,0.000000
-0.300000,-1.980000,0.053852,0.040000,-0.013914,-0.000149,-0.001911,0.000204,0.000000,-0.000000,0.000000
-0.180000,-1.980000,0.036056,0.040000,-0.013538,0.004463,-0.006861,0.000628,0.000000,-0.000000,0.000000
-0.220000,-1.980000,0.036056,0.040000,-0.013681,-0.004668,0.002768,0.000662,-0.000000,0.000000,0.000000
-0.100000,-1.980000,0.053852,0.040000,-0.013327,-0.000066,-0.001995,-0.000092,0.000000,-0.000000,-0.000000
-0.140000,-1.980000,0.022361,0.040000,-0.013443,-0.002105,-0.000132,0.000010,-0.000000,0.000000,0.000000
-0.020000,-1.980000,0.036056,0.040000,-0.013128,-0.004161,0.002228,0.000313,-0.000000,0.000000,0.000000
-0.060000,-1.980000,0.022361,0.040000,-0.013214,0.002058,-0.004302,-0.000075,0.000000,-0.000000,-0.000000
0.060000,-1.980000,0.022361,0.040000,-0.012925,-0.001866,-0.000377,-0.000282,-0.000000,0.000000,-0.000000
0.020000,-1.980000,0.036056,0.040000,-0.013005,0.004038,-0.006413,0.000281,0.000000,-0.000000,0.000000
0.140000,-1.980000,0.022361,0.040000,-0.012732,0.001819,-0.004058,-0.000368,0.000000,-0.000000,-0.000000
0.100000,-1.980000,0.053852,0.040000,-0.012827,-0.000066,-0.001995,-0.000379,0.000000,-0.000000,-0.000000
0.220000,-1.980000,0.036056,0.040000,-0.012559,0.003531,-0.005873,-0.000068,0.000000,-0.000000,-0.000000
0.180000,-1.980000,0.036056,0.040000,-0.012662,-0.003736,0.001780,-0.000034,-0.000000,0.000000,-0.000000
0.300000,-1.980000,0.053852,0.040000,-0.012414,-0.000149,-0.001911,-0.000675,0.000000,-0.000000,-0.000000
0.260000,-1.980000,0.022361,0.040000,-0.012494,-0.001724,-0.000505,-0.000577,-0.000000,0.000000,-0.000000
0.380000,-1.980000,0.036056,0.040000,-0.012281,-0.003443,0.001476,-0.000388,-0.000000,0.000000,-0.000000
0.340000,-1.980000,0.022361,0.040000,-0.012337,0.001501,-0.003716,-0.000673,0.000000,-0.000000,-0.000000
0.460000,-1.980000,0.022361,0.040000,-0.012147,-0.001715,-0.000481,-0.000893,-0.000000,0.000000,-0.000000
0.420000,-1.980000,0.036056,0.040000,-0.012197,0.002981,-0.005283,-0.000432,0.000000,-0.000000,-0.000000
0.540000,-1.980000,0.022361,0.040000,-0.012023,0.001109,-0.003280,-0.001009,0.000000,-0.000000,-0.000000
0.500000,-1.980000,0.053852,0.040000,-0.012084,-0.000331,-0.001730,-0.000997,0.000000,-0.000000,-0.000000
0.620000,-1.980000,0.036056,0.040000,-0.011914,0.002415,-0.004673,-0.000823,0.000000,-0.000000,-0.000000
0.580000,-1.980000,0.036056,0.040000,-0.011981,-0.003358,0.001393,-0.000763,-0.000000,0.000000,-0.000000
0.700000,-1.980000,0.053852,0.040000,-0.011827,-0.000645,-0.001423,-0.001368,-0.000000,-0.000000,-0.000000
0.660000,-1.980000,0.022361,0.040000,-0.011877,-0.001899,-0.000246,-0.001247,-0.000000,0.000000,-0.000000
0.780000,-1.980000,0.036056,0.040000,-0.011750,-0.003596,0.001648,-0.001173,-0.000000,0.000000,-0.000000
0.740000,-1.980000,0.022361,0.040000,-0.011780,0.000629,-0.002735,-0.001398,0.000000,-0.000000,-0.000000
0.860000,-1.980000,0.022361,0.040000,-0.011670,-0.002377,0.000306,-0.001667,-0.000000,0.000000,-0.000000
0.820000,-1.980000,0.036056,0.040000,-0.011696,0.001851,-0.004067,-0.001260,0.000000,-0.000000,-0.000000
0.940000,-1.980000,0.022361,0.040000,-0.011593,0.000022,-0.002036,-0.001874,0.000000,-0.000000,-0.000000
0.900000,-1.980000,0.053852,0.040000,-0.011631,-0.001159,-0.000933,-0.001819,-0.000000,-0.000000,-0.000000
1.020000,-1.980000,0.036056,0.040000,-0.011524,0.001293,-0.003477,-0.001768,0.000000,-0.000000,-0.000000
0.980000,-1.980000,0.036056,0.040000,-0.011572,-0.004346,0.002427,-0.001639,-0.000000,0.000000,-0.000000
1.100000,-1.980000,0.053852,0.040000,-0.011470,-0.002005,-0.000147,-0.002397,-0.000000,0.000000,-0.000000
1.060000,-1.980000,0.022361,0.040000,-0.011505,-0.003330,0.001358,-0.002190,-0.000000,0.000000,-0.000000
1.180000,-1.980000,0.036056,0.040000,-0.011418,-0.005944,0.004066,-0.002192,-0.000000,0.000000,-0.000000
1.140000,-1.980000,0.022361,0.040000,-0.011435,-0.000809,-0.001082,-0.002484,-0.000000,-0.000000,-0.000000
1.260000,-1.980000,0.022361,0.040000,-0.011348,-0.005103,0.003259,-0.002871,-0.000000,0.000000,-0.000000
1.220000,-1.980000,0.036056,0.040000,-0.011366,0.000706,-0.002887,-0.002389,0.000000,-0.000000,-0.000000
1.340000,-1.980000,0.022361,0.040000,-0.011265,-0.002087,0.000364,-0.003304,-0.000000,0.000000,-0.000000
1.300000,-1.980000,0.053852,0.040000,-0.011307,-0.003449,0.001161,-0.003172,-0.000000,0.000000,-0.000000
1.420000,-1.980000,0.036056,0.040000,-0.011171,-0.000041,-0.002194,-0.003178,0.000000,-0.000000,-0.000000
1.380000,-1.980000,0.036056,0.040000,-0.011242,-0.009048,0.007209,-0.002873,-0.000000,0.000000,-0.000000
1.500000,-1.980000,0.053852,0.040000,-0.011079,-0.006092,0.003504,-0.004259,-0.000000,0.000000,-0.000000
1.460000,-1.980000,0.022361,0.040000,-0.011143,-0.008417,0.006744,-0.003794,-0.000000,0.000000,-0.000000
1.580000,-1.980000,0.036056,0.040000,-0.010967,-0.015091,0.013262,-0.003722,-0.000000,0.000000,-0.000000
1.540000,-1.980000,0.022361,0.040000,-0.011011,-0.004363,0.002892,-0.004449,-0.000000,0.000000,-0.000000
1.660000,-1.980000,0.022361,0.040000,-0.010790,-0.014994,0.013573,-0.005052,-0.000000,0.000000,-0.000000
1.620000,-1.980000,0.036056,0.040000,-0.010846,-0.001389,-0.001014,-0.004203,-0.000000,-0.000000,-0.000000
1.740000,-1.980000,0.022361,0.040000,-0.010540,-0.009200,0.008185,-0.006040,-0.000000,0.000000,-0.000000
1.700000,-1.980000,0.053852,0.040000,-0.010669,-0.011465,0.008200,-0.005809,-0.000000,0.000000,-0.000000
1.820000,-1.980000,0.036056,0.040000,-0.010214,-0.004909,0.002138,-0.005384,-0.000000,0.000000,-0.000000
1.780000,-1.980000,0.036056,0.040000,-0.010445,-0.027756,0.025830,-0.004646,-0.000000,0.000000,-0.000000
1.900000,-1.980000,0.053852,0.040000,-0.009842,-0.024336,0.019435,-0.007746,-0.000000,0.000000,-0.000000
1.860000,-1.980000,0.022361,0.040000,-0.010089,-0.029773,0.028846,-0.006509,-0.000000,0.000000,-0.000000
1.980000,-1.980000,0.036056,0.040000,-0.009357,-0.058966,0.056692,-0.004304,-0.000000,0.000000,-0.000000
1.940000,-1.980000,0.022361,0.040000,-0.009574,-0.022021,0.022264,-0.007667,-0.000000,0.000000,-0.000000
2.060000,-1.980000,0.022361,0.040000,-0.008572,-0.071563,0.072669,-0.005016,-0.000000,0.000000,-0.000000
2.020000,-1.980000,0.036056,0.040000,-0.008867,-0.017427,0.014399,-0.004860,-0.000000,0.000000,-0.000000
2.140000,-1.980000,0.022361,0.040000,-0.007369,-0.069069,0.077195,-0.000484,-0.000000,0.000000,-0.000000
2.100000,-1.980000,0.053852,0.040000,-0.008002,-0.064834,0.055991,-0.005821,-0.000000,0.000000,-0.000000
2.220000,-1.980000,0.036056,0.040000,-0.005543,-0.079582,0.093104,0.030503,-0.000000,0.000000,0.000000
2.180000,-1.980000,0.036056,0.040000,-0.006803,-0.165203,0.165425,0.015349,-0.000000,0.000000,0.000000
2.300000,-1.980000,0.053852,0.040000,-0.002887,-0.244458,0.281817,0.128032,-0.000000,0.000000,0.000000
2.260000,-1.980000,0.022361,0.040000,-0.004693,-0.250926,0.289247,0.066966,-0.000000,0.000000,0.000000
2.380000,-1.980000,0.036056,0.040000,0.001628,-0.599121,0.751675,0.649613,-0.000000,0.000000,0.000000
2.340000,-1.980000,0.022361,0.040000,-0.000781,-0.266425,0.538548,0.334479,-0.000000,0.000000,0.000000
2.460000,-1.980000,0.022361,0.040000,0.010820,-0.196952,-0.433457,-0.139179,-0.000000,-0.000000,-0.000000
2.420000,-1.980000,0.036056,0.040000,0.007897,0.089460,-0.447239,0.521211,0.000000,-0.000000,0.000000
2.500000,-1.980000,0.030000,0.040000,0.013084,-0.486832,-0.026863,-0.784101,-0.000000,0.000000,-0.000000
-2.500000,-1.940000,0.010000,0.040000,-0.023892,8.846627,-9.303664,-0.494096,0.000000,-0.000000,-0.000000
-2.500000,-1.900000,0.050000,0.040000,-0.013177,0.293118,-3.954977,1.443890,0.000000,-0.000000,0.000000
-2.460000,-1.940000,0.041231,0.040000,-0.004285,1.154342,-5.535264,-0.639153,0.000000,-0.000000,-0.000000
-2.420000,-1.940000,0.067082,0.040000,-0.007189,0.711557,-1.733217,-0.746168,0.000000,-0.000000,-0.000000
-2.420000,-1.900000,0.094340,0.040000,-0.009540,0.289140,-1.281581,-0.181876,0.000000,-0.000000,-0.000000
-2.460000,-1.900000,0.064031,0.040000,-0.007980,0.170712,-3.776154,0.534392,0.000000,-0.000000,0.000000
-2.380000,-1.940000,0.067082,0.040000,-0.010139,-0.152273,0.221446,-0.603751,-0.000000,0.000000,-0.000000
-2.340000,-1.940000,0.060828,0.040000,-0.012407,-0.277752,0.355526,-0.337847,-0.000000,0.000000,-0.000000
-2.340000,-1.900000,0.100499,0.040000,-0.012853,-0.176712,0.169913,-0.313029,-0.000000,0.000000,-0.000000
-2.380000,-1.900000,0.104403,0.040000,-0.011262,-0.081803,0.064189,-0.521585,-0.000000,0.000000,-0.000000
-2.300000,-1.940000,0.078102,0.040000,-0.014101,-0.229274,0.234576,-0.156332,-0.000000,0.000000,-0.000000
-2.260000,-1.940000,0.060828,0.040000,-0.015407,-0.172018,0.200977,-0.087896,-0.000000,0.000000,-0.000000
-2.260000,-1.900000,0.100499,0.040000,-0.015267,-0.144122,0.141853,-0.110817,-0.000000,0.000000,-0.000000
-2.300000,-1.900000,0.111803,0.040000,-0.014188,-0.167604,0.159230,-0.188256,-0.000000,0.000000,-0.000000
-2.220000,-1.940000,0.067082,0.040000,-0.016342,-0.138935,0.132447,-0.045106,-0.000000,0.000000,-0.000000
-2.180000,-1.940000,0.067082,0.040000,-0.017092,-0.106553,0.111364,-0.024826,-0.000000,0.000000,-0.000000
-2.180000,-1.900000,0.104403,0.040000,-0.016790,-0.095574,0.092187,-0.041479,-0.000000,0.000000,-0.000000
-2.220000,-1.900000,0.104403,0.040000,-0.016118,-0.117253,0.110972,-0.065853,-0.000000,0.000000,-0.000000
-2.140000,-1.940000,0.060828,0.040000,-0.017639,-0.087501,0.084002,-0.009497,-0.000000,0.000000,-0.000000
-2.100000,-1.940000,0.078102,0.040000,-0.018060,-0.066228,0.060644,-0.002076,-0.000000,0.000000,-0.000000
-2.100000,-1.900000,0.111803,0.040000,-0.017718,-0.061688,0.058092,-0.014171,-0.000000,0.000000,-0.000000
-2.140000,-1.900000,0.100499,0.040000,-0.017313,-0.077873,0.073358,-0.021872,-0.000000,0.000000,-0.000000
-2.060000,-1.940000,0.060828,0.040000,-0.018385,-0.051573,0.054968,-0.000255,-0.000000,0.000000,-0.000000
-2.020000,-1.940000,0.067082,0.040000,-0.018612,-0.043775,0.038434,0.002031,-0.000000,0.000000,0.000000
-2.020000,-1.900000,0.104403,0.040000,-0.018262,-0.041696,0.038659,-0.003726,-0.000000,0.000000,-0.000000
-2.060000,-1.900000,0.100499,0.040000,-0.018030,-0.050729,0.048866,-0.007356,-0.000000,0.000000,-0.000000
-1.980000,-1.940000,0.067082,0.040000,-0.018786,-0.036117,0.035940,0.002649,-0.000000,0.000000,0.000000
-1.940000,-1.940000,0.060828,0.040000,-0.018896,-0.031495,0.028734,0.004704,-0.000000,0.000000,0.000000
-1.940000,-1.900000,0.100499,0.040000,-0.018550,-0.030027,0.027494,0.001120,-0.000000,0.000000,0.000000
-1.980000,-1.900000,0.104403,0.040000,-0.018433,-0.035353,0.033266,-0.001815,-0.000000,0.000000,-0.000000
-1.900000,-1.940000,0.078102,0.040000,-0.018963,-0.025423,0.022106,0.005167,-0.000000,0.000000,0.000000
-1.860000,-1.940000,0.060828,0.040000,-0.018995,-0.021123,0.020984,0.004680,-0.000000,0.000000,0.000000
-1.860000,-1.900000,0.100499,0.040000,-0.018659,-0.021483,0.019733,0.002397,-0.000000,0.000000,0.000000
-1.900000,-1.900000,0.111803,0.040000,-0.018623,-0.024975,0.022684,0.001493,-0.000000,0.000000,0.000000
-1.820000,-1.940000,0.067082,0.040000,-0.018991,-0.018601,0.015665,0.004817,-0.000000,0.000000,0.000000
-1.780000,-1.940000,0.067082,0.040000,-0.018964,-0.015997,0.014490,0.004442,-0.000000,0.000000,0.000000
-1.780000,-1.900000,0.104403,0.040000,-0.018642,-0.016059,0.014165,0.002825,-0.000000,0.000000,0.000000
-1.820000,-1.900000,0.104403,0.040000,-0.018663,-0.018385,0.016241,0.002830,-0.000000,0.000000,0.000000
-1.740000,-1.940000,0.060828,0.040000,-0.018913,-0.014222,0.012419,0.004752,-0.000000,0.000000,0.000000
-1.700000,-1.940000,0.078102,0.040000,-0.018842,-0.012078,0.009595,0.004575,-0.000000,0.000000,0.000000
-1.700000,-1.900000,0.111803,0.040000,-0.018534,-0.012122,0.010140,0.003258,-0.000000,0.000000,0.000000
-1.740000,-1.900000,0.100499,0.040000,-0.018598,-0.014087,0.012115,0.003368,-0.000000,0.000000,0.000000
-1.660000,-1.940000,0.060828,0.040000,-0.018756,-0.010603,0.009117,0.004159,-0.000000,0.000000,0.000000
-1.620000,-1.940000,0.067082,0.040000,-0.018656,-0.009351,0.007501,0.004221,-0.000000,0.000000,0.000000
-1.620000,-1.900000,0.104403,0.040000,-0.018360,-0.009454,0.007566,0.003325,-0.000000,0.000000,0.000000
-1.660000,-1.900000,0.100499,0.040000,-0.018454,-0.010755,0.008902,0.003191,-0.000000,0.000000,0.000000
-1.580000,-1.940000,0.067082,0.040000,-0.018543,-0.008198,0.006012,0.003887,-0.000000,0.000000,0.000000
-1.540000,-1.940000,0.060828,0.040000,-0.018421,-0.007178,0.005832,0.003728,-0.000000,0.000000,0.000000
-1.540000,-1.900000,0.100499,0.040000,-0.018137,-0.007432,0.005624,0.003056,-0.000000,0.000000,0.000000
-1.580000,-1.900000,0.104403,0.040000,-0.018254,-0.008303,0.006371,0.003127,-0.000000,0.000000,0.000000
-1.500000,-1.940000,0.078102,0.040000,-0.018290,-0.006444,0.004267,0.003496,-0.000000,0.000000,0.000000
-1.460000,-1.940000,0.060828,0.040000,-0.018151,-0.006012,0.003836,0.003242,-0.000000,0.000000,0.000000
-1.460000,-1.900000,0.100499,0.040000,-0.017878,-0.005953,0.003971,0.002736,-0.000000,0.000000,0.000000
-1.500000,-1.900000,0.111803,0.040000,-0.018012,-0.006558,0.004627,0.003049,-0.000000,0.000000,0.000000
-1.420000,-1.940000,0.067082,0.040000,-0.018008,-0.005155,0.003796,0.003394,-0.000000,0.000000,0.000000
-1.380000,-1.940000,0.067082,0.040000,-0.017857,-0.004543,0.001962,0.003158,-0.000000,0.000000,0.000000
-1.380000,-1.900000,0.104403,0.040000,-0.017594,-0.004610,0.002595,0.002723,-0.000000,0.000000,0.000000
-1.420000,-1.900000,0.104403,0.040000,-0.017739,-0.005332,0.003499,0.002900,-0.000000,0.000000,0.000000
-1.340000,-1.940000,0.060828,0.040000,-0.017704,-0.003776,0.002618,0.002820,-0.000000,0.000000,0.000000
-1.300000,-1.940000,0.078102,0.040000,-0.017546,-0.003656,0.001586,0.002611,-0.000000,0.000000,0.000000
-1.300000,-1.900000,0.111803,0.040000,-0.017292,-0.003770,0.001813,0.002545,-0.000000,0.000000,0.000000
-1.340000,-1.900000,0.100499,0.040000,-0.017445,-0.004181,0.002397,0.002433,-0.000000,0.000000,0.000000
-1.260000,-1.940000,0.060828,0.040000,-0.017386,-0.003681,0.001114,0.002468,-0.000000,0.000000,0.000000
-1.220000,-1.940000,0.067082,0.040000,-0.017225,-0.002980,0.001827,0.002689,-0.000000,0.000000,0.000000
-1.220000,-1.900000,0.104403,0.040000,-0.016978,-0.003173,0.001324,0.002372,-0.000000,0.000000,0.000000
-1.260000,-1.900000,0.100499,0.040000,-0.017136,-0.003490,0.001395,0.002156,-0.000000,0.000000,0.000000
-1.180000,-1.940000,0.067082,0.040000,-0.017059,-0.002609,-0.000206,0.002526,-0.000000,0.000000,0.000000
-1.140000,-1.940000,0.060828,0.040000,-0.016896,-0.001951,0.000840,0.002113,-0.000000,0.000000,0.000000
-1.140000,-1.900000,0.100499,0.040000,-0.016657,-0.002415,0.000602,0.001860,-0.000000,0.000000,0.000000
-1.180000,-1.900000,0.104403,0.040000,-0.016818,-0.002640,0.000542,0.002237,-0.000000,0.000000,0.000000
-1.100000,-1.940000,0.078102,0.040000,-0.016730,-0.002126,0.000083,0.001932,-0.000000,0.000000,0.000000
-1.060000,-1.940000,0.060828,0.040000,-0.016564,-0.002366,-0.000426,0.001856,-0.000000,0.000000,0.000000
-1.060000,-1.900000,0.100499,0.040000,-0.016332,-0.002105,-0.000080,0.001641,-0.000000,0.000000,0.000000
-1.100000,-1.900000,0.111803,0.040000,-0.016495,-0.002230,0.000223,0.002049,-0.000000,0.000000,0.000000
-1.020000,-1.940000,0.067082,0.040000,-0.016400,-0.001748,0.000655,0.002115,-0.000000,0.000000,0.000000
-0.980000,-1.940000,0.067082,0.040000,-0.016233,-0.001500,-0.001445,0.002000,-0.000000,-0.000000,0.000000
-0.980000,-1.900000,0.104403,0.040000,-0.016008,-0.001508,-0.000661,0.001787,-0.000000,-0.000000,0.000000
-1.020000,-1.900000,0.104403,0.040000,-0.016170,-0.001940,0.000048,0.001888,-0.000000,0.000000,0.000000
-0.940000,-1.940000,0.060828,0.040000,-0.016071,-0.000908,-0.000232,0.001559,-0.000000,0.000000,0.000000
-0.900000,-1.940000,0.078102,0.040000,-0.015907,-0.001227,-0.000821,0.001402,-0.000000,-0.000000,0.000000
-0.900000,-1.900000,0.111803,0.040000,-0.015686,-0.001322,-0.000737,0.001609,-0.000000,-0.000000,0.000000
-0.940000,-1.900000,0.100499,0.040000,-0.015846,-0.001388,-0.000473,0.001378,-0.000000,0.000000,0.000000
-0.860000,-1.940000,0.060828,0.040000,-0.015744,-0.001569,-0.001347,0.001368,-0.000000,-0.000000,0.000000
-0.820000,-1.940000,0.067082,0.040000,-0.015586,-0.001010,-0.000102,0.001637,-0.000000,0.000000,0.000000
-0.820000,-1.900000,0.104403,0.040000,-0.015368,-0.001195,-0.000748,0.001464,-0.000000,-0.000000,0.000000
-0.860000,-1.900000,0.100499,0.040000,-0.015526,-0.001277,-0.000976,0.001207,-0.000000,-0.000000,0.000000
-0.780000,-1.940000,0.067082,0.040000,-0.015425,-0.000832,-0.002172,0.001554,0.000000,-0.000000,0.000000
-0.740000,-1.940000,0.060828,0.040000,-0.015270,-0.000294,-0.000914,0.001112,0.000000,-0.000000,0.000000
-0.740000,-1.900000,0.100499,0.040000,-0.015057,-0.000767,-0.001147,0.000976,-0.000000,-0.000000,0.000000
-0.780000,-1.900000,0.104403,0.040000,-0.015212,-0.000829,-0.001395,0.001388,-0.000000,-0.000000,0.000000
-0.700000,-1.940000,0.078102,0.040000,-0.015115,-0.000679,-0.001386,0.000974,-0.000000,-0.000000,0.000000
-0.660000,-1.940000,0.060828,0.040000,-0.014962,-0.001061,-0.001907,0.000964,-0.000000,-0.000000,0.000000
-0.660000,-1.900000,0.100499,0.040000,-0.014754,-0.000765,-0.001535,0.000838,-0.000000,-0.000000,0.000000
-0.700000,-1.900000,0.111803,0.040000,-0.014905,-0.000767,-0.001338,0.001221,-0.000000,-0.000000,0.000000
-0.620000,-1.940000,0.067082,0.040000,-0.014814,-0.000556,-0.000617,0.001226,-0.000000,-0.000000,0.000000
-0.580000,-1.940000,0.067082,0.040000,-0.014665,-0.000424,-0.002588,0.001163,0.000000,-0.000000,0.000000
-0.580000,-1.900000,0.104403,0.040000,-0.014460,-0.000416,-0.001846,0.001029,0.000000,-0.000000,0.000000
-0.620000,-1.900000,0.104403,0.040000,-0.014606,-0.000732,-0.001259,0.001088,-0.000000,-0.000000,0.000000
-0.540000,-1.940000,0.060828,0.040000,-0.014522,0.000064,-0.001359,0.000736,0.000000,-0.000000,0.000000
-0.500000,-1.940000,0.078102,0.040000,-0.014380,-0.000344,-0.001740,0.000613,0.000000,-0.000000,0.000000
-0.500000,-1.900000,0.111803,0.040000,-0.014177,-0.000426,-0.001715,0.000872,0.000000,-0.000000,0.000000
-0.540000,-1.900000,0.100499,0.040000,-0.014317,-0.000388,-0.001575,0.000630,0.000000,-0.000000,0.000000
-0.460000,-1.940000,0.060828,0.040000,-0.014240,-0.000732,-0.002240,0.000615,0.000000,-0.000000,0.000000
-0.420000,-1.940000,0.067082,0.040000,-0.014106,-0.000279,-0.000976,0.000859,0.000000,-0.000000,0.000000
-0.420000,-1.900000,0.104403,0.040000,-0.013904,-0.000446,-0.001585,0.000748,0.000000,-0.000000,0.000000
-0.460000,-1.900000,0.100499,0.040000,-0.014039,-0.000449,-0.001879,0.000515,0.000000,-0.000000,0.000000
-0.380000,-1.940000,0.067082,0.040000,-0.013971,-0.000181,-0.002802,0.000809,0.000000,-0.000000,0.000000
-0.340000,-1.940000,0.060828,0.040000,-0.013843,0.000255,-0.001643,0.000405,0.000000,-0.000000,0.000000
-0.340000,-1.900000,0.100499,0.040000,-0.013644,-0.000168,-0.001836,0.000322,0.000000,-0.000000,0.000000
-0.380000,-1.900000,0.104403,0.040000,-0.013772,-0.000174,-0.002111,0.000699,0.000000,-0.000000,0.000000
-0.300000,-1.940000,0.078102,0.040000,-0.013715,-0.000150,-0.001948,0.000294,0.000000,-0.000000,0.000000
-0.260000,-1.940000,0.060828,0.040000,-0.013591,-0.000526,-0.002413,0.000300,0.000000,-0.000000,0.000000
-0.260000,-1.900000,0.100499,0.040000,-0.013395,-0.000266,-0.002072,0.000221,0.000000,-0.000000,0.000000
-0.300000,-1.900000,0.111803,0.040000,-0.013518,-0.000229,-0.001937,0.000549,0.000000,-0.000000,0.000000
-0.220000,-1.940000,0.067082,0.040000,-0.013473,-0.000127,-0.001217,0.000518,0.000000,-0.000000,0.000000
-0.180000,-1.940000,0.067082,0.040000,-0.013354,-0.000055,-0.002871,0.000475,0.000000,-0.000000,0.000000
-0.180000,-1.900000,0.104403,0.040000,-0.013159,-0.000052,-0.002240,0.000387,0.000000,-0.000000,0.000000
-0.220000,-1.900000,0.104403,0.040000,-0.013275,-0.000284,-0.001778,0.000430,0.000000,-0.000000,0.000000
-0.140000,-1.940000,0.060828,0.040000,-0.013242,0.000327,-0.001804,0.000100,0.000000,-0.000000,0.000000
-0.100000,-1.940000,0.078102,0.040000,-0.013131,-0.000061,-0.002045,-0.000003,0.000000,-0.000000,-0.000000
-0.100000,-1.900000,0.111803,0.040000,-0.012936,-0.000138,-0.002040,0.000242,0.000000,-0.000000,0.000000
-0.140000,-1.900000,0.100499,0.040000,-0.013046,-0.000063,-0.001972,0.000037,0.000000,-0.000000,0.000000
-0.060000,-1.940000,0.060828,0.040000,-0.013024,-0.000416,-0.002464,0.000003,0.000000,-0.000000,0.000000
-0.020000,-1.940000,0.067082,0.040000,-0.012922,-0.000071,-0.001360,0.000190,0.000000,-0.000000,0.000000
-0.020000,-1.900000,0.104403,0.040000,-0.012726,-0.000219,-0.001862,0.000124,0.000000,-0.000000,0.000000
-0.060000,-1.900000,0.100499,0.040000,-0.012829,-0.000186,-0.002147,-0.000058,0.000000,-0.000000,-0.000000
0.020000,-1.940000,0.067082,0.040000,-0.012820,-0.000023,-0.002828,0.000150,0.000000,-0.000000,0.000000
0.060000,-1.940000,0.060828,0.040000,-0.012725,0.000304,-0.001860,-0.000194,0.000000,-0.000000,-0.000000
0.060000,-1.900000,0.100499,0.040000,-0.012529,-0.000053,-0.002001,-0.000239,0.000000,-0.000000,-0.000000
0.020000,-1.900000,0.104403,0.040000,-0.012626,-0.000028,-0.002258,0.000083,0.000000,-0.000000,0.000000
0.100000,-1.940000,0.078102,0.040000,-0.012631,-0.000061,-0.002045,-0.000292,0.000000,-0.000000,-0.000000
0.140000,-1.940000,0.060828,0.040000,-0.012541,-0.000393,-0.002408,-0.000292,0.000000,-0.000000,-0.000000
0.140000,-1.900000,0.100499,0.040000,-0.012346,-0.000197,-0.002118,-0.000334,0.000000,-0.000000,-0.000000
0.100000,-1.900000,0.111803,0.040000,-0.012436,-0.000138,-0.002040,-0.000061,0.000000,-0.000000,-0.000000
0.180000,-1.940000,0.067082,0.040000,-0.012456,-0.000103,-0.001403,-0.000135,0.000000,-0.000000,-0.000000
0.220000,-1.940000,0.067082,0.040000,-0.012371,-0.000079,-0.002685,-0.000177,0.000000,-0.000000,-0.000000
0.220000,-1.900000,0.104403,0.040000,-0.012175,-0.000092,-0.002175,-0.000223,0.000000,-0.000000,-0.000000
0.180000,-1.900000,0.104403,0.040000,-0.012259,-0.000243,-0.001844,-0.000180,0.000000,-0.000000,-0.000000
0.260000,-1.940000,0.060828,0.040000,-0.012293,0.000194,-0.001809,-0.000492,0.000000,-0.000000,-0.000000
0.300000,-1.940000,0.078102,0.040000,-0.012216,-0.000150,-0.001948,-0.000589,0.000000,-0.000000,-0.000000
0.300000,-1.900000,0.111803,0.040000,-0.012018,-0.000229,-0.001937,-0.000369,0.000000,-0.000000,-0.000000
0.260000,-1.900000,0.100499,0.040000,-0.012095,-0.000133,-0.001925,-0.000517,0.000000,-0.000000,-0.000000
0.340000,-1.940000,0.060828,0.040000,-0.012142,-0.000465,-0.002247,-0.000597,0.000000,-0.000000,-0.000000
0.380000,-1.940000,0.067082,0.040000,-0.012073,-0.000228,-0.001334,-0.000468,0.000000,-0.000000,-0.000000
0.380000,-1.900000,0.104403,0.040000,-0.011873,-0.000365,-0.001715,-0.000492,0.000000,-0.000000,-0.000000
0.340000,-1.900000,0.100499,0.040000,-0.011944,-0.000302,-0.001983,-0.000619,0.000000,-0.000000,-0.000000
0.420000,-1.940000,0.067082,0.040000,-0.012005,-0.000232,-0.002444,-0.000518,0.000000,-0.000000,-0.000000
0.460000,-1.940000,0.060828,0.040000,-0.011942,-0.000012,-0.001636,-0.000807,0.000000,-0.000000,-0.000000
0.460000,-1.900000,0.100499,0.040000,-0.011740,-0.000315,-0.001732,-0.000811,0.000000,-0.000000,-0.000000
0.420000,-1.900000,0.104403,0.040000,-0.011805,-0.000254,-0.001982,-0.000541,0.000000,-0.000000,-0.000000
0.500000,-1.940000,0.078102,0.040000,-0.011880,-0.000344,-0.001740,-0.000908,0.000000,-0.000000,-0.000000
0.540000,-1.940000,0.060828,0.040000,-0.011822,-0.000656,-0.001963,-0.000928,0.000000,-0.000000,-0.000000
0.540000,-1.900000,0.100499,0.040000,-0.011618,-0.000522,-0.001722,-0.000926,0.000000,-0.000000,-0.000000
0.500000,-1.900000,0.111803,0.040000,-0.011677,-0.000426,-0.001715,-0.000691,0.000000,-0.000000,-0.000000
0.580000,-1.940000,0.067082,0.040000,-0.011767,-0.000471,-0.001121,-0.000823,0.000000,-0.000000,-0.000000
0.620000,-1.940000,0.067082,0.040000,-0.011713,-0.000508,-0.002085,-0.000886,0.000000,-0.000000,-0.000000
0.620000,-1.900000,0.104403,0.040000,-0.011507,-0.000540,-0.001655,-0.000881,0.000000,-0.000000,-0.000000
0.580000,-1.900000,0.104403,0.040000,-0.011561,-0.000606,-0.001451,-0.000822,0.000000,-0.000000,-0.000000
0.660000,-1.940000,0.060828,0.040000,-0.011664,-0.000341,-0.001304,-0.001155,0.000000,-0.000000,-0.000000
0.700000,-1.940000,0.078102,0.040000,-0.011616,-0.000679,-0.001387,-0.001269,-0.000000,-0.000000,-0.000000
0.700000,-1.900000,0.111803,0.040000,-0.011406,-0.000766,-0.001339,-0.001040,-0.000000,-0.000000,-0.000000
0.660000,-1.900000,0.100499,0.040000,-0.011455,-0.000631,-0.001388,-0.001134,-0.000000,-0.000000,-0.000000
0.740000,-1.940000,0.060828,0.040000,-0.011570,-0.001013,-0.001519,-0.001304,-0.000000,-0.000000,-0.000000
0.780000,-1.940000,0.067082,0.040000,-0.011528,-0.000879,-0.000704,-0.001213,-0.000000,-0.000000,-0.000000
0.780000,-1.900000,0.104403,0.040000,-0.011313,-0.001019,-0.001000,-0.001180,-0.000000,-0.000000,-0.000000
0.740000,-1.900000,0.100499,0.040000,-0.011358,-0.000900,-0.001294,-0.001272,-0.000000,-0.000000,-0.000000
0.820000,-1.940000,0.067082,0.040000,-0.011485,-0.000962,-0.001570,-0.001297,-0.000000,-0.000000,-0.000000
0.860000,-1.940000,0.060828,0.040000,-0.011446,-0.000848,-0.000743,-0.001560,-0.000000,-0.000000,-0.000000
0.860000,-1.900000,0.100499,0.040000,-0.011227,-0.001143,-0.000830,-0.001504,-0.000000,-0.000000,-0.000000
0.820000,-1.900000,0.104403,0.040000,-0.011269,-0.001003,-0.001144,-0.001256,-0.000000,-0.000000,-0.000000
0.900000,-1.940000,0.078102,0.040000,-0.011408,-0.001227,-0.000822,-0.001697,-0.000000,-0.000000,-0.000000
0.940000,-1.940000,0.060828,0.040000,-0.011371,-0.001627,-0.000836,-0.001751,-0.000000,-0.000000,-0.000000
0.940000,-1.900000,0.100499,0.040000,-0.011147,-0.001521,-0.000620,-0.001675,-0.000000,0.000000,-0.000000
0.900000,-1.900000,0.111803,0.040000,-0.011187,-0.001321,-0.000738,-0.001427,-0.000000,-0.000000,-0.000000
0.980000,-1.940000,0.067082,0.040000,-0.011336,-0.001546,0.000022,-0.001659,-0.000000,0.000000,-0.000000
1.020000,-1.940000,0.067082,0.040000,-0.011300,-0.001700,-0.000814,-0.001774,-0.000000,-0.000000,-0.000000
1.020000,-1.900000,0.104403,0.040000,-0.011071,-0.001748,-0.000349,-0.001680,-0.000000,0.000000,-0.000000
0.980000,-1.900000,0.104403,0.040000,-0.011109,-0.001699,-0.000266,-0.001580,-0.000000,0.000000,-0.000000
1.060000,-1.940000,0.060828,0.040000,-0.011266,-0.001645,0.000177,-0.002048,-0.000000,0.000000,-0.000000
1.100000,-1.940000,0.078102,0.040000,-0.011231,-0.002125,0.000082,-0.002226,-0.000000,0.000000,-0.000000
1.100000,-1.900000,0.111803,0.040000,-0.010996,-0.002229,0.000222,-0.001868,-0.000000,0.000000,-0.000000
1.060000,-1.900000,0.100499,0.040000,-0.011033,-0.001970,0.000066,-0.001938,-0.000000,0.000000,-0.000000
1.140000,-1.940000,0.060828,0.040000,-0.011197,-0.002670,0.000235,-0.002304,-0.000000,0.000000,-0.000000
1.180000,-1.940000,0.067082,0.040000,-0.011162,-0.002655,0.001260,-0.002185,-0.000000,0.000000,-0.000000
1.180000,-1.900000,0.104403,0.040000,-0.010919,-0.002830,0.000936,-0.002029,-0.000000,0.000000,-0.000000
1.140000,-1.900000,0.100499,0.040000,-0.010958,-0.002548,0.000455,-0.002156,-0.000000,0.000000,-0.000000
1.220000,-1.940000,0.067082,0.040000,-0.011125,-0.002932,0.000358,-0.002348,-0.000000,0.000000,-0.000000
1.260000,-1.940000,0.060828,0.040000,-0.011088,-0.002959,0.001716,-0.002659,-0.000000,0.000000,-0.000000
1.260000,-1.900000,0.100499,0.040000,-0.010838,-0.003355,0.001540,-0.002452,-0.000000,0.000000,-0.000000
1.220000,-1.900000,0.104403,0.040000,-0.010879,-0.002980,0.000926,-0.002164,-0.000000,0.000000,-0.000000
1.300000,-1.940000,0.078102,0.040000,-0.011048,-0.003654,0.001584,-0.002905,-0.000000,0.000000,-0.000000
1.340000,-1.940000,0.060828,0.040000,-0.011005,-0.004494,0.002012,-0.003011,-0.000000,0.000000,-0.000000
1.340000,-1.900000,0.100499,0.040000,-0.010747,-0.004312,0.002248,-0.002729,-0.000000,0.000000,-0.000000
1.300000,-1.900000,0.111803,0.040000,-0.010794,-0.003769,0.001811,-0.002364,-0.000000,0.000000,-0.000000
1.380000,-1.940000,0.067082,0.040000,-0.010960,-0.004588,0.003427,-0.002817,-0.000000,0.000000,-0.000000
1.420000,-1.940000,0.067082,0.040000,-0.010908,-0.005106,0.002326,-0.003053,-0.000000,0.000000,-0.000000
1.420000,-1.900000,0.104403,0.040000,-0.010641,-0.005138,0.003101,-0.002692,-0.000000,0.000000,-0.000000
1.380000,-1.900000,0.104403,0.040000,-0.010696,-0.004799,0.002988,-0.002515,-0.000000,0.000000,-0.000000
1.460000,-1.940000,0.060828,0.040000,-0.010854,-0.005289,0.004437,-0.003433,-0.000000,0.000000,-0.000000
1.500000,-1.940000,0.078102,0.040000,-0.010792,-0.006441,0.004264,-0.003790,-0.000000,0.000000,-0.000000
1.500000,-1.900000,0.111803,0.040000,-0.010514,-0.006554,0.004623,-0.002867,-0.000000,0.000000,-0.000000
1.460000,-1.900000,0.100499,0.040000,-0.010580,-0.005816,0.004115,-0.003031,-0.000000,0.000000,-0.000000
1.540000,-1.940000,0.060828,0.040000,-0.010722,-0.007894,0.005224,-0.003918,-0.000000,0.000000,-0.000000
1.580000,-1.940000,0.067082,0.040000,-0.010647,-0.008241,0.007476,-0.003545,-0.000000,0.000000,-0.000000
1.580000,-1.900000,0.104403,0.040000,-0.010356,-0.008490,0.006763,-0.002919,-0.000000,0.000000,-0.000000
1.540000,-1.900000,0.100499,0.040000,-0.010439,-0.007563,0.005474,-0.003351,-0.000000,0.000000,-0.000000
1.620000,-1.940000,0.067082,0.040000,-0.010556,-0.009298,0.006029,-0.003879,-0.000000,0.000000,-0.000000
1.660000,-1.940000,0.060828,0.040000,-0.010460,-0.009878,0.009715,-0.004349,-0.000000,0.000000,-0.000000
1.660000,-1.900000,0.100499,0.040000,-0.010157,-0.010616,0.009043,-0.003486,-0.000000,0.000000,-0.000000
1.620000,-1.900000,0.104403,0.040000,-0.010262,-0.009258,0.007165,-0.003117,-0.000000,0.000000,-0.000000
1.700000,-1.940000,0.078102,0.040000,-0.010344,-0.012072,0.009590,-0.004867,-0.000000,0.000000,-0.000000
1.740000,-1.940000,0.060828,0.040000,-0.010214,-0.014934,0.011808,-0.004941,-0.000000,0.000000,-0.000000
1.740000,-1.900000,0.100499,0.040000,-0.009900,-0.014213,0.011962,-0.003662,-0.000000,0.000000,-0.000000
1.700000,-1.900000,0.111803,0.040000,-0.010037,-0.012116,0.010134,-0.003075,-0.000000,0.000000,-0.000000
1.780000,-1.940000,0.067082,0.040000,-0.010068,-0.016036,0.015950,-0.004098,-0.000000,0.000000,-0.000000
1.820000,-1.940000,0.067082,0.040000,-0.009892,-0.018544,0.014189,-0.004473,-0.000000,0.000000,-0.000000
1.820000,-1.900000,0.104403,0.040000,-0.009566,-0.018184,0.015836,-0.002620,-0.000000,0.000000,-0.000000
1.780000,-1.900000,0.104403,0.040000,-0.009745,-0.016242,0.014552,-0.002615,-0.000000,0.000000,-0.000000
1.860000,-1.940000,0.060828,0.040000,-0.009699,-0.020392,0.021576,-0.004867,-0.000000,0.000000,-0.000000
1.900000,-1.940000,0.078102,0.040000,-0.009466,-0.025410,0.022093,-0.005456,-0.000000,0.000000,-0.000000
1.900000,-1.900000,0.111803,0.040000,-0.009126,-0.024961,0.022670,-0.001308,-0.000000,0.000000,-0.000000
1.860000,-1.900000,0.100499,0.040000,-0.009362,-0.021338,0.019868,-0.002690,-0.000000,0.000000,-0.000000
1.940000,-1.940000,0.060828,0.040000,-0.009198,-0.032198,0.028114,-0.004889,-0.000000,0.000000,-0.000000
1.980000,-1.940000,0.067082,0.040000,-0.008891,-0.036144,0.037387,-0.002302,-0.000000,0.000000,-0.000000
1.980000,-1.900000,0.104403,0.040000,-0.008537,-0.035523,0.033641,0.002027,-0.000000,0.000000,0.000000
1.940000,-1.900000,0.100499,0.040000,-0.008853,-0.030144,0.027330,-0.001412,-0.000000,0.000000,-0.000000
2.020000,-1.940000,0.067082,0.040000,-0.008514,-0.043703,0.036944,-0.001681,-0.000000,0.000000,-0.000000
2.060000,-1.940000,0.060828,0.040000,-0.008091,-0.050823,0.055540,0.000074,-0.000000,0.000000,0.000000
2.060000,-1.900000,0.100499,0.040000,-0.007734,-0.050564,0.048981,0.007065,-0.000000,0.000000,0.000000
2.020000,-1.900000,0.104403,0.040000,-0.008166,-0.041480,0.038238,0.003938,-0.000000,0.000000,0.000000
2.100000,-1.940000,0.078102,0.040000,-0.007565,-0.066187,0.060606,0.001795,-0.000000,0.000000,0.000000
2.140000,-1.940000,0.060828,0.040000,-0.006943,-0.088166,0.083346,0.009321,-0.000000,0.000000,0.000000
2.140000,-1.900000,0.100499,0.040000,-0.006618,-0.077954,0.073159,0.021580,-0.000000,0.000000,0.000000
2.100000,-1.900000,0.111803,0.040000,-0.007223,-0.061647,0.058052,0.014357,-0.000000,0.000000,0.000000
2.180000,-1.940000,0.067082,0.040000,-0.006199,-0.106526,0.112758,0.025185,-0.000000,0.000000,0.000000
2.220000,-1.940000,0.067082,0.040000,-0.005246,-0.138783,0.130881,0.045469,-0.000000,0.000000,0.000000
2.220000,-1.900000,0.104403,0.040000,-0.005024,-0.116963,0.110479,0.066056,-0.000000,0.000000,0.000000
2.180000,-1.900000,0.104403,0.040000,-0.005895,-0.095694,0.092512,0.041688,-0.000000,0.000000,0.000000
2.260000,-1.940000,0.060828,0.040000,-0.004115,-0.171144,0.201427,0.087728,-0.000000,0.000000,0.000000
2.300000,-1.940000,0.078102,0.040000,-0.002609,-0.229023,0.234339,0.156059,-0.000000,0.000000,0.000000
2.300000,-1.900000,0.111803,0.040000,-0.002696,-0.167394,0.159023,0.188380,-0.000000,0.000000,0.000000
2.260000,-1.900000,0.100499,0.040000,-0.003974,-0.143846,0.141859,0.110501,-0.000000,0.000000,0.000000
2.340000,-1.940000,0.060828,0.040000,-0.000716,-0.278036,0.354494,0.337638,-0.000000,0.000000,0.000000
2.380000,-1.940000,0.067082,0.040000,0.001748,-0.198951,0.309910,0.608232,-0.000000,0.000000,0.000000
2.380000,-1.900000,0.104403,0.040000,0.000627,-0.096684,0.107406,0.522589,-0.000000,0.000000,0.000000
2.340000,-1.900000,0.100499,0.040000,-0.001163,-0.176523,0.169448,0.312583,-0.000000,0.000000,0.000000
2.420000,-1.940000,0.067082,0.040000,0.004898,-0.240003,0.130955,0.562632,-0.000000,0.000000,0.000000
2.460000,-1.940000,0.041231,0.040000,0.007993,-0.543656,0.352905,0.272516,-0.000000,0.000000,0.000000
2.460000,-1.900000,0.064031,0.040000,0.004303,-0.035264,0.741002,0.709148,-0.000000,0.000000,0.000000
2.420000,-1.900000,0.094340,0.040000,0.002546,-0.032261,0.190993,0.690290,-0.000000,0.000000,0.000000
2.500000,-1.940000,0.010000,0.040000,0.011847,-1.207321,0.442790,-0.159711,-0.000000,0.000000,-0.000000
2.500000,-1.900000,0.050000,0.040000,0.010933,-1.469956,1.859397,0.737308,-0.000000,0.000000,0.000000
-2.500000,-1.860000,0.010000,0.040000,-0.012549,-1.306662,-2.292830,1.248006,-0.000000,-0.000000,0.000000
-2.500000,-1.820000,0.030000,0.040000,-0.015502,0.610838,-1.106670,0.468210,0.000000,-0.000000,0.000000
-2.460000,-1.860000,0.041231,0.040000,-0.011398,-0.186303,-1.476609,0.497473,0.000000,-0.000000,0.000000
-2.420000,-1.860000,0.080623,0.040000,-0.011721,0.218639,-0.607123,-0.197876,0.000000,-0.000000,-0.000000
-2.420000,-1.820000,0.085440,0.040000,-0.013478,0.263618,-0.380050,-0.171528,0.000000,-0.000000,-0.000000
-2.460000,-1.820000,0.050000,0.040000,-0.013415,0.346189,-0.801752,0.125869,0.000000,-0.000000,0.000000
-2.380000,-1.860000,0.120416,0.040000,-0.012594,0.055368,-0.064794,-0.369773,0.000000,-0.000000,-0.000000
-2.340000,-1.860000,0.140357,0.040000,-0.013594,-0.045136,0.038116,-0.272101,-0.000000,0.000000,-0.000000
-2.340000,-1.820000,0.162788,0.040000,-0.014418,0.023056,-0.029381,-0.207042,0.000000,-0.000000,-0.000000
-2.380000,-1.820000,0.123693,0.040000,-0.013854,0.109369,-0.120717,-0.241715,0.000000,-0.000000,-0.000000
-2.300000,-1.860000,0.148661,0.040000,-0.014543,-0.083191,0.076624,-0.187597,-0.000000,0.000000,-0.000000
-2.260000,-1.860000,0.140357,0.040000,-0.015375,-0.090904,0.084906,-0.125484,-0.000000,0.000000,-0.000000
-2.260000,-1.820000,0.180278,0.040000,-0.015631,-0.045504,0.040144,-0.119456,-0.000000,0.000000,-0.000000
-2.300000,-1.820000,0.186815,0.040000,-0.015036,-0.023878,0.018013,-0.161160,-0.000000,0.000000,-0.000000
-2.220000,-1.860000,0.143178,0.040000,-0.016073,-0.083646,0.078711,-0.083176,-0.000000,0.000000,-0.000000
-2.180000,-1.860000,0.143178,0.040000,-0.016646,-0.074186,0.069559,-0.055497,-0.000000,0.000000,-0.000000
-2.180000,-1.820000,0.182483,0.040000,-0.016620,-0.051892,0.047590,-0.062005,-0.000000,0.000000,-0.000000
-2.220000,-1.820000,0.182483,0.040000,-0.016163,-0.052321,0.047540,-0.086468,-0.000000,0.000000,-0.000000
-2.140000,-1.860000,0.140357,0.040000,-0.017107,-0.063083,0.059264,-0.036816,-0.000000,0.000000,-0.000000
-2.100000,-1.860000,0.148661,0.040000,-0.017473,-0.053403,0.049983,-0.024722,-0.000000,0.000000,-0.000000
-2.100000,-1.820000,0.186815,0.040000,-0.017313,-0.043410,0.039772,-0.031675,-0.000000,0.000000,-0.000000
-2.140000,-1.820000,0.180278,0.040000,-0.017002,-0.048440,0.044372,-0.044307,-0.000000,0.000000,-0.000000
-2.060000,-1.860000,0.140357,0.040000,-0.017759,-0.045414,0.042333,-0.016391,-0.000000,0.000000,-0.000000
-2.020000,-1.860000,0.143178,0.040000,-0.017977,-0.038211,0.035477,-0.010717,-0.000000,0.000000,-0.000000
-2.020000,-1.820000,0.182483,0.040000,-0.017753,-0.033521,0.030518,-0.016111,-0.000000,0.000000,-0.000000
-2.060000,-1.820000,0.180278,0.040000,-0.017561,-0.038318,0.035027,-0.022622,-0.000000,0.000000,-0.000000
-1.980000,-1.860000,0.143178,0.040000,-0.018138,-0.032817,0.030172,-0.006887,-0.000000,0.000000,-0.000000
-1.940000,-1.860000,0.140357,0.040000,-0.018250,-0.027964,0.025546,-0.004059,-0.000000,0.000000,-0.000000
-1.940000,-1.820000,0.180278,0.040000,-0.017996,-0.025568,0.022949,-0.007961,-0.000000,0.000000,-0.000000
-1.980000,-1.820000,0.182483,0.040000,-0.017895,-0.029290,0.026496,-0.011407,-0.000000,0.000000,-0.000000
-1.900000,-1.860000,0.148661,0.040000,-0.018322,-0.024029,0.021711,-0.002192,-0.000000,0.000000,-0.000000
-1.860000,-1.860000,0.140357,0.040000,-0.018358,-0.020856,0.018626,-0.000804,-0.000000,0.000000,-0.000000
-1.860000,-1.820000,0.180278,0.040000,-0.018091,-0.019603,0.017216,-0.003567,-0.000000,0.000000,-0.000000
-1.900000,-1.820000,0.186815,0.040000,-0.018059,-0.022354,0.019866,-0.005438,-0.000000,0.000000,-0.000000
-1.820000,-1.860000,0.143178,0.040000,-0.018365,-0.018022,0.015881,0.000186,-0.000000,0.000000,0.000000
-1.780000,-1.860000,0.143178,0.040000,-0.018346,-0.015804,0.013683,0.000843,-0.000000,0.000000,0.000000
-1.780000,-1.820000,0.182483,0.040000,-0.018075,-0.015186,0.012939,-0.001139,-0.000000,0.000000,-0.000000
-1.820000,-1.820000,0.182483,0.040000,-0.018095,-0.017220,0.014915,-0.002174,-0.000000,0.000000,-0.000000
-1.740000,-1.860000,0.140357,0.040000,-0.018305,-0.013833,0.011770,0.001363,-0.000000,0.000000,0.000000
-1.700000,-1.860000,0.148661,0.040000,-0.018245,-0.012152,0.010110,0.001690,-0.000000,0.000000,0.000000
-1.700000,-1.820000,0.186815,0.040000,-0.017976,-0.011904,0.009739,0.000219,-0.000000,0.000000,0.000000
-1.740000,-1.820000,0.180278,0.040000,-0.018035,-0.013427,0.011227,-0.000360,-0.000000,0.000000,-0.000000
-1.660000,-1.860000,0.140357,0.040000,-0.018169,-0.010759,0.008738,0.001914,-0.000000,0.000000,0.000000
-1.620000,-1.860000,0.143178,0.040000,-0.018080,-0.009529,0.007518,0.002084,-0.000000,0.000000,0.000000
-1.620000,-1.820000,0.182483,0.040000,-0.017814,-0.009443,0.007322,0.000973,-0.000000,0.000000,0.000000
-1.660000,-1.820000,0.180278,0.040000,-0.017902,-0.010590,0.008451,0.000651,-0.000000,0.000000,0.000000
-1.580000,-1.860000,0.143178,0.040000,-0.017977,-0.008451,0.006452,0.002160,-0.000000,0.000000,0.000000
-1.540000,-1.860000,0.140357,0.040000,-0.017865,-0.007563,0.005565,0.002212,-0.000000,0.000000,0.000000
-1.540000,-1.820000,0.180278,0.040000,-0.017605,-0.007567,0.005467,0.001375,-0.000000,0.000000,0.000000
-1.580000,-1.820000,0.182483,0.040000,-0.017715,-0.008440,0.006332,0.001206,-0.000000,0.000000,0.000000
-1.500000,-1.860000,0.148661,0.040000,-0.017744,-0.006736,0.004738,0.002238,-0.000000,0.000000,0.000000
-1.460000,-1.860000,0.140357,0.040000,-0.017615,-0.006032,0.004036,0.002207,-0.000000,0.000000,0.000000
-1.460000,-1.820000,0.180278,0.040000,-0.017361,-0.006114,0.004020,0.001569,-0.000000,0.000000,0.000000
-1.500000,-1.820000,0.186815,0.040000,-0.017487,-0.006793,0.004697,0.001493,-0.000000,0.000000,0.000000
-1.420000,-1.860000,0.143178,0.040000,-0.017479,-0.005454,0.003438,0.002200,-0.000000,0.000000,0.000000
-1.380000,-1.860000,0.143178,0.040000,-0.017339,-0.004836,0.002836,0.002150,-0.000000,0.000000,0.000000
-1.380000,-1.820000,0.182483,0.040000,-0.017091,-0.004976,0.002878,0.001642,-0.000000,0.000000,0.000000
-1.420000,-1.820000,0.182483,0.040000,-0.017229,-0.005516,0.003419,0.001619,-0.000000,0.000000,0.000000
-1.340000,-1.860000,0.140357,0.040000,-0.017193,-0.004411,0.002390,0.002090,-0.000000,0.000000,0.000000
-1.300000,-1.860000,0.148661,0.040000,-0.017044,-0.003954,0.001928,0.002055,-0.000000,0.000000,0.000000
-1.300000,-1.820000,0.186815,0.040000,-0.016802,-0.004080,0.001970,0.001638,-0.000000,0.000000,0.000000
-1.340000,-1.820000,0.180278,0.040000,-0.016948,-0.004507,0.002402,0.001646,-0.000000,0.000000,0.000000
-1.260000,-1.860000,0.140357,0.040000,-0.016891,-0.003557,0.001526,0.001963,-0.000000,0.000000,0.000000
-1.220000,-1.860000,0.143178,0.040000,-0.016737,-0.003278,0.001217,0.001918,-0.000000,0.000000,0.000000
-1.220000,-1.820000,0.182483,0.040000,-0.016501,-0.003365,0.001238,0.001587,-0.000000,0.000000,0.000000
-1.260000,-1.820000,0.180278,0.040000,-0.016653,-0.003699,0.001583,0.001615,-0.000000,0.000000,0.000000
-1.180000,-1.860000,0.143178,0.040000,-0.016580,-0.002873,0.000834,0.001845,-0.000000,0.000000,0.000000
-1.140000,-1.860000,0.140357,0.040000,-0.016422,-0.002671,0.000601,0.001757,-0.000000,0.000000,0.000000
-1.140000,-1.820000,0.180278,0.040000,-0.016191,-0.002782,0.000639,0.001507,-0.000000,0.000000,0.000000
-1.180000,-1.820000,0.182483,0.040000,-0.016347,-0.003051,0.000919,0.001550,-0.000000,0.000000,0.000000
-1.100000,-1.860000,0.148661,0.040000,-0.016263,-0.002395,0.000319,0.001715,-0.000000,0.000000,0.000000
-1.060000,-1.860000,0.140357,0.040000,-0.016103,-0.002150,0.000068,0.001612,-0.000000,0.000000,0.000000
-1.060000,-1.820000,0.180278,0.040000,-0.015877,-0.002304,0.000144,0.001412,-0.000000,0.000000,0.000000
-1.100000,-1.820000,0.186815,0.040000,-0.016035,-0.002531,0.000380,0.001464,-0.000000,0.000000,0.000000
-1.020000,-1.860000,0.143178,0.040000,-0.015943,-0.002023,-0.000092,0.001563,-0.000000,0.000000,0.000000
-0.980000,-1.860000,0.143178,0.040000,-0.015784,-0.001731,-0.000358,0.001490,-0.000000,0.000000,0.000000
-0.980000,-1.820000,0.182483,0.040000,-0.015563,-0.001914,-0.000263,0.001310,-0.000000,0.000000,0.000000
-1.020000,-1.820000,0.182483,0.040000,-0.015720,-0.002107,-0.000064,0.001363,-0.000000,0.000000,0.000000
-0.940000,-1.860000,0.140357,0.040000,-0.015625,-0.001644,-0.000478,0.001400,-0.000000,0.000000,0.000000
-0.900000,-1.860000,0.148661,0.040000,-0.015467,-0.001468,-0.000660,0.001362,-0.000000,-0.000000,0.000000
-0.900000,-1.820000,0.186815,0.040000,-0.015250,-0.001599,-0.000598,0.001202,-0.000000,0.000000,0.000000
-0.940000,-1.820000,0.180278,0.040000,-0.015406,-0.001753,-0.000435,0.001254,-0.000000,0.000000,0.000000
-0.860000,-1.860000,0.140357,0.040000,-0.015309,-0.001307,-0.000825,0.001262,-0.000000,-0.000000,0.000000
-0.820000,-1.860000,0.143178,0.040000,-0.015153,-0.001262,-0.000903,0.001215,-0.000000,-0.000000,0.000000
-0.820000,-1.820000,0.182483,0.040000,-0.014941,-0.001339,-0.000877,0.001090,-0.000000,-0.000000,0.000000
-0.860000,-1.820000,0.180278,0.040000,-0.015095,-0.001458,-0.000747,0.001144,-0.000000,-0.000000,0.000000
-0.780000,-1.860000,0.143178,0.040000,-0.014999,-0.001038,-0.001099,0.001149,-0.000000,-0.000000,0.000000
-0.740000,-1.860000,0.140357,0.040000,-0.014846,-0.001015,-0.001155,0.001062,-0.000000,-0.000000,0.000000
-0.740000,-1.820000,0.180278,0.040000,-0.014637,-0.001118,-0.001113,0.000977,-0.000000,-0.000000,0.000000
-0.780000,-1.820000,0.182483,0.040000,-0.014788,-0.001216,-0.001005,0.001035,-0.000000,-0.000000,0.000000
-0.700000,-1.860000,0.148661,0.040000,-0.014696,-0.000897,-0.001275,0.001030,-0.000000,-0.000000,0.000000
-0.660000,-1.860000,0.140357,0.040000,-0.014547,-0.000787,-0.001388,0.000935,-0.000000,-0.000000,0.000000
-0.660000,-1.820000,0.180278,0.040000,-0.014341,-0.000932,-0.001312,0.000867,-0.000000,-0.000000,0.000000
-0.700000,-1.820000,0.186815,0.040000,-0.014488,-0.001021,-0.001217,0.000925,-0.000000,-0.000000,0.000000
-0.620000,-1.860000,0.143178,0.040000,-0.014400,-0.000789,-0.001417,0.000892,-0.000000,-0.000000,0.000000
-0.580000,-1.860000,0.143178,0.040000,-0.014256,-0.000612,-0.001566,0.000832,0.000000,-0.000000,0.000000
-0.580000,-1.820000,0.182483,0.040000,-0.014052,-0.000782,-0.001476,0.000759,-0.000000,-0.000000,0.000000
-0.620000,-1.820000,0.182483,0.040000,-0.014195,-0.000861,-0.001393,0.000813,-0.000000,-0.000000,0.000000
-0.540000,-1.860000,0.140357,0.040000,-0.014114,-0.000625,-0.001582,0.000750,0.000000,-0.000000,0.000000
-0.500000,-1.860000,0.148661,0.040000,-0.013975,-0.000546,-0.001662,0.000721,0.000000,-0.000000,0.000000
-0.500000,-1.820000,0.186815,0.040000,-0.013774,-0.000664,-0.001607,0.000652,0.000000,-0.000000,0.000000
-0.540000,-1.820000,0.180278,0.040000,-0.013912,-0.000724,-0.001542,0.000703,-0.000000,-0.000000,0.000000
-0.460000,-1.860000,0.140357,0.040000,-0.013838,-0.000470,-0.001739,0.000632,0.000000,-0.000000,0.000000
-0.420000,-1.860000,0.143178,0.040000,-0.013704,-0.000500,-0.001736,0.000592,0.000000,-0.000000,0.000000
-0.420000,-1.820000,0.182483,0.040000,-0.013505,-0.000569,-0.001713,0.000544,0.000000,-0.000000,0.000000
-0.460000,-1.820000,0.180278,0.040000,-0.013638,-0.000609,-0.001666,0.000596,0.000000,-0.000000,0.000000
-0.380000,-1.860000,0.143178,0.040000,-0.013573,-0.000359,-0.001849,0.000536,0.000000,-0.000000,0.000000
-0.340000,-1.860000,0.140357,0.040000,-0.013445,-0.000393,-0.001840,0.000458,0.000000,-0.000000,0.000000
-0.340000,-1.820000,0.180278,0.040000,-0.013248,-0.000490,-0.001801,0.000437,0.000000,-0.000000,0.000000
-0.380000,-1.820000,0.182483,0.040000,-0.013375,-0.000520,-0.001765,0.000491,0.000000,-0.000000,0.000000
-0.300000,-1.860000,0.148661,0.040000,-0.013320,-0.000343,-0.001890,0.000430,0.000000,-0.000000,0.000000
-0.260000,-1.860000,0.140357,0.040000,-0.013198,-0.000292,-0.001940,0.000347,0.000000,-0.000000,0.000000
-0.260000,-1.820000,0.180278,0.040000,-0.013002,-0.000426,-0.001870,0.000333,0.000000,-0.000000,0.000000
-0.300000,-1.820000,0.186815,0.040000,-0.013123,-0.000456,-0.001838,0.000387,0.000000,-0.000000,0.000000
-0.220000,-1.860000,0.143178,0.040000,-0.013079,-0.000338,-0.001916,0.000307,0.000000,-0.000000,0.000000
-0.180000,-1.860000,0.143178,0.040000,-0.012963,-0.000228,-0.001999,0.000254,0.000000,-0.000000,0.000000
-0.180000,-1.820000,0.182483,0.040000,-0.012768,-0.000383,-0.001918,0.000231,0.000000,-0.000000,0.000000
-0.220000,-1.820000,0.182483,0.040000,-0.012883,-0.000409,-0.001892,0.000283,0.000000,-0.000000,0.000000
-0.140000,-1.860000,0.140357,0.040000,-0.012850,-0.000277,-0.001971,0.000180,0.000000,-0.000000,0.000000
-0.100000,-1.860000,0.148661,0.040000,-0.012741,-0.000249,-0.001996,0.000151,0.000000,-0.000000,0.000000
-0.100000,-1.820000,0.186815,0.040000,-0.012546,-0.000360,-0.001945,0.000129,0.000000,-0.000000,0.000000
-0.140000,-1.820000,0.180278,0.040000,-0.012655,-0.000373,-0.001932,0.000178,0.000000,-0.000000,0.000000
-0.060000,-1.860000,0.140357,0.040000,-0.012634,-0.000219,-0.002023,0.000072,0.000000,-0.000000,0.000000
-0.020000,-1.860000,0.143178,0.040000,-0.012531,-0.000278,-0.001982,0.000031,0.000000,-0.000000,0.000000
-0.020000,-1.820000,0.182483,0.040000,-0.012337,-0.000352,-0.001956,0.000026,0.000000,-0.000000,0.000000
-0.060000,-1.820000,0.180278,0.040000,-0.012440,-0.000350,-0.001955,0.000076,0.000000,-0.000000,0.000000
0.020000,-1.860000,0.143178,0.040000,-0.012431,-0.000196,-0.002037,-0.000021,0.000000,-0.000000,-0.000000
0.060000,-1.860000,0.140357,0.040000,-0.012334,-0.000256,-0.001993,-0.000094,0.000000,-0.000000,-0.000000
0.060000,-1.820000,0.180278,0.040000,-0.012140,-0.000354,-0.001953,-0.000077,0.000000,-0.000000,-0.000000
0.020000,-1.820000,0.182483,0.040000,-0.012237,-0.000346,-0.001960,-0.000025,0.000000,-0.000000,-0.000000
0.100000,-1.860000,0.148661,0.040000,-0.012241,-0.000249,-0.001996,-0.000125,0.000000,-0.000000,-0.000000
0.140000,-1.860000,0.140357,0.040000,-0.012150,-0.000240,-0.002000,-0.000202,0.000000,-0.000000,-0.000000
0.140000,-1.820000,0.180278,0.040000,-0.011955,-0.000369,-0.001934,-0.000180,0.000000,-0.000000,-0.000000
0.100000,-1.820000,0.186815,0.040000,-0.012046,-0.000360,-0.001945,-0.000127,0.000000,-0.000000,-0.000000
0.180000,-1.860000,0.143178,0.040000,-0.012063,-0.000310,-0.001943,-0.000244,0.000000,-0.000000,-0.000000
0.220000,-1.860000,0.143178,0.040000,-0.011979,-0.000256,-0.001971,-0.000298,0.000000,-0.000000,-0.000000
0.220000,-1.820000,0.182483,0.040000,-0.011784,-0.000402,-0.001896,-0.000282,0.000000,-0.000000,-0.000000
0.180000,-1.820000,0.182483,0.040000,-0.011868,-0.000389,-0.001914,-0.000230,0.000000,-0.000000,-0.000000
0.260000,-1.860000,0.140357,0.040000,-0.011898,-0.000329,-0.001910,-0.000369,0.000000,-0.000000,-0.000000
0.300000,-1.860000,0.148661,0.040000,-0.011821,-0.000342,-0.001890,-0.000404,0.000000,-0.000000,-0.000000
0.300000,-1.820000,0.186815,0.040000,-0.011624,-0.000456,-0.001838,-0.000385,0.000000,-0.000000,-0.000000
0.260000,-1.820000,0.180278,0.040000,-0.011702,-0.000430,-0.001868,-0.000335,0.000000,-0.000000,-0.000000
0.340000,-1.860000,0.140357,0.040000,-0.011746,-0.000356,-0.001870,-0.000480,0.000000,-0.000000,-0.000000
0.380000,-1.860000,0.143178,0.040000,-0.011674,-0.000441,-0.001794,-0.000526,0.000000,-0.000000,-0.000000
0.380000,-1.820000,0.182483,0.040000,-0.011476,-0.000527,-0.001760,-0.000490,0.000000,-0.000000,-0.000000
0.340000,-1.820000,0.180278,0.040000,-0.011548,-0.000486,-0.001804,-0.000439,0.000000,-0.000000,-0.000000
0.420000,-1.860000,0.143178,0.040000,-0.011605,-0.000417,-0.001792,-0.000582,0.000000,-0.000000,-0.000000
0.460000,-1.860000,0.140357,0.040000,-0.011539,-0.000507,-0.001710,-0.000654,0.000000,-0.000000,-0.000000
0.460000,-1.820000,0.180278,0.040000,-0.011339,-0.000613,-0.001664,-0.000597,0.000000,-0.000000,-0.000000
0.420000,-1.820000,0.182483,0.040000,-0.011406,-0.000563,-0.001718,-0.000543,0.000000,-0.000000,-0.000000
0.500000,-1.860000,0.148661,0.040000,-0.011475,-0.000546,-0.001662,-0.000695,0.000000,-0.000000,-0.000000
0.540000,-1.860000,0.140357,0.040000,-0.011415,-0.000588,-0.001612,-0.000772,0.000000,-0.000000,-0.000000
0.540000,-1.820000,0.180278,0.040000,-0.011212,-0.000720,-0.001545,-0.000704,-0.000000,-0.000000,-0.000000
0.500000,-1.820000,0.186815,0.040000,-0.011274,-0.000664,-0.001607,-0.000649,0.000000,-0.000000,-0.000000
0.580000,-1.860000,0.143178,0.040000,-0.011357,-0.000695,-0.001510,-0.000822,-0.000000,-0.000000,-0.000000
0.620000,-1.860000,0.143178,0.040000,-0.011301,-0.000706,-0.001473,-0.000883,-0.000000,-0.000000,-0.000000
0.620000,-1.820000,0.182483,0.040000,-0.011096,-0.000854,-0.001398,-0.000812,-0.000000,-0.000000,-0.000000
0.580000,-1.820000,0.182483,0.040000,-0.011153,-0.000788,-0.001472,-0.000758,-0.000000,-0.000000,-0.000000
0.660000,-1.860000,0.140357,0.040000,-0.011248,-0.000824,-0.001359,-0.000957,-0.000000,-0.000000,-0.000000
0.700000,-1.860000,0.148661,0.040000,-0.011196,-0.000897,-0.001276,-0.001004,-0.000000,-0.000000,-0.000000
0.700000,-1.820000,0.186815,0.040000,-0.010989,-0.001021,-0.001217,-0.000922,-0.000000,-0.000000,-0.000000
0.660000,-1.820000,0.180278,0.040000,-0.011041,-0.000936,-0.001310,-0.000868,-0.000000,-0.000000,-0.000000
0.740000,-1.860000,0.140357,0.040000,-0.011147,-0.000977,-0.001185,-0.001084,-0.000000,-0.000000,-0.000000
0.780000,-1.860000,0.143178,0.040000,-0.011100,-0.001121,-0.001044,-0.001139,-0.000000,-0.000000,-0.000000
0.780000,-1.820000,0.182483,0.040000,-0.010889,-0.001222,-0.001002,-0.001034,-0.000000,-0.000000,-0.000000
0.740000,-1.820000,0.180278,0.040000,-0.010938,-0.001114,-0.001116,-0.000979,-0.000000,-0.000000,-0.000000
0.820000,-1.860000,0.143178,0.040000,-0.011054,-0.001178,-0.000959,-0.001205,-0.000000,-0.000000,-0.000000
0.860000,-1.860000,0.140357,0.040000,-0.011010,-0.001343,-0.000797,-0.001283,-0.000000,-0.000000,-0.000000
0.860000,-1.820000,0.180278,0.040000,-0.010796,-0.001461,-0.000745,-0.001145,-0.000000,-0.000000,-0.000000
0.820000,-1.820000,0.182483,0.040000,-0.010842,-0.001332,-0.000882,-0.001089,-0.000000,-0.000000,-0.000000
0.900000,-1.860000,0.148661,0.040000,-0.010968,-0.001467,-0.000660,-0.001336,-0.000000,-0.000000,-0.000000
0.940000,-1.860000,0.140357,0.040000,-0.010926,-0.001606,-0.000508,-0.001422,-0.000000,0.000000,-0.000000
0.940000,-1.820000,0.180278,0.040000,-0.010707,-0.001749,-0.000439,-0.001256,-0.000000,0.000000,-0.000000
0.900000,-1.820000,0.186815,0.040000,-0.010751,-0.001598,-0.000599,-0.001200,-0.000000,0.000000,-0.000000
0.980000,-1.860000,0.143178,0.040000,-0.010885,-0.001813,-0.000304,-0.001480,-0.000000,0.000000,-0.000000
1.020000,-1.860000,0.143178,0.040000,-0.010845,-0.001939,-0.000148,-0.001553,-0.000000,0.000000,-0.000000
1.020000,-1.820000,0.182483,0.040000,-0.010621,-0.002099,-0.000069,-0.001362,-0.000000,0.000000,-0.000000
0.980000,-1.820000,0.182483,0.040000,-0.010664,-0.001920,-0.000260,-0.001309,-0.000000,0.000000,-0.000000
1.060000,-1.860000,0.140357,0.040000,-0.010804,-0.002186,0.000097,-0.001634,-0.000000,0.000000,-0.000000
1.100000,-1.860000,0.148661,0.040000,-0.010764,-0.002394,0.000318,-0.001689,-0.000000,0.000000,-0.000000
1.100000,-1.820000,0.186815,0.040000,-0.010536,-0.002530,0.000378,-0.001461,-0.000000,0.000000,-0.000000
1.060000,-1.820000,0.180278,0.040000,-0.010579,-0.002307,0.000146,-0.001414,-0.000000,0.000000,-0.000000
1.140000,-1.860000,0.140357,0.040000,-0.010723,-0.002632,0.000570,-0.001779,-0.000000,0.000000,-0.000000
1.180000,-1.860000,0.143178,0.040000,-0.010681,-0.002954,0.000888,-0.001834,-0.000000,0.000000,-0.000000
1.180000,-1.820000,0.182483,0.040000,-0.010448,-0.003056,0.000922,-0.001549,-0.000000,0.000000,-0.000000
1.140000,-1.820000,0.180278,0.040000,-0.010492,-0.002777,0.000635,-0.001508,-0.000000,0.000000,-0.000000
1.220000,-1.860000,0.143178,0.040000,-0.010638,-0.003193,0.001160,-0.001908,-0.000000,0.000000,-0.000000
1.260000,-1.860000,0.140357,0.040000,-0.010593,-0.003592,0.001553,-0.001984,-0.000000,0.000000,-0.000000
1.260000,-1.820000,0.180278,0.040000,-0.010354,-0.003701,0.001584,-0.001616,-0.000000,0.000000,-0.000000
1.220000,-1.820000,0.182483,0.040000,-0.010402,-0.003357,0.001232,-0.001586,-0.000000,0.000000,-0.000000
1.300000,-1.860000,0.148661,0.040000,-0.010545,-0.003952,0.001926,-0.002028,-0.000000,0.000000,-0.000000
1.340000,-1.860000,0.140357,0.040000,-0.010495,-0.004372,0.002359,-0.002111,-0.000000,0.000000,-0.000000
1.340000,-1.820000,0.180278,0.040000,-0.010250,-0.004501,0.002397,-0.001647,-0.000000,0.000000,-0.000000
1.300000,-1.820000,0.186815,0.040000,-0.010304,-0.004078,0.001968,-0.001635,-0.000000,0.000000,-0.000000
1.380000,-1.860000,0.143178,0.040000,-0.010440,-0.004916,0.002890,-0.002140,-0.000000,0.000000,-0.000000
1.420000,-1.860000,0.143178,0.040000,-0.010381,-0.005368,0.003380,-0.002190,-0.000000,0.000000,-0.000000
1.420000,-1.820000,0.182483,0.040000,-0.010130,-0.005507,0.003412,-0.001617,-0.000000,0.000000,-0.000000
1.380000,-1.820000,0.182483,0.040000,-0.010193,-0.004980,0.002880,-0.001640,-0.000000,0.000000,-0.000000
1.460000,-1.860000,0.140357,0.040000,-0.010317,-0.006066,0.004062,-0.002228,-0.000000,0.000000,-0.000000
1.500000,-1.860000,0.148661,0.040000,-0.010246,-0.006733,0.004734,-0.002211,-0.000000,0.000000,-0.000000
1.500000,-1.820000,0.186815,0.040000,-0.009989,-0.006790,0.004694,-0.001490,-0.000000,0.000000,-0.000000
1.460000,-1.820000,0.180278,0.040000,-0.010063,-0.006115,0.004019,-0.001570,-0.000000,0.000000,-0.000000
1.540000,-1.860000,0.140357,0.040000,-0.010167,-0.007523,0.005532,-0.002233,-0.000000,0.000000,-0.000000
1.580000,-1.860000,0.143178,0.040000,-0.010080,-0.008529,0.006504,-0.002149,-0.000000,0.000000,-0.000000
1.580000,-1.820000,0.182483,0.040000,-0.009817,-0.008442,0.006332,-0.001204,-0.000000,0.000000,-0.000000
1.540000,-1.820000,0.180278,0.040000,-0.009907,-0.007559,0.005460,-0.001376,-0.000000,0.000000,-0.000000
1.620000,-1.860000,0.143178,0.040000,-0.009982,-0.009441,0.007458,-0.002074,-0.000000,0.000000,-0.000000
1.660000,-1.860000,0.140357,0.040000,-0.009872,-0.010790,0.008762,-0.001935,-0.000000,0.000000,-0.000000
1.660000,-1.820000,0.180278,0.040000,-0.009604,-0.010588,0.008448,-0.000652,-0.000000,0.000000,-0.000000
1.620000,-1.820000,0.182483,0.040000,-0.009717,-0.009431,0.007313,-0.000971,-0.000000,0.000000,-0.000000
1.700000,-1.860000,0.148661,0.040000,-0.009748,-0.012146,0.010104,-0.001663,-0.000000,0.000000,-0.000000
1.740000,-1.860000,0.140357,0.040000,-0.009608,-0.013789,0.011733,-0.001384,-0.000000,0.000000,-0.000000
1.740000,-1.820000,0.180278,0.040000,-0.009337,-0.013416,0.011217,0.000359,-0.000000,0.000000,0.000000
1.700000,-1.820000,0.186815,0.040000,-0.009479,-0.011898,0.009733,-0.000216,-0.000000,0.000000,-0.000000
1.780000,-1.860000,0.143178,0.040000,-0.009449,-0.015878,0.013730,-0.000832,-0.000000,0.000000,-0.000000
1.820000,-1.860000,0.143178,0.040000,-0.009268,-0.017929,0.015815,-0.000175,-0.000000,0.000000,-0.000000
1.820000,-1.820000,0.182483,0.040000,-0.008998,-0.017204,0.014901,0.002175,-0.000000,0.000000,0.000000
1.780000,-1.820000,0.182483,0.040000,-0.009178,-0.015184,0.012935,0.001140,-0.000000,0.000000,0.000000
1.860000,-1.860000,0.140357,0.040000,-0.009061,-0.020881,0.018644,0.000783,-0.000000,0.000000,0.000000
1.900000,-1.860000,0.148661,0.040000,-0.008825,-0.024015,0.021698,0.002219,-0.000000,0.000000,0.000000
1.900000,-1.820000,0.186815,0.040000,-0.008563,-0.022341,0.019853,0.005439,-0.000000,0.000000,0.000000
1.860000,-1.820000,0.180278,0.040000,-0.008794,-0.019596,0.017207,0.003565,-0.000000,0.000000,0.000000
1.940000,-1.860000,0.140357,0.040000,-0.008554,-0.027910,0.025500,0.004038,-0.000000,0.000000,0.000000
1.980000,-1.860000,0.143178,0.040000,-0.008242,-0.032880,0.030208,0.006897,-0.000000,0.000000,0.000000
1.980000,-1.820000,0.182483,0.040000,-0.007999,-0.029278,0.026482,0.011405,-0.000000,0.000000,0.000000
1.940000,-1.820000,0.180278,0.040000,-0.008299,-0.025549,0.022931,0.007957,-0.000000,0.000000,0.000000
2.020000,-1.860000,0.143178,0.040000,-0.007881,-0.038104,0.035397,0.010727,-0.000000,0.000000,0.000000
2.060000,-1.860000,0.140357,0.040000,-0.007464,-0.045421,0.042332,0.016367,-0.000000,0.000000,0.000000
2.060000,-1.820000,0.180278,0.040000,-0.007266,-0.038294,0.035002,0.022613,-0.000000,0.000000,0.000000
2.020000,-1.820000,0.182483,0.040000,-0.007657,-0.033492,0.030491,0.016107,-0.000000,0.000000,0.000000
2.100000,-1.860000,0.148661,0.040000,-0.006978,-0.053364,0.049945,0.024744,-0.000000,0.000000,0.000000
2.140000,-1.860000,0.140357,0.040000,-0.006412,-0.062997,0.059186,0.036785,-0.000000,0.000000,0.000000
2.140000,-1.820000,0.180278,0.040000,-0.006307,-0.048394,0.044328,0.044286,-0.000000,0.000000,0.000000
2.100000,-1.820000,0.186815,0.040000,-0.006818,-0.043376,0.039739,0.031665,-0.000000,0.000000,0.000000
2.180000,-1.860000,0.143178,0.040000,-0.005751,-0.074205,0.069552,0.055490,-0.000000,0.000000,0.000000
2.220000,-1.860000,0.143178,0.040000,-0.004979,-0.083481,0.078573,0.083153,-0.000000,0.000000,0.000000
2.220000,-1.820000,0.182483,0.040000,-0.005069,-0.052255,0.047475,0.086420,-0.000000,0.000000,0.000000
2.180000,-1.820000,0.182483,0.040000,-0.005726,-0.051848,0.047544,0.061975,-0.000000,0.000000,0.000000
2.260000,-1.860000,0.140357,0.040000,-0.004082,-0.090832,0.084827,0.125401,-0.000000,0.000000,0.000000
2.300000,-1.860000,0.148661,0.040000,-0.003051,-0.083052,0.076484,0.187508,-0.000000,0.000000,0.000000
2.300000,-1.820000,0.186815,0.040000,-0.003544,-0.023808,0.017941,0.161037,-0.000000,0.000000,0.000000
2.260000,-1.820000,0.180278,0.040000,-0.004337,-0.045438,0.040077,0.119376,-0.000000,0.000000,0.000000
2.340000,-1.860000,0.140357,0.040000,-0.001903,-0.044937,0.037921,0.271858,-0.000000,0.000000,0.000000
2.380000,-1.860000,0.120416,0.040000,-0.000704,0.054992,-0.063193,0.369836,0.000000,-0.000000,0.000000
2.380000,-1.820000,0.123693,0.040000,-0.001963,0.106276,-0.111932,0.241426,0.000000,-0.000000,0.000000
2.340000,-1.820000,0.162788,0.040000,-0.002727,0.023108,-0.029435,0.206842,0.000000,-0.000000,0.000000
2.420000,-1.860000,0.080623,0.040000,0.000367,0.241791,-0.041311,0.559301,0.000000,-0.000000,0.000000
2.460000,-1.860000,0.041231,0.040000,0.000889,0.625819,0.297539,0.795158,0.000000,0.000000,0.000000
2.460000,-1.820000,0.050000,0.040000,-0.001126,0.479194,-0.237425,0.400191,0.000000,-0.000000,0.000000
2.420000,-1.820000,0.085440,0.040000,-0.001388,0.238290,-0.207298,0.277151,0.000000,-0.000000,0.000000
2.500000,-1.860000,0.010000,0.040000,-0.000061,1.553929,-0.502753,1.031129,0.000000,-0.000000,0.000000
2.500000,-1.820000,0.030000,0.040000,-0.000493,0.553107,0.355904,0.518126,0.000000,0.000000,0.000000
-2.500000,-1.780000,0.030000,0.040000,-0.016615,0.772605,-0.455653,0.650296,0.000000,-0.000000,0.000000
-2.500000,-1.740000,0.010000,0.040000,-0.012670,-1.201463,1.499130,0.294275,-0.000000,0.000000,0.000000
-2.460000,-1.780000,0.050000,0.040000,-0.015183,0.337914,-0.055939,0.311216,0.000000,-0.000000,0.000000
-2.420000,-1.780000,0.085440,0.040000,-0.014885,0.195108,-0.139231,0.015505,0.000000,-0.000000,0.000000
-2.420000,-1.740000,0.080623,0.040000,-0.015977,0.053066,0.108816,-0.012649,0.000000,0.000000,-0.000000
-2.460000,-1.740000,0.041231,0.040000,-0.016319,-0.036062,0.630826,0.128107,-0.000000,0.000000,0.000000
-2.380000,-1.780000,0.123693,0.040000,-0.014949,0.114981,-0.122898,-0.154508,0.000000,-0.000000,-0.000000
-2.340000,-1.780000,0.162788,0.040000,-0.015212,0.052605,-0.058606,-0.148845,0.000000,-0.000000,-0.000000
-2.340000,-1.740000,0.160312,0.040000,-0.015926,0.060770,-0.066018,-0.104166,0.000000,-0.000000,-0.000000
-2.380000,-1.740000,0.120416,0.040000,-0.015865,0.097182,-0.093295,-0.096454,0.000000,-0.000000,-0.000000
-2.300000,-1.780000,0.202237,0.040000,-0.015573,0.010710,-0.016066,-0.128227,0.000000,-0.000000,-0.000000
-2.260000,-1.780000,0.220227,0.040000,-0.015962,-0.014255,0.009360,-0.103641,-0.000000,0.000000,-0.000000
-2.260000,-1.740000,0.240208,0.040000,-0.016318,0.005140,-0.009638,-0.085194,0.000000,-0.000000,-0.000000
-2.300000,-1.740000,0.200250,0.040000,-0.016095,0.028029,-0.032888,-0.097871,0.000000,-0.000000,-0.000000
-2.220000,-1.780000,0.222036,0.040000,-0.016338,-0.026862,0.023150,-0.081519,-0.000000,0.000000,-0.000000
-2.180000,-1.780000,0.222036,0.040000,-0.016679,-0.032862,0.028872,-0.061858,-0.000000,0.000000,-0.000000
-2.180000,-1.740000,0.261725,0.040000,-0.016790,-0.018677,0.013505,-0.055857,-0.000000,0.000000,-0.000000
-2.220000,-1.740000,0.261725,0.040000,-0.016557,-0.009176,0.005157,-0.070935,-0.000000,0.000000,-0.000000
-2.140000,-1.780000,0.220227,0.040000,-0.016975,-0.032123,0.029980,-0.047922,-0.000000,0.000000,-0.000000
-2.100000,-1.780000,0.225610,0.040000,-0.017223,-0.031208,0.028980,-0.034525,-0.000000,0.000000,-0.000000
-2.100000,-1.740000,0.264764,0.040000,-0.017184,-0.024270,0.020408,-0.034447,-0.000000,0.000000,-0.000000
-2.140000,-1.740000,0.260192,0.040000,-0.017002,-0.022382,0.018832,-0.046272,-0.000000,0.000000,-0.000000
-2.060000,-1.780000,0.220227,0.040000,-0.017424,-0.029115,0.027155,-0.026857,-0.000000,0.000000,-0.000000
-2.020000,-1.780000,0.222036,0.040000,-0.017582,-0.026991,0.024907,-0.019027,-0.000000,0.000000,-0.000000
-2.020000,-1.740000,0.261725,0.040000,-0.017455,-0.022986,0.019805,-0.020986,-0.000000,0.000000,-0.000000
-2.060000,-1.740000,0.260192,0.040000,-0.017336,-0.024252,0.020776,-0.028993,-0.000000,0.000000,-0.000000
-1.980000,-1.780000,0.222036,0.040000,-0.017700,-0.024118,0.022106,-0.014985,-0.000000,0.000000,-0.000000
-1.940000,-1.780000,0.220227,0.040000,-0.017782,-0.022079,0.019910,-0.010474,-0.000000,0.000000,-0.000000
-1.940000,-1.740000,0.260192,0.040000,-0.017604,-0.019732,0.016938,-0.012611,-0.000000,0.000000,-0.000000
-1.980000,-1.740000,0.261725,0.040000,-0.017544,-0.021390,0.018255,-0.017635,-0.000000,0.000000,-0.000000
-1.900000,-1.780000,0.225610,0.040000,-0.017832,-0.019409,0.017364,-0.008192,-0.000000,0.000000,-0.000000
-1.860000,-1.780000,0.220227,0.040000,-0.017855,-0.017728,0.015538,-0.005558,-0.000000,0.000000,-0.000000
-1.860000,-1.740000,0.260192,0.040000,-0.017647,-0.016345,0.013792,-0.007440,-0.000000,0.000000,-0.000000
-1.900000,-1.740000,0.264764,0.040000,-0.017638,-0.017876,0.015020,-0.010574,-0.000000,0.000000,-0.000000
-1.820000,-1.780000,0.222036,0.040000,-0.017853,-0.015517,0.013452,-0.004243,-0.000000,0.000000,-0.000000
-1.780000,-1.780000,0.222036,0.040000,-0.017829,-0.014194,0.012006,-0.002681,-0.000000,0.000000,-0.000000
-1.780000,-1.740000,0.261725,0.040000,-0.017605,-0.013376,0.010970,-0.004228,-0.000000,0.000000,-0.000000
-1.820000,-1.740000,0.261725,0.040000,-0.017636,-0.014655,0.012003,-0.006195,-0.000000,0.000000,-0.000000
-1.740000,-1.780000,0.220227,0.040000,-0.017786,-0.012433,0.010354,-0.001911,-0.000000,0.000000,-0.000000
-1.700000,-1.780000,0.225610,0.040000,-0.017726,-0.011406,0.009224,-0.000973,-0.000000,0.000000,-0.000000
-1.700000,-1.740000,0.264764,0.040000,-0.017494,-0.010924,0.008605,-0.002216,-0.000000,0.000000,-0.000000
-1.740000,-1.740000,0.260192,0.040000,-0.017557,-0.011954,0.009443,-0.003459,-0.000000,0.000000,-0.000000
-1.660000,-1.780000,0.220227,0.040000,-0.017651,-0.010019,0.007926,-0.000520,-0.000000,0.000000,-0.000000
-1.620000,-1.780000,0.222036,0.040000,-0.017564,-0.009221,0.007043,0.000045,-0.000000,0.000000,0.000000
-1.620000,-1.740000,0.261725,0.040000,-0.017329,-0.008944,0.006673,-0.000945,-0.000000,0.000000,-0.000000
-1.660000,-1.740000,0.260192,0.040000,-0.017417,-0.009764,0.007346,-0.001736,-0.000000,0.000000,-0.000000
-1.580000,-1.780000,0.222036,0.040000,-0.017466,-0.008128,0.006021,0.000312,-0.000000,0.000000,0.000000
-1.540000,-1.780000,0.220227,0.040000,-0.017357,-0.007505,0.005326,0.000648,-0.000000,0.000000,0.000000
-1.540000,-1.740000,0.260192,0.040000,-0.017122,-0.007355,0.005109,-0.000142,-0.000000,0.000000,-0.000000
-1.580000,-1.740000,0.261725,0.040000,-0.017230,-0.008007,0.005648,-0.000645,-0.000000,0.000000,-0.000000
-1.500000,-1.780000,0.225610,0.040000,-0.017241,-0.006640,0.004516,0.000801,-0.000000,0.000000,0.000000
-1.460000,-1.780000,0.220227,0.040000,-0.017117,-0.006149,0.003964,0.000995,-0.000000,0.000000,0.000000
-1.460000,-1.740000,0.260192,0.040000,-0.016882,-0.006079,0.003842,0.000361,-0.000000,0.000000,0.000000
-1.500000,-1.740000,0.264764,0.040000,-0.017005,-0.006599,0.004276,0.000044,-0.000000,0.000000,0.000000
-1.420000,-1.780000,0.222036,0.040000,-0.016986,-0.005460,0.003317,0.001077,-0.000000,0.000000,0.000000
-1.380000,-1.780000,0.222036,0.040000,-0.016851,-0.005069,0.002874,0.001182,-0.000000,0.000000,0.000000
-1.380000,-1.740000,0.261725,0.040000,-0.016619,-0.005050,0.002812,0.000670,-0.000000,0.000000,0.000000
-1.420000,-1.740000,0.261725,0.040000,-0.016753,-0.005468,0.003164,0.000474,-0.000000,0.000000,0.000000
-1.340000,-1.780000,0.220227,0.040000,-0.016711,-0.004515,0.002352,0.001219,-0.000000,0.000000,0.000000
-1.300000,-1.780000,0.225610,0.040000,-0.016567,-0.004202,0.001994,0.001266,-0.000000,0.000000,0.000000
-1.300000,-1.740000,0.264764,0.040000,-0.016338,-0.004216,0.001970,0.000849,-0.000000,0.000000,0.000000
-1.340000,-1.740000,0.260192,0.040000,-0.016480,-0.004554,0.002257,0.000735,-0.000000,0.000000,0.000000
-1.260000,-1.780000,0.220227,0.040000,-0.016419,-0.003753,0.001570,0.001275,-0.000000,0.000000,0.000000
-1.220000,-1.780000,0.222036,0.040000,-0.016270,-0.003500,0.001278,0.001284,-0.000000,0.000000,0.000000
-1.220000,-1.740000,0.261725,0.040000,-0.016045,-0.003536,0.001278,0.000943,-0.000000,0.000000,0.000000
-1.260000,-1.740000,0.260192,0.040000,-0.016192,-0.003811,0.001514,0.000884,-0.000000,0.000000,0.000000
-1.180000,-1.780000,0.222036,0.040000,-0.016118,-0.003134,0.000930,0.001276,-0.000000,0.000000,0.000000
-1.140000,-1.780000,0.220227,0.040000,-0.015965,-0.002928,0.000690,0.001260,-0.000000,0.000000,0.000000
-1.140000,-1.740000,0.260192,0.040000,-0.015743,-0.002978,0.000706,0.000980,-0.000000,0.000000,0.000000
-1.180000,-1.740000,0.261725,0.040000,-0.015895,-0.003203,0.000901,0.000957,-0.000000,0.000000,0.000000
-1.100000,-1.780000,0.225610,0.040000,-0.015810,-0.002628,0.000403,0.001240,-0.000000,0.000000,0.000000
-1.060000,-1.780000,0.220227,0.040000,-0.015655,-0.002459,0.000204,0.001208,-0.000000,0.000000,0.000000
-1.060000,-1.740000,0.260192,0.040000,-0.015437,-0.002518,0.000230,0.000976,-0.000000,0.000000,0.000000
-1.100000,-1.740000,0.264764,0.040000,-0.015591,-0.002703,0.000392,0.000979,-0.000000,0.000000,0.000000
-1.020000,-1.780000,0.222036,0.040000,-0.015500,-0.002212,-0.000033,0.001181,-0.000000,0.000000,0.000000
-0.980000,-1.780000,0.222036,0.040000,-0.015345,-0.002071,-0.000199,0.001139,-0.000000,0.000000,0.000000
-0.980000,-1.740000,0.261725,0.040000,-0.015130,-0.002137,-0.000168,0.000946,-0.000000,0.000000,0.000000
-1.020000,-1.740000,0.261725,0.040000,-0.015284,-0.002290,-0.000032,0.000966,-0.000000,0.000000,0.000000
-0.940000,-1.780000,0.220227,0.040000,-0.015190,-0.001867,-0.000397,0.001107,-0.000000,0.000000,0.000000
-0.900000,-1.780000,0.225610,0.040000,-0.015036,-0.001751,-0.000536,0.001059,-0.000000,0.000000,0.000000
-0.900000,-1.740000,0.264764,0.040000,-0.014824,-0.001821,-0.000501,0.000898,-0.000000,0.000000,0.000000
-0.940000,-1.740000,0.260192,0.040000,-0.014977,-0.001948,-0.000387,0.000929,-0.000000,0.000000,0.000000
-0.860000,-1.780000,0.220227,0.040000,-0.014882,-0.001581,-0.000702,0.001024,-0.000000,-0.000000,0.000000
-0.820000,-1.780000,0.222036,0.040000,-0.014730,-0.001485,-0.000817,0.000971,-0.000000,-0.000000,0.000000
-0.820000,-1.740000,0.261725,0.040000,-0.014522,-0.001557,-0.000780,0.000836,-0.000000,-0.000000,0.000000
-0.860000,-1.740000,0.260192,0.040000,-0.014672,-0.001663,-0.000685,0.000877,-0.000000,0.000000,0.000000
-0.780000,-1.780000,0.222036,0.040000,-0.014579,-0.001343,-0.000956,0.000934,-0.000000,-0.000000,0.000000
-0.740000,-1.780000,0.220227,0.040000,-0.014429,-0.001264,-0.001053,0.000879,-0.000000,-0.000000,0.000000
-0.740000,-1.740000,0.260192,0.040000,-0.014224,-0.001337,-0.001015,0.000767,-0.000000,-0.000000,0.000000
-0.780000,-1.740000,0.261725,0.040000,-0.014372,-0.001425,-0.000935,0.000812,-0.000000,-0.000000,0.000000
-0.700000,-1.780000,0.225610,0.040000,-0.014282,-0.001146,-0.001169,0.000842,-0.000000,-0.000000,0.000000
-0.660000,-1.780000,0.220227,0.040000,-0.014136,-0.001080,-0.001250,0.000784,-0.000000,-0.000000,0.000000
-0.660000,-1.740000,0.260192,0.040000,-0.013933,-0.001155,-0.001211,0.000691,-0.000000,-0.000000,0.000000
-0.700000,-1.740000,0.264764,0.040000,-0.014077,-0.001228,-0.001144,0.000741,-0.000000,-0.000000,0.000000
-0.620000,-1.780000,0.222036,0.040000,-0.013992,-0.000983,-0.001346,0.000747,-0.000000,-0.000000,0.000000
-0.580000,-1.780000,0.222036,0.040000,-0.013850,-0.000928,-0.001414,0.000689,-0.000000,-0.000000,0.000000
-0.580000,-1.740000,0.261725,0.040000,-0.013649,-0.001003,-0.001375,0.000611,-0.000000,-0.000000,0.000000
-0.620000,-1.740000,0.261725,0.040000,-0.013790,-0.001064,-0.001319,0.000664,-0.000000,-0.000000,0.000000
-0.540000,-1.780000,0.220227,0.040000,-0.013711,-0.000849,-0.001493,0.000651,-0.000000,-0.000000,0.000000
-0.500000,-1.780000,0.225610,0.040000,-0.013574,-0.000804,-0.001549,0.000593,-0.000000,-0.000000,0.000000
-0.500000,-1.740000,0.264764,0.040000,-0.013375,-0.000879,-0.001511,0.000529,-0.000000,-0.000000,0.000000
-0.540000,-1.740000,0.260192,0.040000,-0.013511,-0.000928,-0.001465,0.000583,-0.000000,-0.000000,0.000000
-0.460000,-1.780000,0.220227,0.040000,-0.013439,-0.000739,-0.001614,0.000555,-0.000000,-0.000000,0.000000
-0.420000,-1.780000,0.222036,0.040000,-0.013307,-0.000704,-0.001659,0.000496,0.000000,-0.000000,0.000000
-0.420000,-1.740000,0.261725,0.040000,-0.013110,-0.000779,-0.001621,0.000445,-0.000000,-0.000000,0.000000
-0.460000,-1.740000,0.260192,0.040000,-0.013241,-0.000818,-0.001584,0.000500,-0.000000,-0.000000,0.000000
-0.380000,-1.780000,0.222036,0.040000,-0.013178,-0.000651,-0.001711,0.000459,0.000000,-0.000000,0.000000
-0.340000,-1.780000,0.220227,0.040000,-0.013051,-0.000624,-0.001746,0.000400,0.000000,-0.000000,0.000000
-0.340000,-1.740000,0.260192,0.040000,-0.012855,-0.000699,-0.001709,0.000360,0.000000,-0.000000,0.000000
-0.380000,-1.740000,0.261725,0.040000,-0.012981,-0.000730,-0.001680,0.000416,-0.000000,-0.000000,0.000000
-0.300000,-1.780000,0.225610,0.040000,-0.012927,-0.000583,-0.001787,0.000363,0.000000,-0.000000,0.000000
-0.260000,-1.780000,0.220227,0.040000,-0.012806,-0.000562,-0.001814,0.000304,0.000000,-0.000000,0.000000
-0.260000,-1.740000,0.260192,0.040000,-0.012611,-0.000638,-0.001777,0.000274,0.000000,-0.000000,0.000000
-0.300000,-1.740000,0.264764,0.040000,-0.012732,-0.000661,-0.001755,0.000331,0.000000,-0.000000,0.000000
-0.220000,-1.780000,0.222036,0.040000,-0.012688,-0.000533,-0.001843,0.000267,0.000000,-0.000000,0.000000
-0.180000,-1.780000,0.222036,0.040000,-0.012573,-0.000518,-0.001862,0.000209,0.000000,-0.000000,0.000000
-0.180000,-1.740000,0.261725,0.040000,-0.012379,-0.000594,-0.001826,0.000188,0.000000,-0.000000,0.000000
-0.220000,-1.740000,0.261725,0.040000,-0.012494,-0.000610,-0.001810,0.000245,0.000000,-0.000000,0.000000
-0.140000,-1.780000,0.220227,0.040000,-0.012461,-0.000500,-0.001881,0.000172,0.000000,-0.000000,0.000000
-0.100000,-1.780000,0.225610,0.040000,-0.012352,-0.000491,-0.001892,0.000114,0.000000,-0.000000,0.000000
-0.100000,-1.740000,0.264764,0.040000,-0.012158,-0.000566,-0.001857,0.000101,0.000000,-0.000000,0.000000
-0.140000,-1.740000,0.260192,0.040000,-0.012267,-0.000576,-0.001848,0.000159,0.000000,-0.000000,0.000000
-0.060000,-1.780000,0.220227,0.040000,-0.012246,-0.000481,-0.001902,0.000077,0.000000,-0.000000,0.000000
-0.020000,-1.780000,0.222036,0.040000,-0.012143,-0.000479,-0.001905,0.000019,0.000000,-0.000000,0.000000
-0.020000,-1.740000,0.261725,0.040000,-0.011950,-0.000554,-0.001871,0.000015,0.000000,-0.000000,0.000000
-0.060000,-1.740000,0.260192,0.040000,-0.012052,-0.000557,-0.001868,0.000072,0.000000,-0.000000,0.000000
0.020000,-1.780000,0.222036,0.040000,-0.012043,-0.000478,-0.001905,-0.000018,0.000000,-0.000000,-0.000000
0.060000,-1.780000,0.220227,0.040000,-0.011946,-0.000481,-0.001902,-0.000077,0.000000,-0.000000,-0.000000
0.060000,-1.740000,0.260192,0.040000,-0.011753,-0.000557,-0.001868,-0.000072,0.000000,-0.000000,-0.000000
0.020000,-1.740000,0.261725,0.040000,-0.011850,-0.000554,-0.001871,-0.000014,0.000000,-0.000000,-0.000000
0.100000,-1.780000,0.225610,0.040000,-0.011852,-0.000491,-0.001892,-0.000113,0.000000,-0.000000,-0.000000
0.140000,-1.780000,0.220227,0.040000,-0.011761,-0.000499,-0.001881,-0.000172,0.000000,-0.000000,-0.000000
0.140000,-1.740000,0.260192,0.040000,-0.011567,-0.000576,-0.001848,-0.000158,0.000000,-0.000000,-0.000000
0.100000,-1.740000,0.264764,0.040000,-0.011659,-0.000566,-0.001857,-0.000101,0.000000,-0.000000,-0.000000
0.180000,-1.780000,0.222036,0.040000,-0.011673,-0.000519,-0.001862,-0.000209,0.000000,-0.000000,-0.000000
0.220000,-1.780000,0.222036,0.040000,-0.011588,-0.000533,-0.001843,-0.000267,0.000000,-0.000000,-0.000000
0.220000,-1.740000,0.261725,0.040000,-0.011394,-0.000610,-0.001811,-0.000245,0.000000,-0.000000,-0.000000
0.180000,-1.740000,0.261725,0.040000,-0.011479,-0.000594,-0.001826,-0.000188,0.000000,-0.000000,-0.000000
0.260000,-1.780000,0.220227,0.040000,-0.011506,-0.000562,-0.001814,-0.000304,0.000000,-0.000000,-0.000000
0.300000,-1.780000,0.225610,0.040000,-0.011427,-0.000583,-0.001787,-0.000362,0.000000,-0.000000,-0.000000
0.300000,-1.740000,0.264764,0.040000,-0.011232,-0.000661,-0.001755,-0.000331,0.000000,-0.000000,-0.000000
0.260000,-1.740000,0.260192,0.040000,-0.011312,-0.000638,-0.001777,-0.000274,0.000000,-0.000000,-0.000000
0.340000,-1.780000,0.220227,0.040000,-0.011351,-0.000623,-0.001747,-0.000400,0.000000,-0.000000,-0.000000
0.380000,-1.780000,0.222036,0.040000,-0.011278,-0.000651,-0.001711,-0.000458,0.000000,-0.000000,-0.000000
0.380000,-1.740000,0.261725,0.040000,-0.011082,-0.000730,-0.001680,-0.000416,-0.000000,-0.000000,-0.000000
0.340000,-1.740000,0.260192,0.040000,-0.011156,-0.000698,-0.001710,-0.000360,0.000000,-0.000000,-0.000000
0.420000,-1.780000,0.222036,0.040000,-0.011207,-0.000703,-0.001659,-0.000496,0.000000,-0.000000,-0.000000
0.460000,-1.780000,0.220227,0.040000,-0.011139,-0.000739,-0.001614,-0.000555,-0.000000,-0.000000,-0.000000
0.460000,-1.740000,0.260192,0.040000,-0.010942,-0.000818,-0.001584,-0.000500,-0.000000,-0.000000,-0.000000
0.420000,-1.740000,0.261725,0.040000,-0.011010,-0.000778,-0.001622,-0.000445,-0.000000,-0.000000,-0.000000
0.500000,-1.780000,0.225610,0.040000,-0.011074,-0.000804,-0.001549,-0.000592,-0.000000,-0.000000,-0.000000
0.540000,-1.780000,0.220227,0.040000,-0.011011,-0.000848,-0.001494,-0.000651,-0.000000,-0.000000,-0.000000
0.540000,-1.740000,0.260192,0.040000,-0.010811,-0.000928,-0.001465,-0.000583,-0.000000,-0.000000,-0.000000
0.500000,-1.740000,0.264764,0.040000,-0.010875,-0.000879,-0.001511,-0.000529,-0.000000,-0.000000,-0.000000
0.580000,-1.780000,0.222036,0.040000,-0.010951,-0.000928,-0.001414,-0.000688,-0.000000,-0.000000,-0.000000
0.620000,-1.780000,0.222036,0.040000,-0.010893,-0.000982,-0.001347,-0.000746,-0.000000,-0.000000,-0.000000
0.620000,-1.740000,0.261725,0.040000,-0.010691,-0.001063,-0.001320,-0.000663,-0.000000,-0.000000,-0.000000
0.580000,-1.740000,0.261725,0.040000,-0.010750,-0.001003,-0.001376,-0.000611,-0.000000,-0.000000,-0.000000
0.660000,-1.780000,0.220227,0.040000,-0.010837,-0.001080,-0.001250,-0.000784,-0.000000,-0.000000,-0.000000
0.700000,-1.780000,0.225610,0.040000,-0.010782,-0.001146,-0.001169,-0.000841,-0.000000,-0.000000,-0.000000
0.700000,-1.740000,0.264764,0.040000,-0.010578,-0.001227,-0.001145,-0.000740,-0.000000,-0.000000,-0.000000
0.660000,-1.740000,0.260192,0.040000,-0.010633,-0.001154,-0.001212,-0.000691,-0.000000,-0.000000,-0.000000
0.740000,-1.780000,0.220227,0.040000,-0.010730,-0.001263,-0.001054,-0.000878,-0.000000,-0.000000,-0.000000
0.780000,-1.780000,0.222036,0.040000,-0.010680,-0.001343,-0.000956,-0.000934,-0.000000,-0.000000,-0.000000
0.780000,-1.740000,0.261725,0.040000,-0.010473,-0.001425,-0.000935,-0.000812,-0.000000,-0.000000,-0.000000
0.740000,-1.740000,0.260192,0.040000,-0.010525,-0.001337,-0.001015,-0.000766,-0.000000,-0.000000,-0.000000
0.820000,-1.780000,0.222036,0.040000,-0.010631,-0.001484,-0.000818,-0.000970,-0.000000,-0.000000,-0.000000
0.860000,-1.780000,0.220227,0.040000,-0.010583,-0.001580,-0.000702,-0.001023,-0.000000,-0.000000,-0.000000
0.860000,-1.740000,0.260192,0.040000,-0.010373,-0.001662,-0.000686,-0.000876,-0.000000,0.000000,-0.000000
0.820000,-1.740000,0.261725,0.040000,-0.010423,-0.001556,-0.000781,-0.000836,-0.000000,-0.000000,-0.000000
0.900000,-1.780000,0.225610,0.040000,-0.010537,-0.001750,-0.000537,-0.001058,-0.000000,0.000000,-0.000000
0.940000,-1.780000,0.220227,0.040000,-0.010491,-0.001866,-0.000398,-0.001107,-0.000000,0.000000,-0.000000
0.940000,-1.740000,0.260192,0.040000,-0.010278,-0.001947,-0.000388,-0.000929,-0.000000,0.000000,-0.000000
0.900000,-1.740000,0.264764,0.040000,-0.010325,-0.001820,-0.000502,-0.000897,-0.000000,0.000000,-0.000000
0.980000,-1.780000,0.222036,0.040000,-0.010446,-0.002071,-0.000200,-0.001139,-0.000000,0.000000,-0.000000
1.020000,-1.780000,0.222036,0.040000,-0.010401,-0.002210,-0.000035,-0.001181,-0.000000,0.000000,-0.000000
1.020000,-1.740000,0.261725,0.040000,-0.010185,-0.002289,-0.000033,-0.000966,-0.000000,0.000000,-0.000000
0.980000,-1.740000,0.261725,0.040000,-0.010231,-0.002136,-0.000169,-0.000946,-0.000000,0.000000,-0.000000
1.060000,-1.780000,0.220227,0.040000,-0.010357,-0.002458,0.000203,-0.001208,-0.000000,0.000000,-0.000000
1.100000,-1.780000,0.225610,0.040000,-0.010312,-0.002627,0.000402,-0.001239,-0.000000,0.000000,-0.000000
1.100000,-1.740000,0.264764,0.040000,-0.010092,-0.002702,0.000391,-0.000979,-0.000000,0.000000,-0.000000
1.060000,-1.740000,0.260192,0.040000,-0.010139,-0.002517,0.000228,-0.000976,-0.000000,0.000000,-0.000000
1.140000,-1.780000,0.220227,0.040000,-0.010266,-0.002927,0.000689,-0.001260,-0.000000,0.000000,-0.000000
1.180000,-1.780000,0.222036,0.040000,-0.010219,-0.003133,0.000929,-0.001275,-0.000000,0.000000,-0.000000
1.180000,-1.740000,0.261725,0.040000,-0.009996,-0.003202,0.000899,-0.000957,-0.000000,0.000000,-0.000000
1.140000,-1.740000,0.260192,0.040000,-0.010045,-0.002977,0.000704,-0.000979,-0.000000,0.000000,-0.000000
1.220000,-1.780000,0.222036,0.040000,-0.010171,-0.003498,0.001276,-0.001284,-0.000000,0.000000,-0.000000
1.260000,-1.780000,0.220227,0.040000,-0.010121,-0.003752,0.001568,-0.001275,-0.000000,0.000000,-0.000000
1.260000,-1.740000,0.260192,0.040000,-0.009894,-0.003809,0.001512,-0.000884,-0.000000,0.000000,-0.000000
1.220000,-1.740000,0.261725,0.040000,-0.009946,-0.003534,0.001276,-0.000943,-0.000000,0.000000,-0.000000
1.300000,-1.780000,0.225610,0.040000,-0.010068,-0.004200,0.001992,-0.001265,-0.000000,0.000000,-0.000000
1.340000,-1.780000,0.220227,0.040000,-0.010012,-0.004513,0.002350,-0.001219,-0.000000,0.000000,-0.000000
1.340000,-1.740000,0.260192,0.040000,-0.009782,-0.004552,0.002255,-0.000735,-0.000000,0.000000,-0.000000
1.300000,-1.740000,0.264764,0.040000,-0.009840,-0.004214,0.001968,-0.000849,-0.000000,0.000000,-0.000000
1.380000,-1.780000,0.222036,0.040000,-0.009953,-0.005067,0.002872,-0.001181,-0.000000,0.000000,-0.000000
1.420000,-1.780000,0.222036,0.040000,-0.009888,-0.005457,0.003314,-0.001077,-0.000000,0.000000,-0.000000
1.420000,-1.740000,0.261725,0.040000,-0.009655,-0.005465,0.003161,-0.000474,-0.000000,0.000000,-0.000000
1.380000,-1.740000,0.261725,0.040000,-0.009721,-0.005047,0.002810,-0.000669,-0.000000,0.000000,-0.000000
1.460000,-1.780000,0.220227,0.040000,-0.009819,-0.006146,0.003961,-0.000995,-0.000000,0.000000,-0.000000
1.500000,-1.780000,0.225610,0.040000,-0.009743,-0.006637,0.004512,-0.000800,-0.000000,0.000000,-0.000000
1.500000,-1.740000,0.264764,0.040000,-0.009507,-0.006596,0.004273,-0.000044,-0.000000,0.000000,-0.000000
1.460000,-1.740000,0.260192,0.040000,-0.009584,-0.006076,0.003839,-0.000361,-0.000000,0.000000,-0.000000
1.540000,-1.780000,0.220227,0.040000,-0.009660,-0.007501,0.005322,-0.000648,-0.000000,0.000000,-0.000000
1.580000,-1.780000,0.222036,0.040000,-0.009568,-0.008124,0.006017,-0.000311,-0.000000,0.000000,-0.000000
1.580000,-1.740000,0.261725,0.040000,-0.009332,-0.008003,0.005644,0.000645,-0.000000,0.000000,0.000000
1.540000,-1.740000,0.260192,0.040000,-0.009424,-0.007351,0.005105,0.000142,-0.000000,0.000000,0.000000
1.620000,-1.780000,0.222036,0.040000,-0.009466,-0.009216,0.007037,-0.000045,-0.000000,0.000000,-0.000000
1.660000,-1.780000,0.220227,0.040000,-0.009354,-0.010014,0.007921,0.000519,-0.000000,0.000000,0.000000
1.660000,-1.740000,0.260192,0.040000,-0.009120,-0.009758,0.007341,0.001735,-0.000000,0.000000,0.000000
1.620000,-1.740000,0.261725,0.040000,-0.009231,-0.008939,0.006669,0.000945,-0.000000,0.000000,0.000000
1.700000,-1.780000,0.225610,0.040000,-0.009229,-0.011399,0.009217,0.000973,-0.000000,0.000000,0.000000
1.740000,-1.780000,0.220227,0.040000,-0.009088,-0.012426,0.010347,0.001911,-0.000000,0.000000,0.000000
1.740000,-1.740000,0.260192,0.040000,-0.008860,-0.011947,0.009436,0.003458,-0.000000,0.000000,0.000000
1.700000,-1.740000,0.264764,0.040000,-0.008996,-0.010918,0.008599,0.002215,-0.000000,0.000000,0.000000
1.780000,-1.780000,0.222036,0.040000,-0.008932,-0.014186,0.011998,0.002680,-0.000000,0.000000,0.000000
1.820000,-1.780000,0.222036,0.040000,-0.008756,-0.015507,0.013443,0.004242,-0.000000,0.000000,0.000000
1.820000,-1.740000,0.261725,0.040000,-0.008539,-0.014646,0.011994,0.006192,-0.000000,0.000000,0.000000
1.780000,-1.740000,0.261725,0.040000,-0.008708,-0.013369,0.010962,0.004227,-0.000000,0.000000,0.000000
1.860000,-1.780000,0.220227,0.040000,-0.008558,-0.017717,0.015527,0.005556,-0.000000,0.000000,0.000000
1.900000,-1.780000,0.225610,0.040000,-0.008336,-0.019397,0.017352,0.008189,-0.000000,0.000000,0.000000
1.900000,-1.740000,0.264764,0.040000,-0.008141,-0.017865,0.015009,0.010569,-0.000000,0.000000,0.000000
1.860000,-1.740000,0.260192,0.040000,-0.008351,-0.016335,0.013782,0.007437,-0.000000,0.000000,0.000000
1.940000,-1.780000,0.220227,0.040000,-0.008085,-0.022064,0.019895,0.010470,-0.000000,0.000000,0.000000
1.980000,-1.780000,0.222036,0.040000,-0.007803,-0.024102,0.022090,0.014979,-0.000000,0.000000,0.000000
1.980000,-1.740000,0.261725,0.040000,-0.007648,-0.021375,0.018240,0.017626,-0.000000,0.000000,0.000000
1.940000,-1.740000,0.260192,0.040000,-0.007907,-0.019718,0.016925,0.012605,-0.000000,0.000000,0.000000
2.020000,-1.780000,0.222036,0.040000,-0.007486,-0.026971,0.024886,0.019019,-0.000000,0.000000,0.000000
2.060000,-1.780000,0.220227,0.040000,-0.007128,-0.029092,0.027131,0.026844,-0.000000,0.000000,0.000000
2.060000,-1.740000,0.260192,0.040000,-0.007040,-0.024233,0.020757,0.028977,-0.000000,0.000000,0.000000
2.020000,-1.740000,0.261725,0.040000,-0.007359,-0.022968,0.019788,0.020975,-0.000000,0.000000,0.000000
2.100000,-1.780000,0.225610,0.040000,-0.006727,-0.031181,0.028953,0.034508,-0.000000,0.000000,0.000000
2.140000,-1.780000,0.220227,0.040000,-0.006280,-0.032093,0.029949,0.047895,-0.000000,0.000000,0.000000
2.140000,-1.740000,0.260192,0.040000,-0.006307,-0.022359,0.018808,0.046243,-0.000000,0.000000,0.000000
2.100000,-1.740000,0.264764,0.040000,-0.006689,-0.024248,0.020386,0.034427,-0.000000,0.000000,0.000000
2.180000,-1.780000,0.222036,0.040000,-0.005784,-0.032826,0.028836,0.061821,-0.000000,0.000000,0.000000
2.220000,-1.780000,0.222036,0.040000,-0.005244,-0.026824,0.023111,0.081465,-0.000000,0.000000,0.000000
2.220000,-1.740000,0.261725,0.040000,-0.005463,-0.009156,0.005136,0.070883,-0.000000,0.000000,0.000000
2.180000,-1.740000,0.261725,0.040000,-0.005896,-0.018653,0.013481,0.055820,-0.000000,0.000000,0.000000
2.260000,-1.780000,0.220227,0.040000,-0.004668,-0.014219,0.009324,0.103563,-0.000000,0.000000,0.000000
2.300000,-1.780000,0.202237,0.040000,-0.004080,0.010733,-0.016091,0.128116,0.000000,-0.000000,0.000000
2.300000,-1.740000,0.200250,0.040000,-0.004601,0.028025,-0.032885,0.097783,0.000000,-0.000000,0.000000
2.260000,-1.740000,0.240208,0.040000,-0.005024,0.005153,-0.009651,0.085125,0.000000,-0.000000,0.000000
2.340000,-1.780000,0.162788,0.040000,-0.003520,0.052594,-0.058597,0.148696,0.000000,-0.000000,0.000000
2.380000,-1.780000,0.123693,0.040000,-0.003058,0.114948,-0.123013,0.154673,0.000000,-0.000000,0.000000
2.380000,-1.740000,0.120416,0.040000,-0.003973,0.102141,-0.107684,0.096368,0.000000,-0.000000,0.000000
2.340000,-1.740000,0.160312,0.040000,-0.004233,0.060735,-0.065984,0.104061,0.000000,-0.000000,0.000000
2.420000,-1.780000,0.085440,0.040000,-0.002794,0.199897,-0.196114,0.138030,0.000000,-0.000000,0.000000
2.460000,-1.780000,0.050000,0.040000,-0.002892,0.314116,-0.228471,0.084830,0.000000,-0.000000,0.000000
2.460000,-1.740000,0.041231,0.040000,-0.004027,0.200691,-0.132849,-0.018529,0.000000,-0.000000,-0.000000
2.420000,-1.740000,0.080623,0.040000,-0.003885,0.146766,-0.136481,0.039503,0.000000,-0.000000,0.000000
2.500000,-1.780000,0.030000,0.040000,-0.004123,0.683033,-0.510817,0.063823,0.000000,-0.000000,0.000000
2.500000,-1.740000,0.010000,0.040000,-0.004328,0.233592,-0.070749,-0.084004,0.000000,-0.000000,-0.000000
-2.500000,-1.700000,0.050000,0.040000,-0.016517,0.558655,0.925343,0.067011,0.000000,0.000000,0.000000
-2.500000,-1.660000,0.010000,0.040000,-0.018684,1.149289,0.463991,0.396569,0.000000,-0.000000,0.000000
-2.460000,-1.700000,0.064031,0.040000,-0.017228,0.309855,0.629213,0.015844,0.000000,0.000000,0.000000
-2.420000,-1.700000,0.094340,0.040000,-0.016836,0.089983,0.126906,-0.081555,0.000000,0.000000,-0.000000
-2.420000,-1.660000,0.080623,0.040000,-0.017518,0.069777,0.223944,0.092211,-0.000000,0.000000,0.000000
-2.460000,-1.660000,0.041231,0.040000,-0.017970,0.300405,0.868035,0.209917,-0.000000,0.000000,0.000000
-2.380000,-1.700000,0.130000,0.040000,-0.016618,0.084218,-0.085936,-0.062390,0.000000,-0.000000,-0.000000
-2.340000,-1.700000,0.167631,0.040000,-0.016544,0.059054,-0.063697,-0.072432,0.000000,-0.000000,-0.000000
-2.340000,-1.660000,0.160312,0.040000,-0.017069,0.053634,-0.057740,-0.050321,0.000000,-0.000000,-0.000000
-2.380000,-1.660000,0.120416,0.040000,-0.017232,0.072007,-0.075244,-0.039290,0.000000,-0.000000,-0.000000
-2.300000,-1.700000,0.206155,0.040000,-0.016574,0.034929,-0.039319,-0.073151,0.000000,-0.000000,-0.000000
-2.260000,-1.700000,0.245153,0.040000,-0.016667,0.016099,-0.020453,-0.067850,0.000000,-0.000000,-0.000000
-2.260000,-1.660000,0.240208,0.040000,-0.016992,0.021339,-0.025345,-0.053076,0.000000,-0.000000,-0.000000
-2.300000,-1.660000,0.200250,0.040000,-0.016998,0.036148,-0.040113,-0.054156,0.000000,-0.000000,-0.000000
-2.220000,-1.700000,0.284429,0.040000,-0.016793,0.002850,-0.005826,-0.060913,0.000000,-0.000000,-0.000000
-2.180000,-1.700000,0.301496,0.040000,-0.016931,-0.005972,0.002171,-0.051279,-0.000000,0.000000,-0.000000
-2.180000,-1.660000,0.320156,0.040000,-0.017082,0.000624,-0.004803,-0.042091,0.000000,-0.000000,-0.000000
-2.220000,-1.660000,0.280179,0.040000,-0.017026,0.008959,-0.011107,-0.048632,0.000000,-0.000000,-0.000000
2.180000,-1.700000,0.301496,0.040000,-0.006036,-0.005960,0.002159,0.051243,-0.000000,0.000000,0.000000
2.220000,-1.700000,0.284429,0.040000,-0.005699,0.002857,-0.005834,0.060866,0.000000,-0.000000,0.000000
2.220000,-1.660000,0.280179,0.040000,-0.005931,0.008958,-0.011108,0.048593,0.000000,-0.000000,0.000000
2.180000,-1.660000,0.320156,0.040000,-0.006187,0.000630,-0.004808,0.042059,0.000000,-0.000000,0.000000
2.260000,-1.700000,0.245153,0.040000,-0.005373,0.016097,-0.020451,0.067793,0.000000,-0.000000,0.000000
2.300000,-1.700000,0.206155,0.040000,-0.005080,0.034911,-0.039302,0.073084,0.000000,-0.000000,0.000000
2.300000,-1.660000,0.200250,0.040000,-0.005504,0.036125,-0.040090,0.054107,0.000000,-0.000000,0.000000
2.260000,-1.660000,0.240208,0.040000,-0.005697,0.021329,-0.025335,0.053031,0.000000,-0.000000,0.000000
2.340000,-1.700000,0.167631,0.040000,-0.004851,0.059013,-0.063657,0.072359,0.000000,-0.000000,0.000000
2.380000,-1.700000,0.130000,0.040000,-0.004725,0.084805,-0.087897,0.062107,0.000000,-0.000000,0.000000
2.380000,-1.660000,0.120416,0.040000,-0.005338,0.072179,-0.076119,0.039609,0.000000,-0.000000,0.000000
2.340000,-1.660000,0.160312,0.040000,-0.005375,0.053594,-0.057701,0.050272,0.000000,-0.000000,0.000000
2.420000,-1.700000,0.094340,0.040000,-0.004743,0.089968,-0.066649,0.037525,0.000000,-0.000000,0.000000
2.460000,-1.700000,0.064031,0.040000,-0.004935,0.070764,0.020093,-0.005897,0.000000,-0.000000,-0.000000
2.460000,-1.660000,0.041231,0.040000,-0.005676,0.117192,0.007596,0.050624,0.000000,-0.000000,0.000000
2.420000,-1.660000,0.080623,0.040000,-0.005425,0.086802,-0.058425,0.037464,0.000000,-0.000000,0.000000
2.500000,-1.700000,0.050000,0.040000,-0.004467,-0.184357,0.197819,-0.034861,-0.000000,0.000000,-0.000000
2.500000,-1.660000,0.010000,0.040000,-0.006190,0.219534,-0.116964,0.071544,0.000000,-0.000000,0.000000
-2.500000,-1.620000,0.030000,0.040000,-0.011323,-1.471916,3.548187,0.459873,-0.000000,0.000000,0.000000
-2.500000,-1.580000,0.030000,0.040000,-0.019704,1.285684,0.558201,0.160728,0.000000,0.000000,0.000000
-2.460000,-1.620000,0.050000,0.040000,-0.018465,0.085628,1.426184,0.261770,-0.000000,0.000000,0.000000
-2.420000,-1.620000,0.085440,0.040000,-0.018052,-0.050198,0.398697,0.040289,-0.000000,0.000000,0.000000
-2.420000,-1.580000,0.085440,0.040000,-0.018483,-0.008975,0.507736,0.030310,-0.000000,0.000000,0.000000
-2.460000,-1.580000,0.050000,0.040000,-0.018939,0.179575,1.639619,0.092759,-0.000000,0.000000,0.000000
-2.380000,-1.620000,0.123693,0.040000,-0.017731,0.049248,-0.035661,-0.025492,0.000000,-0.000000,-0.000000
-2.340000,-1.620000,0.162788,0.040000,-0.017507,0.046902,-0.050486,-0.035066,0.000000,-0.000000,-0.000000
-2.340000,-1.580000,0.162788,0.040000,-0.017870,0.040566,-0.043829,-0.024553,0.000000,-0.000000,-0.000000
-2.380000,-1.580000,0.123693,0.040000,-0.018135,0.048671,-0.050646,-0.016660,0.000000,-0.000000,-0.000000
-2.300000,-1.620000,0.202237,0.040000,-0.017364,0.034499,-0.038084,-0.039965,0.000000,-0.000000,-0.000000
-2.260000,-1.620000,0.241868,0.040000,-0.017283,0.023159,-0.026837,-0.041111,0.000000,-0.000000,-0.000000
-2.260000,-1.580000,0.241868,0.040000,-0.017537,0.023025,-0.026416,-0.031688,0.000000,-0.000000,-0.000000
-2.300000,-1.580000,0.202237,0.040000,-0.017676,0.031619,-0.034893,-0.029489,0.000000,-0.000000,-0.000000
-2.220000,-1.620000,0.281603,0.040000,-0.017244,0.013594,-0.015970,-0.040380,0.000000,-0.000000,-0.000000
-2.180000,-1.620000,0.321403,0.040000,-0.017233,0.007099,-0.010358,-0.037143,0.000000,-0.000000,-0.000000
-2.180000,-1.580000,0.321403,0.040000,-0.017374,0.008983,-0.012496,-0.029355,0.000000,-0.000000,-0.000000
-2.220000,-1.580000,0.281603,0.040000,-0.017441,0.015046,-0.017118,-0.031182,0.000000,-0.000000,-0.000000
2.180000,-1.620000,0.321403,0.040000,-0.006338,0.007097,-0.010357,0.037114,0.000000,-0.000000,0.000000
2.220000,-1.620000,0.281603,0.040000,-0.006149,0.013588,-0.015965,0.040347,0.000000,-0.000000,0.000000
2.220000,-1.580000,0.281603,0.040000,-0.006346,0.015038,-0.017111,0.031156,0.000000,-0.000000,0.000000
2.180000,-1.580000,0.321403,0.040000,-0.006479,0.008979,-0.012492,0.029332,0.000000,-0.000000,0.000000
2.260000,-1.620000,0.241868,0.040000,-0.005988,0.023145,-0.026823,0.041076,0.000000,-0.000000,0.000000
2.300000,-1.620000,0.202237,0.040000,-0.005870,0.034476,-0.038061,0.039928,0.000000,-0.000000,0.000000
2.300000,-1.580000,0.202237,0.040000,-0.006181,0.031596,-0.034870,0.029463,0.000000,-0.000000,0.000000
2.260000,-1.580000,0.241868,0.040000,-0.006242,0.023010,-0.026400,0.031661,0.000000,-0.000000,0.000000
2.340000,-1.620000,0.162788,0.040000,-0.005813,0.046867,-0.050450,0.035031,0.000000,-0.000000,0.000000
2.380000,-1.620000,0.123693,0.040000,-0.005836,0.058183,-0.061374,0.025465,0.000000,-0.000000,0.000000
2.380000,-1.580000,0.123693,0.040000,-0.006240,0.049122,-0.052591,0.016739,0.000000,-0.000000,0.000000
2.340000,-1.580000,0.162788,0.040000,-0.006176,0.040535,-0.043798,0.024529,0.000000,-0.000000,0.000000
2.420000,-1.620000,0.085440,0.040000,-0.005958,0.065609,-0.064488,0.019117,0.000000,-0.000000,0.000000
2.460000,-1.620000,0.050000,0.040000,-0.006170,0.077682,-0.060115,0.032150,0.000000,-0.000000,0.000000
2.460000,-1.580000,0.050000,0.040000,-0.006644,0.032199,-0.079438,0.048382,0.000000,-0.000000,0.000000
2.420000,-1.580000,0.085440,0.040000,-0.006388,0.053979,-0.064415,0.018963,0.000000,-0.000000,0.000000
2.500000,-1.620000,0.030000,0.040000,-0.006245,0.020822,0.072898,0.053128,-0.000000,0.000000,0.000000
2.500000,-1.580000,0.030000,0.040000,-0.007209,0.047557,-0.215533,0.084145,0.000000,-0.000000,0.000000
-2.500000,-1.540000,0.010000,0.040000,-0.010419,-2.228385,4.086975,-0.423313,-0.000000,0.000000,-0.000000
-2.500000,-1.500000,0.050000,0.040000,-0.020273,1.643443,0.807769,-0.303864,0.000000,0.000000,-0.000000
-2.460000,-1.540000,0.041231,0.040000,-0.019250,-0.090263,1.704482,-0.253256,-0.000000,0.000000,-0.000000
-2.420000,-1.540000,0.080623,0.040000,-0.018821,-0.115372,0.502796,-0.054301,-0.000000,0.000000,-0.000000
-2.420000,-1.500000,0.094340,0.040000,-0.019088,0.039022,0.299840,-0.139415,-0.000000,0.000000,-0.000000
-2.460000,-1.500000,0.064031,0.040000,-0.019514,0.427591,1.005195,-0.171792,-0.000000,0.000000,-0.000000
-2.380000,-1.540000,0.120416,0.040000,-0.018460,0.029035,-0.010808,-0.010158,0.000000,-0.000000,-0.000000
-2.340000,-1.540000,0.160312,0.040000,-0.018168,0.034746,-0.037674,-0.017139,0.000000,-0.000000,-0.000000
-2.340000,-1.500000,0.167631,0.040000,-0.018411,0.029702,-0.032405,-0.011972,0.000000,-0.000000,-0.000000
-2.380000,-1.500000,0.130000,0.040000,-0.018721,0.033476,-0.035866,-0.007017,0.000000,-0.000000,-0.000000
-2.300000,-1.540000,0.200250,0.040000,-0.017937,0.028331,-0.031343,-0.021767,0.000000,-0.000000,-0.000000
-2.260000,-1.540000,0.240208,0.040000,-0.017755,0.021848,-0.024993,-0.024369,0.000000,-0.000000,-0.000000
-2.260000,-1.500000,0.245153,0.040000,-0.017939,0.020175,-0.023114,-0.018721,0.000000,-0.000000,-0.000000
-2.300000,-1.500000,0.206155,0.040000,-0.018153,0.025066,-0.027868,-0.016071,0.000000,-0.000000,-0.000000
-2.220000,-1.540000,0.280179,0.040000,-0.017614,0.015665,-0.017871,-0.025740,0.000000,-0.000000,-0.000000
-2.180000,-1.540000,0.320156,0.040000,-0.017502,0.011008,-0.014131,-0.025566,0.000000,-0.000000,-0.000000
-2.180000,-1.500000,0.323883,0.040000,-0.017614,0.011231,-0.014314,-0.019748,0.000000,-0.000000,-0.000000
-2.220000,-1.500000,0.284429,0.040000,-0.017762,0.015290,-0.017436,-0.019609,0.000000,-0.000000,-0.000000
2.180000,-1.540000,0.320156,0.040000,-0.006607,0.011001,-0.014125,0.025546,0.000000,-0.000000,0.000000
2.220000,-1.540000,0.280179,0.040000,-0.006518,0.015655,-0.017862,0.025719,0.000000,-0.000000,0.000000
2.220000,-1.500000,0.284429,0.040000,-0.006666,0.015280,-0.017427,0.019593,0.000000,-0.000000,0.000000
2.180000,-1.500000,0.323883,0.040000,-0.006718,0.011224,-0.014307,0.019733,0.000000,-0.000000,0.000000
2.260000,-1.540000,0.240208,0.040000,-0.006460,0.021833,-0.024978,0.024348,0.000000,-0.000000,0.000000
2.300000,-1.540000,0.200250,0.040000,-0.006442,0.028310,-0.031322,0.021747,0.000000,-0.000000,0.000000
2.300000,-1.500000,0.206155,0.040000,-0.006657,0.025048,-0.027849,0.016056,0.000000,-0.000000,0.000000
2.260000,-1.500000,0.245153,0.040000,-0.006643,0.020161,-0.023100,0.018705,0.000000,-0.000000,0.000000
2.340000,-1.540000,0.160312,0.040000,-0.006473,0.034720,-0.037647,0.017122,0.000000,-0.000000,0.000000
2.380000,-1.540000,0.120416,0.040000,-0.006565,0.040288,-0.043173,0.010200,0.000000,-0.000000,0.000000
2.380000,-1.500000,0.130000,0.040000,-0.006826,0.034968,-0.040516,0.006527,0.000000,-0.000000,0.000000
2.340000,-1.500000,0.167631,0.040000,-0.006715,0.029679,-0.032382,0.011960,0.000000,-0.000000,0.000000
2.420000,-1.540000,0.080623,0.040000,-0.006725,0.050185,-0.095220,0.027736,0.000000,-0.000000,0.000000
2.460000,-1.540000,0.041231,0.040000,-0.006955,0.039168,-0.194726,0.066185,0.000000,-0.000000,0.000000
2.460000,-1.500000,0.064031,0.040000,-0.007218,0.081915,-0.277680,-0.011807,0.000000,-0.000000,-0.000000
2.420000,-1.500000,0.094340,0.040000,-0.006993,0.060986,-0.113453,-0.000443,0.000000,-0.000000,-0.000000
2.500000,-1.540000,0.010000,0.040000,-0.007215,-0.057282,-0.079050,0.114241,-0.000000,-0.000000,0.000000
2.500000,-1.500000,0.050000,0.040000,-0.008806,0.430320,-0.561776,-0.018857,0.000000,-0.000000,-0.000000
-2.500000,-1.460000,0.010000,0.040000,-0.020249,1.571778,0.898532,0.551131,0.000000,0.000000,0.000000
-2.500000,-1.420000,0.030000,0.040000,-0.009775,-2.284918,4.804478,0.681824,-0.000000,0.000000,0.000000
-2.460000,-1.460000,0.041231,0.040000,-0.019730,0.393082,1.142953,0.310337,-0.000000,0.000000,0.000000
-2.420000,-1.460000,0.080623,0.040000,-0.019300,0.022287,0.348760,0.182818,-0.000000,0.000000,0.000000
-2.420000,-1.420000,0.085440,0.040000,-0.019460,-0.150212,0.616629,0.078505,-0.000000,0.000000,0.000000
-2.460000,-1.420000,0.050000,0.040000,-0.019865,-0.057615,2.026359,0.384141,-0.000000,0.000000,0.000000
-2.380000,-1.460000,0.120416,0.040000,-0.018928,0.028080,-0.029492,-0.003042,0.000000,-0.000000,-0.000000
-2.340000,-1.460000,0.160312,0.040000,-0.018606,0.025453,-0.027980,-0.008253,0.000000,-0.000000,-0.000000
-2.340000,-1.420000,0.162788,0.040000,-0.018760,0.021757,-0.024122,-0.005584,0.000000,-0.000000,-0.000000
-2.380000,-1.420000,0.123693,0.040000,-0.019089,0.010747,0.010782,-0.001749,0.000000,0.000000,-0.000000
-2.300000,-1.460000,0.200250,0.040000,-0.018328,0.022029,-0.024661,-0.011843,0.000000,-0.000000,-0.000000
-2.260000,-1.460000,0.240208,0.040000,-0.018090,0.018321,-0.021092,-0.014368,0.000000,-0.000000,-0.000000
-2.260000,-1.420000,0.241868,0.040000,-0.018212,0.016462,-0.019093,-0.011010,0.000000,-0.000000,-0.000000
-2.300000,-1.420000,0.202237,0.040000,-0.018468,0.019277,-0.021771,-0.008688,0.000000,-0.000000,-0.000000
-2.220000,-1.460000,0.280179,0.040000,-0.017885,0.014449,-0.016602,-0.016166,0.000000,-0.000000,-0.000000
-2.180000,-1.460000,0.320156,0.040000,-0.017708,0.011305,-0.014237,-0.017122,0.000000,-0.000000,-0.000000
-2.180000,-1.420000,0.321403,0.040000,-0.017785,0.010884,-0.013666,-0.013073,0.000000,-0.000000,-0.000000
-2.220000,-1.420000,0.281603,0.040000,-0.017985,0.013508,-0.015692,-0.012229,0.000000,-0.000000,-0.000000
2.180000,-1.460000,0.320156,0.040000,-0.006812,0.011297,-0.014229,0.017108,0.000000,-0.000000,0.000000
2.220000,-1.460000,0.280179,0.040000,-0.006789,0.014439,-0.016592,0.016153,0.000000,-0.000000,0.000000
2.220000,-1.420000,0.281603,0.040000,-0.006889,0.013498,-0.015683,0.012219,0.000000,-0.000000,0.000000
2.180000,-1.420000,0.321403,0.040000,-0.006889,0.010877,-0.013659,0.013062,0.000000,-0.000000,0.000000
2.260000,-1.460000,0.240208,0.040000,-0.006794,0.018308,-0.021078,0.014355,0.000000,-0.000000,0.000000
2.300000,-1.460000,0.200250,0.040000,-0.006832,0.022012,-0.024644,0.011831,0.000000,-0.000000,0.000000
2.300000,-1.420000,0.202237,0.040000,-0.006972,0.019263,-0.021756,0.008680,0.000000,-0.000000,0.000000
2.260000,-1.420000,0.241868,0.040000,-0.006915,0.016450,-0.019081,0.011000,0.000000,-0.000000,0.000000
2.340000,-1.460000,0.160312,0.040000,-0.006910,0.025433,-0.027961,0.008245,0.000000,-0.000000,0.000000
2.380000,-1.460000,0.120416,0.040000,-0.007032,0.028395,-0.030832,0.003525,0.000000,-0.000000,0.000000
2.380000,-1.420000,0.123693,0.040000,-0.007193,0.023373,-0.025461,0.001745,0.000000,-0.000000,0.000000
2.340000,-1.420000,0.162788,0.040000,-0.007064,0.021740,-0.024106,0.005578,0.000000,-0.000000,0.000000
2.420000,-1.460000,0.080623,0.040000,-0.007204,0.036160,-0.075069,-0.032564,0.000000,-0.000000,-0.000000
2.460000,-1.460000,0.041231,0.040000,-0.007434,0.026681,-0.158598,-0.081499,0.000000,-0.000000,-0.000000
2.460000,-1.420000,0.050000,0.040000,-0.007568,-0.023610,-0.044053,-0.047366,-0.000000,-0.000000,-0.000000
2.420000,-1.420000,0.085440,0.040000,-0.007364,0.018053,-0.029912,-0.010506,0.000000,-0.000000,-0.000000
2.500000,-1.460000,0.010000,0.040000,-0.007753,-0.037755,-0.107468,-0.139927,0.000000,-0.000000,-0.000000
2.500000,-1.420000,0.030000,0.040000,-0.007717,-0.126521,-0.051667,-0.081434,-0.000000,0.000000,-0.000000
-2.500000,-1.380000,0.030000,0.040000,-0.020528,2.467119,1.449523,0.736021,0.000000,0.000000,0.000000
-2.500000,-1.340000,0.010000,0.040000,-0.009323,-1.781854,5.499885,0.537364,-0.000000,0.000000,0.000000
-2.460000,-1.380000,0.050000,0.040000,-0.019997,0.522575,2.339686,0.417769,-0.000000,0.000000,0.000000
-2.420000,-1.380000,0.085440,0.040000,-0.019584,-0.025155,0.751956,0.093057,-0.000000,0.000000,0.000000
-2.420000,-1.340000,0.080623,0.040000,-0.019672,-0.215672,1.043974,0.189235,-0.000000,0.000000,0.000000
-2.460000,-1.340000,0.041231,0.040000,-0.020068,-0.020526,3.300992,0.303446,-0.000000,0.000000,0.000000
-2.380000,-1.380000,0.123693,0.040000,-0.019213,0.019625,-0.019937,-0.000571,0.000000,-0.000000,-0.000000
-2.340000,-1.380000,0.162788,0.040000,-0.018878,0.018709,-0.020983,-0.003669,0.000000,-0.000000,-0.000000
-2.340000,-1.340000,0.160312,0.040000,-0.018967,0.016080,-0.018252,-0.002242,0.000000,-0.000000,-0.000000
-2.380000,-1.340000,0.120416,0.040000,-0.019304,0.003197,0.021025,0.001102,-0.000000,0.000000,0.000000
-2.300000,-1.380000,0.202237,0.040000,-0.018577,0.016842,-0.019228,-0.006323,0.000000,-0.000000,-0.000000
-2.260000,-1.380000,0.241868,0.040000,-0.018307,0.014690,-0.017208,-0.008413,0.000000,-0.000000,-0.000000
-2.260000,-1.340000,0.240208,0.040000,-0.018379,0.013049,-0.015475,-0.006398,0.000000,-0.000000,-0.000000
-2.300000,-1.340000,0.200250,0.040000,-0.018660,0.014700,-0.016996,-0.004537,0.000000,-0.000000,-0.000000
-2.220000,-1.380000,0.281603,0.040000,-0.018064,0.012269,-0.014402,-0.010079,0.000000,-0.000000,-0.000000
-2.180000,-1.380000,0.321403,0.040000,-0.017845,0.010185,-0.012935,-0.011318,0.000000,-0.000000,-0.000000
-2.180000,-1.340000,0.320156,0.040000,-0.017889,0.009576,-0.012154,-0.008575,0.000000,-0.000000,-0.000000
-2.220000,-1.340000,0.280179,0.040000,-0.018123,0.011256,-0.013450,-0.007570,0.000000,-0.000000,-0.000000
2.180000,-1.380000,0.321403,0.040000,-0.006948,0.010178,-0.012927,0.011309,0.000000,-0.000000,0.000000
2.220000,-1.380000,0.281603,0.040000,-0.006968,0.012260,-0.014394,0.010071,0.000000,-0.000000,0.000000
2.220000,-1.340000,0.280179,0.040000,-0.007026,0.011247,-0.013442,0.007563,0.000000,-0.000000,0.000000
2.180000,-1.340000,0.320156,0.040000,-0.006992,0.009568,-0.012147,0.008568,0.000000,-0.000000,0.000000
2.260000,-1.380000,0.241868,0.040000,-0.007011,0.014679,-0.017197,0.008405,0.000000,-0.000000,0.000000
2.300000,-1.380000,0.202237,0.040000,-0.007081,0.016830,-0.019215,0.006317,0.000000,-0.000000,0.000000
2.300000,-1.340000,0.200250,0.040000,-0.007163,0.014688,-0.016985,0.004532,0.000000,-0.000000,0.000000
2.260000,-1.340000,0.240208,0.040000,-0.007082,0.013039,-0.015465,0.006392,0.000000,-0.000000,0.000000
2.340000,-1.380000,0.162788,0.040000,-0.007182,0.018695,-0.020969,0.003664,0.000000,-0.000000,0.000000
2.380000,-1.380000,0.123693,0.040000,-0.007317,0.020244,-0.022486,0.000606,0.000000,-0.000000,0.000000
2.380000,-1.340000,0.120416,0.040000,-0.007408,0.017022,-0.019031,-0.000524,0.000000,-0.000000,-0.000000
2.340000,-1.340000,0.160312,0.040000,-0.007271,0.016067,-0.018239,0.002239,0.000000,-0.000000,0.000000
2.420000,-1.380000,0.085440,0.040000,-0.007487,0.022671,-0.023166,-0.001986,0.000000,-0.000000,-0.000000
2.460000,-1.380000,0.050000,0.040000,-0.007700,0.030030,-0.021550,-0.006211,0.000000,-0.000000,-0.000000
2.460000,-1.340000,0.041231,0.040000,-0.007771,0.019112,-0.012892,-0.013233,0.000000,-0.000000,-0.000000
2.420000,-1.340000,0.080623,0.040000,-0.007575,0.017352,-0.017063,-0.007280,0.000000,-0.000000,-0.000000
2.500000,-1.380000,0.030000,0.040000,-0.008031,0.058852,-0.055723,-0.011461,0.000000,-0.000000,-0.000000
2.500000,-1.340000,0.010000,0.040000,-0.007980,0.019775,-0.004484,-0.020160,0.000000,-0.000000,-0.000000
-2.500000,-1.300000,0.050000,0.040000,-0.009267,-1.739943,5.588218,-0.436566,-0.000000,0.000000,-0.000000
-2.500000,-1.260000,0.010000,0.040000,-0.020580,2.571907,1.573339,-0.588548,0.000000,0.000000,-0.000000
-2.460000,-1.300000,0.064031,0.040000,-0.020122,0.003286,3.333962,-0.244318,-0.000000,0.000000,-0.000000
-2.420000,-1.300000,0.094340,0.040000,-0.019732,-0.217107,1.055276,-0.170790,-0.000000,0.000000,-0.000000
-2.420000,-1.260000,0.080623,0.040000,-0.019770,-0.039777,0.804318,-0.063678,-0.000000,0.000000,-0.000000
-2.460000,-1.260000,0.041231,0.040000,-0.020156,0.517332,2.478662,-0.346102,-0.000000,0.000000,-0.000000
-2.380000,-1.300000,0.130000,0.040000,-0.019368,0.000503,0.024002,0.000373,-0.000000,0.000000,0.000000
-2.340000,-1.300000,0.167631,0.040000,-0.019031,0.013849,-0.015957,-0.001225,0.000000,-0.000000,-0.000000
-2.340000,-1.260000,0.160312,0.040000,-0.019071,0.011974,-0.014030,-0.000465,0.000000,-0.000000,-0.000000
-2.380000,-1.260000,0.120416,0.040000,-0.019409,0.011883,-0.011737,0.001453,0.000000,-0.000000,0.000000
-2.300000,-1.300000,0.206155,0.040000,-0.018718,0.012825,-0.015051,-0.003185,0.000000,-0.000000,-0.000000
-2.260000,-1.300000,0.245153,0.040000,-0.018430,0.011555,-0.013906,-0.004830,0.000000,-0.000000,-0.000000
-2.260000,-1.260000,0.240208,0.040000,-0.018462,0.010209,-0.012499,-0.003605,0.000000,-0.000000,-0.000000
-2.300000,-1.260000,0.200250,0.040000,-0.018756,0.011191,-0.013362,-0.002155,0.000000,-0.000000,-0.000000
-2.220000,-1.300000,0.284429,0.040000,-0.018164,0.010028,-0.012151,-0.006223,0.000000,-0.000000,-0.000000
-2.180000,-1.300000,0.323883,0.040000,-0.017918,0.008648,-0.011249,-0.007416,0.000000,-0.000000,-0.000000
-2.180000,-1.260000,0.320156,0.040000,-0.017933,0.008035,-0.010477,-0.005574,0.000000,-0.000000,-0.000000
-2.220000,-1.260000,0.280179,0.040000,-0.018189,0.009112,-0.011301,-0.004618,0.000000,-0.000000,-0.000000
2.180000,-1.300000,0.323883,0.040000,-0.007021,0.008641,-0.011242,0.007410,0.000000,-0.000000,0.000000
2.220000,-1.300000,0.284429,0.040000,-0.007067,0.010020,-0.012144,0.006217,0.000000,-0.000000,0.000000
2.220000,-1.260000,0.280179,0.040000,-0.007092,0.009105,-0.011294,0.004614,0.000000,-0.000000,0.000000
2.180000,-1.260000,0.320156,0.040000,-0.007036,0.008028,-0.010471,0.005569,0.000000,-0.000000,0.000000
2.260000,-1.300000,0.245153,0.040000,-0.007133,0.011546,-0.013897,0.004825,0.000000,-0.000000,0.000000
2.300000,-1.300000,0.206155,0.040000,-0.007222,0.012815,-0.015041,0.003181,0.000000,-0.000000,0.000000
2.300000,-1.260000,0.200250,0.040000,-0.007259,0.011182,-0.013353,0.002153,0.000000,-0.000000,0.000000
2.260000,-1.260000,0.240208,0.040000,-0.007166,0.010201,-0.012491,0.003601,0.000000,-0.000000,0.000000
2.340000,-1.300000,0.167631,0.040000,-0.007334,0.013838,-0.015946,0.001223,0.000000,-0.000000,0.000000
2.380000,-1.300000,0.130000,0.040000,-0.007472,0.014329,-0.016058,-0.000953,0.000000,-0.000000,-0.000000
2.380000,-1.260000,0.120416,0.040000,-0.007512,0.012541,-0.014429,-0.001431,0.000000,-0.000000,-0.000000
2.340000,-1.260000,0.160312,0.040000,-0.007375,0.011965,-0.014020,0.000463,0.000000,-0.000000,0.000000
2.420000,-1.300000,0.094340,0.040000,-0.007636,0.011977,-0.009950,-0.003412,0.000000,-0.000000,-0.000000
2.460000,-1.300000,0.064031,0.040000,-0.007825,0.007595,0.003667,-0.007431,0.000000,0.000000,-0.000000
2.460000,-1.260000,0.041231,0.040000,-0.007859,0.015510,-0.000125,0.001201,0.000000,-0.000000,0.000000
2.420000,-1.260000,0.080623,0.040000,-0.007673,0.012651,-0.010077,-0.001320,0.000000,-0.000000,-0.000000
2.500000,-1.300000,0.050000,0.040000,-0.007924,-0.026998,0.028359,-0.009888,-0.000000,0.000000,-0.000000
2.500000,-1.260000,0.010000,0.040000,-0.008083,0.028701,-0.016299,0.004614,0.000000,-0.000000,0.000000
-2.500000,-1.220000,0.030000,0.040000,-0.008923,-1.676239,5.850025,0.010740,-0.000000,0.000000,0.000000
-2.500000,-1.180000,0.030000,0.040000,-0.020575,1.691553,1.021749,-0.001574,0.000000,0.000000,-0.000000
-2.460000,-1.220000,0.050000,0.040000,-0.020158,0.262930,2.423720,0.022338,-0.000000,0.000000,0.000000
-2.420000,-1.220000,0.085440,0.040000,-0.019786,-0.144206,0.740875,0.007010,-0.000000,0.000000,0.000000
-2.420000,-1.180000,0.085440,0.040000,-0.019785,-0.083715,0.786179,0.008095,-0.000000,0.000000,0.000000
-2.460000,-1.180000,0.050000,0.040000,-0.020157,0.173681,2.379713,0.015632,-0.000000,0.000000,0.000000
-2.380000,-1.220000,0.123693,0.040000,-0.019429,-0.003471,0.027864,0.001707,-0.000000,0.000000,0.000000
-2.340000,-1.220000,0.162788,0.040000,-0.019093,0.010332,-0.012338,0.000090,0.000000,-0.000000,0.000000
-2.340000,-1.180000,0.162788,0.040000,-0.019098,0.008951,-0.010932,0.000484,0.000000,-0.000000,0.000000
-2.380000,-1.180000,0.123693,0.040000,-0.019433,0.008560,-0.008361,0.001819,0.000000,-0.000000,0.000000
-2.300000,-1.220000,0.202237,0.040000,-0.018776,0.009761,-0.011887,-0.001371,0.000000,-0.000000,-0.000000
-2.260000,-1.220000,0.241868,0.040000,-0.018479,0.009003,-0.011244,-0.002647,0.000000,-0.000000,-0.000000
-2.260000,-1.180000,0.241868,0.040000,-0.018480,0.007926,-0.010128,-0.001895,0.000000,-0.000000,-0.000000
-2.300000,-1.180000,0.202237,0.040000,-0.018781,0.008515,-0.010605,-0.000773,0.000000,-0.000000,-0.000000
-2.220000,-1.220000,0.281603,0.040000,-0.018199,0.008029,-0.010147,-0.003767,0.000000,-0.000000,-0.000000
-2.180000,-1.220000,0.321403,0.040000,-0.017936,0.007110,-0.009598,-0.004809,0.000000,-0.000000,-0.000000
-2.180000,-1.180000,0.321403,0.040000,-0.017927,0.006560,-0.008912,-0.003572,0.000000,-0.000000,-0.000000
-2.220000,-1.180000,0.281603,0.040000,-0.018196,0.007254,-0.009433,-0.002735,0.000000,-0.000000,-0.000000
2.180000,-1.220000,0.321403,0.040000,-0.007039,0.007104,-0.009592,0.004804,0.000000,-0.000000,0.000000
2.220000,-1.220000,0.281603,0.040000,-0.007102,0.008023,-0.010141,0.003763,0.000000,-0.000000,0.000000
2.220000,-1.180000,0.281603,0.040000,-0.007099,0.007247,-0.009427,0.002732,0.000000,-0.000000,0.000000
2.180000,-1.180000,0.321403,0.040000,-0.007030,0.006555,-0.008907,0.003568,0.000000,-0.000000,0.000000
2.260000,-1.220000,0.241868,0.040000,-0.007182,0.008995,-0.011236,0.002644,0.000000,-0.000000,0.000000
2.300000,-1.220000,0.202237,0.040000,-0.007279,0.009753,-0.011879,0.001368,0.000000,-0.000000,0.000000
2.300000,-1.180000,0.202237,0.040000,-0.007284,0.008508,-0.010598,0.000771,0.000000,-0.000000,0.000000
2.260000,-1.180000,0.241868,0.040000,-0.007183,0.007920,-0.010121,0.001893,0.000000,-0.000000,0.000000
2.340000,-1.220000,0.162788,0.040000,-0.007396,0.010323,-0.012330,-0.000091,0.000000,-0.000000,-0.000000
2.380000,-1.220000,0.123693,0.040000,-0.007532,0.010563,-0.012396,-0.001708,0.000000,-0.000000,-0.000000
2.380000,-1.180000,0.123693,0.040000,-0.007536,0.009240,-0.011137,-0.001806,0.000000,-0.000000,-0.000000
2.340000,-1.180000,0.162788,0.040000,-0.007401,0.008944,-0.010925,-0.000485,0.000000,-0.000000,-0.000000
2.420000,-1.220000,0.085440,0.040000,-0.007689,0.010302,-0.011471,-0.002373,0.000000,-0.000000,-0.000000
2.460000,-1.220000,0.050000,0.040000,-0.007861,0.010958,-0.010165,-0.000238,0.000000,-0.000000,-0.000000
2.460000,-1.180000,0.050000,0.040000,-0.007860,0.011968,-0.010375,-0.004132,0.000000,-0.000000,-0.000000
2.420000,-1.180000,0.085440,0.040000,-0.007688,0.009797,-0.011062,-0.002808,0.000000,-0.000000,-0.000000
2.500000,-1.220000,0.030000,0.040000,-0.008018,0.003587,0.008814,0.002394,-0.000000,0.000000,0.000000
2.500000,-1.180000,0.030000,0.040000,-0.008077,0.024125,-0.020459,-0.004439,0.000000,-0.000000,-0.000000
-2.500000,-1.140000,0.010000,0.040000,-0.008661,-2.685131,5.352381,-0.650310,-0.000000,0.000000,-0.000000
-2.500000,-1.100000,0.050000,0.040000,-0.020496,1.869644,1.141055,-0.490235,0.000000,0.000000,-0.000000
-2.460000,-1.140000,0.041231,0.040000,-0.020133,-0.100414,2.303767,-0.381612,-0.000000,0.000000,-0.000000
-2.420000,-1.140000,0.080623,0.040000,-0.019770,-0.190402,0.714437,-0.074833,-0.000000,0.000000,-0.000000
-2.420000,-1.100000,0.094340,0.040000,-0.019742,0.000791,0.436373,-0.184244,-0.000000,0.000000,-0.000000
-2.460000,-1.100000,0.064031,0.040000,-0.020099,0.457720,1.364378,-0.274332,-0.000000,0.000000,-0.000000
-2.380000,-1.140000,0.120416,0.040000,-0.019422,-0.006439,0.031409,0.001994,-0.000000,0.000000,0.000000
-2.340000,-1.140000,0.160312,0.040000,-0.019089,0.007745,-0.009696,0.000781,0.000000,-0.000000,0.000000
-2.340000,-1.100000,0.167631,0.040000,-0.019067,0.006697,-0.008630,0.000981,0.000000,-0.000000,0.000000
-2.380000,-1.100000,0.130000,0.040000,-0.019398,0.006449,-0.007279,0.001366,0.000000,-0.000000,0.000000
-2.300000,-1.140000,0.200250,0.040000,-0.018772,0.007423,-0.009485,-0.000317,0.000000,-0.000000,-0.000000
-2.260000,-1.140000,0.240208,0.040000,-0.018470,0.006968,-0.009137,-0.001305,0.000000,-0.000000,-0.000000
-2.260000,-1.100000,0.245153,0.040000,-0.018447,0.006114,-0.008258,-0.000842,0.000000,-0.000000,-0.000000
-2.300000,-1.100000,0.206155,0.040000,-0.018750,0.006466,-0.008505,0.000029,0.000000,-0.000000,0.000000
-2.220000,-1.140000,0.280179,0.040000,-0.018182,0.006342,-0.008458,-0.002193,0.000000,-0.000000,-0.000000
-2.180000,-1.140000,0.320156,0.040000,-0.017908,0.005726,-0.008131,-0.003065,0.000000,-0.000000,-0.000000
-2.180000,-1.100000,0.323883,0.040000,-0.017880,0.005256,-0.007549,-0.002234,0.000000,-0.000000,-0.000000
-2.220000,-1.100000,0.284429,0.040000,-0.018158,0.005703,-0.007872,-0.001527,0.000000,-0.000000,-0.000000
2.180000,-1.140000,0.320156,0.040000,-0.007011,0.005721,-0.008126,0.003062,0.000000,-0.000000,0.000000
2.220000,-1.140000,0.280179,0.040000,-0.007085,0.006337,-0.008452,0.002191,0.000000,-0.000000,0.000000
2.220000,-1.100000,0.284429,0.040000,-0.007060,0.005698,-0.007867,0.001525,0.000000,-0.000000,0.000000
2.180000,-1.100000,0.323883,0.040000,-0.006983,0.005251,-0.007544,0.002231,0.000000,-0.000000,0.000000
2.260000,-1.140000,0.240208,0.040000,-0.007172,0.006962,-0.009131,0.001303,0.000000,-0.000000,0.000000
2.300000,-1.140000,0.200250,0.040000,-0.007274,0.007417,-0.009479,0.000315,0.000000,-0.000000,0.000000
2.300000,-1.100000,0.206155,0.040000,-0.007253,0.006460,-0.008499,-0.000030,0.000000,-0.000000,-0.000000
2.260000,-1.100000,0.245153,0.040000,-0.007150,0.006109,-0.008253,0.000840,0.000000,-0.000000,0.000000
2.340000,-1.140000,0.160312,0.040000,-0.007392,0.007739,-0.009689,-0.000782,0.000000,-0.000000,-0.000000
2.380000,-1.140000,0.120416,0.040000,-0.007524,0.007899,-0.009721,-0.001997,0.000000,-0.000000,-0.000000
2.380000,-1.100000,0.130000,0.040000,-0.007500,0.006717,-0.008468,-0.001980,0.000000,-0.000000,-0.000000
2.340000,-1.100000,0.167631,0.040000,-0.007370,0.006691,-0.008624,-0.000981,0.000000,-0.000000,-0.000000
2.420000,-1.140000,0.080623,0.040000,-0.007673,0.007920,-0.009037,-0.004395,0.000000,-0.000000,-0.000000
2.460000,-1.140000,0.041231,0.040000,-0.007836,0.008535,-0.007834,-0.006354,0.000000,-0.000000,-0.000000
2.460000,-1.100000,0.064031,0.040000,-0.007801,0.004007,-0.002575,-0.004463,0.000000,-0.000000,-0.000000
2.420000,-1.100000,0.094340,0.040000,-0.007644,0.005812,-0.006497,-0.003050,0.000000,-0.000000,-0.000000
2.500000,-1.140000,0.010000,0.040000,-0.008008,0.008697,-0.004837,-0.008520,0.000000,-0.000000,-0.000000
2.500000,-1.100000,0.050000,0.040000,-0.007937,-0.006656,0.004544,-0.005318,-0.000000,0.000000,-0.000000
-2.500000,-1.060000,0.010000,0.040000,-0.020424,1.863791,1.151040,0.522666,0.000000,0.000000,0.000000
-2.500000,-1.020000,0.030000,0.040000,-0.008385,-2.665027,5.442779,0.696982,-0.000000,0.000000,0.000000
-2.460000,-1.060000,0.041231,0.040000,-0.020056,0.454736,1.379055,0.295045,-0.000000,0.000000,0.000000
-2.420000,-1.060000,0.080623,0.040000,-0.019703,-0.001068,0.441703,0.194452,-0.000000,0.000000,0.000000
-2.420000,-1.020000,0.085440,0.040000,-0.019655,-0.194966,0.727481,0.083579,-0.000000,0.000000,0.000000
-2.460000,-1.020000,0.050000,0.040000,-0.020001,-0.096893,2.338962,0.402735,-0.000000,0.000000,0.000000
-2.380000,-1.060000,0.120416,0.040000,-0.019363,0.005530,-0.006259,0.002615,0.000000,-0.000000,0.000000
-2.340000,-1.060000,0.160312,0.040000,-0.019035,0.005799,-0.007717,0.001121,0.000000,-0.000000,0.000000
-2.340000,-1.020000,0.162788,0.040000,-0.018993,0.005001,-0.006907,0.001214,0.000000,-0.000000,0.000000
-2.380000,-1.020000,0.123693,0.040000,-0.019318,-0.009495,0.034777,0.001993,-0.000000,0.000000,0.000000
-2.300000,-1.060000,0.200250,0.040000,-0.018719,0.005625,-0.007648,0.000289,0.000000,-0.000000,0.000000
-2.260000,-1.060000,0.240208,0.040000,-0.018416,0.005355,-0.007478,-0.000479,0.000000,-0.000000,-0.000000
-2.260000,-1.020000,0.241868,0.040000,-0.018375,0.004678,-0.006786,-0.000196,0.000000,-0.000000,-0.000000
-2.300000,-1.020000,0.202237,0.040000,-0.018679,0.004884,-0.006893,0.000483,0.000000,-0.000000,0.000000
-2.220000,-1.060000,0.280179,0.040000,-0.018124,0.004952,-0.007067,-0.001181,0.000000,-0.000000,-0.000000
-2.180000,-1.060000,0.320156,0.040000,-0.017844,0.004536,-0.006882,-0.001897,0.000000,-0.000000,-0.000000
-2.180000,-1.020000,0.321403,0.040000,-0.017800,0.004143,-0.006399,-0.001338,0.000000,-0.000000,-0.000000
-2.220000,-1.020000,0.281603,0.040000,-0.018083,0.004430,-0.006592,-0.000751,0.000000,-0.000000,-0.000000
2.180000,-1.060000,0.320156,0.040000,-0.006947,0.004531,-0.006877,0.001895,0.000000,-0.000000,0.000000
2.220000,-1.060000,0.280179,0.040000,-0.007027,0.004947,-0.007062,0.001179,0.000000,-0.000000,0.000000
2.220000,-1.020000,0.281603,0.040000,-0.006985,0.004426,-0.006588,0.000750,0.000000,-0.000000,0.000000
2.180000,-1.020000,0.321403,0.040000,-0.006903,0.004138,-0.006394,0.001336,0.000000,-0.000000,0.000000
2.260000,-1.060000,0.240208,0.040000,-0.007118,0.005350,-0.007473,0.000478,0.000000,-0.000000,0.000000
2.300000,-1.060000,0.200250,0.040000,-0.007222,0.005620,-0.007642,-0.000290,0.000000,-0.000000,-0.000000
2.300000,-1.020000,0.202237,0.040000,-0.007181,0.004879,-0.006888,-0.000484,0.000000,-0.000000,-0.000000
2.260000,-1.020000,0.241868,0.040000,-0.007078,0.004673,-0.006781,0.000195,0.000000,-0.000000,0.000000
2.340000,-1.060000,0.160312,0.040000,-0.007337,0.005793,-0.007711,-0.001121,0.000000,-0.000000,-0.000000
2.380000,-1.060000,0.120416,0.040000,-0.007465,0.005874,-0.007668,-0.001991,0.000000,-0.000000,-0.000000
2.380000,-1.020000,0.123693,0.040000,-0.007421,0.004996,-0.006787,-0.001993,0.000000,-0.000000,-0.000000
2.340000,-1.020000,0.162788,0.040000,-0.007295,0.004996,-0.006902,-0.001215,0.000000,-0.000000,-0.000000
2.420000,-1.060000,0.080623,0.040000,-0.007606,0.005842,-0.006329,-0.002195,0.000000,-0.000000,-0.000000
2.460000,-1.060000,0.041231,0.040000,-0.007759,0.006712,-0.003499,-0.001696,0.000000,-0.000000,-0.000000
2.460000,-1.020000,0.050000,0.040000,-0.007703,0.005197,-0.005857,-0.002319,0.000000,-0.000000,-0.000000
2.420000,-1.020000,0.085440,0.040000,-0.007557,0.004887,-0.006370,-0.002604,0.000000,-0.000000,-0.000000
2.500000,-1.060000,0.010000,0.040000,-0.007927,0.010300,-0.007494,-0.000802,0.000000,-0.000000,-0.000000
2.500000,-1.020000,0.030000,0.040000,-0.007854,0.004547,-0.002270,-0.001810,0.000000,-0.000000,-0.000000
-2.500000,-0.980000,0.030000,0.040000,-0.020294,2.147101,1.332861,0.358456,0.000000,0.000000,0.000000
-2.500000,-0.940000,0.010000,0.040000,-0.008224,-2.289155,5.692407,-0.079319,-0.000000,0.000000,-0.000000
-2.460000,-0.980000,0.050000,0.040000,-0.019941,0.354054,2.524249,0.203685,-0.000000,0.000000,0.000000
-2.420000,-0.980000,0.085440,0.040000,-0.019599,-0.070747,0.831243,0.043346,-0.000000,0.000000,0.000000
-2.420000,-0.940000,0.080623,0.040000,-0.019536,-0.220482,0.934153,0.057506,-0.000000,0.000000,0.000000
-2.460000,-0.940000,0.041231,0.040000,-0.019874,-0.057550,2.956740,-0.052259,-0.000000,0.000000,-0.000000
-2.380000,-0.980000,0.123693,0.040000,-0.019266,0.003595,-0.003249,0.001916,0.000000,-0.000000,0.000000
-2.340000,-0.980000,0.162788,0.040000,-0.018943,0.004308,-0.006207,0.001264,0.000000,-0.000000,0.000000
-2.340000,-0.940000,0.160312,0.040000,-0.018886,0.003702,-0.005595,0.001291,0.000000,-0.000000,0.000000
-2.380000,-0.940000,0.120416,0.040000,-0.019207,-0.011013,0.036904,0.002191,-0.000000,0.000000,0.000000
-2.300000,-0.980000,0.202237,0.040000,-0.018630,0.004230,-0.006228,0.000625,0.000000,-0.000000,0.000000
-2.260000,-0.980000,0.241868,0.040000,-0.018327,0.004075,-0.006170,0.000024,0.000000,-0.000000,0.000000
-2.260000,-0.940000,0.240208,0.040000,-0.018273,0.003536,-0.005621,0.000193,0.000000,-0.000000,0.000000
-2.300000,-0.940000,0.200250,0.040000,-0.018575,0.003651,-0.005642,0.000726,0.000000,-0.000000,0.000000
-2.220000,-0.980000,0.281603,0.040000,-0.018034,0.003817,-0.005934,-0.000532,0.000000,-0.000000,-0.000000
-2.180000,-0.980000,0.321403,0.040000,-0.017750,0.003535,-0.005840,-0.001115,0.000000,-0.000000,-0.000000
-2.180000,-0.940000,0.320156,0.040000,-0.017695,0.003210,-0.005442,-0.000740,0.000000,-0.000000,-0.000000
-2.220000,-0.940000,0.280179,0.040000,-0.017979,0.003393,-0.005550,-0.000257,0.000000,-0.000000,-0.000000
2.180000,-0.980000,0.321403,0.040000,-0.006853,0.003531,-0.005836,0.001113,0.000000,-0.000000,0.000000
2.220000,-0.980000,0.281603,0.040000,-0.006936,0.003813,-0.005930,0.000530,0.000000,-0.000000,0.000000
2.220000,-0.940000,0.280179,0.040000,-0.006882,0.003389,-0.005546,0.000256,0.000000,-0.000000,0.000000
2.180000,-0.940000,0.320156,0.040000,-0.006797,0.003206,-0.005439,0.000739,0.000000,-0.000000,0.000000
2.260000,-0.980000,0.241868,0.040000,-0.007030,0.004070,-0.006165,-0.000025,0.000000,-0.000000,-0.000000
2.300000,-0.980000,0.202237,0.040000,-0.007133,0.004225,-0.006224,-0.000626,0.000000,-0.000000,-0.000000
2.300000,-0.940000,0.200250,0.040000,-0.007077,0.003647,-0.005638,-0.000727,0.000000,-0.000000,-0.000000
2.260000,-0.940000,0.240208,0.040000,-0.006975,0.003532,-0.005618,-0.000193,0.000000,-0.000000,-0.000000
2.340000,-0.980000,0.162788,0.040000,-0.007246,0.004304,-0.006203,-0.001264,0.000000,-0.000000,-0.000000
2.380000,-0.980000,0.123693,0.040000,-0.007368,0.004294,-0.006091,-0.001914,0.000000,-0.000000,-0.000000
2.380000,-0.940000,0.120416,0.040000,-0.007309,0.003691,-0.005476,-0.001879,0.000000,-0.000000,-0.000000
2.340000,-0.940000,0.160312,0.040000,-0.007189,0.003698,-0.005591,-0.001291,0.000000,-0.000000,-0.000000
2.420000,-0.980000,0.085440,0.040000,-0.007501,0.004153,-0.005871,-0.002390,0.000000,-0.000000,-0.000000
2.460000,-0.980000,0.050000,0.040000,-0.007643,0.003758,-0.005728,-0.002564,0.000000,-0.000000,-0.000000
2.460000,-0.940000,0.041231,0.040000,-0.007576,0.003936,-0.006018,-0.002453,0.000000,-0.000000,-0.000000
2.420000,-0.940000,0.080623,0.040000,-0.007438,0.003745,-0.005629,-0.002322,0.000000,-0.000000,-0.000000
2.500000,-0.980000,0.030000,0.040000,-0.007796,0.003926,-0.006735,-0.002403,0.000000,-0.000000,-0.000000
2.500000,-0.940000,0.010000,0.040000,-0.007723,0.003915,-0.005664,-0.002350,0.000000,-0.000000,-0.000000
-2.500000,-0.900000,0.050000,0.040000,-0.014149,-0.001808,3.554317,-0.509173,-0.000000,0.000000,-0.000000
-2.500000,-0.860000,0.010000,0.040000,-0.020057,2.283739,1.423319,-0.084087,0.000000,0.000000,-0.000000
-2.460000,-0.900000,0.064031,0.040000,-0.019800,0.218530,2.477887,-0.285129,-0.000000,0.000000,-0.000000
-2.420000,-0.900000,0.094340,0.040000,-0.019467,-0.124469,0.792553,-0.188427,-0.000000,0.000000,-0.000000
-2.420000,-0.860000,0.080623,0.040000,-0.019394,-0.027869,0.649826,0.056322,-0.000000,0.000000,0.000000
-2.460000,-0.860000,0.041231,0.040000,-0.019723,0.497118,1.996698,-0.055039,-0.000000,0.000000,-0.000000
-2.380000,-0.900000,0.130000,0.040000,-0.019142,-0.004504,0.017335,0.001192,-0.000000,0.000000,0.000000
-2.340000,-0.900000,0.167631,0.040000,-0.018824,0.003160,-0.005050,0.001294,0.000000,-0.000000,0.000000
-2.340000,-0.860000,0.160312,0.040000,-0.018756,0.002687,-0.004575,0.001277,0.000000,-0.000000,0.000000
-2.380000,-0.860000,0.120416,0.040000,-0.019072,0.002112,-0.002294,0.002021,0.000000,-0.000000,0.000000
-2.300000,-0.900000,0.206155,0.040000,-0.018514,0.003137,-0.005123,0.000795,0.000000,-0.000000,0.000000
-2.260000,-0.900000,0.245153,0.040000,-0.018212,0.003055,-0.005133,0.000321,0.000000,-0.000000,0.000000
-2.260000,-0.860000,0.240208,0.040000,-0.018147,0.002625,-0.004697,0.000416,0.000000,-0.000000,0.000000
-2.300000,-0.860000,0.200250,0.040000,-0.018448,0.002681,-0.004664,0.000838,0.000000,-0.000000,0.000000
-2.220000,-0.900000,0.284429,0.040000,-0.017919,0.002893,-0.005014,-0.000120,0.000000,-0.000000,-0.000000
-2.180000,-0.900000,0.323883,0.040000,-0.017634,0.002703,-0.004979,-0.000593,0.000000,-0.000000,-0.000000
-2.180000,-0.860000,0.320156,0.040000,-0.017569,0.002435,-0.004654,-0.000345,0.000000,-0.000000,-0.000000
-2.220000,-0.860000,0.280179,0.040000,-0.017854,0.002549,-0.004704,0.000052,0.000000,-0.000000,0.000000
2.180000,-0.900000,0.323883,0.040000,-0.006736,0.002699,-0.004976,0.000592,0.000000,-0.000000,0.000000
2.220000,-0.900000,0.284429,0.040000,-0.006821,0.002890,-0.005010,0.000119,0.000000,-0.000000,0.000000
2.220000,-0.860000,0.280179,0.040000,-0.006756,0.002546,-0.004701,-0.000052,0.000000,-0.000000,-0.000000
2.180000,-0.860000,0.320156,0.040000,-0.006671,0.002432,-0.004651,0.000344,0.000000,-0.000000,0.000000
2.260000,-0.900000,0.245153,0.040000,-0.006915,0.003051,-0.005129,-0.000321,0.000000,-0.000000,-0.000000
2.300000,-0.900000,0.206155,0.040000,-0.007016,0.003133,-0.005119,-0.000795,0.000000,-0.000000,-0.000000
2.300000,-0.860000,0.200250,0.040000,-0.006950,0.002678,-0.004660,-0.000838,0.000000,-0.000000,-0.000000
2.260000,-0.860000,0.240208,0.040000,-0.006850,0.002621,-0.004694,-0.000417,0.000000,-0.000000,-0.000000
2.340000,-0.900000,0.167631,0.040000,-0.007126,0.003156,-0.005046,-0.001294,0.000000,-0.000000,-0.000000
2.380000,-0.900000,0.130000,0.040000,-0.007244,0.003110,-0.004923,-0.001814,0.000000,-0.000000,-0.000000
2.380000,-0.860000,0.120416,0.040000,-0.007174,0.002635,-0.004423,-0.001711,0.000000,-0.000000,-0.000000
2.340000,-0.860000,0.160312,0.040000,-0.007058,0.002683,-0.004572,-0.001277,0.000000,-0.000000,-0.000000
2.420000,-0.900000,0.094340,0.040000,-0.007370,0.003039,-0.005147,-0.002349,0.000000,-0.000000,-0.000000
2.460000,-0.900000,0.064031,0.040000,-0.007502,0.002532,-0.006161,-0.002606,0.000000,-0.000000,-0.000000
2.460000,-0.860000,0.041231,0.040000,-0.007425,0.002543,-0.005490,-0.002783,0.000000,-0.000000,-0.000000
2.420000,-0.860000,0.080623,0.040000,-0.007296,0.002620,-0.004691,-0.002175,0.000000,-0.000000,-0.000000
2.500000,-0.900000,0.050000,0.040000,-0.007650,0.003811,-0.007886,-0.002752,0.000000,-0.000000,-0.000000
2.500000,-0.860000,0.010000,0.040000,-0.007559,0.001308,-0.003335,-0.003206,0.000000,-0.000000,-0.000000
-2.500000,-0.820000,0.030000,0.040000,-0.008025,-2.174252,5.738859,0.334715,-0.000000,0.000000,0.000000
-2.500000,-0.780000,0.030000,0.040000,-0.019871,2.158772,1.353608,0.330836,0.000000,0.000000,0.000000
-2.460000,-0.820000,0.050000,0.040000,-0.019643,0.083216,2.423908,0.197950,-0.000000,0.000000,0.000000
-2.420000,-0.820000,0.085440,0.040000,-0.019317,-0.177143,0.751011,0.041801,-0.000000,0.000000,0.000000
-2.420000,-0.780000,0.085440,0.040000,-0.019236,-0.073062,0.829389,0.040181,-0.000000,0.000000,0.000000
-2.460000,-0.780000,0.050000,0.040000,-0.019557,0.349708,2.513163,0.195520,-0.000000,0.000000,0.000000
-2.380000,-0.820000,0.123693,0.040000,-0.018997,-0.012250,0.037501,0.001668,-0.000000,0.000000,0.000000
-2.340000,-0.820000,0.162788,0.040000,-0.018684,0.002268,-0.004157,0.001253,0.000000,-0.000000,0.000000
-2.340000,-0.780000,0.162788,0.040000,-0.018609,0.001888,-0.003776,0.001214,0.000000,-0.000000,0.000000
-2.380000,-0.780000,0.123693,0.040000,-0.018919,0.001088,-0.000736,0.001561,0.000000,-0.000000,0.000000
-2.300000,-0.820000,0.202237,0.040000,-0.018378,0.002275,-0.004256,0.000861,0.000000,-0.000000,0.000000
-2.260000,-0.820000,0.241868,0.040000,-0.018078,0.002239,-0.004308,0.000485,0.000000,-0.000000,0.000000
-2.260000,-0.780000,0.241868,0.040000,-0.018005,0.001894,-0.003960,0.000532,0.000000,-0.000000,0.000000
-2.300000,-0.780000,0.202237,0.040000,-0.018304,0.001912,-0.003892,0.000867,0.000000,-0.000000,0.000000
-2.220000,-0.820000,0.281603,0.040000,-0.017785,0.002142,-0.004267,0.000134,0.000000,-0.000000,0.000000
-2.180000,-0.820000,0.321403,0.040000,-0.017500,0.002014,-0.004272,-0.000250,0.000000,-0.000000,-0.000000
-2.180000,-0.780000,0.321403,0.040000,-0.017427,0.001794,-0.004006,-0.000089,0.000000,-0.000000,-0.000000
-2.220000,-0.780000,0.281603,0.040000,-0.017713,0.001862,-0.004017,0.000236,0.000000,-0.000000,0.000000
2.180000,-0.820000,0.321403,0.040000,-0.006602,0.002012,-0.004269,0.000249,0.000000,-0.000000,0.000000
2.220000,-0.820000,0.281603,0.040000,-0.006688,0.002139,-0.004264,-0.000135,0.000000,-0.000000,-0.000000
2.220000,-0.780000,0.281603,0.040000,-0.006615,0.001859,-0.004014,-0.000237,0.000000,-0.000000,-0.000000
2.180000,-0.780000,0.321403,0.040000,-0.006529,0.001792,-0.004003,0.000088,0.000000,-0.000000,0.000000
2.260000,-0.820000,0.241868,0.040000,-0.006780,0.002236,-0.004305,-0.000485,0.000000,-0.000000,-0.000000
2.300000,-0.820000,0.202237,0.040000,-0.006880,0.002272,-0.004252,-0.000861,0.000000,-0.000000,-0.000000
2.300000,-0.780000,0.202237,0.040000,-0.006806,0.001910,-0.003889,-0.000867,0.000000,-0.000000,-0.000000
2.260000,-0.780000,0.241868,0.040000,-0.006707,0.001891,-0.003957,-0.000532,0.000000,-0.000000,-0.000000
2.340000,-0.820000,0.162788,0.040000,-0.006986,0.002265,-0.004154,-0.001253,0.000000,-0.000000,-0.000000
2.380000,-0.820000,0.123693,0.040000,-0.007099,0.002233,-0.004039,-0.001668,0.000000,-0.000000,-0.000000
2.380000,-0.780000,0.123693,0.040000,-0.007021,0.001785,-0.003564,-0.001566,0.000000,-0.000000,-0.000000
2.340000,-0.780000,0.162788,0.040000,-0.006911,0.001885,-0.003773,-0.001214,0.000000,-0.000000,-0.000000
2.420000,-0.820000,0.085440,0.040000,-0.007219,0.002274,-0.003947,-0.002340,0.000000,-0.000000,-0.000000
2.460000,-0.820000,0.050000,0.040000,-0.007345,0.002473,-0.003860,-0.003061,0.000000,-0.000000,-0.000000
2.460000,-0.780000,0.050000,0.040000,-0.007259,-0.000391,-0.003480,-0.001462,0.000000,-0.000000,-0.000000
2.420000,-0.780000,0.085440,0.040000,-0.007138,0.001327,-0.003316,-0.001834,0.000000,-0.000000,-0.000000
2.500000,-0.820000,0.030000,0.040000,-0.007487,0.005360,-0.008179,-0.003669,0.000000,-0.000000,-0.000000
2.500000,-0.780000,0.030000,0.040000,-0.007373,-0.006460,0.000216,-0.001081,-0.000000,0.000000,-0.000000
-2.500000,-0.740000,0.010000,0.040000,-0.007926,-2.255015,5.641958,-0.082960,-0.000000,0.000000,-0.000000
-2.500000,-0.700000,0.050000,0.040000,-0.013734,-0.021365,3.531504,-0.510742,-0.000000,0.000000,-0.000000
-2.460000,-0.740000,0.041231,0.040000,-0.019472,-0.055293,2.935133,-0.054392,-0.000000,0.000000,-0.000000
-2.420000,-0.740000,0.080623,0.040000,-0.019152,-0.220158,0.928719,0.056148,-0.000000,0.000000,0.000000
-2.420000,-0.700000,0.094340,0.040000,-0.019067,-0.126096,0.788245,-0.187686,-0.000000,0.000000,-0.000000
-2.460000,-0.700000,0.064031,0.040000,-0.019382,0.210646,2.460366,-0.286209,-0.000000,0.000000,-0.000000
-2.380000,-0.740000,0.120416,0.040000,-0.018838,-0.013038,0.038643,0.001779,-0.000000,0.000000,0.000000
-2.340000,-0.740000,0.160312,0.040000,-0.018530,0.001563,-0.003454,0.001169,0.000000,-0.000000,0.000000
-2.340000,-0.700000,0.167631,0.040000,-0.018449,0.001263,-0.003155,0.001121,0.000000,-0.000000,0.000000
-2.380000,-0.700000,0.130000,0.040000,-0.018755,-0.006393,0.019153,0.000801,-0.000000,0.000000,0.000000
-2.300000,-0.740000,0.200250,0.040000,-0.018227,0.001590,-0.003569,0.000861,0.000000,-0.000000,0.000000
-2.260000,-0.740000,0.240208,0.040000,-0.017929,0.001584,-0.003649,0.000562,0.000000,-0.000000,0.000000
-2.260000,-0.700000,0.245153,0.040000,-0.017851,0.001307,-0.003371,0.000577,0.000000,-0.000000,0.000000
-2.300000,-0.700000,0.206155,0.040000,-0.018147,0.001301,-0.003281,0.000844,0.000000,-0.000000,0.000000
-2.220000,-0.740000,0.280179,0.040000,-0.017638,0.001531,-0.003662,0.000282,0.000000,-0.000000,0.000000
-2.180000,-0.740000,0.320156,0.040000,-0.017352,0.001447,-0.003692,-0.000030,0.000000,-0.000000,-0.000000
-2.180000,-0.700000,0.323883,0.040000,-0.017275,0.001267,-0.003476,0.000071,0.000000,-0.000000,0.000000
-2.220000,-0.700000,0.284429,0.040000,-0.017560,0.001304,-0.003459,0.000336,0.000000,-0.000000,0.000000
2.180000,-0.740000,0.320156,0.040000,-0.006454,0.001445,-0.003690,0.000029,0.000000,-0.000000,0.000000
2.220000,-0.740000,0.280179,0.040000,-0.006540,0.001528,-0.003659,-0.000282,0.000000,-0.000000,-0.000000
2.220000,-0.700000,0.284429,0.040000,-0.006462,0.001301,-0.003457,-0.000337,0.000000,-0.000000,-0.000000
2.180000,-0.700000,0.323883,0.040000,-0.006377,0.001265,-0.003473,-0.000072,0.000000,-0.000000,-0.000000
2.260000,-0.740000,0.240208,0.040000,-0.006631,0.001582,-0.003646,-0.000562,0.000000,-0.000000,-0.000000
2.300000,-0.740000,0.200250,0.040000,-0.006729,0.001587,-0.003567,-0.000861,0.000000,-0.000000,-0.000000
2.300000,-0.700000,0.206155,0.040000,-0.006649,0.001298,-0.003278,-0.000844,0.000000,-0.000000,-0.000000
2.260000,-0.700000,0.245153,0.040000,-0.006553,0.001304,-0.003368,-0.000577,0.000000,-0.000000,-0.000000
2.340000,-0.740000,0.160312,0.040000,-0.006832,0.001560,-0.003451,-0.001168,0.000000,-0.000000,-0.000000
2.380000,-0.740000,0.120416,0.040000,-0.006940,0.001519,-0.003314,-0.001467,0.000000,-0.000000,-0.000000
2.380000,-0.700000,0.130000,0.040000,-0.006857,0.001218,-0.003088,-0.001417,0.000000,-0.000000,-0.000000
2.340000,-0.700000,0.167631,0.040000,-0.006751,0.001260,-0.003152,-0.001121,0.000000,-0.000000,-0.000000
2.420000,-0.740000,0.080623,0.040000,-0.007054,0.001631,-0.003948,-0.000936,0.000000,-0.000000,-0.000000
2.460000,-0.740000,0.041231,0.040000,-0.007174,0.001629,-0.005193,-0.000148,0.000000,-0.000000,-0.000000
2.460000,-0.700000,0.064031,0.040000,-0.007084,0.001795,-0.008115,-0.001393,0.000000,-0.000000,-0.000000
2.420000,-0.700000,0.094340,0.040000,-0.006968,0.001612,-0.004494,-0.001710,0.000000,-0.000000,-0.000000
2.500000,-0.740000,0.010000,0.040000,-0.007302,0.001525,-0.006220,0.001119,0.000000,-0.000000,0.000000
2.500000,-0.700000,0.050000,0.040000,-0.007233,0.009340,-0.014492,-0.001189,0.000000,-0.000000,-0.000000
-2.500000,-0.660000,0.010000,0.040000,-0.019603,2.253364,1.409432,-0.096783,0.000000,0.000000,-0.000000
-2.500000,-0.620000,0.030000,0.040000,-0.007782,-2.132998,5.638795,0.319666,-0.000000,0.000000,0.000000
-2.460000,-0.660000,0.041231,0.040000,-0.019291,0.489711,1.972781,-0.062356,-0.000000,0.000000,-0.000000
-2.420000,-0.660000,0.080623,0.040000,-0.018979,-0.029158,0.643181,0.052244,-0.000000,0.000000,0.000000
-2.420000,-0.620000,0.085440,0.040000,-0.018890,-0.175308,0.739426,0.039640,-0.000000,0.000000,0.000000
-2.460000,-0.620000,0.050000,0.040000,-0.019202,0.081626,2.383706,0.189276,-0.000000,0.000000,0.000000
-2.380000,-0.660000,0.120416,0.040000,-0.018670,0.000392,-0.000613,0.001584,0.000000,-0.000000,0.000000
-2.340000,-0.660000,0.160312,0.040000,-0.018366,0.000999,-0.002892,0.001062,0.000000,-0.000000,0.000000
-2.340000,-0.620000,0.162788,0.040000,-0.018281,0.000769,-0.002668,0.001007,0.000000,-0.000000,0.000000
-2.380000,-0.620000,0.123693,0.040000,-0.018583,-0.013491,0.038248,0.001242,-0.000000,0.000000,0.000000
-2.300000,-0.660000,0.200250,0.040000,-0.018066,0.001043,-0.003024,0.000819,0.000000,-0.000000,0.000000
-2.260000,-0.660000,0.240208,0.040000,-0.017770,0.001057,-0.003122,0.000580,0.000000,-0.000000,0.000000
-2.260000,-0.620000,0.241868,0.040000,-0.017688,0.000834,-0.002899,0.000574,0.000000,-0.000000,0.000000
-2.300000,-0.620000,0.202237,0.040000,-0.017982,0.000813,-0.002796,0.000788,0.000000,-0.000000,0.000000
-2.220000,-0.660000,0.280179,0.040000,-0.017480,0.001034,-0.003171,0.000358,0.000000,-0.000000,0.000000
-2.180000,-0.660000,0.320156,0.040000,-0.017195,0.000982,-0.003219,0.000105,0.000000,-0.000000,0.000000
-2.180000,-0.620000,0.321403,0.040000,-0.017114,0.000834,-0.003043,0.000163,0.000000,-0.000000,0.000000
-2.220000,-0.620000,0.281603,0.040000,-0.017399,0.000850,-0.003008,0.000379,0.000000,-0.000000,0.000000
2.180000,-0.660000,0.320156,0.040000,-0.006297,0.000979,-0.003217,-0.000106,0.000000,-0.000000,-0.000000
2.220000,-0.660000,0.280179,0.040000,-0.006382,0.001032,-0.003169,-0.000358,0.000000,-0.000000,-0.000000
2.220000,-0.620000,0.281603,0.040000,-0.006301,0.000848,-0.003006,-0.000380,0.000000,-0.000000,-0.000000
2.180000,-0.620000,0.321403,0.040000,-0.006216,0.000832,-0.003041,-0.000164,0.000000,-0.000000,-0.000000
2.260000,-0.660000,0.240208,0.040000,-0.006472,0.001055,-0.003119,-0.000581,0.000000,-0.000000,-0.000000
2.300000,-0.660000,0.200250,0.040000,-0.006567,0.001040,-0.003021,-0.000819,0.000000,-0.000000,-0.000000
2.300000,-0.620000,0.202237,0.040000,-0.006484,0.000810,-0.002793,-0.000788,0.000000,-0.000000,-0.000000
2.260000,-0.620000,0.241868,0.040000,-0.006390,0.000832,-0.002897,-0.000575,0.000000,-0.000000,-0.000000
2.340000,-0.660000,0.160312,0.040000,-0.006667,0.000996,-0.002890,-0.001061,0.000000,-0.000000,-0.000000
2.380000,-0.660000,0.120416,0.040000,-0.006772,0.000911,-0.002719,-0.001285,0.000000,-0.000000,-0.000000
2.380000,-0.620000,0.123693,0.040000,-0.006685,0.000744,-0.002578,-0.001242,0.000000,-0.000000,-0.000000
2.340000,-0.620000,0.162788,0.040000,-0.006583,0.000767,-0.002666,-0.001007,0.000000,-0.000000,-0.000000
2.420000,-0.660000,0.080623,0.040000,-0.006881,0.000926,-0.003854,-0.001910,0.000000,-0.000000,-0.000000
2.460000,-0.660000,0.041231,0.040000,-0.006993,0.000363,-0.006570,-0.003120,0.000000,-0.000000,-0.000000
2.460000,-0.620000,0.050000,0.040000,-0.006904,0.001035,-0.002819,-0.003226,0.000000,-0.000000,-0.000000
2.420000,-0.620000,0.085440,0.040000,-0.006792,0.000882,-0.002675,-0.001963,0.000000,-0.000000,-0.000000
2.500000,-0.660000,0.010000,0.040000,-0.007104,-0.003405,-0.001186,-0.004248,-0.000000,0.000000,-0.000000
2.500000,-0.620000,0.030000,0.040000,-0.007037,0.005792,-0.011302,-0.004431,0.000000,-0.000000,-0.000000
-2.500000,-0.580000,0.030000,0.040000,-0.019397,2.104839,1.326987,0.312553,0.000000,0.000000,0.000000
-2.500000,-0.540000,0.010000,0.040000,-0.007725,-2.204812,5.515391,-0.092770,-0.000000,0.000000,-0.000000
-2.460000,-0.580000,0.050000,0.040000,-0.019106,0.338277,2.463389,0.184833,-0.000000,0.000000,0.000000
-2.420000,-0.580000,0.085440,0.040000,-0.018800,-0.073362,0.813965,0.036994,-0.000000,0.000000,0.000000
-2.420000,-0.540000,0.080623,0.040000,-0.018710,-0.215883,0.906910,0.052213,-0.000000,0.000000,0.000000
-2.460000,-0.540000,0.041231,0.040000,-0.019017,-0.053756,2.864450,-0.060032,-0.000000,0.000000,-0.000000
-2.380000,-0.580000,0.123693,0.040000,-0.018496,-0.000264,0.000566,0.001139,-0.000000,0.000000,0.000000
-2.340000,-0.580000,0.162788,0.040000,-0.018195,0.000551,-0.002449,0.000945,0.000000,-0.000000,0.000000
-2.340000,-0.540000,0.160312,0.040000,-0.018108,0.000373,-0.002277,0.000880,0.000000,-0.000000,0.000000
-2.380000,-0.540000,0.120416,0.040000,-0.018407,-0.013902,0.038866,0.001330,-0.000000,0.000000,0.000000
-2.300000,-0.580000,0.202237,0.040000,-0.017898,0.000606,-0.002590,0.000751,0.000000,-0.000000,0.000000
-2.260000,-0.580000,0.241868,0.040000,-0.017605,0.000634,-0.002699,0.000561,0.000000,-0.000000,0.000000
-2.260000,-0.540000,0.240208,0.040000,-0.017520,0.000454,-0.002522,0.000540,0.000000,-0.000000,0.000000
-2.300000,-0.540000,0.200250,0.040000,-0.017812,0.000423,-0.002410,0.000710,0.000000,-0.000000,0.000000
-2.220000,-0.580000,0.281603,0.040000,-0.017316,0.000632,-0.002775,0.000383,0.000000,-0.000000,0.000000
-2.180000,-0.580000,0.321403,0.040000,-0.017032,0.000601,-0.002834,0.000180,0.000000,-0.000000,0.000000
-2.180000,-0.540000,0.320156,0.040000,-0.016949,0.000482,-0.002692,0.000208,0.000000,-0.000000,0.000000
-2.220000,-0.540000,0.280179,0.040000,-0.017232,0.000483,-0.002644,0.000383,0.000000,-0.000000,0.000000
2.180000,-0.580000,0.321403,0.040000,-0.006134,0.000599,-0.002832,-0.000181,0.000000,-0.000000,-0.000000
2.220000,-0.580000,0.281603,0.040000,-0.006218,0.000630,-0.002773,-0.000384,0.000000,-0.000000,-0.000000
2.220000,-0.540000,0.280179,0.040000,-0.006134,0.000481,-0.002642,-0.000383,0.000000,-0.000000,-0.000000
2.180000,-0.540000,0.320156,0.040000,-0.006050,0.000480,-0.002690,-0.000208,0.000000,-0.000000,-0.000000
2.260000,-0.580000,0.241868,0.040000,-0.006306,0.000631,-0.002697,-0.000561,0.000000,-0.000000,-0.000000
2.300000,-0.580000,0.202237,0.040000,-0.006399,0.000604,-0.002588,-0.000751,0.000000,-0.000000,-0.000000
2.300000,-0.540000,0.200250,0.040000,-0.006314,0.000420,-0.002407,-0.000710,0.000000,-0.000000,-0.000000
2.260000,-0.540000,0.240208,0.040000,-0.006222,0.000452,-0.002520,-0.000540,0.000000,-0.000000,-0.000000
2.340000,-0.580000,0.162788,0.040000,-0.006496,0.000549,-0.002447,-0.000945,0.000000,-0.000000,-0.000000
2.380000,-0.580000,0.123693,0.040000,-0.006597,0.000420,-0.002207,-0.001146,0.000000,-0.000000,-0.000000
2.380000,-0.540000,0.120416,0.040000,-0.006509,0.000326,-0.002143,-0.001029,0.000000,-0.000000,-0.000000
2.340000,-0.540000,0.160312,0.040000,-0.006409,0.000371,-0.002275,-0.000880,0.000000,-0.000000,-0.000000
2.420000,-0.580000,0.085440,0.040000,-0.006702,-0.000192,-0.001959,-0.001317,0.000000,-0.000000,-0.000000
2.460000,-0.580000,0.050000,0.040000,-0.006808,-0.002597,-0.002290,-0.000670,-0.000000,-0.000000,-0.000000
2.460000,-0.540000,0.041231,0.040000,-0.006719,0.000379,-0.004733,0.001270,0.000000,-0.000000,0.000000
2.420000,-0.540000,0.080623,0.040000,-0.006612,0.000478,-0.003037,0.000007,0.000000,-0.000000,0.000000
2.500000,-0.580000,0.030000,0.040000,-0.006899,-0.011935,0.003879,-0.000182,-0.000000,0.000000,-0.000000
2.500000,-0.540000,0.010000,0.040000,-0.006834,0.000234,-0.006487,0.003143,0.000000,-0.000000,0.000000
-2.500000,-0.500000,0.050000,0.040000,-0.013466,-0.002870,3.422772,-0.503150,-0.000000,0.000000,-0.000000
-2.500000,-0.460000,0.010000,0.040000,-0.019126,2.192524,1.374115,-0.093120,0.000000,0.000000,-0.000000
-2.460000,-0.500000,0.064031,0.040000,-0.018923,0.206440,2.392579,-0.282138,-0.000000,0.000000,-0.000000
-2.420000,-0.500000,0.094340,0.040000,-0.018619,-0.122995,0.767252,-0.184289,-0.000000,0.000000,-0.000000
-2.420000,-0.460000,0.080623,0.040000,-0.018528,-0.028997,0.625546,0.051058,-0.000000,0.000000,0.000000
-2.460000,-0.460000,0.041231,0.040000,-0.018829,0.476800,1.917075,-0.060199,-0.000000,0.000000,-0.000000
-2.380000,-0.500000,0.130000,0.040000,-0.018318,-0.007197,0.019451,0.000396,-0.000000,0.000000,0.000000
-2.340000,-0.500000,0.167631,0.040000,-0.018020,0.000203,-0.002109,0.000821,0.000000,-0.000000,0.000000
-2.340000,-0.460000,0.160312,0.040000,-0.017932,0.000054,-0.001961,0.000751,0.000000,-0.000000,0.000000
-2.380000,-0.460000,0.120416,0.040000,-0.018229,-0.000548,0.000260,0.001153,-0.000000,0.000000,0.000000
-2.300000,-0.500000,0.206155,0.040000,-0.017726,0.000258,-0.002247,0.000666,0.000000,-0.000000,0.000000
-2.260000,-0.500000,0.245153,0.040000,-0.017435,0.000294,-0.002363,0.000515,0.000000,-0.000000,0.000000
-2.260000,-0.460000,0.240208,0.040000,-0.017349,0.000152,-0.002222,0.000485,0.000000,-0.000000,0.000000
-2.300000,-0.460000,0.200250,0.040000,-0.017639,0.000113,-0.002104,0.000618,0.000000,-0.000000,0.000000
-2.220000,-0.500000,0.284429,0.040000,-0.017148,0.000307,-0.002457,0.000375,0.000000,-0.000000,0.000000
-2.180000,-0.500000,0.323883,0.040000,-0.016864,0.000293,-0.002524,0.000213,0.000000,-0.000000,0.000000
-2.180000,-0.460000,0.320156,0.040000,-0.016780,0.000197,-0.002410,0.000219,0.000000,-0.000000,0.000000
-2.220000,-0.460000,0.280179,0.040000,-0.017063,0.000188,-0.002352,0.000359,0.000000,-0.000000,0.000000
2.180000,-0.500000,0.323883,0.040000,-0.005966,0.000291,-0.002522,-0.000213,0.000000,-0.000000,-0.000000
2.220000,-0.500000,0.284429,0.040000,-0.006049,0.000306,-0.002455,-0.000375,0.000000,-0.000000,-0.000000
2.220000,-0.460000,0.280179,0.040000,-0.005964,0.000187,-0.002350,-0.000359,0.000000,-0.000000,-0.000000
2.180000,-0.460000,0.320156,0.040000,-0.005881,0.000195,-0.002408,-0.000220,0.000000,-0.000000,-0.000000
2.260000,-0.500000,0.245153,0.040000,-0.006137,0.000292,-0.002361,-0.000515,0.000000,-0.000000,-0.000000
2.300000,-0.500000,0.206155,0.040000,-0.006227,0.000256,-0.002245,-0.000666,0.000000,-0.000000,-0.000000
2.300000,-0.460000,0.200250,0.040000,-0.006141,0.000111,-0.002102,-0.000618,0.000000,-0.000000,-0.000000
2.260000,-0.460000,0.240208,0.040000,-0.006051,0.000150,-0.002220,-0.000485,0.000000,-0.000000,-0.000000
2.340000,-0.500000,0.167631,0.040000,-0.006322,0.000201,-0.002107,-0.000821,0.000000,-0.000000,-0.000000
2.380000,-0.500000,0.130000,0.040000,-0.006420,0.000172,-0.002087,-0.000998,0.000000,-0.000000,-0.000000
2.380000,-0.460000,0.120416,0.040000,-0.006331,-0.000043,-0.001787,-0.000860,0.000000,-0.000000,-0.000000
2.340000,-0.460000,0.160312,0.040000,-0.006234,0.000052,-0.001960,-0.000751,0.000000,-0.000000,-0.000000
2.420000,-0.500000,0.094340,0.040000,-0.006521,0.000819,-0.004119,-0.001165,0.000000,-0.000000,-0.000000
2.460000,-0.500000,0.064031,0.040000,-0.006625,0.001373,-0.009103,-0.000551,0.000000,-0.000000,-0.000000
2.460000,-0.460000,0.041231,0.040000,-0.006531,-0.000823,-0.007098,-0.003092,0.000000,-0.000000,-0.000000
2.420000,-0.460000,0.080623,0.040000,-0.006430,-0.000006,-0.003381,-0.001568,0.000000,-0.000000,-0.000000
2.500000,-0.500000,0.050000,0.040000,-0.006771,0.012198,-0.017906,-0.000165,0.000000,-0.000000,-0.000000
2.500000,-0.460000,0.010000,0.040000,-0.006628,-0.005908,-0.000041,-0.004587,-0.000000,0.000000,-0.000000
-2.500000,-0.420000,0.030000,0.040000,-0.007623,-2.081997,5.484612,0.311408,-0.000000,0.000000,0.000000
-2.500000,-0.380000,0.030000,0.040000,-0.018920,2.042146,1.291472,0.299272,0.000000,0.000000,0.000000
-2.460000,-0.420000,0.050000,0.040000,-0.018740,0.076552,2.320301,0.184258,-0.000000,0.000000,0.000000
-2.420000,-0.420000,0.085440,0.040000,-0.018438,-0.171669,0.720284,0.038250,-0.000000,0.000000,0.000000
-2.420000,-0.380000,0.085440,0.040000,-0.018347,-0.072177,0.791919,0.034685,-0.000000,0.000000,0.000000
-2.460000,-0.380000,0.050000,0.040000,-0.018644,0.327334,2.395167,0.176805,-0.000000,0.000000,0.000000
-2.380000,-0.420000,0.123693,0.040000,-0.018140,-0.013941,0.037971,0.000824,-0.000000,0.000000,0.000000
-2.340000,-0.420000,0.162788,0.040000,-0.017844,-0.000068,-0.001846,0.000690,0.000000,-0.000000,0.000000
-2.340000,-0.380000,0.162788,0.040000,-0.017757,-0.000194,-0.001718,0.000624,0.000000,-0.000000,0.000000
-2.380000,-0.380000,0.123693,0.040000,-0.018051,-0.000998,0.001228,0.000730,-0.000000,0.000000,0.000000
-2.300000,-0.420000,0.202237,0.040000,-0.017552,-0.000016,-0.001978,0.000570,0.000000,-0.000000,0.000000
-2.260000,-0.420000,0.241868,0.040000,-0.017263,0.000026,-0.002097,0.000452,0.000000,-0.000000,0.000000
-2.260000,-0.380000,0.241868,0.040000,-0.017177,-0.000086,-0.001987,0.000415,0.000000,-0.000000,0.000000
-2.300000,-0.380000,0.202237,0.040000,-0.017465,-0.000130,-0.001866,0.000519,0.000000,-0.000000,0.000000
-2.220000,-0.420000,0.281603,0.040000,-0.016977,0.000049,-0.002204,0.000343,0.000000,-0.000000,0.000000
-2.180000,-0.420000,0.321403,0.040000,-0.016695,0.000046,-0.002276,0.000216,0.000000,-0.000000,0.000000
-2.180000,-0.380000,0.321403,0.040000,-0.016610,-0.000029,-0.002187,0.000207,0.000000,-0.000000,0.000000
-2.220000,-0.380000,0.281603,0.040000,-0.016892,-0.000044,-0.002122,0.000316,0.000000,-0.000000,0.000000
2.180000,-0.420000,0.321403,0.040000,-0.005797,0.000044,-0.002274,-0.000216,0.000000,-0.000000,-0.000000
2.220000,-0.420000,0.281603,0.040000,-0.005879,0.000047,-0.002202,-0.000343,0.000000,-0.000000,-0.000000
2.220000,-0.380000,0.281603,0.040000,-0.005793,-0.000046,-0.002121,-0.000316,0.000000,-0.000000,-0.000000
2.180000,-0.380000,0.321403,0.040000,-0.005711,-0.000031,-0.002185,-0.000207,0.000000,-0.000000,-0.000000
2.260000,-0.420000,0.241868,0.040000,-0.005965,0.000024,-0.002096,-0.000452,0.000000,-0.000000,-0.000000
2.300000,-0.420000,0.202237,0.040000,-0.006054,-0.000017,-0.001976,-0.000570,0.000000,-0.000000,-0.000000
2.300000,-0.380000,0.202237,0.040000,-0.005967,-0.000132,-0.001864,-0.000519,0.000000,-0.000000,-0.000000
2.260000,-0.380000,0.241868,0.040000,-0.005879,-0.000088,-0.001986,-0.000415,0.000000,-0.000000,-0.000000
2.340000,-0.420000,0.162788,0.040000,-0.006146,-0.000070,-0.001844,-0.000690,0.000000,-0.000000,-0.000000
2.380000,-0.420000,0.123693,0.040000,-0.006241,-0.000082,-0.001778,-0.000824,0.000000,-0.000000,-0.000000
2.380000,-0.380000,0.123693,0.040000,-0.006152,-0.000333,-0.001468,-0.000739,0.000000,-0.000000,-0.000000
2.340000,-0.380000,0.162788,0.040000,-0.006058,-0.000196,-0.001717,-0.000624,0.000000,-0.000000,-0.000000
2.420000,-0.420000,0.085440,0.040000,-0.006339,0.000111,-0.001979,-0.001565,0.000000,-0.000000,-0.000000
2.460000,-0.420000,0.050000,0.040000,-0.006442,0.000241,-0.002247,-0.003105,0.000000,-0.000000,-0.000000
2.460000,-0.380000,0.050000,0.040000,-0.006346,-0.003763,-0.001645,-0.000064,-0.000000,-0.000000,-0.000000
2.420000,-0.380000,0.085440,0.040000,-0.006249,-0.001017,-0.001226,-0.000853,-0.000000,-0.000000,-0.000000
2.500000,-0.420000,0.030000,0.040000,-0.006568,0.005949,-0.012872,-0.004617,0.000000,-0.000000,-0.000000
2.500000,-0.380000,0.030000,0.040000,-0.006422,-0.014755,0.005785,0.000476,-0.000000,0.000000,0.000000
-2.500000,-0.340000,0.010000,0.040000,-0.007597,-2.137958,5.354738,-0.093502,-0.000000,0.000000,-0.000000
-2.500000,-0.300000,0.050000,0.040000,-0.013176,-0.003019,3.318743,-0.490731,-0.000000,0.000000,-0.000000
-2.460000,-0.340000,0.041231,0.040000,-0.018557,-0.051767,2.780907,-0.060400,-0.000000,0.000000,-0.000000
-2.420000,-0.340000,0.080623,0.040000,-0.018258,-0.210036,0.880798,0.049764,-0.000000,0.000000,0.000000
-2.420000,-0.300000,0.094340,0.040000,-0.018169,-0.119883,0.744708,-0.179491,-0.000000,0.000000,-0.000000
-2.460000,-0.300000,0.064031,0.040000,-0.018465,0.199359,2.321162,-0.275346,-0.000000,0.000000,-0.000000
-2.380000,-0.340000,0.120416,0.040000,-0.017962,-0.014138,0.038296,0.000909,-0.000000,0.000000,0.000000
-2.340000,-0.340000,0.160312,0.040000,-0.017669,-0.000284,-0.001634,0.000555,0.000000,-0.000000,0.000000
-2.340000,-0.300000,0.167631,0.040000,-0.017582,-0.000375,-0.001545,0.000494,0.000000,-0.000000,0.000000
-2.380000,-0.300000,0.130000,0.040000,-0.017874,-0.007547,0.019356,0.000015,-0.000000,0.000000,0.000000
-2.300000,-0.340000,0.200250,0.040000,-0.017379,-0.000229,-0.001769,0.000467,0.000000,-0.000000,0.000000
-2.260000,-0.340000,0.240208,0.040000,-0.017091,-0.000184,-0.001891,0.000377,0.000000,-0.000000,0.000000
-2.260000,-0.300000,0.245153,0.040000,-0.017005,-0.000268,-0.001808,0.000336,0.000000,-0.000000,0.000000
-2.300000,-0.300000,0.206155,0.040000,-0.017292,-0.000315,-0.001685,0.000414,0.000000,-0.000000,0.000000
-2.220000,-0.340000,0.280179,0.040000,-0.016806,-0.000152,-0.002008,0.000295,0.000000,-0.000000,0.000000
-2.180000,-0.340000,0.320156,0.040000,-0.016525,-0.000147,-0.002083,0.000197,0.000000,-0.000000,0.000000
-2.180000,-0.300000,0.323883,0.040000,-0.016440,-0.000205,-0.002015,0.000178,0.000000,-0.000000,0.000000
-2.220000,-0.300000,0.284429,0.040000,-0.016721,-0.000224,-0.001945,0.000260,0.000000,-0.000000,0.000000
2.180000,-0.340000,0.320156,0.040000,-0.005626,-0.000149,-0.002081,-0.000197,0.000000,-0.000000,-0.000000
2.220000,-0.340000,0.280179,0.040000,-0.005708,-0.000154,-0.002006,-0.000295,0.000000,-0.000000,-0.000000
2.220000,-0.300000,0.284429,0.040000,-0.005623,-0.000225,-0.001944,-0.000260,0.000000,-0.000000,-0.000000
2.180000,-0.300000,0.323883,0.040000,-0.005542,-0.000206,-0.002013,-0.000178,0.000000,-0.000000,-0.000000
2.260000,-0.340000,0.240208,0.040000,-0.005793,-0.000185,-0.001890,-0.000377,0.000000,-0.000000,-0.000000
2.300000,-0.340000,0.200250,0.040000,-0.005880,-0.000230,-0.001768,-0.000467,0.000000,-0.000000,-0.000000
2.300000,-0.300000,0.206155,0.040000,-0.005794,-0.000317,-0.001683,-0.000414,0.000000,-0.000000,-0.000000
2.260000,-0.300000,0.245153,0.040000,-0.005707,-0.000270,-0.001806,-0.000336,0.000000,-0.000000,-0.000000
2.340000,-0.340000,0.160312,0.040000,-0.005971,-0.000286,-0.001632,-0.000555,0.000000,-0.000000,-0.000000
2.380000,-0.340000,0.120416,0.040000,-0.006064,-0.000328,-0.001508,-0.000616,0.000000,-0.000000,-0.000000
2.380000,-0.300000,0.130000,0.040000,-0.005976,-0.000394,-0.001549,-0.000599,0.000000,-0.000000,-0.000000
2.340000,-0.300000,0.167631,0.040000,-0.005884,-0.000376,-0.001543,-0.000494,0.000000,-0.000000,-0.000000
2.420000,-0.340000,0.080623,0.040000,-0.006159,-0.000153,-0.002535,0.000684,0.000000,-0.000000,0.000000
2.460000,-0.340000,0.041231,0.040000,-0.006258,-0.000302,-0.004454,0.002191,0.000000,-0.000000,0.000000
2.460000,-0.300000,0.064031,0.040000,-0.006166,0.001129,-0.009559,0.000081,0.000000,-0.000000,0.000000
2.420000,-0.300000,0.094340,0.040000,-0.006070,0.000383,-0.003897,-0.000690,0.000000,-0.000000,-0.000000
2.500000,-0.340000,0.010000,0.040000,-0.006365,-0.000469,-0.006581,0.004370,0.000000,-0.000000,0.000000
2.500000,-0.300000,0.050000,0.040000,-0.006311,0.013595,-0.019571,0.000563,0.000000,-0.000000,0.000000
-2.500000,-0.260000,0.010000,0.040000,-0.018663,2.124577,1.333028,-0.093025,0.000000,0.000000,-0.000000
-2.500000,-0.220000,0.030000,0.040000,-0.007531,-2.015763,5.309571,0.299703,-0.000000,0.000000,0.000000
-2.460000,-0.260000,0.041231,0.040000,-0.018375,0.461954,1.857586,-0.060075,-0.000000,0.000000,-0.000000
-2.420000,-0.260000,0.080623,0.040000,-0.018080,-0.028534,0.606422,0.048636,-0.000000,0.000000,0.000000
-2.420000,-0.220000,0.085440,0.040000,-0.017993,-0.166648,0.697718,0.036460,-0.000000,0.000000,0.000000
-2.460000,-0.220000,0.050000,0.040000,-0.018290,0.073512,2.246861,0.177117,-0.000000,0.000000,0.000000
-2.380000,-0.260000,0.120416,0.040000,-0.017787,-0.001039,0.000687,0.000745,-0.000000,0.000000,0.000000
-2.340000,-0.260000,0.160312,0.040000,-0.017496,-0.000452,-0.001469,0.000423,0.000000,-0.000000,0.000000
-2.340000,-0.220000,0.162788,0.040000,-0.017410,-0.000505,-0.001422,0.000361,0.000000,-0.000000,0.000000
-2.380000,-0.220000,0.123693,0.040000,-0.017701,-0.013930,0.037122,0.000431,-0.000000,0.000000,0.000000
-2.300000,-0.260000,0.200250,0.040000,-0.017206,-0.000389,-0.001613,0.000360,0.000000,-0.000000,0.000000
-2.260000,-0.260000,0.240208,0.040000,-0.016920,-0.000341,-0.001737,0.000294,0.000000,-0.000000,0.000000
-2.260000,-0.220000,0.241868,0.040000,-0.016835,-0.000402,-0.001677,0.000251,0.000000,-0.000000,0.000000
-2.300000,-0.220000,0.202237,0.040000,-0.017121,-0.000450,-0.001553,0.000305,0.000000,-0.000000,0.000000
-2.220000,-0.260000,0.280179,0.040000,-0.016636,-0.000304,-0.001860,0.000236,0.000000,-0.000000,0.000000
-2.180000,-0.260000,0.320156,0.040000,-0.016356,-0.000293,-0.001937,0.000164,0.000000,-0.000000,0.000000
-2.180000,-0.220000,0.321403,0.040000,-0.016272,-0.000335,-0.001888,0.000137,0.000000,-0.000000,0.000000
-2.220000,-0.220000,0.281603,0.040000,-0.016552,-0.000356,-0.001815,0.000196,0.000000,-0.000000,0.000000
2.180000,-0.260000,0.320156,0.040000,-0.005457,-0.000294,-0.001935,-0.000164,0.000000,-0.000000,-0.000000
2.220000,-0.260000,0.280179,0.040000,-0.005538,-0.000306,-0.001858,-0.000236,0.000000,-0.000000,-0.000000
2.220000,-0.220000,0.281603,0.040000,-0.005454,-0.000357,-0.001814,-0.000196,0.000000,-0.000000,-0.000000
2.180000,-0.220000,0.321403,0.040000,-0.005373,-0.000336,-0.001886,-0.000137,0.000000,-0.000000,-0.000000
2.260000,-0.260000,0.240208,0.040000,-0.005622,-0.000342,-0.001735,-0.000294,0.000000,-0.000000,-0.000000
2.300000,-0.260000,0.200250,0.040000,-0.005708,-0.000390,-0.001611,-0.000360,0.000000,-0.000000,-0.000000
2.300000,-0.220000,0.202237,0.040000,-0.005623,-0.000451,-0.001552,-0.000305,0.000000,-0.000000,-0.000000
2.260000,-0.220000,0.241868,0.040000,-0.005537,-0.000403,-0.001675,-0.000251,0.000000,-0.000000,-0.000000
2.340000,-0.260000,0.160312,0.040000,-0.005797,-0.000453,-0.001467,-0.000423,0.000000,-0.000000,-0.000000
2.380000,-0.260000,0.120416,0.040000,-0.005888,-0.000550,-0.001297,-0.000462,0.000000,-0.000000,-0.000000
2.380000,-0.220000,0.123693,0.040000,-0.005802,-0.000510,-0.001367,-0.000431,0.000000,-0.000000,-0.000000
2.340000,-0.220000,0.162788,0.040000,-0.005711,-0.000506,-0.001420,-0.000361,0.000000,-0.000000,-0.000000
2.420000,-0.260000,0.080623,0.040000,-0.005982,-0.000500,-0.003121,-0.001199,0.000000,-0.000000,-0.000000
2.460000,-0.260000,0.041231,0.040000,-0.006076,-0.001442,-0.007337,-0.002869,0.000000,-0.000000,-0.000000
2.460000,-0.220000,0.050000,0.040000,-0.005992,-0.000173,-0.001951,-0.002834,0.000000,-0.000000,-0.000000
2.420000,-0.220000,0.085440,0.040000,-0.005895,-0.000289,-0.001621,-0.001166,0.000000,-0.000000,-0.000000
2.500000,-0.260000,0.010000,0.040000,-0.006165,-0.007181,0.000547,-0.004544,-0.000000,0.000000,-0.000000
2.500000,-0.220000,0.030000,0.040000,-0.006114,0.005990,-0.013625,-0.004492,0.000000,-0.000000,-0.000000
-2.500000,-0.180000,0.030000,0.040000,-0.018467,1.981418,1.255299,0.292327,0.000000,0.000000,0.000000
-2.500000,-0.140000,0.010000,0.040000,-0.007531,-2.058218,5.180150,-0.082893,-0.000000,0.000000,-0.000000
-2.460000,-0.180000,0.050000,0.040000,-0.018198,0.318825,2.318641,0.172437,-0.000000,0.000000,0.000000
-2.420000,-0.180000,0.085440,0.040000,-0.017907,-0.069948,0.766752,0.033308,-0.000000,0.000000,0.000000
-2.420000,-0.140000,0.080623,0.040000,-0.017822,-0.203617,0.854828,0.049620,-0.000000,0.000000,0.000000
-2.460000,-0.140000,0.041231,0.040000,-0.018117,-0.049043,2.697946,-0.054204,-0.000000,0.000000,-0.000000
-2.380000,-0.180000,0.123693,0.040000,-0.017615,-0.001352,0.001506,0.000343,-0.000000,0.000000,0.000000
-2.340000,-0.180000,0.162788,0.040000,-0.017325,-0.000568,-0.001355,0.000295,0.000000,-0.000000,0.000000
-2.340000,-0.140000,0.160312,0.040000,-0.017241,-0.000598,-0.001330,0.000227,-0.000000,-0.000000,0.000000
-2.380000,-0.140000,0.120416,0.040000,-0.017531,-0.013989,0.037272,0.000517,-0.000000,0.000000,0.000000
-2.300000,-0.180000,0.202237,0.040000,-0.017037,-0.000502,-0.001502,0.000250,0.000000,-0.000000,0.000000
-2.260000,-0.180000,0.241868,0.040000,-0.016751,-0.000452,-0.001628,0.000206,0.000000,-0.000000,0.000000
-2.260000,-0.140000,0.240208,0.040000,-0.016668,-0.000492,-0.001589,0.000161,0.000000,-0.000000,0.000000
-2.300000,-0.140000,0.200250,0.040000,-0.016953,-0.000541,-0.001465,0.000195,0.000000,-0.000000,0.000000
-2.220000,-0.180000,0.281603,0.040000,-0.016468,-0.000411,-0.001756,0.000169,0.000000,-0.000000,0.000000
-2.180000,-0.180000,0.321403,0.040000,-0.016188,-0.000395,-0.001834,0.000121,0.000000,-0.000000,0.000000
-2.180000,-0.140000,0.320156,0.040000,-0.016105,-0.000423,-0.001802,0.000089,0.000000,-0.000000,0.000000
-2.220000,-0.140000,0.280179,0.040000,-0.016385,-0.000445,-0.001727,0.000126,0.000000,-0.000000,0.000000
2.180000,-0.180000,0.321403,0.040000,-0.005290,-0.000397,-0.001832,-0.000121,0.000000,-0.000000,-0.000000
2.220000,-0.180000,0.281603,0.040000,-0.005370,-0.000413,-0.001755,-0.000169,0.000000,-0.000000,-0.000000
2.220000,-0.140000,0.280179,0.040000,-0.005287,-0.000446,-0.001726,-0.000126,0.000000,-0.000000,-0.000000
2.180000,-0.140000,0.320156,0.040000,-0.005207,-0.000424,-0.001801,-0.000089,0.000000,-0.000000,-0.000000
2.260000,-0.180000,0.241868,0.040000,-0.005453,-0.000454,-0.001626,-0.000206,0.000000,-0.000000,-0.000000
2.300000,-0.180000,0.202237,0.040000,-0.005538,-0.000503,-0.001501,-0.000250,0.000000,-0.000000,-0.000000
2.300000,-0.140000,0.200250,0.040000,-0.005455,-0.000542,-0.001463,-0.000195,0.000000,-0.000000,-0.000000
2.260000,-0.140000,0.240208,0.040000,-0.005369,-0.000493,-0.001588,-0.000161,0.000000,-0.000000,-0.000000
2.340000,-0.180000,0.162788,0.040000,-0.005626,-0.000569,-0.001353,-0.000295,0.000000,-0.000000,-0.000000
2.380000,-0.180000,0.123693,0.040000,-0.005717,-0.000709,-0.001102,-0.000353,-0.000000,-0.000000,-0.000000
2.380000,-0.140000,0.120416,0.040000,-0.005632,-0.000638,-0.001208,-0.000229,-0.000000,-0.000000,-0.000000
2.340000,-0.140000,0.160312,0.040000,-0.005542,-0.000599,-0.001328,-0.000227,-0.000000,-0.000000,-0.000000
2.420000,-0.180000,0.085440,0.040000,-0.005808,-0.001426,-0.000865,-0.000424,-0.000000,-0.000000,-0.000000
2.460000,-0.180000,0.050000,0.040000,-0.005900,-0.004336,-0.001328,0.000445,-0.000000,0.000000,0.000000
2.460000,-0.140000,0.041231,0.040000,-0.005818,-0.000626,-0.004328,0.002851,0.000000,-0.000000,0.000000
2.420000,-0.140000,0.080623,0.040000,-0.005724,-0.000452,-0.002301,0.001215,0.000000,-0.000000,0.000000
2.500000,-0.180000,0.030000,0.040000,-0.005969,-0.016126,0.006711,0.001016,-0.000000,0.000000,0.000000
2.500000,-0.140000,0.010000,0.040000,-0.005921,-0.000804,-0.006636,0.005185,0.000000,-0.000000,0.000000
-2.500000,-0.100000,0.050000,0.040000,-0.012831,-0.033723,3.244356,-0.475911,-0.000000,0.000000,-0.000000
-2.500000,-0.060000,0.010000,0.040000,-0.018232,2.057972,1.292001,-0.101443,0.000000,0.000000,-0.000000
-2.460000,-0.100000,0.064031,0.040000,-0.018031,0.188234,2.260371,-0.267199,-0.000000,0.000000,-0.000000
-2.420000,-0.100000,0.094340,0.040000,-0.017738,-0.118070,0.725293,-0.173996,-0.000000,0.000000,-0.000000
-2.420000,-0.060000,0.080623,0.040000,-0.017656,-0.028114,0.588834,0.044064,-0.000000,0.000000,0.000000
-2.460000,-0.060000,0.041231,0.040000,-0.017947,0.446720,1.803193,-0.064849,-0.000000,0.000000,-0.000000
-2.380000,-0.100000,0.130000,0.040000,-0.017447,-0.007677,0.019231,-0.000346,-0.000000,0.000000,-0.000000
-2.340000,-0.100000,0.167631,0.040000,-0.017158,-0.000632,-0.001296,0.000167,-0.000000,-0.000000,0.000000
-2.340000,-0.060000,0.160312,0.040000,-0.017076,-0.000655,-0.001272,0.000096,-0.000000,-0.000000,0.000000
-2.380000,-0.060000,0.120416,0.040000,-0.017365,-0.001229,0.000825,0.000349,-0.000000,0.000000,0.000000
-2.300000,-0.100000,0.206155,0.040000,-0.016870,-0.000571,-0.001435,0.000140,0.000000,-0.000000,0.000000
-2.260000,-0.100000,0.245153,0.040000,-0.016585,-0.000521,-0.001560,0.000116,0.000000,-0.000000,0.000000
-2.260000,-0.060000,0.240208,0.040000,-0.016504,-0.000541,-0.001541,0.000070,0.000000,-0.000000,0.000000
-2.300000,-0.060000,0.200250,0.040000,-0.016789,-0.000591,-0.001416,0.000084,0.000000,-0.000000,0.000000
-2.220000,-0.100000,0.284429,0.040000,-0.016303,-0.000478,-0.001692,0.000097,0.000000,-0.000000,0.000000
-2.180000,-0.100000,0.323883,0.040000,-0.016023,-0.000459,-0.001770,0.000071,0.000000,-0.000000,0.000000
-2.180000,-0.060000,0.320156,0.040000,-0.015942,-0.000472,-0.001755,0.000037,0.000000,-0.000000,0.000000
-2.220000,-0.060000,0.280179,0.040000,-0.016221,-0.000494,-0.001678,0.000052,0.000000,-0.000000,0.000000
2.180000,-0.100000,0.323883,0.040000,-0.005125,-0.000460,-0.001769,-0.000071,0.000000,-0.000000,-0.000000
2.220000,-0.100000,0.284429,0.040000,-0.005204,-0.000479,-0.001691,-0.000097,0.000000,-0.000000,-0.000000
2.220000,-0.060000,0.280179,0.040000,-0.005123,-0.000496,-0.001677,-0.000052,0.000000,-0.000000,-0.000000
2.180000,-0.060000,0.320156,0.040000,-0.005043,-0.000473,-0.001753,-0.000037,0.000000,-0.000000,-0.000000
2.260000,-0.100000,0.245153,0.040000,-0.005287,-0.000523,-0.001559,-0.000116,0.000000,-0.000000,-0.000000
2.300000,-0.100000,0.206155,0.040000,-0.005372,-0.000572,-0.001434,-0.000140,0.000000,-0.000000,-0.000000
2.300000,-0.060000,0.200250,0.040000,-0.005290,-0.000592,-0.001414,-0.000084,0.000000,-0.000000,-0.000000
2.260000,-0.060000,0.240208,0.040000,-0.005205,-0.000542,-0.001540,-0.000070,0.000000,-0.000000,-0.000000
2.340000,-0.100000,0.167631,0.040000,-0.005459,-0.000633,-0.001294,-0.000167,-0.000000,-0.000000,-0.000000
2.380000,-0.100000,0.130000,0.040000,-0.005549,-0.000645,-0.001314,-0.000219,-0.000000,-0.000000,-0.000000
2.380000,-0.060000,0.120416,0.040000,-0.005466,-0.000754,-0.001102,-0.000082,-0.000000,-0.000000,-0.000000
2.340000,-0.060000,0.160312,0.040000,-0.005377,-0.000656,-0.001271,-0.000096,-0.000000,-0.000000,-0.000000
2.420000,-0.100000,0.094340,0.040000,-0.005640,0.000195,-0.003814,-0.000257,0.000000,-0.000000,-0.000000
2.460000,-0.100000,0.064031,0.040000,-0.005733,0.001031,-0.009807,0.000605,0.000000,-0.000000,0.000000
2.460000,-0.060000,0.041231,0.040000,-0.005648,-0.001697,-0.007499,-0.002546,0.000000,-0.000000,-0.000000
2.420000,-0.060000,0.080623,0.040000,-0.005557,-0.000696,-0.003038,-0.000816,0.000000,-0.000000,-0.000000
2.500000,-0.100000,0.050000,0.040000,-0.005876,0.014288,-0.020405,0.001141,0.000000,-0.000000,0.000000
2.500000,-0.060000,0.010000,0.040000,-0.005734,-0.007751,0.000795,-0.004300,-0.000000,0.000000,-0.000000
-2.500000,-0.020000,0.030000,0.040000,-0.007498,-1.964064,5.110513,0.269028,-0.000000,0.000000,0.000000
-2.500000,0.020000,0.030000,0.040000,-0.018050,1.479955,0.942676,-0.028907,0.000000,0.000000,-0.000000
-2.460000,-0.020000,0.050000,0.040000,-0.017869,0.072990,2.169532,0.166226,-0.000000,0.000000,0.000000
-2.420000,-0.020000,0.085440,0.040000,-0.017575,-0.160636,0.673656,0.034013,-0.000000,0.000000,0.000000
-2.420000,0.020000,0.085440,0.040000,-0.017494,-0.085543,0.720430,-0.003828,-0.000000,0.000000,-0.000000
-2.460000,0.020000,0.050000,0.040000,-0.017784,0.145881,2.161445,-0.009374,-0.000000,0.000000,-0.000000
-2.380000,-0.020000,0.123693,0.040000,-0.017284,-0.013606,0.035912,0.000055,-0.000000,0.000000,0.000000
-2.340000,-0.020000,0.162788,0.040000,-0.016995,-0.000655,-0.001276,0.000034,-0.000000,-0.000000,0.000000
-2.340000,0.020000,0.162788,0.040000,-0.016915,-0.000667,-0.001258,-0.000032,-0.000000,-0.000000,-0.000000
-2.380000,0.020000,0.123693,0.040000,-0.017204,-0.001431,0.001512,-0.000032,-0.000000,0.000000,-0.000000
-2.300000,-0.020000,0.202237,0.040000,-0.016708,-0.000600,-0.001407,0.000028,0.000000,-0.000000,0.000000
-2.260000,-0.020000,0.241868,0.040000,-0.016423,-0.000550,-0.001532,0.000023,0.000000,-0.000000,0.000000
-2.260000,0.020000,0.241868,0.040000,-0.016343,-0.000550,-0.001532,-0.000023,0.000000,-0.000000,-0.000000
-2.300000,0.020000,0.202237,0.040000,-0.016628,-0.000601,-0.001406,-0.000028,0.000000,-0.000000,-0.000000
-2.220000,-0.020000,0.281603,0.040000,-0.016140,-0.000505,-0.001667,0.000023,0.000000,-0.000000,0.000000
-2.180000,-0.020000,0.321403,0.040000,-0.015861,-0.000484,-0.001744,0.000018,0.000000,-0.000000,0.000000
-2.180000,0.020000,0.321403,0.040000,-0.015781,-0.000484,-0.001744,-0.000017,0.000000,-0.000000,-0.000000
-2.220000,0.020000,0.281603,0.040000,-0.016061,-0.000505,-0.001667,-0.000023,0.000000,-0.000000,-0.000000
2.180000,-0.020000,0.321403,0.040000,-0.004962,-0.000485,-0.001743,-0.000018,0.000000,-0.000000,-0.000000
2.220000,-0.020000,0.281603,0.040000,-0.005042,-0.000506,-0.001665,-0.000023,0.000000,-0.000000,-0.000000
2.220000,0.020000,0.281603,0.040000,-0.004962,-0.000507,-0.001665,0.000023,0.000000,-0.000000,0.000000
2.180000,0.020000,0.321403,0.040000,-0.004882,-0.000485,-0.001743,0.000017,0.000000,-0.000000,0.000000
2.260000,-0.020000,0.241868,0.040000,-0.005124,-0.000552,-0.001530,-0.000023,0.000000,-0.000000,-0.000000
2.300000,-0.020000,0.202237,0.040000,-0.005209,-0.000601,-0.001406,-0.000028,0.000000,-0.000000,-0.000000
2.300000,0.020000,0.202237,0.040000,-0.005129,-0.000602,-0.001404,0.000028,-0.000000,-0.000000,0.000000
2.260000,0.020000,0.241868,0.040000,-0.005044,-0.000552,-0.001530,0.000023,0.000000,-0.000000,0.000000
2.340000,-0.020000,0.162788,0.040000,-0.005296,-0.000656,-0.001275,-0.000034,-0.000000,-0.000000,-0.000000
2.380000,-0.020000,0.123693,0.040000,-0.005385,-0.000656,-0.001228,-0.000055,-0.000000,-0.000000,-0.000000
2.380000,0.020000,0.123693,0.040000,-0.005305,-0.000810,-0.001003,0.000022,-0.000000,-0.000000,0.000000
2.340000,0.020000,0.162788,0.040000,-0.005216,-0.000669,-0.001257,0.000032,-0.000000,-0.000000,0.000000
2.420000,-0.020000,0.085440,0.040000,-0.005476,-0.000421,-0.001507,-0.000771,0.000000,-0.000000,-0.000000
2.460000,-0.020000,0.050000,0.040000,-0.005571,-0.000179,-0.001883,-0.002574,0.000000,-0.000000,-0.000000
2.460000,0.020000,0.050000,0.040000,-0.005486,0.029405,0.014421,-0.035801,0.000000,0.000000,-0.000000
2.420000,0.020000,0.085440,0.040000,-0.005396,0.002228,0.003237,-0.007426,0.000000,0.000000,-0.000000
2.500000,-0.020000,0.030000,0.040000,-0.005692,0.011753,-0.010537,-0.006922,0.000000,-0.000000,-0.000000
2.500000,0.020000,0.030000,0.040000,-0.005552,0.073804,0.063744,-0.063473,0.000000,0.000000,-0.000000
-2.500000,0.060000,0.010000,0.040000,-0.007520,-2.343297,4.766223,-0.599735,-0.000000,0.000000,-0.000000
-2.500000,0.100000,0.050000,0.040000,-0.017874,1.604830,1.033216,-0.460040,0.000000,0.000000,-0.000000
-2.460000,0.060000,0.041231,0.040000,-0.017710,-0.083136,2.065216,-0.352299,-0.000000,0.000000,-0.000000
-2.420000,0.060000,0.080623,0.040000,-0.017416,-0.175352,0.645423,-0.071197,-0.000000,0.000000,-0.000000
-2.420000,0.100000,0.094340,0.040000,-0.017338,-0.008421,0.396260,-0.168170,-0.000000,0.000000,-0.000000
-2.460000,0.100000,0.064031,0.040000,-0.017631,0.387342,1.224670,-0.258461,-0.000000,0.000000,-0.000000
-2.380000,0.060000,0.120416,0.040000,-0.017125,-0.013397,0.035295,-0.000141,-0.000000,0.000000,-0.000000
-2.340000,0.060000,0.160312,0.040000,-0.016836,-0.000647,-0.001282,-0.000100,-0.000000,-0.000000,-0.000000
-2.340000,0.100000,0.167631,0.040000,-0.016758,-0.000632,-0.001296,-0.000160,-0.000000,-0.000000,-0.000000
-2.380000,0.100000,0.130000,0.040000,-0.017047,-0.001073,0.000279,-0.000699,-0.000000,0.000000,-0.000000
-2.300000,0.060000,0.200250,0.040000,-0.016549,-0.000590,-0.001416,-0.000084,0.000000,-0.000000,-0.000000
-2.260000,0.060000,0.240208,0.040000,-0.016264,-0.000541,-0.001541,-0.000069,0.000000,-0.000000,-0.000000
-2.260000,0.100000,0.245153,0.040000,-0.016185,-0.000521,-0.001560,-0.000115,0.000000,-0.000000,-0.000000
-2.300000,0.100000,0.206155,0.040000,-0.016471,-0.000571,-0.001435,-0.000139,0.000000,-0.000000,-0.000000
-2.220000,0.060000,0.280179,0.040000,-0.015981,-0.000494,-0.001678,-0.000052,0.000000,-0.000000,-0.000000
-2.180000,0.060000,0.320156,0.040000,-0.015702,-0.000472,-0.001755,-0.000036,0.000000,-0.000000,-0.000000
-2.180000,0.100000,0.323883,0.040000,-0.015623,-0.000459,-0.001770,-0.000071,0.000000,-0.000000,-0.000000
-2.220000,0.100000,0.284429,0.040000,-0.015903,-0.000478,-0.001692,-0.000097,0.000000,-0.000000,-0.000000
2.180000,0.060000,0.320156,0.040000,-0.004803,-0.000474,-0.001753,0.000037,0.000000,-0.000000,0.000000
2.220000,0.060000,0.280179,0.040000,-0.004883,-0.000496,-0.001677,0.000052,0.000000,-0.000000,0.000000
2.220000,0.100000,0.284429,0.040000,-0.004805,-0.000479,-0.001691,0.000097,0.000000,-0.000000,0.000000
2.180000,0.100000,0.323883,0.040000,-0.004725,-0.000460,-0.001769,0.000071,0.000000,-0.000000,0.000000
2.260000,0.060000,0.240208,0.040000,-0.004965,-0.000542,-0.001540,0.000069,0.000000,-0.000000,0.000000
2.300000,0.060000,0.200250,0.040000,-0.005050,-0.000592,-0.001415,0.000084,0.000000,-0.000000,0.000000
2.300000,0.100000,0.206155,0.040000,-0.004972,-0.000573,-0.001434,0.000139,0.000000,-0.000000,0.000000
2.260000,0.100000,0.245153,0.040000,-0.004887,-0.000523,-0.001559,0.000115,0.000000,-0.000000,0.000000
2.340000,0.060000,0.160312,0.040000,-0.005137,-0.000649,-0.001281,0.000100,-0.000000,-0.000000,0.000000
2.380000,0.060000,0.120416,0.040000,-0.005226,-0.000719,-0.001031,0.000089,-0.000000,-0.000000,0.000000
2.380000,0.100000,0.130000,0.040000,-0.005149,-0.001981,0.002518,0.000154,-0.000000,0.000000,0.000000
2.340000,0.100000,0.167631,0.040000,-0.005059,-0.000633,-0.001294,0.000160,-0.000000,-0.000000,0.000000
2.420000,0.060000,0.080623,0.040000,-0.005317,-0.004891,0.035291,-0.023273,-0.000000,0.000000,-0.000000
2.460000,0.060000,0.041231,0.040000,-0.005411,0.006973,0.108308,-0.059607,-0.000000,0.000000,-0.000000
2.460000,0.100000,0.064031,0.040000,-0.005333,-0.042398,0.190727,0.001095,-0.000000,0.000000,0.000000
2.420000,0.100000,0.094340,0.040000,-0.005240,-0.021986,0.059836,0.000164,-0.000000,0.000000,0.000000
2.500000,0.060000,0.010000,0.040000,-0.005514,0.075273,0.040784,-0.103388,0.000000,0.000000,-0.000000
2.500000,0.100000,0.050000,0.040000,-0.004373,-0.330414,0.419784,0.001673,-0.000000,0.000000,0.000000
-2.500000,0.140000,0.010000,0.040000,-0.017840,1.620396,1.018623,0.418682,0.000000,0.000000,0.000000
-2.500000,0.180000,0.030000,0.040000,-0.007518,-2.268473,4.679571,0.590088,-0.000000,0.000000,0.000000
-2.460000,0.140000,0.041231,0.040000,-0.017554,0.394054,1.201027,0.235317,-0.000000,0.000000,0.000000
-2.420000,0.140000,0.080623,0.040000,-0.017262,-0.006147,0.388418,0.160160,-0.000000,0.000000,0.000000
-2.420000,0.180000,0.085440,0.040000,-0.017188,-0.172415,0.629049,0.067394,-0.000000,0.000000,0.000000
-2.460000,0.180000,0.050000,0.040000,-0.017484,-0.089781,2.012829,0.333857,-0.000000,0.000000,0.000000
-2.380000,0.140000,0.120416,0.040000,-0.016971,-0.001009,0.000084,0.000235,-0.000000,0.000000,0.000000
-2.340000,0.140000,0.160312,0.040000,-0.016681,-0.000605,-0.001320,-0.000231,-0.000000,-0.000000,-0.000000
-2.340000,0.180000,0.162788,0.040000,-0.016605,-0.000555,-0.001373,-0.000293,0.000000,-0.000000,-0.000000
-2.380000,0.180000,0.123693,0.040000,-0.016895,-0.013016,0.034412,-0.000320,-0.000000,0.000000,-0.000000
-2.300000,0.140000,0.200250,0.040000,-0.016393,-0.000542,-0.001464,-0.000195,0.000000,-0.000000,-0.000000
-2.260000,0.140000,0.240208,0.040000,-0.016108,-0.000492,-0.001589,-0.000161,0.000000,-0.000000,-0.000000
-2.260000,0.180000,0.241868,0.040000,-0.016031,-0.000452,-0.001628,-0.000206,0.000000,-0.000000,-0.000000
-2.300000,0.180000,0.202237,0.040000,-0.016317,-0.000501,-0.001504,-0.000250,0.000000,-0.000000,-0.000000
-2.220000,0.140000,0.280179,0.040000,-0.015825,-0.000445,-0.001727,-0.000125,0.000000,-0.000000,-0.000000
-2.180000,0.140000,0.320156,0.040000,-0.015545,-0.000423,-0.001802,-0.000089,0.000000,-0.000000,-0.000000
-2.180000,0.180000,0.321403,0.040000,-0.015468,-0.000396,-0.001834,-0.000120,0.000000,-0.000000,-0.000000
-2.220000,0.180000,0.281603,0.040000,-0.015748,-0.000412,-0.001756,-0.000168,0.000000,-0.000000,-0.000000
2.180000,0.140000,0.320156,0.040000,-0.004647,-0.000424,-0.001800,0.000089,0.000000,-0.000000,0.000000
2.220000,0.140000,0.280179,0.040000,-0.004727,-0.000447,-0.001725,0.000125,0.000000,-0.000000,0.000000
2.220000,0.180000,0.281603,0.040000,-0.004650,-0.000413,-0.001754,0.000168,0.000000,-0.000000,0.000000
2.180000,0.180000,0.321403,0.040000,-0.004570,-0.000397,-0.001832,0.000121,0.000000,-0.000000,0.000000
2.260000,0.140000,0.240208,0.040000,-0.004810,-0.000493,-0.001587,0.000161,0.000000,-0.000000,0.000000
2.300000,0.140000,0.200250,0.040000,-0.004895,-0.000543,-0.001462,0.000195,0.000000,-0.000000,0.000000
2.300000,0.180000,0.202237,0.040000,-0.004819,-0.000502,-0.001502,0.000250,0.000000,-0.000000,0.000000
2.260000,0.180000,0.241868,0.040000,-0.004733,-0.000454,-0.001626,0.000206,0.000000,-0.000000,0.000000
2.340000,0.140000,0.160312,0.040000,-0.004982,-0.000607,-0.001318,0.000231,-0.000000,-0.000000,0.000000
2.380000,0.140000,0.120416,0.040000,-0.005072,-0.000738,-0.001017,0.000351,-0.000000,-0.000000,0.000000
2.380000,0.180000,0.123693,0.040000,-0.004997,-0.000555,-0.001326,0.000320,0.000000,-0.000000,0.000000
2.340000,0.180000,0.162788,0.040000,-0.004907,-0.000557,-0.001371,0.000293,0.000000,-0.000000,0.000000
2.420000,0.140000,0.080623,0.040000,-0.005164,-0.005041,0.034428,0.024544,-0.000000,0.000000,0.000000
2.460000,0.140000,0.041231,0.040000,-0.005255,0.005974,0.104921,0.060846,-0.000000,0.000000,0.000000
2.460000,0.180000,0.050000,0.040000,-0.005185,0.033767,0.013692,0.034601,0.000000,-0.000000,0.000000
2.420000,0.180000,0.085440,0.040000,-0.005089,0.003465,0.002387,0.007041,0.000000,0.000000,0.000000
2.500000,0.140000,0.010000,0.040000,-0.005341,0.068197,0.048401,0.105266,0.000000,0.000000,0.000000
2.500000,0.180000,0.030000,0.040000,-0.005309,0.097056,0.041962,0.061111,0.000000,0.000000,0.000000
-2.500000,0.220000,0.030000,0.040000,-0.017673,2.213818,1.401904,0.570266,0.000000,0.000000,0.000000
-2.500000,0.260000,0.010000,0.040000,-0.007563,-1.562015,5.009383,0.409032,-0.000000,0.000000,0.000000
-2.460000,0.220000,0.050000,0.040000,-0.017405,0.446369,2.219858,0.321829,-0.000000,0.000000,0.000000
-2.420000,0.220000,0.085440,0.040000,-0.017113,-0.048075,0.728738,0.062577,-0.000000,0.000000,0.000000
-2.420000,0.260000,0.080623,0.040000,-0.017041,-0.207970,0.959505,0.156514,-0.000000,0.000000,0.000000
-2.460000,0.260000,0.041231,0.040000,-0.017338,-0.010096,3.002434,0.229786,-0.000000,0.000000,0.000000
-2.380000,0.220000,0.123693,0.040000,-0.016821,-0.001261,0.001276,-0.000409,-0.000000,0.000000,-0.000000
-2.340000,0.220000,0.162788,0.040000,-0.016530,-0.000517,-0.001403,-0.000359,0.000000,-0.000000,-0.000000
-2.340000,0.260000,0.160312,0.040000,-0.016456,-0.000445,-0.001478,-0.000428,0.000000,-0.000000,-0.000000
-2.380000,0.260000,0.120416,0.040000,-0.016747,-0.012989,0.034856,-0.000004,-0.000000,0.000000,-0.000000
-2.300000,0.220000,0.202237,0.040000,-0.016242,-0.000451,-0.001552,-0.000305,0.000000,-0.000000,-0.000000
-2.260000,0.220000,0.241868,0.040000,-0.015956,-0.000402,-0.001677,-0.000250,0.000000,-0.000000,-0.000000
-2.260000,0.260000,0.240208,0.040000,-0.015880,-0.000341,-0.001737,-0.000294,0.000000,-0.000000,-0.000000
-2.300000,0.260000,0.200250,0.040000,-0.016167,-0.000388,-0.001613,-0.000360,0.000000,-0.000000,-0.000000
-2.220000,0.220000,0.281603,0.040000,-0.015672,-0.000356,-0.001815,-0.000196,0.000000,-0.000000,-0.000000
-2.180000,0.220000,0.321403,0.040000,-0.015392,-0.000335,-0.001888,-0.000137,0.000000,-0.000000,-0.000000
-2.180000,0.260000,0.320156,0.040000,-0.015316,-0.000293,-0.001937,-0.000164,0.000000,-0.000000,-0.000000
-2.220000,0.260000,0.280179,0.040000,-0.015597,-0.000305,-0.001860,-0.000235,0.000000,-0.000000,-0.000000
2.180000,0.220000,0.321403,0.040000,-0.004493,-0.000336,-0.001886,0.000137,0.000000,-0.000000,0.000000
2.220000,0.220000,0.281603,0.040000,-0.004574,-0.000358,-0.001813,0.000196,0.000000,-0.000000,0.000000
2.220000,0.260000,0.280179,0.040000,-0.004498,-0.000306,-0.001858,0.000235,0.000000,-0.000000,0.000000
2.180000,0.260000,0.320156,0.040000,-0.004417,-0.000295,-0.001935,0.000164,0.000000,-0.000000,0.000000
2.260000,0.220000,0.241868,0.040000,-0.004657,-0.000404,-0.001675,0.000250,0.000000,-0.000000,0.000000
2.300000,0.220000,0.202237,0.040000,-0.004743,-0.000453,-0.001550,0.000305,0.000000,-0.000000,0.000000
2.300000,0.260000,0.200250,0.040000,-0.004668,-0.000390,-0.001611,0.000360,0.000000,-0.000000,0.000000
2.260000,0.260000,0.240208,0.040000,-0.004582,-0.000343,-0.001735,0.000294,0.000000,-0.000000,0.000000
2.340000,0.220000,0.162788,0.040000,-0.004832,-0.000519,-0.001402,0.000359,0.000000,-0.000000,0.000000
2.380000,0.220000,0.123693,0.040000,-0.004922,-0.000664,-0.001142,0.000398,-0.000000,-0.000000,0.000000
2.380000,0.260000,0.120416,0.040000,-0.004849,-0.000484,-0.001358,0.000526,0.000000,-0.000000,0.000000
2.340000,0.260000,0.160312,0.040000,-0.004757,-0.000446,-0.001477,0.000428,0.000000,-0.000000,0.000000
2.420000,0.220000,0.085440,0.040000,-0.005015,-0.001434,-0.000900,0.000423,-0.000000,-0.000000,0.000000
2.460000,0.220000,0.050000,0.040000,-0.005107,-0.004451,-0.001438,0.001529,-0.000000,0.000000,0.000000
2.460000,0.260000,0.041231,0.040000,-0.005039,-0.000457,-0.004775,0.004043,0.000000,-0.000000,0.000000
2.420000,0.260000,0.080623,0.040000,-0.004942,-0.000276,-0.002560,0.002193,0.000000,-0.000000,0.000000
2.500000,0.220000,0.030000,0.040000,-0.005174,-0.011690,0.010819,0.004820,-0.000000,0.000000,0.000000
2.500000,0.260000,0.010000,0.040000,-0.005145,-0.000655,-0.007280,0.006621,0.000000,-0.000000,0.000000
-2.500000,0.300000,0.050000,0.040000,-0.007535,-1.578011,4.973999,-0.443773,-0.000000,0.000000,-0.000000
-2.500000,0.340000,0.010000,0.040000,-0.017484,2.243039,1.407661,-0.587029,0.000000,0.000000,-0.000000
-2.460000,0.300000,0.064031,0.040000,-0.017265,-0.021156,2.990374,-0.249510,-0.000000,0.000000,-0.000000
-2.420000,0.300000,0.094340,0.040000,-0.016969,-0.208613,0.956232,-0.162140,-0.000000,0.000000,-0.000000
-2.420000,0.340000,0.080623,0.040000,-0.016898,-0.045284,0.711705,-0.072529,-0.000000,0.000000,-0.000000
-2.460000,0.340000,0.041231,0.040000,-0.017194,0.447795,2.169599,-0.344801,-0.000000,0.000000,-0.000000
-2.380000,0.300000,0.130000,0.040000,-0.016675,-0.012891,0.034640,-0.001058,-0.000000,0.000000,-0.000000
-2.340000,0.300000,0.167631,0.040000,-0.016382,-0.000375,-0.001544,-0.000488,0.000000,-0.000000,-0.000000
-2.340000,0.340000,0.160312,0.040000,-0.016309,-0.000292,-0.001624,-0.000560,0.000000,-0.000000,-0.000000
-2.380000,0.340000,0.120416,0.040000,-0.016603,-0.000979,0.000920,-0.000692,-0.000000,0.000000,-0.000000
-2.300000,0.300000,0.206155,0.040000,-0.016093,-0.000315,-0.001684,-0.000413,0.000000,-0.000000,-0.000000
-2.260000,0.300000,0.245153,0.040000,-0.015806,-0.000269,-0.001808,-0.000336,0.000000,-0.000000,-0.000000
-2.260000,0.340000,0.240208,0.040000,-0.015731,-0.000184,-0.001891,-0.000377,0.000000,-0.000000,-0.000000
-2.300000,0.340000,0.200250,0.040000,-0.016019,-0.000230,-0.001768,-0.000467,0.000000,-0.000000,-0.000000
-2.220000,0.300000,0.284429,0.040000,-0.015521,-0.000224,-0.001945,-0.000260,0.000000,-0.000000,-0.000000
-2.180000,0.300000,0.323883,0.040000,-0.015240,-0.000205,-0.002014,-0.000178,0.000000,-0.000000,-0.000000
-2.180000,0.340000,0.320156,0.040000,-0.015165,-0.000147,-0.002082,-0.000197,0.000000,-0.000000,-0.000000
-2.220000,0.340000,0.280179,0.040000,-0.015447,-0.000153,-0.002007,-0.000295,0.000000,-0.000000,-0.000000
2.180000,0.300000,0.323883,0.040000,-0.004342,-0.000207,-0.002013,0.000178,0.000000,-0.000000,0.000000
2.220000,0.300000,0.284429,0.040000,-0.004423,-0.000226,-0.001943,0.000260,0.000000,-0.000000,0.000000
2.220000,0.340000,0.280179,0.040000,-0.004348,-0.000154,-0.002005,0.000295,0.000000,-0.000000,0.000000
2.180000,0.340000,0.320156,0.040000,-0.004267,-0.000149,-0.002080,0.000197,0.000000,-0.000000,0.000000
2.260000,0.300000,0.245153,0.040000,-0.004507,-0.000270,-0.001806,0.000336,0.000000,-0.000000,0.000000
2.300000,0.300000,0.206155,0.040000,-0.004594,-0.000317,-0.001683,0.000413,0.000000,-0.000000,0.000000
2.300000,0.340000,0.200250,0.040000,-0.004521,-0.000231,-0.001766,0.000467,0.000000,-0.000000,0.000000
2.260000,0.340000,0.240208,0.040000,-0.004433,-0.000186,-0.001889,0.000377,0.000000,-0.000000,0.000000
2.340000,0.300000,0.167631,0.040000,-0.004684,-0.000377,-0.001543,0.000488,0.000000,-0.000000,0.000000
2.380000,0.300000,0.130000,0.040000,-0.004776,-0.000386,-0.001573,0.000534,0.000000,-0.000000,0.000000
2.380000,0.340000,0.120416,0.040000,-0.004704,-0.000395,-0.001448,0.000680,0.000000,-0.000000,0.000000
2.340000,0.340000,0.160312,0.040000,-0.004611,-0.000294,-0.001622,0.000560,0.000000,-0.000000,0.000000
2.420000,0.300000,0.094340,0.040000,-0.004870,0.000524,-0.004302,0.000598,0.000000,-0.000000,0.000000
2.460000,0.300000,0.064031,0.040000,-0.004967,0.001406,-0.010838,0.001618,0.000000,-0.000000,0.000000
2.460000,0.340000,0.041231,0.040000,-0.004896,-0.001386,-0.008451,-0.001820,0.000000,-0.000000,-0.000000
2.420000,0.340000,0.080623,0.040000,-0.004799,-0.000323,-0.003574,-0.000008,0.000000,-0.000000,-0.000000
2.500000,0.300000,0.050000,0.040000,-0.005118,0.015794,-0.022379,0.002251,0.000000,-0.000000,0.000000
2.500000,0.340000,0.010000,0.040000,-0.004986,-0.007965,0.000641,-0.003684,-0.000000,0.000000,-0.000000
-2.500000,0.380000,0.030000,0.040000,-0.007593,-1.406257,4.965870,-0.046504,-0.000000,0.000000,-0.000000
-2.500000,0.420000,0.030000,0.040000,-0.017327,1.387667,0.886288,-0.042688,0.000000,0.000000,-0.000000
-2.460000,0.380000,0.050000,0.040000,-0.017129,0.219368,2.071316,-0.013497,-0.000000,0.000000,-0.000000
-2.420000,0.380000,0.085440,0.040000,-0.016828,-0.130922,0.638903,-0.002950,-0.000000,0.000000,-0.000000
-2.420000,0.420000,0.085440,0.040000,-0.016758,-0.078346,0.663001,-0.005141,-0.000000,0.000000,-0.000000
-2.460000,0.420000,0.050000,0.040000,-0.017056,0.135392,1.990201,-0.011646,-0.000000,0.000000,-0.000000
-2.380000,0.380000,0.123693,0.040000,-0.016531,-0.012129,0.032581,-0.000706,-0.000000,0.000000,-0.000000
-2.340000,0.380000,0.162788,0.040000,-0.016237,-0.000182,-0.001736,-0.000621,0.000000,-0.000000,-0.000000
-2.340000,0.420000,0.162788,0.040000,-0.016165,-0.000081,-0.001827,-0.000687,0.000000,-0.000000,-0.000000
-2.380000,0.420000,0.123693,0.040000,-0.016460,-0.000807,0.000763,-0.000803,-0.000000,0.000000,-0.000000
-2.300000,0.380000,0.202237,0.040000,-0.015946,-0.000130,-0.001866,-0.000518,0.000000,-0.000000,-0.000000
-2.260000,0.380000,0.241868,0.040000,-0.015657,-0.000086,-0.001987,-0.000415,0.000000,-0.000000,-0.000000
-2.260000,0.420000,0.241868,0.040000,-0.015583,0.000025,-0.002097,-0.000451,0.000000,-0.000000,-0.000000
-2.300000,0.420000,0.202237,0.040000,-0.015873,-0.000017,-0.001976,-0.000569,0.000000,-0.000000,-0.000000
-2.220000,0.380000,0.281603,0.040000,-0.015372,-0.000045,-0.002122,-0.000316,0.000000,-0.000000,-0.000000
-2.180000,0.380000,0.321403,0.040000,-0.015090,-0.000030,-0.002186,-0.000207,0.000000,-0.000000,-0.000000
-2.180000,0.420000,0.321403,0.040000,-0.015015,0.000046,-0.002275,-0.000216,0.000000,-0.000000,-0.000000
-2.220000,0.420000,0.281603,0.040000,-0.015298,0.000049,-0.002204,-0.000343,0.000000,-0.000000,-0.000000
2.180000,0.380000,0.321403,0.040000,-0.004192,-0.000032,-0.002185,0.000207,0.000000,-0.000000,0.000000
2.220000,0.380000,0.281603,0.040000,-0.004274,-0.000047,-0.002120,0.000316,0.000000,-0.000000,0.000000
2.220000,0.420000,0.281603,0.040000,-0.004199,0.000047,-0.002202,0.000343,0.000000,-0.000000,0.000000
2.180000,0.420000,0.321403,0.040000,-0.004117,0.000044,-0.002274,0.000216,0.000000,-0.000000,0.000000
2.260000,0.380000,0.241868,0.040000,-0.004359,-0.000088,-0.001985,0.000415,0.000000,-0.000000,0.000000
2.300000,0.380000,0.202237,0.040000,-0.004447,-0.000131,-0.001865,0.000518,0.000000,-0.000000,0.000000
2.300000,0.420000,0.202237,0.040000,-0.004374,-0.000019,-0.001974,0.000569,0.000000,-0.000000,0.000000
2.260000,0.420000,0.241868,0.040000,-0.004285,0.000023,-0.002095,0.000451,0.000000,-0.000000,0.000000
2.340000,0.380000,0.162788,0.040000,-0.004539,-0.000184,-0.001734,0.000621,0.000000,-0.000000,0.000000
2.380000,0.380000,0.123693,0.040000,-0.004633,-0.000180,-0.001692,0.000706,0.000000,-0.000000,0.000000
2.380000,0.420000,0.123693,0.040000,-0.004562,-0.000236,-0.001553,0.000791,0.000000,-0.000000,0.000000
2.340000,0.420000,0.162788,0.040000,-0.004467,-0.000083,-0.001826,0.000687,0.000000,-0.000000,0.000000
2.420000,0.380000,0.085440,0.040000,-0.004730,0.000080,-0.001997,0.000016,0.000000,-0.000000,0.000000
2.460000,0.380000,0.050000,0.040000,-0.004831,0.000212,-0.002376,-0.001792,0.000000,-0.000000,-0.000000
2.460000,0.420000,0.050000,0.040000,-0.004757,-0.004503,-0.001867,0.002075,-0.000000,0.000000,0.000000
2.420000,0.420000,0.085440,0.040000,-0.004659,-0.001071,-0.001297,0.000894,-0.000000,-0.000000,0.000000
2.500000,0.380000,0.030000,0.040000,-0.004962,0.007333,-0.015903,-0.003637,0.000000,-0.000000,-0.000000
2.500000,0.420000,0.030000,0.040000,-0.004829,-0.018309,0.007461,0.002860,-0.000000,0.000000,0.000000
-2.500000,0.460000,0.010000,0.040000,-0.007663,-2.148507,4.381629,-0.553608,-0.000000,0.000000,-0.000000
-2.500000,0.500000,0.050000,0.040000,-0.017170,1.467803,0.951379,-0.427240,0.000000,0.000000,-0.000000
-2.460000,0.460000,0.041231,0.040000,-0.016993,-0.074339,1.899658,-0.325469,-0.000000,0.000000,-0.000000
-2.420000,0.460000,0.080623,0.040000,-0.016689,-0.160421,0.593126,-0.066406,-0.000000,0.000000,-0.000000
-2.420000,0.500000,0.094340,0.040000,-0.016620,-0.007429,0.363895,-0.155820,-0.000000,0.000000,-0.000000
-2.460000,0.500000,0.064031,0.040000,-0.016923,0.354636,1.126332,-0.240426,-0.000000,0.000000,-0.000000
-2.380000,0.460000,0.120416,0.040000,-0.016389,-0.011660,0.031664,-0.000920,-0.000000,0.000000,-0.000000
-2.340000,0.460000,0.160312,0.040000,-0.016093,0.000060,-0.001971,-0.000756,0.000000,-0.000000,-0.000000
-2.340000,0.500000,0.167631,0.040000,-0.016021,0.000202,-0.002108,-0.000814,0.000000,-0.000000,-0.000000
-2.380000,0.500000,0.130000,0.040000,-0.016319,-0.000231,-0.000595,-0.001434,0.000000,-0.000000,-0.000000
-2.300000,0.460000,0.200250,0.040000,-0.015799,0.000113,-0.002104,-0.000618,0.000000,-0.000000,-0.000000
-2.260000,0.460000,0.240208,0.040000,-0.015509,0.000151,-0.002221,-0.000485,0.000000,-0.000000,-0.000000
-2.260000,0.500000,0.245153,0.040000,-0.015435,0.000294,-0.002362,-0.000515,0.000000,-0.000000,-0.000000
-2.300000,0.500000,0.206155,0.040000,-0.015726,0.000258,-0.002247,-0.000665,0.000000,-0.000000,-0.000000
-2.220000,0.460000,0.280179,0.040000,-0.015223,0.000188,-0.002352,-0.000359,0.000000,-0.000000,-0.000000
-2.180000,0.460000,0.320156,0.040000,-0.014940,0.000196,-0.002410,-0.000219,0.000000,-0.000000,-0.000000
-2.180000,0.500000,0.323883,0.040000,-0.014865,0.000292,-0.002523,-0.000213,0.000000,-0.000000,-0.000000
-2.220000,0.500000,0.284429,0.040000,-0.015148,0.000307,-0.002456,-0.000375,0.000000,-0.000000,-0.000000
2.180000,0.460000,0.320156,0.040000,-0.004042,0.000194,-0.002408,0.000219,0.000000,-0.000000,0.000000
2.220000,0.460000,0.280179,0.040000,-0.004125,0.000186,-0.002350,0.000359,0.000000,-0.000000,0.000000
2.220000,0.500000,0.284429,0.040000,-0.004050,0.000305,-0.002454,0.000375,0.000000,-0.000000,0.000000
2.180000,0.500000,0.323883,0.040000,-0.003967,0.000290,-0.002521,0.000213,0.000000,-0.000000,0.000000
2.260000,0.460000,0.240208,0.040000,-0.004211,0.000149,-0.002220,0.000485,0.000000,-0.000000,0.000000
2.300000,0.460000,0.200250,0.040000,-0.004301,0.000111,-0.002102,0.000618,0.000000,-0.000000,0.000000
2.300000,0.500000,0.206155,0.040000,-0.004228,0.000256,-0.002245,0.000665,0.000000,-0.000000,0.000000
2.260000,0.500000,0.245153,0.040000,-0.004137,0.000292,-0.002360,0.000515,0.000000,-0.000000,0.000000
2.340000,0.460000,0.160312,0.040000,-0.004395,0.000058,-0.001969,0.000756,0.000000,-0.000000,0.000000
2.380000,0.460000,0.120416,0.040000,-0.004491,0.000024,-0.001848,0.000925,0.000000,-0.000000,0.000000
2.380000,0.500000,0.130000,0.040000,-0.004420,0.000193,-0.002148,0.000933,0.000000,-0.000000,0.000000
2.340000,0.500000,0.167631,0.040000,-0.004322,0.000200,-0.002106,0.000814,0.000000,-0.000000,0.000000
2.420000,0.460000,0.080623,0.040000,-0.004591,0.000261,-0.003187,0.002807,0.000000,-0.000000,0.000000
2.460000,0.460000,0.041231,0.040000,-0.004694,0.000088,-0.005639,0.004882,0.000000,-0.000000,0.000000
2.460000,0.500000,0.064031,0.040000,-0.004625,0.002076,-0.012347,0.002250,0.000000,-0.000000,0.000000
2.420000,0.500000,0.094340,0.040000,-0.004521,0.001177,-0.005148,0.001072,0.000000,-0.000000,0.000000
2.500000,0.460000,0.010000,0.040000,-0.004808,-0.000128,-0.008333,0.007734,0.000000,-0.000000,0.000000
2.500000,0.500000,0.050000,0.040000,-0.004790,0.017775,-0.025028,0.002979,0.000000,-0.000000,0.000000
-2.500000,0.540000,0.010000,0.040000,-0.017153,1.486405,0.934371,0.377207,0.000000,0.000000,0.000000
-2.500000,0.580000,0.030000,0.040000,-0.007729,-2.074315,4.271977,0.534094,-0.000000,0.000000,0.000000
-2.460000,0.540000,0.041231,0.040000,-0.016855,0.362766,1.098753,0.211630,-0.000000,0.000000,0.000000
-2.420000,0.540000,0.080623,0.040000,-0.016550,-0.004610,0.354642,0.144750,-0.000000,0.000000,0.000000
-2.420000,0.580000,0.085440,0.040000,-0.016481,-0.156638,0.573775,0.060279,-0.000000,0.000000,0.000000
-2.460000,0.580000,0.050000,0.040000,-0.016792,-0.082070,1.838636,0.301929,-0.000000,0.000000,0.000000
-2.380000,0.540000,0.120416,0.040000,-0.016248,-0.000019,-0.000955,-0.000611,0.000000,-0.000000,-0.000000
-2.340000,0.540000,0.160312,0.040000,-0.015948,0.000365,-0.002266,-0.000885,0.000000,-0.000000,-0.000000
-2.340000,0.580000,0.162788,0.040000,-0.015875,0.000562,-0.002466,-0.000942,0.000000,-0.000000,-0.000000
-2.380000,0.580000,0.123693,0.040000,-0.016176,-0.010821,0.030249,-0.001113,-0.000000,0.000000,-0.000000
-2.300000,0.540000,0.200250,0.040000,-0.015653,0.000421,-0.002408,-0.000710,0.000000,-0.000000,-0.000000
-2.260000,0.540000,0.240208,0.040000,-0.015361,0.000454,-0.002521,-0.000540,0.000000,-0.000000,-0.000000
-2.260000,0.580000,0.241868,0.040000,-0.015285,0.000633,-0.002699,-0.000560,0.000000,-0.000000,-0.000000
-2.300000,0.580000,0.202237,0.040000,-0.015578,0.000606,-0.002591,-0.000750,0.000000,-0.000000,-0.000000
-2.220000,0.540000,0.280179,0.040000,-0.015073,0.000482,-0.002643,-0.000383,0.000000,-0.000000,-0.000000
-2.180000,0.540000,0.320156,0.040000,-0.014789,0.000481,-0.002692,-0.000208,0.000000,-0.000000,-0.000000
-2.180000,0.580000,0.321403,0.040000,-0.014713,0.000600,-0.002833,-0.000180,0.000000,-0.000000,-0.000000
-2.220000,0.580000,0.281603,0.040000,-0.014997,0.000631,-0.002774,-0.000383,0.000000,-0.000000,-0.000000
2.180000,0.540000,0.320156,0.040000,-0.003891,0.000479,-0.002690,0.000208,0.000000,-0.000000,0.000000
2.220000,0.540000,0.280179,0.040000,-0.003975,0.000480,-0.002641,0.000383,0.000000,-0.000000,0.000000
2.220000,0.580000,0.281603,0.040000,-0.003899,0.000629,-0.002772,0.000383,0.000000,-0.000000,0.000000
2.180000,0.580000,0.321403,0.040000,-0.003814,0.000598,-0.002831,0.000181,0.000000,-0.000000,0.000000
2.260000,0.540000,0.240208,0.040000,-0.004062,0.000452,-0.002519,0.000540,0.000000,-0.000000,0.000000
2.300000,0.540000,0.200250,0.040000,-0.004154,0.000419,-0.002406,0.000710,0.000000,-0.000000,0.000000
2.300000,0.580000,0.202237,0.040000,-0.004080,0.000604,-0.002589,0.000750,0.000000,-0.000000,0.000000
2.260000,0.580000,0.241868,0.040000,-0.003987,0.000631,-0.002696,0.000560,0.000000,-0.000000,0.000000
2.340000,0.540000,0.160312,0.040000,-0.004250,0.000363,-0.002264,0.000885,0.000000,-0.000000,0.000000
2.380000,0.540000,0.120416,0.040000,-0.004349,0.000259,-0.002084,0.001092,0.000000,-0.000000,0.000000
2.380000,0.580000,0.123693,0.040000,-0.004278,0.000573,-0.002430,0.001113,0.000000,-0.000000,0.000000
2.340000,0.580000,0.162788,0.040000,-0.004177,0.000560,-0.002464,0.000942,0.000000,-0.000000,0.000000
2.420000,0.540000,0.080623,0.040000,-0.004452,0.000352,-0.004444,0.000424,0.000000,-0.000000,0.000000
2.460000,0.540000,0.041231,0.040000,-0.004556,-0.000780,-0.009832,-0.001516,0.000000,-0.000000,-0.000000
2.460000,0.580000,0.050000,0.040000,-0.004494,0.001042,-0.003174,-0.001543,0.000000,-0.000000,-0.000000
2.420000,0.580000,0.085440,0.040000,-0.004383,0.000867,-0.002769,0.000407,0.000000,-0.000000,0.000000
2.500000,0.540000,0.010000,0.040000,-0.004655,-0.008007,0.000269,-0.003527,-0.000000,0.000000,-0.000000
2.500000,0.580000,0.030000,0.040000,-0.004639,0.009153,-0.018431,-0.003561,0.000000,-0.000000,-0.000000
-2.500000,0.620000,0.030000,0.040000,-0.016996,2.010398,1.277205,0.509345,0.000000,0.000000,0.000000
-2.500000,0.660000,0.010000,0.040000,-0.007829,-1.412073,4.548204,0.363864,-0.000000,0.000000,0.000000
-2.460000,0.620000,0.050000,0.040000,-0.016718,0.405577,2.020996,0.286928,-0.000000,0.000000,0.000000
-2.420000,0.620000,0.085440,0.040000,-0.016411,-0.042988,0.662716,0.054301,-0.000000,0.000000,0.000000
-2.420000,0.660000,0.080623,0.040000,-0.016340,-0.187101,0.869471,0.140043,-0.000000,0.000000,0.000000
-2.460000,0.660000,0.041231,0.040000,-0.016655,-0.005640,2.724395,0.204014,-0.000000,0.000000,0.000000
-2.380000,0.620000,0.123693,0.040000,-0.016104,0.000046,-0.000150,-0.001222,0.000000,-0.000000,-0.000000
-2.340000,0.620000,0.162788,0.040000,-0.015801,0.000756,-0.002650,-0.001004,0.000000,-0.000000,-0.000000
-2.340000,0.660000,0.160312,0.040000,-0.015726,0.001005,-0.002901,-0.001066,0.000000,-0.000000,-0.000000
-2.380000,0.660000,0.120416,0.040000,-0.016031,-0.010377,0.030102,-0.000876,-0.000000,0.000000,-0.000000
-2.300000,0.620000,0.202237,0.040000,-0.015503,0.000810,-0.002793,-0.000787,0.000000,-0.000000,-0.000000
-2.260000,0.620000,0.241868,0.040000,-0.015209,0.000833,-0.002898,-0.000574,0.000000,-0.000000,-0.000000
-2.260000,0.660000,0.240208,0.040000,-0.015131,0.001056,-0.003121,-0.000580,0.000000,-0.000000,-0.000000
-2.300000,0.660000,0.200250,0.040000,-0.015426,0.001042,-0.003024,-0.000819,0.000000,-0.000000,-0.000000
-2.220000,0.620000,0.281603,0.040000,-0.014920,0.000849,-0.003007,-0.000379,0.000000,-0.000000,-0.000000
-2.180000,0.620000,0.321403,0.040000,-0.014635,0.000833,-0.003042,-0.000163,0.000000,-0.000000,-0.000000
-2.180000,0.660000,0.320156,0.040000,-0.014556,0.000981,-0.003218,-0.000105,0.000000,-0.000000,-0.000000
-2.220000,0.660000,0.280179,0.040000,-0.014841,0.001033,-0.003170,-0.000357,0.000000,-0.000000,-0.000000
2.180000,0.620000,0.321403,0.040000,-0.003737,0.000831,-0.003040,0.000164,0.000000,-0.000000,0.000000
2.220000,0.620000,0.281603,0.040000,-0.003821,0.000847,-0.003005,0.000379,0.000000,-0.000000,0.000000
2.220000,0.660000,0.280179,0.040000,-0.003743,0.001031,-0.003168,0.000358,0.000000,-0.000000,0.000000
2.180000,0.660000,0.320156,0.040000,-0.003658,0.000978,-0.003216,0.000106,0.000000,-0.000000,0.000000
2.260000,0.620000,0.241868,0.040000,-0.003911,0.000831,-0.002895,0.000574,0.000000,-0.000000,0.000000
2.300000,0.620000,0.202237,0.040000,-0.004005,0.000808,-0.002791,0.000787,0.000000,-0.000000,0.000000
2.300000,0.660000,0.200250,0.040000,-0.003928,0.001040,-0.003021,0.000819,0.000000,-0.000000,0.000000
2.260000,0.660000,0.240208,0.040000,-0.003833,0.001054,-0.003118,0.000580,0.000000,-0.000000,0.000000
2.340000,0.620000,0.162788,0.040000,-0.004103,0.000754,-0.002647,0.001004,0.000000,-0.000000,0.000000
2.380000,0.620000,0.123693,0.040000,-0.004206,0.000589,-0.002353,0.001208,0.000000,-0.000000,0.000000
2.380000,0.660000,0.120416,0.040000,-0.004133,0.000978,-0.002782,0.001351,0.000000,-0.000000,0.000000
2.340000,0.660000,0.160312,0.040000,-0.004028,0.001002,-0.002898,0.001066,0.000000,-0.000000,0.000000
2.420000,0.620000,0.085440,0.040000,-0.004312,-0.000375,-0.002071,0.001439,0.000000,-0.000000,0.000000
2.460000,0.620000,0.050000,0.040000,-0.004420,-0.004379,-0.002748,0.002918,-0.000000,-0.000000,0.000000
2.460000,0.660000,0.041231,0.040000,-0.004357,0.001122,-0.007331,0.006152,0.000000,-0.000000,0.000000
2.420000,0.660000,0.080623,0.040000,-0.004242,0.001280,-0.004401,0.003640,0.000000,-0.000000,0.000000
2.500000,0.620000,0.030000,0.040000,-0.004498,-0.020305,0.007880,0.003927,-0.000000,0.000000,0.000000
2.500000,0.660000,0.010000,0.040000,-0.004485,0.000875,-0.010416,0.009546,0.000000,-0.000000,0.000000
-2.500000,0.700000,0.050000,0.040000,-0.007817,-1.432215,4.502688,-0.410097,-0.000000,0.000000,-0.000000
-2.500000,0.740000,0.010000,0.040000,-0.016821,2.029028,1.273006,-0.541639,0.000000,0.000000,-0.000000
-2.460000,0.700000,0.064031,0.040000,-0.016583,-0.019734,2.708831,-0.231027,-0.000000,0.000000,-0.000000
-2.420000,0.700000,0.094340,0.040000,-0.016267,-0.187796,0.865159,-0.148881,-0.000000,0.000000,-0.000000
-2.420000,0.740000,0.080623,0.040000,-0.016193,-0.038899,0.640550,-0.068664,-0.000000,0.000000,-0.000000
-2.460000,0.740000,0.041231,0.040000,-0.016510,0.407603,1.956683,-0.318279,-0.000000,0.000000,-0.000000
-2.380000,0.700000,0.130000,0.040000,-0.015956,-0.010090,0.029659,-0.001827,-0.000000,0.000000,-0.000000
-2.340000,0.700000,0.167631,0.040000,-0.015649,0.001261,-0.003153,-0.001114,0.000000,-0.000000,-0.000000
-2.340000,0.740000,0.160312,0.040000,-0.015571,0.001554,-0.003442,-0.001173,0.000000,-0.000000,-0.000000
-2.380000,0.740000,0.120416,0.040000,-0.015879,0.000925,-0.001119,-0.001544,0.000000,-0.000000,-0.000000
-2.300000,0.700000,0.206155,0.040000,-0.015348,0.001299,-0.003280,-0.000843,0.000000,-0.000000,-0.000000
-2.260000,0.700000,0.245153,0.040000,-0.015052,0.001305,-0.003369,-0.000577,0.000000,-0.000000,-0.000000
-2.260000,0.740000,0.240208,0.040000,-0.014970,0.001583,-0.003648,-0.000561,0.000000,-0.000000,-0.000000
-2.300000,0.740000,0.200250,0.040000,-0.015268,0.001588,-0.003567,-0.000861,0.000000,-0.000000,-0.000000
-2.220000,0.700000,0.284429,0.040000,-0.014761,0.001302,-0.003458,-0.000336,0.000000,-0.000000,-0.000000
-2.180000,0.700000,0.323883,0.040000,-0.014476,0.001266,-0.003475,-0.000071,0.000000,-0.000000,-0.000000
-2.180000,0.740000,0.320156,0.040000,-0.014393,0.001446,-0.003691,0.000030,0.000000,-0.000000,0.000000
-2.220000,0.740000,0.280179,0.040000,-0.014679,0.001530,-0.003660,-0.000282,0.000000,-0.000000,-0.000000
2.180000,0.700000,0.323883,0.040000,-0.003578,0.001263,-0.003472,0.000071,0.000000,-0.000000,0.000000
2.220000,0.700000,0.284429,0.040000,-0.003663,0.001300,-0.003456,0.000337,0.000000,-0.000000,0.000000
2.220000,0.740000,0.280179,0.040000,-0.003581,0.001527,-0.003658,0.000282,0.000000,-0.000000,0.000000
2.180000,0.740000,0.320156,0.040000,-0.003495,0.001443,-0.003688,-0.000029,0.000000,-0.000000,-0.000000
2.260000,0.700000,0.245153,0.040000,-0.003754,0.001303,-0.003367,0.000577,0.000000,-0.000000,0.000000
2.300000,0.700000,0.206155,0.040000,-0.003850,0.001297,-0.003277,0.000844,0.000000,-0.000000,0.000000
2.300000,0.740000,0.200250,0.040000,-0.003770,0.001585,-0.003564,0.000861,0.000000,-0.000000,0.000000
2.260000,0.740000,0.240208,0.040000,-0.003672,0.001580,-0.003645,0.000562,0.000000,-0.000000,0.000000
2.340000,0.700000,0.167631,0.040000,-0.003951,0.001259,-0.003151,0.001114,0.000000,-0.000000,0.000000
2.380000,0.700000,0.130000,0.040000,-0.004058,0.001265,-0.003224,0.001352,0.000000,-0.000000,0.000000
2.380000,0.740000,0.120416,0.040000,-0.003981,0.001452,-0.003258,0.001529,0.000000,-0.000000,0.000000
2.340000,0.740000,0.160312,0.040000,-0.003873,0.001551,-0.003439,0.001173,0.000000,-0.000000,0.000000
2.420000,0.700000,0.094340,0.040000,-0.004169,0.002408,-0.006779,0.001617,0.000000,-0.000000,0.000000
2.460000,0.700000,0.064031,0.040000,-0.004285,0.003354,-0.015316,0.003092,0.000000,-0.000000,0.000000
2.460000,0.740000,0.041231,0.040000,-0.004212,0.000319,-0.012512,-0.001340,0.000000,-0.000000,-0.000000
2.420000,0.740000,0.080623,0.040000,-0.004095,0.001590,-0.006094,0.000876,0.000000,-0.000000,0.000000
2.500000,0.700000,0.050000,0.040000,-0.004473,0.021719,-0.030300,0.004003,0.000000,-0.000000,0.000000
2.500000,0.740000,0.010000,0.040000,-0.004323,-0.008217,-0.000401,-0.003655,-0.000000,0.000000,-0.000000
-2.500000,0.780000,0.030000,0.040000,-0.007936,-1.239256,4.469927,-0.043044,-0.000000,0.000000,-0.000000
-2.500000,0.820000,0.030000,0.040000,-0.016646,1.575328,1.008653,0.192751,0.000000,0.000000,0.000000
-2.460000,0.780000,0.050000,0.040000,-0.016442,0.199378,1.860114,-0.018638,-0.000000,0.000000,-0.000000
-2.420000,0.780000,0.085440,0.040000,-0.016117,-0.115614,0.572173,-0.004765,-0.000000,0.000000,-0.000000
-2.420000,0.820000,0.085440,0.040000,-0.016037,-0.053911,0.605282,0.019542,-0.000000,0.000000,0.000000
-2.460000,0.820000,0.050000,0.040000,-0.016359,0.249163,1.835062,0.119519,-0.000000,0.000000,0.000000
-2.380000,0.780000,0.123693,0.040000,-0.015800,-0.008810,0.027039,-0.001533,-0.000000,0.000000,-0.000000
-2.340000,0.780000,0.162788,0.040000,-0.015489,0.001899,-0.003792,-0.001211,0.000000,-0.000000,-0.000000
-2.340000,0.820000,0.162788,0.040000,-0.015405,0.002254,-0.004137,-0.001251,0.000000,-0.000000,-0.000000
-2.380000,0.820000,0.123693,0.040000,-0.015718,0.001569,-0.001745,-0.001651,0.000000,-0.000000,-0.000000
-2.300000,0.780000,0.202237,0.040000,-0.015185,0.001912,-0.003892,-0.000867,0.000000,-0.000000,-0.000000
-2.260000,0.780000,0.241868,0.040000,-0.014886,0.001892,-0.003959,-0.000532,0.000000,-0.000000,-0.000000
-2.260000,0.820000,0.241868,0.040000,-0.014799,0.002238,-0.004306,-0.000485,0.000000,-0.000000,-0.000000
-2.300000,0.820000,0.202237,0.040000,-0.015099,0.002272,-0.004252,-0.000860,0.000000,-0.000000,-0.000000
-2.220000,0.780000,0.281603,0.040000,-0.014594,0.001861,-0.004015,-0.000236,0.000000,-0.000000,-0.000000
-2.180000,0.780000,0.321403,0.040000,-0.014308,0.001793,-0.004005,0.000089,0.000000,-0.000000,0.000000
-2.180000,0.820000,0.321403,0.040000,-0.014221,0.002013,-0.004270,0.000250,0.000000,-0.000000,0.000000
-2.220000,0.820000,0.281603,0.040000,-0.014506,0.002140,-0.004265,-0.000134,0.000000,-0.000000,-0.000000
2.180000,0.780000,0.321403,0.040000,-0.003410,0.001790,-0.004002,-0.000088,0.000000,-0.000000,-0.000000
2.220000,0.780000,0.281603,0.040000,-0.003496,0.001858,-0.004012,0.000236,0.000000,-0.000000,0.000000
2.220000,0.820000,0.281603,0.040000,-0.003409,0.002137,-0.004263,0.000135,0.000000,-0.000000,0.000000
2.180000,0.820000,0.321403,0.040000,-0.003323,0.002010,-0.004267,-0.000249,0.000000,-0.000000,-0.000000
2.260000,0.780000,0.241868,0.040000,-0.003588,0.001890,-0.003956,0.000532,0.000000,-0.000000,0.000000
2.300000,0.780000,0.202237,0.040000,-0.003687,0.001909,-0.003889,0.000867,0.000000,-0.000000,0.000000
2.300000,0.820000,0.202237,0.040000,-0.003601,0.002269,-0.004249,0.000861,0.000000,-0.000000,0.000000
2.260000,0.820000,0.241868,0.040000,-0.003501,0.002234,-0.004303,0.000485,0.000000,-0.000000,0.000000
2.340000,0.780000,0.162788,0.040000,-0.003791,0.001896,-0.003789,0.001211,0.000000,-0.000000,0.000000
2.380000,0.780000,0.123693,0.040000,-0.003902,0.001937,-0.003787,0.001532,0.000000,-0.000000,0.000000
2.380000,0.820000,0.123693,0.040000,-0.003820,0.002078,-0.003813,0.001634,0.000000,-0.000000,0.000000
2.340000,0.820000,0.162788,0.040000,-0.003707,0.002251,-0.004134,0.001250,0.000000,-0.000000,0.000000
2.420000,0.780000,0.085440,0.040000,-0.004019,0.002311,-0.004205,0.000778,0.000000,-0.000000,0.000000
2.460000,0.780000,0.050000,0.040000,-0.004144,0.002573,-0.004672,-0.001472,0.000000,-0.000000,-0.000000
2.460000,0.820000,0.050000,0.040000,-0.004061,-0.004229,-0.004380,0.004140,-0.000000,-0.000000,0.000000
2.420000,0.820000,0.085440,0.040000,-0.003939,0.000874,-0.003494,0.002097,0.000000,-0.000000,0.000000
2.500000,0.780000,0.030000,0.040000,-0.004314,0.012628,-0.023342,-0.003841,0.000000,-0.000000,-0.000000
2.500000,0.820000,0.030000,0.040000,-0.004148,-0.024275,0.008790,0.005571,-0.000000,0.000000,0.000000
-2.500000,0.860000,0.010000,0.040000,-0.008077,-1.607788,4.067826,-0.091504,-0.000000,0.000000,-0.000000
-2.500000,0.900000,0.050000,0.040000,-0.012350,-0.000617,2.485360,-0.391498,-0.000000,0.000000,-0.000000
-2.460000,0.860000,0.041231,0.040000,-0.016287,-0.030582,2.108433,-0.058433,-0.000000,0.000000,-0.000000
-2.420000,0.860000,0.080623,0.040000,-0.015955,-0.155718,0.665171,0.032272,-0.000000,0.000000,0.000000
-2.420000,0.900000,0.094340,0.040000,-0.015868,-0.087461,0.558160,-0.140652,-0.000000,0.000000,-0.000000
-2.460000,0.900000,0.064031,0.040000,-0.016201,0.149566,1.746828,-0.220844,-0.000000,0.000000,-0.000000
-2.380000,0.860000,0.120416,0.040000,-0.015633,-0.007789,0.025751,-0.001557,-0.000000,0.000000,-0.000000
-2.340000,0.860000,0.160312,0.040000,-0.015317,0.002692,-0.004583,-0.001281,0.000000,-0.000000,-0.000000
-2.340000,0.900000,0.167631,0.040000,-0.015225,0.003157,-0.005048,-0.001287,0.000000,-0.000000,-0.000000
-2.380000,0.900000,0.130000,0.040000,-0.015543,-0.002225,0.010678,-0.002193,-0.000000,0.000000,-0.000000
-2.300000,0.860000,0.200250,0.040000,-0.015009,0.002680,-0.004663,-0.000838,0.000000,-0.000000,-0.000000
-2.260000,0.860000,0.240208,0.040000,-0.014708,0.002623,-0.004695,-0.000416,0.000000,-0.000000,-0.000000
-2.260000,0.900000,0.245153,0.040000,-0.014614,0.003053,-0.005131,-0.000321,0.000000,-0.000000,-0.000000
-2.300000,0.900000,0.206155,0.040000,-0.014915,0.003135,-0.005121,-0.000794,0.000000,-0.000000,-0.000000
-2.220000,0.860000,0.280179,0.040000,-0.014415,0.002547,-0.004702,-0.000052,0.000000,-0.000000,-0.000000
-2.180000,0.860000,0.320156,0.040000,-0.014130,0.002433,-0.004652,0.000345,0.000000,-0.000000,0.000000
-2.180000,0.900000,0.323883,0.040000,-0.014035,0.002701,-0.004977,0.000593,0.000000,-0.000000,0.000000
-2.220000,0.900000,0.284429,0.040000,-0.014320,0.002891,-0.005012,0.000120,0.000000,-0.000000,0.000000
2.180000,0.860000,0.320156,0.040000,-0.003232,0.002430,-0.004649,-0.000344,0.000000,-0.000000,-0.000000
2.220000,0.860000,0.280179,0.040000,-0.003318,0.002544,-0.004699,0.000052,0.000000,-0.000000,0.000000
2.220000,0.900000,0.284429,0.040000,-0.003222,0.002888,-0.005008,-0.000119,0.000000,-0.000000,-0.000000
2.180000,0.900000,0.323883,0.040000,-0.003137,0.002697,-0.004974,-0.000592,0.000000,-0.000000,-0.000000
2.260000,0.860000,0.240208,0.040000,-0.003411,0.002620,-0.004692,0.000416,0.000000,-0.000000,0.000000
2.300000,0.860000,0.200250,0.040000,-0.003511,0.002676,-0.004659,0.000838,0.000000,-0.000000,0.000000
2.300000,0.900000,0.206155,0.040000,-0.003417,0.003131,-0.005117,0.000794,0.000000,-0.000000,0.000000
2.260000,0.900000,0.245153,0.040000,-0.003316,0.003049,-0.005127,0.000321,0.000000,-0.000000,0.000000
2.340000,0.860000,0.160312,0.040000,-0.003619,0.002689,-0.004580,0.001281,0.000000,-0.000000,0.000000
2.380000,0.860000,0.120416,0.040000,-0.003735,0.002703,-0.004491,0.001779,0.000000,-0.000000,0.000000
2.380000,0.900000,0.130000,0.040000,-0.003645,0.003207,-0.005204,0.001749,0.000000,-0.000000,0.000000
2.340000,0.900000,0.167631,0.040000,-0.003527,0.003154,-0.005044,0.001287,0.000000,-0.000000,0.000000
2.420000,0.860000,0.080623,0.040000,-0.003857,0.003139,-0.006659,0.004849,0.000000,-0.000000,0.000000
2.460000,0.860000,0.041231,0.040000,-0.003989,0.003013,-0.010515,0.008198,0.000000,-0.000000,0.000000
2.460000,0.900000,0.064031,0.040000,-0.003903,0.005736,-0.020958,0.004304,0.000000,-0.000000,0.000000
2.420000,0.900000,0.094340,0.040000,-0.003771,0.004674,-0.009842,0.002256,0.000000,-0.000000,0.000000
2.500000,0.860000,0.010000,0.040000,-0.004140,0.002707,-0.014363,0.012637,0.000000,-0.000000,0.000000
2.500000,0.900000,0.050000,0.040000,-0.004132,0.029249,-0.040371,0.005565,0.000000,-0.000000,0.000000
-2.500000,0.940000,0.010000,0.040000,-0.016442,1.593187,0.999640,-0.092977,0.000000,0.000000,-0.000000
-2.500000,0.980000,0.030000,0.040000,-0.008237,-1.509415,3.884957,0.189670,-0.000000,0.000000,0.000000
-2.460000,0.940000,0.041231,0.040000,-0.016112,0.352844,1.376802,-0.059092,-0.000000,0.000000,-0.000000
-2.420000,0.940000,0.080623,0.040000,-0.015777,-0.016546,0.446403,0.029717,-0.000000,0.000000,0.000000
-2.420000,0.980000,0.085440,0.040000,-0.015680,-0.118677,0.509838,0.022370,-0.000000,0.000000,0.000000
-2.460000,0.980000,0.050000,0.040000,-0.016027,0.054133,1.653785,0.117074,-0.000000,0.000000,0.000000
-2.380000,0.940000,0.120416,0.040000,-0.015448,0.003262,-0.003946,-0.001736,0.000000,-0.000000,-0.000000
-2.340000,0.940000,0.160312,0.040000,-0.015128,0.003692,-0.005583,-0.001295,0.000000,-0.000000,-0.000000
-2.340000,0.980000,0.162788,0.040000,-0.015024,0.004318,-0.006223,-0.001261,0.000000,-0.000000,-0.000000
-2.380000,0.980000,0.123693,0.040000,-0.015347,-0.005480,0.022158,-0.001880,-0.000000,0.000000,-0.000000
-2.300000,0.940000,0.200250,0.040000,-0.014816,0.003648,-0.005639,-0.000726,0.000000,-0.000000,-0.000000
-2.260000,0.940000,0.240208,0.040000,-0.014514,0.003534,-0.005619,-0.000193,0.000000,-0.000000,-0.000000
-2.260000,0.980000,0.241868,0.040000,-0.014408,0.004072,-0.006167,-0.000024,0.000000,-0.000000,-0.000000
-2.300000,0.980000,0.202237,0.040000,-0.014711,0.004228,-0.006227,-0.000624,0.000000,-0.000000,-0.000000
-2.220000,0.940000,0.280179,0.040000,-0.014220,0.003391,-0.005548,0.000257,0.000000,-0.000000,0.000000
-2.180000,0.940000,0.320156,0.040000,-0.013936,0.003207,-0.005440,0.000740,0.000000,-0.000000,0.000000
-2.180000,0.980000,0.321403,0.040000,-0.013832,0.003533,-0.005837,0.001115,0.000000,-0.000000,0.000000
-2.220000,0.980000,0.281603,0.040000,-0.014115,0.003814,-0.005931,0.000531,0.000000,-0.000000,0.000000
2.180000,0.940000,0.320156,0.040000,-0.003038,0.003204,-0.005437,-0.000739,0.000000,-0.000000,-0.000000
2.220000,0.940000,0.280179,0.040000,-0.003123,0.003387,-0.005544,-0.000256,0.000000,-0.000000,-0.000000
2.220000,0.980000,0.281603,0.040000,-0.003018,0.003810,-0.005927,-0.000530,0.000000,-0.000000,-0.000000
2.180000,0.980000,0.321403,0.040000,-0.002934,0.003529,-0.005833,-0.001113,0.000000,-0.000000,-0.000000
2.260000,0.940000,0.240208,0.040000,-0.003216,0.003530,-0.005615,0.000193,0.000000,-0.000000,0.000000
2.300000,0.940000,0.200250,0.040000,-0.003319,0.003644,-0.005635,0.000727,0.000000,-0.000000,0.000000
2.300000,0.980000,0.202237,0.040000,-0.003214,0.004224,-0.006223,0.000625,0.000000,-0.000000,0.000000
2.260000,0.980000,0.241868,0.040000,-0.003111,0.004068,-0.006163,0.000024,0.000000,-0.000000,0.000000
2.340000,0.940000,0.160312,0.040000,-0.003430,0.003688,-0.005579,0.001295,0.000000,-0.000000,0.000000
2.380000,0.940000,0.120416,0.040000,-0.003550,0.003624,-0.005424,0.001939,0.000000,-0.000000,0.000000
2.380000,0.980000,0.123693,0.040000,-0.003450,0.004445,-0.006313,0.001880,0.000000,-0.000000,0.000000
2.340000,0.980000,0.162788,0.040000,-0.003327,0.004314,-0.006218,0.001261,0.000000,-0.000000,0.000000
2.420000,0.940000,0.080623,0.040000,-0.003679,0.003870,-0.009196,0.001317,0.000000,-0.000000,0.000000
2.460000,0.940000,0.041231,0.040000,-0.003814,0.002336,-0.017599,-0.001420,0.000000,-0.000000,-0.000000
2.460000,0.980000,0.050000,0.040000,-0.003729,0.005427,-0.007511,-0.001753,0.000000,-0.000000,-0.000000
2.420000,0.980000,0.085440,0.040000,-0.003583,0.004993,-0.006910,0.001053,0.000000,-0.000000,0.000000
2.500000,0.940000,0.010000,0.040000,-0.003944,-0.008707,-0.001646,-0.004319,-0.000000,0.000000,-0.000000
2.500000,0.980000,0.030000,0.040000,-0.003937,0.019176,-0.032688,-0.004783,0.000000,-0.000000,-0.000000
-2.500000,1.020000,0.030000,0.040000,-0.016213,1.111837,0.725362,-0.045911,0.000000,0.000000,-0.000000
-2.500000,1.060000,0.010000,0.040000,-0.008437,-1.694035,3.533036,-0.456904,-0.000000,0.000000,-0.000000
-2.460000,1.020000,0.050000,0.040000,-0.015917,0.115103,1.625023,-0.022201,-0.000000,0.000000,-0.000000
-2.420000,1.020000,0.085440,0.040000,-0.015576,-0.059456,0.537989,-0.010850,-0.000000,0.000000,-0.000000
-2.420000,1.060000,0.080623,0.040000,-0.015465,-0.122554,0.475876,-0.055822,-0.000000,0.000000,-0.000000
-2.460000,1.060000,0.041231,0.040000,-0.015820,-0.044521,1.538558,-0.268745,-0.000000,0.000000,-0.000000
-2.380000,1.020000,0.123693,0.040000,-0.015240,0.004375,-0.004668,-0.001982,0.000000,-0.000000,-0.000000
-2.340000,1.020000,0.162788,0.040000,-0.014914,0.004986,-0.006886,-0.001212,0.000000,-0.000000,-0.000000
-2.340000,1.060000,0.160312,0.040000,-0.014796,0.005803,-0.007724,-0.001125,0.000000,-0.000000,-0.000000
-2.380000,1.060000,0.120416,0.040000,-0.015124,-0.003469,0.019266,-0.002049,-0.000000,0.000000,-0.000000
-2.300000,1.020000,0.202237,0.040000,-0.014600,0.004880,-0.006888,-0.000483,0.000000,-0.000000,-0.000000
-2.260000,1.020000,0.241868,0.040000,-0.014296,0.004675,-0.006782,0.000196,0.000000,-0.000000,0.000000
-2.260000,1.060000,0.240208,0.040000,-0.014177,0.005352,-0.007475,0.000479,0.000000,-0.000000,0.000000
-2.300000,1.060000,0.200250,0.040000,-0.014480,0.005623,-0.007645,-0.000289,0.000000,-0.000000,-0.000000
-2.220000,1.020000,0.281603,0.040000,-0.014004,0.004428,-0.006590,0.000751,0.000000,-0.000000,0.000000
-2.180000,1.020000,0.321403,0.040000,-0.013722,0.004140,-0.006396,0.001338,0.000000,-0.000000,0.000000
-2.180000,1.060000,0.320156,0.040000,-0.013605,0.004533,-0.006879,0.001897,0.000000,-0.000000,0.000000
-2.220000,1.060000,0.280179,0.040000,-0.013885,0.004949,-0.007064,0.001181,0.000000,-0.000000,0.000000
2.180000,1.020000,0.321403,0.040000,-0.002824,0.004136,-0.006392,-0.001336,0.000000,-0.000000,-0.000000
2.220000,1.020000,0.281603,0.040000,-0.002906,0.004423,-0.006585,-0.000750,0.000000,-0.000000,-0.000000
2.220000,1.060000,0.280179,0.040000,-0.002788,0.004944,-0.007059,-0.001179,0.000000,-0.000000,-0.000000
2.180000,1.060000,0.320156,0.040000,-0.002708,0.004528,-0.006874,-0.001894,0.000000,-0.000000,-0.000000
2.260000,1.020000,0.241868,0.040000,-0.002999,0.004671,-0.006778,-0.000195,0.000000,-0.000000,-0.000000
2.300000,1.020000,0.202237,0.040000,-0.003102,0.004875,-0.006884,0.000483,0.000000,-0.000000,0.000000
2.300000,1.060000,0.200250,0.040000,-0.002983,0.005617,-0.007640,0.000290,0.000000,-0.000000,0.000000
2.260000,1.060000,0.240208,0.040000,-0.002880,0.005347,-0.007470,-0.000478,0.000000,-0.000000,-0.000000
2.340000,1.020000,0.162788,0.040000,-0.003217,0.004981,-0.006881,0.001212,0.000000,-0.000000,0.000000
2.380000,1.020000,0.123693,0.040000,-0.003342,0.004839,-0.006559,0.001959,0.000000,-0.000000,0.000000
2.380000,1.060000,0.120416,0.040000,-0.003227,0.005943,-0.007744,0.002063,0.000000,-0.000000,0.000000
2.340000,1.060000,0.160312,0.040000,-0.003099,0.005797,-0.007718,0.001125,0.000000,-0.000000,0.000000
2.420000,1.020000,0.085440,0.040000,-0.003478,0.003214,-0.006204,0.002894,0.000000,-0.000000,0.000000
2.460000,1.020000,0.050000,0.040000,-0.003619,-0.003956,-0.007504,0.006039,-0.000000,-0.000000,0.000000
2.460000,1.060000,0.041231,0.040000,-0.003523,0.006629,-0.016637,0.011647,0.000000,-0.000000,0.000000
2.420000,1.060000,0.080623,0.040000,-0.003367,0.006677,-0.011002,0.006665,0.000000,-0.000000,0.000000
2.500000,1.020000,0.030000,0.040000,-0.003715,-0.031825,0.010488,0.008289,-0.000000,0.000000,0.000000
2.500000,1.060000,0.010000,0.040000,-0.003708,0.006215,-0.021946,0.018095,0.000000,-0.000000,0.000000
-2.500000,1.100000,0.050000,0.040000,-0.015936,1.133778,0.776839,-0.370030,0.000000,0.000000,-0.000000
-2.500000,1.140000,0.010000,0.040000,-0.015927,1.178888,0.738514,0.255833,0.000000,0.000000,0.000000
-2.460000,1.100000,0.064031,0.040000,-0.015700,0.277610,0.910830,-0.209073,-0.000000,0.000000,-0.000000
-2.420000,1.100000,0.094340,0.040000,-0.015343,-0.002357,0.289854,-0.129835,-0.000000,0.000000,-0.000000
-2.420000,1.140000,0.080623,0.040000,-0.015211,0.005030,0.268274,0.104086,-0.000000,0.000000,0.000000
-2.460000,1.140000,0.041231,0.040000,-0.015571,0.297978,0.848488,0.142819,-0.000000,0.000000,0.000000
-2.380000,1.100000,0.130000,0.040000,-0.014999,0.006370,-0.007200,-0.002318,0.000000,-0.000000,-0.000000
-2.340000,1.100000,0.167631,0.040000,-0.014669,0.006694,-0.008626,-0.000974,0.000000,-0.000000,-0.000000
-2.340000,1.140000,0.160312,0.040000,-0.014530,0.007734,-0.009682,-0.000785,0.000000,-0.000000,-0.000000
-2.380000,1.140000,0.120416,0.040000,-0.014863,0.007619,-0.008791,-0.001689,0.000000,-0.000000,-0.000000
-2.300000,1.100000,0.206155,0.040000,-0.014352,0.006462,-0.008501,-0.000028,0.000000,-0.000000,-0.000000
-2.260000,1.100000,0.245153,0.040000,-0.014049,0.006111,-0.008255,0.000842,0.000000,-0.000000,0.000000
-2.260000,1.140000,0.240208,0.040000,-0.013911,0.006964,-0.009133,0.001305,0.000000,-0.000000,0.000000
-2.300000,1.140000,0.200250,0.040000,-0.014213,0.007419,-0.009480,0.000317,0.000000,-0.000000,0.000000
-2.220000,1.100000,0.284429,0.040000,-0.013759,0.005699,-0.007869,0.001526,0.000000,-0.000000,0.000000
-2.180000,1.100000,0.323883,0.040000,-0.013482,0.005252,-0.007546,0.002233,0.000000,-0.000000,0.000000
-2.180000,1.140000,0.320156,0.040000,-0.013350,0.005722,-0.008127,0.003064,0.000000,-0.000000,0.000000
-2.220000,1.140000,0.280179,0.040000,-0.013624,0.006339,-0.008454,0.002193,0.000000,-0.000000,0.000000
2.180000,1.100000,0.323883,0.040000,-0.002584,0.005247,-0.007541,-0.002230,0.000000,-0.000000,-0.000000
2.220000,1.100000,0.284429,0.040000,-0.002662,0.005694,-0.007864,-0.001524,0.000000,-0.000000,-0.000000
2.220000,1.140000,0.280179,0.040000,-0.002526,0.006333,-0.008449,-0.002190,0.000000,-0.000000,-0.000000
2.180000,1.140000,0.320156,0.040000,-0.002453,0.005717,-0.008122,-0.003061,0.000000,-0.000000,-0.000000
2.260000,1.100000,0.245153,0.040000,-0.002752,0.006105,-0.008249,-0.000840,0.000000,-0.000000,-0.000000
2.300000,1.100000,0.206155,0.040000,-0.002855,0.006456,-0.008496,0.000029,0.000000,-0.000000,0.000000
2.300000,1.140000,0.200250,0.040000,-0.002716,0.007412,-0.009474,-0.000315,0.000000,-0.000000,-0.000000
2.260000,1.140000,0.240208,0.040000,-0.002614,0.006958,-0.009127,-0.001303,0.000000,-0.000000,-0.000000
2.340000,1.100000,0.167631,0.040000,-0.002971,0.006688,-0.008620,0.000974,0.000000,-0.000000,0.000000
2.380000,1.100000,0.130000,0.040000,-0.003102,0.006908,-0.009024,0.001915,0.000000,-0.000000,0.000000
2.380000,1.140000,0.120416,0.040000,-0.002966,0.007833,-0.009676,0.002051,0.000000,-0.000000,0.000000
2.340000,1.140000,0.160312,0.040000,-0.002833,0.007727,-0.009675,0.000786,0.000000,-0.000000,0.000000
2.420000,1.100000,0.094340,0.040000,-0.003246,0.009045,-0.015780,0.002956,0.000000,-0.000000,0.000000
2.460000,1.100000,0.064031,0.040000,-0.003403,0.010340,-0.031831,0.006160,0.000000,-0.000000,0.000000
2.460000,1.140000,0.041231,0.040000,-0.003274,0.006383,-0.027527,-0.002058,0.000000,-0.000000,-0.000000
2.420000,1.140000,0.080623,0.040000,-0.003114,0.008360,-0.015308,0.001592,0.000000,-0.000000,0.000000
2.500000,1.100000,0.050000,0.040000,-0.003700,0.043636,-0.059679,0.008130,0.000000,-0.000000,0.000000
2.500000,1.140000,0.010000,0.040000,-0.003430,-0.009407,-0.004244,-0.006015,-0.000000,-0.000000,-0.000000
-2.500000,1.180000,0.030000,0.040000,-0.008670,-1.596668,3.238373,0.376833,-0.000000,0.000000,0.000000
-2.500000,1.220000,0.030000,0.040000,-0.015577,1.449855,0.948331,0.309731,0.000000,0.000000,0.000000
-2.460000,1.180000,0.050000,0.040000,-0.015444,-0.061645,1.401195,0.213283,-0.000000,0.000000,0.000000
-2.420000,1.180000,0.085440,0.040000,-0.015067,-0.111916,0.430617,0.041596,-0.000000,0.000000,0.000000
-2.420000,1.220000,0.085440,0.040000,-0.014907,-0.024471,0.482948,0.025831,-0.000000,0.000000,0.000000
-2.460000,1.220000,0.050000,0.040000,-0.015275,0.295512,1.491571,0.172812,-0.000000,0.000000,0.000000
-2.380000,1.180000,0.123693,0.040000,-0.014715,0.000620,0.013806,-0.001772,-0.000000,0.000000,-0.000000
-2.340000,1.180000,0.162788,0.040000,-0.014380,0.008959,-0.010945,-0.000481,0.000000,-0.000000,-0.000000
-2.340000,1.220000,0.162788,0.040000,-0.014215,0.010314,-0.012315,-0.000087,0.000000,-0.000000,-0.000000
-2.380000,1.220000,0.123693,0.040000,-0.014551,0.010006,-0.010531,-0.001707,0.000000,-0.000000,-0.000000
-2.300000,1.180000,0.202237,0.040000,-0.014062,0.008511,-0.010602,0.000774,0.000000,-0.000000,0.000000
-2.260000,1.180000,0.241868,0.040000,-0.013762,0.007922,-0.010123,0.001895,0.000000,-0.000000,0.000000
-2.260000,1.220000,0.241868,0.040000,-0.013600,0.008997,-0.011238,0.002646,0.000000,-0.000000,0.000000
-2.300000,1.220000,0.202237,0.040000,-0.013898,0.009755,-0.011880,0.001371,0.000000,-0.000000,0.000000
-2.220000,1.180000,0.281603,0.040000,-0.013478,0.007249,-0.009428,0.002734,0.000000,-0.000000,0.000000
-2.180000,1.180000,0.321403,0.040000,-0.013209,0.006556,-0.008908,0.003571,0.000000,-0.000000,0.000000
-2.180000,1.220000,0.321403,0.040000,-0.013058,0.007105,-0.009593,0.004807,0.000000,-0.000000,0.000000
-2.220000,1.220000,0.281603,0.040000,-0.013321,0.008024,-0.010142,0.003766,0.000000,-0.000000,0.000000
2.180000,1.180000,0.321403,0.040000,-0.002312,0.006550,-0.008903,-0.003567,0.000000,-0.000000,-0.000000
2.220000,1.180000,0.281603,0.040000,-0.002381,0.007243,-0.009422,-0.002731,0.000000,-0.000000,-0.000000
2.220000,1.220000,0.281603,0.040000,-0.002224,0.008018,-0.010136,-0.003762,0.000000,-0.000000,-0.000000
2.180000,1.220000,0.321403,0.040000,-0.002161,0.007100,-0.009587,-0.004803,0.000000,-0.000000,-0.000000
2.260000,1.180000,0.241868,0.040000,-0.002465,0.007915,-0.010117,-0.001892,0.000000,-0.000000,-0.000000
2.300000,1.180000,0.202237,0.040000,-0.002565,0.008504,-0.010595,-0.000772,0.000000,-0.000000,-0.000000
2.300000,1.220000,0.202237,0.040000,-0.002401,0.009747,-0.011872,-0.001369,0.000000,-0.000000,-0.000000
2.260000,1.220000,0.241868,0.040000,-0.002304,0.008990,-0.011231,-0.002643,0.000000,-0.000000,-0.000000
2.340000,1.180000,0.162788,0.040000,-0.002683,0.008951,-0.010938,0.000482,0.000000,-0.000000,0.000000
2.380000,1.180000,0.123693,0.040000,-0.002817,0.009389,-0.011357,0.001772,0.000000,-0.000000,0.000000
2.380000,1.220000,0.123693,0.040000,-0.002654,0.010403,-0.012166,0.001673,0.000000,-0.000000,0.000000
2.340000,1.220000,0.162788,0.040000,-0.002518,0.010305,-0.012306,0.000088,0.000000,-0.000000,0.000000
2.420000,1.180000,0.085440,0.040000,-0.002970,0.010363,-0.012387,0.000936,0.000000,-0.000000,0.000000
2.460000,1.180000,0.050000,0.040000,-0.003147,0.011170,-0.013281,-0.002818,0.000000,-0.000000,-0.000000
2.460000,1.220000,0.050000,0.040000,-0.002978,-0.003066,-0.014052,0.009205,0.000000,-0.000000,0.000000
2.420000,1.220000,0.085440,0.040000,-0.002810,0.008086,-0.011876,0.003723,0.000000,-0.000000,0.000000
2.500000,1.180000,0.030000,0.040000,-0.003419,0.032037,-0.050990,-0.007040,0.000000,-0.000000,-0.000000
2.500000,1.220000,0.030000,0.040000,-0.003080,-0.046153,0.013214,0.013189,-0.000000,0.000000,0.000000
-2.500000,1.260000,0.010000,0.040000,-0.008967,-0.968879,3.268195,0.211508,-0.000000,0.000000,0.000000
-2.500000,1.300000,0.050000,0.040000,-0.008947,-1.024457,3.135164,-0.343866,-0.000000,0.000000,-0.000000
-2.460000,1.260000,0.041231,0.040000,-0.015121,0.023809,1.945046,0.117979,-0.000000,0.000000,0.000000
-2.420000,1.260000,0.080623,0.040000,-0.014732,-0.119975,0.611051,0.090987,-0.000000,0.000000,0.000000
-2.420000,1.300000,0.094340,0.040000,-0.014534,-0.120793,0.597419,-0.113676,-0.000000,0.000000,-0.000000
-2.460000,1.300000,0.064031,0.040000,-0.014923,-0.016001,1.898923,-0.194535,-0.000000,0.000000,-0.000000
-2.380000,1.260000,0.120416,0.040000,-0.014371,0.004439,0.009159,-0.001168,0.000000,0.000000,-0.000000
-2.340000,1.260000,0.160312,0.040000,-0.014033,0.011975,-0.014033,0.000461,0.000000,-0.000000,0.000000
-2.340000,1.300000,0.167631,0.040000,-0.013832,0.013842,-0.015949,0.001232,0.000000,-0.000000,0.000000
-2.380000,1.300000,0.130000,0.040000,-0.014170,0.006539,0.006519,-0.001228,0.000000,0.000000,-0.000000
-2.300000,1.260000,0.200250,0.040000,-0.013718,0.011185,-0.013356,0.002155,0.000000,-0.000000,0.000000
-2.260000,1.260000,0.240208,0.040000,-0.013424,0.010203,-0.012493,0.003604,0.000000,-0.000000,0.000000
-2.260000,1.300000,0.245153,0.040000,-0.013232,0.011548,-0.013899,0.004829,0.000000,-0.000000,0.000000
-2.300000,1.300000,0.206155,0.040000,-0.013520,0.012818,-0.015044,0.003185,0.000000,-0.000000,0.000000
-2.220000,1.260000,0.280179,0.040000,-0.013151,0.009107,-0.011296,0.004617,0.000000,-0.000000,0.000000
-2.180000,1.260000,0.320156,0.040000,-0.012895,0.008030,-0.010472,0.005572,0.000000,-0.000000,0.000000
-2.180000,1.300000,0.323883,0.040000,-0.012720,0.008642,-0.011243,0.007413,0.000000,-0.000000,0.000000
-2.220000,1.300000,0.284429,0.040000,-0.012966,0.010021,-0.012145,0.006221,0.000000,-0.000000,0.000000
2.180000,1.260000,0.320156,0.040000,-0.001998,0.008023,-0.010465,-0.005567,0.000000,-0.000000,-0.000000
2.220000,1.260000,0.280179,0.040000,-0.002054,0.009099,-0.011289,-0.004612,0.000000,-0.000000,-0.000000
2.220000,1.300000,0.284429,0.040000,-0.001869,0.010014,-0.012138,-0.006215,0.000000,-0.000000,-0.000000
2.180000,1.300000,0.323883,0.040000,-0.001823,0.008635,-0.011236,-0.007407,0.000000,-0.000000,-0.000000
2.260000,1.260000,0.240208,0.040000,-0.002128,0.010195,-0.012485,-0.003601,0.000000,-0.000000,-0.000000
2.300000,1.260000,0.200250,0.040000,-0.002221,0.011176,-0.013347,-0.002152,0.000000,-0.000000,-0.000000
2.300000,1.300000,0.206155,0.040000,-0.002024,0.012808,-0.015034,-0.003181,0.000000,-0.000000,-0.000000
2.260000,1.300000,0.245153,0.040000,-0.001935,0.011539,-0.013890,-0.004824,0.000000,-0.000000,-0.000000
2.340000,1.260000,0.160312,0.040000,-0.002336,0.011965,-0.014024,-0.000459,0.000000,-0.000000,-0.000000
2.380000,1.260000,0.120416,0.040000,-0.002474,0.012610,-0.014521,0.001510,0.000000,-0.000000,0.000000
2.380000,1.300000,0.130000,0.040000,-0.002274,0.014709,-0.017158,0.000887,0.000000,-0.000000,0.000000
2.340000,1.300000,0.167631,0.040000,-0.002136,0.013831,-0.015938,-0.001230,0.000000,-0.000000,-0.000000
2.420000,1.260000,0.080623,0.040000,-0.002635,0.014112,-0.020125,0.009361,0.000000,-0.000000,0.000000
2.460000,1.260000,0.041231,0.040000,-0.002824,0.014330,-0.029384,0.017766,0.000000,-0.000000,0.000000
2.460000,1.300000,0.064031,0.040000,-0.002627,0.020149,-0.054321,0.009126,0.000000,-0.000000,0.000000
2.420000,1.300000,0.094340,0.040000,-0.002437,0.018384,-0.028351,0.003317,0.000000,-0.000000,0.000000
2.500000,1.260000,0.010000,0.040000,-0.003064,0.013720,-0.037555,0.028307,0.000000,-0.000000,0.000000
2.500000,1.300000,0.050000,0.040000,-0.003045,0.072686,-0.098938,0.012698,0.000000,-0.000000,0.000000
-2.500000,1.340000,0.010000,0.040000,-0.015099,1.406566,0.874253,-0.449526,0.000000,0.000000,-0.000000
-2.500000,1.380000,0.030000,0.040000,-0.009313,-0.771502,2.811396,-0.113027,-0.000000,0.000000,-0.000000
-2.460000,1.340000,0.041231,0.040000,-0.014707,0.304664,1.304797,-0.262498,-0.000000,0.000000,-0.000000
-2.420000,1.340000,0.080623,0.040000,-0.014313,-0.008201,0.415405,-0.064129,-0.000000,0.000000,-0.000000
-2.420000,1.380000,0.085440,0.040000,-0.014066,-0.054643,0.347823,-0.012166,-0.000000,0.000000,-0.000000
-2.460000,1.380000,0.050000,0.040000,-0.014484,0.144390,1.179088,-0.059168,-0.000000,0.000000,-0.000000
-2.380000,1.340000,0.120416,0.040000,-0.013946,0.016606,-0.017547,-0.000613,0.000000,-0.000000,-0.000000
-2.340000,1.340000,0.160312,0.040000,-0.013610,0.016064,-0.018233,0.002238,0.000000,-0.000000,0.000000
-2.340000,1.380000,0.162788,0.040000,-0.013361,0.018711,-0.020991,0.003671,0.000000,-0.000000,0.000000
-2.380000,1.380000,0.123693,0.040000,-0.013695,0.013431,-0.002721,0.000643,0.000000,-0.000000,0.000000
-2.300000,1.340000,0.200250,0.040000,-0.013302,0.014691,-0.016987,0.004536,0.000000,-0.000000,0.000000
-2.260000,1.340000,0.240208,0.040000,-0.013021,0.013041,-0.015467,0.006396,0.000000,-0.000000,0.000000
-2.260000,1.380000,0.241868,0.040000,-0.012789,0.014681,-0.017199,0.008411,0.000000,-0.000000,0.000000
-2.300000,1.380000,0.202237,0.040000,-0.013060,0.016834,-0.019220,0.006322,0.000000,-0.000000,0.000000
-2.220000,1.340000,0.280179,0.040000,-0.012765,0.011249,-0.013443,0.007567,0.000000,-0.000000,0.000000
-2.180000,1.340000,0.320156,0.040000,-0.012531,0.009569,-0.012147,0.008572,0.000000,-0.000000,0.000000
-2.180000,1.380000,0.321403,0.040000,-0.012327,0.010178,-0.012928,0.011313,0.000000,-0.000000,0.000000
-2.220000,1.380000,0.281603,0.040000,-0.012546,0.012261,-0.014395,0.010076,0.000000,-0.000000,0.000000
2.180000,1.340000,0.320156,0.040000,-0.001634,0.009562,-0.012140,-0.008565,0.000000,-0.000000,-0.000000
2.220000,1.340000,0.280179,0.040000,-0.001669,0.011240,-0.013435,-0.007561,0.000000,-0.000000,-0.000000
2.220000,1.380000,0.281603,0.040000,-0.001450,0.012252,-0.014386,-0.010067,0.000000,-0.000000,-0.000000
2.180000,1.380000,0.321403,0.040000,-0.001431,0.010171,-0.012920,-0.011304,0.000000,-0.000000,-0.000000
2.260000,1.340000,0.240208,0.040000,-0.001725,0.013032,-0.015457,-0.006390,0.000000,-0.000000,-0.000000
2.300000,1.340000,0.200250,0.040000,-0.001805,0.014679,-0.016976,-0.004531,0.000000,-0.000000,-0.000000
2.300000,1.380000,0.202237,0.040000,-0.001563,0.016821,-0.019207,-0.006316,0.000000,-0.000000,-0.000000
2.260000,1.380000,0.241868,0.040000,-0.001493,0.014670,-0.017188,-0.008403,0.000000,-0.000000,-0.000000
2.340000,1.340000,0.160312,0.040000,-0.001913,0.016051,-0.018221,-0.002234,0.000000,-0.000000,-0.000000
2.380000,1.340000,0.120416,0.040000,-0.002050,0.016956,-0.019001,0.000570,0.000000,-0.000000,0.000000
2.380000,1.380000,0.123693,0.040000,-0.001799,0.020387,-0.022700,-0.000641,0.000000,-0.000000,-0.000000
2.340000,1.380000,0.162788,0.040000,-0.001665,0.018697,-0.020977,-0.003667,0.000000,-0.000000,-0.000000
2.420000,1.340000,0.080623,0.040000,-0.002217,0.018416,-0.028708,0.000903,0.000000,-0.000000,0.000000
2.460000,1.340000,0.041231,0.040000,-0.002410,0.015862,-0.048704,-0.004197,0.000000,-0.000000,-0.000000
2.460000,1.380000,0.050000,0.040000,-0.002187,0.024517,-0.026716,-0.006091,0.000000,-0.000000,-0.000000
2.420000,1.380000,0.085440,0.040000,-0.001970,0.022691,-0.025058,-0.000949,0.000000,-0.000000,-0.000000
2.500000,1.340000,0.010000,0.040000,-0.002602,-0.009224,-0.010697,-0.010007,-0.000000,-0.000000,-0.000000
2.500000,1.380000,0.030000,0.040000,-0.002573,0.060186,-0.090349,-0.012379,0.000000,-0.000000,-0.000000
-2.500000,1.420000,0.030000,0.040000,-0.014476,0.865894,0.604166,-0.013107,0.000000,0.000000,-0.000000
-2.500000,1.460000,0.010000,0.040000,-0.009790,-0.769300,2.182192,-0.151133,-0.000000,0.000000,-0.000000
-2.460000,1.420000,0.050000,0.040000,-0.014182,0.144816,1.063321,-0.001818,-0.000000,0.000000,-0.000000
-2.420000,1.420000,0.085440,0.040000,-0.013782,-0.013351,0.336373,-0.013089,-0.000000,0.000000,-0.000000
-2.420000,1.460000,0.080623,0.040000,-0.013462,-0.050226,0.324965,0.001369,-0.000000,0.000000,0.000000
-2.460000,1.460000,0.041231,0.040000,-0.013895,0.044816,1.101592,-0.088032,-0.000000,0.000000,-0.000000
-2.380000,1.420000,0.123693,0.040000,-0.013412,0.022920,-0.024007,0.001726,0.000000,-0.000000,0.000000
-2.340000,1.420000,0.162788,0.040000,-0.013082,0.021732,-0.024092,0.005586,0.000000,-0.000000,0.000000
-2.340000,1.460000,0.160312,0.040000,-0.012768,0.025445,-0.027976,0.008248,0.000000,-0.000000,0.000000
-2.380000,1.460000,0.120416,0.040000,-0.013091,0.022752,-0.014391,0.003637,0.000000,-0.000000,0.000000
-2.300000,1.420000,0.202237,0.040000,-0.012791,0.019265,-0.021758,0.008687,0.000000,-0.000000,0.000000
-2.260000,1.420000,0.241868,0.040000,-0.012534,0.016452,-0.019083,0.011006,0.000000,-0.000000,0.000000
-2.260000,1.460000,0.240208,0.040000,-0.012252,0.018309,-0.021080,0.014363,0.000000,-0.000000,0.000000
-2.300000,1.460000,0.200250,0.040000,-0.012491,0.022016,-0.024648,0.011839,0.000000,-0.000000,0.000000
-2.220000,1.420000,0.281603,0.040000,-0.012308,0.013499,-0.015684,0.012225,0.000000,-0.000000,0.000000
-2.180000,1.420000,0.321403,0.040000,-0.012107,0.010876,-0.013659,0.013067,0.000000,-0.000000,0.000000
-2.180000,1.460000,0.320156,0.040000,-0.011871,0.011296,-0.014228,0.017114,0.000000,-0.000000,0.000000
-2.220000,1.460000,0.280179,0.040000,-0.012048,0.014439,-0.016592,0.016160,0.000000,-0.000000,0.000000
2.180000,1.420000,0.321403,0.040000,-0.001211,0.010869,-0.013651,-0.013056,0.000000,-0.000000,-0.000000
2.220000,1.420000,0.281603,0.040000,-0.001212,0.013489,-0.015674,-0.012214,0.000000,-0.000000,-0.000000
2.220000,1.460000,0.280179,0.040000,-0.000952,0.014428,-0.016582,-0.016146,0.000000,-0.000000,-0.000000
2.180000,1.460000,0.320156,0.040000,-0.000975,0.011288,-0.014220,-0.017100,0.000000,-0.000000,-0.000000
2.260000,1.420000,0.241868,0.040000,-0.001238,0.016439,-0.019070,-0.010997,0.000000,-0.000000,-0.000000
2.300000,1.420000,0.202237,0.040000,-0.001295,0.019250,-0.021743,-0.008678,0.000000,-0.000000,-0.000000
2.300000,1.460000,0.200250,0.040000,-0.000995,0.021999,-0.024632,-0.011828,0.000000,-0.000000,-0.000000
2.260000,1.460000,0.240208,0.040000,-0.000957,0.018296,-0.021066,-0.014350,0.000000,-0.000000,-0.000000
2.340000,1.420000,0.162788,0.040000,-0.001386,0.021716,-0.024076,-0.005580,0.000000,-0.000000,-0.000000
2.380000,1.420000,0.123693,0.040000,-0.001516,0.023207,-0.025224,-0.001780,0.000000,-0.000000,-0.000000
2.380000,1.460000,0.120416,0.040000,-0.001195,0.028420,-0.030766,-0.003511,0.000000,-0.000000,-0.000000
2.340000,1.460000,0.160312,0.040000,-0.001073,0.025426,-0.027956,-0.008239,0.000000,-0.000000,-0.000000
2.420000,1.420000,0.085440,0.040000,-0.001686,0.020095,-0.025789,0.003475,0.000000,-0.000000,0.000000
2.460000,1.420000,0.050000,0.040000,-0.001886,0.000701,-0.030225,0.014840,0.000000,-0.000000,0.000000
2.460000,1.460000,0.041231,0.040000,-0.001599,0.034128,-0.060560,0.029281,0.000000,-0.000000,0.000000
2.420000,1.460000,0.080623,0.040000,-0.001367,0.032645,-0.042656,0.012409,0.000000,-0.000000,0.000000
2.500000,1.420000,0.030000,0.040000,-0.001980,-0.074740,0.016188,0.023211,-0.000000,0.000000,0.000000
2.500000,1.460000,0.010000,0.040000,-0.001935,0.033239,-0.074967,0.049465,0.000000,-0.000000,0.000000
-2.500000,1.500000,0.050000,0.040000,-0.012055,0.018053,1.111873,-0.312667,-0.000000,0.000000,-0.000000
-2.500000,1.540000,0.010000,0.040000,-0.013533,0.757711,0.442263,-0.173542,0.000000,0.000000,-0.000000
-2.460000,1.500000,0.064031,0.040000,-0.013516,0.081941,0.830328,-0.175858,-0.000000,0.000000,-0.000000
-2.420000,1.500000,0.094340,0.040000,-0.013091,-0.012243,0.243161,-0.084440,-0.000000,0.000000,-0.000000
-2.420000,1.540000,0.080623,0.040000,-0.012663,0.040611,0.136613,-0.007759,-0.000000,0.000000,-0.000000
-2.460000,1.540000,0.041231,0.040000,-0.013090,0.224844,0.514964,-0.097651,0.000000,0.000000,-0.000000
-2.380000,1.500000,0.130000,0.040000,-0.012724,0.030905,-0.028687,0.006360,0.000000,-0.000000,0.000000
-2.340000,1.500000,0.167631,0.040000,-0.012414,0.029684,-0.032388,0.011977,0.000000,-0.000000,0.000000
-2.340000,1.540000,0.160312,0.040000,-0.012012,0.034718,-0.037643,0.017131,0.000000,-0.000000,0.000000
-2.380000,1.540000,0.120416,0.040000,-0.012303,0.040044,-0.042369,0.010140,0.000000,-0.000000,0.000000
-2.300000,1.500000,0.206155,0.040000,-0.012155,0.025051,-0.027852,0.016067,0.000000,-0.000000,0.000000
-2.260000,1.500000,0.245153,0.040000,-0.011942,0.020161,-0.023101,0.018714,0.000000,-0.000000,0.000000
-2.260000,1.540000,0.240208,0.040000,-0.011598,0.021832,-0.024977,0.024360,0.000000,-0.000000,0.000000
-2.300000,1.540000,0.200250,0.040000,-0.011780,0.028311,-0.031323,0.021760,0.000000,-0.000000,0.000000
-2.220000,1.500000,0.284429,0.040000,-0.011764,0.015279,-0.017425,0.019601,0.000000,-0.000000,0.000000
-2.180000,1.500000,0.323883,0.040000,-0.011617,0.011221,-0.014304,0.019739,0.000000,-0.000000,0.000000
-2.180000,1.540000,0.320156,0.040000,-0.011345,0.010998,-0.014121,0.025553,0.000000,-0.000000,0.000000
-2.220000,1.540000,0.280179,0.040000,-0.011457,0.015653,-0.017859,0.025728,0.000000,-0.000000,0.000000
2.180000,1.500000,0.323883,0.040000,-0.000721,0.011214,-0.014297,-0.019723,0.000000,-0.000000,-0.000000
2.220000,1.500000,0.284429,0.040000,-0.000669,0.015268,-0.017415,-0.019585,0.000000,-0.000000,-0.000000
2.220000,1.540000,0.280179,0.040000,-0.000361,0.015643,-0.017850,-0.025707,0.000000,-0.000000,-0.000000
2.180000,1.540000,0.320156,0.040000,-0.000450,0.010991,-0.014115,-0.025533,0.000000,-0.000000,-0.000000
2.260000,1.500000,0.245153,0.040000,-0.000646,0.020147,-0.023086,-0.018698,0.000000,-0.000000,-0.000000
2.300000,1.500000,0.206155,0.040000,-0.000660,0.025032,-0.027833,-0.016052,0.000000,-0.000000,-0.000000
2.300000,1.540000,0.200250,0.040000,-0.000285,0.028291,-0.031302,-0.021740,0.000000,-0.000000,-0.000000
2.260000,1.540000,0.240208,0.040000,-0.000303,0.021817,-0.024962,-0.024339,0.000000,-0.000000,-0.000000
2.340000,1.500000,0.167631,0.040000,-0.000718,0.029662,-0.032365,-0.011965,0.000000,-0.000000,-0.000000
2.380000,1.500000,0.130000,0.040000,-0.000828,0.033825,-0.037272,-0.006593,0.000000,-0.000000,-0.000000
2.380000,1.540000,0.120416,0.040000,-0.000408,0.040171,-0.042980,-0.010089,0.000000,-0.000000,-0.000000
2.340000,1.540000,0.160312,0.040000,-0.000316,0.034692,-0.037616,-0.017114,0.000000,-0.000000,-0.000000
2.420000,1.500000,0.094340,0.040000,-0.000996,0.042293,-0.059843,0.000345,0.000000,-0.000000,0.000000
2.460000,1.500000,0.064031,0.040000,-0.001221,0.045334,-0.108815,0.013496,0.000000,-0.000000,0.000000
2.460000,1.540000,0.041231,0.040000,-0.000795,0.044541,-0.103232,-0.012442,0.000000,-0.000000,-0.000000
2.420000,1.540000,0.080623,0.040000,-0.000568,0.046268,-0.064398,-0.005922,0.000000,-0.000000,-0.000000
2.500000,1.500000,0.050000,0.040000,-0.001879,0.140075,-0.191125,0.021659,0.000000,-0.000000,0.000000
2.500000,1.540000,0.010000,0.040000,-0.001038,-0.000305,-0.031507,-0.021039,0.000000,-0.000000,-0.000000
-2.500000,1.580000,0.030000,0.040000,-0.010353,-0.543808,1.218484,-0.069635,-0.000000,0.000000,-0.000000
-2.500000,1.620000,0.030000,0.040000,-0.012202,0.209558,0.226375,-0.230675,0.000000,0.000000,-0.000000
-2.460000,1.580000,0.050000,0.040000,-0.012627,0.040120,0.540118,-0.031179,-0.000000,0.000000,-0.000000
-2.420000,1.580000,0.085440,0.040000,-0.012166,0.006803,0.128119,0.003454,-0.000000,0.000000,0.000000
-2.420000,1.620000,0.085440,0.040000,-0.011575,0.045808,0.066085,-0.037601,0.000000,0.000000,-0.000000
-2.460000,1.620000,0.050000,0.040000,-0.011983,0.072931,0.326737,-0.126572,-0.000000,0.000000,-0.000000
-2.380000,1.580000,0.123693,0.040000,-0.011818,0.045539,-0.042079,0.016791,0.000000,-0.000000,0.000000
-2.340000,1.580000,0.162788,0.040000,-0.011554,0.040552,-0.043821,0.024550,0.000000,-0.000000,0.000000
-2.340000,1.620000,0.162788,0.040000,-0.011031,0.046857,-0.050435,0.035059,0.000000,-0.000000,0.000000
-2.380000,1.620000,0.123693,0.040000,-0.011254,0.057926,-0.060696,0.025406,0.000000,-0.000000,0.000000
-2.300000,1.580000,0.202237,0.040000,-0.011359,0.031597,-0.034872,0.029480,0.000000,-0.000000,0.000000
-2.260000,1.580000,0.241868,0.040000,-0.011221,0.023007,-0.026397,0.031675,0.000000,-0.000000,0.000000
-2.260000,1.620000,0.241868,0.040000,-0.010806,0.023138,-0.026816,0.041092,0.000000,-0.000000,0.000000
-2.300000,1.620000,0.202237,0.040000,-0.010888,0.034471,-0.038056,0.039950,0.000000,-0.000000,0.000000
-2.220000,1.580000,0.281603,0.040000,-0.011124,0.015032,-0.017105,0.031167,0.000000,-0.000000,0.000000
-2.180000,1.580000,0.321403,0.040000,-0.011058,0.008973,-0.012485,0.029340,0.000000,-0.000000,0.000000
-2.180000,1.620000,0.321403,0.040000,-0.010756,0.007088,-0.010348,0.037123,0.000000,-0.000000,0.000000
-2.220000,1.620000,0.281603,0.040000,-0.010768,0.013580,-0.015957,0.040360,0.000000,-0.000000,0.000000
2.180000,1.580000,0.321403,0.040000,-0.000162,0.008969,-0.012481,-0.029317,0.000000,-0.000000,-0.000000
2.220000,1.580000,0.281603,0.040000,-0.000029,0.015024,-0.017098,-0.031142,0.000000,-0.000000,-0.000000
2.220000,1.620000,0.281603,0.040000,0.000327,0.013574,-0.015951,-0.040327,0.000000,-0.000000,-0.000000
2.180000,1.620000,0.321403,0.040000,0.000139,0.007087,-0.010347,-0.037094,0.000000,-0.000000,-0.000000
2.260000,1.580000,0.241868,0.040000,0.000074,0.022992,-0.026382,-0.031647,0.000000,-0.000000,-0.000000
2.300000,1.580000,0.202237,0.040000,0.000136,0.031575,-0.034849,-0.029453,0.000000,-0.000000,-0.000000
2.300000,1.620000,0.202237,0.040000,0.000607,0.034448,-0.038033,-0.039913,0.000000,-0.000000,-0.000000
2.260000,1.620000,0.241868,0.040000,0.000488,0.023124,-0.026802,-0.041057,0.000000,-0.000000,-0.000000
2.340000,1.580000,0.162788,0.040000,0.000141,0.040521,-0.043790,-0.024526,0.000000,-0.000000,-0.000000
2.380000,1.580000,0.123693,0.040000,0.000077,0.049248,-0.052786,-0.016773,0.000000,-0.000000,-0.000000
2.380000,1.620000,0.123693,0.040000,0.000640,0.057994,-0.061114,-0.025497,0.000000,-0.000000,-0.000000
2.340000,1.620000,0.162788,0.040000,0.000664,0.046822,-0.050400,-0.035025,0.000000,-0.000000,-0.000000
2.420000,1.580000,0.085440,0.040000,-0.000072,0.058245,-0.061767,-0.013523,0.000000,-0.000000,-0.000000
2.460000,1.580000,0.050000,0.040000,-0.000332,0.064705,-0.066832,-0.019009,0.000000,-0.000000,-0.000000
2.460000,1.620000,0.050000,0.040000,0.000311,0.020338,-0.084037,0.023848,0.000000,-0.000000,0.000000
2.420000,1.620000,0.085440,0.040000,0.000519,0.058535,-0.069982,-0.008287,0.000000,-0.000000,-0.000000
2.500000,1.580000,0.030000,0.040000,-0.000952,0.137554,-0.194688,-0.028056,0.000000,-0.000000,-0.000000
2.500000,1.620000,0.030000,0.040000,0.000292,-0.139185,0.008379,0.048228,-0.000000,0.000000,0.000000
-2.500000,1.660000,0.010000,0.040000,-0.011248,0.146836,0.312630,-0.209104,0.000000,0.000000,-0.000000
-2.500000,1.700000,0.050000,0.040000,-0.011077,-0.060098,-0.267150,-0.293675,0.000000,-0.000000,-0.000000
-2.460000,1.660000,0.041231,0.040000,-0.011336,0.174475,0.110654,-0.105268,0.000000,0.000000,-0.000000
-2.420000,1.660000,0.080623,0.040000,-0.010882,0.084760,-0.030208,-0.004739,0.000000,-0.000000,-0.000000
-2.420000,1.700000,0.094340,0.040000,-0.010040,0.095367,-0.101786,0.000052,0.000000,-0.000000,0.000000
-2.460000,1.700000,0.064031,0.040000,-0.010433,0.025318,-0.102742,-0.149126,0.000000,-0.000000,-0.000000
-2.380000,1.660000,0.120416,0.040000,-0.010596,0.071292,-0.073453,0.039536,0.000000,-0.000000,0.000000
-2.340000,1.660000,0.160312,0.040000,-0.010433,0.053600,-0.057709,0.050301,0.000000,-0.000000,0.000000
-2.340000,1.700000,0.167631,0.040000,-0.009749,0.059003,-0.063646,0.072412,0.000000,-0.000000,0.000000
-2.380000,1.700000,0.130000,0.040000,-0.009822,0.085895,-0.090978,0.062186,0.000000,-0.000000,0.000000
-2.300000,1.660000,0.200250,0.040000,-0.010362,0.036117,-0.040082,0.054133,0.000000,-0.000000,0.000000
-2.260000,1.660000,0.240208,0.040000,-0.010355,0.021316,-0.025322,0.053050,0.000000,-0.000000,0.000000
-2.260000,1.700000,0.245153,0.040000,-0.009871,0.016076,-0.020429,0.067813,0.000000,-0.000000,0.000000
-2.300000,1.700000,0.206155,0.040000,-0.009778,0.034892,-0.039282,0.073117,0.000000,-0.000000,0.000000
-2.220000,1.660000,0.280179,0.040000,-0.010390,0.008944,-0.011093,0.048606,0.000000,-0.000000,0.000000
-2.180000,1.660000,0.320156,0.040000,-0.010446,0.000616,-0.004795,0.042067,0.000000,-0.000000,0.000000
-2.180000,1.700000,0.301496,0.040000,-0.010134,-0.005977,0.002176,0.051248,-0.000000,0.000000,0.000000
-2.220000,1.700000,0.284429,0.040000,-0.009997,0.002837,-0.005814,0.060878,0.000000,-0.000000,0.000000
2.180000,1.660000,0.320156,0.040000,0.000449,0.000621,-0.004800,-0.042035,0.000000,-0.000000,-0.000000
2.220000,1.660000,0.280179,0.040000,0.000705,0.008944,-0.011094,-0.048567,0.000000,-0.000000,-0.000000
2.220000,1.700000,0.284429,0.040000,0.001097,0.002844,-0.005822,-0.060831,0.000000,-0.000000,-0.000000
2.180000,1.700000,0.301496,0.040000,0.000760,-0.005965,0.002164,-0.051211,-0.000000,0.000000,-0.000000
2.260000,1.660000,0.240208,0.040000,0.000939,0.021306,-0.025313,-0.053005,0.000000,-0.000000,-0.000000
2.300000,1.660000,0.200250,0.040000,0.001132,0.036094,-0.040059,-0.054084,0.000000,-0.000000,-0.000000
2.300000,1.700000,0.206155,0.040000,0.001716,0.034874,-0.039265,-0.073050,0.000000,-0.000000,-0.000000
2.260000,1.700000,0.245153,0.040000,0.001423,0.016074,-0.020427,-0.067757,0.000000,-0.000000,-0.000000
2.340000,1.660000,0.160312,0.040000,0.001261,0.053561,-0.057670,-0.050252,0.000000,-0.000000,-0.000000
2.380000,1.660000,0.120416,0.040000,0.001298,0.072249,-0.076337,-0.039451,0.000000,-0.000000,-0.000000
2.380000,1.700000,0.130000,0.040000,0.002071,0.086840,-0.093849,-0.062161,0.000000,-0.000000,-0.000000
2.340000,1.700000,0.167631,0.040000,0.001945,0.058962,-0.063605,-0.072340,0.000000,-0.000000,-0.000000
2.420000,1.660000,0.080623,0.040000,0.001211,0.093843,-0.116493,0.002488,0.000000,-0.000000,0.000000
2.460000,1.660000,0.041231,0.040000,0.000957,0.106190,-0.165739,0.048912,0.000000,-0.000000,0.000000
2.460000,1.700000,0.064031,0.040000,0.001860,0.138885,-0.294655,0.007563,0.000000,-0.000000,0.000000
2.420000,1.700000,0.094340,0.040000,0.002053,0.124722,-0.166505,-0.037628,0.000000,-0.000000,-0.000000
2.500000,1.660000,0.010000,0.040000,0.000427,0.107157,-0.199017,0.101035,0.000000,-0.000000,0.000000
2.500000,1.700000,0.050000,0.040000,0.000597,0.356747,-0.493164,0.037628,0.000000,-0.000000,0.000000
-2.500000,1.740000,0.010000,0.040000,-0.009845,-0.015899,-0.214931,-0.348935,0.000000,-0.000000,-0.000000
-2.500000,1.780000,0.030000,0.040000,-0.012405,0.607063,-2.285607,-0.514856,0.000000,-0.000000,-0.000000
-2.460000,1.740000,0.041231,0.040000,-0.009361,0.197738,-0.507808,-0.157463,0.000000,-0.000000,-0.000000
-2.420000,1.740000,0.080623,0.040000,-0.009022,0.164373,-0.262222,-0.010413,0.000000,-0.000000,-0.000000
-2.420000,1.780000,0.085440,0.040000,-0.007771,0.221266,-0.400329,0.078547,0.000000,-0.000000,0.000000
-2.460000,1.780000,0.050000,0.040000,-0.008073,0.095261,-0.899802,-0.214237,0.000000,-0.000000,-0.000000
-2.380000,1.740000,0.120416,0.040000,-0.008910,0.102180,-0.108065,0.096289,0.000000,-0.000000,0.000000
-2.340000,1.740000,0.160312,0.040000,-0.008971,0.060698,-0.065943,0.104117,0.000000,-0.000000,0.000000
-2.340000,1.780000,0.162788,0.040000,-0.008098,0.052540,-0.058547,0.148771,0.000000,-0.000000,0.000000
-2.380000,1.780000,0.123693,0.040000,-0.007835,0.118509,-0.133079,0.154836,0.000000,-0.000000,0.000000
-2.300000,1.740000,0.200250,0.040000,-0.009139,0.027987,-0.032847,0.097818,0.000000,-0.000000,0.000000
-2.260000,1.740000,0.240208,0.040000,-0.009362,0.005118,-0.009616,0.085144,0.000000,-0.000000,0.000000
-2.260000,1.780000,0.220227,0.040000,-0.008847,-0.014269,0.009373,0.103572,-0.000000,0.000000,0.000000
-2.300000,1.780000,0.202237,0.040000,-0.008458,0.010670,-0.016028,0.128148,0.000000,-0.000000,0.000000
-2.220000,1.740000,0.261725,0.040000,-0.009602,-0.009184,0.005165,0.070890,-0.000000,0.000000,0.000000
-2.180000,1.740000,0.261725,0.040000,-0.009834,-0.018676,0.013504,0.055821,-0.000000,0.000000,0.000000
-2.180000,1.780000,0.222036,0.040000,-0.009563,-0.032852,0.028861,0.061815,-0.000000,0.000000,0.000000
-2.220000,1.780000,0.222036,0.040000,-0.009222,-0.026861,0.023147,0.081462,-0.000000,0.000000,0.000000
-2.140000,1.740000,0.260192,0.040000,-0.010045,-0.022375,0.018825,0.046241,-0.000000,0.000000,0.000000
-2.100000,1.740000,0.264764,0.040000,-0.010228,-0.024261,0.020399,0.034424,-0.000000,0.000000,0.000000
-2.100000,1.780000,0.225610,0.040000,-0.010106,-0.031194,0.028966,0.034500,-0.000000,0.000000,0.000000
-2.140000,1.780000,0.220227,0.040000,-0.009859,-0.032111,0.029966,0.047888,-0.000000,0.000000,0.000000
-2.060000,1.740000,0.260192,0.040000,-0.010379,-0.024242,0.020766,0.028974,-0.000000,0.000000,0.000000
-2.020000,1.740000,0.261725,0.040000,-0.010498,-0.022976,0.019795,0.020971,-0.000000,0.000000,0.000000
-2.020000,1.780000,0.222036,0.040000,-0.010465,-0.026978,0.024893,0.019013,-0.000000,0.000000,0.000000
-2.060000,1.780000,0.220227,0.040000,-0.010307,-0.029101,0.027140,0.026837,-0.000000,0.000000,0.000000
-1.980000,1.740000,0.261725,0.040000,-0.010587,-0.021380,0.018245,0.017622,-0.000000,0.000000,0.000000
-1.940000,1.740000,0.260192,0.040000,-0.010647,-0.019722,0.016929,0.012602,-0.000000,0.000000,0.000000
-1.940000,1.780000,0.220227,0.040000,-0.010665,-0.022068,0.019898,0.010466,-0.000000,0.000000,0.000000
-1.980000,1.780000,0.222036,0.040000,-0.010583,-0.024106,0.022094,0.014973,-0.000000,0.000000,0.000000
-1.900000,1.740000,0.264764,0.040000,-0.010680,-0.017868,0.015012,0.010566,-0.000000,0.000000,0.000000
-1.860000,1.740000,0.260192,0.040000,-0.010690,-0.016338,0.013784,0.007434,-0.000000,0.000000,0.000000
-1.860000,1.780000,0.220227,0.040000,-0.010737,-0.017719,0.015529,0.005553,-0.000000,0.000000,0.000000
-1.900000,1.780000,0.225610,0.040000,-0.010715,-0.019399,0.017354,0.008185,-0.000000,0.000000,0.000000
-1.820000,1.740000,0.261725,0.040000,-0.010678,-0.014648,0.011996,0.006190,-0.000000,0.000000,0.000000
-1.780000,1.740000,0.261725,0.040000,-0.010647,-0.013370,0.010963,0.004225,-0.000000,0.000000,0.000000
-1.780000,1.780000,0.222036,0.040000,-0.010711,-0.014187,0.011999,0.002678,-0.000000,0.000000,0.000000
-1.820000,1.780000,0.222036,0.040000,-0.010735,-0.015509,0.013444,0.004239,-0.000000,0.000000,0.000000
-1.740000,1.740000,0.260192,0.040000,-0.010599,-0.011948,0.009437,0.003456,-0.000000,0.000000,0.000000
-1.700000,1.740000,0.264764,0.040000,-0.010536,-0.010919,0.008599,0.002213,-0.000000,0.000000,0.000000
-1.700000,1.780000,0.225610,0.040000,-0.010608,-0.011400,0.009218,0.000971,-0.000000,0.000000,0.000000
-1.740000,1.780000,0.220227,0.040000,-0.010668,-0.012427,0.010348,0.001909,-0.000000,0.000000,0.000000
-1.660000,1.740000,0.260192,0.040000,-0.010459,-0.009759,0.007341,0.001734,-0.000000,0.000000,0.000000
-1.620000,1.740000,0.261725,0.040000,-0.010370,-0.008939,0.006669,0.000943,-0.000000,0.000000,0.000000
-1.620000,1.780000,0.222036,0.040000,-0.010446,-0.009216,0.007038,-0.000047,-0.000000,0.000000,-0.000000
-1.660000,1.780000,0.220227,0.040000,-0.010533,-0.010014,0.007921,0.000518,-0.000000,0.000000,0.000000
-1.580000,1.740000,0.261725,0.040000,-0.010271,-0.008003,0.005644,0.000644,-0.000000,0.000000,0.000000
-1.540000,1.740000,0.260192,0.040000,-0.010163,-0.007351,0.005105,0.000141,-0.000000,0.000000,0.000000
-1.540000,1.780000,0.220227,0.040000,-0.010239,-0.007502,0.005322,-0.000649,-0.000000,0.000000,-0.000000
-1.580000,1.780000,0.222036,0.040000,-0.010347,-0.008124,0.006016,-0.000313,-0.000000,0.000000,-0.000000
-1.500000,1.740000,0.264764,0.040000,-0.010047,-0.006596,0.004273,-0.000045,-0.000000,0.000000,-0.000000
-1.460000,1.740000,0.260192,0.040000,-0.009924,-0.006075,0.003839,-0.000362,-0.000000,0.000000,-0.000000
-1.460000,1.780000,0.220227,0.040000,-0.009998,-0.006146,0.003960,-0.000996,-0.000000,0.000000,-0.000000
-1.500000,1.780000,0.225610,0.040000,-0.010122,-0.006637,0.004512,-0.000802,-0.000000,0.000000,-0.000000
-1.420000,1.740000,0.261725,0.040000,-0.009795,-0.005465,0.003161,-0.000475,-0.000000,0.000000,-0.000000
-1.380000,1.740000,0.261725,0.040000,-0.009660,-0.005047,0.002810,-0.000670,-0.000000,0.000000,-0.000000
-1.380000,1.780000,0.222036,0.040000,-0.009732,-0.005066,0.002871,-0.001182,-0.000000,0.000000,-0.000000
-1.420000,1.780000,0.222036,0.040000,-0.009868,-0.005457,0.003314,-0.001078,-0.000000,0.000000,-0.000000
-1.340000,1.740000,0.260192,0.040000,-0.009521,-0.004552,0.002255,-0.000736,-0.000000,0.000000,-0.000000
-1.300000,1.740000,0.264764,0.040000,-0.009379,-0.004214,0.001968,-0.000850,-0.000000,0.000000,-0.000000
-1.300000,1.780000,0.225610,0.040000,-0.009448,-0.004200,0.001992,-0.001266,-0.000000,0.000000,-0.000000
-1.340000,1.780000,0.220227,0.040000,-0.009592,-0.004513,0.002350,-0.001219,-0.000000,0.000000,-0.000000
-1.260000,1.740000,0.260192,0.040000,-0.009234,-0.003809,0.001512,-0.000884,-0.000000,0.000000,-0.000000
-1.220000,1.740000,0.261725,0.040000,-0.009086,-0.003534,0.001276,-0.000944,-0.000000,0.000000,-0.000000
-1.220000,1.780000,0.222036,0.040000,-0.009151,-0.003499,0.001276,-0.001284,-0.000000,0.000000,-0.000000
-1.260000,1.780000,0.220227,0.040000,-0.009301,-0.003751,0.001568,-0.001275,-0.000000,0.000000,-0.000000
-1.180000,1.740000,0.261725,0.040000,-0.008936,-0.003201,0.000899,-0.000957,-0.000000,0.000000,-0.000000
-1.140000,1.740000,0.260192,0.040000,-0.008784,-0.002976,0.000704,-0.000980,-0.000000,0.000000,-0.000000
-1.140000,1.780000,0.220227,0.040000,-0.008846,-0.002927,0.000688,-0.001260,-0.000000,0.000000,-0.000000
-1.180000,1.780000,0.222036,0.040000,-0.008999,-0.003132,0.000928,-0.001276,-0.000000,0.000000,-0.000000
-1.100000,1.740000,0.264764,0.040000,-0.008632,-0.002702,0.000390,-0.000979,-0.000000,0.000000,-0.000000
-1.060000,1.740000,0.260192,0.040000,-0.008478,-0.002517,0.000228,-0.000976,-0.000000,0.000000,-0.000000
-1.060000,1.780000,0.220227,0.040000,-0.008536,-0.002457,0.000203,-0.001208,-0.000000,0.000000,-0.000000
-1.100000,1.780000,0.225610,0.040000,-0.008691,-0.002626,0.000402,-0.001240,-0.000000,0.000000,-0.000000
-1.020000,1.740000,0.261725,0.040000,-0.008325,-0.002289,-0.000034,-0.000966,-0.000000,0.000000,-0.000000
-0.980000,1.740000,0.261725,0.040000,-0.008171,-0.002136,-0.000169,-0.000946,-0.000000,0.000000,-0.000000
-0.980000,1.780000,0.222036,0.040000,-0.008226,-0.002070,-0.000201,-0.001139,-0.000000,0.000000,-0.000000
-1.020000,1.780000,0.222036,0.040000,-0.008381,-0.002210,-0.000035,-0.001181,-0.000000,0.000000,-0.000000
-0.940000,1.740000,0.260192,0.040000,-0.008018,-0.001946,-0.000388,-0.000930,-0.000000,0.000000,-0.000000
-0.900000,1.740000,0.264764,0.040000,-0.007865,-0.001819,-0.000502,-0.000898,-0.000000,0.000000,-0.000000
-0.900000,1.780000,0.225610,0.040000,-0.007916,-0.001750,-0.000537,-0.001059,-0.000000,0.000000,-0.000000
-0.940000,1.780000,0.220227,0.040000,-0.008071,-0.001866,-0.000398,-0.001107,-0.000000,0.000000,-0.000000
-0.860000,1.740000,0.260192,0.040000,-0.007713,-0.001661,-0.000686,-0.000877,-0.000000,0.000000,-0.000000
-0.820000,1.740000,0.261725,0.040000,-0.007562,-0.001556,-0.000781,-0.000836,-0.000000,-0.000000,-0.000000
-0.820000,1.780000,0.222036,0.040000,-0.007611,-0.001484,-0.000818,-0.000971,-0.000000,-0.000000,-0.000000
-0.860000,1.780000,0.220227,0.040000,-0.007763,-0.001580,-0.000703,-0.001024,-0.000000,-0.000000,-0.000000
-0.780000,1.740000,0.261725,0.040000,-0.007413,-0.001424,-0.000936,-0.000813,-0.000000,-0.000000,-0.000000
-0.740000,1.740000,0.260192,0.040000,-0.007265,-0.001336,-0.001016,-0.000767,-0.000000,-0.000000,-0.000000
-0.740000,1.780000,0.220227,0.040000,-0.007310,-0.001263,-0.001054,-0.000879,-0.000000,-0.000000,-0.000000
-0.780000,1.780000,0.222036,0.040000,-0.007460,-0.001342,-0.000957,-0.000934,-0.000000,-0.000000,-0.000000
-0.700000,1.740000,0.264764,0.040000,-0.007118,-0.001227,-0.001145,-0.000741,-0.000000,-0.000000,-0.000000
-0.660000,1.740000,0.260192,0.040000,-0.006973,-0.001154,-0.001212,-0.000691,-0.000000,-0.000000,-0.000000
-0.660000,1.780000,0.220227,0.040000,-0.007016,-0.001079,-0.001251,-0.000784,-0.000000,-0.000000,-0.000000
-0.700000,1.780000,0.225610,0.040000,-0.007162,-0.001145,-0.001170,-0.000842,-0.000000,-0.000000,-0.000000
-0.620000,1.740000,0.261725,0.040000,-0.006831,-0.001063,-0.001320,-0.000664,-0.000000,-0.000000,-0.000000
-0.580000,1.740000,0.261725,0.040000,-0.006690,-0.001003,-0.001376,-0.000611,-0.000000,-0.000000,-0.000000
-0.580000,1.780000,0.222036,0.040000,-0.006731,-0.000928,-0.001415,-0.000689,-0.000000,-0.000000,-0.000000
-0.620000,1.780000,0.222036,0.040000,-0.006872,-0.000982,-0.001347,-0.000747,-0.000000,-0.000000,-0.000000
-0.540000,1.740000,0.260192,0.040000,-0.006551,-0.000928,-0.001466,-0.000583,-0.000000,-0.000000,-0.000000
-0.500000,1.740000,0.264764,0.040000,-0.006415,-0.000878,-0.001512,-0.000529,-0.000000,-0.000000,-0.000000
-0.500000,1.780000,0.225610,0.040000,-0.006454,-0.000803,-0.001550,-0.000593,-0.000000,-0.000000,-0.000000
-0.540000,1.780000,0.220227,0.040000,-0.006591,-0.000848,-0.001494,-0.000651,-0.000000,-0.000000,-0.000000
-0.460000,1.740000,0.260192,0.040000,-0.006282,-0.000817,-0.001585,-0.000500,-0.000000,-0.000000,-0.000000
-0.420000,1.740000,0.261725,0.040000,-0.006150,-0.000778,-0.001622,-0.000445,-0.000000,-0.000000,-0.000000
-0.420000,1.780000,0.222036,0.040000,-0.006187,-0.000703,-0.001659,-0.000496,0.000000,-0.000000,-0.000000
-0.460000,1.780000,0.220227,0.040000,-0.006319,-0.000738,-0.001615,-0.000555,-0.000000,-0.000000,-0.000000
-0.380000,1.740000,0.261725,0.040000,-0.006022,-0.000729,-0.001681,-0.000416,-0.000000,-0.000000,-0.000000
-0.340000,1.740000,0.260192,0.040000,-0.005896,-0.000698,-0.001710,-0.000360,0.000000,-0.000000,-0.000000
-0.340000,1.780000,0.220227,0.040000,-0.005931,-0.000623,-0.001747,-0.000400,0.000000,-0.000000,-0.000000
-0.380000,1.780000,0.222036,0.040000,-0.006058,-0.000650,-0.001712,-0.000459,0.000000,-0.000000,-0.000000
-0.300000,1.740000,0.264764,0.040000,-0.005772,-0.000660,-0.001756,-0.000331,0.000000,-0.000000,-0.000000
-0.260000,1.740000,0.260192,0.040000,-0.005652,-0.000637,-0.001778,-0.000274,0.000000,-0.000000,-0.000000
-0.260000,1.780000,0.220227,0.040000,-0.005687,-0.000562,-0.001814,-0.000304,0.000000,-0.000000,-0.000000
-0.300000,1.780000,0.225610,0.040000,-0.005808,-0.000583,-0.001787,-0.000363,0.000000,-0.000000,-0.000000
-0.220000,1.740000,0.261725,0.040000,-0.005534,-0.000609,-0.001811,-0.000245,0.000000,-0.000000,-0.000000
-0.180000,1.740000,0.261725,0.040000,-0.005420,-0.000593,-0.001827,-0.000188,0.000000,-0.000000,-0.000000
-0.180000,1.780000,0.222036,0.040000,-0.005453,-0.000518,-0.001863,-0.000209,0.000000,-0.000000,-0.000000
-0.220000,1.780000,0.222036,0.040000,-0.005569,-0.000533,-0.001843,-0.000267,0.000000,-0.000000,-0.000000
-0.140000,1.740000,0.260192,0.040000,-0.005308,-0.000575,-0.001848,-0.000159,0.000000,-0.000000,-0.000000
-0.100000,1.740000,0.264764,0.040000,-0.005199,-0.000566,-0.001858,-0.000101,0.000000,-0.000000,-0.000000
-0.100000,1.780000,0.225610,0.040000,-0.005232,-0.000490,-0.001893,-0.000114,0.000000,-0.000000,-0.000000
-0.140000,1.780000,0.220227,0.040000,-0.005341,-0.000499,-0.001882,-0.000172,0.000000,-0.000000,-0.000000
-0.060000,1.740000,0.260192,0.040000,-0.005093,-0.000557,-0.001868,-0.000072,0.000000,-0.000000,-0.000000
-0.020000,1.740000,0.261725,0.040000,-0.004990,-0.000554,-0.001871,-0.000015,0.000000,-0.000000,-0.000000
-0.020000,1.780000,0.222036,0.040000,-0.005023,-0.000478,-0.001906,-0.000019,0.000000,-0.000000,-0.000000
-0.060000,1.780000,0.220227,0.040000,-0.005126,-0.000481,-0.001902,-0.000077,0.000000,-0.000000,-0.000000
0.020000,1.740000,0.261725,0.040000,-0.004890,-0.000554,-0.001871,0.000014,0.000000,-0.000000,0.000000
0.060000,1.740000,0.260192,0.040000,-0.004793,-0.000557,-0.001868,0.000072,0.000000,-0.000000,0.000000
0.060000,1.780000,0.220227,0.040000,-0.004826,-0.000481,-0.001902,0.000077,0.000000,-0.000000,0.000000
0.020000,1.780000,0.222036,0.040000,-0.004923,-0.000478,-0.001906,0.000018,0.000000,-0.000000,0.000000
0.100000,1.740000,0.264764,0.040000,-0.004699,-0.000566,-0.001858,0.000101,0.000000,-0.000000,0.000000
0.140000,1.740000,0.260192,0.040000,-0.004608,-0.000575,-0.001848,0.000158,0.000000,-0.000000,0.000000
0.140000,1.780000,0.220227,0.040000,-0.004642,-0.000499,-0.001882,0.000172,0.000000,-0.000000,0.000000
0.100000,1.780000,0.225610,0.040000,-0.004732,-0.000490,-0.001893,0.000113,0.000000,-0.000000,0.000000
0.180000,1.740000,0.261725,0.040000,-0.004520,-0.000593,-0.001827,0.000188,0.000000,-0.000000,0.000000
0.220000,1.740000,0.261725,0.040000,-0.004435,-0.000609,-0.001811,0.000245,0.000000,-0.000000,0.000000
0.220000,1.780000,0.222036,0.040000,-0.004469,-0.000532,-0.001844,0.000267,0.000000,-0.000000,0.000000
0.180000,1.780000,0.222036,0.040000,-0.004554,-0.000518,-0.001862,0.000209,0.000000,-0.000000,0.000000
0.260000,1.740000,0.260192,0.040000,-0.004352,-0.000637,-0.001778,0.000274,0.000000,-0.000000,0.000000
0.300000,1.740000,0.264764,0.040000,-0.004273,-0.000660,-0.001756,0.000331,0.000000,-0.000000,0.000000
0.300000,1.780000,0.225610,0.040000,-0.004308,-0.000583,-0.001788,0.000362,0.000000,-0.000000,0.000000
0.260000,1.780000,0.220227,0.040000,-0.004387,-0.000562,-0.001814,0.000304,0.000000,-0.000000,0.000000
0.340000,1.740000,0.260192,0.040000,-0.004196,-0.000698,-0.001710,0.000360,0.000000,-0.000000,0.000000
0.380000,1.740000,0.261725,0.040000,-0.004122,-0.000729,-0.001681,0.000416,-0.000000,-0.000000,0.000000
0.380000,1.780000,0.222036,0.040000,-0.004158,-0.000651,-0.001712,0.000458,0.000000,-0.000000,0.000000
0.340000,1.780000,0.220227,0.040000,-0.004232,-0.000622,-0.001747,0.000400,0.000000,-0.000000,0.000000
0.420000,1.740000,0.261725,0.040000,-0.004051,-0.000777,-0.001622,0.000445,-0.000000,-0.000000,0.000000
0.460000,1.740000,0.260192,0.040000,-0.003982,-0.000817,-0.001585,0.000500,-0.000000,-0.000000,0.000000
0.460000,1.780000,0.220227,0.040000,-0.004020,-0.000738,-0.001615,0.000554,-0.000000,-0.000000,0.000000
0.420000,1.780000,0.222036,0.040000,-0.004088,-0.000702,-0.001660,0.000496,0.000000,-0.000000,0.000000
0.500000,1.740000,0.264764,0.040000,-0.003916,-0.000878,-0.001512,0.000529,-0.000000,-0.000000,0.000000
0.540000,1.740000,0.260192,0.040000,-0.003852,-0.000927,-0.001466,0.000583,-0.000000,-0.000000,0.000000
0.540000,1.780000,0.220227,0.040000,-0.003892,-0.000847,-0.001495,0.000651,-0.000000,-0.000000,0.000000
0.500000,1.780000,0.225610,0.040000,-0.003955,-0.000803,-0.001550,0.000592,-0.000000,-0.000000,0.000000
0.580000,1.740000,0.261725,0.040000,-0.003791,-0.001002,-0.001377,0.000611,-0.000000,-0.000000,0.000000
0.620000,1.740000,0.261725,0.040000,-0.003731,-0.001062,-0.001321,0.000663,-0.000000,-0.000000,0.000000
0.620000,1.780000,0.222036,0.040000,-0.003773,-0.000981,-0.001348,0.000746,-0.000000,-0.000000,0.000000
0.580000,1.780000,0.222036,0.040000,-0.003831,-0.000928,-0.001415,0.000688,-0.000000,-0.000000,0.000000
0.660000,1.740000,0.260192,0.040000,-0.003674,-0.001153,-0.001213,0.000691,-0.000000,-0.000000,0.000000
0.700000,1.740000,0.264764,0.040000,-0.003619,-0.001226,-0.001146,0.000740,-0.000000,-0.000000,0.000000
0.700000,1.780000,0.225610,0.040000,-0.003663,-0.001145,-0.001170,0.000841,-0.000000,-0.000000,0.000000
0.660000,1.780000,0.220227,0.040000,-0.003717,-0.001079,-0.001251,0.000784,-0.000000,-0.000000,0.000000
0.740000,1.740000,0.260192,0.040000,-0.003565,-0.001336,-0.001016,0.000766,-0.000000,-0.000000,0.000000
0.780000,1.740000,0.261725,0.040000,-0.003514,-0.001424,-0.000936,0.000812,-0.000000,-0.000000,0.000000
0.780000,1.780000,0.222036,0.040000,-0.003560,-0.001342,-0.000957,0.000934,-0.000000,-0.000000,0.000000
0.740000,1.780000,0.220227,0.040000,-0.003611,-0.001262,-0.001055,0.000878,-0.000000,-0.000000,0.000000
0.820000,1.740000,0.261725,0.040000,-0.003463,-0.001555,-0.000782,0.000836,-0.000000,-0.000000,0.000000
0.860000,1.740000,0.260192,0.040000,-0.003414,-0.001661,-0.000687,0.000876,-0.000000,0.000000,0.000000
0.860000,1.780000,0.220227,0.040000,-0.003464,-0.001579,-0.000703,0.001023,-0.000000,-0.000000,0.000000
0.820000,1.780000,0.222036,0.040000,-0.003512,-0.001483,-0.000819,0.000970,-0.000000,-0.000000,0.000000
0.900000,1.740000,0.264764,0.040000,-0.003366,-0.001819,-0.000503,0.000897,-0.000000,0.000000,0.000000
0.940000,1.740000,0.260192,0.040000,-0.003319,-0.001946,-0.000389,0.000929,-0.000000,0.000000,0.000000
0.940000,1.780000,0.220227,0.040000,-0.003372,-0.001864,-0.000400,0.001107,-0.000000,0.000000,0.000000
0.900000,1.780000,0.225610,0.040000,-0.003417,-0.001749,-0.000538,0.001058,-0.000000,0.000000,0.000000
0.980000,1.740000,0.261725,0.040000,-0.003272,-0.002135,-0.000170,0.000946,-0.000000,0.000000,0.000000
1.020000,1.740000,0.261725,0.040000,-0.003226,-0.002288,-0.000035,0.000966,-0.000000,0.000000,0.000000
1.020000,1.780000,0.222036,0.040000,-0.003282,-0.002209,-0.000036,0.001181,-0.000000,0.000000,0.000000
0.980000,1.780000,0.222036,0.040000,-0.003327,-0.002070,-0.000201,0.001139,-0.000000,0.000000,0.000000
1.060000,1.740000,0.260192,0.040000,-0.003180,-0.002515,0.000227,0.000976,-0.000000,0.000000,0.000000
1.100000,1.740000,0.264764,0.040000,-0.003133,-0.002701,0.000389,0.000979,-0.000000,0.000000,0.000000
1.100000,1.780000,0.225610,0.040000,-0.003193,-0.002625,0.000400,0.001239,-0.000000,0.000000,0.000000
1.060000,1.780000,0.220227,0.040000,-0.003238,-0.002456,0.000202,0.001208,-0.000000,0.000000,0.000000
1.140000,1.740000,0.260192,0.040000,-0.003085,-0.002975,0.000702,0.000979,-0.000000,0.000000,0.000000
1.180000,1.740000,0.261725,0.040000,-0.003037,-0.003200,0.000897,0.000957,-0.000000,0.000000,0.000000
1.180000,1.780000,0.222036,0.040000,-0.003100,-0.003131,0.000927,0.001275,-0.000000,0.000000,0.000000
1.140000,1.780000,0.220227,0.040000,-0.003147,-0.002925,0.000687,0.001260,-0.000000,0.000000,0.000000
1.220000,1.740000,0.261725,0.040000,-0.002987,-0.003532,0.001274,0.000943,-0.000000,0.000000,0.000000
1.260000,1.740000,0.260192,0.040000,-0.002935,-0.003807,0.001510,0.000884,-0.000000,0.000000,0.000000
1.260000,1.780000,0.220227,0.040000,-0.003002,-0.003750,0.001566,0.001275,-0.000000,0.000000,0.000000
1.220000,1.780000,0.222036,0.040000,-0.003052,-0.003496,0.001274,0.001284,-0.000000,0.000000,0.000000
1.300000,1.740000,0.264764,0.040000,-0.002881,-0.004212,0.001966,0.000850,-0.000000,0.000000,0.000000
1.340000,1.740000,0.260192,0.040000,-0.002823,-0.004549,0.002253,0.000736,-0.000000,0.000000,0.000000
1.340000,1.780000,0.220227,0.040000,-0.002894,-0.004510,0.002348,0.001219,-0.000000,0.000000,0.000000
1.300000,1.780000,0.225610,0.040000,-0.002949,-0.004198,0.001990,0.001265,-0.000000,0.000000,0.000000
1.380000,1.740000,0.261725,0.040000,-0.002762,-0.005045,0.002807,0.000670,-0.000000,0.000000,0.000000
1.420000,1.740000,0.261725,0.040000,-0.002696,-0.005462,0.003158,0.000475,-0.000000,0.000000,0.000000
1.420000,1.780000,0.222036,0.040000,-0.002770,-0.005454,0.003311,0.001077,-0.000000,0.000000,0.000000
1.380000,1.780000,0.222036,0.040000,-0.002834,-0.005064,0.002869,0.001181,-0.000000,0.000000,0.000000
1.460000,1.740000,0.260192,0.040000,-0.002626,-0.006072,0.003836,0.000362,-0.000000,0.000000,0.000000
1.500000,1.740000,0.264764,0.040000,-0.002549,-0.006593,0.004270,0.000045,-0.000000,0.000000,0.000000
1.500000,1.780000,0.225610,0.040000,-0.002624,-0.006633,0.004509,0.000801,-0.000000,0.000000,0.000000
1.460000,1.780000,0.220227,0.040000,-0.002700,-0.006143,0.003958,0.000995,-0.000000,0.000000,0.000000
1.540000,1.740000,0.260192,0.040000,-0.002465,-0.007347,0.005102,-0.000141,-0.000000,0.000000,-0.000000
1.580000,1.740000,0.261725,0.040000,-0.002374,-0.007999,0.005640,-0.000644,-0.000000,0.000000,-0.000000
1.580000,1.780000,0.222036,0.040000,-0.002450,-0.008120,0.006012,0.000312,-0.000000,0.000000,0.000000
1.540000,1.780000,0.220227,0.040000,-0.002541,-0.007497,0.005318,0.000649,-0.000000,0.000000,0.000000
1.620000,1.740000,0.261725,0.040000,-0.002273,-0.008934,0.006664,-0.000943,-0.000000,0.000000,-0.000000
1.660000,1.740000,0.260192,0.040000,-0.002162,-0.009754,0.007336,-0.001733,-0.000000,0.000000,-0.000000
1.660000,1.780000,0.220227,0.040000,-0.002236,-0.010009,0.007916,-0.000518,-0.000000,0.000000,-0.000000
1.620000,1.780000,0.222036,0.040000,-0.002348,-0.009211,0.007033,0.000046,-0.000000,0.000000,0.000000
1.700000,1.740000,0.264764,0.040000,-0.002038,-0.010913,0.008593,-0.002212,-0.000000,0.000000,-0.000000
1.740000,1.740000,0.260192,0.040000,-0.001902,-0.011942,0.009431,-0.003454,-0.000000,0.000000,-0.000000
1.740000,1.780000,0.220227,0.040000,-0.001971,-0.012420,0.010340,-0.001908,-0.000000,0.000000,-0.000000
1.700000,1.780000,0.225610,0.040000,-0.002110,-0.011394,0.009212,-0.000972,-0.000000,0.000000,-0.000000
1.780000,1.740000,0.261725,0.040000,-0.001750,-0.013362,0.010955,-0.004223,-0.000000,0.000000,-0.000000
1.820000,1.740000,0.261725,0.040000,-0.001581,-0.014639,0.011987,-0.006187,-0.000000,0.000000,-0.000000
1.820000,1.780000,0.222036,0.040000,-0.001638,-0.015500,0.013435,-0.004238,-0.000000,0.000000,-0.000000
1.780000,1.780000,0.222036,0.040000,-0.001814,-0.014179,0.011991,-0.002677,-0.000000,0.000000,-0.000000
1.860000,1.740000,0.260192,0.040000,-0.001393,-0.016327,0.013774,-0.007431,-0.000000,0.000000,-0.000000
1.900000,1.740000,0.264764,0.040000,-0.001184,-0.017856,0.015001,-0.010562,-0.000000,0.000000,-0.000000
1.900000,1.780000,0.225610,0.040000,-0.001219,-0.019387,0.017342,-0.008183,-0.000000,0.000000,-0.000000
1.860000,1.780000,0.220227,0.040000,-0.001441,-0.017708,0.015518,-0.005551,-0.000000,0.000000,-0.000000
1.940000,1.740000,0.260192,0.040000,-0.000950,-0.019709,0.016916,-0.012596,-0.000000,0.000000,-0.000000
1.980000,1.740000,0.261725,0.040000,-0.000691,-0.021365,0.018231,-0.017614,-0.000000,0.000000,-0.000000
1.980000,1.780000,0.222036,0.040000,-0.000686,-0.024090,0.022077,-0.014968,-0.000000,0.000000,-0.000000
1.940000,1.780000,0.220227,0.040000,-0.000968,-0.022053,0.019884,-0.010462,-0.000000,0.000000,-0.000000
2.020000,1.740000,0.261725,0.040000,-0.000402,-0.022958,0.019778,-0.020961,-0.000000,0.000000,-0.000000
2.060000,1.740000,0.260192,0.040000,-0.000083,-0.024222,0.020747,-0.028958,-0.000000,0.000000,-0.000000
2.060000,1.780000,0.220227,0.040000,-0.000012,-0.029079,0.027117,-0.026825,-0.000000,0.000000,-0.000000
2.020000,1.780000,0.222036,0.040000,-0.000369,-0.026958,0.024873,-0.019005,-0.000000,0.000000,-0.000000
2.100000,1.740000,0.264764,0.040000,0.000267,-0.024239,0.020377,-0.034404,-0.000000,0.000000,-0.000000
2.140000,1.740000,0.260192,0.040000,0.000650,-0.022352,0.018802,-0.046213,-0.000000,0.000000,-0.000000
2.140000,1.780000,0.220227,0.040000,0.000836,-0.032080,0.029935,-0.047861,-0.000000,0.000000,-0.000000
2.100000,1.780000,0.225610,0.040000,0.000389,-0.031168,0.028938,-0.034483,-0.000000,0.000000,-0.000000
2.180000,1.740000,0.261725,0.040000,0.001060,-0.018652,0.013481,-0.055783,-0.000000,0.000000,-0.000000
2.220000,1.740000,0.261725,0.040000,0.001492,-0.009164,0.005144,-0.070839,-0.000000,0.000000,-0.000000
2.220000,1.780000,0.222036,0.040000,0.001871,-0.026822,0.023108,-0.081408,-0.000000,0.000000,-0.000000
2.180000,1.780000,0.222036,0.040000,0.001331,-0.032816,0.028826,-0.061777,-0.000000,0.000000,-0.000000
2.260000,1.740000,0.240208,0.040000,0.001931,0.005131,-0.009630,-0.085075,0.000000,-0.000000,-0.000000
2.300000,1.740000,0.200250,0.040000,0.002354,0.027983,-0.032843,-0.097730,0.000000,-0.000000,-0.000000
2.300000,1.780000,0.202237,0.040000,0.003035,0.010693,-0.016052,-0.128037,0.000000,-0.000000,-0.000000
2.260000,1.780000,0.220227,0.040000,0.002447,-0.014234,0.009337,-0.103494,-0.000000,0.000000,-0.000000
2.340000,1.740000,0.160312,0.040000,0.002722,0.060664,-0.065910,-0.104012,0.000000,-0.000000,-0.000000
2.380000,1.740000,0.120416,0.040000,0.002982,0.102039,-0.107743,-0.096370,0.000000,-0.000000,-0.000000
2.380000,1.780000,0.123693,0.040000,0.004056,0.114982,-0.123116,-0.154655,0.000000,-0.000000,-0.000000
2.340000,1.780000,0.162788,0.040000,0.003594,0.052529,-0.058538,-0.148621,0.000000,-0.000000,-0.000000
2.420000,1.740000,0.080623,0.040000,0.003070,0.153364,-0.196096,-0.077808,0.000000,-0.000000,-0.000000
2.460000,1.740000,0.041231,0.040000,0.002931,0.187574,-0.312673,-0.079526,0.000000,-0.000000,-0.000000
2.460000,1.780000,0.050000,0.040000,0.004218,0.263659,-0.253330,-0.143267,0.000000,-0.000000,-0.000000
2.420000,1.780000,0.085440,0.040000,0.004320,0.194950,-0.202986,-0.150447,0.000000,-0.000000,-0.000000
2.500000,1.740000,0.010000,0.040000,0.002648,0.107181,-0.137737,-0.085902,0.000000,-0.000000,-0.000000
2.500000,1.780000,0.030000,0.040000,0.002932,0.509948,-0.654148,-0.142923,0.000000,-0.000000,-0.000000
-2.500000,1.820000,0.030000,0.040000,-0.005647,-2.024978,-1.220280,-1.374764,-0.000000,-0.000000,-0.000000
-2.500000,1.860000,0.010000,0.040000,-0.015049,2.863596,-5.590614,-0.893125,0.000000,-0.000000,-0.000000
-2.460000,1.820000,0.050000,0.040000,-0.006136,-0.239865,-1.827881,-0.678600,0.000000,-0.000000,-0.000000
-2.420000,1.820000,0.085440,0.040000,-0.006204,0.218278,-0.714536,-0.018355,0.000000,-0.000000,-0.000000
-2.420000,1.860000,0.080623,0.040000,-0.004289,0.512431,-1.316086,0.117568,0.000000,-0.000000,0.000000
-2.460000,1.860000,0.041231,0.040000,-0.003968,0.785202,-3.620742,-0.275110,0.000000,-0.000000,-0.000000
-2.380000,1.820000,0.123693,0.040000,-0.006580,0.106372,-0.113088,0.241271,0.000000,-0.000000,0.000000
-2.340000,1.820000,0.162788,0.040000,-0.007144,0.022959,-0.029280,0.206912,0.000000,-0.000000,0.000000
-2.340000,1.860000,0.140357,0.040000,-0.006161,-0.045193,0.038165,0.271871,-0.000000,0.000000,0.000000
-2.380000,1.860000,0.120416,0.040000,-0.005162,0.067410,-0.099818,0.368882,0.000000,-0.000000,0.000000
-2.300000,1.820000,0.186815,0.040000,-0.007762,-0.023907,0.018040,0.161044,-0.000000,0.000000,0.000000
-2.260000,1.820000,0.180278,0.040000,-0.008356,-0.045499,0.040139,0.119366,-0.000000,0.000000,0.000000
-2.260000,1.860000,0.140357,0.040000,-0.007941,-0.090864,0.084865,0.125375,-0.000000,0.000000,0.000000
-2.300000,1.860000,0.148661,0.040000,-0.007110,-0.083178,0.076608,0.187434,-0.000000,0.000000,0.000000
-2.220000,1.820000,0.182483,0.040000,-0.008888,-0.052302,0.047521,0.086401,-0.000000,0.000000,0.000000
-2.180000,1.820000,0.182483,0.040000,-0.009345,-0.051868,0.047566,0.061957,-0.000000,0.000000,0.000000
-2.180000,1.860000,0.143178,0.040000,-0.009210,-0.074144,0.069517,0.055451,-0.000000,0.000000,0.000000
-2.220000,1.860000,0.143178,0.040000,-0.008638,-0.083601,0.078666,0.083105,-0.000000,0.000000,0.000000
-2.140000,1.820000,0.180278,0.040000,-0.009726,-0.048415,0.044348,0.044273,-0.000000,0.000000,0.000000
-2.100000,1.820000,0.186815,0.040000,-0.010037,-0.043388,0.039750,0.031650,-0.000000,0.000000,0.000000
-2.100000,1.860000,0.148661,0.040000,-0.010037,-0.053372,0.049952,0.024702,-0.000000,0.000000,0.000000
-2.140000,1.860000,0.140357,0.040000,-0.009671,-0.063047,0.059228,0.036785,-0.000000,0.000000,0.000000
-2.060000,1.820000,0.180278,0.040000,-0.010285,-0.038297,0.035007,0.022605,-0.000000,0.000000,0.000000
-2.020000,1.820000,0.182483,0.040000,-0.010476,-0.033503,0.030500,0.016099,-0.000000,0.000000,0.000000
-2.020000,1.860000,0.143178,0.040000,-0.010540,-0.038190,0.035455,0.010708,-0.000000,0.000000,0.000000
-2.060000,1.860000,0.140357,0.040000,-0.010323,-0.045389,0.042307,0.016377,-0.000000,0.000000,0.000000
-1.980000,1.820000,0.182483,0.040000,-0.010619,-0.029275,0.026481,0.011398,-0.000000,0.000000,0.000000
-1.940000,1.820000,0.180278,0.040000,-0.010719,-0.025555,0.022936,0.007954,-0.000000,0.000000,0.000000
-1.940000,1.860000,0.140357,0.040000,-0.010813,-0.027948,0.025530,0.004054,-0.000000,0.000000,0.000000
-1.980000,1.860000,0.143178,0.040000,-0.010701,-0.032799,0.030154,0.006880,-0.000000,0.000000,0.000000
-1.900000,1.820000,0.186815,0.040000,-0.010782,-0.022343,0.019855,0.005433,-0.000000,0.000000,0.000000
-1.860000,1.820000,0.180278,0.040000,-0.010813,-0.019593,0.017206,0.003563,-0.000000,0.000000,0.000000
-1.860000,1.860000,0.140357,0.040000,-0.010921,-0.020845,0.018615,0.000802,-0.000000,0.000000,0.000000
-1.900000,1.860000,0.148661,0.040000,-0.010884,-0.024016,0.021698,0.002188,-0.000000,0.000000,0.000000
-1.820000,1.820000,0.182483,0.040000,-0.010817,-0.017212,0.014906,0.002171,-0.000000,0.000000,0.000000
-1.780000,1.820000,0.182483,0.040000,-0.010797,-0.015178,0.012931,0.001137,-0.000000,0.000000,0.000000
-1.780000,1.860000,0.143178,0.040000,-0.010908,-0.015796,0.013675,-0.000844,-0.000000,0.000000,-0.000000
-1.820000,1.860000,0.143178,0.040000,-0.010927,-0.018012,0.015871,-0.000187,-0.000000,0.000000,-0.000000
-1.740000,1.820000,0.180278,0.040000,-0.010757,-0.013420,0.011221,0.000359,-0.000000,0.000000,0.000000
-1.700000,1.820000,0.186815,0.040000,-0.010698,-0.011898,0.009733,-0.000220,-0.000000,0.000000,-0.000000
-1.700000,1.860000,0.148661,0.040000,-0.010807,-0.012146,0.010104,-0.001690,-0.000000,0.000000,-0.000000
-1.740000,1.860000,0.140357,0.040000,-0.010867,-0.013826,0.011762,-0.001364,-0.000000,0.000000,-0.000000
-1.660000,1.820000,0.180278,0.040000,-0.010624,-0.010585,0.008445,-0.000652,-0.000000,0.000000,-0.000000
-1.620000,1.820000,0.182483,0.040000,-0.010536,-0.009438,0.007317,-0.000974,-0.000000,0.000000,-0.000000
-1.620000,1.860000,0.143178,0.040000,-0.010641,-0.009524,0.007513,-0.002085,-0.000000,0.000000,-0.000000
-1.660000,1.860000,0.140357,0.040000,-0.010731,-0.010753,0.008732,-0.001915,-0.000000,0.000000,-0.000000
-1.580000,1.820000,0.182483,0.040000,-0.010436,-0.008436,0.006328,-0.001206,-0.000000,0.000000,-0.000000
-1.540000,1.820000,0.180278,0.040000,-0.010327,-0.007563,0.005463,-0.001375,-0.000000,0.000000,-0.000000
-1.540000,1.860000,0.140357,0.040000,-0.010427,-0.007559,0.005561,-0.002212,-0.000000,0.000000,-0.000000
-1.580000,1.860000,0.143178,0.040000,-0.010539,-0.008446,0.006448,-0.002160,-0.000000,0.000000,-0.000000
-1.500000,1.820000,0.186815,0.040000,-0.010208,-0.006790,0.004694,-0.001493,-0.000000,0.000000,-0.000000
-1.460000,1.820000,0.180278,0.040000,-0.010082,-0.006111,0.004016,-0.001570,-0.000000,0.000000,-0.000000
-1.460000,1.860000,0.140357,0.040000,-0.010176,-0.006029,0.004032,-0.002207,-0.000000,0.000000,-0.000000
-1.500000,1.860000,0.148661,0.040000,-0.010305,-0.006732,0.004734,-0.002238,-0.000000,0.000000,-0.000000
-1.420000,1.820000,0.182483,0.040000,-0.009950,-0.005513,0.003416,-0.001619,-0.000000,0.000000,-0.000000
-1.380000,1.820000,0.182483,0.040000,-0.009812,-0.004974,0.002875,-0.001642,-0.000000,0.000000,-0.000000
-1.380000,1.860000,0.143178,0.040000,-0.009900,-0.004833,0.002834,-0.002150,-0.000000,0.000000,-0.000000
-1.420000,1.860000,0.143178,0.040000,-0.010041,-0.005451,0.003435,-0.002200,-0.000000,0.000000,-0.000000
-1.340000,1.820000,0.180278,0.040000,-0.009669,-0.004504,0.002400,-0.001646,-0.000000,0.000000,-0.000000
-1.300000,1.820000,0.186815,0.040000,-0.009523,-0.004078,0.001967,-0.001638,-0.000000,0.000000,-0.000000
-1.300000,1.860000,0.148661,0.040000,-0.009605,-0.003952,0.001925,-0.002054,-0.000000,0.000000,-0.000000
-1.340000,1.860000,0.140357,0.040000,-0.009754,-0.004409,0.002388,-0.002090,-0.000000,0.000000,-0.000000
-1.260000,1.820000,0.180278,0.040000,-0.009374,-0.003697,0.001581,-0.001615,-0.000000,0.000000,-0.000000
-1.220000,1.820000,0.182483,0.040000,-0.009222,-0.003363,0.001236,-0.001587,-0.000000,0.000000,-0.000000
-1.220000,1.860000,0.143178,0.040000,-0.009298,-0.003276,0.001215,-0.001918,-0.000000,0.000000,-0.000000
-1.260000,1.860000,0.140357,0.040000,-0.009453,-0.003554,0.001523,-0.001963,-0.000000,0.000000,-0.000000
-1.180000,1.820000,0.182483,0.040000,-0.009067,-0.003049,0.000917,-0.001550,-0.000000,0.000000,-0.000000
-1.140000,1.820000,0.180278,0.040000,-0.008912,-0.002781,0.000638,-0.001507,-0.000000,0.000000,-0.000000
-1.140000,1.860000,0.140357,0.040000,-0.008983,-0.002669,0.000599,-0.001757,-0.000000,0.000000,-0.000000
-1.180000,1.860000,0.143178,0.040000,-0.009141,-0.002871,0.000832,-0.001844,-0.000000,0.000000,-0.000000
-1.100000,1.820000,0.186815,0.040000,-0.008755,-0.002529,0.000378,-0.001464,-0.000000,0.000000,-0.000000
-1.060000,1.820000,0.180278,0.040000,-0.008598,-0.002302,0.000143,-0.001412,-0.000000,0.000000,-0.000000
-1.060000,1.860000,0.140357,0.040000,-0.008664,-0.002148,0.000067,-0.001612,-0.000000,0.000000,-0.000000
-1.100000,1.860000,0.148661,0.040000,-0.008824,-0.002394,0.000318,-0.001715,-0.000000,0.000000,-0.000000
-1.020000,1.820000,0.182483,0.040000,-0.008441,-0.002105,-0.000065,-0.001363,-0.000000,0.000000,-0.000000
-0.980000,1.820000,0.182483,0.040000,-0.008284,-0.001913,-0.000265,-0.001310,-0.000000,0.000000,-0.000000
-0.980000,1.860000,0.143178,0.040000,-0.008345,-0.001730,-0.000360,-0.001490,-0.000000,0.000000,-0.000000
-1.020000,1.860000,0.143178,0.040000,-0.008504,-0.002021,-0.000093,-0.001562,-0.000000,0.000000,-0.000000
-0.940000,1.820000,0.180278,0.040000,-0.008127,-0.001752,-0.000436,-0.001254,-0.000000,0.000000,-0.000000
-0.900000,1.820000,0.186815,0.040000,-0.007971,-0.001597,-0.000599,-0.001202,-0.000000,0.000000,-0.000000
-0.900000,1.860000,0.148661,0.040000,-0.008027,-0.001467,-0.000661,-0.001362,-0.000000,-0.000000,-0.000000
-0.940000,1.860000,0.140357,0.040000,-0.008186,-0.001643,-0.000479,-0.001400,-0.000000,0.000000,-0.000000
-0.860000,1.820000,0.180278,0.040000,-0.007815,-0.001457,-0.000748,-0.001144,-0.000000,-0.000000,-0.000000
-0.820000,1.820000,0.182483,0.040000,-0.007661,-0.001338,-0.000878,-0.001090,-0.000000,-0.000000,-0.000000
-0.820000,1.860000,0.143178,0.040000,-0.007714,-0.001261,-0.000904,-0.001215,-0.000000,-0.000000,-0.000000
-0.860000,1.860000,0.140357,0.040000,-0.007870,-0.001305,-0.000827,-0.001261,-0.000000,-0.000000,-0.000000
-0.780000,1.820000,0.182483,0.040000,-0.007509,-0.001215,-0.001006,-0.001035,-0.000000,-0.000000,-0.000000
-0.740000,1.820000,0.180278,0.040000,-0.007358,-0.001117,-0.001114,-0.000977,-0.000000,-0.000000,-0.000000
-0.740000,1.860000,0.140357,0.040000,-0.007407,-0.001014,-0.001156,-0.001062,-0.000000,-0.000000,-0.000000
-0.780000,1.860000,0.143178,0.040000,-0.007560,-0.001037,-0.001100,-0.001149,-0.000000,-0.000000,-0.000000
-0.700000,1.820000,0.186815,0.040000,-0.007208,-0.001020,-0.001218,-0.000924,-0.000000,-0.000000,-0.000000
-0.660000,1.820000,0.180278,0.040000,-0.007061,-0.000931,-0.001313,-0.000867,-0.000000,-0.000000,-0.000000
-0.660000,1.860000,0.140357,0.040000,-0.007107,-0.000786,-0.001389,-0.000935,-0.000000,-0.000000,-0.000000
-0.700000,1.860000,0.148661,0.040000,-0.007256,-0.000897,-0.001276,-0.001030,-0.000000,-0.000000,-0.000000
-0.620000,1.820000,0.182483,0.040000,-0.006916,-0.000860,-0.001394,-0.000813,-0.000000,-0.000000,-0.000000
-0.580000,1.820000,0.182483,0.040000,-0.006773,-0.000781,-0.001477,-0.000759,-0.000000,-0.000000,-0.000000
-0.580000,1.860000,0.143178,0.040000,-0.006816,-0.000611,-0.001567,-0.000832,0.000000,-0.000000,-0.000000
-0.620000,1.860000,0.143178,0.040000,-0.006961,-0.000788,-0.001418,-0.000892,-0.000000,-0.000000,-0.000000
-0.540000,1.820000,0.180278,0.040000,-0.006632,-0.000723,-0.001543,-0.000703,-0.000000,-0.000000,-0.000000
-0.500000,1.820000,0.186815,0.040000,-0.006494,-0.000663,-0.001608,-0.000652,0.000000,-0.000000,-0.000000
-0.500000,1.860000,0.148661,0.040000,-0.006535,-0.000546,-0.001663,-0.000721,0.000000,-0.000000,-0.000000
-0.540000,1.860000,0.140357,0.040000,-0.006675,-0.000624,-0.001583,-0.000750,0.000000,-0.000000,-0.000000
-0.460000,1.820000,0.180278,0.040000,-0.006359,-0.000609,-0.001667,-0.000596,0.000000,-0.000000,-0.000000
-0.420000,1.820000,0.182483,0.040000,-0.006226,-0.000569,-0.001714,-0.000544,0.000000,-0.000000,-0.000000
-0.420000,1.860000,0.143178,0.040000,-0.006265,-0.000499,-0.001737,-0.000592,0.000000,-0.000000,-0.000000
-0.460000,1.860000,0.140357,0.040000,-0.006399,-0.000470,-0.001740,-0.000632,0.000000,-0.000000,-0.000000
-0.380000,1.820000,0.182483,0.040000,-0.006096,-0.000520,-0.001765,-0.000491,0.000000,-0.000000,-0.000000
-0.340000,1.820000,0.180278,0.040000,-0.005968,-0.000489,-0.001802,-0.000437,0.000000,-0.000000,-0.000000
-0.340000,1.860000,0.140357,0.040000,-0.006006,-0.000393,-0.001841,-0.000458,0.000000,-0.000000,-0.000000
-0.380000,1.860000,0.143178,0.040000,-0.006134,-0.000358,-0.001850,-0.000536,0.000000,-0.000000,-0.000000
-0.300000,1.820000,0.186815,0.040000,-0.005844,-0.000455,-0.001838,-0.000387,0.000000,-0.000000,-0.000000
-0.260000,1.820000,0.180278,0.040000,-0.005722,-0.000425,-0.001871,-0.000333,0.000000,-0.000000,-0.000000
-0.260000,1.860000,0.140357,0.040000,-0.005758,-0.000291,-0.001940,-0.000347,0.000000,-0.000000,-0.000000
-0.300000,1.860000,0.148661,0.040000,-0.005881,-0.000342,-0.001891,-0.000430,0.000000,-0.000000,-0.000000
-0.220000,1.820000,0.182483,0.040000,-0.005604,-0.000408,-0.001893,-0.000283,0.000000,-0.000000,-0.000000
-0.180000,1.820000,0.182483,0.040000,-0.005488,-0.000382,-0.001919,-0.000231,0.000000,-0.000000,-0.000000
-0.180000,1.860000,0.143178,0.040000,-0.005524,-0.000227,-0.001999,-0.000254,0.000000,-0.000000,-0.000000
-0.220000,1.860000,0.143178,0.040000,-0.005639,-0.000338,-0.001916,-0.000307,0.000000,-0.000000,-0.000000
-0.140000,1.820000,0.180278,0.040000,-0.005376,-0.000372,-0.001932,-0.000178,0.000000,-0.000000,-0.000000
-0.100000,1.820000,0.186815,0.040000,-0.005266,-0.000359,-0.001946,-0.000129,0.000000,-0.000000,-0.000000
-0.100000,1.860000,0.148661,0.040000,-0.005301,-0.000248,-0.001997,-0.000151,0.000000,-0.000000,-0.000000
-0.140000,1.860000,0.140357,0.040000,-0.005411,-0.000276,-0.001971,-0.000180,0.000000,-0.000000,-0.000000
-0.060000,1.820000,0.180278,0.040000,-0.005160,-0.000350,-0.001956,-0.000076,0.000000,-0.000000,-0.000000
-0.020000,1.820000,0.182483,0.040000,-0.005057,-0.000351,-0.001956,-0.000026,0.000000,-0.000000,-0.000000
-0.020000,1.860000,0.143178,0.040000,-0.005092,-0.000278,-0.001982,-0.000031,0.000000,-0.000000,-0.000000
-0.060000,1.860000,0.140357,0.040000,-0.005195,-0.000219,-0.002023,-0.000072,0.000000,-0.000000,-0.000000
0.020000,1.820000,0.182483,0.040000,-0.004957,-0.000345,-0.001961,0.000025,0.000000,-0.000000,0.000000
0.060000,1.820000,0.180278,0.040000,-0.004860,-0.000353,-0.001953,0.000077,0.000000,-0.000000,0.000000
0.060000,1.860000,0.140357,0.040000,-0.004895,-0.000256,-0.001994,0.000094,0.000000,-0.000000,0.000000
0.020000,1.860000,0.143178,0.040000,-0.004992,-0.000195,-0.002038,0.000021,0.000000,-0.000000,0.000000
0.100000,1.820000,0.186815,0.040000,-0.004767,-0.000359,-0.001946,0.000127,0.000000,-0.000000,0.000000
0.140000,1.820000,0.180278,0.040000,-0.004676,-0.000368,-0.001935,0.000180,0.000000,-0.000000,0.000000
0.140000,1.860000,0.140357,0.040000,-0.004711,-0.000239,-0.002001,0.000201,0.000000,-0.000000,0.000000
0.100000,1.860000,0.148661,0.040000,-0.004801,-0.000248,-0.001997,0.000125,0.000000,-0.000000,0.000000
0.180000,1.820000,0.182483,0.040000,-0.004588,-0.000388,-0.001915,0.000230,0.000000,-0.000000,0.000000
0.220000,1.820000,0.182483,0.040000,-0.004504,-0.000402,-0.001897,0.000282,0.000000,-0.000000,0.000000
0.220000,1.860000,0.143178,0.040000,-0.004540,-0.000255,-0.001972,0.000298,0.000000,-0.000000,0.000000
0.180000,1.860000,0.143178,0.040000,-0.004624,-0.000310,-0.001944,0.000244,0.000000,-0.000000,0.000000
0.260000,1.820000,0.180278,0.040000,-0.004423,-0.000429,-0.001868,0.000335,0.000000,-0.000000,0.000000
0.300000,1.820000,0.186815,0.040000,-0.004344,-0.000455,-0.001839,0.000385,0.000000,-0.000000,0.000000
0.300000,1.860000,0.148661,0.040000,-0.004381,-0.000342,-0.001891,0.000404,0.000000,-0.000000,0.000000
0.260000,1.860000,0.140357,0.040000,-0.004459,-0.000328,-0.001911,0.000369,0.000000,-0.000000,0.000000
0.340000,1.820000,0.180278,0.040000,-0.004269,-0.000485,-0.001805,0.000439,0.000000,-0.000000,0.000000
0.380000,1.820000,0.182483,0.040000,-0.004196,-0.000526,-0.001761,0.000490,0.000000,-0.000000,0.000000
0.380000,1.860000,0.143178,0.040000,-0.004234,-0.000440,-0.001795,0.000526,0.000000,-0.000000,0.000000
0.340000,1.860000,0.140357,0.040000,-0.004306,-0.000355,-0.001870,0.000480,0.000000,-0.000000,0.000000
0.420000,1.820000,0.182483,0.040000,-0.004126,-0.000562,-0.001719,0.000543,0.000000,-0.000000,0.000000
0.460000,1.820000,0.180278,0.040000,-0.004059,-0.000612,-0.001665,0.000597,0.000000,-0.000000,0.000000
0.460000,1.860000,0.140357,0.040000,-0.004099,-0.000506,-0.001711,0.000654,0.000000,-0.000000,0.000000
0.420000,1.860000,0.143178,0.040000,-0.004165,-0.000416,-0.001793,0.000582,0.000000,-0.000000,0.000000
0.500000,1.820000,0.186815,0.040000,-0.003995,-0.000663,-0.001608,0.000649,0.000000,-0.000000,0.000000
0.540000,1.820000,0.180278,0.040000,-0.003933,-0.000719,-0.001546,0.000704,-0.000000,-0.000000,0.000000
0.540000,1.860000,0.140357,0.040000,-0.003975,-0.000587,-0.001612,0.000772,0.000000,-0.000000,0.000000
0.500000,1.860000,0.148661,0.040000,-0.004036,-0.000545,-0.001663,0.000695,0.000000,-0.000000,0.000000
0.580000,1.820000,0.182483,0.040000,-0.003874,-0.000787,-0.001473,0.000758,-0.000000,-0.000000,0.000000
0.620000,1.820000,0.182483,0.040000,-0.003817,-0.000853,-0.001399,0.000812,-0.000000,-0.000000,0.000000
0.620000,1.860000,0.143178,0.040000,-0.003861,-0.000705,-0.001474,0.000882,-0.000000,-0.000000,0.000000
0.580000,1.860000,0.143178,0.040000,-0.003917,-0.000694,-0.001511,0.000822,-0.000000,-0.000000,0.000000
0.660000,1.820000,0.180278,0.040000,-0.003762,-0.000935,-0.001311,0.000868,-0.000000,-0.000000,0.000000
0.700000,1.820000,0.186815,0.040000,-0.003709,-0.001020,-0.001218,0.000922,-0.000000,-0.000000,0.000000
0.700000,1.860000,0.148661,0.040000,-0.003757,-0.000896,-0.001277,0.001004,-0.000000,-0.000000,0.000000
0.660000,1.860000,0.140357,0.040000,-0.003808,-0.000823,-0.001360,0.000957,-0.000000,-0.000000,0.000000
0.740000,1.820000,0.180278,0.040000,-0.003658,-0.001113,-0.001117,0.000979,-0.000000,-0.000000,0.000000
0.780000,1.820000,0.182483,0.040000,-0.003610,-0.001221,-0.001003,0.001033,-0.000000,-0.000000,0.000000
0.780000,1.860000,0.143178,0.040000,-0.003661,-0.001120,-0.001045,0.001139,-0.000000,-0.000000,0.000000
0.740000,1.860000,0.140357,0.040000,-0.003708,-0.000976,-0.001186,0.001084,-0.000000,-0.000000,0.000000
0.820000,1.820000,0.182483,0.040000,-0.003562,-0.001331,-0.000883,0.001089,-0.000000,-0.000000,0.000000
0.860000,1.820000,0.180278,0.040000,-0.003516,-0.001460,-0.000746,0.001145,-0.000000,-0.000000,0.000000
0.860000,1.860000,0.140357,0.040000,-0.003571,-0.001342,-0.000798,0.001283,-0.000000,-0.000000,0.000000
0.820000,1.860000,0.143178,0.040000,-0.003615,-0.001177,-0.000960,0.001205,-0.000000,-0.000000,0.000000
0.900000,1.820000,0.186815,0.040000,-0.003472,-0.001597,-0.000600,0.001199,-0.000000,0.000000,0.000000
0.940000,1.820000,0.180278,0.040000,-0.003428,-0.001747,-0.000440,0.001256,-0.000000,0.000000,0.000000
0.940000,1.860000,0.140357,0.040000,-0.003487,-0.001605,-0.000510,0.001421,-0.000000,0.000000,0.000000
0.900000,1.860000,0.148661,0.040000,-0.003528,-0.001466,-0.000662,0.001336,-0.000000,-0.000000,0.000000
0.980000,1.820000,0.182483,0.040000,-0.003385,-0.001918,-0.000261,0.001309,-0.000000,0.000000,0.000000
1.020000,1.820000,0.182483,0.040000,-0.003342,-0.002098,-0.000071,0.001362,-0.000000,0.000000,0.000000
1.020000,1.860000,0.143178,0.040000,-0.003405,-0.001938,-0.000150,0.001552,-0.000000,0.000000,0.000000
0.980000,1.860000,0.143178,0.040000,-0.003446,-0.001812,-0.000305,0.001480,-0.000000,0.000000,0.000000
1.060000,1.820000,0.180278,0.040000,-0.003300,-0.002305,0.000144,0.001413,-0.000000,0.000000,0.000000
1.100000,1.820000,0.186815,0.040000,-0.003257,-0.002528,0.000377,0.001461,-0.000000,0.000000,0.000000
1.100000,1.860000,0.148661,0.040000,-0.003325,-0.002393,0.000316,0.001688,-0.000000,0.000000,0.000000
1.060000,1.860000,0.140357,0.040000,-0.003365,-0.002184,0.000095,0.001633,-0.000000,0.000000,0.000000
1.140000,1.820000,0.180278,0.040000,-0.003213,-0.002775,0.000634,0.001508,-0.000000,0.000000,0.000000
1.180000,1.820000,0.182483,0.040000,-0.003169,-0.003054,0.000920,0.001549,-0.000000,0.000000,0.000000
1.180000,1.860000,0.143178,0.040000,-0.003242,-0.002953,0.000886,0.001834,-0.000000,0.000000,0.000000
1.140000,1.860000,0.140357,0.040000,-0.003284,-0.002630,0.000568,0.001779,-0.000000,0.000000,0.000000
1.220000,1.820000,0.182483,0.040000,-0.003123,-0.003355,0.001230,0.001586,-0.000000,0.000000,0.000000
1.260000,1.820000,0.180278,0.040000,-0.003075,-0.003699,0.001581,0.001616,-0.000000,0.000000,0.000000
1.260000,1.860000,0.140357,0.040000,-0.003154,-0.003590,0.001551,0.001984,-0.000000,0.000000,0.000000
1.220000,1.860000,0.143178,0.040000,-0.003199,-0.003191,0.001158,0.001908,-0.000000,0.000000,0.000000
1.300000,1.820000,0.186815,0.040000,-0.003025,-0.004076,0.001965,0.001635,-0.000000,0.000000,0.000000
1.340000,1.820000,0.180278,0.040000,-0.002971,-0.004498,0.002395,0.001647,-0.000000,0.000000,0.000000
1.340000,1.860000,0.140357,0.040000,-0.003056,-0.004370,0.002356,0.002111,-0.000000,0.000000,0.000000
1.300000,1.860000,0.148661,0.040000,-0.003107,-0.003950,0.001924,0.002028,-0.000000,0.000000,0.000000
1.380000,1.820000,0.182483,0.040000,-0.002914,-0.004978,0.002877,0.001640,-0.000000,0.000000,0.000000
1.420000,1.820000,0.182483,0.040000,-0.002852,-0.005504,0.003409,0.001618,-0.000000,0.000000,0.000000
1.420000,1.860000,0.143178,0.040000,-0.002943,-0.005365,0.003377,0.002190,-0.000000,0.000000,0.000000
1.380000,1.860000,0.143178,0.040000,-0.003002,-0.004913,0.002887,0.002140,-0.000000,0.000000,0.000000
1.460000,1.820000,0.180278,0.040000,-0.002784,-0.006112,0.004016,0.001571,-0.000000,0.000000,0.000000
1.500000,1.820000,0.186815,0.040000,-0.002710,-0.006786,0.004690,0.001490,-0.000000,0.000000,0.000000
1.500000,1.860000,0.148661,0.040000,-0.002807,-0.006729,0.004731,0.002211,-0.000000,0.000000,0.000000
1.460000,1.860000,0.140357,0.040000,-0.002878,-0.006063,0.004059,0.002228,-0.000000,0.000000,0.000000
1.540000,1.820000,0.180278,0.040000,-0.002629,-0.007555,0.005456,0.001376,-0.000000,0.000000,0.000000
1.580000,1.820000,0.182483,0.040000,-0.002539,-0.008438,0.006328,0.001205,-0.000000,0.000000,0.000000
1.580000,1.860000,0.143178,0.040000,-0.002641,-0.008525,0.006499,0.002149,-0.000000,0.000000,0.000000
1.540000,1.860000,0.140357,0.040000,-0.002729,-0.007518,0.005528,0.002233,-0.000000,0.000000,0.000000
1.620000,1.820000,0.182483,0.040000,-0.002438,-0.009426,0.007308,0.000972,-0.000000,0.000000,0.000000
1.660000,1.820000,0.180278,0.040000,-0.002326,-0.010583,0.008442,0.000653,-0.000000,0.000000,0.000000
1.660000,1.860000,0.140357,0.040000,-0.002434,-0.010785,0.008756,0.001935,-0.000000,0.000000,0.000000
1.620000,1.860000,0.143178,0.040000,-0.002544,-0.009436,0.007453,0.002074,-0.000000,0.000000,0.000000
1.700000,1.820000,0.186815,0.040000,-0.002201,-0.011892,0.009727,0.000217,-0.000000,0.000000,0.000000
1.740000,1.820000,0.180278,0.040000,-0.002060,-0.013409,0.011211,-0.000357,-0.000000,0.000000,-0.000000
1.740000,1.860000,0.140357,0.040000,-0.002170,-0.013782,0.011726,0.001385,-0.000000,0.000000,0.000000
1.700000,1.860000,0.148661,0.040000,-0.002310,-0.012139,0.010097,0.001663,-0.000000,0.000000,0.000000
1.780000,1.820000,0.182483,0.040000,-0.001900,-0.015176,0.012927,-0.001138,-0.000000,0.000000,-0.000000
1.820000,1.820000,0.182483,0.040000,-0.001720,-0.017195,0.014892,-0.002172,-0.000000,0.000000,-0.000000
1.820000,1.860000,0.143178,0.040000,-0.001830,-0.017919,0.015806,0.000176,-0.000000,0.000000,0.000000
1.780000,1.860000,0.143178,0.040000,-0.002011,-0.015870,0.013722,0.000833,-0.000000,0.000000,0.000000
1.860000,1.820000,0.180278,0.040000,-0.001517,-0.019585,0.017197,-0.003561,-0.000000,0.000000,-0.000000
1.900000,1.820000,0.186815,0.040000,-0.001285,-0.022329,0.019841,-0.005434,-0.000000,0.000000,-0.000000
1.900000,1.860000,0.148661,0.040000,-0.001388,-0.024003,0.021685,-0.002216,-0.000000,0.000000,-0.000000
1.860000,1.860000,0.140357,0.040000,-0.001624,-0.020870,0.018632,-0.000781,-0.000000,0.000000,-0.000000
1.940000,1.820000,0.180278,0.040000,-0.001022,-0.025535,0.022917,-0.007950,-0.000000,0.000000,-0.000000
1.980000,1.820000,0.182483,0.040000,-0.000722,-0.029262,0.026467,-0.011395,-0.000000,0.000000,-0.000000
1.980000,1.860000,0.143178,0.040000,-0.000805,-0.032862,0.030190,-0.006890,-0.000000,0.000000,-0.000000
1.940000,1.860000,0.140357,0.040000,-0.001117,-0.027895,0.025484,-0.004033,-0.000000,0.000000,-0.000000
2.020000,1.820000,0.182483,0.040000,-0.000380,-0.033474,0.030473,-0.016095,-0.000000,0.000000,-0.000000
2.060000,1.820000,0.180278,0.040000,0.000011,-0.038274,0.034982,-0.022596,-0.000000,0.000000,-0.000000
2.060000,1.860000,0.140357,0.040000,-0.000027,-0.045395,0.042307,-0.016353,-0.000000,0.000000,-0.000000
2.020000,1.860000,0.143178,0.040000,-0.000445,-0.038083,0.035375,-0.010717,-0.000000,0.000000,-0.000000
2.100000,1.820000,0.186815,0.040000,0.000458,-0.043354,0.039716,-0.031641,-0.000000,0.000000,-0.000000
2.140000,1.820000,0.180278,0.040000,0.000968,-0.048370,0.044304,-0.044252,-0.000000,0.000000,-0.000000
2.140000,1.860000,0.140357,0.040000,0.001023,-0.062961,0.059150,-0.036754,-0.000000,0.000000,-0.000000
2.100000,1.860000,0.148661,0.040000,0.000458,-0.053334,0.049914,-0.024723,-0.000000,0.000000,-0.000000
2.180000,1.820000,0.182483,0.040000,0.001549,-0.051824,0.047520,-0.061927,-0.000000,0.000000,-0.000000
2.220000,1.820000,0.182483,0.040000,0.002206,-0.052236,0.047456,-0.086353,-0.000000,0.000000,-0.000000
2.220000,1.860000,0.143178,0.040000,0.002455,-0.083436,0.078528,-0.083082,-0.000000,0.000000,-0.000000
2.180000,1.860000,0.143178,0.040000,0.001684,-0.074163,0.069510,-0.055443,-0.000000,0.000000,-0.000000
2.260000,1.820000,0.180278,0.040000,0.002937,-0.045434,0.040072,-0.119286,-0.000000,0.000000,-0.000000
2.300000,1.820000,0.186815,0.040000,0.003730,-0.023836,0.017968,-0.160920,-0.000000,0.000000,-0.000000
2.300000,1.860000,0.148661,0.040000,0.004382,-0.083039,0.076468,-0.187344,-0.000000,0.000000,-0.000000
2.260000,1.860000,0.140357,0.040000,0.003352,-0.090792,0.084786,-0.125293,-0.000000,0.000000,-0.000000
2.340000,1.820000,0.162788,0.040000,0.004547,0.023010,-0.029334,-0.206712,0.000000,-0.000000,-0.000000
2.380000,1.820000,0.123693,0.040000,0.005310,0.105957,-0.111542,-0.241349,0.000000,-0.000000,-0.000000
2.380000,1.860000,0.120416,0.040000,0.006728,0.055149,-0.064281,-0.368987,0.000000,-0.000000,-0.000000
2.340000,1.860000,0.140357,0.040000,0.005530,-0.044994,0.037970,-0.271628,-0.000000,0.000000,-0.000000
2.420000,1.820000,0.085440,0.040000,0.005886,0.201174,-0.244241,-0.207649,0.000000,-0.000000,-0.000000
2.460000,1.820000,0.050000,0.040000,0.006153,0.152865,-0.384983,-0.054160,0.000000,-0.000000,-0.000000
2.460000,1.860000,0.041231,0.040000,0.008318,0.553932,-0.766196,-0.197546,0.000000,-0.000000,-0.000000
2.420000,1.860000,0.080623,0.040000,0.007799,0.283240,-0.396132,-0.321910,0.000000,-0.000000,-0.000000
2.500000,1.820000,0.030000,0.040000,0.006841,-0.336800,-0.164622,0.090392,-0.000000,-0.000000,0.000000
2.500000,1.860000,0.010000,0.040000,0.007352,0.839432,-0.960373,0.004656,0.000000,-0.000000,0.000000
-2.500000,1.900000,0.050000,0.040000,-0.014337,1.642198,-8.314330,-0.111585,0.000000,-0.000000,-0.000000
-2.500000,1.940000,0.010000,0.040000,0.007149,-12.104459,-3.797567,-1.902092,-0.000000,0.000000,-0.000000
-2.460000,1.900000,0.064031,0.040000,-0.000389,-0.272239,-4.407874,0.241428,0.000000,-0.000000,0.000000
-2.420000,1.900000,0.094340,0.040000,-0.001950,0.318887,-1.436751,0.706186,0.000000,-0.000000,0.000000
-2.420000,1.940000,0.067082,0.040000,0.000558,-0.402465,-1.651264,0.146955,0.000000,-0.000000,0.000000
-2.460000,1.940000,0.041231,0.040000,0.003465,-3.425863,-4.871992,-0.851795,-0.000000,-0.000000,-0.000000
-2.380000,1.900000,0.104403,0.040000,-0.003671,-0.071527,0.035459,0.522831,-0.000000,0.000000,0.000000
-2.340000,1.900000,0.100499,0.040000,-0.005261,-0.176673,0.169858,0.312690,-0.000000,0.000000,0.000000
-2.340000,1.940000,0.060828,0.040000,-0.004656,-0.277646,0.355243,0.337375,-0.000000,0.000000,0.000000
-2.380000,1.940000,0.067082,0.040000,-0.002390,-0.198391,0.302955,0.605940,-0.000000,0.000000,0.000000
-2.300000,1.900000,0.111803,0.040000,-0.006595,-0.167509,0.159131,0.188061,-0.000000,0.000000,0.000000
-2.260000,1.900000,0.100499,0.040000,-0.007673,-0.144028,0.141756,0.110708,-0.000000,0.000000,0.000000
-2.260000,1.940000,0.060828,0.040000,-0.007653,-0.171890,0.200820,0.087801,-0.000000,0.000000,0.000000
-2.300000,1.940000,0.078102,0.040000,-0.006348,-0.229110,0.234372,0.156139,-0.000000,0.000000,0.000000
-2.220000,1.900000,0.104403,0.040000,-0.008524,-0.117175,0.110895,0.065791,-0.000000,0.000000,0.000000
-2.180000,1.900000,0.104403,0.040000,-0.009194,-0.095512,0.092125,0.041442,-0.000000,0.000000,0.000000
-2.180000,1.940000,0.067082,0.040000,-0.009337,-0.106480,0.111285,0.024801,-0.000000,0.000000,0.000000
-2.220000,1.940000,0.067082,0.040000,-0.008588,-0.138836,0.132344,0.045060,-0.000000,0.000000,0.000000
-2.140000,1.900000,0.100499,0.040000,-0.009717,-0.077824,0.073310,0.021851,-0.000000,0.000000,0.000000
-2.100000,1.900000,0.111803,0.040000,-0.010122,-0.061650,0.058054,0.014158,-0.000000,0.000000,0.000000
-2.100000,1.940000,0.078102,0.040000,-0.010304,-0.066186,0.060603,0.002070,-0.000000,0.000000,0.000000
-2.140000,1.940000,0.060828,0.040000,-0.009884,-0.087444,0.083945,0.009485,-0.000000,0.000000,0.000000
-2.060000,1.900000,0.100499,0.040000,-0.010433,-0.050699,0.048835,0.007348,-0.000000,0.000000,0.000000
-2.020000,1.900000,0.104403,0.040000,-0.010666,-0.041672,0.038635,0.003721,-0.000000,0.000000,0.000000
-2.020000,1.940000,0.067082,0.040000,-0.010855,-0.043749,0.038410,-0.002032,-0.000000,0.000000,-0.000000
-2.060000,1.940000,0.060828,0.040000,-0.010629,-0.051542,0.054933,0.000252,-0.000000,0.000000,0.000000
-1.980000,1.900000,0.104403,0.040000,-0.010836,-0.035332,0.033245,0.001812,-0.000000,0.000000,0.000000
-1.940000,1.900000,0.100499,0.040000,-0.010952,-0.030011,0.027477,-0.001121,-0.000000,0.000000,-0.000000
-1.940000,1.940000,0.060828,0.040000,-0.011138,-0.031477,0.028717,-0.004703,-0.000000,0.000000,-0.000000
-1.980000,1.940000,0.067082,0.040000,-0.011029,-0.036096,0.035918,-0.002650,-0.000000,0.000000,-0.000000
-1.900000,1.900000,0.111803,0.040000,-0.011025,-0.024961,0.022670,-0.001494,-0.000000,0.000000,-0.000000
-1.860000,1.900000,0.100499,0.040000,-0.011061,-0.021471,0.019721,-0.002397,-0.000000,0.000000,-0.000000
-1.860000,1.940000,0.060828,0.040000,-0.011237,-0.021112,0.020971,-0.004679,-0.000000,0.000000,-0.000000
-1.900000,1.940000,0.078102,0.040000,-0.011205,-0.025409,0.022092,-0.005166,-0.000000,0.000000,-0.000000
-1.820000,1.900000,0.104403,0.040000,-0.011066,-0.018375,0.016231,-0.002830,-0.000000,0.000000,-0.000000
-1.780000,1.900000,0.104403,0.040000,-0.011044,-0.016050,0.014156,-0.002825,-0.000000,0.000000,-0.000000
-1.780000,1.940000,0.067082,0.040000,-0.011206,-0.015988,0.014481,-0.004441,-0.000000,0.000000,-0.000000
-1.820000,1.940000,0.067082,0.040000,-0.011233,-0.018591,0.015656,-0.004816,-0.000000,0.000000,-0.000000
-1.740000,1.900000,0.100499,0.040000,-0.011000,-0.014079,0.012108,-0.003368,-0.000000,0.000000,-0.000000
-1.700000,1.900000,0.111803,0.040000,-0.010936,-0.012116,0.010133,-0.003257,-0.000000,0.000000,-0.000000
-1.700000,1.940000,0.078102,0.040000,-0.011084,-0.012072,0.009589,-0.004574,-0.000000,0.000000,-0.000000
-1.740000,1.940000,0.060828,0.040000,-0.011155,-0.014214,0.012411,-0.004751,-0.000000,0.000000,-0.000000
-1.660000,1.900000,0.100499,0.040000,-0.010856,-0.010750,0.008896,-0.003191,-0.000000,0.000000,-0.000000
-1.620000,1.900000,0.104403,0.040000,-0.010762,-0.009449,0.007561,-0.003325,-0.000000,0.000000,-0.000000
-1.620000,1.940000,0.067082,0.040000,-0.010897,-0.009345,0.007497,-0.004221,-0.000000,0.000000,-0.000000
-1.660000,1.940000,0.060828,0.040000,-0.010998,-0.010597,0.009110,-0.004158,-0.000000,0.000000,-0.000000
-1.580000,1.900000,0.104403,0.040000,-0.010655,-0.008299,0.006367,-0.003127,-0.000000,0.000000,-0.000000
-1.540000,1.900000,0.100499,0.040000,-0.010539,-0.007428,0.005620,-0.003055,-0.000000,0.000000,-0.000000
-1.540000,1.940000,0.060828,0.040000,-0.010663,-0.007173,0.005828,-0.003727,-0.000000,0.000000,-0.000000
-1.580000,1.940000,0.067082,0.040000,-0.010784,-0.008193,0.006007,-0.003886,-0.000000,0.000000,-0.000000
-1.500000,1.900000,0.111803,0.040000,-0.010413,-0.006554,0.004623,-0.003048,-0.000000,0.000000,-0.000000
-1.460000,1.900000,0.100499,0.040000,-0.010280,-0.005950,0.003968,-0.002735,-0.000000,0.000000,-0.000000
-1.460000,1.940000,0.060828,0.040000,-0.010393,-0.006009,0.003833,-0.003242,-0.000000,0.000000,-0.000000
-1.500000,1.940000,0.078102,0.040000,-0.010531,-0.006440,0.004263,-0.003495,-0.000000,0.000000,-0.000000
-1.420000,1.900000,0.104403,0.040000,-0.010140,-0.005329,0.003496,-0.002899,-0.000000,0.000000,-0.000000
-1.380000,1.900000,0.104403,0.040000,-0.009995,-0.004607,0.002592,-0.002723,-0.000000,0.000000,-0.000000
-1.380000,1.940000,0.067082,0.040000,-0.010098,-0.004540,0.001959,-0.003158,-0.000000,0.000000,-0.000000
-1.420000,1.940000,0.067082,0.040000,-0.010249,-0.005152,0.003793,-0.003394,-0.000000,0.000000,-0.000000
-1.340000,1.900000,0.100499,0.040000,-0.009846,-0.004178,0.002394,-0.002433,-0.000000,0.000000,-0.000000
-1.300000,1.900000,0.111803,0.040000,-0.009693,-0.003768,0.001811,-0.002545,-0.000000,0.000000,-0.000000
-1.300000,1.940000,0.078102,0.040000,-0.009787,-0.003654,0.001584,-0.002610,-0.000000,0.000000,-0.000000
-1.340000,1.940000,0.060828,0.040000,-0.009945,-0.003774,0.002616,-0.002820,-0.000000,0.000000,-0.000000
-1.260000,1.900000,0.100499,0.040000,-0.009537,-0.003488,0.001393,-0.002156,-0.000000,0.000000,-0.000000
-1.220000,1.900000,0.104403,0.040000,-0.009379,-0.003171,0.001322,-0.002371,-0.000000,0.000000,-0.000000
-1.220000,1.940000,0.067082,0.040000,-0.009466,-0.002979,0.001825,-0.002689,-0.000000,0.000000,-0.000000
-1.260000,1.940000,0.060828,0.040000,-0.009627,-0.003679,0.001112,-0.002467,-0.000000,0.000000,-0.000000
-1.180000,1.900000,0.104403,0.040000,-0.009219,-0.002638,0.000540,-0.002237,-0.000000,0.000000,-0.000000
-1.140000,1.900000,0.100499,0.040000,-0.009058,-0.002414,0.000601,-0.001859,-0.000000,0.000000,-0.000000
-1.140000,1.940000,0.060828,0.040000,-0.009137,-0.001950,0.000838,-0.002112,-0.000000,0.000000,-0.000000
-1.180000,1.940000,0.067082,0.040000,-0.009300,-0.002607,-0.000208,-0.002525,-0.000000,0.000000,-0.000000
-1.100000,1.900000,0.111803,0.040000,-0.008896,-0.002229,0.000221,-0.002049,-0.000000,0.000000,-0.000000
-1.060000,1.900000,0.100499,0.040000,-0.008733,-0.002104,-0.000081,-0.001641,-0.000000,0.000000,-0.000000
-1.060000,1.940000,0.060828,0.040000,-0.008805,-0.002365,-0.000428,-0.001856,-0.000000,0.000000,-0.000000
-1.100000,1.940000,0.078102,0.040000,-0.008971,-0.002124,0.000082,-0.001931,-0.000000,0.000000,-0.000000
-1.020000,1.900000,0.104403,0.040000,-0.008571,-0.001939,0.000046,-0.001888,-0.000000,0.000000,-0.000000
-0.980000,1.900000,0.104403,0.040000,-0.008408,-0.001507,-0.000662,-0.001787,-0.000000,-0.000000,-0.000000
-0.980000,1.940000,0.067082,0.040000,-0.008474,-0.001498,-0.001447,-0.001999,-0.000000,-0.000000,-0.000000
-1.020000,1.940000,0.067082,0.040000,-0.008641,-0.001747,0.000654,-0.002115,-0.000000,0.000000,-0.000000
-0.940000,1.900000,0.100499,0.040000,-0.008247,-0.001387,-0.000474,-0.001378,-0.000000,0.000000,-0.000000
-0.900000,1.900000,0.111803,0.040000,-0.008086,-0.001321,-0.000738,-0.001608,-0.000000,-0.000000,-0.000000
-0.900000,1.940000,0.078102,0.040000,-0.008147,-0.001226,-0.000822,-0.001402,-0.000000,-0.000000,-0.000000
-0.940000,1.940000,0.060828,0.040000,-0.008311,-0.000907,-0.000233,-0.001559,-0.000000,0.000000,-0.000000
-0.860000,1.900000,0.100499,0.040000,-0.007927,-0.001276,-0.000977,-0.001207,-0.000000,-0.000000,-0.000000
-0.820000,1.900000,0.104403,0.040000,-0.007769,-0.001194,-0.000749,-0.001463,-0.000000,-0.000000,-0.000000
-0.820000,1.940000,0.067082,0.040000,-0.007827,-0.001009,-0.000103,-0.001637,-0.000000,0.000000,-0.000000
-0.860000,1.940000,0.060828,0.040000,-0.007985,-0.001568,-0.001348,-0.001368,-0.000000,-0.000000,-0.000000
-0.780000,1.900000,0.104403,0.040000,-0.007612,-0.000828,-0.001396,-0.001387,-0.000000,-0.000000,-0.000000
-0.740000,1.900000,0.100499,0.040000,-0.007458,-0.000766,-0.001148,-0.000975,-0.000000,-0.000000,-0.000000
-0.740000,1.940000,0.060828,0.040000,-0.007511,-0.000293,-0.000915,-0.001112,0.000000,-0.000000,-0.000000
-0.780000,1.940000,0.067082,0.040000,-0.007666,-0.000831,-0.002173,-0.001554,0.000000,-0.000000,-0.000000
-0.700000,1.900000,0.111803,0.040000,-0.007305,-0.000766,-0.001339,-0.001220,-0.000000,-0.000000,-0.000000
-0.660000,1.900000,0.100499,0.040000,-0.007155,-0.000764,-0.001536,-0.000838,-0.000000,-0.000000,-0.000000
-0.660000,1.940000,0.060828,0.040000,-0.007203,-0.001060,-0.001908,-0.000964,-0.000000,-0.000000,-0.000000
-0.700000,1.940000,0.078102,0.040000,-0.007356,-0.000678,-0.001387,-0.000974,-0.000000,-0.000000,-0.000000
-0.620000,1.900000,0.104403,0.040000,-0.007007,-0.000731,-0.001260,-0.001088,-0.000000,-0.000000,-0.000000
-0.580000,1.900000,0.104403,0.040000,-0.006861,-0.000415,-0.001847,-0.001029,0.000000,-0.000000,-0.000000
-0.580000,1.940000,0.067082,0.040000,-0.006905,-0.000423,-0.002589,-0.001163,0.000000,-0.000000,-0.000000
-0.620000,1.940000,0.067082,0.040000,-0.007055,-0.000555,-0.000618,-0.001226,-0.000000,-0.000000,-0.000000
-0.540000,1.900000,0.100499,0.040000,-0.006718,-0.000387,-0.001575,-0.000630,0.000000,-0.000000,-0.000000
-0.500000,1.900000,0.111803,0.040000,-0.006577,-0.000425,-0.001716,-0.000872,0.000000,-0.000000,-0.000000
-0.500000,1.940000,0.078102,0.040000,-0.006620,-0.000343,-0.001740,-0.000613,0.000000,-0.000000,-0.000000
-0.540000,1.940000,0.060828,0.040000,-0.006763,0.000065,-0.001359,-0.000736,0.000000,-0.000000,-0.000000
-0.460000,1.900000,0.100499,0.040000,-0.006440,-0.000448,-0.001879,-0.000514,0.000000,-0.000000,-0.000000
-0.420000,1.900000,0.104403,0.040000,-0.006305,-0.000445,-0.001586,-0.000748,0.000000,-0.000000,-0.000000
-0.420000,1.940000,0.067082,0.040000,-0.006346,-0.000279,-0.000976,-0.000858,0.000000,-0.000000,-0.000000
-0.460000,1.940000,0.060828,0.040000,-0.006481,-0.000732,-0.002240,-0.000615,0.000000,-0.000000,-0.000000
-0.380000,1.900000,0.104403,0.040000,-0.006173,-0.000173,-0.002112,-0.000699,0.000000,-0.000000,-0.000000
-0.340000,1.900000,0.100499,0.040000,-0.006044,-0.000167,-0.001837,-0.000322,0.000000,-0.000000,-0.000000
-0.340000,1.940000,0.060828,0.040000,-0.006083,0.000255,-0.001643,-0.000405,0.000000,-0.000000,-0.000000
-0.380000,1.940000,0.067082,0.040000,-0.006211,-0.000180,-0.002802,-0.000809,0.000000,-0.000000,-0.000000
-0.300000,1.900000,0.111803,0.040000,-0.005918,-0.000228,-0.001938,-0.000549,0.000000,-0.000000,-0.000000
-0.260000,1.900000,0.100499,0.040000,-0.005795,-0.000266,-0.002073,-0.000221,0.000000,-0.000000,-0.000000
-0.260000,1.940000,0.060828,0.040000,-0.005832,-0.000525,-0.002414,-0.000300,0.000000,-0.000000,-0.000000
-0.300000,1.940000,0.078102,0.040000,-0.005956,-0.000149,-0.001948,-0.000294,0.000000,-0.000000,-0.000000
-0.220000,1.900000,0.104403,0.040000,-0.005676,-0.000283,-0.001779,-0.000430,0.000000,-0.000000,-0.000000
-0.180000,1.900000,0.104403,0.040000,-0.005559,-0.000052,-0.002241,-0.000387,0.000000,-0.000000,-0.000000
-0.180000,1.940000,0.067082,0.040000,-0.005594,-0.000055,-0.002872,-0.000475,0.000000,-0.000000,-0.000000
-0.220000,1.940000,0.067082,0.040000,-0.005713,-0.000126,-0.001218,-0.000518,0.000000,-0.000000,-0.000000
-0.140000,1.900000,0.100499,0.040000,-0.005446,-0.000062,-0.001972,-0.000037,0.000000,-0.000000,-0.000000
-0.100000,1.900000,0.111803,0.040000,-0.005336,-0.000137,-0.002041,-0.000242,0.000000,-0.000000,-0.000000
-0.100000,1.940000,0.078102,0.040000,-0.005372,-0.000060,-0.002045,0.000003,0.000000,-0.000000,0.000000
-0.140000,1.940000,0.060828,0.040000,-0.005482,0.000328,-0.001805,-0.000100,0.000000,-0.000000,-0.000000
-0.060000,1.900000,0.100499,0.040000,-0.005230,-0.000186,-0.002148,0.000058,0.000000,-0.000000,0.000000
-0.020000,1.900000,0.104403,0.040000,-0.005126,-0.000218,-0.001863,-0.000124,0.000000,-0.000000,-0.000000
-0.020000,1.940000,0.067082,0.040000,-0.005162,-0.000070,-0.001360,-0.000190,0.000000,-0.000000,-0.000000
-0.060000,1.940000,0.060828,0.040000,-0.005264,-0.000415,-0.002465,-0.000003,0.000000,-0.000000,-0.000000
0.020000,1.900000,0.104403,0.040000,-0.005026,-0.000027,-0.002259,-0.000083,0.000000,-0.000000,-0.000000
0.060000,1.900000,0.100499,0.040000,-0.004930,-0.000052,-0.002001,0.000239,0.000000,-0.000000,0.000000
0.060000,1.940000,0.060828,0.040000,-0.004965,0.000305,-0.001860,0.000194,0.000000,-0.000000,0.000000
0.020000,1.940000,0.067082,0.040000,-0.005061,-0.000023,-0.002828,-0.000150,0.000000,-0.000000,-0.000000
0.100000,1.900000,0.111803,0.040000,-0.004836,-0.000137,-0.002041,0.000061,0.000000,-0.000000,0.000000
0.140000,1.900000,0.100499,0.040000,-0.004746,-0.000196,-0.002119,0.000334,0.000000,-0.000000,0.000000
0.140000,1.940000,0.060828,0.040000,-0.004781,-0.000392,-0.002409,0.000292,0.000000,-0.000000,0.000000
0.100000,1.940000,0.078102,0.040000,-0.004872,-0.000060,-0.002045,0.000292,0.000000,-0.000000,0.000000
0.180000,1.900000,0.104403,0.040000,-0.004660,-0.000243,-0.001845,0.000180,0.000000,-0.000000,0.000000
0.220000,1.900000,0.104403,0.040000,-0.004576,-0.000091,-0.002175,0.000223,0.000000,-0.000000,0.000000
0.220000,1.940000,0.067082,0.040000,-0.004612,-0.000079,-0.002686,0.000177,0.000000,-0.000000,0.000000
0.180000,1.940000,0.067082,0.040000,-0.004696,-0.000102,-0.001404,0.000135,0.000000,-0.000000,0.000000
0.260000,1.900000,0.100499,0.040000,-0.004496,-0.000132,-0.001926,0.000517,0.000000,-0.000000,0.000000
0.300000,1.900000,0.111803,0.040000,-0.004418,-0.000228,-0.001938,0.000368,0.000000,-0.000000,0.000000
0.300000,1.940000,0.078102,0.040000,-0.004456,-0.000149,-0.001949,0.000589,0.000000,-0.000000,0.000000
0.260000,1.940000,0.060828,0.040000,-0.004533,0.000195,-0.001810,0.000492,0.000000,-0.000000,0.000000
0.340000,1.900000,0.100499,0.040000,-0.004344,-0.000301,-0.001983,0.000619,0.000000,-0.000000,0.000000
0.380000,1.900000,0.104403,0.040000,-0.004273,-0.000364,-0.001716,0.000492,0.000000,-0.000000,0.000000
0.380000,1.940000,0.067082,0.040000,-0.004313,-0.000227,-0.001335,0.000468,0.000000,-0.000000,0.000000
0.340000,1.940000,0.060828,0.040000,-0.004382,-0.000464,-0.002248,0.000597,0.000000,-0.000000,0.000000
0.420000,1.900000,0.104403,0.040000,-0.004205,-0.000253,-0.001982,0.000541,0.000000,-0.000000,0.000000
0.460000,1.900000,0.100499,0.040000,-0.004140,-0.000314,-0.001733,0.000811,0.000000,-0.000000,0.000000
0.460000,1.940000,0.060828,0.040000,-0.004182,-0.000011,-0.001637,0.000807,0.000000,-0.000000,0.000000
0.420000,1.940000,0.067082,0.040000,-0.004245,-0.000231,-0.002444,0.000518,0.000000,-0.000000,0.000000
0.500000,1.900000,0.111803,0.040000,-0.004078,-0.000425,-0.001716,0.000691,0.000000,-0.000000,0.000000
0.540000,1.900000,0.100499,0.040000,-0.004018,-0.000521,-0.001722,0.000926,0.000000,-0.000000,0.000000
0.540000,1.940000,0.060828,0.040000,-0.004062,-0.000655,-0.001964,0.000928,0.000000,-0.000000,0.000000
0.500000,1.940000,0.078102,0.040000,-0.004121,-0.000343,-0.001741,0.000908,0.000000,-0.000000,0.000000
0.580000,1.900000,0.104403,0.040000,-0.003962,-0.000606,-0.001452,0.000822,0.000000,-0.000000,0.000000
0.620000,1.900000,0.104403,0.040000,-0.003907,-0.000539,-0.001656,0.000881,0.000000,-0.000000,0.000000
0.620000,1.940000,0.067082,0.040000,-0.003954,-0.000507,-0.002086,0.000885,0.000000,-0.000000,0.000000
0.580000,1.940000,0.067082,0.040000,-0.004008,-0.000470,-0.001122,0.000823,0.000000,-0.000000,0.000000
0.660000,1.900000,0.100499,0.040000,-0.003856,-0.000630,-0.001389,0.001134,-0.000000,-0.000000,0.000000
0.700000,1.900000,0.111803,0.040000,-0.003806,-0.000765,-0.001340,0.001039,-0.000000,-0.000000,0.000000
0.700000,1.940000,0.078102,0.040000,-0.003856,-0.000678,-0.001387,0.001269,-0.000000,-0.000000,0.000000
0.660000,1.940000,0.060828,0.040000,-0.003905,-0.000340,-0.001305,0.001155,0.000000,-0.000000,0.000000
0.740000,1.900000,0.100499,0.040000,-0.003759,-0.000899,-0.001295,0.001272,-0.000000,-0.000000,0.000000
0.780000,1.900000,0.104403,0.040000,-0.003713,-0.001018,-0.001001,0.001180,-0.000000,-0.000000,0.000000
0.780000,1.940000,0.067082,0.040000,-0.003768,-0.000878,-0.000706,0.001213,-0.000000,-0.000000,0.000000
0.740000,1.940000,0.060828,0.040000,-0.003811,-0.001012,-0.001519,0.001304,-0.000000,-0.000000,0.000000
0.820000,1.900000,0.104403,0.040000,-0.003670,-0.001002,-0.001145,0.001256,-0.000000,-0.000000,0.000000
0.860000,1.900000,0.100499,0.040000,-0.003628,-0.001141,-0.000831,0.001503,-0.000000,-0.000000,0.000000
0.860000,1.940000,0.060828,0.040000,-0.003687,-0.000847,-0.000745,0.001559,-0.000000,-0.000000,0.000000
0.820000,1.940000,0.067082,0.040000,-0.003726,-0.000961,-0.001571,0.001296,-0.000000,-0.000000,0.000000
0.900000,1.900000,0.111803,0.040000,-0.003587,-0.001320,-0.000739,0.001427,-0.000000,-0.000000,0.000000
0.940000,1.900000,0.100499,0.040000,-0.003548,-0.001520,-0.000622,0.001674,-0.000000,0.000000,0.000000
0.940000,1.940000,0.060828,0.040000,-0.003611,-0.001626,-0.000838,0.001751,-0.000000,-0.000000,0.000000
0.900000,1.940000,0.078102,0.040000,-0.003648,-0.001225,-0.000823,0.001697,-0.000000,-0.000000,0.000000
0.980000,1.900000,0.104403,0.040000,-0.003510,-0.001697,-0.000267,0.001580,-0.000000,0.000000,0.000000
1.020000,1.900000,0.104403,0.040000,-0.003472,-0.001747,-0.000351,0.001680,-0.000000,0.000000,0.000000
1.020000,1.940000,0.067082,0.040000,-0.003540,-0.001699,-0.000815,0.001774,-0.000000,-0.000000,0.000000
0.980000,1.940000,0.067082,0.040000,-0.003577,-0.001545,0.000020,0.001659,-0.000000,0.000000,0.000000
1.060000,1.900000,0.100499,0.040000,-0.003434,-0.001969,0.000064,0.001937,-0.000000,0.000000,0.000000
1.100000,1.900000,0.111803,0.040000,-0.003397,-0.002227,0.000220,0.001867,-0.000000,0.000000,0.000000
1.100000,1.940000,0.078102,0.040000,-0.003472,-0.002123,0.000080,0.002226,-0.000000,0.000000,0.000000
1.060000,1.940000,0.060828,0.040000,-0.003507,-0.001644,0.000175,0.002048,-0.000000,0.000000,0.000000
1.140000,1.900000,0.100499,0.040000,-0.003359,-0.002546,0.000453,0.002155,-0.000000,0.000000,0.000000
1.180000,1.900000,0.104403,0.040000,-0.003320,-0.002828,0.000934,0.002029,-0.000000,0.000000,0.000000
1.180000,1.940000,0.067082,0.040000,-0.003403,-0.002653,0.001258,0.002184,-0.000000,0.000000,0.000000
1.140000,1.940000,0.060828,0.040000,-0.003437,-0.002668,0.000233,0.002304,-0.000000,0.000000,0.000000
1.220000,1.900000,0.104403,0.040000,-0.003280,-0.002978,0.000924,0.002164,-0.000000,0.000000,0.000000
1.260000,1.900000,0.100499,0.040000,-0.003239,-0.003353,0.001538,0.002452,-0.000000,0.000000,0.000000
1.260000,1.940000,0.060828,0.040000,-0.003329,-0.002957,0.001714,0.002658,-0.000000,0.000000,0.000000
1.220000,1.940000,0.067082,0.040000,-0.003366,-0.002930,0.000356,0.002348,-0.000000,0.000000,0.000000
1.300000,1.900000,0.111803,0.040000,-0.003195,-0.003766,0.001809,0.002363,-0.000000,0.000000,0.000000
1.340000,1.900000,0.100499,0.040000,-0.003148,-0.004310,0.002245,0.002729,-0.000000,0.000000,0.000000
1.340000,1.940000,0.060828,0.040000,-0.003246,-0.004491,0.002009,0.003011,-0.000000,0.000000,0.000000
1.300000,1.940000,0.078102,0.040000,-0.003289,-0.003652,0.001582,0.002905,-0.000000,0.000000,0.000000
1.380000,1.900000,0.104403,0.040000,-0.003097,-0.004796,0.002985,0.002515,-0.000000,0.000000,0.000000
1.420000,1.900000,0.104403,0.040000,-0.003042,-0.005135,0.003098,0.002691,-0.000000,0.000000,0.000000
1.420000,1.940000,0.067082,0.040000,-0.003149,-0.005103,0.002323,0.003052,-0.000000,0.000000,0.000000
1.380000,1.940000,0.067082,0.040000,-0.003201,-0.004585,0.003424,0.002816,-0.000000,0.000000,0.000000
1.460000,1.900000,0.100499,0.040000,-0.002982,-0.005813,0.004111,0.003031,-0.000000,0.000000,0.000000
1.500000,1.900000,0.111803,0.040000,-0.002915,-0.006551,0.004620,0.002866,-0.000000,0.000000,0.000000
1.500000,1.940000,0.078102,0.040000,-0.003033,-0.006437,0.004260,0.003789,-0.000000,0.000000,0.000000
1.460000,1.940000,0.060828,0.040000,-0.003096,-0.005286,0.004434,0.003432,-0.000000,0.000000,0.000000
1.540000,1.900000,0.100499,0.040000,-0.002841,-0.007558,0.005470,0.003350,-0.000000,0.000000,0.000000
1.580000,1.900000,0.104403,0.040000,-0.002758,-0.008486,0.006759,0.002919,-0.000000,0.000000,0.000000
1.580000,1.940000,0.067082,0.040000,-0.002888,-0.008237,0.007471,0.003544,-0.000000,0.000000,0.000000
1.540000,1.940000,0.060828,0.040000,-0.002964,-0.007889,0.005220,0.003917,-0.000000,0.000000,0.000000
1.620000,1.900000,0.104403,0.040000,-0.002664,-0.009253,0.007160,0.003116,-0.000000,0.000000,0.000000
1.660000,1.900000,0.100499,0.040000,-0.002558,-0.010610,0.009037,0.003486,-0.000000,0.000000,0.000000
1.660000,1.940000,0.060828,0.040000,-0.002701,-0.009872,0.009709,0.004348,-0.000000,0.000000,0.000000
1.620000,1.940000,0.067082,0.040000,-0.002798,-0.009293,0.006025,0.003878,-0.000000,0.000000,0.000000
1.700000,1.900000,0.111803,0.040000,-0.002439,-0.012109,0.010127,0.003074,-0.000000,0.000000,0.000000
1.740000,1.900000,0.100499,0.040000,-0.002302,-0.014206,0.011954,0.003662,-0.000000,0.000000,0.000000
1.740000,1.940000,0.060828,0.040000,-0.002456,-0.014926,0.011800,0.004940,-0.000000,0.000000,0.000000
1.700000,1.940000,0.078102,0.040000,-0.002586,-0.012066,0.009583,0.004866,-0.000000,0.000000,0.000000
1.780000,1.900000,0.104403,0.040000,-0.002147,-0.016233,0.014544,0.002615,-0.000000,0.000000,0.000000
1.820000,1.900000,0.104403,0.040000,-0.001969,-0.018175,0.015826,0.002620,-0.000000,0.000000,0.000000
1.820000,1.940000,0.067082,0.040000,-0.002134,-0.018534,0.014180,0.004472,-0.000000,0.000000,0.000000
1.780000,1.940000,0.067082,0.040000,-0.002311,-0.016027,0.015940,0.004097,-0.000000,0.000000,0.000000
1.860000,1.900000,0.100499,0.040000,-0.001765,-0.021326,0.019856,0.002690,-0.000000,0.000000,0.000000
1.900000,1.900000,0.111803,0.040000,-0.001529,-0.024948,0.022657,0.001310,-0.000000,0.000000,0.000000
1.900000,1.940000,0.078102,0.040000,-0.001709,-0.025396,0.022079,0.005455,-0.000000,0.000000,0.000000
1.860000,1.940000,0.060828,0.040000,-0.001942,-0.020381,0.021563,0.004866,-0.000000,0.000000,0.000000
1.940000,1.900000,0.100499,0.040000,-0.001256,-0.030128,0.027314,0.001413,-0.000000,0.000000,0.000000
1.980000,1.900000,0.104403,0.040000,-0.000940,-0.035503,0.033621,-0.002023,-0.000000,0.000000,-0.000000
1.980000,1.940000,0.067082,0.040000,-0.001134,-0.036123,0.037365,0.002302,-0.000000,0.000000,0.000000
1.940000,1.940000,0.060828,0.040000,-0.001441,-0.032180,0.028097,0.004889,-0.000000,0.000000,0.000000
2.020000,1.900000,0.104403,0.040000,-0.000570,-0.041455,0.038214,-0.003933,-0.000000,0.000000,-0.000000
2.060000,1.900000,0.100499,0.040000,-0.000138,-0.050534,0.048950,-0.007057,-0.000000,0.000000,-0.000000
2.060000,1.940000,0.060828,0.040000,-0.000334,-0.050791,0.055505,-0.000071,-0.000000,0.000000,-0.000000
2.020000,1.940000,0.067082,0.040000,-0.000757,-0.043677,0.036919,0.001683,-0.000000,0.000000,0.000000
2.100000,1.900000,0.111803,0.040000,0.000373,-0.061610,0.058014,-0.014344,-0.000000,0.000000,-0.000000
2.140000,1.900000,0.100499,0.040000,0.000978,-0.077905,0.073111,-0.021559,-0.000000,0.000000,-0.000000
2.140000,1.940000,0.060828,0.040000,0.000812,-0.088109,0.083289,-0.009309,-0.000000,0.000000,-0.000000
2.100000,1.940000,0.078102,0.040000,0.000191,-0.066145,0.060565,-0.001789,-0.000000,0.000000,-0.000000
2.180000,1.900000,0.104403,0.040000,0.001700,-0.095632,0.092450,-0.041650,-0.000000,0.000000,-0.000000
2.220000,1.900000,0.104403,0.040000,0.002570,-0.116886,0.110402,-0.065993,-0.000000,0.000000,-0.000000
2.220000,1.940000,0.067082,0.040000,0.002508,-0.138684,0.130779,-0.045422,-0.000000,0.000000,-0.000000
2.180000,1.940000,0.067082,0.040000,0.001556,-0.106454,0.112680,-0.025160,-0.000000,0.000000,-0.000000
2.260000,1.900000,0.100499,0.040000,0.003619,-0.143753,0.141762,-0.110392,-0.000000,0.000000,-0.000000
2.300000,1.900000,0.111803,0.040000,0.004897,-0.167299,0.158924,-0.188185,-0.000000,0.000000,-0.000000
2.300000,1.940000,0.078102,0.040000,0.005144,-0.228859,0.234135,-0.155866,-0.000000,0.000000,-0.000000
2.260000,1.940000,0.060828,0.040000,0.003639,-0.171015,0.201269,-0.087634,-0.000000,0.000000,-0.000000
2.340000,1.900000,0.100499,0.040000,0.006429,-0.176484,0.169393,-0.312244,-0.000000,0.000000,-0.000000
2.380000,1.900000,0.104403,0.040000,0.008218,-0.083888,0.071127,-0.522111,-0.000000,0.000000,-0.000000
2.380000,1.940000,0.067082,0.040000,0.009497,-0.198833,0.308603,-0.607829,-0.000000,0.000000,-0.000000
2.340000,1.940000,0.060828,0.040000,0.007035,-0.277930,0.354211,-0.337166,-0.000000,0.000000,-0.000000
2.420000,1.900000,0.094340,0.040000,0.010136,0.183170,-0.414115,-0.689921,0.000000,-0.000000,-0.000000
2.460000,1.900000,0.064031,0.040000,0.011893,0.387562,-1.166568,-0.708010,0.000000,-0.000000,-0.000000
2.460000,1.940000,0.041231,0.040000,0.015742,-0.328032,-0.804628,-0.963848,0.000000,-0.000000,-0.000000
2.420000,1.940000,0.067082,0.040000,0.012645,-0.085272,-0.254893,-0.836659,0.000000,-0.000000,-0.000000
2.500000,1.900000,0.050000,0.040000,0.008062,1.873537,-2.271484,-0.767245,0.000000,-0.000000,-0.000000
2.500000,1.940000,0.010000,0.040000,0.019618,-1.577006,0.118446,-1.199999,-0.000000,0.000000,-0.000000
-2.500000,1.980000,0.030000,0.040000,-0.022579,-18.051060,-12.906889,-8.547413,-0.000000,-0.000000,-0.000000
-2.460000,1.980000,0.022361,0.040000,0.006443,-6.197815,-9.950532,-3.665016,-0.000000,-0.000000,-0.000000
-2.420000,1.980000,0.036056,0.040000,0.003689,-2.119189,-3.278795,-1.052568,-0.000000,-0.000000,-0.000000
-2.380000,1.980000,0.036056,0.040000,-0.002331,-0.692003,0.583586,0.571143,-0.000000,0.000000,0.000000
-2.340000,1.980000,0.022361,0.040000,-0.004572,-0.270702,0.542196,0.334163,-0.000000,0.000000,0.000000
-2.300000,1.980000,0.053852,0.040000,-0.006467,-0.244528,0.281713,0.128239,-0.000000,0.000000,0.000000
-2.260000,1.980000,0.022361,0.040000,-0.008062,-0.246999,0.285249,0.067192,-0.000000,0.000000,0.000000
-2.220000,1.980000,0.036056,0.040000,-0.008746,-0.087787,0.101718,0.029836,-0.000000,0.000000,0.000000
-2.180000,1.980000,0.036056,0.040000,-0.009760,-0.156992,0.156758,0.014711,-0.000000,0.000000,0.000000
-2.140000,1.980000,0.022361,0.040000,-0.010160,-0.072990,0.081108,-0.000155,-0.000000,0.000000,-0.000000
-2.100000,1.980000,0.053852,0.040000,-0.010581,-0.064831,0.055984,-0.005368,-0.000000,0.000000,-0.000000
-2.060000,1.980000,0.022361,0.040000,-0.010941,-0.067635,0.068734,-0.004672,-0.000000,0.000000,-0.000000
-2.020000,1.980000,0.036056,0.040000,-0.011070,-0.025626,0.023039,-0.005464,-0.000000,0.000000,-0.000000
-1.980000,1.980000,0.036056,0.040000,-0.011313,-0.050762,0.048045,-0.004906,-0.000000,0.000000,-0.000000
-1.940000,1.980000,0.022361,0.040000,-0.011364,-0.025944,0.026188,-0.007316,-0.000000,0.000000,-0.000000
-1.900000,1.980000,0.053852,0.040000,-0.011421,-0.024335,0.019433,-0.007279,-0.000000,0.000000,-0.000000
-1.860000,1.980000,0.022361,0.040000,-0.011458,-0.025847,0.024918,-0.006155,-0.000000,0.000000,-0.000000
-1.820000,1.980000,0.036056,0.040000,-0.011416,-0.013109,0.010780,-0.005981,-0.000000,0.000000,-0.000000
-1.780000,1.980000,0.036056,0.040000,-0.011402,-0.019554,0.017186,-0.005242,-0.000000,0.000000,-0.000000
-1.740000,1.980000,0.022361,0.040000,-0.011330,-0.013123,0.012110,-0.005684,-0.000000,0.000000,-0.000000
-1.700000,1.980000,0.053852,0.040000,-0.011249,-0.011464,0.008199,-0.005339,-0.000000,0.000000,-0.000000
-1.660000,1.980000,0.022361,0.040000,-0.011158,-0.011069,0.009646,-0.004697,-0.000000,0.000000,-0.000000
-1.620000,1.980000,0.036056,0.040000,-0.011048,-0.009589,0.007627,-0.004798,-0.000000,0.000000,-0.000000
-1.580000,1.980000,0.036056,0.040000,-0.010923,-0.006890,0.004619,-0.004317,-0.000000,0.000000,-0.000000
-1.540000,1.980000,0.022361,0.040000,-0.010801,-0.008286,0.006818,-0.004092,-0.000000,0.000000,-0.000000
-1.500000,1.980000,0.053852,0.040000,-0.010658,-0.006091,0.003504,-0.003788,-0.000000,0.000000,-0.000000
-1.460000,1.980000,0.022361,0.040000,-0.010512,-0.004492,0.002817,-0.003437,-0.000000,0.000000,-0.000000
-1.420000,1.980000,0.036056,0.040000,-0.010373,-0.008241,0.006448,-0.003772,-0.000000,0.000000,-0.000000
-1.380000,1.980000,0.036056,0.040000,-0.010199,-0.000847,-0.001434,-0.003468,-0.000000,-0.000000,-0.000000
-1.340000,1.980000,0.022361,0.040000,-0.010055,-0.006010,0.004290,-0.002947,-0.000000,0.000000,-0.000000
-1.300000,1.980000,0.053852,0.040000,-0.009887,-0.003449,0.001161,-0.002701,-0.000000,0.000000,-0.000000
-1.260000,1.980000,0.022361,0.040000,-0.009717,-0.001179,-0.000668,-0.002514,-0.000000,-0.000000,-0.000000
-1.220000,1.980000,0.036056,0.040000,-0.009569,-0.007493,0.005755,-0.002983,-0.000000,0.000000,-0.000000
-1.180000,1.980000,0.036056,0.040000,-0.009374,0.002256,-0.004577,-0.002786,0.000000,-0.000000,-0.000000
-1.140000,1.980000,0.022361,0.040000,-0.009226,-0.004733,0.002844,-0.002127,-0.000000,0.000000,-0.000000
-1.100000,1.980000,0.053852,0.040000,-0.009050,-0.002004,-0.000147,-0.001925,-0.000000,0.000000,-0.000000
-1.060000,1.980000,0.022361,0.040000,-0.008874,0.000594,-0.002569,-0.001833,0.000000,-0.000000,-0.000000
-1.020000,1.980000,0.036056,0.040000,-0.008726,-0.006907,0.005164,-0.002362,-0.000000,0.000000,-0.000000
-0.980000,1.980000,0.036056,0.040000,-0.008529,0.003854,-0.006215,-0.002233,0.000000,-0.000000,-0.000000
-0.940000,1.980000,0.022361,0.040000,-0.008384,-0.003902,0.001889,-0.001517,-0.000000,0.000000,-0.000000
-0.900000,1.980000,0.053852,0.040000,-0.008210,-0.001159,-0.000933,-0.001348,-0.000000,-0.000000,-0.000000
-0.860000,1.980000,0.022361,0.040000,-0.008039,0.001547,-0.003620,-0.001310,0.000000,-0.000000,-0.000000
-0.820000,1.980000,0.036056,0.040000,-0.007898,-0.006348,0.004575,-0.001853,-0.000000,0.000000,-0.000000
-0.780000,1.980000,0.036056,0.040000,-0.007707,0.004604,-0.006995,-0.001767,0.000000,-0.000000,-0.000000
-0.740000,1.980000,0.022361,0.040000,-0.007571,-0.003294,0.001191,-0.001041,-0.000000,0.000000,-0.000000
-0.700000,1.980000,0.053852,0.040000,-0.007407,-0.000644,-0.001424,-0.000897,-0.000000,-0.000000,-0.000000
-0.660000,1.980000,0.022361,0.040000,-0.007246,0.002025,-0.004172,-0.000890,0.000000,-0.000000,-0.000000
-0.620000,1.980000,0.036056,0.040000,-0.007116,-0.005784,0.003969,-0.001417,-0.000000,0.000000,-0.000000
-0.580000,1.980000,0.036056,0.040000,-0.006938,0.004842,-0.007249,-0.001357,0.000000,-0.000000,-0.000000
-0.540000,1.980000,0.022361,0.040000,-0.006813,-0.002815,0.000646,-0.000651,-0.000000,0.000000,-0.000000
-0.500000,1.980000,0.053852,0.040000,-0.006663,-0.000330,-0.001730,-0.000526,0.000000,-0.000000,-0.000000
-0.460000,1.980000,0.022361,0.040000,-0.006516,0.002209,-0.004408,-0.000535,0.000000,-0.000000,-0.000000
-0.420000,1.980000,0.036056,0.040000,-0.006400,-0.005218,0.003358,-0.001026,-0.000000,0.000000,-0.000000
-0.380000,1.980000,0.036056,0.040000,-0.006238,0.004757,-0.007166,-0.000982,0.000000,-0.000000,-0.000000
-0.340000,1.980000,0.022361,0.040000,-0.006127,-0.002422,0.000209,-0.000315,-0.000000,0.000000,-0.000000
-0.300000,1.980000,0.053852,0.040000,-0.005994,-0.000149,-0.001911,-0.000203,0.000000,-0.000000,-0.000000
-0.260000,1.980000,0.022361,0.040000,-0.005863,0.002200,-0.004431,-0.000220,0.000000,-0.000000,-0.000000
-0.220000,1.980000,0.036056,0.040000,-0.005762,-0.004668,0.002767,-0.000662,-0.000000,0.000000,-0.000000
-0.180000,1.980000,0.036056,0.040000,-0.005619,0.004464,-0.006862,-0.000627,0.000000,-0.000000,-0.000000
-0.140000,1.980000,0.022361,0.040000,-0.005523,-0.002104,-0.000133,-0.000010,-0.000000,0.000000,-0.000000
-0.100000,1.980000,0.053852,0.040000,-0.005407,-0.000065,-0.001995,0.000092,0.000000,-0.000000,0.000000
-0.060000,1.980000,0.022361,0.040000,-0.005294,0.002058,-0.004303,0.000075,0.000000,-0.000000,0.000000
-0.020000,1.980000,0.036056,0.040000,-0.005208,-0.004161,0.002228,-0.000313,-0.000000,0.000000,-0.000000
0.020000,1.980000,0.036056,0.040000,-0.005085,0.004038,-0.006413,-0.000281,0.000000,-0.000000,-0.000000
0.060000,1.980000,0.022361,0.040000,-0.005005,-0.001865,-0.000377,0.000282,-0.000000,0.000000,0.000000
0.100000,1.980000,0.053852,0.040000,-0.004907,-0.000065,-0.001995,0.000379,0.000000,-0.000000,0.000000
0.140000,1.980000,0.022361,0.040000,-0.004812,0.001819,-0.004059,0.000368,0.000000,-0.000000,0.000000
0.180000,1.980000,0.036056,0.040000,-0.004742,-0.003735,0.001779,0.000034,-0.000000,0.000000,0.000000
0.220000,1.980000,0.036056,0.040000,-0.004639,0.003531,-0.005874,0.000068,0.000000,-0.000000,0.000000
0.260000,1.980000,0.022361,0.040000,-0.004574,-0.001723,-0.000506,0.000577,-0.000000,0.000000,0.000000
0.300000,1.980000,0.053852,0.040000,-0.004494,-0.000149,-0.001911,0.000675,0.000000,-0.000000,0.000000
0.340000,1.980000,0.022361,0.040000,-0.004417,0.001501,-0.003717,0.000673,0.000000,-0.000000,0.000000
0.380000,1.980000,0.036056,0.040000,-0.004362,-0.003442,0.001475,0.000388,-0.000000,0.000000,0.000000
0.420000,1.980000,0.036056,0.040000,-0.004277,0.002981,-0.005283,0.000432,0.000000,-0.000000,0.000000
0.460000,1.980000,0.022361,0.040000,-0.004228,-0.001714,-0.000483,0.000893,-0.000000,0.000000,0.000000
0.500000,1.980000,0.053852,0.040000,-0.004164,-0.000330,-0.001731,0.000997,0.000000,-0.000000,0.000000
0.540000,1.980000,0.022361,0.040000,-0.004103,0.001109,-0.003281,0.001008,0.000000,-0.000000,0.000000
0.580000,1.980000,0.036056,0.040000,-0.004061,-0.003357,0.001392,0.000763,-0.000000,0.000000,0.000000
0.620000,1.980000,0.036056,0.040000,-0.003994,0.002415,-0.004673,0.000823,0.000000,-0.000000,0.000000
0.660000,1.980000,0.022361,0.040000,-0.003957,-0.001897,-0.000247,0.001247,-0.000000,0.000000,0.000000
0.700000,1.980000,0.053852,0.040000,-0.003908,-0.000644,-0.001424,0.001368,-0.000000,-0.000000,0.000000
0.740000,1.980000,0.022361,0.040000,-0.003861,0.000630,-0.002735,0.001398,0.000000,-0.000000,0.000000
0.780000,1.980000,0.036056,0.040000,-0.003831,-0.003594,0.001646,0.001173,-0.000000,0.000000,0.000000
0.820000,1.980000,0.036056,0.040000,-0.003776,0.001851,-0.004067,0.001260,0.000000,-0.000000,0.000000
0.860000,1.980000,0.022361,0.040000,-0.003751,-0.002375,0.000305,0.001667,-0.000000,0.000000,0.000000
0.900000,1.980000,0.053852,0.040000,-0.003711,-0.001158,-0.000934,0.001819,-0.000000,-0.000000,0.000000
0.940000,1.980000,0.022361,0.040000,-0.003674,0.000022,-0.002037,0.001873,0.000000,-0.000000,0.000000
0.980000,1.980000,0.036056,0.040000,-0.003653,-0.004343,0.002425,0.001639,-0.000000,0.000000,0.000000
1.020000,1.980000,0.036056,0.040000,-0.003605,0.001293,-0.003477,0.001768,0.000000,-0.000000,0.000000
1.060000,1.980000,0.022361,0.040000,-0.003586,-0.003328,0.001356,0.002189,-0.000000,0.000000,0.000000
1.100000,1.980000,0.053852,0.040000,-0.003551,-0.002003,-0.000148,0.002396,-0.000000,0.000000,0.000000
1.140000,1.980000,0.022361,0.040000,-0.003516,-0.000809,-0.001083,0.002483,-0.000000,-0.000000,0.000000
1.180000,1.980000,0.036056,0.040000,-0.003499,-0.005941,0.004062,0.002192,-0.000000,0.000000,0.000000
1.220000,1.980000,0.036056,0.040000,-0.003447,0.000706,-0.002887,0.002388,0.000000,-0.000000,0.000000
1.260000,1.980000,0.022361,0.040000,-0.003429,-0.005100,0.003256,0.002871,-0.000000,0.000000,0.000000
1.300000,1.980000,0.053852,0.040000,-0.003388,-0.003447,0.001159,0.003171,-0.000000,0.000000,0.000000
1.340000,1.980000,0.022361,0.040000,-0.003346,-0.002085,0.000363,0.003303,-0.000000,0.000000,0.000000
1.380000,1.980000,0.036056,0.040000,-0.003323,-0.009043,0.007203,0.002873,-0.000000,0.000000,0.000000
1.420000,1.980000,0.036056,0.040000,-0.003252,-0.000041,-0.002194,0.003177,0.000000,-0.000000,0.000000
1.460000,1.980000,0.022361,0.040000,-0.003224,-0.008412,0.006739,0.003793,-0.000000,0.000000,0.000000
1.500000,1.980000,0.053852,0.040000,-0.003160,-0.006088,0.003501,0.004257,-0.000000,0.000000,0.000000
1.540000,1.980000,0.022361,0.040000,-0.003092,-0.004360,0.002889,0.004447,-0.000000,0.000000,0.000000
1.580000,1.980000,0.036056,0.040000,-0.003049,-0.015083,0.013254,0.003721,-0.000000,0.000000,0.000000
1.620000,1.980000,0.036056,0.040000,-0.002928,-0.001388,-0.001015,0.004202,-0.000000,-0.000000,0.000000
1.660000,1.980000,0.022361,0.040000,-0.002871,-0.014986,0.013565,0.005051,-0.000000,0.000000,0.000000
1.700000,1.980000,0.053852,0.040000,-0.002751,-0.011459,0.008194,0.005808,-0.000000,0.000000,0.000000
1.740000,1.980000,0.022361,0.040000,-0.002622,-0.009194,0.008179,0.006038,-0.000000,0.000000,0.000000
1.780000,1.980000,0.036056,0.040000,-0.002527,-0.027742,0.025815,0.004645,-0.000000,0.000000,0.000000
1.820000,1.980000,0.036056,0.040000,-0.002296,-0.004905,0.002135,0.005382,-0.000000,0.000000,0.000000
1.860000,1.980000,0.022361,0.040000,-0.002171,-0.029757,0.028830,0.006507,-0.000000,0.000000,0.000000
1.900000,1.980000,0.053852,0.040000,-0.001925,-0.024322,0.019422,0.007743,-0.000000,0.000000,0.000000
1.940000,1.980000,0.022361,0.040000,-0.001656,-0.022007,0.022249,0.007665,-0.000000,0.000000,0.000000
1.980000,1.980000,0.036056,0.040000,-0.001440,-0.058934,0.056661,0.004303,-0.000000,0.000000,0.000000
2.020000,1.980000,0.036056,0.040000,-0.000951,-0.017412,0.014384,0.004859,-0.000000,0.000000,0.000000
2.060000,1.980000,0.022361,0.040000,-0.000655,-0.071522,0.072626,0.005015,-0.000000,0.000000,0.000000
2.100000,1.980000,0.053852,0.040000,-0.000085,-0.064792,0.055951,0.005821,-0.000000,0.000000,0.000000
2.140000,1.980000,0.022361,0.040000,0.000546,-0.069019,0.077138,0.000489,-0.000000,0.000000,0.000000
2.180000,1.980000,0.036056,0.040000,0.001112,-0.165101,0.165318,-0.015333,-0.000000,0.000000,-0.000000
2.220000,1.980000,0.036056,0.040000,0.002372,-0.079504,0.093006,-0.030469,-0.000000,0.000000,-0.000000
2.260000,1.980000,0.022361,0.040000,0.003221,-0.250747,0.289018,-0.066889,-0.000000,0.000000,-0.000000
2.300000,1.980000,0.053852,0.040000,0.005026,-0.244269,0.281502,-0.127849,-0.000000,0.000000,-0.000000
2.340000,1.980000,0.022361,0.040000,0.007130,-0.266319,0.537848,-0.333904,-0.000000,0.000000,-0.000000
2.380000,1.980000,0.036056,0.040000,0.009536,-0.599744,0.750338,-0.647856,-0.000000,0.000000,-0.000000
2.420000,1.980000,0.036056,0.040000,0.015798,-0.174080,-0.516397,-0.686777,0.000000,-0.000000,-0.000000
2.460000,1.980000,0.022361,0.040000,0.018713,-1.724620,-0.674404,-0.647156,-0.000000,0.000000,-0.000000
2.500000,1.980000,0.030000,0.040000,0.020933,-3.333032,-0.645595,-0.437040,-0.000000,0.000000,-0.000000
