x,y,R,s,phi,sigma_xx,sigma_yy,tau_xy,epsilon_xx,epsilon_yy,epsilon_xy
-2.120000,-1.680000,0.321403,0.080000,-1749.425279,-10.877752,9.343112,-47.857443,-0.000000,0.000000,-0.000000
-2.040000,-1.680000,0.320156,0.080000,-1750.190736,-16.294765,14.982032,-33.015012,-0.000000,0.000000,-0.000000
-1.960000,-1.680000,0.320156,0.080000,-1750.863340,-16.999951,15.599049,-22.262710,-0.000000,0.000000,-0.000000
-1.880000,-1.680000,0.321403,0.080000,-1751.436667,-15.956871,14.550761,-14.780070,-0.000000,0.000000,-0.000000
-1.800000,-1.680000,0.323883,0.080000,-1751.917865,-14.142265,12.674849,-9.902129,-0.000000,0.000000,-0.000000
-1.720000,-1.680000,0.321403,0.080000,-1752.318676,-12.036783,10.677921,-6.668932,-0.000000,0.000000,-0.000000
-1.640000,-1.680000,0.320156,0.080000,-1752.651392,-10.025495,8.835385,-4.416065,-0.000000,0.000000,-0.000000
-1.560000,-1.680000,0.320156,0.080000,-1752.927241,-8.492996,7.314430,-2.832131,-0.000000,0.000000,-0.000000
-1.480000,-1.680000,0.321403,0.080000,-1753.155910,-7.435371,6.112049,-1.787434,-0.000000,0.000000,-0.000000
-1.400000,-1.680000,0.323883,0.080000,-1753.345530,-6.504054,5.098903,-1.181219,-0.000000,0.000000,-0.000000
-1.320000,-1.680000,0.321403,0.080000,-1753.502827,-5.509796,4.196594,-0.793145,-0.000000,0.000000,-0.000000
-1.240000,-1.680000,0.320156,0.080000,-1753.633336,-4.573980,3.416910,-0.438283,-0.000000,0.000000,-0.000000
-1.160000,-1.680000,0.320156,0.080000,-1753.741603,-3.987811,2.832965,-0.129099,-0.000000,0.000000,-0.000000
-1.080000,-1.680000,0.321403,0.080000,-1753.831373,-3.727772,2.421445,0.051583,-0.000000,0.000000,0.000000
-1.000000,-1.680000,0.323883,0.080000,-1753.905735,-3.455095,2.062179,0.066303,-0.000000,0.000000,0.000000
-0.920000,-1.680000,0.321403,0.080000,-1753.967242,-3.000012,1.695682,0.045418,-0.000000,0.000000,0.000000
-0.840000,-1.680000,0.320156,0.080000,-1754.017996,-2.504618,1.354010,0.114846,-0.000000,0.000000,0.000000
-0.760000,-1.680000,0.320156,0.080000,-1754.059740,-2.278810,1.128671,0.223049,-0.000000,0.000000,0.000000
-0.680000,-1.680000,0.321403,0.080000,-1754.093918,-2.314817,1.011927,0.261090,-0.000000,0.000000,0.000000
-0.600000,-1.680000,0.323883,0.080000,-1754.121731,-2.286773,0.896386,0.173883,-0.000000,0.000000,0.000000
-0.520000,-1.680000,0.321403,0.080000,-1754.144167,-2.035354,0.732900,0.079763,-0.000000,0.000000,0.000000
-0.440000,-1.680000,0.320156,0.080000,-1754.162027,-1.711049,0.561834,0.096355,-0.000000,0.000000,0.000000
-0.360000,-1.680000,0.320156,0.080000,-1754.175958,-1.630484,0.481373,0.166346,-0.000000,0.000000,0.000000
-0.280000,-1.680000,0.321403,0.080000,-1754.186476,-1.791303,0.489165,0.176755,-0.000000,0.000000,0.000000
-0.200000,-1.680000,0.323883,0.080000,-1754.193983,-1.872054,0.482216,0.069658,-0.000000,0.000000,0.000000
-0.120000,-1.680000,0.321403,0.080000,-1754.198768,-1.717077,0.415018,-0.038603,-0.000000,0.000000,-0.000000
-0.040000,-1.680000,0.320156,0.080000,-1754.201018,-1.479947,0.331004,-0.031799,-0.000000,0.000000,-0.000000
0.040000,-1.680000,0.320156,0.080000,-1754.200818,-1.479947,0.331003,0.031803,-0.000000,0.000000,0.000000
0.120000,-1.680000,0.321403,0.080000,-1754.198171,-1.717075,0.415017,0.038607,-0.000000,0.000000,0.000000
0.200000,-1.680000,0.323883,0.080000,-1754.192987,-1.872052,0.482214,-0.069655,-0.000000,0.000000,-0.000000
0.280000,-1.680000,0.321403,0.080000,-1754.185082,-1.791300,0.489162,-0.176751,-0.000000,0.000000,-0.000000
0.360000,-1.680000,0.320156,0.080000,-1754.174166,-1.630481,0.481369,-0.166343,-0.000000,0.000000,-0.000000
0.440000,-1.680000,0.320156,0.080000,-1754.159837,-1.711045,0.561830,-0.096352,-0.000000,0.000000,-0.000000
0.520000,-1.680000,0.321403,0.080000,-1754.141578,-2.035348,0.732894,-0.079760,-0.000000,0.000000,-0.000000
0.600000,-1.680000,0.323883,0.080000,-1754.118745,-2.286765,0.896378,-0.173880,-0.000000,0.000000,-0.000000
0.680000,-1.680000,0.321403,0.080000,-1754.090534,-2.314808,1.011918,-0.261087,-0.000000,0.000000,-0.000000
0.760000,-1.680000,0.320156,0.080000,-1754.055957,-2.278799,1.128661,-0.223047,-0.000000,0.000000,-0.000000
0.840000,-1.680000,0.320156,0.080000,-1754.013816,-2.504605,1.353998,-0.114844,-0.000000,0.000000,-0.000000
0.920000,-1.680000,0.321403,0.080000,-1753.962663,-2.999997,1.695667,-0.045417,-0.000000,0.000000,-0.000000
1.000000,-1.680000,0.323883,0.080000,-1753.900759,-3.455077,2.062161,-0.066303,-0.000000,0.000000,-0.000000
1.080000,-1.680000,0.321403,0.080000,-1753.825999,-3.727751,2.421424,-0.051583,-0.000000,0.000000,-0.000000
1.160000,-1.680000,0.320156,0.080000,-1753.735832,-3.987787,2.832941,0.129097,-0.000000,0.000000,0.000000
1.240000,-1.680000,0.320156,0.080000,-1753.627167,-4.573951,3.416881,0.438279,-0.000000,0.000000,0.000000
1.320000,-1.680000,0.321403,0.080000,-1753.496261,-5.509761,4.196559,0.793139,-0.000000,0.000000,0.000000
1.400000,-1.680000,0.323883,0.080000,-1753.338567,-6.504012,5.098862,1.181208,-0.000000,0.000000,0.000000
1.480000,-1.680000,0.321403,0.080000,-1753.148551,-7.435321,6.111999,1.787418,-0.000000,0.000000,0.000000
1.560000,-1.680000,0.320156,0.080000,-1752.919485,-8.492938,7.314371,2.832107,-0.000000,0.000000,0.000000
1.640000,-1.680000,0.320156,0.080000,-1752.643240,-10.025424,8.835315,4.416030,-0.000000,0.000000,0.000000
1.720000,-1.680000,0.321403,0.080000,-1752.310129,-12.036699,10.677837,6.668879,-0.000000,0.000000,0.000000
1.800000,-1.680000,0.323883,0.080000,-1751.908922,-14.142164,12.674750,9.902051,-0.000000,0.000000,0.000000
1.880000,-1.680000,0.321403,0.080000,-1751.427330,-15.956756,14.550647,14.779955,-0.000000,0.000000,0.000000
1.960000,-1.680000,0.320156,0.080000,-1750.853609,-16.999827,15.598926,22.262539,-0.000000,0.000000,0.000000
2.040000,-1.680000,0.320156,0.080000,-1750.180612,-16.294646,14.981913,33.014761,-0.000000,0.000000,0.000000
2.120000,-1.680000,0.321403,0.080000,-1749.414763,-10.877670,9.343033,47.857081,-0.000000,0.000000,0.000000
-2.120000,-1.600000,0.383275,0.080000,-1750.023396,1.793717,-3.208946,-37.557977,0.000000,-0.000000,-0.000000
-2.040000,-1.600000,0.400125,0.080000,-1750.553518,-5.821867,4.476658,-28.885552,-0.000000,0.000000,-0.000000
-1.960000,-1.600000,0.400125,0.080000,-1751.057187,-9.216283,7.879153,-21.498822,-0.000000,0.000000,-0.000000
-1.880000,-1.600000,0.401123,0.080000,-1751.511990,-10.214273,8.931823,-15.518730,-0.000000,0.000000,-0.000000
-1.800000,-1.600000,0.403113,0.080000,-1751.910883,-9.987103,8.699491,-11.134611,-0.000000,0.000000,-0.000000
-1.720000,-1.600000,0.401123,0.080000,-1752.254771,-9.224931,7.939172,-7.951554,-0.000000,0.000000,-0.000000
-1.640000,-1.600000,0.400125,0.080000,-1752.548182,-8.280290,6.999083,-5.666048,-0.000000,0.000000,-0.000000
-1.560000,-1.600000,0.400125,0.080000,-1752.796948,-7.329187,6.052079,-4.030774,-0.000000,0.000000,-0.000000
-1.480000,-1.600000,0.401123,0.080000,-1753.007029,-6.450005,5.175740,-2.860724,-0.000000,0.000000,-0.000000
-1.400000,-1.600000,0.403113,0.080000,-1753.183987,-5.669833,4.398222,-2.021917,-0.000000,0.000000,-0.000000
-1.320000,-1.600000,0.401123,0.080000,-1753.332776,-4.992275,3.723928,-1.418326,-0.000000,0.000000,-0.000000
-1.240000,-1.600000,0.400125,0.080000,-1753.457698,-4.412312,3.147057,-0.982082,-0.000000,0.000000,-0.000000
-1.160000,-1.600000,0.400125,0.080000,-1753.562441,-3.921383,2.657783,-0.666277,-0.000000,0.000000,-0.000000
-1.080000,-1.600000,0.401123,0.080000,-1753.650135,-3.508021,2.244728,-0.438552,-0.000000,0.000000,-0.000000
-1.000000,-1.600000,0.403113,0.080000,-1753.723430,-3.159374,1.896471,-0.275511,-0.000000,0.000000,-0.000000
-0.920000,-1.600000,0.401123,0.080000,-1753.784560,-2.864507,1.602981,-0.159386,-0.000000,0.000000,-0.000000
-0.840000,-1.600000,0.400125,0.080000,-1753.835404,-2.616230,1.356280,-0.077142,-0.000000,0.000000,-0.000000
-0.760000,-1.600000,0.400125,0.080000,-1753.877542,-2.409402,1.149914,-0.020204,-0.000000,0.000000,-0.000000
-0.680000,-1.600000,0.401123,0.080000,-1753.912296,-2.238129,0.978017,0.016939,-0.000000,0.000000,0.000000
-0.600000,-1.600000,0.403113,0.080000,-1753.940772,-2.095611,0.835170,0.038790,-0.000000,0.000000,0.000000
-0.520000,-1.600000,0.401123,0.080000,-1753.963888,-1.976681,0.717058,0.049753,-0.000000,0.000000,0.000000
-0.440000,-1.600000,0.400125,0.080000,-1753.982400,-1.879321,0.620841,0.053352,-0.000000,0.000000,0.000000
-0.360000,-1.600000,0.400125,0.080000,-1753.996923,-1.802902,0.544545,0.051352,-0.000000,0.000000,0.000000
-0.280000,-1.600000,0.401123,0.080000,-1754.007945,-1.745412,0.486165,0.044369,-0.000000,0.000000,0.000000
-0.200000,-1.600000,0.403113,0.080000,-1754.015843,-1.703380,0.443591,0.033380,-0.000000,0.000000,0.000000
-0.120000,-1.600000,0.401123,0.080000,-1754.020894,-1.674506,0.415363,0.020257,-0.000000,0.000000,0.000000
-0.040000,-1.600000,0.400125,0.080000,-1754.023275,-1.659274,0.401132,0.006720,-0.000000,0.000000,0.000000
0.040000,-1.600000,0.400125,0.080000,-1754.023076,-1.659274,0.401131,-0.006717,-0.000000,0.000000,-0.000000
0.120000,-1.600000,0.401123,0.080000,-1754.020296,-1.674505,0.415362,-0.020255,-0.000000,0.000000,-0.000000
0.200000,-1.600000,0.403113,0.080000,-1754.014848,-1.703378,0.443589,-0.033378,-0.000000,0.000000,-0.000000
0.280000,-1.600000,0.401123,0.080000,-1754.006551,-1.745409,0.486162,-0.044366,-0.000000,0.000000,-0.000000
0.360000,-1.600000,0.400125,0.080000,-1753.995131,-1.802898,0.544541,-0.051349,-0.000000,0.000000,-0.000000
0.440000,-1.600000,0.400125,0.080000,-1753.980210,-1.879316,0.620836,-0.053350,-0.000000,0.000000,-0.000000
0.520000,-1.600000,0.401123,0.080000,-1753.961300,-1.976675,0.717052,-0.049751,-0.000000,0.000000,-0.000000
0.600000,-1.600000,0.403113,0.080000,-1753.937786,-2.095604,0.835163,-0.038788,-0.000000,0.000000,-0.000000
0.680000,-1.600000,0.401123,0.080000,-1753.908911,-2.238120,0.978009,-0.016938,-0.000000,0.000000,-0.000000
0.760000,-1.600000,0.400125,0.080000,-1753.873759,-2.409391,1.149904,0.020204,-0.000000,0.000000,0.000000
0.840000,-1.600000,0.400125,0.080000,-1753.831224,-2.616218,1.356269,0.077142,-0.000000,0.000000,0.000000
0.920000,-1.600000,0.401123,0.080000,-1753.779982,-2.864493,1.602967,0.159385,-0.000000,0.000000,0.000000
1.000000,-1.600000,0.403113,0.080000,-1753.718454,-3.159357,1.896455,0.275509,-0.000000,0.000000,0.000000
1.080000,-1.600000,0.401123,0.080000,-1753.644761,-3.508002,2.244708,0.438548,-0.000000,0.000000,0.000000
1.160000,-1.600000,0.400125,0.080000,-1753.556669,-3.921361,2.657761,0.666271,-0.000000,0.000000,0.000000
1.240000,-1.600000,0.400125,0.080000,-1753.451529,-4.412285,3.147030,0.982073,-0.000000,0.000000,0.000000
1.320000,-1.600000,0.401123,0.080000,-1753.326210,-4.992245,3.723897,1.418314,-0.000000,0.000000,0.000000
1.400000,-1.600000,0.403113,0.080000,-1753.177024,-5.669797,4.398186,2.021900,-0.000000,0.000000,0.000000
1.480000,-1.600000,0.401123,0.080000,-1752.999669,-6.449963,5.175698,2.860701,-0.000000,0.000000,0.000000
1.560000,-1.600000,0.400125,0.080000,-1752.789191,-7.329138,6.052031,4.030741,-0.000000,0.000000,0.000000
1.640000,-1.600000,0.400125,0.080000,-1752.540030,-8.280234,6.999027,5.666002,-0.000000,0.000000,0.000000
1.720000,-1.600000,0.401123,0.080000,-1752.246222,-9.224868,7.939109,7.951491,-0.000000,0.000000,0.000000
1.800000,-1.600000,0.403113,0.080000,-1751.901939,-9.987034,8.699422,11.134524,-0.000000,0.000000,0.000000
1.880000,-1.600000,0.401123,0.080000,-1751.502651,-10.214201,8.931752,15.518609,-0.000000,0.000000,0.000000
1.960000,-1.600000,0.400125,0.080000,-1751.047453,-9.216218,7.879089,21.498656,-0.000000,0.000000,0.000000
2.040000,-1.600000,0.400125,0.080000,-1750.543390,-5.821827,4.476618,28.885330,-0.000000,0.000000,0.000000
2.120000,-1.600000,0.383275,0.080000,-1750.012874,1.793702,-3.208930,37.557689,0.000000,-0.000000,0.000000
-2.120000,-1.520000,0.381182,0.080000,-1750.613738,7.622623,-9.163675,-27.968224,0.000000,-0.000000,-0.000000
-2.040000,-1.520000,0.460977,0.080000,-1750.955136,0.622904,-1.997691,-23.584668,0.000000,-0.000000,-0.000000
-1.960000,-1.520000,0.480104,0.080000,-1751.310383,-3.556318,2.200385,-18.948743,-0.000000,0.000000,-0.000000
-1.880000,-1.520000,0.480937,0.080000,-1751.652499,-5.703414,4.418926,-14.643757,-0.000000,0.000000,-0.000000
-1.800000,-1.520000,0.482597,0.080000,-1751.967496,-6.548801,5.256642,-11.147150,-0.000000,0.000000,-0.000000
-1.720000,-1.520000,0.480937,0.080000,-1752.249569,-6.666635,5.374176,-8.400172,-0.000000,0.000000,-0.000000
-1.640000,-1.520000,0.480104,0.080000,-1752.497672,-6.399237,5.109980,-6.295675,-0.000000,0.000000,-0.000000
-1.560000,-1.520000,0.480104,0.080000,-1752.713311,-5.951472,4.666691,-4.704736,-0.000000,0.000000,-0.000000
-1.480000,-1.520000,0.480937,0.080000,-1752.899212,-5.440084,4.159885,-3.509725,-0.000000,0.000000,-0.000000
-1.400000,-1.520000,0.482597,0.080000,-1753.058550,-4.928286,3.652218,-2.614201,-0.000000,0.000000,-0.000000
-1.320000,-1.520000,0.480937,0.080000,-1753.194536,-4.447887,3.175299,-1.943098,-0.000000,0.000000,-0.000000
-1.240000,-1.520000,0.480104,0.080000,-1753.310201,-4.012801,2.743062,-1.439600,-0.000000,0.000000,-0.000000
-1.160000,-1.520000,0.480104,0.080000,-1753.408299,-3.627156,2.359743,-1.061379,-0.000000,0.000000,-0.000000
-1.080000,-1.520000,0.480937,0.080000,-1753.491278,-3.290054,2.024524,-0.777100,-0.000000,0.000000,-0.000000
-1.000000,-1.520000,0.482597,0.080000,-1753.561281,-2.998211,1.734170,-0.563521,-0.000000,0.000000,-0.000000
-0.920000,-1.520000,0.480937,0.080000,-1753.620166,-2.747343,1.484445,-0.403319,-0.000000,0.000000,-0.000000
-0.840000,-1.520000,0.480104,0.080000,-1753.669532,-2.532895,1.270883,-0.283575,-0.000000,0.000000,-0.000000
-0.760000,-1.520000,0.480104,0.080000,-1753.710746,-2.350508,1.089217,-0.194687,-0.000000,0.000000,-0.000000
-0.680000,-1.520000,0.480937,0.080000,-1753.744973,-2.196304,0.935610,-0.129477,-0.000000,0.000000,-0.000000
-0.600000,-1.520000,0.482597,0.080000,-1753.773197,-2.066959,0.806728,-0.082460,-0.000000,0.000000,-0.000000
-0.520000,-1.520000,0.480937,0.080000,-1753.796244,-1.959611,0.699710,-0.049356,-0.000000,0.000000,-0.000000
-0.440000,-1.520000,0.480104,0.080000,-1753.814800,-1.871784,0.612123,-0.026836,-0.000000,0.000000,-0.000000
-0.360000,-1.520000,0.480104,0.080000,-1753.829426,-1.801408,0.541953,-0.012358,-0.000000,0.000000,-0.000000
-0.280000,-1.520000,0.480937,0.080000,-1753.840573,-1.746882,0.487609,-0.003947,-0.000000,0.000000,-0.000000
-0.200000,-1.520000,0.482597,0.080000,-1753.848588,-1.707038,0.447892,0.000054,-0.000000,0.000000,0.000000
-0.120000,-1.520000,0.480937,0.080000,-1753.853727,-1.681017,0.421922,0.001117,-0.000000,0.000000,0.000000
-0.040000,-1.520000,0.480104,0.080000,-1753.856155,-1.668186,0.409096,0.000545,-0.000000,0.000000,0.000000
0.040000,-1.520000,0.480104,0.080000,-1753.855956,-1.668186,0.409095,-0.000543,-0.000000,0.000000,-0.000000
0.120000,-1.520000,0.480937,0.080000,-1753.853129,-1.681015,0.421921,-0.001115,-0.000000,0.000000,-0.000000
0.200000,-1.520000,0.482597,0.080000,-1753.847592,-1.707036,0.447890,-0.000052,-0.000000,0.000000,-0.000000
0.280000,-1.520000,0.480937,0.080000,-1753.839179,-1.746879,0.487607,0.003948,-0.000000,0.000000,0.000000
0.360000,-1.520000,0.480104,0.080000,-1753.827634,-1.801404,0.541949,0.012360,-0.000000,0.000000,0.000000
0.440000,-1.520000,0.480104,0.080000,-1753.812609,-1.871779,0.612118,0.026837,-0.000000,0.000000,0.000000
0.520000,-1.520000,0.480937,0.080000,-1753.793656,-1.959606,0.699705,0.049356,-0.000000,0.000000,0.000000
0.600000,-1.520000,0.482597,0.080000,-1753.770211,-2.066952,0.806722,0.082460,-0.000000,0.000000,0.000000
0.680000,-1.520000,0.480937,0.080000,-1753.741589,-2.196296,0.935602,0.129477,-0.000000,0.000000,0.000000
0.760000,-1.520000,0.480104,0.080000,-1753.706964,-2.350499,1.089208,0.194686,-0.000000,0.000000,0.000000
0.840000,-1.520000,0.480104,0.080000,-1753.665351,-2.532884,1.270872,0.283574,-0.000000,0.000000,0.000000
0.920000,-1.520000,0.480937,0.080000,-1753.615588,-2.747330,1.484432,0.403316,-0.000000,0.000000,0.000000
1.000000,-1.520000,0.482597,0.080000,-1753.556305,-2.998196,1.734155,0.563517,-0.000000,0.000000,0.000000
1.080000,-1.520000,0.480937,0.080000,-1753.485904,-3.290036,2.024507,0.777094,-0.000000,0.000000,0.000000
1.160000,-1.520000,0.480104,0.080000,-1753.402527,-3.627136,2.359723,1.061370,-0.000000,0.000000,0.000000
1.240000,-1.520000,0.480104,0.080000,-1753.304032,-4.012777,2.743040,1.439588,-0.000000,0.000000,0.000000
1.320000,-1.520000,0.480937,0.080000,-1753.187970,-4.447860,3.175272,1.943082,-0.000000,0.000000,0.000000
1.400000,-1.520000,0.482597,0.080000,-1753.051587,-4.928256,3.652188,2.614180,-0.000000,0.000000,0.000000
1.480000,-1.520000,0.480937,0.080000,-1752.891852,-5.440049,4.159851,3.509696,-0.000000,0.000000,0.000000
1.560000,-1.520000,0.480104,0.080000,-1752.705554,-5.951433,4.666653,4.704698,-0.000000,0.000000,0.000000
1.640000,-1.520000,0.480104,0.080000,-1752.489518,-6.399195,5.109939,6.295624,-0.000000,0.000000,0.000000
1.720000,-1.520000,0.480937,0.080000,-1752.241019,-6.666592,5.374133,8.400105,-0.000000,0.000000,0.000000
1.800000,-1.520000,0.482597,0.080000,-1751.958550,-6.548758,5.256599,11.147062,-0.000000,0.000000,0.000000
1.880000,-1.520000,0.480937,0.080000,-1751.643158,-5.703377,4.418889,14.643643,-0.000000,0.000000,0.000000
1.960000,-1.520000,0.480104,0.080000,-1751.300646,-3.556297,2.200364,18.948595,-0.000000,0.000000,0.000000
2.040000,-1.520000,0.460977,0.080000,-1750.945004,0.622895,-1.997681,23.584485,0.000000,-0.000000,0.000000
2.120000,-1.520000,0.381182,0.080000,-1750.603210,7.622562,-9.163613,27.968006,0.000000,-0.000000,0.000000
-2.120000,-1.440000,0.380132,0.080000,-1751.156622,10.018139,-11.369600,-20.105561,0.000000,-0.000000,-0.000000
-2.040000,-1.440000,0.460109,0.080000,-1751.354071,4.231587,-5.489811,-18.352510,0.000000,-0.000000,-0.000000
-1.960000,-1.440000,0.540093,0.080000,-1751.586882,0.229549,-1.486224,-15.775461,0.000000,-0.000000,-0.000000
-1.880000,-1.440000,0.560803,0.080000,-1751.829488,-2.293513,1.098952,-12.968313,-0.000000,0.000000,-0.000000
-1.800000,-1.440000,0.562228,0.080000,-1752.065832,-3.701316,2.485723,-10.414839,-0.000000,0.000000,-0.000000
-1.720000,-1.440000,0.560803,0.080000,-1752.286781,-4.386566,3.155377,-8.233215,-0.000000,0.000000,-0.000000
-1.640000,-1.440000,0.560089,0.080000,-1752.487857,-4.616635,3.374727,-6.445214,-0.000000,0.000000,-0.000000
-1.560000,-1.440000,0.560089,0.080000,-1752.667526,-4.576342,3.327414,-5.015457,-0.000000,0.000000,-0.000000
-1.480000,-1.440000,0.560803,0.080000,-1752.826004,-4.386739,3.133372,-3.888672,-0.000000,0.000000,-0.000000
-1.400000,-1.440000,0.562228,0.080000,-1752.964479,-4.123979,2.867885,-3.008009,-0.000000,0.000000,-0.000000
-1.320000,-1.440000,0.560803,0.080000,-1753.084618,-3.834266,2.576542,-2.322754,-0.000000,0.000000,-0.000000
-1.240000,-1.440000,0.560089,0.080000,-1753.188267,-3.544526,2.285863,-1.790652,-0.000000,0.000000,-0.000000
-1.160000,-1.440000,0.560089,0.080000,-1753.277275,-3.269612,2.010438,-1.377780,-0.000000,0.000000,-0.000000
-1.080000,-1.440000,0.560803,0.080000,-1753.353400,-3.016992,1.757566,-1.057461,-0.000000,0.000000,-0.000000
-1.000000,-1.440000,0.562228,0.080000,-1753.418259,-2.789729,1.530203,-0.808958,-0.000000,0.000000,-0.000000
-0.920000,-1.440000,0.560803,0.080000,-1753.473305,-2.588344,1.328801,-0.616239,-0.000000,0.000000,-0.000000
-0.840000,-1.440000,0.560089,0.080000,-1753.519829,-2.411953,1.152440,-0.466930,-0.000000,0.000000,-0.000000
-0.760000,-1.440000,0.560089,0.080000,-1753.558961,-2.258982,0.999523,-0.351467,-0.000000,0.000000,-0.000000
-0.680000,-1.440000,0.560803,0.080000,-1753.591680,-2.127584,0.868189,-0.262438,-0.000000,0.000000,-0.000000
-0.600000,-1.440000,0.562228,0.080000,-1753.618829,-2.015887,0.756555,-0.194062,-0.000000,0.000000,-0.000000
-0.520000,-1.440000,0.560803,0.080000,-1753.641123,-1.922125,0.662849,-0.141800,-0.000000,0.000000,-0.000000
-0.440000,-1.440000,0.560089,0.080000,-1753.659163,-1.844708,0.585481,-0.102051,-0.000000,0.000000,-0.000000
-0.360000,-1.440000,0.560089,0.080000,-1753.673446,-1.782263,0.523077,-0.071924,-0.000000,0.000000,-0.000000
-0.280000,-1.440000,0.560803,0.080000,-1753.684370,-1.733649,0.474500,-0.049059,-0.000000,0.000000,-0.000000
-0.200000,-1.440000,0.562228,0.080000,-1753.692249,-1.697971,0.438848,-0.031482,-0.000000,0.000000,-0.000000
-0.120000,-1.440000,0.560803,0.080000,-1753.697310,-1.674559,0.415451,-0.017501,-0.000000,0.000000,-0.000000
-0.040000,-1.440000,0.560089,0.080000,-1753.699704,-1.662966,0.403864,-0.005605,-0.000000,0.000000,-0.000000
0.040000,-1.440000,0.560089,0.080000,-1753.699505,-1.662966,0.403863,0.005607,-0.000000,0.000000,0.000000
0.120000,-1.440000,0.560803,0.080000,-1753.696713,-1.674558,0.415450,0.017502,-0.000000,0.000000,0.000000
0.200000,-1.440000,0.562228,0.080000,-1753.691254,-1.697969,0.438846,0.031483,-0.000000,0.000000,0.000000
0.280000,-1.440000,0.560803,0.080000,-1753.682977,-1.733647,0.474497,0.049059,-0.000000,0.000000,0.000000
0.360000,-1.440000,0.560089,0.080000,-1753.671654,-1.782259,0.523074,0.071925,-0.000000,0.000000,0.000000
0.440000,-1.440000,0.560089,0.080000,-1753.656973,-1.844704,0.585477,0.102051,-0.000000,0.000000,0.000000
0.520000,-1.440000,0.560803,0.080000,-1753.638535,-1.922120,0.662844,0.141800,-0.000000,0.000000,0.000000
0.600000,-1.440000,0.562228,0.080000,-1753.615843,-2.015881,0.756549,0.194062,-0.000000,0.000000,0.000000
0.680000,-1.440000,0.560803,0.080000,-1753.588296,-2.127577,0.868182,0.262437,-0.000000,0.000000,0.000000
0.760000,-1.440000,0.560089,0.080000,-1753.555179,-2.258974,0.999514,0.351465,-0.000000,0.000000,0.000000
0.840000,-1.440000,0.560089,0.080000,-1753.515649,-2.411944,1.152430,0.466926,-0.000000,0.000000,0.000000
0.920000,-1.440000,0.560803,0.080000,-1753.468727,-2.588332,1.328790,0.616234,-0.000000,0.000000,0.000000
1.000000,-1.440000,0.562228,0.080000,-1753.413283,-2.789716,1.530190,0.808952,-0.000000,0.000000,0.000000
1.080000,-1.440000,0.560803,0.080000,-1753.348027,-3.016977,1.757551,1.057452,-0.000000,0.000000,0.000000
1.160000,-1.440000,0.560089,0.080000,-1753.271504,-3.269595,2.010421,1.377768,-0.000000,0.000000,0.000000
1.240000,-1.440000,0.560089,0.080000,-1753.182098,-3.544507,2.285844,1.790637,-0.000000,0.000000,0.000000
1.320000,-1.440000,0.560803,0.080000,-1753.078052,-3.834245,2.576521,2.322734,-0.000000,0.000000,0.000000
1.400000,-1.440000,0.562228,0.080000,-1752.957516,-4.123956,2.867862,3.007984,-0.000000,0.000000,0.000000
1.480000,-1.440000,0.560803,0.080000,-1752.818643,-4.386713,3.133347,3.888640,-0.000000,0.000000,0.000000
1.560000,-1.440000,0.560089,0.080000,-1752.659768,-4.576315,3.327386,5.015417,-0.000000,0.000000,0.000000
1.640000,-1.440000,0.560089,0.080000,-1752.479703,-4.616608,3.374699,6.445162,-0.000000,0.000000,0.000000
1.720000,-1.440000,0.560803,0.080000,-1752.278230,-4.386539,3.155351,8.233150,-0.000000,0.000000,0.000000
1.800000,-1.440000,0.562228,0.080000,-1752.056885,-3.701295,2.485702,10.414756,-0.000000,0.000000,0.000000
1.880000,-1.440000,0.560803,0.080000,-1751.820145,-2.293502,1.098941,12.968210,-0.000000,0.000000,0.000000
1.960000,-1.440000,0.540093,0.080000,-1751.577142,0.229541,-1.486216,15.775337,0.000000,-0.000000,0.000000
2.040000,-1.440000,0.460109,0.080000,-1751.343934,4.231550,-5.489773,18.352365,0.000000,-0.000000,0.000000
2.120000,-1.440000,0.380132,0.080000,-1751.146089,10.018059,-11.369519,20.105401,0.000000,-0.000000,0.000000
-2.120000,-1.360000,0.380132,0.080000,-1751.637056,10.203336,-11.538676,-14.284448,0.000000,-0.000000,-0.000000
-2.040000,-1.360000,0.460109,0.080000,-1751.727671,5.756241,-7.027619,-13.967534,0.000000,-0.000000,-0.000000
-1.960000,-1.360000,0.540093,0.080000,-1751.863220,2.337888,-3.610881,-12.723300,0.000000,-0.000000,-0.000000
-1.880000,-1.360000,0.620081,0.080000,-1752.021924,-0.092222,-1.116825,-11.034118,0.000000,-0.000000,-0.000000
-1.800000,-1.360000,0.641950,0.080000,-1752.188366,-1.668890,0.447504,-9.286094,-0.000000,0.000000,-0.000000
-1.720000,-1.360000,0.640703,0.080000,-1752.352385,-2.628634,1.396464,-7.654950,-0.000000,0.000000,-0.000000
-1.640000,-1.360000,0.640078,0.080000,-1752.507777,-3.153625,1.913043,-6.223521,-0.000000,0.000000,-0.000000
-1.560000,-1.360000,0.640078,0.080000,-1752.651132,-3.387105,2.140378,-5.013213,-0.000000,0.000000,-0.000000
-1.480000,-1.360000,0.640703,0.080000,-1752.780921,-3.433899,2.182875,-4.013473,-0.000000,0.000000,-0.000000
-1.400000,-1.360000,0.641950,0.080000,-1752.896820,-3.367156,2.113214,-3.199798,-0.000000,0.000000,-0.000000
-1.320000,-1.360000,0.640703,0.080000,-1752.999239,-3.236153,1.980276,-2.543703,-0.000000,0.000000,-0.000000
-1.240000,-1.360000,0.640078,0.080000,-1753.089007,-3.073132,1.815997,-2.017712,-0.000000,0.000000,-0.000000
-1.160000,-1.360000,0.640078,0.080000,-1753.167161,-2.898600,1.640662,-1.597478,-0.000000,0.000000,-0.000000
-1.080000,-1.360000,0.640703,0.080000,-1753.234813,-2.725175,1.466738,-1.262411,-0.000000,0.000000,-0.000000
-1.000000,-1.360000,0.641950,0.080000,-1753.293072,-2.560288,1.301550,-0.995555,-0.000000,0.000000,-0.000000
-0.920000,-1.360000,0.640703,0.080000,-1753.342992,-2.408020,1.149108,-0.783171,-0.000000,0.000000,-0.000000
-0.840000,-1.360000,0.640078,0.080000,-1753.385546,-2.270330,1.011325,-0.614221,-0.000000,0.000000,-0.000000
-0.760000,-1.360000,0.640078,0.080000,-1753.421618,-2.147874,0.888827,-0.479881,-0.000000,0.000000,-0.000000
-0.680000,-1.360000,0.640703,0.080000,-1753.451990,-2.040541,0.781481,-0.373092,-0.000000,0.000000,-0.000000
-0.600000,-1.360000,0.641950,0.080000,-1753.477350,-1.947793,0.688737,-0.288201,-0.000000,0.000000,-0.000000
-0.520000,-1.360000,0.640703,0.080000,-1753.498293,-1.868892,0.609850,-0.220656,-0.000000,0.000000,-0.000000
-0.440000,-1.360000,0.640078,0.080000,-1753.515323,-1.803040,0.544015,-0.166762,-0.000000,0.000000,-0.000000
-0.360000,-1.360000,0.640078,0.080000,-1753.528862,-1.749467,0.490459,-0.123484,-0.000000,0.000000,-0.000000
-0.280000,-1.360000,0.640703,0.080000,-1753.539254,-1.707484,0.448492,-0.088295,-0.000000,0.000000,-0.000000
-0.200000,-1.360000,0.641950,0.080000,-1753.546768,-1.676516,0.417535,-0.059044,-0.000000,0.000000,-0.000000
-0.120000,-1.360000,0.640703,0.080000,-1753.551603,-1.656120,0.397148,-0.033852,-0.000000,0.000000,-0.000000
-0.040000,-1.360000,0.640078,0.080000,-1753.553888,-1.645997,0.387030,-0.011025,-0.000000,0.000000,-0.000000
0.040000,-1.360000,0.640078,0.080000,-1753.553689,-1.645997,0.387029,0.011025,-0.000000,0.000000,0.000000
0.120000,-1.360000,0.640703,0.080000,-1753.551005,-1.656119,0.397147,0.033852,-0.000000,0.000000,0.000000
0.200000,-1.360000,0.641950,0.080000,-1753.545773,-1.676514,0.417534,0.059044,-0.000000,0.000000,0.000000
0.280000,-1.360000,0.640703,0.080000,-1753.537861,-1.707482,0.448489,0.088296,-0.000000,0.000000,0.000000
0.360000,-1.360000,0.640078,0.080000,-1753.527070,-1.749464,0.490456,0.123484,-0.000000,0.000000,0.000000
0.440000,-1.360000,0.640078,0.080000,-1753.513133,-1.803037,0.544011,0.166761,-0.000000,0.000000,0.000000
0.520000,-1.360000,0.640703,0.080000,-1753.495704,-1.868887,0.609845,0.220655,-0.000000,0.000000,0.000000
0.600000,-1.360000,0.641950,0.080000,-1753.474364,-1.947787,0.688732,0.288199,-0.000000,0.000000,0.000000
0.680000,-1.360000,0.640703,0.080000,-1753.448606,-2.040535,0.781475,0.373089,-0.000000,0.000000,0.000000
0.760000,-1.360000,0.640078,0.080000,-1753.417836,-2.147867,0.888820,0.479877,-0.000000,0.000000,0.000000
0.840000,-1.360000,0.640078,0.080000,-1753.381366,-2.270321,1.011317,0.614217,-0.000000,0.000000,0.000000
0.920000,-1.360000,0.640703,0.080000,-1753.338413,-2.408010,1.149098,0.783164,-0.000000,0.000000,0.000000
1.000000,-1.360000,0.641950,0.080000,-1753.288096,-2.560277,1.301539,0.995547,-0.000000,0.000000,0.000000
1.080000,-1.360000,0.640703,0.080000,-1753.229439,-2.725162,1.466726,1.262401,-0.000000,0.000000,0.000000
1.160000,-1.360000,0.640078,0.080000,-1753.161389,-2.898586,1.640649,1.597465,-0.000000,0.000000,0.000000
1.240000,-1.360000,0.640078,0.080000,-1753.082838,-3.073117,1.815982,2.017695,-0.000000,0.000000,0.000000
1.320000,-1.360000,0.640703,0.080000,-1752.992672,-3.236136,1.980259,2.543683,-0.000000,0.000000,0.000000
1.400000,-1.360000,0.641950,0.080000,-1752.889855,-3.367138,2.113196,3.199772,-0.000000,0.000000,0.000000
1.480000,-1.360000,0.640703,0.080000,-1752.773559,-3.433881,2.182856,4.013441,-0.000000,0.000000,0.000000
1.560000,-1.360000,0.640078,0.080000,-1752.643373,-3.387087,2.140360,5.013172,-0.000000,0.000000,0.000000
1.640000,-1.360000,0.640078,0.080000,-1752.499621,-3.153609,1.913026,6.223471,-0.000000,0.000000,0.000000
1.720000,-1.360000,0.640703,0.080000,-1752.343832,-2.628621,1.396452,7.654889,-0.000000,0.000000,0.000000
1.800000,-1.360000,0.641950,0.080000,-1752.179416,-1.668885,0.447498,9.286020,-0.000000,0.000000,0.000000
1.880000,-1.360000,0.620081,0.080000,-1752.012577,-0.092229,-1.116819,11.034030,0.000000,-0.000000,0.000000
1.960000,-1.360000,0.540093,0.080000,-1751.853477,2.337863,-3.610856,12.723198,0.000000,-0.000000,0.000000
2.040000,-1.360000,0.460109,0.080000,-1751.717530,5.756191,-7.027569,13.967422,0.000000,-0.000000,0.000000
2.120000,-1.360000,0.380132,0.080000,-1751.626518,10.203253,-11.538592,14.284332,0.000000,-0.000000,0.000000
-2.120000,-1.280000,0.381182,0.080000,-1752.053100,9.485624,-10.807668,-10.090158,0.000000,-0.000000,-0.000000
-2.040000,-1.280000,0.460977,0.080000,-1752.065534,6.181473,-7.458263,-10.488073,0.000000,-0.000000,-0.000000
-1.960000,-1.280000,0.540833,0.080000,-1752.125528,3.424594,-4.705262,-10.056408,0.000000,-0.000000,-0.000000
-1.880000,-1.280000,0.620725,0.080000,-1752.215541,1.284130,-2.507038,-9.144005,0.000000,-0.000000,-0.000000
-1.800000,-1.280000,0.700643,0.080000,-1752.322019,-0.248660,-0.980382,-8.023460,0.000000,-0.000000,-0.000000
-1.720000,-1.280000,0.720625,0.080000,-1752.435119,-1.298552,0.062894,-6.867163,-0.000000,0.000000,-0.000000
-1.640000,-1.280000,0.720069,0.080000,-1752.548084,-1.975594,0.734019,-5.775734,-0.000000,0.000000,-0.000000
-1.560000,-1.280000,0.720069,0.080000,-1752.656545,-2.379270,1.132895,-4.798317,-0.000000,0.000000,-0.000000
-1.480000,-1.280000,0.720625,0.080000,-1752.757893,-2.590666,1.340617,-3.951699,-0.000000,0.000000,-0.000000
-1.400000,-1.280000,0.721734,0.080000,-1752.850754,-2.671807,1.419053,-3.234263,-0.000000,0.000000,-0.000000
-1.320000,-1.280000,0.720625,0.080000,-1752.934593,-2.668152,1.413460,-2.635124,-0.000000,0.000000,-0.000000
-1.240000,-1.280000,0.720069,0.080000,-1753.009423,-2.611983,1.355928,-2.139666,-0.000000,0.000000,-0.000000
-1.160000,-1.280000,0.720069,0.080000,-1753.075596,-2.525650,1.268654,-1.732631,-0.000000,0.000000,-0.000000
-1.080000,-1.280000,0.720625,0.080000,-1753.133660,-2.424285,1.166647,-1.399693,-0.000000,0.000000,-0.000000
-1.000000,-1.280000,0.721734,0.080000,-1753.184261,-2.317892,1.059821,-1.128135,-0.000000,0.000000,-0.000000
-0.920000,-1.280000,0.720625,0.080000,-1753.228079,-2.212915,0.954557,-0.907037,-0.000000,0.000000,-0.000000
-0.840000,-1.280000,0.720069,0.080000,-1753.265783,-2.113358,0.854812,-0.727201,-0.000000,0.000000,-0.000000
-0.760000,-1.280000,0.720069,0.080000,-1753.298010,-2.021587,0.762921,-0.580976,-0.000000,0.000000,-0.000000
-0.680000,-1.280000,0.720625,0.080000,-1753.325349,-1.938887,0.680146,-0.462030,-0.000000,0.000000,-0.000000
-0.600000,-1.280000,0.721734,0.080000,-1753.348327,-1.865845,0.607060,-0.365137,-0.000000,0.000000,-0.000000
-0.520000,-1.280000,0.720625,0.080000,-1753.367414,-1.802620,0.543809,-0.285973,-0.000000,0.000000,-0.000000
-0.440000,-1.280000,0.720069,0.080000,-1753.383013,-1.749115,0.490291,-0.220940,-0.000000,0.000000,-0.000000
-0.360000,-1.280000,0.720069,0.080000,-1753.395467,-1.705109,0.446279,-0.167019,-0.000000,0.000000,-0.000000
-0.280000,-1.280000,0.720625,0.080000,-1753.405058,-1.670330,0.411498,-0.121640,-0.000000,0.000000,-0.000000
-0.200000,-1.280000,0.721734,0.080000,-1753.412010,-1.644514,0.385682,-0.082577,-0.000000,0.000000,-0.000000
-0.120000,-1.280000,0.720625,0.080000,-1753.416487,-1.627436,0.368605,-0.047856,-0.000000,0.000000,-0.000000
-0.040000,-1.280000,0.720069,0.080000,-1753.418598,-1.618939,0.360108,-0.015674,-0.000000,0.000000,-0.000000
0.040000,-1.280000,0.720069,0.080000,-1753.418399,-1.618938,0.360108,0.015673,-0.000000,0.000000,0.000000
0.120000,-1.280000,0.720625,0.080000,-1753.415889,-1.627435,0.368604,0.047856,-0.000000,0.000000,0.000000
0.200000,-1.280000,0.721734,0.080000,-1753.411014,-1.644512,0.385680,0.082577,-0.000000,0.000000,0.000000
0.280000,-1.280000,0.720625,0.080000,-1753.403665,-1.670328,0.411496,0.121639,-0.000000,0.000000,0.000000
0.360000,-1.280000,0.720069,0.080000,-1753.393675,-1.705107,0.446276,0.167018,-0.000000,0.000000,0.000000
0.440000,-1.280000,0.720069,0.080000,-1753.380822,-1.749112,0.490288,0.220939,-0.000000,0.000000,0.000000
0.520000,-1.280000,0.720625,0.080000,-1753.364825,-1.802616,0.543805,0.285971,-0.000000,0.000000,0.000000
0.600000,-1.280000,0.721734,0.080000,-1753.345341,-1.865841,0.607055,0.365135,-0.000000,0.000000,0.000000
0.680000,-1.280000,0.720625,0.080000,-1753.321964,-1.938881,0.680141,0.462027,-0.000000,0.000000,0.000000
0.760000,-1.280000,0.720069,0.080000,-1753.294228,-2.021581,0.762915,0.580971,-0.000000,0.000000,0.000000
0.840000,-1.280000,0.720069,0.080000,-1753.261602,-2.113350,0.854805,0.727195,-0.000000,0.000000,0.000000
0.920000,-1.280000,0.720625,0.080000,-1753.223500,-2.212906,0.954548,0.907029,-0.000000,0.000000,0.000000
1.000000,-1.280000,0.721734,0.080000,-1753.179285,-2.317883,1.059812,1.128126,-0.000000,0.000000,0.000000
1.080000,-1.280000,0.720625,0.080000,-1753.128286,-2.424275,1.166637,1.399681,-0.000000,0.000000,0.000000
1.160000,-1.280000,0.720069,0.080000,-1753.069824,-2.525640,1.268644,1.732617,-0.000000,0.000000,0.000000
1.240000,-1.280000,0.720069,0.080000,-1753.003253,-2.611971,1.355917,2.139649,-0.000000,0.000000,0.000000
1.320000,-1.280000,0.720625,0.080000,-1752.928026,-2.668140,1.413448,2.635103,-0.000000,0.000000,0.000000
1.400000,-1.280000,0.721734,0.080000,-1752.843789,-2.671795,1.419041,3.234236,-0.000000,0.000000,0.000000
1.480000,-1.280000,0.720625,0.080000,-1752.750531,-2.590654,1.340605,3.951667,-0.000000,0.000000,0.000000
1.560000,-1.280000,0.720069,0.080000,-1752.648786,-2.379260,1.132885,4.798278,-0.000000,0.000000,0.000000
1.640000,-1.280000,0.720069,0.080000,-1752.539927,-1.975587,0.734012,5.775688,-0.000000,0.000000,0.000000
1.720000,-1.280000,0.720625,0.080000,-1752.426565,-1.298550,0.062892,6.867107,-0.000000,0.000000,0.000000
1.800000,-1.280000,0.700643,0.080000,-1752.313068,-0.248666,-0.980376,8.023396,0.000000,-0.000000,0.000000
1.880000,-1.280000,0.620725,0.080000,-1752.206192,1.284113,-2.507021,9.143931,0.000000,-0.000000,0.000000
1.960000,-1.280000,0.540833,0.080000,-1752.115781,3.424560,-4.705228,10.056327,0.000000,-0.000000,0.000000
2.040000,-1.280000,0.460977,0.080000,-1752.055390,6.181419,-7.458208,10.487987,0.000000,-0.000000,0.000000
2.120000,-1.280000,0.381182,0.080000,-1752.042558,9.485545,-10.807588,10.090074,0.000000,-0.000000,0.000000
-2.120000,-1.200000,0.383275,0.080000,-1752.408918,8.430932,-9.740471,-7.120299,0.000000,-0.000000,-0.000000
-2.040000,-1.200000,0.462709,0.080000,-1752.364498,6.016765,-7.294390,-7.823234,0.000000,-0.000000,-0.000000
-1.960000,-1.200000,0.542310,0.080000,-1752.366544,3.863130,-5.145893,-7.853405,0.000000,-0.000000,-0.000000
-1.880000,-1.200000,0.622013,0.080000,-1752.401363,2.070174,-3.304328,-7.448213,0.000000,-0.000000,-0.000000
-1.800000,-1.200000,0.701783,0.080000,-1752.457612,0.687487,-1.923906,-6.784263,0.000000,-0.000000,-0.000000
-1.720000,-1.200000,0.781601,0.080000,-1752.526431,-0.339200,-0.900772,-6.006067,0.000000,-0.000000,-0.000000
-1.640000,-1.200000,0.800062,0.080000,-1752.601229,-1.067678,-0.176065,-5.208727,-0.000000,0.000000,-0.000000
-1.560000,-1.200000,0.800062,0.080000,-1752.677322,-1.560471,0.313295,-4.449711,-0.000000,0.000000,-0.000000
-1.480000,-1.200000,0.800562,0.080000,-1752.751538,-1.874914,0.624866,-3.759319,-0.000000,0.000000,-0.000000
-1.400000,-1.200000,0.801561,0.080000,-1752.821847,-2.059075,0.806746,-3.149888,-0.000000,0.000000,-0.000000
-1.320000,-1.200000,0.800562,0.080000,-1752.887059,-2.151037,0.896958,-2.622810,-0.000000,0.000000,-0.000000
-1.240000,-1.200000,0.800062,0.080000,-1752.946576,-2.179818,0.924431,-2.173387,-0.000000,0.000000,-0.000000
-1.160000,-1.200000,0.800062,0.080000,-1753.000206,-2.166904,0.910556,-1.793977,-0.000000,0.000000,-0.000000
-1.080000,-1.200000,0.800562,0.080000,-1753.048026,-2.127849,0.870802,-1.475906,-0.000000,0.000000,-0.000000
-1.000000,-1.200000,0.801561,0.080000,-1753.090284,-2.073691,0.816145,-1.210552,-0.000000,0.000000,-0.000000
-0.920000,-1.200000,0.800562,0.080000,-1753.127324,-2.012129,0.754227,-0.989902,-0.000000,0.000000,-0.000000
-0.840000,-1.200000,0.800062,0.080000,-1753.159539,-1.948430,0.690277,-0.806795,-0.000000,0.000000,-0.000000
-0.760000,-1.200000,0.800062,0.080000,-1753.187334,-1.886122,0.627794,-0.654977,-0.000000,0.000000,-0.000000
-0.680000,-1.200000,0.800562,0.080000,-1753.211109,-1.827510,0.569060,-0.529067,-0.000000,0.000000,-0.000000
-0.600000,-1.200000,0.801561,0.080000,-1753.231239,-1.774047,0.515513,-0.424467,-0.000000,0.000000,-0.000000
-0.520000,-1.200000,0.800562,0.080000,-1753.248064,-1.726610,0.468018,-0.337255,-0.000000,0.000000,-0.000000
-0.440000,-1.200000,0.800062,0.080000,-1753.261890,-1.685690,0.427059,-0.264082,-0.000000,0.000000,-0.000000
-0.360000,-1.200000,0.800062,0.080000,-1753.272978,-1.651531,0.392874,-0.202068,-0.000000,0.000000,-0.000000
-0.280000,-1.200000,0.800562,0.080000,-1753.281546,-1.624226,0.365552,-0.148710,-0.000000,0.000000,-0.000000
-0.200000,-1.200000,0.801561,0.080000,-1753.287770,-1.603787,0.345103,-0.101797,-0.000000,0.000000,-0.000000
-0.120000,-1.200000,0.800562,0.080000,-1753.291780,-1.590190,0.331499,-0.059338,-0.000000,0.000000,-0.000000
-0.040000,-1.200000,0.800062,0.080000,-1753.293664,-1.583401,0.324707,-0.019492,-0.000000,0.000000,-0.000000
0.040000,-1.200000,0.800062,0.080000,-1753.293465,-1.583400,0.324707,0.019492,-0.000000,0.000000,0.000000
0.120000,-1.200000,0.800562,0.080000,-1753.291183,-1.590189,0.331498,0.059337,-0.000000,0.000000,0.000000
0.200000,-1.200000,0.801561,0.080000,-1753.286774,-1.603786,0.345102,0.101796,-0.000000,0.000000,0.000000
0.280000,-1.200000,0.800562,0.080000,-1753.280152,-1.624224,0.365551,0.148709,-0.000000,0.000000,0.000000
0.360000,-1.200000,0.800062,0.080000,-1753.271186,-1.651528,0.392872,0.202067,-0.000000,0.000000,0.000000
0.440000,-1.200000,0.800062,0.080000,-1753.259700,-1.685687,0.427056,0.264080,-0.000000,0.000000,0.000000
0.520000,-1.200000,0.800562,0.080000,-1753.245476,-1.726607,0.468015,0.337252,-0.000000,0.000000,0.000000
0.600000,-1.200000,0.801561,0.080000,-1753.228252,-1.774043,0.515509,0.424464,-0.000000,0.000000,0.000000
0.680000,-1.200000,0.800562,0.080000,-1753.207725,-1.827505,0.569055,0.529063,-0.000000,0.000000,0.000000
0.760000,-1.200000,0.800062,0.080000,-1753.183552,-1.886117,0.627789,0.654972,-0.000000,0.000000,0.000000
0.840000,-1.200000,0.800062,0.080000,-1753.155358,-1.948424,0.690272,0.806788,-0.000000,0.000000,0.000000
0.920000,-1.200000,0.800562,0.080000,-1753.122746,-2.012123,0.754221,0.989894,-0.000000,0.000000,0.000000
1.000000,-1.200000,0.801561,0.080000,-1753.085308,-2.073684,0.816138,1.210542,-0.000000,0.000000,0.000000
1.080000,-1.200000,0.800562,0.080000,-1753.042652,-2.127841,0.870795,1.475894,-0.000000,0.000000,0.000000
1.160000,-1.200000,0.800062,0.080000,-1752.994433,-2.166897,0.910548,1.793962,-0.000000,0.000000,0.000000
1.240000,-1.200000,0.800062,0.080000,-1752.940406,-2.179810,0.924423,2.173369,-0.000000,0.000000,0.000000
1.320000,-1.200000,0.800562,0.080000,-1752.880491,-2.151029,0.896950,2.622789,-0.000000,0.000000,0.000000
1.400000,-1.200000,0.801561,0.080000,-1752.814882,-2.059068,0.806739,3.149862,-0.000000,0.000000,0.000000
1.480000,-1.200000,0.800562,0.080000,-1752.744175,-1.874909,0.624860,3.759288,-0.000000,0.000000,0.000000
1.560000,-1.200000,0.800062,0.080000,-1752.669561,-1.560468,0.313292,4.449675,-0.000000,0.000000,0.000000
1.640000,-1.200000,0.800062,0.080000,-1752.593070,-1.067679,-0.176065,5.208684,-0.000000,0.000000,0.000000
1.720000,-1.200000,0.781601,0.080000,-1752.517875,-0.339206,-0.900766,6.006018,0.000000,-0.000000,0.000000
1.800000,-1.200000,0.701783,0.080000,-1752.448658,0.687473,-1.923892,6.784208,0.000000,-0.000000,0.000000
1.880000,-1.200000,0.622013,0.080000,-1752.392011,2.070150,-3.304304,7.448152,0.000000,-0.000000,0.000000
1.960000,-1.200000,0.542310,0.080000,-1752.356795,3.863093,-5.145855,7.853341,0.000000,-0.000000,0.000000
2.040000,-1.200000,0.462709,0.080000,-1752.354350,6.016711,-7.294336,7.823168,0.000000,-0.000000,0.000000
2.120000,-1.200000,0.383275,0.080000,-1752.398372,8.430859,-9.740398,7.120238,0.000000,-0.000000,0.000000
-2.120000,-1.120000,0.381182,0.080000,-1752.711019,7.318247,-8.613847,-5.029035,0.000000,-0.000000,-0.000000
-2.040000,-1.120000,0.460977,0.080000,-1752.625337,5.568207,-6.844365,-5.820252,0.000000,-0.000000,-0.000000
-1.960000,-1.120000,0.540833,0.080000,-1752.583240,3.915196,-5.196954,-6.091440,0.000000,-0.000000,-0.000000
-1.880000,-1.120000,0.620725,0.080000,-1752.574221,2.457314,-3.699824,-5.999810,0.000000,-0.000000,-0.000000
-1.800000,-1.120000,0.700643,0.080000,-1752.589063,1.264057,-2.506677,-5.651420,0.000000,-0.000000,-0.000000
-1.720000,-1.120000,0.780577,0.080000,-1752.620127,0.321400,-1.565554,-5.157841,0.000000,-0.000000,-0.000000
-1.640000,-1.120000,0.860523,0.080000,-1752.661375,-0.394425,-0.851882,-4.598933,-0.000000,-0.000000,-0.000000
-1.560000,-1.120000,0.880057,0.080000,-1752.708213,-0.918392,-0.330175,-4.029575,-0.000000,0.000000,-0.000000
-1.480000,-1.120000,0.880511,0.080000,-1752.757274,-1.287744,0.037092,-3.484229,-0.000000,0.000000,-0.000000
-1.400000,-1.120000,0.881419,0.080000,-1752.806184,-1.537024,0.284583,-2.982209,-0.000000,0.000000,-0.000000
-1.320000,-1.120000,0.880511,0.080000,-1752.853337,-1.695853,0.441948,-2.532397,-0.000000,0.000000,-0.000000
-1.240000,-1.120000,0.880057,0.080000,-1752.897709,-1.788371,0.533306,-2.136954,-0.000000,0.000000,-0.000000
-1.160000,-1.120000,0.880057,0.080000,-1752.938702,-1.833563,0.577599,-1.794013,-0.000000,0.000000,-0.000000
-1.080000,-1.120000,0.880511,0.080000,-1752.976021,-1.845970,0.589322,-1.499519,-0.000000,0.000000,-0.000000
-1.000000,-1.120000,0.881419,0.080000,-1753.009584,-1.836502,0.579338,-1.248417,-0.000000,0.000000,-0.000000
-0.920000,-1.120000,0.880511,0.080000,-1753.039449,-1.813203,0.555654,-1.035384,-0.000000,0.000000,-0.000000
-0.840000,-1.120000,0.880057,0.080000,-1753.065764,-1.781917,0.524083,-0.855248,-0.000000,0.000000,-0.000000
-0.760000,-1.120000,0.880057,0.080000,-1753.088727,-1.746829,0.488785,-0.703204,-0.000000,0.000000,-0.000000
-0.680000,-1.120000,0.880511,0.080000,-1753.108562,-1.710894,0.452697,-0.574911,-0.000000,0.000000,-0.000000
-0.600000,-1.120000,0.881419,0.080000,-1753.125499,-1.676166,0.417857,-0.466505,-0.000000,0.000000,-0.000000
-0.520000,-1.120000,0.880511,0.080000,-1753.139761,-1.644049,0.385658,-0.374577,-0.000000,0.000000,-0.000000
-0.440000,-1.120000,0.880057,0.080000,-1753.151551,-1.615484,0.357034,-0.296129,-0.000000,0.000000,-0.000000
-0.360000,-1.120000,0.880057,0.080000,-1753.161053,-1.591088,0.332596,-0.228512,-0.000000,0.000000,-0.000000
-0.280000,-1.120000,0.880511,0.080000,-1753.168424,-1.571254,0.312733,-0.169372,-0.000000,0.000000,-0.000000
-0.200000,-1.120000,0.881419,0.080000,-1753.173789,-1.556224,0.297683,-0.116589,-0.000000,0.000000,-0.000000
-0.120000,-1.120000,0.880511,0.080000,-1753.177246,-1.546140,0.287588,-0.068222,-0.000000,0.000000,-0.000000
-0.040000,-1.120000,0.880057,0.080000,-1753.178859,-1.541082,0.282523,-0.022455,-0.000000,0.000000,-0.000000
0.040000,-1.120000,0.880057,0.080000,-1753.178660,-1.541082,0.282523,0.022454,-0.000000,0.000000,0.000000
0.120000,-1.120000,0.880511,0.080000,-1753.176649,-1.546140,0.287587,0.068220,-0.000000,0.000000,0.000000
0.200000,-1.120000,0.881419,0.080000,-1753.172794,-1.556223,0.297682,0.116587,-0.000000,0.000000,0.000000
0.280000,-1.120000,0.880511,0.080000,-1753.167030,-1.571252,0.312731,0.169370,-0.000000,0.000000,0.000000
0.360000,-1.120000,0.880057,0.080000,-1753.159261,-1.591086,0.332594,0.228510,-0.000000,0.000000,0.000000
0.440000,-1.120000,0.880057,0.080000,-1753.149361,-1.615482,0.357032,0.296127,-0.000000,0.000000,0.000000
0.520000,-1.120000,0.880511,0.080000,-1753.137172,-1.644046,0.385655,0.374574,-0.000000,0.000000,0.000000
0.600000,-1.120000,0.881419,0.080000,-1753.122513,-1.676163,0.417853,0.466501,-0.000000,0.000000,0.000000
0.680000,-1.120000,0.880511,0.080000,-1753.105178,-1.710891,0.452693,0.574906,-0.000000,0.000000,0.000000
0.760000,-1.120000,0.880057,0.080000,-1753.084944,-1.746825,0.488781,0.703198,-0.000000,0.000000,0.000000
0.840000,-1.120000,0.880057,0.080000,-1753.061583,-1.781912,0.524079,0.855241,-0.000000,0.000000,0.000000
0.920000,-1.120000,0.880511,0.080000,-1753.034870,-1.813198,0.555649,1.035376,-0.000000,0.000000,0.000000
1.000000,-1.120000,0.881419,0.080000,-1753.004607,-1.836497,0.579333,1.248407,-0.000000,0.000000,0.000000
1.080000,-1.120000,0.880511,0.080000,-1752.970646,-1.845965,0.589317,1.499507,-0.000000,0.000000,0.000000
1.160000,-1.120000,0.880057,0.080000,-1752.932929,-1.833558,0.577594,1.793999,-0.000000,0.000000,0.000000
1.240000,-1.120000,0.880057,0.080000,-1752.891538,-1.788366,0.533301,2.136937,-0.000000,0.000000,0.000000
1.320000,-1.120000,0.880511,0.080000,-1752.846768,-1.695849,0.441944,2.532377,-0.000000,0.000000,0.000000
1.400000,-1.120000,0.881419,0.080000,-1752.799217,-1.537021,0.284580,2.982185,-0.000000,0.000000,0.000000
1.480000,-1.120000,0.880511,0.080000,-1752.749910,-1.287743,0.037090,3.484200,-0.000000,0.000000,0.000000
1.560000,-1.120000,0.880057,0.080000,-1752.700451,-0.918394,-0.330173,4.029542,-0.000000,0.000000,0.000000
1.640000,-1.120000,0.860523,0.080000,-1752.653215,-0.394431,-0.851876,4.598895,-0.000000,-0.000000,0.000000
1.720000,-1.120000,0.780577,0.080000,-1752.611569,0.321389,-1.565543,5.157798,0.000000,-0.000000,0.000000
1.800000,-1.120000,0.700643,0.080000,-1752.580107,1.264038,-2.506659,5.651373,0.000000,-0.000000,0.000000
1.880000,-1.120000,0.620725,0.080000,-1752.564867,2.457287,-3.699796,5.999760,0.000000,-0.000000,0.000000
1.960000,-1.120000,0.540833,0.080000,-1752.573488,3.915157,-5.196915,6.091389,0.000000,-0.000000,0.000000
2.040000,-1.120000,0.460977,0.080000,-1752.615186,5.568156,-6.844313,5.820202,0.000000,-0.000000,0.000000
2.120000,-1.120000,0.381182,0.080000,-1752.700470,7.318182,-8.613781,5.028990,0.000000,-0.000000,0.000000
-2.120000,-1.040000,0.380132,0.080000,-1752.966385,6.275287,-7.558297,-3.554550,0.000000,-0.000000,-0.000000
-2.040000,-1.040000,0.460109,0.080000,-1752.850749,5.009827,-6.283616,-4.328485,0.000000,-0.000000,-0.000000
-1.960000,-1.040000,0.540093,0.080000,-1752.775131,3.752604,-5.031915,-4.708271,0.000000,-0.000000,-0.000000
-1.880000,-1.040000,0.620081,0.080000,-1752.731537,2.587946,-3.836337,-4.799069,0.000000,-0.000000,-0.000000
-1.800000,-1.040000,0.700071,0.080000,-1752.712605,1.586007,-2.833454,-4.659206,0.000000,-0.000000,-0.000000
-1.720000,-1.040000,0.780064,0.080000,-1752.711931,0.753447,-2.001212,-4.370721,0.000000,-0.000000,-0.000000
-1.640000,-1.040000,0.860058,0.080000,-1752.724184,0.086705,-1.335508,-3.996196,0.000000,-0.000000,-0.000000
-1.560000,-1.040000,0.940053,0.080000,-1752.745092,-0.430405,-0.819754,-3.582941,-0.000000,-0.000000,-0.000000
-1.480000,-1.040000,0.960469,0.080000,-1752.771337,-0.819784,-0.431785,-3.164119,-0.000000,-0.000000,-0.000000
-1.400000,-1.040000,0.961301,0.080000,-1752.800422,-1.104492,-0.148395,-2.761244,-0.000000,0.000000,-0.000000
-1.320000,-1.040000,0.960469,0.080000,-1752.830515,-1.306116,0.052077,-2.386980,-0.000000,0.000000,-0.000000
-1.240000,-1.040000,0.960052,0.080000,-1752.860321,-1.443512,0.188507,-2.047683,-0.000000,0.000000,-0.000000
-1.160000,-1.040000,0.960052,0.080000,-1752.888955,-1.532408,0.276617,-1.745458,-0.000000,0.000000,-0.000000
-1.080000,-1.040000,0.960469,0.080000,-1752.915845,-1.585499,0.329080,-1.479710,-0.000000,0.000000,-0.000000
-1.000000,-1.040000,0.961301,0.080000,-1752.940647,-1.612785,0.355874,-1.248249,-0.000000,0.000000,-0.000000
-0.920000,-1.040000,0.960469,0.080000,-1752.963184,-1.621995,0.364700,-1.048039,-0.000000,0.000000,-0.000000
-0.840000,-1.040000,0.960052,0.080000,-1752.983395,-1.619007,0.361419,-0.875691,-0.000000,0.000000,-0.000000
-0.760000,-1.040000,0.960052,0.080000,-1753.001299,-1.608240,0.350426,-0.727765,-0.000000,0.000000,-0.000000
-0.680000,-1.040000,0.960469,0.080000,-1753.016964,-1.592969,0.334984,-0.600946,-0.000000,0.000000,-0.000000
-0.600000,-1.040000,0.961301,0.080000,-1753.030486,-1.575603,0.317488,-0.492134,-0.000000,0.000000,-0.000000
-0.520000,-1.040000,0.960469,0.080000,-1753.041976,-1.557887,0.299675,-0.398481,-0.000000,0.000000,-0.000000
-0.440000,-1.040000,0.960052,0.080000,-1753.051548,-1.541077,0.282792,-0.317395,-0.000000,0.000000,-0.000000
-0.360000,-1.040000,0.960052,0.080000,-1753.059309,-1.526063,0.267724,-0.246519,-0.000000,0.000000,-0.000000
-0.280000,-1.040000,0.960469,0.080000,-1753.065354,-1.513465,0.255087,-0.183707,-0.000000,0.000000,-0.000000
-0.200000,-1.040000,0.961301,0.080000,-1753.069765,-1.503706,0.245302,-0.126986,-0.000000,0.000000,-0.000000
-0.120000,-1.040000,0.960469,0.080000,-1753.072604,-1.497064,0.238642,-0.074518,-0.000000,0.000000,-0.000000
-0.040000,-1.040000,0.960052,0.080000,-1753.073913,-1.493703,0.235274,-0.024563,-0.000000,0.000000,-0.000000
0.040000,-1.040000,0.960052,0.080000,-1753.073714,-1.493703,0.235274,0.024561,-0.000000,0.000000,0.000000
0.120000,-1.040000,0.960469,0.080000,-1753.072006,-1.497063,0.238642,0.074516,-0.000000,0.000000,0.000000
0.200000,-1.040000,0.961301,0.080000,-1753.068769,-1.503705,0.245301,0.126984,-0.000000,0.000000,0.000000
0.280000,-1.040000,0.960469,0.080000,-1753.063960,-1.513464,0.255086,0.183705,-0.000000,0.000000,0.000000
0.360000,-1.040000,0.960052,0.080000,-1753.057517,-1.526062,0.267723,0.246517,-0.000000,0.000000,0.000000
0.440000,-1.040000,0.960052,0.080000,-1753.049358,-1.541076,0.282790,0.317392,-0.000000,0.000000,0.000000
0.520000,-1.040000,0.960469,0.080000,-1753.039388,-1.557885,0.299672,0.398478,-0.000000,0.000000,0.000000
0.600000,-1.040000,0.961301,0.080000,-1753.027499,-1.575600,0.317485,0.492130,-0.000000,0.000000,0.000000
0.680000,-1.040000,0.960469,0.080000,-1753.013579,-1.592967,0.334982,0.600941,-0.000000,0.000000,0.000000
0.760000,-1.040000,0.960052,0.080000,-1752.997516,-1.608237,0.350423,0.727759,-0.000000,0.000000,0.000000
0.840000,-1.040000,0.960052,0.080000,-1752.979214,-1.619004,0.361416,0.875684,-0.000000,0.000000,0.000000
0.920000,-1.040000,0.960469,0.080000,-1752.958605,-1.621991,0.364697,1.048030,-0.000000,0.000000,0.000000
1.000000,-1.040000,0.961301,0.080000,-1752.935669,-1.612782,0.355871,1.248238,-0.000000,0.000000,0.000000
1.080000,-1.040000,0.960469,0.080000,-1752.910470,-1.585496,0.329077,1.479698,-0.000000,0.000000,0.000000
1.160000,-1.040000,0.960052,0.080000,-1752.883182,-1.532406,0.276614,1.745443,-0.000000,0.000000,0.000000
1.240000,-1.040000,0.960052,0.080000,-1752.854150,-1.443510,0.188505,2.047666,-0.000000,0.000000,0.000000
1.320000,-1.040000,0.960469,0.080000,-1752.823946,-1.306115,0.052076,2.386960,-0.000000,0.000000,0.000000
1.400000,-1.040000,0.961301,0.080000,-1752.793454,-1.104492,-0.148394,2.761222,-0.000000,0.000000,0.000000
1.480000,-1.040000,0.960469,0.080000,-1752.763972,-0.819787,-0.431782,3.164093,-0.000000,-0.000000,0.000000
1.560000,-1.040000,0.940053,0.080000,-1752.737328,-0.430411,-0.819748,3.582911,-0.000000,-0.000000,0.000000
1.640000,-1.040000,0.860058,0.080000,-1752.716022,0.086695,-1.335498,3.996162,0.000000,-0.000000,0.000000
1.720000,-1.040000,0.780064,0.080000,-1752.703371,0.753432,-2.001197,4.370685,0.000000,-0.000000,0.000000
1.800000,-1.040000,0.700071,0.080000,-1752.703648,1.585985,-2.833433,4.659167,0.000000,-0.000000,0.000000
1.880000,-1.040000,0.620081,0.080000,-1752.722180,2.587917,-3.836308,4.799029,0.000000,-0.000000,0.000000
1.960000,-1.040000,0.540093,0.080000,-1752.765376,3.752565,-5.031876,4.708230,0.000000,-0.000000,0.000000
2.040000,-1.040000,0.460109,0.080000,-1752.840595,5.009779,-6.283568,4.328447,0.000000,-0.000000,0.000000
2.120000,-1.040000,0.380132,0.080000,-1752.955833,6.275229,-7.558239,3.554517,0.000000,-0.000000,0.000000
-2.120000,-0.960000,0.380132,0.080000,-1753.181610,5.352505,-6.628617,-2.512002,0.000000,-0.000000,-0.000000
-2.040000,-0.960000,0.460109,0.080000,-1753.044206,4.435588,-5.706875,-3.221363,0.000000,-0.000000,-0.000000
-1.960000,-0.960000,0.540093,0.080000,-1752.943155,3.483132,-4.759528,-3.633623,0.000000,-0.000000,-0.000000
-1.880000,-0.960000,0.620081,0.080000,-1752.872401,2.562077,-3.814461,-3.821637,0.000000,-0.000000,-0.000000
-1.800000,-0.960000,0.700071,0.080000,-1752.826122,1.734992,-2.986021,-3.813270,0.000000,-0.000000,-0.000000
-1.720000,-0.960000,0.780064,0.080000,-1752.799033,1.017645,-2.268327,-3.667036,0.000000,-0.000000,-0.000000
-1.640000,-0.960000,0.860058,0.080000,-1752.786546,0.417323,-1.668328,-3.429812,0.000000,-0.000000,-0.000000
-1.560000,-0.960000,0.940053,0.080000,-1752.784817,-0.070286,-1.181427,-3.139942,0.000000,-0.000000,-0.000000
-1.480000,-0.960000,1.020049,0.080000,-1752.790722,-0.456214,-0.796379,-2.826612,-0.000000,-0.000000,-0.000000
-1.400000,-0.960000,1.041201,0.080000,-1752.801788,-0.754565,-0.498939,-2.510644,-0.000000,-0.000000,-0.000000
-1.320000,-0.960000,1.040433,0.080000,-1752.816098,-0.980074,-0.274288,-2.205913,-0.000000,0.000000,-0.000000
-1.240000,-0.960000,1.040048,0.080000,-1752.832206,-1.146645,-0.108480,-1.920911,-0.000000,0.000000,-0.000000
-1.160000,-0.960000,1.040048,0.080000,-1752.849042,-1.266611,0.010831,-1.660177,-0.000000,0.000000,-0.000000
-1.080000,-0.960000,1.040433,0.080000,-1752.865835,-1.350459,0.094135,-1.425488,-0.000000,0.000000,-0.000000
-1.000000,-0.960000,1.041201,0.080000,-1752.882044,-1.406843,0.150074,-1.216781,-0.000000,0.000000,-0.000000
-0.920000,-0.960000,1.040433,0.080000,-1752.897308,-1.442745,0.185618,-1.032831,-0.000000,0.000000,-0.000000
-0.840000,-0.960000,1.040048,0.080000,-1752.911394,-1.463695,0.206282,-0.871739,-0.000000,0.000000,-0.000000
-0.760000,-0.960000,1.040048,0.080000,-1752.924168,-1.474014,0.216376,-0.731261,-0.000000,0.000000,-0.000000
-0.680000,-0.960000,1.040433,0.080000,-1752.935562,-1.477037,0.219222,-0.609021,-0.000000,0.000000,-0.000000
-0.600000,-0.960000,1.041201,0.080000,-1752.945556,-1.475311,0.217359,-0.502650,-0.000000,0.000000,-0.000000
-0.520000,-0.960000,1.040433,0.080000,-1752.954162,-1.470763,0.212705,-0.409861,-0.000000,0.000000,-0.000000
-0.440000,-0.960000,1.040048,0.080000,-1752.961407,-1.464835,0.206695,-0.328486,-0.000000,0.000000,-0.000000
-0.360000,-0.960000,1.040048,0.080000,-1752.967329,-1.458594,0.200392,-0.256492,-0.000000,0.000000,-0.000000
-0.280000,-0.960000,1.040433,0.080000,-1752.971969,-1.452817,0.194571,-0.191975,-0.000000,0.000000,-0.000000
-0.200000,-0.960000,1.041201,0.080000,-1752.975362,-1.448058,0.189780,-0.133146,-0.000000,0.000000,-0.000000
-0.120000,-0.960000,1.040433,0.080000,-1752.977540,-1.444693,0.186395,-0.078310,-0.000000,0.000000,-0.000000
-0.040000,-0.960000,1.040048,0.080000,-1752.978524,-1.442955,0.184647,-0.025843,-0.000000,0.000000,-0.000000
0.040000,-0.960000,1.040048,0.080000,-1752.978325,-1.442955,0.184647,0.025841,-0.000000,0.000000,0.000000
0.120000,-0.960000,1.040433,0.080000,-1752.976943,-1.444693,0.186395,0.078309,-0.000000,0.000000,0.000000
0.200000,-0.960000,1.041201,0.080000,-1752.974366,-1.448058,0.189780,0.133144,-0.000000,0.000000,0.000000
0.280000,-0.960000,1.040433,0.080000,-1752.970575,-1.452816,0.194570,0.191973,-0.000000,0.000000,0.000000
0.360000,-0.960000,1.040048,0.080000,-1752.965537,-1.458593,0.200391,0.256490,-0.000000,0.000000,0.000000
0.440000,-0.960000,1.040048,0.080000,-1752.959216,-1.464833,0.206693,0.328483,-0.000000,0.000000,0.000000
0.520000,-0.960000,1.040433,0.080000,-1752.951573,-1.470762,0.212703,0.409857,-0.000000,0.000000,0.000000
0.600000,-0.960000,1.041201,0.080000,-1752.942570,-1.475310,0.217357,0.502646,-0.000000,0.000000,0.000000
0.680000,-0.960000,1.040433,0.080000,-1752.932177,-1.477035,0.219221,0.609016,-0.000000,0.000000,0.000000
0.760000,-0.960000,1.040048,0.080000,-1752.920385,-1.474012,0.216374,0.731254,-0.000000,0.000000,0.000000
0.840000,-0.960000,1.040048,0.080000,-1752.907213,-1.463693,0.206280,0.871732,-0.000000,0.000000,0.000000
0.920000,-0.960000,1.040433,0.080000,-1752.892728,-1.442743,0.185616,1.032822,-0.000000,0.000000,0.000000
1.000000,-0.960000,1.041201,0.080000,-1752.877067,-1.406842,0.150073,1.216771,-0.000000,0.000000,0.000000
1.080000,-0.960000,1.040433,0.080000,-1752.860459,-1.350458,0.094134,1.425477,-0.000000,0.000000,0.000000
1.160000,-0.960000,1.040048,0.080000,-1752.843268,-1.266610,0.010831,1.660163,-0.000000,0.000000,0.000000
1.240000,-0.960000,1.040048,0.080000,-1752.826034,-1.146646,-0.108480,1.920895,-0.000000,0.000000,0.000000
1.320000,-0.960000,1.040433,0.080000,-1752.809528,-0.980076,-0.274286,2.205895,-0.000000,0.000000,0.000000
1.400000,-0.960000,1.041201,0.080000,-1752.794819,-0.754569,-0.498935,2.510624,-0.000000,-0.000000,0.000000
1.480000,-0.960000,1.020049,0.080000,-1752.783356,-0.456220,-0.796373,2.826589,-0.000000,-0.000000,0.000000
1.560000,-0.960000,0.940053,0.080000,-1752.777052,-0.070295,-1.181418,3.139915,0.000000,-0.000000,0.000000
1.640000,-0.960000,0.860058,0.080000,-1752.778383,0.417310,-1.668315,3.429784,0.000000,-0.000000,0.000000
1.720000,-0.960000,0.780064,0.080000,-1752.790472,1.017628,-2.268310,3.667005,0.000000,-0.000000,0.000000
1.800000,-0.960000,0.700071,0.080000,-1752.817162,1.734969,-2.985998,3.813238,0.000000,-0.000000,0.000000
1.880000,-0.960000,0.620081,0.080000,-1752.863043,2.562047,-3.814432,3.821604,0.000000,-0.000000,0.000000
1.960000,-0.960000,0.540093,0.080000,-1752.933398,3.483096,-4.759491,3.633591,0.000000,-0.000000,0.000000
2.040000,-0.960000,0.460109,0.080000,-1753.034050,4.435543,-5.706830,3.221334,0.000000,-0.000000,0.000000
2.120000,-0.960000,0.380132,0.080000,-1753.171055,5.352453,-6.628565,2.511978,0.000000,-0.000000,0.000000
-2.120000,-0.880000,0.381182,0.080000,-1753.362565,4.560588,-5.835014,-1.774435,0.000000,-0.000000,-0.000000
-2.040000,-0.880000,0.460977,0.080000,-1753.209323,3.892995,-5.161993,-2.399886,0.000000,-0.000000,-0.000000
-1.960000,-0.880000,0.540833,0.080000,-1753.088974,3.171907,-4.445435,-2.802869,0.000000,-0.000000,-0.000000
-1.880000,-0.880000,0.620725,0.080000,-1752.996931,2.447207,-3.702233,-3.034512,0.000000,-0.000000,-0.000000
-1.800000,-0.880000,0.700643,0.080000,-1752.928615,1.771367,-3.024969,-3.104204,0.000000,-0.000000,-0.000000
-1.720000,-0.880000,0.780577,0.080000,-1752.879707,1.162921,-2.415859,-3.052869,0.000000,-0.000000,-0.000000
-1.640000,-0.880000,0.860523,0.080000,-1752.846318,0.634147,-1.886983,-2.914528,0.000000,-0.000000,-0.000000
-1.560000,-0.880000,0.940479,0.080000,-1752.825065,0.187676,-1.440784,-2.719005,0.000000,-0.000000,-0.000000
-1.480000,-0.880000,1.020441,0.080000,-1752.813090,-0.180296,-1.073300,-2.490596,0.000000,-0.000000,-0.000000
-1.400000,-0.880000,1.100409,0.080000,-1752.808035,-0.477324,-0.776857,-2.247926,-0.000000,-0.000000,-0.000000
-1.320000,-0.880000,1.120402,0.080000,-1752.807996,-0.712698,-0.542088,-2.004476,-0.000000,-0.000000,-0.000000
-1.240000,-0.880000,1.120045,0.080000,-1752.811463,-0.896072,-0.359288,-1.769425,-0.000000,0.000000,-0.000000
-1.160000,-0.880000,1.120045,0.080000,-1752.817261,-1.036624,-0.219254,-1.548558,-0.000000,0.000000,-0.000000
-1.080000,-0.880000,1.120402,0.080000,-1752.824487,-1.142604,-0.113726,-1.345105,-0.000000,0.000000,-0.000000
-1.000000,-0.880000,1.121116,0.080000,-1752.832460,-1.221145,-0.035568,-1.160453,-0.000000,0.000000,-0.000000
-0.920000,-0.880000,1.120402,0.080000,-1752.840676,-1.278249,0.021216,-0.994715,-0.000000,0.000000,-0.000000
-0.840000,-0.880000,1.120045,0.080000,-1752.848768,-1.318853,0.061557,-0.847159,-0.000000,0.000000,-0.000000
-0.760000,-0.880000,1.120045,0.080000,-1752.856475,-1.346957,0.089447,-0.716523,-0.000000,0.000000,-0.000000
-0.680000,-0.880000,1.120402,0.080000,-1752.863616,-1.365754,0.108072,-0.601244,-0.000000,0.000000,-0.000000
-0.600000,-0.880000,1.121116,0.080000,-1752.870071,-1.377766,0.119946,-0.499608,-0.000000,0.000000,-0.000000
-0.520000,-0.880000,1.120402,0.080000,-1752.875761,-1.384961,0.127032,-0.409851,-0.000000,0.000000,-0.000000
-0.440000,-0.880000,1.120045,0.080000,-1752.880640,-1.388861,0.130846,-0.330220,-0.000000,0.000000,-0.000000
-0.360000,-0.880000,1.120045,0.080000,-1752.884684,-1.390626,0.132546,-0.259009,-0.000000,0.000000,-0.000000
-0.280000,-0.880000,1.120402,0.080000,-1752.887880,-1.391126,0.132997,-0.194572,-0.000000,0.000000,-0.000000
-0.200000,-0.880000,1.121116,0.080000,-1752.890226,-1.390997,0.132833,-0.135325,-0.000000,0.000000,-0.000000
-0.120000,-0.880000,1.120402,0.080000,-1752.891721,-1.390680,0.132494,-0.079743,-0.000000,0.000000,-0.000000
-0.040000,-0.880000,1.120045,0.080000,-1752.892369,-1.390454,0.132258,-0.026340,-0.000000,0.000000,-0.000000
0.040000,-0.880000,1.120045,0.080000,-1752.892170,-1.390454,0.132258,0.026338,-0.000000,0.000000,0.000000
0.120000,-0.880000,1.120402,0.080000,-1752.891124,-1.390680,0.132494,0.079741,-0.000000,0.000000,0.000000
0.200000,-0.880000,1.121116,0.080000,-1752.889230,-1.390997,0.132833,0.135323,-0.000000,0.000000,0.000000
0.280000,-0.880000,1.120402,0.080000,-1752.886486,-1.391126,0.132997,0.194569,-0.000000,0.000000,0.000000
0.360000,-0.880000,1.120045,0.080000,-1752.882892,-1.390625,0.132545,0.259006,-0.000000,0.000000,0.000000
0.440000,-0.880000,1.120045,0.080000,-1752.878450,-1.388860,0.130846,0.330217,-0.000000,0.000000,0.000000
0.520000,-0.880000,1.120402,0.080000,-1752.873172,-1.384960,0.127031,0.409847,-0.000000,0.000000,0.000000
0.600000,-0.880000,1.121116,0.080000,-1752.867084,-1.377765,0.119945,0.499603,-0.000000,0.000000,0.000000
0.680000,-0.880000,1.120402,0.080000,-1752.860231,-1.365753,0.108071,0.601238,-0.000000,0.000000,0.000000
0.760000,-0.880000,1.120045,0.080000,-1752.852692,-1.346956,0.089446,0.716516,-0.000000,0.000000,0.000000
0.840000,-0.880000,1.120045,0.080000,-1752.844586,-1.318852,0.061556,0.847151,-0.000000,0.000000,0.000000
0.920000,-0.880000,1.120402,0.080000,-1752.836096,-1.278248,0.021216,0.994707,-0.000000,0.000000,0.000000
1.000000,-0.880000,1.121116,0.080000,-1752.827482,-1.221145,-0.035567,1.160443,-0.000000,0.000000,0.000000
1.080000,-0.880000,1.120402,0.080000,-1752.819111,-1.142604,-0.113725,1.345093,-0.000000,0.000000,0.000000
1.160000,-0.880000,1.120045,0.080000,-1752.811487,-1.036625,-0.219252,1.548545,-0.000000,0.000000,0.000000
1.240000,-0.880000,1.120045,0.080000,-1752.805291,-0.896074,-0.359285,1.769411,-0.000000,0.000000,0.000000
1.320000,-0.880000,1.120402,0.080000,-1752.801425,-0.712702,-0.542084,2.004460,-0.000000,-0.000000,0.000000
1.400000,-0.880000,1.100409,0.080000,-1752.801066,-0.477330,-0.776851,2.247908,-0.000000,-0.000000,0.000000
1.480000,-0.880000,1.020441,0.080000,-1752.805723,-0.180304,-1.073291,2.490575,0.000000,-0.000000,0.000000
1.560000,-0.880000,0.940479,0.080000,-1752.817300,0.187665,-1.440773,2.718982,0.000000,-0.000000,0.000000
1.640000,-0.880000,0.860523,0.080000,-1752.838154,0.634132,-1.886968,2.914504,0.000000,-0.000000,0.000000
1.720000,-0.880000,0.780577,0.080000,-1752.871144,1.162902,-2.415840,3.052843,0.000000,-0.000000,0.000000
1.800000,-0.880000,0.700643,0.080000,-1752.919653,1.771343,-3.024946,3.104178,0.000000,-0.000000,0.000000
1.880000,-0.880000,0.620725,0.080000,-1752.987571,2.447178,-3.702204,3.034485,0.000000,-0.000000,0.000000
1.960000,-0.880000,0.540833,0.080000,-1753.079215,3.171872,-4.445400,2.802844,0.000000,-0.000000,0.000000
2.040000,-0.880000,0.460977,0.080000,-1753.199164,3.892955,-5.161952,2.399863,0.000000,-0.000000,0.000000
2.120000,-0.880000,0.381182,0.080000,-1753.352007,4.560542,-5.834968,1.774417,0.000000,-0.000000,0.000000
-2.120000,-0.800000,0.383275,0.080000,-1753.514310,3.891272,-5.164018,-1.252587,0.000000,-0.000000,-0.000000
-2.040000,-0.800000,0.462709,0.080000,-1753.349538,3.403530,-4.670550,-1.789312,0.000000,-0.000000,-0.000000
-1.960000,-0.800000,0.542310,0.080000,-1753.214538,2.856824,-4.127771,-2.161624,0.000000,-0.000000,-0.000000
-1.880000,-0.800000,0.622013,0.080000,-1753.105832,2.287525,-3.544264,-2.404227,0.000000,-0.000000,-0.000000
-1.800000,-0.800000,0.701783,0.080000,-1753.019821,1.738188,-2.993597,-2.515925,0.000000,-0.000000,-0.000000
-1.720000,-0.800000,0.781601,0.080000,-1752.952996,1.226930,-2.481561,-2.524972,0.000000,-0.000000,-0.000000
-1.640000,-0.800000,0.861452,0.080000,-1752.902091,0.767616,-2.021915,-2.455488,0.000000,-0.000000,-0.000000
-1.560000,-0.800000,0.941329,0.080000,-1752.864169,0.366539,-1.620833,-2.330002,0.000000,-0.000000,-0.000000
-1.480000,-0.800000,1.021225,0.080000,-1752.836662,0.024410,-1.278916,-2.167988,0.000000,-0.000000,-0.000000
-1.400000,-0.800000,1.101136,0.080000,-1752.817381,-0.261782,-0.993063,-1.985280,0.000000,-0.000000,-0.000000
-1.320000,-0.800000,1.181059,0.080000,-1752.804492,-0.497230,-0.758012,-1.794087,-0.000000,-0.000000,-0.000000
-1.240000,-0.800000,1.200042,0.080000,-1752.796486,-0.688159,-0.567493,-1.603343,-0.000000,-0.000000,-0.000000
-1.160000,-0.800000,1.200042,0.080000,-1752.792139,-0.841021,-0.415023,-1.419229,-0.000000,-0.000000,-0.000000
-1.080000,-0.800000,1.200375,0.080000,-1752.790471,-0.961997,-0.294406,-1.245716,-0.000000,0.000000,-0.000000
-1.000000,-0.800000,1.201041,0.080000,-1752.790706,-1.056710,-0.200011,-1.085079,-0.000000,0.000000,-0.000000
-0.920000,-0.800000,1.200375,0.080000,-1752.792237,-1.130097,-0.126898,-0.938338,-0.000000,0.000000,-0.000000
-0.840000,-0.800000,1.200042,0.080000,-1752.794591,-1.186380,-0.070848,-0.805612,-0.000000,0.000000,-0.000000
-0.760000,-0.800000,1.200042,0.080000,-1752.797409,-1.229098,-0.028326,-0.686407,-0.000000,0.000000,-0.000000
-0.680000,-0.800000,1.200375,0.080000,-1752.800416,-1.261168,0.003583,-0.579819,-0.000000,0.000000,-0.000000
-0.600000,-0.800000,1.201041,0.080000,-1752.803406,-1.284966,0.027249,-0.484691,-0.000000,0.000000,-0.000000
-0.520000,-0.800000,1.200375,0.080000,-1752.806226,-1.302397,0.044574,-0.399724,-0.000000,0.000000,-0.000000
-0.440000,-0.800000,1.200042,0.080000,-1752.808764,-1.314977,0.057068,-0.323546,-0.000000,0.000000,-0.000000
-0.360000,-0.800000,1.200042,0.080000,-1752.810940,-1.323887,0.065912,-0.254764,-0.000000,0.000000,-0.000000
-0.280000,-0.800000,1.200375,0.080000,-1752.812696,-1.330036,0.072011,-0.191988,-0.000000,0.000000,-0.000000
-0.200000,-0.800000,1.201041,0.080000,-1752.813992,-1.334099,0.076038,-0.133849,-0.000000,0.000000,-0.000000
-0.120000,-0.800000,1.200375,0.080000,-1752.814803,-1.336555,0.078471,-0.079000,-0.000000,0.000000,-0.000000
-0.040000,-0.800000,1.200042,0.080000,-1752.815112,-1.337709,0.079613,-0.026116,-0.000000,0.000000,-0.000000
0.040000,-0.800000,1.200042,0.080000,-1752.814913,-1.337709,0.079613,0.026114,-0.000000,0.000000,0.000000
0.120000,-0.800000,1.200375,0.080000,-1752.814205,-1.336555,0.078470,0.078998,-0.000000,0.000000,0.000000
0.200000,-0.800000,1.201041,0.080000,-1752.812996,-1.334099,0.076038,0.133847,-0.000000,0.000000,0.000000
0.280000,-0.800000,1.200375,0.080000,-1752.811302,-1.330036,0.072011,0.191986,-0.000000,0.000000,0.000000
0.360000,-0.800000,1.200042,0.080000,-1752.809148,-1.323887,0.065912,0.254761,-0.000000,0.000000,0.000000
0.440000,-0.800000,1.200042,0.080000,-1752.806574,-1.314976,0.057068,0.323543,-0.000000,0.000000,0.000000
0.520000,-0.800000,1.200375,0.080000,-1752.803637,-1.302397,0.044574,0.399720,-0.000000,0.000000,0.000000
0.600000,-0.800000,1.201041,0.080000,-1752.800419,-1.284966,0.027249,0.484687,-0.000000,0.000000,0.000000
0.680000,-0.800000,1.200375,0.080000,-1752.797031,-1.261168,0.003583,0.579814,-0.000000,0.000000,0.000000
0.760000,-0.800000,1.200042,0.080000,-1752.793626,-1.229098,-0.028326,0.686401,-0.000000,0.000000,0.000000
0.840000,-0.800000,1.200042,0.080000,-1752.790410,-1.186380,-0.070848,0.805606,-0.000000,0.000000,0.000000
0.920000,-0.800000,1.200375,0.080000,-1752.787657,-1.130098,-0.126897,0.938330,-0.000000,0.000000,0.000000
1.000000,-0.800000,1.201041,0.080000,-1752.785728,-1.056712,-0.200009,1.085070,-0.000000,0.000000,0.000000
1.080000,-0.800000,1.200375,0.080000,-1752.785094,-0.961999,-0.294404,1.245706,-0.000000,0.000000,0.000000
1.160000,-0.800000,1.200042,0.080000,-1752.786364,-0.841024,-0.415020,1.419217,-0.000000,-0.000000,0.000000
1.240000,-0.800000,1.200042,0.080000,-1752.790313,-0.688163,-0.567489,1.603330,-0.000000,-0.000000,0.000000
1.320000,-0.800000,1.181059,0.080000,-1752.797920,-0.497236,-0.758006,1.794071,-0.000000,-0.000000,0.000000
1.400000,-0.800000,1.101136,0.080000,-1752.810411,-0.261789,-0.993055,1.985263,0.000000,-0.000000,0.000000
1.480000,-0.800000,1.021225,0.080000,-1752.829294,0.024400,-1.278906,2.167970,0.000000,-0.000000,0.000000
1.560000,-0.800000,0.941329,0.080000,-1752.856402,0.366526,-1.620820,2.329982,0.000000,-0.000000,0.000000
1.640000,-0.800000,0.861452,0.080000,-1752.893926,0.767600,-2.021899,2.455467,0.000000,-0.000000,0.000000
1.720000,-0.800000,0.781601,0.080000,-1752.944432,1.226910,-2.481542,2.524950,0.000000,-0.000000,0.000000
1.800000,-0.800000,0.701783,0.080000,-1753.010858,1.738164,-2.993574,2.515903,0.000000,-0.000000,0.000000
1.880000,-0.800000,0.622013,0.080000,-1753.096470,2.287497,-3.544236,2.404205,0.000000,-0.000000,0.000000
1.960000,-0.800000,0.542310,0.080000,-1753.204777,2.856791,-4.127738,2.161604,0.000000,-0.000000,0.000000
2.040000,-0.800000,0.462709,0.080000,-1753.339377,3.403492,-4.670512,1.789295,0.000000,-0.000000,0.000000
2.120000,-0.800000,0.383275,0.080000,-1753.503751,3.891230,-5.163976,1.252573,0.000000,-0.000000,0.000000
-2.120000,-0.720000,0.381182,0.080000,-1753.641130,3.330689,-4.598478,-0.881374,0.000000,-0.000000,-0.000000
-2.040000,-0.720000,0.460977,0.080000,-1753.467964,2.974619,-4.239978,-1.334193,0.000000,-0.000000,-0.000000
-1.960000,-0.720000,0.540833,0.080000,-1753.321838,2.558916,-3.827654,-1.666167,0.000000,-0.000000,-0.000000
-1.880000,-0.720000,0.620725,0.080000,-1753.200104,2.111200,-3.369028,-1.900501,0.000000,-0.000000,-0.000000
-1.800000,-0.720000,0.700643,0.080000,-1753.099931,1.665368,-2.922026,-2.030438,0.000000,-0.000000,-0.000000
-1.720000,-0.720000,0.780577,0.080000,-1753.018471,1.237736,-2.493613,-2.075320,0.000000,-0.000000,-0.000000
-1.640000,-0.720000,0.860523,0.080000,-1752.952995,0.841929,-2.097365,-2.051928,0.000000,-0.000000,-0.000000
-1.560000,-0.720000,0.940479,0.080000,-1752.900970,0.485848,-1.741115,-1.976916,0.000000,-0.000000,-0.000000
-1.480000,-0.720000,1.020441,0.080000,-1752.860119,0.172828,-1.428122,-1.865469,0.000000,-0.000000,-0.000000
-1.400000,-0.720000,1.100409,0.080000,-1752.828439,-0.097142,-1.158311,-1.730580,0.000000,-0.000000,-0.000000
-1.320000,-0.720000,1.180381,0.080000,-1752.804202,-0.326312,-0.929377,-1.582794,0.000000,-0.000000,-0.000000
-1.240000,-0.720000,1.260357,0.080000,-1752.785939,-0.518260,-0.737703,-1.430272,-0.000000,-0.000000,-0.000000
-1.160000,-0.720000,1.280039,0.080000,-1752.772422,-0.677208,-0.579038,-1.279025,-0.000000,-0.000000,-0.000000
-1.080000,-0.720000,1.280352,0.080000,-1752.762631,-0.807538,-0.448981,-1.133250,-0.000000,-0.000000,-0.000000
-1.000000,-0.720000,1.280976,0.080000,-1752.755731,-0.913482,-0.343290,-0.995668,-0.000000,0.000000,-0.000000
-0.920000,-0.720000,1.280352,0.080000,-1752.751042,-0.998937,-0.258063,-0.867847,-0.000000,0.000000,-0.000000
-0.840000,-0.720000,1.280039,0.080000,-1752.748017,-1.067371,-0.189828,-0.750484,-0.000000,0.000000,-0.000000
-0.760000,-0.720000,1.280039,0.080000,-1752.746218,-1.121797,-0.135573,-0.643637,-0.000000,0.000000,-0.000000
-0.680000,-0.720000,1.280352,0.080000,-1752.745294,-1.164780,-0.092736,-0.546913,-0.000000,0.000000,-0.000000
-0.600000,-0.720000,1.280976,0.080000,-1752.744970,-1.198469,-0.059170,-0.459605,-0.000000,0.000000,-0.000000
-0.520000,-0.720000,1.280352,0.080000,-1752.745030,-1.224634,-0.033105,-0.380806,-0.000000,0.000000,-0.000000
-0.440000,-0.720000,1.280039,0.080000,-1752.745307,-1.244719,-0.013102,-0.309479,-0.000000,0.000000,-0.000000
-0.360000,-0.720000,1.280039,0.080000,-1752.745671,-1.259874,0.001988,-0.244517,-0.000000,0.000000,-0.000000
-0.280000,-0.720000,1.280352,0.080000,-1752.746025,-1.271001,0.013066,-0.184772,-0.000000,0.000000,-0.000000
-0.200000,-0.720000,1.280976,0.080000,-1752.746297,-1.278783,0.020812,-0.129087,-0.000000,0.000000,-0.000000
-0.120000,-0.720000,1.280352,0.080000,-1752.746439,-1.283709,0.025714,-0.076296,-0.000000,0.000000,-0.000000
-0.040000,-0.720000,1.280039,0.080000,-1752.746418,-1.286095,0.028089,-0.025240,-0.000000,0.000000,-0.000000
0.040000,-0.720000,1.280039,0.080000,-1752.746219,-1.286095,0.028089,0.025238,-0.000000,0.000000,0.000000
0.120000,-0.720000,1.280352,0.080000,-1752.745842,-1.283709,0.025714,0.076294,-0.000000,0.000000,0.000000
0.200000,-0.720000,1.280976,0.080000,-1752.745302,-1.278783,0.020812,0.129084,-0.000000,0.000000,0.000000
0.280000,-0.720000,1.280352,0.080000,-1752.744631,-1.271002,0.013066,0.184770,-0.000000,0.000000,0.000000
0.360000,-0.720000,1.280039,0.080000,-1752.743878,-1.259874,0.001989,0.244514,-0.000000,0.000000,0.000000
0.440000,-0.720000,1.280039,0.080000,-1752.743116,-1.244719,-0.013102,0.309476,-0.000000,0.000000,0.000000
0.520000,-0.720000,1.280352,0.080000,-1752.742441,-1.224635,-0.033104,0.380802,-0.000000,0.000000,0.000000
0.600000,-0.720000,1.280976,0.080000,-1752.741983,-1.198469,-0.059169,0.459601,-0.000000,0.000000,0.000000
0.680000,-0.720000,1.280352,0.080000,-1752.741908,-1.164781,-0.092735,0.546908,-0.000000,0.000000,0.000000
0.760000,-0.720000,1.280039,0.080000,-1752.742434,-1.121798,-0.135572,0.643632,-0.000000,0.000000,0.000000
0.840000,-0.720000,1.280039,0.080000,-1752.743835,-1.067372,-0.189827,0.750477,-0.000000,0.000000,0.000000
0.920000,-0.720000,1.280352,0.080000,-1752.746462,-0.998939,-0.258061,0.867839,-0.000000,0.000000,0.000000
1.000000,-0.720000,1.280976,0.080000,-1752.750752,-0.913485,-0.343288,0.995660,-0.000000,0.000000,0.000000
1.080000,-0.720000,1.280352,0.080000,-1752.757254,-0.807542,-0.448978,1.133241,-0.000000,-0.000000,0.000000
1.160000,-0.720000,1.280039,0.080000,-1752.766647,-0.677213,-0.579033,1.279014,-0.000000,-0.000000,0.000000
1.240000,-0.720000,1.260357,0.080000,-1752.779766,-0.518266,-0.737697,1.430259,-0.000000,-0.000000,0.000000
1.320000,-0.720000,1.180381,0.080000,-1752.797630,-0.326320,-0.929370,1.582781,0.000000,-0.000000,0.000000
1.400000,-0.720000,1.100409,0.080000,-1752.821469,-0.097151,-1.158302,1.730565,0.000000,-0.000000,0.000000
1.480000,-0.720000,1.020441,0.080000,-1752.852750,0.172817,-1.428111,1.865453,0.000000,-0.000000,0.000000
1.560000,-0.720000,0.940479,0.080000,-1752.893202,0.485834,-1.741101,1.976899,0.000000,-0.000000,0.000000
1.640000,-0.720000,0.860523,0.080000,-1752.944828,0.841912,-2.097349,2.051910,0.000000,-0.000000,0.000000
1.720000,-0.720000,0.780577,0.080000,-1753.009906,1.237716,-2.493593,2.075301,0.000000,-0.000000,0.000000
1.800000,-0.720000,0.700643,0.080000,-1753.090966,1.665345,-2.922002,2.030420,0.000000,-0.000000,0.000000
1.880000,-0.720000,0.620725,0.080000,-1753.190741,2.111172,-3.369001,1.900484,0.000000,-0.000000,0.000000
1.960000,-0.720000,0.540833,0.080000,-1753.312076,2.558885,-3.827623,1.666151,0.000000,-0.000000,0.000000
2.040000,-0.720000,0.460977,0.080000,-1753.457803,2.974584,-4.239943,1.334180,0.000000,-0.000000,0.000000
2.120000,-0.720000,0.381182,0.080000,-1753.630568,3.330651,-4.598440,0.881363,0.000000,-0.000000,0.000000
-2.120000,-0.640000,0.380132,0.080000,-1753.746602,2.866147,-4.128391,-0.614718,0.000000,-0.000000,-0.000000
-2.040000,-0.640000,0.460109,0.080000,-1753.567338,2.606484,-3.870491,-0.993710,0.000000,-0.000000,-0.000000
-1.960000,-0.640000,0.540093,0.080000,-1753.412766,2.289042,-3.555950,-1.282197,0.000000,-0.000000,-0.000000
-1.880000,-0.640000,0.620081,0.080000,-1753.280864,1.935706,-3.194215,-1.497466,0.000000,-0.000000,-0.000000
-1.800000,-0.640000,0.700071,0.080000,-1753.169396,1.573253,-2.830761,-1.630316,0.000000,-0.000000,-0.000000
-1.720000,-0.640000,0.780064,0.080000,-1753.076049,1.215763,-2.472542,-1.693909,0.000000,-0.000000,-0.000000
-1.640000,-0.640000,0.860058,0.080000,-1752.998539,0.875759,-2.132063,-1.699735,0.000000,-0.000000,-0.000000
-1.560000,-0.640000,0.940053,0.080000,-1752.934692,0.561548,-1.817591,-1.659895,0.000000,-0.000000,-0.000000
-1.480000,-0.640000,1.020049,0.080000,-1752.882501,0.277835,-1.533787,-1.585984,0.000000,-0.000000,-0.000000
-1.400000,-0.640000,1.100045,0.080000,-1752.840149,0.026485,-1.282470,-1.488381,0.000000,-0.000000,-0.000000
-1.320000,-0.640000,1.180042,0.080000,-1752.806027,-0.192716,-1.063385,-1.375888,0.000000,-0.000000,-0.000000
-1.240000,-0.640000,1.260040,0.080000,-1752.778734,-0.381384,-0.874883,-1.255627,-0.000000,-0.000000,-0.000000
-1.160000,-0.640000,1.340037,0.080000,-1752.757060,-0.541983,-0.714475,-1.133110,-0.000000,-0.000000,-0.000000
-1.080000,-0.640000,1.360331,0.080000,-1752.739976,-0.677407,-0.579250,-1.012406,-0.000000,-0.000000,-0.000000
-1.000000,-0.640000,1.360919,0.080000,-1752.726616,-0.790672,-0.466178,-0.896356,-0.000000,-0.000000,-0.000000
-0.920000,-0.640000,1.360331,0.080000,-1752.716253,-0.884721,-0.372311,-0.786797,-0.000000,0.000000,-0.000000
-0.840000,-0.640000,1.360037,0.080000,-1752.708284,-0.962296,-0.294901,-0.684768,-0.000000,0.000000,-0.000000
-0.760000,-0.640000,1.360037,0.080000,-1752.702213,-1.025872,-0.231472,-0.590698,-0.000000,0.000000,-0.000000
-0.680000,-0.640000,1.360331,0.080000,-1752.697632,-1.077627,-0.179845,-0.504560,-0.000000,0.000000,-0.000000
-0.600000,-0.640000,1.360919,0.080000,-1752.694209,-1.119441,-0.138140,-0.425993,-0.000000,0.000000,-0.000000
-0.520000,-0.640000,1.360331,0.080000,-1752.691676,-1.152907,-0.104767,-0.354406,-0.000000,0.000000,-0.000000
-0.440000,-0.640000,1.360037,0.080000,-1752.689819,-1.179351,-0.078399,-0.289044,-0.000000,0.000000,-0.000000
-0.360000,-0.640000,1.360037,0.080000,-1752.688467,-1.199855,-0.057956,-0.229050,-0.000000,0.000000,-0.000000
-0.280000,-0.640000,1.360331,0.080000,-1752.687490,-1.215283,-0.042576,-0.173499,-0.000000,0.000000,-0.000000
-0.200000,-0.640000,1.360919,0.080000,-1752.686789,-1.226297,-0.031597,-0.121430,-0.000000,0.000000,-0.000000
-0.120000,-0.640000,1.360331,0.080000,-1752.686293,-1.233380,-0.024537,-0.071858,-0.000000,0.000000,-0.000000
-0.040000,-0.640000,1.360037,0.080000,-1752.685956,-1.236844,-0.021085,-0.023786,-0.000000,0.000000,-0.000000
0.040000,-0.640000,1.360037,0.080000,-1752.685757,-1.236844,-0.021084,0.023784,-0.000000,0.000000,0.000000
0.120000,-0.640000,1.360331,0.080000,-1752.685696,-1.233380,-0.024537,0.071855,-0.000000,0.000000,0.000000
0.200000,-0.640000,1.360919,0.080000,-1752.685794,-1.226298,-0.031597,0.121428,-0.000000,0.000000,0.000000
0.280000,-0.640000,1.360331,0.080000,-1752.686096,-1.215283,-0.042576,0.173497,-0.000000,0.000000,0.000000
0.360000,-0.640000,1.360037,0.080000,-1752.686675,-1.199856,-0.057956,0.229047,-0.000000,0.000000,0.000000
0.440000,-0.640000,1.360037,0.080000,-1752.687628,-1.179352,-0.078399,0.289041,-0.000000,0.000000,0.000000
0.520000,-0.640000,1.360331,0.080000,-1752.689087,-1.152908,-0.104766,0.354402,-0.000000,0.000000,0.000000
0.600000,-0.640000,1.360919,0.080000,-1752.691222,-1.119442,-0.138139,0.425989,-0.000000,0.000000,0.000000
0.680000,-0.640000,1.360331,0.080000,-1752.694247,-1.077629,-0.179843,0.504555,-0.000000,0.000000,0.000000
0.760000,-0.640000,1.360037,0.080000,-1752.698430,-1.025874,-0.231470,0.590693,-0.000000,0.000000,0.000000
0.840000,-0.640000,1.360037,0.080000,-1752.704102,-0.962299,-0.294899,0.684762,-0.000000,0.000000,0.000000
0.920000,-0.640000,1.360331,0.080000,-1752.711672,-0.884724,-0.372308,0.786790,-0.000000,0.000000,0.000000
1.000000,-0.640000,1.360919,0.080000,-1752.721637,-0.790676,-0.466175,0.896349,-0.000000,-0.000000,0.000000
1.080000,-0.640000,1.360331,0.080000,-1752.734599,-0.677412,-0.579245,1.012398,-0.000000,-0.000000,0.000000
1.160000,-0.640000,1.340037,0.080000,-1752.751284,-0.541989,-0.714469,1.133100,-0.000000,-0.000000,0.000000
1.240000,-0.640000,1.260040,0.080000,-1752.772560,-0.381391,-0.874876,1.255616,-0.000000,-0.000000,0.000000
1.320000,-0.640000,1.180042,0.080000,-1752.799455,-0.192724,-1.063377,1.375876,0.000000,-0.000000,0.000000
1.400000,-0.640000,1.100045,0.080000,-1752.833177,0.026475,-1.282460,1.488368,0.000000,-0.000000,0.000000
1.480000,-0.640000,1.020049,0.080000,-1752.875131,0.277822,-1.533775,1.585971,0.000000,-0.000000,0.000000
1.560000,-0.640000,0.940053,0.080000,-1752.926924,0.561533,-1.817577,1.659881,0.000000,-0.000000,0.000000
1.640000,-0.640000,0.860058,0.080000,-1752.990371,0.875742,-2.132045,1.699720,0.000000,-0.000000,0.000000
1.720000,-0.640000,0.780064,0.080000,-1753.067482,1.215743,-2.472522,1.693894,0.000000,-0.000000,0.000000
1.800000,-0.640000,0.700071,0.080000,-1753.160431,1.573230,-2.830738,1.630301,0.000000,-0.000000,0.000000
1.880000,-0.640000,0.620081,0.080000,-1753.271499,1.935680,-3.194189,1.497452,0.000000,-0.000000,0.000000
1.960000,-0.640000,0.540093,0.080000,-1753.403002,2.289012,-3.555920,1.282184,0.000000,-0.000000,0.000000
2.040000,-0.640000,0.460109,0.080000,-1753.557175,2.606452,-3.870459,0.993699,0.000000,-0.000000,0.000000
2.120000,-0.640000,0.380132,0.080000,-1753.736039,2.866113,-4.128356,0.614710,0.000000,-0.000000,0.000000
-2.120000,-0.560000,0.380132,0.080000,-1753.833692,2.486568,-3.747272,-0.423050,0.000000,-0.000000,-0.000000
-2.040000,-0.560000,0.460109,0.080000,-1753.650010,2.295948,-3.558903,-0.737865,0.000000,-0.000000,-0.000000
-1.960000,-0.560000,0.540093,0.080000,-1753.489039,2.052097,-3.317520,-0.983128,0.000000,-0.000000,-0.000000
-1.880000,-0.560000,0.620081,0.080000,-1753.349227,1.771552,-3.030476,-1.173700,0.000000,-0.000000,-0.000000
-1.800000,-0.560000,0.700071,0.080000,-1753.228796,1.475422,-2.733503,-1.299806,0.000000,-0.000000,-0.000000
-1.720000,-0.560000,0.780064,0.080000,-1753.125858,1.175601,-2.433026,-1.370363,0.000000,-0.000000,-0.000000
-1.640000,-0.560000,0.860058,0.080000,-1753.038496,0.883200,-2.140154,-1.393119,0.000000,-0.000000,-0.000000
-1.560000,-0.560000,0.940053,0.080000,-1752.964843,0.606281,-1.862933,-1.376742,0.000000,-0.000000,-0.000000
-1.480000,-0.560000,1.020049,0.080000,-1752.903128,0.350138,-1.606627,-1.329929,0.000000,-0.000000,-0.000000
-1.400000,-0.560000,1.100045,0.080000,-1752.851712,0.117736,-1.374172,-1.260794,0.000000,-0.000000,-0.000000
-1.320000,-0.560000,1.180042,0.080000,-1752.809108,-0.089788,-1.166676,-1.176483,0.000000,-0.000000,-0.000000
-1.240000,-0.560000,1.260040,0.080000,-1752.773989,-0.272642,-0.983905,-1.083002,0.000000,-0.000000,-0.000000
-1.160000,-0.560000,1.340037,0.080000,-1752.745184,-0.431953,-0.824712,-0.985182,-0.000000,-0.000000,-0.000000
-1.080000,-0.560000,1.420035,0.080000,-1752.721673,-0.569419,-0.687380,-0.886745,-0.000000,-0.000000,-0.000000
-1.000000,-0.560000,1.440868,0.080000,-1752.702575,-0.687044,-0.569898,-0.790427,-0.000000,-0.000000,-0.000000
-0.920000,-0.560000,1.440312,0.080000,-1752.687138,-0.786935,-0.470147,-0.698119,-0.000000,-0.000000,-0.000000
-0.840000,-0.560000,1.440035,0.080000,-1752.674720,-0.871172,-0.386042,-0.611020,-0.000000,-0.000000,-0.000000
-0.760000,-0.560000,1.440035,0.080000,-1752.664783,-0.941719,-0.315617,-0.529775,-0.000000,0.000000,-0.000000
-0.680000,-0.560000,1.440312,0.080000,-1752.656875,-1.000369,-0.257077,-0.454598,-0.000000,0.000000,-0.000000
-0.600000,-0.560000,1.440868,0.080000,-1752.650619,-1.048720,-0.208822,-0.385379,-0.000000,0.000000,-0.000000
-0.520000,-0.560000,1.440312,0.080000,-1752.645706,-1.088164,-0.169461,-0.321765,-0.000000,0.000000,-0.000000
-0.440000,-0.560000,1.440035,0.080000,-1752.641883,-1.119888,-0.137806,-0.263232,-0.000000,0.000000,-0.000000
-0.360000,-0.560000,1.440035,0.080000,-1752.638947,-1.144883,-0.112869,-0.209134,-0.000000,0.000000,-0.000000
-0.280000,-0.560000,1.440312,0.080000,-1752.636737,-1.163951,-0.093846,-0.158742,-0.000000,0.000000,-0.000000
-0.200000,-0.560000,1.440868,0.080000,-1752.635132,-1.177718,-0.080111,-0.111276,-0.000000,0.000000,-0.000000
-0.120000,-0.560000,1.440312,0.080000,-1752.634043,-1.186645,-0.071206,-0.065918,-0.000000,0.000000,-0.000000
-0.040000,-0.560000,1.440035,0.080000,-1752.633413,-1.191034,-0.066828,-0.021831,-0.000000,0.000000,-0.000000
0.040000,-0.560000,1.440035,0.080000,-1752.633214,-1.191034,-0.066828,0.021830,-0.000000,0.000000,0.000000
0.120000,-0.560000,1.440312,0.080000,-1752.633446,-1.186645,-0.071206,0.065916,-0.000000,0.000000,0.000000
0.200000,-0.560000,1.440868,0.080000,-1752.634136,-1.177718,-0.080111,0.111274,-0.000000,0.000000,0.000000
0.280000,-0.560000,1.440312,0.080000,-1752.635343,-1.163951,-0.093845,0.158740,-0.000000,0.000000,0.000000
0.360000,-0.560000,1.440035,0.080000,-1752.637154,-1.144883,-0.112868,0.209131,-0.000000,0.000000,0.000000
0.440000,-0.560000,1.440035,0.080000,-1752.639692,-1.119889,-0.137805,0.263229,-0.000000,0.000000,0.000000
0.520000,-0.560000,1.440312,0.080000,-1752.643117,-1.088165,-0.169460,0.321761,-0.000000,0.000000,0.000000
0.600000,-0.560000,1.440868,0.080000,-1752.647632,-1.048721,-0.208821,0.385375,-0.000000,0.000000,0.000000
0.680000,-0.560000,1.440312,0.080000,-1752.653489,-1.000371,-0.257075,0.454594,-0.000000,0.000000,0.000000
0.760000,-0.560000,1.440035,0.080000,-1752.660999,-0.941721,-0.315615,0.529770,-0.000000,0.000000,0.000000
0.840000,-0.560000,1.440035,0.080000,-1752.670538,-0.871175,-0.386039,0.611015,-0.000000,-0.000000,0.000000
0.920000,-0.560000,1.440312,0.080000,-1752.682557,-0.786939,-0.470143,0.698113,-0.000000,-0.000000,0.000000
1.000000,-0.560000,1.440868,0.080000,-1752.697596,-0.687048,-0.569893,0.790420,-0.000000,-0.000000,0.000000
1.080000,-0.560000,1.420035,0.080000,-1752.716296,-0.569425,-0.687375,0.886738,-0.000000,-0.000000,0.000000
1.160000,-0.560000,1.340037,0.080000,-1752.739408,-0.431959,-0.824705,0.985174,-0.000000,-0.000000,0.000000
1.240000,-0.560000,1.260040,0.080000,-1752.767815,-0.272650,-0.983897,1.082993,0.000000,-0.000000,0.000000
1.320000,-0.560000,1.180042,0.080000,-1752.802535,-0.089797,-1.166667,1.176473,0.000000,-0.000000,0.000000
1.400000,-0.560000,1.100045,0.080000,-1752.844740,0.117725,-1.374161,1.260783,0.000000,-0.000000,0.000000
1.480000,-0.560000,1.020049,0.080000,-1752.895757,0.350125,-1.606614,1.329918,0.000000,-0.000000,0.000000
1.560000,-0.560000,0.940053,0.080000,-1752.957074,0.606266,-1.862918,1.376730,0.000000,-0.000000,0.000000
1.640000,-0.560000,0.860058,0.080000,-1753.030328,0.883182,-2.140137,1.393107,0.000000,-0.000000,0.000000
1.720000,-0.560000,0.780064,0.080000,-1753.117291,1.175581,-2.433006,1.370351,0.000000,-0.000000,0.000000
1.800000,-0.560000,0.700071,0.080000,-1753.219830,1.475399,-2.733480,1.299794,0.000000,-0.000000,0.000000
1.880000,-0.560000,0.620081,0.080000,-1753.339861,1.771527,-3.030451,1.173689,0.000000,-0.000000,0.000000
1.960000,-0.560000,0.540093,0.080000,-1753.479274,2.052070,-3.317492,0.983118,0.000000,-0.000000,0.000000
2.040000,-0.560000,0.460109,0.080000,-1753.639845,2.295918,-3.558873,0.737857,0.000000,-0.000000,0.000000
2.120000,-0.560000,0.380132,0.080000,-1753.823128,2.486536,-3.747240,0.423044,0.000000,-0.000000,0.000000
-2.120000,-0.480000,0.381182,0.080000,-1753.904830,2.180389,-3.443419,-0.287853,0.000000,-0.000000,-0.000000
-2.040000,-0.480000,0.460977,0.080000,-1753.717964,2.038517,-3.300673,-0.544532,0.000000,-0.000000,-0.000000
-1.960000,-0.480000,0.540833,0.080000,-1753.552169,1.849614,-3.113854,-0.748438,0.000000,-0.000000,-0.000000
-1.880000,-0.480000,0.620725,0.080000,-1753.406239,1.624797,-2.883967,-0.911746,0.000000,-0.000000,-0.000000
-1.800000,-0.480000,0.700643,0.080000,-1753.278752,1.380774,-2.639237,-1.025186,0.000000,-0.000000,-0.000000
-1.720000,-0.480000,0.780577,0.080000,-1753.168149,1.127511,-2.385393,-1.094770,0.000000,-0.000000,-0.000000
-1.640000,-0.480000,0.860523,0.080000,-1753.072813,0.874699,-2.132135,-1.125643,0.000000,-0.000000,-0.000000
-1.560000,-0.480000,0.940479,0.080000,-1752.991129,0.629856,-1.886975,-1.123924,0.000000,-0.000000,-0.000000
-1.480000,-0.480000,1.020441,0.080000,-1752.921531,0.398402,-1.655317,-1.096037,0.000000,-0.000000,-0.000000
-1.400000,-0.480000,1.100409,0.080000,-1752.862539,0.183891,-1.440698,-1.048194,0.000000,-0.000000,-0.000000
-1.320000,-0.480000,1.180381,0.080000,-1752.812781,-0.011678,-1.245094,-0.986057,0.000000,-0.000000,-0.000000
-1.240000,-0.480000,1.260357,0.080000,-1752.771007,-0.187534,-1.069260,-0.914536,0.000000,-0.000000,-0.000000
-1.160000,-0.480000,1.340336,0.080000,-1752.736089,-0.343813,-0.913040,-0.837710,0.000000,-0.000000,-0.000000
-1.080000,-0.480000,1.420317,0.080000,-1752.707028,-0.481290,-0.775648,-0.758830,-0.000000,-0.000000,-0.000000
-1.000000,-0.480000,1.500300,0.080000,-1752.682945,-0.601143,-0.655892,-0.680375,-0.000000,-0.000000,-0.000000
-0.920000,-0.480000,1.520296,0.080000,-1752.663070,-0.704782,-0.552357,-0.604143,-0.000000,-0.000000,-0.000000
-0.840000,-0.480000,1.520033,0.080000,-1752.646741,-0.793711,-0.463532,-0.531350,-0.000000,-0.000000,-0.000000
-0.760000,-0.480000,1.520033,0.080000,-1752.633389,-0.869430,-0.387911,-0.462732,-0.000000,-0.000000,-0.000000
-0.680000,-0.480000,1.520296,0.080000,-1752.622527,-0.933376,-0.324057,-0.398642,-0.000000,0.000000,-0.000000
-0.600000,-0.480000,1.520822,0.080000,-1752.613747,-0.986872,-0.270644,-0.339132,-0.000000,0.000000,-0.000000
-0.520000,-0.480000,1.520296,0.080000,-1752.606705,-1.031108,-0.226480,-0.284024,-0.000000,0.000000,-0.000000
-0.440000,-0.480000,1.520033,0.080000,-1752.601119,-1.067125,-0.190526,-0.232972,-0.000000,0.000000,-0.000000
-0.360000,-0.480000,1.520033,0.080000,-1752.596758,-1.095810,-0.161894,-0.185503,-0.000000,0.000000,-0.000000
-0.280000,-0.480000,1.520296,0.080000,-1752.593437,-1.117893,-0.139852,-0.141056,-0.000000,0.000000,-0.000000
-0.200000,-0.480000,1.520822,0.080000,-1752.591016,-1.133955,-0.123821,-0.099010,-0.000000,0.000000,-0.000000
-0.120000,-0.480000,1.520296,0.080000,-1752.589391,-1.144425,-0.113370,-0.058704,-0.000000,0.000000,-0.000000
-0.040000,-0.480000,1.520033,0.080000,-1752.588496,-1.149590,-0.108216,-0.019451,-0.000000,0.000000,-0.000000
0.040000,-0.480000,1.520033,0.080000,-1752.588296,-1.149590,-0.108216,0.019449,-0.000000,0.000000,0.000000
0.120000,-0.480000,1.520296,0.080000,-1752.588794,-1.144426,-0.113370,0.058703,-0.000000,0.000000,0.000000
0.200000,-0.480000,1.520822,0.080000,-1752.590020,-1.133955,-0.123820,0.099008,-0.000000,0.000000,0.000000
0.280000,-0.480000,1.520296,0.080000,-1752.592043,-1.117893,-0.139851,0.141054,-0.000000,0.000000,0.000000
0.360000,-0.480000,1.520033,0.080000,-1752.594965,-1.095811,-0.161893,0.185501,-0.000000,0.000000,0.000000
0.440000,-0.480000,1.520033,0.080000,-1752.598928,-1.067127,-0.190525,0.232970,-0.000000,0.000000,0.000000
0.520000,-0.480000,1.520296,0.080000,-1752.604116,-1.031110,-0.226479,0.284021,-0.000000,0.000000,0.000000
0.600000,-0.480000,1.520822,0.080000,-1752.610759,-0.986874,-0.270642,0.339128,-0.000000,0.000000,0.000000
0.680000,-0.480000,1.520296,0.080000,-1752.619141,-0.933379,-0.324054,0.398638,-0.000000,0.000000,0.000000
0.760000,-0.480000,1.520033,0.080000,-1752.629604,-0.869433,-0.387908,0.462728,-0.000000,-0.000000,0.000000
0.840000,-0.480000,1.520033,0.080000,-1752.642559,-0.793714,-0.463528,0.531345,-0.000000,-0.000000,0.000000
0.920000,-0.480000,1.520296,0.080000,-1752.658489,-0.704787,-0.552352,0.604138,-0.000000,-0.000000,0.000000
1.000000,-0.480000,1.500300,0.080000,-1752.677965,-0.601148,-0.655887,0.680370,-0.000000,-0.000000,0.000000
1.080000,-0.480000,1.420317,0.080000,-1752.701651,-0.481296,-0.775641,0.758823,-0.000000,-0.000000,0.000000
1.160000,-0.480000,1.340336,0.080000,-1752.730313,-0.343821,-0.913032,0.837703,0.000000,-0.000000,0.000000
1.240000,-0.480000,1.260357,0.080000,-1752.764832,-0.187543,-1.069251,0.914528,0.000000,-0.000000,0.000000
1.320000,-0.480000,1.180381,0.080000,-1752.806208,-0.011689,-1.245084,0.986048,0.000000,-0.000000,0.000000
1.400000,-0.480000,1.100409,0.080000,-1752.855567,0.183879,-1.440686,1.048185,0.000000,-0.000000,0.000000
1.480000,-0.480000,1.020441,0.080000,-1752.914160,0.398388,-1.655303,1.096027,0.000000,-0.000000,0.000000
1.560000,-0.480000,0.940479,0.080000,-1752.983359,0.629840,-1.886959,1.123914,0.000000,-0.000000,0.000000
1.640000,-0.480000,0.860523,0.080000,-1753.064644,0.874682,-2.132118,1.125632,0.000000,-0.000000,0.000000
1.720000,-0.480000,0.780577,0.080000,-1753.159581,1.127491,-2.385373,1.094760,0.000000,-0.000000,0.000000
1.800000,-0.480000,0.700643,0.080000,-1753.269785,1.380752,-2.639215,1.025177,0.000000,-0.000000,0.000000
1.880000,-0.480000,0.620725,0.080000,-1753.396873,1.624772,-2.883943,0.911737,0.000000,-0.000000,0.000000
1.960000,-0.480000,0.540833,0.080000,-1753.542403,1.849587,-3.113828,0.748430,0.000000,-0.000000,0.000000
2.040000,-0.480000,0.460977,0.080000,-1753.707799,2.038489,-3.300645,0.544525,0.000000,-0.000000,0.000000
2.120000,-0.480000,0.381182,0.080000,-1753.894265,2.180359,-3.443389,0.287848,0.000000,-0.000000,0.000000
-2.120000,-0.400000,0.383275,0.080000,-1753.961988,1.935812,-3.200147,-0.194611,0.000000,-0.000000,-0.000000
-2.040000,-0.400000,0.462709,0.080000,-1753.772849,1.829493,-3.091033,-0.397234,0.000000,-0.000000,-0.000000
-1.960000,-0.400000,0.542310,0.080000,-1753.603448,1.681342,-2.944660,-0.562240,0.000000,-0.000000,-0.000000
-1.880000,-0.400000,0.622013,0.080000,-1753.452838,1.498732,-2.758044,-0.697459,0.000000,-0.000000,-0.000000
-1.800000,-0.400000,0.701783,0.080000,-1753.319864,1.295031,-2.553746,-0.794722,0.000000,-0.000000,-0.000000
-1.720000,-0.400000,0.781601,0.080000,-1753.203225,1.078610,-2.336812,-0.858053,0.000000,-0.000000,-0.000000
-1.640000,-0.400000,0.861452,0.080000,-1753.101538,0.857884,-2.115671,-0.890807,0.000000,-0.000000,-0.000000
-1.560000,-0.400000,0.941329,0.080000,-1753.013393,0.639734,-1.897206,-0.897241,0.000000,-0.000000,-0.000000
-1.480000,-0.400000,1.021225,0.080000,-1752.937397,0.429467,-1.686714,-0.882008,0.000000,-0.000000,-0.000000
-1.400000,-0.400000,1.101136,0.080000,-1752.872203,0.230905,-1.488008,-0.849765,0.000000,-0.000000,-0.000000
-1.320000,-0.400000,1.181059,0.080000,-1752.816544,0.046570,-1.303596,-0.804878,0.000000,-0.000000,-0.000000
-1.240000,-0.400000,1.260992,0.080000,-1752.769238,-0.122104,-1.134898,-0.751239,0.000000,-0.000000,-0.000000
-1.160000,-0.400000,1.340933,0.080000,-1752.729208,-0.274542,-0.982475,-0.692167,0.000000,-0.000000,-0.000000
-1.080000,-0.400000,1.420880,0.080000,-1752.695477,-0.410819,-0.846242,-0.630379,-0.000000,-0.000000,-0.000000
-1.000000,-0.400000,1.500833,0.080000,-1752.667173,-0.531470,-0.725653,-0.568007,-0.000000,-0.000000,-0.000000
-0.920000,-0.400000,1.580791,0.080000,-1752.643524,-0.637339,-0.619858,-0.506652,-0.000000,-0.000000,-0.000000
-0.840000,-0.400000,1.600031,0.080000,-1752.623852,-0.729446,-0.527828,-0.447443,-0.000000,-0.000000,-0.000000
-0.760000,-0.400000,1.600031,0.080000,-1752.607567,-0.808898,-0.448455,-0.391114,-0.000000,-0.000000,-0.000000
-0.680000,-0.400000,1.600281,0.080000,-1752.594160,-0.876811,-0.380618,-0.338069,-0.000000,-0.000000,-0.000000
-0.600000,-0.400000,1.600781,0.080000,-1752.583197,-0.934261,-0.323239,-0.288455,-0.000000,0.000000,-0.000000
-0.520000,-0.400000,1.600281,0.080000,-1752.574310,-0.982248,-0.275315,-0.242210,-0.000000,0.000000,-0.000000
-0.440000,-0.400000,1.600031,0.080000,-1752.567190,-1.021671,-0.235947,-0.199116,-0.000000,0.000000,-0.000000
-0.360000,-0.400000,1.600031,0.080000,-1752.561587,-1.053314,-0.204352,-0.158840,-0.000000,0.000000,-0.000000
-0.280000,-0.400000,1.600281,0.080000,-1752.557296,-1.077833,-0.179870,-0.120962,-0.000000,0.000000,-0.000000
-0.200000,-0.400000,1.600781,0.080000,-1752.554161,-1.095760,-0.161972,-0.085002,-0.000000,0.000000,-0.000000
-0.120000,-0.400000,1.600281,0.080000,-1752.552067,-1.107490,-0.150261,-0.050436,-0.000000,0.000000,-0.000000
-0.040000,-0.400000,1.600031,0.080000,-1752.550939,-1.113289,-0.144471,-0.016718,-0.000000,0.000000,-0.000000
0.040000,-0.400000,1.600031,0.080000,-1752.550740,-1.113289,-0.144471,0.016716,-0.000000,0.000000,0.000000
0.120000,-0.400000,1.600281,0.080000,-1752.551470,-1.107490,-0.150260,0.050435,-0.000000,0.000000,0.000000
0.200000,-0.400000,1.600781,0.080000,-1752.553165,-1.095760,-0.161971,0.085000,-0.000000,0.000000,0.000000
0.280000,-0.400000,1.600281,0.080000,-1752.555902,-1.077834,-0.179869,0.120961,-0.000000,0.000000,0.000000
0.360000,-0.400000,1.600031,0.080000,-1752.559794,-1.053315,-0.204351,0.158838,-0.000000,0.000000,0.000000
0.440000,-0.400000,1.600031,0.080000,-1752.564999,-1.021673,-0.235946,0.199114,-0.000000,0.000000,0.000000
0.520000,-0.400000,1.600281,0.080000,-1752.571721,-0.982250,-0.275313,0.242207,-0.000000,0.000000,0.000000
0.600000,-0.400000,1.600781,0.080000,-1752.580210,-0.934264,-0.323236,0.288452,-0.000000,0.000000,0.000000
0.680000,-0.400000,1.600281,0.080000,-1752.590774,-0.876814,-0.380615,0.338066,-0.000000,-0.000000,0.000000
0.760000,-0.400000,1.600031,0.080000,-1752.603783,-0.808902,-0.448452,0.391110,-0.000000,-0.000000,0.000000
0.840000,-0.400000,1.600031,0.080000,-1752.619669,-0.729451,-0.527824,0.447440,-0.000000,-0.000000,0.000000
0.920000,-0.400000,1.580791,0.080000,-1752.638943,-0.637344,-0.619853,0.506648,-0.000000,-0.000000,0.000000
1.000000,-0.400000,1.500833,0.080000,-1752.662193,-0.531476,-0.725647,0.568003,-0.000000,-0.000000,0.000000
1.080000,-0.400000,1.420880,0.080000,-1752.690099,-0.410825,-0.846235,0.630373,-0.000000,-0.000000,0.000000
1.160000,-0.400000,1.340933,0.080000,-1752.723431,-0.274550,-0.982467,0.692161,0.000000,-0.000000,0.000000
1.240000,-0.400000,1.260992,0.080000,-1752.763063,-0.122113,-1.134889,0.751232,0.000000,-0.000000,0.000000
1.320000,-0.400000,1.181059,0.080000,-1752.809970,0.046559,-1.303585,0.804871,0.000000,-0.000000,0.000000
1.400000,-0.400000,1.101136,0.080000,-1752.865231,0.230892,-1.487996,0.849757,0.000000,-0.000000,0.000000
1.480000,-0.400000,1.021225,0.080000,-1752.930025,0.429453,-1.686700,0.882000,0.000000,-0.000000,0.000000
1.560000,-0.400000,0.941329,0.080000,-1753.005623,0.639719,-1.897190,0.897233,0.000000,-0.000000,0.000000
1.640000,-0.400000,0.861452,0.080000,-1753.093368,0.857866,-2.115654,0.890799,0.000000,-0.000000,0.000000
1.720000,-0.400000,0.781601,0.080000,-1753.194656,1.078590,-2.336792,0.858045,0.000000,-0.000000,0.000000
1.800000,-0.400000,0.701783,0.080000,-1753.310896,1.295010,-2.553724,0.794714,0.000000,-0.000000,0.000000
1.880000,-0.400000,0.622013,0.080000,-1753.443471,1.498708,-2.758021,0.697452,0.000000,-0.000000,0.000000
1.960000,-0.400000,0.542310,0.080000,-1753.593681,1.681317,-2.944635,0.562234,0.000000,-0.000000,0.000000
2.040000,-0.400000,0.462709,0.080000,-1753.762683,1.829467,-3.091006,0.397229,0.000000,-0.000000,0.000000
2.120000,-0.400000,0.383275,0.080000,-1753.951422,1.935784,-3.200119,0.194607,0.000000,-0.000000,0.000000
-2.120000,-0.320000,0.381182,0.080000,-1754.006739,1.743741,-3.005341,-0.129534,0.000000,-0.000000,-0.000000
-2.040000,-0.320000,0.460977,0.080000,-1753.816003,1.664569,-2.925621,-0.283529,0.000000,-0.000000,-0.000000
-1.960000,-0.320000,0.540833,0.080000,-1753.643951,1.546208,-2.808825,-0.412128,0.000000,-0.000000,-0.000000
-1.880000,-0.320000,0.620725,0.080000,-1753.489829,1.394980,-2.654371,-0.519343,0.000000,-0.000000,-0.000000
-1.800000,-0.320000,0.700643,0.080000,-1753.352679,1.221794,-2.480672,-0.598437,0.000000,-0.000000,-0.000000
-1.720000,-0.320000,0.780577,0.080000,-1753.231394,1.033759,-2.292182,-0.652063,0.000000,-0.000000,-0.000000
-1.640000,-0.320000,0.860523,0.080000,-1753.124774,0.838233,-2.096272,-0.682361,0.000000,-0.000000,-0.000000
-1.560000,-0.320000,0.940479,0.080000,-1753.031569,0.641488,-1.899220,-0.692225,0.000000,-0.000000,-0.000000
-1.480000,-0.320000,1.020441,0.080000,-1752.950523,0.448612,-1.706111,-0.684943,0.000000,-0.000000,-0.000000
-1.400000,-0.320000,1.100409,0.080000,-1752.880400,0.263515,-1.520848,-0.663902,0.000000,-0.000000,-0.000000
-1.320000,-0.320000,1.180381,0.080000,-1752.820019,0.089016,-1.346244,-0.632357,0.000000,-0.000000,-0.000000
-1.240000,-0.320000,1.260357,0.080000,-1752.768263,-0.073014,-1.184156,-0.593277,0.000000,-0.000000,-0.000000
-1.160000,-0.320000,1.340336,0.080000,-1752.724095,-0.221506,-1.035648,-0.549245,0.000000,-0.000000,-0.000000
-1.080000,-0.320000,1.420317,0.080000,-1752.686565,-0.356021,-0.901145,-0.502423,0.000000,-0.000000,-0.000000
-1.000000,-0.320000,1.500300,0.080000,-1752.654813,-0.476610,-0.780591,-0.454548,-0.000000,-0.000000,-0.000000
-0.920000,-0.320000,1.580285,0.080000,-1752.628066,-0.583670,-0.673580,-0.406951,-0.000000,-0.000000,-0.000000
-0.840000,-0.320000,1.660271,0.080000,-1752.605640,-0.677839,-0.579468,-0.360606,-0.000000,-0.000000,-0.000000
-0.760000,-0.320000,1.680030,0.080000,-1752.586930,-0.759898,-0.497471,-0.316169,-0.000000,-0.000000,-0.000000
-0.680000,-0.320000,1.680268,0.080000,-1752.571413,-0.830696,-0.426735,-0.274035,-0.000000,-0.000000,-0.000000
-0.600000,-0.320000,1.680744,0.080000,-1752.558634,-0.891097,-0.366393,-0.234385,-0.000000,0.000000,-0.000000
-0.520000,-0.320000,1.680268,0.080000,-1752.548207,-0.941934,-0.315612,-0.197225,-0.000000,0.000000,-0.000000
-0.440000,-0.320000,1.680030,0.080000,-1752.539806,-0.983979,-0.273616,-0.162430,-0.000000,0.000000,-0.000000
-0.360000,-0.320000,1.680030,0.080000,-1752.533162,-1.017920,-0.239717,-0.129771,-0.000000,0.000000,-0.000000
-0.280000,-0.320000,1.680268,0.080000,-1752.528057,-1.044347,-0.213324,-0.098945,-0.000000,0.000000,-0.000000
-0.200000,-0.320000,1.680744,0.080000,-1752.524323,-1.063741,-0.193957,-0.069594,-0.000000,0.000000,-0.000000
-0.120000,-0.320000,1.680268,0.080000,-1752.521835,-1.076466,-0.181249,-0.041319,-0.000000,0.000000,-0.000000
-0.040000,-0.320000,1.680030,0.080000,-1752.520512,-1.082767,-0.174957,-0.013700,-0.000000,0.000000,-0.000000
0.040000,-0.320000,1.680030,0.080000,-1752.520313,-1.082767,-0.174957,0.013699,-0.000000,0.000000,0.000000
0.120000,-0.320000,1.680268,0.080000,-1752.521238,-1.076466,-0.181249,0.041318,-0.000000,0.000000,0.000000
0.200000,-0.320000,1.680744,0.080000,-1752.523327,-1.063742,-0.193956,0.069592,-0.000000,0.000000,0.000000
0.280000,-0.320000,1.680268,0.080000,-1752.526663,-1.044348,-0.213323,0.098944,-0.000000,0.000000,0.000000
0.360000,-0.320000,1.680030,0.080000,-1752.531369,-1.017922,-0.239715,0.129770,-0.000000,0.000000,0.000000
0.440000,-0.320000,1.680030,0.080000,-1752.537615,-0.983981,-0.273614,0.162428,-0.000000,0.000000,0.000000
0.520000,-0.320000,1.680268,0.080000,-1752.545617,-0.941936,-0.315609,0.197223,-0.000000,0.000000,0.000000
0.600000,-0.320000,1.680744,0.080000,-1752.555646,-0.891100,-0.366391,0.234382,-0.000000,0.000000,0.000000
0.680000,-0.320000,1.680268,0.080000,-1752.568027,-0.830699,-0.426732,0.274033,-0.000000,-0.000000,0.000000
0.760000,-0.320000,1.680030,0.080000,-1752.583146,-0.759902,-0.497467,0.316166,-0.000000,-0.000000,0.000000
0.840000,-0.320000,1.660271,0.080000,-1752.601457,-0.677844,-0.579463,0.360602,-0.000000,-0.000000,0.000000
0.920000,-0.320000,1.580285,0.080000,-1752.623485,-0.583676,-0.673574,0.406948,-0.000000,-0.000000,0.000000
1.000000,-0.320000,1.500300,0.080000,-1752.649833,-0.476616,-0.780585,0.454544,-0.000000,-0.000000,0.000000
1.080000,-0.320000,1.420317,0.080000,-1752.681187,-0.356029,-0.901138,0.502419,0.000000,-0.000000,0.000000
1.160000,-0.320000,1.340336,0.080000,-1752.718318,-0.221514,-1.035639,0.549240,0.000000,-0.000000,0.000000
1.240000,-0.320000,1.260357,0.080000,-1752.762087,-0.073024,-1.184147,0.593271,0.000000,-0.000000,0.000000
1.320000,-0.320000,1.180381,0.080000,-1752.813445,0.089005,-1.346232,0.632352,0.000000,-0.000000,0.000000
1.400000,-0.320000,1.100409,0.080000,-1752.873427,0.263502,-1.520835,0.663896,0.000000,-0.000000,0.000000
1.480000,-0.320000,1.020441,0.080000,-1752.943151,0.448598,-1.706096,0.684937,0.000000,-0.000000,0.000000
1.560000,-0.320000,0.940479,0.080000,-1753.023799,0.641472,-1.899204,0.692219,0.000000,-0.000000,0.000000
1.640000,-0.320000,0.860523,0.080000,-1753.116604,0.838215,-2.096254,0.682355,0.000000,-0.000000,0.000000
1.720000,-0.320000,0.780577,0.080000,-1753.222825,1.033739,-2.292162,0.652057,0.000000,-0.000000,0.000000
1.800000,-0.320000,0.700643,0.080000,-1753.343711,1.221773,-2.480650,0.598432,0.000000,-0.000000,0.000000
1.880000,-0.320000,0.620725,0.080000,-1753.480462,1.394958,-2.654348,0.519338,0.000000,-0.000000,0.000000
1.960000,-0.320000,0.540833,0.080000,-1753.634184,1.546184,-2.808800,0.412123,0.000000,-0.000000,0.000000
2.040000,-0.320000,0.460977,0.080000,-1753.805836,1.664543,-2.925596,0.283525,0.000000,-0.000000,0.000000
2.120000,-0.320000,0.381182,0.080000,-1753.996172,1.743714,-3.005315,0.129531,0.000000,-0.000000,0.000000
-2.120000,-0.240000,0.380132,0.080000,-1754.040309,1.599438,-2.857157,-0.081731,0.000000,-0.000000,-0.000000
-2.040000,-0.240000,0.460109,0.080000,-1753.848480,1.540109,-2.800797,-0.193855,0.000000,-0.000000,-0.000000
-1.960000,-0.240000,0.540093,0.080000,-1753.674543,1.442876,-2.704981,-0.288261,0.000000,-0.000000,-0.000000
-1.880000,-0.240000,0.620081,0.080000,-1753.517876,1.314211,-2.573642,-0.367956,0.000000,-0.000000,-0.000000
-1.800000,-0.240000,0.700071,0.080000,-1753.377664,1.163269,-2.422250,-0.427814,0.000000,-0.000000,-0.000000
-1.720000,-0.240000,0.780064,0.080000,-1753.252943,0.996222,-2.254793,-0.469528,0.000000,-0.000000,-0.000000
-1.640000,-0.240000,0.860058,0.080000,-1753.142645,0.819606,-2.077820,-0.494417,0.000000,-0.000000,-0.000000
-1.560000,-0.240000,0.940053,0.080000,-1753.045643,0.639182,-1.897099,-0.504372,0.000000,-0.000000,-0.000000
-1.480000,-0.240000,1.020049,0.080000,-1752.960783,0.459803,-1.717483,-0.501616,0.000000,-0.000000,-0.000000
-1.400000,-0.240000,1.100045,0.080000,-1752.886918,0.285370,-1.542873,-0.488496,0.000000,-0.000000,-0.000000
-1.320000,-0.240000,1.180042,0.080000,-1752.822934,0.118867,-1.376245,-0.467311,0.000000,-0.000000,-0.000000
-1.240000,-0.240000,1.260040,0.080000,-1752.767765,-0.037567,-1.219733,-0.440197,0.000000,-0.000000,-0.000000
-1.160000,-0.240000,1.340037,0.080000,-1752.720410,-0.182523,-1.074737,-0.409043,0.000000,-0.000000,-0.000000
-1.080000,-0.240000,1.420035,0.080000,-1752.679943,-0.315207,-0.942043,-0.375457,0.000000,-0.000000,-0.000000
-1.000000,-0.240000,1.500033,0.080000,-1752.645513,-0.435314,-0.821949,-0.340751,-0.000000,-0.000000,-0.000000
-0.920000,-0.240000,1.580032,0.080000,-1752.616354,-0.542915,-0.714379,-0.305949,-0.000000,-0.000000,-0.000000
-0.840000,-0.240000,1.660030,0.080000,-1752.591774,-0.638354,-0.618982,-0.271817,-0.000000,-0.000000,-0.000000
-0.760000,-0.240000,1.740029,0.080000,-1752.571165,-0.722160,-0.535224,-0.238886,-0.000000,-0.000000,-0.000000
-0.680000,-0.240000,1.760256,0.080000,-1752.553989,-0.794974,-0.462461,-0.207491,-0.000000,-0.000000,-0.000000
-0.600000,-0.240000,1.760710,0.080000,-1752.539780,-0.857488,-0.399998,-0.177802,-0.000000,-0.000000,-0.000000
-0.520000,-0.240000,1.760256,0.080000,-1752.528138,-0.910399,-0.347135,-0.149859,-0.000000,0.000000,-0.000000
-0.440000,-0.240000,1.760028,0.080000,-1752.518724,-0.954375,-0.303203,-0.123595,-0.000000,0.000000,-0.000000
-0.360000,-0.240000,1.760028,0.080000,-1752.511257,-0.990024,-0.267592,-0.098861,-0.000000,0.000000,-0.000000
-0.280000,-0.240000,1.760256,0.080000,-1752.505508,-1.017877,-0.239771,-0.075448,-0.000000,0.000000,-0.000000
-0.200000,-0.240000,1.760710,0.080000,-1752.501298,-1.038373,-0.219299,-0.053105,-0.000000,0.000000,-0.000000
-0.120000,-0.240000,1.760256,0.080000,-1752.498497,-1.051847,-0.205842,-0.031544,-0.000000,0.000000,-0.000000
-0.040000,-0.240000,1.760028,0.080000,-1752.497019,-1.058527,-0.199170,-0.010462,-0.000000,0.000000,-0.000000
0.040000,-0.240000,1.760028,0.080000,-1752.496819,-1.058527,-0.199170,0.010461,-0.000000,0.000000,0.000000
0.120000,-0.240000,1.760256,0.080000,-1752.497900,-1.051847,-0.205841,0.031543,-0.000000,0.000000,0.000000
0.200000,-0.240000,1.760710,0.080000,-1752.500302,-1.038374,-0.219299,0.053104,-0.000000,0.000000,0.000000
0.280000,-0.240000,1.760256,0.080000,-1752.504113,-1.017878,-0.239770,0.075447,-0.000000,0.000000,0.000000
0.360000,-0.240000,1.760028,0.080000,-1752.509464,-0.990026,-0.267591,0.098859,-0.000000,0.000000,0.000000
0.440000,-0.240000,1.760028,0.080000,-1752.516533,-0.954377,-0.303201,0.123593,-0.000000,0.000000,0.000000
0.520000,-0.240000,1.760256,0.080000,-1752.525549,-0.910401,-0.347133,0.149858,-0.000000,0.000000,0.000000
0.600000,-0.240000,1.760710,0.080000,-1752.536793,-0.857490,-0.399996,0.177801,-0.000000,-0.000000,0.000000
0.680000,-0.240000,1.760256,0.080000,-1752.550603,-0.794977,-0.462458,0.207489,-0.000000,-0.000000,0.000000
0.760000,-0.240000,1.740029,0.080000,-1752.567381,-0.722165,-0.535220,0.238883,-0.000000,-0.000000,0.000000
0.840000,-0.240000,1.660030,0.080000,-1752.587591,-0.638359,-0.618977,0.271814,-0.000000,-0.000000,0.000000
0.920000,-0.240000,1.580032,0.080000,-1752.611772,-0.542921,-0.714373,0.305946,-0.000000,-0.000000,0.000000
1.000000,-0.240000,1.500033,0.080000,-1752.640533,-0.435321,-0.821943,0.340748,-0.000000,-0.000000,0.000000
1.080000,-0.240000,1.420035,0.080000,-1752.674564,-0.315215,-0.942035,0.375454,0.000000,-0.000000,0.000000
1.160000,-0.240000,1.340037,0.080000,-1752.714633,-0.182532,-1.074728,0.409039,0.000000,-0.000000,0.000000
1.240000,-0.240000,1.260040,0.080000,-1752.761589,-0.037577,-1.219723,0.440193,0.000000,-0.000000,0.000000
1.320000,-0.240000,1.180042,0.080000,-1752.816359,0.118855,-1.376234,0.467307,0.000000,-0.000000,0.000000
1.400000,-0.240000,1.100045,0.080000,-1752.879945,0.285357,-1.542860,0.488491,0.000000,-0.000000,0.000000
1.480000,-0.240000,1.020049,0.080000,-1752.953411,0.459788,-1.717469,0.501612,0.000000,-0.000000,0.000000
1.560000,-0.240000,0.940053,0.080000,-1753.037872,0.639166,-1.897083,0.504367,0.000000,-0.000000,0.000000
1.640000,-0.240000,0.860058,0.080000,-1753.134475,0.819588,-2.077802,0.494413,0.000000,-0.000000,0.000000
1.720000,-0.240000,0.780064,0.080000,-1753.244373,0.996203,-2.254774,0.469524,0.000000,-0.000000,0.000000
1.800000,-0.240000,0.700071,0.080000,-1753.368695,1.163248,-2.422229,0.427809,0.000000,-0.000000,0.000000
1.880000,-0.240000,0.620081,0.080000,-1753.508508,1.314189,-2.573619,0.367953,0.000000,-0.000000,0.000000
1.960000,-0.240000,0.540093,0.080000,-1753.664775,1.442853,-2.704957,0.288258,0.000000,-0.000000,0.000000
2.040000,-0.240000,0.460109,0.080000,-1753.838313,1.540085,-2.800773,0.193852,0.000000,-0.000000,0.000000
2.120000,-0.240000,0.380132,0.080000,-1754.029741,1.599413,-2.857132,0.081729,0.000000,-0.000000,0.000000
-2.120000,-0.160000,0.380132,0.080000,-1754.063611,1.500552,-2.757993,-0.045770,0.000000,-0.000000,-0.000000
-2.040000,-0.160000,0.460109,0.080000,-1753.871079,1.453264,-2.713721,-0.120683,0.000000,-0.000000,-0.000000
-1.960000,-0.160000,0.540093,0.080000,-1753.695885,1.370084,-2.631839,-0.182642,0.000000,-0.000000,-0.000000
-1.880000,-0.160000,0.620081,0.080000,-1753.537496,1.256592,-2.516042,-0.235382,0.000000,-0.000000,-0.000000
-1.800000,-0.160000,0.700071,0.080000,-1753.395193,1.120765,-2.379808,-0.275473,0.000000,-0.000000,-0.000000
-1.720000,-0.160000,0.780064,0.080000,-1753.268108,0.968130,-2.226795,-0.303917,0.000000,-0.000000,-0.000000
-1.640000,-0.160000,0.860058,0.080000,-1753.155268,0.804640,-2.062968,-0.321464,0.000000,-0.000000,-0.000000
-1.560000,-0.160000,0.940053,0.080000,-1753.055626,0.635677,-1.893717,-0.329251,0.000000,-0.000000,-0.000000
-1.480000,-0.160000,1.020049,0.080000,-1752.968104,0.465896,-1.723701,-0.328648,0.000000,-0.000000,-0.000000
-1.400000,-0.160000,1.100045,0.080000,-1752.891616,0.299160,-1.556780,-0.321127,0.000000,-0.000000,-0.000000
-1.320000,-0.160000,1.180042,0.080000,-1752.825095,0.138528,-1.396012,-0.308155,0.000000,-0.000000,-0.000000
-1.240000,-0.160000,1.260040,0.080000,-1752.767515,-0.013696,-1.243696,-0.291109,0.000000,-0.000000,-0.000000
-1.160000,-0.160000,1.340037,0.080000,-1752.717902,-0.155893,-1.101444,-0.271226,0.000000,-0.000000,-0.000000
-1.080000,-0.160000,1.420035,0.080000,-1752.675346,-0.287031,-0.970280,-0.249566,0.000000,-0.000000,-0.000000
-1.000000,-0.160000,1.500033,0.080000,-1752.639009,-0.406569,-0.850741,-0.227006,-0.000000,-0.000000,-0.000000
-0.920000,-0.160000,1.580032,0.080000,-1752.608124,-0.514352,-0.742976,-0.204241,-0.000000,-0.000000,-0.000000
-0.840000,-0.160000,1.660030,0.080000,-1752.582003,-0.610520,-0.646838,-0.181795,-0.000000,-0.000000,-0.000000
-0.760000,-0.160000,1.740029,0.080000,-1752.560030,-0.695424,-0.561973,-0.160040,-0.000000,-0.000000,-0.000000
-0.680000,-0.160000,1.820027,0.080000,-1752.541661,-0.769553,-0.487887,-0.139218,-0.000000,-0.000000,-0.000000
-0.600000,-0.160000,1.840679,0.080000,-1752.526421,-0.833476,-0.424008,-0.119459,-0.000000,-0.000000,-0.000000
-0.520000,-0.160000,1.840245,0.080000,-1752.513903,-0.887790,-0.369737,-0.100803,-0.000000,0.000000,-0.000000
-0.440000,-0.160000,1.840027,0.080000,-1752.503757,-0.933085,-0.324482,-0.083220,-0.000000,0.000000,-0.000000
-0.360000,-0.160000,1.840027,0.080000,-1752.495694,-0.969910,-0.287693,-0.066622,-0.000000,0.000000,-0.000000
-0.280000,-0.160000,1.840245,0.080000,-1752.489478,-0.998749,-0.258883,-0.050878,-0.000000,0.000000,-0.000000
-0.200000,-0.160000,1.840679,0.080000,-1752.484924,-1.020009,-0.237645,-0.035829,-0.000000,0.000000,-0.000000
-0.120000,-0.160000,1.840245,0.080000,-1752.481896,-1.034005,-0.223665,-0.021290,-0.000000,0.000000,-0.000000
-0.040000,-0.160000,1.840027,0.080000,-1752.480305,-1.040948,-0.216729,-0.007062,-0.000000,0.000000,-0.000000
0.040000,-0.160000,1.840027,0.080000,-1752.480106,-1.040949,-0.216729,0.007061,-0.000000,0.000000,0.000000
0.120000,-0.160000,1.840245,0.080000,-1752.481299,-1.034005,-0.223665,0.021289,-0.000000,0.000000,0.000000
0.200000,-0.160000,1.840679,0.080000,-1752.483928,-1.020010,-0.237644,0.035828,-0.000000,0.000000,0.000000
0.280000,-0.160000,1.840245,0.080000,-1752.488083,-0.998750,-0.258881,0.050878,-0.000000,0.000000,0.000000
0.360000,-0.160000,1.840027,0.080000,-1752.493901,-0.969911,-0.287691,0.066621,-0.000000,0.000000,0.000000
0.440000,-0.160000,1.840027,0.080000,-1752.501566,-0.933088,-0.324480,0.083219,-0.000000,0.000000,0.000000
0.520000,-0.160000,1.840245,0.080000,-1752.511313,-0.887793,-0.369734,0.100802,-0.000000,0.000000,0.000000
0.600000,-0.160000,1.840679,0.080000,-1752.523434,-0.833479,-0.424005,0.119458,-0.000000,-0.000000,0.000000
0.680000,-0.160000,1.820027,0.080000,-1752.538274,-0.769556,-0.487883,0.139217,-0.000000,-0.000000,0.000000
0.760000,-0.160000,1.740029,0.080000,-1752.556245,-0.695428,-0.561969,0.160039,-0.000000,-0.000000,0.000000
0.840000,-0.160000,1.660030,0.080000,-1752.577820,-0.610525,-0.646833,0.181793,-0.000000,-0.000000,0.000000
0.920000,-0.160000,1.580032,0.080000,-1752.603543,-0.514358,-0.742970,0.204239,-0.000000,-0.000000,0.000000
1.000000,-0.160000,1.500033,0.080000,-1752.634029,-0.406576,-0.850734,0.227004,-0.000000,-0.000000,0.000000
1.080000,-0.160000,1.420035,0.080000,-1752.669968,-0.287039,-0.970272,0.249563,0.000000,-0.000000,0.000000
1.160000,-0.160000,1.340037,0.080000,-1752.712125,-0.155902,-1.101435,0.271223,0.000000,-0.000000,0.000000
1.240000,-0.160000,1.260040,0.080000,-1752.761339,-0.013706,-1.243685,0.291107,0.000000,-0.000000,0.000000
1.320000,-0.160000,1.180042,0.080000,-1752.818521,0.138516,-1.396001,0.308152,0.000000,-0.000000,0.000000
1.400000,-0.160000,1.100045,0.080000,-1752.884642,0.299147,-1.556767,0.321124,0.000000,-0.000000,0.000000
1.480000,-0.160000,1.020049,0.080000,-1752.960732,0.465882,-1.723686,0.328645,0.000000,-0.000000,0.000000
1.560000,-0.160000,0.940053,0.080000,-1753.047855,0.635661,-1.893701,0.329248,0.000000,-0.000000,0.000000
1.640000,-0.160000,0.860058,0.080000,-1753.147097,0.804623,-2.062951,0.321461,0.000000,-0.000000,0.000000
1.720000,-0.160000,0.780064,0.080000,-1753.259538,0.968111,-2.226776,0.303914,0.000000,-0.000000,0.000000
1.800000,-0.160000,0.700071,0.080000,-1753.386223,1.120745,-2.379788,0.275470,0.000000,-0.000000,0.000000
1.880000,-0.160000,0.620081,0.080000,-1753.528127,1.256570,-2.516020,0.235380,0.000000,-0.000000,0.000000
1.960000,-0.160000,0.540093,0.080000,-1753.686116,1.370061,-2.631816,0.182640,0.000000,-0.000000,0.000000
2.040000,-0.160000,0.460109,0.080000,-1753.860911,1.453240,-2.713697,0.120681,0.000000,-0.000000,0.000000
2.120000,-0.160000,0.380132,0.080000,-1754.053043,1.500528,-2.757968,0.045769,0.000000,-0.000000,0.000000
-2.120000,-0.080000,0.381182,0.080000,-1754.077281,1.443982,-2.704725,-0.019645,0.000000,-0.000000,-0.000000
-2.040000,-0.080000,0.460977,0.080000,-1753.884356,1.401984,-2.662330,-0.057849,0.000000,-0.000000,-0.000000
-1.960000,-0.080000,0.540833,0.080000,-1753.708441,1.326832,-2.588383,-0.088537,0.000000,-0.000000,-0.000000
-1.880000,-0.080000,0.620725,0.080000,-1753.549056,1.222080,-2.481538,-0.114781,0.000000,-0.000000,-0.000000
-1.800000,-0.080000,0.700643,0.080000,-1753.405536,1.095020,-2.354096,-0.134870,0.000000,-0.000000,-0.000000
-1.720000,-0.080000,0.780577,0.080000,-1753.277070,0.950800,-2.209517,-0.149267,0.000000,-0.000000,-0.000000
-1.640000,-0.080000,0.860523,0.080000,-1753.162737,0.795032,-2.053424,-0.158313,0.000000,-0.000000,-0.000000
-1.560000,-0.080000,0.940479,0.080000,-1753.061541,0.632862,-1.890972,-0.162538,0.000000,-0.000000,-0.000000
-1.480000,-0.080000,1.020441,0.080000,-1752.972446,0.468817,-1.726692,-0.162596,0.000000,-0.000000,-0.000000
-1.400000,-0.080000,1.100409,0.080000,-1752.894403,0.306722,-1.564410,-0.159195,0.000000,-0.000000,-0.000000
-1.320000,-0.080000,1.180381,0.080000,-1752.826376,0.149671,-1.407218,-0.153049,0.000000,-0.000000,-0.000000
-1.240000,-0.080000,1.260357,0.080000,-1752.767361,0.000052,-1.257498,-0.144832,0.000000,-0.000000,-0.000000
-1.160000,-0.080000,1.340336,0.080000,-1752.716400,-0.140399,-1.116983,-0.135155,0.000000,-0.000000,-0.000000
-1.080000,-0.080000,1.420317,0.080000,-1752.672596,-0.270518,-0.986830,-0.124544,0.000000,-0.000000,-0.000000
-1.000000,-0.080000,1.500300,0.080000,-1752.635115,-0.389627,-0.867712,-0.113439,-0.000000,-0.000000,-0.000000
-0.920000,-0.080000,1.580285,0.080000,-1752.603195,-0.497438,-0.759910,-0.102189,-0.000000,-0.000000,-0.000000
-0.840000,-0.080000,1.660271,0.080000,-1752.576147,-0.593973,-0.663399,-0.091060,-0.000000,-0.000000,-0.000000
-0.760000,-0.080000,1.740259,0.080000,-1752.553353,-0.679474,-0.577931,-0.080245,-0.000000,-0.000000,-0.000000
-0.680000,-0.080000,1.820247,0.080000,-1752.534265,-0.754343,-0.503101,-0.069868,-0.000000,-0.000000,-0.000000
-0.600000,-0.080000,1.900237,0.080000,-1752.518404,-0.819071,-0.438413,-0.060000,-0.000000,-0.000000,-0.000000
-0.520000,-0.080000,1.920234,0.080000,-1752.505356,-0.874195,-0.383328,-0.050666,-0.000000,-0.000000,-0.000000
-0.440000,-0.080000,1.920026,0.080000,-1752.494767,-0.920257,-0.337304,-0.041853,-0.000000,0.000000,-0.000000
-0.360000,-0.080000,1.920026,0.080000,-1752.486344,-0.957768,-0.299826,-0.033522,-0.000000,0.000000,-0.000000
-0.280000,-0.080000,1.920234,0.080000,-1752.479845,-0.987186,-0.270437,-0.025611,-0.000000,0.000000,-0.000000
-0.200000,-0.080000,1.920651,0.080000,-1752.475083,-1.008896,-0.248748,-0.018041,-0.000000,0.000000,-0.000000
-0.120000,-0.080000,1.920234,0.080000,-1752.471918,-1.023198,-0.234461,-0.010722,-0.000000,0.000000,-0.000000
-0.040000,-0.080000,1.920026,0.080000,-1752.470258,-1.030297,-0.227369,-0.003557,-0.000000,0.000000,-0.000000
0.040000,-0.080000,1.920026,0.080000,-1752.470059,-1.030298,-0.227369,0.003557,-0.000000,0.000000,0.000000
0.120000,-0.080000,1.920234,0.080000,-1752.471320,-1.023199,-0.234460,0.010722,-0.000000,0.000000,0.000000
0.200000,-0.080000,1.920651,0.080000,-1752.474087,-1.008897,-0.248747,0.018041,-0.000000,0.000000,0.000000
0.280000,-0.080000,1.920234,0.080000,-1752.478451,-0.987187,-0.270435,0.025611,-0.000000,0.000000,0.000000
0.360000,-0.080000,1.920026,0.080000,-1752.484551,-0.957770,-0.299824,0.033522,-0.000000,0.000000,0.000000
0.440000,-0.080000,1.920026,0.080000,-1752.492576,-0.920260,-0.337301,0.041853,-0.000000,0.000000,0.000000
0.520000,-0.080000,1.920234,0.080000,-1752.502766,-0.874198,-0.383326,0.050665,-0.000000,-0.000000,0.000000
0.600000,-0.080000,1.900237,0.080000,-1752.515416,-0.819074,-0.438410,0.059999,-0.000000,-0.000000,0.000000
0.680000,-0.080000,1.820247,0.080000,-1752.530878,-0.754346,-0.503097,0.069867,-0.000000,-0.000000,0.000000
0.760000,-0.080000,1.740259,0.080000,-1752.549568,-0.679479,-0.577926,0.080244,-0.000000,-0.000000,0.000000
0.840000,-0.080000,1.660271,0.080000,-1752.571964,-0.593978,-0.663394,0.091060,-0.000000,-0.000000,0.000000
0.920000,-0.080000,1.580285,0.080000,-1752.598613,-0.497444,-0.759904,0.102188,-0.000000,-0.000000,0.000000
1.000000,-0.080000,1.500300,0.080000,-1752.630134,-0.389634,-0.867705,0.113438,-0.000000,-0.000000,0.000000
1.080000,-0.080000,1.420317,0.080000,-1752.667217,-0.270526,-0.986822,0.124543,0.000000,-0.000000,0.000000
1.160000,-0.080000,1.340336,0.080000,-1752.710623,-0.140408,-1.116974,0.135154,0.000000,-0.000000,0.000000
1.240000,-0.080000,1.260357,0.080000,-1752.761185,0.000042,-1.257488,0.144831,0.000000,-0.000000,0.000000
1.320000,-0.080000,1.180381,0.080000,-1752.819801,0.149660,-1.407206,0.153048,0.000000,-0.000000,0.000000
1.400000,-0.080000,1.100409,0.080000,-1752.887430,0.306709,-1.564397,0.159194,0.000000,-0.000000,0.000000
1.480000,-0.080000,1.020441,0.080000,-1752.965073,0.468802,-1.726678,0.162594,0.000000,-0.000000,0.000000
1.560000,-0.080000,0.940479,0.080000,-1753.053769,0.632845,-1.890956,0.162537,0.000000,-0.000000,0.000000
1.640000,-0.080000,0.860523,0.080000,-1753.154566,0.795015,-2.053407,0.158311,0.000000,-0.000000,0.000000
1.720000,-0.080000,0.780577,0.080000,-1753.268500,0.950781,-2.209498,0.149266,0.000000,-0.000000,0.000000
1.800000,-0.080000,0.700643,0.080000,-1753.396567,1.094999,-2.354076,0.134868,0.000000,-0.000000,0.000000
1.880000,-0.080000,0.620725,0.080000,-1753.539687,1.222059,-2.481516,0.114780,0.000000,-0.000000,0.000000
1.960000,-0.080000,0.540833,0.080000,-1753.698673,1.326809,-2.588361,0.088536,0.000000,-0.000000,0.000000
2.040000,-0.080000,0.460977,0.080000,-1753.874188,1.401960,-2.662306,0.057848,0.000000,-0.000000,0.000000
2.120000,-0.080000,0.381182,0.080000,-1754.066713,1.443957,-2.704701,0.019644,0.000000,-0.000000,0.000000
-2.120000,0.000000,0.383275,0.080000,-1754.081690,1.425763,-2.688591,0.000000,0.000000,-0.000000,0.000000
-2.040000,0.000000,0.462709,0.080000,-1753.888639,1.385029,-2.645345,-0.000000,0.000000,-0.000000,-0.000000
-1.960000,0.000000,0.542310,0.080000,-1753.712490,1.312486,-2.573971,-0.000001,0.000000,-0.000000,-0.000000
-1.880000,0.000000,0.622013,0.080000,-1753.552779,1.210589,-2.470048,-0.000001,0.000000,-0.000000,-0.000000
-1.800000,0.000000,0.701783,0.080000,-1753.408860,1.086401,-2.345487,-0.000002,0.000000,-0.000000,-0.000000
-1.720000,0.000000,0.781601,0.080000,-1753.279939,0.944949,-2.203682,-0.000002,0.000000,-0.000000,-0.000000
-1.640000,0.000000,0.861452,0.080000,-1753.165114,0.791728,-2.050141,-0.000003,0.000000,-0.000000,-0.000000
-1.560000,0.000000,0.941329,0.080000,-1753.063404,0.631807,-1.889940,-0.000003,0.000000,-0.000000,-0.000000
-1.480000,0.000000,1.021225,0.080000,-1752.973789,0.469670,-1.727569,-0.000003,0.000000,-0.000000,-0.000000
-1.400000,0.000000,1.101136,0.080000,-1752.895231,0.309126,-1.566836,-0.000003,0.000000,-0.000000,-0.000000
-1.320000,0.000000,1.181059,0.080000,-1752.826705,0.153278,-1.410845,-0.000003,0.000000,-0.000000,-0.000000
-1.240000,0.000000,1.260992,0.080000,-1752.767213,0.004540,-1.262004,-0.000003,0.000000,-0.000000,-0.000000
-1.160000,0.000000,1.340933,0.080000,-1752.715804,-0.135315,-1.122082,-0.000003,0.000000,-0.000000,-0.000000
-1.080000,0.000000,1.420880,0.080000,-1752.671584,-0.265079,-0.992281,-0.000003,0.000000,-0.000000,-0.000000
-1.000000,0.000000,1.500833,0.080000,-1752.633722,-0.384030,-0.873318,-0.000003,-0.000000,-0.000000,-0.000000
-0.920000,0.000000,1.580791,0.080000,-1752.601457,-0.491838,-0.765518,-0.000003,-0.000000,-0.000000,-0.000000
-0.840000,0.000000,1.660753,0.080000,-1752.574100,-0.588483,-0.668894,-0.000003,-0.000000,-0.000000,-0.000000
-0.760000,0.000000,1.740718,0.080000,-1752.551032,-0.674174,-0.583234,-0.000002,-0.000000,-0.000000,-0.000000
-0.680000,0.000000,1.820687,0.080000,-1752.531704,-0.749280,-0.508164,-0.000002,-0.000000,-0.000000,-0.000000
-0.600000,0.000000,1.900658,0.080000,-1752.515635,-0.814269,-0.443214,-0.000002,-0.000000,-0.000000,-0.000000
-0.520000,0.000000,1.980631,0.080000,-1752.502410,-0.869659,-0.387863,-0.000002,-0.000000,-0.000000,-0.000000
-0.440000,0.000000,2.000025,0.080000,-1752.491673,-0.915972,-0.341586,-0.000001,-0.000000,0.000000,-0.000000
-0.360000,0.000000,2.000025,0.080000,-1752.483129,-0.953709,-0.303883,-0.000001,-0.000000,0.000000,-0.000000
-0.280000,0.000000,2.000225,0.080000,-1752.476536,-0.983317,-0.274302,-0.000001,-0.000000,0.000000,-0.000000
-0.200000,0.000000,2.000625,0.080000,-1752.471704,-1.005175,-0.252465,-0.000001,-0.000000,0.000000,-0.000000
-0.120000,0.000000,2.000225,0.080000,-1752.468493,-1.019579,-0.238076,-0.000000,-0.000000,0.000000,-0.000000
-0.040000,0.000000,2.000025,0.080000,-1752.466810,-1.026730,-0.230933,-0.000000,-0.000000,0.000000,-0.000000
0.040000,0.000000,2.000025,0.080000,-1752.466611,-1.026730,-0.230933,0.000000,-0.000000,0.000000,0.000000
0.120000,0.000000,2.000225,0.080000,-1752.467895,-1.019579,-0.238076,0.000000,-0.000000,0.000000,0.000000
0.200000,0.000000,2.000625,0.080000,-1752.470708,-1.005176,-0.252464,0.000001,-0.000000,0.000000,0.000000
0.280000,0.000000,2.000225,0.080000,-1752.475142,-0.983318,-0.274301,0.000001,-0.000000,0.000000,0.000000
0.360000,0.000000,2.000025,0.080000,-1752.481337,-0.953711,-0.303881,0.000001,-0.000000,0.000000,0.000000
0.440000,0.000000,2.000025,0.080000,-1752.489483,-0.915975,-0.341584,0.000001,-0.000000,0.000000,0.000000
0.520000,0.000000,1.980631,0.080000,-1752.499820,-0.869662,-0.387861,0.000002,-0.000000,-0.000000,0.000000
0.600000,0.000000,1.900658,0.080000,-1752.512647,-0.814273,-0.443211,0.000002,-0.000000,-0.000000,0.000000
0.680000,0.000000,1.820687,0.080000,-1752.528317,-0.749284,-0.508161,0.000002,-0.000000,-0.000000,0.000000
0.760000,0.000000,1.740718,0.080000,-1752.547247,-0.674178,-0.583229,0.000002,-0.000000,-0.000000,0.000000
0.840000,0.000000,1.660753,0.080000,-1752.569917,-0.588488,-0.668889,0.000003,-0.000000,-0.000000,0.000000
0.920000,0.000000,1.580791,0.080000,-1752.596876,-0.491844,-0.765511,0.000003,-0.000000,-0.000000,0.000000
1.000000,0.000000,1.500833,0.080000,-1752.628742,-0.384037,-0.873311,0.000003,-0.000000,-0.000000,0.000000
1.080000,0.000000,1.420880,0.080000,-1752.666205,-0.265087,-0.992273,0.000003,0.000000,-0.000000,0.000000
1.160000,0.000000,1.340933,0.080000,-1752.710027,-0.135324,-1.122073,0.000003,0.000000,-0.000000,0.000000
1.240000,0.000000,1.260992,0.080000,-1752.761037,0.004529,-1.261993,0.000003,0.000000,-0.000000,0.000000
1.320000,0.000000,1.181059,0.080000,-1752.820130,0.153266,-1.410833,0.000003,0.000000,-0.000000,0.000000
1.400000,0.000000,1.101136,0.080000,-1752.888258,0.309113,-1.566823,0.000003,0.000000,-0.000000,0.000000
1.480000,0.000000,1.021225,0.080000,-1752.966416,0.469655,-1.727554,0.000003,0.000000,-0.000000,0.000000
1.560000,0.000000,0.941329,0.080000,-1753.055632,0.631791,-1.889924,0.000003,0.000000,-0.000000,0.000000
1.640000,0.000000,0.861452,0.080000,-1753.156943,0.791710,-2.050124,0.000003,0.000000,-0.000000,0.000000
1.720000,0.000000,0.781601,0.080000,-1753.271369,0.944930,-2.203663,0.000002,0.000000,-0.000000,0.000000
1.800000,0.000000,0.701783,0.080000,-1753.399890,1.086380,-2.345467,0.000002,0.000000,-0.000000,0.000000
1.880000,0.000000,0.622013,0.080000,-1753.543410,1.210567,-2.470027,0.000001,0.000000,-0.000000,0.000000
1.960000,0.000000,0.542310,0.080000,-1753.702721,1.312464,-2.573948,0.000001,0.000000,-0.000000,0.000000
2.040000,0.000000,0.462709,0.080000,-1753.878471,1.385005,-2.645322,0.000000,0.000000,-0.000000,0.000000
2.120000,0.000000,0.383275,0.080000,-1754.071122,1.425739,-2.688566,-0.000000,0.000000,-0.000000,-0.000000
-2.120000,0.080000,0.381182,0.080000,-1754.076962,1.443980,-2.704724,0.019646,0.000000,-0.000000,0.000000
-2.040000,0.080000,0.460977,0.080000,-1753.884037,1.401983,-2.662329,0.057849,0.000000,-0.000000,0.000000
-1.960000,0.080000,0.540833,0.080000,-1753.708123,1.326831,-2.588382,0.088535,0.000000,-0.000000,0.000000
-1.880000,0.080000,0.620725,0.080000,-1753.548737,1.222079,-2.481537,0.114779,0.000000,-0.000000,0.000000
-1.800000,0.080000,0.700643,0.080000,-1753.405218,1.095019,-2.354095,0.134866,0.000000,-0.000000,0.000000
-1.720000,0.080000,0.780577,0.080000,-1753.276752,0.950800,-2.209517,0.149263,0.000000,-0.000000,0.000000
-1.640000,0.080000,0.860523,0.080000,-1753.162418,0.795032,-2.053424,0.158308,0.000000,-0.000000,0.000000
-1.560000,0.080000,0.940479,0.080000,-1753.061222,0.632861,-1.890972,0.162532,0.000000,-0.000000,0.000000
-1.480000,0.080000,1.020441,0.080000,-1752.972127,0.468817,-1.726692,0.162590,0.000000,-0.000000,0.000000
-1.400000,0.080000,1.100409,0.080000,-1752.894084,0.306722,-1.564410,0.159189,0.000000,-0.000000,0.000000
-1.320000,0.080000,1.180381,0.080000,-1752.826057,0.149671,-1.407218,0.153043,0.000000,-0.000000,0.000000
-1.240000,0.080000,1.260357,0.080000,-1752.767042,0.000052,-1.257498,0.144826,0.000000,-0.000000,0.000000
-1.160000,0.080000,1.340336,0.080000,-1752.716081,-0.140399,-1.116983,0.135149,0.000000,-0.000000,0.000000
-1.080000,0.080000,1.420317,0.080000,-1752.672276,-0.270518,-0.986830,0.124538,0.000000,-0.000000,0.000000
-1.000000,0.080000,1.500300,0.080000,-1752.634795,-0.389626,-0.867713,0.113433,-0.000000,-0.000000,0.000000
-0.920000,0.080000,1.580285,0.080000,-1752.602876,-0.497438,-0.759911,0.102183,-0.000000,-0.000000,0.000000
-0.840000,0.080000,1.660271,0.080000,-1752.575828,-0.593972,-0.663400,0.091055,-0.000000,-0.000000,0.000000
-0.760000,0.080000,1.740259,0.080000,-1752.553033,-0.679474,-0.577931,0.080240,-0.000000,-0.000000,0.000000
-0.680000,0.080000,1.820247,0.080000,-1752.533945,-0.754342,-0.503101,0.069864,-0.000000,-0.000000,0.000000
-0.600000,0.080000,1.900237,0.080000,-1752.518085,-0.819070,-0.438413,0.059996,-0.000000,-0.000000,0.000000
-0.520000,0.080000,1.920234,0.080000,-1752.505036,-0.874195,-0.383329,0.050662,-0.000000,-0.000000,0.000000
-0.440000,0.080000,1.920026,0.080000,-1752.494448,-0.920257,-0.337304,0.041850,-0.000000,0.000000,0.000000
-0.360000,0.080000,1.920026,0.080000,-1752.486025,-0.957768,-0.299827,0.033520,-0.000000,0.000000,0.000000
-0.280000,0.080000,1.920234,0.080000,-1752.479526,-0.987185,-0.270437,0.025609,-0.000000,0.000000,0.000000
-0.200000,0.080000,1.920651,0.080000,-1752.474763,-1.008895,-0.248749,0.018040,-0.000000,0.000000,0.000000
-0.120000,0.080000,1.920234,0.080000,-1752.471598,-1.023198,-0.234461,0.010721,-0.000000,0.000000,0.000000
-0.040000,0.080000,1.920026,0.080000,-1752.469939,-1.030297,-0.227370,0.003557,-0.000000,0.000000,0.000000
0.040000,0.080000,1.920026,0.080000,-1752.469740,-1.030297,-0.227369,-0.003556,-0.000000,0.000000,-0.000000
0.120000,0.080000,1.920234,0.080000,-1752.471001,-1.023198,-0.234461,-0.010721,-0.000000,0.000000,-0.000000
0.200000,0.080000,1.920651,0.080000,-1752.473767,-1.008896,-0.248748,-0.018039,-0.000000,0.000000,-0.000000
0.280000,0.080000,1.920234,0.080000,-1752.478132,-0.987187,-0.270436,-0.025609,-0.000000,0.000000,-0.000000
0.360000,0.080000,1.920026,0.080000,-1752.484232,-0.957769,-0.299825,-0.033520,-0.000000,0.000000,-0.000000
0.440000,0.080000,1.920026,0.080000,-1752.492257,-0.920259,-0.337302,-0.041850,-0.000000,0.000000,-0.000000
0.520000,0.080000,1.920234,0.080000,-1752.502447,-0.874197,-0.383326,-0.050662,-0.000000,-0.000000,-0.000000
0.600000,0.080000,1.900237,0.080000,-1752.515097,-0.819073,-0.438410,-0.059996,-0.000000,-0.000000,-0.000000
0.680000,0.080000,1.820247,0.080000,-1752.530559,-0.754346,-0.503097,-0.069863,-0.000000,-0.000000,-0.000000
0.760000,0.080000,1.740259,0.080000,-1752.549249,-0.679478,-0.577926,-0.080240,-0.000000,-0.000000,-0.000000
0.840000,0.080000,1.660271,0.080000,-1752.571645,-0.593977,-0.663395,-0.091054,-0.000000,-0.000000,-0.000000
0.920000,0.080000,1.580285,0.080000,-1752.598294,-0.497444,-0.759905,-0.102182,-0.000000,-0.000000,-0.000000
1.000000,0.080000,1.500300,0.080000,-1752.629815,-0.389633,-0.867705,-0.113432,-0.000000,-0.000000,-0.000000
1.080000,0.080000,1.420317,0.080000,-1752.666898,-0.270526,-0.986822,-0.124537,0.000000,-0.000000,-0.000000
1.160000,0.080000,1.340336,0.080000,-1752.710304,-0.140408,-1.116974,-0.135148,0.000000,-0.000000,-0.000000
1.240000,0.080000,1.260357,0.080000,-1752.760866,0.000042,-1.257488,-0.144825,0.000000,-0.000000,-0.000000
1.320000,0.080000,1.180381,0.080000,-1752.819483,0.149660,-1.407206,-0.153041,0.000000,-0.000000,-0.000000
1.400000,0.080000,1.100409,0.080000,-1752.887111,0.306709,-1.564397,-0.159187,0.000000,-0.000000,-0.000000
1.480000,0.080000,1.020441,0.080000,-1752.964755,0.468802,-1.726678,-0.162588,0.000000,-0.000000,-0.000000
1.560000,0.080000,0.940479,0.080000,-1753.053451,0.632845,-1.890956,-0.162531,0.000000,-0.000000,-0.000000
1.640000,0.080000,0.860523,0.080000,-1753.154247,0.795014,-2.053406,-0.158306,0.000000,-0.000000,-0.000000
1.720000,0.080000,0.780577,0.080000,-1753.268182,0.950781,-2.209498,-0.149261,0.000000,-0.000000,-0.000000
1.800000,0.080000,0.700643,0.080000,-1753.396248,1.094999,-2.354075,-0.134864,0.000000,-0.000000,-0.000000
1.880000,0.080000,0.620725,0.080000,-1753.539369,1.222058,-2.481515,-0.114777,0.000000,-0.000000,-0.000000
1.960000,0.080000,0.540833,0.080000,-1753.698354,1.326808,-2.588360,-0.088534,0.000000,-0.000000,-0.000000
2.040000,0.080000,0.460977,0.080000,-1753.873869,1.401959,-2.662305,-0.057848,0.000000,-0.000000,-0.000000
2.120000,0.080000,0.381182,0.080000,-1754.066394,1.443956,-2.704700,-0.019645,0.000000,-0.000000,-0.000000
-2.120000,0.160000,0.380132,0.080000,-1754.062974,1.500550,-2.757990,0.045771,0.000000,-0.000000,0.000000
-2.040000,0.160000,0.460109,0.080000,-1753.870442,1.453262,-2.713718,0.120682,0.000000,-0.000000,0.000000
-1.960000,0.160000,0.540093,0.080000,-1753.695247,1.370082,-2.631837,0.182640,0.000000,-0.000000,0.000000
-1.880000,0.160000,0.620081,0.080000,-1753.536858,1.256590,-2.516040,0.235379,0.000000,-0.000000,0.000000
-1.800000,0.160000,0.700071,0.080000,-1753.394555,1.120764,-2.379807,0.275469,0.000000,-0.000000,0.000000
-1.720000,0.160000,0.780064,0.080000,-1753.267471,0.968128,-2.226793,0.303912,0.000000,-0.000000,0.000000
-1.640000,0.160000,0.860058,0.080000,-1753.154630,0.804639,-2.062967,0.321459,0.000000,-0.000000,0.000000
-1.560000,0.160000,0.940053,0.080000,-1753.054989,0.635676,-1.893716,0.329245,0.000000,-0.000000,0.000000
-1.480000,0.160000,1.020049,0.080000,-1752.967467,0.465896,-1.723700,0.328641,0.000000,-0.000000,0.000000
-1.400000,0.160000,1.100045,0.080000,-1752.890978,0.299159,-1.556780,0.321120,0.000000,-0.000000,0.000000
-1.320000,0.160000,1.180042,0.080000,-1752.824458,0.138528,-1.396012,0.308148,0.000000,-0.000000,0.000000
-1.240000,0.160000,1.260040,0.080000,-1752.766878,-0.013696,-1.243696,0.291103,0.000000,-0.000000,0.000000
-1.160000,0.160000,1.340037,0.080000,-1752.717264,-0.155892,-1.101444,0.271219,0.000000,-0.000000,0.000000
-1.080000,0.160000,1.420035,0.080000,-1752.674708,-0.287031,-0.970280,0.249559,0.000000,-0.000000,0.000000
-1.000000,0.160000,1.500033,0.080000,-1752.638371,-0.406569,-0.850742,0.227000,-0.000000,-0.000000,0.000000
-0.920000,0.160000,1.580032,0.080000,-1752.607486,-0.514352,-0.742976,0.204235,-0.000000,-0.000000,0.000000
-0.840000,0.160000,1.660030,0.080000,-1752.581365,-0.610519,-0.646839,0.181790,-0.000000,-0.000000,0.000000
-0.760000,0.160000,1.740029,0.080000,-1752.559391,-0.695423,-0.561974,0.160035,-0.000000,-0.000000,0.000000
-0.680000,0.160000,1.820027,0.080000,-1752.541022,-0.769552,-0.487888,0.139214,-0.000000,-0.000000,0.000000
-0.600000,0.160000,1.840679,0.080000,-1752.525783,-0.833475,-0.424009,0.119455,-0.000000,-0.000000,0.000000
-0.520000,0.160000,1.840245,0.080000,-1752.513264,-0.887789,-0.369738,0.100800,-0.000000,0.000000,0.000000
-0.440000,0.160000,1.840027,0.080000,-1752.503118,-0.933084,-0.324483,0.083217,-0.000000,0.000000,0.000000
-0.360000,0.160000,1.840027,0.080000,-1752.495055,-0.969909,-0.287694,0.066619,-0.000000,0.000000,0.000000
-0.280000,0.160000,1.840245,0.080000,-1752.488839,-0.998748,-0.258884,0.050877,-0.000000,0.000000,0.000000
-0.200000,0.160000,1.840679,0.080000,-1752.484285,-1.020008,-0.237646,0.035828,-0.000000,0.000000,0.000000
-0.120000,0.160000,1.840245,0.080000,-1752.481257,-1.034004,-0.223666,0.021289,-0.000000,0.000000,0.000000
-0.040000,0.160000,1.840027,0.080000,-1752.479666,-1.040947,-0.216730,0.007062,-0.000000,0.000000,0.000000
0.040000,0.160000,1.840027,0.080000,-1752.479467,-1.040948,-0.216730,-0.007061,-0.000000,0.000000,-0.000000
0.120000,0.160000,1.840245,0.080000,-1752.480660,-1.034004,-0.223666,-0.021288,-0.000000,0.000000,-0.000000
0.200000,0.160000,1.840679,0.080000,-1752.483289,-1.020009,-0.237645,-0.035827,-0.000000,0.000000,-0.000000
0.280000,0.160000,1.840245,0.080000,-1752.487445,-0.998749,-0.258882,-0.050876,-0.000000,0.000000,-0.000000
0.360000,0.160000,1.840027,0.080000,-1752.493263,-0.969910,-0.287692,-0.066618,-0.000000,0.000000,-0.000000
0.440000,0.160000,1.840027,0.080000,-1752.500927,-0.933087,-0.324481,-0.083216,-0.000000,0.000000,-0.000000
0.520000,0.160000,1.840245,0.080000,-1752.510675,-0.887792,-0.369735,-0.100799,-0.000000,0.000000,-0.000000
0.600000,0.160000,1.840679,0.080000,-1752.522795,-0.833478,-0.424006,-0.119454,-0.000000,-0.000000,-0.000000
0.680000,0.160000,1.820027,0.080000,-1752.537636,-0.769555,-0.487884,-0.139212,-0.000000,-0.000000,-0.000000
0.760000,0.160000,1.740029,0.080000,-1752.555607,-0.695427,-0.561969,-0.160034,-0.000000,-0.000000,-0.000000
0.840000,0.160000,1.660030,0.080000,-1752.577182,-0.610524,-0.646834,-0.181788,-0.000000,-0.000000,-0.000000
0.920000,0.160000,1.580032,0.080000,-1752.602904,-0.514358,-0.742970,-0.204233,-0.000000,-0.000000,-0.000000
1.000000,0.160000,1.500033,0.080000,-1752.633390,-0.406576,-0.850735,-0.226998,-0.000000,-0.000000,-0.000000
1.080000,0.160000,1.420035,0.080000,-1752.669330,-0.287039,-0.970273,-0.249557,0.000000,-0.000000,-0.000000
1.160000,0.160000,1.340037,0.080000,-1752.711487,-0.155901,-1.101435,-0.271217,0.000000,-0.000000,-0.000000
1.240000,0.160000,1.260040,0.080000,-1752.760702,-0.013706,-1.243686,-0.291100,0.000000,-0.000000,-0.000000
1.320000,0.160000,1.180042,0.080000,-1752.817883,0.138516,-1.396001,-0.308146,0.000000,-0.000000,-0.000000
1.400000,0.160000,1.100045,0.080000,-1752.884005,0.299146,-1.556767,-0.321118,0.000000,-0.000000,-0.000000
1.480000,0.160000,1.020049,0.080000,-1752.960094,0.465881,-1.723686,-0.328638,0.000000,-0.000000,-0.000000
1.560000,0.160000,0.940053,0.080000,-1753.047217,0.635660,-1.893700,-0.329242,0.000000,-0.000000,-0.000000
1.640000,0.160000,0.860058,0.080000,-1753.146460,0.804621,-2.062949,-0.321456,0.000000,-0.000000,-0.000000
1.720000,0.160000,0.780064,0.080000,-1753.258901,0.968109,-2.226774,-0.303909,0.000000,-0.000000,-0.000000
1.800000,0.160000,0.700071,0.080000,-1753.385586,1.120743,-2.379786,-0.275466,0.000000,-0.000000,-0.000000
1.880000,0.160000,0.620081,0.080000,-1753.527489,1.256568,-2.516018,-0.235377,0.000000,-0.000000,-0.000000
1.960000,0.160000,0.540093,0.080000,-1753.685479,1.370059,-2.631814,-0.182638,0.000000,-0.000000,-0.000000
2.040000,0.160000,0.460109,0.080000,-1753.860274,1.453238,-2.713694,-0.120681,0.000000,-0.000000,-0.000000
2.120000,0.160000,0.380132,0.080000,-1754.052406,1.500525,-2.757966,-0.045770,0.000000,-0.000000,-0.000000
-2.120000,0.240000,0.380132,0.080000,-1754.039353,1.599434,-2.857153,0.081731,0.000000,-0.000000,0.000000
-2.040000,0.240000,0.460109,0.080000,-1753.847524,1.540106,-2.800793,0.193854,0.000000,-0.000000,0.000000
-1.960000,0.240000,0.540093,0.080000,-1753.673587,1.442873,-2.704977,0.288259,0.000000,-0.000000,0.000000
-1.880000,0.240000,0.620081,0.080000,-1753.516920,1.314208,-2.573639,0.367953,0.000000,-0.000000,0.000000
-1.800000,0.240000,0.700071,0.080000,-1753.376708,1.163266,-2.422247,0.427809,0.000000,-0.000000,0.000000
-1.720000,0.240000,0.780064,0.080000,-1753.251986,0.996220,-2.254791,0.469523,0.000000,-0.000000,0.000000
-1.640000,0.240000,0.860058,0.080000,-1753.141689,0.819604,-2.077818,0.494412,0.000000,-0.000000,0.000000
-1.560000,0.240000,0.940053,0.080000,-1753.044686,0.639181,-1.897098,0.504366,0.000000,-0.000000,0.000000
-1.480000,0.240000,1.020049,0.080000,-1752.959826,0.459802,-1.717482,0.501610,0.000000,-0.000000,0.000000
-1.400000,0.240000,1.100045,0.080000,-1752.885962,0.285370,-1.542873,0.488489,0.000000,-0.000000,0.000000
-1.320000,0.240000,1.180042,0.080000,-1752.821977,0.118866,-1.376245,0.467304,0.000000,-0.000000,0.000000
-1.240000,0.240000,1.260040,0.080000,-1752.766808,-0.037567,-1.219733,0.440190,0.000000,-0.000000,0.000000
-1.160000,0.240000,1.340037,0.080000,-1752.719453,-0.182523,-1.074737,0.409036,0.000000,-0.000000,0.000000
-1.080000,0.240000,1.420035,0.080000,-1752.678986,-0.315207,-0.942044,0.375451,0.000000,-0.000000,0.000000
-1.000000,0.240000,1.500033,0.080000,-1752.644556,-0.435314,-0.821950,0.340745,-0.000000,-0.000000,0.000000
-0.920000,0.240000,1.580032,0.080000,-1752.615396,-0.542914,-0.714380,0.305943,-0.000000,-0.000000,0.000000
-0.840000,0.240000,1.660030,0.080000,-1752.590817,-0.638353,-0.618983,0.271811,-0.000000,-0.000000,0.000000
-0.760000,0.240000,1.740029,0.080000,-1752.570207,-0.722159,-0.535225,0.238881,-0.000000,-0.000000,0.000000
-0.680000,0.240000,1.760256,0.080000,-1752.553031,-0.794973,-0.462463,0.207486,-0.000000,-0.000000,0.000000
-0.600000,0.240000,1.760710,0.080000,-1752.538822,-0.857486,-0.400000,0.177799,-0.000000,-0.000000,0.000000
-0.520000,0.240000,1.760256,0.080000,-1752.527180,-0.910397,-0.347137,0.149856,-0.000000,0.000000,0.000000
-0.440000,0.240000,1.760028,0.080000,-1752.517766,-0.954373,-0.303205,0.123592,-0.000000,0.000000,0.000000
-0.360000,0.240000,1.760028,0.080000,-1752.510299,-0.990023,-0.267594,0.098858,-0.000000,0.000000,0.000000
-0.280000,0.240000,1.760256,0.080000,-1752.504550,-1.017876,-0.239772,0.075447,-0.000000,0.000000,0.000000
-0.200000,0.240000,1.760710,0.080000,-1752.500340,-1.038371,-0.219301,0.053103,-0.000000,0.000000,0.000000
-0.120000,0.240000,1.760256,0.080000,-1752.497539,-1.051845,-0.205843,0.031543,-0.000000,0.000000,0.000000
-0.040000,0.240000,1.760028,0.080000,-1752.496061,-1.058525,-0.199172,0.010461,-0.000000,0.000000,0.000000
0.040000,0.240000,1.760028,0.080000,-1752.495861,-1.058525,-0.199172,-0.010460,-0.000000,0.000000,-0.000000
0.120000,0.240000,1.760256,0.080000,-1752.496942,-1.051846,-0.205843,-0.031542,-0.000000,0.000000,-0.000000
0.200000,0.240000,1.760710,0.080000,-1752.499344,-1.038372,-0.219300,-0.053102,-0.000000,0.000000,-0.000000
0.280000,0.240000,1.760256,0.080000,-1752.503155,-1.017877,-0.239771,-0.075445,-0.000000,0.000000,-0.000000
0.360000,0.240000,1.760028,0.080000,-1752.508506,-0.990024,-0.267592,-0.098857,-0.000000,0.000000,-0.000000
0.440000,0.240000,1.760028,0.080000,-1752.515576,-0.954375,-0.303203,-0.123591,-0.000000,0.000000,-0.000000
0.520000,0.240000,1.760256,0.080000,-1752.524591,-0.910400,-0.347134,-0.149855,-0.000000,0.000000,-0.000000
0.600000,0.240000,1.760710,0.080000,-1752.535835,-0.857489,-0.399997,-0.177797,-0.000000,-0.000000,-0.000000
0.680000,0.240000,1.760256,0.080000,-1752.549645,-0.794976,-0.462459,-0.207484,-0.000000,-0.000000,-0.000000
0.760000,0.240000,1.740029,0.080000,-1752.566423,-0.722163,-0.535221,-0.238879,-0.000000,-0.000000,-0.000000
0.840000,0.240000,1.660030,0.080000,-1752.586634,-0.638358,-0.618978,-0.271809,-0.000000,-0.000000,-0.000000
0.920000,0.240000,1.580032,0.080000,-1752.610815,-0.542920,-0.714374,-0.305941,-0.000000,-0.000000,-0.000000
1.000000,0.240000,1.500033,0.080000,-1752.639576,-0.435320,-0.821944,-0.340742,-0.000000,-0.000000,-0.000000
1.080000,0.240000,1.420035,0.080000,-1752.673607,-0.315214,-0.942036,-0.375448,0.000000,-0.000000,-0.000000
1.160000,0.240000,1.340037,0.080000,-1752.713676,-0.182532,-1.074728,-0.409033,0.000000,-0.000000,-0.000000
1.240000,0.240000,1.260040,0.080000,-1752.760632,-0.037577,-1.219723,-0.440186,0.000000,-0.000000,-0.000000
1.320000,0.240000,1.180042,0.080000,-1752.815403,0.118855,-1.376234,-0.467300,0.000000,-0.000000,-0.000000
1.400000,0.240000,1.100045,0.080000,-1752.878988,0.285357,-1.542860,-0.488485,0.000000,-0.000000,-0.000000
1.480000,0.240000,1.020049,0.080000,-1752.952454,0.459787,-1.717468,-0.501605,0.000000,-0.000000,-0.000000
1.560000,0.240000,0.940053,0.080000,-1753.036915,0.639165,-1.897082,-0.504361,0.000000,-0.000000,-0.000000
1.640000,0.240000,0.860058,0.080000,-1753.133518,0.819587,-2.077801,-0.494407,0.000000,-0.000000,-0.000000
1.720000,0.240000,0.780064,0.080000,-1753.243417,0.996201,-2.254771,-0.469519,0.000000,-0.000000,-0.000000
1.800000,0.240000,0.700071,0.080000,-1753.367739,1.163245,-2.422226,-0.427805,0.000000,-0.000000,-0.000000
1.880000,0.240000,0.620081,0.080000,-1753.507552,1.314186,-2.573616,-0.367949,0.000000,-0.000000,-0.000000
1.960000,0.240000,0.540093,0.080000,-1753.663819,1.442849,-2.704953,-0.288256,0.000000,-0.000000,-0.000000
2.040000,0.240000,0.460109,0.080000,-1753.837357,1.540081,-2.800769,-0.193851,0.000000,-0.000000,-0.000000
2.120000,0.240000,0.380132,0.080000,-1754.028785,1.599409,-2.857127,-0.081729,0.000000,-0.000000,-0.000000
-2.120000,0.320000,0.381182,0.080000,-1754.005465,1.743735,-3.005335,0.129534,0.000000,-0.000000,0.000000
-2.040000,0.320000,0.460977,0.080000,-1753.814728,1.664563,-2.925616,0.283528,0.000000,-0.000000,0.000000
-1.960000,0.320000,0.540833,0.080000,-1753.642677,1.546203,-2.808820,0.412125,0.000000,-0.000000,0.000000
-1.880000,0.320000,0.620725,0.080000,-1753.488555,1.394976,-2.654367,0.519339,0.000000,-0.000000,0.000000
-1.800000,0.320000,0.700643,0.080000,-1753.351404,1.221790,-2.480668,0.598432,0.000000,-0.000000,0.000000
-1.720000,0.320000,0.780577,0.080000,-1753.230119,1.033756,-2.292179,0.652057,0.000000,-0.000000,0.000000
-1.640000,0.320000,0.860523,0.080000,-1753.123499,0.838230,-2.096270,0.682355,0.000000,-0.000000,0.000000
-1.560000,0.320000,0.940479,0.080000,-1753.030294,0.641487,-1.899218,0.692218,0.000000,-0.000000,0.000000
-1.480000,0.320000,1.020441,0.080000,-1752.949247,0.448611,-1.706110,0.684936,0.000000,-0.000000,0.000000
-1.400000,0.320000,1.100409,0.080000,-1752.879125,0.263514,-1.520847,0.663895,0.000000,-0.000000,0.000000
-1.320000,0.320000,1.180381,0.080000,-1752.818743,0.089016,-1.346243,0.632350,0.000000,-0.000000,0.000000
-1.240000,0.320000,1.260357,0.080000,-1752.766987,-0.073014,-1.184157,0.593270,0.000000,-0.000000,0.000000
-1.160000,0.320000,1.340336,0.080000,-1752.722819,-0.221505,-1.035649,0.549238,0.000000,-0.000000,0.000000
-1.080000,0.320000,1.420317,0.080000,-1752.685289,-0.356020,-0.901146,0.502417,0.000000,-0.000000,0.000000
-1.000000,0.320000,1.500300,0.080000,-1752.653537,-0.476608,-0.780592,0.454542,-0.000000,-0.000000,0.000000
-0.920000,0.320000,1.580285,0.080000,-1752.626790,-0.583669,-0.673581,0.406946,-0.000000,-0.000000,0.000000
-0.840000,0.320000,1.660271,0.080000,-1752.604363,-0.677838,-0.579469,0.360600,-0.000000,-0.000000,0.000000
-0.760000,0.320000,1.680030,0.080000,-1752.585653,-0.759896,-0.497473,0.316164,-0.000000,-0.000000,0.000000
-0.680000,0.320000,1.680268,0.080000,-1752.570136,-0.830694,-0.426737,0.274031,-0.000000,-0.000000,0.000000
-0.600000,0.320000,1.680744,0.080000,-1752.557357,-0.891095,-0.366395,0.234381,-0.000000,0.000000,0.000000
-0.520000,0.320000,1.680268,0.080000,-1752.546930,-0.941932,-0.315614,0.197221,-0.000000,0.000000,0.000000
-0.440000,0.320000,1.680030,0.080000,-1752.538529,-0.983977,-0.273618,0.162427,-0.000000,0.000000,0.000000
-0.360000,0.320000,1.680030,0.080000,-1752.531884,-1.017918,-0.239719,0.129769,-0.000000,0.000000,0.000000
-0.280000,0.320000,1.680268,0.080000,-1752.526780,-1.044345,-0.213326,0.098944,-0.000000,0.000000,0.000000
-0.200000,0.320000,1.680744,0.080000,-1752.523046,-1.063739,-0.193959,0.069592,-0.000000,0.000000,0.000000
-0.120000,0.320000,1.680268,0.080000,-1752.520558,-1.076464,-0.181251,0.041318,-0.000000,0.000000,0.000000
-0.040000,0.320000,1.680030,0.080000,-1752.519234,-1.082765,-0.174959,0.013700,-0.000000,0.000000,0.000000
0.040000,0.320000,1.680030,0.080000,-1752.519035,-1.082765,-0.174959,-0.013699,-0.000000,0.000000,-0.000000
0.120000,0.320000,1.680268,0.080000,-1752.519960,-1.076464,-0.181251,-0.041317,-0.000000,0.000000,-0.000000
0.200000,0.320000,1.680744,0.080000,-1752.522050,-1.063740,-0.193958,-0.069591,-0.000000,0.000000,-0.000000
0.280000,0.320000,1.680268,0.080000,-1752.525386,-1.044346,-0.213325,-0.098942,-0.000000,0.000000,-0.000000
0.360000,0.320000,1.680030,0.080000,-1752.530092,-1.017920,-0.239717,-0.129767,-0.000000,0.000000,-0.000000
0.440000,0.320000,1.680030,0.080000,-1752.536338,-0.983979,-0.273616,-0.162425,-0.000000,0.000000,-0.000000
0.520000,0.320000,1.680268,0.080000,-1752.544340,-0.941934,-0.315611,-0.197219,-0.000000,0.000000,-0.000000
0.600000,0.320000,1.680744,0.080000,-1752.554369,-0.891098,-0.366393,-0.234378,-0.000000,0.000000,-0.000000
0.680000,0.320000,1.680268,0.080000,-1752.566750,-0.830698,-0.426733,-0.274028,-0.000000,-0.000000,-0.000000
0.760000,0.320000,1.680030,0.080000,-1752.581869,-0.759900,-0.497469,-0.316161,-0.000000,-0.000000,-0.000000
0.840000,0.320000,1.660271,0.080000,-1752.600180,-0.677842,-0.579465,-0.360597,-0.000000,-0.000000,-0.000000
0.920000,0.320000,1.580285,0.080000,-1752.622208,-0.583674,-0.673576,-0.406942,-0.000000,-0.000000,-0.000000
1.000000,0.320000,1.500300,0.080000,-1752.648557,-0.476615,-0.780586,-0.454538,-0.000000,-0.000000,-0.000000
1.080000,0.320000,1.420317,0.080000,-1752.679911,-0.356028,-0.901139,-0.502412,0.000000,-0.000000,-0.000000
1.160000,0.320000,1.340336,0.080000,-1752.717042,-0.221513,-1.035640,-0.549233,0.000000,-0.000000,-0.000000
1.240000,0.320000,1.260357,0.080000,-1752.760811,-0.073024,-1.184147,-0.593264,0.000000,-0.000000,-0.000000
1.320000,0.320000,1.180381,0.080000,-1752.812169,0.089005,-1.346232,-0.632345,0.000000,-0.000000,-0.000000
1.400000,0.320000,1.100409,0.080000,-1752.872152,0.263501,-1.520835,-0.663889,0.000000,-0.000000,-0.000000
1.480000,0.320000,1.020441,0.080000,-1752.941875,0.448597,-1.706095,-0.684930,0.000000,-0.000000,-0.000000
1.560000,0.320000,0.940479,0.080000,-1753.022523,0.641471,-1.899202,-0.692212,0.000000,-0.000000,-0.000000
1.640000,0.320000,0.860523,0.080000,-1753.115329,0.838213,-2.096252,-0.682349,0.000000,-0.000000,-0.000000
1.720000,0.320000,0.780577,0.080000,-1753.221550,1.033736,-2.292159,-0.652051,0.000000,-0.000000,-0.000000
1.800000,0.320000,0.700643,0.080000,-1753.342436,1.221769,-2.480647,-0.598427,0.000000,-0.000000,-0.000000
1.880000,0.320000,0.620725,0.080000,-1753.479187,1.394954,-2.654344,-0.519334,0.000000,-0.000000,-0.000000
1.960000,0.320000,0.540833,0.080000,-1753.632909,1.546179,-2.808796,-0.412121,0.000000,-0.000000,-0.000000
2.040000,0.320000,0.460977,0.080000,-1753.804561,1.664538,-2.925590,-0.283524,0.000000,-0.000000,-0.000000
2.120000,0.320000,0.381182,0.080000,-1753.994897,1.743708,-3.005309,-0.129531,0.000000,-0.000000,-0.000000
-2.120000,0.400000,0.383275,0.080000,-1753.960395,1.935805,-3.200140,0.194610,0.000000,-0.000000,0.000000
-2.040000,0.400000,0.462709,0.080000,-1753.771256,1.829487,-3.091026,0.397232,0.000000,-0.000000,0.000000
-1.960000,0.400000,0.542310,0.080000,-1753.601855,1.681336,-2.944654,0.562236,0.000000,-0.000000,0.000000
-1.880000,0.400000,0.622013,0.080000,-1753.451245,1.498726,-2.758039,0.697454,0.000000,-0.000000,0.000000
-1.800000,0.400000,0.701783,0.080000,-1753.318271,1.295027,-2.553741,0.794716,0.000000,-0.000000,0.000000
-1.720000,0.400000,0.781601,0.080000,-1753.201631,1.078606,-2.336808,0.858046,0.000000,-0.000000,0.000000
-1.640000,0.400000,0.861452,0.080000,-1753.099944,0.857881,-2.115669,0.890800,0.000000,-0.000000,0.000000
-1.560000,0.400000,0.941329,0.080000,-1753.011799,0.639732,-1.897204,0.897233,0.000000,-0.000000,0.000000
-1.480000,0.400000,1.021225,0.080000,-1752.935803,0.429465,-1.686713,0.882000,0.000000,-0.000000,0.000000
-1.400000,0.400000,1.101136,0.080000,-1752.870609,0.230904,-1.488007,0.849757,0.000000,-0.000000,0.000000
-1.320000,0.400000,1.181059,0.080000,-1752.814949,0.046570,-1.303596,0.804870,0.000000,-0.000000,0.000000
-1.240000,0.400000,1.260992,0.080000,-1752.767643,-0.122103,-1.134898,0.751231,0.000000,-0.000000,0.000000
-1.160000,0.400000,1.340933,0.080000,-1752.727613,-0.274541,-0.982476,0.692160,0.000000,-0.000000,0.000000
-1.080000,0.400000,1.420880,0.080000,-1752.693881,-0.410817,-0.846244,0.630372,-0.000000,-0.000000,0.000000
-1.000000,0.400000,1.500833,0.080000,-1752.665577,-0.531469,-0.725655,0.568001,-0.000000,-0.000000,0.000000
-0.920000,0.400000,1.580791,0.080000,-1752.641928,-0.637337,-0.619859,0.506646,-0.000000,-0.000000,0.000000
-0.840000,0.400000,1.600031,0.080000,-1752.622256,-0.729444,-0.527831,0.447438,-0.000000,-0.000000,0.000000
-0.760000,0.400000,1.600031,0.080000,-1752.605971,-0.808896,-0.448458,0.391109,-0.000000,-0.000000,0.000000
-0.680000,0.400000,1.600281,0.080000,-1752.592564,-0.876809,-0.380621,0.338065,-0.000000,-0.000000,0.000000
-0.600000,0.400000,1.600781,0.080000,-1752.581601,-0.934259,-0.323241,0.288451,-0.000000,0.000000,0.000000
-0.520000,0.400000,1.600281,0.080000,-1752.572713,-0.982246,-0.275317,0.242206,-0.000000,0.000000,0.000000
-0.440000,0.400000,1.600031,0.080000,-1752.565594,-1.021669,-0.235950,0.199113,-0.000000,0.000000,0.000000
-0.360000,0.400000,1.600031,0.080000,-1752.559990,-1.053311,-0.204354,0.158838,-0.000000,0.000000,0.000000
-0.280000,0.400000,1.600281,0.080000,-1752.555699,-1.077831,-0.179872,0.120961,-0.000000,0.000000,0.000000
-0.200000,0.400000,1.600781,0.080000,-1752.552564,-1.095757,-0.161974,0.085000,-0.000000,0.000000,0.000000
-0.120000,0.400000,1.600281,0.080000,-1752.550470,-1.107487,-0.150263,0.050436,-0.000000,0.000000,0.000000
-0.040000,0.400000,1.600031,0.080000,-1752.549342,-1.113286,-0.144474,0.016718,-0.000000,0.000000,0.000000
0.040000,0.400000,1.600031,0.080000,-1752.549143,-1.113286,-0.144474,-0.016716,-0.000000,0.000000,-0.000000
0.120000,0.400000,1.600281,0.080000,-1752.549873,-1.107488,-0.150263,-0.050434,-0.000000,0.000000,-0.000000
0.200000,0.400000,1.600781,0.080000,-1752.551568,-1.095758,-0.161974,-0.084999,-0.000000,0.000000,-0.000000
0.280000,0.400000,1.600281,0.080000,-1752.554305,-1.077832,-0.179871,-0.120959,-0.000000,0.000000,-0.000000
0.360000,0.400000,1.600031,0.080000,-1752.558198,-1.053312,-0.204353,-0.158836,-0.000000,0.000000,-0.000000
0.440000,0.400000,1.600031,0.080000,-1752.563403,-1.021670,-0.235948,-0.199111,-0.000000,0.000000,-0.000000
0.520000,0.400000,1.600281,0.080000,-1752.570124,-0.982248,-0.275315,-0.242204,-0.000000,0.000000,-0.000000
0.600000,0.400000,1.600781,0.080000,-1752.578613,-0.934261,-0.323239,-0.288448,-0.000000,0.000000,-0.000000
0.680000,0.400000,1.600281,0.080000,-1752.589178,-0.876812,-0.380618,-0.338062,-0.000000,-0.000000,-0.000000
0.760000,0.400000,1.600031,0.080000,-1752.602187,-0.808899,-0.448454,-0.391105,-0.000000,-0.000000,-0.000000
0.840000,0.400000,1.600031,0.080000,-1752.618073,-0.729449,-0.527826,-0.447434,-0.000000,-0.000000,-0.000000
0.920000,0.400000,1.580791,0.080000,-1752.637347,-0.637342,-0.619855,-0.506642,-0.000000,-0.000000,-0.000000
1.000000,0.400000,1.500833,0.080000,-1752.660598,-0.531475,-0.725649,-0.567996,-0.000000,-0.000000,-0.000000
1.080000,0.400000,1.420880,0.080000,-1752.688503,-0.410824,-0.846237,-0.630366,-0.000000,-0.000000,-0.000000
1.160000,0.400000,1.340933,0.080000,-1752.721836,-0.274549,-0.982468,-0.692154,0.000000,-0.000000,-0.000000
1.240000,0.400000,1.260992,0.080000,-1752.761468,-0.122113,-1.134889,-0.751225,0.000000,-0.000000,-0.000000
1.320000,0.400000,1.181059,0.080000,-1752.808375,0.046559,-1.303585,-0.804863,0.000000,-0.000000,-0.000000
1.400000,0.400000,1.101136,0.080000,-1752.863636,0.230892,-1.487995,-0.849750,0.000000,-0.000000,-0.000000
1.480000,0.400000,1.021225,0.080000,-1752.928431,0.429451,-1.686699,-0.881993,0.000000,-0.000000,-0.000000
1.560000,0.400000,0.941329,0.080000,-1753.004029,0.639717,-1.897188,-0.897225,0.000000,-0.000000,-0.000000
1.640000,0.400000,0.861452,0.080000,-1753.091775,0.857863,-2.115651,-0.890792,0.000000,-0.000000,-0.000000
1.720000,0.400000,0.781601,0.080000,-1753.193062,1.078586,-2.336788,-0.858038,0.000000,-0.000000,-0.000000
1.800000,0.400000,0.701783,0.080000,-1753.309303,1.295005,-2.553720,-0.794709,0.000000,-0.000000,-0.000000
1.880000,0.400000,0.622013,0.080000,-1753.441878,1.498703,-2.758016,-0.697447,0.000000,-0.000000,-0.000000
1.960000,0.400000,0.542310,0.080000,-1753.592088,1.681311,-2.944629,-0.562230,0.000000,-0.000000,-0.000000
2.040000,0.400000,0.462709,0.080000,-1753.761090,1.829460,-3.091000,-0.397227,0.000000,-0.000000,-0.000000
2.120000,0.400000,0.383275,0.080000,-1753.949828,1.935777,-3.200112,-0.194607,0.000000,-0.000000,-0.000000
-2.120000,0.480000,0.381182,0.080000,-1753.902918,2.180380,-3.443410,0.287852,0.000000,-0.000000,0.000000
-2.040000,0.480000,0.460977,0.080000,-1753.716053,2.038509,-3.300665,0.544529,0.000000,-0.000000,0.000000
-1.960000,0.480000,0.540833,0.080000,-1753.550257,1.849606,-3.113846,0.748433,0.000000,-0.000000,0.000000
-1.880000,0.480000,0.620725,0.080000,-1753.404327,1.624790,-2.883961,0.911741,0.000000,-0.000000,0.000000
-1.800000,0.480000,0.700643,0.080000,-1753.276840,1.380769,-2.639232,1.025180,0.000000,-0.000000,0.000000
-1.720000,0.480000,0.780577,0.080000,-1753.166237,1.127507,-2.385389,1.094763,0.000000,-0.000000,0.000000
-1.640000,0.480000,0.860523,0.080000,-1753.070901,0.874696,-2.132132,1.125635,0.000000,-0.000000,0.000000
-1.560000,0.480000,0.940479,0.080000,-1752.989216,0.629854,-1.886973,1.123916,0.000000,-0.000000,0.000000
-1.480000,0.480000,1.020441,0.080000,-1752.919618,0.398400,-1.655316,1.096028,0.000000,-0.000000,0.000000
-1.400000,0.480000,1.100409,0.080000,-1752.860626,0.183890,-1.440697,1.048186,0.000000,-0.000000,0.000000
-1.320000,0.480000,1.180381,0.080000,-1752.810868,-0.011678,-1.245094,0.986049,0.000000,-0.000000,0.000000
-1.240000,0.480000,1.260357,0.080000,-1752.769093,-0.187533,-1.069260,0.914528,0.000000,-0.000000,0.000000
-1.160000,0.480000,1.340336,0.080000,-1752.734175,-0.343812,-0.913041,0.837703,0.000000,-0.000000,0.000000
-1.080000,0.480000,1.420317,0.080000,-1752.705114,-0.481288,-0.775649,0.758823,-0.000000,-0.000000,0.000000
-1.000000,0.480000,1.500300,0.080000,-1752.681030,-0.601141,-0.655894,0.680369,-0.000000,-0.000000,0.000000
-0.920000,0.480000,1.520296,0.080000,-1752.661155,-0.704780,-0.552359,0.604137,-0.000000,-0.000000,0.000000
-0.840000,0.480000,1.520033,0.080000,-1752.644826,-0.793708,-0.463534,0.531344,-0.000000,-0.000000,0.000000
-0.760000,0.480000,1.520033,0.080000,-1752.631473,-0.869428,-0.387914,0.462727,-0.000000,-0.000000,0.000000
-0.680000,0.480000,1.520296,0.080000,-1752.620612,-0.933373,-0.324060,0.398637,-0.000000,0.000000,0.000000
-0.600000,0.480000,1.520822,0.080000,-1752.611831,-0.986869,-0.270647,0.339127,-0.000000,0.000000,0.000000
-0.520000,0.480000,1.520296,0.080000,-1752.604790,-1.031105,-0.226483,0.284021,-0.000000,0.000000,0.000000
-0.440000,0.480000,1.520033,0.080000,-1752.599203,-1.067122,-0.190529,0.232969,-0.000000,0.000000,0.000000
-0.360000,0.480000,1.520033,0.080000,-1752.594842,-1.095806,-0.161897,0.185500,-0.000000,0.000000,0.000000
-0.280000,0.480000,1.520296,0.080000,-1752.591521,-1.117890,-0.139855,0.141054,-0.000000,0.000000,0.000000
-0.200000,0.480000,1.520822,0.080000,-1752.589100,-1.133951,-0.123824,0.099009,-0.000000,0.000000,0.000000
-0.120000,0.480000,1.520296,0.080000,-1752.587475,-1.144422,-0.113374,0.058704,-0.000000,0.000000,0.000000
-0.040000,0.480000,1.520033,0.080000,-1752.586579,-1.149587,-0.108219,0.019451,-0.000000,0.000000,0.000000
0.040000,0.480000,1.520033,0.080000,-1752.586380,-1.149587,-0.108219,-0.019449,-0.000000,0.000000,-0.000000
0.120000,0.480000,1.520296,0.080000,-1752.586877,-1.144422,-0.113373,-0.058702,-0.000000,0.000000,-0.000000
0.200000,0.480000,1.520822,0.080000,-1752.588104,-1.133952,-0.123823,-0.099007,-0.000000,0.000000,-0.000000
0.280000,0.480000,1.520296,0.080000,-1752.590127,-1.117890,-0.139854,-0.141052,-0.000000,0.000000,-0.000000
0.360000,0.480000,1.520033,0.080000,-1752.593049,-1.095807,-0.161896,-0.185498,-0.000000,0.000000,-0.000000
0.440000,0.480000,1.520033,0.080000,-1752.597013,-1.067124,-0.190528,-0.232967,-0.000000,0.000000,-0.000000
0.520000,0.480000,1.520296,0.080000,-1752.602201,-1.031107,-0.226482,-0.284018,-0.000000,0.000000,-0.000000
0.600000,0.480000,1.520822,0.080000,-1752.608844,-0.986871,-0.270645,-0.339124,-0.000000,0.000000,-0.000000
0.680000,0.480000,1.520296,0.080000,-1752.617226,-0.933376,-0.324057,-0.398634,-0.000000,0.000000,-0.000000
0.760000,0.480000,1.520033,0.080000,-1752.627689,-0.869431,-0.387911,-0.462723,-0.000000,-0.000000,-0.000000
0.840000,0.480000,1.520033,0.080000,-1752.640644,-0.793712,-0.463531,-0.531340,-0.000000,-0.000000,-0.000000
0.920000,0.480000,1.520296,0.080000,-1752.656574,-0.704784,-0.552355,-0.604132,-0.000000,-0.000000,-0.000000
1.000000,0.480000,1.500300,0.080000,-1752.676051,-0.601146,-0.655889,-0.680363,-0.000000,-0.000000,-0.000000
1.080000,0.480000,1.420317,0.080000,-1752.699736,-0.481294,-0.775643,-0.758816,-0.000000,-0.000000,-0.000000
1.160000,0.480000,1.340336,0.080000,-1752.728399,-0.343819,-0.913034,-0.837695,0.000000,-0.000000,-0.000000
1.240000,0.480000,1.260357,0.080000,-1752.762918,-0.187542,-1.069252,-0.914520,0.000000,-0.000000,-0.000000
1.320000,0.480000,1.180381,0.080000,-1752.804294,-0.011688,-1.245084,-0.986040,0.000000,-0.000000,-0.000000
1.400000,0.480000,1.100409,0.080000,-1752.853654,0.183879,-1.440685,-1.048176,0.000000,-0.000000,-0.000000
1.480000,0.480000,1.020441,0.080000,-1752.912247,0.398387,-1.655302,-1.096019,0.000000,-0.000000,-0.000000
1.560000,0.480000,0.940479,0.080000,-1752.981446,0.629838,-1.886957,-1.123906,0.000000,-0.000000,-0.000000
1.640000,0.480000,0.860523,0.080000,-1753.062732,0.874678,-2.132114,-1.125624,0.000000,-0.000000,-0.000000
1.720000,0.480000,0.780577,0.080000,-1753.157669,1.127487,-2.385369,-1.094753,0.000000,-0.000000,-0.000000
1.800000,0.480000,0.700643,0.080000,-1753.267873,1.380747,-2.639209,-1.025170,0.000000,-0.000000,-0.000000
1.880000,0.480000,0.620725,0.080000,-1753.394961,1.624766,-2.883937,-0.911732,0.000000,-0.000000,-0.000000
1.960000,0.480000,0.540833,0.080000,-1753.540491,1.849580,-3.113820,-0.748425,0.000000,-0.000000,-0.000000
2.040000,0.480000,0.460977,0.080000,-1753.705887,2.038481,-3.300636,-0.544522,0.000000,-0.000000,-0.000000
2.120000,0.480000,0.381182,0.080000,-1753.892353,2.180350,-3.443380,-0.287847,0.000000,-0.000000,-0.000000
-2.120000,0.560000,0.380132,0.080000,-1753.831462,2.486557,-3.747260,0.423048,0.000000,-0.000000,0.000000
-2.040000,0.560000,0.460109,0.080000,-1753.647780,2.295938,-3.558893,0.737861,0.000000,-0.000000,0.000000
-1.960000,0.560000,0.540093,0.080000,-1753.486809,2.052088,-3.317511,0.983122,0.000000,-0.000000,0.000000
-1.880000,0.560000,0.620081,0.080000,-1753.346996,1.771544,-3.030468,1.173693,0.000000,-0.000000,0.000000
-1.800000,0.560000,0.700071,0.080000,-1753.226566,1.475416,-2.733497,1.299798,0.000000,-0.000000,0.000000
-1.720000,0.560000,0.780064,0.080000,-1753.123627,1.175596,-2.433021,1.370354,0.000000,-0.000000,0.000000
-1.640000,0.560000,0.860058,0.080000,-1753.036265,0.883196,-2.140151,1.393110,0.000000,-0.000000,0.000000
-1.560000,0.560000,0.940053,0.080000,-1752.962612,0.606279,-1.862931,1.376732,0.000000,-0.000000,0.000000
-1.480000,0.560000,1.020049,0.080000,-1752.900896,0.350137,-1.606626,1.329920,0.000000,-0.000000,0.000000
-1.400000,0.560000,1.100045,0.080000,-1752.849479,0.117736,-1.374172,1.260785,0.000000,-0.000000,0.000000
-1.320000,0.560000,1.180042,0.080000,-1752.806876,-0.089787,-1.166677,1.176475,0.000000,-0.000000,0.000000
-1.240000,0.560000,1.260040,0.080000,-1752.771757,-0.272641,-0.983906,1.082994,0.000000,-0.000000,0.000000
-1.160000,0.560000,1.340037,0.080000,-1752.742951,-0.431951,-0.824713,0.985174,-0.000000,-0.000000,0.000000
-1.080000,0.560000,1.420035,0.080000,-1752.719440,-0.569417,-0.687383,0.886738,-0.000000,-0.000000,0.000000
-1.000000,0.560000,1.440868,0.080000,-1752.700342,-0.687041,-0.569900,0.790420,-0.000000,-0.000000,0.000000
-0.920000,0.560000,1.440312,0.080000,-1752.684904,-0.786932,-0.470150,0.698113,-0.000000,-0.000000,0.000000
-0.840000,0.560000,1.440035,0.080000,-1752.672486,-0.871169,-0.386045,0.611014,-0.000000,-0.000000,0.000000
-0.760000,0.560000,1.440035,0.080000,-1752.662549,-0.941716,-0.315621,0.529769,-0.000000,0.000000,0.000000
-0.680000,0.560000,1.440312,0.080000,-1752.654640,-1.000365,-0.257080,0.454593,-0.000000,0.000000,0.000000
-0.600000,0.560000,1.440868,0.080000,-1752.648384,-1.048716,-0.208826,0.385374,-0.000000,0.000000,0.000000
-0.520000,0.560000,1.440312,0.080000,-1752.643471,-1.088160,-0.169465,0.321761,-0.000000,0.000000,0.000000
-0.440000,0.560000,1.440035,0.080000,-1752.639648,-1.119884,-0.137810,0.263229,-0.000000,0.000000,0.000000
-0.360000,0.560000,1.440035,0.080000,-1752.636712,-1.144879,-0.112872,0.209131,-0.000000,0.000000,0.000000
-0.280000,0.560000,1.440312,0.080000,-1752.634502,-1.163947,-0.093849,0.158740,-0.000000,0.000000,0.000000
-0.200000,0.560000,1.440868,0.080000,-1752.632897,-1.177714,-0.080115,0.111274,-0.000000,0.000000,0.000000
-0.120000,0.560000,1.440312,0.080000,-1752.631808,-1.186641,-0.071210,0.065917,-0.000000,0.000000,0.000000
-0.040000,0.560000,1.440035,0.080000,-1752.631178,-1.191030,-0.066832,0.021831,-0.000000,0.000000,0.000000
0.040000,0.560000,1.440035,0.080000,-1752.630979,-1.191030,-0.066832,-0.021829,-0.000000,0.000000,-0.000000
0.120000,0.560000,1.440312,0.080000,-1752.631210,-1.186642,-0.071209,-0.065915,-0.000000,0.000000,-0.000000
0.200000,0.560000,1.440868,0.080000,-1752.631901,-1.177715,-0.080115,-0.111272,-0.000000,0.000000,-0.000000
0.280000,0.560000,1.440312,0.080000,-1752.633108,-1.163947,-0.093849,-0.158738,-0.000000,0.000000,-0.000000
0.360000,0.560000,1.440035,0.080000,-1752.634919,-1.144880,-0.112872,-0.209129,-0.000000,0.000000,-0.000000
0.440000,0.560000,1.440035,0.080000,-1752.637457,-1.119885,-0.137809,-0.263226,-0.000000,0.000000,-0.000000
0.520000,0.560000,1.440312,0.080000,-1752.640882,-1.088161,-0.169463,-0.321758,-0.000000,0.000000,-0.000000
0.600000,0.560000,1.440868,0.080000,-1752.645397,-1.048718,-0.208824,-0.385371,-0.000000,0.000000,-0.000000
0.680000,0.560000,1.440312,0.080000,-1752.651254,-1.000367,-0.257078,-0.454589,-0.000000,0.000000,-0.000000
0.760000,0.560000,1.440035,0.080000,-1752.658765,-0.941718,-0.315618,-0.529765,-0.000000,0.000000,-0.000000
0.840000,0.560000,1.440035,0.080000,-1752.668304,-0.871172,-0.386042,-0.611009,-0.000000,-0.000000,-0.000000
0.920000,0.560000,1.440312,0.080000,-1752.680323,-0.786936,-0.470146,-0.698106,-0.000000,-0.000000,-0.000000
1.000000,0.560000,1.440868,0.080000,-1752.695363,-0.687046,-0.569896,-0.790413,-0.000000,-0.000000,-0.000000
1.080000,0.560000,1.420035,0.080000,-1752.714062,-0.569423,-0.687377,-0.886730,-0.000000,-0.000000,-0.000000
1.160000,0.560000,1.340037,0.080000,-1752.737175,-0.431958,-0.824707,-0.985166,-0.000000,-0.000000,-0.000000
1.240000,0.560000,1.260040,0.080000,-1752.765582,-0.272648,-0.983899,-1.082985,0.000000,-0.000000,-0.000000
1.320000,0.560000,1.180042,0.080000,-1752.800303,-0.089797,-1.166667,-1.176464,0.000000,-0.000000,-0.000000
1.400000,0.560000,1.100045,0.080000,-1752.842508,0.117725,-1.374161,-1.260774,0.000000,-0.000000,-0.000000
1.480000,0.560000,1.020049,0.080000,-1752.893525,0.350124,-1.606613,-1.329908,0.000000,-0.000000,-0.000000
1.560000,0.560000,0.940053,0.080000,-1752.954842,0.606264,-1.862915,-1.376720,0.000000,-0.000000,-0.000000
1.640000,0.560000,0.860058,0.080000,-1753.028097,0.883179,-2.140133,-1.393098,0.000000,-0.000000,-0.000000
1.720000,0.560000,0.780064,0.080000,-1753.115060,1.175576,-2.433001,-1.370342,0.000000,-0.000000,-0.000000
1.800000,0.560000,0.700071,0.080000,-1753.217599,1.475393,-2.733474,-1.299786,0.000000,-0.000000,-0.000000
1.880000,0.560000,0.620081,0.080000,-1753.337631,1.771519,-3.030443,-1.173682,0.000000,-0.000000,-0.000000
1.960000,0.560000,0.540093,0.080000,-1753.477044,2.052061,-3.317483,-0.983112,0.000000,-0.000000,-0.000000
2.040000,0.560000,0.460109,0.080000,-1753.637615,2.295908,-3.558863,-0.737853,0.000000,-0.000000,-0.000000
2.120000,0.560000,0.380132,0.080000,-1753.820897,2.486525,-3.747228,-0.423042,0.000000,-0.000000,-0.000000
-2.120000,0.640000,0.380132,0.080000,-1753.744054,2.866134,-4.128377,0.614715,0.000000,-0.000000,0.000000
-2.040000,0.640000,0.460109,0.080000,-1753.564790,2.606471,-3.870479,0.993705,0.000000,-0.000000,0.000000
-1.960000,0.640000,0.540093,0.080000,-1753.410217,2.289031,-3.555939,1.282190,0.000000,-0.000000,0.000000
-1.880000,0.640000,0.620081,0.080000,-1753.278315,1.935697,-3.194206,1.497458,0.000000,-0.000000,0.000000
-1.800000,0.640000,0.700071,0.080000,-1753.166847,1.573246,-2.830754,1.630306,0.000000,-0.000000,0.000000
-1.720000,0.640000,0.780064,0.080000,-1753.073499,1.215758,-2.472537,1.693899,0.000000,-0.000000,0.000000
-1.640000,0.640000,0.860058,0.080000,-1752.995989,0.875755,-2.132059,1.699724,0.000000,-0.000000,0.000000
-1.560000,0.640000,0.940053,0.080000,-1752.932142,0.561545,-1.817589,1.659885,0.000000,-0.000000,0.000000
-1.480000,0.640000,1.020049,0.080000,-1752.879950,0.277834,-1.533786,1.585974,0.000000,-0.000000,0.000000
-1.400000,0.640000,1.100045,0.080000,-1752.837598,0.026485,-1.282470,1.488371,0.000000,-0.000000,0.000000
-1.320000,0.640000,1.180042,0.080000,-1752.803476,-0.192715,-1.063386,1.375878,0.000000,-0.000000,0.000000
-1.240000,0.640000,1.260040,0.080000,-1752.776182,-0.381382,-0.874885,1.255618,-0.000000,-0.000000,0.000000
-1.160000,0.640000,1.340037,0.080000,-1752.754508,-0.541981,-0.714477,1.133101,-0.000000,-0.000000,0.000000
-1.080000,0.640000,1.360331,0.080000,-1752.737424,-0.677404,-0.579253,1.012398,-0.000000,-0.000000,0.000000
-1.000000,0.640000,1.360919,0.080000,-1752.724063,-0.790669,-0.466182,0.896349,-0.000000,-0.000000,0.000000
-0.920000,0.640000,1.360331,0.080000,-1752.713700,-0.884718,-0.372315,0.786790,-0.000000,0.000000,0.000000
-0.840000,0.640000,1.360037,0.080000,-1752.705731,-0.962293,-0.294905,0.684762,-0.000000,0.000000,0.000000
-0.760000,0.640000,1.360037,0.080000,-1752.699660,-1.025868,-0.231476,0.590692,-0.000000,0.000000,0.000000
-0.680000,0.640000,1.360331,0.080000,-1752.695078,-1.077623,-0.179849,0.504555,-0.000000,0.000000,0.000000
-0.600000,0.640000,1.360919,0.080000,-1752.691655,-1.119437,-0.138144,0.425989,-0.000000,0.000000,0.000000
-0.520000,0.640000,1.360331,0.080000,-1752.689122,-1.152903,-0.104771,0.354402,-0.000000,0.000000,0.000000
-0.440000,0.640000,1.360037,0.080000,-1752.687264,-1.179347,-0.078403,0.289041,-0.000000,0.000000,0.000000
-0.360000,0.640000,1.360037,0.080000,-1752.685913,-1.199851,-0.057960,0.229047,-0.000000,0.000000,0.000000
-0.280000,0.640000,1.360331,0.080000,-1752.684936,-1.215279,-0.042580,0.173497,-0.000000,0.000000,0.000000
-0.200000,0.640000,1.360919,0.080000,-1752.684234,-1.226293,-0.031601,0.121429,-0.000000,0.000000,0.000000
-0.120000,0.640000,1.360331,0.080000,-1752.683738,-1.233376,-0.024541,0.071857,-0.000000,0.000000,0.000000
-0.040000,0.640000,1.360037,0.080000,-1752.683402,-1.236840,-0.021089,0.023786,-0.000000,0.000000,0.000000
0.040000,0.640000,1.360037,0.080000,-1752.683202,-1.236840,-0.021089,-0.023784,-0.000000,0.000000,-0.000000
0.120000,0.640000,1.360331,0.080000,-1752.683141,-1.233376,-0.024541,-0.071855,-0.000000,0.000000,-0.000000
0.200000,0.640000,1.360919,0.080000,-1752.683239,-1.226293,-0.031601,-0.121427,-0.000000,0.000000,-0.000000
0.280000,0.640000,1.360331,0.080000,-1752.683542,-1.215279,-0.042580,-0.173495,-0.000000,0.000000,-0.000000
0.360000,0.640000,1.360037,0.080000,-1752.684120,-1.199852,-0.057960,-0.229044,-0.000000,0.000000,-0.000000
0.440000,0.640000,1.360037,0.080000,-1752.685074,-1.179347,-0.078403,-0.289038,-0.000000,0.000000,-0.000000
0.520000,0.640000,1.360331,0.080000,-1752.686533,-1.152904,-0.104770,-0.354399,-0.000000,0.000000,-0.000000
0.600000,0.640000,1.360919,0.080000,-1752.688668,-1.119438,-0.138143,-0.425985,-0.000000,0.000000,-0.000000
0.680000,0.640000,1.360331,0.080000,-1752.691693,-1.077625,-0.179847,-0.504550,-0.000000,0.000000,-0.000000
0.760000,0.640000,1.360037,0.080000,-1752.695876,-1.025870,-0.231474,-0.590687,-0.000000,0.000000,-0.000000
0.840000,0.640000,1.360037,0.080000,-1752.701549,-0.962295,-0.294902,-0.684756,-0.000000,0.000000,-0.000000
0.920000,0.640000,1.360331,0.080000,-1752.709119,-0.884721,-0.372312,-0.786783,-0.000000,0.000000,-0.000000
1.000000,0.640000,1.360919,0.080000,-1752.719084,-0.790673,-0.466178,-0.896341,-0.000000,-0.000000,-0.000000
1.080000,0.640000,1.360331,0.080000,-1752.732047,-0.677409,-0.579248,-1.012390,-0.000000,-0.000000,-0.000000
1.160000,0.640000,1.340037,0.080000,-1752.748732,-0.541987,-0.714472,-1.133092,-0.000000,-0.000000,-0.000000
1.240000,0.640000,1.260040,0.080000,-1752.770008,-0.381389,-0.874878,-1.255607,-0.000000,-0.000000,-0.000000
1.320000,0.640000,1.180042,0.080000,-1752.796903,-0.192723,-1.063378,-1.375866,0.000000,-0.000000,-0.000000
1.400000,0.640000,1.100045,0.080000,-1752.830626,0.026475,-1.282460,-1.488358,0.000000,-0.000000,-0.000000
1.480000,0.640000,1.020049,0.080000,-1752.872580,0.277821,-1.533774,-1.585960,0.000000,-0.000000,-0.000000
1.560000,0.640000,0.940053,0.080000,-1752.924374,0.561531,-1.817574,-1.659870,0.000000,-0.000000,-0.000000
1.640000,0.640000,0.860058,0.080000,-1752.987821,0.875738,-2.132042,-1.699710,0.000000,-0.000000,-0.000000
1.720000,0.640000,0.780064,0.080000,-1753.064933,1.215738,-2.472517,-1.693884,0.000000,-0.000000,-0.000000
1.800000,0.640000,0.700071,0.080000,-1753.157881,1.573223,-2.830731,-1.630291,0.000000,-0.000000,-0.000000
1.880000,0.640000,0.620081,0.080000,-1753.268950,1.935671,-3.194180,-1.497444,0.000000,-0.000000,-0.000000
1.960000,0.640000,0.540093,0.080000,-1753.400453,2.289002,-3.555909,-1.282177,0.000000,-0.000000,-0.000000
2.040000,0.640000,0.460109,0.080000,-1753.554626,2.606439,-3.870447,-0.993694,0.000000,-0.000000,-0.000000
2.120000,0.640000,0.380132,0.080000,-1753.733491,2.866099,-4.128343,-0.614707,0.000000,-0.000000,-0.000000
-2.120000,0.720000,0.381182,0.080000,-1753.638263,3.330672,-4.598462,0.881369,0.000000,-0.000000,0.000000
-2.040000,0.720000,0.460977,0.080000,-1753.465097,2.974604,-4.239963,1.334187,0.000000,-0.000000,0.000000
-1.960000,0.720000,0.540833,0.080000,-1753.318971,2.558903,-3.827642,1.666158,0.000000,-0.000000,0.000000
-1.880000,0.720000,0.620725,0.080000,-1753.197236,2.111190,-3.369018,1.900491,0.000000,-0.000000,0.000000
-1.800000,0.720000,0.700643,0.080000,-1753.097063,1.665361,-2.922018,2.030427,0.000000,-0.000000,0.000000
-1.720000,0.720000,0.780577,0.080000,-1753.015603,1.237730,-2.493607,2.075308,0.000000,-0.000000,0.000000
-1.640000,0.720000,0.860523,0.080000,-1752.950126,0.841925,-2.097362,2.051916,0.000000,-0.000000,0.000000
-1.560000,0.720000,0.940479,0.080000,-1752.898101,0.485846,-1.741113,1.976904,0.000000,-0.000000,0.000000
-1.480000,0.720000,1.020441,0.080000,-1752.857250,0.172828,-1.428122,1.865457,0.000000,-0.000000,0.000000
-1.400000,0.720000,1.100409,0.080000,-1752.825569,-0.097141,-1.158311,1.730569,0.000000,-0.000000,0.000000
-1.320000,0.720000,1.180381,0.080000,-1752.801332,-0.326311,-0.929379,1.582784,0.000000,-0.000000,0.000000
-1.240000,0.720000,1.260357,0.080000,-1752.783069,-0.518258,-0.737705,1.430262,-0.000000,-0.000000,0.000000
-1.160000,0.720000,1.280039,0.080000,-1752.769551,-0.677205,-0.579041,1.279016,-0.000000,-0.000000,0.000000
-1.080000,0.720000,1.280352,0.080000,-1752.759759,-0.807535,-0.448985,1.133242,-0.000000,-0.000000,0.000000
-1.000000,0.720000,1.280976,0.080000,-1752.752859,-0.913478,-0.343294,0.995660,-0.000000,0.000000,0.000000
-0.920000,0.720000,1.280352,0.080000,-1752.748170,-0.998933,-0.258067,0.867840,-0.000000,0.000000,0.000000
-0.840000,0.720000,1.280039,0.080000,-1752.745145,-1.067367,-0.189832,0.750478,-0.000000,0.000000,0.000000
-0.760000,0.720000,1.280039,0.080000,-1752.743345,-1.121793,-0.135578,0.643632,-0.000000,0.000000,0.000000
-0.680000,0.720000,1.280352,0.080000,-1752.742420,-1.164776,-0.092741,0.546908,-0.000000,0.000000,0.000000
-0.600000,0.720000,1.280976,0.080000,-1752.742096,-1.198464,-0.059174,0.459601,-0.000000,0.000000,0.000000
-0.520000,0.720000,1.280352,0.080000,-1752.742156,-1.224630,-0.033109,0.380802,-0.000000,0.000000,0.000000
-0.440000,0.720000,1.280039,0.080000,-1752.742433,-1.244714,-0.013107,0.309476,-0.000000,0.000000,0.000000
-0.360000,0.720000,1.280039,0.080000,-1752.742797,-1.259869,0.001984,0.244514,-0.000000,0.000000,0.000000
-0.280000,0.720000,1.280352,0.080000,-1752.743150,-1.270997,0.013061,0.184771,-0.000000,0.000000,0.000000
-0.200000,0.720000,1.280976,0.080000,-1752.743423,-1.278779,0.020807,0.129085,-0.000000,0.000000,0.000000
-0.120000,0.720000,1.280352,0.080000,-1752.743565,-1.283705,0.025710,0.076295,-0.000000,0.000000,0.000000
-0.040000,0.720000,1.280039,0.080000,-1752.743544,-1.286090,0.028084,0.025240,-0.000000,0.000000,0.000000
0.040000,0.720000,1.280039,0.080000,-1752.743345,-1.286090,0.028084,-0.025238,-0.000000,0.000000,-0.000000
0.120000,0.720000,1.280352,0.080000,-1752.742967,-1.283705,0.025710,-0.076293,-0.000000,0.000000,-0.000000
0.200000,0.720000,1.280976,0.080000,-1752.742428,-1.278779,0.020807,-0.129083,-0.000000,0.000000,-0.000000
0.280000,0.720000,1.280352,0.080000,-1752.741757,-1.270997,0.013061,-0.184768,-0.000000,0.000000,-0.000000
0.360000,0.720000,1.280039,0.080000,-1752.741004,-1.259869,0.001984,-0.244511,-0.000000,0.000000,-0.000000
0.440000,0.720000,1.280039,0.080000,-1752.740242,-1.244714,-0.013107,-0.309473,-0.000000,0.000000,-0.000000
0.520000,0.720000,1.280352,0.080000,-1752.739568,-1.224630,-0.033109,-0.380799,-0.000000,0.000000,-0.000000
0.600000,0.720000,1.280976,0.080000,-1752.739109,-1.198464,-0.059174,-0.459597,-0.000000,0.000000,-0.000000
0.680000,0.720000,1.280352,0.080000,-1752.739035,-1.164777,-0.092740,-0.546903,-0.000000,0.000000,-0.000000
0.760000,0.720000,1.280039,0.080000,-1752.739561,-1.121794,-0.135577,-0.643626,-0.000000,0.000000,-0.000000
0.840000,0.720000,1.280039,0.080000,-1752.740963,-1.067368,-0.189831,-0.750471,-0.000000,0.000000,-0.000000
0.920000,0.720000,1.280352,0.080000,-1752.743589,-0.998935,-0.258065,-0.867833,-0.000000,0.000000,-0.000000
1.000000,0.720000,1.280976,0.080000,-1752.747880,-0.913481,-0.343291,-0.995652,-0.000000,0.000000,-0.000000
1.080000,0.720000,1.280352,0.080000,-1752.754382,-0.807538,-0.448981,-1.133232,-0.000000,-0.000000,-0.000000
1.160000,0.720000,1.280039,0.080000,-1752.763776,-0.677209,-0.579036,-1.279005,-0.000000,-0.000000,-0.000000
1.240000,0.720000,1.260357,0.080000,-1752.776895,-0.518264,-0.737699,-1.430250,-0.000000,-0.000000,-0.000000
1.320000,0.720000,1.180381,0.080000,-1752.794760,-0.326318,-0.929371,-1.582770,0.000000,-0.000000,-0.000000
1.400000,0.720000,1.100409,0.080000,-1752.818599,-0.097151,-1.158302,-1.730554,0.000000,-0.000000,-0.000000
1.480000,0.720000,1.020441,0.080000,-1752.849881,0.172816,-1.428110,-1.865441,0.000000,-0.000000,-0.000000
1.560000,0.720000,0.940479,0.080000,-1752.890333,0.485832,-1.741099,-1.976887,0.000000,-0.000000,-0.000000
1.640000,0.720000,0.860523,0.080000,-1752.941960,0.841908,-2.097345,-2.051898,0.000000,-0.000000,-0.000000
1.720000,0.720000,0.780577,0.080000,-1753.007038,1.237710,-2.493587,-2.075289,0.000000,-0.000000,-0.000000
1.800000,0.720000,0.700643,0.080000,-1753.088099,1.665337,-2.921994,-2.030408,0.000000,-0.000000,-0.000000
1.880000,0.720000,0.620725,0.080000,-1753.187873,2.111162,-3.368991,-1.900473,0.000000,-0.000000,-0.000000
1.960000,0.720000,0.540833,0.080000,-1753.309208,2.558872,-3.827611,-1.666142,0.000000,-0.000000,-0.000000
2.040000,0.720000,0.460977,0.080000,-1753.454936,2.974570,-4.239928,-1.334173,0.000000,-0.000000,-0.000000
2.120000,0.720000,0.381182,0.080000,-1753.627701,3.330634,-4.598424,-0.881359,0.000000,-0.000000,-0.000000
-2.120000,0.800000,0.383275,0.080000,-1753.511125,3.891252,-5.163998,1.252581,0.000000,-0.000000,0.000000
-2.040000,0.800000,0.462709,0.080000,-1753.346352,3.403513,-4.670533,1.789303,0.000000,-0.000000,0.000000
-1.960000,0.800000,0.542310,0.080000,-1753.211352,2.856810,-4.127757,2.161613,0.000000,-0.000000,0.000000
-1.880000,0.800000,0.622013,0.080000,-1753.102646,2.287514,-3.544253,2.404214,0.000000,-0.000000,0.000000
-1.800000,0.800000,0.701783,0.080000,-1753.016634,1.738179,-2.993589,2.515911,0.000000,-0.000000,0.000000
-1.720000,0.800000,0.781601,0.080000,-1752.949810,1.226924,-2.481555,2.524957,0.000000,-0.000000,0.000000
-1.640000,0.800000,0.861452,0.080000,-1752.898904,0.767612,-2.021911,2.455474,0.000000,-0.000000,0.000000
-1.560000,0.800000,0.941329,0.080000,-1752.860981,0.366537,-1.620831,2.329988,0.000000,-0.000000,0.000000
-1.480000,0.800000,1.021225,0.080000,-1752.833474,0.024410,-1.278916,2.167975,0.000000,-0.000000,0.000000
-1.400000,0.800000,1.101136,0.080000,-1752.814192,-0.261780,-0.993064,1.985268,0.000000,-0.000000,0.000000
-1.320000,0.800000,1.181059,0.080000,-1752.801302,-0.497228,-0.758014,1.794075,-0.000000,-0.000000,0.000000
-1.240000,0.800000,1.200042,0.080000,-1752.793296,-0.688156,-0.567496,1.603332,-0.000000,-0.000000,0.000000
-1.160000,0.800000,1.200042,0.080000,-1752.788949,-0.841017,-0.415027,1.419219,-0.000000,-0.000000,0.000000
-1.080000,0.800000,1.200375,0.080000,-1752.787280,-0.961993,-0.294410,1.245707,-0.000000,0.000000,0.000000
-1.000000,0.800000,1.201041,0.080000,-1752.787515,-1.056706,-0.200015,1.085071,-0.000000,0.000000,0.000000
-0.920000,0.800000,1.200375,0.080000,-1752.789045,-1.130092,-0.126903,0.938331,-0.000000,0.000000,0.000000
-0.840000,0.800000,1.200042,0.080000,-1752.791399,-1.186375,-0.070854,0.805606,-0.000000,0.000000,0.000000
-0.760000,0.800000,1.200042,0.080000,-1752.794217,-1.229092,-0.028331,0.686402,-0.000000,0.000000,0.000000
-0.680000,0.800000,1.200375,0.080000,-1752.797224,-1.261163,0.003578,0.579814,-0.000000,0.000000,0.000000
-0.600000,0.800000,1.201041,0.080000,-1752.800213,-1.284960,0.027244,0.484687,-0.000000,0.000000,0.000000
-0.520000,0.800000,1.200375,0.080000,-1752.803033,-1.302392,0.044569,0.399720,-0.000000,0.000000,0.000000
-0.440000,0.800000,1.200042,0.080000,-1752.805571,-1.314971,0.057063,0.323543,-0.000000,0.000000,0.000000
-0.360000,0.800000,1.200042,0.080000,-1752.807746,-1.323882,0.065907,0.254761,-0.000000,0.000000,0.000000
-0.280000,0.800000,1.200375,0.080000,-1752.809502,-1.330031,0.072006,0.191986,-0.000000,0.000000,0.000000
-0.200000,0.800000,1.201041,0.080000,-1752.810798,-1.334094,0.076033,0.133848,-0.000000,0.000000,0.000000
-0.120000,0.800000,1.200375,0.080000,-1752.811609,-1.336550,0.078465,0.079000,-0.000000,0.000000,0.000000
-0.040000,0.800000,1.200042,0.080000,-1752.811919,-1.337703,0.079607,0.026116,-0.000000,0.000000,0.000000
0.040000,0.800000,1.200042,0.080000,-1752.811719,-1.337703,0.079607,-0.026114,-0.000000,0.000000,-0.000000
0.120000,0.800000,1.200375,0.080000,-1752.811012,-1.336550,0.078465,-0.078997,-0.000000,0.000000,-0.000000
0.200000,0.800000,1.201041,0.080000,-1752.809803,-1.334094,0.076033,-0.133845,-0.000000,0.000000,-0.000000
0.280000,0.800000,1.200375,0.080000,-1752.808108,-1.330030,0.072005,-0.191984,-0.000000,0.000000,-0.000000
0.360000,0.800000,1.200042,0.080000,-1752.805954,-1.323881,0.065907,-0.254758,-0.000000,0.000000,-0.000000
0.440000,0.800000,1.200042,0.080000,-1752.803381,-1.314971,0.057063,-0.323540,-0.000000,0.000000,-0.000000
0.520000,0.800000,1.200375,0.080000,-1752.800444,-1.302392,0.044568,-0.399716,-0.000000,0.000000,-0.000000
0.600000,0.800000,1.201041,0.080000,-1752.797226,-1.284960,0.027243,-0.484683,-0.000000,0.000000,-0.000000
0.680000,0.800000,1.200375,0.080000,-1752.793838,-1.261163,0.003578,-0.579809,-0.000000,0.000000,-0.000000
0.760000,0.800000,1.200042,0.080000,-1752.790434,-1.229093,-0.028331,-0.686396,-0.000000,0.000000,-0.000000
0.840000,0.800000,1.200042,0.080000,-1752.787218,-1.186375,-0.070853,-0.805599,-0.000000,0.000000,-0.000000
0.920000,0.800000,1.200375,0.080000,-1752.784465,-1.130093,-0.126902,-0.938323,-0.000000,0.000000,-0.000000
1.000000,0.800000,1.201041,0.080000,-1752.782537,-1.056707,-0.200014,-1.085062,-0.000000,0.000000,-0.000000
1.080000,0.800000,1.200375,0.080000,-1752.781904,-0.961995,-0.294408,-1.245697,-0.000000,0.000000,-0.000000
1.160000,0.800000,1.200042,0.080000,-1752.783174,-0.841020,-0.415024,-1.419207,-0.000000,-0.000000,-0.000000
1.240000,0.800000,1.200042,0.080000,-1752.787123,-0.688160,-0.567492,-1.603319,-0.000000,-0.000000,-0.000000
1.320000,0.800000,1.181059,0.080000,-1752.794731,-0.497234,-0.758008,-1.794060,-0.000000,-0.000000,-0.000000
1.400000,0.800000,1.101136,0.080000,-1752.807223,-0.261788,-0.993056,-1.985251,0.000000,-0.000000,-0.000000
1.480000,0.800000,1.021225,0.080000,-1752.826106,0.024400,-1.278906,-2.167956,0.000000,-0.000000,-0.000000
1.560000,0.800000,0.941329,0.080000,-1752.853215,0.366524,-1.620818,-2.329969,0.000000,-0.000000,-0.000000
1.640000,0.800000,0.861452,0.080000,-1752.890739,0.767596,-2.021895,-2.455453,0.000000,-0.000000,-0.000000
1.720000,0.800000,0.781601,0.080000,-1752.941246,1.226904,-2.481536,-2.524936,0.000000,-0.000000,-0.000000
1.800000,0.800000,0.701783,0.080000,-1753.007672,1.738156,-2.993565,-2.515889,0.000000,-0.000000,-0.000000
1.880000,0.800000,0.622013,0.080000,-1753.093284,2.287486,-3.544225,-2.404192,0.000000,-0.000000,-0.000000
1.960000,0.800000,0.542310,0.080000,-1753.201591,2.856777,-4.127723,-2.161593,0.000000,-0.000000,-0.000000
2.040000,0.800000,0.462709,0.080000,-1753.336192,3.403475,-4.670495,-1.789285,0.000000,-0.000000,-0.000000
2.120000,0.800000,0.383275,0.080000,-1753.500565,3.891211,-5.163956,-1.252567,0.000000,-0.000000,-0.000000
-2.120000,0.880000,0.381182,0.080000,-1753.359062,4.560565,-5.834991,1.774426,0.000000,-0.000000,0.000000
-2.040000,0.880000,0.460977,0.080000,-1753.205819,3.892976,-5.161973,2.399873,0.000000,-0.000000,0.000000
-1.960000,0.880000,0.540833,0.080000,-1753.085470,3.171891,-4.445418,2.802854,0.000000,-0.000000,0.000000
-1.880000,0.880000,0.620725,0.080000,-1752.993427,2.447194,-3.702221,3.034496,0.000000,-0.000000,0.000000
-1.800000,0.880000,0.700643,0.080000,-1752.925110,1.771358,-3.024960,3.104188,0.000000,-0.000000,0.000000
-1.720000,0.880000,0.780577,0.080000,-1752.876202,1.162915,-2.415853,3.052852,0.000000,-0.000000,0.000000
-1.640000,0.880000,0.860523,0.080000,-1752.842812,0.634143,-1.886979,2.914512,0.000000,-0.000000,0.000000
-1.560000,0.880000,0.940479,0.080000,-1752.821559,0.187675,-1.440783,2.718989,0.000000,-0.000000,0.000000
-1.480000,0.880000,1.020441,0.080000,-1752.809583,-0.180295,-1.073300,2.490582,0.000000,-0.000000,0.000000
-1.400000,0.880000,1.100409,0.080000,-1752.804527,-0.477322,-0.776859,2.247913,-0.000000,-0.000000,0.000000
-1.320000,0.880000,1.120402,0.080000,-1752.804487,-0.712694,-0.542091,2.004464,-0.000000,-0.000000,0.000000
-1.240000,0.880000,1.120045,0.080000,-1752.807954,-0.896067,-0.359292,1.769414,-0.000000,0.000000,0.000000
-1.160000,0.880000,1.120045,0.080000,-1752.813752,-1.036619,-0.219259,1.548548,-0.000000,0.000000,0.000000
-1.080000,0.880000,1.120402,0.080000,-1752.820977,-1.142598,-0.113731,1.345095,-0.000000,0.000000,0.000000
-1.000000,0.880000,1.121116,0.080000,-1752.828949,-1.221140,-0.035573,1.160445,-0.000000,0.000000,0.000000
-0.920000,0.880000,1.120402,0.080000,-1752.837165,-1.278243,0.021210,0.994708,-0.000000,0.000000,0.000000
-0.840000,0.880000,1.120045,0.080000,-1752.845257,-1.318847,0.061551,0.847152,-0.000000,0.000000,0.000000
-0.760000,0.880000,1.120045,0.080000,-1752.852963,-1.346951,0.089441,0.716517,-0.000000,0.000000,0.000000
-0.680000,0.880000,1.120402,0.080000,-1752.860104,-1.365748,0.108066,0.601239,-0.000000,0.000000,0.000000
-0.600000,0.880000,1.121116,0.080000,-1752.866558,-1.377760,0.119940,0.499603,-0.000000,0.000000,0.000000
-0.520000,0.880000,1.120402,0.080000,-1752.872248,-1.384955,0.127026,0.409847,-0.000000,0.000000,0.000000
-0.440000,0.880000,1.120045,0.080000,-1752.877128,-1.388855,0.130840,0.330217,-0.000000,0.000000,0.000000
-0.360000,0.880000,1.120045,0.080000,-1752.881171,-1.390620,0.132540,0.259006,-0.000000,0.000000,0.000000
-0.280000,0.880000,1.120402,0.080000,-1752.884367,-1.391120,0.132991,0.194570,-0.000000,0.000000,0.000000
-0.200000,0.880000,1.121116,0.080000,-1752.886713,-1.390991,0.132828,0.135324,-0.000000,0.000000,0.000000
-0.120000,0.880000,1.120402,0.080000,-1752.888208,-1.390674,0.132488,0.079742,-0.000000,0.000000,0.000000
-0.040000,0.880000,1.120045,0.080000,-1752.888855,-1.390448,0.132252,0.026340,-0.000000,0.000000,0.000000
0.040000,0.880000,1.120045,0.080000,-1752.888656,-1.390448,0.132252,-0.026338,-0.000000,0.000000,-0.000000
0.120000,0.880000,1.120402,0.080000,-1752.887611,-1.390674,0.132488,-0.079740,-0.000000,0.000000,-0.000000
0.200000,0.880000,1.121116,0.080000,-1752.885717,-1.390991,0.132827,-0.135322,-0.000000,0.000000,-0.000000
0.280000,0.880000,1.120402,0.080000,-1752.882973,-1.391120,0.132991,-0.194568,-0.000000,0.000000,-0.000000
0.360000,0.880000,1.120045,0.080000,-1752.879379,-1.390619,0.132539,-0.259004,-0.000000,0.000000,-0.000000
0.440000,0.880000,1.120045,0.080000,-1752.874937,-1.388854,0.130840,-0.330214,-0.000000,0.000000,-0.000000
0.520000,0.880000,1.120402,0.080000,-1752.869660,-1.384954,0.127025,-0.409843,-0.000000,0.000000,-0.000000
0.600000,0.880000,1.121116,0.080000,-1752.863572,-1.377759,0.119939,-0.499599,-0.000000,0.000000,-0.000000
0.680000,0.880000,1.120402,0.080000,-1752.856719,-1.365747,0.108065,-0.601233,-0.000000,0.000000,-0.000000
0.760000,0.880000,1.120045,0.080000,-1752.849180,-1.346950,0.089440,-0.716511,-0.000000,0.000000,-0.000000
0.840000,0.880000,1.120045,0.080000,-1752.841075,-1.318846,0.061550,-0.847145,-0.000000,0.000000,-0.000000
0.920000,0.880000,1.120402,0.080000,-1752.832585,-1.278242,0.021210,-0.994700,-0.000000,0.000000,-0.000000
1.000000,0.880000,1.121116,0.080000,-1752.823971,-1.221140,-0.035573,-1.160435,-0.000000,0.000000,-0.000000
1.080000,0.880000,1.120402,0.080000,-1752.815601,-1.142599,-0.113730,-1.345084,-0.000000,0.000000,-0.000000
1.160000,0.880000,1.120045,0.080000,-1752.807977,-1.036621,-0.219257,-1.548535,-0.000000,0.000000,-0.000000
1.240000,0.880000,1.120045,0.080000,-1752.801782,-0.896070,-0.359289,-1.769399,-0.000000,0.000000,-0.000000
1.320000,0.880000,1.120402,0.080000,-1752.797917,-0.712698,-0.542087,-2.004447,-0.000000,-0.000000,-0.000000
1.400000,0.880000,1.100409,0.080000,-1752.797558,-0.477328,-0.776854,-2.247894,-0.000000,-0.000000,-0.000000
1.480000,0.880000,1.020441,0.080000,-1752.802216,-0.180303,-1.073292,-2.490561,0.000000,-0.000000,-0.000000
1.560000,0.880000,0.940479,0.080000,-1752.813793,0.187664,-1.440772,-2.718966,0.000000,-0.000000,-0.000000
1.640000,0.880000,0.860523,0.080000,-1752.834648,0.634129,-1.886965,-2.914487,0.000000,-0.000000,-0.000000
1.720000,0.880000,0.780577,0.080000,-1752.867639,1.162896,-2.415834,-3.052826,0.000000,-0.000000,-0.000000
1.800000,0.880000,0.700643,0.080000,-1752.916149,1.771334,-3.024937,-3.104161,0.000000,-0.000000,-0.000000
1.880000,0.880000,0.620725,0.080000,-1752.984067,2.447165,-3.702192,-3.034469,0.000000,-0.000000,-0.000000
1.960000,0.880000,0.540833,0.080000,-1753.075711,3.171856,-4.445383,-2.802829,0.000000,-0.000000,-0.000000
2.040000,0.880000,0.460977,0.080000,-1753.195661,3.892935,-5.161932,-2.399851,0.000000,-0.000000,-0.000000
2.120000,0.880000,0.381182,0.080000,-1753.348504,4.560518,-5.834944,-1.774408,0.000000,-0.000000,-0.000000
-2.120000,0.960000,0.380132,0.080000,-1753.177789,5.352477,-6.628589,2.511989,0.000000,-0.000000,0.000000
-2.040000,0.960000,0.460109,0.080000,-1753.040384,4.435565,-5.706852,3.221346,0.000000,-0.000000,0.000000
-1.960000,0.960000,0.540093,0.080000,-1752.939333,3.483114,-4.759509,3.633604,0.000000,-0.000000,0.000000
-1.880000,0.960000,0.620081,0.080000,-1752.868579,2.562063,-3.814448,3.821617,0.000000,-0.000000,0.000000
-1.800000,0.960000,0.700071,0.080000,-1752.822299,1.734983,-2.986012,3.813250,0.000000,-0.000000,0.000000
-1.720000,0.960000,0.780064,0.080000,-1752.795209,1.017640,-2.268322,3.667016,0.000000,-0.000000,0.000000
-1.640000,0.960000,0.860058,0.080000,-1752.782721,0.417320,-1.668325,3.429793,0.000000,-0.000000,0.000000
-1.560000,0.960000,0.940053,0.080000,-1752.780992,-0.070286,-1.181427,3.139924,0.000000,-0.000000,0.000000
-1.480000,0.960000,1.020049,0.080000,-1752.786897,-0.456212,-0.796381,2.826596,-0.000000,-0.000000,0.000000
-1.400000,0.960000,1.041201,0.080000,-1752.797961,-0.754562,-0.498942,2.510629,-0.000000,-0.000000,0.000000
-1.320000,0.960000,1.040433,0.080000,-1752.812271,-0.980070,-0.274293,2.205900,-0.000000,0.000000,0.000000
-1.240000,0.960000,1.040048,0.080000,-1752.828379,-1.146640,-0.108486,1.920899,-0.000000,0.000000,0.000000
-1.160000,0.960000,1.040048,0.080000,-1752.845214,-1.266605,0.010825,1.660166,-0.000000,0.000000,0.000000
-1.080000,0.960000,1.040433,0.080000,-1752.862005,-1.350452,0.094128,1.425479,-0.000000,0.000000,0.000000
-1.000000,0.960000,1.041201,0.080000,-1752.878214,-1.406836,0.150068,1.216773,-0.000000,0.000000,0.000000
-0.920000,0.960000,1.040433,0.080000,-1752.893477,-1.442738,0.185611,1.032824,-0.000000,0.000000,0.000000
-0.840000,0.960000,1.040048,0.080000,-1752.907563,-1.463688,0.206275,0.871733,-0.000000,0.000000,0.000000
-0.760000,0.960000,1.040048,0.080000,-1752.920337,-1.474007,0.216369,0.731255,-0.000000,0.000000,0.000000
-0.680000,0.960000,1.040433,0.080000,-1752.931730,-1.477030,0.219216,0.609016,-0.000000,0.000000,0.000000
-0.600000,0.960000,1.041201,0.080000,-1752.941724,-1.475304,0.217352,0.502646,-0.000000,0.000000,0.000000
-0.520000,0.960000,1.040433,0.080000,-1752.950330,-1.470756,0.212698,0.409857,-0.000000,0.000000,0.000000
-0.440000,0.960000,1.040048,0.080000,-1752.957574,-1.464828,0.206688,0.328483,-0.000000,0.000000,0.000000
-0.360000,0.960000,1.040048,0.080000,-1752.963497,-1.458587,0.200386,0.256490,-0.000000,0.000000,0.000000
-0.280000,0.960000,1.040433,0.080000,-1752.968136,-1.452811,0.194564,0.191973,-0.000000,0.000000,0.000000
-0.200000,0.960000,1.041201,0.080000,-1752.971529,-1.448052,0.189774,0.133145,-0.000000,0.000000,0.000000
-0.120000,0.960000,1.040433,0.080000,-1752.973707,-1.444687,0.186389,0.078310,-0.000000,0.000000,0.000000
-0.040000,0.960000,1.040048,0.080000,-1752.974691,-1.442949,0.184641,0.025842,-0.000000,0.000000,0.000000
0.040000,0.960000,1.040048,0.080000,-1752.974492,-1.442949,0.184641,-0.025841,-0.000000,0.000000,-0.000000
0.120000,0.960000,1.040433,0.080000,-1752.973110,-1.444687,0.186388,-0.078308,-0.000000,0.000000,-0.000000
0.200000,0.960000,1.041201,0.080000,-1752.970534,-1.448052,0.189773,-0.133143,-0.000000,0.000000,-0.000000
0.280000,0.960000,1.040433,0.080000,-1752.966742,-1.452810,0.194563,-0.191971,-0.000000,0.000000,-0.000000
0.360000,0.960000,1.040048,0.080000,-1752.961704,-1.458586,0.200385,-0.256487,-0.000000,0.000000,-0.000000
0.440000,0.960000,1.040048,0.080000,-1752.955384,-1.464827,0.206687,-0.328480,-0.000000,0.000000,-0.000000
0.520000,0.960000,1.040433,0.080000,-1752.947741,-1.470755,0.212696,-0.409854,-0.000000,0.000000,-0.000000
0.600000,0.960000,1.041201,0.080000,-1752.938738,-1.475303,0.217351,-0.502642,-0.000000,0.000000,-0.000000
0.680000,0.960000,1.040433,0.080000,-1752.928345,-1.477028,0.219214,-0.609011,-0.000000,0.000000,-0.000000
0.760000,0.960000,1.040048,0.080000,-1752.916554,-1.474005,0.216367,-0.731249,-0.000000,0.000000,-0.000000
0.840000,0.960000,1.040048,0.080000,-1752.903382,-1.463686,0.206274,-0.871725,-0.000000,0.000000,-0.000000
0.920000,0.960000,1.040433,0.080000,-1752.888898,-1.442736,0.185609,-1.032815,-0.000000,0.000000,-0.000000
1.000000,0.960000,1.041201,0.080000,-1752.873237,-1.406835,0.150066,-1.216762,-0.000000,0.000000,-0.000000
1.080000,0.960000,1.040433,0.080000,-1752.856630,-1.350451,0.094127,-1.425467,-0.000000,0.000000,-0.000000
1.160000,0.960000,1.040048,0.080000,-1752.839440,-1.266604,0.010825,-1.660152,-0.000000,0.000000,-0.000000
1.240000,0.960000,1.040048,0.080000,-1752.822207,-1.146641,-0.108485,-1.920883,-0.000000,0.000000,-0.000000
1.320000,0.960000,1.040433,0.080000,-1752.805701,-0.980072,-0.274291,-2.205881,-0.000000,0.000000,-0.000000
1.400000,0.960000,1.041201,0.080000,-1752.790993,-0.754565,-0.498939,-2.510609,-0.000000,-0.000000,-0.000000
1.480000,0.960000,1.020049,0.080000,-1752.779530,-0.456218,-0.796375,-2.826572,-0.000000,-0.000000,-0.000000
1.560000,0.960000,0.940053,0.080000,-1752.773227,-0.070295,-1.181418,-3.139898,0.000000,-0.000000,-0.000000
1.640000,0.960000,0.860058,0.080000,-1752.774558,0.417307,-1.668313,-3.429765,0.000000,-0.000000,-0.000000
1.720000,0.960000,0.780064,0.080000,-1752.786648,1.017622,-2.268304,-3.666985,0.000000,-0.000000,-0.000000
1.800000,0.960000,0.700071,0.080000,-1752.813339,1.734959,-2.985989,-3.813217,0.000000,-0.000000,-0.000000
1.880000,0.960000,0.620081,0.080000,-1752.859220,2.562034,-3.814418,-3.821584,0.000000,-0.000000,-0.000000
1.960000,0.960000,0.540093,0.080000,-1752.929576,3.483077,-4.759472,-3.633572,0.000000,-0.000000,-0.000000
2.040000,0.960000,0.460109,0.080000,-1753.030228,4.435520,-5.706807,-3.221317,0.000000,-0.000000,-0.000000
2.120000,0.960000,0.380132,0.080000,-1753.167234,5.352425,-6.628537,-2.511965,0.000000,-0.000000,-0.000000
-2.120000,1.040000,0.380132,0.080000,-1752.962246,6.275255,-7.558265,3.554532,0.000000,-0.000000,0.000000
-2.040000,1.040000,0.460109,0.080000,-1752.846610,5.009801,-6.283590,4.328463,0.000000,-0.000000,0.000000
-1.960000,1.040000,0.540093,0.080000,-1752.770991,3.752584,-5.031895,4.708246,0.000000,-0.000000,0.000000
-1.880000,1.040000,0.620081,0.080000,-1752.727396,2.587932,-3.836323,4.799044,0.000000,-0.000000,0.000000
-1.800000,1.040000,0.700071,0.080000,-1752.708464,1.585998,-2.833446,4.659181,0.000000,-0.000000,0.000000
-1.720000,1.040000,0.780064,0.080000,-1752.707789,0.753442,-2.001208,4.370698,0.000000,-0.000000,0.000000
-1.640000,1.040000,0.860058,0.080000,-1752.720041,0.086704,-1.335507,3.996174,0.000000,-0.000000,0.000000
-1.560000,1.040000,0.940053,0.080000,-1752.740948,-0.430403,-0.819755,3.582921,-0.000000,-0.000000,0.000000
-1.480000,1.040000,0.960469,0.080000,-1752.767193,-0.819781,-0.431789,3.164101,-0.000000,-0.000000,0.000000
-1.400000,1.040000,0.961301,0.080000,-1752.796276,-1.104486,-0.148400,2.761228,-0.000000,0.000000,0.000000
-1.320000,1.040000,0.960469,0.080000,-1752.826369,-1.306109,0.052071,2.386966,-0.000000,0.000000,0.000000
-1.240000,1.040000,0.960052,0.080000,-1752.856174,-1.443505,0.188500,2.047670,-0.000000,0.000000,0.000000
-1.160000,1.040000,0.960052,0.080000,-1752.884808,-1.532401,0.276609,1.745447,-0.000000,0.000000,0.000000
-1.080000,1.040000,0.960469,0.080000,-1752.911697,-1.585492,0.329073,1.479700,-0.000000,0.000000,0.000000
-1.000000,1.040000,0.961301,0.080000,-1752.936498,-1.612778,0.355866,1.248240,-0.000000,0.000000,0.000000
-0.920000,1.040000,0.960469,0.080000,-1752.959034,-1.621987,0.364693,1.048031,-0.000000,0.000000,0.000000
-0.840000,1.040000,0.960052,0.080000,-1752.979245,-1.619000,0.361411,0.875684,-0.000000,0.000000,0.000000
-0.760000,1.040000,0.960052,0.080000,-1752.997149,-1.608232,0.350418,0.727760,-0.000000,0.000000,0.000000
-0.680000,1.040000,0.960469,0.080000,-1753.012813,-1.592962,0.334977,0.600942,-0.000000,0.000000,0.000000
-0.600000,1.040000,0.961301,0.080000,-1753.026335,-1.575595,0.317480,0.492130,-0.000000,0.000000,0.000000
-0.520000,1.040000,0.960469,0.080000,-1753.037825,-1.557880,0.299667,0.398478,-0.000000,0.000000,0.000000
-0.440000,1.040000,0.960052,0.080000,-1753.047396,-1.541070,0.282785,0.317392,-0.000000,0.000000,0.000000
-0.360000,1.040000,0.960052,0.080000,-1753.055157,-1.526056,0.267717,0.246517,-0.000000,0.000000,0.000000
-0.280000,1.040000,0.960469,0.080000,-1753.061202,-1.513458,0.255080,0.183705,-0.000000,0.000000,0.000000
-0.200000,1.040000,0.961301,0.080000,-1753.065613,-1.503699,0.245295,0.126984,-0.000000,0.000000,0.000000
-0.120000,1.040000,0.960469,0.080000,-1753.068451,-1.497057,0.238635,0.074517,-0.000000,0.000000,0.000000
-0.040000,1.040000,0.960052,0.080000,-1753.069760,-1.493696,0.235267,0.024562,-0.000000,0.000000,0.000000
0.040000,1.040000,0.960052,0.080000,-1753.069561,-1.493696,0.235267,-0.024561,-0.000000,0.000000,-0.000000
0.120000,1.040000,0.960469,0.080000,-1753.067854,-1.497056,0.238635,-0.074515,-0.000000,0.000000,-0.000000
0.200000,1.040000,0.961301,0.080000,-1753.064617,-1.503699,0.245294,-0.126983,-0.000000,0.000000,-0.000000
0.280000,1.040000,0.960469,0.080000,-1753.059808,-1.513457,0.255079,-0.183703,-0.000000,0.000000,-0.000000
0.360000,1.040000,0.960052,0.080000,-1753.053365,-1.526055,0.267716,-0.246514,-0.000000,0.000000,-0.000000
0.440000,1.040000,0.960052,0.080000,-1753.045206,-1.541068,0.282783,-0.317389,-0.000000,0.000000,-0.000000
0.520000,1.040000,0.960469,0.080000,-1753.035236,-1.557878,0.299665,-0.398475,-0.000000,0.000000,-0.000000
0.600000,1.040000,0.961301,0.080000,-1753.023348,-1.575593,0.317478,-0.492126,-0.000000,0.000000,-0.000000
0.680000,1.040000,0.960469,0.080000,-1753.009428,-1.592959,0.334974,-0.600937,-0.000000,0.000000,-0.000000
0.760000,1.040000,0.960052,0.080000,-1752.993366,-1.608229,0.350415,-0.727754,-0.000000,0.000000,-0.000000
0.840000,1.040000,0.960052,0.080000,-1752.975064,-1.618997,0.361408,-0.875677,-0.000000,0.000000,-0.000000
0.920000,1.040000,0.960469,0.080000,-1752.954455,-1.621984,0.364689,-1.048023,-0.000000,0.000000,-0.000000
1.000000,1.040000,0.961301,0.080000,-1752.931520,-1.612774,0.355863,-1.248230,-0.000000,0.000000,-0.000000
1.080000,1.040000,0.960469,0.080000,-1752.906321,-1.585489,0.329070,-1.479688,-0.000000,0.000000,-0.000000
1.160000,1.040000,0.960052,0.080000,-1752.879035,-1.532398,0.276607,-1.745432,-0.000000,0.000000,-0.000000
1.240000,1.040000,0.960052,0.080000,-1752.850003,-1.443503,0.188498,-2.047653,-0.000000,0.000000,-0.000000
1.320000,1.040000,0.960469,0.080000,-1752.819800,-1.306109,0.052070,-2.386946,-0.000000,0.000000,-0.000000
1.400000,1.040000,0.961301,0.080000,-1752.789309,-1.104487,-0.148399,-2.761205,-0.000000,0.000000,-0.000000
1.480000,1.040000,0.960469,0.080000,-1752.759827,-0.819783,-0.431786,-3.164075,-0.000000,-0.000000,-0.000000
1.560000,1.040000,0.940053,0.080000,-1752.733184,-0.430409,-0.819749,-3.582891,-0.000000,-0.000000,-0.000000
1.640000,1.040000,0.860058,0.080000,-1752.711879,0.086694,-1.335497,-3.996140,0.000000,-0.000000,-0.000000
1.720000,1.040000,0.780064,0.080000,-1752.699229,0.753427,-2.001193,-4.370661,0.000000,-0.000000,-0.000000
1.800000,1.040000,0.700071,0.080000,-1752.699506,1.585977,-2.833424,-4.659142,0.000000,-0.000000,-0.000000
1.880000,1.040000,0.620081,0.080000,-1752.718040,2.587903,-3.836294,-4.799003,0.000000,-0.000000,-0.000000
1.960000,1.040000,0.540093,0.080000,-1752.761236,3.752546,-5.031856,-4.708206,0.000000,-0.000000,-0.000000
2.040000,1.040000,0.460109,0.080000,-1752.836456,5.009753,-6.283541,-4.328424,0.000000,-0.000000,-0.000000
2.120000,1.040000,0.380132,0.080000,-1752.951694,6.275196,-7.558206,-3.554499,0.000000,-0.000000,-0.000000
-2.120000,1.120000,0.381182,0.080000,-1752.706563,7.318210,-8.613809,5.029009,0.000000,-0.000000,0.000000
-2.040000,1.120000,0.460977,0.080000,-1752.620880,5.568178,-6.844335,5.820222,0.000000,-0.000000,0.000000
-1.960000,1.120000,0.540833,0.080000,-1752.578783,3.915175,-5.196933,6.091409,0.000000,-0.000000,0.000000
-1.880000,1.120000,0.620725,0.080000,-1752.569763,2.457301,-3.699811,5.999778,0.000000,-0.000000,0.000000
-1.800000,1.120000,0.700643,0.080000,-1752.584603,1.264050,-2.506670,5.651390,0.000000,-0.000000,0.000000
-1.720000,1.120000,0.780577,0.080000,-1752.615667,0.321398,-1.565551,5.157813,0.000000,-0.000000,0.000000
-1.640000,1.120000,0.860523,0.080000,-1752.656914,-0.394424,-0.851883,4.598908,-0.000000,-0.000000,0.000000
-1.560000,1.120000,0.880057,0.080000,-1752.703750,-0.918389,-0.330179,4.029553,-0.000000,0.000000,0.000000
-1.480000,1.120000,0.880511,0.080000,-1752.752811,-1.287739,0.037086,3.484209,-0.000000,0.000000,0.000000
-1.400000,1.120000,0.881419,0.080000,-1752.801720,-1.537017,0.284575,2.982192,-0.000000,0.000000,0.000000
-1.320000,1.120000,0.880511,0.080000,-1752.848872,-1.695845,0.441940,2.532382,-0.000000,0.000000,0.000000
-1.240000,1.120000,0.880057,0.080000,-1752.893243,-1.788362,0.533297,2.136941,-0.000000,0.000000,0.000000
-1.160000,1.120000,0.880057,0.080000,-1752.934235,-1.833554,0.577591,1.794002,-0.000000,0.000000,0.000000
-1.080000,1.120000,0.880511,0.080000,-1752.971553,-1.845961,0.589313,1.499509,-0.000000,0.000000,0.000000
-1.000000,1.120000,0.881419,0.080000,-1753.005116,-1.836493,0.579329,1.248408,-0.000000,0.000000,0.000000
-0.920000,1.120000,0.880511,0.080000,-1753.034980,-1.813194,0.555645,1.035377,-0.000000,0.000000,0.000000
-0.840000,1.120000,0.880057,0.080000,-1753.061294,-1.781908,0.524074,0.855241,-0.000000,0.000000,0.000000
-0.760000,1.120000,0.880057,0.080000,-1753.084257,-1.746820,0.488777,0.703199,-0.000000,0.000000,0.000000
-0.680000,1.120000,0.880511,0.080000,-1753.104092,-1.710886,0.452689,0.574906,-0.000000,0.000000,0.000000
-0.600000,1.120000,0.881419,0.080000,-1753.121029,-1.676158,0.417849,0.466501,-0.000000,0.000000,0.000000
-0.520000,1.120000,0.880511,0.080000,-1753.135289,-1.644041,0.385650,0.374574,-0.000000,0.000000,0.000000
-0.440000,1.120000,0.880057,0.080000,-1753.147080,-1.615477,0.357027,0.296126,-0.000000,0.000000,0.000000
-0.360000,1.120000,0.880057,0.080000,-1753.156582,-1.591080,0.332589,0.228510,-0.000000,0.000000,0.000000
-0.280000,1.120000,0.880511,0.080000,-1753.163952,-1.571246,0.312725,0.169370,-0.000000,0.000000,0.000000
-0.200000,1.120000,0.881419,0.080000,-1753.169317,-1.556216,0.297676,0.116588,-0.000000,0.000000,0.000000
-0.120000,1.120000,0.880511,0.080000,-1753.172774,-1.546133,0.287580,0.068221,-0.000000,0.000000,0.000000
-0.040000,1.120000,0.880057,0.080000,-1753.174387,-1.541075,0.282516,0.022454,-0.000000,0.000000,0.000000
0.040000,1.120000,0.880057,0.080000,-1753.174188,-1.541074,0.282516,-0.022453,-0.000000,0.000000,-0.000000
0.120000,1.120000,0.880511,0.080000,-1753.172177,-1.546133,0.287580,-0.068220,-0.000000,0.000000,-0.000000
0.200000,1.120000,0.881419,0.080000,-1753.168322,-1.556215,0.297674,-0.116586,-0.000000,0.000000,-0.000000
0.280000,1.120000,0.880511,0.080000,-1753.162558,-1.571245,0.312724,-0.169369,-0.000000,0.000000,-0.000000
0.360000,1.120000,0.880057,0.080000,-1753.154790,-1.591079,0.332587,-0.228508,-0.000000,0.000000,-0.000000
0.440000,1.120000,0.880057,0.080000,-1753.144889,-1.615474,0.357024,-0.296124,-0.000000,0.000000,-0.000000
0.520000,1.120000,0.880511,0.080000,-1753.132701,-1.644039,0.385647,-0.374571,-0.000000,0.000000,-0.000000
0.600000,1.120000,0.881419,0.080000,-1753.118042,-1.676155,0.417845,-0.466497,-0.000000,0.000000,-0.000000
0.680000,1.120000,0.880511,0.080000,-1753.100707,-1.710882,0.452685,-0.574902,-0.000000,0.000000,-0.000000
0.760000,1.120000,0.880057,0.080000,-1753.080474,-1.746816,0.488773,-0.703193,-0.000000,0.000000,-0.000000
0.840000,1.120000,0.880057,0.080000,-1753.057113,-1.781904,0.524070,-0.855234,-0.000000,0.000000,-0.000000
0.920000,1.120000,0.880511,0.080000,-1753.030401,-1.813189,0.555640,-1.035368,-0.000000,0.000000,-0.000000
1.000000,1.120000,0.881419,0.080000,-1753.000139,-1.836488,0.579324,-1.248398,-0.000000,0.000000,-0.000000
1.080000,1.120000,0.880511,0.080000,-1752.966178,-1.845956,0.589308,-1.499497,-0.000000,0.000000,-0.000000
1.160000,1.120000,0.880057,0.080000,-1752.928462,-1.833549,0.577585,-1.793987,-0.000000,0.000000,-0.000000
1.240000,1.120000,0.880057,0.080000,-1752.887072,-1.788358,0.533292,-2.136924,-0.000000,0.000000,-0.000000
1.320000,1.120000,0.880511,0.080000,-1752.842303,-1.695841,0.441936,-2.532361,-0.000000,0.000000,-0.000000
1.400000,1.120000,0.881419,0.080000,-1752.794753,-1.537014,0.284573,-2.982167,-0.000000,0.000000,-0.000000
1.480000,1.120000,0.880511,0.080000,-1752.745446,-1.287738,0.037085,-3.484180,-0.000000,0.000000,-0.000000
1.560000,1.120000,0.880057,0.080000,-1752.695988,-0.918390,-0.330177,-4.029519,-0.000000,0.000000,-0.000000
1.640000,1.120000,0.860523,0.080000,-1752.648754,-0.394430,-0.851878,-4.598870,-0.000000,-0.000000,-0.000000
1.720000,1.120000,0.780577,0.080000,-1752.607109,0.321386,-1.565540,-5.157770,0.000000,-0.000000,-0.000000
1.800000,1.120000,0.700643,0.080000,-1752.575647,1.264031,-2.506651,-5.651343,0.000000,-0.000000,-0.000000
1.880000,1.120000,0.620725,0.080000,-1752.560409,2.457273,-3.699783,-5.999728,0.000000,-0.000000,-0.000000
1.960000,1.120000,0.540833,0.080000,-1752.569030,3.915136,-5.196894,-6.091357,0.000000,-0.000000,-0.000000
2.040000,1.120000,0.460977,0.080000,-1752.610729,5.568126,-6.844283,-5.820172,0.000000,-0.000000,-0.000000
2.120000,1.120000,0.381182,0.080000,-1752.696013,7.318144,-8.613743,-5.028964,0.000000,-0.000000,-0.000000
-2.120000,1.200000,0.383275,0.080000,-1752.404145,8.430888,-9.740427,7.120263,0.000000,-0.000000,0.000000
-2.040000,1.200000,0.462709,0.080000,-1752.359723,6.016734,-7.294358,7.823194,0.000000,-0.000000,0.000000
-1.960000,1.200000,0.542310,0.080000,-1752.361769,3.863110,-5.145872,7.853365,0.000000,-0.000000,0.000000
-1.880000,1.200000,0.622013,0.080000,-1752.396586,2.070162,-3.304317,7.448175,0.000000,-0.000000,0.000000
-1.800000,1.200000,0.701783,0.080000,-1752.452834,0.687482,-1.923901,6.784228,0.000000,-0.000000,0.000000
-1.720000,1.200000,0.781601,0.080000,-1752.521652,-0.339200,-0.900772,6.006035,0.000000,-0.000000,0.000000
-1.640000,1.200000,0.800062,0.080000,-1752.596449,-1.067674,-0.176070,5.208698,-0.000000,0.000000,0.000000
-1.560000,1.200000,0.800062,0.080000,-1752.672541,-1.560464,0.313288,4.449686,-0.000000,0.000000,0.000000
-1.480000,1.200000,0.800562,0.080000,-1752.746756,-1.874906,0.624857,3.759297,-0.000000,0.000000,0.000000
-1.400000,1.200000,0.801561,0.080000,-1752.817064,-2.059066,0.806736,3.149870,-0.000000,0.000000,0.000000
-1.320000,1.200000,0.800562,0.080000,-1752.882275,-2.151027,0.896948,2.622795,-0.000000,0.000000,0.000000
-1.240000,1.200000,0.800062,0.080000,-1752.941791,-2.179807,0.924420,2.173373,-0.000000,0.000000,0.000000
-1.160000,1.200000,0.800062,0.080000,-1752.995419,-2.166894,0.910545,1.793965,-0.000000,0.000000,0.000000
-1.080000,1.200000,0.800562,0.080000,-1753.043239,-2.127838,0.870792,1.475896,-0.000000,0.000000,0.000000
-1.000000,1.200000,0.801561,0.080000,-1753.085497,-2.073681,0.816135,1.210544,-0.000000,0.000000,0.000000
-0.920000,1.200000,0.800562,0.080000,-1753.122536,-2.012119,0.754217,0.989895,-0.000000,0.000000,0.000000
-0.840000,1.200000,0.800062,0.080000,-1753.154750,-1.948420,0.690268,0.806788,-0.000000,0.000000,0.000000
-0.760000,1.200000,0.800062,0.080000,-1753.182545,-1.886113,0.627785,0.654972,-0.000000,0.000000,0.000000
-0.680000,1.200000,0.800562,0.080000,-1753.206319,-1.827501,0.569051,0.529063,-0.000000,0.000000,0.000000
-0.600000,1.200000,0.801561,0.080000,-1753.226448,-1.774039,0.515504,0.424463,-0.000000,0.000000,0.000000
-0.520000,1.200000,0.800562,0.080000,-1753.243274,-1.726602,0.468010,0.337252,-0.000000,0.000000,0.000000
-0.440000,1.200000,0.800062,0.080000,-1753.257099,-1.685682,0.427051,0.264080,-0.000000,0.000000,0.000000
-0.360000,1.200000,0.800062,0.080000,-1753.268186,-1.651522,0.392866,0.202066,-0.000000,0.000000,0.000000
-0.280000,1.200000,0.800562,0.080000,-1753.276755,-1.624218,0.365544,0.148709,-0.000000,0.000000,0.000000
-0.200000,1.200000,0.801561,0.080000,-1753.282978,-1.603780,0.345095,0.101796,-0.000000,0.000000,0.000000
-0.120000,1.200000,0.800562,0.080000,-1753.286989,-1.590182,0.331491,0.059337,-0.000000,0.000000,0.000000
-0.040000,1.200000,0.800062,0.080000,-1753.288872,-1.583393,0.324700,0.019492,-0.000000,0.000000,0.000000
0.040000,1.200000,0.800062,0.080000,-1753.288673,-1.583393,0.324699,-0.019492,-0.000000,0.000000,-0.000000
0.120000,1.200000,0.800562,0.080000,-1753.286391,-1.590181,0.331491,-0.059337,-0.000000,0.000000,-0.000000
0.200000,1.200000,0.801561,0.080000,-1753.281983,-1.603778,0.345094,-0.101795,-0.000000,0.000000,-0.000000
0.280000,1.200000,0.800562,0.080000,-1753.275361,-1.624216,0.365543,-0.148707,-0.000000,0.000000,-0.000000
0.360000,1.200000,0.800062,0.080000,-1753.266394,-1.651520,0.392864,-0.202065,-0.000000,0.000000,-0.000000
0.440000,1.200000,0.800062,0.080000,-1753.254909,-1.685679,0.427048,-0.264078,-0.000000,0.000000,-0.000000
0.520000,1.200000,0.800562,0.080000,-1753.240685,-1.726599,0.468007,-0.337249,-0.000000,0.000000,-0.000000
0.600000,1.200000,0.801561,0.080000,-1753.223462,-1.774035,0.515500,-0.424460,-0.000000,0.000000,-0.000000
0.680000,1.200000,0.800562,0.080000,-1753.202935,-1.827496,0.569046,-0.529059,-0.000000,0.000000,-0.000000
0.760000,1.200000,0.800062,0.080000,-1753.178762,-1.886108,0.627779,-0.654967,-0.000000,0.000000,-0.000000
0.840000,1.200000,0.800062,0.080000,-1753.150569,-1.948415,0.690262,-0.806782,-0.000000,0.000000,-0.000000
0.920000,1.200000,0.800562,0.080000,-1753.117957,-2.012113,0.754211,-0.989887,-0.000000,0.000000,-0.000000
1.000000,1.200000,0.801561,0.080000,-1753.080520,-2.073674,0.816128,-1.210534,-0.000000,0.000000,-0.000000
1.080000,1.200000,0.800562,0.080000,-1753.037865,-2.127831,0.870784,-1.475884,-0.000000,0.000000,-0.000000
1.160000,1.200000,0.800062,0.080000,-1752.989647,-2.166886,0.910537,-1.793950,-0.000000,0.000000,-0.000000
1.240000,1.200000,0.800062,0.080000,-1752.935620,-2.179799,0.924412,-2.173356,-0.000000,0.000000,-0.000000
1.320000,1.200000,0.800562,0.080000,-1752.875707,-2.151019,0.896940,-2.622773,-0.000000,0.000000,-0.000000
1.400000,1.200000,0.801561,0.080000,-1752.810098,-2.059059,0.806729,-3.149844,-0.000000,0.000000,-0.000000
1.480000,1.200000,0.800562,0.080000,-1752.739392,-1.874900,0.624851,-3.759266,-0.000000,0.000000,-0.000000
1.560000,1.200000,0.800062,0.080000,-1752.664780,-1.560461,0.313285,-4.449650,-0.000000,0.000000,-0.000000
1.640000,1.200000,0.800062,0.080000,-1752.588290,-1.067674,-0.176070,-5.208656,-0.000000,0.000000,-0.000000
1.720000,1.200000,0.781601,0.080000,-1752.513096,-0.339206,-0.900767,-6.005986,0.000000,-0.000000,-0.000000
1.800000,1.200000,0.701783,0.080000,-1752.443880,0.687468,-1.923887,-6.784172,0.000000,-0.000000,-0.000000
1.880000,1.200000,0.622013,0.080000,-1752.387235,2.070138,-3.304293,-7.448114,0.000000,-0.000000,-0.000000
1.960000,1.200000,0.542310,0.080000,-1752.352019,3.863072,-5.145834,-7.853300,0.000000,-0.000000,-0.000000
2.040000,1.200000,0.462709,0.080000,-1752.349576,6.016679,-7.294304,-7.823129,0.000000,-0.000000,-0.000000
2.120000,1.200000,0.383275,0.080000,-1752.393598,8.430815,-9.740354,-7.120202,0.000000,-0.000000,-0.000000
-2.120000,1.280000,0.381182,0.080000,-1752.048010,9.485575,-10.807619,10.090107,0.000000,-0.000000,0.000000
-2.040000,1.280000,0.460977,0.080000,-1752.060442,6.181440,-7.458230,10.488020,0.000000,-0.000000,0.000000
-1.960000,1.280000,0.540833,0.080000,-1752.120435,3.424575,-4.705243,10.056357,0.000000,-0.000000,0.000000
-1.880000,1.280000,0.620725,0.080000,-1752.210446,1.284122,-2.507030,9.143958,0.000000,-0.000000,0.000000
-1.800000,1.280000,0.700643,0.080000,-1752.316924,-0.248660,-0.980381,8.023418,0.000000,-0.000000,0.000000
-1.720000,1.280000,0.720625,0.080000,-1752.430022,-1.298547,0.062889,6.867126,-0.000000,0.000000,0.000000
-1.640000,1.280000,0.720069,0.080000,-1752.542985,-1.975585,0.734011,5.775703,-0.000000,0.000000,0.000000
-1.560000,1.280000,0.720069,0.080000,-1752.651445,-2.379260,1.132884,4.798290,-0.000000,0.000000,0.000000
-1.480000,1.280000,0.720625,0.080000,-1752.752792,-2.590654,1.340605,3.951677,-0.000000,0.000000,0.000000
-1.400000,1.280000,0.721734,0.080000,-1752.845652,-2.671795,1.419040,3.234244,-0.000000,0.000000,0.000000
-1.320000,1.280000,0.720625,0.080000,-1752.929489,-2.668139,1.413447,2.635108,-0.000000,0.000000,0.000000
-1.240000,1.280000,0.720069,0.080000,-1753.004318,-2.611970,1.355915,2.139653,-0.000000,0.000000,0.000000
-1.160000,1.280000,0.720069,0.080000,-1753.070490,-2.525638,1.268642,1.732620,-0.000000,0.000000,0.000000
-1.080000,1.280000,0.720625,0.080000,-1753.128554,-2.424273,1.166634,1.399683,-0.000000,0.000000,0.000000
-1.000000,1.280000,0.721734,0.080000,-1753.179154,-2.317880,1.059810,1.128127,-0.000000,0.000000,0.000000
-0.920000,1.280000,0.720625,0.080000,-1753.222971,-2.212903,0.954545,0.907030,-0.000000,0.000000,0.000000
-0.840000,1.280000,0.720069,0.080000,-1753.260674,-2.113347,0.854801,0.727195,-0.000000,0.000000,0.000000
-0.760000,1.280000,0.720069,0.080000,-1753.292901,-2.021577,0.762911,0.580971,-0.000000,0.000000,0.000000
-0.680000,1.280000,0.720625,0.080000,-1753.320239,-1.938877,0.680136,0.462026,-0.000000,0.000000,0.000000
-0.600000,1.280000,0.721734,0.080000,-1753.343217,-1.865836,0.607050,0.365134,-0.000000,0.000000,0.000000
-0.520000,1.280000,0.720625,0.080000,-1753.362303,-1.802611,0.543799,0.285970,-0.000000,0.000000,0.000000
-0.440000,1.280000,0.720069,0.080000,-1753.377902,-1.749107,0.490282,0.220938,-0.000000,0.000000,0.000000
-0.360000,1.280000,0.720069,0.080000,-1753.390356,-1.705101,0.446270,0.167017,-0.000000,0.000000,0.000000
-0.280000,1.280000,0.720625,0.080000,-1753.399947,-1.670322,0.411490,0.121638,-0.000000,0.000000,0.000000
-0.200000,1.280000,0.721734,0.080000,-1753.406899,-1.644505,0.385673,0.082576,-0.000000,0.000000,0.000000
-0.120000,1.280000,0.720625,0.080000,-1753.411375,-1.627428,0.368597,0.047855,-0.000000,0.000000,0.000000
-0.040000,1.280000,0.720069,0.080000,-1753.413487,-1.618931,0.360100,0.015673,-0.000000,0.000000,0.000000
0.040000,1.280000,0.720069,0.080000,-1753.413288,-1.618930,0.360099,-0.015673,-0.000000,0.000000,-0.000000
0.120000,1.280000,0.720625,0.080000,-1753.410778,-1.627427,0.368596,-0.047855,-0.000000,0.000000,-0.000000
0.200000,1.280000,0.721734,0.080000,-1753.405903,-1.644504,0.385672,-0.082576,-0.000000,0.000000,-0.000000
0.280000,1.280000,0.720625,0.080000,-1753.398553,-1.670320,0.411488,-0.121638,-0.000000,0.000000,-0.000000
0.360000,1.280000,0.720069,0.080000,-1753.388564,-1.705098,0.446268,-0.167016,-0.000000,0.000000,-0.000000
0.440000,1.280000,0.720069,0.080000,-1753.375712,-1.749103,0.490279,-0.220936,-0.000000,0.000000,-0.000000
0.520000,1.280000,0.720625,0.080000,-1753.359715,-1.802607,0.543795,-0.285968,-0.000000,0.000000,-0.000000
0.600000,1.280000,0.721734,0.080000,-1753.340231,-1.865831,0.607046,-0.365131,-0.000000,0.000000,-0.000000
0.680000,1.280000,0.720625,0.080000,-1753.316855,-1.938872,0.680131,-0.462023,-0.000000,0.000000,-0.000000
0.760000,1.280000,0.720069,0.080000,-1753.289119,-2.021570,0.762905,-0.580966,-0.000000,0.000000,-0.000000
0.840000,1.280000,0.720069,0.080000,-1753.256494,-2.113340,0.854794,-0.727190,-0.000000,0.000000,-0.000000
0.920000,1.280000,0.720625,0.080000,-1753.218392,-2.212895,0.954537,-0.907023,-0.000000,0.000000,-0.000000
1.000000,1.280000,0.721734,0.080000,-1753.174178,-2.317871,1.059801,-1.128118,-0.000000,0.000000,-0.000000
1.080000,1.280000,0.720625,0.080000,-1753.123180,-2.424263,1.166625,-1.399672,-0.000000,0.000000,-0.000000
1.160000,1.280000,0.720069,0.080000,-1753.064718,-2.525627,1.268631,-1.732606,-0.000000,0.000000,-0.000000
1.240000,1.280000,0.720069,0.080000,-1752.998148,-2.611958,1.355904,-2.139635,-0.000000,0.000000,-0.000000
1.320000,1.280000,0.720625,0.080000,-1752.922922,-2.668127,1.413435,-2.635087,-0.000000,0.000000,-0.000000
1.400000,1.280000,0.721734,0.080000,-1752.838687,-2.671782,1.419028,-3.234217,-0.000000,0.000000,-0.000000
1.480000,1.280000,0.720625,0.080000,-1752.745430,-2.590642,1.340593,-3.951645,-0.000000,0.000000,-0.000000
1.560000,1.280000,0.720069,0.080000,-1752.643686,-2.379250,1.132874,-4.798251,-0.000000,0.000000,-0.000000
1.640000,1.280000,0.720069,0.080000,-1752.534828,-1.975578,0.734004,-5.775656,-0.000000,0.000000,-0.000000
1.720000,1.280000,0.720625,0.080000,-1752.421468,-1.298545,0.062887,-6.867071,-0.000000,0.000000,-0.000000
1.800000,1.280000,0.700643,0.080000,-1752.307972,-0.248666,-0.980376,-8.023354,0.000000,-0.000000,-0.000000
1.880000,1.280000,0.620725,0.080000,-1752.201097,1.284105,-2.507013,-9.143884,0.000000,-0.000000,-0.000000
1.960000,1.280000,0.540833,0.080000,-1752.110688,3.424541,-4.705209,-10.056275,0.000000,-0.000000,-0.000000
2.040000,1.280000,0.460977,0.080000,-1752.050298,6.181386,-7.458175,-10.487934,0.000000,-0.000000,-0.000000
2.120000,1.280000,0.381182,0.080000,-1752.037467,9.485496,-10.807539,-10.090023,0.000000,-0.000000,-0.000000
-2.120000,1.360000,0.380132,0.080000,-1751.631648,10.203283,-11.538623,14.284377,0.000000,-0.000000,0.000000
-2.040000,1.360000,0.460109,0.080000,-1751.722262,5.756210,-7.027588,13.967464,0.000000,-0.000000,0.000000
-1.960000,1.360000,0.540093,0.080000,-1751.857810,2.337874,-3.610867,12.723235,0.000000,-0.000000,0.000000
-1.880000,1.360000,0.620081,0.080000,-1752.016511,-0.092224,-1.116824,11.034062,0.000000,-0.000000,0.000000
-1.800000,1.360000,0.641950,0.080000,-1752.182952,-1.668884,0.447497,9.286045,-0.000000,0.000000,0.000000
-1.720000,1.360000,0.640703,0.080000,-1752.346969,-2.628622,1.396453,7.654909,-0.000000,0.000000,0.000000
-1.640000,1.360000,0.640078,0.080000,-1752.502359,-3.153611,1.913028,6.223487,-0.000000,0.000000,0.000000
-1.560000,1.360000,0.640078,0.080000,-1752.645713,-3.387089,2.140362,5.013185,-0.000000,0.000000,0.000000
-1.480000,1.360000,0.640703,0.080000,-1752.775501,-3.433883,2.182858,4.013450,-0.000000,0.000000,0.000000
-1.400000,1.360000,0.641950,0.080000,-1752.891398,-3.367140,2.113198,3.199779,-0.000000,0.000000,0.000000
-1.320000,1.360000,0.640703,0.080000,-1752.993816,-3.236137,1.980260,2.543688,-0.000000,0.000000,0.000000
-1.240000,1.360000,0.640078,0.080000,-1753.083583,-3.073117,1.815982,2.017699,-0.000000,0.000000,0.000000
-1.160000,1.360000,0.640078,0.080000,-1753.161736,-2.898585,1.640648,1.597467,-0.000000,0.000000,0.000000
-1.080000,1.360000,0.640703,0.080000,-1753.229387,-2.725161,1.466724,1.262402,-0.000000,0.000000,0.000000
-1.000000,1.360000,0.641950,0.080000,-1753.287645,-2.560275,1.301537,0.995548,-0.000000,0.000000,0.000000
-0.920000,1.360000,0.640703,0.080000,-1753.337564,-2.408007,1.149096,0.783164,-0.000000,0.000000,0.000000
-0.840000,1.360000,0.640078,0.080000,-1753.380118,-2.270318,1.011314,0.614216,-0.000000,0.000000,0.000000
-0.760000,1.360000,0.640078,0.080000,-1753.416189,-2.147863,0.888816,0.479876,-0.000000,0.000000,0.000000
-0.680000,1.360000,0.640703,0.080000,-1753.446561,-2.040531,0.781471,0.373088,-0.000000,0.000000,0.000000
-0.600000,1.360000,0.641950,0.080000,-1753.471921,-1.947783,0.688727,0.288198,-0.000000,0.000000,0.000000
-0.520000,1.360000,0.640703,0.080000,-1753.492863,-1.868882,0.609840,0.220654,-0.000000,0.000000,0.000000
-0.440000,1.360000,0.640078,0.080000,-1753.509892,-1.803031,0.544006,0.166760,-0.000000,0.000000,0.000000
-0.360000,1.360000,0.640078,0.080000,-1753.523431,-1.749459,0.490450,0.123483,-0.000000,0.000000,0.000000
-0.280000,1.360000,0.640703,0.080000,-1753.533823,-1.707476,0.448483,0.088294,-0.000000,0.000000,0.000000
-0.200000,1.360000,0.641950,0.080000,-1753.541337,-1.676507,0.417527,0.059043,-0.000000,0.000000,0.000000
-0.120000,1.360000,0.640703,0.080000,-1753.546171,-1.656112,0.397140,0.033852,-0.000000,0.000000,0.000000
-0.040000,1.360000,0.640078,0.080000,-1753.548456,-1.645989,0.387021,0.011025,-0.000000,0.000000,0.000000
0.040000,1.360000,0.640078,0.080000,-1753.548257,-1.645989,0.387021,-0.011025,-0.000000,0.000000,-0.000000
0.120000,1.360000,0.640703,0.080000,-1753.545574,-1.656111,0.397139,-0.033852,-0.000000,0.000000,-0.000000
0.200000,1.360000,0.641950,0.080000,-1753.540342,-1.676506,0.417525,-0.059044,-0.000000,0.000000,-0.000000
0.280000,1.360000,0.640703,0.080000,-1753.532430,-1.707473,0.448480,-0.088294,-0.000000,0.000000,-0.000000
0.360000,1.360000,0.640078,0.080000,-1753.521640,-1.749455,0.490447,-0.123483,-0.000000,0.000000,-0.000000
0.440000,1.360000,0.640078,0.080000,-1753.507702,-1.803027,0.544002,-0.166759,-0.000000,0.000000,-0.000000
0.520000,1.360000,0.640703,0.080000,-1753.490274,-1.868878,0.609836,-0.220653,-0.000000,0.000000,-0.000000
0.600000,1.360000,0.641950,0.080000,-1753.468934,-1.947777,0.688722,-0.288196,-0.000000,0.000000,-0.000000
0.680000,1.360000,0.640703,0.080000,-1753.443176,-2.040524,0.781464,-0.373086,-0.000000,0.000000,-0.000000
0.760000,1.360000,0.640078,0.080000,-1753.412407,-2.147856,0.888809,-0.479873,-0.000000,0.000000,-0.000000
0.840000,1.360000,0.640078,0.080000,-1753.375938,-2.270309,1.011305,-0.614212,-0.000000,0.000000,-0.000000
0.920000,1.360000,0.640703,0.080000,-1753.332986,-2.407998,1.149086,-0.783158,-0.000000,0.000000,-0.000000
1.000000,1.360000,0.641950,0.080000,-1753.282669,-2.560264,1.301526,-0.995540,-0.000000,0.000000,-0.000000
1.080000,1.360000,0.640703,0.080000,-1753.224013,-2.725148,1.466712,-1.262392,-0.000000,0.000000,-0.000000
1.160000,1.360000,0.640078,0.080000,-1753.155964,-2.898571,1.640634,-1.597454,-0.000000,0.000000,-0.000000
1.240000,1.360000,0.640078,0.080000,-1753.077414,-3.073102,1.815966,-2.017682,-0.000000,0.000000,-0.000000
1.320000,1.360000,0.640703,0.080000,-1752.987250,-3.236120,1.980243,-2.543667,-0.000000,0.000000,-0.000000
1.400000,1.360000,0.641950,0.080000,-1752.884434,-3.367122,2.113180,-3.199753,-0.000000,0.000000,-0.000000
1.480000,1.360000,0.640703,0.080000,-1752.768139,-3.433865,2.182840,-4.013418,-0.000000,0.000000,-0.000000
1.560000,1.360000,0.640078,0.080000,-1752.637954,-3.387071,2.140344,-5.013144,-0.000000,0.000000,-0.000000
1.640000,1.360000,0.640078,0.080000,-1752.494203,-3.153595,1.913012,-6.223437,-0.000000,0.000000,-0.000000
1.720000,1.360000,0.640703,0.080000,-1752.338416,-2.628610,1.396440,-7.654848,-0.000000,0.000000,-0.000000
1.800000,1.360000,0.641950,0.080000,-1752.174002,-1.668879,0.447492,-9.285971,-0.000000,0.000000,-0.000000
1.880000,1.360000,0.620081,0.080000,-1752.007165,-0.092231,-1.116817,-11.033974,0.000000,-0.000000,-0.000000
1.960000,1.360000,0.540093,0.080000,-1751.848066,2.337849,-3.610842,-12.723134,0.000000,-0.000000,-0.000000
2.040000,1.360000,0.460109,0.080000,-1751.712121,5.756160,-7.027538,-13.967352,0.000000,-0.000000,-0.000000
2.120000,1.360000,0.380132,0.080000,-1751.621110,10.203200,-11.538539,-14.284261,0.000000,-0.000000,-0.000000
-2.120000,1.440000,0.380132,0.080000,-1751.150898,10.018086,-11.369547,20.105461,0.000000,-0.000000,0.000000
-2.040000,1.440000,0.460109,0.080000,-1751.348345,4.231563,-5.489786,18.352418,0.000000,-0.000000,0.000000
-1.960000,1.440000,0.540093,0.080000,-1751.581154,0.229544,-1.486220,15.775381,0.000000,-0.000000,0.000000
-1.880000,1.440000,0.560803,0.080000,-1751.823758,-2.293504,1.098944,12.968246,-0.000000,0.000000,0.000000
-1.800000,1.440000,0.562228,0.080000,-1752.060100,-3.701300,2.485707,10.414784,-0.000000,0.000000,0.000000
-1.720000,1.440000,0.560803,0.080000,-1752.281047,-4.386546,3.155358,8.233171,-0.000000,0.000000,0.000000
-1.640000,1.440000,0.560089,0.080000,-1752.482121,-4.616614,3.374705,6.445179,-0.000000,0.000000,0.000000
-1.560000,1.440000,0.560089,0.080000,-1752.661788,-4.576320,3.327392,5.015429,-0.000000,0.000000,0.000000
-1.480000,1.440000,0.560803,0.080000,-1752.820265,-4.386718,3.133351,3.888649,-0.000000,0.000000,0.000000
-1.400000,1.440000,0.562228,0.080000,-1752.958739,-4.123959,2.867865,3.007990,-0.000000,0.000000,0.000000
-1.320000,1.440000,0.560803,0.080000,-1753.078876,-3.834247,2.576523,2.322739,-0.000000,0.000000,0.000000
-1.240000,1.440000,0.560089,0.080000,-1753.182524,-3.544509,2.285845,1.790640,-0.000000,0.000000,0.000000
-1.160000,1.440000,0.560089,0.080000,-1753.271531,-3.269596,2.010421,1.377770,-0.000000,0.000000,0.000000
-1.080000,1.440000,0.560803,0.080000,-1753.347655,-3.016976,1.757551,1.057453,-0.000000,0.000000,0.000000
-1.000000,1.440000,0.562228,0.080000,-1753.412512,-2.789715,1.530189,0.808951,-0.000000,0.000000,0.000000
-0.920000,1.440000,0.560803,0.080000,-1753.467558,-2.588330,1.328788,0.616234,-0.000000,0.000000,0.000000
-0.840000,1.440000,0.560089,0.080000,-1753.514081,-2.411941,1.152427,0.466925,-0.000000,0.000000,0.000000
-0.760000,1.440000,0.560089,0.080000,-1753.553213,-2.258970,0.999511,0.351464,-0.000000,0.000000,0.000000
-0.680000,1.440000,0.560803,0.080000,-1753.585931,-2.127573,0.868178,0.262435,-0.000000,0.000000,0.000000
-0.600000,1.440000,0.562228,0.080000,-1753.613080,-2.015876,0.756545,0.194060,-0.000000,0.000000,0.000000
-0.520000,1.440000,0.560803,0.080000,-1753.635373,-1.922115,0.662839,0.141798,-0.000000,0.000000,0.000000
-0.440000,1.440000,0.560089,0.080000,-1753.653413,-1.844699,0.585471,0.102049,-0.000000,0.000000,0.000000
-0.360000,1.440000,0.560089,0.080000,-1753.667695,-1.782253,0.523068,0.071923,-0.000000,0.000000,0.000000
-0.280000,1.440000,0.560803,0.080000,-1753.678620,-1.733640,0.474491,0.049058,-0.000000,0.000000,0.000000
-0.200000,1.440000,0.562228,0.080000,-1753.686498,-1.697962,0.438839,0.031482,-0.000000,0.000000,0.000000
-0.120000,1.440000,0.560803,0.080000,-1753.691559,-1.674550,0.415442,0.017501,-0.000000,0.000000,0.000000
-0.040000,1.440000,0.560089,0.080000,-1753.693953,-1.662957,0.403855,0.005605,-0.000000,0.000000,0.000000
0.040000,1.440000,0.560089,0.080000,-1753.693754,-1.662957,0.403855,-0.005607,-0.000000,0.000000,-0.000000
0.120000,1.440000,0.560803,0.080000,-1753.690962,-1.674549,0.415441,-0.017502,-0.000000,0.000000,-0.000000
0.200000,1.440000,0.562228,0.080000,-1753.685503,-1.697960,0.438837,-0.031483,-0.000000,0.000000,-0.000000
0.280000,1.440000,0.560803,0.080000,-1753.677226,-1.733638,0.474488,-0.049058,-0.000000,0.000000,-0.000000
0.360000,1.440000,0.560089,0.080000,-1753.665903,-1.782250,0.523064,-0.071923,-0.000000,0.000000,-0.000000
0.440000,1.440000,0.560089,0.080000,-1753.651223,-1.844695,0.585467,-0.102049,-0.000000,0.000000,-0.000000
0.520000,1.440000,0.560803,0.080000,-1753.632785,-1.922110,0.662834,-0.141798,-0.000000,0.000000,-0.000000
0.600000,1.440000,0.562228,0.080000,-1753.610093,-2.015870,0.756538,-0.194059,-0.000000,0.000000,-0.000000
0.680000,1.440000,0.560803,0.080000,-1753.582547,-2.127565,0.868170,-0.262434,-0.000000,0.000000,-0.000000
0.760000,1.440000,0.560089,0.080000,-1753.549430,-2.258962,0.999502,-0.351461,-0.000000,0.000000,-0.000000
0.840000,1.440000,0.560089,0.080000,-1753.509901,-2.411931,1.152418,-0.466922,-0.000000,0.000000,-0.000000
0.920000,1.440000,0.560803,0.080000,-1753.462980,-2.588319,1.328776,-0.616229,-0.000000,0.000000,-0.000000
1.000000,1.440000,0.562228,0.080000,-1753.407536,-2.789702,1.530176,-0.808945,-0.000000,0.000000,-0.000000
1.080000,1.440000,0.560803,0.080000,-1753.342281,-3.016961,1.757536,-1.057444,-0.000000,0.000000,-0.000000
1.160000,1.440000,0.560089,0.080000,-1753.265759,-3.269579,2.010404,-1.377759,-0.000000,0.000000,-0.000000
1.240000,1.440000,0.560089,0.080000,-1753.176355,-3.544489,2.285826,-1.790625,-0.000000,0.000000,-0.000000
1.320000,1.440000,0.560803,0.080000,-1753.072310,-3.834226,2.576502,-2.322720,-0.000000,0.000000,-0.000000
1.400000,1.440000,0.562228,0.080000,-1752.951775,-4.123935,2.867841,-3.007966,-0.000000,0.000000,-0.000000
1.480000,1.440000,0.560803,0.080000,-1752.812904,-4.386692,3.133325,-3.888617,-0.000000,0.000000,-0.000000
1.560000,1.440000,0.560089,0.080000,-1752.654031,-4.576293,3.327365,-5.015389,-0.000000,0.000000,-0.000000
1.640000,1.440000,0.560089,0.080000,-1752.473967,-4.616586,3.374677,-6.445127,-0.000000,0.000000,-0.000000
1.720000,1.440000,0.560803,0.080000,-1752.272496,-4.386520,3.155331,-8.233106,-0.000000,0.000000,-0.000000
1.800000,1.440000,0.562228,0.080000,-1752.051152,-3.701279,2.485686,-10.414701,-0.000000,0.000000,-0.000000
1.880000,1.440000,0.560803,0.080000,-1751.814414,-2.293493,1.098932,-12.968143,-0.000000,0.000000,-0.000000
1.960000,1.440000,0.540093,0.080000,-1751.571414,0.229536,-1.486212,-15.775257,0.000000,-0.000000,-0.000000
2.040000,1.440000,0.460109,0.080000,-1751.338209,4.231526,-5.489749,-18.352273,0.000000,-0.000000,-0.000000
2.120000,1.440000,0.380132,0.080000,-1751.140365,10.018006,-11.369466,-20.105302,0.000000,-0.000000,-0.000000
-2.120000,1.520000,0.381182,0.080000,-1750.607698,7.622580,-9.163631,27.968086,0.000000,-0.000000,0.000000
-2.040000,1.520000,0.460977,0.080000,-1750.949093,0.622896,-1.997682,23.584551,0.000000,-0.000000,0.000000
-1.960000,1.520000,0.480104,0.080000,-1751.304338,-3.556305,2.200372,18.948646,-0.000000,0.000000,0.000000
-1.880000,1.520000,0.480937,0.080000,-1751.646451,-5.703390,4.418902,14.643682,-0.000000,0.000000,0.000000
-1.800000,1.520000,0.482597,0.080000,-1751.961445,-6.548771,5.256612,11.147091,-0.000000,0.000000,0.000000
-1.720000,1.520000,0.480937,0.080000,-1752.243516,-6.666605,5.374145,8.400126,-0.000000,0.000000,0.000000
-1.640000,1.520000,0.480104,0.080000,-1752.491617,-6.399206,5.109950,6.295640,-0.000000,0.000000,0.000000
-1.560000,1.520000,0.480104,0.080000,-1752.707254,-5.951443,4.666662,4.704709,-0.000000,0.000000,0.000000
-1.480000,1.520000,0.480937,0.080000,-1752.893153,-5.440057,4.159858,3.509703,-0.000000,0.000000,0.000000
-1.400000,1.520000,0.482597,0.080000,-1753.052490,-4.928262,3.652194,2.614185,-0.000000,0.000000,0.000000
-1.320000,1.520000,0.480937,0.080000,-1753.188474,-4.447865,3.175277,1.943085,-0.000000,0.000000,0.000000
-1.240000,1.520000,0.480104,0.080000,-1753.304138,-4.012780,2.743042,1.439589,-0.000000,0.000000,0.000000
-1.160000,1.520000,0.480104,0.080000,-1753.402235,-3.627138,2.359724,1.061370,-0.000000,0.000000,0.000000
-1.080000,1.520000,0.480937,0.080000,-1753.485213,-3.290037,2.024507,0.777094,-0.000000,0.000000,0.000000
-1.000000,1.520000,0.482597,0.080000,-1753.555215,-2.998195,1.734154,0.563516,-0.000000,0.000000,0.000000
-0.920000,1.520000,0.480937,0.080000,-1753.614099,-2.747329,1.484431,0.403315,-0.000000,0.000000,0.000000
-0.840000,1.520000,0.480104,0.080000,-1753.663464,-2.532882,1.270870,0.283572,-0.000000,0.000000,0.000000
-0.760000,1.520000,0.480104,0.080000,-1753.704678,-2.350495,1.089205,0.194684,-0.000000,0.000000,0.000000
-0.680000,1.520000,0.480937,0.080000,-1753.738904,-2.196293,0.935599,0.129474,-0.000000,0.000000,0.000000
-0.600000,1.520000,0.482597,0.080000,-1753.767128,-2.066948,0.806717,0.082458,-0.000000,0.000000,0.000000
-0.520000,1.520000,0.480937,0.080000,-1753.790174,-1.959601,0.699700,0.049354,-0.000000,0.000000,0.000000
-0.440000,1.520000,0.480104,0.080000,-1753.808729,-1.871774,0.612113,0.026835,-0.000000,0.000000,0.000000
-0.360000,1.520000,0.480104,0.080000,-1753.823355,-1.801398,0.541943,0.012357,-0.000000,0.000000,0.000000
-0.280000,1.520000,0.480937,0.080000,-1753.834502,-1.746873,0.487600,0.003946,-0.000000,0.000000,0.000000
-0.200000,1.520000,0.482597,0.080000,-1753.842517,-1.707029,0.447883,-0.000054,-0.000000,0.000000,-0.000000
-0.120000,1.520000,0.480937,0.080000,-1753.847656,-1.681008,0.421913,-0.001117,-0.000000,0.000000,-0.000000
-0.040000,1.520000,0.480104,0.080000,-1753.850084,-1.668177,0.409087,-0.000545,-0.000000,0.000000,-0.000000
0.040000,1.520000,0.480104,0.080000,-1753.849885,-1.668177,0.409086,0.000544,-0.000000,0.000000,0.000000
0.120000,1.520000,0.480937,0.080000,-1753.847058,-1.681006,0.421912,0.001116,-0.000000,0.000000,0.000000
0.200000,1.520000,0.482597,0.080000,-1753.841522,-1.707027,0.447881,0.000052,-0.000000,0.000000,0.000000
0.280000,1.520000,0.480937,0.080000,-1753.833108,-1.746870,0.487597,-0.003947,-0.000000,0.000000,-0.000000
0.360000,1.520000,0.480104,0.080000,-1753.821563,-1.801395,0.541939,-0.012359,-0.000000,0.000000,-0.000000
0.440000,1.520000,0.480104,0.080000,-1753.806539,-1.871769,0.612108,-0.026836,-0.000000,0.000000,-0.000000
0.520000,1.520000,0.480937,0.080000,-1753.787586,-1.959595,0.699694,-0.049355,-0.000000,0.000000,-0.000000
0.600000,1.520000,0.482597,0.080000,-1753.764141,-2.066941,0.806711,-0.082458,-0.000000,0.000000,-0.000000
0.680000,1.520000,0.480937,0.080000,-1753.735520,-2.196285,0.935591,-0.129474,-0.000000,0.000000,-0.000000
0.760000,1.520000,0.480104,0.080000,-1753.700895,-2.350486,1.089195,-0.194684,-0.000000,0.000000,-0.000000
0.840000,1.520000,0.480104,0.080000,-1753.659284,-2.532871,1.270859,-0.283570,-0.000000,0.000000,-0.000000
0.920000,1.520000,0.480937,0.080000,-1753.609521,-2.747316,1.484418,-0.403312,-0.000000,0.000000,-0.000000
1.000000,1.520000,0.482597,0.080000,-1753.550239,-2.998180,1.734139,-0.563512,-0.000000,0.000000,-0.000000
1.080000,1.520000,0.480937,0.080000,-1753.479839,-3.290019,2.024490,-0.777087,-0.000000,0.000000,-0.000000
1.160000,1.520000,0.480104,0.080000,-1753.396463,-3.627118,2.359704,-1.061362,-0.000000,0.000000,-0.000000
1.240000,1.520000,0.480104,0.080000,-1753.297969,-4.012757,2.743019,-1.439577,-0.000000,0.000000,-0.000000
1.320000,1.520000,0.480937,0.080000,-1753.181908,-4.447838,3.175250,-1.943069,-0.000000,0.000000,-0.000000
1.400000,1.520000,0.482597,0.080000,-1753.045526,-4.928232,3.652164,-2.614163,-0.000000,0.000000,-0.000000
1.480000,1.520000,0.480937,0.080000,-1752.885793,-5.440023,4.159824,-3.509675,-0.000000,0.000000,-0.000000
1.560000,1.520000,0.480104,0.080000,-1752.699498,-5.951405,4.666624,-4.704671,-0.000000,0.000000,-0.000000
1.640000,1.520000,0.480104,0.080000,-1752.483463,-6.399165,5.109909,-6.295589,-0.000000,0.000000,-0.000000
1.720000,1.520000,0.480937,0.080000,-1752.234966,-6.666561,5.374102,-8.400060,-0.000000,0.000000,-0.000000
1.800000,1.520000,0.482597,0.080000,-1751.952500,-6.548728,5.256569,-11.147003,-0.000000,0.000000,-0.000000
1.880000,1.520000,0.480937,0.080000,-1751.637109,-5.703352,4.418865,-14.643567,-0.000000,0.000000,-0.000000
1.960000,1.520000,0.480104,0.080000,-1751.294601,-3.556283,2.200351,-18.948499,-0.000000,0.000000,-0.000000
2.040000,1.520000,0.460977,0.080000,-1750.938961,0.622887,-1.997673,-23.584367,0.000000,-0.000000,-0.000000
2.120000,1.520000,0.381182,0.080000,-1750.597170,7.622520,-9.163569,-27.967868,0.000000,-0.000000,-0.000000
-2.120000,1.600000,0.383275,0.080000,-1750.017040,1.793701,-3.208929,37.557792,0.000000,-0.000000,0.000000
-2.040000,1.600000,0.400125,0.080000,-1750.547158,-5.821845,4.476637,28.885408,-0.000000,0.000000,0.000000
-1.960000,1.600000,0.400125,0.080000,-1751.050824,-9.216243,7.879114,21.498713,-0.000000,0.000000,0.000000
-1.880000,1.600000,0.401123,0.080000,-1751.505624,-10.214227,8.931777,15.518649,-0.000000,0.000000,0.000000
-1.800000,1.600000,0.403113,0.080000,-1751.904514,-9.987057,8.699445,11.134552,-0.000000,0.000000,0.000000
-1.720000,1.600000,0.401123,0.080000,-1752.248399,-9.224888,7.939129,7.951510,-0.000000,0.000000,0.000000
-1.640000,1.600000,0.400125,0.080000,-1752.541808,-8.280250,6.999044,5.666015,-0.000000,0.000000,0.000000
-1.560000,1.600000,0.400125,0.080000,-1752.790572,-7.329152,6.052044,4.030749,-0.000000,0.000000,0.000000
-1.480000,1.600000,0.401123,0.080000,-1753.000651,-6.449974,5.175708,2.860706,-0.000000,0.000000,0.000000
-1.400000,1.600000,0.403113,0.080000,-1753.177608,-5.669805,4.398194,2.021903,-0.000000,0.000000,0.000000
-1.320000,1.600000,0.401123,0.080000,-1753.326395,-4.992250,3.723903,1.418315,-0.000000,0.000000,0.000000
-1.240000,1.600000,0.400125,0.080000,-1753.451316,-4.412289,3.147034,0.982073,-0.000000,0.000000,0.000000
-1.160000,1.600000,0.400125,0.080000,-1753.556057,-3.921363,2.657763,0.666271,-0.000000,0.000000,0.000000
-1.080000,1.600000,0.401123,0.080000,-1753.643750,-3.508003,2.244709,0.438546,-0.000000,0.000000,0.000000
-1.000000,1.600000,0.403113,0.080000,-1753.717045,-3.159357,1.896454,0.275507,-0.000000,0.000000,0.000000
-0.920000,1.600000,0.401123,0.080000,-1753.778173,-2.864492,1.602966,0.159383,-0.000000,0.000000,0.000000
-0.840000,1.600000,0.400125,0.080000,-1753.829017,-2.616216,1.356266,0.077139,-0.000000,0.000000,0.000000
-0.760000,1.600000,0.400125,0.080000,-1753.871154,-2.409389,1.149901,0.020202,-0.000000,0.000000,0.000000
-0.680000,1.600000,0.401123,0.080000,-1753.905907,-2.238117,0.978005,-0.016941,-0.000000,0.000000,-0.000000
-0.600000,1.600000,0.403113,0.080000,-1753.934383,-2.095600,0.835159,-0.038791,-0.000000,0.000000,-0.000000
-0.520000,1.600000,0.401123,0.080000,-1753.957499,-1.976670,0.717047,-0.049754,-0.000000,0.000000,-0.000000
-0.440000,1.600000,0.400125,0.080000,-1753.976010,-1.879310,0.620831,-0.053353,-0.000000,0.000000,-0.000000
-0.360000,1.600000,0.400125,0.080000,-1753.990532,-1.802892,0.544535,-0.051352,-0.000000,0.000000,-0.000000
-0.280000,1.600000,0.401123,0.080000,-1754.001554,-1.745402,0.486155,-0.044369,-0.000000,0.000000,-0.000000
-0.200000,1.600000,0.403113,0.080000,-1754.009453,-1.703370,0.443581,-0.033381,-0.000000,0.000000,-0.000000
-0.120000,1.600000,0.401123,0.080000,-1754.014503,-1.674497,0.415354,-0.020257,-0.000000,0.000000,-0.000000
-0.040000,1.600000,0.400125,0.080000,-1754.016884,-1.659265,0.401122,-0.006720,-0.000000,0.000000,-0.000000
0.040000,1.600000,0.400125,0.080000,-1754.016685,-1.659265,0.401122,0.006717,-0.000000,0.000000,0.000000
0.120000,1.600000,0.401123,0.080000,-1754.013905,-1.674495,0.415353,0.020255,-0.000000,0.000000,0.000000
0.200000,1.600000,0.403113,0.080000,-1754.008457,-1.703368,0.443579,0.033378,-0.000000,0.000000,0.000000
0.280000,1.600000,0.401123,0.080000,-1754.000160,-1.745399,0.486152,0.044367,-0.000000,0.000000,0.000000
0.360000,1.600000,0.400125,0.080000,-1753.988740,-1.802888,0.544531,0.051350,-0.000000,0.000000,0.000000
0.440000,1.600000,0.400125,0.080000,-1753.973820,-1.879306,0.620826,0.053351,-0.000000,0.000000,0.000000
0.520000,1.600000,0.401123,0.080000,-1753.954910,-1.976664,0.717041,0.049752,-0.000000,0.000000,0.000000
0.600000,1.600000,0.403113,0.080000,-1753.931397,-2.095593,0.835152,0.038790,-0.000000,0.000000,0.000000
0.680000,1.600000,0.401123,0.080000,-1753.902523,-2.238108,0.977997,0.016939,-0.000000,0.000000,0.000000
0.760000,1.600000,0.400125,0.080000,-1753.867371,-2.409379,1.149891,-0.020202,-0.000000,0.000000,-0.000000
0.840000,1.600000,0.400125,0.080000,-1753.824836,-2.616204,1.356255,-0.077139,-0.000000,0.000000,-0.000000
0.920000,1.600000,0.401123,0.080000,-1753.773595,-2.864478,1.602952,-0.159382,-0.000000,0.000000,-0.000000
1.000000,1.600000,0.403113,0.080000,-1753.712068,-3.159341,1.896438,-0.275505,-0.000000,0.000000,-0.000000
1.080000,1.600000,0.401123,0.080000,-1753.638376,-3.507984,2.244690,-0.438543,-0.000000,0.000000,-0.000000
1.160000,1.600000,0.400125,0.080000,-1753.550285,-3.921341,2.657741,-0.666265,-0.000000,0.000000,-0.000000
1.240000,1.600000,0.400125,0.080000,-1753.445147,-4.412263,3.147008,-0.982065,-0.000000,0.000000,-0.000000
1.320000,1.600000,0.401123,0.080000,-1753.319829,-4.992219,3.723872,-1.418303,-0.000000,0.000000,-0.000000
1.400000,1.600000,0.403113,0.080000,-1753.170645,-5.669769,4.398158,-2.021886,-0.000000,0.000000,-0.000000
1.480000,1.600000,0.401123,0.080000,-1752.993291,-6.449931,5.175666,-2.860682,-0.000000,0.000000,-0.000000
1.560000,1.600000,0.400125,0.080000,-1752.782815,-7.329103,6.051995,-4.030716,-0.000000,0.000000,-0.000000
1.640000,1.600000,0.400125,0.080000,-1752.533656,-8.280194,6.998988,-5.665969,-0.000000,0.000000,-0.000000
1.720000,1.600000,0.401123,0.080000,-1752.239851,-9.224824,7.939065,-7.951447,-0.000000,0.000000,-0.000000
1.800000,1.600000,0.403113,0.080000,-1751.895570,-9.986988,8.699376,-11.134464,-0.000000,0.000000,-0.000000
1.880000,1.600000,0.401123,0.080000,-1751.496285,-10.214155,8.931706,-15.518528,-0.000000,0.000000,-0.000000
1.960000,1.600000,0.400125,0.080000,-1751.041090,-9.216178,7.879050,-21.498547,-0.000000,0.000000,-0.000000
2.040000,1.600000,0.400125,0.080000,-1750.537031,-5.821805,4.476597,-28.885186,-0.000000,0.000000,-0.000000
2.120000,1.600000,0.383275,0.080000,-1750.006518,1.793687,-3.208913,-37.557504,0.000000,-0.000000,-0.000000
-2.120000,1.680000,0.321403,0.080000,-1749.418607,-10.877709,9.343070,47.857207,-0.000000,0.000000,0.000000
-2.040000,1.680000,0.320156,0.080000,-1750.184060,-16.294694,14.981961,33.014846,-0.000000,0.000000,0.000000
-1.960000,1.680000,0.320156,0.080000,-1750.856659,-16.999874,15.598972,22.262595,-0.000000,0.000000,0.000000
-1.880000,1.680000,0.321403,0.080000,-1751.429983,-15.956797,14.550687,14.779991,-0.000000,0.000000,0.000000
-1.800000,1.680000,0.323883,0.080000,-1751.911177,-14.142198,12.674783,9.902074,-0.000000,0.000000,0.000000
-1.720000,1.680000,0.321403,0.080000,-1752.311986,-12.036726,10.677864,6.668894,-0.000000,0.000000,0.000000
-1.640000,1.680000,0.320156,0.080000,-1752.644699,-10.025446,8.835336,4.416038,-0.000000,0.000000,0.000000
-1.560000,1.680000,0.320156,0.080000,-1752.920545,-8.492955,7.314388,2.832112,-0.000000,0.000000,0.000000
-1.480000,1.680000,0.321403,0.080000,-1753.149213,-7.435334,6.112012,1.787420,-0.000000,0.000000,0.000000
-1.400000,1.680000,0.323883,0.080000,-1753.338830,-6.504021,5.098871,1.181209,-0.000000,0.000000,0.000000
-1.320000,1.680000,0.321403,0.080000,-1753.496126,-5.509768,4.196566,0.793137,-0.000000,0.000000,0.000000
-1.240000,1.680000,0.320156,0.080000,-1753.626634,-4.573956,3.416885,0.438277,-0.000000,0.000000,0.000000
-1.160000,1.680000,0.320156,0.080000,-1753.734900,-3.987790,2.832944,0.129095,-0.000000,0.000000,0.000000
-1.080000,1.680000,0.321403,0.080000,-1753.824668,-3.727752,2.421426,-0.051585,-0.000000,0.000000,-0.000000
-1.000000,1.680000,0.323883,0.080000,-1753.899029,-3.455076,2.062161,-0.066306,-0.000000,0.000000,-0.000000
-0.920000,1.680000,0.321403,0.080000,-1753.960535,-2.999995,1.695666,-0.045421,-0.000000,0.000000,-0.000000
-0.840000,1.680000,0.320156,0.080000,-1754.011289,-2.504604,1.353996,-0.114848,-0.000000,0.000000,-0.000000
-0.760000,1.680000,0.320156,0.080000,-1754.053032,-2.278797,1.128658,-0.223050,-0.000000,0.000000,-0.000000
-0.680000,1.680000,0.321403,0.080000,-1754.087210,-2.314805,1.011914,-0.261091,-0.000000,0.000000,-0.000000
-0.600000,1.680000,0.323883,0.080000,-1754.115022,-2.286760,0.896374,-0.173884,-0.000000,0.000000,-0.000000
-0.520000,1.680000,0.321403,0.080000,-1754.137457,-2.035343,0.732889,-0.079764,-0.000000,0.000000,-0.000000
-0.440000,1.680000,0.320156,0.080000,-1754.155317,-1.711040,0.561824,-0.096356,-0.000000,0.000000,-0.000000
-0.360000,1.680000,0.320156,0.080000,-1754.169248,-1.630475,0.481363,-0.166346,-0.000000,0.000000,-0.000000
-0.280000,1.680000,0.321403,0.080000,-1754.179766,-1.791293,0.489155,-0.176755,-0.000000,0.000000,-0.000000
-0.200000,1.680000,0.323883,0.080000,-1754.187272,-1.872043,0.482206,-0.069658,-0.000000,0.000000,-0.000000
-0.120000,1.680000,0.321403,0.080000,-1754.192057,-1.717067,0.415009,0.038603,-0.000000,0.000000,0.000000
-0.040000,1.680000,0.320156,0.080000,-1754.194307,-1.479938,0.330995,0.031799,-0.000000,0.000000,0.000000
0.040000,1.680000,0.320156,0.080000,-1754.194108,-1.479938,0.330994,-0.031803,-0.000000,0.000000,-0.000000
0.120000,1.680000,0.321403,0.080000,-1754.191460,-1.717066,0.415008,-0.038606,-0.000000,0.000000,-0.000000
0.200000,1.680000,0.323883,0.080000,-1754.186276,-1.872041,0.482204,0.069655,-0.000000,0.000000,0.000000
0.280000,1.680000,0.321403,0.080000,-1754.178372,-1.791290,0.489152,0.176751,-0.000000,0.000000,0.000000
0.360000,1.680000,0.320156,0.080000,-1754.167456,-1.630471,0.481359,0.166343,-0.000000,0.000000,0.000000
0.440000,1.680000,0.320156,0.080000,-1754.153127,-1.711035,0.561819,0.096353,-0.000000,0.000000,0.000000
0.520000,1.680000,0.321403,0.080000,-1754.134869,-2.035336,0.732883,0.079761,-0.000000,0.000000,0.000000
0.600000,1.680000,0.323883,0.080000,-1754.112035,-2.286753,0.896366,0.173881,-0.000000,0.000000,0.000000
0.680000,1.680000,0.321403,0.080000,-1754.083825,-2.314796,1.011905,0.261088,-0.000000,0.000000,0.000000
0.760000,1.680000,0.320156,0.080000,-1754.049249,-2.278787,1.128648,0.223048,-0.000000,0.000000,0.000000
0.840000,1.680000,0.320156,0.080000,-1754.007108,-2.504592,1.353983,0.114846,-0.000000,0.000000,0.000000
0.920000,1.680000,0.321403,0.080000,-1753.955956,-2.999981,1.695652,0.045419,-0.000000,0.000000,0.000000
1.000000,1.680000,0.323883,0.080000,-1753.894053,-3.455058,2.062144,0.066305,-0.000000,0.000000,0.000000
1.080000,1.680000,0.321403,0.080000,-1753.819294,-3.727731,2.421405,0.051586,-0.000000,0.000000,0.000000
1.160000,1.680000,0.320156,0.080000,-1753.729128,-3.987766,2.832919,-0.129093,-0.000000,0.000000,-0.000000
1.240000,1.680000,0.320156,0.080000,-1753.620465,-4.573928,3.416857,-0.438273,-0.000000,0.000000,-0.000000
1.320000,1.680000,0.321403,0.080000,-1753.489560,-5.509733,4.196531,-0.793131,-0.000000,0.000000,-0.000000
1.400000,1.680000,0.323883,0.080000,-1753.331867,-6.503979,5.098830,-1.181198,-0.000000,0.000000,-0.000000
1.480000,1.680000,0.321403,0.080000,-1753.141853,-7.435284,6.111963,-1.787404,-0.000000,0.000000,-0.000000
1.560000,1.680000,0.320156,0.080000,-1752.912789,-8.492896,7.314329,-2.832088,-0.000000,0.000000,-0.000000
1.640000,1.680000,0.320156,0.080000,-1752.636547,-10.025376,8.835266,-4.416002,-0.000000,0.000000,-0.000000
1.720000,1.680000,0.321403,0.080000,-1752.303438,-12.036641,10.677780,-6.668841,-0.000000,0.000000,-0.000000
1.800000,1.680000,0.323883,0.080000,-1751.902234,-14.142098,12.674684,-9.901996,-0.000000,0.000000,-0.000000
1.880000,1.680000,0.321403,0.080000,-1751.420646,-15.956682,14.550574,-14.779876,-0.000000,0.000000,-0.000000
1.960000,1.680000,0.320156,0.080000,-1750.846929,-16.999750,15.598850,-22.262424,-0.000000,0.000000,-0.000000
2.040000,1.680000,0.320156,0.080000,-1750.173936,-16.294574,14.981842,-33.014595,-0.000000,0.000000,-0.000000
2.120000,1.680000,0.321403,0.080000,-1749.408092,-10.877627,9.342991,-47.856845,-0.000000,0.000000,-0.000000
-2.500000,-1.980000,0.030000,0.040000,-674.731312,90701.243911,956667.759825,-107850.447084,-0.000004,0.000012,-0.000002
-2.420000,-1.980000,0.036056,0.040000,-1493.037397,152840.046054,9720.794537,18611.647953,0.000002,-0.000001,0.000000
-2.460000,-1.980000,0.022361,0.040000,-2113.820398,-62221.033689,625095.251478,24384.357141,-0.000004,0.000009,0.000000
-2.340000,-1.980000,0.022361,0.040000,-2157.578538,-147175.034708,159243.217145,-22673.248286,-0.000003,0.000003,-0.000000
-2.380000,-1.980000,0.036056,0.040000,-1503.081636,100682.571104,-85852.703226,-25273.240481,0.000002,-0.000002,-0.000000
-2.260000,-1.980000,0.022361,0.040000,-2164.587647,-149242.941549,159890.890693,21752.912058,-0.000003,0.000003,0.000000
-2.300000,-1.980000,0.053852,0.040000,-1356.333469,141798.933473,-139004.231532,-341.524002,0.000003,-0.000003,-0.000000
-2.180000,-1.980000,0.036056,0.040000,-1512.777893,82774.805592,-89517.768051,-18948.449735,0.000002,-0.000002,-0.000000
-2.220000,-1.980000,0.036056,0.040000,-1511.348707,82700.244862,-89627.952586,18833.115132,0.000002,-0.000002,0.000000
-2.100000,-1.980000,0.053852,0.040000,-1361.865027,142436.379477,-139812.965801,-23.843482,0.000003,-0.000003,-0.000000
-2.140000,-1.980000,0.022361,0.040000,-2169.220519,-149463.247212,159766.702845,-21927.207786,-0.000003,0.000003,-0.000000
-2.020000,-1.980000,0.036056,0.040000,-1515.421765,83026.121296,-89925.031988,18945.460816,0.000002,-0.000002,0.000000
-2.060000,-1.980000,0.022361,0.040000,-2171.391347,-149577.602968,160024.550696,21963.034955,-0.000003,0.000003,0.000000
-1.940000,-1.980000,0.022361,0.040000,-2173.163069,-149661.648680,160015.406764,-21959.831943,-0.000003,0.000003,-0.000000
-1.980000,-1.980000,0.036056,0.040000,-1515.972986,83051.170406,-89875.051914,-18942.175180,0.000002,-0.000002,-0.000000
-1.860000,-1.980000,0.022361,0.040000,-2174.117702,-149717.707429,160136.937089,21993.224786,-0.000003,0.000003,0.000000
-1.900000,-1.980000,0.053852,0.040000,-1363.940847,142705.106986,-140073.278651,-2.459442,0.000003,-0.000003,-0.000000
-1.780000,-1.980000,0.036056,0.040000,-1517.396024,83157.484843,-90005.217475,-18957.711647,0.000002,-0.000002,-0.000000
-1.820000,-1.980000,0.036056,0.040000,-1517.129681,83147.095479,-90031.099182,18966.034200,0.000002,-0.000002,0.000000
-1.700000,-1.980000,0.053852,0.040000,-1364.931855,142823.202103,-140187.049941,0.389410,0.000003,-0.000003,0.000000
-1.740000,-1.980000,0.022361,0.040000,-2174.971033,-149762.819417,160140.117539,-21983.149367,-0.000003,0.000003,-0.000000
-1.620000,-1.980000,0.036056,0.040000,-1517.988308,83202.728489,-90080.536641,18974.078460,0.000002,-0.000002,0.000000
-1.660000,-1.980000,0.022361,0.040000,-2175.460916,-149793.225834,160204.232874,22003.684678,-0.000003,0.000003,0.000000
-1.540000,-1.980000,0.022361,0.040000,-2175.917864,-149818.603763,160207.664819,-21996.089763,-0.000003,0.000003,-0.000000
-1.580000,-1.980000,0.036056,0.040000,-1518.131139,83207.843040,-90066.264533,-18967.683061,0.000002,-0.000002,-0.000000
-1.460000,-1.980000,0.022361,0.040000,-2176.188040,-149835.789657,160243.411872,22008.722853,-0.000003,0.000003,0.000000
-1.500000,-1.980000,0.053852,0.040000,-1365.460781,142883.517624,-140245.279670,0.874589,0.000003,-0.000003,0.000000
-1.380000,-1.980000,0.036056,0.040000,-1518.538166,83234.459781,-90098.458244,-18973.544912,0.000002,-0.000002,-0.000000
-1.420000,-1.980000,0.036056,0.040000,-1518.457784,83231.711341,-90106.572069,18978.132948,0.000002,-0.000002,0.000000
-1.300000,-1.980000,0.053852,0.040000,-1365.758067,142916.585754,-140277.260396,0.904512,0.000003,-0.000003,0.000000
-1.340000,-1.980000,0.022361,0.040000,-2176.444990,-149850.356400,160245.780118,-22003.408918,-0.000003,0.000003,-0.000000
-1.220000,-1.980000,0.036056,0.040000,-1518.724203,83247.718995,-90121.010334,18980.307024,0.000002,-0.000002,0.000000
-1.260000,-1.980000,0.022361,0.040000,-2176.598614,-149860.211477,160266.152294,22011.386142,-0.000003,0.000003,0.000000
-1.140000,-1.980000,0.022361,0.040000,-2176.745554,-149868.576821,160267.599246,-22007.655403,-0.000003,0.000003,-0.000000
-1.180000,-1.980000,0.036056,0.040000,-1518.770197,83249.255961,-90116.368479,-18977.000597,0.000002,-0.000002,-0.000000
-1.060000,-1.980000,0.022361,0.040000,-2176.833308,-149874.194201,160279.192599,22012.794196,-0.000003,0.000003,0.000000
-1.100000,-1.980000,0.053852,0.040000,-1365.928331,142935.231352,-140295.307176,0.816805,0.000003,-0.000003,0.000000
-0.980000,-1.980000,0.036056,0.040000,-1518.902997,83257.616812,-90126.517185,-18979.054027,0.000002,-0.000002,-0.000000
-1.020000,-1.980000,0.036056,0.040000,-1518.876817,83256.748317,-90129.137356,18981.453059,0.000002,-0.000002,0.000000
-0.900000,-1.980000,0.053852,0.040000,-1366.025526,142945.758614,-140305.495254,0.689894,0.000003,-0.000003,0.000000
-0.940000,-1.980000,0.022361,0.040000,-2176.916906,-149878.915443,160280.008411,-22010.154766,-0.000003,0.000003,-0.000000
-0.820000,-1.980000,0.036056,0.040000,-1518.963305,83261.823537,-90133.670579,18982.008072,0.000002,-0.000002,0.000000
-0.860000,-1.980000,0.022361,0.040000,-2176.966286,-149882.040469,160286.470666,22013.492101,-0.000003,0.000003,0.000000
-0.740000,-1.980000,0.022361,0.040000,-2177.012743,-149884.612601,160286.891578,-22011.635124,-0.000003,0.000003,-0.000000
-0.780000,-1.980000,0.036056,0.040000,-1518.977861,83262.308880,-90132.237890,-18980.281476,0.000002,-0.000002,-0.000000
-0.660000,-1.980000,0.022361,0.040000,-2177.039615,-149886.277456,160290.353270,22013.782372,-0.000003,0.000003,0.000000
-0.700000,-1.980000,0.053852,0.040000,-1366.079833,142951.589328,-140311.132657,0.546607,0.000003,-0.000003,0.000000
-0.580000,-1.980000,0.036056,0.040000,-1519.018677,83264.871917,-90135.382608,-18981.022677,0.000002,-0.000002,-0.000000
-0.620000,-1.980000,0.036056,0.040000,-1519.010928,83264.609375,-90136.125732,18982.221472,0.000002,-0.000002,0.000000
-0.500000,-1.980000,0.053852,0.040000,-1366.108952,142954.691507,-140314.126520,0.395253,0.000003,-0.000003,0.000000
-0.540000,-1.980000,0.022361,0.040000,-2177.064335,-149887.601831,160290.545348,-22012.517234,-0.000003,0.000003,-0.000000
-0.420000,-1.980000,0.036056,0.040000,-1519.035820,83266.065911,-90137.380586,18982.240882,0.000002,-0.000002,0.000000
-0.460000,-1.980000,0.022361,0.040000,-2177.078127,-149888.429508,160292.282291,22013.841146,-0.000003,0.000003,0.000000
-0.340000,-1.980000,0.022361,0.040000,-2177.090258,-149889.050288,160292.354517,-22013.051951,-0.000003,0.000003,-0.000000
-0.380000,-1.980000,0.036056,0.040000,-1519.039625,83266.198091,-90137.028327,-18981.482190,0.000002,-0.000002,-0.000000
-0.260000,-1.980000,0.022361,0.040000,-2177.096496,-149889.409550,160293.118137,22013.768426,-0.000003,0.000003,0.000000
-0.300000,-1.980000,0.053852,0.040000,-1366.123383,142956.217887,-140315.595797,0.239627,0.000003,-0.000003,0.000000
-0.180000,-1.980000,0.036056,0.040000,-1519.048952,83266.800014,-90137.803680,-18981.782459,0.000002,-0.000002,-0.000000
-0.220000,-1.980000,0.036056,0.040000,-1519.047471,83266.746888,-90137.935103,18982.151148,0.000002,-0.000002,0.000000
-0.100000,-1.980000,0.053852,0.040000,-1366.129061,142956.814944,-140316.168709,0.081865,0.000003,-0.000003,0.000000
-0.140000,-1.980000,0.022361,0.040000,-2177.101216,-149889.637694,160293.135794,-22013.388826,-0.000003,0.000003,-0.000000
-0.020000,-1.980000,0.036056,0.040000,-1519.050989,83266.944201,-90138.037422,18981.993350,0.000002,-0.000002,0.000000
-0.060000,-1.980000,0.022361,0.040000,-2177.102810,-149889.723856,160293.322915,22013.611789,-0.000003,0.000003,0.000000
0.060000,-1.980000,0.022361,0.040000,-2177.102466,-149889.701126,160293.316501,-22013.611528,-0.000003,0.000003,-0.000000
0.020000,-1.980000,0.036056,0.040000,-1519.050881,83266.941289,-90138.049486,-18981.991844,0.000002,-0.000002,-0.000000
0.140000,-1.980000,0.022361,0.040000,-2177.100324,-149889.575360,160293.051240,22013.376594,-0.000003,0.000003,0.000000
0.100000,-1.980000,0.053852,0.040000,-1366.128673,142956.774380,-140316.128894,-0.076549,0.000003,-0.000003,-0.000000
0.220000,-1.980000,0.036056,0.040000,-1519.046501,83266.696724,-90137.896015,-18982.138869,0.000002,-0.000002,-0.000000
0.180000,-1.980000,0.036056,0.040000,-1519.048198,83266.755673,-90137.740465,18981.773193,0.000002,-0.000002,0.000000
0.300000,-1.980000,0.053852,0.040000,-1366.122221,142956.096199,-140315.476357,-0.234311,0.000003,-0.000003,-0.000000
0.260000,-1.980000,0.022361,0.040000,-2177.094917,-149889.301758,160293.020755,-22013.755673,-0.000003,0.000003,-0.000000
0.380000,-1.980000,0.036056,0.040000,-1519.038009,83266.106500,-90136.913966,18981.462153,0.000002,-0.000002,0.000000
0.340000,-1.980000,0.022361,0.040000,-2177.088131,-149888.902894,160292.179000,22013.027228,-0.000003,0.000003,0.000000
0.460000,-1.980000,0.022361,0.040000,-2177.075312,-149888.236662,160292.093947,-22013.815901,-0.000003,0.000003,-0.000000
0.420000,-1.980000,0.036056,0.040000,-1519.033988,83265.968498,-90137.290349,-18982.217832,0.000002,-0.000002,-0.000000
0.540000,-1.980000,0.022361,0.040000,-2177.060972,-149887.369389,160290.278882,22012.480022,-0.000003,0.000003,0.000000
0.500000,-1.980000,0.053852,0.040000,-1366.107014,142954.488705,-140313.927464,-0.389938,0.000003,-0.000003,-0.000000
0.620000,-1.980000,0.036056,0.040000,-1519.008235,83264.464723,-90135.984354,-18982.187651,0.000002,-0.000002,-0.000000
0.580000,-1.980000,0.036056,0.040000,-1519.016199,83264.733085,-90135.217111,18980.991871,0.000002,-0.000002,0.000000
0.700000,-1.980000,0.053852,0.040000,-1366.077120,142951.305430,-140310.854004,-0.541291,0.000003,-0.000003,-0.000000
0.660000,-1.980000,0.022361,0.040000,-2177.035566,-149885.999570,160290.073980,-22013.744636,-0.000003,0.000003,-0.000000
0.780000,-1.980000,0.036056,0.040000,-1518.974521,83262.122820,-90132.021273,18980.239903,0.000002,-0.000002,0.000000
0.740000,-1.980000,0.022361,0.040000,-2177.008146,-149884.295130,160286.534185,22011.585426,-0.000003,0.000003,0.000000
0.860000,-1.980000,0.022361,0.040000,-2176.961001,-149881.677569,160286.100452,-22013.441878,-0.000003,0.000003,-0.000000
0.820000,-1.980000,0.036056,0.040000,-1518.959750,83261.631659,-90133.478073,-18981.963483,0.000002,-0.000002,-0.000000
0.940000,-1.980000,0.022361,0.040000,-2176.911074,-149878.512973,160279.560128,22010.092590,-0.000003,0.000003,0.000000
0.900000,-1.980000,0.053852,0.040000,-1366.022038,142945.393648,-140305.137031,-0.684580,0.000003,-0.000003,-0.000000
1.020000,-1.980000,0.036056,0.040000,-1518.872401,83256.509236,-90128.893744,-18981.397706,0.000002,-0.000002,-0.000000
0.980000,-1.980000,0.036056,0.040000,-1518.898795,83257.383546,-90126.249473,18979.001693,0.000002,-0.000002,0.000000
1.100000,-1.980000,0.053852,0.040000,-1365.924069,142934.785365,-140294.869428,-0.811491,0.000003,-0.000003,-0.000000
1.060000,-1.980000,0.022361,0.040000,-2176.826789,-149873.746324,160278.731499,-22012.731489,-0.000003,0.000003,-0.000000
1.180000,-1.980000,0.036056,0.040000,-1518.765135,83248.975524,-90116.049715,18976.937510,0.000002,-0.000002,0.000000
1.140000,-1.980000,0.022361,0.040000,-2176.738488,-149868.089399,160267.060127,22007.580757,-0.000003,0.000003,0.000000
1.260000,-1.980000,0.022361,0.040000,-2176.590862,-149859.678684,160265.600366,-22011.310960,-0.000003,0.000003,-0.000000
1.220000,-1.980000,0.036056,0.040000,-1518.718926,83247.432749,-90120.715650,-18980.240913,0.000002,-0.000002,-0.000000
1.340000,-1.980000,0.022361,0.040000,-2176.436692,-149849.784101,160245.150250,22003.321818,-0.000003,0.000003,0.000000
1.300000,-1.980000,0.053852,0.040000,-1365.753031,142916.058821,-140276.743197,-0.899199,0.000003,-0.000003,-0.000000
1.420000,-1.980000,0.036056,0.040000,-1518.451648,83231.377990,-90106.226370,-18978.056089,0.000002,-0.000002,-0.000000
1.380000,-1.980000,0.036056,0.040000,-1518.532244,83234.132229,-90098.088496,18973.471084,0.000002,-0.000002,0.000000
1.500000,-1.980000,0.053852,0.040000,-1365.454973,142882.909870,-140244.683139,-0.869279,0.000003,-0.000003,-0.000000
1.460000,-1.980000,0.022361,0.040000,-2176.179057,-149835.172042,160242.769204,-22008.635207,-0.000003,0.000003,-0.000000
1.580000,-1.980000,0.036056,0.040000,-1518.124359,83207.468472,-90065.843918,18967.598512,0.000002,-0.000002,0.000000
1.540000,-1.980000,0.022361,0.040000,-2175.908335,-149817.946706,160206.944344,21995.990234,-0.000003,0.000003,0.000000
1.660000,-1.980000,0.022361,0.040000,-2175.450703,-149792.523552,160203.499610,-22003.584589,-0.000003,0.000003,-0.000000
1.620000,-1.980000,0.036056,0.040000,-1517.981314,83202.348141,-90080.140024,-18973.990870,0.000002,-0.000002,-0.000000
1.740000,-1.980000,0.022361,0.040000,-2174.960277,-149762.077802,160139.306700,21983.037454,-0.000003,0.000003,0.000000
1.700000,-1.980000,0.053852,0.040000,-1364.925276,142822.513749,-140186.374292,-0.384106,0.000003,-0.000003,-0.000000
1.820000,-1.980000,0.036056,0.040000,-1517.121832,83146.668345,-90030.651833,-18965.935912,0.000002,-0.000002,-0.000000
1.780000,-1.980000,0.036056,0.040000,-1517.388388,83157.063448,-90004.746222,18957.616409,0.000002,-0.000002,0.000000
1.900000,-1.980000,0.053852,0.040000,-1363.933501,142704.338483,-140072.524319,2.464722,0.000003,-0.000003,0.000000
1.860000,-1.980000,0.022361,0.040000,-2174.106265,-149716.920748,160136.113463,-21993.112298,-0.000003,0.000003,-0.000000
1.980000,-1.980000,0.036056,0.040000,-1515.964499,83050.702610,-89874.530549,18942.069300,0.000002,-0.000002,0.000000
1.940000,-1.980000,0.022361,0.040000,-2173.151093,-149660.822868,160014.506012,21959.707727,-0.000003,0.000003,0.000000
2.060000,-1.980000,0.022361,0.040000,-2171.378697,-149576.732395,160023.637073,-21962.910215,-0.000003,0.000003,-0.000000
2.020000,-1.980000,0.036056,0.040000,-1515.413068,83025.647871,-89924.534341,-18945.351925,0.000002,-0.000002,-0.000000
2.140000,-1.980000,0.022361,0.040000,-2169.207338,-149462.337953,159765.713129,21927.071345,-0.000003,0.000003,0.000000
2.100000,-1.980000,0.053852,0.040000,-1361.856923,142435.531962,-139812.133889,23.848604,0.000003,-0.000003,0.000000
2.220000,-1.980000,0.036056,0.040000,-1511.339179,82699.726667,-89627.406054,-18832.996298,0.000002,-0.000002,-0.000000
2.180000,-1.980000,0.036056,0.040000,-1512.768570,82774.292660,-89517.198253,18948.333066,0.000002,-0.000002,0.000000
2.300000,-1.980000,0.053852,0.040000,-1356.324632,141798.009714,-139003.326077,341.526861,0.000003,-0.000003,0.000000
2.260000,-1.980000,0.022361,0.040000,-2164.573813,-149241.988530,159889.887280,-21752.776356,-0.000003,0.000003,-0.000000
2.380000,-1.980000,0.036056,0.040000,-1503.071524,100681.883796,-85852.108719,25273.068114,0.000002,-0.000002,0.000000
2.340000,-1.980000,0.022361,0.040000,-2157.564209,-147174.056924,159242.140508,22673.094117,-0.000003,0.000003,0.000000
2.460000,-1.980000,0.022361,0.040000,-2113.805698,-62220.641353,625090.860998,-24384.203334,-0.000004,0.000009,-0.000000
2.420000,-1.980000,0.036056,0.040000,-1493.027143,152838.976097,9720.685864,-18611.522853,0.000002,-0.000001,-0.000000
2.500000,-1.980000,0.030000,0.040000,-674.726557,90700.544600,956661.055242,107849.678565,-0.000004,0.000012,0.000002
-2.500000,-1.940000,0.010000,0.040000,-844.110466,20744.833261,731334.002962,-52879.443713,-0.000004,0.000010,-0.000001
-2.500000,-1.900000,0.050000,0.040000,-864.798004,-4344.555774,568363.322712,-26017.508077,-0.000003,0.000008,-0.000000
-2.460000,-1.940000,0.041231,0.040000,-1880.634447,79335.475803,480509.702268,11667.662119,-0.000002,0.000006,0.000000
-2.420000,-1.940000,0.067082,0.040000,-1730.227231,-4753.686054,92626.307665,15173.908012,-0.000001,0.000001,0.000000
-2.420000,-1.900000,0.094340,0.040000,-1724.533008,-21046.555195,106135.677931,11265.002708,-0.000001,0.000002,0.000000
-2.460000,-1.900000,0.064031,0.040000,-1607.307651,-29636.580315,316593.794301,4346.674501,-0.000002,0.000004,0.000000
-2.380000,-1.940000,0.067082,0.040000,-1725.097182,17454.196100,-14438.754451,-9172.059184,0.000000,-0.000000,-0.000000
-2.340000,-1.940000,0.060828,0.040000,-1772.868582,347.892251,27133.647433,-13171.169356,-0.000000,0.000000,-0.000000
-2.340000,-1.900000,0.100499,0.040000,-1743.661926,-3737.267393,7859.325183,-1301.059199,-0.000000,0.000000,-0.000000
-2.380000,-1.900000,0.104403,0.040000,-1737.119025,3631.727829,-1859.164444,-9851.509678,0.000000,-0.000000,-0.000000
-2.300000,-1.940000,0.078102,0.040000,-1703.212410,-27631.320928,-21146.631077,-267.109336,-0.000000,-0.000000,-0.000000
-2.260000,-1.940000,0.060828,0.040000,-1777.305538,-77.636073,27803.503443,12892.755058,-0.000000,0.000000,0.000000
-2.260000,-1.900000,0.100499,0.040000,-1747.266883,-3451.591714,7482.882811,833.277331,-0.000000,0.000000,0.000000
-2.300000,-1.900000,0.111803,0.040000,-1739.731862,-5384.221646,-4993.351161,-272.741386,-0.000000,-0.000000,-0.000000
-2.220000,-1.940000,0.067082,0.040000,-1732.775541,16866.087439,-16429.624808,10546.687301,0.000000,-0.000000,0.000000
-2.180000,-1.940000,0.067082,0.040000,-1734.126668,16889.720226,-16364.256554,-10681.565167,0.000000,-0.000000,-0.000000
-2.180000,-1.900000,0.104403,0.040000,-1746.171163,6864.037351,-4766.511717,-9608.393745,0.000000,-0.000000,-0.000000
-2.220000,-1.900000,0.104403,0.040000,-1744.990384,6857.147331,-4768.303369,9435.842670,0.000000,-0.000000,0.000000
-2.140000,-1.940000,0.060828,0.040000,-1781.211182,14.554193,27633.558261,-13074.357991,-0.000000,0.000000,-0.000000
-2.100000,-1.940000,0.078102,0.040000,-1709.763651,-27670.866026,-21330.225871,-25.359008,-0.000000,-0.000000,-0.000000
-2.100000,-1.900000,0.111803,0.040000,-1745.740642,-5309.352193,-5126.321879,-33.997000,-0.000000,-0.000000,-0.000000
-2.140000,-1.900000,0.100499,0.040000,-1750.810134,-3386.131364,7409.627920,-1013.751444,-0.000000,0.000000,-0.000000
-2.060000,-1.940000,0.060828,0.040000,-1782.870440,49.356821,27678.423027,13075.391142,-0.000000,0.000000,0.000000
-2.020000,-1.940000,0.067082,0.040000,-1737.314009,17009.221275,-16547.543563,10648.649449,0.000000,-0.000000,0.000000
-2.020000,-1.900000,0.104403,0.040000,-1749.302812,6950.057003,-4853.377463,9550.808892,0.000000,-0.000000,0.000000
-2.060000,-1.900000,0.100499,0.040000,-1752.361953,-3364.458084,7398.258701,973.676738,-0.000000,0.000000,0.000000
-1.980000,-1.940000,0.067082,0.040000,-1737.866943,17016.213259,-16519.437667,-10651.169589,0.000000,-0.000000,-0.000000
-1.940000,-1.940000,0.060828,0.040000,-1784.466890,82.793912,27627.671317,-13079.002772,-0.000000,0.000000,-0.000000
-1.940000,-1.900000,0.100499,0.040000,-1753.942368,-3335.582578,7368.112816,-983.156040,-0.000000,0.000000,-0.000000
-1.980000,-1.900000,0.104403,0.040000,-1749.829077,6953.454360,-4853.325552,-9567.367038,0.000000,-0.000000,-0.000000
-1.900000,-1.940000,0.078102,0.040000,-1712.416205,-27661.473341,-21412.545589,-1.958205,-0.000000,-0.000000,-0.000000
-1.860000,-1.940000,0.060828,0.040000,-1785.219695,92.793839,27653.516065,13099.596006,-0.000000,0.000000,0.000000
-1.860000,-1.900000,0.100499,0.040000,-1754.679562,-3328.999201,7366.099343,988.504588,-0.000000,0.000000,0.000000
-1.900000,-1.900000,0.111803,0.040000,-1748.420019,-5271.832371,-5179.283490,-4.325219,-0.000000,-0.000000,-0.000000
-1.820000,-1.940000,0.067082,0.040000,-1739.304645,17058.490271,-16586.147319,10663.955974,0.000000,-0.000000,0.000000
-1.780000,-1.940000,0.067082,0.040000,-1739.576239,17060.326070,-16571.069399,-10657.072994,0.000000,-0.000000,-0.000000
-1.780000,-1.900000,0.104403,0.040000,-1751.576702,6986.379926,-4884.802243,-9568.987914,0.000000,-0.000000,-0.000000
-1.820000,-1.900000,0.104403,0.040000,-1751.311024,6985.862363,-4885.936082,9571.043940,0.000000,-0.000000,0.000000
-1.740000,-1.940000,0.060828,0.040000,-1786.001905,104.294959,27634.779999,-13091.555823,-0.000000,0.000000,-0.000000
-1.700000,-1.940000,0.078102,0.040000,-1713.706128,-27664.148808,-21443.817771,0.999851,-0.000000,-0.000000,0.000000
-1.700000,-1.900000,0.111803,0.040000,-1749.762370,-5259.225305,-5199.170110,0.319965,-0.000000,-0.000000,0.000000
-1.740000,-1.900000,0.100499,0.040000,-1755.475574,-3318.516575,7355.093147,-981.634648,-0.000000,0.000000,-0.000000
-1.660000,-1.940000,0.060828,0.040000,-1786.392930,107.767057,27649.723856,13106.291969,-0.000000,0.000000,0.000000
-1.620000,-1.940000,0.067082,0.040000,-1740.320738,17078.594936,-16601.512196,10668.567157,0.000000,-0.000000,0.000000
-1.620000,-1.900000,0.104403,0.040000,-1752.358589,7000.212277,-4898.745207,9576.958266,0.000000,-0.000000,0.000000
-1.660000,-1.900000,0.100499,0.040000,-1755.865659,-3316.483299,7355.396121,989.675704,-0.000000,0.000000,0.000000
-1.580000,-1.940000,0.067082,0.040000,-1740.467729,17079.146806,-16593.032819,-10662.565888,0.000000,-0.000000,-0.000000
-1.540000,-1.940000,0.060828,0.040000,-1786.815811,112.617862,27641.177949,-13099.426083,-0.000000,0.000000,-0.000000
-1.540000,-1.900000,0.100499,0.040000,-1756.302032,-3312.011422,7350.656834,-982.881432,-0.000000,0.000000,-0.000000
-1.580000,-1.900000,0.104403,0.040000,-1752.504425,7000.121426,-4897.774940,-9572.947777,0.000000,-0.000000,-0.000000
-1.500000,-1.940000,0.078102,0.040000,-1714.401058,-27667.680232,-21458.313189,1.308240,-0.000000,-0.000000,0.000000
-1.460000,-1.940000,0.060828,0.040000,-1787.033515,114.069769,27649.860472,13109.075429,-0.000000,0.000000,0.000000
-1.460000,-1.900000,0.100499,0.040000,-1756.521823,-3311.297994,7351.226832,989.171145,-0.000000,0.000000,0.000000
-1.500000,-1.900000,0.111803,0.040000,-1750.496006,-5254.387304,-5207.880748,1.089790,-0.000000,-0.000000,0.000000
-1.420000,-1.940000,0.067082,0.040000,-1740.881736,17088.261538,-16608.791761,10670.550833,0.000000,-0.000000,0.000000
-1.380000,-1.940000,0.067082,0.040000,-1740.965202,17088.452619,-16603.924782,-10666.080920,0.000000,-0.000000,-0.000000
-1.380000,-1.900000,0.104403,0.040000,-1753.028047,7006.736930,-4903.963111,-9575.808521,0.000000,-0.000000,-0.000000
-1.420000,-1.900000,0.104403,0.040000,-1752.944299,7006.894058,-4904.612212,9579.329167,0.000000,-0.000000,0.000000
-1.340000,-1.940000,0.060828,0.040000,-1787.273588,116.432176,27645.463830,-13104.071874,-0.000000,0.000000,-0.000000
-1.300000,-1.940000,0.078102,0.040000,-1714.794974,-27670.237532,-21465.842003,1.175720,-0.000000,-0.000000,0.000000
-1.300000,-1.900000,0.111803,0.040000,-1750.916373,-5252.225536,-5212.209458,1.093207,-0.000000,-0.000000,0.000000
-1.340000,-1.900000,0.100499,0.040000,-1756.772259,-3309.117838,7348.899439,-984.049533,-0.000000,0.000000,-0.000000
-1.260000,-1.940000,0.060828,0.040000,-1787.398742,117.134935,27650.502272,13110.412489,-0.000000,0.000000,0.000000
-1.220000,-1.940000,0.067082,0.040000,-1741.203195,17093.371926,-16612.597625,10671.502625,0.000000,-0.000000,0.000000
-1.220000,-1.900000,0.104403,0.040000,-1753.283585,7010.349576,-4907.613549,9580.410950,0.000000,-0.000000,0.000000
-1.260000,-1.900000,0.100499,0.040000,-1756.900031,-3308.822105,7349.330250,988.572567,-0.000000,0.000000,0.000000
-1.180000,-1.940000,0.067082,0.040000,-1741.251489,17093.453924,-16609.802867,-10668.240139,0.000000,-0.000000,-0.000000
-1.140000,-1.940000,0.060828,0.040000,-1787.537708,118.398055,27648.089664,-13106.835732,-0.000000,0.000000,-0.000000
-1.140000,-1.900000,0.100499,0.040000,-1757.046653,-3307.655648,7348.080508,-984.892203,-0.000000,0.000000,-0.000000
-1.180000,-1.900000,0.104403,0.040000,-1753.332624,7010.236270,-4907.220583,-9577.650916,0.000000,-0.000000,-0.000000
-1.100000,-1.940000,0.078102,0.040000,-1715.022903,-27671.825185,-21469.989392,0.974669,-0.000000,-0.000000,0.000000
-1.060000,-1.940000,0.060828,0.040000,-1787.610248,118.779598,27650.970215,13111.052858,-0.000000,0.000000,0.000000
-1.060000,-1.900000,0.100499,0.040000,-1757.121669,-3307.502554,7348.340071,988.089146,-0.000000,0.000000,0.000000
-1.100000,-1.900000,0.111803,0.040000,-1751.162303,-5251.121763,-5214.545456,0.933582,-0.000000,-0.000000,0.000000
-1.020000,-1.940000,0.067082,0.040000,-1741.389543,17096.211514,-16614.691218,10671.940359,0.000000,-0.000000,0.000000
-0.980000,-1.940000,0.067082,0.040000,-1741.417447,17096.258917,-16613.114323,-10669.566954,0.000000,-0.000000,-0.000000
-0.980000,-1.900000,0.104403,0.040000,-1753.511378,7012.194579,-4909.042808,-9578.812447,0.000000,-0.000000,-0.000000
-1.020000,-1.900000,0.104403,0.040000,-1753.482628,7012.256720,-4909.262810,9580.900001,0.000000,-0.000000,0.000000
-0.940000,-1.940000,0.060828,0.040000,-1787.690623,119.495338,27649.605857,-13108.500543,-0.000000,0.000000,-0.000000
-0.900000,-1.940000,0.078102,0.040000,-1715.154785,-27672.719707,-21472.332135,0.775408,-0.000000,-0.000000,0.000000
-0.900000,-1.900000,0.111803,0.040000,-1751.306477,-5250.492893,-5215.870191,0.747721,-0.000000,-0.000000,0.000000
-0.940000,-1.900000,0.100499,0.040000,-1757.207640,-3306.839181,7347.629577,-985.479463,-0.000000,0.000000,-0.000000
-0.860000,-1.940000,0.060828,0.040000,-1787.732261,119.720663,27651.202319,13111.318112,-0.000000,0.000000,0.000000
-0.820000,-1.940000,0.067082,0.040000,-1741.496819,17097.822029,-16615.867339,10672.096699,0.000000,-0.000000,0.000000
-0.820000,-1.900000,0.104403,0.040000,-1753.598894,7013.347945,-4910.208367,9581.082502,0.000000,-0.000000,0.000000
-0.860000,-1.900000,0.100499,0.040000,-1757.251396,-3306.740658,7347.761447,987.718187,-0.000000,0.000000,0.000000
-0.780000,-1.940000,0.067082,0.040000,-1741.512652,17097.856550,-16615.008688,-10670.391378,0.000000,-0.000000,-0.000000
-0.740000,-1.940000,0.060828,0.040000,-1787.777939,120.138791,27650.426191,-13109.515268,-0.000000,0.000000,-0.000000
-0.740000,-1.900000,0.100499,0.040000,-1757.301102,-3306.350328,7347.344982,-985.894984,-0.000000,0.000000,-0.000000
-0.780000,-1.900000,0.104403,0.040000,-1753.615509,7013.322446,-4910.096077,-9579.547012,0.000000,-0.000000,-0.000000
-0.700000,-1.940000,0.078102,0.040000,-1715.229818,-27673.173669,-21473.657330,0.588766,-0.000000,-0.000000,0.000000
-0.660000,-1.940000,0.060828,0.040000,-1787.801212,120.278195,27651.267815,13111.374966,-0.000000,0.000000,0.000000
-0.660000,-1.900000,0.100499,0.040000,-1757.326056,-3306.278974,7347.397659,987.429686,-0.000000,0.000000,0.000000
-0.700000,-1.900000,0.111803,0.040000,-1751.389855,-5250.106340,-5216.639554,0.567113,-0.000000,-0.000000,0.000000
-0.620000,-1.940000,0.067082,0.040000,-1741.557124,17098.733316,-16616.526541,10672.095901,0.000000,-0.000000,0.000000
-0.580000,-1.940000,0.067082,0.040000,-1741.565781,17098.760031,-16616.084799,-10670.915607,0.000000,-0.000000,-0.000000
-0.580000,-1.900000,0.104403,0.040000,-1753.674742,7013.974835,-4910.709472,-9580.021017,0.000000,-0.000000,-0.000000
-0.620000,-1.900000,0.104403,0.040000,-1753.665450,7013.979529,-4910.759682,9581.099464,0.000000,-0.000000,0.000000
-0.540000,-1.940000,0.060828,0.040000,-1787.826241,120.522657,27650.834117,-13110.144712,-0.000000,0.000000,-0.000000
-0.500000,-1.940000,0.078102,0.040000,-1715.271005,-27673.372441,-21474.390870,0.413352,-0.000000,-0.000000,0.000000
-0.500000,-1.900000,0.111803,0.040000,-1751.436545,-5249.862114,-5217.084703,0.396806,-0.000000,-0.000000,0.000000
-0.540000,-1.900000,0.100499,0.040000,-1757.353875,-3306.048521,7347.153288,-986.200239,-0.000000,0.000000,-0.000000
-0.460000,-1.940000,0.060828,0.040000,-1787.838599,120.608277,27651.245046,13111.316667,-0.000000,0.000000,0.000000
-0.420000,-1.940000,0.067082,0.040000,-1741.589472,17099.233146,-16616.882720,10672.008689,0.000000,-0.000000,0.000000
-0.420000,-1.900000,0.104403,0.040000,-1753.701927,7014.337315,-4911.075201,9581.026815,0.000000,-0.000000,0.000000
-0.460000,-1.900000,0.100499,0.040000,-1757.367447,-3305.997273,7347.164799,987.196638,-0.000000,0.000000,0.000000
-0.380000,-1.940000,0.067082,0.040000,-1741.593862,17099.252104,-16616.675913,-10671.264105,0.000000,-0.000000,-0.000000
-0.340000,-1.940000,0.060828,0.040000,-1787.851324,120.743892,27651.017178,-13110.548898,-0.000000,0.000000,-0.000000
-0.340000,-1.900000,0.100499,0.040000,-1757.381931,-3305.868082,7347.028756,-986.437390,-0.000000,0.000000,-0.000000
-0.380000,-1.900000,0.104403,0.040000,-1753.706762,7014.341159,-4911.057111,-9580.340319,0.000000,-0.000000,-0.000000
-0.300000,-1.940000,0.078102,0.040000,-1715.291992,-27673.440319,-21474.771732,0.245750,-0.000000,-0.000000,0.000000
-0.260000,-1.940000,0.060828,0.040000,-1787.857133,120.790940,27651.191015,13111.193955,-0.000000,0.000000,0.000000
-0.260000,-1.900000,0.100499,0.040000,-1757.388475,-3305.836304,7347.024885,986.997775,-0.000000,0.000000,0.000000
-0.300000,-1.900000,0.111803,0.040000,-1751.460875,-5249.715097,-5217.328646,0.235072,-0.000000,-0.000000,0.000000
-0.220000,-1.940000,0.067082,0.040000,-1741.605038,17099.480049,-16617.048541,10671.873848,0.000000,-0.000000,0.000000
-0.180000,-1.940000,0.067082,0.040000,-1741.606807,17099.490223,-16616.972659,-10671.513054,0.000000,-0.000000,-0.000000
-0.180000,-1.900000,0.104403,0.040000,-1753.721881,7014.524593,-4911.233597,-9580.570782,0.000000,-0.000000,-0.000000
-0.220000,-1.900000,0.104403,0.040000,-1753.719882,7014.520173,-4911.237538,9580.905073,0.000000,-0.000000,0.000000
-0.140000,-1.940000,0.060828,0.040000,-1787.862276,120.851269,27651.095009,-13110.824766,-0.000000,0.000000,-0.000000
-0.100000,-1.940000,0.078102,0.040000,-1715.300493,-27673.452631,-21474.930194,0.082621,-0.000000,-0.000000,0.000000
-0.100000,-1.900000,0.111803,0.040000,-1751.470953,-5249.644844,-5217.435890,0.078625,-0.000000,-0.000000,0.000000
-0.140000,-1.900000,0.100499,0.040000,-1757.394469,-3305.778283,7346.964183,-986.635780,-0.000000,0.000000,-0.000000
-0.060000,-1.940000,0.060828,0.040000,-1787.863835,120.866616,27651.134839,13111.028354,-0.000000,0.000000,0.000000
-0.020000,-1.940000,0.067082,0.040000,-1741.609820,17099.554186,-16617.072843,10671.707720,0.000000,-0.000000,0.000000
-0.020000,-1.900000,0.104403,0.040000,-1753.725513,7014.576434,-4911.285777,9580.751731,0.000000,-0.000000,0.000000
-0.060000,-1.900000,0.100499,0.040000,-1757.396279,-3305.766748,7346.959616,986.815579,-0.000000,0.000000,0.000000
0.020000,-1.940000,0.067082,0.040000,-1741.609715,17099.554850,-16617.080464,-10671.706846,0.000000,-0.000000,-0.000000
0.060000,-1.940000,0.060828,0.040000,-1787.863534,120.866096,27651.137984,-13111.028386,-0.000000,0.000000,-0.000000
0.060000,-1.900000,0.100499,0.040000,-1757.395980,-3305.767020,7346.960070,-986.817023,-0.000000,0.000000,-0.000000
0.020000,-1.900000,0.104403,0.040000,-1753.725412,7014.577563,-4911.287582,-9580.750910,0.000000,-0.000000,-0.000000
0.100000,-1.940000,0.078102,0.040000,-1715.300007,-27673.444778,-21474.924101,-0.079060,-0.000000,-0.000000,-0.000000
0.140000,-1.940000,0.060828,0.040000,-1787.861561,120.851721,27651.076170,13110.817293,-0.000000,0.000000,0.000000
0.140000,-1.900000,0.100499,0.040000,-1757.393771,-3305.776134,7346.959557,986.633776,-0.000000,0.000000,0.000000
0.100000,-1.900000,0.111803,0.040000,-1751.470456,-5249.643354,-5217.434411,-0.076060,-0.000000,-0.000000,-0.000000
0.180000,-1.940000,0.067082,0.040000,-1741.605924,17099.479857,-16616.955609,10671.507872,0.000000,-0.000000,0.000000
0.220000,-1.940000,0.067082,0.040000,-1741.603944,17099.471010,-16617.046734,-10671.866917,0.000000,-0.000000,-0.000000
0.220000,-1.900000,0.104403,0.040000,-1753.718786,7014.517323,-4911.236558,-9580.898815,0.000000,-0.000000,-0.000000
0.180000,-1.900000,0.104403,0.040000,-1753.720986,7014.519485,-4911.229007,9580.566166,0.000000,-0.000000,0.000000
0.260000,-1.940000,0.060828,0.040000,-1787.855818,120.790353,27651.178467,-13111.186547,-0.000000,0.000000,-0.000000
0.300000,-1.940000,0.078102,0.040000,-1715.290531,-27673.416760,-21474.753454,-0.242189,-0.000000,-0.000000,-0.000000
0.300000,-1.900000,0.111803,0.040000,-1751.459384,-5249.710627,-5217.324208,-0.232507,-0.000000,-0.000000,-0.000000
0.260000,-1.900000,0.100499,0.040000,-1757.387179,-3305.834699,7347.021168,-986.998659,-0.000000,0.000000,-0.000000
0.340000,-1.940000,0.060828,0.040000,-1787.849595,120.744278,27650.982646,13110.533986,-0.000000,0.000000,0.000000
0.380000,-1.940000,0.067082,0.040000,-1741.591990,17099.232035,-16616.649436,10671.252868,0.000000,-0.000000,0.000000
0.380000,-1.900000,0.104403,0.040000,-1753.704872,7014.332071,-4911.049736,9580.330267,0.000000,-0.000000,0.000000
0.340000,-1.900000,0.100499,0.040000,-1757.380235,-3305.864057,7347.019960,986.434826,-0.000000,0.000000,0.000000
0.420000,-1.940000,0.067082,0.040000,-1741.587390,17099.214405,-16616.871485,-10671.995702,0.000000,-0.000000,-0.000000
0.460000,-1.940000,0.060828,0.040000,-1787.836270,120.607622,27651.216804,-13111.301819,-0.000000,0.000000,-0.000000
0.460000,-1.900000,0.100499,0.040000,-1757.365154,-3305.993790,7347.156911,-987.196961,-0.000000,0.000000,-0.000000
0.420000,-1.900000,0.104403,0.040000,-1753.699836,7014.330485,-4911.071435,-9581.015120,0.000000,-0.000000,-0.000000
0.500000,-1.940000,0.078102,0.040000,-1715.268571,-27673.333178,-21474.360409,-0.409791,-0.000000,-0.000000,-0.000000
0.540000,-1.940000,0.060828,0.040000,-1787.823497,120.522975,27650.783895,13110.122361,-0.000000,0.000000,0.000000
0.540000,-1.900000,0.100499,0.040000,-1757.351181,-3306.042618,7347.140321,986.197116,-0.000000,0.000000,0.000000
0.500000,-1.900000,0.111803,0.040000,-1751.434060,-5249.854663,-5217.077307,-0.394240,-0.000000,-0.000000,-0.000000
0.580000,-1.940000,0.067082,0.040000,-1741.562922,17098.730263,-16616.048899,10670.898315,0.000000,-0.000000,0.000000
0.620000,-1.940000,0.067082,0.040000,-1741.554054,17098.704875,-16616.505879,-10672.076858,0.000000,-0.000000,-0.000000
0.620000,-1.900000,0.104403,0.040000,-1753.662364,7013.968722,-4910.753132,-9581.082333,0.000000,-0.000000,-0.000000
0.580000,-1.900000,0.104403,0.040000,-1753.671857,7013.961770,-4910.699313,9580.005529,0.000000,-0.000000,0.000000
0.660000,-1.940000,0.060828,0.040000,-1787.797868,120.277475,27651.223880,-13111.352678,-0.000000,0.000000,-0.000000
0.700000,-1.940000,0.078102,0.040000,-1715.226412,-27673.118705,-21473.614690,-0.585204,-0.000000,-0.000000,-0.000000
0.700000,-1.900000,0.111803,0.040000,-1751.386377,-5250.095909,-5216.629201,-0.564547,-0.000000,-0.000000,-0.000000
0.660000,-1.900000,0.100499,0.040000,-1757.322766,-3306.273613,7347.385599,-987.429449,-0.000000,0.000000,-0.000000
0.740000,-1.940000,0.060828,0.040000,-1787.774181,120.139044,27650.360282,13109.485482,-0.000000,0.000000,0.000000
0.780000,-1.940000,0.067082,0.040000,-1741.508805,17097.817086,-16614.963368,10670.368034,0.000000,-0.000000,0.000000
0.780000,-1.900000,0.104403,0.040000,-1753.611630,7013.305405,-4910.083137,9579.526090,0.000000,-0.000000,0.000000
0.740000,-1.900000,0.100499,0.040000,-1757.297412,-3306.342547,7347.327843,985.891303,-0.000000,0.000000,0.000000
0.820000,-1.940000,0.067082,0.040000,-1741.492761,17097.783893,-16615.837252,-10672.071602,0.000000,-0.000000,-0.000000
0.860000,-1.940000,0.060828,0.040000,-1787.727904,119.719878,27651.142694,-13111.288386,-0.000000,0.000000,-0.000000
0.860000,-1.900000,0.100499,0.040000,-1757.247109,-3306.733418,7347.745215,-987.717388,-0.000000,0.000000,-0.000000
0.820000,-1.900000,0.104403,0.040000,-1753.594814,7013.333162,-4910.199036,-9581.059936,0.000000,-0.000000,-0.000000
0.900000,-1.940000,0.078102,0.040000,-1715.150406,-27672.649045,-21472.277321,-0.771846,-0.000000,-0.000000,-0.000000
0.940000,-1.940000,0.060828,0.040000,-1787.685852,119.495527,27649.524266,13108.463326,-0.000000,0.000000,0.000000
0.940000,-1.900000,0.100499,0.040000,-1757.202954,-3306.829521,7347.608268,985.475225,-0.000000,0.000000,0.000000
0.900000,-1.900000,0.111803,0.040000,-1751.302006,-5250.479480,-5215.856884,-0.745155,-0.000000,-0.000000,-0.000000
0.980000,-1.940000,0.067082,0.040000,-1741.412612,17096.209764,-16613.059592,10669.537561,0.000000,-0.000000,0.000000
1.020000,-1.940000,0.067082,0.040000,-1741.384498,17096.163688,-16614.651713,-10671.909209,0.000000,-0.000000,-0.000000
1.020000,-1.900000,0.104403,0.040000,-1753.477554,7012.237965,-4909.250699,-9580.872001,0.000000,-0.000000,-0.000000
0.980000,-1.900000,0.104403,0.040000,-1753.506504,7012.173567,-4909.027091,9578.786094,0.000000,-0.000000,0.000000
1.060000,-1.940000,0.060828,0.040000,-1787.604877,118.778751,27650.894903,-13111.015696,-0.000000,0.000000,-0.000000
1.100000,-1.940000,0.078102,0.040000,-1715.017551,-27671.738831,-21469.922413,-0.971107,-0.000000,-0.000000,-0.000000
1.100000,-1.900000,0.111803,0.040000,-1751.156838,-5251.105367,-5214.529199,-0.931016,-0.000000,-0.000000,-0.000000
1.060000,-1.900000,0.100499,0.040000,-1757.116386,-3307.493432,7348.319666,-988.087785,-0.000000,0.000000,-0.000000
1.140000,-1.940000,0.060828,0.040000,-1787.531924,118.398183,27647.992399,13106.791089,-0.000000,0.000000,0.000000
1.180000,-1.940000,0.067082,0.040000,-1741.245667,17093.395093,-16609.738736,10668.204702,0.000000,-0.000000,0.000000
1.180000,-1.900000,0.104403,0.040000,-1753.326757,7010.211294,-4907.202094,9577.619136,0.000000,-0.000000,0.000000
1.140000,-1.900000,0.100499,0.040000,-1757.040970,-3307.644106,7348.055027,984.887409,-0.000000,0.000000,0.000000
1.220000,-1.940000,0.067082,0.040000,-1741.197163,17093.314421,-16612.548709,-10671.465426,0.000000,-0.000000,-0.000000
1.260000,-1.940000,0.060828,0.040000,-1787.392358,117.134032,27650.411278,-13110.367896,-0.000000,0.000000,-0.000000
1.260000,-1.900000,0.100499,0.040000,-1756.893753,-3308.811098,7349.305669,-988.570644,-0.000000,0.000000,-0.000000
1.220000,-1.900000,0.104403,0.040000,-1753.277516,7010.326856,-4907.598665,-9580.377520,0.000000,-0.000000,-0.000000
1.300000,-1.940000,0.078102,0.040000,-1714.788652,-27670.135494,-21465.762876,-1.172158,-0.000000,-0.000000,-0.000000
1.340000,-1.940000,0.060828,0.040000,-1787.266792,116.432250,27645.350903,13104.019815,-0.000000,0.000000,0.000000
1.340000,-1.900000,0.100499,0.040000,-1756.765581,-3309.104411,7348.869785,984.044184,-0.000000,0.000000,0.000000
1.300000,-1.900000,0.111803,0.040000,-1750.909917,-5252.206155,-5212.190260,-1.090642,-0.000000,-0.000000,-0.000000
1.380000,-1.940000,0.067082,0.040000,-1740.958395,17088.384126,-16603.851273,10666.039445,0.000000,-0.000000,0.000000
1.420000,-1.940000,0.067082,0.040000,-1740.874719,17088.194373,-16608.733448,-10670.507590,0.000000,-0.000000,-0.000000
1.420000,-1.900000,0.104403,0.040000,-1752.937239,7006.867385,-4904.594565,-9579.290313,0.000000,-0.000000,-0.000000
1.380000,-1.900000,0.104403,0.040000,-1753.021187,7006.708002,-4903.941862,9575.771321,0.000000,-0.000000,0.000000
1.460000,-1.940000,0.060828,0.040000,-1787.026120,114.068820,27649.753798,-13109.023412,-0.000000,0.000000,-0.000000
1.500000,-1.940000,0.078102,0.040000,-1714.393765,-27667.562520,-21458.221940,-1.304679,-0.000000,-0.000000,-0.000000
1.500000,-1.900000,0.111803,0.040000,-1750.488560,-5254.364930,-5207.858624,-1.087226,-0.000000,-0.000000,-0.000000
1.460000,-1.900000,0.100499,0.040000,-1756.514551,-3311.285094,7351.198069,-989.168658,-0.000000,0.000000,-0.000000
1.540000,-1.940000,0.060828,0.040000,-1786.808004,112.617896,27641.049375,13099.366623,-0.000000,0.000000,0.000000
1.580000,-1.940000,0.067082,0.040000,-1740.459938,17079.068687,-16592.949971,10662.518386,0.000000,-0.000000,0.000000
1.580000,-1.900000,0.104403,0.040000,-1752.496574,7000.088570,-4897.750953,9572.905164,0.000000,-0.000000,0.000000
1.540000,-1.900000,0.100499,0.040000,-1756.294362,-3311.996100,7350.623001,982.875532,-0.000000,0.000000,0.000000
1.620000,-1.940000,0.067082,0.040000,-1740.312737,17078.518147,-16601.444513,-10668.517879,0.000000,-0.000000,-0.000000
1.660000,-1.940000,0.060828,0.040000,-1786.384526,107.766087,27649.601504,-13106.232539,-0.000000,0.000000,-0.000000
1.660000,-1.900000,0.100499,0.040000,-1755.857395,-3316.468486,7355.363160,-989.672655,-0.000000,0.000000,-0.000000
1.620000,-1.900000,0.104403,0.040000,-1752.350538,7000.181676,-4898.724819,-9576.913998,0.000000,-0.000000,-0.000000
1.700000,-1.940000,0.078102,0.040000,-1713.697868,-27664.015433,-21443.714455,-0.996295,-0.000000,-0.000000,-0.000000
1.740000,-1.940000,0.060828,0.040000,-1785.993090,104.294986,27634.635798,13091.488988,-0.000000,0.000000,0.000000
1.740000,-1.900000,0.100499,0.040000,-1755.466913,-3318.499330,7355.055115,981.628196,-0.000000,0.000000,0.000000
1.700000,-1.900000,0.111803,0.040000,-1749.753936,-5259.199919,-5199.145094,-0.317410,-0.000000,-0.000000,-0.000000
1.780000,-1.940000,0.067082,0.040000,-1739.567467,17060.238398,-16570.977297,10657.019482,0.000000,-0.000000,0.000000
1.820000,-1.940000,0.067082,0.040000,-1739.295664,17058.403938,-16586.070329,-10663.900683,0.000000,-0.000000,-0.000000
1.820000,-1.900000,0.104403,0.040000,-1751.301987,6985.827892,-4885.913005,-9570.994287,0.000000,-0.000000,-0.000000
1.780000,-1.900000,0.104403,0.040000,-1751.567864,6986.343196,-4884.775570,9568.939897,0.000000,-0.000000,0.000000
1.860000,-1.940000,0.060828,0.040000,-1785.210286,92.792912,27653.378009,-13099.529195,-0.000000,0.000000,-0.000000
1.900000,-1.940000,0.078102,0.040000,-1712.406982,-27661.324302,-21412.430333,1.961737,-0.000000,-0.000000,0.000000
1.900000,-1.900000,0.111803,0.040000,-1748.410602,-5271.803916,-5179.255664,4.327738,-0.000000,-0.000000,0.000000
1.860000,-1.900000,0.100499,0.040000,-1754.670311,-3328.982422,7366.062138,-988.500990,-0.000000,0.000000,-0.000000
1.940000,-1.940000,0.060828,0.040000,-1784.457073,82.794029,27627.511501,13078.928599,-0.000000,0.000000,0.000000
1.980000,-1.940000,0.067082,0.040000,-1737.857196,17016.116223,-16519.336533,10651.110072,0.000000,-0.000000,0.000000
1.980000,-1.900000,0.104403,0.040000,-1749.819258,6953.413898,-4853.296329,9567.313604,0.000000,-0.000000,0.000000
1.940000,-1.900000,0.100499,0.040000,-1753.932722,-3335.563334,7368.070525,983.149018,-0.000000,0.000000,0.000000
2.020000,-1.940000,0.067082,0.040000,-1737.304056,17009.125615,-16547.457440,-10648.588225,0.000000,-0.000000,-0.000000
2.060000,-1.940000,0.060828,0.040000,-1782.860036,49.356144,27678.269119,-13075.317080,-0.000000,0.000000,-0.000000
2.060000,-1.900000,0.100499,0.040000,-1752.351723,-3364.439171,7398.217096,-973.672689,-0.000000,0.000000,-0.000000
2.020000,-1.900000,0.104403,0.040000,-1749.292795,6950.018820,-4853.351843,-9550.753961,0.000000,-0.000000,-0.000000
2.100000,-1.940000,0.078102,0.040000,-1709.753475,-27670.701241,-21330.099055,25.362368,-0.000000,-0.000000,0.000000
2.140000,-1.940000,0.060828,0.040000,-1781.200376,14.554742,27633.382741,13074.276429,-0.000000,0.000000,0.000000
2.140000,-1.900000,0.100499,0.040000,-1750.799515,-3386.109875,7409.581161,1013.743642,-0.000000,0.000000,0.000000
2.100000,-1.900000,0.111803,0.040000,-1745.730252,-5309.320488,-5126.291488,33.999302,-0.000000,-0.000000,0.000000
2.180000,-1.940000,0.067082,0.040000,-1734.115963,16889.614434,-16364.147149,10681.499391,0.000000,-0.000000,0.000000
2.220000,-1.940000,0.067082,0.040000,-1732.764635,16865.983147,-16429.530137,-10546.620766,0.000000,-0.000000,-0.000000
2.220000,-1.900000,0.104403,0.040000,-1744.979406,6857.105864,-4768.275598,-9435.783144,0.000000,-0.000000,-0.000000
2.180000,-1.900000,0.104403,0.040000,-1746.160377,6863.993576,-4766.480354,9608.334589,0.000000,-0.000000,0.000000
2.260000,-1.940000,0.060828,0.040000,-1777.294162,-77.635876,27803.332953,-12892.674881,-0.000000,0.000000,-0.000000
2.300000,-1.940000,0.078102,0.040000,-1703.201311,-27631.140722,-21146.493476,267.110965,-0.000000,-0.000000,0.000000
2.300000,-1.900000,0.111803,0.040000,-1739.720524,-5384.186392,-4993.318815,272.741965,-0.000000,-0.000000,0.000000
2.260000,-1.900000,0.100499,0.040000,-1747.255694,-3451.570275,7482.836410,-833.273733,-0.000000,0.000000,-0.000000
2.340000,-1.940000,0.060828,0.040000,-1772.856825,347.890449,27133.459770,13171.079697,-0.000000,0.000000,0.000000
2.380000,-1.940000,0.067082,0.040000,-1725.085556,17454.076659,-14438.649266,9171.998155,0.000000,-0.000000,0.000000
2.380000,-1.900000,0.104403,0.040000,-1737.107313,3631.703256,-1859.151186,9851.443301,0.000000,-0.000000,0.000000
2.340000,-1.900000,0.100499,0.040000,-1743.650365,-3737.241461,7859.270996,1301.048763,-0.000000,0.000000,0.000000
2.420000,-1.940000,0.067082,0.040000,-1730.215360,-4753.647340,92625.638841,-15173.802226,-0.000001,0.000001,-0.000000
2.460000,-1.940000,0.041231,0.040000,-1880.621327,79334.908294,480506.307008,-11667.588026,-0.000002,0.000006,-0.000000
2.460000,-1.900000,0.064031,0.040000,-1607.296468,-29636.368638,316591.555120,-4346.646763,-0.000002,0.000004,-0.000000
2.420000,-1.900000,0.094340,0.040000,-1724.521186,-21046.401923,106134.922564,-11264.924855,-0.000001,0.000002,-0.000000
2.500000,-1.940000,0.010000,0.040000,-844.104445,20744.659338,731328.875989,52879.071126,-0.000004,0.000010,0.000001
2.500000,-1.900000,0.050000,0.040000,-864.791928,-4344.509789,568359.287808,26017.325972,-0.000003,0.000008,0.000000
-2.500000,-1.860000,0.010000,0.040000,-868.745832,7052.930049,528422.344363,-3595.657477,-0.000003,0.000007,-0.000000
-2.500000,-1.820000,0.030000,0.040000,-870.641160,-3106.203995,510316.690120,-1824.222961,-0.000003,0.000007,-0.000000
-2.460000,-1.860000,0.041231,0.040000,-1855.817934,73600.034455,418102.575589,246.319353,-0.000001,0.000005,0.000000
-2.420000,-1.860000,0.080623,0.040000,-1748.614567,-10392.134255,116241.118285,1246.494200,-0.000001,0.000002,0.000000
-2.420000,-1.820000,0.085440,0.040000,-1738.059684,-21416.721393,115428.035575,845.768791,-0.000001,0.000002,0.000000
-2.460000,-1.820000,0.050000,0.040000,-1688.913868,11639.731271,335618.417830,262.080572,-0.000002,0.000004,0.000000
-2.380000,-1.860000,0.120416,0.040000,-1741.493910,1782.378850,2049.160057,-1600.977694,0.000000,0.000000,-0.000000
-2.340000,-1.860000,0.140357,0.040000,-1742.579865,-1256.181148,638.920246,-89.735598,-0.000000,0.000000,-0.000000
-2.340000,-1.820000,0.162788,0.040000,-1743.554381,-212.981615,246.686918,-43.495331,-0.000000,0.000000,-0.000000
-2.380000,-1.820000,0.123693,0.040000,-1742.248603,-1918.767671,3862.565153,1873.309951,-0.000000,0.000000,0.000000
-2.300000,-1.860000,0.148661,0.040000,-1743.483682,1268.458341,-1034.470745,-232.450758,0.000000,-0.000000,-0.000000
-2.260000,-1.860000,0.140357,0.040000,-1745.277615,-1611.778240,1122.528794,-454.067620,-0.000000,0.000000,-0.000000
-2.260000,-1.820000,0.180278,0.040000,-1745.671213,-163.606441,127.670444,-174.135478,-0.000000,0.000000,-0.000000
-2.300000,-1.820000,0.186815,0.040000,-1744.598128,110.846006,-66.022032,-177.122893,0.000000,-0.000000,-0.000000
-2.220000,-1.860000,0.143178,0.040000,-1746.155969,797.867016,-412.832556,485.265504,0.000000,-0.000000,0.000000
-2.180000,-1.860000,0.143178,0.040000,-1747.186150,802.936375,-416.940378,-676.678699,0.000000,-0.000000,-0.000000
-2.180000,-1.820000,0.182483,0.040000,-1747.486133,-11.626158,26.002116,-128.628856,-0.000000,0.000000,-0.000000
-2.220000,-1.820000,0.182483,0.040000,-1746.610469,-8.964277,23.562192,-65.109323,-0.000000,0.000000,-0.000000
-2.140000,-1.860000,0.140357,0.040000,-1748.374939,-1598.251879,1107.447572,242.593784,-0.000000,0.000000,0.000000
-2.100000,-1.860000,0.148661,0.040000,-1748.669924,1259.429579,-1015.727457,-37.755878,0.000000,-0.000000,-0.000000
-2.100000,-1.820000,0.186815,0.040000,-1748.950482,90.989793,-49.358170,-44.399002,0.000000,-0.000000,-0.000000
-2.140000,-1.820000,0.180278,0.040000,-1748.293779,-176.873040,137.962614,-32.511810,-0.000000,0.000000,-0.000000
-2.060000,-1.860000,0.140357,0.040000,-1749.819121,-1581.266403,1090.018801,-320.201662,-0.000000,0.000000,-0.000000
-2.020000,-1.860000,0.143178,0.040000,-1750.103688,843.784911,-457.839120,581.890385,0.000000,-0.000000,0.000000
-2.020000,-1.820000,0.182483,0.040000,-1750.121601,7.106881,7.508883,22.565431,0.000000,0.000000,0.000000
-2.060000,-1.820000,0.180278,0.040000,-1749.603757,-167.075413,128.067049,-60.268941,-0.000000,0.000000,-0.000000
-1.980000,-1.860000,0.143178,0.040000,-1750.609794,850.052816,-463.643386,-611.103420,0.000000,-0.000000,-0.000000
-1.940000,-1.860000,0.140357,0.040000,-1751.347173,-1560.476183,1068.720636,288.482227,-0.000000,0.000000,0.000000
-1.940000,-1.820000,0.180278,0.040000,-1751.045251,-152.114202,113.147382,15.587880,-0.000000,0.000000,0.000000
-1.980000,-1.820000,0.182483,0.040000,-1750.599499,11.986477,2.655820,-63.343233,0.000000,-0.000000,-0.000000
-1.900000,-1.860000,0.148661,0.040000,-1751.254211,1296.709969,-1052.590330,-5.320624,0.000000,-0.000000,-0.000000
-1.860000,-1.860000,0.140357,0.040000,-1752.073408,-1552.562369,1060.674168,-298.545384,-0.000000,0.000000,-0.000000
-1.860000,-1.820000,0.180278,0.040000,-1751.748308,-144.853083,105.904824,-34.419248,-0.000000,0.000000,-0.000000
-1.900000,-1.820000,0.186815,0.040000,-1751.379256,115.507102,-73.702511,-9.033138,0.000000,-0.000000,-0.000000
-1.820000,-1.860000,0.143178,0.040000,-1752.075881,869.899098,-483.393869,598.115654,0.000000,-0.000000,0.000000
-1.780000,-1.860000,0.143178,0.040000,-1752.340531,872.442779,-485.710760,-600.539288,0.000000,-0.000000,-0.000000
-1.780000,-1.820000,0.182483,0.040000,-1752.277768,29.440634,-14.697318,-49.324234,0.000000,-0.000000,-0.000000
-1.820000,-1.820000,0.182483,0.040000,-1752.017256,26.972816,-12.241623,41.652495,0.000000,-0.000000,0.000000
-1.740000,-1.860000,0.140357,0.040000,-1752.871291,-1543.912327,1051.794318,296.237010,-0.000000,0.000000,0.000000
-1.700000,-1.860000,0.148661,0.040000,-1752.599677,1312.634115,-1068.300515,0.343031,0.000000,-0.000000,0.000000
-1.700000,-1.820000,0.186815,0.040000,-1752.702044,128.588861,-86.695620,-1.289010,0.000000,-0.000000,-0.000000
-1.740000,-1.820000,0.180278,0.040000,-1752.533820,-137.165517,98.236388,25.984087,-0.000000,0.000000,0.000000
-1.660000,-1.860000,0.140357,0.040000,-1753.264935,-1540.669867,1048.484055,-294.982566,-0.000000,0.000000,-0.000000
-1.620000,-1.860000,0.143178,0.040000,-1753.133493,880.969166,-494.191942,601.144072,0.000000,-0.000000,0.000000
-1.620000,-1.820000,0.182483,0.040000,-1753.067792,36.610408,-21.833960,45.976597,0.000000,-0.000000,0.000000
-1.660000,-1.820000,0.180278,0.040000,-1752.926059,-133.722306,94.796627,-28.689157,-0.000000,0.000000,-0.000000
-1.580000,-1.860000,0.143178,0.040000,-1753.281366,882.067512,-495.169748,-598.890749,0.000000,-0.000000,-0.000000
-1.540000,-1.860000,0.140357,0.040000,-1753.710236,-1536.843900,1044.533286,297.535556,-0.000000,0.000000,0.000000
-1.540000,-1.820000,0.180278,0.040000,-1753.373946,-130.043278,91.120822,28.384738,-0.000000,0.000000,0.000000
-1.580000,-1.820000,0.182483,0.040000,-1753.216454,37.786674,-23.005977,-46.125422,0.000000,-0.000000,-0.000000
-1.500000,-1.860000,0.148661,0.040000,-1753.348796,1319.767509,-1075.327126,1.279287,0.000000,-0.000000,0.000000
-1.460000,-1.860000,0.140357,0.040000,-1753.935228,-1535.369361,1043.020611,-294.611355,-0.000000,0.000000,-0.000000
-1.460000,-1.820000,0.180278,0.040000,-1753.601901,-128.347288,89.423987,-27.381418,-0.000000,0.000000,-0.000000
-1.500000,-1.820000,0.186815,0.040000,-1753.455046,134.859911,-92.931451,0.506720,0.000000,-0.000000,0.000000
-1.420000,-1.860000,0.143178,0.040000,-1753.733975,886.120479,-499.200731,601.620015,0.000000,-0.000000,0.000000
-1.380000,-1.860000,0.143178,0.040000,-1753.819959,886.651380,-499.664366,-598.891017,0.000000,-0.000000,-0.000000
-1.380000,-1.820000,0.182483,0.040000,-1753.762760,41.926018,-27.131337,-45.433808,0.000000,-0.000000,-0.000000
-1.420000,-1.820000,0.182483,0.040000,-1753.675102,41.324996,-26.531928,46.959812,0.000000,-0.000000,0.000000
-1.340000,-1.860000,0.140357,0.040000,-1754.193989,-1533.484672,1041.065067,297.558608,-0.000000,0.000000,0.000000
-1.300000,-1.860000,0.148661,0.040000,-1753.783498,1323.312886,-1078.815325,1.248917,0.000000,-0.000000,0.000000
-1.300000,-1.820000,0.186815,0.040000,-1753.898298,138.064377,-96.120453,0.847584,0.000000,-0.000000,0.000000
-1.340000,-1.820000,0.180278,0.040000,-1753.865847,-126.463737,87.539825,28.879745,-0.000000,0.000000,0.000000
-1.260000,-1.860000,0.140357,0.040000,-1754.326317,-1532.736397,1040.294868,-294.841361,-0.000000,0.000000,-0.000000
-1.220000,-1.860000,0.143178,0.040000,-1754.085962,888.766814,-501.768293,601.535092,0.000000,-0.000000,0.000000
-1.220000,-1.820000,0.182483,0.040000,-1754.035721,43.804805,-29.004982,47.088625,0.000000,-0.000000,0.000000
-1.260000,-1.820000,0.180278,0.040000,-1754.001600,-125.563346,86.638077,-27.175288,-0.000000,0.000000,-0.000000
-1.180000,-1.860000,0.143178,0.040000,-1754.136897,889.050218,-502.013529,-599.182245,0.000000,-0.000000,-0.000000
-1.140000,-1.860000,0.140357,0.040000,-1754.479552,-1531.721876,1039.239717,297.331046,-0.000000,0.000000,0.000000
-1.140000,-1.820000,0.180278,0.040000,-1754.159753,-124.528489,85.602109,28.874508,-0.000000,0.000000,0.000000
-1.180000,-1.820000,0.182483,0.040000,-1754.088261,44.134978,-29.334482,-45.389581,0.000000,-0.000000,-0.000000
-1.100000,-1.860000,0.148661,0.040000,-1754.040741,1325.227379,-1080.698081,1.027960,0.000000,-0.000000,0.000000
-1.060000,-1.860000,0.140357,0.040000,-1754.558168,-1531.305975,1038.811237,-295.147089,-0.000000,0.000000,-0.000000
-1.060000,-1.820000,0.180278,0.040000,-1754.241341,-124.018689,85.091253,-27.259883,-0.000000,0.000000,-0.000000
-1.100000,-1.820000,0.186815,0.040000,-1754.163725,139.821233,-97.869849,0.802524,0.000000,-0.000000,0.000000
-1.020000,-1.860000,0.143178,0.040000,-1754.294880,890.231573,-503.188642,601.334867,0.000000,-0.000000,0.000000
-0.980000,-1.860000,0.143178,0.040000,-1754.325121,890.394965,-503.330526,-599.482226,0.000000,-0.000000,-0.000000
-0.980000,-1.820000,0.182483,0.040000,-1754.283824,45.389082,-30.585958,-45.514393,0.000000,-0.000000,-0.000000
-1.020000,-1.820000,0.182483,0.040000,-1754.252261,45.197197,-30.394371,46.989128,0.000000,-0.000000,0.000000
-0.940000,-1.860000,0.140357,0.040000,-1754.649141,-1530.723619,1038.205822,297.080791,-0.000000,0.000000,0.000000
-0.900000,-1.860000,0.148661,0.040000,-1754.193423,1326.322236,-1081.775227,0.793423,0.000000,-0.000000,0.000000
-0.900000,-1.820000,0.186815,0.040000,-1754.323125,140.838119,-98.882953,0.659451,0.000000,-0.000000,0.000000
-0.940000,-1.820000,0.180278,0.040000,-1754.336341,-123.418473,84.490161,28.739585,-0.000000,0.000000,0.000000
-0.860000,-1.860000,0.140357,0.040000,-1754.695620,-1530.476534,1037.951658,-295.421342,-0.000000,0.000000,-0.000000
-0.820000,-1.860000,0.143178,0.040000,-1754.418524,891.083633,-504.015798,601.127619,0.000000,-0.000000,0.000000
-0.820000,-1.820000,0.182483,0.040000,-1754.381971,46.016349,-31.212119,46.835947,0.000000,-0.000000,0.000000
-0.860000,-1.820000,0.180278,0.040000,-1754.385171,-123.116485,84.187486,-27.413926,-0.000000,0.000000,-0.000000
-0.780000,-1.860000,0.143178,0.040000,-1754.436262,891.182662,-504.103025,-599.739062,0.000000,-0.000000,-0.000000
-0.740000,-1.860000,0.140357,0.040000,-1754.748986,-1530.128979,1037.591374,296.855848,-0.000000,0.000000,0.000000
-0.740000,-1.820000,0.180278,0.040000,-1754.441618,-122.756780,83.827214,28.580059,-0.000000,0.000000,0.000000
-0.780000,-1.820000,0.182483,0.040000,-1754.400724,46.131794,-31.327429,-45.674269,0.000000,-0.000000,-0.000000
-0.700000,-1.860000,0.148661,0.040000,-1754.282999,1326.969185,-1082.412470,0.582388,0.000000,-0.000000,0.000000
-0.660000,-1.860000,0.140357,0.040000,-1754.775919,-1529.976941,1037.435495,-295.651544,-0.000000,0.000000,-0.000000
-0.660000,-1.820000,0.180278,0.040000,-1754.470297,-122.574204,83.644232,-27.574890,-0.000000,0.000000,-0.000000
-0.700000,-1.820000,0.186815,0.040000,-1754.417842,141.446311,-99.489206,0.500497,0.000000,-0.000000,0.000000
-0.620000,-1.860000,0.143178,0.040000,-1754.490396,891.591207,-504.509766,600.937242,0.000000,-0.000000,0.000000
-0.580000,-1.860000,0.143178,0.040000,-1754.500489,891.652026,-504.564410,-599.953367,0.000000,-0.000000,-0.000000
-0.580000,-1.820000,0.182483,0.040000,-1754.469201,46.579126,-31.774173,-45.832064,0.000000,-0.000000,-0.000000
-0.620000,-1.820000,0.182483,0.040000,-1754.458378,46.509381,-31.704486,46.678889,0.000000,-0.000000,0.000000
-0.540000,-1.860000,0.140357,0.040000,-1754.806292,-1529.768105,1037.219961,296.660121,-0.000000,0.000000,0.000000
-0.500000,-1.860000,0.148661,0.040000,-1754.333998,1327.352551,-1082.790728,0.396890,0.000000,-0.000000,0.000000
-0.500000,-1.820000,0.186815,0.040000,-1754.472528,141.811210,-99.853138,0.347612,0.000000,-0.000000,0.000000
-0.540000,-1.820000,0.180278,0.040000,-1754.502877,-122.357979,83.427678,28.424758,-0.000000,0.000000,0.000000
-0.460000,-1.860000,0.140357,0.040000,-1754.821204,-1529.675716,1037.125612,-295.846138,-0.000000,0.000000,-0.000000
-0.420000,-1.860000,0.143178,0.040000,-1754.530476,891.889575,-504.801050,600.764957,0.000000,-0.000000,0.000000
-0.420000,-1.820000,0.182483,0.040000,-1754.501598,46.802003,-31.996804,46.530077,0.000000,-0.000000,0.000000
-0.460000,-1.820000,0.180278,0.040000,-1754.518989,-122.249691,83.319171,-27.727192,-0.000000,0.000000,-0.000000
-0.380000,-1.860000,0.143178,0.040000,-1754.535825,891.925075,-504.833584,-600.136306,0.000000,-0.000000,-0.000000
-0.340000,-1.860000,0.140357,0.040000,-1754.837305,-1529.556539,1037.003197,296.486974,-0.000000,0.000000,0.000000
-0.340000,-1.820000,0.180278,0.040000,-1754.536510,-122.126480,83.195790,28.279055,-0.000000,0.000000,0.000000
-0.380000,-1.820000,0.182483,0.040000,-1754.507417,46.841949,-32.036726,-45.979989,0.000000,-0.000000,-0.000000
-0.300000,-1.860000,0.148661,0.040000,-1754.361049,1327.568140,-1083.003836,0.230585,0.000000,-0.000000,0.000000
-0.260000,-1.860000,0.140357,0.040000,-1754.844626,-1529.506331,1036.952109,-296.016732,-0.000000,0.000000,-0.000000
-0.260000,-1.820000,0.180278,0.040000,-1754.544529,-122.069008,83.138216,-27.869795,-0.000000,0.000000,-0.000000
-0.300000,-1.820000,0.186815,0.040000,-1754.501948,142.018797,-100.060274,0.204062,0.000000,-0.000000,0.000000
-0.220000,-1.860000,0.143178,0.040000,-1754.550552,892.048929,-504.957032,600.605808,0.000000,-0.000000,0.000000
-0.180000,-1.860000,0.143178,0.040000,-1754.552802,892.065444,-504.972420,-600.299492,0.000000,-0.000000,-0.000000
-0.180000,-1.820000,0.182483,0.040000,-1754.526029,46.977984,-32.172651,-46.119395,0.000000,-0.000000,-0.000000
-0.220000,-1.820000,0.182483,0.040000,-1754.523548,46.959722,-32.154397,46.389750,0.000000,-0.000000,0.000000
-0.140000,-1.860000,0.140357,0.040000,-1754.851404,-1529.451966,1036.896507,296.327800,-0.000000,0.000000,0.000000
-0.100000,-1.860000,0.148661,0.040000,-1754.372443,1327.665206,-1083.099944,0.075696,0.000000,-0.000000,0.000000
-0.100000,-1.820000,0.186815,0.040000,-1754.514501,142.113160,-100.154468,0.067242,0.000000,-0.000000,0.000000
-0.140000,-1.820000,0.180278,0.040000,-1754.552001,-122.012927,83.082068,28.140935,-0.000000,0.000000,0.000000
-0.060000,-1.860000,0.140357,0.040000,-1754.853468,-1529.435791,1036.880109,-296.174117,-0.000000,0.000000,-0.000000
-0.020000,-1.860000,0.143178,0.040000,-1754.556958,892.103640,-505.010514,600.453091,0.000000,-0.000000,0.000000
-0.020000,-1.820000,0.182483,0.040000,-1754.530645,47.014797,-32.209438,46.254393,0.000000,-0.000000,0.000000
-0.060000,-1.820000,0.180278,0.040000,-1754.554295,-121.994883,83.063997,-28.006143,-0.000000,0.000000,-0.000000
0.020000,-1.860000,0.143178,0.040000,-1754.556858,892.103798,-505.010765,-600.452983,0.000000,-0.000000,-0.000000
0.060000,-1.860000,0.140357,0.040000,-1754.853169,-1529.435710,1036.880127,296.173875,-0.000000,0.000000,0.000000
0.060000,-1.820000,0.180278,0.040000,-1754.553996,-121.994884,83.064004,28.006123,-0.000000,0.000000,0.000000
0.020000,-1.820000,0.182483,0.040000,-1754.530545,47.014829,-32.209471,-46.254378,0.000000,-0.000000,-0.000000
0.100000,-1.860000,0.148661,0.040000,-1754.371945,1327.664830,-1083.099637,-0.075435,0.000000,-0.000000,-0.000000
0.140000,-1.860000,0.140357,0.040000,-1754.850706,-1529.451179,1036.895899,-296.327874,-0.000000,0.000000,-0.000000
0.140000,-1.820000,0.180278,0.040000,-1754.551304,-122.012856,83.082012,-28.140939,-0.000000,0.000000,-0.000000
0.100000,-1.820000,0.186815,0.040000,-1754.514004,142.113120,-100.154440,-0.067211,0.000000,-0.000000,-0.000000
0.180000,-1.860000,0.143178,0.040000,-1754.551906,892.064781,-504.971885,600.299259,0.000000,-0.000000,0.000000
0.220000,-1.860000,0.143178,0.040000,-1754.549456,892.048581,-504.956998,-600.605359,0.000000,-0.000000,-0.000000
0.220000,-1.820000,0.182483,0.040000,-1754.522453,46.959729,-32.154413,-46.389708,0.000000,-0.000000,-0.000000
0.180000,-1.820000,0.182483,0.040000,-1754.525133,46.977926,-32.172602,46.119384,0.000000,-0.000000,0.000000
0.260000,-1.860000,0.140357,0.040000,-1754.843331,-1529.505380,1036.951536,296.016323,-0.000000,0.000000,0.000000
0.300000,-1.860000,0.148661,0.040000,-1754.359555,1327.567011,-1083.002916,-0.230324,0.000000,-0.000000,-0.000000
0.300000,-1.820000,0.186815,0.040000,-1754.500455,142.018678,-100.060192,-0.204031,0.000000,-0.000000,-0.000000
0.260000,-1.820000,0.180278,0.040000,-1754.543235,-122.068938,83.138173,27.869758,-0.000000,0.000000,0.000000
0.340000,-1.860000,0.140357,0.040000,-1754.835612,-1529.554883,1037.001999,-296.486879,-0.000000,0.000000,-0.000000
0.380000,-1.860000,0.143178,0.040000,-1754.533933,891.923908,-504.832764,600.135733,0.000000,-0.000000,0.000000
0.380000,-1.820000,0.182483,0.040000,-1754.505525,46.841866,-32.036661,45.979952,0.000000,-0.000000,0.000000
0.340000,-1.820000,0.180278,0.040000,-1754.534817,-122.126338,83.195685,-28.279044,-0.000000,0.000000,-0.000000
0.420000,-1.860000,0.143178,0.040000,-1754.528385,891.888723,-504.800732,-600.764167,0.000000,-0.000000,-0.000000
0.460000,-1.860000,0.140357,0.040000,-1754.818914,-1529.673896,1037.124449,295.845560,-0.000000,0.000000,0.000000
0.460000,-1.820000,0.180278,0.040000,-1754.516699,-122.249551,83.319080,27.727140,-0.000000,0.000000,0.000000
0.420000,-1.820000,0.182483,0.040000,-1754.499507,46.801984,-31.996804,-46.530009,0.000000,-0.000000,-0.000000
0.500000,-1.860000,0.148661,0.040000,-1754.331510,1327.350671,-1082.789197,-0.396629,0.000000,-0.000000,-0.000000
0.540000,-1.860000,0.140357,0.040000,-1754.803603,-1529.765578,1037.218172,-296.659858,-0.000000,0.000000,-0.000000
0.540000,-1.820000,0.180278,0.040000,-1754.500189,-122.357766,83.427523,-28.424731,-0.000000,0.000000,-0.000000
0.500000,-1.820000,0.186815,0.040000,-1754.470038,141.811012,-99.853001,-0.347581,0.000000,-0.000000,-0.000000
0.580000,-1.860000,0.143178,0.040000,-1754.497602,891.650354,-504.563306,599.952453,0.000000,-0.000000,0.000000
0.620000,-1.860000,0.143178,0.040000,-1754.487310,891.589851,-504.509164,-600.936111,0.000000,-0.000000,-0.000000
0.620000,-1.820000,0.182483,0.040000,-1754.455292,46.509338,-31.704471,-46.678794,0.000000,-0.000000,-0.000000
0.580000,-1.820000,0.182483,0.040000,-1754.466313,46.579018,-31.774092,45.832001,0.000000,-0.000000,0.000000
0.660000,-1.860000,0.140357,0.040000,-1754.772633,-1529.974251,1037.433740,295.650800,-0.000000,0.000000,0.000000
0.700000,-1.860000,0.148661,0.040000,-1754.279515,1326.966555,-1082.410328,-0.582126,0.000000,-0.000000,-0.000000
0.700000,-1.820000,0.186815,0.040000,-1754.414358,141.446035,-99.489016,-0.500466,0.000000,-0.000000,-0.000000
0.660000,-1.820000,0.180278,0.040000,-1754.467011,-122.573992,83.644090,27.574823,-0.000000,0.000000,0.000000
0.740000,-1.860000,0.140357,0.040000,-1754.745302,-1530.125582,1037.588993,-296.855416,-0.000000,0.000000,-0.000000
0.780000,-1.860000,0.143178,0.040000,-1754.432379,891.180487,-504.101639,599.737809,0.000000,-0.000000,0.000000
0.780000,-1.820000,0.182483,0.040000,-1754.396842,46.131663,-31.327334,45.674180,0.000000,-0.000000,0.000000
0.740000,-1.820000,0.180278,0.040000,-1754.437934,-122.756495,83.827008,-28.580015,-0.000000,0.000000,-0.000000
0.820000,-1.860000,0.143178,0.040000,-1754.414442,891.081774,-504.014914,-601.126146,0.000000,-0.000000,-0.000000
0.860000,-1.860000,0.140357,0.040000,-1754.691339,-1530.472972,1037.949310,295.420430,-0.000000,0.000000,0.000000
0.860000,-1.820000,0.180278,0.040000,-1754.380890,-123.116200,84.187292,27.413843,-0.000000,0.000000,0.000000
0.820000,-1.820000,0.182483,0.040000,-1754.377890,46.016283,-31.212090,-46.835826,0.000000,-0.000000,-0.000000
0.900000,-1.860000,0.148661,0.040000,-1754.188944,1326.318857,-1081.772476,-0.793161,0.000000,-0.000000,-0.000000
0.940000,-1.860000,0.140357,0.040000,-1754.644461,-1530.719350,1038.202847,-297.080190,-0.000000,0.000000,-0.000000
0.940000,-1.820000,0.180278,0.040000,-1754.331663,-123.418113,84.489903,-28.739525,-0.000000,0.000000,-0.000000
0.900000,-1.820000,0.186815,0.040000,-1754.318646,140.837767,-98.882711,-0.659420,0.000000,-0.000000,-0.000000
0.980000,-1.860000,0.143178,0.040000,-1754.320244,890.392290,-503.328860,599.480633,0.000000,-0.000000,0.000000
1.020000,-1.860000,0.143178,0.040000,-1754.289803,890.229215,-503.187478,-601.333053,0.000000,-0.000000,-0.000000
1.020000,-1.820000,0.182483,0.040000,-1754.247185,45.197110,-30.394331,-46.988981,0.000000,-0.000000,-0.000000
0.980000,-1.820000,0.182483,0.040000,-1754.278947,45.388930,-30.585851,45.514279,0.000000,-0.000000,0.000000
1.060000,-1.860000,0.140357,0.040000,-1754.552892,-1531.301540,1038.808295,295.146010,-0.000000,0.000000,0.000000
1.100000,-1.860000,0.148661,0.040000,-1754.035268,1325.223254,-1080.694724,-1.027697,0.000000,-0.000000,-0.000000
1.100000,-1.820000,0.186815,0.040000,-1754.158251,139.820808,-97.869559,-0.802492,0.000000,-0.000000,-0.000000
1.060000,-1.820000,0.180278,0.040000,-1754.236066,-124.018328,85.091005,27.259785,-0.000000,0.000000,0.000000
1.140000,-1.860000,0.140357,0.040000,-1754.473879,-1531.716732,1039.236146,-297.330276,-0.000000,0.000000,-0.000000
1.180000,-1.860000,0.143178,0.040000,-1754.131026,889.047047,-502.011587,599.180313,0.000000,-0.000000,0.000000
1.180000,-1.820000,0.182483,0.040000,-1754.082389,44.134808,-29.334367,45.389441,0.000000,-0.000000,0.000000
1.140000,-1.820000,0.180278,0.040000,-1754.154081,-124.528052,85.601795,-28.874431,-0.000000,0.000000,-0.000000
1.220000,-1.860000,0.143178,0.040000,-1754.079892,888.763961,-501.766853,-601.532937,0.000000,-0.000000,-0.000000
1.260000,-1.860000,0.140357,0.040000,-1754.320047,-1532.731084,1040.291325,294.840116,-0.000000,0.000000,0.000000
1.260000,-1.820000,0.180278,0.040000,-1753.995331,-125.562905,86.637770,27.175173,-0.000000,0.000000,0.000000
1.220000,-1.820000,0.182483,0.040000,-1754.029651,43.804701,-29.004934,-47.088452,0.000000,-0.000000,-0.000000
1.300000,-1.860000,0.148661,0.040000,-1753.777032,1323.308023,-1078.811368,-1.248653,0.000000,-0.000000,-0.000000
1.340000,-1.860000,0.140357,0.040000,-1754.187322,-1533.478648,1041.060894,-297.557669,-0.000000,0.000000,-0.000000
1.340000,-1.820000,0.180278,0.040000,-1753.859181,-126.463217,87.539449,-28.879654,-0.000000,0.000000,-0.000000
1.300000,-1.820000,0.186815,0.040000,-1753.891831,138.063884,-96.120119,-0.847553,0.000000,-0.000000,-0.000000
1.380000,-1.860000,0.143178,0.040000,-1753.813095,886.647721,-499.662155,598.888746,0.000000,-0.000000,0.000000
1.420000,-1.860000,0.143178,0.040000,-1753.726912,886.117139,-499.199024,-601.617520,0.000000,-0.000000,-0.000000
1.420000,-1.820000,0.182483,0.040000,-1753.668039,41.324884,-26.531881,-46.959614,0.000000,-0.000000,-0.000000
1.380000,-1.820000,0.182483,0.040000,-1753.755895,41.925838,-27.131219,45.433639,0.000000,-0.000000,0.000000
1.460000,-1.860000,0.140357,0.040000,-1753.927965,-1535.363160,1043.016459,294.609942,-0.000000,0.000000,0.000000
1.500000,-1.860000,0.148661,0.040000,-1753.341337,1319.761920,-1075.322581,-1.279024,0.000000,-0.000000,-0.000000
1.500000,-1.820000,0.186815,0.040000,-1753.447586,134.859361,-92.931085,-0.506692,0.000000,-0.000000,-0.000000
1.460000,-1.820000,0.180278,0.040000,-1753.594640,-128.346757,89.423612,27.381285,-0.000000,0.000000,0.000000
1.540000,-1.860000,0.140357,0.040000,-1753.702577,-1536.836984,1044.528499,-297.534451,-0.000000,0.000000,-0.000000
1.580000,-1.860000,0.143178,0.040000,-1753.273510,882.063381,-495.167286,598.888136,0.000000,-0.000000,0.000000
1.580000,-1.820000,0.182483,0.040000,-1753.208598,37.786497,-23.005873,46.125221,0.000000,-0.000000,0.000000
1.540000,-1.820000,0.180278,0.040000,-1753.366289,-130.042662,91.120371,-28.384636,-0.000000,0.000000,-0.000000
1.620000,-1.860000,0.143178,0.040000,-1753.125439,880.965359,-494.189987,-601.141241,0.000000,-0.000000,-0.000000
1.660000,-1.860000,0.140357,0.040000,-1753.256682,-1540.662760,1048.479274,294.980981,-0.000000,0.000000,0.000000
1.660000,-1.820000,0.180278,0.040000,-1752.917808,-133.721666,94.796164,28.688997,-0.000000,0.000000,0.000000
1.620000,-1.820000,0.182483,0.040000,-1753.059738,36.610304,-21.833930,-45.976381,0.000000,-0.000000,-0.000000
1.700000,-1.860000,0.148661,0.040000,-1752.591229,1312.627825,-1068.295409,-0.342776,0.000000,-0.000000,-0.000000
1.740000,-1.860000,0.140357,0.040000,-1752.862643,-1543.904491,1051.788888,-296.235748,-0.000000,0.000000,-0.000000
1.740000,-1.820000,0.180278,0.040000,-1752.525174,-137.164780,98.235838,-25.983988,-0.000000,0.000000,-0.000000
1.700000,-1.820000,0.186815,0.040000,-1752.693595,128.588277,-86.695244,1.289023,0.000000,-0.000000,0.000000
1.780000,-1.860000,0.143178,0.040000,-1752.331688,872.438213,-485.708081,600.536321,0.000000,-0.000000,0.000000
1.820000,-1.860000,0.143178,0.040000,-1752.066841,869.894866,-483.391708,-598.112506,0.000000,-0.000000,-0.000000
1.820000,-1.820000,0.182483,0.040000,-1752.008215,26.972757,-12.241646,-41.652286,0.000000,-0.000000,-0.000000
1.780000,-1.820000,0.182483,0.040000,-1752.268925,29.440493,-14.697258,49.323981,0.000000,-0.000000,0.000000
1.860000,-1.860000,0.140357,0.040000,-1752.064170,-1552.554307,1060.668709,298.543603,-0.000000,0.000000,0.000000
1.900000,-1.860000,0.148661,0.040000,-1751.244778,1296.703044,-1052.584727,5.320835,0.000000,-0.000000,0.000000
1.900000,-1.820000,0.186815,0.040000,-1751.369823,115.506534,-73.702175,9.033093,0.000000,-0.000000,0.000000
1.860000,-1.820000,0.180278,0.040000,-1751.739071,-144.852292,105.904231,34.419028,-0.000000,0.000000,0.000000
1.940000,-1.860000,0.140357,0.040000,-1751.337542,-1560.467358,1068.714494,-288.480855,-0.000000,0.000000,-0.000000
1.980000,-1.860000,0.143178,0.040000,-1750.599969,850.047911,-463.640585,611.100033,0.000000,-0.000000,0.000000
1.980000,-1.820000,0.182483,0.040000,-1750.589673,11.986439,2.655769,63.342850,0.000000,-0.000000,0.000000
1.940000,-1.820000,0.180278,0.040000,-1751.035620,-152.113285,113.146673,-15.587843,-0.000000,0.000000,-0.000000
2.020000,-1.860000,0.143178,0.040000,-1750.093668,843.780366,-457.836862,-581.887017,0.000000,-0.000000,-0.000000
2.060000,-1.860000,0.140357,0.040000,-1749.808904,-1581.257263,1090.012536,320.199555,-0.000000,0.000000,0.000000
2.060000,-1.820000,0.180278,0.040000,-1749.593541,-167.074388,128.066243,60.268514,-0.000000,0.000000,0.000000
2.020000,-1.820000,0.182483,0.040000,-1750.111580,7.106943,7.508731,-22.565337,0.000000,0.000000,-0.000000
2.100000,-1.860000,0.148661,0.040000,-1748.659516,1259.422179,-1015.721514,37.755852,0.000000,-0.000000,0.000000
2.140000,-1.860000,0.140357,0.040000,-1748.364335,-1598.241907,1107.440553,-242.592579,-0.000000,0.000000,-0.000000
2.140000,-1.820000,0.180278,0.040000,-1748.283174,-176.871867,137.961671,32.511510,-0.000000,0.000000,0.000000
2.100000,-1.820000,0.186815,0.040000,-1748.940072,90.989328,-49.357960,44.398696,0.000000,-0.000000,0.000000
2.180000,-1.860000,0.143178,0.040000,-1747.175356,802.931316,-416.937641,676.674495,0.000000,-0.000000,0.000000
2.220000,-1.860000,0.143178,0.040000,-1746.144983,797.862314,-412.830354,-485.262500,0.000000,-0.000000,-0.000000
2.220000,-1.820000,0.182483,0.040000,-1746.599479,-8.964114,23.561929,65.108799,-0.000000,0.000000,0.000000
2.180000,-1.820000,0.182483,0.040000,-1747.475335,-11.626043,26.001905,128.627968,-0.000000,0.000000,0.000000
2.260000,-1.860000,0.140357,0.040000,-1745.266438,-1611.767990,1122.521683,454.064370,-0.000000,0.000000,0.000000
2.300000,-1.860000,0.148661,0.040000,-1743.472319,1268.450161,-1034.464091,232.449312,0.000000,-0.000000,0.000000
2.300000,-1.820000,0.186815,0.040000,-1744.586756,110.845337,-66.021666,177.121604,0.000000,-0.000000,0.000000
2.260000,-1.820000,0.180278,0.040000,-1745.660032,-163.605351,127.669575,174.134198,-0.000000,0.000000,0.000000
2.340000,-1.860000,0.140357,0.040000,-1742.568310,-1256.172703,638.915933,89.734550,-0.000000,0.000000,0.000000
2.380000,-1.860000,0.120416,0.040000,-1741.482164,1782.366266,2049.145720,1600.966463,0.000000,0.000000,0.000000
2.380000,-1.820000,0.123693,0.040000,-1742.236851,-1918.753985,3862.537633,-1873.296689,-0.000000,0.000000,-0.000000
2.340000,-1.820000,0.162788,0.040000,-1743.542818,-212.980095,246.685132,43.494912,-0.000000,0.000000,0.000000
2.420000,-1.860000,0.080623,0.040000,-1748.602572,-10392.060955,116240.293911,-1246.485426,-0.000001,0.000002,-0.000000
2.460000,-1.860000,0.041231,0.040000,-1855.804979,73599.508862,418099.610968,-246.316411,-0.000001,0.000005,-0.000000
2.460000,-1.820000,0.050000,0.040000,-1688.902099,11639.650663,335616.035587,-262.077422,-0.000002,0.000004,-0.000000
2.420000,-1.820000,0.085440,0.040000,-1738.047763,-21416.568847,115427.216037,-845.761762,-0.000001,0.000002,-0.000000
2.500000,-1.860000,0.010000,0.040000,-868.739632,7052.861086,528418.615807,3595.634891,-0.000003,0.000007,0.000000
2.500000,-1.820000,0.030000,0.040000,-870.635023,-3106.171511,510313.061258,1824.212535,-0.000003,0.000007,0.000000
-2.500000,-1.780000,0.030000,0.040000,-871.937826,-3249.761934,510827.994686,2314.859655,-0.000003,0.000007,0.000000
-2.500000,-1.740000,0.010000,0.040000,-872.901294,5493.527841,525975.337357,1353.517085,-0.000003,0.000007,0.000000
-2.460000,-1.780000,0.050000,0.040000,-1691.529281,11984.497598,336131.705066,-75.031361,-0.000002,0.000004,-0.000000
-2.420000,-1.780000,0.085440,0.040000,-1740.080652,-21423.568157,115652.701007,-1086.099410,-0.000001,0.000002,-0.000000
-2.420000,-1.740000,0.080623,0.040000,-1754.573635,-11313.208895,117429.358972,-826.747921,-0.000001,0.000002,-0.000000
-2.460000,-1.740000,0.041231,0.040000,-1862.878475,76174.868384,417439.838944,-51.203278,-0.000001,0.000005,-0.000000
-2.380000,-1.780000,0.123693,0.040000,-1743.833678,-1926.595977,3865.982622,-2401.542157,-0.000000,0.000000,-0.000000
-2.340000,-1.780000,0.162788,0.040000,-1744.757291,-71.330741,137.746989,-341.429415,-0.000000,0.000000,-0.000000
-2.340000,-1.740000,0.160312,0.040000,-1745.968426,359.562983,-492.075060,-37.304307,0.000000,-0.000000,-0.000000
-2.380000,-1.740000,0.120416,0.040000,-1746.253380,969.889119,2487.212275,519.590399,-0.000000,0.000000,0.000000
-2.300000,-1.780000,0.202237,0.040000,-1745.532167,17.937515,-10.857746,-168.183024,0.000000,-0.000000,-0.000000
-2.260000,-1.780000,0.220227,0.040000,-1746.321494,-22.530108,19.400661,-131.304374,-0.000000,0.000000,-0.000000
-2.260000,-1.740000,0.240208,0.040000,-1747.008873,10.163851,-11.952245,-106.223403,0.000000,-0.000000,-0.000000
-2.300000,-1.740000,0.200250,0.040000,-1746.433386,58.900195,-69.302579,-114.170635,0.000000,-0.000000,-0.000000
-2.220000,-1.780000,0.222036,0.040000,-1747.087362,-24.321690,25.445180,-99.480082,-0.000000,0.000000,-0.000000
-2.180000,-1.780000,0.222036,0.040000,-1747.812484,-32.634434,33.004178,-84.117725,-0.000000,0.000000,-0.000000
-2.180000,-1.740000,0.261725,0.040000,-1748.192070,-19.416676,16.880618,-72.298700,-0.000000,0.000000,-0.000000
-2.220000,-1.740000,0.261725,0.040000,-1747.605367,-7.386528,6.702149,-89.582281,-0.000000,0.000000,-0.000000
-2.140000,-1.780000,0.220227,0.040000,-1748.484095,-44.917149,43.756246,-61.592489,-0.000000,0.000000,-0.000000
-2.100000,-1.780000,0.225610,0.040000,-1749.090687,-26.332787,29.250006,-47.339700,-0.000000,0.000000,-0.000000
-2.100000,-1.740000,0.264764,0.040000,-1749.274690,-26.897528,25.383082,-45.932532,-0.000000,0.000000,-0.000000
-2.140000,-1.740000,0.260192,0.040000,-1748.751788,-25.724759,24.507176,-60.391149,-0.000000,0.000000,-0.000000
-2.060000,-1.780000,0.220227,0.040000,-1749.644083,-43.292769,41.546072,-39.948001,-0.000000,0.000000,-0.000000
-2.020000,-1.780000,0.222036,0.040000,-1750.136064,-29.696407,30.300705,-22.965405,-0.000000,0.000000,-0.000000
-2.020000,-1.740000,0.261725,0.040000,-1750.198847,-27.061586,25.679465,-28.534652,-0.000000,0.000000,-0.000000
-2.060000,-1.740000,0.260192,0.040000,-1749.757614,-29.368665,27.630533,-39.224713,-0.000000,0.000000,-0.000000
-1.980000,-1.780000,0.222036,0.040000,-1750.578127,-26.526939,26.970688,-25.269655,-0.000000,0.000000,-0.000000
-1.940000,-1.780000,0.220227,0.040000,-1750.975150,-35.495313,32.820595,-12.473311,-0.000000,0.000000,-0.000000
-1.940000,-1.740000,0.260192,0.040000,-1750.963787,-24.719047,23.163380,-17.678466,-0.000000,0.000000,-0.000000
-1.980000,-1.740000,0.261725,0.040000,-1750.600144,-25.420646,23.925303,-24.691295,-0.000000,0.000000,-0.000000
-1.900000,-1.780000,0.225610,0.040000,-1751.324967,-13.655598,15.512974,-11.788023,-0.000000,0.000000,-0.000000
-1.860000,-1.780000,0.220227,0.040000,-1751.643545,-29.955665,27.098953,-10.855349,-0.000000,0.000000,-0.000000
-1.860000,-1.740000,0.260192,0.040000,-1751.588746,-20.758267,19.234854,-11.223231,-0.000000,0.000000,-0.000000
-1.900000,-1.740000,0.264764,0.040000,-1751.292017,-20.694419,19.386767,-15.158350,-0.000000,0.000000,-0.000000
-1.820000,-1.780000,0.222036,0.040000,-1751.923686,-15.685411,15.713425,-2.892106,-0.000000,0.000000,-0.000000
-1.780000,-1.780000,0.222036,0.040000,-1752.176202,-14.076083,13.882742,-9.219447,-0.000000,0.000000,-0.000000
-1.780000,-1.740000,0.261725,0.040000,-1752.097207,-16.039697,14.823422,-7.173776,-0.000000,0.000000,-0.000000
-1.820000,-1.740000,0.261725,0.040000,-1751.856013,-17.574407,16.126557,-9.177664,-0.000000,0.000000,-0.000000
-1.740000,-1.780000,0.220227,0.040000,-1752.404435,-23.507501,20.563722,-1.982562,-0.000000,0.000000,-0.000000
-1.700000,-1.780000,0.225610,0.040000,-1752.604308,-3.916496,5.232365,-3.325301,-0.000000,0.000000,-0.000000
-1.700000,-1.740000,0.264764,0.040000,-1752.511048,-12.377050,11.380329,-4.293182,-0.000000,0.000000,-0.000000
-1.740000,-1.740000,0.260192,0.040000,-1752.314945,-15.487850,13.824426,-5.754370,-0.000000,0.000000,-0.000000
-1.660000,-1.780000,0.220227,0.040000,-1752.789815,-20.927422,17.778852,-5.082993,-0.000000,0.000000,-0.000000
-1.620000,-1.780000,0.222036,0.040000,-1752.951847,-8.589411,8.072183,2.487152,-0.000000,0.000000,0.000000
-1.620000,-1.740000,0.261725,0.040000,-1752.848628,-10.725164,9.589333,-2.285163,-0.000000,0.000000,-0.000000
-1.660000,-1.740000,0.260192,0.040000,-1752.688601,-12.864300,11.280204,-3.811709,-0.000000,0.000000,-0.000000
-1.580000,-1.780000,0.222036,0.040000,-1753.099459,-7.282593,6.833197,-4.825970,-0.000000,0.000000,-0.000000
-1.540000,-1.780000,0.220227,0.040000,-1753.234411,-17.906139,14.601822,2.450904,-0.000000,0.000000,0.000000
-1.540000,-1.740000,0.260192,0.040000,-1753.124592,-9.993153,8.566512,-1.229343,-0.000000,0.000000,-0.000000
-1.580000,-1.740000,0.261725,0.040000,-1752.993440,-9.609799,8.353372,-2.382770,-0.000000,0.000000,-0.000000
-1.500000,-1.780000,0.225610,0.040000,-1753.351217,1.813082,-0.517668,0.292415,0.000000,-0.000000,0.000000
-1.460000,-1.780000,0.220227,0.040000,-1753.462639,-15.956823,12.748901,-2.019212,-0.000000,0.000000,-0.000000
-1.460000,-1.740000,0.260192,0.040000,-1753.350531,-8.484919,7.024078,-0.872341,-0.000000,0.000000,-0.000000
-1.500000,-1.740000,0.264764,0.040000,-1753.242902,-7.222688,6.138678,-1.129744,-0.000000,0.000000,-0.000000
-1.420000,-1.780000,0.222036,0.040000,-1753.558488,-3.560615,3.230354,4.310882,-0.000000,0.000000,0.000000
-1.380000,-1.780000,0.222036,0.040000,-1753.646878,-3.109787,2.721749,-3.943537,-0.000000,0.000000,-0.000000
-1.380000,-1.740000,0.261725,0.040000,-1753.535844,-6.130816,4.941103,-0.612618,-0.000000,0.000000,-0.000000
-1.420000,-1.740000,0.261725,0.040000,-1753.447659,-6.613230,5.345800,-0.308910,-0.000000,0.000000,-0.000000
-1.340000,-1.780000,0.220227,0.040000,-1753.728754,-14.062825,10.886156,2.333783,-0.000000,0.000000,0.000000
-1.300000,-1.780000,0.225610,0.040000,-1753.797913,4.644882,-3.437147,-0.167202,0.000000,-0.000000,-0.000000
-1.300000,-1.740000,0.264764,0.040000,-1753.688241,-4.472008,3.482881,-0.107265,-0.000000,0.000000,-0.000000
-1.340000,-1.740000,0.260192,0.040000,-1753.615965,-6.728438,5.202546,-0.108636,-0.000000,0.000000,-0.000000
-1.260000,-1.780000,0.220227,0.040000,-1753.866502,-13.549606,10.248021,-2.501841,-0.000000,0.000000,-0.000000
-1.220000,-1.780000,0.222036,0.040000,-1753.923789,-1.888682,1.310437,4.360681,-0.000000,0.000000,0.000000
-1.220000,-1.740000,0.261725,0.040000,-1753.813853,-4.434195,3.296295,0.393191,-0.000000,0.000000,0.000000
-1.260000,-1.740000,0.260192,0.040000,-1753.754301,-5.899975,4.418605,-0.198667,-0.000000,0.000000,-0.000000
-1.180000,-1.780000,0.222036,0.040000,-1753.977416,-1.483540,0.932969,-3.303047,-0.000000,0.000000,-0.000000
-1.140000,-1.780000,0.220227,0.040000,-1754.027915,-12.629137,9.290198,3.531542,-0.000000,0.000000,0.000000
-1.140000,-1.740000,0.260192,0.040000,-1753.917368,-4.975241,3.542020,0.479043,-0.000000,0.000000,0.000000
-1.180000,-1.740000,0.261725,0.040000,-1753.868039,-4.066920,2.886865,-0.067856,-0.000000,0.000000,-0.000000
-1.100000,-1.780000,0.225610,0.040000,-1754.068722,6.401062,-5.173860,1.160017,0.000000,-0.000000,0.000000
-1.060000,-1.780000,0.220227,0.040000,-1754.111665,-11.767300,8.540774,-1.433356,-0.000000,0.000000,-0.000000
-1.060000,-1.740000,0.260192,0.040000,-1754.002467,-4.464255,2.995177,0.203824,-0.000000,0.000000,0.000000
-1.100000,-1.740000,0.264764,0.040000,-1753.961731,-2.793993,1.766843,0.345089,-0.000000,0.000000,0.000000
-1.020000,-1.780000,0.222036,0.040000,-1754.145731,0.092876,-0.470757,4.766210,0.000000,-0.000000,0.000000
-0.980000,-1.780000,0.222036,0.040000,-1754.178315,0.242255,-0.638962,-3.668032,0.000000,-0.000000,-0.000000
-0.980000,-1.740000,0.261725,0.040000,-1754.072319,-2.892087,1.693926,0.046642,-0.000000,0.000000,0.000000
-1.020000,-1.740000,0.261725,0.040000,-1754.039026,-3.056649,1.831746,0.615303,-0.000000,0.000000,0.000000
-0.940000,-1.780000,0.220227,0.040000,-1754.209731,-11.132661,7.921851,2.527136,-0.000000,0.000000,0.000000
-0.900000,-1.780000,0.225610,0.040000,-1754.233217,7.343413,-6.138817,-0.087482,0.000000,-0.000000,-0.000000
-0.900000,-1.740000,0.264764,0.040000,-1754.129732,-1.849481,0.852308,0.274237,-0.000000,0.000000,0.000000
-0.940000,-1.740000,0.260192,0.040000,-1754.102652,-3.856481,2.362669,0.450605,-0.000000,0.000000,0.000000
-0.860000,-1.780000,0.220227,0.040000,-1754.260430,-11.182172,7.856122,-2.474735,-0.000000,0.000000,-0.000000
-0.820000,-1.780000,0.222036,0.040000,-1754.280201,0.294876,-0.873631,4.315829,0.000000,-0.000000,0.000000
-0.820000,-1.740000,0.261725,0.040000,-1754.176962,-2.300508,1.155190,0.588009,-0.000000,0.000000,0.000000
-0.860000,-1.740000,0.260192,0.040000,-1754.154734,-3.568565,2.111686,0.116407,-0.000000,0.000000,0.000000
-0.780000,-1.780000,0.222036,0.040000,-1754.299788,0.440679,-1.008648,-3.380623,0.000000,-0.000000,-0.000000
-0.740000,-1.780000,0.220227,0.040000,-1754.319380,-10.853382,7.515242,3.407332,-0.000000,0.000000,0.000000
-0.740000,-1.740000,0.260192,0.040000,-1754.215616,-3.232237,1.792323,0.547547,-0.000000,0.000000,0.000000
-0.780000,-1.740000,0.261725,0.040000,-1754.197193,-2.165722,1.004591,0.082642,-0.000000,0.000000,0.000000
-0.700000,-1.780000,0.225610,0.040000,-1754.332104,7.970628,-6.756045,1.016742,0.000000,-0.000000,0.000000
-0.660000,-1.780000,0.220227,0.040000,-1754.349516,-10.316649,7.091863,-1.607168,-0.000000,0.000000,-0.000000
-0.660000,-1.740000,0.260192,0.040000,-1754.246911,-3.036147,1.561136,0.186515,-0.000000,0.000000,0.000000
-0.700000,-1.740000,0.264764,0.040000,-1754.231830,-1.238350,0.225963,0.383982,-0.000000,0.000000,0.000000
-0.620000,-1.780000,0.222036,0.040000,-1754.360356,1.375476,-1.762932,4.581696,0.000000,-0.000000,0.000000
-0.580000,-1.780000,0.222036,0.040000,-1754.371798,1.430163,-1.824467,-3.871751,0.000000,-0.000000,-0.000000
-0.580000,-1.740000,0.261725,0.040000,-1754.272025,-1.720318,0.516942,-0.029065,-0.000000,0.000000,-0.000000
-0.620000,-1.740000,0.261725,0.040000,-1754.260078,-1.781159,0.567879,0.578183,-0.000000,0.000000,0.000000
-0.540000,-1.780000,0.220227,0.040000,-1754.383957,-10.083624,6.865343,2.317224,-0.000000,0.000000,0.000000
-0.500000,-1.780000,0.225610,0.040000,-1754.389892,8.315502,-7.108283,-0.308599,0.000000,-0.000000,-0.000000
-0.500000,-1.740000,0.264764,0.040000,-1754.292140,-0.888650,-0.113119,0.158783,-0.000000,0.000000,0.000000
-0.540000,-1.740000,0.260192,0.040000,-1754.282869,-2.810285,1.325732,0.361629,-0.000000,0.000000,0.000000
-0.460000,-1.780000,0.220227,0.040000,-1754.401095,-10.324799,6.992974,-2.699377,-0.000000,0.000000,-0.000000
-0.420000,-1.780000,0.222036,0.040000,-1754.406249,1.087609,-1.663866,4.084923,0.000000,-0.000000,0.000000
-0.420000,-1.740000,0.261725,0.040000,-1754.308175,-1.515204,0.365801,0.445542,-0.000000,0.000000,0.000000
-0.460000,-1.740000,0.260192,0.040000,-1754.300856,-2.712032,1.262638,-0.007901,-0.000000,0.000000,-0.000000
-0.380000,-1.780000,0.222036,0.040000,-1754.412475,1.138289,-1.710685,-3.613000,0.000000,-0.000000,-0.000000
-0.340000,-1.780000,0.220227,0.040000,-1754.419838,-10.210949,6.875114,3.171371,-0.000000,0.000000,0.000000
-0.340000,-1.740000,0.260192,0.040000,-1754.320625,-2.594749,1.151180,0.386807,-0.000000,0.000000,0.000000
-0.380000,-1.740000,0.261725,0.040000,-1754.314743,-1.468018,0.313029,-0.065659,-0.000000,0.000000,-0.000000
-0.300000,-1.780000,0.225610,0.040000,-1754.421351,8.532581,-7.321503,0.780796,0.000000,-0.000000,0.000000
-0.260000,-1.780000,0.220227,0.040000,-1754.428465,-9.801734,6.579146,-1.845098,-0.000000,0.000000,-0.000000
-0.260000,-1.740000,0.260192,0.040000,-1754.329765,-2.524884,1.046582,0.013523,-0.000000,0.000000,0.000000
-0.300000,-1.740000,0.264764,0.040000,-1754.325307,-0.675505,-0.331774,0.219462,-0.000000,-0.000000,0.000000
-0.220000,-1.780000,0.222036,0.040000,-1754.429821,1.820478,-2.210867,4.344464,0.000000,-0.000000,0.000000
-0.180000,-1.780000,0.222036,0.040000,-1754.432503,1.834760,-2.226932,-4.109766,0.000000,-0.000000,-0.000000
-0.180000,-1.740000,0.261725,0.040000,-1754.335970,-1.318628,0.112255,-0.210162,-0.000000,0.000000,-0.000000
-0.220000,-1.740000,0.261725,0.040000,-1754.333116,-1.334563,0.125596,0.402779,-0.000000,0.000000,0.000000
-0.140000,-1.780000,0.220227,0.040000,-1754.436541,-9.740864,6.520048,2.079978,-0.000000,0.000000,0.000000
-0.100000,-1.780000,0.225610,0.040000,-1754.434912,8.622543,-7.413301,-0.545828,0.000000,-0.000000,-0.000000
-0.100000,-1.740000,0.264764,0.040000,-1754.339725,-0.583884,-0.420665,-0.027579,-0.000000,-0.000000,-0.000000
-0.140000,-1.740000,0.260192,0.040000,-1754.338355,-2.465619,0.984777,0.179015,-0.000000,0.000000,0.000000
-0.060000,-1.780000,0.220227,0.040000,-1754.439035,-10.073154,6.739119,-2.935937,-0.000000,0.000000,-0.000000
-0.020000,-1.780000,0.222036,0.040000,-1754.437521,1.306604,-1.880968,3.848665,0.000000,-0.000000,0.000000
-0.020000,-1.740000,0.261725,0.040000,-1754.341330,-1.298000,0.145961,0.255868,-0.000000,0.000000,0.000000
-0.060000,-1.740000,0.260192,0.040000,-1754.341021,-2.458544,1.012420,-0.195189,-0.000000,0.000000,-0.000000
0.020000,-1.780000,0.222036,0.040000,-1754.437421,1.306608,-1.880972,-3.848659,0.000000,-0.000000,-0.000000
0.060000,-1.780000,0.220227,0.040000,-1754.438737,-10.073154,6.739120,2.935939,-0.000000,0.000000,0.000000
0.060000,-1.740000,0.260192,0.040000,-1754.340722,-2.458543,1.012419,0.195193,-0.000000,0.000000,0.000000
0.020000,-1.740000,0.261725,0.040000,-1754.341231,-1.297999,0.145960,-0.255864,-0.000000,0.000000,-0.000000
0.100000,-1.780000,0.225610,0.040000,-1754.434414,8.622542,-7.413300,0.545835,0.000000,-0.000000,0.000000
0.140000,-1.780000,0.220227,0.040000,-1754.435844,-9.740857,6.520042,-2.079975,-0.000000,0.000000,-0.000000
0.140000,-1.740000,0.260192,0.040000,-1754.337658,-2.465617,0.984775,-0.179011,-0.000000,0.000000,-0.000000
0.100000,-1.740000,0.264764,0.040000,-1754.339227,-0.583883,-0.420666,0.027583,-0.000000,-0.000000,0.000000
0.180000,-1.780000,0.222036,0.040000,-1754.431607,1.834757,-2.226929,4.109769,0.000000,-0.000000,0.000000
0.220000,-1.780000,0.222036,0.040000,-1754.428726,1.820482,-2.210871,-4.344456,0.000000,-0.000000,-0.000000
0.220000,-1.740000,0.261725,0.040000,-1754.332021,-1.334561,0.125593,-0.402775,-0.000000,0.000000,-0.000000
0.180000,-1.740000,0.261725,0.040000,-1754.335074,-1.318626,0.112253,0.210166,-0.000000,0.000000,0.000000
0.260000,-1.780000,0.220227,0.040000,-1754.427170,-9.801728,6.579141,1.845099,-0.000000,0.000000,0.000000
0.300000,-1.780000,0.225610,0.040000,-1754.419858,8.532575,-7.321499,-0.780788,0.000000,-0.000000,-0.000000
0.300000,-1.740000,0.264764,0.040000,-1754.323814,-0.675503,-0.331776,-0.219457,-0.000000,-0.000000,-0.000000
0.260000,-1.740000,0.260192,0.040000,-1754.328470,-2.524880,1.046579,-0.013520,-0.000000,0.000000,-0.000000
0.340000,-1.780000,0.220227,0.040000,-1754.418146,-10.210935,6.875102,-3.171366,-0.000000,0.000000,-0.000000
0.380000,-1.780000,0.222036,0.040000,-1754.410583,1.138286,-1.710683,3.613001,0.000000,-0.000000,0.000000
0.380000,-1.740000,0.261725,0.040000,-1754.312851,-1.468015,0.313026,0.065663,-0.000000,0.000000,0.000000
0.340000,-1.740000,0.260192,0.040000,-1754.318932,-2.594744,1.151176,-0.386803,-0.000000,0.000000,-0.000000
0.420000,-1.780000,0.222036,0.040000,-1754.404158,1.087614,-1.663871,-4.084913,0.000000,-0.000000,-0.000000
0.460000,-1.780000,0.220227,0.040000,-1754.398805,-10.324785,6.992963,2.699376,-0.000000,0.000000,0.000000
0.460000,-1.740000,0.260192,0.040000,-1754.298566,-2.712026,1.262633,0.007904,-0.000000,0.000000,0.000000
0.420000,-1.740000,0.261725,0.040000,-1754.306085,-1.515200,0.365796,-0.445538,-0.000000,0.000000,-0.000000
0.500000,-1.780000,0.225610,0.040000,-1754.387403,8.315493,-7.108278,0.308606,0.000000,-0.000000,0.000000
0.540000,-1.780000,0.220227,0.040000,-1754.381269,-10.083602,6.865325,-2.317218,-0.000000,0.000000,-0.000000
0.540000,-1.740000,0.260192,0.040000,-1754.280181,-2.810277,1.325724,-0.361625,-0.000000,0.000000,-0.000000
0.500000,-1.740000,0.264764,0.040000,-1754.289651,-0.888646,-0.113124,-0.158779,-0.000000,0.000000,-0.000000
0.580000,-1.780000,0.222036,0.040000,-1754.368911,1.430161,-1.824467,3.871749,0.000000,-0.000000,0.000000
0.620000,-1.780000,0.222036,0.040000,-1754.357269,1.375482,-1.762939,-4.581683,0.000000,-0.000000,-0.000000
0.620000,-1.740000,0.261725,0.040000,-1754.256991,-1.781152,0.567872,-0.578179,-0.000000,0.000000,-0.000000
0.580000,-1.740000,0.261725,0.040000,-1754.269138,-1.720312,0.516936,0.029068,-0.000000,0.000000,0.000000
0.660000,-1.780000,0.220227,0.040000,-1754.346230,-10.316628,7.091845,1.607167,-0.000000,0.000000,0.000000
0.700000,-1.780000,0.225610,0.040000,-1754.328619,7.970617,-6.756039,-1.016733,0.000000,-0.000000,-0.000000
0.700000,-1.740000,0.264764,0.040000,-1754.228345,-1.238342,0.225955,-0.383978,-0.000000,0.000000,-0.000000
0.660000,-1.740000,0.260192,0.040000,-1754.243626,-3.036137,1.561126,-0.186511,-0.000000,0.000000,-0.000000
0.740000,-1.780000,0.220227,0.040000,-1754.315697,-10.853351,7.515216,-3.407323,-0.000000,0.000000,-0.000000
0.780000,-1.780000,0.222036,0.040000,-1754.295906,0.440681,-1.008651,3.380620,0.000000,-0.000000,0.000000
0.780000,-1.740000,0.261725,0.040000,-1754.193311,-2.165712,1.004581,-0.082639,-0.000000,0.000000,-0.000000
0.740000,-1.740000,0.260192,0.040000,-1754.211933,-3.232224,1.792310,-0.547543,-0.000000,0.000000,-0.000000
0.820000,-1.780000,0.222036,0.040000,-1754.276120,0.294886,-0.873642,-4.315814,0.000000,-0.000000,-0.000000
0.860000,-1.780000,0.220227,0.040000,-1754.256149,-11.182140,7.856095,2.474731,-0.000000,0.000000,0.000000
0.860000,-1.740000,0.260192,0.040000,-1754.150453,-3.568550,2.111671,-0.116404,-0.000000,0.000000,-0.000000
0.820000,-1.740000,0.261725,0.040000,-1754.172880,-2.300496,1.155178,-0.588005,-0.000000,0.000000,-0.000000
0.900000,-1.780000,0.225610,0.040000,-1754.228737,7.343402,-6.138812,0.087488,0.000000,-0.000000,0.000000
0.940000,-1.780000,0.220227,0.040000,-1754.205053,-11.132622,7.921816,-2.527128,-0.000000,0.000000,-0.000000
0.940000,-1.740000,0.260192,0.040000,-1754.097974,-3.856463,2.362651,-0.450601,-0.000000,0.000000,-0.000000
0.900000,-1.740000,0.264764,0.040000,-1754.125253,-1.849469,0.852295,-0.274234,-0.000000,0.000000,-0.000000
0.980000,-1.780000,0.222036,0.040000,-1754.173438,0.242260,-0.638969,3.668026,0.000000,-0.000000,0.000000
1.020000,-1.780000,0.222036,0.040000,-1754.140655,0.092888,-0.470772,-4.766192,0.000000,-0.000000,-0.000000
1.020000,-1.740000,0.261725,0.040000,-1754.033950,-3.056630,1.831727,-0.615299,-0.000000,0.000000,-0.000000
0.980000,-1.740000,0.261725,0.040000,-1754.067442,-2.892071,1.693910,-0.046639,-0.000000,0.000000,-0.000000
1.060000,-1.780000,0.220227,0.040000,-1754.106390,-11.767257,8.540737,1.433352,-0.000000,0.000000,0.000000
1.100000,-1.780000,0.225610,0.040000,-1754.063248,6.401052,-5.173858,-1.160008,0.000000,-0.000000,-0.000000
1.100000,-1.740000,0.264764,0.040000,-1753.956257,-2.793974,1.766823,-0.345087,-0.000000,0.000000,-0.000000
1.060000,-1.740000,0.260192,0.040000,-1753.997192,-4.464232,2.995155,-0.203822,-0.000000,0.000000,-0.000000
1.140000,-1.780000,0.220227,0.040000,-1754.022243,-12.629082,9.290151,-3.531530,-0.000000,0.000000,-0.000000
1.180000,-1.780000,0.222036,0.040000,-1753.971545,-1.483527,0.932953,3.303039,-0.000000,0.000000,0.000000
1.180000,-1.740000,0.261725,0.040000,-1753.862168,-4.066895,2.886840,0.067856,-0.000000,0.000000,0.000000
1.140000,-1.740000,0.260192,0.040000,-1753.911696,-4.975213,3.541993,-0.479041,-0.000000,0.000000,-0.000000
1.220000,-1.780000,0.222036,0.040000,-1753.917719,-1.888659,1.310412,-4.360664,-0.000000,0.000000,-0.000000
1.260000,-1.780000,0.220227,0.040000,-1753.860233,-13.549545,10.247968,2.501831,-0.000000,0.000000,0.000000
1.260000,-1.740000,0.260192,0.040000,-1753.748032,-5.899941,4.418571,0.198665,-0.000000,0.000000,0.000000
1.220000,-1.740000,0.261725,0.040000,-1753.807784,-4.434166,3.296265,-0.393190,-0.000000,0.000000,-0.000000
1.300000,-1.780000,0.225610,0.040000,-1753.791446,4.644880,-3.437154,0.167205,0.000000,-0.000000,0.000000
1.340000,-1.780000,0.220227,0.040000,-1753.722088,-14.062753,10.886091,-2.333776,-0.000000,0.000000,-0.000000
1.340000,-1.740000,0.260192,0.040000,-1753.609300,-6.728396,5.202505,0.108633,-0.000000,0.000000,0.000000
1.300000,-1.740000,0.264764,0.040000,-1753.681774,-4.471977,3.482848,0.107264,-0.000000,0.000000,0.000000
1.380000,-1.780000,0.222036,0.040000,-1753.640014,-3.109760,2.721718,3.943522,-0.000000,0.000000,0.000000
1.420000,-1.780000,0.222036,0.040000,-1753.551425,-3.560579,3.230313,-4.310865,-0.000000,0.000000,-0.000000
1.420000,-1.740000,0.261725,0.040000,-1753.440597,-6.613184,5.345755,0.308905,-0.000000,0.000000,0.000000
1.380000,-1.740000,0.261725,0.040000,-1753.528980,-6.130775,4.941062,0.612613,-0.000000,0.000000,0.000000
1.460000,-1.780000,0.220227,0.040000,-1753.455378,-15.956738,12.748824,2.019200,-0.000000,0.000000,0.000000
1.500000,-1.780000,0.225610,0.040000,-1753.343757,1.813096,-0.517694,-0.292414,0.000000,-0.000000,-0.000000
1.500000,-1.740000,0.264764,0.040000,-1753.235443,-7.222635,6.138625,1.129733,-0.000000,0.000000,0.000000
1.460000,-1.740000,0.260192,0.040000,-1753.343270,-8.484864,7.024024,0.872333,-0.000000,0.000000,0.000000
1.540000,-1.780000,0.220227,0.040000,-1753.226754,-17.906034,14.601726,-2.450899,-0.000000,0.000000,-0.000000
1.580000,-1.780000,0.222036,0.040000,-1753.091604,-7.282538,6.833138,4.825944,-0.000000,0.000000,0.000000
1.580000,-1.740000,0.261725,0.040000,-1752.985585,-9.609732,8.353305,2.382751,-0.000000,0.000000,0.000000
1.540000,-1.740000,0.260192,0.040000,-1753.116935,-9.993086,8.566446,1.229331,-0.000000,0.000000,0.000000
1.620000,-1.780000,0.222036,0.040000,-1752.943794,-8.589339,8.072108,-2.487146,-0.000000,0.000000,-0.000000
1.660000,-1.780000,0.220227,0.040000,-1752.781564,-20.927296,17.778734,5.082958,-0.000000,0.000000,0.000000
1.660000,-1.740000,0.260192,0.040000,-1752.680351,-12.864211,11.280117,3.811678,-0.000000,0.000000,0.000000
1.620000,-1.740000,0.261725,0.040000,-1752.840575,-10.725088,9.589256,2.285143,-0.000000,0.000000,0.000000
1.700000,-1.780000,0.225610,0.040000,-1752.595860,-3.916444,5.232300,3.325277,-0.000000,0.000000,0.000000
1.740000,-1.780000,0.220227,0.040000,-1752.395789,-23.507349,20.563577,1.982537,-0.000000,0.000000,0.000000
1.740000,-1.740000,0.260192,0.040000,-1752.306299,-15.487741,13.824319,5.754323,-0.000000,0.000000,0.000000
1.700000,-1.740000,0.264764,0.040000,-1752.502599,-12.376960,11.380237,4.293148,-0.000000,0.000000,0.000000
1.780000,-1.780000,0.222036,0.040000,-1752.167358,-14.075978,13.882630,9.219385,-0.000000,0.000000,0.000000
1.820000,-1.780000,0.222036,0.040000,-1751.914645,-15.685287,15.713293,2.892071,-0.000000,0.000000,0.000000
1.820000,-1.740000,0.261725,0.040000,-1751.846972,-17.574279,16.126430,9.177591,-0.000000,0.000000,0.000000
1.780000,-1.740000,0.261725,0.040000,-1752.088364,-16.039581,14.823306,7.173720,-0.000000,0.000000,0.000000
1.860000,-1.780000,0.220227,0.040000,-1751.634308,-29.955466,27.098762,10.855267,-0.000000,0.000000,0.000000
1.900000,-1.780000,0.225610,0.040000,-1751.315533,-13.655479,15.512837,11.787933,-0.000000,0.000000,0.000000
1.900000,-1.740000,0.264764,0.040000,-1751.282582,-20.694266,19.386616,15.158233,-0.000000,0.000000,0.000000
1.860000,-1.740000,0.260192,0.040000,-1751.579508,-20.758118,19.234707,11.223143,-0.000000,0.000000,0.000000
1.940000,-1.780000,0.220227,0.040000,-1750.965519,-35.495067,32.820355,12.473207,-0.000000,0.000000,0.000000
1.980000,-1.780000,0.222036,0.040000,-1750.568301,-26.526743,26.970480,25.269471,-0.000000,0.000000,0.000000
1.980000,-1.740000,0.261725,0.040000,-1750.590317,-25.420459,23.925119,24.691107,-0.000000,0.000000,0.000000
1.940000,-1.740000,0.260192,0.040000,-1750.954156,-24.718868,23.163203,17.678330,-0.000000,0.000000,0.000000
2.020000,-1.780000,0.222036,0.040000,-1750.126042,-29.696179,30.300465,22.965225,-0.000000,0.000000,0.000000
2.060000,-1.780000,0.220227,0.040000,-1749.633866,-43.292465,41.545768,39.947703,-0.000000,0.000000,0.000000
2.060000,-1.740000,0.260192,0.040000,-1749.747395,-29.368449,27.630320,39.224417,-0.000000,0.000000,0.000000
2.020000,-1.740000,0.261725,0.040000,-1750.188823,-27.061386,25.679266,28.534435,-0.000000,0.000000,0.000000
2.100000,-1.780000,0.225610,0.040000,-1749.080275,-26.332576,29.249768,47.339348,-0.000000,0.000000,0.000000
2.140000,-1.780000,0.220227,0.040000,-1748.473489,-44.916822,43.755916,61.592025,-0.000000,0.000000,0.000000
2.140000,-1.740000,0.260192,0.040000,-1748.741179,-25.724567,24.506983,60.390696,-0.000000,0.000000,0.000000
2.100000,-1.740000,0.264764,0.040000,-1749.264276,-26.897326,25.382882,45.932186,-0.000000,0.000000,0.000000
2.180000,-1.780000,0.222036,0.040000,-1747.801684,-32.634186,33.003919,84.117105,-0.000000,0.000000,0.000000
2.220000,-1.780000,0.222036,0.040000,-1747.076368,-24.321492,25.444966,99.479339,-0.000000,0.000000,0.000000
2.220000,-1.740000,0.261725,0.040000,-1747.594368,-7.386464,6.702081,89.581609,-0.000000,0.000000,0.000000
2.180000,-1.740000,0.261725,0.040000,-1748.181266,-19.416527,16.880478,72.298158,-0.000000,0.000000,0.000000
2.260000,-1.780000,0.220227,0.040000,-1746.310307,-22.529937,19.400501,131.303397,-0.000000,0.000000,0.000000
2.300000,-1.780000,0.202237,0.040000,-1745.520787,17.937413,-10.857702,168.181775,0.000000,-0.000000,0.000000
2.300000,-1.740000,0.200250,0.040000,-1746.421998,58.899783,-69.302102,114.169772,0.000000,-0.000000,0.000000
2.260000,-1.740000,0.240208,0.040000,-1746.997680,10.163788,-11.952178,106.222605,0.000000,-0.000000,0.000000
2.340000,-1.780000,0.162788,0.040000,-1744.745718,-71.330221,137.745985,341.426908,-0.000000,0.000000,0.000000
2.380000,-1.780000,0.123693,0.040000,-1743.821913,-1926.582264,3865.955093,2401.524955,-0.000000,0.000000,0.000000
2.380000,-1.740000,0.120416,0.040000,-1746.241597,969.882103,2487.194813,-519.586749,-0.000000,0.000000,-0.000000
2.340000,-1.740000,0.160312,0.040000,-1745.956843,359.560420,-492.071563,37.303981,0.000000,-0.000000,0.000000
2.420000,-1.780000,0.085440,0.040000,-1740.068715,-21423.415663,115651.879812,1086.090533,-0.000001,0.000002,0.000000
2.460000,-1.780000,0.050000,0.040000,-1691.517492,11984.414415,336129.318690,75.029659,-0.000002,0.000004,0.000000
2.460000,-1.740000,0.041231,0.040000,-1862.865464,76174.324731,417436.877518,51.201460,-0.000001,0.000005,0.000000
2.420000,-1.740000,0.080623,0.040000,-1754.561594,-11313.129512,117428.526297,826.741901,-0.000001,0.000002,0.000000
2.500000,-1.780000,0.030000,0.040000,-871.931678,-3249.728411,510824.361479,-2314.845199,-0.000003,0.000007,-0.000000
2.500000,-1.740000,0.010000,0.040000,-872.895062,5493.470239,525971.623300,-1353.509849,-0.000003,0.000007,-0.000000
-2.500000,-1.700000,0.050000,0.040000,-873.643618,-5271.664277,517520.222234,288.201535,-0.000003,0.000007,0.000000
-2.500000,-1.660000,0.010000,0.040000,-874.230710,5448.901680,526913.796693,-801.790636,-0.000003,0.000007,-0.000000
-2.460000,-1.700000,0.064031,0.040000,-1615.887330,-17299.366815,298935.055873,125.717553,-0.000002,0.000004,0.000000
-2.420000,-1.700000,0.094340,0.040000,-1735.254915,-26265.347842,113227.088292,-21.922650,-0.000001,0.000002,-0.000000
-2.420000,-1.660000,0.080623,0.040000,-1757.090975,-11363.655177,117671.971415,783.369252,-0.000001,0.000002,0.000000
-2.460000,-1.660000,0.041231,0.040000,-1865.847553,76286.095746,418227.743670,297.889025,-0.000001,0.000005,0.000000
-2.380000,-1.700000,0.130000,0.040000,-1745.771255,-3029.719368,2892.809481,-93.316530,-0.000000,0.000000,-0.000000
-2.340000,-1.700000,0.167631,0.040000,-1746.849197,-264.995955,388.841244,-96.493858,-0.000000,0.000000,-0.000000
-2.340000,-1.660000,0.160312,0.040000,-1747.887380,358.509495,-491.546279,-163.346051,0.000000,-0.000000,-0.000000
-2.380000,-1.660000,0.120416,0.040000,-1748.479948,950.277254,2514.252647,-704.219705,-0.000000,0.000000,-0.000000
-2.300000,-1.700000,0.206155,0.040000,-1747.261443,15.586286,-4.274035,-94.127552,0.000000,-0.000000,-0.000000
-2.260000,-1.700000,0.245153,0.040000,-1747.683067,19.497010,-19.625305,-86.537577,0.000000,-0.000000,-0.000000
-2.260000,-1.660000,0.240208,0.040000,-1748.325425,30.353511,-32.467743,-69.520002,0.000000,-0.000000,-0.000000
-2.300000,-1.660000,0.200250,0.040000,-1748.042274,69.687431,-80.796005,-79.361801,0.000000,-0.000000,-0.000000
-2.220000,-1.700000,0.284429,0.040000,-1748.136858,5.984338,-5.755306,-77.785908,0.000000,-0.000000,-0.000000
-2.180000,-1.700000,0.301496,0.040000,-1748.601627,-4.711700,3.563485,-66.133083,-0.000000,0.000000,-0.000000
-2.180000,-1.660000,0.320156,0.040000,-1749.020678,3.136528,-5.078906,-54.616267,0.000000,-0.000000,-0.000000
-2.220000,-1.660000,0.280179,0.040000,-1748.660439,13.543913,-12.793564,-62.934860,0.000000,-0.000000,-0.000000
2.180000,-1.700000,0.301496,0.040000,-1748.590819,-4.711662,3.563446,66.132585,-0.000000,0.000000,0.000000
2.220000,-1.700000,0.284429,0.040000,-1748.125855,5.984300,-5.755278,77.785321,0.000000,-0.000000,0.000000
2.220000,-1.660000,0.280179,0.040000,-1748.649431,13.543817,-12.793482,62.934381,0.000000,-0.000000,0.000000
2.180000,-1.660000,0.320156,0.040000,-1749.009867,3.136507,-5.078880,54.615852,0.000000,-0.000000,0.000000
2.260000,-1.700000,0.245153,0.040000,-1747.671869,19.496873,-19.625177,86.536922,0.000000,-0.000000,0.000000
2.300000,-1.700000,0.206155,0.040000,-1747.250049,15.586173,-4.274012,94.126836,0.000000,-0.000000,0.000000
2.300000,-1.660000,0.200250,0.040000,-1748.030873,69.686927,-80.795431,79.361196,0.000000,-0.000000,0.000000
2.260000,-1.660000,0.240208,0.040000,-1748.314221,30.353292,-32.467517,69.519471,0.000000,-0.000000,0.000000
2.340000,-1.700000,0.167631,0.040000,-1746.837607,-264.994074,388.838470,96.493118,-0.000000,0.000000,0.000000
2.380000,-1.700000,0.130000,0.040000,-1745.759475,-3029.697768,2892.788817,93.315803,-0.000000,0.000000,0.000000
2.380000,-1.660000,0.120416,0.040000,-1748.468146,950.270362,2514.235000,704.214630,-0.000000,0.000000,0.000000
2.340000,-1.660000,0.160312,0.040000,-1747.875781,358.506926,-491.542770,163.344843,0.000000,-0.000000,0.000000
2.420000,-1.700000,0.094340,0.040000,-1735.243011,-26265.160922,113226.285576,21.922483,-0.000001,0.000002,0.000000
2.460000,-1.700000,0.064031,0.040000,-1615.876078,-17299.241655,298932.938181,-125.716531,-0.000002,0.000004,-0.000000
2.460000,-1.660000,0.041231,0.040000,-1865.834517,76285.551100,418224.775849,-297.885201,-0.000001,0.000005,-0.000000
2.420000,-1.660000,0.080623,0.040000,-1757.078913,-11363.575445,117671.136811,-783.363550,-0.000001,0.000002,-0.000000
2.500000,-1.700000,0.050000,0.040000,-873.637473,-5271.610871,517516.533919,-288.199195,-0.000003,0.000007,-0.000000
2.500000,-1.660000,0.010000,0.040000,-874.224467,5448.844373,526910.075017,801.787869,-0.000003,0.000007,0.000000
-2.500000,-1.620000,0.030000,0.040000,-874.704868,-3477.170299,512640.161443,-1762.348704,-0.000003,0.000007,-0.000000
-2.500000,-1.580000,0.030000,0.040000,-875.094429,-3471.756902,512914.339414,2136.232398,-0.000003,0.000007,0.000000
-2.460000,-1.620000,0.050000,0.040000,-1696.610534,11769.667455,337290.191961,295.199811,-0.000002,0.000004,0.000000
-2.420000,-1.620000,0.085440,0.040000,-1745.100138,-21644.369327,116142.143843,992.812413,-0.000001,0.000002,0.000000
-2.420000,-1.580000,0.085440,0.040000,-1745.910665,-21648.303830,116212.951347,-969.857624,-0.000001,0.000002,-0.000000
-2.460000,-1.580000,0.050000,0.040000,-1697.504723,11816.062964,337509.300875,-102.677887,-0.000002,0.000004,-0.000000
-2.380000,-1.620000,0.123693,0.040000,-1748.316764,-1988.571531,3927.258428,2166.876465,-0.000000,0.000000,0.000000
-2.340000,-1.620000,0.162788,0.040000,-1748.596046,-60.219490,128.517172,115.004880,-0.000000,0.000000,0.000000
-2.340000,-1.580000,0.162788,0.040000,-1749.291276,-66.951330,135.300079,-198.928605,-0.000000,0.000000,-0.000000
-2.380000,-1.580000,0.123693,0.040000,-1749.072983,-1996.343361,3938.364016,-2232.875075,-0.000000,0.000000,-0.000000
-2.300000,-1.620000,0.202237,0.040000,-1748.731483,36.292623,-33.454366,-40.591329,0.000000,-0.000000,-0.000000
-2.260000,-1.620000,0.241868,0.040000,-1748.921721,30.273431,-31.265505,-53.105557,0.000000,-0.000000,-0.000000
-2.260000,-1.580000,0.241868,0.040000,-1749.469582,30.356836,-31.376072,-43.355723,0.000000,-0.000000,-0.000000
-2.300000,-1.580000,0.202237,0.040000,-1749.355484,33.243813,-30.474458,-53.277113,0.000000,-0.000000,-0.000000
-2.220000,-1.620000,0.281603,0.040000,-1749.162003,19.073420,-18.885668,-52.654768,0.000000,-0.000000,-0.000000
-2.180000,-1.620000,0.321403,0.040000,-1749.434643,11.007323,-12.060415,-48.444479,0.000000,-0.000000,-0.000000
-2.180000,-1.580000,0.321403,0.040000,-1749.833945,13.304271,-14.927851,-38.651250,0.000000,-0.000000,-0.000000
-2.220000,-1.580000,0.281603,0.040000,-1749.633802,20.899342,-20.606681,-41.331358,0.000000,-0.000000,-0.000000
2.180000,-1.620000,0.321403,0.040000,-1749.423828,11.007242,-12.060336,48.444108,0.000000,-0.000000,0.000000
2.220000,-1.620000,0.281603,0.040000,-1749.150990,19.073279,-18.885538,52.654364,0.000000,-0.000000,0.000000
2.220000,-1.580000,0.281603,0.040000,-1749.622786,20.899186,-20.606536,41.331038,0.000000,-0.000000,0.000000
2.180000,-1.580000,0.321403,0.040000,-1749.823126,13.304171,-14.927749,38.650951,0.000000,-0.000000,0.000000
2.260000,-1.620000,0.241868,0.040000,-1748.910511,30.273208,-31.265285,53.105147,0.000000,-0.000000,0.000000
2.300000,-1.620000,0.202237,0.040000,-1748.720076,36.292354,-33.454126,40.591005,0.000000,-0.000000,0.000000
2.300000,-1.580000,0.202237,0.040000,-1749.344072,33.243563,-30.474237,53.276702,0.000000,-0.000000,0.000000
2.260000,-1.580000,0.241868,0.040000,-1749.458368,30.356610,-31.375847,43.355385,0.000000,-0.000000,0.000000
2.340000,-1.620000,0.162788,0.040000,-1748.584442,-60.219076,128.516263,-115.004097,-0.000000,0.000000,-0.000000
2.380000,-1.620000,0.123693,0.040000,-1748.304963,-1988.557378,3927.230464,-2166.861057,-0.000000,0.000000,-0.000000
2.380000,-1.580000,0.123693,0.040000,-1749.061175,-1996.329161,3938.335975,2232.859121,-0.000000,0.000000,0.000000
2.340000,-1.580000,0.162788,0.040000,-1749.279666,-66.950871,135.299124,198.927155,-0.000000,0.000000,0.000000
2.420000,-1.620000,0.085440,0.040000,-1745.088161,-21644.215149,116141.318771,-992.804236,-0.000001,0.000002,-0.000000
2.460000,-1.620000,0.050000,0.040000,-1696.598704,11769.585906,337287.796243,-295.196314,-0.000002,0.000004,-0.000000
2.460000,-1.580000,0.050000,0.040000,-1697.492884,11815.980979,337506.903272,102.676012,-0.000002,0.000004,0.000000
2.420000,-1.580000,0.085440,0.040000,-1745.898681,-21648.149645,116212.125683,969.849630,-0.000001,0.000002,0.000000
2.500000,-1.620000,0.030000,0.040000,-874.698698,-3477.135055,512636.513556,1762.338723,-0.000003,0.000007,0.000000
2.500000,-1.580000,0.030000,0.040000,-875.088256,-3471.721729,512910.689163,-2136.219239,-0.000003,0.000007,-0.000000
-2.500000,-1.540000,0.010000,0.040000,-875.419040,5387.623468,527704.601809,1181.589678,-0.000003,0.000007,0.000000
-2.500000,-1.500000,0.050000,0.040000,-875.692730,-5368.848021,518895.528880,128.099901,-0.000003,0.000007,0.000000
-2.460000,-1.540000,0.041231,0.040000,-1868.362206,76278.747859,418835.180497,-103.660301,-0.000001,0.000005,-0.000000
-2.420000,-1.540000,0.080623,0.040000,-1759.498198,-11452.298581,117889.828899,-765.564824,-0.000001,0.000002,-0.000000
-2.420000,-1.500000,0.094340,0.040000,-1739.341556,-26414.759342,113590.713764,15.145022,-0.000001,0.000002,0.000000
-2.460000,-1.500000,0.064031,0.040000,-1619.790897,-17437.836621,299768.928319,68.903788,-0.000002,0.000004,0.000000
-2.380000,-1.540000,0.120416,0.040000,-1750.761677,909.507820,2557.617878,634.227202,-0.000000,0.000000,0.000000
-2.340000,-1.540000,0.160312,0.040000,-1749.984013,337.024093,-470.444339,70.496393,0.000000,-0.000000,0.000000
-2.340000,-1.500000,0.167631,0.040000,-1750.381063,-297.641271,421.458082,-17.664228,-0.000000,0.000000,-0.000000
-2.380000,-1.500000,0.130000,0.040000,-1749.639574,-3096.608899,2959.400670,-12.408293,-0.000000,0.000000,-0.000000
-2.300000,-1.540000,0.200250,0.040000,-1749.919003,61.396163,-72.722274,-21.988364,0.000000,-0.000000,-0.000000
-2.260000,-1.540000,0.240208,0.040000,-1749.968663,31.642414,-33.843079,-32.244949,0.000000,-0.000000,-0.000000
-2.260000,-1.500000,0.245153,0.040000,-1750.418941,25.358737,-25.658636,-25.547704,0.000000,-0.000000,-0.000000
-2.300000,-1.500000,0.206155,0.040000,-1750.403513,5.662932,5.267275,-22.472751,0.000000,0.000000,-0.000000
-2.220000,-1.540000,0.280179,0.040000,-1750.072043,21.952595,-22.149189,-34.269487,0.000000,-0.000000,-0.000000
-2.180000,-1.540000,0.320156,0.040000,-1750.212736,15.868195,-17.203812,-33.840788,0.000000,-0.000000,-0.000000
-2.180000,-1.500000,0.323883,0.040000,-1750.567848,16.094612,-17.567817,-26.402995,0.000000,-0.000000,-0.000000
-2.220000,-1.500000,0.284429,0.040000,-1750.475470,21.157413,-21.375179,-26.448966,0.000000,-0.000000,-0.000000
2.180000,-1.540000,0.320156,0.040000,-1750.201914,15.868074,-17.203691,33.840525,0.000000,-0.000000,0.000000
2.220000,-1.540000,0.280179,0.040000,-1750.061022,21.952429,-22.149031,34.269218,0.000000,-0.000000,0.000000
2.220000,-1.500000,0.284429,0.040000,-1750.464446,21.157251,-21.375025,26.448756,0.000000,-0.000000,0.000000
2.180000,-1.500000,0.323883,0.040000,-1750.557022,16.094489,-17.567691,26.402787,0.000000,-0.000000,0.000000
2.260000,-1.540000,0.240208,0.040000,-1749.957444,31.642176,-33.842835,32.244694,0.000000,-0.000000,0.000000
2.300000,-1.540000,0.200250,0.040000,-1749.907586,61.395710,-72.721750,21.988180,0.000000,-0.000000,0.000000
2.300000,-1.500000,0.206155,0.040000,-1750.392091,5.662876,5.267244,22.472567,0.000000,0.000000,0.000000
2.260000,-1.500000,0.245153,0.040000,-1750.407719,25.358543,-25.658449,25.547499,0.000000,-0.000000,0.000000
2.340000,-1.540000,0.160312,0.040000,-1749.972397,337.021672,-470.440976,-70.495917,0.000000,-0.000000,-0.000000
2.380000,-1.540000,0.120416,0.040000,-1750.749856,909.501222,2557.599913,-634.222691,-0.000000,0.000000,-0.000000
2.380000,-1.500000,0.130000,0.040000,-1749.627760,-3096.586813,2959.379524,12.408176,-0.000000,0.000000,0.000000
2.340000,-1.500000,0.167631,0.040000,-1750.369443,-297.639166,421.455084,17.664077,-0.000000,0.000000,0.000000
2.420000,-1.540000,0.080623,0.040000,-1759.486116,-11452.218159,117888.992478,765.559272,-0.000001,0.000002,0.000000
2.460000,-1.540000,0.041231,0.040000,-1868.349148,76278.203182,418832.207473,103.658110,-0.000001,0.000005,0.000000
2.460000,-1.500000,0.064031,0.040000,-1619.779612,-17437.710397,299766.803564,-68.903179,-0.000002,0.000004,-0.000000
2.420000,-1.500000,0.094340,0.040000,-1739.329617,-26414.571254,113589.908031,-15.144900,-0.000001,0.000002,-0.000000
2.500000,-1.540000,0.010000,0.040000,-875.412787,5387.566623,527700.873344,-1181.583703,-0.000003,0.000007,-0.000000
2.500000,-1.500000,0.050000,0.040000,-875.686568,-5368.793888,518891.828832,-128.098747,-0.000003,0.000007,-0.000000
-2.500000,-1.460000,0.010000,0.040000,-875.925780,5386.654856,528043.942486,-932.998857,-0.000003,0.000007,-0.000000
-2.500000,-1.420000,0.030000,0.040000,-876.125895,-3521.666414,513564.081460,-1871.943854,-0.000003,0.000007,-0.000000
-2.460000,-1.460000,0.041231,0.040000,-1869.543332,76332.622850,419123.176692,243.524555,-0.000001,0.000005,0.000000
-2.420000,-1.460000,0.080623,0.040000,-1760.580043,-11467.884446,117978.369122,801.010116,-0.000001,0.000002,0.000000
-2.420000,-1.420000,0.085440,0.040000,-1748.063148,-21729.366994,116391.992164,999.830710,-0.000001,0.000002,0.000000
-2.460000,-1.420000,0.050000,0.040000,-1699.518442,11748.976388,337927.121843,246.193689,-0.000002,0.000004,0.000000
-2.380000,-1.460000,0.120416,0.040000,-1751.811201,896.417587,2573.881436,-654.528606,-0.000000,0.000000,-0.000000
-2.340000,-1.460000,0.160312,0.040000,-1750.986020,325.526801,-459.025756,-107.225945,0.000000,-0.000000,-0.000000
-2.340000,-1.420000,0.162788,0.040000,-1751.313981,-91.408810,159.772949,155.570823,-0.000000,0.000000,0.000000
-2.380000,-1.420000,0.123693,0.040000,-1751.193350,-2035.107747,3977.828229,2205.271125,-0.000000,0.000000,0.000000
-2.300000,-1.460000,0.200250,0.040000,-1750.855414,53.498829,-64.861311,-24.808118,0.000000,-0.000000,-0.000000
-2.260000,-1.460000,0.240208,0.040000,-1750.826835,27.252860,-29.443872,-20.476758,0.000000,-0.000000,-0.000000
-2.260000,-1.420000,0.241868,0.040000,-1751.192793,22.234659,-23.239242,-14.322820,0.000000,-0.000000,-0.000000
-2.300000,-1.420000,0.202237,0.040000,-1751.240887,17.774866,-15.062068,0.566254,0.000000,-0.000000,0.000000
-2.220000,-1.460000,0.280179,0.040000,-1750.844943,20.436307,-20.951904,-22.028592,0.000000,-0.000000,-0.000000
-2.180000,-1.460000,0.320156,0.040000,-1750.897998,16.222876,-17.657655,-23.022013,0.000000,-0.000000,-0.000000
-2.180000,-1.420000,0.321403,0.040000,-1751.203092,15.640178,-17.020605,-17.765655,0.000000,-0.000000,-0.000000
-2.220000,-1.420000,0.281603,0.040000,-1751.181778,19.007986,-19.641789,-16.730968,0.000000,-0.000000,-0.000000
2.180000,-1.460000,0.320156,0.040000,-1750.887169,16.222749,-17.657527,23.021830,0.000000,-0.000000,0.000000
2.220000,-1.460000,0.280179,0.040000,-1750.833915,20.436150,-20.951751,22.028415,0.000000,-0.000000,0.000000
2.220000,-1.420000,0.281603,0.040000,-1751.170748,19.007837,-19.641646,16.730831,0.000000,-0.000000,0.000000
2.180000,-1.420000,0.321403,0.040000,-1751.192260,15.640055,-17.020481,17.765511,0.000000,-0.000000,0.000000
2.260000,-1.460000,0.240208,0.040000,-1750.815609,27.252652,-29.443657,20.476592,0.000000,-0.000000,0.000000
2.300000,-1.460000,0.200250,0.040000,-1750.843989,53.498431,-64.860841,24.807919,0.000000,-0.000000,0.000000
2.300000,-1.420000,0.202237,0.040000,-1751.229458,17.774723,-15.061953,-0.566269,0.000000,-0.000000,-0.000000
2.260000,-1.420000,0.241868,0.040000,-1751.181563,22.234486,-23.239071,14.322699,0.000000,-0.000000,0.000000
2.340000,-1.460000,0.160312,0.040000,-1750.974395,325.524460,-459.022472,107.225159,0.000000,-0.000000,0.000000
2.380000,-1.460000,0.120416,0.040000,-1751.799371,896.411076,2573.863355,654.523907,-0.000000,0.000000,0.000000
2.380000,-1.420000,0.123693,0.040000,-1751.181523,-2035.093255,3977.799890,-2205.255416,-0.000000,0.000000,-0.000000
2.340000,-1.420000,0.162788,0.040000,-1751.302352,-91.408176,159.771819,-155.569733,-0.000000,0.000000,-0.000000
2.420000,-1.460000,0.080623,0.040000,-1760.567951,-11467.803920,117977.531914,-801.004270,-0.000001,0.000002,-0.000000
2.460000,-1.460000,0.041231,0.040000,-1869.530263,76332.077625,419120.201017,-243.521129,-0.000001,0.000005,-0.000000
2.460000,-1.420000,0.050000,0.040000,-1699.506585,11748.894945,337924.720440,-246.190554,-0.000002,0.000004,-0.000000
2.420000,-1.420000,0.085440,0.040000,-1748.051145,-21729.212136,116391.164916,-999.822469,-0.000001,0.000002,-0.000000
2.500000,-1.460000,0.010000,0.040000,-875.919522,5386.597988,528040.210894,932.995109,-0.000003,0.000007,0.000000
2.500000,-1.420000,0.030000,0.040000,-876.119712,-3521.630837,513560.425258,1871.933043,-0.000003,0.000007,0.000000
-2.500000,-1.380000,0.030000,0.040000,-876.298965,-3516.125544,513680.890380,2048.567155,-0.000003,0.000007,0.000000
-2.500000,-1.340000,0.010000,0.040000,-876.449568,5370.078498,528376.222431,1110.634981,-0.000003,0.000007,0.000000
-2.460000,-1.380000,0.050000,0.040000,-1699.922421,11772.941032,338020.295795,-146.135476,-0.000002,0.000004,-0.000000
-2.420000,-1.380000,0.085440,0.040000,-1748.443271,-21728.703556,116420.834528,-970.171657,-0.000001,0.000002,-0.000000
-2.420000,-1.340000,0.080623,0.040000,-1761.705674,-11499.440375,118066.613064,-770.219203,-0.000001,0.000002,-0.000000
-2.460000,-1.340000,0.041231,0.040000,-1870.675195,76340.724797,419378.548021,-141.477438,-0.000001,0.000005,-0.000000
-2.380000,-1.380000,0.123693,0.040000,-1751.566394,-2037.842715,3982.057191,-2211.742841,-0.000000,0.000000,-0.000000
-2.340000,-1.380000,0.162788,0.040000,-1751.678130,-95.182222,163.599033,-170.227064,-0.000000,0.000000,-0.000000
-2.340000,-1.340000,0.160312,0.040000,-1752.084675,313.115994,-446.690091,91.172494,0.000000,-0.000000,0.000000
-2.380000,-1.340000,0.120416,0.040000,-1752.935055,880.148536,2591.406771,649.855316,-0.000000,0.000000,0.000000
-2.300000,-1.380000,0.202237,0.040000,-1751.590382,14.618036,-11.907364,-22.420980,0.000000,-0.000000,-0.000000
-2.260000,-1.380000,0.241868,0.040000,-1751.522610,19.933693,-20.928669,-12.995587,0.000000,-0.000000,-0.000000
-2.260000,-1.340000,0.240208,0.040000,-1751.819946,20.407984,-22.569327,-8.602643,0.000000,-0.000000,-0.000000
-2.300000,-1.340000,0.200250,0.040000,-1751.908971,43.913138,-55.282356,1.141101,0.000000,-0.000000,0.000000
-2.220000,-1.380000,0.281603,0.040000,-1751.488245,17.412336,-18.108449,-14.084286,0.000000,-0.000000,-0.000000
-2.180000,-1.380000,0.321403,0.040000,-1751.483851,14.736447,-16.177559,-15.493329,0.000000,-0.000000,-0.000000
-2.180000,-1.340000,0.320156,0.040000,-1751.741450,13.949690,-15.277238,-11.903018,0.000000,-0.000000,-0.000000
-2.220000,-1.340000,0.280179,0.040000,-1751.766672,16.277356,-17.211873,-10.626570,0.000000,-0.000000,-0.000000
2.180000,-1.380000,0.321403,0.040000,-1751.473017,14.736330,-16.177441,15.493203,0.000000,-0.000000,0.000000
2.220000,-1.380000,0.281603,0.040000,-1751.477211,17.412199,-18.108315,14.084170,0.000000,-0.000000,0.000000
2.220000,-1.340000,0.280179,0.040000,-1751.755635,16.277226,-17.211745,10.626479,0.000000,-0.000000,0.000000
2.180000,-1.340000,0.320156,0.040000,-1751.730612,13.949578,-15.277125,11.902919,0.000000,-0.000000,0.000000
2.260000,-1.380000,0.241868,0.040000,-1751.511376,19.933536,-20.928513,12.995478,0.000000,-0.000000,0.000000
2.300000,-1.380000,0.202237,0.040000,-1751.578949,14.617915,-11.907271,22.420802,0.000000,-0.000000,0.000000
2.300000,-1.340000,0.200250,0.040000,-1751.897535,43.912808,-55.281954,-1.141108,0.000000,-0.000000,-0.000000
2.260000,-1.340000,0.240208,0.040000,-1751.808710,20.407823,-22.569160,8.602566,0.000000,-0.000000,0.000000
2.340000,-1.380000,0.162788,0.040000,-1751.666498,-95.181562,163.597877,170.225833,-0.000000,0.000000,0.000000
2.380000,-1.380000,0.123693,0.040000,-1751.554563,-2037.828210,3982.028824,2211.727047,-0.000000,0.000000,0.000000
2.380000,-1.340000,0.120416,0.040000,-1752.923214,880.142146,2591.388556,-649.850679,-0.000000,0.000000,-0.000000
2.340000,-1.340000,0.160312,0.040000,-1752.073038,313.113742,-446.686895,-91.171858,0.000000,-0.000000,-0.000000
2.420000,-1.380000,0.085440,0.040000,-1748.431264,-21728.548720,116420.007005,970.163665,-0.000001,0.000002,0.000000
2.460000,-1.380000,0.050000,0.040000,-1699.910560,11772.859334,338017.893469,146.133274,-0.000002,0.000004,0.000000
2.460000,-1.340000,0.041231,0.040000,-1870.662115,76340.179445,419375.569830,141.474961,-0.000001,0.000005,0.000000
2.420000,-1.340000,0.080623,0.040000,-1761.693570,-11499.359580,118065.775018,770.213619,-0.000001,0.000002,0.000000
2.500000,-1.380000,0.030000,0.040000,-876.292780,-3516.090034,513677.233019,-2048.554655,-0.000003,0.000007,-0.000000
2.500000,-1.340000,0.010000,0.040000,-876.443304,5370.021764,528372.487554,-1110.629547,-0.000003,0.000007,-0.000000
-2.500000,-1.300000,0.050000,0.040000,-876.581318,-5393.708512,519461.657937,64.675321,-0.000003,0.000007,0.000000
-2.500000,-1.260000,0.010000,0.040000,-876.697108,5372.517353,528537.126897,-985.603121,-0.000003,0.000007,-0.000000
-2.460000,-1.300000,0.064031,0.040000,-1621.525846,-17481.621446,300108.240249,36.629380,-0.000002,0.000004,0.000000
-2.420000,-1.300000,0.094340,0.040000,-1741.236826,-26469.412698,113736.164169,11.615175,-0.000001,0.000002,0.000000
-2.420000,-1.260000,0.080623,0.040000,-1762.250532,-11504.018500,118106.711194,796.468793,-0.000001,0.000002,0.000000
-2.460000,-1.260000,0.041231,0.040000,-1871.257354,76370.600931,419515.019067,215.721623,-0.000001,0.000005,0.000000
-2.380000,-1.300000,0.130000,0.040000,-1751.538714,-3124.952668,2987.719965,-0.647508,-0.000000,0.000000,-0.000000
-2.340000,-1.300000,0.167631,0.040000,-1752.234138,-318.808229,442.781619,-2.679353,-0.000000,0.000000,-0.000000
-2.340000,-1.260000,0.160312,0.040000,-1752.625187,307.899244,-441.499366,-96.591601,0.000000,-0.000000,-0.000000
-2.380000,-1.260000,0.120416,0.040000,-1753.480069,875.489242,2597.621596,-648.261716,-0.000000,0.000000,-0.000000
-2.300000,-1.300000,0.206155,0.040000,-1752.176458,-10.285224,21.219285,-5.104928,-0.000000,0.000000,-0.000000
-2.260000,-1.300000,0.245153,0.040000,-1752.086216,14.212714,-14.465322,-7.174596,0.000000,-0.000000,-0.000000
-2.260000,-1.260000,0.240208,0.040000,-1752.327783,16.694441,-18.840507,-6.201222,0.000000,-0.000000,-0.000000
-2.300000,-1.260000,0.200250,0.040000,-1752.436808,39.321264,-50.691026,-11.758585,0.000000,-0.000000,-0.000000
-2.220000,-1.300000,0.284429,0.040000,-1752.019265,14.358587,-15.184811,-8.906971,0.000000,-0.000000,-0.000000
-2.180000,-1.300000,0.323883,0.040000,-1751.977300,12.716017,-14.133512,-10.390750,0.000000,-0.000000,-0.000000
-2.180000,-1.260000,0.320156,0.040000,-1752.192958,11.942876,-13.235853,-7.981194,0.000000,-0.000000,-0.000000
-2.220000,-1.260000,0.280179,0.040000,-1752.248584,13.478388,-14.556591,-6.849739,0.000000,-0.000000,-0.000000
2.180000,-1.300000,0.323883,0.040000,-1751.966460,12.715913,-14.133407,10.390663,0.000000,-0.000000,0.000000
2.220000,-1.300000,0.284429,0.040000,-1752.008225,14.358470,-15.184697,8.906893,0.000000,-0.000000,0.000000
2.220000,-1.260000,0.280179,0.040000,-1752.237542,13.478277,-14.556482,6.849677,0.000000,-0.000000,0.000000
2.180000,-1.260000,0.320156,0.040000,-1752.182115,11.942777,-13.235754,7.981125,0.000000,-0.000000,0.000000
2.260000,-1.300000,0.245153,0.040000,-1752.074978,14.212597,-14.465212,7.174531,0.000000,-0.000000,0.000000
2.300000,-1.300000,0.206155,0.040000,-1752.165020,-10.285167,21.219142,5.104878,-0.000000,0.000000,0.000000
2.300000,-1.260000,0.200250,0.040000,-1752.425366,39.320966,-50.690657,11.758489,0.000000,-0.000000,0.000000
2.260000,-1.260000,0.240208,0.040000,-1752.316542,16.694306,-18.840366,6.201166,0.000000,-0.000000,0.000000
2.340000,-1.300000,0.167631,0.040000,-1752.222500,-318.805972,442.778468,2.679320,-0.000000,0.000000,0.000000
2.380000,-1.300000,0.130000,0.040000,-1751.526882,-3124.930370,2987.698606,0.647486,-0.000000,0.000000,0.000000
2.380000,-1.260000,0.120416,0.040000,-1753.468222,875.482881,2597.603336,648.257067,-0.000000,0.000000,0.000000
2.340000,-1.260000,0.160312,0.040000,-1752.613546,307.897028,-441.496207,96.590900,0.000000,-0.000000,0.000000
2.420000,-1.300000,0.094340,0.040000,-1741.224868,-26469.224139,113735.357062,-11.615075,-0.000001,0.000002,-0.000000
2.460000,-1.300000,0.064031,0.040000,-1621.514544,-17481.494854,300106.112191,-36.629017,-0.000002,0.000004,-0.000000
2.460000,-1.260000,0.041231,0.040000,-1871.244268,76370.055232,419512.039420,-215.718412,-0.000001,0.000005,-0.000000
2.420000,-1.260000,0.080623,0.040000,-1762.238423,-11503.937678,118105.872737,-796.462976,-0.000001,0.000002,-0.000000
2.500000,-1.300000,0.050000,0.040000,-876.575147,-5393.654182,519457.952324,-64.674659,-0.000003,0.000007,-0.000000
2.500000,-1.260000,0.010000,0.040000,-876.690842,5372.460577,528533.390301,985.598959,-0.000003,0.000007,0.000000
-2.500000,-1.220000,0.030000,0.040000,-876.799279,-3534.326749,513985.222163,-1917.531902,-0.000003,0.000007,-0.000000
-2.500000,-1.180000,0.030000,0.040000,-876.889749,-3530.773465,514045.123962,2011.590470,-0.000003,0.000007,0.000000
-2.460000,-1.220000,0.050000,0.040000,-1700.910550,11747.661236,338214.245532,222.192642,-0.000002,0.000004,0.000000
-2.420000,-1.220000,0.085440,0.040000,-1749.522568,-21762.018751,116501.227180,995.296833,-0.000001,0.000002,0.000000
-2.420000,-1.180000,0.085440,0.040000,-1749.725051,-21760.861799,116515.447889,-975.646785,-0.000001,0.000002,-0.000000
-2.460000,-1.180000,0.050000,0.040000,-1701.122836,11761.033828,338261.886121,-167.170835,-0.000002,0.000004,-0.000000
-2.380000,-1.220000,0.123693,0.040000,-1752.664072,-2053.369205,3997.926954,2211.930457,-0.000000,0.000000,0.000000
-2.340000,-1.220000,0.162788,0.040000,-1752.767684,-106.542847,174.992272,163.506367,-0.000000,0.000000,0.000000
-2.340000,-1.180000,0.162788,0.040000,-1752.970619,-108.199309,176.676778,-164.626551,-0.000000,0.000000,-0.000000
-2.380000,-1.180000,0.123693,0.040000,-1752.866786,-2054.208180,3999.543697,-2209.686250,-0.000000,0.000000,-0.000000
-2.300000,-1.220000,0.202237,0.040000,-1752.653431,5.287173,-2.565444,10.433045,0.000000,-0.000000,0.000000
-2.260000,-1.220000,0.241868,0.040000,-1752.544215,12.498668,-13.461390,-3.214341,0.000000,-0.000000,-0.000000
-2.260000,-1.180000,0.241868,0.040000,-1752.740028,11.104399,-12.062229,-4.336142,0.000000,-0.000000,-0.000000
-2.300000,-1.180000,0.202237,0.040000,-1752.854081,3.681918,-0.959351,-14.962977,0.000000,-0.000000,-0.000000
-2.220000,-1.220000,0.281603,0.040000,-1752.456536,11.876997,-12.857785,-5.586070,0.000000,-0.000000,-0.000000
-2.180000,-1.220000,0.321403,0.040000,-1752.389953,10.731969,-12.125303,-6.968913,0.000000,-0.000000,-0.000000
-2.180000,-1.180000,0.321403,0.040000,-1752.569811,10.016881,-11.283414,-5.357234,0.000000,-0.000000,-0.000000
-2.220000,-1.180000,0.281603,0.040000,-1752.645289,10.868518,-11.971179,-4.414888,0.000000,-0.000000,-0.000000
2.180000,-1.220000,0.321403,0.040000,-1752.379108,10.731878,-12.125212,6.968852,0.000000,-0.000000,0.000000
2.220000,-1.220000,0.281603,0.040000,-1752.445492,11.876897,-12.857688,5.586019,0.000000,-0.000000,0.000000
2.220000,-1.180000,0.281603,0.040000,-1752.634243,10.868425,-11.971087,4.414846,0.000000,-0.000000,0.000000
2.180000,-1.180000,0.321403,0.040000,-1752.558964,10.016795,-11.283329,5.357186,0.000000,-0.000000,0.000000
2.260000,-1.220000,0.241868,0.040000,-1752.532971,12.498563,-13.461287,3.214306,0.000000,-0.000000,0.000000
2.300000,-1.220000,0.202237,0.040000,-1752.641988,5.287118,-2.565418,-10.432982,0.000000,-0.000000,-0.000000
2.300000,-1.180000,0.202237,0.040000,-1752.842635,3.681875,-0.959337,14.962859,0.000000,-0.000000,0.000000
2.260000,-1.180000,0.241868,0.040000,-1752.728782,11.104304,-12.062136,4.336100,0.000000,-0.000000,0.000000
2.340000,-1.220000,0.162788,0.040000,-1752.756041,-106.542104,174.991033,-163.505212,-0.000000,0.000000,-0.000000
2.380000,-1.220000,0.123693,0.040000,-1752.652230,-2053.354577,3997.898460,-2211.914686,-0.000000,0.000000,-0.000000
2.380000,-1.180000,0.123693,0.040000,-1752.854942,-2054.193551,3999.515192,2209.670472,-0.000000,0.000000,0.000000
2.340000,-1.180000,0.162788,0.040000,-1752.958973,-108.198556,176.675527,164.625365,-0.000000,0.000000,0.000000
2.420000,-1.220000,0.085440,0.040000,-1749.510549,-21761.863601,116500.398836,-995.288621,-0.000001,0.000002,-0.000000
2.460000,-1.220000,0.050000,0.040000,-1700.898679,11747.579767,338211.841160,-222.189695,-0.000002,0.000004,-0.000000
2.460000,-1.180000,0.050000,0.040000,-1701.110962,11760.952195,338259.481200,167.168466,-0.000002,0.000004,0.000000
2.420000,-1.180000,0.085440,0.040000,-1749.713030,-21760.706671,116514.619388,975.638751,-0.000001,0.000002,0.000000
2.500000,-1.220000,0.030000,0.040000,-876.793089,-3534.291072,513981.561567,1917.520724,-0.000003,0.000007,0.000000
2.500000,-1.180000,0.030000,0.040000,-876.883558,-3530.737836,514041.462673,-2011.578265,-0.000003,0.000007,-0.000000
-2.500000,-1.140000,0.010000,0.040000,-876.970101,5366.020860,528706.582911,1079.477285,-0.000003,0.000007,0.000000
-2.500000,-1.100000,0.050000,0.040000,-877.041655,-5403.110590,519748.035920,35.909786,-0.000003,0.000007,0.000000
-2.460000,-1.140000,0.041231,0.040000,-1871.851020,76377.640613,419644.907986,-159.815829,-0.000001,0.000005,-0.000000
-2.420000,-1.140000,0.080623,0.040000,-1762.848961,-11517.900392,118150.067782,-775.882190,-0.000001,0.000002,-0.000000
-2.420000,-1.100000,0.094340,0.040000,-1742.239582,-26493.587137,113806.948979,7.470969,-0.000001,0.000002,0.000000
-2.460000,-1.100000,0.064031,0.040000,-1622.430620,-17499.953513,300278.151120,20.797272,-0.000002,0.000004,0.000000
-2.380000,-1.140000,0.120416,0.040000,-1754.089731,868.798609,2604.969096,652.002509,-0.000000,0.000000,0.000000
-2.340000,-1.140000,0.160312,0.040000,-1753.236731,302.353216,-435.991297,95.311676,0.000000,-0.000000,0.000000
-2.340000,-1.100000,0.167631,0.040000,-1753.263199,-328.330995,452.387387,0.362145,-0.000000,0.000000,0.000000
-2.380000,-1.100000,0.130000,0.040000,-1752.565210,-3136.692417,2999.426468,1.173087,-0.000000,0.000000,0.000000
-2.300000,-1.140000,0.200250,0.040000,-1753.041342,34.410510,-45.777474,6.807381,0.000000,-0.000000,0.000000
-2.260000,-1.140000,0.240208,0.040000,-1752.917455,12.489074,-14.619456,-1.835608,0.000000,-0.000000,-0.000000
-2.260000,-1.100000,0.245153,0.040000,-1753.076471,7.152814,-7.378226,-1.873563,0.000000,-0.000000,-0.000000
-2.300000,-1.100000,0.206155,0.040000,-1753.192750,-18.581708,29.530819,-0.789425,-0.000000,0.000000,-0.000000
-2.220000,-1.140000,0.280179,0.040000,-1752.816680,9.903297,-11.028113,-3.558347,0.000000,-0.000000,-0.000000
-2.180000,-1.140000,0.320156,0.040000,-1752.733969,8.973395,-10.345379,-4.682145,0.000000,-0.000000,-0.000000
-2.180000,-1.100000,0.323883,0.040000,-1752.883759,8.337643,-9.588507,-3.588397,0.000000,-0.000000,-0.000000
-2.220000,-1.100000,0.284429,0.040000,-1752.972213,8.760853,-9.880606,-2.731558,0.000000,-0.000000,-0.000000
2.180000,-1.140000,0.320156,0.040000,-1752.723121,8.973317,-10.345299,4.682102,0.000000,-0.000000,0.000000
2.220000,-1.140000,0.280179,0.040000,-1752.805632,9.903211,-11.028028,3.558312,0.000000,-0.000000,0.000000
2.220000,-1.100000,0.284429,0.040000,-1752.961163,8.760775,-9.880529,2.731530,0.000000,-0.000000,0.000000
2.180000,-1.100000,0.323883,0.040000,-1752.872910,8.337569,-9.588433,3.588363,0.000000,-0.000000,0.000000
2.260000,-1.140000,0.240208,0.040000,-1752.906207,12.488969,-14.619345,1.835585,0.000000,-0.000000,0.000000
2.300000,-1.140000,0.200250,0.040000,-1753.029894,34.410248,-45.777140,-6.807342,0.000000,-0.000000,-0.000000
2.300000,-1.100000,0.206155,0.040000,-1753.181300,-18.581592,29.530615,0.789411,-0.000000,0.000000,0.000000
2.260000,-1.100000,0.245153,0.040000,-1753.065222,7.152748,-7.378166,1.873541,0.000000,-0.000000,0.000000
2.340000,-1.140000,0.160312,0.040000,-1753.225083,302.351041,-435.988178,-95.311005,0.000000,-0.000000,-0.000000
2.380000,-1.140000,0.120416,0.040000,-1754.077877,868.792300,2604.950777,-651.997850,-0.000000,0.000000,-0.000000
2.380000,-1.100000,0.130000,0.040000,-1752.553366,-3136.670026,2999.405017,-1.173090,-0.000000,0.000000,-0.000000
2.340000,-1.100000,0.167631,0.040000,-1753.251550,-328.328668,452.384165,-0.362152,-0.000000,0.000000,-0.000000
2.420000,-1.140000,0.080623,0.040000,-1762.836845,-11517.819436,118149.228845,775.876563,-0.000001,0.000002,0.000000
2.460000,-1.140000,0.041231,0.040000,-1871.837928,76377.094806,419641.926848,159.813203,-0.000001,0.000005,0.000000
2.460000,-1.100000,0.064031,0.040000,-1622.419307,-17499.826747,300276.021133,-20.797039,-0.000002,0.000004,-0.000000
2.420000,-1.100000,0.094340,0.040000,-1742.227613,-26493.398340,113806.141095,-7.470900,-0.000001,0.000002,-0.000000
2.500000,-1.140000,0.010000,0.040000,-876.963832,5365.964142,528702.844362,-1079.472105,-0.000003,0.000007,-0.000000
2.500000,-1.100000,0.050000,0.040000,-877.035478,-5403.056178,519744.327026,-35.909365,-0.000003,0.000007,-0.000000
-2.500000,-1.060000,0.010000,0.040000,-877.105520,5368.047739,528793.391561,-1010.212243,-0.000003,0.000007,-0.000000
-2.500000,-1.020000,0.030000,0.040000,-877.162634,-3539.296933,514208.458490,-1939.597492,-0.000003,0.000007,-0.000000
-2.460000,-1.060000,0.041231,0.040000,-1872.170826,76394.914295,419718.450200,201.885618,-0.000001,0.000005,0.000000
-2.420000,-1.060000,0.080623,0.040000,-1763.151232,-11519.487921,118171.057110,792.531458,-0.000001,0.000002,0.000000
-2.420000,-1.020000,0.085440,0.040000,-1750.322405,-21777.186403,116557.345503,991.841321,-0.000001,0.000002,0.000000
-2.460000,-1.020000,0.050000,0.040000,-1701.664549,11749.136570,338365.379359,210.044841,-0.000002,0.000004,0.000000
-2.380000,-1.060000,0.120416,0.040000,-1754.396398,866.975425,2607.641665,-647.963313,-0.000000,0.000000,-0.000000
-2.340000,-1.060000,0.160312,0.040000,-1753.546401,299.980360,-433.633493,-94.492983,0.000000,-0.000000,-0.000000
-2.340000,-1.020000,0.162788,0.040000,-1753.593852,-113.436004,181.928629,165.127632,-0.000000,0.000000,0.000000
-2.380000,-1.020000,0.123693,0.040000,-1753.483138,-2061.214491,4006.731583,2213.308114,-0.000000,0.000000,0.000000
-2.300000,-1.060000,0.200250,0.040000,-1753.350311,32.119277,-43.486072,-8.479935,0.000000,-0.000000,-0.000000
-2.260000,-1.060000,0.240208,0.040000,-1753.222071,10.428585,-12.552725,-2.040723,0.000000,-0.000000,-0.000000
-2.260000,-1.020000,0.241868,0.040000,-1753.352559,6.948500,-7.892670,0.058192,0.000000,-0.000000,0.000000
-2.300000,-1.020000,0.202237,0.040000,-1753.475703,-0.990123,3.719895,12.940729,-0.000000,0.000000,0.000000
-2.220000,-1.060000,0.280179,0.040000,-1753.113654,8.137169,-9.318285,-2.328686,0.000000,-0.000000,-0.000000
-2.180000,-1.060000,0.320156,0.040000,-1753.020449,7.463658,-8.811500,-3.147543,0.000000,-0.000000,-0.000000
-2.180000,-1.020000,0.321403,0.040000,-1753.145161,6.946403,-8.195056,-2.391132,0.000000,-0.000000,-0.000000
-2.220000,-1.020000,0.281603,0.040000,-1753.242094,7.278276,-8.473198,-1.591877,0.000000,-0.000000,-0.000000
2.180000,-1.060000,0.320156,0.040000,-1753.009598,7.463590,-8.811431,3.147512,0.000000,-0.000000,0.000000
2.220000,-1.060000,0.280179,0.040000,-1753.102603,8.137096,-9.318212,2.328661,0.000000,-0.000000,0.000000
2.220000,-1.020000,0.281603,0.040000,-1753.231041,7.278208,-8.473132,1.591858,0.000000,-0.000000,0.000000
2.180000,-1.020000,0.321403,0.040000,-1753.134307,6.946338,-8.194992,2.391108,0.000000,-0.000000,0.000000
2.260000,-1.060000,0.240208,0.040000,-1753.210820,10.428495,-12.552629,2.040700,0.000000,-0.000000,0.000000
2.300000,-1.060000,0.200250,0.040000,-1753.338860,32.119032,-43.485754,8.479866,0.000000,-0.000000,0.000000
2.300000,-1.020000,0.202237,0.040000,-1753.464250,-0.990133,3.719875,-12.940644,-0.000000,0.000000,-0.000000
2.260000,-1.020000,0.241868,0.040000,-1753.341306,6.948435,-7.892607,-0.058199,0.000000,-0.000000,-0.000000
2.340000,-1.060000,0.160312,0.040000,-1753.534749,299.978201,-433.630389,94.492300,0.000000,-0.000000,0.000000
2.380000,-1.060000,0.120416,0.040000,-1754.384541,866.969124,2607.623326,647.958670,-0.000000,0.000000,0.000000
2.380000,-1.020000,0.123693,0.040000,-1753.471287,-2061.199801,4006.703016,-2213.292325,-0.000000,0.000000,-0.000000
2.340000,-1.020000,0.162788,0.040000,-1753.582199,-113.435211,181.927338,-165.126461,-0.000000,0.000000,-0.000000
2.420000,-1.060000,0.080623,0.040000,-1763.139113,-11519.406959,118170.217921,-792.525670,-0.000001,0.000002,-0.000000
2.460000,-1.060000,0.041231,0.040000,-1872.157729,76394.368255,419715.468147,-201.882522,-0.000001,0.000005,-0.000000
2.460000,-1.020000,0.050000,0.040000,-1701.652669,11749.055061,338362.973163,-210.041997,-0.000002,0.000004,-0.000000
2.420000,-1.020000,0.085440,0.040000,-1750.310377,-21777.031099,116556.516502,-991.833134,-0.000001,0.000002,-0.000000
2.500000,-1.060000,0.010000,0.040000,-877.099249,5367.990986,528789.651929,1010.207869,-0.000003,0.000007,0.000000
2.500000,-1.020000,0.030000,0.040000,-877.156439,-3539.261214,514204.795173,1939.586120,-0.000003,0.000007,0.000000
-2.500000,-0.980000,0.030000,0.040000,-877.213797,-3537.112451,514242.016746,1993.420407,-0.000003,0.000007,0.000000
-2.500000,-0.940000,0.010000,0.040000,-877.259691,5364.943766,528888.081850,1063.711101,-0.000003,0.000007,0.000000
-2.460000,-0.980000,0.050000,0.040000,-1701.785039,11756.937113,338392.019983,-178.022848,-0.000002,0.000004,-0.000000
-2.420000,-0.980000,0.085440,0.040000,-1750.438222,-21776.284277,116565.127404,-979.403943,-0.000001,0.000002,-0.000000
-2.420000,-0.940000,0.080623,0.040000,-1763.493180,-11526.548194,118194.744167,-779.521803,-0.000001,0.000002,-0.000000
-2.460000,-0.940000,0.041231,0.040000,-1872.507499,76399.674199,419790.901844,-169.445624,-0.000001,0.000005,-0.000000
-2.380000,-0.980000,0.123693,0.040000,-1753.600344,-2061.476300,4007.432113,-2210.232134,-0.000000,0.000000,-0.000000
-2.340000,-0.980000,0.162788,0.040000,-1753.712779,-114.214181,182.722260,-163.578378,-0.000000,0.000000,-0.000000
-2.340000,-0.940000,0.160312,0.040000,-1753.904476,297.327479,-431.003490,96.072287,0.000000,-0.000000,0.000000
-2.380000,-0.940000,0.120416,0.040000,-1754.748532,863.845564,2611.142069,651.987019,-0.000000,0.000000,0.000000
-2.300000,-0.980000,0.202237,0.040000,-1753.595186,-1.801518,4.531621,-13.062766,-0.000000,0.000000,-0.000000
-2.260000,-0.980000,0.241868,0.040000,-1753.471311,6.192445,-7.134778,-1.760181,0.000000,-0.000000,-0.000000
-2.260000,-0.940000,0.240208,0.040000,-1753.579538,8.144745,-10.262810,0.193501,0.000000,-0.000000,0.000000
-2.300000,-0.940000,0.200250,0.040000,-1753.710070,29.633716,-40.999379,8.250311,0.000000,-0.000000,0.000000
-2.220000,-0.980000,0.281603,0.040000,-1753.358908,6.512460,-7.667045,-1.474132,0.000000,-0.000000,-0.000000
-2.180000,-0.980000,0.321403,0.040000,-1753.258951,6.190811,-7.513173,-2.104397,0.000000,-0.000000,-0.000000
-2.180000,-0.940000,0.320156,0.040000,-1753.362771,5.805526,-7.058469,-1.584904,0.000000,-0.000000,-0.000000
-2.220000,-0.940000,0.280179,0.040000,-1753.465183,6.182417,-7.461284,-0.936554,0.000000,-0.000000,-0.000000
2.180000,-0.980000,0.321403,0.040000,-1753.248097,6.190752,-7.513114,2.104375,0.000000,-0.000000,0.000000
2.220000,-0.980000,0.281603,0.040000,-1753.347853,6.512399,-7.666984,1.474114,0.000000,-0.000000,0.000000
2.220000,-0.940000,0.280179,0.040000,-1753.454128,6.182358,-7.461224,0.936541,0.000000,-0.000000,0.000000
2.180000,-0.940000,0.320156,0.040000,-1753.351916,5.805470,-7.058413,1.584886,0.000000,-0.000000,0.000000
2.260000,-0.980000,0.241868,0.040000,-1753.460057,6.192386,-7.134721,1.760161,0.000000,-0.000000,0.000000
2.300000,-0.980000,0.202237,0.040000,-1753.583732,-1.801522,4.531596,13.062665,-0.000000,0.000000,0.000000
2.300000,-0.940000,0.200250,0.040000,-1753.698614,29.633488,-40.999080,-8.250259,0.000000,-0.000000,-0.000000
2.260000,-0.940000,0.240208,0.040000,-1753.568282,8.144671,-10.262730,-0.193506,0.000000,-0.000000,-0.000000
2.340000,-0.980000,0.162788,0.040000,-1753.701125,-114.213383,182.720964,163.577203,-0.000000,0.000000,0.000000
2.380000,-0.980000,0.123693,0.040000,-1753.588491,-2061.461613,4007.403543,2210.216352,-0.000000,0.000000,0.000000
2.380000,-0.940000,0.120416,0.040000,-1754.736670,863.839289,2611.123700,-651.982356,-0.000000,0.000000,-0.000000
2.340000,-0.940000,0.160312,0.040000,-1753.892819,297.325339,-431.000406,-96.071607,0.000000,-0.000000,-0.000000
2.420000,-0.980000,0.085440,0.040000,-1750.426192,-21776.128990,116564.298303,979.395878,-0.000001,0.000002,0.000000
2.460000,-0.980000,0.050000,0.040000,-1701.773157,11756.855492,338389.613429,178.020385,-0.000002,0.000004,0.000000
2.460000,-0.940000,0.041231,0.040000,-1872.494399,76399.128079,419787.918820,169.442913,-0.000001,0.000005,0.000000
2.420000,-0.940000,0.080623,0.040000,-1763.481057,-11526.467153,118193.904673,779.516145,-0.000001,0.000002,0.000000
2.500000,-0.980000,0.030000,0.040000,-877.207601,-3537.076765,514238.352976,-1993.408361,-0.000003,0.000007,-0.000000
2.500000,-0.940000,0.010000,0.040000,-877.253418,5364.887045,528884.340945,-1063.706063,-0.000003,0.000007,-0.000000
-2.500000,-0.900000,0.050000,0.040000,-877.300906,-5407.505481,519907.478696,20.999019,-0.000003,0.000007,0.000000
-2.500000,-0.860000,0.010000,0.040000,-877.337951,5366.313927,528937.894648,-1023.249675,-0.000003,0.000007,-0.000000
-2.460000,-0.900000,0.064031,0.040000,-1622.942366,-17509.069741,300372.214962,12.334053,-0.000002,0.000004,0.000000
-2.420000,-0.900000,0.094340,0.040000,-1742.811124,-26505.933050,113845.435179,4.742854,-0.000001,0.000002,0.000000
-2.420000,-0.860000,0.080623,0.040000,-1763.669691,-11527.178571,118206.578492,790.001077,-0.000001,0.000002,0.000000
-2.460000,-0.860000,0.041231,0.040000,-1872.693003,76409.932889,419833.069928,194.362897,-0.000001,0.000005,0.000000
-2.380000,-0.900000,0.130000,0.040000,-1753.156811,-3142.209327,3004.917430,1.237789,-0.000000,0.000000,0.000000
-2.340000,-0.900000,0.167631,0.040000,-1753.864681,-332.883384,456.983521,0.881286,-0.000000,0.000000,0.000000
-2.340000,-0.860000,0.160312,0.040000,-1754.088846,296.155056,-429.840328,-94.226283,0.000000,-0.000000,-0.000000
-2.380000,-0.860000,0.120416,0.040000,-1754.929174,863.043271,2612.434667,-648.510177,-0.000000,0.000000,-0.000000
-2.300000,-0.900000,0.206155,0.040000,-1753.796767,-22.779934,33.736917,0.299412,-0.000000,0.000000,0.000000
-2.260000,-0.900000,0.245153,0.040000,-1753.676310,3.306727,-3.521394,-0.275964,0.000000,-0.000000,-0.000000
-2.260000,-0.860000,0.240208,0.040000,-1753.765823,7.023065,-9.138795,-0.785641,0.000000,-0.000000,-0.000000
-2.300000,-0.860000,0.200250,0.040000,-1753.896344,28.446083,-39.811996,-7.672765,0.000000,-0.000000,-0.000000
-2.220000,-0.900000,0.284429,0.040000,-1753.561732,5.240821,-6.379130,-0.801567,0.000000,-0.000000,-0.000000
-2.180000,-0.900000,0.323883,0.040000,-1753.457470,5.150527,-6.454848,-1.387616,0.000000,-0.000000,-0.000000
-2.180000,-0.860000,0.320156,0.040000,-1753.543849,4.854345,-6.107375,-1.043830,0.000000,-0.000000,-0.000000
-2.220000,-0.860000,0.280179,0.040000,-1753.649689,5.139468,-6.428545,-0.612023,0.000000,-0.000000,-0.000000
2.180000,-0.900000,0.323883,0.040000,-1753.446613,5.150475,-6.454797,1.387600,0.000000,-0.000000,0.000000
2.220000,-0.900000,0.284429,0.040000,-1753.550675,5.240768,-6.379079,0.801555,0.000000,-0.000000,0.000000
2.220000,-0.860000,0.280179,0.040000,-1753.638631,5.139417,-6.428493,0.612013,0.000000,-0.000000,0.000000
2.180000,-0.860000,0.320156,0.040000,-1753.532991,4.854295,-6.107326,1.043817,0.000000,-0.000000,0.000000
2.260000,-0.900000,0.245153,0.040000,-1753.665053,3.306687,-3.521362,0.275956,0.000000,-0.000000,0.000000
2.300000,-0.900000,0.206155,0.040000,-1753.785310,-22.779787,33.736683,-0.299416,-0.000000,0.000000,-0.000000
2.300000,-0.860000,0.200250,0.040000,-1753.884886,28.445864,-39.811705,7.672705,0.000000,-0.000000,0.000000
2.260000,-0.860000,0.240208,0.040000,-1753.754565,7.022999,-9.138724,0.785630,0.000000,-0.000000,0.000000
2.340000,-0.900000,0.167631,0.040000,-1753.853024,-332.881024,456.980265,-0.881285,-0.000000,0.000000,-0.000000
2.380000,-0.900000,0.130000,0.040000,-1753.144961,-3142.186889,3004.895933,-1.237788,-0.000000,0.000000,-0.000000
2.380000,-0.860000,0.120416,0.040000,-1754.917310,863.036998,2612.416288,648.505530,-0.000000,0.000000,0.000000
2.340000,-0.860000,0.160312,0.040000,-1754.077187,296.152925,-429.837251,94.225605,0.000000,-0.000000,0.000000
2.420000,-0.900000,0.094340,0.040000,-1742.799148,-26505.744113,113844.626800,-4.742806,-0.000001,0.000002,-0.000000
2.460000,-0.900000,0.064031,0.040000,-1622.931046,-17508.942875,300370.083728,-12.333897,-0.000002,0.000004,-0.000000
2.460000,-0.860000,0.041231,0.040000,-1872.679900,76409.386609,419830.086292,-194.359871,-0.000001,0.000005,-0.000000
2.420000,-0.860000,0.080623,0.040000,-1763.657565,-11527.097530,118205.738833,-789.995309,-0.000001,0.000002,-0.000000
2.500000,-0.900000,0.050000,0.040000,-877.294726,-5407.451026,519903.767668,-20.998737,-0.000003,0.000007,-0.000000
2.500000,-0.860000,0.010000,0.040000,-877.331676,5366.257179,528934.153019,1023.245176,-0.000003,0.000007,0.000000
-2.500000,-0.820000,0.030000,0.040000,-877.371268,-3541.631903,514335.503924,-1951.558085,-0.000003,0.000007,-0.000000
-2.500000,-0.780000,0.030000,0.040000,-877.401242,-3540.299051,514355.067827,1983.450479,-0.000003,0.000007,0.000000
-2.460000,-0.820000,0.050000,0.040000,-1702.099025,11750.629719,338451.063518,203.328701,-0.000002,0.000004,0.000000
-2.420000,-0.820000,0.085440,0.040000,-1750.786625,-21785.127584,116588.698680,989.637581,-0.000001,0.000002,0.000000
-2.420000,-0.780000,0.085440,0.040000,-1750.855148,-21784.519533,116593.174702,-981.775280,-0.000001,0.000002,-0.000000
-2.460000,-0.780000,0.050000,0.040000,-1702.169885,11755.273682,338466.578267,-184.124149,-0.000002,0.000004,-0.000000
-2.380000,-0.820000,0.123693,0.040000,-1753.962970,-2065.010534,4011.069294,2213.538093,-0.000000,0.000000,0.000000
-2.340000,-0.820000,0.162788,0.040000,-1754.083449,-116.832444,185.347783,165.329224,-0.000000,0.000000,0.000000
-2.340000,-0.780000,0.162788,0.040000,-1754.154960,-117.228270,185.752492,-163.553268,-0.000000,0.000000,-0.000000
-2.380000,-0.780000,0.123693,0.040000,-1754.032832,-2065.091272,4011.406727,-2211.001984,-0.000000,0.000000,-0.000000
-2.300000,-0.820000,0.202237,0.040000,-1753.969643,-4.222792,6.956328,13.539398,-0.000000,0.000000,0.000000
-2.260000,-0.820000,0.241868,0.040000,-1753.845678,3.929499,-4.866525,1.041812,0.000000,-0.000000,0.000000
-2.260000,-0.780000,0.241868,0.040000,-1753.918632,3.513090,-4.449439,-0.994003,0.000000,-0.000000,-0.000000
-2.300000,-0.780000,0.202237,0.040000,-1754.042218,-4.653882,7.387484,-12.637190,-0.000000,0.000000,-0.000000
-2.220000,-0.820000,0.281603,0.040000,-1753.729570,4.444002,-5.637605,-0.347743,0.000000,-0.000000,-0.000000
-2.180000,-0.820000,0.321403,0.040000,-1753.622592,4.325477,-5.623107,-0.899232,0.000000,-0.000000,-0.000000
-2.180000,-0.780000,0.321403,0.040000,-1753.694350,4.059961,-5.306991,-0.674615,0.000000,-0.000000,-0.000000
-2.220000,-0.780000,0.281603,0.040000,-1753.802238,4.106092,-5.338209,-0.379557,0.000000,-0.000000,-0.000000
2.180000,-0.820000,0.321403,0.040000,-1753.611733,4.325431,-5.623062,0.899220,0.000000,-0.000000,0.000000
2.220000,-0.820000,0.281603,0.040000,-1753.718511,4.443955,-5.637559,0.347735,0.000000,-0.000000,0.000000
2.220000,-0.780000,0.281603,0.040000,-1753.791178,4.106047,-5.338165,0.379550,0.000000,-0.000000,0.000000
2.180000,-0.780000,0.321403,0.040000,-1753.683490,4.059918,-5.306947,0.674605,0.000000,-0.000000,0.000000
2.260000,-0.820000,0.241868,0.040000,-1753.834419,3.929456,-4.866484,-1.041809,0.000000,-0.000000,-0.000000
2.300000,-0.820000,0.202237,0.040000,-1753.958184,-4.222778,6.956285,-13.539307,-0.000000,0.000000,-0.000000
2.300000,-0.780000,0.202237,0.040000,-1754.030758,-4.653865,7.387438,12.637095,-0.000000,0.000000,0.000000
2.260000,-0.780000,0.241868,0.040000,-1753.907372,3.513049,-4.449401,0.993991,0.000000,-0.000000,0.000000
2.340000,-0.820000,0.162788,0.040000,-1754.071789,-116.831626,185.346467,-165.328049,-0.000000,0.000000,-0.000000
2.380000,-0.820000,0.123693,0.040000,-1753.951112,-2064.995813,4011.040689,-2213.522296,-0.000000,0.000000,-0.000000
2.380000,-0.780000,0.123693,0.040000,-1754.020973,-2065.076554,4011.378120,2210.986194,-0.000000,0.000000,0.000000
2.340000,-0.780000,0.162788,0.040000,-1754.143300,-117.227450,185.751174,163.552095,-0.000000,0.000000,0.000000
2.420000,-0.820000,0.085440,0.040000,-1750.774591,-21784.972185,116587.869252,-989.629410,-0.000001,0.000002,-0.000000
2.460000,-0.820000,0.050000,0.040000,-1702.087139,11750.548174,338448.656116,-203.325920,-0.000002,0.000004,-0.000000
2.460000,-0.780000,0.050000,0.040000,-1702.157998,11755.192060,338464.170623,184.121626,-0.000002,0.000004,0.000000
2.420000,-0.780000,0.085440,0.040000,-1750.843112,-21784.364148,116592.345206,981.767194,-0.000001,0.000002,0.000000
2.500000,-0.820000,0.030000,0.040000,-877.365070,-3541.596162,514331.838802,1951.546593,-0.000003,0.000007,0.000000
2.500000,-0.780000,0.030000,0.040000,-877.395044,-3540.263334,514351.402399,-1983.438531,-0.000003,0.000007,-0.000000
-2.500000,-0.740000,0.010000,0.040000,-877.428212,5364.666840,528993.025462,1054.881995,-0.000003,0.000007,0.000000
-2.500000,-0.700000,0.050000,0.040000,-877.452472,-5409.806177,520000.139756,12.507100,-0.000003,0.000007,0.000000
-2.460000,-0.740000,0.041231,0.040000,-1872.890941,76412.961298,419875.208863,-174.943681,-0.000001,0.000005,-0.000000
-2.420000,-0.740000,0.080623,0.040000,-1763.871908,-11531.063175,118220.191885,-781.797920,-0.000001,0.000002,-0.000000
-2.420000,-0.700000,0.094340,0.040000,-1743.148658,-26512.746272,113867.498450,2.994328,-0.000001,0.000002,0.000000
-2.460000,-0.700000,0.064031,0.040000,-1623.242878,-17514.028821,300426.709501,7.427857,-0.000002,0.000004,0.000000
-2.380000,-0.740000,0.120416,0.040000,-1755.138947,861.432338,2614.262393,651.624005,-0.000000,0.000000,0.000000
-2.340000,-0.740000,0.160312,0.040000,-1754.304042,294.784220,-428.483477,96.048946,0.000000,-0.000000,0.000000
-2.340000,-0.700000,0.167631,0.040000,-1754.225762,-335.233769,459.358280,0.804300,-0.000000,0.000000,0.000000
-2.380000,-0.700000,0.130000,0.040000,-1753.508796,-3145.060294,3007.751037,0.975247,-0.000000,0.000000,0.000000
-2.300000,-0.740000,0.200250,0.040000,-1754.114762,27.124865,-38.490521,8.546481,0.000000,-0.000000,0.000000
-2.260000,-0.740000,0.240208,0.040000,-1753.985351,5.765596,-7.878983,0.786021,0.000000,-0.000000,0.000000
-2.260000,-0.700000,0.245153,0.040000,-1754.044426,1.190789,-1.401243,0.177097,0.000000,-0.000000,0.000000
-2.300000,-0.700000,0.206155,0.040000,-1754.163147,-25.007160,35.968061,0.493292,-0.000000,0.000000,0.000000
-2.220000,-0.740000,0.280179,0.040000,-1753.868317,3.911785,-5.182952,-0.160561,0.000000,-0.000000,-0.000000
-2.180000,-0.740000,0.320156,0.040000,-1753.759698,3.666614,-4.961722,-0.574564,0.000000,-0.000000,-0.000000
-2.180000,-0.700000,0.323883,0.040000,-1753.819140,3.420090,-4.663247,-0.416355,0.000000,-0.000000,-0.000000
-2.220000,-0.700000,0.284429,0.040000,-1753.928204,3.320169,-4.519660,-0.116873,0.000000,-0.000000,-0.000000
2.180000,-0.740000,0.320156,0.040000,-1753.748837,3.666573,-4.961681,0.574555,0.000000,-0.000000,0.000000
2.220000,-0.740000,0.280179,0.040000,-1753.857255,3.911742,-5.182909,0.160555,0.000000,-0.000000,0.000000
2.220000,-0.700000,0.284429,0.040000,-1753.917142,3.320130,-4.519622,0.116868,0.000000,-0.000000,0.000000
2.180000,-0.700000,0.323883,0.040000,-1753.808278,3.420051,-4.663208,0.416348,0.000000,-0.000000,0.000000
2.260000,-0.740000,0.240208,0.040000,-1753.974090,5.765539,-7.878921,-0.786020,0.000000,-0.000000,-0.000000
2.300000,-0.740000,0.200250,0.040000,-1754.103301,27.124656,-38.490240,-8.546424,0.000000,-0.000000,-0.000000
2.300000,-0.700000,0.206155,0.040000,-1754.151685,-25.006997,35.967811,-0.493293,-0.000000,0.000000,-0.000000
2.260000,-0.700000,0.245153,0.040000,-1754.033164,1.190765,-1.401226,-0.177100,0.000000,-0.000000,-0.000000
2.340000,-0.740000,0.160312,0.040000,-1754.292380,294.782099,-428.480411,-96.048264,0.000000,-0.000000,-0.000000
2.380000,-0.740000,0.120416,0.040000,-1755.127079,861.426079,2614.243997,-651.619342,-0.000000,0.000000,-0.000000
2.380000,-0.700000,0.130000,0.040000,-1753.496940,-3145.037830,3007.729515,-0.975245,-0.000000,0.000000,-0.000000
2.340000,-0.700000,0.167631,0.040000,-1754.214100,-335.231391,459.355006,-0.804298,-0.000000,0.000000,-0.000000
2.420000,-0.740000,0.080623,0.040000,-1763.859779,-11530.982084,118219.352022,781.792241,-0.000001,0.000002,0.000000
2.460000,-0.740000,0.041231,0.040000,-1872.877835,76412.414959,419872.224572,174.940915,-0.000001,0.000005,0.000000
2.460000,-0.700000,0.064031,0.040000,-1623.231554,-17513.901892,300424.577428,-7.427751,-0.000002,0.000004,-0.000000
2.420000,-0.700000,0.094340,0.040000,-1743.136677,-26512.557246,113866.689744,-2.994295,-0.000001,0.000002,-0.000000
2.500000,-0.740000,0.010000,0.040000,-877.421936,5364.610111,528989.282973,-1054.877048,-0.000003,0.000007,-0.000000
2.500000,-0.700000,0.050000,0.040000,-877.446290,-5409.751697,519996.427289,-12.506909,-0.000003,0.000007,-0.000000
-2.500000,-0.660000,0.010000,0.040000,-877.474282,5365.535093,529022.238637,-1030.791843,-0.000003,0.000007,-0.000000
-2.500000,-0.620000,0.030000,0.040000,-877.493872,-3542.834303,514409.821539,-1958.592337,-0.000003,0.000007,-0.000000
-2.460000,-0.660000,0.041231,0.040000,-1873.000578,76419.087402,419899.927575,189.937107,-0.000001,0.000005,0.000000
-2.420000,-0.660000,0.080623,0.040000,-1763.976826,-11531.341658,118227.063323,788.372191,-0.000001,0.000002,0.000000
-2.420000,-0.620000,0.085440,0.040000,-1751.062115,-21789.535655,116606.845338,988.205837,-0.000001,0.000002,0.000000
-2.460000,-0.620000,0.050000,0.040000,-1702.355450,11751.738690,338501.096265,199.319449,-0.000002,0.000004,0.000000
-2.380000,-0.660000,0.120416,0.040000,-1755.247019,861.044675,2614.938516,-649.078612,-0.000000,0.000000,-0.000000
-2.340000,-0.660000,0.160312,0.040000,-1754.415164,294.165600,-427.870518,-94.383779,0.000000,-0.000000,-0.000000
-2.340000,-0.620000,0.162788,0.040000,-1754.378227,-118.622730,187.150689,165.185021,-0.000000,0.000000,0.000000
-2.380000,-0.620000,0.123693,0.040000,-1754.249629,-2066.998874,4013.374324,2213.463433,-0.000000,0.000000,0.000000
-2.300000,-0.660000,0.200250,0.040000,-1754.227977,26.480627,-37.846604,-7.563329,0.000000,-0.000000,-0.000000
-2.260000,-0.660000,0.240208,0.040000,-1754.099630,5.140905,-7.253407,-0.445278,0.000000,-0.000000,-0.000000
-2.260000,-0.620000,0.241868,0.040000,-1754.148191,2.253847,-3.188072,1.291726,0.000000,-0.000000,0.000000
-2.300000,-0.620000,0.202237,0.040000,-1754.269682,-5.966570,8.701824,13.588765,-0.000000,0.000000,0.000000
-2.220000,-0.660000,0.280179,0.040000,-1753.982663,3.329095,-4.612020,-0.126016,0.000000,-0.000000,-0.000000
-2.180000,-0.660000,0.320156,0.040000,-1753.873164,3.117558,-4.405033,-0.359721,0.000000,-0.000000,-0.000000
-2.180000,-0.620000,0.321403,0.040000,-1753.922169,2.925136,-4.172740,-0.239087,0.000000,-0.000000,-0.000000
-2.220000,-0.620000,0.281603,0.040000,-1754.031880,2.914265,-4.158360,0.094951,0.000000,-0.000000,0.000000
2.180000,-0.660000,0.320156,0.040000,-1753.862301,3.117522,-4.404996,0.359715,0.000000,-0.000000,0.000000
2.220000,-0.660000,0.280179,0.040000,-1753.971600,3.329056,-4.611982,0.126011,0.000000,-0.000000,0.000000
2.220000,-0.620000,0.281603,0.040000,-1754.020817,2.914229,-4.158325,-0.094954,0.000000,-0.000000,-0.000000
2.180000,-0.620000,0.321403,0.040000,-1753.911306,2.925100,-4.172705,0.239082,0.000000,-0.000000,0.000000
2.260000,-0.660000,0.240208,0.040000,-1754.088368,5.140853,-7.253349,0.445271,0.000000,-0.000000,0.000000
2.300000,-0.660000,0.200250,0.040000,-1754.216514,26.480423,-37.846327,7.563271,0.000000,-0.000000,0.000000
2.300000,-0.620000,0.202237,0.040000,-1754.258219,-5.966543,8.701768,-13.588671,-0.000000,0.000000,-0.000000
2.260000,-0.620000,0.241868,0.040000,-1754.136928,2.253816,-3.188043,-1.291720,0.000000,-0.000000,-0.000000
2.340000,-0.660000,0.160312,0.040000,-1754.403501,294.163484,-427.867456,94.383102,0.000000,-0.000000,0.000000
2.380000,-0.660000,0.120416,0.040000,-1755.235150,861.038417,2614.920115,649.073962,-0.000000,0.000000,0.000000
2.380000,-0.620000,0.123693,0.040000,-1754.237767,-2066.984136,4013.345696,-2213.447632,-0.000000,0.000000,-0.000000
2.340000,-0.620000,0.162788,0.040000,-1754.366563,-118.621898,187.149360,-165.183844,-0.000000,0.000000,-0.000000
2.420000,-0.660000,0.080623,0.040000,-1763.964695,-11531.260569,118226.223350,-788.366437,-0.000001,0.000002,-0.000000
2.460000,-0.660000,0.041231,0.040000,-1872.987469,76418.540953,419896.942871,-189.934128,-0.000001,0.000005,-0.000000
2.460000,-0.620000,0.050000,0.040000,-1702.343560,11751.657117,338498.688050,-199.316713,-0.000002,0.000004,-0.000000
2.420000,-0.620000,0.085440,0.040000,-1751.050077,-21789.380197,116606.015623,-988.197679,-0.000001,0.000002,-0.000000
2.500000,-0.660000,0.010000,0.040000,-877.468006,5365.478346,529018.495659,1030.787260,-0.000003,0.000007,0.000000
2.500000,-0.620000,0.030000,0.040000,-877.487672,-3542.798551,514406.155198,1958.580762,-0.000003,0.000007,0.000000
-2.500000,-0.580000,0.030000,0.040000,-877.511442,-3542.036572,514421.258931,1977.503813,-0.000003,0.000007,0.000000
-2.500000,-0.540000,0.010000,0.040000,-877.527171,5364.622698,529054.446875,1049.528495,-0.000003,0.000007,0.000000
-2.460000,-0.580000,0.050000,0.040000,-1702.397154,11754.484005,338510.161149,-187.818587,-0.000002,0.000004,-0.000000
-2.420000,-0.580000,0.085440,0.040000,-1751.102659,-21789.153857,116609.442508,-983.311667,-0.000001,0.000002,-0.000000
-2.420000,-0.540000,0.080623,0.040000,-1764.096450,-11533.538547,118234.959054,-783.277616,-0.000001,0.000002,-0.000000
-2.460000,-0.540000,0.041231,0.040000,-1873.117070,76420.937586,419924.531309,-178.320638,-0.000001,0.000005,-0.000000
-2.380000,-0.580000,0.123693,0.040000,-1754.291207,-2067.022365,4013.548174,-2211.640174,-0.000000,0.000000,-0.000000
-2.340000,-0.580000,0.162788,0.040000,-1754.421059,-118.834209,187.367315,-163.762451,-0.000000,0.000000,-0.000000
-2.340000,-0.540000,0.160312,0.040000,-1754.544015,293.424767,-427.138085,95.841569,0.000000,-0.000000,0.000000
-2.380000,-0.540000,0.120416,0.040000,-1755.371823,860.173390,2615.936783,651.246205,-0.000000,0.000000,0.000000
-2.300000,-0.580000,0.202237,0.040000,-1754.313457,-6.203122,8.938361,-12.641288,-0.000000,0.000000,-0.000000
-2.260000,-0.580000,0.241868,0.040000,-1754.192534,2.020689,-2.954661,-0.817774,0.000000,-0.000000,-0.000000
-2.260000,-0.540000,0.240208,0.040000,-1754.233033,4.437192,-6.548761,0.902774,0.000000,-0.000000,0.000000
-2.300000,-0.540000,0.200250,0.040000,-1754.359684,25.755472,-37.121466,8.503957,0.000000,-0.000000,0.000000
-2.220000,-0.580000,0.281603,0.040000,-1754.076419,2.660193,-3.886535,-0.056940,0.000000,-0.000000,-0.000000
-2.180000,-0.580000,0.321403,0.040000,-1753.966546,2.654060,-3.929402,-0.211556,0.000000,-0.000000,-0.000000
-2.180000,-0.540000,0.320156,0.040000,-1754.006633,2.535822,-3.791360,-0.127881,0.000000,-0.000000,-0.000000
-2.220000,-0.540000,0.280179,0.040000,-1754.116637,2.686304,-3.995350,0.136811,0.000000,-0.000000,0.000000
2.180000,-0.580000,0.321403,0.040000,-1753.955682,2.654027,-3.929368,0.211551,0.000000,-0.000000,0.000000
2.220000,-0.580000,0.281603,0.040000,-1754.065355,2.660159,-3.886501,0.056936,0.000000,-0.000000,0.000000
2.220000,-0.540000,0.280179,0.040000,-1754.105573,2.686271,-3.995315,-0.136813,0.000000,-0.000000,-0.000000
2.180000,-0.540000,0.320156,0.040000,-1753.995768,2.535789,-3.791327,0.127877,0.000000,-0.000000,0.000000
2.260000,-0.580000,0.241868,0.040000,-1754.181270,2.020659,-2.954633,0.817765,0.000000,-0.000000,0.000000
2.300000,-0.580000,0.202237,0.040000,-1754.301993,-6.203093,8.938304,12.641194,-0.000000,0.000000,0.000000
2.300000,-0.540000,0.200250,0.040000,-1754.348219,25.755272,-37.121195,-8.503899,0.000000,-0.000000,-0.000000
2.260000,-0.540000,0.240208,0.040000,-1754.221769,4.437145,-6.548708,-0.902771,0.000000,-0.000000,-0.000000
2.340000,-0.580000,0.162788,0.040000,-1754.409394,-118.833377,187.365984,163.761278,-0.000000,0.000000,0.000000
2.380000,-0.580000,0.123693,0.040000,-1754.279344,-2067.007630,4013.519546,2211.624378,-0.000000,0.000000,0.000000
2.380000,-0.540000,0.120416,0.040000,-1755.359952,860.167139,2615.918371,-651.241543,-0.000000,0.000000,-0.000000
2.340000,-0.540000,0.160312,0.040000,-1754.532349,293.422656,-427.135029,-95.840887,0.000000,-0.000000,-0.000000
2.420000,-0.580000,0.085440,0.040000,-1751.090620,-21788.998409,116608.612749,983.303566,-0.000001,0.000002,0.000000
2.460000,-0.580000,0.050000,0.040000,-1702.385263,11754.402380,338507.752772,187.816022,-0.000002,0.000004,0.000000
2.460000,-0.540000,0.041231,0.040000,-1873.103960,76420.391097,419921.546167,178.317832,-0.000001,0.000005,0.000000
2.420000,-0.540000,0.080623,0.040000,-1764.084318,-11533.457425,118234.118946,783.271921,-0.000001,0.000002,0.000000
2.500000,-0.580000,0.030000,0.040000,-877.505242,-3542.000836,514417.592386,-1977.491934,-0.000003,0.000007,-0.000000
2.500000,-0.540000,0.010000,0.040000,-877.520894,5364.565963,529050.703322,-1049.523613,-0.000003,0.000007,-0.000000
-2.500000,-0.500000,0.050000,0.040000,-877.541216,-5411.070327,520054.221772,7.288264,-0.000003,0.000007,0.000000
-2.500000,-0.460000,0.010000,0.040000,-877.553715,5365.141501,529071.244621,-1035.490347,-0.000003,0.000007,-0.000000
-2.460000,-0.500000,0.064031,0.040000,-1623.419666,-17516.816521,300458.460857,4.368432,-0.000002,0.000004,0.000000
-2.420000,-0.500000,0.094340,0.040000,-1743.348186,-26516.606680,113880.277956,1.824835,-0.000001,0.000002,0.000000
-2.420000,-0.460000,0.080623,0.040000,-1764.157450,-11533.670577,118238.888840,787.264705,-0.000001,0.000002,0.000000
-2.460000,-0.460000,0.041231,0.040000,-1873.180491,76424.493555,419938.741172,187.133983,-0.000001,0.000005,0.000000
-2.380000,-0.500000,0.130000,0.040000,-1753.718058,-3146.606743,3009.286645,0.675246,-0.000000,0.000000,0.000000
-2.340000,-0.500000,0.167631,0.040000,-1754.441820,-336.503202,460.641573,0.589052,-0.000000,0.000000,0.000000
-2.340000,-0.460000,0.160312,0.040000,-1754.609315,293.091255,-426.807906,-94.628810,0.000000,-0.000000,-0.000000
-2.380000,-0.460000,0.120416,0.040000,-1755.434981,859.976476,2616.299837,-649.551524,-0.000000,0.000000,-0.000000
-2.300000,-0.500000,0.206155,0.040000,-1754.383947,-26.227495,37.190400,0.420108,-0.000000,0.000000,0.000000
-2.260000,-0.500000,0.245153,0.040000,-1754.268016,0.008118,-0.216857,0.245558,0.000000,-0.000000,0.000000
-2.260000,-0.460000,0.240208,0.040000,-1754.301022,4.089757,-6.200984,-0.416321,0.000000,-0.000000,-0.000000
-2.300000,-0.460000,0.200250,0.040000,-1754.426609,25.402475,-36.768721,-7.663084,0.000000,-0.000000,-0.000000
-2.220000,-0.500000,0.284429,0.040000,-1754.152693,2.157686,-3.347299,0.093314,0.000000,-0.000000,0.000000
-2.180000,-0.500000,0.323883,0.040000,-1754.042720,2.285465,-3.553161,-0.107160,0.000000,-0.000000,-0.000000
-2.180000,-0.460000,0.320156,0.040000,-1754.075100,2.208089,-3.465621,-0.064664,0.000000,-0.000000,-0.000000
-2.220000,-0.460000,0.280179,0.040000,-1754.185133,2.342680,-3.649981,0.051233,0.000000,-0.000000,0.000000
2.180000,-0.500000,0.323883,0.040000,-1754.031855,2.285434,-3.553130,0.107157,0.000000,-0.000000,0.000000
2.220000,-0.500000,0.284429,0.040000,-1754.141628,2.157656,-3.347269,-0.093316,0.000000,-0.000000,-0.000000
2.220000,-0.460000,0.280179,0.040000,-1754.174068,2.342648,-3.649949,-0.051235,0.000000,-0.000000,-0.000000
2.180000,-0.460000,0.320156,0.040000,-1754.064235,2.208059,-3.465591,0.064661,0.000000,-0.000000,0.000000
2.260000,-0.500000,0.245153,0.040000,-1754.256750,0.008103,-0.216850,-0.245558,0.000000,-0.000000,-0.000000
2.300000,-0.500000,0.206155,0.040000,-1754.372481,-26.227323,37.190141,-0.420107,-0.000000,0.000000,-0.000000
2.300000,-0.460000,0.200250,0.040000,-1754.415143,25.402279,-36.768452,7.663027,0.000000,-0.000000,0.000000
2.260000,-0.460000,0.240208,0.040000,-1754.289756,4.089713,-6.200934,0.416316,0.000000,-0.000000,0.000000
2.340000,-0.500000,0.167631,0.040000,-1754.430154,-336.500814,460.638288,-0.589050,-0.000000,0.000000,-0.000000
2.380000,-0.500000,0.130000,0.040000,-1753.706199,-3146.584264,3009.265108,-0.675245,-0.000000,0.000000,-0.000000
2.380000,-0.460000,0.120416,0.040000,-1755.423109,859.970225,2616.281422,649.546871,-0.000000,0.000000,0.000000
2.340000,-0.460000,0.160312,0.040000,-1754.597648,293.089146,-426.804851,94.628132,0.000000,-0.000000,0.000000
2.420000,-0.500000,0.094340,0.040000,-1743.336201,-26516.417597,113879.469032,-1.824814,-0.000001,0.000002,-0.000000
2.460000,-0.500000,0.064031,0.040000,-1623.408339,-17516.689552,300456.328226,-4.368364,-0.000002,0.000004,-0.000000
2.460000,-0.460000,0.041231,0.040000,-1873.167380,76423.946994,419935.755762,-187.131038,-0.000001,0.000005,-0.000000
2.420000,-0.460000,0.080623,0.040000,-1764.145316,-11533.589457,118238.048661,-787.258962,-0.000001,0.000002,-0.000000
2.500000,-0.500000,0.050000,0.040000,-877.535032,-5411.015832,520050.508345,-7.288140,-0.000003,0.000007,-0.000000
2.500000,-0.460000,0.010000,0.040000,-877.547437,5365.084753,529067.500751,1035.485701,-0.000003,0.000007,0.000000
-2.500000,-0.420000,0.030000,0.040000,-877.564789,-3543.459637,514452.720860,-1963.040632,-0.000003,0.000007,-0.000000
-2.500000,-0.380000,0.030000,0.040000,-877.574547,-3543.012017,514459.063956,1973.656141,-0.000003,0.000007,0.000000
-2.460000,-0.420000,0.050000,0.040000,-1702.504533,11752.501266,338529.976099,196.739652,-0.000002,0.000004,0.000000
-2.420000,-0.420000,0.085440,0.040000,-1751.222959,-21791.985742,116617.256037,987.215598,-0.000001,0.000002,0.000000
-2.420000,-0.380000,0.085440,0.040000,-1751.245664,-21791.766510,116618.690818,-984.365126,-0.000001,0.000002,-0.000000
-2.460000,-0.380000,0.050000,0.040000,-1702.527782,11754.032381,338535.001896,-190.232051,-0.000002,0.000004,-0.000000
-2.380000,-0.420000,0.123693,0.040000,-1754.417857,-2068.067426,4014.627611,2213.290829,-0.000000,0.000000,0.000000
-2.340000,-0.420000,0.162788,0.040000,-1754.552209,-119.590583,188.125663,164.962185,-0.000000,0.000000,0.000000
-2.340000,-0.380000,0.162788,0.040000,-1754.576420,-119.702084,188.240002,-164.012126,-0.000000,0.000000,-0.000000
-2.380000,-0.380000,0.123693,0.040000,-1754.441249,-2068.073643,4014.717296,-2212.131177,-0.000000,0.000000,-0.000000
-2.300000,-0.420000,0.202237,0.040000,-1754.447875,-6.922005,9.658058,13.471997,-0.000000,0.000000,0.000000
-2.260000,-0.420000,0.241868,0.040000,-1754.329067,1.320905,-2.253998,1.288865,0.000000,-0.000000,0.000000
-2.260000,-0.380000,0.241868,0.040000,-1754.354390,1.194627,-2.127626,-0.846832,0.000000,-0.000000,-0.000000
-2.300000,-0.380000,0.202237,0.040000,-1754.472742,-7.048662,9.784688,-12.774997,-0.000000,0.000000,-0.000000
-2.220000,-0.420000,0.281603,0.040000,-1754.213948,1.982079,-3.212917,0.196165,0.000000,-0.000000,0.000000
-2.180000,-0.420000,0.321403,0.040000,-1754.103993,2.015975,-3.284930,-0.041404,0.000000,-0.000000,-0.000000
-2.180000,-0.380000,0.321403,0.040000,-1754.129626,1.930460,-3.182923,-0.026588,0.000000,-0.000000,-0.000000
-2.220000,-0.380000,0.281603,0.040000,-1754.239524,1.876210,-3.118938,0.006976,0.000000,-0.000000,0.000000
2.180000,-0.420000,0.321403,0.040000,-1754.093127,2.015946,-3.284901,0.041401,0.000000,-0.000000,0.000000
2.220000,-0.420000,0.281603,0.040000,-1754.202882,1.982051,-3.212888,-0.196166,0.000000,-0.000000,-0.000000
2.220000,-0.380000,0.281603,0.040000,-1754.228458,1.876182,-3.118910,-0.006978,0.000000,-0.000000,-0.000000
2.180000,-0.380000,0.321403,0.040000,-1754.118760,1.930431,-3.182894,0.026586,0.000000,-0.000000,0.000000
2.260000,-0.420000,0.241868,0.040000,-1754.317801,1.320881,-2.253976,-1.288858,0.000000,-0.000000,-0.000000
2.300000,-0.420000,0.202237,0.040000,-1754.436409,-6.921971,9.657995,-13.471903,-0.000000,0.000000,-0.000000
2.300000,-0.380000,0.202237,0.040000,-1754.461275,-7.048627,9.784624,12.774904,-0.000000,0.000000,0.000000
2.260000,-0.380000,0.241868,0.040000,-1754.343123,1.194603,-2.127605,0.846824,0.000000,-0.000000,0.000000
2.340000,-0.420000,0.162788,0.040000,-1754.540543,-119.589744,188.124326,-164.961009,-0.000000,0.000000,-0.000000
2.380000,-0.420000,0.123693,0.040000,-1754.405992,-2068.052678,4014.598971,-2213.275026,-0.000000,0.000000,-0.000000
2.380000,-0.380000,0.123693,0.040000,-1754.429383,-2068.058897,4014.688656,2212.115377,-0.000000,0.000000,0.000000
2.340000,-0.380000,0.162788,0.040000,-1754.564753,-119.701245,188.238665,164.010953,-0.000000,0.000000,0.000000
2.420000,-0.420000,0.085440,0.040000,-1751.210918,-21791.830248,116616.426137,-987.207449,-0.000001,0.000002,-0.000000
2.460000,-0.420000,0.050000,0.040000,-1702.492640,11752.419671,338527.567351,-196.736949,-0.000002,0.000004,-0.000000
2.460000,-0.380000,0.050000,0.040000,-1702.515888,11753.950754,338532.593049,190.229454,-0.000002,0.000004,0.000000
2.420000,-0.380000,0.085440,0.040000,-1751.233622,-21791.611022,116617.860890,984.357012,-0.000001,0.000002,0.000000
2.500000,-0.420000,0.030000,0.040000,-877.558588,-3543.423879,514449.053722,1963.028995,-0.000003,0.000007,0.000000
2.500000,-0.380000,0.030000,0.040000,-877.568345,-3542.976269,514455.396691,-1973.644316,-0.000003,0.000007,-0.000000
-2.500000,-0.340000,0.010000,0.040000,-877.583080,5364.649672,529089.100867,1046.002396,-0.000003,0.000007,0.000000
-2.500000,-0.300000,0.050000,0.040000,-877.590471,-5411.748721,520084.190324,3.800396,-0.000003,0.000007,0.000000
-2.460000,-0.340000,0.041231,0.040000,-1873.245441,76425.542178,419952.377310,-180.565165,-0.000001,0.000005,-0.000000
-2.420000,-0.340000,0.080623,0.040000,-1764.224439,-11534.867850,118243.249819,-784.302898,-0.000001,0.000002,-0.000000
-2.420000,-0.300000,0.094340,0.040000,-1743.459880,-26518.712658,113887.331472,0.983120,-0.000001,0.000002,0.000000
-2.460000,-0.300000,0.064031,0.040000,-1623.518231,-17518.331037,300476.039709,2.294093,-0.000002,0.000004,0.000000
-2.380000,-0.340000,0.120416,0.040000,-1755.505184,859.513540,2616.833258,650.903890,-0.000000,0.000000,0.000000
-2.340000,-0.340000,0.160312,0.040000,-1754.682135,292.698005,-426.419386,95.600578,0.000000,-0.000000,0.000000
-2.340000,-0.300000,0.167631,0.040000,-1754.563879,-337.176722,461.322655,0.351264,-0.000000,0.000000,0.000000
-2.380000,-0.300000,0.130000,0.040000,-1753.835723,-3147.429754,3010.103442,0.392780,-0.000000,0.000000,0.000000
-2.300000,-0.340000,0.200250,0.040000,-1754.501414,25.014193,-36.380507,8.359077,0.000000,-0.000000,0.000000
-2.260000,-0.340000,0.240208,0.040000,-1754.377191,3.708795,-5.819647,0.852541,0.000000,-0.000000,0.000000
-2.260000,-0.300000,0.245153,0.040000,-1754.395642,-0.631503,0.423472,0.178124,-0.000000,0.000000,0.000000
-2.300000,-0.300000,0.206155,0.040000,-1754.509312,-26.880139,37.844057,0.266486,-0.000000,0.000000,0.000000
-2.220000,-0.340000,0.280179,0.040000,-1754.262057,1.956006,-3.254604,0.145504,0.000000,-0.000000,0.000000
-2.180000,-0.340000,0.320156,0.040000,-1754.152188,1.818482,-3.090939,-0.010500,0.000000,-0.000000,-0.000000
-2.180000,-0.300000,0.323883,0.040000,-1754.171831,1.721442,-2.970441,0.000905,0.000000,-0.000000,0.000000
-2.220000,-0.300000,0.284429,0.040000,-1754.281557,1.554804,-2.759999,0.081649,0.000000,-0.000000,0.000000
2.180000,-0.340000,0.320156,0.040000,-1754.141321,1.818454,-3.090912,0.010498,0.000000,-0.000000,0.000000
2.220000,-0.340000,0.280179,0.040000,-1754.250990,1.955977,-3.254575,-0.145505,0.000000,-0.000000,-0.000000
2.220000,-0.300000,0.284429,0.040000,-1754.270490,1.554779,-2.759974,-0.081649,0.000000,-0.000000,-0.000000
2.180000,-0.300000,0.323883,0.040000,-1754.160964,1.721415,-2.970414,-0.000906,0.000000,-0.000000,-0.000000
2.260000,-0.340000,0.240208,0.040000,-1754.365923,3.708754,-5.819600,-0.852536,0.000000,-0.000000,-0.000000
2.300000,-0.340000,0.200250,0.040000,-1754.489947,25.014000,-36.380241,-8.359019,0.000000,-0.000000,-0.000000
2.300000,-0.300000,0.206155,0.040000,-1754.497844,-26.879962,37.843793,-0.266486,-0.000000,0.000000,-0.000000
2.260000,-0.300000,0.245153,0.040000,-1754.384374,-0.631513,0.423475,-0.178124,-0.000000,0.000000,-0.000000
2.340000,-0.340000,0.160312,0.040000,-1754.670467,292.695899,-426.416334,-95.599896,0.000000,-0.000000,-0.000000
2.380000,-0.340000,0.120416,0.040000,-1755.493310,859.507293,2616.814838,-650.899229,-0.000000,0.000000,-0.000000
2.380000,-0.300000,0.130000,0.040000,-1753.823861,-3147.407267,3010.081896,-0.392779,-0.000000,0.000000,-0.000000
2.340000,-0.300000,0.167631,0.040000,-1754.552212,-337.174328,461.319366,-0.351263,-0.000000,0.000000,-0.000000
2.420000,-0.340000,0.080623,0.040000,-1764.212304,-11534.786711,118242.409557,784.297191,-0.000001,0.000002,0.000000
2.460000,-0.340000,0.041231,0.040000,-1873.232328,76424.995592,419949.391630,180.562328,-0.000001,0.000005,0.000000
2.460000,-0.300000,0.064031,0.040000,-1623.506902,-17518.204045,300473.906733,-2.294054,-0.000002,0.000004,-0.000000
2.420000,-0.300000,0.094340,0.040000,-1743.447893,-26518.523540,113886.522415,-0.983108,-0.000001,0.000002,-0.000000
2.500000,-0.340000,0.010000,0.040000,-877.576802,5364.592931,529085.356642,-1045.997566,-0.000003,0.000007,-0.000000
2.500000,-0.300000,0.050000,0.040000,-877.584286,-5411.694217,520080.476305,-3.800326,-0.000003,0.000007,-0.000000
-2.500000,-0.260000,0.010000,0.040000,-877.596788,5364.922094,529097.767688,-1038.681115,-0.000003,0.000007,-0.000000
-2.500000,-0.220000,0.030000,0.040000,-877.602092,-3543.737813,514475.291483,-1966.119653,-0.000003,0.000007,-0.000000
-2.460000,-0.260000,0.041231,0.040000,-1873.278308,76427.385036,419959.708030,185.192137,-0.000001,0.000005,0.000000
-2.420000,-0.260000,0.080623,0.040000,-1764.256181,-11534.929095,118245.272168,786.443388,-0.000001,0.000002,0.000000
-2.420000,-0.220000,0.085440,0.040000,-1751.308259,-21793.214764,116622.710638,986.462551,-0.000001,0.000002,0.000000
-2.460000,-0.220000,0.050000,0.040000,-1702.583455,11753.021580,338545.217338,194.912513,-0.000002,0.000004,0.000000
-2.380000,-0.260000,0.120416,0.040000,-1755.538176,859.418310,2617.014273,-649.940224,-0.000000,0.000000,-0.000000
-2.340000,-0.260000,0.160312,0.040000,-1754.716379,292.531339,-426.254462,-94.879622,0.000000,-0.000000,-0.000000
-2.340000,-0.220000,0.162788,0.040000,-1754.645185,-120.081214,188.620102,164.727949,-0.000000,0.000000,0.000000
-2.380000,-0.220000,0.123693,0.040000,-1754.507395,-2068.600109,4015.261464,2213.073178,-0.000000,0.000000,0.000000
-2.300000,-0.260000,0.200250,0.040000,-1754.536653,24.836237,-36.202699,-7.825072,0.000000,-0.000000,-0.000000
-2.260000,-0.260000,0.240208,0.040000,-1754.413140,3.532195,-5.642919,-0.497870,0.000000,-0.000000,-0.000000
-2.260000,-0.220000,0.241868,0.040000,-1754.426572,0.839132,-1.771778,1.196100,0.000000,-0.000000,0.000000
-2.300000,-0.220000,0.202237,0.040000,-1754.543506,-7.410922,10.147327,13.305860,-0.000000,0.000000,0.000000
-2.220000,-0.260000,0.280179,0.040000,-1754.298436,1.791094,-3.094524,0.017992,0.000000,-0.000000,0.000000
-2.180000,-0.260000,0.320156,0.040000,-1754.188720,1.656274,-2.925642,-0.000775,0.000000,-0.000000,-0.000000
-2.180000,-0.220000,0.321403,0.040000,-1754.202956,1.589751,-2.843350,0.017071,0.000000,-0.000000,0.000000
-2.220000,-0.220000,0.281603,0.040000,-1754.312557,1.535139,-2.781718,0.165319,0.000000,-0.000000,0.000000
2.180000,-0.260000,0.320156,0.040000,-1754.177853,1.656248,-2.925615,0.000774,0.000000,-0.000000,0.000000
2.220000,-0.260000,0.280179,0.040000,-1754.287368,1.791067,-3.094496,-0.017993,0.000000,-0.000000,-0.000000
2.220000,-0.220000,0.281603,0.040000,-1754.301489,1.535114,-2.781692,-0.165318,0.000000,-0.000000,-0.000000
2.180000,-0.220000,0.321403,0.040000,-1754.192088,1.589725,-2.843325,-0.017072,0.000000,-0.000000,-0.000000
2.260000,-0.260000,0.240208,0.040000,-1754.401873,3.532154,-5.642873,0.497865,0.000000,-0.000000,0.000000
2.300000,-0.260000,0.200250,0.040000,-1754.525185,24.836044,-36.202435,7.825015,0.000000,-0.000000,0.000000
2.300000,-0.220000,0.202237,0.040000,-1754.532038,-7.410884,10.147260,-13.305766,-0.000000,0.000000,-0.000000
2.260000,-0.220000,0.241868,0.040000,-1754.415304,0.839112,-1.771759,-1.196092,0.000000,-0.000000,-0.000000
2.340000,-0.260000,0.160312,0.040000,-1754.704710,292.529234,-426.251411,94.878943,0.000000,-0.000000,0.000000
2.380000,-0.260000,0.120416,0.040000,-1755.526302,859.412063,2616.995850,649.935568,-0.000000,0.000000,0.000000
2.380000,-0.220000,0.123693,0.040000,-1754.495529,-2068.585357,4015.232817,-2213.057374,-0.000000,0.000000,-0.000000
2.340000,-0.220000,0.162788,0.040000,-1754.633517,-120.080371,188.618761,-164.726773,-0.000000,0.000000,-0.000000
2.420000,-0.260000,0.080623,0.040000,-1764.244045,-11534.847957,118244.431866,-786.437654,-0.000001,0.000002,-0.000000
2.460000,-0.260000,0.041231,0.040000,-1873.265195,76426.838409,419956.722198,-185.189221,-0.000001,0.000005,-0.000000
2.460000,-0.220000,0.050000,0.040000,-1702.571560,11752.939970,338542.808281,-194.909838,-0.000002,0.000004,-0.000000
2.420000,-0.220000,0.085440,0.040000,-1751.296216,-21793.059250,116621.880631,-986.454411,-0.000001,0.000002,-0.000000
2.500000,-0.260000,0.010000,0.040000,-877.590510,5364.865346,529094.023283,1038.676418,-0.000003,0.000007,0.000000
2.500000,-0.220000,0.030000,0.040000,-877.595890,-3543.702052,514471.623883,1966.107965,-0.000003,0.000007,0.000000
-2.500000,-0.180000,0.030000,0.040000,-877.606432,-3543.537927,514478.111188,1970.880866,-0.000003,0.000007,0.000000
-2.500000,-0.140000,0.010000,0.040000,-877.609848,5364.705932,529105.704256,1043.395189,-0.000003,0.000007,0.000000
-2.460000,-0.180000,0.050000,0.040000,-1702.593826,11753.703707,338547.451197,-191.977050,-0.000002,0.000004,-0.000000
-2.420000,-0.180000,0.085440,0.040000,-1751.318422,-21793.116006,116623.347471,-985.151594,-0.000001,0.000002,-0.000000
-2.420000,-0.140000,0.080623,0.040000,-1764.286169,-11535.457636,118247.207626,-785.082886,-0.000001,0.000002,-0.000000
-2.460000,-0.140000,0.041231,0.040000,-1873.307289,76427.855125,419965.768151,-182.229969,-0.000001,0.000005,-0.000000
-2.380000,-0.180000,0.123693,0.040000,-1754.517900,-2068.601706,4015.300178,-2212.511719,-0.000000,0.000000,-0.000000
-2.340000,-0.180000,0.162788,0.040000,-1754.656091,-120.129826,188.669971,-164.257527,-0.000000,0.000000,-0.000000
-2.340000,-0.140000,0.160312,0.040000,-1754.749180,292.359450,-426.084692,95.360158,0.000000,-0.000000,0.000000
-2.380000,-0.140000,0.120416,0.040000,-1755.569700,859.216009,2617.247913,650.587706,-0.000000,0.000000,0.000000
-2.300000,-0.180000,0.202237,0.040000,-1754.554743,-7.466540,10.202928,-12.946266,-0.000000,0.000000,-0.000000
-2.260000,-0.180000,0.241868,0.040000,-1754.438052,0.783355,-1.715970,-0.948783,0.000000,-0.000000,-0.000000
-2.260000,-0.140000,0.240208,0.040000,-1754.447669,3.363972,-5.474563,0.743328,0.000000,-0.000000,0.000000
-2.300000,-0.140000,0.200250,0.040000,-1754.570454,24.665755,-36.032262,8.184822,0.000000,-0.000000,0.000000
-2.220000,-0.180000,0.281603,0.040000,-1754.324190,1.472980,-2.714878,-0.023452,0.000000,-0.000000,-0.000000
-2.180000,-0.180000,0.321403,0.040000,-1754.214655,1.521846,-2.782501,0.004181,0.000000,-0.000000,0.000000
-2.180000,-0.140000,0.320156,0.040000,-1754.223903,1.511614,-2.773210,0.016390,0.000000,-0.000000,0.000000
-2.220000,-0.140000,0.280179,0.040000,-1754.333423,1.634352,-2.943691,0.120113,0.000000,-0.000000,0.000000
2.180000,-0.180000,0.321403,0.040000,-1754.203788,1.521821,-2.782476,-0.004182,0.000000,-0.000000,-0.000000
2.220000,-0.180000,0.281603,0.040000,-1754.313122,1.472955,-2.714853,0.023451,0.000000,-0.000000,0.000000
2.220000,-0.140000,0.280179,0.040000,-1754.322355,1.634326,-2.943665,-0.120113,0.000000,-0.000000,-0.000000
2.180000,-0.140000,0.320156,0.040000,-1754.213035,1.511589,-2.773185,-0.016390,0.000000,-0.000000,-0.000000
2.260000,-0.180000,0.241868,0.040000,-1754.426784,0.783335,-1.715952,0.948776,0.000000,-0.000000,0.000000
2.300000,-0.180000,0.202237,0.040000,-1754.543275,-7.466501,10.202861,12.946173,-0.000000,0.000000,0.000000
2.300000,-0.140000,0.200250,0.040000,-1754.558985,24.665564,-36.031998,-8.184764,0.000000,-0.000000,-0.000000
2.260000,-0.140000,0.240208,0.040000,-1754.436401,3.363933,-5.474518,-0.743323,0.000000,-0.000000,-0.000000
2.340000,-0.180000,0.162788,0.040000,-1754.644423,-120.128983,188.668630,164.256353,-0.000000,0.000000,0.000000
2.380000,-0.180000,0.123693,0.040000,-1754.506033,-2068.586955,4015.271531,2212.495917,-0.000000,0.000000,0.000000
2.380000,-0.140000,0.120416,0.040000,-1755.557826,859.209764,2617.229488,-650.583047,-0.000000,0.000000,-0.000000
2.340000,-0.140000,0.160312,0.040000,-1754.737510,292.357347,-426.081643,-95.359477,0.000000,-0.000000,-0.000000
2.420000,-0.180000,0.085440,0.040000,-1751.306379,-21792.960495,116622.517451,985.143471,-0.000001,0.000002,0.000000
2.460000,-0.180000,0.050000,0.040000,-1702.581932,11753.622082,338545.042092,191.974425,-0.000002,0.000004,0.000000
2.460000,-0.140000,0.041231,0.040000,-1873.294175,76427.308485,419962.782190,182.227104,-0.000001,0.000005,0.000000
2.420000,-0.140000,0.080623,0.040000,-1764.274033,-11535.376489,118246.367284,785.077170,-0.000001,0.000002,0.000000
2.500000,-0.180000,0.030000,0.040000,-877.600230,-3543.502171,514474.443528,-1970.869088,-0.000003,0.000007,-0.000000
2.500000,-0.140000,0.010000,0.040000,-877.603569,5364.649187,529101.959681,-1043.390404,-0.000003,0.000007,-0.000000
-2.500000,-0.100000,0.050000,0.040000,-877.612373,-5412.046298,520097.507877,1.168121,-0.000003,0.000007,0.000000
-2.500000,-0.060000,0.010000,0.040000,-877.614030,5364.789186,529108.347842,-1041.144264,-0.000003,0.000007,-0.000000
-2.460000,-0.100000,0.064031,0.040000,-1623.562217,-17518.998717,300483.848715,0.708668,-0.000002,0.000004,0.000000
-2.420000,-0.100000,0.094340,0.040000,-1743.509873,-26519.642669,113890.461006,0.308830,-0.000001,0.000002,0.000000
-2.420000,-0.060000,0.080623,0.040000,-1764.295908,-11535.476108,118247.824336,785.753720,-0.000001,0.000002,0.000000
-2.460000,-0.060000,0.041231,0.040000,-1873.317343,76428.417516,419968.004171,183.659118,-0.000001,0.000005,0.000000
-2.380000,-0.100000,0.130000,0.040000,-1753.888550,-3147.789589,3010.460472,0.128831,-0.000000,0.000000,0.000000
-2.340000,-0.100000,0.167631,0.040000,-1754.618850,-337.470994,461.620262,0.116207,-0.000000,0.000000,0.000000
-2.340000,-0.060000,0.160312,0.040000,-1754.759740,292.308632,-426.034408,-95.122053,0.000000,-0.000000,-0.000000
-2.380000,-0.060000,0.120416,0.040000,-1755.579850,859.187101,2617.302987,-650.275664,-0.000000,0.000000,-0.000000
-2.300000,-0.100000,0.206155,0.040000,-1754.565950,-27.166495,38.130840,0.090316,-0.000000,0.000000,0.000000
-2.260000,-0.100000,0.245153,0.040000,-1754.453488,-0.913775,0.706002,0.063244,-0.000000,0.000000,0.000000
-2.260000,-0.060000,0.240208,0.040000,-1754.458807,3.309769,-5.420328,-0.617216,0.000000,-0.000000,-0.000000
-2.300000,-0.060000,0.200250,0.040000,-1754.581347,24.611333,-35.977888,-8.003785,0.000000,-0.000000,-0.000000
-2.220000,-0.100000,0.284429,0.040000,-1754.340162,1.271339,-2.472936,0.051948,0.000000,-0.000000,0.000000
-2.180000,-0.100000,0.323883,0.040000,-1754.230753,1.438545,-2.694121,0.009436,0.000000,-0.000000,0.000000
-2.180000,-0.060000,0.320156,0.040000,-1754.235275,1.455967,-2.719630,0.003318,0.000000,-0.000000,0.000000
-2.220000,-0.060000,0.280179,0.040000,-1754.344721,1.574290,-2.880309,-0.023680,0.000000,-0.000000,-0.000000
2.180000,-0.100000,0.323883,0.040000,-1754.219884,1.438520,-2.694096,-0.009436,0.000000,-0.000000,-0.000000
2.220000,-0.100000,0.284429,0.040000,-1754.329094,1.271315,-2.472913,-0.051949,0.000000,-0.000000,-0.000000
2.220000,-0.060000,0.280179,0.040000,-1754.333652,1.574264,-2.880283,0.023680,0.000000,-0.000000,0.000000
2.180000,-0.060000,0.320156,0.040000,-1754.224406,1.455942,-2.719606,-0.003318,0.000000,-0.000000,-0.000000
2.260000,-0.100000,0.245153,0.040000,-1754.442220,-0.913783,0.706003,-0.063244,-0.000000,0.000000,-0.000000
2.300000,-0.100000,0.206155,0.040000,-1754.554481,-27.166316,38.130573,-0.090316,-0.000000,0.000000,-0.000000
2.300000,-0.060000,0.200250,0.040000,-1754.569878,24.611142,-35.977625,8.003728,0.000000,-0.000000,0.000000
2.260000,-0.060000,0.240208,0.040000,-1754.447539,3.309731,-5.420283,0.617211,0.000000,-0.000000,0.000000
2.340000,-0.100000,0.167631,0.040000,-1754.607182,-337.468598,461.616969,-0.116206,-0.000000,0.000000,-0.000000
2.380000,-0.100000,0.130000,0.040000,-1753.876687,-3147.767098,3010.438922,-0.128831,-0.000000,0.000000,-0.000000
2.380000,-0.060000,0.120416,0.040000,-1755.567975,859.180856,2617.284562,650.271007,-0.000000,0.000000,0.000000
2.340000,-0.060000,0.160312,0.040000,-1754.748071,292.306529,-426.031359,95.121373,0.000000,-0.000000,0.000000
2.420000,-0.100000,0.094340,0.040000,-1743.497885,-26519.453535,113889.651885,-0.308826,-0.000001,0.000002,-0.000000
2.460000,-0.100000,0.064031,0.040000,-1623.550887,-17518.871714,300481.715575,-0.708655,-0.000002,0.000004,-0.000000
2.460000,-0.060000,0.041231,0.040000,-1873.304229,76427.870863,419965.018161,-183.656228,-0.000001,0.000005,-0.000000
2.420000,-0.060000,0.080623,0.040000,-1764.283772,-11535.394961,118246.983981,-785.747995,-0.000001,0.000002,-0.000000
2.500000,-0.100000,0.050000,0.040000,-877.606187,-5411.991790,520093.793574,-1.168099,-0.000003,0.000007,-0.000000
2.500000,-0.060000,0.010000,0.040000,-877.607751,5364.732439,529104.603209,1041.139522,-0.000003,0.000007,0.000000
-2.500000,-0.020000,0.030000,0.040000,-877.614835,-3543.759008,514483.060756,-1968.564446,-0.000003,0.000007,-0.000000
-2.500000,0.020000,0.030000,0.040000,-877.614795,-3543.761152,514483.035431,1968.528472,-0.000003,0.000007,0.000000
-2.460000,-0.020000,0.050000,0.040000,-1702.610865,11753.395829,338550.566848,193.422457,-0.000002,0.000004,0.000000
-2.420000,-0.020000,0.085440,0.040000,-1751.337630,-21793.557334,116624.573229,985.809341,-0.000001,0.000002,0.000000
-2.420000,0.020000,0.085440,0.040000,-1751.337548,-21793.558744,116624.567904,-985.814938,-0.000001,0.000002,-0.000000
-2.460000,0.020000,0.050000,0.040000,-1702.610776,11753.389125,338550.546892,-193.442166,-0.000002,0.000004,-0.000000
-2.380000,-0.020000,0.123693,0.040000,-1754.538248,-2068.761979,4015.465844,2212.817295,-0.000000,0.000000,0.000000
-2.340000,-0.020000,0.162788,0.040000,-1754.677296,-120.245390,188.785824,164.494277,-0.000000,0.000000,0.000000
-2.340000,0.020000,0.162788,0.040000,-1754.677217,-120.245465,188.785888,-164.494245,-0.000000,0.000000,-0.000000
-2.380000,0.020000,0.123693,0.040000,-1754.538168,-2068.762482,4015.466008,-2212.817058,-0.000000,0.000000,-0.000000
-2.300000,-0.020000,0.202237,0.040000,-1754.576616,-7.577283,10.313781,13.126616,-0.000000,0.000000,0.000000
-2.260000,-0.020000,0.241868,0.040000,-1754.460416,0.674280,-1.606800,1.073569,0.000000,-0.000000,0.000000
-2.260000,0.020000,0.241868,0.040000,-1754.460336,0.674279,-1.606798,-1.073565,0.000000,-0.000000,-0.000000
-2.300000,0.020000,0.202237,0.040000,-1754.576537,-7.577292,10.313790,-13.126610,-0.000000,0.000000,-0.000000
-2.220000,-0.020000,0.281603,0.040000,-1754.346871,1.360435,-2.600646,0.105244,0.000000,-0.000000,0.000000
-2.180000,-0.020000,0.321403,0.040000,-1754.237481,1.422294,-2.681043,0.008256,0.000000,-0.000000,0.000000
-2.180000,0.020000,0.321403,0.040000,-1754.237402,1.422294,-2.681043,-0.008254,0.000000,-0.000000,-0.000000
-2.220000,0.020000,0.281603,0.040000,-1754.346791,1.360434,-2.600646,-0.105241,0.000000,-0.000000,-0.000000
2.180000,-0.020000,0.321403,0.040000,-1754.226613,1.422269,-2.681018,-0.008256,0.000000,-0.000000,-0.000000
2.220000,-0.020000,0.281603,0.040000,-1754.335802,1.360410,-2.600622,-0.105243,0.000000,-0.000000,-0.000000
2.220000,0.020000,0.281603,0.040000,-1754.335723,1.360410,-2.600622,0.105240,0.000000,-0.000000,0.000000
2.180000,0.020000,0.321403,0.040000,-1754.226533,1.422269,-2.681018,0.008254,0.000000,-0.000000,0.000000
2.260000,-0.020000,0.241868,0.040000,-1754.449147,0.674260,-1.606783,-1.073561,0.000000,-0.000000,-0.000000
2.300000,-0.020000,0.202237,0.040000,-1754.565148,-7.577244,10.313713,-13.126523,-0.000000,0.000000,-0.000000
2.300000,0.020000,0.202237,0.040000,-1754.565068,-7.577253,10.313722,13.126516,-0.000000,0.000000,0.000000
2.260000,0.020000,0.241868,0.040000,-1754.449068,0.674259,-1.606781,1.073558,0.000000,-0.000000,0.000000
2.340000,-0.020000,0.162788,0.040000,-1754.665628,-120.244546,188.784483,-164.493102,-0.000000,0.000000,-0.000000
2.380000,-0.020000,0.123693,0.040000,-1754.526381,-2068.747225,4015.437195,-2212.801491,-0.000000,0.000000,-0.000000
2.380000,0.020000,0.123693,0.040000,-1754.526301,-2068.747729,4015.437358,2212.801254,-0.000000,0.000000,0.000000
2.340000,0.020000,0.162788,0.040000,-1754.665548,-120.244621,188.784546,164.493071,-0.000000,0.000000,0.000000
2.420000,-0.020000,0.085440,0.040000,-1751.325586,-21793.401815,116623.743183,-985.801209,-0.000001,0.000002,-0.000000
2.460000,-0.020000,0.050000,0.040000,-1702.598970,11753.314209,338548.157675,-193.419807,-0.000002,0.000004,-0.000000
2.460000,0.020000,0.050000,0.040000,-1702.598881,11753.307506,338548.137720,193.439516,-0.000002,0.000004,0.000000
2.420000,0.020000,0.085440,0.040000,-1751.325505,-21793.403225,116623.737859,985.806807,-0.000001,0.000002,0.000000
2.500000,-0.020000,0.030000,0.040000,-877.608632,-3543.723248,514479.392987,1968.552713,-0.000003,0.000007,0.000000
2.500000,0.020000,0.030000,0.040000,-877.608592,-3543.725392,514479.367662,-1968.516739,-0.000003,0.000007,-0.000000
-2.500000,0.060000,0.010000,0.040000,-877.613910,5364.790193,529108.276949,1041.109147,-0.000003,0.000007,0.000000
-2.500000,0.100000,0.050000,0.040000,-877.612174,-5412.045070,520097.389795,-1.204836,-0.000003,0.000007,-0.000000
-2.460000,0.060000,0.041231,0.040000,-1873.317096,76428.411799,419967.950331,-183.678851,-0.000001,0.000005,-0.000000
-2.420000,0.060000,0.080623,0.040000,-1764.295669,-11535.472815,118247.808192,-785.759717,-0.000001,0.000002,-0.000000
-2.420000,0.100000,0.094340,0.040000,-1743.509477,-26519.636650,113890.435150,-0.314022,-0.000001,0.000002,-0.000000
-2.460000,0.100000,0.064031,0.040000,-1623.561849,-17518.994741,300483.780494,-0.728329,-0.000002,0.000004,-0.000000
-2.380000,0.060000,0.120416,0.040000,-1755.579611,859.187396,2617.302402,650.275116,-0.000000,0.000000,0.000000
-2.340000,0.060000,0.160312,0.040000,-1754.759501,292.308643,-426.034400,95.121993,0.000000,-0.000000,0.000000
-2.340000,0.100000,0.167631,0.040000,-1754.618452,-337.470919,461.620158,-0.116137,-0.000000,0.000000,-0.000000
-2.380000,0.100000,0.130000,0.040000,-1753.888152,-3147.788876,3010.459789,-0.128198,-0.000000,0.000000,-0.000000
-2.300000,0.060000,0.200250,0.040000,-1754.581108,24.611334,-35.977888,8.003783,0.000000,-0.000000,0.000000
-2.260000,0.060000,0.240208,0.040000,-1754.458568,3.309769,-5.420327,0.617219,0.000000,-0.000000,0.000000
-2.260000,0.100000,0.245153,0.040000,-1754.453090,-0.913776,0.706003,-0.063240,-0.000000,0.000000,-0.000000
-2.300000,0.100000,0.206155,0.040000,-1754.565551,-27.166490,38.130832,-0.090306,-0.000000,0.000000,-0.000000
-2.220000,0.060000,0.280179,0.040000,-1754.344482,1.574289,-2.880308,0.023683,0.000000,-0.000000,0.000000
-2.180000,0.060000,0.320156,0.040000,-1754.235036,1.455966,-2.719629,-0.003316,0.000000,-0.000000,-0.000000
-2.180000,0.100000,0.323883,0.040000,-1754.230354,1.438543,-2.694119,-0.009434,0.000000,-0.000000,-0.000000
-2.220000,0.100000,0.284429,0.040000,-1754.339764,1.271337,-2.472934,-0.051946,0.000000,-0.000000,-0.000000
2.180000,0.060000,0.320156,0.040000,-1754.224167,1.455941,-2.719605,0.003316,0.000000,-0.000000,0.000000
2.220000,0.060000,0.280179,0.040000,-1754.333413,1.574263,-2.880282,-0.023682,0.000000,-0.000000,-0.000000
2.220000,0.100000,0.284429,0.040000,-1754.328695,1.271313,-2.472911,0.051946,0.000000,-0.000000,0.000000
2.180000,0.100000,0.323883,0.040000,-1754.219486,1.438519,-2.694095,0.009434,0.000000,-0.000000,0.000000
2.260000,0.060000,0.240208,0.040000,-1754.447300,3.309730,-5.420282,-0.617214,0.000000,-0.000000,-0.000000
2.300000,0.060000,0.200250,0.040000,-1754.569639,24.611144,-35.977625,-8.003726,0.000000,-0.000000,-0.000000
2.300000,0.100000,0.206155,0.040000,-1754.554083,-27.166311,38.130566,0.090306,-0.000000,0.000000,0.000000
2.260000,0.100000,0.245153,0.040000,-1754.441821,-0.913784,0.706004,0.063240,-0.000000,0.000000,0.000000
2.340000,0.060000,0.160312,0.040000,-1754.747832,292.306540,-426.031350,-95.121314,0.000000,-0.000000,-0.000000
2.380000,0.060000,0.120416,0.040000,-1755.567736,859.181151,2617.283977,-650.270459,-0.000000,0.000000,-0.000000
2.380000,0.100000,0.130000,0.040000,-1753.876289,-3147.766385,3010.438240,0.128198,-0.000000,0.000000,0.000000
2.340000,0.100000,0.167631,0.040000,-1754.606783,-337.468523,461.616866,0.116137,-0.000000,0.000000,0.000000
2.420000,0.060000,0.080623,0.040000,-1764.283533,-11535.391668,118246.967837,785.753992,-0.000001,0.000002,0.000000
2.460000,0.060000,0.041231,0.040000,-1873.303982,76427.865146,419964.964321,183.675961,-0.000001,0.000005,0.000000
2.460000,0.100000,0.064031,0.040000,-1623.550519,-17518.867737,300481.647354,0.728317,-0.000002,0.000004,0.000000
2.420000,0.100000,0.094340,0.040000,-1743.497489,-26519.447515,113889.626028,0.314018,-0.000001,0.000002,0.000000
2.500000,0.060000,0.010000,0.040000,-877.607631,5364.733446,529104.532316,-1041.104405,-0.000003,0.000007,-0.000000
2.500000,0.100000,0.050000,0.040000,-877.605988,-5411.990562,520093.675492,1.204814,-0.000003,0.000007,0.000000
-2.500000,0.140000,0.010000,0.040000,-877.609569,5364.702487,529105.534896,-1043.429831,-0.000003,0.000007,-0.000000
-2.500000,0.180000,0.030000,0.040000,-877.606073,-3543.534177,514477.902904,-1970.915943,-0.000003,0.000007,-0.000000
-2.460000,0.140000,0.041231,0.040000,-1873.306684,76427.826135,419965.631297,182.210153,-0.000001,0.000005,0.000000
-2.420000,0.140000,0.080623,0.040000,-1764.285607,-11535.455694,118247.170079,785.076533,-0.000001,0.000002,0.000000
-2.420000,0.180000,0.085440,0.040000,-1751.317709,-21793.104703,116623.299842,985.145550,-0.000001,0.000002,0.000000
-2.460000,0.180000,0.050000,0.040000,-1702.593142,11753.705070,338547.317429,191.957255,-0.000002,0.000004,0.000000
-2.380000,0.140000,0.120416,0.040000,-1755.569142,859.215320,2617.247313,-650.587959,-0.000000,0.000000,-0.000000
-2.340000,0.140000,0.160312,0.040000,-1754.748622,292.359303,-426.084505,-95.360174,0.000000,-0.000000,-0.000000
-2.340000,0.180000,0.162788,0.040000,-1754.655374,-120.129699,188.669824,164.257484,-0.000000,0.000000,0.000000
-2.380000,0.180000,0.123693,0.040000,-1754.517183,-2068.600266,4015.298194,2212.510951,-0.000000,0.000000,0.000000
-2.300000,0.140000,0.200250,0.040000,-1754.569896,24.665739,-36.032243,-8.184821,0.000000,-0.000000,-0.000000
-2.260000,0.140000,0.240208,0.040000,-1754.447111,3.363968,-5.474558,-0.743325,0.000000,-0.000000,-0.000000
-2.260000,0.180000,0.241868,0.040000,-1754.437335,0.783353,-1.715968,0.948786,0.000000,-0.000000,0.000000
-2.300000,0.180000,0.202237,0.040000,-1754.554026,-7.466530,10.202916,12.946267,-0.000000,0.000000,0.000000
-2.220000,0.140000,0.280179,0.040000,-1754.332865,1.634349,-2.943689,-0.120111,0.000000,-0.000000,-0.000000
-2.180000,0.140000,0.320156,0.040000,-1754.223345,1.511611,-2.773207,-0.016388,0.000000,-0.000000,-0.000000
-2.180000,0.180000,0.321403,0.040000,-1754.213938,1.521843,-2.782498,-0.004179,0.000000,-0.000000,-0.000000
-2.220000,0.180000,0.281603,0.040000,-1754.323473,1.472977,-2.714874,0.023455,0.000000,-0.000000,0.000000
2.180000,0.140000,0.320156,0.040000,-1754.212477,1.511586,-2.773182,0.016388,0.000000,-0.000000,0.000000
2.220000,0.140000,0.280179,0.040000,-1754.321797,1.634323,-2.943662,0.120110,0.000000,-0.000000,0.000000
2.220000,0.180000,0.281603,0.040000,-1754.312405,1.472952,-2.714850,-0.023454,0.000000,-0.000000,-0.000000
2.180000,0.180000,0.321403,0.040000,-1754.203070,1.521818,-2.782473,0.004180,0.000000,-0.000000,0.000000
2.260000,0.140000,0.240208,0.040000,-1754.435843,3.363929,-5.474514,0.743320,0.000000,-0.000000,0.000000
2.300000,0.140000,0.200250,0.040000,-1754.558428,24.665548,-36.031979,8.184763,0.000000,-0.000000,0.000000
2.300000,0.180000,0.202237,0.040000,-1754.542558,-7.466492,10.202849,-12.946173,-0.000000,0.000000,-0.000000
2.260000,0.180000,0.241868,0.040000,-1754.426067,0.783333,-1.715950,-0.948779,0.000000,-0.000000,-0.000000
2.340000,0.140000,0.160312,0.040000,-1754.736953,292.357200,-426.081456,95.359493,0.000000,-0.000000,0.000000
2.380000,0.140000,0.120416,0.040000,-1755.557267,859.209075,2617.228888,650.583299,-0.000000,0.000000,0.000000
2.380000,0.180000,0.123693,0.040000,-1754.505316,-2068.585515,4015.269547,-2212.495149,-0.000000,0.000000,-0.000000
2.340000,0.180000,0.162788,0.040000,-1754.643706,-120.128857,188.668484,-164.256310,-0.000000,0.000000,-0.000000
2.420000,0.140000,0.080623,0.040000,-1764.273471,-11535.374547,118246.329737,-785.070817,-0.000001,0.000002,-0.000000
2.460000,0.140000,0.041231,0.040000,-1873.293570,76427.279495,419962.645336,-182.207289,-0.000001,0.000005,-0.000000
2.460000,0.180000,0.050000,0.040000,-1702.581247,11753.623445,338544.908324,-191.954630,-0.000002,0.000004,-0.000000
2.420000,0.180000,0.085440,0.040000,-1751.305665,-21792.949192,116622.469822,-985.137426,-0.000001,0.000002,-0.000000
2.500000,0.140000,0.010000,0.040000,-877.603290,5364.645742,529101.790321,1043.425046,-0.000003,0.000007,0.000000
2.500000,0.180000,0.030000,0.040000,-877.599871,-3543.498420,514474.235243,1970.904165,-0.000003,0.000007,0.000000
-2.500000,0.220000,0.030000,0.040000,-877.601654,-3543.738349,514475.032553,1966.082789,-0.000003,0.000007,0.000000
-2.500000,0.260000,0.010000,0.040000,-877.596270,5364.920663,529097.456554,1038.645530,-0.000003,0.000007,0.000000
-2.460000,0.220000,0.050000,0.040000,-1702.582593,11753.009538,338545.043662,-194.932132,-0.000002,0.000004,-0.000000
-2.420000,0.220000,0.085440,0.040000,-1751.307382,-21793.206281,116622.652361,-986.467700,-0.000001,0.000002,-0.000000
-2.420000,0.260000,0.080623,0.040000,-1764.255140,-11534.920568,118245.202336,-786.449027,-0.000001,0.000002,-0.000000
-2.460000,0.260000,0.041231,0.040000,-1873.277211,76427.344613,419959.463504,-185.211783,-0.000001,0.000005,-0.000000
-2.380000,0.220000,0.123693,0.040000,-1754.506519,-2068.599676,4015.259807,-2213.071936,-0.000000,0.000000,-0.000000
-2.340000,0.220000,0.162788,0.040000,-1754.644308,-120.081237,188.620082,-164.727843,-0.000000,0.000000,-0.000000
-2.340000,0.260000,0.160312,0.040000,-1754.715343,292.531214,-426.254257,94.879519,0.000000,-0.000000,0.000000
-2.380000,0.260000,0.120416,0.040000,-1755.537140,859.418212,2617.012501,649.939381,-0.000000,0.000000,0.000000
-2.300000,0.220000,0.202237,0.040000,-1754.542629,-7.410931,10.147334,-13.305847,-0.000000,0.000000,-0.000000
-2.260000,0.220000,0.241868,0.040000,-1754.425696,0.839128,-1.771773,-1.196096,0.000000,-0.000000,-0.000000
-2.260000,0.260000,0.240208,0.040000,-1754.412105,3.532189,-5.642913,0.497872,0.000000,-0.000000,0.000000
-2.300000,0.260000,0.200250,0.040000,-1754.535617,24.836224,-36.202681,7.825067,0.000000,-0.000000,0.000000
-2.220000,0.220000,0.281603,0.040000,-1754.311681,1.535135,-2.781713,-0.165316,0.000000,-0.000000,-0.000000
-2.180000,0.220000,0.321403,0.040000,-1754.202080,1.589746,-2.843346,-0.017069,0.000000,-0.000000,-0.000000
-2.180000,0.260000,0.320156,0.040000,-1754.187684,1.656269,-2.925637,0.000777,0.000000,-0.000000,0.000000
-2.220000,0.260000,0.280179,0.040000,-1754.297400,1.791090,-3.094519,-0.017989,0.000000,-0.000000,-0.000000
2.180000,0.220000,0.321403,0.040000,-1754.191212,1.589721,-2.843321,0.017070,0.000000,-0.000000,0.000000
2.220000,0.220000,0.281603,0.040000,-1754.300613,1.535110,-2.781688,0.165316,0.000000,-0.000000,0.000000
2.220000,0.260000,0.280179,0.040000,-1754.286333,1.791062,-3.094491,0.017990,0.000000,-0.000000,0.000000
2.180000,0.260000,0.320156,0.040000,-1754.176817,1.656243,-2.925611,-0.000776,0.000000,-0.000000,-0.000000
2.260000,0.220000,0.241868,0.040000,-1754.414428,0.839107,-1.771755,1.196088,0.000000,-0.000000,0.000000
2.300000,0.220000,0.202237,0.040000,-1754.531161,-7.410893,10.147267,13.305753,-0.000000,0.000000,0.000000
2.300000,0.260000,0.200250,0.040000,-1754.524149,24.836031,-36.202416,-7.825009,0.000000,-0.000000,-0.000000
2.260000,0.260000,0.240208,0.040000,-1754.400837,3.532149,-5.642867,-0.497867,0.000000,-0.000000,-0.000000
2.340000,0.220000,0.162788,0.040000,-1754.632640,-120.080395,188.618741,164.726667,-0.000000,0.000000,0.000000
2.380000,0.220000,0.123693,0.040000,-1754.494652,-2068.584924,4015.231160,2213.056132,-0.000000,0.000000,0.000000
2.380000,0.260000,0.120416,0.040000,-1755.525266,859.411965,2616.994079,-649.934725,-0.000000,0.000000,-0.000000
2.340000,0.260000,0.160312,0.040000,-1754.703675,292.529109,-426.251206,-94.878840,0.000000,-0.000000,-0.000000
2.420000,0.220000,0.085440,0.040000,-1751.295339,-21793.050767,116621.822354,986.459560,-0.000001,0.000002,0.000000
2.460000,0.220000,0.050000,0.040000,-1702.570698,11752.927928,338542.634605,194.929457,-0.000002,0.000004,0.000000
2.460000,0.260000,0.041231,0.040000,-1873.264098,76426.797985,419956.477672,185.208868,-0.000001,0.000005,0.000000
2.420000,0.260000,0.080623,0.040000,-1764.243005,-11534.839430,118244.362034,786.443293,-0.000001,0.000002,0.000000
2.500000,0.220000,0.030000,0.040000,-877.595451,-3543.702588,514471.364953,-1966.071100,-0.000003,0.000007,-0.000000
2.500000,0.260000,0.010000,0.040000,-877.589992,5364.863914,529093.712149,-1038.640833,-0.000003,0.000007,-0.000000
-2.500000,0.300000,0.050000,0.040000,-877.589873,-5411.745038,520083.836101,-3.837104,-0.000003,0.000007,-0.000000
-2.500000,0.340000,0.010000,0.040000,-877.582403,5364.643790,529088.691283,-1046.036558,-0.000003,0.000007,-0.000000
-2.460000,0.300000,0.064031,0.040000,-1623.517125,-17518.319109,300475.835059,-2.313750,-0.000002,0.000004,-0.000000
-2.420000,0.300000,0.094340,0.040000,-1743.458692,-26518.694600,113887.253908,-0.988311,-0.000001,0.000002,-0.000000
-2.420000,0.340000,0.080623,0.040000,-1764.223076,-11534.860674,118243.158587,784.296189,-0.000001,0.000002,0.000000
-2.460000,0.340000,0.041231,0.040000,-1873.243986,76425.478486,419952.049784,180.545271,-0.000001,0.000005,0.000000
-2.380000,0.300000,0.130000,0.040000,-1753.834528,-3147.427615,3010.101395,-0.392147,-0.000000,0.000000,-0.000000
-2.340000,0.300000,0.167631,0.040000,-1754.562684,-337.176497,461.322345,-0.351194,-0.000000,0.000000,-0.000000
-2.340000,0.340000,0.160312,0.040000,-1754.680780,292.697722,-426.419003,-95.600551,0.000000,-0.000000,-0.000000
-2.380000,0.340000,0.120416,0.040000,-1755.503828,859.512458,2616.831472,-650.903847,-0.000000,0.000000,-0.000000
-2.300000,0.300000,0.206155,0.040000,-1754.508117,-26.880126,37.844035,-0.266476,-0.000000,0.000000,-0.000000
-2.260000,0.300000,0.245153,0.040000,-1754.394446,-0.631507,0.423475,-0.178120,-0.000000,0.000000,-0.000000
-2.260000,0.340000,0.240208,0.040000,-1754.375836,3.708786,-5.819638,-0.852538,0.000000,-0.000000,-0.000000
-2.300000,0.340000,0.200250,0.040000,-1754.500059,25.014163,-36.380468,-8.359072,0.000000,-0.000000,-0.000000
-2.220000,0.300000,0.284429,0.040000,-1754.280362,1.554799,-2.759993,-0.081646,0.000000,-0.000000,-0.000000
-2.180000,0.300000,0.323883,0.040000,-1754.170636,1.721436,-2.970435,-0.000903,0.000000,-0.000000,-0.000000
-2.180000,0.340000,0.320156,0.040000,-1754.150834,1.818475,-3.090933,0.010502,0.000000,-0.000000,0.000000
-2.220000,0.340000,0.280179,0.040000,-1754.260703,1.955999,-3.254597,-0.145502,0.000000,-0.000000,-0.000000
2.180000,0.300000,0.323883,0.040000,-1754.159769,1.721410,-2.970409,0.000905,0.000000,-0.000000,0.000000
2.220000,0.300000,0.284429,0.040000,-1754.269295,1.554773,-2.759968,0.081647,0.000000,-0.000000,0.000000
2.220000,0.340000,0.280179,0.040000,-1754.249636,1.955971,-3.254568,0.145503,0.000000,-0.000000,0.000000
2.180000,0.340000,0.320156,0.040000,-1754.139967,1.818448,-3.090905,-0.010500,0.000000,-0.000000,-0.000000
2.260000,0.300000,0.245153,0.040000,-1754.383179,-0.631518,0.423478,0.178120,-0.000000,0.000000,0.000000
2.300000,0.300000,0.206155,0.040000,-1754.496649,-26.879949,37.843771,0.266475,-0.000000,0.000000,0.000000
2.300000,0.340000,0.200250,0.040000,-1754.488592,25.013969,-36.380203,8.359014,0.000000,-0.000000,0.000000
2.260000,0.340000,0.240208,0.040000,-1754.364569,3.708745,-5.819590,0.852533,0.000000,-0.000000,0.000000
2.340000,0.300000,0.167631,0.040000,-1754.551017,-337.174103,461.319055,0.351193,-0.000000,0.000000,0.000000
2.380000,0.300000,0.130000,0.040000,-1753.822667,-3147.405128,3010.079849,0.392146,-0.000000,0.000000,0.000000
2.380000,0.340000,0.120416,0.040000,-1755.491955,859.506211,2616.813052,650.899187,-0.000000,0.000000,0.000000
2.340000,0.340000,0.160312,0.040000,-1754.669112,292.695616,-426.415951,95.599869,0.000000,-0.000000,0.000000
2.420000,0.300000,0.094340,0.040000,-1743.446705,-26518.505483,113886.444850,0.988299,-0.000001,0.000002,0.000000
2.460000,0.300000,0.064031,0.040000,-1623.505796,-17518.192117,300473.702084,2.313712,-0.000002,0.000004,0.000000
2.460000,0.340000,0.041231,0.040000,-1873.230874,76424.931900,419949.064104,-180.542434,-0.000001,0.000005,-0.000000
2.420000,0.340000,0.080623,0.040000,-1764.210941,-11534.779535,118242.318325,-784.290483,-0.000001,0.000002,-0.000000
2.500000,0.300000,0.050000,0.040000,-877.583688,-5411.690533,520080.122081,3.837034,-0.000003,0.000007,0.000000
2.500000,0.340000,0.010000,0.040000,-877.576124,5364.587049,529084.947058,1046.031727,-0.000003,0.000007,0.000000
-2.500000,0.380000,0.030000,0.040000,-877.573790,-3543.006661,514458.622098,-1973.690315,-0.000003,0.000007,-0.000000
-2.500000,0.420000,0.030000,0.040000,-877.563953,-3543.458566,514452.228370,1963.002885,-0.000003,0.000007,0.000000
-2.460000,0.380000,0.050000,0.040000,-1702.526325,11754.028404,338534.714428,190.212174,-0.000002,0.000004,0.000000
-2.420000,0.380000,0.085440,0.040000,-1751.244155,-21791.745317,116618.590244,984.358636,-0.000001,0.000002,0.000000
-2.420000,0.420000,0.085440,0.040000,-1751.221287,-21791.967368,116617.144818,-987.220297,-0.000001,0.000002,-0.000000
-2.460000,0.420000,0.050000,0.040000,-1702.502898,11752.483886,338529.648732,-196.759177,-0.000002,0.000004,-0.000000
-2.380000,0.380000,0.123693,0.040000,-1754.439735,-2068.071267,4014.713492,2212.129405,-0.000000,0.000000,0.000000
-2.340000,0.380000,0.162788,0.040000,-1754.574906,-119.701907,188.239773,164.012008,-0.000000,0.000000,0.000000
-2.340000,0.420000,0.162788,0.040000,-1754.550536,-119.590555,188.125561,-164.962004,-0.000000,0.000000,-0.000000
-2.380000,0.420000,0.123693,0.040000,-1754.416184,-2068.066057,4014.624134,-2213.288582,-0.000000,0.000000,-0.000000
-2.300000,0.380000,0.202237,0.040000,-1754.471228,-7.048653,9.784675,12.774991,-0.000000,0.000000,0.000000
-2.260000,0.380000,0.241868,0.040000,-1754.352876,1.194621,-2.127621,0.846835,0.000000,-0.000000,0.000000
-2.260000,0.420000,0.241868,0.040000,-1754.327394,1.320896,-2.253989,-1.288861,0.000000,-0.000000,-0.000000
-2.300000,0.420000,0.202237,0.040000,-1754.446202,-6.922015,9.658064,-13.471978,-0.000000,0.000000,-0.000000
-2.220000,0.380000,0.281603,0.040000,-1754.238011,1.876203,-3.118931,-0.006974,0.000000,-0.000000,-0.000000
-2.180000,0.380000,0.321403,0.040000,-1754.128113,1.930452,-3.182915,0.026589,0.000000,-0.000000,0.000000
-2.180000,0.420000,0.321403,0.040000,-1754.102320,2.015967,-3.284922,0.041405,0.000000,-0.000000,0.000000
-2.220000,0.420000,0.281603,0.040000,-1754.212276,1.982071,-3.212909,-0.196163,0.000000,-0.000000,-0.000000
2.180000,0.380000,0.321403,0.040000,-1754.117246,1.930424,-3.182887,-0.026587,0.000000,-0.000000,-0.000000
2.220000,0.380000,0.281603,0.040000,-1754.226944,1.876175,-3.118903,0.006976,0.000000,-0.000000,0.000000
2.220000,0.420000,0.281603,0.040000,-1754.201209,1.982042,-3.212880,0.196164,0.000000,-0.000000,0.000000
2.180000,0.420000,0.321403,0.040000,-1754.091454,2.015938,-3.284893,-0.041402,0.000000,-0.000000,-0.000000
2.260000,0.380000,0.241868,0.040000,-1754.341609,1.194597,-2.127599,-0.846827,0.000000,-0.000000,-0.000000
2.300000,0.380000,0.202237,0.040000,-1754.459761,-7.048617,9.784611,-12.774898,-0.000000,0.000000,-0.000000
2.300000,0.420000,0.202237,0.040000,-1754.434736,-6.921980,9.658001,13.471884,-0.000000,0.000000,0.000000
2.260000,0.420000,0.241868,0.040000,-1754.316128,1.320872,-2.253967,1.288854,0.000000,-0.000000,0.000000
2.340000,0.380000,0.162788,0.040000,-1754.563240,-119.701067,188.238436,-164.010835,-0.000000,0.000000,-0.000000
2.380000,0.380000,0.123693,0.040000,-1754.427870,-2068.056522,4014.684852,-2212.113605,-0.000000,0.000000,-0.000000
2.380000,0.420000,0.123693,0.040000,-1754.404319,-2068.051310,4014.595494,2213.272779,-0.000000,0.000000,0.000000
2.340000,0.420000,0.162788,0.040000,-1754.538870,-119.589717,188.124224,164.960828,-0.000000,0.000000,0.000000
2.420000,0.380000,0.085440,0.040000,-1751.232113,-21791.589829,116617.760317,-984.350522,-0.000001,0.000002,-0.000000
2.460000,0.380000,0.050000,0.040000,-1702.514431,11753.946777,338532.305580,-190.209577,-0.000002,0.000004,-0.000000
2.460000,0.420000,0.050000,0.040000,-1702.491005,11752.402292,338527.239985,196.756473,-0.000002,0.000004,0.000000
2.420000,0.420000,0.085440,0.040000,-1751.209246,-21791.811874,116616.314918,987.212148,-0.000001,0.000002,0.000000
2.500000,0.380000,0.030000,0.040000,-877.567588,-3542.970912,514454.954833,1973.678490,-0.000003,0.000007,0.000000
2.500000,0.420000,0.030000,0.040000,-877.557751,-3543.422808,514448.561232,-1962.991248,-0.000003,0.000007,-0.000000
-2.500000,0.460000,0.010000,0.040000,-877.552798,5365.137631,529070.693302,1035.454302,-0.000003,0.000007,0.000000
-2.500000,0.500000,0.050000,0.040000,-877.540220,-5411.064190,520053.631470,-7.324957,-0.000003,0.000007,-0.000000
-2.460000,0.460000,0.041231,0.040000,-1873.178544,76424.418431,419938.306003,-187.153539,-0.000001,0.000005,-0.000000
-2.420000,0.460000,0.080623,0.040000,-1764.155608,-11533.656818,118238.765333,-787.269985,-0.000001,0.000002,-0.000000
-2.420000,0.500000,0.094340,0.040000,-1743.346207,-26516.576589,113880.148698,-1.830023,-0.000001,0.000002,-0.000000
-2.460000,0.500000,0.064031,0.040000,-1623.417823,-17516.796644,300458.119816,-4.388081,-0.000002,0.000004,-0.000000
-2.380000,0.460000,0.120416,0.040000,-1755.433148,859.975984,2616.296881,649.550387,-0.000000,0.000000,0.000000
-2.340000,0.460000,0.160312,0.040000,-1754.607482,293.090993,-426.807504,94.628664,0.000000,-0.000000,0.000000
-2.340000,0.500000,0.167631,0.040000,-1754.439828,-336.502829,460.641057,-0.588982,-0.000000,0.000000,-0.000000
-2.380000,0.500000,0.130000,0.040000,-1753.716068,-3146.603179,3009.283236,-0.674613,-0.000000,0.000000,-0.000000
-2.300000,0.460000,0.200250,0.040000,-1754.424777,25.402447,-36.768682,7.663074,0.000000,-0.000000,0.000000
-2.260000,0.460000,0.240208,0.040000,-1754.299189,4.089746,-6.200972,0.416323,0.000000,-0.000000,0.000000
-2.260000,0.500000,0.245153,0.040000,-1754.266024,0.008110,-0.216851,-0.245554,0.000000,-0.000000,-0.000000
-2.300000,0.500000,0.206155,0.040000,-1754.381955,-26.227473,37.190364,-0.420097,-0.000000,0.000000,-0.000000
-2.220000,0.460000,0.280179,0.040000,-1754.183301,2.342670,-3.649971,-0.051232,0.000000,-0.000000,-0.000000
-2.180000,0.460000,0.320156,0.040000,-1754.073268,2.208079,-3.465612,0.064664,0.000000,-0.000000,0.000000
-2.180000,0.500000,0.323883,0.040000,-1754.040729,2.285455,-3.553151,0.107161,0.000000,-0.000000,0.000000
-2.220000,0.500000,0.284429,0.040000,-1754.150702,2.157676,-3.347288,-0.093313,0.000000,-0.000000,-0.000000
2.180000,0.460000,0.320156,0.040000,-1754.062402,2.208049,-3.465581,-0.064662,0.000000,-0.000000,-0.000000
2.220000,0.460000,0.280179,0.040000,-1754.172235,2.342639,-3.649940,0.051234,0.000000,-0.000000,0.000000
2.220000,0.500000,0.284429,0.040000,-1754.139636,2.157645,-3.347259,0.093315,0.000000,-0.000000,0.000000
2.180000,0.500000,0.323883,0.040000,-1754.029864,2.285424,-3.553120,-0.107157,0.000000,-0.000000,-0.000000
2.260000,0.460000,0.240208,0.040000,-1754.287923,4.089702,-6.200922,-0.416317,0.000000,-0.000000,-0.000000
2.300000,0.460000,0.200250,0.040000,-1754.413310,25.402250,-36.768413,-7.663017,0.000000,-0.000000,-0.000000
2.300000,0.500000,0.206155,0.040000,-1754.370490,-26.227301,37.190105,0.420097,-0.000000,0.000000,0.000000
2.260000,0.500000,0.245153,0.040000,-1754.254759,0.008095,-0.216843,0.245555,0.000000,-0.000000,0.000000
2.340000,0.460000,0.160312,0.040000,-1754.595816,293.088885,-426.804449,-94.627986,0.000000,-0.000000,-0.000000
2.380000,0.460000,0.120416,0.040000,-1755.421276,859.969733,2616.278467,-649.545733,-0.000000,0.000000,-0.000000
2.380000,0.500000,0.130000,0.040000,-1753.704208,-3146.580700,3009.261698,0.674612,-0.000000,0.000000,0.000000
2.340000,0.500000,0.167631,0.040000,-1754.428163,-336.500440,460.637772,0.588980,-0.000000,0.000000,0.000000
2.420000,0.460000,0.080623,0.040000,-1764.143475,-11533.575698,118237.925153,787.264242,-0.000001,0.000002,0.000000
2.460000,0.460000,0.041231,0.040000,-1873.165432,76423.871870,419935.320594,187.150594,-0.000001,0.000005,0.000000
2.460000,0.500000,0.064031,0.040000,-1623.406496,-17516.669676,300455.987185,4.388013,-0.000002,0.000004,0.000000
2.420000,0.500000,0.094340,0.040000,-1743.334222,-26516.387506,113879.339774,1.830002,-0.000001,0.000002,0.000000
2.500000,0.460000,0.010000,0.040000,-877.546520,5365.080883,529066.949431,-1035.449656,-0.000003,0.000007,-0.000000
2.500000,0.500000,0.050000,0.040000,-877.534036,-5411.009695,520049.918043,7.324834,-0.000003,0.000007,0.000000
-2.500000,0.540000,0.010000,0.040000,-877.526095,5364.614379,529053.797142,-1049.562168,-0.000003,0.000007,-0.000000
-2.500000,0.580000,0.030000,0.040000,-877.510287,-3542.029611,514420.583583,-1977.537075,-0.000003,0.000007,-0.000000
-2.460000,0.540000,0.041231,0.040000,-1873.114766,76420.839202,419924.013171,178.300671,-0.000001,0.000005,0.000000
-2.420000,0.540000,0.080623,0.040000,-1764.094286,-11533.526138,118234.814156,783.270555,-0.000001,0.000002,0.000000
-2.420000,0.580000,0.085440,0.040000,-1751.100355,-21789.122780,116609.289009,983.304734,-0.000001,0.000002,0.000000
-2.460000,0.580000,0.050000,0.040000,-1702.394924,11754.474686,338509.720034,187.798633,-0.000002,0.000004,0.000000
-2.380000,0.540000,0.120416,0.040000,-1755.369671,860.171913,2615.933813,-651.245866,-0.000000,0.000000,-0.000000
-2.340000,0.540000,0.160312,0.040000,-1754.541864,293.424347,-427.137504,-95.841499,0.000000,-0.000000,-0.000000
-2.340000,0.580000,0.162788,0.040000,-1754.418748,-118.833983,187.367005,163.762258,-0.000000,0.000000,0.000000
-2.380000,0.580000,0.123693,0.040000,-1754.288897,-2067.019057,4013.542552,2211.637398,-0.000000,0.000000,0.000000
-2.300000,0.540000,0.200250,0.040000,-1754.357533,25.755426,-37.121408,-8.503948,0.000000,-0.000000,-0.000000
-2.260000,0.540000,0.240208,0.040000,-1754.230883,4.437177,-6.548745,-0.902771,0.000000,-0.000000,-0.000000
-2.260000,0.580000,0.241868,0.040000,-1754.190224,2.020677,-2.954650,0.817775,0.000000,-0.000000,0.000000
-2.300000,0.580000,0.202237,0.040000,-1754.311147,-6.203114,8.938348,12.641276,-0.000000,0.000000,0.000000
-2.220000,0.540000,0.280179,0.040000,-1754.114487,2.686292,-3.995337,-0.136809,0.000000,-0.000000,-0.000000
-2.180000,0.540000,0.320156,0.040000,-1754.004482,2.535810,-3.791348,0.127881,0.000000,-0.000000,0.000000
-2.180000,0.580000,0.321403,0.040000,-1753.964236,2.654048,-3.929389,0.211556,0.000000,-0.000000,0.000000
-2.220000,0.580000,0.281603,0.040000,-1754.074109,2.660180,-3.886522,0.056941,0.000000,-0.000000,0.000000
2.180000,0.540000,0.320156,0.040000,-1753.993617,2.535778,-3.791315,-0.127877,0.000000,-0.000000,-0.000000
2.220000,0.540000,0.280179,0.040000,-1754.103422,2.686258,-3.995303,0.136811,0.000000,-0.000000,0.000000
2.220000,0.580000,0.281603,0.040000,-1754.063045,2.660146,-3.886489,-0.056937,0.000000,-0.000000,-0.000000
2.180000,0.580000,0.321403,0.040000,-1753.953372,2.654014,-3.929355,-0.211551,0.000000,-0.000000,-0.000000
2.260000,0.540000,0.240208,0.040000,-1754.219618,4.437130,-6.548692,0.902768,0.000000,-0.000000,0.000000
2.300000,0.540000,0.200250,0.040000,-1754.346068,25.755226,-37.121136,8.503890,0.000000,-0.000000,0.000000
2.300000,0.580000,0.202237,0.040000,-1754.299683,-6.203085,8.938290,-12.641183,-0.000000,0.000000,-0.000000
2.260000,0.580000,0.241868,0.040000,-1754.178960,2.020648,-2.954623,-0.817766,0.000000,-0.000000,-0.000000
2.340000,0.540000,0.160312,0.040000,-1754.530198,293.422236,-427.134448,95.840817,0.000000,-0.000000,0.000000
2.380000,0.540000,0.120416,0.040000,-1755.357800,860.165662,2615.915401,651.241204,-0.000000,0.000000,0.000000
2.380000,0.580000,0.123693,0.040000,-1754.277035,-2067.004321,4013.513924,-2211.621603,-0.000000,0.000000,-0.000000
2.340000,0.580000,0.162788,0.040000,-1754.407084,-118.833150,187.365674,-163.761086,-0.000000,0.000000,-0.000000
2.420000,0.540000,0.080623,0.040000,-1764.082154,-11533.445017,118233.974048,-783.264860,-0.000001,0.000002,-0.000000
2.460000,0.540000,0.041231,0.040000,-1873.101655,76420.292713,419921.028030,-178.297864,-0.000001,0.000005,-0.000000
2.460000,0.580000,0.050000,0.040000,-1702.383033,11754.393061,338507.311657,-187.796068,-0.000002,0.000004,-0.000000
2.420000,0.580000,0.085440,0.040000,-1751.088316,-21788.967332,116608.459251,-983.296632,-0.000001,0.000002,-0.000000
2.500000,0.540000,0.010000,0.040000,-877.519818,5364.557643,529050.053590,1049.557286,-0.000003,0.000007,0.000000
2.500000,0.580000,0.030000,0.040000,-877.504086,-3541.993875,514416.917038,1977.525196,-0.000003,0.000007,0.000000
-2.500000,0.620000,0.030000,0.040000,-877.492637,-3542.831626,514409.095585,1958.553718,-0.000003,0.000007,0.000000
-2.500000,0.660000,0.010000,0.040000,-877.472968,5365.528784,529021.447241,1030.755348,-0.000003,0.000007,0.000000
-2.460000,0.620000,0.050000,0.040000,-1702.353043,11751.715975,338500.615274,-199.338874,-0.000002,0.000004,-0.000000
-2.420000,0.620000,0.085440,0.040000,-1751.059649,-21789.507395,116606.681200,-988.210085,-0.000001,0.000002,-0.000000
-2.420000,0.660000,0.080623,0.040000,-1763.974184,-11531.322672,118226.886167,-788.377109,-0.000001,0.000002,-0.000000
-2.460000,0.660000,0.041231,0.040000,-1872.997780,76418.977590,419899.301851,-189.956566,-0.000001,0.000005,-0.000000
-2.380000,0.620000,0.123693,0.040000,-1754.247160,-2066.996572,4013.369029,-2213.460182,-0.000000,0.000000,-0.000000
-2.340000,0.620000,0.162788,0.040000,-1754.375757,-118.622653,187.150506,-165.184765,-0.000000,0.000000,-0.000000
-2.340000,0.660000,0.160312,0.040000,-1754.412536,294.165200,-427.869917,94.383591,0.000000,-0.000000,0.000000
-2.380000,0.660000,0.120416,0.040000,-1755.244389,861.043787,2614.934379,649.077180,-0.000000,0.000000,0.000000
-2.300000,0.620000,0.202237,0.040000,-1754.267213,-5.966581,8.701830,-13.588741,-0.000000,0.000000,-0.000000
-2.260000,0.620000,0.241868,0.040000,-1754.145722,2.253833,-3.188058,-1.291722,0.000000,-0.000000,-0.000000
-2.260000,0.660000,0.240208,0.040000,-1754.097002,5.140887,-7.253387,0.445278,0.000000,-0.000000,0.000000
-2.300000,0.660000,0.200250,0.040000,-1754.225348,26.480582,-37.846544,7.563315,0.000000,-0.000000,0.000000
-2.220000,0.620000,0.281603,0.040000,-1754.029411,2.914251,-4.158346,-0.094950,0.000000,-0.000000,-0.000000
-2.180000,0.620000,0.321403,0.040000,-1753.919700,2.925122,-4.172726,0.239087,0.000000,-0.000000,0.000000
-2.180000,0.660000,0.320156,0.040000,-1753.870536,3.117543,-4.405017,0.359720,0.000000,-0.000000,0.000000
-2.220000,0.660000,0.280179,0.040000,-1753.980035,3.329079,-4.612005,0.126017,0.000000,-0.000000,0.000000
2.180000,0.620000,0.321403,0.040000,-1753.908837,2.925086,-4.172691,-0.239081,0.000000,-0.000000,-0.000000
2.220000,0.620000,0.281603,0.040000,-1754.018348,2.914215,-4.158310,0.094953,0.000000,-0.000000,0.000000
2.220000,0.660000,0.280179,0.040000,-1753.968972,3.329040,-4.611966,-0.126012,0.000000,-0.000000,-0.000000
2.180000,0.660000,0.320156,0.040000,-1753.859673,3.117506,-4.404980,-0.359713,0.000000,-0.000000,-0.000000
2.260000,0.620000,0.241868,0.040000,-1754.134459,2.253802,-3.188029,1.291716,0.000000,-0.000000,0.000000
2.300000,0.620000,0.202237,0.040000,-1754.255749,-5.966554,8.701774,13.588647,-0.000000,0.000000,0.000000
2.300000,0.660000,0.200250,0.040000,-1754.213885,26.480377,-37.846267,-7.563258,0.000000,-0.000000,-0.000000
2.260000,0.660000,0.240208,0.040000,-1754.085739,5.140835,-7.253329,-0.445272,0.000000,-0.000000,-0.000000
2.340000,0.620000,0.162788,0.040000,-1754.364094,-118.621822,187.149177,165.183589,-0.000000,0.000000,0.000000
2.380000,0.620000,0.123693,0.040000,-1754.235298,-2066.981834,4013.340402,2213.444380,-0.000000,0.000000,0.000000
2.380000,0.660000,0.120416,0.040000,-1755.232520,861.037528,2614.915977,-649.072530,-0.000000,0.000000,-0.000000
2.340000,0.660000,0.160312,0.040000,-1754.400872,294.163083,-427.866855,-94.382913,0.000000,-0.000000,-0.000000
2.420000,0.620000,0.085440,0.040000,-1751.047610,-21789.351937,116605.851486,988.201927,-0.000001,0.000002,0.000000
2.460000,0.620000,0.050000,0.040000,-1702.341152,11751.634402,338498.207058,199.336137,-0.000002,0.000004,0.000000
2.460000,0.660000,0.041231,0.040000,-1872.984672,76418.431142,419896.317147,189.953587,-0.000001,0.000005,0.000000
2.420000,0.660000,0.080623,0.040000,-1763.962054,-11531.241583,118226.046194,788.371355,-0.000001,0.000002,0.000000
2.500000,0.620000,0.030000,0.040000,-877.486437,-3542.795874,514405.429244,-1958.542143,-0.000003,0.000007,-0.000000
2.500000,0.660000,0.010000,0.040000,-877.466691,5365.472037,529017.704263,-1030.750765,-0.000003,0.000007,-0.000000
-2.500000,0.700000,0.050000,0.040000,-877.451078,-5409.797588,519999.313497,-12.543767,-0.000003,0.000007,-0.000000
-2.500000,0.740000,0.010000,0.040000,-877.426738,5364.656083,528992.135719,-1054.915167,-0.000003,0.000007,-0.000000
-2.460000,0.700000,0.064031,0.040000,-1623.240299,-17514.001002,300426.232139,-7.447491,-0.000002,0.000004,-0.000000
-2.420000,0.700000,0.094340,0.040000,-1743.145888,-26512.704156,113867.317528,-2.999510,-0.000001,0.000002,-0.000000
-2.420000,0.740000,0.080623,0.040000,-1763.868943,-11531.045540,118219.993353,781.790509,-0.000001,0.000002,0.000000
-2.460000,0.740000,0.041231,0.040000,-1872.887787,76412.828240,419874.500226,174.923648,-0.000001,0.000005,0.000000
-2.380000,0.700000,0.130000,0.040000,-1753.506010,-3145.055309,3007.746269,-0.974613,-0.000000,0.000000,-0.000000
-2.340000,0.700000,0.167631,0.040000,-1754.222974,-335.233249,459.357561,-0.804230,-0.000000,0.000000,-0.000000
-2.340000,0.740000,0.160312,0.040000,-1754.301095,294.783659,-428.482696,-96.048832,0.000000,-0.000000,-0.000000
-2.380000,0.740000,0.120416,0.040000,-1755.135998,861.430464,2614.258243,-651.623369,-0.000000,0.000000,-0.000000
-2.300000,0.700000,0.206155,0.040000,-1754.160359,-25.007133,35.968014,-0.493282,-0.000000,0.000000,-0.000000
-2.260000,0.700000,0.245153,0.040000,-1754.041638,1.190775,-1.401230,-0.177095,0.000000,-0.000000,-0.000000
-2.260000,0.740000,0.240208,0.040000,-1753.982404,5.765572,-7.878958,-0.786019,0.000000,-0.000000,-0.000000
-2.300000,0.740000,0.200250,0.040000,-1754.111816,27.124800,-38.490439,-8.546469,0.000000,-0.000000,-0.000000
-2.220000,0.700000,0.284429,0.040000,-1753.925416,3.320151,-4.519643,0.116873,0.000000,-0.000000,0.000000
-2.180000,0.700000,0.323883,0.040000,-1753.816352,3.420073,-4.663230,0.416353,0.000000,-0.000000,0.000000
-2.180000,0.740000,0.320156,0.040000,-1753.756751,3.666595,-4.961704,0.574561,0.000000,-0.000000,0.000000
-2.220000,0.740000,0.280179,0.040000,-1753.865370,3.911765,-5.182933,0.160561,0.000000,-0.000000,0.000000
2.180000,0.700000,0.323883,0.040000,-1753.805490,3.420034,-4.663191,-0.416346,0.000000,-0.000000,-0.000000
2.220000,0.700000,0.284429,0.040000,-1753.914354,3.320113,-4.519604,-0.116868,0.000000,-0.000000,-0.000000
2.220000,0.740000,0.280179,0.040000,-1753.854309,3.911722,-5.182890,-0.160555,0.000000,-0.000000,-0.000000
2.180000,0.740000,0.320156,0.040000,-1753.745890,3.666554,-4.961662,-0.574553,0.000000,-0.000000,-0.000000
2.260000,0.700000,0.245153,0.040000,-1754.030377,1.190751,-1.401214,0.177098,0.000000,-0.000000,0.000000
2.300000,0.700000,0.206155,0.040000,-1754.148897,-25.006970,35.967764,0.493283,-0.000000,0.000000,0.000000
2.300000,0.740000,0.200250,0.040000,-1754.100354,27.124591,-38.490158,8.546412,0.000000,-0.000000,0.000000
2.260000,0.740000,0.240208,0.040000,-1753.971143,5.765516,-7.878896,0.786018,0.000000,-0.000000,0.000000
2.340000,0.700000,0.167631,0.040000,-1754.211312,-335.230871,459.354286,0.804228,-0.000000,0.000000,0.000000
2.380000,0.700000,0.130000,0.040000,-1753.494154,-3145.032845,3007.724746,0.974612,-0.000000,0.000000,0.000000
2.380000,0.740000,0.120416,0.040000,-1755.124131,861.424205,2614.239847,651.618707,-0.000000,0.000000,0.000000
2.340000,0.740000,0.160312,0.040000,-1754.289433,294.781538,-428.479630,96.048150,0.000000,-0.000000,0.000000
2.420000,0.700000,0.094340,0.040000,-1743.133907,-26512.515130,113866.508821,2.999478,-0.000001,0.000002,0.000000
2.460000,0.700000,0.064031,0.040000,-1623.228974,-17513.874073,300424.100067,7.447385,-0.000002,0.000004,0.000000
2.460000,0.740000,0.041231,0.040000,-1872.874680,76412.281901,419871.515935,-174.920881,-0.000001,0.000005,-0.000000
2.420000,0.740000,0.080623,0.040000,-1763.856815,-11530.964449,118219.153490,-781.784830,-0.000001,0.000002,-0.000000
2.500000,0.700000,0.050000,0.040000,-877.444895,-5409.743108,519995.601030,12.543576,-0.000003,0.000007,0.000000
2.500000,0.740000,0.010000,0.040000,-877.420463,5364.599354,528988.393230,1054.910220,-0.000003,0.000007,0.000000
-2.500000,0.780000,0.030000,0.040000,-877.399689,-3540.290490,514354.159138,-1983.482815,-0.000003,0.000007,-0.000000
-2.500000,0.820000,0.030000,0.040000,-877.369635,-3541.627622,514334.544672,1951.518608,-0.000003,0.000007,0.000000
-2.460000,0.780000,0.050000,0.040000,-1702.166883,11755.259020,338465.983604,184.104126,-0.000002,0.000004,0.000000
-2.420000,0.780000,0.085440,0.040000,-1750.852050,-21784.478581,116592.968315,981.767906,-0.000001,0.000002,0.000000
-2.420000,0.820000,0.085440,0.040000,-1750.783364,-21785.089448,116588.481665,-989.641374,-0.000001,0.000002,-0.000000
-2.460000,0.820000,0.050000,0.040000,-1702.095845,11750.601672,338450.429013,-203.348017,-0.000002,0.000004,-0.000000
-2.380000,0.780000,0.123693,0.040000,-1754.029727,-2065.087034,4011.399292,2210.998205,-0.000000,0.000000,0.000000
-2.340000,0.780000,0.162788,0.040000,-1754.151854,-117.227998,185.752104,163.553001,-0.000000,0.000000,0.000000
-2.340000,0.820000,0.162788,0.040000,-1754.080184,-116.832322,185.347523,-165.328894,-0.000000,0.000000,-0.000000
-2.380000,0.820000,0.123693,0.040000,-1753.959705,-2065.007303,4011.062188,-2213.533837,-0.000000,0.000000,-0.000000
-2.300000,0.780000,0.202237,0.040000,-1754.039112,-4.653879,7.387474,12.637172,-0.000000,0.000000,0.000000
-2.260000,0.780000,0.241868,0.040000,-1753.915526,3.513070,-4.449420,0.994003,0.000000,-0.000000,0.000000
-2.260000,0.820000,0.241868,0.040000,-1753.842414,3.929475,-4.866502,-1.041809,0.000000,-0.000000,-0.000000
-2.300000,0.820000,0.202237,0.040000,-1753.966378,-4.222809,6.956338,-13.539369,-0.000000,0.000000,-0.000000
-2.220000,0.780000,0.281603,0.040000,-1753.799132,4.106070,-5.338188,0.379556,0.000000,-0.000000,0.000000
-2.180000,0.780000,0.321403,0.040000,-1753.691244,4.059941,-5.306970,0.674612,0.000000,-0.000000,0.000000
-2.180000,0.820000,0.321403,0.040000,-1753.619327,4.325455,-5.623085,0.899228,0.000000,-0.000000,0.000000
-2.220000,0.820000,0.281603,0.040000,-1753.726306,4.443979,-5.637583,0.347741,0.000000,-0.000000,0.000000
2.180000,0.780000,0.321403,0.040000,-1753.680384,4.059897,-5.306927,-0.674602,0.000000,-0.000000,-0.000000
2.220000,0.780000,0.281603,0.040000,-1753.788072,4.106026,-5.338144,-0.379549,0.000000,-0.000000,-0.000000
2.220000,0.820000,0.281603,0.040000,-1753.715246,4.443932,-5.637536,-0.347734,0.000000,-0.000000,-0.000000
2.180000,0.820000,0.321403,0.040000,-1753.608468,4.325409,-5.623039,-0.899216,0.000000,-0.000000,-0.000000
2.260000,0.780000,0.241868,0.040000,-1753.904266,3.513030,-4.449382,-0.993991,0.000000,-0.000000,-0.000000
2.300000,0.780000,0.202237,0.040000,-1754.027652,-4.653862,7.387428,-12.637077,-0.000000,0.000000,-0.000000
2.300000,0.820000,0.202237,0.040000,-1753.954919,-4.222795,6.956295,13.539278,-0.000000,0.000000,0.000000
2.260000,0.820000,0.241868,0.040000,-1753.831154,3.929432,-4.866461,1.041807,0.000000,-0.000000,0.000000
2.340000,0.780000,0.162788,0.040000,-1754.140194,-117.227177,185.750786,-163.551829,-0.000000,0.000000,-0.000000
2.380000,0.780000,0.123693,0.040000,-1754.017868,-2065.072316,4011.370685,-2210.982416,-0.000000,0.000000,-0.000000
2.380000,0.820000,0.123693,0.040000,-1753.947847,-2064.992582,4011.033582,2213.518040,-0.000000,0.000000,0.000000
2.340000,0.820000,0.162788,0.040000,-1754.068524,-116.831504,185.346207,165.327718,-0.000000,0.000000,0.000000
2.420000,0.780000,0.085440,0.040000,-1750.840015,-21784.323196,116592.138820,-981.759820,-0.000001,0.000002,-0.000000
2.460000,0.780000,0.050000,0.040000,-1702.154996,11755.177398,338463.575960,-184.101603,-0.000002,0.000004,-0.000000
2.460000,0.820000,0.050000,0.040000,-1702.083959,11750.520127,338448.021612,203.345236,-0.000002,0.000004,0.000000
2.420000,0.820000,0.085440,0.040000,-1750.771330,-21784.934050,116587.652236,989.633204,-0.000001,0.000002,0.000000
2.500000,0.780000,0.030000,0.040000,-877.393490,-3540.254772,514350.493710,1983.470867,-0.000003,0.000007,0.000000
2.500000,0.820000,0.030000,0.040000,-877.363437,-3541.591882,514330.879550,-1951.507116,-0.000003,0.000007,-0.000000
-2.500000,0.860000,0.010000,0.040000,-877.336238,5366.305177,528936.863366,1023.212746,-0.000003,0.000007,0.000000
-2.500000,0.900000,0.050000,0.040000,-877.299114,-5407.494446,519906.416689,-21.035641,-0.000003,0.000007,-0.000000
-2.460000,0.860000,0.041231,0.040000,-1872.689356,76409.788411,419832.253799,-194.382251,-0.000001,0.000005,-0.000000
-2.420000,0.860000,0.080623,0.040000,-1763.666249,-11527.154368,118206.347733,-790.005631,-0.000001,0.000002,-0.000000
-2.420000,0.900000,0.094340,0.040000,-1742.807564,-26505.878923,113845.202640,-4.748028,-0.000001,0.000002,-0.000000
-2.460000,0.900000,0.064031,0.040000,-1622.939050,-17509.033991,300371.601403,-12.353662,-0.000002,0.000004,-0.000000
-2.380000,0.860000,0.120416,0.040000,-1754.925749,863.041982,2612.429353,648.508451,-0.000000,0.000000,0.000000
-2.340000,0.860000,0.160312,0.040000,-1754.085421,296.154512,-429.839524,94.226051,0.000000,-0.000000,0.000000
-2.340000,0.900000,0.167631,0.040000,-1753.861098,-332.882723,456.982603,-0.881216,-0.000000,0.000000,-0.000000
-2.380000,0.900000,0.130000,0.040000,-1753.153230,-3142.202927,3004.911308,-1.237155,-0.000000,0.000000,-0.000000
-2.300000,0.860000,0.200250,0.040000,-1753.892920,28.446016,-39.811910,7.672747,0.000000,-0.000000,0.000000
-2.260000,0.860000,0.240208,0.040000,-1753.762400,7.023035,-9.138764,0.785639,0.000000,-0.000000,0.000000
-2.260000,0.900000,0.245153,0.040000,-1753.672727,3.306702,-3.521372,0.275963,0.000000,-0.000000,0.000000
-2.300000,0.900000,0.206155,0.040000,-1753.793184,-22.779905,33.736864,-0.299404,-0.000000,0.000000,-0.000000
-2.220000,0.860000,0.280179,0.040000,-1753.646265,5.139442,-6.428519,0.612020,0.000000,-0.000000,0.000000
-2.180000,0.860000,0.320156,0.040000,-1753.540425,4.854320,-6.107350,1.043824,0.000000,-0.000000,0.000000
-2.180000,0.900000,0.323883,0.040000,-1753.453887,5.150500,-6.454822,1.387609,0.000000,-0.000000,0.000000
-2.220000,0.900000,0.284429,0.040000,-1753.558149,5.240793,-6.379103,0.801563,0.000000,-0.000000,0.000000
2.180000,0.860000,0.320156,0.040000,-1753.529567,4.854271,-6.107301,-1.043811,0.000000,-0.000000,-0.000000
2.220000,0.860000,0.280179,0.040000,-1753.635207,5.139391,-6.428467,-0.612010,0.000000,-0.000000,-0.000000
2.220000,0.900000,0.284429,0.040000,-1753.547092,5.240741,-6.379052,-0.801551,0.000000,-0.000000,-0.000000
2.180000,0.900000,0.323883,0.040000,-1753.443030,5.150449,-6.454770,-1.387593,0.000000,-0.000000,-0.000000
2.260000,0.860000,0.240208,0.040000,-1753.751142,7.022970,-9.138692,-0.785628,0.000000,-0.000000,-0.000000
2.300000,0.860000,0.200250,0.040000,-1753.881462,28.445797,-39.811618,-7.672686,0.000000,-0.000000,-0.000000
2.300000,0.900000,0.206155,0.040000,-1753.781727,-22.779759,33.736630,0.299407,-0.000000,0.000000,0.000000
2.260000,0.900000,0.245153,0.040000,-1753.661471,3.306663,-3.521340,-0.275955,0.000000,-0.000000,-0.000000
2.340000,0.860000,0.160312,0.040000,-1754.073763,296.152381,-429.836447,-94.225373,0.000000,-0.000000,-0.000000
2.380000,0.860000,0.120416,0.040000,-1754.913885,863.035709,2612.410974,-648.503805,-0.000000,0.000000,-0.000000
2.380000,0.900000,0.130000,0.040000,-1753.141379,-3142.180489,3004.889810,1.237154,-0.000000,0.000000,0.000000
2.340000,0.900000,0.167631,0.040000,-1753.849441,-332.880362,456.979347,0.881216,-0.000000,0.000000,0.000000
2.420000,0.860000,0.080623,0.040000,-1763.654124,-11527.073327,118205.508074,789.999863,-0.000001,0.000002,0.000000
2.460000,0.860000,0.041231,0.040000,-1872.676253,76409.242131,419829.270163,194.379224,-0.000001,0.000005,0.000000
2.460000,0.900000,0.064031,0.040000,-1622.927731,-17508.907124,300369.470169,12.353506,-0.000002,0.000004,0.000000
2.420000,0.900000,0.094340,0.040000,-1742.795588,-26505.689987,113844.394262,4.747980,-0.000001,0.000002,0.000000
2.500000,0.860000,0.010000,0.040000,-877.329964,5366.248429,528933.121737,-1023.208247,-0.000003,0.000007,-0.000000
2.500000,0.900000,0.050000,0.040000,-877.292933,-5407.439991,519902.705661,21.035359,-0.000003,0.000007,0.000000
-2.500000,0.940000,0.010000,0.040000,-877.257819,5364.930571,528886.952332,-1063.743754,-0.000003,0.000007,-0.000000
-2.500000,0.980000,0.030000,0.040000,-877.211845,-3537.102297,514240.874969,-1993.451797,-0.000003,0.000007,-0.000000
-2.460000,0.940000,0.041231,0.040000,-1872.503496,76399.506497,419790.002896,169.425536,-0.000001,0.000005,0.000000
-2.420000,0.940000,0.080623,0.040000,-1763.489416,-11526.525343,118194.492059,779.514046,-0.000001,0.000002,0.000000
-2.420000,0.980000,0.085440,0.040000,-1750.434331,-21776.233469,116564.868193,979.396132,-0.000001,0.000002,0.000000
-2.460000,0.980000,0.050000,0.040000,-1701.781265,11756.917104,338391.271940,178.002769,-0.000002,0.000004,0.000000
-2.380000,0.940000,0.120416,0.040000,-1754.744788,863.843288,2611.136746,-651.986087,-0.000000,0.000000,-0.000000
-2.340000,0.940000,0.160312,0.040000,-1753.900734,297.326773,-431.002504,-96.072130,0.000000,-0.000000,-0.000000
-2.340000,0.980000,0.162788,0.040000,-1753.708878,-114.213869,182.721801,163.578036,-0.000000,0.000000,0.000000
-2.380000,0.980000,0.123693,0.040000,-1753.596444,-2061.471141,4007.422874,2210.227354,-0.000000,0.000000,0.000000
-2.300000,0.940000,0.200250,0.040000,-1753.706328,29.633627,-40.999269,-8.250298,0.000000,-0.000000,-0.000000
-2.260000,0.940000,0.240208,0.040000,-1753.575796,8.144708,-10.262771,-0.193502,0.000000,-0.000000,-0.000000
-2.260000,0.980000,0.241868,0.040000,-1753.467410,6.192412,-7.134746,1.760175,0.000000,-0.000000,0.000000
-2.300000,0.980000,0.202237,0.040000,-1753.591286,-1.801526,4.531620,13.062739,-0.000000,0.000000,0.000000
-2.220000,0.940000,0.280179,0.040000,-1753.461442,6.182386,-7.461252,0.936549,0.000000,-0.000000,0.000000
-2.180000,0.940000,0.320156,0.040000,-1753.359030,5.805496,-7.058439,1.584896,0.000000,-0.000000,0.000000
-2.180000,0.980000,0.321403,0.040000,-1753.255051,6.190779,-7.513141,2.104386,0.000000,-0.000000,0.000000
-2.220000,0.980000,0.281603,0.040000,-1753.355007,6.512427,-7.667012,1.474125,0.000000,-0.000000,0.000000
2.180000,0.940000,0.320156,0.040000,-1753.348174,5.805440,-7.058383,-1.584878,0.000000,-0.000000,-0.000000
2.220000,0.940000,0.280179,0.040000,-1753.450386,6.182327,-7.461193,-0.936536,0.000000,-0.000000,-0.000000
2.220000,0.980000,0.281603,0.040000,-1753.343953,6.512365,-7.666951,-1.474107,0.000000,-0.000000,-0.000000
2.180000,0.980000,0.321403,0.040000,-1753.244196,6.190720,-7.513082,-2.104364,0.000000,-0.000000,-0.000000
2.260000,0.940000,0.240208,0.040000,-1753.564541,8.144634,-10.262691,0.193508,0.000000,-0.000000,0.000000
2.300000,0.940000,0.200250,0.040000,-1753.694872,29.633400,-40.998969,8.250246,0.000000,-0.000000,0.000000
2.300000,0.980000,0.202237,0.040000,-1753.579831,-1.801530,4.531595,-13.062639,-0.000000,0.000000,-0.000000
2.260000,0.980000,0.241868,0.040000,-1753.456156,6.192352,-7.134688,-1.760156,0.000000,-0.000000,-0.000000
2.340000,0.940000,0.160312,0.040000,-1753.889077,297.324633,-430.999420,96.071451,0.000000,-0.000000,0.000000
2.380000,0.940000,0.120416,0.040000,-1754.732926,863.837013,2611.118376,651.981425,-0.000000,0.000000,0.000000
2.380000,0.980000,0.123693,0.040000,-1753.584591,-2061.456453,4007.394303,-2210.211571,-0.000000,0.000000,-0.000000
2.340000,0.980000,0.162788,0.040000,-1753.697224,-114.213071,182.720505,-163.576861,-0.000000,0.000000,-0.000000
2.420000,0.940000,0.080623,0.040000,-1763.477293,-11526.444302,118193.652565,-779.508388,-0.000001,0.000002,-0.000000
2.460000,0.940000,0.041231,0.040000,-1872.490395,76398.960377,419787.019872,-169.422825,-0.000001,0.000005,-0.000000
2.460000,0.980000,0.050000,0.040000,-1701.769384,11756.835483,338388.865386,-178.000306,-0.000002,0.000004,-0.000000
2.420000,0.980000,0.085440,0.040000,-1750.422301,-21776.078182,116564.039092,-979.388068,-0.000001,0.000002,-0.000000
2.500000,0.940000,0.010000,0.040000,-877.251546,5364.873850,528883.211428,1063.738715,-0.000003,0.000007,0.000000
2.500000,0.980000,0.030000,0.040000,-877.205650,-3537.066611,514237.211200,1993.439751,-0.000003,0.000007,0.000000
-2.500000,1.020000,0.030000,0.040000,-877.160604,-3539.291055,514207.266227,1939.557184,-0.000003,0.000007,0.000000
-2.500000,1.060000,0.010000,0.040000,-877.103410,5368.036544,528792.120717,1010.174909,-0.000003,0.000007,0.000000
-2.460000,1.020000,0.050000,0.040000,-1701.660598,11749.103194,338364.591534,-210.064035,-0.000002,0.000004,-0.000000
-2.420000,1.020000,0.085440,0.040000,-1750.318352,-21777.138410,116557.075680,-991.844656,-0.000001,0.000002,-0.000000
-2.420000,1.060000,0.080623,0.040000,-1763.146992,-11519.458517,118170.772828,-792.535642,-0.000001,0.000002,-0.000000
-2.460000,1.060000,0.041231,0.040000,-1872.166331,76394.735183,419717.443924,-201.904850,-0.000001,0.000005,-0.000000
-2.380000,1.020000,0.123693,0.040000,-1753.479079,-2061.210339,4006.722673,-2213.302855,-0.000000,0.000000,-0.000000
-2.340000,1.020000,0.162788,0.040000,-1753.589793,-113.435845,181.928299,-165.127229,-0.000000,0.000000,-0.000000
-2.340000,1.060000,0.160312,0.040000,-1753.542183,299.979664,-433.632477,94.492705,0.000000,-0.000000,0.000000
-2.380000,1.060000,0.120416,0.040000,-1754.392178,866.973726,2607.635185,647.961294,-0.000000,0.000000,0.000000
-2.300000,1.020000,0.202237,0.040000,-1753.471643,-0.990153,3.719915,-12.940698,-0.000000,0.000000,-0.000000
-2.260000,1.020000,0.241868,0.040000,-1753.348500,6.948461,-7.892632,-0.058195,0.000000,-0.000000,-0.000000
-2.260000,1.060000,0.240208,0.040000,-1753.217853,10.428537,-12.552675,2.040714,0.000000,-0.000000,0.000000
-2.300000,1.060000,0.200250,0.040000,-1753.346093,32.119181,-43.485952,8.479908,0.000000,-0.000000,0.000000
-2.220000,1.020000,0.281603,0.040000,-1753.238034,7.278238,-8.473161,1.591868,0.000000,-0.000000,0.000000
-2.180000,1.020000,0.321403,0.040000,-1753.141101,6.946367,-8.195021,2.391120,0.000000,-0.000000,0.000000
-2.180000,1.060000,0.320156,0.040000,-1753.016231,7.463619,-8.811461,3.147527,0.000000,-0.000000,0.000000
-2.220000,1.060000,0.280179,0.040000,-1753.109436,8.137128,-9.318244,2.328674,0.000000,-0.000000,0.000000
2.180000,1.020000,0.321403,0.040000,-1753.130248,6.946302,-8.194956,-2.391095,0.000000,-0.000000,-0.000000
2.220000,1.020000,0.281603,0.040000,-1753.226982,7.278171,-8.473094,-1.591849,0.000000,-0.000000,-0.000000
2.220000,1.060000,0.280179,0.040000,-1753.098385,8.137054,-9.318172,-2.328649,0.000000,-0.000000,-0.000000
2.180000,1.060000,0.320156,0.040000,-1753.005379,7.463551,-8.811392,-3.147496,0.000000,-0.000000,-0.000000
2.260000,1.020000,0.241868,0.040000,-1753.337247,6.948396,-7.892569,0.058202,0.000000,-0.000000,0.000000
2.300000,1.020000,0.202237,0.040000,-1753.460190,-0.990162,3.719896,12.940613,-0.000000,0.000000,0.000000
2.300000,1.060000,0.200250,0.040000,-1753.334642,32.118935,-43.485634,-8.479839,0.000000,-0.000000,-0.000000
2.260000,1.060000,0.240208,0.040000,-1753.206602,10.428447,-12.552579,-2.040691,0.000000,-0.000000,-0.000000
2.340000,1.020000,0.162788,0.040000,-1753.578140,-113.435052,181.927009,165.126058,-0.000000,0.000000,0.000000
2.380000,1.020000,0.123693,0.040000,-1753.467227,-2061.195650,4006.694106,2213.287066,-0.000000,0.000000,0.000000
2.380000,1.060000,0.120416,0.040000,-1754.380320,866.967426,2607.616846,-647.956651,-0.000000,0.000000,-0.000000
2.340000,1.060000,0.160312,0.040000,-1753.530531,299.977506,-433.629374,-94.492023,0.000000,-0.000000,-0.000000
2.420000,1.020000,0.085440,0.040000,-1750.306323,-21776.983105,116556.246679,991.836469,-0.000001,0.000002,0.000000
2.460000,1.020000,0.050000,0.040000,-1701.648718,11749.021684,338362.185338,210.061191,-0.000002,0.000004,0.000000
2.460000,1.060000,0.041231,0.040000,-1872.153234,76394.189144,419714.461870,201.901754,-0.000001,0.000005,0.000000
2.420000,1.060000,0.080623,0.040000,-1763.134873,-11519.377555,118169.933639,792.529855,-0.000001,0.000002,0.000000
2.500000,1.020000,0.030000,0.040000,-877.154409,-3539.255336,514203.602910,-1939.545811,-0.000003,0.000007,-0.000000
2.500000,1.060000,0.010000,0.040000,-877.097139,5367.979791,528788.381086,-1010.170536,-0.000003,0.000007,-0.000000
-2.500000,1.100000,0.050000,0.040000,-877.039466,-5403.097119,519746.738523,-35.946331,-0.000003,0.000007,-0.000000
-2.500000,1.140000,0.010000,0.040000,-876.967832,5366.005224,528705.214028,-1079.509383,-0.000003,0.000007,-0.000000
-2.460000,1.100000,0.064031,0.040000,-1622.426570,-17499.909852,300277.401575,-20.816837,-0.000002,0.000004,-0.000000
-2.420000,1.100000,0.094340,0.040000,-1742.235233,-26493.521029,113806.664913,-7.476131,-0.000001,0.000002,-0.000000
-2.420000,1.140000,0.080623,0.040000,-1762.844399,-11517.872345,118149.762199,775.874094,-0.000001,0.000002,0.000000
-2.460000,1.140000,0.041231,0.040000,-1871.846169,76377.438316,419643.819057,159.795706,-0.000001,0.000005,0.000000
-2.380000,1.100000,0.130000,0.040000,-1752.560835,-3136.684615,2999.419005,-1.172454,-0.000000,0.000000,-0.000000
-2.340000,1.100000,0.167631,0.040000,-1753.258822,-328.330202,452.386281,-0.362079,-0.000000,0.000000,-0.000000
-2.340000,1.140000,0.160312,0.040000,-1753.232195,302.352353,-435.990093,-95.311480,0.000000,-0.000000,-0.000000
-2.380000,1.140000,0.120416,0.040000,-1754.085193,868.795919,2604.962613,-652.001283,-0.000000,0.000000,-0.000000
-2.300000,1.100000,0.206155,0.040000,-1753.188373,-18.581688,29.530768,0.789428,-0.000000,0.000000,0.000000
-2.260000,1.100000,0.245153,0.040000,-1753.072094,7.152772,-7.378185,1.873554,0.000000,-0.000000,0.000000
-2.260000,1.140000,0.240208,0.040000,-1752.912919,12.489014,-14.619394,1.835596,0.000000,-0.000000,0.000000
-2.300000,1.140000,0.200250,0.040000,-1753.036807,34.410387,-45.777324,-6.807372,0.000000,-0.000000,-0.000000
-2.220000,1.100000,0.284429,0.040000,-1752.967836,8.760808,-9.880561,2.731544,0.000000,-0.000000,0.000000
-2.180000,1.100000,0.323883,0.040000,-1752.879383,8.337600,-9.588464,3.588379,0.000000,-0.000000,0.000000
-2.180000,1.140000,0.320156,0.040000,-1752.729433,8.973349,-10.345332,4.682121,0.000000,-0.000000,0.000000
-2.220000,1.140000,0.280179,0.040000,-1752.812145,9.903246,-11.028063,3.558329,0.000000,-0.000000,0.000000
2.180000,1.100000,0.323883,0.040000,-1752.868533,8.337526,-9.588390,-3.588344,0.000000,-0.000000,-0.000000
2.220000,1.100000,0.284429,0.040000,-1752.956787,8.760730,-9.880484,-2.731516,0.000000,-0.000000,-0.000000
2.220000,1.140000,0.280179,0.040000,-1752.801097,9.903160,-11.027978,-3.558294,0.000000,-0.000000,-0.000000
2.180000,1.140000,0.320156,0.040000,-1752.718585,8.973271,-10.345253,-4.682078,0.000000,-0.000000,-0.000000
2.260000,1.100000,0.245153,0.040000,-1753.060845,7.152705,-7.378126,-1.873532,0.000000,-0.000000,-0.000000
2.300000,1.100000,0.206155,0.040000,-1753.176923,-18.581572,29.530565,-0.789413,-0.000000,0.000000,-0.000000
2.300000,1.140000,0.200250,0.040000,-1753.025359,34.410125,-45.776990,6.807333,0.000000,-0.000000,0.000000
2.260000,1.140000,0.240208,0.040000,-1752.901672,12.488909,-14.619283,-1.835573,0.000000,-0.000000,-0.000000
2.340000,1.100000,0.167631,0.040000,-1753.247173,-328.327876,452.383060,0.362086,-0.000000,0.000000,0.000000
2.380000,1.100000,0.130000,0.040000,-1752.548991,-3136.662223,2999.397554,1.172457,-0.000000,0.000000,0.000000
2.380000,1.140000,0.120416,0.040000,-1754.073339,868.789609,2604.944294,651.996624,-0.000000,0.000000,0.000000
2.340000,1.140000,0.160312,0.040000,-1753.220547,302.350178,-435.986974,95.310809,0.000000,-0.000000,0.000000
2.420000,1.100000,0.094340,0.040000,-1742.223264,-26493.332232,113805.857028,7.476061,-0.000001,0.000002,0.000000
2.460000,1.100000,0.064031,0.040000,-1622.415257,-17499.783086,300275.271588,20.816604,-0.000002,0.000004,0.000000
2.460000,1.140000,0.041231,0.040000,-1871.833077,76376.892509,419640.837920,-159.793080,-0.000001,0.000005,-0.000000
2.420000,1.140000,0.080623,0.040000,-1762.832284,-11517.791388,118148.923262,-775.868467,-0.000001,0.000002,-0.000000
2.500000,1.100000,0.050000,0.040000,-877.033289,-5403.042707,519743.029629,35.945910,-0.000003,0.000007,0.000000
2.500000,1.140000,0.010000,0.040000,-876.961563,5365.948506,528701.475480,1079.504203,-0.000003,0.000007,0.000000
-2.500000,1.180000,0.030000,0.040000,-876.887401,-3530.761733,514043.749544,-2011.620872,-0.000003,0.000007,-0.000000
-2.500000,1.220000,0.030000,0.040000,-876.796852,-3534.319286,513983.797396,1917.490812,-0.000003,0.000007,0.000000
-2.460000,1.180000,0.050000,0.040000,-1701.118293,11761.008462,338260.984992,167.150723,-0.000002,0.000004,0.000000
-2.420000,1.180000,0.085440,0.040000,-1749.720368,-21760.801171,116515.135966,975.638545,-0.000001,0.000002,0.000000
-2.420000,1.220000,0.085440,0.040000,-1749.517723,-21761.960935,116500.904678,-995.299704,-0.000001,0.000002,-0.000000
-2.460000,1.220000,0.050000,0.040000,-1700.905830,11747.622531,338213.304730,-222.211687,-0.000002,0.000004,-0.000000
-2.380000,1.180000,0.123693,0.040000,-1752.862093,-2054.202117,3999.532672,2209.680466,-0.000000,0.000000,0.000000
-2.340000,1.180000,0.162788,0.040000,-1752.965925,-108.198972,176.676262,164.626128,-0.000000,0.000000,0.000000
-2.340000,1.220000,0.162788,0.040000,-1752.762832,-106.542666,174.991890,-163.505898,-0.000000,0.000000,-0.000000
-2.380000,1.220000,0.123693,0.040000,-1752.659219,-2053.364152,3997.916264,-2211.924201,-0.000000,0.000000,-0.000000
-2.300000,1.180000,0.202237,0.040000,-1752.849387,3.681887,-0.959331,14.962934,0.000000,-0.000000,0.000000
-2.260000,1.180000,0.241868,0.040000,-1752.735334,11.104341,-12.062173,4.336122,0.000000,-0.000000,0.000000
-2.260000,1.220000,0.241868,0.040000,-1752.539362,12.498602,-13.461324,3.214322,0.000000,-0.000000,0.000000
-2.300000,1.220000,0.202237,0.040000,-1752.648579,5.287116,-2.565398,-10.433021,0.000000,-0.000000,-0.000000
-2.220000,1.180000,0.281603,0.040000,-1752.640595,10.868462,-11.971124,4.414866,0.000000,-0.000000,0.000000
-2.180000,1.180000,0.321403,0.040000,-1752.565117,10.016829,-11.283363,5.357207,0.000000,-0.000000,0.000000
-2.180000,1.220000,0.321403,0.040000,-1752.385100,10.731914,-12.125248,6.968878,0.000000,-0.000000,0.000000
-2.220000,1.220000,0.281603,0.040000,-1752.451683,11.876936,-12.857726,5.586042,0.000000,-0.000000,0.000000
2.180000,1.180000,0.321403,0.040000,-1752.554270,10.016744,-11.283277,-5.357159,0.000000,-0.000000,-0.000000
2.220000,1.180000,0.281603,0.040000,-1752.629549,10.868370,-11.971032,-4.414824,0.000000,-0.000000,-0.000000
2.220000,1.220000,0.281603,0.040000,-1752.440639,11.876836,-12.857628,-5.585991,0.000000,-0.000000,-0.000000
2.180000,1.220000,0.321403,0.040000,-1752.374256,10.731823,-12.125156,-6.968817,0.000000,-0.000000,-0.000000
2.260000,1.180000,0.241868,0.040000,-1752.724088,11.104246,-12.062080,-4.336081,0.000000,-0.000000,-0.000000
2.300000,1.180000,0.202237,0.040000,-1752.837941,3.681844,-0.959317,-14.962816,0.000000,-0.000000,-0.000000
2.300000,1.220000,0.202237,0.040000,-1752.637135,5.287062,-2.565372,10.432958,0.000000,-0.000000,0.000000
2.260000,1.220000,0.241868,0.040000,-1752.528118,12.498497,-13.461221,-3.214288,0.000000,-0.000000,-0.000000
2.340000,1.180000,0.162788,0.040000,-1752.954279,-108.198218,176.675011,-164.624942,-0.000000,0.000000,-0.000000
2.380000,1.180000,0.123693,0.040000,-1752.850249,-2054.187487,3999.504168,-2209.664688,-0.000000,0.000000,-0.000000
2.380000,1.220000,0.123693,0.040000,-1752.647377,-2053.349523,3997.887770,2211.908430,-0.000000,0.000000,0.000000
2.340000,1.220000,0.162788,0.040000,-1752.751188,-106.541924,174.990651,163.504742,-0.000000,0.000000,0.000000
2.420000,1.180000,0.085440,0.040000,-1749.708347,-21760.646044,116514.307465,-975.630511,-0.000001,0.000002,-0.000000
2.460000,1.180000,0.050000,0.040000,-1701.106419,11760.926828,338258.580071,-167.148354,-0.000002,0.000004,-0.000000
2.460000,1.220000,0.050000,0.040000,-1700.893959,11747.541063,338210.900359,222.208740,-0.000002,0.000004,0.000000
2.420000,1.220000,0.085440,0.040000,-1749.505704,-21761.805786,116500.076335,995.291492,-0.000001,0.000002,0.000000
2.500000,1.180000,0.030000,0.040000,-876.881210,-3530.726104,514040.088255,2011.608667,-0.000003,0.000007,0.000000
2.500000,1.220000,0.030000,0.040000,-876.790662,-3534.283609,513980.136799,-1917.479635,-0.000003,0.000007,-0.000000
-2.500000,1.260000,0.010000,0.040000,-876.694601,5372.503701,528535.617078,985.565439,-0.000003,0.000007,0.000000
-2.500000,1.300000,0.050000,0.040000,-876.578732,-5393.692630,519460.125810,-64.711720,-0.000003,0.000007,-0.000000
-2.460000,1.260000,0.041231,0.040000,-1871.252012,76370.387238,419513.823108,-215.740701,-0.000001,0.000005,-0.000000
-2.420000,1.260000,0.080623,0.040000,-1762.245495,-11503.983934,118106.373539,-796.472602,-0.000001,0.000002,-0.000000
-2.420000,1.300000,0.094340,0.040000,-1741.231690,-26469.334667,113735.828740,-11.620316,-0.000001,0.000002,-0.000000
-2.460000,1.300000,0.064031,0.040000,-1621.521064,-17481.569920,300107.355111,-36.648865,-0.000002,0.000004,-0.000000
-2.380000,1.260000,0.120416,0.040000,-1753.475056,875.487112,2597.613977,648.259399,-0.000000,0.000000,0.000000
-2.340000,1.260000,0.160312,0.040000,-1752.620176,307.898377,-441.498120,96.591270,0.000000,-0.000000,0.000000
-2.340000,1.300000,0.167631,0.040000,-1752.228969,-318.807330,442.780350,2.679404,-0.000000,0.000000,0.000000
-2.380000,1.300000,0.130000,0.040000,-1751.533548,-3124.943493,2987.711191,0.648131,-0.000000,0.000000,0.000000
-2.300000,1.260000,0.200250,0.040000,-1752.431797,39.321122,-50.690856,11.758538,0.000000,-0.000000,0.000000
-2.260000,1.260000,0.240208,0.040000,-1752.322773,16.694361,-18.840425,6.201192,0.000000,-0.000000,0.000000
-2.260000,1.300000,0.245153,0.040000,-1752.081048,14.212637,-14.465248,7.174561,0.000000,-0.000000,0.000000
-2.300000,1.300000,0.206155,0.040000,-1752.171289,-10.285231,21.219257,5.104909,-0.000000,0.000000,0.000000
-2.220000,1.260000,0.280179,0.040000,-1752.243573,13.478320,-14.556524,6.849704,0.000000,-0.000000,0.000000
-2.180000,1.260000,0.320156,0.040000,-1752.187946,11.942815,-13.235792,7.981154,0.000000,-0.000000,0.000000
-2.180000,1.300000,0.323883,0.040000,-1751.972131,12.715952,-14.133446,10.390698,0.000000,-0.000000,0.000000
-2.220000,1.300000,0.284429,0.040000,-1752.014096,14.358513,-15.184739,8.906926,0.000000,-0.000000,0.000000
2.180000,1.260000,0.320156,0.040000,-1752.177104,11.942716,-13.235692,-7.981085,0.000000,-0.000000,-0.000000
2.220000,1.260000,0.280179,0.040000,-1752.232532,13.478209,-14.556415,-6.849643,0.000000,-0.000000,-0.000000
2.220000,1.300000,0.284429,0.040000,-1752.003056,14.358397,-15.184626,-8.906849,0.000000,-0.000000,-0.000000
2.180000,1.300000,0.323883,0.040000,-1751.961291,12.715848,-14.133341,-10.390611,0.000000,-0.000000,-0.000000
2.260000,1.260000,0.240208,0.040000,-1752.311531,16.694226,-18.840284,-6.201135,0.000000,-0.000000,-0.000000
2.300000,1.260000,0.200250,0.040000,-1752.420356,39.320824,-50.690486,-11.758442,0.000000,-0.000000,-0.000000
2.300000,1.300000,0.206155,0.040000,-1752.159851,-10.285175,21.219114,-5.104858,-0.000000,0.000000,-0.000000
2.260000,1.300000,0.245153,0.040000,-1752.069809,14.212520,-14.465139,-7.174496,0.000000,-0.000000,-0.000000
2.340000,1.260000,0.160312,0.040000,-1752.608534,307.896162,-441.494960,-96.590568,0.000000,-0.000000,-0.000000
2.380000,1.260000,0.120416,0.040000,-1753.463209,875.480751,2597.595717,-648.254751,-0.000000,0.000000,-0.000000
2.380000,1.300000,0.130000,0.040000,-1751.521715,-3124.921195,2987.689832,-0.648109,-0.000000,0.000000,-0.000000
2.340000,1.300000,0.167631,0.040000,-1752.217331,-318.805073,442.777199,-2.679370,-0.000000,0.000000,-0.000000
2.420000,1.260000,0.080623,0.040000,-1762.233386,-11503.903112,118105.535081,796.466785,-0.000001,0.000002,0.000000
2.460000,1.260000,0.041231,0.040000,-1871.238927,76369.841539,419510.843462,215.737490,-0.000001,0.000005,0.000000
2.460000,1.300000,0.064031,0.040000,-1621.509761,-17481.443328,300105.227053,36.648503,-0.000002,0.000004,0.000000
2.420000,1.300000,0.094340,0.040000,-1741.219732,-26469.146108,113735.021633,11.620217,-0.000001,0.000002,0.000000
2.500000,1.260000,0.010000,0.040000,-876.688335,5372.446925,528531.880481,-985.561277,-0.000003,0.000007,-0.000000
2.500000,1.300000,0.050000,0.040000,-876.572561,-5393.638300,519456.420197,64.711058,-0.000003,0.000007,0.000000
-2.500000,1.340000,0.010000,0.040000,-876.446903,5370.060408,528374.614952,-1110.666449,-0.000003,0.000007,-0.000000
-2.500000,1.380000,0.030000,0.040000,-876.296221,-3516.112274,513679.284178,-2048.596478,-0.000003,0.000007,-0.000000
-2.460000,1.340000,0.041231,0.040000,-1870.669499,76340.487985,419377.269732,141.457324,-0.000001,0.000005,0.000000
-2.420000,1.340000,0.080623,0.040000,-1761.700316,-11499.407180,118066.254204,770.210779,-0.000001,0.000002,0.000000
-2.420000,1.380000,0.085440,0.040000,-1748.437799,-21728.633190,116420.470121,970.162996,-0.000001,0.000002,0.000000
-2.460000,1.380000,0.050000,0.040000,-1699.917110,11772.910272,338019.242150,146.115381,-0.000002,0.000004,0.000000
-2.380000,1.340000,0.120416,0.040000,-1752.929726,880.145401,2591.399165,-649.853806,-0.000000,0.000000,-0.000000
-2.340000,1.340000,0.160312,0.040000,-1752.079347,313.114947,-446.688642,-91.172276,0.000000,-0.000000,-0.000000
-2.340000,1.380000,0.162788,0.040000,-1751.672646,-95.181892,163.598494,170.226539,-0.000000,0.000000,0.000000
-2.380000,1.380000,0.123693,0.040000,-1751.560910,-2037.835792,3982.044427,2211.736042,-0.000000,0.000000,0.000000
-2.300000,1.340000,0.200250,0.040000,-1751.903644,43.912958,-55.282145,-1.141116,0.000000,-0.000000,-0.000000
-2.260000,1.340000,0.240208,0.040000,-1751.814619,20.407885,-22.569225,8.602598,0.000000,-0.000000,0.000000
-2.260000,1.380000,0.241868,0.040000,-1751.517125,19.933592,-20.928569,12.995525,0.000000,-0.000000,0.000000
-2.300000,1.380000,0.202237,0.040000,-1751.584897,14.617956,-11.907296,22.420894,0.000000,-0.000000,0.000000
-2.220000,1.340000,0.280179,0.040000,-1751.761345,16.277273,-17.211792,10.626517,0.000000,-0.000000,0.000000
-2.180000,1.340000,0.320156,0.040000,-1751.736122,13.949619,-15.277167,11.902959,0.000000,-0.000000,0.000000
-2.180000,1.380000,0.321403,0.040000,-1751.478366,14.736372,-16.177483,15.493253,0.000000,-0.000000,0.000000
-2.220000,1.380000,0.281603,0.040000,-1751.482760,17.412248,-18.108364,14.084217,0.000000,-0.000000,0.000000
2.180000,1.340000,0.320156,0.040000,-1751.725285,13.949507,-15.277054,-11.902860,0.000000,-0.000000,-0.000000
2.220000,1.340000,0.280179,0.040000,-1751.750308,16.277143,-17.211664,-10.626426,0.000000,-0.000000,-0.000000
2.220000,1.380000,0.281603,0.040000,-1751.471726,17.412110,-18.108230,-14.084100,0.000000,-0.000000,-0.000000
2.180000,1.380000,0.321403,0.040000,-1751.467531,14.736255,-16.177365,-15.493127,0.000000,-0.000000,-0.000000
2.260000,1.340000,0.240208,0.040000,-1751.803383,20.407724,-22.569057,-8.602522,0.000000,-0.000000,-0.000000
2.300000,1.340000,0.200250,0.040000,-1751.892208,43.912628,-55.281743,1.141123,0.000000,-0.000000,0.000000
2.300000,1.380000,0.202237,0.040000,-1751.573465,14.617835,-11.907203,-22.420717,0.000000,-0.000000,-0.000000
2.260000,1.380000,0.241868,0.040000,-1751.505891,19.933435,-20.928414,-12.995416,0.000000,-0.000000,-0.000000
2.340000,1.340000,0.160312,0.040000,-1752.067711,313.112695,-446.685446,91.171640,0.000000,-0.000000,0.000000
2.380000,1.340000,0.120416,0.040000,-1752.917884,880.139011,2591.380950,649.849169,-0.000000,0.000000,0.000000
2.380000,1.380000,0.123693,0.040000,-1751.549080,-2037.821287,3982.016060,-2211.720249,-0.000000,0.000000,-0.000000
2.340000,1.380000,0.162788,0.040000,-1751.661013,-95.181232,163.597337,-170.225308,-0.000000,0.000000,-0.000000
2.420000,1.340000,0.080623,0.040000,-1761.688213,-11499.326384,118065.416158,-770.205195,-0.000001,0.000002,-0.000000
2.460000,1.340000,0.041231,0.040000,-1870.656419,76339.942632,419374.291541,-141.454847,-0.000001,0.000005,-0.000000
2.460000,1.380000,0.050000,0.040000,-1699.905250,11772.828574,338016.839825,-146.113180,-0.000002,0.000004,-0.000000
2.420000,1.380000,0.085440,0.040000,-1748.425791,-21728.478354,116419.642598,-970.155005,-0.000001,0.000002,-0.000000
2.500000,1.340000,0.010000,0.040000,-876.440640,5370.003674,528370.880075,1110.661015,-0.000003,0.000007,0.000000
2.500000,1.380000,0.030000,0.040000,-876.290036,-3516.076764,513675.626817,2048.583978,-0.000003,0.000007,0.000000
-2.500000,1.420000,0.030000,0.040000,-876.123073,-3521.657402,513562.425193,1871.902097,-0.000003,0.000007,0.000000
-2.500000,1.460000,0.010000,0.040000,-875.922879,5386.638701,528042.194885,932.960962,-0.000003,0.000007,0.000000
-2.460000,1.420000,0.050000,0.040000,-1699.512955,11748.932344,337926.028755,-246.212527,-0.000002,0.000004,-0.000000
-2.420000,1.420000,0.085440,0.040000,-1748.057515,-21729.299443,116391.617250,-999.833110,-0.000001,0.000002,-0.000000
-2.420000,1.460000,0.080623,0.040000,-1760.574213,-11467.844817,117977.978411,-801.013545,-0.000001,0.000002,-0.000000
-2.460000,1.460000,0.041231,0.040000,-1869.537148,76332.374650,419121.792000,-243.543412,-0.000001,0.000005,-0.000000
-2.380000,1.420000,0.123693,0.040000,-1751.187708,-2035.101842,3977.815812,-2205.263897,-0.000000,0.000000,-0.000000
-2.340000,1.420000,0.162788,0.040000,-1751.308339,-91.408647,159.772554,-155.570318,-0.000000,0.000000,-0.000000
-2.340000,1.460000,0.160312,0.040000,-1750.980220,325.525718,-459.024232,107.225519,0.000000,-0.000000,0.000000
-2.380000,1.460000,0.120416,0.040000,-1751.805399,896.414967,2573.872741,654.525965,-0.000000,0.000000,0.000000
-2.300000,1.420000,0.202237,0.040000,-1751.235245,17.774753,-15.061967,-0.566271,0.000000,-0.000000,-0.000000
-2.260000,1.420000,0.241868,0.040000,-1751.187150,22.234545,-23.239129,14.322748,0.000000,-0.000000,0.000000
-2.260000,1.460000,0.240208,0.040000,-1750.821035,27.252728,-29.443736,20.476659,0.000000,-0.000000,0.000000
-2.300000,1.460000,0.200250,0.040000,-1750.849614,53.498607,-64.861056,24.808004,0.000000,-0.000000,0.000000
-2.220000,1.420000,0.281603,0.040000,-1751.176135,19.007889,-19.641696,16.730886,0.000000,-0.000000,0.000000
-2.180000,1.420000,0.321403,0.040000,-1751.197448,15.640098,-17.020525,17.765567,0.000000,-0.000000,0.000000
-2.180000,1.460000,0.320156,0.040000,-1750.892196,16.222792,-17.657571,23.021900,0.000000,-0.000000,0.000000
-2.220000,1.460000,0.280179,0.040000,-1750.839142,20.436204,-20.951804,22.028484,0.000000,-0.000000,0.000000
2.180000,1.420000,0.321403,0.040000,-1751.186616,15.639975,-17.020401,-17.765424,0.000000,-0.000000,-0.000000
2.220000,1.420000,0.281603,0.040000,-1751.165104,19.007741,-19.641552,-16.730749,0.000000,-0.000000,-0.000000
2.220000,1.460000,0.280179,0.040000,-1750.828114,20.436046,-20.951652,-22.028307,0.000000,-0.000000,-0.000000
2.180000,1.460000,0.320156,0.040000,-1750.881367,16.222666,-17.657443,-23.021717,0.000000,-0.000000,-0.000000
2.260000,1.420000,0.241868,0.040000,-1751.175920,22.234372,-23.238958,-14.322627,0.000000,-0.000000,-0.000000
2.300000,1.420000,0.202237,0.040000,-1751.223816,17.774609,-15.061852,0.566286,0.000000,-0.000000,0.000000
2.300000,1.460000,0.200250,0.040000,-1750.838189,53.498209,-64.860586,-24.807806,0.000000,-0.000000,-0.000000
2.260000,1.460000,0.240208,0.040000,-1750.809809,27.252519,-29.443521,-20.476492,0.000000,-0.000000,-0.000000
2.340000,1.420000,0.162788,0.040000,-1751.296710,-91.408013,159.771424,155.569227,-0.000000,0.000000,0.000000
2.380000,1.420000,0.123693,0.040000,-1751.175881,-2035.087351,3977.787473,2205.248188,-0.000000,0.000000,0.000000
2.380000,1.460000,0.120416,0.040000,-1751.793569,896.408456,2573.854660,-654.521265,-0.000000,0.000000,-0.000000
2.340000,1.460000,0.160312,0.040000,-1750.968595,325.523377,-459.020948,-107.224733,0.000000,-0.000000,-0.000000
2.420000,1.420000,0.085440,0.040000,-1748.045511,-21729.144584,116390.790003,999.824870,-0.000001,0.000002,0.000000
2.460000,1.420000,0.050000,0.040000,-1699.501099,11748.850901,337923.627351,246.209392,-0.000002,0.000004,0.000000
2.460000,1.460000,0.041231,0.040000,-1869.524080,76331.829426,419118.816325,243.539987,-0.000001,0.000005,0.000000
2.420000,1.460000,0.080623,0.040000,-1760.562121,-11467.764291,117977.141204,801.007700,-0.000001,0.000002,0.000000
2.500000,1.420000,0.030000,0.040000,-876.116890,-3521.621825,513558.768991,-1871.891287,-0.000003,0.000007,-0.000000
2.500000,1.460000,0.010000,0.040000,-875.916621,5386.581833,528038.463293,-932.957214,-0.000003,0.000007,-0.000000
-2.500000,1.500000,0.050000,0.040000,-875.689750,-5368.829800,518893.763422,-128.135988,-0.000003,0.000007,-0.000000
-2.500000,1.540000,0.010000,0.040000,-875.415982,5387.602862,527702.757425,-1181.620325,-0.000003,0.000007,-0.000000
-2.460000,1.500000,0.064031,0.040000,-1619.785386,-17437.777352,299767.908433,-68.923114,-0.000002,0.000004,-0.000000
-2.420000,1.500000,0.094340,0.040000,-1739.335638,-26414.669537,113590.327342,-15.150145,-0.000001,0.000002,-0.000000
-2.420000,1.540000,0.080623,0.040000,-1759.492051,-11452.260375,117889.417221,765.556067,-0.000001,0.000002,0.000000
-2.460000,1.540000,0.041231,0.040000,-1868.355671,76278.476662,418833.714220,103.640290,-0.000001,0.000005,0.000000
-2.380000,1.500000,0.130000,0.040000,-1749.633620,-3096.598431,2959.390665,12.408859,-0.000000,0.000000,0.000000
-2.340000,1.500000,0.167631,0.040000,-1750.375107,-297.640320,421.456705,17.664207,-0.000000,0.000000,0.000000
-2.340000,1.540000,0.160312,0.040000,-1749.977900,337.022797,-470.442584,-70.496230,0.000000,-0.000000,-0.000000
-2.380000,1.540000,0.120416,0.040000,-1750.755561,909.504155,2557.609244,-634.225470,-0.000000,0.000000,-0.000000
-2.300000,1.500000,0.206155,0.040000,-1750.397556,5.662860,5.267306,22.472649,0.000000,0.000000,0.000000
-2.260000,1.500000,0.245153,0.040000,-1750.412984,25.358606,-25.658508,25.547581,0.000000,-0.000000,0.000000
-2.260000,1.540000,0.240208,0.040000,-1749.962548,31.642257,-33.842919,32.244792,0.000000,-0.000000,0.000000
-2.300000,1.540000,0.200250,0.040000,-1749.912889,61.395887,-72.721962,21.988242,0.000000,-0.000000,0.000000
-2.220000,1.500000,0.284429,0.040000,-1750.469512,21.157305,-21.375076,26.448838,0.000000,-0.000000,0.000000
-2.180000,1.500000,0.323883,0.040000,-1750.561889,16.094529,-17.567732,26.402866,0.000000,-0.000000,0.000000
-2.180000,1.540000,0.320156,0.040000,-1750.206619,15.868113,-17.203729,33.840623,0.000000,-0.000000,0.000000
-2.220000,1.540000,0.280179,0.040000,-1750.065927,21.952483,-22.149083,34.269320,0.000000,-0.000000,0.000000
2.180000,1.500000,0.323883,0.040000,-1750.551063,16.094405,-17.567607,-26.402658,0.000000,-0.000000,-0.000000
2.220000,1.500000,0.284429,0.040000,-1750.458488,21.157144,-21.374922,-26.448627,0.000000,-0.000000,-0.000000
2.220000,1.540000,0.280179,0.040000,-1750.054907,21.952317,-22.148925,-34.269052,0.000000,-0.000000,-0.000000
2.180000,1.540000,0.320156,0.040000,-1750.195797,15.867992,-17.203607,-33.840359,0.000000,-0.000000,-0.000000
2.260000,1.500000,0.245153,0.040000,-1750.401761,25.358413,-25.658321,-25.547376,0.000000,-0.000000,-0.000000
2.300000,1.500000,0.206155,0.040000,-1750.386134,5.662804,5.267275,-22.472465,0.000000,0.000000,-0.000000
2.300000,1.540000,0.200250,0.040000,-1749.901472,61.395434,-72.721438,-21.988059,0.000000,-0.000000,-0.000000
2.260000,1.540000,0.240208,0.040000,-1749.951329,31.642020,-33.842675,-32.244537,0.000000,-0.000000,-0.000000
2.340000,1.500000,0.167631,0.040000,-1750.363487,-297.638215,421.453708,-17.664056,-0.000000,0.000000,-0.000000
2.380000,1.500000,0.130000,0.040000,-1749.621806,-3096.576345,2959.369518,-12.408742,-0.000000,0.000000,-0.000000
2.380000,1.540000,0.120416,0.040000,-1750.743740,909.497557,2557.591280,634.220959,-0.000000,0.000000,0.000000
2.340000,1.540000,0.160312,0.040000,-1749.966283,337.020376,-470.439221,70.495754,0.000000,-0.000000,0.000000
2.420000,1.500000,0.094340,0.040000,-1739.323698,-26414.481449,113589.521609,15.150024,-0.000001,0.000002,0.000000
2.460000,1.500000,0.064031,0.040000,-1619.774100,-17437.651128,299765.783678,68.922505,-0.000002,0.000004,0.000000
2.460000,1.540000,0.041231,0.040000,-1868.342613,76277.931985,418830.741196,-103.638098,-0.000001,0.000005,-0.000000
2.420000,1.540000,0.080623,0.040000,-1759.479968,-11452.179953,117888.580800,-765.550515,-0.000001,0.000002,-0.000000
2.500000,1.500000,0.050000,0.040000,-875.683588,-5368.775667,518890.063374,128.134834,-0.000003,0.000007,0.000000
2.500000,1.540000,0.010000,0.040000,-875.409729,5387.546016,527699.028960,1181.614350,-0.000003,0.000007,0.000000
-2.500000,1.580000,0.030000,0.040000,-875.091293,-3471.742234,512912.503407,-2136.260401,-0.000003,0.000007,-0.000000
-2.500000,1.620000,0.030000,0.040000,-874.701654,-3477.159887,512638.276132,1762.306586,-0.000003,0.000007,0.000000
-2.460000,1.580000,0.050000,0.040000,-1697.498651,11816.026665,337508.096040,102.657918,-0.000002,0.000004,0.000000
-2.420000,1.580000,0.085440,0.040000,-1745.904410,-21648.223958,116212.535009,969.848521,-0.000001,0.000002,0.000000
-2.420000,1.620000,0.085440,0.040000,-1745.093724,-21644.292290,116141.717201,-992.814395,-0.000001,0.000002,-0.000000
-2.460000,1.620000,0.050000,0.040000,-1696.604289,11769.617983,337288.948290,-295.218320,-0.000002,0.000004,-0.000000
-2.380000,1.580000,0.123693,0.040000,-1749.066715,-1996.335697,3938.349638,2232.867173,-0.000000,0.000000,0.000000
-2.340000,1.580000,0.162788,0.040000,-1749.285006,-66.951082,135.299590,198.927870,-0.000000,0.000000,0.000000
-2.340000,1.620000,0.162788,0.040000,-1748.589621,-60.219424,128.516842,-115.004490,-0.000000,0.000000,-0.000000
-2.380000,1.620000,0.123693,0.040000,-1748.310340,-1988.564910,3927.244430,-2166.868412,-0.000000,0.000000,-0.000000
-2.300000,1.580000,0.202237,0.040000,-1749.349213,33.243645,-30.474305,53.276875,0.000000,-0.000000,0.000000
-2.260000,1.580000,0.241868,0.040000,-1749.463311,30.356683,-31.375920,43.355516,0.000000,-0.000000,0.000000
-2.260000,1.620000,0.241868,0.040000,-1748.915292,30.273275,-31.265350,53.105301,0.000000,-0.000000,0.000000
-2.300000,1.620000,0.202237,0.040000,-1748.725056,36.292422,-33.454179,40.591123,0.000000,-0.000000,0.000000
-2.220000,1.580000,0.281603,0.040000,-1749.627529,20.899234,-20.606580,41.331158,0.000000,-0.000000,0.000000
-2.180000,1.580000,0.321403,0.040000,-1749.827670,13.304199,-14.927778,38.651061,0.000000,-0.000000,0.000000
-2.180000,1.620000,0.321403,0.040000,-1749.428212,11.007262,-12.060355,48.444243,0.000000,-0.000000,0.000000
-2.220000,1.620000,0.281603,0.040000,-1749.155573,19.073319,-18.885574,52.654514,0.000000,-0.000000,0.000000
2.180000,1.580000,0.321403,0.040000,-1749.816851,13.304100,-14.927676,-38.650763,0.000000,-0.000000,-0.000000
2.220000,1.580000,0.281603,0.040000,-1749.616513,20.899078,-20.606436,-41.330838,0.000000,-0.000000,-0.000000
2.220000,1.620000,0.281603,0.040000,-1749.144560,19.073179,-18.885444,-52.654110,0.000000,-0.000000,-0.000000
2.180000,1.620000,0.321403,0.040000,-1749.417396,11.007180,-12.060275,-48.443872,0.000000,-0.000000,-0.000000
2.260000,1.580000,0.241868,0.040000,-1749.452096,30.356457,-31.375695,-43.355178,0.000000,-0.000000,-0.000000
2.300000,1.580000,0.202237,0.040000,-1749.337801,33.243394,-30.474083,-53.276465,0.000000,-0.000000,-0.000000
2.300000,1.620000,0.202237,0.040000,-1748.713649,36.292152,-33.453939,-40.590799,0.000000,-0.000000,-0.000000
2.260000,1.620000,0.241868,0.040000,-1748.904083,30.273052,-31.265129,-53.104891,0.000000,-0.000000,-0.000000
2.340000,1.580000,0.162788,0.040000,-1749.273396,-66.950623,135.298635,-198.926420,-0.000000,0.000000,-0.000000
2.380000,1.580000,0.123693,0.040000,-1749.054907,-1996.321497,3938.321597,-2232.851220,-0.000000,0.000000,-0.000000
2.380000,1.620000,0.123693,0.040000,-1748.298538,-1988.550757,3927.216465,2166.853004,-0.000000,0.000000,0.000000
2.340000,1.620000,0.162788,0.040000,-1748.578016,-60.219010,128.515933,115.003708,-0.000000,0.000000,0.000000
2.420000,1.580000,0.085440,0.040000,-1745.892426,-21648.069773,116211.709345,-969.840527,-0.000001,0.000002,-0.000000
2.460000,1.580000,0.050000,0.040000,-1697.486813,11815.944681,337505.698437,-102.656043,-0.000002,0.000004,-0.000000
2.460000,1.620000,0.050000,0.040000,-1696.592459,11769.536435,337286.552572,295.214823,-0.000002,0.000004,0.000000
2.420000,1.620000,0.085440,0.040000,-1745.081747,-21644.138112,116140.892129,992.806218,-0.000001,0.000002,0.000000
2.500000,1.580000,0.030000,0.040000,-875.085120,-3471.707061,512908.853156,2136.247241,-0.000003,0.000007,0.000000
2.500000,1.620000,0.030000,0.040000,-874.695484,-3477.124643,512634.628246,-1762.296605,-0.000003,0.000007,-0.000000
-2.500000,1.660000,0.010000,0.040000,-874.227419,5448.882799,526911.814401,801.752904,-0.000003,0.000007,0.000000
-2.500000,1.700000,0.050000,0.040000,-873.640250,-5271.644056,517518.227342,-288.236847,-0.000003,0.000007,-0.000000
-2.460000,1.660000,0.041231,0.040000,-1865.840537,76285.813095,418226.172690,-297.907532,-0.000001,0.000005,-0.000000
-2.420000,1.660000,0.080623,0.040000,-1757.084361,-11363.610810,117671.528511,-783.372402,-0.000001,0.000002,-0.000000
-2.420000,1.700000,0.094340,0.040000,-1735.248225,-26265.246715,113226.651927,21.917362,-0.000001,0.000002,0.000000
-2.460000,1.700000,0.064031,0.040000,-1615.881101,-17299.300253,298933.903619,-125.736597,-0.000002,0.000004,-0.000000
-2.380000,1.660000,0.120416,0.040000,-1748.473365,950.273986,2514.243049,704.216538,-0.000000,0.000000,0.000000
-2.340000,1.660000,0.160312,0.040000,-1747.880798,358.508118,-491.544404,163.345319,0.000000,-0.000000,0.000000
-2.340000,1.700000,0.167631,0.040000,-1746.842461,-264.995013,388.839820,96.493468,-0.000000,0.000000,0.000000
-2.380000,1.700000,0.130000,0.040000,-1745.764524,-3029.707795,2892.798431,93.316721,-0.000000,0.000000,0.000000
-2.300000,1.660000,0.200250,0.040000,-1748.035691,69.687116,-80.795654,79.361426,0.000000,-0.000000,0.000000
-2.260000,1.660000,0.240208,0.040000,-1748.318840,30.353357,-32.467586,69.519668,0.000000,-0.000000,0.000000
-2.260000,1.700000,0.245153,0.040000,-1747.676326,19.496900,-19.625200,86.537162,0.000000,-0.000000,0.000000
-2.300000,1.700000,0.206155,0.040000,-1747.254704,15.586171,-4.273968,94.127110,0.000000,-0.000000,0.000000
-2.220000,1.660000,0.280179,0.040000,-1748.653852,13.543838,-12.793498,62.934556,0.000000,-0.000000,0.000000
-2.180000,1.660000,0.320156,0.040000,-1749.014089,3.136503,-5.078877,54.616001,0.000000,-0.000000,0.000000
-2.180000,1.700000,0.301496,0.040000,-1748.594881,-4.711690,3.563474,66.132761,-0.000000,0.000000,0.000000
-2.220000,1.700000,0.284429,0.040000,-1748.130114,5.984297,-5.755272,77.785531,0.000000,-0.000000,0.000000
2.180000,1.660000,0.320156,0.040000,-1749.003278,3.136482,-5.078851,-54.615586,0.000000,-0.000000,-0.000000
2.220000,1.660000,0.280179,0.040000,-1748.642844,13.543741,-12.793416,-62.934077,0.000000,-0.000000,-0.000000
2.220000,1.700000,0.284429,0.040000,-1748.119111,5.984258,-5.755244,-77.784944,0.000000,-0.000000,-0.000000
2.180000,1.700000,0.301496,0.040000,-1748.584073,-4.711651,3.563434,-66.132262,-0.000000,0.000000,-0.000000
2.260000,1.660000,0.240208,0.040000,-1748.307636,30.353138,-32.467360,-69.519138,0.000000,-0.000000,-0.000000
2.300000,1.660000,0.200250,0.040000,-1748.024291,69.686612,-80.795079,-79.360821,0.000000,-0.000000,-0.000000
2.300000,1.700000,0.206155,0.040000,-1747.243310,15.586058,-4.273945,-94.126395,0.000000,-0.000000,-0.000000
2.260000,1.700000,0.245153,0.040000,-1747.665128,19.496763,-19.625072,-86.536507,0.000000,-0.000000,-0.000000
2.340000,1.660000,0.160312,0.040000,-1747.869200,358.505549,-491.540895,-163.344111,0.000000,-0.000000,-0.000000
2.380000,1.660000,0.120416,0.040000,-1748.461563,950.267094,2514.225403,-704.211463,-0.000000,0.000000,-0.000000
2.380000,1.700000,0.130000,0.040000,-1745.752743,-3029.686194,2892.777767,-93.315993,-0.000000,0.000000,-0.000000
2.340000,1.700000,0.167631,0.040000,-1746.830871,-264.993132,388.837046,-96.492728,-0.000000,0.000000,-0.000000
2.420000,1.660000,0.080623,0.040000,-1757.072299,-11363.531077,117670.693907,783.366699,-0.000001,0.000002,0.000000
2.460000,1.660000,0.041231,0.040000,-1865.827502,76285.268448,418223.204869,297.903707,-0.000001,0.000005,0.000000
2.460000,1.700000,0.064031,0.040000,-1615.869849,-17299.175093,298931.785926,125.735575,-0.000002,0.000004,0.000000
2.420000,1.700000,0.094340,0.040000,-1735.236321,-26265.059795,113225.849211,-21.917195,-0.000001,0.000002,-0.000000
2.500000,1.660000,0.010000,0.040000,-874.221176,5448.825492,526908.092725,-801.750137,-0.000003,0.000007,-0.000000
2.500000,1.700000,0.050000,0.040000,-873.634105,-5271.590650,517514.539026,288.234507,-0.000003,0.000007,0.000000
-2.500000,1.740000,0.010000,0.040000,-872.897850,5493.504309,525973.261133,-1353.546425,-0.000003,0.000007,-0.000000
-2.500000,1.780000,0.030000,0.040000,-871.934307,-3249.746695,510825.935166,-2314.885883,-0.000003,0.000007,-0.000000
-2.460000,1.740000,0.041231,0.040000,-1862.871116,76174.563013,417438.188760,51.183452,-0.000001,0.000005,0.000000
-2.420000,1.740000,0.080623,0.040000,-1754.566710,-11313.166117,117428.895836,826.738535,-0.000001,0.000002,0.000000
-2.420000,1.780000,0.085440,0.040000,-1740.073630,-21423.479475,115652.234427,1086.089336,-0.000001,0.000002,0.000000
-2.460000,1.780000,0.050000,0.040000,-1691.522465,11984.455168,336130.353179,75.011467,-0.000002,0.000004,0.000000
-2.380000,1.740000,0.120416,0.040000,-1746.246489,969.884768,2487.202798,-519.588903,-0.000000,0.000000,-0.000000
-2.340000,1.740000,0.160312,0.040000,-1745.961535,359.561436,-492.072997,37.304007,0.000000,-0.000000,0.000000
-2.340000,1.780000,0.162788,0.040000,-1744.750247,-71.330439,137.746423,341.427934,-0.000000,0.000000,0.000000
-2.380000,1.780000,0.123693,0.040000,-1743.826638,-1926.587724,3865.966785,2401.532470,-0.000000,0.000000,0.000000
-2.300000,1.740000,0.200250,0.040000,-1746.426492,58.899909,-69.302256,114.170080,0.000000,-0.000000,0.000000
-2.260000,1.740000,0.240208,0.040000,-1747.001976,10.163785,-11.952177,106.222892,0.000000,-0.000000,0.000000
-2.260000,1.780000,0.220227,0.040000,-1746.314441,-22.530024,19.400586,131.303743,-0.000000,0.000000,0.000000
-2.300000,1.780000,0.202237,0.040000,-1745.525118,17.937408,-10.857676,168.182233,0.000000,-0.000000,0.000000
-2.220000,1.740000,0.261725,0.040000,-1747.598466,-7.386508,6.702127,89.581846,-0.000000,0.000000,0.000000
-2.180000,1.740000,0.261725,0.040000,-1748.185166,-19.416597,16.880545,72.298346,-0.000000,0.000000,0.000000
-2.180000,1.780000,0.222036,0.040000,-1747.805423,-32.634292,33.004029,84.117313,-0.000000,0.000000,0.000000
-2.220000,1.780000,0.222036,0.040000,-1747.080305,-24.321592,25.445070,99.479597,-0.000000,0.000000,0.000000
-2.140000,1.740000,0.260192,0.040000,-1748.744881,-25.724647,24.507064,60.390851,-0.000000,0.000000,0.000000
-2.100000,1.740000,0.264764,0.040000,-1749.267780,-26.897409,25.382964,45.932302,-0.000000,0.000000,0.000000
-2.100000,1.780000,0.225610,0.040000,-1749.083618,-26.332668,29.249868,47.339461,-0.000000,0.000000,0.000000
-2.140000,1.780000,0.220227,0.040000,-1748.477030,-44.916947,43.756044,61.592183,-0.000000,0.000000,0.000000
-2.060000,1.740000,0.260192,0.040000,-1749.750701,-29.368532,27.630402,39.224515,-0.000000,0.000000,0.000000
-2.020000,1.740000,0.261725,0.040000,-1750.191931,-27.061463,25.679342,28.534505,-0.000000,0.000000,0.000000
-2.020000,1.780000,0.222036,0.040000,-1750.128990,-29.696270,30.300559,22.965282,-0.000000,0.000000,0.000000
-2.060000,1.780000,0.220227,0.040000,-1749.637012,-43.292571,41.545876,39.947798,-0.000000,0.000000,0.000000
-1.980000,1.740000,0.261725,0.040000,-1750.593226,-25.420529,23.925187,24.691166,-0.000000,0.000000,0.000000
-1.940000,1.740000,0.260192,0.040000,-1750.956867,-24.718933,23.163267,17.678372,-0.000000,0.000000,0.000000
-1.940000,1.780000,0.220227,0.040000,-1750.968070,-35.495148,32.820436,12.473240,-0.000000,0.000000,0.000000
-1.980000,1.780000,0.222036,0.040000,-1750.571050,-26.526816,26.970556,25.269523,-0.000000,0.000000,0.000000
-1.900000,1.740000,0.264764,0.040000,-1751.285094,-20.694322,19.386671,15.158268,-0.000000,0.000000,0.000000
-1.860000,1.740000,0.260192,0.040000,-1751.581821,-20.758169,19.234758,11.223168,-0.000000,0.000000,0.000000
-1.860000,1.780000,0.220227,0.040000,-1751.636461,-29.955525,27.098820,10.855288,-0.000000,0.000000,0.000000
-1.900000,1.780000,0.225610,0.040000,-1751.317885,-13.655533,15.512894,11.787956,-0.000000,0.000000,0.000000
-1.820000,1.740000,0.261725,0.040000,-1751.849086,-17.574323,16.126474,9.177612,-0.000000,0.000000,0.000000
-1.780000,1.740000,0.261725,0.040000,-1752.090279,-16.039620,14.823345,7.173734,-0.000000,0.000000,0.000000
-1.780000,1.780000,0.222036,0.040000,-1752.169114,-14.076015,13.882669,9.219395,-0.000000,0.000000,0.000000
-1.820000,1.780000,0.222036,0.040000,-1751.916600,-15.685336,15.713344,2.892082,-0.000000,0.000000,0.000000
-1.740000,1.740000,0.260192,0.040000,-1752.308016,-15.487776,13.824354,5.754334,-0.000000,0.000000,0.000000
-1.700000,1.740000,0.264764,0.040000,-1752.504117,-12.376990,11.380268,4.293155,-0.000000,0.000000,0.000000
-1.700000,1.780000,0.225610,0.040000,-1752.597218,-3.916475,5.232332,3.325277,-0.000000,0.000000,0.000000
-1.740000,1.780000,0.220227,0.040000,-1752.397346,-23.507390,20.563619,1.982544,-0.000000,0.000000,0.000000
-1.660000,1.740000,0.260192,0.040000,-1752.681669,-12.864237,11.280143,3.811684,-0.000000,0.000000,0.000000
-1.620000,1.740000,0.261725,0.040000,-1752.841694,-10.725112,9.589280,2.285146,-0.000000,0.000000,0.000000
-1.620000,1.780000,0.222036,0.040000,-1752.944754,-8.589368,8.072136,-2.487148,-0.000000,0.000000,-0.000000
-1.660000,1.780000,0.220227,0.040000,-1752.782723,-20.927323,17.778761,5.082962,-0.000000,0.000000,0.000000
-1.580000,1.740000,0.261725,0.040000,-1752.986505,-9.609751,8.353324,2.382753,-0.000000,0.000000,0.000000
-1.540000,1.740000,0.260192,0.040000,-1753.117656,-9.993104,8.566464,1.229331,-0.000000,0.000000,0.000000
-1.540000,1.780000,0.220227,0.040000,-1753.227315,-17.906053,14.601746,-2.450899,-0.000000,0.000000,-0.000000
-1.580000,1.780000,0.222036,0.040000,-1753.092364,-7.282556,6.833156,4.825941,-0.000000,0.000000,0.000000
-1.500000,1.740000,0.264764,0.040000,-1753.235965,-7.222651,6.138641,1.129733,-0.000000,0.000000,0.000000
-1.460000,1.740000,0.260192,0.040000,-1753.343593,-8.484876,7.024037,0.872331,-0.000000,0.000000,0.000000
-1.460000,1.780000,0.220227,0.040000,-1753.455541,-15.956746,12.748833,2.019198,-0.000000,0.000000,0.000000
-1.500000,1.780000,0.225610,0.040000,-1753.344120,1.813078,-0.517675,-0.292419,0.000000,-0.000000,-0.000000
-1.420000,1.740000,0.261725,0.040000,-1753.440720,-6.613196,5.345767,0.308904,-0.000000,0.000000,0.000000
-1.380000,1.740000,0.261725,0.040000,-1753.528904,-6.130785,4.941071,0.612610,-0.000000,0.000000,0.000000
-1.380000,1.780000,0.222036,0.040000,-1753.639778,-3.109769,2.721727,3.943515,-0.000000,0.000000,0.000000
-1.420000,1.780000,0.222036,0.040000,-1753.551389,-3.560596,3.230329,-4.310867,-0.000000,0.000000,-0.000000
-1.340000,1.740000,0.260192,0.040000,-1753.609025,-6.728404,5.202513,0.108631,-0.000000,0.000000,0.000000
-1.300000,1.740000,0.264764,0.040000,-1753.681300,-4.471985,3.482856,0.107260,-0.000000,0.000000,0.000000
-1.300000,1.780000,0.225610,0.040000,-1753.790812,4.644864,-3.437140,0.167197,0.000000,-0.000000,0.000000
-1.340000,1.780000,0.220227,0.040000,-1753.721653,-14.062757,10.886097,-2.333776,-0.000000,0.000000,-0.000000
-1.260000,1.740000,0.260192,0.040000,-1753.747359,-5.899945,4.418576,0.198662,-0.000000,0.000000,0.000000
-1.220000,1.740000,0.261725,0.040000,-1753.806911,-4.434172,3.296271,-0.393193,-0.000000,0.000000,-0.000000
-1.220000,1.780000,0.222036,0.040000,-1753.916686,-1.888670,1.310422,-4.360665,-0.000000,0.000000,-0.000000
-1.260000,1.780000,0.220227,0.040000,-1753.859400,-13.549540,10.247965,2.501825,-0.000000,0.000000,0.000000
-1.180000,1.740000,0.261725,0.040000,-1753.861095,-4.066899,2.886843,0.067852,-0.000000,0.000000,0.000000
-1.140000,1.740000,0.260192,0.040000,-1753.910424,-4.975215,3.541996,-0.479044,-0.000000,0.000000,-0.000000
-1.140000,1.780000,0.220227,0.040000,-1754.020811,-12.629076,9.290147,-3.531529,-0.000000,0.000000,-0.000000
-1.180000,1.780000,0.222036,0.040000,-1753.970312,-1.483530,0.932956,3.303029,-0.000000,0.000000,0.000000
-1.100000,1.740000,0.264764,0.040000,-1753.954786,-2.793978,1.766826,-0.345091,-0.000000,0.000000,-0.000000
-1.060000,1.740000,0.260192,0.040000,-1753.995522,-4.464232,2.995155,-0.203825,-0.000000,0.000000,-0.000000
-1.060000,1.780000,0.220227,0.040000,-1754.104560,-11.767243,8.540726,1.433347,-0.000000,0.000000,0.000000
-1.100000,1.780000,0.225610,0.040000,-1754.061618,6.401036,-5.173845,-1.160014,0.000000,-0.000000,-0.000000
-1.020000,1.740000,0.261725,0.040000,-1754.032081,-3.056632,1.831729,-0.615303,-0.000000,0.000000,-0.000000
-0.980000,1.740000,0.261725,0.040000,-1754.065373,-2.892071,1.693910,-0.046644,-0.000000,0.000000,-0.000000
-0.980000,1.780000,0.222036,0.040000,-1754.171209,0.242257,-0.638968,3.668013,0.000000,-0.000000,0.000000
-1.020000,1.780000,0.222036,0.040000,-1754.138626,0.092878,-0.470763,-4.766190,0.000000,-0.000000,-0.000000
-0.940000,1.740000,0.260192,0.040000,-1754.095706,-3.856461,2.362650,-0.450605,-0.000000,0.000000,-0.000000
-0.900000,1.740000,0.264764,0.040000,-1754.122785,-1.849470,0.852296,-0.274238,-0.000000,0.000000,-0.000000
-0.900000,1.780000,0.225610,0.040000,-1754.226110,7.343382,-6.138797,0.087479,0.000000,-0.000000,0.000000
-0.940000,1.780000,0.220227,0.040000,-1754.202624,-11.132608,7.921806,-2.527127,-0.000000,0.000000,-0.000000
-0.860000,1.740000,0.260192,0.040000,-1754.147786,-3.568546,2.111668,-0.116408,-0.000000,0.000000,-0.000000
-0.820000,1.740000,0.261725,0.040000,-1754.170014,-2.300495,1.155176,-0.588008,-0.000000,0.000000,-0.000000
-0.820000,1.780000,0.222036,0.040000,-1754.273094,0.294878,-0.873635,-4.315811,0.000000,-0.000000,-0.000000
-0.860000,1.780000,0.220227,0.040000,-1754.253322,-11.182119,7.856077,2.474722,-0.000000,0.000000,0.000000
-0.780000,1.740000,0.261725,0.040000,-1754.190245,-2.165709,1.004578,-0.082644,-0.000000,0.000000,-0.000000
-0.740000,1.740000,0.260192,0.040000,-1754.208668,-3.232220,1.792306,-0.547546,-0.000000,0.000000,-0.000000
-0.740000,1.780000,0.220227,0.040000,-1754.312272,-10.853329,7.515200,-3.407319,-0.000000,0.000000,-0.000000
-0.780000,1.780000,0.222036,0.040000,-1754.292680,0.440680,-1.008652,3.380605,0.000000,-0.000000,0.000000
-0.700000,1.740000,0.264764,0.040000,-1754.224881,-1.238342,0.225954,-0.383982,-0.000000,0.000000,-0.000000
-0.660000,1.740000,0.260192,0.040000,-1754.239963,-3.036131,1.561120,-0.186515,-0.000000,0.000000,-0.000000
-0.660000,1.780000,0.220227,0.040000,-1754.342407,-10.316600,7.091822,1.607159,-0.000000,0.000000,0.000000
-0.700000,1.780000,0.225610,0.040000,-1754.324995,7.970594,-6.756022,-1.016739,0.000000,-0.000000,-0.000000
-0.620000,1.740000,0.261725,0.040000,-1754.253128,-1.781149,0.567869,-0.578182,-0.000000,0.000000,-0.000000
-0.580000,1.740000,0.261725,0.040000,-1754.265076,-1.720308,0.516932,0.029063,-0.000000,0.000000,0.000000
-0.580000,1.780000,0.222036,0.040000,-1754.364689,1.430159,-1.824467,3.871732,0.000000,-0.000000,0.000000
-0.620000,1.780000,0.222036,0.040000,-1754.353246,1.375472,-1.762932,-4.581676,0.000000,-0.000000,-0.000000
-0.540000,1.740000,0.260192,0.040000,-1754.275919,-2.810270,1.325718,-0.361628,-0.000000,0.000000,-0.000000
-0.500000,1.740000,0.264764,0.040000,-1754.285191,-0.888644,-0.113127,-0.158783,-0.000000,0.000000,-0.000000
-0.500000,1.780000,0.225610,0.040000,-1754.382782,8.315466,-7.108259,0.308597,0.000000,-0.000000,0.000000
-0.540000,1.780000,0.220227,0.040000,-1754.376848,-10.083575,6.865304,-2.317214,-0.000000,0.000000,-0.000000
-0.460000,1.740000,0.260192,0.040000,-1754.293906,-2.712017,1.262625,0.007900,-0.000000,0.000000,0.000000
-0.420000,1.740000,0.261725,0.040000,-1754.301225,-1.515195,0.365791,-0.445541,-0.000000,0.000000,-0.000000
-0.420000,1.780000,0.222036,0.040000,-1754.399139,1.087606,-1.663866,-4.084906,0.000000,-0.000000,-0.000000
-0.460000,1.780000,0.220227,0.040000,-1754.393985,-10.324750,6.992934,2.699363,-0.000000,0.000000,0.000000
-0.380000,1.740000,0.261725,0.040000,-1754.307793,-1.468009,0.313020,0.065658,-0.000000,0.000000,0.000000
-0.340000,1.740000,0.260192,0.040000,-1754.313674,-2.594735,1.151168,-0.386806,-0.000000,0.000000,-0.000000
-0.340000,1.780000,0.220227,0.040000,-1754.412728,-10.210901,6.875075,-3.171357,-0.000000,0.000000,-0.000000
-0.380000,1.780000,0.222036,0.040000,-1754.405365,1.138286,-1.710685,3.612982,0.000000,-0.000000,0.000000
-0.300000,1.740000,0.264764,0.040000,-1754.318357,-0.675500,-0.331780,-0.219461,-0.000000,-0.000000,-0.000000
-0.260000,1.740000,0.260192,0.040000,-1754.322814,-2.524870,1.046569,-0.013524,-0.000000,0.000000,-0.000000
-0.260000,1.780000,0.220227,0.040000,-1754.421354,-9.801688,6.579109,1.845089,-0.000000,0.000000,0.000000
-0.300000,1.780000,0.225610,0.040000,-1754.414241,8.532544,-7.321477,-0.780793,0.000000,-0.000000,-0.000000
-0.220000,1.740000,0.261725,0.040000,-1754.326166,-1.334555,0.125587,-0.402778,-0.000000,0.000000,-0.000000
-0.180000,1.740000,0.261725,0.040000,-1754.329019,-1.318620,0.112246,0.210161,-0.000000,0.000000,0.000000
-0.180000,1.780000,0.222036,0.040000,-1754.425392,1.834753,-2.226930,4.109747,0.000000,-0.000000,0.000000
-0.220000,1.780000,0.222036,0.040000,-1754.422710,1.820472,-2.210865,-4.344444,0.000000,-0.000000,-0.000000
-0.140000,1.740000,0.260192,0.040000,-1754.331404,-2.465605,0.984765,-0.179014,-0.000000,0.000000,-0.000000
-0.100000,1.740000,0.264764,0.040000,-1754.332774,-0.583880,-0.420671,0.027578,-0.000000,-0.000000,0.000000
-0.100000,1.780000,0.225610,0.040000,-1754.427801,8.622506,-7.413275,0.545825,0.000000,-0.000000,0.000000
-0.140000,1.780000,0.220227,0.040000,-1754.429430,-9.740817,6.520010,-2.079968,-0.000000,0.000000,-0.000000
-0.060000,1.740000,0.260192,0.040000,-1754.334070,-2.458531,1.012407,0.195188,-0.000000,0.000000,0.000000
-0.020000,1.740000,0.261725,0.040000,-1754.334379,-1.297992,0.145953,-0.255867,-0.000000,0.000000,-0.000000
-0.020000,1.780000,0.222036,0.040000,-1754.430410,1.306600,-1.880967,-3.848647,0.000000,-0.000000,-0.000000
-0.060000,1.780000,0.220227,0.040000,-1754.431924,-10.073106,6.739081,2.935923,-0.000000,0.000000,0.000000
0.020000,1.740000,0.261725,0.040000,-1754.334280,-1.297991,0.145952,0.255863,-0.000000,0.000000,0.000000
0.060000,1.740000,0.260192,0.040000,-1754.333771,-2.458530,1.012407,-0.195192,-0.000000,0.000000,-0.000000
0.060000,1.780000,0.220227,0.040000,-1754.431625,-10.073106,6.739081,-2.935925,-0.000000,0.000000,-0.000000
0.020000,1.780000,0.222036,0.040000,-1754.430310,1.306603,-1.880971,3.848641,0.000000,-0.000000,0.000000
0.100000,1.740000,0.264764,0.040000,-1754.332276,-0.583879,-0.420672,-0.027583,-0.000000,-0.000000,-0.000000
0.140000,1.740000,0.260192,0.040000,-1754.330707,-2.465603,0.984763,0.179010,-0.000000,0.000000,0.000000
0.140000,1.780000,0.220227,0.040000,-1754.428733,-9.740811,6.520004,2.079965,-0.000000,0.000000,0.000000
0.100000,1.780000,0.225610,0.040000,-1754.427303,8.622504,-7.413274,-0.545832,0.000000,-0.000000,-0.000000
0.180000,1.740000,0.261725,0.040000,-1754.328123,-1.318618,0.112245,-0.210164,-0.000000,0.000000,-0.000000
0.220000,1.740000,0.261725,0.040000,-1754.325070,-1.334553,0.125585,0.402773,-0.000000,0.000000,0.000000
0.220000,1.780000,0.222036,0.040000,-1754.421615,1.820475,-2.210869,4.344436,0.000000,-0.000000,0.000000
0.180000,1.780000,0.222036,0.040000,-1754.424496,1.834750,-2.226927,-4.109750,0.000000,-0.000000,-0.000000
0.260000,1.740000,0.260192,0.040000,-1754.321519,-2.524867,1.046566,0.013520,-0.000000,0.000000,0.000000
0.300000,1.740000,0.264764,0.040000,-1754.316863,-0.675498,-0.331782,0.219457,-0.000000,-0.000000,0.000000
0.300000,1.780000,0.225610,0.040000,-1754.412747,8.532538,-7.321473,0.780785,0.000000,-0.000000,0.000000
0.260000,1.780000,0.220227,0.040000,-1754.420060,-9.801681,6.579104,-1.845090,-0.000000,0.000000,-0.000000
0.340000,1.740000,0.260192,0.040000,-1754.311982,-2.594731,1.151163,0.386802,-0.000000,0.000000,0.000000
0.380000,1.740000,0.261725,0.040000,-1754.305901,-1.468006,0.313017,-0.065662,-0.000000,0.000000,-0.000000
0.380000,1.780000,0.222036,0.040000,-1754.403473,1.138283,-1.710683,-3.612984,0.000000,-0.000000,-0.000000
0.340000,1.780000,0.220227,0.040000,-1754.411035,-10.210887,6.875063,3.171352,-0.000000,0.000000,0.000000
0.420000,1.740000,0.261725,0.040000,-1754.299134,-1.515191,0.365786,0.445537,-0.000000,0.000000,0.000000
0.460000,1.740000,0.260192,0.040000,-1754.291616,-2.712011,1.262619,-0.007903,-0.000000,0.000000,-0.000000
0.460000,1.780000,0.220227,0.040000,-1754.391695,-10.324735,6.992923,-2.699362,-0.000000,0.000000,-0.000000
0.420000,1.780000,0.222036,0.040000,-1754.397048,1.087611,-1.663872,4.084895,0.000000,-0.000000,0.000000
0.500000,1.740000,0.264764,0.040000,-1754.282702,-0.888640,-0.113132,0.158779,-0.000000,0.000000,0.000000
0.540000,1.740000,0.260192,0.040000,-1754.273231,-2.810262,1.325710,0.361624,-0.000000,0.000000,0.000000
0.540000,1.780000,0.220227,0.040000,-1754.374160,-10.083554,6.865286,2.317209,-0.000000,0.000000,0.000000
0.500000,1.780000,0.225610,0.040000,-1754.380293,8.315457,-7.108254,-0.308603,0.000000,-0.000000,-0.000000
0.580000,1.740000,0.261725,0.040000,-1754.262189,-1.720302,0.516925,-0.029067,-0.000000,0.000000,-0.000000
0.620000,1.740000,0.261725,0.040000,-1754.250042,-1.781141,0.567861,0.578177,-0.000000,0.000000,0.000000
0.620000,1.780000,0.222036,0.040000,-1754.350160,1.375478,-1.762939,4.581664,0.000000,-0.000000,0.000000
0.580000,1.780000,0.222036,0.040000,-1754.361801,1.430157,-1.824466,-3.871730,0.000000,-0.000000,-0.000000
0.660000,1.740000,0.260192,0.040000,-1754.236677,-3.036121,1.561111,0.186512,-0.000000,0.000000,0.000000
0.700000,1.740000,0.264764,0.040000,-1754.221397,-1.238334,0.225946,0.383978,-0.000000,0.000000,0.000000
0.700000,1.780000,0.225610,0.040000,-1754.321511,7.970583,-6.756016,1.016730,0.000000,-0.000000,0.000000
0.660000,1.780000,0.220227,0.040000,-1754.339121,-10.316578,7.091804,-1.607158,-0.000000,0.000000,-0.000000
0.740000,1.740000,0.260192,0.040000,-1754.204985,-3.232207,1.792294,0.547542,-0.000000,0.000000,0.000000
0.780000,1.740000,0.261725,0.040000,-1754.186363,-2.165699,1.004568,0.082640,-0.000000,0.000000,0.000000
0.780000,1.780000,0.222036,0.040000,-1754.288798,0.440681,-1.008655,-3.380603,0.000000,-0.000000,-0.000000
0.740000,1.780000,0.220227,0.040000,-1754.308588,-10.853299,7.515174,3.407310,-0.000000,0.000000,0.000000
0.820000,1.740000,0.261725,0.040000,-1754.165933,-2.300483,1.155164,0.588004,-0.000000,0.000000,0.000000
0.860000,1.740000,0.260192,0.040000,-1754.143506,-3.568531,2.111653,0.116406,-0.000000,0.000000,0.000000
0.860000,1.780000,0.220227,0.040000,-1754.249042,-11.182087,7.856050,-2.474717,-0.000000,0.000000,-0.000000
0.820000,1.780000,0.222036,0.040000,-1754.269012,0.294887,-0.873646,4.315796,0.000000,-0.000000,0.000000
0.900000,1.740000,0.264764,0.040000,-1754.118306,-1.849458,0.852283,0.274235,-0.000000,0.000000,0.000000
0.940000,1.740000,0.260192,0.040000,-1754.091028,-3.856443,2.362632,0.450602,-0.000000,0.000000,0.000000
0.940000,1.780000,0.220227,0.040000,-1754.197946,-11.132568,7.921771,2.527119,-0.000000,0.000000,0.000000
0.900000,1.780000,0.225610,0.040000,-1754.221630,7.343371,-6.138792,-0.087485,0.000000,-0.000000,-0.000000
0.980000,1.740000,0.261725,0.040000,-1754.060496,-2.892055,1.693894,0.046642,-0.000000,0.000000,0.000000
1.020000,1.740000,0.261725,0.040000,-1754.027005,-3.056614,1.831711,0.615299,-0.000000,0.000000,0.000000
1.020000,1.780000,0.222036,0.040000,-1754.133550,0.092891,-0.470778,4.766173,0.000000,-0.000000,0.000000
0.980000,1.780000,0.222036,0.040000,-1754.166332,0.242261,-0.638974,-3.668006,0.000000,-0.000000,-0.000000
1.060000,1.740000,0.260192,0.040000,-1753.990247,-4.464209,2.995132,0.203823,-0.000000,0.000000,0.000000
1.100000,1.740000,0.264764,0.040000,-1753.949313,-2.793958,1.766806,0.345089,-0.000000,0.000000,0.000000
1.100000,1.780000,0.225610,0.040000,-1754.056144,6.401026,-5.173843,1.160005,0.000000,-0.000000,0.000000
1.060000,1.780000,0.220227,0.040000,-1754.099285,-11.767200,8.540689,-1.433343,-0.000000,0.000000,-0.000000
1.140000,1.740000,0.260192,0.040000,-1753.904752,-4.975188,3.541968,0.479042,-0.000000,0.000000,0.000000
1.180000,1.740000,0.261725,0.040000,-1753.855224,-4.066874,2.886818,-0.067852,-0.000000,0.000000,-0.000000
1.180000,1.780000,0.222036,0.040000,-1753.964441,-1.483517,0.932940,-3.303021,-0.000000,0.000000,-0.000000
1.140000,1.780000,0.220227,0.040000,-1754.015139,-12.629021,9.290099,3.531517,-0.000000,0.000000,0.000000
1.220000,1.740000,0.261725,0.040000,-1753.800841,-4.434143,3.296241,0.393192,-0.000000,0.000000,0.000000
1.260000,1.740000,0.260192,0.040000,-1753.741090,-5.899910,4.418542,-0.198660,-0.000000,0.000000,-0.000000
1.260000,1.780000,0.220227,0.040000,-1753.853131,-13.549480,10.247912,-2.501815,-0.000000,0.000000,-0.000000
1.220000,1.780000,0.222036,0.040000,-1753.910616,-1.888647,1.310397,4.360647,-0.000000,0.000000,0.000000
1.300000,1.740000,0.264764,0.040000,-1753.674833,-4.471953,3.482823,-0.107259,-0.000000,0.000000,-0.000000
1.340000,1.740000,0.260192,0.040000,-1753.602359,-6.728362,5.202472,-0.108628,-0.000000,0.000000,-0.000000
1.340000,1.780000,0.220227,0.040000,-1753.714987,-14.062685,10.886032,2.333770,-0.000000,0.000000,0.000000
1.300000,1.780000,0.225610,0.040000,-1753.784344,4.644862,-3.437148,-0.167200,0.000000,-0.000000,-0.000000
1.380000,1.740000,0.261725,0.040000,-1753.522040,-6.130744,4.941030,-0.612606,-0.000000,0.000000,-0.000000
1.420000,1.740000,0.261725,0.040000,-1753.433658,-6.613151,5.345722,-0.308899,-0.000000,0.000000,-0.000000
1.420000,1.780000,0.222036,0.040000,-1753.544326,-3.560559,3.230289,4.310850,-0.000000,0.000000,0.000000
1.380000,1.780000,0.222036,0.040000,-1753.632914,-3.109742,2.721697,-3.943499,-0.000000,0.000000,-0.000000
1.460000,1.740000,0.260192,0.040000,-1753.336332,-8.484821,7.023983,-0.872323,-0.000000,0.000000,-0.000000
1.500000,1.740000,0.264764,0.040000,-1753.228506,-7.222599,6.138588,-1.129722,-0.000000,0.000000,-0.000000
1.500000,1.780000,0.225610,0.040000,-1753.336660,1.813092,-0.517701,0.292418,0.000000,-0.000000,0.000000
1.460000,1.780000,0.220227,0.040000,-1753.448280,-15.956661,12.748757,-2.019185,-0.000000,0.000000,-0.000000
1.540000,1.740000,0.260192,0.040000,-1753.109999,-9.993037,8.566398,-1.229319,-0.000000,0.000000,-0.000000
1.580000,1.740000,0.261725,0.040000,-1752.978650,-9.609684,8.353257,-2.382733,-0.000000,0.000000,-0.000000
1.580000,1.780000,0.222036,0.040000,-1753.084509,-7.282501,6.833097,-4.825915,-0.000000,0.000000,-0.000000
1.540000,1.780000,0.220227,0.040000,-1753.219658,-17.905949,14.601650,2.450894,-0.000000,0.000000,0.000000
1.620000,1.740000,0.261725,0.040000,-1752.833641,-10.725035,9.589203,-2.285125,-0.000000,0.000000,-0.000000
1.660000,1.740000,0.260192,0.040000,-1752.673418,-12.864149,11.280056,-3.811653,-0.000000,0.000000,-0.000000
1.660000,1.780000,0.220227,0.040000,-1752.774472,-20.927196,17.778643,-5.082927,-0.000000,0.000000,-0.000000
1.620000,1.780000,0.222036,0.040000,-1752.936701,-8.589296,8.072061,2.487142,-0.000000,0.000000,0.000000
1.700000,1.740000,0.264764,0.040000,-1752.495668,-12.376900,11.380176,-4.293120,-0.000000,0.000000,-0.000000
1.740000,1.740000,0.260192,0.040000,-1752.299369,-15.487667,13.824247,-5.754287,-0.000000,0.000000,-0.000000
1.740000,1.780000,0.220227,0.040000,-1752.388700,-23.507237,20.563473,-1.982518,-0.000000,0.000000,-0.000000
1.700000,1.780000,0.225610,0.040000,-1752.588769,-3.916423,5.232267,-3.325253,-0.000000,0.000000,-0.000000
1.780000,1.740000,0.261725,0.040000,-1752.081436,-16.039505,14.823230,-7.173677,-0.000000,0.000000,-0.000000
1.820000,1.740000,0.261725,0.040000,-1751.840046,-17.574195,16.126348,-9.177539,-0.000000,0.000000,-0.000000
1.820000,1.780000,0.222036,0.040000,-1751.907559,-15.685211,15.713212,-2.892047,-0.000000,0.000000,-0.000000
1.780000,1.780000,0.222036,0.040000,-1752.160271,-14.075909,13.882557,-9.219333,-0.000000,0.000000,-0.000000
1.860000,1.740000,0.260192,0.040000,-1751.572583,-20.758021,19.234611,-11.223081,-0.000000,0.000000,-0.000000
1.900000,1.740000,0.264764,0.040000,-1751.275660,-20.694169,19.386519,-15.158151,-0.000000,0.000000,-0.000000
1.900000,1.780000,0.225610,0.040000,-1751.308451,-13.655414,15.512757,-11.787865,-0.000000,0.000000,-0.000000
1.860000,1.780000,0.220227,0.040000,-1751.627224,-29.955325,27.098628,-10.855205,-0.000000,0.000000,-0.000000
1.940000,1.740000,0.260192,0.040000,-1750.947236,-24.718753,23.163090,-17.678235,-0.000000,0.000000,-0.000000
1.980000,1.740000,0.261725,0.040000,-1750.583399,-25.420342,23.925003,-24.690979,-0.000000,0.000000,-0.000000
1.980000,1.780000,0.222036,0.040000,-1750.561224,-26.526620,26.970349,-25.269339,-0.000000,0.000000,-0.000000
1.940000,1.780000,0.220227,0.040000,-1750.958440,-35.494902,32.820196,-12.473135,-0.000000,0.000000,-0.000000
2.020000,1.740000,0.261725,0.040000,-1750.181908,-27.061263,25.679143,-28.534288,-0.000000,0.000000,-0.000000
2.060000,1.740000,0.260192,0.040000,-1749.740482,-29.368316,27.630190,-39.224219,-0.000000,0.000000,-0.000000
2.060000,1.780000,0.220227,0.040000,-1749.626794,-43.292267,41.545572,-39.947500,-0.000000,0.000000,-0.000000
2.020000,1.780000,0.222036,0.040000,-1750.118968,-29.696043,30.300320,-22.965102,-0.000000,0.000000,-0.000000
2.100000,1.740000,0.264764,0.040000,-1749.257366,-26.897207,25.382764,-45.931957,-0.000000,0.000000,-0.000000
2.140000,1.740000,0.260192,0.040000,-1748.734272,-25.724455,24.506871,-60.390398,-0.000000,0.000000,-0.000000
2.140000,1.780000,0.220227,0.040000,-1748.466424,-44.916621,43.755714,-61.591718,-0.000000,0.000000,-0.000000
2.100000,1.780000,0.225610,0.040000,-1749.073206,-26.332457,29.249630,-47.339110,-0.000000,0.000000,-0.000000
2.180000,1.740000,0.261725,0.040000,-1748.174362,-19.416448,16.880405,-72.297805,-0.000000,0.000000,-0.000000
2.220000,1.740000,0.261725,0.040000,-1747.587468,-7.386444,6.702059,-89.581174,-0.000000,0.000000,-0.000000
2.220000,1.780000,0.222036,0.040000,-1747.069311,-24.321394,25.444856,-99.478853,-0.000000,0.000000,-0.000000
2.180000,1.780000,0.222036,0.040000,-1747.794623,-32.634044,33.003770,-84.116692,-0.000000,0.000000,-0.000000
2.260000,1.740000,0.240208,0.040000,-1746.990783,10.163722,-11.952110,-106.222094,0.000000,-0.000000,-0.000000
2.300000,1.740000,0.200250,0.040000,-1746.415105,58.899496,-69.301779,-114.169217,0.000000,-0.000000,-0.000000
2.300000,1.780000,0.202237,0.040000,-1745.513738,17.937307,-10.857632,-168.180984,0.000000,-0.000000,-0.000000
2.260000,1.780000,0.220227,0.040000,-1746.303254,-22.529854,19.400426,-131.302765,-0.000000,0.000000,-0.000000
2.340000,1.740000,0.160312,0.040000,-1745.949952,359.558873,-492.069500,-37.303681,0.000000,-0.000000,-0.000000
2.380000,1.740000,0.120416,0.040000,-1746.234706,969.877753,2487.185336,519.585254,-0.000000,0.000000,0.000000
2.380000,1.780000,0.123693,0.040000,-1743.814874,-1926.574010,3865.939255,-2401.515267,-0.000000,0.000000,-0.000000
2.340000,1.780000,0.162788,0.040000,-1744.738674,-71.329920,137.745420,-341.425428,-0.000000,0.000000,-0.000000
2.420000,1.740000,0.080623,0.040000,-1754.554669,-11313.086734,117428.063161,-826.732515,-0.000001,0.000002,-0.000000
2.460000,1.740000,0.041231,0.040000,-1862.858105,76174.019361,417435.227334,-51.181634,-0.000001,0.000005,-0.000000
2.460000,1.780000,0.050000,0.040000,-1691.510676,11984.371985,336127.966803,-75.009765,-0.000002,0.000004,-0.000000
2.420000,1.780000,0.085440,0.040000,-1740.061694,-21423.326981,115651.413231,-1086.080459,-0.000001,0.000002,-0.000000
2.500000,1.740000,0.010000,0.040000,-872.891618,5493.446707,525969.547076,1353.539188,-0.000003,0.000007,0.000000
2.500000,1.780000,0.030000,0.040000,-871.928159,-3249.713172,510822.301958,2314.871427,-0.000003,0.000007,0.000000
-2.500000,1.820000,0.030000,0.040000,-870.637568,-3106.193694,510314.582475,1824.179756,-0.000003,0.000007,0.000000
-2.500000,1.860000,0.010000,0.040000,-868.742168,7052.901364,528420.115730,3595.606639,-0.000003,0.000007,0.000000
-2.460000,1.820000,0.050000,0.040000,-1688.906887,11639.677036,335617.028531,-262.099096,-0.000002,0.000004,-0.000000
-2.420000,1.820000,0.085440,0.040000,-1738.052509,-21416.635572,115427.559427,-845.770992,-0.000001,0.000002,-0.000000
-2.420000,1.860000,0.080623,0.040000,-1748.607193,-10392.089185,116240.628467,-1246.494877,-0.000001,0.000002,-0.000000
-2.460000,1.860000,0.041231,0.040000,-1855.810117,73599.729381,418100.815141,-246.337942,-0.000001,0.000005,-0.000000
-2.380000,1.820000,0.123693,0.040000,-1742.241412,-1918.760472,3862.549672,-1873.302260,-0.000000,0.000000,-0.000000
-2.340000,1.820000,0.162788,0.040000,-1743.547183,-212.980822,246.685988,43.495038,-0.000000,0.000000,0.000000
-2.340000,1.860000,0.140357,0.040000,-1742.572513,-1256.175311,638.917179,89.735108,-0.000000,0.000000,0.000000
-2.380000,1.860000,0.120416,0.040000,-1741.486564,1782.371338,2049.151456,1600.970092,0.000000,0.000000,0.000000
-2.300000,1.820000,0.186815,0.040000,-1744.590925,110.845456,-66.021690,177.122036,0.000000,-0.000000,0.000000
-2.260000,1.820000,0.180278,0.040000,-1745.664005,-163.605712,127.669874,174.134640,-0.000000,0.000000,0.000000
-2.260000,1.860000,0.140357,0.040000,-1745.270249,-1611.770884,1122.523666,454.065491,-0.000000,0.000000,0.000000
-2.300000,1.860000,0.148661,0.040000,-1743.476325,1268.452523,-1034.466010,232.449630,0.000000,-0.000000,0.000000
-2.220000,1.820000,0.182483,0.040000,-1746.603255,-8.964246,23.562089,65.108988,-0.000000,0.000000,0.000000
-2.180000,1.820000,0.182483,0.040000,-1747.478914,-11.626109,26.001996,128.628236,-0.000000,0.000000,0.000000
-2.180000,1.860000,0.143178,0.040000,-1747.178773,802.932712,-416.938482,676.675569,0.000000,-0.000000,0.000000
-2.220000,1.860000,0.143178,0.040000,-1746.148598,797.863370,-412.830672,-485.263331,0.000000,-0.000000,-0.000000
-2.140000,1.820000,0.180278,0.040000,-1748.286555,-176.872232,137.961978,32.511634,-0.000000,0.000000,0.000000
-2.100000,1.820000,0.186815,0.040000,-1748.943255,90.989379,-49.357952,44.398775,0.000000,-0.000000,0.000000
-2.100000,1.860000,0.148661,0.040000,-1748.662539,1259.423818,-1015.722820,37.755679,0.000000,-0.000000,0.000000
-2.140000,1.860000,0.140357,0.040000,-1748.367557,-1598.244569,1107.442500,-242.592703,-0.000000,0.000000,-0.000000
-2.060000,1.820000,0.180278,0.040000,-1749.596526,-167.074646,128.066454,60.268644,-0.000000,0.000000,0.000000
-2.020000,1.820000,0.182483,0.040000,-1750.114367,7.106852,7.508840,-22.565346,0.000000,0.000000,-0.000000
-2.020000,1.860000,0.143178,0.040000,-1750.096295,843.781062,-457.837038,-581.887743,0.000000,-0.000000,-0.000000
-2.060000,1.860000,0.140357,0.040000,-1749.811730,-1581.259166,1090.013803,320.200176,-0.000000,0.000000,0.000000
-1.980000,1.820000,0.182483,0.040000,-1750.592262,11.986427,2.655797,63.342927,0.000000,-0.000000,0.000000
-1.940000,1.820000,0.180278,0.040000,-1751.038011,-152.113502,113.146854,-15.587823,-0.000000,0.000000,-0.000000
-1.940000,1.860000,0.140357,0.040000,-1751.339773,-1560.469039,1068.715736,-288.480920,-0.000000,0.000000,-0.000000
-1.980000,1.860000,0.143178,0.040000,-1750.602398,850.048940,-463.641280,611.100608,0.000000,-0.000000,0.000000
-1.900000,1.820000,0.186815,0.040000,-1751.372015,115.506578,-73.702184,9.033084,0.000000,-0.000000,0.000000
-1.860000,1.820000,0.180278,0.040000,-1751.741064,-144.852416,105.904329,34.419079,-0.000000,0.000000,0.000000
-1.860000,1.860000,0.140357,0.040000,-1752.066003,-1552.555259,1060.669303,298.544005,-0.000000,0.000000,0.000000
-1.900000,1.860000,0.148661,0.040000,-1751.246811,1296.704034,-1052.585523,5.320585,0.000000,-0.000000,0.000000
-1.820000,1.820000,0.182483,0.040000,-1752.010010,26.972698,-12.241577,-41.652315,0.000000,-0.000000,-0.000000
-1.780000,1.820000,0.182483,0.040000,-1752.270520,29.440504,-14.697261,49.323998,0.000000,-0.000000,0.000000
-1.780000,1.860000,0.143178,0.040000,-1752.333124,872.438798,-485.708551,600.536530,0.000000,-0.000000,0.000000
-1.820000,1.860000,0.143178,0.040000,-1752.068476,869.895128,-483.391669,-598.112928,0.000000,-0.000000,-0.000000
-1.740000,1.820000,0.180278,0.040000,-1752.526571,-137.164885,98.235928,-25.983977,-0.000000,0.000000,-0.000000
-1.700000,1.820000,0.186815,0.040000,-1752.694793,128.588277,-86.695234,1.288996,0.000000,-0.000000,0.000000
-1.700000,1.860000,0.148661,0.040000,-1752.592267,1312.628104,-1068.295633,-0.343038,0.000000,-0.000000,-0.000000
-1.740000,1.860000,0.140357,0.040000,-1752.863881,-1543.905256,1051.789493,-296.235662,-0.000000,0.000000,-0.000000
-1.660000,1.820000,0.180278,0.040000,-1752.918807,-133.721689,94.796183,28.689019,-0.000000,0.000000,0.000000
-1.620000,1.820000,0.182483,0.040000,-1753.060538,36.610245,-21.833870,-45.976394,0.000000,-0.000000,-0.000000
-1.620000,1.860000,0.143178,0.040000,-1753.126080,880.965143,-494.189691,-601.141328,0.000000,-0.000000,-0.000000
-1.660000,1.860000,0.140357,0.040000,-1753.257521,-1540.662809,1048.479244,294.981208,-0.000000,0.000000,0.000000
-1.580000,1.820000,0.182483,0.040000,-1753.209199,37.786505,-23.005882,46.125204,0.000000,-0.000000,0.000000
-1.540000,1.820000,0.180278,0.040000,-1753.366690,-130.042678,91.120394,-28.384614,-0.000000,0.000000,-0.000000
-1.540000,1.860000,0.140357,0.040000,-1753.702819,-1536.836860,1044.528494,-297.534198,-0.000000,0.000000,-0.000000
-1.580000,1.860000,0.143178,0.040000,-1753.273951,882.063484,-495.167495,598.888001,0.000000,-0.000000,0.000000
-1.500000,1.820000,0.186815,0.040000,-1753.447789,134.859298,-92.931035,-0.506723,0.000000,-0.000000,-0.000000
-1.460000,1.820000,0.180278,0.040000,-1753.594643,-128.346696,89.423568,27.381288,-0.000000,0.000000,0.000000
-1.460000,1.860000,0.140357,0.040000,-1753.927809,-1535.362326,1043.015824,294.610000,-0.000000,0.000000,0.000000
-1.500000,1.860000,0.148661,0.040000,-1753.341380,1319.761463,-1075.322210,-1.279287,0.000000,-0.000000,-0.000000
-1.420000,1.820000,0.182483,0.040000,-1753.667843,41.324811,-26.531816,-46.959602,0.000000,-0.000000,-0.000000
-1.380000,1.820000,0.182483,0.040000,-1753.755500,41.925830,-27.131222,45.433595,0.000000,-0.000000,0.000000
-1.380000,1.860000,0.143178,0.040000,-1753.812540,886.647330,-499.662090,598.888270,0.000000,-0.000000,0.000000
-1.420000,1.860000,0.143178,0.040000,-1753.726556,886.116430,-499.198456,-601.617265,0.000000,-0.000000,-0.000000
-1.340000,1.820000,0.180278,0.040000,-1753.858586,-126.463154,87.539415,-28.879617,-0.000000,0.000000,-0.000000
-1.300000,1.820000,0.186815,0.040000,-1753.891037,138.063749,-96.120022,-0.847584,0.000000,-0.000000,-0.000000
-1.300000,1.860000,0.148661,0.040000,-1753.776078,1323.306821,-1078.810390,-1.248915,0.000000,-0.000000,-0.000000
-1.340000,1.860000,0.140357,0.040000,-1754.186567,-1533.477646,1041.060289,-297.557248,-0.000000,0.000000,-0.000000
-1.260000,1.820000,0.180278,0.040000,-1753.994337,-125.562767,86.637671,27.175159,-0.000000,0.000000,0.000000
-1.220000,1.820000,0.182483,0.040000,-1754.028458,43.804607,-29.004858,-47.088413,0.000000,-0.000000,-0.000000
-1.220000,1.860000,0.143178,0.040000,-1754.078539,888.762752,-501.766005,-601.532340,0.000000,-0.000000,-0.000000
-1.260000,1.860000,0.140357,0.040000,-1754.318894,-1532.729373,1040.290093,294.840007,-0.000000,0.000000,0.000000
-1.180000,1.820000,0.182483,0.040000,-1754.080997,44.134779,-29.334357,45.389370,0.000000,-0.000000,0.000000
-1.140000,1.820000,0.180278,0.040000,-1754.152489,-124.527915,85.601708,-28.874379,-0.000000,0.000000,-0.000000
-1.140000,1.860000,0.140357,0.040000,-1754.472127,-1531.714856,1039.234947,-297.329685,-0.000000,0.000000,-0.000000
-1.180000,1.860000,0.143178,0.040000,-1754.129474,889.046154,-502.011241,599.179498,0.000000,-0.000000,0.000000
-1.100000,1.820000,0.186815,0.040000,-1754.156461,139.820596,-97.869410,-0.802523,0.000000,-0.000000,-0.000000
-1.060000,1.820000,0.180278,0.040000,-1754.234076,-124.018117,85.090854,27.259756,-0.000000,0.000000,0.000000
-1.060000,1.860000,0.140357,0.040000,-1754.550742,-1531.298956,1038.806469,295.145733,-0.000000,0.000000,0.000000
-1.100000,1.860000,0.148661,0.040000,-1754.033318,1325.221303,-1080.693136,-1.027958,0.000000,-0.000000,-0.000000
-1.020000,1.820000,0.182483,0.040000,-1754.244995,45.196993,-30.394241,-46.988916,0.000000,-0.000000,-0.000000
-0.980000,1.820000,0.182483,0.040000,-1754.276558,45.388877,-30.585827,45.514182,0.000000,-0.000000,0.000000
-0.980000,1.860000,0.143178,0.040000,-1754.317695,890.390894,-503.328231,599.479477,0.000000,-0.000000,0.000000
-1.020000,1.860000,0.143178,0.040000,-1754.287454,890.227502,-503.186347,-601.332115,0.000000,-0.000000,-0.000000
-0.940000,1.820000,0.180278,0.040000,-1754.329075,-123.417904,84.489765,-28.739456,-0.000000,0.000000,-0.000000
-0.900000,1.820000,0.186815,0.040000,-1754.315858,140.837477,-98.882508,-0.659450,0.000000,-0.000000,-0.000000
-0.900000,1.860000,0.148661,0.040000,-1754.185997,1326.316153,-1081.770276,-0.793422,0.000000,-0.000000,-0.000000
-0.940000,1.860000,0.140357,0.040000,-1754.641713,-1530.716603,1038.201056,-297.079430,-0.000000,0.000000,-0.000000
-0.860000,1.820000,0.180278,0.040000,-1754.377903,-123.115918,84.187092,27.413799,-0.000000,0.000000,0.000000
-0.820000,1.820000,0.182483,0.040000,-1754.374704,46.016141,-31.211985,-46.835735,0.000000,-0.000000,-0.000000
-0.820000,1.860000,0.143178,0.040000,-1754.411096,891.079557,-504.013498,-601.124866,0.000000,-0.000000,-0.000000
-0.860000,1.860000,0.140357,0.040000,-1754.688192,-1530.469518,1037.946893,295.419985,-0.000000,0.000000,0.000000
-0.780000,1.820000,0.182483,0.040000,-1754.393456,46.131585,-31.327294,45.674058,0.000000,-0.000000,0.000000
-0.740000,1.820000,0.180278,0.040000,-1754.434349,-122.756215,83.826821,-28.579929,-0.000000,0.000000,-0.000000
-0.740000,1.860000,0.140357,0.040000,-1754.741557,-1530.121964,1037.586610,-296.854488,-0.000000,0.000000,-0.000000
-0.780000,1.860000,0.143178,0.040000,-1754.428834,891.178586,-504.100725,599.736312,0.000000,-0.000000,0.000000
-0.700000,1.820000,0.186815,0.040000,-1754.410574,141.445665,-99.488758,-0.500496,0.000000,-0.000000,-0.000000
-0.660000,1.820000,0.180278,0.040000,-1754.463028,-122.573640,83.643840,27.574762,-0.000000,0.000000,0.000000
-0.660000,1.860000,0.140357,0.040000,-1754.768489,-1529.969926,1037.430732,295.650187,-0.000000,0.000000,0.000000
-0.700000,1.860000,0.148661,0.040000,-1754.275571,1326.963098,-1082.407514,-0.582387,0.000000,-0.000000,-0.000000
-0.620000,1.820000,0.182483,0.040000,-1754.451109,46.509170,-31.704349,-46.678676,0.000000,-0.000000,-0.000000
-0.580000,1.820000,0.182483,0.040000,-1754.461931,46.578915,-31.774035,45.831853,0.000000,-0.000000,0.000000
-0.580000,1.860000,0.143178,0.040000,-1754.493060,891.647947,-504.562108,599.950616,0.000000,-0.000000,0.000000
-0.620000,1.860000,0.143178,0.040000,-1754.482967,891.587128,-504.507463,-600.934490,0.000000,-0.000000,-0.000000
-0.540000,1.820000,0.180278,0.040000,-1754.495608,-122.357416,83.427288,-28.424629,-0.000000,0.000000,-0.000000
-0.500000,1.820000,0.186815,0.040000,-1754.465258,141.810562,-99.852688,-0.347611,0.000000,-0.000000,-0.000000
-0.500000,1.860000,0.148661,0.040000,-1754.326570,1327.346461,-1082.785770,-0.396889,0.000000,-0.000000,-0.000000
-0.540000,1.860000,0.140357,0.040000,-1754.798861,-1529.761091,1037.215199,-296.658761,-0.000000,0.000000,-0.000000
-0.460000,1.820000,0.180278,0.040000,-1754.511719,-122.249129,83.318781,27.727064,-0.000000,0.000000,0.000000
-0.420000,1.820000,0.182483,0.040000,-1754.494328,46.801791,-31.996665,-46.529865,0.000000,-0.000000,-0.000000
-0.420000,1.860000,0.143178,0.040000,-1754.523046,891.885494,-504.798746,-600.762204,0.000000,-0.000000,-0.000000
-0.460000,1.860000,0.140357,0.040000,-1754.813773,-1529.668702,1037.120850,295.844780,-0.000000,0.000000,0.000000
-0.380000,1.820000,0.182483,0.040000,-1754.500147,46.841736,-32.036587,45.979778,0.000000,-0.000000,0.000000
-0.340000,1.820000,0.180278,0.040000,-1754.529239,-122.125918,83.195401,-28.278926,-0.000000,0.000000,-0.000000
-0.340000,1.860000,0.140357,0.040000,-1754.829874,-1529.549526,1036.998436,-296.485615,-0.000000,0.000000,-0.000000
-0.380000,1.860000,0.143178,0.040000,-1754.528395,891.920995,-504.831280,600.133555,0.000000,-0.000000,0.000000
-0.300000,1.820000,0.186815,0.040000,-1754.494678,142.018148,-100.059823,-0.204061,0.000000,-0.000000,-0.000000
-0.260000,1.820000,0.180278,0.040000,-1754.537258,-122.068446,83.137827,27.869666,-0.000000,0.000000,0.000000
-0.260000,1.860000,0.140357,0.040000,-1754.837194,-1529.499317,1036.947347,296.015374,-0.000000,0.000000,0.000000
-0.300000,1.860000,0.148661,0.040000,-1754.353619,1327.562048,-1082.998876,-0.230584,0.000000,-0.000000,-0.000000
-0.220000,1.820000,0.182483,0.040000,-1754.516277,46.959509,-32.154257,-46.389538,0.000000,-0.000000,-0.000000
-0.180000,1.820000,0.182483,0.040000,-1754.518758,46.977771,-32.172511,46.119183,0.000000,-0.000000,0.000000
-0.180000,1.860000,0.143178,0.040000,-1754.545372,892.061362,-504.970115,600.296740,0.000000,-0.000000,0.000000
-0.220000,1.860000,0.143178,0.040000,-1754.543121,892.044847,-504.954727,-600.603056,0.000000,-0.000000,-0.000000
-0.140000,1.820000,0.180278,0.040000,-1754.544730,-122.012366,83.081679,-28.140806,-0.000000,0.000000,-0.000000
-0.100000,1.820000,0.186815,0.040000,-1754.507230,142.112510,-100.154016,-0.067241,0.000000,-0.000000,-0.000000
-0.100000,1.860000,0.148661,0.040000,-1754.365013,1327.659113,-1083.094983,-0.075696,0.000000,-0.000000,-0.000000
-0.140000,1.860000,0.140357,0.040000,-1754.843972,-1529.444953,1036.891745,-296.326441,-0.000000,0.000000,-0.000000
-0.060000,1.820000,0.180278,0.040000,-1754.547023,-121.994322,83.063609,28.006015,-0.000000,0.000000,0.000000
-0.020000,1.820000,0.182483,0.040000,-1754.523374,47.014583,-32.209298,-46.254181,0.000000,-0.000000,-0.000000
-0.020000,1.860000,0.143178,0.040000,-1754.549527,892.099558,-505.008208,-600.450339,0.000000,-0.000000,-0.000000
-0.060000,1.860000,0.140357,0.040000,-1754.846035,-1529.428778,1036.875348,296.172758,-0.000000,0.000000,0.000000
0.020000,1.820000,0.182483,0.040000,-1754.523274,47.014615,-32.209331,46.254166,0.000000,-0.000000,0.000000
0.060000,1.820000,0.180278,0.040000,-1754.546725,-121.994323,83.063616,-28.005994,-0.000000,0.000000,-0.000000
0.060000,1.860000,0.140357,0.040000,-1754.845737,-1529.428696,1036.875365,-296.172516,-0.000000,0.000000,-0.000000
0.020000,1.860000,0.143178,0.040000,-1754.549427,892.099716,-505.008459,600.450231,0.000000,-0.000000,0.000000
0.100000,1.820000,0.186815,0.040000,-1754.506733,142.112471,-100.153989,0.067211,0.000000,-0.000000,0.000000
0.140000,1.820000,0.180278,0.040000,-1754.544033,-122.012295,83.081624,28.140811,-0.000000,0.000000,0.000000
0.140000,1.860000,0.140357,0.040000,-1754.843274,-1529.444166,1036.891138,296.326514,-0.000000,0.000000,0.000000
0.100000,1.860000,0.148661,0.040000,-1754.364515,1327.658737,-1083.094677,0.075435,0.000000,-0.000000,0.000000
0.180000,1.820000,0.182483,0.040000,-1754.517862,46.977713,-32.172462,-46.119172,0.000000,-0.000000,-0.000000
0.220000,1.820000,0.182483,0.040000,-1754.515182,46.959515,-32.154273,46.389496,0.000000,-0.000000,0.000000
0.220000,1.860000,0.143178,0.040000,-1754.542026,892.044499,-504.954693,600.602607,0.000000,-0.000000,0.000000
0.180000,1.860000,0.143178,0.040000,-1754.544476,892.060699,-504.969580,-600.296507,0.000000,-0.000000,-0.000000
0.260000,1.820000,0.180278,0.040000,-1754.535964,-122.068377,83.137785,-27.869630,-0.000000,0.000000,-0.000000
0.300000,1.820000,0.186815,0.040000,-1754.493184,142.018029,-100.059741,0.204031,0.000000,-0.000000,0.000000
0.300000,1.860000,0.148661,0.040000,-1754.352126,1327.560920,-1082.997957,0.230324,0.000000,-0.000000,0.000000
0.260000,1.860000,0.140357,0.040000,-1754.835899,-1529.498366,1036.946774,-296.014964,-0.000000,0.000000,-0.000000
0.340000,1.820000,0.180278,0.040000,-1754.527547,-122.125776,83.195296,28.278915,-0.000000,0.000000,0.000000
0.380000,1.820000,0.182483,0.040000,-1754.498255,46.841653,-32.036522,-45.979741,0.000000,-0.000000,-0.000000
0.380000,1.860000,0.143178,0.040000,-1754.526503,891.919827,-504.830460,-600.132982,0.000000,-0.000000,-0.000000
0.340000,1.860000,0.140357,0.040000,-1754.828181,-1529.547869,1036.997238,296.485520,-0.000000,0.000000,0.000000
0.420000,1.820000,0.182483,0.040000,-1754.492237,46.801772,-31.996666,46.529797,0.000000,-0.000000,0.000000
0.460000,1.820000,0.180278,0.040000,-1754.509429,-122.248988,83.318690,-27.727012,-0.000000,0.000000,-0.000000
0.460000,1.860000,0.140357,0.040000,-1754.811483,-1529.666882,1037.119687,-295.844202,-0.000000,0.000000,-0.000000
0.420000,1.860000,0.143178,0.040000,-1754.520955,891.884642,-504.798428,600.761414,0.000000,-0.000000,0.000000
0.500000,1.820000,0.186815,0.040000,-1754.462769,141.810364,-99.852551,0.347580,0.000000,-0.000000,0.000000
0.540000,1.820000,0.180278,0.040000,-1754.492919,-122.357203,83.427133,28.424601,-0.000000,0.000000,0.000000
0.540000,1.860000,0.140357,0.040000,-1754.796172,-1529.758565,1037.213410,296.658498,-0.000000,0.000000,0.000000
0.500000,1.860000,0.148661,0.040000,-1754.324081,1327.344581,-1082.784239,0.396628,0.000000,-0.000000,0.000000
0.580000,1.820000,0.182483,0.040000,-1754.459044,46.578807,-31.773954,-45.831790,0.000000,-0.000000,-0.000000
0.620000,1.820000,0.182483,0.040000,-1754.448022,46.509127,-31.704334,46.678581,0.000000,-0.000000,0.000000
0.620000,1.860000,0.143178,0.040000,-1754.479881,891.585772,-504.506861,600.933358,0.000000,-0.000000,0.000000
0.580000,1.860000,0.143178,0.040000,-1754.490173,891.646275,-504.561004,-599.949703,0.000000,-0.000000,-0.000000
0.660000,1.820000,0.180278,0.040000,-1754.459742,-122.573428,83.643698,-27.574695,-0.000000,0.000000,-0.000000
0.700000,1.820000,0.186815,0.040000,-1754.407089,141.445389,-99.488568,0.500465,0.000000,-0.000000,0.000000
0.700000,1.860000,0.148661,0.040000,-1754.272087,1326.960468,-1082.405372,0.582125,0.000000,-0.000000,0.000000
0.660000,1.860000,0.140357,0.040000,-1754.765203,-1529.967236,1037.428977,-295.649442,-0.000000,0.000000,-0.000000
0.740000,1.820000,0.180278,0.040000,-1754.430665,-122.755930,83.826616,28.579885,-0.000000,0.000000,0.000000
0.780000,1.820000,0.182483,0.040000,-1754.389574,46.131454,-31.327199,-45.673969,0.000000,-0.000000,-0.000000
0.780000,1.860000,0.143178,0.040000,-1754.424951,891.176411,-504.099339,-599.735059,0.000000,-0.000000,-0.000000
0.740000,1.860000,0.140357,0.040000,-1754.737872,-1530.118567,1037.584229,296.854056,-0.000000,0.000000,0.000000
0.820000,1.820000,0.182483,0.040000,-1754.370622,46.016075,-31.211956,46.835613,0.000000,-0.000000,0.000000
0.860000,1.820000,0.180278,0.040000,-1754.373623,-123.115633,84.186898,-27.413716,-0.000000,0.000000,-0.000000
0.860000,1.860000,0.140357,0.040000,-1754.683911,-1530.465956,1037.944545,-295.419073,-0.000000,0.000000,-0.000000
0.820000,1.860000,0.143178,0.040000,-1754.407014,891.077699,-504.012614,601.123394,0.000000,-0.000000,0.000000
0.900000,1.820000,0.186815,0.040000,-1754.311379,140.837125,-98.882266,0.659419,0.000000,-0.000000,0.000000
0.940000,1.820000,0.180278,0.040000,-1754.324396,-123.417545,84.489507,28.739395,-0.000000,0.000000,0.000000
0.940000,1.860000,0.140357,0.040000,-1754.637034,-1530.712334,1038.198081,297.078829,-0.000000,0.000000,0.000000
0.900000,1.860000,0.148661,0.040000,-1754.181518,1326.312774,-1081.767524,0.793160,0.000000,-0.000000,0.000000
0.980000,1.820000,0.182483,0.040000,-1754.271681,45.388725,-30.585720,-45.514068,0.000000,-0.000000,-0.000000
1.020000,1.820000,0.182483,0.040000,-1754.239919,45.196906,-30.394200,46.988768,0.000000,-0.000000,0.000000
1.020000,1.860000,0.143178,0.040000,-1754.282378,890.225144,-503.185183,601.330301,0.000000,-0.000000,0.000000
0.980000,1.860000,0.143178,0.040000,-1754.312818,890.388219,-503.326565,-599.477884,0.000000,-0.000000,-0.000000
1.060000,1.820000,0.180278,0.040000,-1754.228801,-124.017757,85.090606,-27.259657,-0.000000,0.000000,-0.000000
1.100000,1.820000,0.186815,0.040000,-1754.150987,139.820170,-97.869119,0.802492,0.000000,-0.000000,0.000000
1.100000,1.860000,0.148661,0.040000,-1754.027844,1325.217178,-1080.689779,1.027695,0.000000,-0.000000,0.000000
1.060000,1.860000,0.140357,0.040000,-1754.545466,-1531.294520,1038.803526,-295.144654,-0.000000,0.000000,-0.000000
1.140000,1.820000,0.180278,0.040000,-1754.146816,-124.527479,85.601394,28.874302,-0.000000,0.000000,0.000000
1.180000,1.820000,0.182483,0.040000,-1754.075126,44.134609,-29.334241,-45.389229,0.000000,-0.000000,-0.000000
1.180000,1.860000,0.143178,0.040000,-1754.123603,889.042983,-502.009299,-599.177566,0.000000,-0.000000,-0.000000
1.140000,1.860000,0.140357,0.040000,-1754.466453,-1531.709713,1039.231377,297.328915,-0.000000,0.000000,0.000000
1.220000,1.820000,0.182483,0.040000,-1754.022388,43.804504,-29.004810,47.088239,0.000000,-0.000000,0.000000
1.260000,1.820000,0.180278,0.040000,-1753.988069,-125.562326,86.637363,-27.175045,-0.000000,0.000000,-0.000000
1.260000,1.860000,0.140357,0.040000,-1754.312624,-1532.724059,1040.286550,-294.838761,-0.000000,0.000000,-0.000000
1.220000,1.860000,0.143178,0.040000,-1754.072469,888.759898,-501.764565,601.530185,0.000000,-0.000000,0.000000
1.300000,1.820000,0.186815,0.040000,-1753.884569,138.063255,-96.119688,0.847553,0.000000,-0.000000,0.000000
1.340000,1.820000,0.180278,0.040000,-1753.851920,-126.462634,87.539039,28.879526,-0.000000,0.000000,0.000000
1.340000,1.860000,0.140357,0.040000,-1754.179900,-1533.471622,1041.056116,297.556309,-0.000000,0.000000,0.000000
1.300000,1.860000,0.148661,0.040000,-1753.769611,1323.301957,-1078.806433,1.248651,0.000000,-0.000000,0.000000
1.380000,1.820000,0.182483,0.040000,-1753.748635,41.925650,-27.131105,-45.433427,0.000000,-0.000000,-0.000000
1.420000,1.820000,0.182483,0.040000,-1753.660780,41.324699,-26.531769,46.959404,0.000000,-0.000000,0.000000
1.420000,1.860000,0.143178,0.040000,-1753.719493,886.113090,-499.196750,601.614770,0.000000,-0.000000,0.000000
1.380000,1.860000,0.143178,0.040000,-1753.805675,886.643670,-499.659879,-598.885999,0.000000,-0.000000,-0.000000
1.460000,1.820000,0.180278,0.040000,-1753.587382,-128.346165,89.423192,-27.381154,-0.000000,0.000000,-0.000000
1.500000,1.820000,0.186815,0.040000,-1753.440329,134.858747,-92.930669,0.506696,0.000000,-0.000000,0.000000
1.500000,1.860000,0.148661,0.040000,-1753.333921,1319.755873,-1075.317665,1.279024,0.000000,-0.000000,0.000000
1.460000,1.860000,0.140357,0.040000,-1753.920546,-1535.356125,1043.011672,-294.608587,-0.000000,0.000000,-0.000000
1.540000,1.820000,0.180278,0.040000,-1753.359033,-130.042062,91.119944,28.384512,-0.000000,0.000000,0.000000
1.580000,1.820000,0.182483,0.040000,-1753.201343,37.786329,-23.005777,-46.125003,0.000000,-0.000000,-0.000000
1.580000,1.860000,0.143178,0.040000,-1753.266096,882.059353,-495.165032,-598.885388,0.000000,-0.000000,-0.000000
1.540000,1.860000,0.140357,0.040000,-1753.695160,-1536.829944,1044.523707,297.533093,-0.000000,0.000000,0.000000
1.620000,1.820000,0.182483,0.040000,-1753.052485,36.610141,-21.833840,45.976178,0.000000,-0.000000,0.000000
1.660000,1.820000,0.180278,0.040000,-1752.910555,-133.721049,94.795720,-28.688858,-0.000000,0.000000,-0.000000
1.660000,1.860000,0.140357,0.040000,-1753.249269,-1540.655703,1048.474463,-294.979623,-0.000000,0.000000,-0.000000
1.620000,1.860000,0.143178,0.040000,-1753.118026,880.961335,-494.187736,601.138497,0.000000,-0.000000,0.000000
1.700000,1.820000,0.186815,0.040000,-1752.686344,128.587693,-86.694857,-1.289009,0.000000,-0.000000,-0.000000
1.740000,1.820000,0.180278,0.040000,-1752.517925,-137.164147,98.235378,25.983878,-0.000000,0.000000,0.000000
1.740000,1.860000,0.140357,0.040000,-1752.855233,-1543.897421,1051.784064,296.234399,-0.000000,0.000000,0.000000
1.700000,1.860000,0.148661,0.040000,-1752.583819,1312.621814,-1068.290527,0.342783,0.000000,-0.000000,0.000000
1.780000,1.820000,0.182483,0.040000,-1752.261677,29.440363,-14.697201,-49.323746,0.000000,-0.000000,-0.000000
1.820000,1.820000,0.182483,0.040000,-1752.000969,26.972638,-12.241600,41.652107,0.000000,-0.000000,0.000000
1.820000,1.860000,0.143178,0.040000,-1752.059435,869.890896,-483.389508,598.109781,0.000000,-0.000000,0.000000
1.780000,1.860000,0.143178,0.040000,-1752.324281,872.434232,-485.705873,-600.533563,0.000000,-0.000000,-0.000000
1.860000,1.820000,0.180278,0.040000,-1751.731827,-144.851624,105.903735,-34.418859,-0.000000,0.000000,-0.000000
1.900000,1.820000,0.186815,0.040000,-1751.362581,115.506010,-73.701848,-9.033038,0.000000,-0.000000,-0.000000
1.900000,1.860000,0.148661,0.040000,-1751.237378,1296.697110,-1052.579920,-5.320796,0.000000,-0.000000,-0.000000
1.860000,1.860000,0.140357,0.040000,-1752.056765,-1552.547197,1060.663844,-298.542225,-0.000000,0.000000,-0.000000
1.940000,1.820000,0.180278,0.040000,-1751.028381,-152.112585,113.146145,15.587786,-0.000000,0.000000,0.000000
1.980000,1.820000,0.182483,0.040000,-1750.582437,11.986388,2.655747,-63.342544,0.000000,-0.000000,-0.000000
1.980000,1.860000,0.143178,0.040000,-1750.592573,850.044035,-463.638479,-611.097221,0.000000,-0.000000,-0.000000
1.940000,1.860000,0.140357,0.040000,-1751.330142,-1560.460215,1068.709593,288.479548,-0.000000,0.000000,0.000000
2.020000,1.820000,0.182483,0.040000,-1750.104346,7.106914,7.508688,22.565253,0.000000,0.000000,0.000000
2.060000,1.820000,0.180278,0.040000,-1749.586310,-167.073621,128.065649,-60.268217,-0.000000,0.000000,-0.000000
2.060000,1.860000,0.140357,0.040000,-1749.801513,-1581.250025,1090.007539,-320.198068,-0.000000,0.000000,-0.000000
2.020000,1.860000,0.143178,0.040000,-1750.086275,843.776517,-457.834780,581.884375,0.000000,-0.000000,0.000000
2.100000,1.820000,0.186815,0.040000,-1748.932845,90.988913,-49.357741,-44.398469,0.000000,-0.000000,-0.000000
2.140000,1.820000,0.180278,0.040000,-1748.275951,-176.871059,137.961035,-32.511334,-0.000000,0.000000,-0.000000
2.140000,1.860000,0.140357,0.040000,-1748.356953,-1598.234597,1107.435481,242.591498,-0.000000,0.000000,0.000000
2.100000,1.860000,0.148661,0.040000,-1748.652131,1259.416417,-1015.716877,-37.755653,0.000000,-0.000000,-0.000000
2.180000,1.820000,0.182483,0.040000,-1747.468117,-11.625993,26.001784,-128.627348,-0.000000,0.000000,-0.000000
2.220000,1.820000,0.182483,0.040000,-1746.592265,-8.964083,23.561825,-65.108464,-0.000000,0.000000,-0.000000
2.220000,1.860000,0.143178,0.040000,-1746.137612,797.858668,-412.828470,485.260326,0.000000,-0.000000,0.000000
2.180000,1.860000,0.143178,0.040000,-1747.167979,802.927653,-416.935745,-676.671365,0.000000,-0.000000,-0.000000
2.260000,1.820000,0.180278,0.040000,-1745.652823,-163.604622,127.669005,-174.133361,-0.000000,0.000000,-0.000000
2.300000,1.820000,0.186815,0.040000,-1744.579553,110.844786,-66.021325,-177.120746,0.000000,-0.000000,-0.000000
2.300000,1.860000,0.148661,0.040000,-1743.464962,1268.444342,-1034.459357,-232.448184,0.000000,-0.000000,-0.000000
2.260000,1.860000,0.140357,0.040000,-1745.259072,-1611.760634,1122.516556,-454.062242,-0.000000,0.000000,-0.000000
2.340000,1.820000,0.162788,0.040000,-1743.535620,-212.979303,246.684202,-43.494619,-0.000000,0.000000,-0.000000
2.380000,1.820000,0.123693,0.040000,-1742.229660,-1918.746785,3862.522152,1873.288998,-0.000000,0.000000,0.000000
2.380000,1.860000,0.120416,0.040000,-1741.474818,1782.358754,2049.137119,-1600.958862,0.000000,0.000000,-0.000000
2.340000,1.860000,0.140357,0.040000,-1742.560958,-1256.166867,638.912866,-89.734060,-0.000000,0.000000,-0.000000
2.420000,1.820000,0.085440,0.040000,-1738.040588,-21416.483026,115426.739889,845.763963,-0.000001,0.000002,0.000000
2.460000,1.820000,0.050000,0.040000,-1688.895118,11639.596428,335614.646288,262.095946,-0.000002,0.000004,0.000000
2.460000,1.860000,0.041231,0.040000,-1855.797161,73599.203787,418097.850520,246.335000,-0.000001,0.000005,0.000000
2.420000,1.860000,0.080623,0.040000,-1748.595199,-10392.015886,116239.804092,1246.486103,-0.000001,0.000002,0.000000
2.500000,1.820000,0.030000,0.040000,-870.631430,-3106.161210,510310.953613,-1824.169331,-0.000003,0.000007,-0.000000
2.500000,1.860000,0.010000,0.040000,-868.735969,7052.832402,528416.387174,-3595.584053,-0.000003,0.000007,-0.000000
-2.500000,1.900000,0.050000,0.040000,-864.794279,-4344.537461,568360.860461,26017.352798,-0.000003,0.000008,0.000000
-2.500000,1.940000,0.010000,0.040000,-844.106756,20744.734144,731330.754745,52879.168516,-0.000004,0.000010,0.000001
-2.460000,1.900000,0.064031,0.040000,-1607.300726,-29636.449923,316592.425760,-4346.674241,-0.000002,0.000004,-0.000000
-2.420000,1.900000,0.094340,0.040000,-1724.525579,-21046.466168,106135.222623,-11264.956509,-0.000001,0.000002,-0.000000
-2.420000,1.940000,0.067082,0.040000,-1730.219620,-4753.673365,92625.906143,-15173.845045,-0.000001,0.000001,-0.000000
-2.460000,1.940000,0.041231,0.040000,-1880.626160,79335.119200,480507.577837,-11667.627786,-0.000002,0.000006,-0.000000
-2.380000,1.900000,0.104403,0.040000,-1737.111540,3631.710413,-1859.155113,9851.465238,0.000000,-0.000000,0.000000
-2.340000,1.900000,0.100499,0.040000,-1743.654410,-3737.250487,7859.289458,1301.053307,-0.000000,0.000000,0.000000
-2.340000,1.940000,0.060828,0.040000,-1772.860774,347.890438,27133.523556,13171.109156,-0.000000,0.000000,0.000000
-2.380000,1.940000,0.067082,0.040000,-1725.089593,17454.115312,-14438.687727,9172.016386,0.000000,-0.000000,0.000000
-2.300000,1.900000,0.111803,0.040000,-1739.724363,-5384.197172,-4993.328275,272.740044,-0.000000,-0.000000,0.000000
-2.260000,1.900000,0.100499,0.040000,-1747.259349,-3451.575954,7482.848601,-833.273658,-0.000000,0.000000,-0.000000
-2.260000,1.940000,0.060828,0.040000,-1777.297708,-77.635764,27803.376326,-12892.696418,-0.000000,0.000000,-0.000000
-2.300000,1.940000,0.078102,0.040000,-1703.204919,-27631.194996,-21146.534296,267.107975,-0.000000,-0.000000,0.000000
-2.220000,1.900000,0.104403,0.040000,-1744.982860,6857.116092,-4768.281612,-9435.799629,0.000000,-0.000000,-0.000000
-2.180000,1.900000,0.104403,0.040000,-1746.163632,6864.006094,-4766.489988,9608.349821,0.000000,-0.000000,0.000000
-2.180000,1.940000,0.067082,0.040000,-1734.119033,16889.643348,-16364.181913,10681.516429,0.000000,-0.000000,0.000000
-2.220000,1.940000,0.067082,0.040000,-1732.767913,16866.010663,-16429.549791,-10546.639276,0.000000,-0.000000,-0.000000
-2.140000,1.900000,0.100499,0.040000,-1750.802581,-3386.115897,7409.594042,1013.746867,-0.000000,0.000000,0.000000
-2.100000,1.900000,0.111803,0.040000,-1745.733111,-5309.328011,-5126.298404,33.996807,-0.000000,-0.000000,0.000000
-2.100000,1.940000,0.078102,0.040000,-1709.756125,-27670.739793,-21330.128190,25.358850,-0.000000,-0.000000,0.000000
-2.140000,1.940000,0.060828,0.040000,-1781.203331,14.554077,27633.431964,13074.298416,-0.000000,0.000000,0.000000
-2.060000,1.900000,0.100499,0.040000,-1752.354391,-3364.442707,7398.224852,-973.672382,-0.000000,0.000000,-0.000000
-2.020000,1.900000,0.104403,0.040000,-1749.295263,6950.025322,-4853.355307,-9550.765271,0.000000,-0.000000,-0.000000
-2.020000,1.940000,0.067082,0.040000,-1737.306356,17009.143795,-16547.467963,-10648.600898,0.000000,-0.000000,-0.000000
-2.060000,1.940000,0.060828,0.040000,-1782.862580,49.356548,27678.296426,-13075.331579,-0.000000,0.000000,-0.000000
-1.980000,1.900000,0.104403,0.040000,-1749.821526,6953.422673,-4853.303411,9567.323299,0.000000,-0.000000,0.000000
-1.940000,1.900000,0.100499,0.040000,-1753.934797,-3335.567335,7368.079109,983.151616,-0.000000,0.000000,0.000000
-1.940000,1.940000,0.060828,0.040000,-1784.459020,82.793480,27627.544977,13078.943157,-0.000000,0.000000,0.000000
-1.980000,1.940000,0.067082,0.040000,-1737.859287,17016.135752,-16519.362259,10651.120985,0.000000,-0.000000,0.000000
-1.900000,1.900000,0.111803,0.040000,-1748.412472,-5271.808349,-5179.259758,4.325176,-0.000000,-0.000000,0.000000
-1.860000,1.900000,0.100499,0.040000,-1754.671986,-3328.983980,7366.065627,-988.500152,-0.000000,0.000000,-0.000000
-1.860000,1.940000,0.060828,0.040000,-1785.211820,92.793364,27653.389523,-13099.536293,-0.000000,0.000000,-0.000000
-1.900000,1.940000,0.078102,0.040000,-1712.408663,-27661.347088,-21412.447476,1.958170,-0.000000,-0.000000,0.000000
-1.820000,1.900000,0.104403,0.040000,-1751.303463,6985.830503,-4885.913766,-9571.000197,0.000000,-0.000000,-0.000000
-1.780000,1.900000,0.104403,0.040000,-1751.569139,6986.348071,-4884.779945,9568.944154,0.000000,-0.000000,0.000000
-1.780000,1.940000,0.067082,0.040000,-1739.568571,17060.248321,-16570.993710,10657.024347,0.000000,-0.000000,0.000000
-1.820000,1.940000,0.067082,0.040000,-1739.296979,17058.412526,-16586.071508,-10663.907321,0.000000,-0.000000,-0.000000
-1.740000,1.900000,0.100499,0.040000,-1755.467992,-3318.501405,7355.059485,981.630233,-0.000000,0.000000,0.000000
-1.700000,1.900000,0.111803,0.040000,-1749.754814,-5259.201332,-5199.146275,-0.319980,-0.000000,-0.000000,-0.000000
-1.700000,1.940000,0.078102,0.040000,-1713.698578,-27664.022488,-21443.719470,-0.999866,-0.000000,-0.000000,-0.000000
-1.740000,1.940000,0.060828,0.040000,-1785.994024,104.294426,27634.653566,13091.496127,-0.000000,0.000000,0.000000
-1.660000,1.900000,0.100499,0.040000,-1755.858075,-3316.468131,7355.362442,-989.671257,-0.000000,0.000000,-0.000000
-1.620000,1.900000,0.104403,0.040000,-1752.351019,7000.180338,-4898.722823,-9576.914473,0.000000,-0.000000,-0.000000
-1.620000,1.940000,0.067082,0.040000,-1740.313064,17078.517066,-16601.436286,-10668.518459,0.000000,-0.000000,-0.000000
-1.660000,1.940000,0.060828,0.040000,-1786.385046,107.766511,27649.597284,-13106.232197,-0.000000,0.000000,-0.000000
-1.580000,1.900000,0.104403,0.040000,-1752.496855,7000.089493,-4897.752571,9572.903985,0.000000,-0.000000,0.000000
-1.540000,1.900000,0.100499,0.040000,-1756.294444,-3311.996277,7350.623180,982.877013,-0.000000,0.000000,0.000000
-1.540000,1.940000,0.060828,0.040000,-1786.807924,112.617290,27641.051436,13099.366330,-0.000000,0.000000,0.000000
-1.580000,1.940000,0.067082,0.040000,-1740.460054,17079.068937,-16592.956994,10662.517200,0.000000,-0.000000,0.000000
-1.500000,1.900000,0.111803,0.040000,-1750.488444,-5254.363345,-5207.856863,-1.089797,-0.000000,-0.000000,-0.000000
-1.460000,1.900000,0.100499,0.040000,-1756.514233,-3311.282846,7351.193161,-989.166697,-0.000000,0.000000,-0.000000
-1.460000,1.940000,0.060828,0.040000,-1787.025625,114.069192,27649.733859,-13109.015622,-0.000000,0.000000,-0.000000
-1.500000,1.940000,0.078102,0.040000,-1714.393501,-27667.553850,-21458.214784,-1.308249,-0.000000,-0.000000,-0.000000
-1.420000,1.900000,0.104403,0.040000,-1752.936725,7006.862076,-4904.589793,-9579.285346,0.000000,-0.000000,-0.000000
-1.380000,1.900000,0.104403,0.040000,-1753.020472,7006.704955,-4903.940704,9575.764703,0.000000,-0.000000,0.000000
-1.380000,1.940000,0.067082,0.040000,-1740.957523,17088.374680,-16603.848877,10666.032202,0.000000,-0.000000,0.000000
-1.420000,1.940000,0.067082,0.040000,-1740.874058,17088.183596,-16608.715795,-10670.502107,0.000000,-0.000000,-0.000000
-1.340000,1.900000,0.100499,0.040000,-1756.764665,-3309.102701,7348.865782,984.045107,-0.000000,0.000000,0.000000
-1.300000,1.900000,0.111803,0.040000,-1750.908807,-5252.201580,-5212.185545,-1.093212,-0.000000,-0.000000,-0.000000
-1.300000,1.940000,0.078102,0.040000,-1714.787413,-27670.111100,-21465.743532,-1.175727,-0.000000,-0.000000,-0.000000
-1.340000,1.940000,0.060828,0.040000,-1787.265696,116.431585,27645.337254,13104.012081,-0.000000,0.000000,0.000000
-1.260000,1.900000,0.100499,0.040000,-1756.892437,-3308.806964,7349.296580,-988.568120,-0.000000,0.000000,-0.000000
-1.220000,1.900000,0.104403,0.040000,-1753.276006,7010.317569,-4907.591110,-9580.367110,0.000000,-0.000000,-0.000000
-1.220000,1.940000,0.067082,0.040000,-1741.195512,17093.293938,-16612.521622,-10671.453879,0.000000,-0.000000,-0.000000
-1.260000,1.940000,0.060828,0.040000,-1787.390848,117.134343,27650.375623,-13110.352657,-0.000000,0.000000,-0.000000
-1.180000,1.900000,0.104403,0.040000,-1753.325045,7010.204268,-4907.198153,9577.607079,0.000000,-0.000000,0.000000
-1.140000,1.900000,0.100499,0.040000,-1757.039056,-3307.640514,7348.046845,984.887773,-0.000000,0.000000,0.000000
-1.140000,1.940000,0.060828,0.040000,-1787.529813,118.397455,27647.963039,13106.775910,-0.000000,0.000000,0.000000
-1.180000,1.940000,0.067082,0.040000,-1741.243805,17093.375939,-16609.726909,10668.191399,0.000000,-0.000000,0.000000
-1.100000,1.900000,0.111803,0.040000,-1751.154733,-5251.097807,-5214.521526,-0.933585,-0.000000,-0.000000,-0.000000
-1.060000,1.900000,0.100499,0.040000,-1757.114071,-3307.487416,7348.306398,-988.084700,-0.000000,0.000000,-0.000000
-1.060000,1.940000,0.060828,0.040000,-1787.602351,118.778998,27650.843535,-13110.993008,-0.000000,0.000000,-0.000000
-1.100000,1.940000,0.078102,0.040000,-1715.015339,-27671.698713,-21469.890875,-0.974674,-0.000000,-0.000000,-0.000000
-1.020000,1.900000,0.104403,0.040000,-1753.475047,7012.224697,-4909.240358,-9580.856147,0.000000,-0.000000,-0.000000
-0.980000,1.900000,0.104403,0.040000,-1753.503796,7012.162559,-4909.020364,9578.768595,0.000000,-0.000000,0.000000
-0.980000,1.940000,0.067082,0.040000,-1741.409761,17096.180899,-16613.038328,10669.518197,0.000000,-0.000000,0.000000
-1.020000,1.940000,0.067082,0.040000,-1741.381857,17096.133495,-16614.615190,-10671.891598,0.000000,-0.000000,-0.000000
-0.940000,1.900000,0.100499,0.040000,-1757.200041,-3306.824048,7347.595910,985.475029,-0.000000,0.000000,0.000000
-0.900000,1.900000,0.111803,0.040000,-1751.298905,-5250.468935,-5215.846249,-0.747723,-0.000000,-0.000000,-0.000000
-0.900000,1.940000,0.078102,0.040000,-1715.147219,-27672.593205,-21472.233586,-0.775412,-0.000000,-0.000000,-0.000000
-0.940000,1.940000,0.060828,0.040000,-1787.682725,119.494732,27649.479195,13108.440701,-0.000000,0.000000,0.000000
-0.860000,1.900000,0.100499,0.040000,-1757.243796,-3306.725522,7347.727771,-987.713741,-0.000000,0.000000,-0.000000
-0.820000,1.900000,0.104403,0.040000,-1753.591311,7013.315911,-4910.185907,-9581.038638,0.000000,-0.000000,-0.000000
-0.820000,1.940000,0.067082,0.040000,-1741.489131,17097.743987,-16615.791293,-10672.047927,0.000000,-0.000000,-0.000000
-0.860000,1.940000,0.060828,0.040000,-1787.724362,119.720057,27651.075616,-13111.258249,-0.000000,0.000000,-0.000000
-0.780000,1.900000,0.104403,0.040000,-1753.607926,7013.290414,-4910.073622,9579.503149,0.000000,-0.000000,0.000000
-0.740000,1.900000,0.100499,0.040000,-1757.293501,-3306.335194,7347.311309,985.890547,-0.000000,0.000000,0.000000
-0.740000,1.940000,0.060828,0.040000,-1787.770039,120.138182,27650.299500,13109.455410,-0.000000,0.000000,0.000000
-0.780000,1.940000,0.067082,0.040000,-1741.504964,17097.778509,-16614.932667,10670.342608,0.000000,-0.000000,0.000000
-0.700000,1.900000,0.111803,0.040000,-1751.382281,-5250.082380,-5216.615605,-0.567115,-0.000000,-0.000000,-0.000000
-0.660000,1.900000,0.100499,0.040000,-1757.318455,-3306.263838,7347.363980,-987.425241,-0.000000,0.000000,-0.000000
-0.660000,1.940000,0.060828,0.040000,-1787.793311,120.277587,27651.141095,-13111.315093,-0.000000,0.000000,-0.000000
-0.700000,1.940000,0.078102,0.040000,-1715.222251,-27673.047144,-21473.558759,-0.588769,-0.000000,-0.000000,-0.000000
-0.620000,1.900000,0.104403,0.040000,-1753.657865,7013.947487,-4910.737217,-9581.055593,0.000000,-0.000000,-0.000000
-0.580000,1.900000,0.104403,0.040000,-1753.667157,7013.942796,-4910.687010,9579.977146,0.000000,-0.000000,0.000000
-0.580000,1.940000,0.067082,0.040000,-1741.558092,17098.681974,-16616.008759,10670.866829,0.000000,-0.000000,0.000000
-0.620000,1.940000,0.067082,0.040000,-1741.549436,17098.655258,-16616.450484,-10672.047122,0.000000,-0.000000,-0.000000
-0.540000,1.900000,0.100499,0.040000,-1757.346272,-3306.033387,7347.119612,986.195800,-0.000000,0.000000,0.000000
-0.500000,1.900000,0.111803,0.040000,-1751.428970,-5249.838152,-5217.060749,-0.396807,-0.000000,-0.000000,-0.000000
-0.500000,1.940000,0.078102,0.040000,-1715.263436,-27673.245899,-21474.292282,-0.413354,-0.000000,-0.000000,-0.000000
-0.540000,1.940000,0.060828,0.040000,-1787.818339,120.522046,27650.707405,13110.084842,-0.000000,0.000000,0.000000
-0.460000,1.900000,0.100499,0.040000,-1757.359845,-3305.982137,7347.131118,-987.192193,-0.000000,0.000000,-0.000000
-0.420000,1.900000,0.104403,0.040000,-1753.694341,7014.305268,-4911.052732,-9580.982939,0.000000,-0.000000,-0.000000
-0.420000,1.940000,0.067082,0.040000,-1741.581782,17099.155078,-16616.806656,-10671.959905,0.000000,-0.000000,-0.000000
-0.460000,1.940000,0.060828,0.040000,-1787.830697,120.607666,27651.118314,-13111.256788,-0.000000,0.000000,-0.000000
-0.380000,1.900000,0.104403,0.040000,-1753.699176,7014.309113,-4911.034644,9580.296444,0.000000,-0.000000,0.000000
-0.340000,1.900000,0.100499,0.040000,-1757.374328,-3305.852948,7346.995077,986.432950,-0.000000,0.000000,0.000000
-0.340000,1.940000,0.060828,0.040000,-1787.843422,120.743280,27650.890451,13110.489021,-0.000000,0.000000,0.000000
-0.380000,1.940000,0.067082,0.040000,-1741.586172,17099.174036,-16616.599860,10671.215321,0.000000,-0.000000,0.000000
-0.300000,1.900000,0.111803,0.040000,-1751.453299,-5249.691135,-5217.304688,-0.235073,-0.000000,-0.000000,-0.000000
-0.260000,1.900000,0.100499,0.040000,-1757.380872,-3305.821169,7346.991204,-986.993331,-0.000000,0.000000,-0.000000
-0.260000,1.940000,0.060828,0.040000,-1787.849231,120.790329,27651.064277,-13111.134073,-0.000000,0.000000,-0.000000
-0.300000,1.940000,0.078102,0.040000,-1715.284422,-27673.313767,-21474.673134,-0.245752,-0.000000,-0.000000,-0.000000
-0.220000,1.900000,0.104403,0.040000,-1753.712295,7014.488124,-4911.215068,-9580.861194,0.000000,-0.000000,-0.000000
-0.180000,1.900000,0.104403,0.040000,-1753.714294,7014.492545,-4911.211128,9580.526904,0.000000,-0.000000,0.000000
-0.180000,1.940000,0.067082,0.040000,-1741.599117,17099.412150,-16616.896597,10671.464266,0.000000,-0.000000,0.000000
-0.220000,1.940000,0.067082,0.040000,-1741.597348,17099.401975,-16616.972474,-10671.825060,0.000000,-0.000000,-0.000000
-0.140000,1.900000,0.100499,0.040000,-1757.386866,-3305.763147,7346.930501,986.631338,-0.000000,0.000000,0.000000
-0.100000,1.900000,0.111803,0.040000,-1751.463377,-5249.620881,-5217.411930,-0.078625,-0.000000,-0.000000,-0.000000
-0.100000,1.940000,0.078102,0.040000,-1715.292923,-27673.326074,-21474.831592,-0.082622,-0.000000,-0.000000,-0.000000
-0.140000,1.940000,0.060828,0.040000,-1787.854373,120.850656,27650.968274,13110.764884,-0.000000,0.000000,0.000000
-0.060000,1.900000,0.100499,0.040000,-1757.388675,-3305.751613,7346.925934,-986.811136,-0.000000,0.000000,-0.000000
-0.020000,1.900000,0.104403,0.040000,-1753.717926,7014.544384,-4911.263306,-9580.707852,0.000000,-0.000000,-0.000000
-0.020000,1.940000,0.067082,0.040000,-1741.602130,17099.476110,-16616.996776,-10671.658932,0.000000,-0.000000,-0.000000
-0.060000,1.940000,0.060828,0.040000,-1787.855932,120.866003,27651.008100,-13110.968470,-0.000000,0.000000,-0.000000
0.020000,1.900000,0.104403,0.040000,-1753.717826,7014.545513,-4911.265111,9580.707031,0.000000,-0.000000,0.000000
0.060000,1.900000,0.100499,0.040000,-1757.388376,-3305.751884,7346.926388,986.812581,-0.000000,0.000000,0.000000
0.060000,1.940000,0.060828,0.040000,-1787.855632,120.865483,27651.011245,13110.968503,-0.000000,0.000000,0.000000
0.020000,1.940000,0.067082,0.040000,-1741.602024,17099.476774,-16617.004398,10671.658057,0.000000,-0.000000,0.000000
0.100000,1.900000,0.111803,0.040000,-1751.462880,-5249.619391,-5217.410451,0.076060,-0.000000,-0.000000,0.000000
0.140000,1.900000,0.100499,0.040000,-1757.386167,-3305.760999,7346.925876,-986.629334,-0.000000,0.000000,-0.000000
0.140000,1.940000,0.060828,0.040000,-1787.853659,120.851109,27650.949435,-13110.757411,-0.000000,0.000000,-0.000000
0.100000,1.940000,0.078102,0.040000,-1715.292437,-27673.318221,-21474.825499,0.079060,-0.000000,-0.000000,0.000000
0.180000,1.900000,0.104403,0.040000,-1753.713399,7014.487436,-4911.206538,-9580.522288,0.000000,-0.000000,-0.000000
0.220000,1.900000,0.104403,0.040000,-1753.711200,7014.485273,-4911.214087,9580.854936,0.000000,-0.000000,0.000000
0.220000,1.940000,0.067082,0.040000,-1741.596254,17099.392936,-16616.970667,10671.818129,0.000000,-0.000000,0.000000
0.180000,1.940000,0.067082,0.040000,-1741.598233,17099.401783,-16616.879547,-10671.459085,0.000000,-0.000000,-0.000000
0.260000,1.900000,0.100499,0.040000,-1757.379576,-3305.819563,7346.987487,986.994215,-0.000000,0.000000,0.000000
0.300000,1.900000,0.111803,0.040000,-1751.451808,-5249.686664,-5217.300250,0.232507,-0.000000,-0.000000,0.000000
0.300000,1.940000,0.078102,0.040000,-1715.282962,-27673.290209,-21474.654857,0.242190,-0.000000,-0.000000,0.000000
0.260000,1.940000,0.060828,0.040000,-1787.847916,120.789741,27651.051728,13111.126665,-0.000000,0.000000,0.000000
0.340000,1.900000,0.100499,0.040000,-1757.372632,-3305.848922,7346.986280,-986.430386,-0.000000,0.000000,-0.000000
0.380000,1.900000,0.104403,0.040000,-1753.697286,7014.300026,-4911.027269,-9580.286391,0.000000,-0.000000,-0.000000
0.380000,1.940000,0.067082,0.040000,-1741.584300,17099.153968,-16616.573383,-10671.204084,0.000000,-0.000000,-0.000000
0.340000,1.940000,0.060828,0.040000,-1787.841693,120.743666,27650.855919,-13110.474109,-0.000000,0.000000,-0.000000
0.420000,1.900000,0.104403,0.040000,-1753.692251,7014.298438,-4911.048967,9580.971244,0.000000,-0.000000,0.000000
0.460000,1.900000,0.100499,0.040000,-1757.357551,-3305.978654,7347.123230,987.192517,-0.000000,0.000000,0.000000
0.460000,1.940000,0.060828,0.040000,-1787.828368,120.607011,27651.090072,13111.241940,-0.000000,0.000000,0.000000
0.420000,1.940000,0.067082,0.040000,-1741.579700,17099.136337,-16616.795421,10671.946917,0.000000,-0.000000,0.000000
0.500000,1.900000,0.111803,0.040000,-1751.426485,-5249.830702,-5217.053352,0.394242,-0.000000,-0.000000,0.000000
0.540000,1.900000,0.100499,0.040000,-1757.343579,-3306.027483,7347.106644,-986.192677,-0.000000,0.000000,-0.000000
0.540000,1.940000,0.060828,0.040000,-1787.815596,120.522364,27650.657183,-13110.062492,-0.000000,0.000000,-0.000000
0.500000,1.940000,0.078102,0.040000,-1715.261002,-27673.206637,-21474.261822,0.409793,-0.000000,-0.000000,0.000000
0.580000,1.900000,0.104403,0.040000,-1753.664272,7013.929730,-4910.676852,-9579.961659,0.000000,-0.000000,-0.000000
0.620000,1.900000,0.104403,0.040000,-1753.654779,7013.936680,-4910.730667,9581.038461,0.000000,-0.000000,0.000000
0.620000,1.940000,0.067082,0.040000,-1741.546365,17098.626817,-16616.429822,10672.028079,0.000000,-0.000000,0.000000
0.580000,1.940000,0.067082,0.040000,-1741.555233,17098.652206,-16615.972859,-10670.849538,0.000000,-0.000000,-0.000000
0.660000,1.900000,0.100499,0.040000,-1757.315165,-3306.258477,7347.351920,987.425004,-0.000000,0.000000,0.000000
0.700000,1.900000,0.111803,0.040000,-1751.378803,-5250.071949,-5216.605252,0.564549,-0.000000,-0.000000,0.000000
0.700000,1.940000,0.078102,0.040000,-1715.218844,-27672.992180,-21473.516118,0.585207,-0.000000,-0.000000,0.000000
0.660000,1.940000,0.060828,0.040000,-1787.789967,120.276866,27651.097160,13111.292805,-0.000000,0.000000,0.000000
0.740000,1.900000,0.100499,0.040000,-1757.289811,-3306.327413,7347.294171,-985.886866,-0.000000,0.000000,-0.000000
0.780000,1.900000,0.104403,0.040000,-1753.604046,7013.273374,-4910.060683,-9579.482228,0.000000,-0.000000,-0.000000
0.780000,1.940000,0.067082,0.040000,-1741.501117,17097.739045,-16614.887347,-10670.319265,0.000000,-0.000000,-0.000000
0.740000,1.940000,0.060828,0.040000,-1787.766281,120.138435,27650.233591,-13109.425624,-0.000000,0.000000,-0.000000
0.820000,1.900000,0.104403,0.040000,-1753.587230,7013.301127,-4910.176576,9581.016072,0.000000,-0.000000,0.000000
0.860000,1.900000,0.100499,0.040000,-1757.239509,-3306.718282,7347.711539,987.712943,-0.000000,0.000000,0.000000
0.860000,1.940000,0.060828,0.040000,-1787.720004,119.719272,27651.015991,13111.228523,-0.000000,0.000000,0.000000
0.820000,1.940000,0.067082,0.040000,-1741.485074,17097.705851,-16615.761207,10672.022830,0.000000,-0.000000,0.000000
0.900000,1.900000,0.111803,0.040000,-1751.294433,-5250.455522,-5215.832942,0.745158,-0.000000,-0.000000,0.000000
0.940000,1.900000,0.100499,0.040000,-1757.195355,-3306.814388,7347.574600,-985.470791,-0.000000,0.000000,-0.000000
0.940000,1.940000,0.060828,0.040000,-1787.677953,119.494921,27649.397604,-13108.403483,-0.000000,0.000000,-0.000000
0.900000,1.940000,0.078102,0.040000,-1715.142840,-27672.522543,-21472.178772,0.771850,-0.000000,-0.000000,0.000000
0.980000,1.900000,0.104403,0.040000,-1753.498922,7012.141548,-4909.004646,-9578.742242,0.000000,-0.000000,-0.000000
1.020000,1.900000,0.104403,0.040000,-1753.469972,7012.205941,-4909.228248,9580.828147,0.000000,-0.000000,0.000000
1.020000,1.940000,0.067082,0.040000,-1741.376812,17096.085669,-16614.575685,10671.860449,0.000000,-0.000000,0.000000
0.980000,1.940000,0.067082,0.040000,-1741.404926,17096.131746,-16612.983597,-10669.488804,0.000000,-0.000000,-0.000000
1.060000,1.900000,0.100499,0.040000,-1757.108788,-3307.478295,7348.285993,988.083339,-0.000000,0.000000,0.000000
1.100000,1.900000,0.111803,0.040000,-1751.149268,-5251.081411,-5214.505269,0.931020,-0.000000,-0.000000,0.000000
1.100000,1.940000,0.078102,0.040000,-1715.009987,-27671.612360,-21469.823897,0.971112,-0.000000,-0.000000,0.000000
1.060000,1.940000,0.060828,0.040000,-1787.596980,118.778151,27650.768223,13110.955846,-0.000000,0.000000,0.000000
1.140000,1.900000,0.100499,0.040000,-1757.033374,-3307.628972,7348.021365,-984.882979,-0.000000,0.000000,-0.000000
1.180000,1.900000,0.104403,0.040000,-1753.319177,7010.179292,-4907.179664,-9577.575299,0.000000,-0.000000,-0.000000
1.180000,1.940000,0.067082,0.040000,-1741.237984,17093.317107,-16609.662778,-10668.155961,0.000000,-0.000000,-0.000000
1.140000,1.940000,0.060828,0.040000,-1787.524028,118.397583,27647.865774,-13106.731267,-0.000000,0.000000,-0.000000
1.220000,1.900000,0.104403,0.040000,-1753.269938,7010.294849,-4907.576226,9580.333680,0.000000,-0.000000,0.000000
1.260000,1.900000,0.100499,0.040000,-1756.886158,-3308.795958,7349.271998,988.566197,-0.000000,0.000000,0.000000
1.260000,1.940000,0.060828,0.040000,-1787.384464,117.133440,27650.284628,13110.308064,-0.000000,0.000000,0.000000
1.220000,1.940000,0.067082,0.040000,-1741.189480,17093.236434,-16612.472706,10671.416680,0.000000,-0.000000,0.000000
1.300000,1.900000,0.111803,0.040000,-1750.902351,-5252.182199,-5212.166348,1.090646,-0.000000,-0.000000,0.000000
1.340000,1.900000,0.100499,0.040000,-1756.757988,-3309.089274,7348.836128,-984.039758,-0.000000,0.000000,-0.000000
1.340000,1.940000,0.060828,0.040000,-1787.258899,116.431660,27645.224327,-13103.960022,-0.000000,0.000000,-0.000000
1.300000,1.940000,0.078102,0.040000,-1714.781091,-27670.009062,-21465.664404,1.172165,-0.000000,-0.000000,0.000000
1.380000,1.900000,0.104403,0.040000,-1753.013611,7006.676027,-4903.919456,-9575.727503,0.000000,-0.000000,-0.000000
1.420000,1.900000,0.104403,0.040000,-1752.929664,7006.835403,-4904.572146,9579.246492,0.000000,-0.000000,0.000000
1.420000,1.940000,0.067082,0.040000,-1740.867040,17088.116432,-16608.657482,10670.458865,0.000000,-0.000000,0.000000
1.380000,1.940000,0.067082,0.040000,-1740.950715,17088.306187,-16603.775367,-10665.990727,0.000000,-0.000000,-0.000000
1.460000,1.900000,0.100499,0.040000,-1756.506960,-3311.269946,7351.164398,989.164210,-0.000000,0.000000,0.000000
1.500000,1.900000,0.111803,0.040000,-1750.480997,-5254.340971,-5207.834740,1.087234,-0.000000,-0.000000,0.000000
1.500000,1.940000,0.078102,0.040000,-1714.386208,-27667.436138,-21458.123535,1.304688,-0.000000,-0.000000,0.000000
1.460000,1.940000,0.060828,0.040000,-1787.018230,114.068244,27649.627185,13108.963604,-0.000000,0.000000,0.000000
1.540000,1.900000,0.100499,0.040000,-1756.286774,-3311.980954,7350.589347,-982.871112,-0.000000,0.000000,-0.000000
1.580000,1.900000,0.104403,0.040000,-1752.489004,7000.056637,-4897.728584,-9572.861372,0.000000,-0.000000,-0.000000
1.580000,1.940000,0.067082,0.040000,-1740.452263,17078.990818,-16592.874146,-10662.469699,0.000000,-0.000000,-0.000000
1.540000,1.940000,0.060828,0.040000,-1786.800116,112.617324,27640.922862,-13099.306870,-0.000000,0.000000,-0.000000
1.620000,1.900000,0.104403,0.040000,-1752.342969,7000.149736,-4898.702435,9576.870206,0.000000,-0.000000,0.000000
1.660000,1.900000,0.100499,0.040000,-1755.849811,-3316.453318,7355.329481,989.668208,-0.000000,0.000000,0.000000
1.660000,1.940000,0.060828,0.040000,-1786.376642,107.765541,27649.474932,13106.172768,-0.000000,0.000000,0.000000
1.620000,1.940000,0.067082,0.040000,-1740.305064,17078.440277,-16601.368604,10668.469182,0.000000,-0.000000,0.000000
1.700000,1.900000,0.111803,0.040000,-1749.746380,-5259.175946,-5199.121259,0.317424,-0.000000,-0.000000,0.000000
1.740000,1.900000,0.100499,0.040000,-1755.459331,-3318.484160,7355.021454,-981.623782,-0.000000,0.000000,-0.000000
1.740000,1.940000,0.060828,0.040000,-1785.985209,104.294453,27634.509365,-13091.429292,-0.000000,0.000000,-0.000000
1.700000,1.940000,0.078102,0.040000,-1713.690318,-27663.889114,-21443.616154,0.996310,-0.000000,-0.000000,0.000000
1.780000,1.900000,0.104403,0.040000,-1751.560301,6986.311340,-4884.753271,-9568.896137,0.000000,-0.000000,-0.000000
1.820000,1.900000,0.104403,0.040000,-1751.294426,6985.796031,-4885.890689,9570.950544,0.000000,-0.000000,0.000000
1.820000,1.940000,0.067082,0.040000,-1739.287998,17058.326193,-16585.994518,10663.852030,0.000000,-0.000000,0.000000
1.780000,1.940000,0.067082,0.040000,-1739.559799,17060.160649,-16570.901609,-10656.970836,0.000000,-0.000000,-0.000000
1.860000,1.900000,0.100499,0.040000,-1754.662735,-3328.967201,7366.028422,988.496554,-0.000000,0.000000,0.000000
1.900000,1.900000,0.111803,0.040000,-1748.403055,-5271.779895,-5179.231932,-4.327695,-0.000000,-0.000000,-0.000000
1.900000,1.940000,0.078102,0.040000,-1712.399441,-27661.198049,-21412.332220,-1.961702,-0.000000,-0.000000,-0.000000
1.860000,1.940000,0.060828,0.040000,-1785.202411,92.792436,27653.251467,13099.469483,-0.000000,0.000000,0.000000
1.940000,1.900000,0.100499,0.040000,-1753.925151,-3335.548092,7368.036818,-983.144594,-0.000000,0.000000,-0.000000
1.980000,1.900000,0.104403,0.040000,-1749.811706,6953.382211,-4853.274188,-9567.269864,0.000000,-0.000000,-0.000000
1.980000,1.940000,0.067082,0.040000,-1737.849540,17016.038716,-16519.261125,-10651.061468,0.000000,-0.000000,-0.000000
1.940000,1.940000,0.060828,0.040000,-1784.449203,82.793597,27627.385161,-13078.868984,-0.000000,0.000000,-0.000000
2.020000,1.900000,0.104403,0.040000,-1749.285247,6949.987140,-4853.329687,9550.710340,0.000000,-0.000000,0.000000
2.060000,1.900000,0.100499,0.040000,-1752.344161,-3364.423793,7398.183246,973.668332,-0.000000,0.000000,0.000000
2.060000,1.940000,0.060828,0.040000,-1782.852175,49.355871,27678.142517,13075.257518,-0.000000,0.000000,0.000000
2.020000,1.940000,0.067082,0.040000,-1737.296403,17009.048135,-16547.381839,10648.539674,0.000000,-0.000000,0.000000
2.100000,1.900000,0.111803,0.040000,-1745.722721,-5309.296307,-5126.268013,-33.999109,-0.000000,-0.000000,-0.000000
2.140000,1.900000,0.100499,0.040000,-1750.791962,-3386.094409,7409.547283,-1013.739065,-0.000000,0.000000,-0.000000
2.140000,1.940000,0.060828,0.040000,-1781.192525,14.554626,27633.256445,-13074.216855,-0.000000,0.000000,-0.000000
2.100000,1.940000,0.078102,0.040000,-1709.745950,-27670.575008,-21330.001373,-25.362210,-0.000000,-0.000000,-0.000000
2.180000,1.900000,0.104403,0.040000,-1746.152846,6863.962319,-4766.458626,-9608.290666,0.000000,-0.000000,-0.000000
2.220000,1.900000,0.104403,0.040000,-1744.971882,6857.074624,-4768.253841,9435.740104,0.000000,-0.000000,0.000000
2.220000,1.940000,0.067082,0.040000,-1732.757007,16865.906371,-16429.455119,10546.572741,0.000000,-0.000000,0.000000
2.180000,1.940000,0.067082,0.040000,-1734.108328,16889.537557,-16364.072509,-10681.450653,0.000000,-0.000000,-0.000000
2.260000,1.900000,0.100499,0.040000,-1747.248160,-3451.554515,7482.802199,833.270060,-0.000000,0.000000,0.000000
2.300000,1.900000,0.111803,0.040000,-1739.713025,-5384.161918,-4993.295928,-272.740622,-0.000000,-0.000000,-0.000000
2.300000,1.940000,0.078102,0.040000,-1703.193821,-27631.014790,-21146.396694,-267.109605,-0.000000,-0.000000,-0.000000
2.260000,1.940000,0.060828,0.040000,-1777.286331,-77.635567,27803.205836,12892.616241,-0.000000,0.000000,0.000000
2.340000,1.900000,0.100499,0.040000,-1743.642849,-3737.224555,7859.235271,-1301.042872,-0.000000,0.000000,-0.000000
2.380000,1.900000,0.104403,0.040000,-1737.099827,3631.685841,-1859.141856,-9851.398861,0.000000,-0.000000,-0.000000
2.380000,1.940000,0.067082,0.040000,-1725.077968,17453.995871,-14438.582542,-9171.955356,0.000000,-0.000000,-0.000000
2.340000,1.940000,0.060828,0.040000,-1772.849017,347.888635,27133.335893,-13171.019497,-0.000000,0.000000,-0.000000
2.420000,1.900000,0.094340,0.040000,-1724.513756,-21046.312895,106134.467256,11264.878656,-0.000001,0.000002,0.000000
2.460000,1.900000,0.064031,0.040000,-1607.289543,-29636.238246,316590.186579,4346.646504,-0.000002,0.000004,0.000000
2.460000,1.940000,0.041231,0.040000,-1880.613040,79334.551690,480504.182577,11667.553693,-0.000002,0.000006,0.000000
2.420000,1.940000,0.067082,0.040000,-1730.207749,-4753.634650,92625.237320,15173.739260,-0.000001,0.000001,0.000000
2.500000,1.900000,0.050000,0.040000,-864.788203,-4344.491476,568356.825557,-26017.170693,-0.000003,0.000008,-0.000000
2.500000,1.940000,0.010000,0.040000,-844.100735,20744.560221,731325.627772,-52878.795929,-0.000004,0.000010,-0.000001
-2.500000,1.980000,0.030000,0.040000,-674.728298,90700.836296,956663.456976,107849.922796,-0.000004,0.000012,0.000002
-2.460000,1.980000,0.022361,0.040000,-2113.810886,-62220.743908,625092.438524,-24384.264577,-0.000004,0.000009,-0.000000
-2.420000,1.980000,0.036056,0.040000,-1493.030713,152839.356388,9720.763495,-18611.569956,0.000002,-0.000001,-0.000000
-2.380000,1.980000,0.036056,0.040000,-1503.074903,100682.113165,-85852.312047,25273.124301,0.000002,-0.000002,0.000000
-2.340000,1.980000,0.022361,0.040000,-2157.568814,-147174.362338,159242.489583,22673.144736,-0.000003,0.000003,0.000000
-2.300000,1.980000,0.053852,0.040000,-1356.327407,141798.284874,-139003.595597,341.522264,0.000003,-0.000003,0.000000
-2.260000,1.980000,0.022361,0.040000,-2164.577887,-149242.259398,159890.159814,-21752.813082,-0.000003,0.000003,-0.000000
-2.220000,1.980000,0.036056,0.040000,-1511.341931,82699.867276,-89627.543311,-18833.029325,0.000002,-0.000002,-0.000000
-2.180000,1.980000,0.036056,0.040000,-1512.771110,82774.427633,-89517.359400,18948.363299,0.000002,-0.000002,0.000000
-2.140000,1.980000,0.022361,0.040000,-2169.210735,-149462.563813,159765.972503,21927.107900,-0.000003,0.000003,0.000000
-2.100000,1.980000,0.053852,0.040000,-1361.858935,142435.727542,-139812.325680,23.843323,0.000003,-0.000003,0.000000
-2.060000,1.980000,0.022361,0.040000,-2171.381551,-149576.918864,160023.818814,-21962.934900,-0.000003,0.000003,-0.000000
-2.020000,1.980000,0.036056,0.040000,-1515.414966,83025.741987,-89924.621111,-18945.374413,0.000002,-0.000002,-0.000000
-1.980000,1.980000,0.036056,0.040000,-1515.966184,83050.790957,-89874.641366,18942.088746,0.000002,-0.000002,0.000000
-1.940000,1.980000,0.022361,0.040000,-2173.153262,-149660.964001,160014.674875,21959.731865,-0.000003,0.000003,0.000000
-1.900000,1.980000,0.053852,0.040000,-1363.934742,142704.453473,-140072.636997,2.459398,0.000003,-0.000003,0.000000
-1.860000,1.980000,0.022361,0.040000,-2174.107888,-149717.022342,160136.204344,-21993.124534,-0.000003,0.000003,-0.000000
-1.820000,1.980000,0.036056,0.040000,-1517.122872,83146.715429,-90030.687626,-18965.947653,0.000002,-0.000002,-0.000000
-1.780000,1.980000,0.036056,0.040000,-1517.389212,83157.104725,-90004.806122,18957.625107,0.000002,-0.000002,0.000000
-1.740000,1.980000,0.022361,0.040000,-2174.961213,-149762.133964,160139.384736,21983.049139,-0.000003,0.000003,0.000000
-1.700000,1.980000,0.053852,0.040000,-1364.925743,142822.547759,-140186.407481,-0.389433,0.000003,-0.000003,-0.000000
-1.660000,1.980000,0.022361,0.040000,-2175.451091,-149792.540114,160203.499523,-22003.584333,-0.000003,0.000003,-0.000000
-1.620000,1.980000,0.036056,0.040000,-1517.981492,83202.348027,-90080.124697,-18973.991836,0.000002,-0.000002,-0.000000
-1.580000,1.980000,0.036056,0.040000,-1518.124321,83207.462537,-90065.852726,18967.596445,0.000002,-0.000002,0.000000
-1.540000,1.980000,0.022361,0.040000,-2175.908035,-149817.917791,160206.931416,21995.989438,-0.000003,0.000003,0.000000
-1.500000,1.980000,0.053852,0.040000,-1365.454665,142882.862760,-140244.636703,-0.874605,0.000003,-0.000003,-0.000000
-1.460000,1.980000,0.022361,0.040000,-2176.178209,-149835.103497,160242.678090,-22008.622448,-0.000003,0.000003,-0.000000
-1.420000,1.980000,0.036056,0.040000,-1518.450963,83231.330613,-90106.159869,-18978.046273,0.000002,-0.000002,-0.000000
-1.380000,1.980000,0.036056,0.040000,-1518.531344,83234.079026,-90098.046142,18973.458242,0.000002,-0.000002,0.000000
-1.340000,1.980000,0.022361,0.040000,-2176.435156,-149849.670059,160245.046293,22003.308527,-0.000003,0.000003,0.000000
-1.300000,1.980000,0.053852,0.040000,-1365.751947,142915.930532,-140276.617081,-0.904523,0.000003,-0.000003,-0.000000
-1.260000,1.980000,0.022361,0.040000,-2176.588777,-149859.525000,160265.418196,-22011.285694,-0.000003,0.000003,-0.000000
-1.220000,1.980000,0.036056,0.040000,-1518.717379,83247.338082,-90120.597954,-18980.220313,0.000002,-0.000002,-0.000000
-1.180000,1.980000,0.036056,0.040000,-1518.763372,83248.875029,-90115.956171,18976.913888,0.000002,-0.000002,0.000000
-1.140000,1.980000,0.022361,0.040000,-2176.735715,-149867.890210,160266.865115,22007.554965,-0.000003,0.000003,0.000000
-1.100000,1.980000,0.053852,0.040000,-1365.922209,142934.575873,-140294.663610,-0.816814,0.000003,-0.000003,-0.000000
-1.060000,1.980000,0.022361,0.040000,-2176.823468,-149873.507489,160278.458266,-22012.693717,-0.000003,0.000003,-0.000000
-1.020000,1.980000,0.036056,0.040000,-1518.869990,83256.367271,-90128.724845,-18981.366320,0.000002,-0.000002,-0.000000
-0.980000,1.980000,0.036056,0.040000,-1518.896169,83257.235753,-90126.104727,18978.967289,0.000002,-0.000002,0.000000
-0.940000,1.980000,0.022361,0.040000,-2176.907065,-149878.228631,160279.274053,22010.054294,-0.000003,0.000003,0.000000
-0.900000,1.980000,0.053852,0.040000,-1366.019402,142945.102947,-140304.851504,-0.689901,0.000003,-0.000003,-0.000000
-0.860000,1.980000,0.022361,0.040000,-2176.956444,-149881.353583,160285.736159,-22013.391599,-0.000003,0.000003,-0.000000
-0.820000,1.980000,0.036056,0.040000,-1518.956477,83261.442394,-90133.257974,-18981.921313,0.000002,-0.000002,-0.000000
-0.780000,1.980000,0.036056,0.040000,-1518.971032,83261.927727,-90131.825324,18980.194718,0.000002,-0.000002,0.000000
-0.740000,1.980000,0.022361,0.040000,-2177.002900,-149883.925642,160286.157052,22011.534626,-0.000003,0.000003,0.000000
-0.700000,1.980000,0.053852,0.040000,-1366.073707,142950.933525,-140310.488774,-0.546612,0.000003,-0.000003,-0.000000
-0.660000,1.980000,0.022361,0.040000,-2177.029771,-149885.590444,160289.618637,-22013.681854,-0.000003,0.000003,-0.000000
-0.620000,1.980000,0.036056,0.040000,-1519.004098,83264.228163,-90135.713060,-18982.134699,0.000002,-0.000002,-0.000000
-0.580000,1.980000,0.036056,0.040000,-1519.011847,83264.490698,-90134.969963,18980.935904,0.000002,-0.000002,0.000000
-0.540000,1.980000,0.022361,0.040000,-2177.054489,-149886.914767,160289.810702,22012.416718,-0.000003,0.000003,0.000000
-0.500000,1.980000,0.053852,0.040000,-1366.102826,142954.035609,-140313.482543,-0.395257,0.000003,-0.000003,-0.000000
-0.460000,1.980000,0.022361,0.040000,-2177.068281,-149887.742408,160291.547572,-22013.740617,-0.000003,0.000003,-0.000000
-0.420000,1.980000,0.036056,0.040000,-1519.028989,83265.684652,-90136.967870,-18982.154099,0.000002,-0.000002,-0.000000
-0.380000,1.980000,0.036056,0.040000,-1519.032795,83265.816828,-90136.615628,18981.395407,0.000002,-0.000002,0.000000
-0.340000,1.980000,0.022361,0.040000,-2177.080412,-149888.363155,160291.619790,22012.951423,-0.000003,0.000003,0.000000
-0.300000,1.980000,0.053852,0.040000,-1366.117257,142955.561928,-140314.951761,-0.239629,0.000003,-0.000003,-0.000000
-0.260000,1.980000,0.022361,0.040000,-2177.086650,-149888.722396,160292.383368,-22013.667890,-0.000003,0.000003,-0.000000
-0.220000,1.980000,0.036056,0.040000,-1519.040640,83266.365602,-90137.522362,-18982.064359,0.000002,-0.000002,-0.000000
-0.180000,1.980000,0.036056,0.040000,-1519.042121,83266.418726,-90137.390947,18981.695669,0.000002,-0.000002,0.000000
-0.140000,1.980000,0.022361,0.040000,-2177.091369,-149888.950525,160292.401021,22013.288291,-0.000003,0.000003,0.000000
-0.100000,1.980000,0.053852,0.040000,-1366.122934,142956.158956,-140315.524644,-0.081865,0.000003,-0.000003,-0.000000
-0.060000,1.980000,0.022361,0.040000,-2177.092963,-149889.036679,160292.588128,-22013.511251,-0.000003,0.000003,-0.000000
-0.020000,1.980000,0.036056,0.040000,-1519.044158,83266.562905,-90137.624677,-18981.906559,0.000002,-0.000002,-0.000000
0.020000,1.980000,0.036056,0.040000,-1519.044050,83266.559993,-90137.636741,18981.905053,0.000002,-0.000002,0.000000
0.060000,1.980000,0.022361,0.040000,-2177.092619,-149889.013950,160292.581714,22013.510991,-0.000003,0.000003,0.000000
0.100000,1.980000,0.053852,0.040000,-1366.122546,142956.118392,-140315.484830,0.076550,0.000003,-0.000003,0.000000
0.140000,1.980000,0.022361,0.040000,-2177.090477,-149888.888191,160292.316466,-22013.276059,-0.000003,0.000003,-0.000000
0.180000,1.980000,0.036056,0.040000,-1519.041367,83266.374385,-90137.327732,-18981.686403,0.000002,-0.000002,-0.000000
0.220000,1.980000,0.036056,0.040000,-1519.039670,83266.315438,-90137.483274,18982.052080,0.000002,-0.000002,0.000000
0.260000,1.980000,0.022361,0.040000,-2177.085070,-149888.614604,160292.285986,22013.655137,-0.000003,0.000003,0.000000
0.300000,1.980000,0.053852,0.040000,-1366.116094,142955.440240,-140314.832321,0.234313,0.000003,-0.000003,0.000000
0.340000,1.980000,0.022361,0.040000,-2177.078284,-149888.215762,160291.444273,-22012.926700,-0.000003,0.000003,-0.000000
0.380000,1.980000,0.036056,0.040000,-1519.031178,83265.725237,-90136.501266,-18981.375370,0.000002,-0.000002,-0.000000
0.420000,1.980000,0.036056,0.040000,-1519.027158,83265.587239,-90136.877633,18982.131048,0.000002,-0.000002,0.000000
0.460000,1.980000,0.022361,0.040000,-2177.065467,-149887.549562,160291.359229,22013.715371,-0.000003,0.000003,0.000000
0.500000,1.980000,0.053852,0.040000,-1366.100888,142953.832806,-140313.283488,0.389941,0.000003,-0.000003,0.000000
0.540000,1.980000,0.022361,0.040000,-2177.051127,-149886.682325,160289.544236,-22012.379506,-0.000003,0.000003,-0.000000
0.580000,1.980000,0.036056,0.040000,-1519.009369,83264.351866,-90134.804466,-18980.905098,0.000002,-0.000002,-0.000000
0.620000,1.980000,0.036056,0.040000,-1519.001405,83264.083511,-90135.571682,18982.100878,0.000002,-0.000002,0.000000
0.660000,1.980000,0.022361,0.040000,-2177.025721,-149885.312558,160289.339347,22013.644118,-0.000003,0.000003,0.000000
0.700000,1.980000,0.053852,0.040000,-1366.070994,142950.649627,-140310.210120,0.541297,0.000003,-0.000003,0.000000
0.740000,1.980000,0.022361,0.040000,-2176.998303,-149883.608171,160285.799659,-22011.484929,-0.000003,0.000003,-0.000000
0.780000,1.980000,0.036056,0.040000,-1518.967692,83261.741667,-90131.608707,-18980.153145,0.000002,-0.000002,-0.000000
0.820000,1.980000,0.036056,0.040000,-1518.952922,83261.250516,-90133.065468,18981.876724,0.000002,-0.000002,0.000000
0.860000,1.980000,0.022361,0.040000,-2176.951159,-149880.990683,160285.365946,22013.341376,-0.000003,0.000003,0.000000
0.900000,1.980000,0.053852,0.040000,-1366.015914,142944.737981,-140304.493281,0.684586,0.000003,-0.000003,0.000000
0.940000,1.980000,0.022361,0.040000,-2176.901233,-149877.826161,160278.825770,-22009.992117,-0.000003,0.000003,-0.000000
0.980000,1.980000,0.036056,0.040000,-1518.891968,83257.002487,-90125.837016,-18978.914956,0.000002,-0.000002,-0.000000
1.020000,1.980000,0.036056,0.040000,-1518.865574,83256.128191,-90128.481233,18981.310967,0.000002,-0.000002,0.000000
1.060000,1.980000,0.022361,0.040000,-2176.816950,-149873.059612,160277.997166,22012.631010,-0.000003,0.000003,0.000000
1.100000,1.980000,0.053852,0.040000,-1365.917947,142934.129886,-140294.225862,0.811500,0.000003,-0.000003,0.000000
1.140000,1.980000,0.022361,0.040000,-2176.728650,-149867.402788,160266.325996,-22007.480320,-0.000003,0.000003,-0.000000
1.180000,1.980000,0.036056,0.040000,-1518.758310,83248.594592,-90115.637407,-18976.850801,0.000002,-0.000002,-0.000000
1.220000,1.980000,0.036056,0.040000,-1518.712102,83247.051836,-90120.303270,18980.154202,0.000002,-0.000002,0.000000
1.260000,1.980000,0.022361,0.040000,-2176.581026,-149858.992206,160264.866268,22011.210512,-0.000003,0.000003,0.000000
1.300000,1.980000,0.053852,0.040000,-1365.746911,142915.403599,-140276.099882,0.899211,0.000003,-0.000003,0.000000
1.340000,1.980000,0.022361,0.040000,-2176.426858,-149849.097760,160244.416426,-22003.221427,-0.000003,0.000003,-0.000000
1.380000,1.980000,0.036056,0.040000,-1518.525422,83233.751474,-90097.676394,-18973.384414,0.000002,-0.000002,-0.000000
1.420000,1.980000,0.036056,0.040000,-1518.444827,83230.997262,-90105.814170,18977.969414,0.000002,-0.000002,0.000000
1.460000,1.980000,0.022361,0.040000,-2176.169225,-149834.485882,160242.035422,22008.534802,-0.000003,0.000003,0.000000
1.500000,1.980000,0.053852,0.040000,-1365.448856,142882.255005,-140244.040172,0.869295,0.000003,-0.000003,0.000000
1.540000,1.980000,0.022361,0.040000,-2175.898506,-149817.260733,160206.210941,-21995.889910,-0.000003,0.000003,-0.000000
1.580000,1.980000,0.036056,0.040000,-1518.117541,83207.087969,-90065.432112,-18967.511895,0.000002,-0.000002,-0.000000
1.620000,1.980000,0.036056,0.040000,-1517.974498,83201.967679,-90079.728080,18973.904246,0.000002,-0.000002,0.000000
1.660000,1.980000,0.022361,0.040000,-2175.440879,-149791.837831,160202.766259,22003.484244,-0.000003,0.000003,0.000000
1.700000,1.980000,0.053852,0.040000,-1364.919164,142821.859405,-140185.731833,0.384129,0.000003,-0.000003,0.000000
1.740000,1.980000,0.022361,0.040000,-2174.950457,-149761.392348,160138.573896,-21982.937227,-0.000003,0.000003,-0.000000
1.780000,1.980000,0.036056,0.040000,-1517.381576,83156.683329,-90004.334869,-18957.529870,0.000002,-0.000002,-0.000000
1.820000,1.980000,0.036056,0.040000,-1517.115023,83146.288295,-90030.240277,18965.849364,0.000002,-0.000002,0.000000
1.860000,1.980000,0.022361,0.040000,-2174.096451,-149716.235661,160135.380718,21993.012046,-0.000003,0.000003,0.000000
1.900000,1.980000,0.053852,0.040000,-1363.927396,142703.684970,-140071.882665,-2.464677,0.000003,-0.000003,-0.000000
1.940000,1.980000,0.022361,0.040000,-2173.141285,-149660.138190,160013.774123,-21959.607649,-0.000003,0.000003,-0.000000
1.980000,1.980000,0.036056,0.040000,-1515.957697,83050.323161,-89874.120001,-18941.982865,0.000002,-0.000002,-0.000000
2.020000,1.980000,0.036056,0.040000,-1515.406269,83025.268562,-89924.123464,18945.265522,0.000002,-0.000002,0.000000
2.060000,1.980000,0.022361,0.040000,-2171.368901,-149576.048291,160022.905191,21962.810160,-0.000003,0.000003,0.000000
2.100000,1.980000,0.053852,0.040000,-1361.850831,142434.880026,-139811.493769,-23.848445,0.000003,-0.000003,-0.000000
2.140000,1.980000,0.022361,0.040000,-2169.197554,-149461.654553,159764.982787,-21926.971459,-0.000003,0.000003,-0.000000
2.180000,1.980000,0.036056,0.040000,-1512.761787,82773.914701,-89516.789602,-18948.246629,0.000002,-0.000002,-0.000000
2.220000,1.980000,0.036056,0.040000,-1511.332403,82699.349082,-89626.996780,18832.910491,0.000002,-0.000002,0.000000
2.260000,1.980000,0.022361,0.040000,-2164.564054,-149241.306379,159889.156402,21752.677380,-0.000003,0.000003,0.000000
2.300000,1.980000,0.053852,0.040000,-1356.318569,141797.361114,-139002.690142,-341.525122,0.000003,-0.000003,-0.000000
2.340000,1.980000,0.022361,0.040000,-2157.554485,-147173.384553,159241.412947,-22672.990567,-0.000003,0.000003,-0.000000
2.380000,1.980000,0.036056,0.040000,-1503.064790,100681.425857,-85851.717540,-25272.951933,0.000002,-0.000002,-0.000000
2.420000,1.980000,0.036056,0.040000,-1493.020458,152838.286431,9720.654821,18611.444855,0.000002,-0.000001,0.000000
2.460000,1.980000,0.022361,0.040000,-2113.796185,-62220.351572,625088.048044,24384.110770,-0.000004,0.000009,0.000000
2.500000,1.980000,0.030000,0.040000,-674.723542,90700.136985,956656.752393,-107849.154278,-0.000004,0.000012,-0.000002
