x,y,R,s,phi,sigma_xx,sigma_yy,tau_xy,epsilon_xx,epsilon_yy,epsilon_xy
-2.120000,-1.680000,0.320052,0.080000,10298.886085,858229.758688,-806396.071372,1124774.991815,0.000016,-0.000015,0.000021
-2.040000,-1.680000,0.320026,0.080000,4580.548597,602918.423599,-706163.347907,-5742612.953876,0.000012,-0.000013,-0.000108
-1.960000,-1.680000,0.320301,0.080000,9029.231859,-16119767.998125,15682517.705754,8278536.981114,-0.000301,0.000298,0.000156
-1.880000,-1.680000,0.320061,0.080000,69455.217940,36369064.715218,-35873335.095919,26258564.470617,0.000682,-0.000679,0.000495
-1.800000,-1.680000,0.320020,0.080000,-67631.816489,30053743.299185,-30137862.795132,-83314961.124168,0.000567,-0.000567,-0.001570
-1.720000,-1.680000,0.320281,0.080000,-272160.718707,-154469632.484453,153379729.140323,-32280881.104220,-0.002904,0.002896,-0.000608
-1.640000,-1.680000,0.320070,0.080000,315262.640986,-48246079.433158,48134109.416834,240164040.258515,-0.000908,0.000908,0.004525
-1.560000,-1.680000,0.320015,0.080000,1019395.603886,344945364.862182,-342350045.921695,105543567.622310,0.006484,-0.006465,0.001989
-1.480000,-1.680000,0.320261,0.080000,-139253.606037,237316410.736114,-235911577.084547,-421896253.333769,0.004463,-0.004453,-0.007949
-1.400000,-1.680000,0.320081,0.080000,-2438075.048215,-441346274.493231,437701263.419466,-444993071.060255,-0.008295,0.008267,-0.008384
-1.320000,-1.680000,0.320011,0.080000,-2203564.298952,-717360597.138328,712353589.969691,300365875.789944,-0.013487,0.013449,0.005659
-1.240000,-1.680000,0.320242,0.080000,1965659.937358,-32007811.044899,32690689.379367,911895524.521835,-0.000607,0.000612,0.017181
-1.160000,-1.680000,0.320092,0.080000,6176631.546346,924873020.297959,-917540127.471197,534280094.420825,0.017384,-0.017328,0.010066
-1.080000,-1.680000,0.320007,0.080000,5054596.277187,1065873817.248053,-1058782275.522238,-559867756.988622,0.020042,-0.019988,-0.010548
-1.000000,-1.680000,0.320224,0.080000,-2146920.369071,137058937.233595,-137711430.068338,-1303192016.373365,0.002586,-0.002591,-0.024553
-0.920000,-1.680000,0.320104,0.080000,-10057144.612934,-1069211214.240485,1060178515.489882,-953158274.150657,-0.020094,0.020025,-0.017958
-0.840000,-1.680000,0.320004,0.080000,-11688408.292747,-1516843198.281636,1506218616.648063,250501129.172827,-0.028518,0.028438,0.004720
-0.760000,-1.680000,0.320206,0.080000,-4436461.874807,-818019619.189684,814203128.672857,1371548984.558630,-0.015390,0.015362,0.025841
-0.680000,-1.680000,0.320116,0.080000,7604667.270547,526214021.951749,-519773358.764793,1570308813.765051,0.009878,-0.009829,0.029586
-0.600000,-1.680000,0.320002,0.080000,16521005.906718,1576049441.642102,-1563187562.505122,702708212.814158,0.029621,-0.029524,0.013239
-0.520000,-1.680000,0.320190,0.080000,16095134.945767,1636197165.652986,-1625147321.678716,-649862695.087262,0.030764,-0.030681,-0.012244
-0.440000,-1.680000,0.320129,0.080000,5945261.213957,681128215.644032,-679021248.190731,-1625007931.595305,0.012821,-0.012805,-0.030616
-0.360000,-1.680000,0.320001,0.080000,-8275339.136045,-689901613.793846,681418829.952334,-1635899878.887611,-0.012950,0.012886,-0.030821
-0.280000,-1.680000,0.320173,0.080000,-18407227.869327,-1659977743.232397,1645557567.254015,-695940565.593206,-0.031193,0.031085,-0.013112
-0.200000,-1.680000,0.320143,0.080000,-18647764.339375,-1679747016.442019,1667493226.756426,633526394.881739,-0.031578,0.031486,0.011936
-0.120000,-1.680000,0.320000,0.080000,-8849099.443107,-758388550.691226,755220004.458574,1592822660.815102,-0.014271,0.014247,0.030010
-0.040000,-1.680000,0.320158,0.080000,5510513.948744,570288452.982979,-562459120.261075,1653219949.396888,0.010700,-0.010641,0.031148
0.040000,-1.680000,0.320158,0.080000,16500888.183197,1559852475.264309,-1545147808.548204,797113570.140305,0.029305,-0.029195,0.015018
0.120000,-1.680000,0.320000,0.080000,18200207.884036,1663865906.917974,-1650214570.531182,-484856910.570661,0.031271,-0.031168,-0.009135
0.200000,-1.680000,0.320143,0.080000,9967253.821078,833971072.171160,-828805871.343895,-1468082080.276758,0.015683,-0.015644,-0.027660
0.280000,-1.680000,0.320173,0.080000,-3264972.277630,-450345632.056720,444215417.573356,-1595681027.934109,-0.008450,0.008404,-0.030064
0.360000,-1.680000,0.320001,0.080000,-13851513.098342,-1442581630.690448,1428679943.205081,-797981222.597232,-0.027100,0.026996,-0.015034
0.440000,-1.680000,0.320129,0.080000,-15886181.909588,-1554391082.779946,1540758895.711019,449171656.531764,-0.029209,0.029106,0.008463
0.520000,-1.680000,0.320190,0.080000,-8695813.904063,-718073876.520999,712669595.317634,1383025504.891868,-0.013498,0.013458,0.026057
0.600000,-1.680000,0.320002,0.080000,2774951.408544,536810302.267567,-531021109.375893,1413020695.663361,0.010081,-0.010037,0.026622
0.680000,-1.680000,0.320116,0.080000,11118233.867186,1383672679.129156,-1370863256.792891,521493372.052213,0.025997,-0.025900,0.009825
0.760000,-1.680000,0.320206,0.080000,11344936.915421,1242538977.955802,-1231553692.523041,-672732901.113613,0.023348,-0.023265,-0.012675
0.840000,-1.680000,0.320004,0.080000,4271120.906026,227820236.681921,-226100086.489118,-1303188150.664789,0.004283,-0.004270,-0.024553
0.920000,-1.680000,0.320104,0.080000,-4192400.306869,-867491892.335984,859586549.523458,-902085058.806355,-0.016299,0.016240,-0.016996
1.000000,-1.680000,0.320224,0.080000,-7683658.706128,-1155737813.473692,1145468920.905676,169243156.783797,-0.021717,0.021639,0.003189
1.080000,-1.680000,0.320007,0.080000,-4510423.271090,-432897627.986315,429083891.947174,953377775.332995,-0.008134,0.008106,0.017962
1.160000,-1.680000,0.320092,0.080000,1226331.757750,558788561.231100,-553907848.380864,752305295.849543,0.010500,-0.010464,0.014174
1.240000,-1.680000,0.320242,0.080000,3894985.776106,814394688.952905,-807285266.110178,-131091853.002627,0.015303,-0.015250,-0.002470
1.320000,-1.680000,0.320011,0.080000,1988544.859014,168390720.799537,-166872232.715334,-665069465.191480,0.003164,-0.003153,-0.012530
1.400000,-1.680000,0.320081,0.080000,-980727.464566,-476207204.889321,472170667.750298,-306454800.385200,-0.008949,0.008919,-0.005774
1.480000,-1.680000,0.320261,0.080000,-1443402.941210,-330168113.938462,327353875.370098,293230247.555875,-0.006205,0.006183,0.005525
1.560000,-1.680000,0.320015,0.080000,-50016.557858,177534972.142158,-176143973.712570,272494857.854885,0.003337,-0.003327,0.005134
1.640000,-1.680000,0.320070,0.080000,536585.766756,198909012.291661,-197312923.673826,-109838224.214136,0.003739,-0.003727,-0.002069
1.720000,-1.680000,0.320281,0.080000,55062.510226,-77612168.428597,77214032.231554,-119835720.917286,-0.001460,0.001457,-0.002258
1.800000,-1.680000,0.320020,0.080000,-133599.206940,-59611284.057686,58999024.094362,56413277.018535,-0.001120,0.001115,0.001063
1.880000,-1.680000,0.320061,0.080000,11055.907862,35952239.165045,-35831834.964107,17347077.740144,0.000677,-0.000676,0.000327
1.960000,-1.680000,0.320301,0.080000,16880.899152,-383813.168108,710424.813013,-15984122.237312,-0.000009,0.000012,-0.000301
2.040000,-1.680000,0.320026,0.080000,-1391.718038,-4211996.585312,3795435.085280,3441299.085545,-0.000077,0.000074,0.000065
2.120000,-1.680000,0.320052,0.080000,2880.261203,1439284.271087,-1205541.139283,-77582.792147,0.000026,-0.000024,-0.000001
-2.120000,-1.600000,0.380012,0.080000,8845.000738,-64508.800154,100082.505220,-513774.404370,-0.000001,0.000002,-0.000010
-2.040000,-1.600000,0.400021,0.080000,8844.637672,-642916.368008,706113.298236,-204394.464301,-0.000012,0.000013,-0.000004
-1.960000,-1.600000,0.400241,0.080000,12313.366581,-87691.174452,59171.245441,2354424.283110,-0.000001,0.000001,0.000044
-1.880000,-1.600000,0.400048,0.080000,11169.954344,7160939.539785,-7388629.212987,-1612528.708059,0.000136,-0.000138,-0.000030
-1.800000,-1.600000,0.400016,0.080000,-21830.992549,-5395713.479034,5520289.570816,-14471209.123051,-0.000102,0.000103,-0.000273
-1.720000,-1.600000,0.400225,0.080000,-10207.934425,-30939561.580877,31672119.922077,11207839.921952,-0.000587,0.000593,0.000211
-1.640000,-1.600000,0.400056,0.080000,148275.040955,14564358.491577,-14517530.394646,52285459.301475,0.000274,-0.000274,0.000985
-1.560000,-1.600000,0.400012,0.080000,190738.035526,91827144.629188,-93387760.046789,-8213625.585285,0.001739,-0.001751,-0.000155
-1.480000,-1.600000,0.400209,0.080000,-250828.732340,26265739.884741,-27523089.791178,-127674735.591856,0.000502,-0.000511,-0.002405
-1.400000,-1.600000,0.400065,0.080000,-773095.692449,-162631615.879686,164197154.697031,-90406976.008258,-0.003073,0.003085,-0.001703
-1.320000,-1.600000,0.400009,0.080000,-365264.731501,-203229570.793726,206532062.162421,141442283.515597,-0.003848,0.003873,0.002665
-1.240000,-1.600000,0.400194,0.080000,1132935.598427,46461376.926840,-45366522.341779,299228223.739819,0.000869,-0.000861,0.005638
-1.160000,-1.600000,0.400073,0.080000,2295684.657774,356801481.495965,-359797493.728733,134114376.894266,0.006739,-0.006762,0.002527
-1.080000,-1.600000,0.400006,0.080000,1398672.087753,369277314.045856,-373818560.707150,-255033769.721529,0.006983,-0.007017,-0.004805
-1.000000,-1.600000,0.400179,0.080000,-1581799.232163,-793988.916883,-1054947.736283,-502090635.386165,-0.000005,-0.000009,-0.009460
-0.920000,-1.600000,0.400083,0.080000,-4497030.755536,-463603176.804132,466220384.157003,-339930088.395921,-0.008749,0.008769,-0.006404
-0.840000,-1.600000,0.400004,0.080000,-4679511.991483,-622416716.049682,627474027.323174,146437516.177905,-0.011755,0.011793,0.002759
-0.760000,-1.600000,0.400165,0.080000,-1227295.345954,-316327948.260944,320039102.660118,595913295.840855,-0.005981,0.006009,0.011227
-0.680000,-1.600000,0.400093,0.080000,4054156.301891,258730464.739445,-258887799.297495,666011798.531943,0.004876,-0.004877,0.012548
-0.600000,-1.600000,0.400002,0.080000,7783228.670477,710103009.875874,-713821246.277610,286143687.486353,0.013400,-0.013428,0.005391
-0.520000,-1.600000,0.400152,0.080000,7300543.011345,731564731.022305,-736308332.497562,-306128187.284412,0.013810,-0.013846,-0.005768
-0.440000,-1.600000,0.400104,0.080000,2480051.449104,300554788.320627,-303435150.463298,-737931257.845267,0.005679,-0.005701,-0.013903
-0.360000,-1.600000,0.400001,0.080000,-4123656.528389,-323277545.903493,323758394.070545,-743177827.463253,-0.006093,0.006097,-0.014002
-0.280000,-1.600000,0.400139,0.080000,-8803575.958828,-770365333.717934,773650803.621755,-318106881.445942,-0.014533,0.014557,-0.005993
-0.200000,-1.600000,0.400115,0.080000,-8894158.868833,-783403494.660143,787436731.839778,289423385.512688,-0.014783,0.014813,0.005453
-0.120000,-1.600000,0.400000,0.080000,-4309166.674319,-359536595.679525,362032201.196113,732958874.082820,-0.006788,0.006807,0.013809
-0.040000,-1.600000,0.400126,0.080000,2432091.145983,257690117.631734,-257998840.728379,766148100.364391,0.004857,-0.004859,0.014435
0.040000,-1.600000,0.400126,0.080000,7650824.676760,721293703.369312,-724041704.851517,377046868.854223,0.013605,-0.013626,0.007104
0.120000,-1.600000,0.400000,0.080000,8577415.802077,775607979.228086,-779070363.182923,-210122981.824396,0.014632,-0.014659,-0.003959
0.200000,-1.600000,0.400115,0.080000,4878502.447207,397696135.927172,-399777077.179232,-662651418.081989,0.007505,-0.007520,-0.012485
0.280000,-1.600000,0.400139,0.080000,-1204071.331137,-190025347.629849,190588231.200173,-726896742.271837,-0.003583,0.003588,-0.013695
0.360000,-1.600000,0.400001,0.080000,-6177342.439104,-644959471.986189,647809597.692066,-374182999.341231,-0.012168,0.012189,-0.007050
0.440000,-1.600000,0.400104,0.080000,-7334835.600222,-702789956.662684,706072991.265583,178442187.626554,-0.013260,0.013284,0.003362
0.520000,-1.600000,0.400152,0.080000,-4323858.968677,-338989258.004752,340439254.793535,592622607.399384,-0.006395,0.006406,0.011165
0.600000,-1.600000,0.400002,0.080000,713804.455299,207427511.110626,-208963102.166016,615755784.847215,0.003917,-0.003928,0.011601
0.680000,-1.600000,0.400093,0.080000,4558406.390152,578246573.350896,-581813207.349290,248460751.012959,0.010915,-0.010942,0.004681
0.760000,-1.600000,0.400165,0.080000,5021485.984199,534048016.680990,-537009406.768763,-244774700.590665,0.010079,-0.010101,-0.004612
0.840000,-1.600000,0.400004,0.080000,2344064.824374,130795480.322758,-130730933.654289,-512489810.690564,0.002464,-0.002463,-0.009656
0.920000,-1.600000,0.400083,0.080000,-1138154.131384,-308976712.750567,312133069.160694,-377144078.880032,-0.005839,0.005863,-0.007106
1.000000,-1.600000,0.400179,0.080000,-2871025.431437,-443246165.379264,446782858.552560,16987366.985718,-0.008371,0.008398,0.000320
1.080000,-1.600000,0.400006,0.080000,-2052308.583382,-200340483.216499,201031560.087103,317874532.890218,-0.003778,0.003784,0.005989
1.160000,-1.600000,0.400073,0.080000,-38904.955295,152750525.797293,-155373465.584357,281726017.487345,0.002893,-0.002913,0.005308
1.240000,-1.600000,0.400194,0.080000,1166978.090522,271984644.390621,-274922305.578564,6478234.702219,0.005141,-0.005163,0.000122
1.320000,-1.600000,0.400009,0.080000,852044.739729,95392055.674701,-95542952.253133,-184499679.360740,0.001798,-0.001799,-0.003476
1.400000,-1.600000,0.400065,0.080000,-48113.882654,-110535866.153047,112643053.136354,-117916202.900719,-0.002094,0.002110,-0.002222
1.480000,-1.600000,0.400209,0.080000,-391984.887457,-108289332.525767,109577144.006064,45032354.454119,-0.002048,0.002057,0.000848
1.560000,-1.600000,0.400012,0.080000,-133022.335352,15904453.367954,-16590905.367924,75053227.796767,0.000304,-0.000309,0.001414
1.640000,-1.600000,0.400056,0.080000,88866.976912,50393415.085171,-51323077.814284,-1598510.577912,0.000955,-0.000962,-0.000030
1.720000,-1.600000,0.400225,0.080000,50153.154755,-435699.623717,515542.825497,-26808299.467969,-0.000009,0.000009,-0.000505
1.800000,-1.600000,0.400016,0.080000,-13079.032258,-14397393.751240,14779554.149461,630160.254196,-0.000273,0.000276,0.000012
1.880000,-1.600000,0.400048,0.080000,-5400.699384,1578239.747363,-1578154.735275,5519776.873070,0.000030,-0.000030,0.000104
1.960000,-1.600000,0.400241,0.080000,3943.422317,1895869.179998,-1947354.530750,-922425.330039,0.000036,-0.000036,-0.000017
2.040000,-1.600000,0.400021,0.080000,2625.585695,-602813.573940,588911.504867,-300537.923385,-0.000011,0.000011,-0.000006
2.120000,-1.600000,0.380012,0.080000,2988.204296,-57071.770177,51522.037430,-385077.707589,-0.000001,0.000001,-0.000007
-2.120000,-1.520000,0.380207,0.080000,8932.283955,1945744.064804,-2059549.764107,252689.107386,0.000037,-0.000038,0.000005
-2.040000,-1.520000,0.460171,0.080000,9583.864433,-14115.619844,32766.751352,391568.690499,-0.000000,0.000001,0.000007
-1.960000,-1.520000,0.480201,0.080000,9321.282652,365527.931544,-386642.735819,157636.278299,0.000007,-0.000007,0.000003
-1.880000,-1.520000,0.480040,0.080000,6868.445999,443513.161350,-587606.414269,-1311515.983487,0.000009,-0.000010,-0.000025
-1.800000,-1.520000,0.480013,0.080000,3689.822787,-3159819.194039,3262003.681731,-1326530.159262,-0.000060,0.000061,-0.000025
-1.720000,-1.520000,0.480187,0.080000,18745.009664,-3689812.425435,4195469.414286,6404527.186119,-0.000072,0.000076,0.000121
-1.640000,-1.520000,0.480047,0.080000,48594.970856,10559361.474330,-10597137.565730,9500591.124079,0.000199,-0.000199,0.000179
-1.560000,-1.520000,0.480010,0.080000,14164.413695,20726052.451757,-21909879.801274,-13069665.317694,0.000397,-0.000406,-0.000246
-1.480000,-1.520000,0.480174,0.080000,-128296.297832,-8504316.254020,7692156.977612,-38298516.803189,-0.000156,0.000150,-0.000722
-1.400000,-1.520000,0.480054,0.080000,-205898.601928,-57226840.857315,58562337.755077,-11193688.591950,-0.001086,0.001096,-0.000211
-1.320000,-1.520000,0.480007,0.080000,45136.417393,-49905415.364721,52373999.991512,64626025.297524,-0.000954,0.000973,0.001218
-1.240000,-1.520000,0.480162,0.080000,562163.258434,42046669.720650,-41435540.235144,100747372.394689,0.000789,-0.000784,0.001898
-1.160000,-1.520000,0.480061,0.080000,811800.750533,137474733.599365,-139962431.281517,23913836.856892,0.002604,-0.002623,0.000451
-1.080000,-1.520000,0.480005,0.080000,258605.851170,120576465.609267,-124034553.429570,-121981554.341025,0.002291,-0.002317,-0.002298
-1.000000,-1.520000,0.480149,0.080000,-978343.689324,-30161375.010467,28999084.077279,-202322469.333705,-0.000562,0.000553,-0.003812
-0.920000,-1.520000,0.480069,0.080000,-2010874.045143,-204813873.473123,207144990.620770,-120035981.617306,-0.003872,0.003890,-0.002262
-0.840000,-1.520000,0.480003,0.080000,-1822804.884110,-253397241.392830,257419995.075350,87703532.944133,-0.004797,0.004827,0.001652
-0.760000,-1.520000,0.480138,0.080000,-142784.310403,-114373697.299460,117021741.775555,273082931.089713,-0.002170,0.002190,0.005145
-0.680000,-1.520000,0.480077,0.080000,2197556.225584,132268432.213104,-132867938.010549,292859511.624534,0.002495,-0.002500,0.005518
-0.600000,-1.520000,0.480001,0.080000,3735036.484672,322870036.835951,-326202429.054981,116201470.437596,0.006102,-0.006127,0.002189
-0.520000,-1.520000,0.480126,0.080000,3341576.686247,325750713.492500,-329541072.951369,-153538167.490538,0.006159,-0.006187,-0.002893
-0.440000,-1.520000,0.480086,0.080000,1005318.620667,128981845.539064,-130849343.465522,-349558796.004220,0.002441,-0.002455,-0.006586
-0.360000,-1.520000,0.480001,0.080000,-2096713.314735,-154289603.499957,155372120.921290,-349377881.589301,-0.002913,0.002921,-0.006582
-0.280000,-1.520000,0.480116,0.080000,-4271009.326737,-358321913.657224,361569963.071762,-148969149.135076,-0.006769,0.006794,-0.002807
-0.200000,-1.520000,0.480096,0.080000,-4296581.837927,-364739229.737439,368175214.564084,137967688.309332,-0.006891,0.006917,0.002599
-0.120000,-1.520000,0.480000,0.080000,-2133957.636342,-169973306.693219,171624833.258501,349080928.471862,-0.003212,0.003224,0.006577
-0.040000,-1.520000,0.480105,0.080000,1051337.494167,115528803.077684,-116543559.881019,367087119.592817,0.002182,-0.002190,0.006916
0.040000,-1.520000,0.480105,0.080000,3548557.484218,332020102.449696,-335056854.225542,184878747.613984,0.006273,-0.006296,0.003483
0.120000,-1.520000,0.480000,0.080000,4058292.357203,360940963.542479,-364219506.461361,-92454641.597459,0.006819,-0.006844,-0.001742
0.200000,-1.520000,0.480096,0.080000,2403335.194408,190998068.816424,-192598189.859328,-308163094.614847,0.003608,-0.003620,-0.005806
0.280000,-1.520000,0.480116,0.080000,-402700.047357,-76337687.631703,77381826.595211,-343047243.324626,-0.001444,0.001452,-0.006463
0.360000,-1.520000,0.480001,0.080000,-2761863.215515,-285510274.150147,288599210.270565,-183773907.835255,-0.005397,0.005420,-0.003462
0.440000,-1.520000,0.480086,0.080000,-3421440.700436,-317923696.056049,321156382.159696,69242213.431910,-0.006008,0.006033,0.001305
0.520000,-1.520000,0.480126,0.080000,-2181827.075180,-163267746.710497,164542505.618809,261648869.954614,-0.003083,0.003093,0.004930
0.600000,-1.520000,0.480001,0.080000,42010.312054,73468365.757390,-75070855.122060,280293975.663150,0.001393,-0.001405,0.005281
0.680000,-1.520000,0.480077,0.080000,1844599.014285,238519062.723485,-241955587.383556,125939454.046201,0.004513,-0.004539,0.002373
0.760000,-1.520000,0.480138,0.080000,2241596.793868,231524817.124600,-234323526.715176,-86789223.286644,0.004378,-0.004399,-0.001635
0.840000,-1.520000,0.480003,0.080000,1263323.143621,75200769.448343,-75220143.867638,-209240286.146596,0.001417,-0.001417,-0.003942
0.920000,-1.520000,0.480069,0.080000,-177951.905814,-102498598.244547,105251482.347070,-167393676.841974,-0.001947,0.001967,-0.003154
1.000000,-1.520000,0.480149,0.080000,-1037376.062145,-168843880.030048,171978398.437091,-16840872.681637,-0.003199,0.003222,-0.000317
1.080000,-1.520000,0.480005,0.080000,-913282.225232,-93678703.136699,94426019.299436,107451004.106917,-0.001769,0.001775,0.002024
1.160000,-1.520000,0.480061,0.080000,-226770.365984,31560998.266338,-33635406.426798,111469907.464047,0.000606,-0.000622,0.002100
1.240000,-1.520000,0.480162,0.080000,300735.735652,87976988.534638,-90442903.376043,23182363.330200,0.001671,-0.001690,0.000437
1.320000,-1.520000,0.480007,0.080000,329968.582413,46507165.550643,-46795389.119526,-50302725.182827,0.000878,-0.000880,-0.000948
1.400000,-1.520000,0.480054,0.080000,79459.776274,-18567531.147863,20167333.697865,-45186371.907460,-0.000359,0.000371,-0.000851
1.480000,-1.520000,0.480174,0.080000,-83345.412350,-32889244.174930,33974758.301345,615828.235505,-0.000626,0.000634,0.000012
1.560000,-1.520000,0.480010,0.080000,-62574.420076,-5980402.582651,5530260.543278,19791013.414291,-0.000110,0.000107,0.000373
1.640000,-1.520000,0.480047,0.080000,2131.771875,10203433.695443,-10905434.241926,6002352.996354,0.000196,-0.000201,0.000113
1.720000,-1.520000,0.480187,0.080000,15403.740924,3956177.792106,-3923564.126350,-4738928.076669,0.000074,-0.000074,-0.000089
1.800000,-1.520000,0.480013,0.080000,3480.662524,-1991567.150539,2245921.772048,-1989635.874527,-0.000039,0.000041,-0.000037
1.880000,-1.520000,0.480040,0.080000,46.161541,-794854.651434,803624.673632,753254.011254,-0.000015,0.000015,0.000014
1.960000,-1.520000,0.480201,0.080000,1733.461629,330630.216369,-373505.451122,223589.831414,0.000006,-0.000007,0.000004
2.040000,-1.520000,0.460171,0.080000,2040.507500,213071.550876,-195314.253226,163370.471705,0.000004,-0.000004,0.000003
2.120000,-1.520000,0.380207,0.080000,1649.975453,-1627802.429990,1748551.323133,1371065.741117,-0.000031,0.000032,0.000026
-2.120000,-1.440000,0.380079,0.080000,17298.370130,-3609576.271643,3707650.224424,5397830.355499,-0.000069,0.000069,0.000102
-2.040000,-1.440000,0.460065,0.080000,9147.129804,-1116404.680181,1066259.922910,-119545.134535,-0.000021,0.000020,-0.000002
-1.960000,-1.440000,0.540056,0.080000,8384.751454,-42694.593988,-16100.925121,-298833.954733,-0.000000,0.000000,-0.000006
-1.880000,-1.440000,0.560035,0.080000,8166.478753,-158824.014188,148191.387638,-264036.564180,-0.000003,0.000003,-0.000005
-1.800000,-1.440000,0.560012,0.080000,9186.565359,-629983.354573,763751.278943,453989.339556,-0.000013,0.000014,0.000009
-1.720000,-1.440000,0.560161,0.080000,13858.009281,445481.001519,-333697.062242,1836685.703657,0.000008,-0.000007,0.000035
-1.640000,-1.440000,0.560040,0.080000,14573.164577,3657186.624378,-3948169.058970,179999.700971,0.000071,-0.000073,0.000003
-1.560000,-1.440000,0.560009,0.080000,-7043.887399,2925304.465349,-3502491.934582,-6436252.232778,0.000058,-0.000063,-0.000121
-1.480000,-1.440000,0.560149,0.080000,-43372.899878,-7530880.766054,7576169.364377,-9052234.615302,-0.000142,0.000142,-0.000171
-1.400000,-1.440000,0.560046,0.080000,-30823.435958,-17951587.310370,19180812.585594,4255000.824048,-0.000345,0.000354,0.000080
-1.320000,-1.440000,0.560006,0.080000,89041.759528,-8080518.602384,9441051.161402,26481897.218726,-0.000160,0.000170,0.000499
-1.240000,-1.440000,0.560138,0.080000,251448.699087,24609131.692080,-24995353.084846,29680613.590349,0.000466,-0.000469,0.000559
-1.160000,-1.440000,0.560052,0.080000,258254.802369,50799022.020668,-53342656.933261,-4520519.421257,0.000971,-0.000991,-0.000085
-1.080000,-1.440000,0.560004,0.080000,-44206.397185,34527308.660151,-37225931.760334,-56076741.099212,0.000666,-0.000686,-0.001057
-1.000000,-1.440000,0.560128,0.080000,-550628.591469,-26445205.185877,26289650.751000,-77175503.892957,-0.000497,0.000496,-0.001454
-0.920000,-1.440000,0.560059,0.080000,-886600.809914,-89593078.669133,92760565.405617,-35802804.677441,-0.001706,0.001730,-0.000675
-0.840000,-1.440000,0.560003,0.080000,-668569.161830,-99818687.555620,104267732.606662,50381299.337481,-0.001906,0.001939,0.000949
-0.760000,-1.440000,0.560118,0.080000,160959.635111,-36087752.774792,38513948.878174,122388734.042925,-0.000694,0.000712,0.002306
-0.680000,-1.440000,0.560066,0.080000,1206382.650846,67916341.435571,-69524964.462411,123502889.996768,0.001289,-0.001301,0.002327
-0.600000,-1.440000,0.560001,0.080000,1826603.678555,145242975.097674,-150115123.974387,42399569.579295,0.002764,-0.002801,0.000799
-0.520000,-1.440000,0.560108,0.080000,1546658.306545,141641218.894853,-146773019.309376,-76556220.021765,0.002698,-0.002736,-0.001442
-0.440000,-1.440000,0.560074,0.080000,391464.396982,52495109.988762,-54665487.479315,-161528114.057982,0.001001,-0.001018,-0.003043
-0.360000,-1.440000,0.560000,0.080000,-1085992.949540,-73414909.807714,75607444.014822,-158992653.511927,-0.001396,0.001412,-0.002996
-0.280000,-1.440000,0.560099,0.080000,-2106035.630857,-163808289.607874,169141045.853961,-66935169.052696,-0.003116,0.003157,-0.001261
-0.200000,-1.440000,0.560082,0.080000,-2109226.385429,-166262926.731485,171682823.879340,64108944.908444,-0.003163,0.003204,0.001208
-0.120000,-1.440000,0.560000,0.080000,-1080862.381875,-78663975.647387,81099415.257647,161033569.009376,-0.001496,0.001514,0.003034
-0.040000,-1.440000,0.560090,0.080000,435771.768357,50191041.582375,-52081456.867700,170360857.906802,0.000956,-0.000971,0.003210
0.040000,-1.440000,0.560090,0.080000,1641577.363600,148954699.331309,-154057701.525044,88257418.826066,0.002835,-0.002874,0.001663
0.120000,-1.440000,0.560000,0.080000,1923733.462607,164245597.858201,-169654428.025729,-38063897.156972,0.003125,-0.003166,-0.000717
0.200000,-1.440000,0.560082,0.080000,1186599.723759,90424573.711631,-93099155.688061,-137723394.479066,0.001719,-0.001739,-0.002595
0.280000,-1.440000,0.560099,0.080000,-113172.019810,-27956511.838096,29450217.676731,-156681496.076470,-0.000535,0.000546,-0.002952
0.360000,-1.440000,0.560000,0.080000,-1242425.959829,-122447731.343005,127101029.200560,-88417889.009562,-0.002333,0.002368,-0.001666
0.440000,-1.440000,0.560074,0.080000,-1615167.927721,-140909100.543877,145857019.223142,23048577.347148,-0.002683,0.002720,0.000434
0.520000,-1.440000,0.560108,0.080000,-1115172.226279,-78176223.213539,80434518.216757,110223087.574221,-0.001486,0.001503,0.002077
0.600000,-1.440000,0.560001,0.080000,-128146.677528,21807098.725573,-23457685.292936,123764505.388449,0.000420,-0.000433,0.002332
0.680000,-1.440000,0.560066,0.080000,729179.805125,94871032.564195,-99073634.274017,62973233.890741,0.001811,-0.001843,0.001186
0.760000,-1.440000,0.560118,0.080000,1004428.526007,98933749.123133,-102677639.429428,-25425490.108874,0.001885,-0.001913,-0.000479
0.840000,-1.440000,0.560003,0.080000,668870.298005,41306695.063339,-42087914.825115,-80889545.895013,0.000783,-0.000789,-0.001524
0.920000,-1.440000,0.560059,0.080000,73451.245859,-29393808.556282,31710174.986390,-72309364.471858,-0.000567,0.000584,-0.001362
1.000000,-1.440000,0.560128,0.080000,-348164.852249,-62027435.182961,65194214.051264,-18429234.911148,-0.001187,0.001210,-0.000347
1.080000,-1.440000,0.560004,0.080000,-392268.765923,-42273668.521611,43668589.732141,31609624.060279,-0.000804,0.000815,0.000596
1.160000,-1.440000,0.560052,0.080000,-174159.224846,732554.624665,-1795694.203061,41640278.012866,0.000020,-0.000028,0.000785
1.240000,-1.440000,0.560138,0.080000,46402.593345,26092990.516047,-27998474.951339,16673236.739898,0.000502,-0.000517,0.000314
1.320000,-1.440000,0.560006,0.080000,112175.293510,19659987.226092,-20448091.478646,-10104717.915009,0.000375,-0.000381,-0.000190
1.400000,-1.440000,0.560046,0.080000,56579.360717,344594.621431,255949.342269,-15190921.257705,0.000003,0.000001,-0.000286
1.480000,-1.440000,0.560149,0.080000,-5883.957445,-8426503.382420,9217227.032369,-4460736.666515,-0.000163,0.000169,-0.000084
1.560000,-1.440000,0.560009,0.080000,-19402.542268,-4182836.214581,4299440.121701,3647465.997051,-0.000079,0.000080,0.000069
1.640000,-1.440000,0.560040,0.080000,-5941.655911,1076258.065511,-1369055.655440,2920732.611680,0.000022,-0.000024,0.000055
1.720000,-1.440000,0.560161,0.080000,2730.797947,1399512.679478,-1548406.118523,-74567.598553,0.000027,-0.000028,-0.000001
1.800000,-1.440000,0.560012,0.080000,2717.289231,87903.548677,-28814.557904,-641494.833157,0.000001,-0.000001,-0.000012
1.880000,-1.440000,0.560035,0.080000,1665.287590,-243271.512208,287391.327648,-89449.325663,-0.000005,0.000005,-0.000002
1.960000,-1.440000,0.540056,0.080000,2123.583004,-101990.763209,101664.402706,-124596.384181,-0.000002,0.000002,-0.000002
2.040000,-1.440000,0.460065,0.080000,2918.915460,910786.256243,-890560.386886,-685129.566616,0.000017,-0.000017,-0.000013
2.120000,-1.440000,0.380079,0.080000,-3724.068139,6640734.685309,-6803644.911992,2552575.442933,0.000126,-0.000127,0.000048
-2.120000,-1.360000,0.380004,0.080000,-284.851246,-10285547.524379,10340198.775331,-12741084.268366,-0.000194,0.000195,-0.000240
-2.040000,-1.360000,0.460003,0.080000,3719.492930,616102.024876,-592194.081716,-2699188.391480,0.000011,-0.000011,-0.000051
-1.960000,-1.360000,0.540003,0.080000,8000.877539,591971.341573,-576339.697646,-234458.389759,0.000011,-0.000011,-0.000004
-1.880000,-1.360000,0.620003,0.080000,8848.634232,53297.757259,-13109.745850,129554.124296,0.000001,-0.000000,0.000002
-1.800000,-1.360000,0.640010,0.080000,9237.072328,-23749.245411,62771.203184,283483.847142,-0.000001,0.000001,0.000005
-1.720000,-1.360000,0.640141,0.080000,9590.636735,448022.640892,-454695.045089,281373.439856,0.000008,-0.000009,0.000005
-1.640000,-1.360000,0.640035,0.080000,6991.306966,916229.751232,-1033074.633309,-709928.469361,0.000018,-0.000019,-0.000013
-1.560000,-1.360000,0.640008,0.080000,-890.082181,-347848.660802,222990.288708,-2275669.055697,-0.000006,0.000005,-0.000043
-1.480000,-1.360000,0.640131,0.080000,-5626.103022,-3714801.446926,3844748.366573,-1398211.701591,-0.000071,0.000072,-0.000026
-1.400000,-1.360000,0.640040,0.080000,12878.273343,-5121405.930821,5569403.137830,4147957.317896,-0.000099,0.000102,0.000078
-1.320000,-1.360000,0.640005,0.080000,61388.510163,840118.972734,-493950.450330,10241317.525422,0.000014,-0.000011,0.000193
-1.240000,-1.360000,0.640121,0.080000,102104.741090,12605474.311460,-12932330.841377,7705070.645193,0.000239,-0.000242,0.000145
-1.160000,-1.360000,0.640046,0.080000,63957.346933,18924131.303923,-19935105.476771,-7477130.345427,0.000362,-0.000370,-0.000141
-1.080000,-1.360000,0.640004,0.080000,-88960.897279,8300907.823529,-9208384.459057,-25875562.311113,0.000162,-0.000168,-0.000488
-1.000000,-1.360000,0.640112,0.080000,-289064.742871,-17565206.144726,17718217.759686,-29666556.401180,-0.000332,0.000333,-0.000559
-0.920000,-1.360000,0.640052,0.080000,-377365.740688,-40934989.598466,42350637.978962,-8486105.817201,-0.000779,0.000790,-0.000160
-0.840000,-1.360000,0.640002,0.080000,-212341.948301,-40590884.344329,42400319.185404,28594006.550321,-0.000775,0.000789,0.000539
-0.760000,-1.360000,0.640103,0.080000,200976.121701,-9678368.341892,10545622.513917,56848403.341500,-0.000187,0.000194,0.001071
-0.680000,-1.360000,0.640058,0.080000,670197.455893,36376827.204247,-37240079.436340,53339891.213277,0.000690,-0.000697,0.001005
-0.600000,-1.360000,0.640001,0.080000,911158.498030,68719350.788129,-70935429.527655,14465994.495758,0.001307,-0.001324,0.000273
-0.520000,-1.360000,0.640095,0.080000,725586.404793,64288490.159693,-66531348.906402,-39679216.820887,0.001224,-0.001241,-0.000748
-0.440000,-1.360000,0.640065,0.080000,142790.360434,21722163.376352,-22578142.185226,-77229167.882399,0.000414,-0.000421,-0.001455
-0.360000,-1.360000,0.640000,0.080000,-572495.311830,-36748761.392479,37879775.231500,-74474487.871478,-0.000699,0.000707,-0.001403
-0.280000,-1.360000,0.640087,0.080000,-1057849.158228,-78320909.038689,80853234.119166,-30766604.531767,-0.001490,0.001509,-0.000580
-0.200000,-1.360000,0.640072,0.080000,-1056140.963712,-79072440.520840,81587054.618222,30701546.530955,-0.001504,0.001523,0.000578
-0.120000,-1.360000,0.640000,0.080000,-563482.363812,-37986196.072642,39063667.837781,76280526.418736,-0.000722,0.000730,0.001437
-0.040000,-1.360000,0.640079,0.080000,164676.014988,22502793.262689,-23468015.950208,81162037.135462,0.000429,-0.000437,0.001529
0.040000,-1.360000,0.640079,0.080000,752734.431768,69385841.326335,-71848987.667936,43341144.534253,0.001321,-0.001340,0.000817
0.120000,-1.360000,0.640000,0.080000,909629.190529,77761344.056906,-80345458.880783,-15563985.782681,0.001480,-0.001499,-0.000293
0.200000,-1.360000,0.640072,0.080000,583215.878738,44652937.549596,-45935021.631887,-62862516.576825,0.000849,-0.000858,-0.001184
0.280000,-1.360000,0.640087,0.080000,-21287.295250,-9803097.153819,10481556.633371,-73441095.651268,-0.000189,0.000194,-0.001384
0.360000,-1.360000,0.640000,0.080000,-566090.274986,-54402827.010746,56564185.264519,-43824483.704400,-0.001037,0.001053,-0.000826
0.440000,-1.360000,0.640065,0.080000,-774151.364544,-65169665.597537,67494315.069041,6501377.656859,-0.001241,0.001258,0.000122
0.520000,-1.360000,0.640095,0.080000,-577723.186802,-39114463.868075,40246062.736256,47350793.711211,-0.000743,0.000752,0.000892
0.600000,-1.360000,0.640001,0.080000,-137070.433141,4920835.084440,-5538062.188251,56368122.314565,0.000096,-0.000101,0.001062
0.680000,-1.360000,0.640058,0.080000,275713.290585,38998781.762110,-40789565.150572,32309590.103972,0.000745,-0.000758,0.000609
0.760000,-1.360000,0.640103,0.080000,449078.527390,44300751.132906,-45983024.749195,-5573646.017692,0.000844,-0.000857,-0.000105
0.840000,-1.360000,0.640002,0.080000,348344.899241,22616837.265976,-23117867.309448,-31733362.128379,0.000429,-0.000433,-0.000598
0.920000,-1.360000,0.640052,0.080000,105383.534093,-6932650.093702,7726721.630281,-32149103.226302,-0.000135,0.000141,-0.000606
1.000000,-1.360000,0.640112,0.080000,-98193.263857,-23371340.238944,24622844.787576,-12682807.158649,-0.000447,0.000457,-0.000239
1.080000,-1.360000,0.640004,0.080000,-159670.498333,-19340607.192554,20028982.623133,8175876.162807,-0.000368,0.000373,0.000154
1.160000,-1.360000,0.640046,0.080000,-101242.498604,-4145667.891202,3923542.588990,15560760.452965,-0.000077,0.000075,0.000293
1.240000,-1.360000,0.640121,0.080000,-14579.389336,7231392.953901,-7878204.663664,9080041.120375,0.000140,-0.000145,0.000171
1.320000,-1.360000,0.640005,0.080000,29907.706446,7878986.638887,-8262445.840929,-702098.700306,0.000151,-0.000154,-0.000013
1.400000,-1.360000,0.640040,0.080000,26138.399813,2314135.399696,-2231486.049450,-4671487.171151,0.000043,-0.000043,-0.000088
1.480000,-1.360000,0.640131,0.080000,6748.511808,-1713087.561850,1959101.765872,-2667566.674476,-0.000034,0.000036,-0.000050
1.560000,-1.360000,0.640008,0.080000,-3231.126685,-1723294.936331,1825026.014954,181593.468628,-0.000033,0.000034,0.000003
1.640000,-1.360000,0.640035,0.080000,-2579.319173,-285091.570117,237229.410251,876911.754327,-0.000005,0.000005,0.000017
1.720000,-1.360000,0.640141,0.080000,302.415461,313576.985336,-367113.052601,291438.853141,0.000006,-0.000007,0.000005
1.800000,-1.360000,0.640010,0.080000,1403.188239,177205.560484,-182064.022503,-54013.457980,0.000003,-0.000003,-0.000001
1.880000,-1.360000,0.620003,0.080000,1361.227115,-47880.235791,32788.109023,87740.056140,-0.000001,0.000001,0.000002
1.960000,-1.360000,0.540003,0.080000,1762.008087,-667797.967646,609649.490272,204949.433777,-0.000012,0.000012,0.000004
2.040000,-1.360000,0.460003,0.080000,6625.652582,-2509825.756035,2414638.800411,-1756568.851365,-0.000047,0.000046,-0.000033
2.120000,-1.360000,0.380004,0.080000,25397.848172,-29991.313875,131856.021424,-17871381.649090,-0.000001,0.000002,-0.000337
-2.120000,-1.280000,0.380169,0.080000,-50570.458982,31382751.066988,-31654074.372615,-16288899.233313,0.000593,-0.000595,-0.000307
-2.040000,-1.280000,0.460140,0.080000,5621.262090,7074402.535620,-6875750.161938,1790300.696923,0.000132,-0.000131,0.000034
-1.960000,-1.280000,0.540119,0.080000,10997.186390,823327.553192,-693873.456799,1392689.706407,0.000015,-0.000014,0.000026
-1.880000,-1.280000,0.620104,0.080000,9547.595139,-142353.517813,170983.229521,388129.504651,-0.000003,0.000003,0.000007
-1.800000,-1.280000,0.700092,0.080000,8649.962990,-57617.095541,57268.564661,79188.751229,-0.000001,0.000001,0.000001
-1.720000,-1.280000,0.720125,0.080000,8073.446525,134838.578481,-152779.307026,-81968.673242,0.000003,-0.000003,-0.000002
-1.640000,-1.280000,0.720031,0.080000,6701.840108,80869.057899,-118873.016488,-414528.059725,0.000002,-0.000002,-0.000008
-1.560000,-1.280000,0.720007,0.080000,5028.209566,-557792.168332,545380.776373,-578859.101847,-0.000010,0.000010,-0.000011
-1.480000,-1.280000,0.720116,0.080000,7057.799553,-1418661.139757,1499274.502735,294798.131884,-0.000027,0.000028,0.000006
-1.400000,-1.280000,0.720036,0.080000,17744.654809,-1002220.889218,1154713.620665,2314542.402808,-0.000020,0.000021,0.000044
-1.320000,-1.280000,0.720005,0.080000,33891.249479,1912678.773233,-1850099.355985,3539164.486169,0.000036,-0.000035,0.000067
-1.240000,-1.280000,0.720108,0.080000,37315.866104,5860279.589052,-6053738.204640,1076303.692836,0.000112,-0.000113,0.000020
-1.160000,-1.280000,0.720041,0.080000,4382.768746,6543105.576692,-6940284.237196,-5444014.504128,0.000126,-0.000129,-0.000103
-1.080000,-1.280000,0.720003,0.080000,-67867.607397,494845.724791,-780097.072730,-11652033.634091,0.000011,-0.000013,-0.000220
-1.000000,-1.280000,0.720100,0.080000,-141300.112609,-10445612.141739,10608207.884519,-10888767.645672,-0.000198,0.000199,-0.000205
-0.920000,-1.280000,0.720046,0.080000,-148707.097595,-18717772.929509,19355115.350044,-119220.726233,-0.000356,0.000361,-0.000002
-0.840000,-1.280000,0.720002,0.080000,-40315.054025,-16168584.742071,16899372.725827,15935643.018939,-0.000309,0.000314,0.000300
-0.760000,-1.280000,0.720092,0.080000,166653.683479,-936929.120140,1218807.441162,26719584.896887,-0.000019,0.000021,0.000503
-0.680000,-1.280000,0.720052,0.080000,377257.009258,19670371.292988,-20134626.566356,23001908.920431,0.000373,-0.000377,0.000433
-0.600000,-1.280000,0.720001,0.080000,464284.082907,33048983.356863,-34063025.499660,4001981.990968,0.000628,-0.000636,0.000075
-0.520000,-1.280000,0.720084,0.080000,345959.004329,29445437.250989,-30415950.332807,-20931509.318344,0.000560,-0.000568,-0.000394
-0.440000,-1.280000,0.720058,0.080000,45785.206133,8749275.756078,-9058694.426487,-37526841.542419,0.000167,-0.000169,-0.000707
-0.360000,-1.280000,0.720000,0.080000,-307215.661627,-18711006.000479,19308837.839415,-35317436.334133,-0.000356,0.000360,-0.000665
-0.280000,-1.280000,0.720077,0.080000,-542676.952906,-37945555.777546,39160497.998191,-14266781.751320,-0.000722,0.000731,-0.000269
-0.200000,-1.280000,0.720064,0.080000,-541719.406909,-38048218.506881,39215747.339167,14843372.220287,-0.000723,0.000732,0.000280
-0.120000,-1.280000,0.720000,0.080000,-304352.260056,-18601077.853800,19066091.724177,36448251.221589,-0.000353,0.000357,0.000687
-0.040000,-1.280000,0.720070,0.080000,48166.351489,10008737.129060,-10515331.646519,39021595.416572,0.000191,-0.000195,0.000735
0.040000,-1.280000,0.720070,0.080000,337917.295177,32455001.262817,-33662886.026115,21536820.934314,0.000618,-0.000627,0.000406
0.120000,-1.280000,0.720000,0.080000,425453.778026,37072667.659584,-38325870.252237,-6090561.117196,0.000706,-0.000715,-0.000115
0.200000,-1.280000,0.720064,0.080000,282144.825800,22263448.428267,-22891631.103071,-28740762.296469,0.000423,-0.000428,-0.000541
0.280000,-1.280000,0.720077,0.080000,35.354510,-2903695.733089,3207876.331624,-34660059.242985,-0.000056,0.000059,-0.000653
0.360000,-1.280000,0.720000,0.080000,-264449.578032,-24166494.069704,25180515.328351,-21926953.144734,-0.000461,0.000469,-0.000413
0.440000,-1.280000,0.720058,0.080000,-378980.417502,-30380661.942181,31494914.164363,901449.501883,-0.000579,0.000587,0.000017
0.520000,-1.280000,0.720084,0.080000,-304471.440297,-19749961.198626,20338844.407918,20276698.604161,-0.000375,0.000380,0.000382
0.600000,-1.280000,0.720001,0.080000,-106348.346281,-261385.998351,58465.189310,25907877.887600,-0.000004,0.000002,0.000488
0.680000,-1.280000,0.720052,0.080000,94730.491846,15851277.309299,-16611524.240925,16647833.515303,0.000303,-0.000309,0.000314
0.760000,-1.280000,0.720092,0.080000,198483.464424,19979700.168646,-20748911.299959,332163.444369,0.000381,-0.000387,0.000006
0.840000,-1.280000,0.720002,0.080000,178376.365138,12125360.171260,-12430179.684240,-12147715.145018,0.000230,-0.000232,-0.000229
0.920000,-1.280000,0.720046,0.080000,82022.354118,-266112.651576,512178.599303,-14279052.617381,-0.000006,0.000008,-0.000269
1.000000,-1.280000,0.720100,0.080000,-14308.676889,-8450028.773642,8941929.693643,-7546904.357816,-0.000162,0.000166,-0.000142
1.080000,-1.280000,0.720003,0.080000,-59462.098535,-8624095.022184,8956703.331301,1116941.581164,-0.000164,0.000167,0.000021
1.160000,-1.280000,0.720041,0.080000,-51219.154891,-3501139.830818,3497273.352175,5474963.712279,-0.000066,0.000066,0.000103
1.240000,-1.280000,0.720108,0.080000,-20332.349621,1410717.328062,-1618459.326748,4362481.574336,0.000028,-0.000029,0.000082
1.320000,-1.280000,0.720005,0.080000,2880.349199,2847356.727051,-3016240.162959,993772.933346,0.000055,-0.000056,0.000019
1.400000,-1.280000,0.720036,0.080000,8844.727112,1538663.697360,-1557666.738226,-1121992.782093,0.000029,-0.000029,-0.000021
1.480000,-1.280000,0.720116,0.080000,4975.416688,-30171.123941,96734.454411,-1132927.938879,-0.000001,0.000001,-0.000021
1.560000,-1.280000,0.720007,0.080000,866.700495,-516711.408028,565438.764580,-311890.763328,-0.000010,0.000010,-0.000006
1.640000,-1.280000,0.720031,0.080000,-175.917749,-265329.886352,268008.369330,142610.386786,-0.000005,0.000005,0.000003
1.720000,-1.280000,0.720125,0.080000,505.542526,8605.273693,-18435.746941,106431.754742,0.000000,-0.000000,0.000002
1.800000,-1.280000,0.700092,0.080000,1183.481869,150243.351376,-141996.904250,-25448.310170,0.000003,-0.000003,-0.000000
1.880000,-1.280000,0.620104,0.080000,873.327512,359919.413824,-335945.314156,137008.371559,0.000007,-0.000006,0.000003
1.960000,-1.280000,0.540119,0.080000,-1626.563828,299730.489226,-374514.118919,1512405.409053,0.000006,-0.000007,0.000028
2.040000,-1.280000,0.460140,0.080000,-4412.697931,-4418194.969648,4292772.672714,5708205.873635,-0.000083,0.000082,0.000108
2.120000,-1.280000,0.380169,0.080000,30782.990255,-37235711.591769,37519141.101911,8751720.508964,-0.000703,0.000705,0.000165
-2.120000,-1.200000,0.380106,0.080000,71383.903503,25369486.167509,-25521897.417011,59938483.309569,0.000479,-0.000480,0.001129
-2.040000,-1.200000,0.460087,0.080000,40220.119977,-2816255.101377,2813757.334625,13163661.443048,-0.000053,0.000053,0.000248
-1.960000,-1.200000,0.540074,0.080000,16364.922592,-2720394.939688,2704501.194653,2059627.192501,-0.000051,0.000051,0.000039
-1.880000,-1.200000,0.620065,0.080000,8916.584508,-916160.244506,824780.332588,-136041.661019,-0.000017,0.000016,-0.000003
-1.800000,-1.200000,0.700057,0.080000,7650.147377,-159860.506252,126482.034390,-225934.493445,-0.000003,0.000003,-0.000004
-1.720000,-1.200000,0.780051,0.080000,7595.331823,31352.347408,-46028.710139,-154895.200383,0.000001,-0.000001,-0.000003
-1.640000,-1.200000,0.800028,0.080000,7433.660509,-50461.296233,41659.855135,-153577.250905,-0.000001,0.000001,-0.000003
-1.560000,-1.200000,0.800006,0.080000,7659.614752,-288710.342192,297364.663758,-36740.251279,-0.000005,0.000006,-0.000001
-1.480000,-1.200000,0.800105,0.080000,9706.732239,-400685.128964,439155.764068,418374.462960,-0.000008,0.000008,0.000008
-1.400000,-1.200000,0.800032,0.080000,14105.998175,98041.057763,-51414.488468,1025912.347945,0.000002,-0.000001,0.000019
-1.320000,-1.200000,0.800004,0.080000,17587.304656,1344936.928605,-1349681.683092,979894.041232,0.000025,-0.000025,0.000018
-1.240000,-1.200000,0.800097,0.080000,12471.689708,2482069.304479,-2581316.194377,-544202.910784,0.000047,-0.000048,-0.000010
-1.160000,-1.200000,0.800037,0.080000,-7900.406939,1908808.039157,-2060449.431641,-3216220.111954,0.000037,-0.000038,-0.000061
-1.080000,-1.200000,0.800003,0.080000,-39467.683842,-1281037.685935,1203874.197575,-5056328.009315,-0.000024,0.000023,-0.000095
-1.000000,-1.200000,0.800090,0.080000,-62240.304437,-5835100.842149,5947192.576770,-3610056.242726,-0.000111,0.000111,-0.000068
-0.920000,-1.200000,0.800041,0.080000,-48306.946518,-8496565.234719,8783119.233376,1811570.449800,-0.000162,0.000164,0.000034
-0.840000,-1.200000,0.800002,0.080000,18115.202204,-6167486.874127,6458292.901759,8761203.917452,-0.000118,0.000120,0.000165
-0.760000,-1.200000,0.800083,0.080000,121891.043719,1417461.251851,-1342443.385327,12669686.580202,0.000026,-0.000026,0.000239
-0.680000,-1.200000,0.800046,0.080000,215712.587706,10716810.177973,-10963607.588919,9854778.858390,0.000203,-0.000205,0.000186
-0.600000,-1.200000,0.800001,0.080000,242181.621810,16155862.936812,-16619692.455287,411533.781893,0.000307,-0.000311,0.000008
-0.520000,-1.200000,0.800076,0.080000,168208.828702,13630181.583508,-14042626.987386,-11210860.797548,0.000259,-0.000262,-0.000211
-0.440000,-1.200000,0.800052,0.080000,10150.644258,3391980.877062,-3484804.320357,-18553754.104997,0.000064,-0.000065,-0.000350
-0.360000,-1.200000,0.800000,0.080000,-168035.796389,-9671026.175035,9993050.400100,-17003237.008751,-0.000184,0.000186,-0.000320
-0.280000,-1.200000,0.800069,0.080000,-285241.235589,-18650167.623985,19239134.462317,-6717284.234964,-0.000355,0.000359,-0.000127
-0.200000,-1.200000,0.800057,0.080000,-286028.711922,-18564396.765615,19106275.023558,7224103.242421,-0.000353,0.000357,0.000136
-0.120000,-1.200000,0.800000,0.080000,-171393.199366,-9271604.161024,9463985.734388,17571878.700543,-0.000176,0.000177,0.000331
-0.040000,-1.200000,0.800063,0.080000,532.106795,4379042.379314,-4653480.133731,18949168.966129,0.000084,-0.000086,0.000357
0.040000,-1.200000,0.800063,0.080000,144706.357883,15232601.298646,-15837342.351182,10834851.704549,0.000290,-0.000295,0.000204
0.120000,-1.200000,0.800000,0.080000,193649.707648,17791215.091873,-18410815.159727,-2208273.362386,0.000339,-0.000343,-0.000042
0.200000,-1.200000,0.800057,0.080000,131555.938606,11187320.293158,-11502945.759039,-13155643.701274,0.000213,-0.000215,-0.000248
0.280000,-1.200000,0.800069,0.080000,-376.503350,-503121.806163,637583.440596,-16460756.515443,-0.000010,0.000011,-0.000310
0.360000,-1.200000,0.800000,0.080000,-129302.774341,-10734820.541666,11216792.927009,-11044512.273016,-0.000205,0.000209,-0.000208
0.440000,-1.200000,0.800052,0.080000,-191403.167984,-14271568.218084,14817575.231227,-638437.416533,-0.000272,0.000276,-0.000012
0.520000,-1.200000,0.800076,0.080000,-164428.574564,-10036134.998069,10352646.845853,8648319.826867,-0.000191,0.000193,0.000163
0.600000,-1.200000,0.800001,0.080000,-74459.888009,-1374490.188828,1328044.187854,12009818.420092,-0.000026,0.000025,0.000226
0.680000,-1.200000,0.800046,0.080000,24756.004906,6324352.698249,-6642843.767315,8597893.053715,0.000121,-0.000123,0.000162
0.760000,-1.200000,0.800083,0.080000,85177.288994,9050621.663162,-9405656.511519,1555271.292082,0.000173,-0.000175,0.000029
0.840000,-1.200000,0.800002,0.080000,89397.519465,6397251.570467,-6574650.452926,-4435346.444420,0.000122,-0.000123,-0.000084
0.920000,-1.200000,0.800041,0.080000,53379.342962,1218708.202045,-1159766.719386,-6290536.028840,0.000023,-0.000022,-0.000119
1.000000,-1.200000,0.800090,0.080000,9021.500380,-2799328.627341,2988104.506914,-4164737.420657,-0.000054,0.000055,-0.000078
1.080000,-1.200000,0.800003,0.080000,-18556.902414,-3713181.182773,3869460.975167,-622014.945928,-0.000071,0.000072,-0.000012
1.160000,-1.200000,0.800037,0.080000,-23200.716546,-2157710.824919,2192643.230620,1697459.776687,-0.000041,0.000041,0.000032
1.240000,-1.200000,0.800097,0.080000,-14119.224202,-134010.656954,75480.443485,1902360.118163,-0.000002,0.000002,0.000036
1.320000,-1.200000,0.800004,0.080000,-3755.043182,868547.442743,-936542.062237,869975.678001,0.000017,-0.000017,0.000016
1.400000,-1.200000,0.800032,0.080000,1464.509047,743748.604571,-767945.873770,-82172.374005,0.000014,-0.000014,-0.000002
1.480000,-1.200000,0.800105,0.080000,2043.416017,227550.172226,-214634.506844,-365603.239237,0.000004,-0.000004,-0.000007
1.560000,-1.200000,0.800006,0.080000,1077.670294,-86558.270651,104227.366311,-204547.374375,-0.000002,0.000002,-0.000004
1.640000,-1.200000,0.800028,0.080000,574.486500,-134000.364014,139314.636532,-22110.864337,-0.000003,0.000003,-0.000000
1.720000,-1.200000,0.780051,0.080000,909.958110,-96796.206933,96802.627663,-18592.881855,-0.000002,0.000002,-0.000000
1.800000,-1.200000,0.700057,0.080000,1848.352565,1706.497128,19068.708216,-235874.337183,-0.000000,0.000000,-0.000004
1.880000,-1.200000,0.620065,0.080000,2589.441690,634601.056123,-522439.085013,-683154.318657,0.000011,-0.000010,-0.000013
1.960000,-1.200000,0.540074,0.080000,-1482.936229,3551347.449509,-3367845.933388,-322604.421535,0.000066,-0.000064,-0.000006
2.040000,-1.200000,0.460087,0.080000,-29635.642514,12373488.503566,-12125576.409208,7821488.476871,0.000232,-0.000230,0.000147
2.120000,-1.200000,0.380106,0.080000,-136659.801198,24965700.318903,-25241177.906116,65746481.674345,0.000472,-0.000474,0.001239
-2.120000,-1.120000,0.380000,0.080000,274518.528247,-100108244.370972,100804607.615745,44596722.930340,-0.001890,0.001895,0.000840
-2.040000,-1.120000,0.460000,0.080000,46720.001705,-26630111.223247,26096667.951470,-2548200.622900,-0.000499,0.000495,-0.000048
-1.960000,-1.120000,0.540000,0.080000,5235.868760,-5453907.905622,5068528.817815,-4185605.867620,-0.000101,0.000098,-0.000079
-1.880000,-1.120000,0.620000,0.080000,3276.481847,-509412.767019,352152.884844,-1797096.222241,-0.000009,0.000008,-0.000034
-1.800000,-1.120000,0.700000,0.080000,5989.054676,233485.717482,-257479.041304,-518878.476288,0.000005,-0.000005,-0.000010
-1.720000,-1.120000,0.780000,0.080000,7493.595045,165324.406675,-164165.787297,-100331.643786,0.000003,-0.000003,-0.000002
-1.640000,-1.120000,0.860000,0.080000,7975.738938,11502.372701,-6826.322959,5560.551655,0.000000,-0.000000,0.000000
-1.560000,-1.120000,0.880006,0.080000,8374.816697,-91095.270112,101030.016888,94393.182563,-0.000002,0.000002,0.000002
-1.480000,-1.120000,0.880095,0.080000,9312.872355,-44399.335653,60810.569593,257896.863942,-0.000001,0.000001,0.000005
-1.400000,-1.120000,0.880029,0.080000,10448.307387,254636.920528,-243060.043674,364428.741957,0.000005,-0.000005,0.000007
-1.320000,-1.120000,0.880004,0.080000,9890.656833,719937.174305,-733431.660198,111638.646118,0.000014,-0.000014,0.000002
-1.240000,-1.120000,0.880088,0.080000,4818.970711,924703.431354,-971261.668620,-683308.446465,0.000018,-0.000018,-0.000013
-1.160000,-1.120000,0.880033,0.080000,-5852.928727,303324.865041,-358223.901538,-1700198.126717,0.000006,-0.000006,-0.000032
-1.080000,-1.120000,0.880003,0.080000,-18071.737416,-1289472.939007,1276711.731834,-2066547.637293,-0.000024,0.000024,-0.000039
-1.000000,-1.120000,0.880081,0.080000,-21907.472553,-3121932.733328,3188418.781661,-910158.352938,-0.000059,0.000060,-0.000017
-0.920000,-1.120000,0.880038,0.080000,-6182.187766,-3789100.211603,3917052.098191,1787820.162189,-0.000072,0.000073,0.000034
-0.840000,-1.120000,0.880002,0.080000,32885.004815,-2144260.403325,2257282.554125,4770566.671585,-0.000041,0.000042,0.000090
-0.760000,-1.120000,0.880075,0.080000,84755.799212,1660789.480661,-1651284.483239,6042829.594647,0.000031,-0.000031,0.000114
-0.680000,-1.120000,0.880042,0.080000,125701.298698,5883498.508798,-6011883.530280,4159315.989974,0.000112,-0.000113,0.000078
-0.600000,-1.120000,0.880001,0.080000,129681.934078,8030992.389203,-8241086.069623,-604674.025335,0.000152,-0.000154,-0.000011
-0.520000,-1.120000,0.880069,0.080000,83737.015694,6387552.889735,-6557039.658318,-6091651.952511,0.000121,-0.000123,-0.000115
-0.440000,-1.120000,0.880047,0.080000,-1536.307963,1237148.801307,-1250589.651864,-9346872.785371,0.000023,-0.000023,-0.000176
-0.360000,-1.120000,0.880000,0.080000,-93909.895027,-5067158.665889,5243146.644906,-8336590.378223,-0.000096,0.000098,-0.000157
-0.280000,-1.120000,0.880063,0.080000,-154218.198069,-9309407.318451,9597660.778501,-3237185.901646,-0.000177,0.000179,-0.000061
-0.200000,-1.120000,0.880052,0.080000,-156310.379979,-9205080.535536,9455696.399788,3524798.736274,-0.000175,0.000177,0.000066
-0.120000,-1.120000,0.880000,0.080000,-101144.986189,-4722322.623371,4795567.295792,8544380.179086,-0.000089,0.000090,0.000161
-0.040000,-1.120000,0.880057,0.080000,-16870.348839,1853950.682228,-2007879.574586,9297418.507831,0.000036,-0.000037,0.000175
0.040000,-1.120000,0.880057,0.080000,55461.812035,7159830.424276,-7470530.996604,5519129.887710,0.000137,-0.000139,0.000104
0.120000,-1.120000,0.880000,0.080000,82835.080890,8583909.533356,-8897688.082162,-681278.836067,0.000163,-0.000166,-0.000013
0.200000,-1.120000,0.880052,0.080000,56481.364198,5652065.790392,-5815305.333208,-6020829.620706,0.000107,-0.000109,-0.000113
0.280000,-1.120000,0.880063,0.080000,-5215.775806,194197.784924,-136001.827754,-7858315.780210,0.000003,-0.000003,-0.000148
0.360000,-1.120000,0.880000,0.080000,-68139.286927,-4770442.438809,5003098.421981,-5585672.670372,-0.000091,0.000093,-0.000105
0.440000,-1.120000,0.880047,0.080000,-101238.903688,-6755397.422674,7029402.582344,-818976.640640,-0.000129,0.000131,-0.000015
0.520000,-1.120000,0.880069,0.080000,-92015.752667,-5124951.547980,5299950.564964,3672714.452853,-0.000098,0.000099,0.000069
0.600000,-1.120000,0.880001,0.080000,-50511.671601,-1261529.094625,1268211.511005,5616329.346509,-0.000024,0.000024,0.000106
0.680000,-1.120000,0.880042,0.080000,-760.536706,2447863.074655,-2577000.593474,4451897.177750,0.000047,-0.000048,0.000084
0.760000,-1.120000,0.880075,0.080000,34025.816952,4109288.573172,-4272956.381060,1414547.030710,0.000078,-0.000080,0.000027
0.840000,-1.120000,0.880002,0.080000,43265.201190,3337383.074150,-3436756.236349,-1469847.383637,0.000063,-0.000064,-0.000028
0.920000,-1.120000,0.880038,0.080000,31503.710003,1198156.132933,-1196362.814164,-2725369.089420,0.000023,-0.000023,-0.000051
1.000000,-1.120000,0.880081,0.080000,11915.086445,-746425.311272,815239.397395,-2190621.240694,-0.000014,0.000015,-0.000041
1.080000,-1.120000,0.880003,0.080000,-3344.067538,-1517589.587303,1588611.577166,-786612.116170,-0.000029,0.000030,-0.000015
1.160000,-1.120000,0.880033,0.080000,-9271.803456,-1161283.538695,1191047.415940,370011.667708,-0.000022,0.000022,0.000007
1.240000,-1.120000,0.880088,0.080000,-7875.811982,-380419.659522,369367.434672,742203.779799,-0.000007,0.000007,0.000014
1.320000,-1.120000,0.880004,0.080000,-3926.044080,168679.658147,-192950.501136,505300.719821,0.000003,-0.000003,0.000010
1.400000,-1.120000,0.880029,0.080000,-888.174045,292791.015202,-306798.669562,131911.150389,0.000006,-0.000006,0.000002
1.480000,-1.120000,0.880095,0.080000,363.236112,172790.774751,-172828.226649,-65620.558070,0.000003,-0.000003,-0.000001
1.560000,-1.120000,0.880006,0.080000,512.638885,35427.116297,-31111.348072,-63594.853961,0.000001,-0.000001,-0.000001
1.640000,-1.120000,0.860000,0.080000,420.928395,-54862.587924,53341.716575,21028.311792,-0.000001,0.000001,0.000000
1.720000,-1.120000,0.780000,0.080000,700.994015,-190452.499646,177371.633552,64736.671081,-0.000004,0.000003,0.000001
1.800000,-1.120000,0.700000,0.080000,2264.977149,-508961.867143,486769.094163,-161286.009634,-0.000009,0.000009,-0.000003
1.880000,-1.120000,0.620000,0.080000,7089.333536,-864104.858019,885271.911184,-1459723.808744,-0.000016,0.000017,-0.000028
1.960000,-1.120000,0.540000,0.080000,16667.375296,971106.374135,-665991.053722,-6514143.734452,0.000017,-0.000014,-0.000123
2.040000,-1.120000,0.460000,0.080000,15140.701076,17991364.379715,-17549497.168496,-19671237.489985,0.000336,-0.000333,-0.000371
2.120000,-1.120000,0.380000,0.080000,-126100.112731,108624776.384444,-109452689.733717,-42107141.965539,0.002051,-0.002057,-0.000793
-2.120000,-1.040000,0.380136,0.080000,-73270.996651,-85916175.837530,86588760.829145,-142757394.686962,-0.001623,0.001628,-0.002690
-2.040000,-1.040000,0.460112,0.080000,-82082.893586,-5526760.996836,5183883.004808,-40906623.122232,-0.000102,0.000100,-0.000771
-1.960000,-1.040000,0.540095,0.080000,-30984.553518,4329963.681345,-4551380.525984,-10740046.256202,0.000083,-0.000084,-0.000202
-1.880000,-1.040000,0.620083,0.080000,-3534.383532,2786260.279460,-2695835.253176,-1834680.938359,0.000052,-0.000051,-0.000035
-1.800000,-1.040000,0.700074,0.080000,6175.445797,1115342.026822,-1049197.157093,7778.731558,0.000021,-0.000020,0.000000
-1.720000,-1.040000,0.780066,0.080000,8461.834964,316726.865245,-286106.092382,222067.248187,0.000006,-0.000006,0.000004
-1.640000,-1.040000,0.860060,0.080000,8554.961656,27569.473963,-14621.810783,152001.108325,0.000000,-0.000000,0.000003
-1.560000,-1.040000,0.940055,0.080000,8401.288089,-34630.454285,42330.258859,111578.975796,-0.000001,0.000001,0.000002
-1.480000,-1.040000,0.960087,0.080000,8432.793126,27273.744805,-21049.388896,117166.094310,0.000000,-0.000000,0.000002
-1.400000,-1.040000,0.960027,0.080000,8263.921540,176129.175534,-174972.883015,77623.567826,0.000003,-0.000003,0.000001
-1.320000,-1.040000,0.960004,0.080000,6974.450398,318775.582280,-328562.582674,-119806.544321,0.000006,-0.000006,-0.000002
-1.240000,-1.040000,0.960081,0.080000,3723.847725,265327.401625,-285514.506059,-486671.183312,0.000005,-0.000005,-0.000009
-1.160000,-1.040000,0.960031,0.080000,-1072.530949,-162464.337871,144579.228508,-822170.942690,-0.000003,0.000003,-0.000015
-1.080000,-1.040000,0.960002,0.080000,-4686.655951,-919552.072238,923570.932939,-755007.554457,-0.000017,0.000017,-0.000014
-1.000000,-1.040000,0.960075,0.080000,-2424.036539,-1610129.541226,1646749.816114,1377.066193,-0.000031,0.000031,0.000000
-0.920000,-1.040000,0.960035,0.080000,9889.363276,-1632472.233734,1689170.001305,1325971.294305,-0.000031,0.000032,0.000025
-0.840000,-1.040000,0.960001,0.080000,32211.340596,-584253.229978,626885.107495,2580168.972829,-0.000011,0.000012,0.000049
-0.760000,-1.040000,0.960069,0.080000,57877.726610,1334953.898691,-1341424.043600,2889400.091692,0.000025,-0.000025,0.000054
-0.680000,-1.040000,0.960039,0.080000,74930.445014,3259141.994295,-3323737.968452,1702887.596812,0.000062,-0.000062,0.000032
-0.600000,-1.040000,0.960001,0.080000,71527.006453,4063112.377416,-4155930.305468,-734362.916795,0.000077,-0.000078,-0.000014
-0.520000,-1.040000,0.960063,0.080000,42885.872249,3037004.049691,-3102186.009420,-3359738.668543,0.000058,-0.000058,-0.000063
-0.440000,-1.040000,0.960043,0.080000,-4396.136634,402518.031766,-391175.777089,-4806468.618770,0.000008,-0.000007,-0.000091
-0.360000,-1.040000,0.960000,0.080000,-53813.728111,-2689294.415743,2786544.534761,-4177472.447736,-0.000051,0.000052,-0.000079
-0.280000,-1.040000,0.960058,0.080000,-86155.740960,-4724681.140063,4866838.232330,-1612360.612262,-0.000090,0.000091,-0.000030
-0.200000,-1.040000,0.960048,0.080000,-88903.712658,-4649094.020209,4763843.817173,1713768.512257,-0.000088,0.000089,0.000032
-0.120000,-1.040000,0.960000,0.080000,-62730.119604,-2467340.721222,2490064.774463,4185544.891187,-0.000047,0.000047,0.000079
-0.040000,-1.040000,0.960053,0.080000,-21394.254194,733139.483892,-822687.749966,4608017.126723,0.000014,-0.000015,0.000087
0.040000,-1.040000,0.960053,0.080000,15079.410999,3357405.573934,-3522045.075489,2845477.964737,0.000064,-0.000065,0.000054
0.120000,-1.040000,0.960000,0.080000,30346.380407,4153609.406125,-4317182.395625,-121720.058564,0.000079,-0.000080,-0.000002
0.200000,-1.040000,0.960048,0.080000,19519.940029,2861414.107776,-2948693.792166,-2748362.237278,0.000054,-0.000055,-0.000052
0.280000,-1.040000,0.960058,0.080000,-9239.509889,301838.396186,-277641.355136,-3764536.617497,0.000006,-0.000005,-0.000071
0.360000,-1.040000,0.960000,0.080000,-39867.120238,-2124157.831247,2238409.828358,-2828403.997579,-0.000041,0.000042,-0.000053
0.440000,-1.040000,0.960043,0.080000,-57139.354520,-3223832.739731,3364850.723916,-634497.462949,-0.000062,0.000063,-0.000012
0.520000,-1.040000,0.960063,0.080000,-54118.509711,-2628910.463761,2728202.073518,1555208.216053,-0.000050,0.000051,0.000029
0.600000,-1.040000,0.960001,0.080000,-34464.695050,-900236.535193,920740.271820,2653730.874616,-0.000017,0.000017,0.000050
0.680000,-1.040000,0.960039,0.080000,-8962.011431,899864.231358,-948389.903131,2315536.310876,0.000017,-0.000018,0.000044
0.760000,-1.040000,0.960069,0.080000,11090.890239,1867397.059351,-1941556.869015,1011273.019208,0.000036,-0.000036,0.000019
0.840000,-1.040000,0.960001,0.080000,19532.373992,1729254.860518,-1782825.894839,-379427.031910,0.000033,-0.000033,-0.000007
0.920000,-1.040000,0.960035,0.080000,17089.977438,865651.201999,-876647.651352,-1146048.127465,0.000016,-0.000016,-0.000022
1.000000,-1.040000,0.960075,0.080000,9070.936137,-61578.148267,84274.373871,-1110656.394697,-0.000001,0.000001,-0.000021
1.080000,-1.040000,0.960002,0.080000,1269.833403,-566966.997874,598009.741646,-585370.061623,-0.000011,0.000011,-0.000011
1.160000,-1.040000,0.960031,0.080000,-3076.605307,-570240.638672,588972.506265,-38151.804868,-0.000011,0.000011,-0.000001
1.240000,-1.040000,0.960081,0.080000,-3848.966810,-301148.200314,303095.623638,239308.196937,-0.000006,0.000006,0.000005
1.320000,-1.040000,0.960004,0.080000,-2669.321035,-37500.558896,30812.885717,237843.421084,-0.000001,0.000001,0.000004
1.400000,-1.040000,0.960027,0.080000,-1185.290643,87912.847240,-93479.140023,113083.712560,0.000002,-0.000002,0.000002
1.480000,-1.040000,0.960087,0.080000,-216.402852,100921.944851,-101550.103503,12763.877092,0.000002,-0.000002,0.000000
1.560000,-1.040000,0.940055,0.080000,122.238124,82255.295805,-80453.764860,994.930203,0.000002,-0.000002,0.000000
1.640000,-1.040000,0.860060,0.080000,-59.427921,60158.728113,-63122.907504,96826.325945,0.000001,-0.000001,0.000002
1.720000,-1.040000,0.780066,0.080000,-579.549361,-78488.950853,54095.718066,338886.143029,-0.000001,0.000001,0.000006
1.800000,-1.040000,0.700074,0.080000,-398.879366,-774849.664009,683253.055249,735062.155505,-0.000014,0.000013,0.000014
1.880000,-1.040000,0.620083,0.080000,5374.797620,-3308079.080698,3030632.617748,723733.405080,-0.000061,0.000059,0.000014
1.960000,-1.040000,0.540095,0.080000,34003.325085,-10978314.400632,10713024.134852,-4089373.486867,-0.000205,0.000203,-0.000077
2.040000,-1.040000,0.460112,0.080000,135045.114798,-28675038.327417,28370186.682284,-31390323.489844,-0.000539,0.000536,-0.000591
2.120000,-1.040000,0.380136,0.080000,418488.160885,-50959118.504784,51381267.214509,-167607022.049797,-0.000962,0.000966,-0.003158
-2.120000,-0.960000,0.380136,0.080000,-806269.337387,177692927.088977,-178859362.794402,-160064547.432456,0.003354,-0.003363,-0.003016
-2.040000,-0.960000,0.460112,0.080000,-211008.114974,62452406.861908,-61627324.068711,-22576197.379035,0.001172,-0.001166,-0.000425
-1.960000,-0.960000,0.540095,0.080000,-35738.775795,19548806.971903,-18905576.856719,1057110.299918,0.000365,-0.000360,0.000020
-1.880000,-0.960000,0.620083,0.080000,6841.556159,5193889.524164,-4721717.072120,3082403.468125,0.000095,-0.000092,0.000058
-1.800000,-0.960000,0.700074,0.080000,12794.208669,1025178.091497,-879909.219143,1698293.189898,0.000018,-0.000017,0.000032
-1.720000,-0.960000,0.780066,0.080000,11113.134084,-5265.716530,44411.607514,696370.198835,-0.000000,0.000001,0.000013
-1.640000,-0.960000,0.860060,0.080000,9169.067899,-150355.853567,158951.454820,231520.812228,-0.000003,0.000003,0.000004
-1.560000,-0.960000,0.940055,0.080000,8124.085427,-91305.282512,93084.399672,66514.480454,-0.000002,0.000002,0.000001
-1.480000,-0.960000,1.020050,0.080000,7658.517115,243.251429,226.683874,15910.344918,0.000000,0.000000,0.000000
-1.400000,-0.960000,1.040025,0.080000,7200.746669,82587.402359,-84280.224050,-34526.142105,0.000002,-0.000002,-0.000001
-1.320000,-0.960000,1.040003,0.080000,6240.640605,111612.042090,-117116.517679,-141178.941617,0.000002,-0.000002,-0.000003
-1.240000,-0.960000,1.040075,0.080000,4619.527009,19955.493471,-27823.575806,-284973.354274,0.000000,-0.000000,-0.000005
-1.160000,-0.960000,1.040028,0.080000,2941.170226,-230844.650963,226505.032452,-357724.469924,-0.000004,0.000004,-0.000007
-1.080000,-0.960000,1.040002,0.080000,2785.490998,-571578.082534,578029.850422,-207871.814658,-0.000011,0.000011,-0.000004
-1.000000,-0.960000,1.040069,0.080000,6251.141931,-798160.265262,817682.802520,243365.772231,-0.000015,0.000015,0.000005
-0.920000,-0.960000,1.040032,0.080000,14679.587137,-657368.295230,682543.154847,882518.330864,-0.000013,0.000013,0.000017
-0.840000,-0.960000,1.040001,0.080000,27105.126156,-23487.949813,39256.045806,1388598.747966,-0.000001,0.000001,0.000026
-0.760000,-0.960000,1.040064,0.080000,39519.193868,948547.041495,-955594.208943,1378961.350119,0.000018,-0.000018,0.000026
-0.680000,-0.960000,1.040036,0.080000,45875.008788,1825311.388190,-1856116.636961,655007.997671,0.000035,-0.000035,0.000012
-0.600000,-0.960000,1.040001,0.080000,40794.226332,2095065.701583,-2133939.539051,-609310.530602,0.000040,-0.000040,-0.000011
-0.520000,-0.960000,1.040058,0.080000,22722.924394,1468993.431482,-1490547.860927,-1883633.668537,0.000028,-0.000028,-0.000035
-0.440000,-0.960000,1.040040,0.080000,-4323.458730,98293.780801,-82413.276905,-2528653.595537,0.000002,-0.000002,-0.000048
-0.360000,-0.960000,1.040000,0.080000,-31751.479936,-1445471.362684,1499662.616378,-2148269.578726,-0.000028,0.000028,-0.000040
-0.280000,-0.960000,1.040053,0.080000,-49972.380932,-2441058.189077,2511455.592257,-838962.221692,-0.000046,0.000047,-0.000016
-0.200000,-0.960000,1.040044,0.080000,-52882.565694,-2397472.511006,2448825.778012,822381.967796,-0.000045,0.000046,0.000015
-0.120000,-0.960000,1.040000,0.080000,-40884.009068,-1327438.737069,1329885.794567,2060773.032406,-0.000025,0.000025,0.000039
-0.040000,-0.960000,1.040049,0.080000,-20759.371489,246108.594520,-300158.341509,2304629.256575,0.000005,-0.000005,0.000043
0.040000,-0.960000,1.040049,0.080000,-2379.434142,1559704.450178,-1650095.158300,1483347.386171,0.000030,-0.000031,0.000028
0.120000,-0.960000,1.040000,0.080000,6066.934081,2006978.200366,-2095187.863204,55340.115547,0.000038,-0.000039,0.000001
0.200000,-0.960000,1.040044,0.080000,1843.265269,1444408.203308,-1492865.343512,-1246319.995034,0.000027,-0.000028,-0.000023
0.280000,-0.960000,1.040053,0.080000,-11460.739346,240077.942348,-230882.743102,-1804937.177023,0.000004,-0.000004,-0.000034
0.360000,-0.960000,1.040000,0.080000,-26246.344100,-951840.458382,1008959.219421,-1429167.088409,-0.000018,0.000019,-0.000027
0.440000,-0.960000,1.040040,0.080000,-35002.302798,-1553715.054962,1628219.540445,-414602.287670,-0.000030,0.000030,-0.000008
0.520000,-0.960000,1.040058,0.080000,-33919.571965,-1355741.344999,1413483.740642,660497.945361,-0.000026,0.000026,0.000012
0.600000,-0.960000,1.040001,0.080000,-24209.701666,-579575.508450,600252.589582,1271386.323420,-0.000011,0.000011,0.000024
0.680000,-0.960000,1.040036,0.080000,-10729.268546,300235.954123,-315107.054069,1213958.156579,0.000006,-0.000006,0.000023
0.760000,-0.960000,1.040064,0.080000,980.987667,848776.860125,-880856.598903,658628.132530,0.000016,-0.000016,0.000012
0.840000,-0.960000,1.040001,0.080000,7423.182420,893828.226444,-921342.809817,-12367.805139,0.000017,-0.000017,-0.000000
0.920000,-0.960000,1.040032,0.080000,8242.970111,559588.767996,-569898.835406,-456094.491927,0.000011,-0.000011,-0.000009
1.000000,-0.960000,1.040069,0.080000,5482.710957,124659.560841,-118578.686177,-543566.508928,0.000002,-0.000002,-0.000010
1.080000,-0.960000,1.040002,0.080000,1857.532489,-173690.652642,186708.225964,-368246.563558,-0.000003,0.000003,-0.000007
1.160000,-0.960000,1.040028,0.080000,-733.596184,-255925.156540,266389.568358,-122740.562751,-0.000005,0.000005,-0.000002
1.240000,-0.960000,1.040075,0.080000,-1729.857230,-186033.293661,190144.379324,43325.480330,-0.000004,0.000004,0.000001
1.320000,-0.960000,1.040003,0.080000,-1535.189556,-75739.883767,75387.908050,88262.406026,-0.000001,0.000001,0.000002
1.400000,-0.960000,1.040025,0.080000,-832.122503,3776.599067,-4567.545973,51984.685801,0.000000,-0.000000,0.000001
1.480000,-0.960000,1.020050,0.080000,-132.302913,50481.997073,-48641.506664,-5649.070223,0.000001,-0.000001,-0.000000
1.560000,-0.960000,0.940055,0.080000,246.744293,110997.693745,-105145.876943,-36159.786828,0.000002,-0.000002,-0.000001
1.640000,-0.960000,0.860060,0.080000,-103.510876,245746.670395,-236576.421132,30678.199141,0.000005,-0.000005,0.000001
1.720000,-0.960000,0.780066,0.080000,-2048.309129,468404.235961,-465487.836978,403211.092370,0.000009,-0.000009,0.000008
1.800000,-0.960000,0.700074,0.080000,-6910.610497,497151.194525,-551356.644073,1681537.614158,0.000010,-0.000010,0.000032
1.880000,-0.960000,0.620083,0.080000,-14298.202890,-1306413.718720,980528.863657,5340850.511355,-0.000023,0.000020,0.000101
1.960000,-0.960000,0.540095,0.080000,-10183.931100,-12355595.332332,11539511.567967,14408717.046260,-0.000228,0.000222,0.000271
2.040000,-0.960000,0.460112,0.080000,84019.152198,-60920126.216284,59836792.460346,29471538.372136,-0.001142,0.001133,0.000555
2.120000,-0.960000,0.380136,0.080000,611314.381165,-246737664.207296,248728318.893888,30276364.470366,-0.004660,0.004675,0.000570
-2.120000,-0.880000,0.380000,0.080000,-510490.990966,274919011.073734,-276981874.736557,170163519.216281,0.005191,-0.005207,0.003206
-2.040000,-0.880000,0.460000,0.080000,6455.586371,63813664.992894,-62524502.907695,70052009.239690,0.001195,-0.001185,0.001320
-1.960000,-0.880000,0.540000,0.080000,65047.130452,10388059.960159,-9435773.564657,27200025.911044,0.000190,-0.000183,0.000512
-1.880000,-0.880000,0.620000,0.080000,44569.141543,-530638.384727,864376.535507,9031060.214203,-0.000012,0.000014,0.000170
-1.800000,-0.880000,0.700000,0.080000,24158.778253,-1571244.817066,1609587.387748,2693260.865319,-0.000030,0.000030,0.000051
-1.720000,-0.880000,0.780000,0.080000,13247.552090,-994747.372182,979800.019077,609242.044042,-0.000019,0.000019,0.000011
-1.640000,-0.880000,0.860000,0.080000,8723.166748,-463714.152321,448670.779913,27281.644055,-0.000009,0.000009,0.000001
-1.560000,-0.880000,0.940000,0.080000,7251.177111,-164639.341438,156494.563879,-81320.391033,-0.000003,0.000003,-0.000002
-1.480000,-0.880000,1.020000,0.080000,6891.506157,-20879.844590,17234.474355,-77154.879247,-0.000000,0.000000,-0.000001
-1.400000,-0.880000,1.100000,0.080000,6701.717080,36197.014773,-38440.550532,-77759.612482,0.000001,-0.000001,-0.000001
-1.320000,-0.880000,1.120003,0.080000,6310.750391,28971.417114,-31479.730059,-108352.645166,0.000001,-0.000001,-0.000002
-1.240000,-0.880000,1.120069,0.080000,5768.307232,-46512.836462,44251.939521,-144343.079432,-0.000001,0.000001,-0.000003
-1.160000,-0.880000,1.120026,0.080000,5555.570200,-182503.161916,182873.353000,-127712.531542,-0.000003,0.000003,-0.000002
-1.080000,-0.880000,1.120002,0.080000,6521.631087,-325658.251544,331123.494737,1820.310049,-0.000006,0.000006,0.000000
-1.000000,-0.880000,1.120064,0.080000,9539.985842,-374939.543255,385456.646596,256002.029368,-0.000007,0.000007,0.000005
-0.920000,-0.880000,1.120030,0.080000,14879.553375,-227564.125819,239141.209921,556593.552336,-0.000004,0.000004,0.000010
-0.840000,-0.880000,1.120001,0.080000,21579.287769,144536.233542,-138385.476836,744054.801188,0.000003,-0.000003,0.000014
-0.760000,-0.880000,1.120059,0.080000,27296.370928,638424.552009,-642540.141740,652392.143241,0.000012,-0.000012,0.000012
-0.680000,-0.880000,1.120033,0.080000,28965.805964,1035945.491381,-1049254.029481,217744.917178,0.000020,-0.000020,0.000004
-0.600000,-0.880000,1.120001,0.080000,24161.507539,1103002.713919,-1117438.092972,-447645.098414,0.000021,-0.000021,-0.000008
-0.520000,-0.880000,1.120054,0.080000,12537.441272,725365.786625,-729557.014670,-1075930.592515,0.000014,-0.000014,-0.000020
-0.440000,-0.880000,1.120037,0.080000,-3489.809575,-635.228217,14529.055412,-1364703.030079,-0.000000,0.000000,-0.000026
-0.360000,-0.880000,1.120000,0.080000,-19368.581088,-787088.159803,817463.949260,-1138917.274265,-0.000015,0.000015,-0.000021
-0.280000,-0.880000,1.120050,0.080000,-30219.268787,-1285787.813232,1320588.304316,-460641.387132,-0.000024,0.000025,-0.000009
-0.200000,-0.880000,1.120041,0.080000,-32997.908503,-1265643.966202,1287519.908997,383051.364267,-0.000024,0.000024,0.000007
-0.120000,-0.880000,1.120000,0.080000,-27914.357844,-737923.375820,733131.440137,1015751.118680,-0.000014,0.000014,0.000019
-0.040000,-0.880000,1.120045,0.080000,-18334.267682,43250.828943,-77064.101244,1160718.519339,0.000001,-0.000001,0.000022
0.040000,-0.880000,1.120045,0.080000,-9172.391477,708611.531993,-760211.509187,780478.514039,0.000014,-0.000014,0.000015
0.120000,-0.880000,1.120000,0.080000,-4580.288080,961104.852097,-1010529.713524,90698.243176,0.000018,-0.000019,0.000002
0.200000,-0.880000,1.120041,0.080000,-6097.579449,721288.882556,-749333.115047,-557897.519839,0.000014,-0.000014,-0.000011
0.280000,-0.880000,1.120050,0.080000,-12169.556253,153908.563744,-151210.737372,-862809.620574,0.000003,-0.000003,-0.000016
0.360000,-0.880000,1.120000,0.080000,-19191.111551,-433612.329740,462666.340679,-717411.664449,-0.000008,0.000009,-0.000014
0.440000,-0.880000,1.120037,0.080000,-23439.227255,-759055.715971,799487.502530,-245828.053370,-0.000015,0.000015,-0.000005
0.520000,-0.880000,1.120054,0.080000,-22844.510916,-704544.768459,738947.621318,285599.961721,-0.000013,0.000014,0.000005
0.600000,-0.880000,1.120001,0.080000,-17733.156970,-354195.140741,371210.268225,621459.016881,-0.000007,0.000007,0.000012
0.680000,-0.880000,1.120033,0.080000,-10303.819048,79471.870196,-80906.872762,644693.930950,0.000002,-0.000002,0.000012
0.760000,-0.880000,1.120059,0.080000,-3297.328341,385935.377320,-398311.973391,411439.641692,0.000007,-0.000007,0.000008
0.840000,-0.880000,1.120001,0.080000,1327.594997,463102.961798,-476170.168887,87424.502611,0.000009,-0.000009,0.000002
0.920000,-0.880000,1.120030,0.080000,3046.357370,344014.086640,-350707.445704,-161651.623763,0.000007,-0.000007,-0.000003
1.000000,-0.880000,1.120064,0.080000,2576.125737,144221.865776,-143298.632989,-254505.813971,0.000003,-0.000003,-0.000005
1.080000,-0.880000,1.120002,0.080000,1161.063917,-22106.133129,27445.726559,-210660.219936,-0.000000,0.000000,-0.000004
1.160000,-0.880000,1.120026,0.080000,-144.300363,-100545.280432,106106.604768,-106904.216130,-0.000002,0.000002,-0.000002
1.240000,-0.880000,1.120069,0.080000,-826.486150,-102199.483157,105574.270472,-17244.932356,-0.000002,0.000002,-0.000000
1.320000,-0.880000,1.120003,0.080000,-856.051174,-70167.868551,71414.751030,21843.649211,-0.000001,0.000001,0.000000
1.400000,-0.880000,1.100000,0.080000,-425.508385,-39415.829133,40218.946284,8310.223936,-0.000001,0.000001,0.000000
1.480000,-0.880000,1.020000,0.080000,267.288652,-11583.975026,14579.549191,-49658.285889,-0.000000,0.000000,-0.000001
1.560000,-0.880000,0.940000,0.080000,1025.797639,60965.762478,-51189.643475,-151069.660873,0.000001,-0.000001,-0.000003
1.640000,-0.880000,0.860000,0.080000,1338.948794,310459.660432,-283853.682770,-282857.440889,0.000006,-0.000005,-0.000005
1.720000,-0.880000,0.780000,0.080000,-495.699207,1046105.366239,-981078.450776,-300455.822229,0.000019,-0.000019,-0.000006
1.800000,-0.880000,0.700000,0.080000,-9406.039784,2921441.367271,-2780491.276530,508091.364168,0.000054,-0.000053,0.000010
1.880000,-0.880000,0.620000,0.080000,-37752.881433,7023995.642573,-6780873.241363,4905740.372564,0.000131,-0.000129,0.000092
1.960000,-0.880000,0.540000,0.080000,-111902.004527,13897769.631072,-14037939.046314,24039154.934819,0.000263,-0.000264,0.000453
2.040000,-0.880000,0.460000,0.080000,-272362.706271,15243199.369429,-15516223.809555,88985892.462046,0.000289,-0.000291,0.001677
2.120000,-0.880000,0.380000,0.080000,-509839.861068,-39808665.246282,40175992.504997,325249291.034107,-0.000752,0.000755,0.006128
-2.120000,-0.800000,0.380106,0.080000,1241862.873482,-91489669.196870,91852127.854761,404043213.477465,-0.001726,0.001728,0.007612
-2.040000,-0.800000,0.460087,0.080000,535243.920708,-59819688.755630,59602039.409909,110092628.880876,-0.001126,0.001124,0.002074
-1.960000,-0.800000,0.540074,0.080000,208292.101081,-29734234.533059,29527745.887217,28916405.794264,-0.000559,0.000557,0.000545
-1.880000,-0.800000,0.620065,0.080000,74190.517860,-12765273.441666,12241327.436059,5251364.722540,-0.000238,0.000234,0.000099
-1.800000,-0.800000,0.700057,0.080000,24856.608723,-5015437.774237,4769525.552201,52809.790621,-0.000093,0.000091,0.000001
-1.720000,-0.800000,0.780051,0.080000,9174.244959,-1768081.462473,1663006.542250,-727022.259169,-0.000033,0.000032,-0.000014
-1.640000,-0.800000,0.860047,0.080000,5496.160439,-520965.209374,479519.865929,-554883.270287,-0.000010,0.000009,-0.000010
-1.560000,-0.800000,0.940043,0.080000,5433.357041,-88773.868097,74031.575892,-308349.035501,-0.000002,0.000001,-0.000006
-1.480000,-0.800000,1.020039,0.080000,6047.726748,35734.114818,-40165.088397,-152821.115161,0.000001,-0.000001,-0.000003
-1.400000,-0.800000,1.100036,0.080000,6477.536315,49240.245564,-50274.684795,-83233.945283,0.000001,-0.000001,-0.000002
-1.320000,-0.800000,1.180034,0.080000,6616.318510,16723.632619,-16868.647238,-63855.584695,0.000000,-0.000000,-0.000001
-1.240000,-0.800000,1.200065,0.080000,6667.317054,-43646.872423,44153.602222,-55169.472316,-0.000001,0.000001,-0.000001
-1.160000,-0.800000,1.200024,0.080000,7011.612041,-117090.409885,119090.303730,-19107.498178,-0.000002,0.000002,-0.000000
-1.080000,-0.800000,1.200002,0.080000,8105.850010,-171913.478295,176163.089031,69663.300896,-0.000003,0.000003,0.000001
-1.000000,-0.800000,1.200060,0.080000,10280.149746,-161404.920481,167481.325164,205531.827832,-0.000003,0.000003,0.000004
-0.920000,-0.800000,1.200028,0.080000,13449.023296,-47263.889966,53184.461673,340628.965371,-0.000001,0.000001,0.000006
-0.840000,-0.800000,1.200001,0.080000,16881.252132,167514.235433,-164432.608989,396480.560867,0.000003,-0.000003,0.000007
-0.760000,-0.800000,1.200055,0.080000,19230.065182,419131.834518,-420451.585059,302245.531619,0.000008,-0.000008,0.000006
-0.680000,-0.800000,1.200031,0.080000,18939.017948,597197.006700,-601732.437904,42878.057493,0.000011,-0.000011,0.000001
-0.600000,-0.800000,1.200001,0.080000,14929.679407,594200.455219,-597919.449572,-312754.412843,0.000011,-0.000011,-0.000006
-0.520000,-0.800000,1.200051,0.080000,7261.543721,367192.347894,-365156.316000,-627910.411865,0.000007,-0.000007,-0.000012
-0.440000,-0.800000,1.200035,0.080000,-2616.375676,-24753.366889,35273.835369,-757921.331623,-0.000001,0.000001,-0.000014
-0.360000,-0.800000,1.200000,0.080000,-12248.757811,-434546.247298,451627.681195,-625417.817369,-0.000008,0.000008,-0.000012
-0.280000,-0.800000,1.200046,0.080000,-19098.065863,-691661.761210,708664.524472,-268673.960659,-0.000013,0.000013,-0.000005
-0.200000,-0.800000,1.200038,0.080000,-21603.870563,-685889.055136,694206.213567,167517.184075,-0.000013,0.000013,0.000003
-0.120000,-0.800000,1.200000,0.080000,-19856.963814,-425078.968333,418453.953138,497896.119070,-0.000008,0.000008,0.000009
-0.040000,-0.800000,1.200042,0.080000,-15533.457586,-33998.207947,12117.514196,586618.798809,-0.000001,0.000000,0.000011
0.040000,-0.800000,1.200042,0.080000,-11102.239231,306788.104732,-337478.819069,413318.242918,0.000006,-0.000006,0.000008
0.120000,-0.800000,1.200000,0.080000,-8691.477479,450005.532312,-478873.592497,80036.401954,0.000009,-0.000009,0.000002
0.200000,-0.800000,1.200038,0.080000,-9171.204073,351484.979258,-368446.842592,-243980.169166,0.000007,-0.000007,-0.000005
0.280000,-0.800000,1.200046,0.080000,-11885.788492,84695.936125,-84703.153476,-408883.170571,0.000002,-0.000002,-0.000008
0.360000,-0.800000,1.200000,0.080000,-15123.615774,-205002.169116,220005.325649,-355487.316760,-0.000004,0.000004,-0.000007
0.440000,-0.800000,1.200035,0.080000,-17035.141007,-378618.772678,401157.630447,-134901.618609,-0.000007,0.000007,-0.000003
0.520000,-0.800000,1.200051,0.080000,-16508.620943,-370659.910150,391659.353457,129613.509344,-0.000007,0.000007,0.000002
0.600000,-0.800000,1.200001,0.080000,-13583.389233,-210907.743383,223890.747888,312841.447846,-0.000004,0.000004,0.000006
0.680000,-0.800000,1.200031,0.080000,-9264.266365,5349.907405,-1949.323865,349013.128484,0.000000,-0.000000,0.000007
0.760000,-0.800000,1.200055,0.080000,-4922.913144,175721.551836,-179034.917269,252976.566968,0.000003,-0.000003,0.000005
0.840000,-0.800000,1.200001,0.080000,-1651.393943,241897.451521,-247150.207159,96203.960782,0.000005,-0.000005,0.000002
0.920000,-0.800000,1.200028,0.080000,110.646736,207306.832670,-210646.720188,-41151.619545,0.000004,-0.000004,-0.000001
1.000000,-0.800000,1.200060,0.080000,562.059207,118632.835181,-118676.613457,-111100.413347,0.000002,-0.000002,-0.000002
1.080000,-0.800000,1.200002,0.080000,252.136863,29830.068752,-27439.591026,-110966.523980,0.000001,-0.000001,-0.000002
1.160000,-0.800000,1.200024,0.080000,-257.949180,-26964.574302,30000.116969,-69264.009248,-0.000001,0.000001,-0.000001
1.240000,-0.800000,1.200065,0.080000,-601.068232,-49825.129463,52070.836315,-20926.020966,-0.000001,0.000001,-0.000000
1.320000,-0.800000,1.180034,0.080000,-621.756889,-57255.216462,58169.684652,9425.995008,-0.000001,0.000001,0.000000
1.400000,-0.800000,1.100036,0.080000,-263.956326,-71959.885250,71827.165964,6922.307404,-0.000001,0.000001,0.000000
1.480000,-0.800000,1.020039,0.080000,569.482604,-105985.407781,106101.665200,-50304.941020,-0.000002,0.000002,-0.000001
1.560000,-0.800000,0.940043,0.080000,2087.076265,-139339.391361,143983.954398,-220287.467164,-0.000003,0.000003,-0.000004
1.640000,-0.800000,0.860047,0.080000,4458.875100,-55036.578460,78452.119403,-638580.880427,-0.000001,0.000001,-0.000012
1.720000,-0.800000,0.780051,0.080000,6995.338869,572999.496706,-485900.874034,-1563529.854319,0.000010,-0.000010,-0.000029
1.800000,-0.800000,0.700057,0.080000,5198.006642,3128967.014239,-2843164.150929,-3337104.108370,0.000057,-0.000055,-0.000063
1.880000,-0.800000,0.620065,0.080000,-18761.455318,11878416.750801,-10998426.523369,-5798669.074175,0.000219,-0.000212,-0.000109
1.960000,-0.800000,0.540074,0.080000,-125307.093698,40292520.023399,-39079673.696702,-4418282.464723,0.000752,-0.000743,-0.000083
2.040000,-0.800000,0.460087,0.080000,-505506.100716,126769279.297214,-125271688.298553,21880956.093537,0.002380,-0.002369,0.000412
2.120000,-0.800000,0.380106,0.080000,-1746351.323134,380828290.705847,-383912176.179527,174448366.150069,0.007192,-0.007216,0.003287
-2.120000,-0.720000,0.380169,0.080000,2376007.891283,-510714570.189349,514227121.124098,89373642.594025,-0.009642,0.009668,0.001684
-2.040000,-0.720000,0.460140,0.080000,692777.455916,-171749831.827768,169626030.973279,-8607761.282090,-0.003224,0.003208,-0.000162
-1.960000,-0.720000,0.540119,0.080000,173855.969386,-55035200.654461,53398095.894108,-17316228.321156,-0.001028,0.001015,-0.000326
-1.880000,-0.720000,0.620104,0.080000,28379.444537,-16349427.830421,15154105.612381,-11369842.262075,-0.000301,0.000292,-0.000214
-1.800000,-0.720000,0.700092,0.080000,-3540.625712,-4316730.522003,3923616.271025,-5844672.165086,-0.000079,0.000076,-0.000110
-1.720000,-0.720000,0.780082,0.080000,-4919.754652,-755927.238220,632897.987833,-2679678.471243,-0.000014,0.000013,-0.000050
-1.640000,-0.720000,0.860075,0.080000,-550.087302,131932.495394,-166185.143901,-1122529.491101,0.000003,-0.000003,-0.000021
-1.560000,-0.720000,0.940068,0.080000,3236.487038,248155.655231,-254749.092884,-425090.712040,0.000005,-0.000005,-0.000008
-1.480000,-0.720000,1.020063,0.080000,5498.783586,183915.292918,-182921.055931,-140012.499657,0.000003,-0.000003,-0.000003
-1.400000,-0.720000,1.100058,0.080000,6596.593353,101648.466807,-99268.077963,-38260.927411,0.000002,-0.000002,-0.000001
-1.320000,-0.720000,1.180055,0.080000,7048.391012,32508.723811,-30268.745814,-8602.379045,0.000001,-0.000001,-0.000000
-1.240000,-0.720000,1.260051,0.080000,7297.901222,-24042.768316,26218.862859,4728.094760,-0.000000,0.000000,0.000000
-1.160000,-0.720000,1.280023,0.080000,7706.230703,-66906.874738,69548.326270,31226.565246,-0.000001,0.000001,0.000001
-1.080000,-0.720000,1.280002,0.080000,8541.949752,-84484.073808,87932.384265,82208.544905,-0.000002,0.000002,0.000002
-1.000000,-0.720000,1.280056,0.080000,9908.938053,-58981.606424,62979.950028,149319.363238,-0.000001,0.000001,0.000003
-0.920000,-0.720000,1.280026,0.080000,11638.393196,20597.424606,-16932.329368,204454.131331,0.000000,-0.000000,0.000004
-0.840000,-0.720000,1.280001,0.080000,13225.621463,143805.134649,-141503.650600,209066.697217,0.000003,-0.000003,0.000004
-0.760000,-0.720000,1.280052,0.080000,13901.115601,272474.453540,-271922.840442,133587.860031,0.000005,-0.000005,0.000003
-0.680000,-0.720000,1.280029,0.080000,12872.151830,350463.304854,-350816.410171,-21277.236358,0.000007,-0.000007,-0.000000
-0.600000,-0.720000,1.280001,0.080000,9671.762538,328339.963598,-327664.501564,-214516.897339,0.000006,-0.000006,-0.000004
-0.520000,-0.720000,1.280047,0.080000,4460.814035,191528.709434,-187807.706457,-375616.259549,0.000004,-0.000004,-0.000007
-0.440000,-0.720000,1.280032,0.080000,-1890.156732,-24509.674366,31969.739891,-434582.209029,-0.000001,0.000001,-0.000008
-0.360000,-0.720000,1.280000,0.080000,-8030.260775,-243539.321192,253142.827101,-357257.721944,-0.000005,0.000005,-0.000007
-0.280000,-0.720000,1.280043,0.080000,-12607.407786,-380739.242302,388801.941957,-166634.487791,-0.000007,0.000007,-0.000003
-0.200000,-0.720000,1.280036,0.080000,-14794.805453,-382698.498471,384929.087789,63269.641096,-0.000007,0.000007,0.000001
-0.120000,-0.720000,1.280000,0.080000,-14616.184119,-254267.518828,247885.000428,239982.649288,-0.000005,0.000005,0.000005
-0.040000,-0.720000,1.280040,0.080000,-12905.159305,-57295.280613,42686.310326,295798.085143,-0.000001,0.000001,0.000006
0.040000,-0.720000,1.280040,0.080000,-10910.240034,118937.021879,-137963.844908,219360.096531,0.000002,-0.000002,0.000004
0.120000,-0.720000,1.280000,0.080000,-9732.810019,200506.630100,-218112.461024,59174.468895,0.000004,-0.000004,0.000001
0.200000,-0.720000,1.280036,0.080000,-9866.209031,162731.039941,-173459.353605,-102398.118860,0.000003,-0.000003,-0.000002
0.280000,-0.720000,1.280043,0.080000,-11046.627167,38142.585550,-39176.850575,-190427.705380,0.000001,-0.000001,-0.000004
0.360000,-0.720000,1.280000,0.080000,-12463.627487,-104155.625300,111986.560354,-172169.297655,-0.000002,0.000002,-0.000003
0.440000,-0.720000,1.280032,0.080000,-13199.168935,-195233.079436,208134.778901,-68047.638722,-0.000004,0.000004,-0.000001
0.520000,-0.720000,1.280047,0.080000,-12663.910171,-199026.025288,212160.155172,64644.551275,-0.000004,0.000004,0.000001
0.600000,-0.720000,1.280001,0.080000,-10825.576704,-124713.932829,134320.863760,164118.268653,-0.000002,0.000002,0.000003
0.680000,-0.720000,1.280029,0.080000,-8151.739990,-15000.515275,19682.124726,193942.796463,-0.000000,0.000000,0.000004
0.760000,-0.720000,1.280052,0.080000,-5340.424960,80136.842942,-79454.631572,155428.499043,0.000002,-0.000002,0.000003
0.840000,-0.720000,1.280001,0.080000,-3003.290861,128221.272316,-129371.113555,79127.015189,0.000002,-0.000002,0.000001
0.920000,-0.720000,1.280026,0.080000,-1457.455834,125011.623297,-125942.596395,3913.763253,0.000002,-0.000002,0.000000
1.000000,-0.720000,1.280056,0.080000,-694.632137,88650.512334,-88313.687627,-42721.038898,0.000002,-0.000002,-0.000001
1.080000,-0.720000,1.280002,0.080000,-492.327179,44254.458713,-42715.102497,-53178.532829,0.000001,-0.000001,-0.000001
1.160000,-0.720000,1.280023,0.080000,-571.188094,9341.363803,-7338.984614,-35770.558036,0.000000,-0.000000,-0.000001
1.240000,-0.720000,1.260051,0.080000,-706.525730,-13237.253613,14798.722783,-4486.682833,-0.000000,0.000000,-0.000000
1.320000,-0.720000,1.180055,0.080000,-748.006756,-35156.007932,35403.292424,28990.784062,-0.000001,0.000001,0.000001
1.400000,-0.720000,1.100058,0.080000,-546.385348,-80622.342174,78512.897428,54602.504006,-0.000002,0.000001,0.000001
1.480000,-0.720000,1.020063,0.080000,201.665885,-188091.853652,182068.784396,49435.483116,-0.000004,0.000003,0.000001
1.560000,-0.720000,0.940068,0.080000,2201.235949,-415697.882849,403938.087265,-62270.491048,-0.000008,0.000008,-0.000001
1.640000,-0.720000,0.860075,0.080000,6928.148176,-833846.351005,817441.323315,-510677.223105,-0.000016,0.000015,-0.000010
1.720000,-0.720000,0.780082,0.080000,17047.221188,-1433631.097279,1430929.790224,-1942494.744745,-0.000027,0.000027,-0.000037
1.800000,-0.720000,0.700092,0.080000,36202.207417,-1685621.692936,1786485.230034,-6099368.455695,-0.000032,0.000033,-0.000115
1.880000,-0.720000,0.620104,0.080000,65026.009809,1197160.079341,-638425.382380,-17564177.768983,0.000019,-0.000015,-0.000331
1.960000,-0.720000,0.540119,0.080000,81104.483191,19090563.017499,-17801478.565098,-49749444.557772,0.000352,-0.000343,-0.000937
2.040000,-0.720000,0.460140,0.080000,-41665.614755,94654054.653363,-92965264.284024,-129964891.384909,0.001774,-0.001761,-0.002449
2.120000,-0.720000,0.380169,0.080000,-831573.891839,368343900.371886,-371445213.887771,-351479937.272956,0.006957,-0.006981,-0.006622
-2.120000,-0.640000,0.380004,0.080000,614720.601871,-360890473.315328,363756281.225936,-501428211.791414,-0.006816,0.006837,-0.009447
-2.040000,-0.640000,0.460003,0.080000,-96171.815028,-91536111.823213,89769066.952774,-185652389.101942,-0.001715,0.001701,-0.003498
-1.960000,-0.640000,0.540003,0.080000,-161446.613947,-16129939.547081,14779218.493530,-71521529.919434,-0.000296,0.000286,-0.001348
-1.880000,-0.640000,0.620003,0.080000,-106797.014721,1169044.340639,-1751877.368130,-25669104.886787,0.000025,-0.000030,-0.000484
-1.800000,-0.640000,0.700002,0.080000,-54577.184372,3272476.605641,-3372821.559289,-9171926.793011,0.000062,-0.000063,-0.000173
-1.720000,-0.640000,0.780002,0.080000,-22305.587335,2393401.044845,-2383816.917592,-3065155.393488,0.000045,-0.000045,-0.000058
-1.640000,-0.640000,0.860002,0.080000,-5324.166671,1377701.342330,-1353932.856126,-887724.628067,0.000026,-0.000026,-0.000017
-1.560000,-0.640000,0.940002,0.080000,2715.640501,708050.183473,-689840.737307,-165773.300699,0.000013,-0.000013,-0.000003
-1.480000,-0.640000,1.020002,0.080000,6126.810886,333166.494428,-321667.197704,37609.912145,0.000006,-0.000006,0.000001
-1.400000,-0.640000,1.100001,0.080000,7353.482617,137409.525843,-130472.408304,70507.086717,0.000003,-0.000002,0.000001
-1.320000,-0.640000,1.180001,0.080000,7679.518603,36727.856645,-32359.635917,59218.927746,0.000001,-0.000001,0.000001
-1.240000,-0.640000,1.260001,0.080000,7765.746715,-15891.464489,19074.999922,48662.080471,-0.000000,0.000000,0.000001
-1.160000,-0.640000,1.340001,0.080000,7955.081581,-40641.837346,43505.282978,53596.471130,-0.000001,0.000001,0.000001
-1.080000,-0.640000,1.360002,0.080000,8405.843257,-41255.819270,44207.694460,74779.242519,-0.000001,0.000001,0.000001
-1.000000,-0.640000,1.360053,0.080000,9119.624244,-14713.144496,17736.092453,102755.683830,-0.000000,0.000000,0.000002
-0.920000,-0.640000,1.360024,0.080000,9926.186466,39230.223260,-36455.987618,120143.741401,0.000001,-0.000001,0.000002
-0.840000,-0.640000,1.360001,0.080000,10485.617990,110543.404498,-108359.714148,107430.738979,0.000002,-0.000002,0.000002
-0.760000,-0.640000,1.360049,0.080000,10354.061045,176953.105722,-175378.399165,52465.429607,0.000003,-0.000003,0.000001
-0.680000,-0.640000,1.360027,0.080000,9124.120454,209863.470190,-208398.691159,-40372.881261,0.000004,-0.000004,-0.000001
-0.600000,-0.640000,1.360001,0.080000,6602.064878,186662.351276,-184444.192360,-147131.551905,0.000004,-0.000003,-0.000003
-0.520000,-0.640000,1.360045,0.080000,2945.086124,103603.260970,-99913.258977,-231103.635524,0.000002,-0.000002,-0.000004
-0.440000,-0.640000,1.360030,0.080000,-1320.481106,-18236.213813,23349.283653,-258041.036115,-0.000000,0.000000,-0.000005
-0.360000,-0.640000,1.360000,0.080000,-5435.107117,-138730.599989,144101.537384,-212913.872897,-0.000003,0.000003,-0.000004
-0.280000,-0.640000,1.360041,0.080000,-8658.218607,-214951.070388,218523.898033,-109310.687837,-0.000004,0.000004,-0.000002
-0.200000,-0.640000,1.360034,0.080000,-10534.259180,-220499.857700,220134.772358,14421.237111,-0.000004,0.000004,0.000000
-0.120000,-0.640000,1.360000,0.080000,-11052.477613,-158120.088789,152642.208236,111440.644187,-0.000003,0.000003,0.000002
-0.040000,-0.640000,1.360037,0.080000,-10623.399493,-58729.131761,48690.045634,147441.956354,-0.000001,0.000001,0.000003
0.040000,-0.640000,1.360037,0.080000,-9880.139941,33041.928097,-45324.115979,115931.072994,0.000001,-0.000001,0.000002
0.120000,-0.640000,1.360000,0.080000,-9396.580203,79624.078310,-90835.489085,40034.774199,0.000002,-0.000002,0.000001
0.200000,-0.640000,1.360034,0.080000,-9452.902061,67143.478825,-74231.098054,-39851.767280,0.000001,-0.000001,-0.000001
0.280000,-0.640000,1.360041,0.080000,-9952.014144,9814.995176,-11148.078572,-85934.853314,0.000000,-0.000000,-0.000002
0.360000,-0.640000,1.360000,0.080000,-10513.163462,-59377.811457,63478.064634,-80150.305082,-0.000001,0.000001,-0.000002
0.440000,-0.640000,1.360030,0.080000,-10683.071429,-106058.572379,113635.680513,-30281.812806,-0.000002,0.000002,-0.000001
0.520000,-0.640000,1.360045,0.080000,-10154.778676,-110521.510464,118939.578622,36925.883677,-0.000002,0.000002,0.000001
0.600000,-0.640000,1.360001,0.080000,-8893.028157,-74667.692818,81707.300179,90784.072642,-0.000001,0.000001,0.000002
0.680000,-0.640000,1.360027,0.080000,-7122.566621,-17585.071568,22167.098609,111293.388893,-0.000000,0.000000,0.000002
0.760000,-0.640000,1.360049,0.080000,-5207.190968,36288.241221,-34011.281462,96209.071917,0.000001,-0.000001,0.000002
0.840000,-0.640000,1.360001,0.080000,-3494.119385,69232.039707,-68324.996632,58393.601591,0.000001,-0.000001,0.000001
0.920000,-0.640000,1.360024,0.080000,-2199.991854,76497.287715,-75892.955069,16769.190705,0.000001,-0.000001,0.000000
1.000000,-0.640000,1.360053,0.080000,-1378.521170,64927.299556,-63921.731939,-13099.096564,0.000001,-0.000001,-0.000000
1.080000,-0.640000,1.360002,0.080000,-961.856061,46467.378384,-44885.073586,-23869.613776,0.000001,-0.000001,-0.000000
1.160000,-0.640000,1.340001,0.080000,-835.203534,30913.843694,-29009.205547,-15363.911034,0.000001,-0.000001,-0.000000
1.240000,-0.640000,1.260001,0.080000,-898.781489,20871.732541,-19192.171158,10420.487326,0.000000,-0.000000,0.000000
1.320000,-0.640000,1.180001,0.080000,-1084.266673,8477.816434,-7950.493802,54846.054430,0.000000,-0.000000,0.000001
1.400000,-0.640000,1.100001,0.080000,-1303.137139,-30428.582629,27921.886440,125671.946842,-0.000001,0.000001,0.000002
1.480000,-0.640000,1.020002,0.080000,-1286.769956,-153271.641119,143428.567490,233895.554639,-0.000003,0.000003,0.000004
1.560000,-0.640000,0.940002,0.080000,-204.513765,-494784.143551,467645.495740,373368.349398,-0.000009,0.000009,0.000007
1.640000,-0.640000,0.860002,0.080000,4233.004124,-1370589.995493,1303606.650775,444597.219958,-0.000025,0.000025,0.000008
1.720000,-0.640000,0.780002,0.080000,17871.560978,-3508453.557811,3352070.104709,-3011.660062,-0.000065,0.000064,-0.000000
1.800000,-0.640000,0.700002,0.080000,54939.381539,-8543455.675050,8192955.352193,-2605337.304216,-0.000159,0.000156,-0.000049
1.880000,-0.640000,0.620003,0.080000,148856.791015,-20020434.357026,19267467.344483,-12826037.401558,-0.000373,0.000367,-0.000242
1.960000,-0.640000,0.540003,0.080000,375572.041313,-45716947.444182,45275786.422626,-50695822.050116,-0.000859,0.000856,-0.000955
2.040000,-0.640000,0.460003,0.080000,901417.011775,-99255971.710593,98797022.556829,-167857419.582413,-0.001867,0.001864,-0.003163
2.120000,-0.640000,0.380004,0.080000,2074591.991761,-203646773.822326,205168652.373434,-562197397.588900,-0.003845,0.003857,-0.010592
-2.120000,-0.560000,0.380079,0.080000,-3107359.065824,325390977.526344,-327170675.126048,-641166930.766187,0.006141,-0.006154,-0.012080
-2.040000,-0.560000,0.460065,0.080000,-1344871.390433,149909685.728413,-148944750.023167,-199795639.862806,0.002819,-0.002812,-0.003764
-1.960000,-0.560000,0.540056,0.080000,-565199.228321,67223225.086221,-66485137.058498,-62741208.755940,0.001262,-0.001257,-0.001182
-1.880000,-0.560000,0.620049,0.080000,-226788.768399,29340603.228878,-28267633.340746,-16626153.512056,0.000547,-0.000539,-0.000313
-1.800000,-0.560000,0.700043,0.080000,-83339.806796,12709921.974171,-12228018.750517,-3595307.659775,0.000237,-0.000233,-0.000068
-1.720000,-0.560000,0.780039,0.080000,-24490.498357,5389628.226707,-5175071.355525,-94838.612679,0.000100,-0.000099,-0.000002
-1.640000,-0.560000,0.860035,0.080000,-1577.294424,2219494.141474,-2124136.211131,581479.861050,0.000041,-0.000041,0.000011
-1.560000,-0.560000,0.940032,0.080000,6509.385673,871354.960089,-828630.834966,527822.683783,0.000016,-0.000016,0.000010
-1.480000,-0.560000,1.020030,0.080000,8761.762908,310883.818513,-291281.050813,354354.635635,0.000006,-0.000006,0.000007
-1.400000,-0.560000,1.100027,0.080000,8925.190394,84759.576039,-75280.555409,212227.514508,0.000002,-0.000001,0.000004
-1.320000,-0.560000,1.180026,0.080000,8513.867195,-2576.308363,7674.935356,122255.839858,-0.000000,0.000000,0.000002
-1.240000,-0.560000,1.260024,0.080000,8113.568159,-32849.280325,36146.022893,75096.912188,-0.000001,0.000001,0.000001
-1.160000,-0.560000,1.340022,0.080000,7927.285265,-37414.017727,40077.754495,57970.313730,-0.000001,0.000001,0.000001
-1.080000,-0.560000,1.420021,0.080000,7986.148902,-25823.034030,28338.454457,58999.112310,-0.000001,0.000001,0.000001
-1.000000,-0.560000,1.440050,0.080000,8215.830277,34.091936,2443.282549,66217.796161,-0.000000,0.000000,0.000001
-0.920000,-0.560000,1.440023,0.080000,8451.911017,37857.403380,-35495.267636,67223.708784,0.000001,-0.000001,0.000001
-0.840000,-0.560000,1.440001,0.080000,8456.612334,80546.773330,-78388.745118,51292.828416,0.000002,-0.000001,0.000001
-0.760000,-0.560000,1.440046,0.080000,7964.651268,115632.784509,-113626.424103,13360.897900,0.000002,-0.000002,0.000000
-0.680000,-0.560000,1.440026,0.080000,6761.452726,128728.997640,-126627.481894,-42408.578584,0.000002,-0.000002,-0.000001
-0.600000,-0.560000,1.440000,0.080000,4771.852203,109717.828065,-107190.166967,-102193.162545,0.000002,-0.000002,-0.000002
-0.520000,-0.560000,1.440042,0.080000,2120.834664,58687.592174,-55569.679480,-146700.203189,0.000001,-0.000001,-0.000003
-0.440000,-0.560000,1.440029,0.080000,-869.989125,-11836.559936,15277.379715,-158973.813994,-0.000000,0.000000,-0.000003
-0.360000,-0.560000,1.440000,0.080000,-3762.964346,-80364.147841,83327.378533,-132439.863931,-0.000002,0.000002,-0.000002
-0.280000,-0.560000,1.440039,0.080000,-6139.325139,-124730.895143,126065.349304,-75049.346263,-0.000002,0.000002,-0.000001
-0.200000,-0.560000,1.440032,0.080000,-7736.231933,-131564.108570,130211.515251,-6932.526762,-0.000002,0.000002,-0.000000
-0.120000,-0.560000,1.440000,0.080000,-8527.111122,-102273.582120,97792.588121,47824.717205,-0.000002,0.000002,0.000001
-0.040000,-0.560000,1.440035,0.080000,-8708.853821,-52408.559750,45321.049096,71541.402899,-0.000001,0.000001,0.000001
0.040000,-0.560000,1.440035,0.080000,-8601.142167,-4508.987660,-3731.543839,60421.740150,-0.000000,-0.000000,0.000001
0.120000,-0.560000,1.440000,0.080000,-8503.619406,22095.678661,-29541.390364,25504.518983,0.000000,-0.000001,0.000000
0.200000,-0.560000,1.440032,0.080000,-8575.147504,19551.628748,-24431.180474,-13255.517051,0.000000,-0.000000,-0.000000
0.280000,-0.560000,1.440039,0.080000,-8786.646898,-6085.594130,4754.789425,-36647.473508,-0.000000,0.000000,-0.000001
0.360000,-0.560000,1.440000,0.080000,-8962.054771,-39052.266259,41177.164737,-34736.194126,-0.000001,0.000001,-0.000001
0.440000,-0.560000,1.440029,0.080000,-8880.235621,-62148.522058,66707.700038,-10259.999620,-0.000001,0.000001,-0.000000
0.520000,-0.560000,1.440042,0.080000,-8385.291585,-64692.200736,70219.951787,24227.852442,-0.000001,0.000001,0.000000
0.600000,-0.560000,1.440000,0.080000,-7454.975731,-46363.170618,51527.634902,53363.713269,-0.000001,0.000001,0.000001
0.680000,-0.560000,1.440026,0.080000,-6202.959621,-15651.976240,19670.691948,66197.621071,-0.000000,0.000000,0.000001
0.760000,-0.560000,1.440046,0.080000,-4824.790491,15498.052909,-12748.426453,60154.118071,0.000000,-0.000000,0.000001
0.840000,-0.560000,1.440001,0.080000,-3521.452881,37622.632783,-35778.685412,40453.180471,0.000001,-0.000001,0.000001
0.920000,-0.560000,1.440023,0.080000,-2438.201104,47326.578163,-45843.524170,16250.558934,0.000001,-0.000001,0.000000
1.000000,-0.560000,1.440050,0.080000,-1641.692561,47407.014885,-45824.178086,-3802.618536,0.000001,-0.000001,-0.000000
1.080000,-0.560000,1.420021,0.080000,-1136.605926,44376.793545,-42442.466276,-14096.334970,0.000001,-0.000001,-0.000000
1.160000,-0.560000,1.340022,0.080000,-906.358601,45245.917574,-42913.163600,-11542.258543,0.000001,-0.000001,-0.000000
1.240000,-0.560000,1.260024,0.080000,-957.504527,54928.326323,-52328.561204,7868.287114,0.000001,-0.000001,0.000000
1.320000,-0.560000,1.180026,0.080000,-1350.829540,73876.331813,-71449.317676,55082.625599,0.000001,-0.000001,0.000001
1.400000,-0.560000,1.100027,0.080000,-2202.741715,92583.369424,-91672.045826,157489.302328,0.000002,-0.000002,0.000003
1.480000,-0.560000,1.020030,0.080000,-3618.723747,73889.941166,-78514.892922,375323.480714,0.000001,-0.000001,0.000007
1.560000,-0.560000,0.940032,0.080000,-5437.791560,-100286.792856,78551.537918,831418.264046,-0.000002,0.000002,0.000016
1.640000,-0.560000,0.860035,0.080000,-6425.666636,-780870.715364,709605.435035,1761591.024373,-0.000014,0.000014,0.000033
1.720000,-0.560000,0.780039,0.080000,-1884.454790,-2977076.917485,2766476.494039,3579894.158005,-0.000055,0.000053,0.000067
1.800000,-0.560000,0.700043,0.080000,23214.372952,-9548187.264494,8949214.599198,6879704.501715,-0.000177,0.000172,0.000130
1.880000,-0.560000,0.620049,0.080000,113692.609613,-28574833.920798,26889843.168341,11992809.267228,-0.000529,0.000516,0.000226
1.960000,-0.560000,0.540056,0.080000,399249.066478,-84271021.584382,82196191.325825,16246864.103872,-0.001576,0.001560,0.000306
2.040000,-0.560000,0.460065,0.080000,1251615.651358,-242766508.058165,240222061.084630,5332078.170225,-0.004559,0.004540,0.000100
2.120000,-0.560000,0.380079,0.080000,3740067.988344,-685622075.221716,691220792.559654,-83285114.945734,-0.012949,0.012991,-0.001569
-2.120000,-0.480000,0.380207,0.080000,-4874205.717758,822435088.988152,-828000119.077010,-45965040.013416,0.015527,-0.015569,-0.000866
-2.040000,-0.480000,0.460171,0.080000,-1706856.373479,303166849.691050,-299978080.478813,22590864.721491,0.005694,-0.005670,0.000426
-1.960000,-0.480000,0.540146,0.080000,-572481.919905,109649847.865420,-107191617.549687,25388438.248144,0.002052,-0.002033,0.000478
-1.880000,-0.480000,0.620127,0.080000,-172450.380276,38928759.266333,-36810615.182916,16913890.917430,0.000721,-0.000706,0.000319
-1.800000,-0.480000,0.700112,0.080000,-36832.286679,13769659.042528,-12991284.244204,9594018.473266,0.000255,-0.000249,0.000181
-1.720000,-0.480000,0.780101,0.080000,5120.657815,4669003.709422,-4380308.058628,5074173.729841,0.000086,-0.000084,0.000096
-1.640000,-0.480000,0.860091,0.080000,15194.247723,1436314.154430,-1328253.708110,2581707.325193,0.000026,-0.000026,0.000049
-1.560000,-0.480000,0.940084,0.080000,15371.659679,334978.116554,-293970.311308,1281299.730103,0.000006,-0.000006,0.000024
-1.480000,-0.480000,1.020077,0.080000,13171.885944,-6960.839389,23006.579731,623801.445967,-0.000000,0.000000,0.000012
-1.400000,-0.480000,1.100071,0.080000,10951.156691,-89674.841221,96456.919352,298801.802204,-0.000002,0.000002,0.000006
-1.320000,-0.480000,1.180067,0.080000,9295.963941,-91476.307154,94889.021817,142610.074716,-0.000002,0.000002,0.000003
-1.240000,-0.480000,1.260062,0.080000,8235.083825,-72332.600382,74608.868237,71834.291580,-0.000001,0.000001,0.000001
-1.160000,-0.480000,1.340059,0.080000,7649.442017,-49335.610641,51320.949601,44132.737352,-0.000001,0.000001,0.000001
-1.080000,-0.480000,1.420055,0.080000,7391.188410,-24984.801718,26973.441272,36839.863031,-0.000000,0.000000,0.000001
-1.000000,-0.480000,1.500052,0.080000,7303.535612,1690.106534,359.778961,36111.871538,0.000000,-0.000000,0.000001
-0.920000,-0.480000,1.520022,0.080000,7216.294611,30353.459164,-28277.233091,32298.234318,0.000001,-0.000001,0.000001
-0.840000,-0.480000,1.520001,0.080000,6948.745799,57522.861592,-55455.701019,19045.612018,0.000001,-0.000001,0.000000
-0.760000,-0.480000,1.520043,0.080000,6331.708072,76902.386909,-74821.438968,-5750.545131,0.000001,-0.000001,-0.000000
-0.680000,-0.480000,1.520024,0.080000,5246.593301,81594.234799,-79415.965075,-38934.725034,0.000002,-0.000002,-0.000001
-0.600000,-0.480000,1.520000,0.080000,3667.498565,67358.362402,-65008.627240,-72523.700007,0.000001,-0.000001,-0.000001
-0.520000,-0.480000,1.520040,0.080000,1686.102456,35429.460932,-32963.474043,-96243.118041,0.000001,-0.000001,-0.000002
-0.440000,-0.480000,1.520027,0.080000,-497.788898,-6687.389326,8980.647006,-101579.234075,-0.000000,0.000000,-0.000002
-0.360000,-0.480000,1.520000,0.080000,-2624.395709,-47242.178003,48830.408469,-85679.130208,-0.000001,0.000001,-0.000002
-0.280000,-0.480000,1.520037,0.080000,-4447.617348,-74514.079783,74752.540929,-53166.090187,-0.000001,0.000001,-0.000001
-0.200000,-0.480000,1.520030,0.080000,-5807.250644,-81506.598638,79883.934949,-14740.853606,-0.000002,0.000002,-0.000000
-0.120000,-0.480000,1.520000,0.080000,-6670.643740,-68834.370382,65236.118955,17030.453461,-0.000001,0.000001,0.000000
-0.040000,-0.480000,1.520033,0.080000,-7126.328403,-44330.006177,39192.539791,32886.828530,-0.000001,0.000001,0.000001
0.040000,-0.480000,1.520033,0.080000,-7332.834274,-19475.667264,13738.285301,30582.170196,-0.000000,0.000000,0.000001
0.120000,-0.480000,1.520000,0.080000,-7445.632529,-4337.253780,-812.194496,15389.698423,-0.000000,0.000000,0.000000
0.200000,-0.480000,1.520030,0.080000,-7554.205116,-3404.761272,-88.239632,-2762.868573,-0.000000,0.000000,-0.000000
0.280000,-0.480000,1.520037,0.080000,-7655.179980,-14233.386484,13014.351894,-14041.269653,-0.000000,0.000000,-0.000000
0.360000,-0.480000,1.520000,0.080000,-7669.632528,-29325.407886,30386.664914,-13001.726756,-0.000001,0.000001,-0.000000
0.440000,-0.480000,1.520027,0.080000,-7492.218025,-40088.482158,42892.853983,-475.286539,-0.000001,0.000001,-0.000000
0.520000,-0.480000,1.520040,0.080000,-7046.825723,-40798.644793,44515.110493,17586.432277,-0.000001,0.000001,0.000000
0.600000,-0.480000,1.520000,0.080000,-6323.572001,-30711.211232,34526.630463,33394.332686,-0.000001,0.000001,0.000001
0.680000,-0.480000,1.520024,0.080000,-5383.765732,-13588.604681,16950.591503,40908.541384,-0.000000,0.000000,0.000001
0.760000,-0.480000,1.520043,0.080000,-4335.874464,4737.168094,-2025.886449,38023.371321,0.000000,-0.000000,0.000001
0.840000,-0.480000,1.520001,0.080000,-3298.004925,19318.205852,-17153.169868,26611.595185,0.000000,-0.000000,0.000001
0.920000,-0.480000,1.520022,0.080000,-2365.749063,28166.739433,-26276.736493,10877.505960,0.000001,-0.000001,0.000000
1.000000,-0.480000,1.500052,0.080000,-1598.767652,32835.331676,-30912.063945,-4768.779657,0.000001,-0.000001,-0.000000
1.080000,-0.480000,1.420055,0.080000,-1030.049853,37847.993929,-35607.714200,-17046.099570,0.000001,-0.000001,-0.000000
1.160000,-0.480000,1.340059,0.080000,-694.477674,49954.336252,-47114.348055,-23497.748973,0.000001,-0.000001,-0.000000
1.240000,-0.480000,1.260062,0.080000,-672.117358,78235.823740,-74428.973642,-20001.548564,0.000001,-0.000001,-0.000000
1.320000,-0.480000,1.180067,0.080000,-1146.958763,135663.563913,-130343.144015,5027.137819,0.000003,-0.000002,0.000000
1.400000,-0.480000,1.100071,0.080000,-2490.869391,241823.439040,-234269.449401,83298.335174,0.000005,-0.000004,0.000002
1.480000,-0.480000,1.020077,0.080000,-5389.348339,424344.445683,-414103.594514,296000.200155,0.000008,-0.000008,0.000006
1.560000,-0.480000,0.940084,0.080000,-11015.042239,709453.255007,-698312.365700,844841.386903,0.000013,-0.000013,0.000016
1.640000,-0.480000,0.860091,0.080000,-21177.313250,1068142.896433,-1067188.031295,2227408.834166,0.000020,-0.000020,0.000042
1.720000,-0.480000,0.780101,0.080000,-38065.505825,1206770.530078,-1259689.811397,5675496.363815,0.000023,-0.000023,0.000107
1.800000,-0.480000,0.700112,0.080000,-62123.400234,-154119.824918,-103007.860990,14266632.798578,-0.000001,-0.000000,0.000269
1.880000,-0.480000,0.620127,0.080000,-83053.269011,-7629073.651009,6680247.487506,35797903.127996,-0.000138,0.000131,0.000674
1.960000,-0.480000,0.540146,0.080000,-47715.980047,-37331882.025116,35756012.635582,93006914.344133,-0.000694,0.000683,0.001752
2.040000,-0.480000,0.460171,0.080000,246253.021374,-138415903.700393,136445528.277181,232828893.403006,-0.002597,0.002582,0.004387
2.120000,-0.480000,0.380207,0.080000,1489337.534478,-452363880.661605,456280203.171649,619093206.716641,-0.008545,0.008574,0.011664
-2.120000,-0.400000,0.380012,0.080000,-1900744.667457,522947172.184639,-526967700.175923,743707466.078152,0.009875,-0.009906,0.014012
-2.040000,-0.400000,0.460010,0.080000,-359756.883660,167729563.603216,-165434808.166677,290189148.724078,0.003147,-0.003130,0.005467
-1.960000,-0.400000,0.540008,0.080000,38443.364437,48438358.341135,-46629764.969595,119703565.068320,0.000902,-0.000889,0.002255
-1.880000,-0.400000,0.620007,0.080000,104194.784599,11417338.591317,-10223061.971391,47732246.292427,0.000208,-0.000199,0.000899
-1.800000,-0.400000,0.700006,0.080000,87986.822776,1271126.450448,-907724.619480,19763990.694518,0.000022,-0.000019,0.000372
-1.720000,-0.400000,0.780006,0.080000,61024.241365,-1008974.064446,1111065.814263,8244835.009053,-0.000020,0.000020,0.000155
-1.640000,-0.400000,0.860005,0.080000,39857.772050,-1143933.083948,1167971.648546,3447404.143873,-0.000022,0.000022,0.000065
-1.560000,-0.400000,0.940005,0.080000,25918.158076,-837774.703647,840797.928660,1433454.545608,-0.000016,0.000016,0.000027
-1.480000,-0.400000,1.020004,0.080000,17383.536199,-538944.912466,537682.164962,585145.570846,-0.000010,0.000010,0.000011
-1.400000,-0.400000,1.100004,0.080000,12357.357072,-328710.202907,327502.266276,229623.911592,-0.000006,0.000006,0.000004
-1.320000,-0.400000,1.180004,0.080000,9482.300892,-195601.801450,195245.186878,84110.095424,-0.000004,0.000004,0.000002
-1.240000,-0.400000,1.260004,0.080000,7892.741743,-113880.983687,114303.505146,28561.525670,-0.000002,0.000002,0.000001
-1.160000,-0.400000,1.340003,0.080000,7055.550750,-62379.170982,63376.059472,11186.644844,-0.000001,0.000001,0.000000
-1.080000,-0.400000,1.420003,0.080000,6634.826945,-26943.399226,28337.431639,8696.314359,-0.000001,0.000001,0.000000
-1.000000,-0.400000,1.500003,0.080000,6400.609401,592.367613,1062.564048,9609.713615,0.000000,0.000000,0.000000
-0.920000,-0.400000,1.580003,0.080000,6176.004134,23649.540394,-21835.140301,7615.492381,0.000000,-0.000000,0.000000
-0.840000,-0.400000,1.600001,0.080000,5814.755413,42032.188627,-40124.123128,-546.704919,0.000001,-0.000001,-0.000000
-0.760000,-0.400000,1.600041,0.080000,5201.789964,53285.193958,-51314.524317,-15337.656423,0.000001,-0.000001,-0.000000
-0.680000,-0.400000,1.600023,0.080000,4267.873050,54467.576940,-52449.815603,-34344.223715,0.000001,-0.000001,-0.000001
-0.600000,-0.400000,1.600000,0.080000,3007.093402,44078.929995,-42058.237211,-52816.907599,0.000001,-0.000001,-0.000001
-0.520000,-0.400000,1.600038,0.080000,1485.161520,23503.275320,-21608.051943,-65151.372058,0.000000,-0.000000,-0.000001
-0.440000,-0.400000,1.600026,0.080000,-170.276290,-2700.901836,4222.808881,-66987.089115,-0.000000,0.000000,-0.000001
-0.360000,-0.400000,1.600000,0.080000,-1798.792831,-27948.809007,28749.479615,-57097.454437,-0.000001,0.000001,-0.000001
-0.280000,-0.400000,1.600035,0.080000,-3248.345000,-45851.832406,45571.749027,-38162.704273,-0.000001,0.000001,-0.000001
-0.200000,-0.400000,1.600029,0.080000,-4414.454903,-52581.865264,50987.028871,-15936.319207,-0.000001,0.000001,-0.000000
-0.120000,-0.400000,1.600000,0.080000,-5262.771414,-48291.303849,45406.066118,2944.664152,-0.000001,0.000001,0.000000
-0.040000,-0.400000,1.600032,0.080000,-5826.491389,-36892.654883,33064.882151,13574.281741,-0.000001,0.000001,0.000000
0.040000,-0.400000,1.600032,0.080000,-6180.470063,-24266.525036,20122.728508,14638.025680,-0.000000,0.000000,0.000000
0.120000,-0.400000,1.600000,0.080000,-6403.620438,-15719.748007,12013.107747,8678.110038,-0.000000,0.000000,0.000000
0.200000,-0.400000,1.600029,0.080000,-6545.709259,-13863.402563,11265.961549,685.601685,-0.000000,0.000000,0.000000
0.280000,-0.400000,1.600035,0.080000,-6611.795230,-17843.388697,16760.801343,-4264.718310,-0.000000,0.000000,-0.000000
0.360000,-0.400000,1.600000,0.080000,-6568.886910,-24167.311850,24646.193142,-3204.695649,-0.000000,0.000000,-0.000000
0.440000,-0.400000,1.600026,0.080000,-6369.293025,-28600.237601,30358.164208,3682.749696,-0.000001,0.000001,0.000000
0.520000,-0.400000,1.600038,0.080000,-5978.443796,-28145.931674,30702.352075,13511.090349,-0.000001,0.000001,0.000000
0.600000,-0.400000,1.600000,0.080000,-5394.516335,-22197.203838,25045.117687,22237.477997,-0.000000,0.000000,0.000000
0.680000,-0.400000,1.600023,0.080000,-4652.542212,-12444.603506,15194.997945,26451.095719,-0.000000,0.000000,0.000000
0.760000,-0.400000,1.600041,0.080000,-3813.602172,-1767.701129,4221.965298,24554.731745,-0.000000,0.000000,0.000000
0.840000,-0.400000,1.600001,0.080000,-2946.209333,7248.350029,-5103.306434,16911.702392,0.000000,-0.000000,0.000000
0.920000,-0.400000,1.580003,0.080000,-2109.405780,13517.783529,-11561.814131,5084.489627,0.000000,-0.000000,0.000000
1.000000,-0.400000,1.500003,0.080000,-1345.377991,18082.717839,-16115.663413,-9320.129210,0.000000,-0.000000,-0.000000
1.080000,-0.400000,1.420003,0.080000,-685.778338,24385.173105,-22136.948809,-25608.310731,0.000000,-0.000000,-0.000000
1.160000,-0.400000,1.340003,0.080000,-173.719735,38893.790025,-35955.398395,-44315.106317,0.000001,-0.000001,-0.000001
1.240000,-0.400000,1.260004,0.080000,94.234614,73261.733726,-68893.985274,-66508.989436,0.000001,-0.000001,-0.000001
1.320000,-0.400000,1.180004,0.080000,-108.260877,149944.178332,-142672.521785,-91223.135987,0.000003,-0.000003,-0.000002
1.400000,-0.400000,1.100004,0.080000,-1285.108744,314979.287747,-301756.204030,-108182.761073,0.000006,-0.000006,-0.000002
1.480000,-0.400000,1.020004,0.080000,-4521.416349,665887.860344,-640322.895228,-77294.374121,0.000012,-0.000012,-0.000001
1.560000,-0.400000,0.940005,0.080000,-12127.598842,1412361.137616,-1360908.962561,129396.450906,0.000026,-0.000026,0.000002
1.640000,-0.400000,0.860005,0.080000,-29025.971072,3009121.229873,-2902778.980211,891419.761234,0.000056,-0.000055,0.000017
1.720000,-0.400000,0.780006,0.080000,-65760.878951,6448894.113739,-6224950.261244,3300907.477433,0.000120,-0.000119,0.000062
1.800000,-0.400000,0.700006,0.080000,-145077.264860,13913847.450184,-13435181.524661,10464083.647720,0.000259,-0.000256,0.000197
1.880000,-0.400000,0.620007,0.080000,-316399.587819,30245041.569716,-29206627.862795,31196345.153770,0.000564,-0.000556,0.000588
1.960000,-0.400000,0.540008,0.080000,-688015.207499,67037329.098674,-66298031.853526,93855126.236338,0.001259,-0.001253,0.001768
2.040000,-0.400000,0.460010,0.080000,-1499884.341139,149187392.295176,-148317672.659213,262670014.722006,0.002806,-0.002799,0.004949
2.120000,-0.400000,0.380012,0.080000,-3294053.111172,334497737.914816,-336945145.685885,766077696.996531,0.006316,-0.006334,0.014433
-2.120000,-0.320000,0.380057,0.080000,4027927.551920,-376194870.783496,378132286.711919,913787461.273969,-0.007099,0.007113,0.017216
-2.040000,-0.320000,0.460047,0.080000,1897490.805640,-173563705.006713,172451920.670139,326815037.228976,-0.003264,0.003255,0.006157
-1.960000,-0.320000,0.540040,0.080000,905775.302966,-80036707.040898,79243023.416672,122176870.437833,-0.001503,0.001497,0.002302
-1.880000,-0.320000,0.620035,0.080000,438829.196389,-36955685.534134,35794609.203938,43105501.222456,-0.000690,0.000681,0.000812
-1.800000,-0.320000,0.700031,0.080000,216478.532818,-17410068.062509,16887310.981481,15603281.969614,-0.000325,0.000321,0.000294
-1.720000,-0.320000,0.780028,0.080000,109316.534865,-8293899.256309,8057078.170551,5534709.931249,-0.000155,0.000153,0.000104
-1.640000,-0.320000,0.860025,0.080000,57006.094925,-4001343.546103,3893515.097597,1869305.395796,-0.000075,0.000074,0.000035
-1.560000,-0.320000,0.940023,0.080000,31145.449447,-1957855.355932,1908591.526315,559173.677365,-0.000037,0.000036,0.000011
-1.480000,-0.320000,1.020021,0.080000,18219.984386,-972574.316637,950116.711894,111422.103813,-0.000018,0.000018,0.000002
-1.400000,-0.320000,1.100020,0.080000,11717.607081,-490380.731495,480340.820407,-25440.530903,-0.000009,0.000009,-0.000000
-1.320000,-0.320000,1.180018,0.080000,8453.937017,-249964.081110,245785.512662,-54277.238742,-0.000005,0.000005,-0.000001
-1.240000,-0.320000,1.260017,0.080000,6843.047490,-126771.729834,125443.137428,-48739.819525,-0.000002,0.000002,-0.000001
-1.160000,-0.320000,1.340016,0.080000,6073.718963,-60574.986978,60694.225338,-34984.011879,-0.000001,0.000001,-0.000001
-1.080000,-0.320000,1.420015,0.080000,5711.493718,-21956.697103,22852.558613,-22144.676198,-0.000000,0.000000,-0.000000
-1.000000,-0.320000,1.500014,0.080000,5504.544501,3226.182391,-1892.584580,-13521.281179,0.000000,-0.000000,-0.000000
-0.920000,-0.320000,1.580014,0.080000,5290.362580,21125.650026,-19539.678261,-10376.313165,0.000000,-0.000000,-0.000000
-0.840000,-0.320000,1.660013,0.080000,4954.918135,33529.563710,-31802.469277,-12887.035349,0.000001,-0.000001,-0.000000
-0.760000,-0.320000,1.680039,0.080000,4420.219468,40011.825705,-38220.065179,-20125.342651,0.000001,-0.000001,-0.000000
-0.680000,-0.320000,1.680022,0.080000,3646.124499,39539.245722,-37753.314989,-29964.757373,0.000001,-0.000001,-0.000001
-0.600000,-0.320000,1.680000,0.080000,2636.041814,31761.465182,-30074.822051,-39365.110358,0.000001,-0.000001,-0.000001
-0.520000,-0.320000,1.680036,0.080000,1438.389410,17836.227555,-16389.969543,-45141.539049,0.000000,-0.000000,-0.000001
-0.440000,-0.320000,1.680025,0.080000,138.745171,558.157755,452.134594,-45005.296524,0.000000,0.000000,-0.000001
-0.360000,-0.320000,1.680000,0.080000,-1157.951144,-16276.600754,16625.183291,-38448.326320,-0.000000,0.000000,-0.000001
-0.280000,-0.320000,1.680033,0.080000,-2351.030760,-29040.107666,28528.986492,-27035.479960,-0.000001,0.000001,-0.000001
-0.200000,-0.320000,1.680027,0.080000,-3366.211795,-35491.410602,34027.173427,-13893.515247,-0.000001,0.000001,-0.000000
-0.120000,-0.320000,1.680000,0.080000,-4168.679308,-35504.166549,33164.633024,-2549.391079,-0.000001,0.000001,-0.000000
-0.040000,-0.320000,1.680030,0.080000,-4762.802970,-30964.761236,28023.569843,4408.659395,-0.000001,0.000001,0.000000
0.040000,-0.320000,1.680030,0.080000,-5179.407828,-24877.947014,21767.818569,6267.119891,-0.000000,0.000000,0.000000
0.120000,-0.320000,1.680000,0.080000,-5456.437079,-20082.779132,17302.008736,4314.000753,-0.000000,0.000000,0.000000
0.200000,-0.320000,1.680027,0.080000,-5621.175338,-18153.027291,16144.104260,1123.917099,-0.000000,0.000000,0.000000
0.280000,-0.320000,1.680033,0.080000,-5680.902529,-18948.101813,17990.462963,-645.126176,-0.000000,0.000000,-0.000000
0.360000,-0.320000,1.680000,0.080000,-5624.646294,-20953.768861,21107.869396,615.020885,-0.000000,0.000000,0.000000
0.440000,-0.320000,1.680025,0.080000,-5433.677488,-22178.708167,23297.906061,4885.780196,-0.000000,0.000000,0.000000
0.520000,-0.320000,1.680036,0.080000,-5094.902088,-21141.251076,22941.243694,10689.824949,-0.000000,0.000000,0.000000
0.600000,-0.320000,1.680000,0.080000,-4610.788555,-17493.282506,19648.422932,15831.667754,-0.000000,0.000000,0.000000
0.680000,-0.320000,1.680022,0.080000,-4001.831135,-12053.683082,14284.095564,18297.220598,-0.000000,0.000000,0.000000
0.760000,-0.320000,1.680039,0.080000,-3301.347059,-6323.048988,8446.882028,16879.153335,-0.000000,0.000000,0.000000
0.840000,-0.320000,1.660013,0.080000,-2545.739098,-1762.119173,3706.909781,11272.599663,-0.000000,0.000000,0.000000
0.920000,-0.320000,1.580014,0.080000,-1764.889402,861.598136,924.764286,1635.255417,0.000000,0.000000,0.000000
1.000000,-0.320000,1.500014,0.080000,-976.947069,1921.051221,-198.103923,-12221.561550,0.000000,-0.000000,-0.000000
1.080000,-0.320000,1.420015,0.080000,-190.493462,3322.289048,-1483.714800,-31843.056344,0.000000,-0.000000,-0.000001
1.160000,-0.320000,1.340016,0.080000,583.219343,9368.044610,-7074.206613,-61352.821620,0.000000,-0.000000,-0.000001
1.240000,-0.320000,1.260017,0.080000,1302.108094,29193.276944,-25731.410021,-109203.544588,0.000001,-0.000001,-0.000002
1.320000,-0.320000,1.180018,0.080000,1832.883895,83111.173103,-76885.711393,-191148.353978,0.000002,-0.000001,-0.000004
1.400000,-0.320000,1.100020,0.080000,1816.110937,218313.265973,-205634.028055,-335499.953000,0.000004,-0.000004,-0.000006
1.480000,-0.320000,1.020021,0.080000,351.763919,547365.599982,-519502.954675,-591858.924813,0.000010,-0.000010,-0.000011
1.560000,-0.320000,0.940023,0.080000,-4752.635192,1343648.761455,-1279501.029987,-1043156.453541,0.000025,-0.000024,-0.000020
1.640000,-0.320000,0.860025,0.080000,-18812.352624,3282101.293119,-3129519.126527,-1813590.922041,0.000061,-0.000060,-0.000034
1.720000,-0.320000,0.780028,0.080000,-54795.288682,8057920.466457,-7685105.521636,-3036803.212055,0.000150,-0.000147,-0.000057
1.800000,-0.320000,0.700031,0.080000,-144727.565094,20006944.310059,-19073282.443858,-4652189.574448,0.000372,-0.000365,-0.000088
1.880000,-0.320000,0.620035,0.080000,-368939.082657,50430378.650489,-48036068.548793,-5591338.224591,0.000937,-0.000919,-0.000105
1.960000,-0.320000,0.540040,0.080000,-932481.658667,131027685.200432,-128498335.877479,-365836.477729,0.002454,-0.002435,-0.000007
2.040000,-0.320000,0.460047,0.080000,-2368645.790361,342347952.517004,-339296342.138827,27294943.651374,0.006433,-0.006410,0.000514
2.120000,-0.320000,0.380057,0.080000,-6091102.126427,891403535.242756,-898621683.372341,137095404.924508,0.016835,-0.016890,0.002583
-2.120000,-0.240000,0.380248,0.080000,7704449.419508,-1042710662.242593,1049492055.798510,217334993.297126,-0.019684,0.019735,0.004095
-2.040000,-0.240000,0.460205,0.080000,3127733.010333,-412825860.742353,409040685.263270,56119591.283115,-0.007756,0.007728,0.001057
-1.960000,-0.240000,0.540175,0.080000,1298424.417500,-162995309.428161,160109329.789957,10516245.499076,-0.003055,0.003033,0.000198
-1.880000,-0.240000,0.620152,0.080000,551774.953154,-64845372.361303,62004063.505025,-1736556.949130,-0.001206,0.001184,-0.000033
-1.800000,-0.240000,0.700135,0.080000,240375.802073,-26679490.211242,25568762.734423,-3287614.670758,-0.000496,0.000488,-0.000062
-1.720000,-0.240000,0.780121,0.080000,107698.010878,-11219819.115734,10777230.049993,-2593902.812303,-0.000209,0.000206,-0.000049
-1.640000,-0.240000,0.860110,0.080000,50028.883704,-4823526.116671,4643587.894938,-1703019.784369,-0.000090,0.000089,-0.000032
-1.560000,-0.240000,0.940100,0.080000,24542.739156,-2118711.081200,2044077.942186,-1044421.111168,-0.000039,0.000039,-0.000020
-1.480000,-0.240000,1.020092,0.080000,13166.165258,-949210.432904,917732.804464,-624074.991645,-0.000018,0.000017,-0.000012
-1.400000,-0.240000,1.100086,0.080000,8100.693576,-431908.132549,418572.517764,-370516.357483,-0.000008,0.000008,-0.000007
-1.320000,-0.240000,1.180080,0.080000,5904.304625,-197374.682529,191911.345058,-220582.362008,-0.000004,0.000004,-0.000004
-1.240000,-0.240000,1.260075,0.080000,5020.298757,-87648.116462,85747.619266,-132077.647288,-0.000002,0.000002,-0.000002
-1.160000,-0.240000,1.340070,0.080000,4722.750494,-33708.244803,33513.935228,-79583.802413,-0.000001,0.000001,-0.000001
-1.080000,-0.240000,1.420066,0.080000,4656.660898,-4890.576270,5571.782337,-48584.699738,-0.000000,0.000000,-0.000001
-1.000000,-0.240000,1.500063,0.080000,4634.036590,12373.612862,-11212.418627,-31045.672318,0.000000,-0.000000,-0.000001
-0.920000,-0.240000,1.580060,0.080000,4543.709721,23695.480577,-22263.238207,-22503.701394,0.000000,-0.000000,-0.000000
-0.840000,-0.240000,1.660057,0.080000,4313.848946,30851.327173,-29277.204850,-20218.601084,0.000001,-0.000001,-0.000000
-0.760000,-0.240000,1.740054,0.080000,3899.679947,33870.047998,-32252.539721,-22051.482645,0.000001,-0.000001,-0.000000
-0.680000,-0.240000,1.760021,0.080000,3282.609416,32297.831984,-30731.634607,-25907.351624,0.000001,-0.000001,-0.000000
-0.600000,-0.240000,1.760000,0.080000,2472.532378,26049.076902,-24642.598242,-29654.420003,0.000000,-0.000000,-0.000001
-0.520000,-0.240000,1.760034,0.080000,1507.918386,15892.895602,-14777.234864,-31404.497671,0.000000,-0.000000,-0.000001
-0.440000,-0.240000,1.760024,0.080000,450.672821,3519.236496,-2843.952859,-29958.951510,0.000000,-0.000000,-0.000001
-0.360000,-0.240000,1.760000,0.080000,-624.553700,-8813.642781,8902.135497,-25169.446285,-0.000000,0.000000,-0.000000
-0.280000,-0.240000,1.760032,0.080000,-1644.331366,-18913.257666,18309.023061,-17993.799657,-0.000000,0.000000,-0.000000
-0.200000,-0.240000,1.760026,0.080000,-2549.717186,-25313.756058,23994.487241,-10157.930082,-0.000000,0.000000,-0.000000
-0.120000,-0.240000,1.760000,0.080000,-3304.760721,-27687.433534,25747.307262,-3518.298012,-0.000001,0.000000,-0.000000
-0.040000,-0.240000,1.760029,0.080000,-3897.819799,-26832.597266,24488.678140,629.512396,-0.000000,0.000000,0.000000
0.040000,-0.240000,1.760029,0.080000,-4335.938232,-24248.632665,21812.242967,2009.104116,-0.000000,0.000000,0.000000
0.120000,-0.240000,1.760000,0.080000,-4635.099302,-21490.766974,19307.970821,1396.302222,-0.000000,0.000000,0.000000
0.200000,-0.240000,1.760026,0.080000,-4810.480597,-19586.968696,17964.809424,222.762811,-0.000000,0.000000,0.000000
0.280000,-0.240000,1.760032,0.080000,-4870.356561,-18755.444831,17897.035288,-64.313282,-0.000000,0.000000,-0.000000
0.360000,-0.240000,1.760000,0.080000,-4815.328637,-18509.345289,18478.143595,1397.999350,-0.000000,0.000000,0.000000
0.440000,-0.240000,1.760024,0.080000,-4642.083660,-18054.890650,18777.593253,4576.283376,-0.000000,0.000000,0.000000
0.520000,-0.240000,1.760034,0.080000,-4349.031271,-16769.450105,18072.780518,8615.300453,-0.000000,0.000000,0.000000
0.600000,-0.240000,1.760000,0.080000,-3940.698298,-14539.352005,16204.822956,12216.278537,-0.000000,0.000000,0.000000
0.680000,-0.240000,1.760021,0.080000,-3428.691655,-11834.257970,13651.203873,14109.057362,-0.000000,0.000000,0.000000
0.760000,-0.240000,1.740054,0.080000,-2828.755186,-9535.501622,11337.030071,13386.391573,-0.000000,0.000000,0.000000
0.840000,-0.240000,1.660057,0.080000,-2155.041702,-8645.046702,10321.075883,9541.901617,-0.000000,0.000000,0.000000
0.920000,-0.240000,1.580060,0.080000,-1413.502677,-10029.976737,11521.565452,2159.068324,-0.000000,0.000000,0.000000
1.000000,-0.240000,1.500063,0.080000,-596.084423,-14299.243157,15585.443599,-9745.646046,-0.000000,0.000000,-0.000000
1.080000,-0.240000,1.420066,0.080000,323.416205,-21790.339878,22882.644204,-28792.872439,-0.000000,0.000000,-0.000001
1.160000,-0.240000,1.340070,0.080000,1391.670589,-32477.314553,33442.028652,-61060.784881,-0.000001,0.000001,-0.000001
1.240000,-0.240000,1.260075,0.080000,2675.585983,-45330.496609,46377.535296,-119595.620433,-0.000001,0.000001,-0.000002
1.320000,-0.240000,1.180080,0.080000,4255.094499,-55990.436040,57724.009775,-231836.908931,-0.000001,0.000001,-0.000004
1.400000,-0.240000,1.100086,0.080000,6193.157422,-49791.147562,53878.450728,-456066.407370,-0.000001,0.000001,-0.000009
1.480000,-0.240000,1.020092,0.080000,8435.719721,17914.918258,-6961.794551,-918793.427976,0.000000,-0.000000,-0.000017
1.560000,-0.240000,0.940100,0.080000,10508.311225,276268.018467,-246300.033322,-1901562.754251,0.000005,-0.000005,-0.000036
1.640000,-0.240000,0.860110,0.080000,10639.663646,1089486.158903,-1007702.309443,-4047017.296225,0.000020,-0.000019,-0.000076
1.720000,-0.240000,0.780121,0.080000,3290.255481,3473702.496744,-3250984.717704,-8859539.142695,0.000064,-0.000063,-0.000167
1.800000,-0.240000,0.700135,0.080000,-27746.127705,10254891.203030,-9647364.222826,-19951304.998211,0.000190,-0.000185,-0.000376
1.880000,-0.240000,0.620152,0.080000,-128540.533642,29295775.931416,-27631862.380698,-46221794.088924,0.000543,-0.000530,-0.000871
1.960000,-0.240000,0.540175,0.080000,-428476.155960,83682497.724909,-81737309.210063,-113072246.964097,0.001566,-0.001551,-0.002130
2.040000,-0.240000,0.460205,0.080000,-1289202.384943,234029997.978132,-231716372.751549,-271383908.746161,0.004396,-0.004379,-0.005113
2.120000,-0.240000,0.380248,0.080000,-3719666.949140,637184937.808646,-642682186.333890,-695162523.662780,0.012036,-0.012077,-0.013097
-2.120000,-0.160000,0.380023,0.080000,5296803.556420,-815203797.373516,820967706.538151,-759503081.311398,-0.015391,0.015435,-0.014309
-2.040000,-0.160000,0.460019,0.080000,1992417.447615,-309045266.459257,305973355.348298,-304537620.249629,-0.005805,0.005782,-0.005738
-1.960000,-0.160000,0.540016,0.080000,753820.970731,-115422833.106670,113021404.025003,-129543599.896478,-0.002161,0.002143,-0.002441
-1.880000,-0.160000,0.620014,0.080000,285745.054663,-42920697.378735,40763687.066159,-53978511.560652,-0.000796,0.000780,-0.001017
-1.800000,-0.160000,0.700012,0.080000,107726.722797,-16338775.706915,15531781.927418,-23697645.226746,-0.000303,0.000297,-0.000446
-1.720000,-0.160000,0.780011,0.080000,39979.642225,-6274832.009275,5968069.916125,-10712396.547180,-0.000116,0.000114,-0.000202
-1.640000,-0.160000,0.860010,0.080000,14521.448016,-2421519.412196,2302586.605391,-4993981.771636,-0.000045,0.000044,-0.000094
-1.560000,-0.160000,0.940009,0.080000,5360.299540,-930766.666997,883599.521195,-2404387.055996,-0.000017,0.000017,-0.000045
-1.480000,-0.160000,1.020009,0.080000,2456.482439,-349534.208540,330424.561358,-1196936.116632,-0.000006,0.000006,-0.000023
-1.400000,-0.160000,1.100008,0.080000,1902.397093,-122158.586811,114371.386400,-616581.860793,-0.000002,0.000002,-0.000012
-1.320000,-0.160000,1.180007,0.080000,2172.599790,-33324.412863,30321.360656,-328775.849563,-0.000001,0.000001,-0.000006
-1.240000,-0.160000,1.260007,0.080000,2672.994447,1463.632743,-2303.929429,-181502.457657,0.000000,-0.000000,-0.000003
-1.160000,-0.160000,1.340007,0.080000,3172.449777,15672.751932,-15441.088918,-103933.421178,0.000000,-0.000000,-0.000002
-1.080000,-0.160000,1.420006,0.080000,3578.055229,22499.888637,-21679.234716,-62251.690878,0.000000,-0.000000,-0.000001
-1.000000,-0.160000,1.500006,0.080000,3846.601131,26865.818562,-25695.221728,-39895.896104,0.000000,-0.000000,-0.000001
-0.920000,-0.160000,1.580006,0.080000,3951.489148,30171.100451,-28792.347140,-28464.073635,0.000001,-0.000001,-0.000001
-0.840000,-0.160000,1.660005,0.080000,3873.067877,32277.821780,-30796.254795,-23395.986499,0.000001,-0.000001,-0.000000
-0.760000,-0.160000,1.740005,0.080000,3599.098656,32462.274024,-30973.420525,-21891.824697,0.000001,-0.000001,-0.000000
-0.680000,-0.160000,1.820005,0.080000,3129.036702,29994.894983,-28597.171438,-21955.532587,0.000001,-0.000001,-0.000000
-0.600000,-0.160000,1.840000,0.080000,2478.378860,24544.325476,-23344.688902,-22051.345164,0.000000,-0.000000,-0.000000
-0.520000,-0.160000,1.840033,0.080000,1680.542693,16411.418330,-15524.632798,-21092.630235,0.000000,-0.000000,-0.000000
-0.440000,-0.160000,1.840023,0.080000,784.860922,6548.537769,-6088.439926,-18558.750552,0.000000,-0.000000,-0.000000
-0.360000,-0.160000,1.840000,0.080000,-149.366058,-3646.480126,3584.528226,-14572.034357,-0.000000,0.000000,-0.000000
-0.280000,-0.160000,1.840030,0.080000,-1061.425312,-12698.795646,12061.917779,-9820.841583,-0.000000,0.000000,-0.000000
-0.200000,-0.160000,1.840025,0.080000,-1898.047285,-19458.861671,18260.838519,-5300.196924,-0.000000,0.000000,-0.000000
-0.120000,-0.160000,1.840000,0.080000,-2620.097558,-23391.414296,21728.145960,-1937.487627,-0.000000,0.000000,-0.000000
-0.040000,-0.160000,1.840028,0.080000,-3205.393250,-24647.735445,22695.827772,-238.377590,-0.000000,0.000000,-0.000000
0.040000,-0.160000,1.840028,0.080000,-3647.308441,-23906.995526,21901.770549,-94.605705,-0.000000,0.000000,-0.000000
0.120000,-0.160000,1.840000,0.080000,-3950.264389,-22066.728570,20262.839639,-834.594073,-0.000000,0.000000,-0.000000
0.200000,-0.160000,1.840025,0.080000,-4124.101173,-19918.140695,18542.519153,-1496.488237,-0.000000,0.000000,-0.000000
0.280000,-0.160000,1.840030,0.080000,-4179.362785,-17934.770144,17144.959827,-1208.997917,-0.000000,0.000000,-0.000000
0.360000,-0.160000,1.840000,0.080000,-4124.760592,-16240.198217,16099.648798,477.074863,-0.000000,0.000000,0.000000
0.440000,-0.160000,1.840023,0.080000,-3966.919771,-14735.893359,15211.997733,3435.315185,-0.000000,0.000000,0.000000
0.520000,-0.160000,1.840033,0.080000,-3711.498870,-13305.783154,14288.761637,7033.177957,-0.000000,0.000000,0.000000
0.600000,-0.160000,1.840000,0.080000,-3364.307668,-11998.145273,13332.429825,10371.609157,-0.000000,0.000000,0.000000
0.680000,-0.160000,1.820005,0.080000,-2931.225286,-11119.847971,12636.766381,12574.315828,-0.000000,0.000000,0.000000
0.760000,-0.160000,1.740005,0.080000,-2416.310529,-11240.853309,12782.705932,12993.574150,-0.000000,0.000000,0.000000
0.840000,-0.160000,1.660005,0.080000,-1818.092279,-13167.525785,14597.214886,11235.203529,-0.000000,0.000000,0.000000
0.920000,-0.160000,1.580006,0.080000,-1124.238432,-17981.241814,19175.942951,6954.973508,-0.000000,0.000000,0.000000
1.000000,-0.160000,1.500006,0.080000,-304.380963,-27256.919724,28086.323732,-607.170663,-0.000001,0.000001,-0.000000
1.080000,-0.160000,1.420006,0.080000,700.299131,-43603.761114,43891.241020,-13466.799526,-0.000001,0.000001,-0.000000
1.160000,-0.160000,1.340007,0.080000,1994.238017,-71762.489540,71219.500628,-36471.743048,-0.000001,0.000001,-0.000001
1.240000,-0.160000,1.260007,0.080000,3758.584623,-120738.384052,118845.308699,-80578.650279,-0.000002,0.000002,-0.000002
1.320000,-0.160000,1.180007,0.080000,6310.243954,-208010.158819,203782.212181,-170190.524854,-0.000004,0.000004,-0.000003
1.400000,-0.160000,1.100008,0.080000,10216.609155,-368076.447576,359579.855963,-360294.037787,-0.000007,0.000007,-0.000007
1.480000,-0.160000,1.020009,0.080000,16522.427083,-670267.403192,653587.593622,-777577.624256,-0.000013,0.000012,-0.000015
1.560000,-0.160000,0.940009,0.080000,27206.634866,-1256678.406473,1223664.811267,-1721341.917538,-0.000023,0.000023,-0.000032
1.640000,-0.160000,0.860010,0.080000,46120.559930,-2424596.315204,2357809.218813,-3916506.300756,-0.000045,0.000045,-0.000074
1.720000,-0.160000,0.780011,0.080000,80954.791670,-4809496.525789,4670549.317665,-9160959.541820,-0.000090,0.000089,-0.000173
1.800000,-0.160000,0.700012,0.080000,147452.728151,-9801961.219276,9503615.837638,-22012983.918258,-0.000183,0.000181,-0.000415
1.880000,-0.160000,0.620014,0.080000,278654.606551,-20529786.949177,19865933.065194,-54261993.324176,-0.000383,0.000378,-0.001022
1.960000,-0.160000,0.540016,0.080000,545758.375849,-44727093.080320,44216572.258860,-140897258.952540,-0.000840,0.000836,-0.002655
2.040000,-0.160000,0.460019,0.080000,1106901.410196,-99817386.233103,99143733.587065,-354514604.114127,-0.001877,0.001872,-0.006679
2.120000,-0.160000,0.380023,0.080000,2326547.338559,-227916059.918313,229316170.882690,-943073372.350094,-0.004302,0.004313,-0.017768
-2.120000,-0.080000,0.380038,0.080000,-1836671.111219,159390276.339332,-159909953.259857,-1134326732.373514,0.003006,-0.003010,-0.021371
-2.040000,-0.080000,0.460031,0.080000,-895538.190649,75113437.395640,-74588611.862724,-434665504.030110,0.001412,-0.001408,-0.008189
-1.960000,-0.080000,0.540027,0.080000,-446157.093738,35266554.617532,-34939043.062164,-176232698.014031,0.000663,-0.000660,-0.003320
-1.880000,-0.080000,0.620023,0.080000,-227780.656284,16621265.234316,-16136112.529497,-69522348.480698,0.000310,-0.000307,-0.001310
-1.800000,-0.080000,0.700021,0.080000,-119339.398435,8039892.823918,-7826635.230322,-28952570.631363,0.000150,-0.000149,-0.000545
-1.720000,-0.080000,0.780019,0.080000,-64067.690493,3966949.915842,-3873198.612198,-12424312.736877,0.000074,-0.000074,-0.000234
-1.640000,-0.080000,0.860017,0.080000,-35021.626686,2003539.152460,-1962408.851829,-5509251.242981,0.000038,-0.000037,-0.000104
-1.560000,-0.080000,0.940015,0.080000,-19214.461527,1039321.221878,-1021324.934583,-2530463.526263,0.000019,-0.000019,-0.000048
-1.480000,-0.080000,1.020014,0.080000,-10270.165441,555714.065646,-547806.247273,-1206444.499965,0.000010,-0.000010,-0.000023
-1.400000,-0.080000,1.100013,0.080000,-4991.625621,307651.043801,-304045.740299,-598207.697926,0.000006,-0.000006,-0.000011
-1.320000,-0.080000,1.180012,0.080000,-1738.999029,177638.503159,-175769.955129,-309165.759099,0.000003,-0.000003,-0.000006
-1.240000,-0.080000,1.260011,0.080000,347.547138,108377.292227,-107116.109876,-167145.491893,0.000002,-0.000002,-0.000003
-1.160000,-0.080000,1.340011,0.080000,1726.734566,71339.519077,-70202.141094,-95218.146659,0.000001,-0.000001,-0.000002
-1.080000,-0.080000,1.420010,0.080000,2644.719630,51910.660151,-50708.096268,-57953.149227,0.000001,-0.000001,-0.000001
-1.000000,-0.080000,1.500010,0.080000,3231.595038,42249.961246,-40931.531073,-38465.542983,0.000001,-0.000001,-0.000001
-0.920000,-0.080000,1.580009,0.080000,3553.047099,37817.419852,-36401.133283,-28343.657415,0.000001,-0.000001,-0.000001
-0.840000,-0.080000,1.660009,0.080000,3640.106803,35700.629752,-34241.854681,-23119.587586,0.000001,-0.000001,-0.000000
-0.760000,-0.080000,1.740008,0.080000,3508.050121,33865.400276,-32442.076194,-20213.062136,0.000001,-0.000001,-0.000000
-0.680000,-0.080000,1.820008,0.080000,3169.433772,30893.095715,-29597.477591,-18028.275237,0.000001,-0.000001,-0.000000
-0.600000,-0.080000,1.900008,0.080000,2643.078031,25954.560691,-24886.489193,-15602.874150,0.000000,-0.000000,-0.000000
-0.520000,-0.080000,1.920032,0.080000,1959.273766,18852.135725,-18110.972091,-12502.533431,0.000000,-0.000000,-0.000000
-0.440000,-0.080000,1.920022,0.080000,1161.040519,10012.057966,-9685.696556,-8780.343468,0.000000,-0.000000,-0.000000
-0.360000,-0.080000,1.920000,0.080000,301.553067,362.831653,-513.642271,-4891.477998,0.000000,-0.000000,-0.000000
-0.280000,-0.080000,1.920029,0.080000,-561.460556,-8903.678781,8254.263844,-1516.798283,-0.000000,0.000000,-0.000000
-0.200000,-0.080000,1.920024,0.080000,-1372.850388,-16635.256380,15519.933914,687.216978,-0.000000,0.000000,0.000000
-0.120000,-0.080000,1.920000,0.080000,-2086.845809,-22000.295401,20512.266902,1343.275749,-0.000000,0.000000,0.000000
-0.040000,-0.080000,1.920026,0.080000,-2671.838289,-24663.548269,22952.089404,523.166181,-0.000000,0.000000,0.000000
0.040000,-0.080000,1.920026,0.080000,-3112.130153,-24810.510384,23064.176960,-1236.469442,-0.000000,0.000000,-0.000000
0.120000,-0.080000,1.920000,0.080000,-3406.571849,-23028.825808,21448.366722,-3086.943557,-0.000000,0.000000,-0.000000
0.200000,-0.080000,1.920024,0.080000,-3564.874070,-20103.397416,18869.956237,-4137.508807,-0.000000,0.000000,-0.000000
0.280000,-0.080000,1.920029,0.080000,-3602.877773,-16804.277606,16050.412327,-3743.668681,-0.000000,0.000000,-0.000000
0.360000,-0.080000,1.920000,0.080000,-3538.067405,-13736.238105,13526.764832,-1707.753425,-0.000000,0.000000,-0.000000
0.440000,-0.080000,1.920022,0.080000,-3386.196296,-11284.672936,11611.426659,1677.906521,-0.000000,0.000000,0.000000
0.520000,-0.080000,1.920032,0.080000,-3159.279744,-9652.459784,10442.823689,5751.535548,-0.000000,0.000000,0.000000
0.600000,-0.080000,1.900008,0.080000,-2864.651723,-8955.106458,10090.145505,9710.458398,-0.000000,0.000000,0.000000
0.680000,-0.080000,1.820008,0.080000,-2504.440466,-9337.377689,10672.952307,12856.989935,-0.000000,0.000000,0.000000
0.760000,-0.080000,1.740008,0.080000,-2074.712143,-11093.275330,12477.108501,14774.671411,-0.000000,0.000000,0.000000
0.840000,-0.080000,1.660009,0.080000,-1563.532486,-14805.659646,16084.416851,15382.587416,-0.000000,0.000000,0.000000
0.920000,-0.080000,1.580009,0.080000,-947.077105,-21567.125621,22578.633007,14859.567193,-0.000000,0.000000,0.000000
1.000000,-0.080000,1.500010,0.080000,-182.387089,-33408.672070,33953.186913,13456.949536,-0.000001,0.000001,0.000000
1.080000,-0.080000,1.420010,0.080000,806.007991,-54183.688183,53961.312577,11203.697395,-0.000001,0.000001,0.000000
1.160000,-0.080000,1.340011,0.080000,2151.391651,-91422.544526,89905.198567,7423.546176,-0.000002,0.000002,0.000000
1.240000,-0.080000,1.260011,0.080000,4094.311108,-160297.891495,156459.317542,-227.039566,-0.000003,0.000003,-0.000000
1.320000,-0.080000,1.180012,0.080000,7082.417220,-292323.196838,284043.068320,-17989.226598,-0.000005,0.000005,-0.000000
1.400000,-0.080000,1.100013,0.080000,11978.442645,-554983.094151,537678.513330,-61518.458786,-0.000010,0.000010,-0.000001
1.480000,-0.080000,1.020014,0.080000,20507.037399,-1097300.738682,1060678.236534,-169864.563745,-0.000020,0.000020,-0.000003
1.560000,-0.080000,0.940015,0.080000,36244.792533,-2258513.135755,2178637.313684,-441404.968005,-0.000042,0.000041,-0.000008
1.640000,-0.080000,0.860017,0.080000,66881.348290,-4833984.809932,4653411.322470,-1127385.043064,-0.000090,0.000089,-0.000021
1.720000,-0.080000,0.780019,0.080000,129537.540954,-10741628.368045,10318491.938630,-2878327.307869,-0.000200,0.000197,-0.000054
1.800000,-0.080000,0.700021,0.080000,263627.893625,-24728981.437241,23703894.210932,-7399678.325511,-0.000460,0.000452,-0.000139
1.880000,-0.080000,0.620023,0.080000,562788.256407,-58831294.675423,56273492.327126,-19208873.805749,-0.001094,0.001075,-0.000362
1.960000,-0.080000,0.540027,0.080000,1256014.021128,-145981419.963327,143437193.542217,-51883735.233445,-0.002736,0.002717,-0.000978
2.040000,-0.080000,0.460031,0.080000,2918145.129668,-367380907.583013,364298627.407048,-133740945.791877,-0.006904,0.006881,-0.002520
2.120000,-0.080000,0.380038,0.080000,7025315.525356,-925683978.030073,932995740.485358,-360389488.841752,-0.017482,0.017537,-0.006790
-2.120000,0.000000,0.380293,0.080000,-8010945.850400,1042171234.883255,-1048763115.621742,-540588666.593371,0.019672,-0.019722,-0.010185
-2.040000,0.000000,0.460242,0.080000,-3337420.740385,417071142.881006,-413278914.276980,-204788535.100911,0.007836,-0.007808,-0.003858
-1.960000,0.000000,0.540206,0.080000,-1436363.730183,166677043.512964,-163820521.585359,-82355950.950851,0.003124,-0.003103,-0.001552
-1.880000,0.000000,0.620180,0.080000,-641303.842416,67381192.474920,-64531584.663485,-32311566.962808,0.001253,-0.001232,-0.000609
-1.800000,0.000000,0.700159,0.080000,-297920.227869,28346272.244300,-27233363.404640,-13437570.132137,0.000528,-0.000519,-0.000253
-1.720000,0.000000,0.780143,0.080000,-144123.855702,12301411.225353,-11859586.307426,-5780473.033203,0.000229,-0.000226,-0.000109
-1.640000,0.000000,0.860130,0.080000,-72407.903644,5523671.501265,-5345242.233491,-2579976.534674,0.000103,-0.000102,-0.000049
-1.560000,0.000000,0.940118,0.080000,-37460.023003,2573131.251887,-2499808.105858,-1198026.659250,0.000048,-0.000048,-0.000023
-1.480000,0.000000,1.020109,0.080000,-19599.484685,1246531.101784,-1215816.570633,-580327.861014,0.000023,-0.000023,-0.000011
-1.400000,0.000000,1.100101,0.080000,-9997.169544,629627.079849,-616398.190621,-294219.303826,0.000012,-0.000012,-0.000006
-1.320000,0.000000,1.180094,0.080000,-4555.522262,332885.054250,-326859.240214,-156989.794040,0.000006,-0.000006,-0.000003
-1.240000,0.000000,1.260088,0.080000,-1306.693537,185594.142259,-182494.079222,-89095.164366,0.000003,-0.000003,-0.000002
-1.160000,0.000000,1.340083,0.080000,725.204702,110685.705066,-108713.892707,-54749.748493,0.000002,-0.000002,-0.000001
-1.080000,0.000000,1.420078,0.080000,2036.646838,72222.424134,-70629.190903,-37227.666612,0.000001,-0.000001,-0.000001
-1.000000,0.000000,1.500074,0.080000,2883.190198,52770.906452,-51262.613256,-28303.382494,0.000001,-0.000001,-0.000001
-0.920000,0.000000,1.580070,0.080000,3394.885140,43378.168909,-41868.230448,-23625.526913,0.000001,-0.000001,-0.000000
-0.840000,0.000000,1.660067,0.080000,3635.315155,39031.117101,-37532.432178,-20675.889708,0.000001,-0.000001,-0.000000
-0.760000,0.000000,1.740064,0.080000,3634.428863,36600.945474,-35176.562092,-17906.022899,0.000001,-0.000001,-0.000000
-0.680000,0.000000,1.820061,0.080000,3408.820513,33970.929929,-32708.154110,-14424.068522,0.000001,-0.000001,-0.000000
-0.600000,0.000000,1.900059,0.080000,2975.298730,29744.671196,-28738.165707,-9916.853253,0.000001,-0.000001,-0.000000
-0.520000,0.000000,1.980056,0.080000,2359.773183,23216.086214,-22554.245282,-4622.741820,0.000000,-0.000000,-0.000000
-0.440000,0.000000,2.000021,0.080000,1601.771831,14402.760168,-14155.442807,757.428291,0.000000,-0.000000,0.000000
-0.360000,0.000000,2.000000,0.080000,754.462265,4012.780659,-4220.186670,5260.428931,0.000000,-0.000000,0.000000
-0.280000,0.000000,2.000028,0.080000,-119.567750,-6721.363258,6057.990272,7954.653846,-0.000000,0.000000,0.000000
-0.200000,0.000000,2.000023,0.080000,-955.720384,-16339.902687,15264.437226,8253.929138,-0.000000,0.000000,0.000000
-0.120000,0.000000,2.000000,0.080000,-1696.155995,-23520.173408,22122.938927,6148.832947,-0.000000,0.000000,0.000000
-0.040000,0.000000,2.000025,0.080000,-2297.696511,-27408.040582,25820.697245,2267.536991,-0.000001,0.000000,0.000000
0.040000,0.000000,2.000025,0.080000,-2736.861665,-27818.538730,26201.726262,-2267.718290,-0.000001,0.000001,-0.000000
0.120000,0.000000,2.000000,0.080000,-3010.847648,-25248.478947,23772.955665,-6148.989282,-0.000000,0.000000,-0.000000
0.200000,0.000000,2.000023,0.080000,-3134.408117,-20706.393346,19530.307744,-8254.040862,-0.000000,0.000000,-0.000000
0.280000,0.000000,2.000028,0.080000,-3133.702731,-15424.780399,14671.269206,-7954.710583,-0.000000,0.000000,-0.000000
0.360000,0.000000,2.000000,0.080000,-3038.877143,-10553.157043,10292.967320,-5260.431225,-0.000000,0.000000,-0.000000
0.440000,0.000000,2.000021,0.080000,-2877.231904,-6926.861251,7169.749146,-757.386702,-0.000000,0.000000,-0.000000
0.520000,0.000000,1.980056,0.080000,-2668.355050,-4970.925669,5667.347313,4622.809658,-0.000000,0.000000,0.000000
0.600000,0.000000,1.900059,0.080000,-2421.757087,-4748.471816,5800.228495,9916.926511,-0.000000,0.000000,0.000000
0.680000,0.000000,1.820061,0.080000,-2136.664159,-6120.944089,7396.880592,14424.126635,-0.000000,0.000000,0.000000
0.760000,0.000000,1.740064,0.080000,-1802.949667,-8970.153284,10321.435890,17906.047327,-0.000000,0.000000,0.000000
0.840000,0.000000,1.660067,0.080000,-1401.815313,-13446.742620,14715.771932,20675.863006,-0.000000,0.000000,0.000000
0.920000,0.000000,1.580070,0.080000,-904.669105,-20255.868906,21272.792808,23625.428239,-0.000000,0.000000,0.000000
1.000000,0.000000,1.500074,0.080000,-268.391922,-31070.101828,31629.484009,28303.178197,-0.000001,0.000001,0.000001
1.080000,0.000000,1.420078,0.080000,575.675522,-49292.637742,49096.974982,37227.292653,-0.000001,0.000001,0.000001
1.160000,0.000000,1.340083,0.080000,1744.027458,-81651.689409,80192.018336,54749.076854,-0.000002,0.000002,0.000001
1.240000,0.000000,1.260088,0.080000,3445.085562,-141674.498953,137977.549002,89093.935183,-0.000003,0.000003,0.000002
1.320000,0.000000,1.180094,0.080000,6068.080949,-257423.164117,249495.864138,156987.471722,-0.000005,0.000005,0.000003
1.400000,0.000000,1.100101,0.080000,10368.073336,-489105.696437,472666.238372,294214.761202,-0.000009,0.000009,0.000006
1.480000,0.000000,1.020109,0.080000,17864.353451,-970169.484452,935649.416958,580318.667562,-0.000018,0.000018,0.000011
1.560000,0.000000,0.940118,0.080000,31726.634980,-2005645.684462,1930901.678682,1198007.442185,-0.000037,0.000037,0.000023
1.640000,0.000000,0.860130,0.080000,58807.662942,-4313302.271960,4145453.262682,2579935.136278,-0.000080,0.000079,0.000049
1.720000,0.000000,0.780143,0.080000,114441.700183,-9628394.550747,9237578.356379,5780381.374852,-0.000179,0.000176,0.000109
1.800000,0.000000,0.700159,0.080000,234080.151704,-22250761.683592,21310260.227952,13437362.328061,-0.000414,0.000407,0.000253
1.880000,0.000000,0.620180,0.080000,502201.911176,-53070286.036331,50741335.768263,32311087.049392,-0.000987,0.000969,0.000609
1.960000,0.000000,0.540206,0.080000,1125703.622052,-131787486.272306,129500152.512132,82354806.287519,-0.002470,0.002453,0.001552
2.040000,0.000000,0.460242,0.080000,2623604.724842,-331152017.655128,328472736.211805,204785939.990082,-0.006224,0.006204,0.003858
2.120000,0.000000,0.380293,0.080000,6324441.461689,-831078599.709271,838073235.360063,540582793.869391,-0.015698,0.015750,0.010185
-2.120000,0.080000,0.380038,0.080000,-8091353.429362,1050827413.220163,-1057851464.186106,526165561.889574,0.019838,-0.019891,0.009913
-2.040000,0.080000,0.460031,0.080000,-3384095.217080,419365080.606319,-415625789.415421,198155781.385949,0.007880,-0.007852,0.003733
-1.960000,0.080000,0.540027,0.080000,-1465782.333797,167643570.981570,-164776638.814930,78227293.242572,0.003142,-0.003121,0.001474
-1.880000,0.080000,0.620023,0.080000,-659876.441713,67988654.275972,-65125236.793657,29647956.024871,0.001265,-0.001243,0.000559
-1.800000,0.080000,0.700021,0.080000,-309504.531597,28757347.152188,-27632638.115481,11743821.815030,0.000535,-0.000527,0.000221
-1.720000,0.080000,0.780019,0.080000,-151308.714756,12568917.382958,-12118312.161939,4732165.658323,0.000234,-0.000231,0.000089
-1.640000,0.080000,0.860017,0.080000,-76882.965913,5690420.872245,-5506152.906410,1940692.749456,0.000106,-0.000105,0.000037
-1.560000,0.080000,0.940015,0.080000,-40282.840586,2674113.364189,-2597160.636171,808908.434839,0.000050,-0.000049,0.000015
-1.480000,0.080000,1.020014,0.080000,-21412.461630,1306659.307384,-1273770.075940,341028.180161,0.000024,-0.000024,0.000006
-1.400000,0.080000,1.100013,0.080000,-11183.506956,665011.807876,-650501.306743,143529.180309,0.000012,-0.000012,0.000003
-1.320000,0.080000,1.180012,0.080000,-5340.905599,353373.622293,-346593.010896,58058.408398,0.000007,-0.000007,0.000001
-1.240000,0.080000,1.260011,0.080000,-1821.809637,197059.556837,-193507.170000,19668.637023,0.000004,-0.000004,0.000000
-1.160000,0.080000,1.340011,0.080000,407.239990,116670.341489,-114415.194481,1269.548663,0.000002,-0.000002,0.000000
-1.080000,0.080000,1.420010,0.080000,1877.664448,74998.249529,-73212.937113,-8486.519664,0.000001,-0.000001,-0.000000
-1.000000,0.080000,1.500010,0.080000,2865.453051,53965.487325,-52313.383765,-14170.930456,0.000001,-0.000001,-0.000000
-0.920000,0.080000,1.580009,0.080000,3510.712570,44286.699175,-42660.938222,-17326.840436,0.000001,-0.000001,-0.000000
-0.840000,0.080000,1.660009,0.080000,3878.860863,40699.136582,-39107.356551,-18155.862570,0.000001,-0.000001,-0.000000
-0.760000,0.080000,1.740008,0.080000,3995.076346,39752.125959,-38260.769028,-16406.422251,0.000001,-0.000001,-0.000000
-0.680000,0.080000,1.820008,0.080000,3866.635524,38865.314072,-37567.459764,-11939.073066,0.000001,-0.000001,-0.000000
-0.600000,0.080000,1.900008,0.080000,3499.413121,36065.669659,-35058.353590,-5098.232848,0.000001,-0.000001,-0.000000
-0.520000,0.080000,1.920032,0.080000,2910.392089,30077.632197,-29444.349157,3124.345638,0.000001,-0.000001,0.000000
-0.440000,0.080000,1.920022,0.080000,2135.743896,20528.730287,-20326.627852,11176.934641,0.000000,-0.000000,0.000000
-0.360000,0.080000,1.920000,0.080000,1233.278585,8073.837647,-8325.804689,17281.046729,0.000000,-0.000000,0.000000
-0.280000,0.080000,1.920029,0.080000,278.542157,-5700.565368,5009.359959,19922.203781,-0.000000,0.000000,0.000000
-0.200000,0.080000,1.920024,0.080000,-644.820776,-18636.616354,17558.852155,18337.348848,-0.000000,0.000000,0.000000
-0.120000,0.080000,1.920000,0.080000,-1458.206693,-28561.970246,27186.001568,12817.848657,-0.000001,0.000001,0.000000
-0.040000,0.080000,1.920026,0.080000,-2101.267732,-33884.154493,32329.677950,4698.699592,-0.000001,0.000001,0.000000
0.040000,0.080000,1.920026,0.080000,-2541.558395,-34031.088963,32441.738422,-3985.785717,-0.000001,0.000001,-0.000000
0.120000,0.080000,1.920000,0.080000,-2777.929297,-29590.423687,28122.026013,-11074.514557,-0.000001,0.000001,-0.000000
0.200000,0.080000,1.920024,0.080000,-2836.839258,-22104.647475,20908.766879,-14887.291495,-0.000000,0.000000,-0.000000
0.280000,0.080000,1.920029,0.080000,-2762.868767,-13601.043888,12805.390778,-14661.849569,-0.000000,0.000000,-0.000000
0.360000,0.080000,1.920000,0.080000,-2606.335235,-6025.124618,5714.497470,-10681.808473,-0.000000,0.000000,-0.000000
0.440000,0.080000,1.920022,0.080000,-2411.486565,-767.924554,970.421419,-4074.395662,-0.000000,0.000000,-0.000000
0.520000,0.080000,1.920032,0.080000,-2208.155831,1573.070647,-890.585848,3626.809931,0.000000,-0.000000,0.000000
0.600000,0.080000,1.900008,0.080000,-2008.312013,1155.992214,-81.707789,10990.816462,0.000000,-0.000000,0.000000
0.680000,0.080000,1.820008,0.080000,-1807.234996,-1365.209861,2703.020849,17110.493248,-0.000000,0.000000,0.000000
0.760000,0.080000,1.740008,0.080000,-1587.682785,-5206.634893,6658.500608,21844.878546,-0.000000,0.000000,0.000000
0.840000,0.080000,1.660009,0.080000,-1324.775335,-9807.272108,11219.033571,25892.828388,-0.000000,0.000000,0.000000
0.920000,0.080000,1.580009,0.080000,-989.407817,-15098.011747,16318.992385,30810.763635,-0.000000,0.000000,0.000001
1.000000,0.080000,1.500010,0.080000,-548.523459,-21693.393892,22571.580124,39179.173259,-0.000000,0.000000,0.000001
1.080000,0.080000,1.420010,0.080000,38.961853,-31096.509776,31456.878532,55235.339849,-0.000001,0.000001,0.000001
1.160000,0.080000,1.340011,0.080000,831.912261,-46092.462465,45692.875879,86523.944403,-0.000001,0.000001,0.000002
1.240000,0.080000,1.260011,0.080000,1924.980567,-71617.038827,70069.646291,147701.920443,-0.000001,0.000001,0.000003
1.320000,0.080000,1.180012,0.080000,3480.557303,-116590.880974,113222.760363,269092.946980,-0.000002,0.000002,0.000005
1.400000,0.080000,1.100013,0.080000,5786.647007,-197628.080299,191228.563513,516190.066584,-0.000004,0.000004,0.000010
1.480000,0.080000,1.020014,0.080000,9364.904201,-346367.645653,334726.233513,1035267.280437,-0.000006,0.000006,0.000020
1.560000,0.080000,0.940015,0.080000,15176.734677,-623747.381875,602827.213793,2162932.399702,-0.000012,0.000011,0.000041
1.640000,0.080000,0.860017,0.080000,25020.664465,-1147161.901469,1109724.147474,4695885.532550,-0.000021,0.000021,0.000088
1.720000,0.080000,0.780019,0.080000,42297.898969,-2139795.006657,2073507.716373,10570349.131794,-0.000040,0.000039,0.000199
1.800000,0.080000,0.700021,0.080000,73465.765800,-4011838.709523,3898191.059555,24608149.118078,-0.000075,0.000074,0.000464
1.880000,0.080000,0.620023,0.080000,130699.182302,-7464638.874075,7285071.921138,59082633.223442,-0.000140,0.000138,0.001113
1.960000,0.080000,0.540027,0.080000,236404.095906,-13606153.932752,13601323.574589,149887628.894718,-0.000256,0.000256,0.002824
2.040000,0.080000,0.460031,0.080000,429623.543487,-23133326.800217,23265476.420974,370247150.226332,-0.000437,0.000438,0.006976
2.120000,0.080000,0.380038,0.080000,770715.338161,-34255636.403220,35063057.028177,968542025.357162,-0.000650,0.000656,0.018248
-2.120000,0.160000,0.380023,0.080000,-2034390.148205,168433204.956006,-169815638.250516,1136284185.928098,0.003181,-0.003192,0.021408
-2.040000,0.160000,0.460019,0.080000,-1023663.265092,78572479.075559,-78219038.996220,430908464.133145,0.001478,-0.001476,0.008119
-1.960000,0.160000,0.540016,0.080000,-528654.457969,37613717.402664,-37302587.238617,172825375.991631,0.000707,-0.000705,0.003256
-1.880000,0.160000,0.620014,0.080000,-279657.840801,18348861.392349,-17838598.136266,67270159.145476,0.000343,-0.000339,0.001267
-1.800000,0.160000,0.700012,0.080000,-151482.087595,9220709.351931,-8977819.166646,27588052.552014,0.000172,-0.000171,0.000520
-1.720000,0.160000,0.780011,0.080000,-83934.116864,4721794.655436,-4605033.364328,11615679.816165,0.000088,-0.000087,0.000219
-1.640000,0.160000,0.860010,0.080000,-47400.878251,2466220.861005,-2409763.832810,5028644.854904,0.000046,-0.000046,0.000095
-1.560000,0.160000,0.940009,0.080000,-27052.113681,1316476.116751,-1288982.033907,2240357.582710,0.000025,-0.000024,0.000042
-1.480000,0.160000,1.020009,0.080000,-15334.369069,719825.568578,-706234.230649,1027067.034393,0.000013,-0.000013,0.000019
-1.400000,0.160000,1.100008,0.080000,-8330.368832,404014.950857,-397055.678794,483454.730274,0.000008,-0.000008,0.000009
-1.320000,0.160000,1.180007,0.080000,-3967.727590,233323.827600,-229472.863721,231930.739213,0.000004,-0.000004,0.000004
-1.240000,0.160000,1.260007,0.080000,-1126.670424,139305.804647,-136849.006335,110978.079416,0.000003,-0.000003,0.000002
-1.160000,0.160000,1.340007,0.080000,809.680054,87067.412954,-85171.909725,49781.565849,0.000002,-0.000002,0.000001
-1.080000,0.160000,1.420006,0.080000,2184.462637,58627.899189,-56899.575765,16712.426465,0.000001,-0.000001,0.000000
-1.000000,0.160000,1.500006,0.080000,3185.144837,44530.266529,-42804.774037,-2324.346353,0.000001,-0.000001,-0.000000
-0.920000,0.160000,1.580006,0.080000,3905.608795,39470.311976,-37714.152449,-13272.516091,0.000001,-0.000001,-0.000000
-0.840000,0.160000,1.660005,0.080000,4380.898125,39946.781084,-38206.927324,-18237.454311,0.000001,-0.000001,-0.000000
-0.760000,0.160000,1.740005,0.080000,4609.967141,43033.609205,-41405.223291,-17716.871839,0.000001,-0.000001,-0.000000
-0.680000,0.160000,1.820005,0.080000,4574.429978,45892.227453,-44491.217771,-11946.777924,0.000001,-0.000001,-0.000000
-0.600000,0.160000,1.840000,0.080000,4256.524623,45836.625719,-44774.043982,-1757.243951,0.000001,-0.000001,-0.000000
-0.520000,0.160000,1.840033,0.080000,3655.987120,40776.174946,-40136.981290,11017.430989,0.000001,-0.000001,0.000000
-0.440000,0.160000,1.840023,0.080000,2803.151203,29796.085483,-29626.117253,23622.913379,0.000001,-0.000001,0.000000
-0.360000,0.160000,1.840000,0.080000,1764.723176,13586.181280,-13889.055916,32941.899291,0.000000,-0.000000,0.000001
-0.280000,0.160000,1.840030,0.080000,639.616450,-5535.798681,4793.806443,36353.056758,-0.000000,0.000000,0.000001
-0.200000,0.160000,1.840025,0.080000,-455.267763,-24119.666490,23001.602612,32587.368350,-0.000000,0.000000,0.000001
-0.120000,0.160000,1.840000,0.080000,-1406.232346,-38504.117442,37096.212378,22243.767140,-0.000001,0.000001,0.000000
-0.040000,0.160000,1.840028,0.080000,-2125.253945,-45881.874150,44291.589372,7729.590324,-0.000001,0.000001,0.000000
0.040000,0.160000,1.840028,0.080000,-2567.166552,-45141.072533,43497.471635,-7397.082938,-0.000001,0.000001,-0.000000
0.120000,0.160000,1.840000,0.080000,-2736.391803,-37179.260260,35630.737926,-19472.086809,-0.000001,0.000001,-0.000000
0.200000,0.160000,1.840025,0.080000,-2681.310532,-24578.701588,23283.044150,-25790.952563,-0.000000,0.000000,-0.000000
0.280000,0.160000,1.840030,0.080000,-2478.307650,-10771.507905,9876.588706,-25323.326650,-0.000000,0.000000,-0.000000
0.360000,0.160000,1.840000,0.080000,-2210.657352,992.697756,-1374.164652,-18846.895114,0.000000,-0.000000,-0.000000
0.440000,0.160000,1.840023,0.080000,-1948.616287,8511.817367,-8325.838281,-8499.314748,0.000000,-0.000000,-0.000000
0.520000,0.160000,1.840033,0.080000,-1736.043045,11059.042996,-10323.653390,3042.249176,0.000000,-0.000000,0.000000
0.600000,0.160000,1.840000,0.080000,-1586.152733,9294.129214,-8096.897934,13437.214124,0.000000,-0.000000,0.000000
0.680000,0.160000,1.820005,0.080000,-1485.824903,4777.376405,-3257.171578,21328.184918,0.000000,-0.000000,0.000000
0.760000,0.160000,1.740005,0.080000,-1405.436322,-669.691096,2351.075433,26615.233980,-0.000000,0.000000,0.000001
0.840000,0.160000,1.660005,0.080000,-1310.256602,-5498.795257,7186.769744,30398.251589,-0.000000,0.000000,0.000001
0.920000,0.160000,1.580006,0.080000,-1170.112187,-8682.328619,10254.433973,34781.524950,-0.000000,0.000000,0.000001
1.000000,0.160000,1.500006,0.080000,-965.827556,-9592.894154,10977.190717,42827.208313,-0.000000,0.000000,0.000001
1.080000,0.160000,1.420006,0.080000,-693.277892,-7476.421435,8671.564892,59005.725884,-0.000000,0.000000,0.000001
1.160000,0.160000,1.340007,0.080000,-368.505841,-369.000268,1489.838243,90623.083241,-0.000000,0.000000,0.000002
1.240000,0.160000,1.260007,0.080000,-41.036335,17101.609644,-15697.621499,151102.257306,0.000000,-0.000000,0.000003
1.320000,0.160000,1.180007,0.080000,169.992969,58633.862578,-56007.868200,267034.489038,0.000001,-0.000001,0.000005
1.400000,0.160000,1.100008,0.080000,-16.019909,158088.652197,-151838.950016,493419.508953,0.000003,-0.000003,0.000009
1.480000,0.160000,1.020009,0.080000,-1268.171081,399075.001958,-383054.252591,947444.483801,0.000007,-0.000007,0.000018
1.560000,0.160000,0.940009,0.080000,-5205.293061,990527.599102,-948880.988689,1885369.019224,0.000018,-0.000018,0.000036
1.640000,0.160000,0.860010,0.080000,-15800.804329,2463063.963050,-2354463.704271,3881842.725077,0.000046,-0.000045,0.000073
1.720000,0.160000,0.780011,0.080000,-42956.995592,6186951.603269,-5902381.508235,8257684.537828,0.000115,-0.000113,0.000156
1.800000,0.160000,0.700012,0.080000,-111751.909202,15757115.652670,-15005592.163003,18122613.844421,0.000293,-0.000287,0.000341
1.880000,0.160000,0.620014,0.080000,-286739.187304,40738817.699096,-38735435.924630,40970465.877169,0.000756,-0.000741,0.000772
1.960000,0.160000,0.540016,0.080000,-736696.640094,108307155.282124,-106105152.599949,97615818.426113,0.002028,-0.002012,0.001839
2.040000,0.160000,0.460019,0.080000,-1909132.340802,287794767.646332,-285043120.273842,228144503.298809,0.005407,-0.005386,0.004298
2.120000,0.160000,0.380023,0.080000,-5004535.803117,755707390.381142,-761453558.254143,566293312.830389,0.014270,-0.014314,0.010669
-2.120000,0.240000,0.380248,0.080000,5026358.965284,-823153157.952453,828413296.558259,758187023.474273,-0.015538,0.015578,0.014285
-2.040000,0.240000,0.460205,0.080000,1802860.620634,-306752178.856182,303455411.909457,299741002.362464,-0.005761,0.005736,0.005647
-1.960000,0.240000,0.540175,0.080000,633178.870873,-111787445.956037,109307217.943564,126563284.900218,-0.002092,0.002073,0.002385
-1.880000,0.240000,0.620152,0.080000,211622.124217,-40134936.144775,38007640.919189,52527114.424588,-0.000744,0.000728,0.000990
-1.800000,0.240000,0.700135,0.080000,62513.926495,-14536617.932003,13769773.732608,23008183.726971,-0.000270,0.000264,0.000433
-1.720000,0.240000,0.780121,0.080000,12178.737652,-5181730.405595,4905074.876207,10367615.274909,-0.000096,0.000094,0.000195
-1.640000,0.240000,0.860110,0.080000,-2868.398139,-1775056.373341,1675546.282589,4804799.980883,-0.000033,0.000032,0.000091
-1.560000,0.240000,0.940100,0.080000,-5764.360426,-551200.208275,515859.032097,2289851.091457,-0.000010,0.000010,0.000043
-1.480000,0.240000,1.020092,0.080000,-4837.353092,-126639.340816,114568.362184,1121728.760633,-0.000002,0.000002,0.000021
-1.400000,0.240000,1.100086,0.080000,-2989.185851,8496.635903,-12118.012920,563865.477126,0.000000,-0.000000,0.000011
-1.320000,0.240000,1.180080,0.080000,-1153.190815,41978.614088,-42498.922738,289170.281832,0.000001,-0.000001,0.000005
-1.240000,0.240000,1.260075,0.080000,431.529227,42540.326892,-41861.505441,148694.979835,0.000001,-0.000001,0.000003
-1.160000,0.240000,1.340070,0.080000,1752.965975,35096.149830,-33873.312733,73000.211366,0.000001,-0.000001,0.000001
-1.080000,0.240000,1.420066,0.080000,2856.477410,28636.769839,-27090.123598,29233.449500,0.000001,-0.000001,0.000001
-1.000000,0.240000,1.500063,0.080000,3783.414390,26392.786961,-24614.245321,2082.279426,0.000000,-0.000000,0.000000
-0.920000,0.240000,1.580060,0.080000,4549.082698,29255.081663,-27326.880092,-14936.310786,0.000001,-0.000001,-0.000000
-0.840000,0.240000,1.660057,0.080000,5136.589912,36654.249741,-34690.454608,-23780.722574,0.000001,-0.000001,-0.000000
-0.760000,0.240000,1.740054,0.080000,5500.278573,46646.008502,-44794.676353,-24406.827090,0.000001,-0.000001,-0.000000
-0.680000,0.240000,1.760021,0.080000,5577.881301,56034.859024,-54456.628381,-16570.209850,0.000001,-0.000001,-0.000000
-0.600000,0.240000,1.760000,0.080000,5310.481044,60930.163932,-59766.034800,-1164.324795,0.000001,-0.000001,-0.000000
-0.520000,0.240000,1.760034,0.080000,4666.754156,57786.888045,-57129.056872,19044.802943,0.000001,-0.000001,0.000000
-0.440000,0.240000,1.760024,0.080000,3665.016420,44668.291445,-44545.897936,39506.948413,0.000001,-0.000001,0.000001
-0.360000,0.240000,1.760000,0.080000,2385.256142,22254.647005,-22639.229810,54843.675420,0.000000,-0.000000,0.000001
-0.280000,0.240000,1.760032,0.080000,964.941448,-5887.701721,5061.844680,60400.448810,-0.000000,0.000000,0.000001
-0.200000,0.240000,1.760026,0.080000,-423.018837,-34033.448942,32846.060884,53837.944692,-0.000001,0.000001,0.000001
-0.120000,0.240000,1.760000,0.080000,-1605.624209,-55887.408836,54419.064402,36116.900048,-0.000001,0.000001,0.000001
-0.040000,0.240000,1.760029,0.080000,-2448.596686,-66518.931135,64854.164414,11417.761225,-0.000001,0.000001,0.000000
0.040000,0.240000,1.760029,0.080000,-2886.710748,-63934.856150,62177.620777,-14057.020136,-0.000001,0.000001,-0.000000
0.120000,0.240000,1.760000,0.080000,-2935.950353,-49690.436371,47979.427436,-33995.434750,-0.000001,0.000001,-0.000001
0.200000,0.240000,1.760026,0.080000,-2683.763613,-28306.228984,26815.958235,-43903.111298,-0.000001,0.000001,-0.000001
0.280000,0.240000,1.760032,0.080000,-2261.061561,-5729.423289,4649.400043,-42342.434984,-0.000000,0.000000,-0.000001
0.360000,0.240000,1.760000,0.080000,-1805.495907,12559.349122,-13063.618072,-31072.107346,0.000000,-0.000000,-0.000001
0.440000,0.240000,1.760024,0.080000,-1427.718953,23094.436629,-22924.617451,-14123.997725,0.000000,-0.000000,-0.000000
0.520000,0.240000,1.760034,0.080000,-1190.177847,25124.647977,-24279.142612,3744.754527,0.000000,-0.000000,0.000000
0.600000,0.240000,1.760000,0.080000,-1102.736083,20341.678341,-18918.554684,18602.819453,0.000000,-0.000000,0.000000
0.680000,0.240000,1.760021,0.080000,-1133.409976,11902.582819,-10073.603443,28368.785125,0.000000,-0.000000,0.000001
0.760000,0.240000,1.740054,0.080000,-1228.149364,3240.185774,-1204.834740,33072.093416,0.000000,-0.000000,0.000001
0.840000,0.240000,1.660057,0.080000,-1332.294423,-2842.452438,4908.152254,34457.491055,-0.000000,0.000000,0.000001
0.920000,0.240000,1.580060,0.080000,-1408.122189,-4470.757868,6458.303152,35280.933413,-0.000000,0.000000,0.000001
1.000000,0.240000,1.500063,0.080000,-1446.695454,-280.551829,2184.096577,38708.996566,-0.000000,0.000000,0.000001
1.080000,0.240000,1.420066,0.080000,-1476.749307,11736.306423,-9778.566521,48144.119003,0.000000,-0.000000,0.000001
1.160000,0.240000,1.340070,0.080000,-1578.084543,36325.936444,-33944.084760,67644.529694,0.000001,-0.000001,0.000001
1.240000,0.240000,1.260075,0.080000,-1913.135200,84855.936150,-81229.599438,102978.839081,0.000002,-0.000002,0.000002
1.320000,0.240000,1.180080,0.080000,-2802.320352,183359.180498,-176682.625829,163250.477849,0.000003,-0.000003,0.000003
1.400000,0.240000,1.100086,0.080000,-4896.584866,390606.704570,-376805.273642,262720.979449,0.000007,-0.000007,0.000005
1.480000,0.240000,1.020092,0.080000,-9567.559250,840472.715900,-810113.192400,421148.564263,0.000016,-0.000015,0.000008
1.560000,0.240000,0.940100,0.080000,-19798.358880,1843752.768181,-1774493.386823,656154.131466,0.000034,-0.000034,0.000012
1.640000,0.240000,0.860110,0.080000,-42256.825876,4137903.399677,-3975692.710794,945288.503729,0.000077,-0.000076,0.000018
1.720000,0.240000,0.780121,0.080000,-92227.515094,9511683.124520,-9123034.795854,1085951.374836,0.000177,-0.000174,0.000020
1.800000,0.240000,0.700135,0.080000,-205605.073972,22397534.839807,-21446131.661811,231041.358285,0.000417,-0.000409,0.000004
1.880000,0.240000,0.620152,0.080000,-468687.487874,54005711.754735,-51627802.005727,-4568007.761203,0.001004,-0.000986,-0.000086
1.960000,0.240000,0.540175,0.080000,-1093709.545918,134889201.095602,-132538278.596348,-24005343.451834,0.002528,-0.002510,-0.000452
2.040000,0.240000,0.460205,0.080000,-2614048.632179,340100826.674905,-337298817.366197,-84471901.028981,0.006392,-0.006371,-0.001591
2.120000,0.240000,0.380248,0.080000,-6397698.117601,856734844.106567,-863753303.053911,-280347072.836415,0.016181,-0.016234,-0.005282
-2.120000,0.320000,0.380057,0.080000,7325796.525246,-1041594907.605215,1048482358.600417,-244971265.675168,-0.019663,0.019715,-0.004615
-2.040000,0.320000,0.460047,0.080000,2896823.709652,-404235803.497554,400403123.621034,-63792820.254186,-0.007594,0.007565,-0.001202
-1.960000,0.320000,0.540040,0.080000,1163954.066008,-156598373.373218,153679993.041210,-12093925.099690,-0.002934,0.002912,-0.000228
-1.880000,0.320000,0.620035,0.080000,473204.168578,-61094034.172891,58328368.720713,1872372.682050,-0.001135,0.001115,0.000035
-1.800000,0.320000,0.700031,0.080000,193414.064244,-24592395.421495,23531772.719244,3657460.733732,-0.000457,0.000449,0.000069
-1.720000,0.320000,0.780028,0.080000,78779.007310,-10064299.187240,9651241.097803,2878953.137408,-0.000187,0.000184,0.000054
-1.640000,0.320000,0.860025,0.080000,31647.216916,-4173741.627482,4010826.561558,1874946.328247,-0.000078,0.000076,0.000035
-1.560000,0.320000,0.940023,0.080000,12488.643336,-1745256.782356,1680506.892132,1135901.658551,-0.000033,0.000032,0.000021
-1.480000,0.320000,1.020021,0.080000,5027.634989,-730377.142489,704720.816842,667866.784063,-0.000014,0.000013,0.000013
-1.400000,0.320000,1.100020,0.080000,2468.751348,-302761.751554,292902.340415,388401.061503,-0.000006,0.000006,0.000007
-1.320000,0.320000,1.180018,0.080000,1949.849227,-122892.055533,119536.890442,224604.726554,-0.000002,0.000002,0.000004
-1.240000,0.320000,1.260017,0.080000,2266.411218,-48570.751466,47995.535330,127475.829620,-0.000001,0.000001,0.000002
-1.160000,0.320000,1.340016,0.080000,2919.710197,-18713.115648,19435.258922,67167.185781,-0.000000,0.000000,0.000001
-1.080000,0.320000,1.420015,0.080000,3708.564250,-5923.711567,7358.528447,26622.683659,-0.000000,0.000000,0.000001
-1.000000,0.320000,1.500014,0.080000,4546.797973,2916.746581,-1020.385798,-2877.137431,0.000000,-0.000000,-0.000000
-0.920000,0.320000,1.580014,0.080000,5376.360961,14282.632097,-12089.948666,-24451.838624,0.000000,-0.000000,-0.000000
-0.840000,0.320000,1.660013,0.080000,6124.793000,30585.131549,-28279.341684,-37549.979444,0.000001,-0.000001,-0.000001
-0.760000,0.320000,1.680039,0.080000,6689.334225,50802.373431,-48607.855946,-39811.722686,0.000001,-0.000001,-0.000001
-0.680000,0.320000,1.680022,0.080000,6943.002016,70828.743137,-68982.561881,-29137.716139,0.000001,-0.000001,-0.000001
-0.600000,0.320000,1.680000,0.080000,6760.068135,84471.636508,-83169.576306,-5704.662798,0.000002,-0.000002,-0.000000
-0.520000,0.320000,1.680036,0.080000,6054.524927,85372.019875,-84718.934907,26708.310321,0.000002,-0.000002,0.000001
-0.440000,0.320000,1.680025,0.080000,4819.514607,69465.424456,-69455.928423,60741.322948,0.000001,-0.000001,0.000001
-0.360000,0.320000,1.680000,0.080000,3152.443213,37103.720591,-37643.940124,87087.257153,0.000001,-0.000001,0.000002
-0.280000,0.320000,1.680033,0.080000,1252.680035,-6141.385438,5181.718386,97333.918652,-0.000000,0.000000,0.000002
-0.200000,0.320000,1.680027,0.080000,-613.050513,-50572.853363,49305.328387,86991.738837,-0.000001,0.000001,0.000002
-0.120000,0.320000,1.680000,0.080000,-2170.729269,-85180.178519,83669.223148,57451.404554,-0.000002,0.000002,0.000001
-0.040000,0.320000,1.680030,0.080000,-3207.109312,-101209.540511,99485.802300,15945.552197,-0.000002,0.000002,0.000000
0.040000,0.320000,1.680030,0.080000,-3623.707288,-95122.540100,93229.867686,-26622.260426,-0.000002,0.000002,-0.000001
0.120000,0.320000,1.680000,0.080000,-3458.467535,-69758.276961,67806.092613,-59216.764425,-0.000001,0.000001,-0.000001
0.200000,0.320000,1.680027,0.080000,-2867.985071,-33233.748553,31421.549041,-74222.579289,-0.000001,0.000001,-0.000001
0.280000,0.320000,1.680033,0.080000,-2077.157687,3951.386380,-5357.558549,-69653.384758,0.000000,-0.000000,-0.000001
0.360000,0.320000,1.680000,0.080000,-1314.217527,32427.202348,-33161.892156,-49253.690010,0.000001,-0.000001,-0.000001
0.440000,0.320000,1.680025,0.080000,-752.877270,46728.975205,-46610.564297,-20621.314431,0.000001,-0.000001,-0.000000
0.520000,0.320000,1.680036,0.080000,-478.741988,46394.676167,-45387.850474,7743.987065,0.000001,-0.000001,0.000000
0.600000,0.320000,1.680000,0.080000,-486.744693,35216.763899,-33446.203614,29238.646399,0.000001,-0.000001,0.000001
0.680000,0.320000,1.680022,0.080000,-704.942361,19235.502038,-16944.839149,40805.659180,0.000000,-0.000000,0.000001
0.760000,0.320000,1.680039,0.080000,-1032.225402,4467.089141,-1940.501358,43058.150151,0.000000,-0.000000,0.000001
0.840000,0.320000,1.660013,0.080000,-1375.859140,-4706.984464,7230.467188,39164.510139,-0.000000,0.000000,0.000001
0.920000,0.320000,1.580014,0.080000,-1678.885012,-5981.843647,8374.914337,33192.918577,-0.000000,0.000000,0.000001
1.000000,0.320000,1.500014,0.080000,-1934.683969,1611.181311,674.526309,28620.032752,0.000000,-0.000000,0.000001
1.080000,0.320000,1.420015,0.080000,-2193.406869,19354.757394,-16977.229198,27365.271925,0.000000,-0.000000,0.000001
1.160000,0.320000,1.340016,0.080000,-2570.763540,51229.191776,-48332.448889,29170.258270,0.000001,-0.000001,0.000001
1.240000,0.320000,1.260017,0.080000,-3274.487714,107393.149382,-103177.904519,30468.934011,0.000002,-0.000002,0.000001
1.320000,0.320000,1.180018,0.080000,-4671.141603,210181.489357,-203132.618717,20823.881068,0.000004,-0.000004,0.000000
1.400000,0.320000,1.100020,0.080000,-7432.649528,405929.710900,-393069.954069,-27454.168282,0.000008,-0.000007,-0.000001
1.480000,0.320000,1.020021,0.080000,-12840.440838,789559.404994,-764895.415235,-187416.248046,0.000015,-0.000015,-0.000004
1.560000,0.320000,0.940023,0.080000,-23409.225855,1556244.091638,-1507582.205256,-651889.115769,0.000029,-0.000029,-0.000012
1.640000,0.320000,0.860025,0.080000,-44170.924881,3109704.371126,-3012208.146396,-1930595.068545,0.000058,-0.000057,-0.000036
1.720000,0.320000,0.780028,0.080000,-85332.432479,6287540.563900,-6090960.590739,-5376711.872198,0.000117,-0.000116,-0.000101
1.800000,0.320000,0.700031,0.080000,-167791.715520,12824699.895870,-12428897.727997,-14608212.805385,0.000239,-0.000236,-0.000275
1.880000,0.320000,0.620035,0.080000,-334564.433736,26292302.991899,-25502565.173317,-39385733.967142,0.000491,-0.000485,-0.000742
1.960000,0.320000,0.540040,0.080000,-674305.732932,54466849.932944,-54062176.944624,-109715111.141642,0.001024,-0.001021,-0.002067
2.040000,0.320000,0.460047,0.080000,-1369323.825347,111678238.854954,-111347494.822965,-290312243.650233,0.002102,-0.002100,-0.005470
2.120000,0.320000,0.380057,0.080000,-2793268.228900,226010129.706581,-228278267.195127,-805898378.751679,0.004271,-0.004288,-0.015184
-2.120000,0.400000,0.380012,0.080000,3573018.729171,-327936647.460674,330153189.242581,-935994362.763400,-0.006191,0.006208,-0.017635
-2.040000,0.400000,0.460010,0.080000,1684335.317196,-152817408.951536,152003799.432683,-325748047.029092,-0.002875,0.002868,-0.006137
-1.960000,0.400000,0.540008,0.080000,797767.022296,-71438222.304487,70790505.074667,-118446575.105035,-0.001342,0.001337,-0.002232
-1.880000,0.400000,0.620007,0.080000,379027.820212,-33333002.432106,32306699.974549,-40334872.010571,-0.000622,0.000614,-0.000760
-1.800000,0.400000,0.700006,0.080000,180602.444109,-15764185.369894,15289917.163778,-13962264.548813,-0.000294,0.000291,-0.000263
-1.720000,0.400000,0.780006,0.080000,86385.099524,-7481081.051658,7263056.076759,-4626424.103366,-0.000140,0.000138,-0.000087
-1.640000,0.400000,0.860005,0.080000,41638.201452,-3564093.456027,3464633.706765,-1379457.069814,-0.000067,0.000066,-0.000026
-1.560000,0.400000,0.940005,0.080000,20471.558096,-1705077.299873,1660205.681716,-297197.747091,-0.000032,0.000032,-0.000006
-1.480000,0.400000,1.020004,0.080000,10594.577644,-819192.109618,799346.998946,29063.636135,-0.000015,0.000015,0.000001
-1.400000,0.400000,1.100004,0.080000,6148.919151,-395994.538725,387599.440031,101906.560886,-0.000007,0.000007,0.000002
-1.320000,0.400000,1.180004,0.080000,4334.993383,-194612.216467,191482.212100,96817.578654,-0.000004,0.000004,0.000002
-1.240000,0.400000,1.260004,0.080000,3819.524662,-100453.806666,99820.858455,71703.803899,-0.000002,0.000002,0.000001
-1.160000,0.400000,1.340003,0.080000,3977.835798,-57723.065145,58399.017555,43052.975568,-0.000001,0.000001,0.000001
-1.080000,0.400000,1.420003,0.080000,4525.115080,-37632.573433,39140.884556,13965.596416,-0.000001,0.000001,0.000000
-1.000000,0.400000,1.500003,0.080000,5326.758735,-23791.329685,25930.122227,-15119.568327,-0.000000,0.000000,-0.000000
-0.920000,0.400000,1.580003,0.080000,6291.217520,-6238.565619,8844.972750,-42158.579726,-0.000000,0.000000,-0.000001
-0.840000,0.400000,1.600001,0.080000,7305.592694,20063.115830,-17229.436493,-62267.748160,0.000000,-0.000000,-0.000001
-0.760000,0.400000,1.600041,0.080000,8203.323128,54823.076456,-52099.314033,-68643.681249,0.000001,-0.000001,-0.000001
-0.680000,0.400000,1.600023,0.080000,8765.760821,92070.728168,-89828.565052,-55188.365447,0.000002,-0.000002,-0.000001
-0.600000,0.400000,1.600000,0.080000,8759.340981,121308.780137,-119846.023371,-19906.557330,0.000002,-0.000002,-0.000000
-0.520000,0.400000,1.600038,0.080000,8000.847047,130726.604460,-130168.760813,32435.904947,0.000002,-0.000002,0.000001
-0.440000,0.400000,1.600026,0.080000,6430.634968,111816.149737,-112082.154860,89950.366333,0.000002,-0.000002,0.000002
-0.360000,0.400000,1.600000,0.080000,4165.150708,63683.613328,-64539.499805,136349.546126,0.000001,-0.000001,0.000003
-0.280000,0.400000,1.600035,0.080000,1502.110979,-4961.600687,3783.744783,156180.183446,-0.000000,0.000000,0.000003
-0.200000,0.400000,1.600029,0.080000,-1133.805422,-77445.249184,76123.132483,140655.142412,-0.000001,0.000001,0.000003
-0.120000,0.400000,1.600000,0.080000,-3294.442150,-134194.045794,132752.112667,91602.376822,-0.000003,0.000003,0.000002
-0.040000,0.400000,1.600032,0.080000,-4629.363144,-159428.973787,157772.025898,21629.787023,-0.000003,0.000003,0.000000
0.040000,0.400000,1.600032,0.080000,-4983.331203,-146802.534267,144829.566580,-49843.501722,-0.000003,0.000003,-0.000001
0.120000,0.400000,1.600000,0.080000,-4435.261225,-101621.638176,99358.313556,-103226.262989,-0.000002,0.000002,-0.000002
0.200000,0.400000,1.600029,0.080000,-3265.015711,-38725.601723,36400.896015,-125405.025783,-0.000001,0.000001,-0.000002
0.280000,0.400000,1.600035,0.080000,-1861.288330,23048.080513,-25028.423314,-113752.769728,0.000000,-0.000000,-0.000002
0.360000,0.400000,1.600000,0.080000,-604.893196,67466.129114,-68643.789253,-76046.881008,0.000001,-0.000001,-0.000001
0.440000,0.400000,1.600026,0.080000,231.661390,85917.424174,-85947.397495,-26645.174515,0.000002,-0.000002,-0.000001
0.520000,0.400000,1.600038,0.080000,537.274090,79077.534992,-77858.486466,19205.325949,0.000001,-0.000001,0.000000
0.600000,0.400000,1.600000,0.080000,357.751925,55032.372670,-52742.391481,50486.813405,0.000001,-0.000001,0.000001
0.680000,0.400000,1.600023,0.080000,-154.643782,25158.011013,-22183.215425,63082.058726,0.000000,-0.000000,0.000001
0.760000,0.400000,1.600041,0.080000,-812.065076,-230.444649,3437.798024,59426.878997,-0.000000,0.000000,0.000001
0.840000,0.400000,1.600001,0.080000,-1455.370972,-14721.296610,17791.948897,45902.797814,-0.000000,0.000000,0.000001
0.920000,0.400000,1.580003,0.080000,-1994.190583,-16370.769121,19118.740565,29458.548683,-0.000000,0.000000,0.000001
1.000000,0.400000,1.500003,0.080000,-2419.223294,-6301.291981,8752.204307,14829.997202,-0.000000,0.000000,0.000000
1.080000,0.400000,1.420003,0.080000,-2795.479277,13695.787419,-11333.283375,2946.650058,0.000000,-0.000000,0.000000
1.160000,0.400000,1.340003,0.080000,-3251.416816,43549.764458,-40932.300916,-9923.808922,0.000001,-0.000001,-0.000000
1.240000,0.400000,1.260004,0.080000,-3978.956800,86688.933859,-83376.633971,-33754.833781,0.000002,-0.000002,-0.000001
1.320000,0.400000,1.180004,0.080000,-5255.535146,150934.271685,-146435.955138,-89701.589621,0.000003,-0.000003,-0.000002
1.400000,0.400000,1.100004,0.080000,-7493.509413,247696.906257,-241660.865522,-223342.076125,0.000005,-0.000005,-0.000004
1.480000,0.400000,1.020004,0.080000,-11310.347040,385646.585658,-378663.689835,-536904.086666,0.000007,-0.000007,-0.000010
1.560000,0.400000,0.940005,0.080000,-17574.220604,545074.875844,-541516.800713,-1265632.706659,0.000010,-0.000010,-0.000024
1.640000,0.400000,0.860005,0.080000,-27245.723675,589003.990662,-606158.142424,-2959327.533163,0.000011,-0.000011,-0.000056
1.720000,0.400000,0.780006,0.080000,-40400.654413,-23101.098498,-73066.782352,-6919243.425299,0.000000,-0.000001,-0.000130
1.800000,0.400000,0.700006,0.080000,-52463.483271,-3121176.089531,2762185.191430,-16265667.976375,-0.000057,0.000054,-0.000306
1.880000,0.400000,0.620007,0.080000,-41571.544147,-14504552.707788,13322422.878955,-38593454.683665,-0.000267,0.000258,-0.000727
1.960000,0.400000,0.540008,0.080000,71295.261307,-52837269.629026,51120296.421093,-95111626.506213,-0.000986,0.000973,-0.001792
2.040000,0.400000,0.460010,0.080000,544173.237170,-171354297.061658,169115708.160525,-227110269.353176,-0.003216,0.003199,-0.004279
2.120000,0.400000,0.380012,0.080000,2179618.846131,-516371971.856492,520161561.989682,-573789534.667569,-0.009750,0.009779,-0.010811
-2.120000,0.480000,0.380207,0.080000,-2141643.893074,587661754.907963,-591599127.378557,-696901522.749970,0.011094,-0.011124,-0.013130
-2.040000,0.480000,0.460171,0.080000,-434556.281268,185342396.475715,-182644803.125280,-266760399.363799,0.003477,-0.003456,-0.005026
-1.960000,0.480000,0.540146,0.080000,6695.564779,52816933.625084,-50794797.187567,-108476099.652324,0.000984,-0.000968,-0.002044
-1.880000,0.480000,0.620127,0.080000,84507.999528,12407847.669360,-11132158.417392,-42589150.423892,0.000227,-0.000217,-0.000802
-1.800000,0.480000,0.700112,0.080000,72999.330574,1496772.099175,-1125059.240643,-17306473.217871,0.000026,-0.000023,-0.000326
-1.720000,0.480000,0.780101,0.080000,48986.092782,-931322.686547,1028708.521560,-7029336.966987,-0.000018,0.000019,-0.000132
-1.640000,0.480000,0.860091,0.080000,30176.098982,-1085175.301252,1104689.185083,-2824342.219267,-0.000021,0.000021,-0.000053
-1.560000,0.480000,0.940084,0.080000,18185.243195,-781019.328898,781441.161425,-1102844.585084,-0.000015,0.000015,-0.000021
-1.480000,0.480000,1.020077,0.080000,11225.540138,-487562.020041,485073.719337,-402852.314550,-0.000009,0.000009,-0.000008
-1.400000,0.480000,1.100071,0.080000,7442.485910,-287408.835169,285666.045339,-123360.044166,-0.000005,0.000005,-0.000002
-1.320000,0.480000,1.180067,0.080000,5546.489486,-168538.820405,167907.989667,-16759.943066,-0.000003,0.000003,-0.000000
-1.240000,0.480000,1.260062,0.080000,4764.479701,-105311.466185,105558.328965,17680.465303,-0.000002,0.000002,0.000000
-1.160000,0.480000,1.340059,0.080000,4681.928514,-76163.537687,77136.784235,19140.586591,-0.000001,0.000001,0.000000
-1.080000,0.480000,1.420055,0.080000,5104.955684,-64216.178819,65924.169360,1689.206324,-0.000001,0.000001,0.000000
-1.000000,0.480000,1.500052,0.080000,5951.527394,-55116.887306,57613.612151,-28878.630229,-0.000001,0.000001,-0.000001
-0.920000,0.480000,1.520022,0.080000,7159.484864,-36504.137537,39728.862945,-66487.565449,-0.000001,0.000001,-0.000001
-0.840000,0.480000,1.520001,0.080000,8608.197398,35.580961,3624.581968,-100935.618905,-0.000000,0.000000,-0.000002
-0.760000,0.480000,1.520043,0.080000,10065.839088,55557.864215,-51989.824461,-118175.361395,0.000001,-0.000001,-0.000002
-0.680000,0.480000,1.520024,0.080000,11183.131777,121171.067613,-118322.290318,-104420.642317,0.000002,-0.000002,-0.000002
-0.600000,0.480000,1.520000,0.080000,11549.155497,178725.522657,-177096.562410,-52545.200708,0.000003,-0.000003,-0.000001
-0.520000,0.480000,1.520040,0.080000,10804.456160,206006.674096,-205763.539785,32208.899829,0.000004,-0.000004,0.000001
-0.440000,0.480000,1.520027,0.080000,8778.890885,185355.122547,-186255.769887,130578.938932,0.000003,-0.000004,0.000002
-0.360000,0.480000,1.520000,0.080000,5600.680214,112386.458128,-113897.145390,213680.555830,0.000002,-0.000002,0.000004
-0.280000,0.480000,1.520037,0.080000,1722.805260,625.550046,-2181.485543,252688.912841,0.000000,-0.000000,0.000005
-0.200000,0.480000,1.520030,0.080000,-2161.620763,-120855.125932,119575.022181,230186.086153,-0.000002,0.000002,0.000004
-0.120000,0.480000,1.520000,0.080000,-5300.034198,-216693.396052,215624.639602,148195.806485,-0.000004,0.000004,0.000003
-0.040000,0.480000,1.520033,0.080000,-7099.613362,-257973.611582,256739.091627,28956.224774,-0.000005,0.000005,0.000001
0.040000,0.480000,1.520033,0.080000,-7306.102848,-233118.756567,231284.326462,-92427.426057,-0.000004,0.000004,-0.000002
0.120000,0.480000,1.520000,0.080000,-6074.976994,-152194.865614,149574.927187,-180617.662962,-0.000003,0.000003,-0.000003
0.200000,0.480000,1.520030,0.080000,-3908.508306,-42751.340316,39600.920025,-212683.212118,-0.000001,0.000001,-0.000004
0.280000,0.480000,1.520037,0.080000,-1484.681465,60908.242105,-63921.651228,-185481.422501,0.000001,-0.000001,-0.000003
0.360000,0.480000,1.520000,0.080000,555.515987,130304.815845,-132342.456657,-114998.727390,0.000002,-0.000002,-0.000002
0.440000,0.480000,1.520027,0.080000,1784.521240,151954.897864,-152344.415651,-28522.945808,0.000003,-0.000003,-0.000001
0.520000,0.480000,1.520040,0.080000,2071.568952,129778.637653,-128285.014552,46449.336041,0.000002,-0.000002,0.000001
0.600000,0.480000,1.520000,0.080000,1558.106895,80655.364146,-77560.715436,91675.825695,0.000002,-0.000001,0.000002
0.680000,0.480000,1.520024,0.080000,552.779245,25987.279467,-21954.785994,102447.579552,0.000000,-0.000000,0.000002
0.760000,0.480000,1.520043,0.080000,-601.746591,-16608.347045,20806.715135,85902.769231,-0.000000,0.000000,0.000002
0.840000,0.480000,1.520001,0.080000,-1638.559983,-38169.865644,41927.895887,55278.272682,-0.000001,0.000001,0.000001
0.920000,0.480000,1.520022,0.080000,-2422.564058,-38691.328602,41729.822586,23311.542254,-0.000001,0.000001,0.000000
1.000000,0.480000,1.500052,0.080000,-2950.776744,-23971.810671,26341.912301,-2464.658346,-0.000000,0.000000,-0.000000
1.080000,0.480000,1.420055,0.080000,-3316.278121,-1383.253993,3342.885303,-21482.896321,-0.000000,0.000000,-0.000000
1.160000,0.480000,1.340059,0.080000,-3661.982199,23126.821213,-21298.914962,-39775.091975,0.000000,-0.000000,-0.000001
1.240000,0.480000,1.260062,0.080000,-4142.710669,45257.836045,-43480.363715,-69512.182621,0.000001,-0.000001,-0.000001
1.320000,0.480000,1.180067,0.080000,-4896.426387,58602.956550,-57326.021731,-130875.534171,0.000001,-0.000001,-0.000002
1.400000,0.480000,1.100071,0.080000,-5999.550032,44093.720939,-45064.466778,-258737.474173,0.000001,-0.000001,-0.000005
1.480000,0.480000,1.020077,0.080000,-7335.749243,-56247.067489,47954.175672,-516945.903681,-0.000001,0.000001,-0.000010
1.560000,0.480000,0.940084,0.080000,-8201.623559,-406522.375478,377077.977104,-1023293.569005,-0.000007,0.000007,-0.000019
1.640000,0.480000,0.860091,0.080000,-6195.882026,-1453297.382003,1365707.284385,-1984776.912540,-0.000027,0.000026,-0.000037
1.720000,0.480000,0.780101,0.080000,5798.926100,-4393444.660348,4149219.353749,-3720360.663106,-0.000081,0.000080,-0.000070
1.800000,0.480000,0.700112,0.080000,47705.889625,-12426753.331832,11762972.843143,-6554288.125509,-0.000230,0.000225,-0.000123
1.880000,0.480000,0.620127,0.080000,173899.768545,-34149400.283545,32358141.825522,-10123009.364697,-0.000633,0.000620,-0.000191
1.960000,0.480000,0.540146,0.080000,531449.241323,-94163406.095694,92151463.514164,-9920425.590485,-0.001763,0.001748,-0.000187
2.040000,0.480000,0.460171,0.080000,1518524.741369,-256237026.545998,253775503.537538,11337239.242949,-0.004814,0.004795,0.000214
2.120000,0.480000,0.380207,0.080000,4221832.869934,-687129323.795011,692673251.971518,123763209.780320,-0.012977,0.013019,0.002332
-2.120000,0.560000,0.380079,0.080000,-4548530.374251,807165263.488938,-812599452.700066,150173886.459859,0.015238,-0.015279,0.002829
-2.040000,0.560000,0.460065,0.080000,-1551991.523192,289919412.138578,-286742935.737748,11408724.810304,0.005444,-0.005420,0.000215
-1.960000,0.560000,0.540056,0.080000,-505770.787147,102371344.628244,-99948307.530987,-13058889.222074,0.001915,-0.001897,-0.000246
-1.880000,0.560000,0.620049,0.080000,-147055.226378,35432580.861938,-33437274.572826,-12301193.009141,0.000656,-0.000641,-0.000232
-1.800000,0.560000,0.700043,0.080000,-29821.776577,12148382.257366,-11434204.771347,-7612315.275463,0.000225,-0.000219,-0.000143
-1.720000,0.560000,0.780039,0.080000,4401.191889,3935036.015009,-3678626.045891,-4134001.158049,0.000073,-0.000071,-0.000078
-1.640000,0.560000,0.860035,0.080000,11564.019022,1114079.291699,-1022093.259622,-2096805.089485,0.000020,-0.000020,-0.000040
-1.560000,0.560000,0.940032,0.080000,10943.447188,202873.375504,-169848.795484,-1014045.999533,0.000004,-0.000003,-0.000019
-1.480000,0.560000,1.020030,0.080000,8811.878942,-51953.398001,63988.452443,-466842.505683,-0.000001,0.000001,-0.000009
-1.400000,0.560000,1.100027,0.080000,6956.475938,-97053.990450,101675.155727,-197749.701519,-0.000002,0.000002,-0.000004
-1.320000,0.560000,1.180026,0.080000,5719.196449,-88179.180748,90192.705054,-67460.799950,-0.000002,0.000002,-0.000001
-1.240000,0.560000,1.260024,0.080000,5059.783238,-77156.799459,78333.310619,-7140.904947,-0.000001,0.000001,-0.000000
-1.160000,0.560000,1.340022,0.080000,4911.009212,-77966.989213,79147.016403,12962.371991,-0.000001,0.000001,0.000000
-1.080000,0.560000,1.420021,0.080000,5275.993399,-88390.115039,90183.722275,2710.303473,-0.000002,0.000002,0.000000
-1.000000,0.560000,1.440050,0.080000,6216.641572,-96748.671291,99624.836699,-34814.731022,-0.000002,0.000002,-0.000001
-0.920000,0.560000,1.440023,0.080000,7780.778477,-86113.743406,90225.983029,-93319.150887,-0.000002,0.000002,-0.000002
-0.840000,0.560000,1.440001,0.080000,9896.539994,-40853.114084,45844.866311,-156973.413704,-0.000001,0.000001,-0.000003
-0.760000,0.560000,1.440046,0.080000,12275.694414,44492.060596,-39500.640342,-200094.414527,0.000001,-0.000001,-0.000004
-0.680000,0.560000,1.440026,0.080000,14381.082825,157652.532064,-153799.459797,-194236.716203,0.000003,-0.000003,-0.000004
-0.600000,0.560000,1.440000,0.080000,15504.491722,267422.935925,-265634.198535,-120785.360443,0.000005,-0.000005,-0.000002
-0.520000,0.560000,1.440042,0.080000,14961.604115,331919.174845,-332458.281690,16576.165274,0.000006,-0.000006,0.000000
-0.440000,0.560000,1.440029,0.080000,12352.139881,314797.049740,-317092.102151,186654.303156,0.000006,-0.000006,0.000004
-0.360000,0.560000,1.440000,0.080000,7784.443845,202978.650770,-205860.462559,337570.415726,0.000004,-0.000004,0.000006
-0.280000,0.560000,1.440039,0.080000,1955.004941,17181.070025,-19444.069708,414794.646505,0.000000,-0.000000,0.000008
-0.200000,0.560000,1.440032,0.080000,-3981.649641,-191204.262565,190198.698300,383455.515578,-0.000004,0.000004,0.000007
-0.120000,0.560000,1.440000,0.080000,-8732.662700,-357249.374654,357252.013018,244816.728329,-0.000007,0.000007,0.000005
-0.040000,0.560000,1.440035,0.080000,-11269.583840,-427071.505962,427093.660816,38640.297629,-0.000008,0.000008,0.000001
0.040000,0.560000,1.440035,0.080000,-11161.846632,-379171.066972,378040.208106,-170606.973032,-0.000007,0.000007,-0.000003
0.120000,0.560000,1.440000,0.080000,-8709.099643,-232877.748135,229915.688019,-318148.645405,-0.000004,0.000004,-0.000006
0.200000,0.560000,1.440032,0.080000,-4820.462606,-40085.294978,35552.798280,-363268.695363,-0.000001,0.000001,-0.000007
0.280000,0.560000,1.440039,0.080000,-692.202802,135829.624068,-140757.855761,-303097.404472,0.000003,-0.000003,-0.000006
0.360000,0.560000,1.440000,0.080000,2585.458813,244293.014840,-248013.135210,-170392.559967,0.000005,-0.000005,-0.000003
0.440000,0.560000,1.440029,0.080000,4341.974805,264486.291749,-265662.967306,-17417.939536,0.000005,-0.000005,-0.000000
0.520000,0.560000,1.440042,0.080000,4455.527787,208539.219932,-206668.475224,105898.732468,0.000004,-0.000004,0.000002
0.600000,0.560000,1.440000,0.080000,3277.683082,111340.724005,-106915.176264,169616.719983,0.000002,-0.000002,0.000003
0.680000,0.560000,1.440026,0.080000,1416.666520,13269.853622,-7499.581208,170448.623893,0.000000,-0.000000,0.000003
0.760000,0.560000,1.440046,0.080000,-513.764089,-55644.287625,61378.966829,126579.429234,-0.000001,0.000001,0.000002
0.840000,0.560000,1.440001,0.080000,-2081.544759,-83778.378637,88456.037281,65226.831920,-0.000002,0.000002,0.000001
0.920000,0.560000,1.440023,0.080000,-3109.348965,-76645.054901,79878.198257,9844.125143,-0.000001,0.000001,0.000000
1.000000,0.560000,1.440050,0.080000,-3640.889288,-49375.668599,51357.285006,-27601.037575,-0.000001,0.000001,-0.000001
1.080000,0.560000,1.420021,0.080000,-3846.762606,-18189.799693,19402.310090,-47613.315203,-0.000000,0.000000,-0.000001
1.160000,0.560000,1.340022,0.080000,-3922.632050,4693.751752,-3844.700384,-59390.289090,0.000000,-0.000000,-0.000001
1.240000,0.560000,1.260024,0.080000,-4011.288242,10622.043281,-10142.489252,-75823.914100,0.000000,-0.000000,-0.000001
1.320000,0.560000,1.180026,0.080000,-4145.508556,-11724.436641,11066.387132,-109877.347067,-0.000000,0.000000,-0.000002
1.400000,0.560000,1.100027,0.080000,-4171.487772,-89226.298363,85279.836285,-171967.564020,-0.000002,0.000002,-0.000003
1.480000,0.560000,1.020030,0.080000,-3568.688334,-288939.884860,276747.340914,-262838.641400,-0.000005,0.000005,-0.000005
1.560000,0.560000,0.940032,0.080000,-1003.908248,-768754.614187,737320.008467,-345205.348475,-0.000014,0.000014,-0.000007
1.640000,0.560000,0.860035,0.080000,6715.281004,-1886261.083167,1811624.145151,-246296.085749,-0.000035,0.000035,-0.000005
1.720000,0.560000,0.780039,0.080000,27006.523130,-4431629.296957,4262881.976904,648862.952670,-0.000083,0.000081,0.000012
1.800000,0.560000,0.700043,0.080000,76731.089540,-10109674.491718,9742974.581241,4327699.116251,-0.000188,0.000186,0.000082
1.880000,0.560000,0.620049,0.080000,193423.914233,-22482831.981000,21720169.814568,16933960.753300,-0.000419,0.000414,0.000319
1.960000,0.560000,0.540056,0.080000,458674.255623,-49123098.781365,48733200.941553,59551668.376340,-0.000923,0.000920,0.001122
2.040000,0.560000,0.460065,0.080000,1044492.704269,-102757880.897536,102424950.540960,183050778.728870,-0.001934,0.001932,0.003449
2.120000,0.560000,0.380079,0.080000,2298901.943079,-203851819.379772,205796064.181261,574267133.431028,-0.003852,0.003866,0.010820
-2.120000,0.640000,0.380004,0.080000,-2331202.852255,202304072.107904,-203609529.893920,681160906.576126,0.003819,-0.003829,0.012833
-2.040000,0.640000,0.460003,0.080000,-1044390.551493,105949859.766663,-105519861.710585,207262123.925539,0.001994,-0.001990,0.003905
-1.960000,0.640000,0.540003,0.080000,-444113.426115,51157313.127482,-50775412.238730,64147725.555992,0.000962,-0.000959,0.001209
-1.880000,0.640000,0.620003,0.080000,-177378.071475,23180853.081441,-22388535.998376,16938809.941444,0.000432,-0.000426,0.000319
-1.800000,0.640000,0.700002,0.080000,-64050.224695,10164465.963527,-9786434.182710,3789078.837932,0.000189,-0.000187,0.000071
-1.720000,0.640000,0.780002,0.080000,-18280.984828,4280679.156168,-4108266.303837,264408.903765,0.000080,-0.000078,0.000005
-1.640000,0.640000,0.860002,0.080000,-1077.240128,1719100.031840,-1642392.624701,-440937.391860,0.000032,-0.000031,-0.000008
-1.560000,0.640000,0.940002,0.080000,4605.252123,644850.817963,-610968.067611,-419790.691180,0.000012,-0.000012,-0.000008
-1.480000,0.640000,1.020002,0.080000,5942.700534,215080.192714,-199949.681066,-272798.016872,0.000004,-0.000004,-0.000005
-1.400000,0.640000,1.100001,0.080000,5820.483794,53852.461044,-46968.855039,-144957.923955,0.000001,-0.000001,-0.000003
-1.320000,0.640000,1.180001,0.080000,5329.743398,-4772.492221,7861.737067,-54584.069669,-0.000000,0.000000,-0.000001
-1.240000,0.640000,1.260001,0.080000,4871.533438,-34918.785618,36212.753660,5010.233902,-0.000001,0.000001,0.000000
-1.160000,0.640000,1.340001,0.080000,4649.206616,-68749.996857,69495.421878,36083.962548,-0.000001,0.000001,0.000001
-1.080000,0.640000,1.360002,0.080000,4880.735413,-113834.365541,115200.633333,31667.762889,-0.000002,0.000002,0.000001
-1.000000,0.640000,1.360053,0.080000,5849.217610,-157724.387105,160799.012006,-18010.620704,-0.000003,0.000003,-0.000000
-0.920000,0.640000,1.360024,0.080000,7825.467670,-172322.982195,177683.243326,-113240.195577,-0.000003,0.000003,-0.000002
-0.840000,0.640000,1.360001,0.080000,10893.136384,-125192.537641,132418.231745,-233167.982062,-0.000002,0.000002,-0.000004
-0.760000,0.640000,1.360049,0.080000,14748.444223,2051.481315,5495.230439,-333028.400356,-0.000000,0.000000,-0.000006
-0.680000,0.640000,1.360027,0.080000,18589.047361,195575.978889,-189892.814773,-356045.446608,0.000004,-0.000004,-0.000007
-0.600000,0.640000,1.360001,0.080000,21203.727909,402581.689525,-400610.316838,-258272.681953,0.000008,-0.000008,-0.000005
-0.520000,0.640000,1.360045,0.080000,21303.063501,544059.565773,-546321.453072,-35700.094546,0.000010,-0.000010,-0.000001
-0.440000,0.640000,1.360030,0.080000,18010.532903,545575.589417,-550843.084087,261559.377331,0.000010,-0.000010,0.000005
-0.360000,0.640000,1.360000,0.080000,11322.753959,373576.311216,-379343.281816,539246.367252,0.000007,-0.000007,0.000010
-0.280000,0.640000,1.360041,0.080000,2314.496462,59006.428328,-62685.547317,692838.418717,0.000001,-0.000001,0.000013
-0.200000,0.640000,1.360034,0.080000,-7056.530372,-306028.914727,305785.888036,651900.650374,-0.000006,0.000006,0.000012
-0.120000,0.640000,1.360000,0.080000,-14523.076028,-600389.969644,602966.112675,414147.956520,-0.000011,0.000011,0.000008
-0.040000,0.640000,1.360037,0.080000,-18260.096563,-722005.788792,725111.181720,51718.420838,-0.000014,0.000014,0.000001
0.040000,0.640000,1.360037,0.080000,-17516.796575,-630233.259235,631095.559411,-315097.226144,-0.000012,0.000012,-0.000006
0.120000,0.640000,1.360000,0.080000,-12867.066336,-362641.804704,359484.441050,-565627.680810,-0.000007,0.000007,-0.000011
0.200000,0.640000,1.360034,0.080000,-5975.013696,-18380.163857,11414.633280,-626471.917411,-0.000000,0.000000,-0.000012
0.280000,0.640000,1.360041,0.080000,1020.874438,283777.849130,-292362.850186,-497591.866078,0.000005,-0.000005,-0.000009
0.360000,0.640000,1.360000,0.080000,6244.852061,452933.014868,-459970.644906,-246178.888202,0.000009,-0.000009,-0.000005
0.440000,0.640000,1.360030,0.080000,8648.053709,457754.853701,-460558.288630,26767.915128,0.000009,-0.000009,0.000001
0.520000,0.640000,1.360045,0.080000,8203.256309,329934.049967,-327467.851864,229882.068455,0.000006,-0.000006,0.000004
0.600000,0.640000,1.360001,0.080000,5708.643326,141249.193468,-134456.357343,314623.060219,0.000003,-0.000003,0.000006
0.680000,0.640000,1.360027,0.080000,2342.334539,-31875.645331,40676.063221,285126.025616,-0.000001,0.000001,0.000005
0.760000,0.640000,1.360049,0.080000,-812.848775,-138616.047346,146865.004632,184353.372009,-0.000003,0.000003,0.000003
0.840000,0.640000,1.360001,0.080000,-3086.640702,-166505.495977,172454.522482,67342.179126,-0.000003,0.000003,0.000001
0.920000,0.640000,1.360024,0.080000,-4300.739097,-135056.320243,138246.652184,-23674.342919,-0.000003,0.000003,-0.000000
1.000000,0.640000,1.360053,0.080000,-4648.942343,-78083.445683,79140.667774,-71647.143299,-0.000001,0.000001,-0.000001
1.080000,0.640000,1.360002,0.080000,-4486.967526,-26110.204979,26106.890949,-82577.941760,-0.000000,0.000000,-0.000002
1.160000,0.640000,1.340001,0.080000,-4141.077187,2806.793391,-3020.174630,-74316.598360,0.000000,-0.000000,-0.000001
1.240000,0.640000,1.260001,0.080000,-3792.995558,1845.597478,-2055.593855,-64092.793359,0.000000,-0.000000,-0.000001
1.320000,0.640000,1.180001,0.080000,-3434.052429,-33021.105501,32269.461170,-59481.409622,-0.000001,0.000001,-0.000001
1.400000,0.640000,1.100001,0.080000,-2836.165540,-113983.738981,111423.521702,-51223.087800,-0.000002,0.000002,-0.000001
1.480000,0.640000,1.020002,0.080000,-1470.941203,-271355.620683,265143.687311,1287.144656,-0.000005,0.000005,0.000000
1.560000,0.640000,0.940002,0.080000,1684.991143,-557982.213579,546516.589762,212182.608231,-0.000010,0.000010,0.000004
1.640000,0.640000,0.860002,0.080000,8479.771781,-1029197.033905,1015151.699264,884035.059338,-0.000019,0.000019,0.000017
1.720000,0.640000,0.780002,0.080000,21895.995984,-1621208.247821,1627650.709747,2803692.568841,-0.000031,0.000031,0.000053
1.800000,0.640000,0.700002,0.080000,45466.396810,-1651588.234235,1779456.172038,7988044.924737,-0.000032,0.000033,0.000150
1.880000,0.640000,0.620003,0.080000,78276.858716,1990977.478665,-1368819.730679,21556042.104856,0.000034,-0.000029,0.000406
1.960000,0.640000,0.540003,0.080000,92910.155852,21569064.155324,-20277637.408419,58069044.955754,0.000399,-0.000389,0.001094
2.040000,0.640000,0.460003,0.080000,-46784.607545,98226275.189845,-96488228.871236,146246614.141098,0.001841,-0.001828,0.002755
2.120000,0.640000,0.380004,0.080000,-871276.993791,359536991.176733,-362186320.013413,382462738.135296,0.006789,-0.006809,0.007206
-2.120000,0.720000,0.380169,0.080000,1138670.461728,-459962156.619562,463173085.685913,394282202.708768,-0.008684,0.008708,0.007429
-2.040000,0.720000,0.460140,0.080000,103756.741239,-121766562.269539,119581702.975116,149723452.546536,-0.002282,0.002265,0.002821
-1.960000,0.720000,0.540119,0.080000,-76955.978414,-26217428.289917,24606782.544790,58661961.845917,-0.000485,0.000473,0.001105
-1.880000,0.720000,0.620104,0.080000,-69152.174039,-2636510.872120,1894978.317710,21220875.767161,-0.000045,0.000040,0.000400
-1.800000,0.720000,0.700092,0.080000,-37968.905447,1631279.963544,-1784778.725386,7551005.419056,0.000032,-0.000033,0.000142
-1.720000,0.720000,0.780082,0.080000,-15748.595320,1618704.104375,-1629901.923794,2480510.836031,0.000031,-0.000031,0.000047
-1.640000,0.720000,0.860075,0.080000,-3684.677013,991580.590022,-977246.298746,688958.909477,0.000019,-0.000018,0.000013
-1.560000,0.720000,0.940068,0.080000,1977.254295,514314.696060,-500811.664735,108744.479214,0.000010,-0.000010,0.000002
-1.480000,0.720000,1.020063,0.080000,4277.522220,245616.770157,-236614.249930,-43730.468196,0.000005,-0.000005,-0.000001
-1.400000,0.720000,1.100058,0.080000,4964.228533,115999.649184,-110755.522053,-52317.338256,0.000002,-0.000002,-0.000001
-1.320000,0.720000,1.180055,0.080000,4893.283801,56433.616017,-54044.778616,-12342.825000,0.000001,-0.000001,-0.000000
-1.240000,0.720000,1.260051,0.080000,4464.889613,14810.068217,-14579.079515,43828.958116,0.000000,-0.000000,0.000001
-1.160000,0.720000,1.280023,0.080000,3957.669507,-44962.677553,44083.509031,94115.306816,-0.000001,0.000001,0.000002
-1.080000,0.720000,1.280002,0.080000,3758.040922,-137765.684067,137559.540984,107586.003451,-0.000003,0.000003,0.000002
-1.000000,0.720000,1.280056,0.080000,4452.323922,-247278.512098,249940.743245,48208.442468,-0.000005,0.000005,0.000001
-0.920000,0.720000,1.280026,0.080000,6722.171225,-322941.475579,330013.215730,-104092.892035,-0.000006,0.000006,-0.000002
-0.840000,0.720000,1.280001,0.080000,11028.223505,-295730.435867,306853.373820,-327327.712565,-0.000006,0.000006,-0.000006
-0.760000,0.720000,1.280052,0.080000,17182.963102,-114027.705020,126424.258391,-545433.958706,-0.000002,0.000002,-0.000010
-0.680000,0.720000,1.280029,0.080000,24036.041237,215090.086109,-205770.974402,-646429.576690,0.000004,-0.000004,-0.000012
-0.600000,0.720000,1.280001,0.080000,29526.133699,604222.570817,-601865.316375,-531009.089644,0.000011,-0.000011,-0.000010
-0.520000,0.720000,1.280047,0.080000,31229.854060,904078.026737,-909895.774785,-171107.663939,0.000017,-0.000017,-0.000003
-0.440000,0.720000,1.280032,0.080000,27290.317084,962340.430667,-973832.178880,354228.217649,0.000018,-0.000018,0.000007
-0.360000,0.720000,1.280000,0.080000,17359.372070,698608.452825,-710466.029301,871886.484134,0.000013,-0.000013,0.000016
-0.280000,0.720000,1.280043,0.080000,3090.315893,157005.759531,-163662.786137,1178981.692135,0.000003,-0.000003,0.000022
-0.200000,0.720000,1.280036,0.080000,-12142.265990,-495100.074566,496581.722867,1132038.041129,-0.000009,0.000009,0.000021
-0.120000,0.720000,1.280000,0.080000,-24284.943125,-1028100.560199,1036391.626976,717977.234122,-0.000019,0.000019,0.000014
-0.040000,0.720000,1.280040,0.080000,-30030.677829,-1245550.510359,1255619.784670,69669.061914,-0.000024,0.000024,0.000001
0.040000,0.720000,1.280040,0.080000,-28035.693539,-1069315.695257,1074967.127638,-584836.839688,-0.000020,0.000020,-0.000011
0.120000,0.720000,1.280000,0.080000,-19401.389422,-573319.591093,570387.371734,-1017141.395886,-0.000011,0.000011,-0.000019
0.200000,0.720000,1.280036,0.080000,-7213.417348,50338.642908,-61815.868645,-1092912.250998,0.000001,-0.000001,-0.000021
0.280000,0.720000,1.280043,0.080000,4651.364795,575896.522519,-591650.491273,-821917.330711,0.000011,-0.000011,-0.000015
0.360000,0.720000,1.280000,0.080000,12926.234536,837998.401290,-851628.530694,-342453.414808,0.000016,-0.000016,-0.000006
0.440000,0.720000,1.280032,0.080000,15981.456163,791619.129723,-797669.221580,148409.441813,0.000015,-0.000015,0.000003
0.520000,0.720000,1.280047,0.080000,14105.189902,513521.234414,-509925.823108,482086.449557,0.000010,-0.000010,0.000009
0.600000,0.720000,1.280001,0.080000,9028.775586,151163.809813,-139875.050453,581412.111472,0.000003,-0.000003,0.000011
0.680000,0.720000,1.280029,0.080000,3012.081384,-150379.321337,164733.170969,473764.994205,-0.000003,0.000003,0.000009
0.760000,0.720000,1.280052,0.080000,-2058.660207,-306369.707315,318896.854275,256415.757779,-0.000006,0.000006,0.000005
0.840000,0.720000,1.280001,0.080000,-5200.758979,-311316.455639,318988.034086,39130.785632,-0.000006,0.000006,0.000001
0.920000,0.720000,1.280026,0.080000,-6373.721727,-218527.248214,221002.870481,-104278.064488,-0.000004,0.000004,-0.000002
1.000000,0.720000,1.280056,0.080000,-6151.263816,-99644.990681,98645.659395,-154808.719632,-0.000002,0.000002,-0.000003
1.080000,0.720000,1.280002,0.080000,-5276.235675,-9025.366295,6910.246617,-136616.703864,-0.000000,0.000000,-0.000003
1.160000,0.720000,1.280023,0.080000,-4319.742129,31287.042249,-32805.283623,-89571.199853,0.000001,-0.000001,-0.000002
1.240000,0.720000,1.260051,0.080000,-3539.532676,25616.531519,-26000.159941,-44070.170530,0.000000,-0.000000,-0.000001
1.320000,0.720000,1.180055,0.080000,-2903.117877,-11230.659620,11626.798774,-8046.010310,-0.000000,0.000000,-0.000000
1.400000,0.720000,1.100058,0.080000,-2178.765559,-66271.317956,67025.562229,35973.993616,-0.000001,0.000001,0.000001
1.480000,0.720000,1.020063,0.080000,-1019.621049,-126392.121039,128377.179998,134303.485859,-0.000002,0.000002,0.000003
1.560000,0.720000,0.940068,0.080000,941.979710,-149545.342110,157881.606184,378609.299075,-0.000003,0.000003,0.000007
1.640000,0.720000,0.860075,0.080000,3793.581668,25781.950806,6398.922547,944236.160886,0.000000,-0.000000,0.000018
1.720000,0.720000,0.780082,0.080000,6218.584888,940945.456557,-831817.937286,2141650.026293,0.000017,-0.000016,0.000040
1.800000,0.720000,0.700092,0.080000,1774.683216,4262245.044170,-3921772.500881,4393044.971936,0.000078,-0.000076,0.000083
1.880000,0.720000,0.620104,0.080000,-32503.334718,14909711.285515,-13897202.987620,7713270.513792,0.000275,-0.000268,0.000145
1.960000,0.720000,0.540119,0.080000,-169701.215005,47907406.706602,-46591878.520895,8404327.736485,0.000895,-0.000885,0.000158
2.040000,0.720000,0.460140,0.080000,-630669.935858,144634980.476941,-143007268.117189,-11148564.816942,0.002716,-0.002704,-0.000210
2.120000,0.720000,0.380169,0.080000,-2068869.141506,419090291.385172,-422493184.695002,-132168013.378868,0.007915,-0.007941,-0.002490
-2.120000,0.800000,0.380106,0.080000,2107482.031792,-442449197.973299,445470322.627921,-228501967.945042,-0.008353,0.008376,-0.004305
-2.040000,0.800000,0.460087,0.080000,628503.761537,-150024283.003227,148198753.524928,-32976047.420665,-0.002816,0.002802,-0.000621
-1.960000,0.800000,0.540074,0.080000,165492.498801,-48653447.101526,47246541.148458,3077301.749868,-0.000909,0.000898,0.000058
-1.880000,0.800000,0.620065,0.080000,32173.837014,-14684625.426797,13638664.194626,6379292.436458,-0.000271,0.000263,0.000120
-1.800000,0.800000,0.700057,0.080000,660.524903,-3997215.815024,3651800.480379,3901581.922320,-0.000073,0.000071,0.000074
-1.720000,0.800000,0.780051,0.080000,-2673.113185,-791682.317019,683766.592796,1890967.763179,-0.000014,0.000013,0.000036
-1.640000,0.800000,0.860047,0.080000,-114.800345,31672.564088,-61379.704366,794132.593370,0.000001,-0.000001,0.000015
-1.560000,0.800000,0.940043,0.080000,2480.731753,163860.179778,-169021.680015,281940.718035,0.000003,-0.000003,0.000005
-1.480000,0.800000,1.020039,0.080000,4084.868951,139818.941976,-138042.454309,68577.634209,0.000003,-0.000003,0.000001
-1.400000,0.800000,1.100036,0.080000,4801.595570,111421.178636,-108688.832568,529.464437,0.000002,-0.000002,0.000000
-1.320000,0.800000,1.180034,0.080000,4806.451083,102290.656609,-101202.405389,14572.155789,0.000002,-0.000002,0.000000
-1.240000,0.800000,1.200065,0.080000,4168.029935,86179.474514,-88010.146398,86471.926353,0.000002,-0.000002,0.000002
-1.160000,0.800000,1.200024,0.080000,3005.321868,17319.917862,-21661.933695,187736.854399,0.000000,-0.000000,0.000004
-1.080000,0.800000,1.200002,0.080000,1769.536486,-138756.573004,134645.799792,259081.141687,-0.000003,0.000003,0.000005
-1.000000,0.800000,1.200060,0.080000,1451.176156,-367216.597172,367823.276297,215021.591546,-0.000007,0.000007,0.000004
-0.920000,0.800000,1.200028,0.080000,3477.362642,-579609.114456,588829.309251,-14003.841518,-0.000011,0.000011,-0.000000
-0.840000,0.800000,1.200001,0.080000,9154.597070,-631731.689503,649836.016199,-419975.287557,-0.000012,0.000012,-0.000008
-0.760000,0.800000,1.200055,0.080000,18774.117794,-392669.953156,414655.146517,-877504.571369,-0.000008,0.000008,-0.000017
-0.680000,0.800000,1.200031,0.080000,30809.947117,162837.610653,-145839.031645,-1166930.654207,0.000003,-0.000003,-0.000022
-0.600000,0.800000,1.200001,0.080000,41778.269893,894513.590123,-890932.391554,-1068765.948917,0.000017,-0.000017,-0.000020
-0.520000,0.800000,1.200051,0.080000,47121.770524,1519333.254372,-1532206.685319,-489956.239318,0.000029,-0.000029,-0.000009
-0.440000,0.800000,1.200035,0.080000,42970.914526,1724850.279962,-1749251.065509,448967.177341,0.000033,-0.000033,0.000008
-0.360000,0.800000,1.200000,0.080000,28077.398467,1325148.066989,-1349898.215439,1426723.454319,0.000025,-0.000025,0.000027
-0.280000,0.800000,1.200046,0.080000,4955.777453,377624.458893,-390728.211715,2044608.787945,0.000007,-0.000007,0.000039
-0.200000,0.800000,1.200038,0.080000,-20485.139752,-809338.443942,814379.769043,2007917.488236,-0.000015,0.000015,0.000038
-0.120000,0.800000,1.200000,0.080000,-40863.553850,-1793789.531275,1814288.759533,1275044.714570,-0.000034,0.000034,0.000024
-0.040000,0.800000,1.200042,0.080000,-50068.278846,-2191897.242275,2217068.464995,94533.851584,-0.000041,0.000042,0.000002
0.040000,0.800000,1.200042,0.080000,-45636.954297,-1851106.608995,1867467.823543,-1094487.042524,-0.000035,0.000035,-0.000021
0.120000,0.800000,1.200000,0.080000,-29697.775545,-918693.307588,916949.516103,-1852988.949354,-0.000017,0.000017,-0.000035
0.200000,0.800000,1.200038,0.080000,-8052.067756,228051.319376,-248289.001590,-1931458.614511,0.000004,-0.000005,-0.000036
0.280000,0.800000,1.200046,0.080000,12168.476839,1153997.284086,-1184111.023914,-1367047.273814,0.000022,-0.000022,-0.000026
0.360000,0.800000,1.200000,0.080000,25202.885515,1554702.298720,-1581530.734573,-445807.223482,0.000029,-0.000030,-0.000008
0.440000,0.800000,1.200035,0.080000,28552.354117,1370987.447841,-1383369.825904,443869.655312,0.000026,-0.000026,0.000008
0.520000,0.800000,1.200051,0.080000,23351.654187,781476.130654,-775386.086800,988265.168798,0.000015,-0.000015,0.000019
0.600000,0.800000,1.200001,0.080000,13265.122384,89395.840972,-69112.553653,1068685.551860,0.000002,-0.000001,0.000020
0.680000,0.800000,1.200031,0.080000,2606.515309,-429019.645642,453954.308963,775039.635341,-0.000008,0.000008,0.000015
0.760000,0.800000,1.200055,0.080000,-5379.013909,-636087.432657,656079.017564,322277.703930,-0.000012,0.000012,0.000006
0.840000,0.800000,1.200001,0.080000,-9378.163365,-557351.076785,567120.957404,-72715.861591,-0.000011,0.000011,-0.000001
0.920000,0.800000,1.200028,0.080000,-9861.072508,-325036.998716,324996.633870,-285479.025267,-0.000006,0.000006,-0.000005
1.000000,0.800000,1.200060,0.080000,-8266.925217,-87175.443945,81661.854466,-309455.850738,-0.000002,0.000002,-0.000006
1.080000,0.800000,1.200002,0.080000,-6084.160450,62990.298952,-68960.241876,-217778.207853,0.000001,-0.000001,-0.000004
1.160000,0.800000,1.200024,0.080000,-4264.216721,107447.800401,-110754.156502,-99364.272865,0.000002,-0.000002,-0.000002
1.240000,0.800000,1.200065,0.080000,-3100.339231,80001.813302,-80093.479061,-10375.326037,0.000002,-0.000002,-0.000000
1.320000,0.800000,1.180034,0.080000,-2431.618642,28311.305309,-26163.560389,39857.737237,0.000001,-0.000001,0.000001
1.400000,0.800000,1.100036,0.080000,-1939.898712,-9780.406735,13414.436165,75781.467342,-0.000000,0.000000,0.000001
1.480000,0.800000,1.020039,0.080000,-1393.374611,-1903.696351,8227.304377,134547.084373,-0.000000,0.000000,0.000003
1.560000,0.800000,0.940043,0.080000,-865.525498,113287.731256,-99062.599466,246695.236325,0.000002,-0.000002,0.000005
1.640000,0.800000,0.860047,0.080000,-1151.993285,497586.191528,-462432.826465,399336.442920,0.000009,-0.000009,0.000008
1.720000,0.800000,0.780051,0.080000,-4851.759414,1549368.915928,-1465111.550646,399609.275726,0.000029,-0.000028,0.000008
1.800000,0.800000,0.700057,0.080000,-18997.457432,4147139.431510,-3960839.381620,-617198.995724,0.000077,-0.000076,-0.000012
1.880000,0.800000,0.620065,0.080000,-60776.846249,9959016.088454,-9601035.969397,-5831709.600769,0.000186,-0.000183,-0.000110
1.960000,0.800000,0.540074,0.080000,-168104.477595,21373417.275349,-21360971.772417,-27574563.310741,0.000403,-0.000403,-0.000520
2.040000,0.800000,0.460087,0.080000,-412244.027369,36565660.545670,-36675925.881819,-98995067.614811,0.000690,-0.000690,-0.001865
2.120000,0.800000,0.380106,0.080000,-880736.987913,29873210.965119,-30298456.964015,-349982044.002647,0.000565,-0.000568,-0.006594
-2.120000,0.880000,0.380000,0.080000,566283.435706,63832398.683061,-64338718.744300,-384163430.616485,0.001206,-0.001209,-0.007238
-2.040000,0.880000,0.460000,0.080000,324283.769162,-13420571.402316,13815849.513549,-107143163.880630,-0.000255,0.000258,-0.002019
-1.960000,0.880000,0.540000,0.080000,141114.705196,-15442432.506204,15673171.679208,-29599212.190810,-0.000292,0.000294,-0.000558
-1.880000,0.880000,0.620000,0.080000,52924.192790,-8218064.542616,7967561.690854,-6282450.960654,-0.000153,0.000152,-0.000118
-1.800000,0.880000,0.700000,0.080000,18135.027420,-3518975.227079,3363699.834230,-755785.313459,-0.000065,0.000064,-0.000014
-1.720000,0.880000,0.780000,0.080000,6721.895956,-1292396.507846,1219045.827261,322729.296731,-0.000024,0.000023,0.000006
-1.640000,0.880000,0.860000,0.080000,4044.420010,-396247.799265,366488.120404,336162.514064,-0.000007,0.000007,0.000006
-1.560000,0.880000,0.940000,0.080000,4108.822306,-82260.391928,72722.926240,180767.303417,-0.000001,0.000001,0.000003
-1.480000,0.880000,1.020000,0.080000,4777.857377,21198.476384,-21760.546095,50738.854315,0.000000,-0.000000,0.000001
-1.400000,0.880000,1.100000,0.080000,5333.067055,80440.621666,-77877.035480,-22390.752346,0.000002,-0.000001,-0.000000
-1.320000,0.880000,1.120003,0.080000,5376.902483,151860.117777,-150726.165389,-17511.253459,0.000003,-0.000003,-0.000000
-1.240000,0.880000,1.120069,0.080000,4461.346235,212059.741624,-216264.385779,93762.164655,0.000004,-0.000004,0.000002
-1.160000,0.880000,1.120026,0.080000,2231.381067,175588.758823,-186244.536458,305959.448523,0.000003,-0.000003,0.000006
-1.080000,0.880000,1.120002,0.080000,-1047.075232,-53728.806942,40880.284409,528399.029808,-0.000001,0.000001,0.000010
-1.000000,0.880000,1.120064,0.080000,-3904.961865,-492513.286841,486825.726107,580887.944772,-0.000009,0.000009,0.000011
-0.920000,0.880000,1.120030,0.080000,-3591.954357,-998574.428689,1009721.267839,274890.936273,-0.000019,0.000019,0.000005
-0.840000,0.880000,1.120001,0.080000,3019.395906,-1278413.211085,1309152.642445,-443286.105687,-0.000024,0.000024,-0.000008
-0.760000,0.880000,1.120059,0.080000,17608.871779,-1018859.467109,1060314.293260,-1377648.509829,-0.000019,0.000020,-0.000026
-0.680000,0.880000,1.120033,0.080000,38484.765059,-92732.478365,126553.743845,-2098985.052486,-0.000002,0.000002,-0.000040
-0.600000,0.880000,1.120001,0.080000,59827.682845,1285718.435195,-1278193.660574,-2127821.807000,0.000024,-0.000024,-0.000040
-0.520000,0.880000,1.120054,0.080000,73049.095192,2577455.907064,-2603966.388726,-1207243.483917,0.000049,-0.000049,-0.000023
-0.440000,0.880000,1.120037,0.080000,70147.170413,3138460.092660,-3189526.851821,490026.010378,0.000059,-0.000060,0.000009
-0.360000,0.880000,1.120000,0.080000,47692.835423,2547170.017719,-2599289.059571,2361301.894109,0.000048,-0.000049,0.000044
-0.280000,0.880000,1.120050,0.080000,9422.170496,863415.360173,-890685.754724,3613406.382127,0.000016,-0.000017,0.000068
-0.200000,0.880000,1.120041,0.080000,-34158.850865,-1336517.655682,1348554.351909,3636010.300128,-0.000025,0.000025,0.000069
-0.120000,0.880000,1.120000,0.080000,-69364.913656,-3189163.470393,3235251.486219,2317087.604565,-0.000060,0.000061,0.000044
-0.040000,0.880000,1.120045,0.080000,-84691.637087,-3933832.033191,3991097.724796,128907.924736,-0.000074,0.000075,0.000002
0.040000,0.880000,1.120045,0.080000,-75529.584979,-3268463.889660,3307942.891279,-2070132.395194,-0.000062,0.000062,-0.000039
0.120000,0.880000,1.120000,0.080000,-46030.362097,-1490115.007896,1491570.115524,-3423556.744161,-0.000028,0.000028,-0.000065
0.200000,0.880000,1.120041,0.080000,-7257.859018,650442.391740,-688325.901160,-3461170.646559,0.000012,-0.000013,-0.000065
0.280000,0.880000,1.120050,0.080000,27472.558806,2303137.751249,-2362510.900331,-2289946.861853,0.000044,-0.000044,-0.000043
0.360000,0.880000,1.120000,0.080000,47870.832734,2900662.700822,-2954103.611993,-504952.557985,0.000055,-0.000055,-0.000010
0.440000,0.880000,1.120037,0.080000,50198.027696,2380042.465708,-2404571.265546,1120530.061032,0.000045,-0.000045,0.000021
0.520000,0.880000,1.120054,0.080000,37667.146437,1147534.647735,-1135450.911221,1997594.902944,0.000022,-0.000021,0.000038
0.600000,0.880000,1.120001,0.080000,17932.815304,-171498.112335,210473.617082,1954017.876037,-0.000003,0.000004,0.000037
0.680000,0.880000,1.120033,0.080000,-785.154580,-1049224.676262,1094919.662177,1236543.792102,-0.000020,0.000020,0.000023
0.760000,0.880000,1.120059,0.080000,-12985.098756,-1271360.326896,1304554.180396,313805.605027,-0.000024,0.000024,0.000006
0.840000,0.880000,1.120001,0.080000,-17232.471601,-959848.757661,971370.089305,-388206.465634,-0.000018,0.000018,-0.000007
0.920000,0.880000,1.120030,0.080000,-15425.213175,-426991.200112,419867.377821,-669842.469185,-0.000008,0.000008,-0.000013
1.000000,0.880000,1.120064,0.080000,-10868.802784,26655.780379,-41937.385956,-582387.645185,0.000001,-0.000001,-0.000011
1.080000,0.880000,1.120002,0.080000,-6407.588163,249829.407720,-262803.633209,-319557.628931,0.000005,-0.000005,-0.000006
1.160000,0.880000,1.120026,0.080000,-3468.438218,257549.323415,-263013.912873,-71339.214531,0.000005,-0.000005,-0.000001
1.240000,0.880000,1.120069,0.080000,-2133.416076,156372.845466,-154941.715304,67828.715233,0.000003,-0.000003,0.000001
1.320000,0.880000,1.120003,0.080000,-1789.887197,52719.112428,-47829.908608,104021.463608,0.000001,-0.000001,0.000002
1.400000,0.880000,1.100000,0.080000,-1794.155150,4825.638600,784.599426,91840.163255,0.000000,-0.000000,0.000002
1.480000,0.880000,1.020000,0.080000,-1846.351860,30491.878862,-24413.036296,76074.512931,0.000001,-0.000000,0.000001
1.560000,0.880000,0.940000,0.080000,-2116.527917,143341.500436,-134958.057989,51625.386045,0.000003,-0.000003,0.000001
1.640000,0.880000,0.860000,0.080000,-3339.727309,377922.750519,-366032.822016,-80577.206723,0.000007,-0.000007,-0.000002
1.720000,0.880000,0.780000,0.080000,-7021.224564,748459.406479,-741834.664438,-631489.435442,0.000014,-0.000014,-0.000012
1.800000,0.880000,0.700000,0.080000,-15429.629433,973747.920279,-1026411.613841,-2445504.519225,0.000019,-0.000019,-0.000046
1.880000,0.880000,0.620000,0.080000,-29397.909020,-663262.676024,322158.096109,-7654219.024014,-0.000011,0.000008,-0.000144
1.960000,0.880000,0.540000,0.080000,-35835.936566,-11932088.054088,11070394.219249,-21639760.386379,-0.000220,0.000213,-0.000408
2.040000,0.880000,0.460000,0.080000,45458.170002,-61988841.044040,60821963.624367,-51894664.874768,-0.001161,0.001153,-0.000978
2.120000,0.880000,0.380000,0.080000,566906.319881,-250887965.758210,252811795.073472,-111250895.047773,-0.004738,0.004752,-0.002096
-2.120000,0.960000,0.380136,0.080000,-745544.413554,294348275.694672,-296394570.131938,-25164152.602808,0.005557,-0.005573,-0.000474
-2.040000,0.960000,0.460112,0.080000,-101873.518716,74068256.287997,-72725338.549150,-32746094.680097,0.001388,-0.001378,-0.000617
-1.960000,0.960000,0.540095,0.080000,16981.460085,15473091.580571,-14487908.361564,-16809773.641667,0.000286,-0.000279,-0.000317
-1.880000,0.960000,0.620083,0.080000,23659.402300,1813502.747797,-1403383.040085,-6415627.141276,0.000032,-0.000029,-0.000121
-1.800000,0.960000,0.700074,0.080000,14908.593173,-529651.719166,605033.309271,-2065142.900326,-0.000010,0.000011,-0.000039
-1.720000,0.960000,0.780066,0.080000,8744.115897,-555459.981527,557270.854346,-506974.975622,-0.000010,0.000010,-0.000010
-1.640000,0.960000,0.860060,0.080000,6044.376853,-305839.356627,297980.964160,-42688.788791,-0.000006,0.000006,-0.000001
-1.560000,0.960000,0.940055,0.080000,5340.568741,-149530.950729,145580.701125,35690.601113,-0.000003,0.000003,0.000001
-1.480000,0.960000,1.020050,0.080000,5627.140918,-69675.586875,71905.339772,-22574.796016,-0.000001,0.000001,-0.000000
-1.400000,0.960000,1.040025,0.080000,6362.152005,24306.985706,-17491.592931,-120544.219179,0.000000,-0.000000,-0.000002
-1.320000,0.960000,1.040003,0.080000,6920.237676,201287.597806,-195861.993274,-161354.267772,0.000004,-0.000004,-0.000003
-1.240000,0.960000,1.040075,0.080000,6179.330713,431713.651025,-436783.644532,-15506.013255,0.000008,-0.000008,-0.000000
-1.160000,0.960000,1.040028,0.080000,2727.418367,540527.942938,-561865.306683,396531.016539,0.000010,-0.000010,0.000007
-1.080000,0.960000,1.040002,0.080000,-4040.399984,270209.215884,-301978.265172,964829.083681,0.000005,-0.000006,0.000018
-1.000000,0.960000,1.040069,0.080000,-12347.890327,-521398.772972,498706.275823,1329435.020859,-0.000010,0.000010,0.000025
-0.920000,0.960000,1.040032,0.080000,-17210.432547,-1638704.788498,1648775.086204,1022547.069261,-0.000031,0.000031,0.000019
-0.840000,0.960000,1.040001,0.080000,-11701.936211,-2498278.898743,2551773.935216,-206100.211159,-0.000047,0.000048,-0.000004
-0.760000,0.960000,1.040064,0.080000,9410.564122,-2375477.690365,2457135.871769,-2080646.937258,-0.000045,0.000046,-0.000039
-0.680000,0.960000,1.040036,0.080000,45207.920628,-862287.114543,933694.714794,-3765082.704734,-0.000017,0.000017,-0.000071
-0.600000,0.960000,1.040001,0.080000,86155.585703,1742768.885863,-1723453.603278,-4217487.475320,0.000033,-0.000033,-0.000079
-0.520000,0.960000,1.040058,0.080000,116016.754702,4407054.350735,-4459428.489347,-2782957.680878,0.000083,-0.000084,-0.000052
-0.440000,0.960000,1.040040,0.080000,118282.754038,5794300.927590,-5900449.461812,320455.257099,0.000110,-0.000111,0.000006
-0.360000,0.960000,1.040000,0.080000,84444.179396,4958900.801797,-5069308.992905,3949271.694302,0.000094,-0.000095,0.000074
-0.280000,0.960000,1.040053,0.080000,19812.347345,1920160.014119,-1978765.995712,6506160.632697,0.000037,-0.000037,0.000123
-0.200000,0.960000,1.040044,0.080000,-56646.251590,-2229193.444124,2254598.894282,6717059.210726,-0.000042,0.000042,0.000127
-0.120000,0.960000,1.040000,0.080000,-119117.120512,-5777735.163162,5877036.476844,4302889.861953,-0.000109,0.000110,0.000081
-0.040000,0.960000,1.040049,0.080000,-145560.934001,-7197956.096555,7322810.027186,175356.386374,-0.000136,0.000137,0.000003
0.040000,0.960000,1.040049,0.080000,-127180.701949,-5884347.496048,5972860.490856,-3963379.887279,-0.000111,0.000112,-0.000075
0.120000,0.960000,1.040000,0.080000,-72165.372075,-2443283.337430,2451927.937903,-6419036.868715,-0.000046,0.000046,-0.000121
0.200000,0.960000,1.040044,0.080000,-1919.320560,1612734.611173,-1687139.704831,-6293132.001033,0.000031,-0.000031,-0.000119
0.280000,0.960000,1.040053,0.080000,58325.090862,4601341.625290,-4721150.111438,-3862245.273107,0.000087,-0.000088,-0.000073
0.360000,0.960000,1.040000,0.080000,89950.137296,5452560.498483,-5560041.483858,-371797.444465,0.000103,-0.000104,-0.000007
0.440000,0.960000,1.040040,0.080000,87604.273047,4142294.764033,-4189819.372645,2622846.283272,0.000078,-0.000079,0.000049
0.520000,0.960000,1.040058,0.080000,59374.144236,1582296.908524,-1555373.908502,4006130.119159,0.000030,-0.000029,0.000075
0.600000,0.960000,1.040001,0.080000,21151.204776,-931909.040121,1010775.791207,3555426.650867,-0.000018,0.000019,0.000067
0.680000,0.960000,1.040036,0.080000,-11396.922467,-2387396.890979,2474739.102630,1896107.349362,-0.000045,0.000046,0.000036
0.760000,0.960000,1.040064,0.080000,-29128.107879,-2475266.616197,2531892.315903,43032.681071,-0.000047,0.000047,0.000001
0.840000,0.960000,1.040001,0.080000,-31384.127930,-1580962.110504,1591174.146687,-1170156.968703,-0.000030,0.000030,-0.000022
0.920000,0.960000,1.040032,0.080000,-23647.080921,-421733.842224,396318.712170,-1448987.083909,-0.000008,0.000008,-0.000027
1.000000,0.960000,1.040069,0.080000,-13116.219902,401437.541740,-437572.066134,-1029236.898325,0.000008,-0.000008,-0.000019
1.080000,0.960000,1.040002,0.080000,-4968.225892,668107.340709,-693310.642234,-388704.012223,0.000013,-0.000013,-0.000007
1.160000,0.960000,1.040028,0.080000,-947.251418,515449.997108,-521983.145059,83942.755113,0.000010,-0.000010,0.000002
1.240000,0.960000,1.040075,0.080000,-170.010278,225722.034467,-218812.627720,257159.515313,0.000004,-0.000004,0.000005
1.320000,0.960000,1.040003,0.080000,-855.586193,13931.584027,-3353.352935,214272.330464,0.000000,-0.000000,0.000004
1.400000,0.960000,1.040025,0.080000,-1670.722712,-54506.657912,62223.932169,103085.026091,-0.000001,0.000001,0.000002
1.480000,0.960000,1.020050,0.080000,-2163.678490,-19438.013205,23038.300339,12313.214107,-0.000000,0.000000,0.000000
1.560000,0.960000,0.940055,0.080000,-2536.758044,52772.454723,-52649.919681,-66043.393700,0.000001,-0.000001,-0.000001
1.640000,0.960000,0.860060,0.080000,-3228.177223,90267.158357,-97550.521453,-219504.913135,0.000002,-0.000002,-0.000004
1.720000,0.960000,0.780066,0.080000,-4417.320475,-81774.750800,47357.210075,-592597.953052,-0.000001,0.000001,-0.000011
1.800000,0.960000,0.700074,0.080000,-4796.342090,-1057631.158284,933541.093662,-1314685.780137,-0.000019,0.000018,-0.000025
1.880000,0.960000,0.620083,0.080000,2519.083693,-4686672.775811,4298741.010991,-2007680.629960,-0.000086,0.000083,-0.000038
1.960000,0.960000,0.540095,0.080000,42534.453787,-16431010.683423,15956881.329684,1343604.127610,-0.000307,0.000303,0.000025
2.040000,0.960000,0.460112,0.080000,193148.687318,-49303743.197973,48738244.729915,25849323.223785,-0.000926,0.000921,0.000487
2.120000,0.960000,0.380136,0.080000,672027.852181,-130082085.775420,131192874.138213,154946506.917947,-0.002457,0.002465,0.002919
-2.120000,1.040000,0.380136,0.080000,-482240.801494,54063835.934592,-54434738.682043,200695473.833328,0.001021,-0.001023,0.003781
-2.040000,1.040000,0.460112,0.080000,-154228.326365,32929658.302194,-32578940.488347,38487082.847147,0.000618,-0.000616,0.000725
-1.960000,1.040000,0.540095,0.080000,-34188.564929,13009200.667654,-12714964.260850,5301776.092460,0.000243,-0.000241,0.000100
-1.880000,1.040000,0.620083,0.080000,326.796087,4012456.907031,-3685412.802542,-759815.877606,0.000074,-0.000071,-0.000014
-1.800000,1.040000,0.700074,0.080000,7210.416436,967064.515787,-855582.594634,-864384.690872,0.000018,-0.000017,-0.000016
-1.720000,1.040000,0.780066,0.080000,7158.878257,108658.161959,-77150.268429,-402679.606092,0.000002,-0.000002,-0.000008
-1.640000,1.040000,0.860060,0.080000,6186.450718,-78397.638512,83537.323475,-105232.016680,-0.000002,0.000002,-0.000002
-1.560000,1.040000,0.940055,0.080000,5676.295107,-132236.806352,132239.284587,5714.272526,-0.000002,0.000002,0.000000
-1.480000,1.040000,0.960087,0.080000,6017.903203,-178107.944202,184354.362404,-53072.247800,-0.000003,0.000003,-0.000001
-1.400000,1.040000,0.960027,0.080000,7476.529032,-131829.302229,148925.133655,-267004.417206,-0.000003,0.000003,-0.000005
-1.320000,1.040000,0.960004,0.080000,9697.147359,169652.061944,-149786.724007,-498395.624662,0.000003,-0.000003,-0.000009
-1.240000,1.040000,0.960081,0.080000,10737.454730,754999.842740,-753800.037074,-425056.664966,0.000014,-0.000014,-0.000008
-1.160000,1.040000,0.960031,0.080000,6965.906694,1303278.193071,-1340955.137589,282780.930811,0.000025,-0.000025,0.000005
-1.080000,1.040000,0.960002,0.080000,-4894.801469,1177719.603519,-1249793.868001,1581655.735554,0.000023,-0.000023,0.000030
-1.000000,1.040000,0.960075,0.080000,-23851.721566,-150083.989558,83801.181555,2787507.795556,-0.000002,0.000002,0.000053
-0.920000,1.040000,0.960035,0.080000,-41483.881820,-2506641.243643,2503589.014583,2790007.748678,-0.000047,0.000047,0.000053
-0.840000,1.040000,0.960001,0.080000,-43147.262279,-4756927.749757,4850625.650419,783637.053059,-0.000090,0.000091,0.000015
-0.760000,1.040000,0.960069,0.080000,-15060.342596,-5254039.759122,5419673.870510,-2932765.404410,-0.000100,0.000101,-0.000055
-0.680000,1.040000,0.960039,0.080000,45552.518684,-2862644.626156,3018920.948260,-6734330.026554,-0.000055,0.000056,-0.000127
-0.600000,1.040000,0.960001,0.080000,123561.374375,2081042.790446,-2028793.553756,-8358027.158906,0.000039,-0.000039,-0.000157
-0.520000,1.040000,0.960063,0.080000,188143.509068,7584187.143450,-7684919.062861,-6202649.634793,0.000143,-0.000144,-0.000117
-0.440000,1.040000,0.960043,0.080000,205193.317675,10851763.808130,-11072033.646108,-461470.480853,0.000206,-0.000207,-0.000009
-0.360000,1.040000,0.960000,0.080000,154621.324828,9774644.262177,-10009657.554346,6668663.915467,0.000185,-0.000187,0.000126
-0.280000,1.040000,0.960058,0.080000,43349.893934,4204424.651518,-4332480.468012,11931657.790251,0.000080,-0.000081,0.000225
-0.200000,1.040000,0.960048,0.080000,-93851.670640,-3755049.605846,3805625.434615,12647970.629308,-0.000071,0.000071,0.000238
-0.120000,1.040000,0.960000,0.080000,-207468.019322,-10664887.720925,10874698.587704,8152635.876813,-0.000202,0.000204,0.000154
-0.040000,1.040000,0.960053,0.080000,-254580.109080,-13420982.729226,13687776.066409,233901.493957,-0.000254,0.000256,0.000004
0.040000,1.040000,0.960053,0.080000,-218105.946480,-10796695.163515,10988397.337384,-7687476.541959,-0.000204,0.000206,-0.000145
0.120000,1.040000,0.960000,0.080000,-114390.160380,-4043877.994320,4067391.848563,-12216519.399751,-0.000076,0.000076,-0.000230
0.200000,1.040000,0.960048,0.080000,14573.832777,3755541.153662,-3906995.160789,-11613396.264854,0.000072,-0.000073,-0.000219
0.280000,1.040000,0.960058,0.080000,120267.955231,9231025.125670,-9477041.798192,-6554731.820107,0.000175,-0.000177,-0.000123
0.360000,1.040000,0.960000,0.080000,168569.240599,10339831.936431,-10557844.184002,337281.904498,0.000196,-0.000198,0.000006
0.440000,1.040000,0.960043,0.080000,152450.567709,7225414.754775,-7316009.078708,5902521.475272,0.000137,-0.000137,0.000111
0.520000,1.040000,0.960063,0.080000,91138.741956,1918225.625313,-1854483.243464,8007246.746989,0.000036,-0.000035,0.000151
0.600000,1.040000,0.960001,0.080000,17568.722578,-2882378.929315,3047951.171652,6438681.646452,-0.000055,0.000056,0.000121
0.680000,1.040000,0.960039,0.080000,-38341.004536,-5221986.924318,5394334.672435,2715880.381526,-0.000099,0.000101,0.000051
0.760000,1.040000,0.960069,0.080000,-61847.962056,-4721626.186634,4819570.823431,-967961.874966,-0.000090,0.000090,-0.000018
0.840000,1.040000,0.960001,0.080000,-55826.541387,-2443409.000679,2440903.180849,-2984430.786529,-0.000046,0.000046,-0.000056
0.920000,1.040000,0.960035,0.080000,-34283.170413,-8483.041917,-62264.593979,-2969957.063414,0.000000,-0.000001,-0.000056
1.000000,1.040000,0.960075,0.080000,-12356.453370,1398501.831234,-1478709.462108,-1678224.977237,0.000027,-0.000027,-0.000032
1.080000,1.040000,0.960002,0.080000,1061.968884,1530322.070388,-1575372.436391,-241257.949555,0.000029,-0.000029,-0.000005
1.160000,1.040000,0.960031,0.080000,4961.988363,895500.825549,-896560.237299,577561.335019,0.000017,-0.000017,0.000011
1.240000,1.040000,0.960081,0.080000,3164.674259,188514.121684,-165179.232548,672428.738921,0.000003,-0.000003,0.000013
1.320000,1.040000,0.960004,0.080000,53.348625,-186633.101301,209597.976756,380358.192363,-0.000004,0.000004,0.000007
1.400000,1.040000,0.960027,0.080000,-1972.715814,-220049.279384,230422.433763,76293.076292,-0.000004,0.000004,0.000001
1.480000,1.040000,0.960087,0.080000,-2631.307003,-104459.132460,103852.892689,-76860.350905,-0.000002,0.000002,-0.000001
1.560000,1.040000,0.940055,0.080000,-2602.753702,-15348.387706,9452.586035,-118288.231401,-0.000000,0.000000,-0.000002
1.640000,1.040000,0.860060,0.080000,-2427.939359,-45803.725194,35031.727641,-143594.812645,-0.000001,0.000001,-0.000003
1.720000,1.040000,0.780066,0.080000,-1882.538853,-286548.774806,263042.852010,-158277.803473,-0.000005,0.000005,-0.000003
1.800000,1.040000,0.700074,0.080000,635.969237,-923113.825633,876853.815250,121520.367217,-0.000017,0.000017,0.000002
1.880000,1.040000,0.620083,0.080000,9235.688112,-2081886.389042,2041054.776051,1870678.472353,-0.000039,0.000039,0.000035
1.960000,1.040000,0.540095,0.080000,30798.929113,-2299234.875105,2549584.605977,9527386.362150,-0.000045,0.000047,0.000180
2.040000,1.040000,0.460112,0.080000,62900.397971,9780448.788825,-9391723.388497,33809258.595934,0.000182,-0.000179,0.000637
2.120000,1.040000,0.380136,0.080000,9526.936603,89016710.894530,-89638021.670883,109668006.482065,0.001681,-0.001685,0.002066
-2.120000,1.120000,0.380000,0.080000,165979.622062,-130145087.919805,131018100.992197,46456593.892720,-0.002457,0.002464,0.000875
-2.040000,1.120000,0.460000,0.080000,-8256.712961,-22090681.973326,21539173.234990,22963105.006852,-0.000413,0.000409,0.000433
-1.960000,1.120000,0.540000,0.080000,-11988.714359,-1365509.780265,990616.882217,7793248.645721,-0.000024,0.000021,0.000147
-1.880000,1.120000,0.620000,0.080000,-1102.069438,997815.878402,-1030961.582888,1790256.183593,0.000019,-0.000019,0.000034
-1.800000,1.120000,0.700000,0.080000,4362.459721,617092.410147,-591723.711436,210513.513107,0.000011,-0.000011,0.000004
-1.720000,1.120000,0.780000,0.080000,5887.332069,246224.232174,-230436.611750,-64379.166301,0.000005,-0.000004,-0.000001
-1.640000,1.120000,0.860000,0.080000,5772.398660,74510.975621,-74187.228472,12334.015363,0.000001,-0.000001,0.000000
-1.560000,1.120000,0.880006,0.080000,5181.848239,-89485.675088,82264.004915,140940.725072,-0.000002,0.000002,0.000003
-1.480000,1.120000,0.880095,0.080000,5211.396406,-362129.904063,366382.252046,93881.094438,-0.000007,0.000007,0.000002
-1.400000,1.120000,0.880029,0.080000,7549.541447,-564721.427827,599737.545505,-357652.327052,-0.000011,0.000011,-0.000007
-1.320000,1.120000,0.880004,0.080000,13317.516995,-211836.058374,270057.880548,-1132017.746722,-0.000004,0.000005,-0.000021
-1.240000,1.120000,0.880088,0.080000,20118.220605,1049874.869344,-1018056.253285,-1534840.058173,0.000020,-0.000019,-0.000029
-1.160000,1.120000,0.880033,0.080000,20038.173421,2752356.046600,-2809264.093442,-544533.664828,0.000052,-0.000053,-0.000010
-1.080000,1.120000,0.880003,0.080000,2724.790732,3415885.523047,-3572502.425781,2203996.047480,0.000065,-0.000066,0.000042
-1.000000,1.120000,0.880081,0.080000,-35473.987800,1434170.073976,-1609201.505134,5499067.794420,0.000028,-0.000029,0.000104
-0.920000,1.120000,0.880038,0.080000,-81817.864228,-3376741.753778,3322067.613869,6771689.178535,-0.000063,0.000063,0.000128
-0.840000,1.120000,0.880002,0.080000,-106344.727043,-8857424.256185,9019632.282469,3735853.150144,-0.000168,0.000169,0.000070
-0.760000,1.120000,0.880075,0.080000,-75382.494373,-11294126.243723,11636853.014958,-3574101.741220,-0.000215,0.000217,-0.000067
-0.680000,1.120000,0.880042,0.080000,25570.263064,-7727773.689465,8076906.593139,-12001136.848500,-0.000148,0.000150,-0.000226
-0.600000,1.120000,0.880001,0.080000,173798.008262,1704374.753564,-1564672.220587,-16612953.879856,0.000031,-0.000030,-0.000313
-0.520000,1.120000,0.880069,0.080000,310482.324746,13119153.363945,-13309364.534684,-13585470.143173,0.000248,-0.000250,-0.000256
-0.440000,1.120000,0.880047,0.080000,364875.303981,20615682.582602,-21073697.341028,-2834074.869302,0.000391,-0.000394,-0.000053
-0.360000,1.120000,0.880000,0.080000,290813.079051,19502004.431961,-20004483.223040,11360021.894988,0.000370,-0.000374,0.000214
-0.280000,1.120000,0.880063,0.080000,95646.801776,9128021.263176,-9409932.276504,22279154.363240,0.000174,-0.000176,0.000420
-0.200000,1.120000,0.880052,0.080000,-155880.013463,-6389466.403339,6487198.878997,24249815.156586,-0.000121,0.000122,0.000457
-0.120000,1.120000,0.880000,0.080000,-367251.330710,-20050925.065186,20490812.704262,15733394.773543,-0.000380,0.000384,0.000296
-0.040000,1.120000,0.880057,0.080000,-453610.244499,-25481762.836669,26046866.381471,293645.470749,-0.000483,0.000488,0.000006
0.040000,1.120000,0.880057,0.080000,-381277.242839,-20175848.183723,20584180.303806,-15110328.923489,-0.000382,0.000386,-0.000285
0.120000,1.120000,0.880000,0.080000,-183268.959139,-6744593.396262,6797458.058406,-23596598.949562,-0.000127,0.000128,-0.000445
0.200000,1.120000,0.880052,0.080000,56914.878904,8467823.764221,-8783947.439593,-21753822.279492,0.000161,-0.000164,-0.000410
0.280000,1.120000,0.880063,0.080000,244652.321785,18631773.245206,-19143743.745563,-11183603.869607,0.000354,-0.000358,-0.000211
0.360000,1.120000,0.880000,0.080000,316585.823120,19798815.785040,-20244628.739060,2562369.281481,0.000376,-0.000379,0.000048
0.440000,1.120000,0.880047,0.080000,265173.292045,12623136.841540,-12793706.254668,13000085.557325,0.000239,-0.000240,0.000245
0.520000,1.120000,0.880069,0.080000,134728.582078,1606552.467508,-1452276.133627,16004532.960680,0.000029,-0.000028,0.000302
0.600000,1.120000,0.880001,0.080000,-6397.537222,-7588293.307028,7944775.196732,11601332.693415,-0.000145,0.000148,0.000219
0.680000,1.120000,0.880042,0.080000,-100893.573738,-11163533.190340,11511916.296686,3389859.068976,-0.000212,0.000215,0.000064
0.760000,1.120000,0.880075,0.080000,-126113.770312,-8845672.806217,9015227.116496,-3883392.947538,-0.000168,0.000169,-0.000073
0.840000,1.120000,0.880002,0.080000,-95964.826691,-3375741.300894,3325551.910697,-7036675.313958,-0.000063,0.000063,-0.000133
0.920000,1.120000,0.880038,0.080000,-44131.499012,1610597.820368,-1791433.420519,-5834179.799520,0.000031,-0.000033,-0.000110
1.000000,1.120000,0.880081,0.080000,-1650.706081,3809747.941874,-3982452.980255,-2398263.086055,0.000073,-0.000074,-0.000045
1.080000,1.120000,0.880003,0.080000,17453.001915,3187793.394277,-3260626.694251,649217.024737,0.000060,-0.000061,0.000012
1.160000,1.120000,0.880033,0.080000,16619.499542,1287731.505761,-1259975.044909,1874760.689623,0.000024,-0.000024,0.000035
1.240000,1.120000,0.880088,0.080000,7423.390084,-255277.020753,322602.936593,1475955.349970,-0.000005,0.000006,0.000028
1.320000,1.120000,0.880004,0.080000,-499.305566,-763111.599806,810557.285441,515068.307520,-0.000015,0.000015,0.000010
1.400000,1.120000,0.880029,0.080000,-3787.021874,-526569.782806,536000.872401,-138700.389852,-0.000010,0.000010,-0.000003
1.480000,1.120000,0.880095,0.080000,-3738.263077,-144934.599840,132737.788229,-286163.219711,-0.000003,0.000003,-0.000005
1.560000,1.120000,0.880006,0.080000,-2680.324451,37041.710674,-49882.476364,-171739.061951,0.000001,-0.000001,-0.000003
1.640000,1.120000,0.860000,0.080000,-1782.409715,8148.609755,-14021.739997,-38922.583170,0.000000,-0.000000,-0.000001
1.720000,1.120000,0.780000,0.080000,-905.286374,-109552.726575,111100.605815,99969.818921,-0.000002,0.000002,0.000002
1.800000,1.120000,0.700000,0.080000,638.347857,-125364.666382,152532.527650,469637.958692,-0.000003,0.000003,0.000009
1.880000,1.120000,0.620000,0.080000,2710.801824,643075.658001,-497799.138897,1466544.283701,0.000011,-0.000010,0.000028
1.960000,1.120000,0.540000,0.080000,-556.796208,5059326.663097,-4743730.654303,2906540.550217,0.000094,-0.000091,0.000055
2.040000,1.120000,0.460000,0.080000,-39834.026261,22530285.558554,-22106490.958926,-743212.587531,0.000422,-0.000419,-0.000014
2.120000,1.120000,0.380000,0.080000,-234632.201389,78586930.670751,-79238187.684944,-48943456.180041,0.001484,-0.001489,-0.000922
-2.120000,1.200000,0.380106,0.080000,170291.217432,-27832199.832328,28103214.512302,-78450749.013442,-0.000526,0.000528,-0.001478
-2.040000,1.200000,0.460087,0.080000,44227.090684,-14504742.281940,14208047.366920,-9593307.141422,-0.000272,0.000269,-0.000181
-1.960000,1.200000,0.540074,0.080000,10109.928017,-4255152.899995,4040083.760366,310882.760773,-0.000079,0.000077,0.000006
-1.880000,1.200000,0.620065,0.080000,4749.123078,-779824.839013,645289.385106,810378.011993,-0.000014,0.000013,0.000015
-1.800000,1.200000,0.700057,0.080000,5266.720546,-3111.002693,-20416.905295,275235.967742,0.000000,-0.000000,0.000005
-1.720000,1.200000,0.780051,0.080000,6023.814525,150247.893260,-148883.621193,12626.746545,0.000003,-0.000003,0.000000
-1.640000,1.200000,0.800028,0.080000,5841.382801,233369.285863,-244975.843945,76781.094730,0.000004,-0.000005,0.000001
-1.560000,1.200000,0.800006,0.080000,4226.759532,115587.691475,-150619.784976,439130.504236,0.000002,-0.000003,0.000008
-1.480000,1.200000,0.800105,0.080000,2071.817123,-549932.855848,527559.481324,695894.043317,-0.000010,0.000010,0.000013
-1.400000,1.200000,0.800032,0.080000,3595.752421,-1564872.653438,1621906.011386,-4413.585592,-0.000030,0.000030,-0.000000
-1.320000,1.200000,0.800004,0.080000,14839.903838,-1654302.945908,1805713.828608,-2058462.613856,-0.000032,0.000033,-0.000039
-1.240000,1.200000,0.800097,0.080000,35789.735378,699215.919717,-562492.830888,-4148233.723994,0.000012,-0.000011,-0.000078
-1.160000,1.200000,0.800037,0.080000,51453.583444,5196167.907603,-5254430.568491,-3430694.193325,0.000098,-0.000099,-0.000065
-1.080000,1.200000,0.800003,0.080000,34254.912175,8556999.369611,-8887795.728427,2006419.815394,0.000163,-0.000166,0.000038
-1.000000,1.200000,0.800090,0.080000,-35634.237197,6295665.450916,-6738252.011098,10268628.631552,0.000121,-0.000124,0.000193
-0.920000,1.200000,0.800041,0.080000,-143110.618500,-3267025.651450,3048827.726329,15492506.485152,-0.000060,0.000059,0.000292
-0.840000,1.200000,0.800002,0.080000,-228488.948564,-16126964.897882,16398863.383253,11556278.315729,-0.000305,0.000307,0.000218
-0.760000,1.200000,0.800083,0.080000,-212622.279659,-23910546.722261,24630528.481938,-2752137.756916,-0.000455,0.000460,-0.000052
-0.680000,1.200000,0.800046,0.080000,-48478.782278,-19163105.973839,19952684.638424,-21280487.184729,-0.000366,0.000371,-0.000401
-0.600000,1.200000,0.800001,0.080000,233302.776258,-1041925.252491,1405437.712122,-33203507.249394,-0.000022,0.000024,-0.000626
-0.520000,1.200000,0.800076,0.080000,519721.912192,22786126.540037,-23140988.640830,-29510868.329651,0.000431,-0.000434,-0.000556
-0.440000,1.200000,0.800052,0.080000,663104.436861,39732911.308426,-40689993.803477,-9110089.995804,0.000754,-0.000761,-0.000172
-0.360000,1.200000,0.800000,0.080000,558967.269644,39370934.027315,-40449991.481649,19514969.942153,0.000748,-0.000756,0.000368
-0.280000,1.200000,0.800069,0.080000,210356.705892,19730682.988336,-20352783.607941,42341256.653293,0.000375,-0.000380,0.000798
-0.200000,1.200000,0.800057,0.080000,-260203.393329,-10990746.135088,11177248.531794,47287408.792084,-0.000208,0.000210,0.000891
-0.120000,1.200000,0.800000,0.080000,-661680.078806,-38376408.823969,39297561.563839,30871186.570655,-0.000728,0.000735,0.000582
-0.040000,1.200000,0.800063,0.080000,-823969.888669,-49218615.974988,50412279.501333,307462.705179,-0.000934,0.000943,0.000006
0.040000,1.200000,0.800063,0.080000,-679794.226973,-38365004.458395,39228365.582129,-30091705.733419,-0.000728,0.000734,-0.000567
0.120000,1.200000,0.800000,0.080000,-296633.271534,-11313431.210710,11422603.519099,-46234973.657532,-0.000214,0.000215,-0.000871
0.200000,1.200000,0.800057,0.080000,157386.653263,18761218.543138,-19432221.169170,-41355950.648446,0.000357,-0.000362,-0.000779
0.280000,1.200000,0.800069,0.080000,495226.785141,37878001.227888,-38954611.780190,-19163141.235840,0.000720,-0.000728,-0.000361
0.360000,1.200000,0.800000,0.080000,597703.898501,38307327.247478,-39226442.073972,8533015.576966,0.000727,-0.000734,0.000161
0.440000,1.200000,0.800052,0.080000,461551.330367,22069365.431665,-22387619.405846,28302595.421541,0.000418,-0.000420,0.000533
0.520000,1.200000,0.800076,0.080000,187082.292526,-880387.255125,1254486.448860,32073655.059928,-0.000019,0.000022,0.000604
0.600000,1.200000,0.800001,0.080000,-83342.657357,-18572579.521136,19353483.438398,20782209.304700,-0.000354,0.000360,0.000392
0.680000,1.200000,0.800046,0.080000,-239439.138738,-23555809.133691,24273700.637267,2827660.591821,-0.000448,0.000453,0.000053
0.760000,1.200000,0.800083,0.080000,-249338.135797,-16277454.413418,16567383.977212,-11473079.320556,-0.000308,0.000311,-0.000216
0.840000,1.200000,0.800002,0.080000,-157206.625253,-3562110.270697,3365798.302302,-15882342.927216,-0.000066,0.000065,-0.000299
0.920000,1.200000,0.800041,0.080000,-41422.914181,6448443.499885,-6894261.091742,-11013593.201480,0.000124,-0.000127,-0.000208
1.000000,1.200000,0.800090,0.080000,35629.193786,9331580.000258,-9697485.901887,-2493745.050290,0.000178,-0.000181,-0.000047
1.080000,1.200000,0.800003,0.080000,55166.646794,6124878.898221,-6222230.068343,3672056.079498,0.000116,-0.000117,0.000069
1.160000,1.200000,0.800037,0.080000,36153.393346,1129584.374580,-1001268.749377,4949533.571261,0.000021,-0.000020,0.000093
1.240000,1.200000,0.800097,0.080000,9198.489153,-1916937.529919,2094380.199161,2790075.671327,-0.000037,0.000038,0.000053
1.320000,1.200000,0.800004,0.080000,-6502.778205,-2130722.771226,2218883.522407,208552.047461,-0.000041,0.000041,0.000004
1.400000,1.200000,0.800032,0.080000,-9045.876459,-919155.774847,905363.474653,-939357.995197,-0.000017,0.000017,-0.000018
1.480000,1.200000,0.800105,0.080000,-5591.491866,78321.001120,-126250.506788,-748671.564778,0.000002,-0.000002,-0.000014
1.560000,1.200000,0.800006,0.080000,-2355.142620,317748.488758,-343765.772307,-197836.421457,0.000006,-0.000006,-0.000004
1.640000,1.200000,0.800028,0.080000,-1017.770468,149829.614424,-147320.074038,98911.714537,0.000003,-0.000003,0.000002
1.720000,1.200000,0.780051,0.080000,-661.558273,22094.908015,-6047.878436,160860.979766,0.000000,-0.000000,0.000003
1.800000,1.200000,0.700057,0.080000,-535.064525,158447.284866,-127822.009317,186573.020127,0.000003,-0.000003,0.000004
1.880000,1.200000,0.620065,0.080000,-1577.944355,770920.272812,-701913.989073,8836.010749,0.000014,-0.000014,0.000000
1.960000,1.200000,0.540074,0.080000,-7737.695990,2016593.012681,-2032262.405372,-2047809.307890,0.000038,-0.000038,-0.000039
2.040000,1.200000,0.460087,0.080000,-25628.377570,685258.373855,-731536.460922,-11391530.455072,0.000013,-0.000014,-0.000215
2.120000,1.200000,0.380106,0.080000,-37754.192076,-28234257.202896,28382195.932389,-47233517.671072,-0.000533,0.000534,-0.000890
-2.120000,1.280000,0.380169,0.080000,-28263.606797,44214687.626948,-44521308.308409,-9575984.341857,0.000835,-0.000837,-0.000180
-2.040000,1.280000,0.460140,0.080000,14035.818304,5370964.301229,-5215957.596248,-6710698.331621,0.000100,-0.000099,-0.000126
-1.960000,1.280000,0.540119,0.080000,10505.547204,-330155.563092,420819.668868,-1807031.408798,-0.000007,0.000007,-0.000034
-1.880000,1.280000,0.620104,0.080000,7135.818208,-441293.629623,413613.449785,-162661.372322,-0.000008,0.000008,-0.000003
-1.800000,1.280000,0.700092,0.080000,6448.325510,-207155.173437,202885.482169,4878.854547,-0.000004,0.000004,0.000000
-1.720000,1.280000,0.720125,0.080000,7100.770710,18237.114208,4360.263000,-225043.994765,0.000000,-0.000000,-0.000004
-1.640000,1.280000,0.720031,0.080000,7527.554090,541895.903167,-549429.031037,-226195.879007,0.000010,-0.000010,-0.000004
-1.560000,1.280000,0.720007,0.080000,4469.322164,960767.633964,-1061082.389611,733235.700592,0.000019,-0.000019,0.000014
-1.480000,1.280000,0.720116,0.080000,-4215.911254,-163197.619168,31402.883731,2312726.372172,-0.000002,0.000001,0.000044
-1.400000,1.280000,0.720036,0.080000,-11011.153129,-3403084.457624,3451741.389550,2034544.927015,-0.000064,0.000065,0.000038
-1.320000,1.280000,0.720005,0.080000,3822.371671,-5868107.839791,6231408.152697,-2615554.684913,-0.000113,0.000115,-0.000049
-1.240000,1.280000,0.720108,0.080000,54071.080508,-2391175.200987,2847132.891603,-9705920.864216,-0.000048,0.000051,-0.000183
-1.160000,1.280000,0.720041,0.080000,116803.444137,8495935.440719,-8453119.546402,-11761180.690591,0.000160,-0.000160,-0.000222
-1.080000,1.280000,0.720003,0.080000,124884.329219,19823261.710603,-20505435.758522,-1808352.293318,0.000377,-0.000382,-0.000034
-1.000000,1.280000,0.720100,0.080000,10354.037451,19544980.744987,-20642896.875574,17985483.156478,0.000374,-0.000383,0.000339
-0.920000,1.280000,0.720046,0.080000,-222466.744844,1001400.890464,-1692947.712933,34284806.240515,0.000023,-0.000028,0.000646
-0.840000,1.280000,0.720002,0.080000,-457580.943087,-28610431.080510,29038801.184621,31149423.708354,-0.000541,0.000545,0.000587
-0.760000,1.280000,0.720092,0.080000,-512593.696535,-50282242.366044,51816032.737935,3193677.164963,-0.000956,0.000968,0.000060
-0.680000,1.280000,0.720052,0.080000,-255689.447518,-45568309.996191,47368822.096882,-37484271.875863,-0.000869,0.000882,-0.000706
-0.600000,1.280000,0.720001,0.080000,281510.373700,-10429893.762415,11350533.583396,-66881487.623199,-0.000202,0.000209,-0.001260
-0.520000,1.280000,0.720084,0.080000,879963.998768,39715979.386364,-40374589.361930,-63933090.099096,0.000752,-0.000757,-0.001205
-0.440000,1.280000,0.720058,0.080000,1228959.670109,77710827.682036,-79725450.790943,-24649720.304266,0.001476,-0.001491,-0.000464
-0.360000,1.280000,0.720000,0.080000,1094027.350268,80389248.820779,-82716409.091995,33819797.810415,0.001528,-0.001545,0.000637
-0.280000,1.280000,0.720077,0.080000,459963.179837,42560852.425574,-43932790.491350,81870531.516614,0.000810,-0.000820,0.001542
-0.200000,1.280000,0.720064,0.080000,-437397.591268,-19145553.642473,19501820.166148,93664454.057592,-0.000363,0.000365,0.001765
-0.120000,1.280000,0.720000,0.080000,-1214464.156519,-74717711.630536,76651304.631315,61469668.479642,-0.001419,0.001433,0.001158
-0.040000,1.280000,0.720070,0.080000,-1526048.263420,-96596943.550775,99119231.262197,119336.848164,-0.001834,0.001853,0.000002
0.040000,1.280000,0.720070,0.080000,-1236295.005333,-74150613.524328,75971613.967078,-60678099.664509,-0.001407,0.001421,-0.001143
0.120000,1.280000,0.720000,0.080000,-484651.601074,-19043739.081898,19259120.363153,-91827681.766724,-0.000360,0.000362,-0.001730
0.200000,1.280000,0.720064,0.080000,386475.916034,41166528.985294,-42605975.606733,-79767258.282638,0.000784,-0.000795,-0.001503
0.280000,1.280000,0.720077,0.080000,1002684.911405,77603230.404726,-79885941.245499,-32943601.640453,0.001475,-0.001492,-0.000621
0.360000,1.280000,0.720000,0.080000,1136799.791658,74934154.573005,-76845139.548732,23425024.997300,0.001423,-0.001437,0.000441
0.440000,1.280000,0.720058,0.080000,804194.910026,38580917.908726,-39171875.660779,61275741.064784,0.000730,-0.000735,0.001154
0.520000,1.280000,0.720084,0.080000,229528.759425,-9479822.824022,10380618.651382,64588406.510070,-0.000184,0.000190,0.001217
0.600000,1.280000,0.720001,0.080000,-289130.015587,-43740897.303188,45472677.902491,36971722.517649,-0.000834,0.000847,0.000697
0.680000,1.280000,0.720052,0.080000,-538223.179471,-49387908.310794,50892444.533476,-2165833.364430,-0.000939,0.000950,-0.000041
0.760000,1.280000,0.720092,0.080000,-480767.265342,-29365709.489102,29848410.957207,-30246003.075937,-0.000556,0.000560,-0.000570
0.840000,1.280000,0.720002,0.080000,-238888.388382,-316172.304963,-291079.760016,-34937777.609389,-0.000003,-0.000002,-0.000658
0.920000,1.280000,0.720046,0.080000,8266.427186,19453520.741152,-20536361.997419,-19886579.282222,0.000373,-0.000381,-0.000375
1.000000,1.280000,0.720100,0.080000,137348.964414,21540849.841830,-22309468.167775,450460.557099,0.000410,-0.000416,0.000008
1.080000,1.280000,0.720003,0.080000,133291.322611,10704300.424737,-10768607.782251,12343767.225285,0.000202,-0.000203,0.000233
1.160000,1.280000,0.720041,0.080000,61201.080356,-1548516.872849,1984657.519112,11730373.285781,-0.000032,0.000035,0.000221
1.240000,1.280000,0.720108,0.080000,-3578.262705,-6840912.686309,7282593.315191,4267071.520465,-0.000131,0.000135,0.000080
1.320000,1.280000,0.720005,0.080000,-27189.264137,-4933462.506775,5065297.005767,-1917511.860499,-0.000094,0.000095,-0.000036
1.400000,1.280000,0.720036,0.080000,-19911.192792,-862140.494569,739295.780011,-3227159.209706,-0.000016,0.000015,-0.000061
1.480000,1.280000,0.720116,0.080000,-6298.122952,1225344.289735,-1371191.374113,-1474585.027730,0.000024,-0.000025,-0.000028
1.560000,1.280000,0.720007,0.080000,307.946544,1001856.932013,-1041031.575810,157543.767073,0.000019,-0.000019,0.000003
1.640000,1.280000,0.720031,0.080000,649.826381,195685.645406,-162534.748262,498124.778686,0.000003,-0.000003,0.000009
1.720000,1.280000,0.720125,0.080000,-467.141982,-108004.060165,138711.893230,200578.947079,-0.000002,0.000002,0.000004
1.800000,1.280000,0.700092,0.080000,-1018.152837,703.915072,3621.272813,-58619.166396,-0.000000,0.000000,-0.000001
1.880000,1.280000,0.620104,0.080000,-1538.427465,60987.175651,-93321.463958,-362466.701902,0.000001,-0.000002,-0.000007
1.960000,1.280000,0.540119,0.080000,-2118.222934,-853703.678381,740133.059748,-1098055.161828,-0.000015,0.000015,-0.000021
2.040000,1.280000,0.460140,0.080000,4001.463541,-6121454.661051,5952390.999862,-787919.304832,-0.000114,0.000113,-0.000015
2.120000,1.280000,0.380169,0.080000,53087.951331,-24403448.176979,24651576.637020,17112126.812242,-0.000461,0.000463,0.000322
-2.120000,1.360000,0.380004,0.080000,-20209.400484,-245433.133890,132954.692051,21085912.469281,-0.000004,0.000003,0.000397
-2.040000,1.360000,0.460003,0.080000,1425.118815,2948973.660701,-2836334.394676,2113346.767788,0.000055,-0.000054,0.000040
-1.960000,1.360000,0.540003,0.080000,6812.246018,807832.576296,-742103.104077,-229941.588856,0.000015,-0.000014,-0.000004
-1.880000,1.360000,0.620003,0.080000,6815.404312,52124.213856,-42937.121111,-56604.823471,0.000001,-0.000001,-0.000001
-1.800000,1.360000,0.640010,0.080000,6345.599999,-325999.187074,337362.968585,98063.271410,-0.000006,0.000006,0.000002
-1.720000,1.360000,0.640141,0.080000,7982.798639,-543440.156400,650824.351443,-612719.792624,-0.000011,0.000012,-0.000012
-1.640000,1.360000,0.640035,0.080000,12643.878998,701790.753841,-614766.200498,-1658685.417249,0.000013,-0.000012,-0.000031
-1.560000,1.360000,0.640008,0.080000,12079.000878,3449284.736449,-3665688.633149,-60510.863679,0.000066,-0.000068,-0.000001
-1.480000,1.360000,0.640131,0.080000,-9644.732061,3043080.921775,-3540948.865833,5679644.665383,0.000060,-0.000064,0.000107
-1.400000,1.360000,0.640040,0.080000,-47711.561094,-5455696.770936,5302408.000215,9292129.062619,-0.000102,0.000101,0.000175
-1.320000,1.360000,0.640005,0.080000,-49423.175080,-16667628.810304,17477755.944273,444354.635741,-0.000319,0.000325,0.000008
-1.240000,1.360000,0.640121,0.080000,50808.654603,-14574365.372174,15952419.126745,-20281869.444328,-0.000282,0.000293,-0.000382
-1.160000,1.360000,0.640046,0.080000,235651.363208,10259304.579365,-9720727.721560,-33843101.941391,0.000190,-0.000186,-0.000638
-1.080000,1.360000,0.640004,0.080000,351292.103105,43650075.173861,-45024346.995449,-17684099.113400,0.000830,-0.000841,-0.000333
-1.000000,1.360000,0.640112,0.080000,196051.828902,53714292.128263,-56423442.429618,28607876.751130,0.001027,-0.001048,0.000539
-0.920000,1.360000,0.640052,0.080000,-286172.329613,18648249.128872,-20648256.888102,74478389.909774,0.000363,-0.000378,0.001403
-0.840000,1.360000,0.640002,0.080000,-875531.874289,-49072571.184251,49671648.890078,78889085.316003,-0.000928,0.000932,0.001486
-0.760000,1.360000,0.640103,0.080000,-1154881.583597,-105714272.663534,109032918.159374,24146904.876029,-0.002010,0.002035,0.000455
-0.680000,1.360000,0.640058,0.080000,-778502.993646,-106039818.289061,110173469.648411,-65484348.937507,-0.002021,0.002052,-0.001234
-0.600000,1.360000,0.640001,0.080000,250910.342485,-37034695.751838,39311897.814194,-136078793.823149,-0.000711,0.000728,-0.002564
-0.520000,1.360000,0.640095,0.080000,1503549.452817,69509087.908833,-70737535.347503,-138624065.321245,0.001317,-0.001326,-0.002612
-0.440000,1.360000,0.640065,0.080000,2319484.016646,154300926.571301,-158581006.274128,-61693290.829425,0.002931,-0.002964,-0.001162
-0.360000,1.360000,0.640000,0.080000,2175043.160143,165913528.551648,-170952234.015656,59231077.695398,0.003154,-0.003192,0.001116
-0.280000,1.360000,0.640087,0.080000,1000561.707828,91715746.923102,-94733014.551043,160988878.508438,0.001745,-0.001768,0.003033
-0.200000,1.360000,0.640072,0.080000,-741798.309680,-33885955.843168,34576266.381733,188178410.513523,-0.000642,0.000648,0.003545
-0.120000,1.360000,0.640000,0.080000,-2271481.906749,-147839517.755524,151915432.271527,123953614.044015,-0.002808,0.002839,0.002335
-0.040000,1.360000,0.640079,0.080000,-2880606.374667,-192356489.694929,197695387.912030,-737773.240881,-0.003654,0.003695,-0.000014
0.040000,1.360000,0.640079,0.080000,-2292544.345765,-145473404.455485,149314388.440992,-123765885.010292,-0.002763,0.002791,-0.002332
0.120000,1.360000,0.640000,0.080000,-798359.797182,-32091733.262871,32506077.627337,-184670730.929947,-0.000607,0.000610,-0.003479
0.200000,1.360000,0.640072,0.080000,897574.405298,89840085.284112,-92946472.858291,-156017929.006816,0.001710,-0.001734,-0.002939
0.280000,1.360000,0.640087,0.080000,2037140.563056,160234571.660196,-165105731.276978,-56781160.205495,0.003046,-0.003083,-0.001070
0.360000,1.360000,0.640000,0.080000,2181460.020965,148260342.163446,-152268739.563164,59068680.512222,0.002816,-0.002846,0.001113
0.440000,1.360000,0.640065,0.080000,1402543.549279,67409234.746322,-68508701.874201,132422381.491836,0.001276,-0.001285,0.002495
0.520000,1.360000,0.640095,0.080000,200229.748162,-33894697.462063,36040730.059294,130953582.758649,-0.000651,0.000667,0.002467
0.600000,1.360000,0.640001,0.080000,-797334.929007,-100834584.642976,104710686.291826,65244868.365060,-0.001922,0.001951,0.001229
0.680000,1.360000,0.640058,0.080000,-1173001.263292,-103418941.842984,106625100.899238,-20165977.945506,-0.001967,0.001991,-0.000380
0.760000,1.360000,0.640103,0.080000,-906784.393961,-51735279.045032,52504396.732086,-75422975.022546,-0.000979,0.000985,-0.001421
0.840000,1.360000,0.640002,0.080000,-314840.539997,14135967.264798,-15847393.273330,-75750632.260607,0.000276,-0.000289,-0.001427
0.920000,1.360000,0.640052,0.080000,196586.167968,52651678.783264,-55273309.285156,-33843142.920854,0.001007,-0.001027,-0.000638
1.000000,1.360000,0.640112,0.080000,386930.595193,47908731.814588,-49519404.926051,13742255.115262,0.000912,-0.000924,0.000259
1.080000,1.360000,0.640004,0.080000,280584.283784,16008344.687607,-15786740.926253,35384564.307340,0.000300,-0.000299,0.000667
1.160000,1.360000,0.640046,0.080000,70449.015026,-12811102.982075,14138564.130190,25759691.321082,-0.000249,0.000259,0.000485
1.240000,1.360000,0.640121,0.080000,-65878.605368,-19948844.106364,21006955.708534,3496452.492334,-0.000382,0.000390,0.000066
1.320000,1.360000,0.640005,0.080000,-80905.276397,-9628720.350546,9709205.540742,-9983941.055141,-0.000182,0.000182,-0.000188
1.400000,1.360000,0.640040,0.080000,-34451.055410,1980076.340001,-2498730.861505,-8768696.161273,0.000040,-0.000044,-0.000165
1.480000,1.360000,0.640131,0.080000,2730.576052,5044912.299730,-5426715.873324,-1613759.302792,0.000097,-0.000100,-0.000030
1.560000,1.360000,0.640008,0.080000,9738.212426,2073809.857129,-2063616.929154,2154677.616502,0.000039,-0.000039,0.000041
1.640000,1.360000,0.640035,0.080000,3073.200368,-499578.595797,655590.326430,1491706.912313,-0.000010,0.000011,0.000028
1.720000,1.360000,0.640141,0.080000,-1305.491466,-677895.544305,738414.900922,39885.934126,-0.000013,0.000014,0.000001
1.800000,1.360000,0.640010,0.080000,-1488.295586,-125036.865363,92518.756196,-327540.205469,-0.000002,0.000002,-0.000006
1.880000,1.360000,0.620003,0.080000,-672.001057,-49046.002201,2953.366144,-160688.743368,-0.000001,0.000000,-0.000003
1.960000,1.360000,0.540003,0.080000,573.342599,-451932.074117,443880.683656,259433.194485,-0.000008,0.000008,0.000005
2.040000,1.360000,0.460003,0.080000,4331.202684,-177017.989260,170560.514843,2342339.506737,-0.000003,0.000003,0.000044
2.120000,1.360000,0.380004,0.080000,5473.736914,10009569.435175,-10074831.434520,9526518.188310,0.000189,-0.000189,0.000179
-2.120000,1.440000,0.380079,0.080000,14533.539223,-7801928.571013,7981771.126836,-3071368.249965,-0.000148,0.000149,-0.000058
-2.040000,1.440000,0.460065,0.080000,6253.740603,-1092696.075501,1070392.084979,796448.287159,-0.000020,0.000020,0.000015
-1.960000,1.440000,0.540056,0.080000,6829.623639,151145.114186,-144998.927647,108082.388700,0.000003,-0.000003,0.000002
-1.880000,1.440000,0.560035,0.080000,6782.623889,407898.388885,-501425.571985,203410.062862,0.000008,-0.000009,0.000004
-1.800000,1.440000,0.560012,0.080000,4208.306008,-251730.847781,144344.345468,1210938.982872,-0.000004,0.000003,0.000023
-1.720000,1.440000,0.560161,0.080000,4128.266052,-2694928.150012,2999309.051261,-60536.715649,-0.000052,0.000055,-0.000001
-1.640000,1.440000,0.560040,0.080000,20658.811295,-1706694.724797,2270186.741613,-5834369.657997,-0.000035,0.000040,-0.000110
-1.560000,1.440000,0.560009,0.080000,44065.629176,8754543.883699,-9030077.932873,-6637621.968963,0.000166,-0.000169,-0.000125
-1.480000,1.440000,0.560149,0.080000,11350.262015,16403077.214150,-18013129.769417,10038531.379929,0.000318,-0.000330,0.000189
-1.400000,1.440000,0.560046,0.080000,-116254.919877,-2360607.866278,1168678.219340,31054313.377053,-0.000038,0.000029,0.000585
-1.320000,1.440000,0.560006,0.080000,-219621.782081,-41834562.636068,43483935.699613,19263431.455358,-0.000798,0.000810,0.000363
-1.240000,1.440000,0.560138,0.080000,-64626.950546,-54223063.050117,58213103.901937,-37037999.357367,-0.001044,0.001074,-0.000698
-1.160000,1.440000,0.560052,0.080000,412070.960840,-248067.651999,2620492.393936,-89900133.822955,-0.000018,0.000036,-0.001694
-1.080000,1.440000,0.560004,0.080000,874894.136458,92583057.349015,-95289009.869563,-69844071.601223,0.001760,-0.001780,-0.001316
-1.000000,1.440000,0.560128,0.080000,761681.466911,139612941.711989,-146330900.459203,37459036.424685,0.002668,-0.002719,0.000706
-0.920000,1.440000,0.560059,0.080000,-203636.165921,75026641.760677,-80551742.933788,160521827.584338,0.001445,-0.001486,0.003024
-0.840000,1.440000,0.560003,0.080000,-1615325.328868,-80224547.227121,80857390.387915,193772055.373339,-0.001515,0.001520,0.003651
-0.760000,1.440000,0.560118,0.080000,-2517724.333036,-223476291.699290,230795262.142042,85638952.110320,-0.004252,0.004307,0.001613
-0.680000,1.440000,0.560066,0.080000,-2034695.641895,-244214065.172824,253764080.635004,-113405879.616924,-0.004655,0.004727,-0.002137
-0.600000,1.440000,0.560001,0.080000,-46700.083612,-106302181.863418,111819170.404887,-280320375.890921,-0.002034,0.002076,-0.005281
-0.520000,1.440000,0.560108,0.080000,2588484.091256,122489672.896315,-124830055.915081,-301489047.408882,0.002321,-0.002339,-0.005680
-0.440000,1.440000,0.560074,0.080000,4454371.635397,311184481.509733,-320375315.248685,-147833655.637847,0.005915,-0.005984,-0.002785
-0.360000,1.440000,0.560000,0.080000,4384726.454926,345834211.689318,-356779415.876116,105249556.341748,0.006578,-0.006660,0.001983
-0.280000,1.440000,0.560099,0.080000,2168228.120152,197466829.702946,-204071756.758883,321756321.889664,0.003758,-0.003807,0.006062
-0.200000,1.440000,0.560082,0.080000,-1272002.223461,-61265810.869485,62641162.021975,382847731.318602,-0.001162,0.001172,0.007213
-0.120000,1.440000,0.560000,0.080000,-4328483.948297,-296920839.514436,305553855.269606,252580516.555625,-0.005643,0.005708,0.004759
-0.040000,1.440000,0.560090,0.080000,-5537063.548826,-388003213.276354,399325323.866234,-3591440.340034,-0.007374,0.007460,-0.000068
0.040000,1.440000,0.560090,0.080000,-4331252.920785,-289239718.913157,297349271.286918,-255027283.400429,-0.005495,0.005556,-0.004805
0.120000,1.440000,0.560000,0.080000,-1323872.136410,-54011291.220402,54800090.151308,-375551214.399974,-0.001022,0.001028,-0.007076
0.200000,1.440000,0.560082,0.080000,2023850.636285,195422637.396798,-202141754.826932,-309234560.323445,0.003720,-0.003770,-0.005826
0.280000,1.440000,0.560099,0.080000,4161123.154453,333320651.790059,-343764692.460391,-98140044.373995,0.006339,-0.006418,-0.001849
0.360000,1.440000,0.560000,0.080000,4228316.854445,296803462.899740,-305287998.072516,142162387.738364,0.005640,-0.005704,0.002678
0.440000,1.440000,0.560074,0.080000,2447742.031105,117780799.854754,-119853381.570534,286315978.342992,0.002231,-0.002246,0.005394
0.520000,1.440000,0.560108,0.080000,-73367.527543,-97329498.942942,102379264.457532,267824664.331273,-0.001862,0.001900,0.005046
0.600000,1.440000,0.560001,0.080000,-2001484.616110,-229741118.410887,238479788.255807,114156750.567378,-0.004378,0.004444,0.002151
0.680000,1.440000,0.560066,0.080000,-2511926.908403,-217261776.164665,224217910.004664,-73072216.344990,-0.004133,0.004185,-0.001377
0.760000,1.440000,0.560118,0.080000,-1674263.320827,-88454937.524873,89603819.661620,-182605247.269045,-0.001673,0.001682,-0.003440
0.840000,1.440000,0.560003,0.080000,-277872.261650,60902926.750319,-65500450.818851,-163265796.123873,0.001173,-0.001208,-0.003076
0.920000,1.440000,0.560059,0.080000,756438.229060,135228547.536366,-141604888.552918,-52409281.685612,0.002584,-0.002632,-0.000987
1.000000,1.440000,0.560128,0.080000,964160.174319,104031876.441869,-107427536.956483,58147818.020867,0.001979,-0.002005,0.001096
1.080000,1.440000,0.560004,0.080000,526832.131633,15781180.620918,-14393514.070275,94313085.047187,0.000289,-0.000279,0.001777
1.160000,1.440000,0.560052,0.080000,-20352.022931,-50316266.634951,54169288.405326,52780599.435121,-0.000970,0.000999,0.000994
1.240000,1.440000,0.560138,0.080000,-269680.903357,-52740068.766217,55210871.042650,-9316976.345431,-0.001008,0.001026,-0.000176
1.320000,1.440000,0.560006,0.080000,-196489.625514,-14093603.699718,13594282.831361,-35641603.543445,-0.000263,0.000259,-0.000672
1.400000,1.440000,0.560046,0.080000,-28849.515755,15936352.237425,-17757015.975724,-20118395.669079,0.000311,-0.000324,-0.000379
1.480000,1.440000,0.560149,0.080000,48841.186153,15507635.183345,-16372247.866443,3474926.358744,0.000297,-0.000304,0.000065
1.560000,1.440000,0.560009,0.080000,31707.054642,1646160.798222,-1227872.516105,9426618.645219,0.000029,-0.000025,0.000178
1.640000,1.440000,0.560040,0.080000,143.501851,-4287759.887959,4849445.820079,2733541.533040,-0.000084,0.000088,0.000052
1.720000,1.440000,0.560161,0.080000,-6999.111580,-1740867.610516,1784560.598667,-1701664.936558,-0.000033,0.000033,-0.000032
1.800000,1.440000,0.560012,0.080000,-2260.932069,466189.003328,-648259.311650,-1023429.627394,0.000010,-0.000011,-0.000019
1.880000,1.440000,0.560035,0.080000,281.459644,323452.463096,-362224.854852,150088.674437,0.000006,-0.000007,0.000003
1.960000,1.440000,0.540056,0.080000,568.456409,91838.150813,-27222.837217,315346.813190,0.000001,-0.000001,0.000006
2.040000,1.440000,0.460065,0.080000,25.570796,934468.782681,-886403.838111,8248.745608,0.000017,-0.000017,0.000000
2.120000,1.440000,0.380079,0.080000,-6488.693636,2448451.789469,-2529591.565259,-4878819.620562,0.000047,-0.000047,-0.000092
-2.120000,1.520000,0.380207,0.080000,8507.913800,1930373.846237,-2081095.765981,-1590317.730912,0.000037,-0.000038,-0.000030
-2.040000,1.520000,0.460171,0.080000,7601.086019,-293470.793166,270962.832018,-150435.360990,-0.000005,0.000005,-0.000003
-1.960000,1.520000,0.480201,0.080000,7811.859944,-546255.685340,632205.366576,-454914.302552,-0.000011,0.000011,-0.000009
-1.880000,1.520000,0.480040,0.080000,10138.288843,1565652.553569,-1593971.946201,-1332150.100735,0.000030,-0.000030,-0.000025
-1.800000,1.520000,0.480013,0.080000,2525.509765,3546688.776720,-4038232.899487,3988264.528692,0.000070,-0.000073,0.000075
-1.720000,1.520000,0.480187,0.080000,-19713.448970,-8099011.308915,8075794.322778,8649776.697299,-0.000152,0.000152,0.000163
-1.640000,1.520000,0.480047,0.080000,8954.260241,-19155394.574134,20551106.833589,-12759376.497606,-0.000369,0.000379,-0.000240
-1.560000,1.520000,0.480010,0.080000,133185.700332,13771581.898243,-12943839.338359,-38357329.532982,0.000255,-0.000249,-0.000723
-1.480000,1.520000,0.480174,0.080000,159478.127522,65699309.008826,-67937547.937583,1764313.805263,0.001250,-0.001267,0.000033
-1.400000,1.520000,0.480054,0.080000,-180609.653583,34198116.953243,-37424585.457326,92968734.361549,0.000663,-0.000687,0.001752
-1.320000,1.520000,0.480007,0.080000,-677939.575962,-98362108.303852,98968804.305533,100904128.842328,-0.001857,0.001861,0.001901
-1.240000,1.520000,0.480162,0.080000,-581990.567431,-182913266.776915,188011771.242594,-50881906.461584,-0.003475,0.003513,-0.000959
-1.160000,1.520000,0.480061,0.080000,552703.874901,-67327680.524579,71797505.000033,-235955083.184957,-0.001294,0.001327,-0.004446
-1.080000,1.520000,0.480005,0.080000,2025931.831870,196428043.192271,-197678965.162400,-234941509.272389,0.003708,-0.003717,-0.004426
-1.000000,1.520000,0.480149,0.080000,2310555.072876,368984434.998965,-375457135.615735,21265337.269715,0.006988,-0.007037,0.000401
-0.920000,1.520000,0.480069,0.080000,433253.334034,250301956.430888,-256572916.019076,353696908.566417,0.004751,-0.004799,0.006664
-0.840000,1.520000,0.480003,0.080000,-2876279.226044,-123186701.936484,122298313.999241,481115044.889049,-0.002316,0.002309,0.009064
-0.760000,1.520000,0.480138,0.080000,-5407062.903031,-493972087.681536,499195717.917177,259333875.600076,-0.009336,0.009376,0.004886
-0.680000,1.520000,0.480077,0.080000,-4979364.757937,-581448974.239821,589000390.106527,-197460539.009415,-0.010998,0.011054,-0.003720
-0.600000,1.520000,0.480001,0.080000,-1096959.591377,-290071789.849047,294846949.340943,-597037104.953555,-0.005492,0.005528,-0.011249
-0.520000,1.520000,0.480126,0.080000,4488043.771524,224144810.411472,-225056551.231532,-671537704.946101,0.004228,-0.004235,-0.012652
-0.440000,1.520000,0.480086,0.080000,8700955.192347,658010667.951351,-663803728.949995,-351798693.262860,0.012430,-0.012474,-0.006628
-0.360000,1.520000,0.480001,0.080000,8950555.180388,751230960.600708,-758312387.756544,193776669.237641,0.014194,-0.014247,0.003651
-0.280000,1.520000,0.480116,0.080000,4685786.537466,438868190.112771,-443196926.745045,664369434.967576,0.008293,-0.008326,0.012517
-0.200000,1.520000,0.480096,0.080000,-2212144.954081,-117136702.558401,117815104.660145,801016093.598163,-0.002211,0.002216,0.015092
-0.120000,1.520000,0.480000,0.080000,-8398074.965715,-623381697.341073,628510197.130809,527782245.403399,-0.011774,0.011813,0.009944
-0.040000,1.520000,0.480105,0.080000,-10824124.585633,-816098010.089622,822802367.963597,-12540641.990045,-0.015414,0.015464,-0.000236
0.040000,1.520000,0.480105,0.080000,-8326899.577644,-599607721.862275,604290125.264001,-539424798.248447,-0.011323,0.011359,-0.010163
0.120000,1.520000,0.480000,0.080000,-2205804.464691,-92468904.458704,92667413.227434,-784410370.680193,-0.001743,0.001745,-0.014779
0.200000,1.520000,0.480096,0.080000,4487815.638350,438601572.361417,-442959241.896069,-630824216.740822,0.008288,-0.008321,-0.011885
0.280000,1.520000,0.480116,0.080000,8554155.606031,720856830.517792,-727389529.656207,-172355046.822969,0.013618,-0.013668,-0.003247
0.360000,1.520000,0.480001,0.080000,8285454.818681,620015615.352297,-625090723.212225,339377550.688576,0.011710,-0.011748,0.006394
0.440000,1.520000,0.480086,0.080000,4274204.029588,211107024.999326,-211799956.182587,632121619.027715,0.003981,-0.003987,0.011910
0.520000,1.520000,0.480126,0.080000,-1035403.853014,-264877432.354398,269030856.144343,563433034.262159,-0.005014,0.005045,0.010615
0.600000,1.520000,0.480001,0.080000,-4790058.956700,-539480737.489015,545985908.708317,200542858.250993,-0.010201,0.010250,0.003778
0.680000,1.520000,0.480077,0.080000,-5332381.367281,-475204119.759839,479918605.515324,-221343138.317645,-0.008980,0.009015,-0.004170
0.760000,1.520000,0.480138,0.080000,-3022693.271471,-148073753.194411,147850628.741500,-445635003.245889,-0.002789,0.002787,-0.008396
0.840000,1.520000,0.480003,0.080000,209886.291228,205416854.978695,-210347476.944297,-359583013.426624,0.003898,-0.003935,-0.006775
0.920000,1.520000,0.480069,0.080000,2266229.433614,352624047.805872,-358473370.702032,-66265745.091221,0.006677,-0.006721,-0.001248
1.000000,1.520000,0.480149,0.080000,2251553.275422,230304446.449688,-232480365.121223,197903985.069902,0.004351,-0.004368,0.003729
1.080000,1.520000,0.480005,0.080000,854035.903687,-17830387.853714,20784977.531978,249476919.727339,-0.000353,0.000375,0.004700
1.160000,1.520000,0.480061,0.080000,-485895.149629,-173246562.283434,178129808.975403,100571080.253124,-0.003292,0.003328,0.001895
1.240000,1.520000,0.480162,0.080000,-843436.518630,-136984818.481529,139006289.032481,-73051812.916416,-0.002592,0.002608,-0.001376
1.320000,1.520000,0.480007,0.080000,-393105.095125,-1947188.960832,-203040.717586,-115230156.015854,-0.000025,0.000008,-0.002171
1.400000,1.520000,0.480054,0.080000,104759.300592,72860010.693619,-75822250.167483,-36587700.873825,0.001389,-0.001412,-0.000689
1.480000,1.520000,0.480174,0.080000,204433.256010,41314235.784234,-41654746.283016,35920328.180407,0.000780,-0.000783,0.000677
1.560000,1.520000,0.480010,0.080000,56444.751192,-12936118.344375,14497609.522346,31636156.549591,-0.000253,0.000264,0.000596
1.640000,1.520000,0.480047,0.080000,-37510.777091,-19511538.859730,20243010.451851,-2744263.722119,-0.000372,0.000377,-0.000052
1.720000,1.520000,0.480187,0.080000,-23054.633559,-452680.530950,-43608.277610,-10315520.211513,-0.000006,0.000002,-0.000194
1.800000,1.520000,0.480013,0.080000,2316.675875,4715012.517186,-5054382.241572,-671952.769714,0.000091,-0.000093,-0.000013
1.880000,1.520000,0.480040,0.080000,3316.033247,327230.754969,-202679.522545,1890440.011391,0.000005,-0.000005,0.000036
1.960000,1.520000,0.480201,0.080000,224.017833,-581162.264463,645350.516904,73674.605027,-0.000011,0.000012,0.000001
2.040000,1.520000,0.460171,0.080000,57.730811,-66270.044392,42867.155587,-404502.231305,-0.000001,0.000001,-0.000008
2.120000,1.520000,0.380207,0.080000,1225.539163,-1643121.336405,1726950.749453,-33491.602989,-0.000031,0.000032,-0.000001
-2.120000,1.600000,0.380012,0.080000,7373.144302,72933.413700,-89785.645570,397423.141657,0.000001,-0.000002,0.000007
-2.040000,1.600000,0.400021,0.080000,7105.664241,1030419.639344,-1011837.109214,593705.998209,0.000019,-0.000019,0.000011
-1.960000,1.600000,0.400241,0.080000,4231.028557,-3606224.592095,3702431.070279,1584772.914942,-0.000068,0.000069,0.000030
-1.880000,1.600000,0.400048,0.080000,21287.151328,-2452125.007651,2430257.977851,-10432620.030102,-0.000046,0.000046,-0.000197
-1.800000,1.600000,0.400016,0.080000,32448.989713,27322298.744715,-28083908.170845,-14084.320678,0.000519,-0.000525,-0.000000
-1.720000,1.600000,0.400225,0.080000,-89813.512217,-1631341.839888,1538094.050453,51230786.885803,-0.000030,0.000030,0.000965
-1.640000,1.600000,0.400056,0.080000,-151812.660284,-97650190.371739,99579481.749564,-899518.895464,-0.001851,0.001865,-0.000017
-1.560000,1.600000,0.400012,0.080000,289834.207173,-25193483.560378,26470081.205213,-147928952.078587,-0.000482,0.000491,-0.002787
-1.480000,1.600000,0.400209,0.080000,770099.204427,217456945.292761,-220320758.971215,-82486006.131726,0.004113,-0.004135,-0.001554
-1.400000,1.600000,0.400065,0.080000,37146.201430,215716916.915021,-220114759.393012,241615120.270822,0.004089,-0.004122,0.004552
-1.320000,1.600000,0.400009,0.080000,-1778912.773182,-198582216.835105,199171800.608413,372175710.849943,-0.003745,0.003749,0.007012
-1.240000,1.600000,0.400194,0.080000,-2369358.874769,-558456761.104306,565073080.686264,-13675909.350824,-0.010559,0.010609,-0.000258
-1.160000,1.600000,0.400073,0.080000,180076.825891,-326767220.459908,332631909.481183,-581868577.140447,-0.006190,0.006234,-0.010963
-1.080000,1.600000,0.400006,0.080000,4465354.471502,397494934.516614,-399127557.652036,-682544478.441277,0.007498,-0.007511,-0.012860
-1.000000,1.600000,0.400179,0.080000,6350452.458566,938229827.280697,-946635936.170897,-84907168.086526,0.017724,-0.017788,-0.001600
-0.920000,1.600000,0.400083,0.080000,2791137.689219,726065350.160089,-734080390.804514,759806701.816692,0.013725,-0.013785,0.014315
-0.840000,1.600000,0.400004,0.080000,-4916961.840776,-162629399.797757,161705173.798876,1135510792.322563,-0.003059,0.003052,0.021394
-0.760000,1.600000,0.400165,0.080000,-11570090.505585,-1081500966.236614,1088469375.905739,680453169.883302,-0.020415,0.020468,0.012820
-0.680000,1.600000,0.400093,0.080000,-11800049.095469,-1343233540.295652,1353070099.509993,-337926830.079326,-0.025363,0.025437,-0.006367
-0.600000,1.600000,0.400002,0.080000,-4097188.132296,-723143035.059165,729218819.046167,-1245718731.216921,-0.013659,0.013705,-0.023470
-0.520000,1.600000,0.400152,0.080000,7848346.103344,412923664.028782,-414324333.731713,-1443105369.533755,0.007788,-0.007798,-0.027189
-0.440000,1.600000,0.400104,0.080000,17286626.244823,1377611435.296479,-1385385351.711624,-784820707.108683,0.025999,-0.026058,-0.014786
-0.360000,1.600000,0.400001,0.080000,18477272.541425,1598735487.374313,-1608185215.949735,358018319.375667,0.030175,-0.030246,0.006745
-0.280000,1.600000,0.400139,0.080000,10104037.596795,944389690.789240,-950228874.379828,1343000016.159834,0.017826,-0.017870,0.025303
-0.200000,1.600000,0.400115,0.080000,-3919542.974409,-227904971.807526,228677755.173112,1630179557.733655,-0.004298,0.004304,0.030714
-0.120000,1.600000,0.400000,0.080000,-16572195.382588,-1289645095.728416,1296396517.574960,1069626176.093601,-0.024336,0.024387,0.020152
-0.040000,1.600000,0.400126,0.080000,-21483522.827395,-1686043774.455981,1695086810.857181,-36233991.318891,-0.031817,0.031885,-0.000683
0.040000,1.600000,0.400126,0.080000,-16264791.573573,-1222444030.912122,1229047830.398772,-1106957003.096010,-0.023069,0.023119,-0.020856
0.120000,1.600000,0.400000,0.080000,-3685598.834337,-154507139.675017,155300646.837935,-1592465286.513389,-0.002915,0.002921,-0.030003
0.200000,1.600000,0.400115,0.080000,9853184.330387,953194289.703721,-958535667.589416,-1256960807.594492,0.017989,-0.018029,-0.023682
0.280000,1.600000,0.400139,0.080000,17703659.650926,1524739262.213445,-1533301117.295734,-298003299.305086,0.028775,-0.028840,-0.005615
0.360000,1.600000,0.400001,0.080000,16423698.375229,1277067311.273915,-1284147888.261264,759346321.987425,0.024101,-0.024154,0.014307
0.440000,1.600000,0.400104,0.080000,7471766.060410,374272780.398777,-375883348.903842,1344324206.683289,0.007061,-0.007073,0.025328
0.520000,1.600000,0.400152,0.080000,-3776147.671684,-657638696.578336,662431711.026160,1156625380.147694,-0.012417,0.012454,0.021791
0.600000,1.600000,0.400002,0.080000,-11166773.262472,-1225835714.237656,1234094300.090176,343822303.836538,-0.023142,0.023204,0.006478
0.680000,1.600000,0.400093,0.080000,-11295928.079517,-1023731216.159057,1030158589.844091,-576556423.627221,-0.019324,0.019372,-0.010863
0.760000,1.600000,0.400165,0.080000,-5321325.523285,-231125586.826151,231421434.944083,-1031609199.079018,-0.004356,0.004358,-0.019436
0.840000,1.600000,0.400004,0.080000,2106713.820635,590596891.773496,-596514038.283597,-769469915.336988,0.011161,-0.011205,-0.014497
0.920000,1.600000,0.400083,0.080000,6150146.139936,880709551.255469,-888185623.138812,-42728047.009748,0.016635,-0.016692,-0.000805
1.000000,1.600000,0.400179,0.080000,5061289.164668,495783259.735966,-498803770.507009,570026488.276470,0.009358,-0.009381,0.010740
1.080000,1.600000,0.400006,0.080000,1014334.875486,-172133267.927012,175733127.362363,619715922.851219,-0.003263,0.003291,0.011676
1.160000,1.600000,0.400073,0.080000,-2154595.149631,-530833111.944663,537071062.243839,166025872.015458,-0.010036,0.010083,0.003128
1.240000,1.600000,0.400194,0.080000,-2335357.761892,-332937569.282629,335521376.006474,-292043230.932895,-0.006287,0.006307,-0.005502
1.320000,1.600000,0.400009,0.080000,-561579.981365,100049125.438651,-102913101.368165,-329125689.984604,0.001901,-0.001923,-0.006201
1.400000,1.600000,0.400065,0.080000,762164.713650,267821029.476427,-271677324.788141,-33286228.402359,0.005068,-0.005097,-0.000627
1.480000,1.600000,0.400209,0.080000,628947.298505,82898445.019111,-83217012.628153,165135196.468098,0.001564,-0.001566,0.003111
1.560000,1.600000,0.400012,0.080000,-33939.684580,-101121336.979923,103272186.141406,81087706.352410,-0.001917,0.001934,0.001528
1.640000,1.600000,0.400056,0.080000,-211224.695147,-61820100.059463,62772875.405724,-49790467.514090,-0.001170,0.001177,-0.000938
1.720000,1.600000,0.400225,0.080000,-29449.433372,28874251.717952,-29620259.578563,-35629771.444328,0.000548,-0.000554,-0.000671
1.800000,1.600000,0.400016,0.080000,41201.792731,18320210.759858,-18824227.109127,13855844.041682,0.000348,-0.000352,0.000261
1.880000,1.600000,0.400048,0.080000,4716.115689,-8035077.767880,8240997.546173,6525188.939511,-0.000153,0.000154,0.000123
1.960000,1.600000,0.400241,0.080000,-4138.979380,-1622582.515132,1695824.360975,-3016820.541426,-0.000031,0.000032,-0.000057
2.040000,1.600000,0.400021,0.080000,886.629212,1070528.614430,-1129048.797285,-88764.229966,0.000021,-0.000021,-0.000002
2.120000,1.600000,0.380012,0.080000,1516.354474,80350.768297,-138323.164062,501430.965161,0.000002,-0.000002,0.000009
-2.120000,1.680000,0.320052,0.080000,7732.506418,-2614714.251346,2180218.001857,117139.613597,-0.000047,0.000044,0.000002
-2.040000,1.680000,0.320026,0.080000,14825.428574,7969894.991780,-7202959.622481,-6154338.253876,0.000146,-0.000140,-0.000116
-1.960000,1.680000,0.320301,0.080000,-20107.190641,-315039.982316,-323140.649639,29778096.845925,-0.000002,-0.000002,0.000561
-1.880000,1.680000,0.320061,0.080000,-5375.491404,-66116836.023238,65957290.357597,-34898856.385254,-0.001245,0.001244,-0.000658
-1.800000,1.680000,0.320020,0.080000,261097.304666,116475937.752213,-115466594.184483,-102610319.388621,0.002189,-0.002181,-0.001933
-1.720000,1.680000,0.320281,0.080000,-119903.415629,139796436.958651,-139167534.853819,233758255.326430,0.002630,-0.002626,0.004404
-1.640000,1.680000,0.320070,0.080000,-1014372.744678,-389710692.144684,387168491.595128,199274100.531310,-0.007328,0.007309,0.003754
-1.560000,1.680000,0.320015,0.080000,186068.059453,-330122203.155494,327765637.045411,-539426197.574489,-0.006206,0.006189,-0.010163
-1.480000,1.680000,0.320261,0.080000,2872900.412243,660487003.583210,-656118484.095285,-562377573.137795,0.012419,-0.012386,-0.010596
-1.400000,1.680000,0.320081,0.080000,1830019.100075,936406088.577965,-929757945.910820,620132341.556177,0.017605,-0.017555,0.011684
-1.320000,1.680000,0.320011,0.080000,-4156569.299801,-339928315.599630,338032251.549650,1332360119.943590,-0.006394,0.006379,0.025102
-1.240000,1.680000,0.320242,0.080000,-7973713.905855,-1643850442.922306,1632805284.661018,282385891.901917,-0.030909,0.030825,0.005320
-1.160000,1.680000,0.320092,0.080000,-2494656.925308,-1180898437.472545,1172532608.098147,-1508296016.377511,-0.022202,0.022138,-0.028417
-1.080000,1.680000,0.320007,0.080000,9507281.433346,803985214.395727,-799280478.027254,-2002339937.400316,0.015121,-0.015085,-0.037725
-1.000000,1.680000,0.320224,0.080000,16678964.258529,2372958167.196455,-2357684264.497317,-500170723.063361,0.044622,-0.044506,-0.009424
-0.920000,1.680000,0.320104,0.080000,10054402.752299,1973141463.473742,-1960083548.269289,1731283562.927770,0.037101,-0.037003,0.032618
-0.840000,1.680000,0.320004,0.080000,-7977920.645469,-168367565.037312,167909192.004343,2784340089.193933,-0.003170,0.003166,0.052459
-0.760000,1.680000,0.320206,0.080000,-24883038.276756,-2404930697.624860,2390302228.704288,1768097833.999044,-0.045228,0.045117,0.033312
-0.680000,1.680000,0.320116,0.080000,-27525490.793419,-3083536098.455595,3064572610.902536,-611982484.510338,-0.057988,0.057846,-0.011530
-0.600000,1.680000,0.320002,0.080000,-11906311.418080,-1722588107.397265,1711985823.009937,-2727550198.141251,-0.032395,0.032315,-0.051389
-0.520000,1.680000,0.320190,0.080000,13905086.023401,794013671.347237,-789287497.170681,-3208986395.508252,0.014933,-0.014897,-0.060459
-0.440000,1.680000,0.320129,0.080000,34934066.339029,2913117831.365212,-2895775739.884430,-1774982927.681741,0.054787,-0.054656,-0.033442
-0.360000,1.680000,0.320001,0.080000,38523170.869916,3400361229.598875,-3380513065.003214,709023453.660794,0.063953,-0.063803,0.013358
-0.280000,1.680000,0.320173,0.080000,21735240.774143,2010287431.320237,-1999168586.131698,2827316239.992477,0.037812,-0.037728,0.053268
-0.200000,1.680000,0.320143,0.080000,-7121066.396923,-462352048.398627,458682663.402317,3432607254.371330,-0.008690,0.008663,0.064672
-0.120000,1.680000,0.320000,0.080000,-33213786.141097,-2679827539.583182,2663504367.170380,2234353094.729854,-0.050397,0.050274,0.042097
-0.040000,1.680000,0.320158,0.080000,-43208603.357434,-3488311947.720061,3468181107.533779,-103201156.674153,-0.065608,0.065456,-0.001944
0.040000,1.680000,0.320158,0.080000,-32218265.373942,-2498760707.657030,2485505076.514010,-2347115460.902253,-0.047003,0.046903,-0.044221
0.120000,1.680000,0.320000,0.080000,-6164517.169719,-257595548.167994,258091970.133788,-3342325003.437532,-0.004856,0.004860,-0.062971
0.200000,1.680000,0.320143,0.080000,21494036.291649,2051360007.190998,-2037610557.360467,-2598076863.663899,0.038571,-0.038467,-0.048949
0.280000,1.680000,0.320173,0.080000,36877734.732059,3219940436.492302,-3200531574.272880,-535716826.028321,0.060556,-0.060410,-0.010093
0.360000,1.680000,0.320001,0.080000,32947263.422026,2647717164.310425,-2633287642.232832,1724862185.547755,0.049803,-0.049694,0.032497
0.440000,1.680000,0.320129,0.080000,13102710.566603,677617210.198435,-676014058.574645,2950855036.242014,0.012758,-0.012746,0.055596
0.520000,1.680000,0.320190,0.080000,-10886058.498570,-1560277317.273436,1548549367.632921,2475860427.210043,-0.029330,0.029242,0.046647
0.600000,1.680000,0.320002,0.080000,-25652728.940975,-2761867961.407393,2744192796.832529,611828326.342357,-0.051935,0.051802,0.011527
0.680000,1.680000,0.320116,0.080000,-24012214.452923,-2226109631.523982,2213514671.143766,-1479844195.301946,-0.041870,0.041775,-0.027881
0.760000,1.680000,0.320206,0.080000,-9101665.330774,-344375741.443666,344548934.616413,-2466956014.615849,-0.006489,0.006491,-0.046479
0.840000,1.680000,0.320004,0.080000,7981862.978897,1576330594.894987,-1564444083.893421,-1731684411.012451,0.029632,-0.029542,-0.032626
0.920000,1.680000,0.320104,0.080000,15919476.739557,2174908574.225650,-2160723059.492877,123972387.130573,0.040896,-0.040789,0.002336
1.000000,1.680000,0.320224,0.080000,11142358.361664,1080174385.132431,-1074516741.645164,1634165339.787716,0.020319,-0.020276,0.030789
1.080000,1.680000,0.320007,0.080000,-57879.413661,-694817156.533587,688616493.604629,1608862393.606974,-0.013056,0.013009,0.030312
1.160000,1.680000,0.320092,0.080000,-7445195.293692,-1547025522.100320,1536207278.007180,221701744.036957,-0.029086,0.029004,0.004177
1.240000,1.680000,0.320242,0.080000,-6044480.035766,-797459094.996479,792840380.396693,-1063231352.320894,-0.014998,0.014964,-0.020032
1.320000,1.680000,0.320011,0.080000,35653.449238,545859713.462403,-541230100.371051,-967680478.301588,0.010258,-0.010223,-0.018232
1.400000,1.680000,0.320081,0.080000,3287488.112492,901573767.002252,-895317006.557172,131344467.360592,0.016951,-0.016904,0.002475
1.480000,1.680000,0.320261,0.080000,1568727.505722,92979985.597300,-92830587.354045,691069006.064598,0.001751,-0.001750,0.013020
1.560000,1.680000,0.320015,0.080000,-883405.644217,-497551754.061574,493990715.527673,161371108.639399,-0.009354,0.009327,0.003040
1.640000,1.680000,0.320070,0.080000,-793045.424512,-142543440.287298,141709360.787779,-329611527.759316,-0.002681,0.002675,-0.006210
1.720000,1.680000,0.320281,0.080000,207337.743696,216659662.052108,-215338956.298151,-81633347.889314,0.004075,-0.004065,-0.001538
1.800000,1.680000,0.320020,0.080000,195127.086957,26805835.587233,-26324628.274927,129513503.968744,0.000502,-0.000499,0.002440
1.880000,1.680000,0.320061,0.080000,-63776.891087,-66533336.994658,65998401.760604,-8708994.491371,-0.001251,0.001246,-0.000164
1.960000,1.680000,0.320301,0.080000,-12255.004677,15421463.457053,-15295696.849674,-22071992.547767,0.000290,-0.000289,-0.000416
2.040000,1.680000,0.320026,0.080000,8853.207029,3154816.256859,-2701247.630166,8455620.874049,0.000057,-0.000053,0.000159
2.120000,1.680000,0.320052,0.080000,313.877072,-2033659.365537,1781080.086223,-1164313.745394,-0.000037,0.000035,-0.000022
-2.500000,-1.980000,0.005075,0.040000,-10009.596083,-430437317.468664,-37510734.259773,-88389341.288542,-0.005465,0.001938,-0.001665
-2.420000,-1.980000,0.020652,0.040000,-5285.888440,-111173987.286658,-128910258.193860,-87144288.337617,-0.000738,-0.001072,-0.001642
-2.460000,-1.980000,0.020594,0.040000,10221.560444,-112223325.147159,1040137.073444,-28739067.214194,-0.001486,0.000648,-0.000541
-2.340000,-1.980000,0.020538,0.040000,-1765700.446267,842994473.996788,3130335353.207609,1705307266.331597,-0.006575,0.036519,0.032129
-2.380000,-1.980000,0.024839,0.040000,305167.567933,102640210.896186,-163897659.110772,-143481268.725778,0.002280,-0.002742,-0.002703
-2.260000,-1.980000,0.024698,0.040000,35169366.439666,11860347180.059729,-14855125697.036882,-5541183907.960553,0.240383,-0.262952,-0.104399
-2.300000,-1.980000,0.020713,0.040000,-1244974.911015,-2485709354.581675,-2761333969.687146,-134301181.665888,-0.017175,-0.022368,-0.002530
-2.180000,-1.980000,0.020777,0.040000,5079521.666068,-3298287734.640460,-8291135458.313355,5646389680.657028,0.003364,-0.090704,0.106381
-2.220000,-1.980000,0.020485,0.040000,-65043356.241118,-20083792142.572903,30017688525.841003,1294262780.493324,-0.434538,0.509403,0.024385
-2.100000,-1.980000,0.020435,0.040000,-117639222.851361,-31897794091.026051,54761400805.877930,-4868401213.441203,-0.730202,0.902507,-0.091724
-2.140000,-1.980000,0.024558,0.040000,84520272.192551,24359209489.043396,-43458280022.445152,-9134212659.655840,0.566893,-0.710828,-0.172094
-2.020000,-1.980000,0.024420,0.040000,146003874.774131,32381458368.376209,-70951814540.758789,9316659649.410425,0.828092,-1.118767,0.175531
-2.060000,-1.980000,0.020843,0.040000,-47622353.364196,-12744821514.120506,29641114917.299435,20530738571.168495,-0.335621,0.462955,0.386811
-1.940000,-1.980000,0.020912,0.040000,-140301472.778930,-27854493135.477623,59308960614.097824,-22746120296.083359,-0.702581,0.939629,-0.428550
-1.980000,-1.980000,0.020387,0.040000,66772591.810302,14706860489.104755,-40193463360.302841,-26668821291.851936,0.421140,-0.613213,-0.502456
-1.860000,-1.980000,0.020342,0.040000,39789067.612114,6011444667.333519,-8695715578.869761,39023895232.098915,0.128431,-0.148660,0.735233
-1.900000,-1.980000,0.024283,0.040000,-153642208.447853,-30723286113.713905,71222526664.790985,18163297462.063351,-0.807753,1.112965,0.342207
-1.780000,-1.980000,0.024148,0.040000,157561954.989209,28723262262.461334,-60751449737.627808,-25672608848.077847,0.722192,-0.963564,-0.483687
-1.820000,-1.980000,0.020983,0.040000,198941897.642909,35360691975.476593,-74113733390.153259,14783818339.755154,0.885255,-1.177307,0.278536
-1.700000,-1.980000,0.021057,0.040000,-205772629.305609,-31724966219.981155,61943441818.757454,-23358186627.353638,-0.768517,0.996250,-0.440082
-1.740000,-1.980000,0.020299,0.040000,-35623634.776436,-3862166248.004339,6140823984.612305,-42307523794.386574,-0.085645,0.102817,-0.797098
-1.620000,-1.980000,0.020260,0.040000,-85002458.381921,-14654360637.504210,27547138376.760445,38471671914.311684,-0.348969,0.446132,0.724829
-1.660000,-1.980000,0.024015,0.040000,-224062006.578762,-35237778403.908180,67518205669.638443,12568690919.632469,-0.846355,1.089628,0.236801
-1.540000,-1.980000,0.023883,0.040000,249086339.269603,33007788649.209980,-58991458718.190163,17595919690.038666,0.768750,-0.964569,0.331517
-1.580000,-1.980000,0.021133,0.040000,111612390.311391,13473372555.205608,-25002634891.057159,39253418505.139969,0.319012,-0.405899,0.739557
-1.460000,-1.980000,0.021211,0.040000,131881712.309178,18595007176.156536,-31146534483.587334,-34382203149.113945,0.421284,-0.515875,-0.647781
-1.500000,-1.980000,0.020223,0.040000,253821416.848621,33903472576.497158,-59139326530.223892,-12204608901.296993,0.781399,-0.971582,-0.229942
-1.380000,-1.980000,0.020189,0.040000,-220153270.157625,-24272258714.285320,40671819874.612900,-27549381352.027290,-0.549997,0.673587,-0.519046
-1.420000,-1.980000,0.023753,0.040000,-55166592.942935,-4719862592.733216,8594625207.313911,-39523941359.282272,-0.110826,0.140027,-0.744654
-1.300000,-1.980000,0.023625,0.040000,-264464844.818859,-29024063105.837208,46157485120.161736,16620140635.616920,-0.643671,0.772793,0.313133
-1.340000,-1.980000,0.021292,0.040000,-297826104.822775,-32898438363.884937,53673352423.938148,-5639235156.944891,-0.737249,0.893814,-0.106246
-1.220000,-1.980000,0.021376,0.040000,34455581.221771,1764002121.759394,-3614973902.784513,35544627788.519302,0.043697,-0.057646,0.669681
-1.260000,-1.980000,0.020158,0.040000,-137874125.969734,-15517280598.545372,23930326539.693714,31618919353.154022,-0.339907,0.403309,0.595719
-1.140000,-1.980000,0.020129,0.040000,304520632.464017,27738303337.663002,-42657213638.761078,13349300748.935854,0.606930,-0.719362,0.251509
-1.180000,-1.980000,0.023498,0.040000,198965025.543273,18034626955.395805,-28391169119.073292,28380099213.479912,0.398320,-0.476369,0.534698
-1.060000,-1.980000,0.023373,0.040000,258875131.145775,22874244922.983471,-33695622072.550571,-19491402669.186447,0.492128,-0.573681,-0.367229
-1.100000,-1.980000,0.021462,0.040000,324921836.928504,29199455659.227184,-43939667627.255257,-4320428930.710018,0.633449,-0.744535,-0.081399
-0.980000,-1.980000,0.021550,0.040000,-32370312.301325,-1675413198.711289,3150489118.837117,-30876040669.511173,-0.039903,0.051020,-0.581723
-1.020000,-1.980000,0.020103,0.040000,128208011.021129,11457421025.585104,-16368004619.962992,-28805103408.672539,0.243620,-0.280627,-0.542705
-0.900000,-1.980000,0.020081,0.040000,-298857823.405035,-22629134266.051910,33057609445.054554,-15366409806.659651,-0.485290,0.563881,-0.289512
-0.940000,-1.980000,0.023250,0.040000,-186985544.743744,-14242798510.818197,21228559346.677490,-25840584665.509678,-0.307827,0.360474,-0.486852
-0.820000,-1.980000,0.023129,0.040000,-323969511.312041,-23566984228.386059,33326635541.711014,10174448689.615314,-0.499179,0.572730,0.191693
-0.860000,-1.980000,0.021640,0.040000,-346704035.558640,-25755118908.836971,36968525308.354370,-2366604090.764294,-0.548621,0.633128,-0.044588
-0.740000,-1.980000,0.021732,0.040000,-108792273.472168,-7851765279.711527,10575186321.149710,25760438993.730160,-0.163325,0.183849,0.485342
-0.780000,-1.980000,0.020061,0.040000,-238372252.703300,-17030144343.250664,23786710883.793301,20051705082.522892,-0.359047,0.409966,0.377786
-0.660000,-1.980000,0.020043,0.040000,181293125.363875,12058672129.145069,-17214767492.117859,22284705753.214802,0.256336,-0.295193,0.419857
-0.700000,-1.980000,0.023010,0.040000,41240403.452236,2815029994.172076,-4394599334.617846,26423313635.921238,0.061965,-0.073869,0.497831
-0.580000,-1.980000,0.022892,0.040000,346355138.961405,22176818837.294552,-30678471480.593899,5025587589.137017,0.465877,-0.529947,0.094685
-0.620000,-1.980000,0.021827,0.040000,288169947.547977,18682221453.932999,-26142916958.212067,14646003580.089924,0.394153,-0.450379,0.275939
-0.500000,-1.980000,0.021924,0.040000,291476338.994360,18019027013.271507,-24521930289.765457,-13976344555.965321,0.376244,-0.425252,-0.263322
-0.540000,-1.980000,0.020029,0.040000,346724234.015116,21781442949.765316,-29981628138.920319,-5072949986.994437,0.456724,-0.518522,-0.095577
-0.420000,-1.980000,0.020018,0.040000,61725856.177742,3382223159.300336,-4359711800.613054,-23066477489.209072,0.069248,-0.076615,-0.434586
-0.460000,-1.980000,0.022777,0.040000,190108553.084703,11275258887.652905,-15149160474.773685,-20206811054.727619,0.234328,-0.263523,-0.380708
-0.340000,-1.980000,0.022663,0.040000,-198513878.937465,-12189532544.755102,16707162292.605909,-18554510273.792709,-0.255192,0.289238,-0.349578
-0.380000,-1.980000,0.022024,0.040000,-74103941.866807,-4643541616.466018,6540865410.823119,-22480008055.468769,-0.098211,0.112510,-0.423536
-0.260000,-1.980000,0.022125,0.040000,-339198335.445932,-19880960539.964401,26898793220.979813,-3779698009.242569,-0.414235,0.467123,-0.071212
-0.300000,-1.980000,0.020009,0.040000,-290831832.804072,-17362419981.552837,23680529817.615147,-11908216093.603268,-0.362829,0.410444,-0.224358
-0.180000,-1.980000,0.020003,0.040000,-288107259.530480,-16457766508.663237,22197686575.273479,12187007689.018440,-0.342517,0.385774,0.229610
-0.220000,-1.980000,0.022551,0.040000,-337906519.552598,-19535635248.238716,26330457572.060284,4589272793.462125,-0.406468,0.457676,0.086465
-0.100000,-1.980000,0.022442,0.040000,-78680209.527350,-3994434055.538247,5310617995.326118,21041439974.202370,-0.082697,0.092616,0.396433
-0.140000,-1.980000,0.022228,0.040000,-197595102.658208,-11167268314.871462,14978363776.545357,17984726060.118111,-0.231939,0.260660,0.338843
-0.020000,-1.980000,0.022334,0.040000,168337079.275083,9943770198.950312,-13378092106.333878,18198182189.683575,0.206758,-0.232640,0.342864
-0.060000,-1.980000,0.020000,0.040000,48958120.201809,3242704546.841646,-4411965028.757689,21040804579.474689,0.067703,-0.076515,0.396421
0.060000,-1.980000,0.020000,0.040000,319926406.145756,18653822785.298164,-25178640910.781044,5504954263.050176,0.388328,-0.437501,0.103717
0.020000,-1.980000,0.022334,0.040000,263775962.596653,15550694472.400021,-20917526946.275673,12804704750.381788,0.323318,-0.363764,0.241248
0.140000,-1.980000,0.022228,0.040000,291696240.446375,16836999122.970091,-22738334859.821690,-10147536172.540287,0.350574,-0.395048,-0.191185
0.100000,-1.980000,0.022442,0.040000,329726430.554303,19151828081.971100,-25800001467.767139,-2539941857.915867,0.398408,-0.448510,-0.047854
0.220000,-1.980000,0.022551,0.040000,101466842.443772,5872616099.189664,-8081050874.065013,-20427480539.442276,0.123126,-0.139769,-0.384866
0.180000,-1.980000,0.020003,0.040000,212041616.734663,12265844289.197353,-16701302873.025919,-16403246552.461935,0.256166,-0.289592,-0.309047
0.300000,-1.980000,0.020009,0.040000,-146428804.777936,-8992250828.672047,12048758780.101044,-19148694135.075409,-0.186695,0.209730,-0.360772
0.260000,-1.980000,0.022125,0.040000,-25107749.602108,-1867909653.464779,2360399273.953994,-21402875217.223755,-0.037976,0.041688,-0.403243
0.380000,-1.980000,0.022024,0.040000,-308365027.412006,-19039078126.745121,25857356413.741634,-6740293781.508538,-0.397245,0.448629,-0.126991
0.340000,-1.980000,0.022663,0.040000,-245779426.881042,-14975308733.920176,20186426490.383549,-14078688371.353561,-0.311598,0.350870,-0.265251
0.460000,-1.980000,0.022777,0.040000,-285723541.489415,-17969540638.486519,24755597028.647354,10634864622.563463,-0.376913,0.428054,0.200367
0.420000,-1.980000,0.020018,0.040000,-322593448.541805,-20062163637.216389,27512021804.620911,1974295718.382731,-0.420091,0.476235,0.037197
0.540000,-1.980000,0.020029,0.040000,-85791805.937965,-5454650635.349261,7920427981.089982,22225237535.577244,-0.116706,0.135288,0.418736
0.500000,-1.980000,0.021924,0.040000,-202024991.694482,-12673160687.962118,17695545858.865658,17746951682.831478,-0.267157,0.305007,0.334363
0.620000,-1.980000,0.021827,0.040000,171803680.849406,11827930490.199314,-16069100995.668648,20120233415.170883,0.246817,-0.278779,0.379077
0.580000,-1.980000,0.022892,0.040000,45939324.721814,3086771805.735020,-3856029645.296554,23224216605.099812,0.062505,-0.068302,0.437558
0.700000,-1.980000,0.023010,0.040000,314720492.338440,22021276940.179989,-30833022018.285713,3489923152.051384,0.464699,-0.531106,0.065752
0.660000,-1.980000,0.020043,0.040000,266957504.794451,18393804224.796928,-25510871601.821869,13151160028.259533,0.386777,-0.440413,0.247775
0.780000,-1.980000,0.020061,0.040000,235705036.059871,17108920990.014696,-24777068122.750011,-17409939955.578278,0.365684,-0.423473,-0.328013
0.740000,-1.980000,0.021732,0.040000,304311803.849904,21644978591.851471,-30742093813.634037,-7304133725.983555,0.459222,-0.527780,-0.137614
0.860000,-1.980000,0.021640,0.040000,-23806472.781173,-2361364298.137174,2697269115.607203,-26943947060.223022,-0.046388,0.048920,-0.507640
0.820000,-1.980000,0.023129,0.040000,119283620.289543,8738616003.699902,-13076735549.646961,-24632030637.289997,0.189160,-0.221853,-0.464082
0.940000,-1.980000,0.023250,0.040000,-265271632.491737,-21741401792.078159,31363573737.747082,-14427929687.800638,-0.464007,0.536522,-0.271831
0.900000,-1.980000,0.020081,0.040000,-161506302.298226,-13077100028.030207,18399400796.549892,-23428764085.902275,-0.276463,0.316573,-0.441411
1.020000,-1.980000,0.020103,0.040000,-279128891.236519,-23887734861.643379,35994113755.516663,13316888000.827467,-0.518486,0.609723,0.250898
0.980000,-1.980000,0.021550,0.040000,-309320564.857676,-25938829857.605228,38207312740.442253,-1302988857.863309,-0.558046,0.650504,-0.024549
1.100000,-1.980000,0.021462,0.040000,-27929961.479766,-1638951842.639819,3489955193.670738,31587856610.911793,-0.041341,0.055291,0.595134
1.060000,-1.980000,0.023373,0.040000,-177973649.059830,-15374281779.209082,23808900832.659573,25579978139.453037,-0.337334,0.400900,0.481942
1.180000,-1.980000,0.023498,0.040000,251093579.271044,25184003636.215012,-38548584627.804031,17307375925.201374,0.550020,-0.650739,0.326081
1.140000,-1.980000,0.020129,0.040000,129405452.514355,13006998125.065872,-19138383620.556038,28910053667.529606,0.279715,-0.325923,0.544682
1.260000,-1.980000,0.020158,0.040000,246004667.424322,25554147641.455605,-41441008694.134193,-20702148734.121658,0.571250,-0.690977,-0.390040
1.220000,-1.980000,0.021376,0.040000,296833834.722895,30349074389.118923,-47772960741.452255,-945439227.093914,0.670277,-0.801587,-0.017813
1.340000,-1.980000,0.021292,0.040000,-70071050.254136,-9504204883.127047,14383765273.460863,-36238208458.712265,-0.206645,0.243418,-0.682749
1.300000,-1.980000,0.023625,0.040000,109018825.194564,10943161051.125240,-18738603655.302986,-34681674126.141243,0.250237,-0.308985,-0.653423
1.420000,-1.980000,0.023753,0.040000,-280484386.447273,-34658117853.078445,58944618725.343552,1699258949.511548,-0.790251,0.973279,0.032015
1.380000,-1.980000,0.020189,0.040000,-220855897.426743,-27108415993.590477,44715820391.121231,-22851883631.720421,-0.610258,0.742952,-0.430543
1.500000,-1.980000,0.020223,0.040000,-45037864.776548,-4466941241.859885,8784681127.219151,41866411044.619331,-0.108564,0.141104,0.788787
1.460000,-1.980000,0.021211,0.040000,-213981982.433970,-26372317745.438778,46551563920.966385,27587193905.135735,-0.610926,0.763002,0.519759
1.580000,-1.980000,0.021133,0.040000,259549980.178941,38164727341.600357,-70301344206.333282,5778349117.761408,0.900687,-1.142876,0.108867
1.540000,-1.980000,0.023883,0.040000,148924168.181120,22208170363.076424,-39418414374.209488,34458471130.489265,0.515690,-0.645390,0.649218
1.660000,-1.980000,0.024015,0.040000,21345024.865903,1374846224.083502,-2783023676.349981,-46124888616.667549,0.033862,-0.044475,-0.869020
1.620000,-1.980000,0.020260,0.040000,210886045.423005,30886454934.491291,-58606835153.492851,-29114104644.581657,0.738599,-0.947506,-0.548527
1.740000,-1.980000,0.020299,0.040000,-238702203.304318,-40432749409.564735,82234704346.308609,13509023344.404993,-0.998048,1.313078,0.254518
1.700000,-1.980000,0.021057,0.040000,-183317387.678549,-31696524163.746559,62876844166.892868,-28834023844.553474,-0.773417,1.008400,-0.543250
1.820000,-1.980000,0.020983,0.040000,150309967.282164,29455325337.229698,-64537251747.405830,32100432456.413979,0.753245,-1.017630,0.604791
1.780000,-1.980000,0.024148,0.040000,-83829772.049745,-13027467466.892607,25775287847.549385,45074148012.644714,-0.317498,0.413568,0.849223
1.900000,-1.980000,0.024283,0.040000,21219408.540519,3016897972.227298,-1242112025.248908,-42789334771.749237,0.046809,-0.033434,-0.806176
1.860000,-1.980000,0.020342,0.040000,216066169.304541,41315069547.375168,-89021390365.073380,-15901521460.371567,1.048044,-1.407570,-0.299594
1.980000,-1.980000,0.020387,0.040000,-105159160.347743,-23553639399.227005,42404545730.547424,30857514458.390667,-0.550313,0.692378,0.581373
1.940000,-1.980000,0.020912,0.040000,-193424403.469274,-41188895491.983902,93627983397.359848,-11522027412.067385,-1.072418,1.467611,-0.217082
2.060000,-1.980000,0.020843,0.040000,84692105.695883,20554969805.783134,-36692049312.616852,-19584111232.111794,0.478477,-0.600090,-0.368976
2.020000,-1.980000,0.024420,0.040000,150610169.980740,34387819172.708939,-81906281655.074295,16097536204.228004,0.916469,-1.274579,0.303287
2.140000,-1.980000,0.024558,0.040000,26064115.996901,8992338659.825518,-14188101099.999298,10111991524.136602,0.198788,-0.237945,0.190516
2.100000,-1.980000,0.020435,0.040000,-156599803.126193,-43958410067.130722,77129458651.697372,-7845284620.561414,-1.015690,1.265675,-0.147810
2.220000,-1.980000,0.020485,0.040000,-110800771.305670,-38431612127.356766,44543606251.045952,-3717078937.230044,-0.758620,0.804681,-0.070032
2.180000,-1.980000,0.020777,0.040000,75792940.396213,19913464760.007641,-39555158180.158615,-2388840486.696523,0.486199,-0.634224,-0.045007
2.300000,-1.980000,0.020713,0.040000,-3021414.218687,-4745742992.206518,-4809517885.769333,1489183638.417646,-0.035405,-0.036606,0.028057
2.260000,-1.980000,0.024698,0.040000,46910734.247716,17983342780.412624,-16044489798.681877,6033749939.202919,0.327858,-0.313246,0.113679
2.380000,-1.980000,0.024839,0.040000,226377.476367,39655133.068127,-190643296.419047,176297434.921402,0.001601,-0.002738,0.003322
2.340000,-1.980000,0.020538,0.040000,-1310171.499195,1391215780.032405,3586197285.340131,-2114119757.211371,-0.001922,0.039433,-0.039831
2.460000,-1.980000,0.020594,0.040000,4237.186086,128818008.070551,24217766.022928,-60406194.417671,0.001562,-0.000409,-0.001138
2.420000,-1.980000,0.020652,0.040000,-7153.931669,-57460330.251421,-101191291.788026,55558312.690172,-0.000186,-0.001010,0.001047
2.500000,-1.980000,0.005075,0.040000,4049.102063,-8027973.147431,33849155.877900,-46222415.202692,-0.000297,0.000492,-0.000871
-2.500000,-1.940000,0.014627,0.040000,65852.713376,427929589.088891,202731162.639441,-133443373.932592,0.004498,0.000255,-0.002514
-2.500000,-1.900000,0.004478,0.040000,-646591.145721,8589796047.521248,4899613658.883765,5943622573.084820,0.085592,0.016067,0.111981
-2.460000,-1.940000,0.042590,0.040000,9250.381735,-208720082.840615,-103242608.937426,-242750091.645212,-0.002169,-0.000182,-0.004574
-2.420000,-1.940000,0.060221,0.040000,10443.616909,-29239361.474493,-88178381.653822,-110075644.896974,0.000113,-0.000998,-0.002074
-2.420000,-1.900000,0.080125,0.040000,9152.715903,523008189.241557,224357633.377470,752288477.600642,0.005630,0.000003,0.014174
-2.460000,-1.900000,0.040250,0.040000,28289.553239,3952062993.393894,1067940153.334007,3880562998.342221,0.046085,-0.008253,0.073112
-2.380000,-1.940000,0.061782,0.040000,370.038296,-130080374.290868,-80737162.496732,-142945672.600633,-0.001259,-0.000330,-0.002693
-2.340000,-1.940000,0.060182,0.040000,115402.728298,-27011474.266102,1200044056.089318,1080178542.804022,-0.007139,0.015979,0.020351
-2.340000,-1.900000,0.100109,0.040000,6878.324099,-25872476.069764,230181258.211466,232203745.120277,-0.001642,0.003182,0.004375
-2.380000,-1.900000,0.101079,0.040000,10359.422767,-39631257.033831,-26396026.828519,-55531503.081585,-0.000373,-0.000124,-0.001046
-2.300000,-1.940000,0.060242,0.040000,-666711.336031,2698059036.868815,-1671742680.754810,-61360138.944683,0.045032,-0.037298,-0.001156
-2.260000,-1.940000,0.061725,0.040000,2547509.277453,-1603481677.937318,-2574345301.590920,-3429718641.937742,-0.006597,-0.024888,-0.064618
-2.260000,-1.900000,0.101044,0.040000,84514.183798,-273477284.737463,-443722737.028277,-1490937486.511070,-0.001099,-0.004306,-0.028090
-2.300000,-1.900000,0.100145,0.040000,13588.962723,875671681.460837,-462111095.298874,369984420.443162,0.014161,-0.011044,0.006971
-2.220000,-1.940000,0.060163,0.040000,-5353294.144884,-4255412755.096268,7946325720.177186,1131691439.438719,-0.101036,0.128852,0.021322
-2.180000,-1.940000,0.060263,0.040000,4064833.386189,270234244.041557,-5000989739.278711,3524677373.724639,0.031830,-0.067482,0.066407
-2.180000,-1.900000,0.100158,0.040000,987609.235620,717347778.836091,-1607941189.818569,2408246257.794247,0.018549,-0.025261,0.045373
-2.220000,-1.900000,0.100098,0.040000,-460808.801441,-2082472358.825757,2131376339.597287,165402220.118115,-0.039511,0.039880,0.003116
-2.140000,-1.940000,0.061669,0.040000,8797291.484299,-1501469923.848823,-11754695085.050142,-6426523455.906829,0.046638,-0.146539,-0.121079
-2.100000,-1.940000,0.060146,0.040000,-20208493.945657,-6942156233.735455,19171616347.030270,-3041052512.981006,-0.199917,0.292081,-0.057295
-2.100000,-1.900000,0.100088,0.040000,-3610707.102424,-4939557348.323668,6293530378.708014,-1945716164.338696,-0.100717,0.110921,-0.036658
-2.140000,-1.900000,0.101010,0.040000,329711.243807,647137596.726167,-2578563374.237111,-3558299543.940028,0.023109,-0.037665,-0.067040
-2.060000,-1.940000,0.060286,0.040000,-4204474.670706,-2331668466.074546,9991484828.970591,14333493691.205357,-0.087225,0.144951,0.270051
-2.020000,-1.940000,0.061614,0.040000,33854783.448516,10310700997.352955,-28948331597.676781,6094448972.943995,0.299603,-0.440060,0.114823
-2.020000,-1.900000,0.100977,0.040000,7818199.992959,7828658440.967401,-10126144194.593460,2735007042.911813,0.160482,-0.177797,0.051529
-2.060000,-1.900000,0.100172,0.040000,880701.662831,-1532029291.691559,2272499404.617354,7932234628.229124,-0.033050,0.038630,0.149448
-1.980000,-1.940000,0.060130,0.040000,12259744.244725,5430111854.104016,-16561945462.769337,-19261997786.685093,0.165226,-0.249118,-0.362907
-1.940000,-1.940000,0.060310,0.040000,-41829759.381511,-12857762179.077831,27012215906.172672,-16107467259.722889,-0.322251,0.428922,-0.303474
-1.940000,-1.900000,0.100186,0.040000,-12921082.548773,-9227979630.988123,10858429601.566616,-8224243356.397457,-0.183076,0.195364,-0.154950
-1.980000,-1.900000,0.100078,0.040000,780668.275261,3790268063.256788,-5113552401.220840,-10676376479.403801,0.078890,-0.088863,-0.201149
-1.900000,-1.940000,0.061560,0.040000,-43353496.269780,-15739036299.355381,33095782077.017090,13546106727.138216,-0.394636,0.525440,0.255217
-1.860000,-1.940000,0.060115,0.040000,17745552.123042,3059776476.082198,-4345314721.944172,28659372030.790527,0.064914,-0.074602,0.539959
-1.860000,-1.900000,0.100069,0.040000,8899502.720255,2375101622.033368,-2461400894.362144,15828872976.529791,0.045236,-0.045886,0.298225
-1.900000,-1.900000,0.100944,0.040000,-11129216.639937,-10888248712.501654,12915878289.541086,7948617686.374083,-0.216601,0.231882,0.149757
-1.820000,-1.940000,0.060335,0.040000,70429271.365256,21011074804.609531,-37198149959.869926,10713788845.881620,0.487353,-0.609343,0.201854
-1.780000,-1.940000,0.061507,0.040000,54419212.939546,18246103956.733524,-31450704510.673275,-19418945584.444447,0.418402,-0.517915,-0.365864
-1.780000,-1.900000,0.100912,0.040000,17371613.555904,12614901312.937481,-14118611305.860140,-11509221954.097918,0.246171,-0.257504,-0.216840
-1.820000,-1.900000,0.100201,0.040000,25186997.855414,14739896126.492855,-16530518279.869450,5545467276.595229,0.287829,-0.301324,0.104480
-1.740000,-1.940000,0.060100,0.040000,-18889750.190423,-2032488728.693819,3028108635.682423,-31971688429.839993,-0.043921,0.051424,-0.602365
-1.700000,-1.940000,0.060360,0.040000,-86496989.127825,-21318352424.318287,33722722341.513584,-17679583823.972500,-0.471762,0.565244,-0.333094
-1.700000,-1.900000,0.100217,0.040000,-36981812.126099,-15295913541.407217,16641202381.594481,-10210175952.308481,-0.295788,0.305926,-0.192366
-1.740000,-1.900000,0.100060,0.040000,-11130314.933975,-1692940565.182813,1758838963.092706,-18639858371.395973,-0.032268,0.032765,-0.351186
-1.660000,-1.940000,0.061455,0.040000,-93339522.876279,-24648431520.389141,37833603407.428413,9793283541.096943,-0.538916,0.638282,0.184511
-1.620000,-1.940000,0.060087,0.040000,-32614163.119923,-10947795084.896805,16095332006.360800,29864834899.404160,-0.235358,0.274151,0.562671
-1.620000,-1.900000,0.100052,0.040000,-10359828.000751,-7680569587.030706,8255367803.373804,18446738039.837646,-0.147955,0.152287,0.347547
-1.660000,-1.900000,0.100880,0.040000,-37981243.894705,-17589456866.277035,19049375027.102684,6208034360.472627,-0.339647,0.350650,0.116963
-1.580000,-1.940000,0.060387,0.040000,56460536.055559,9551074707.846899,-14367034789.396605,30605982860.023769,0.207168,-0.243463,0.576634
-1.540000,-1.940000,0.061404,0.040000,119805141.500167,24283540140.871670,-34844385989.189705,13754601374.394915,0.517208,-0.596797,0.259145
-1.540000,-1.900000,0.100848,0.040000,58171886.925057,17870022288.879837,-18997955515.380554,8528931009.460693,0.343057,-0.351557,0.160690
-1.580000,-1.900000,0.100233,0.040000,29745269.610899,7185511428.753167,-7697465868.250364,18997686856.369511,0.138273,-0.142131,0.357927
-1.500000,-1.940000,0.060075,0.040000,121695838.140912,25770623949.411640,-35811735055.172424,-9691772390.875576,0.542288,-0.617960,-0.182599
-1.460000,-1.940000,0.060415,0.040000,61013602.641741,14425523403.169172,-19339168970.799671,-27333130811.059364,0.299558,-0.336588,-0.514972
-1.460000,-1.900000,0.100249,0.040000,26626342.602566,10543531681.042509,-11057750416.097843,-17759499125.547642,0.201553,-0.205428,-0.334599
-1.500000,-1.900000,0.100045,0.040000,57656624.351038,18905360043.779682,-19952518408.852348,-6335709964.852629,0.362107,-0.369998,-0.119368
-1.420000,-1.940000,0.061353,0.040000,-33120533.568943,-3244311236.585832,4787029283.493585,-31604504099.169178,-0.069844,0.081471,-0.595447
-1.380000,-1.940000,0.060063,0.040000,-118759605.909874,-18754560895.794312,25224627898.749035,-22218501074.570957,-0.389917,0.438677,-0.418609
-1.380000,-1.900000,0.100038,0.040000,-65441627.460335,-14110402399.872658,14743555306.361456,-14769640004.848013,-0.269427,0.274198,-0.278269
-1.420000,-1.900000,0.100818,0.040000,-21397806.298494,-2503745127.175295,2640738117.496018,-20736179170.799461,-0.047946,0.048979,-0.390682
-1.340000,-1.940000,0.060443,0.040000,-160615211.411846,-26001184286.246925,34318910771.342533,-4665676989.267146,-0.536891,0.599575,-0.087904
-1.300000,-1.940000,0.061304,0.040000,-143058551.140827,-23308605086.410221,30263956972.741688,13441147074.942993,-0.478460,0.530878,0.253239
-1.300000,-1.900000,0.100788,0.040000,-76398731.792305,-17802106627.430962,18532427466.164391,9081877238.002468,-0.339530,0.345034,0.171108
-1.340000,-1.900000,0.100266,0.040000,-86812677.728388,-19703321383.969074,20547990714.301960,-3192117654.578261,-0.375996,0.382362,-0.060141
-1.260000,-1.940000,0.060053,0.040000,-73248537.277593,-12822604002.240408,16211906073.867920,25825711411.046555,-0.260742,0.286285,0.486571
-1.220000,-1.940000,0.060473,0.040000,24329136.688608,1284141503.923740,-2073240815.831380,29196577261.591755,0.028654,-0.034601,0.550080
-1.220000,-1.900000,0.100284,0.040000,17960129.616302,1026069103.589667,-1088374318.285138,20220475668.795284,0.019684,-0.020153,0.380965
-1.260000,-1.900000,0.100032,0.040000,-37182286.479254,-9836340224.110201,10198901294.351244,17697097876.820168,-0.187372,0.190104,0.333424
-1.180000,-1.940000,0.061255,0.040000,118059672.794209,14430296435.853708,-18569654607.636765,23444448816.452560,0.295272,-0.326467,0.441707
-1.140000,-1.940000,0.060043,0.040000,179810339.268361,22693639993.662750,-28586760578.699364,11160954054.580807,0.460870,-0.505282,0.210279
-1.140000,-1.900000,0.100026,0.040000,106992007.761628,17643286160.642231,-18202395216.270771,7964067057.260898,0.335570,-0.339783,0.150048
-1.180000,-1.900000,0.100758,0.040000,71461915.376160,11175924147.735683,-11569441672.455355,16416090911.678030,0.212785,-0.215751,0.309289
-1.100000,-1.940000,0.060503,0.040000,192655654.023463,24137582026.655750,-30042327992.322914,-3442955795.494231,0.488141,-0.532640,-0.064867
-1.060000,-1.940000,0.061207,0.040000,154188673.741543,19172497610.939892,-23598060332.475853,-16154631490.722023,0.386235,-0.419587,-0.304363
-1.060000,-1.900000,0.100729,0.040000,90821189.208635,15161887240.103020,-15620238756.605890,-11433802039.022127,0.288249,-0.291704,-0.215419
-1.100000,-1.900000,0.100303,0.040000,114150744.741648,18912784728.852989,-19494077962.278294,-2289904343.524014,0.359613,-0.363994,-0.043143
-1.020000,-1.940000,0.060035,0.040000,75456297.997002,9833774129.921049,-11839523747.865082,-24082912785.946274,0.196611,-0.211727,-0.453736
-0.980000,-1.940000,0.060534,0.040000,-23327498.216182,-1319454375.787292,1928172431.132658,-25939202911.828075,-0.028300,0.032887,-0.488710
-0.980000,-1.900000,0.100321,0.040000,-17584796.163448,-1012894689.139856,1046894613.053937,-18797134715.622421,-0.019276,0.019532,-0.354149
-1.020000,-1.900000,0.100021,0.040000,42970837.743314,7840302193.134976,-8061237886.839945,-17284768402.541492,0.148965,-0.150630,-0.325655
-0.940000,-1.940000,0.061160,0.040000,-118596521.079929,-11731738763.249111,14500564711.202106,-21813711833.112072,-0.236683,0.257549,-0.410983
-0.900000,-1.940000,0.060027,0.040000,-189129279.064907,-19017074940.745457,23126132507.571346,-13095829688.067949,-0.381518,0.412485,-0.246733
-0.900000,-1.900000,0.100016,0.040000,-120617435.807147,-15142770638.575872,15506827050.456808,-9729660076.526762,-0.287356,0.290100,-0.183312
-0.940000,-1.900000,0.100700,0.040000,-76543305.880700,-9280481423.277573,9519490815.372379,-15959485311.061100,-0.176201,0.178002,-0.300686
-0.860000,-1.940000,0.060566,0.040000,-220416323.721236,-21832489885.870819,26342264838.338364,-2154082619.810559,-0.436827,0.470814,-0.040584
-0.820000,-1.940000,0.061114,0.040000,-207008745.551137,-20129395625.228062,24114470812.996262,8523776569.549793,-0.401774,0.431806,0.160593
-0.820000,-1.900000,0.100672,0.040000,-131900468.804028,-16270880397.343616,16663219135.201601,6165433278.815856,-0.308770,0.311727,0.116160
-0.860000,-1.900000,0.100341,0.040000,-140372691.440894,-17525553949.532684,17948787520.976559,-1764492668.065158,-0.332584,0.335773,-0.033244
-0.780000,-1.940000,0.060020,0.040000,-152724900.141955,-14705073635.098776,17429471511.675617,16996828658.123266,-0.292451,0.312983,0.320230
-0.740000,-1.940000,0.060600,0.040000,-69045500.595021,-6755231208.693967,7848632677.362721,21923083699.417660,-0.133453,0.141693,0.413044
-0.740000,-1.900000,0.100361,0.040000,-43164065.035247,-5529544876.148715,5659104803.813880,16312320278.988068,-0.104912,0.105889,0.307334
-0.780000,-1.900000,0.100012,0.040000,-97166032.328151,-11937103907.343662,12211044605.139936,12539710046.030485,-0.226450,0.228515,0.236255
-0.700000,-1.940000,0.061069,0.040000,27728440.085590,2170441702.087640,-2737915331.075468,22578458564.291393,0.044100,-0.048376,0.425391
-0.660000,-1.940000,0.060014,0.040000,119830686.694440,10222483739.525276,-12223912618.449629,19151809025.402252,0.203910,-0.218993,0.360831
-0.660000,-1.900000,0.100009,0.040000,80166348.356881,8226761371.982072,-8373205817.313267,14491087904.967112,0.155825,-0.156928,0.273020
-0.700000,-1.900000,0.100645,0.040000,19785290.014393,1654593254.118284,-1669662267.506515,16931764558.062283,0.031259,-0.031372,0.319004
-0.620000,-1.940000,0.060634,0.040000,191263174.661396,16081187170.409220,-19087987438.948963,12663683134.647705,0.319974,-0.342634,0.238591
-0.580000,-1.940000,0.061025,0.040000,230379852.501054,19085259593.649815,-22518683976.144279,4408483643.343753,0.378984,-0.404859,0.083058
-0.580000,-1.900000,0.100618,0.040000,153571925.165853,15600297387.723488,-15905118110.260719,3465784224.472197,0.295642,-0.297939,0.065297
-0.620000,-1.900000,0.100381,0.040000,127393505.542379,13092509672.580336,-13346878797.518509,9690557409.643892,0.248108,-0.250025,0.182576
-0.540000,-1.940000,0.060010,0.040000,231481561.196096,18888138642.987934,-22152920987.102360,-4270804043.317389,0.374317,-0.398921,-0.080464
-0.500000,-1.940000,0.060669,0.040000,195315665.393274,15603044529.800266,-18226420762.828838,-11942867069.528669,0.308798,-0.328569,-0.225011
-0.500000,-1.900000,0.100403,0.040000,130831839.157304,12841098023.463129,-13092525674.158854,-8969150889.727341,0.243355,-0.245250,-0.168984
-0.540000,-1.900000,0.100006,0.040000,154647076.449098,15473213792.295622,-15764340329.268990,-3113585645.684071,0.293170,-0.295364,-0.058662
-0.460000,-1.940000,0.060982,0.040000,128522037.532267,9943760082.399906,-11572557960.024397,-17372571765.392235,0.196552,-0.208827,-0.327309
-0.420000,-1.940000,0.060006,0.040000,42236086.333521,3058688084.640547,-3491528500.393760,-19915954877.733910,0.060074,-0.063336,-0.375228
-0.420000,-1.900000,0.100004,0.040000,28430241.195236,2594981099.894279,-2668269382.041846,-15215481795.307587,0.049305,-0.049858,-0.286668
-0.460000,-1.900000,0.100592,0.040000,86323905.441430,8265322904.202910,-8443187796.938242,-13187151658.949432,0.156729,-0.158069,-0.248454
-0.380000,-1.940000,0.060705,0.040000,-49868582.985241,-4051780901.085283,4814616147.912692,-19441236901.105373,-0.080650,0.086398,-0.366284
-0.340000,-1.940000,0.060939,0.040000,-133740759.321576,-10456484777.215637,12230296421.290615,-16075010867.991192,-0.207032,0.220400,-0.302863
-0.340000,-1.900000,0.100566,0.040000,-90603792.303946,-8560776593.534048,8683129619.887049,-12381245365.765993,-0.161982,0.162904,-0.233270
-0.380000,-1.900000,0.100424,0.040000,-33713259.093089,-3295046111.730031,3329206162.372596,-14915431562.208467,-0.062274,0.062531,-0.281015
-0.300000,-1.940000,0.060003,0.040000,-197029027.657776,-15090628518.528687,17571808318.690430,-10372180596.955584,-0.298340,0.317039,-0.195418
-0.260000,-1.940000,0.060741,0.040000,-230793350.703681,-17329799821.746056,20159341205.640327,-3348369982.810016,-0.342497,0.363821,-0.063085
-0.260000,-1.900000,0.100447,0.040000,-157098941.823067,-14322159827.276285,14556691318.307894,-2675355122.515646,-0.271163,0.272931,-0.050405
-0.300000,-1.900000,0.100002,0.040000,-133796919.084054,-12408764073.807041,12594346341.877794,-8053049268.227427,-0.234837,0.236236,-0.151724
-0.220000,-1.940000,0.060898,0.040000,-230631947.396283,-17060158560.134108,19820169586.558651,3928597247.122883,-0.337023,0.357823,0.074017
-0.180000,-1.940000,0.060001,0.040000,-197128932.020222,-14411749443.742744,16703819893.462704,10529900561.600250,-0.284481,0.301754,0.198389
-0.180000,-1.900000,0.100001,0.040000,-134905605.939064,-11937838639.939203,12142636683.359312,8057226439.533683,-0.226073,0.227617,0.151803
-0.220000,-1.900000,0.100541,0.040000,-157377279.438503,-14134128444.489662,14375925610.492142,2953948969.517992,-0.267662,0.269484,0.055654
-0.140000,-1.940000,0.060779,0.040000,-135613360.787197,-9700209766.712738,11237695982.380632,15554273754.753145,-0.191448,0.203035,0.293052
-0.100000,-1.940000,0.060857,0.040000,-55283868.703170,-3616062771.989083,4208190532.911839,18232168408.038502,-0.071476,0.075938,0.343505
-0.100000,-1.900000,0.100517,0.040000,-38564487.558238,-3055478141.971234,3140714741.516092,14045342509.117710,-0.058049,0.058691,0.264622
-0.140000,-1.900000,0.100469,0.040000,-93225437.693491,-8051177358.810542,8205427047.012779,11943795723.920252,-0.152561,0.153723,0.225028
-0.060000,-1.940000,0.060000,0.040000,32155370.223685,2800466018.186686,-3230713512.523641,18268586952.755306,0.055194,-0.058437,0.344191
-0.020000,-1.940000,0.060818,0.040000,114156073.995007,8741080940.933764,-10124986031.949232,15795719020.935472,0.172509,-0.182939,0.297601
-0.020000,-1.900000,0.100493,0.040000,77154942.459819,7236324272.125386,-7323384464.829039,12205405234.218458,0.136829,-0.137485,0.229957
-0.060000,-1.900000,0.100000,0.040000,21093647.838297,2281221972.575235,-2281652714.029262,14106302802.531897,0.042982,-0.042985,0.265771
0.020000,-1.940000,0.060818,0.040000,179068353.455247,13505061515.254900,-15630397344.795031,11105030543.871601,0.266456,-0.282473,0.209225
0.060000,-1.940000,0.060000,0.040000,217734695.381133,16299667191.770956,-18868242789.492908,4789114284.482655,0.321613,-0.340971,0.090230
0.060000,-1.900000,0.100000,0.040000,148203830.985258,13469249184.829327,-13660524182.440647,3713086806.476517,0.254850,-0.256291,0.069957
0.020000,-1.900000,0.100493,0.040000,121621961.084413,11160458116.176498,-11311992299.159332,8575371586.267588,0.211126,-0.212268,0.161565
0.100000,-1.940000,0.060857,0.040000,224742319.134226,16695411729.010389,-19372139224.441647,-2183864113.631807,0.329681,-0.349853,-0.041145
0.140000,-1.940000,0.060779,0.040000,199181424.836857,14722615615.923866,-17122667520.143772,-8801361825.189327,0.290948,-0.309035,-0.165823
0.140000,-1.900000,0.100469,0.040000,135958371.152496,12195021550.022114,-12403883455.766312,-6784204739.807897,0.230942,-0.232516,-0.127818
0.100000,-1.900000,0.100517,0.040000,153187440.143355,13821378758.661135,-14040911688.735006,-1661305363.727010,0.261644,-0.263298,-0.031300
0.180000,-1.940000,0.060001,0.040000,144793914.644003,10686957898.594875,-12453372784.242682,-14222729683.934971,0.211333,-0.224645,-0.267964
0.220000,-1.940000,0.060898,0.040000,69500548.847152,5003422289.254032,-5887498797.025057,-17673601687.843117,0.099264,-0.105927,-0.332981
0.220000,-1.900000,0.100541,0.040000,48054047.273966,4109678984.154994,-4206031424.832056,-13577260912.428391,0.077973,-0.078699,-0.255803
0.180000,-1.900000,0.100001,0.040000,99100117.176975,8818763953.014685,-8977838179.234106,-10951583216.756886,0.167050,-0.168249,-0.206334
0.260000,-1.940000,0.060741,0.040000,-15658961.820382,-1558678611.149384,1701805680.216456,-18504046361.147625,-0.030175,0.031254,-0.348627
0.300000,-1.940000,0.060003,0.040000,-98040865.033983,-7879057580.080189,9068149205.767664,-16552298756.679686,-0.155167,0.164128,-0.311855
0.300000,-1.900000,0.100002,0.040000,-65327269.255159,-6504787345.222866,6571999754.858766,-12674481304.294416,-0.122934,0.123440,-0.238795
0.260000,-1.900000,0.100447,0.040000,-9624748.415055,-1275155874.395132,1255275990.124094,-14193101001.825991,-0.023912,0.023762,-0.267406
0.340000,-1.940000,0.060939,0.040000,-165206171.982471,-13097257253.871002,15199264819.081207,-12131880402.091951,-0.258641,0.274482,-0.228572
0.380000,-1.940000,0.060705,0.040000,-206759369.601413,-16505238373.558531,19221940816.350140,-5758489450.019402,-0.326324,0.346797,-0.108493
0.380000,-1.900000,0.100424,0.040000,-138574987.627343,-13578604840.650433,13787316448.573668,-4329551177.293900,-0.257008,0.258581,-0.081571
0.340000,-1.900000,0.100566,0.040000,-110634148.597605,-10819891607.273766,10973578109.194862,-9248780458.293653,-0.204722,0.205880,-0.174252
0.420000,-1.940000,0.060006,0.040000,-215972037.716737,-17402453722.367271,20337561555.780704,1750868869.366857,-0.344462,0.366582,0.032987
0.460000,-1.940000,0.060982,0.040000,-190983689.442324,-15468267605.133102,18192514576.852562,9190879922.237776,-0.306829,0.327360,0.173162
0.460000,-1.900000,0.100592,0.040000,-127994312.032727,-12664036430.142242,12895978272.403461,7041392496.076552,-0.239909,0.241657,0.132664
0.420000,-1.900000,0.100004,0.040000,-144727898.893757,-14266320408.462931,14496030767.612169,1398048439.379935,-0.270084,0.271815,0.026340
0.500000,-1.940000,0.060669,0.040000,-135319502.448987,-10964141074.593493,13014115763.295773,15302812870.865395,-0.218158,0.233607,0.288314
0.540000,-1.940000,0.060010,0.040000,-57610163.130285,-4591202275.332021,5568095246.891491,19112939154.402996,-0.092022,0.099385,0.360099
0.540000,-1.900000,0.100006,0.040000,-39377072.220616,-3690160499.583701,3788180650.474406,14484480432.396322,-0.070079,0.070817,0.272896
0.500000,-1.900000,0.100403,0.040000,-90905417.045081,-8960882743.737720,9147938068.513416,11662939888.791861,-0.169885,0.171295,0.219737
0.580000,-1.940000,0.061025,0.040000,29520090.052638,2845680036.711445,-3171168881.725091,19883403565.163902,0.055454,-0.057907,0.374615
0.620000,-1.940000,0.060634,0.040000,111307696.654213,10170297616.504898,-11823161635.545008,17158313613.245508,0.200957,-0.213413,0.323273
0.620000,-1.900000,0.100381,0.040000,71731269.873919,8301392223.784300,-8416662752.204463,12823416486.063984,0.157055,-0.157923,0.241601
0.580000,-1.900000,0.100618,0.040000,18095725.039769,2395182596.818671,-2403478301.286936,14968770154.743074,0.045174,-0.045236,0.282020
0.660000,-1.940000,0.060014,0.040000,173250426.046899,15879576380.833546,-18681963551.414425,11168353206.709929,0.315020,-0.336139,0.210418
0.700000,-1.940000,0.061069,0.040000,203703919.227272,18854387766.263828,-22402163395.600979,2885273929.361920,0.375280,-0.402017,0.054360
0.700000,-1.900000,0.100645,0.040000,131731166.119129,15289093748.665203,-15588346193.222986,2035394445.659669,0.289747,-0.292002,0.038348
0.660000,-1.900000,0.100009,0.040000,112080397.965333,12907180642.381735,-13122900206.421747,8271468448.996020,0.244398,-0.246024,0.155839
0.740000,-1.940000,0.060600,0.040000,196237116.512819,18449782087.753807,-22097725630.572308,-6329969486.265609,0.368223,-0.395715,-0.119260
0.780000,-1.940000,0.060020,0.040000,151307233.856685,14436782356.647757,-17452983784.862671,-14866834495.524233,0.289045,-0.311776,-0.280100
0.780000,-1.900000,0.100012,0.040000,97956550.668465,11546297926.624077,-11807966903.119013,-11101058882.646431,0.219018,-0.220990,-0.209150
0.740000,-1.900000,0.100361,0.040000,126806892.257681,14883511515.091991,-15198614744.129026,-4844899188.861095,0.282195,-0.284570,-0.091281
0.820000,-1.940000,0.061114,0.040000,76804383.522506,7166336216.808208,-8890229846.762470,-20882124177.458454,0.144762,-0.157753,-0.393431
0.860000,-1.940000,0.060566,0.040000,-12844774.752443,-2069393552.504408,2149316567.964781,-22742114612.727039,-0.039440,0.040043,-0.428475
0.860000,-1.900000,0.100341,0.040000,-5929991.758875,-1697646620.549941,1682509245.361924,-16640151090.679306,-0.031899,0.031785,-0.313510
0.820000,-1.900000,0.100672,0.040000,50571918.130832,5670149709.664304,-5834283832.764534,-15412747479.336916,0.107757,-0.108994,-0.290385
0.900000,-1.940000,0.060027,0.040000,-99050999.378694,-11237700000.913103,13344254059.577518,-19685666774.051361,-0.223631,0.239507,-0.370889
0.940000,-1.940000,0.061160,0.040000,-162696569.396454,-18371343020.234390,22255600987.801300,-12002971936.050365,-0.368081,0.397354,-0.226143
0.940000,-1.900000,0.100700,0.040000,-99103762.482833,-14649056583.741228,14993794341.302872,-8557866731.731887,-0.277945,0.280543,-0.161235
0.900000,-1.900000,0.100016,0.040000,-59753959.988588,-9016774081.851900,9185685601.133202,-14269547447.269655,-0.170836,0.172109,-0.268847
0.980000,-1.940000,0.060534,0.040000,-188473849.672440,-21666980331.293392,26554451177.986950,-933589548.380125,-0.435843,0.472676,-0.017589
1.020000,-1.940000,0.060035,0.040000,-169020208.864175,-19752643723.406742,24517133444.766689,11237188834.079645,-0.399081,0.434987,0.211715
1.020000,-1.900000,0.100021,0.040000,-103124097.589559,-15486677412.839861,15915270563.378683,8178034975.102343,-0.294200,0.297430,0.154079
0.980000,-1.900000,0.100321,0.040000,-114882011.088980,-17130829003.343748,17568342169.473240,-490651573.041182,-0.325228,0.328525,-0.009244
1.060000,-1.940000,0.061207,0.040000,-107755046.084533,-12421961006.925488,15795143259.781086,21327707053.051212,-0.253103,0.278524,0.401826
1.100000,-1.940000,0.060503,0.040000,-19375221.867283,-1189559262.991802,1996705383.738243,26180841810.927521,-0.026974,0.033057,0.493262
1.100000,-1.900000,0.100303,0.040000,-14302904.729706,-906100634.202184,1002300590.773639,18464087527.492664,-0.017615,0.018340,0.347874
1.060000,-1.900000,0.100729,0.040000,-66500550.243206,-9678787103.506392,10002643889.411615,15218710625.961407,-0.184184,0.186625,0.286729
1.140000,-1.940000,0.060043,0.040000,72698075.164521,10975320228.047817,-13410013165.679760,23815579070.660164,0.220543,-0.238891,0.448699
1.180000,-1.940000,0.061255,0.040000,141946935.759816,20643923327.047337,-26033864634.444443,14097226764.523212,0.419408,-0.460028,0.265600
1.180000,-1.900000,0.100758,0.040000,79329468.283177,15994487014.866611,-16510469320.385489,9645051419.752991,0.304262,-0.308150,0.181718
1.140000,-1.900000,0.100026,0.040000,39404534.142331,8570308118.632854,-8786165609.664980,16596859102.774826,0.162690,-0.164316,0.312694
1.220000,-1.940000,0.060473,0.040000,166499532.295558,24475260661.817780,-31413369818.593376,-940310958.108329,0.500343,-0.552631,-0.017716
1.260000,-1.940000,0.060053,0.040000,136990465.557032,20230426300.107338,-26489814542.555233,-16967485721.625889,0.416532,-0.463704,-0.319677
1.260000,-1.900000,0.100032,0.040000,77406087.250286,15382399697.960791,-15982530058.405523,-11649584552.880507,0.293205,-0.297728,-0.219485
1.220000,-1.900000,0.100284,0.040000,93478728.206648,18781580432.120300,-19445878739.013527,-811601829.908757,0.357611,-0.362617,-0.015291
1.300000,-1.940000,0.061304,0.040000,61770688.256466,8236192902.065306,-11367830409.187683,-28114034589.524109,0.172875,-0.196476,-0.529685
1.340000,-1.940000,0.060443,0.040000,-33308524.540132,-7751010599.561366,9577208498.915413,-29170962142.614426,-0.156356,0.170118,-0.549598
1.340000,-1.900000,0.100266,0.040000,-14218496.858378,-5773729710.628228,5931055731.210903,-19412847523.958256,-0.109670,0.110855,-0.365749
1.300000,-1.900000,0.100788,0.040000,36619981.871058,6237857136.026725,-6557733485.466330,-18958359284.846348,0.119333,-0.121744,-0.357186
1.380000,-1.940000,0.060063,0.040000,-112156679.960265,-21433483866.247181,28399708854.638355,-18264221405.300182,-0.443194,0.495693,-0.344109
1.420000,-1.940000,0.061353,0.040000,-141854151.891846,-26579962926.398483,36383317367.421837,1432199272.179161,-0.556192,0.630073,0.026983
1.420000,-1.900000,0.100818,0.040000,-71677709.180673,-19805395399.907482,20816408772.883041,963734813.540314,-0.378860,0.386479,0.018157
1.380000,-1.900000,0.100038,0.040000,-55832552.950607,-16009926875.749451,16694612713.792620,-12005041707.026316,-0.305506,0.310666,-0.226182
1.460000,-1.940000,0.060415,0.040000,-108012727.253286,-19748059062.358566,27912170101.123432,21934531675.242752,-0.418210,0.479736,0.413259
1.500000,-1.940000,0.060075,0.040000,-25062825.126983,-2713860208.777754,4438923758.038170,32975642703.500851,-0.060881,0.073882,0.621280
1.500000,-1.900000,0.100045,0.040000,-15692988.133118,-2057071434.796417,2229181370.717879,20932070661.851982,-0.039729,0.041026,0.394372
1.460000,-1.900000,0.100249,0.040000,-55532796.067194,-14661248146.065931,15509068740.425722,14134937953.175188,-0.281018,0.287408,0.266310
1.540000,-1.940000,0.061404,0.040000,65929410.634436,16809431074.576353,-23731024478.571316,26893031508.128132,0.355821,-0.407984,0.506680
1.580000,-1.940000,0.060387,0.040000,115264741.567997,27584567911.095268,-40417448713.799751,4456181038.308973,0.592243,-0.688954,0.083957
1.580000,-1.900000,0.100233,0.040000,50902405.857354,19830693692.430218,-21168121303.018181,2843210457.225106,0.381181,-0.391260,0.053568
1.540000,-1.900000,0.100848,0.040000,27429469.423169,12143723604.582140,-12876636831.792742,16848944425.440113,0.232937,-0.238461,0.317444
1.620000,-1.940000,0.060087,0.040000,93127756.675235,21333044119.545788,-32443887489.525211,-22373446093.831238,0.464727,-0.548461,-0.421529
1.660000,-1.940000,0.061455,0.040000,13123418.513197,165650238.595467,-914611153.708303,-35186741791.997208,0.007354,-0.012999,-0.662939
1.660000,-1.900000,0.100880,0.040000,9154444.634195,384671145.384701,-468488357.948252,-20956456142.019646,0.007721,-0.008353,-0.394832
1.620000,-1.900000,0.100052,0.040000,42385936.672514,15332326621.563322,-16487131207.023676,-13414438860.546629,0.295397,-0.304100,-0.252736
1.700000,-1.940000,0.060360,0.040000,-68936127.619397,-21528778227.510052,33866223327.265110,-21932394666.155785,-0.475348,0.568326,-0.413219
1.740000,-1.940000,0.060100,0.040000,-90412150.508312,-25747037136.835751,42733059438.335945,9917158399.724403,-0.581097,0.709108,0.186845
1.740000,-1.900000,0.100060,0.040000,-34687809.057141,-18035478623.088860,19853613495.947685,5282321082.870099,-0.350075,0.363777,0.099522
1.700000,-1.900000,0.100217,0.040000,-24743021.215009,-14875629113.408329,16174168282.324108,-13112499510.155737,-0.287605,0.297391,-0.247047
1.780000,-1.940000,0.061507,0.040000,-34270440.416872,-7109426618.375194,12781839315.551552,33411835262.722279,-0.166007,0.208756,0.629498
1.820000,-1.940000,0.060335,0.040000,45897320.946410,17605545156.530613,-31624760843.286243,23867975418.866184,0.410938,-0.516590,0.449686
1.820000,-1.900000,0.100201,0.040000,12708399.670286,11752233017.945564,-13249790129.093208,13701624446.635567,0.229883,-0.241169,0.258147
1.780000,-1.900000,0.100912,0.040000,-15427547.265438,-5364613350.815042,6006445518.498569,18742389608.592670,-0.104700,0.109537,0.353117
1.860000,-1.940000,0.060115,0.040000,68083415.745947,22052805665.859581,-42127205467.277725,-11217008588.829988,0.528952,-0.680237,-0.211335
1.900000,-1.940000,0.061560,0.040000,10991526.866922,874278577.906876,-734963856.204876,-30842796493.522079,0.015684,-0.014635,-0.581096
1.900000,-1.900000,0.100944,0.040000,6102975.183015,1019538757.021160,-1012329937.542206,-16608586764.321798,0.019168,-0.019114,-0.312915
1.860000,-1.900000,0.100069,0.040000,21894542.536560,15280838611.309767,-17473181723.770519,-5483306020.568635,0.300291,-0.316813,-0.103309
1.940000,-1.940000,0.060310,0.040000,-48279190.462607,-17982864944.587677,40659512286.222580,-8602616106.864305,-0.466980,0.637876,-0.162078
1.980000,-1.940000,0.060130,0.040000,-28284505.459670,-9108319681.917700,17982888088.492439,21655036082.556839,-0.221767,0.288647,0.407993
1.980000,-1.900000,0.100078,0.040000,-8620205.211282,-6349120712.023374,7263189158.048138,11317356631.372738,-0.124788,0.131676,0.213226
1.940000,-1.900000,0.100186,0.040000,-11460232.768517,-12319478656.083820,14829793783.744133,-5277453527.407043,-0.246295,0.265213,-0.099430
2.020000,-1.940000,0.061614,0.040000,28768775.881234,8624154196.776348,-31601129316.570637,11636843879.362474,0.292354,-0.465514,0.219245
2.060000,-1.940000,0.060286,0.040000,19580791.313574,5064894029.775653,-14267586272.139252,-13311670087.273371,0.147441,-0.216794,-0.250800
2.060000,-1.900000,0.100172,0.040000,4890065.495231,4128748702.099895,-5402930154.376931,-7434303884.484294,0.084990,-0.094592,-0.140067
2.020000,-1.900000,0.100977,0.040000,4549185.540195,6883834787.476824,-9719345667.518101,6773271142.689966,0.145722,-0.167091,0.127612
2.100000,-1.940000,0.060146,0.040000,-21593549.761713,-4893377233.193769,24450564448.957661,-5701039508.895297,-0.202735,0.350122,-0.107411
2.140000,-1.940000,0.061669,0.040000,-881547.220639,-3725034912.743199,-1620860872.400428,6854410046.361154,-0.039966,-0.000322,0.129141
2.140000,-1.900000,0.101010,0.040000,-1142631.210003,-1375065368.692774,567119312.977697,4574159491.542096,-0.021340,0.015252,0.086180
2.100000,-1.900000,0.100088,0.040000,-2550576.249643,-4480034116.094437,6844102613.476765,-2986805809.074161,-0.097769,0.115585,-0.056273
2.180000,-1.940000,0.060263,0.040000,9465773.926000,-339101532.738346,-11654476733.861563,-1092394563.397374,0.061401,-0.151787,-0.020581
2.220000,-1.940000,0.060163,0.040000,-6443724.048224,-4278013667.916538,8463711254.418705,-2635714799.077126,-0.104259,0.135803,-0.049658
2.220000,-1.900000,0.100098,0.040000,-315935.524004,-2069707092.947242,2196747723.769421,-1115075506.398505,-0.039713,0.040670,-0.021009
2.180000,-1.900000,0.100158,0.040000,1175841.363786,1115857499.081563,-3101947242.989044,-1415473776.316495,0.032249,-0.047217,-0.026668
2.260000,-1.940000,0.061725,0.040000,2465730.298752,-3396676329.867539,-913997465.340714,3603530628.075094,-0.039631,0.007144,0.067893
2.300000,-1.940000,0.060242,0.040000,-581237.053764,2948600137.894914,-2993404948.971179,936969024.227760,0.055807,-0.056144,0.017653
2.300000,-1.900000,0.100145,0.040000,16129.563185,1023377547.363449,-665915161.013590,-291270394.936172,0.017261,-0.014567,-0.005488
2.260000,-1.900000,0.101044,0.040000,14564.732558,-978919801.703361,-56821666.784548,1936062025.512110,-0.012589,0.004784,0.036477
2.340000,-1.940000,0.060182,0.040000,87867.826705,50087056.139113,1526139504.250288,-1371598146.561913,-0.007965,0.019844,-0.025842
2.380000,-1.940000,0.061782,0.040000,-3286.390423,-122290127.653954,-123703012.334918,171699900.450557,-0.000914,-0.000940,0.003235
2.380000,-1.900000,0.101079,0.040000,4103.525998,-45235921.869200,-23023000.326038,64384955.010019,-0.000466,-0.000048,0.001213
2.340000,-1.900000,0.100109,0.040000,616.113145,-16426731.255671,265345257.174289,-275255981.702335,-0.001716,0.003592,-0.005186
2.420000,-1.940000,0.060221,0.040000,4267.380454,-25126864.714713,-37297072.452631,55963394.237487,-0.000121,-0.000350,0.001054
2.460000,-1.940000,0.042590,0.040000,4771.569251,-304803596.426757,20111994.032369,210226114.338825,-0.004134,0.001988,0.003961
2.460000,-1.900000,0.040250,0.040000,-16403.685652,-5031812326.857201,-2685686000.429806,5607102918.702502,-0.051182,-0.006979,0.105641
2.420000,-1.900000,0.080125,0.040000,4717.558471,-589105764.690630,-737648401.767963,1240519551.105798,-0.003600,-0.006399,0.023372
2.500000,-1.940000,0.014627,0.040000,-57371.004600,-2053473558.022655,-999950904.017442,719993417.037582,-0.021430,-0.001581,0.013565
2.500000,-1.900000,0.004478,0.040000,740837.886239,-11484579542.706043,-6650463387.641513,8685629227.268784,-0.113874,-0.022796,0.163642
-2.500000,-1.860000,0.005672,0.040000,-5371871.151818,-22304234219.019726,-17064888989.570278,-9838338008.865570,-0.197704,-0.098991,-0.185360
-2.500000,-1.820000,0.014030,0.040000,126637636.971080,-117148756470.302719,2006026500.232888,-72651798548.583557,-1.556344,0.688601,-1.368802
-2.460000,-1.860000,0.040400,0.040000,-241412.618418,-10033681679.712601,7062414682.207404,-4636977762.906556,-0.172246,0.149854,-0.087363
-2.420000,-1.860000,0.080201,0.040000,19841.915046,-1737338308.179764,2719646486.141847,427864634.094091,-0.038285,0.045688,0.008061
-2.420000,-1.820000,0.081221,0.040000,-69181.374770,-3067579292.456205,-7355786140.526730,-12167256444.011850,0.001120,-0.079673,-0.229238
-2.460000,-1.820000,0.042389,0.040000,1672747.488239,-27529274101.401596,-23941330177.597099,-41318439092.266373,-0.227747,-0.160148,-0.778463
-2.380000,-1.860000,0.120134,0.040000,9517.040971,-5337868.438357,13330309.205586,9823691.310519,-0.000146,0.000206,0.000185
-2.340000,-1.860000,0.140078,0.040000,9628.308744,-11867882.488295,11708182.360492,4907412.385719,-0.000223,0.000221,0.000092
-2.340000,-1.820000,0.160614,0.040000,10472.796671,-7440153.029252,10737390.131333,1431581.819694,-0.000159,0.000184,0.000027
-2.380000,-1.820000,0.120817,0.040000,8800.155177,-132352200.937693,351922773.216831,-58227191.146099,-0.003735,0.005389,-0.001097
-2.300000,-1.860000,0.140104,0.040000,13050.613271,32138151.503760,-29618828.084731,13336837.507740,0.000591,-0.000572,0.000251
-2.260000,-1.860000,0.140748,0.040000,-2957.888557,64530722.559005,-20094321.127136,-79371982.969078,0.000965,-0.000630,-0.001495
-2.260000,-1.820000,0.180582,0.040000,8152.897598,-455577.695415,6752370.787007,-1406594.320671,-0.000044,0.000092,-0.000027
-2.300000,-1.820000,0.180081,0.040000,9521.690197,-1826044.032070,-1241952.884581,-2524357.539162,-0.000017,-0.000006,-0.000048
-2.220000,-1.860000,0.140070,0.040000,1238.627434,-271976506.844260,221486244.564753,139352097.792175,-0.004839,0.004458,0.002625
-2.180000,-1.860000,0.140113,0.040000,162331.750147,310061210.434052,-387141699.102760,125672861.124753,0.006277,-0.006858,0.002368
-2.180000,-1.820000,0.180088,0.040000,18894.596947,54952252.250789,-67359829.734287,-24647285.816525,0.001105,-0.001199,-0.000464
-2.220000,-1.820000,0.180055,0.040000,17020.123971,-6802150.031345,3907527.385398,25517488.187514,-0.000112,0.000090,0.000481
-2.140000,-1.860000,0.140724,0.040000,-160192.485520,212989512.805086,-197133118.238964,-698809343.158864,0.003923,-0.003804,-0.013166
-2.100000,-1.860000,0.140063,0.040000,-548062.398869,-1267614010.067493,1349755644.661290,54890781.788541,-0.024347,0.024966,0.001034
-2.100000,-1.820000,0.180049,0.040000,-32250.800941,-219179621.163987,239856967.930582,121205459.675151,-0.004246,0.004402,0.002284
-2.140000,-1.820000,0.180563,0.040000,-53690.397002,-40576616.667019,49815570.055610,-110730305.499440,-0.000817,0.000886,-0.002086
-2.060000,-1.860000,0.140123,0.040000,681561.959248,35170689.688327,3497315.722484,1709015716.549266,0.000444,-0.000153,0.032199
-2.020000,-1.860000,0.140699,0.040000,1686486.652221,2408216891.474523,-2611206848.604432,80216099.239158,0.046520,-0.048049,0.001511
-2.020000,-1.820000,0.180545,0.040000,289581.579308,577671701.111687,-623828166.853966,-174640482.740931,0.011145,-0.011492,-0.003290
-2.060000,-1.820000,0.180096,0.040000,262846.652463,159503582.463213,-161947514.127298,344496013.262665,0.003019,-0.003037,0.006491
-1.980000,-1.860000,0.140056,0.040000,-695180.238649,706764381.989262,-851295805.424432,-2988684845.325192,0.014133,-0.015222,-0.056309
-1.940000,-1.860000,0.140133,0.040000,-3972041.877046,-3314524566.213113,3525738002.352512,-1873712358.858024,-0.063641,0.065233,-0.035302
-1.940000,-1.820000,0.180104,0.040000,-1144309.040236,-1086045926.593423,1142904632.897860,-308741699.613313,-0.020783,0.021212,-0.005817
-1.980000,-1.820000,0.180043,0.040000,-478661.192474,-31306848.559113,7577930.022391,-831600654.332621,-0.000456,0.000277,-0.015668
-1.900000,-1.860000,0.140676,0.040000,-2354926.783906,-3473510019.678074,3778031485.026817,2907598488.302275,-0.067164,0.069459,0.054781
-1.860000,-1.860000,0.140049,0.040000,4338206.321989,1347169202.705168,-1351107335.807383,5130992758.390134,0.025404,-0.025433,0.096671
-1.860000,-1.820000,0.180038,0.040000,1991403.068117,737916053.712409,-742806463.819012,1630268133.057308,0.013930,-0.013967,0.030715
-1.900000,-1.820000,0.180526,0.040000,-222962.452395,-914845664.783201,991468975.974988,1119324438.714335,-0.017669,0.018247,0.021089
-1.820000,-1.860000,0.140144,0.040000,8945200.689396,5770569369.847949,-6093310173.136645,1475999854.611047,0.110545,-0.112977,0.027809
-1.780000,-1.860000,0.140653,0.040000,4847919.401339,4757355403.263385,-5062391627.592546,-4630660481.343791,0.091355,-0.093654,-0.087244
-1.780000,-1.820000,0.180508,0.040000,941465.526792,1594767365.960554,-1687118430.329648,-1959495815.733978,0.030568,-0.031264,-0.036918
-1.820000,-1.820000,0.180112,0.040000,3065596.872383,2146945082.966799,-2240851002.765098,222496825.954386,0.040980,-0.041688,0.004192
-1.740000,-1.860000,0.140043,0.040000,-6422774.206168,-1119628057.118665,1112438205.079062,-7257020041.295882,-0.021054,0.021000,-0.136726
-1.700000,-1.860000,0.140155,0.040000,-15947267.073951,-6849201252.784066,7131374428.719867,-3866355606.392057,-0.130638,0.132764,-0.072844
-1.700000,-1.820000,0.180120,0.040000,-6831794.432780,-3007888913.626534,3096231272.906498,-1328646633.887712,-0.057170,0.057835,-0.025032
-1.740000,-1.820000,0.180034,0.040000,-3530726.088100,-748312673.170038,744059013.998666,-2810835464.316190,-0.014075,0.014043,-0.052958
-1.660000,-1.860000,0.140630,0.040000,-14964720.576297,-7824755552.031700,8163772032.744864,2978498187.077270,-0.149339,0.151894,0.056117
-1.620000,-1.860000,0.140037,0.040000,-1956063.637824,-3287962123.610317,3450969785.638675,8322653466.191045,-0.062868,0.064097,0.156804
-1.620000,-1.820000,0.180029,0.040000,700311.608826,-1230058762.162753,1289704189.649576,3814632598.515347,-0.023512,0.023962,0.071870
-1.660000,-1.820000,0.180490,0.040000,-5567015.538960,-3304661428.831951,3417498009.307657,1552514839.750790,-0.062900,0.063750,0.029250
-1.580000,-1.860000,0.140166,0.040000,16116337.729039,3724161971.851711,-3822522920.079906,8638499287.957926,0.070721,-0.071463,0.162754
-1.540000,-1.860000,0.140607,0.040000,28416025.282982,8938536498.884123,-9212311450.740995,3832254968.723635,0.169955,-0.172018,0.072202
-1.540000,-1.820000,0.180473,0.040000,13868967.414614,4404429441.098942,-4496537404.198634,1599417457.896139,0.083503,-0.084197,0.030134
-1.580000,-1.820000,0.180129,0.040000,8811356.353605,1980693746.251714,-2007859473.912310,3881320405.760412,0.037471,-0.037676,0.073126
-1.500000,-1.860000,0.140032,0.040000,26845222.461875,9508333248.308027,-9797972997.312048,-3279334854.802983,0.180780,-0.182962,-0.061785
-1.460000,-1.860000,0.140178,0.040000,10481799.730874,5316256191.272711,-5481375519.923061,-8976567914.861736,0.101095,-0.102339,-0.169124
-1.460000,-1.820000,0.180139,0.040000,3327830.366949,2529627683.281209,-2594430436.267473,-4624052790.855078,0.048026,-0.048514,-0.087120
-1.500000,-1.820000,0.180025,0.040000,12164750.032062,4643940390.403540,-4747655676.511749,-1821041092.773346,0.088081,-0.088862,-0.034309
-1.420000,-1.860000,0.140585,0.040000,-14178760.140909,-1457882886.024935,1471580677.529756,-10631530816.647902,-0.027545,0.027648,-0.200304
-1.380000,-1.860000,0.140027,0.040000,-36589238.208914,-7709070627.993335,7876254891.205281,-7721361232.925827,-0.146188,0.147448,-0.145475
-1.380000,-1.820000,0.180021,0.040000,-20650519.457081,-4229690655.384093,4284968835.374683,-3955255662.685990,-0.080002,0.080419,-0.074519
-1.420000,-1.820000,0.180456,0.040000,-9394840.365653,-944154641.598241,942650917.877826,-5458201897.230827,-0.017780,0.017769,-0.102836
-1.340000,-1.860000,0.140190,0.040000,-46966419.369941,-10914354449.150043,11154435062.463326,-1683751951.407222,-0.206990,0.208799,-0.031723
-1.300000,-1.860000,0.140564,0.040000,-40251926.574999,-10030290796.238562,10248722415.816877,4997425865.117134,-0.190211,0.191857,0.094154
-1.300000,-1.820000,0.180439,0.040000,-20821368.780181,-5514811553.905194,5594933117.884478,2861623217.394592,-0.104355,0.104959,0.053915
-1.340000,-1.820000,0.180148,0.040000,-25359940.578417,-5968517648.162182,6052910468.310282,-760934750.546363,-0.112927,0.113563,-0.014336
-1.260000,-1.860000,0.140023,0.040000,-17785129.338411,-5620628006.728717,5746510171.138471,9897550150.271843,-0.106607,0.107556,0.186476
-1.220000,-1.860000,0.140203,0.040000,13546430.560630,612388700.334951,-608931639.062530,11487042187.107454,0.011518,-0.011492,0.216423
-1.220000,-1.820000,0.180158,0.040000,10169252.539227,446711238.169169,-438400619.482705,6530660579.829883,0.008369,-0.008307,0.123041
-1.260000,-1.820000,0.180018,0.040000,-7723866.511393,-3082753628.863455,3132719314.475376,5592657509.471362,-0.058363,0.058740,0.105369
-1.180000,-1.860000,0.140542,0.040000,43956272.723404,6591134332.794169,-6692007626.138383,9480632664.687782,0.124751,-0.125511,0.178621
-1.140000,-1.860000,0.140018,0.040000,64035800.612377,10539839956.286854,-10705971490.848736,4716597023.746003,0.199516,-0.200768,0.088863
-1.140000,-1.820000,0.180014,0.040000,38503491.052258,6266327479.137063,-6321658252.515481,2709338510.854794,0.118374,-0.118791,0.051046
-1.180000,-1.820000,0.180422,0.040000,27376721.415777,3910412634.177123,-3940632433.052092,5434757634.898855,0.073845,-0.074073,0.102394
-1.100000,-1.860000,0.140216,0.040000,67539429.841153,11480605248.260340,-11661425362.784229,-1273699063.650693,0.217323,-0.218686,-0.023997
-1.060000,-1.860000,0.140522,0.040000,52943590.698508,9364251372.378740,-9513815143.700424,-6801872250.675396,0.177273,-0.178400,-0.128151
-1.060000,-1.820000,0.180406,0.040000,30480555.110689,5672438945.742029,-5726572347.709069,-4121550533.079854,0.107178,-0.107586,-0.077652
-1.100000,-1.820000,0.180168,0.040000,39865968.664845,6885508362.670903,-6948349531.979320,-803987051.752781,0.130082,-0.130556,-0.015148
-1.020000,-1.860000,0.140015,0.040000,23544133.024686,4940398452.511495,-5025701793.530191,-10490621426.450174,0.093562,-0.094205,-0.197649
-0.980000,-1.860000,0.140230,0.040000,-13704139.595311,-559838058.374203,552049406.190892,-11569305965.007643,-0.010504,0.010445,-0.217972
-0.980000,-1.820000,0.180179,0.040000,-10774053.968304,-358999881.185810,349228240.041051,-7122904672.184151,-0.006709,0.006635,-0.134200
-1.020000,-1.820000,0.180012,0.040000,12223035.441731,3019020357.708429,-3053294701.372715,-6398255947.096727,0.057074,-0.057332,-0.120547
-0.940000,-1.860000,0.140501,0.040000,-50121716.164269,-5795774475.170021,5854360995.819712,-9963986365.005615,-0.109527,0.109968,-0.187727
-0.900000,-1.860000,0.140012,0.040000,-77435002.062442,-9611539678.785427,9718940925.806475,-6210975587.970961,-0.181694,0.182503,-0.117018
-0.900000,-1.820000,0.180009,0.040000,-50024155.430336,-6083266007.433998,6113916693.546065,-3908132692.681614,-0.114786,0.115016,-0.073631
-0.940000,-1.820000,0.180390,0.040000,-33233957.334079,-3636629090.860952,3649958004.257074,-6197763453.452494,-0.068592,0.068692,-0.116769
-0.860000,-1.860000,0.140244,0.040000,-89590548.265711,-11287812113.044863,11418482806.932537,-1252710268.480726,-0.213407,0.214392,-0.023602
-0.820000,-1.860000,0.140481,0.040000,-83903918.923072,-10620270213.751356,10746891536.025665,3815605391.007619,-0.200808,0.201762,0.071888
-0.820000,-1.820000,0.180374,0.040000,-53282246.173645,-6850816967.386265,6891790163.179402,2412253915.134928,-0.129305,0.129614,0.045448
-0.860000,-1.820000,0.180190,0.040000,-57301900.793394,-7211623202.350563,7251568480.674571,-811698559.126694,-0.136097,0.136398,-0.015293
-0.780000,-1.860000,0.140009,0.040000,-61396357.294972,-7890002338.211833,7989122642.487636,7985193747.472438,-0.149212,0.149959,0.150446
-0.740000,-1.860000,0.140258,0.040000,-26361313.384730,-3745380296.923705,3801648583.856266,10516165646.105488,-0.070883,0.071307,0.198131
-0.740000,-1.820000,0.180201,0.040000,-15652404.918010,-2481629211.794937,2505928249.156476,6800132678.992785,-0.046893,0.047076,0.128118
-0.780000,-1.820000,0.180007,0.040000,-38512034.327412,-5143426752.304461,5178454286.603343,5114776194.280890,-0.097103,0.097367,0.096365
-0.700000,-1.860000,0.140462,0.040000,14655542.152000,970050546.139338,-958293813.730065,11039884243.236509,0.018210,-0.018121,0.207998
-0.660000,-1.860000,0.140006,0.040000,54199940.089967,5369224389.989060,-5401988975.992798,9579818348.438631,0.101344,-0.101591,0.180489
-0.660000,-1.820000,0.180005,0.040000,37016327.440425,3509739710.092989,-3511458525.349905,6305705495.948811,0.066135,-0.066148,0.118803
-0.700000,-1.820000,0.180359,0.040000,11131629.322764,594282128.522408,-583002746.343277,7201723598.715280,0.011133,-0.011048,0.135685
-0.620000,-1.860000,0.140273,0.040000,85297099.019650,8706913677.120422,-8775786184.743027,6502113450.689178,0.164433,-0.164952,0.122504
-0.580000,-1.860000,0.140442,0.040000,102639149.182842,10479961505.060684,-10568982811.045938,2415488376.656896,0.197952,-0.198623,0.045509
-0.580000,-1.820000,0.180344,0.040000,68800117.408318,6990065367.544606,-7010996688.813334,1651310435.846590,0.131815,-0.131973,0.031112
-0.620000,-1.820000,0.180212,0.040000,57420676.813348,5760213601.420706,-5773074296.147714,4327262425.836677,0.108598,-0.108695,0.081528
-0.540000,-1.860000,0.140004,0.040000,103394993.207210,10472609382.758339,-10567019620.479052,-1953046834.203537,0.197844,-0.198555,-0.036797
-0.500000,-1.860000,0.140288,0.040000,87550717.744491,8774781802.572039,-8860135268.798061,-5884902988.243876,0.165804,-0.166448,-0.110875
-0.500000,-1.820000,0.180224,0.040000,58554019.898722,5941557834.290329,-5967676534.447634,-3887344737.865906,0.112090,-0.112287,-0.073240
-0.540000,-1.820000,0.180003,0.040000,69208031.196376,7037168738.374204,-7062525060.944155,-1247127474.825917,0.132728,-0.132919,-0.023497
-0.460000,-1.860000,0.140424,0.040000,57773583.072369,5730567959.704617,-5797298756.229541,-8779844198.883982,0.108344,-0.108847,-0.165417
-0.420000,-1.860000,0.140003,0.040000,18865608.135878,1877440671.419485,-1915324697.589061,-10235805879.697544,0.035586,-0.035872,-0.192849
-0.420000,-1.820000,0.180002,0.040000,12342206.790272,1327763788.312871,-1346381036.221811,-6877860266.873796,0.025121,-0.025261,-0.129583
-0.460000,-1.820000,0.180330,0.040000,38544550.785406,3921915045.800305,-3945552896.769392,-5858720281.619080,0.074025,-0.074203,-0.110382
-0.380000,-1.860000,0.140303,0.040000,-23074278.208888,-2167649979.506654,2162374868.286021,-10091293879.975805,-0.040810,0.040770,-0.190126
-0.340000,-1.860000,0.140405,0.040000,-61631959.676324,-5797246281.916521,5819807346.714467,-8429463231.878165,-0.109351,0.109521,-0.158816
-0.340000,-1.820000,0.180315,0.040000,-42104236.290453,-3908488388.318787,3904010606.080816,-5732832183.034008,-0.073613,0.073579,-0.108010
-0.380000,-1.820000,0.180236,0.040000,-15981774.835113,-1422663466.078724,1410738742.359949,-6821377175.111211,-0.026736,0.026647,-0.128519
-0.300000,-1.860000,0.140001,0.040000,-91051585.510712,-8481433838.766615,8528961391.535895,-5549868212.138659,-0.160064,0.160422,-0.104563
-0.260000,-1.860000,0.140319,0.040000,-107063243.331865,-9862060963.074781,9926852171.142437,-1912658501.670431,-0.186173,0.186661,-0.036036
-0.260000,-1.820000,0.180248,0.040000,-73074109.382351,-6742015281.571520,6751298639.874886,-1347506478.087890,-0.127076,0.127146,-0.025388
-0.300000,-1.820000,0.180001,0.040000,-62112155.176879,-5767046342.965096,5769893404.920164,-3805787632.556160,-0.108671,0.108692,-0.071703
-0.220000,-1.860000,0.140387,0.040000,-107458318.981911,-9779301663.912951,9851032193.540545,1934708817.543910,-0.184653,0.185194,0.036451
-0.180000,-1.860000,0.140000,0.040000,-92348308.883117,-8283021816.079929,8351047722.412863,5435925547.197201,-0.156441,0.156954,0.102416
-0.180000,-1.820000,0.180000,0.040000,-63257218.896529,-5708759791.403430,5726006245.748421,3665178468.144304,-0.107654,0.107784,0.069054
-0.220000,-1.820000,0.180301,0.040000,-73445157.521187,-6713630000.485197,6727853099.103551,1270145939.154001,-0.126569,0.126676,0.023930
-0.140000,-1.860000,0.140336,0.040000,-64088561.803832,-5617275616.098482,5672535529.594553,8100919672.098882,-0.106145,0.106562,0.152626
-0.100000,-1.860000,0.140370,0.040000,-26892111.739877,-2177975426.578490,2216069410.427989,9568541793.866438,-0.041250,0.041537,0.180277
-0.100000,-1.820000,0.180288,0.040000,-18758610.224227,-1534607919.043103,1551524841.761952,6517079292.992539,-0.029009,0.029136,0.122786
-0.140000,-1.820000,0.180261,0.040000,-44078734.294251,-3891203289.514198,3909344838.796253,5498199700.734138,-0.073415,0.073552,0.103589
-0.060000,-1.860000,0.140000,0.040000,13802999.846070,1529290679.302334,-1515531949.285630,9650772939.913752,0.028735,-0.028631,0.181826
-0.020000,-1.860000,0.140352,0.040000,52120987.316724,4983051323.030351,-4994755479.796063,8353360119.767215,0.093950,-0.094038,0.157382
-0.020000,-1.820000,0.180274,0.040000,35194850.244914,3400777566.492159,-3391587599.028759,5713277764.526311,0.064021,-0.063951,0.107641
-0.060000,-1.820000,0.180000,0.040000,9003136.442452,1017738262.594415,-1003943994.417257,6588515621.092152,0.019097,-0.018993,0.124131
0.020000,-1.860000,0.140352,0.040000,82582105.628087,7702922320.332606,-7735213082.209542,5870964202.853962,0.145310,-0.145553,0.110612
0.060000,-1.860000,0.140000,0.040000,100871772.929386,9302051004.692753,-9351595979.582260,2559858197.271867,0.175536,-0.175909,0.048229
0.060000,-1.820000,0.180000,0.040000,68665728.204292,6382455072.983422,-6384506815.279406,1765281712.412580,0.120261,-0.120276,0.033259
0.020000,-1.820000,0.180274,0.040000,56067494.224042,5277180333.200430,-5273500370.086075,4023858054.899251,0.099404,-0.099377,0.075812
0.100000,-1.860000,0.140370,0.040000,104444153.212120,9557654117.173433,-9617203791.557131,-1109680214.621268,0.180408,-0.180857,-0.020907
0.140000,-1.860000,0.140336,0.040000,92880819.021837,8429537511.071547,-8490655755.659125,-4615738978.898823,0.159163,-0.159623,-0.086963
0.140000,-1.820000,0.180261,0.040000,63516552.637407,5784583942.448200,-5795894871.278342,-3127576658.291643,0.109049,-0.109134,-0.058925
0.100000,-1.820000,0.180288,0.040000,71244686.233832,6560383192.903600,-6567662092.930816,-738350393.672881,0.123643,-0.123697,-0.013911
0.180000,-1.860000,0.140000,0.040000,67955494.905034,6073354556.909247,-6125632684.359303,-7454197765.328983,0.114721,-0.115115,-0.140441
0.220000,-1.860000,0.140387,0.040000,33392852.601104,2815128061.311334,-2850934851.305762,-9207380914.482523,0.053241,-0.053511,-0.173472
0.220000,-1.820000,0.180301,0.040000,23315024.956246,1927192583.911098,-1940952591.319071,-6240026367.798167,0.036387,-0.036491,-0.117566
0.180000,-1.820000,0.180000,0.040000,46692902.502631,4163397496.320861,-4176985182.706379,-5056356135.486211,0.078518,-0.078620,-0.095265
0.260000,-1.860000,0.140319,0.040000,-5651746.802412,-884652425.101329,868403779.398002,-9603337941.447758,-0.016576,0.016453,-0.180932
0.300000,-1.860000,0.140001,0.040000,-43327530.703576,-4477080043.479602,4486370973.255322,-8559337446.184286,-0.084403,0.084473,-0.161263
0.300000,-1.820000,0.180001,0.040000,-28606114.884130,-3048035783.454994,3040172593.513543,-5774950666.091820,-0.057382,0.057323,-0.108803
0.260000,-1.820000,0.180248,0.040000,-3107819.739890,-600927712.272635,589160984.194239,-6496467393.587020,-0.011255,0.011167,-0.122397
0.340000,-1.860000,0.140405,0.040000,-73943391.442543,-7425853319.570047,7459601774.622639,-6201204924.631534,-0.140098,0.140352,-0.116834
0.380000,-1.860000,0.140303,0.040000,-92826244.782875,-9267292112.216816,9319109012.601921,-2854573633.874587,-0.174894,0.175285,-0.053782
0.380000,-1.820000,0.180236,0.040000,-62163370.990511,-6271359480.435210,6274449940.053070,-1905045198.932946,-0.118174,0.118197,-0.035892
0.340000,-1.820000,0.180315,0.040000,-49336202.786919,-5043139426.999846,5040513485.078563,-4168199555.700744,-0.095001,0.094981,-0.078531
0.420000,-1.860000,0.140003,0.040000,-97059644.942120,-9678650319.753197,9741658989.109322,990558224.030312,-0.182708,0.183182,0.018663
0.460000,-1.860000,0.140424,0.040000,-85987910.918930,-8548656789.744533,8612743401.305872,4742528256.600407,-0.161424,0.161907,0.089352
0.460000,-1.820000,0.180330,0.040000,-57917238.136305,-5734228803.756243,5746067466.625628,3175179390.127786,-0.108103,0.108192,0.059822
0.420000,-1.820000,0.180002,0.040000,-65156645.778725,-6523540232.589642,6531801684.242407,676676949.638671,-0.122954,0.123016,0.012749
0.500000,-1.860000,0.140288,0.040000,-61394190.781614,-6001263078.160260,6056277202.104261,7792052029.672309,-0.113378,0.113793,0.146807
0.540000,-1.860000,0.140004,0.040000,-27301474.693635,-2405062454.651982,2437644509.131644,9607082986.582550,-0.045497,0.045742,0.181003
0.540000,-1.820000,0.180003,0.040000,-19164948.390123,-1580987798.626211,1592076093.767499,6352588923.556561,-0.029849,0.029933,0.119686
0.500000,-1.820000,0.180224,0.040000,-41681068.089686,-4001112434.438892,4014062256.683715,5183196425.715251,-0.075456,0.075554,0.097654
0.580000,-1.860000,0.140442,0.040000,10601700.612710,1683798242.589483,-1680786533.679736,9825653323.210506,0.031707,-0.031684,0.185121
0.620000,-1.860000,0.140273,0.040000,45850576.692830,5581955206.094258,-5609344303.128325,8332476365.020470,0.105322,-0.105528,0.156989
0.620000,-1.820000,0.180212,0.040000,29059980.407190,3700165198.005642,-3700910584.619081,5435442419.432334,0.069717,-0.069723,0.102407
0.580000,-1.820000,0.180344,0.040000,5837025.731695,1139929465.667711,-1133635886.313251,6455991353.556969,0.021441,-0.021394,0.121635
0.660000,-1.860000,0.140006,0.040000,72289978.251359,8575691692.666643,-8634192621.711697,5305333768.182733,0.161902,-0.162343,0.099956
0.700000,-1.860000,0.140462,0.040000,85188896.786665,10070663631.091700,-10151185710.336386,1215704025.627519,0.190192,-0.190799,0.022905
0.700000,-1.820000,0.180359,0.040000,55101834.866627,6566856699.934712,-6582585100.987624,760255665.983710,0.123812,-0.123931,0.014324
0.660000,-1.820000,0.180005,0.040000,46492318.436144,5636447877.267879,-5645143752.228645,3428005227.470292,0.106243,-0.106309,0.064586
0.740000,-1.860000,0.140258,0.040000,82187640.232984,9695904580.567516,-9783525249.933603,-3223583936.598866,0.183172,-0.183832,-0.060734
0.780000,-1.860000,0.140009,0.040000,63882277.040395,7410748610.904798,-7486177267.448917,-7164422170.390211,0.140049,-0.140618,-0.134982
0.780000,-1.820000,0.180007,0.040000,41953529.039549,4747637374.697681,-4766938677.814348,-4582139095.232584,0.089557,-0.089703,-0.086330
0.740000,-1.820000,0.180201,0.040000,53433397.681686,6270407406.153856,-6290244738.598295,-2092638684.401694,0.118250,-0.118400,-0.039427
0.820000,-1.860000,0.140481,0.040000,33887526.048448,3552501530.682203,-3598039994.694899,-9775466309.125853,0.067189,-0.067532,-0.184175
0.860000,-1.860000,0.140244,0.040000,-1704195.078484,-1175949065.514403,1172907448.409690,-10417486456.467491,-0.022138,0.022115,-0.196271
0.860000,-1.820000,0.180190,0.040000,628508.935017,-759285482.284445,757342084.342485,-6529166125.891505,-0.014294,0.014280,-0.123013
0.820000,-1.820000,0.180374,0.040000,23047400.060863,2246438835.385244,-2259648356.887755,-6187785123.551911,0.042399,-0.042498,-0.116581
0.900000,-1.860000,0.140012,0.040000,-35438916.178428,-5793802768.184592,5844151566.172771,-8811159484.910025,-0.109443,0.109823,-0.166007
0.940000,-1.860000,0.140501,0.040000,-60035027.417743,-9250983214.864601,9348655911.845108,-5157140819.175804,-0.174846,0.175582,-0.097164
0.940000,-1.820000,0.180390,0.040000,-36148515.838715,-5748783432.524538,5775513990.884033,-3165300061.872638,-0.108461,0.108663,-0.059636
0.900000,-1.820000,0.180009,0.040000,-20604647.958018,-3643371961.269849,3655904159.883325,-5466584551.338712,-0.068714,0.068809,-0.102994
0.980000,-1.860000,0.140230,0.040000,-70051543.240160,-10640886021.759777,10766138052.758862,-167110592.274376,-0.201188,0.202132,-0.003148
1.020000,-1.860000,0.140015,0.040000,-63314402.170752,-9457676767.486473,9580837910.767218,5026440917.827826,-0.178884,0.179812,0.094701
1.020000,-1.820000,0.180012,0.040000,-39093412.487017,-5749673811.280095,5786422772.991757,3021489492.100897,-0.108535,0.108812,0.056927
0.980000,-1.820000,0.180179,0.040000,-42720415.929066,-6539158293.052360,6575379864.686691,-99294894.698648,-0.123406,0.123679,-0.001871
1.060000,-1.860000,0.140522,0.040000,-41702666.164483,-5804352177.657904,5890568741.565126,9093189609.875792,-0.109845,0.110494,0.171321
1.100000,-1.860000,0.140216,0.040000,-10975792.723749,-473442754.816809,492428387.347151,10835957779.502174,-0.009027,0.009170,0.204156
1.100000,-1.820000,0.180168,0.040000,-8470434.970458,-305835588.265306,309574967.698972,6359760528.171965,-0.005783,0.005811,0.119822
1.060000,-1.820000,0.180406,0.040000,-26505095.562857,-3496864827.204005,3522588080.707076,5400623193.322897,-0.066028,0.066222,0.101751
1.140000,-1.860000,0.140018,0.040000,20484950.698082,5140572017.093653,-5210581063.281743,9565515461.558111,0.097247,-0.097775,0.180220
1.180000,-1.860000,0.140542,0.040000,43859189.599382,9382795341.011862,-9531848641.366581,5412990650.456164,0.177620,-0.178743,0.101984
1.180000,-1.820000,0.180422,0.040000,23928778.363875,5382840825.701581,-5433019675.111244,3126166259.437570,0.101699,-0.102078,0.058899
1.140000,-1.820000,0.180014,0.040000,10041326.242787,2975845172.559678,-3000294766.271845,5552940576.161734,0.056205,-0.056389,0.104621
1.220000,-1.860000,0.140203,0.040000,52502515.077083,10793411895.442390,-10981706759.424892,-545922343.023739,0.204418,-0.205837,-0.010285
1.260000,-1.860000,0.140023,0.040000,44228731.624860,8662840413.046513,-8827564886.652086,-6464162941.219038,0.164144,-0.165385,-0.121789
1.260000,-1.820000,0.180018,0.040000,25491558.229547,4870880017.458772,-4924800539.420462,-3504237776.687551,0.092075,-0.092481,-0.066022
1.220000,-1.820000,0.180158,0.040000,29458496.926718,6122017239.371826,-6184905555.374448,-247026455.402682,0.115698,-0.116172,-0.004654
1.300000,-1.860000,0.140564,0.040000,22402234.007413,3453798831.120218,-3527472137.438470,-10235765899.450148,0.065488,-0.066043,-0.192848
1.340000,-1.860000,0.140190,0.040000,-4811716.627243,-3122151250.111908,3184382240.757646,-10261802197.693642,-0.059175,0.059644,-0.193338
1.340000,-1.820000,0.180148,0.040000,-605212.085244,-1569076463.199478,1595998537.566408,-5472748126.315801,-0.029714,0.029917,-0.103110
1.300000,-1.820000,0.180439,0.040000,13974661.364227,1974695740.710712,-1995926961.782333,-5509172966.556271,0.037324,-0.037484,-0.103796
1.380000,-1.860000,0.140027,0.040000,-27143702.919558,-8528785818.180784,8727718132.843384,-6230596497.607180,-0.161812,0.163311,-0.117388
1.420000,-1.860000,0.140585,0.040000,-36169628.159557,-10376953390.467121,10640281095.704292,450763878.849760,-0.196996,0.198981,0.008493
1.420000,-1.820000,0.180456,0.040000,-18158438.179694,-5326806618.602865,5417279313.478045,82880467.592010,-0.100871,0.101553,0.001562
1.380000,-1.820000,0.180021,0.040000,-12771614.800414,-4401585261.878376,4473498327.689946,-3334566749.019058,-0.083335,0.083877,-0.062825
1.460000,-1.860000,0.140178,0.040000,-29038535.775205,-7560179114.007168,7765614137.345116,6929078928.998430,-0.143599,0.145148,0.130548
1.500000,-1.860000,0.140032,0.040000,-10158297.581355,-1137367333.496241,1160618213.468449,10023206738.188572,-0.021560,0.021735,0.188843
1.500000,-1.820000,0.180025,0.040000,-6543761.056578,-736947257.643034,738998405.325575,4794168336.466663,-0.013896,0.013912,0.090325
1.460000,-1.820000,0.180139,0.040000,-15346090.237626,-3891581956.802308,3957686957.027177,3299466615.580442,-0.073693,0.074191,0.062164
1.540000,-1.860000,0.140607,0.040000,10483459.181252,5763629559.441205,-5963093563.117718,7891621377.536277,0.109718,-0.111221,0.148683
1.580000,-1.860000,0.140166,0.040000,22213431.304205,9280487893.488579,-9610938252.914837,1436075942.302597,0.176718,-0.179208,0.027057
1.580000,-1.820000,0.180129,0.040000,9482816.100476,4205999958.920503,-4317776283.674236,873713663.028899,0.079875,-0.080718,0.016461
1.540000,-1.820000,0.180473,0.040000,3410934.954900,2555618275.183503,-2628085303.250716,3802219665.022885,0.048559,-0.049105,0.071636
1.620000,-1.860000,0.140037,0.040000,19634248.446195,7114548592.124482,-7371635927.787687,-5628742431.291674,0.135495,-0.137433,-0.106049
1.660000,-1.860000,0.140630,0.040000,6109240.707823,475463569.539793,-461101912.747716,-8685483652.873291,0.008877,-0.008769,-0.163640
1.660000,-1.820000,0.180490,0.040000,3809007.920512,465325664.026481,-455216168.600749,-3620210970.138602,0.008710,-0.008634,-0.068207
1.620000,-1.820000,0.180029,0.040000,9152751.130622,3288414457.566214,-3369665491.814118,-2253943153.974699,0.062415,-0.063027,-0.042466
1.700000,-1.860000,0.140155,0.040000,-8173013.489558,-6033398684.209731,6339767900.066833,-5461436512.909831,-0.115404,0.117713,-0.102897
1.740000,-1.860000,0.140043,0.040000,-13289169.152028,-7395883648.800982,7761389467.383165,1611922241.079862,-0.141409,0.144163,0.030370
1.740000,-1.820000,0.180034,0.040000,-4990562.782218,-2926494579.693083,3037287803.040969,326887987.744776,-0.055763,0.056598,0.006159
1.700000,-1.820000,0.180120,0.040000,-2278822.939295,-2263814193.361680,2363813328.353401,-2399786121.585473,-0.043217,0.043970,-0.045213
1.780000,-1.860000,0.140653,0.040000,-7179520.705156,-2530895638.107759,2614642952.909189,6566792651.480649,-0.048157,0.048788,0.123722
1.820000,-1.860000,0.140144,0.040000,2806834.196643,3930030338.017749,-4226785256.653846,4960474890.928815,0.075721,-0.077958,0.093458
1.820000,-1.820000,0.180112,0.040000,213656.853044,1126165051.727919,-1210264671.482234,1886623726.963301,0.021693,-0.022327,0.035545
1.780000,-1.820000,0.180508,0.040000,-3312666.736351,-1209401555.862525,1232258280.197145,2270432327.972708,-0.022915,0.023087,0.042776
1.860000,-1.860000,0.140049,0.040000,6982673.390052,5478500902.131025,-5828983894.980400,-1194205855.978019,0.105199,-0.107840,-0.022500
1.900000,-1.860000,0.140676,0.040000,3021856.615318,902315848.989431,-876920512.023196,-4793628137.926941,0.016857,-0.016665,-0.090315
1.900000,-1.820000,0.180526,0.040000,1336378.975331,548797551.875960,-548613469.184712,-1370795132.152397,0.010339,-0.010337,-0.025827
1.860000,-1.820000,0.180038,0.040000,2124268.282528,1838626352.700846,-1934101473.857840,-87282269.871509,0.035180,-0.035900,-0.001644
1.940000,-1.860000,0.140133,0.040000,-2368165.522302,-3594920781.357973,3921853737.634929,-1967859502.415248,-0.069578,0.072042,-0.037076
1.980000,-1.860000,0.140056,0.040000,-2636975.185927,-2250901837.192049,2360547533.134706,2432164754.513127,-0.043028,0.043854,0.045823
1.980000,-1.820000,0.180043,0.040000,-750992.935199,-732114821.937280,768120319.164077,442441510.980542,-0.013997,0.014268,0.008336
1.940000,-1.820000,0.180104,0.040000,-306389.057177,-866201816.867301,941604410.472156,-771526826.501499,-0.016746,0.017314,-0.014536
2.020000,-1.860000,0.140699,0.040000,372610.284436,1693008599.834695,-1898736514.779168,1943225454.021732,0.033060,-0.034610,0.036611
2.060000,-1.860000,0.140123,0.040000,1169101.021057,1478301135.069432,-1569250770.935759,-1102308226.414487,0.028366,-0.029052,-0.020768
2.060000,-1.820000,0.180096,0.040000,236539.416717,383486539.571082,-411402028.392411,-89175557.708331,0.007383,-0.007593,-0.001680
2.020000,-1.820000,0.180545,0.040000,-128303.525112,229345232.255672,-262287655.673270,558105645.975836,0.004507,-0.004755,0.010515
2.100000,-1.860000,0.140063,0.040000,-119913.323768,-1018453072.333640,1070535464.140053,-895932841.958812,-0.019483,0.019875,-0.016880
2.140000,-1.860000,0.140724,0.040000,-312652.903780,-331625663.103464,403407002.965919,574115001.583688,-0.006654,0.007195,0.010817
2.140000,-1.820000,0.180563,0.040000,-50146.634851,-105234704.020558,123866465.506574,35290437.837501,-0.002088,0.002228,0.000665
2.100000,-1.820000,0.180049,0.040000,65122.506032,-83660073.467382,89528578.354888,-224759274.548562,-0.001609,0.001654,-0.004235
2.180000,-1.860000,0.140113,0.040000,97505.065354,478403659.248036,-493091277.408076,117670297.938119,0.009096,-0.009207,0.002217
2.220000,-1.860000,0.140070,0.040000,22793.402597,-332119326.829293,176899512.848570,-177857328.099659,-0.005380,0.004210,-0.003351
2.220000,-1.820000,0.180055,0.040000,10241.171409,-1715554.622406,-9118631.985101,-16017265.926620,0.000029,-0.000111,-0.000302
2.180000,-1.820000,0.180088,0.040000,-3518.783661,40660585.908004,-44032887.282097,51628544.194690,0.000785,-0.000811,0.000973
2.260000,-1.860000,0.140748,0.040000,-9899.530213,82481893.305810,-1653237.429821,61491089.020295,0.001097,-0.000488,0.001159
2.300000,-1.860000,0.140104,0.040000,5598.489091,24201454.023701,-27922745.425494,-6133000.531210,0.000477,-0.000505,-0.000116
2.300000,-1.820000,0.180081,0.040000,3339.481458,-1642894.250044,165698.014314,1094031.177179,-0.000023,0.000011,0.000021
2.260000,-1.820000,0.180582,0.040000,2929.717285,2018434.596661,5741446.299662,-3016973.211508,-0.000006,0.000064,-0.000057
2.340000,-1.860000,0.140078,0.040000,3654.203646,-13499276.897236,12463153.598633,-2317199.240515,-0.000248,0.000241,-0.000044
2.380000,-1.860000,0.120134,0.040000,4220.853578,19560618.556006,-65516770.560875,20929210.528512,0.000628,-0.000975,0.000394
2.380000,-1.820000,0.120817,0.040000,3775.002964,193360859.099142,-451160042.150131,-88856129.611686,0.005100,-0.007043,-0.001674
2.340000,-1.820000,0.160614,0.040000,3064.958991,11779443.208049,-13793882.769301,-475763.895056,0.000233,-0.000248,-0.000009
2.420000,-1.860000,0.080201,0.040000,-7659.065166,2512698956.882912,-4051848335.486761,352102760.978489,0.056040,-0.067640,0.006634
2.460000,-1.860000,0.040400,0.040000,287996.836215,13782944119.300749,-10746679762.442280,-6677248897.176043,0.242517,-0.219635,-0.125803
2.460000,-1.820000,0.042389,0.040000,-1874497.284032,-19103569272.561970,6697739854.334177,3950984306.094100,-0.289802,0.196309,0.074439
2.420000,-1.820000,0.081221,0.040000,103161.091517,-2069515841.468872,3419407239.318337,-4534186762.019352,-0.046621,0.056794,-0.085427
2.500000,-1.860000,0.005672,0.040000,-6184790.635859,25460914902.441833,12180840971.885509,-9836777715.226044,0.266941,0.016736,-0.185331
2.500000,-1.820000,0.014030,0.040000,-159055619.028222,3156915919.755332,-92662628181.219101,8493705156.567761,0.565380,-1.239916,0.160026
-2.500000,-1.780000,0.003881,0.040000,-355852566.690157,72795558281.206665,-165058012501.191223,-77126350323.932877,1.892994,-2.588305,-1.453105
-2.500000,-1.740000,0.006269,0.040000,-642227889.169339,232457146284.502777,-236546096748.829559,56148758583.125725,4.402739,-4.433554,1.057875
-2.460000,-1.780000,0.040188,0.040000,-5412022.022330,9471753478.218613,-114975690043.322052,-45525833966.210625,0.774780,-1.569882,-0.857733
-2.420000,-1.780000,0.080094,0.040000,354232.565054,8209461256.598725,-38291392761.254562,-17989552324.086475,0.324699,-0.551404,-0.338934
-2.420000,-1.740000,0.080245,0.040000,-609268.282943,18565141252.672264,-48775196230.301842,10157737883.498121,0.520531,-0.748200,0.191378
-2.460000,-1.740000,0.040488,0.040000,11578429.703378,42359922277.352966,-155543108741.326660,32305564626.369598,1.437817,-2.290791,0.608656
-2.380000,-1.780000,0.120063,0.040000,36261.975153,352279535.344593,-1275286421.334665,-54276704.948022,0.011854,-0.018810,-0.001023
-2.340000,-1.780000,0.160047,0.040000,7248.195254,6201551.333979,-26486697.300485,-18624863.149568,0.000231,-0.000384,-0.000351
-2.340000,-1.740000,0.160123,0.040000,3700.980820,44991790.695665,3347925.932693,30261122.337235,0.000574,-0.000210,0.000570
-2.380000,-1.740000,0.120164,0.040000,-127193.570826,1170322518.391631,-2595241562.264768,-60686232.665993,0.030103,-0.040842,-0.001143
-2.300000,-1.780000,0.200038,0.040000,9280.858223,1986094.625831,-1310757.974834,-960688.776161,0.000034,-0.000029,-0.000018
-2.260000,-1.780000,0.220477,0.040000,10035.529033,146993.069076,821288.409989,1654240.929527,-0.000003,0.000010,0.000031
-2.260000,-1.740000,0.240082,0.040000,10072.219930,-1004007.534586,834134.351486,884193.140170,-0.000018,0.000017,0.000017
-2.300000,-1.740000,0.200098,0.040000,11787.883503,1989120.479440,124568.865301,8769659.680394,0.000026,-0.000010,0.000165
-2.220000,-1.780000,0.220045,0.040000,10870.936534,2416640.392612,-3606741.006361,1867887.528871,0.000052,-0.000061,0.000035
-2.180000,-1.780000,0.220072,0.040000,6276.253104,4598349.424389,-6055964.923300,-11299498.558880,0.000095,-0.000106,-0.000213
-2.180000,-1.740000,0.260061,0.040000,8324.247984,-1264719.512743,885161.528292,-1882610.500981,-0.000022,0.000019,-0.000035
-2.220000,-1.740000,0.260038,0.040000,9375.589873,257213.380892,-664888.643005,-791251.435716,0.000007,-0.000010,-0.000015
-2.140000,-1.780000,0.220461,0.040000,-2124.739842,-19566944.007388,24993043.988495,-10955850.963203,-0.000399,0.000440,-0.000206
-2.100000,-1.780000,0.220040,0.040000,24504.610544,-24834895.087915,30059479.867475,50605552.417535,-0.000497,0.000537,0.000953
-2.100000,-1.740000,0.260034,0.040000,18096.659345,1857838.632945,-47606.956050,11524651.133215,0.000025,-0.000011,0.000217
-2.140000,-1.740000,0.260390,0.040000,9520.172774,-5226214.164489,6546235.827370,2095127.206711,-0.000106,0.000116,0.000039
-2.060000,-1.780000,0.220078,0.040000,78234.297255,70315939.603629,-80438412.478413,61898994.880962,0.001382,-0.001458,0.001166
-2.020000,-1.780000,0.220446,0.040000,16739.434416,108687433.650532,-133481549.651502,-114710022.313068,0.002188,-0.002375,-0.002161
-2.020000,-1.740000,0.260377,0.040000,-12535.084098,19634877.995131,-26414136.534124,-41082520.540601,0.000408,-0.000459,-0.000774
-2.060000,-1.740000,0.260066,0.040000,20938.892287,27071218.354531,-30104419.554355,2916153.990225,0.000527,-0.000550,0.000055
-1.980000,-1.780000,0.220035,0.040000,-205859.883593,-98956645.688855,98685078.064297,-235800001.965647,-0.001863,0.001861,-0.004443
-1.940000,-1.780000,0.220085,0.040000,-276710.315667,-301400625.293976,357255175.533392,22844029.455739,-0.005994,0.006415,0.000430
-1.940000,-1.740000,0.260072,0.040000,-34831.861487,-113488529.253147,123855446.702502,52572136.504639,-0.002197,0.002275,0.000990
-1.980000,-1.740000,0.260030,0.040000,-64817.488051,-58205532.261268,62940981.012061,-48072629.875044,-0.001123,0.001159,-0.000906
-1.900000,-1.780000,0.220431,0.040000,156489.564687,-139085187.619056,193968321.400444,439943319.532722,-0.002931,0.003344,0.008289
-1.860000,-1.780000,0.220031,0.040000,851664.546205,309082105.862101,-356542070.874064,507871372.290532,0.006092,-0.006449,0.009569
-1.860000,-1.740000,0.260027,0.040000,335132.028865,188547156.044215,-183857311.184150,105687372.254321,0.003526,-0.003490,0.001991
-1.900000,-1.740000,0.260365,0.040000,143341.759951,-15477592.695922,15564537.580192,143873463.748575,-0.000292,0.000293,0.002711
-1.820000,-1.780000,0.220092,0.040000,966636.085308,699429423.856727,-810368730.663335,-34098971.723979,0.013805,-0.014641,-0.000642
-1.780000,-1.780000,0.220416,0.040000,-90812.375662,457896066.144820,-528696771.938806,-910411444.583169,0.009027,-0.009561,-0.017153
-1.780000,-1.740000,0.260352,0.040000,-247494.775155,133571728.645939,-166660385.249886,-360315469.766429,0.002704,-0.002953,-0.006789
-1.820000,-1.740000,0.260077,0.040000,252335.119272,302827371.440905,-318509866.381509,-69646205.914165,0.005794,-0.005912,-0.001312
-1.740000,-1.780000,0.220027,0.040000,-1837343.405548,-494856908.629747,506876750.387048,-1142063110.904345,-0.009391,0.009482,-0.021517
-1.700000,-1.780000,0.220099,0.040000,-2851089.472219,-1166644696.088820,1327696159.423196,-356080553.292409,-0.022891,0.024104,-0.006709
-1.700000,-1.740000,0.260083,0.040000,-1125989.084294,-627671749.989344,639817240.730492,-5438992.586299,-0.011894,0.011986,-0.000102
-1.740000,-1.740000,0.260023,0.040000,-900407.721704,-301574423.479230,323826726.341030,-386463909.681116,-0.005808,0.005975,-0.007281
-1.660000,-1.780000,0.220401,0.040000,-1847712.464745,-1170909534.494386,1357218591.246134,807844233.871904,-0.023114,0.024518,0.015220
-1.620000,-1.780000,0.220024,0.040000,1199110.633945,-409399648.441355,451100255.505990,1862881625.106092,-0.007949,0.008263,0.035098
-1.620000,-1.740000,0.260020,0.040000,1016417.023402,-92375944.672174,142701134.657153,794329902.617206,-0.002025,0.002404,0.014966
-1.660000,-1.740000,0.260340,0.040000,-457959.417463,-568579741.820855,578653930.522759,388861223.649188,-0.010769,0.010845,0.007326
-1.580000,-1.780000,0.220106,0.040000,4792562.400677,1091648947.537562,-1150265407.582218,1828620018.500947,0.020899,-0.021340,0.034452
-1.540000,-1.780000,0.220387,0.040000,6702445.795289,1938465883.192071,-2167507554.973935,543167518.153050,0.037816,-0.039543,0.010234
-1.540000,-1.740000,0.260327,0.040000,3169325.894271,1146903645.347399,-1157191701.499209,71920215.924649,0.021666,-0.021744,0.001355
-1.580000,-1.740000,0.260090,0.040000,2565566.424787,663907449.454006,-704360010.186503,736176340.514171,0.012737,-0.013042,0.013870
-1.500000,-1.780000,0.220020,0.040000,5270685.693269,1971239442.783205,-2221623190.553963,-1002574962.683473,0.038555,-0.040441,-0.018889
-1.460000,-1.780000,0.220113,0.040000,425181.904776,1121307543.774832,-1219539923.903625,-2550538445.840189,0.021681,-0.022422,-0.048054
-1.460000,-1.740000,0.260096,0.040000,-566041.494857,535449318.589923,-602398515.691316,-1266232231.959583,0.010467,-0.010971,-0.023857
-1.500000,-1.740000,0.260017,0.040000,2108362.021623,1112541868.371124,-1122256214.248989,-527416443.960141,0.021016,-0.021089,-0.009937
-1.420000,-1.780000,0.220373,0.040000,-6146197.300438,-746389871.519045,731924635.557855,-2913406035.826523,-0.013981,0.013872,-0.054890
-1.380000,-1.780000,0.220017,0.040000,-11697873.759313,-2063488469.692641,2290366756.953229,-1974544410.055503,-0.040160,0.041869,-0.037202
-1.380000,-1.740000,0.260015,0.040000,-6611023.470231,-1376195468.925629,1349258588.448374,-827177076.869082,-0.025776,0.025573,-0.015584
-1.420000,-1.740000,0.260316,0.040000,-3946727.648786,-509280734.523310,560687027.879430,-1380539405.773954,-0.009886,0.010273,-0.026010
-1.340000,-1.780000,0.220121,0.040000,-13608718.043012,-3000642637.877163,3275774915.798878,-400902183.167161,-0.058089,0.060162,-0.007553
-1.300000,-1.780000,0.220359,0.040000,-10485427.519484,-2792887594.798845,3036595165.823229,1849249666.806171,-0.053997,0.055834,0.034841
-1.300000,-1.740000,0.260304,0.040000,-5064518.466963,-1716037807.580850,1770321611.930075,1108279255.757813,-0.032638,0.033047,0.020881
-1.340000,-1.740000,0.260103,0.040000,-7214314.304632,-1883853005.333916,1915294579.783097,-141831793.770339,-0.035671,0.035908,-0.002672
-1.260000,-1.780000,0.220014,0.040000,-2742179.997647,-1342079907.439064,1546859796.337427,3227426607.789455,-0.026443,0.027986,0.060807
-1.220000,-1.780000,0.220129,0.040000,7516308.425883,199003049.232519,-259187785.352532,3821126013.659930,0.004090,-0.004543,0.071992
-1.220000,-1.740000,0.260109,0.040000,5452078.187021,268861161.043000,-193030193.713918,2018417687.252740,0.004637,-0.004065,0.038028
-1.260000,-1.740000,0.260012,0.040000,-440896.312592,-835900026.320548,794107900.561900,1707502922.996933,-0.015513,0.015198,0.032170
-1.180000,-1.780000,0.220346,0.040000,17198285.542328,2315779241.086092,-2434280799.162646,3253123409.844106,0.044300,-0.045193,0.061291
-1.140000,-1.780000,0.220012,0.040000,23218696.388709,3376471745.802802,-3677250865.587072,1436053230.340169,0.065315,-0.067581,0.027056
-1.140000,-1.740000,0.260010,0.040000,14012018.857329,2322776882.924364,-2305585944.582159,634338199.680500,0.043665,-0.043536,0.011951
-1.180000,-1.740000,0.260292,0.040000,10856763.670145,1552638999.227830,-1617187736.795983,1743441672.127405,0.029617,-0.030104,0.032847
-1.100000,-1.780000,0.220138,0.040000,23437692.884086,3771579961.477670,-4086693914.394920,-436166202.143027,0.072840,-0.075215,-0.008218
-1.060000,-1.780000,0.220332,0.040000,17268460.057452,3219873460.754281,-3445943627.258264,-2715964363.854954,0.061942,-0.063646,-0.051170
-1.060000,-1.740000,0.260281,0.040000,9570628.140976,2140407454.641165,-2199500571.690664,-1664369124.909714,0.040661,-0.041106,-0.031358
-1.100000,-1.740000,0.260117,0.040000,13691782.870750,2557852227.400239,-2566963546.411117,-255794861.253133,0.048243,-0.048312,-0.004819
-1.020000,-1.780000,0.220009,0.040000,5817079.387169,1496173254.774240,-1695945475.904935,-3967250880.223285,0.029318,-0.030823,-0.074745
-0.980000,-1.780000,0.220146,0.040000,-8433245.868433,-96099037.744392,156956871.057471,-4495986150.867172,-0.002155,0.002613,-0.084707
-0.980000,-1.740000,0.260124,0.040000,-6533664.320032,-176271612.488878,92411024.673871,-2602018061.223453,-0.002847,0.002215,-0.049024
-1.020000,-1.740000,0.260008,0.040000,2325337.203102,1040735209.244398,-982174300.940687,-2271678962.350532,0.019277,-0.018836,-0.042800
-0.940000,-1.780000,0.220319,0.040000,-22264135.061362,-2299168862.043248,2389552262.564234,-4000655240.443639,-0.043829,0.044510,-0.075375
-0.900000,-1.780000,0.220007,0.040000,-32498937.071618,-3489378260.399710,3774107912.790371,-2374966285.440124,-0.067351,0.069497,-0.044746
-0.900000,-1.740000,0.260006,0.040000,-21215432.209666,-2529540736.234356,2488690131.655197,-1297565377.520416,-0.047427,0.047119,-0.024447
-0.940000,-1.740000,0.260270,0.040000,-15035157.736719,-1601605157.992974,1670459642.775217,-2355719900.412359,-0.030564,0.031083,-0.044383
-0.860000,-1.780000,0.220155,0.040000,-36719512.932143,-4289105464.825151,4583437676.555363,-637754367.417052,-0.082473,0.084691,-0.012016
-0.820000,-1.780000,0.220306,0.040000,-33769504.252965,-4131485473.216043,4402854067.423162,1723864420.369640,-0.079373,0.081419,0.032479
-0.820000,-1.740000,0.260259,0.040000,-21348299.963857,-2940468004.207563,2972503647.024516,1153627519.500912,-0.055581,0.055823,0.021735
-0.860000,-1.740000,0.260131,0.040000,-23563980.451724,-3058079368.207558,3074561358.644680,-415201367.107270,-0.057709,0.057833,-0.007823
-0.780000,-1.780000,0.220006,0.040000,-23958484.783703,-2963486655.143772,3228072438.266354,3278367191.418101,-0.057329,0.059323,0.061766
-0.740000,-1.780000,0.220164,0.040000,-8955143.734101,-1650588694.823572,1708320970.095372,4557420356.011238,-0.031424,0.031859,0.085864
-0.740000,-1.740000,0.260139,0.040000,-4852852.004792,-1125392077.933081,1206286880.839355,2833592853.814066,-0.021660,0.022270,0.053387
-0.780000,-1.740000,0.260005,0.040000,-14757922.407929,-2169006130.810975,2120191470.512798,1961451683.324564,-0.040589,0.040222,0.036955
-0.700000,-1.780000,0.220294,0.040000,8578920.587147,533954389.443880,-485266471.784240,4811001112.519312,0.009785,-0.009418,0.090642
-0.660000,-1.780000,0.220004,0.040000,25520339.080055,2008571163.396346,-2192194401.516695,4166243543.731433,0.038881,-0.040264,0.078494
-0.660000,-1.740000,0.260003,0.040000,17747382.241802,1535313247.707689,-1460308443.069770,2544859817.126211,0.028502,-0.027937,0.047947
-0.700000,-1.740000,0.260249,0.040000,6657295.874467,342688564.615409,-417084762.167342,2974598252.055772,0.006877,-0.007438,0.056043
-0.620000,-1.780000,0.220174,0.040000,38867131.421863,3655810319.618003,-3843065444.236466,3028325751.665985,0.069936,-0.071347,0.057055
-0.580000,-1.780000,0.220282,0.040000,46265477.544849,4300315522.706537,-4590161610.946680,1001457959.626851,0.082659,-0.084843,0.018868
-0.580000,-1.740000,0.260238,0.040000,31218545.842770,3193923780.294713,-3171826884.751285,546169406.320301,0.060050,-0.059884,0.010290
-0.620000,-1.740000,0.260147,0.040000,26453084.638041,2660030287.740663,-2704943198.932447,1946210247.803272,0.050370,-0.050709,0.036668
-0.540000,-1.780000,0.220003,0.040000,46394072.273491,4367660411.489480,-4657932073.748651,-702578830.097548,0.083930,-0.086117,-0.013237
-0.500000,-1.780000,0.220183,0.040000,39153400.808934,3822424256.453673,-4030515006.016931,-2746234563.630081,0.073193,-0.074761,-0.051741
-0.500000,-1.740000,0.260155,0.040000,26184773.514194,2812724799.454975,-2855302501.792451,-1807861813.992540,0.053234,-0.053555,-0.034061
-0.540000,-1.740000,0.260002,0.040000,31156765.716122,3250481953.178678,-3236123632.098313,-369821269.194546,0.061160,-0.061052,-0.006968
-0.460000,-1.780000,0.220270,0.040000,25644440.097039,2352727338.210967,-2563286567.001886,-3926656951.274194,0.045517,-0.047104,-0.073980
-0.420000,-1.780000,0.220002,0.040000,7955960.379962,1016502634.951195,-1022281650.975549,-4742982561.863263,0.019184,-0.019228,-0.089361
-0.420000,-1.740000,0.260001,0.040000,5046161.681005,709119092.975248,-789666083.297844,-3045737411.671473,0.013815,-0.014423,-0.057383
-0.460000,-1.740000,0.260228,0.040000,17019805.030117,1808068434.356778,-1746211839.882287,-2454761047.371908,0.033715,-0.033249,-0.046249
-0.380000,-1.780000,0.220193,0.040000,-11192951.645295,-1032167107.570384,1020705709.574564,-4726038656.050843,-0.019382,0.019295,-0.089041
-0.340000,-1.780000,0.220258,0.040000,-28891142.401935,-2332659773.092391,2521483958.686521,-3898589978.905840,-0.045016,0.046439,-0.073452
-0.340000,-1.740000,0.260218,0.040000,-19914063.212717,-1791121038.634144,1719316341.635020,-2469831652.371905,-0.033340,0.032799,-0.046533
-0.380000,-1.740000,0.260163,0.040000,-7918281.641075,-709235253.078752,777812967.965770,-3045359215.738008,-0.013750,0.014267,-0.057376
-0.300000,-1.780000,0.220001,0.040000,-42484026.679646,-3743922007.808357,3927896701.148144,-2756579326.647923,-0.071578,0.072964,-0.051936
-0.260000,-1.780000,0.220203,0.040000,-49966206.806190,-4266392526.960264,4532616791.595295,-835558595.570074,-0.081886,0.083892,-0.015742
-0.260000,-1.740000,0.260172,0.040000,-34237999.397786,-3221159025.637648,3197691186.449705,-479242756.021473,-0.060556,0.060379,-0.009029
-0.300000,-1.740000,0.260001,0.040000,-29143246.100127,-2778856920.208794,2812215824.976229,-1848124555.679053,-0.052544,0.052795,-0.034820
-0.220000,-1.780000,0.220247,0.040000,-50264288.132230,-4266774863.610396,4534047683.036181,734474006.767278,-0.081899,0.083913,0.013838
-0.180000,-1.780000,0.220000,0.040000,-43374809.523938,-3749938963.194952,3941221970.880179,2626917365.631506,-0.071732,0.073174,0.049493
-0.180000,-1.740000,0.260000,0.040000,-29783604.572547,-2805131088.398040,2841629212.547944,1749486731.541119,-0.053057,0.053332,0.032961
-0.220000,-1.740000,0.260209,0.040000,-34456896.919317,-3229908124.744186,3209475986.228235,386884076.682311,-0.060738,0.060584,0.007289
-0.140000,-1.780000,0.220214,0.040000,-30344020.446206,-2389556632.935518,2588929305.725408,3735365701.870483,-0.046148,0.047650,0.070376
-0.100000,-1.780000,0.220235,0.040000,-13098214.360115,-1154381541.856783,1167551258.826024,4551777751.189588,-0.021824,0.021923,0.085758
-0.100000,-1.740000,0.260199,0.040000,-9161497.332787,-830286128.144124,905580819.003500,2962879008.147043,-0.016069,0.016636,0.055822
-0.140000,-1.740000,0.260181,0.040000,-20917549.140443,-1860093251.429594,1799198522.880583,2366850182.928644,-0.034701,0.034242,0.044593
-0.060000,-1.780000,0.220000,0.040000,5847118.809264,776361327.326926,-752343518.963210,4601888401.103009,0.014491,-0.014310,0.086702
-0.020000,-1.780000,0.220224,0.040000,23756047.259097,2031840941.554131,-2198959813.100956,3919874773.201140,0.039226,-0.040485,0.073853
-0.020000,-1.740000,0.260190,0.040000,16028066.743900,1570455959.399832,-1498010899.948562,2511646524.562073,0.029179,-0.028633,0.047321
-0.060000,-1.740000,0.260000,0.040000,3775185.997374,519433669.942364,-585166753.080185,2995434558.850688,0.010158,-0.010653,0.056436
0.020000,-1.780000,0.220224,0.040000,38066606.098614,3457554363.217041,-3617868150.056350,2906720257.115572,0.066048,-0.067257,0.054764
0.060000,-1.780000,0.220000,0.040000,46756416.222485,4041575887.999876,-4292947837.106894,1126881400.587524,0.077566,-0.079461,0.021231
0.060000,-1.740000,0.260000,0.040000,31851506.684548,3060577853.453941,-3030551739.042462,675191927.944660,0.057493,-0.057267,0.012721
0.020000,-1.740000,0.260190,0.040000,25847862.760971,2570138548.568810,-2603462222.829720,1953013405.129405,0.048611,-0.048862,0.036796
0.100000,-1.780000,0.220235,0.040000,48629675.194385,4180133516.425232,-4433092280.915439,-377941057.757512,0.080186,-0.082092,-0.007121
0.140000,-1.780000,0.220214,0.040000,43486386.929599,3773556379.545993,-3967889408.133346,-2260007289.499694,0.072194,-0.073659,-0.042580
0.140000,-1.740000,0.260181,0.040000,29810893.130245,2821897579.366113,-2850424450.101533,-1508890665.705972,0.053327,-0.053542,-0.028428
0.100000,-1.740000,0.260199,0.040000,33219300.029186,3160043523.109006,-3142402205.831768,-157124307.802040,0.059437,-0.059304,-0.002960
0.180000,-1.780000,0.220000,0.040000,32150225.202415,2551722546.750462,-2754631479.156796,-3416532989.011846,0.049223,-0.050752,-0.064369
0.220000,-1.780000,0.220247,0.040000,16350036.019029,1380576745.600103,-1407573133.680644,-4342907790.495708,0.026163,-0.026367,-0.081823
0.220000,-1.740000,0.260209,0.040000,11511036.930403,995798028.754174,-1066294076.288250,-2810498655.858593,0.019160,-0.019691,-0.052951
0.180000,-1.740000,0.260000,0.040000,22183770.324207,1970847564.854104,-1912166232.257900,-2147398613.373261,0.036800,-0.036358,-0.040458
0.260000,-1.780000,0.220203,0.040000,-1530430.939626,-516242344.285232,479887393.152760,-4492552782.478516,-0.009521,0.009247,-0.084642
0.300000,-1.780000,0.220001,0.040000,-18801688.824651,-1790084612.900402,1947839432.971519,-3921240911.224394,-0.034618,0.035807,-0.073878
0.300000,-1.740000,0.260001,0.040000,-12301841.894079,-1379264187.043663,1307845263.091389,-2483433215.349208,-0.025582,0.025044,-0.046789
0.260000,-1.740000,0.260172,0.040000,-590948.904261,-323012374.982846,389695994.782007,-2891892215.772925,-0.006463,0.006965,-0.054485
0.340000,-1.780000,0.220258,0.040000,-32868984.209284,-3271533516.487560,3425445700.965226,-2958722882.778269,-0.062508,0.063667,-0.055744
0.380000,-1.780000,0.220193,0.040000,-41627363.192739,-3901479345.434128,4153885217.195626,-1194358830.087351,-0.074933,0.076835,-0.022502
0.380000,-1.740000,0.260163,0.040000,-27880413.002183,-2921528197.412225,2891946969.597856,-705204794.422923,-0.054876,0.054653,-0.013286
0.340000,-1.740000,0.260218,0.040000,-21870158.044895,-2404077739.662191,2440484383.954981,-1955384867.678645,-0.045500,0.045774,-0.036841
0.420000,-1.780000,0.220002,0.040000,-43792664.097260,-4074045792.477333,4329419621.223985,337227948.904961,-0.078201,0.080125,0.006354
0.460000,-1.780000,0.220270,0.040000,-39115748.848045,-3658071351.724769,3852762736.912277,2260032382.536948,-0.070021,0.071488,0.042580
0.460000,-1.740000,0.260228,0.040000,-26491171.631778,-2691295432.441449,2722076136.164021,1475386545.445555,-0.050880,0.051112,0.027797
0.420000,-1.740000,0.260001,0.040000,-29474395.568901,-3037168110.506182,3021306353.883100,127122957.787474,-0.057132,0.057013,0.002395
0.500000,-1.780000,0.220183,0.040000,-28441195.913361,-2373841034.751429,2573378585.769725,3435562827.903810,-0.045852,0.047356,0.064728
0.540000,-1.780000,0.220003,0.040000,-13592572.095279,-1132670938.166640,1142971198.792927,4312348769.809289,-0.021398,0.021476,0.081247
0.540000,-1.740000,0.260002,0.040000,-9720209.124976,-793206863.838062,864687313.777003,2709537581.800972,-0.015348,0.015887,0.051049
0.500000,-1.740000,0.260155,0.040000,-19500631.336651,-1808050600.577895,1748043882.598050,2105917967.359360,-0.033726,0.033273,0.039677
0.580000,-1.780000,0.220282,0.040000,2907860.307955,840547142.866812,-830073668.566107,4358689686.313045,0.015777,-0.015698,0.082120
0.620000,-1.780000,0.220174,0.040000,18249758.602151,2129719885.374606,-2319431273.900888,3565647531.660107,0.041197,-0.042627,0.067179
0.620000,-1.740000,0.260147,0.040000,11342645.059243,1590067701.868154,-1526405289.330590,2176704659.969902,0.029598,-0.029118,0.041010
0.580000,-1.740000,0.260238,0.040000,1177818.403556,549271521.159559,-617692557.644477,2729105392.696857,0.010735,-0.011251,0.051418
0.660000,-1.780000,0.220004,0.040000,29815310.825435,3497345317.160710,-3692288849.313540,2390728272.091859,0.066994,-0.068463,0.045043
0.700000,-1.780000,0.220294,0.040000,35651147.071182,3947223420.890702,-4214766332.058557,388922522.870163,0.075880,-0.077896,0.007328
0.700000,-1.740000,0.260249,0.040000,23072533.255863,2862839449.570730,-2853002834.275931,192028046.656767,0.053882,-0.053808,0.003618
0.660000,-1.740000,0.260003,0.040000,19062812.954832,2508493199.769238,-2541771799.299444,1553113587.849797,0.047450,-0.047700,0.029262
0.740000,-1.780000,0.220164,0.040000,34845527.411506,3712506750.061728,-3982498247.119889,-1245867917.779174,0.071472,-0.073507,-0.023473
0.780000,-1.780000,0.220006,0.040000,27731894.804635,2946880760.511046,-3098855750.535324,-3065908878.232827,0.056380,-0.057525,-0.057764
0.780000,-1.740000,0.260005,0.040000,18438988.071827,2088497637.503869,-2140395313.574953,-1871172088.240035,0.039642,-0.040033,-0.035254
0.740000,-1.740000,0.260139,0.040000,22790138.111268,2700713690.749844,-2675326809.760317,-658176719.288543,0.050740,-0.050548,-0.012400
0.820000,-1.780000,0.220306,0.040000,15863052.466738,1202035415.114988,-1343817606.214046,-3959886103.734788,0.023448,-0.024517,-0.074607
0.860000,-1.780000,0.220155,0.040000,1738431.221753,-259419830.167890,349264521.288988,-4180589358.327474,-0.005395,0.006073,-0.078765
0.860000,-1.740000,0.260131,0.040000,2116608.951717,-209555226.735641,138176678.197883,-2465448597.318807,-0.003545,0.003007,-0.046450
0.820000,-1.740000,0.260259,0.040000,11018191.337877,934250903.392118,-865824526.658638,-2325069656.777980,0.017215,-0.016699,-0.043806
0.900000,-1.780000,0.220007,0.040000,-11684321.146132,-2204868497.025742,2314707125.212923,-3568495950.405103,-0.042162,0.042990,-0.067233
0.940000,-1.780000,0.220319,0.040000,-21610916.925033,-3196457310.239265,3467092664.208638,-1916059830.830796,-0.061753,0.063792,-0.036100
0.940000,-1.740000,0.260270,0.040000,-12804769.512702,-2236411453.650203,2208274860.509851,-1090302154.003514,-0.041976,0.041764,-0.020542
0.900000,-1.740000,0.260006,0.040000,-6404692.990969,-1475511129.998731,1537844240.064488,-2154017740.348175,-0.028152,0.028622,-0.040583
0.980000,-1.780000,0.220146,0.040000,-26039788.214237,-3697186356.437787,3976034785.050016,-225730510.117982,-0.071233,0.073335,-0.004253
1.020000,-1.780000,0.220009,0.040000,-24251795.468710,-3313621573.242859,3531632901.156522,1937605071.632233,-0.063663,0.065306,0.036506
1.020000,-1.740000,0.260008,0.040000,-15096571.102434,-2264867354.146950,2306120739.550343,1103035774.768423,-0.042905,0.043215,0.020782
0.980000,-1.740000,0.260124,0.040000,-15848745.454958,-2557013272.036355,2563965884.518320,-256818715.965020,-0.048215,0.048267,-0.004839
1.060000,-1.780000,0.220332,0.040000,-17022933.086548,-1849898731.367486,2042745390.467894,3209369821.286942,-0.035943,0.037397,0.060466
1.100000,-1.780000,0.220138,0.040000,-6471249.170657,-390677530.448990,342353278.420427,3842463072.446554,-0.007087,0.006723,0.072394
1.100000,-1.740000,0.260117,0.040000,-4865944.935283,-263080560.752007,329781211.501463,2112365776.187779,-0.005334,0.005836,0.039798
1.060000,-1.740000,0.260281,0.040000,-11014835.538322,-1345281879.638939,1289484018.808180,1715934802.728698,-0.025031,0.024610,0.032329
1.140000,-1.780000,0.220012,0.040000,4466343.887988,1654957012.459188,-1748021814.376930,3403119221.612681,0.031706,-0.032408,0.064117
1.180000,-1.780000,0.220346,0.040000,12825805.251624,2718305647.453307,-2990924892.767079,1799541189.236367,0.052755,-0.054810,0.033904
1.180000,-1.740000,0.260292,0.040000,6703615.296627,1775717212.238809,-1758935773.342966,973884591.172441,0.033361,-0.033234,0.018349
1.140000,-1.740000,0.260010,0.040000,1617570.388109,1000646438.548017,-1069665477.188401,1911617012.854367,0.019243,-0.019763,0.036016
1.220000,-1.780000,0.220129,0.040000,16474208.903088,3163666476.781545,-3445321547.493357,61496420.763335,0.061197,-0.063320,0.001159
1.260000,-1.780000,0.220014,0.040000,14772833.341200,2625210880.365082,-2813660818.194128,-2011423172.284150,0.050526,-0.051946,-0.037896
1.260000,-1.740000,0.260012,0.040000,8576533.773628,1688847810.742189,-1739230550.252076,-1007264170.840143,0.032104,-0.032483,-0.018977
1.220000,-1.740000,0.260109,0.040000,9151922.501142,2057426350.231995,-2071692923.496689,187320847.805619,0.038844,-0.038951,0.003529
1.300000,-1.780000,0.220359,0.040000,8799304.275877,959663048.609526,-1089104060.132730,-3012838870.859657,0.018812,-0.019788,-0.056764
1.340000,-1.780000,0.220121,0.040000,993610.731473,-510443680.962376,640292048.316868,-3006283118.995066,-0.010351,0.011330,-0.056640
1.340000,-1.740000,0.260103,0.040000,1384893.014590,-279236803.313790,234803491.214629,-1493006885.611389,-0.005010,0.004675,-0.028129
1.300000,-1.740000,0.260304,0.040000,5549266.975516,725452608.101153,-670213928.269291,-1458574852.543813,0.013356,-0.012939,-0.027480
1.380000,-1.780000,0.220017,0.040000,-5714132.153667,-2090637479.175992,2279381080.715779,-1980762707.820744,-0.040456,0.041878,-0.037319
1.420000,-1.780000,0.220373,0.040000,-9015238.520634,-2478163394.710928,2733932306.322880,10757547.487727,-0.048136,0.050063,0.000203
1.420000,-1.740000,0.260316,0.040000,-4386401.737758,-1473736604.086807,1499164949.614410,-53082208.607119,-0.027910,0.028101,-0.001000
1.380000,-1.740000,0.260015,0.040000,-2342127.992807,-1192580527.344795,1249563434.226050,-1080433501.778013,-0.022791,0.023220,-0.020356
1.460000,-1.780000,0.220113,0.040000,-8136883.566523,-1776397591.645612,1986825981.085150,1513024557.078036,-0.034658,0.036244,0.028506
1.500000,-1.780000,0.220020,0.040000,-4128784.681519,-596080187.286028,583152962.588600,2392663783.904629,-0.011157,0.011060,0.045079
1.500000,-1.740000,0.260017,0.040000,-2537085.310544,-397114016.834186,440009640.918416,1048771583.432644,-0.007724,0.008048,0.019759
1.460000,-1.740000,0.260096,0.040000,-4294951.263759,-1125507280.843330,1109923654.066737,559677164.268839,-0.021117,0.021000,0.010545
1.540000,-1.780000,0.220387,0.040000,683726.205883,1037368755.081915,-1141429765.930793,1989765960.004321,0.020133,-0.020917,0.037488
1.580000,-1.780000,0.220106,0.040000,3889200.231342,1669931476.330999,-1890323477.621462,496743246.769038,0.032708,-0.034369,0.009359
1.580000,-1.740000,0.260090,0.040000,1480469.756241,884041984.817767,-901998491.898328,276922613.579650,0.016757,-0.016893,0.005217
1.540000,-1.740000,0.260327,0.040000,-221666.508961,467826029.879686,-525176850.775005,931337217.399749,0.009138,-0.009570,0.017547
1.620000,-1.780000,0.220024,0.040000,4238138.884529,1345219077.718213,-1523955204.472650,-828864460.006790,0.026355,-0.027702,-0.015616
1.660000,-1.780000,0.220401,0.040000,2231217.777054,429784617.817015,-418333091.531053,-1583704590.205656,0.008033,-0.007946,-0.029838
1.660000,-1.740000,0.260340,0.040000,1236223.377987,284088729.967915,-311517344.494241,-593859930.776000,0.005507,-0.005714,-0.011189
1.620000,-1.740000,0.260020,0.040000,1919970.520743,775372256.145934,-776501535.434313,-203160955.861780,0.014615,-0.014623,-0.003828
1.700000,-1.780000,0.220099,0.040000,-361587.613474,-752570321.834856,853868868.992825,-1172613776.595739,-0.014751,0.015515,-0.022093
1.740000,-1.780000,0.220027,0.040000,-1783094.985328,-1031105911.826493,1179782610.212713,16574600.266959,-0.020267,0.021387,0.000312
1.740000,-1.740000,0.260023,0.040000,-572630.701943,-482509903.199185,503802227.192481,-61351003.038586,-0.009211,0.009372,-0.001156
1.700000,-1.740000,0.260083,0.040000,150832.774038,-285419201.415456,327771760.001236,-501554393.995120,-0.005617,0.005936,-0.009450
1.780000,-1.780000,0.220416,0.040000,-1477546.607401,-485110488.700508,559697075.996325,776614850.518556,-0.009561,0.010123,0.014632
1.820000,-1.780000,0.220092,0.040000,-271865.826065,180182019.394870,-253553196.720671,751160586.547037,0.003809,-0.004362,0.014152
1.820000,-1.740000,0.260077,0.040000,-242920.195423,24952935.238148,-22050732.286183,256064305.139006,0.000454,-0.000432,0.004824
1.780000,-1.740000,0.260352,0.040000,-623794.260948,-295040593.106617,286968121.251827,192842774.543317,-0.005513,0.005452,0.003633
1.860000,-1.780000,0.220031,0.040000,573430.237216,535743730.907028,-628243978.644321,138821118.809556,0.010617,-0.011314,0.002615
1.900000,-1.780000,0.220431,0.040000,531714.828752,276013746.797560,-296564459.679376,-405640647.922662,0.005316,-0.005471,-0.007643
1.900000,-1.740000,0.260365,0.040000,187701.063927,137798342.165813,-148507907.902490,-88258752.235888,0.002657,-0.002737,-0.001663
1.860000,-1.740000,0.260027,0.040000,111223.761560,210490211.589022,-228751651.716117,111045197.206969,0.004069,-0.004207,0.002092
1.940000,-1.780000,0.220085,0.040000,61085.824834,-163835809.266189,199122671.742663,-317221555.413610,-0.003286,0.003552,-0.005977
1.980000,-1.780000,0.220035,0.040000,-180754.450246,-205456349.346992,241398087.541411,59131847.132555,-0.004074,0.004345,0.001114
1.980000,-1.740000,0.260030,0.040000,-26619.516503,-71427193.545265,78051530.725153,-9436417.879818,-0.001383,0.001433,-0.000178
1.940000,-1.740000,0.260072,0.040000,72925.670611,-22190987.918516,35045791.712207,-98913839.411934,-0.000491,0.000588,-0.001864
2.020000,-1.780000,0.220446,0.040000,-89482.082325,1237539.019040,-4058712.774505,159510033.353847,0.000039,-0.000061,0.003005
2.060000,-1.780000,0.220078,0.040000,30738.781877,74492140.857620,-93474921.976634,20276450.991645,0.001511,-0.001654,0.000382
2.060000,-1.740000,0.260066,0.040000,-2012.276741,16393363.666413,-18721155.761925,14080123.626481,0.000322,-0.000340,0.000265
2.020000,-1.740000,0.260377,0.040000,-32242.932313,-22093374.179840,19092411.606254,28808910.326578,-0.000399,0.000377,0.000543
2.100000,-1.780000,0.220040,0.040000,30730.719773,8807758.730695,-12545084.401302,-46839376.002495,0.000187,-0.000215,-0.000882
2.140000,-1.780000,0.220461,0.040000,518.368926,-17199964.634846,23760533.020671,-9058165.122549,-0.000361,0.000411,-0.000171
2.140000,-1.740000,0.260390,0.040000,4904.366447,-1588830.013163,2665750.615837,-4791797.295189,-0.000036,0.000044,-0.000090
2.100000,-1.740000,0.260034,0.040000,8983.608629,9996327.065430,-10050403.723839,-3700622.713132,0.000189,-0.000189,-0.000070
2.180000,-1.780000,0.220072,0.040000,-1089.913386,-1320244.592076,1951154.976852,9713992.246464,-0.000028,0.000033,0.000183
2.220000,-1.780000,0.220045,0.040000,3449.801557,2075850.521444,-3738436.628820,1105304.940558,0.000049,-0.000061,0.000021
2.220000,-1.740000,0.260038,0.040000,3036.154751,257563.726479,-378316.668107,392598.831790,0.000006,-0.000006,0.000007
2.180000,-1.740000,0.260061,0.040000,2521.539773,-1924767.518561,2113267.000870,218941.546988,-0.000037,0.000039,0.000004
2.260000,-1.780000,0.220477,0.040000,3520.219492,222008.236742,-1447.850603,-677928.703194,0.000003,-0.000001,-0.000013
2.300000,-1.780000,0.200038,0.040000,3757.612013,-3220871.441325,1746944.774967,94836.942451,-0.000052,0.000041,0.000002
2.300000,-1.740000,0.200098,0.040000,765.757054,945992.122491,-1664650.354503,9610790.746127,0.000022,-0.000027,0.000181
2.260000,-1.740000,0.240082,0.040000,3107.896242,1771183.967774,-1308580.598562,107709.490814,0.000031,-0.000027,0.000002
2.340000,-1.780000,0.160047,0.040000,7124.698476,-15529208.654180,36547466.788326,-21109222.261192,-0.000411,0.000570,-0.000398
2.380000,-1.780000,0.120063,0.040000,-21067.520849,-493546758.398460,1568854745.532640,-4001347.039957,-0.015377,0.023480,-0.000075
2.380000,-1.740000,0.120164,0.040000,168398.454969,613473087.795374,-2948495879.182858,162634926.240901,0.024756,-0.042353,0.003064
2.340000,-1.740000,0.160123,0.040000,5253.433225,-44991442.162897,-11482420.815944,56380636.196976,-0.000528,0.000103,0.001062
2.420000,-1.780000,0.080094,0.040000,-486069.312267,-5206439279.731060,-10863235868.543598,18979806832.542397,-0.007264,-0.113841,0.357591
2.460000,-1.780000,0.040188,0.040000,5740476.034131,-34925763212.845177,-32797488973.133224,52496218516.804970,-0.275238,-0.235140,0.989059
2.460000,-1.740000,0.040488,0.040000,-10151568.331356,8927439970.871508,-154562328680.995483,62852028098.379349,0.991352,-2.088890,1.184169
2.420000,-1.740000,0.080245,0.040000,1215076.047098,12136282943.251167,-49701072796.392891,21363342818.333599,0.440977,-0.724074,0.402498
2.500000,-1.780000,0.003881,0.040000,476586117.359093,-248270010064.893372,126729203618.223892,93802601261.496841,-3.990581,3.074621,1.767295
2.500000,-1.740000,0.006269,0.040000,-945745603.295418,230641179509.756775,-416878914592.932007,107377227480.492859,5.398062,-6.801592,2.023049
-2.500000,-1.700000,0.013433,0.040000,-56643004.485532,-12743933713.206369,-44866195444.931503,141351050831.702911,0.085519,-0.519683,2.663136
-2.500000,-1.660000,0.003284,0.040000,586146092.087217,-257807577265.936584,184700849351.375488,41474765559.999550,-4.444032,3.893083,0.781409
-2.460000,-1.700000,0.042195,0.040000,-29383347.924330,2344199780.742682,-6249679460.848272,83016633147.458725,0.066241,-0.095673,1.564081
-2.420000,-1.700000,0.081120,0.040000,-905896.991416,903746247.922744,-5785557594.768014,31497741073.854523,0.044620,-0.081410,0.593436
-2.420000,-1.660000,0.080067,0.040000,6187145.806726,-21372681840.419750,29678931961.387363,3325204123.230088,-0.449622,0.512220,0.062649
-2.460000,-1.660000,0.040135,0.040000,57454044.087160,-74004463185.262756,66855443733.175568,20682442622.415325,-1.353879,1.300003,0.389669
-2.380000,-1.700000,0.120749,0.040000,219279.029740,-14405265.836133,335980904.019703,999778332.082744,-0.002089,0.004512,0.018836
-2.340000,-1.700000,0.160563,0.040000,62757.236611,-80255790.381333,20982835.970815,89502498.296766,-0.001177,0.000730,0.001686
-2.340000,-1.660000,0.160034,0.040000,-24747.803567,-218425542.632084,228031049.201892,-280847821.068605,-0.004170,0.004242,-0.005291
-2.380000,-1.660000,0.120045,0.040000,475398.599224,-2567343087.569650,2980989642.338676,-1015077974.122208,-0.050708,0.053826,-0.019125
-2.300000,-1.700000,0.200451,0.040000,13657.981717,-24161538.826061,16076569.872792,-4649000.761402,-0.000410,0.000349,-0.000088
-2.260000,-1.700000,0.240376,0.040000,8363.561518,-2601989.017724,1536403.624058,-4196375.945366,-0.000043,0.000035,-0.000079
-2.260000,-1.660000,0.240022,0.040000,4875.919598,9629161.658779,-8319888.118525,-4916120.435401,0.000174,-0.000164,-0.000093
-2.300000,-1.660000,0.200027,0.040000,-14227.808020,6391677.130696,-3443121.995184,-52543314.470785,0.000104,-0.000082,-0.000990
-2.220000,-1.700000,0.280322,0.040000,9024.200289,419164.290909,-480282.482862,-1173429.165464,0.000008,-0.000009,-0.000022
-2.180000,-1.700000,0.300053,0.040000,9452.030439,-247987.010742,346826.512246,-24170.466274,-0.000005,0.000006,-0.000000
-2.180000,-1.660000,0.320017,0.040000,9950.143961,223176.502027,-11477.282464,793317.833036,0.000003,-0.000001,0.000015
-2.220000,-1.660000,0.280019,0.040000,9628.445274,2476874.010561,-1818105.112203,1198314.848070,0.000043,-0.000038,0.000023
2.180000,-1.700000,0.300053,0.040000,3076.833595,-611462.260536,637311.845625,-312690.900915,-0.000012,0.000012,-0.000006
2.220000,-1.700000,0.280322,0.040000,3447.995933,-960037.383613,799510.941381,-587274.064173,-0.000017,0.000016,-0.000011
2.220000,-1.660000,0.280019,0.040000,2338.784263,-2293770.786840,1612467.159151,2470504.995228,-0.000039,0.000034,0.000047
2.180000,-1.660000,0.320017,0.040000,2583.227163,3949.032454,-145737.960054,575313.228285,0.000001,-0.000002,0.000011
2.260000,-1.700000,0.240376,0.040000,5068.770699,1181184.102943,-359952.162776,-5189439.964183,0.000018,-0.000011,-0.000098
2.300000,-1.700000,0.200451,0.040000,2343.827178,27317169.361669,-17584590.841562,-15723072.667829,0.000460,-0.000386,-0.000296
2.300000,-1.660000,0.200027,0.040000,33270.573933,-35828612.130742,25409802.806610,-49226225.771667,-0.000616,0.000538,-0.000927
2.260000,-1.660000,0.240022,0.040000,6529.849675,-13540934.481942,11059386.893296,-53346.179492,-0.000241,0.000222,-0.000001
2.340000,-1.700000,0.160563,0.040000,-56211.200265,149897311.792711,-62796711.461582,50907991.502961,0.002332,-0.001675,0.000959
2.380000,-1.700000,0.120749,0.040000,-376649.893248,975690103.025776,-2061283316.961200,1000182982.353918,0.024519,-0.032700,0.018844
2.380000,-1.660000,0.120045,0.040000,-195395.085287,2725450809.678568,-3404154875.361035,-2118001738.183804,0.055185,-0.060300,-0.039904
2.340000,-1.660000,0.160034,0.040000,103684.701798,116698521.424821,-170540443.284263,-385889258.569191,0.002503,-0.002909,-0.007270
2.420000,-1.700000,0.081120,0.040000,-217646.837679,16147176989.546885,-71611556515.220917,-1250128456.575916,0.617716,-1.035709,-0.023553
2.460000,-1.700000,0.042195,0.040000,28953655.100485,16028463357.544727,-226482721218.425934,-4274881402.686436,1.491510,-3.077542,-0.080541
2.460000,-1.660000,0.040135,0.040000,-77920319.258691,32981702856.149395,-113056316437.209991,-62923154386.585793,1.073990,-1.677451,-1.185509
2.420000,-1.660000,0.080067,0.040000,-6571814.990606,19584554617.185642,-45223599241.329758,-23033346802.703930,0.513901,-0.707122,-0.433962
2.500000,-1.700000,0.013433,0.040000,-233761524.753393,23731811744.790733,-119494544655.107330,-9304358397.175783,0.988389,-1.710079,-0.175300
2.500000,-1.660000,0.003284,0.040000,-831599371.591949,186293792989.301758,-377910625801.103333,-101142266935.122635,4.592935,-6.037004,-1.905579
-2.500000,-1.620000,0.006866,0.040000,29765077.438287,48946788245.348122,58637372749.766739,-41923671718.866196,0.314101,0.496678,-0.789866
-2.500000,-1.580000,0.012836,0.040000,-174564758.581697,102842075821.944290,-36279318761.457649,-32944649749.281700,1.561380,-1.059748,-0.620696
-2.460000,-1.620000,0.040585,0.040000,-33829680.462114,28180701294.192554,67500795748.932526,-27434217503.349564,-0.009868,0.730946,-0.516877
-2.420000,-1.620000,0.080294,0.040000,-7636953.278010,4958620054.458182,17414866632.646103,-16178627986.189209,-0.033036,0.201647,-0.304815
-2.420000,-1.580000,0.081023,0.040000,-7995751.585654,12876291517.901045,5878415219.058979,6562710790.604343,0.136592,0.004748,0.123645
-2.460000,-1.580000,0.042009,0.040000,-62894686.446834,45306588592.300285,42986443480.967361,-12779978423.800776,0.354555,0.310842,-0.240782
-2.380000,-1.620000,0.120196,0.040000,-1633577.998046,2355441950.345051,-1721970635.988475,-2170699313.494153,0.040797,-0.036023,-0.040897
-2.340000,-1.620000,0.160147,0.040000,-274315.123671,611305687.396616,-555620784.763344,-141872929.128457,0.011203,-0.010783,-0.002673
-2.340000,-1.580000,0.160514,0.040000,246224.003515,307683693.635601,-270512189.879802,914124476.011480,0.005587,-0.005307,0.017223
-2.380000,-1.580000,0.120685,0.040000,-374964.079556,3088760758.606401,-2220751631.319863,3863674172.378516,0.053288,-0.046746,0.072794
-2.300000,-1.620000,0.200118,0.040000,-15638.162361,121325314.308703,-106512519.444431,38386879.659032,0.002202,-0.002090,0.000723
-2.260000,-1.620000,0.240098,0.040000,15853.484880,16539732.567753,-13731946.842583,21466550.789159,0.000296,-0.000275,0.000404
-2.260000,-1.580000,0.240343,0.040000,42373.157879,-36429812.246736,34545892.135514,31029509.688259,-0.000676,0.000662,0.000585
-2.300000,-1.580000,0.200411,0.040000,126617.061853,-42567092.039326,42982496.141491,194447260.665367,-0.000804,0.000807,0.003663
-2.220000,-1.620000,0.280084,0.040000,13329.033511,-948249.866786,1469613.826615,6502559.937919,-0.000021,0.000025,0.000123
-2.180000,-1.620000,0.320074,0.040000,10325.676851,-1612231.745834,1529148.357717,998839.218495,-0.000030,0.000029,0.000019
-2.180000,-1.580000,0.320257,0.040000,8486.833461,-3805768.478600,3220175.362372,-2542112.124414,-0.000068,0.000064,-0.000048
-2.220000,-1.580000,0.280294,0.040000,14341.580617,-12913410.399855,10462134.590174,164872.891996,-0.000229,0.000211,0.000003
2.180000,-1.620000,0.320074,0.040000,2478.423287,2200631.761190,-1954904.328276,226857.083197,0.000040,-0.000038,0.000004
2.220000,-1.620000,0.280084,0.040000,-1103.021917,4210818.781352,-3958420.499905,5991022.234081,0.000078,-0.000076,0.000113
2.220000,-1.580000,0.280294,0.040000,2488.250950,14305381.894712,-11230673.401755,-7698636.450740,0.000252,-0.000229,-0.000145
2.180000,-1.580000,0.320257,0.040000,5131.783110,2723571.525216,-1915645.907126,-3809964.637309,0.000047,-0.000041,-0.000072
2.260000,-1.620000,0.240098,0.040000,-9822.835499,-6511704.823288,4649991.408021,29313800.844643,-0.000112,0.000098,0.000552
2.300000,-1.620000,0.200118,0.040000,1015.359240,-121010406.928690,106691786.856622,99894680.305392,-0.002199,0.002091,0.001882
2.300000,-1.580000,0.200411,0.040000,-154870.893377,176235434.238365,-161847171.973168,174111947.942729,0.003239,-0.003131,0.003280
2.260000,-1.580000,0.240343,0.040000,-25838.248765,59532973.071265,-54417247.687909,10340333.720840,0.001093,-0.001054,0.000195
2.340000,-1.620000,0.160147,0.040000,258816.660136,-854556833.824010,791838125.244555,146549266.715725,-0.015746,0.015273,0.002761
2.380000,-1.620000,0.120196,0.040000,2162723.272448,-4765888881.990153,4254545395.475136,-1230425614.952075,-0.086902,0.083048,-0.023182
2.380000,-1.580000,0.120685,0.040000,-1250908.324176,-657686253.034433,-637161976.812795,6235880675.727673,-0.005072,-0.004686,0.117488
2.340000,-1.580000,0.160514,0.040000,-562163.020858,274004563.738477,-261017210.772880,1143034049.687975,0.005089,-0.004991,0.021535
2.420000,-1.620000,0.080294,0.040000,13592529.097737,-20661013629.777523,-14142018290.980137,-12033172278.957293,-0.192553,-0.069731,-0.226712
2.460000,-1.620000,0.040585,0.040000,82971568.587738,-93209050854.882828,-76723150019.488770,-19687162527.698757,-0.795626,-0.485022,-0.370918
2.460000,-1.580000,0.042009,0.040000,38338902.817232,-54378990029.722977,-101540598262.146500,53732482923.469788,-0.143247,-1.031799,1.012351
2.420000,-1.580000,0.081023,0.040000,1365763.713968,-5613578893.742148,-26482855060.217743,31710340568.295124,0.075652,-0.317538,0.597441
2.500000,-1.620000,0.006866,0.040000,415618589.674270,-301215449900.812866,45457920561.053192,-32810989748.933323,-4.229488,2.302040,-0.618178
2.500000,-1.580000,0.012836,0.040000,-164628929.374771,-77248921410.083740,-139175225176.957001,76312073517.707779,-0.232148,-1.398875,1.437764
-2.500000,-1.540000,0.002687,0.040000,434052469.945807,-227099795847.605164,91817066036.677139,-69808545067.108383,-3.514050,2.494528,-1.315233
-2.500000,-1.500000,0.007463,0.040000,-476181434.285382,78849065601.890045,-248548470280.049652,-92116877939.673645,2.444733,-3.723627,-1.735535
-2.460000,-1.540000,0.040090,0.040000,79265993.762699,-69517068206.113007,-28486565898.181396,-33532888409.167515,-0.755808,0.017230,-0.631779
-2.420000,-1.540000,0.080045,0.040000,18666342.832613,-21110128740.753006,213983854.820195,-5766105540.839253,-0.279618,0.122140,-0.108637
-2.420000,-1.500000,0.080347,0.040000,14087726.038419,-8309537385.165837,-30814451653.963169,-29707496694.226814,0.064579,-0.359427,-0.559706
-2.460000,-1.500000,0.040690,0.040000,78119958.814884,-41667315610.598785,-131562776926.847275,-60689865937.054428,0.194090,-1.499592,-1.143432
-2.380000,-1.540000,0.120030,0.040000,4473331.228813,-5959258770.793305,5711890627.570845,3360001568.055767,-0.110878,0.109013,0.063304
-2.340000,-1.540000,0.160023,0.040000,986476.740666,-1491677863.552998,1383849504.700583,351839303.164046,-0.027495,0.026682,0.006629
-2.340000,-1.500000,0.160174,0.040000,-230288.601185,-930044806.023551,809080523.446963,-1809548918.560946,-0.016839,0.015927,-0.034093
-2.380000,-1.500000,0.120232,0.040000,1623990.720485,-4621985940.862654,2099259647.553397,-6324123998.850174,-0.072822,0.053810,-0.119150
-2.300000,-1.540000,0.200018,0.040000,171678.117127,-364373187.684779,332515885.295957,-54168068.196474,-0.006685,0.006445,-0.001021
-2.260000,-1.540000,0.240015,0.040000,12913.323661,-77737800.296943,70017192.938314,-52920808.287923,-0.001421,0.001363,-0.000997
-2.260000,-1.500000,0.240116,0.040000,-110503.328928,45732230.452421,-47855700.562756,-132009169.425450,0.000874,-0.000890,-0.002487
-2.300000,-1.500000,0.200139,0.040000,-252811.913657,-60238914.723493,39332612.099679,-510497337.648757,-0.001017,0.000859,-0.009618
-2.220000,-1.540000,0.280013,0.040000,-3025.931372,-9365915.143250,5669796.480397,-23257008.495013,-0.000156,0.000128,-0.000438
-2.180000,-1.540000,0.320011,0.040000,2724.370499,1904438.353342,-1978229.395443,-6414357.815716,0.000036,-0.000037,-0.000121
-2.180000,-1.500000,0.320087,0.040000,534.625808,14268405.031467,-13954873.299882,-510731.617299,0.000267,-0.000265,-0.000010
-2.220000,-1.500000,0.280099,0.040000,-30206.664821,29584281.620724,-25498263.218570,-28267904.172327,0.000534,-0.000503,-0.000533
2.180000,-1.540000,0.320011,0.040000,9548.607792,-6734562.289727,6303144.599670,-5435150.184296,-0.000124,0.000121,-0.000102
2.220000,-1.540000,0.280013,0.040000,23930.640797,-4649499.323166,6382072.175263,-29139123.164197,-0.000097,0.000110,-0.000549
2.220000,-1.500000,0.280099,0.040000,34881.811078,-48760628.832418,40716373.199355,-5294340.283118,-0.000873,0.000813,-0.000100
2.180000,-1.500000,0.320087,0.040000,4661.001357,-16753754.758725,15154847.173674,7369640.976419,-0.000307,0.000295,0.000139
2.260000,-1.540000,0.240015,0.040000,39137.807638,48943175.665032,-41617756.281737,-96292429.018978,0.000881,-0.000826,-0.001814
2.300000,-1.540000,0.200018,0.040000,-47121.157795,370078274.848192,-331565754.711656,-268175892.121357,0.006755,-0.006465,-0.005053
2.300000,-1.500000,0.200139,0.040000,494050.097036,-308234497.347320,301305105.495268,-547968703.159441,-0.005768,0.005716,-0.010324
2.260000,-1.500000,0.240116,0.040000,149623.871108,-140225510.471211,134731103.203592,-98786162.409803,-0.002611,0.002569,-0.001861
2.340000,-1.540000,0.160023,0.040000,-839268.928765,1986264760.629291,-1821779086.207222,-509821046.983300,0.036493,-0.035253,-0.009605
2.380000,-1.540000,0.120030,0.040000,-5350585.087943,9829498057.632135,-9349649584.179188,258247129.044176,0.182481,-0.178865,0.004866
2.380000,-1.500000,0.120232,0.040000,2575080.332535,1528445765.704336,-1645480599.011457,-10656041637.741299,0.029458,-0.030340,-0.200766
2.340000,-1.500000,0.160174,0.040000,1320025.167827,-364951691.640455,403628734.381848,-2485444193.203539,-0.007095,0.007386,-0.046827
2.420000,-1.540000,0.080045,0.040000,-28171372.166344,47207081051.507790,-59188147123.941505,2886900117.222480,0.957128,-1.047420,0.054391
2.460000,-1.540000,0.040090,0.040000,-143000928.399871,130527772480.126068,-122335207276.025299,699487749.389370,2.412913,-2.351172,0.013179
2.460000,-1.500000,0.040690,0.040000,-23669521.498489,36656168379.766243,-60619041953.175713,-104305493541.713760,0.826066,-1.006656,-1.965176
2.420000,-1.500000,0.080347,0.040000,957248.411586,14701203745.256357,-23310257367.126942,-51356600501.673370,0.325639,-0.390519,-0.967588
2.500000,-1.540000,0.002687,0.040000,-804652340.874296,330365756813.607910,-240541702021.845581,-3690380989.732314,5.716581,-5.039646,-0.069529
2.500000,-1.500000,0.007463,0.040000,-362575211.255257,130430430496.005188,-140371013899.519165,-155721965953.294403,2.513571,-2.588485,-2.933892
-2.500000,-1.460000,0.012239,0.040000,-471025534.706065,137273510316.688599,-158560717874.000458,-583883707.060738,2.706632,-2.867057,-0.011001
-2.500000,-1.420000,0.002090,0.040000,-487629292.627609,157487321545.087585,-143632770322.348145,104864662482.763718,2.888844,-2.784433,1.975711
-2.460000,-1.460000,0.041830,0.040000,-84278370.274766,61005463304.383186,-138154626086.327759,-11055872318.993881,1.585439,-2.166853,-0.208299
-2.420000,-1.460000,0.080931,0.040000,-25587929.161215,28782191006.848118,-55606008884.079674,-11707224883.665483,0.693886,-0.896037,-0.220571
-2.420000,-1.420000,0.080027,0.040000,-34584637.697440,36637650820.660797,-38689217750.346382,24569009721.921841,0.701870,-0.717331,0.462894
-2.460000,-1.420000,0.040055,0.040000,-132283341.343463,77712536721.875107,-68072923266.119438,64843018924.011810,1.409664,-1.337018,1.221680
-2.380000,-1.460000,0.120623,0.040000,-8061747.601333,7046063055.291755,-7109242283.917342,-7246663084.470080,0.133109,-0.133585,-0.136531
-2.340000,-1.460000,0.160467,0.040000,-2469791.930580,2209684786.079375,-2085014164.663182,-1550306035.279627,0.040927,-0.039988,-0.029209
-2.340000,-1.420000,0.160014,0.040000,-1612350.260765,2919870090.813701,-2676515057.673824,1900049905.464089,0.053637,-0.051803,0.035798
-2.380000,-1.420000,0.120018,0.040000,-8312663.381229,11074582309.253185,-10204362194.934259,4792199948.364563,0.203733,-0.197175,0.090288
-2.300000,-1.460000,0.200374,0.040000,-686464.837887,725809970.809832,-681779035.314799,-246774295.894645,0.013426,-0.013094,-0.004649
-2.260000,-1.460000,0.240312,0.040000,-149965.410079,230261870.762974,-217071241.250844,4355482.352216,0.004264,-0.004164,0.000082
-2.260000,-1.420000,0.240009,0.040000,127221.327398,137704285.669917,-121827984.161840,289859141.222004,0.002505,-0.002385,0.005461
-2.300000,-1.420000,0.200011,0.040000,-103840.810485,708623144.545165,-641915285.838764,757174447.104625,0.012974,-0.012471,0.014266
-2.220000,-1.460000,0.280267,0.040000,-8741.603879,63890673.582278,-52019109.420243,26486517.684813,0.001137,-0.001047,0.000499
-2.180000,-1.460000,0.320234,0.040000,17856.312049,16190257.257287,-14821728.798431,14974180.942100,0.000297,-0.000287,0.000282
-2.180000,-1.420000,0.320007,0.040000,53945.926321,-10116311.323740,13376579.553427,29728392.863543,-0.000209,0.000234,0.000560
-2.220000,-1.420000,0.280008,0.040000,100710.456179,10358206.013438,-6694908.118877,109995009.645395,0.000174,-0.000147,0.002072
2.180000,-1.460000,0.320234,0.040000,-19788.246070,-1681573.620793,1227541.263987,22651132.778757,-0.000029,0.000026,0.000427
2.220000,-1.460000,0.280267,0.040000,-24684.430902,-41270145.243995,29535410.905113,69190603.926402,-0.000711,0.000623,0.001304
2.220000,-1.420000,0.280008,0.040000,-136278.249805,63377582.861770,-55642848.530206,101672000.651111,0.001150,-0.001092,0.001916
2.180000,-1.420000,0.320007,0.040000,-43689.688512,35834638.484245,-36712463.211712,15376607.474332,0.000680,-0.000687,0.000290
2.260000,-1.460000,0.240312,0.040000,54480.488179,-231964642.436417,213182656.953020,152680486.584181,-0.004264,0.004123,0.002877
2.300000,-1.460000,0.200374,0.040000,549107.711116,-949545532.506852,873970683.275145,238495259.590406,-0.017463,0.016893,0.004493
2.300000,-1.420000,0.200011,0.040000,-649008.017809,-123118716.282156,82380738.502022,1222767404.164392,-0.002089,0.001782,0.023038
2.260000,-1.420000,0.240009,0.040000,-336389.228638,82585773.030902,-89188855.483401,362940252.248203,0.001593,-0.001643,0.006838
2.340000,-1.460000,0.160467,0.040000,2734236.350090,-3622928307.548608,3354267055.470543,-80457471.630158,-0.066740,0.064715,-0.001516
2.380000,-1.460000,0.120623,0.040000,11368765.651336,-13755863094.952791,12843060828.928175,-2980141538.306501,-0.254009,0.247130,-0.056148
2.380000,-1.420000,0.120018,0.040000,2068378.839190,-7512292671.825608,6663242680.608903,13205027752.894936,-0.136737,0.130338,0.248790
2.340000,-1.420000,0.160014,0.040000,-665517.354669,-1458825263.652402,1268843975.934885,3994243881.676454,-0.026411,0.024980,0.075254
2.420000,-1.460000,0.080931,0.040000,44560456.785229,-50459434677.803383,35734713744.136917,-23027453879.833473,-0.867458,0.756489,-0.433851
2.460000,-1.460000,0.041830,0.040000,174563803.945076,-142552824090.359833,42049908008.666153,-54437949378.204590,-2.117718,1.360305,-1.025643
2.460000,-1.420000,0.040055,0.040000,90171369.962919,-84382899086.843323,49203285034.547249,67812150161.940010,-1.390981,1.125860,1.277620
2.420000,-1.420000,0.080027,0.040000,18432427.632337,-30792197442.311062,29208306653.759632,41839572360.970329,-0.571190,0.559254,0.788282
2.500000,-1.460000,0.012239,0.040000,762236762.950229,-366224026963.468201,165755321232.483673,-85174067565.458878,-5.766789,4.256010,-1.604729
2.500000,-1.420000,0.002090,0.040000,323239270.383446,-170242385659.248260,61547558382.611580,88138061855.238113,-2.593103,1.773954,1.660572
-2.500000,-1.380000,0.008060,0.040000,102845330.720796,-35803547165.086960,24548882575.724152,122079116726.868607,-0.610946,0.526129,2.300041
-2.500000,-1.340000,0.011642,0.040000,548689173.578435,-204131979525.360626,118889148422.573746,44059298863.129189,-3.364158,2.721748,0.830103
-2.460000,-1.380000,0.040804,0.040000,15637771.928578,-5733417435.304613,14776152983.163019,84908645085.635284,-0.159132,0.227280,1.599728
-2.420000,-1.380000,0.080405,0.040000,10777705.230680,-2244756887.046465,5360365996.243346,43975335221.440277,-0.059902,0.083382,0.828521
-2.420000,-1.340000,0.080843,0.040000,55758134.835862,-41669017294.713448,41200317695.086349,16297354630.856398,-0.782419,0.778887,0.307052
-2.460000,-1.340000,0.041660,0.040000,164725609.732932,-94954368068.763519,68446932771.365723,32044413537.767902,-1.639171,1.439405,0.603735
-2.380000,-1.380000,0.120270,0.040000,6212709.815198,-1049442456.047087,1312530095.776590,12777995901.262074,-0.021259,0.023242,0.240745
-2.340000,-1.380000,0.160203,0.040000,3101698.435118,-888467354.947924,899790362.155851,3909849865.885781,-0.016803,0.016889,0.073664
-2.340000,-1.340000,0.160423,0.040000,6363610.983424,-4856461924.266853,4580298913.246408,1072394605.511143,-0.089938,0.087856,0.020205
-2.380000,-1.340000,0.120563,0.040000,19006100.116387,-14120982438.394882,13402915925.799564,4929593908.522363,-0.261989,0.256577,0.092876
-2.300000,-1.380000,0.200162,0.040000,1387840.397945,-552743394.660327,545381947.811123,1169854494.410929,-0.010372,0.010317,0.022041
-2.260000,-1.380000,0.240135,0.040000,563443.379995,-287428621.665692,282303929.491242,326541227.110915,-0.005386,0.005348,0.006152
-2.260000,-1.340000,0.240282,0.040000,563499.761085,-590891090.594292,562527892.174845,-111456187.164706,-0.010972,0.010759,-0.002100
-2.300000,-1.340000,0.200339,0.040000,2015241.237409,-1699676658.693316,1604163941.630418,69371330.517952,-0.031483,0.030763,0.001307
-2.220000,-1.380000,0.280116,0.040000,206282.168031,-134740901.017939,121399369.256795,87377405.108595,-0.002463,0.002363,0.001646
-2.180000,-1.380000,0.320101,0.040000,66734.463694,-61985019.884576,58319760.199715,11942064.390297,-0.001147,0.001119,0.000225
-2.180000,-1.340000,0.320212,0.040000,-1558.778459,-68488172.571470,61122785.139846,-60385612.962366,-0.001249,0.001193,-0.001138
-2.220000,-1.340000,0.280242,0.040000,114548.669777,-194572939.271428,166397420.720294,-108555081.372157,-0.003507,0.003294,-0.002045
2.180000,-1.380000,0.320101,0.040000,-14201.364108,62056972.444582,-58242657.526679,-22588835.610548,0.001148,-0.001119,-0.000426
2.220000,-1.380000,0.280116,0.040000,-138777.176508,178660479.060122,-152079934.370775,-13627026.809941,0.003216,-0.003016,-0.000257
2.220000,-1.340000,0.280242,0.040000,113141.088317,109735128.714056,-91562561.876161,-237997644.386804,0.001965,-0.001828,-0.004484
2.180000,-1.340000,0.320212,0.040000,93689.237761,19742704.659361,-10826753.447302,-84579206.388206,0.000322,-0.000254,-0.001594
2.260000,-1.380000,0.240135,0.040000,-571478.951757,530473072.227718,-506937423.789152,96322974.529533,0.009861,-0.009684,0.001815
2.300000,-1.380000,0.200162,0.040000,-1902097.412000,1488780309.870377,-1411182728.847289,699581383.461098,0.027611,-0.027026,0.013181
2.300000,-1.340000,0.200339,0.040000,-1032267.374771,1669935466.581228,-1548555552.345901,-1213231726.064095,0.030776,-0.029862,-0.022858
2.260000,-1.340000,0.240282,0.040000,-55227.265162,461614854.391334,-428647700.204859,-528237054.663057,0.008511,-0.008262,-0.009952
2.340000,-1.380000,0.160203,0.040000,-5768047.427269,4200354500.560437,-3978295413.139582,3129640944.261115,0.077882,-0.076209,0.058964
2.380000,-1.380000,0.120270,0.040000,-16831663.236110,12164552846.831734,-11155615069.876432,12056663843.783670,0.223485,-0.215881,0.227155
2.380000,-1.340000,0.120563,0.040000,-18540217.922301,18080407486.858387,-16585935248.960110,-6565257004.120984,0.332198,-0.320936,-0.123693
2.340000,-1.340000,0.160423,0.040000,-4919047.401044,5611661171.009098,-5225804909.869616,-2763283946.478681,0.103546,-0.100638,-0.052062
2.420000,-1.380000,0.080405,0.040000,-49270166.739469,34878532294.890411,-21555491097.841217,40114897546.881401,0.581828,-0.481422,0.755788
2.460000,-1.380000,0.040804,0.040000,-150540690.197607,91722287120.610870,-12008186817.395035,74767383656.205551,1.277543,-0.676799,1.408661
2.460000,-1.340000,0.041660,0.040000,-209188427.225120,129780947871.275604,-37616958325.566689,-22120131281.066303,1.924221,-1.229652,-0.416756
2.420000,-1.340000,0.080843,0.040000,-63692355.622501,53178699894.032936,-37957342562.837730,-15129483144.218739,0.915884,-0.801172,-0.285048
2.500000,-1.380000,0.008060,0.040000,-366791438.970998,177664554525.840240,-38512082775.229813,101127301585.384689,2.560789,-1.512104,1.905297
2.500000,-1.340000,0.011642,0.040000,-561497285.746681,251480424758.024994,-84307442349.236633,-26340137962.342911,3.793146,-2.533292,-0.496263
-2.500000,-1.300000,0.001493,0.040000,397280978.342679,-148103424986.457703,79673203533.383667,-68130714274.516441,-2.403575,1.887869,-1.283622
-2.500000,-1.260000,0.008657,0.040000,-17137257.742188,3543476444.083449,20516597993.966724,-112537204135.961838,-0.069231,0.250553,-2.120266
-2.460000,-1.300000,0.040028,0.040000,134321906.357178,-79508510594.696564,59593926054.187103,-50051640697.551422,-1.385426,1.235345,-0.943002
-2.420000,-1.300000,0.080014,0.040000,42179420.289880,-35870306846.359146,36037126892.476120,-27707621029.594902,-0.676760,0.678017,-0.522028
-2.420000,-1.260000,0.080467,0.040000,-22917534.040060,4780236421.012234,-2225011584.564616,-46262924723.769073,0.075620,-0.056363,-0.871620
-2.460000,-1.260000,0.040926,0.040000,-44528934.087866,10795677388.482855,3617497030.635997,-83110492835.159698,0.121931,-0.013310,-1.565850
-2.380000,-1.300000,0.120009,0.040000,11993726.243759,-12225750043.996359,11452791516.793467,-10258763484.474585,-0.225971,0.220146,-0.193281
-2.340000,-1.300000,0.160007,0.040000,2739583.243889,-3912658569.904846,3647962962.438938,-4052713451.271898,-0.072221,0.070226,-0.076355
-2.340000,-1.260000,0.160234,0.040000,-6311173.432570,1646152299.789586,-1618879472.388866,-6007689616.223401,0.030860,-0.030655,-0.113188
-2.380000,-1.260000,0.120312,0.040000,-12172598.774458,2843882643.947855,-2582988501.874588,-16450793406.103977,0.052106,-0.050140,-0.309942
-2.300000,-1.300000,0.200006,0.040000,227630.963226,-1157168443.682467,1069072179.906754,-1657581683.032758,-0.021304,0.020640,-0.031230
-2.260000,-1.300000,0.240005,0.040000,-268704.159317,-290822284.525178,266006341.333390,-683518093.644488,-0.005339,0.005152,-0.012878
-2.260000,-1.260000,0.240156,0.040000,-1472432.416817,514243111.375186,-507567080.700904,-759043158.795677,0.009651,-0.009601,-0.014301
-2.300000,-1.260000,0.200187,0.040000,-3131149.821306,936313350.081879,-920050538.656027,-2168396768.034894,0.017549,-0.017426,-0.040854
-2.220000,-1.300000,0.280004,0.040000,-248662.898465,-28331542.767696,8573099.867862,-286757438.299758,-0.000422,0.000273,-0.005403
-2.180000,-1.300000,0.320003,0.040000,-148025.555680,24344499.468705,-22106063.607307,-99980878.128206,0.000446,-0.000429,-0.001884
-2.180000,-1.260000,0.320117,0.040000,-259723.931776,134935534.974058,-136926182.167786,-52737284.333888,0.002554,-0.002569,-0.000994
-2.220000,-1.260000,0.280134,0.040000,-648096.595564,254200879.302550,-223254347.261051,-252185438.197173,0.004614,-0.004381,-0.004751
2.180000,-1.300000,0.320003,0.040000,205899.499242,-110798514.338322,104281655.184277,-77980915.090032,-0.002051,0.002002,-0.001469
2.220000,-1.300000,0.280004,0.040000,492681.621240,-191368411.338003,182011121.343888,-286606135.668015,-0.003553,0.003482,-0.005400
2.220000,-1.260000,0.280134,0.040000,589391.919860,-420671247.786389,365910358.837179,6998629.713058,-0.007616,0.007203,0.000132
2.180000,-1.260000,0.320117,0.040000,170485.687932,-182336968.004650,174045993.623556,54157587.754841,-0.003388,0.003326,0.001020
2.260000,-1.300000,0.240005,0.040000,1071697.790769,-293849762.389569,297504115.890523,-812038344.896948,-0.005557,0.005584,-0.015299
2.300000,-1.300000,0.200006,0.040000,2113650.341360,-334990832.527570,355959027.367941,-2372720250.331915,-0.006430,0.006588,-0.044703
2.300000,-1.260000,0.200187,0.040000,4661189.452204,-2683372370.950989,2564429641.153868,-1136324801.578593,-0.049884,0.048988,-0.021409
2.260000,-1.260000,0.240156,0.040000,1724886.079877,-1077905191.463844,1040882549.912858,-250167338.835389,-0.020099,0.019820,-0.004713
2.340000,-1.300000,0.160007,0.040000,3652772.167334,84978676.722709,1196644.393963,-6831046181.365578,0.001114,-0.000465,-0.128701
2.380000,-1.300000,0.120009,0.040000,4919421.366448,2089810692.753867,-1759492491.374112,-19740684878.486370,0.037506,-0.035017,-0.371926
2.380000,-1.260000,0.120312,0.040000,31070726.769215,-17759994376.001892,16644418958.335659,-12335890647.809641,-0.328303,0.319896,-0.232415
2.340000,-1.260000,0.160234,0.040000,12111542.150050,-6813275313.396474,6494435284.109910,-3964451155.751058,-0.126564,0.124161,-0.074693
2.420000,-1.300000,0.080014,0.040000,2449598.301834,7649518218.189425,-5049698832.902076,-51942152581.732513,0.129427,-0.109834,-0.978620
2.460000,-1.300000,0.040028,0.040000,-13460591.753145,19046523114.480247,-4725678258.758903,-85092598444.856323,0.277904,-0.169978,-1.603194
2.460000,-1.260000,0.040926,0.040000,213322202.224622,-100944129114.153900,39621185024.661003,-53669147332.340240,-1.555238,1.093094,-1.011158
2.420000,-1.260000,0.080467,0.040000,80382384.408112,-45340015631.402367,35774282345.717506,-32272813463.234241,-0.800165,0.728075,-0.608039
2.500000,-1.300000,0.001493,0.040000,-28219474.765085,27728383737.914566,1380848368.127207,-108092585963.825180,0.357888,-0.138514,-2.036527
2.500000,-1.260000,0.008657,0.040000,498000703.306143,-180790527598.989410,69543226215.731186,-68036745650.014633,-2.777409,1.939024,-1.281852
-2.500000,-1.220000,0.011045,0.040000,-557775446.486500,214435270678.437103,-85238926116.727417,-39301185706.346779,3.309845,-2.336191,-0.740457
-2.500000,-1.180000,0.000896,0.040000,-486261836.870255,189266579321.326691,-61468401701.252533,79859012904.726547,2.843555,-1.880438,1.504590
-2.460000,-1.220000,0.041497,0.040000,-198063784.958252,99917175925.169357,-50611388382.828331,-31299057313.539543,1.603813,-1.232233,-0.589692
-2.420000,-1.220000,0.080759,0.040000,-79046008.203247,43409100577.991150,-37034534385.076630,-20441287764.751450,0.781822,-0.733782,-0.385126
-2.420000,-1.180000,0.080005,0.040000,-73525716.391909,41501564139.878052,-29727858093.662987,28635339679.404892,0.715366,-0.626637,0.539506
-2.460000,-1.180000,0.040010,0.040000,-191048591.504524,93106058746.661362,-28151190892.559128,54436674366.354858,1.387036,-0.897521,1.025619
-2.380000,-1.220000,0.120507,0.040000,-31869604.552184,16784320934.471136,-16104813778.221102,-7402688550.047681,0.312386,-0.307265,-0.139471
-2.340000,-1.220000,0.160381,0.040000,-12810045.254781,6733344864.218804,-6432962734.775489,-2381322175.719234,0.125162,-0.122899,-0.044865
-2.340000,-1.180000,0.160003,0.040000,-9462151.664036,6670134721.788969,-6353127901.913601,4065292928.649288,0.123877,-0.121488,0.076592
-2.380000,-1.180000,0.120003,0.040000,-27236573.361515,17002252290.640858,-16202513112.712399,8880117882.741064,0.315812,-0.309785,0.167307
-2.300000,-1.220000,0.200305,0.040000,-5039235.050361,2760935798.678574,-2642573239.149254,-620130611.951959,0.051349,-0.050457,-0.011684
-2.260000,-1.220000,0.240254,0.040000,-1887683.358519,1144358779.338592,-1106336517.904685,-70880861.358561,0.021345,-0.021059,-0.001335
-2.260000,-1.180000,0.240002,0.040000,-629680.472367,942122637.283468,-901322838.108549,959595261.123702,0.017520,-0.017212,0.018079
-2.300000,-1.180000,0.200002,0.040000,-2895769.039659,2552427568.235177,-2426004103.251303,1954167132.807863,0.047375,-0.046422,0.036818
-2.220000,-1.220000,0.280218,0.040000,-640211.279085,461587106.192972,-403685997.552221,40776699.481202,0.008369,-0.007933,0.000768
-2.180000,-1.220000,0.320191,0.040000,-171491.329418,199519063.929667,-192170922.900723,51915128.427856,0.003718,-0.003662,0.000978
-2.180000,-1.180000,0.320001,0.040000,186067.130473,119604541.294356,-101424930.965573,226492819.865904,0.002151,-0.002014,0.004267
-2.220000,-1.180000,0.280001,0.040000,50251.736552,330536910.564254,-290006318.081635,504483090.034183,0.005998,-0.005693,0.009505
2.180000,-1.220000,0.320191,0.040000,-104745.226579,-96988189.669666,95887704.718412,171110284.853529,-0.001821,0.001813,0.003224
2.220000,-1.220000,0.280218,0.040000,63490.107414,-321248812.126291,262071662.581183,404655966.532749,-0.005718,0.005272,0.007624
2.220000,-1.180000,0.280001,0.040000,-935600.851304,104441404.331558,-92723614.061409,645367542.692993,0.001902,-0.001813,0.012159
2.180000,-1.180000,0.320001,0.040000,-510730.626666,92951893.353645,-107802963.316770,224390940.979792,0.001835,-0.001947,0.004228
2.260000,-1.220000,0.240254,0.040000,811624.866534,-1028690836.659318,980832355.950216,834847355.106712,-0.019111,0.018750,0.015729
2.300000,-1.220000,0.200305,0.040000,3300837.264903,-2901452753.649073,2746964934.912656,1709541299.364239,-0.053792,0.052628,0.032209
2.300000,-1.180000,0.200002,0.040000,-2210622.698951,-407118778.464027,354083531.149225,3689003589.078238,-0.007371,0.006971,0.069503
2.260000,-1.180000,0.240002,0.040000,-1555196.756387,41158418.025338,-57975101.918432,1517735023.389854,0.000870,-0.000997,0.028595
2.340000,-1.220000,0.160381,0.040000,10709363.661956,-7962767672.645861,7551215454.324900,3582548993.515013,-0.147697,0.144595,0.067497
2.380000,-1.220000,0.120507,0.040000,31594890.431050,-21370759690.803413,20071846537.284012,8013129601.233824,-0.395296,0.385507,0.150972
2.380000,-1.180000,0.120003,0.040000,1213666.537574,-5973019200.728105,5623991120.656211,22332044987.110970,-0.110562,0.107932,0.420749
2.340000,-1.180000,0.160003,0.040000,-2125858.877635,-1894391614.270233,1755288190.264611,9017332955.139606,-0.034905,0.033857,0.169892
2.420000,-1.220000,0.080759,0.040000,88785301.845882,-53412598930.393120,42974159167.758812,17765443317.615345,-0.947324,0.868658,0.334711
2.460000,-1.220000,0.041497,0.040000,242505880.287316,-113400993110.607788,49218456496.931992,26685243880.332439,-1.773770,1.290075,0.502765
2.460000,-1.180000,0.040010,0.040000,53998218.359407,-32967543633.156532,20900993069.096458,81438134130.095749,-0.552925,0.461989,1.534342
2.420000,-1.180000,0.080005,0.040000,14619314.229624,-15689607741.190540,14456556536.128546,51108081564.927238,-0.288632,0.279339,0.962906
2.500000,-1.220000,0.011045,0.040000,563250089.442392,-196513318702.061890,80731487502.570786,32710538873.758427,-3.048006,2.175447,0.616286
2.500000,-1.180000,0.000896,0.040000,137088180.324511,-53842009713.564598,19492020638.079277,101615329765.841644,-0.820263,0.561393,1.914492
-2.500000,-1.140000,0.009254,0.040000,203055513.660957,-60624843054.989128,98344926582.504135,108974294136.168106,-1.355408,1.639675,2.053139
-2.500000,-1.100000,0.010448,0.040000,457811472.082851,-186884591469.544220,52450890815.819305,-4539310933.796224,-2.761171,1.748048,-0.085523
-2.460000,-1.140000,0.041056,0.040000,-30436752.818834,7294087654.431492,48155454342.934067,82839303055.816559,-0.175986,0.593866,1.560740
-2.420000,-1.140000,0.080533,0.040000,-5744294.379946,3601575295.659479,10449610464.752979,47895782971.382317,-0.011564,0.117457,0.902384
-2.420000,-1.100000,0.080679,0.040000,77154432.574924,-34204771828.564945,37948419443.558884,24606416828.665615,-0.665597,0.693810,0.463599
-2.460000,-1.100000,0.041342,0.040000,164261735.945472,-85786396583.563950,69757534260.055908,13718567514.728455,-1.525668,1.404870,0.258466
-2.380000,-1.140000,0.120356,0.040000,2187760.465318,3533621999.786089,-2669532928.376236,19181501203.957081,0.061692,-0.055180,0.361391
-2.340000,-1.140000,0.160267,0.040000,3577519.096163,1172291588.505897,-1084395866.139737,8207053461.386278,0.021590,-0.020927,0.154626
-2.340000,-1.100000,0.160341,0.040000,18208885.227671,-5885103864.330170,5689686738.092234,6803579262.307249,-0.109774,0.108302,0.128183
-2.380000,-1.100000,0.120454,0.040000,37220800.523017,-12733141755.983681,12504693355.540571,16146959076.557104,-0.238609,0.236887,0.304218
-2.300000,-1.140000,0.200214,0.040000,2938244.453975,164315293.746833,-129521575.502552,3541958261.098854,0.002899,-0.002637,0.066733
-2.260000,-1.140000,0.240178,0.040000,1971805.506656,-129630886.093112,141059094.212723,1531086111.634411,-0.002507,0.002593,0.028847
-2.260000,-1.100000,0.240227,0.040000,4326341.993155,-1417726377.344856,1389059518.650253,1093298433.260941,-0.026549,0.026333,0.020598
-2.300000,-1.100000,0.200273,0.040000,8921209.607259,-2849209120.780206,2763511079.700058,2784753340.207642,-0.053196,0.052551,0.052466
-2.220000,-1.140000,0.280153,0.040000,1189628.240512,-190068391.887004,197893186.053468,687871006.893683,-0.003625,0.003684,0.012960
-2.180000,-1.140000,0.320134,0.040000,667095.866444,-155963948.983876,144676140.214069,262906267.849238,-0.002875,0.002790,0.004953
-2.180000,-1.100000,0.320171,0.040000,939401.904889,-366593477.250872,367463783.603320,87825956.548281,-0.006912,0.006918,0.001655
-2.220000,-1.100000,0.280195,0.040000,2052412.669039,-685765888.893296,608539916.069889,393611065.545431,-0.012484,0.011902,0.007416
2.180000,-1.140000,0.320134,0.040000,-742494.377840,356768614.771434,-341243200.388097,122291869.779338,0.006634,-0.006517,0.002304
2.220000,-1.140000,0.280153,0.040000,-1716684.012426,683961526.385341,-623311993.130805,420369530.336837,0.012543,-0.012086,0.007920
2.220000,-1.100000,0.280195,0.040000,-1484101.562251,870692981.824274,-772775898.805578,-305454846.355002,0.015851,-0.015113,-0.005755
2.180000,-1.100000,0.320171,0.040000,-490048.024678,410909571.629976,-391731334.666204,-206560822.696006,0.007633,-0.007489,-0.003892
2.260000,-1.140000,0.240178,0.040000,-3800799.743494,1413160980.822174,-1382433623.101931,1089033437.104221,0.026451,-0.026220,0.020518
2.300000,-1.140000,0.200214,0.040000,-8210752.817584,2983837792.523384,-2888431578.413615,2935792773.116086,0.055678,-0.054959,0.055312
2.300000,-1.100000,0.200273,0.040000,-9745320.900310,4668529960.551812,-4493961286.039962,-262806693.229480,0.086971,-0.085656,-0.004951
2.260000,-1.100000,0.240227,0.040000,-3930227.915959,2033094760.394099,-1975145270.018668,-326862449.380164,0.037977,-0.037540,-0.006158
2.340000,-1.140000,0.160267,0.040000,-17567286.270614,6514263012.717328,-6283130753.355539,7573731868.468707,0.121426,-0.119684,0.142693
2.380000,-1.140000,0.120356,0.040000,-37772161.875697,14734240014.845066,-13880695899.975809,18971063301.950249,0.272777,-0.266345,0.357426
2.380000,-1.100000,0.120454,0.040000,-54895086.555892,25046967021.386139,-24058500288.001148,1369780301.082576,0.466312,-0.458863,0.025807
2.340000,-1.100000,0.160341,0.040000,-23334464.146035,10784808092.043224,-10375766459.624655,169340251.141694,0.200880,-0.197797,0.003190
2.420000,-1.140000,0.080533,0.040000,-82881889.351070,32560413500.943165,-26145099709.386806,45359282080.655861,0.577197,-0.528849,0.854595
2.460000,-1.140000,0.041056,0.040000,-188330695.031930,65269057999.783012,-26244746984.824078,74365219312.430466,1.009135,-0.715038,1.401084
2.460000,-1.100000,0.041342,0.040000,-299270529.808342,109854768882.237381,-64991877310.713501,16514772866.315210,1.816155,-1.478058,0.311148
2.420000,-1.100000,0.080679,0.040000,-128236750.887683,56556502705.129730,-49981016204.136803,6900956921.573629,1.028392,-0.978837,0.130018
2.500000,-1.140000,0.009254,0.040000,-335258986.641554,92090544797.827209,-29308883608.709862,95824369783.180893,1.380186,-0.907049,1.805387
2.500000,-1.100000,0.010448,0.040000,-694807261.159589,197449530576.978912,-107837820788.584991,25589710726.704300,3.213563,-2.538228,0.482125
-2.500000,-1.060000,0.000299,0.040000,587154561.745448,-197012018831.146027,61136078213.392792,-113807838983.569260,-2.943826,1.919834,-2.144206
-2.500000,-1.020000,0.009851,0.040000,-514940795.650102,251332882597.745728,-277788295555.830505,-31297480335.039700,4.884788,-5.084162,-0.589663
-2.460000,-1.060000,0.040001,0.040000,261330311.824987,-88966873515.495285,-23997575784.630981,-63809071472.330940,-1.037693,0.186366,-1.202200
-2.420000,-1.060000,0.080001,0.040000,118279098.016603,-42595676666.643036,15166756346.303602,-20752853317.820969,-0.647494,0.440784,-0.390996
-2.420000,-1.020000,0.080604,0.040000,89037093.213372,-14486608510.008207,-21131039363.257027,-26843683595.041348,-0.071619,-0.196804,-0.505751
-2.460000,-1.020000,0.041195,0.040000,201912934.474141,-6421013764.292504,-125395525668.114868,-31405743789.196655,0.624074,-1.617474,-0.591702
-2.380000,-1.060000,0.120000,0.040000,53473948.111736,-21317022851.410446,20497532900.468468,2258989960.355488,-0.396993,0.390817,0.042561
-2.340000,-1.060000,0.160000,0.040000,24004903.324067,-9702732731.002586,9363538904.283993,617457194.663362,-0.180888,0.178332,0.011633
-2.340000,-1.020000,0.160303,0.040000,15304227.718546,-7808756645.819665,7536518455.657232,-6546684356.644208,-0.145583,0.143531,-0.123343
-2.380000,-1.020000,0.120404,0.040000,37897824.133572,-16100383821.280371,13341997293.773699,-13365296660.250113,-0.287750,0.266962,-0.251810
-2.300000,-1.060000,0.200000,0.040000,10601132.528386,-4436911243.289090,4284841405.861913,-46471935.193640,-0.082734,0.081588,-0.000876
-2.260000,-1.060000,0.240000,0.040000,4540592.654879,-2040466717.554077,1988495514.739909,-230370099.710538,-0.038150,0.037758,-0.004340
-2.260000,-1.020000,0.240202,0.040000,1715252.034243,-1486389413.358894,1442162039.149877,-1712734010.539390,-0.027754,0.027421,-0.032269
-2.300000,-1.020000,0.200242,0.040000,5645046.567332,-3451710290.466107,3325666417.102074,-3311026742.167181,-0.064320,0.063370,-0.062382
-2.220000,-1.060000,0.280000,0.040000,1841944.461794,-914542938.850053,810337985.193049,-193689433.539303,-0.016642,0.015856,-0.003649
-2.180000,-1.060000,0.320000,0.040000,675211.065734,-442095501.562429,432784232.192586,-135139057.090498,-0.008277,0.008207,-0.002546
-2.180000,-1.020000,0.320152,0.040000,-208514.831689,-280091256.748115,250684571.647362,-469946191.870874,-0.005111,0.004889,-0.008854
-2.220000,-1.020000,0.280173,0.040000,247982.329609,-626179109.277731,564011445.315199,-953516756.310088,-0.011446,0.010978,-0.017965
2.180000,-1.060000,0.320000,0.040000,307267.301852,153797260.830564,-160015128.513849,-409866272.677531,0.002933,-0.002980,-0.007722
2.220000,-1.060000,0.280000,0.040000,39326.139482,459837400.426624,-375976494.002879,-920658478.518618,0.008190,-0.007558,-0.017346
2.220000,-1.020000,0.280173,0.040000,2273702.676232,-281717760.254828,246417433.433236,-1161916842.314750,-0.005108,0.004842,-0.021891
2.180000,-1.020000,0.320152,0.040000,1332807.696254,-198033718.861090,222404781.017976,-468062623.255019,-0.003869,0.004052,-0.008819
2.260000,-1.060000,0.240000,0.040000,-1061139.835367,1322090218.913843,-1275758336.702254,-1846508858.569758,0.024647,-0.024298,-0.034789
2.300000,-1.060000,0.200000,0.040000,-4366264.791119,3281662537.904448,-3147578948.843434,-3796133396.071826,0.061071,-0.060060,-0.071521
2.300000,-1.020000,0.200242,0.040000,5839673.703304,-444785029.550957,455121439.773122,-5326887842.578577,-0.008438,0.008516,-0.100362
2.260000,-1.020000,0.240202,0.040000,3728107.283548,-414391708.737378,419913451.436831,-2453353960.001324,-0.007839,0.007880,-0.046223
2.340000,-1.060000,0.160000,0.040000,-13149919.201640,7854446632.624974,-7554403180.922345,-7999543212.469145,0.146286,-0.144025,-0.150716
2.380000,-1.060000,0.120000,0.040000,-35009612.898651,18238352238.945492,-17605482673.982185,-17406168310.080200,0.340044,-0.335275,-0.327942
2.380000,-1.020000,0.120404,0.040000,11967238.815503,114538304.902072,-422293387.530715,-25292972862.696541,0.003897,-0.006217,-0.476534
2.340000,-1.020000,0.160303,0.040000,8650902.715216,-323276646.539954,338811471.940433,-11584910869.063532,-0.006179,0.006296,-0.218266
2.420000,-1.060000,0.080001,0.040000,-87138812.097505,41830716283.270653,-42038956286.400116,-35917672210.006287,0.789292,-0.790861,-0.676710
2.460000,-1.060000,0.040001,0.040000,-207371549.084466,82218455335.816696,-64499276754.836159,-55313491047.325638,1.448891,-1.315356,-1.042138
2.460000,-1.020000,0.041195,0.040000,19720781.968160,4033251410.467432,-16377616809.449699,-94370014990.533127,0.145761,-0.238791,-1.777986
2.420000,-1.020000,0.080604,0.040000,15408464.180045,2193314841.785068,-5036490391.333505,-57394090003.860489,0.057393,-0.078820,-1.081338
2.500000,-1.060000,0.000299,0.040000,-479486234.644433,139799989627.051636,-68909409709.405487,-67843311995.825752,2.233227,-1.698979,-1.278207
2.500000,-1.020000,0.009851,0.040000,-101894212.799235,41847126667.202644,-46877614489.207397,-123440962300.430420,0.816857,-0.854768,-2.325699
-2.500000,-0.980000,0.009851,0.040000,-44550989.880334,92934988824.999207,17644375461.456944,140451223576.861206,1.125935,-0.292584,2.646182
-2.500000,-0.940000,0.000299,0.040000,351593962.103670,-143887861260.129486,237251165262.413910,108907618561.468323,-3.238636,3.942244,2.051883
-2.460000,-0.980000,0.041195,0.040000,22768940.941940,25510611534.939396,-19521520422.492199,61157239346.449471,0.446783,-0.401648,1.152238
-2.420000,-0.980000,0.080604,0.040000,3577148.508268,-173503107.917210,-3717247282.506396,-272876929.729405,0.018722,-0.048044,-0.005141
-2.420000,-0.940000,0.080001,0.040000,-93272578.603407,3414129768.766700,49372306069.431847,-3506177242.375119,-0.234034,0.631845,-0.066058
-2.460000,-0.940000,0.040001,0.040000,-178028396.955835,-3703694435.706320,189716697290.555878,44927759229.776543,-1.121158,2.522995,0.846465
-2.380000,-0.980000,0.120404,0.040000,-3533163.040295,-3238067936.890057,2869546900.401793,-21728049428.384956,-0.058924,0.056147,-0.409369
-2.340000,-0.980000,0.160303,0.040000,-5051008.460842,-1259503844.974388,1201398859.577907,-10510967090.233482,-0.023401,0.022963,-0.198033
-2.340000,-0.940000,0.160000,0.040000,-27218856.860893,6400437771.409852,-6227647657.524783,-9110890633.883379,0.119611,-0.118309,-0.171654
-2.380000,-0.940000,0.120000,0.040000,-50013110.159659,11574255679.157156,-9518020546.242334,-18857928992.678146,0.206443,-0.190947,-0.355294
-2.300000,-0.980000,0.200242,0.040000,-4443129.357609,-300704408.556298,271938731.679941,-5094768062.430843,-0.005503,0.005286,-0.095988
-2.260000,-0.980000,0.240202,0.040000,-3298060.439307,64831871.964221,-76012111.625283,-2478591795.887961,0.001285,-0.001369,-0.046698
-2.260000,-0.940000,0.240000,0.040000,-8162737.417420,1857298313.512925,-1829302519.617328,-2015590746.192039,0.034834,-0.034623,-0.037975
-2.300000,-0.940000,0.200000,0.040000,-14912295.945962,3399277010.961049,-3316779380.850755,-4323776501.050893,0.063578,-0.062956,-0.081462
-2.220000,-0.980000,0.280173,0.040000,-2232424.735017,204129527.356541,-226162880.605483,-1250873017.623145,0.003970,-0.004137,-0.023567
-2.180000,-0.980000,0.320152,0.040000,-1420019.007133,201424958.248289,-181184451.272345,-554548976.837958,0.003681,-0.003528,-0.010448
-2.180000,-0.940000,0.320000,0.040000,-2371839.122529,574938796.347073,-586991972.282789,-335449632.632326,0.010900,-0.010991,-0.006320
-2.220000,-0.940000,0.280000,0.040000,-4433142.097558,985704724.691855,-882425582.184219,-917641844.455188,0.017987,-0.017209,-0.017289
2.180000,-0.980000,0.320152,0.040000,2003302.671213,-651970400.691781,627743300.082050,-292154754.113357,-0.012147,0.011964,-0.005504
2.220000,-0.980000,0.280173,0.040000,3995078.253162,-1152438399.365576,1061878712.535334,-768995498.495528,-0.021201,0.020518,-0.014488
2.220000,-0.940000,0.280000,0.040000,3989560.846329,-1461843510.829792,1317460374.117936,283075020.798856,-0.026726,0.025638,0.005333
2.180000,-0.940000,0.320000,0.040000,1772986.550859,-775393366.281904,755521099.224567,241293060.063585,-0.014497,0.014347,0.004546
2.260000,-0.980000,0.240202,0.040000,7845928.417636,-2204619043.090265,2166666278.388067,-1664237506.148510,-0.041322,0.041036,-0.031355
2.300000,-0.980000,0.200242,0.040000,15305209.398812,-4327954232.452979,4212901857.847674,-3810800077.460499,-0.080891,0.080024,-0.071798
2.300000,-0.940000,0.200000,0.040000,18216606.541086,-6162020420.986523,5989308916.843786,-1565801.847736,-0.115120,0.113818,-0.000030
2.260000,-0.940000,0.240000,0.040000,8625821.555564,-3019662939.071800,2959988216.916933,195600838.122284,-0.056555,0.056105,0.003685
2.340000,-0.980000,0.160303,0.040000,29891178.227135,-8735515262.730024,8483918600.478114,-8471372416.975021,-0.163160,0.161264,-0.159606
2.380000,-0.980000,0.120404,0.040000,58897495.805068,-18250473725.713676,17867924130.199059,-18391679935.276222,-0.341687,0.338804,-0.346510
2.380000,-0.940000,0.120000,0.040000,78611057.763415,-26202989748.019520,25487554456.370800,-1588615063.219967,-0.489636,0.484244,-0.029930
2.340000,-0.940000,0.160000,0.040000,37964245.410479,-12673211129.303446,12313700963.051956,-537013630.246961,-0.236739,0.234029,-0.010118
2.420000,-0.980000,0.080604,0.040000,117942077.433190,-39268180366.288910,36842530022.449860,-42749779550.268402,-0.726125,0.707845,-0.805431
2.460000,-0.980000,0.041195,0.040000,241490149.179860,-73862083034.278290,53007521261.856033,-72607884149.908813,-1.273731,1.116566,-1.367975
2.460000,-0.940000,0.040001,0.040000,335950572.946027,-103735257176.131439,84265296655.136780,-4710912405.316328,-1.844385,1.697655,-0.088756
2.420000,-0.940000,0.080001,0.040000,162458034.487363,-55295135742.100479,56027063309.681297,-2999394788.330520,-1.045929,1.051445,-0.056510
2.500000,-0.980000,0.009851,0.040000,594014132.777060,-154585646266.311188,100747375910.023376,-97171418741.280731,-2.608180,2.202442,-1.830766
2.500000,-0.940000,0.000299,0.040000,704001661.843486,-172903091887.925629,90098130347.377335,-5790299190.949741,-2.789566,2.165529,-0.109093
-2.500000,-0.900000,0.010448,0.040000,560473415.776722,-148666136709.621002,440792704470.744812,-47970665787.940750,-4.452106,6.653640,-0.903795
-2.500000,-0.860000,0.009254,0.040000,-526043559.653215,275306642748.704041,52965564022.948883,-68813478758.243973,3.331485,-0.857550,-1.296486
-2.460000,-0.900000,0.041342,0.040000,-299706959.847909,51807176450.556023,236352043026.303040,-35193160350.016266,-0.652649,2.824283,-0.663060
-2.420000,-0.900000,0.080679,0.040000,-152237793.259136,19379431131.930248,51976777939.653442,-23839779354.812359,-0.038198,0.575955,-0.449155
-2.420000,-0.860000,0.080533,0.040000,-143903711.565343,36746114929.671318,23669170841.312801,-1140342231.883826,0.350840,0.104463,-0.021485
-2.460000,-0.860000,0.041056,0.040000,-286596080.767942,102523013810.165298,140390380421.837830,-32354079097.470581,0.558604,1.272047,-0.609570
-2.380000,-0.900000,0.120454,0.040000,-77637150.308186,20880969968.026016,-17582721659.767693,-6745793682.208610,0.374767,-0.349911,-0.127095
-2.340000,-0.900000,0.160341,0.040000,-39640105.668191,11299440244.664621,-10994119108.978689,-3068922969.025185,0.211162,-0.208861,-0.057820
-2.340000,-0.860000,0.160267,0.040000,-34887840.911430,11156004755.447998,-10865122154.059944,4721109466.628720,0.208541,-0.206349,0.088948
-2.380000,-0.860000,0.120356,0.040000,-71412477.259131,21841826749.119823,-21031129133.553898,8634772840.213799,0.406930,-0.400821,0.162684
-2.300000,-0.900000,0.200273,0.040000,-20179970.791587,5773231666.861866,-5622075626.311982,-1271907973.654206,0.107917,-0.106778,-0.023963
-2.260000,-0.900000,0.240227,0.040000,-10185888.562699,2981486228.011348,-2928317400.664078,-442639202.623847,0.055872,-0.055472,-0.008340
-2.260000,-0.860000,0.240178,0.040000,-7684662.188879,2836394818.939466,-2783005551.887933,1570037684.797911,0.053138,-0.052735,0.029580
-2.300000,-0.860000,0.200214,0.040000,-16661677.169174,5635683987.289083,-5487075030.370678,2682174714.039825,0.105340,-0.104220,0.050534
-2.220000,-0.900000,0.280195,0.040000,-5059016.294528,1532030932.870722,-1392091852.794466,-158193255.355307,0.028073,-0.027019,-0.002980
-2.180000,-0.900000,0.320171,0.040000,-2445231.339140,849951331.125922,-832450853.767207,-13653506.941518,0.015915,-0.015783,-0.000257
-2.180000,-0.860000,0.320134,0.040000,-1310502.429560,763819724.323142,-731079237.957697,591770758.915800,0.014206,-0.013959,0.011149
-2.220000,-0.860000,0.280153,0.040000,-3346610.446268,1415357561.209742,-1289412497.994553,1014024534.204640,0.025954,-0.025005,0.019105
2.180000,-0.900000,0.320171,0.040000,461739.579033,-491562774.053494,499272144.859433,591493562.336105,-0.009305,0.009363,0.011144
2.220000,-0.900000,0.280195,0.040000,1763436.800812,-1044213528.554138,908510124.645901,1195407323.333872,-0.018907,0.017884,0.022522
2.220000,-0.860000,0.280153,0.040000,-2092396.840802,-152954169.010955,153398115.202534,1815608414.554759,-0.002884,0.002888,0.034207
2.180000,-0.860000,0.320134,0.040000,-1578527.447064,-33359876.382837,-7482104.768396,865566823.262552,-0.000398,0.000090,0.016308
2.260000,-0.900000,0.240227,0.040000,4861511.199724,-2350918895.209714,2300499638.203472,2209503531.008856,-0.044008,0.043628,0.041628
2.300000,-0.900000,0.200273,0.040000,11823095.967023,-4932821280.077036,4792424252.421279,4137119657.080072,-0.092144,0.091086,0.077946
2.300000,-0.860000,0.200214,0.040000,-2011968.257738,-1212661513.851924,1168841244.222759,6561804152.410195,-0.022600,0.022269,0.123628
2.260000,-0.860000,0.240178,0.040000,-2425156.578825,-445384404.865942,427546269.376779,3378313875.324113,-0.008290,0.008156,0.063649
2.340000,-0.900000,0.160341,0.040000,26916789.260103,-10222053790.524561,9943401428.959793,7950484072.164997,-0.191014,0.188914,0.149792
2.380000,-0.900000,0.120454,0.040000,58844188.823510,-20963734178.183048,20593837508.138706,15758053134.383730,-0.392878,0.390091,0.296891
2.380000,-0.860000,0.120356,0.040000,7450650.786774,-5684490837.319880,5327843264.990939,25309482133.551125,-0.105083,0.102395,0.476845
2.340000,-0.860000,0.160267,0.040000,414270.048681,-2800331652.653352,2723483218.406557,12837854230.829536,-0.052326,0.051746,0.241873
2.420000,-0.900000,0.080679,0.040000,125099192.729368,-42376311282.018982,41118123122.677391,35367685790.754906,-0.791283,0.781801,0.666348
2.460000,-0.900000,0.041342,0.040000,260261016.742356,-73587884630.232193,59266387966.244553,59718882439.430534,-1.305491,1.197561,1.125138
2.460000,-0.860000,0.041056,0.040000,58343460.443176,-10561142194.940149,4209702860.272052,79847966924.514740,-0.163079,0.115213,1.504382
2.420000,-0.860000,0.080533,0.040000,23993445.453895,-8860131130.204376,7529931718.216254,51538750248.777115,-0.159411,0.149387,0.971020
2.500000,-0.900000,0.010448,0.040000,611332884.752109,-141692659567.133301,101303531834.626297,79776613321.069397,-2.441285,2.136904,1.503038
2.500000,-0.860000,0.009254,0.040000,13905089.099526,20679836548.900761,-19250623401.456646,101668576259.822281,0.381542,-0.370771,1.915495
-2.500000,-0.820000,0.000896,0.040000,304521055.986035,-33470368981.466209,260174469942.851440,-8431772491.223084,-1.911972,3.620467,-0.158859
-2.500000,-0.780000,0.011045,0.040000,13100364.099194,-46234397618.478600,-61860244925.147652,-54715909657.232910,-0.260113,-0.554513,-1.030879
-2.460000,-0.820000,0.040010,0.040000,-146695661.387337,52118889839.006622,91760782470.103210,15061760418.442549,0.168717,0.915593,0.283772
-2.420000,-0.820000,0.080005,0.040000,-70233099.652763,15351223215.380400,15233588700.138803,28667457509.300262,0.116355,0.114139,0.540112
-2.420000,-0.780000,0.080759,0.040000,39111114.280913,-10014158788.991936,17498102802.239429,23531163166.955818,-0.230973,0.287374,0.443341
-2.460000,-0.780000,0.041497,0.040000,59916784.502461,-39263822514.270226,39997016792.458786,-8367253349.613499,-0.743897,0.749423,-0.157644
-2.380000,-0.820000,0.120003,0.040000,-31786030.903622,11384158391.255163,-9756813263.805721,20332243583.829945,0.205286,-0.193022,0.383071
-2.340000,-0.820000,0.160003,0.040000,-13168147.103228,6109007982.797392,-5955441645.161128,10782534185.352682,0.114229,-0.113072,0.203149
-2.340000,-0.780000,0.160381,0.040000,17836695.824276,-1648552066.931380,1612300275.787298,12612006970.850021,-0.030855,0.030582,0.237618
-2.380000,-0.780000,0.120507,0.040000,26324346.497964,-2558399675.219124,2336244686.334608,23696850973.661072,-0.046946,0.045272,0.446462
-2.300000,-0.820000,0.200002,0.040000,-4579531.359467,2979620015.874123,-2897775686.346232,5785183708.214122,0.055675,-0.055058,0.108996
-2.260000,-0.820000,0.240002,0.040000,-895517.396756,1398857084.226444,-1368506273.155693,3137713793.235095,0.026184,-0.025955,0.059116
-2.260000,-0.780000,0.240254,0.040000,7985955.851473,-793519512.065967,788946665.642663,3561218229.147995,-0.014925,0.014890,0.067095
-2.300000,-0.780000,0.200305,0.040000,12008793.917101,-1123453349.377485,1107194087.264846,6703172320.850658,-0.021075,0.020952,0.126292
-2.220000,-0.820000,0.280001,0.040000,488568.965761,557259680.769754,-458325235.182391,1741230603.792202,0.009940,-0.009194,0.032806
-2.180000,-0.820000,0.320001,0.040000,857423.911119,211727505.638619,-234193479.047870,874695609.836019,0.004116,-0.004285,0.016480
-2.180000,-0.780000,0.320191,0.040000,3377438.052423,-342623952.868861,380269119.307498,927524029.423236,-0.006668,0.006952,0.017475
-2.220000,-0.780000,0.280218,0.040000,5233529.995516,-499962123.018255,438395600.838759,1935074750.142133,-0.009072,0.008608,0.036458
2.180000,-0.820000,0.320001,0.040000,-3555887.614087,717937582.429261,-682576725.459810,771996433.307173,0.013326,-0.013060,0.014545
2.220000,-0.820000,0.280001,0.040000,-6076431.708497,1119470366.812317,-1063612318.008326,1654148455.310772,0.020776,-0.020355,0.031165
2.220000,-0.780000,0.280218,0.040000,-8397338.908787,1901642619.997169,-1724411776.662638,633401375.298660,0.034826,-0.033491,0.011934
2.180000,-0.780000,0.320191,0.040000,-4551987.765819,1105228541.855367,-1106767366.216768,192430613.549781,0.020832,-0.020843,0.003626
2.260000,-0.820000,0.240002,0.040000,-10347537.278914,1862370618.507740,-1841673481.992217,3111838521.319925,0.034971,-0.034815,0.058629
2.300000,-0.820000,0.200002,0.040000,-17646320.655623,3284590626.805663,-3218562183.967361,6137829008.144232,0.061510,-0.061013,0.115640
2.300000,-0.780000,0.200305,0.040000,-28239051.867176,6598509138.767571,-6457555299.679999,3052180029.550111,0.123523,-0.122461,0.057505
2.260000,-0.780000,0.240254,0.040000,-15408239.271831,3571198997.087123,-3523224042.454420,1471107689.852229,0.067012,-0.066651,0.027717
2.340000,-0.820000,0.160003,0.040000,-30316604.572756,6010835821.134833,-5873144878.739908,12025346282.869532,0.112469,-0.111432,0.226564
2.380000,-0.820000,0.120003,0.040000,-52845175.441788,11440227100.488813,-11135764963.219927,23393528365.316650,0.213820,-0.211525,0.440748
2.380000,-0.780000,0.120507,0.040000,-95778283.779900,23384311088.152130,-22723242174.646980,11750797128.618914,0.436838,-0.431856,0.221392
2.340000,-0.780000,0.160381,0.040000,-51873047.173711,12370958181.143463,-12097673991.174992,6091718851.707466,0.231531,-0.229472,0.114772
2.420000,-0.820000,0.080005,0.040000,-94201719.653373,22858545062.756393,-22348803673.675522,41860658348.404640,0.427787,-0.423946,0.788679
2.460000,-0.820000,0.040010,0.040000,-173022267.007224,42481725149.589699,-31487824122.488491,61024513633.421593,0.738241,-0.655388,1.149737
2.460000,-0.780000,0.041497,0.040000,-334184521.718570,70169080796.159058,-45726934375.158638,28516335139.797367,1.183875,-0.999673,0.537264
2.420000,-0.780000,0.080759,0.040000,-178141957.195779,42793875630.560875,-38873398581.587059,20952610048.527969,0.784102,-0.754557,0.394759
2.500000,-0.820000,0.000896,0.040000,-323551727.789702,69434005159.157013,-33011973188.140831,72528728051.073837,1.102313,-0.827828,1.366483
2.500000,-0.780000,0.011045,0.040000,-577582056.104096,95517384654.506210,-56142962251.797783,33424327106.113682,1.577052,-1.280317,0.629734
-2.500000,-0.740000,0.008657,0.040000,516465999.899179,-247450689505.574554,-20590597233.637623,-168479780029.241882,-3.147098,1.127077,-3.174257
-2.500000,-0.700000,0.001493,0.040000,-646631654.420911,202217074699.320221,-504702825608.917542,-113022056597.605682,5.519589,-7.799192,-2.129401
-2.460000,-0.740000,0.040926,0.040000,251117122.963154,-82265423900.406448,-100937900282.918030,-81506506940.025879,-0.514431,-0.866232,-1.535630
-2.420000,-0.740000,0.080467,0.040000,141143727.814258,-27879486070.964626,-17111196215.948006,-6527760596.820448,-0.270971,-0.068090,-0.122987
-2.420000,-0.700000,0.080014,0.040000,197063948.450018,-12990831141.696268,-74344098965.943008,-19491417211.276928,0.248877,-0.907054,-0.367230
-2.460000,-0.700000,0.040028,0.040000,355847702.324424,-32877980336.792805,-304795284758.554199,-59883553500.946472,1.289148,-3.833932,-1.128241
-2.380000,-0.740000,0.120312,0.040000,80393578.955580,-16359466195.225145,15992583446.454401,17887365198.462788,-0.306148,0.303383,0.337008
-2.340000,-0.740000,0.160234,0.040000,46273235.299776,-9005304042.005653,8805541264.547663,9566086431.539394,-0.168536,0.167031,0.180231
-2.340000,-0.700000,0.160007,0.040000,60863127.694895,-13222601105.844070,12941825536.893002,2882133683.631921,-0.247534,0.245418,0.054301
-2.380000,-0.700000,0.120009,0.040000,109425410.408069,-22369068068.183983,18821969667.494453,5550498094.528206,-0.401397,0.374666,0.104575
-2.300000,-0.740000,0.200187,0.040000,26828817.750409,-5056442363.711133,4951561688.799052,5031360928.193923,-0.094674,0.093883,0.094794
-2.260000,-0.740000,0.240156,0.040000,15616824.116957,-2894084085.949176,2857406802.690859,2608362796.164232,-0.054319,0.054043,0.049143
-2.260000,-0.700000,0.240005,0.040000,18793811.685302,-4095624056.832045,4041447696.917503,580834199.552395,-0.076858,0.076449,0.010943
-2.300000,-0.700000,0.200006,0.040000,33855795.190374,-7328959429.347480,7176877501.561668,1370474273.468951,-0.137222,0.136076,0.025821
-2.220000,-0.740000,0.280134,0.040000,9096266.519090,-1700148310.382982,1590726320.500314,1429367211.120053,-0.031413,0.030589,0.026930
-2.180000,-0.740000,0.320117,0.040000,5284156.214368,-1069375307.164591,1033813742.960959,682990713.363604,-0.019947,0.019679,0.012868
-2.180000,-0.700000,0.320003,0.040000,5685834.490900,-1346723929.356621,1337604683.193299,-73344576.791465,-0.025322,0.025253,-0.001382
-2.220000,-0.700000,0.280004,0.040000,10381741.374056,-2258041474.040325,2062448989.479171,128253082.752868,-0.041437,0.039963,0.002416
2.180000,-0.740000,0.320117,0.040000,-3915771.257013,1175077626.797160,-1168870239.636719,-310445791.385474,0.022104,-0.022057,-0.005849
2.220000,-0.740000,0.280134,0.040000,-7745305.574158,2077066102.981665,-1884181142.769108,-535430060.698635,0.038043,-0.036589,-0.010088
2.220000,-0.700000,0.280004,0.040000,-3874186.826327,1506878277.050875,-1396969499.790045,-1875380116.013972,0.027769,-0.026941,-0.035333
2.180000,-0.700000,0.320003,0.040000,-1565581.702759,857650994.102146,-811849366.303920,-1035860525.323508,0.015900,-0.015555,-0.019516
2.260000,-0.740000,0.240156,0.040000,-15015024.752058,3954935127.007563,-3900687240.605538,-904017281.613964,0.074207,-0.073798,-0.017032
2.300000,-0.740000,0.200187,0.040000,-28732455.861860,7377960041.801391,-7222948214.123001,-1409361839.378982,0.138129,-0.136961,-0.026553
2.300000,-0.700000,0.200006,0.040000,-17928538.513553,5352566059.487229,-5242588509.711670,-5495814689.931235,0.100224,-0.099395,-0.103544
2.260000,-0.700000,0.240005,0.040000,-8588962.488708,2835387051.004028,-2795778343.435730,-3097085864.828930,0.053196,-0.052898,-0.058351
2.340000,-0.740000,0.160234,0.040000,-54525587.372845,13812872902.851240,-13524499343.004156,-2337058570.748087,0.258613,-0.256439,-0.044032
2.380000,-0.740000,0.120312,0.040000,-102927662.186823,25819389096.569084,-25237528085.165051,-4231026881.995322,0.483163,-0.478778,-0.079715
2.380000,-0.700000,0.120009,0.040000,-70492661.086997,18500095677.048759,-18204742514.363815,-18172870378.125938,0.346883,-0.344657,-0.342387
2.340000,-0.700000,0.160007,0.040000,-36026584.254528,10010701978.341406,-9815420935.153896,-9912718278.764517,0.187504,-0.186032,-0.186761
2.420000,-0.740000,0.080467,0.040000,-193629405.665775,46857257395.018028,-43852249095.073769,-6021404292.214549,0.865833,-0.843187,-0.113447
2.460000,-0.740000,0.040926,0.040000,-363306440.340458,75704189319.028122,-54739950401.632187,-5079163147.307519,1.307817,-1.149826,-0.095694
2.460000,-0.700000,0.040028,0.040000,-254682216.642005,57967805587.604904,-53338420331.701210,-43255982502.258949,1.065981,-1.031093,-0.814968
2.420000,-0.700000,0.080014,0.040000,-135145284.059225,34474537051.292381,-35991484508.156929,-30855619577.438812,0.658094,-0.669526,-0.581338
2.500000,-0.740000,0.008657,0.040000,-660363853.642930,111281862390.960602,-72964159285.659866,-3000654781.581114,1.880036,-1.591265,-0.056534
2.500000,-0.700000,0.001493,0.040000,-487690263.312855,90530492968.636124,-56021954641.039612,-49982379674.903229,1.510599,-1.250534,-0.941697
-2.500000,-0.660000,0.011642,0.040000,-649738897.793166,202870261219.659515,-495328981189.082275,88393109959.467407,5.475221,-7.679258,1.665377
-2.500000,-0.620000,0.008060,0.040000,311346258.173298,-189334060133.274506,-77754232778.542084,167621439350.170807,-2.057534,0.044695,3.158085
-2.460000,-0.660000,0.041660,0.040000,338177910.517195,-26153829353.285877,-315465505390.397461,43609201195.023827,1.438139,-4.012661,0.821623
-2.420000,-0.660000,0.080843,0.040000,185945091.109502,-10538471372.129946,-79041440613.435883,11546662928.811176,0.307770,-0.982865,0.217546
-2.420000,-0.620000,0.080405,0.040000,110554612.622931,-21817242406.388672,-25845659923.130005,4699198733.846127,-0.141650,-0.217548,0.088536
-2.460000,-0.620000,0.040804,0.040000,205614667.639019,-69283569513.942230,-122982327925.289124,80405717841.319702,-0.218622,-1.230338,1.514890
-2.380000,-0.660000,0.120563,0.040000,101613882.083853,-21651974258.547081,18211622364.175167,-8552964059.958633,-0.388490,0.362563,-0.161143
-2.340000,-0.660000,0.160423,0.040000,55115850.841508,-12874474248.407362,12614176907.771214,-4986573878.920239,-0.241091,0.239130,-0.093950
-2.340000,-0.620000,0.160203,0.040000,29549462.813079,-8184651578.551836,8029041099.186454,-11347216268.447182,-0.153324,0.152151,-0.213788
-2.380000,-0.620000,0.120270,0.040000,58037303.551729,-14636061307.224834,14108774904.744526,-19847709133.581306,-0.272772,0.268798,-0.373942
-2.300000,-0.660000,0.200339,0.040000,29603264.834400,-7111532140.236986,6966906060.477253,-2979304276.891610,-0.133168,0.132078,-0.056132
-2.260000,-0.660000,0.240282,0.040000,15686586.276529,-3927983757.925028,3875983591.581594,-1826690496.324140,-0.073712,0.073320,-0.034416
-2.260000,-0.620000,0.240135,0.040000,6560802.083034,-2405080200.399552,2372658678.670681,-3793535719.606474,-0.045130,0.044886,-0.071472
-2.300000,-0.620000,0.200162,0.040000,14408377.690822,-4467614903.691047,4378351864.129384,-6529786856.346470,-0.083668,0.082995,-0.123025
-2.220000,-0.660000,0.280242,0.040000,8153052.154340,-2104700213.620219,1904551629.377555,-1092176836.993713,-0.038522,0.037014,-0.020577
-2.180000,-0.660000,0.320212,0.040000,4117628.214512,-1207072761.704338,1211517583.460160,-615462901.420554,-0.022767,0.022801,-0.011596
-2.180000,-0.620000,0.320101,0.040000,755936.368226,-757822884.555598,706185239.681184,-1304740947.669039,-0.013986,0.013597,-0.024582
-2.220000,-0.620000,0.280116,0.040000,2629003.320861,-1308672769.328163,1224553534.087666,-2329916611.807680,-0.024181,0.023547,-0.043897
2.180000,-0.660000,0.320212,0.040000,1925268.507071,-6309376.100057,-33205318.013602,-1273636154.639757,0.000104,-0.000402,-0.023996
2.220000,-0.660000,0.280242,0.040000,2237686.099363,165753423.423330,-94960309.249892,-2455574082.246861,0.002723,-0.002189,-0.046264
2.220000,-0.620000,0.280116,0.040000,8693395.355895,-1109377964.327960,992118417.166573,-2266814293.297318,-0.020239,0.019355,-0.042708
2.180000,-0.620000,0.320101,0.040000,5491241.661388,-692853101.496905,732963274.657273,-1131019006.018204,-0.013280,0.013583,-0.021309
2.260000,-0.660000,0.240282,0.040000,2156114.721126,607843475.128826,-595912775.252850,-4287737041.484525,0.011385,-0.011295,-0.080783
2.300000,-0.660000,0.200339,0.040000,1075349.535964,1315724780.125498,-1286789505.961844,-7703792477.158634,0.024625,-0.024407,-0.145144
2.300000,-0.620000,0.200162,0.040000,22083616.326323,-3275632967.940426,3219473661.048375,-7290750680.087393,-0.061397,0.060974,-0.137362
2.260000,-0.620000,0.240135,0.040000,13809550.378586,-1948062213.479696,1930502664.218972,-4043033291.995580,-0.036603,0.036471,-0.076173
2.340000,-0.660000,0.160423,0.040000,-2164626.517990,2596872907.146588,-2553988180.572148,-13911105836.050108,0.048684,-0.048361,-0.262093
2.380000,-0.660000,0.120563,0.040000,-9645771.814173,4891973886.631693,-5102541825.401691,-25234691603.528416,0.093358,-0.094945,-0.475436
2.380000,-0.620000,0.120270,0.040000,58583309.256698,-10254330699.139956,10196015171.608465,-23485469831.681808,-0.192868,0.192428,-0.442480
2.340000,-0.620000,0.160203,0.040000,35694489.968276,-5683836480.354262,5574995967.302271,-13108407560.493923,-0.106472,0.105651,-0.246970
2.420000,-0.660000,0.080843,0.040000,-24848672.400167,10206400358.789660,-12701039451.581474,-47722274725.283951,0.206395,-0.225195,-0.899115
2.460000,-0.660000,0.041660,0.040000,-53080595.839688,17267054357.386593,-25560638010.249828,-71670208077.923859,0.372198,-0.434700,-1.350308
2.460000,-0.620000,0.040804,0.040000,168336883.216744,-35532832719.559486,23726336019.123192,-67458099705.408852,-0.602727,0.513750,-1.270950
2.420000,-0.620000,0.080405,0.040000,98100412.570236,-19604897350.147877,17686566762.313164,-44426856862.249931,-0.358525,0.344068,-0.837028
2.500000,-0.660000,0.011642,0.040000,-219852195.189860,58287272926.645599,-55639056031.857018,-90009507977.163452,1.083198,-1.063240,-1.695831
2.500000,-0.620000,0.008060,0.040000,370880272.632919,-82802282391.040207,52945732800.450401,-85649203545.269257,-1.391289,1.166283,-1.613681
-2.500000,-0.580000,0.002090,0.040000,-37057090.957069,-57615042753.473015,-60609687247.431580,67749781945.480705,-0.417274,-0.473695,1.276445
-2.500000,-0.540000,0.012239,0.040000,244698175.868385,-31315313169.946266,271186092640.236328,28997340290.864021,-1.945790,3.753512,0.546327
-2.460000,-0.580000,0.040055,0.040000,2406960.122925,-38225140182.753159,29630248458.852097,15940258848.047955,-0.671604,0.606831,0.300324
-2.420000,-0.580000,0.080027,0.040000,-5298642.375890,-8336045535.848591,13110302333.681435,-20330520702.570171,-0.184041,0.220021,-0.383039
-2.420000,-0.540000,0.080931,0.040000,-125722834.435776,13468522930.189785,16476435297.330936,-27872337816.007874,0.084501,0.141171,-0.525131
-2.460000,-0.540000,0.041830,0.040000,-207695590.048053,50178908582.754021,92685090654.309677,-4168459393.710839,0.137908,0.938749,-0.078536
-2.380000,-0.580000,0.120018,0.040000,-8305779.480754,-1589777476.644313,1515364749.841258,-24760535947.896301,-0.029532,0.028971,-0.466503
-2.340000,-0.580000,0.160014,0.040000,-8622028.277873,-772653723.400187,764777271.942183,-14171488621.497950,-0.014513,0.014453,-0.266999
-2.340000,-0.540000,0.160467,0.040000,-47963195.590857,6997230940.347324,-6862970689.023515,-12658543807.697733,0.131073,-0.130061,-0.238494
-2.380000,-0.540000,0.120623,0.040000,-77192653.651175,11173553017.552088,-9592882868.857891,-22059981810.003361,0.201582,-0.189670,-0.415623
-2.300000,-0.580000,0.200011,0.040000,-7652677.231331,-258327492.993421,251048760.539379,-8114065294.457230,-0.004826,0.004771,-0.152874
-2.260000,-0.580000,0.240009,0.040000,-6238432.255790,6986975.411031,-10096631.629860,-4656369845.889341,0.000149,-0.000173,-0.087729
-2.260000,-0.540000,0.240312,0.040000,-18998301.493300,2564961307.505723,-2538837137.284425,-4114231298.871734,0.048178,-0.047981,-0.077515
-2.300000,-0.540000,0.200374,0.040000,-30082071.433933,4194527839.240467,-4120211389.197468,-7231169312.977224,0.078607,-0.078047,-0.136239
-2.220000,-0.580000,0.280008,0.040000,-4818314.003231,196376321.893707,-241903064.407094,-2751499883.833544,0.003957,-0.004300,-0.051840
-2.180000,-0.580000,0.320007,0.040000,-3584535.132089,238963202.645985,-192083843.548782,-1475484153.354058,0.004237,-0.003884,-0.027799
-2.180000,-0.540000,0.320234,0.040000,-7670404.260104,961676427.164819,-1001126447.724262,-1197582865.132168,0.018342,-0.018639,-0.022563
-2.220000,-0.540000,0.280267,0.040000,-12055023.052158,1509074721.762944,-1362117348.625796,-2350854959.680048,0.027601,-0.026494,-0.044291
2.180000,-0.580000,0.320007,0.040000,7921553.814035,-1464439175.490642,1428730459.524748,-739364925.889450,-0.027389,0.027120,-0.013930
2.220000,-0.580000,0.280008,0.040000,13316430.537070,-2326552196.111565,2171852178.884619,-1430102685.851211,-0.042959,0.041793,-0.026944
2.220000,-0.540000,0.280267,0.040000,14382603.718097,-2736285224.331922,2520855061.227091,177421287.653658,-0.050336,0.048712,0.003343
2.180000,-0.540000,0.320234,0.040000,8264932.191514,-1678472548.591115,1665884394.682803,214724524.651200,-0.031552,0.031457,0.004046
2.260000,-0.580000,0.240009,0.040000,22452450.461579,-3968860518.030238,3930050390.287796,-2437426363.089789,-0.074556,0.074264,-0.045923
2.300000,-0.580000,0.200011,0.040000,38030793.344267,-6869321669.354865,6752418578.474574,-4448567447.918433,-0.128761,0.127880,-0.083814
2.300000,-0.540000,0.200374,0.040000,43371751.504104,-8333830119.355330,8197023802.928498,-144639648.669340,-0.156241,0.155210,-0.002725
2.260000,-0.540000,0.240312,0.040000,24981515.061497,-4799431848.240292,4753427956.418908,11202188.718156,-0.090164,0.089817,0.000211
2.340000,-0.580000,0.160014,0.040000,64805900.609709,-12044432446.538582,11833341748.405924,-7993205203.071224,-0.225731,0.224140,-0.150597
2.380000,-0.580000,0.120018,0.040000,111225145.112468,-21305890234.436939,20914254862.679966,-14130827459.963715,-0.399202,0.396250,-0.266233
2.380000,-0.540000,0.120623,0.040000,131033647.798056,-25450573237.148426,25021712176.492508,-654085860.149800,-0.477080,0.473848,-0.012323
2.340000,-0.540000,0.160467,0.040000,75342193.988895,-14554395935.746035,14315775232.145769,-389970761.818859,-0.272865,0.271066,-0.007347
2.420000,-0.580000,0.080027,0.040000,192421938.022203,-38350557784.039948,37758023346.560936,-23333570308.086781,-0.719198,0.714732,-0.439618
2.460000,-0.580000,0.040055,0.040000,335690391.367988,-65016281449.218483,51002010062.126564,-33314727405.159702,-1.145733,1.040119,-0.627669
2.460000,-0.540000,0.041830,0.040000,398013109.985310,-67254080084.846848,51503195051.503044,3004248346.251130,-1.178079,1.059377,0.056602
2.420000,-0.540000,0.080931,0.040000,228220021.245155,-43581447596.264557,41383659774.721039,384570669.694258,-0.808677,0.792114,0.007246
2.500000,-0.580000,0.002090,0.040000,583767918.991412,-98886732571.877899,51220975777.338684,-39549583454.452438,-1.593668,1.234448,-0.745137
2.500000,-0.540000,0.012239,0.040000,690572463.737109,-98723368128.254807,69409544239.986984,5301354731.847652,-1.694319,1.473403,0.099881
-2.500000,-0.500000,0.007463,0.040000,-650353474.783997,336105002566.726746,78157978390.246445,121902853556.636230,3.990927,-0.868945,2.296720
-2.500000,-0.460000,0.002687,0.040000,711448664.961042,-207043001569.930176,587432091377.437012,97505854101.274948,-6.050835,8.917536,1.837067
-2.460000,-0.500000,0.040690,0.040000,-361890327.520409,110965281683.222153,169867044167.786346,59711556177.850273,0.503337,1.613080,1.125000
-2.420000,-0.500000,0.080347,0.040000,-214374250.620390,34023160957.662594,34895830869.690056,5465450638.320290,0.251474,0.267916,0.102972
-2.420000,-0.460000,0.080045,0.040000,-245044769.933563,11845230054.775023,84443531030.153900,25804609716.474876,-0.321070,1.046724,0.486174
-2.460000,-0.460000,0.040090,0.040000,-416133248.873214,39502708543.862755,339400934269.664429,56509739313.512703,-1.397375,4.252881,1.064676
-2.380000,-0.500000,0.120232,0.040000,-127694705.681524,21816937436.533234,-21314748245.396072,-12792269932.809195,0.408205,-0.404421,-0.241014
-2.340000,-0.500000,0.160174,0.040000,-76460325.094640,12795560269.159016,-12565354699.903635,-7352346287.201481,0.239775,-0.238040,-0.138522
-2.340000,-0.460000,0.160023,0.040000,-85129305.768430,14991938238.654686,-14734726916.477077,140556639.155924,0.281003,-0.279065,0.002648
-2.380000,-0.460000,0.120030,0.040000,-144387447.267860,23749356171.209541,-19989969873.146675,70342161.275088,0.426203,-0.397871,0.001325
-2.300000,-0.500000,0.200139,0.040000,-45996818.937655,7545441473.912206,-7413889449.015492,-4147604540.624807,0.141417,-0.140426,-0.078143
-2.260000,-0.500000,0.240116,0.040000,-27779523.995495,4492628749.541582,-4446046131.659372,-2302164816.546186,0.084380,-0.084029,-0.043374
-2.260000,-0.460000,0.240015,0.040000,-29612393.510232,5212626588.888015,-5159627041.662075,271218002.865401,0.097909,-0.097510,0.005110
-2.300000,-0.460000,0.200018,0.040000,-50210760.380992,8819657760.911955,-8669888377.778860,236218827.608557,0.165321,-0.164192,0.004450
-2.220000,-0.500000,0.280099,0.040000,-16827804.371815,2698542906.948555,-2518052700.908547,-1378793779.375107,0.049822,-0.048462,-0.025977
-2.180000,-0.500000,0.320087,0.040000,-10213207.342661,1731495083.037821,-1695336396.501446,-728483133.517707,0.032418,-0.032145,-0.013725
-2.180000,-0.460000,0.320011,0.040000,-10261463.560087,1914966970.036997,-1898411541.748351,337497391.520568,0.035986,-0.035861,0.006359
-2.220000,-0.460000,0.280013,0.040000,-17449132.025596,3052088883.919238,-2819089267.959703,362755691.591776,0.056186,-0.054430,0.006835
2.180000,-0.500000,0.320087,0.040000,6153920.842745,-1390648626.008326,1406311781.961989,822606973.897810,-0.026289,0.026407,0.015498
2.220000,-0.500000,0.280099,0.040000,11194877.587876,-2332860770.881758,2122791216.396216,1497426088.254710,-0.042765,0.041182,0.028212
2.220000,-0.460000,0.280013,0.040000,4324498.798337,-1353043740.364419,1283594358.158643,2719247633.834884,-0.025100,0.024576,0.051232
2.180000,-0.460000,0.320011,0.040000,1945886.927710,-837852024.392035,783418842.717643,1541169583.451113,-0.015478,0.015068,0.029037
2.260000,-0.500000,0.240116,0.040000,20118998.258879,-4184313636.681106,4145747810.652307,2539611231.164761,-0.078617,0.078326,0.047848
2.300000,-0.500000,0.200139,0.040000,35835919.235857,-7268978620.848750,7154868929.751954,4257994003.796606,-0.136307,0.135447,0.080223
2.300000,-0.460000,0.200018,0.040000,17058717.716759,-4054518580.242703,3994828502.464774,7447743400.937286,-0.076052,0.075602,0.140320
2.260000,-0.460000,0.240015,0.040000,8811509.409730,-2315061660.221745,2294703068.100375,4389859264.507879,-0.043502,0.043349,0.082707
2.340000,-0.500000,0.160174,0.040000,63394418.636064,-12625186611.072153,12432540233.583563,7266223159.730356,-0.236777,0.235325,0.136900
2.380000,-0.500000,0.120232,0.040000,111516993.196472,-21785854187.906170,21382323330.287865,12618346417.325670,-0.408177,0.405136,0.237737
2.380000,-0.460000,0.120030,0.040000,58198324.842734,-12018261516.506052,11933482666.060976,21842179203.871540,-0.225952,0.225313,0.411519
2.340000,-0.460000,0.160023,0.040000,31911192.922235,-7023831464.229559,6928660247.612766,12719834950.682112,-0.131795,0.131078,0.239649
2.420000,-0.500000,0.080347,0.040000,195188815.904248,-36201309540.349564,35117771896.597206,20789438241.546471,-0.675929,0.667764,0.391685
2.460000,-0.500000,0.040690,0.040000,339955811.259295,-53105648657.676773,43437873786.291924,26545959461.113049,-0.945897,0.873039,0.500141
2.460000,-0.460000,0.040090,0.040000,182486943.520419,-32542289278.654606,36760908156.701210,46642135572.728851,-0.636960,0.668752,0.878765
2.420000,-0.460000,0.080045,0.040000,103983748.111023,-20987741698.354374,23457308255.973240,34518653576.280762,-0.409380,0.427991,0.650351
2.500000,-0.500000,0.007463,0.040000,552241066.347834,-63524349338.591362,48433018850.096817,29628360674.525093,-1.111537,0.997805,0.558215
2.500000,-0.460000,0.002687,0.040000,339046904.416440,-50258879826.550552,39977370391.630859,52767492797.077095,-0.888794,0.811310,0.994170
-2.500000,-0.420000,0.012836,0.040000,662397365.092315,-214443716384.094360,511985280465.512573,-99057884975.457489,-5.722001,7.964343,-1.866308
-2.500000,-0.380000,0.006866,0.040000,-285405833.319282,181959248596.699432,85227611524.588226,-183331512724.231720,1.918031,0.095551,-3.454072
-2.460000,-0.420000,0.042009,0.040000,-355950507.945217,16296107920.976849,334385708317.537354,-46281482066.134056,-1.675086,4.317906,-0.871970
-2.420000,-0.420000,0.081023,0.040000,-208434318.782609,5600214689.082126,87204312092.167374,-9044600814.338442,-0.419036,1.118432,-0.170406
-2.420000,-0.380000,0.080294,0.040000,-113798510.201288,17934730871.595772,28368005893.536674,-5428948743.734957,0.076190,0.272759,-0.102285
-2.460000,-0.380000,0.040585,0.040000,-198199613.453642,63518561163.530991,124018997815.816925,-88479970103.609116,0.136732,1.276595,-1.667014
-2.380000,-0.420000,0.120685,0.040000,-121538786.629421,20544516210.598938,-17186814312.168362,12714059324.911537,0.368092,-0.342788,0.239540
-2.340000,-0.420000,0.160514,0.040000,-70554340.697340,13043353361.548130,-12830059081.108616,7688473560.905203,0.244539,-0.242931,0.144855
-2.340000,-0.380000,0.160147,0.040000,-35746582.451160,7549756849.544672,-7434900072.962008,13246855011.405846,0.141593,-0.140727,0.249578
-2.380000,-0.380000,0.120196,0.040000,-64354151.528248,12725881854.850100,-12300983373.182474,22029748210.036953,0.237361,-0.234159,0.415053
-2.300000,-0.420000,0.200411,0.040000,-40749472.727831,7661756202.134095,-7535456377.265876,4682908047.663294,0.143638,-0.142686,0.088229
-2.260000,-0.420000,0.240343,0.040000,-23389544.675900,4501542667.401462,-4457043783.629457,2887491815.938032,0.084560,-0.084225,0.054402
-2.260000,-0.380000,0.240098,0.040000,-10214060.870750,2535094193.285835,-2510850097.048734,4826750999.011037,0.047626,-0.047443,0.090939
-2.300000,-0.380000,0.200118,0.040000,-19408636.495767,4392413468.863314,-4322772668.818379,7976422168.569746,0.082362,-0.081837,0.150280
-2.220000,-0.420000,0.280294,0.040000,-13318101.910289,2562368243.815213,-2334166813.998747,1756317713.555954,0.046987,-0.045267,0.033090
-2.180000,-0.420000,0.320257,0.040000,-7501986.623013,1555200925.750755,-1574215686.848274,995509917.837972,0.029408,-0.029552,0.018756
-2.180000,-0.380000,0.320074,0.040000,-2383006.369549,942764131.022292,-882543521.700686,1777332107.146575,0.017422,-0.016968,0.033486
-2.220000,-0.380000,0.280084,0.040000,-5130389.056404,1500791464.370442,-1424673233.207426,3059071631.767982,0.027846,-0.027272,0.057635
2.180000,-0.420000,0.320257,0.040000,-3357740.766474,271128590.249132,-217731880.605649,1689231866.405446,0.004806,-0.004404,0.031826
2.220000,-0.420000,0.280294,0.040000,-4538845.365886,290148116.653983,-325682235.841557,3053518258.979018,0.005667,-0.005935,0.057530
2.220000,-0.380000,0.280084,0.040000,-13063437.017589,1636295554.706571,-1479691923.573817,2543148828.569400,0.029944,-0.028763,0.047914
2.180000,-0.380000,0.320074,0.040000,-8382932.470816,1029753389.702069,-1072355367.071438,1361044214.037567,0.019642,-0.019963,0.025643
2.260000,-0.420000,0.240343,0.040000,-6059302.904497,258739664.602031,-256513744.587909,5030997651.181662,0.004862,-0.004845,0.094787
2.300000,-0.420000,0.200411,0.040000,-7993126.136560,332387440.645025,-324271899.572750,8538390033.368160,0.006217,-0.006155,0.160868
2.300000,-0.380000,0.200118,0.040000,-32526295.926388,4642515692.828339,-4572883658.371844,7278376682.827865,0.087074,-0.086549,0.137129
2.260000,-0.380000,0.240098,0.040000,-20520417.379766,2810182919.572758,-2787716207.387302,4293330157.843007,0.052818,-0.052649,0.080889
2.340000,-0.420000,0.160514,0.040000,-10461532.266461,498405378.742377,-477579918.635602,14514651057.056349,0.009273,-0.009116,0.273464
2.380000,-0.420000,0.120685,0.040000,-13739776.879123,788459514.913025,-473210840.543601,24694992080.845413,0.013073,-0.010697,0.465268
2.380000,-0.380000,0.120196,0.040000,-84297246.325288,13292184616.261375,-13183839236.843893,20741101222.965694,0.249820,-0.249004,0.390774
2.340000,-0.380000,0.160147,0.040000,-52076975.165367,7790765515.620803,-7668462806.588225,12306980367.778086,0.146091,-0.145170,0.231871
2.420000,-0.420000,0.081023,0.040000,-18546919.198038,-328590388.751215,3909784668.955287,43388684438.350815,-0.026432,0.053421,0.817468
2.460000,-0.420000,0.042009,0.040000,-26750632.020310,-1650957305.747606,15632959165.556780,62242299999.345093,-0.110134,0.215505,1.172681
2.460000,-0.380000,0.040585,0.040000,-228810615.891385,39194573453.316231,-24164532934.101006,55737459698.006973,0.653496,-0.540226,1.050126
2.420000,-0.380000,0.080294,0.040000,-138048467.968301,23169192918.583397,-20393240411.222416,37363865066.165665,0.420831,-0.399911,0.703957
2.500000,-0.420000,0.012836,0.040000,75040918.599878,-33796143300.380707,40817623076.298676,76462550073.569061,-0.676426,0.729341,1.440599
2.500000,-0.380000,0.006866,0.040000,-436374364.097720,80229613697.699493,-48600541787.469017,70470372802.412552,1.332799,-1.094435,1.327703
-2.500000,-0.340000,0.003284,0.040000,15287407.698876,67030017096.752304,40981176136.363045,-76075230982.497681,0.652386,0.161611,-1.433301
-2.500000,-0.300000,0.013433,0.040000,-258845416.665689,34371166590.101242,-294618009694.464050,-32557202502.080841,2.118533,-4.079814,-0.613397
-2.460000,-0.340000,0.040135,0.040000,15213620.894163,36529080209.320984,-40845278075.505257,-20706724193.680748,0.712625,-0.745153,-0.390127
-2.420000,-0.340000,0.080067,0.040000,14364289.918024,7169725949.351025,-15336850900.868687,18863192003.647430,0.181244,-0.242793,0.355393
-2.420000,-0.300000,0.081120,0.040000,143242838.174266,-12778082454.027464,-20780135363.569584,27733591638.167797,-0.051070,-0.201833,0.522517
-2.460000,-0.300000,0.042195,0.040000,229463470.454011,-50569083253.995522,-106781768551.905579,2092225269.070170,-0.063376,-1.122456,0.039419
-2.380000,-0.340000,0.120045,0.040000,12760636.456868,232910312.163721,-308617504.084115,25580068222.237289,0.004816,-0.005387,0.481943
-2.340000,-0.340000,0.160034,0.040000,10772683.911784,12705634.566019,-22514793.829443,15381340391.519722,0.000295,-0.000369,0.289793
-2.340000,-0.300000,0.160563,0.040000,57295796.559255,-7604301272.709026,7476002634.982872,13587481019.328999,-0.142544,0.141577,0.255996
-2.380000,-0.300000,0.120749,0.040000,90210504.310909,-11671016695.122137,10029143350.400469,22600827443.996101,-0.210609,0.198235,0.425813
-2.300000,-0.340000,0.200027,0.040000,8736797.934328,-116273784.497714,112307248.249505,9241772347.123589,-0.002168,0.002138,0.174120
-2.260000,-0.340000,0.240022,0.040000,6869220.882317,-176244312.261218,174383237.892580,5560722255.931886,-0.003310,0.003296,0.104767
-2.260000,-0.300000,0.240376,0.040000,23661555.900239,-2933475742.788757,2906548093.573388,4883074001.526817,-0.055116,0.054913,0.092000
-2.300000,-0.300000,0.200451,0.040000,36682604.153664,-4694150369.489429,4618861592.932889,8151365871.556041,-0.088015,0.087448,0.153576
-2.220000,-0.340000,0.280019,0.040000,5273200.374113,-275113221.208007,318553755.348620,3439741849.155561,-0.005429,0.005756,0.064807
-2.180000,-0.340000,0.320017,0.040000,3974104.107001,-282154695.084868,222527167.589366,1946126824.193493,-0.004979,0.004530,0.036666
-2.180000,-0.300000,0.320282,0.040000,10048256.025368,-1127607895.681607,1176016880.981269,1610473112.600844,-0.021518,0.021883,0.030342
-2.220000,-0.300000,0.280322,0.040000,15369246.780900,-1754579208.702199,1586286836.980019,2944015267.282083,-0.032106,0.030838,0.055467
2.180000,-0.340000,0.320017,0.040000,-11760597.470261,1827964577.876724,-1793619450.868862,865745912.758599,0.034246,-0.033987,0.016311
2.220000,-0.340000,0.280019,0.040000,-18925550.777077,2819471232.803087,-2639482464.360126,1518668996.622496,0.052103,-0.050747,0.028613
2.220000,-0.300000,0.280322,0.040000,-20444202.108319,3160452454.583487,-2932433288.137040,-236536006.624504,0.058256,-0.056538,-0.004456
2.180000,-0.300000,0.320282,0.040000,-12501021.412314,2018762397.591893,-2008450335.084382,-226816200.433733,0.037976,-0.037899,-0.004273
2.260000,-0.340000,0.240022,0.040000,-30628467.763461,4645906668.887160,-4610757796.765711,2390656957.685447,0.087333,-0.087068,0.045041
2.300000,-0.340000,0.200027,0.040000,-49854688.752675,7714119637.059406,-7604988213.056549,4065422809.730676,0.144722,-0.143899,0.076595
2.300000,-0.300000,0.200451,0.040000,-55204547.652665,8769745830.772043,-8651557973.401628,-208687766.634606,0.164559,-0.163668,-0.003932
2.260000,-0.300000,0.240376,0.040000,-33542550.563051,5288071934.950389,-5250415287.791225,-160906995.618433,0.099417,-0.099134,-0.003032
2.340000,-0.340000,0.160034,0.040000,-81618574.000176,12912442273.923620,-12727941099.790180,6844617111.762486,0.242235,-0.240845,0.128957
2.380000,-0.340000,0.120045,0.040000,-134374822.484864,21691466357.752979,-21362010783.480179,11394393169.368361,0.406818,-0.404335,0.214677
2.380000,-0.300000,0.120749,0.040000,-150780663.339421,24354002599.107853,-24028165265.792130,-647539656.570979,0.457002,-0.454546,-0.012200
2.340000,-0.300000,0.160563,0.040000,-91118643.615945,14610978820.120968,-14415706443.425346,-327897136.703724,0.274176,-0.272704,-0.006178
2.420000,-0.340000,0.080067,0.040000,-222420493.226688,36818561138.476295,-35941700132.975922,18151592566.893230,0.688727,-0.682119,0.341987
2.460000,-0.340000,0.040135,0.040000,-369978230.786156,59819599220.698441,-46494080125.770020,25959833451.221214,1.051718,-0.951294,0.489098
2.460000,-0.300000,0.042195,0.040000,-415247952.593482,59235505314.458069,-47188081605.656219,-4140997571.237582,1.047937,-0.957145,-0.078019
2.420000,-0.300000,0.081120,0.040000,-250032091.556916,39851683769.956169,-38226491828.865448,-2005359221.817195,0.741643,-0.729395,-0.037782
2.500000,-0.340000,0.003284,0.040000,-608282501.985856,87490503683.168106,-45418054804.923439,31164995666.682495,1.410571,-1.093503,0.587167
2.500000,-0.300000,0.013433,0.040000,-689998903.276320,84950838418.510178,-62523161193.914528,-5613935672.463014,1.473758,-1.304738,-0.105770
-2.500000,-0.260000,0.006269,0.040000,670617056.788632,-352115540728.166382,-98615324210.415298,-131750463814.069260,-4.086452,0.689639,-2.482255
-2.500000,-0.220000,0.003881,0.040000,-752314830.635973,225546446117.933319,-632485797861.179077,-104201678472.828461,6.549518,-9.616307,-1.963220
-2.460000,-0.260000,0.040488,0.040000,390727314.846209,-114099863904.551498,-187783108779.911835,-64911911607.963394,-0.443413,-1.831648,-1.222978
-2.420000,-0.260000,0.080245,0.040000,240241509.253751,-32921695484.569965,-41011597182.251060,-6211698096.774712,-0.202380,-0.354798,-0.117032
-2.420000,-0.220000,0.080094,0.040000,280971680.673851,-9137498309.411938,-94976378125.725372,-25681657675.982189,0.416314,-1.200940,-0.483857
-2.460000,-0.220000,0.040188,0.040000,459182768.639881,-35376365712.537140,-371975139877.610229,-58789809157.742050,1.635910,-4.705806,-1.107634
-2.380000,-0.260000,0.120164,0.040000,148320794.054639,-21950469885.038071,21478709588.279057,13889738107.482605,-0.410893,0.407338,0.261691
-2.340000,-0.260000,0.160123,0.040000,91979109.040333,-13385525650.919634,13173142588.513708,8358073374.181476,-0.250991,0.249390,0.157471
-2.340000,-0.220000,0.160047,0.040000,105826161.236936,-15920162163.298233,15676401749.041702,1011627800.586957,-0.298567,0.296730,0.019060
-2.380000,-0.220000,0.120063,0.040000,172235879.209545,-24271103930.450554,20342409288.780998,1762642468.345606,-0.435076,0.405468,0.033209
-2.300000,-0.260000,0.200098,0.040000,57312502.012373,-8180000291.007249,8053095830.905084,4980858526.483443,-0.153399,0.152442,0.093842
-2.260000,-0.260000,0.240082,0.040000,35891961.523476,-5033385506.277145,4988572295.073652,2950699218.032584,-0.094579,0.094241,0.055593
-2.260000,-0.220000,0.240031,0.040000,40307297.059046,-5943505465.624956,5892044134.756236,233664988.610332,-0.111688,0.111300,0.004402
-2.300000,-0.220000,0.200038,0.040000,65205206.923089,-9705231041.795799,9558202314.666168,516458449.334722,-0.182021,0.180913,0.009730
-2.220000,-0.260000,0.280070,0.040000,22595716.557223,-3123007882.269537,2928297483.506971,1879685238.956292,-0.057739,0.056271,0.035414
-2.180000,-0.260000,0.320061,0.040000,14302509.549157,-2061616354.094880,2019192647.345807,1081931199.509485,-0.038602,0.038283,0.020384
-2.180000,-0.220000,0.320024,0.040000,15577446.410645,-2329419557.198733,2320269116.430230,-129128545.465839,-0.043836,0.043767,-0.002433
-2.220000,-0.220000,0.280027,0.040000,25007505.249307,-3602252645.405921,3338956816.521909,-26175946.227599,-0.066380,0.064396,-0.000493
2.180000,-0.260000,0.320061,0.040000,-10263453.874132,1692712412.299253,-1714415557.473748,-891825343.275678,0.032014,-0.032178,-0.016803
2.220000,-0.260000,0.280070,0.040000,-17030311.748689,2697417093.847699,-2476474195.353857,-1610968996.567160,0.049572,-0.047907,-0.030352
2.220000,-0.220000,0.280027,0.040000,-9340790.230961,1696897869.432961,-1617452840.572912,-2912794500.571049,0.031522,-0.030923,-0.054879
2.180000,-0.220000,0.320024,0.040000,-5452744.009645,1116230736.188710,-1062351962.837386,-1704846136.204201,0.020726,-0.020320,-0.032120
2.260000,-0.260000,0.240082,0.040000,-28266280.250731,4584930924.532926,-4554699176.651591,-2694490821.902032,0.086212,-0.085984,-0.050766
2.300000,-0.260000,0.200098,0.040000,-46927688.200916,7585757811.841311,-7489016477.367141,-4421479714.922613,0.142373,-0.141644,-0.083303
2.300000,-0.220000,0.200038,0.040000,-26855985.809600,4510264029.214587,-4458174996.246089,-7514520012.844761,0.084682,-0.084289,-0.141578
2.260000,-0.220000,0.240031,0.040000,-15886178.027926,2730912732.461984,-2715393178.213722,-4569275201.730859,0.051364,-0.051247,-0.086088
2.340000,-0.260000,0.160123,0.040000,-77916591.275877,12574781674.759270,-12418438790.967220,-7324729688.676594,0.236032,-0.234854,-0.138002
2.380000,-0.260000,0.120164,0.040000,-129340986.564763,20767155553.988647,-20457520039.324100,-12237971689.991722,0.389515,-0.387182,-0.230570
2.380000,-0.220000,0.120063,0.040000,-75540672.744169,12216094160.753588,-12169835049.414869,-20535497748.022423,0.229897,-0.229548,-0.386901
2.340000,-0.220000,0.160047,0.040000,-45157198.411998,7433801933.864205,-7352839115.912254,-12406319843.464207,0.139600,-0.138989,-0.233742
2.420000,-0.260000,0.080245,0.040000,-214565610.840459,33258093185.681705,-33060410693.724922,-19036865751.506283,0.625484,-0.623995,-0.358666
2.460000,-0.260000,0.040488,0.040000,-355513916.111600,46876840439.231415,-41748914091.249809,-23020157574.843849,0.854203,-0.815558,-0.433713
2.460000,-0.220000,0.040188,0.040000,-208064466.449650,31267668298.945770,-38534039203.568741,-40694291694.724960,0.630172,-0.684933,-0.766704
2.420000,-0.220000,0.080094,0.040000,-125710833.001541,20799626722.946373,-23965568129.914806,-31058186414.273796,0.409771,-0.433631,-0.585154
2.500000,-0.260000,0.006269,0.040000,-560862351.727417,54488504942.914696,-46395643806.804230,-24592860394.244202,0.980853,-0.919863,-0.463344
2.500000,-0.220000,0.003881,0.040000,-372810840.169643,48403190076.671501,-42685197392.594040,-45035338914.423950,0.879625,-0.836533,-0.848492
-2.500000,-0.180000,0.014030,0.040000,-732935954.011758,231205582623.795563,-588517744477.182983,100353673942.089676,6.375638,-9.068425,1.890721
-2.500000,-0.140000,0.005672,0.040000,415169831.445751,-253359810512.545563,-108550159627.821945,167716552831.419403,-2.727868,0.000430,3.159877
-2.460000,-0.180000,0.042389,0.040000,418036257.957541,-21184747953.547035,-370922194709.913940,49247949293.160355,1.817124,-4.772133,0.927860
-2.420000,-0.180000,0.081221,0.040000,254909273.595589,-5207754510.110765,-97319663775.147278,13571613238.958830,0.481386,-1.254056,0.255697
-2.420000,-0.140000,0.080201,0.040000,167600182.707465,-22551171772.759399,-38529042920.605667,4607235740.032737,-0.079641,-0.380674,0.086803
-2.460000,-0.140000,0.040400,0.040000,276689053.457907,-84407796902.860809,-163935793977.044556,80910986545.293533,-0.186611,-1.684964,1.524410
-2.380000,-0.180000,0.120817,0.040000,155467103.234073,-22224792605.708073,18521961236.585922,-10662035958.954779,-0.397799,0.369894,-0.200879
-2.340000,-0.180000,0.160614,0.040000,94889368.949149,-14611348603.054932,14394423210.693209,-6655955920.415362,-0.274060,0.272425,-0.125402
-2.340000,-0.140000,0.160100,0.040000,61205598.901491,-9783560090.215849,9643997842.881996,-12805741704.195189,-0.183539,0.182487,-0.241268
-2.380000,-0.140000,0.120134,0.040000,101345586.783610,-16008215930.155476,15537511272.034636,-20745639953.461346,-0.298944,0.295396,-0.390860
-2.300000,-0.180000,0.200491,0.040000,57988605.701685,-8891852496.650343,8760129887.681789,-4152061522.517018,-0.166783,0.165790,-0.078227
-2.260000,-0.180000,0.240410,0.040000,35498917.756033,-5427576294.242597,5381941021.446276,-2607541923.036920,-0.102001,0.101657,-0.049128
-2.260000,-0.140000,0.240067,0.040000,22270355.535919,-3596103612.268010,3567115717.463782,-4884597051.309218,-0.067589,0.067370,-0.092029
-2.300000,-0.140000,0.200080,0.040000,36931000.987642,-5927418288.866898,5842159580.309334,-7897789654.577457,-0.111194,0.110552,-0.148799
-2.220000,-0.180000,0.280351,0.040000,21777870.868909,-3238771713.215356,2978377847.951091,-1583405340.663580,-0.059549,0.057586,-0.029832
-2.180000,-0.180000,0.320307,0.040000,13393713.650567,-2059088093.890178,2076706795.329433,-892928257.958970,-0.038894,0.039027,-0.016823
-2.180000,-0.140000,0.320050,0.040000,8088558.527802,-1467247495.800421,1406483081.283887,-1893520200.275569,-0.027300,0.026842,-0.035675
-2.220000,-0.140000,0.280057,0.040000,13423898.152420,-2228592712.219448,2111438311.596746,-3172825864.970983,-0.041326,0.040443,-0.059778
2.180000,-0.180000,0.320307,0.040000,876714.116140,-47142338.410916,-11304455.483736,-1906742194.122776,-0.000558,0.000117,-0.035924
2.220000,-0.180000,0.280351,0.040000,889435.387632,23731635.609628,30077245.482255,-3328954895.296542,0.000143,0.000263,-0.062719
2.220000,-0.140000,0.280057,0.040000,11282636.548711,-1378579465.640898,1235677719.854313,-2961363174.771725,-0.025166,0.024089,-0.055794
2.180000,-0.140000,0.320050,0.040000,7279833.136955,-857762141.310153,906600888.149779,-1672270716.094432,-0.016437,0.016805,-0.031507
2.260000,-0.180000,0.240410,0.040000,726500.236630,200812078.746651,-203163030.779993,-5327670162.517897,0.003797,-0.003814,-0.100376
2.300000,-0.180000,0.200491,0.040000,233987.761857,342993517.802685,-346597998.282963,-8747202875.441208,0.006483,-0.006510,-0.164802
2.300000,-0.140000,0.200080,0.040000,27861535.141962,-3880937712.909141,3824424658.319344,-7856239503.498452,-0.072800,0.072374,-0.148016
2.260000,-0.140000,0.240067,0.040000,17649800.041358,-2378476304.673072,2359605794.630903,-4798017876.862378,-0.044705,0.044563,-0.090397
2.340000,-0.180000,0.160614,0.040000,-822111.278751,540525013.107801,-550872555.725420,-14384570585.586231,0.010242,-0.010320,-0.271014
2.380000,-0.180000,0.120817,0.040000,-2764644.341855,915654273.951993,-1209144200.555791,-23675136071.033073,0.018910,-0.021122,-0.446053
2.380000,-0.140000,0.120134,0.040000,71249825.282008,-10643743951.826572,10569068221.098209,-21058583231.801315,-0.200112,0.199549,-0.396756
2.340000,-0.140000,0.160100,0.040000,44368557.917954,-6394013439.989281,6298674677.696263,-12865909075.343021,-0.119928,0.119210,-0.242401
2.420000,-0.180000,0.081221,0.040000,-5971120.569757,3318713484.653648,-7407915637.446092,-40292023419.634644,0.085639,-0.116457,-0.759125
2.460000,-0.180000,0.042389,0.040000,-10729389.145841,5959204965.586100,-21331951828.351692,-56779069090.429733,0.199164,-0.315017,-1.069751
2.460000,-0.140000,0.040400,0.040000,188049779.768968,-31075271383.284664,14688322499.189415,-53583052378.573044,-0.492854,0.369358,-1.009536
2.420000,-0.140000,0.080201,0.040000,115324267.857295,-18013582953.232849,14622925619.594452,-36704513747.535286,-0.320222,0.294669,-0.691534
2.500000,-0.180000,0.014030,0.040000,-135831298.035266,39290123408.755119,-47653815593.218727,-69160510317.786804,0.787522,-0.850552,-1.303024
2.500000,-0.140000,0.005672,0.040000,352208547.567979,-66354598872.519669,34900635016.498695,-67032299982.151917,-1.072376,0.835331,-1.262927
-2.500000,-0.100000,0.004478,0.040000,-158690094.273039,-26215570406.276127,-159207411201.653900,60180297912.675812,0.554126,-1.951517,1.133832
-2.500000,-0.060000,0.014627,0.040000,120628081.816301,2824241230.666563,187038239566.994019,50676408074.660393,-1.019925,2.450773,0.954773
-2.460000,-0.100000,0.040250,0.040000,68021725.104636,-42640260457.841194,-27631477528.256584,11427149479.510508,-0.406179,-0.123405,0.215294
-2.420000,-0.100000,0.080125,0.040000,39113750.298553,-8029537246.201211,-2713940327.465591,-23662357176.172371,-0.090557,0.009592,-0.445813
-2.420000,-0.060000,0.081326,0.040000,-100759111.680465,12210046661.268528,3222694815.875819,-25189338098.791611,0.142816,-0.026511,-0.474582
-2.460000,-0.060000,0.042590,0.040000,-159595336.242617,47917361611.317863,40717759261.532875,8488749433.313254,0.401810,0.266165,0.159933
-2.380000,-0.100000,0.120084,0.040000,22145449.681464,-4046436365.935756,3405854182.012852,-25991042346.216938,-0.072617,0.067789,-0.489686
-2.340000,-0.100000,0.160063,0.040000,12295009.964835,-2581280331.104055,2551158620.763929,-15978111364.449980,-0.048463,0.048236,-0.301037
-2.340000,-0.060000,0.160667,0.040000,-40620665.892759,5307755615.204771,-5221517658.965445,-15416026542.979815,0.099514,-0.098864,-0.290447
-2.380000,-0.060000,0.120888,0.040000,-63842696.865529,8041511373.196961,-7080623289.700252,-25135613472.573265,0.146076,-0.138834,-0.473570
-2.300000,-0.100000,0.200050,0.040000,6651028.433092,-1508618473.911851,1489839984.934262,-9820538911.328314,-0.028317,0.028176,-0.185025
-2.260000,-0.100000,0.240042,0.040000,3466676.579946,-874815503.030713,869277252.689697,-6045006548.065091,-0.016451,0.016409,-0.113891
-2.260000,-0.060000,0.240445,0.040000,-16686085.101714,2098355712.469792,-2079070829.226337,-5800545692.979563,0.039425,-0.039280,-0.109286
-2.300000,-0.060000,0.200534,0.040000,-25966884.289470,3327486367.560585,-3275136107.436621,-9451528024.815842,0.062396,-0.062001,-0.178072
-2.220000,-0.100000,0.280036,0.040000,1704226.098169,-402361961.931631,312286237.046254,-3802786314.221289,-0.007072,0.006393,-0.071647
-2.180000,-0.100000,0.320031,0.040000,753305.910207,-181545105.963915,246141622.225068,-2197318589.406256,-0.003786,0.004272,-0.041399
-2.180000,-0.060000,0.320334,0.040000,-7012838.547315,764652094.939759,-824399228.125576,-2064108558.079917,0.014744,-0.015194,-0.038889
-2.220000,-0.060000,0.280382,0.040000,-10783824.770015,1225312902.740406,-1084756126.920123,-3614315354.588584,0.022291,-0.021232,-0.068096
2.180000,-0.100000,0.320031,0.040000,12273704.965894,-1793161022.327805,1752324390.116795,-1221797506.547920,-0.033553,0.033246,-0.023019
2.220000,-0.100000,0.280036,0.040000,19403889.620735,-2717029096.363285,2555823880.617470,-2044976680.618993,-0.050279,0.049064,-0.038529
2.220000,-0.060000,0.280382,0.040000,23350128.649636,-3245560780.906576,3011470493.103139,-356311520.405354,-0.059825,0.058061,-0.006713
2.180000,-0.060000,0.320334,0.040000,14695745.587839,-2101259534.986448,2102235481.981286,-148401832.203521,-0.039594,0.039602,-0.002796
2.260000,-0.100000,0.240042,0.040000,30882658.482820,-4384120152.978336,4353938120.802678,-3123921556.917160,-0.082429,0.082201,-0.058856
2.300000,-0.100000,0.200050,0.040000,49451946.973518,-7146211851.499424,7051878372.379139,-5094330706.213382,-0.134106,0.133395,-0.095980
2.300000,-0.060000,0.200534,0.040000,59918484.666692,-8692585962.603453,8583759658.266025,-1149571931.199810,-0.163158,0.162338,-0.021659
2.260000,-0.060000,0.240445,0.040000,37311690.362316,-5344305590.709476,5310452076.723733,-719019353.047586,-0.100498,0.100243,-0.013547
2.340000,-0.100000,0.160063,0.040000,79618790.470303,-11715832259.573133,11560962061.083904,-8297156375.068953,-0.219858,0.218691,-0.156323
2.380000,-0.100000,0.120084,0.040000,128801819.369439,-19219851101.788094,18925091147.638359,-13479168356.849722,-0.360447,0.358226,-0.253955
2.380000,-0.060000,0.120888,0.040000,156409021.896961,-23193710430.891190,22858475143.109699,-2860001313.355422,-0.435088,0.432562,-0.053884
2.340000,-0.060000,0.160667,0.040000,96635136.798735,-14202995264.079832,14026674589.066322,-1822500877.871597,-0.266596,0.265267,-0.034337
2.420000,-0.100000,0.080125,0.040000,209220123.085961,-31574034544.383072,29774291559.075584,-21085934010.156548,-0.584701,0.571137,-0.397271
2.460000,-0.100000,0.040250,0.040000,340992861.061495,-50684276568.661194,35662653033.248077,-29892805800.820023,-0.870016,0.756810,-0.563198
2.460000,-0.060000,0.042590,0.040000,412971368.718557,-53797289769.667366,40402662017.254158,-5913700469.327794,-0.937863,0.836918,-0.111418
2.420000,-0.060000,0.081326,0.040000,253881714.069348,-36884413863.786812,34722684484.629906,-4493920139.063705,-0.682705,0.666414,-0.084668
2.500000,-0.100000,0.004478,0.040000,538280158.015280,-71783899108.354843,32963788363.552708,-35719077944.596214,-1.133032,0.840475,-0.672968
2.500000,-0.060000,0.014627,0.040000,651886595.516811,-71923863810.168198,48847538187.434357,-6905404406.080092,-1.224656,1.050747,-0.130102
-2.500000,-0.020000,0.005075,0.040000,-604636437.904890,187221040821.471863,9001880774.225100,80432664476.167908,2.418267,-0.939485,1.515398
-2.500000,0.020000,0.005075,0.040000,745981912.055185,-345178508115.892639,560242814641.387817,-31393009941.075653,-7.718944,9.339719,-0.591463
-2.460000,-0.020000,0.040321,0.040000,-353206732.543912,53760821558.539070,143480533463.310638,33096595625.212894,-0.101957,1.588414,0.623559
-2.420000,-0.020000,0.080161,0.040000,-219417760.777837,23718922803.527660,30549787801.236706,-2481375595.114741,0.140142,0.268840,-0.046751
-2.420000,0.020000,0.080161,0.040000,-288938438.720684,13146912528.349537,47381975320.216896,-12773931415.451962,-0.094424,0.550584,-0.240668
-2.460000,0.020000,0.040321,0.040000,-467352736.093727,16051251304.780226,227623952410.808167,-24300619604.966030,-1.074880,2.911273,-0.457838
-2.380000,-0.020000,0.120107,0.040000,-136583823.186551,19466471534.858978,-19078697458.629498,-18326865194.669991,0.364568,-0.361645,-0.345289
-2.340000,-0.020000,0.160080,0.040000,-85249424.366769,12039211189.833654,-11855738854.975613,-11227203668.338028,0.225789,-0.224406,-0.211527
-2.340000,0.020000,0.160080,0.040000,-111105528.112005,16027147720.016064,-15787373774.641397,-4357171626.452797,0.300606,-0.298799,-0.082092
-2.380000,0.020000,0.120107,0.040000,-178950293.850261,24221176506.161175,-20429312237.673973,-7240879622.747229,0.434909,-0.406332,-0.136422
-2.300000,-0.020000,0.200064,0.040000,-53388696.387240,7444291505.610059,-7332397194.523336,-6857631363.325189,0.139622,-0.138779,-0.129202
-2.260000,-0.020000,0.240054,0.040000,-33571576.190510,4622853654.383404,-4583030073.144515,-4193449881.408727,0.086872,-0.086572,-0.079007
-2.260000,0.020000,0.240054,0.040000,-43271288.793879,6098113010.963997,-6046738841.812168,-1587228859.884705,0.114602,-0.114214,-0.029904
-2.300000,0.020000,0.200064,0.040000,-69202685.667752,9865826562.284887,-9719634278.531912,-2625742554.867334,0.185052,-0.183950,-0.049471
-2.220000,-0.020000,0.280046,0.040000,-21210676.222889,2909621473.898258,-2743147258.309246,-2719810971.593945,0.053878,-0.052623,-0.051243
-2.180000,-0.020000,0.320040,0.040000,-13473777.495209,1943117045.135098,-1888300055.831130,-1616011757.921088,0.036300,-0.035887,-0.030447
-2.180000,0.020000,0.320040,0.040000,-17164356.068570,2405735956.010444,-2411478389.558433,-430408678.059316,0.045358,-0.045401,-0.008109
-2.220000,0.020000,0.280046,0.040000,-27181201.341827,3710599176.727803,-3430779321.366051,-872195831.677744,0.068328,-0.066219,-0.016433
2.180000,-0.020000,0.320040,0.040000,13980408.399053,-1970515659.455699,1984702258.587120,547094763.147098,-0.037206,0.037313,0.010308
2.220000,-0.020000,0.280046,0.040000,22201441.173637,-3053171530.483306,2823844727.866201,1051930370.944999,-0.056227,0.054499,0.019819
2.220000,0.020000,0.280046,0.040000,16230976.763116,-2252197213.207074,2136215671.746266,2540048378.955166,-0.041777,0.040903,0.047856
2.180000,0.020000,0.320040,0.040000,10289871.415063,-1507899445.245069,1461527117.318318,1499306226.921956,-0.028148,0.027798,0.028248
2.260000,-0.020000,0.240054,0.040000,35444552.504069,-5044042782.703561,5014755807.691147,1838080841.009113,-0.094867,0.094646,0.034631
2.300000,-0.020000,0.200064,0.040000,56848684.663886,-8181040173.813602,8083716809.285878,3028641153.519908,-0.153585,0.152852,0.057061
2.300000,0.020000,0.200064,0.040000,41034811.632029,-5759506662.233966,5696481043.659481,6454692741.286667,-0.108156,0.107681,0.121610
2.260000,0.020000,0.240054,0.040000,25744925.819202,-3568786744.552354,3551050402.838132,3942562561.371461,-0.067138,0.067004,0.074280
2.340000,-0.020000,0.160080,0.040000,91535034.502184,-13324213107.200981,13168102601.131678,5003839375.573610,-0.250154,0.248977,0.094275
2.380000,-0.020000,0.120107,0.040000,147857009.687796,-21690065736.072060,21412123152.396687,8278094072.133154,-0.407082,0.404988,0.155964
2.380000,0.020000,0.120107,0.040000,105490730.014180,-15179106158.404564,15084898900.675617,17354480651.475529,-0.285451,0.284741,0.326968
2.340000,0.020000,0.160080,0.040000,65679080.069788,-9336280207.153919,9236468095.833214,10580495971.482540,-0.175337,0.174585,0.199343
2.420000,-0.020000,0.080161,0.040000,239427803.292509,-35352941716.833359,33415634563.511848,13150918494.460485,-0.655120,0.640520,0.247771
2.460000,-0.020000,0.040321,0.040000,388394935.841665,-56242679987.943230,40102865791.033554,19324767379.934467,-0.968420,0.846786,0.364090
2.460000,0.020000,0.040321,0.040000,274248962.410160,-40430362263.342255,21895582901.403931,45840736110.350517,-0.656970,0.517287,0.863666
2.420000,0.020000,0.080161,0.040000,169907404.661164,-24731994825.210121,21098320362.265324,30877798527.455788,-0.445427,0.418043,0.581756
2.500000,-0.020000,0.005075,0.040000,617711728.371301,-81480329280.785812,39820495953.514076,23540418280.703148,-1.299668,0.985710,0.443515
2.500000,0.020000,0.005075,0.040000,476351836.949715,-75928909622.417374,40425703756.868805,58067087172.813553,-1.229874,0.962314,1.094018
-2.500000,0.060000,0.014627,0.040000,-734473466.650964,239209484320.888641,50349403213.370644,-92222076187.314636,2.870208,-0.688025,-1.737517
-2.500000,0.100000,0.004478,0.040000,-580747142.947987,247698912659.454041,73422095633.122971,26364538344.169838,2.851759,-0.431717,0.496723
-2.460000,0.060000,0.042590,0.040000,-474533897.649127,92684538990.376419,118412939076.654099,-49445733666.975174,0.553071,1.037809,-0.931586
-2.420000,0.060000,0.081326,0.040000,-292528031.862174,38339481888.504280,14450634896.646019,-19775742659.894878,0.423959,-0.026121,-0.372586
-2.420000,0.100000,0.080125,0.040000,-228544718.507881,36434480031.048866,-2468351505.671682,32977295449.377861,0.494464,-0.238488,0.621311
-2.460000,0.100000,0.040250,0.040000,-371585485.242736,105609453273.053223,55662370519.987259,28358871342.406181,1.078207,0.137175,0.534298
-2.380000,0.060000,0.120888,0.040000,-180726268.060097,26501206867.004810,-25885052849.190403,5663392314.375327,0.495815,-0.491172,0.106702
-2.340000,0.060000,0.160667,0.040000,-111982635.713068,16302398123.583406,-16060603951.100277,3618606490.761570,0.305780,-0.303958,0.068177
-2.340000,0.100000,0.160063,0.040000,-87463507.254580,12740619850.940428,-12552813956.155365,10841437176.409660,0.238979,-0.237564,0.204259
-2.380000,0.100000,0.120084,0.040000,-141076780.803138,20839312142.187763,-20411043350.021210,17600089363.241768,0.390204,-0.386977,0.331596
-2.300000,0.060000,0.200534,0.040000,-69640706.226307,10001270976.541178,-9854227234.467577,2268074449.293494,0.187599,-0.186490,0.042732
-2.260000,0.060000,0.240445,0.040000,-43497225.187965,6163791546.994473,-6112623753.403105,1415259794.272948,0.115840,-0.115455,0.026664
-2.260000,0.100000,0.240042,0.040000,-34150890.488902,4787016890.768343,-4748035635.891740,4108930378.658303,0.089970,-0.089676,0.077415
-2.300000,0.100000,0.200050,0.040000,-54498079.872282,7786258188.534356,-7672719800.703344,6677322476.488483,0.146056,-0.145200,0.125805
-2.220000,0.060000,0.280382,0.040000,-27305067.594248,3743957133.767363,-3463039559.339200,784876514.781149,0.068951,-0.066833,0.014788
-2.180000,0.060000,0.320334,0.040000,-17238497.797241,2423784880.418967,-2428008471.299424,390145214.013728,0.045689,-0.045721,0.007351
-2.180000,0.100000,0.320031,0.040000,-13674567.939383,1980309784.378983,-1926324516.163328,1598351249.020668,0.037005,-0.036598,0.030114
-2.220000,0.100000,0.280036,0.040000,-21535759.349737,2984453007.014585,-2811454797.976197,2680572178.958930,0.055251,-0.053947,0.050504
2.180000,0.060000,0.320334,0.040000,4470205.532348,-442138481.191048,498637621.387981,1822346815.747534,-0.008649,0.009075,0.034334
2.220000,0.060000,0.280382,0.040000,6829061.529419,-726929818.807786,633200315.630737,3185722400.570420,-0.013166,0.012460,0.060021
2.220000,0.100000,0.280036,0.040000,-3835825.923709,669762442.024244,-567895133.916096,3167166620.617586,0.012043,-0.011275,0.059671
2.180000,0.100000,0.320031,0.040000,-2153989.150309,368675831.146187,-420123191.105287,1820751936.857467,0.007237,-0.007625,0.034304
2.260000,0.060000,0.240445,0.040000,10500802.380186,-1278881501.378073,1276911163.873138,5104267229.067223,-0.024084,0.024069,0.096167
2.300000,0.060000,0.200534,0.040000,16245009.118373,-2018804976.872005,2004672753.117732,8332978486.836400,-0.037956,0.037849,0.156998
2.300000,0.100000,0.200050,0.040000,-11696592.713407,2148647559.088999,-2110662619.128035,8237480193.585384,0.040267,-0.039981,0.155199
2.260000,0.100000,0.240042,0.040000,-6734510.420070,1277684834.632186,-1263347012.304499,5059957003.746344,0.023991,-0.023883,0.095333
2.340000,0.060000,0.160667,0.040000,25273612.364937,-3208341707.651414,3187577724.076596,13619883885.157497,-0.060330,0.060173,0.256607
2.380000,0.060000,0.120888,0.040000,39525980.993263,-4973146204.266016,4677178451.500628,22271333477.601669,-0.092024,0.089794,0.419605
2.380000,0.100000,0.120084,0.040000,-34419534.050588,6063994004.710597,-6048768521.714199,21918817036.404236,0.114163,-0.114048,0.412963
2.340000,0.100000,0.160063,0.040000,-20138964.978486,3606107348.019803,-3543043649.016848,13433734789.947842,0.067585,-0.067109,0.253099
2.420000,0.060000,0.081326,0.040000,62113495.971021,-5690640373.781150,1186441728.897151,37625601227.872932,-0.081756,0.047812,0.708888
2.460000,0.060000,0.042590,0.040000,98034983.903598,-6859681661.110689,-11338786261.570961,52768385492.530502,-0.026379,-0.110768,0.994187
2.460000,0.100000,0.040250,0.040000,-98615496.380533,15963571803.813259,-27348651929.495247,43068865405.493958,0.365113,-0.450914,0.811442
2.420000,0.100000,0.080125,0.040000,-58437784.391079,10983102838.411655,-14566900121.052151,32826763563.501392,0.227184,-0.254193,0.618475
2.500000,0.060000,0.014627,0.040000,38057296.627488,20708395414.086720,-34274801642.008354,64181096961.283066,0.466838,-0.569077,1.209209
2.500000,0.100000,0.004478,0.040000,-201165270.130502,27173744948.949421,-32433799848.656246,47892550467.082420,0.541700,-0.581341,0.902323
-2.500000,0.140000,0.005672,0.040000,349128470.025862,-146758502993.272888,243650758789.677704,71848851299.718765,-3.312667,4.042870,1.353674
-2.500000,0.180000,0.014030,0.040000,223111258.935165,-117778110286.111694,19786400368.753708,-70530752477.409637,-1.665142,0.926653,-1.328840
-2.460000,0.140000,0.040400,0.040000,-180957957.805295,3668673598.020354,114234218304.709305,63255047322.958328,-0.597288,1.485831,1.191762
-2.420000,0.140000,0.080201,0.040000,-111175810.927119,3405671161.173096,26735853860.110794,43917581562.831871,-0.106200,0.333354,0.827433
-2.420000,0.180000,0.081221,0.040000,32467535.069969,-15065565033.391766,30796160853.512226,21424816882.140842,-0.372756,0.491305,0.403656
-2.460000,0.180000,0.042389,0.040000,53782332.156868,-49880035395.187920,80472780294.623535,-20236690006.559708,-1.112684,1.343238,-0.381271
-2.380000,0.140000,0.120134,0.040000,-68909648.757895,9352449521.907667,-7727383102.638419,25436527491.447308,0.167020,-0.154774,0.479239
-2.340000,0.140000,0.160100,0.040000,-43110011.631219,6111185917.990868,-6022815177.776620,15585915925.097769,0.114639,-0.113973,0.293648
-2.340000,0.180000,0.160614,0.040000,10741742.709567,-2069847129.766059,2034692828.706900,16661856905.106106,-0.038798,0.038533,0.313919
-2.380000,0.180000,0.120817,0.040000,19006046.573786,-3427719796.874847,3745292838.900385,27314667334.574108,-0.066375,0.068769,0.514624
-2.300000,0.140000,0.200080,0.040000,-27231705.777772,3709433568.077898,-3656962126.174516,9546635913.827785,0.069591,-0.069196,0.179864
-2.260000,0.140000,0.240067,0.040000,-17373060.503419,2276652035.270590,-2259387205.245101,5849655171.365109,0.042796,-0.042666,0.110211
-2.260000,0.180000,0.240410,0.040000,2937443.871307,-780752211.911402,771493572.236266,6208146603.706230,-0.014657,0.014588,0.116965
-2.300000,0.180000,0.200491,0.040000,5804386.101380,-1285178051.664827,1262380935.547370,10161186285.410877,-0.024085,0.023913,0.191443
-2.220000,0.140000,0.280057,0.040000,-11195336.861441,1304478717.786772,-1157745837.668294,3634455638.884492,0.023748,-0.022642,0.068475
-2.180000,0.140000,0.320050,0.040000,-7287424.546250,803041373.160392,-863863670.732956,2068161441.946043,0.015474,-0.015932,0.038965
-2.180000,0.180000,0.320307,0.040000,458751.172325,-162506966.470594,227671911.061768,2226008898.566594,-0.003430,0.003921,0.041939
-2.220000,0.180000,0.280351,0.040000,1326505.281725,-362338308.992030,272139632.173199,3881113223.060905,-0.006317,0.005637,0.073122
2.180000,0.140000,0.320050,0.040000,-8095938.543326,1412500470.467788,-1363719945.756771,1497622335.896567,0.026337,-0.025969,0.028216
2.220000,0.140000,0.280057,0.040000,-13336273.233099,2154454478.513345,-2033471024.927498,2499717533.378819,0.039907,-0.038996,0.047096
2.220000,0.180000,0.280351,0.040000,-19561608.245481,2900119600.075336,-2676119075.098779,1031253417.830719,0.053374,-0.051686,0.019429
2.180000,0.180000,0.320307,0.040000,-12058044.201241,1849409788.737097,-1860310663.457135,573669049.883186,0.034906,-0.034988,0.010808
2.260000,0.140000,0.240067,0.040000,-21993117.467302,3494225925.166734,-3466843905.726366,3832926774.835837,0.065678,-0.065472,0.072215
2.300000,0.140000,0.200080,0.040000,-36300415.147741,5755846133.888638,-5674629037.643297,6207315961.276914,0.107984,-0.107372,0.116949
2.300000,0.180000,0.200491,0.040000,-51949399.723127,7949531357.880946,-7844213367.342684,2738045031.894048,0.149179,-0.148385,0.051586
2.260000,0.180000,0.240410,0.040000,-31834459.813705,4847558091.083150,-4813533541.988912,1727062576.619019,0.091138,-0.090882,0.032539
2.340000,0.140000,0.160100,0.040000,-59945932.882068,9500680397.810776,-9368084416.488695,10085548688.434811,0.178249,-0.177250,0.190018
2.380000,0.140000,0.120134,0.040000,-99003860.641565,15615206295.575640,-15333276033.498344,16426796678.670244,0.292606,-0.290481,0.309490
2.380000,0.180000,0.120817,0.040000,-139223364.080412,21552388537.774803,-21338721256.576488,7063899681.457167,0.404852,-0.403242,0.133088
2.340000,0.180000,0.160614,0.040000,-84968364.199815,13081771875.557844,-12910353460.784531,4378539554.766987,0.245499,-0.244207,0.082494
2.420000,0.140000,0.080201,0.040000,-163450071.612066,24767760814.012451,-25662658891.273090,25854919032.074112,0.471697,-0.478441,0.487122
2.460000,0.140000,0.040400,0.040000,-269598472.514229,33300460518.549980,-33952890325.473297,32758178003.366566,0.631088,-0.636004,0.617183
2.460000,0.180000,0.042389,0.040000,-374973433.066314,52318495644.209663,-46128266687.947289,17447295087.689865,0.950723,-0.904072,0.328717
2.420000,0.180000,0.081221,0.040000,-228408572.276607,35334476857.356422,-34990529228.494514,12126817962.437996,0.663778,-0.661186,0.228476
2.500000,0.140000,0.005672,0.040000,-412124805.712530,31390042916.559925,-33527752218.021053,36725649163.373299,0.603489,-0.619600,0.691933
2.500000,0.180000,0.014030,0.040000,-645607155.539789,82201017407.945175,-65736985125.028343,21144704336.734150,1.455657,-1.331580,0.398378
-2.500000,0.220000,0.003881,0.040000,488077356.863784,-100913239090.432983,29243497952.457714,-128539097656.135910,-1.496174,0.956054,-2.421751
-2.500000,0.260000,0.006269,0.040000,-689267878.932174,360236131373.878296,-493656404532.683960,18275123721.371643,7.541172,-8.546658,0.344314
-2.460000,0.220000,0.040188,0.040000,277168987.389685,-29365881549.226074,-82484312572.475159,-57449094320.805641,0.078927,-0.921856,-1.082374
-2.420000,0.220000,0.080094,0.040000,168348943.995956,-19451017071.894485,-13649139316.572443,-1737647461.834986,-0.179381,-0.070070,-0.032738
-2.420000,0.260000,0.080245,0.040000,263405288.886935,-12731514817.396276,-39753757630.441345,18690002423.607403,0.056787,-0.452328,0.352130
-2.460000,0.260000,0.040488,0.040000,434647606.545522,-3158697676.762314,-200692529244.665192,21578368090.554123,1.092691,-2.628961,0.406549
-2.380000,0.220000,0.120063,0.040000,101822630.300252,-16116079567.222593,15828842708.735352,22582617887.276627,-0.302013,0.299848,0.425470
-2.340000,0.220000,0.160047,0.040000,61349706.018390,-9861500115.339153,9706508030.433941,13715365413.278303,-0.184920,0.183752,0.258405
-2.340000,0.260000,0.160123,0.040000,96592720.713770,-15337174431.577503,15094983628.900196,7356485751.663982,-0.287592,0.285767,0.138600
-2.380000,0.260000,0.120164,0.040000,159517590.913485,-23594699157.218063,20017809481.773815,12287479901.544928,-0.424321,0.397364,0.231503
-2.300000,0.220000,0.200038,0.040000,36832566.072059,-6004548647.389834,5909625406.695826,8328699534.086699,-0.112593,0.111877,0.156918
-2.260000,0.220000,0.240031,0.040000,22035766.422732,-3652292063.160638,3617803136.777715,5079552919.982964,-0.068616,0.068356,0.095702
-2.260000,0.260000,0.240082,0.040000,35469023.942438,-5631043451.918984,5578825297.440084,2721217019.581513,-0.105797,0.105403,0.051269
-2.300000,0.260000,0.200098,0.040000,58511045.534149,-9282431839.772667,9136201749.478397,4449178018.976233,-0.174060,0.172958,0.083825
-2.220000,0.220000,0.280027,0.040000,13134488.960735,-2266225063.366551,2144962569.655562,3260008348.622254,-0.042012,0.041098,0.061420
-2.180000,0.220000,0.320024,0.040000,7795665.560227,-1489724439.615880,1425441137.712487,1922706454.657576,-0.027704,0.027219,0.036225
-2.180000,0.260000,0.320061,0.040000,13073955.603650,-2107530948.995328,2123838509.832523,891480670.299747,-0.039799,0.039922,0.016796
-2.220000,0.260000,0.280070,0.040000,21522273.278063,-3336282404.607133,3062834414.235686,1616552471.461390,-0.061312,0.059251,0.030457
2.180000,0.220000,0.320024,0.040000,-13234370.514865,1955902529.406273,-1957156432.474801,-88714295.744005,0.036857,-0.036867,-0.001671
2.220000,0.220000,0.280027,0.040000,-21213558.620801,3032885079.735747,-2811410738.268978,-321008486.812106,0.055890,-0.054220,-0.006048
2.220000,0.260000,0.280070,0.040000,-18103644.296195,2484120945.947947,-2341916880.478009,-1885216136.182935,0.045999,-0.044927,-0.035519
2.180000,0.260000,0.320061,0.040000,-11491938.540324,1646785092.529288,-1609758087.133372,-1081557314.313731,0.030817,-0.030538,-0.020377
2.260000,0.220000,0.240031,0.040000,-34157299.663915,5022047868.688457,-4989557577.098680,-743897373.076077,0.094435,-0.094190,-0.014015
2.300000,0.220000,0.200038,0.040000,-55227928.502240,8210791215.473373,-8106601846.526735,-1330572570.435370,0.154107,-0.153322,-0.025069
2.300000,0.260000,0.200098,0.040000,-45728813.944610,6483235290.755013,-6405823051.725257,-5008396715.428762,0.121710,-0.121127,-0.094361
2.260000,0.260000,0.240082,0.040000,-28689031.936116,3987230756.418061,-3964405018.295064,-2977337206.994580,0.074993,-0.074821,-0.056095
2.340000,0.220000,0.160047,0.040000,-89632410.272440,13492137622.910549,-13322418871.871008,-2320583142.246364,0.253240,-0.251961,-0.043721
2.380000,0.220000,0.120063,0.040000,-145951593.651989,22195468615.997372,-21919556199.394299,-3957174468.014754,0.416616,-0.414537,-0.074555
2.380000,0.260000,0.120164,0.040000,-118142932.864817,17512147034.883324,-17369899105.126617,-13989868116.931061,0.329135,-0.328063,-0.263577
2.340000,0.260000,0.160123,0.040000,-73302352.977730,10622931057.125132,-10496405647.399290,-8389527182.363328,0.199427,-0.198474,-0.158064
2.420000,0.220000,0.080094,0.040000,-238328984.835011,36933625345.483223,-36845387151.188187,-7008527598.803116,0.695352,-0.694687,-0.132045
2.460000,0.220000,0.040188,0.040000,-390068871.874634,58494946220.659775,-48764356204.154037,-11366940393.017344,1.047080,-0.973748,-0.214160
2.460000,0.260000,0.040488,0.040000,-311589304.042002,45441085801.574989,-30726403521.085567,-39819604951.623810,0.772966,-0.662073,-0.750224
2.420000,0.260000,0.080245,0.040000,-191399257.390479,28872206695.132881,-26264755061.123451,-25790692388.343102,0.529231,-0.509581,-0.485912
2.500000,0.220000,0.003881,0.040000,-637029667.748505,84944441516.081116,-48461739659.060631,-14968270124.055994,1.394196,-1.119254,-0.282011
2.500000,0.260000,0.006269,0.040000,-542245139.091087,80095065578.109604,-51265212826.315071,-51547865470.000290,1.346086,-1.128818,-0.971192
-2.500000,0.300000,0.013433,0.040000,794183264.899586,-265612956739.020203,-38445574745.321175,82155739366.785065,-3.285710,0.994255,1.547862
-2.500000,0.340000,0.003284,0.040000,677843942.219024,-273665486732.503143,-61525152680.938354,-50306746404.662453,-3.261461,0.735386,-0.947808
-2.460000,0.300000,0.042195,0.040000,485847944.444030,-106158941963.381882,-100851816115.718658,47548150641.052902,-0.830035,-0.730046,0.895835
-2.420000,0.300000,0.081120,0.040000,293652868.120524,-43747239228.323570,-6521623118.296350,23587049802.049259,-0.540095,0.161257,0.444394
-2.420000,0.340000,0.080067,0.040000,250612098.743450,-41979887788.716919,3181802573.165981,-35444741020.638466,-0.571632,0.279241,-0.667799
-2.460000,0.340000,0.040135,0.040000,415290951.195799,-115343880928.950684,-63214325031.647186,-40568287572.398872,-1.163904,-0.181752,-0.764330
-2.380000,0.300000,0.120749,0.040000,177834272.786723,-28295755185.180550,27687512647.302441,-1339215013.972811,-0.529671,0.525087,-0.025232
-2.340000,0.300000,0.160563,0.040000,107969051.973987,-17053076908.102840,16780048735.655315,-929935959.718328,-0.319747,0.317689,-0.017521
-2.340000,0.340000,0.160034,0.040000,92835985.274696,-14441010652.375360,14205490745.880363,-9092142714.136650,-0.270746,0.268971,-0.171301
-2.380000,0.340000,0.120045,0.040000,152077374.598425,-24173108349.550739,23662783339.124325,-15138041609.684763,-0.452551,0.448705,-0.285209
-2.300000,0.300000,0.200451,0.040000,65748312.364908,-10266796101.599596,10103984936.769566,-552291689.674038,-0.192512,0.191285,-0.010405
-2.260000,0.300000,0.240376,0.040000,40172166.333533,-6211902376.473104,6154334062.683359,-295143480.423754,-0.116710,0.116277,-0.005561
-2.260000,0.340000,0.240022,0.040000,35248770.396300,-5229020358.500567,5180704932.745553,-3212265992.998878,-0.098245,0.097881,-0.060521
-2.300000,0.340000,0.200027,0.040000,57024608.646023,-8652298870.732103,8514038496.472687,-5426378518.773917,-0.162233,0.161191,-0.102236
-2.220000,0.300000,0.280322,0.040000,24633724.308737,-3719673709.608282,3441415649.052238,-24147387.911545,-0.068508,0.066411,-0.000455
-2.180000,0.300000,0.320282,0.040000,15162221.056191,-2380133053.938251,2369823729.599590,94687554.149446,-0.044785,0.044707,0.001784
-2.180000,0.340000,0.320017,0.040000,13722094.633336,-2083792251.503982,2037030444.490214,-1163246384.011409,-0.038996,0.038643,-0.021916
-2.220000,0.340000,0.280019,0.040000,21925470.382574,-3194413604.840522,2992243830.635707,-2037007648.765304,-0.059042,0.057518,-0.038378
2.180000,0.300000,0.320282,0.040000,-7387088.142945,766245758.134300,-814650933.415472,-1478313910.372607,0.014710,-0.015075,-0.027852
2.220000,0.300000,0.280322,0.040000,-11179781.833078,1195370184.722429,-1077316631.490321,-2683274954.094665,0.021854,-0.020965,-0.050554
2.220000,0.340000,0.280019,0.040000,-2273489.251170,-99791289.284479,34173791.129178,-2921363288.123739,-0.001509,0.001015,-0.055040
2.180000,0.340000,0.320017,0.040000,-2012729.624094,26348945.345192,20861510.007045,-1648605173.615398,0.000230,0.000126,-0.031061
2.260000,0.300000,0.240376,0.040000,-17032040.253984,2009663393.785591,-2002647013.202830,-4426923760.250839,0.037824,-0.037771,-0.083406
2.300000,0.300000,0.200451,0.040000,-26139011.448334,3197130214.529990,-3166463666.389916,-7390196432.441679,0.060062,-0.059831,-0.139236
2.300000,0.340000,0.200027,0.040000,-1567505.657885,-821760894.627189,796603426.233764,-7880687405.343051,-0.015340,0.015151,-0.148477
2.260000,0.340000,0.240022,0.040000,-2249276.398536,-406795990.838987,395492184.314710,-4739042752.157350,-0.007600,0.007515,-0.089286
2.340000,0.300000,0.160563,0.040000,-40445680.053257,5162248030.696489,-5111702023.008997,-12329266236.244696,0.096974,-0.096593,-0.232291
2.380000,0.300000,0.120749,0.040000,-63157373.863607,8315013675.109904,-8000809964.336251,-20543342433.361126,0.154884,-0.152516,-0.387048
2.380000,0.340000,0.120045,0.040000,4939767.489336,-2762785550.190276,2763048156.481833,-21910614863.362862,-0.052054,0.052056,-0.412809
2.340000,0.340000,0.160034,0.040000,443592.228824,-1540968663.303486,1499769080.560391,-13133560455.081539,-0.028800,0.028489,-0.247444
2.420000,0.300000,0.081120,0.040000,-99622690.005111,11696272341.883032,-8008581156.374483,-35158145065.905365,0.199521,-0.171730,-0.662400
2.460000,0.300000,0.042195,0.040000,-158862593.138635,15889887065.433567,119527074.542469,-49521589180.747086,0.208887,-0.088236,-0.933015
2.460000,0.340000,0.040135,0.040000,30088868.298224,-7345466430.735604,16422927893.163919,-45326123090.136780,-0.189700,0.258110,-0.853970
2.420000,0.340000,0.080067,0.040000,13822973.511620,-5318535972.403005,7933440887.282102,-33768490620.412609,-0.114984,0.134691,-0.636218
2.500000,0.300000,0.013433,0.040000,-154682498.663672,-4543045953.650670,17472050743.589367,-60386980423.501755,-0.158671,0.256107,-1.137726
2.500000,0.340000,0.003284,0.040000,84808917.492374,-13509669916.738470,20057218562.042866,-51285437245.814552,-0.291538,0.340882,-0.966247
-2.500000,0.380000,0.006866,0.040000,-461581252.010051,200204479999.659058,-316156075461.388672,-77036694444.050980,4.427347,-5.301185,-1.451416
-2.500000,0.420000,0.012836,0.040000,-142912690.064455,93645338428.199554,-23102735216.876259,81800898718.951797,1.365613,-0.833988,1.541176
-2.460000,0.380000,0.040585,0.040000,238008325.856850,-4985846235.682527,-143390744176.273071,-66357053399.936333,0.744714,-1.862914,-1.250205
-2.420000,0.380000,0.080294,0.040000,144326194.807569,-5452904730.250425,-32450786785.408947,-44991289324.697250,0.111502,-0.397153,-0.847662
-2.420000,0.420000,0.081023,0.040000,1876357.646158,12042877099.507116,-34211198335.644329,-20535727079.583992,0.352194,-0.519260,-0.386905
-2.460000,0.420000,0.042009,0.040000,-2128406.782289,42104692598.684540,-97045030506.928589,25155549502.938179,1.103809,-1.517852,0.473945
-2.380000,0.380000,0.120196,0.040000,88736253.321488,-12567595280.909550,10372898545.988001,-25183846701.735222,-0.224376,0.207836,-0.474478
-2.340000,0.380000,0.160147,0.040000,55280254.528942,-8022885409.279518,7889120028.413668,-14990706085.106918,-0.150400,0.149392,-0.282434
-2.340000,0.420000,0.160514,0.040000,5290025.839808,630379730.829584,-619681500.071267,-16953423195.994354,0.011816,-0.011736,-0.319412
-2.380000,0.420000,0.120685,0.040000,4328836.953687,1150068742.102647,-1534924144.907909,-28711508034.648613,0.023843,-0.026744,-0.540941
-2.300000,0.380000,0.200118,0.040000,34859699.705902,-4795403772.309914,4719268023.968685,-8899277852.108782,-0.089918,0.089344,-0.167668
-2.260000,0.380000,0.240098,0.040000,22224352.309705,-2917286475.871926,2891506462.843767,-5272864272.732087,-0.054818,0.054623,-0.099344
-2.260000,0.420000,0.240343,0.040000,4678461.311527,125836707.311108,-120815185.447399,-5920428458.418133,0.002342,-0.002305,-0.111544
-2.300000,0.420000,0.200411,0.040000,5250499.945478,330908976.996308,-321232720.788452,-10007760182.728569,0.006180,-0.006107,-0.188552
-2.220000,0.380000,0.280084,0.040000,14305965.018637,-1698449836.288588,1528192696.270484,-3149098756.509956,-0.031037,0.029754,-0.059331
-2.180000,0.380000,0.320074,0.040000,9286105.785925,-1070071012.498949,1122601767.625562,-1703071508.570139,-0.020458,0.020854,-0.032087
-2.180000,0.420000,0.320257,0.040000,3112164.483901,-159646585.585588,98429945.665809,-1998536739.395310,-0.002662,0.002200,-0.037654
-2.220000,0.420000,0.280294,0.040000,3901505.265430,-87499402.608526,149997584.257914,-3600552689.350069,-0.002002,0.002473,-0.067836
2.180000,0.380000,0.320074,0.040000,3285999.801560,-983049703.446571,932758466.911344,-1435294380.089414,-0.018237,0.017858,-0.027042
2.220000,0.380000,0.280084,0.040000,6372617.278080,-1562893309.595397,1473125846.952502,-2453107106.124073,-0.028938,0.028262,-0.046218
2.220000,0.420000,0.280294,0.040000,12680451.401363,-2359671689.994296,2158437628.856099,-1209300226.506528,-0.043320,0.041804,-0.022784
2.180000,0.420000,0.320257,0.040000,7256219.553230,-1443688170.010944,1454883509.734378,-686213189.436120,-0.027263,0.027348,-0.012929
2.260000,0.380000,0.240098,0.040000,11917490.675731,-2642102379.248743,2614546822.261837,-3847201121.715158,-0.049623,0.049415,-0.072483
2.300000,0.380000,0.200118,0.040000,21741174.391744,-4545120158.156378,4468981420.194382,-6355509059.682684,-0.085202,0.084629,-0.119741
2.300000,0.420000,0.200411,0.040000,38006016.455492,-6998332020.860404,6889825889.778322,-3213621188.731827,-0.131239,0.130422,-0.060546
2.260000,0.420000,0.240343,0.040000,22008196.107689,-4116887754.803016,4079637096.552560,-1998094996.748864,-0.077354,0.077073,-0.037645
2.340000,0.380000,0.160147,0.040000,38948336.503963,-7781503609.401005,7655200429.802880,-10563148756.025272,-0.145894,0.144942,-0.199016
2.380000,0.380000,0.120196,0.040000,68790352.989166,-13158466182.477718,12857018632.378260,-17654287803.032856,-0.246209,0.243938,-0.332617
2.380000,0.420000,0.120685,0.040000,112125622.109972,-20279227692.612534,20058885311.904335,-8724092916.490044,-0.380827,0.379166,-0.164367
2.340000,0.420000,0.160514,0.040000,65381474.752486,-11914361156.577349,11732592448.862871,-5249922155.017221,-0.223446,0.222076,-0.098912
2.420000,0.380000,0.080294,0.040000,120070750.642057,-21083646402.019978,21459091041.146477,-29222653814.248180,-0.399350,0.402180,-0.550572
2.460000,0.380000,0.040585,0.040000,207386329.109934,-28441293768.965706,27393277533.090931,-39046083305.729919,-0.529927,0.522029,-0.735651
2.460000,0.420000,0.042009,0.040000,327064574.951664,-52342262106.711037,45694870977.579933,-23799471851.327438,-0.948586,0.898490,-0.448396
2.420000,0.420000,0.081023,0.040000,191760070.566265,-34378059827.217560,33988727255.742443,-15829104804.409122,-0.645502,0.642568,-0.298230
2.500000,0.380000,0.006866,0.040000,310614699.778446,-22241820779.728695,23331466563.503407,-45586404293.160446,-0.425208,0.433419,-0.858874
2.500000,0.420000,0.012836,0.040000,594531713.624320,-86435757415.880875,67767867649.568787,-29842833411.889027,-1.522986,1.382300,-0.562256
-2.500000,0.460000,0.002687,0.040000,-442119962.295919,82665006026.858566,-39110152202.814705,129419818357.195587,1.311277,-0.983038,2.438344
-2.500000,0.500000,0.007463,0.040000,675150943.088815,-343122711442.792053,478653861481.760803,-24422002998.697353,-7.230676,8.252071,-0.460125
-2.460000,0.460000,0.040090,0.040000,-241597332.458518,23548914157.487904,78361341799.258392,55909432865.773056,-0.132339,0.900359,1.053366
-2.420000,0.460000,0.080045,0.040000,-138748812.253303,18818886417.074951,12563189494.494587,-1782739148.071440,0.177182,0.059321,-0.033588
-2.420000,0.500000,0.080347,0.040000,-238388458.671562,16606062565.193241,35740271048.117645,-21112387768.863041,0.016997,0.377497,-0.397770
-2.460000,0.500000,0.040690,0.040000,-413229642.160246,11286074685.427416,193386239093.658112,-26120763223.590008,-0.944207,2.486665,-0.492130
-2.380000,0.460000,0.120030,0.040000,-78513324.253490,15688808928.670227,-15373633375.603184,-24377532035.860912,0.293805,-0.291430,-0.459287
-2.340000,0.460000,0.160023,0.040000,-43700738.306978,9223338491.512293,-9061161196.026075,-14274565983.953590,0.172856,-0.171634,-0.268941
-2.340000,0.500000,0.160174,0.040000,-78382962.405379,15305278008.585297,-15027524713.540226,-7514859423.702892,0.286790,-0.284697,-0.141584
-2.380000,0.500000,0.120232,0.040000,-136970396.347713,24700709472.619556,-21086486228.257298,-13027618003.544842,0.444947,-0.417710,-0.245448
-2.300000,0.460000,0.200018,0.040000,-23847196.121681,5352527719.505908,-5255308955.046130,-8386658118.896000,0.100295,-0.099563,-0.158010
-2.260000,0.460000,0.240015,0.040000,-12683217.146558,3079724118.029639,-3043549461.870740,-4964008806.980570,0.057819,-0.057547,-0.093525
-2.260000,0.500000,0.240116,0.040000,-25298878.641885,5116039828.596234,-5057400486.097220,-2657139213.031837,0.096058,-0.095616,-0.050062
-2.300000,0.500000,0.200139,0.040000,-44654198.491326,8846325557.268274,-8684953268.070055,-4423534554.238621,0.165758,-0.164542,-0.083342
-2.220000,0.460000,0.280013,0.040000,-6505583.705937,1804759493.745588,-1701491250.559848,-3097763300.486573,0.033419,-0.032641,-0.058364
-2.180000,0.460000,0.320011,0.040000,-3154055.175127,1121991595.056664,-1057289614.568394,-1771325464.357938,0.020773,-0.020286,-0.033373
-2.180000,0.500000,0.320087,0.040000,-7923698.953172,1728344637.540900,-1740128737.738221,-865084499.990796,0.032630,-0.032718,-0.016299
-2.220000,0.500000,0.280099,0.040000,-14229302.647658,2875824892.354605,-2617808285.413300,-1567144437.610480,0.052724,-0.050779,-0.029526
2.180000,0.460000,0.320011,0.040000,9053138.397595,-1630807055.306129,1624519834.207232,-107358204.786376,-0.030690,0.030642,-0.002023
2.220000,0.460000,0.280013,0.040000,15267800.088713,-2600343122.185596,2401164743.088031,15727022.500338,-0.047866,0.046365,0.000296
2.220000,0.500000,0.280099,0.040000,13793244.798061,-2155566125.691556,2023022864.378793,1448470699.278130,-0.039863,0.038864,0.027290
2.180000,0.500000,0.320087,0.040000,8443338.269488,-1393788814.141377,1361509862.224531,770936628.109161,-0.026077,0.025834,0.014525
2.260000,0.460000,0.240015,0.040000,25740298.944316,-4447920766.769508,4410736962.748964,302872909.536791,-0.083591,0.083311,0.005706
2.300000,0.460000,0.200018,0.040000,43421687.117725,-7521602519.015733,7409359994.197139,702589019.057440,-0.141077,0.140231,0.013237
2.300000,0.500000,0.200139,0.040000,37178261.057476,-5968090267.617793,5883799059.060454,4313057259.052421,-0.111966,0.111331,0.081260
2.260000,0.500000,0.240116,0.040000,22599447.014736,-3560889554.268958,3534379995.669880,2419630100.562032,-0.066939,0.066740,0.045587
2.340000,0.460000,0.160023,0.040000,73338888.960238,-12792439283.101906,12602225517.439388,1413970533.367702,-0.239942,0.238508,0.026640
2.380000,0.460000,0.120030,0.040000,124071335.220257,-21801861267.984364,21489603882.265606,2603364109.434130,-0.408995,0.406642,0.049049
2.380000,0.500000,0.120232,0.040000,102240937.102974,-17322932959.857281,17147657593.435738,13250049193.522127,-0.325383,0.324062,0.249639
2.340000,0.500000,0.160174,0.040000,61471417.254301,-10115513944.940781,9970408802.472961,7600897731.471828,-0.189762,0.188668,0.143205
2.420000,0.460000,0.080045,0.040000,210278946.921665,-37699759811.930367,37943836831.374649,4820639820.979960,-0.711665,0.713504,0.090824
2.460000,0.460000,0.040090,0.040000,357025522.672612,-61277755584.361160,51871723011.103683,7980857051.761118,-1.101344,1.030458,0.150364
2.460000,0.500000,0.040690,0.040000,288618641.776063,-47915737332.162354,34306548814.259953,39757830963.092918,-0.825839,0.723277,0.749061
2.420000,0.500000,0.080347,0.040000,171174663.135243,-29804481751.663055,27641540552.838867,25346674507.799450,-0.549308,0.533008,0.477546
2.500000,0.460000,0.002687,0.040000,608389706.067264,-91365392173.183777,52488674701.099548,10615487433.731691,-1.501639,1.208655,0.200002
2.500000,0.500000,0.007463,0.040000,527478759.587518,-85685558952.655365,56986562449.441071,51700967720.852165,-1.452154,1.235872,0.974076
-2.500000,0.540000,0.012239,0.040000,-795581901.030970,268481032968.598816,21349940420.607662,-87653095499.673935,3.420163,-1.235930,-1.651435
-2.500000,0.580000,0.002090,0.040000,-652610150.365315,274679207486.359314,46896043240.735863,47450310984.939980,3.357516,-0.934051,0.893991
-2.460000,0.540000,0.041830,0.040000,-465133075.059637,110913645090.492920,90611091660.198563,-49680512450.084610,0.950625,0.568113,-0.936010
-2.420000,0.540000,0.080931,0.040000,-267854680.449271,47682403572.144524,1307647523.720457,-22395458291.907104,0.621464,-0.252263,-0.421943
-2.420000,0.580000,0.080027,0.040000,-217461594.856222,44228350190.579185,-10264560376.544889,38080528639.722450,0.641319,-0.385360,0.717459
-2.460000,0.580000,0.040055,0.040000,-377611256.254075,119390802506.983917,43007599600.342522,41623173064.103958,1.331488,-0.107616,0.784205
-2.380000,0.540000,0.120623,0.040000,-154555082.909374,29534464452.728409,-28818677233.229702,2533164962.440143,0.552401,-0.547006,0.047726
-2.340000,0.540000,0.160467,0.040000,-89368350.512079,16968387691.013351,-16649959545.689116,1519244947.143608,0.317894,-0.315495,0.028623
-2.340000,0.580000,0.160014,0.040000,-74125909.051542,13493688412.850481,-13231393769.968494,10174656211.002808,0.252746,-0.250770,0.191696
-2.380000,0.580000,0.120018,0.040000,-126404472.496563,23778973911.886890,-23217354139.617832,17960903400.217350,0.444835,-0.440603,0.338394
-2.300000,0.540000,0.200374,0.040000,-51771179.806070,9751076023.925926,-9570369460.967340,784823927.391009,0.182695,-0.181333,0.014787
-2.260000,0.540000,0.240312,0.040000,-30028260.505641,5639310759.677719,-5574559718.866670,343589185.999881,0.105882,-0.105394,0.006473
-2.260000,0.580000,0.240009,0.040000,-26066533.460083,4484658019.298601,-4433769223.079194,3145902797.114196,0.084206,-0.083822,0.059271
-2.300000,0.580000,0.200011,0.040000,-43812331.125167,7725153197.282939,-7580392311.034840,5695521055.003636,0.144728,-0.143637,0.107307
-2.220000,0.540000,0.280267,0.040000,-17421473.595746,3225614871.346166,-2964660600.501236,4453566.801791,0.059297,-0.057331,0.000084
-2.180000,0.540000,0.320234,0.040000,-10096018.478733,1984958025.102317,-1971555085.779563,-137939709.899327,0.037322,-0.037221,-0.002599
-2.180000,0.580000,0.320007,0.040000,-9352059.984296,1680595911.410769,-1634281713.709139,964023620.877846,0.031402,-0.031053,0.018163
-2.220000,0.580000,0.280008,0.040000,-15587169.530312,2650140892.807540,-2475622109.012613,1851408546.186044,0.048944,-0.047629,0.034882
2.180000,0.540000,0.320234,0.040000,5839306.700835,-655196191.553406,695460202.513950,1120773904.214079,-0.012572,0.012875,0.021116
2.220000,0.540000,0.280267,0.040000,9016150.005030,-1019752795.719559,918319475.100269,2168939171.533368,-0.018639,0.017875,0.040864
2.220000,0.580000,0.280008,0.040000,2547692.485693,127188976.797297,-61845689.499669,2330161530.453505,0.002027,-0.001535,0.043902
2.180000,0.580000,0.320007,0.040000,2154091.655013,-22821121.326839,-13452277.766945,1250807489.558126,-0.000225,-0.000048,0.023566
2.260000,0.540000,0.240312,0.040000,13951571.748097,-1725092484.026422,1717715520.604283,3759379043.305754,-0.032460,0.032404,0.070829
2.300000,0.540000,0.200374,0.040000,21682693.026831,-2777288985.565105,2746873746.469271,6590901308.981366,-0.052154,0.051925,0.124176
2.300000,0.580000,0.200011,0.040000,1871502.055865,1114115986.493731,-1078978349.722128,6867016997.492332,0.020792,-0.020527,0.129379
2.260000,0.580000,0.240009,0.040000,2624560.512247,508773937.156315,-493585585.671205,3947839070.662031,0.009500,-0.009385,0.074380
2.340000,0.540000,0.160467,0.040000,33937130.849276,-4583207461.499371,4528760229.562530,11529190028.934795,-0.086043,0.085632,0.217217
2.380000,0.540000,0.120623,0.040000,53671287.102526,-7640438914.329670,7326576830.512836,20114775611.288197,-0.142176,0.139811,0.378974
2.380000,0.580000,0.120018,0.040000,-6872768.145372,4161525627.139201,-4111070782.567101,20996100883.338074,0.078120,-0.077740,0.395579
2.340000,0.580000,0.160014,0.040000,-697402.015084,2221906278.879951,-2162818692.774079,11989857937.843367,0.041528,-0.041083,0.225896
2.420000,0.540000,0.080931,0.040000,86087812.599265,-11351713072.687496,8310176914.488036,35862554130.152191,-0.196682,0.173760,0.675671
2.460000,0.540000,0.041830,0.040000,140573135.406404,-15980856158.218430,2166016820.754539,51586823859.244110,-0.223005,0.118893,0.971926
2.460000,0.580000,0.040055,0.040000,-44330006.023855,12038860574.086494,-16688031671.316744,46878616911.507416,0.253097,-0.288134,0.883220
2.420000,0.580000,0.080027,0.040000,-19740500.123894,7819089792.001116,-9499319442.036993,34001611238.954762,0.156813,-0.169476,0.640610
2.500000,0.540000,0.012239,0.040000,139702594.932102,2545853908.108573,-13594018815.977829,63413789059.795403,0.110412,-0.193673,1.194753
2.500000,0.580000,0.002090,0.040000,-105923353.151900,19669674721.829250,-18944107725.571945,53874165565.198318,0.366487,-0.361019,1.015021
-2.500000,0.620000,0.008060,0.040000,391650846.493340,-155394298321.466736,254422560866.239960,93429245648.098648,-3.487444,4.233744,1.760261
-2.500000,0.660000,0.011642,0.040000,298085074.043001,-148521287183.601349,22228779180.861496,-65852608624.538864,-2.084400,1.132630,-1.240701
-2.460000,0.620000,0.040804,0.040000,-173005866.746704,6150045508.648863,118141971849.050537,79261844578.902298,-0.586650,1.523343,1.493339
-2.420000,0.620000,0.080405,0.040000,-101776337.706655,4265573615.993041,27295002752.082954,52642340250.845291,-0.098020,0.335868,0.991812
-2.420000,0.660000,0.080843,0.040000,42771578.021729,-23234874985.641594,38370210359.680832,26710224534.777901,-0.523306,0.637369,0.503236
-2.460000,0.660000,0.041660,0.040000,86507170.754608,-67318630149.650795,90548415439.771988,-14186961308.407545,-1.399621,1.574686,-0.267291
-2.380000,0.620000,0.120270,0.040000,-61557236.960278,9385839651.698896,-7572164648.397637,28006726146.289440,0.166583,-0.152915,0.527663
-2.340000,0.620000,0.160203,0.040000,-38063438.436668,5732772366.128451,-5617534905.641875,15685234244.416550,0.107357,-0.106489,0.295519
-2.340000,0.660000,0.160423,0.040000,6823225.043941,-3960692828.019746,3876250341.702088,16074838912.121582,-0.074144,0.073508,0.302859
-2.380000,0.660000,0.120563,0.040000,18966102.902685,-7385645988.128802,7628714414.304907,29025404402.759735,-0.140524,0.142356,0.546855
-2.300000,0.620000,0.200162,0.040000,-23918933.001175,3329478370.370150,-3269929041.411263,8760822835.375996,0.062393,-0.061944,0.165059
-2.260000,0.620000,0.240135,0.040000,-15191501.157291,2004169826.941807,-1984689613.889451,4882946622.086409,0.037650,-0.037503,0.091998
-2.260000,0.660000,0.240282,0.040000,-1214953.106208,-1005126492.522268,984548653.880405,4998469904.077625,-0.018821,0.018666,0.094174
-2.300000,0.660000,0.200339,0.040000,1122832.326227,-2058854117.125886,2007717141.489995,8937866530.385847,-0.038501,0.038116,0.168395
-2.220000,0.620000,0.280116,0.040000,-9707564.868582,1148666544.627853,-1021713077.830472,2760224896.593902,0.020924,-0.019967,0.052004
-2.180000,0.620000,0.320101,0.040000,-6219008.924738,723512718.960406,-772335007.162991,1392414593.561624,0.013907,-0.014275,0.026234
-2.180000,0.660000,0.320212,0.040000,-1877890.437565,-90828991.546165,135607506.838991,1497091627.307643,-0.001964,0.002302,0.028206
-2.220000,0.660000,0.280242,0.040000,-1910595.708721,-358544518.337883,261164387.978058,2872011988.999066,-0.006205,0.005471,0.054110
2.180000,0.620000,0.320101,0.040000,-1483590.103103,788458258.971150,-745533216.960019,1043334641.521795,0.014612,-0.014289,0.019657
2.220000,0.620000,0.280116,0.040000,-3642972.993980,1347922849.374335,-1254112451.602240,1836487615.148413,0.024865,-0.024158,0.034600
2.220000,0.660000,0.280242,0.040000,-7825738.946258,1911867079.103482,-1738308888.330051,675746263.527420,0.035040,-0.033732,0.012731
2.180000,0.660000,0.320212,0.040000,-4070120.698624,1109908746.434720,-1109090142.990079,392011944.265927,0.020907,-0.020901,0.007386
2.260000,0.620000,0.240135,0.040000,-7942404.761228,2461123072.684486,-2426781645.269727,2953590866.553725,0.046175,-0.045916,0.055647
2.300000,0.620000,0.200162,0.040000,-16243093.446963,4521351027.440881,-4428700299.788404,5059646232.986629,0.084661,-0.083963,0.095327
2.300000,0.660000,0.200339,0.040000,-27404412.813251,6368259974.782878,-6245839569.689024,1745242595.387769,0.119290,-0.118367,0.032881
2.260000,0.660000,0.240282,0.040000,-14745039.913696,3530625008.431694,-3487273192.508559,1115966672.176130,0.066274,-0.065947,0.021025
2.340000,0.620000,0.160203,0.040000,-31917380.003790,8233396382.276264,-8071395184.453177,8770212660.293629,0.154206,-0.152985,0.165236
2.380000,0.620000,0.120270,0.040000,-61009458.210373,14756344433.644596,-14368665208.354095,15389475242.087513,0.275827,-0.272905,0.289947
2.380000,0.660000,0.120563,0.040000,-92291322.302691,20792499909.857254,-20445239394.999073,4788743625.727687,0.389780,-0.387163,0.090223
2.340000,0.660000,0.160423,0.040000,-50456060.417009,11510350922.004976,-11291622625.124098,2822858248.561201,0.215625,-0.213977,0.053184
2.420000,0.620000,0.080405,0.040000,-114227458.832120,24950711571.847519,-24026276461.481411,26744388448.265282,0.464861,-0.457894,0.503880
2.460000,0.620000,0.040804,0.040000,-210278483.073608,36547069035.434120,-29114175060.187088,36736006993.415215,0.646556,-0.590540,0.692128
2.460000,0.660000,0.041660,0.040000,-304739204.428427,58796223929.539284,-46509209285.569427,16871937184.345224,1.038307,-0.945709,0.317877
2.420000,0.660000,0.080843,0.040000,-168017506.909518,37003985745.439079,-35528365091.303291,9978619686.247410,0.688836,-0.677715,0.188003
2.500000,0.620000,0.008060,0.040000,-332123700.586040,36450702823.545113,-27183687233.073349,43511748810.593636,0.634374,-0.564535,0.819787
2.500000,0.660000,0.011642,0.040000,-571473602.814125,94832961508.743729,-68041558747.381813,22561920288.048973,1.635278,-1.433372,0.425080
-2.500000,0.700000,0.001493,0.040000,598568362.398033,-154210767603.418610,40405880552.405716,-146256681265.622986,-2.262175,1.404515,-2.755561
-2.500000,0.740000,0.008657,0.040000,-782695188.475359,361073369845.317383,-534870200879.448853,-3851196212.984956,7.785162,-9.094935,-0.072559
-2.460000,0.700000,0.040028,0.040000,314699251.826992,-57700335728.982353,-84007728728.198441,-67962370850.371300,-0.286149,-0.781796,-1.280450
-2.420000,0.700000,0.080014,0.040000,167984055.127358,-33290798533.590668,-6633347883.238179,-6738930594.759989,-0.401560,0.100682,-0.126965
-2.420000,0.740000,0.080467,0.040000,229692000.990066,-23576640282.232998,-38943820991.186890,4062301060.053800,-0.090821,-0.380348,0.076536
-2.460000,0.740000,0.040926,0.040000,429015741.468913,-27295529563.174667,-220352223089.563141,1372131581.009480,0.885485,-2.751815,0.025852
-2.380000,0.700000,0.120009,0.040000,88315926.416348,-22665518322.745441,22091694157.643753,19941580610.932541,-0.423788,0.419464,0.375711
-2.340000,0.700000,0.160007,0.040000,45608210.514809,-12334524069.668781,12062267001.984606,10957336594.056900,-0.230851,0.228799,0.206443
-2.340000,0.740000,0.160234,0.040000,65449748.821754,-16292829055.753305,15918047845.178082,1913723397.660223,-0.304848,0.302024,0.036056
-2.380000,0.740000,0.120312,0.040000,122763422.969914,-28465069628.975567,24179380161.265236,3411186361.333949,-0.512075,0.479777,0.064269
-2.300000,0.700000,0.200006,0.040000,23016784.917029,-6628732367.228517,6478239117.260384,6104948949.995720,-0.124039,0.122904,0.115021
-2.260000,0.700000,0.240005,0.040000,11246239.180161,-3535082611.198172,3479304081.240373,3462448421.939005,-0.066288,0.065867,0.065235
-2.260000,0.740000,0.240156,0.040000,18316159.955618,-4707613933.822391,4635404866.232296,826517010.301712,-0.088286,0.087742,0.015572
-2.300000,0.740000,0.200187,0.040000,34746157.583132,-8738717953.388683,8538910392.452839,1212332617.310323,-0.163513,0.162007,0.022841
-2.220000,0.700000,0.280004,0.040000,5229171.582754,-1888764388.839626,1745952122.979835,2118284188.974526,-0.034778,0.033702,0.039910
-2.180000,0.700000,0.320003,0.040000,2232234.844180,-1081514707.326172,1027618850.037858,1184135253.079141,-0.020072,0.019666,0.022310
-2.180000,0.740000,0.320117,0.040000,4888653.513492,-1419979285.055006,1408566718.104987,301766463.139683,-0.026689,0.026603,0.005685
-2.220000,0.740000,0.280134,0.040000,9546530.963439,-2491232026.036384,2260537400.524393,499612740.222686,-0.045632,0.043894,0.009413
2.180000,0.700000,0.320003,0.040000,-5019073.157167,1122841805.293207,-1121816474.122920,-74916930.101784,0.021149,-0.021141,-0.001411
2.220000,0.700000,0.280004,0.040000,-9026575.666452,1876124281.015504,-1713438358.962142,-371130064.399136,0.034428,-0.033202,-0.006992
2.220000,0.740000,0.280134,0.040000,-7294951.355907,1285970100.147142,-1214358017.520258,-1393508604.488352,0.023824,-0.023284,-0.026255
2.180000,0.740000,0.320117,0.040000,-4311215.197770,824465325.883732,-794109759.531445,-674290151.898832,0.015362,-0.015133,-0.012704
2.260000,0.700000,0.240005,0.040000,-16136229.095226,3395871047.550939,-3357865359.990477,-946147163.226763,0.063765,-0.063479,-0.017826
2.300000,0.700000,0.200006,0.040000,-28767024.680453,6052690202.338318,-5941126147.786331,-1979515103.846735,0.113406,-0.112565,-0.037295
2.300000,0.740000,0.200187,0.040000,-20814896.729705,3695654259.322981,-3635569486.245795,-4834204208.571254,0.069289,-0.068836,-0.091079
2.260000,0.740000,0.240156,0.040000,-12315549.880758,2141386017.429951,-2122670140.376447,-2530790776.344640,0.040239,-0.040098,-0.047682
2.340000,0.700000,0.160007,0.040000,-51280592.030792,10898599060.758097,-10694801271.678230,-3926552540.946743,0.204184,-0.202648,-0.073979
2.380000,0.700000,0.120009,0.040000,-91600563.604721,19762016911.044033,-19395339276.427231,-7467279351.449984,0.370255,-0.367492,-0.140688
2.380000,0.740000,0.120312,0.040000,-60557325.654270,11855128392.357130,-11764066902.474480,-17135661276.189022,0.222843,-0.222157,-0.322846
2.340000,0.740000,0.160234,0.040000,-35348727.586015,6525326785.965683,-6411970020.187554,-9142535791.714304,0.122300,-0.121446,-0.172251
2.420000,0.700000,0.080014,0.040000,-164222516.091681,36534616330.851540,-36609206635.422050,-13084666186.806087,0.688755,-0.689317,-0.246523
2.460000,0.700000,0.040028,0.040000,-295826344.924749,62693063082.048447,-51309206670.280251,-19297526242.656387,1.116830,-1.031039,-0.363577
2.460000,0.740000,0.040926,0.040000,-185411365.256789,38940194075.212341,-28609473898.449539,-53559870140.940018,0.675265,-0.597410,-1.009099
2.420000,0.740000,0.080467,0.040000,-105080870.406521,22367774899.399750,-20968399105.157848,-34144498581.028625,0.413512,-0.402966,-0.643302
2.500000,0.700000,0.001493,0.040000,-535726209.290411,97233487140.476028,-52685929093.231804,-23332806708.076206,1.580145,-1.244424,-0.439604
2.500000,0.740000,0.008657,0.040000,-394216602.997379,82123124080.652802,-55357331909.265785,-69106535176.732727,1.395962,-1.194249,-1.302007
-2.500000,0.780000,0.011045,0.040000,650305180.911305,-204628338013.049377,-1432466174.779572,116982646487.264938,-2.690625,1.137703,2.204021
-2.500000,0.820000,0.000896,0.040000,343518590.468356,-194555948517.917358,-41486237700.151985,16613961984.680979,-2.331395,0.552527,0.313017
-2.460000,0.780000,0.041497,0.040000,381981735.610622,-86762881851.979340,-107499914288.849884,55625783336.329361,-0.536656,-0.927354,1.048022
-2.420000,0.780000,0.080759,0.040000,204606797.312305,-41815695302.234505,-9184870321.604469,9120774635.304916,-0.499568,0.115216,0.171841
-2.420000,0.820000,0.080005,0.040000,101838058.366697,-29817692460.448257,21244956653.874218,-36820178922.533424,-0.513328,0.448722,-0.693714
-2.460000,0.820000,0.040010,0.040000,185301551.001151,-92248374300.541428,21133389638.168598,-14300156497.802599,-1.336059,0.800120,-0.269423
-2.380000,0.780000,0.120507,0.040000,110646007.840311,-26531612988.744740,25569601916.012344,-14914598065.126787,-0.494434,0.487184,-0.281000
-2.340000,0.780000,0.160381,0.040000,60324995.127812,-14112328951.817596,13774926818.251745,-7813286653.115164,-0.263977,0.261435,-0.147207
-2.340000,0.820000,0.160003,0.040000,33621227.919691,-6364304877.433248,6210668475.095138,-14372160405.217199,-0.119039,0.117881,-0.270780
-2.380000,0.820000,0.120003,0.040000,57823111.493804,-12053543548.566782,11720882987.601458,-27849546262.698444,-0.225215,0.222708,-0.524702
-2.300000,0.780000,0.200305,0.040000,33084144.775859,-7560812326.946701,7387162465.689890,-3951030499.018964,-0.141469,0.140160,-0.074440
-2.260000,0.780000,0.240254,0.040000,18198645.570005,-4114139847.187820,4052968657.112300,-1932414952.842840,-0.077167,0.076706,-0.036408
-2.260000,0.820000,0.240002,0.040000,11792322.093304,-2016662143.932341,1992456358.980440,-3759248902.945850,-0.037858,0.037676,-0.070826
-2.300000,0.820000,0.200002,0.040000,19840983.267921,-3511597201.916534,3437594167.451188,-7370917693.013358,-0.065742,0.065185,-0.138872
-2.220000,0.780000,0.280218,0.040000,10005916.844619,-2201235018.485386,1992451508.449795,-863247253.744998,-0.040292,0.038719,-0.016264
-2.180000,0.780000,0.320191,0.040000,5476814.956471,-1285472554.074780,1288582390.859235,-287865050.563953,-0.024237,0.024260,-0.005424
-2.180000,0.820000,0.320001,0.040000,4157346.009751,-804292856.946508,761622847.561309,-943189594.115990,-0.014912,0.014591,-0.017770
-2.220000,0.820000,0.280001,0.040000,7015379.571820,-1235385271.511766,1177516740.304833,-2007264346.353516,-0.022948,0.022512,-0.037818
2.180000,0.780000,0.320191,0.040000,-2452611.943568,162388336.023987,-198461614.570993,-832068930.274845,0.003263,-0.003535,-0.015677
2.220000,0.780000,0.280218,0.040000,-3624970.742235,200383924.581682,-170369398.669338,-1705188666.084743,0.003606,-0.003380,-0.032127
2.220000,0.820000,0.280001,0.040000,450272.051474,-673142323.738655,572200874.503626,-1388091848.006917,-0.012112,0.011351,-0.026152
2.180000,0.820000,0.320001,0.040000,-256016.264337,-298065120.545678,313221858.967027,-703491406.220678,-0.005701,0.005816,-0.013254
2.260000,0.780000,0.240254,0.040000,-5195607.190691,250602576.642302,-259225694.950170,-3099840521.791442,0.004770,-0.004835,-0.058403
2.300000,0.780000,0.200305,0.040000,-7163835.782986,161187454.376747,-177623968.581023,-5804195843.952234,0.003130,-0.003254,-0.109354
2.300000,0.820000,0.200002,0.040000,6773765.873076,-3206516393.172317,3116699255.892943,-4552002094.808270,-0.059905,0.059228,-0.085762
2.260000,0.820000,0.240002,0.040000,2340085.235860,-1553086098.530071,1519227644.866997,-2490258498.743238,-0.029070,0.028815,-0.046918
2.340000,0.780000,0.160381,0.040000,-9385017.853374,-92782322.003370,64914996.712753,-10890236043.544283,-0.001591,0.001381,-0.205178
2.380000,0.780000,0.120507,0.040000,-11457075.472965,-684516295.553543,859360859.485980,-20483246559.085186,-0.013885,0.015203,-0.385916
2.380000,0.820000,0.120003,0.040000,36762518.430720,-12732823690.046171,12448132787.683977,-15868943167.105881,-0.238285,0.236139,-0.298980
2.340000,0.820000,0.160003,0.040000,16471955.243688,-6462314711.011927,6292800604.016380,-8435509887.595229,-0.120796,0.119518,-0.158930
2.420000,0.780000,0.080759,0.040000,-12646716.661610,-2967645025.192710,4873231948.253319,-39981154293.914909,-0.066683,0.081044,-0.753268
2.460000,0.780000,0.041497,0.040000,-12118014.066066,-6294430446.683196,13542773719.882353,-60935774081.977448,-0.159560,0.214185,-1.148065
2.460000,0.820000,0.040010,0.040000,158973518.443162,-43892821533.159195,38795443329.663147,-39728883647.663925,-0.798155,0.759740,-0.748515
2.420000,0.820000,0.080005,0.040000,77867295.709861,-25066848642.814796,25893464862.065392,-27777716037.279793,-0.476946,0.483176,-0.523348
2.500000,0.780000,0.011045,0.040000,85810556.026809,-36736111229.757980,36192068781.366409,-77032157764.603683,-0.689055,0.684955,-1.451331
2.500000,0.820000,0.000896,0.040000,324497080.230764,-70077821909.947144,40858818512.416000,-46568919939.129654,-1.155156,0.934955,-0.877385
-2.500000,0.860000,0.009254,0.040000,52081891.545625,-50296590064.576225,58506030003.372879,-108739613994.642715,-0.994018,1.055886,-2.048717
-2.500000,0.900000,0.010448,0.040000,-727558302.909698,284696753738.313599,-44739461295.558960,-19632890416.468578,4.007572,-2.199198,-0.369895
-2.460000,0.860000,0.041056,0.040000,-85614512.745849,12518920837.348269,11010146161.110468,-91005429201.728149,0.102873,0.074447,-1.714595
-2.420000,0.860000,0.080533,0.040000,-36998448.499939,10776707009.136654,-5083192091.886456,-59123401462.662582,0.170859,-0.127951,-1.113919
-2.420000,0.900000,0.080679,0.040000,-151978234.700723,54921675889.850693,-40503127103.204109,-32368397902.249210,0.953260,-0.844599,-0.609839
-2.460000,0.900000,0.041342,0.040000,-314497009.800092,130060220876.947937,-40150781134.005402,-27341899714.993538,1.942226,-1.264648,-0.515137
-2.380000,0.860000,0.120356,0.040000,-13290543.428081,7827650511.799433,-7119593338.162984,-29186684511.136284,0.143475,-0.138139,-0.549894
-2.340000,0.860000,0.160267,0.040000,-2803308.127113,3949352769.355209,-3832046941.966306,-14858727025.140717,0.073745,-0.072861,-0.279947
-2.340000,0.900000,0.160341,0.040000,-33251665.432915,12349965638.085182,-11990479091.902872,-8799657725.151678,0.230649,-0.227939,-0.165791
-2.380000,0.900000,0.120454,0.040000,-72001489.122521,25216092609.246048,-24687685671.765675,-17363958602.554527,0.472099,-0.468117,-0.327147
-2.300000,0.860000,0.200214,0.040000,1200797.965313,1768234000.821748,-1704474620.970668,-7629662528.536884,0.032954,-0.032474,-0.143747
-2.260000,0.860000,0.240178,0.040000,2281916.972099,703091017.323716,-677950508.485371,-3949644387.309855,0.013105,-0.012915,-0.074414
-2.260000,0.900000,0.240227,0.040000,-6207567.902783,2876046940.851797,-2811031513.024040,-2484869488.078373,0.053819,-0.053329,-0.046816
-2.300000,0.900000,0.200273,0.040000,-14799803.596392,5991961975.371789,-5812525559.202825,-4611799015.241292,0.111878,-0.110526,-0.086889
-2.220000,0.860000,0.280153,0.040000,2194573.083880,271798898.789219,-263305750.796035,-2138799368.669285,0.005073,-0.005009,-0.040296
-2.180000,0.860000,0.320134,0.040000,1742221.784999,90364399.224733,-41626928.637437,-1029548383.707830,0.001427,-0.001060,-0.019397
-2.180000,0.900000,0.320171,0.040000,-673925.176832,618322793.222120,-625373200.699128,-675647677.256923,0.011689,-0.011743,-0.012730
-2.220000,0.900000,0.280195,0.040000,-2333481.230455,1293612151.008362,-1128134448.242060,-1353004958.040889,0.023437,-0.022190,-0.025491
2.180000,0.860000,0.320134,0.040000,1474122.574267,-706793341.726396,681948707.203377,-427787589.092870,-0.013176,0.012989,-0.008060
2.220000,0.860000,0.280153,0.040000,3448642.363017,-1296473054.947663,1179469013.329763,-690833776.095136,-0.023765,0.022883,-0.013016
2.220000,0.900000,0.280195,0.040000,4488850.952902,-1282602946.465719,1172440410.806940,315763381.854087,-0.023542,0.022712,0.005949
2.180000,0.900000,0.320171,0.040000,2232979.392294,-723174495.010548,706333755.676960,97795581.065101,-0.013530,0.013403,0.001843
2.260000,0.860000,0.240178,0.040000,7541142.233344,-2578607748.887459,2532522684.676693,-998710586.868260,-0.048322,0.047975,-0.018816
2.300000,0.860000,0.200214,0.040000,15849958.580317,-5079946427.701968,4951282210.891010,-1614314409.775735,-0.094982,0.094012,-0.030415
2.300000,0.900000,0.200273,0.040000,17202842.428134,-4713962410.669954,4601850996.824186,1746467734.386844,-0.088180,0.087335,0.032904
2.260000,0.900000,0.240227,0.040000,8839609.171781,-2456299986.428535,2417728773.918585,717950133.299499,-0.046060,0.045769,0.013527
2.340000,0.860000,0.160267,0.040000,32497713.822054,-10006629796.145876,9756219101.129215,-2700180374.961303,-0.187115,0.185228,-0.050873
2.380000,0.860000,0.120356,0.040000,65570367.805108,-19622530590.782642,19082396439.030449,-4783767944.666948,-0.366647,0.362576,-0.090129
2.380000,0.900000,0.120454,0.040000,64478037.770831,-18003006000.404919,17452881455.591637,8309217233.102543,-0.336078,0.331932,0.156550
2.340000,0.900000,0.160341,0.040000,33304394.014078,-9171201991.274687,8946731757.059486,3917831746.437880,-0.171522,0.169830,0.073814
2.420000,0.860000,0.080533,0.040000,130894059.977585,-37128301726.881630,34273705875.889778,-7387508620.989100,-0.683384,0.661871,-0.139185
2.460000,0.860000,0.041056,0.040000,259315312.740600,-62036548439.264793,42739178300.624992,-7974611404.693782,-1.059732,0.914303,-0.150246
2.460000,0.900000,0.041342,0.040000,245457475.100204,-58174874340.894630,37203799607.523506,21917830195.646492,-0.977516,0.819473,0.412945
2.420000,0.900000,0.080679,0.040000,125354232.842387,-34285766752.875530,31026125059.528496,15742574148.275820,-0.627540,0.602974,0.296599
2.500000,0.860000,0.009254,0.040000,487874522.808244,-92217557011.711166,57336432079.543304,-7424407771.518659,-1.540278,1.277406,-0.139880
2.500000,0.900000,0.010448,0.040000,444215793.107611,-83149762995.253098,47805281252.235870,25770851629.490200,-1.366817,1.100452,0.485538
-2.500000,0.940000,0.000299,0.040000,-818219302.219852,295632623698.414307,-44349619865.904564,135103750780.907791,4.149595,-2.255868,2.545433
-2.500000,0.980000,0.009851,0.040000,674298833.658153,-348094053328.238281,358997534253.120544,43563653748.873909,-6.619922,6.702093,0.820764
-2.460000,0.940000,0.040001,0.040000,-391949749.710091,132553283328.303513,41706413115.113007,82180391497.628433,1.512435,-0.199173,1.548326
-2.420000,0.940000,0.080001,0.040000,-190390726.478568,59122689931.891647,-18572275081.669109,35497446606.253830,0.884708,-0.579110,0.668792
-2.420000,0.980000,0.080604,0.040000,-133772380.112723,12984966416.914566,32276060611.500046,43499127286.616188,-0.011179,0.352276,0.819549
-2.460000,0.980000,0.041195,0.040000,-272276413.050993,-5807602405.194342,168943419357.501862,48163612261.648758,-1.031491,2.260920,0.907430
-2.380000,0.940000,0.120000,0.040000,-92623606.998271,30437092104.706558,-29426847162.319340,3101137602.887779,0.567742,-0.560129,0.058427
-2.340000,0.940000,0.160000,0.040000,-45010548.288229,14794295369.231344,-14350404882.102318,1201128006.771224,0.276224,-0.272879,0.022630
-2.340000,0.980000,0.160303,0.040000,-34429878.543465,9837744563.901787,-9540773803.540644,10269948569.688705,0.183670,-0.181432,0.193492
-2.380000,0.980000,0.120404,0.040000,-67292370.235643,18833106901.938995,-15337260633.961746,22193564684.672279,0.335068,-0.308722,0.418140
-2.300000,0.940000,0.200000,0.040000,-21750747.745288,7226444985.931776,-7013810177.899862,281434852.669841,0.134949,-0.133346,0.005302
-2.260000,0.940000,0.240000,0.040000,-10381674.257817,3560677970.007942,-3486072291.826326,-93289190.035021,0.066664,-0.066101,-0.001758
-2.260000,0.980000,0.240202,0.040000,-9191533.201520,2518434606.926183,-2472488410.361631,2050084211.402923,0.047189,-0.046843,0.038625
-2.300000,0.980000,0.200242,0.040000,-17778965.582811,4905820249.091912,-4769657440.202596,4650753431.143691,0.091659,-0.090633,0.087623
-2.220000,0.940000,0.280000,0.040000,-4845328.946998,1732776267.101252,-1559544530.534715,-264588561.064796,0.031667,-0.030362,-0.004985
-2.180000,0.940000,0.320000,0.040000,-2176061.858485,923929352.724828,-901222611.415240,-255011331.973793,0.017279,-0.017108,-0.004805
-2.180000,0.980000,0.320152,0.040000,-2384366.499313,759223814.551737,-729620206.575063,368109411.156146,0.014137,-0.013914,0.006935
-2.220000,0.980000,0.280173,0.040000,-4718807.276791,1330111563.992995,-1226666051.263349,955064309.387369,0.024475,-0.023696,0.017994
2.180000,0.940000,0.320000,0.040000,1968728.292656,-426400338.626641,441287224.154625,349152100.304678,-0.008118,0.008230,0.006578
2.220000,0.940000,0.280000,0.040000,3577319.964448,-714769343.396179,640339368.707724,899118969.678895,-0.013046,0.012485,0.016940
2.220000,0.980000,0.280173,0.040000,1508714.880917,-26474844.161752,61391162.269949,1064778577.271893,-0.000696,0.000959,0.020061
2.180000,0.980000,0.320152,0.040000,1038956.145150,-94179125.710564,79315253.121732,478582293.162015,-0.001690,0.001578,0.009017
2.260000,0.940000,0.240000,0.040000,6406806.321473,-1316281398.096798,1303216215.088323,1913203785.854464,-0.024726,0.024627,0.036046
2.300000,0.940000,0.200000,0.040000,11378049.475150,-2334859121.105940,2292283689.742311,4043737655.175462,-0.043749,0.043429,0.076186
2.300000,0.980000,0.200242,0.040000,1969575.608681,878445059.144240,-828575201.134988,4254717738.777958,0.016269,-0.015893,0.080161
2.260000,0.980000,0.240202,0.040000,1952525.566550,248934848.659140,-229762992.023818,2092695541.569382,0.004582,-0.004437,0.039428
2.340000,0.940000,0.160000,0.040000,20172434.083135,-4279388598.692163,4190975231.045977,8446359322.361104,-0.080126,0.079460,0.159134
2.380000,0.940000,0.120000,0.040000,36000487.170618,-8185330939.585507,7994368203.177477,17472367596.085247,-0.153137,0.151698,0.329190
2.380000,0.980000,0.120404,0.040000,-4860216.401738,5462724111.214005,-5061176573.443559,18015703368.641773,0.100651,-0.097625,0.339426
2.340000,0.980000,0.160303,0.040000,512856.091444,2361384812.854902,-2257925012.151043,8712199671.319761,0.043905,-0.043125,0.164143
2.420000,0.940000,0.080001,0.040000,65340061.521137,-16697515304.661215,16806130446.943317,33026385179.337681,-0.315205,0.316023,0.622236
2.460000,0.940000,0.040001,0.040000,122030107.137835,-31395312255.971069,24753517800.328011,49221797827.357727,-0.553965,0.503911,0.927367
2.460000,0.980000,0.041195,0.040000,-53540797.795219,15767392143.366083,-4795881487.561604,60936243421.923576,0.235054,-0.152370,1.148074
2.420000,0.980000,0.080604,0.040000,-19403085.872723,10082407148.256790,-7858401799.438765,38465194424.328148,0.177388,-0.160627,0.724707
2.500000,0.940000,0.000299,0.040000,237374744.792084,-52805060180.255684,26838476310.098301,59115305996.714104,-0.848110,0.652420,1.113767
2.500000,0.980000,0.009851,0.040000,-35686259.753345,-2326738872.629037,11307680219.562380,78363721849.590851,-0.094599,0.162281,1.476418
-2.500000,1.020000,0.009851,0.040000,146148973.987210,-175543676573.960358,-16351537796.721338,-199222705850.757599,-2.222720,0.776553,-3.753471
-2.500000,1.060000,0.000299,0.040000,-576893741.175148,193491423334.793335,-377547437805.660217,-163157890449.228668,4.685807,-6.072896,-3.073989
-2.460000,1.020000,0.041195,0.040000,-10292900.325309,-57423959528.608719,18446745421.676556,-86888490887.863861,-0.861595,0.567853,-1.637030
-2.420000,1.020000,0.080604,0.040000,-12260740.938700,-11119947217.540955,8598992426.571241,-665406325.101401,-0.195257,0.176259,-0.012537
-2.420000,1.060000,0.080001,0.040000,105803752.778626,-15913735799.058847,-66612652582.233070,-5468979213.815831,0.166629,-0.788567,-0.103039
-2.460000,1.060000,0.040001,0.040000,250291462.934342,-22865023737.802681,-279168161776.164490,-75518475740.715027,1.276354,-3.552546,-1.422812
-2.380000,1.020000,0.120404,0.040000,-11433202.854200,-1195134617.168538,1528132043.594780,29331734811.972488,-0.024399,0.026909,0.552627
-2.340000,1.020000,0.160303,0.040000,-9006575.940896,-105780759.500063,70760795.124722,13547538076.373659,-0.001795,0.001531,0.255243
-2.340000,1.060000,0.160000,0.040000,16347247.979403,-9493420943.768560,9118489914.635939,9051718638.267658,-0.176742,0.173917,0.170540
-2.380000,1.060000,0.120000,0.040000,42897325.457085,-20496453629.281845,16942805986.320024,19506940793.044189,-0.366079,0.339298,0.367522
-2.300000,1.020000,0.200242,0.040000,-6369205.810291,299589705.122049,-318393672.500977,6260124837.965032,0.005751,-0.005892,0.117944
-2.260000,1.020000,0.240202,0.040000,-4183163.741096,384993556.149460,-393219324.645527,2900174788.804614,0.007300,-0.007362,0.054641
-2.260000,1.060000,0.240000,0.040000,1462341.731743,-1625646882.155308,1568104121.310773,2121180057.357804,-0.030303,0.029869,0.039964
-2.300000,1.060000,0.200000,0.040000,5576211.932669,-3994244108.732085,3827681419.721005,4325705846.807061,-0.074312,0.073057,0.081499
-2.220000,1.020000,0.280173,0.040000,-2599826.072537,285909202.202171,-248813646.396997,1384554246.140365,0.005177,-0.004897,0.026086
-2.180000,1.020000,0.320152,0.040000,-1544026.221352,211042552.933605,-240357205.768673,563923720.947545,0.004142,-0.004363,0.010625
-2.180000,1.060000,0.320000,0.040000,-315034.522813,-200786605.646133,207275637.648235,477891845.170782,-0.003820,0.003869,0.009004
-2.220000,1.060000,0.280000,0.040000,54666.386551,-577578312.142498,475328620.772351,1064529106.047778,-0.010304,0.009533,0.020056
2.180000,1.020000,0.320152,0.040000,-2677.414447,293086119.271103,-268623516.235042,374079736.106608,0.005384,-0.005199,0.007048
2.220000,1.020000,0.280173,0.040000,-574041.764795,630342956.497786,-566383032.878667,730872937.959875,0.011515,-0.011032,0.013770
2.220000,1.060000,0.280000,0.040000,-1747884.734940,796781300.511063,-710966761.073361,49832455.572017,0.014527,-0.013880,0.000939
2.180000,1.060000,0.320000,0.040000,-682945.827834,395094419.331236,-385512439.128061,67118149.875010,0.007390,-0.007317,0.001265
2.260000,1.020000,0.240202,0.040000,-2170161.043351,1456931000.380075,-1415409258.751225,1265911090.508865,0.027215,-0.026902,0.023850
2.300000,1.020000,0.200242,0.040000,-6174248.625393,3306385088.814255,-3188813412.031605,2377809259.192285,0.061630,-0.060744,0.044799
2.300000,1.060000,0.200000,0.040000,-9390922.290573,3724269282.704721,-3604678845.456005,-483019931.830557,0.069491,-0.068590,-0.009100
2.260000,1.060000,0.240000,0.040000,-4139255.662525,1736872620.585798,-1696112740.560964,-44268820.529280,0.032493,-0.032186,-0.000834
2.340000,1.020000,0.160303,0.040000,-15659173.823340,7379418890.279119,-7126676457.507647,4584176881.737434,0.137604,-0.135699,0.086369
2.380000,1.020000,0.120404,0.040000,-37362201.283821,16272408309.311300,-15836217934.776369,9197270909.060528,0.304116,-0.300829,0.173282
2.380000,1.060000,0.120000,0.040000,-45585460.537429,17644085400.425213,-17081858898.098692,-4497050280.380433,0.329247,-0.325010,-0.084727
2.340000,1.060000,0.160000,0.040000,-20807089.456282,8063701463.809521,-7799389835.522738,-1669438648.977724,0.150431,-0.148439,-0.031453
2.420000,1.020000,0.080604,0.040000,-85885946.910571,35002892805.088524,-32929358296.124527,22168790016.970085,0.647755,-0.632128,0.417673
2.460000,1.020000,0.041195,0.040000,-192478085.299278,63991766130.744347,-46647618256.586006,39317057118.166954,1.107610,-0.976900,0.740756
2.460000,1.060000,0.040001,0.040000,-218413335.435658,78079938449.018219,-62572841883.117294,-15071188303.064432,1.383422,-1.266557,-0.283950
2.420000,1.060000,0.080001,0.040000,-99613529.620086,39721533862.050079,-40406737827.619164,-9634941424.096067,0.752250,-0.757413,-0.181528
2.500000,1.020000,0.009851,0.040000,-470703580.363394,122181393686.333450,-80618099137.735428,54029613033.033051,2.067045,-1.753815,1.017949
2.500000,1.060000,0.000299,0.040000,-489762845.641093,135193394780.774094,-68716950176.531822,-18357267159.662685,2.171386,-1.670404,-0.345862
-2.500000,1.100000,0.010448,0.040000,-812476630.959066,241223119590.632233,-544303970975.036987,100896490212.707428,6.257849,-8.541937,1.900948
-2.500000,1.140000,0.009254,0.040000,368728670.198355,-172369037862.433380,-15513884766.435520,228261207700.982056,-2.185586,0.769656,4.300573
-2.460000,1.100000,0.041342,0.040000,348728654.783410,-60059572241.653435,-332187788157.264832,55103215308.669220,1.085493,-4.041560,1.038177
-2.420000,1.100000,0.080679,0.040000,150098034.266875,-27200977972.671688,-73616021484.678040,18373612123.495380,0.057353,-0.817133,0.346170
-2.420000,1.140000,0.080533,0.040000,94045035.699000,-30599217035.730808,-13468371315.896666,7599901330.382915,-0.327429,-0.004674,0.143187
-2.460000,1.140000,0.041056,0.040000,212192542.355936,-75763736932.680283,-98103829937.104874,107309131302.763672,-0.444703,-0.865603,2.021766
-2.380000,1.100000,0.120454,0.040000,64606726.999780,-27140768539.241917,22180744090.791569,-2406606189.455533,-0.483313,0.445933,-0.045342
-2.340000,1.100000,0.160341,0.040000,27643257.796519,-12595674343.185587,12102049236.272831,-571770122.866508,-0.234520,0.230800,-0.010772
-2.340000,1.140000,0.160267,0.040000,20289419.449128,-7351299590.436229,7083121390.557494,-9052524875.106571,-0.136987,0.134966,-0.170555
-2.380000,1.140000,0.120356,0.040000,43226926.283756,-16473305280.035597,15366395264.137222,-22462458320.034706,-0.304110,0.295768,-0.423206
-2.300000,1.100000,0.200273,0.040000,11636676.595469,-5479674556.326168,5269146871.230252,146611473.017569,-0.102050,0.100464,0.002762
-2.260000,1.100000,0.240227,0.040000,4741083.405769,-2400480507.169867,2330095064.377213,314483360.828046,-0.044829,0.044298,0.005925
-2.260000,1.140000,0.240178,0.040000,4474642.992638,-1623154132.402005,1586733962.527539,-1323654102.748700,-0.030375,0.030101,-0.024938
-2.300000,1.140000,0.200214,0.040000,9572559.508505,-3395817616.724541,3284527181.206848,-3533291233.611481,-0.063350,0.062511,-0.066569
-2.220000,1.100000,0.280195,0.040000,1817513.643171,-1034133565.667994,917016416.633048,329030612.348027,-0.018822,0.017939,0.006199
-2.180000,1.100000,0.320171,0.040000,617926.896633,-491020602.678487,468784242.379082,232792382.669253,-0.009125,0.008958,0.004386
-2.180000,1.140000,0.320134,0.040000,896665.319465,-417843707.626420,399167215.856607,-153366797.433264,-0.007767,0.007626,-0.002890
-2.220000,1.140000,0.280153,0.040000,2043345.880898,-794032381.504229,724240200.191848,-516342426.921251,-0.014566,0.014040,-0.009728
2.180000,1.100000,0.320171,0.040000,-811500.613622,286478767.487148,-290406757.618459,-114049675.305127,0.005420,-0.005449,-0.002149
2.220000,1.100000,0.280195,0.040000,-1718961.380954,522320420.727432,-464295040.708221,-417166900.581509,0.009513,-0.009076,-0.007860
2.220000,1.140000,0.280153,0.040000,-862964.257113,80005022.641805,-96971033.324628,-591882514.327467,0.001603,-0.001731,-0.011151
2.180000,1.140000,0.320134,0.040000,-512919.111160,94891238.201348,-86754598.128871,-231824406.539292,0.001742,-0.001680,-0.004368
2.260000,1.100000,0.240227,0.040000,-3515421.760900,1050335325.995492,-1034104031.697554,-1080877945.580358,0.019697,-0.019575,-0.020364
2.300000,1.100000,0.200273,0.040000,-7029755.712737,2038066324.416296,-1988326016.671809,-2668475471.513447,0.038117,-0.037742,-0.050276
2.300000,1.140000,0.200214,0.040000,-1576504.661780,-576248678.567688,525572376.445603,-2944400015.910568,-0.010570,0.010189,-0.055474
2.260000,1.140000,0.240178,0.040000,-1297977.349533,-80341159.177829,63220894.013383,-1296434853.913656,-0.001417,0.001288,-0.024426
2.340000,1.100000,0.160341,0.040000,-13899964.206065,4074265364.227778,-3963429038.399273,-6401012122.011666,0.076135,-0.075300,-0.120599
2.380000,1.100000,0.120454,0.040000,-27509048.840976,8625403440.238295,-8552901139.950641,-15071263874.094324,0.162098,-0.161551,-0.283951
2.380000,1.140000,0.120356,0.040000,3266579.006006,-5801725115.748210,5716004411.803931,-15586793334.253437,-0.108823,0.108177,-0.293664
2.340000,1.140000,0.160267,0.040000,-855578.893660,-2009254080.313189,1884314141.855058,-6728142267.048100,-0.037149,0.036208,-0.126762
2.420000,1.100000,0.080679,0.040000,-55293178.298453,19917863684.919941,-19740807197.908806,-37476047791.552094,0.374263,-0.372929,-0.706070
2.460000,1.100000,0.041342,0.040000,-114804089.226356,39302201697.947350,-32055287932.809616,-64909679174.050140,0.699515,-0.644901,-1.222936
2.460000,1.140000,0.041056,0.040000,54301166.702370,-30669375021.837391,27723232148.709633,-68602626105.420319,-0.561177,0.538974,-1.292513
2.420000,1.140000,0.080533,0.040000,16906957.909264,-15450711401.882465,15717684711.104645,-39271056193.860260,-0.292609,0.294621,-0.739889
2.500000,1.100000,0.010448,0.040000,-340166350.329078,97384430358.110413,-68813766552.000778,-87391199267.608505,1.673293,-1.457978,-1.646501
2.500000,1.140000,0.009254,0.040000,236550847.023580,-79643767786.760147,60759186177.639275,-92765248400.521011,-1.393796,1.251477,-1.747751
-2.500000,1.180000,0.000896,0.040000,180674459.409931,-91086114953.312302,88166600467.825516,113058300784.535858,-1.699614,1.677611,2.130084
-2.500000,1.220000,0.011045,0.040000,666399390.426963,-183318559694.076447,436223256467.627686,-74527712206.013931,-4.883289,6.789238,-1.404145
-2.460000,1.180000,0.040010,0.040000,-71054117.048409,-12913209754.810532,151345892477.634735,36380893688.168808,-1.025738,2.068999,0.685437
-2.420000,1.180000,0.080005,0.040000,-20288074.733356,1945756667.640883,41659891629.500587,-17874208450.968727,-0.209808,0.538430,-0.336760
-2.420000,1.220000,0.080759,0.040000,-104858730.722771,34112991070.345615,38274073306.209465,-27764443847.781952,0.233564,0.311961,-0.523098
-2.460000,1.220000,0.041497,0.040000,-285142551.615512,79471367453.800797,219412311368.406647,-51769825872.999878,-0.192056,2.444513,-0.975374
-2.380000,1.180000,0.120003,0.040000,-2688961.467580,7193777185.477141,-5809771301.137199,-25744071944.446991,0.127712,-0.117282,-0.485033
-2.340000,1.180000,0.160003,0.040000,2002533.026429,2497198834.461576,-2319991220.940261,-10469864103.487720,0.046047,-0.044712,-0.197258
-2.340000,1.220000,0.160381,0.040000,-12820487.972995,9399054580.822512,-8904920287.957973,-3964457371.120603,0.174291,-0.170567,-0.074693
-2.380000,1.220000,0.120507,0.040000,-37533436.395048,23498118459.391640,-18909243879.694778,-8753871204.921068,0.416781,-0.382198,-0.164928
-2.300000,1.180000,0.200002,0.040000,2417859.314309,591853900.040749,-524792094.290490,-4306787041.013001,0.010772,-0.010266,-0.081142
-2.260000,1.180000,0.240002,0.040000,1773311.785601,-1425948.693083,22385711.034850,-1783145419.376477,-0.000145,0.000303,-0.033595
-2.260000,1.220000,0.240254,0.040000,-1001705.179494,1230628803.623571,-1173109942.462583,-952637974.758542,0.022861,-0.022427,-0.017948
-2.300000,1.220000,0.200305,0.040000,-3994819.800286,3444677058.253526,-3259288379.464297,-1922740471.910034,0.063852,-0.062455,-0.036226
-2.220000,1.180000,0.280001,0.040000,1092002.020547,-104361548.398318,92669424.040601,-764272711.210271,-0.001900,0.001812,-0.014399
-2.180000,1.180000,0.320001,0.040000,608011.272534,-101504353.837043,119284846.552654,-268624990.846535,-0.002013,0.002147,-0.005061
-2.180000,1.220000,0.320191,0.040000,124326.069528,120249331.813104,-118619422.417771,-199302144.322383,0.002256,-0.002244,-0.003755
-2.220000,1.220000,0.280218,0.040000,-88583.763077,389449371.104125,-318711715.952685,-466401252.018132,0.006938,-0.006405,-0.008787
2.180000,1.180000,0.320001,0.040000,-88793.753377,-128150175.264938,112900332.798264,-182255265.674013,-0.002328,0.002213,-0.003434
2.220000,1.180000,0.280001,0.040000,106126.085535,-330442441.491606,289939185.112555,-385572553.498573,-0.005997,0.005692,-0.007264
2.220000,1.220000,0.280218,0.040000,615090.478725,-393374812.084517,347035315.127637,20961337.050379,-0.007149,0.006800,0.000395
2.180000,1.220000,0.320191,0.040000,191060.822812,-176251983.100936,169433551.105951,-23725369.018673,-0.003282,0.003231,-0.000447
2.260000,1.180000,0.240002,0.040000,847731.776616,-902356200.054252,865700414.459199,-694178110.292963,-0.016794,0.016517,-0.013079
2.300000,1.180000,0.200002,0.040000,3102845.480802,-2367615838.373753,2255221300.378799,-1336371793.778715,-0.043972,0.043125,-0.025178
2.300000,1.220000,0.200305,0.040000,4345112.992911,-2217652061.556063,2130193091.228473,833281731.675598,-0.041288,0.040628,0.015700
2.260000,1.220000,0.240254,0.040000,1697540.974308,-942395200.607319,914034059.233836,188653018.977404,-0.017595,0.017381,0.003554
2.340000,1.180000,0.160003,0.040000,9338441.907643,-6067151404.251102,5788252051.496696,-2612723395.644749,-0.112732,0.110630,-0.049225
2.380000,1.180000,0.120003,0.040000,25760372.696788,-15316136394.624815,14651018319.695620,-5377683660.550752,-0.284806,0.279793,-0.101319
2.380000,1.220000,0.120507,0.040000,25930310.835677,-13030517872.074263,12590293465.377157,8126158722.703682,-0.243014,0.239697,0.153102
2.340000,1.220000,0.160381,0.040000,10698603.964493,-5296907951.611232,5079116719.120625,2763111890.668861,-0.098566,0.096924,0.052059
2.420000,1.180000,0.080005,0.040000,67854679.984412,-38851066892.764137,39223597653.807152,-11430539913.314226,-0.734082,0.736890,-0.215358
2.460000,1.180000,0.040010,0.040000,173985268.177867,-82115936566.619812,62702589071.439842,-17804988687.240345,-1.437384,1.291081,-0.335456
2.460000,1.220000,0.041497,0.040000,155422666.701710,-68168289113.587799,43687327118.133545,47901758102.048592,-1.145959,0.961465,0.902497
2.420000,1.220000,0.080759,0.040000,62970741.009064,-32597356291.440907,29741047880.434879,25100130931.618633,-0.598009,0.576483,0.472901
2.500000,1.180000,0.000896,0.040000,442640873.516524,-148231858999.367584,70548224271.872177,-22357825968.935951,-2.353693,1.768251,-0.421234
2.500000,1.220000,0.011045,0.040000,454574081.501465,-148319687027.007782,88644184931.393280,67491057147.003967,-2.457133,2.007404,1.271571
-2.500000,1.260000,0.008657,0.040000,-563620421.675041,210105094256.443298,-73258793957.796844,-158254262411.287964,3.185023,-2.153717,-2.981602
-2.500000,1.300000,0.001493,0.040000,-50342836.034730,16354255065.094515,-23395933234.383625,-83243465229.639511,0.347924,-0.400992,-1.568355
-2.460000,1.260000,0.040926,0.040000,-244472427.730673,93791233383.440918,67673225600.900864,-72901645957.461426,0.854456,0.362378,-1.373509
-2.420000,1.260000,0.080467,0.040000,-92606570.120612,43448375148.432098,-2118064273.364440,-4863805777.069803,0.584986,-0.273512,-0.091637
-2.420000,1.300000,0.080014,0.040000,-980317.052945,1462085409.722471,-38553484850.109367,21271254207.461254,0.237194,-0.516723,0.400763
-2.460000,1.300000,0.040028,0.040000,21278726.696740,10316000616.018093,-126147451059.668137,-21339025038.473106,0.849059,-1.721992,-0.402040
-2.380000,1.260000,0.120312,0.040000,-36016466.274739,20291128054.857414,-18872248018.819927,14722150457.685457,0.374277,-0.363584,0.277374
-2.340000,1.260000,0.160234,0.040000,-14129711.262194,7842727472.304658,-7469113977.147474,4793269885.273159,0.145650,-0.142834,0.090308
-2.340000,1.300000,0.160007,0.040000,-4071192.774350,-266822624.109707,157504375.137217,7963975267.626831,-0.004409,0.003585,0.150046
-2.380000,1.300000,0.120009,0.040000,-5123063.468785,-2766297604.342393,2007761493.211572,22838165579.688469,-0.047831,0.042115,0.430284
-2.300000,1.260000,0.200187,0.040000,-5470988.169809,3108850615.783995,-2968999053.213147,1394842111.671502,0.057782,-0.056728,0.026280
-2.260000,1.260000,0.240156,0.040000,-2034089.084357,1257564163.066700,-1213726657.139297,319262756.506251,0.023445,-0.023115,0.006015
-2.260000,1.300000,0.240005,0.040000,-1235870.126709,325390470.618133,-330153591.258889,958496614.530189,0.006157,-0.006193,0.018059
-2.300000,1.300000,0.200006,0.040000,-2412360.750157,334783337.845935,-361762775.875087,2781983279.568860,0.006460,-0.006663,0.052414
-2.220000,1.260000,0.280134,0.040000,-695113.659724,494055870.853991,-429521602.446819,2418847.281362,0.008944,-0.008457,0.000046
-2.180000,1.260000,0.320117,0.040000,-197173.252247,215499309.359718,-205945600.783992,-60348970.100039,0.004006,-0.003934,-0.001137
-2.180000,1.300000,0.320003,0.040000,-234112.378487,128701545.952443,-121040104.196863,93587019.916626,0.002382,-0.002324,0.001763
-2.220000,1.300000,0.280004,0.040000,-568663.980208,219073447.070373,-208914121.540209,340574216.208898,0.004070,-0.003993,0.006417
2.180000,1.260000,0.320117,0.040000,233028.931245,-101771891.193999,105025012.900341,58924849.064975,-0.001936,0.001960,0.001110
2.220000,1.260000,0.280134,0.040000,542361.175687,-180814902.122654,159641935.810108,242756583.549534,-0.003287,0.003127,0.004574
2.220000,1.300000,0.280004,0.040000,172683.364199,56030091.087337,-35470789.407607,232782897.327277,0.000939,-0.000784,0.004386
2.180000,1.300000,0.320003,0.040000,119811.716505,-6443474.955328,5349567.462079,84372148.544446,-0.000115,0.000107,0.001590
2.260000,1.260000,0.240156,0.040000,1163206.790412,-334583630.698434,334722253.417857,689919819.193249,-0.006305,0.006306,0.012998
2.300000,1.260000,0.200187,0.040000,2321318.976229,-510839238.482813,515484977.149963,1909807304.671348,-0.009651,0.009686,0.035982
2.300000,1.300000,0.200006,0.040000,-526271.663369,1156898781.683099,-1074817922.600357,1248284831.614049,0.021333,-0.020714,0.023518
2.260000,1.300000,0.240005,0.040000,104550.098396,322341844.955636,-298635799.529778,537045495.983359,0.005939,-0.005760,0.010118
2.340000,1.260000,0.160234,0.040000,4292969.503850,-616713339.314792,644215685.121265,5178681376.799967,-0.011775,0.011982,0.097569
2.380000,1.260000,0.120312,0.040000,7226842.275335,-235052274.904761,89693052.291086,13989680834.686327,-0.003607,0.002511,0.263574
2.380000,1.300000,0.120009,0.040000,-12196689.348062,11389083639.466887,-10701496928.966635,7090584399.521888,0.210691,-0.205509,0.133591
2.340000,1.300000,0.160007,0.040000,-3157776.881046,3730638955.023057,-3489101342.598928,2919690992.637994,0.068922,-0.067102,0.055009
2.420000,1.260000,0.080467,0.040000,10693406.700369,2207702180.261221,-4540655408.248232,39699494905.632248,0.054781,-0.072362,0.747961
2.460000,1.260000,0.040926,0.040000,13379552.222463,4487434313.934183,-14644434679.699713,71942090656.406769,0.141955,-0.218501,1.355431
2.460000,1.300000,0.040028,0.040000,-126501237.457585,79031862724.615814,-56740939072.162186,27974419118.579739,1.363014,-1.195024,0.527054
2.420000,1.300000,0.080014,0.040000,-40708340.757765,33976597989.085072,-34093611764.121872,17391913281.071625,0.640800,-0.641682,0.327674
2.500000,1.260000,0.008657,0.040000,-82770491.154219,33512838836.345238,-39775265230.113480,98498095082.993317,0.666798,-0.713993,1.855761
2.500000,1.300000,0.001493,0.040000,-375193555.882936,151234208303.482330,-67458693566.104156,35800862611.729836,2.375826,-1.744475,0.674509
-2.500000,1.340000,0.011642,0.040000,-661101708.812180,191005385683.652679,-381964457323.232422,83377435856.992935,4.677986,-6.117098,1.570879
-2.500000,1.380000,0.008060,0.040000,411778830.766112,-101075821398.067810,103000607987.371140,197237003842.173431,-1.915206,1.929712,3.716059
-2.460000,1.340000,0.041660,0.040000,244806971.015323,-75922888586.745972,-194954734866.283661,54554538483.420021,0.100616,-2.142013,1.027839
-2.420000,1.340000,0.080843,0.040000,74874588.870962,-32549891457.729973,-32342305041.808655,23705610675.316025,-0.246477,-0.242566,0.446627
-2.420000,1.380000,0.080405,0.040000,56607436.047046,-31663335583.114124,11545372428.125195,12489790479.144239,-0.482845,0.331232,0.235315
-2.460000,1.380000,0.040804,0.040000,171840272.634464,-56521993326.231018,-19734376778.922394,93172681629.393143,-0.633893,0.059207,1.755427
-2.380000,1.340000,0.120563,0.040000,21936380.031378,-19574456418.458755,14821770444.932383,7264884225.405881,-0.341931,0.306114,0.136875
-2.340000,1.340000,0.160423,0.040000,5881084.019358,-6602300049.709578,6144754594.446125,3108441498.264784,-0.121805,0.118357,0.058565
-2.340000,1.380000,0.160203,0.040000,6731516.529607,-4829876210.850373,4572038132.513720,-3721634437.359287,-0.089540,0.087597,-0.070118
-2.380000,1.380000,0.120270,0.040000,19483744.091143,-13867570460.627392,12647535328.398418,-14125680616.387850,-0.254377,0.245183,-0.266136
-2.300000,1.340000,0.200339,0.040000,1265594.537354,-1977420935.947196,1833326819.356699,1385207017.160431,-0.036441,0.035355,0.026098
-2.260000,1.340000,0.240282,0.040000,91253.983732,-551757522.391057,512569629.299487,610238547.616031,-0.010174,0.009879,0.011497
-2.260000,1.380000,0.240135,0.040000,686038.812592,-619089314.428389,591437916.960858,-121806543.885343,-0.011508,0.011299,-0.002295
-2.300000,1.380000,0.200162,0.040000,2242432.300669,-1724821569.029988,1634217199.363908,-843333989.002564,-0.031985,0.031302,-0.015889
-2.220000,1.340000,0.280242,0.040000,-118006.908133,-133156629.447536,111200475.725641,277730203.372850,-0.002385,0.002219,0.005233
-2.180000,1.340000,0.320212,0.040000,-99333.979262,-25069348.858239,14545621.753281,99679885.320088,-0.000413,0.000334,0.001878
-2.180000,1.380000,0.320101,0.040000,27867.171130,-73576649.999012,69031258.449871,25755522.971335,-0.001361,0.001326,0.000485
-2.220000,1.380000,0.280116,0.040000,176080.749943,-210171401.178508,179018767.057193,12872308.129070,-0.003784,0.003549,0.000243
2.180000,1.340000,0.320212,0.040000,-4083.098501,63158490.508860,-57401006.450780,45284476.852823,0.001157,-0.001114,0.000853
2.220000,1.340000,0.280242,0.040000,-119404.599575,171144130.664050,-146753222.710083,68823847.696836,0.003087,-0.002903,0.001297
2.220000,1.380000,0.280116,0.040000,-168972.415336,103228142.492233,-94458635.088717,-86616990.175031,0.001895,-0.001829,-0.001632
2.180000,1.380000,0.320101,0.040000,-53065.977413,50463990.855510,-47529904.126018,-15107230.336949,0.000934,-0.000912,-0.000285
2.260000,1.340000,0.240282,0.040000,-527443.488428,500728239.781265,-478586581.049014,29463264.895385,0.009309,-0.009142,0.000555
2.300000,1.340000,0.200339,0.040000,-1781830.660381,1392134561.202937,-1319338857.315370,-241312895.477599,0.025817,-0.025269,-0.004546
2.300000,1.380000,0.200162,0.040000,-1047487.820005,316712526.475639,-322356366.420721,-1026047472.363507,0.005999,-0.006041,-0.019331
2.260000,1.380000,0.240135,0.040000,-448871.420668,198812077.293263,-197802807.917843,-301040600.139972,0.003740,-0.003732,-0.005672
2.340000,1.340000,0.160423,0.040000,-5401339.229027,3865645360.147074,-3661179274.430027,-1417436069.456383,0.071675,-0.070134,-0.026705
2.380000,1.340000,0.120563,0.040000,-15609235.602354,11015719101.024416,-10537206039.010656,-5634317232.617562,0.204838,-0.201232,-0.106154
2.380000,1.380000,0.120270,0.040000,-3560750.383362,-918595519.889907,958911869.586376,-10599612738.670937,-0.017535,0.017839,-0.199703
2.340000,1.380000,0.160203,0.040000,-2138226.089427,259005843.129312,-306102013.001054,-3317673294.059394,0.005146,-0.005501,-0.062507
2.420000,1.340000,0.080843,0.040000,-44573492.180683,31728557183.939632,-27696333660.676476,-22288364257.502815,0.574994,-0.544606,-0.419926
2.460000,1.340000,0.041660,0.040000,-129096589.944478,73685813524.022430,-40760533163.276360,-45893751615.210587,1.202184,-0.954051,-0.864665
2.460000,1.380000,0.040804,0.040000,5658537.120546,-14678913668.912258,23343010867.331024,-71208516343.644730,-0.325530,0.390825,-1.341610
2.420000,1.380000,0.080405,0.040000,-3441164.662239,-6556365303.084400,9166265141.326227,-36706216602.471558,-0.138277,0.157946,-0.691566
2.500000,1.340000,0.011642,0.040000,-449012812.843476,172429653971.108948,-95550426704.777374,-66979643055.316956,2.814140,-2.234760,-1.261935
2.500000,1.380000,0.008060,0.040000,147812238.377829,-55648458162.475906,57162702325.161270,-101202151032.643936,-1.057008,1.068420,-1.906707
-2.500000,1.420000,0.002090,0.040000,386236206.283831,-36100589417.874954,236311923375.927887,146959501002.467133,-1.811785,3.320624,2.768802
-2.500000,1.460000,0.012239,0.040000,883060055.643977,-237111549889.061920,444575627540.280762,-82590998585.784088,-5.639942,7.203440,-1.556062
-2.460000,1.420000,0.040055,0.040000,-107582190.684776,40943162226.092384,243071308087.358429,66727263696.564812,-0.833906,2.974305,1.257180
-2.420000,1.420000,0.080027,0.040000,-22252272.937350,9510812808.627565,65050666260.773521,729904518.590287,-0.242245,0.804158,0.013752
-2.420000,1.460000,0.080931,0.040000,-51689183.273065,13334527831.171553,79951000480.324631,-2486189492.181044,-0.276036,0.979057,-0.046841
-2.460000,1.460000,0.041830,0.040000,-201623089.537481,42689088374.315842,324108679497.745239,-41214751357.600235,-1.268918,4.033191,-0.776510
-2.380000,1.420000,0.120018,0.040000,-2633242.405652,7987326392.590161,-5076230669.508858,-15126276171.456161,0.134032,-0.112093,-0.284988
-2.340000,1.420000,0.160014,0.040000,724718.521419,1770430779.750754,-1543878990.772758,-4629351437.794449,0.032075,-0.030368,-0.087220
-2.340000,1.460000,0.160467,0.040000,-3198085.666083,4213753752.111166,-3899229111.742546,142919741.095354,0.077612,-0.075241,0.002693
-2.380000,1.460000,0.120623,0.040000,-13249475.073390,13762487690.929901,-8643743898.066149,3610849105.529740,0.230361,-0.191785,0.068030
-2.300000,1.420000,0.200011,0.040000,754904.342178,164745602.815080,-115940772.505694,-1426043169.733114,0.002828,-0.002460,-0.026867
-2.260000,1.420000,0.240009,0.040000,402270.598927,-90629959.444637,98580158.047064,-426124024.115059,-0.001752,0.001812,-0.008028
-2.260000,1.460000,0.240312,0.040000,-55747.340617,273278368.601768,-251176539.410956,-175697688.206392,0.005024,-0.004857,-0.003310
-2.300000,1.460000,0.200374,0.040000,-639249.099575,1110852707.303938,-1022134414.803595,-265818425.053809,0.020428,-0.019759,-0.005008
-2.220000,1.420000,0.280008,0.040000,170503.189036,-72786537.638931,63923440.148514,-120405832.496960,-0.001321,0.001254,-0.002269
-2.180000,1.420000,0.320007,0.040000,61963.899264,-41714768.270689,42799190.174817,-18578462.889687,-0.000792,0.000800,-0.000350
-2.180000,1.460000,0.320234,0.040000,33629.033985,2324979.424738,-1771494.185251,-26571569.593046,0.000041,-0.000037,-0.000501
-2.220000,1.460000,0.280267,0.040000,38917.713773,49265147.258403,-35408134.175760,-80507887.163123,0.000850,-0.000745,-0.001517
2.180000,1.420000,0.320007,0.040000,-35671.017677,4237013.264168,-7290520.844374,-26525319.168599,0.000097,-0.000120,-0.000500
2.220000,1.420000,0.280008,0.040000,-66485.815957,-19763900.824766,14972780.916552,-91258084.892784,-0.000345,0.000309,-0.001719
2.220000,1.460000,0.280267,0.040000,22972.262825,-55893018.778560,46144071.180308,-15170525.157250,-0.000998,0.000924,-0.000286
2.180000,1.460000,0.320234,0.040000,-4016.066100,-15545833.035146,14276835.977654,-11053780.172972,-0.000286,0.000276,-0.000208
2.260000,1.420000,0.240009,0.040000,-61347.000039,-145735526.738331,131207199.499001,-226669814.227868,-0.002664,0.002554,-0.004271
2.300000,1.420000,0.200011,0.040000,209700.489704,-666947772.660554,608310239.986503,-553891025.391871,-0.012234,0.011792,-0.010436
2.300000,1.460000,0.200374,0.040000,596296.948897,-564488625.872128,533601708.408719,274066400.352745,-0.010461,0.010228,0.005164
2.260000,1.460000,0.240312,0.040000,148689.469605,-188941447.706090,179070912.854503,18655023.685385,-0.003504,0.003430,0.000351
2.340000,1.420000,0.160014,0.040000,1671398.843768,-2608079312.403963,2401306338.999219,-1264948284.652789,-0.047969,0.046411,-0.023832
2.380000,1.420000,0.120018,0.040000,7747198.771866,-9617270608.715702,8921946192.080847,-2768778636.751912,-0.177265,0.172025,-0.052165
2.380000,1.460000,0.120623,0.040000,6180914.226209,-4849654073.654806,4969021438.157966,6624714923.869331,-0.092045,0.092945,0.124813
2.340000,1.460000,0.160467,0.040000,2005876.478981,-1618843362.619964,1540037652.468396,1487710720.426394,-0.030055,0.029461,0.028029
2.420000,1.420000,0.080027,0.040000,30762364.905252,-34904541464.499275,36613171517.793739,-7307619957.457139,-0.667279,0.680156,-0.137680
2.460000,1.420000,0.040055,0.040000,114861486.372518,-89920874926.806625,65909785398.767113,-11407900674.123703,-1.558447,1.377493,-0.214931
2.460000,1.460000,0.041830,0.040000,57221809.208271,-39669271546.100990,36472363244.371002,62157450015.303192,-0.729323,0.705230,1.171082
2.420000,1.460000,0.080931,0.040000,18459223.882883,-16476366356.506054,18159089575.159134,30196727961.630253,-0.319935,0.332617,0.568924
2.500000,1.420000,0.002090,0.040000,424548297.188467,-189554277736.648987,91191595086.156799,-15444842363.182066,-3.015349,2.274066,-0.290990
2.500000,1.460000,0.012239,0.040000,350238995.661703,-129781474160.270020,100870468118.665436,91345919008.938339,-2.281748,2.063868,1.721010
-2.500000,1.500000,0.007463,0.040000,428591222.949053,-128730327966.934418,181119468783.383270,-244824336858.282532,-2.721467,3.116283,-4.612632
-2.500000,1.540000,0.002687,0.040000,-928239919.849424,313344162169.822388,-392348857267.436890,-143082146011.320007,6.350134,-6.945532,-2.695751
-2.460000,1.500000,0.040690,0.040000,29588314.202540,-32510467114.089729,66759926888.961708,-123732013853.307556,-0.806100,1.064212,-2.331183
-2.420000,1.500000,0.080347,0.040000,-641451.858573,-15902102435.362322,25686103341.152245,-30061384306.331043,-0.354906,0.428640,-0.566374
-2.420000,1.540000,0.080045,0.040000,32712745.485795,-9713257389.454222,-44738903648.774223,-23859935640.375416,0.124770,-0.535134,-0.449535
-2.460000,1.540000,0.040090,0.040000,165290524.825993,-25800373813.152775,-208230144692.943695,-81129882594.449982,0.836687,-2.600395,-1.528534
-2.380000,1.500000,0.120232,0.040000,-2890837.648043,-1927235363.869034,2038881856.925014,12166131270.972872,-0.036941,0.037783,0.229217
-2.340000,1.500000,0.160174,0.040000,-1511101.895578,389401130.088868,-436585716.607509,2896726619.762497,0.007603,-0.007959,0.054576
-2.340000,1.540000,0.160023,0.040000,998304.185667,-2313812526.112293,2120885741.146368,573829088.560826,-0.042503,0.041049,0.010811
-2.380000,1.540000,0.120030,0.040000,6255537.220052,-9133414405.455505,4338669887.453037,-414931371.345643,-0.144978,0.108844,-0.007818
-2.300000,1.500000,0.200139,0.040000,-564215.570889,352000525.319665,-344321567.715950,642759128.329601,0.006588,-0.006531,0.012110
-2.260000,1.500000,0.240116,0.040000,-164418.154680,162563183.015859,-156195136.780565,117027737.047170,0.003027,-0.002979,0.002205
-2.260000,1.540000,0.240015,0.040000,-34063.608976,-58081754.082052,49444785.403824,112095704.227957,-0.001045,0.000980,0.002112
-2.300000,1.540000,0.200018,0.040000,68875.912769,-433867721.220576,388597614.838316,309232479.423753,-0.007918,0.007577,0.005826
-2.220000,1.500000,0.280099,0.040000,-30323.831271,56982797.667811,-47581987.197436,6760128.125771,0.001020,-0.000950,0.000127
-2.180000,1.500000,0.320087,0.040000,5091.222153,19698633.333351,-17841281.370909,-8531487.955373,0.000361,-0.000347,-0.000161
-2.180000,1.540000,0.320011,0.040000,-370.077801,7843471.553050,-7345283.625497,6405365.361459,0.000145,-0.000141,0.000121
-2.220000,1.540000,0.280013,0.040000,-16956.820832,5197311.991401,-7274570.500787,34133757.926997,0.000110,-0.000125,0.000643
2.180000,1.500000,0.320087,0.040000,9217.089824,-11323351.048155,11268213.865005,1672169.124133,-0.000213,0.000213,0.000032
2.220000,1.500000,0.280099,0.040000,34763.478310,-21362389.151065,18632839.807243,26800250.042591,-0.000387,0.000366,0.000505
2.220000,1.540000,0.280013,0.040000,10000.061437,9912685.208208,-6561459.761343,18262165.834649,0.000168,-0.000143,0.000344
2.180000,1.540000,0.320011,0.040000,6454.076343,-795766.087262,936298.977407,5443962.577737,-0.000016,0.000017,0.000103
2.260000,1.500000,0.240116,0.040000,95707.832457,-23398290.350051,26394964.496397,113762136.615371,-0.000458,0.000480,0.002143
2.300000,1.500000,0.200139,0.040000,182652.451324,103982715.520725,-82329157.602089,415692290.310960,0.001837,-0.001674,0.007832
2.300000,1.540000,0.200018,0.040000,-149911.945082,300572285.782415,-275473293.831680,13122730.325299,0.005521,-0.005332,0.000247
2.260000,1.540000,0.240015,0.040000,-7836.555641,68595326.578447,-62186546.144387,37118638.733782,0.001256,-0.001208,0.000699
2.340000,1.500000,0.160174,0.040000,39266.837567,954385537.356132,-841940513.352310,1398236802.243049,0.017346,-0.016498,0.026344
2.380000,1.500000,0.120232,0.040000,-1939441.994209,5373614955.217371,-5002811121.882827,4626085176.706953,0.099146,-0.096352,0.087158
2.380000,1.540000,0.120030,0.040000,-3568278.572112,4423952965.513333,-4344238633.707944,-3271159788.025055,0.082899,-0.082299,-0.061631
2.340000,1.540000,0.160023,0.040000,-827402.654221,1164105338.278234,-1084717081.258116,-415780544.398966,0.021484,-0.020885,-0.007834
2.420000,1.500000,0.080347,0.040000,-13770471.018954,24495145050.783112,-20179259601.897259,21647053563.964333,0.437109,-0.404583,0.407843
2.460000,1.500000,0.040690,0.040000,-72195167.438094,71341393836.821823,-32053879808.105343,44352712964.332108,1.122053,-0.825974,0.835631
2.460000,1.540000,0.040090,0.040000,-56976251.339389,44732345619.251045,-49017813014.767838,-21915749718.353809,0.867006,-0.899302,-0.412905
2.420000,1.540000,0.080045,0.040000,-14124826.319392,17788361905.963036,-23280664081.868195,-15219235246.482134,0.366186,-0.407578,-0.286739
2.500000,1.500000,0.007463,0.040000,-410147827.257301,194390007742.053223,-107086255468.931503,68041777259.521072,3.168964,-2.511023,1.281947
2.500000,1.540000,0.002687,0.040000,-310440303.327693,115859433072.916840,-93022737957.173477,-27415827387.486481,2.053782,-1.881679,-0.516530
-2.500000,1.580000,0.012836,0.040000,-180992063.455032,-72627002471.671112,-160880622966.964935,-22946182185.782589,-0.048509,-1.711258,-0.432319
-2.500000,1.620000,0.006866,0.040000,-472700894.915670,-8537131945.224772,-270851652725.072052,-37670305491.385933,1.418309,-3.523848,-0.709730
-2.460000,1.580000,0.042009,0.040000,-45500640.131724,6582936350.132334,-165615229427.416260,-20044701646.961426,1.022905,-2.221409,-0.377654
-2.420000,1.580000,0.081023,0.040000,-1760074.683826,14996144330.849152,-60718200536.643517,-7483889821.731386,0.540965,-0.885537,-0.141001
-2.420000,1.620000,0.080294,0.040000,-15702282.084358,24651633010.883766,-69929335662.447327,-12204272331.206577,0.720369,-1.061592,-0.229936
-2.460000,1.620000,0.040585,0.040000,-95403427.881509,17789646165.379459,-178117043779.169037,-21717824947.897697,1.241366,-2.449630,-0.409176
-2.380000,1.580000,0.120685,0.040000,1436442.620745,1330245776.384003,-818151354.134883,-7127297393.769742,0.022168,-0.018309,-0.134282
-2.340000,1.580000,0.160514,0.040000,662949.701268,-306396111.577789,292095205.540288,-1331415686.625985,-0.005692,0.005584,-0.025085
-2.340000,1.620000,0.160147,0.040000,-290771.335027,992455536.784973,-918431953.206062,-164987926.127855,0.018280,-0.017722,-0.003108
-2.380000,1.620000,0.120196,0.040000,-2501523.882421,5569721895.596202,-5171058870.094504,1377314139.677198,0.102683,-0.099679,0.025949
-2.300000,1.580000,0.200411,0.040000,192259.741619,-203469238.577248,186816084.664573,-204291493.476319,-0.003739,0.003614,-0.003849
-2.260000,1.580000,0.240343,0.040000,41754.595959,-69339441.220954,63369426.562957,-12508453.765128,-0.001273,0.001228,-0.000236
-2.260000,1.620000,0.240098,0.040000,23028.586211,7762532.394836,-5567237.351461,-34172968.234274,0.000134,-0.000117,-0.000644
-2.300000,1.620000,0.200118,0.040000,10237.746213,141391548.773988,-124541569.790440,-115623593.893331,0.002569,-0.002442,-0.002178
-2.220000,1.580000,0.280294,0.040000,8359.804791,-16765767.854133,13160122.101257,8906073.152039,-0.000295,0.000268,0.000168
-2.180000,1.580000,0.320257,0.040000,5029.776518,-3225874.285467,2274258.669469,4455524.778220,-0.000055,0.000048,0.000084
-2.180000,1.620000,0.320074,0.040000,8312.788313,-2587404.638606,2295296.959078,-260701.179251,-0.000047,0.000045,-0.000005
-2.220000,1.620000,0.280084,0.040000,12699.034181,-4896756.820110,4607243.856445,-7014931.469690,-0.000091,0.000088,-0.000132
2.180000,1.580000,0.320257,0.040000,1674.812005,3303319.297653,-2861417.524877,1896584.038203,0.000060,-0.000056,0.000036
2.220000,1.580000,0.280294,0.040000,-3493.133461,10452819.557307,-8532506.302118,-1371804.196850,0.000186,-0.000172,-0.000026
2.220000,1.620000,0.280084,0.040000,-1732.982524,262530.007485,-820941.316317,-5478477.354869,0.000008,-0.000012,-0.000103
2.180000,1.620000,0.320074,0.040000,465.578977,1225468.515179,-1188759.371376,-964934.665146,0.000023,-0.000023,-0.000018
2.260000,1.580000,0.240343,0.040000,-26455.828908,26623913.918923,-25594159.859201,-28859212.463873,0.000496,-0.000488,-0.000544
2.300000,1.580000,0.200411,0.040000,-89228.129372,15341233.890632,-18020692.341031,-164260371.847850,0.000304,-0.000324,-0.003095
2.300000,1.620000,0.200118,0.040000,26888.412596,-100940441.345427,88659639.964124,-22661392.571552,-0.001832,0.001740,-0.000427
2.260000,1.620000,0.240098,0.040000,-2648.130536,-15287720.703802,12813673.667418,-16607400.861808,-0.000274,0.000255,-0.000313
2.340000,1.580000,0.160514,0.040000,-145454.125453,-340021497.474963,301539492.458514,-725726534.558328,-0.006189,0.005899,-0.013673
2.380000,1.580000,0.120685,0.040000,560361.562456,-2910577072.029434,2250037830.479915,-2879043492.257837,-0.051103,0.046125,-0.054243
2.380000,1.620000,0.120196,0.040000,1294762.840840,-1690901390.737810,1283769934.679630,1942680350.365907,-0.029556,0.026488,0.036601
2.340000,1.620000,0.160147,0.040000,242349.495194,-473405234.590796,429028193.493636,160284543.788141,-0.008668,0.008334,0.003020
2.420000,1.580000,0.081023,0.040000,7600576.730507,-15082900752.965118,-3481495356.545361,-9491203556.147041,-0.179241,0.039336,-0.178820
2.460000,1.580000,0.042009,0.040000,55727368.915730,-64403533452.749474,-35062054080.325111,-14147847627.417412,-0.651203,-0.098393,-0.266554
2.460000,1.620000,0.040585,0.040000,21401124.733880,-17105470349.305944,-44554293914.297417,24000423524.796749,0.026235,-0.490917,0.452182
2.420000,1.620000,0.080294,0.040000,5527418.452620,-3113415047.577617,-11671943647.829863,14070957204.775606,0.024911,-0.136337,0.265105
2.500000,1.580000,0.012836,0.040000,190868264.141066,-160540185512.411346,8983143052.599669,-17525452181.242146,-2.168043,1.025874,-0.330190
2.500000,1.620000,0.006866,0.040000,-27274586.399052,-35801428093.343941,-46786747379.692253,37074316161.868835,-0.207717,-0.414687,0.698502
-2.500000,1.660000,0.003284,0.040000,-961361846.690988,314651552951.662231,-374825821785.433472,92292552863.485779,6.268333,-6.721820,1.738845
-2.500000,1.700000,0.013433,0.040000,-263800545.808360,93966655438.444962,-103447580406.223236,264996301136.886688,1.823974,-1.895425,4.992684
-2.460000,1.660000,0.040135,0.040000,90233206.900233,22240325104.630314,-277905490666.134155,54309508008.317749,1.864085,-3.790837,1.023223
-2.420000,1.660000,0.080067,0.040000,7658135.317664,16780023605.015301,-77935327153.731903,16860232978.147940,0.661806,-1.122686,0.317657
-2.420000,1.700000,0.081120,0.040000,244934.933160,3559761645.875690,-9525926392.211273,52161651801.134254,0.100790,-0.145752,0.982756
-2.460000,1.700000,0.042195,0.040000,-33659107.836866,23275896301.775639,-15874846369.388107,150831474392.899780,0.396699,-0.340923,2.841752
-2.380000,1.660000,0.120045,0.040000,244643.814265,-825373821.144019,-2791356803.556296,2416573860.393028,0.004892,-0.032148,0.045530
-2.340000,1.660000,0.160034,0.040000,-107838.341443,-137639403.529279,199167287.683768,448001768.559192,-0.002941,0.003405,0.008441
-2.340000,1.700000,0.160563,0.040000,77671.106049,-173545096.712277,72617087.551882,-59867244.481842,-0.002699,0.001939,-0.001128
-2.380000,1.700000,0.120749,0.040000,448197.405056,-419196272.999804,296881018.528923,-1063530545.510307,-0.007207,0.006285,-0.020038
-2.300000,1.660000,0.200027,0.040000,-26792.764275,41384046.448333,-29369688.094883,57493401.513081,0.000712,-0.000621,0.001083
-2.260000,1.660000,0.240022,0.040000,4145.983332,15772986.195708,-12893965.510199,116883.794894,0.000281,-0.000259,0.000002
-2.260000,1.700000,0.240376,0.040000,6050.958368,-1397932.692567,440859.530391,6012166.552216,-0.000021,0.000014,0.000113
-2.300000,1.700000,0.200451,0.040000,9422.543843,-31797028.825289,20458148.712297,18187632.726781,-0.000535,0.000450,0.000343
-2.220000,1.660000,0.280019,0.040000,8842.707767,2699321.307452,-1903157.633692,-2869814.782380,0.000046,-0.000040,-0.000054
-2.180000,1.660000,0.320017,0.040000,8319.775041,-26962.793939,166850.458621,-607494.209682,-0.000001,0.000002,-0.000011
-2.180000,1.700000,0.300053,0.040000,7866.597479,920655.201504,-1025877.361581,662940.652210,0.000018,-0.000019,0.000012
-2.220000,1.700000,0.280322,0.040000,7760.400871,1184138.553317,-982637.738546,623980.001224,0.000021,-0.000020,0.000012
2.180000,1.660000,0.320017,0.040000,952.853737,-246158.987842,32562.231925,-761130.548145,-0.000003,0.000002,-0.000014
2.220000,1.660000,0.280019,0.040000,1552.991013,-2071244.888722,1527351.888357,-799081.847642,-0.000036,0.000032,-0.000015
2.220000,1.700000,0.280322,0.040000,2184.185887,-195082.616390,297160.725042,1136682.299244,-0.000004,0.000005,0.000021
2.180000,1.700000,0.300053,0.040000,1491.384299,557188.973719,-735402.153883,-326111.484269,0.000012,-0.000013,-0.000006
2.260000,1.660000,0.240022,0.040000,5799.695628,-7397184.155261,6485342.017612,4852066.183829,-0.000134,0.000127,0.000091
2.300000,1.660000,0.200027,0.040000,20705.551357,-838533.158474,-514949.875340,44274294.335600,-0.000008,-0.000002,0.000834
2.300000,1.700000,0.200451,0.040000,-1891.188768,19681217.032958,-13202703.466783,2185307.199439,0.000334,-0.000285,0.000041
2.260000,1.700000,0.240376,0.040000,2756.208291,2385033.396269,-1455338.987870,3373644.197154,0.000040,-0.000033,0.000064
2.340000,1.660000,0.160034,0.040000,20599.050894,197468612.011660,-199392001.077620,218734565.058730,0.003731,-0.003746,0.004121
2.380000,1.660000,0.120045,0.040000,-426109.366789,2121183202.391258,-2427967244.762729,692279164.451599,0.041698,-0.044010,0.013043
2.380000,1.700000,0.120749,0.040000,-147740.414364,-86834685.012775,-191988771.713182,-770018830.653782,-0.000060,-0.002041,-0.014508
2.340000,1.700000,0.160563,0.040000,-41296.236989,56611603.952652,-11165827.640132,-80536703.847577,0.000810,-0.000467,-0.001517
2.420000,1.660000,0.080067,0.040000,-5100627.517837,13581123620.549561,-25247724681.052799,3328511459.004676,0.321818,-0.409740,0.062711
2.460000,1.660000,0.040135,0.040000,-45140931.422144,29313469172.706604,-61446477127.255959,16190200305.510502,0.733904,-0.976066,0.305033
2.460000,1.700000,0.042195,0.040000,24676730.127995,-11303431027.496073,-89851741820.773224,-8043024560.232918,0.358783,-1.121112,-0.151535
2.420000,1.700000,0.081120,0.040000,933042.104947,2095570987.447581,-26961408858.993793,-2147447872.101289,0.180028,-0.367423,-0.040459
2.500000,1.660000,0.003284,0.040000,-456392389.575938,126543795973.794876,-189672981030.960815,25219702393.601040,2.740976,-3.216732,0.475154
2.500000,1.700000,0.013433,0.040000,86663073.654152,-72069793313.572998,8956116740.117624,-11661457009.392862,-1.001107,0.525468,-0.219709
-2.500000,1.740000,0.006269,0.040000,1090693854.006156,-414532111539.858337,387928950363.262878,129040985593.005386,-7.659660,7.459172,2.431207
-2.500000,1.780000,0.003881,0.040000,550155915.254589,-136276873986.018753,243449426438.239960,-108392056813.181305,-3.173293,3.980970,-2.042169
-2.460000,1.740000,0.040488,0.040000,11818936.195803,-76728065405.139954,203512866590.294006,72326465430.708954,-2.162211,3.117691,1.362673
-2.420000,1.740000,0.080245,0.040000,-1389280.670983,-24062383667.381401,68293337410.421867,22700225088.737885,-0.703350,1.036685,0.427685
-2.420000,1.780000,0.080094,0.040000,575010.381426,-16480779921.127470,61568093505.816757,-26600718026.782425,-0.565349,0.905137,-0.501173
-2.460000,1.780000,0.040188,0.040000,-6635698.196368,-22196836677.639259,192799274756.853119,-63608818810.547638,-1.382476,2.668175,-1.198427
-2.380000,1.740000,0.120164,0.040000,-182674.563182,-721060143.076340,3463879237.998137,-100210512.791869,-0.029088,0.049759,-0.001888
-2.340000,1.740000,0.160123,0.040000,6335.101127,52356231.326889,13142485.827452,-65216659.909804,0.000616,-0.000123,-0.001229
-2.340000,1.780000,0.160047,0.040000,4364.059927,17901378.261501,-42243025.947294,24441743.831327,0.000475,-0.000658,0.000460
-2.380000,1.780000,0.120063,0.040000,37246.340220,-753599748.097796,1968156930.398502,-14174220.808928,-0.021063,0.030216,-0.000267
-2.300000,1.740000,0.200098,0.040000,11395.830846,-1089796.933265,1919273.951926,-11137915.292188,-0.000025,0.000031,-0.000210
-2.260000,1.740000,0.240082,0.040000,8483.091896,-2175611.573584,1651959.637274,-109164.563154,-0.000038,0.000034,-0.000002
-2.260000,1.780000,0.220477,0.040000,7989.456370,-556896.648128,-38941.948656,1569346.570744,-0.000007,0.000003,0.000030
-2.300000,1.780000,0.200038,0.040000,8099.040162,3903480.518555,-2242046.950246,-119154.772162,0.000064,-0.000052,-0.000002
-2.220000,1.740000,0.260038,0.040000,8547.356557,-325848.642900,613439.605063,-946001.303482,-0.000008,0.000010,-0.000018
-2.180000,1.740000,0.260061,0.040000,9115.865015,3509220.957269,-3872997.423583,-382363.378926,0.000068,-0.000071,-0.000007
-2.180000,1.780000,0.220072,0.040000,15958.807037,2610083.616635,-3862865.256732,-17800679.453326,0.000056,-0.000066,-0.000335
-2.220000,1.780000,0.220045,0.040000,7912.577645,-3742439.016179,6811039.941423,-2085133.222265,-0.000088,0.000111,-0.000039
-2.140000,1.740000,0.260390,0.040000,4379.631181,2743312.048116,-4720954.056953,8901925.223678,0.000063,-0.000078,0.000168
-2.100000,1.740000,0.260034,0.040000,-3215.284254,-18693290.761508,18890006.731175,6427797.463523,-0.000353,0.000355,0.000121
-2.100000,1.780000,0.220040,0.040000,-43568.671953,-17597994.900018,24902835.574594,85860682.379347,-0.000373,0.000428,0.001618
-2.140000,1.780000,0.220461,0.040000,12352.779558,31465622.951258,-43607413.910134,17420169.136920,0.000661,-0.000753,0.000328
-2.060000,1.740000,0.260066,0.040000,17268.675133,-29535357.871140,33788169.861526,-26676268.538381,-0.000581,0.000613,-0.000503
-2.020000,1.740000,0.260377,0.040000,72183.200739,42766322.953253,-37501479.438561,-52225408.554387,0.000776,-0.000736,-0.000984
-2.020000,1.780000,0.220446,0.040000,181910.704963,3058790.298771,950011.252448,-295543039.865242,0.000035,-0.000005,-0.005568
-2.060000,1.780000,0.220078,0.040000,-41473.163354,-136984811.346021,172426016.461883,-41158142.157319,-0.002781,0.003048,-0.000775
-1.980000,1.740000,0.260030,0.040000,58260.024331,131990665.941081,-144393991.350174,20586845.926660,0.002557,-0.002650,0.000388
-1.940000,1.740000,0.260072,0.040000,-129083.091697,35567629.929422,-59411727.591532,184829540.403907,0.000805,-0.000985,0.003482
-1.940000,1.780000,0.220085,0.040000,-120418.399156,294412331.159685,-358593796.750239,600623370.316514,0.005910,-0.006393,0.011316
-1.980000,1.780000,0.220035,0.040000,342355.361783,383495483.436116,-451975726.394767,-99552276.225792,0.007612,-0.008128,-0.001876
-1.900000,1.740000,0.260365,0.040000,-336627.770816,-263171491.761781,283786809.139614,159467076.074574,-0.005075,0.005230,0.003004
-1.860000,1.740000,0.260027,0.040000,-178763.707793,-390425277.199568,425819419.132972,-218438635.368242,-0.007556,0.007823,-0.004116
-1.860000,1.780000,0.220031,0.040000,-1028802.029037,-1003181259.151311,1177953967.682691,-292339875.097936,-0.019888,0.021205,-0.005508
-1.900000,1.780000,0.220431,0.040000,-990133.924797,-532095869.377453,574733464.644384,747148200.248630,-0.010266,0.010587,0.014077
-1.820000,1.740000,0.260077,0.040000,493091.839741,-29827069.741131,23368618.067799,-485889587.710047,-0.000525,0.000477,-0.009154
-1.780000,1.740000,0.260352,0.040000,1190902.565079,573538717.901560,-560400002.224947,-348908541.588706,0.010732,-0.010633,-0.006574
-1.780000,1.780000,0.220416,0.040000,2838325.287856,952030091.957065,-1099767174.924916,-1438474249.058300,0.018772,-0.019885,-0.027102
-1.820000,1.780000,0.220092,0.040000,592505.587859,-305945410.049416,440456366.245086,-1432515683.492728,-0.006524,0.007538,-0.026989
-1.740000,1.740000,0.260023,0.040000,1049460.541179,910824519.641849,-951366596.670680,140205410.364867,0.017390,-0.017695,0.002642
-1.700000,1.740000,0.260083,0.040000,-362556.969118,516645938.023743,-597911571.810285,968419333.752075,0.010193,-0.010806,0.018246
-1.700000,1.780000,0.220099,0.040000,525183.812087,1389948265.870590,-1578670193.173599,2271969780.991322,0.027254,-0.028676,0.042805
-1.740000,1.780000,0.220027,0.040000,3321811.703189,1951983513.363505,-2238853797.759626,26046459.299269,0.038398,-0.040560,0.000491
-1.660000,1.740000,0.260340,0.040000,-2424358.602500,-577919353.832875,632019678.458792,1128828139.441968,-0.011194,0.011602,0.021268
-1.620000,1.740000,0.260020,0.040000,-3665951.395538,-1507424741.424060,1513168911.053832,356691895.413755,-0.028433,0.028477,0.006720
-1.620000,1.780000,0.220024,0.040000,-8157562.936141,-2614541978.365399,2965054119.665327,1527039383.997635,-0.051241,0.053882,0.028770
-1.660000,1.780000,0.220401,0.040000,-4428327.932656,-880541004.311098,867552363.744787,3016516235.698900,-0.016516,0.016419,0.056833
-1.580000,1.740000,0.260090,0.040000,-2721316.882882,-1691265097.228433,1726343402.133815,-570732329.821846,-0.032063,0.032327,-0.010753
-1.540000,1.740000,0.260327,0.040000,643109.193592,-871016904.956977,982729777.649679,-1821639147.834836,-0.017042,0.017884,-0.034321
-1.540000,1.780000,0.220387,0.040000,-968484.808207,-1955113231.775995,2153235874.365638,-3881003526.799623,-0.037955,0.039448,-0.073120
-1.580000,1.780000,0.220106,0.040000,-7304150.116060,-3195326663.462475,3624320539.853569,-1026794665.760177,-0.062627,0.065860,-0.019345
-1.500000,1.740000,0.260017,0.040000,5143454.862522,809735194.351162,-894819825.268661,-2036811239.987673,0.015737,-0.016378,-0.038375
-1.460000,1.740000,0.260096,0.040000,8499657.735778,2219881173.787539,-2193236888.068974,-1070228933.881513,0.041673,-0.041472,-0.020164
-1.460000,1.780000,0.220113,0.040000,16099071.387040,3485836195.243889,-3903214151.963002,-2914806527.567860,0.068034,-0.071180,-0.054917
-1.500000,1.780000,0.220020,0.040000,8391509.531427,1206883552.133821,-1188587342.883825,-4635788600.599549,0.022635,-0.022497,-0.087341
-1.420000,1.740000,0.260316,0.040000,8560514.703330,2892968401.205372,-2946089379.857425,127566686.488775,0.054805,-0.055206,0.002403
-1.380000,1.740000,0.260015,0.040000,4418092.346042,2346394930.377508,-2460588304.611294,2142685072.212676,0.044853,-0.045713,0.040369
-1.380000,1.780000,0.220017,0.040000,11016820.395220,4103078118.804512,-4480519015.053228,3887037589.662722,0.079438,-0.082282,0.073234
-1.420000,1.780000,0.220373,0.040000,17653636.581898,4845748789.149409,-5353309217.477218,2265833.796082,0.094166,-0.097991,0.000043
-1.340000,1.740000,0.260103,0.040000,-3040877.737502,560874359.235911,-474109642.135138,2960936169.046225,0.010077,-0.009423,0.055786
-1.300000,1.740000,0.260304,0.040000,-11375101.446107,-1415790064.548162,1308298241.786945,2920130480.671461,-0.026067,0.025257,0.055017
-1.300000,1.780000,0.220359,0.040000,-17878355.298599,-1837932784.177198,2090445455.208243,5989706839.459881,-0.036055,0.037958,0.112850
-1.340000,1.780000,0.220121,0.040000,-2323012.712458,1036471318.918285,-1297321668.818648,5914333676.095682,0.021002,-0.022968,0.111429
-1.260000,1.740000,0.260012,0.040000,-17475011.516146,-3344154308.362568,3450748581.097428,2051635180.902531,-0.063608,0.064412,0.038654
-1.220000,1.740000,0.260109,0.040000,-18702670.379120,-4123721754.920738,4154522585.836948,-298051397.289572,-0.077867,0.078100,-0.005615
-1.220000,1.780000,0.220129,0.040000,-33526131.267504,-6288348957.737678,6860793679.897400,52349985.141002,-0.121712,0.126026,0.000986
-1.260000,1.780000,0.220014,0.040000,-29901756.292915,-5154449415.861794,5528011862.618854,4087051376.890413,-0.099224,0.102040,0.077002
-1.180000,1.740000,0.260292,0.040000,-13844788.429249,-3643476736.212960,3620009616.765168,-1870978964.373564,-0.068513,0.068336,-0.035250
-1.140000,1.740000,0.260010,0.040000,-3562109.196056,-2168134551.230268,2306716941.814530,-3815290988.575799,-0.041632,0.042677,-0.071882
-1.140000,1.780000,0.220012,0.040000,-9811415.420806,-3543637224.050100,3759033429.829206,-6689566835.189664,-0.067982,0.069605,-0.126035
-1.180000,1.780000,0.220346,0.040000,-26476383.891670,-5548205173.859042,6107075231.196095,-3393435636.553857,-0.107690,0.111902,-0.063934
-1.100000,1.740000,0.260117,0.040000,9770620.145733,319848451.045969,-453147707.073074,-4293620429.524437,0.006780,-0.007784,-0.080894
-1.060000,1.740000,0.260281,0.040000,22733286.640174,2511414033.412195,-2399145067.685856,-3649752580.845124,0.046682,-0.045836,-0.068763
-1.060000,1.780000,0.220332,0.040000,34460133.960231,3381254943.890060,-3748860195.561718,-6725956670.641224,0.065783,-0.068553,-0.126721
-1.100000,1.780000,0.220138,0.040000,12432360.390316,449891043.491888,-324974379.115509,-7728326176.999857,0.007770,-0.006829,-0.145606
-1.020000,1.740000,0.260008,0.040000,31799304.698486,4476326730.290998,-4575435797.291717,-2503292277.496830,0.084897,-0.085644,-0.047163
-0.980000,1.740000,0.260124,0.040000,34263170.787533,5227722289.236515,-5239974176.191433,170488170.910805,0.098563,-0.098655,0.003212
-0.980000,1.780000,0.220146,0.040000,55602405.290403,7465829701.766934,-8050437298.301655,-177080001.214974,0.143965,-0.148371,-0.003336
-1.020000,1.780000,0.220009,0.040000,50349581.606883,6484639974.762550,-6909191033.322155,-4376546921.004693,0.124574,-0.127774,-0.082457
-0.940000,1.740000,0.260270,0.040000,28916765.989672,4812774565.953101,-4777984441.029244,1872969956.634545,0.090479,-0.090217,0.035288
-0.900000,1.740000,0.260006,0.040000,16330694.997406,3462061963.670289,-3586358252.991622,4191975007.805704,0.065930,-0.066867,0.078979
-0.900000,1.780000,0.220007,0.040000,29138784.613400,5081537708.385519,-5367635737.859691,6793498347.481205,0.097356,-0.099512,0.127993
-0.940000,1.780000,0.220319,0.040000,48226503.340044,6825719394.446212,-7399478948.762977,3236155026.642628,0.131843,-0.136167,0.060971
-0.860000,1.740000,0.260131,0.040000,-1288861.588965,1037003424.682500,-899596490.338173,4988884665.330338,0.018761,-0.017726,0.093993
-0.820000,1.740000,0.260259,0.040000,-20596480.311032,-1267494863.376001,1126452866.151530,5050842177.051239,-0.023083,0.022020,0.095161
-0.820000,1.780000,0.220306,0.040000,-28263193.274550,-1524987483.463855,1751000098.879655,8423483189.009639,-0.030009,0.031712,0.158703
-0.860000,1.780000,0.220155,0.040000,1873073.280882,1390809655.746772,-1636270469.385676,8344610354.065162,0.027591,-0.029441,0.157217
-0.780000,1.740000,0.260005,0.040000,-37818317.194335,-3759146070.751193,3884528244.749946,4338716715.085011,-0.071533,0.072478,0.081744
-0.740000,1.740000,0.260139,0.040000,-49512222.057088,-5251897362.122982,5192178530.571503,2137612577.622883,-0.098611,0.098161,0.040274
-0.740000,1.780000,0.220164,0.040000,-74017708.797966,-7101952246.458014,7647442972.987706,3774954362.673597,-0.136888,0.140999,0.071122
-0.780000,1.780000,0.220006,0.040000,-55343192.745896,-5253225711.175914,5505164513.330793,7033490523.182281,-0.100398,0.102296,0.132515
-0.700000,1.740000,0.260249,0.040000,-53223244.493753,-5996567397.526628,6014986982.480585,482343886.811710,-0.113083,0.113222,0.009088
-0.660000,1.740000,0.260003,0.040000,-47919788.704371,-5663318632.813271,5721028251.706578,-2374526115.739266,-0.107026,0.107461,-0.044737
-0.660000,1.780000,0.220004,0.040000,-73293518.476749,-7753674544.086777,8227766512.108430,-3503431528.963336,-0.148763,0.152336,-0.066007
-0.700000,1.780000,0.220294,0.040000,-80517443.220785,-8184890921.498493,8730456831.066696,633775996.924003,-0.157292,0.161403,0.011941
-0.620000,1.740000,0.260147,0.040000,-34149821.078713,-4215761773.064950,4117500352.613563,-3815544205.588853,-0.078872,0.078131,-0.071887
-0.580000,1.740000,0.260238,0.040000,-13913069.137060,-2352057477.773823,2487697823.805543,-5425671388.861966,-0.045081,0.046103,-0.102223
-0.580000,1.780000,0.220282,0.040000,-23348984.086457,-3325743722.184438,3427770791.206061,-8452423980.610899,-0.063236,0.064005,-0.159249
-0.620000,1.780000,0.220174,0.040000,-53217449.250166,-5613091173.243585,6077262192.436917,-6178266626.086200,-0.108377,0.111876,-0.116402
-0.540000,1.740000,0.260002,0.040000,9706085.219681,280245381.167438,-426183069.257286,-5742721104.301477,0.006105,-0.007205,-0.108196
-0.500000,1.740000,0.260155,0.040000,33065929.499519,2451939875.827633,-2320623941.631010,-5148837471.613476,0.045454,-0.044464,-0.097007
-0.500000,1.780000,0.220183,0.040000,46317730.301835,3125906810.399766,-3437421597.465415,-8135188182.587332,0.060655,-0.063002,-0.153272
-0.540000,1.780000,0.220003,0.040000,11648439.233295,501247361.270642,-401959892.644881,-9008471463.931263,0.008883,-0.008134,-0.169725
-0.460000,1.740000,0.260228,0.040000,52558764.587510,4628720139.778056,-4729641781.689287,-4198116636.574542,0.087778,-0.088539,-0.079095
-0.420000,1.740000,0.260001,0.040000,65169919.328329,5813491187.770780,-5760490598.164511,-1832845099.706131,0.109230,-0.108831,-0.034532
-0.420000,1.780000,0.220002,0.040000,94141270.737921,7656100816.515475,-8178487115.495261,-3048415454.712085,0.147198,-0.151135,-0.057434
-0.460000,1.780000,0.220270,0.040000,75296500.169499,6248889120.559124,-6553501445.865540,-6376152711.253825,0.119454,-0.121750,-0.120130
-0.380000,1.740000,0.260163,0.040000,68922167.708114,6294116837.143297,-6292148704.612999,-217030549.265865,0.118574,-0.118559,-0.004089
-0.340000,1.740000,0.260218,0.040000,63147421.664301,5863756558.968346,-5915726069.374998,2511960295.898532,0.110770,-0.111162,0.047327
-0.340000,1.780000,0.220258,0.040000,91841093.715182,7787766269.495294,-8219348652.017871,3661212699.631025,0.149165,-0.152418,0.068979
-0.380000,1.780000,0.220193,0.040000,99969730.422383,8320642863.262197,-8836454692.317423,-118949991.093944,0.159681,-0.163568,-0.002241
-0.300000,1.740000,0.260001,0.040000,48557037.281811,4446182101.094475,-4346701939.698085,3867197982.496745,0.083206,-0.082457,0.072860
-0.260000,1.740000,0.260172,0.040000,27112274.761449,2701472074.503951,-2827929245.059712,5450200430.380197,0.051612,-0.052565,0.102685
-0.260000,1.780000,0.220203,0.040000,39862134.070617,3662420313.175475,-3774492171.663167,8239651806.382842,0.069636,-0.070480,0.155240
-0.300000,1.780000,0.220001,0.040000,70838635.401429,5748202535.850248,-6183753237.341672,6083101591.513506,0.110761,-0.114044,0.114609
-0.220000,1.740000,0.260209,0.040000,1723463.656829,220255222.757976,-81708973.611392,5823495825.715999,0.003367,-0.002323,0.109718
-0.180000,1.740000,0.260000,0.040000,-24172707.585687,-1860694628.118663,1727621231.790714,5453314596.784989,-0.034304,0.033302,0.102744
-0.180000,1.780000,0.220000,0.040000,-34213227.895202,-2330936445.328780,2584250427.689777,8346840946.361670,-0.045348,0.047257,0.157259
-0.220000,1.780000,0.220247,0.040000,3175930.985231,134619168.825723,-262014295.290217,8884118173.969498,0.003256,-0.004216,0.167382
-0.140000,1.740000,0.260181,0.040000,-47095464.309818,-4060866044.149412,4163123240.838185,4681512563.518023,-0.077087,0.077858,0.088202
-0.100000,1.740000,0.260199,0.040000,-63995255.338535,-5379652328.039535,5308878958.015679,2610771001.931156,-0.100956,0.100422,0.049188
-0.100000,1.780000,0.220235,0.040000,-91553908.273267,-6987036580.450345,7461733701.809082,4103330482.361051,-0.134323,0.137900,0.077309
-0.140000,1.780000,0.220214,0.040000,-67257627.937760,-5436971496.935754,5672676282.994759,6953321424.191030,-0.103768,0.105544,0.131005
-0.060000,1.740000,0.260000,0.040000,-72659746.720387,-6164205421.749179,6178055636.842924,1128927308.579785,-0.116215,0.116320,0.021270
-0.020000,1.740000,0.260190,0.040000,-71999572.993542,-6061485589.657689,6088429674.861442,-1526657876.338860,-0.114354,0.114557,-0.028763
-0.020000,1.780000,0.220224,0.040000,-102820689.486179,-7947393433.044228,8393917236.610003,-2162991469.752430,-0.152257,0.155622,-0.040752
-0.060000,1.780000,0.220000,0.040000,-103924032.802329,-8080087994.618644,8546575199.828561,1463357055.254201,-0.154870,0.158386,0.027570
0.020000,1.740000,0.260190,0.040000,-62179837.049040,-5061821723.501157,4982999159.942146,-2937952861.296721,-0.094922,0.094328,-0.055353
0.060000,1.740000,0.260000,0.040000,-44583580.850310,-3623105583.936419,3732714391.149490,-4799526719.812665,-0.068881,0.069707,-0.090426
0.060000,1.780000,0.220000,0.040000,-63015042.216667,-4814944083.743361,5006049482.562614,-7192072266.292835,-0.091796,0.093237,-0.135503
0.020000,1.780000,0.220224,0.040000,-88510249.299177,-6521713676.312277,6975044169.095745,-4663504274.428789,-0.125435,0.128852,-0.087863
0.100000,1.740000,0.260199,0.040000,-21614641.844156,-1389378393.371105,1260952077.447733,-5416519719.932588,-0.025451,0.024483,-0.102050
0.140000,1.740000,0.260181,0.040000,3632846.571749,621075197.520336,-486449386.973605,-5539499209.748801,0.010940,-0.009926,-0.104367
0.140000,1.780000,0.220214,0.040000,6572484.905114,726067772.937997,-884064001.555189,-8428726300.705586,0.014573,-0.015763,-0.158802
0.100000,1.780000,0.220235,0.040000,-29826391.169794,-1652606711.434424,1861182512.593628,-8277161689.489673,-0.032315,0.033887,-0.155947
0.180000,1.740000,0.260000,0.040000,27794660.616019,2915254671.430218,-3026146339.068132,-5055444668.228354,0.055552,-0.056388,-0.095248
0.220000,1.740000,0.260209,0.040000,47691559.858435,4445955895.848600,-4357472092.721989,-3399935281.196188,0.083264,-0.082597,-0.064057
0.220000,1.780000,0.220247,0.040000,69790434.918472,5781959010.444030,-6203624022.028092,-5275775993.770868,0.111319,-0.114497,-0.099399
0.180000,1.780000,0.220000,0.040000,41311711.842948,3970683116.930242,-4111556969.688796,-7557299308.351621,0.075606,-0.076668,-0.142384
0.260000,1.740000,0.260172,0.040000,60759662.123331,5599643960.246252,-5635951292.223802,-2079118455.653759,0.105706,-0.105979,-0.039172
0.300000,1.740000,0.260001,0.040000,65398915.937550,5845824304.681975,-5851120496.401398,464322805.697369,0.110169,-0.110209,0.008748
0.300000,1.780000,0.220001,0.040000,94521680.303175,7702101842.978692,-8163876979.159031,594647444.403111,0.147722,-0.151202,0.011204
0.260000,1.780000,0.220203,0.040000,88298378.516549,7412604015.378406,-7827255560.396345,-2911629918.556488,0.142001,-0.145126,-0.054857
0.340000,1.740000,0.260218,0.040000,61191862.398463,5250871643.280180,-5194630787.634742,1913236887.423004,0.098612,-0.098188,0.036046
0.380000,1.740000,0.260163,0.040000,48960526.133907,4081903158.233184,-4178094871.696815,3967618228.000193,0.077449,-0.078174,0.074752
0.380000,1.780000,0.220193,0.040000,69536117.174173,5451450083.981867,-5703404887.429819,6039370152.845098,0.104133,-0.106031,0.113785
0.340000,1.780000,0.220258,0.040000,87864087.694728,6848992767.813000,-7315493110.191243,3196055520.643948,0.131676,-0.135191,0.060216
0.420000,1.740000,0.260001,0.040000,30649689.371790,2067266152.672682,-1949579449.024392,4751511732.985858,0.038283,-0.037396,0.089521
0.460000,1.740000,0.260228,0.040000,9047860.044677,129382516.913499,-261382721.804215,5177573110.031969,0.003184,-0.004179,0.097548
0.460000,1.780000,0.220270,0.040000,10536463.090049,238135550.962125,-137498654.956264,8042927806.645655,0.003918,-0.003159,0.151533
0.420000,1.780000,0.220002,0.040000,42393206.370799,2565650260.858131,-2826894898.294709,7454262122.541818,0.049815,-0.051784,0.140443
0.500000,1.740000,0.260155,0.040000,-12619693.851375,-2168860566.177800,2282750730.932428,4850863538.665546,-0.041506,0.042365,0.091393
0.540000,1.740000,0.260002,0.040000,-31171364.142199,-3763503420.916018,3674687205.361556,3403060187.245426,-0.070405,0.069735,0.064116
0.540000,1.780000,0.220003,0.040000,-48338936.452777,-4999174837.336354,5399044797.899379,5398794942.178622,-0.096447,0.099461,0.101716
0.500000,1.780000,0.220183,0.040000,-21277188.343269,-3070402377.590145,3166518453.480879,7446008070.348174,-0.058391,0.059116,0.140287
0.580000,1.740000,0.260238,0.040000,-43954436.149864,-4996789325.731261,5041912880.566878,2150426760.173277,-0.094397,0.094738,0.040515
0.620000,1.740000,0.260147,0.040000,-49260946.919027,-5285802738.254464,5296116925.240993,-307380693.221380,-0.099646,0.099724,-0.005791
0.620000,1.780000,0.220174,0.040000,-73835862.427509,-7139286036.131628,7601006617.865351,-415730060.878787,-0.137118,0.140598,-0.007833
0.580000,1.780000,0.220282,0.040000,-66707582.867637,-6785626298.275225,7187981858.555844,3092311656.496417,-0.130119,0.133152,0.058261
0.660000,1.740000,0.260003,0.040000,-46604972.750159,-4690204795.942957,4639629704.785212,-1723475696.009857,-0.088080,0.087699,-0.032471
0.700000,1.740000,0.260249,0.040000,-36808448.911892,-3476468348.483726,3579121569.693750,-3649024054.614118,-0.066079,0.066853,-0.068750
0.700000,1.780000,0.220294,0.040000,-53445887.073960,-4771689392.745179,5001026903.607109,-5833772535.311133,-0.091198,0.092926,-0.109912
0.660000,1.780000,0.220004,0.040000,-68999471.920509,-6264981574.109324,6727757486.391837,-3053588757.743558,-0.120652,0.124139,-0.057531
0.740000,1.740000,0.260139,0.040000,-21869424.066644,-1425819772.535369,1310591655.196886,-4313095279.445491,-0.026212,0.025344,-0.081261
0.780000,1.740000,0.260005,0.040000,-4621305.995789,498358071.519543,-376056008.076699,-4429076950.441799,0.008698,-0.007776,-0.083446
0.780000,1.780000,0.220006,0.040000,-3652675.558767,657126506.409344,-821746557.239069,-7246079395.502180,0.013311,-0.014552,-0.136520
0.740000,1.780000,0.220164,0.040000,-30217342.976493,-1738900352.636343,1956672455.313157,-7086602485.076897,-0.033993,0.035634,-0.133516
0.820000,1.740000,0.260259,0.040000,11770399.141878,2607270847.949028,-2711924276.538839,-3879479926.565366,0.049714,-0.050503,-0.073092
0.860000,1.740000,0.260131,0.040000,24392333.999926,3885615169.370178,-3836067417.097002,-2108281745.626341,0.072927,-0.072554,-0.039721
0.860000,1.780000,0.220155,0.040000,40331988.628974,5420617278.872127,-5870577403.752091,-3526373592.270652,0.104671,-0.108062,-0.066439
0.820000,1.780000,0.220306,0.040000,21369961.605978,3808590603.120991,-3995728077.633578,-6187608049.904756,0.072814,-0.074224,-0.116578
0.900000,1.740000,0.260006,0.040000,31142125.615806,4516203950.240170,-4537318248.015112,-740401571.416266,0.085207,-0.085366,-0.013950
0.940000,1.740000,0.260270,0.040000,31147764.971256,4178068357.838690,-4240272322.401317,1573109825.366450,0.079069,-0.079538,0.029638
0.940000,1.780000,0.220319,0.040000,48880716.560314,5928588830.485826,-6322109537.295108,2680666396.979568,0.113922,-0.116888,0.050505
0.900000,1.780000,0.220007,0.040000,49954530.074884,6366222387.624701,-6827227702.513523,-850057958.237265,0.122549,-0.126023,-0.016016
0.980000,1.740000,0.260124,0.040000,24948473.883910,2847031201.587836,-2768467022.519273,2688434987.996998,0.053196,-0.052604,0.050652
1.020000,1.740000,0.260008,0.040000,14377475.576246,1170721305.824441,-1287140307.195108,3672031724.757999,0.022715,-0.023592,0.069183
1.020000,1.780000,0.220009,0.040000,20280789.657860,1674834937.082144,-1681596159.955659,6406366693.515155,0.031593,-0.031644,0.120700
0.980000,1.780000,0.220146,0.040000,37996464.900830,3864809494.352663,-4231434397.218009,4898967172.908174,0.074887,-0.077650,0.092299
1.060000,1.740000,0.260281,0.040000,2147603.500479,-974330523.268927,1089897926.890539,3598268612.804792,-0.019010,0.019881,0.067793
1.100000,1.740000,0.260117,0.040000,-8787546.803063,-2501167204.945916,2443679178.840297,2437089338.206143,-0.046799,0.046365,0.045916
1.100000,1.780000,0.220138,0.040000,-17477337.982892,-3712483612.233648,4104200164.037788,4322095532.655992,-0.072159,0.075111,0.081431
1.060000,1.780000,0.220332,0.040000,168333.214871,-1688605531.790482,1739923780.675032,6232684319.523932,-0.032104,0.032491,0.117427
1.140000,1.740000,0.260010,0.040000,-15957091.315515,-3490360869.606016,3542733758.021492,1269345339.219358,-0.066056,0.066451,0.023915
1.180000,1.740000,0.260292,0.040000,-17998421.697328,-3420488527.504273,3478353374.793195,-846391372.576846,-0.064771,0.065207,-0.015947
1.180000,1.780000,0.220346,0.040000,-30849684.344855,-5145811184.516571,5550573424.488300,-1659290297.566314,-0.099238,0.102288,-0.031262
1.140000,1.780000,0.220012,0.040000,-28564669.862449,-5265286293.486645,5688406144.852181,1850407968.269357,-0.101593,0.104781,0.034863
1.220000,1.740000,0.260109,0.040000,-15003129.967346,-2335213921.709698,2275915947.186116,-1907761894.502161,-0.043662,0.043215,-0.035943
1.260000,1.740000,0.260012,0.040000,-8457618.352584,-819410957.668961,917419369.834803,-2751976150.986174,-0.015992,0.016731,-0.051849
1.260000,1.780000,0.220014,0.040000,-12386786.343546,-1187187921.709458,1167522936.282467,-5303258830.844707,-0.022256,0.022108,-0.099916
1.220000,1.780000,0.220129,0.040000,-24568747.168427,-3323780750.394708,3674768000.739390,-3935102201.164253,-0.064606,0.067251,-0.074140
1.300000,1.740000,0.260304,0.040000,-761085.315650,1025773496.969400,-1132314897.786174,-2569927148.230781,0.019928,-0.020731,-0.048419
1.340000,1.740000,0.260103,0.040000,5558723.117331,2165613262.255822,-2154725210.466981,-1326117101.373163,0.040740,-0.040658,-0.024985
1.340000,1.780000,0.220121,0.040000,12280099.410312,3526880851.923858,-3933041393.705265,-2507217461.470234,0.068744,-0.071805,-0.047237
1.300000,1.780000,0.220359,0.040000,1406837.956444,1914734025.675959,-2035375762.986810,-4826322173.742421,0.036757,-0.037666,-0.090931
1.380000,1.740000,0.260015,0.040000,8687365.815820,2530123664.940833,-2560398374.127243,-235030187.731676,0.047840,-0.048068,-0.004428
1.420000,1.740000,0.260316,0.040000,8121037.906348,1928556210.246541,-2007660983.392296,1306163776.266121,0.036782,-0.037378,0.024609
1.420000,1.780000,0.220373,0.040000,14784939.010476,3114061083.310509,-3351391659.212772,2900648408.790170,0.060012,-0.061801,0.054650
1.380000,1.780000,0.220017,0.040000,17001303.808464,4076135228.618620,-4491739726.490499,68380906.770072,0.079146,-0.082278,0.001288
1.460000,1.740000,0.260096,0.040000,4770705.606644,558867388.126307,-480850605.842811,1776883754.151155,0.010088,-0.009500,0.033478
1.500000,1.740000,0.260017,0.040000,497801.873900,-700026343.404053,667555068.661598,1515476100.249763,-0.013005,0.012761,0.028552
1.500000,1.780000,0.220020,0.040000,-1008460.686344,-1360645640.426637,1616428489.326709,3245736157.569378,-0.027081,0.029009,0.061152
1.460000,1.780000,0.220113,0.040000,7536830.442537,588004534.358342,-696708270.064797,3952557297.467552,0.011693,-0.012512,0.074468
1.540000,1.740000,0.260327,0.040000,-2748102.070032,-1550176713.972966,1614826619.872313,818344485.007282,-0.029572,0.030059,0.015418
1.580000,1.740000,0.260090,0.040000,-3806525.874510,-1471147240.381804,1528724316.420129,-442438793.146358,-0.028043,0.028477,-0.008336
1.580000,1.780000,0.220106,0.040000,-8207693.459373,-2617059420.681603,2884270965.392922,-1298760767.560019,-0.050817,0.052831,-0.024469
1.540000,1.780000,0.220387,0.040000,-6987672.717103,-2856353495.897406,3179477829.950198,1347936271.820242,-0.055642,0.058077,0.025396
1.620000,1.740000,0.260020,0.040000,-2762379.954701,-639631081.528480,593915784.876584,-947913237.956740,-0.011793,0.011448,-0.017859
1.660000,1.740000,0.260340,0.040000,-730087.856067,274806897.479671,-258212229.119437,-923826541.181256,0.005084,-0.004959,-0.017405
1.660000,1.780000,0.220401,0.040000,-349158.538131,720270395.258010,-908132020.559592,-2240626757.315722,0.014632,-0.016048,-0.042215
1.620000,1.780000,0.220024,0.040000,-5118418.083801,-859814681.977112,989874399.723425,-2561168460.433034,-0.016935,0.017915,-0.048254
1.700000,1.740000,0.260083,0.040000,914341.598174,858927196.759582,-909984265.848063,-461397177.903801,0.016471,-0.016856,-0.008693
1.740000,1.740000,0.260023,0.040000,1377259.911887,729880496.304094,-771382664.699532,307639551.644759,0.013986,-0.014299,0.005796
1.740000,1.780000,0.220027,0.040000,3376071.713826,1415704148.391804,-1565908270.933678,1099525196.540184,0.027522,-0.028654,0.020716
1.700000,1.780000,0.220099,0.040000,3014851.604383,1804064702.059376,-2052545861.939807,-743176069.023072,0.035394,-0.037267,-0.014002
1.780000,1.740000,0.260352,0.040000,814582.386946,144898657.132014,-106741712.852275,516392415.269393,0.002514,-0.002227,0.009729
1.820000,1.740000,0.260077,0.040000,-2189.814560,-307718337.955442,319845952.065198,299458418.979368,-0.005866,0.005958,0.005642
1.820000,1.780000,0.220092,0.040000,-646066.164096,-825226609.871855,997308120.949893,715399824.525550,-0.016520,0.017817,0.013479
1.780000,1.780000,0.220416,0.040000,1451506.512450,8957539.382138,-11296065.251938,1572281623.230156,0.000182,-0.000200,0.029623
1.860000,1.740000,0.260027,0.040000,-402680.582906,-368477746.348377,380918862.737810,1692596.424999,-0.007013,0.007106,0.000032
1.900000,1.740000,0.260365,0.040000,-292263.586325,-109885118.728125,119702962.891492,-215082180.642224,-0.002126,0.002200,-0.004052
1.900000,1.780000,0.220431,0.040000,-614880.899625,-116966880.973251,84165490.440982,-781439896.628205,-0.002018,0.001771,-0.014723
1.860000,1.780000,0.220031,0.040000,-1307039.977475,-776495541.026693,906223026.400188,-354395063.966214,-0.015363,0.016341,-0.006677
1.940000,1.740000,0.260072,0.040000,-21320.926200,126867499.329063,-148223196.983185,-138483208.826508,0.002511,-0.002672,-0.002609
1.980000,1.740000,0.260030,0.040000,96458.284833,118766054.778111,-129280092.830274,36923665.796521,0.002297,-0.002376,0.000696
1.980000,1.780000,0.220035,0.040000,367455.097051,276982763.499897,-309246822.204702,276220313.520619,0.005401,-0.005644,0.005204
1.940000,1.780000,0.220085,0.040000,217388.865383,431974460.367677,-516722798.538677,-306221195.144609,0.008618,-0.009256,-0.005769
2.020000,1.740000,0.260377,0.040000,52474.770333,1037221.185405,8005883.928009,64498058.183631,-0.000032,0.000100,0.001215
2.060000,1.740000,0.260066,0.040000,-5682.423401,-40212572.806745,45170630.380160,9679752.383927,-0.000786,0.000823,0.000182
2.060000,1.780000,0.220078,0.040000,-88967.109683,-132805155.789366,159384841.030550,-41016168.293426,-0.002652,0.002853,-0.000773
2.020000,1.780000,0.220446,0.040000,75686.808180,-104389478.182517,130371289.466874,250734182.182219,-0.002114,0.002309,0.004724
2.100000,1.740000,0.260034,0.040000,-12328.331230,-10554887.469582,8887298.927539,-14251551.471335,-0.000189,0.000177,-0.000269
2.140000,1.740000,0.260390,0.040000,-236.284190,6380576.012458,-8601252.635467,-6205328.043586,0.000133,-0.000150,-0.000117
2.140000,1.780000,0.220461,0.040000,14995.397075,33832436.519479,-44839349.747034,2592808.971680,0.000700,-0.000783,0.000049
2.100000,1.780000,0.220040,0.040000,-37342.791666,16042938.161384,-17699871.903511,-89624730.563941,0.000312,-0.000324,-0.001689
2.180000,1.740000,0.260061,0.040000,3313.150045,2849232.561137,-2644975.787286,2045951.579221,0.000053,-0.000051,0.000039
2.220000,1.740000,0.260038,0.040000,2207.948654,-325488.916414,899991.992107,1344691.915140,-0.000009,0.000014,0.000025
2.220000,1.780000,0.220045,0.040000,491.519945,-4083250.975137,6679399.264801,-887771.802585,-0.000092,0.000111,-0.000017
2.180000,1.780000,0.220072,0.040000,8592.818826,-3308122.593111,4143601.102191,19386008.991437,-0.000067,0.000073,0.000365
2.260000,1.740000,0.240082,0.040000,1518.796441,599587.007178,-490735.144617,-882651.472851,0.000011,-0.000010,-0.000017
2.300000,1.740000,0.200098,0.040000,373.689323,-2132548.657341,129878.533313,-7242355.150332,-0.000029,0.000014,-0.000136
2.300000,1.780000,0.200038,0.040000,2575.762007,-1303479.676609,815582.189623,984858.017977,-0.000022,0.000018,0.000019
2.260000,1.780000,0.220477,0.040000,1474.123026,-481919.284359,-861601.008286,-2545686.620689,-0.000001,-0.000009,-0.000048
2.340000,1.740000,0.160123,0.040000,7886.803879,-37625474.375441,-1688053.939493,-21426543.041635,-0.000487,0.000190,-0.000404
2.380000,1.740000,0.120164,0.040000,112914.713188,294714752.039192,-1419070665.494014,82696662.530006,0.011908,-0.020381,0.001558
2.380000,1.780000,0.120063,0.040000,-20081.600704,-239732162.706378,881325657.360746,-13245078.912854,-0.008143,0.012978,-0.000250
2.340000,1.780000,0.160047,0.040000,4240.609053,-3830004.621139,20790824.815020,15291895.975370,-0.000168,0.000296,0.000288
2.420000,1.740000,0.080245,0.040000,435096.724271,5446555184.295741,-17942154406.412403,-6991349034.945679,0.173244,-0.267413,-0.131721
2.460000,1.740000,0.040488,0.040000,-9910377.516897,6864942582.614579,-54968089541.504631,-22902529728.006840,0.401227,-0.763743,-0.431497
2.460000,1.780000,0.040188,0.040000,4516523.340740,-13496126177.551226,-11325976943.807981,-19561127876.240952,-0.113976,-0.073089,-0.368543
2.420000,1.780000,0.080094,0.040000,-265291.149493,-2352388580.059465,-3827882598.891496,-8103046221.370393,-0.009388,-0.037188,-0.152666
2.500000,1.740000,0.006269,0.040000,-497274590.325552,133680376862.469986,-212127752849.502716,-39904184426.471581,2.962014,-3.553212,-0.751818
2.500000,1.780000,0.003881,0.040000,282275290.683722,-124428599300.383316,89256962060.508621,-35243117918.157265,-2.145511,1.880449,-0.664001
-2.500000,1.820000,0.014030,0.040000,-183734527.132280,184309509321.965607,6076249834.922878,-117137156081.228180,2.396405,-0.961613,-2.206932
-2.500000,1.860000,0.005672,0.040000,7164050.486396,35627273823.970482,26586832199.858231,-16902062267.588480,0.319594,0.149266,-0.318445
-2.460000,1.820000,0.042389,0.040000,2182087.426999,44089888621.305939,37748825709.875015,-67201032919.222916,0.368112,0.248643,-1.266106
-2.420000,1.820000,0.081221,0.040000,-106279.059994,5400250131.215179,12293496963.562645,-19611880437.029449,0.001736,0.131608,-0.369499
-2.420000,1.860000,0.080201,0.040000,22081.380032,2314636919.753925,-3776682762.328180,543250209.534591,0.051873,-0.062891,0.010235
-2.460000,1.860000,0.040400,0.040000,-319862.554456,15380015959.371616,-9286041121.687260,-7822329937.176281,0.255324,-0.209399,-0.147377
-2.380000,1.820000,0.120817,0.040000,8557.536525,189774739.156500,-624769899.231422,45380045.848931,0.006034,-0.009312,0.000855
-2.340000,1.820000,0.160614,0.040000,9196.986869,-14040756.088385,16263882.151179,600631.688204,-0.000277,0.000294,0.000011
-2.340000,1.860000,0.140078,0.040000,8698.616950,22986841.787291,-21794530.274828,5456631.121634,0.000426,-0.000417,0.000103
-2.380000,1.860000,0.120134,0.040000,8201.048741,-12498420.468831,33647941.609670,-6322594.229898,-0.000355,0.000514,-0.000119
-2.300000,1.820000,0.180081,0.040000,8896.212041,3386877.440357,-259906.526371,-2478154.789404,0.000046,-0.000023,-0.000047
-2.260000,1.820000,0.180582,0.040000,9311.344979,-3896701.475445,-10468583.636371,5622373.537286,0.000008,-0.000116,0.000106
-2.260000,1.860000,0.140748,0.040000,33156.607056,-152910583.150229,2711150.602753,-113006612.493995,-0.002032,0.000900,-0.002129
-2.300000,1.860000,0.140104,0.040000,4838.946679,-44522607.558820,51407136.914438,11305704.843884,-0.000878,0.000930,0.000213
-2.220000,1.820000,0.180055,0.040000,-4419.256868,3112556.932934,17128102.415805,29212705.198036,-0.000056,0.000208,0.000550
-2.180000,1.820000,0.180088,0.040000,21030.581439,-74367769.665602,80251059.771265,-95858433.454201,-0.001434,0.001479,-0.001806
-2.180000,1.860000,0.140113,0.040000,-163656.609940,-886139043.204520,911620829.499364,-224701934.304850,-0.016839,0.017031,-0.004234
-2.220000,1.860000,0.140070,0.040000,-28036.410066,614562157.811418,-324936856.669769,328666620.138529,0.009942,-0.007759,0.006192
-2.140000,1.820000,0.180563,0.040000,105632.517428,195767885.655419,-230671991.723533,-62000998.316432,0.003886,-0.004149,-0.001168
-2.100000,1.820000,0.180049,0.040000,-110305.318310,148278479.026485,-158426840.293143,417594494.220299,0.002851,-0.002927,0.007868
-2.100000,1.860000,0.140063,0.040000,217360.139347,1863790641.457489,-1959489161.047493,1682286296.512422,0.035656,-0.036377,0.031695
-2.140000,1.860000,0.140724,0.040000,594492.376310,629429325.866343,-764868459.535957,-1051698573.864918,0.012624,-0.013645,-0.019815
-2.060000,1.820000,0.180096,0.040000,-420498.484683,-714917554.206951,768168552.681345,152493632.352459,-0.013770,0.014172,0.002873
-2.020000,1.820000,0.180545,0.040000,268660.547602,-405619568.920411,465796405.955747,-1045246601.209368,-0.007982,0.008436,-0.019693
-2.020000,1.860000,0.140699,0.040000,-611918.597840,-3084590273.903405,3466178395.741133,-3668321698.628806,-0.060272,0.063148,-0.069113
-2.060000,1.860000,0.140123,0.040000,-2158545.836019,-2779881497.217269,2956286022.994131,2002600526.395020,-0.053372,0.054701,0.037730
-1.980000,1.820000,0.180043,0.040000,1407118.500532,1381909130.343975,-1452763359.371980,-795840874.205739,0.026436,-0.026970,-0.014994
-1.940000,1.820000,0.180104,0.040000,529806.261921,1585945957.905799,-1727414260.325056,1477201728.329855,0.030680,-0.031746,0.027831
-1.940000,1.860000,0.140133,0.040000,4293357.337967,6642477382.920615,-7258508779.246516,3809466269.567986,0.128630,-0.133273,0.071773
-1.980000,1.860000,0.140056,0.040000,4961822.676811,4279806464.916212,-4499178979.459685,-4456662977.356268,0.081874,-0.083527,-0.083966
-1.900000,1.820000,0.180526,0.040000,-2539871.887744,-1086570149.490988,1091677740.814379,2545283193.693107,-0.020500,0.020539,0.047955
-1.860000,1.820000,0.180038,0.040000,-3918567.436151,-3456882999.757607,3642150778.390795,84107485.900749,-0.066177,0.067573,0.001585
-1.860000,1.860000,0.140049,0.040000,-13035148.536029,-10325735131.486652,11004195479.089272,2030772695.809409,-0.198378,0.203491,0.038261
-1.900000,1.860000,0.140676,0.040000,-5846323.820193,-1867679999.417603,1837159747.911855,8946502443.690311,-0.035016,0.034786,0.168557
-1.820000,1.820000,0.180112,0.040000,-216766.972223,-2039140904.991347,2196618369.680754,-3605372902.475804,-0.039309,0.040495,-0.067927
-1.780000,1.820000,0.180508,0.040000,6407713.215870,2382003233.645231,-2433640988.248493,-4240765554.613185,0.045170,-0.045559,-0.079898
-1.780000,1.860000,0.140653,0.040000,13985369.676447,5015343429.569217,-5196300112.994665,-12303255900.330563,0.095515,-0.096879,-0.231800
-1.820000,1.860000,0.140144,0.040000,-4857899.307256,-7207920244.187765,7766219367.003669,-9493486216.072268,-0.138957,0.143164,-0.178863
-1.740000,1.820000,0.180034,0.040000,9384656.921161,5559342718.031925,-5778737561.087527,-497839997.069949,0.105981,-0.107635,-0.009380
-1.700000,1.820000,0.180120,0.040000,4006457.509707,4209101982.687227,-4401978692.078634,4655869939.666228,0.080392,-0.081846,0.087719
-1.700000,1.860000,0.140155,0.040000,14892162.515424,11262907980.565767,-11853981331.775135,10575998348.279671,0.215541,-0.219995,0.199258
-1.740000,1.860000,0.140043,0.040000,25124334.947222,14046127422.994436,-14764551661.703119,-2781828826.695712,0.268698,-0.274112,-0.052411
-1.660000,1.820000,0.180490,0.040000,-7655626.450408,-1019433046.513142,1006982500.866695,6893275852.091017,-0.019136,0.019043,0.129873
-1.620000,1.820000,0.180029,0.040000,-17688373.651894,-6365498098.680468,6534148449.349606,4207532021.468144,-0.120883,0.122154,0.079272
-1.620000,1.860000,0.140037,0.040000,-37994214.033372,-13719400918.991232,14241594302.988224,10551539986.673775,-0.261433,0.265368,0.198797
-1.660000,1.860000,0.140630,0.040000,-12481698.649119,-1166712701.101439,1154322574.061711,16521770234.111937,-0.021912,0.021818,0.311280
-1.580000,1.820000,0.180129,0.040000,-17989406.399588,-8048746128.116046,8275832097.929085,-1799056743.060236,-0.152927,0.154638,-0.033895
-1.540000,1.820000,0.180473,0.040000,-6010886.954692,-4834557190.107018,4979078388.015124,-7388987281.781442,-0.091903,0.092992,-0.139213
-1.540000,1.860000,0.140607,0.040000,-19279454.402424,-10923526048.781004,11321049735.442379,-15254382589.724108,-0.208052,0.211048,-0.287401
-1.580000,1.860000,0.140166,0.040000,-42334133.920542,-17719788412.072834,18383448732.905380,-2962113650.698192,-0.337602,0.342604,-0.055808
-1.500000,1.820000,0.180025,0.040000,13324047.958325,1503495324.351741,-1513549741.574384,-9259823462.345625,0.028384,-0.028459,-0.174460
-1.460000,1.820000,0.180139,0.040000,30295092.742572,7574266647.447506,-7718174589.524297,-6364310905.891947,0.143517,-0.144601,-0.119907
-1.460000,1.860000,0.140178,0.040000,57103132.479642,14607578262.831533,-15036620375.036264,-13351329594.775305,0.277640,-0.280874,-0.251547
-1.500000,1.860000,0.140032,0.040000,20701439.178119,2294005223.815471,-2348960945.043762,-19289227616.468460,0.043531,-0.043945,-0.363420
-1.420000,1.820000,0.180456,0.040000,35568364.233909,10358225616.309355,-10554003386.344845,-152565864.420351,0.196262,-0.197737,-0.002874
-1.380000,1.820000,0.180021,0.040000,24850005.330947,8612109150.236614,-8768691360.796040,6479295351.078625,0.163142,-0.164322,0.122074
-1.380000,1.860000,0.140027,0.040000,52993617.983685,16621979321.847807,-17045705257.730337,11984170188.316284,0.315563,-0.318756,0.225789
-1.420000,1.860000,0.140585,0.040000,70722495.998279,20068345123.720058,-20621137428.352165,-916633411.505576,0.381224,-0.385390,-0.017270
-1.340000,1.820000,0.180148,0.040000,830893.528350,3168725246.139473,-3227391104.620641,10693599684.614744,0.060032,-0.060474,0.201474
-1.300000,1.820000,0.180439,0.040000,-28069876.884125,-3714211430.957177,3763691668.543211,10881996188.620813,-0.070258,0.070630,0.205023
-1.300000,1.860000,0.140564,0.040000,-44370350.611211,-6383352477.421386,6537155342.052043,20094986674.099983,-0.121135,0.122294,0.378601
-1.340000,1.860000,0.140190,0.040000,9253648.923346,6307466426.204790,-6446377888.701180,19903902703.207748,0.119621,-0.120668,0.375001
-1.260000,1.820000,0.180018,0.040000,-51181044.464584,-9440732047.591536,9567455415.292923,7105125482.952948,-0.178585,0.179540,0.133865
-1.220000,1.820000,0.180158,0.040000,-59602649.300129,-12067530287.471796,12219780659.864201,819905458.941612,-0.228220,0.229367,0.015447
-1.220000,1.860000,0.140203,0.040000,-105498996.073870,-21099573855.128830,21523385012.592876,1712847478.414468,-0.399924,0.403118,0.032271
-1.260000,1.860000,0.140023,0.040000,-87991669.194414,-16626672279.783352,16985884460.382427,13048204004.001366,-0.315286,0.317994,0.245836
-1.180000,1.820000,0.180422,0.040000,-49236615.855335,-10865689819.763924,10992764519.598967,-5825158158.829686,-0.205434,0.206392,-0.109749
-1.140000,1.820000,0.180014,0.040000,-21940116.056679,-6371294607.384111,6439026069.370408,-10778993912.183903,-0.120422,0.120932,-0.203082
-1.140000,1.860000,0.140018,0.040000,-44491545.418115,-10940168428.519678,11121894097.931778,-18374082936.183998,-0.207146,0.208516,-0.346178
-1.180000,1.860000,0.140542,0.040000,-89809210.556899,-18800444454.038601,19150477571.363018,-9944960649.709330,-0.356190,0.358828,-0.187369
-1.100000,1.820000,0.180168,0.040000,15290346.536277,-35983086.674802,33047212.179977,-12689393303.750383,-0.000661,0.000639,-0.239076
-1.060000,1.820000,0.180406,0.040000,52569866.522297,6319835007.926851,-6383825378.437533,-11182797626.094288,0.119431,-0.119913,-0.210690
-1.060000,1.860000,0.140522,0.040000,81001552.436864,10347294147.855103,-10531925048.350689,-18662258067.790459,0.195993,-0.197384,-0.351608
-1.100000,1.860000,0.140216,0.040000,18097938.885334,-188208280.793142,168738355.636993,-21416017001.658051,-0.003436,0.003289,-0.403490
-1.020000,1.820000,0.180012,0.040000,79963049.790693,11048873616.242105,-11150430004.379402,-6821184056.868838,0.208741,-0.209507,-0.128515
-0.980000,1.820000,0.180179,0.040000,90062380.819463,13070566284.652351,-13181084617.210342,-824396968.762541,0.246882,-0.247715,-0.015532
-0.980000,1.860000,0.140230,0.040000,145798571.746270,21036755692.526302,-21352618423.913113,-1364150872.377167,0.398130,-0.400510,-0.025701
-1.020000,1.860000,0.140015,0.040000,127589144.089103,17966605703.598408,-18255535650.840332,-11260380568.055239,0.340134,-0.342312,-0.212152
-0.940000,1.820000,0.180390,0.040000,79687954.018561,12051630539.521772,-12145160620.632330,5317351662.690946,0.227588,-0.228293,0.100182
-0.900000,1.820000,0.180009,0.040000,50420734.405785,8378925519.268897,-8437398061.980227,10223216618.371422,0.158194,-0.158635,0.192611
-0.900000,1.860000,0.140012,0.040000,85299414.651826,13189244828.547924,-13358085325.210749,16274807737.220625,0.249447,-0.250720,0.306627
-0.940000,1.860000,0.140501,0.040000,130738384.126557,19186584034.477058,-19456160277.592945,8545505254.137280,0.363010,-0.365042,0.161002
-0.860000,1.820000,0.180190,0.040000,8006825.226210,2976863679.448715,-2992329637.552894,12909132940.937113,0.056173,-0.056290,0.243216
-0.820000,1.820000,0.180374,0.040000,-39084803.942027,-2957254234.595638,2983017048.863277,12940810639.572453,-0.055862,0.056056,0.243812
-0.820000,1.860000,0.140481,0.040000,-54722085.930034,-4634424930.039105,4708329801.828279,20192705761.289742,-0.087733,0.088290,0.380442
-0.860000,1.860000,0.140244,0.040000,18953104.837211,4613002094.464242,-4654907169.478271,20346166087.122414,0.087148,-0.087464,0.383334
-0.780000,1.820000,0.180007,0.040000,-81537888.328538,-8228011995.870910,8285704409.468868,10449491234.497353,-0.155347,0.155781,0.196874
-0.740000,1.820000,0.180201,0.040000,-111066597.609331,-11870940568.842110,11946832845.003143,6035858492.477400,-0.224084,0.224656,0.113719
-0.740000,1.860000,0.140258,0.040000,-167350836.974157,-18119535584.055729,18347047816.214539,9199494347.675680,-0.342668,0.344383,0.173324
-0.780000,1.860000,0.140009,0.040000,-121083249.122708,-12687543628.146940,12856780105.978664,16136033907.546860,-0.239997,0.241273,0.304012
-0.700000,1.820000,0.180359,0.040000,-121934543.618631,-13302300969.982168,13381426894.117189,602372468.498365,-0.251070,0.251667,0.011349
-0.660000,1.820000,0.180005,0.040000,-111877874.340378,-12378041972.033377,12446918504.481445,-4842255227.208204,-0.233599,0.234118,-0.091231
-0.660000,1.860000,0.140006,0.040000,-170479863.551012,-18565925961.635441,18774684829.703583,-7433279317.951054,-0.350973,0.352546,-0.140047
-0.700000,1.860000,0.140462,0.040000,-184884203.582117,-20125396267.639374,20363990824.623745,825153854.581969,-0.380523,0.382321,0.015546
-0.620000,1.820000,0.180212,0.040000,-82337761.322436,-9368689826.115007,9417225594.437105,-9367615890.223845,-0.176786,0.177152,-0.176491
-0.580000,1.820000,0.180344,0.040000,-38039981.640313,-4869613744.468266,4892104928.655042,-12266745468.925911,-0.091873,0.092043,-0.231113
-0.580000,1.860000,0.140442,0.040000,-60584099.261176,-7127129905.785066,7198610684.549569,-18414191172.388599,-0.134683,0.135222,-0.346934
-0.620000,1.860000,0.140273,0.040000,-126593410.437412,-13922020955.166893,14068948594.487175,-14186362185.382160,-0.263129,0.264237,-0.267279
-0.540000,1.820000,0.180003,0.040000,13938467.674583,327894880.834692,-332612957.428032,-13145885130.810179,0.006204,-0.006240,-0.247676
-0.500000,1.820000,0.180224,0.040000,65413414.444466,5378740646.973583,-5407798919.294918,-11954444665.593962,0.101503,-0.101722,-0.225229
-0.500000,1.860000,0.140288,0.040000,93212150.811022,8015933789.385901,-8109142524.440921,-17678828602.877937,0.151552,-0.152254,-0.333079
-0.540000,1.860000,0.140004,0.040000,16776501.211134,600572281.658290,-614529966.584383,-19584219172.700901,0.011394,-0.011499,-0.368978
-0.460000,1.820000,0.180330,0.040000,108424558.507373,9516326786.439943,-9563783665.249941,-8960265325.763512,0.179561,-0.179919,-0.168817
-0.420000,1.820000,0.180002,0.040000,136444753.455615,12157863746.986895,-12215895490.981215,-4682034336.105851,0.229389,-0.229827,-0.088212
-0.420000,1.860000,0.140003,0.040000,198377993.502716,17784627283.612255,-17967211950.903347,-6773023815.896348,0.336105,-0.337481,-0.127608
-0.460000,1.860000,0.140424,0.040000,156928787.787638,14022502360.043083,-14170944876.009972,-13142511515.072697,0.265031,-0.266150,-0.247613
-0.380000,1.820000,0.180236,0.040000,145300934.726052,12972284284.551895,-13032411044.089052,205778778.019276,0.244745,-0.245198,0.003877
-0.340000,1.820000,0.180315,0.040000,133698906.604729,11906848179.325909,-11961049579.260685,4979287508.547669,0.224638,-0.225047,0.093813
-0.340000,1.860000,0.140405,0.040000,194761013.699885,17213650080.577362,-17385622526.776443,7386181465.695970,0.325287,-0.326583,0.139160
-0.380000,1.860000,0.140303,0.040000,211565212.464954,18861516579.392570,-19051774181.529068,422899193.493103,0.356437,-0.357871,0.007968
-0.300000,1.820000,0.180001,0.040000,103309342.572228,9174142644.979826,-9215770284.596178,8967808859.062021,0.173081,-0.173395,0.168959
-0.260000,1.820000,0.180248,0.040000,58434884.211653,5205767600.168550,-5230187118.355759,11640341743.317884,0.098218,-0.098402,0.219311
-0.260000,1.860000,0.140319,0.040000,85392060.539734,7406791958.899069,-7478108302.234674,16968249068.139181,0.139951,-0.140489,0.319692
-0.300000,1.860000,0.140001,0.040000,150568921.179728,13182171322.676918,-13311654854.607384,13151649660.937757,0.249092,-0.250067,0.247785
-0.220000,1.820000,0.180301,0.040000,5330981.797582,581936819.892972,-586876647.273501,12667123513.386095,0.010992,-0.011029,0.238656
-0.180000,1.820000,0.180000,0.040000,-48708662.521985,-4052254322.009817,4066634560.399719,11951394052.588345,-0.076428,0.076536,0.225171
-0.180000,1.860000,0.140000,0.040000,-69747532.691134,-5927845698.478459,5980859639.112922,17272873513.926598,-0.111984,0.112383,0.325431
-0.220000,1.860000,0.140387,0.040000,8413116.896724,722509822.348240,-733898386.611256,18381231256.213646,0.013677,-0.013763,0.346313
-0.140000,1.820000,0.180261,0.040000,-96369949.720705,-8072937544.239798,8104222721.264289,9630346732.421461,-0.152276,0.152511,0.181441
-0.100000,1.820000,0.180288,0.040000,-131303516.734915,-10955954771.987843,10999861897.263567,6047582133.851287,-0.206665,0.206996,0.113940
-0.100000,1.860000,0.140370,0.040000,-188719083.204467,-15759459052.962624,15905564944.122004,8646683864.259422,-0.297743,0.298844,0.162909
-0.140000,1.860000,0.140336,0.040000,-138504616.639314,-11665348390.964657,11774654997.212545,13859258989.823891,-0.220400,0.221224,0.261116
-0.060000,1.820000,0.180000,0.040000,-148953041.442812,-12339364048.675739,12390293632.653147,1702051658.271477,-0.232769,0.233152,0.032068
-0.020000,1.820000,0.180274,0.040000,-147127787.988778,-12063826985.676373,12115508086.290161,-2819402030.982843,-0.227582,0.227971,-0.053119
-0.020000,1.860000,0.140352,0.040000,-210879835.961677,-17258429769.684406,17423453694.612732,-4163278636.358869,-0.326092,0.327335,-0.078439
-0.060000,1.860000,0.140000,0.040000,-213874163.427445,-17694865130.676979,17860927842.789021,2358099345.667745,-0.334320,0.335572,0.044428
0.020000,1.820000,0.180274,0.040000,-126255375.446366,-10187491563.886250,10233664960.393127,-6917549849.172125,-0.192199,0.192547,-0.130331
0.060000,1.820000,0.180000,0.040000,-89291041.532323,-6974805222.112168,7009891740.394053,-10055755320.226938,-0.131608,0.131872,-0.189456
0.060000,1.860000,0.140000,0.040000,-126806534.008699,-9922449658.583576,10025217826.480448,-14568591241.462788,-0.187526,0.188300,-0.274481
0.020000,1.860000,0.140352,0.040000,-180419178.322312,-14538709579.577919,14683159515.378170,-10060665851.944994,-0.274734,0.275823,-0.189549
0.100000,1.820000,0.180288,0.040000,-41300932.659399,-2861123583.226534,2880835914.764409,-11826321052.933929,-0.054017,0.054165,-0.222815
0.140000,1.820000,0.180261,0.040000,11224753.750850,1602727782.799310,-1600895766.936425,-12001044448.154507,0.030186,-0.030172,-0.226107
0.140000,1.860000,0.140336,0.040000,18463699.009540,2381300916.536043,-2388381887.054248,-17344564277.904568,0.044905,-0.044958,-0.326782
0.100000,1.860000,0.140370,0.040000,-57384131.043126,-4024090958.811056,4072554619.646052,-17105623893.112978,-0.076090,0.076455,-0.322280
0.180000,1.820000,0.180000,0.040000,61241197.112434,5819823923.134482,-5836278022.411296,-10560333402.771215,0.109742,-0.109866,-0.198963
0.220000,1.820000,0.180301,0.040000,102091346.456372,9222741783.700274,-9255665925.599569,-7697385243.689107,0.173948,-0.174196,-0.145023
0.220000,1.860000,0.140387,0.040000,149264445.415021,13316897346.427458,-13435829949.548985,-11108804315.757460,0.251570,-0.252467,-0.209296
0.180000,1.860000,0.140000,0.040000,90555712.885404,8428406214.909803,-8495685119.240135,-15254770236.637056,0.159176,-0.159683,-0.287409
0.260000,1.820000,0.180248,0.040000,128401825.541095,11346903266.160236,-11392373393.333334,-3796499137.189737,0.214039,-0.214382,-0.071528
0.300000,1.820000,0.180001,0.040000,136816431.577381,11893240443.539515,-11945576828.566576,612816674.714237,0.224371,-0.224766,0.011546
0.300000,1.860000,0.140001,0.040000,198294499.364763,17186611250.931263,-17354316906.626389,957428346.198004,0.324754,-0.326017,0.018039
0.260000,1.860000,0.140319,0.040000,186804473.703198,16384311299.951447,-16536674158.395897,-5452435070.077679,0.309551,-0.310699,-0.102727
0.340000,1.820000,0.180315,0.040000,126468244.570094,10772344912.256407,-10824694281.662695,4921648891.318617,0.203253,-0.203648,0.092727
0.380000,1.820000,0.180236,0.040000,99120658.203347,8123820836.502658,-8168935206.023801,8520637945.287134,0.153312,-0.153652,0.160534
0.380000,1.860000,0.140303,0.040000,141815472.424214,11762335532.973225,-11895504759.617212,12522837592.062773,0.222362,-0.223366,0.235938
0.340000,1.860000,0.140405,0.040000,182451585.035907,15585166466.973457,-15745952823.013908,7244246062.949177,0.294542,-0.295754,0.136486
0.420000,1.820000,0.180002,0.040000,58946878.534290,4306778002.577236,-4337936708.094501,10883373064.056776,0.081318,-0.081553,0.205049
0.460000,1.820000,0.180330,0.040000,11963071.849055,-139737210.649195,127756055.043805,11644072836.163078,-0.002565,0.002475,0.219381
0.460000,1.860000,0.140424,0.040000,13167877.943340,-256573690.342434,238950699.637020,17180364542.544651,-0.004734,0.004602,0.323688
0.420000,1.860000,0.140003,0.040000,82454507.247470,6228995082.635950,-6310718170.928811,16018551410.630266,0.117820,-0.118436,0.301799
0.500000,1.820000,0.180224,0.040000,-34822169.532482,-4564018940.493062,4574033148.709276,10658844011.392481,-0.086045,0.086121,0.200819
0.540000,1.820000,0.180003,0.040000,-74435670.043022,-8290453374.007730,8322185118.717397,8040566651.132723,-0.156376,0.156615,0.151489
0.540000,1.860000,0.140004,0.040000,-113921872.982985,-12277477969.552364,12390525619.307713,11930384531.258011,-0.231954,0.232806,0.224775
0.500000,1.860000,0.140288,0.040000,-55733582.532602,-6760326078.380376,6807498083.454576,15772137819.031796,-0.127635,0.127991,0.297156
0.580000,1.820000,0.180344,0.040000,-101004596.503527,-10719952960.352842,10769671954.602011,4159464062.680939,-0.202251,0.202626,0.078367
0.620000,1.820000,0.180212,0.040000,-110700028.223797,-11428891960.129835,11489542466.990812,-395145858.652875,-0.215670,0.216127,-0.007445
0.620000,1.860000,0.140273,0.040000,-166042277.013846,-17047172757.714474,17235582457.380054,-648391492.389789,-0.322244,0.323663,-0.012216
0.580000,1.860000,0.140442,0.040000,-152623946.456225,-15923638656.652588,16087162123.987446,6173005756.123887,-0.300935,0.302167,0.116303
0.660000,1.820000,0.180005,0.040000,-102403256.745647,-10251435975.617418,10313333277.359486,-4891531611.659477,-0.193493,0.193959,-0.092159
0.700000,1.820000,0.180359,0.040000,-77965347.206383,-7329816120.116667,7381932353.963029,-8564431253.502888,-0.138393,0.138785,-0.161359
0.700000,1.860000,0.140462,0.040000,-114352335.904430,-11024875326.607363,11171186460.900717,-13080792131.808245,-0.208542,0.209645,-0.246450
0.660000,1.860000,0.140006,0.040000,-152391801.809007,-15359523664.727573,15542539022.703951,-7451991184.287745,-0.290417,0.291796,-0.140400
0.740000,1.820000,0.180201,0.040000,-41981296.686637,-3118995824.054433,3150752334.216345,-10743465573.328554,-0.058943,0.059183,-0.202413
0.780000,1.820000,0.180007,0.040000,-1072177.302033,1662989242.127804,-1659621657.563875,-10982311941.628983,0.031313,-0.031287,-0.206913
0.780000,1.860000,0.140009,0.040000,4195428.731458,2613025375.780834,-2618322438.166005,-16957032285.979099,0.049261,-0.049301,-0.319480
0.740000,1.860000,0.140258,0.040000,-58802731.855538,-4678414022.076669,4762037361.053239,-16492164111.325264,-0.088617,0.089247,-0.310722
0.820000,1.820000,0.180374,0.040000,37245731.876554,6140040777.088730,-6168457601.376952,-9165533182.402840,0.115843,-0.116057,-0.172684
0.860000,1.820000,0.180190,0.040000,65938793.434055,9429421392.918821,-9486777953.681181,-5568497759.864751,0.177980,-0.178412,-0.104914
0.860000,1.860000,0.140244,0.040000,106841959.441475,14725215469.227945,-14900827998.150894,-8676510269.342304,0.278424,-0.279748,-0.163470
0.820000,1.860000,0.140481,0.040000,63070587.345784,9538264771.777134,-9636508079.125534,-14233308452.449774,0.180262,-0.181002,-0.268164
0.900000,1.820000,0.180009,0.040000,79842123.148455,10819175565.023998,-10895775061.069767,-848548913.841059,0.204272,-0.204850,-0.015987
0.940000,1.820000,0.180390,0.040000,76775051.846710,9939790393.768314,-10019925501.552036,4045902412.011900,0.187724,-0.188328,0.076227
0.940000,1.860000,0.140501,0.040000,120827917.355354,15732015770.604635,-15962525158.298227,6576043091.342777,0.297703,-0.299440,0.123896
0.900000,1.860000,0.140012,0.040000,127298733.170707,17007695310.791256,-17233626611.834026,-1252834412.124670,0.321712,-0.323415,-0.023604
0.980000,1.820000,0.180179,0.040000,58116967.309826,6890526911.675407,-6955051731.361267,8046915874.855069,0.130186,-0.130673,0.151609
1.020000,1.820000,0.180012,0.040000,28646651.519739,2280108473.277608,-2310636560.805870,10198237082.209249,0.043131,-0.043361,0.192141
1.020000,1.860000,0.140015,0.040000,40730493.742224,3568295066.376106,-3648740070.897491,16725027934.884665,0.067683,-0.068290,0.315109
0.980000,1.860000,0.140230,0.040000,89452650.082740,10955840099.913294,-11138659284.112211,13101229902.904211,0.207448,-0.208825,0.246835
1.060000,1.820000,0.180406,0.040000,-4416530.315702,-2849635780.793975,2865505859.975349,9903908155.249384,-0.053778,0.053898,0.186595
1.100000,1.820000,0.180168,0.040000,-33047338.594833,-7227525566.329055,7291171568.044460,7133710446.598230,-0.136531,0.137010,0.134403
1.100000,1.860000,0.140216,0.040000,-60419408.593805,-12142530712.435869,12322870787.476542,11853849929.220917,-0.229792,0.231151,0.223333
1.060000,1.860000,0.140522,0.040000,-13646065.502596,-4821614651.573715,4872770967.967546,16371152224.643696,-0.091131,0.091517,0.308442
1.140000,1.820000,0.180014,0.040000,-50403781.824396,-9661988726.104355,9760600364.393913,2516732166.794360,-0.182595,0.183338,0.047417
1.180000,1.820000,0.180422,0.040000,-52685942.708955,-9393483410.451788,9500599262.345171,-2735823190.471241,-0.177584,0.178391,-0.051544
1.180000,1.860000,0.140542,0.040000,-89908592.366475,-16009072209.186092,16310918960.482727,-4948673901.703663,-0.303326,0.305601,-0.093236
1.140000,1.860000,0.140018,0.040000,-88044830.397883,-16339723497.867144,16617564503.676468,4091991794.469033,-0.309420,0.311514,0.077095
1.220000,1.820000,0.180158,0.040000,-40314318.217677,-6392446285.207176,6473503475.822251,-7103719061.110407,-0.120896,0.121506,-0.133838
1.260000,1.820000,0.180018,0.040000,-17965718.801248,-1487216121.644597,1510060806.326200,-9193900274.104303,-0.028149,0.028321,-0.173218
1.260000,1.860000,0.140023,0.040000,-25978185.198732,-2343673868.908185,2412294800.663230,-16482197116.121284,-0.044544,0.045061,-0.310534
1.220000,1.860000,0.140203,0.040000,-66544593.804957,-10918967487.497341,11151049387.508608,-12654101231.380705,-0.207031,0.208780,-0.238411
1.300000,1.820000,0.180439,0.040000,6727031.434893,3775472772.976450,-3827343633.106220,-8234873431.422559,0.071425,-0.071816,-0.155150
1.340000,1.820000,0.180148,0.040000,25587192.381165,7568658806.983145,-7684808821.624042,-4460127154.696487,0.143254,-0.144130,-0.084031
1.340000,1.860000,0.140190,0.040000,51411540.034644,14100707684.697575,-14417507615.778172,-7958974878.967381,0.267456,-0.269844,-0.149952
1.300000,1.860000,0.140564,0.040000,18285377.008826,7100932313.291833,-7239214940.231034,-14857647994.576214,0.134567,-0.135609,-0.279927
1.380000,1.820000,0.180021,0.040000,32730416.297194,8440752682.537076,-8580719656.304104,810761929.655096,0.159820,-0.160875,0.015275
1.420000,1.820000,0.180456,0.040000,26805394.100061,5975763117.738967,-6079571779.313951,5528470295.207643,0.113174,-0.113956,0.104160
1.420000,1.860000,0.140585,0.040000,48732872.784612,11149784985.938705,-11452972418.367411,11098796398.944071,0.211782,-0.214067,0.209108
1.380000,1.860000,0.140027,0.040000,62442353.805132,15803539429.064886,-16195590501.061001,1968234406.441353,0.299964,-0.302918,0.037083
1.460000,1.820000,0.180139,0.040000,11620639.602265,1152730684.881663,-1165716898.273148,7689412338.119123,0.021792,-0.021889,0.144873
1.500000,1.820000,0.180025,0.040000,-5385663.498523,-3877969107.424925,3973704347.537432,6286757626.119581,-0.073604,0.074326,0.118446
1.500000,1.860000,0.140032,0.040000,-16304987.623578,-8353126160.553354,8611160911.008627,12545406749.536127,-0.158836,0.160781,0.236363
1.460000,1.860000,0.140178,0.040000,17581339.547586,1730314789.828641,-1788762272.067446,15400089918.883196,0.032930,-0.033371,0.290147
1.540000,1.820000,0.180473,0.040000,-16469919.154396,-6683729741.590603,6847901295.154966,1986974817.229066,-0.126853,0.128091,0.037436
1.580000,1.820000,0.180129,0.040000,-17318193.805164,-5823373528.666487,5965841434.348448,-2956419831.650737,-0.110521,0.111595,-0.055701
1.580000,1.860000,0.140166,0.040000,-36237213.944133,-12163093257.290907,12594628741.821438,-7113512467.856872,-0.231599,0.234851,-0.134023
1.540000,1.860000,0.140607,0.040000,-37214161.708272,-14099229276.074808,14571078654.038685,3529432465.019443,-0.268305,0.271861,0.066497
1.620000,1.820000,0.180029,0.040000,-9235512.563023,-1846707987.723441,1874446011.274164,-5768416217.372020,-0.034950,0.035159,-0.108680
1.660000,1.820000,0.180490,0.040000,1721007.399965,2750853769.779473,-2866041105.711147,-4825476924.550361,0.052479,-0.053347,-0.090915
1.660000,1.860000,0.140630,0.040000,8593753.156495,7134163627.581928,-7471232328.554475,-10814450517.491377,0.136317,-0.138857,-0.203751
1.620000,1.860000,0.140037,0.040000,-16402620.441234,-3316093603.670893,3418142383.469196,-13245762139.856373,-0.063054,0.063823,-0.249558
1.700000,1.820000,0.180120,0.040000,8559769.528622,4953271375.276698,-5134491056.492552,-927175802.003355,0.094347,-0.095713,-0.017469
1.740000,1.820000,0.180034,0.040000,7924745.963798,3381019098.111622,-3485359139.251880,2981986469.782089,0.064290,-0.065076,0.056182
1.740000,1.860000,0.140043,0.040000,18257526.196626,7769430789.244845,-8115147163.435589,8427422225.654794,0.148335,-0.150940,0.158778
1.700000,1.860000,0.140155,0.040000,22667085.140600,12078899370.130196,-12645769559.524870,-1247532033.102332,0.230778,-0.235050,-0.023504
1.780000,1.820000,0.180508,0.040000,2153299.577476,-422378029.011068,485960402.575849,3929814171.254827,-0.008317,0.008796,0.074040
1.820000,1.820000,0.180112,0.040000,-3068877.060082,-3059997390.501288,3227281138.108734,1496080120.422327,-0.058598,0.059858,0.028187
1.820000,1.860000,0.140144,0.040000,-10996663.924445,-9048715100.692022,9632966764.778873,3056439521.210027,-0.173785,0.178188,0.057585
1.780000,1.860000,0.140653,0.040000,1957070.301690,-2273480465.726661,2481362337.210059,10367029683.793394,-0.044009,0.045575,0.195321
1.860000,1.820000,0.180038,0.040000,-3785649.836147,-2356055563.145485,2450729444.597001,-1627203205.373926,-0.044925,0.045638,-0.030657
1.900000,1.820000,0.180526,0.040000,-980418.560136,377185848.098112,-448524087.492177,-2293745888.664165,0.007510,-0.008047,-0.043216
1.900000,1.860000,0.140676,0.040000,-469133.215049,2508520417.160520,-2818212166.443686,-7060127579.665206,0.049012,-0.051346,-0.133017
1.860000,1.860000,0.140049,0.040000,-10390349.587216,-6193880944.083997,6525796741.433055,-5967900196.520360,-0.118572,0.121074,-0.112439
1.940000,1.820000,0.180104,0.040000,1367735.988292,1805748804.819084,-1928666775.954606,-396842984.041174,0.034716,-0.035642,-0.007477
1.980000,1.820000,0.180043,0.040000,1134745.593484,681029760.515386,-692147058.772260,1184973534.335991,0.012894,-0.012978,0.022326
1.980000,1.860000,0.140056,0.040000,3019817.444826,1321752070.735545,-1286981119.163361,5012946751.991183,0.024706,-0.024444,0.094447
1.940000,1.860000,0.140133,0.040000,5897145.158501,6361836616.066833,-6862091762.150670,32467750.748203,0.122688,-0.126458,0.000612
2.020000,1.820000,0.180545,0.040000,-149224.144553,-753912054.515470,827303358.771596,661741632.030462,-0.014619,0.015172,0.012468
2.060000,1.820000,0.180096,0.040000,-446794.130834,-490918795.145817,518694091.529178,-407794694.156914,-0.009406,0.009616,-0.007683
2.060000,1.860000,0.140123,0.040000,-1670952.282068,-1336727466.476677,1383492485.043174,-2609126740.707047,-0.025449,0.025801,-0.049157
2.020000,1.860000,0.140699,0.040000,-1925718.850314,-3799490956.937840,4178347624.013181,1644706480.545165,-0.073726,0.076581,0.030987
2.100000,1.820000,0.180049,0.040000,-12936.917668,283778931.491369,-308735271.540306,-314033835.486683,0.005488,-0.005676,-0.005917
2.140000,1.820000,0.180563,0.040000,109174.897647,131116183.731782,-156624690.441608,137432041.559943,0.002614,-0.002807,0.002589
2.140000,1.860000,0.140724,0.040000,442040.653381,84915599.621855,-164409506.910080,1176335019.491198,0.002049,-0.002648,0.022163
2.100000,1.860000,0.140063,0.040000,645457.822570,2112781356.564462,-2238545828.363848,-841255460.783598,0.040517,-0.041465,-0.015850
2.180000,1.820000,0.180088,0.040000,-1381.099141,-88659538.221051,103575067.796547,68879111.678260,-0.001755,0.001867,0.001298
2.220000,1.820000,0.180055,0.040000,-11198.409411,8199265.666317,4103380.893080,-38711793.308057,0.000085,0.000008,-0.000729
2.220000,1.860000,0.140070,0.040000,-6486.384594,554457404.730787,-369525511.816133,-290167052.461482,0.009401,-0.008007,-0.005467
2.180000,1.860000,0.140113,0.040000,-228474.909770,-717851067.702910,805686389.312269,-18608130.992489,-0.014021,0.014683,-0.000351
2.260000,1.820000,0.180582,0.040000,4088.022516,-1423176.198394,-11479360.160706,-1199450.713162,0.000046,-0.000143,-0.000023
2.300000,1.820000,0.180081,0.040000,2714.037616,3570197.011854,1147524.460046,3908506.972742,0.000041,-0.000005,0.000074
2.300000,1.860000,0.140104,0.040000,-2613.039332,-52458210.518958,53103266.460379,-18508758.117020,-0.000992,0.000997,-0.000349
2.260000,1.860000,0.140748,0.040000,26215.587193,-134969142.364713,21151531.677993,130886541.910926,-0.001900,0.001042,0.002466
2.340000,1.820000,0.160614,0.040000,1789.181235,5178776.018520,-8267013.826489,-1556196.025760,0.000115,-0.000138,-0.000029
2.380000,1.820000,0.120817,0.040000,3532.140660,103004298.208556,-283380453.905260,45175723.946986,0.002960,-0.004320,0.000851
2.380000,1.860000,0.120134,0.040000,2904.871236,14672978.194322,-39067649.340052,-5278508.653586,0.000414,-0.000598,-0.000099
2.340000,1.860000,0.140078,0.040000,2724.468363,21355066.134136,-21039367.751937,-8047020.021255,0.000401,-0.000398,-0.000152
2.420000,1.820000,0.081221,0.040000,66061.669216,-963908843.226956,1808998500.035877,3077743087.521116,-0.022937,0.029306,0.057986
2.460000,1.820000,0.042389,0.040000,-1365077.645688,-9121925654.068665,3584538048.706956,-197184695.386763,-0.140564,0.098833,-0.003715
2.460000,1.860000,0.040400,0.040000,209534.017584,8173528706.155820,-7319569026.823442,3514078299.880329,0.149167,-0.142732,0.066207
2.420000,1.860000,0.080201,0.040000,-5419.216933,1564124644.225792,-2709752566.484715,-371529707.017963,0.035944,-0.044578,-0.007000
2.500000,1.820000,0.014030,0.040000,-101954768.749693,10423536383.160929,-54040909161.140015,-635794072.546420,0.442918,-0.771629,-0.011979
2.500000,1.860000,0.005672,0.040000,-4392349.896409,15143739815.471439,6786437766.038744,5179156845.796738,0.161364,0.003907,0.097578
-2.500000,1.900000,0.004478,0.040000,843705.860627,-12118093242.224783,-7165576136.575197,8729159435.417068,-0.119317,-0.026009,0.164462
-2.500000,1.940000,0.014627,0.040000,-80167.119688,-749828513.350122,-318588978.228589,-169033009.946829,-0.008088,0.000036,-0.003185
-2.460000,1.900000,0.040250,0.040000,32450.597779,-5568110061.312155,-1762797483.789333,5644769765.654475,-0.063471,0.008223,0.106351
-2.420000,1.900000,0.080125,0.040000,7901.574371,-624901818.299731,-380705830.545772,1030543113.469940,-0.006090,-0.001489,0.019416
-2.420000,1.940000,0.060221,0.040000,8275.119692,8214689.083304,120938528.842117,-131305255.420606,-0.000575,0.001549,-0.002474
-2.460000,1.940000,0.042590,0.040000,8070.404929,246982182.044241,141656772.981060,-317401104.073787,0.002457,0.000472,-0.005980
-2.380000,1.900000,0.101079,0.040000,8218.822475,77868045.253706,50548436.435409,-115669499.512845,0.000741,0.000227,-0.002179
-2.340000,1.900000,0.100109,0.040000,14452.278716,30293390.055214,-490913512.123950,509142427.132202,0.003174,-0.006646,0.009593
-2.340000,1.940000,0.060182,0.040000,-146475.379944,-94406102.219742,-2825880829.302383,2540068463.917799,0.014727,-0.036735,0.047856
-2.380000,1.940000,0.061782,0.040000,22011.827406,226841929.722057,229015000.603869,-318952628.234401,0.001697,0.001738,-0.006009
-2.300000,1.900000,0.100145,0.040000,-14580.111648,-1893264185.224396,1234736455.076440,535554221.879367,-0.031948,0.026985,0.010090
-2.260000,1.900000,0.101044,0.040000,-10756.141292,1825759612.839762,94092192.054966,-3584846565.059657,0.023547,-0.009079,-0.067541
-2.260000,1.940000,0.061725,0.040000,-4538600.311168,6319166297.148151,1638912730.610061,-6651941297.803265,0.074076,-0.014102,-0.125326
-2.300000,1.940000,0.060242,0.040000,1088237.277941,-5451268570.869421,5560776703.863752,-1753537678.001238,-0.103324,0.104149,-0.033038
-2.220000,1.900000,0.100098,0.040000,594170.985256,3816478534.825887,-4052217551.363137,2082770414.634548,0.073237,-0.075014,0.039241
-2.180000,1.900000,0.100158,0.040000,-2159328.757167,-2061845587.072927,5763761537.250640,2574760987.556933,-0.059770,0.087669,0.048510
-2.180000,1.940000,0.060263,0.040000,-17609190.840257,666744082.909746,21695562558.891304,1928807953.658413,-0.113834,0.282361,0.036340
-2.220000,1.940000,0.060163,0.040000,11938522.131731,7888217163.072836,-15619534731.107191,4898208252.047731,0.192317,-0.250582,0.092285
-2.140000,1.900000,0.101010,0.040000,2169501.637416,2606490441.646611,-1159416186.358702,-8454779126.339234,0.040929,-0.030023,-0.159293
-2.100000,1.900000,0.100088,0.040000,4669994.999669,8223471631.588479,-12624359830.338631,5688214595.420378,0.179810,-0.212976,0.107169
-2.100000,1.940000,0.060146,0.040000,39845366.839241,8905104248.511215,-45234351781.942909,10836494271.938292,0.373117,-0.646902,0.204166
-2.140000,1.940000,0.061669,0.040000,1970557.227116,6949541083.778650,2619647438.217164,-12623242467.528343,0.076847,-0.004731,-0.237829
-2.060000,1.900000,0.100172,0.040000,-9156070.559057,-7825608010.937049,10263930049.798330,13664961975.399797,-0.161221,0.179597,0.257456
-2.020000,1.900000,0.100977,0.040000,-8219845.427901,-12629651658.456293,17893925729.290386,-12873788785.563665,-0.267705,0.307377,-0.242550
-2.020000,1.940000,0.061614,0.040000,-52773541.364032,-15780260092.254496,58358001210.077141,-22173309946.267113,-0.537966,0.858842,-0.417758
-2.060000,1.940000,0.060286,0.040000,-37001426.243231,-9610608223.406834,27248037945.793983,24458335965.617382,-0.280759,0.413679,0.460809
-1.980000,1.900000,0.100078,0.040000,16327863.486999,12133019153.126467,-13926474229.154917,-20887756094.810211,0.238730,-0.252246,-0.393537
-1.940000,1.900000,0.100186,0.040000,21074901.754320,22852995069.289371,-27555078666.646271,10320194443.868498,0.457141,-0.492577,0.194438
-1.940000,1.940000,0.060310,0.040000,89366880.594965,33362854782.332050,-75655962983.592728,16922892909.648539,0.867624,-1.186354,0.318837
-1.980000,1.940000,0.060130,0.040000,53906692.266492,17398108140.633293,-34596426935.037033,-40013992099.210403,0.424998,-0.554609,-0.753887
-1.900000,1.900000,0.100944,0.040000,-12094756.844031,-2396554038.558512,2468208684.827727,31064127980.062336,-0.045557,0.046097,0.585266
-1.860000,1.900000,0.100069,0.040000,-41118578.755711,-28817456260.221863,33003050267.797100,9718562294.821144,-0.566595,0.598139,0.183103
-1.860000,1.940000,0.060115,0.040000,-128214068.517235,-41575477881.188423,79546740570.620438,20053798400.122944,-0.997926,1.284087,0.377825
-1.900000,1.940000,0.061560,0.040000,-22732372.262732,-2328544394.431892,2730989820.446957,57720238525.495178,-0.046146,0.049179,1.087483
-1.820000,1.900000,0.100201,0.040000,-22930961.487782,-21668781779.945038,24469831684.145782,-26200544013.907642,-0.424084,0.445194,-0.493633
-1.780000,1.900000,0.100912,0.040000,30254599.038039,10666624384.567631,-11954345440.790871,-35140196025.886879,0.208244,-0.217948,-0.662062
-1.780000,1.940000,0.061507,0.040000,67536158.954859,14170382788.618097,-25364673331.317284,-62650799852.453476,0.330250,-0.414613,-1.180377
-1.820000,1.940000,0.060335,0.040000,-83987106.395473,-32489353653.563580,58507233109.188072,-45631503653.190453,-0.759176,0.955253,-0.859724
-1.740000,1.900000,0.100060,0.040000,65752713.058816,34206835463.710571,-37713087408.198586,-9377250358.716362,0.664295,-0.690718,-0.176673
-1.700000,1.900000,0.100217,0.040000,45724003.999084,27803940384.826302,-30280344033.813057,25295024990.925571,0.537839,-0.556502,0.476573
-1.700000,1.940000,0.060360,0.040000,128204527.890116,40240264749.517410,-63404773118.901871,42239665942.385162,0.889080,-1.063653,0.795820
-1.740000,1.940000,0.060100,0.040000,171479089.459197,48799138810.610809,-81056500861.551208,-17742727976.565979,1.101728,-1.344827,-0.334283
-1.660000,1.900000,0.100880,0.040000,-19169647.531048,-1237569922.957059,1437500049.788291,39779786182.618935,-0.024447,0.025953,0.749474
-1.620000,1.900000,0.100052,0.040000,-81956479.236726,-29440949433.933342,31710054011.237740,25174822688.499714,-0.567510,0.584610,0.474308
-1.620000,1.940000,0.060087,0.040000,-179623177.942239,-40899381692.956032,62181867816.045815,41993646211.705826,-0.890860,1.051250,0.791185
-1.660000,1.940000,0.061455,0.040000,-28505865.121073,-995465294.037805,2702321626.973682,66722451493.854317,-0.028403,0.041266,1.257090
-1.580000,1.900000,0.100233,0.040000,-97150860.382125,-37761290468.482254,40379848711.522713,-5790164124.618422,-0.726245,0.745979,-0.109090
-1.540000,1.900000,0.100848,0.040000,-51269733.324207,-23012807558.790802,24448718114.479939,-32380983854.462517,-0.441691,0.452512,-0.610077
-1.540000,1.940000,0.061404,0.040000,-124114874.448476,-31839240501.185070,45032737336.480721,-51541729421.323395,-0.674442,0.773871,-0.971076
-1.580000,1.940000,0.060387,0.040000,-219875682.687016,-52465161035.784393,76929212350.522049,-9008787814.598856,-1.126749,1.311116,-0.169731
-1.500000,1.900000,0.100045,0.040000,31940360.791598,4061641638.062572,-4404397354.273420,-40120023228.607140,0.078461,-0.081044,-0.755884
-1.460000,1.900000,0.100249,0.040000,108633313.844088,28138448392.638908,-29824664958.737431,-27182126758.257198,0.539675,-0.552383,-0.512127
-1.460000,1.940000,0.060415,0.040000,209987479.110280,37804531016.827171,-53413578071.847092,-42129704098.552010,0.800484,-0.918118,-0.793748
-1.500000,1.940000,0.060075,0.040000,50702037.453090,5317254344.516719,-8597248558.961582,-63072911669.337883,0.118719,-0.143438,-1.188330
-1.420000,1.900000,0.100818,0.040000,139704806.483717,38106187836.624794,-40135836584.304329,-2043331856.540376,0.729415,-0.744711,-0.038498
-1.380000,1.900000,0.100038,0.040000,109036974.686887,31080348050.677361,-32483396479.457424,22878351579.352230,0.593502,-0.604076,0.431041
-1.380000,1.940000,0.060063,0.040000,218711604.338996,41536637574.231552,-55102185182.020966,34650686981.605667,0.859249,-0.961482,0.652839
-1.420000,1.940000,0.061353,0.040000,275346687.178119,51034402442.488655,-69884302863.696075,-3106293294.185793,1.068061,-1.210118,-0.058524
-1.340000,1.900000,0.100266,0.040000,28190402.673644,11669084200.183750,-12026546459.493021,37391453649.522110,0.221873,-0.224567,0.704477
-1.300000,1.900000,0.100788,0.040000,-71361111.174664,-11383348958.012671,11999697742.623491,36998223710.841927,-0.217953,0.222598,0.697068
-1.300000,1.940000,0.061304,0.040000,-118286394.777842,-14961683332.433363,20668482498.373375,54690329110.779594,-0.314143,0.357150,1.030398
-1.340000,1.940000,0.060443,0.040000,66737107.959890,15650735287.239096,-19472022127.647762,55985644364.124817,0.316468,-0.345266,1.054802
-1.260000,1.900000,0.100032,0.040000,-152500601.844697,-29277718075.548321,30496051674.002594,23420613690.722221,-0.558495,0.567677,0.441258
-1.220000,1.900000,0.100284,0.040000,-186434011.846228,-36443705264.704308,37833385917.533493,2798305023.068681,-0.694475,0.704948,0.052722
-1.220000,1.940000,0.060473,0.040000,-329502702.030915,-47340617749.650612,60792933500.043327,3641339431.545049,-0.967960,1.069339,0.068605
-1.260000,1.940000,0.060053,0.040000,-267223328.492858,-38377051209.568657,50253835128.965248,34035873960.906967,-0.790176,0.879682,0.641256
-1.180000,1.900000,0.100758,0.040000,-161508604.857767,-31839811444.702019,32960998923.515720,-17531721518.125107,-0.606218,0.614667,-0.330308
-1.140000,1.900000,0.100026,0.040000,-85083350.749899,-18165194572.651508,18689793516.216747,-31586946749.759560,-0.345208,0.349161,-0.595116
-1.140000,1.940000,0.060043,0.040000,-156152366.131961,-23219354659.633469,28493232850.900799,-45105391837.857704,-0.467275,0.507020,-0.849812
-1.180000,1.940000,0.061255,0.040000,-287216310.775995,-40979257698.318459,51738074086.887817,-25496376591.202068,-0.832884,0.913965,-0.480367
-1.100000,1.900000,0.100303,0.040000,20666537.368679,-134457383.363267,11821664.897511,-36179541188.177063,-0.001840,0.000916,-0.681644
-1.060000,1.900000,0.100729,0.040000,126538407.688881,17090501719.390299,-17716486735.356071,-30983931589.556866,0.325533,-0.330251,-0.583755
-1.060000,1.940000,0.061207,0.040000,201118713.935396,21856094830.453526,-27838423395.675037,-43227400140.868706,0.445595,-0.490679,-0.814429
-1.100000,1.940000,0.060503,0.040000,23409669.397791,-137489595.158959,-775465356.876785,-51061374325.030449,0.002570,-0.009450,-0.962026
-1.020000,1.900000,0.100021,0.040000,204810822.201743,29139152824.000511,-30037136485.706192,-18227396352.482224,0.554074,-0.560842,-0.343415
-0.980000,1.900000,0.100321,0.040000,236111068.901102,33542293890.177704,-34513089159.835449,-1829794112.927306,0.637443,-0.644760,-0.034474
-0.980000,1.940000,0.060534,0.040000,382693436.692173,42240859983.187279,-51806693653.070053,-2051621325.085062,0.849910,-0.922000,-0.038654
-1.020000,1.940000,0.060035,0.040000,331071080.978474,37017756666.272972,-45970028328.160957,-24984467818.585175,0.748036,-0.815502,-0.470722
-0.940000,1.900000,0.100700,0.040000,213260494.013744,30102379407.340073,-30922297486.639149,14067952859.114996,0.571781,-0.577960,0.265048
-0.900000,1.900000,0.100016,0.040000,141756784.075967,20368855286.478127,-20846594973.572304,26085060688.388058,0.386461,-0.390062,0.491458
-0.900000,1.940000,0.060027,0.040000,232053243.435950,25300384426.537518,-30164848092.816433,35787974589.162773,0.504169,-0.540828,0.674266
-0.940000,1.940000,0.061160,0.040000,346132120.436177,37599816462.073318,-45601796531.363754,19669152275.664082,0.753631,-0.813936,0.370578
-0.860000,1.900000,0.100341,0.040000,37390103.318300,6865987310.180834,-6959915622.185854,32151247402.597401,0.129890,-0.130598,0.605748
-0.820000,1.900000,0.100672,0.040000,-77995064.138983,-7430668818.604004,7679008551.206257,31483537805.665222,-0.141402,0.143273,0.593168
-0.820000,1.940000,0.061114,0.040000,-113820067.471438,-9429196727.651989,11851786742.605087,42383683283.734573,-0.191344,0.209602,0.798533
-0.860000,1.940000,0.060566,0.040000,67002726.051900,8432534994.657329,-9536399360.339231,43680226025.662369,0.165113,-0.173432,0.822961
-0.780000,1.900000,0.100012,0.040000,-181413753.267834,-19591654496.485252,20101124574.491909,24735769419.469482,-0.371998,0.375837,0.466036
-0.740000,1.900000,0.100361,0.040000,-253265948.859526,-27507976554.661339,28190749106.425369,13789580237.891127,-0.522125,0.527271,0.259804
-0.740000,1.940000,0.060600,0.040000,-385002499.245966,-33926076498.724892,40665140786.604828,18034660555.834015,-0.677277,0.728064,0.339783
-0.780000,1.940000,0.060020,0.040000,-274436522.875448,-24407822585.155872,29559034671.950890,32927407424.632824,-0.488973,0.527794,0.620371
-0.700000,1.900000,0.100645,0.040000,-280695079.665329,-30197567674.905499,30907983458.596275,920264597.498236,-0.572955,0.578309,0.017338
-0.660000,1.900000,0.100009,0.040000,-259355262.641205,-27598372548.574879,28187931256.719440,-11565737573.835554,-0.523302,0.527745,-0.217905
-0.660000,1.940000,0.060014,0.040000,-393895728.723747,-33764896394.356274,39773410082.691185,-15623100623.831190,-0.670111,0.715393,-0.294348
-0.700000,1.940000,0.061069,0.040000,-426672075.247933,-37050091828.276428,44041751901.649200,879525171.674114,-0.737563,0.790254,0.016571
-0.620000,1.900000,0.100381,0.040000,-193513675.595845,-20444508612.529568,20857653073.835033,-21625039010.808342,-0.387522,0.390635,-0.407428
-0.580000,1.900000,0.100618,0.040000,-94707897.840859,-10213273432.215919,10405820183.290823,-27710788860.765587,-0.193512,0.194963,-0.522087
-0.580000,1.940000,0.061025,0.040000,-145655711.024957,-12228257139.851223,14075926197.914322,-36549581217.335358,-0.240831,0.254755,-0.688615
-0.620000,1.940000,0.060634,0.040000,-294164669.722372,-24884947816.913406,29058104302.461193,-28792366536.816658,-0.492434,0.523884,-0.542465
-0.540000,1.900000,0.100006,0.040000,20632892.684663,1174878515.709002,-1231332473.478182,-29126787291.083294,0.022454,-0.022880,-0.548766
-0.500000,1.900000,0.100403,0.040000,134104811.721548,11935608710.415438,-12220861989.219347,-26079632553.829540,0.226486,-0.228636,-0.491355
-0.500000,1.940000,0.060669,0.040000,194882675.726410,14573974947.145189,-17390044041.210499,-33933829811.211807,0.290499,-0.311722,-0.639333
-0.540000,1.940000,0.060010,0.040000,26543626.269929,1617333598.473314,-2229787194.782582,-38128957898.934174,0.033933,-0.038549,-0.718372
-0.460000,1.900000,0.100592,0.040000,228280111.190688,20581477310.850063,-21023490143.565598,-19210521588.822968,0.390265,-0.393596,-0.361937
-0.420000,1.900000,0.100004,0.040000,289259493.668092,25892144002.495094,-26407901770.372948,-9686088493.823683,0.490738,-0.494625,-0.182492
-0.420000,1.940000,0.060006,0.040000,422879894.864818,31409124244.003315,-36712561506.215485,-12335815440.245773,0.621742,-0.661710,-0.232414
-0.460000,1.940000,0.060982,0.040000,333699709.266137,25046161367.413235,-29479676144.915825,-24848123087.770557,0.496943,-0.530355,-0.468153
-0.380000,1.900000,0.100424,0.040000,308509778.659720,27234251778.396248,-27778195453.947819,910085740.874043,0.516184,-0.520283,0.017147
-0.340000,1.900000,0.100566,0.040000,283806887.884539,24679101142.801834,-25166819545.662277,11016468721.227089,0.467725,-0.471401,0.207557
-0.340000,1.940000,0.060939,0.040000,413564200.167743,29663586270.220139,-34444439652.046661,14461388336.889587,0.585901,-0.621931,0.272461
-0.380000,1.940000,0.060705,0.040000,450403536.150028,32870749389.502861,-38293154256.736389,1466185898.948542,0.649952,-0.690817,0.027624
-0.300000,1.900000,0.100002,0.040000,219240239.690238,18792735365.965321,-19140549917.579762,19300908241.972420,0.356032,-0.358653,0.363640
-0.260000,1.900000,0.100447,0.040000,124360806.659134,10439802048.868023,-10627306384.514019,24764396327.650215,0.197752,-0.199165,0.466576
-0.260000,1.940000,0.060741,0.040000,180438454.071938,12492539709.572113,-14314119521.448984,32050878651.618816,0.245663,-0.259390,0.603857
-0.300000,1.940000,0.060003,0.040000,318819798.183643,22565825799.473991,-26058240652.613556,25078765882.375553,0.444893,-0.471213,0.472498
-0.220000,1.900000,0.100541,0.040000,12651362.531669,817073817.336450,-832342511.154619,26678807380.904491,0.015480,-0.015596,0.502644
-0.180000,1.900000,0.100001,0.040000,-100437585.285564,-8650279749.464186,8812046096.211950,24907146655.156185,-0.163891,0.165110,0.469265
-0.180000,1.940000,0.060001,0.040000,-145414341.053670,-10510631405.398884,12295509807.457905,31982881379.707088,-0.208115,0.221566,0.602576
-0.220000,1.940000,0.060898,0.040000,18211207.510911,821339612.201135,-813719956.355729,34394085590.780319,0.015431,-0.015374,0.648005
-0.140000,1.900000,0.100469,0.040000,-199611329.130285,-16748193852.738667,17072044233.853662,19912167639.011295,-0.317376,0.319817,0.375157
-0.100000,1.900000,0.100517,0.040000,-271744119.085052,-22530457668.812977,22955148614.577156,12357126674.553169,-0.426887,0.430088,0.232815
-0.100000,1.940000,0.060857,0.040000,-391895406.759729,-27085242319.847084,31395475502.650124,15778536362.172003,-0.534664,0.567147,0.297277
-0.140000,1.940000,0.060779,0.040000,-288384107.865580,-20134621873.222534,23426079235.564751,25490399939.294178,-0.397952,0.422757,0.480254
-0.060000,1.900000,0.100000,0.040000,-307541586.694331,-25236888199.503216,25696688783.338898,3242547352.217044,-0.478076,0.481542,0.061091
-0.020000,1.900000,0.100493,0.040000,-302664466.522349,-24529628862.259090,24994431905.228191,-6165472454.096231,-0.464780,0.468282,-0.116161
-0.020000,1.940000,0.060818,0.040000,-434842090.264580,-29400182228.473351,33997484291.977825,-8060332099.109257,-0.579901,0.614548,-0.151861
-0.060000,1.940000,0.060000,0.040000,-442735438.641227,-30325820198.828465,35066397436.721886,4032625530.537372,-0.598151,0.633877,0.075977
0.020000,1.900000,0.100493,0.040000,-258198413.683274,-20605908464.670944,21006252268.593475,-14614424525.933147,-0.390490,0.393507,-0.275344
0.060000,1.900000,0.100000,0.040000,-180433699.550572,-14049643253.326216,14318691740.208235,-21061769259.652393,-0.266224,0.268252,-0.396816
0.060000,1.940000,0.060000,0.040000,-257161245.859006,-16827683083.894924,19430781889.418755,-27090154286.505329,-0.331756,0.351374,-0.510394
0.020000,1.940000,0.060818,0.040000,-369931900.501187,-24636856763.327950,28493043980.168156,-18838949986.715317,-0.485969,0.515030,-0.354937
0.100000,1.900000,0.100517,0.040000,-79994524.477478,-5654094211.864753,5773917770.172134,-24741543886.099594,-0.107204,0.108107,-0.466145
0.140000,1.900000,0.100469,0.040000,29570707.354438,3497864607.452634,-3537218670.918801,-25071969273.823135,0.066124,-0.066421,-0.472370
0.140000,1.940000,0.060779,0.040000,46408272.879480,4287955301.582854,-4934793601.023780,-32243643863.224491,0.084444,-0.089318,-0.607489
0.100000,1.940000,0.060857,0.040000,-111873060.824063,-6774584286.283741,7815608080.342086,-31827553994.943123,-0.133521,0.141367,-0.599650
0.180000,1.900000,0.100001,0.040000,133567041.910042,12106100711.803574,-12308137895.478739,-22012932069.890999,0.229228,-0.230751,-0.414736
0.220000,1.900000,0.100541,0.040000,218082755.107621,19060825668.425743,-19414149305.746708,-16056016694.972176,0.361114,-0.363777,-0.302505
0.220000,1.940000,0.060898,0.040000,318343253.104391,22884957054.901421,-26520811851.146225,-20649902648.560734,0.451716,-0.479117,-0.389056
0.180000,1.940000,0.060001,0.040000,196506265.116044,14587926321.704233,-16860965079.139391,-28290215363.715836,0.287693,-0.304823,-0.533004
0.260000,1.900000,0.100447,0.040000,271836405.339356,23487139435.365135,-23929196891.301559,-7896242852.460442,0.445010,-0.448341,-0.148770
0.300000,1.900000,0.100002,0.040000,287711981.498155,24696727893.479797,-25162854214.963722,1426809673.859179,0.467935,-0.471448,0.026882
0.300000,1.940000,0.060003,0.040000,417810502.549991,29777456763.914833,-34561524227.061180,1846046264.628603,0.588065,-0.624119,0.034781
0.260000,1.940000,0.060741,0.040000,395575855.438477,28264004498.655125,-32773215925.778801,-10198696016.951221,0.557997,-0.591980,-0.192149
0.340000,1.900000,0.100566,0.040000,263779392.984400,22419946970.819092,-22876081353.564205,10612912409.774536,0.424983,-0.428420,0.199953
0.380000,1.900000,0.100424,0.040000,203651963.862188,16951509391.256321,-17321135412.732689,18334235916.023163,0.321465,-0.324251,0.345428
0.380000,1.940000,0.060705,0.040000,293520522.012501,20418129119.817696,-23888133806.596977,23732337063.997482,0.404302,-0.430453,0.447131
0.340000,1.940000,0.060939,0.040000,382101508.848671,27022868393.283382,-31473807991.638695,13744549030.357479,0.534284,-0.567827,0.258955
0.420000,1.900000,0.100004,0.040000,116104741.055815,9031888464.010040,-9244789786.519049,23504150006.130051,0.171369,-0.172974,0.442832
0.460000,1.900000,0.100592,0.040000,13962990.641583,-347669080.689580,315469251.848617,25357441534.385048,-0.006368,0.006126,0.477749
0.460000,1.940000,0.060982,0.040000,14195912.249360,-365578904.384983,285292789.340483,33031766002.126858,-0.006434,0.005829,0.622338
0.420000,1.940000,0.060006,0.040000,164678761.995644,10949363349.853922,-12886134791.709036,30501740852.281116,0.217239,-0.231835,0.574670
0.500000,1.900000,0.100403,0.040000,-87633984.621537,-9866877823.493860,10020189428.170128,23386705410.668961,-0.186764,0.187920,0.440619
0.540000,1.900000,0.100006,0.040000,-173394547.827081,-17989265991.705765,18321990539.496269,17756121073.405918,-0.340809,0.343316,0.334536
0.540000,1.940000,0.060010,0.040000,-262554011.822506,-21863124139.542839,25492682136.715015,23287070591.644634,-0.432429,0.459782,0.438742
0.500000,1.940000,0.060669,0.040000,-135755841.852069,-11993882004.705748,13851769256.971432,30575149471.004913,-0.236473,0.250474,0.576054
0.580000,1.900000,0.100618,0.040000,-230187953.406495,-23418965148.212238,23908092612.512074,9275966900.892101,-0.443992,0.447678,0.174765
0.620000,1.900000,0.100381,0.040000,-249179336.123189,-25235776038.552094,25788052738.105175,-889397379.664702,-0.478578,0.482740,-0.016757
0.620000,1.940000,0.060634,0.040000,-374125020.333762,-30795853361.228222,36323044990.267220,-1030409382.092650,-0.611452,0.653107,-0.019414
0.580000,1.940000,0.061025,0.040000,-346521866.435170,-28468521938.849083,33424524424.482407,12257088822.403193,-0.564376,0.601725,0.230931
0.660000,1.900000,0.100009,0.040000,-227443861.765481,-22917841522.589390,23438058880.397446,-11196985626.617531,-0.434726,0.438646,-0.210958
0.700000,1.900000,0.100645,0.040000,-168751309.683712,-16563094147.249271,16989353401.427252,-19887313897.187096,-0.314468,0.317680,-0.374689
0.700000,1.940000,0.061069,0.040000,-250699477.107753,-20366042395.385662,24377572992.796059,-26343020227.955681,-0.406382,0.436614,-0.496318
0.660000,1.940000,0.060014,0.040000,-340478828.582058,-28107610592.369232,33314583772.201874,-14697259210.645107,-0.558994,0.598235,-0.276905
0.740000,1.900000,0.100361,0.040000,-83296452.824663,-7095140350.379153,7333285835.112235,-25256991822.207615,-0.135023,0.136817,-0.475856
0.780000,1.900000,0.100012,0.040000,13708444.535341,3891299663.723180,-3917433422.851528,-26174542026.549271,0.073462,-0.073659,-0.493144
0.780000,1.940000,0.060020,0.040000,29594249.114996,4733337101.528498,-5322632561.671732,-35057436593.500496,0.092510,-0.096951,-0.660502
0.740000,1.940000,0.060600,0.040000,-119722437.526491,-8721263034.078074,10719118315.915474,-33627502194.153839,-0.175606,0.190662,-0.633562
0.820000,1.900000,0.100672,0.040000,104478698.012754,14509985744.195419,-14817891819.201780,-22237054297.291924,0.275117,-0.277437,-0.418959
0.860000,1.900000,0.100341,0.040000,171836789.459171,22694395807.903957,-23226668906.971794,-13747971547.288279,0.430584,-0.434595,-0.259020
0.860000,1.940000,0.060566,0.040000,274580493.863860,28196320595.292271,-33729765438.868851,-18786294256.568317,0.562511,-0.604212,-0.353945
0.820000,1.940000,0.061114,0.040000,169993228.262566,17866149039.987934,-21151062856.315990,-30026564433.420570,0.355176,-0.379931,-0.565718
0.900000,1.900000,0.100016,0.040000,202626110.076194,26496371957.540615,-27169439719.876732,-2086365279.384889,0.503011,-0.508084,-0.039308
0.940000,1.900000,0.100700,0.040000,190705167.854160,24735092581.735947,-25449480792.304535,10450445771.183914,0.470061,-0.475445,0.196892
0.940000,1.940000,0.061160,0.040000,302042157.852352,30961866721.411041,-37849835420.526985,14149304039.485897,0.622272,-0.674181,0.266581
0.900000,1.940000,0.060027,0.040000,322142966.705611,33081725530.438591,-39950322887.134155,-3007387142.327047,0.662101,-0.713865,-0.056661
0.980000,1.900000,0.100321,0.040000,138816056.731804,17424423517.009827,-17991594574.210354,21119120757.525764,0.331492,-0.335766,0.397896
1.020000,1.900000,0.100021,0.040000,58715158.498027,5811465049.004397,-6059790564.431131,27334787727.914738,0.110895,-0.112766,0.515003
1.020000,1.940000,0.060035,0.040000,86591730.079374,7430337616.974881,-9611207502.232372,37831077347.634277,0.152319,-0.168754,0.712759
0.980000,1.940000,0.060534,0.040000,217549703.072578,21893431725.801044,-27179757245.952366,28926876453.364922,0.442364,-0.482203,0.544999
1.060000,1.900000,0.100729,0.040000,-30785805.975556,-7750692023.880373,7906895816.348948,27199070681.440273,-0.146910,0.148088,0.512446
1.100000,1.900000,0.100303,0.040000,-107790517.754357,-19953717866.817394,20508507266.760967,20005460181.088360,-0.379075,0.383256,0.376914
1.100000,1.940000,0.060503,0.040000,-188626252.455633,-25465150419.891266,31263712818.725746,28323511770.244846,-0.512553,0.556252,0.533631
1.060000,1.940000,0.061207,0.040000,-60829350.847736,-9739096367.672733,11555311365.789942,38054166457.533707,-0.193756,0.207443,0.716963
1.140000,1.900000,0.100026,0.040000,-152674644.095065,-27238531594.625153,28106435254.212036,7025977567.028789,-0.518095,0.524636,0.132373
1.180000,1.900000,0.100758,0.040000,-153644690.585495,-27021425281.275898,28020059568.610611,-8529411155.341069,-0.514744,0.522270,-0.160699
1.180000,1.940000,0.061255,0.040000,-263334044.896975,-34765747651.338318,44273066097.183762,-12044979376.223007,-0.708744,0.780393,-0.226934
1.140000,1.940000,0.060043,0.040000,-263270643.724383,-34938011652.579483,43670809525.856789,10128624251.387173,-0.707612,0.773424,0.190829
1.220000,1.900000,0.100284,0.040000,-110918575.138444,-18689007400.959114,19476580424.323780,-22206671804.593903,-0.356563,0.362499,-0.418387
1.260000,1.900000,0.100032,0.040000,-37913734.578249,-4060456281.265909,4316354269.197333,-29468961211.725441,-0.077948,0.079876,-0.555212
1.260000,1.940000,0.060053,0.040000,-56990313.872961,-5326239213.336853,7556678557.381027,-42895125476.068687,-0.112956,0.129765,-0.808169
1.220000,1.940000,0.060473,0.040000,-187337814.873979,-24150745827.040016,31453478451.262554,-31896407294.294502,-0.496290,0.551325,-0.600947
1.300000,1.900000,0.100788,0.040000,41660106.085803,12656460766.748917,-13090311626.932419,-27124337141.008392,0.240907,-0.244177,-0.511038
1.340000,1.900000,0.100266,0.040000,100791166.135654,25600825816.455921,-26645828061.417896,-14788313682.624041,0.488241,-0.496116,-0.278620
1.340000,1.940000,0.060443,0.040000,194057615.640389,33903854068.458370,-44218322607.179039,-22152500503.929989,0.697067,-0.774800,-0.417366
1.300000,1.940000,0.061304,0.040000,86546079.261653,16582553074.417734,-20962211128.409611,-40021707130.758881,0.337180,-0.370186,-0.754032
1.380000,1.900000,0.100038,0.040000,118653219.249294,29183787065.190102,-30535648493.725712,3897073222.968957,0.557480,-0.567668,0.073423
1.420000,1.900000,0.100818,0.040000,89427682.558013,20805833994.901955,-21961718711.726849,21819165159.979504,0.398527,-0.407238,0.411086
1.420000,1.940000,0.061353,0.040000,166620253.552339,27700528657.764736,-38291702057.700584,33284194824.557331,0.581757,-0.661575,0.627094
1.380000,1.940000,0.060063,0.040000,225331415.620536,38861761570.755363,-51934077302.725479,5833192627.223074,0.806065,-0.904581,0.109901
1.460000,1.900000,0.100249,0.040000,26470344.528951,2931842860.009976,-3255676269.055820,30809943074.350040,0.057068,-0.059508,0.580477
1.500000,1.900000,0.100045,0.040000,-41416484.159441,-16904188396.545351,17781299823.291042,25523642664.433392,-0.323442,0.330052,0.480880
1.500000,1.940000,0.060075,0.040000,-96075375.949753,-23171577064.782673,31662482678.513351,39788878596.211227,-0.484558,0.548547,0.749646
1.460000,1.940000,0.060415,0.040000,40951186.842821,3628547009.636597,-6157687573.098694,47533825498.162567,0.082659,-0.101719,0.895565
1.540000,1.900000,0.100848,0.040000,-82016770.670421,-28740723395.719387,30571808203.683773,7000066033.342775,-0.551841,0.565641,0.131885
1.580000,1.900000,0.100233,0.040000,-75993065.001308,-25115065247.213806,26907573858.801987,-16053194371.086397,-0.483314,0.496823,-0.302451
1.580000,1.940000,0.060387,0.040000,-161066281.988642,-34430784161.969238,50874103336.506790,-26057402345.058498,-0.741636,0.865557,-0.490937
1.540000,1.940000,0.061404,0.040000,-178000879.314497,-39315546425.901566,56149441027.444641,10888957677.421654,-0.835876,0.962740,0.205154
1.620000,1.900000,0.100052,0.040000,-29207183.852048,-6426189956.775804,6965584730.542179,-30207379337.659073,-0.124122,0.128187,-0.569125
1.660000,1.900000,0.100880,0.040000,27969527.561145,16737924409.291985,-18081735155.498737,-25030570878.250534,0.322948,-0.333075,-0.471590
1.660000,1.940000,0.061455,0.040000,77964753.961209,23820579880.803047,-36048165974.606514,-41327342377.167847,0.517906,-0.610056,-0.778631
1.620000,1.940000,0.060087,0.040000,-53872617.605859,-8615735866.445503,13638957638.413853,-49485509390.182320,-0.190718,0.228574,-0.932336
1.700000,1.900000,0.100217,0.040000,57964101.445509,28224565923.238743,-30747827635.358269,-1970661637.521867,0.546029,-0.565045,-0.037128
1.740000,1.900000,0.100060,0.040000,42193699.691620,17863256875.325809,-19617136720.560299,22736139167.548100,0.346467,-0.359685,0.428362
1.740000,1.940000,0.060100,0.040000,99951622.226464,25083168288.332195,-41349323088.866028,39799950240.793465,0.564521,-0.687106,0.749854
1.700000,1.940000,0.060360,0.040000,145768417.111293,40030182747.811157,-63262379263.089203,-2625038423.587758,0.885504,-1.060587,-0.049457
1.780000,1.900000,0.100912,0.040000,-2547067.785404,-7314848705.864643,8172530033.182564,27906943782.150009,-0.142664,0.149127,0.525783
1.820000,1.900000,0.100201,0.040000,-35410550.747962,-24657097916.021629,27751436231.249737,6951348179.212420,-0.482044,0.505363,0.130967
1.820000,1.940000,0.060335,0.040000,-108522580.792170,-35895897798.115875,64083153473.646919,11045652444.391304,-0.835619,1.048044,0.208106
1.780000,1.940000,0.061507,0.040000,-21160195.340024,-11188618223.264990,18872116262.485874,48657584062.734970,-0.254229,0.312133,0.916737
1.860000,1.900000,0.100069,0.040000,-28122046.785129,-15909970400.080914,17989260532.059967,-20065573988.273426,-0.311506,0.327176,-0.378047
1.900000,1.900000,0.100944,0.040000,5138922.257037,9512807655.484472,-11461714404.635174,-22402378456.378895,0.190242,-0.204930,-0.422074
1.900000,1.940000,0.061560,0.040000,31618281.204040,14287218322.080290,-31105162880.148220,-40419880566.309433,0.364237,-0.490981,-0.761534
1.860000,1.940000,0.060115,0.040000,-77869898.591853,-22579451806.501476,41759594474.837906,-37498798552.429169,-0.533819,0.678365,-0.706499
1.940000,1.900000,0.100186,0.040000,22534968.260438,19759965340.562988,-23582097302.687336,3183358966.409796,0.393893,-0.422697,0.059976
1.980000,1.900000,0.100078,0.040000,6925977.510392,1992158184.610492,-1548084660.504813,20245248002.308590,0.035023,-0.031677,0.381432
1.980000,1.940000,0.060130,0.040000,13356780.360393,2857153940.756503,-46820130.368019,37618262798.515656,0.037946,-0.016767,0.708750
1.940000,1.940000,0.060310,0.040000,82913237.295868,28235118671.187027,-62003288329.735100,7790635938.974309,0.722830,-0.977314,0.146780
2.020000,1.900000,0.100977,0.040000,-11488079.001991,-13573804637.037031,18298934369.216629,3364553571.809011,-0.282446,0.318055,0.063390
2.060000,1.900000,0.100172,0.040000,-5146570.983424,-2164789374.510949,2588496952.342955,-14161452217.433998,-0.043181,0.046374,-0.266810
2.060000,1.940000,0.060286,0.040000,-13216860.012299,-2213797553.773505,2989187069.194541,-25478272428.720165,-0.046092,0.051935,-0.480025
2.020000,1.940000,0.061614,0.040000,-57853030.012115,-17467204672.159176,55698546938.014824,4440399070.425166,-0.545182,0.833303,0.083660
2.100000,1.900000,0.100088,0.040000,5729716.423709,8682083545.366402,-12072751372.614891,-756103963.517160,0.182740,-0.208293,-0.014245
2.140000,1.900000,0.101010,0.040000,697366.869134,584221360.416261,1985673033.513839,7438571028.601416,-0.003518,0.022886,0.140147
2.140000,1.940000,0.061669,0.040000,-7705638.742647,4724904184.470242,12750965948.406986,12194213695.905390,-0.009757,0.141459,0.229746
2.100000,1.940000,0.060146,0.040000,38457373.506920,10952246855.891661,-39951945639.004784,-2094300145.868218,0.370258,-0.588806,-0.039458
2.180000,1.900000,0.100158,0.040000,-1971115.497593,-1663275621.118119,4269923936.020845,-3567362796.135029,-0.046070,0.065715,-0.067211
2.220000,1.900000,0.100098,0.040000,739018.586006,3829289107.330405,-3986876736.315167,-1133329991.988932,0.073037,-0.074224,-0.021353
2.220000,1.940000,0.060163,0.040000,10848426.926978,7865812134.828097,-15102089561.990047,-3394353315.580524,0.189097,-0.243631,-0.063952
2.180000,1.940000,0.060263,0.040000,-12209444.987147,57819968.701587,15042729945.036732,-4361074352.819735,-0.084262,0.198063,-0.082165
2.260000,1.900000,0.101044,0.040000,-80692.900546,1120535638.534133,480898708.794743,3139894254.170883,0.012060,0.000009,0.059157
2.300000,1.900000,0.100145,0.040000,-12042.046983,-1745624552.970429,1031003362.825151,-614255040.740159,-0.028849,0.023464,-0.011573
2.300000,1.940000,0.060242,0.040000,1173708.558520,-5200870474.125100,4239559159.098506,878204892.639515,-0.092554,0.085309,0.016546
2.260000,1.940000,0.061725,0.040000,-4620428.084226,4526543025.095978,3298788836.699993,6478213980.566206,0.041053,0.017921,0.122053
2.340000,1.900000,0.100109,0.040000,8190.262048,39737158.444814,-455766461.082884,-466109240.251269,0.003100,-0.006235,-0.008782
2.380000,1.900000,0.101079,0.040000,1962.937046,74685181.246176,46781549.106685,106252582.969226,0.000721,0.000195,0.002002
2.380000,1.940000,0.061782,0.040000,18354.991167,234416843.473522,186441038.473043,290075342.890164,0.002038,0.001134,0.005465
2.340000,1.940000,0.060182,0.040000,-174007.739727,-17329598.211831,-2499915307.674790,-2248765513.649051,0.013901,-0.032872,-0.042368
2.420000,1.900000,0.080125,0.040000,3466.376917,-386906341.237409,-474682460.834303,-800891719.705865,-0.002420,-0.004073,-0.015089
2.460000,1.900000,0.040250,0.040000,-12241.591641,-3239725058.035439,-1751715824.308954,-3624314404.294140,-0.032826,-0.004791,-0.068284
2.460000,1.940000,0.042590,0.040000,3591.550703,-217240107.522801,-12625593.416782,-170787123.637115,-0.002794,0.001061,-0.003218
2.420000,1.940000,0.060221,0.040000,2098.917474,-20028790.829715,81517745.366840,50647542.477984,-0.000725,0.001188,0.000954
2.500000,1.900000,0.004478,0.040000,543686.093297,-7541304969.073940,-4326734023.324080,-5659840426.270693,-0.075002,-0.014438,-0.106635
2.500000,1.940000,0.014627,0.040000,-43053.727127,-1358365972.008710,-662295650.982752,-480234815.966104,-0.014171,-0.001057,-0.009048
-2.500000,1.980000,0.005075,0.040000,9096.258126,571568193.901275,31113144.394873,-114589011.394055,0.007362,-0.002820,-0.002159
-2.460000,1.980000,0.020594,0.040000,8619.753586,135331792.156517,-14241180.791526,-37868942.249474,0.001865,-0.000953,-0.000713
-2.420000,1.980000,0.020652,0.040000,29367.179674,169194631.504112,192110531.376900,-130443467.789448,0.001146,0.001577,-0.002458
-2.380000,1.980000,0.024839,0.040000,-400572.427193,-72488488.653153,352226204.800891,-325886325.753380,-0.002947,0.005055,-0.006140
-2.340000,1.980000,0.020538,0.040000,2427530.853857,-2580748919.811959,-6634043397.149020,3914020227.250302,0.003461,-0.072906,0.073742
-2.300000,1.980000,0.020713,0.040000,5627745.418597,8816533970.616922,8937459135.605923,-2786004714.856226,0.065760,0.068038,-0.052490
-2.260000,1.980000,0.024698,0.040000,-86883566.845382,-33361179524.242737,29635079381.021717,-11144584089.554409,-0.607483,0.579403,-0.209970
-2.220000,1.980000,0.020485,0.040000,205778992.423489,71454101634.735153,-82583891530.635498,6915968150.104040,1.409144,-1.493021,0.130301
-2.180000,1.980000,0.020777,0.040000,-141953680.938454,-37449804298.493080,73917173592.123489,4289504645.568009,-0.911696,1.186522,0.080817
-2.140000,1.980000,0.024558,0.040000,-46021013.390342,-16060214751.021290,25112198562.953896,-18633940894.791630,-0.353747,0.421965,-0.351074
-2.100000,1.980000,0.020435,0.040000,289937162.690587,81442624835.540222,-142914223869.661865,14936578497.439304,1.881874,-2.345139,0.281414
-2.060000,1.980000,0.020843,0.040000,-161063041.101903,-39120550588.167427,70164708089.968689,36005961595.742546,-0.912521,1.146477,0.678373
-2.020000,1.980000,0.024420,0.040000,-277673665.066865,-63452511718.110733,151420119479.768768,-30701143958.266060,-1.692690,2.355635,-0.578427
-1.980000,1.980000,0.020387,0.040000,200885665.664842,44946133931.649063,-81513252499.988663,-57048300776.060951,1.053495,-1.329073,-1.074823
-1.940000,1.980000,0.020912,0.040000,359110863.854701,76552164830.135468,-174278487206.884033,22699269975.658054,1.994653,-2.731142,0.427667
-1.900000,1.980000,0.024283,0.040000,-46437625.343235,-6908572102.398709,5113006999.148533,80086546840.842361,-0.120013,0.106481,1.508877
-1.860000,1.980000,0.020342,0.040000,-407032129.482432,-77837651869.617630,167943567962.006470,28505661526.092770,-1.975801,2.654860,0.537063
-1.820000,1.980000,0.020983,0.040000,-276681520.913650,-54402371363.106125,119449309461.636246,-61347395463.502632,-1.392629,1.882838,-1.155820
-1.780000,1.980000,0.024148,0.040000,165149057.807081,25679257983.863480,-50861494160.577904,-84511060538.717621,0.626146,-0.815926,-1.592237
-1.740000,1.980000,0.020299,0.040000,452236830.606886,76533842216.669617,-155733504702.969025,-24228607117.183613,1.889592,-2.486459,-0.456481
-1.700000,1.980000,0.021057,0.040000,341838678.297882,59242419946.557556,-117657365379.645935,55476968756.636902,1.446333,-1.886562,1.045218
-1.660000,1.980000,0.024015,0.040000,-47687948.288361,-3500934076.178957,6854365864.588081,87412029049.217148,-0.084914,0.110186,1.646893
-1.620000,1.980000,0.020260,0.040000,-405174592.561707,-59066168163.897079,111981399600.415375,54639984229.739235,-1.411927,1.810708,1.029449
-1.580000,1.980000,0.021133,0.040000,-494220679.247413,-72498333986.903336,133538002666.803223,-11625482479.888624,-1.710917,2.170927,-0.219031
-1.540000,1.980000,0.023883,0.040000,-281168292.999296,-42055429200.019951,74729265280.913284,-65950559203.195786,-0.977027,1.223264,-1.242547
-1.500000,1.980000,0.020223,0.040000,89753176.849498,8622598018.202284,-16791518802.437862,-79994033610.346832,0.208627,-0.270190,-1.507134
-1.460000,1.980000,0.021211,0.040000,413215716.143097,50355302310.541443,-88736471983.441177,-52951597931.573578,1.165660,-1.454910,-0.997639
-1.420000,1.980000,0.023753,0.040000,541917725.095632,66418903354.609871,-112861264782.419189,-3743342869.918081,1.513871,-1.863871,-0.070527
-1.380000,1.980000,0.020189,0.040000,429628503.417957,52472762418.761871,-86549183444.074158,43262644182.180550,1.181223,-1.438031,0.815093
-1.340000,1.980000,0.021292,0.040000,141132881.611051,19237232676.447369,-29316372507.805626,69428169195.156265,0.419410,-0.495368,1.308067
-1.300000,1.980000,0.023625,0.040000,-205284117.925882,-19855966414.379784,33974004128.844002,67358550057.839973,-0.453896,0.560292,1.269074
-1.260000,1.980000,0.020158,0.040000,-475258702.558424,-48353784628.932312,78275676578.899414,41481368860.440506,-1.080137,1.305635,0.781533
-1.220000,1.980000,0.021376,0.040000,-582872418.698591,-58554390040.908180,92041179141.582733,4075145263.901304,-1.292472,1.544836,0.076778
-1.180000,1.980000,0.023498,0.040000,-504974745.402607,-49906382406.363449,76338704357.709122,-31233278267.783302,-1.089665,1.288865,-0.588453
-1.140000,1.980000,0.020129,0.040000,-276880158.199509,-27544818410.574699,40684200563.026299,-54625352004.037750,-0.593226,0.692248,-1.029173
-1.100000,1.980000,0.021462,0.040000,27309666.944611,178017925.740143,-2142615638.389531,-61466620889.736305,0.014458,-0.029264,-1.158067
-1.060000,1.980000,0.023373,0.040000,326623334.788931,27030296110.930767,-41871592586.688828,-51730818917.571167,0.593152,-0.704999,-0.974639
-1.020000,1.980000,0.020103,0.040000,539807894.846455,44656284119.436874,-67166675341.396637,-29576798539.886154,0.968583,-1.138226,-0.557244
-0.980000,1.980000,0.021550,0.040000,620807160.742760,50400764469.507072,-74095902117.694809,-2082984179.031744,1.083509,-1.262081,-0.039245
-0.940000,1.980000,0.023250,0.040000,558448327.569220,44393893610.736259,-63952810784.571274,23615046428.346588,0.946957,-1.094358,0.444921
-0.900000,1.980000,0.020081,0.040000,374491837.007296,29430000890.395267,-41518286961.542267,42479906824.222801,0.622803,-0.713903,0.800346
-0.860000,1.980000,0.021640,0.040000,113752139.230669,9773617404.845377,-12693643112.969000,51600645096.897018,0.200645,-0.222651,0.972186
-0.820000,1.980000,0.023129,0.040000,-171661231.883908,-11657050204.109098,17762392733.483379,49834708561.465683,-0.254134,0.300145,0.938915
-0.780000,1.980000,0.020061,0.040000,-419872285.698703,-28893118327.549007,41847121267.010376,38444296157.487679,-0.617581,0.715206,0.724313
-0.740000,1.980000,0.021732,0.040000,-587231695.752921,-39633318073.752487,56166420635.505089,20843339079.534721,-0.840163,0.964760,0.392701
-0.700000,1.980000,0.023010,0.040000,-648967340.070372,-43144221178.878227,60237303781.489784,798700749.980741,-0.909475,1.038293,0.015048
-0.660000,1.980000,0.020043,0.040000,-597215957.303423,-38983866231.485474,53942228552.258095,-18408738190.452362,-0.819026,0.931756,-0.346831
-0.620000,1.980000,0.021827,0.040000,-445471642.886963,-28781787817.322147,39141749279.431442,-33686330383.142281,-0.600822,0.678897,-0.634670
-0.580000,1.980000,0.022892,0.040000,-219758505.532191,-13691650395.113211,18033248181.639446,-42539254310.513222,-0.282498,0.315217,-0.801464
-0.540000,1.980000,0.020029,0.040000,36952658.303733,2182061066.693606,-3790395198.612061,-44159191690.591675,0.050202,-0.062323,-0.831985
-0.500000,1.980000,0.021924,0.040000,285075530.888265,16782398843.665789,-23570904207.902653,-39191679600.549683,0.354560,-0.405720,-0.738394
-0.460000,1.980000,0.022777,0.040000,490506867.572342,29075206700.513557,-40002776403.814140,-28619189560.812145,0.609558,-0.691911,-0.539202
-0.420000,1.980000,0.020018,0.040000,619951311.382625,36083800940.623077,-49310731248.806549,-14070110836.852606,0.754601,-0.854282,-0.265089
-0.380000,1.980000,0.022024,0.040000,658049163.316415,37674704048.841576,-50945309574.900276,1886898878.889036,0.784821,-0.884831,0.035550
-0.340000,1.980000,0.022663,0.040000,601925963.821014,33814672583.305241,-45388091958.043816,16790097698.482395,0.702503,-0.789723,0.316335
-0.300000,1.980000,0.020009,0.040000,462929974.018584,25630941856.975796,-34272128642.422081,28940189536.609528,0.531743,-0.596865,0.545250
-0.260000,1.980000,0.022125,0.040000,261606208.666945,14334817275.200403,-18880061051.010395,36937789752.210297,0.295767,-0.330021,0.695929
-0.220000,1.980000,0.022551,0.040000,24173061.211415,604374563.911435,-408075204.311657,39554493015.087105,0.010277,-0.008798,0.745230
-0.180000,1.980000,0.020003,0.040000,-211761974.486847,-12109663178.274286,16600158468.610071,36671751272.815483,-0.253534,0.287376,0.690917
-0.140000,1.980000,0.022228,0.040000,-416738456.593174,-22889716183.459835,30845419737.348263,29195850347.630898,-0.476223,0.536179,0.550067
-0.100000,1.980000,0.022442,0.040000,-566161153.091727,-31021892330.438122,41602837415.351349,18059529261.909657,-0.644276,0.724016,0.340252
-0.060000,1.980000,0.020000,0.040000,-638105501.778280,-34524800353.388397,46313581677.569839,4543822313.431349,-0.717099,0.805942,0.085608
-0.020000,1.980000,0.022334,0.040000,-625282586.504603,-33535974370.453228,44760668933.930939,-9345279372.940708,-0.695281,0.779873,-0.176070
0.020000,1.980000,0.022334,0.040000,-529846727.409957,-27928866217.466042,37222417061.190254,-21655666238.417156,-0.578725,0.648763,-0.408005
0.060000,1.980000,0.020000,0.040000,-367152247.488465,-19116823548.546947,25551537171.721859,-31089401464.745708,-0.396542,0.445036,-0.585742
0.100000,1.980000,0.022442,0.040000,-157759399.633478,-7875564917.401413,10492195407.737368,-36562050673.343834,-0.163170,0.182889,-0.688850
0.140000,1.980000,0.022228,0.040000,72550009.636398,5114299173.527628,-6872583566.395370,-37033473554.254410,0.106294,-0.119545,-0.697732
0.180000,1.980000,0.020003,0.040000,288384469.352243,16614282460.713154,-22298105684.278645,-32455640668.111076,0.345149,-0.387983,-0.611483
0.220000,1.980000,0.022551,0.040000,463540489.849326,26010761591.751232,-34816975566.616394,-23717356443.820942,0.539832,-0.606198,-0.446849
0.260000,1.980000,0.022125,0.040000,575707469.384131,32350197497.884968,-43422869640.345863,-11755479816.631609,0.672081,-0.755527,-0.221480
0.300000,1.980000,0.020009,0.040000,607338559.136421,34002222130.748314,-45903979092.533730,2117352938.626716,0.707892,-0.797587,0.039892
0.340000,1.980000,0.022663,0.040000,554651339.506076,31024473037.421787,-41902000024.449707,15841863017.330072,0.646001,-0.727976,0.298470
0.380000,1.980000,0.022024,0.040000,423811230.026500,23284154191.294491,-31635495634.084278,27331706828.225250,0.485890,-0.548828,0.514945
0.420000,1.980000,0.020018,0.040000,235644018.699787,12639908556.607473,-17442939914.435753,35163369318.731346,0.265291,-0.301488,0.662498
0.460000,1.980000,0.022777,0.040000,14678875.856452,-168790606.067521,-98260016.501538,38193648544.126900,-0.001671,-0.000342,0.719590
0.500000,1.980000,0.021924,0.040000,-208434321.647958,-13911339819.985708,18649248622.860298,35422638243.956093,-0.288877,0.324583,0.667383
0.540000,1.980000,0.020029,0.040000,-395574470.131116,-25055176577.447002,34114028954.682186,27007131897.491051,-0.523256,0.591526,0.508830
0.580000,1.980000,0.022892,0.040000,-520184929.008929,-32782582391.878647,44857360427.599632,14288586295.708879,-0.685892,0.776890,0.269205
0.620000,1.980000,0.021827,0.040000,-561844569.597310,-35636396844.061935,49215630076.673943,-1080949107.476295,-0.748163,0.850499,-0.020366
0.660000,1.980000,0.020043,0.040000,-511551533.638863,-32647467298.918888,45643888091.372772,-17027337227.801136,-0.688555,0.786499,-0.320805
0.700000,1.980000,0.023010,0.040000,-375491553.567710,-23938200884.627151,33799208451.282825,-30711561521.790695,-0.506746,0.581061,-0.578624
0.740000,1.980000,0.021732,0.040000,-174132678.218784,-10137340964.018456,14849842497.877960,-39299226175.759377,-0.217629,0.253144,-0.740420
0.780000,1.980000,0.020061,0.040000,54204901.903028,5246874745.984571,-6716562540.920861,-41085966145.718063,0.107161,-0.118237,-0.774083
0.820000,1.980000,0.023129,0.040000,271583227.822825,20645469203.232944,-28635656095.738789,-35378622293.970512,0.434135,-0.494350,-0.666554
0.860000,1.980000,0.021640,0.040000,436661878.972894,33169279950.729282,-46966018905.472191,-22293066958.167652,0.702910,-0.806885,-0.420014
0.900000,1.980000,0.020081,0.040000,511864769.883426,38984060093.268417,-56182345615.942131,-3685956754.518025,0.831690,-0.961300,-0.069446
0.940000,1.980000,0.023250,0.040000,480186767.259885,36899416124.058334,-53824602737.249313,16655811247.897551,0.790870,-0.918423,0.313805
0.980000,1.980000,0.021550,0.040000,343855587.477534,26135725386.623276,-39036332949.176094,34265223615.334167,0.565329,-0.662551,0.645577
1.020000,1.980000,0.020103,0.040000,132461744.968433,9309514540.165958,-14800151399.539610,45066001506.593597,0.206431,-0.247809,0.849070
1.060000,1.980000,0.023373,0.040000,-110232471.399978,-11218990317.920750,15633292484.945042,45641875956.889168,-0.236323,0.269590,0.859919
1.100000,1.980000,0.021462,0.040000,-325546923.753962,-30659828564.944378,45286102406.707008,34199200221.699924,-0.660319,0.770546,0.644333
1.140000,1.980000,0.020129,0.040000,-452008617.272779,-42278104249.234962,64205709281.012268,12365621930.067816,-0.920483,1.085734,0.232975
1.180000,1.980000,0.023498,0.040000,-452850211.895219,-42756700071.954987,66178588132.235489,-14453773144.330978,-0.937946,1.114458,-0.272317
1.220000,1.980000,0.021376,0.040000,-320496321.834407,-29967570543.368553,47881286007.634956,-38672395784.294502,-0.665858,0.800860,-0.728610
1.260000,1.980000,0.020158,0.040000,-91409961.368503,-7290209951.718063,12916970904.013697,-52399206225.543472,-0.169155,0.211560,-0.987231
1.300000,1.980000,0.023625,0.040000,168204116.840189,20111924540.476418,-30920298186.295700,-49302700492.286903,0.440011,-0.521466,-0.928891
1.340000,1.980000,0.021292,0.040000,368917759.568245,42635268528.810471,-68614119102.560112,-27555470494.620583,0.950110,-1.145893,-0.519161
1.380000,1.980000,0.020189,0.040000,428963945.867437,49641907063.961662,-82517376137.265396,7139992419.494891,1.121100,-1.368857,0.134522
1.420000,1.980000,0.023753,0.040000,316623523.711689,36485658434.772293,-62520021249.834213,41575303209.437233,0.834562,-1.030763,0.783303
1.460000,1.980000,0.021211,0.040000,67323742.625111,5382696337.711132,-11028822694.216936,59753877885.736359,0.133326,-0.175877,1.125798
1.500000,1.980000,0.020223,0.040000,-209149951.738456,-29753783305.305782,51148659465.782417,50332014329.872314,-0.681506,0.842743,0.948284
1.540000,1.980000,0.023883,0.040000,-381359558.944704,-52861060090.431870,94310177263.697495,13889358818.835829,-1.230211,1.542581,0.261684
1.580000,1.980000,0.021133,0.040000,-346256414.398348,-47799921568.050568,88226729639.582352,-33411493949.102779,-1.129078,1.433743,-0.629492
1.620000,1.980000,0.020260,0.040000,-109270373.582858,-13524378640.519424,25822737415.698326,-63998037261.888733,-0.324320,0.417003,-1.205760
1.660000,1.980000,0.024015,0.040000,197733829.750379,33113429180.343281,-63449869616.372421,-53853707660.170921,0.795343,-1.023965,-1.014635
1.700000,1.980000,0.021057,0.040000,364307398.422120,59274540861.602325,-116728335476.352188,-3281269769.270546,1.441506,-1.874491,-0.061821
1.740000,1.980000,0.020299,0.040000,249136791.033488,39956890425.853149,-79633253342.491257,53030827140.923233,0.977069,-1.276079,0.999132
1.780000,1.980000,0.024148,0.040000,-76252328.695313,-16070436376.358419,35670207146.683067,65109172589.707260,-0.413558,0.561266,1.226695
1.820000,1.980000,0.020983,0.040000,-325346255.974623,-60318299151.994812,129038157061.785477,14457312940.476435,-1.524848,2.042737,0.272384
1.860000,1.980000,0.020342,0.040000,-230712407.760976,-42521689011.073067,87600407796.646759,-51631868945.805542,-1.055926,1.395650,-0.972774
1.900000,1.980000,0.024283,0.040000,128439803.802580,26832722766.057110,-67361915642.344986,-55455111384.609619,0.734622,-1.040059,-1.044806
1.940000,1.980000,0.020912,0.040000,305977061.042848,63217868300.163101,-139950078313.955750,11574040492.536335,1.624765,-2.203037,0.218062
1.980000,1.980000,0.020387,0.040000,28902017.352446,6668463113.472347,1104753230.862926,52855681740.993454,0.081702,-0.023121,0.995832
2.020000,1.980000,0.024420,0.040000,-273013880.611473,-61430274438.998283,140440801973.424469,5284523094.681302,-1.603963,2.199405,0.099563
2.060000,1.980000,0.020843,0.040000,-28762785.362756,-5827001919.277763,3835698761.259227,-36949747009.357109,-0.098529,0.083522,-0.696155
2.100000,1.980000,0.020435,0.040000,250950275.036897,69374058560.009857,-120534261726.198303,-2222841838.063093,1.596214,-1.981769,-0.041880
2.140000,1.980000,0.024558,0.040000,-104448398.180926,-31417593960.106697,54370118875.765839,17654453073.498871,-0.721657,0.894633,0.332620
2.180000,1.980000,0.020777,0.040000,-71264050.521535,-14247338823.909023,42661027517.273964,-7547140946.353138,-0.429027,0.643159,-0.142193
2.220000,1.980000,0.020485,0.040000,160037400.774262,53112839192.814674,-68062512713.644501,-4493494343.925409,1.085175,-1.197839,-0.084660
2.260000,1.980000,0.024698,0.040000,-75146644.408041,-27240388371.595543,28446378580.592422,10652228414.716164,-0.520041,0.529130,0.200694
2.300000,1.980000,0.020713,0.040000,3851851.051397,6557254276.531031,6889982828.082131,1431553714.075512,0.047536,0.053805,0.026971
2.340000,1.980000,0.020538,0.040000,2882976.520083,-2032711463.347645,-6178402464.925165,-3505376057.550486,0.008113,-0.069994,-0.066043
2.380000,1.980000,0.024839,0.040000,-479349.143202,-135526718.851568,325415621.983771,293145644.869719,-0.003627,0.005058,0.005523
2.420000,1.980000,0.020652,0.040000,27498.295750,171281895.210991,213937268.921813,141283863.754839,0.001050,0.001853,0.002662
2.460000,1.980000,0.020594,0.040000,2635.399914,73277312.368463,-20430233.717764,13110885.095217,0.001082,-0.000684,0.000247
2.500000,1.980000,0.005075,0.040000,3141.906560,1696176.018469,8469315.864912,35118267.743172,-0.000026,0.000102,0.000662
